5127158,Buddhism: Critical Concepts in Religious - Volume 4,,,,Paul Williams,2004,1,Routledge,,,0,English,,,0,"0415332303,9780415332309",,,,,,,,,,,0,,,,,1,,,16810636,pdf,429f369625fa14421de95b4ea4368149,,,Paul Williams - Buddhism Critical Concepts in Religious - Vol4,0,2000-01-01 01:00:00,2016-04-03 02:51:08,855000/429f369625fa14421de95b4ea4368149-g.jpg,,
5127156,Cooking with Aristos,,,,Papandroulakis A.,2002,,Random House Australia Pty. Ltd.,Sydney,,0,English,"Домоводство, досуг//Кулинария",,0,1-74051-454-8,,,,,,,,,,,0,1,,,,1,,,70211973,pdf,405608228b67323f327e3a805a982c4b,,,Cooking with Aristos Aristos Papandroulakis,0,2000-01-01 01:00:00,2016-04-03 02:51:08,855000/405608228b67323f327e3a805a982c4b-g.jpg,,
5127157,Out of Step,,,,Frank Chodorov,2007,,Mises Institute,,,0,English,,,0,,,,,,,,,,,,0,,,,,1,,,11075790,pdf,40e03a0299e4d4bdde1f330f75a5e453,,,Out of Step.pdf,0,2000-01-01 01:00:00,2016-04-03 02:51:08,855000/40e03a0299e4d4bdde1f330f75a5e453-d.jpg,,
5127155,The Jewel Treasury of Advice: A Hundred Teachings From the Heart,,,,"Drikung Bhande Dharmaradza, Khenpo Konchong Gyaltshen Rinpoche",1997,,,,,0,English,,,0,",",,,,,,,,,,,0,,,,,1,,,3272159,pdf,3bf04f5637d49227d3087e35cfafbe26,,,Khenpo Konchog Gyaltshen Rinpoche - The Jewel Treasury of Advice,0,2000-01-01 01:00:00,2016-04-03 02:51:08,855000/3bf04f5637d49227d3087e35cfafbe26-d.jpg,,
5127154,Cut Elimination in Categories,,"Trends in Logic, 6",,Kosta Došen,1999,1,"Kluwer, Dordrecht",,,0,English,Математика,,0,0792357205,,,,,,,,,,,0,,1,0,0,1,0,0,865378,djvu,38eb07c55d7c2f9c78c429cd32608583,,,Dosen - Cut Elimination in Categories,0,2000-01-01 01:00:00,2016-04-03 02:51:08,855000/38eb07c55d7c2f9c78c429cd32608583-g.jpg,,
5127153,The Myth Of The Holy Cow,,,,D N Jha,2009,,"Navayana, New Delhi",,,0,English,,,0,978-8189059163,,,,,,,,,,,0,,,,,1,,,9441596,pdf,34521ea70d19b2d71e2afc81a8d56c4e,,,The Myth Of The Holy Cow - DN Jha 2009,0,2000-01-01 01:00:00,2016-04-03 02:51:08,855000/34521ea70d19b2d71e2afc81a8d56c4e-g.jpg,,
5127152,Атлас пресноводных рыб России = Atlas of Russian freshwater fises : [В 2 т.],2,,,"Рос. акад. наук. Ин-т пробл. экологии и эволюции им. А.Н. Северцова [и др.] ; Ю.С. Решетников [и др.] ; Под ред. Ю.С. Решетникова;Решетников, Юрий Степанович;сост.",2003,2. изд.,Наука,М.,,0,Russian,"Биологические науки -- Зоология -- Систематика животных -- Позвоночные -- Рыбы -- Атласы,пресноводные рыбы России",,0,5-02-002873-8,,,59,,,,,,,,0,,,,,1,,,7864503,djvu,32e52013a8c03f65ea24676079d1ddff,,,atlas_presn_ryb_rossii_2003_2,0,2000-01-01 01:00:00,2016-04-03 02:51:08,855000/32e52013a8c03f65ea24676079d1ddff-g.jpg,,
5127151,The Positive Theory of Capital,,,,Eugen von Boehm-Bawerk,2007,,Ludwig von Mises Institute,,,0,English,,,0,9781610160926,,,,,,,,,,,0,,,,,1,,,22358961,pdf,31943e253919023526cd5f99a53e0bdc,,,The Positive Theory of Capital.pdf,0,2000-01-01 01:00:00,2016-04-03 02:51:08,855000/31943e253919023526cd5f99a53e0bdc-d.jpg,,
5127150,Crystal Cave: A Compmendium of Teachings By Masters of the Practice Lineage,,,,"Ward Brisik, Erik Pema Kunsang",1990,1ST,Rangjung Yeshe,,,0,English,,,0,",",,,,,,,,,,,0,,,,,1,,,10419711,pdf,2e25cbb68ee701a439849944d216586b,,,Erik Pema Kunsang - Crystal Cave,0,2000-01-01 01:00:00,2016-04-03 02:51:08,855000/2e25cbb68ee701a439849944d216586b-d.jpg,,
5127149,The Extremely Secret Dakini of Naropa,,,,Pabongkha Dechen Nyingpo,0,,,,,0,English,,,0,"1559393866, 9781559393867",,,,,,,,,,,0,,,,,1,,,14900043,pdf,2a9d2d51a255818c6c0941c26d8e0eea,,,Pabongkha Dechen Nyingpo - The Extremely Secret Dakini of Naropa,0,2000-01-01 01:00:00,2016-04-03 02:51:08,855000/2a9d2d51a255818c6c0941c26d8e0eea-g.jpg,,
5127148,Tomorrow's China,,,,Anna Louise Strong,1948,"1st Edition, 2nd Printing",Committee for a Democratic Far Eastern Policy,,,0,English,,,0,",",,,,,,,,,,,0,,,,,1,,,11083138,pdf,2a84b04d606ee75a4159108dcc5d0b64,,,"Tomorrow__039;s China. . Strong, Anna Louise, 1885-1970.",0,2000-01-01 01:00:00,2016-04-03 02:51:08,855000/2a84b04d606ee75a4159108dcc5d0b64-g.jpg,,
5127146,Ocean of Attainment,,,,Kalu Rinpoche,0,,,,,0,English,,,0,,,,,,,,,,,,0,,,,,1,,,20982632,pdf,247ebaf3af934016fc40c47015cfa234,,,Kalu Rinpoche - Ocean of Attainment,0,2000-01-01 01:00:00,2016-04-03 02:51:08,855000/247ebaf3af934016fc40c47015cfa234-g.jpg,,
5127147,Principles of Tibetan art: illustrations and explanations of Buddhist iconography and iconometry according to the Karma Gardri school - Volume 2,,,,Gega Lama,1983,,Jamyang Singe,,,0,English,,,0,",",,,,,,,,,,,0,,,,,1,,,15158107,pdf,2955d2fa61cb9c1a256033e7c46667c2,,,Gega Lama - Principles of Tibetan Art - Volume 2,0,2000-01-01 01:00:00,2016-04-03 02:51:08,855000/2955d2fa61cb9c1a256033e7c46667c2-g.jpg,,
5127145,Treasury of Esoteric Instructions,,,,Lama Dampa Sonam Gyaltsen,0,,,,,0,English,,,0,"1559393378, 9781559393379",,,,,,,,,,,0,,,,,1,,,21324100,pdf,1e3036eb39ce6e5ccde92c9f4d4eca52,,,Lama Dampa Sonam Gyaltsen - Treasury of Esoteric Instructions,0,2000-01-01 01:00:00,2016-04-03 02:51:08,855000/1e3036eb39ce6e5ccde92c9f4d4eca52-g.jpg,,
5127144,Трематоды птиц фауны СССР: эколого-географический обзор,,,,"Быховская-Павловская, И.Е.",1962,,Изд-во Академии наук СССР,,,0,Russian,,,0,,,,,,,62065608,,dRZDAAAAYAAJ,,,0,,,,,1,,,5182874,djvu,1db8246cdf5d8a25f9ccccdffa8a3982,,,bykhovskaja-pavlovskaja1962_trematody_ptits_fauny_sssr,0,2000-01-01 01:00:00,2016-04-03 02:51:08,,,
5127143,The White Annals,,,,Gedun Choephel,1978,First Edition,Library of Tibetan Works & Archives,,,0,English,,,0,",",,,,,,,,,,,0,,,,,1,,,3986367,pdf,1500a64bb908364b77c542ede687014c,,,Gedun Choephel - The White Annals,0,2000-01-01 01:00:00,2016-04-03 02:51:08,855000/1500a64bb908364b77c542ede687014c-g.jpg,,
5127142,A Pleasure Grove Where Satisfaction Arises for the Intelligent,,,,Jamgon Ameshap Ngawang Sonam,0,,,,,0,English,,,0,"1559393386, 9781559393386",,,,,,,,,,,0,,,,,1,,,1896951,pdf,1118f8074258ade774ea91facd0bf7ed,,,Jamgon Ameshap Ngawang Sonam - A Pleasure Grove Where Satisfaction Arises for the Intelligent,0,2000-01-01 01:00:00,2016-04-03 02:51:08,855000/1118f8074258ade774ea91facd0bf7ed-g.jpg,,
5127141,The Practice of Sinhamuka,,,,Chogyal Namkhai Norbu,0,,Shang Shung Edizioni,,,0,English,,,0,,,,,,,,,,,,0,,,,,1,,,697062,pdf,11137c2c38dfa1a786cde903c6f16701,,,Chogyal Namkhai Norbu - The Practice of Sinhamuka,0,2000-01-01 01:00:00,2016-04-03 02:51:08,855000/11137c2c38dfa1a786cde903c6f16701-g.jpg,,
5127140,Математика. 3 класс.,часть 1,,,Людмила Петерсон,0,,,,,0,Russian,,,0,,,,,,,,,,,,0,,,,,1,,,59396091,pdf,104cbad5fdc04ecc4751405f0cab487e,,,Петерсон_3_класс_ч1,0,2000-01-01 01:00:00,2016-04-03 02:51:08,855000/104cbad5fdc04ecc4751405f0cab487e-d.jpg,,
5127139,The medical department: medical service in the European theater of operations,,United States Army in World War II,,"Cosmas, G.A. and Cowdrey, A.E. and Center of Military History",1991,,"Center of Military History, United States Army",,,0,English,,,0,,,,,,,90002452,,rJmmnRCr2TsC,,,0,,,,,1,,,32240012,pdf,0d7f7580223d66d8577eca8bcb7841aa,,,"The Med Dept - Med Svc in the European Theater - G. Cosmas, et al., (US Army Ctr of Mil Hist, 1991) WW",0,2000-01-01 01:00:00,2016-04-03 02:51:08,855000/0d7f7580223d66d8577eca8bcb7841aa-g.jpg,,
5127138,Memories of the Ancient Mediterranean,I,,,Maria Regina Candido (org),2010,,NEA/UERJ,R,,0,Portuguese,,,0,978-85060538-05-8,,,,,,,,,,,0,,,,,1,,,15378703,pdf,0ce3c0041d6185fa1cc627c3d2d3da85,,,Memories of the Ancient Mediterranean,0,2000-01-01 01:00:00,2016-04-03 02:51:08,855000/0ce3c0041d6185fa1cc627c3d2d3da85-g.jpg,,
5127137,Light of Wisdom - Volume IV,,,,Padmasambhava,0,,,,,0,English,,,0,"9627341436,",,,,,,,,,,,0,,,,,1,,,6986359,pdf,09c69cfc10815e1be972919da3ca0642,,,Padmasambhava - Light of Wisdom - Vol IV,0,2000-01-01 01:00:00,2016-04-03 02:51:08,855000/09c69cfc10815e1be972919da3ca0642-g.jpg,,
5127136,History of Tibet - Volume 2,,,,Alex McKay,0,,Routledge,,,0,English,,,0,"0415308437,9780415308434",,,,,,,,,,,0,,,,,1,,,54623426,pdf,088b5806cfcb346c059bac89797f76f9,,,Alex McKay - The History of Tibet - Vol2,0,2000-01-01 01:00:00,2016-04-03 02:51:08,855000/088b5806cfcb346c059bac89797f76f9-g.jpg,,
5127135,Buddhism: Critical Concepts in Religious - Volume 3,,,,Paul Williams,2004,1,Routledge,,,0,English,,,0,"041533229X,9780415332293",,,,,,,,,,,0,,,,,1,,,20509147,pdf,049e966e687c0724438fbbdf32a9e562,,,Paul Williams - Buddhism Critical Concepts in Religious - Vol3,0,2000-01-01 01:00:00,2016-04-03 02:51:08,855000/049e966e687c0724438fbbdf32a9e562-g.jpg,,
5127134,Taking Happiness and Suffering to the Path,,,,Terton Pegyal Lingpa,1988,,Thekchog Choling,,,0,English,,,0,",",,,,,,,,,,,0,,,,,1,,,792300,pdf,0376ca2d10f55ee3c16612271112e108,,,Terton Pegyal Lingpa - Taking Happiness and Suffering Along the Path and Twenty-One Encouragements to Be Earnest,0,2000-01-01 01:00:00,2016-04-03 02:51:08,855000/0376ca2d10f55ee3c16612271112e108-g.jpg,,
5127133,Death of Labour Law?: Comparative Perspectives,,,,Martin Vranken,2009,,Melbourne University Press,,,0,English,,,0,"0522856306,9780522856309",,,,,,,,,,,0,,,,,1,,,4272907,pdf,00f9b3523e720de48788c2a238646dd0,,,Death of Labour Law_Comparative Perspectives,0,2000-01-01 01:00:00,2016-04-03 02:51:08,855000/00f9b3523e720de48788c2a238646dd0-d.jpg,,
5127132,Англо-русские термины по геологоразведочным работам.,,Тетради новых терминов Выпуск 166,,Составитель Г.И.Тотюкин. Под редакцией А.В.Панкова. Ответственный редактор И.И.Убин.,1990,,Всесоюзный центр переводов,М.,,0,Russian,,,,,,,,,,,,,,"Scan, Formatting: niccolo, 2012",0,,1,,1,1,,1,3526376,pdf,ffd6e3c760372cad0a0ee396f11b988f,,,D:\\Тетради новых терминов\\Выпуск 166 - Англо-русские термины по геологоразведочным работам (сост. Тютюкин Г.И.) (Тетради новых терминов) - 1990.pdf,0,2000-01-01 01:00:00,2016-04-03 02:51:08,854000/ffd6e3c760372cad0a0ee396f11b988f-g.jpg,,
5127131,The Economics of Inflation: A Study of Currency Depreciation in Post-War Germany,,,,Costantino Bresciani-Turroni,2007,,Ludwig von Mises Institute,,,0,English,,,0,,,,,,,,,,,,0,,,,,1,,,21123400,pdf,ff91d9c6930d9d338cb7e91eae57d434,,,The Economics of Inflation A Study of Currency Depreciation in Post-War Germany.pdf,0,2000-01-01 01:00:00,2016-04-03 02:51:08,854000/ff91d9c6930d9d338cb7e91eae57d434-d.jpg,,
5127129,Planetary Systems and the Origins of Life,,Cambridge Astrobiology,,"Pudritz, R.E. and Higgs, P. and Stone, J.R.",2007,,Cambridge University Press,,,0,English,,,0,9780521875486,,,,,,2008271016,,gFhEtQjQqCUC,,,0,,,,,1,,,4812007,pdf,fc66839a298ec9362fa37f10493d678e,,,"Planetary Systems and the Origins of Life - R. Pudritz, et al., (Cambridge, 2007) WW",0,2000-01-01 01:00:00,2016-04-03 02:51:08,,,
5127130,Новейшее землеописание всех четырех частей света,часть 2,,,М. Антоновский,1795,,,,,0,Russian Old,,,0,,,,,,,,,,,,0,,,,,1,,,28673985,pdf,fe5dfb0708f12b1553e0094fa6664108,,,Mikhail.Antonovskijj.Novejjshee.zemleopisanie.vsekh.chetyrekh.chastejj.sveta.1795.Chast.2.Statisticheskoe.opisanie.Rossijjskojj.Imperіi,0,2000-01-01 01:00:00,2016-04-03 02:51:08,854000/fe5dfb0708f12b1553e0094fa6664108-g.jpg,,
5127128,Money and Man: A survey of monetary experience,,,,Elgin Groseclose,1934,4,University of Oklahoma Press,"Norman, Oklahoma",,0,English,,,0,"0806113383,0806113391",,,,,,,,,,,0,,,,,1,,,14929103,pdf,f95cdacab1448fd529501506254f4b3c,,,Money and Man.pdf,0,2000-01-01 01:00:00,2016-04-03 02:51:08,854000/f95cdacab1448fd529501506254f4b3c-g.jpg,,
5127127,Англо-русские термины по сточным водам.,,Тетради новых терминов Выпуск 004,,"Составители И.П.Смирнов, Н.К.Слепова, М.Ф.Шиллер. Ответственный редактор И.П.Смирнов.",1973,,Всероссийский центр переводов,М.,,0,Russian,,,,,,,,,,,,,,"Scan: AAW, Formatting: Dmitry7, 2012",0,,1,,1,1,,1,8575290,pdf,f8f7871fa9ce67d75dfda8caeb596dda,,,"D:\\Тетради новых терминов\\Выпуск 004 - Англо-Русские термины по сточным водам (cост. Смирнов И.П., Слепова Н.К., Шиллер М.Ф.) (Тетради новых терминов) - 1973.pdf",0,2000-01-01 01:00:00,2016-04-03 02:51:08,854000/f8f7871fa9ce67d75dfda8caeb596dda-g.jpg,,
5127126,Теория механизмов и машин. Терминология. Буквенные обозначения величин.,,Сборник рекомендуемых терминов Выпуск 099,,Ответственный редактор Н.И.Левитский.,1984,,Наука,М.,,0,Russian,,,,,,,,,,,,,,"Scan, Djvuing, OCR: Dmitry7, 2011-12",0,,1,,1,1,,1,521938,djvu,f7aa6f6c743153c16ab3d8ec7d2a978b,,,"D:\\Сборники научно-нормативной терминологии\\Выпуск 099 - Теория механизмов и машин - Терминология, Буквенные обозначения величин (1984).djvu",0,2000-01-01 01:00:00,2016-04-03 02:51:08,854000/f7aa6f6c743153c16ab3d8ec7d2a978b-g.jpg,,
5127125,Терминология строительной механики.,,Сборник рекомендуемых терминов Выпуск 005,,Ответственный редактор А.М.Терпигорев.,1952,,Издательство Академии наук СССР,М.-Л.,,0,Russian,,,,,,,,,,,,,,"Scan: AAW, Djvuing, OCR: Dmitry7, 2011",0,,1,,1,1,,1,342983,djvu,f7a5e65310c252a10131c19e41130da3,,,D:\\Сборники научно-нормативной терминологии\\Выпуск 005 - Терминология горного дела - Горные работы и элементы систем разработки твердых полезных ископаемых (1952).djvu,0,2000-01-01 01:00:00,2016-04-03 02:51:08,854000/f7a5e65310c252a10131c19e41130da3-g.jpg,,
5127124,"Энергетические системы. Общие понятия. Режимы, процессы и параметры режимов энергетических систем. Управление энергетическими системами. Графики нагрузок и экономичность энергетических систем. Терминология.",,Сборник рекомендуемых терминов Выпуск 081,,Ответственный редактор выпуска В.А.Веников.,1970,,Наука,М.,,0,Russian,,,,,,,,,,,,,,"Scan, Djvuing, OCR: Dmitry7, 2011-12",0,,1,,1,1,,1,1327202,djvu,f6eb35698f25c3c28b03ca91deab63e4,,,D:\\Сборники научно-нормативной терминологии\\Выпуск 081 - Энергетические системы - Терминология (1970).djvu,0,2000-01-01 01:00:00,2016-04-03 02:51:08,854000/f6eb35698f25c3c28b03ca91deab63e4-g.jpg,,
5127123,Терминология топлива для двигателей внутреннего сгорания.,,Сборник рекомендуемых терминов Выпуск 044,,Ответственный редактор выпуска С.Р.Сергиенко.,1957,,Издательство Академии наук СССР,М.,,0,Russian,,,,,,,,,,,,,,"Scan: AAW, Djvuing, OCR: Dmitry7, 2011",0,,1,,1,1,,1,570023,djvu,f6d94371e202c6e93a11ebd475285bf5,,,D:\\Сборники научно-нормативной терминологии\\Выпуск 044 - Терминология топлива для двигателей внутреннего сгорания (1957).djvu,0,2000-01-01 01:00:00,2016-04-03 02:51:08,854000/f6d94371e202c6e93a11ebd475285bf5-g.jpg,,
5127122,Французско-русские термины по экономике.,,Тетради новых терминов Выпуск 015,,"Составители И.И.Литвина, Ф.Р.Окунева. Под редакцией П.В.Юркова.",1977,,Всесоюзный центр переводов,М.,,0,Russian,,,,,,,,,,,,,,"Scan, Formatting: niccolo, 2012",0,,1,,1,1,,1,10604827,pdf,f639a188e63b9e6cea2c405ffd17ca4d,,,"D:\\Тетради новых терминов\\Выпуск 015 - Французско-русские термины по экономике (сост. Литвина И.И., Окунева Ф.Р.) (Тетради новых терминов) - 1977.pdf",0,2000-01-01 01:00:00,2016-04-03 02:51:08,854000/f639a188e63b9e6cea2c405ffd17ca4d-g.jpg,,
5127121,Краткие формы научно-технических терминов,,Сборник рекомендуемых терминов ,,Лотте Д.С.,1971,,,,,0,Russian,,,,,,,,,,,,,,,0,,1,,1,1,,1,2985974,djvu,f61fc53101477a1df28ff2db47bc3dcd,,,D:\\Сборники научно-нормативной терминологии\\Лотте Д.С. - Краткие формы научно-технических терминов - 1971.djvu,0,2000-01-01 01:00:00,2016-04-03 02:51:08,854000/f61fc53101477a1df28ff2db47bc3dcd-g.jpg,,
5127120,Новое и полное собрание российских песен,часть 2,,,М. Чулков,1780,,,,,0,Russian Old,,,0,,,,,,,,,,,,0,,,,,1,,,16734139,pdf,f4f1077607c47f16675034a9368a132f,,,Mikhail.Chulkov.Novoe.i.polnoe.sobranie.rossijjskikh.pesen.1780.Chast.2,0,2000-01-01 01:00:00,2016-04-03 02:51:08,854000/f4f1077607c47f16675034a9368a132f-g.jpg,,
5127119,Словарь Академии Российской. от М до Р,часть 4,,,,1793,,,,,0,Russian Old,,,0,,,,,,,,,,,,0,,,,,1,,,47496959,djvu,f200422b2cf0c0cb3a903528129960a1,,,Slovar.Akademii.Rossijjskojj.1793.Chast.IV.ot.M.do.R,0,2000-01-01 01:00:00,2016-04-03 02:51:08,854000/f200422b2cf0c0cb3a903528129960a1-g.jpg,,
5127118,Термодинамика. Основные понятия. Терминология. Буквенные обозначения величин.,,Сборник рекомендуемых терминов Выпуск 103,,Ответственный редактор выпуска И.И.Новиков.,1984,,Наука,М.,,0,Russian,,,,,,,,,,,,,,"Scan: AAW, Djvuing, OCR: Dmitry7, 2012",0,,1,,1,1,,1,621617,djvu,f0dd1e2241dfa869dadaffd4614905ac,,,"D:\\Сборники научно-нормативной терминологии\\Выпуск 103 - Термодинамика - Основные понятия, терминология, буквенные обозначения величин (1984) 1.djvu",0,2000-01-01 01:00:00,2016-04-03 02:51:08,854000/f0dd1e2241dfa869dadaffd4614905ac-g.jpg,,
5127117,Back Door to War: Roosevelt foreign policy 1933-1941,,,,Charles Callan Tansill,1971,1,Regnery,,,0,English,,,0,0837279904,,,,,,,,,,,0,,,,,1,,,35540246,pdf,f09f5589ab09dabebf48acfdb97012a5,,,Back Door to War The Roosevelt Foreign Policy 1933-1941.pdf,0,2000-01-01 01:00:00,2016-04-03 02:51:08,854000/f09f5589ab09dabebf48acfdb97012a5-g.jpg,,
5127116,Лопастные насосы центробежные и осевые: Терминология и буквенные обозначения.,,Сборник рекомендуемых терминов Выпуск 056,,Ответственный редактор выпуска Я.Л.Некрасов.,1961,,Издательство Академии наук СССР,М.,,0,Russian,,,,,,,,,,,,,,"Scan: AAW, Djvuing, OCR: Dmitry7, 2011",0,,1,,1,1,,1,566123,djvu,ee7d87895909eaa073c442a032798ae2,,,D:\\Сборники научно-нормативной терминологии\\Выпуск 056 - Лопастные насосы - Центробежные и осевые - Терминология и буквенные обозначения (1961).djvu,0,2000-01-01 01:00:00,2016-04-03 02:51:08,854000/ee7d87895909eaa073c442a032798ae2-g.jpg,,
5127115,Терминология горного дела. Горные работы и элементы систем разработки твердых полезных ископаемых.,,Сборник рекомендуемых терминов Выпуск 005a,,Ответственный редактор А.М.Терпигорев.,1947,,Издательство Академии наук СССР,М.,,0,Russian,,,,,,,,,,,,,,"Scan, Djvuing, OCR: Dmitry7, 2011",0,,1,,1,1,,1,1272095,djvu,ecbf9b2a0011d88cfe2f6a2c7ab28a08,,,D:\\Сборники научно-нормативной терминологии\\Выпуск 005a - Терминология строительной механики (1947).djvu,0,2000-01-01 01:00:00,2016-04-03 02:51:08,854000/ecbf9b2a0011d88cfe2f6a2c7ab28a08-g.jpg,,
5127114,History of Monetary and Credit Theory,,,,Charles Rist,1966,,Augustus M. Kelley Publishers,New York,,0,English,,,0,,,,,,,,,,,,0,,,,,1,,,32153429,pdf,ec4dd6cbc8813f67349bb630925e704c,,,History of Monetary and Credit Theory.pdf,0,2000-01-01 01:00:00,2016-04-03 02:51:08,854000/ec4dd6cbc8813f67349bb630925e704c-g.jpg,,
5127113,Bank Credit: A Study of the Principles and Factors Underlying Advances Made by Banks To Borrowers,,,,Chester A. Phillips,1931,,MacMillan Company,New York,,0,English,,,0,,,,,,,,,,,,0,,,,,1,,,14680296,pdf,ebbe0199689dbf54aeeeda8f98499431,,,Bank Credit A Study of the Principles and Factors Underlying Advances Made by Banks To Borrowers.pdf,0,2000-01-01 01:00:00,2016-04-03 02:51:08,854000/ebbe0199689dbf54aeeeda8f98499431-g.jpg,,
5127112,Гидромеханика. Волновое движение жидкости. Строительная механика. Терминология.,,Сборник рекомендуемых терминов Выпуск 058,,Ответственный редактор выпуска И.Я.Артоболевский.,1962,,Издательство Академии наук СССР,М.,,0,Russian,,,,,,,,,,,,,,"Scan: AAW, Djvuing, OCR: Dmitry7, 2012",0,,1,,1,1,,1,1993175,djvu,eaffe34be2c00505e485c86a59aade59,,,"D:\\Сборники научно-нормативной терминологии\\Выпуск 058 - Гидромеханика, Волновое движение жидкости, Строительная механика - Терминология (1962).djvu",0,2000-01-01 01:00:00,2016-04-03 02:51:08,854000/eaffe34be2c00505e485c86a59aade59-g.jpg,,
5127111,Терминология деталей машин. Муфты.,,Сборник рекомендуемых терминов Выпуск 045,,Ответственный редактор выпуска Б.А.Иванов.,1958,,Издательство Академии наук СССР,М.,,0,Russian,,,,,,,,,,,,,,"Scan, Djvuing, OCR: Dmitry7, 2011",0,,1,,1,1,,1,457768,djvu,eab3110ab320eb67d626a0a6ee1bc8c4,,,D:\\Сборники научно-нормативной терминологии\\Выпуск 045 - Терминология деталей машин - Муфты (1958).djvu,0,2000-01-01 01:00:00,2016-04-03 02:51:08,854000/eab3110ab320eb67d626a0a6ee1bc8c4-g.jpg,,
5127109,Описание земли Камчатки,Том 2,,,С. Крашенников,1755,,,,,0,Russian Old,,,0,,,,,,,,,,,,0,,,,,1,,,38219307,pdf,e8ca678335ca7de3b1b8512da948d025,,,Stepan.Krasheninnikov.Opisanie.zemli.Kamchatki.1755.Tom.2,0,2000-01-01 01:00:00,2016-04-03 02:51:08,854000/e8ca678335ca7de3b1b8512da948d025-g.jpg,,
5127110,Англо-русские термины по получению искусственных горючих газов.,,Тетради новых терминов Выпуск 034,,"Составители: А.Д.Давыдов, М.М.Мельникова. Под редакцией В.В.Лосева. Ответственный редактор И.П.Смирнов.",1981,,Всесоюзный центр переводов,М.,,0,Russian,,,,,,,,,,,,,,"Scan, Formatting: niccolo, 2012",0,,1,,1,1,,1,12211035,pdf,e8e593f7938422f6c98fc8d97e0ee063,,,"D:\\Тетради новых терминов\\Выпуск 034 - Англо-русские термины по электрохимической обработке металлов (сост. Давыдов А.Д., Мельникова М.М.) (Тетради новых терминов) - 1981.pdf",0,2000-01-01 01:00:00,2016-04-03 02:51:08,854000/e8e593f7938422f6c98fc8d97e0ee063-g.jpg,,
5127107,Socialism and International Economic Order,,,,Elizabeth Tamedly,2007,,Ludwig von Mises Institute,,,0,English,,,0,"1610160444,9781610160445",,,,,,,,,,,0,,,,,1,,,18130577,pdf,e6f5299720d9b9327ebdf9a67212f1f6,,,Socialism and International Economic Order.pdf,0,2000-01-01 01:00:00,2016-04-03 02:51:08,854000/e6f5299720d9b9327ebdf9a67212f1f6-d.jpg,,
5127108,Англо-русские теплины по подводному бурению.,,Тетради новых терминов Выпуск 011,,"Составители А.О.Курганов, Э.О.Курганов, Ю.А.Агагусейнов. Под редакцией А.А.Мовоумова, Д.Е.Столярова.",1976,,Всесоюзный центр переводов,М.,,0,Russian,,,,,,,,,,,,,,"Scan, Formatting: niccolo, 2012",0,,1,,1,1,,1,695340,pdf,e750ca3c0da424570ad72645ef23ed8a,,,"D:\\Тетради новых терминов\\Выпуск 011 - Англо-русские термины по подводному бурению (сост. Курбанов А.О., Курбанов Э.О., Агагусейнов Ю.А.) (Тетради новых терминов) - 1976 (2).pdf",0,2000-01-01 01:00:00,2016-04-03 02:51:08,854000/e750ca3c0da424570ad72645ef23ed8a-g.jpg,,
5127106,Англо-русские термины по акустике.,,Тетради новых терминов Выпуск 052,,"Составители: Б.М.Лапинский, Л.М.Зозуля, С.Г.Кияк, А.М.Пеленская, А.Л.Шайкевич. Под редакцией Г.В.Пляцко. Ответственный редактор И.И.Убин.",1983,,Всесоюзный центр переводов,М.,,0,Russian,,,,,,,,,,,,,,"Scan, Formatting: niccolo, 2012",0,,1,,1,1,,1,6818786,pdf,e52deaa9bd6bb58fc743336b3ac3f594,,,D:\\Тетради новых терминов\\Выпуск 052 - Англо-русские термины по акустике (сост. Лапинский Б.М. и др) (Тетради новых терминов) - 1983.pdf,0,2000-01-01 01:00:00,2016-04-03 02:51:08,854000/e52deaa9bd6bb58fc743336b3ac3f594-g.jpg,,
5127105,Jefferson,,,,Albert Jay Nock,2007,,Mises Institute,,,0,English,,,0,9781610160360,,,,,,,,,,,0,,,,,1,,,13868704,pdf,e47baf4b408e94e60c7a13b525c30ad3,,,Jefferson.pdf,0,2000-01-01 01:00:00,2016-04-03 02:51:08,854000/e47baf4b408e94e60c7a13b525c30ad3-d.jpg,,
5127103,Free Market Economics: A Syllabus,,,,Bettina Bien Greaves,2007,,Ludwig von Mises Institute,,,0,English,,,0,",",,,,,,,,,,,0,,,,,1,,,23881981,pdf,e348b89730f2898ab5a4e25ccd7aa55d,,,Free Market Economics A Syllabus.pdf,0,2000-01-01 01:00:00,2016-04-03 02:51:08,854000/e348b89730f2898ab5a4e25ccd7aa55d-d.jpg,,
5127104,Обработка металлов давлением. Волочение. Терминология.,,Сборник рекомендуемых терминов Выпуск 061,,Ответственный редактор И.Л.Перлин.,1962,,Издательство Академии наук СССР,М.,,0,Russian,,,,,,,,,,,,,,"Scan, Djvuing, OCR: Dmitry7, 2012",0,,1,,1,1,,1,565862,djvu,e444782e5528c09ad9f65e9c73467659,,,D:\\Сборники научно-нормативной терминологии\\Выпуск 061 - Обработка металлов давлением - Волочение - Терминология (1962).djvu,0,2000-01-01 01:00:00,2016-04-03 02:51:08,854000/e444782e5528c09ad9f65e9c73467659-g.jpg,,
5127102,Терминология авиационных силовых установок.,,Сборник рекомендуемых терминов Выпуск 023,,Ответственный редактор А.М.Терпигорев.,1954,,Издательство Академии наук СССР,М.,,0,Russian,,,,,,,,,,,,,,"Scan: AAW, Djvuing, OCR: Dmitry7, 2011",0,,1,,1,1,,1,337752,djvu,e2f5f787d902470553d62baef3a5365a,,,D:\\Сборники научно-нормативной терминологии\\Выпуск 023 - Терминология авиационных силовых установок (1954).djvu,0,2000-01-01 01:00:00,2016-04-03 02:51:08,854000/e2f5f787d902470553d62baef3a5365a-g.jpg,,
5127101,Англо-русские термины по системам распознавания образов.,,Тетради новых терминов Выпуск 109,,Составитель Р.Н.Зуев. Под редакцией Г.В.Толкачева. Ответственный редактор И.И.Убин.,1987,,Всесоюзный центр переводов,М.,,0,Russian,,,,,,,,,,,,,,"Scan, Formatting: niccolo, 2012",0,,1,,1,1,,1,6061150,pdf,e2c8cc7fa6627cc9e241218ac4f38d9f,,,D:\\Тетради новых терминов\\Выпуск 109 - Англо-русские термины по репрографии (сост. Зуев Р.Н.) (Тетради новых терминов) - 1987.pdf,0,2000-01-01 01:00:00,2016-04-03 02:51:08,854000/e2c8cc7fa6627cc9e241218ac4f38d9f-g.jpg,,
5127100,Терминология систем разработки месторождений твердых полезных ископаемых подземным способом.,,Сборник рекомендуемых терминов Выпуск 051,,Ответственный редактор выпуска Л.Д.Шевяков.,1959,,Издательство Академии наук СССР,М.,,0,Russian,,,,,,,,,,,,,,"Scan, Djvuing, OCR: Dmitry7, 2012",0,,1,,1,1,,1,313005,djvu,e2879702899ba379e4c9e255537de979,,,D:\\Сборники научно-нормативной терминологии\\Выпуск 051 - Терминология систем разработки месторождений твердых полезных ископаемых подземным способом (1959).djvu,0,2000-01-01 01:00:00,2016-04-03 02:51:08,854000/e2879702899ba379e4c9e255537de979-g.jpg,,
5127099,Lu Xun: A Chinese Writer for All Times,,,,Ruth F. Weiss,1985,,New World Press,Beijing,,0,English,Литература//Литературоведение,,0,,,,,,,,,,,,0,,,,,1,,,36003747,pdf,e21eedb5ed418f6caf70bebb0083c8a5,,,lu xun a chinese writer for all times,0,2000-01-01 01:00:00,2016-04-03 02:51:08,854000/e21eedb5ed418f6caf70bebb0083c8a5-g.jpg,,
5127098,Полное собрание сочинений М.В. Ломоносова,часть 1,,,,1803,,,,,0,Russian Old,,,0,,,,,,,,,,,,0,,,,,1,,,26013351,pdf,e1452c292441d89b741bc737d27703da,,,Mikhail.Lomonosov.Polnoe.sobranie.sochinenijj.Mikhaila.Vasilevicha.Lomonosova.1803.Chast.1,0,2000-01-01 01:00:00,2016-04-03 02:51:08,854000/e1452c292441d89b741bc737d27703da-g.jpg,,
5127097,Англо-русские общетехнические термины.,,Тетради новых терминов Выпуск 116,,Составитель А.Л.Семенов. Под редакцией А.Я.Шайкевича. Ответственный редактор И.И.Убин.,1987,,Всесоюзный центр переводов,М.,,0,Russian,,,,,,,,,,,,,,"Scan, Formatting: niccolo, 2012",0,,1,,1,1,,1,3028140,pdf,e0b30ececa4088ffe11d79276430c925,,,D:\\Тетради новых терминов\\Выпуск 116 - Англо-русские общетехнические термины (сост. Семенов А.Л.) (Тетради новых терминов) - 1987.pdf,0,2000-01-01 01:00:00,2016-04-03 02:51:08,854000/e0b30ececa4088ffe11d79276430c925-g.jpg,,
5127096,Итальянско-русские термины по электрооборудованию и электроэнергетическим системам.,,Тетради новых терминов Выпуск 192,,Составитель А.И.Гершенгорн. Ответственный редактор И.И.Убин.,1993,,Всероссийский центр переводов,М.,,0,Russian,,,,,,,,,,,,,,"Scan: AAW, Formatting: Dmitry7, niccolo, 2012",0,,1,,1,1,,1,4010066,djvu,df7fbaba68dcfe75ecbdc250c57bca56,,,D:\\Тетради новых терминов\\Выпуск 192 - Итальянско-русские термины по электрооборудованию и электроэнергетическим системам (сост. Гершенгорн А.И.) (Тетради новых терминов) - 1993.djvu,0,2000-01-01 01:00:00,2016-04-03 02:51:08,854000/df7fbaba68dcfe75ecbdc250c57bca56-g.jpg,,
5127095,Seraphina,,,,Rachel Hartman,2012,,Random House Children's Books,,,0,English,,,0,9781448119417,,,,,,,,uAeVOkWS2U0C,,,0,,,,,0,,0,1866104,pdf,de2e6efbce6787c051c90d7c853f1f5c,,,Seraphina,0,2000-01-01 01:00:00,2016-04-03 02:51:08,,,
5127094,Англо-русские термины по гироскопическим приборам.,,Тетради новых терминов Выпуск 054,,Составитель С.Н.Карпенко. Под редакцией Ю.В.Ходырева. Ответственный редактор И.И.Убин.,1983,,Всесоюзный центр переводов,М.,,0,Russian,,,,,,,,,,,,,,"Scan: AAW, Formatting: Dmitry7, niccolo, 2012",0,,1,,1,1,,1,6082764,djvu,dde811b6a77df62a13271cd84f7f95e3,,,D:\\Тетради новых терминов\\Выпуск 054 - Англо-русские термины по гироскопическим приборам (сост. Карпенко С.М.) (Тетради новых терминов) - 1983.djvu,0,2000-01-01 01:00:00,2016-04-03 02:51:08,854000/dde811b6a77df62a13271cd84f7f95e3-g.jpg,,
5127093,La verídica historia de A Q,,,,Lu Xun,0,,,,,0,Spanish,Литература//Литературоведение,,0,,,,,,,,,,,,0,,,,,1,,,242413,pdf,ddafd2ed33c9e1a551b5d40e0ba988b5,,,"XUN, LU - La veridica historia de A Q",0,2000-01-01 01:00:00,2016-04-03 02:51:08,854000/ddafd2ed33c9e1a551b5d40e0ba988b5-g.jpg,,
5127092,Англо-русские термины по химии и технологии высокомолекулярных соединений.,,Тетради новых терминов Выпуск 082,,"Составители Т.Г.Мурзабекова, Г.М.Черкасова. Под редакцией В.М.Фролова. Ответственный редактор И.И.Убин.",1985,,Всесоюзный центр переводов,М.,,0,Russian,,,,,,,,,,,,,,"Scan, Formatting: niccolo, 2012",0,,1,,1,1,,1,6476831,pdf,dd1095be3b5363e9773cfcaa8a27fd3d,,,"D:\\Тетради новых терминов\\Выпуск 082 - Англо-русские термины по химии и технологии высокомолекулярных соединений (сост. Мурзабекова Т.Г., Черкасова Г.М.) (Тетради новых терминов) - 1985.pdf",0,2000-01-01 01:00:00,2016-04-03 02:51:08,854000/dd1095be3b5363e9773cfcaa8a27fd3d-g.jpg,,
5127091,Терминология горного дела. Горные крепи. Часть 1.,,Сборник рекомендуемых терминов Выпуск 009,,Ответственный редактор А.М.Терпигорев.,1952,,Издательство Академии наук СССР,М.,,0,Russian,,,,,,,,,,,,,,"Scan: AAW, Djvuing, OCR: Dmitry7, 2011",0,,1,,1,1,,1,346640,djvu,dd034e880b4ab6ee4d0906e21b80bf2a,,,D:\\Сборники научно-нормативной терминологии\\Выпуск 009 - Терминология горного дела - Горные крепи - Часть 1 (1952).djvu,0,2000-01-01 01:00:00,2016-04-03 02:51:08,854000/dd034e880b4ab6ee4d0906e21b80bf2a-g.jpg,,
5127090,Физика магнетизма и магнитные материалы. Терминология.,,Сборник рекомендуемых терминов Выпуск 113,,Проект. Ответственный редактор Ф.В.Лисовский.,1990,,Наука,М.,,0,Russian,,,,,,,,,,,,,,"Scan, Djvuing, OCR: Dmitry7, 2012",0,,1,,1,1,,1,2368302,djvu,dcc30a7e34fd1b0d0645b9b5bb0809fe,,,D:\\Сборники научно-нормативной терминологии\\Выпуск 113 - Физика магнетизма и магнитные материалы - Терминология (1990).djvu,0,2000-01-01 01:00:00,2016-04-03 02:51:08,854000/dcc30a7e34fd1b0d0645b9b5bb0809fe-g.jpg,,
5127089,BS ISO 22301:2012 Societal security. Business continuity management systems. Requirements,,,,BSi,2012,,BSi,,,0,English,,,0,"0580686809,9780580686801",,,,,,,,,,,0,,,,,1,,,721176,pdf,dbf28400faac767c50a32d9c6a8d7bdb,,,BS ISO 22301 (2012),0,2000-01-01 01:00:00,2016-04-03 02:51:08,854000/dbf28400faac767c50a32d9c6a8d7bdb-g.jpg,,
5127088,Новое и полное собрание российских песен,часть 3,,,М. Чулков,1780,,,,,0,Russian Old,,,0,,,,,,,,,,,,0,,,,,1,,,16472025,pdf,dbe60e260ce6bf1bec1e6cf78331b65a,,,Mikhail.Chulkov.Novoe.i.polnoe.sobranie.rossijjskikh.pesen.1780.Chast.3,0,2000-01-01 01:00:00,2016-04-03 02:51:08,854000/dbe60e260ce6bf1bec1e6cf78331b65a-g.jpg,,
5127087,Основные понятия магнитной гидродинамики. МГД-устройства и МГД-установки. Терминология.,,Сборник рекомендуемых терминов Выпуск 100,,Ответственный редактор А.Е.Шейндлин.,1982,,Наука,М.,,0,Russian,,,,,,,,,,,,,,"Scan: AAW, Djvuing, OCR: Dmitry7, 2012",0,,1,,1,1,,1,737087,djvu,db61d76eb004fb9a84d3edf3e39aadb0,,,"D:\\Сборники научно-нормативной терминологии\\Выпуск 100 - Основные понятия магнитной гидродинамики, МГД-устройства и МГД-установки - Терминология (1982).djvu",0,2000-01-01 01:00:00,2016-04-03 02:51:08,854000/db61d76eb004fb9a84d3edf3e39aadb0-g.jpg,,
5127086,Англо-русские термины по системам распознавания образов.,,Тетради новых терминов Выпуск 117,,Составитель Н.Г.Гуревич. Под редакцией И.Б.Гуревкча. Ответственный редактор И.И.Убин.,1987,,Всесоюзный центр переводов,М.,,0,Russian,,,,,,,,,,,,,,"Scan, Formatting: niccolo, 2012",0,,1,,1,1,,1,5548655,pdf,da13f4183877a52d257c9213a42ae91f,,,D:\\Тетради новых терминов\\Выпуск 117 - Англо-русские термины по системам распознавания образов (сост. Гуревич Н.Г.) (Тетради новых терминов) - 1987.pdf,0,2000-01-01 01:00:00,2016-04-03 02:51:08,854000/da13f4183877a52d257c9213a42ae91f-g.jpg,,
5127085,Англо-русские термины по гидромеханике и гидромашинам.,,Тетради новых терминов Выпуск 145,,Составитель Б.Н.Чумаченко. Под редакцией В.И.Лаврова. Ответственный редактор И.И.Убин.,1989,,Всесоюзный центр переводов,М.,,0,Russian,,,,,,,,,,,,,,"Scan, Formatting: niccolo, 2012",0,,1,,1,1,,1,4925845,pdf,d8245c772082ee5b3f77440a150f207d,,,D:\\Тетради новых терминов\\Выпуск 145 - Англо-русские термины по гидромеханике и гидромашинам (сост. Чумаченко Б.Н.) (Тетради новых терминов) - 1989.pdf,0,2000-01-01 01:00:00,2016-04-03 02:51:08,854000/d8245c772082ee5b3f77440a150f207d-g.jpg,,
5127084,Французско-русские термины по физике и технике реакторов.,,Тетради новых терминов Выпуск 086,,Составитель Н.Д.Волкова. Под редакцией Д.М.Петрушна. Ответственный редактор И.И.Убин.,1985,,Всесоюзный центр переводов,М.,,0,Russian,,,,,,,,,,,,,,"Scan, Formatting: niccolo, 2012",0,,1,,1,1,,1,4313631,pdf,d7ace8d56472f959bb36d53cd9884267,,,D:\\Тетради новых терминов\\Выпуск 086 - Французско-русские термины по физике и технике реакторов (сост. Волкова Н.Л.) (Тетради новых терминов) - 1985.pdf,0,2000-01-01 01:00:00,2016-04-03 02:51:08,854000/d7ace8d56472f959bb36d53cd9884267-g.jpg,,
5127083,Механические колебания. Основные понятия. Терминология. Буквенные обозначения величин.,,Сборник рекомендуемых терминов Выпуск 106,,Ответственный редактор Н.И.Левитский.,1987,,Наука,М.,,0,Russian,,,,,,,,,,,,,,"Scan, Djvuing, OCR: Dmitry7, 2011-12",0,,1,,1,1,,1,290525,djvu,d70af1ad301e9801cd6a65d453f27a02,,,"D:\\Сборники научно-нормативной терминологии\\Выпуск 106 - Механические колебания - Основные понятия - Терминология, Буквенные обозначения величин (1987).djvu",0,2000-01-01 01:00:00,2016-04-03 02:51:08,854000/d70af1ad301e9801cd6a65d453f27a02-g.jpg,,
5127082,Надежность технических систем и изделий. Основные понятия. Терминология.,,Сборник рекомендуемых терминов Выпуск 067a,,Ответственный редактор В.Л.Сифоров.,1965,,Наука,М.,,0,Russian,,,,,,,,,,,,,,"Scan, Djvuing, OCR: Dmitry7, 2011",0,,1,,1,1,,1,867034,djvu,d5c3466e0129e81f0424903795e46dce,,,"D:\\Сборники научно-нормативной терминологии\\Выпуск 067a- Надежность технических систем и изделий - Основные понятия, Терминология (1965).djvu",0,2000-01-01 01:00:00,2016-04-03 02:51:08,854000/d5c3466e0129e81f0424903795e46dce-g.jpg,,
5127081,Дозиметрия ионизирующих излучений. Основные понятия. Терминология.,,Сборник рекомендуемых терминов Выпуск 070,,Ответственный редактор выпуска В.И.Иванов.,1965,,Наука,М.,,0,Russian,,,,,,,,,,,,,,"Scan: AAW, Djvuing, OCR: Dmitry7, 2012",0,,1,,1,1,,1,356189,djvu,d4e23fa60a5165a31b8a4e154ad4a1ca,,,D:\\Сборники научно-нормативной терминологии\\Выпуск 070 - Дозиметрия ионизирующих излучений - Основные понятия - Терминология (1965).djvu,0,2000-01-01 01:00:00,2016-04-03 02:51:08,854000/d4e23fa60a5165a31b8a4e154ad4a1ca-g.jpg,,
5127080,Chosen Pages from Lu Hsun,,,,Lu Hsun,1940,,Cameron Associates,,,0,English,Литература//Литературоведение,,0,",",,,,,,,,,,,0,,,,,1,,,21377761,pdf,d2fd9fab03b76756ea7ed1d2c0cf2573,,,"Chosen pages from Lu Hsun. Lu, Xun, 1881-1936",0,2000-01-01 01:00:00,2016-04-03 02:51:08,854000/d2fd9fab03b76756ea7ed1d2c0cf2573-g.jpg,,
5127079,"Терминология железнодорожной сигнализации, централизации стрелок, сигналов и блокировки.",,Сборник рекомендуемых терминов Выпуск 010,,Ответственный редактор А.М.Терпигорев.,1952,,Издательство Академии наук СССР,М.,,0,Russian,,,,,,,,,,,,,,"Scan: AAW, Djvuing, OCR: Dmitry7, 2011",0,,1,,1,1,,1,1372723,djvu,d0909d34ef33110af9ce97f23403e4bd,,,"D:\\Сборники научно-нормативной терминологии\\Выпуск 010 - Терминология железнодорожной сигнализации, централизации стрелок, сигналов и блокировки (1952).djvu",0,2000-01-01 01:00:00,2016-04-03 02:51:08,854000/d0909d34ef33110af9ce97f23403e4bd-g.jpg,,
5127078,Англо-русские термины по общей энергетике.,,Тетради новых терминов Выпуск 078,,Составитель А.М.Белостоцкий. Под редакцией Г.И.Овчинникова. Ответственный редактор И.И.Убин.,1985,,Всесоюзный центр переводов,М.,,0,Russian,,,,,,,,,,,,,,"Scan, Formatting: niccolo, 2012",0,,1,,1,1,,1,6496568,pdf,d0192e3bc802ccf1f308f548b68bc742,,,D:\\Тетради новых терминов\\Выпуск 078 - Англо-русские термины по общей энергетике (сост. Белостоцкий А.М.) (Тетради новых терминов) - 1985.pdf,0,2000-01-01 01:00:00,2016-04-03 02:51:08,854000/d0192e3bc802ccf1f308f548b68bc742-g.jpg,,
5127077,"Too Much Government, Too Much Taxation",,,,Charles Norman Fay,1923,,"Doubleday, Page & Company","Garden City, New York",,0,English,,,0,,,B007T0NFRO,,,,,,,,,0,,,,,1,,,23787870,pdf,cc8203c3a66a089cfdb77d1f8fa3e421,,,"Too Much Government, Too Much Taxation.pdf",0,2000-01-01 01:00:00,2016-04-03 02:51:08,854000/cc8203c3a66a089cfdb77d1f8fa3e421-g.jpg,,
5127076,Англо-русские термины по сталеплавильному производству.,,Тетради новых терминов Выпуск 148,,Составитель А.Б.Парцевский. Под редакцией В.И.Шора. Ответственный редактор И.И.Убин.,1989,,Всесоюзный центр переводов,М.,,0,Russian,,,,,,,,,,,,,,"Scan, Djvuing: ???, предоставил: Dmitry7, 2012; Scan, Formatting Pdf: niccolo, 2012",0,,1,,1,1,,1,34459153,djvu,cbefca5f88be7ad2c28370af59547823,,,D:\\Тетради новых терминов\\Выпуск 148 - Англо-русские термины по сталеплавильному производству (сост. Парцевский А.Б.) (Тетради новых терминов) - 1989.djvu,0,2000-01-01 01:00:00,2016-04-03 02:51:08,854000/cbefca5f88be7ad2c28370af59547823-g.jpg,,
5127075,Гидропривод. Часть I. Гидродинамические передачи.,,Сборник рекомендуемых терминов Выпуск 063,,Ответственный редактор выпуска А.Я.Вощинин.,1963,,Издательство Академии наук СССР,М.,,0,Russian,,,,,,,,,,,,,,"Scan: AAW, Djvuing, OCR: Dmitry7, 2012",0,,1,,1,1,,1,492389,djvu,cb4647183a2c5fa32a66e1d76d2baa57,,,D:\\Сборники научно-нормативной терминологии\\Выпуск 063 - Гидропривод - Часть 1 - Гидродинамические передачи - Терминология (1963).djvu,0,2000-01-01 01:00:00,2016-04-03 02:51:08,854000/cb4647183a2c5fa32a66e1d76d2baa57-g.jpg,,
5127074,Wild Grass,,,,Lu Xun,0,,,,,0,English,Литература//Литературоведение,,0,,,,,,,,,,,,0,,,,,1,,,2751941,pdf,ca47bc5e23720866954d380806d49b94,,,Wild Grass Lu Hsun__039;s Collection of 20 Prose Poems,0,2000-01-01 01:00:00,2016-04-03 02:51:08,854000/ca47bc5e23720866954d380806d49b94-g.jpg,,
5127073,Полное собрание сочинений М.В. Ломоносова,часть 3,,,,1803,,,,,0,Russian Old,,,0,,,,,,,,,,,,0,,,,,1,,,31031382,pdf,c9b57ae0b8452b5acfb3017cb31d4892,,,Mikhail.Lomonosov.Polnoe.sobranie.sochinenijj.Mikhaila.Vasilevicha.Lomonosova.1803.Chast.3,0,2000-01-01 01:00:00,2016-04-03 02:51:08,854000/c9b57ae0b8452b5acfb3017cb31d4892-g.jpg,,
5127072,Электротехнические материалы. Общие понятия. Диэлектрики и электроизоляционные материалы. Проводниковые материалы. Полупроводниковые материалы. Магнитные материалы. Терминология.,,Сборник рекомендуемых терминов Выпуск 078,,Ответственный редактор выпуска Б.М.Тареев.,1969,,Наука,М.,,0,Russian,,,,,,,,,,,,,,"Scan, Djvuing, OCR: Dmitry7, 2011-12",0,,1,,1,1,,1,1699435,djvu,c946fb23c113458daeee45fec18c70a5,,,D:\\Сборники научно-нормативной терминологии\\Выпуск 078 - Электротехнические материалы - Терминология (1969).djvu,0,2000-01-01 01:00:00,2016-04-03 02:51:08,854000/c946fb23c113458daeee45fec18c70a5-g.jpg,,
5127071,Современные проблемы терминологии в науке и технике,,Сборник рекомендуемых терминов ,,Кулебакин В. С. (ред.),1969,,,,,0,Russian,,,,,,,,,,,,,,,0,,1,,1,1,,1,3649235,djvu,c8022462a92141456e7948a44b361c1a,,,D:\\Сборники научно-нормативной терминологии\\Кулебакин В.С. (ред.) - Современные проблемы терминологии в науке и технике - 1969.djvu,0,2000-01-01 01:00:00,2016-04-03 02:51:08,854000/c8022462a92141456e7948a44b361c1a-g.jpg,,
5127070,Англо-русские термины по оборудованию ГПС.,,Тетради новых терминов Выпуск 123,,Составитель А.С.Чубуков. Под редакцией B.C.Полуянова. Ответственный редактор И.И.Убин.,1988,,Всесоюзный центр переводов,М.,,0,Russian,,,,,,,,,,,,,,"Scan, Formatting: niccolo, 2012",0,,1,,1,1,,1,7123773,pdf,c6b4ecd63676e2da0a986418c9e24d80,,,D:\\Тетради новых терминов\\Выпуск 123 - Англо-русские термины по оборудованию ГПС (сост. Чубуков А.С.) (Тетради новых терминов) - 1988.pdf,0,2000-01-01 01:00:00,2016-04-03 02:51:08,854000/c6b4ecd63676e2da0a986418c9e24d80-g.jpg,,
5127069,Органолептические методы оценок пищевых продуктов: Терминология.,,Сборник рекомендуемых терминов Выпуск 111,,Ответственный редактор выпуска Р.В.Головня.,1990,,Наука,М.,,0,Russian,,,,,,,,,,,,,,"Scan: ???, Formatting: Dmitry7, 2012",0,,1,,1,1,,1,3063091,pdf,c2ebf25660330b118402cc5d42d40beb,,,D:\\Сборники научно-нормативной терминологии\\Выпуск 111 - Органолептические методы оценок пищевых продуктов - Терминология (1990).pdf,0,2000-01-01 01:00:00,2016-04-03 02:51:08,854000/c2ebf25660330b118402cc5d42d40beb-g.jpg,,
5127068,"Основы теории подобия и моделирования. Общие понятия. Основные виды подобия. Основные виды моделей. Основные виды моделирования. Критерии подобия, величины, погрешности моделирования. Терминология.",,Сборник рекомендуемых терминов Выпуск 088,,Ответственный редактор выпуска Д.А.Веников.,1973,,Наука,М.,,0,Russian,,,,,,,,,,,,,,"Scan, Djvuing, OCR: Dmitry7, 2011-12",0,,1,,1,1,,1,541275,djvu,c1daa26d1dfbc580b44c56bf07283048,,,D:\\Сборники научно-нормативной терминологии\\Выпуск 088 - Основы теории подобия и моделирования - Терминология (1973).djvu,0,2000-01-01 01:00:00,2016-04-03 02:51:08,854000/c1daa26d1dfbc580b44c56bf07283048-g.jpg,,
5127067,"Selected Works, Vol. III",,,,Lu Xun,1980,3,Foreign Languages Press,,,0,English,Литература//Литературоведение,,0,,,,,,,,,,,,0,,,,,1,,,26590369,pdf,c066c80e04593e4d5fe1c50d2750201d,,,Lu Xun Selected Works Vol.3,0,2000-01-01 01:00:00,2016-04-03 02:51:08,854000/c066c80e04593e4d5fe1c50d2750201d-g.jpg,,
5127066,"Unicità e relazione. Intersoggettività, genesi e io puro in Husserl",,,,Alice Pugliese,2009,,Mimesis,,,0,Italian,"Phenomenology, Husserl",,0,"8884839696,9788884839695",,,,,,,,,,,0,,,,,1,,,29178602,pdf,bf6f4197c048f659f1486b4ed4efb971,,,"Unicita E Relazione. Intersoggettivita, Genesi E Io Puro in Husserl - Alice Pugliese",0,2000-01-01 01:00:00,2016-04-03 02:51:08,854000/bf6f4197c048f659f1486b4ed4efb971-d.jpg,,
5127065,Терминология жидкостных ракетных двигателей.,,Сборник рекомендуемых терминов Выпуск 016,,Ответственный редактор А.М.Терпигорев.,1953,,Издательство Академии наук СССР,М.,,0,Russian,,,,,,,,,,,,,,"Scan: AAW, Djvuing, OCR: Dmitry7, 2011",0,,1,,1,1,,1,452049,djvu,beec5dd309c8e79b6c11bc525be81d81,,,D:\\Сборники научно-нормативной терминологии\\Выпуск 016 - Терминология жидкостных ракетных двигателей (1953).djvu,0,2000-01-01 01:00:00,2016-04-03 02:51:08,854000/beec5dd309c8e79b6c11bc525be81d81-g.jpg,,
5127064,Дозиметрия ионизирующих излучений. Терминология.,,Сборник рекомендуемых терминов Выпуск 076,,Ответственный редактор выпуска Ю.В.Сивинцев.,1968,,Наука,М.,,0,Russian,,,,,,,,,,,,,,"Scan: AAW, Djvuing, OCR: Dmitry7, 2012",0,,1,,1,1,,1,597834,djvu,bb211a9d4a365c2cc2a5016cc0fc5cec,,,D:\\Сборники научно-нормативной терминологии\\Выпуск 076 - Дозиметрия ионизирующих излучений - Терминология (1968).djvu,0,2000-01-01 01:00:00,2016-04-03 02:51:08,854000/bb211a9d4a365c2cc2a5016cc0fc5cec-g.jpg,,
5127063,Терминология основных понятий автоматики.,,Сборник рекомендуемых терминов Выпуск 035,,Ответственный редактор А.М.Терпигорев.,1954,,Издательство Академии наук СССР,М.,,0,Russian,,,,,,,,,,,,,,"Scan: AAW, Djvuing, OCR: Dmitry7, 2011",0,,1,,1,1,,1,340732,djvu,bb16b4b47fd69057af19d54c1dd0ec32,,,D:\\Сборники научно-нормативной терминологии\\Выпуск 035 - Терминология основных понятий автоматики (1954).djvu,0,2000-01-01 01:00:00,2016-04-03 02:51:08,854000/bb16b4b47fd69057af19d54c1dd0ec32-g.jpg,,
5127062,Словарь Академии Российской. от Р до Т,часть 5,,,,1794,,,,,0,Russian Old,,,0,,,,,,,,,,,,0,,,,,1,,,37787431,djvu,bacc917dfe8ef34c842a5d8f2275446b,,,Slovar.Akademii.Rossijjskojj.1794.Chast.V.ot.R.do.T,0,2000-01-01 01:00:00,2016-04-03 02:51:08,854000/bacc917dfe8ef34c842a5d8f2275446b-g.jpg,,
5127061,"Selected Works, Vol. II",,,,Lu Xun,1980,2,Foreign Languages Press,Beijing,,0,English,Литература//Литературоведение,,0,,,,,,,,,,,,0,,,,,1,,,32775764,pdf,ba498c7efffd6b70bbd60a41cdad6b12,,,Lu Xun Selected Works Vol.2,0,2000-01-01 01:00:00,2016-04-03 02:51:08,854000/ba498c7efffd6b70bbd60a41cdad6b12-g.jpg,,
5127060,Новейшее землеописание всех четырех частей света,часть 4,,,М. Антоновский,1795,,,,,0,Russian Old,,,0,,,,,,,,,,,,0,,,,,1,,,18180502,pdf,b963401f2491a210e88436c8caf6890b,,,Mikhail.Antonovskijj.Novejjshee.zemleopisanie.vsekh.chetyrekh.chastejj.sveta.1795.Chast.4.Povestvovatelnoe.Zemleopisanіe.Azіi,0,2000-01-01 01:00:00,2016-04-03 02:51:08,854000/b963401f2491a210e88436c8caf6890b-g.jpg,,
5127059,Гидропривод - Часть 2 - Объемный гидропривод - Терминология,,Сборник рекомендуемых терминов Выпуск 066,,,1964,,Наука,М.,,0,Russian,,,,,,,,,,,,,,,0,,1,,1,1,,1,593036,djvu,b83894032cf6b73e81163083fbed8119,,,D:\\Сборники научно-нормативной терминологии\\Выпуск 066 - Гидропривод - Часть 2 - Объемный гидропривод - Терминология (1964).djvu,0,2000-01-01 01:00:00,2016-04-03 02:51:08,854000/b83894032cf6b73e81163083fbed8119-g.jpg,,
5127058,"Электротехника, Электроника - Терминология",,Сборник рекомендуемых терминов Выпуск 059,,,1962,,Издательство Академии наук СССР,М.,,0,Russian,,,,,,,,,,,,,,,0,,1,,1,1,,1,4666796,djvu,b80b23146fe69390a5c1294c64f3090e,,,"D:\\Сборники научно-нормативной терминологии\\Выпуск 059 - Электротехника, Электроника - Терминология (1962).djvu",0,2000-01-01 01:00:00,2016-04-03 02:51:08,854000/b80b23146fe69390a5c1294c64f3090e-g.jpg,,
5127057,Образование и правописание трехэлементных научно-технических терминов,,Сборник рекомендуемых терминов ,,Лотте Д.С.,1969,,,,,0,Russian,,,,,,,,,,,,,,,0,,1,,1,1,,1,2361761,djvu,b7a60396e89a8330a450d27a5a78fa6c,,,D:\\Сборники научно-нормативной терминологии\\Лотте Д.С. - Образование и правописание трехэлементных научно-технических терминов - 1969.djvu,0,2000-01-01 01:00:00,2016-04-03 02:51:08,854000/b7a60396e89a8330a450d27a5a78fa6c-g.jpg,,
5127056,Терминология распространения радиоволн.,,Сборник рекомендуемых терминов Выпуск 047,,Ответственный редактор выпуска А.А.Пистолькорс.,1957,,Издательство Академии наук СССР,М.,,0,Russian,,,,,,,,,,,,,,"Scan, Djvuing, OCR: Dmitry7, 2011",0,,1,,1,1,,1,453121,djvu,b719da7a043e4283a3d0a350d3b7e4d1,,,D:\\Сборники научно-нормативной терминологии\\Выпуск 047 - Терминология распространения радиоволн (1957).djvu,0,2000-01-01 01:00:00,2016-04-03 02:51:08,854000/b719da7a043e4283a3d0a350d3b7e4d1-g.jpg,,
5127055,Англо-русские патентные термины.,,Тетради новых терминов Выпуск 002,,"Составители В.С.Попов, Л.А.Горник, A.M.Школьник, И.М.Агранов, С.Д.Руденко. Под общей редакцией И.П.Смирнова.",1971,,Всероссийский центр переводов,М.,,0,Russian,,,,,,,,,,,,,,"Scan: AAW, Formatting: Dmitry7, 2012",0,,1,,1,1,,1,8087248,pdf,b586462ada8769834180a5b2f78eb5e1,,,D:\\Тетради новых терминов\\Выпуск 002 - Англо-русские патентные термины (сост. Попов В.С. и др.) (Тетради новых терминов) - 1971.pdf,0,2000-01-01 01:00:00,2016-04-03 02:51:08,854000/b586462ada8769834180a5b2f78eb5e1-g.jpg,,
5127054,Англо-русские термины по организации и управлению производством.,,Тетради новых терминов Выпуск 088,,"Составители Л.Б.Ткачева, А.И.Ковалев, Е.А.Алексеева, В.А.Зубакин. Под редакцией А.Е.Копылова. Ответственный редактор И.И.Убин.",1986,,Всесоюзный центр переводов,М.,,0,Russian,,,,,,,,,,,,,,"Scan, Formatting: niccolo, 2012",0,,1,,1,1,,1,7270695,pdf,b45a416d7875125b3b50b5b81b9002af,,,D:\\Тетради новых терминов\\Выпуск 088 - Англо-русские термины по организации и управлению производством (сост. Ткачева Л.Б. и др) (Тетради новых терминов) - 1986.pdf,0,2000-01-01 01:00:00,2016-04-03 02:51:08,854000/b45a416d7875125b3b50b5b81b9002af-g.jpg,,
5127053,Терминология конструкции и прочности самолета.,,Сборник рекомендуемых терминов Выпуск 018,,Ответственный редактор А.М.Терпигорев.,1954,,Издательство Академии наук СССР,М.,,0,Russian,,,,,,,,,,,,,,"Scan: AAW, Djvuing, OCR: Dmitry7, 2011",0,,1,,1,1,,1,562800,djvu,b3df54c05d75c250d617c4ac18726c57,,,D:\\Сборники научно-нормативной терминологии\\Выпуск 018 - Терминология конструкции и прочности самолета (1954).djvu,0,2000-01-01 01:00:00,2016-04-03 02:51:08,854000/b3df54c05d75c250d617c4ac18726c57-g.jpg,,
5127052,Терминология аэродинамического расчета самолета.,,Сборник рекомендуемых терминов Выпуск 017,,Ответственный редактор А.М.Терпигорев.,1954,,Издательство Академии наук СССР,М.,,0,Russian,,,,,,,,,,,,,,"Scan: AAW, Djvuing, OCR: Dmitry7, 2011",0,,1,,1,1,,1,289575,djvu,b3c4fe99c47192f7865158eccf293af7,,,D:\\Сборники научно-нормативной терминологии\\Выпуск 017 - Терминология аэродинамического расчета самолета (1954).djvu,0,2000-01-01 01:00:00,2016-04-03 02:51:08,854000/b3c4fe99c47192f7865158eccf293af7-g.jpg,,
5127051,Англо-русские термины по сталеплавильному производству.,,Тетради новых терминов Выпуск 148,,Составитель А.Б.Парцевский. Под редакцией В.И.Шора. Ответственный редактор И.И.Убин.,1989,,Всесоюзный центр переводов,М.,,0,Russian,,,,,,,,,,,,,,"Scan, Djvuing: ???, предоставил: Dmitry7, 2012; Scan, Formatting Pdf: niccolo, 2012",0,,1,,1,1,,1,7732302,pdf,b316aebc4e2825aad4f49db182b93862,,,D:\\Тетради новых терминов\\Выпуск 148 - Англо-русские термины по сталеплавильному производству (сост. Парцевский А.Б.) (Тетради новых терминов) - 1989.pdf,0,2000-01-01 01:00:00,2016-04-03 02:51:08,854000/b316aebc4e2825aad4f49db182b93862-g.jpg,,
5127050,Теоретическая механика. Терминология. Буквенные обозначения величин.,,Сборник рекомендуемых терминов Выпуск 102,,Ответственный редактор А.Ю.Ишлинский.,1984,,Наука,М.,,0,Russian,,,,,,,,,,,,,,"Scan, Djvuing, OCR: Dmitry7, 2011-12",0,,1,,1,1,,1,547539,djvu,b1253f7f91641c006818b7f52daf5e90,,,"D:\\Сборники научно-нормативной терминологии\\Выпуск 102 - Теоретическая механика - Терминология, буквенные обозначения величин (1984).djvu",0,2000-01-01 01:00:00,2016-04-03 02:51:08,854000/b1253f7f91641c006818b7f52daf5e90-g.jpg,,
5127049,Англо-русские термины по лазерной технологии.,,Тетради новых терминов Выпуск 103,,"Составители Б.М.Лапинский, Е.М.Биргер, С.Г.Кияк, А.М.Лапинский, Л.М.Зозуляк, Г.П.Завадка. Под редакцией Г.В.Пляцко. Ответственный редактор И.И.Убин.",1987,,Всесоюзный центр переводов,М.,,0,Russian,,,,,,,,,,,,,,"Scan, Formatting: niccolo, 2012",0,,1,,1,1,,1,7295533,pdf,b0b4e0f1b8ce32cfead4d559b83bf2ee,,,D:\\Тетради новых терминов\\Выпуск 103 - Англо-русские термины по лазерной технологии (сост. Лапинский Б.М. и др) (Тетради новых терминов) - 1987.pdf,0,2000-01-01 01:00:00,2016-04-03 02:51:08,854000/b0b4e0f1b8ce32cfead4d559b83bf2ee-g.jpg,,
5127048,Англо-русские термины по процессам и аппаратам химической технологии.,,Тетради новых терминов Выпуск 010,,"Составители Т.А.Сильванская, И.П.Барановская, И.Я.Сухарева-Шпетнер, И.Э.Базарова, Л.М.Осадчая, Р.В.Кантор. Под редакцией А.Г.Вишняка.",1976,,Всесоюзный центр переводов,М.,,0,Russian,,,,,,,,,,,,,,"Scan, Formatting: niccolo, 2012",0,,1,,1,1,,1,3744098,pdf,b04c162379a86fed203f2295e6f6c8d8,,,D:\\Тетради новых терминов\\Выпуск 010 - Англо-русские термины по процессам и аппаратам химической технологии (сост. Сильванская Т.А. и др) (Тетради новых терминов) - 1976.pdf,0,2000-01-01 01:00:00,2016-04-03 02:51:08,854000/b04c162379a86fed203f2295e6f6c8d8-g.jpg,,
5127047,Вычислительная техника. Терминология.,,Сборник рекомендуемых терминов Выпуск 087,,Ответственный редактор выпуска В.Б.Ушаков.,1974,,Наука,М.,,0,Russian,,,,,,,,,,,,,,"Scan, Djvuing, OCR: Dmitry7, 2011-12",0,,1,,1,1,,1,1076867,djvu,af5a552ccde693d560871cbb33c9a144,,,D:\\Сборники научно-нормативной терминологии\\Выпуск 087 - Вычислительная техника - Терминология (1974).djvu,0,2000-01-01 01:00:00,2016-04-03 02:51:08,854000/af5a552ccde693d560871cbb33c9a144-g.jpg,,
5127046,Замечания о Сибири,,,,,1828,,,,,0,Russian Old,,,0,,,,,,,,,,,,0,,,,,1,,,63906945,pdf,ae5deae7c2c2c6e6dbad6daedf8fd44f,,,Zamechanija.o.Sibiri.1828.PDF,0,2000-01-01 01:00:00,2016-04-03 02:51:08,854000/ae5deae7c2c2c6e6dbad6daedf8fd44f-g.jpg,,
5127045,Терминология деталей машин. Разъемные соединения.,,Сборник рекомендуемых терминов Выпуск 011,,Ответственный редактор А.М.Терпигорев.,1953,,Издательство Академии наук СССР,М.,,0,Russian,,,,,,,,,,,,,,"Scan: AAW, Djvuing, OCR: Dmitry7, 2011",0,,1,,1,1,,1,858785,djvu,ac971c2a8724388874991bfd1330e0ef,,,D:\\Сборники научно-нормативной терминологии\\Выпуск 011 - Терминология деталей машин - Разъемные соединения (1953).djvu,0,2000-01-01 01:00:00,2016-04-03 02:51:08,854000/ac971c2a8724388874991bfd1330e0ef-g.jpg,,
5127044,Англо-русские термины по сварке.,,Тетради новых терминов Выпуск 048,,Составитель А.Б.Парневский. Под редакцией П.Г.Кочеткова. Ответственный редактор И.И.Убин.,1983,,Всесоюзный центр переводов,М.,,0,Russian,,,,,,,,,,,,,,"Scan, Formatting: niccolo, 2012",0,,1,,1,1,,1,11012767,pdf,aba86e05816355b53fe5185c299da109,,,D:\\Тетради новых терминов\\Выпуск 048 - Англо-русские термины по сварке (сост. Парцевский А.Б.) (Тетради новых терминов) - 1983.pdf,0,2000-01-01 01:00:00,2016-04-03 02:51:08,854000/aba86e05816355b53fe5185c299da109-g.jpg,,
5127043,Англо-русские термины по лесной и деревообрабатывающей промышленности.,,Тетради новых терминов Выпуск 038,,Составитель Г.С.Ярёма. Под редакцией Н.К.Якунина. Ответственный редактор И.И.Убин.,1981,,Всесоюзный центр переводов,М.,,0,Russian,,,,,,,,,,,,,,"Scan, Formatting: niccolo, 2012",0,,1,,1,1,,1,15387690,pdf,ab592ccfcce9d550132f8b95e5d26237,,,D:\\Тетради новых терминов\\Выпуск 038 - Англо-русские термины по лесной и деревообрабатывающей промышленности (сост. Ярема Г.С.) (Тетради новых терминов) - 1981.pdf,0,2000-01-01 01:00:00,2016-04-03 02:51:08,854000/ab592ccfcce9d550132f8b95e5d26237-g.jpg,,
5127042,Терминология обогащения твердого ископаемого сырья.,,Сборник рекомендуемых терминов Выпуск 043,,Ответственный редактор И.М.Верховский.,1957,,Издательство Академии наук СССР,М.,,0,Russian,,,,,,,,,,,,,,"Scan: AAW, Djvuing, OCR: Dmitry7, 2011",0,,1,,1,1,,1,361256,djvu,aad9f589c99f739cf011e5488bb78a61,,,D:\\Сборники научно-нормативной терминологии\\Выпуск 043 - Терминология обогащения твердого ископаемого сырья (1957).djvu,0,2000-01-01 01:00:00,2016-04-03 02:51:08,854000/aad9f589c99f739cf011e5488bb78a61-g.jpg,,
5127041,Memoirs of a Superfluous Man,,,,Albert Jay Nock,2007,,Ludwig von Mises Institute,,,0,English,,,0,",",,,,,,,,,,,0,,,,,1,,,20532468,pdf,a84b22546e1fa7706ac0ba31da26f52d,,,Memoirs of a Superfluous Man,0,2000-01-01 01:00:00,2016-04-03 02:51:08,854000/a84b22546e1fa7706ac0ba31da26f52d-d.jpg,,
5127040,Cogitations from Albert Jay Nock,,,,Albert Jay Nock,1985,Revised Edition,The Nockian Society,"Irvington-on-Hudson, NY",,0,English,,,0,",",,,,,,,,,,,0,,,,,1,,,4907673,pdf,a7b3be9f639f07969b3a49358449680b,,,Cogitations from Albert Jay Nock.pdf,0,2000-01-01 01:00:00,2016-04-03 02:51:08,854000/a7b3be9f639f07969b3a49358449680b-d.jpg,,
5127039,Русско-англо-немецко-французские термины цветообозначения.,,Тетради новых терминов Выпуск 098,,Составитель А.П.Василевич. Под редакцией А.Д.Швейцера. Ответственный редактор И.И.Убин.,1986,,Всесоюзный центр переводов,М.,,0,Russian,,,,,,,,,,,,,,"Scan: AAW, Formatting: Dmitry7, niccolo, 2012",0,,1,,1,1,,1,2975775,djvu,a6f8907f8dae216c5344ef01a99282a6,,,D:\\Тетради новых терминов\\Выпуск 098 - Русско-англо-немецко-французские термины цветообозначения (сост. Василевич А.П.) (Тетради новых терминов) - 1986.djvu,0,2000-01-01 01:00:00,2016-04-03 02:51:08,854000/a6f8907f8dae216c5344ef01a99282a6-g.jpg,,
5127038,Терминология реле.,,Сборник рекомендуемых терминов Выпуск 049,,Ответственный редактор выпуска Б.С.Сотсков.,1958,,Издательство Академии наук СССР,М.,,0,Russian,,,,,,,,,,,,,,"Scan, Djvuing, OCR: Dmitry7, 2011",0,,1,,1,1,,1,935643,djvu,a6329e6895a56093b507da1e7180cf2e,,,D:\\Сборники научно-нормативной терминологии\\Выпуск 049 - Терминология реле (1958).djvu,0,2000-01-01 01:00:00,2016-04-03 02:51:08,854000/a6329e6895a56093b507da1e7180cf2e-g.jpg,,
5127037,"The Austrian School of Economics: A history of its ideas, ambassadors, and institutions",,,,"Eugen-Maria Schulak, Herbert Unterköfler",2011,,Ludwig von Mises Institute,,,0,English,,,0,"1610161343,9781610161343",,,,,,,,,,,0,,,,,1,,,1744938,pdf,a5330110aae188daa2e0754436e68104,,,"The Austrian School of Economics A History of Its Ideas, Ambassadors, and Institutions",0,2000-01-01 01:00:00,2016-04-03 02:51:08,854000/a5330110aae188daa2e0754436e68104-d.jpg,,
5127036,Теоретическая механика. Буквенные обозначения величин.,,Сборник рекомендуемых терминов Выпуск 096,,Ответственный редактор А.Ю.Ишлинский.,1980,,Наука,М.,,0,Russian,,,,,,,,,,,,,,"Scan, Djvuing, ???, ReFormatting, OCR: Dmitry7, 2012",0,,1,,1,1,,1,245402,djvu,a4630ed5c5ec015ad7f84ec703a50362,,,D:\\Сборники научно-нормативной терминологии\\Выпуск 096 - Теоретическая механика - Буквенные обозначения величин (1980).djvu,0,2000-01-01 01:00:00,2016-04-03 02:51:08,854000/a4630ed5c5ec015ad7f84ec703a50362-g.jpg,,
5127035,Англо-русские термины по статистике. Часть I (А-О).,,Тетради новых терминов Выпуск 008,,Составитель Э.Н.Островский. Под редакцией Б.Т.Рябушкина. Ответственный редактор И.П.Смирнов.,1975,,Всесоюзный центр переводов,М.,,0,Russian,,,,,,,,,,,,,,"Scan, Formatting: niccolo, 2012",0,,1,,1,1,,1,14980911,pdf,a1094923bb51bd9a6addeaef9d9eb3ed,,,D:\\Тетради новых терминов\\Выпуск 008 - Англо-русские термины по статистике (в 2-х частях) (сост. Островский Э.Н.) (Тетради новых терминов) - 1975.pdf,0,2000-01-01 01:00:00,2016-04-03 02:51:08,854000/a1094923bb51bd9a6addeaef9d9eb3ed-g.jpg,,
5127034,The Icon Handbook,,,,Jon Hicks,2011,,Five Simple Steps,,,0,English,,,0,"1907828044,9781907828041",,,,,,,,,,,0,,,,,1,,,54538204,pdf,a059e34fcf12697f650ee09d5fe63ca4,,,The.Icon.Handbook,0,2000-01-01 01:00:00,2016-04-03 02:51:08,854000/a059e34fcf12697f650ee09d5fe63ca4-d.jpg,,
5127033,Англо-русские термины по программному управлению металлорежущим оборудованием.,,Тетради новых терминов Выпуск 050,,Составитель B.C.Воскобойников. Под редакцией А.С.Чубукова. Ответственный редактор И.И.Убин.,1983,,Всесоюзный центр переводов,М.,,0,Russian,,,,,,,,,,,,,,"Scan, Formatting: niccolo, 2012",0,,1,,1,1,,1,11440909,pdf,a02f8357b3178a901863620128333da8,,,D:\\Тетради новых терминов\\Выпуск 050 - Англо-русские термины по программному управлению металлорежущим оборудованием (сост. Воскобойников Б.С.) (Тетради новых терминов) - 1983.pdf,0,2000-01-01 01:00:00,2016-04-03 02:51:08,854000/a02f8357b3178a901863620128333da8-g.jpg,,
5127032,Терминология электрической тяги магистральных железных дорог и метрополитенов. Тяговые подстанции.,,Сборник рекомендуемых терминов Выпуск 032,,Ответственный редактор А.М.Терпигорев.,1954,,Издательство Академии наук СССР,М.,,0,Russian,,,,,,,,,,,,,,"Scan: AAW, Djvuing, OCR: Dmitry7, 2011",0,,1,,1,1,,1,250624,djvu,9f8e1e8672e19cfade56b92ad63ac9ae,,,D:\\Сборники научно-нормативной терминологии\\Выпуск 032 - Терминология электрической тяги магистральных железных дорог и метрополитена - Тяговые подстанции (1954).djvu,0,2000-01-01 01:00:00,2016-04-03 02:51:08,854000/9f8e1e8672e19cfade56b92ad63ac9ae-g.jpg,,
5127031,Физическая оптика. Терминология.,,Сборник рекомендуемых терминов Выпуск 079,,Ответственный редактор выпуска Ф.А.Королев.,1970,,Наука,М.,,0,Russian,,,,,,,,,,,,,,"Scan, Djvuing, OCR: Dmitry7, 2011-12",0,,1,,1,1,,1,1141503,djvu,9a16e94f2f5aa1bc1c74537d0cfa0c75,,,D:\\Сборники научно-нормативной терминологии\\Выпуск 079 - Физическая оптика - Терминология (1970).djvu,0,2000-01-01 01:00:00,2016-04-03 02:51:08,854000/9a16e94f2f5aa1bc1c74537d0cfa0c75-g.jpg,,
5127030,Терминология волновых движений жидкости.,,Сборник рекомендуемых терминов Выпуск 030,,Ответственный редактор А.М.Терпигорев.,1954,,Издательство Академии наук СССР,М.,,0,Russian,,,,,,,,,,,,,,"Scan: AAW, Djvuing, OCR: Dmitry7, 2011",0,,1,,1,1,,1,200059,djvu,9975cda698ed7f462f5c3df5db7f1649,,,D:\\Сборники научно-нормативной терминологии\\Выпуск 030 - Терминология волновых движений жидкости (1954).djvu,0,2000-01-01 01:00:00,2016-04-03 02:51:08,854000/9975cda698ed7f462f5c3df5db7f1649-g.jpg,,
5127029,Словарь Академии Российской. от Г до З,часть 2,,,,1790,,,,,0,Russian Old,,,0,,,,,,,,,,,,0,,,,,1,,,45638200,djvu,996309c5e85ca72e1a38f5bb9ce4d4a6,,,Slovar.Akademii.Rossijjskojj.1790.Chast.II.ot.G.do.Z,0,2000-01-01 01:00:00,2016-04-03 02:51:08,854000/996309c5e85ca72e1a38f5bb9ce4d4a6-g.jpg,,
5127028,Англо-русские термины по спутниковой связи.,,Тетради новых терминов Выпуск 157,,"Составители М.Д.Венедиктов, Л.М.Невдяев.",1990,,Всесоюзный центр переводов,М.,,0,Russian,,,,,,,,,,,,,,"Scan, Formatting: niccolo, 2012",0,,1,,1,1,,1,4117167,pdf,98f065ac523b7f602de5b00ebff282aa,,,"D:\\Тетради новых терминов\\Выпуск 157 - Англо-русские термины по спутниковой связи (сост. Венедиктов М.Д., Невдяев Л.М.) (Тетради новых терминов) - 1990.pdf",0,2000-01-01 01:00:00,2016-04-03 02:51:08,854000/98f065ac523b7f602de5b00ebff282aa-g.jpg,,
5127027,Терминология гидротехники.,,Сборник рекомендуемых терминов Выпуск 027,,Ответственный редактор А.М.Терпигорев.,1955,,Издательство Академии наук СССР,М.,,0,Russian,,,,,,,,,,,,,,"Scan: AAW, Djvuing, OCR: Dmitry7, 2011",0,,1,,1,1,,1,1174583,djvu,95f13924af81ddf1afd95796f53ed631,,,D:\\Сборники научно-нормативной терминологии\\Выпуск 027 - Терминология гидротехники (1955).djvu,0,2000-01-01 01:00:00,2016-04-03 02:51:08,854000/95f13924af81ddf1afd95796f53ed631-g.jpg,,
5127026,Терминология общей механики.,,Сборник рекомендуемых терминов Выпуск 033,,Ответственный редактор А.М.Терпигорев.,1955,,Издательство Академии наук СССР,М.,,0,Russian,,,,,,,,,,,,,,"Scan: AAW, Djvuing, OCR: Dmitry7, 2011",0,,1,,1,1,,1,645090,djvu,93e9b6fb0199a83b5b670b30501fff12,,,D:\\Сборники научно-нормативной терминологии\\Выпуск 033 - Терминология общей механики (1955).djvu,0,2000-01-01 01:00:00,2016-04-03 02:51:08,854000/93e9b6fb0199a83b5b670b30501fff12-g.jpg,,
5127025,Основные понятия автоматики. Терминология.,,Сборник рекомендуемых терминов Выпуск 071,,Ответственный редактор выпуска М.А.Гаврилов.,1966,,Наука,М.,,0,Russian,,,,,,,,,,,,,,"Scan: AAW, Djvuing, OCR: Dmitry7, 2012",0,,1,,1,1,,1,365143,djvu,92b028cb4320cfd3b079fccda005aa39,,,D:\\Сборники научно-нормативной терминологии\\Выпуск 071 - Основные понятия автоматики - Терминология (1966).djvu,0,2000-01-01 01:00:00,2016-04-03 02:51:08,854000/92b028cb4320cfd3b079fccda005aa39-g.jpg,,
5127024,Англо-русские термины по гироскопическим приборам.,,Тетради новых терминов Выпуск 054,,Составитель С.Н.Карпенко. Под редакцией Ю.В.Ходырева. Ответственный редактор И.И.Убин.,1983,,Всесоюзный центр переводов,М.,,0,Russian,,,,,,,,,,,,,,"Scan: AAW, Formatting: Dmitry7, niccolo, 2012",0,,1,,1,1,,1,6506821,pdf,915b5333d7d6a9182c6680c87c23c21b,,,D:\\Тетради новых терминов\\Выпуск 054 - Англо-русские термины по гироскопическим приборам (сост. Карпенко С.Н.) (Тетради новых терминов) - 1983.pdf,0,2000-01-01 01:00:00,2016-04-03 02:51:08,854000/915b5333d7d6a9182c6680c87c23c21b-g.jpg,,
5127023,Англо-русские термины по радиолокации.,,Тетради новых терминов Выпуск 096,,"Составители Е.В.Киселева, Ю.П.Коновалов. Под редакцией А.Р.Назарова. Ответственный редактор И.И.Убин.",1986,,Всесоюзный центр переводов,М.,,0,Russian,,,,,,,,,,,,,,"Scan, Formatting: niccolo, 2012",0,,1,,1,1,,1,3637492,pdf,9140989f0fa21e8d565b28143af9f552,,,"D:\\Тетради новых терминов\\Выпуск 096 - Англо-русские термины по радиолокации (сост. Киселева Е.В., Коновалов Ю.П.) (Тетради новых терминов) - 1986.pdf",0,2000-01-01 01:00:00,2016-04-03 02:51:08,854000/9140989f0fa21e8d565b28143af9f552-g.jpg,,
5127022,"Зубчатые колеса, зацепления и передачи с постоянным передаточным отношением. Терминология.",,Сборник рекомендуемых терминов Выпуск 057,,Ответственный редактор выпуска В.А.Гавриленко.,1962,,Издательство Академии наук СССР,М.,,0,Russian,,,,,,,,,,,,,,"Scan, Djvuing, OCR: Dmitry7, 2012",0,,1,,1,1,,1,1508053,djvu,906381393bf9c6874665861d127d5276,,,"D:\\Сборники научно-нормативной терминологии\\Выпуск 057 - Зубчатые колеса, зацепления и передачи с постоянным передаточным отношением - Терминология (1962).djvu",0,2000-01-01 01:00:00,2016-04-03 02:51:08,854000/906381393bf9c6874665861d127d5276-g.jpg,,
5127021,Терминология электрооборудования самолетов.,,Сборник рекомендуемых терминов Выпуск 025,,Ответственный редактор А.М.Терпигорев.,1954,,Издательство Академии наук СССР,М.,,0,Russian,,,,,,,,,,,,,,"Scan: AAW, Djvuing, OCR: Dmitry7, 2011",0,,1,,1,1,,1,555504,djvu,8fee41a7bfeb667ef19bcb81aadf7fb4,,,D:\\Сборники научно-нормативной терминологии\\Выпуск 025 - Терминология электрооборудования самолетов (1954).djvu,0,2000-01-01 01:00:00,2016-04-03 02:51:08,854000/8fee41a7bfeb667ef19bcb81aadf7fb4-g.jpg,,
5127020,"Selected Works, Vol. I",,,,Lu Xun,1980,2,Foreign Languages Press,Beijing,,0,English,Литература//Литературоведение,,0,,,,,,,,,,,,0,,,,,1,,,43098965,pdf,8f1c6525065d3df70742c0ff3deb04a4,,,Lu Xun Selected Works Vol.1,0,2000-01-01 01:00:00,2016-04-03 02:51:08,854000/8f1c6525065d3df70742c0ff3deb04a4-g.jpg,,
5127019,Терминология по коррозии и защите металлов.,,Сборник рекомендуемых терминов Выпуск 004,,Ответственный редактор А.М.Терпигорев.,1951,,Издательство Академии наук СССР,М.,,0,Russian,,,,,,,,,,,,,,"Scan: AAW, Djvuing, OCR: Dmitry7, 2011",0,,1,,1,1,,1,1233591,djvu,8cb14f99369acc484b1c720df4a3c97d,,,D:\\Сборники научно-нормативной терминологии\\Выпуск 004 - Терминология по коррозии и защите металлов (1951).djvu,0,2000-01-01 01:00:00,2016-04-03 02:51:08,854000/8cb14f99369acc484b1c720df4a3c97d-g.jpg,,
5127018,"Duncombe's Free Banking: An essay on banking, currency, finance, exchanges, and political economy",,,,Charles Duncombe,1969,,A. M. Kelley,,,0,English,,,0,,,B007EIHJLY,,,,,,,,,0,,,,,1,,,18238112,pdf,8c3df0d5bbed777df07d4049723b0061,,,Duncombes Free Banking.pdf,0,2000-01-01 01:00:00,2016-04-03 02:51:08,854000/8c3df0d5bbed777df07d4049723b0061-g.jpg,,
5127017,Англо-русские термины по методам добычи ископаемых.,,Тетради новых терминов Выпуск 119,,Составитель А.Н.Марченко. Под редакцией О.В.Михеева. Ответственный редактор И.И.Убин.,1988,,Всесоюзный центр переводов,М.,,0,Russian,,,,,,,,,,,,,,"Scan, Formatting: niccolo, 2012",0,,1,,1,1,,1,4496867,pdf,8b2d118c80af1744ced2b6e55ef9978b,,,D:\\Тетради новых терминов\\Выпуск 119 - Англо-русские термины по методам добычи ископаемых (сост. Марченко А.Н.) (Тетради новых терминов) - 1988.pdf,0,2000-01-01 01:00:00,2016-04-03 02:51:08,854000/8b2d118c80af1744ced2b6e55ef9978b-g.jpg,,
5127016,Англо-русские термины по технологии электрохимических производств.,,Тетради новых терминов Выпуск 182,,"Составители М.М.Мельникова, И.П.Смирнов, А.Д.Давыдов.",1991,,Всесоюзный центр переводов,М.,,0,Russian,,,,,,,,,,,,,,"Scan, Formatting: niccolo, 2012",0,,1,,1,1,,1,7530915,pdf,8938f8d73537bb270aa2427566456499,,,"D:\\Тетради новых терминов\\Выпуск 182 - Англо-русские термины по технологии электрохимических производств (сост. Мельникова М.М., Смирнов И.П., Давыдов А.Д.) (Тетради новых терминов) - 1991.pdf",0,2000-01-01 01:00:00,2016-04-03 02:51:08,854000/8938f8d73537bb270aa2427566456499-g.jpg,,
5127015,Русско-французские термины по ремонтно-эсплуатационной документации и технике безопасности.,,Тетради новых терминов Выпуск 053,,Составитель В.А.Цареградский. Под редакцией А.М.Крюкова. Ответственный редактор И.И.Убин.,1983,,Всесоюзный центр переводов,М.,,0,Russian,,,,,,,,,,,,,,"Scan, Formatting: niccolo, 2012",0,,1,,1,1,,1,3243609,pdf,880bb1f68ffe1776be89633f4fbfed87,,,D:\\Тетради новых терминов\\Выпуск 053 - Русско-французские термины по ремонтно-эксплуатационной документации и технике безопасности (сост. Цареградский В.А.) (Тетради новых терминов) - 1983.pdf,0,2000-01-01 01:00:00,2016-04-03 02:51:08,854000/880bb1f68ffe1776be89633f4fbfed87-g.jpg,,
5127014,Терминология механики жидкости (гидромеханики).,,Сборник рекомендуемых терминов Выпуск 012,,Ответственный редактор А.М.Терпигорев.,1952,,Издательство Академии наук СССР,М.,,0,Russian,,,,,,,,,,,,,,"Scan: AAW, Djvuing, OCR: Dmitry7, 2011",0,,1,,1,1,,1,721485,djvu,87e45de50ac9f5d2def2bbe0d0ca9443,,,D:\\Сборники научно-нормативной терминологии\\Выпуск 012 - Терминология механики жидкости (гидромеханики) (1952).djvu,0,2000-01-01 01:00:00,2016-04-03 02:51:08,854000/87e45de50ac9f5d2def2bbe0d0ca9443-g.jpg,,
5127013,Энергетический баланс. Общие понятия. Балансовые понятия. Показатели совершенства энергетического хозяйства и энергетические характеристики развития народного хозяйства. Терминология.,,Сборник рекомендуемых терминов Выпуск 086,,Ответственный редактор выпуска Л.А.Мелентьев.,1973,,Наука,М.,,0,Russian,,,,,,,,,,,,,,"Scan, Djvuing, OCR: Dmitry7, 2011-12",0,,1,,1,1,,1,602049,djvu,87785543bf3bc56cd6fb946c1ed65165,,,D:\\Сборники научно-нормативной терминологии\\Выпуск 086 - Энергетический баланс - Терминология (1973).djvu,0,2000-01-01 01:00:00,2016-04-03 02:51:08,854000/87785543bf3bc56cd6fb946c1ed65165-g.jpg,,
5127012,Новейшее землеописание всех четырех частей света,часть 5,,,М. Антоновский,1795,,,,,0,Russian Old,,,0,,,,,,,,,,,,0,,,,,1,,,18445678,pdf,86d4fa1f041eb23dbff55ff5e6ae12ba,,,Mikhail.Antonovskijj.Novejjshee.zemleopisanie.vsekh.chetyrekh.chastejj.sveta.1795.Chast.5.Zemleopisanіe.drevnikh.vladenijj,0,2000-01-01 01:00:00,2016-04-03 02:51:08,854000/86d4fa1f041eb23dbff55ff5e6ae12ba-g.jpg,,
5127011,Французско-русские термины по металлургии.,,Тетради новых терминов Выпуск 097,,"Составители В.М.Лейчик, Л.Ф.Калиночкина, Г.М.Хартова. Под редакцией М.Н.Дорохиной. Ответственный редактор И.И.Убин.",1986,,Всесоюзный центр переводов,М.,,0,Russian,,,,,,,,,,,,,,"Scan, Formatting: niccolo, 2012",0,,1,,1,1,,1,5414364,pdf,852ac40979ed5b981749cc94e6a05adb,,,"D:\\Тетради новых терминов\\Выпуск 097 - Французско-русские термины по металлургии (сост. Лейчик В.М., Калиночкина Л.Ф., Хартова Г.М.) (Тетради новых терминов) - 1986.pdf",0,2000-01-01 01:00:00,2016-04-03 02:51:08,854000/852ac40979ed5b981749cc94e6a05adb-g.jpg,,
5127010,Лингвистические проблемы терминологии и научно-технический перевод - Часть 2,,Тетради новых терминов,,"Лейчик В.М., Шелов С.Д.",1990,,Всесоюзный центр переводов,М.,,0,Russian,,,0,,,,,,,,,,,,0,,1,,1,1,,1,80779709,pdf,83ed5a572cba3a8bf593943f22cf9e8a,,,"D:/Тетради новых терминов/Лингвистические проблемы терминологии и научно-технический перевод - Часть 2 (Лейчик В.М., Шелов С.Д.) - 1990.pdf",0,2000-01-01 01:00:00,2016-04-03 02:51:08,854000/83ed5a572cba3a8bf593943f22cf9e8a-g.jpg,,
5127009,Терминология горного дела. Горные работы и горные выработки.,,Сборник рекомендуемых терминов Выпуск 036,,Ответственный редактор А.М.Терпигорев.,1954,,Издательство Академии наук СССР,М.,,0,Russian,,,,,,,,,,,,,,"Scan: AAW, Djvuing, OCR: Dmitry7, 2011",0,,1,,1,1,,1,459895,djvu,8326a592071e537ffe4bb22ef79a0e13,,,D:\\Сборники научно-нормативной терминологии\\Выпуск 036 - Терминология горного дела - Горные работы и горные выработки (1954).djvu,0,2000-01-01 01:00:00,2016-04-03 02:51:08,854000/8326a592071e537ffe4bb22ef79a0e13-g.jpg,,
5127008,Терминология поршневых двигателей внутреннего сгорания.,,Сборник рекомендуемых терминов Выпуск 034,,Ответственный редактор А.М.Терпигорев.,1954,,Издательство Академии наук СССР,М.,,0,Russian,,,,,,,,,,,,,,"Scan: AAW, Djvuing, OCR: Dmitry7, 2011",0,,1,,1,1,,1,847990,djvu,81db05bf23488316449efa91a7b1ce9e,,,D:\\Сборники научно-нормативной терминологии\\Выпуск 034 - Терминология поршневых двигателей внутреннего сгорания (1954).djvu,0,2000-01-01 01:00:00,2016-04-03 02:51:08,854000/81db05bf23488316449efa91a7b1ce9e-g.jpg,,
5127007,Modern Physics for Scientists and Engineers,,,,John C Morrison,0,,Academic Press,,,0,English,,,0,,,,,,,,,,,,0,,,,0,0,,,6393159,pdf,80279f2bd2e47dca19967d86c16bb334,,,Modern Physics For Scientists and Engineers,0,2000-01-01 01:00:00,2016-04-03 02:51:08,854000/80279f2bd2e47dca19967d86c16bb334-g.jpg,,
5127006,"Французско-русские патентные термины (Издание второе, исправленное и дополненное).",,Тетради новых терминов Выпуск 009,,"Составители: Л.А.Горник, С.И.Симановский, Т.В.Донковская. Под редакцией Л.А.Горника.",1975,,Всесоюзный центр переводов,М.,,0,Russian,,,,,,,,,,,,,,"Scan, Formatting: niccolo, 2012",0,,1,,1,1,,1,6311816,pdf,7f9678123f960d2f19020f1d2e307a93,,,D:\\Тетради новых терминов\\Выпуск 009 - Французско-русские патентные термины (сост. Горник Л.А. и др) (Тетради новых терминов) - 1975.pdf,0,2000-01-01 01:00:00,2016-04-03 02:51:08,854000/7f9678123f960d2f19020f1d2e307a93-g.jpg,,
5127005,"Термодинамика - Основные понятия, терминология, буквенные обозначения величин",,Сборник рекомендуемых терминов Выпуск 103,,,1984,,Наука,М.,,0,Russian,,,,,,,,,,,,,,,0,,1,,1,1,,1,504858,djvu,7f16996f0558c31a5c9cdd3251dfe902,,,"D:\\Сборники научно-нормативной терминологии\\Выпуск 103 - Термодинамика - Основные понятия, терминология, буквенные обозначения величин (1984).djvu",0,2000-01-01 01:00:00,2016-04-03 02:51:08,854000/7f16996f0558c31a5c9cdd3251dfe902-g.jpg,,
5127004,Терминология светотехники.,,Сборник рекомендуемых терминов Выпуск 048,,Ответственный редактор выпуска А.М.Терпигорев.,1957,,Издательство Академии наук СССР,М.,,0,Russian,,,,,,,,,,,,,,"Scan: AAW, Djvuing, OCR: Dmitry7, 2011",0,,1,,1,1,,1,1293496,djvu,7e2a1ff009d0544229b21ef206ddd283,,,D:\\Сборники научно-нормативной терминологии\\Выпуск 048 - Терминология светотехники (1957).djvu,0,2000-01-01 01:00:00,2016-04-03 02:51:08,854000/7e2a1ff009d0544229b21ef206ddd283-g.jpg,,
5127003,The Value of Money,,,,Benjamin M. Anderson,1917,,MacMillan Company,New York,,0,English,,,0,9781610160469,,,,,,,,,,,0,,,,,1,,,27468893,pdf,7dfed412766457848f4f31e93b24797d,,,The Value of Money.pdf,0,2000-01-01 01:00:00,2016-04-03 02:51:08,854000/7dfed412766457848f4f31e93b24797d-d.jpg,,
5127002,"In Restraint of Trade: The business campaign against competition, 1918-1938",,,,Butler Shaffer,2008,,Ludwig von Mises Institute,,,0,English,,,0,9781610161145,,,,,,,,,,,0,,,,,1,,,17533506,pdf,7bdb0eec3a39e8cf6ae4cfb6c1fe0cb0,,,"In Restraint of Trade The Business Campaign Against Competition, 1918-1938.pdf",0,2000-01-01 01:00:00,2016-04-03 02:51:08,854000/7bdb0eec3a39e8cf6ae4cfb6c1fe0cb0-d.jpg,,
5127001,Fiat Money Inflation in France,,,,Andrew Dickson White,2007,,Ludwig von Mises Institute,,,0,English,,,0,9781610160827,,,,,,,,,,,0,,,,,1,,,4854442,pdf,79a9df92c54d091d103952e83cd2e577,,,Fiat Money Inflation in France.pdf,0,2000-01-01 01:00:00,2016-04-03 02:51:08,854000/79a9df92c54d091d103952e83cd2e577-d.jpg,,
5127000,Терминология вычислительных машин и приборов.,,Сборник рекомендуемых терминов Выпуск 042,,Ответственный редактор выпуска А.М.Терпигорев.,1957,,Издательство Академии наук СССР,М.,,0,Russian,,,,,,,,,,,,,,"Scan, Djvuing, OCR: Dmitry7, 2011",0,,1,,1,1,,1,284389,djvu,7854b126b55cf27d92f00138ce03b64f,,,D:\\Сборники научно-нормативной терминологии\\Выпуск 042 - Терминология вычислительных машин и приборов (1957).djvu,0,2000-01-01 01:00:00,2016-04-03 02:51:08,854000/7854b126b55cf27d92f00138ce03b64f-g.jpg,,
5126999,Квантовая электроника. Терминология.,,Сборник рекомендуемых терминов Выпуск 075,,Ответственный редактор выпуска М.Е.Жаботинский.,1968,,Наука,М.,,0,Russian,,,,,,,,,,,,,,"Scan, Djvuing, OCR: Dmitry7, 2011-12",0,,1,,1,1,,1,1130659,djvu,77ecd403d5a5fb1f2c0d92da15367560,,,D:\\Сборники научно-нормативной терминологии\\Выпуск 075 - Квантовая электроника - Терминология (1968).djvu,0,2000-01-01 01:00:00,2016-04-03 02:51:08,854000/77ecd403d5a5fb1f2c0d92da15367560-g.jpg,,
5126998,Терминология кислородного и высотного оборудования самолетов.,,Сборник рекомендуемых терминов Выпуск 026,,Ответственный редактор А.М.Терпигорев.,1954,,Издательство Академии наук СССР,М.,,0,Russian,,,,,,,,,,,,,,"Scan: AAW, Djvuing, OCR: Dmitry7, 2011",0,,1,,1,1,,1,290113,djvu,77d36caaf7407a2f034e9950796c6385,,,D:\\Сборники научно-нормативной терминологии\\Выпуск 026 - Терминология кислородного и высотного оборудования самолетов (1954).djvu,0,2000-01-01 01:00:00,2016-04-03 02:51:08,854000/77d36caaf7407a2f034e9950796c6385-g.jpg,,
5126997,Русско-англо-немецко-французские термины цветообозначения.,,Тетради новых терминов Выпуск 098,,Составитель А.П.Василевич. Под редакцией А.Д.Швейцера. Ответственный редактор И.И.Убин.,1986,,Всесоюзный центр переводов,М.,,0,Russian,,,,,,,,,,,,,,"Scan: AAW, Formatting: Dmitry7, niccolo, 2012",0,,1,,1,1,,1,8190986,pdf,76e25a19e89362dc1da3c86b278f5912,,,D:\\Тетради новых терминов\\Выпуск 098 - Русско-англо-немецко-французские термины цветообозначения (сост. Василевич А.П.) (Тетради новых терминов) - 1986.pdf,0,2000-01-01 01:00:00,2016-04-03 02:51:08,854000/76e25a19e89362dc1da3c86b278f5912-g.jpg,,
5126996,Терминология гидротурбин.,,Сборник рекомендуемых терминов Выпуск 021,,Ответственный редактор А.М.Терпигорев.,1953,,Издательство Академии наук СССР,М.,,0,Russian,,,,,,,,,,,,,,"Scan: AAW, Djvuing, OCR: Dmitry7, 2011",0,,1,,1,1,,1,548044,djvu,7542a41aa0c2846a60a9f583b77185c6,,,D:\\Сборники научно-нормативной терминологии\\Выпуск 021 - Терминология гидротурбин (1953).djvu,0,2000-01-01 01:00:00,2016-04-03 02:51:08,854000/7542a41aa0c2846a60a9f583b77185c6-g.jpg,,
5126995,Диэлектрики.,,Сборник рекомендуемых терминов Выпуск 053,,Ответственный редактор выпуска Б.М.Тареев.,1960,,Издательство Академии наук СССР,М.,,0,Russian,,,,,,,,,,,,,,"Scan: AAW, Djvuing, OCR: Dmitry7, 2011",0,,1,,1,1,,1,496587,djvu,74a31fa1bfa99d83071dc81f22df7e0d,,,D:\\Сборники научно-нормативной терминологии\\Выпуск 053 - Диэлектрики (1960).djvu,0,2000-01-01 01:00:00,2016-04-03 02:51:08,854000/74a31fa1bfa99d83071dc81f22df7e0d-g.jpg,,
5126994,Поршневые двигатели внутреннего сгорания. Дефекты работы двигателей.,,Сборник рекомендуемых терминов Выпуск 050,,Ответственный редактор выпуска Ю.А.Степанов.,1959,,Издательство Академии наук СССР,М.,,0,Russian,,,,,,,,,,,,,,"Scan: AAW, Djvuing, OCR: Dmitry7, 2011",0,,1,,1,1,,1,281886,djvu,73a4fe47a5ef7309ae2b4d65626509d3,,,D:\\Сборники научно-нормативной терминологии\\Выпуск 050 - Поршневые двигатели внутреннего сгорания - Дефекты работы двигателей (1959).djvu,0,2000-01-01 01:00:00,2016-04-03 02:51:08,854000/73a4fe47a5ef7309ae2b4d65626509d3-g.jpg,,
5126993,The Theory of Prices: A Re-Examination of the Central Problems of Monetary Theory,2,,,Arthur W.  Marget,1966,,Augustus M. Kelley,New York,,0,English,,,0,,,,,,,,,,,,0,,,,,1,,,68332098,pdf,7141a9a06bb0845160401c5e0095ed88,,,"The Theory of Prices A Re-Examination of the Central Problems of Monetary Theory, Vol II.pdf",0,2000-01-01 01:00:00,2016-04-03 02:51:08,854000/7141a9a06bb0845160401c5e0095ed88-g.jpg,,
5126992,Термодинамика. Терминология.,,Сборник рекомендуемых терминов Выпуск 085,,Ответственный редактор выпуска И.И.Новиков.,1973,,Наука,М.,,0,Russian,,,,,,,,,,,,,,"Scan, Djvuing, OCR: Dmitry7, 2011-12",0,,1,,1,1,,1,1176927,djvu,70bc9aaf39dbafb78d4ce6e48d30a8d7,,,D:\\Сборники научно-нормативной терминологии\\Выпуск 085 - Термодинамика - Терминология (1973).djvu,0,2000-01-01 01:00:00,2016-04-03 02:51:08,854000/70bc9aaf39dbafb78d4ce6e48d30a8d7-g.jpg,,
5126991,Англо-русские термины по аэрокосмической технике.,,Тетради новых терминов Выпуск 077,,"Составители: Т.П.Ампилова, А.Н.Чепак. Под редакцией Б.М.Абрамова. Ответственный редактор И.И.Убин.",1985,,Всесоюзный центр переводов,М.,,0,Russian,,,,,,,,,,,,,,"Scan, Formatting: niccolo, 2012",0,,1,,1,1,,1,5164310,pdf,6f28929d88471d25557e7f3856b0f243,,,"D:\\Тетради новых терминов\\Выпуск 077 - Англо-русские термины по аэрокосмической технике (сост. Ампилова Т.П., Чепак А.Н.) (Тетради новых терминов) - 1985.pdf",0,2000-01-01 01:00:00,2016-04-03 02:51:08,854000/6f28929d88471d25557e7f3856b0f243-g.jpg,,
5126990,Терминология электровакуумных приборов.,,Сборник рекомендуемых терминов Выпуск 039,,Ответственный редактор А.М.Терпигорев.,1956,,Издательство Академии наук СССР,М.,,0,Russian,,,,,,,,,,,,,,"Scan: AAW, Djvuing, OCR: Dmitry7, 2011",0,,1,,1,1,,1,893742,djvu,6d0e5e73f06e8cca2d24993455a3cadd,,,D:\\Сборники научно-нормативной терминологии\\Выпуск 039 - Терминология электровакуумных приборов (1956).djvu,0,2000-01-01 01:00:00,2016-04-03 02:51:08,854000/6d0e5e73f06e8cca2d24993455a3cadd-g.jpg,,
5126989,Русско-английские термины по программе эпас.,,Тетради новых терминов Выпуск 020,,"Составители В.А.Яценко, Г.А.Рыков, Б.П.Артемов. Под редакцией Ю.А.Ярошевского, И.И.Убина. Ответственный редактор И.П.Смирнов.",1978,,Всесоюзный центр переводов,М.,,0,Russian,,,,,,,,,,,,,,"Scan, Formatting: niccolo, 2012",0,,1,,1,1,,1,12865104,pdf,6a816a38e8885de730d1b42f48e4e485,,,"D:\\Тетради новых терминов\\Выпуск 020 - Русско-английские термины по программе ЭПАС (сост. Яценко В.А., Рыков Г.А., Артемов Б.П.) (Тетради новых терминов) - 1978.pdf",0,2000-01-01 01:00:00,2016-04-03 02:51:08,854000/6a816a38e8885de730d1b42f48e4e485-g.jpg,,
5126988,Электрические машины. Виды электрических машин.,,Сборник рекомендуемых терминов Выпуск 052,,Ответственный редактор выпуска Е.В.Нитусов.,1960,,Издательство Академии наук СССР,М.,,0,Russian,,,,,,,,,,,,,,"Scan: AAW, Djvuing, OCR: Dmitry7, 2011",0,,1,,1,1,,1,793637,djvu,6769a1b9c967f4adb4df59d878dea9bd,,,D:\\Сборники научно-нормативной терминологии\\Выпуск 052 - Электрические машины - Виды электрических машин (1960).djvu,0,2000-01-01 01:00:00,2016-04-03 02:51:08,854000/6769a1b9c967f4adb4df59d878dea9bd-g.jpg,,
5126987,Терминология технической термодинамики.,,Сборник рекомендуемых терминов Выпуск 002,,"Под редакцией С.А.Чаплыгина, А.М.Терпигорева, Д.С.Лотте.",1948,,Издательство Академии наук СССР,М.-Л.,,0,Russian,,,,,,,,,,,,,,"Scan, Djvuing, OCR: Dmitry7, 2012",0,,1,,1,1,,1,1548160,djvu,671caf977f740dd8a7519e07afdd1448,,,D:\\Сборники научно-нормативной терминологии\\Выпуск 002 - Терминология технической термодинамики (1948).djvu,0,2000-01-01 01:00:00,2016-04-03 02:51:08,854000/671caf977f740dd8a7519e07afdd1448-g.jpg,,
5126986,"The Viennese School of Economics: A History of its Ideas, Proponents, and Institutions",,,,"Eugen-Maria Schulak, Herbert Unterköfler",2010,Draft,Ludwig von Mises Institute,,,0,English,,,0,,,,,,,,,,,,0,,,,,1,,,2988600,pdf,66a79073eaea1dbede2f9bdc7d250657,,,"The Viennese School of Economics A History of its Ideas, Proponents, and Institutions",0,2000-01-01 01:00:00,2016-04-03 02:51:08,854000/66a79073eaea1dbede2f9bdc7d250657-g.jpg,,
5126985,Теория управления. Терминология.,,Сборник рекомендуемых терминов Выпуск 107,,Ответственный редактор Б.Г.Волик.,1988,,Наука,М.,,0,Russian,,,,,,,,,,,,,,"Scan, Djvuing, OCR: Dmitry7, 2011-12",0,,1,,1,1,,1,663668,djvu,665c7a464f914e21b72d32d90f7459bd,,,D:\\Сборники научно-нормативной терминологии\\Выпуск 107 - Теория управления - Терминология (1988).djvu,0,2000-01-01 01:00:00,2016-04-03 02:51:08,854000/665c7a464f914e21b72d32d90f7459bd-g.jpg,,
5126984,План столичного города Санкт-Петербурга,,,,,1753,,,,,0,Russian Old,,,0,,,,,,,,,,,,0,,,,,1,,,85061675,pdf,65eeab898d1db973bad1e72eacf0edf9,,,Plan.stolichnago.goroda.Sanktpeterburga.1753.PDF,0,2000-01-01 01:00:00,2016-04-03 02:51:08,854000/65eeab898d1db973bad1e72eacf0edf9-g.jpg,,
5126983,Полное собрание сочинений М.В. Ломоносова,часть 2,,,,1803,,,,,0,Russian Old,,,0,,,,,,,,,,,,0,,,,,1,,,21010842,pdf,62e4d7ee23d841ddca3276cd3d9eac0a,,,Mikhail.Lomonosov.Polnoe.sobranie.sochinenijj.Mikhaila.Vasilevicha.Lomonosova.1803.Chast.2,0,2000-01-01 01:00:00,2016-04-03 02:51:08,854000/62e4d7ee23d841ddca3276cd3d9eac0a-g.jpg,,
5126981,Дамский сборник. Настольная книга для дам и девиц,,,,,1882,,А. К. Буринской,,,0,Russian Old,,,0,,,,,,,,,,,,0,,,,,1,,,31146995,djvu,6162b4a754cc23fb754735783632191a,,,Damskij.Sbornik.Nastolnaja.Kniga.Dlja.Dam.I.Devits.1882,0,2000-01-01 01:00:00,2016-04-03 02:51:08,854000/6162b4a754cc23fb754735783632191a-g.jpg,,
5126982,Free Market Economics: A Reader,,,,Bettina Bien Greaves,2007,,Ludwig von Mises Institute,,,0,English,,,0,",",,,,,,,,,,,0,,,,,1,,,27955553,pdf,61bb0c914adf48698139726311f7afd3,,,Free Market Economics A Basic Reader.pdf,0,2000-01-01 01:00:00,2016-04-03 02:51:08,854000/61bb0c914adf48698139726311f7afd3-d.jpg,,
5126980,Терминология по структурному анализу и синтезу релейно-контактных схем.,,Сборник рекомендуемых терминов Выпуск 008,,Ответственный редактор А.М.Терпигорев.,1953,,Издательство Академии наук СССР,М.,,0,Russian,,,,,,,,,,,,,,"Scan: AAW, Djvuing, OCR: Dmitry7, 2011",0,,1,,1,1,,1,414407,djvu,60f285655250071c3b2eb31e789b88a2,,,D:\\Сборники научно-нормативной терминологии\\Выпуск 008 - Терминология по структурному анализу и синтезу релейно-контактных схем (1953).djvu,0,2000-01-01 01:00:00,2016-04-03 02:51:08,854000/60f285655250071c3b2eb31e789b88a2-g.jpg,,
5126979,Теория надежности в области радиоэлектроники. Общие понятия. Отказы. Резервирование. Параметры. Испытания. Терминология.,,Сборник рекомендуемых терминов Выпуск 060,,Ответственный редактор выпуска В.Я.Сифоров.,1962,,Издательство Академии наук СССР,М.,,0,Russian,,,,,,,,,,,,,,"Scan, Djvuing, OCR: Dmitry7, 2011",0,,1,,1,1,,1,1196005,djvu,60b985e9bce0505f15a6b8dfed092731,,,D:\\Сборники научно-нормативной терминологии\\Выпуск 060 - Теория надежности в области радиоэлектроники - Терминология (1962).djvu,0,2000-01-01 01:00:00,2016-04-03 02:51:08,854000/60b985e9bce0505f15a6b8dfed092731-g.jpg,,
5126978,Англо-французско-русские термины по автоматизированным системам управлениям.,,Тетради новых терминов Выпуск 022,,"Составители А.А.Кривцова, А.Г.Потапова, М.С.Яроцкий. Под редакцией Г.Д.Рахманина.",1979,,Всесоюзный центр переводов,М.,,0,Russian,,,,,,,,,,,,,,"Scan, Formatting: niccolo, 2012",0,,1,,1,1,,1,16301132,pdf,6071edd9382a3712f60b084e993284c0,,,"D:\\Тетради новых терминов\\Выпуск 022 - Англо-французско-русские термины по автоматизированным системам управления (сост. Кривцова А.А., Потапова А.Г., Яроцкий М.С.) (Тетради новых терминов) - 1979.pdf",0,2000-01-01 01:00:00,2016-04-03 02:51:08,854000/6071edd9382a3712f60b084e993284c0-g.jpg,,
5126976,Wealth: A Brief Explanation of the Causes of Economic Welfare,,,,Edwin Cannan,1948,3,Staples Press,New York,,0,English,,,0,,,,,,,,,,,,0,,,,,1,,,18514666,pdf,5f0ff5f7ba430e1f811c76322bff5d00,,,Wealth A Brief Explanation of the Causes of Economic Welfare.pdf,0,2000-01-01 01:00:00,2016-04-03 02:51:08,854000/5f0ff5f7ba430e1f811c76322bff5d00-g.jpg,,
5126977,Англо-русские термины по оптическому приборостроению.,,Тетради новых терминов Выпуск 169,,Составитель Р.Н.Зуев. Ответственный редактор И.И.Убин.,1990,,Всесоюзный центр переводов,М.,,0,Russian,,,,,,,,,,,,,,"Scan: AAW, Formatting: Dmitry7, 2012",0,,1,,1,1,,1,1010236,djvu,6011fd710dc365b0772e700ff54535ac,,,D:\\Тетради новых терминов\\Выпуск 169 - Англо-Русские термины по оптическому приборостроению (сост. Зуев Р.Н.) (Тетради новых терминов) - 1990.djvu,0,2000-01-01 01:00:00,2016-04-03 02:51:08,854000/6011fd710dc365b0772e700ff54535ac-g.jpg,,
5126975,Англо-русские термины по устройствам ЧПУ и оборудованию гибких производственных систем.,,Тетради новых терминов Выпуск 081,,Составитель А.С.Чубуков. Под редакцией B.C.Воскобойникова. Ответственный редактор И.И.Убин.,1985,,Всесоюзный центр переводов,М.,,0,Russian,,,,,,,,,,,,,,"Scan, Formatting: niccolo, 2012",0,,1,,1,1,,1,9245385,pdf,5f0617ac7a230d4642ab4e62c4b09f79,,,D:\\Тетради новых терминов\\Выпуск 081 - Англо-русские термины по устройству ЧПУ и оборудованию гибких производственных систем (сост. Чубуков А.С.) (Тетради новых терминов) - 1985.pdf,0,2000-01-01 01:00:00,2016-04-03 02:51:08,854000/5f0617ac7a230d4642ab4e62c4b09f79-g.jpg,,
5126974,Glycemic Index from Research to Nutrition Recommendations,,,,,2005,,Nordic Council of Ministers,,,0,English,МЕдицина//Натуральная медицина,,0,"9289312564,9789289312561",,,,,,,,,,,0,,,,,1,,,925106,pdf,5ddec09e08901fd8665601b511de7010,,,Glycemic index,0,2000-01-01 01:00:00,2016-04-03 02:51:08,854000/5ddec09e08901fd8665601b511de7010-g.jpg,,
5126972,BS ISO 28560-3:2011 Information and documentation. RFID in libraries. Fixed length encoding,,,,BSi,2011,,BSi,,,0,English,,,0,"0580615197,9780580615191",,,,,,,,,,,0,,,,,1,,,844906,pdf,5d9088be976febd8df594452f2e4b835,,,BS ISO 28560-3 (2011),0,2000-01-01 01:00:00,2016-04-03 02:51:08,854000/5d9088be976febd8df594452f2e4b835-g.jpg,,
5126973,Терминология электрической тяги магистральных железных дорог и метрополитенов. Электротяговая сеть.,,Сборник рекомендуемых терминов Выпуск 031,,Ответственный редактор А.М.Терпигорев.,1954,,Издательство Академии наук СССР,М.,,0,Russian,,,,,,,,,,,,,,"Scan: AAW, Djvuing, OCR: Dmitry7, 2011",0,,1,,1,1,,1,484048,djvu,5dc68dab22b957e99b8faa3a6cddbacc,,,D:\\Сборники научно-нормативной терминологии\\Выпуск 031 - Терминология электрической тяги магистральных железных дорог и метрополитена - Электротяговая сеть (1954).djvu,0,2000-01-01 01:00:00,2016-04-03 02:51:08,854000/5dc68dab22b957e99b8faa3a6cddbacc-g.jpg,,
5126971,"Effects of the War on Money, Credit and Banking in France and the United States",,,,Benjamin M. Anderson,1919,1St Edition,"Oxford University Press, American Branch",,,0,English,,,0,",",,,,,,,,,,,0,,,,,1,,,13940460,pdf,5cd2c9dcf4149b45e337240a33e76e7d,,,"Effects of the War on the Money, Banking, Credit System of the United States.pdf",0,2000-01-01 01:00:00,2016-04-03 02:51:08,854000/5cd2c9dcf4149b45e337240a33e76e7d-d.jpg,,
5126970,Математические основы квантовой теории поля,,,,Шварц А. С.,1975,,Атомиздат,Москва,,0,Russian,,,0,,,,530.145,,,,,,,,0,,,,,1,,,3283250,djvu,5b9ebafecd6cc62b4b28b8671add5bcf,,,Шварц А. С. - Математические основы квантовой теории поля,0,2000-01-01 01:00:00,2016-04-03 02:51:08,854000/5b9ebafecd6cc62b4b28b8671add5bcf-g.jpg,,
5126969,Описание земли Камчатки,Том 1,,,С. Крашенников,1755,,,,,0,Russian Old,,,0,,,,,,,,,,,,0,,,,,1,,,47145961,pdf,5b2ce24f0953add4d3b308e1821c9b0b,,,Stepan.Krasheninnikov.Opisanie.zemli.Kamchatki.1755.Tom.1,0,2000-01-01 01:00:00,2016-04-03 02:51:08,854000/5b2ce24f0953add4d3b308e1821c9b0b-g.jpg,,
5126968,Робототехника. Терминология.,,Сборник рекомендуемых терминов Выпуск 115,,Ответственный редактор выпуска Е.П.Попов.,2000,,Российская Академия наук,М.,,0,Russian,,,,,,,,,,,,,,"Scan, Djvuing, OCR: Dmitry7, 2012",0,,1,,1,1,,1,1115373,djvu,5ad776e6e3be81bb50ac82d90b6fc1e6,,,D:\\Сборники научно-нормативной терминологии\\Выпуск 115 - Робототехника - Терминология (2000).djvu,0,2000-01-01 01:00:00,2016-04-03 02:51:08,854000/5ad776e6e3be81bb50ac82d90b6fc1e6-g.jpg,,
5126967,Терминология теплопередачи.,,Сборник рекомендуемых терминов Выпуск 001а,,Ответственный редактор А.М.Терпигорев.,1959,,Издательство Академии наук СССР,М.,,0,Russian,,,,,,,,,,,,,,"Scan: AAW, Djvuing, OCR: Dmitry7, 2011",0,,1,,1,1,,1,360000,djvu,59749643db11aaacddcd5b503ed6caa3,,,D:\\Сборники научно-нормативной терминологии\\Выпуск 001а- Основные буквенные обозначения в астрономии (1959).djvu,0,2000-01-01 01:00:00,2016-04-03 02:51:08,854000/59749643db11aaacddcd5b503ed6caa3-g.jpg,,
5126966,Theory of Prices: A Re-Examination of the Central Problems of Monetary Theory,1,,,Arthur W. Marget,1964,,Augustus M. Kelley,New York,,0,English,,,0,",",,,,,,,,,,,0,,,,,1,,,49389481,pdf,58c8ab4bfdd986387ad41c9983332d51,,,"The Theory of Prices A Re-Examination of the Central Problems of Monetary Theory, Vol I.pdf",0,2000-01-01 01:00:00,2016-04-03 02:51:08,854000/58c8ab4bfdd986387ad41c9983332d51-g.jpg,,
5126965,Гироскопия. Терминология.,,Сборник рекомендуемых терминов Выпуск 118,,Ответственный редактор выпуска И.В.Новожилов.,1994,,Российская Академия наук,М.,,0,Russian,,,,,,,,,,,,,,"Scan, Djvuing, OCR: Dmitry7, 2011-12",0,,1,,1,1,,1,832836,djvu,58c79bab41f6a0b94651b8ac09e40c98,,,D:\\Сборники научно-нормативной терминологии\\Выпуск 118 - Гироскопия - Терминология (1994).djvu,0,2000-01-01 01:00:00,2016-04-03 02:51:08,854000/58c79bab41f6a0b94651b8ac09e40c98-g.jpg,,
5126964,Англо-русские термины по механике разрушения.,,Тетради новых терминов Выпуск 051,,"Составитель Н.Д.Решетов. Под редакцией Н.А.Махутова, В.М.Тарасова. Ответственный редактор И.И.Убин.",1983,,Всесоюзный центр переводов,М.,,0,Russian,,,,,,,,,,,,,,"Scan, Formatting: niccolo, 2012",0,,1,,1,1,,1,11608841,pdf,58772825b72382f75e04c7feef29f56f,,,D:\\Тетради новых терминов\\Выпуск 051 - Англо-русские термины по механике разрушения (сост. Решетов Н.Л.) (Тетради новых терминов) - 1983.pdf,0,2000-01-01 01:00:00,2016-04-03 02:51:08,854000/58772825b72382f75e04c7feef29f56f-g.jpg,,
5126963,Новейшее землеописание всех четырех частей света,часть 1,,,М. Антоновский,1795,,,,,0,Russian Old,,,0,,,,,,,,,,,,0,,,,,1,,,8667796,pdf,549d1e204dc6cbbc37485ad0bb4f904f,,,Mikhail.Antonovskijj.Novejjshee.zemleopisanie.vsekh.chetyrekh.chastejj.sveta.1795.Chast.1.Nachalnoe.osnovanie.dlja.maloletnykh.detejj,0,2000-01-01 01:00:00,2016-04-03 02:51:08,854000/549d1e204dc6cbbc37485ad0bb4f904f-g.jpg,,
5126962,Англо-русские термины по проектированию летательных аппаратов.,,Тетради новых терминов Выпуск 172,,"Составители А.П.Захаров, Б.Б.Рыбак. Ответственный редактор И.И.Убин.",1990,,Всесоюзный центр переводов,М.,,0,Russian,,,,,,,,,,,,,,"Scan, Formatting: niccolo, 2012",0,,1,,1,1,,1,5562309,pdf,52c219cbf2065111a62d5c76b061ab95,,,"D:\\Тетради новых терминов\\Выпуск 172 - Англо-русские термины по проектированию летательных аппаратов (сост. Захаров А.П., Рыбак Б.Б.) (Тетради новых терминов) - 1990.pdf",0,2000-01-01 01:00:00,2016-04-03 02:51:08,854000/52c219cbf2065111a62d5c76b061ab95-g.jpg,,
5126961,Individual Liberty,,,,Benjamin R. Tucker,1926,,Vanguard Press,New York,,0,English,,,0,,,,,,,,,,,,0,,,,,1,,,23118584,pdf,51162eff4d1ae09e81e2a4a0f3dd3a28,,,Individual Liberty.pdf,0,2000-01-01 01:00:00,2016-04-03 02:51:08,854000/51162eff4d1ae09e81e2a4a0f3dd3a28-g.jpg,,
5126960,Теоретическая механика. Общие понятия. Кинематика. Кинетика (статика и динамика). Терминология.,,Сборник рекомендуемых терминов Выпуск 090,,Ответственный редактор выпуска А.Ю.Ишлинский.,1977,,Наука,М.,,0,Russian,,,,,,,,,,,,,,"Scan, Djvuing, OCR: Dmitry7, 2011-12",0,,1,,1,1,,1,1045999,djvu,510d6bf7565eeb1498d817e58c7f6e7c,,,D:\\Сборники научно-нормативной терминологии\\Выпуск 090 - Теоретическая механика - Терминология (1977).djvu,0,2000-01-01 01:00:00,2016-04-03 02:51:08,854000/510d6bf7565eeb1498d817e58c7f6e7c-g.jpg,,
5126959,Полное собрание сочинений М.В. Ломоносова,часть 4,,,,1803,,,,,0,Russian Old,,,0,,,,,,,,,,,,0,,,,,1,,,41256611,pdf,4f7397b8e6ce373a176ffefc1f340ce2,,,Mikhail.Lomonosov.Polnoe.sobranie.sochinenijj.Mikhaila.Vasilevicha.Lomonosova.1803.Chast.4,0,2000-01-01 01:00:00,2016-04-03 02:51:08,854000/4f7397b8e6ce373a176ffefc1f340ce2-g.jpg,,
5126958,Обработка металлов давлением. Операции и переходы ковки и штамповки: Терминология.,,Сборник рекомендуемых терминов Выпуск 055,,Ответственный редактор выпуска С.Н.Хржановский.,1961,,Издательство Академии наук СССР,М.,,0,Russian,,,,,,,,,,,,,,"Scan: AAW, Djvuing, OCR: Dmitry7, 2011",0,,1,,1,1,,1,473319,djvu,496b6a9300f9158454e2b2c94e29d843,,,D:\\Сборники научно-нормативной терминологии\\Выпуск 055 - Обработка металлов давлением - Операции и переходы ковки и штамповки - Терминология (1961).djvu,0,2000-01-01 01:00:00,2016-04-03 02:51:08,854000/496b6a9300f9158454e2b2c94e29d843-g.jpg,,
5126957,Терминология электрических явлений в газах.,,Сборник рекомендуемых терминов Выпуск 013,,Ответственный редактор А.М.Терпигорев.,1952,,Издательство Академии наук СССР,М.,,0,Russian,,,,,,,,,,,,,,"Scan: AAW, Djvuing, OCR: Dmitry7, 2011",0,,1,,1,1,,1,604558,djvu,490ce10416b036d974b30330ae0edfaf,,,D:\\Сборники научно-нормативной терминологии\\Выпуск 013 - Терминология электрических явлений в газах (1952).djvu,0,2000-01-01 01:00:00,2016-04-03 02:51:08,854000/490ce10416b036d974b30330ae0edfaf-g.jpg,,
5126956,Терминология теоретической электротехники.,,Сборник рекомендуемых терминов Выпуск 046,,Ответственный редактор выпуска Л.Р.Нейман.,1958,,Издательство Академии наук СССР,М.,,0,Russian,,,,,,,,,,,,,,"Scan: AAW, Djvuing, OCR: Dmitry7, 2011",0,,1,,1,1,,1,1192117,djvu,46855e1571d375c608fafd0718349e50,,,D:\\Сборники научно-нормативной терминологии\\Выпуск 046 - Терминология теоретической электротехники (1958).djvu,0,2000-01-01 01:00:00,2016-04-03 02:51:08,854000/46855e1571d375c608fafd0718349e50-g.jpg,,
5126955,Французско-русские термины по таре и упаковке.,,Тетради новых терминов Выпуск 180,,Составитель Г.С.Поспехова. Ответственный редактор И.И.Убин.,1991,,Всесоюзный центр переводов,М.,,0,Russian,,,,,,,,,,,,,,"Scan, Formatting: niccolo, 2012",0,,1,,1,1,,1,3554997,pdf,4640738c7c104df15a4a1633fdbea126,,,D:\\Тетради новых терминов\\Выпуск 180 - Французско-русские по таре и упаковке (сост. Убин И.И.) (Тетради новых терминов) - 1991.pdf,0,2000-01-01 01:00:00,2016-04-03 02:51:08,854000/4640738c7c104df15a4a1633fdbea126-g.jpg,,
5126954,BS ISO 28560-2:2011 Information and documentation. RFID in libraries. Encoding of RFID data elements based on rules from ISO/IEC 15962,,,,BSi,2011,,BSi,,,0,English,,,0,"0580615189,9780580615184",,,,,,,,,,,0,,,,,1,,,1078425,pdf,42cebc1ccda4a558642bc88071e25e36,,,BS ISO 28560-2 (2011),0,2000-01-01 01:00:00,2016-04-03 02:51:08,854000/42cebc1ccda4a558642bc88071e25e36-g.jpg,,
5126953,Методическиерекомендации для переводчиков и редакторов научно-технической литературы,,Тетради новых терминов ,,Смирнов И.П.,1988,,Всесоюзный центр переводов,М.,,0,Russian,,,,,,,,,,,,,,,0,,1,,1,1,,1,36913146,pdf,42bc2c86bb741f3e53245fa9bf85ce2f,,,D:\\Тетради новых терминов\\Методические рекомендации для переводчиков и редакторов научно-технической литературы (Смирнов И.П.) - 1988.pdf,0,2000-01-01 01:00:00,2016-04-03 02:51:08,854000/42bc2c86bb741f3e53245fa9bf85ce2f-g.jpg,,
5126952,Теория информации. Терминология.,,Сборник рекомендуемых терминов Выпуск 064,,Ответственный А.А.Харкевич.,1964,,Наука,М.,,0,Russian,,,,,,,,,,,,,,"Scan, Djvuing, OCR: Dmitry7, 2011",0,,1,,1,1,,1,573916,djvu,42116a0d4026bce86c7f07691f13bb03,,,D:\\Сборники научно-нормативной терминологии\\Выпуск 064 - Теория информации - Терминология (1964).djvu,0,2000-01-01 01:00:00,2016-04-03 02:51:08,854000/42116a0d4026bce86c7f07691f13bb03-g.jpg,,
5126951,Словарь Академии Российской. от А до Г,часть 1,,,,1789,,,,,0,Russian Old,,,0,,,,,,,,,,,,0,,,,,1,,,39393936,djvu,40962eca343e2b80bc9aa8249538e186,,,Slovar.Akademii.Rossijjskojj.1789.Chast.I.ot.A.do.G,0,2000-01-01 01:00:00,2016-04-03 02:51:08,854000/40962eca343e2b80bc9aa8249538e186-g.jpg,,
5126950,Физика атомного ядра и элементарных частиц. Терминология.,,Сборник рекомендуемых терминов Выпуск 110,,Ответственный редактор выпуска A.B.Ефремов.,1989,,Наука,М.,,0,Russian,,,,,,,,,,,,,,"Scan, Djvuing, OCR: Dmitry7, 2012",0,,1,,1,1,,1,808701,djvu,3fe45c009e992a14e61074c68682b1d9,,,D:\\Сборники научно-нормативной терминологии\\Выпуск 110 - Физика атомного ядра и элементарных частиц - Терминология (1989).djvu,0,2000-01-01 01:00:00,2016-04-03 02:51:08,854000/3fe45c009e992a14e61074c68682b1d9-g.jpg,,
5126949,Англо-русские термины по сельскохозяйственной авиации.,,Тетради новых терминов Выпуск 142,,"Составители Г.Г.Литвинова, Л.А.Калиниченко, Л.Н.Прытков, В.Н.Филиппова, В.П.Реутов. Под редакцией Е.С.Будрика. Ответственный редактор И.И.Убин.",1989,,Всесоюзный центр переводов,М.,,0,Russian,,,,,,,,,,,,,,"Scan, Formatting: niccolo, 2012",0,,1,,1,1,,1,7354448,pdf,3edbcff8149c899290be50a2e625d2b8,,,D:\\Тетради новых терминов\\Выпуск 142 - Англо-русские термины по сельскохозяйственной авиации (сост. Литвинова Г.Г. и др) (Тетради новых терминов) - 1989.pdf,0,2000-01-01 01:00:00,2016-04-03 02:51:08,854000/3edbcff8149c899290be50a2e625d2b8-g.jpg,,
5126948,Теория механизмов. Основные понятия. Терминология.,,Сборник рекомендуемых терминов Выпуск 068,,Ответственный редактор выпуска Н.И.Левитский.,1965,,Наука,М.,,0,Russian,,,,,,,,,,,,,,"Scan, Djvuing, OCR: Dmitry7, 2011",0,,1,,1,1,,1,695298,djvu,3e5cd3512056c928aa35fd5bd2a9289e,,,"D:\\Сборники научно-нормативной терминологии\\Выпуск 068 - Теория механизмов - Основные понятия, Терминология (1965).djvu",0,2000-01-01 01:00:00,2016-04-03 02:51:08,854000/3e5cd3512056c928aa35fd5bd2a9289e-g.jpg,,
5126947,Французско-русские термины по созданию совместных предприятий.,,Тетради новых терминов Выпуск 164,,Составитель Л.Ф.Калиночкина.,1990,,Всесоюзный центр переводов,М.,,0,Russian,,,,,,,,,,,,,,"Scan, Formatting: niccolo, 2012",0,,1,,1,1,,1,2645143,pdf,3d594b935e0fa5f6dea4edbc84818cd2,,,D:\\Тетради новых терминов\\Выпуск 164 - Французско-русские по созданию совместных предприятий (сост. Калиночкина Л.Ф.) (Тетради новых терминов) - 1990.pdf,0,2000-01-01 01:00:00,2016-04-03 02:51:08,854000/3d594b935e0fa5f6dea4edbc84818cd2-g.jpg,,
5126946,Аналоговая вычислительная техника. Терминология.,,Сборник рекомендуемых терминов Выпуск 084,,Ответственный редактор выпуска В.Б.Ушаков.,1972,,Наука,М.,,0,Russian,,,,,,,,,,,,,,"Scan, Djvuing, OCR: Dmitry7, 2011-12",0,,1,,1,1,,1,689430,djvu,3cc56215706b5976a5bd52e4a03e0855,,,D:\\Сборники научно-нормативной терминологии\\Выпуск 084 - Аналоговая вычислительная техника - Терминология (1972).djvu,0,2000-01-01 01:00:00,2016-04-03 02:51:08,854000/3cc56215706b5976a5bd52e4a03e0855-g.jpg,,
5126945,BS ISO/IEC 27035:2011 Information technology. Security techniques. Information security incident management,,,,BSi,2011,,BSi,,,0,English,,,0,"0580635872,9780580635878",,,,,,,,,,,0,,,,,1,,,1630665,pdf,3bccab695864bd063b260567ac27df57,,,BS ISO IEC 27035 (2011),0,2000-01-01 01:00:00,2016-04-03 02:51:08,854000/3bccab695864bd063b260567ac27df57-g.jpg,,
5126944,Терминология теории и характеристик авиационных газотурбинных двигателей и турбомашин для комбинированных силовых установок.,,Сборник рекомендуемых терминов Выпуск 024,,Ответственный редактор А.М.Терпигорев.,1954,,Издательство Академии наук СССР,М.,,0,Russian,,,,,,,,,,,,,,"Scan: AAW, Djvuing, OCR: Dmitry7, 2011",0,,1,,1,1,,1,470837,djvu,3b8506e078c5ae1ab59ba41881d72e09,,,D:\\Сборники научно-нормативной терминологии\\Выпуск 024 - Терминология теории и характеристик авиационных газотурбинных двигателей (1954).djvu,0,2000-01-01 01:00:00,2016-04-03 02:51:08,854000/3b8506e078c5ae1ab59ba41881d72e09-g.jpg,,
5126943,"Терминология конструкций турбореактивных, турбовинтовых и поршневых двигателей.",,Сборник рекомендуемых терминов Выпуск 019,,Ответственный редактор А.М.Терпигорев.,1954,,Издательство Академии наук СССР,М.,,0,Russian,,,,,,,,,,,,,,"Scan: AAW, Djvuing, OCR: Dmitry7, 2011",0,,1,,1,1,,1,346914,djvu,39e5633dc8d9f4456a88c5e0f881c2e0,,,"D:\\Сборники научно-нормативной терминологии\\Выпуск 019 - Терминология конструкции турбореактивных, турбовинтовых и поршневых двигателей (1954).djvu",0,2000-01-01 01:00:00,2016-04-03 02:51:08,854000/39e5633dc8d9f4456a88c5e0f881c2e0-g.jpg,,
5126942,"Selected Works, Vol. IV",,,,Lu Xun,1980,3,Foreign Languages Press,Beijing,,0,English,Литература//Литературоведение,,0,,,,,,,,,,,,0,,,,,1,,,28258107,pdf,3950b5cb3d3c87c0db3268351683af4d,,,Lu Xun Selected Works Vol.4,0,2000-01-01 01:00:00,2016-04-03 02:51:08,854000/3950b5cb3d3c87c0db3268351683af4d-g.jpg,,
5126941,Англо-русские термины по авиационной гидравлике.,,Тетради новых терминов Выпуск 135,,"Составители А.П.Захаров, A.M.Плунгян. Под редакцией A.M.Матвеенко. Ответственный редактор И.И.Убин.",1988,,Всесоюзный центр переводов,М.,,0,Russian,,,,,,,,,,,,,,"Scan, Formatting: niccolo, 2012",0,,1,,1,1,,1,6707980,pdf,384a866958ec4efd7766074e0ac0db0b,,,"D:\\Тетради новых терминов\\Выпуск 135 - Англо-русские термины по авиационной гидравлике (сост. Захаров А.П., Плунгян А.М.) (Тетради новых терминов) - 1988.pdf",0,2000-01-01 01:00:00,2016-04-03 02:51:08,854000/384a866958ec4efd7766074e0ac0db0b-g.jpg,,
5126940,Словарь Академии Российской. от З до М,Том 3,,,,1792,,,,,0,Russian Old,,,0,,,,,,,,,,,,0,,,,,1,,,56033865,djvu,37d50d6ba323a31daea6315316828dcb,,,Slovar.Akademii.Rossijjskojj.1792.Chast.III.ot.Z.do.M,0,2000-01-01 01:00:00,2016-04-03 02:51:08,854000/37d50d6ba323a31daea6315316828dcb-g.jpg,,
5126939,BS ISO 28560-1:2011 Information and documentation. RFID in libraries. Data elements and general guidelines for implementation,,,,BSi,2011,,BSi,,,0,English,,,0,"0580615170,9780580615177",,,,,,,,,,,0,,,,,1,,,805974,pdf,3648640161c34780905b99f6913a1946,,,BS ISO 28560-1 (2011),0,2000-01-01 01:00:00,2016-04-03 02:51:08,854000/3648640161c34780905b99f6913a1946-g.jpg,,
5126938,Терминология газовой техники.,,Сборник рекомендуемых терминов Выпуск 041,,Ответственный редактор Н.М.Караваев.,1957,,Издательство Академии наук СССР,М.,,0,Russian,,,,,,,,,,,,,,"Scan: AAW, Djvuing, OCR: Dmitry7, 2011",0,,1,,1,1,,1,556675,djvu,35e1918c65f43204945dfab11fd2575a,,,D:\\Сборники научно-нормативной терминологии\\Выпуск 041 - Терминология газовой механики (1957).djvu,0,2000-01-01 01:00:00,2016-04-03 02:51:08,854000/35e1918c65f43204945dfab11fd2575a-g.jpg,,
5126937,Полное собрание сочинений М.В. Ломоносова,часть 5,,,,1804,,,,,0,Russian Old,,,0,,,,,,,,,,,,0,,,,,1,,,22728199,pdf,33525ae5cbadc4b954be61cbbbfd544c,,,Mikhail.Lomonosov.Polnoe.sobranie.sochinenijj.Mikhaila.Vasilevicha.Lomonosova.1804.Chast.5,0,2000-01-01 01:00:00,2016-04-03 02:51:08,854000/33525ae5cbadc4b954be61cbbbfd544c-g.jpg,,
5126936,Англо-русские термины по разработке морских нефтяных и газовых месторождений.,,Тетради новых терминов Выпуск 021,,"Составители А.А.Мовсумов, А.О.Курбанов, Э.О.Курбанов. Под редакцией Д.Е.Столярова. Ответственный редактор И.П.Смирнов.",1979,,Всесоюзный центр переводов,М.,,0,Russian,,,,,,,,,,,,,,"Scan, Formatting: niccolo, 2012",0,,1,,1,1,,1,4196554,pdf,330a1eff1cca9cbb8b8006133664308a,,,"D:\\Тетради новых терминов\\Выпуск 021 - Англо-русские термины по разработке морских нефтяных и газовых месторождений (сост. Мовсумов А.А., Курбанов А.О., Курбанов Э.О.) (Тетради новых терминов) - 1979.pdf",0,2000-01-01 01:00:00,2016-04-03 02:51:08,854000/330a1eff1cca9cbb8b8006133664308a-g.jpg,,
5126935,Англо-русские термины по сертификации гражданских воздушных судов.,,Тетради новых терминов Выпуск 187,,Составитель В.М.Шуманов. Ответственный редактор И.И.Убин.,1991,,Всесоюзный центр переводов,М.,,0,Russian,,,,,,,,,,,,,,"Scan, Formatting: niccolo, 2012",0,,1,,1,1,,1,8644323,pdf,31bfb9a7b8aca1a6660e6fd85f12a56a,,,D:\\Тетради новых терминов\\Выпуск 187 - Англо-русские термины по сертификации гражданских воздушных судов (сост. Шуманов В.М.) (Тетради новых терминов) - 1991.pdf,0,2000-01-01 01:00:00,2016-04-03 02:51:08,854000/31bfb9a7b8aca1a6660e6fd85f12a56a-g.jpg,,
5126934,Полупроводниковые приборы. Основные понятия. Физические элементы полупроводниковых приборов. Виды полупроводниковых приборов. Явления в полупроводниковых приборах. Терминология.,,Сборник рекомендуемых терминов Выпуск 069,,Ответственный редактор выпуска Я.А.Федотов.,1965,,Наука,М.,,0,Russian,,,,,,,,,,,,,,"Scan, Djvuing, OCR: Dmitry7, 2011",0,,1,,1,1,,1,1251141,djvu,318794229e4509461efa4152860893e7,,,D:\\Сборники научно-нормативной терминологии\\Выпуск 069 - Полупроводниковые приборы - Терминология (1965).djvu,0,2000-01-01 01:00:00,2016-04-03 02:51:08,854000/318794229e4509461efa4152860893e7-g.jpg,,
5126933,Итальянско-русские термины по электрооборудованию и электроэнергетическим системам.,,Тетради новых терминов Выпуск 192,,Составитель А.И.Гершенгорн. Ответственный редактор И.И.Убин.,1993,,Всероссийский центр переводов,М.,,0,Russian,,,,,,,,,,,,,,"Scan: AAW, Formatting: Dmitry7, niccolo, 2012",0,,1,,1,1,,1,10081055,pdf,30e2150b0dbd4403e348f024b3ec23f9,,,D:\\Тетради новых терминов\\Выпуск 192 - Итальянско-русские термины по электрооборудованию и электроэнергетическим системам (сост. Гершенгорн А.И.) (Тетради новых терминов) - 1993.pdf,0,2000-01-01 01:00:00,2016-04-03 02:51:08,854000/30e2150b0dbd4403e348f024b3ec23f9-g.jpg,,
5126932,Терминология термодинамики.,,Сборник рекомендуемых терминов Выпуск 007,,Ответственный редактор А.М.Терпигорев.,1952,,Издательство Академии наук СССР,М.,,0,Russian,,,,,,,,,,,,,,"Scan: AAW, Djvuing, OCR: Dmitry7, 2011",0,,1,,1,1,,1,937734,djvu,30ac8c4f5d451db3d313572375acfed9,,,D:\\Сборники научно-нормативной терминологии\\Выпуск 007 - Терминология термодинамики (1952).djvu,0,2000-01-01 01:00:00,2016-04-03 02:51:08,854000/30ac8c4f5d451db3d313572375acfed9-g.jpg,,
5126931,Терминология теплопередачи.,,Сборник рекомендуемых терминов Выпуск 001,,Ответственный редактор А.М.Терпигорев.,1951,,Издательство Академии наук СССР,М.,,0,Russian,,,,,,,,,,,,,,"Scan: AAW, Djvuing, OCR: Dmitry7, 2011",0,,1,,1,1,,1,351003,djvu,309ddaf1bbe2ad079cecab553eba37f3,,,D:\\Сборники научно-нормативной терминологии\\Выпуск 001_- Терминология теплопередачи (1951).djvu,0,2000-01-01 01:00:00,2016-04-03 02:51:08,854000/309ddaf1bbe2ad079cecab553eba37f3-g.jpg,,
5126930,Англо-русские термины по получению искусственных горючих газов.,,Тетради новых терминов Выпуск 035,,Составитель Т.М.Пьянкова. Под редакцией К.Н.Звягинцева. Ответственный редактор И.П.Смирнов.,1981,,Всесоюзный центр переводов,М.,,0,Russian,,,,,,,,,,,,,,"Scan, Formatting: niccolo, 2012",0,,1,,1,1,,1,16397395,pdf,301adf8af481dcb8a39684bed230abf4,,,D:\\Тетради новых терминов\\Выпуск 035 - Англо-русские термины по получению искусственных горючих газов (сост. Пьянкова Т.М.) (Тетради новых терминов) - 1981.pdf,0,2000-01-01 01:00:00,2016-04-03 02:51:08,854000/301adf8af481dcb8a39684bed230abf4-g.jpg,,
5126929,Англо-русские теплины по подводному бурению.,,Тетради новых терминов Выпуск 011,,"Составители А.О.Курганов, Э.О.Курганов, Ю.А.Агагусейнов. Под редакцией А.А.Мовоумова, Д.Е.Столярова.",1976,,Всесоюзный центр переводов,М.,,0,Russian,,,,,,,,,,,,,,"Scan, Formatting: niccolo, 2012",0,,1,,1,1,,1,6757039,pdf,2d4f70de310ef5c0cd1810df49e257a7,,,"D:\\Тетради новых терминов\\Выпуск 011 - Англо-русские термины по подводному бурению (сост. Курбанов А.О., Курбанов Э.О., Агагусейнов Ю.А.) (Тетради новых терминов) - 1976.pdf",0,2000-01-01 01:00:00,2016-04-03 02:51:08,854000/2d4f70de310ef5c0cd1810df49e257a7-g.jpg,,
5126928,Англо-русские термины по металлорежущим станкам и металлообработке.,,Тетради новых терминов Выпуск 026,,Составитель Б.С.Воскобойников. Под редакцией В.В.Шварца. Ответственный редактор И.П.Смирнов.,1980,,Всесоюзный центр переводов,М.,,0,Russian,,,,,,,,,,,,,,"Scan, Formatting: niccolo, 2012",0,,1,,1,1,,1,11236268,pdf,2b1e69e4d9267235a14139942f67aab3,,,D:\\Тетради новых терминов\\Выпуск 026 - Англо-русские термины по металлорежущим станкам и металлообработке (сост. Воскобойников Б.С.) (Тетради новых терминов) - 1980.pdf,0,2000-01-01 01:00:00,2016-04-03 02:51:08,854000/2b1e69e4d9267235a14139942f67aab3-g.jpg,,
5126927,Терминология гидромеханики.,,Сборник рекомендуемых терминов Выпуск 003,,Ответственный редактор А.М.Терпигорев.,1947,,Издательство Академии наук СССР,М.-Л.,,0,Russian,,,,,,,,,,,,,,"Scan: AAW, Djvuing, OCR: Dmitry7, 2011",0,,1,,1,1,,1,1697315,djvu,2b0456233ef753bcb5f6424ea2aea267,,,D:\\Сборники научно-нормативной терминологии\\Выпуск 003 - Терминология гидромеханики (1947).djvu,0,2000-01-01 01:00:00,2016-04-03 02:51:08,854000/2b0456233ef753bcb5f6424ea2aea267-g.jpg,,
5126926,Динамика растительного покрова и развитие мерзлотных форм рельефа,,,,Тыртиков А.П.,1979,,Наука,М.,,0,Russian,,,0,,,,,,,,,,,,0,,,,,1,,,6451668,pdf,2afa607f37c2421f5bc697af15e03e54,,,tyrtikov1979_dinamika_rast_pokr_razv_merzl,0,2000-01-01 01:00:00,2016-04-03 02:51:08,854000/2afa607f37c2421f5bc697af15e03e54-g.jpg,,
5126925,Теория передачи информации. Терминология.,,Сборник рекомендуемых терминов Выпуск 094,,Ответственный редактор выпуска В.И.Сифоров.,1979,,Наука,М.,,0,Russian,,,,,,,,,,,,,,"Scan, Djvuing, OCR: Dmitry7, 2011-12",0,,1,,1,1,,1,771046,djvu,2ad07c05970286b46f693047ed895f29,,,D:\\Сборники научно-нормативной терминологии\\Выпуск 094 - Теория передачи информации - Терминология (1979).djvu,0,2000-01-01 01:00:00,2016-04-03 02:51:08,854000/2ad07c05970286b46f693047ed895f29-g.jpg,,
5126924,Новое и полное собрание российских песен,часть 4,,,М. Чулков,1780,,,,,0,Russian Old,,,0,,,,,,,,,,,,0,,,,,1,,,14295990,pdf,2aca99fd87fb02113c513e0377be029b,,,Mikhail.Chulkov.Novoe.i.polnoe.sobranie.rossijjskikh.pesen.1780.Chast.4,0,2000-01-01 01:00:00,2016-04-03 02:51:08,854000/2aca99fd87fb02113c513e0377be029b-g.jpg,,
5126923,Строительная механика - Терминология,,Сборник рекомендуемых терминов Выпуск 082,,,1970,,Наука,М.,,0,Russian,,,,,,,,,,,,,,,0,,1,,1,1,,1,368530,pdf,29e2338827914eeff5cd7f04086e8b6d,,,D:\\Сборники научно-нормативной терминологии\\Выпуск 082 - Строительная механика - Терминология (1970).pdf,0,2000-01-01 01:00:00,2016-04-03 02:51:08,854000/29e2338827914eeff5cd7f04086e8b6d-g.jpg,,
5126922,Англо-русские термины по проводной и дальней связи.,,Тетради новых терминов Выпуск 045,,"Составители В.Н.Гритченко, Ю.Г.Розмахов. Под редакцией А.И.Куштуева. Ответственный редактор И.И.Убин.",1983,,Всесоюзный центр переводов,М.,,0,Russian,,,,,,,,,,,,,,"Scan, Formatting: niccolo, 2012",0,,1,,1,1,,1,18879033,pdf,294ecb97565dd54ecdb5048903e5e489,,,"D:\\Тетради новых терминов\\Выпуск 045 - Англо-русские термины по проводной и дальней связи (сост. Гритченко В.Н., Розмахов Ю.Г.) (Тетради новых терминов) - 1983.pdf",0,2000-01-01 01:00:00,2016-04-03 02:51:08,854000/294ecb97565dd54ecdb5048903e5e489-g.jpg,,
5126921,Словарь Академии Российской. от Т до конца,часть 6,,,,1794,,,,,0,Russian Old,,,0,,,,,,,,,,,,0,,,,,1,,,39748481,djvu,28f7360ac5b094f816164ac980a217e1,,,Slovar.Akademii.Rossijjskojj.1794.Chast.VI.ot.T.do.konca,0,2000-01-01 01:00:00,2016-04-03 02:51:08,854000/28f7360ac5b094f816164ac980a217e1-g.jpg,,
5126920,Терминология воздушных винтов и вертолетов.,,Сборник рекомендуемых терминов Выпуск 020,,Ответственный редактор А.М.Терпигорев.,1954,,Издательство Академии наук СССР,М.,,0,Russian,,,,,,,,,,,,,,"Scan: AAW, Djvuing, OCR: Dmitry7, 2011",0,,1,,1,1,,1,477630,djvu,28a6970c1d8c529c12345b9c903c2742,,,D:\\Сборники научно-нормативной терминологии\\Выпуск 020 - Терминология воздушных винтов и вертолетов (1954).djvu,0,2000-01-01 01:00:00,2016-04-03 02:51:08,854000/28a6970c1d8c529c12345b9c903c2742-g.jpg,,
5126919,Англо-русские термины по искусственному интеллекту.,,Тетради новых терминов Выпуск 171,,Составитель Л.А.Теплицкий.,1990,,Всесоюзный центр переводов,М.,,0,Russian,,,,,,,,,,,,,,"Scan, Formatting: niccolo, 2012",0,,1,,1,1,,1,10344254,pdf,271021128b7dc5f91d553fa6d51e99e5,,,D:\\Тетради новых терминов\\Выпуск 171 - Англо-русские термины по искусственному интеллекту (сост. Теплицкий Л.А.) (Тетради новых терминов) - 1990.pdf,0,2000-01-01 01:00:00,2016-04-03 02:51:08,854000/271021128b7dc5f91d553fa6d51e99e5-g.jpg,,
5126917,Новое и полное собрание российских песен,часть 1,,,М. Чулков,1780,,,,,0,Russian Old,,,0,,,,,,,,,,,,0,,,,,1,,,16205543,pdf,240d457e6d7d002df8e094d605c496cc,,,Mikhail.Chulkov.Novoe.i.polnoe.sobranie.rossijjskikh.pesen.1780.Chast.1,0,2000-01-01 01:00:00,2016-04-03 02:51:08,854000/240d457e6d7d002df8e094d605c496cc-g.jpg,,
5126918,Квантовая теория твердого тела. Терминология.,,Сборник рекомендуемых терминов Выпуск 105,,Ответственный редактор выпуска А.М.Косевич.,1985,,Наука,М.,,0,Russian,,,,,,,,,,,,,,"Scan: AAW, Djvuing, OCR: Dmitry7, 2012",0,,1,,1,1,,1,301166,djvu,241e4228ff0fe0002327def86eaa081d,,,D:\\Сборники научно-нормативной терминологии\\Выпуск 105 - Квантовая теория твердого тела - Терминология (1985).djvu,0,2000-01-01 01:00:00,2016-04-03 02:51:08,854000/241e4228ff0fe0002327def86eaa081d-g.jpg,,
5126916,Надежность технических систем и изделий. Основные понятия. Терминология.,,Сборник рекомендуемых терминов Выпуск 067,,Ответственный редактор Б.С.Сотсков.,1964,,Наука,М.,,0,Russian,,,,,,,,,,,,,,"Scan, Djvuing, OCR: Dmitry7, 2012",0,,1,,1,1,,1,199667,djvu,23c6744a7aa606188ac1874ea1045adc,,,D:\\Сборники научно-нормативной терминологии\\Выпуск 067 - Надежность технических систем и изделий - Основные понятия - Терминология (1964).djvu,0,2000-01-01 01:00:00,2016-04-03 02:51:08,854000/23c6744a7aa606188ac1874ea1045adc-g.jpg,,
5126915,Новое и полное собрание российских песен,часть 5,,,М. Чулков,1780,,,,,0,Russian Old,,,0,,,,,,,,,,,,0,,,,,1,,,13923837,pdf,214f10aa16a4d5f48a6e4e3b664ecbc5,,,Mikhail.Chulkov.Novoe.i.polnoe.sobranie.rossijjskikh.pesen.1780.Chast.5,0,2000-01-01 01:00:00,2016-04-03 02:51:08,854000/214f10aa16a4d5f48a6e4e3b664ecbc5-g.jpg,,
5126914,Полное собрание сочинений М.В. Ломоносова,часть 6,,,,1804,,,,,0,Russian Old,,,0,,,,,,,,,,,,0,,,,,1,,,46357012,pdf,20fa2216aff4cd078db40e2603c04442,,,Mikhail.Lomonosov.Polnoe.sobranie.sochinenijj.Mikhaila.Vasilevicha.Lomonosova.1804.Chast.6,0,2000-01-01 01:00:00,2016-04-03 02:51:08,854000/20fa2216aff4cd078db40e2603c04442-g.jpg,,
5126913,"Ускорители заряженных частиц - Основные понятия, Терминология",,Сборник рекомендуемых терминов Выпуск 065,,,1963,,Наука,М.,,0,Russian,,,,,,,,,,,,,,,0,,1,,1,1,,1,504025,djvu,1f6461b10e30ed84348abe87de85d636,,,"D:\\Сборники научно-нормативной терминологии\\Выпуск 065 - Ускорители заряженных частиц - Основные понятия, Терминология (1963).djvu",0,2000-01-01 01:00:00,2016-04-03 02:51:08,854000/1f6461b10e30ed84348abe87de85d636-g.jpg,,
5126912,Терминология по автомобилям.,,Сборник рекомендуемых терминов Выпуск 037,,Ответственный редактор А.М.Терпигорев.,1954,,Издательство Академии наук СССР,М.,,0,Russian,,,,,,,,,,,,,,"Scan: AAW, Djvuing, OCR: Dmitry7, 2011",0,,1,,1,1,,1,580671,djvu,1ebb1db7002632c3e5711281c04c4245,,,D:\\Сборники научно-нормативной терминологии\\Выпуск 037 - Терминология по автомобилям (1954).djvu,0,2000-01-01 01:00:00,2016-04-03 02:51:08,854000/1ebb1db7002632c3e5711281c04c4245-g.jpg,,
5126911,Англо-русские термины по маркетингу.,,Тетради новых терминов Выпуск 159,,Составитель И.В.Новаш. Ответственный редактор И.И.Убин.,1990,,Всесоюзный центр переводов,М.,,0,Russian,,,,,,,,,,,,,,"Scan, Formatting: niccolo, 2012",0,,1,,1,1,,1,6551300,pdf,1de0547efc3c8b33ce02f3c9bb5bd2af,,,D:\\Тетради новых терминов\\Выпуск 159 - Англо-русские термины по маркетингу (сост. Новаш И.В.) (Тетради новых терминов) - 1990.pdf,0,2000-01-01 01:00:00,2016-04-03 02:51:08,854000/1de0547efc3c8b33ce02f3c9bb5bd2af-g.jpg,,
5126910,"Электровакуумные приборы. Режимы, параметры и характеристики.",,Сборник рекомендуемых терминов Выпуск 054,,Ответственный редактор выпуска Г.А.Тягунов.,1960,,Издательство Академии наук СССР,М.,,0,Russian,,,,,,,,,,,,,,"Scan: AAW, Djvuing, OCR: Dmitry7, 2012",0,,1,,1,1,,1,471882,djvu,1daa623b2bb16b115fb0b7a0e1e8af0c,,,"D:\\Сборники научно-нормативной терминологии\\Выпуск 054 - Электровакуумные приборы - Режимы, параметры и характеристики (1960).djvu",0,2000-01-01 01:00:00,2016-04-03 02:51:08,854000/1daa623b2bb16b115fb0b7a0e1e8af0c-g.jpg,,
5126909,"Терминология теории упругости, испытаний и механических свойств материалов и строительной механики.",,Сборник рекомендуемых терминов Выпуск 014,,Ответственный редактор А.М.Терпигорев.,1952,,Издательство Академии наук СССР,М.,,0,Russian,,,,,,,,,,,,,,"Scan: AAW, Djvuing, OCR: Dmitry7, 2011",0,,1,,1,1,,1,1696496,djvu,1adaeb18a8b675fe225b52c08f8b2f10,,,"D:\\Сборники научно-нормативной терминологии\\Выпуск 014 - Терминология теории упругости, строительной механики, испытаний и механических свойств материалов (1952).djvu",0,2000-01-01 01:00:00,2016-04-03 02:51:08,854000/1adaeb18a8b675fe225b52c08f8b2f10-g.jpg,,
5126908,Терминология водоподготовки для паровых котлов.,,Сборник рекомендуемых терминов Выпуск 038,,Ответственный редактор А.М.Терпигорев.,1956,,Издательство Академии наук СССР,М.,,0,Russian,,,,,,,,,,,,,,"Scan: AAW, Djvuing, OCR: Dmitry7, 2011",0,,1,,1,1,,1,665939,djvu,1a3d736eb4db5798cf6e53c8333078e6,,,D:\\Сборники научно-нормативной терминологии\\Выпуск 038 - Терминология водоподготовки для паровых котлов (1956).djvu,0,2000-01-01 01:00:00,2016-04-03 02:51:08,854000/1a3d736eb4db5798cf6e53c8333078e6-g.jpg,,
5126907,Англо-русские термины по геологии.,,Тетради новых терминов Выпуск 059,,"Составители Г.И.Денисова, И.Е.Медведева. Под редакцией B.C.Лучко. Ответственный редактор И.И.Убин.",1984,,Всесоюзный центр переводов,М.,,0,Russian,,,,,,,,,,,,,,"Scan, Formatting: niccolo, 2012",0,,1,,1,1,,1,4256901,pdf,19d573a284b42d35cb064a4d46b562cf,,,"D:\\Тетради новых терминов\\Выпуск 059 - Англо-русские термины по геологии (сост. Денисова Г.И., Медведева И.Е.) (Тетради новых терминов) - 1984.pdf",0,2000-01-01 01:00:00,2016-04-03 02:51:08,854000/19d573a284b42d35cb064a4d46b562cf-g.jpg,,
5126906,The Monetary Powers and Disabilities of the US Constitution: A study in constitutional law,,,,"Edwin Vieira, Jr.",1982,,United States Gold Commission,,,0,English,,,0,,,,,,,,,,,,0,,,,,1,,,22697121,pdf,17e317d94abf1e494c46fcc2b70374c8,,,The Monetary Powers and Disabilities of the US Constitution.pdf,0,2000-01-01 01:00:00,2016-04-03 02:51:08,854000/17e317d94abf1e494c46fcc2b70374c8-g.jpg,,
5126905,Англо-русские термины по теоретической радиотехнике.,,Тетради новых терминов Выпуск 170,,Составитель В.В.Горшков.,1990,,Всесоюзный центр переводов,М.,,0,Russian,,,,,,,,,,,,,,"Scan, Formatting: niccolo, 2012",0,,1,,1,1,,1,9893052,pdf,179a539177dab2755f92b436a3d84044,,,D:\\Тетради новых терминов\\Выпуск 170 - Англо-русские термины по теоретической радиотехнике (сост. Горшков В.В.) (Тетради новых терминов) - 1990.pdf,0,2000-01-01 01:00:00,2016-04-03 02:51:08,854000/179a539177dab2755f92b436a3d84044-g.jpg,,
5126904,Элементы технической кибернетики.,,Сборник рекомендуемых терминов Выпуск 077,,Ответственный редактор выпуска В.С.Кулебакин.,1968,,Наука,М.,,0,Russian,,,,,,,,,,,,,,"Scan, Djvuing, OCR: Dmitry7, 2011-12",0,,1,,1,1,,1,1187525,djvu,178f34a9a056c4d22dc72a66fbd89ac6,,,D:\\Сборники научно-нормативной терминологии\\Выпуск 077 - Элементы технической кибернетики - Терминология (1968).djvu,0,2000-01-01 01:00:00,2016-04-03 02:51:08,854000/178f34a9a056c4d22dc72a66fbd89ac6-g.jpg,,
5126903,Термодинамика. Термины и буквенные обозначения величин.,,Сборник рекомендуемых терминов Выпуск 097,,Ответственный редактор И.И.Новиков.,1980,,Наука,М.,,0,Russian,,,,,,,,,,,,,,"Scan: AAW, Djvuing, OCR: Dmitry7, 2012",0,,1,,1,1,,1,296100,djvu,159b07852b80d625e759e2e8d348e93f,,,D:\\Сборники научно-нормативной терминологии\\Выпуск 097 - Термодинамика - Термины и буквенные обозначения величин (1980).djvu,0,2000-01-01 01:00:00,2016-04-03 02:51:08,854000/159b07852b80d625e759e2e8d348e93f-g.jpg,,
5126902,Англо-русские термины по геодезии.,,Тетради новых терминов Выпуск 158,,"Составители А.Д.Краев, А.Г.Новицкая. Под редакцией А.Д.Краева. Ответственный редактор И.И.Убин.",1990,,Всесоюзный центр переводов,М.,,0,Russian,,,,,,,,,,,,,,"Scan, Formatting: niccolo, 2012",0,,1,,1,1,,1,2997506,pdf,15740ef20ede331ecfd02af579251915,,,"D:\\Тетради новых терминов\\Выпуск 158 - Англо-русские термины по геодезии (сост. Краев А.Д., Новицкая А.Г.) (Тетради новых терминов) - 1990.pdf",0,2000-01-01 01:00:00,2016-04-03 02:51:08,854000/15740ef20ede331ecfd02af579251915-g.jpg,,
5126901,Англо-русские термины по технологии производства радиоэлектронной аппаратуры.,,Тетради новых терминов Выпуск 047,,Составитель Н.М.Голуб. Под редакцией А.Б.Тартаковского. Ответственный редактор И.И.Убин.,1983,,Всесоюзный центр переводов,М.,,0,Russian,,,,,,,,,,,,,,"Scan, Formatting: niccolo, 2012",0,,1,,1,1,,1,12355017,pdf,14e2ab67cb6333111709dee666c813bb,,,D:\\Тетради новых терминов\\Выпуск 047 - Англо-русские термины по технологии производства радиоэлектронной аппаратуры (сост. Голуб Н.М.) (Тетради новых терминов) - 1983.pdf,0,2000-01-01 01:00:00,2016-04-03 02:51:08,854000/14e2ab67cb6333111709dee666c813bb-g.jpg,,
5126900,"Англо-русские,термины по микроволновой системе посадки самолетов.",,Тетради новых терминов Выпуск 121,,Составитель В.М.Шуманов. Под редакцией В.С.Мужева. Ответственный редактор И.И.Убин.,1988,,Всесоюзный центр переводов,М.,,0,Russian,,,,,,,,,,,,,,"Scan, Formatting: niccolo, 2012",0,,1,,1,1,,1,2073457,pdf,13f5c4e2e6d85b4d6cc127074cc0e94a,,,D:\\Тетради новых терминов\\Выпуск 121 - Англо-русские термины по микроволновой системе посадки самолетов (сост. Шуманов В.М.) (Тетради новых терминов) - 1988.pdf,0,2000-01-01 01:00:00,2016-04-03 02:51:08,854000/13f5c4e2e6d85b4d6cc127074cc0e94a-g.jpg,,
5126899,"Œuvres choisies, Tome IV",,,,Mao Tse-tung,1962,,Editions en langues etrangeres,Pekin,,0,French,Общественные науки прочие//Политика,,0,,,,,,,,,,,,0,,,,,1,,,43328249,pdf,130d1847af56ddfa93db17b16d4b0519,,,"Selected Works of Mao Tse-tung Volume 4, french version",0,2000-01-01 01:00:00,2016-04-03 02:51:08,854000/130d1847af56ddfa93db17b16d4b0519-g.jpg,,
5126898,Англо-русские термины по оптическому приборостроению.,,Тетради новых терминов Выпуск 169,,Составитель Р.Н.Зуев. Ответственный редактор И.И.Убин.,1990,,Всесоюзный центр переводов,М.,,0,Russian,,,,,,,,,,,,,,"Scan: AAW, Formatting: Dmitry7, 2012",0,,1,,1,1,,1,2978451,pdf,10a48b9fd6e6d21f9625d052f372d9d3,,,D:\\Тетради новых терминов\\Выпуск 169 - Англо-Русские термины по оптическому приборостроению (сост. Зуев Р.Н.) (Тетради новых терминов) - 1990.pdf,0,2000-01-01 01:00:00,2016-04-03 02:51:08,854000/10a48b9fd6e6d21f9625d052f372d9d3-g.jpg,,
5126897,Новейшее землеописание всех четырех частей света,часть 3,,,М. Антоновский,1795,,,,,0,Russian Old,,,0,,,,,,,,,,,,0,,,,,1,,,30277958,pdf,0ff5308b659a7ddfe09081d5e5816ac4,,,Mikhail.Antonovskijj.Novejjshee.zemleopisanie.vsekh.chetyrekh.chastejj.sveta.1795.Chast.3.Povestvovatelnoe.Zemleopisanie.Shvecіi,0,2000-01-01 01:00:00,2016-04-03 02:51:08,854000/0ff5308b659a7ddfe09081d5e5816ac4-g.jpg,,
5126896,Англо-русские термины по сточным водам.,,Тетради новых терминов Выпуск 004,,"Составители И.П.Смирнов, Н.К.Слепова, М.Ф.Шиллер. Ответственный редактор И.П.Смирнов.",1973,,Всероссийский центр переводов,М.,,0,Russian,,,,,,,,,,,,,,"Scan: AAW, Formatting: Dmitry7, 2012",0,,1,,1,1,,1,2195709,djvu,0fb7fb819bc3a9113da73412c6943a19,,,"D:\\Тетради новых терминов\\Выпуск 004 - Англо-Русские термины по сточным водам (cост. Смирнов И.П., Слепова Н.К., Шиллер М.Ф.) (Тетради новых терминов) - 1973.djvu",0,2000-01-01 01:00:00,2016-04-03 02:51:08,854000/0fb7fb819bc3a9113da73412c6943a19-g.jpg,,
5126895,Немецко-русские термины по тароупаковочной промышленности.,,Тетради новых терминов Выпуск 163,,"Составители Н.И.Алленова, Г.И.Щербакова.",1990,,Всесоюзный центр переводов,М.,,0,Russian,,,,,,,,,,,,,,"Scan, Formatting: niccolo, 2012",0,,1,,1,1,,1,4563856,pdf,0fa46e3cd116f2396c7608f22809471d,,,"D:\\Тетради новых терминов\\Выпуск 163 - Немецко-русские термины по тароупаковочной промышленности (сост. Алленова Н.И., Щербакова Г.И.) (Тетради новых терминов) - 1990.pdf",0,2000-01-01 01:00:00,2016-04-03 02:51:08,854000/0fa46e3cd116f2396c7608f22809471d-g.jpg,,
5126894,Терминология по воздушному фотографированию.,,Сборник рекомендуемых терминов Выпуск 029,,Ответственный редактор А.М.Терпигорев.,1954,,Издательство Академии наук СССР,М.,,0,Russian,,,,,,,,,,,,,,"Scan: AAW, Djvuing, OCR: Dmitry7, 2011",0,,1,,1,1,,1,576304,djvu,0f85404702cd507c71549a297338321b,,,D:\\Сборники научно-нормативной терминологии\\Выпуск 029 - Терминология по воздушному фотографированию (1954).djvu,0,2000-01-01 01:00:00,2016-04-03 02:51:08,854000/0f85404702cd507c71549a297338321b-g.jpg,,
5126893,Ложные друзья' переводчика научно-технической литературы (методическое пособие) - Часть 2,,Тетради новых терминов ,,Борисова Л.И.,1990,,Всероссийский центр переводов,М.,,0,Russian,,,,,,,,,,,,,,,0,,1,,1,1,,1,1542867,djvu,0ea7e346746426fc1fbd4ccba10dc668,,,D:\\Тетради новых терминов\\'Ложные друзья' переводчика научно-технической литературы (методическое пособие) - Часть 2 (Борисова Л.И.) - 1990.djvu,0,2000-01-01 01:00:00,2016-04-03 02:51:08,854000/0ea7e346746426fc1fbd4ccba10dc668-g.jpg,,
5126892,Терминология горного давления.,,Сборник рекомендуемых терминов Выпуск 040,,Ответственный редактор А.М.Терпигорев.,1956,,Издательство Академии наук СССР,М.,,0,Russian,,,,,,,,,,,,,,"Scan: AAW, Djvuing, OCR: Dmitry7, 2011",0,,1,,1,1,,1,257601,djvu,0c73cde1748f9c396281611fb4d4a1dd,,,D:\\Сборники научно-нормативной терминологии\\Выпуск 040 - Терминология горного давления (1956).djvu,0,2000-01-01 01:00:00,2016-04-03 02:51:08,854000/0c73cde1748f9c396281611fb4d4a1dd-g.jpg,,
5126891,Терминология взрывных работ.,,Сборник рекомендуемых терминов Выпуск 022,,Ответственный редактор А.М.Терпигорев.,1953,,Издательство Академии наук СССР,М.,,0,Russian,,,,,,,,,,,,,,"Scan: AAW, Djvuing, OCR: Dmitry7, 2011",0,,1,,1,1,,1,295522,djvu,0bcc0a9fef22e1dc416d2d813f94bbfa,,,D:\\Сборники научно-нормативной терминологии\\Выпуск 022 - Терминология взрывных работ (1953).djvu,0,2000-01-01 01:00:00,2016-04-03 02:51:08,854000/0bcc0a9fef22e1dc416d2d813f94bbfa-g.jpg,,
5126890,Терминология физико-химического анализа. Часть 1.,,Сборник рекомендуемых терминов Выпуск 006,,Ответственный редактор А.М.Терпигорев.,1951,,Издательство Академии наук СССР,М.,,0,Russian,,,,,,,,,,,,,,"Scan: AAW, Djvuing, OCR: Dmitry7, 2011",0,,1,,1,1,,1,551509,djvu,0bb025592d4dcef34948c6d92b2abc9a,,,D:\\Сборники научно-нормативной терминологии\\Выпуск 006 - Терминология физико-химического анализа - Часть 1 (1951).djvu,0,2000-01-01 01:00:00,2016-04-03 02:51:08,854000/0bb025592d4dcef34948c6d92b2abc9a-g.jpg,,
5126889,Англо-русские термины по поверхностно-активным веществам.,,Тетради новых терминов Выпуск 156,,Составитель Н.А.Алтухова. Ответственный редактор И.И.Убин.,1990,,Всесоюзный центр переводов,М.,,0,Russian,,,,,,,,,,,,,,"Scan, Formatting: niccolo, 2012",0,,1,,1,1,,1,708777,pdf,0b4969c67af52b3de76b20af54083aec,,,D:\\Тетради новых терминов\\Выпуск 156 - Англо-русские термины по поверхностно-активным веществам (сост. Алтухова Н.А.) (Тетради новых терминов) - 1990.pdf,0,2000-01-01 01:00:00,2016-04-03 02:51:08,854000/0b4969c67af52b3de76b20af54083aec-g.jpg,,
5126888,"Терминология управления, регулирования и автоматики авиадвигателей.",,Сборник рекомендуемых терминов Выпуск 028,,Ответственный редактор А.М.Терпигорев.,1954,,Издательство Академии наук СССР,М.,,0,Russian,,,,,,,,,,,,,,"Scan: AAW, Djvuing, OCR: Dmitry7, 2011",0,,1,,1,1,,1,247675,djvu,0ad9a270e849b08ba560c67919fb6683,,,"D:\\Сборники научно-нормативной терминологии\\Выпуск 028 - Терминология управления, регулирования и автоматики авиадвигателей (1954).djvu",0,2000-01-01 01:00:00,2016-04-03 02:51:08,854000/0ad9a270e849b08ba560c67919fb6683-g.jpg,,
5126887,Классификация и терминология горных машин.,,Сборник рекомендуемых терминов Выпуск 015,,Ответственный редактор А.М.Терпигорев.,1952,,Издательство Академии наук СССР,М.,,0,Russian,,,,,,,,,,,,,,"Scan, Djvuing, OCR: Dmitry7, 2011",0,,1,,1,1,,1,555429,djvu,0a37b8c904bdd7ceb3ad895624a067e9,,,D:\\Сборники научно-нормативной терминологии\\Выпуск 015 - Классификация и терминология горных машин (1952).djvu,0,2000-01-01 01:00:00,2016-04-03 02:51:08,854000/0a37b8c904bdd7ceb3ad895624a067e9-g.jpg,,
5126886,Гидромеханика. Буквенные обозначения величин.,,Сборник рекомендуемых терминов Выпуск 098,,Ответственный редактор Я.И.Секерж-Зенькович.,1980,,Наука,М.,,0,Russian,,,,,,,,,,,,,,"Scan: AAW, Djvuing, OCR: Dmitry7, 2012",0,,1,,1,1,,1,281604,djvu,09db8a7205239019f6d16c7ec827a70c,,,D:\\Сборники научно-нормативной терминологии\\Выпуск 098 - Гидромеханика - Буквенные обозначения величин (1980).djvu,0,2000-01-01 01:00:00,2016-04-03 02:51:08,854000/09db8a7205239019f6d16c7ec827a70c-g.jpg,,
5126885,Liberty and the Great Libertarians,,,,Charles T. Sprading,2008,,Ludwig von Mises Institute,,,0,English,,,0,9781610161077,,,,,,,,,,,0,,,,,1,,,24932130,pdf,0900dfa0ed539a5d98b38b396aab3b73,,,Liberty and the Great Libertarians.pdf,0,2000-01-01 01:00:00,2016-04-03 02:51:08,https://mises.org/store/Assets/ProductImages/SS340.jpg,,
5126884,"Англо-русские термины по технологии производства радиоэлектронной аппаратуры. Части 1,2.",,Тетради новых терминов Выпуск 154,,Составитель Н.М.Голуб. Под редакцией Л.Л. Горинштейна. Ответственный редактор И.И.Убин.,1990,,Всесоюзный центр переводов,М.,,0,Russian,,,,,,,,,,,,,,"Scan, Formatting: niccolo, 2012",0,,1,,1,1,,1,15300291,pdf,056090067efdc113cfc3ebefb21e117e,,,D:\\Тетради новых терминов\\Выпуск 154 - Англо-русские термины по технологии производства радиоэлектронной аппаратуры (сост. Голуб Н.М.) (Тетради новых терминов) - 1990.pdf,0,2000-01-01 01:00:00,2016-04-03 02:51:08,854000/056090067efdc113cfc3ebefb21e117e-g.jpg,,
5126883,On Doing the Right Thing,,,,Albert Jay Nock,2007,,Ludwig von Mises Institute,,,0,English,,,0,",",,,,,,,,,,,0,,,,,1,,,9501755,pdf,049449fbbb342a90bb19c6b19f0e927a,,,On Doing the Right Thing.pdf,0,2000-01-01 01:00:00,2016-04-03 02:51:08,854000/049449fbbb342a90bb19c6b19f0e927a-d.jpg,,
5126882,"Snoring as a Fine Art, and Twelve Other Essays",,,,Albert Jay Nock,2008,,Ludwig von Mises Institute,,,0,English,,,0,",",,,,,,,,,,,0,,,,,1,,,9943021,pdf,0349c4f70141fbe54b362d8166af8fe0,,,"Snoring as a Fine Art, and Twelve Other Essays.pdf",0,2000-01-01 01:00:00,2016-04-03 02:51:08,854000/0349c4f70141fbe54b362d8166af8fe0-d.jpg,,
5126881,Прогностика. Терминология.,,Сборник рекомендуемых терминов Выпуск 092,,Ответственный редактор выпуска В.И.Сифоров.,1978,,Наука,М.,,0,Russian,,,,,,,,,,,,,,"Scan, Djvuing, OCR: Dmitry7, 2012",0,,1,,1,1,,1,739497,djvu,029a64f09082f21afc19354108c8f3ea,,,D:\\Сборники научно-нормативной терминологии\\Выпуск 092 - Прогностика - Терминология (1978).djvu,0,2000-01-01 01:00:00,2016-04-03 02:51:08,854000/029a64f09082f21afc19354108c8f3ea-g.jpg,,
5126880,The Origins of Money,,,,Carl Menger,2009,,Ludwig von Mises Institute,,,0,English,,,0,9781933550596,,,,,,,,,,,0,,,,,1,,,1341232,pdf,02674778421799995281eb9377846b52,,,On the Origins of Money.pdf,0,2000-01-01 01:00:00,2016-04-03 02:51:08,854000/02674778421799995281eb9377846b52-d.jpg,,
5126879,Англо-русские патентные термины.,,Тетради новых терминов Выпуск 002,,"Составители В.С.Попов, Л.А.Горник, A.M.Школьник, И.М.Агранов, С.Д.Руденко. Под общей редакцией И.П.Смирнова.",1971,,Всероссийский центр переводов,М.,,0,Russian,,,,,,,,,,,,,,"Scan: AAW, Formatting: Dmitry7, 2012",0,,1,,1,1,,1,2599310,djvu,01941c917d3d5432a1a5bc3a0388eb8b,,,D:\\Тетради новых терминов\\Выпуск 002 - Англо-русские патентные термины (сост. Попов В.С. и др.) (Тетради новых терминов) - 1971.djvu,0,2000-01-01 01:00:00,2016-04-03 02:51:08,854000/01941c917d3d5432a1a5bc3a0388eb8b-g.jpg,,
5126878,Полупроводниковые приборы. Часть 1. Основные понятия. Терминология.,,Сборник рекомендуемых терминов Выпуск 062,,Ответственный редактор Г.И.Тягунов.,1962,,Издательство Академии наук СССР,М.,,0,Russian,,,,,,,,,,,,,,"Scan, Djvuing, OCR: Dmitry7, 2011",0,,1,,1,1,,1,859374,djvu,014f5b4cdef208c2a3be477a632f4ef4,,,D:\\Сборники научно-нормативной терминологии\\Выпуск 062 - Полупроводниковые приборы - Часть 1 - Основные понятия - Терминология (1962).djvu,0,2000-01-01 01:00:00,2016-04-03 02:51:08,854000/014f5b4cdef208c2a3be477a632f4ef4-g.jpg,,
5126877,Probability and the Weighing of Evidence,,,,Irving John Good,1950,,Charles Griffin & Company,London,,0,English,"Probability theory, Bayesian probability theory, statistics",,0,,,,,,,,,k9g0AAAAMAAJ,,,400,,,,,1,0,1,1431448,djvu,ef207ea8ffe088b66e81a0863a9be805,,,good1950-Probability_and_the_weighing_of_evidence,0,2000-01-01 01:00:00,2016-04-03 02:51:08,853000/ef207ea8ffe088b66e81a0863a9be805-g.jpg,,
5126876,Устроение общества,,,,Энтони Гидденс,2005,,,,,0,Russian,,,0,5-8291-0629-9,,,,,,,,,,,0,,,,,1,,,8935950,pdf,ec17f2358914fc9d2e7620301a174253,,,Устроение общества,0,2000-01-01 01:00:00,2016-04-03 02:51:08,853000/ec17f2358914fc9d2e7620301a174253-d.jpg,,
5126875,Medicinal Plants: Utilisation & Conservation,,,,P. C. Trivedi,2009,,Aaviskar,,,0,English,МЕдицина//Натуральная медицина,,0,"8179102289,9788179102282",,,,,,,,,,,0,,,,,1,,,24800713,pdf,a8f897a88113f329db4e6569fbbf9a43,,,Medicinal Plants utilization and Conservation,0,2000-01-01 01:00:00,2016-04-03 02:51:08,853000/a8f897a88113f329db4e6569fbbf9a43-d.jpg,,
5126874,list of volumes in 4th edition,,,,Houben-Weyl,0,,,,,0,English,Химия,,,,,,,,,,,,,,0,,,,,1,,,177780,pdf,7f64e1e33bf6786d701a0874cd9bf297,,,Houben-Weyl list of volumes in 4th edition.pdf,0,2000-01-01 01:00:00,2016-04-03 02:51:08,853000/7f64e1e33bf6786d701a0874cd9bf297-g.jpg,,
5126873,Теория праздного класса,,,,Веблен,0,,,,,0,Russian,,,0,,,,,,,,,,,,0,,,,,1,,,18858335,pdf,4beccc330186112c749468312591ca0f,,,Веблен_Теория-праздного-класса_cropped,0,2000-01-01 01:00:00,2016-04-03 02:51:08,853000/4beccc330186112c749468312591ca0f-g.jpg,,
5126872,Fair Use : The Story of the Letter U & the Numeral 2,,,,,1995,Book and CD,Seeland-Negativland,,,0,English,Искусство//Музыка,,0,"0964349604,9780964349605",,,,,,,,,,,0,,,,,1,,,115845169,pdf,47957b9d7a5fd15ebbd45daefabc6725,,,Negativland - Fair Use--The Story of the Letter U and the Numeral 2,0,2000-01-01 01:00:00,2016-04-03 02:51:08,853000/47957b9d7a5fd15ebbd45daefabc6725-d.jpg,,
5126870,Problogger's Guide to Your First Week of Blogging,,,,Darren Rowse,2011,,Problogger,,,0,English,,,0,,,,,,,,,,,,0,,,,,1,,,5235546,pdf,2c4ee6546cd1e6eaf110d7924a799171,,,ProBlogger.Guide.to.your.First.Week.of.Blogging.May.2011,0,2000-01-01 01:00:00,2016-04-03 02:51:08,853000/2c4ee6546cd1e6eaf110d7924a799171-d.jpg,,
5126871,Atlas of Rangeland Plants in Northern China,,,,Gu Anlin & Wang Zongli,1991,,Unknown,,,0,English,МЕдицина//Натуральная медицина,,0,"7511600425,9787511600424",,,,,,,,,,,0,,,,,1,,,126029635,pdf,3365193632d0990be13fa64038d146f7,,,Plants of Northern China,0,2000-01-01 01:00:00,2016-04-03 02:51:08,853000/3365193632d0990be13fa64038d146f7-g.jpg,,
5126869,"The Handbook Of Clinically Tested Herbal Remedies, Vol. 2",,Haworth Series in Evidence-Based Phytotherapy,,Marilyn Barrett,2004,,B&T Database Management/Cip,,,0,English,МЕдицина//Натуральная медицина,,0,"0789027240,9780789027245",,,,,,,,,,,0,,,,,1,,,13386731,pdf,1ae0ce0e1e0ed7b20b3b8f1c8e5bf169,,,Handbook of clinically tested herbal remedies 2 Vols - Barrett,0,2000-01-01 01:00:00,2016-04-03 02:51:08,853000/1ae0ce0e1e0ed7b20b3b8f1c8e5bf169-d.jpg,,
5126868,Asymptotic Representation Theory of the Symmetric Group and its Application in Analysis,,,,"Kerov, S.V.",2003,,American Mathematical Society,,,0,English,,,0,0-8218-3440-1,0065-9282,,,,,,,,,,600,,,,,1,,,11408711,pdf,00f0e394d0dd2ec8a40338d70012209a,,,Kerov,0,2000-01-01 01:00:00,2016-04-03 02:51:08,853000/00f0e394d0dd2ec8a40338d70012209a-g.jpg,,
5126867,Программа к истории Лейб-гвардии Уланского полка,,,,,1899,,,Санк-Петербург,,0,Russian (Old),История//Военная история,,0,,,,,,,,,,,,0,,,,,1,,,9582659,pdf,dfcc9b029c76a06e19ffee225a23d472,,,Программа к истории Лейб-гвардии Уланского ЕИВ ГИ Александры Феодоровны полка 1899,0,2000-01-01 01:00:00,2016-04-03 02:51:08,852000/dfcc9b029c76a06e19ffee225a23d472-g.jpg,,
5126866,Уравнения математической физики : пособие по практическим занятиям : учебное пособие для студентов высших учебных заведений,,"Учебная книга инженера-физика / Федеральное агентство по образованию, Московский инженерно-физ. ин-т",,"Костин, Андрей Борисович;Тихонов, Иван Владимирович; Ткаченко, Дмитрий Сергеевич",2007-,,Московский инженерно-физ. ин-т,Москва,,0,Russian,Физика,,0,978-5-7262-0856-5,,,53:51,,,,,,,,0,,,,,1,,,1270854,pdf,b7e716d14a8ff887f7f20770071adfe4,,,Костин Уравнения математической физики 2007,0,2000-01-01 01:00:00,2016-04-03 02:51:08,852000/b7e716d14a8ff887f7f20770071adfe4-g.jpg,,
5126865,Модели строения и перспективы нефтегазоносности резервуаров нижней юры Надым-Тазовского междуречья,,,,Нехаев А.Ю.,2009,,Западно-Сибирская НГП,,,0,Russian,,,0,,,,,,,,,,,ДИССЕРТАЦИЯ,0,,,,,1,,,26430546,pdf,a38b1551ddeaca2d2bc91418324bb976,,,Нехаев А.Ю. – Модели строения и перспективы нефтегазоносности резервуаров нижней юры Надым-Тазовского междуречья (Западно-Сибирская НГП)2009,0,2000-01-01 01:00:00,2016-04-03 02:51:08,852000/a38b1551ddeaca2d2bc91418324bb976-g.jpg,,
5126864,Коксохимическое производство,,,,,0,,,,,0,Russian,,,0,,,,,,,,,,,нет стр. 1-85,300,,,,,1,,,9253462,djvu,8c15b41654ca7a7f448c0f47388b7698,,,Коксохимическое производство,0,2000-01-01 01:00:00,2016-04-03 02:51:08,852000/8c15b41654ca7a7f448c0f47388b7698-g.jpg,,
5126862,La Curacion Por El Ayuno,,Spanish Edition,,,0,,Kier Editorial,,,0,Spanish,МЕдицина//Натуральная медицина,,0,"9501712168,9789501712162",,,,,,,,,,,0,,,,,1,,,23523147,pdf,38e63ce2641abde5f34104f1f27b8ef1,,,La curacion por el ayuno - Suvorin,0,2000-01-01 01:00:00,2016-04-03 02:51:08,852000/38e63ce2641abde5f34104f1f27b8ef1-g.jpg,,
5126863,"Химия рутения, родия, палладия осмия, иридия, платины",,,,Ливингстон С., 1978,,Мир,М.,,0,Russian,,,0,,,,,,,,,,,,0,,,,,1,,,13165993,djvu,52d2350020021bdf47bfddc434515c7a,,,52d2350020021bdf47bfddc434515c7a,0,2000-01-01 01:00:00,2016-04-03 02:51:08,852000/52d2350020021bdf47bfddc434515c7a-d.jpg,,
5126860,Essential Dictionary of Music Notation,,,,"Tom Gerou, Linda Lusk",1996,,Alfred Pub Co,,,0,English,Искусство//Музыка,,0,"0882847686,9780882847689",,,,,,,,,,,0,,,,,1,,,7967058,pdf,2d09831e5a18e3d92be11ddb1d18b572,,,Alfred Handy Guide - Music Notation Dictionary,0,2000-01-01 01:00:00,2016-04-03 02:51:08,852000/2d09831e5a18e3d92be11ddb1d18b572-d.jpg,,
5126861,Программирование информационно-логических задач,,,,Китов А.И.,1967,,Советское радио,,,0,Russian,,,0,,,,681.142.2,,,,,,,,124,,,,,0,,1,2599756,pdf,35e6ce909d25bb5b33f3f2232226f3a4,,,Программирование информационно-логических задач. А.И. Китов. 1967 г,0,2000-01-01 01:00:00,2016-04-03 02:51:08,852000/35e6ce909d25bb5b33f3f2232226f3a4-g.jpg,,
5126859,Heat and Mass Transfer: A Practical Approach,,,,Yunus A. Engel,2006,3rd,McGraw-Hill,,,0,English,Химия,,0,"007125739X,9780071257398",,,,,,,,,,,0,,,,,1,,,26740066,djvu,2572a57edf2a8b4c3a8c4cd47d1f03c0,,,"Cengel Y.A. Heat and Mass Transfer.. A Practical Approach. SI units (3ed., MGH, 2006)(ISBN 007125739X)(T)(891s)",0,2000-01-01 01:00:00,2016-04-03 02:51:08,852000/2572a57edf2a8b4c3a8c4cd47d1f03c0-d.jpg,,
5126858,Газогорелочные устройства для городского газоснабжения,,,,,1957,,МинКомХоз,Москва,,0,Russian,,,0,,,,,,,,,,,,300,,,,,1,,,5776221,djvu,242fd13dde3c928825819fd9aecc00c5,,,"Газогорелочные устройства для городского газоснабжения, М.1957",0,2000-01-01 01:00:00,2016-04-03 02:51:08,852000/242fd13dde3c928825819fd9aecc00c5-g.jpg,,
5126856,nudos basicos en cirugia,,,,,0,,,,,0,spanish,,,0,,,,,,,,,,,,0,,,,,1,,,2844936,pdf,6f69da6df482a845931e25ef3424a888,,,nudos_basicos_cirugia_rinconmedico.org,0,2000-01-01 01:00:00,2016-04-03 02:51:08,851000/6f69da6df482a845931e25ef3424a888-g.jpg,,
5126857,Terminologie grammaticale du sanskrit..,,Bibliothèque de l'Ecole des hautes études: Sciences historiques et philologiques Terminologie grammaticale du sanskrit,,"Renou, Louis",1957,,H. Champion;,Paris;,,0,English,Sanskrit language -- Grammar -- Terminol;,,0,",",,,,,,,,,OL7156314M,,0,,,,,1,,,23877990,djvu,203f466538d9570b7858d34b22d08018,,,203f466538d9570b7858d34b22d08018,0,2000-01-01 01:00:00,2016-04-03 02:51:08,852000/203f466538d9570b7858d34b22d08018-d.jpg,,
5126855,PD ISO/IEC TR 27008:2011,,,,BSi,2011,,BSi,,,0,English,Information Technology - Software & Networking - Character sets and information coding,,0,"0580680312,9780580680311",,,,,,,,,,,0,,,,,1,,,1778903,pdf,130af09d1a3d74516df7540b2d9d1353,,,000000000030204591,0,2000-01-01 01:00:00,2016-04-03 02:51:08,851000/130af09d1a3d74516df7540b2d9d1353-g.jpg,,
5126854,John Locke and English literature of the eighteenth century,,,,Kenneth MacLean,1936,,New Haven - Yale University Press,,,0,English,,,0,,,,,,,,,,,,0,,,,,1,,,3604272,pdf,076479f06c9f6ff1c79c73ff69697204,,,Maclean - Locke and Eng Lit - 1936,0,2000-01-01 01:00:00,2016-04-03 02:51:08,851000/076479f06c9f6ff1c79c73ff69697204-g.jpg,,
5126853,Beginning Science ,,Grosset and Dunlap,,,1960,,"Pearson PLC, Penguin Group, G.P. Putnam's Sons Books for Young Readers",,,0,English,Литература//Детская,,,#Н/Д,,,,,,,,,,,0,1,,,,1,,0,37677971,pdf,94b644e8920e05882c4842fb5d7307d0,,,M:\\!! Books (Children)\\Educational Books\\1\\Pearson PLC\\Penguin Group\\G.P. Putnam's Sons Books for Young Readers\\Grosset and Dunlap\\Wonder Books\\How and Why Wonder Books\\Beginning Science (1960).pdf,0,2000-01-01 01:00:00,2016-04-03 02:51:08,,,
5126852,Большая книга правил Fantasy Battles,,,,Алессио Коваторе,2006,,Games workshop,,,0,Russian,КНИГИ  ХОББИ и РАЗВЛЕЧЕНИЯ,mirknig.com,2011-03,,,,,,,,,,,1181388670,0,,,,,1,,,532952974,pdf,ea87f02ea8cb91cfb20bd6c9fb759dac,,,"[1181388670]Большая книга правил Warhammer Fantasy Battles.-Алессио Коваторе,Games workshop.pdf",0,2000-01-01 01:00:00,2016-04-03 02:51:08,http://mirknig.com/uploads/posts/2011-03/1300099395_00-250.jpg,,
5126851,Физическое и эмоциональное очищение с помощью фэн-шуй ,,,,Карен Кингстон ,2002,,Попурри ,,,0,Russian,КНИГИ  ЭЗОТЕРИКА,mirknig.com,2011-03,,,,,,,,,,,1181390145,0,,,,,1,,,1018173,pdf,e5edc596373f815da153491e60847154,,,"[1181390145]Физическое и эмоциональное очищение с помощью фэн-шуй.-Карен Кингстон,Попурри,2002.pdf",0,2000-01-01 01:00:00,2016-04-03 02:51:08,,,
5126850,Professional Windows Phone 7 Game Development: Creating Games using XNA Game Studio 4 ,,,,Chris G. Williams and George W. Clingerman ,2011,,Wrox ,,,0,English ,КНИГИ  ПРОГРАММИНГ,mirknig.com,2011-03,,,,,,,,,,,1181385705,0,,,,,1,,,10642020,pdf,e53949c9c62709c1f167376834baf185,,,[1181385705]Professional Windows Phone 7 Game Development-Creating Games using XNA Game Studio 4.-Chris G.Williams and George W.pdf,0,2000-01-01 01:00:00,2016-04-03 02:51:08,,,
5126849,Диагностика развития зрительно-вербальных функций (альбом),,,,"Т.В. Ахутина, Н.М. Пылаева",2003,,ACADEMiA,,,0,Russian,КНИГИ  ПСИХОЛОГИЯ,mirknig.com,2011-03,,,,,,,,,,,1181385835,0,,,,,1,,,38694842,pdf,e30136f49485c46155a0fb88a9851b75,,,"[1181385835]Диагностика развития зрительно-вербальных функций(альбом.-Т.В.Ахутина,Н.М.Пылаева,ACADEMiA.pdf",0,2000-01-01 01:00:00,2016-04-03 02:51:08,,,
5126848,Водяноеотопление индивидуальных домов ,,,,Артюшенко Н.М. ,1980,,Будівельник ,,,0,Russian,КНИГИ ТЕХНИКА,mirknig.com,2011-03,,,,,,,,,,,1181380277,0,,,,,1,,,3354218,djvu,e22404fb12e2996aaa3c627509a4db8a,,,[1181380277]Водяноеотопление индивидуальных домов--Автор-Артюшенко Н.М.Название-Водяноеотопление индивидуальных домов Издательс.djvu,0,2000-01-01 01:00:00,2016-04-03 02:51:08,,,
5126847,Специализированные учебно-лечебные центры ,,,,Степанов В.К. ,1987,,Стройиздат ,,,0,Russian,"ПРОФЕССИИ И РЕМЕСЛА,РАЗНОЕ",mirknig.com,2011-03,,,,,,,,,,,1181383881,0,,,,,1,,,16228079,pdf,dd2f3df612ff1be269602d4eef1d0ad3,,,[1181383881]Специализированные учебно-лечебные центры--Автор-Степанов В.К.Название-Специализированные учебно-лечебные центры Из.pdf,0,2000-01-01 01:00:00,2016-04-03 02:51:08,,,
5126846,Теоретическая грамматика китайского языка,,,,Горелов В. И.,1989,,Просвещение,,,0,Russian,КНИГИ НАУКА и УЧЕБА,mirknig.com,2011-03,,,,,,,,,,,1181387483,0,,,,,1,,,12377403,pdf,d8d7514a900dfb69d0242685407eddea,,,"[1181387483]Теоретическая грамматика китайского языка.-Горелов В.И.,Просвещение.pdf",0,2000-01-01 01:00:00,2016-04-03 02:51:08,,,
5126845,Мужское и женское в проповеди Христа или Слово в защиту мирян ,,,,Батура Г. Г. ,2004,Интернет ,,,,0,Russian,КНИГИ РЕЛИГИЯ,mirknig.com,2011-03,,,,,,,,,,,1181389309,0,,,,,1,,,1495478,pdf,d485bf06ede7b4ec1dafe57fb265053a,,,[1181389309]Мужское и женское в проповеди Христа или Слово в защиту мирян--Автор-Батура Г.Г.Название-Мужское и женское в пропов.pdf,0,2000-01-01 01:00:00,2016-04-03 02:51:08,,,
5126844,21 Recipes for Mining Twitter ,,,,Matthew Russell ,2011,,O’Reilly Media,,,0,English ,КНИГИ  ПРОГРАММИНГ,mirknig.com,2011-03,,,,,,,,,,,1181379716,0,,,,,1,,,1240624,pdf,cc23d53abaa7d7d3342cb2df17452d5a,,,"[1181379716]21 Recipes for Mining Twitter.-Matthew Russell,O’Reilly Media,2011.pdf",0,2000-01-01 01:00:00,2016-04-03 02:51:08,,,
5126843,Brother ribber techniques book. ,,,,Коллектив Brother Industries Ltd. ,0,,Brother Industries Ltd. (Japan). ,,,0,English ,КНИГИ  ХОББИ и РЕМЕСЛА,mirknig.com,2011-03,,,,,,,,,,,1181387153 Качество: среднее. ,0,,,,,1,,,54031581,djvu,cae12cd5b0480a2c703ebabea9731185,,,"[1181387153]Brother ribber techniques book.- Brother Industries Ltd.,Brother Industries Ltd.(Japan).,не указан..djvu",0,2000-01-01 01:00:00,2016-04-03 02:51:08,,,
5126842,Справочник по вентиляции в пищевой промышленности ,,,,Донин Л.С. ,1977,,Пищевая промышленность ,,,0,Russian,"ПРОФЕССИИ И РЕМЕСЛА,ТЕХНИКА",mirknig.com,2011-03,,,,,,,,,,,1181385272,0,,,,,1,,,8221059,djvu,c77c6a8783e7cb0fd7ddacba575d7e1b,,,[1181385272]Справочник по вентиляции в пищевой промышленности--Автор-Донин Л.С.Название-Справочник по вентиляции в пищевой пром.djvu,0,2000-01-01 01:00:00,2016-04-03 02:51:08,,,
5126841,The Theory of Capitalist Development: Principles of Marxian Political Economy,,,,Paul M. Sweezy,1942,,Monthly Review Press,,,0,English,,,0,085345079X,,,,,,,,,,,0,,,,,1,,,17675992,pdf,c52728b7ef094a607ab54990f41f51ba,,,Theory of Capitalist Development,0,2000-01-01 01:00:00,2016-04-03 02:51:08,,,
5126840,Использование Adobe Acrobat 9 Pro ,,,,,2009,,Adobe ,,,0,Russian,КНИГИ  ПРОГРАММИНГ,mirknig.com,2011-03,,,,,,,,,,,1181383726,0,,,,,1,,,24481233,pdf,c0d1fbd36a98ea4deb2242a19216539c,,,"[1181383726]Использование Adobe Acrobat 9 Pro.-Adobe Systems Incorporated,Adobe,2009.pdf",0,2000-01-01 01:00:00,2016-04-03 02:51:08,,,
5126839,Иосиф Бродский после России ,,,,Ахапкин Д.Н. ,2009,,Журнал Звезда ,,,0,Russian,КНИГИ ЧЕЛОВЕК,mirknig.com,2011-03,,,,,,,,,,,1181384080,0,,,,,1,,,68954556,pdf,bf9b54e18e2fedf00077cb543c7c76d1,,,[1181384080]Иосиф Бродский после России--Название-Иосиф Бродский после России Автор-Ахапкин Д.Н.Издательство-Журнал Звезда Год-.pdf,0,2000-01-01 01:00:00,2016-04-03 02:51:08,,,
5126838,Pre-Capitalist Iran: A Theoretical History,,International Library of Essays in Law & Legal Theory,,Abbas Vali,1993,,NYU Press,,,0,English,,,0,,,,,,,,,,,,0,,,,,1,,,14422375,pdf,bf46150ab0d37da43eb41aa737f9cfaa,,,Pre-capitalist Iran,0,2000-01-01 01:00:00,2016-04-03 02:51:08,,,
5126837,Проблемы современного сельскохозяйственного тракторостроения ,,,,Скотников В.А. и др. ,1983,,Мн.: Выш. школа ,,,0,Russian,КНИГИ ТЕХНИКА,mirknig.com,2011-03,,,,,,,,,,,1181383802,0,,,,,1,,,17072393,pdf,bc667f91665804e4fead9565e99bb7df,,,[1181383802]Проблемы современного сельскохозяйственного тракторостроения--Автор-Скотников В.А.и др.Название-Проблемы современно.pdf,0,2000-01-01 01:00:00,2016-04-03 02:51:08,,,
5126836,Компьютерные модели конструкций,,,,"Городецкий А.С., Евзеров И.Д. ",2005,,Факт ,,,0,Russian,КНИГИ  ПРОФЕССИИ И РЕМЕСЛА,mirknig.com,2011-03,,,,,,,,,,,1181385317,0,,,,,1,,,5414625,djvu,bb5c30af91868732f96485c5789d5391,,,"[1181385317]Компьютерные модели конструкций--Автор-Городецкий А.С.,Евзеров И.Д.Название-Компьютерные модели конструкцийИздатель.djvu",0,2000-01-01 01:00:00,2016-04-03 02:51:08,,,
5126835,Футбол Техника ,,,,Чанади А ,1978,,Физкультура и спорт ,,,0,Russian,КНИГИ  ХОББИ и РАЗВЛЕЧЕНИЯ,mirknig.com,2011-03,,,,,,,,,,,1181389617,0,,,,,1,,,36907572,pdf,b68143593568a215e4ae1856db581ed0,,,[1181389617]Футбол.Техника--Название-Футбол Техника Автор-Чанади А Издательство-Физкультура и спорт Год-1978 Формат-PDF Размер-.pdf,0,2000-01-01 01:00:00,2016-04-03 02:51:08,http://mirknig.com/uploads/posts/2011-03/1300106488_mal250.jpg,,
5126834,Cassini at Saturn. Huygens Results ,,,,David M. Harland ,2007,,Springer ,,,0,English ,КНИГИ НАУЧНО-ПОПУЛЯРНОЕ,mirknig.com,2011-03,,,,,,,,,,,1181383585,0,,,,,1,,,11442034,pdf,ae43f9f0e63ac91ade66e31917f3f958,,,"[1181383585]Cassini at Saturn.Huygens Results.-David M.Harland,Springer,2007.pdf",0,2000-01-01 01:00:00,2016-04-03 02:51:08,,,
5126833,Причины и следствия травмоопасных производственных ситуаций: учебное пособие для вузов ,,,,Мироненко В.Ф. (ред.),2009,,АлтГТУ ,,,0,Russian,"НАУКА и УЧЕБА, ПРОФЕССИИ И РЕМЕСЛА",mirknig.com,2011-03,,,,,,,,,,,1181388112,0,,,,,1,,,3387788,pdf,a9817ef350cae19de46ce581509d3ea8,,,[1181388112]Причины и следствия травмоопасных производственных ситуаций-учебное пособие для вузов.-под общей ред.Мироненко В.Ф..pdf,0,2000-01-01 01:00:00,2016-04-03 02:51:08,,,
5126832,"Hacking Exposed: Web Applications, 3rd Edition ",,,,"Joel Scambray, Vincent Liu, Caleb Sima ",2011,,Graw-Hill ,,,0,English ,"ПРОГРАММИНГ, WEB-СОЗИДАНИЕ",mirknig.com,2011-03,,,,,,,,,,,1181385154,0,,,,,1,,,7285080,pdf,9c889ec3fad4c6b2163d0508662b7ecd,,,"[1181385154]Hacking Exposed-Web Applications.-Joel Scambray,Vincent Liu,Caleb Sima,Graw-Hill,2011.pdf",0,2000-01-01 01:00:00,2016-04-03 02:51:08,http://mirknig.com/uploads/posts/2011-03/1299000065_1000079256.jpg,,
5126831,Функциональное программирование ,,,,А.А. Кубенский,2010,,СПбГУ ИТМО,,,0,Russian,КНИГИ  ПРОГРАММИНГ,mirknig.com,2011-03,,,,,,,,,,,1181383386,0,,,,,1,,,1898424,pdf,99e5e9a24347dcb49d7531a92898690c,,,"[1181383386]Функциональное программирование.-А.А.Кубенский,СПбГУ ИТМО.pdf",0,2000-01-01 01:00:00,2016-04-03 02:51:08,,,
5126830,Foundations of SQL Server 2008 R2 Business Intelligence ,,,,Guy Fouche and Lynn Langit ,2011,,Apress ,,,0,English ,"ПРОГРАММИНГ, ОС и БД",mirknig.com,2011-03,,,,,,,,,,,1181389301,0,,,,,1,,,47142484,pdf,993abe0a395e6dc3c15e347e572682e6,,,"[1181389301]Foundations of SQL Server 2008 R2 Business Intelligence.-Guy Fouche and Lynn Langit,Apress,2011.pdf",0,2000-01-01 01:00:00,2016-04-03 02:51:08,,,
5126829,Электробезопасность. Учебное пособие для студентов по курсу “электробезопасность” ,,,,"Скляров Н.Е., Рузняев Е.С., Волков В.В ",2004,,Пензенского государственного университета ,,,0,Russian,КНИГИ НАУКА и УЧЕБА,mirknig.com,2011-03,,,,,,,,,,,1181389343,0,,,,,1,,,4273415,pdf,8e70514144c077fca330a46a04a30605,,,"[1181389343]Электробезопасность.Учебное пособие для студентов по курсу “электробезопасность”--Автор-Скляров Н.Е.,Рузняев Е.С.,В.pdf",0,2000-01-01 01:00:00,2016-04-03 02:51:08,,,
5126828,Pro WCF 4: Practical Microsoft SOA Implementation ,,,,Nishith Pathak ,2011,,Apress ,,,0,English ,КНИГИ  ПРОГРАММИНГ,mirknig.com,2011-03,,,,,,,,,,,1181389303,0,,,,,1,,,10655653,pdf,8440fcb5a3f7988ffeb41801538d1339,,,"[1181389303]Pro WCF 4-Practical Microsoft SOA Implementation.-Nishith Pathak,Apress,2011.pdf",0,2000-01-01 01:00:00,2016-04-03 02:51:08,http://mirknig.com/uploads/posts/2011-03/1299786319_04fe91a3716041bea109b129fda174cb.jpg,,
5126827,Изыскание и проектирование железных дорог. Пособин по курсовому и дипломному проектированию ,,,,"Гавриленков А.В., Переселенков Г.С. ",1990,,Транспорт ,,,0,Russian,КНИГИ ТЕХНИКА,mirknig.com,2011-03,,,,,,,,,,,1181381350,0,,,,,1,,,29632039,pdf,82cd7ea6aee2b3b9e918cef16569eca5,,,"[1181381350]Изыскание и проектирование железных дорог.Пособин по курсовому и дипломному проектированию.-Гавриленков А.В.,Пересе.pdf",0,2000-01-01 01:00:00,2016-04-03 02:51:08,,,
5126826,Каталог почтовых марок СССР 1962 ,,,,Д.А.Михайлов,1963,,Главная Филателистическая контора Росглавиздата ,,,0,Russian,"КНИГИ,РАЗНОЕ, ХОББИ и РАЗВЛЕЧЕНИЯ",mirknig.com,2011-03,,,,,,,,,,,1181383984,0,,,,,1,,,24640158,pdf,7661ccca1d0fa24aedceb65ccbb9811f,,,"[1181383984]Каталог почтовых марок СССР 1962.-Д.А.Михайлов,Главная Филателистическая контора Росглавиздата.pdf",0,2000-01-01 01:00:00,2016-04-03 02:51:08,http://mirknig.com/uploads/posts/2011-03/1300881589_paper-quilling250.jpg,,
5126825,Несловесное мышление ,,,,Абрамова Н.Т. ,2002,,РАН ,,,0,Russian,КНИГИ  ПСИХОЛОГИЯ,mirknig.com,2011-03,,,,,,,,,,,1181383179,0,,,,,1,,,12195807,pdf,76127d8836c6318aade172e882d75da3,,,[1181383179]Несловесное мышление--Название-Несловесное мышление Автор-Абрамова Н.Т.Издательство-РАН Год-2002 Формат-PDF Размер-.pdf,0,2000-01-01 01:00:00,2016-04-03 02:51:08,,,
5126824,Эпизоотологический метод исследования ,,,,"В. В. Макаров, А. В. Святковский и др. ",2009,,Лань,,,0,Russian,,mirknig.com,2011-03,,,,,,,,,,,1181386037,0,,,,,1,,,11919822,pdf,73073db3d3769d8b916cc99ae99e4d42,,,"[1181386037]Эпизоотологический метод исследования.-В.В.Макаров,А.В.Святковский и др.,Лань,2009.pdf",0,2000-01-01 01:00:00,2016-04-03 02:51:08,,,
5126823,Малоэтажные дома из ячеистых бетонов. Каталог ,,,,Коллектив ,1989,,ЛенЗНИИЭП ,,,0,Russian,КНИГИ  ПРОФЕССИИ И РЕМЕСЛА,mirknig.com,2011-03,,,,,,,,,,,1181384593,0,,,,,1,,,13301561,djvu,6e69faec824ab3e373f0bf4e88d6fd4b,,,[1181384593]Малоэтажные дома из ячеистых бетонов.Каталог--Автор-Коллектив Название-Малоэтажные дома из ячеистых бетонов.Каталог.djvu,0,2000-01-01 01:00:00,2016-04-03 02:51:08,,,
5126822,Mars walk One. First Steps on a New Planet ,,,,"David J. Shayler, Andrew Salmonand Michael D. Shayler ",2005,,"Praxis Publishing pR Chichester, UK ",,,0,English ,КНИГИ НАУЧНО-ПОПУЛЯРНОЕ,mirknig.com,2011-03,,,,,,,,,,,1181386340,0,,,,,1,,,17570745,pdf,6de99d66b8947dace5723b3a7093988d,,,"[1181386340]Mars walk One.First Steps on a New Planet.-David J.Shayler,Andrew Salmonand Michael D.Shayler,Praxis Publishing pR .pdf",0,2000-01-01 01:00:00,2016-04-03 02:51:08,http://mirknig.com/uploads/posts/2011-03/1300142502_vosstanovlenie-140.jpg,,
5126821,Аэродромные покрытия: Современный взгляд ,,,,Васильев Н.Б. Кульчицкий В.А. Макагонов В.А. ,2002,,Физматлит ,,,0,Russian,КНИГИ  ПРОФЕССИИ И РЕМЕСЛА,mirknig.com,2011-03,5-9221-0215-X ,,,,,,,,,,1181385809,0,,,,,1,,,5876041,djvu,6d8faa84a44fa8df0bfb95cb3cce3960,,,[1181385809]Аэродромные покрытия-Современный взгляд--Автор-Васильев Н.Б.Кульчицкий В.А.Макагонов В.А.Название-Аэродромные покры.djvu,0,2000-01-01 01:00:00,2016-04-03 02:51:08,,,
5126820,Справочник егеря ,,,,Герасимов Ю.А. ,1988,,М.: Агропромиздат ,,,0,Russian,КНИГИ  ПРОФЕССИИ И РЕМЕСЛА,mirknig.com,2011-03,,,,,,,,,,,1181388973,0,,,,,1,,,24348021,pdf,6c3c0689ff4d746b5031d30be82c5840,,,[1181388973]Справочник егеря--Автор-Герасимов Ю.А.Название-Справочник егеря Издательство-М.-Агропромиздат Год-1988 Формат-pdf(в.pdf,0,2000-01-01 01:00:00,2016-04-03 02:51:08,,,
5126819,Хоккей в СССР ,,,,Автор-составитель А.С. Безель ,1955,,Физкультура и спорт ,,,0,Russian,КНИГИ  ХОББИ и РАЗВЛЕЧЕНИЯ,mirknig.com,2011-03,,,,,,,,,,,1181385966,0,,,,,1,,,3285983,djvu,6aa2dc9b9af1c5ccd55743d642fbbc95,,,"[1181385966]Хоккей в СССР.-Автор-составитель А.С.Безель,Физкультура и спорт,1955.djvu",0,2000-01-01 01:00:00,2016-04-03 02:51:08,,,
5126818,Язык общения. Английский для успешной коммуникации,,,,Коноваленко Ж.Ф.,2009,,Karo,,,0,Russian-English,КНИГИ НАУКА и УЧЕБА,mirknig.com,2011-03,978 5992503272,,,,,,,,,,1181387105 Качество: хорошее,0,,,,,1,,,64762029,pdf,607d12fe6c7dc16184c2f45440922b49,,,"[1181387105]Language of communication.-книги-J.F.Konovalenko,Karo.pdf",0,2000-01-01 01:00:00,2016-04-03 02:51:08,,,
5126817,Архитектура автомобильных дорог ,,,,Сардаров А.С. ,1993,,Транспорт ,,,0,Russian,КНИГИ  ПРОФЕССИИ И РЕМЕСЛА,mirknig.com,2011-03,,,,,,,,,,,1181385905,0,,,,,1,,,9591464,djvu,54c13aab17a498e0bfcd60e79eeb1624,,,"[1181385905]Архитектура автомобильных дорог.-Сардаров А.С.,Транспорт,1993г.djvu",0,2000-01-01 01:00:00,2016-04-03 02:51:08,,,
5126816,Самосознание: мое и наше. К постановке проблемы. ,,,,Михайлов Ф.Т. (отв. ред.) ,1997,,Москва. ИФ РАН ,,,0,Russian,КНИГИ  ПСИХОЛОГИЯ,mirknig.com,2011-03,5-201-01954-4,,,,,,,,,,1181381486,0,,,,,1,,,4456057,pdf,516412dd5beafbe79823ad25ab949163,,,[1181381486]Самосознание-мое и наше.К постановке проблемы.--Автор-Михайлов Ф.Т.(отв.ред.)Название-Самосознание-мое и наше.К пос.pdf,0,2000-01-01 01:00:00,2016-04-03 02:51:08,,,
5126815,Российские ученые на зарубежных почтовых марках,,,,Юрий Квасников ,2009,,Издательско-торговый Центр «Марка» ,,,0,Russian,"КНИГИ, ХОББИ и РАЗВЛЕЧЕНИЯ",mirknig.com,2011-03,,,,,,,,,,,1181389033,0,,,,,1,,,46343603,pdf,4f7affbc0c55aaea59586ce1ee68c38b,,,"[1181389033]Российские ученые на зарубежных почтовых марках.-Юрий Квасников,Издательско-торговый Центр «Марка».pdf",0,2000-01-01 01:00:00,2016-04-03 02:51:08,http://mirknig.com/uploads/posts/2011-03/1301416776_4143hyamhl.jpg,,
5126814,Бесстыковой путь со сверхдлинными рельслвыми плетями ,,,,Новакович В.И. ,2005,,Маршрут ,,,0,Russian,КНИГИ ТЕХНИКА,mirknig.com,2011-03,,,,,,,,,,,1181380625,0,,,,,1,,,33900806,djvu,4c8fcd2c62dd2485103df8285eebc286,,,"[1181380625]Бесстыковой путь со сверхдлинными рельслвыми плетями.-Новакович В.И.,Маршрут,2005.djvu",0,2000-01-01 01:00:00,2016-04-03 02:51:08,,,
5126813,The Mask Of The Enchantress,,,,Victoria Holt ,1993,,"Books on Tape, Inc. ",,,0,English,КНИГИ РАЗНОЕ,mirknig.com,2011-03,0736625313,,,,,,,,,,1181389819,0,,,,,1,,,1314669,pdf,45fdd0b962328d03b180ed63a48dcb0b,,,"[1181389819]The Mask Of The Enchantress--Название-The Mask Of The Enchantress Автор-Victoria Holt Издательство-Books on Tape,In.pdf",0,2000-01-01 01:00:00,2016-04-03 02:51:08,,,
5126812,"Thoughts, Words and Things: An Introduction to Late Mediaeval Logic and Semantic Theory",,,,Paul Vincent Spade,2002,,410,,,0,English,,,0,,,,,,,,,,,,0,,,,,1,,,2930915,pdf,3d7640dc351a1550a1fdc236e5071872,,,Spade_P.V._-_Introduction_to_Late_Mediaeval_Logic_and_Semant,0,2000-01-01 01:00:00,2016-04-03 02:51:08,,,
5126811,Проектирование вентиляции промышленного здания ,,,,Волков О. Д. ,1989,,Выщашкола ,,,0,Russian,"ПРОФЕССИИ И РЕМЕСЛА,ТЕХНИКА",mirknig.com,2011-03,,,,,,,,,,,1181384718,0,,,,,1,,,3868067,djvu,30ee57b1738bef1e81a9a278b367be1a,,,[1181384718]Проектирование вентиляции промышленного здания--Автор-Волков О.Д.Название-Проектирование вентиляции промышленного з.djvu,0,2000-01-01 01:00:00,2016-04-03 02:51:08,,,
5126810,"Yeshe Lama: From the Heart Essence of the Vast Expanse of the Great Perfection, a Practice Manual for the Stages of the Path of th",,,,Jigme Lingpa,2008,,Snow Lion Publications,,,0,English,,,0,"1559392940,9781559392945",,,,,,,,,,,0,,,,,1,,,13013633,pdf,30a56d1c6ffc5c63478d3397b30dd2ac,,,Vidyadhara Jigmed Lingpa - Yeshe Lama,0,2000-01-01 01:00:00,2016-04-03 02:51:08,,,
5126809,FlyPast,,,,,2008,,,,,0,English ,,mirknig.com,2011-03,,,,,,,,,,,1181384381,0,,,,,1,,,86700801,pdf,2306b1f0b47a3340db8e36fece796fcc,,,"[1181384381]FlyPast №6 2008.-2008-6,2008-6.pdf",0,2000-01-01 01:00:00,2016-04-03 02:51:08,,,
5126808,Каталог почтовых марок СССР 1975 ,,,,М. И. Спивак,1976,,"«Центральное филателистическое агентство «Союзпечать», Министерство связи СССР.",,,0,Russian,"КНИГИ,РАЗНОЕ, ХОББИ и РАЗВЛЕЧЕНИЯ",mirknig.com,2011-03,,,,,,,,,,,1181384019,0,,,,,1,,,23091282,pdf,1ea4d5f4c6ca0f7fcc4bbec4682cb445,,,"[1181384019]Каталог почтовых марок СССР 1975.-М.И.Спивак,«Центральное филателистическое агентство «Союзпечать»,Министерство свя.pdf",0,2000-01-01 01:00:00,2016-04-03 02:51:08,,,
5126807,Восстановление и усиление строительных конструкций аварийных и реконструируемых зданий ,,,,А.И.Мальганов и др. ,1990,,ЦНТИ Томск,,,0,Russian,КНИГИ  ПРОФЕССИИ И РЕМЕСЛА,mirknig.com,2011-03,,,,,,,,,,,1181384429,0,,,,,1,,,19298982,djvu,1e987ad003211f411bd291d01e7b01be,,,[1181384429]Восстановление и усиление строительных конструкций аварийных и реконструируемых зданий--Автор-А.И.Мальганов и др.На.djvu,0,2000-01-01 01:00:00,2016-04-03 02:51:08,,,
5126806,Системы автоматизации производства и ремонта вагонов ,,,,"Болотн М.М., НовиковВ.Е. ",2004,,Маршрут ,,,0,Russian,КНИГИ ТЕХНИКА,mirknig.com,2011-03,,,,,,,,,,,1181380643,0,,,,,1,,,13938618,pdf,1c870da1d4efdd71e5d9b055e0ff9b6d,,,"[1181380643]Системы автоматизации производства и ремонта вагонов.-Болотн М.М.,НовиковВ.Е.,Маршрут,2004.pdf",0,2000-01-01 01:00:00,2016-04-03 02:51:08,,,
5126805,Русский рукопашный бой ,,,,"А. А. Туманов, А. В. Еганов ",1999,,Урал ЛТД ,,,0,Russian,КНИГИ ЧЕЛОВЕК,mirknig.com,2011-03,5-8029-0005-9 ,,,,,,,,,,1181383589 Качество: хорошее,0,,,,,1,,,66918976,pdf,1877a18d14c43af11f3225c058aad39f,,,"[1181383589]Русский рукопашный бой.-А.А.Туманов,А.В.Еганов,Урал ЛТД.pdf",0,2000-01-01 01:00:00,2016-04-03 02:51:08,,,
5126804,Устойчивость металлических конструкций ,,,,Блейх Ф. ,1959,,Физматгиз ,,,0,Russian,КНИГИ  ПРОФЕССИИ И РЕМЕСЛА,mirknig.com,2011-03,,,,,,,,,,,1181385729,0,,,,,1,,,17092735,djvu,1429bf23155197aca2dc23ba3ff3d60d,,,"[1181385729]Устойчивость металлических конструкций.-Блейх Ф.,Физматгиз,1959.djvu",0,2000-01-01 01:00:00,2016-04-03 02:51:08,,,
5126803,Конструкторы ,,,,"Романов А.П., Губарев В.С ",1989,,М.: Политиздат ,,,0,Russian,КНИГИ ЧЕЛОВЕК,mirknig.com,2011-03,,,,,,,,,,,1181381248,0,,,,,1,,,35236873,pdf,116a363b1df822318f8d80d0e2d8ba63,,,"[1181381248]Конструкторы--Автор-Романов А.П.,Губарев В.С Название-Конструкторы Издательство-М.-Политиздат Год-1989 Формат-pdf(в.pdf",0,2000-01-01 01:00:00,2016-04-03 02:51:08,,,
5126802,Изыскание и проектирование железных дорог. Пособин по курсовому и дипломному проектированию ,,,,"Гавриленков А.В., Переселенков Г.С. ",1990,,Транспорт ,,,0,Russian,КНИГИ ТЕХНИКА,mirknig.com,2011-03,,,,,,,,,,,1181381350,0,,,,,1,,,3694399,djvu,106a8f9493fab5d41035706f7ed81139,,,"[1181381350]Изыскание и проектирование железных дорог.Пособин по курсовому и дипломному проектированию.-Гавриленков А.В.,Пересе.djvu",0,2000-01-01 01:00:00,2016-04-03 02:51:08,,,
5126801,Живопись и её средства. ,,,,Шашков Ю.П. ,2006,,Академический проект. ,,,0,Russian,КНИГИ  ЖИВОПИСЬ и РИСОВАНИЕ,mirknig.com,2011-03,,,,,,,,,,,1181386906,0,,,,,1,,,19327395,pdf,fcec8914fb03f825bb101da4d33499aa,,,"[1181386906]Живопись и её средства.-Шашков Ю.П.,Академический проект..pdf",0,2000-01-01 01:00:00,2016-04-03 02:51:08,,,
5126800,Шесть фигур мышления ,,,,Эдвард де Боно ,2010,,Питер ,,,0,Russian,"НАУКА и УЧЕБА, ПСИХОЛОГИЯ",mirknig.com,2011-03,,,,,,,,,,,1181385812,0,,,,,1,,,3788717,djvu,f5db67aef8ef38ff4590412e83c37355,,,"[1181385812]Шесть фигур мышления.-Эдвард де Боно,Питер,2010.djvu",0,2000-01-01 01:00:00,2016-04-03 02:51:08,,,
5126799,Безопасная эксплуатация строительных лесов ,,,,Михайлова Г.А.,1980,,Стройиздат ,,,0,Russian,"НАУКА и УЧЕБА, ПРОФЕССИИ И РЕМЕСЛА",mirknig.com,2011-03,,,,,,,,,,,1181386379,0,,,,,1,,,7363059,pdf,f1034e85fdcc5ab2cab1cb7fabc307ec,,,"[1181386379]Безопасная эксплуатация строительных лесов.-Михайлова Г.А.,Стройиздат,1980.pdf",0,2000-01-01 01:00:00,2016-04-03 02:51:08,http://mirknig.com/uploads/posts/2011-03/1301329862_nadezhnost_250.jpg,,
5126798,Дипломатия ,,,,Г. Никольсон ,1941,,ОГИЗ - Госполитиздат ,,,0,Russian,КНИГИ  ИСТОРИЯ,mirknig.com,2011-03,,,,,,,,,,,1181387867 Качество: Хорошее ,0,,,,,1,,,7463604,pdf,f044af7f8a2a55df7a8445e34e940d4a,,,"[1181387867]Дипломатия.-Г.Никольсон,ОГИЗ - Госполитиздат,1941.pdf",0,2000-01-01 01:00:00,2016-04-03 02:51:08,,,
5126797,Безопасность работ на лесах и подмостях ,,,,Сташевская С.Г. ,1970,,Стройиздат ,,,0,Russian,"НАУКА и УЧЕБА, ПРОФЕССИИ И РЕМЕСЛА",mirknig.com,2011-03,,,,,,,,,,,1181386366,0,,,,,1,,,3072442,pdf,ee2cb627a23a3032ff2190c0d61e93c3,,,"[1181386366]Безопасность работ на лесах и подмостях.-Сташевская С.Г.,Стройиздат,1970.pdf",0,2000-01-01 01:00:00,2016-04-03 02:51:08,,,
5126796,Правоохранительные органы ,,,,Галустьян О.А. ,2004,,Закон и право ,,,0,Russian,КНИГИ НАУКА и УЧЕБА,mirknig.com,2011-03,,,,,,,,,,,1181386799,0,,,,,1,,,5876722,djvu,edba464c3495c82e3c302af10bc43f39,,,"[1181386799]Правоохранительные органы.-Галустьян О.А.,Закон и право,2004.djvu",0,2000-01-01 01:00:00,2016-04-03 02:51:08,http://mirknig.com/uploads/posts/2011-03/1301416046_41otyswysil.jpg,,
5126795,Школа стройности для стервы ,,,,Евгения Шацкая ,2008,,"АСТ, Астрель ",,,0,Russian,КНИГИ  ДОМ и СЕМЬЯ,mirknig.com,2011-03,"5-17-040607-X,5-271-14870-X",,,,,,,,,,1181388032,0,,,,,1,,,8333064,djvu,ed10843a41107b8d8bcd893ee0077708,,,"[1181388032]Школа стройности для стервы.-Евгения Шацкая,АСТ,Астрель,2008.djvu",0,2000-01-01 01:00:00,2016-04-03 02:51:08,,,
5126794,Batalla de la bolsa del Ruhr ,,,,Charles Whiting ,1974,,Editorial San Martin ,,,0,Spanish,КНИГИ ВОЕННАЯ ИСТОРИЯ,mirknig.com,2011-03,,,,,,,,,,,1181391464,0,,,,,1,,,18839406,pdf,ec3516de464a93a76346367cd1cfe117,,,"[1181391464]Batalla de la bolsa del Ruhr.-Charles Whiting,Editorial San Martin,1974.pdf",0,2000-01-01 01:00:00,2016-04-03 02:51:08,,,
5126793,За Родину. Против крамолы ,,,,Дубровин А. И. ,2011,,Институт русской цивилизации ,,,0,Russian,КНИГИ  ИСТОРИЯ,mirknig.com,2011-03,,,,,,,,,,,1181387392,0,,,,,1,,,3212809,pdf,ebe068e3252bfccb3b452626b433448e,,,"[1181387392]За Родину.Против крамолы.-Дубровин А.И.,Институт русской цивилизации.pdf",0,2000-01-01 01:00:00,2016-04-03 02:51:08,http://mirknig.com/uploads/posts/2011-03/1301415716_51q7jbjixjl.jpg,,
5126792,Бальзак Этапы творческого пути ,,,,Обломиевский Д. ,1961,,Государственное издательство художественной литературы ,,,0,Russian,КНИГИ  ГУМАНИТАРНЫЕ НАУКИ,mirknig.com,2011-03,,,,,,,,,,,1181386997,0,,,,,1,,,52507633,pdf,eaa0e1a796c7e41fc4602e1adfd3e679,,,[1181386997]Бальзак.Этапы творческого пути--Название-Бальзак Этапы творческого пути Автор-Обломиевский Д.Издательство-Государст.pdf,0,2000-01-01 01:00:00,2016-04-03 02:51:08,http://mirknig.com/uploads/posts/2011-03/1301077128_41jxsivnyel.jpg,,
5126791,Waffen SS: Los soldados del asfalto ,,,,John Keegan ,1979,,Editorial San Martin ,,,0,Spanish,КНИГИ ВОЕННАЯ ИСТОРИЯ,mirknig.com,2011-03,,,,,,,,,,,1181390054,0,,,,,1,,,18389206,pdf,e706fb69a7b07b7956d6b2b46cf2e225,,,"[1181390054]Waffen SS-Los soldados del asfalto.-John Keegan,Editorial San Martin,1979.pdf",0,2000-01-01 01:00:00,2016-04-03 02:51:08,,,
5126790,Феодализм в России ,,,,Н.П. Павлов-Сильванский ,1988,,Наука ,,,0,Russian,КНИГИ  ИСТОРИЯ,mirknig.com,2011-03,,,,,,,,,,,1181385977,0,,,,,1,,,9333999,djvu,e30c0eb09b051871975d3b943c97004b,,,[1181385977]Феодализм в России--Название-Феодализм в России Автор-Н.П.Павлов-Сильванский Издательство-Наука Год-1988 Формат-djv.djvu,0,2000-01-01 01:00:00,2016-04-03 02:51:08,,,
5126789,Зайкина шубка Художник: Смирнов Е.А. ,,,,Степанов В.П. ,1999,,Фламинго ,,,0,Russian,КНИГИ ДЛЯ ДЕТЕЙ,mirknig.com,2011-03,,,,,,,,,,,1181386193,0,,,,,1,,,963190,pdf,de667106b17aa8850b89d20efaadb4d1,,,"[1181386193]Зайкина шубка.-Степанов В.П.,Фламинго,1999.pdf",0,2000-01-01 01:00:00,2016-04-03 02:51:08,,,
5126788,"Жить, работать и радоваться на иврите. Пособие по изучению ивритских глаголов",,,,И. Элихай ,2002,,Постер-Ляйн,,,0,Russian-Hebrew,"иностранные языки, обучение, иврит",mirknig.com,2011-03,,,,,,,,,,,1181383118,0,,,,,1,,,9764421,pdf,ddf9fe60a141d5fe8ff303696fab7d55,,,"[1181383118]Жить,работать и радоваться на иврите.Пособие по изучению ивритских глаголов.-И.Элихай,Постер-Ляйн.pdf",0,2000-01-01 01:00:00,2016-04-03 02:51:08,,,
5126787,Аналитическая химия. Программа. Задачи.,,,,Болотов В.В. ,2002,,НФаУ ,,,0,Russian,КНИГИ ЕСТЕСТВЕННЫЕ НАУКИ,mirknig.com,2011-03,,,,,,,,,,,1181388875 Качество: хорошее ,0,,,,,1,,,1878563,djvu,dd46bb6aa516ce57688948fb38d81ab5,,,"[1181388875]Аналитическая химия.Программа.Задачи.-Болотов В.В.,НФаУ,2002.djvu",0,2000-01-01 01:00:00,2016-04-03 02:51:08,,,
5126786,Волк и семеро козлят ,,,,Русская народная сказка в обработке А.Толстого. Рисунки:А.Савченко ,2000,,Омега ,,,0,Russian,КНИГИ ДЛЯ ДЕТЕЙ,mirknig.com,2011-03,,,,,,,,,,,1181385143,0,,,,,1,,,1094504,pdf,daa3984312c3f64834b313e441608c63,,,"[1181385143]Волк и семеро козлят.-Русская народная сказка в обработке А.Толстого.,Омега,2000.pdf",0,2000-01-01 01:00:00,2016-04-03 02:51:08,,,
5126785,Мир вокруг нас: Учебник для 1 класса начальной школы ,,Зеленый дом ,,Плешаков А.А. ,2003,,Просвещение ,,,0,Russian,КНИГИ ДЛЯ ДЕТЕЙ,mirknig.com,2011-03,,,,,,,,,,,1181386185,0,,,,,1,,,19256908,pdf,d7c1da94636aac24562af0be0de2ca11,,,"[1181386185]Мир вокруг нас-Учебник для 1 класса начальной школы..-Плешаков А.А.,Просвещение,2003.pdf",0,2000-01-01 01:00:00,2016-04-03 02:51:08,,,
5126784,Пиши без ошибок,,,,Зеленая Е.Е.,1999,,Прсвита,,,0,Russian,"ДЛЯ ДЕТЕЙ,НАУКА и УЧЕБА",mirknig.com,2011-03,,,,,,,,,,,1181385820,0,,,,,1,,,8346810,pdf,d66d87bb3c811ee4448900ea51c5eeae,,,"[1181385820]Пиши без ошибок.-Зеленая Е.Е.,Прсвита.pdf",0,2000-01-01 01:00:00,2016-04-03 02:51:08,http://mirknig.com/uploads/posts/2011-03/1301414650_51wtap5a9zl.jpg,,
5126783,Память. А- класс. Первоклассные упражнения.,,,,Мамаева В.В.,2010,,Азбука-классика,,,0,Russian,КНИГИ ДЛЯ ДЕТЕЙ,mirknig.com,2011-03,,,,,,,,,,,1181383768,0,,,,,1,,,6430357,pdf,d59ece96780a66d9871770464c2d9466,,,"[1181383768]Память.А- класс.Первоклассные упражнения.-Мамаева В.В.,Азбука-классика.pdf",0,2000-01-01 01:00:00,2016-04-03 02:51:08,,,
5126782,Приоритеты безопасности человека в производственной сфере Учебное пособие для вузов ,,,,"Д.С. Стуров, В.И. Гасилин; Под общей ред. д.т.н., проф. Мироненко В.Ф. ",2006,,Алтайский государственный технический университет им. И.И.Ползунова ,,,0,Russian,КНИГИ НАУКА и УЧЕБА,mirknig.com,2011-03,,,,,,,,,,,1181386904,0,,,,,1,,,3607508,pdf,d229731457845b2fec2ea544ca6caa42,,,"[1181386904]Приоритеты безопасности человека в производственной сфере  Учебное пособие для вузов.-Д.С.Стуров,В.И.Гасилин; Под о.pdf",0,2000-01-01 01:00:00,2016-04-03 02:51:08,http://mirknig.com/uploads/posts/2011-03/1301471983_r_pritchi_skazki_rav_reb.jpg,,
5126780,Hugo Junkers: Ein politisches Essay ,,,,Olaf Groehler ,1989,,Militar Verlag DDR ,,,0,German,КНИГИ ВОЕННАЯ ИСТОРИЯ,mirknig.com,2011-03,,,,,,,,,,,1181390625,0,,,,,1,,,55944732,pdf,d0ce607c1fc5753d496d5d5900ce06f3,,,"[1181390625]Hugo Junkers-Ein politisches Essay.-Olaf Groehler,Militar Verlag DDR,1989.pdf",0,2000-01-01 01:00:00,2016-04-03 02:51:08,,,
5126781,Оперный словарь ,,,,Абрам Акимович Гозенпуд ,0,,Музыка ,,,0,Russian,КНИГИ  КУЛЬТУРА и ИСКУССТВО,mirknig.com,2011-03,,,,,,,,,,,1181384660,0,,,,,1,,,4712584,djvu,d1db29f060178825e167db31005cbadc,,,"[1181384660]Оперный словарь.-Абрам Акимович Гозенпуд,Музыка,Музыка.djvu",0,2000-01-01 01:00:00,2016-04-03 02:51:08,http://mirknig.com/uploads/posts/2011-03/1299221936_workbook.-rabochaya-tetrad.jpg,,
5126779,Драконы Рисуем акварельными красками ,,,,Пол Б. Дэвис ,2011,,Контэнт ,,,0,Russian,КНИГИ  ЖИВОПИСЬ и РИСОВАНИЕ,mirknig.com,2011-03,,,,,,,,,,,1181379803,0,,,,,1,,,16597711,djvu,cffa194ab123b44c9c59f094c8d9fe00,,,[1181379803]Драконы Рисуем акварельными красками--Название-Драконы Рисуем акварельными красками Автор-Пол Б.Дэвис Издательство-.djvu,0,2000-01-01 01:00:00,2016-04-03 02:51:08,,,
5126778,Мир на ладошке. Цветы мира ,,,,Умница,2008,,Умница ,,,0,Russian,КНИГИ ДЛЯ ДЕТЕЙ,mirknig.com,2011-03,,,,,,,,,,,1181379714,0,,,,,1,,,31371790,pdf,cbf866324cfb9d724c7291f37f5151d2,,,"[1181379714]Мир на ладошке.Цветы мира.-Умница,Умница,2008.pdf",0,2000-01-01 01:00:00,2016-04-03 02:51:08,http://mirknig.com/uploads/posts/2011-03/1299487171_oblozhka_250.jpg,,
5126777,Скоро в школу. Рабочая тетрадь ,,,,В. Федиенко ,2011,,Школа ,,,0,Russian,КНИГИ ДЛЯ ДЕТЕЙ,mirknig.com,2011-03,,,,,,,,,,,1181386586,0,,,,,1,,,86473156,pdf,c8f7325dc8436811a942b8e8096c063c,,,"[1181386586]Скоро в школу.Рабочая тетрадь дошкольника.-В.Федиенко,Школа,2011.pdf",0,2000-01-01 01:00:00,2016-04-03 02:51:08,,,
5126776,Самоубийство в художественном мире Достоевского ,,,,Ефремов В. С. ,2008,,Диалект ,,,0,Russian,КНИГИ  ГУМАНИТАРНЫЕ НАУКИ,mirknig.com,2011-03,,,,,,,,,,,1181390149,0,,,,,1,,,36575781,pdf,c8a68b7cb65ee676dec8b248a6c4de7a,,,[1181390149]Самоубийство в художественном мире Достоевского--Название-Самоубийство в художественном мире Достоевского Автор-Ефр.pdf,0,2000-01-01 01:00:00,2016-04-03 02:51:08,,,
5126775,Guerra de Invierno: Rusia contra Finlandia ,,,,Richard W Gordon ,1976,,Editorial San Martin ,,,0,Spanish,КНИГИ ВОЕННАЯ ИСТОРИЯ,mirknig.com,2011-03,,,,,,,,,,,1181389487,0,,,,,1,,,17562922,pdf,c899f31d2947c0f06c9023c85881f1bf,,,"[1181389487]Guerra de Invierno-Rusia contra Finlandia.-Richard W Gordon,Editorial San Martin,1976.pdf",0,2000-01-01 01:00:00,2016-04-03 02:51:08,,,
5126774,Веселые буквы от Л до Ф ,,Веселая школа ,,Степанов В.А. ,1999,,Фламинго ,,,0,Russian,КНИГИ ДЛЯ ДЕТЕЙ,mirknig.com,2011-03,,,,,,,,,,,1181390261,0,,,,,1,,,950209,pdf,c51627847868c204105d3e408589e7c0,,,"[1181390261]Веселые буквы от Л до Ф.-Степанов В.А.,Фламинго,1999.pdf",0,2000-01-01 01:00:00,2016-04-03 02:51:08,,,
5126773,Репка ,,,,Русская народная сказка Художник: Приходкин И.Н. ,1999,,Фламинго ,,,0,Russian,КНИГИ ДЛЯ ДЕТЕЙ,mirknig.com,2011-03,,,,,,,,,,,1181381817 Качество: отличное ,0,,,,,1,,,1392902,pdf,c32c6e414fc976d2aee73247dd110172,,,"[1181381817]Репка.-Русская народная сказка,Фламинго,1999.pdf",0,2000-01-01 01:00:00,2016-04-03 02:51:08,,,
5126772,Okinawa: La ultima batalla ,,,,Benis M Frank ,1977,,Editorial San Martin ,,,0,Spanish,КНИГИ ВОЕННАЯ ИСТОРИЯ,mirknig.com,2011-03,,,,,,,,,,,1181390059,0,,,,,1,,,20905730,pdf,b9a9cf7b13257e5244c60edeed8c3c8e,,,"[1181390059]Okinawa-La ultima batalla.-Benis M Frank,Editorial San Martin,1977.pdf",0,2000-01-01 01:00:00,2016-04-03 02:51:08,http://mirknig.com/uploads/posts/2011-03/1301490714_d0344c42e57e702e9f896cd963b6d7a1.jpg,,
5126771,Игры с прищепками творим и говорим,,,,"Фадеева Ю.А., Пичугина Г.А., Жилина И.И. ",2011,,ТЦ СФЕРА,,,0,Russian,"ДЛЯ ДЕТЕЙ, ДОМ и СЕМЬЯ",mirknig.com,2011-03,,,,,,,,,,,1181383465,0,,,,,1,,,5539429,pdf,b7dc2bc135411f16a689dc8f96e47be6,,,"[1181383465]Игры с прищепками творим и говорим.-Фадеева Ю.А.,Пичугина Г.А.,Жилина И.И.,ТЦ СФЕРА.pdf",0,2000-01-01 01:00:00,2016-04-03 02:51:08,,,
5126770,Универсальный тренажер по русскому языку и чтению для учащихся 1 и 2 классов,,,,"Мишакина Т.Л., Алдошина Н.Е., Гладкова С.А. ",2007,,издательство Ювента,,,0,Russian,"ДЛЯ ДЕТЕЙ,НАУКА и УЧЕБА",mirknig.com,2011-03,,,,,,,,,,,1181385052,0,,,,,1,,,11109234,pdf,b3d8a49b4dbe488ddefcf54a31c4c83d,,,"[1181385052]Универсальный тренажер по русскому языку и чтению для учащихся 1 и 2 классов.-Мишакина Т.Л.,Алдошина Н.Е.,Гладкова .pdf",0,2000-01-01 01:00:00,2016-04-03 02:51:08,,,
5126769,Мир на ладошке. Мир джунглей. ,,,,Умница,2008,,Умница ,,,0,Russian,КНИГИ ДЛЯ ДЕТЕЙ,mirknig.com,2011-03,,,,,,,,,,,1181379723,0,,,,,1,,,31022791,pdf,b09eb49168ab54a6d505eeff58af48bc,,,"[1181379723]Мир на ладошке.Мир джунглей..-Умница,Умница,2008.pdf",0,2000-01-01 01:00:00,2016-04-03 02:51:08,http://mirknig.com/uploads/posts/2011-03/1299570838_oblozhka_250.jpg,,
5126768,Пряничный домик ,,,,Катаев В. (ред.),1998,,Премьера ,,,0,Russian,КНИГИ ДЛЯ ДЕТЕЙ,mirknig.com,2011-03,,,,,,,,,,,1181390265,0,,,,,1,,,3218511,pdf,a83d1aba010403c8738d9e91f3611ef5,,,"[1181390265]Пряничный домик.-русская народная сказка под редакцией В.Катаева,Премьера,1998.pdf",0,2000-01-01 01:00:00,2016-04-03 02:51:08,,,
5126767,Mastering Photoshop For Web Design ,,,,Thomas Giannattasio ,2010,,Smashing Media ,,,0,English ,"ДИЗАЙН и ГРАФИКА, WEB-СОЗИДАНИЕ",mirknig.com,2011-03,,,,,,,,,,,1181387188,0,,,,,1,,,10668042,pdf,a7b2405142c17cb0438dca1f75db2c7c,,,"[1181387188]Mastering Photoshop For Web Design.-Thomas Giannattasio,Smashing Media,2010.pdf",0,2000-01-01 01:00:00,2016-04-03 02:51:08,,,
5126766,La flota de alta mar japonesa ,,,,Richard Humble ,1980,,Editorial San Martin ,,,0,Spanish,КНИГИ ВОЕННАЯ ИСТОРИЯ,mirknig.com,2011-03,,,,,,,,,,,1181388259,0,,,,,1,,,18432137,pdf,a57c72b4ce4a9e6ac3cabae82a82fa92,,,"[1181388259]La flota de alta mar japonesa.-Richard Humble,Editorial San Martin,1980.pdf",0,2000-01-01 01:00:00,2016-04-03 02:51:08,,,
5126765,Теория государства и права. Конспект лекций в схемах ,,,,Водопьянов В.П. ,2004,,Приор-Издат ,,,0,Russian,"ГУМАНИТАРНЫЕ НАУКИ,НАУКА и УЧЕБА",mirknig.com,2011-03,,,,,,,,,,,1181386803,0,,,,,1,,,2924843,djvu,a2e62ba427b23fc6b033a420b4d5c8ab,,,"[1181386803]Теория государства и права.Конспект лекций в схемах.-Водопьянов В.П.,Приор-Издат,2004.djvu",0,2000-01-01 01:00:00,2016-04-03 02:51:08,http://mirknig.com/uploads/posts/2011-03/1300960852_41picezq5ol.jpg,,
5126764,Великая победа на Волге ,,,,Под редакцией К.К.Рокоссовского ,1965,,Воениздат ,,,0,Russian,КНИГИ ВОЕННАЯ ИСТОРИЯ,mirknig.com,2011-03,,,,,,,,,,,1181389199,0,,,,,1,,,13100702,djvu,a2af8403367ad9f86729c5249da2767f,,,[1181389199]Великая победа на Волге--Название-Великая победа на Волге Автор-Под редакцией К.К.Рокоссовского Издательство-Воениз.djvu,0,2000-01-01 01:00:00,2016-04-03 02:51:08,http://mirknig.com/uploads/posts/2011-03/1301385922_0.jpg,,
5126763,"Свастика, крест, звезда. Произведение искусства в эпоху управляемой демократии",,,,Рыклин М ,2006,,Логос ,,,0,Russian,"ИСТОРИЯ, КУЛЬТУРА и ИСКУССТВО",mirknig.com,2011-03,,,,,,,,,,,1181391210,0,,,,,1,,,1496489,pdf,9d760fcaf5ac54af10094dfed19f3118,,,"[1181391210]Свастика,крест,звезда.Произведение искусства в эпоху управляемой демократии.-Рыклин М,Логос.pdf",0,2000-01-01 01:00:00,2016-04-03 02:51:08,,,
5126762,Mirage: Espejismo de la tecnica y de la politica ,,,,Carlos Perez San Emeterio ,1977,,Editorial San Martin ,,,0,Spanish,КНИГИ ВОЕННАЯ ИСТОРИЯ,mirknig.com,2011-03,,,,,,,,,,,1181389077,0,,,,,1,,,16038694,pdf,9d3ee60a8568c6146daba4c765244ef2,,,"[1181389077]Mirage-Espejismo de la tecnica y de la politica.-Carlos Perez San Emeterio,Editorial San Martin,1977.pdf",0,2000-01-01 01:00:00,2016-04-03 02:51:08,,,
5126761,"Объединяйтесь, люди русские! ",,,,Сост. А.Д. Степанов ,2008,,Институт русской цивилизации ,,,0,Russian,КНИГИ  ИСТОРИЯ,mirknig.com,2011-03,,,,,,,,,,,1181387368,0,,,,,1,,,3559790,pdf,9bda83549ff2d5c0e2b215643f181d17,,,"[1181387368]Объединяйтесь,люди русские!.-Сост.А.Д.Степанов,Институт русской цивилизации.pdf",0,2000-01-01 01:00:00,2016-04-03 02:51:08,,,
5126760,Бухгалтерский учет ,,,,М.А. Климова ,2006,,РИОР ,,,0,Russian,КНИГИ  ГУМАНИТАРНЫЕ НАУКИ,mirknig.com,2011-03,,,,,,,,,,,1181388968,0,,,,,1,,,52267808,pdf,98ef1c6a0107c1e519109e81b3527997,,,"[1181388968]Бухгалтерский учет.-М.А.Климова,РИОР,2006.pdf",0,2000-01-01 01:00:00,2016-04-03 02:51:08,,,
5126759,Сестрица Аленушка и братец Иванушка ,,,,Русская народная сказка Художник: Багин П. ,1989,,Советская Россия ,,,0,Russian,КНИГИ ДЛЯ ДЕТЕЙ,mirknig.com,2011-03,,,,,,,,,,,1181390049,0,,,,,1,,,2280937,pdf,95fa853358ed2c733c474a51b343f1b7,,,"[1181390049]Сестрица Аленушка и братец Иванушка.-Русская народная сказка,Советская Россия,1989.pdf",0,2000-01-01 01:00:00,2016-04-03 02:51:08,,,
5126758,Мир на ладошке. Загадки природы. ,,,,Умница,2008,,Умница ,,,0,Russian,КНИГИ ДЛЯ ДЕТЕЙ,mirknig.com,2011-03,,,,,,,,,,,1181379735,0,,,,,1,,,24828732,pdf,92c5809d149a30743a362267a5cbbdb2,,,"[1181379735]Мир на ладошке.Загадки природы..-Умница,Умница,2008.pdf",0,2000-01-01 01:00:00,2016-04-03 02:51:08,,,
5126757,Вирусы и вирусные вакцины ,,,,"В.А. Сергеев, Е.А. Непоклонов, Т.И. Алипер ",2007,,Библионика ,,,0,Russian,КНИГИ НАУКА и УЧЕБА,mirknig.com,2011-03,,,,,,,,,,,1181386844,0,,,,,1,,,3903316,djvu,9210d32c0254bb49663b65020533e58c,,,"[1181386844]Вирусы и вирусные вакцины.-В.А.Сергеев,Е.А.Непоклонов,Т.И.Алипер,Библионика,2007.tmp",0,2000-01-01 01:00:00,2016-04-03 02:51:08,http://mirknig.com/uploads/posts/2011-03/1301467215_41hoo6lvjcl.jpg,,
5126756,The New Wizard of Oz ,,,,L.Frank Baum ,1903,,"The Bobbs-Merrill Company. Indianapolis, U.S.A. ",,,0,English ,КНИГИ ДЛЯ ДЕТЕЙ,mirknig.com,2011-03,,,,,,,,,,,1181386341,0,,,,,1,,,16584797,pdf,90b62f60cef0c4a511186e4fa6215793,,,"[1181386341]The New Wizard of Oz.-L.Frank Baum,The Bobbs-Merrill Company.Indianapolis,U.S.A.,1903.pdf",0,2000-01-01 01:00:00,2016-04-03 02:51:08,http://mirknig.com/uploads/posts/2011-03/1301561777_515wxi0qmbl.jpg,,
5126755,Теория судебных доказательств в советском праве. ,,,,Вышинский А.Я. ,1941,,Юридическое издательство НКЮ СССР ,,,0,Russian,КНИГИ  ГУМАНИТАРНЫЕ НАУКИ,mirknig.com,2011-03,,,,,,,,,,,1181386755,0,,,,,1,,,26332807,pdf,8f22f677aed4b51508ce806035b8df5d,,,"[1181386755]Теория судебных доказательств в советском праве..-Вышинский А.Я.,Юридическое издательство НКЮ СССР,1941.pdf",0,2000-01-01 01:00:00,2016-04-03 02:51:08,http://mirknig.com/uploads/posts/2011-03/1300948772_410lwuue6l.jpg,,
5126754,Веселый спутник Воспоминания об Иосифе Бродском ,,,,Рада Аллой ,2008,,Журнал Звезда ,,,0,Russian,КНИГИ  КУЛЬТУРА и ИСКУССТВО,mirknig.com,2011-03,,,,,,,,,,,1181384528,0,,,,,1,,,11280257,pdf,8d1d84f5d64aa4700fb303e5f6dce4b9,,,[1181384528]Веселый спутник Воспоминания об Иосифе Бродском--Название-Веселый спутник Воспоминания об Иосифе Бродском Автор-Рад.pdf,0,2000-01-01 01:00:00,2016-04-03 02:51:08,,,
5126752,Soviet and Russian Nuclear Submarines ,,,,Wilfried Kopenhagen ,2001,,Schiffer Publishing ,,,0,English ,КНИГИ ВОЕННАЯ ИСТОРИЯ,mirknig.com,2011-03,,,,,,,,,,,1181389602,0,,,,,1,,,26340616,pdf,83fccb6b796ce893eed874b3235fb6bb,,,"[1181389602]Soviet and Russian Nuclear Submarines.-Wilfried Kopenhagen,Schiffer Publishing,2001.pdf",0,2000-01-01 01:00:00,2016-04-03 02:51:08,,,
5126753,Психология и педагогика ,,,,"Островский Э.В., Чернышова Л.И. ",2005,,Вузовский учебник ,,,0,Russian,"ГУМАНИТАРНЫЕ НАУКИ,НАУКА и УЧЕБА",mirknig.com,2011-03,,,,,,,,,,,1181386807,0,,,,,1,,,5948045,djvu,89bccdb223ea4cfb262b5386d7d6c27c,,,"[1181386807]Психология и педагогика.-Островский Э.В.,Чернышова Л.И.,Вузовский учебник,2005.djvu",0,2000-01-01 01:00:00,2016-04-03 02:51:08,http://mirknig.com/uploads/posts/2011-03/1301031356_51z2-tcwhzl.jpg,,
5126751,"Flames of War - BlitzkriegBattlefront miniatures Ltd, 2010",,,,,0,,,,,0,English ,"ВОЕННАЯ ИСТОРИЯ, ХОББИ и РАЗВЛЕЧЕНИЯ",mirknig.com,2011-03,978-0-9864514-9-2,,,,,,,,,,1181390055,0,,,,,1,,,22678961,pdf,836a91714c20959692dbfa256db59b1f,,,[1181390055]Flames of War - Blitzkrieg.-.pdf,0,2000-01-01 01:00:00,2016-04-03 02:51:08,,,
5126749,Перинатальная психология. ,,,,Добряков И. В.,2010,,Питер ,,,0,Russian,КНИГИ ЗДОРОВЬЕ,mirknig.com,2011-03,,,,,,,,,,,1181381751,0,,,,,1,,,4479065,pdf,7c2bd32a4cbabf0e99c9cdb22d68f253,,,"[1181381751]Перинатальная психология.-Добряков И.В.,Питер,2010.pdf",0,2000-01-01 01:00:00,2016-04-03 02:51:08,,,
5126750,У кремлевской стены ,,,,Алексей Абрамов ,1974,,Политической литературы ,,,0,Russian,КНИГИ  ИСТОРИЯ,mirknig.com,2011-03,,,,,,,,,,,1181385186,0,,,,,1,,,5542465,djvu,7c4c276b57da98cee3007044e27ffe31,,,"[1181385186]У кремлевской стены.-Алексей Абрамов,Политической литературы,1974.djvu",0,2000-01-01 01:00:00,2016-04-03 02:51:08,,,
5126748,"Екатерина Медичи, Черная Королева ",,,,С. Л. Плешкова ,1995,,МГУ ,,,0,Russian,КНИГИ  ИСТОРИЯ,mirknig.com,2011-03,,,,,,,,,,,1181391396,0,,,,,1,,,1662718,pdf,742e450e0222554135c421955b3a3359,,,"[1181391396]Екатерина Медичи,Черная Королева.-С.Л.Плешкова,МГУ.pdf",0,2000-01-01 01:00:00,2016-04-03 02:51:08,,,
5126747,PONS. Немецкий язык. Разговорник ,,,,Коллектив ,2007,,"Мир книги Язык : Русский, немецкий ",,,0,Russian,"ГУМАНИТАРНЫЕ НАУКИ, ХОББИ и РАЗВЛЕЧЕНИЯ",mirknig.com,2011-03,,,,,,,,,,,1181381317,0,,,,,1,,,44211504,pdf,7400bf882d28d45babc48812a885095d,,,[1181381317]PONS.Немецкий язык.Разговорник--Автор-Коллектив Название-PONS.Немецкий язык.Разговорник Издательство-Мир книги Язык.pdf,0,2000-01-01 01:00:00,2016-04-03 02:51:08,,,
5126746,История подлинного джаза ,,,,Юг Панасье ,1991,,Ставропольское книжное издательство ,,,0,Russian,КНИГИ  КУЛЬТУРА и ИСКУССТВО,mirknig.com,2011-03,,,,,,,,,,,1181384981,0,,,,,1,,,2520923,djvu,6b6ce3f5ad8e8c1d19369960a93f6aa5,,,[1181384981]История подлинного джаза--Автор-Юг Панасье Название-История подлинного джаза Издательство-Ставропольское книжное из.djvu,0,2000-01-01 01:00:00,2016-04-03 02:51:08,,,
5126745,Скоро в школу. Рабочая тетрадь ,,,,В. Федиенко ,2011,,Школа ,,,0,Russian,КНИГИ ДЛЯ ДЕТЕЙ,mirknig.com,2011-03,,,,,,,,,,,1181386586,0,,,,,1,,,3386280,djvu,6a9399ba248b0e0bd67696763c8e75b6,,,"[1181386586]Скоро в школу.Рабочая тетрадь дошкольника.-В.Федиенко,Школа,2011.djvu",0,2000-01-01 01:00:00,2016-04-03 02:51:08,,,
5126744,"Путешествие Христофора Колумба (дневники, письма, документы) ",,,,Под редакцией И.П.Магидовича ,1952,,Государственное издательство географической литературы ,,,0,Russian,КНИГИ  ИСТОРИЯ,mirknig.com,2011-03,,,,,,,,,,,1181383591,0,,,,,1,,,5858247,djvu,6a32cc535157c840e8bffc1593e05abd,,,"[1181383591]Путешествие Христофора Колумба(дневники,письма,документы).-Под редакцией И.П.Магидовича,Государственное издательств.djvu",0,2000-01-01 01:00:00,2016-04-03 02:51:08,,,
5126743,"Страницы немецкой историиx: легенды, факты, имена ",,,,"Шорич М. (сост.), Шуман Е. (сост.)",1999,,Немецкая волна ,,,0,Russian,КНИГИ  ИСТОРИЯ,mirknig.com,2011-03,,,,,,,,,,,1181387099,0,,,,,1,,,1538594,djvu,67d391b85925a6000709ede900ee271e,,,"[1181387099]Страницы немецкой истории-легенды,факты,имена.- Миодраг Шорич,Ефим Шуман,Немецкая волна,1999.djvu",0,2000-01-01 01:00:00,2016-04-03 02:51:08,,,
5126742,Сердечно-легочная реанимация ,,,,П. Сафар ,2000,,Медицина ,,,0,Russian,КНИГИ ЗДОРОВЬЕ,mirknig.com,2011-03,,,,,,,,,,,1181386455,0,,,,,1,,,1263810,djvu,5d870bbc852cc20cf62826883ba1f763,,,"[1181386455]Сердечно-легочная реанимация.-П.Сафар,Медицина,2000.djvu",0,2000-01-01 01:00:00,2016-04-03 02:51:08,http://mirknig.com/uploads/posts/2011-03/1301372798_519anrgcmfl.jpg,,
5126741,Римское право ,,,,Новицкий И.Б. ,2005,,ТЕИС ,,,0,Russian,"ГУМАНИТАРНЫЕ НАУКИ,НАУКА и УЧЕБА",mirknig.com,2011-03,,,,,,,,,,,1181386801,0,,,,,1,,,4857351,djvu,5c1a4e70ae9a21b6720b873b12452405,,,"[1181386801]Римское право.-Новицкий И.Б.,ТЕИС,2005.djvu",0,2000-01-01 01:00:00,2016-04-03 02:51:08,http://mirknig.com/uploads/posts/2011-03/1300953185_31tri0k8ail.jpg,,
5126740,Мир на ладошке. Домашние животные. ,,,,Умница,2008,,Умница ,,,0,Russian,КНИГИ ДЛЯ ДЕТЕЙ,mirknig.com,2011-03,,,,,,,,,,,1181379742,0,,,,,1,,,34340382,pdf,53a27d26ea97fe7bdaf7382ce41fb53d,,,"[1181379742]Мир на ладошке.Домашние животные..-Умница,Умница,2008.pdf",0,2000-01-01 01:00:00,2016-04-03 02:51:08,http://mirknig.com/uploads/posts/2011-03/1299683540_str_250.jpg,,
5126739,Junkers Ju 52 - Militaerversionen ,,,,"Helmut Erfurth, Wolfgang Mierttsch",2003,,Bernard  Graefe Verlag ,,,0,German,КНИГИ ВОЕННАЯ ИСТОРИЯ,mirknig.com,2011-03,,,,,,,,,,,1181386772,0,,,,,1,,,48739236,pdf,4e72648f5736a1205e4ef240bddcf927,,,"[1181386772]Junkers Ju 52 - Militaerversionen.-ы-Helmut Erfurth,Wolfgang Mierttsch,Bernard  Graefe Verlag,2003.pdf",0,2000-01-01 01:00:00,2016-04-03 02:51:08,,,
5126738,Физика. Развивающее обучение. Книга для учителей. 7 класс.,,,,Камин А.Л.,2003,,Феникс,,,0,Russian,КНИГИ НАУКА и УЧЕБА,mirknig.com,2011-03,,,,,,,,,,,1181381884,0,,,,,1,,,12255273,pdf,4d7d3878daca7c2afa53ced97fa2a1b2,,,"[1181381884]Физика.Развивающее обучение.Книга для учителей.7 класс..-Камин А.Л.,Феникс.pdf",0,2000-01-01 01:00:00,2016-04-03 02:51:08,,,
5126737,Еврейская революция ,,,,Жевахов Н. Д. ,2006,,Алгоритм ,,,0,Russian,КНИГИ  ИСТОРИЯ,mirknig.com,2011-03,,,,,,,,,,,1181387389,0,,,,,1,,,1747462,pdf,48c23b111779a97b235da5f4c70adfbd,,,"[1181387389]Еврейская революция.-Жевахов Н.Д.,Алгоритм.pdf",0,2000-01-01 01:00:00,2016-04-03 02:51:08,,,
5126736,Политический консалтинг ,,,,"Андросова Л.А., Сиушкин А.Е. ",2007,,Пензенский Государственный университет ,,,0,Russian,КНИГИ НАУКА и УЧЕБА,mirknig.com,2011-03,,,,,,,,,,,1181384993,0,,,,,1,,,1357648,pdf,4627bf6d30635b04ec6a6e8e6275a60f,,,"[1181384993]Политический консалтинг..-Андросова Л.А.,Сиушкин А.Е.,Пензенский Государственный университет,2007.pdf",0,2000-01-01 01:00:00,2016-04-03 02:51:08,,,
5126735,La Guerra del Yom Kippur ,,,,A.J. Barker ,1974,,Editorial San Martin ,,,0,Spanish,КНИГИ ВОЕННАЯ ИСТОРИЯ,mirknig.com,2011-03,,,,,,,,,,,1181389486,0,,,,,1,,,18466397,pdf,4212591e8027fdcbeb27002f90a17674,,,"[1181389486]La Guerra del Yom Kippur.-A.J.Barker,Editorial San Martin,1974.pdf",0,2000-01-01 01:00:00,2016-04-03 02:51:08,http://mirknig.com/uploads/posts/2011-03/1301407375_b77530c30945d14c4509e10e37320bfb.jpg,,
5126734,Познаем мир. Развивающие игры с карточками для детей 5-6 лет. Методическое руководство,,,,"Безруких М.М., Филиппова Т.А. ",2010,,Вентана-Граф ,,,0,Russian,КНИГИ НАУКА и УЧЕБА,mirknig.com,2011-03,,,,,,,,,,,1181383772,0,,,,,1,,,27368437,pdf,3a5bc6475907d287b14f2cce0d1834a2,,,"[1181383772]Познаем мир.Развивающие игры с карточками для детей 5-6 лет.Методическое руководство.-Безруких М.М.,Филиппова Т.А.,.pdf",0,2000-01-01 01:00:00,2016-04-03 02:51:08,,,
5126733,Концепции современного естествознания. Учебник для вузов ,,,,Рузавин Г.И. ,2005,,ЮНИТИ ,,,0,Russian,"ГУМАНИТАРНЫЕ НАУКИ,НАУКА и УЧЕБА",mirknig.com,2011-03,,,,,,,,,,,1181386802,0,,,,,1,,,4330283,djvu,362b2e033595112d09969c19dfcc00c4,,,"[1181386802]Концепции современного естествознания.Учебник для вузов.-Рузавин Г.И.,ЮНИТИ,2005.djvu",0,2000-01-01 01:00:00,2016-04-03 02:51:08,,,
5126732,B 29 La superfortaleza ,,,,Carl Berger ,1976,,Editorial San Martin ,,,0,Spanish,КНИГИ ВОЕННАЯ ИСТОРИЯ,mirknig.com,2011-03,,,,,,,,,,,1181388508,0,,,,,1,,,18583845,pdf,3526d9b0e36088d25671ba686ba90d9c,,,"[1181388508]B 29 La superfortaleza.-Carl Berger,Editorial San Martin,1976.pdf",0,2000-01-01 01:00:00,2016-04-03 02:51:08,http://mirknig.com/uploads/posts/2011-03/1301213797_velikaya-pobeda-na-volge-250.jpg,,
5126731,Экономика промышленного предприятия,,,,"Т.Н. Батова, О.В. Васюхин, Е.А. Павлова, Л.П. Сажнева",2010,,СПбГУ ИТМО,,,0,Russian,КНИГИ  ГУМАНИТАРНЫЕ НАУКИ,mirknig.com,2011-03,,,,,,,,,,,1181384611,0,,,,,1,,,1540518,pdf,33496184e4c622263457a23dad8fb522,,,"[1181384611]Экономика промышленного предприятия.-Т.Н.Батова,О.В.Васюхин,Е.А.Павлова,Л.П.Сажнева,СПбГУ ИТМО.pdf",0,2000-01-01 01:00:00,2016-04-03 02:51:08,,,
5126730,Социология: Учебник для вузов ,,,,Кравченко А.И. ,2001,,Академический проект ,,,0,Russian,"ГУМАНИТАРНЫЕ НАУКИ,НАУКА и УЧЕБА",mirknig.com,2011-03,,,,,,,,,,,1181386797,0,,,,,1,,,7396019,djvu,3323b55efa8ae0b5d697f0c7a7155d81,,,"[1181386797]Социология-Учебник для вузов.-Кравченко А.И.,Академический проект,2001.djvu",0,2000-01-01 01:00:00,2016-04-03 02:51:08,,,
5126729,Русский язык и культура речи: Учебное пособие для вузов ,,,,"Л.А, Введенская, Л.Г. Павлова, Е.КХ Катаева ",2004,,Феникс ,,,0,Russian,"ГУМАНИТАРНЫЕ НАУКИ,НАУКА и УЧЕБА",mirknig.com,2011-03,,,,,,,,,,,1181386804,0,,,,,1,,,8434310,djvu,303dd6cf334cbbb86552249f323cdc01,,,"[1181386804]Русский язык и культура речи-Учебное пособие для вузов.-Л.А,Введенская,Л.Г.Павлова,Е.КХ Катаева,Феникс,2004.djvu",0,2000-01-01 01:00:00,2016-04-03 02:51:08,,,
5126728,Этика: История я теория. Эстетика: особенности художественных эпох и направлений ,,,,"Кондратов В.А., Чичина.Е.А. ",2004,,ФЕНИКС ,,,0,Russian,"ГУМАНИТАРНЫЕ НАУКИ,НАУКА и УЧЕБА",mirknig.com,2011-03,,,,,,,,,,,1181386903,0,,,,,1,,,7381894,djvu,2e62e9e3158c98cde65be066f0b370a6,,,"[1181386903]Этика-История я теория.Эстетика-особенности художественных эпох и направлений.-Кондратов В.А.,Чичина.Е.А.,ФЕНИКС,20.djvu",0,2000-01-01 01:00:00,2016-04-03 02:51:08,,,
5126727,Энциклопедия славянской филологии. Выпуск 4. Тайнопись в юго-славянских и русских памятниках письма ,,,,М. Н. Сперанский ,1929,,Академии Наук СССР ,,,0,Russian,"ГУМАНИТАРНЫЕ НАУКИ, ИСТОРИЯ",mirknig.com,2011-03,,,,,,,,,,,1181384148,0,,,,,1,,,4570259,djvu,2b01b965f01ced7af618d25e392819dc,,,"[1181384148]Энциклопедия славянской филологии.Выпуск 4.Тайнопись в юго-славянских и русских памятниках письма.-М.Н.Сперанский,А.djvu",0,2000-01-01 01:00:00,2016-04-03 02:51:08,http://mirknig.com/uploads/posts/2011-03/1300749939_081c688807ff.jpg,,
5126726,Информатика и математика для юристов,,,,Андриашин Х.А. ,2003,,ЮНИТИ-ДАНА ,,,0,Russian,"НАУКА и УЧЕБА, ПРОГРАММИНГ",mirknig.com,2011-03,,,,,,,,,,,1181386811,0,,,,,1,,,7593649,djvu,2a1dd2827ca89985b08ca113077ca29f,,,"[1181386811]Информатика и математика для юристов.-Андриашин Х.А.,ЮНИТИ-ДАНА,2003.djvu",0,2000-01-01 01:00:00,2016-04-03 02:51:08,http://mirknig.com/uploads/posts/2011-03/1301420115_41qpvnhvyal.jpg,,
5126725,Тайна силы ,,,,"В.Петров, В.Чудинов ",1968,,Физкультура и спорт ,,,0,Russian,КНИГИ ЗДОРОВЬЕ,mirknig.com,2011-03,,,,,,,,,,,1181386307,0,,,,,1,,,517577,djvu,280789bd5fd1bcd44d99e28e463f513d,,,"[1181386307]Тайна силы.-В.Петров,В.Чудинов,Физкультура и спорт,1968.djvu",0,2000-01-01 01:00:00,2016-04-03 02:51:08,,,
5126724,Преступность и криминология в современной Японии ,,,,Кан Уэда ,1989,,Прогресс ,,,0,Russian,КНИГИ  ГУМАНИТАРНЫЕ НАУКИ,mirknig.com,2011-03,,,,,,,,,,,1181386261,0,,,,,1,,,14398217,pdf,2677a0d384e9b7275c3b874b3362950f,,,[1181386261]Преступность и криминология в современной Японии--Название-Преступность и криминология в современной Японии Автор-К.pdf,0,2000-01-01 01:00:00,2016-04-03 02:51:08,http://mirknig.com/uploads/posts/2011-03/1300905572_414gbkc1mil.jpg,,
5126723,Современная сексология. ,,,,Кочарян Г.С. ,2007,,Ника-Центр ,,,0,Russian,"ЗДОРОВЬЕ, ПСИХОЛОГИЯ",mirknig.com,2011-03,,,,,,,,,,,1181381791,0,,,,,1,,,1581183,pdf,257af3e48122fc6ad09740e3447af527,,,[1181381791]Современная сексология--Автор-Кочарян Г.С.Название-Современная сексология.Издательство-Ника-Центр Год-2007 Формат-p.pdf,0,2000-01-01 01:00:00,2016-04-03 02:51:08,http://mirknig.com/uploads/posts/2011-03/1300620255_64c59cc02d28.jpg,,
5126722,Шаманский костюм ,,,,Чернявская О.А. (сост.),2004,,Иркутск: Артиздат ,,,0,Russian-English,КНИГИ  КУЛЬТУРА и ИСКУССТВО,mirknig.com,2011-03,,,,,,,,,,,1181388880,0,,,,,1,,,14983244,pdf,1fe76ab17909a523c6436e620d0f5d08,,,"[1181388880]Шаманский костюм.--составитель-Чернявская О.А.,Иркутск-Артиздат.pdf",0,2000-01-01 01:00:00,2016-04-03 02:51:08,,,
5126721,"Как развивается ваш ребенок Таблицы сенсомоторного развития, игры и упражнения",,,,Зиннхубер Хельга. ,2009,,Теревинф,,,0,Russian,"ДОМ и СЕМЬЯ, ПСИХОЛОГИЯ",mirknig.com,2011-03,,,,,,,,,,,1181385447,0,,,,,1,,,20950409,pdf,1e3e80e1e54ce5f8238bf1e2c7ae2992,,,"[1181385447]Как развивается ваш ребенок Таблицы сенсомоторного развития,игры и упражнения.-Зиннхубер Хельга.,Теревинф.pdf",0,2000-01-01 01:00:00,2016-04-03 02:51:08,,,
5126720,История государства и права зарубежных стран ,,,,Прудников М.Л. ,2004,,ЮНИТИ ,,,0,Russian,"ГУМАНИТАРНЫЕ НАУКИ, ИСТОРИЯ",mirknig.com,2011-03,,,,,,,,,,,1181386798,0,,,,,1,,,8481521,djvu,1d3ee8dea3a74ad3dea6c84fc2a38b7b,,,"[1181386798]История государства и права зарубежных стран.-Прудников М.Л.,ЮНИТИ,2004.djvu",0,2000-01-01 01:00:00,2016-04-03 02:51:08,,,
5126719,Английский ,,,,Базанова Е. М. ,2004,,Дрофа ,,,0,Russian,"ГУМАНИТАРНЫЕ НАУКИ,НАУКА и УЧЕБА",mirknig.com,2011-03,,,,,,,,,,,1181386809,0,,,,,1,,,3477205,djvu,1d26e85b56aa956f7f2d4ee106a84ba0,,,"[1181386809]Английский язык-Учебник для студентов неязыковых вузов.-Базанова Е.М.,Дрофа,2004.djvu",0,2000-01-01 01:00:00,2016-04-03 02:51:08,,,
5126718,Всемирная история в литературе Древней Руси ,,,,Водолазкин Е.Г.,2008,,Пушкинский Дом ,,,0,Russian,КНИГИ  ГУМАНИТАРНЫЕ НАУКИ,mirknig.com,2011-03,,,,,,,,,,,1181387394,0,,,,,1,,,14150655,djvu,1be7fec393e4261b09fd73d907f667db,,,[1181387394]Всемирная история в литературе Древней Руси--Название-Всемирная история в литературе Древней Руси Автор-Водолазкин .djvu,0,2000-01-01 01:00:00,2016-04-03 02:51:08,,,
5126717,The Royal Air Force in Colour ,,,,Chris Allan ,1988,,Ian Allan Ltd ,,,0,English ,КНИГИ ВОЕННАЯ ИСТОРИЯ,mirknig.com,2011-03,,,,,,,,,,,1181387624,0,,,,,1,,,92357819,pdf,1bc876552408067d0ac817e7f8a73e81,,,"[1181387624]The Royal Air Force in Colour.-Chris Allan,Ian Allan Ltd,1988.pdf",0,2000-01-01 01:00:00,2016-04-03 02:51:08,,,
5126716,Экономика ,,,,Корнейчук Б.В. ,2004,,Экоиомисгь ,,,0,Russian,КНИГИ НАУКА и УЧЕБА,mirknig.com,2011-03,,,,,,,,,,,1181386808,0,,,,,1,,,6271966,djvu,19aace33d1686cc1f968ae0d84028152,,,"[1181386808]Экономика.-Корнейчук Б.В.,Экоиомисгь,2004.djvu",0,2000-01-01 01:00:00,2016-04-03 02:51:08,http://mirknig.com/uploads/posts/2011-03/1301418007_51j9e6mxvvl.jpg,,
5126715,Я учусь рисовать цветными карандашами,,,,Горбачёнок Е. ,2006,,издательство Белфакс издатгрупп ,,,0,Russian,"ДЛЯ ДЕТЕЙ, ЖИВОПИСЬ и РИСОВАНИЕ",mirknig.com,2011-03,,,,,,,,,,,1181386502,0,,,,,1,,,15276356,pdf,170e1e101d8efbbda1a7b759e44519d4,,,"[1181386502]Я учусь рисовать цветными карандашами.-Горбачёнок Е.,Белфаксиздатгрупп.pdf",0,2000-01-01 01:00:00,2016-04-03 02:51:08,,,
5126714,Практическое руководство по охране труда на малых предприятиях (Часть 3) ,,,,"Сорокина Ю.Г., Соловьева А.П. ",2000,,Альфа-композит ,,,0,Russian,КНИГИ НАУКА и УЧЕБА,mirknig.com,2011-03,,,,,,,,,,,1181380479,0,,,,,1,,,12528852,pdf,16caf81e38f17612b09e800fe12fa69d,,,"[1181380479]Практическое руководство по охране труда на малых предприятиях(Часть 3).-Сорокина Ю.Г.,Соловьева А.П.,Альфа-компози.pdf",0,2000-01-01 01:00:00,2016-04-03 02:51:08,,,
5126713,P-51 Escolta de bombardero ,,,,William Hess ,1971,,Editorial San Martin ,,,0,Spanish,КНИГИ ВОЕННАЯ ИСТОРИЯ,mirknig.com,2011-03,,,,,,,,,,,1181388040,0,,,,,1,,,22151647,pdf,157f91395663e85e62d23f4401d11a60,,,"[1181388040]P-51 Escolta de bombardero.-William Hess,Editorial San Martin,1971.pdf",0,2000-01-01 01:00:00,2016-04-03 02:51:08,,,
5126712,День первый - день последний Память о войне ,,,,Цукасов С. В. ,1988,,Советская Россия ,,,0,Russian,КНИГИ ВОЕННАЯ ИСТОРИЯ,mirknig.com,2011-03,,,,,,,,,,,1181388837,0,,,,,1,,,15040649,pdf,11640ff5b80d9248d40b705b3b6c0a69,,,[1181388837]День первый - день последний.Память о войне--Название-День первый - день последний Память о войне Автор-Цукасов С.В.pdf,0,2000-01-01 01:00:00,2016-04-03 02:51:08,http://mirknig.com/uploads/posts/2011-03/1301291903_0.jpg,,
5126711,"Deutsche Flugzeuge, 1914-1918: E. Dokumentation ",,,,Karl Rudolf Pawlas ,1976,,Publizistisches Archiv Pawlas ,,,0,German,КНИГИ ВОЕННАЯ ИСТОРИЯ,mirknig.com,2011-03,,,,,,,,,,,1181386774,0,,,,,1,,,236306951,pdf,0f047c5d01c8ae6b3f80b35d99a66f36,,,"[1181386774]Deutsche Flugzeuge,1914-1918-E.Dokumentation.-Karl Rudolf Pawlas,Publizistisches Archiv Pawlas,1976.pdf",0,2000-01-01 01:00:00,2016-04-03 02:51:08,,,
5126710,Мир на ладошке. Что растет на грядке. ,,,,Умница,2008,,Умница ,,,0,Russian,КНИГИ ДЛЯ ДЕТЕЙ,mirknig.com,2011-03,,,,,,,,,,,1181379727,0,,,,,1,,,31057813,pdf,0da96c46d7c69dffe7d80ba8a3eed2c7,,,"[1181379727]Мир на ладошке.Что растет на грядке..-Умница,Умница,2008.pdf",0,2000-01-01 01:00:00,2016-04-03 02:51:08,,,
5126709,Сокрушить крамолу,,,,Никольский Б. В. ,2004,,Институт русской цивилизации ,,,0,Russian,КНИГИ  ИСТОРИЯ,mirknig.com,2011-03,,,,,,,,,,,1181387381,0,,,,,1,,,3162181,pdf,0c498e9d1672fe17d1aa78faf47e2e2f,,,"[1181387381]Сокрушить крамолу.-Никольский Б.В.,Институт русской цивилизации.pdf",0,2000-01-01 01:00:00,2016-04-03 02:51:08,,,
5126708,3D Studio МАХ 67. Учебный курс,,,,"Темин Г.В., Кишик А.Н. ",2005,,ООО «ДиаСофтЮП»,,,0,Russian,КНИГИ ДИЗАЙН и ГРАФИКА,mirknig.com,2011-03,,,,,,,,,,,1181382820,0,,,,,1,,,75179976,pdf,0bd943bd1f25b0894e31a4d53be01923,,,"[1181382820]3D Studio МАХ 67.Учебный курс.-Темин Г.В.,Кишик А.Н.,ООО «ДиаСофтЮП».pdf",0,2000-01-01 01:00:00,2016-04-03 02:51:08,,,
5126707,Проблемы коммуникации у Чехова ,,,,А. Д. Степанов ,2005,,Языки славянской культуры ,,,0,Russian,КНИГИ  ГУМАНИТАРНЫЕ НАУКИ,mirknig.com,2011-03,,,,,,,,,,,1181390688,0,,,,,1,,,24935528,pdf,0a90d66b72c9192ae779ceaca8a37253,,,[1181390688]Проблемы коммуникации у Чехова--Название-Проблемы коммуникации у Чехова Автор-А.Д.Степанов Издательство-Языки славя.pdf,0,2000-01-01 01:00:00,2016-04-03 02:51:08,,,
5126706,Мир на ладошке. Что придумал человек. ,,,,Умница,2008,,Умница ,,,0,Russian,КНИГИ ДЛЯ ДЕТЕЙ,mirknig.com,2011-03,,,,,,,,,,,1181379719,0,,,,,1,,,25824097,pdf,071befb5c602e38df65c74674f5091e2,,,"[1181379719]Мир на ладошке.Что придумал человек..-Умница,Умница,2008.pdf",0,2000-01-01 01:00:00,2016-04-03 02:51:08,,,
5126705,Нормування антропогенного навантаження на навколишнє середовище.,,,,Некос В.Ю. ,2005,,ХНУ ,,,0,Ukrainian,КНИГИ ЕСТЕСТВЕННЫЕ НАУКИ,mirknig.com,2011-03,966-623-224-3 ,,,,,,,,,,1181390052 Качество: удовлетворительное ,0,,,,,1,,,3867238,djvu,06bf7b6f28e8e56ad2bb073e36939d04,,,[1181390052]Нормування антропогенного навантаження на навколишнє середовище.--Название-Нормування антропогенного навантаження н.djvu,0,2000-01-01 01:00:00,2016-04-03 02:51:08,,,
5126704,Граничные задачи для сложных пуассоновских процессов ,,,,В.С. Королюк ,1975,,Наукова Думка ,,,0,Russian,КНИГИ НАУКА и УЧЕБА,mirknig.com,issue 2011-02,,,,,,,,,,,1181374121,0,,,,,1,,,23749416,pdf,ffd7e73e884be48a49769de1d4c15168,,,"[1181374121]Граничные задачи для сложных пуассоновских процессов.-В.С.Королюк,Наукова Думка,1975.pdf",0,2000-01-01 01:00:00,2016-04-03 02:51:08,http://mirknig.com/uploads/posts/2011-02/1298010527_z.jpg,,
5126703,The Essential Guide to Digital Photography,,,,,2010,,Bakari Chavanu ,,,0,English ,КНИГИ ФОТО-ВИДЕО,mirknig.com,issue 2011-02,,,,,,,,,,,1181371003,0,,,,,1,,,2987378,pdf,fef4334a7e6c5b36780b258162e830dc,,,"[1181371003]The Essential Guide to Digital Photography.-и Издательство-Bakari Chavanu,Bakari Chavanu,2010.pdf",0,2000-01-01 01:00:00,2016-04-03 02:51:08,,,
5126702,Зверинецкие пещеры в Киеве ,,,,Каманин И. ,2007,,Ионинский монастырь ,,,0,Russian,КНИГИ  ИСТОРИЯ,mirknig.com,issue 2011-02,,,,,,,,,,,1181375987,0,,,,,1,,,29894672,pdf,fe0a0f2671dd843ea3753c2c4c1c2485,,,"[1181375987]Зверинецкие пещеры в Киеве.-Каманин И.,Ионинский монастырь,2007.pdf",0,2000-01-01 01:00:00,2016-04-03 02:51:08,,,
5126701,Основы метрологии стандартизации и сертификации,,,,"М.Я. Марусина, В.Л. Ткалич, Е.А. Воронцов, Н.Д. Скалецкая",2009,,СПбГУ ИТМО,,,0,Russian,КНИГИ НАУКА и УЧЕБА,mirknig.com,issue 2011-02,,,,,,,,,,,1181377841,0,,,,,1,,,2387116,pdf,fc4cd6f5c7b06056489cc2454b4233e9,,,"[1181377841]Основы метрологии стандартизации и сертификации.-М.Я.Марусина,В.Л.Ткалич,Е.А.Воронцов,Н.Д.Скалецкая,СПбГУ ИТМО.pdf",0,2000-01-01 01:00:00,2016-04-03 02:51:08,,,
5126700,"Android Wireless Application Development, 2nd Edition ",,,,"Shane Conder, Lauren Darcey ",2010,,Addison-Wesley Professional ,,,0,English ,КНИГИ  ПРОГРАММИНГ,mirknig.com,issue 2011-02,,,,,,,,,,,1181378016,0,,,,,1,,,17122885,pdf,f7b97d1249d264bf0e0412dbd5840120,,,"[1181378016]Android Wireless Application Development,2nd Edition.-Shane Conder,Lauren Darcey,Addison-Wesley Professional,2010.pdf",0,2000-01-01 01:00:00,2016-04-03 02:51:08,http://mirknig.com/uploads/posts/2011-02/1298278134_kopiya-remont-mashiry-maz-140.jpg,,
5126699,Счетные слова в китайском языке.,,,,Соседов Е.А. (сост.),2007,,АСТ Восток-Запад,,,0,Russian,КНИГИ НАУКА и УЧЕБА,mirknig.com,issue 2011-02,,,,,,,,,,,1181378913,0,,,,,1,,,33049208,pdf,f65327200386054a3faeb726ca980392,,,"[1181378913]Счетные слова в китайском языке.-сост.Соседов Е.А.,АСТ Восток-Запад.pdf",0,2000-01-01 01:00:00,2016-04-03 02:51:08,,,
5126698,Теория вероятностей ,,,,Пуанкаре А. ,1999,,ИРТ ,,,0,Russian,КНИГИ НАУКА и УЧЕБА,mirknig.com,issue 2011-02,,,,,,,,,,,1181374047,0,,,,,1,,,7960797,pdf,f578a244aa2fe6bfab7e97233093f5c7,,,"[1181374047]Теория вероятностей.-Пуанкаре А.,ИРТ,1999.pdf",0,2000-01-01 01:00:00,2016-04-03 02:51:08,,,
5126697,Women Warlords: An Illustrated History of Female Warriors ,,,,"Tim Newark,Angus McBride ",1989,,Blandford ,,,0,English ,"ВОЕННАЯ ИСТОРИЯ, ИСТОРИЯ",mirknig.com,2011-03,,,,,,,,,,,1181383808,0,,,,,1,,,78602369,pdf,efc8239e1b744bf4697a489e9f88f84e,,,"[1181383808]Women Warlords-An Illustrated History of Female Warriors.-Tim Newark,Angus McBride,Blandford,1989.pdf",0,2000-01-01 01:00:00,2016-04-03 02:51:08,,,
5126696,Метафорический тренинг ,,,,Вачков И.В. ,2006,,М.: «Ось-89» ,,,0,Russian,КНИГИ  ПСИХОЛОГИЯ,mirknig.com,issue 2011-02,5-98534-338-3,,,,,,,,,,1181379442,0,,,,,1,,,1286840,pdf,ed8792995dd0685a05187759716e8b8b,,,[1181379442]Метафорический тренинг--Автор-Вачков И.В.Название-Метафорический тренинг Издательство-М.-«Ось-89» Год-2006 Формат-P.pdf,0,2000-01-01 01:00:00,2016-04-03 02:51:08,,,
5126695,Обнинский краевед Владимир Сергеевич Нестеров. Воспоминания. Сборник трудов ,,,,"Составление, введение Даниловой М.А., Нестерова А.В. ",2009,,Москва: Изд. ООО «МЭЙЛЕР» ,,,0,Russian,КНИГИ  ИСТОРИЯ,mirknig.com,issue 2011-02,,,,,,,,,,,1181374394,0,,,,,1,,,455974093,pdf,ed6159263ff02ecb770047e21f8981c0,,,"[1181374394]Обнинский краевед Владимир Сергеевич Нестеров.Воспоминания.Сборник трудов..-Составление,введение Даниловой М.А.,Нес.pdf",0,2000-01-01 01:00:00,2016-04-03 02:51:08,,,
5126694,"23 февраля – подарки, тосты, поздравления ",,,,Кузнецов О.Н. (сост.),2011,,Книжный мир (e-book изд-е) ,,,0,Russian,"ХОББИ и РАЗВЛЕЧЕНИЯ,ЧЕЛОВЕК",mirknig.com,issue 2011-02,,,,,,,,,,,1181375370,0,,,,,1,,,815002,pdf,ec6215d1dd1511fe874272bf4cd6594a,,,"[1181375370]23 февраля – подарки,тосты,поздравления--Автор-авт.сост.Кузнецов О.Н.Название-23 февраля – подарки,тосты,поздравлен.pdf",0,2000-01-01 01:00:00,2016-04-03 02:51:08,,,
5126693,Учиться на пятёрки по русскому языку. Как?,,,,Костромина С.Н. ,2008,,Еврознак,,,0,Russian,КНИГИ НАУКА и УЧЕБА,mirknig.com,issue 2011-02,,,,,,,,,,,1181372045,0,,,,,1,,,27526934,pdf,ec58ee08deed3ea08806d2d58f11271b,,,"[1181372045]Учиться на пятёрки по русскому языку.Как..-Костромина С.Н.,Еврознак.pdf",0,2000-01-01 01:00:00,2016-04-03 02:51:08,,,
5126692,HP Network Node Manager 9: Getting Started ,,,,Marius Vilemaitis ,2011,,Packt Publishing,,,0,English ,КНИГИ СЕТЕВЫЕ ТЕХНОЛОГИИ,mirknig.com,issue 2011-02,,,,,,,,,,,1181374626,0,,,,,1,,,18458419,pdf,eb497fe3aa9f4a76c0f4222e7a250a59,,,"[1181374626]HP Network Node Manager 9-Getting Started.-Marius Vilemaitis,Packt Publishing,2011.pdf",0,2000-01-01 01:00:00,2016-04-03 02:51:08,,,
5126691,Достоевский Психиатрия и литература ,,,,Владимир Ефремов ,2006,,Диалект ,,,0,Russian,КНИГИ  ПСИХОЛОГИЯ,mirknig.com,issue 2011-02,,,,,,,,,,,1181379542,0,,,,,1,,,28785454,pdf,e93ba3f74352a50e6d961f859bf078c2,,,[1181379542]Достоевский Психиатрия и литература--Название-Достоевский Психиатрия и литература Автор-Владимир Ефремов Издательст.pdf,0,2000-01-01 01:00:00,2016-04-03 02:51:08,http://mirknig.com/uploads/posts/2011-02/1298039124_1001104096.jpg,,
5126690,Похождения Вечного Принца ,,,,М. Е. Литвак ,2008,,Феникс ,,,0,Russian,КНИГИ  ПСИХОЛОГИЯ,mirknig.com,issue 2011-02,,,,,,,,,,,1181372447,0,,,,,1,,,48885534,djvu,e7e53fd3a73fbda57b016916118cbe1f,,,[1181372447]Похождения Вечного Принца--Название-Похождения Вечного Принца Автор-М.Е.Литвак Издательство-Феникс Год-2008 Формат-.djvu,0,2000-01-01 01:00:00,2016-04-03 02:51:08,,,
5126689,"Трагедия русской культуры: Исследования, статьи, рецензии ",,,,Бицилли П.М ,2000,,Русский путь ,,,0,Russian,КНИГИ  КУЛЬТУРА и ИСКУССТВО,mirknig.com,issue 2011-02,,,,,,,,,,,1181373037,0,,,,,1,,,11753987,pdf,e64c32658632470bf424c590d5273f25,,,"[1181373037]Трагедия русской культуры-Исследования,статьи,рецензии--Название-Трагедия русской культуры-Исследования,статьи,реце.pdf",0,2000-01-01 01:00:00,2016-04-03 02:51:08,,,
5126688,Вероятностные процессы в теории массового обслуживания ,,,,Боровков А.А.,1972,,ФИЗМАТЛИТ ,,,0,Russian,КНИГИ НАУКА и УЧЕБА,mirknig.com,issue 2011-02,,,,,,,,,,,1181374045,0,,,,,1,,,25418385,pdf,e5ebf003deac2fc19a03f5ff5e197831,,,"[1181374045]Вероятностные процессы в теории массового обслуживания.-Боровков А.А.,ФИЗМАТЛИТ,1972.pdf",0,2000-01-01 01:00:00,2016-04-03 02:51:08,,,
5126687,Философия в будуаре ,,,,Соколова К. ,2010,,АСТ ,,,0,Russian,КНИГИ  ХОББИ и РАЗВЛЕЧЕНИЯ,mirknig.com,issue 2011-02,,,,,,,,,,,1181374727,0,,,,,1,,,22908538,pdf,e5e598ebe64f832d4414790aaf5530e3,,,"[1181374727]Философия в будуаре.-Соколова К.,АСТ,2010.pdf",0,2000-01-01 01:00:00,2016-04-03 02:51:08,http://mirknig.com/uploads/posts/2011-02/1297548463_marabout-bleu.jpg,,
5126686,Эликсир Любви ,,,,Лариса Ренар ,2010,,Вектор ,,,0,Russian,КНИГИ  ПСИХОЛОГИЯ,mirknig.com,issue 2011-02,,,,,,,,,,,1181372530,0,,,,,1,,,122417757,pdf,e271fc071a3b26ccff4cc859dc60290b,,,[1181372530]Эликсир Любви--Автор-Лариса Ренар Название-Эликсир Любви Издательство-Вектор Год-2010 Формат-PDF Размер-117 мб Для .pdf,0,2000-01-01 01:00:00,2016-04-03 02:51:08,,,
5126685,Прикладная голография,,,,О.В. Андреева,2008,,СПбГУ ИТМО,,,0,Russian,КНИГИ НАУКА и УЧЕБА,mirknig.com,issue 2011-02,,,,,,,,,,,1181377158,0,,,,,1,,,8881739,pdf,e1d38097f75355f6fc48c720fd627d1b,,,"[1181377158]Прикладная голография.-О.В.Андреева,СПбГУ ИТМО.pdf",0,2000-01-01 01:00:00,2016-04-03 02:51:08,,,
5126684,Судовая документация и переписка на английском языке ,,,,Куян Галина Геннадьевна ,2001,,Негоциант ,,,0,Russian,"НАУКА и УЧЕБА, ПРОФЕССИИ И РЕМЕСЛА",mirknig.com,issue 2011-02,,,,,,,,,,,1181370999,0,,,,,1,,,4976672,pdf,e16e29184699d8f4885922da28cd583b,,,"[1181370999]Судовая документация и переписка на английском языке.-Куян Галина Геннадьевна,Негоциант,2001.pdf",0,2000-01-01 01:00:00,2016-04-03 02:51:08,,,
5126683,Теория массового обслуживания ,,,,Л. Клейнрок,1979,,Машиностроение ,,,0,Russian,КНИГИ НАУКА и УЧЕБА,mirknig.com,issue 2011-02,,,,,,,,,,,1181374063,0,,,,,1,,,19272596,pdf,de159c4f8d7b83393e2fb2352ab5e941,,,"[1181374063]Теория массового обслуживания.-Л.Клейнрок,Машиностроение,1979.pdf",0,2000-01-01 01:00:00,2016-04-03 02:51:08,,,
5126682,Солдаты милосердия. Записки фронтовой медсестры ,,,,Буткевич Л. А. ,1987,,Пермское книжное издательство ,,,0,Russian,КНИГИ ВОЕННАЯ ИСТОРИЯ,mirknig.com,2011-03,,,,,,,,,,,1181382455,0,,,,,1,,,10399280,pdf,dd0ed11ea55f4817889e365ab7e7c50f,,,[1181382455]Солдаты милосердия.Записки фронтовой медсестры--Название-Солдаты милосердия.Записки фронтовой медсестры Автор-Бутке.pdf,0,2000-01-01 01:00:00,2016-04-03 02:51:08,,,
5126681,Фитнес-маникюр: дизайн на коротких ногтях ,,,,"Букин Д., Сивогривова О. ",2009,,Феникс ,,,0,Russian,КНИГИ  ХОББИ и РАЗВЛЕЧЕНИЯ,mirknig.com,issue 2011-02,,,,,,,,,,,1181375743,0,,,,,1,,,55325219,pdf,dce4c22dc71be63a96c73668c10bb02a,,,"[1181375743]Фитнес-маникюр-дизайн на коротких ногтях.-Букин Д.,Сивогривова О.,Феникс,2009.pdf",0,2000-01-01 01:00:00,2016-04-03 02:51:08,,,
5126680,Виражи концерна «Локхид» ,,,,А.Артамонов ,1985,,Политиздат ,,,0,Russian,КНИГИ ВОЕННАЯ ИСТОРИЯ,mirknig.com,2011-03,,,,,,,,,,,1181383978,0,,,,,1,,,1398123,djvu,dc5009ded90369464d947ed142f152c4,,,"[1181383978]Виражи концерна «Локхид».-А.Артамонов,Политиздат,1985.djvu",0,2000-01-01 01:00:00,2016-04-03 02:51:08,,,
5126679,Теория вероятностей и случайных процессов. Основы математического аппарата и прикладные аспекты ,,,,В.Н.Тутубалин ,1992,,МГУ ,,,0,Russian,КНИГИ НАУКА и УЧЕБА,mirknig.com,issue 2011-02,,,,,,,,,,,1181374109,0,,,,,1,,,3575170,djvu,dc1ca3f7984a86d84b2f0c840003197d,,,"[1181374109]Теория вероятностей и случайных процессов.Основы математического аппарата и прикладные аспекты.-В.Н.Тутубалин,МГУ,1.djvu",0,2000-01-01 01:00:00,2016-04-03 02:51:08,http://mirknig.com/uploads/posts/2011-02/1297968787_tufrqwu6eyrnqwx.jpeg,,
5126678,Радиолокационная видимость морских объектов,,,,Пересада В. ,1961,,Судостроение ,,,0,Russian,КНИГИ НАУКА и УЧЕБА,mirknig.com,issue 2011-02,,,,,,,,,,,1181375274,0,,,,,1,,,2571551,djvu,dbe572e20c540b6680583465d7c0cd95,,,"[1181375274]Радиолокационная видимость морских объектов.-Пересада В.,Судостроение,1961.djvu",0,2000-01-01 01:00:00,2016-04-03 02:51:08,http://mirknig.com/uploads/posts/2011-02/1298221521_44.jpg,,
5126677,Всемирная история пиратства ,,,,Благовещенский Г. ,2010,,"АСТ, Астрель-СПб ",,,0,Russian,КНИГИ  ИСТОРИЯ,mirknig.com,issue 2011-02,,,,,,,,,,,1181375507,0,,,,,1,,,37329073,djvu,db32f7483b19b8dd11c670a7d4054c4a,,,"[1181375507]Всемирная история пиратства.-Благовещенский Г.,АСТ,Астрель-СПб,2010.djvu",0,2000-01-01 01:00:00,2016-04-03 02:51:08,,,
5126676,Типовые варианты вступительных тестов по русскому языку,,,,Вишнякова О.С.,2009,,МГТУ им. Баумана,,,0,Russian,КНИГИ НАУКА и УЧЕБА,mirknig.com,issue 2011-02,,,,,,,,,,,1181376970,0,,,,,1,,,20375916,pdf,d6c2586c05f671b8ce2a8365d269dac1,,,"[1181376970]Типовые варианты вступительных тестов по русскому языку.-Вишнякова О.С.,МГТУ им.Баумана.pdf",0,2000-01-01 01:00:00,2016-04-03 02:51:08,,,
5126675,Как писать письма по-английски (частная и деловая переписка) ,,,,"Ступин Л. П., Ищук И. В. ",1991,,СП Грифон Интернешнл ,,,0,Russian,КНИГИ НАУКА и УЧЕБА,mirknig.com,issue 2011-02,,,,,,,,,,,1181371283,0,,,,,1,,,12205391,pdf,d5904bbdb0e5911048a27eeaccf7a2da,,,"[1181371283]Как писать письма по-английски(частная и деловая переписка).-Ступин Л.П.,Ищук И.В.,СП Грифон Интернешнл,1991.pdf",0,2000-01-01 01:00:00,2016-04-03 02:51:08,,,
5126674,Новые памятники древней и средневековой художественной культуры ,,,,Коллектив авторов ,1982,,Наукова думка ,,,0,Russian,"ИСТОРИЯ, КУЛЬТУРА и ИСКУССТВО",mirknig.com,issue 2011-02,,,,,,,,,,,1181374929,0,,,,,1,,,2525395,djvu,d038bb877ce04d39bedb3ee418370a13,,,"[1181374929]Новые памятники древней и средневековой художественной культуры.-Наукова думка,1982.djvu",0,2000-01-01 01:00:00,2016-04-03 02:51:08,,,
5126673,Сокровенная колода русской ворожеи ,,,,Анна Котельникова ,2008,,Центрполиграф,,,0,Russian,КНИГИ  ЭЗОТЕРИКА,mirknig.com,issue 2011-02,,,,,,,,,,,1181376011,0,,,,,1,,,62057959,pdf,cec0b4aeae8e7e1b5e7d2bf3a54be81a,,,"[1181376011]Сокровенная колода русской ворожеи.-Анна Котельникова,Центрполиграф,2008.pdf",0,2000-01-01 01:00:00,2016-04-03 02:51:08,http://mirknig.com/uploads/posts/2011-03/1300172500_putev_1991_1999.jpg,,
5126672,«Жесткие» и «мягкие» математические модели ,,,,Арнольд В. И. ,2008,,МЦНМО ,,,0,Russian,КНИГИ НАУКА и УЧЕБА,mirknig.com,issue 2011-02,,,,,,,,,,,1181372265,0,,,,,1,,,166433,djvu,cddce18c1923698411dcffde2107955d,,,[1181372265]«Жесткие» и «мягкие» математические модели--Автор-Арнольд В.И.Название-«Жесткие» и «мягкие» математические модели И.djvu,0,2000-01-01 01:00:00,2016-04-03 02:51:08,,,
5126671,Как определить место повреждения в силовом кабеле ,,,,Дементьев В.С. ,1980,, Энергия ,,,0,Russian,КНИГИ АППАРАТУРА,mirknig.com,2011-03,,,,,,,,,,,1181385411,0,,,,,1,,,1354941,djvu,cca3c4725289dc5202d0fca137d79e4a,,,[1181385411]Как определить место повреждения в силовом кабеле.-.djvu,0,2000-01-01 01:00:00,2016-04-03 02:51:08,,,
5126670,Дрессировка собак. Теория и практика ,,,,Гурнакова Е. Н. ,2008,,"АСТ, Агата ",,,0,Russian,"ПРОФЕССИИ И РЕМЕСЛА, ХОББИ и РАЗВЛЕЧЕНИЯ",mirknig.com,issue 2011-02,,,,,,,,,,,1181375147,0,,,,,1,,,6739084,djvu,c6aeef3871a774efe503907cef85e0f9,,,"[1181375147]Дрессировка собак.Теория и практика.-Гурнакова Е.Н.,АСТ,Агата,2008.djvu",0,2000-01-01 01:00:00,2016-04-03 02:51:08,,,
5126669,Focke-Wulf Fw-200 (Teil 1-Zivile Ausfuhrungen) ,,,,Karl-Heinz Regnat ,2005,,Bernard  Graefe Verlag ,,,0,German,КНИГИ ВОЕННАЯ ИСТОРИЯ,mirknig.com,2011-03,,,,,,,,,,,1181384485,0,,,,,1,,,65561972,pdf,c5cb8819d43ed49eccda9b841a94b205,,,"[1181384485]Focke-Wulf Fw-200.Teil 1-Zivile Ausfuhrungen.-Karl-Heinz Regnat,Bernard  Graefe Verlag,2005.pdf",0,2000-01-01 01:00:00,2016-04-03 02:51:08,,,
5126668,"Статистическая независимость в теории вероятностей, анализе и теории чисел ",,,,Кац М. ,1963,,Мир ,,,0,Russian,КНИГИ НАУКА и УЧЕБА,mirknig.com,issue 2011-02,,,,,,,,,,,1181374049,0,,,,,1,,,3064269,pdf,c55ef4087c881ec182d9c206f083b04b,,,"[1181374049]Статистическая независимость в теории вероятностей,анализе и теории чисел.-Кац М.,Мир,1963.pdf",0,2000-01-01 01:00:00,2016-04-03 02:51:08,,,
5126667,Новое Ядро Российской истории. Часть 1. ,,,,Иван Нехачин,1795,,Типография А.Решетникова,,,0,Russian,КНИГИ  ИСТОРИЯ,mirknig.com,issue 2011-02,,,,,,,,,,,1181373165,0,,,,,1,,,170048288,pdf,c21089e1de9ae33344aa88ce21261027,,,[1181373165]Новое Ядро Российской истории.Часть 1--Название-Новое Ядро Российской истории.Часть 1.Автор-Иван НехачинИздательств.pdf,0,2000-01-01 01:00:00,2016-04-03 02:51:08,http://mirknig.com/uploads/posts/2011-02/1297549320_history814.jpg,,
5126666,Задания по русскому языку для повторения и закрепления учебного материала. 3 класс ,,,,Нефедова Е.А. Узорова О.В. ,2010,,АСТ,,,0,Russian,КНИГИ НАУКА и УЧЕБА,mirknig.com,issue 2011-02,,,,,,,,,,,1181376242 Качество: отличное,0,,,,,1,,,40077703,pdf,c115e7398b67834b4d527f403957291c,,,[1181376242]Задания по русскому языку для повторения и закрепления учебного материала.3 класс--Автор-Нефедова Е.А.Узорова О.В.Н.pdf,0,2000-01-01 01:00:00,2016-04-03 02:51:08,http://mirknig.com/uploads/posts/2011-02/1298474024_brazhnikov_250.jpg,,
5126665,Алгоритмы и программы в радиолокации ,,,,Саврасов Ю. ,1985,,Радио и связь ,,,0,Russian,КНИГИ НАУКА и УЧЕБА,mirknig.com,issue 2011-02,,,,,,,,,,,1181375084,0,,,,,1,,,3100684,djvu,c0fcaf6f7354341b3c5a7824f0c847d7,,,"[1181375084]Алгоритмы и программы в радиолокации.-Саврасов Ю.,Радио и связь,1985.djvu",0,2000-01-01 01:00:00,2016-04-03 02:51:08,,,
5126664,Агрессия у детей младшего школьного возраста. Диагностика и коррекция,,,,Долгова А.Г. ,2009,,Генезис,,,0,Russian,КНИГИ  ПСИХОЛОГИЯ,mirknig.com,issue 2011-02,,,,,,,,,,,1181373802,0,,,,,1,,,11276109,pdf,be3380cb373b34ef267948a212ecc7bd,,,"[1181373802]Агрессия у детей младшего школьного возраста.Диагностика и коррекция.-Долгова А.Г.,Генезис.pdf",0,2000-01-01 01:00:00,2016-04-03 02:51:08,http://mirknig.com/uploads/posts/2011-02/1297618990_prugavin_v_kazematah.-1909.jpg,,
5126663,Праздничные салаты ,,,,Костина Д. ,2010,,АСТ ,,,0,Russian,КНИГИ КУЛИНАРИЯ,mirknig.com,issue 2011-02,,,,,,,,,,,1181375142,0,,,,,1,,,2279706,djvu,bb02377023936f4c01bcb9e5bd6582a3,,,"[1181375142]Праздничные салаты.-Костина Д.,АСТ,2010.djvu",0,2000-01-01 01:00:00,2016-04-03 02:51:08,http://mirknig.com/uploads/posts/2011-02/1297156241_tragediya-russkoi-kultury-250.jpg,,
5126662,Теория массового обслуживания ,,,,Г. Ивченко ,1982,,Высшая школа ,,,0,Russian,КНИГИ НАУКА и УЧЕБА,mirknig.com,issue 2011-02,,,,,,,,,,,1181374062,0,,,,,1,,,16497595,pdf,b8a4d2756594f80a912b3c1060246080,,,"[1181374062]Теория массового обслуживания.-Г.Ивченко,Высшая школа,1982.pdf",0,2000-01-01 01:00:00,2016-04-03 02:51:08,http://mirknig.com/uploads/posts/2011-02/1297847482_16.02.jpg,,
5126661,Освобождение в наших руках том I,,,,Пабонка Ринпоче ,2003,,"Издательская группа “Ганден”,Новосибирск Улан-Удэ Дата выхода",,,0,Russian,КНИГИ РЕЛИГИЯ,mirknig.com,issue 2011-02,,,,,,,,,,,1181378737,0,,,,,1,,,3150634,pdf,b80305359b94d806ed9689a6e4622ed1,,,[1181378737]Освобождение в наших руках - том I--Название-Освобождение в наших руках том I Автор-Пабонка Ринпоче Издатель тибетс.pdf,0,2000-01-01 01:00:00,2016-04-03 02:51:08,,,
5126660,Информатика 11 класс ,,,,"А. И. Павловский, А. Е. Пупцев, Е. В. Нашкевич, Н. Н. Нарейко. ",2001,,Минск Народная асвета ,,,0,Russian,"НАУКА и УЧЕБА, ПРОГРАММИНГ",mirknig.com,issue 2011-02,,,,,,,,,,,1181371970,0,,,,,1,,,16381636,pdf,b6f18d79d7f5d052d057e15bfdf3692f,,,"[1181371970]Информатика 11 класс.-А.И.Павловский,А.Е.Пупцев,Е.В.Нашкевич,Н.Н.Нарейко.,Минск Народная асвета,2001.pdf",0,2000-01-01 01:00:00,2016-04-03 02:51:08,,,
5126659,"Hacking the PSP: Cool Hacks, Mods, and Customizations for the Sony Playstation Portable",,,,Auri Rahimzadeh,2006,,Wiley,,,0,English ,КНИГИ СЕТЕВЫЕ ТЕХНОЛОГИИ,mirknig.com,issue 2011-02,,,,,,,,,,,1181377121,0,,,,,1,,,13637622,pdf,b54417e2b0398d5b0e561d246b9eb1e0,,,"[1181377121]Hacking the PSP-Cool Hacks,Mods,and Customizations for the Sony Playstation Portable.-Auri Rahimzadeh,Wiley,2006.pdf",0,2000-01-01 01:00:00,2016-04-03 02:51:08,,,
5126658,Введение в лазерные технологии,,,,"В.П. Вейко, А.А. Петров",2009,,СПбГУ ИТМО,,,0,Russian,КНИГИ НАУКА и УЧЕБА,mirknig.com,issue 2011-02,,,,,,,,,,,1181377149,0,,,,,1,,,12725271,pdf,b3aa02d2928f3ad6899af5ef700d02d5,,,"[1181377149]Введение в лазерные технологии.-В.П.Вейко,А.А.Петров,СПбГУ ИТМО.pdf",0,2000-01-01 01:00:00,2016-04-03 02:51:08,http://mirknig.com/uploads/posts/2011-02/1298787450_274_small.jpg,,
5126657,Основы технологии приборостроения,,,,"Валетов В. А., Мурашко В.А.",2006,,СПбГУ ИТМО,,,0,Russian,КНИГИ ТЕХНИКА,mirknig.com,issue 2011-02,,,,,,,,,,,1181378466,0,,,,,1,,,7582528,pdf,b203e8e44c7540642c9482fc80eed8de,,,"[1181378466]Основы технологии приборостроения.-Валетов В.А.,Мурашко В.А.,СПбГУ ИТМО.pdf",0,2000-01-01 01:00:00,2016-04-03 02:51:08,,,
5126656,Международное право : [Шпаргалки] ,,,,Составитель: Петренко А. В.,2010,,"АСТ, Сова ",,,0,Russian,КНИГИ НАУКА и УЧЕБА,mirknig.com,issue 2011-02,,,,,,,,,,,1181375145,0,,,,,1,,,2370811,djvu,b1c4d8cb9859a43f8d07961836f8c84d,,,"[1181375145]Международное право-Шпаргалки.-АСТ,Сова,2010.djvu",0,2000-01-01 01:00:00,2016-04-03 02:51:08,http://mirknig.com/uploads/posts/2011-02/1298217499_cd6854f37e858153d73ce21edd6ecfab.jpg,,
5126655,Погребально-поминальная обрядность населения степной Скифии (VII-III вв. до н.э.) ,,,,Ольховский В.С. ,1991,,Наука ,,,0,Russian,КНИГИ  ИСТОРИЯ,mirknig.com,issue 2011-02,,,,,,,,,,,1181374927,0,,,,,1,,,7593790,pdf,b15096f76da4d57a5e078d8c4fb48d38,,,"[1181374927]Погребально-поминальная обрядность населения степной Скифии(VII-III вв.до н.э.).-Ольховский В.С.,Наука,1991.pdf",0,2000-01-01 01:00:00,2016-04-03 02:51:08,,,
5126654,Теория случайных процессов ,,,,А.В.Булинский ,2001,,неизвестно ,,,0,Russian,КНИГИ НАУКА и УЧЕБА,mirknig.com,issue 2011-02,,,,,,,,,,,1181374119,0,,,,,1,,,1898728,pdf,b02545b870365d7f0d6bfdee09dbeafd,,,"[1181374119]Теория случайных процессов.-А.В.Булинский,неизвестно,2001.pdf",0,2000-01-01 01:00:00,2016-04-03 02:51:08,http://mirknig.com/uploads/posts/2011-02/1298007820_1.png,,
5126653,К истории города Ирбити и Ирбитской ярмарки ,,,,Хитров А. ,1872,,"Ирбит, тип-я А.А. Дробинина ",,,0,Russian,КНИГИ  ИСТОРИЯ,mirknig.com,issue 2011-02,,,,,,,,,,,1181375687,0,,,,,1,,,16332444,pdf,aa4317e6ae9029fb34484bef2877eafd,,,[1181375687]К истории города Ирбити и Ирбитской ярмарки--Название-К истории города Ирбити и Ирбитской ярмарки Автор-Хитров А.Из.pdf,0,2000-01-01 01:00:00,2016-04-03 02:51:08,,,
5126652,Тайга и золото ,,,,Чаплеевский К.Б. ,1899,,тип-я Спб. акц. общ. печатного дела в России Е. Евдокимов ,,,0,Russian,КНИГИ  ИСТОРИЯ,mirknig.com,issue 2011-02,,,,,,,,,,,1181375808,0,,,,,1,,,6611371,pdf,a999f17f678e9f95790f85dc25975af3,,,[1181375808]Тайга и золото--Название-Тайга и золото Автор-Чаплеевский К.Б.Издательство-тип-я Спб.акц.общ.печатного дела в Росси.pdf,0,2000-01-01 01:00:00,2016-04-03 02:51:08,,,
5126651,Творчество Пушкина и проблема публичного поведения поэта ,,,,И. В. Немировский ,2003,,Гиперион ,,,0,Russian,КНИГИ  КУЛЬТУРА и ИСКУССТВО,mirknig.com,issue 2011-02,,,,,,,,,,,1181376309,0,,,,,1,,,18128671,pdf,a266bab62f65267aff3c0460d5acce28,,,[1181376309]Творчество Пушкина и проблема публичного поведения поэта--Название-Творчество Пушкина и проблема публичного поведен.pdf,0,2000-01-01 01:00:00,2016-04-03 02:51:08,,,
5126650,Гузары Самарканда ,,,,М.Абрамов ,1989,,"Ташкент,Изд-во Узбекистан",,,0,Russian,КНИГИ  ИСТОРИЯ,mirknig.com,issue 2011-02,,,,,,,,,,,1181375692,0,,,,,1,,,12253101,pdf,9f476cc633a8f753947e97ead76aa674,,,"[1181375692]Гузары Самарканда.-М.Абрамов,Ташкент,Изд-во Узбекистан,1989.pdf",0,2000-01-01 01:00:00,2016-04-03 02:51:08,,,
5126649,Programming and Problem Solving With C++,,,,Chip Weems,2004,,Jones  Bartlett Publishers,,,0,English ,КНИГИ  ПРОГРАММИНГ,mirknig.com,issue 2011-02,,,,,,,,,,,1181374124,0,,,,,1,,,9092137,pdf,9f14f98308d735821029d781a501549b,,,"[1181374124]Programming and Problem Solving With C++.-Chip Weems,Jones  Bartlett Publishers,2004.pdf",0,2000-01-01 01:00:00,2016-04-03 02:51:08,,,
5126648,Нообиоценоз. Касание Сварога.,,,,Шемшук Владимир,2010,,Шемшук и К,,,0,Russian,КНИГИ  ЭЗОТЕРИКА,mirknig.com,issue 2011-02,,,,,,,,,,,1181375442,0,,,,,1,,,3449572,djvu,9d1af9bb7e6401ef15082ad70fc9e2f6,,,"[1181375442]Нообиоценоз.Касание Сварога.-Шемшук Владимир,Шемшук и К.djvu",0,2000-01-01 01:00:00,2016-04-03 02:51:08,http://mirknig.com/uploads/posts/2011-03/1300016215_elash_1958.jpg,,
5126647,Rendering HTML5 Illustration,,,,Matthew David ,2010,,Focal Press ,,,0,English ,КНИГИ  WEB-СОЗИДАНИЕ,mirknig.com,2011-03,,,,,,,,,,,1181381387,0,,,,,1,,,1185118,pdf,9beb13244842f1eec3d3ac1e09d3ac10,,,"[1181381387]Rendering HTML5 Illustration.-Matthew David,Focal Press,2010.pdf",0,2000-01-01 01:00:00,2016-04-03 02:51:08,http://mirknig.com/uploads/posts/2011-03/1300911040_51d052efftl.jpg,,
5126646,Стандартные фразы ИМО (IMО) для общения на море ,,Серия «Судовладельцам и капитанам»,,Г.М.Овчинников ,2002,,ООО Морсар ,,,0,Russian,"НАУКА и УЧЕБА, ПРОФЕССИИ И РЕМЕСЛА",mirknig.com,issue 2011-02,,,,,,,,,,,1181371275,0,,,,,1,,,9819384,pdf,9a99f12536d46cf061bf694262db613a,,,"[1181371275]Стандартные фразы ИМО(IMО)для общения на море.-Г.М.Овчинников,ООО Морсар,2002.pdf",0,2000-01-01 01:00:00,2016-04-03 02:51:08,,,
5126645,Rich Dads Guide to Investing: What the Rich Invest in That the Poor and Middle Class Do Not!,,,,"Robert T. Kiyosaki, Sharon L. Lechter ",2001,,Warner Books ,,,0,English ,КНИГИ БИЗНЕС,mirknig.com,2011-03,0759581398,,,,,,,,,,1181386640,0,,,,,1,,,20715252,pdf,97649499d4528ebd175e2783efc9a220,,,[1181386640]Rich Dad;s Guide to Investing-What the Rich Invest in That the Poor and Middle Class Do Not!--Название-Rich Dads Gu.pdf,0,2000-01-01 01:00:00,2016-04-03 02:51:08,http://mirknig.com/uploads/posts/2011-03/1301261916_416ba8zvgl.jpg,,
5126644,Судебник царя Феодора Иоанновича 1589 г. ,,,,Мазурин Ф.Ф.,1900,,"Москва, тип-я Г. Лисснера и А. Гешеля ",,,0,Russian,КНИГИ  ИСТОРИЯ,mirknig.com,issue 2011-02,,,,,,,,,,,1181375107,0,,,,,1,,,3711543,pdf,9736c5ed8f52631d79715877b54d094c,,,[1181375107]Судебник царя Феодора Иоанновича 1589 г.--Название-Судебник царя Феодора Иоанновича 1589 г.Автор-по списку собрания.pdf,0,2000-01-01 01:00:00,2016-04-03 02:51:08,,,
5126643,Геральдический Альбом ,,,,Коллектив ,2011,3-е издание ,Самиздат ,,,0,Russian,"ИСТОРИЯ, КУЛЬТУРА и ИСКУССТВО, ХОББИ и РАЗВЛЕЧЕНИЯ",mirknig.com,issue 2011-02,,,,,,,,,,,1181376849,0,,,,,1,,,198687505,pdf,8f89dbbccf139f1992a127bcb7a3b905,,,"[1181376849]Геральдический Альбом 3-е издание.-Самиздат,2011.pdf",0,2000-01-01 01:00:00,2016-04-03 02:51:08,,,
5126642,Физика. Контрольные работы для студентов инженерных специальностей.,,,,Исаков А.Я. ,2010,,Петропавловск-Камчатский: КамчатГТУ,,,0,Russian,КНИГИ НАУКА и УЧЕБА,mirknig.com,issue 2011-02,,,,,,,,,,,1181378666,0,,,,,1,,,5462746,pdf,8cc2469c7d3dae41e92a7d89dac35cf9,,,[1181378666]Физика.Контрольные работы для студентов инженерных специальностей.--Автор-Исаков А.Я.Название-Физика.Контрольные ра.pdf,0,2000-01-01 01:00:00,2016-04-03 02:51:08,,,
5126641,"Практика арт-терапии. Подходы, диагностика, система занятий ",,,,Лебедева Л.Д. ,2003,,СПб.: Речь ,,,0,Russian,КНИГИ  ПСИХОЛОГИЯ,mirknig.com,issue 2011-02,5-92G8-0163-X,,,,,,,,,,1181379443,0,,,,,1,,,2055259,pdf,8c91938986d811622353a4fd487dbd5e,,,"[1181379443]Практика арт-терапии.Подходы,диагностика,система занятий--Автор-Лебедева Л.Д.Название-Практика арт-терапии.Подходы,.pdf",0,2000-01-01 01:00:00,2016-04-03 02:51:08,,,
5126640,Об Уставной книге Разбойного приказа ,,,,Шалфеев Н. ,1868,,"С.-Петербург, тип-я Морского Министерства ",,,0,Russian,КНИГИ  ИСТОРИЯ,mirknig.com,issue 2011-02,,,,,,,,,,,1181375842,0,,,,,1,,,2677882,pdf,8b4a4312ad8c113918932ffaee879aca,,,[1181375842]Об Уставной книге Разбойного приказа--Название-Об Уставной книге Разбойного приказа Автор-Шалфеев Н.Издательство-С..pdf,0,2000-01-01 01:00:00,2016-04-03 02:51:08,,,
5126639,Уроки верховой езды. Посадка. Аллюры. Езда в манеже ,,,,М. Л. Пчелина ,2001,,Аквариум ЛТД ,,,0,Russian,КНИГИ  ХОББИ и РАЗВЛЕЧЕНИЯ,mirknig.com,issue 2011-02,,,,,,,,,,,1181373407,0,,,,,1,,,34101663,djvu,8a4cea06f1a70d019f5b09819fcef8f8,,,[1181373407]Уроки верховой езды.Посадка.Аллюры.Езда в манеже--Название-Уроки верховой езды.Посадка.Аллюры.Езда в манеже Автор-М.djvu,0,2000-01-01 01:00:00,2016-04-03 02:51:08,http://mirknig.com/uploads/posts/2011-02/1297141486_248.jpg,,
5126638,Основы безопасного обучения верховой езде ,,,,Сергиенко ,2003,,ВНИИ коневодства ,,,0,Russian,КНИГИ  ХОББИ и РАЗВЛЕЧЕНИЯ,mirknig.com,issue 2011-02,,,,,,,,,,,1181373417,0,,,,,1,,,25524722,djvu,89c2eeb5a5a3089e3d9f04d3021ce9b3,,,[1181373417]Основы безопасного обучения верховой езде--Название-Основы безопасного обучения верховой езде Автор-Сергиенко Издат.djvu,0,2000-01-01 01:00:00,2016-04-03 02:51:08,,,
5126637,"Hacking For Dummies, 3rd Edition ",,,,Kevin Beaver ,2010,,For Dummies ,,,0,English ,"ПРОГРАММИНГ,СЕТЕВЫЕ ТЕХНОЛОГИИ",mirknig.com,issue 2011-02,,,,,,,,,,,1181376439,0,,,,,1,,,11481550,pdf,89511d318fd6698641564c049febd761,,,"[1181376439]Hacking For Dummies.-Kevin Beaver,For Dummies,2010.pdf",0,2000-01-01 01:00:00,2016-04-03 02:51:08,,,
5126636,Практикум по бухгалтерскому учету ,,,,Сапожникова Н.Г. ,2006,,КНОРУС ,,,0,Russian,КНИГИ  ПРОФЕССИИ И РЕМЕСЛА,mirknig.com,issue 2011-02,,,,,,,,,,,1181378658,0,,,,,1,,,1340364,pdf,8877a7d28df8fe993df1b5e9341ff411,,,[1181378658]Практикум по бухгалтерскому учету--Автор-Сапожникова Н.Г.Название-Практикум по бухгалтерскому учету Издательство-КН.pdf,0,2000-01-01 01:00:00,2016-04-03 02:51:08,,,
5126635,150 задач по теории вероятностей ,,,,О. Гохман ,1972,,ВГУ ,,,0,Russian,КНИГИ НАУКА и УЧЕБА,mirknig.com,issue 2011-02,,,,,,,,,,,1181374060,0,,,,,1,,,34145503,pdf,871eef4035107e2991e5a52ee8f2efe9,,,"[1181374060]150 задач по теории вероятностей.-О.Гохман,ВГУ,1972.pdf",0,2000-01-01 01:00:00,2016-04-03 02:51:08,,,
5126634,Objective-C Phrasebook ,,,,David Chisnall ,2011,,Addison-Wesley Professional,,,0,English ,КНИГИ  ПРОГРАММИНГ,mirknig.com,issue 2011-02,,,,,,,,,,,1181377837,0,,,,,1,,,3220570,pdf,8643ad140b9f00fe1c294292c540cce7,,,"[1181377837]Objective-C Phrasebook.-David Chisnall,Addison-Wesley Professional,2011.pdf",0,2000-01-01 01:00:00,2016-04-03 02:51:08,,,
5126633,Вероятность… Марковские процессы… Прикладные аспекты ,,,,Скороход А. ,1989,,ВИНИТИ ,,,0,Russian,КНИГИ НАУКА и УЧЕБА,mirknig.com,issue 2011-02,,,,,,,,,,,1181374067,0,,,,,1,,,10678764,pdf,83f11c5cf2a36bad8d670bca57ef1518,,,"[1181374067]Вероятность… Марковские процессы… Прикладные аспекты.-Скороход А.,ВИНИТИ,1989.pdf",0,2000-01-01 01:00:00,2016-04-03 02:51:08,,,
5126632,Khaki: Uniforms of the Canadian Expeditionary Force ,,,,Clive M. Law ,1997,,Service Publications ,,,0,English ,КНИГИ ВОЕННАЯ ИСТОРИЯ,mirknig.com,2011-03,,,,,,,,,,,1181380995,0,,,,,1,,,17362817,pdf,837eae6824cda65360fce244f707c97a,,,"[1181380995]Khaki-Uniforms of the Canadian Expeditionary Force.-Clive M.Law,Service Publications,1997.pdf",0,2000-01-01 01:00:00,2016-04-03 02:51:08,,,
5126631,Visual C++.NET ,,,,Ron Nanko,2002,,Sybex Verlag,,,0,German,КНИГИ  ПРОГРАММИНГ,mirknig.com,issue 2011-02,,,,,,,,,,,1181374509,0,,,,,1,,,4299079,pdf,836ebffb51d055cb7c02646d9ad5ac36,,,"[1181374509]Visual C++.NET.-Ron Nanko,Sybex Verlag,2002.pdf",0,2000-01-01 01:00:00,2016-04-03 02:51:08,,,
5126630,Operation Desert Shield: The First 90 Days ,,,,"Eric Micheletti, Yves Debay ",1991,,Windrow  Greene Publishing ,,,0,English ,КНИГИ ВОЕННАЯ ИСТОРИЯ,mirknig.com,2011-03,,,,,,,,,,,1181380802,0,,,,,1,,,65244811,pdf,81b4440c5aa0bab5c9543dd04391ae2d,,,"[1181380802]Operation Desert Shield-The First 90 Days.-Eric Micheletti,Yves Debay,Windrow  Greene Publishing,1991.pdf",0,2000-01-01 01:00:00,2016-04-03 02:51:08,http://mirknig.com/uploads/posts/2011-03/1299356757_7b270b440431b59f818f772a69b13a22.jpg,,
5126629,Современная военная техника ,,,,,2003,,Астрель ,,,0,Russian,"ВОЕННАЯ ИСТОРИЯ,НАУЧНО-ПОПУЛЯРНОЕ",mirknig.com,2011-03,"5-17-017261-3,5-271-05746-1 0-86288-237-0 ",,,,,,,,,,1181386380 Качество: Отличное,0,,,,,1,,,88002572,pdf,818a3ed3bd43e1a9643b68e41e6227dc,,,"[1181386380]Современная военная техника.-Астрель,2003.pdf",0,2000-01-01 01:00:00,2016-04-03 02:51:08,,,
5126628,Небезпечні тварини,,Фотоенциклопедія тварин,,Беккер Ж. де ,0,,Перо,,,0,Ukrainian,КНИГИ НАУЧНО-ПОПУЛЯРНОЕ,mirknig.com,issue 2011-02,978-966-462-339-8,,,,,,,,,,1181373418 Качество: отличное,0,,,,,1,,,21788895,pdf,81647c069f9ad354d4c277906077452b,,,"[1181373418]Небезпечні тварини.-Беккер Ж.де,Перо.pdf",0,2000-01-01 01:00:00,2016-04-03 02:51:08,,,
5126627,The Essential Guide to Landscape Photography 2nd edition – 2010 Год : 2010 Номер: 2nd edition ,,,,,0,,Digital SLR Photography Magazine  Dennis Publishing Ltd. ,,,0,English ,КНИГИ ФОТО-ВИДЕО,mirknig.com,issue 2011-02,,,,,,,,,,,1181370583,0,,,,,1,,,73298096,pdf,808e0c4e9fd8887fee371fefd330af46,,,[1181370583]The Essential Guide to Landscape Photography 2nd edition.-и издательство-Digital SLR Photography Magazine  Dennis P.pdf,0,2000-01-01 01:00:00,2016-04-03 02:51:08,http://mirknig.com/uploads/posts/2011-02/1297802033_filigrane-dekortraume.250.jpg,,
5126626,Обереги,,,,Шемшук Владимир,2009,,Омега Плюс,,,0,Russian,КНИГИ  ЭЗОТЕРИКА,mirknig.com,issue 2011-02,,,,,,,,,,,1181373714,0,,,,,1,,,6121488,djvu,7ed2c4978cee289fd6e3a0b3558d84f5,,,"[1181373714]Обереги.-Шемшук Владимир,Омега Плюс.djvu",0,2000-01-01 01:00:00,2016-04-03 02:51:08,http://mirknig.com/uploads/posts/2011-03/1299998705_spr_tv.jpg,,
5126624,В мире случайностей ,,,,Е. Шор ,1977,,Картя Малдовеняскэ ,,,0,Russian,КНИГИ НАУКА и УЧЕБА,mirknig.com,issue 2011-02,,,,,,,,,,,1181374044,0,,,,,1,,,4349917,pdf,7cc0f00ff1b445e79d76c2d5de215357,,,"[1181374044]В мире случайностей.-Е.Шор,Картя Малдовеняскэ,1977.pdf",0,2000-01-01 01:00:00,2016-04-03 02:51:08,,,
5126625,Букварь для школ слабослышаших ,,,,"Донская Н. Ю., Линикова Н. И. ",1986,,Просвещение,,,0,Russian,КНИГИ НАУКА и УЧЕБА,mirknig.com,issue 2011-02,,,,,,,,,,,1181375606,0,,,,,1,,,101846460,pdf,7d988bc9ad05cab259c52a04820c6a9e,,,"[1181375606]Букварь для школ слабослышаших.-Донская Н.Ю.,Линикова Н.И.,Просвещение.pdf",0,2000-01-01 01:00:00,2016-04-03 02:51:08,,,
5126623,Активы предприятий. Учебное пособие.,,,,Савин В.С.,1999,,Тюмень: ТюмГНГУ,,,0,Russian,КНИГИ БИЗНЕС,mirknig.com,2011-03,,,,,,,,,,,1181381890,0,,,,,1,,,10185182,pdf,7b579077d9dee801a7e3ef6a4fc8b5bc,,,"[1181381890]Активы предприятий.-Савин В.С.,Тюмень-ТюмГНГУ.pdf",0,2000-01-01 01:00:00,2016-04-03 02:51:08,http://mirknig.com/uploads/posts/2011-03/1301072834_41sk5hbmsrl.jpg,,
5126622,Ремонт автомобилей МАЗ ,,,,"Пасов В.З., Малишевский И.И. ",1971,,Транспорт ,,,0,Russian,КНИГИ  ПРОФЕССИИ И РЕМЕСЛА,mirknig.com,issue 2011-02,,,,,,,,,,,1181377357,0,,,,,1,,,4273729,djvu,7990ccb31ce59401cc3c2a9f5a2aa15f,,,"[1181377357]Ремонт автомобилей МАЗ--Автор-Пасов В.З.,Малишевский И.И.Название-Ремонт автомобилей МАЗ Издательство-Транспорт Год.djvu",0,2000-01-01 01:00:00,2016-04-03 02:51:08,,,
5126621,Encyclopedia of Catholicism (Encyclopedia of World Religions) ,,,,Frank K. Flinn ,2007,,Facts on File ,,,0,English ,КНИГИ  КУЛЬТУРА и ИСКУССТВО,mirknig.com,issue 2011-02,081605455X ,,,,,,,,,,1181376172,0,,,,,1,,,15829122,pdf,76bf3c18f7903b9d58775f872298d123,,,"[1181376172]Encyclopedia of Catholicism(Encyclopedia of World Religions).-Frank K.Flinn,Facts on File,April 20,2007.pdf",0,2000-01-01 01:00:00,2016-04-03 02:51:08,,,
5126620,"Как разговаривать с кем угодно, где угодно, когда угодно ",,,,Ларри Кинг ,2006,,Альпина Паблишерз ,,,0,Russian,КНИГИ  ПСИХОЛОГИЯ,mirknig.com,issue 2011-02,,,,,,,,,,,1181370866,0,,,,,1,,,722789,pdf,759b43cad3eda6349717d7a16d24a247,,,"[1181370866]Как разговаривать с кем угодно,где угодно,когда угодно--Автор-Ларри Кинг Название-Как разговаривать с кем угодно,гд.pdf",0,2000-01-01 01:00:00,2016-04-03 02:51:08,http://mirknig.com/uploads/posts/2011-02/1298846624_df5c561efa9815cb321c77a4f56a815d.jpg,,
5126619,Динамические системы при случайных воздействиях ,,,,В.Е. Шапиро ,1983,,Наука ,,,0,Russian,КНИГИ НАУКА и УЧЕБА,mirknig.com,issue 2011-02,,,,,,,,,,,1181374116,0,,,,,1,,,6602940,pdf,73e914c029a04ad53e88be3841009685,,,"[1181374116]Динамические системы при случайных воздействиях.-В.Е.Шапиро,Наука,1983.pdf",0,2000-01-01 01:00:00,2016-04-03 02:51:08,http://mirknig.com/uploads/posts/2011-02/1297982575_341b22c5e3.jpg,,
5126618,115 способов разбогатеть или секреты денежного изобилия.,,,,Елена Коровина. ,2010,,М.: Центрполиграф. ,,,0,Russian,КНИГИ  ЭЗОТЕРИКА,mirknig.com,issue 2011-02,,,,,,,,,,,1181372680,0,,,,,1,,,91993244,pdf,739258d9d3f37b3bb803da34b0b3e50a,,,"[1181372680]115 способов разбогатеть или секреты денежного изобилия..-Елена Коровина.,М.-Центрполиграф.,2010.pdf",0,2000-01-01 01:00:00,2016-04-03 02:51:08,,,
5126617,Бісерне рукоділля ,,,,С.В. Борисова ,2010,,Маторін,,,0,Ukrainian,КНИГИ НАУКА и УЧЕБА,mirknig.com,issue 2011-02,,,,,,,,,,,1181372412,0,,,,,1,,,9718811,djvu,733d38b6742c33a169e6e9fa47d8d967,,,"[1181372412]Бісерне рукоділля.-С.В.Борисова,Маторін,2010.djvu",0,2000-01-01 01:00:00,2016-04-03 02:51:08,,,
5126616,The Complete Guide To Windows 7,,,,Rosemary Hattersley ,2011,,Microsoft ,,,0,English ,КНИГИ  ОС и БД,mirknig.com,issue 2011-02,,,,,,,,,,,1181377847,0,,,,,1,,,24940522,pdf,70d7b3c9718a54f3b2eeda0b01a04e56,,,"[1181377847]The Complete Guide To Windows 7.-Rosemary Hattersley,Microsoft,2011.pdf",0,2000-01-01 01:00:00,2016-04-03 02:51:08,,,
5126615,Книго,,,,Семенников В.П. ,1921,,издательская деятельность Н.И. Новикова и Типографической компании ,,,0,Russian,КНИГИ  ИСТОРИЯ,mirknig.com,issue 2011-02,,,,,,,,,,,1181375111,0,,,,,1,,,7641306,pdf,70004c1588f7db1bee7cd27e9c448fcf,,,[1181375111]Книгоиздательская деятельность Н.И.Новикова и Типографической компании--Название-Книгоиздательская деятельность Н.И.pdf,0,2000-01-01 01:00:00,2016-04-03 02:51:08,http://mirknig.com/uploads/posts/2011-02/1298025761_yarcev_volkov-osnovatelj-russkogo-teatra_1892.jpg,,
5126614,История Российская от древнейших времен. Том 3 ,,,,Щербатов М.,1774,,Императорская Академия наук,,,0,Russian,КНИГИ  ИСТОРИЯ,mirknig.com,issue 2011-02,,,,,,,,,,,1181372913,0,,,,,1,,,61517799,pdf,6ffde0d7a59056145d02cc8ee972fdd6,,,[1181372913]История Российская от древнейших времен.Том 3--Название-История Российская от древнейших времен.Том 3 Автор-князь М.pdf,0,2000-01-01 01:00:00,2016-04-03 02:51:08,,,
5126613,Волшебство бисера ,,,,Тамара Канурская ,2007,,Профиздат ,,,0,Russian,КНИГИ  ХОББИ и РЕМЕСЛА,mirknig.com,issue 2011-02,,,,,,,,,,,1181376658,0,,,,,1,,,164351319,pdf,6ee0e70faf570af73358e64eb97d82d9,,,"[1181376658]Волшебство бисера.-Тамара Канурская,Профиздат,2007.pdf",0,2000-01-01 01:00:00,2016-04-03 02:51:08,,,
5126612,Психологические тесты на все случаи жизни ,,,,Составитель: Ольшевская Н.,2010,,"АСТ, Сова ",,,0,Russian,КНИГИ  ПСИХОЛОГИЯ,mirknig.com,issue 2011-02,,,,,,,,,,,1181375245,0,,,,,1,,,4118066,djvu,6d6e5d4d19904d0f7201296c59345ecf,,,"[1181375245]Психологические тесты на все случаи жизни.-АСТ,Сова,2010.djvu",0,2000-01-01 01:00:00,2016-04-03 02:51:08,,,
5126611,Powerstroke 6.0L Техническая Вводная Инструкция ,,,,Завод Форд (перевод выполненzdeslove.ru) ,2003,,Завод Форд (Мануал к автомобилю) ,,,0,Russian,КНИГИ ТЕХНИКА,mirknig.com,issue 2011-02,,,,,,,,,,,1181372547,0,,,,,1,,,34987908,pdf,6d6d971b380688db815e49c7465e25dc,,,"[1181372547]Powerstroke 6.0L Техническая Вводная Инструкция.-Завод Форд(перевод выполненzdeslove.ru),Завод Форд(Мануал к автомо.pdf",0,2000-01-01 01:00:00,2016-04-03 02:51:08,http://mirknig.com/uploads/posts/2011-02/1297264418_mypictr_150x250.jpg,,
5126610,Давайте говорить правильно. Трудности современного русского произношения и ударения.,,,,Вербицкая Л.А. ,2008,,Академия ,,,0,Russian,КНИГИ НАУКА и УЧЕБА,mirknig.com,issue 2011-02,,,,,,,,,,,1181377908,0,,,,,1,,,69965936,pdf,6ac7aa365f21e0bb16e5c40b14d2ef69,,,"[1181377908]Давайте говорить правильно.Трудности современного русского произношения и ударения..-Вербицкая Л.А.,Академия,2008.pdf",0,2000-01-01 01:00:00,2016-04-03 02:51:08,,,
5126609,Чешская (Киевская) дружина (август 1914 - декабрь 1915) ,,,,Татаров Б.А. ,2009,,Фонд Русские витязи ,,,0,Russian,"ВОЕННАЯ ИСТОРИЯ, ИСТОРИЯ",mirknig.com,2011-03,,,,,,,,,,,1181380804,0,,,,,1,,,55341337,pdf,683d9d1d82405ca4487cc32428ef62c9,,,"[1181380804]Чешская(Киевская)дружина(август 1914 - декабрь 1915).-Татаров Б.А.,Фонд Русские витязи,2009.pdf",0,2000-01-01 01:00:00,2016-04-03 02:51:08,,,
5126608,Антропология профессий,,,,Под ред. П. В. Романова и Е. Р. Ярской – Смирновой,2005,,Саратов: Изд-во «Научная книга»,,,0,Russian,КНИГИ  ПРОФЕССИИ И РЕМЕСЛА,mirknig.com,issue 2011-02,,,,,,,,,,,1181373710,0,,,,,1,,,3109149,pdf,68219881324899072253ef59a5d882d4,,,[1181373710]Антропология профессий--Название-Антропология профессийАвтор-Под ред.П.В.Романова и Е.Р.Ярской – СмирновойИздательс.pdf,0,2000-01-01 01:00:00,2016-04-03 02:51:08,http://mirknig.com/uploads/posts/2011-02/1296992088_pohozhdeniya-vechnogo-princa-250.jpg,,
5126607,Кадровая безопасность,,,,"Шегельман И.Р., Рудаков М.Н. ",2006,,Петрозаводск: ПетрГУ,,,0,Russian,КНИГИ  ПРОФЕССИИ И РЕМЕСЛА,mirknig.com,issue 2011-02,,,,,,,,,,,1181376144,0,,,,,1,,,10106844,pdf,65fd14234f0dcc34b6dbad443bc3d4c6,,,"[1181376144]Кадровая безопасность.-Шегельман И.Р.,Рудаков М.Н.,Петрозаводск-ПетрГУ.pdf",0,2000-01-01 01:00:00,2016-04-03 02:51:08,,,
5126606,Циолковский. ,,,,Арлазоров М.С.,1962,,"М., Молодая гвардия. ",,,0,Russian,КНИГИ ЧЕЛОВЕК,mirknig.com,issue 2011-02,,,,,,,,,,,1181375383,0,,,,,1,,,114143831,pdf,651ce00ba096c48a9575915b90236d04,,,"[1181375383]Циолковский..-Арлазоров М.С.,М.,Молодая гвардия.,1962..pdf",0,2000-01-01 01:00:00,2016-04-03 02:51:08,,,
5126605,"CMOS Circuit Design, Layout, and Simulation, 3rd Edition ",,,,R. Jacob Baker ,2010,,Wiley-IEEE Press ,,,0,English ,КНИГИ  ПРОГРАММИНГ,mirknig.com,issue 2011-02,,,,,,,,,,,1181379150,0,,,,,1,,,18184346,pdf,64282f8f13722f591ccd06f92adc3c01,,,"[1181379150]CMOS Circuit Design,Layout,and Simulation,3rd Edition.-R.Jacob Baker,Wiley-IEEE Press,2010.pdf",0,2000-01-01 01:00:00,2016-04-03 02:51:08,http://mirknig.com/uploads/posts/2011-02/1298630893_0061.jpg,,
5126604,Введение в теорию массового обслуживания ,,,,Б. Гнеденко ,1966,,Наука ,,,0,Russian,КНИГИ НАУКА и УЧЕБА,mirknig.com,issue 2011-02,,,,,,,,,,,1181374058,0,,,,,1,,,25857878,pdf,6357041af397395b081056fb63fda421,,,"[1181374058]Введение в теорию массового обслуживания.-Б.Гнеденко,Наука,1966.pdf",0,2000-01-01 01:00:00,2016-04-03 02:51:08,http://mirknig.com/uploads/posts/2011-02/1297776409_1.png,,
5126603,Евангелие от Фомы Как проповедь Христа о царстве,,,,Батура Г. Г. ,2011,Интернет,,,,0,Russian,КНИГИ РАЗНОЕ,mirknig.com,issue 2011-02,,,,,,,,,,,1181378497,0,,,,,1,,,8262735,pdf,62d20ac84186edab56b942826a9995f3,,,[1181378497]Евангелие от Фомы Как проповедь Христа оцарстве--Автор-Батура Г.Г.Название-Евангелие от Фомы Как проповедь Христа о.pdf,0,2000-01-01 01:00:00,2016-04-03 02:51:08,,,
5126602,Flugzeugtrager der U.S.Navy. Band 1: Flottenflugzeugtrager ,,,,Stefan Terzibaschitsch ,1986,,Bernard  Graefe Verlag ,,,0,German,КНИГИ ВОЕННАЯ ИСТОРИЯ,mirknig.com,2011-03,,,,,,,,,,,1181379844,0,,,,,1,,,77907826,pdf,600587aa821a2a4af2d9d50fa604ab95,,,"[1181379844]Flugzeugtrager der U.S.Navy.Band 1-Flottenflugzeugtrager.-Stefan Terzibaschitsch,Bernard  Graefe Verlag,1986.pdf",0,2000-01-01 01:00:00,2016-04-03 02:51:08,,,
5126601,Школа вождения для женщин ,,,,"Евгения Шацкая, Екатерина Милицкая ",2010,,"АСТ, Астрель, Харвест ",,,0,Russian,КНИГИ ТЕХНИКА,mirknig.com,issue 2011-02,,,,,,,,,,,1181375064,0,,,,,1,,,4712735,djvu,5ee805501597bd04cd650ea6b90bc764,,,"[1181375064]Школа вождения для женщин.-Евгения Шацкая,Екатерина Милицкая,АСТ,Астрель,Харвест,2010.djvu",0,2000-01-01 01:00:00,2016-04-03 02:51:08,http://mirknig.com/uploads/posts/2011-02/1297421197_hkdyitgrjm0769j.jpeg,,
5126600,Генеральный конструктор Павел Сухой ,,,,Кузьмина Л.М. ,1985,,Мн.: Беларусь ,,,0,Russian,КНИГИ ЧЕЛОВЕК,mirknig.com,issue 2011-02,,,,,,,,,,,1181378170,0,,,,,1,,,24180028,pdf,5e2396616f0a92513a6b20f7b6cf4f5b,,,[1181378170]Генеральный конструктор Павел Сухой--Автор-Кузьмина Л.М.Название-Генеральный конструктор Павел Сухой Издательство-М.pdf,0,2000-01-01 01:00:00,2016-04-03 02:51:08,,,
5126599,Случайные поля и стохастические уравнения с частными производными ,,,,Розанов Ю. ,1995,,неизвестно ,,,0,Russian,КНИГИ НАУКА и УЧЕБА,mirknig.com,issue 2011-02,,,,,,,,,,,1181374037,0,,,,,1,,,4073320,djvu,5d23f779dd3b9e3d55b2354db9ff804f,,,"[1181374037]Случайные поля и стохастические уравнения с частными производными.-Розанов Ю.,неизвестно,1995.djvu",0,2000-01-01 01:00:00,2016-04-03 02:51:08,,,
5126598,Беседы о теории массового обслуживания ,,,,Гнеденко Б. ,1973,,Знание ,,,0,Russian,КНИГИ НАУКА и УЧЕБА,mirknig.com,issue 2011-02,,,,,,,,,,,1181374057,0,,,,,1,,,4858033,pdf,5bf59f1a21a3c299b2b73b9efdacb118,,,"[1181374057]Беседы о теории массового обслуживания.-Гнеденко Б.,Знание,1973.pdf",0,2000-01-01 01:00:00,2016-04-03 02:51:08,,,
5126597,Краткое известие о Московии в начале XVII в. ,,,,Масса Исаак ,1937,,"Москва, Государственное социально-экономическое издательство ",,,0,Russian,КНИГИ  ИСТОРИЯ,mirknig.com,issue 2011-02,,,,,,,,,,,1181374475,0,,,,,1,,,9911173,pdf,5b429dd75b15e9e86df89465658e7d12,,,[1181374475]Краткое известие о Московии в начале XVII в.--Название-Краткое известие о Московии в начале XVII в.Автор-Масса Исаа.pdf,0,2000-01-01 01:00:00,2016-04-03 02:51:08,http://mirknig.com/uploads/posts/2011-02/1297782330_trocina-k_istoriya-sudebnyh-uchrezhdenij-v-rossii_1851.jpg,,
5126596,Спортивные автомобили и особенности их вождения: Пер. с англ. ,,,,Фрере П. ,2005,,Вильнюс: RBR ,,,0,Russian,КНИГИ ТЕХНИКА,mirknig.com,issue 2011-02,,,,,,,,,,,1181370688,0,,,,,1,,,17691626,djvu,5b35ae36b38b9bdf76aa31ae96a7661a,,,"[1181370688]Спортивные автомобили и особенности их вождения.-Фрере П.,Вильнюс-RBR,2005.djvu",0,2000-01-01 01:00:00,2016-04-03 02:51:08,,,
5126595,Теория вероятностей. Детализированный конспект ,,,,Максимов Ю.,2002,,СПбГПУ ,,,0,Russian,КНИГИ НАУКА и УЧЕБА,mirknig.com,issue 2011-02,,,,,,,,,,,1181374064,0,,,,,1,,,6523247,pdf,5b1f68ab8cfd0367dabb79a7f547ea15,,,"[1181374064]Теория вероятностей.Детализированный конспект.-Максимов Ю.,СПбГПУ,2002.pdf",0,2000-01-01 01:00:00,2016-04-03 02:51:08,http://mirknig.com/uploads/posts/2011-02/1297933220_harizmatichnyy-orator.-rukovodstvo-k-kursu.jpg,,
5126594,LWUIT 1.1 for Java ME Developers,,,,Biswajit Sarkar,2009,,Packt Publishing,,,0,English ,КНИГИ  ПРОГРАММИНГ,mirknig.com,issue 2011-02,,,,,,,,,,,1181372102,0,,,,,1,,,8052105,pdf,5a9941d28550fbe10b0f01a740b34e79,,,"[1181372102]LWUIT 1.1 for Java ME Developers.-Biswajit Sarkar,Packt Publishing,2009.pdf",0,2000-01-01 01:00:00,2016-04-03 02:51:08,http://mirknig.com/uploads/posts/2011-02/1297352843_antr_prof_obloj1.jpg,,
5126593,Windows Server 2008 R2 Hyper-V: Insiders Guide to Microsoft’s Hypervisor ,,,,John Kelbley and Mike Sterling ,2010,,Sybex,,,0,English ,КНИГИ  ОС и БД,mirknig.com,issue 2011-02,,,,,,,,,,,1181379147,0,,,,,1,,,8887375,pdf,5a0ff6d1b4bfec262d348656970a3b76,,,"[1181379147]Windows Server 2008 R2 Hyper-V-Insiders Guide to Microsoft’s Hypervisor.-John Kelbley and Mike Sterling,Sybex,2010.pdf",0,2000-01-01 01:00:00,2016-04-03 02:51:08,,,
5126592,Securing the Smart Grid: Next Generation Power Grid Security ,,,,"Tony Flick, Justin Morehouse ",2010,,Syngress,,,0,English ,КНИГИ СЕТЕВЫЕ ТЕХНОЛОГИИ,mirknig.com,issue 2011-02,,,,,,,,,,,1181379726,0,,,,,1,,,5191764,pdf,58f21eb0acaec11e8c9623a1e763000e,,,"[1181379726]Securing the Smart Grid-Next Generation Power Grid Security.-Tony Flick,Justin Morehouse,Syngress,2010.pdf",0,2000-01-01 01:00:00,2016-04-03 02:51:08,,,
5126591,Технологии искусственного интеллекта,,,,А.С. Потапов,2010,,СПбГУ ИТМО,,,0,Russian,КНИГИ НАУКА и УЧЕБА,mirknig.com,issue 2011-02,,,,,,,,,,,1181377109,0,,,,,1,,,1735641,pdf,573b560358303e9294693485b16e0d07,,,"[1181377109]Технологии искусственного интеллекта.-А.С.Потапов,СПбГУ ИТМО.pdf",0,2000-01-01 01:00:00,2016-04-03 02:51:08,,,
5126590,Таро эры водолея. От ученика к Мастеру ,,,,Коллектив ,2004,,Издательство Международной Академии ТАРО ,,,0,Russian,КНИГИ  ЭЗОТЕРИКА,mirknig.com,issue 2011-02,,,,,,,,,,,1181375268,0,,,,,1,,,85909659,pdf,56d83eacd74cced308c814e4186bf7de,,,"[1181375268]Таро эры Водолея.От Ученика к Мастеру.-Издательство Международной Академии ТАРО,2004.pdf",0,2000-01-01 01:00:00,2016-04-03 02:51:08,http://mirknig.com/uploads/posts/2011-03/1300013938_trz_098.jpg,,
5126589,Крутые дороги ралли ,,,,Сочнов К.В. ,2005,,М.: ЦДТС ,,,0,Russian,КНИГИ ТЕХНИКА,mirknig.com,issue 2011-02,,,,,,,,,,,1181370690,0,,,,,1,,,16789724,djvu,56923541f3dbbb3d801815a88a016171,,,"[1181370690]Крутые дороги ралли.-Сочнов К.В.,М.-ЦДТС,2005.djvu",0,2000-01-01 01:00:00,2016-04-03 02:51:08,,,
5126588,Моделирование рыночной стратегии предприятия ,,,,"Булышева Т.С., Милорадов К.А., Халиков М.А. ",2006,,«Экзамен» ,,,0,Russian,КНИГИ НАУКА и УЧЕБА,mirknig.com,issue 2011-02,,,,,,,,,,,1181373689,0,,,,,1,,,2195951,pdf,53e16d13caca17300de798d5c10fc2a7,,,"[1181373689]Моделирование рыночной стратегии предприятия--Автор-Булышева Т.С.,Милорадов К.А.,Халиков М.А.Название-Моделирование.pdf",0,2000-01-01 01:00:00,2016-04-03 02:51:08,http://mirknig.com/uploads/posts/2011-02/1297632807_gesti.jpg,,
5126587,Харизматичный оратор. Руководство к курсу Словесная импровизация ,,,,Шипунов Сергей ,2007,,ЗАОЛокус Станди ,,,0,Russian,КНИГИ НАУКА и УЧЕБА,mirknig.com,issue 2011-02,,,,,,,,,,,1181376000,0,,,,,1,,,7365434,djvu,53dbe629d02dc6891709fa3bb3ca698d,,,[1181376000]Харизматичный оратор.Руководство к курсу quot;Словесная импровизацияquot;--Автор-Шипунов Сергей Название-Харизматич.djvu,0,2000-01-01 01:00:00,2016-04-03 02:51:08,,,
5126586,"Invent Your Own Computer Games with Python, 2nd Edition ",,,,Albert Sweigart,2010,,Albert Sweigart,,,0,English ,КНИГИ  ПРОГРАММИНГ,mirknig.com,issue 2011-02,,,,,,,,,,,1181379142,0,,,,,1,,,3468066,pdf,4db9b675bc13af4329af0a690dc71102,,,"[1181379142]Invent Your Own Computer Games with Python,2nd Edition.-Albert Sweigart,Albert Sweigart,2010.pdf",0,2000-01-01 01:00:00,2016-04-03 02:51:08,http://mirknig.com/uploads/posts/2011-02/1298581319_f7449ac921c2.jpg,,
5126585,"The Web Designers Guide to iOS Apps: Create iPhone, iPod touch, and iPad apps with Web Standards (HTML5, CSS3, and j#097;vascript) ",,,,Kristofer Layon ,2010,,New Riders Press ,,,0,English ,КНИГИ  WEB-СОЗИДАНИЕ,mirknig.com,2011-03,,,,,,,,,,,1181382740,0,,,,,1,,,6797126,pdf,4d979018542def8748544c4af0d37f5a,,,"[1181382740]The Web Designer;s Guide to iOS Apps-Create iPhone,iPod touch,and iPad apps with Web Standards(HTML5,CSS3,and JavaS.pdf",0,2000-01-01 01:00:00,2016-04-03 02:51:08,http://mirknig.com/uploads/posts/2011-03/1300911017_5143phlwn8l.jpg,,
5126584,Дифференциальное и интегральное исчисление ,,,,Я.С.Бугров С.М.Никольский ,1988,,Москва Наука ,,,0,Russian,КНИГИ НАУКА и УЧЕБА,mirknig.com,issue 2011-02,,,,,,,,,,,1181377164,0,,,,,1,,,15518056,pdf,4c977aafa5856218ed31956e73f3e51b,,,"[1181377164]Дифференциальное и интегральное исчисление.-Я.С.Бугров С.М.Никольский,Москва Наука,1988.pdf",0,2000-01-01 01:00:00,2016-04-03 02:51:08,,,
5126583,Moodle 1.9 Testing and Assessment ,,,,Jason Myrick ,2010,,Packt Publishing,,,0,English ,КНИГИ  ПРОГРАММИНГ,mirknig.com,issue 2011-02,,,,,,,,,,,1181374836,0,,,,,1,,,7276499,pdf,4c466b81c5ae715614fad1ec7c70fa3e,,,"[1181374836]Moodle 1.9 Testing and Assessment.-Jason Myrick,Packt Publishing,2010.pdf",0,2000-01-01 01:00:00,2016-04-03 02:51:08,,,
5126582,Временник дьяка Ивана Тимофеева ,,,,Тимофеев И. ,1907,,"С.-Петербург, тип-я М.А. Александрова ",,,0,Russian,КНИГИ  ИСТОРИЯ,mirknig.com,issue 2011-02,,,,,,,,,,,1181375454,0,,,,,1,,,7536946,pdf,4c1e4362aa35f189c2850b7546a709e2,,,[1181375454]Временник дьяка Ивана Тимофеева--Название-Временник дьяка Ивана Тимофеева Автор-Тимофеев И.Издательство-С.-Петербур.pdf,0,2000-01-01 01:00:00,2016-04-03 02:51:08,,,
5126581,По Калужской земле (от Боровска до Козельска).,,,,Николаев Е.В.,1968,,М.: «Искусство» ,,,0,Russian,КНИГИ  ИСТОРИЯ,mirknig.com,issue 2011-02,,,,,,,,,,,1181374438,0,,,,,1,,,36411400,pdf,4a662608da14d58c32d07d9aa2090661,,,"[1181374438]По Калужской земле(от Боровска до Козельска).-Николаев Е.В.,М.-«Искусство»,1968.pdf",0,2000-01-01 01:00:00,2016-04-03 02:51:08,,,
5126580,Как раскладывать Таро. Новый подход ,,,,В. Склярова ,2007,,ФАИР ,,,0,Russian,КНИГИ  ЭЗОТЕРИКА,mirknig.com,issue 2011-02,,,,,,,,,,,1181376298,0,,,,,1,,,108401516,pdf,4952cc56d913fa3bc94dc6736e74b5e4,,,"[1181376298]Как раскладывать Таро.Новый подход.-В.Склярова,ФАИР,2007.pdf",0,2000-01-01 01:00:00,2016-04-03 02:51:08,http://mirknig.com/uploads/posts/2011-03/1300182007_putev_1980_1985.jpg,,
5126579,Лошадь и всадник. Энциклопедия верховой езды,,,,"Сара Муэ, Дебби Слай ",2002,,Росмэн ,,,0,Russian,КНИГИ  ХОББИ и РАЗВЛЕЧЕНИЯ,mirknig.com,issue 2011-02,,,,,,,,,,,1181373412,0,,,,,1,,,12344872,djvu,48516d6974a0a77585a991a66e872ab5,,,"[1181373412]Лошадь и всадник.Энциклопедия верховой езды--Название-Лошадь и всадник.Энциклопедия верховой езды Автор-Сара Муэ,Де.djvu",0,2000-01-01 01:00:00,2016-04-03 02:51:08,,,
5126578,Театральные регуляторы напряжения ,,,,"Шкап Л.Ц., Заботин В.А. ",1978,, Энергия  ,,,0,Russian,КНИГИ АППАРАТУРА,mirknig.com,2011-03,,,,,,,,,,,1181384013,0,,,,,1,,,1943548,djvu,47e74d76baadec95dc7d08481c5aa25f,,,[1181384013]Театральные регуляторы напряжения.-.djvu,0,2000-01-01 01:00:00,2016-04-03 02:51:08,,,
5126577,The Fighting Handgun: An Illustrated History from the Flintlock to Automatic Weapons ,,,,"Richard Law, Peter Brookesmith ",1997,,Arms  Armour Press ,,,0,English ,КНИГИ ВОЕННАЯ ИСТОРИЯ,mirknig.com,2011-03,,,,,,,,,,,1181383807,0,,,,,1,,,135159259,pdf,4799cd16f89ff1299e1f0b1d1c7b332f,,,"[1181383807]The Fighting Handgun-An Illustrated History from the Flintlock to Automatic Weapons.-Richard Law,Peter Brookesmith,.pdf",0,2000-01-01 01:00:00,2016-04-03 02:51:08,http://mirknig.com/uploads/posts/2011-03/1300295719_cb4b194d381b27a2904254b03b8411d0.jpg,,
5126576,Arduino: A Quick Start Guide,,,,Maik Schmidt,2011,,Pragmatic Bookshelf,,,0,English ,КНИГИ  ПРОГРАММИНГ,mirknig.com,issue 2011-02,,,,,,,,,,,1181373813,0,,,,,1,,,12611280,pdf,477f77be26b7042856d9fbbaf4c69610,,,"[1181373813]Arduino-A Quick Start Guide.-Maik Schmidt,Pragmatic Bookshelf,2011.pdf",0,2000-01-01 01:00:00,2016-04-03 02:51:08,,,
5126575,Волга от Твери до Астрахани ,,,,Боголюбов Н.П. ,1862,,Типография Гогенфельдена и Ко. ,,,0,Russian,КНИГИ  ИСТОРИЯ,mirknig.com,issue 2011-02,,,,,,,,,,,1181374467,0,,,,,1,,,25838074,pdf,475e975e4ae4eff1947eeb5e16a915af,,,[1181374467]Волга от Твери до Астрахани--Название-Волга от Твери до Астрахани Автор-Боголюбов Н.П.Издательство-Типография Гоген.pdf,0,2000-01-01 01:00:00,2016-04-03 02:51:08,http://mirknig.com/uploads/posts/2011-02/1297781578_timofeev-i-vremennik-djyaka-ivana-timofeeva_1907.jpg,,
5126574,"Подробный атлас Российской Империи с планами главных городов, состоящий из 70 карт ",,,,картографическое заведение А. Ильина ,1871,,Санкт-Петербуг ,,,0,Russian,КНИГИ  ИСТОРИЯ,mirknig.com,issue 2011-02,,,,,,,,,,,1181372886,0,,,,,1,,,271332100,pdf,44a6a0d95673ce9b0f4dbe00aaddeef6,,,"[1181372886]Подробный атлас Российской Империи с планами главных городов,состоящий из 70 карт.-картографическое заведение А.Иль.pdf",0,2000-01-01 01:00:00,2016-04-03 02:51:08,,,
5126573,История Российская от древнейших времен. Том 4. Часть 1. ,,,,Щербатов М.,1781,,Императорская Академия наук,,,0,Russian,КНИГИ  ИСТОРИЯ,mirknig.com,issue 2011-02,,,,,,,,,,,1181372914,0,,,,,1,,,78703444,pdf,400e749e5d520c83136cba91ca0ec782,,,[1181372914]История Российская от древнейших времен.Том 4.Часть 1.--Название-История Российская от древнейших времен.Том 4.Част.pdf,0,2000-01-01 01:00:00,2016-04-03 02:51:08,,,
5126572,Жития святых. Сентябрь ,,,,"Димитрий Ростовский, свт. ",2004,,Издательство прп. Максима Исповедника ,,,0,Russian,КНИГИ РЕЛИГИЯ,mirknig.com,issue 2011-02,,,,,,,,,,,1181375666,0,,,,,1,,,4102062,pdf,3edb55a6ab99f7763054f83da0feb685,,,"[1181375666]Жития святых.Сентябрь--Автор-Димитрий Ростовский,свт.Название-Жития святых.Сентябрь Издательство-Издательство прп.М.pdf",0,2000-01-01 01:00:00,2016-04-03 02:51:08,,,
5126571,Тексты для проверки навыков чтения в четырехлетней начальной школе ,,,,"Тикунова Л.И. (сост.), Игнатьева Т.В. (сост.)",1997,,Вита – Пресс ,,,0,Russian,КНИГИ НАУКА и УЧЕБА,mirknig.com,issue 2011-02,5-7755-0034-2 ,,,,,,,,,,1181373966 Качество: отличное ,0,,,,,1,,,17208258,pdf,3bb0916e89a6e509f82813c04a859ac6,,,"[1181373966]Тексты для проверки навыков чтения в четырехлетней начальной школе.-ы –-Тикунова Л.И.,Игнатьева Т.В.,Вита – Пресс.pdf",0,2000-01-01 01:00:00,2016-04-03 02:51:08,,,
5126570,Тренировка хоккеистов ,,,,Горский Л. ,1981,,Физкультура и спорт ,,,0,Russian,КНИГИ  ПРОФЕССИИ И РЕМЕСЛА,mirknig.com,issue 2011-02,,,,,,,,,,,1181375651,0,,,,,1,,,40544361,pdf,3aa9af9ab1adbd2af8c44d91047eaa8a,,,[1181375651]Тренировка хоккеистов--Название-Тренировка хоккеистов Автор-Горский Л.Издательство-Физкультура и спорт Год-1981 Фор.pdf,0,2000-01-01 01:00:00,2016-04-03 02:51:08,,,
5126569,Ektron Developers Guide: Building an Ektron Powered Website ,,,,"William Cava, William Rogers, Aniel Sud ",2011,,Wrox ,,,0,English ,КНИГИ  WEB-СОЗИДАНИЕ,mirknig.com,issue 2011-02,,,,,,,,,,,1181374186,0,,,,,1,,,28521858,pdf,3a62fe0b77e63d8bdd6479f375dae56c,,,"[1181374186]Ektron Developer;s Guide-Building an Ektron Powered Website.-William Cava,William Rogers,Aniel Sud,Wrox,2011.pdf",0,2000-01-01 01:00:00,2016-04-03 02:51:08,,,
5126568,Сборник иллюстраций по курсу конструкций самолетов ,,,,М.Н. Шульженко ,1954,,Оборонгиз ,,,0,Russian,КНИГИ ТЕХНИКА,mirknig.com,issue 2011-02,,,,,,,,,,,1181372367 Качество: Хорошее ,0,,,,,1,,,75351329,pdf,39cfec576ef7c706199e147283fe004e,,,"[1181372367]Сборник иллюстраций по курсу конструкций самолетов.-М.Н.Шульженко,Оборонгиз.pdf",0,2000-01-01 01:00:00,2016-04-03 02:51:08,,,
5126567,В казематах. Очерки и материалы по истории русских тюрем. Шлиссельбург. Суздальская тюрьма. Петропавловская крепость ,,,,Пругавин А.С. ,1909,,"С.-Петербург, тип-я Первой Спб. Трудовой Артели ",,,0,Russian,,mirknig.com,issue 2011-02,,,,,,,,,,,1181374775,0,,,,,1,,,17164792,pdf,393f29096aec18972f0815dc72523697,,,[1181374775]В казематах.Очерки и материалы по истории русских тюрем.Шлиссельбург.Суздальская тюрьма.Петропавловская крепость--Н.pdf,0,2000-01-01 01:00:00,2016-04-03 02:51:08,,,
5126566,"MySQL, 4th Edition ",,,,Paul DuBois ,2008,,Addison-Wesley Professional ,,,0,English ,КНИГИ  ПРОГРАММИНГ,mirknig.com,issue 2011-02,,,,,,,,,,,1181374122,0,,,,,1,,,6684752,pdf,387951834ace57bc6bfe01321b42a3ee,,,"[1181374122]MySQL,4th Edition.-Paul DuBois,Addison-Wesley Professional,2008.pdf",0,2000-01-01 01:00:00,2016-04-03 02:51:08,,,
5126565,Трагедия Брестской крепости. Антология подвига. Боевые действия 22 июня - 23 июля 1941 года ,,,,Илья Мощанский ,2010,,Вече ,,,0,Russian,"ВОЕННАЯ ИСТОРИЯ, ИСТОРИЯ",mirknig.com,2011-03,,,,,,,,,,,1181380760,0,,,,,1,,,70216096,pdf,36c287858ffb1c335b6b1d06eca34aea,,,"[1181380760]Трагедия Брестской крепости.Антология подвига.Боевые действия 22 июня - 23 июля 1941 года.-Илья Мощанский,Вече,2010.pdf",0,2000-01-01 01:00:00,2016-04-03 02:51:08,,,
5126564,Боровск в живописи и поэзии. (Опыт синтеза). Художественно-поэтический альбом.,,,,"Составитель Владимир Овчинников, Вячеслав Черников. Автор текста Людмила Аникина. ",2002,,Боровск. ,,,0,Russian,КНИГИ  КУЛЬТУРА и ИСКУССТВО,mirknig.com,issue 2011-02,,,,,,,,,,,1181375968,0,,,,,1,,,24662000,pdf,36241da2cadcb35b2c0d9d7e5cfc235c,,,"[1181375968]Боровск в живописи и поэзии.-Составитель Владимир Овчинников,Вячеслав Черников.Автор текста Людмила Аникина.,Боровс.pdf",0,2000-01-01 01:00:00,2016-04-03 02:51:08,,,
5126563,Agile in a Flash: Speed-Learning Agile Software Development,,,,Jeff Langr,2011,,Pragmatic Bookshelf,,,0,English ,КНИГИ  ПРОГРАММИНГ,mirknig.com,issue 2011-02,,,,,,,,,,,1181373810,0,,,,,1,,,1871473,pdf,329551a6acab8e463aa40f143fcc68e4,,,"[1181373810]Agile in a Flash-Speed-Learning Agile Software Development.-Jeff Langr,Pragmatic Bookshelf,2011.pdf",0,2000-01-01 01:00:00,2016-04-03 02:51:08,,,
5126562,Поэт и культура Концептосфера Марины Цветаевой ,,,,В. А. Маслова ,2004,,Наука ,,,0,Russian,КНИГИ  СТИХИ И ПОЭЗИЯ,mirknig.com,issue 2011-02,,,,,,,,,,,1181374344,0,,,,,1,,,19591601,pdf,3269bbc70e3ca4a9af7dc918082e1248,,,[1181374344]Поэт и культура Концептосфера Марины Цветаевой--Название-Поэт и культура Концептосфера Марины Цветаевой Автор-В.А.М.pdf,0,2000-01-01 01:00:00,2016-04-03 02:51:08,http://mirknig.com/uploads/posts/2011-02/1296597103_flor.250.jpg,,
5126561,Webseitenlayout mit CSS,,,,Clemens Gull,2010,,Franzis Verlag,,,0,English ,КНИГИ  WEB-СОЗИДАНИЕ,mirknig.com,issue 2011-02,,,,,,,,,,,1181376468,0,,,,,1,,,5842051,pdf,31743db76d510f8530c805381c0826bd,,,"[1181376468]Webseitenlayout mit CSS.-Clemens Gull,Franzis Verlag,2010.pdf",0,2000-01-01 01:00:00,2016-04-03 02:51:08,,,
5126560,Ф.Г. Волков (основатель русского театра). Его жизнь в связи с историей русской театральной старины ,,,,Ярцев А.А. ,1892,,"С.-Петербург, тип-я Ю.Н. Эрлих ",,,0,Russian,КНИГИ  ИСТОРИЯ,mirknig.com,issue 2011-02,,,,,,,,,,,1181376319,0,,,,,1,,,5155072,pdf,2b01702ed4ca41de8e33b412f272e8a3,,,[1181376319]Ф.Г.Волков(основатель русского театра).Его жизнь в связи с историей русской театральной старины--Название-Ф.Г.Волко.pdf,0,2000-01-01 01:00:00,2016-04-03 02:51:08,,,
5126559,Smashing CSS: Professional Techniques for Modern Layout ,,,,Eric Meyer ,2011,,Wiley ,,,0,English ,КНИГИ  WEB-СОЗИДАНИЕ,mirknig.com,2011-03,,,,,,,,,,,1181379958,0,,,,,1,,,22315118,pdf,2951e6a75279129200e5e53dd8ac268c,,,"[1181379958]Smashing CSS-Professional Techniques for Modern Layout.-Eric Meyer,Wiley,2011.pdf",0,2000-01-01 01:00:00,2016-04-03 02:51:08,http://mirknig.com/uploads/posts/2011-03/1300893137_111.jpg,,
5126558,Русский язык. Грамматика. Текст. Стили речи. 10-11 классы ,,,,"Власенков А.И., Рыбченкова Л.М. ",2008,,Просвещение ,,,0,Russian,КНИГИ НАУКА и УЧЕБА,mirknig.com,issue 2011-02,,,,,,,,,,,1181374938,0,,,,,1,,,23126165,pdf,273b82238c514f71b1ad95894634730b,,,"[1181374938]Русский язык.Грамматика.Текст.Стили речи.10-11 классы.-Власенков А.И.,Рыбченкова Л.М.,Просвещение,2008 г.pdf",0,2000-01-01 01:00:00,2016-04-03 02:51:08,,,
5126557,Ходячие китайские выражения. ,,,,Щукин А.А. Издательство АСТ: Восток-Запад ,2008,,АСТ: Восток-Запад,,,0,Russian,КНИГИ НАУКА и УЧЕБА,mirknig.com,issue 2011-02,,,,,,,,,,,1181377033,0,,,,,1,,,2157740,djvu,265a6555e1ebc8fa710f4943f3a39335,,,"[1181377033]Ходячие китайские выражения.-Щукин А.А.,АСТ-Восток-Запад,2008.djvu",0,2000-01-01 01:00:00,2016-04-03 02:51:08,,,
5126556,Древняя Месопотамия 6500-3500 гг. до н.э. и Древний Египет 1750-1350 гг. до н.э. ,,,,"В.И. Черкашин, А.И. Гончаров ",2001,,Антиква ,,,0,Russian,КНИГИ  ИСТОРИЯ,mirknig.com,issue 2011-02,,,,,,,,,,,1181375672,0,,,,,1,,,1957430,djvu,24746344a1771a812270555c4de98fd4,,,"[1181375672]Древняя Месопотамия 6500-3500 гг.до н.э.и Древний Египет 1750-1350 гг.до н.э..-В.И.Черкашин,А.И.Гончаров,Антиква,20.djvu",0,2000-01-01 01:00:00,2016-04-03 02:51:08,,,
5126555,What’s New in ASP.NET MVC 2 ,,,,Simone Chiaretta ,2011,,Wiley ,,,0,English ,КНИГИ  ПРОГРАММИНГ,mirknig.com,issue 2011-02,,,,,,,,,,,1181372149,0,,,,,1,,,1763576,pdf,22921eabdbb15d58420b105a6f126cda,,,"[1181372149]What’s New in ASP.NET MVC 2.-Simone Chiaretta,Wiley,2011.pdf",0,2000-01-01 01:00:00,2016-04-03 02:51:08,,,
5126554,"Возможно все! Дерзни в это поверить… Действуй, чтобы это доказать! ",,,,Джон Вон Эйкен ,2009,,Альпина Паблишерз ,,,0,Russian,КНИГИ БИЗНЕС,mirknig.com,2011-03,,,,,,,,,,,1181380362,0,,,,,1,,,18929792,pdf,21ec780dd9925b3639444d6cc99829b3,,,"[1181380362]Возможно все! Дерзни в это поверить… Действуй,чтобы это доказать!.-Джон Вон Эйкен,Альпина Паблишерз,2009.pdf",0,2000-01-01 01:00:00,2016-04-03 02:51:08,,,
5126553,Бабы Яги - кто они? Как стать Богом,,,,Шемшук Владимир,2010,,Шемшук и К,,,0,Russian,КНИГИ  ЭЗОТЕРИКА,mirknig.com,issue 2011-02,,,,,,,,,,,1181374222,0,,,,,1,,,6477703,djvu,21daf66170ae565d386b2b20fd3d6b59,,,"[1181374222]Бабы Яги - кто они.Как стать Богом.-Шемшук Владимир,Шемшук и К.djvu",0,2000-01-01 01:00:00,2016-04-03 02:51:08,http://mirknig.com/uploads/posts/2011-03/1300009116_poshepa_1976.jpg,,
5126552,История судебных учреждений в России ,,,,Константин Троцина ,1851,,"С.-Петербург, тип-я Эдуарда Веймара ",,,0,Russian,КНИГИ  ИСТОРИЯ,mirknig.com,issue 2011-02,,,,,,,,,,,1181375457,0,,,,,1,,,5470773,pdf,1f24c4c9b486649c4f2cecf240616159,,,[1181375457]История судебных учреждений в России--Название-История судебных учреждений в России Автор-Константин Троцина Издате.pdf,0,2000-01-01 01:00:00,2016-04-03 02:51:08,,,
5126551,Летние задания по русскому языку для повторения и закрепления учебного материала: 2 класс ,,,,Нефедова Е.А. Узорова О.В. ,2010,,"АСТ, Астрель, Профиздат ",,,0,Russian,КНИГИ НАУКА и УЧЕБА,mirknig.com,issue 2011-02,,,,,,,,,,,1181375969 Качество: отличное,0,,,,,1,,,21856968,pdf,1ec4b29448d664680d552a9cef8f308f,,,[1181375969]Летние задания по русскому языку для повторения и закрепления учебного материала-2 класс.-Нефедова Е.А.Узорова О.В..pdf,0,2000-01-01 01:00:00,2016-04-03 02:51:08,,,
5126550,Введение в стохастическое интегрирование ,,,,К. Чжун ,1987,,Мир ,,,0,Russian,КНИГИ НАУКА и УЧЕБА,mirknig.com,issue 2011-02,,,,,,,,,,,1181374051,0,,,,,1,,,5397143,pdf,1e5fade7fc716c7da26b4e2df7eb9c9f,,,"[1181374051]Введение в стохастическое интегрирование.-К.Чжун,Мир,1987.pdf",0,2000-01-01 01:00:00,2016-04-03 02:51:08,http://mirknig.com/uploads/posts/2011-02/1297770107_1.png,,
5126549,Жизнь лошади: день за днем. Эффективные методы работы с любой лощадью ,,,,"Паули Ванхала, Сини Сеппяля-Ванхала ",2005,,Аквариум Принт ,,,0,Russian,КНИГИ  ХОББИ и РАЗВЛЕЧЕНИЯ,mirknig.com,issue 2011-02,,,,,,,,,,,1181373394,0,,,,,1,,,1800689,pdf,1bd1b50743a69509d0efec3d4f916b75,,,"[1181373394]Жизнь лошади-день за днем.Эффективные методы работы с любой лощадью.-Паули Ванхала,Сини Сеппяля-Ванхала,Аквариум Пр.pdf",0,2000-01-01 01:00:00,2016-04-03 02:51:08,,,
5126548,The God Delusion ,,,,Richard Dawkins ,2006,,Houghton Mifflin Harcourt ,,,0,English ,КНИГИ РЕЛИГИЯ,mirknig.com,issue 2011-02,0618680004,,,,,,,,,,1181377268,0,,,,,1,,,6032768,pdf,1a032dfad1b193dd4d6aa08725d709da,,,"[1181377268]The God Delusion.-Richard Dawkins,Houghton Mifflin Harcourt,September 18,2006.pdf",0,2000-01-01 01:00:00,2016-04-03 02:51:08,,,
5126547,С.А. Есенин в воспоминаниях современников. В 2-х т. Том I. ,,,,Козловский А. (ред. сост.) ,1986,,Художественная литература ,,,0,Russian,КНИГИ ЧЕЛОВЕК,mirknig.com,issue 2011-02,,,,,,,,,,,1181376266,0,,,,,1,,,13001976,djvu,185b9ddf18476cc27fe5c0bf3e9721d0,,,"[1181376266]С.А.Есенин в воспоминаниях современников.В 2-х т.Том I..-Козловский А.(ред.сост.),Художественная литература,1986.djvu",0,2000-01-01 01:00:00,2016-04-03 02:51:08,http://mirknig.com/uploads/posts/2011-02/1298134993_3913a267f6d05eecb38160c6d44ba72e.jpg,,
5126546,Материалы для истории крепостного права в России. Извлечения из секретных отчетов Министерства внутренних дел за 1836-1856 гг.,,,,,1872,,"Berlin, B. Behr’s Buchhandlung ",,,0,Russian,КНИГИ  ИСТОРИЯ,mirknig.com,issue 2011-02,,,,,,,,,,,1181374484,0,,,,,1,,,12183857,pdf,174d6b72c85ba9217e172ddecc43212d,,,[1181374484]Материалы для истории крепостного права в России.Извлечения из секретных отчетов Министерства внутренних дел за 183.pdf,0,2000-01-01 01:00:00,2016-04-03 02:51:08,,,
5126545,Высшая математика 100 экзаменационных вопросов (домашний репетитор) ,,,,Д.Т.Письменный ,1999,,Москва Айрес Пресс Рольф ,,,0,Russian,КНИГИ НАУКА и УЧЕБА,mirknig.com,issue 2011-02,,,,,,,,,,,1181377165,0,,,,,1,,,10025931,pdf,168078b6f0c67b219b0fef39cfa6f4a0,,,"[1181377165]Высшая математика 100 экзаменационных вопросов(домашний репетитор).-Д.Т.Письменный,Москва Айрес Пресс Рольф,1999.pdf",0,2000-01-01 01:00:00,2016-04-03 02:51:08,,,
5126544,Энциклопедия праздничного застолья. ,,,,В. Бугаенко ,2008,,"Харьков, Клуб семейного досуга ",,,0,Russian,КНИГИ КУЛИНАРИЯ,mirknig.com,issue 2011-02,,,,,,,,,,,1181375235,0,,,,,1,,,54952849,pdf,137a7af07ae12d73efa15693966639b7,,,"[1181375235]Энциклопедия праздничного застолья.-В.Бугаенко,Харьков,Клуб семейного досуга,2008.pdf",0,2000-01-01 01:00:00,2016-04-03 02:51:08,,,
5126543,3000 примеров по математике (Внетабличное умножение и деление). Новые примеры. 3-4 класс. Крупный шрифт.,,,,Нефедова Е.А. Узорова О.В. ,2008,,"АСТ, Астрель, Профиздат ",,,0,Russian,КНИГИ НАУКА и УЧЕБА,mirknig.com,issue 2011-02,,,,,,,,,,,1181376329 Качество: отличное,0,,,,,1,,,37904560,pdf,12ca2acc61af9da519df507d78a36ed0,,,[1181376329]3000 примеров по математике(Внетабличное умножение и деление)--Автор-Нефедова Е.А.Узорова О.В.Название-3000 примеро.pdf,0,2000-01-01 01:00:00,2016-04-03 02:51:08,http://mirknig.com/uploads/posts/2011-02/1298631800_264_small.jpg,,
5126542,Управляемые марковские процессы и их приложения ,,,,Е. Дынкин ,1975,,Наука ,,,0,Russian,КНИГИ НАУКА и УЧЕБА,mirknig.com,issue 2011-02,,,,,,,,,,,1181374054,0,,,,,1,,,12104469,pdf,124f7f6cdc4f61761fbd1b23f2a8ac54,,,"[1181374054]Управляемые марковские процессы и их приложения.-Е.Дынкин,Наука,1975.pdf",0,2000-01-01 01:00:00,2016-04-03 02:51:08,http://mirknig.com/uploads/posts/2011-02/1297771554_2011-02-15_144842.jpg,,
5126541,Microsoft Project Server 2010,,,,J#252;rgen Rosenstock ,2010,,Galileo Press ,,,0,German,КНИГИ  ПРОГРАММИНГ,mirknig.com,issue 2011-02,,,,,,,,,,,1181376181,0,,,,,1,,,66941054,pdf,1208aad107b07eb5b6a4ae702b53b763,,,"[1181376181]Microsoft Project Server 2010.-J#252;rgen Rosenstock,Galileo Press,2010.pdf",0,2000-01-01 01:00:00,2016-04-03 02:51:08,,,
5126540,О чем не пишут в книгах по Delphi ,,,,Григорьев А. Б. ,2008,,Петербург ,,,0,Russian,КНИГИ  ПРОГРАММИНГ,mirknig.com,issue 2011-02,,,,,,,,,,,1181378478,0,,,,,1,,,80618751,pdf,109ebe84283827914f0ce255e3c2dcf3,,,[1181378478]О чем не пишут в книгах по Delphi--Автор-Григорьев А.Б.Название-О чем не пишут в книгах по Delphi Издательство-Пете.pdf,0,2000-01-01 01:00:00,2016-04-03 02:51:08,,,
5126539,История Российская от древнейших времен. Том 7. Часть 1. ,,,,Щербатов М.,1790,,Императорская Академия наук,,,0,Russian,КНИГИ  ИСТОРИЯ,mirknig.com,issue 2011-02,,,,,,,,,,,1181372918,0,,,,,1,,,36149607,pdf,1046ea0ed83aa2355d06c26d93f962f1,,,"[1181372918]История Российская от древнейших времен.Том 7.Часть 1..-князь Михаил Щербатов,Императорская Академия наук.pdf",0,2000-01-01 01:00:00,2016-04-03 02:51:08,,,
5126538,"Мир русских икон. История, предания ",,,,Т.С. Еремина ,2002,,Москва. ТЕРРА - Книжный клуб ,,,0,Russian,"ИСТОРИЯ,РЕЛИГИЯ",mirknig.com,issue 2011-02,,,,,,,,,,,1181374292,0,,,,,1,,,72324745,pdf,0e5d67c69402883cf6399f90d1b62465,,,"[1181374292]Мир русских икон.История,предания.-Т.С.Еремина,Москва.ТЕРРА - Книжный клуб,2002.pdf",0,2000-01-01 01:00:00,2016-04-03 02:51:08,,,
5126537,История Российская от древнейших времен. Том 5. Часть 2. ,,,,Щербатов М.,1789,,Императорская Академия наук,,,0,Russian,КНИГИ  ИСТОРИЯ,mirknig.com,issue 2011-02,,,,,,,,,,,1181372915,0,,,,,1,,,74981134,pdf,0dc0b95d07a667d48fa26badecaffdd1,,,[1181372915]История Российская от древнейших времен.Том 5.Часть 2.--Название-История Российская от древнейших времен.Том 5.Част.pdf,0,2000-01-01 01:00:00,2016-04-03 02:51:08,,,
5126536,Лазерные технологии в медицине,,,,В.А.Серебряков,2009,,СПбГУ ИТМО,,,0,Russian,КНИГИ НАУКА и УЧЕБА,mirknig.com,issue 2011-02,,,,,,,,,,,1181377127,0,,,,,1,,,22745880,pdf,0a5b98b756db404e8e9be446ea2b15f0,,,"[1181377127]Лазерные технологии в медицине.-В.А.Серебряков,СПбГУ ИТМО.pdf",0,2000-01-01 01:00:00,2016-04-03 02:51:08,,,
5126535,Историко-статистический указатель города Пскова.,,,,Васильев И.И.,1889,,Типография Псковского Губернского Земства,,,0,Russian,КНИГИ  ИСТОРИЯ,mirknig.com,issue 2011-02,,,,,,,,,,,1181373504,0,,,,,1,,,14072784,pdf,092fb1310188e83ac88cd47b26cce9a3,,,[1181373504]Историко-статистический указатель города Пскова--Название-Историко-статистический указатель города Пскова.Автор-Вас.pdf,0,2000-01-01 01:00:00,2016-04-03 02:51:08,,,
5126534,Сталинград. К 60-летию сражения на Волге ,,Редкая книга ,,Антология ,2002,,Воениздат ,,,0,Russian,"ВОЕННАЯ ИСТОРИЯ, ИСТОРИЯ",mirknig.com,2011-03,,,,,,,,,,,1181381807,0,,,,,1,,,58506884,pdf,090b998f5388052455524bce98ee0094,,,"[1181381807]Сталинград.К 60-летию сражения на Волге.-Антология,Воениздат,2002.pdf",0,2000-01-01 01:00:00,2016-04-03 02:51:08,,,
5126533,Гонконг. История и современность ,,,,Иванов П. М. ,1990,,"Наука, Главная редакция восточной литературы ",,,0,Russian,КНИГИ  ИСТОРИЯ,mirknig.com,issue 2011-02,,,,,,,,,,,1181374282,0,,,,,1,,,6774955,pdf,06cb57feae2bd27ba15e05a981e04461,,,"[1181374282]Гонконг.История и современность.-Иванов П.М.,Наука,Главная редакция восточной литературы,1990.pdf",0,2000-01-01 01:00:00,2016-04-03 02:51:08,,,
5126532,Пол мозга. Истинные отличия мужчин от женщин,,,,Энн Мойр и Дэвид Джессл (перевод М. Скороходова) ,1992,,Delta ,,,0,Russian,КНИГИ  ПСИХОЛОГИЯ,mirknig.com,issue 2011-02,,,,,,,,,,,1181373679,0,,,,,1,,,1018530,pdf,06448def0540d8b75e60ed218560e957,,,[1181373679]Пол мозга.Истинные отличия мужчин от женщин--Автор-Энн Мойр и Дэвид Джессл(перевод М.Скороходова)Название-Пол мозга.pdf,0,2000-01-01 01:00:00,2016-04-03 02:51:08,,,
5126531,Автоматизация и моделирование технологических процессов АЭС и ТЭС ,,,,В.А. Демченко ,2001,,Астропринт ,,,0,Russian,КНИГИ НАУКА и УЧЕБА,mirknig.com,issue 2011-02,,,,,,,,,,,1181374988,0,,,,,1,,,5084867,djvu,062d352cc14e7a3b430d89a13322dacd,,,"[1181374988]Автоматизация и моделирование технологических процессов АЭС и ТЭС.-В.А.Демченко,Астропринт,2001.djvu",0,2000-01-01 01:00:00,2016-04-03 02:51:08,,,
5126530,Fortresse Volante B-17 ,,,,J.P de Cock ,1979,,Editions Atlas ,,,0,French,КНИГИ ВОЕННАЯ ИСТОРИЯ,mirknig.com,2011-03,,,,,,,,,,,1181384493,0,,,,,1,,,39754344,pdf,0554b3b4fbf39810293d92cfd3c39521,,,"[1181384493]Fortresse Volante B-17.-J.P de Cock,Editions Atlas,1979.pdf",0,2000-01-01 01:00:00,2016-04-03 02:51:08,,,
5126529,Бояре Романовы и воцарение Михаила Федоровича ,,,,Васенко П.Г. ,1913,,"С.-Петербург, Государственная типография ",,,0,Russian,КНИГИ  ИСТОРИЯ,mirknig.com,issue 2011-02,,,,,,,,,,,1181372899,0,,,,,1,,,25574548,pdf,0528928e95c4346eab8c620a9c11e857,,,[1181372899]Бояре Романовы и воцарение Михаила Федоровича--Название-Бояре Романовы и воцарение Михаила Федоровича Автор-Васенко.pdf,0,2000-01-01 01:00:00,2016-04-03 02:51:08,,,
5126528,Homo naturalis: Кто мы? Зачем мы? Куда идем? ,,,,Пропп М.В. ,2003,,Лабиринт ,,,0,Russian,КНИГИ ЧЕЛОВЕК,mirknig.com,issue 2011-02,,,,,,,,,,,1181371199,0,,,,,1,,,1934274,pdf,04ab653cb1b481720e259580792d182b,,,"[1181371199]Homo naturalis-Кто мы.Зачем мы.Куда идем..-Пропп М.В.,Лабиринт.pdf",0,2000-01-01 01:00:00,2016-04-03 02:51:08,,,
5126527,Сети TCP/IP Том 1 Принципы протоколы и структура ,,,,Дуглас Э. Камер ,2003,,Вильямс ,,,0,Russian,КНИГИ СЕТЕВЫЕ ТЕХНОЛОГИИ,mirknig.com,issue 2011-02,,,,,,,,,,,1181374889,0,,,,,1,,,35531145,pdf,046d71de0b410840ce0715b8a46fffb4,,,[1181374889]Сети TCP-IP Том 1 Принципы протоколы и структура--Название-Сети TCP-IP Том 1 Принципы протоколы и структура Автор-Д.pdf,0,2000-01-01 01:00:00,2016-04-03 02:51:08,,,
5126526,История Российская от древнейших времен. Том 6. Часть 1. ,,,,Щербатов М.,1790,,Императорская Академия наук,,,0,Russian,КНИГИ  ИСТОРИЯ,mirknig.com,issue 2011-02,,,,,,,,,,,1181372916,0,,,,,1,,,37881944,pdf,04576bbbace0847a062586b81f339a8b,,,"[1181372916]История Российская от древнейших времен.Том 6.Часть 1..-князь Михаил Щербатов,Императорская Академия наук.pdf",0,2000-01-01 01:00:00,2016-04-03 02:51:08,,,
5126525,"Маникюр, педикюр. Советы стилиста.",,,,Сербина Я. ,2007,,Клуб семейного досуга ,,,0,Russian,КНИГИ  ХОББИ и РАЗВЛЕЧЕНИЯ,mirknig.com,issue 2011-02,,,,,,,,,,,1181375710,0,,,,,1,,,26480944,djvu,0365ab76f9972f57a65e94733abcec35,,,"[1181375710]Маникюр,педикюр.Советы стилиста.-Сербина Я.,Клуб семейного досуга,2007.djvu",0,2000-01-01 01:00:00,2016-04-03 02:51:08,,,
5126524,50-мм германский миномёт обр.1936 г.памятка ,,,,Зверев П.Н. (ред.),1942,,Воениздат НКО Союза СССР,,,0,Russian,КНИГИ ВОЕННАЯ ИСТОРИЯ,mirknig.com,2011-03,,,,,,,,,,,1181384584,0,,,,,1,,,7375052,pdf,00291f0e2763b23c8d1b5dc8f44b386f,,,"[1181384584]50-мм германский миномёт обр.1936 г.памятка.- под наблюдением редактора п-п-ка Зверева П.Н.,Воениздат НКО Союза ССС.pdf",0,2000-01-01 01:00:00,2016-04-03 02:51:08,,,
5126523,Магические заговоры и амулеты силы. Заклятия иблагословения ,,,,Эстрин А. ,2010,,АСТ ,,,0,Russian,КНИГИ  ЭЗОТЕРИКА,mirknig.com,issue 2011-02,,,,,,,,,,,1181374829,0,,,,,1,,,19712255,pdf,001c5cd1d8f6078e1f51c3b00ffb9fe8,,,"[1181374829]Магические заговоры и амулеты силы.Заклятия и благословения.-Эстрин А.,АСТ,2010.pdf",0,2000-01-01 01:00:00,2016-04-03 02:51:08,http://mirknig.com/uploads/posts/2011-03/1300010674_mackevich_1980.jpg,,
5126522,Концепции современного естествознания.,,,,"Юрина Н.М., Алексеев С.И. ",2004,,М.: МЭСИ ,,,0,Russian,КНИГИ ЕСТЕСТВЕННЫЕ НАУКИ,mirknig.com,issue 2011-02,,,,,,,,,,,1181376660,0,,,,,1,,,1345713,pdf,fe7b9110b4d9ad0a36e801c87c7f2cf6,,,"[1181376660]Концепции современного естествознания.--Название-Концепции современного естествознания.Автор-Юрина Н.М.,Алексеев С..pdf",0,2000-01-01 01:00:00,2016-04-03 02:51:08,845000/fe7b9110b4d9ad0a36e801c87c7f2cf6-g.jpg,,
5126521,Cadet Gray and Butternut Brown: Notes on Confederate Uniforms ,,,,Thomas M. Arliskas ,2006,,Thomas Publications ,,,0,English ,"ВОЕННАЯ ИСТОРИЯ, ИСТОРИЯ",mirknig.com,issue 2011-02,,,,,,,,,,,1181378674,0,,,,,1,,,157389353,pdf,fa0906311c6b47c258cb6fc620da660d,,,"[1181378674]Cadet Gray and Butternut Brown-Notes on Confederate Uniforms.-Thomas M.Arliskas,Thomas Publications,2006.pdf",0,2000-01-01 01:00:00,2016-04-03 02:51:08,845000/fa0906311c6b47c258cb6fc620da660d-g.jpg,,
5126520,"Информатика в играх и задачах:4 класс:В 2 ч. Изд. 2-е, испр. ",,,,"Александр Горячев, Ксения Горина, Надежда Суворова ",2010,,Баласс ,,,0,Russian,"ДЛЯ ДЕТЕЙ,НАУКА и УЧЕБА",mirknig.com,issue 2011-02,,,,,,,,,,,1181379106,0,,,,,1,,,171901621,pdf,f9f7a1ffa7d561c54b028d0517be230f,,,"[1181379106]Информатика в играх и задачах-4 класс.-Александр Горячев,Ксения Горина,Надежда Суворова,Баласс,2010.pdf",0,2000-01-01 01:00:00,2016-04-03 02:51:08,,,
5126519,"Все, что будущая мама хочет знать, но не знает, у кого спросить ",,,,Сосорева Е. П. ,2010,,АСТ ,,,0,Russian,КНИГИ ЗДОРОВЬЕ,mirknig.com,issue 2011-02,,,,,,,,,,,1181375506,0,,,,,1,,,7455573,djvu,f6cd3995036fa78ae17e68926ba3d0a3,,,"[1181375506]Все,что будущая мама хочет знать,но не знает,у кого спросить.-Сосорева Е.П.,АСТ,2010.djvu",0,2000-01-01 01:00:00,2016-04-03 02:51:08,845000/f6cd3995036fa78ae17e68926ba3d0a3-g.jpg,,
5126518,Собрание узаконений и распоряжений правительства за 1917-1918 гг.,,,,Совет Народных Комиссаров,1942,,Управление делами СовНаркКома СССР,,,0,Russian,КНИГИ  ИСТОРИЯ,mirknig.com,issue 2011-02,,,,,,,,,,,1181372537,0,,,,,1,,,185759019,pdf,f48ee3b8915a20fcd0c51f1d14c21867,,,[1181372537]Собрание узаконений и распоряжений правительства за 1917-1918 гг.--Название-Собрание узаконений и распоряжений прав.pdf,0,2000-01-01 01:00:00,2016-04-03 02:51:08,http://mirknig.com/uploads/posts/2011-02/1297166224_history807.jpg,,
5126517,Революция и анархизм ,,,,Канев С.Н. ,1987,,Мысль ,,,0,Russian,КНИГИ  ГУМАНИТАРНЫЕ НАУКИ,mirknig.com,issue 2011-02,,,,,,,,,,,1181373820,0,,,,,1,,,72329671,djvu,f48502a8e5d8b8bb75c05b559a09bfa6,,,[1181373820]Революция и анархизм--Автор-Канев С.Н.Название-Революция и анархизм Издательство-Мысль Год-1987 Формат-DjVu Размер-.d_vu,0,2000-01-01 01:00:00,2016-04-03 02:51:08,,,
5126516,Археологическая карта России: Ярославская область.,,,,Под общей редакцией А.В. Кашкина,2005,,Российская академия наук. Институт археологии,,,0,Russian,КНИГИ  ИСТОРИЯ,mirknig.com,issue 2011-02,,,,,,,,,,,1181370720,0,,,,,1,,,324792213,pdf,f43c89624c931746b261b4a6dd1a04d7,,,[1181370720]Археологическая карта России-Ярославская область.--Название-Археологическая карта России-Ярославская область.Автор-.pdf,0,2000-01-01 01:00:00,2016-04-03 02:51:08,http://mirknig.com/uploads/posts/2011-02/1296766332_132644b79cabec935e63c332e150b9b7.jpg,,
5126515,Переходы от античности к феодализму,,,,Перри Андерсон,2007,,Издательский дом «Территория будущего»,,,0,Russian,КНИГИ  ИСТОРИЯ,mirknig.com,issue 2011-02,,,,,,,,,,,1181372874,0,,,,,1,,,1552873,pdf,ee2e4e6925a44735ee7ba09cce59af1b,,,"[1181372874]Переходы от античности к феодализму.-Перри Андерсон,Издательский дом «Территория будущего».pdf",0,2000-01-01 01:00:00,2016-04-03 02:51:08,,,
5126514,Введение в экономику и бизнес,,,,И.В. Липсиц,2003,,Вита-Пресс,,,0,Russian,КНИГИ БИЗНЕС,mirknig.com,issue 2011-02,,,,,,,,,,,1181379091,0,,,,,1,,,50278353,pdf,e93aa9f5d500349a7b1c4bca3e6fb632,,,[1181379091]Введение в экономику и бизнес--Название-Введение в экономику и бизнесАвтор-И.В.ЛипсицИздательство-Вита-ПрессГод-200.pdf,0,2000-01-01 01:00:00,2016-04-03 02:51:08,845000/e93aa9f5d500349a7b1c4bca3e6fb632-g.jpg,,
5126513,Японский лечебный массаж ,,,,"Гусева Н.О., составитель ",1994,,Оникс ,,,0,Russian,КНИГИ ЗДОРОВЬЕ,mirknig.com,issue 2011-02,,,,,,,,,,,1181378834,0,,,,,1,,,6300636,pdf,e27431912ff95eed9a36c3b13318c10b,,,"[1181378834]Японский лечебный массаж.-Гусева Н.О.,составитель,Оникс,1994.pdf",0,2000-01-01 01:00:00,2016-04-03 02:51:08,,,
5126512,Букварь для будущих отличников,,,,Олеся Жукова ,2010,,Астрель ,,,0,Russian,КНИГИ ДЛЯ ДЕТЕЙ,mirknig.com,issue 2011-02,,,,,,,,,,,1181379408,0,,,,,1,,,72820971,pdf,e0d9ebe1b018a5619ac876fa5b5c20a4,,,"[1181379408]Букварь для будущих отличников.-Олеся Жукова,Астрель,2010.pdf",0,2000-01-01 01:00:00,2016-04-03 02:51:08,,,
5126511,Археологическая карта России: Тульская область. Часть первая.,,,,Под редакцией Ю.А.Краснова,1999,,Российская академия наук. Институт археологии,,,0,Russian,КНИГИ  ИСТОРИЯ,mirknig.com,issue 2011-02,,,,,,,,,,,1181372193,0,,,,,1,,,90560836,pdf,dc3c64e15223b9cc1d6381d6f94470c3,,,[1181372193]Археологическая карта России-Тульская область.Часть первая--Название-Археологическая карта России-Тульская область..pdf,0,2000-01-01 01:00:00,2016-04-03 02:51:08,http://mirknig.com/uploads/posts/2011-02/1297110116_05.jpg,,
5126510,Исцеление с помощью янтр,,,,Елена Радуга,0,,"АСТ, Сова",,,0,Russian,КНИГИ ЗДОРОВЬЕ,mirknig.com,issue 2011-02,5-17-040753-X,,,,,,,,,,1181378774,0,,,,,1,,,3043076,pdf,db544f7fd386e6918ff000ca31314123,,,[1181378774]Исцеление с помощью янтр.-Елена Радуга.ru,0,2000-01-01 01:00:00,2016-04-03 02:51:08,http://mirknig.com/uploads/posts/2011-02/1296627166_perep.jpg,,
5126509,Археологическая карта Коми АССР,,,,"В.С.Стоколос, К.С.Королев",1984,,Наука,,,0,Russian,КНИГИ  ИСТОРИЯ,mirknig.com,issue 2011-02,,,,,,,,,,,1181372126,0,,,,,1,,,2118031,djvu,d7ee9c63d2cd26f9b5e93350b2c7bc96,,,"[1181372126]Археологическая карта Коми АССР--Название-Археологическая карта Коми АССРАвтор-В.С.Стоколос,К.С.КоролевИздательство.djvu",0,2000-01-01 01:00:00,2016-04-03 02:51:08,,,
5126508,Учимся читать и писать. Школьные трудности благополучных детей ,,,,Г.А.Цукерман Е.И.Бугрименко ,1994,,Знание ,,,0,Russian,КНИГИ ДЛЯ ДЕТЕЙ,mirknig.com,issue 2011-02,,,,,,,,,,,1181375452,0,,,,,1,,,18941679,pdf,d7714d5b8ed72ee7ccf0243367f542e7,,,"[1181375452]Учимся читать и писать.Школьные трудности благополучных детей.-Г.А.Цукерман Е.И.Бугрименко,Знание,1994.pdf",0,2000-01-01 01:00:00,2016-04-03 02:51:08,845000/d7714d5b8ed72ee7ccf0243367f542e7-g.jpg,,
5126507,Сборник отчетов об исследовании в 1889 году турецкой крепости Эрзерум ,,,,,1891,,"Тифлис, тип-я Канцелярии Главноначальствующего гражд. ч. на Кавказе ",,,0,Russian,"ВОЕННАЯ ИСТОРИЯ, ИСТОРИЯ",mirknig.com,issue 2011-02,,,,,,,,,,,1181375113,0,,,,,1,,,12141528,pdf,d38f5fd301ba6402a65c090eef5a4a16,,,[1181375113]Сборник отчетов об исследовании в 1889 году турецкой крепости Эрзерум--Название-Сборник отчетов об исследовании в 1.pdf,0,2000-01-01 01:00:00,2016-04-03 02:51:08,845000/d38f5fd301ba6402a65c090eef5a4a16-g.jpg,,
5126506,Система коррекционного воздействия при моторной алалии ,,,,"А. Пятница Т.В., Башинская Т.В. ",2010,,ТЦ Сфера,,,0,Russian,КНИГИ ДЛЯ ДЕТЕЙ,mirknig.com,issue 2011-02,,,,,,,,,,,1181377605,0,,,,,1,,,5650264,pdf,d0bc49f4de64b50159b49107c5b3dcc2,,,"[1181377605]Система коррекционного воздействия при моторной алалии.-книги-А.Пятница Т.В.,Башинская Т.В.,ТЦ Сфера.pdf",0,2000-01-01 01:00:00,2016-04-03 02:51:08,845000/d0bc49f4de64b50159b49107c5b3dcc2-d.jpg,,
5126505,Формула безопасности ,,,,"С. Ю. Павлюков, Н. С. Окунь ",2009,,Четыре четверти ,,,0,Russian,КНИГИ ДЛЯ ДЕТЕЙ,mirknig.com,issue 2011-02,,,,,,,,,,,1181372977,0,,,,,1,,,8726713,djvu,cba739dabea0501acfc585739c681d3c,,,"[1181372977]Формула безопасности.-книги-С.Ю.Павлюков,Н.С.Окунь,Четыре четверти.djvu",0,2000-01-01 01:00:00,2016-04-03 02:51:08,845000/cba739dabea0501acfc585739c681d3c-g.jpg,,
5126504,Прописи 1-4. Учебное пособие для первого класса четырехлетней школы. ,,,,"Штец А. А., Сабодах Р. В, Исаева С. А. ",2002,,"АРКТИ, Рольф ",,,0,Russian,КНИГИ ДЛЯ ДЕТЕЙ,mirknig.com,issue 2011-02,,,,,,,,,,,1181376782,0,,,,,1,,,35609705,pdf,ca6ee706b4fc33b0d36390ad298f1acc,,,"[1181376782]Прописи 1-4.Учебное пособие для первого класса четырехлетней школы..-Штец А.А.,Сабодах Р.В,Исаева С.А.,АРКТИ,Рольф,.pdf",0,2000-01-01 01:00:00,2016-04-03 02:51:08,,,
5126503,Княжество Тверское (1247-1485гг.),,,,Эккехард Клюг,1994,,Антек,,,0,Russian,КНИГИ  ИСТОРИЯ,mirknig.com,issue 2011-02,,,,,,,,,,,1181370723,0,,,,,1,,,111629359,pdf,c8e7ed239c761c95c6130d186b3e2199,,,[1181370723]Княжество Тверское(1247-1485гг.)--Название-Княжество Тверское(1247-1485гг.)Автор-Эккехард КлюгИздательство-АнтекГод.pdf,0,2000-01-01 01:00:00,2016-04-03 02:51:08,http://mirknig.com/uploads/posts/2011-02/1296767804_history801.jpg,,
5126502,Археологическая карта России:Брянская область,,,,Под общей редакцией Ю.А.Краснова,1993,,Российская академия наук. Институт археологии,,,0,Russian,КНИГИ  ИСТОРИЯ,mirknig.com,issue 2011-02,,,,,,,,,,,1181370715,0,,,,,1,,,91539358,pdf,c8b856d3733998422363e74736544a9e,,,[1181370715]Археологическая карта России-Брянская область--Название-Археологическая карта России-Брянская областьАвтор-Под обще.pdf,0,2000-01-01 01:00:00,2016-04-03 02:51:08,,,
5126501,Русский символизм ,,,,А. Хансен-Лёве ,1999,,Академический Проект ,,,0,Russian,КНИГИ  ГУМАНИТАРНЫЕ НАУКИ,mirknig.com,issue 2011-02,,,,,,,,,,,1181373286,0,,,,,1,,,15982444,pdf,c49f9075d1cffbcf0cf6b9e5c9cc3b40,,,[1181373286]Русский символизм--Название-Русский символизм Автор-А.Хансен-Лёве Издательство-Академический Проект Год-1999 Формат.pdf,0,2000-01-01 01:00:00,2016-04-03 02:51:08,845000/c49f9075d1cffbcf0cf6b9e5c9cc3b40-d.jpg,,
5126500,Samochody ciezarowe. URSUS 1928-1930 ,,,,Andrzej Glajzer ,2007,,ZP Grupa Sp. z o.o. ,,,0,Polish,"ВОЕННАЯ ИСТОРИЯ,ТЕХНИКА",mirknig.com,issue 2011-02,,,,,,,,,,,1181378637,0,,,,,1,,,32851031,pdf,c380f5a3cd404d7de61d304a1adde533,,,"[1181378637]Samochody ciezarowe.URSUS 1928-1930.-Andrzej Glajzer,ZP Grupa Sp.z o.o.,2007.pdf",0,2000-01-01 01:00:00,2016-04-03 02:51:08,845000/c380f5a3cd404d7de61d304a1adde533-g.jpg,,
5126499,"Связи с общественностью, история, теория, практика. ",,,,Рева В.Е. ,1997,,Москва ,,,0,Russian,КНИГИ  ГУМАНИТАРНЫЕ НАУКИ,mirknig.com,issue 2011-02,,,,,,,,,,,1181370812,0,,,,,1,,,3723077,pdf,bed83915c16c4af9234b1cb6c4b97148,,,"[1181370812]Связи с общественностью,история,теория,практика..-Рева В.Е.,Москва,1997.pdf",0,2000-01-01 01:00:00,2016-04-03 02:51:08,845000/bed83915c16c4af9234b1cb6c4b97148-d.jpg,,
5126498,Исторический очерк столетней службы и быта гренадерских сапер и их предшественников-пионер 1797-1897 в связи с общим ходом развития инженерных войск в России ,,,,Ракинт В.А. ,1898,,"С.-Петербург, Тип-я и Литография В.А. Тиханова ",,,0,Russian,КНИГИ ВОЕННАЯ ИСТОРИЯ,mirknig.com,issue 2011-02,,,,,,,,,,,1181375104,0,,,,,1,,,7972888,pdf,bb0fa43270449dd43faf926e44438881,,,[1181375104]Исторический очерк столетней службы и быта гренадерских сапер и их предшественников-пионер 1797-1897.pdf,0,2000-01-01 01:00:00,2016-04-03 02:51:08,845000/bb0fa43270449dd43faf926e44438881-g.jpg,,
5126497,Лжесвидетель,,,,Матусоу Х.,1956,,иностранной литературы,,,0,Russian,КНИГИ  ИСТОРИЯ,mirknig.com,issue 2011-02,,,,,,,,,,,1181371050,0,,,,,1,,,5030725,djvu,b7e8ceaf7faeee1c3ba397c10ebb2be2,,,"[1181371050]Лжесвидетель.-Матусоу Х.,иностранной литературы.djvu",0,2000-01-01 01:00:00,2016-04-03 02:51:08,http://mirknig.com/uploads/posts/2011-02/1296900818_ryaz3.jpg,,
5126496,Археологическая карта России: Нижегородская область. Часть первая.,,,,Под редакцией А.В.Кашкина,2004,,Российская академия наук. Институт археологии,,,0,Russian,КНИГИ  ИСТОРИЯ,mirknig.com,issue 2011-02,,,,,,,,,,,1181372129,0,,,,,1,,,9591923,djvu,b6a99fd40127253e9b8e329940516ef6,,,"[1181372129]Археологическая карта России-Нижегородская область.Часть первая.-Под редакцией А.В.Кашкина,Российская академия наук.djvu",0,2000-01-01 01:00:00,2016-04-03 02:51:08,,,
5126495,"Что делать, если… Вас достали конфликты, капризы и детскиевредности ",,,,Заряна и Нина Некрасовы ,2007,,София,,,0,Russian,КНИГИ ДЛЯ ДЕТЕЙ,mirknig.com,issue 2011-02,,,,,,,,,,,1181376344,0,,,,,1,,,90067162,pdf,b5d6af60d109dfcf3dab8d0d88cb8e14,,,"[1181376344]Что делать,если… Вас достали конфликты,капризы и детские  вредности.-книги-Заряна и Нина Некрасовы,София.pdf",0,2000-01-01 01:00:00,2016-04-03 02:51:08,,,
5126494,Семья и развитие личности. Мать и дитя. ,,,,Дональд Вудз Винникотт ,2004,,Литур ,,,0,Russian,КНИГИ  ДОМ и СЕМЬЯ,mirknig.com,issue 2011-02,,,,,,,,,,,1181371233,0,,,,,1,,,22384670,pdf,b55917fa5ba29d06d4f04e1b6e87b85d,,,"[1181371233]Семья и развитие личности.Мать и дитя..-Дональд Вудз Винникотт,Литур,2004.pdf",0,2000-01-01 01:00:00,2016-04-03 02:51:08,,,
5126493,"Название Вчера: Вьетнам, Лаос, Кампучия. Сегодня: Гренада, Ливан. Завтра…",,,,Коллектив авторов ,1985,,Издательство ПОЛИТИЗДАТ ,,,0,Russian,КНИГИ ВОЕННАЯ ИСТОРИЯ,mirknig.com,issue 2011-02,,,,,,,,,,,1181375982,0,,,,,1,,,14060413,djvu,b5399cfabaf7ac71ae53a4b8455574d3,,,"[1181375982]Вчера-Вьетнам,Лаос,Кампучия.Сегодня-Гренада,Ливан.Завтра….-ПОЛИТИЗДАТ.djvu",0,2000-01-01 01:00:00,2016-04-03 02:51:08,845000/b5399cfabaf7ac71ae53a4b8455574d3-g.jpg,,
5126492,Собрание узаконений и распоряжений правительства за 1922 г.,,,,Совет Народных Комиссаров,1950,,Управление делами СовНаркКома СССР,,,0,Russian,КНИГИ  ИСТОРИЯ,mirknig.com,issue 2011-02,,,,,,,,,,,1181372722,0,,,,,1,,,248674251,pdf,b4e3da0709ba4c6d3b4fc421e52b9c1c,,,"[1181372722]Собрание узаконений и распоряжений правительства за 1922 г..-Совет ных Комиссаров,Управление делами СовНаркКома ССС.pdf",0,2000-01-01 01:00:00,2016-04-03 02:51:08,http://mirknig.com/uploads/posts/2011-02/1297314142_pskov-iso.jpg,,
5126491,Устная история в памятниках Новгорода и Новгородской земли ,,,,Азбелев С.Н. ,2007,,СПб: Дмитрий Буланин ,,,0,Russian,"ГУМАНИТАРНЫЕ НАУКИ, ИСТОРИЯ",mirknig.com,issue 2011-02,,,,,,,,,,,1181375697,0,,,,,1,,,10950928,pdf,b44dc7e97c38faf5412a101172926b8b,,,"[1181375697]Устная история в памятниках Новгорода и Новгородской земли.-Азбелев С.Н.,СПб-Дмитрий Буланин,2007.pdf",0,2000-01-01 01:00:00,2016-04-03 02:51:08,845000/b44dc7e97c38faf5412a101172926b8b-g.jpg,,
5126490,Избранные труды по средневековой истории: Россия и Запад ,,,,Бицилли П.М. ,2006,,Языки славянских культур ,,,0,Russian,"ГУМАНИТАРНЫЕ НАУКИ, ИСТОРИЯ",mirknig.com,issue 2011-02,,,,,,,,,,,1181374303,0,,,,,1,,,35699572,pdf,b43f552713e3c558d660553a46692d4a,,,"[1181374303]Избранные труды по средневековой истории-Россия и Запад.-Бицилли П.М.,Языки славянских культур,2006.pdf",0,2000-01-01 01:00:00,2016-04-03 02:51:08,,,
5126489,Тетрадь по чтению и письму.,,,,"Штец А. А, Сабодах Р. В., Исаева С. А. .",2002,,"М, Аркти: Рольф",,,0,Russian,КНИГИ ДЛЯ ДЕТЕЙ,mirknig.com,issue 2011-02,,,,,,,,,,,1181376201,0,,,,,1,,,37015666,pdf,b172b20a5ea23fce4f25d07f67ef5a56,,,"[1181376201]Тетрадь по чтению и письму..-Штец А.А,Сабодах Р.В.,Исаева С.А..,М,Аркти-Рольф.pdf",0,2000-01-01 01:00:00,2016-04-03 02:51:08,,,
5126488,К истории русской революции ,,,,Троцкий Л.Д. ,1990,,Издательство политической литературы ,,,0,Russian,КНИГИ  ИСТОРИЯ,mirknig.com,issue 2011-02,,,,,,,,,,,1181371091,0,,,,,1,,,4135840,djvu,aa16cd36dc507369b8c3023e975c25b7,,,"[1181371091]К истории русской революции.-Троцкий Л.Д.,Издательство политической литературы,1990.djvu",0,2000-01-01 01:00:00,2016-04-03 02:51:08,http://mirknig.com/uploads/posts/2011-02/1296911568_smol2.jpg,,
5126487,Наставление по стрелковому делу 93-мм реактивный пехотный огнемет (РПО-А) Редактор: С. Г. Сергеев ,,,,,1989,,Воениздат ,,,0,Russian,КНИГИ ВОЕННАЯ ИСТОРИЯ,mirknig.com,issue 2011-02,,,,,,,,,,,1181372352,0,,,,,1,,,43290866,pdf,a9d8e5927099c45274fd4aa38b69d8fe,,,[1181372352]Наставление по стрелковому делу 93-мм реактивный пехотный огнемет(РПО-А).-Воениздат.pdf,0,2000-01-01 01:00:00,2016-04-03 02:51:08,845000/a9d8e5927099c45274fd4aa38b69d8fe-g.jpg,,
5126486,История римской литературы ,,,,Покровский М.М. ,1942,,Наука ,,,0,Russian,КНИГИ  ГУМАНИТАРНЫЕ НАУКИ,mirknig.com,issue 2011-02,,,,,,,,,,,1181374935,0,,,,,1,,,14179232,pdf,a93ef4fccd1916858d21381bc30104c8,,,"[1181374935]История римской литературы.-Покровский М.М.,Наука,1942.pdf",0,2000-01-01 01:00:00,2016-04-03 02:51:08,,,
5126485,100 жемчужин китайской мудрости ,,,,,2007,,"АСТ, Восток-Запад ",,,0,Russian,КНИГИ  ГУМАНИТАРНЫЕ НАУКИ,mirknig.com,issue 2011-02,,,,,,,,,,,1181377014,0,,,,,1,,,5594696,pdf,a8fac52295fb30d2055e458293772c9f,,,"[1181377014]100 жемчужин китайской мудрости.-АСТ,Восток-Запад.pdf",0,2000-01-01 01:00:00,2016-04-03 02:51:08,845000/a8fac52295fb30d2055e458293772c9f-d.jpg,,
5126484,Константин-философ и Мефодий ,,,,Бернштейн С.Б. ,0,,Издательство Московского Университета ,,,0,Russian,КНИГИ  ГУМАНИТАРНЫЕ НАУКИ,mirknig.com,issue 2011-02,,,,,,,,,,,1181374295,0,,,,,1,,,4837923,pdf,a476e3d74a233dd2d2962cd7dd081630,,,"[1181374295]Константин-философ и Мефодий.-Бернштейн С.Б.,Издательство Московского Университета,PDF.pdf",0,2000-01-01 01:00:00,2016-04-03 02:51:08,,,
5126483,Многоканальные радиолокационные станции разведки огневых позиций. Часть 1 ,,,,Голик А. ,1997,,МО ,,,0,Russian,КНИГИ АППАРАТУРА,mirknig.com,issue 2011-02,,,,,,,,,,,1181375484,0,,,,,1,,,5788150,pdf,a4346c7f35b3be9747a7c539758111ba,,,"[1181375484]Многоканальные радиолокационные станции разведки огневых позиций.Часть 1.-Голик А.,МО,1997.pdf",0,2000-01-01 01:00:00,2016-04-03 02:51:08,845000/a4346c7f35b3be9747a7c539758111ba-g.jpg,,
5126482,"Домашняя тетрадь для логопедических занятий с детьми. Выпуск 9. Звуки Т-ТЬ, Д-ДЬ",,,,Жихарева-Норкина Юлия Борисовна,2009,,Владос,,,0,Russian,КНИГИ ДЛЯ ДЕТЕЙ,mirknig.com,issue 2011-02,,,,,,,,,,,1181378199,0,,,,,1,,,43695018,pdf,9f424feeb122d2efe17d614776f55233,,,"[1181378199]Домашняя тетрадь для логопедических занятий с детьми.Выпуск 9.Звуки Т-ТЬ,Д-ДЬ.-Жихарева-Норкина Юлия Борисовна,Влад.pdf",0,2000-01-01 01:00:00,2016-04-03 02:51:08,845000/9f424feeb122d2efe17d614776f55233-g.jpg,,
5126481,Археологическая карта России: Смоленская область. Часть вторая.,,,,Под редакцией Ю.А.Краснова,1997,,Российская академия наук. Институт археологии,,,0,Russian,КНИГИ  ИСТОРИЯ,mirknig.com,issue 2011-02,,,,,,,,,,,1181372191,0,,,,,1,,,77357268,pdf,9e95f44fcb41d8befa9c633873676f34,,,[1181372191]Археологическая карта России-Смоленская область.Часть вторая--Название-Археологическая карта России-Смоленская обла.pdf,0,2000-01-01 01:00:00,2016-04-03 02:51:08,http://mirknig.com/uploads/posts/2011-02/1297109994_04.jpg,,
5126480,"Философия заводной игрушки, или Апология механицизма",,,,Александр Григорьевич Погоняйло,1998,,Издательство Санкт-Петербургского университета,,,0,Russian,КНИГИ  ГУМАНИТАРНЫЕ НАУКИ,mirknig.com,issue 2011-02,,,,,,,,,,,1181373106,0,,,,,1,,,27817730,pdf,9dff8e2e2a009f283b001e5ae3cb4545,,,"[1181373106]Философия заводной игрушки,или Апология механицизма.-Александр Григорьевич Погоняйло,Издательство Санкт-Петербургск.pdf",0,2000-01-01 01:00:00,2016-04-03 02:51:08,845000/9dff8e2e2a009f283b001e5ae3cb4545-g.jpg,,
5126479,"Soviet Operational and Tactical Combat in Manchuria, 1945: August Storm ",,,,David Glantz ,2003,,Frank Cass ,,,0,English ,КНИГИ ВОЕННАЯ ИСТОРИЯ,mirknig.com,issue 2011-02,,,,,,,,,,,1181378732,0,,,,,1,,,10561050,pdf,9d276bc4674cfb9b0bf2654bd7243f71,,,"[1181378732]Soviet Operational and Tactical Combat in Manchuria,1945-August Storm.-David Glantz,Frank Cass,2003.pdf",0,2000-01-01 01:00:00,2016-04-03 02:51:08,845000/9d276bc4674cfb9b0bf2654bd7243f71-g.jpg,,
5126478,Культурология,,,,А.И. Кравченко,2002,,М: Академический Проект,,,0,Russian,КНИГИ  ГУМАНИТАРНЫЕ НАУКИ,mirknig.com,issue 2011-02,,,,,,,,,,,1181378754,0,,,,,1,,,6753434,djvu,99ab5b3c279c3380533bfb7edeca5c9a,,,[1181378754]Культурология--Название-КультурологияАвтор-А.И.КравченкоИздательство-М-Академический ПроектГод-2002Формат-DJVUРазме.djvu,0,2000-01-01 01:00:00,2016-04-03 02:51:08,845000/99ab5b3c279c3380533bfb7edeca5c9a-d.jpg,,
5126477,Инновационный менеджмент: Учеб. пособие для вузов,,,,"Ю.П. Морозов, А.И. Гаврилов, А.Г. Городнов",2003,,Юнити-Дана,,,0,Russian,КНИГИ  ГУМАНИТАРНЫЕ НАУКИ,mirknig.com,issue 2011-02,,,,,,,,,,,1181371602,0,,,,,1,,,29182681,pdf,93a8c05ced8d426a79835199a92b5254,,,"[1181371602]Инновационный менеджмент-Учеб.пособие для вузов.-Ю.П.Морозов,А.И.Гаврилов,А.Г.Городнов,Юнити-Дана.pdf",0,2000-01-01 01:00:00,2016-04-03 02:51:08,845000/93a8c05ced8d426a79835199a92b5254-g.jpg,,
5126476,.,,,Avon - каталог Год / Месяц: 2011 Номер: №5 ,,2011,,,,,0,Ukrainian,"БИЗНЕС,РАЗВЛЕКАТЕЛЬНЫЕ",mirknig.com,issue 2011-02,,,,,,,,,,,1181375474,0,,,,,1,,,9652254,pdf,93804c277388be45e92e278455552005,,,[1181375474]Avon - каталог №5 2011--Название-Avon - каталог Год-месяц-2011 Номер-№5 Формат-pdf Размер-9.2 Mb Язык-украинский Дл.pdf,0,2000-01-01 01:00:00,2016-04-03 02:51:08,845000/93804c277388be45e92e278455552005-g.jpg,,
5126475,Археологическая карта России: Рязанская область. Часть первая.,,,,Под редакцией Ю.А.Краснова,1993,,Российская академия наук. Институт археологии,,,0,Russian,КНИГИ  ИСТОРИЯ,mirknig.com,issue 2011-02,,,,,,,,,,,1181372131,0,,,,,1,,,76714865,pdf,93585a5f4ff635811a0146006bfabad2,,,[1181372131]Археологическая карта России-Рязанская область.Часть первая--Название-Археологическая карта России-Рязанская област.pdf,0,2000-01-01 01:00:00,2016-04-03 02:51:08,,,
5126474,Стихи к весенним детским праздникам ,,,,Ладыгина Т.Б. ,2010,,ТЦ Сфера ,,,0,Russian,КНИГИ ДЛЯ ДЕТЕЙ,mirknig.com,issue 2011-02,,,,,,,,,,,1181379528,0,,,,,1,,,5011937,pdf,90ce0268e1be11892eef19beb7143f0a,,,"[1181379528]Стихи к весенним детским праздникам.-книги-Ладыгина Т.Б.,ТЦ Сфера.pdf",0,2000-01-01 01:00:00,2016-04-03 02:51:08,,,
5126473,Археологическая карта России: Рязанская область. Часть третья.,,,,Под редакцией Ю.А.Краснова,1996,,Российская академия наук. Институт археологии,,,0,Russian,КНИГИ  ИСТОРИЯ,mirknig.com,issue 2011-02,,,,,,,,,,,1181372133,0,,,,,1,,,60664252,pdf,8f44c34556bb909a56f75d52ea1866b0,,,[1181372133]Археологическая карта России-Рязанская область.Часть третья--Название-Археологическая карта России-Рязанская област.pdf,0,2000-01-01 01:00:00,2016-04-03 02:51:08,,,
5126472,Античность и современность. Современные темы в античной Греции.,,,,Бузескул В.,1913,,Типография М.М.Стасюлевича ,,,0,Russian,КНИГИ  ИСТОРИЯ,mirknig.com,issue 2011-02,,,,,,,,,,,1181371225,0,,,,,1,,,11780385,pdf,8d1af53960696a42e4feb1ebe7391d90,,,[1181371225]Античность и современность.Современные темы в античной Греции--Название-Античность и современность.Современные темы.pdf,0,2000-01-01 01:00:00,2016-04-03 02:51:08,,,
5126471,Дизайн квартиры за 5 копеек ,,,,Малова Р. 3. ,2004,,Феникс ,,,0,Russian,"ДИЗАЙН, ДОМ и СЕМЬЯ",mirknig.com,issue 2011-02,,,,,,,,,,,1181374240,0,,,,,1,,,8231094,djvu,8aedb6d081362be45fa795ed06336f93,,,"[1181374240]Дизайн квартиры за 5 копеек.-Малова Р.3.,Феникс,2004.djvu",0,2000-01-01 01:00:00,2016-04-03 02:51:08,845000/8aedb6d081362be45fa795ed06336f93-g.jpg,,
5126470,Собрание законов и распоряжений Рабоче-Крестьянского Правительства Союза Советских Социалистических Республик за 1933 г.,,,,Совет Народных Комиссаров,1948,,Управление делами Совета Министров СССР,,,0,Russian,КНИГИ  ИСТОРИЯ,mirknig.com,issue 2011-02,,,,,,,,,,,1181372725,0,,,,,1,,,100073882,pdf,8a313e895a5bc0eaba2f492ed2d6bd78,,,[1181372725]Собрание законов и распоряжений Рабоче-Крестьянского Правительства Союза Советских Социалистических Республик за 19.pdf,0,2000-01-01 01:00:00,2016-04-03 02:51:08,http://mirknig.com/uploads/posts/2011-02/1297353830_dobrovskij_kirill_i_mefodij_slovenskie_pervouchiteli_1825.jpg,,
5126469,Трагедия эстетизма. О миросозерцании Серена Киркегора. ,,,,Гайденко П.П. ,1997,,Москва. Издательство Республика ,,,0,Russian,КНИГИ  ГУМАНИТАРНЫЕ НАУКИ,mirknig.com,issue 2011-02,,,,,,,,,,,1181371184,0,,,,,1,,,1778978,pdf,82bb0b510ce296f255787e73f8860e0c,,,[1181371184]Трагедия эстетизма.О миросозерцании Серена Киркегора--Автор-Гайденко П.П.Название-Трагедия эстетизма.О миросозерцан.pdf,0,2000-01-01 01:00:00,2016-04-03 02:51:08,845000/82bb0b510ce296f255787e73f8860e0c-g.jpg,,
5126468,Хозяйственное и финансовое право,,,,Коллектив,2006,,АНО «Центр публично-правовых исследований» (ЦППИ),,,0,Russian,КНИГИ  ГУМАНИТАРНЫЕ НАУКИ,mirknig.com,issue 2011-02,,,,,,,,,,,1181371237,0,,,,,1,,,3150683,pdf,8277de3b7663e631e69570c49dc9eb18,,,[1181371237]Административное и финансовое право.-АНО «Центр публично-правовых исследований»(ЦППИ).pdf,0,2000-01-01 01:00:00,2016-04-03 02:51:08,845000/8277de3b7663e631e69570c49dc9eb18-d.jpg,,
5126467,Социальный капитал: теория и психологические исследования,,,,"Н.М. Лебедева, А.Н. Татарко",2009,,Москва: РУДН,,,0,Russian,КНИГИ  ГУМАНИТАРНЫЕ НАУКИ,mirknig.com,issue 2011-02,,,,,,,,,,,1181373379,0,,,,,1,,,1740090,pdf,8219de90a7b72cfa4002ce206df534b2,,,[1181373379]Социальный капитал-теория и психологические исследования--Название-Социальный капитал-теория и психологические иссл.pdf,0,2000-01-01 01:00:00,2016-04-03 02:51:08,845000/8219de90a7b72cfa4002ce206df534b2-g.jpg,,
5126466,Дикорастущие плоды и ягоды ,,,,Шапиро Д.К. и др. ,1969,,Мн.: Урожай ,,,0,Russian,КНИГИ ЕСТЕСТВЕННЫЕ НАУКИ,mirknig.com,issue 2011-02,,,,,,,,,,,1181372151,0,,,,,1,,,8855433,pdf,8108c4f06fedb257573ad1991e22c38b,,,[1181372151]Дикорастущие плоды и ягоды--Автор-Шапиро Д.К.и др.Название-Дикорастущие плоды и ягоды Издательство-Мн.-Урожай Год-1.pdf,0,2000-01-01 01:00:00,2016-04-03 02:51:08,845000/8108c4f06fedb257573ad1991e22c38b-g.jpg,,
5126465,Культура Непала. Традиции и современность ,,,,Коллектив ,2001,,«Алетейя» ,,,0,Russian,КНИГИ  ГУМАНИТАРНЫЕ НАУКИ,mirknig.com,issue 2011-02,,,,,,,,,,,1181373214,0,,,,,1,,,14735337,pdf,7ddcafda7a6cb646ff9864cce4de55ca,,,"[1181373214]Культура Непала.Традиции и современность.-«Алетейя»,2001.pdf",0,2000-01-01 01:00:00,2016-04-03 02:51:08,845000/7ddcafda7a6cb646ff9864cce4de55ca-g.jpg,,
5126464,Собрание законов и распоряжений Рабоче-Крестьянского Правительства Союза Советских Социалистических Республик за 1935 г.,,,,Совет Народных Комиссаров,1947,,Управление делами Совета Министров СССР,,,0,Russian,КНИГИ  ИСТОРИЯ,mirknig.com,issue 2011-02,,,,,,,,,,,1181372727,0,,,,,1,,,127273689,pdf,7d7e1ffe11d0333b7ca96991cc0d0f5d,,,[1181372727]Собрание законов и распоряжений Рабоче-Крестьянского Правительства Союза Советских Социалистических Республик за 19.pdf,0,2000-01-01 01:00:00,2016-04-03 02:51:08,,,
5126463,Легендарная чапаевская ,,,,"Н. М. Хлебников, П. С. Евлампиев, Я. А. Володин ",1968,,Знание ,,,0,Russian,"ВОЕННАЯ ИСТОРИЯ, ИСТОРИЯ",mirknig.com,issue 2011-02,,,,,,,,,,,1181377110,0,,,,,1,,,94271092,pdf,7a68bce5240b4456a22baa19b3a7c45f,,,"[1181377110]Легендарная чапаевская.-Н.М.Хлебников,П.С.Евлампиев,Я.А.Володин,Знание,1968.pdf",0,2000-01-01 01:00:00,2016-04-03 02:51:08,845000/7a68bce5240b4456a22baa19b3a7c45f-g.jpg,,
5126462,.,,,Планета женщины Год / Месяц: 2010/март Номер: №3,,0,,,,,0,Russian,"ЗДОРОВЬЕ,РАЗВЛЕКАТЕЛЬНЫЕ",mirknig.com,issue 2011-02,,,,,,,,,,,1181371245 Качество: отличное,0,,,,,1,,,24031699,pdf,76eac7d16aa1df668b4be485d5f6bf68,,,[1181371245]Планета женщины №3 2010.-.pdf,0,2000-01-01 01:00:00,2016-04-03 02:51:08,845000/76eac7d16aa1df668b4be485d5f6bf68-g.jpg,,
5126461,Рассада. Использование и развитие метода Митлайдера в России.,,,,Угарова Т.Ю. ,2002,,Маркетинг ,,,0,Russian,"ДОМ и СЕМЬЯ, ХОББИ и РЕМЕСЛА",mirknig.com,issue 2011-02,,,,,,,,,,,1181378343,0,,,,,1,,,53643194,djvu,76acbed21e884afb66ff5f0a9d2ad0ed,,,"[1181378343]Рассада.Использование и развитие метода Митлайдера в России..-Угарова Т.Ю.,Маркетинг,2002.djvu",0,2000-01-01 01:00:00,2016-04-03 02:51:08,,,
5126460,Мудрость Востока и Запада Психология равновесия ,,,,"Далай-лама, Пол Экман ",2011,,Питер ,,,0,Russian,КНИГИ  ГУМАНИТАРНЫЕ НАУКИ,mirknig.com,issue 2011-02,,,,,,,,,,,1181370739,0,,,,,1,,,29131059,pdf,73c33114f5278e411be5401eb3184677,,,[1181370739]Мудрость Востока и Запада.Психология равновесия--Название-Мудрость Востока и Запада Психология равновесия Автор-Дал.pdf,0,2000-01-01 01:00:00,2016-04-03 02:51:08,845000/73c33114f5278e411be5401eb3184677-g.jpg,,
5126459,Археологическая карта России: Смоленская область. Часть первая.,,,,Под редакцией Ю.А.Краснова,1997,,Российская академия наук. Институт археологии,,,0,Russian,КНИГИ  ИСТОРИЯ,mirknig.com,issue 2011-02,,,,,,,,,,,1181372189,0,,,,,1,,,106248855,pdf,739428abad406b9e524e426deb8831f5,,,[1181372189]Археологическая карта России-Смоленская область.Часть первая.--Название-Археологическая карта России-Смоленская обл.pdf,0,2000-01-01 01:00:00,2016-04-03 02:51:08,http://mirknig.com/uploads/posts/2011-02/1297109920_03.jpg,,
5126458,Конкурентные преимущества системной социологии,,,,А.А. Давыдов,2008,,Москва: КомКнига,,,0,Russian,КНИГИ  ГУМАНИТАРНЫЕ НАУКИ,mirknig.com,issue 2011-02,,,,,,,,,,,1181375034,0,,,,,1,,,9043877,pdf,71d409f9adbc7c268905917c7216c05e,,,"[1181375034]Конкурентные преимущества системной социологии.-А.А.Давыдов,Москва-КомКнига.pdf",0,2000-01-01 01:00:00,2016-04-03 02:51:08,,,
5126457,Социальная антропология,,,,"Ярская-Смирнова Е. Р., Романов П. В.",2004,,Ростов-на-Дону: Феникс,,,0,Russian,КНИГИ ЕСТЕСТВЕННЫЕ НАУКИ,mirknig.com,issue 2011-02,,,,,,,,,,,1181373759,0,,,,,1,,,1859168,pdf,71d1201aa28e8c4c951b5d95ebc8fab9,,,"[1181373759]Социальная антропология--Название-Социальная антропологияАвтор-Ярская-Смирнова Е.Р.,Романов П.В.Издательство-Ростов.pdf",0,2000-01-01 01:00:00,2016-04-03 02:51:08,845000/71d1201aa28e8c4c951b5d95ebc8fab9-d.jpg,,
5126456,Писцовые материалы Ярославского уезда 16 века. Вотчинные земли.,,,,"Составители Беликов Ю.В., Ермолаев С.С., Колычева Е.И.",1999,,Дмитрий Буланин,,,0,Russian,КНИГИ  ИСТОРИЯ,mirknig.com,issue 2011-02,,,,,,,,,,,1181370942,0,,,,,1,,,87045002,pdf,7138e3420180d25ca8dde92cadcd83c1,,,[1181370942]Писцовые материалы Ярославского уезда 16 века.Вотчинные земли--Название-Писцовые материалы Ярославского уезда 16 ве.pdf,0,2000-01-01 01:00:00,2016-04-03 02:51:08,,,
5126455,На перекрестке цивилизаций. История Византии. Османская империя ,,,,"Поль Лемерль, Димитрис Кицикис ",2006,,Весь Мир ,,,0,Russian,"ИСТОРИЯ, КУЛЬТУРА и ИСКУССТВО",mirknig.com,issue 2011-02,,,,,,,,,,,1181371213,0,,,,,1,,,2307613,pdf,709d6d689e146237db28ef7a3f5c6819,,,"[1181371213]На перекрестке цивилизаций.История Византии.Османская империя.-Поль Лемерль,Димитрис Кицикис,Весь Мир.pdf",0,2000-01-01 01:00:00,2016-04-03 02:51:08,http://mirknig.com/uploads/posts/2011-02/1296911768_tula2.jpg,,
5126454,Бизнес-разведка,,,,А.И. Доронин,2006,,Ось-89,,,0,Russian,КНИГИ БИЗНЕС,mirknig.com,issue 2011-02,,,,,,,,,,,1181374743,0,,,,,1,,,2838922,pdf,6b924dd73560b5ba6b38461f0de0752c,,,"[1181374743]Бизнес-разведка--Название-Бизнес-разведкаАвтор-А.И.ДоронинИздательство-Ось-89Год-2006Формат-pdfРазмер-2,71 mbПредла.pdf",0,2000-01-01 01:00:00,2016-04-03 02:51:08,845000/6b924dd73560b5ba6b38461f0de0752c-d.jpg,,
5126453,Писцовые материалы Ярославского уезда 16 века. Поместные земли.,,,,"Составители Беликов Ю.В., Ермолаев С.С.",2000,,Дмитрий Буланин,,,0,Russian,КНИГИ  ИСТОРИЯ,mirknig.com,issue 2011-02,,,,,,,,,,,1181370949,0,,,,,1,,,91573220,pdf,6b228d888fb8b990b4a02d8bcd3f5aa2,,,[1181370949]Писцовые материалы Ярославского уезда 16 века.Поместные земли--Название-Писцовые материалы Ярославского уезда 16 ве.pdf,0,2000-01-01 01:00:00,2016-04-03 02:51:08,http://mirknig.com/uploads/posts/2011-02/1296900643_ryaz1.jpg,,
5126452,Собрание узаконений и распоряжений правительства за 1919 г.,,,,Совет Народных Комиссаров,1943,,Управление делами СовНаркКома СССР,,,0,Russian,КНИГИ  ИСТОРИЯ,mirknig.com,issue 2011-02,,,,,,,,,,,1181372539,0,,,,,1,,,97915738,pdf,6a2eb99a0cdf59cab3a6fd1a04dc2351,,,"[1181372539]Собрание узаконений и распоряжений правительства за 1919 г..-Совет ных Комиссаров,Управление делами СовНаркКома ССС.pdf",0,2000-01-01 01:00:00,2016-04-03 02:51:08,http://mirknig.com/uploads/posts/2011-02/1297166782_history808.jpg,,
5126451,Город и бизнес: формирование социальной ответственности российских компаний,,,,"С.В. Ивченко, М.И. Либоракина, Т.С. Сиваева",2003,,Фонд Институт экономики города,,,0,Russian,КНИГИ БИЗНЕС,mirknig.com,issue 2011-02,,,,,,,,,,,1181371855,0,,,,,1,,,24637540,pdf,674e0cdde362070fddca61a503d61fb9,,,"[1181371855]Город и бизнес-формирование социальной ответственности российских компаний.-С.В.Ивченко,М.И.Либоракина,Т.С.Сиваева,.pdf",0,2000-01-01 01:00:00,2016-04-03 02:51:08,845000/674e0cdde362070fddca61a503d61fb9-g.jpg,,
5126450,Мировоззрение Джалаладина Руми,,,,Одилов Н.,1974,,Ирфон ,,,0,Russian,КНИГИ  ГУМАНИТАРНЫЕ НАУКИ,mirknig.com,issue 2011-02,,,,,,,,,,,1181372460,0,,,,,1,,,10874240,pdf,64baf0d271d938acd616f7a39f66065f,,,"[1181372460]Мировоззрение Джалаладина Руми.-Одилов Н.,Ирфон.pdf",0,2000-01-01 01:00:00,2016-04-03 02:51:08,845000/64baf0d271d938acd616f7a39f66065f-g.jpg,,
5126449,Омоложение и подтяжка лица. Быстро. Просто. Безопасно. Тайна кремлевского метода и его суперэффективности,,,,Медведев К. ,2010,,АСТ ,,,0,Russian,КНИГИ ЗДОРОВЬЕ,mirknig.com,issue 2011-02,,,,,,,,,,,1181375074,0,,,,,1,,,10529150,pdf,64769de98dde8c1d4724e7c23fbf5f6e,,,"[1181375074]Омоложение и подтяжка лица.Быстро.Просто.Безопасно.-Медведев К.,АСТ,2010.pdf",0,2000-01-01 01:00:00,2016-04-03 02:51:08,845000/64769de98dde8c1d4724e7c23fbf5f6e-g.jpg,,
5126448,Прошлое и настоящее г.Твери,,,,Колосов В.И.,1994,,Леан,,,0,Russian,КНИГИ  ИСТОРИЯ,mirknig.com,issue 2011-02,,,,,,,,,,,1181370896,0,,,,,1,,,81148887,pdf,63a189516790092b78e61ff7e4e68225,,,[1181370896]Прошлое и настоящее г.Твери--Название-Прошлое и настоящее г.ТвериАвтор-Колосов В.И.Издательство-ЛеанГод-1994Формат-.pdf,0,2000-01-01 01:00:00,2016-04-03 02:51:08,http://mirknig.com/uploads/posts/2011-02/1296898500_history802.jpg,,
5126447,История русского символизма ,,,,Пайман А. ,2000,,Республика ,,,0,Russian,КНИГИ  ГУМАНИТАРНЫЕ НАУКИ,mirknig.com,issue 2011-02,,,,,,,,,,,1181373215,0,,,,,1,,,3909662,pdf,62fe241bafc76bd989cd4e6c7c94795d,,,"[1181373215]История русского символизма.-Пайман А.,Республика,2000.pdf",0,2000-01-01 01:00:00,2016-04-03 02:51:08,845000/62fe241bafc76bd989cd4e6c7c94795d-g.jpg,,
5126446,"Секреты чтения. Учимся читать дома. Книга для родителей и всех, кто хочет открыть для своего ребенка волшебный мир чтения. ",,,,"Штец А. А., Сабодах Р. В., Исаева С. А.",2003,,Аркти ,,,0,Russian,КНИГИ ДЛЯ ДЕТЕЙ,mirknig.com,issue 2011-02,,,,,,,,,,,1181376195,0,,,,,1,,,5249487,pdf,62c4b90b3bc2911834ea5da5a7a9d8ae,,,"[1181376195]Секреты чтения.Учимся читать дома.-Штец А.А.,Сабодах Р.В.,Исаева С.А.,Аркти,М.2003г.pdf",0,2000-01-01 01:00:00,2016-04-03 02:51:08,,,
5126445,Пергаменные рукописи библиотеки Академии наук СССР ,,,,Бубнов Н.Ю. и др. (сост.) ,1976,,Ленинград. Издательство Наука ,,,0,Russian,КНИГИ  ИСТОРИЯ,mirknig.com,issue 2011-02,,,,,,,,,,,1181370794,0,,,,,1,,,4759526,djvu,6055a32f493a6c72be0e24701f4a753f,,,"[1181370794]Пергаменные рукописи библиотеки Академии наук СССР.-Бубнов Н.Ю.и др.(сост.),Ленинград.Издательство Наука,1976.djvu",0,2000-01-01 01:00:00,2016-04-03 02:51:08,,,
5126444,The Paras: The British Parachute Regiment ,,,,James G. Shortt ,1985,,Arms  Armour Press ,,,0,English ,КНИГИ ВОЕННАЯ ИСТОРИЯ,mirknig.com,issue 2011-02,,,,,,,,,,,1181373900,0,,,,,1,,,49490337,pdf,5ff8fa7a92d9578a2a1f0bdf5a32ce0c,,,"[1181373900]The Paras-The British Parachute Regiment.-James G.Shortt,Arms  Armour Press,1985.pdf",0,2000-01-01 01:00:00,2016-04-03 02:51:08,845000/5ff8fa7a92d9578a2a1f0bdf5a32ce0c-g.jpg,,
5126443,Философы двадцатого века. Книга первая,,,,"Ред.: Алексей Михайлович Руткевич, И.С. Вдовина ",2004,,Москва: Искусство XXI век,,,0,Russian,КНИГИ  ГУМАНИТАРНЫЕ НАУКИ,mirknig.com,issue 2011-02,,,,,,,,,,,1181373136,0,,,,,1,,,2463759,pdf,5f7aa6544d15543367858ebd7be19dff,,,"[1181373136]Философы двадцатого века.Книга первая.-Ред.-Алексей Михайлович Руткевич,И.С.Вдовина,Москва-Искусство XXI век.pdf",0,2000-01-01 01:00:00,2016-04-03 02:51:08,845000/5f7aa6544d15543367858ebd7be19dff-g.jpg,,
5126442,"Дидактический материал для развития лексико-грамматических категорий у детей 5-7 лет.Дом, Квартира, Мебель",,,,Русланова Н.С. ,2005,,АРКТИ,,,0,Russian,КНИГИ ДЛЯ ДЕТЕЙ,mirknig.com,issue 2011-02,,,,,,,,,,,1181378929,0,,,,,1,,,8985153,pdf,5eeb5a766185a5a630bc46abc955ca87,,,"[1181378929]Дидактический материал для развития лексико-грамматических категорий у детей 5-7 лет. Дом,Квартира,Мебель.-Русланов.pdf",0,2000-01-01 01:00:00,2016-04-03 02:51:08,845000/5eeb5a766185a5a630bc46abc955ca87-g.jpg,,
5126441,Українська еміграція 1890-1914р.р ,,,,Качарба С. Рожик М. ,0,,Львов ,,,0,Ukrainian,КНИГИ  ИСТОРИЯ,mirknig.com,issue 2011-02,,,,,,,,,,,1181371484,0,,,,,1,,,38755065,pdf,5eb59090d92d39df93ee3da214e8f7df,,,"[1181371484]Українська еміграція 1890-1914р.р.-Качарба С.Рожик М.,Львов,Качарба С.Рожик М..pdf",0,2000-01-01 01:00:00,2016-04-03 02:51:08,,,
5126440,Шекспир. Ремесло драматурга ,,,,Аникст А. ,1974,,Советский писатель ,,,0,Russian,КНИГИ  ГУМАНИТАРНЫЕ НАУКИ,mirknig.com,issue 2011-02,,,,,,,,,,,1181375259,0,,,,,1,,,10955696,pdf,5d157ff2a13abc9d8c24f93fb812872e,,,"[1181375259]Шекспир.Ремесло драматурга.-Аникст А.,Советский писатель,1974.pdf",0,2000-01-01 01:00:00,2016-04-03 02:51:08,,,
5126439,Программа и устав Коминтерна,,,,VI Конгресс Коммунистического Интернационала,1932,,Партийное Издательство,,,0,Russian,КНИГИ  ИСТОРИЯ,mirknig.com,issue 2011-02,,,,,,,,,,,1181370901,0,,,,,1,,,3202323,pdf,5b92afdb70c57bac625d37d2714f9967,,,[1181370901]Программа и устав Коминтерна--Название-Программа и устав КоминтернаАвтор-VI Конгресс Коммунистического Интернациона.pdf,0,2000-01-01 01:00:00,2016-04-03 02:51:08,http://mirknig.com/uploads/posts/2011-02/1296900329_komi.jpg,,
5126438,Школа красоты для стервы ,,,,"Е. Шацкая, А. Александрова ",2007,,"АСТ, Астрель, ",,,0,Russian,КНИГИ  ДОМ и СЕМЬЯ,mirknig.com,issue 2011-02,,,,,,,,,,,1181376681,0,,,,,1,,,5863756,djvu,598bec1a57c9ecf166295b8fe0a55243,,,"[1181376681]Школа красоты для стервы.-Е.Шацкая,А.Александрова,АСТ,Астрель,,2007.djvu",0,2000-01-01 01:00:00,2016-04-03 02:51:08,,,
5126437,Маркетинг города,,,,Денис Валерьевич Визгалов,2008,,Фонд Институт экономики города,,,0,Russian,КНИГИ  ГУМАНИТАРНЫЕ НАУКИ,mirknig.com,issue 2011-02,,,,,,,,,,,1181371560,0,,,,,1,,,1978879,pdf,5477c1f89b49a2faae07736a901b49e0,,,"[1181371560]Маркетинг города.-Денис Валерьевич Визгалов,Фонд Институт экономики города.pdf",0,2000-01-01 01:00:00,2016-04-03 02:51:08,845000/5477c1f89b49a2faae07736a901b49e0-d.jpg,,
5126436,Armor Attacks: The Tank Platoon - An Interactive Exercise in Small-Unit Tactics and Leadership ,,,,John F. Antal ,1991,,Presidio Press ,,,0,English ,КНИГИ ВОЕННАЯ ИСТОРИЯ,mirknig.com,issue 2011-02,,,,,,,,,,,1181378275,0,,,,,1,,,147214462,pdf,518831e26662aeb73ac7ff29c46a67d3,,,"[1181378275]Armor Attacks-The Tank Platoon.-John F.Antal,Presidio Press,1991.pdf",0,2000-01-01 01:00:00,2016-04-03 02:51:08,845000/518831e26662aeb73ac7ff29c46a67d3-g.jpg,,
5126435,Социология культуры,,,,Ирхин Ю.В.,2006,,М.: Экзамен,,,0,Russian,КНИГИ  ГУМАНИТАРНЫЕ НАУКИ,mirknig.com,issue 2011-02,,,,,,,,,,,1181378771,0,,,,,1,,,2650329,pdf,4c2d8a99026eabf4c1568aef0df29fa4,,,"[1181378771]Социология культуры--Название-Социология культурыАвтор-Ирхин Ю.В.Издательство-М.-ЭкзаменГод-2006Формат-pdfРазмер-2,.pdf",0,2000-01-01 01:00:00,2016-04-03 02:51:08,845000/4c2d8a99026eabf4c1568aef0df29fa4-g.jpg,,
5126434,Цифровая обработка радиолокационной информации ,,,,Кузьмин С. ,1967,,Советское радио ,,,0,Russian,КНИГИ АППАРАТУРА,mirknig.com,issue 2011-02,,,,,,,,,,,1181376376,0,,,,,1,,,53347491,pdf,4bce292a16be6b14b05d503d2d56f0f8,,,"[1181376376]Цифровая обработка радиолокационной информации.-Кузьмин С.,Советское радио,1967.pdf",0,2000-01-01 01:00:00,2016-04-03 02:51:08,845000/4bce292a16be6b14b05d503d2d56f0f8-g.jpg,,
5126433,"Лекарственные растения, применяемые при глазных болезнях",,,,Федоров В.Я. ,1999,,ИЦ Терминал Плюс ,,,0,Russian,КНИГИ ЗДОРОВЬЕ,mirknig.com,issue 2011-02,,,,,,,,,,,1181377324,0,,,,,1,,,14637754,pdf,47ac96121057e2fe8207e4880879bf74,,,"[1181377324]Лекарственные растения,применяемые при глазных болезнях.-Федоров В.Я.,ИЦ Терминал Плюс.pdf",0,2000-01-01 01:00:00,2016-04-03 02:51:08,845000/47ac96121057e2fe8207e4880879bf74-g.jpg,,
5126432,Тарутинское сражение ,,,,В.А. Бессонов ,2008,,ООО Книга ,,,0,Russian,КНИГИ ВОЕННАЯ ИСТОРИЯ,mirknig.com,issue 2011-02,,,,,,,,,,,1181374184,0,,,,,1,,,108894394,pdf,476f0a449bc6311a71c51835faaa41da,,,"[1181374184]Тарутинское сражение.-В.А.Бессонов,ООО Книга,2008.pdf",0,2000-01-01 01:00:00,2016-04-03 02:51:08,845000/476f0a449bc6311a71c51835faaa41da-g.jpg,,
5126431,"Белая книга. Европейский кризис. Дипломатическая переписка Англии, предшествовавшая войне. Август 1914 г.",,,,Министерство Иностранных Дел Великобритании,1914,,«Освобождение» С.И.Питтель ,,,0,Russian,КНИГИ  ИСТОРИЯ,mirknig.com,issue 2011-02,,,,,,,,,,,1181371185,0,,,,,1,,,34666954,pdf,467892a156ca9824bcd9c7b8e5f37008,,,"[1181371185]Белая книга.Европейский кризис.Дипломатическая переписка Англии,предшествовавшая войне.Август 1914 г.--Название-Бел.pdf",0,2000-01-01 01:00:00,2016-04-03 02:51:08,http://mirknig.com/uploads/posts/2011-02/1296911686_tula1.jpg,,
5126430,Археологическая карта России:Владимирская область,,,,Под общей редакцией Ю.А.Краснова,1995,,Российская академия наук. Институт археологии,,,0,Russian,КНИГИ  ИСТОРИЯ,mirknig.com,issue 2011-02,,,,,,,,,,,1181370716,0,,,,,1,,,109075022,pdf,43ef8319511a4eeeb599f06403011069,,,[1181370716]Археологическая карта России-Владимирская область--Название-Археологическая карта России-Владимирская областьАвтор-.pdf,0,2000-01-01 01:00:00,2016-04-03 02:51:08,http://mirknig.com/uploads/posts/2011-02/1296756968_history796.jpg,,
5126429,Политика инвалидности: социальное гражданство инвалидов в современной России,,,,"П.В. Романов, Е.Р. Ярская-Смирнова",2006,,Саратов. Изд-во “Научная книга”,,,0,Russian,КНИГИ  ГУМАНИТАРНЫЕ НАУКИ,mirknig.com,issue 2011-02,,,,,,,,,,,1181373697,0,,,,,1,,,1480655,pdf,40f69593993ca51aaea078fe7862e584,,,[1181373697]Политика инвалидности-социальное гражданство инвалидов в современной России--Название-Политика инвалидности-социаль.pdf,0,2000-01-01 01:00:00,2016-04-03 02:51:08,,,
5126428,Старо-русские солнечные боги и богини. Историко-этнографическое исследование ,,,,Соколов М. ,1887,,Типография А.Т. Токарева ,,,0,Russian,КНИГИ  ИСТОРИЯ,mirknig.com,issue 2011-02,,,,,,,,,,,1181370990,0,,,,,1,,,4366643,djvu,3ee119ffefdd79e7ff593917c0ba4fa6,,,"[1181370990]Старо-русские солнечные боги и богини.Историко-этнографическое исследование.-Соколов М.,Типография А.Т.Токарева,188.djvu",0,2000-01-01 01:00:00,2016-04-03 02:51:08,http://mirknig.com/uploads/posts/2011-02/1296900714_ryaz2.jpg,,
5126427,Лечение травами. 365 ответов и вопросов ,,,,,2010,,"АСТ, Сова ",,,0,Russian,КНИГИ ЗДОРОВЬЕ,mirknig.com,issue 2011-02,,,,,,,,,,,1181375711,0,,,,,1,,,4091356,djvu,3be38d750212ecd56231b40dd75563e0,,,"[1181375711]Лечение травами.365 ответов и вопросов.-АСТ,Сова,2010.djvu",0,2000-01-01 01:00:00,2016-04-03 02:51:08,845000/3be38d750212ecd56231b40dd75563e0-g.jpg,,
5126426,"Деяния Петра Великаго, мудраго преобразителя России, собранныя из достоверных источников и расположенныя по годам. Часть 1 ",,,,Голиков И. И ,1788,,"Москва: Унив. тип., у Н. Новикова ",,,0,Russian,КНИГИ  ИСТОРИЯ,mirknig.com,issue 2011-02,,,,,,,,,,,1181370612,0,,,,,1,,,42137447,pdf,3adfcf2c39e6924b89672b1a9d2e2f51,,,"[1181370612]Деяния Петра Великаго,мудраго преобразителя России,собранныя из достоверных источников и расположенныя по годам.Час.pdf",0,2000-01-01 01:00:00,2016-04-03 02:51:08,http://mirknig.com/uploads/posts/2011-02/1296738459_history799.jpg,,
5126425,Professional Business Connectivity Services in SharePoint 2010 ,,,,"Scot P. Hillier, Brad Stevenson ",2011,,Wrox,,,0,English ,КНИГИ БИЗНЕС,mirknig.com,issue 2011-02,,,,,,,,,,,1181374614,0,,,,,1,,,13464438,pdf,32f907b5921af9efff048455a331e2db,,,"[1181374614]Professional Business Connectivity Services in SharePoint 2010.-Scot P.Hillier,Brad Stevenson,Wrox,2011.pdf",0,2000-01-01 01:00:00,2016-04-03 02:51:08,845000/32f907b5921af9efff048455a331e2db-g.jpg,,
5126424,Мир на ладошке. Живой океан.,,,,Умница ,2009,,Умница,,,0,Russian,КНИГИ ДЛЯ ДЕТЕЙ,mirknig.com,issue 2011-02,,,,,,,,,,,1181379422,0,,,,,1,,,25325757,pdf,32c343354ecd8403217b718e9d5a6233,,,"[1181379422]Мир на ладошке.Живой океан..-Умница,Умница,2009.pdf",0,2000-01-01 01:00:00,2016-04-03 02:51:08,,,
5126423,Авиационные комплексы радиолокационного дозора и наведения ,,,,Верба В. ,2008,,Радиотехника ,,,0,Russian,КНИГИ АППАРАТУРА,mirknig.com,issue 2011-02,,,,,,,,,,,1181376364,0,,,,,1,,,31860157,pdf,31a18947accc779b9f53a88885cd1933,,,"[1181376364]Авиационные комплексы радиолокационного дозора и наведения.-Верба В.,Радиотехника,2008.pdf",0,2000-01-01 01:00:00,2016-04-03 02:51:08,845000/31a18947accc779b9f53a88885cd1933-g.jpg,,
5126422,Букварёнок ,,,,Георгий Юдин ,1980,,Детская Литература ,,,0,Russian,КНИГИ ДЛЯ ДЕТЕЙ,mirknig.com,issue 2011-02,,,,,,,,,,,1181379007,0,,,,,1,,,6322693,djvu,2fe80c58335dd48e63e2cd6cefdedbcc,,,"[1181379007]Букварёнок.-Георгий Юдин,Детская Литература,1980.djvu",0,2000-01-01 01:00:00,2016-04-03 02:51:08,,,
5126421,Археологическая карта России: Костромская область,,,,Под общей редакцией Ю.А.Краснова,1999,,Издательская фирма «Восточная литература» РАН,,,0,Russian,КНИГИ  ИСТОРИЯ,mirknig.com,issue 2011-02,,,,,,,,,,,1181370717,0,,,,,1,,,100038491,pdf,29ad208f295f9127ed49342966caa984,,,[1181370717]Археологическая карта России-Костромская область--Название-Археологическая карта России-Костромская областьАвтор-По.pdf,0,2000-01-01 01:00:00,2016-04-03 02:51:08,,,
5126420,Археологическая карта России: Курская область. Часть вторая.,,,,Автор-составитель А.В.Кашкин,2000,,Российская академия наук. Институт археологии,,,0,Russian,КНИГИ  ИСТОРИЯ,mirknig.com,issue 2011-02,,,,,,,,,,,1181372127,0,,,,,1,,,36817682,djvu,281fd35bcb7a96d16b20103b51114b95,,,[1181372127]Археологическая карта России-Курская область.Часть вторая--Название-Археологическая карта России-Курская область.Ча.djvu,0,2000-01-01 01:00:00,2016-04-03 02:51:08,,,
5126419,Социально-экономическое развитие России. Сборник статей к 100-летию со дня рождения Николая Михайловича Дружинина.,,,,Ответственный редактор академик С.Л. Тихвинский,1986,,Наука,,,0,Russian,КНИГИ  ИСТОРИЯ,mirknig.com,issue 2011-02,,,,,,,,,,,1181371075,0,,,,,1,,,17650626,pdf,27d43e7f18a5325fa6d353de24b093a1,,,[1181371075]Социально-экономическое развитие России.Сборник статей к 100-летию со дня рождения Николая Михайловича Дружинина--Н.pdf,0,2000-01-01 01:00:00,2016-04-03 02:51:08,,,
5126418,Гигиеническая гимнастика и закаливание ,,,,"М.М.Букалов, С.В.Янанис ",1965,,Медицина ,,,0,Russian,КНИГИ ЗДОРОВЬЕ,mirknig.com,issue 2011-02,,,,,,,,,,,1181374742,0,,,,,1,,,1817334,pdf,2759665848a03865350f1fcde6bce356,,,"[1181374742]Гигиеническая гимнастика и закаливание--Автор-М.М.Букалов,С.В.Янанис Название-Гигиеническая гимнастика и закаливани.pdf",0,2000-01-01 01:00:00,2016-04-03 02:51:08,845000/2759665848a03865350f1fcde6bce356-g.jpg,,
5126417,Археологическая карта России: Тульская область. Часть вторая.,,,,Под редакцией А.В.Кашкина,2002,,Российская академия наук. Институт археологии,,,0,Russian,КНИГИ  ИСТОРИЯ,mirknig.com,issue 2011-02,,,,,,,,,,,1181372195,0,,,,,1,,,81118655,pdf,2605ac56b0cb4626dae642562bb74587,,,[1181372195]Археологическая карта России-Тульская область.Часть вторая--Название-Археологическая карта России-Тульская область..pdf,0,2000-01-01 01:00:00,2016-04-03 02:51:08,,,
5126416,Расчет дальности действия радиолокационных станций ,,,,Голев К. ,1960,,Сов. радио ,,,0,Russian,КНИГИ АППАРАТУРА,mirknig.com,issue 2011-02,,,,,,,,,,,1181376356,0,,,,,1,,,6437014,pdf,256b6d5ed1bfc7d74a36afad2cefe577,,,"[1181376356]Расчет дальности действия радиолокационных станций.-Голев К.,Сов.радио,1960.pdf",0,2000-01-01 01:00:00,2016-04-03 02:51:08,845000/256b6d5ed1bfc7d74a36afad2cefe577-g.jpg,,
5126415,Мир на ладошке. Город и деревня. ,,,,Умница ,2008,,Умница ,,,0,Russian,КНИГИ ДЛЯ ДЕТЕЙ,mirknig.com,issue 2011-02,,,,,,,,,,,1181379550,0,,,,,1,,,31607564,pdf,252d6fe681b44a9429023a5510900b18,,,"[1181379550]Мир на ладошке.Город и деревня.-Умница,Умница,2008.pdf",0,2000-01-01 01:00:00,2016-04-03 02:51:08,,,
5126414,Археологическая карта России: Рязанская область. Часть вторая.,,,,Под редакцией Ю.А.Краснова,1994,,Российская академия наук. Институт археологии,,,0,Russian,КНИГИ  ИСТОРИЯ,mirknig.com,issue 2011-02,,,,,,,,,,,1181372132,0,,,,,1,,,54666913,pdf,230cc358a40623749694f8c99c75ba47,,,[1181372132]Археологическая карта России-Рязанская область.Часть вторая--Название-Археологическая карта России-Рязанская област.pdf,0,2000-01-01 01:00:00,2016-04-03 02:51:08,,,
5126413,Ритуал в Древней Месопотамии,,,,Емельянов В.В.,2003,,Азбука-классика; Петербургское Востоковедение ,,,0,Russian,"ИСТОРИЯ, КУЛЬТУРА и ИСКУССТВО",mirknig.com,issue 2011-02,,,,,,,,,,,1181370594,0,,,,,1,,,1899203,pdf,223e0e9bb550d15e1dd1b8a8033acfad,,,"[1181370594]Ритуал в Древней Месопотамии.-Емельянов В.В.,Азбука-классика; Петербургское Востоковедение.pdf",0,2000-01-01 01:00:00,2016-04-03 02:51:08,http://mirknig.com/uploads/posts/2011-02/1296738258_history798.jpg,,
5126412,Начало в России переписей и ход их до конца XVI века.,,,,Чечулин Н.Д.,1889,,Типография Ю.Н.Эрлих,,,0,Russian,КНИГИ  ИСТОРИЯ,mirknig.com,issue 2011-02,,,,,,,,,,,1181371077,0,,,,,1,,,22751540,pdf,1ff1610b2cdad8a0afecd23391cbab81,,,[1181371077]Начало в России переписей и ход их до конца XVI века--Название-Начало в России переписей и ход их до конца XVI века.pdf,0,2000-01-01 01:00:00,2016-04-03 02:51:08,http://mirknig.com/uploads/posts/2011-02/1296911287_smol1.jpg,,
5126411,Устройства сверхвысоких частот ,,,,"Малков Н.А., Пудовкин А.П.",2008,,ТГТУ ,,,0,Russian,КНИГИ АППАРАТУРА,mirknig.com,issue 2011-02,,,,,,,,,,,1181375483,0,,,,,1,,,1414344,pdf,1fd4223ad8ba95c05c337ff8c6ead612,,,"[1181375483]Устройства сверхвысоких частот.-Малков Н.А.,Пудовкин А.П.,ТГТУ,2008.pdf",0,2000-01-01 01:00:00,2016-04-03 02:51:08,845000/1fd4223ad8ba95c05c337ff8c6ead612-g.jpg,,
5126410,От мифа к литературе ,,,,Мелетинский Е.М. ,2001,,РГГУ ,,,0,Russian,КНИГИ  ГУМАНИТАРНЫЕ НАУКИ,mirknig.com,issue 2011-02,,,,,,,,,,,1181375257,0,,,,,1,,,4508718,pdf,1f6a1ef8f1d3f5ad164bb1f9549b4a46,,,"[1181375257]От мифа к литературе.-Мелетинский Е.М.,РГГУ,2001.pdf",0,2000-01-01 01:00:00,2016-04-03 02:51:08,,,
5126409,.,,,Жильё Моё №1-2 (февраль 2011) Год / Месяц: 2011 / февраль Номер: 1-2,,0,,,,,0,Russian,КНИГИ ДИЗАЙН,mirknig.com,issue 2011-02,,,,,,,,,,,1181371857,0,,,,,1,,,74615580,pdf,1e445372b2d9404338a24cf4bf3a3946,,,[1181371857]Жильё Моё №1-2 2011--Название-Жильё Моё №1-2(февраль 2011)Год-месяц-2011-февраль Номер-1-2 Формат-pdf Размер-71 Мб .pdf,0,2000-01-01 01:00:00,2016-04-03 02:51:08,845000/1e445372b2d9404338a24cf4bf3a3946-g.jpg,,
5126408,Морская радиолокация ,,,,Винокуров В. ,1986,,Судостроение ,,,0,Russian,КНИГИ АППАРАТУРА,mirknig.com,issue 2011-02,,,,,,,,,,,1181376360,0,,,,,1,,,22033238,pdf,1dd68d948b93f2442b920e77b7408ec8,,,"[1181376360]Морская радиолокация.-Винокуров В.,Судостроение,1986.pdf",0,2000-01-01 01:00:00,2016-04-03 02:51:08,845000/1dd68d948b93f2442b920e77b7408ec8-g.jpg,,
5126407,Основы теории цифровой обработки радиолокационной информации ,,,,Кузьмин С. ,1974,,Советское радио ,,,0,Russian,КНИГИ АППАРАТУРА,mirknig.com,issue 2011-02,,,,,,,,,,,1181376378,0,,,,,1,,,59952862,pdf,1c9a95365822d6afd682cee935bb1578,,,"[1181376378]Основы теории цифровой обработки радиолокационной информации.-Кузьмин С.,Советское радио,1974.pdf",0,2000-01-01 01:00:00,2016-04-03 02:51:08,845000/1c9a95365822d6afd682cee935bb1578-g.jpg,,
5126406,Нарушения голоса у детей,,,,Орлова О.С. ,2005,,Астрель,,,0,Russian,КНИГИ ЗДОРОВЬЕ,mirknig.com,issue 2011-02,,,,,,,,,,,1181372250,0,,,,,1,,,5315716,pdf,1a39615f0aaff8b6b2645e9ca02b9b19,,,"[1181372250]Нарушения голоса у детей.-Орлова О.С.,Астрель.pdf",0,2000-01-01 01:00:00,2016-04-03 02:51:08,,,
5126405,История артиллерии от ее происхождения до 1822 года ,,,,Деккер К. ,1833,,"С.-Петербург, тип-я Х. Гинце ",,,0,Russian,КНИГИ ВОЕННАЯ ИСТОРИЯ,mirknig.com,issue 2011-02,,,,,,,,,,,1181373695,0,,,,,1,,,3506500,pdf,18071d8777c2b2dc4474721a9bb5204c,,,[1181373695]История артиллерии от ее происхождения до 1822 года--Название-История артиллерии от ее происхождения до 1822 года А.pdf,0,2000-01-01 01:00:00,2016-04-03 02:51:08,845000/18071d8777c2b2dc4474721a9bb5204c-d.jpg,,
5126404,Uniform of the Scottish Infantry 1740 to 1900 ,,,,W. A. Thorburn ,1970,,Scottish United Services Museum ,,,0,English ,КНИГИ ВОЕННАЯ ИСТОРИЯ,mirknig.com,issue 2011-02,,,,,,,,,,,1181373902,0,,,,,1,,,24235798,pdf,1803e0b062c8d9d693fc1a8092fbdacf,,,"[1181373902]Uniform of the Scottish Infantry 1740 to 1900.-W.A.Thorburn,Scottish United Services Museum,1970.pdf",0,2000-01-01 01:00:00,2016-04-03 02:51:08,845000/1803e0b062c8d9d693fc1a8092fbdacf-g.jpg,,
5126403,Беседы о домашнем хозяйстве ,,,,"И. Авраменко, Л. Тормозова, редакторы ",1959,,Молодая гвардия ,,,0,Russian,КНИГИ  ДОМ и СЕМЬЯ,mirknig.com,issue 2011-02,,,,,,,,,,,1181376867,0,,,,,1,,,39392219,pdf,17d27211a4b3e779c4ad2853067d23ec,,,"[1181376867]Беседы о домашнем хозяйстве.-И.Авраменко,Л.Тормозова,редакторы,Молодая гвардия,1959.pdf",0,2000-01-01 01:00:00,2016-04-03 02:51:08,http://mirknig.com/uploads/posts/2011-02/1297352206_vinogradova.jpg,,
5126402,Суд общества офицеров и дуэль в войсках Российской армии,,,,Составил военный следователь Петербургского военного округа полковник П.А.Швейковский.,1898,,В.Березовский ,,,0,Russian,КНИГИ  ИСТОРИЯ,mirknig.com,issue 2011-02,,,,,,,,,,,1181372844,0,,,,,1,,,152717749,pdf,16e8a2de05c22d38be122cbe372b3586,,,[1181372844]Суд общества офицеров и дуэль в войсках Российской армии.-Составил военный следователь Петербургского военного окру.pdf,0,2000-01-01 01:00:00,2016-04-03 02:51:08,,,
5126401,Лампа с бегущей волной ,,,,Кац А. ,1965,,Советское радио ,,,0,Russian,КНИГИ АППАРАТУРА,mirknig.com,issue 2011-02,,,,,,,,,,,1181376367,0,,,,,1,,,30701098,pdf,163f65a1d5cb54a30774626be95c17bb,,,"[1181376367]Лампа с бегущей волной.-Кац А.,Советское радио,1965.pdf",0,2000-01-01 01:00:00,2016-04-03 02:51:08,845000/163f65a1d5cb54a30774626be95c17bb-g.jpg,,
5126400,Демон теории ,,,,Антуан Компаньон ,2001,,Издательство имени Сабашниковых ,,,0,Russian,КНИГИ  ГУМАНИТАРНЫЕ НАУКИ,mirknig.com,issue 2011-02,,,,,,,,,,,1181375686,0,,,,,1,,,15347209,pdf,125cad7b628a3c24434cef6a1d7ee2e5,,,"[1181375686]Демон теории.-Антуан Компаньон,Издательство имени Сабашниковых,2001.pdf",0,2000-01-01 01:00:00,2016-04-03 02:51:08,,,
5126399,Soviet Army Uniforms Today ,,,,Steven Zaloga ,1985,,Arms  Armour Press ,,,0,English ,КНИГИ ВОЕННАЯ ИСТОРИЯ,mirknig.com,issue 2011-02,,,,,,,,,,,1181373899,0,,,,,1,,,42049550,pdf,11dd34d942f9a82df4399fd89fcfdce3,,,"[1181373899]Soviet Army Uniforms Today.-Steven Zaloga,Arms  Armour Press,1985.pdf",0,2000-01-01 01:00:00,2016-04-03 02:51:08,845000/11dd34d942f9a82df4399fd89fcfdce3-g.jpg,,
5126398,Собрание узаконений и распоряжений правительства за 1921 г.,,,,Совет Народных Комиссаров,1944,,Управление делами СовНаркКома СССР,,,0,Russian,КНИГИ  ИСТОРИЯ,mirknig.com,issue 2011-02,,,,,,,,,,,1181372541,0,,,,,1,,,175925254,pdf,10a024fa0ecdce7dcfbd87d68ec81720,,,"[1181372541]Собрание узаконений и распоряжений правительства за 1921 г..-Совет ных Комиссаров,Управление делами СовНаркКома ССС.pdf",0,2000-01-01 01:00:00,2016-04-03 02:51:08,,,
5126397,Повседневная жизнь Монпарнаса в великую эпоху. 1905—1930 ,,,,Жан-Поль Креспель ,2000,,Молодая гвардия ,,,0,Russian,КНИГИ  ИСТОРИЯ,mirknig.com,issue 2011-02,,,,,,,,,,,1181370878,0,,,,,1,,,1884401,pdf,0940fcf6816dfde65267be48747b94fa,,,"[1181370878]Повседневная жизнь Монпарнаса в великую эпоху.1905—1930.-Жан-Поль Креспель,Молодая гвардия.pdf",0,2000-01-01 01:00:00,2016-04-03 02:51:08,,,
5126396,Ваша квартира ,,,,"И.И. Каракис, Л.Е. Жоголь, В.В. Самойлович ",1991,,Будивэльнык ,,,0,Russian,КНИГИ  ДОМ и СЕМЬЯ,mirknig.com,issue 2011-02,,,,,,,,,,,1181378498,0,,,,,1,,,36730001,pdf,07fd8a88f55b86a8b7e7c3bbbf49294c,,,"[1181378498]Ваша квартира.-И.И.Каракис,Л.Е.Жоголь,В.В.Самойлович,Будивэльнык,1991.pdf",0,2000-01-01 01:00:00,2016-04-03 02:51:08,,,
5126395,Собрание законов и распоряжений Рабоче-Крестьянского Правительства Союза Советских Социалистических Республик за 1934 г.,,,,Совет Народных Комиссаров,1948,,Управление делами Совета Министров СССР,,,0,Russian,КНИГИ  ИСТОРИЯ,mirknig.com,issue 2011-02,,,,,,,,,,,1181372726,0,,,,,1,,,103912506,pdf,07b8d1e8994cd7f02e7d5bafa9292e45,,,[1181372726]Собрание законов и распоряжений Рабоче-Крестьянского Правительства Союза Советских Социалистических Республик за 19.pdf,0,2000-01-01 01:00:00,2016-04-03 02:51:08,,,
5126394,Ставка Гитлера Вервольф в пространстве и времени ,,,,Иван Загородний ,2008,,ООО Консоль ,,,0,Russian,КНИГИ ВОЕННАЯ ИСТОРИЯ,mirknig.com,issue 2011-02,,,,,,,,,,,1181375829,0,,,,,1,,,4361173,djvu,0780ab0eeed0696d9e8fda27fbbc546c,,,"[1181375829]Ставка Гитлера quot;Вервольфquot; в пространстве и времени.-Иван Загородний,ООО Консоль,2008.djvu",0,2000-01-01 01:00:00,2016-04-03 02:51:08,845000/0780ab0eeed0696d9e8fda27fbbc546c-g.jpg,,
5126393,Засечная черта Московского государства в XVII веке. Очерк из истории обороны южной окраины Московского государства ,,,,Яковлев А. ,1916,,"Москва, тип-я И.Лисснера и Д.Собко ",,,0,Russian,КНИГИ  ИСТОРИЯ,mirknig.com,issue 2011-02,,,,,,,,,,,1181372715,0,,,,,1,,,17785156,pdf,042dd80004dc37f474868a4013ad7c26,,,[1181372715]Засечная черта Московского государства в XVII веке.Очерк из истории обороны южной окраины Московского государства--.pdf,0,2000-01-01 01:00:00,2016-04-03 02:51:08,,,
5126392,Удмурты в XV-XVII веках ,,,,Луппов П.Н. (сост.) ,1958,,Ижевск. Удмуртское книжное издательство ,,,0,Russian,КНИГИ  ИСТОРИЯ,mirknig.com,issue 2011-02,,,,,,,,,,,1181370779,0,,,,,1,,,16584672,pdf,03c3281ca378c7f3404ab1c5d30f1cd1,,,"[1181370779]Удмурты в XV-XVII веках.-Луппов П.Н.(сост.),Ижевск.Удмуртское книжное издательство,1958.pdf",0,2000-01-01 01:00:00,2016-04-03 02:51:08,http://mirknig.com/uploads/posts/2011-02/1296768396_history802.jpg,,
5126391,Латинская палеография ,,,,Люблинская А.Д. ,1969,,Высшая школа ,,,0,Russian,КНИГИ  ГУМАНИТАРНЫЕ НАУКИ,mirknig.com,issue 2011-02,,,,,,,,,,,1181374940,0,,,,,1,,,36794472,pdf,033d1be7f8c00a29cbc73d0ea221e56c,,,[1181374940]Латинская палеография--Автор-Люблинская А.Д.Название-Латинская палеография Издательство-Высшая школа Год-1969 Форма.pdf,0,2000-01-01 01:00:00,2016-04-03 02:51:08,,,
5126390,Victorian Colonial Wars ,,,,Philip J. Haythornthwaite ,1988,,Arms  Armour Press ,,,0,English ,КНИГИ ВОЕННАЯ ИСТОРИЯ,mirknig.com,issue 2011-02,,,,,,,,,,,1181373901,0,,,,,1,,,52520853,pdf,027b40adf8f17240c664caab20b4caa3,,,"[1181373901]Victorian Colonial Wars.-Philip J.Haythornthwaite,Arms  Armour Press,1988.pdf",0,2000-01-01 01:00:00,2016-04-03 02:51:08,845000/027b40adf8f17240c664caab20b4caa3-g.jpg,,
5126389,Собрание узаконений и распоряжений правительства за 1920 г.,,,,Совет Народных Комиссаров,1943,,Управление делами СовНаркКома СССР,,,0,Russian,КНИГИ  ИСТОРИЯ,mirknig.com,issue 2011-02,,,,,,,,,,,1181372540,0,,,,,1,,,84159671,pdf,013b293ac40549411f2039620f921781,,,"[1181372540]Собрание узаконений и распоряжений правительства за 1920 г..-Совет ных Комиссаров,Управление делами СовНаркКома ССС.pdf",0,2000-01-01 01:00:00,2016-04-03 02:51:08,http://mirknig.com/uploads/posts/2011-02/1297181960_yadro1.jpg,,
5126388,Судовая радиоэлектроника и радионавигационные приборы ,,,,"Байрашевский А.М., Жерлаков А.В. ",1988,,"Москва, «Транспорт» ",,,0,Russian,КНИГИ ТЕХНИКА,mirknig.com,issue 2011-01,,,,,,,,,,,1181361507,0,,,,,1,,,6511501,djvu,ffbdc0b91973b4bcef49bf1b1198554c,,,"[1181361507]Судовая радиоэлектроника и радионавигационные приборы.-Байрашевский А.М.,Жерлаков А.В..djvu",0,2000-01-01 01:00:00,2016-04-03 02:51:08,844000/ffbdc0b91973b4bcef49bf1b1198554c-g.jpg,,
5126387,Каргопольский озёрный край ,,,,Гунн Г.П. ,1984,,Искусство ,,,0,Russian,КНИГИ  КУЛЬТУРА и ИСКУССТВО,mirknig.com,issue 2011-01,,,,,,,,,,,1181368071,0,,,,,1,,,21631128,pdf,fe238ede126d3f9e1c5156fa4002649b,,,[1181368071]Каргопольский озёрный край.-Гунн Г.П..pdf,0,2000-01-01 01:00:00,2016-04-03 02:51:08,844000/fe238ede126d3f9e1c5156fa4002649b-g.jpg,,
5126386,Квантовая механика с задачами ,,,,"Елютин П.В., Кривченков В.Д. ",1976,,Москва: Наука ,,,0,Russian,КНИГИ НАУКА и УЧЕБА,mirknig.com,issue 2011-01,,,,,,,,,,,1181367561,0,,,,,1,,,5184043,djvu,fdd0b1cc26349c8b5257ec854761a332,,,"[1181367561]Квантовая механика с задачами.-Елютин П.В.,Кривченков В.Д..djvu",0,2000-01-01 01:00:00,2016-04-03 02:51:08,844000/fdd0b1cc26349c8b5257ec854761a332-g.jpg,,
5126385,Выбор проектных параметров самолета (методичка) ,,,,Егоров Г.А. и др. ,1979,,Ростовский филиал КИИГА,,,0,Russian,Методическое пособие,mirknig.com,issue 2011-01,,,,,,,,,,,1181366160,0,,,,,1,,,5143834,djvu,fd7433bbdea73fc8f88d3b13448f9ea0,,,[1181366160]Выбор проектных параметров самолета.-книги-Егоров Г.А.и др..djvu,0,2000-01-01 01:00:00,2016-04-03 02:51:08,,,
5126384,Русские придут наверняка: Антикоммунистические вымыслы и фальсификации,,,,Рейхель Х.,1987,,Прогресс,,,0,Russian,КНИГИ  ИСТОРИЯ,mirknig.com,issue 2011-01,,,,,,,,,,,1181369717,0,,,,,1,,,4196352,djvu,fd624498a7bbf2bcdb5206f187e4f03f,,,[1181369717]Русские придут наверняка-Антикоммунистические вымыслы и фальсификации.-Рейхель Х..djvu,0,2000-01-01 01:00:00,2016-04-03 02:51:08,844000/fd624498a7bbf2bcdb5206f187e4f03f-g.jpg,,
5126383,Россия и страны СНГ ,,,,,2010-2011,,nevatravel ,,,0,Russian,"КУЛЬТУРА и ИСКУССТВО, ХОББИ и РАЗВЛЕЧЕНИЯ",mirknig.com,issue 2011-01,,,,,,,,,,,1181362552,0,,,,,1,,,7599631,pdf,fc7af312de9577ad91af641a8973c863,,,[1181362552]Россия и страны СНГ.pdf,0,2000-01-01 01:00:00,2016-04-03 02:51:08,844000/fc7af312de9577ad91af641a8973c863-d.jpg,,
5126382,Ангелы.Предсказание небес ,,,,Э.Уотерс ,2005,,Мой мир ,,,0,Russian,КНИГИ  ЭЗОТЕРИКА,mirknig.com,issue 2011-01,,,,,,,,,,,1181361876,0,,,,,1,,,25123558,pdf,fbcfc9fc2d291956212504ebdf5a9f54,,,[1181361876]Ангелы.Предсказания небес.-Э.Уотерс.pdf,0,2000-01-01 01:00:00,2016-04-03 02:51:08,844000/fbcfc9fc2d291956212504ebdf5a9f54-g.jpg,,
5126381,"Народное искусство. Материалы и исследования (сборник статей, вып. II) ",,,,Богуславская И.Я. - составитель ,2004,,Государственный Русский музей; Palace Editions ,,,0,Russian,КНИГИ  КУЛЬТУРА и ИСКУССТВО,mirknig.com,issue 2011-01,,,,,,,,,,,1181367180,0,,,,,1,,,66703939,pdf,fb1071a451cd67a812e2551f0fa85d1c,,,"[1181367180]Народное искусство.Материалы и исследования(сборник статей,вып.II).-Богуславская И.Я.- составитель.pdf",0,2000-01-01 01:00:00,2016-04-03 02:51:08,844000/fb1071a451cd67a812e2551f0fa85d1c-g.jpg,,
5126380,Основы электробезопасности ,,,,Манойлов В.Е.,1976,,Энергия ,,,0,Russian,КНИГИ  ПРОФЕССИИ И РЕМЕСЛА,mirknig.com,issue 2011-01,,,,,,,,,,,1181361391,0,,,,,1,,,3136677,djvu,fab8f6e0ca491547d8198e6fe49d331f,,,[1181361391]Основы электробезопасности.-Манойлов В.Е..djvu,0,2000-01-01 01:00:00,2016-04-03 02:51:08,844000/fab8f6e0ca491547d8198e6fe49d331f-g.jpg,,
5126379,Уральское горное хозяйство ,,,,Безобразов В.П. ,1869,,СПБ ,,,0,Russian,"НАУКА и УЧЕБА, ПРОФЕССИИ И РЕМЕСЛА",mirknig.com,issue 2011-01,,,,,,,,,,,1181362272,0,,,,,1,,,25768370,pdf,f9d3e71a6056f34b858791450607a232,,,[1181362272]Уральское горное хозяйство.-Безобразов В.П..pdf,0,2000-01-01 01:00:00,2016-04-03 02:51:08,844000/f9d3e71a6056f34b858791450607a232-g.jpg,,
5126378,Радиоэлектронное подавление информационных каналов систем управления оружием ,,,,"Перунов Ю.М., Фомичев К.И., Юдин Л.М. ",2003,,Радиотехника ,,,0,Russian,КНИГИ АППАРАТУРА,mirknig.com,issue 2011-02,,,,,,,,,,,1181375302,0,,,,,1,,,13889539,djvu,f60e2ce665d76e04dc22073f63f398d9,,,"[1181375302]Радиоэлектронное подавление информационных каналов систем управления оружием.-Перунов Ю.М.,Фомичев К.И.,Юдин Л.М.,Р.djvu",0,2000-01-01 01:00:00,2016-04-03 02:51:08,844000/f60e2ce665d76e04dc22073f63f398d9-d.png,,
5126377,Моноимпульсная радиолокация ,,,,Леонов А. ,1970,,Советское радио ,,,0,Russian,КНИГИ АППАРАТУРА,mirknig.com,issue 2011-02,,,,,,,,,,,1181375087,0,,,,,1,,,5746948,djvu,f52a0830082cbcfe2f0061d1ffa86942,,,"[1181375087]Моноимпульсная радиолокация.-Леонов А.,Советское радио,1970.djvu",0,2000-01-01 01:00:00,2016-04-03 02:51:08,844000/f52a0830082cbcfe2f0061d1ffa86942-g.jpg,,
5126376,Магнетронные генераторы и импульсные модуляторы ,,,,Р. Грановская ,1985,,МАИ ,,,0,Russian,КНИГИ АППАРАТУРА,mirknig.com,issue 2011-02,,,,,,,,,,,1181375077,0,,,,,1,,,1563230,djvu,f5049ea68225e2d486b5a34125c54349,,,"[1181375077]Магнетронные генераторы и импульсные модуляторы.-Р.Грановская,МАИ,1985.djvu",0,2000-01-01 01:00:00,2016-04-03 02:51:08,844000/f5049ea68225e2d486b5a34125c54349-g.jpg,,
5126375,Технические показатели радиолокационных станций ,,,,Григорьянц В. ,1963,,Воениздат ,,,0,Russian,КНИГИ АППАРАТУРА,mirknig.com,issue 2011-02,,,,,,,,,,,1181375173,0,,,,,1,,,6267866,djvu,f2ee7763ba06f06f54d13b153db6ad6b,,,"[1181375173]Технические показатели радиолокационных станций.-Григорьянц В.,Воениздат,1963.djvu",0,2000-01-01 01:00:00,2016-04-03 02:51:08,844000/f2ee7763ba06f06f54d13b153db6ad6b-d.png,,
5126374,Безопасность жизнедеятельности: Учебное пособие,,,,Григоренко М.М. ,2008,,СПбГУЭФ ,,,0,Russian,КНИГИ НАУКА и УЧЕБА,mirknig.com,issue 2011-01,,,,,,,,,,,1181367414,0,,,,,1,,,1217359,pdf,f29cb403306fe06182f65e489d8b0838,,,[1181367414]Безопасность жизнедеятельности-Учебное пособие.-Григоренко М.М..pdf,0,2000-01-01 01:00:00,2016-04-03 02:51:08,844000/f29cb403306fe06182f65e489d8b0838-d.png,,
5126373,Сжигание твердого топлива в топках парогенераторов,,,,Шагалова С.Л. Шницер И.Н. ,1976,,Энергия ,,,0,Russian,КНИГИ ТЕХНИКА,mirknig.com,issue 2011-01,,,,,,,,,,,1181365083,0,,,,,1,,,6210550,djvu,ee3bf61f54cf18d9aaacb9c081393b57,,,[1181365083]Сжигание твердого топлива в топках парогенераторов.-Шагалова С.Л.Шницер И.Н..djvu,0,2000-01-01 01:00:00,2016-04-03 02:51:08,844000/ee3bf61f54cf18d9aaacb9c081393b57-g.jpg,,
5126372,Статистические методы в археологии. ,,,,Федоров-Давыдов Г.А. ,1987,,Высшая школа ,,,0,Russian,КНИГИ  ИСТОРИЯ,mirknig.com,issue 2011-01,,,,,,,,,,,1181365010,0,,,,,1,,,27320352,pdf,ed750eee3f1fba640b74e764a58477ed,,,[1181365010]Статистические методы в археологии..-Федоров-Давыдов Г.А..pdf,0,2000-01-01 01:00:00,2016-04-03 02:51:08,,,
5126371,Общественное здоровье и здравоохранение ,,,,Лисицын Э.П. ,2002,,ГЭОТАР-МЕД ,,,0,Russian,КНИГИ ЗДОРОВЬЕ,mirknig.com,issue 2011-01,,,,,,,,,,,1181364172,0,,,,,1,,,11071731,djvu,ecf365c05d9082c7ac56a48bafc69f5e,,,[1181364172]Общественное здоровье и здравоохранение.-Лисицын Э.П..djvu,0,2000-01-01 01:00:00,2016-04-03 02:51:08,844000/ecf365c05d9082c7ac56a48bafc69f5e-g.jpg,,
5126370,Инструкция по эксплуатации тормозовподвижного состава железных дорог ЦТ-ЦВ-ЦЛ-ВНИИЖТ/277 ,,,,Нет ,2002,,Транспорт,,,0,Russian,КНИГИ ТЕХНИКА,mirknig.com,issue 2011-01,,,,,,,,,,,1181361820,0,,,,,1,,,1778535,pdf,ebece2660fd5bd139c549a7394fd2e08,,,[1181361820]Инструкция по эксплуатации тормозов  подвижного состава железных дорог ЦТ-ЦВ-ЦЛ-ВНИИЖТ-277.-Нет.pdf,0,2000-01-01 01:00:00,2016-04-03 02:51:08,844000/ebece2660fd5bd139c549a7394fd2e08-g.jpg,,
5126369,Положение о технической эксплуатации морского флота ,,,,ЦНИИ МФ ,1973,,Москва: Рекламбюро ,,,0,Russian,КНИГИ ТЕХНИКА,mirknig.com,issue 2011-01,,,,,,,,,,,1181366972,0,,,,,1,,,3669412,djvu,e8ae1a2313fe5ed7bbb5d5fab3f78ec8,,,[1181366972]Положение о технической эксплуатации морского флота.-ЦНИИ МФ.djvu,0,2000-01-01 01:00:00,2016-04-03 02:51:08,844000/e8ae1a2313fe5ed7bbb5d5fab3f78ec8-d.jpg,,
5126368,Введение в теорию и технику радиотехнических систем ,,,,Лёзин Ю. ,1986,,Радио и связь ,,,0,Russian,КНИГИ АППАРАТУРА,mirknig.com,issue 2011-02,,,,,,,,,,,1181375056,0,,,,,1,,,2214225,djvu,e66c43622577165af0c84579a2d3e5fe,,,"[1181375056]Введение в теорию и технику радиотехнических систем.-Лёзин Ю.,Радио и связь,1986.djvu",0,2000-01-01 01:00:00,2016-04-03 02:51:08,844000/e66c43622577165af0c84579a2d3e5fe-g.jpg,,
5126367,Основы взрывного дела ,,,,Б.А.Эпов ,1974,,Военное издательство министерства обороны СССР ,,,0,Russian,"НАУЧНО-ПОПУЛЯРНОЕ, ПРОФЕССИИ И РЕМЕСЛА",mirknig.com,issue 2011-01,,,,,,,,,,,1181364596 Качество: Хорошее ,0,,,,,1,,,22645027,pdf,e5ef1d2ec7b70ff0860b44d1cf135cb9,,,[1181364596]Основы взрывного дела.-Б.А.Эпов.pdf,0,2000-01-01 01:00:00,2016-04-03 02:51:08,,,
5126366,На всю жизнь,,,,Зузина Цельмер,1992,,Москва,,,0,Russian,КНИГИ  ПСИХОЛОГИЯ,mirknig.com,issue 2011-01,,,,,,,,,,,1181361829 Качество: Хорошее,0,,,,,1,,,27337523,pdf,e1ca31d69ffaa5352961662338ff4871,,,[1181361829]На всю жизнь.-Зузина Цельмер.pdf,0,2000-01-01 01:00:00,2016-04-03 02:51:08,844000/e1ca31d69ffaa5352961662338ff4871-d.jpg,,
5126365,Office 2011 for Macintosh: The Missing Manual,,,,Chris Grover,2010,,Pogue Press,,,0,English ,КНИГИ  ОС и БД,mirknig.com,issue 2011-01,,,,,,,,,,,1181367971,0,,,,,1,,,47286891,pdf,e1b789d155b819bd6cff472197d089df,,,[1181367971]Office 2011 for Macintosh-The Missing Manual.-Chris Grover.pdf,0,2000-01-01 01:00:00,2016-04-03 02:51:08,844000/e1b789d155b819bd6cff472197d089df-g.jpg,,
5126364,MITCHELL – каталог ,,,,,2010,,,,,0,English ,"ХОББИ и РАЗВЛЕЧЕНИЯ,РАЗВЛЕКАТЕЛЬНЫЕ",mirknig.com,issue 2011-01,,,,,,,,,,,1181361263,0,,,,,1,,,46684782,pdf,e06b3894a4284a8e6bb383e5d4d3152b,,,[1181361263]MITCHELL – каталог 2010.pdf,0,2000-01-01 01:00:00,2016-04-03 02:51:08,844000/e06b3894a4284a8e6bb383e5d4d3152b-d.jpg,,
5126363,Таиланд ,,,,,2010-2011,,nevatravel ,,,0,Russian,"КУЛЬТУРА и ИСКУССТВО, ХОББИ и РАЗВЛЕЧЕНИЯ",mirknig.com,issue 2011-01,,,,,,,,,,,1181363139,0,,,,,1,,,3359195,pdf,debdd6028a8f1022de24846e65da6011,,,[1181363139]Таиланд.pdf,0,2000-01-01 01:00:00,2016-04-03 02:51:08,844000/debdd6028a8f1022de24846e65da6011-g.jpg,,
5126362,802.11 Security ,,,,"By Bob Fleck, Bruce Potter ",2002,,OReilly Media,,,0,English ,КНИГИ СЕТЕВЫЕ ТЕХНОЛОГИИ,mirknig.com,issue 2011-01,,,,,,,,,,,1181367810,0,,,,,1,,,1426837,pdf,dbe75606ccc9a489563be28e83b50abf,,,"[1181367810]802.11 Security.-By Bob Fleck,Bruce Potter.pdf",0,2000-01-01 01:00:00,2016-04-03 02:51:08,844000/dbe75606ccc9a489563be28e83b50abf-g.jpg,,
5126361,Основы теории радиоэлектронной борьбы ,,,,Николенко Н. ,1987,,Воениздат ,,,0,Russian,КНИГИ АППАРАТУРА,mirknig.com,issue 2011-02,,,,,,,,,,,1181375298,0,,,,,1,,,10719215,djvu,da9f9d1a8f80cde04b4a3d4e163303cd,,,"[1181375298]Основы теории радиоэлектронной борьбы.-Николенко Н.,Воениздат,1987.djvu",0,2000-01-01 01:00:00,2016-04-03 02:51:08,844000/da9f9d1a8f80cde04b4a3d4e163303cd-g.jpg,,
5126360,Арт-терапия для детей с задержкой психического развития: Учебное пособие. –,,,,Рыбакова С. Г.,2007,,Речь,,,0,Russian,КНИГИ  ПСИХОЛОГИЯ,mirknig.com,issue 2011-01,,,,,,,,,,,1181365788,0,,,,,1,,,7256120,pdf,da6551701adfb3d088b42239ec67206d,,,[1181365788]Арт-терапия для детей с задержкой психического развития.-Рыбакова С.Г..pdf,0,2000-01-01 01:00:00,2016-04-03 02:51:08,844000/da6551701adfb3d088b42239ec67206d-g.jpg,,
5126359,Суперприседания. Как набрать 30 фунтов мышц за 6 недель ,,,,Штроссен Рэндалл ,1963,,Штроссен Рэндалл ,,,0,Russian,"ЗДОРОВЬЕ, ХОББИ и РАЗВЛЕЧЕНИЯ",mirknig.com,issue 2011-01,,,,,,,,,,,1181362116 Качество: Хорошее ,0,,,,,1,,,12967099,pdf,d8e44a1baa46ed0fa27a6efdd2cc08d1,,,[1181362116]Суперприседания.Как набрать 30 фунтов мышц за 6 недель.-Штроссен Рэндалл.pdf,0,2000-01-01 01:00:00,2016-04-03 02:51:08,844000/d8e44a1baa46ed0fa27a6efdd2cc08d1-g.jpg,,
5126358,Символика чисел ,,,,Олард Диксон ,1996,,"Ваклер, Рефл-бук ",,,0,Russian,КНИГИ  ЭЗОТЕРИКА,mirknig.com,issue 2011-01,,,,,,,,,,,1181364850,0,,,,,1,,,8553458,djvu,d8ae6e2597cbb3ca871d35d146cd647b,,,[1181364850]Символика чисел.-Олард Диксон.djvu,0,2000-01-01 01:00:00,2016-04-03 02:51:08,844000/d8ae6e2597cbb3ca871d35d146cd647b-g.jpg,,
5126357,Пожарная безопасность на морском транспорте ,,,,"Ассоров Ф.Г., Шпиков Б.И. ",1974,,«Транспорт» ,,,0,Russian,КНИГИ  ПРОФЕССИИ И РЕМЕСЛА,mirknig.com,issue 2011-01,,,,,,,,,,,1181366616,0,,,,,1,,,8679369,djvu,d76bc88c1990e874532faefc7f3c0ba4,,,"[1181366616]Пожарная безопасность на морском транспорте.-Ассоров Ф.Г.,Шпиков Б.И..djvu",0,2000-01-01 01:00:00,2016-04-03 02:51:08,844000/d76bc88c1990e874532faefc7f3c0ba4-g.jpg,,
5126356,"Гриль и барбекю. Простые рецепты приготовления мяса, рыбы и овощей Год/месяц: 2010",,,,,0,,Книжный клуб Клуб семейного досуга. Белгород ,,,0,Russian,КНИГИ КУЛИНАРИЯ,mirknig.com,issue 2011-01,"978-5-9910-1200-3,966-14-0840-0,3-8174-5031-2 ",,,,,,,,,,1181361495,0,,,,,1,,,77375048,pdf,d61b33411575dd4f3e8ee1f3026eded2,,,"[1181361495]Гриль и барбекю.Простые рецепты приготовления мяса,рыбы и овощей.pdf",0,2000-01-01 01:00:00,2016-04-03 02:51:08,844000/d61b33411575dd4f3e8ee1f3026eded2-d.jpg,,
5126355,Плетёная мебель ,,,,Антонов Э. ,0,,«Феникс» ,,,0,Russian,КНИГИ  ХОББИ и РЕМЕСЛА,mirknig.com,issue 2011-01,,,,,,,,,,,1181362278,0,,,,,1,,,22820423,pdf,d588a53b8330622403bd673f708f72b2,,,[1181362278]Плетёная мебель.-Антонов Э..pdf,0,2000-01-01 01:00:00,2016-04-03 02:51:08,844000/d588a53b8330622403bd673f708f72b2-g.jpg,,
5126354,Вопросы обработки радиолокационных сигналов,,,,Слока В.К.,1970,,Советское радио ,,,0,Russian,КНИГИ АППАРАТУРА,mirknig.com,issue 2011-02,,,,,,,,,,,1181375295,0,,,,,1,,,5195243,djvu,d36d6d7a07ba5aa8fba3c93b2e56cca0,,,"[1181375295]Вопросы обработки радиолокационных сигналов.-Слока В.К.,Советское радио,1970.djvu",0,2000-01-01 01:00:00,2016-04-03 02:51:08,844000/d36d6d7a07ba5aa8fba3c93b2e56cca0-g.jpg,,
5126353,Spectacle and Public Performance in the Late Middle Ages and the Renaissance ,,,,под ред. Robert E. Stillman ,2006,,Brill Academic Publishers ,,,0,English ,КНИГИ  КУЛЬТУРА и ИСКУССТВО,mirknig.com,issue 2011-01,,,,,,,,,,,1181364080,0,,,,,1,,,2403160,pdf,d30bf0bc36f8272f5e68472ab6483af6,,,[1181364080]Spectacle and Public Performance in the Late Middle Ages and the Renaissance.-под ред.Robert E.Stillman.pdf,0,2000-01-01 01:00:00,2016-04-03 02:51:08,844000/d30bf0bc36f8272f5e68472ab6483af6-g.jpg,,
5126352,Traditional henna designs,,,,коллектив авторов ,2000,,The Pepin Press ,,,0,English ,КНИГИ  КУЛЬТУРА и ИСКУССТВО,mirknig.com,issue 2011-01,,,,,,,,,,,1181363135,0,,,,,1,,,38965977,djvu,d223e2964f4888d0af89723e92e02b88,,,[1181363135]Traditional henna designs.djvu,0,2000-01-01 01:00:00,2016-04-03 02:51:08,844000/d223e2964f4888d0af89723e92e02b88-g.jpg,,
5126351,Словакия ,,,,,2010-2011,,nevatravel ,,,0,Russian,"КУЛЬТУРА и ИСКУССТВО, ХОББИ и РАЗВЛЕЧЕНИЯ",mirknig.com,issue 2011-01,,,,,,,,,,,1181362836,0,,,,,1,,,3477848,pdf,d11fe3ec94a732e9552bc66cfd8871a6,,,[1181362836]Словакия.pdf,0,2000-01-01 01:00:00,2016-04-03 02:51:08,844000/d11fe3ec94a732e9552bc66cfd8871a6-g.jpg,,
5126350,История первобытного общества ,,,,"В. П. Алексеев, А. И. Першиц ",2007,,"АСТ, Астрель ",,,0,Russian,КНИГИ НАУКА и УЧЕБА,mirknig.com,issue 2011-01,,,,,,,,,,,1181365359,0,,,,,1,,,16580496,pdf,d0dd29a016dff430c14fe61de4b58fc3,,,"[1181365359]История первобытного общества.-В.П.Алексеев,А.И.Першиц.pdf",0,2000-01-01 01:00:00,2016-04-03 02:51:08,,,
5126349,Приёмы счёта ,,,,Г.Н.Берман ,1953,,Государственное издательство технико-теоретической литературы ,,,0,Russian,"НАУКА и УЧЕБА,НАУЧНО-ПОПУЛЯРНОЕ",mirknig.com,issue 2011-01,,,,,,,,,,,1181365757 Качество: Хорошее ,0,,,,,1,,,3821063,djvu,d0609d02fbefc7b3dab96d85663479d4,,,[1181365757]Приёмы счёта.-Г.Н.Берман.djvu,0,2000-01-01 01:00:00,2016-04-03 02:51:08,,,
5126348,Гангстеры Аллена Даллеса,,,,Мадер Ю.,1960,,Воениздат,,,0,Russian,КНИГИ  ИСТОРИЯ,mirknig.com,issue 2011-01,,,,,,,,,,,1181369706,0,,,,,1,,,6811590,djvu,cfb27e7735d28bf16827a7473be9602f,,,[1181369706]Гангстеры Аллена Даллеса.-Мадер Ю..djvu,0,2000-01-01 01:00:00,2016-04-03 02:51:08,844000/cfb27e7735d28bf16827a7473be9602f-g.jpg,,
5126347,Картинный диагностический материал. Обследование речи дошкольников с задержкой психического развити ,,,,Коненкова И.Д. Издательство Гном и Д,2001,,Гном и Д,,,0,Russian,КНИГИ НАУКА и УЧЕБА,mirknig.com,issue 2011-01,,,,,,,,,,,1181361707,0,,,,,1,,,7250922,pdf,ce67488c904435cd6554ae19de1490c6,,,[1181361707]Картинный диагностический материал.Обследование речи дошкольников с задержкой психического развити.-Коненкова И.Д..pdf,0,2000-01-01 01:00:00,2016-04-03 02:51:08,844000/ce67488c904435cd6554ae19de1490c6-d.jpg,,
5126346,Силовые установки морских судов ,,,,Акимов П.П. ,1965,,"Москва, «Транспорт» ",,,0,Russian,КНИГИ ТЕХНИКА,mirknig.com,issue 2011-01,,,,,,,,,,,1181361709,0,,,,,1,,,4868197,djvu,cd8a8476262e4be3b417090bad8ba3a5,,,[1181361709]Силовые установки морских судов.-Акимов П.П..djvu,0,2000-01-01 01:00:00,2016-04-03 02:51:08,844000/cd8a8476262e4be3b417090bad8ba3a5-g.jpg,,
5126345,Золотое таро доктора Парацельса ,,,,Вера Склярова ,2003,,КСП+ ,,,0,Russian,КНИГИ  ЭЗОТЕРИКА,mirknig.com,issue 2011-01,,,,,,,,,,,1181365730,0,,,,,1,,,70117822,pdf,cd14d6d0c69240a1d07e5ee0a69a27e9,,,[1181365730]Золотое таро доктора Парацельса.-Вера Склярова.pdf,0,2000-01-01 01:00:00,2016-04-03 02:51:08,844000/cd14d6d0c69240a1d07e5ee0a69a27e9-g.jpg,,
5126344,О. Маврикий ,,,,,2010-2011,,nevatravel ,,,0,Russian,"КУЛЬТУРА и ИСКУССТВО, ХОББИ и РАЗВЛЕЧЕНИЯ",mirknig.com,issue 2011-01,,,,,,,,,,,1181361523,0,,,,,1,,,1675407,pdf,cba8b94bed3712bc518d50203c0e2074,,,[1181361523]О.Маврикий.pdf,0,2000-01-01 01:00:00,2016-04-03 02:51:08,844000/cba8b94bed3712bc518d50203c0e2074-d.jpg,,
5126343,Camel in Action ,,,,"Claus Ibsen, Jonathan Anstey",2011,,Manning Publications ,,,0,English ,КНИГИ  ПРОГРАММИНГ,mirknig.com,issue 2011-01,,,,,,,,,,,1181365598,0,,,,,1,,,17843985,pdf,ca64fd3edb9682479c0c626ff6acb4d2,,,"[1181365598]Camel in Action.-Claus Ibsen,Jonathan Anstey.pdf",0,2000-01-01 01:00:00,2016-04-03 02:51:08,844000/ca64fd3edb9682479c0c626ff6acb4d2-g.jpg,,
5126342,Математика.Все для ЕГЭ 2011. Часть 1,,,,Мальцев Д.А. и др. ,2010,,ИП Мальцев Д.А. Ростов на Дону,,,0,Russian,КНИГИ НАУКА и УЧЕБА,mirknig.com,issue 2011-01,,,,,,,,,,,1181365126,0,,,,,1,,,12829302,pdf,c9c701eaa529e9b136e210938c85b2d8,,,[1181365126]Математика. Все для ЕГЭ 2011.Часть 1.-Мальцев Д.А.и др..pdf,0,2000-01-01 01:00:00,2016-04-03 02:51:08,,,
5126341,Всеобщий календарь на 1910 год ,,,,Коллектив авторов ,1910,,"типография Сытина, Москва ",,,0,Russian,"КНИГИ, ИСТОРИЯ",mirknig.com,issue 2011-02,,,,,,,,,,,1181371623,0,,,,,1,,,122780561,pdf,c94341284a09fda0aedcf6e0b33c6231,,,"[1181371623]Всеобщий календарь на 1910 год.-типография Сытина,Москва,1910.pdf",0,2000-01-01 01:00:00,2016-04-03 02:51:08,844000/c94341284a09fda0aedcf6e0b33c6231-g.jpg,,
5126340,Шедевры древнего искусства Кубани ,,,,Коллектив авторов ,1987,,Внешторгиздат ,,,0,Russian,КНИГИ  КУЛЬТУРА и ИСКУССТВО,mirknig.com,issue 2011-01,,,,,,,,,,,1181366220,0,,,,,1,,,11609126,pdf,c922bdf1f6322b35173d5d0e43f8e757,,,[1181366220]Шедевры древнего искусства Кубани.pdf,0,2000-01-01 01:00:00,2016-04-03 02:51:08,844000/c922bdf1f6322b35173d5d0e43f8e757-d.jpg,,
5126339,Электровелосипед своими руками ,,,,Коллектив авторов ,2010,,Апгрейд ,,,0,Russian,"ТЕХНИКА, ХОББИ и РАЗВЛЕЧЕНИЯ",mirknig.com,issue 2011-01,,,,,,,,,,,1181362020 Качество: Хорошее ,0,,,,,1,,,10891342,pdf,c7f45b1c05812130a7018a6e3dce8f5f,,,[1181362020]Электровелосипед своими руками.pdf,0,2000-01-01 01:00:00,2016-04-03 02:51:08,844000/c7f45b1c05812130a7018a6e3dce8f5f-d.jpg,,
5126338,"Статистические характеристики радиосигналов, отраженных от земной поверхности ",,,,Зубкович С.Г. ,1968,,Сов. радио ,,,0,Russian,КНИГИ АППАРАТУРА,mirknig.com,issue 2011-02,,,,,,,,,,,1181375336,0,,,,,1,,,3860953,djvu,c6f8c07fa469af7fb4ce857af3d6910c,,,"[1181375336]Статистические характеристики радиосигналов,отраженных от земной поверхности.-Зубкович С.Г.,Сов.радио,1968.djvu",0,2000-01-01 01:00:00,2016-04-03 02:51:08,844000/c6f8c07fa469af7fb4ce857af3d6910c-g.jpg,,
5126337,Секретные боевые искусства мира ,,,,Гилби Д.,2006,,Ритм-Плюс ,,,0,Russian,"НАУЧНО-ПОПУЛЯРНОЕ, ХОББИ и РАЗВЛЕЧЕНИЯ",mirknig.com,issue 2011-01,,,,,,,,,,,1181363108 Качество: Хорошее ,0,,,,,1,,,11446089,pdf,c6667730a52ca7fb2601969bfe8f0022,,,[1181363108]Секретные боевые искусства мира.-Гилби Д..pdf,0,2000-01-01 01:00:00,2016-04-03 02:51:08,http://mirknig.com/uploads/posts/2011-01/1296209823_sherlok-holms-izuchaet-fiziku.jpg,,
5126336,STREN – каталог ,,,,,2010,,,,,0,English ,"ХОББИ и РАЗВЛЕЧЕНИЯ,РАЗВЛЕКАТЕЛЬНЫЕ",mirknig.com,issue 2011-01,,,,,,,,,,,1181361912,0,,,,,1,,,2530727,pdf,c6446598a6645e01e5b8dc87125150e8,,,[1181361912]STREN – каталог 2010.pdf,0,2000-01-01 01:00:00,2016-04-03 02:51:08,844000/c6446598a6645e01e5b8dc87125150e8-g.jpg,,
5126335,Отличник ЕГЭ. Математика,,,,"Панферов В.С., Сергеев И.Н. ",2010,,Интеллект-Центр,,,0,Russian,КНИГИ НАУКА и УЧЕБА,mirknig.com,issue 2011-01,,,,,,,,,,,1181363148,0,,,,,1,,,4358598,pdf,c62e8686d461b2963109144159a22c72,,,"[1181363148]Отличник ЕГЭ.Математика.-Панферов В.С.,Сергеев И.Н..pdf",0,2000-01-01 01:00:00,2016-04-03 02:51:08,http://mirknig.com/uploads/posts/2011-01/1295236868_tkacheva.jpg,,
5126334,Объединенные Арабские Эмираты ,,,,,2010-2011,,nevatravel ,,,0,Russian,"КУЛЬТУРА и ИСКУССТВО, ХОББИ и РАЗВЛЕЧЕНИЯ",mirknig.com,issue 2011-01,,,,,,,,,,,1181361890,0,,,,,1,,,2818074,pdf,c4adc5d95fb8efdf6a5851a39e0485d1,,,[1181361890]Объединенные Арабские Эмираты.pdf,0,2000-01-01 01:00:00,2016-04-03 02:51:08,844000/c4adc5d95fb8efdf6a5851a39e0485d1-g.jpg,,
5126333,Pro ASP.NET SharePoint 2010 Solutions: Techniques for Building SharePoint Functionality into ASP.NET Applications ,,,,Dave Milner ,2010,,Apress ,,,0,English ,КНИГИ  ПРОГРАММИНГ,mirknig.com,issue 2011-01,,,,,,,,,,,1181362253,0,,,,,1,,,19838098,pdf,c2ee021f9f99e2067b886dce04c03c1d,,,[1181362253]Pro ASP.NET SharePoint 2010 Solutions-Techniques for Building SharePoint Functionality into ASP.NET Applications.-D.pdf,0,2000-01-01 01:00:00,2016-04-03 02:51:08,844000/c2ee021f9f99e2067b886dce04c03c1d-d.jpg,,
5126332,Таро любви ,,,,Д. Лил ,2005,,Мой Мир ,,,0,Russian,КНИГИ  ЭЗОТЕРИКА,mirknig.com,issue 2011-01,,,,,,,,,,,1181361268,0,,,,,1,,,44638702,pdf,c2d8844f2c24f9e310dc28c8a0d85633,,,[1181361268]Таро любви.-Д.Лил.pdf,0,2000-01-01 01:00:00,2016-04-03 02:51:08,844000/c2d8844f2c24f9e310dc28c8a0d85633-g.jpg,,
5126331,Список Населенных мест Киевской губернии ,,,,Киевский Губернский статистический комитет ,1900,,типография Ивановой ,,,0,Russian,"КНИГИ, ИСТОРИЯ",mirknig.com,issue 2011-02,,,,,,,,,,,1181371155,0,,,,,1,,,78339280,pdf,c1a1fba41bc382dd69a2f9e1d59968f9,,,"[1181371155]Список Населенных мест Киевской губернии.-Киевский Губернский статистический комитет,типография Ивановой,1900.pdf",0,2000-01-01 01:00:00,2016-04-03 02:51:08,844000/c1a1fba41bc382dd69a2f9e1d59968f9-g.jpg,,
5126330,.,,,Oggi : Io Cucino  Год: январь 2011 номер: 1,,0,, RCS,,,0,Italian,КНИГИ КУЛИНАРИЯ,mirknig.com,issue 2011-01,,,,,,,,,,,1181369523,0,,,,,1,,,19338230,pdf,c16599c1c2e817416ec72f317940026a,,,[1181369523]Oggi-Io Cucino(Gennaio 2011).pdf,0,2000-01-01 01:00:00,2016-04-03 02:51:08,844000/c16599c1c2e817416ec72f317940026a-g.jpg,,
5126329,Золотая энциклопедия тарологических раскладов ,,,,Вера Склярова ,2001,,Старклайт ,,,0,Russian,КНИГИ  ЭЗОТЕРИКА,mirknig.com,issue 2011-01,,,,,,,,,,,1181361601,0,,,,,1,,,156965340,pdf,c05b4e890b13cd45f5c68e380c136467,,,[1181361601]Золотая энциклопедия тарологических раскладов.-Вера Склярова.pdf,0,2000-01-01 01:00:00,2016-04-03 02:51:08,844000/c05b4e890b13cd45f5c68e380c136467-g.jpg,,
5126328,Ableton Live 8 Power!: The Comprehensive Guide,,,,Jon Margulies,2009,,Course Technology PTR,,,0,English ,КНИГИ  ПРОГРАММИНГ,mirknig.com,issue 2011-01,,,,,,,,,,,1181369355,0,,,,,1,,,8733764,pdf,be97b19ff1aa4e523b29c5ab90ba8287,,,[1181369355]Ableton Live 8 Power!-The Comprehensive Guide.-Jon Margulies.pdf,0,2000-01-01 01:00:00,2016-04-03 02:51:08,844000/be97b19ff1aa4e523b29c5ab90ba8287-g.jpg,,
5126327,Writing a Resume (Looking at Work) ,,,,"Stuart Schwartz, Craig Conley ",1999,,Capstone Press ,,,0,English ,КНИГИ НАУКА и УЧЕБА,mirknig.com,issue 2011-01,0-7368-0181-2 ,,,,,,,,,,1181369694,0,,,,,1,,,1079034,pdf,be4415ae003ed888ada84df336592546,,,"[1181369694]Writing a Resume(Looking at Work).-Stuart Schwartz,Craig Conley.pdf",0,2000-01-01 01:00:00,2016-04-03 02:51:08,http://mirknig.com/uploads/posts/2011-01/1295628107_d24d4e885125.jpg,,
5126326,Динамический хаос ,,,,Кузнецов С.П. ,2001,,Издательство Физико-математической литературы ,,,0,Russian,КНИГИ НАУКА и УЧЕБА,mirknig.com,issue 2011-01,,,,,,,,,,,1181369196,0,,,,,1,,,2348595,djvu,bc1bac5a3aa67a68d315082f0cf00dde,,,[1181369196]Динамический хаос.-Кузнецов С.П..djvu,0,2000-01-01 01:00:00,2016-04-03 02:51:08,844000/bc1bac5a3aa67a68d315082f0cf00dde-g.jpg,,
5126325,Искусство открытия,,,,А.С.Майданов ,1993,,Репро ,,,0,Russian,КНИГИ НАУЧНО-ПОПУЛЯРНОЕ,mirknig.com,issue 2011-01,,,,,,,,,,,1181370284,0,,,,,1,,,1267049,pdf,bacf57c4a66f776dd4ef569516687b41,,,[1181370284]Искусство открытия.-А.С.Майданов.pdf,0,2000-01-01 01:00:00,2016-04-03 02:51:08,844000/bacf57c4a66f776dd4ef569516687b41-g.jpg,,
5126324,Вся одесса.Иллюстрированная адресная и справочная книга ,,,,В.К. Фельдберг ,1901,,издание В.К. Фельдберга ,,,0,Russian,"КНИГИ, ИСТОРИЯ",mirknig.com,issue 2011-02,,,,,,,,,,,1181371799,0,,,,,1,,,23795042,pdf,baa34794a7a3ff5deec4383d39e51641,,,"[1181371799]Вся одесса. Иллюстрированная адресная и справочная книга.-В.К.Фельдберг,издание В.К.Фельдберга,1901.pdf",0,2000-01-01 01:00:00,2016-04-03 02:51:08,844000/baa34794a7a3ff5deec4383d39e51641-g.jpg,,
5126323,Зерцало Российских Государей с 862 по 1789 год ,,,,Т.Мальгин. ,1789,,"Санктпетербург, в типографии Имп. Академии Наук. ",,,0,Russian,"КНИГИ, ИСТОРИЯ",mirknig.com,issue 2011-02,,,,,,,,,,,1181372783,0,,,,,1,,,6654031,pdf,b9837741cf466d5d83c97890f92715e1,,,"[1181372783]Зерцало Российских Государей с 862 по 1789 год.-Т.Мальгин.,Санктпетербург,в типографии Имп.Академии Наук.,1789.pdf",0,2000-01-01 01:00:00,2016-04-03 02:51:08,844000/b9837741cf466d5d83c97890f92715e1-g.jpg,,
5126322,Крещение Руси: факты против легенд и мифов. Полемические заметки. ,,,,Гордиенко Н.С. ,1986,,Лениздат ,,,0,Russian,"ИСТОРИЯ,НАУЧНО-ПОПУЛЯРНОЕ",mirknig.com,issue 2011-01,,,,,,,,,,,1181363502 Качество: Хорошее ,0,,,,,1,,,13590127,pdf,b9377f1ff87bd5ac46be9c09ca83df36,,,[1181363502]quot;Крещение Русиquot;-факты против легенд и мифов.Полемические заметки..-Гордиенко Н.С..pdf,0,2000-01-01 01:00:00,2016-04-03 02:51:08,844000/b9377f1ff87bd5ac46be9c09ca83df36-g.jpg,,
5126320,Таро. Создай свое будущее ,,,,М. МакЭлрой ,2007,,Мир книги ,,,0,Russian,КНИГИ  ЭЗОТЕРИКА,mirknig.com,issue 2011-01,,,,,,,,,,,1181361276,0,,,,,1,,,41216407,pdf,b6dfdfecb4cd6e41daead273c794b20d,,,[1181361276]Таро.Создай свое будущее.-М.МакЭлрой.pdf,0,2000-01-01 01:00:00,2016-04-03 02:51:08,844000/b6dfdfecb4cd6e41daead273c794b20d-g.jpg,,
5126321,История Белокриницкой иерархии. Т.1. ,,,,Субботин Н. ,1874,,М. ,,,0,Russian,КНИГИ РЕЛИГИЯ,mirknig.com,issue 2011-01,,,,,,,,,,,1181368455,0,,,,,1,,,293235454,pdf,b77af60597b2439a183773011966d007,,,[1181368455]История Белокриницкой иерархии.Т.1.М.1874..-Субботин Н.i.pdf,0,2000-01-01 01:00:00,2016-04-03 02:51:08,844000/b77af60597b2439a183773011966d007-g.jpg,,
5126319,Что такое перспективная съёмка и как она производится ,,,,В. О. Свенцицкий ,1921,,Государственное издательство ,,,0,Russian,КНИГИ ФОТО-ВИДЕО,mirknig.com,issue 2011-01,,,,,,,,,,,1181364074,0,,,,,1,,,22185072,pdf,b1a6d8b66b84d11f6413e83fec0ec70b,,,[1181364074]Что такое перспективная съёмка и как она производится.-В.О.Свенцицкий.pdf,0,2000-01-01 01:00:00,2016-04-03 02:51:08,844000/b1a6d8b66b84d11f6413e83fec0ec70b-g.jpg,,
5126318,Наставление по борьбе за живучесть судов Министерства морского флота СССР (НБЖС) РД 31.60.14-81 ,,,,Фролов Н.А. ,1983,,Москва: В/О Мортехинформреклама ,,,0,Russian,КНИГИ ТЕХНИКА,mirknig.com,issue 2011-01,,,,,,,,,,,1181366752,0,,,,,1,,,8524781,djvu,b01e99c044d9867c70e71c1d02ee1d48,,,[1181366752]Наставление по борьбе за живучесть судов Министерства морского флота СССР(НБЖС)РД 31.60.14-81.-Фролов Н.А..djvu,0,2000-01-01 01:00:00,2016-04-03 02:51:08,844000/b01e99c044d9867c70e71c1d02ee1d48-g.jpg,,
5126317,Коммерческая эксплуатация морского флота ,,,,"Гуревич Г.Е., Лимонов Э.Л. ",1976,,"Москва, «Транспорт» ",,,0,Russian,КНИГИ ТЕХНИКА,mirknig.com,issue 2011-01,,,,,,,,,,,1181361494,0,,,,,1,,,2860813,djvu,af9054d680d2ae484959fbdb46958467,,,"[1181361494]Коммерческая эксплуатация морского флота.-Гуревич Г.Е.,Лимонов Э.Л..djvu",0,2000-01-01 01:00:00,2016-04-03 02:51:08,844000/af9054d680d2ae484959fbdb46958467-d.jpg,,
5126316,Грязная работа ЦРУ в Западной Европе,,,,"Эйджи Ф., Вулф Л. (сост.)",1982,,Воениздат,,,0,Russian,КНИГИ  ИСТОРИЯ,mirknig.com,issue 2011-01,,,,,,,,,,,1181367257,0,,,,,1,,,11517545,djvu,aed899c7bc6b8a02151fef3c802846f2,,,"[1181367257]Грязная работа ЦРУ в Западной Европе.-Эйджи Ф.,Вулф Л.(сост.).djvu",0,2000-01-01 01:00:00,2016-04-03 02:51:08,844000/aed899c7bc6b8a02151fef3c802846f2-g.jpg,,
5126315,Радиолокационные средства противовоздушной обороны ,,,,С. Леонов ,1988,,ВИЗ ,,,0,Russian,КНИГИ АППАРАТУРА,mirknig.com,issue 2011-02,,,,,,,,,,,1181375062,0,,,,,1,,,6441946,djvu,ae7c5db6b9c581b71074710890c0bc2f,,,"[1181375062]Радиолокационные средства противовоздушной обороны.-С.Леонов,ВИЗ,1988.djvu",0,2000-01-01 01:00:00,2016-04-03 02:51:08,844000/ae7c5db6b9c581b71074710890c0bc2f-g.jpg,,
5126314,Дворянство в пореформенной России 1861-1904 гг. ,,,,А.П. Корелин ,1979,,Издательство Наука ,,,0,Russian,КНИГИ  ИСТОРИЯ,mirknig.com,issue 2011-01,,,,,,,,,,,1181365383,0,,,,,1,,,35964832,pdf,adfc6d5911dfbff179ca546ae247f17d,,,[1181365383]Дворянство в пореформенной России 1861-1904 гг..-А.П.Корелин.pdf,0,2000-01-01 01:00:00,2016-04-03 02:51:08,,,
5126313,Вопросы синтеза радиолокационных сигналов ,,,,Д. Вакман ,1973,,Советское радио ,,,0,Russian,КНИГИ АППАРАТУРА,mirknig.com,issue 2011-02,,,,,,,,,,,1181375005,0,,,,,1,,,48144862,djvu,ada39c8a6059c87db53ad49ee3a3502f,,,"[1181375005]Вопросы синтеза радиолокационных сигналов.-Д.Вакман,Советское радио,1973.djvu",0,2000-01-01 01:00:00,2016-04-03 02:51:08,844000/ada39c8a6059c87db53ad49ee3a3502f-g.jpg,,
5126312,Русский календарь на 1917 год ,,,,А. Суворин ,1916,,Петроград: Тип. Т-ва А.С. Суворина ,,,0,Russian,"КНИГИ, ИСТОРИЯ",mirknig.com,issue 2011-02,,,,,,,,,,,1181372924,0,,,,,1,,,36311173,pdf,aa56a153aa82df90a69be7c459846ed4,,,"[1181372924]Русский календарь на 1917 год.-А.Суворин,Петроград-Тип.Т-ва А.С.Суворина,1916.pdf",0,2000-01-01 01:00:00,2016-04-03 02:51:08,844000/aa56a153aa82df90a69be7c459846ed4-g.jpg,,
5126311,Атлетизм ,,,,Татасик Д. ,1984,,Здоровье ,,,0,Russian,"НАУКА и УЧЕБА, ХОББИ и РАЗВЛЕЧЕНИЯ",mirknig.com,issue 2011-01,,,,,,,,,,,1181362869 Качество: Хорошее ,0,,,,,1,,,10685470,pdf,aa0c60a1d905d4d66d7c16343e72082e,,,[1181362869]Атлетизм.-Татасик Д..pdf,0,2000-01-01 01:00:00,2016-04-03 02:51:08,,,
5126310,Professionell entwickeln mit Visual C# 2010 ,,,,Matthias Geirhos ,2011,,Galileo Press ,,,0,German,КНИГИ  ПРОГРАММИНГ,mirknig.com,issue 2011-01,,,,,,,,,,,1181368564,0,,,,,1,,,21595200,pdf,a8d3499c11a317a52e62e2a41647c2b2,,,[1181368564]Professionell entwickeln mit Visual C# 2010.-Matthias Geirhos.pdf,0,2000-01-01 01:00:00,2016-04-03 02:51:08,844000/a8d3499c11a317a52e62e2a41647c2b2-d.jpg,,
5126309,Корабельная радиолокация и метеорология ,,,,"Красюк Н.П., Розенберг В.И ",1970,,Судостроение,,,0,Russian,КНИГИ АППАРАТУРА,mirknig.com,issue 2011-02,,,,,,,,,,,1181375305,0,,,,,1,,,5545630,djvu,a8199746a972775fb49ca00b41baad6c,,,"[1181375305]Корабельная радиолокация и метеорология.-Красюк Н.П.,Розенберг В.И,Судостроение,1970.djvu",0,2000-01-01 01:00:00,2016-04-03 02:51:08,844000/a8199746a972775fb49ca00b41baad6c-g.jpg,,
5126308,Афазия и восстановительное обучение: Учебноепособие для студентов дефектологическихфакультетовпедагогическихинститутов.,,,,Цветкова Л. С. ,1988,,М.: Просвещение,,,0,Russian,КНИГИ ЗДОРОВЬЕ,mirknig.com,issue 2011-01,,,,,,,,,,,1181366820,0,,,,,1,,,7426973,pdf,a6378b07711d0326174cdd831cf59a4f,,,[1181366820]Афазия и восстановительное обучение.-Цветкова Л.С..pdf,0,2000-01-01 01:00:00,2016-04-03 02:51:08,844000/a6378b07711d0326174cdd831cf59a4f-g.jpg,,
5126307,Золотое таро ,,,,Вера Склярова ,2008,,"У-Фактория, АСТ Москва ",,,0,Russian,КНИГИ  ЭЗОТЕРИКА,mirknig.com,issue 2011-01,,,,,,,,,,,1181361888,0,,,,,1,,,125503038,pdf,a55aad0310b180819810718f96883fba,,,[1181361888]Золотое Таро.-Вера Склярова.pdf,0,2000-01-01 01:00:00,2016-04-03 02:51:08,844000/a55aad0310b180819810718f96883fba-g.jpg,,
5126306,Копты: Египет без фараонов. ,,,,Толмачева Е.Г. ,2003,,Алетейя ,,,0,Russian,"ИСТОРИЯ, КУЛЬТУРА и ИСКУССТВО",mirknig.com,issue 2011-01,,,,,,,,,,,1181366576,0,,,,,1,,,2941535,pdf,a550d71172fa95f497202d20d62e4104,,,[1181366576]Копты-Египет без фараонов..-Толмачева Е.Г..pdf,0,2000-01-01 01:00:00,2016-04-03 02:51:08,844000/a550d71172fa95f497202d20d62e4104-d.jpg,,
5126305,Авиационная метеорология ,,,,Богаткин О.Г. ,2005,,СПб.: РГГМУ ,,,0,Russian,КНИГИ НАУКА и УЧЕБА,mirknig.com,issue 2011-01,,,,,,,,,,,1181368447,0,,,,,1,,,35063886,pdf,a27098eb03d0d23e5a1eb301758dbc03,,,[1181368447]Авиационная метеорология.-Богаткин О.Г..pdf,0,2000-01-01 01:00:00,2016-04-03 02:51:08,844000/a27098eb03d0d23e5a1eb301758dbc03-g.jpg,,
5126304,Анализ эффективности устройств обработки радиолокационных сигналов в обзорных РЛС ,,,,Бакулев П.А.,1992,,МАИ ,,,0,Russian,КНИГИ АППАРАТУРА,mirknig.com,issue 2011-02,,,,,,,,,,,1181375343,0,,,,,1,,,1424254,djvu,a230f2466b10ecec191a04c847e86b0d,,,"[1181375343]Анализ эффективности устройств обработки радиолокационных сигналов в обзорных РЛС.-Бакулев П.А.,МАИ,1992.djvu",0,2000-01-01 01:00:00,2016-04-03 02:51:08,844000/a230f2466b10ecec191a04c847e86b0d-g.jpg,,
5126303,Навигация ,,,,"Ляльков Э.П., Васин А.Г. ",1981,,"Москва, «Транспорт» ",,,0,Russian,КНИГИ ТЕХНИКА,mirknig.com,issue 2011-01,,,,,,,,,,,1181361832,0,,,,,1,,,13714116,djvu,a094bbbc7f91f1d78ca05562f59c8240,,,"[1181361832]Навигация.-Ляльков Э.П.,Васин А.Г..djvu",0,2000-01-01 01:00:00,2016-04-03 02:51:08,844000/a094bbbc7f91f1d78ca05562f59c8240-g.jpg,,
5126302,Радиопеленгация ,,,,Вартанесян В. ,1946,,ВИЗМОСССР ,,,0,Russian,КНИГИ АППАРАТУРА,mirknig.com,issue 2011-02,,,,,,,,,,,1181375054,0,,,,,1,,,4095604,djvu,a07bfe09cb4e1209c233d1164e2c2ee2,,,"[1181375054]Радиопеленгация.-Вартанесян В.,ВИЗМОСССР,1946.djvu",0,2000-01-01 01:00:00,2016-04-03 02:51:08,844000/a07bfe09cb4e1209c233d1164e2c2ee2-g.jpg,,
5126301,Технология морских перевозок ,,,,"Жуков Е.И., Письменный М.Н. ",1991,,"Москва, «Транспорт» ",,,0,Russian,КНИГИ ТЕХНИКА,mirknig.com,issue 2011-01,,,,,,,,,,,1181361610,0,,,,,1,,,5806386,djvu,9ee2d7148601efea845a09bf86f8b986,,,"[1181361610]Технология морских перевозок.-Жуков Е.И.,Письменный М.Н..djvu",0,2000-01-01 01:00:00,2016-04-03 02:51:08,844000/9ee2d7148601efea845a09bf86f8b986-g.jpg,,
5126300,Многоканальные радиолокационные измерители ,,,,Н. Царьков ,1980,,Советское радио ,,,0,Russian,КНИГИ АППАРАТУРА,mirknig.com,issue 2011-02,,,,,,,,,,,1181375069,0,,,,,1,,,3628495,djvu,9eab7a63a81bda11f4097fe44ebcb796,,,"[1181375069]Многоканальные радиолокационные измерители.-Н.Царьков,Советское радио,1980.djvu",0,2000-01-01 01:00:00,2016-04-03 02:51:08,844000/9eab7a63a81bda11f4097fe44ebcb796-g.jpg,,
5126299,PENN – каталог ,,,,,2010,,,,,0,English ,"ХОББИ и РАЗВЛЕЧЕНИЯ,РАЗВЛЕКАТЕЛЬНЫЕ",mirknig.com,issue 2011-01,,,,,,,,,,,1181361545,0,,,,,1,,,28808292,pdf,9e4648f9322a69bc72f672525ea68947,,,[1181361545]PENN – каталог 2010.pdf,0,2000-01-01 01:00:00,2016-04-03 02:51:08,844000/9e4648f9322a69bc72f672525ea68947-g.jpg,,
5126298,Гантельная гимнастика. ,,,,Пустовойт Б.Г. ,1965,5-е  издание ,Физкультура и здоровье ,,,0,Russian,"ЗДОРОВЬЕ, ХОББИ и РАЗВЛЕЧЕНИЯ",mirknig.com,issue 2011-01,,,,,,,,,,,1181362271 Качество: Хорошее ,0,,,,,1,,,11077703,pdf,9c6705178a6110ad2ff4ae2026661d56,,,[1181362271]Гантельная гимнастика.5-е издание.-Пустовойт Б.Г..pdf,0,2000-01-01 01:00:00,2016-04-03 02:51:08,844000/9c6705178a6110ad2ff4ae2026661d56-g.jpg,,
5126297,Моделирование в радиолокации ,,,,Леонов А.И.,1979,,Сов. радио ,,,0,Russian,КНИГИ АППАРАТУРА,mirknig.com,issue 2011-02,,,,,,,,,,,1181375355,0,,,,,1,,,4925638,djvu,9c002dbbbcd57c1bb524c34633102af4,,,"[1181375355]Моделирование в радиолокации.-Леонов А.И.,Сов.радио,1979.djvu",0,2000-01-01 01:00:00,2016-04-03 02:51:08,844000/9c002dbbbcd57c1bb524c34633102af4-g.jpg,,
5126296,Сборник задач по методам математической физики,,,,Ю.С. 0чан ,1967,,Высшая школа ,,,0,Russian,КНИГИ ЕСТЕСТВЕННЫЕ НАУКИ,mirknig.com,issue 2011-01,,,,,,,,,,,1181370318,0,,,,,1,,,1507129,djvu,9a2486fe3c601496be844a64b194c815,,,[1181370318]Сборник задач по методам математической физики.-Ю.С.0чан.djvu,0,2000-01-01 01:00:00,2016-04-03 02:51:08,844000/9a2486fe3c601496be844a64b194c815-g.jpg,,
5126295,"Китай, о. Хайнань ",,,,,2010-2011,,nevatravel ,,,0,Russian,"КУЛЬТУРА и ИСКУССТВО, ХОББИ и РАЗВЛЕЧЕНИЯ",mirknig.com,issue 2011-01,,,,,,,,,,,1181361067,0,,,,,1,,,2974084,pdf,9a1b075cc2ba9900c44c7476e59a2d81,,,"[1181361067]Китай,о.Хайнань.pdf",0,2000-01-01 01:00:00,2016-04-03 02:51:08,844000/9a1b075cc2ba9900c44c7476e59a2d81-g.jpg,,
5126294,.,,,Друг собак Год / Месяц: 2008/май Номер: 5,,0,,,,,0,Russian,КНИГИ НАУЧНО-ПОПУЛЯРНОЕ,mirknig.com,issue 2011-01,,,,,,,,,,,1181365716,0,,,,,1,,,42929594,pdf,99640a9a7b06f845d4b943be2e5c1aef,,,[1181365716]Друг собак № 5 2008.pdf,0,2000-01-01 01:00:00,2016-04-03 02:51:08,844000/99640a9a7b06f845d4b943be2e5c1aef-g.jpg,,
5126293,Ошибки и опасности при лечении инфекционных болезней у детей ,,,,Либов А. Л. ,1984,,Медицина ,,,0,Russian,"ЗДОРОВЬЕ,ЧЕЛОВЕК",mirknig.com,issue 2011-01,,,,,,,,,,,1181365523,0,,,,,1,,,5172526,djvu,98a1d35d3867e5bc77010c66bde2b958,,,[1181365523]Ошибки и опасности при лечении инфекционных болезней у детей.-Либов А.Л..djvu,0,2000-01-01 01:00:00,2016-04-03 02:51:08,844000/98a1d35d3867e5bc77010c66bde2b958-g.jpg,,
5126292,По джунглям Конго ,,,,Елисеев В.И. ,1992,,Наука ,,,0,Russian,"НАУЧНО-ПОПУЛЯРНОЕ, ХОББИ и РАЗВЛЕЧЕНИЯ",mirknig.com,issue 2011-01,,,,,,,,,,,1181365632 Качество: Хорошее ,0,,,,,1,,,4629299,djvu,97ffc9e181de2c16bbca3e77eb9aae0a,,,[1181365632]По джунглям Конго.-Елисеев В.И..djvu,0,2000-01-01 01:00:00,2016-04-03 02:51:08,844000/97ffc9e181de2c16bbca3e77eb9aae0a-g.jpg,,
5126291,Имитаторы эхо-сигналов судовых радиолокационных станций ,,,,Тверской Г. ,1973,,Судостроение ,,,0,Russian,КНИГИ АППАРАТУРА,mirknig.com,issue 2011-02,,,,,,,,,,,1181375278,0,,,,,1,,,4899588,djvu,97d9520883db69eb7463988a08167006,,,"[1181375278]Имитаторы эхо-сигналов судовых радиолокационных станций.-Тверской Г.,Судостроение,1973.djvu",0,2000-01-01 01:00:00,2016-04-03 02:51:08,844000/97d9520883db69eb7463988a08167006-d.png,,
5126290,Рекомендации по организации штурманской службы на морских судах Украины (РШСУ-98) ,,,,Министерство Транспорта Украины ,1998,,ЮжНИИМФ ,,,0,Russian,КНИГИ ТЕХНИКА,mirknig.com,issue 2011-01,,,,,,,,,,,1181361705,0,,,,,1,,,6623258,djvu,978dc5fc752a6a3332300fbd1f252455,,,[1181361705]Рекомендации по организации штурманской службы на морских судах Украины(РШСУ-98).-Министерство Транспорта Украины.djvu,0,2000-01-01 01:00:00,2016-04-03 02:51:08,844000/978dc5fc752a6a3332300fbd1f252455-d.jpg,,
5126289,Кодекс Демоны Хаоса,,,,Аллесио Каваторе и Гевин Торп,2008,,Games Workshop,,,0,Russian,КНИГИ  ХОББИ и РАЗВЛЕЧЕНИЯ,mirknig.com,issue 2011-01,,,,,,,,,,,1181367281,0,,,,,1,,,155119062,pdf,96ef34b02aa02055b6ef6184dc9245b6,,,[1181367281]Кодекс Демонов Хаоса Warhammer 40000.-Аллесио Каваторе и Гевин Торп.pdf,0,2000-01-01 01:00:00,2016-04-03 02:51:08,844000/96ef34b02aa02055b6ef6184dc9245b6-g.jpg,,
5126288,История Белокриницкой иерархии. Т.1. ,,,,Субботин Н. ,1874,,М. ,,,0,Russian,КНИГИ РЕЛИГИЯ,mirknig.com,issue 2011-01,,,,,,,,,,,1181368455,0,,,,,1,,,236641555,pdf,96d104634502c7a4d0e524a40363dac1,,,[1181368455]История Белокриницкой иерархии.Т.1.М.1874..-Субботин Н..pdf,0,2000-01-01 01:00:00,2016-04-03 02:51:08,844000/96d104634502c7a4d0e524a40363dac1-d.jpg,,
5126287,Вопиющие камни. Русская церковь и культурное наследие России на рубеже тысячелетий ,,,,Мусин А.Е. ,2006,,Петербургское Востоковедение ,,,0,Russian,"ИСТОРИЯ,РЕЛИГИЯ",mirknig.com,issue 2011-01,,,,,,,,,,,1181364738,0,,,,,1,,,56400138,pdf,95e8c8d9e2d24dbd4b70934e318d0ffe,,,[1181364738]Вопиющие камни.Русская церковь и культурное наследие России на рубеже тысячелетий.-Мусин А.Е..pdf,0,2000-01-01 01:00:00,2016-04-03 02:51:08,,,
5126286,Судовые радиолокационные станции и их применение. Том 3 ,,,,Раков В.И.,1970,,Судостроение ,,,0,Russian,КНИГИ АППАРАТУРА,mirknig.com,issue 2011-02,,,,,,,,,,,1181375328,0,,,,,1,,,4994978,djvu,914f7223ecd258ea2dc34ea991f4bd21,,,"[1181375328]Судовые радиолокационные станции и их применение.Том 3.-Раков В.И.,Судостроение,1970.djvu",0,2000-01-01 01:00:00,2016-04-03 02:51:08,844000/914f7223ecd258ea2dc34ea991f4bd21-d.png,,
5126285,"Проверка цепей управления тепловозов типа ТЭ10, ТЭ3",,,,Бородин А.П. ,1991,,Транспорт,,,0,Russian,КНИГИ ТЕХНИКА,mirknig.com,issue 2011-01,,,,,,,,,,,1181369282,0,,,,,1,,,5158987,djvu,90647dc5f9ee2b194f3af5238bb28368,,,"[1181369282]Проверка цепей управления тепловозов типа ТЭ10,ТЭ3.-Бородин А.П..djvu",0,2000-01-01 01:00:00,2016-04-03 02:51:08,844000/90647dc5f9ee2b194f3af5238bb28368-g.jpg,,
5126284,Принятие политических решений.,,,,Дектярев Т.Я.,2004,,КДУ,,,0,Russian,"НАУКА и УЧЕБА, ПСИХОЛОГИЯ",mirknig.com,issue 2011-01,,,,,,,,,,,1181362097,0,,,,,1,,,17907764,pdf,8e6a24932d3708aed815e2e9c9c5e6d8,,,[1181362097]Принятие политических решений..-Дектярев Т.Я..pdf,0,2000-01-01 01:00:00,2016-04-03 02:51:08,844000/8e6a24932d3708aed815e2e9c9c5e6d8-g.jpg,,
5126283,Проектирование радиолокационных приемных устройств ,,,,Соколов М.А.,1984,,Высшая школа ,,,0,Russian,КНИГИ АППАРАТУРА,mirknig.com,issue 2011-02,,,,,,,,,,,1181375320,0,,,,,1,,,6219641,djvu,8cd2f765a68f94c25443f52c0b35f97d,,,"[1181375320]Проектирование радиолокационных приемных устройств.-Соколов М.А.,Высшая школа,1984.djvu",0,2000-01-01 01:00:00,2016-04-03 02:51:08,844000/8cd2f765a68f94c25443f52c0b35f97d-g.jpg,,
5126282,Эффективность обнаружения целей радиотехническими средствами наблюдения ,,,,Афанасьев А. ,1964,,Воениздат,,,0,Russian,КНИГИ АППАРАТУРА,mirknig.com,issue 2011-02,,,,,,,,,,,1181375101,0,,,,,1,,,1619902,djvu,8c21af3531e1be711460cb7467127bbf,,,"[1181375101]Эффективность обнаружения целей радиотехническими средствами наблюдения.-Афанасьев А.,Воениздат,1964.djvu",0,2000-01-01 01:00:00,2016-04-03 02:51:08,844000/8c21af3531e1be711460cb7467127bbf-g.jpg,,
5126281,О мнимых норманнских именах в русской истории ,,,,Юргевич В. ,1866,,"Одесса, городская тип-я ",,,0,Russian,КНИГИ  ИСТОРИЯ,mirknig.com,issue 2011-01,,,,,,,,,,,1181361315,0,,,,,1,,,3711996,pdf,8b263ca91bf3488a4e2cb6659fc03e82,,,[1181361315]О мнимых норманнских именах в русской истории.-Юргевич В..pdf,0,2000-01-01 01:00:00,2016-04-03 02:51:08,844000/8b263ca91bf3488a4e2cb6659fc03e82-g.jpg,,
5126280,Тренируйся! или обычный культуризм для атлетов начaльного и среднего уровня ,,,,Владимир Гончаров ,2006,,Владимир Гончаров ,,,0,Russian,"ЗДОРОВЬЕ, ХОББИ и РАЗВЛЕЧЕНИЯ",mirknig.com,issue 2011-01,,,,,,,,,,,1181363525 Качество: Хорошее ,0,,,,,1,,,11405646,pdf,8b00e43be81a76444e65b3d5f129cb63,,,[1181363525]Тренируйся! или обычный культуризм для атлетов начaльного и среднего уровня.-Владимир Гончаров.pdf,0,2000-01-01 01:00:00,2016-04-03 02:51:08,844000/8b00e43be81a76444e65b3d5f129cb63-g.jpg,,
5126279,Формирование раннефеодальных славянских народностей ,,,,Королюк В.Д. (отв. ред. ,1981,,Наука ,,,0,Russian,КНИГИ  ИСТОРИЯ,mirknig.com,issue 2011-01,,,,,,,,,,,1181364737,0,,,,,1,,,5197204,pdf,8ae529f933419f80f2aad0bed0bc8717,,,[1181364737]Формирование раннефеодальных славянских народностей.-Королюк В.Д.(отв.ред..pdf,0,2000-01-01 01:00:00,2016-04-03 02:51:08,,,
5126278,Очерк основ радиолокации при непрерывном излучении радиоволн ,,,,Виницкий А. ,1961,,Советское радио ,,,0,Russian,КНИГИ АППАРАТУРА,mirknig.com,issue 2011-02,,,,,,,,,,,1181375082,0,,,,,1,,,9193197,djvu,8ad437f7f6e75f52c5cae3ab60a5ba6e,,,"[1181375082]Очерк основ радиолокации при непрерывном излучении радиоволн.-Виницкий А.,Советское радио,1961.djvu",0,2000-01-01 01:00:00,2016-04-03 02:51:08,844000/8ad437f7f6e75f52c5cae3ab60a5ba6e-g.jpg,,
5126277,Сказание о князьях владимирских ,,,,Дмитриева Р.П. ,1955,,Академии Наук СССР ,,,0,Russian,КНИГИ  ИСТОРИЯ,mirknig.com,issue 2011-01,,,,,,,,,,,1181365016,0,,,,,1,,,25358490,pdf,8a79192663ec9ad5e323c34bbc6bfcb4,,,[1181365016]Сказание о князьях владимирских.-Дмитриева Р.П..pdf,0,2000-01-01 01:00:00,2016-04-03 02:51:08,,,
5126276,Таро да Винчи,,,,Мэттьюз К.,2005,,Мир книги ,,,0,Russian,КНИГИ  ЭЗОТЕРИКА,mirknig.com,issue 2011-01,,,,,,,,,,,1181361288,0,,,,,1,,,56378655,pdf,89e6548de1f46709222a52949a3e73e9,,,[1181361288]Таро да Винчи.-Мэттьюз К..pdf,0,2000-01-01 01:00:00,2016-04-03 02:51:08,844000/89e6548de1f46709222a52949a3e73e9-g.jpg,,
5126275,Империя Хунну ,,,,Н. Н. Крадин ,2001,,Логос ,,,0,Russian,КНИГИ  ИСТОРИЯ,mirknig.com,issue 2011-01,,,,,,,,,,,1181364726,0,,,,,1,,,2279515,pdf,889397f24c580b35e0a69d8b4d2b7dfd,,,[1181364726]Империя Хунну.-Н.Н.Крадин.pdf,0,2000-01-01 01:00:00,2016-04-03 02:51:08,,,
5126274,Россия в поисках себя ,,,,Биллингтон Д.,2005,,Российская политическая энциклопедия ,,,0,Russian,КНИГИ  ИСТОРИЯ,mirknig.com,issue 2011-01,,,,,,,,,,,1181370561,0,,,,,1,,,1867366,pdf,8629e828f69069a89f4a417cd198856e,,,[1181370561]Россия в поисках себя.-Биллингтон Д..pdf,0,2000-01-01 01:00:00,2016-04-03 02:51:08,844000/8629e828f69069a89f4a417cd198856e-g.jpg,,
5126273,Теория и методика физического воспитания ,,,,Ашмарин Б.А. ,1990,,Просвещение ,,,0,Russian,КНИГИ НАУКА и УЧЕБА,mirknig.com,issue 2011-01,,,,,,,,,,,1181364105,0,,,,,1,,,4238132,djvu,85ccac19517ab6cec9941c31a1e39f36,,,[1181364105]Теория и методика физического воспитания.-Ашмарин Б.А..djvu,0,2000-01-01 01:00:00,2016-04-03 02:51:08,,,
5126272,Общение с собой. Начала психологии активности ,,,,Гримак Л.П. ,2009,,Диброком ,,,0,Russian,КНИГИ  ПСИХОЛОГИЯ,mirknig.com,issue 2011-01,,,,,,,,,,,1181364400,0,,,,,1,,,4500107,djvu,83e195ff6ed2b880a2655daba7797df5,,,[1181364400]Общение с собой.Начала психологии активности.-Гримак Л.П..djvu,0,2000-01-01 01:00:00,2016-04-03 02:51:08,844000/83e195ff6ed2b880a2655daba7797df5-d.jpg,,
5126271,Намаз по мазхабу имама Абу Ханифы ,,,,Зайнулла Гамзатов ,2008,,Ихлас ,,,0,Russian,КНИГИ РЕЛИГИЯ,mirknig.com,issue 2011-01,,,,,,,,,,,1181361190,0,,,,,1,,,703963,pdf,81ef270890231b6bc88e09b7ba838ffa,,,[1181361190]Намаз по мазхабу имама Абу Ханифы.-Зайнулла Гамзатов.pdf,0,2000-01-01 01:00:00,2016-04-03 02:51:08,844000/81ef270890231b6bc88e09b7ba838ffa-g.jpg,,
5126270,"Agile Software Requirements: Lean Requirements Practices for Teams, Programs, and the Enterprise ",,,,Dean Leffingwell,2011,,Addison-Wesley Professional,,,0,English ,КНИГИ  ПРОГРАММИНГ,mirknig.com,issue 2011-01,,,,,,,,,,,1181370132,0,,,,,1,,,19995862,pdf,81253a36f5fb0cc9c8361e788743c6e0,,,"[1181370132]Agile Software Requirements-Lean Requirements Practices for Teams,Programs,and the Enterprise.-Dean Leffingwell.pdf",0,2000-01-01 01:00:00,2016-04-03 02:51:08,844000/81253a36f5fb0cc9c8361e788743c6e0-g.jpg,,
5126269,Линии передачи СВЧ диапазона ,,,,В. Максимов ,2002,,Сайнс-пресс ,,,0,Russian,КНИГИ АППАРАТУРА,mirknig.com,issue 2011-02,,,,,,,,,,,1181375076,0,,,,,1,,,1877807,djvu,80b42f6f81fa4d1aec4caa266ba3f49c,,,"[1181375076]Линии передачи СВЧ диапазона.-В.Максимов,Сайнс-пресс,2002.djvu",0,2000-01-01 01:00:00,2016-04-03 02:51:08,844000/80b42f6f81fa4d1aec4caa266ba3f49c-g.jpg,,
5126268,Основы эксплуатации радиоэлектронной аппаратуры ,,,,Лавриненко В.Ю.,1978,,Высшая школа ,,,0,Russian,КНИГИ АППАРАТУРА,mirknig.com,issue 2011-02,,,,,,,,,,,1181375323,0,,,,,1,,,8397829,djvu,7ee94a491f8295682e4d1889a8924e46,,,"[1181375323]Основы эксплуатации радиоэлектронной аппаратуры.-Лавриненко В.Ю.,Высшая школа,1978.djvu",0,2000-01-01 01:00:00,2016-04-03 02:51:08,844000/7ee94a491f8295682e4d1889a8924e46-g.jpg,,
5126267,Системные вызовы ОС UNIX ,,,,Свиридов С.В. ,1991,,МП Память ,,,0,Russian,"ПРОГРАММИНГ, ПРОФЕССИИ И РЕМЕСЛА",mirknig.com,issue 2011-01,5-87140-017-5 ,,,,,,,,,,1181365706 Качество: Хорошее ,0,,,,,1,,,1477843,djvu,7d69c52f1edf744f878d888ec1d7e6f7,,,[1181365706]Системные вызовы ОС UNIX.-Свиридов С.В..djvu,0,2000-01-01 01:00:00,2016-04-03 02:51:08,844000/7d69c52f1edf744f878d888ec1d7e6f7-g.jpg,,
5126266,Конфликтная радиолокация ,,,,В. Дружинин ,1982,,Радио и связь ,,,0,Russian,КНИГИ АППАРАТУРА,mirknig.com,issue 2011-02,,,,,,,,,,,1181375075,0,,,,,1,,,3054704,djvu,7b61f16d8b466395125d7d1d15e9c914,,,"[1181375075]Конфликтная радиолокация.-В.Дружинин,Радио и связь,1982.djvu",0,2000-01-01 01:00:00,2016-04-03 02:51:08,844000/7b61f16d8b466395125d7d1d15e9c914-g.jpg,,
5126265,Системы самонаведения ,,,,Моргунов А.Н. ,1977,,РРТИ ,,,0,Russian,КНИГИ АППАРАТУРА,mirknig.com,issue 2011-02,,,,,,,,,,,1181375326,0,,,,,1,,,4010846,djvu,7b34899cd7f326c15e2f857a66ce4a83,,,"[1181375326]Системы самонаведения.-Моргунов А.Н.,РРТИ,1977.djvu",0,2000-01-01 01:00:00,2016-04-03 02:51:08,844000/7b34899cd7f326c15e2f857a66ce4a83-g.jpg,,
5126264,Вопросы поэтики древнеиндийского эпоса. Эпитет и сравнение. ,,,,Невелева С.Л. ,1979,,"Наука, Главная редакция восточной литературы ",,,0,Russian,КНИГИ  КУЛЬТУРА и ИСКУССТВО,mirknig.com,issue 2011-01,,,,,,,,,,,1181363138,0,,,,,1,,,8341169,pdf,7914dc9a248bf19612aefe2d6432779d,,,[1181363138]Вопросы поэтики древнеиндийского эпоса.Эпитет и сравнение..-Невелева С.Л..pdf,0,2000-01-01 01:00:00,2016-04-03 02:51:08,844000/7914dc9a248bf19612aefe2d6432779d-g.jpg,,
5126263,Технические средства судовождения. Конструкция и эксплуатация ,,,,"Воронов В.В., Перфильев В.К., Яловенко А.В. ",1988,,"Москва, «Транспорт» ",,,0,Russian,КНИГИ ТЕХНИКА,mirknig.com,issue 2011-01,,,,,,,,,,,1181361599,0,,,,,1,,,4054785,djvu,78d1d60ca3e33ba15d1863dcf3290665,,,"[1181361599]Технические средства судовождения.Конструкция и эксплуатация.-Воронов В.В.,Перфильев В.К.,Яловенко А.В..djvu",0,2000-01-01 01:00:00,2016-04-03 02:51:08,844000/78d1d60ca3e33ba15d1863dcf3290665-g.jpg,,
5126262,Луганские тепловозы 1956-2006. Каталог-справочник ,,,,Буянов А.Ф. и др. ,2006,,ОАО Лугансктепловоз,,,0,Russian,КНИГИ ТЕХНИКА,mirknig.com,issue 2011-01,,,,,,,,,,,1181368628,0,,,,,1,,,17187641,djvu,77f472275da0f262a559ad74266196a0,,,[1181368628]Луганские тепловозы 1956-2006.Каталог-справочник.-Буянов А.Ф.и др..djvu,0,2000-01-01 01:00:00,2016-04-03 02:51:08,844000/77f472275da0f262a559ad74266196a0-g.jpg,,
5126261,Передача и обработка информации голографическими методами ,,,,"Гуревич С.Б., Константинов В.Б., Соколов В.К., Черных Д.Ф. ",1978,,М.: Советское радио ,,,0,Russian,КНИГИ НАУКА и УЧЕБА,mirknig.com,issue 2011-01,,,,,,,,,,,1181370190,0,,,,,1,,,3889208,djvu,758395ac240852d19fd422ed748feb80,,,"[1181370190]Передача и обработка информации голографическими методами.-Гуревич С.Б.,Константинов В.Б.,Соколов В.К.,Черных Д.Ф..djvu",0,2000-01-01 01:00:00,2016-04-03 02:51:08,http://mirknig.com/uploads/posts/2011-01/1296070543_b051f799dd5d40bc1f98ffae5cefa87d.jpg,,
5126260,Основы исламского вероучения ,,,,Мухаммад бин Ауда ас-саави ,1999,,Медина ,,,0,Russian,КНИГИ РЕЛИГИЯ,mirknig.com,issue 2011-01,,,,,,,,,,,1181362608,0,,,,,1,,,5420327,pdf,75571701cb71dd131532db3b2c879f55,,,[1181362608]Основы исламского вероучения.-Мухаммад бин Ауда ас-саави.pdf,0,2000-01-01 01:00:00,2016-04-03 02:51:08,844000/75571701cb71dd131532db3b2c879f55-g.jpg,,
5126259,Теоретические основы радиолокации ,,,,В. Дулевич ,1964,,Советское радио ,,,0,Russian,КНИГИ АППАРАТУРА,mirknig.com,issue 2011-02,,,,,,,,,,,1181375085,0,,,,,1,,,26713612,djvu,7511501a5add3cb5b20efb275087e6e4,,,"[1181375085]Теоретические основы радиолокации.-В.Дулевич,Советское радио,1964.djvu",0,2000-01-01 01:00:00,2016-04-03 02:51:08,844000/7511501a5add3cb5b20efb275087e6e4-g.jpg,,
5126258,Самооборона. Сто способов защиты на улице для безоружного. ,,,,Андрэ Эмиль ,1921,,Андрэ Эмиль ,,,0,Russian,"ЗДОРОВЬЕ,НАУКА и УЧЕБА",mirknig.com,issue 2011-01,,,,,,,,,,,1181362390 Качество: Хорошее ,0,,,,,1,,,11704269,pdf,7446017f85ca5ccb01e14c427fa4c95e,,,[1181362390]Самооборона.Сто способов защиты на улице для безоружного..-Андрэ Эмиль.pdf,0,2000-01-01 01:00:00,2016-04-03 02:51:08,844000/7446017f85ca5ccb01e14c427fa4c95e-d.jpg,,
5126256,Кварки ,,,,Ёитиро Намбу ,1984,,М.: Мир ,,,0,Russian,КНИГИ ЕСТЕСТВЕННЫЕ НАУКИ,mirknig.com,issue 2011-01,,,,,,,,,,,1181369961,0,,,,,1,,,3724814,djvu,724d275e84ec07526df839159361a768,,,[1181369961]Кварки.-Ёитиро Намбу.djvu,0,2000-01-01 01:00:00,2016-04-03 02:51:08,844000/724d275e84ec07526df839159361a768-g.jpg,,
5126257,Давайте погадаем! ,,,,Владимир Южин ,2001,,Рольф ,,,0,Russian,КНИГИ  ЭЗОТЕРИКА,mirknig.com,issue 2011-01,,,,,,,,,,,1181362510,0,,,,,1,,,78639632,pdf,7346bb8092611c103afadd110e8a0d3b,,,[1181362510]Давайте погадаем!.-Владимир Южин.pdf,0,2000-01-01 01:00:00,2016-04-03 02:51:08,844000/7346bb8092611c103afadd110e8a0d3b-g.jpg,,
5126255,Основы конструирования в самолетостроении ,,,,Гиммельфарб А.Л. ,1980,,Машиностроение ,,,0,Russian,Учебное пособие,mirknig.com,issue 2011-01,,,,,,,,,,,1181365403,0,,,,,1,,,8983103,djvu,70c0748c0ec9f1eca60aade7d64866ed,,,[1181365403]Основы конструирования в самолетостроении.-книги-Гиммельфарб А.Л..djvu,0,2000-01-01 01:00:00,2016-04-03 02:51:08,,,
5126254,Управление судном и его техническая эксплуатация ,,,,"Дидык А. Д., Усов В. Д., Титов Р. Ю. ",1990,,"Москва, «Транспорт» ",,,0,Russian,КНИГИ ТЕХНИКА,mirknig.com,issue 2011-01,,,,,,,,,,,1181361616,0,,,,,1,,,7275943,djvu,7031f9802bcbba838e567807661fcae4,,,"[1181361616]Управление судном и его техническая эксплуатация.-Дидык А.Д.,Усов В.Д.,Титов Р.Ю..djvu",0,2000-01-01 01:00:00,2016-04-03 02:51:08,844000/7031f9802bcbba838e567807661fcae4-g.jpg,,
5126253,Зоны обнаружения ,,,,Мищенко Ю.А. ,1963,,Воениздат ,,,0,Russian,КНИГИ АППАРАТУРА,mirknig.com,issue 2011-02,,,,,,,,,,,1181375293,0,,,,,1,,,3672635,djvu,6f7a3ab67d80fe1a8a81d310a4ab5b06,,,"[1181375293]Зоны обнаружения.-Мищенко Ю.А.,Воениздат,1963.djvu",0,2000-01-01 01:00:00,2016-04-03 02:51:08,844000/6f7a3ab67d80fe1a8a81d310a4ab5b06-d.png,,
5126252,Законы физики ,,,,Б.Н. Иванов ,1986,,Высшая школа ,,,0,Russian,КНИГИ ЕСТЕСТВЕННЫЕ НАУКИ,mirknig.com,issue 2011-01,,,,,,,,,,,1181370191,0,,,,,1,,,6499765,djvu,6f51d8f370e970113aa9a0987d37e85e,,,[1181370191]Законы физики.-Б.Н.Иванов.djvu,0,2000-01-01 01:00:00,2016-04-03 02:51:08,844000/6f51d8f370e970113aa9a0987d37e85e-g.jpg,,
5126251,Нейронные сети в задачах радиолокации ,,,,Татузов А.Л. ,2009,,Радиотехника ,,,0,Russian,КНИГИ АППАРАТУРА,mirknig.com,issue 2011-02,,,,,,,,,,,1181375296,0,,,,,1,,,6157021,djvu,6ed63e51fc45a586926a7dd8b14eb82f,,,"[1181375296]Нейронные сети в задачах радиолокации.-Татузов А.Л.,Радиотехника,2009.djvu",0,2000-01-01 01:00:00,2016-04-03 02:51:08,844000/6ed63e51fc45a586926a7dd8b14eb82f-g.jpg,,
5126250,Водная среда: обучение для устойчивого развития ,,,,,2010,,Петрозаводск: Карельский научный центр РАН ,,,0,Russian,"НАУКА и УЧЕБА,НАУЧНО-ПОПУЛЯРНОЕ",mirknig.com,issue 2011-01,,,,,,,,,,,1181361281,0,,,,,1,,,20040505,pdf,6e9c5150de4ca6c1412b962a3fe7a260,,,[1181361281]Водная среда-обучение для устойчивого развития.pdf,0,2000-01-01 01:00:00,2016-04-03 02:51:08,844000/6e9c5150de4ca6c1412b962a3fe7a260-g.jpg,,
5126249,Коммерческая эксплуатация морского транспорта ,,,,"Брухис Г.Е., Лущан Н.А. ",1985,,"Москва, «Транспорт» ",,,0,Russian,КНИГИ ТЕХНИКА,mirknig.com,issue 2011-01,,,,,,,,,,,1181361493,0,,,,,1,,,5262228,djvu,6bd6f681bd113cee593cdf21fd4f3ab8,,,"[1181361493]Коммерческая эксплуатация морского транспорта.-Брухис Г.Е.,Лущан Н.А..djvu",0,2000-01-01 01:00:00,2016-04-03 02:51:08,844000/6bd6f681bd113cee593cdf21fd4f3ab8-g.jpg,,
5126248,Радиолокационные системы летательных аппаратов,,,,Давыдов П.С. ,1977,,Транспорт ,,,0,Russian,КНИГИ АППАРАТУРА,mirknig.com,issue 2011-02,,,,,,,,,,,1181375364,0,,,,,1,,,9872757,djvu,6b8885f413e392269b4e2bc70b98dda5,,,"[1181375364]Радиолокационные системы летательных аппаратов.-Давыдов П.С.,Транспорт,1977.djvu",0,2000-01-01 01:00:00,2016-04-03 02:51:08,844000/6b8885f413e392269b4e2bc70b98dda5-g.jpg,,
5126247,Термоэлектрическая энергетика ,,,,"Поздняков Б.С., Коптелов Е.А. ",1974,,"М. , Атомиздат ",,,0,Russian,КНИГИ НАУКА и УЧЕБА,mirknig.com,issue 2011-01,,,,,,,,,,,1181365070,0,,,,,1,,,5993745,djvu,6b7d66175395d21a93f7e866e60fbba4,,,"[1181365070]Термоэлектрическая энергетика.-Поздняков Б.С.,Коптелов Е.А..djvu",0,2000-01-01 01:00:00,2016-04-03 02:51:08,http://mirknig.com/uploads/posts/2011-01/1295595826_elementy-teorii-igr-ventcel-e.s.-umensh.jpg,,
5126246,Устройство и основы теории морских судов ,,,,"Горячев А.М., Подругин Е.М ",1971,,"Ленинград, «Судостроение» ",,,0,Russian,КНИГИ ТЕХНИКА,mirknig.com,issue 2011-01,,,,,,,,,,,1181361618,0,,,,,1,,,7721274,djvu,6b69a57156eb944f2e45ea7665be1093,,,"[1181361618]Устройство и основы теории морских судов.-Горячев А.М.,Подругин Е.М.djvu",0,2000-01-01 01:00:00,2016-04-03 02:51:08,844000/6b69a57156eb944f2e45ea7665be1093-g.jpg,,
5126245,Коммерческая практика заграничного плавания ,,,,"Оберг Р.Р., Фафурин Н.А. ",1973,,"Москва, «Транспорт» ",,,0,Russian,КНИГИ  ПРОФЕССИИ И РЕМЕСЛА,mirknig.com,issue 2011-01,,,,,,,,,,,1181360944,0,,,,,1,,,3609279,djvu,6b39970bc30acda01712a7da733f52fd,,,"[1181360944]Коммерческая практика заграничного плавания.-Оберг Р.Р.,Фафурин Н.А..djvu",0,2000-01-01 01:00:00,2016-04-03 02:51:08,844000/6b39970bc30acda01712a7da733f52fd-g.jpg,,
5126244,Общие и специальные правила перевозки грузов ,,,,Министерство Морского Флота СССР ,1977,,Рекламинформбюро ,,,0,Russian,КНИГИ  ПРОФЕССИИ И РЕМЕСЛА,mirknig.com,issue 2011-01,,,,,,,,,,,1181361504,0,,,,,1,,,7629969,djvu,6a9428dc679f733708598d1479979413,,,[1181361504]Общие и специальные правила перевозки грузов.-Министерство Морского Флота СССР.djvu,0,2000-01-01 01:00:00,2016-04-03 02:51:08,844000/6a9428dc679f733708598d1479979413-d.jpg,,
5126243,Внешняя политика ФРГ: концепции и реалии 80-х годов,,,,Павлов Н.В.,1989,,Международные отношения,,,0,Russian,КНИГИ  ИСТОРИЯ,mirknig.com,issue 2011-01,,,,,,,,,,,1181369709,0,,,,,1,,,9225978,djvu,687856755be6df6aaeb5c5d4d6927a17,,,[1181369709]Внешняя политика ФРГ-концепции и реалии 80-х годов.-Павлов Н.В..djvu,0,2000-01-01 01:00:00,2016-04-03 02:51:08,844000/687856755be6df6aaeb5c5d4d6927a17-g.jpg,,
5126242,Кресло качалка своими руками,,,,Артем Прошкин,2010,,Евромебель,,,0,Russian,КНИГИ  ХОББИ и РЕМЕСЛА,mirknig.com,issue 2011-01,,,,,,,,,,,1181362996,0,,,,,1,,,1904202,djvu,67806e6725e1bdb3ae92c899bba9bb3a,,,[1181362996]Кресло качалка своими руками.-Артем Прошкин.djvu,0,2000-01-01 01:00:00,2016-04-03 02:51:08,844000/67806e6725e1bdb3ae92c899bba9bb3a-d.jpg,,
5126241,Правила технической эксплуатации морских и речных судов ,,,,ЮжНИИМФ ,1996,,Укрморинформ ,,,0,Russian,КНИГИ ТЕХНИКА,mirknig.com,issue 2011-01,,,,,,,,,,,1181367219,0,,,,,1,,,1427861,djvu,6672cab31975703e57489c86d309d783,,,[1181367219]Правила технической эксплуатации морских и речных судов.-ЮжНИИМФ.djvu,0,2000-01-01 01:00:00,2016-04-03 02:51:08,844000/6672cab31975703e57489c86d309d783-g.jpg,,
5126240,Шерлок Холмс изучает физику: Научно-популярный детектив ,,,,"Каспаров Б.М., Каспаров Н.Б. ",1990,,Ленинград ,,,0,Russian,КНИГИ НАУЧНО-ПОПУЛЯРНОЕ,mirknig.com,issue 2011-01,,,,,,,,,,,1181369606,0,,,,,1,,,1808612,djvu,6365c508acd9ad09d57cf557ff02da57,,,"[1181369606]Шерлок Холмс изучает физику-Научно-популярный детектив.-Каспаров Б.М.,Каспаров Н.Б..djvu",0,2000-01-01 01:00:00,2016-04-03 02:51:08,844000/6365c508acd9ad09d57cf557ff02da57-g.jpg,,
5126239,Проектирование цифровых устройств обработки сигналов в обзорных РЛС ,,,,Т. Жутаева ,1998,,МЭИ ,,,0,Russian,КНИГИ АППАРАТУРА,mirknig.com,issue 2011-02,,,,,,,,,,,1181375171,0,,,,,1,,,1148937,djvu,6356382c7b7584c8a211218a8a51cc48,,,"[1181375171]Проектирование цифровых устройств обработки сигналов в обзорных РЛС.-Т.Жутаева,МЭИ,1998.djvu",0,2000-01-01 01:00:00,2016-04-03 02:51:08,844000/6356382c7b7584c8a211218a8a51cc48-d.png,,
5126238,Этнография: Учебник ,,,,"Бромлей Ю. В., Марков Г. Е. ",1982,,Высшая школа ,,,0,Russian,КНИГИ НАУКА и УЧЕБА,mirknig.com,issue 2011-01,,,,,,,,,,,1181365018,0,,,,,1,,,9993608,djvu,61d923e363ccd17391edeb1429b8c123,,,"[1181365018]Этнография-Учебник.-Бромлей Ю.В.,Марков Г.Е..djvu",0,2000-01-01 01:00:00,2016-04-03 02:51:08,http://mirknig.com/uploads/posts/2011-01/1295472672_fizika-poluprovodnikov-140.jpg,,
5126237,Города и посады дореволюционного Поволжья ,,,,Зорин А.Н. ,2001,,Издательство Казанского Университета ,,,0,Russian,КНИГИ  ИСТОРИЯ,mirknig.com,issue 2011-01,,,,,,,,,,,1181363242,0,,,,,1,,,63796231,pdf,616f7c689c1f97b13ceb8887769d8ce7,,,[1181363242]Города и посады дореволюционного Поволжья.-Зорин А.Н..pdf,0,2000-01-01 01:00:00,2016-04-03 02:51:08,844000/616f7c689c1f97b13ceb8887769d8ce7-g.jpg,,
5126236,Навигационная гидрометеорология ,,,,"Стехновский Д.И., Зубков А.Е., Петровский Ю.С. ",1971,,"Москва, Транспорт ",,,0,Russian,КНИГИ НАУКА и УЧЕБА,mirknig.com,issue 2011-01,,,,,,,,,,,1181365832,0,,,,,1,,,6863478,djvu,60f28daaf57794e4d2cc6f9fca9686f7,,,"[1181365832]Навигационная гидрометеорология.-Стехновский Д.И.,Зубков А.Е.,Петровский Ю.С..djvu",0,2000-01-01 01:00:00,2016-04-03 02:51:08,,,
5126235,Пространственно-временная обработка сигналов ,,,,И. Кремера ,1984,,Радио и связь ,,,0,Russian,КНИГИ АППАРАТУРА,mirknig.com,issue 2011-02,,,,,,,,,,,1181375059,0,,,,,1,,,6772961,djvu,5f152a65bcbe3adca1bd2d2900d281cb,,,"[1181375059]Пространственно-временная обработка сигналов.-И.Кремера,Радио и связь,1984.djvu",0,2000-01-01 01:00:00,2016-04-03 02:51:08,844000/5f152a65bcbe3adca1bd2d2900d281cb-g.jpg,,
5126234,Владимир Ильич ЛЕНИН фотопортреты ,,,,Э. Д. Задирака ,1986,,ПЛАКАТ ,,,0,Russian,"ИСТОРИЯ,ЧЕЛОВЕК",mirknig.com,issue 2011-01,,,,,,,,,,,1181369015,0,,,,,1,,,1227181,djvu,5debf6f974181d8d39ff04036c09979f,,,[1181369015]Владимир Ильич ЛЕНИН фотопортреты.-Э.Д.Задирака.djvu,0,2000-01-01 01:00:00,2016-04-03 02:51:08,844000/5debf6f974181d8d39ff04036c09979f-g.jpg,,
5126233,Технология морских перевозок грузов ,,,,"Белоусов Л. Н., Корхов Я. Г. ",1978,,Москва «Транспорт» ,,,0,Russian,КНИГИ ТЕХНИКА,mirknig.com,issue 2011-01,,,,,,,,,,,1181361613,0,,,,,1,,,7662256,djvu,5c5c9b014eb1464c9a3934d44c0b4ce4,,,"[1181361613]Технология морских перевозок грузов.-Белоусов Л.Н.,Корхов Я.Г..djvu",0,2000-01-01 01:00:00,2016-04-03 02:51:08,844000/5c5c9b014eb1464c9a3934d44c0b4ce4-d.jpg,,
5126232,Маршрутами XX века,,,,Галкин И.Н. ,0,,Мысль ,,,0,Russian,КНИГИ НАУЧНО-ПОПУЛЯРНОЕ,mirknig.com,issue 2011-01,,,,,,,,,,,1181370216,0,,,,,1,,,5155695,djvu,5c270b02e6dc06fbc4a0206517018d71,,,[1181370216]Маршрутами XX века.-Галкин И.Н..djvu,0,2000-01-01 01:00:00,2016-04-03 02:51:08,844000/5c270b02e6dc06fbc4a0206517018d71-g.jpg,,
5126231,Охрана труда в прокатном производстве ,,,,Молчанова З. В. ,1973,,Металлургия ,,,0,Russian,КНИГИ  ПРОФЕССИИ И РЕМЕСЛА,mirknig.com,issue 2011-01,,,,,,,,,,,1181362893,0,,,,,1,,,2905806,djvu,5b63c7d95d540e327fecf78a08761875,,,[1181362893]Охрана труда в прокатном производстве.-Молчанова З.В..djvu,0,2000-01-01 01:00:00,2016-04-03 02:51:08,844000/5b63c7d95d540e327fecf78a08761875-g.jpg,,
5126230,Записки Одесского общества истории и древностей. Том1 ,,,,Коллектив авторов,1844,,городская типография. Одесса ,,,0,Russian,"КНИГИ, ИСТОРИЯ",mirknig.com,issue 2011-02,,,,,,,,,,,1181371872,0,,,,,1,,,22250150,djvu,5a1d9bbe1275bb1927ef450faddd5079,,,"[1181371872]Записки Одесского общества истории и древностей.Том 1.-городская типография.Одесса,1844.djvu",0,2000-01-01 01:00:00,2016-04-03 02:51:08,844000/5a1d9bbe1275bb1927ef450faddd5079-g.jpg,,
5126229,История внешней политики России. XVIII век. (От Северной войны до войн России против Наполеона) ,,,,"Ж. А. Ананян, А. П. Бажова, Г. В. Мелихов и др. ",1998,,Международные отношения ,,,0,Russian,КНИГИ  ИСТОРИЯ,mirknig.com,issue 2011-01,,,,,,,,,,,1181362496,0,,,,,1,,,11800089,pdf,588ec04018528c8c7c35c858177a0448,,,"[1181362496]История внешней политики России.XVIII век.(От Северной войны до войн России против Наполеона).-Ж.А.Ананян,А.П.Бажов.pdf",0,2000-01-01 01:00:00,2016-04-03 02:51:08,844000/588ec04018528c8c7c35c858177a0448-g.jpg,,
5126228,Активное сознание ,,,,Бахтияров Олег Георгиевич ,2010,,ООО Издательский дом «ПОСТУМ» ,,,0,Russian,КНИГИ  ЭЗОТЕРИКА,mirknig.com,issue 2011-01,,,,,,,,,,,1181369148,0,,,,,1,,,19359512,pdf,57820d267ecc4b85f1f100f893cdc17b,,,[1181369148]Активное сознание.-Бахтияров Олег Георгиевич.pdf,0,2000-01-01 01:00:00,2016-04-03 02:51:08,844000/57820d267ecc4b85f1f100f893cdc17b-g.jpg,,
5126227,Применение методов теории информации в физике ,,,,Хармут Х. ,1989,,Москва: Мир ,,,0,Russian,КНИГИ НАУКА и УЧЕБА,mirknig.com,issue 2011-01,,,,,,,,,,,1181367169,0,,,,,1,,,4771268,djvu,571d3b4fc63184404e33731d1c83fccc,,,[1181367169]Применение методов теории информации в физике.-Хармут Х..djvu,0,2000-01-01 01:00:00,2016-04-03 02:51:08,844000/571d3b4fc63184404e33731d1c83fccc-g.jpg,,
5126226,Задачи Арнольда,,,,"Севрюк М.Б., Филиппов В.Б. ",2000,,ФАЗИС ,,,0,Russian,КНИГИ НАУКА и УЧЕБА,mirknig.com,issue 2011-01,,,,,,,,,,,1181363429,0,,,,,1,,,35914589,pdf,51f2aa66b948dd15364a5a1c716160c7,,,"[1181363429]Задачи Арнольда.-Севрюк М.Б.,Филиппов В.Б..pdf",0,2000-01-01 01:00:00,2016-04-03 02:51:08,,,
5126225,Вопросы проектирование активных ФАР с использованием ЭВМ ,,,,Гостюхин В.Л. ,1983,,Радио и связь ,,,0,Russian,КНИГИ АППАРАТУРА,mirknig.com,issue 2011-02,,,,,,,,,,,1181375388,0,,,,,1,,,1892295,djvu,4f64743d065ecb11d05826c0fd0abaad,,,"[1181375388]Вопросы проектирование активных ФАР с использованием ЭВМ.-Гостюхин В.Л.,Радио и связь,1983.djvu",0,2000-01-01 01:00:00,2016-04-03 02:51:08,844000/4f64743d065ecb11d05826c0fd0abaad-g.jpg,,
5126224,Силовой курс 6 недель ,,,,,2009,,RunToWin ,,,0,Russian,"ЗДОРОВЬЕ, ХОББИ и РАЗВЛЕЧЕНИЯ",mirknig.com,issue 2011-01,,,,,,,,,,,1181363482 Качество: Хорошее ,0,,,,,1,,,10613062,pdf,4ede9a73122f93032685cbb464617e36,,,[1181363482]Силовой курс quot;6 недельquot;.-RunToWin.pdf,0,2000-01-01 01:00:00,2016-04-03 02:51:08,844000/4ede9a73122f93032685cbb464617e36-g.jpg,,
5126223,Бой - Схватка с собакой ,,,,Денис Мелузов ,2006,,Денис Мелузов ,,,0,Russian,"НАУКА и УЧЕБА,НАУЧНО-ПОПУЛЯРНОЕ",mirknig.com,issue 2011-01,,,,,,,,,,,1181362856 Качество: Хорошее ,0,,,,,1,,,11029060,pdf,4e0d53cd2a8a3ef0626c1680586065b6,,,[1181362856]Бой - Схватка с собакой.-Денис Мелузов.pdf,0,2000-01-01 01:00:00,2016-04-03 02:51:08,,,
5126222,Тепловой расчет электронных приборов ,,,,"Пошехонов П.В., Соколовский Э.И. ",1977,,Москва: Высшая школа ,,,0,Russian,КНИГИ НАУКА и УЧЕБА,mirknig.com,issue 2011-01,,,,,,,,,,,1181367794,0,,,,,1,,,2184931,djvu,4dbcdc6ead1c05d19c0b9b535f445e38,,,"[1181367794]Тепловой расчет электронных приборов.-Пошехонов П.В.,Соколовский Э.И..djvu",0,2000-01-01 01:00:00,2016-04-03 02:51:08,844000/4dbcdc6ead1c05d19c0b9b535f445e38-g.jpg,,
5126221,Переславль-Залесский ,,,,Пуришев И.Б. ,1989,,Советская Россия ,,,0,Russian,КНИГИ  КУЛЬТУРА и ИСКУССТВО,mirknig.com,issue 2011-01,,,,,,,,,,,1181366663,0,,,,,1,,,33082521,pdf,4d4bb5394446b1dccfb44e2ac54047d1,,,[1181366663]Переславль-Залесский.-Пуришев И.Б..pdf,0,2000-01-01 01:00:00,2016-04-03 02:51:08,844000/4d4bb5394446b1dccfb44e2ac54047d1-g.jpg,,
5126220,Магнитно-компасное дело ,,,,"Нечаев П.А., Григорьев В.В. ",1986,,"Москва, «Транспорт» ",,,0,Russian,КНИГИ НАУКА и УЧЕБА,mirknig.com,issue 2011-01,,,,,,,,,,,1181361499,0,,,,,1,,,5130559,djvu,4cfc9ec383ffde8e902334e531840930,,,"[1181361499]Магнитно-компасное дело.-Нечаев П.А.,Григорьев В.В..djvu",0,2000-01-01 01:00:00,2016-04-03 02:51:08,844000/4cfc9ec383ffde8e902334e531840930-g.jpg,,
5126219,Радиолокационные станции воздушной разведки ,,,,Г. Кондратенков ,1983,,ВИЗМОСССР ,,,0,Russian,КНИГИ АППАРАТУРА,mirknig.com,issue 2011-02,,,,,,,,,,,1181375002,0,,,,,1,,,40210154,djvu,4b1c8ebc82532984350b5d99f4e3c654,,,"[1181375002]Радиолокационные станции воздушной разведки.-Г.Кондратенков,ВИЗМОСССР,1983.djvu",0,2000-01-01 01:00:00,2016-04-03 02:51:08,844000/4b1c8ebc82532984350b5d99f4e3c654-g.jpg,,
5126218,Персональный компьютер ,,,,Валентин Холмогоров. ,2007,,ОЛМА Медиа Групп ,,,0,Russian,КНИГИ СЕТЕВЫЕ ТЕХНОЛОГИИ,mirknig.com,issue 2011-01,,,,,,,,,,,1181366278,0,,,,,1,,,96978135,pdf,4accdb5261afa1dad44fc43101741e52,,,[1181366278]Персональный компьютер..-Валентин Холмогоров..pdf,0,2000-01-01 01:00:00,2016-04-03 02:51:08,844000/4accdb5261afa1dad44fc43101741e52-g.jpg,,
5126217,И нельзя повернуть назад ,,,,Р.А. Хазов ,2010,,Петрозаводск: Карельский научный центр РАН ,,,0,Russian,"НАУКА и УЧЕБА, ПРОФЕССИИ И РЕМЕСЛА",mirknig.com,issue 2011-01,,,,,,,,,,,1181361079,0,,,,,1,,,35430963,pdf,4a8ee7a9e2ea4664c3413940d6f0c570,,,[1181361079]И нельзя повернуть назад.-Р.А.Хазов.pdf,0,2000-01-01 01:00:00,2016-04-03 02:51:08,844000/4a8ee7a9e2ea4664c3413940d6f0c570-d.jpg,,
5126216,Типовые расчеты характеристик радиолокационных и радионавигационных систем ,,,,П. Бакулев ,1993,,МАИ ,,,0,Russian,КНИГИ АППАРАТУРА,mirknig.com,issue 2011-02,,,,,,,,,,,1181375170,0,,,,,1,,,1723523,djvu,493cb9cb70f041213d121691cbe10fc5,,,"[1181375170]Типовые расчеты характеристик радиолокационных и радионавигационных систем.-П.Бакулев,МАИ,1993.djvu",0,2000-01-01 01:00:00,2016-04-03 02:51:08,844000/493cb9cb70f041213d121691cbe10fc5-g.jpg,,
5126215,Радиолокационные цели ,,,,Мищенко Ю. ,1966,,Воениздат ,,,0,Russian,КНИГИ АППАРАТУРА,mirknig.com,issue 2011-02,,,,,,,,,,,1181375083,0,,,,,1,,,5238471,djvu,488ab97090c079677cafd0faea51ebd3,,,"[1181375083]Радиолокационные цели.-Мищенко Ю.,Воениздат,1966.djvu",0,2000-01-01 01:00:00,2016-04-03 02:51:08,844000/488ab97090c079677cafd0faea51ebd3-g.jpg,,
5126214,Радиолокационный обзор ,,,,Степанов Б.М. ,1959,,Воениздат ,,,0,Russian,КНИГИ АППАРАТУРА,mirknig.com,issue 2011-02,,,,,,,,,,,1181375339,0,,,,,1,,,1209134,djvu,4805f1aeae0eda29d3d1083add4da76e,,,"[1181375339]Радиолокационный обзор.-Степанов Б.М.,Воениздат,1959.djvu",0,2000-01-01 01:00:00,2016-04-03 02:51:08,844000/4805f1aeae0eda29d3d1083add4da76e-g.jpg,,
5126213,Упущенный шанс Врангеля ,,,,А. Б. Широкорад ,2009,,Вече ,,,0,Russian,КНИГИ  ИСТОРИЯ,mirknig.com,issue 2011-01,,,,,,,,,,,1181361569,0,,,,,1,,,2951420,pdf,475070001aa5b7421019f483fae8b610,,,[1181361569]Упущенный шанс Врангеля.-А.Б.Широкорад.pdf,0,2000-01-01 01:00:00,2016-04-03 02:51:08,844000/475070001aa5b7421019f483fae8b610-g.jpg,,
5126212,Бодибилдинг ,,,,Дориан Ятс ,1987,,Дориан Ятс ,,,0,Russian,"ЗДОРОВЬЕ, ХОББИ и РАЗВЛЕЧЕНИЯ",mirknig.com,issue 2011-01,,,,,,,,,,,1181363538 Качество: Хорошее ,0,,,,,1,,,13195226,pdf,470af1373c4f01087fc4736b9356dfa9,,,[1181363538]Бодибилдинг.-Дориан Ятс.pdf,0,2000-01-01 01:00:00,2016-04-03 02:51:08,844000/470af1373c4f01087fc4736b9356dfa9-g.jpg,,
5126210,InfoPath with SharePoint 2010 How-To ,,,,STEVEN MANN ,2010,,Sams,,,0,English ,КНИГИ  ПРОГРАММИНГ,mirknig.com,issue 2011-01,,,,,,,,,,,1181369880,0,,,,,1,,,26210036,pdf,449b8230ae6bf432ca6bfcafdbe2dbbb,,,[1181369880]InfoPath with SharePoint 2010 How-To.-STEVEN MANN.pdf,0,2000-01-01 01:00:00,2016-04-03 02:51:08,844000/449b8230ae6bf432ca6bfcafdbe2dbbb-g.jpg,,
5126211,Кто финансирует развал России? От декабристов до моджахедов ,,,,Николай Стариков ,2010,,Питер ,,,0,Russian,КНИГИ  ИСТОРИЯ,mirknig.com,issue 2011-01,,,,,,,,,,,1181363142,0,,,,,1,,,43368604,pdf,44c43c0160bc427a313f37d62b7e6226,,,[1181363142]Кто финансирует развал России.От декабристов до моджахедов.-Николай Стариков.pdf,0,2000-01-01 01:00:00,2016-04-03 02:51:08,844000/44c43c0160bc427a313f37d62b7e6226-g.jpg,,
5126209,Эффективность судовых радиоэлектронных систем ,,,,Раков В.И. ,1974,,Судостроение ,,,0,Russian,КНИГИ АППАРАТУРА,mirknig.com,issue 2011-02,,,,,,,,,,,1181375294,0,,,,,1,,,5382351,djvu,43d576b11edc430c14bece1e809828c1,,,"[1181375294]Эффективность судовых радиоэлектронных систем.-Раков В.И.,Судостроение,1974.djvu",0,2000-01-01 01:00:00,2016-04-03 02:51:08,844000/43d576b11edc430c14bece1e809828c1-d.png,,
5126208,Газосварщик ,,,,Юхин Н.А. ,2005,,Академия ,,,0,Russian,КНИГИ  ПРОФЕССИИ И РЕМЕСЛА,mirknig.com,issue 2011-01,,,,,,,,,,,1181364814,0,,,,,1,,,1362583,djvu,4391562fe1afad2af59dea77d35c1ea8,,,[1181364814]Газосварщик.-Юхин Н.А..djvu,0,2000-01-01 01:00:00,2016-04-03 02:51:08,844000/4391562fe1afad2af59dea77d35c1ea8-g.jpg,,
5126207,Классический танец для начинающих ,,,,Вихрева Н.А. ,2004,,Театралис ,,,0,Russian,КНИГИ  КУЛЬТУРА и ИСКУССТВО,mirknig.com,issue 2011-01,,,,,,,,,,,1181365972,0,,,,,1,,,18552976,djvu,432f39697a263ed9445f8bac5d0de831,,,[1181365972]Классический танец для начинающих.-Вихрева Н.А..djvu,0,2000-01-01 01:00:00,2016-04-03 02:51:08,844000/432f39697a263ed9445f8bac5d0de831-g.jpg,,
5126206,Тюнинг руля ,,,,Коллектив авторов ,2010,,Автомастер ,,,0,Russian,"ТЕХНИКА, ХОББИ и РАЗВЛЕЧЕНИЯ",mirknig.com,issue 2011-01,,,,,,,,,,,1181361975 Качество: Хорошее ,0,,,,,1,,,14897836,pdf,3de086c575fd6131e48f58e439f290de,,,[1181361975]Тюнинг руля.pdf,0,2000-01-01 01:00:00,2016-04-03 02:51:08,844000/3de086c575fd6131e48f58e439f290de-d.jpg,,
5126205,Кодекс торгового мореплавания Украины (КТМ Украины) ,,,,Верховный совет Украины ,2002,,"Одесса, Феникс ",,,0,Russian,КНИГИ  ПРОФЕССИИ И РЕМЕСЛА,mirknig.com,issue 2011-01,,,,,,,,,,,1181366567,0,,,,,1,,,5230675,djvu,3a3d878db30a712e152130a53539c7e4,,,[1181366567]Кодекс торгового мореплавания Украины(КТМ Украины).-Верховный совет Украины.djvu,0,2000-01-01 01:00:00,2016-04-03 02:51:08,844000/3a3d878db30a712e152130a53539c7e4-g.jpg,,
5126204,Изобразительное мастерство в фотографии ,,,,Юрий Екельчик ,1951,,Госкиноиздат ,,,0,Russian,КНИГИ ФОТО-ВИДЕО,mirknig.com,issue 2011-01,,,,,,,,,,,1181369923,0,,,,,1,,,19200272,djvu,39b92fc0e9e7847f56779ca41118961f,,,[1181369923]Изобразительное мастерство в фотографии.-Юрий Екельчик.djvu,0,2000-01-01 01:00:00,2016-04-03 02:51:08,844000/39b92fc0e9e7847f56779ca41118961f-d.jpg,,
5126203,Справочник по элементам полосковой техники ,,,,А. Фельдштейн ,1979,,Связь ,,,0,Russian,КНИГИ АППАРАТУРА,mirknig.com,issue 2011-02,,,,,,,,,,,1181375067,0,,,,,1,,,4351476,djvu,374510c73c5658d6b8a8e8d9ca220bdb,,,"[1181375067]Справочник по элементам полосковой техники.-А.Фельдштейн,Связь,1979.djvu",0,2000-01-01 01:00:00,2016-04-03 02:51:08,844000/374510c73c5658d6b8a8e8d9ca220bdb-g.jpg,,
5126202,"ActionScript 3.0 Game Programming University, 2nd Edition ",,,,Gary Rosenzweig ,2011,,Que ,,,0,English ,КНИГИ  ПРОГРАММИНГ,mirknig.com,issue 2011-01,,,,,,,,,,,1181369448,0,,,,,1,,,11658136,pdf,3631dc4981d50afa8d16ad4c87ee9bd5,,,"[1181369448]ActionScript 3.0 Game Programming University,2nd Edition.-Gary Rosenzweig.pdf",0,2000-01-01 01:00:00,2016-04-03 02:51:08,844000/3631dc4981d50afa8d16ad4c87ee9bd5-d.jpg,,
5126201,Юный киномеханик ,,,,"В. Рапков, В. Пекелис",1966,,"Москва, Детская литература ",,,0,Russian,"КНИГИ, ПРОФЕССИИ И РЕМЕСЛА, ХОББИ и РАЗВЛЕЧЕНИЯ",mirknig.com,issue 2011-02,,,,,,,,,,,1181378139,0,,,,,1,,,24159254,djvu,35f2f323e0a4f1e52a3cea480fc6dc74,,,"[1181378139]Знай и умей.Юный киномеханик--Название-Юный киномеханик Автор-В.Рапков,В.ПекелисИздательство-Москва,Детская литерат.djvu",0,2000-01-01 01:00:00,2016-04-03 02:51:08,844000/35f2f323e0a4f1e52a3cea480fc6dc74-d.png,,
5126200,Грузоведение и складское дело на морском транспорте ,,,,"Белинская Л.Н., Сенько Г.А. ",1982,,"Москва, «Транспорт» ",,,0,Russian,КНИГИ  ПРОФЕССИИ И РЕМЕСЛА,mirknig.com,issue 2011-01,,,,,,,,,,,1181360939,0,,,,,1,,,14803368,djvu,35dd6c84d7afe45b91090cf38b36b942,,,"[1181360939]Грузоведение и складское дело на морском транспорте.-Белинская Л.Н.,Сенько Г.А..djvu",0,2000-01-01 01:00:00,2016-04-03 02:51:08,844000/35dd6c84d7afe45b91090cf38b36b942-g.jpg,,
5126199,Пособие для комивояжеров ,,,,Коллектив авторов ,1905,,M.D.R ,,,0,Russian,"НАУКА и УЧЕБА, ХОББИ и РАЗВЛЕЧЕНИЯ",mirknig.com,issue 2011-01,,,,,,,,,,,1181362843 Качество: Хорошее ,0,,,,,1,,,11130933,pdf,3539fb6e53eef112f00bd116cd958e45,,,[1181362843]Пособие для комивояжеров.pdf,0,2000-01-01 01:00:00,2016-04-03 02:51:08,,,
5126198,"Beginning C++ Through Game Programming, 3rd Edition ",,,,Michael Dawson,2010,,Course Technology PTR ,,,0,English ,КНИГИ  ПРОГРАММИНГ,mirknig.com,issue 2011-01,,,,,,,,,,,1181369428,0,,,,,1,,,4523268,pdf,34f09be0ed6217c465debc4490197d4f,,,"[1181369428]Beginning C++ Through Game Programming,3rd Edition.-Michael Dawson.pdf",0,2000-01-01 01:00:00,2016-04-03 02:51:08,844000/34f09be0ed6217c465debc4490197d4f-g.jpg,,
5126196,Storybook dolls ,,,,Kyoko Yoneyama ,2003,,Ondori ,,,0,English ,КНИГИ  ХОББИ и РЕМЕСЛА,mirknig.com,issue 2011-01,,,,,,,,,,,1181363150,0,,,,,1,,,11565151,pdf,30b1627aa8a3e7573709647b0bb2c173,,,[1181363150]Storybook dolls.-Kyoko Yoneyama.pdf,0,2000-01-01 01:00:00,2016-04-03 02:51:08,844000/30b1627aa8a3e7573709647b0bb2c173-g.jpg,,
5126197,Теоретические основы атмосферной оптики ,,,,"Тимофеев Ю.М., Васильев А.В. ",2003,,СПб: Наука ,,,0,Russian,КНИГИ ЕСТЕСТВЕННЫЕ НАУКИ,mirknig.com,issue 2011-01,,,,,,,,,,,1181368201,0,,,,,1,,,7076651,djvu,324283898235a45277ed3437735ca87a,,,"[1181368201]Теоретические основы атмосферной оптики.-Тимофеев Ю.М.,Васильев А.В..djvu",0,2000-01-01 01:00:00,2016-04-03 02:51:08,844000/324283898235a45277ed3437735ca87a-g.jpg,,
5126195,"История, культура, фольклор и этнография славянских народов ",,,,Дьяков В.А. и др. ,1968,,Наука ,,,0,Russian,"ИСТОРИЯ, КУЛЬТУРА и ИСКУССТВО",mirknig.com,issue 2011-01,,,,,,,,,,,1181364729,0,,,,,1,,,6632561,pdf,309ca10db63039b5db9d95b9b0635ed2,,,"[1181364729]История,культура,фольклор и этнография славянских народов.-Дьяков В.А.и др..pdf",0,2000-01-01 01:00:00,2016-04-03 02:51:08,,,
5126194,Судовые радионавигационные приборы ,,,,"Коновалов В.В., Кузнецова Л.И., Мельников Н.П., Причкин О.Б. ",1989,,"Москва, «Транспорт» ",,,0,Russian,КНИГИ ТЕХНИКА,mirknig.com,issue 2011-01,,,,,,,,,,,1181361510,0,,,,,1,,,5356066,djvu,2f50c48efcc9f260ca982f4e79d45368,,,"[1181361510]Судовые радионавигационные приборы.-Коновалов В.В.,Кузнецова Л.И.,Мельников Н.П.,Причкин О.Б..djvu",0,2000-01-01 01:00:00,2016-04-03 02:51:08,844000/2f50c48efcc9f260ca982f4e79d45368-g.jpg,,
5126193,Химия: Справочные материалы ,,,,Ю.Д. Третьяков (ред) ,1988,,Просвещение ,,,0,Russian,КНИГИ ЕСТЕСТВЕННЫЕ НАУКИ,mirknig.com,issue 2011-01,,,,,,,,,,,1181370184,0,,,,,1,,,4688218,djvu,2f2e4f7907abaf379cba1c833357338b,,,[1181370184]Химия-Справочные материалы.-Ю.Д.Третьяков(ред).djvu,0,2000-01-01 01:00:00,2016-04-03 02:51:08,844000/2f2e4f7907abaf379cba1c833357338b-g.jpg,,
5126192,Судовые автоматизированные энергетические установки ,,,,Акимов П.П. ,1980,,"Москва, Транспорт ",,,0,Russian,КНИГИ ТЕХНИКА,mirknig.com,issue 2011-01,,,,,,,,,,,1181365842,0,,,,,1,,,3909547,djvu,2e623aa6c20fa86398f9414275ffff1d,,,[1181365842]Судовые автоматизированные энергетические установки.-Акимов П.П..djvu,0,2000-01-01 01:00:00,2016-04-03 02:51:08,844000/2e623aa6c20fa86398f9414275ffff1d-g.jpg,,
5126191,Осетинский эпос и мифология ,,,,Дюмезиль Ж. ,1976,,"Наука, Главная редакция восточной литературы ",,,0,Russian,"ИСТОРИЯ, КУЛЬТУРА и ИСКУССТВО",mirknig.com,issue 2011-01,,,,,,,,,,,1181363129,0,,,,,1,,,12144505,pdf,2d112234b16ec824f1ef85b1684cdaac,,,[1181363129]Осетинский эпос и мифология.-Дюмезиль Ж..pdf,0,2000-01-01 01:00:00,2016-04-03 02:51:08,844000/2d112234b16ec824f1ef85b1684cdaac-g.jpg,,
5126190,Защита радиолокационных систем от помех. Состояние и тенденции развития ,,,,А. Канащенков ,2003,,Радиотехника ,,,0,Russian,КНИГИ АППАРАТУРА,mirknig.com,issue 2011-02,,,,,,,,,,,1181375006,0,,,,,1,,,57209172,pdf,2cd19d206ad6bd949e973ef14d60c8c7,,,"[1181375006]Защита радиолокационных систем от помех.Состояние и тенденции развития.-А.Канащенков,Радиотехника,2003.pdf",0,2000-01-01 01:00:00,2016-04-03 02:51:08,844000/2cd19d206ad6bd949e973ef14d60c8c7-g.jpg,,
5126189,Следы ведут в пески Аравии ,,,,Путинцева Т.А. ,1986,,Наука ,,,0,Russian,КНИГИ  ИСТОРИЯ,mirknig.com,issue 2011-01,,,,,,,,,,,1181366309,0,,,,,1,,,21577215,pdf,2c93fb3bda0ec89c2280c9891ea26e27,,,[1181366309]Следы ведут в пески Аравии.-Путинцева Т.А..pdf,0,2000-01-01 01:00:00,2016-04-03 02:51:08,844000/2c93fb3bda0ec89c2280c9891ea26e27-g.jpg,,
5126188,"Самые эффективные методики очищения, голодания и омоложения. ",,,,Сост. Ю. С. Пернатьев. ,2010,,"Харьков, Клуб семейного досуга ",,,0,Russian,КНИГИ ЗДОРОВЬЕ,mirknig.com,issue 2011-01,,,,,,,,,,,1181369206,0,,,,,1,,,50892869,pdf,2b3e7a174cecb69112fcd3a3d7208267,,,"[1181369206]Самые эффективные методики очищения,голодания и омоложения..-Сост.Ю.С.Пернатьев..pdf",0,2000-01-01 01:00:00,2016-04-03 02:51:08,844000/2b3e7a174cecb69112fcd3a3d7208267-g.jpg,,
5126187,Элементы теории игр ,,,,Вентцель Е.С. ,1961,,Москва: Физико-математическая литература ,,,0,Russian,КНИГИ НАУКА и УЧЕБА,mirknig.com,issue 2011-01,,,,,,,,,,,1181367175,0,,,,,1,,,500156,djvu,2a23b87921d8d43a6dd3996914eb7901,,,[1181367175]Элементы теории игр.-Вентцель Е.С..djvu,0,2000-01-01 01:00:00,2016-04-03 02:51:08,844000/2a23b87921d8d43a6dd3996914eb7901-g.jpg,,
5126186,Памятники старины Таласской долины ,,,,А.Н. Бернштам ,1941,,Алма-Ата. Казахское объединенное государственное издательство ,,,0,Russian,КНИГИ  ИСТОРИЯ,mirknig.com,issue 2011-01,,,,,,,,,,,1181364107,0,,,,,1,,,10268097,pdf,296f04bcbf420592d1e30a184348a69d,,,[1181364107]Памятники старины Таласской долины.-А.Н.Бернштам.pdf,0,2000-01-01 01:00:00,2016-04-03 02:51:08,http://mirknig.com/uploads/posts/2011-01/1295338323_history786.jpg,,
5126185,Как построить ткацкий станок и ткать простые ткани ,,,,Добровольский В.А. ,1924,,Новая деревня ,,,0,Russian,"ХОББИ и РЕМЕСЛА, РУКОДЕЛИЕ",mirknig.com,issue 2011-01,,,,,,,,,,,1181361609 Качество: Хорошее ,0,,,,,1,,,15359007,pdf,291261df501a759b5b1d8857fa0aed52,,,[1181361609]Как построить ткацкий станок и ткать простые ткани.-Добровольский В.А..pdf,0,2000-01-01 01:00:00,2016-04-03 02:51:08,844000/291261df501a759b5b1d8857fa0aed52-g.jpg,,
5126184,Высокоинтенсивный тренинг в вопросах и ответах ,,,,Роберт Спектор(ПереводЕвгений Кушнаренко) ,2008,,Роберт Спектор ,,,0,Russian,"ЗДОРОВЬЕ,ЧЕЛОВЕК",mirknig.com,issue 2011-01,,,,,,,,,,,1181363579 Качество: Хорошее ,0,,,,,1,,,13651453,pdf,28816164d68b142cf5f661b655cbd0a5,,,[1181363579]Высокоинтенсивный тренинг в вопросах и ответах.-Роберт Спектор(ПереводЕвгений Кушнаренко).pdf,0,2000-01-01 01:00:00,2016-04-03 02:51:08,844000/28816164d68b142cf5f661b655cbd0a5-g.jpg,,
5126183,Тибетская историческая литература ,,,,Востриков А.И.,1962,,Издательство Восточной Литературы ,,,0,Russian,КНИГИ  КУЛЬТУРА и ИСКУССТВО,mirknig.com,issue 2011-01,,,,,,,,,,,1181367944,0,,,,,1,,,16167099,pdf,28215cf6b969ca5a053c071891ef5b3b,,,[1181367944]Тибетская историческая литература.-Востриков А.И..pdf,0,2000-01-01 01:00:00,2016-04-03 02:51:08,844000/28215cf6b969ca5a053c071891ef5b3b-d.jpg,,
5126182,Характеристики обнаружения ,,,,М. Каценбоген ,1965,,Советское радио ,,,0,Russian,КНИГИ АППАРАТУРА,mirknig.com,issue 2011-02,,,,,,,,,,,1181375080,0,,,,,1,,,1317000,djvu,27d717c44f8094fb04388136ee2552ca,,,"[1181375080]Характеристики обнаружения.-М.Каценбоген,Советское радио,1965.djvu",0,2000-01-01 01:00:00,2016-04-03 02:51:08,844000/27d717c44f8094fb04388136ee2552ca-g.jpg,,
5126181,ЦРУ без маски,,"Империализм: События, факты, документы",,Мардонес Г.К.,1979,,Мысль,,,0,Russian,КНИГИ  ИСТОРИЯ,mirknig.com,issue 2011-01,,,,,,,,,,,1181370571,0,,,,,1,,,6373448,djvu,27205ec7ebe599ce899bb0101c773da7,,,[1181370571]ЦРУ без маски.-Мардонес Г.К..djvu,0,2000-01-01 01:00:00,2016-04-03 02:51:08,844000/27205ec7ebe599ce899bb0101c773da7-d.jpg,,
5126180,Таро сновидений Нострадамуса ,,,,АРЕВ (Склярова В.А.) ,2002,,Старклайт ,,,0,Russian,КНИГИ  ЭЗОТЕРИКА,mirknig.com,issue 2011-01,,,,,,,,,,,1181364097,0,,,,,1,,,97446208,pdf,24e66c0896b54fd425c84c4057895a27,,,[1181364097]Таро сновидений Нострадамуса.-АРЕВ(Склярова В.А.).pdf,0,2000-01-01 01:00:00,2016-04-03 02:51:08,844000/24e66c0896b54fd425c84c4057895a27-g.jpg,,
5126179,Основы построения РЛС РТВ ,,,,Бондаренко Б.Ф. ,1987,,КВИРТУ ,,,0,Russian,КНИГИ АППАРАТУРА,mirknig.com,issue 2011-02,,,,,,,,,,,1181375348,0,,,,,1,,,8316712,djvu,23903079e8011a0a8ff2a06db0ba7712,,,"[1181375348]Основы построения РЛС РТВ.-Бондаренко Б.Ф.,КВИРТУ,1987.djvu",0,2000-01-01 01:00:00,2016-04-03 02:51:08,844000/23903079e8011a0a8ff2a06db0ba7712-g.jpg,,
5126178,Физические факторы исторического процесса ,,,,А.Л. Чижевский ,1924,,А.Л. Чижевский ,,,0,Russian,КНИГИ ЕСТЕСТВЕННЫЕ НАУКИ,mirknig.com,issue 2011-01,,,,,,,,,,,1181369416,0,,,,,1,,,6612350,pdf,22cea9aaf53475b929356b070e96f96d,,,[1181369416]Физические факторы исторического процесса.-А.Л.Чижевский.pdf,0,2000-01-01 01:00:00,2016-04-03 02:51:08,844000/22cea9aaf53475b929356b070e96f96d-g.jpg,,
5126177,Лошадка качалка своими руками,,,,Артем Прошкин,2010,,Евромебель,,,0,Russian,КНИГИ  ХОББИ и РЕМЕСЛА,mirknig.com,issue 2011-01,,,,,,,,,,,1181364570,0,,,,,1,,,1591347,djvu,1fc489807b68da0e355177768718a835,,,[1181364570]Лошадка качалка своими руками.-Артем Прошкин.djvu,0,2000-01-01 01:00:00,2016-04-03 02:51:08,844000/1fc489807b68da0e355177768718a835-g.jpg,,
5126176,Борьба за власть в Шадринском уезде Пермской губернии 1917-1920 гг. ,,,,Пашков А.А. ,2007,,Издательство ОГУП Шадринский Дом Печати ,,,0,Russian,КНИГИ  ИСТОРИЯ,mirknig.com,issue 2011-01,,,,,,,,,,,1181363411,0,,,,,1,,,13076475,djvu,1b5b1d3f133e07925e8cd47ad0156877,,,[1181363411]Борьба за власть в Шадринском уезде Пермской губернии 1917-1920 гг..-Пашков А.А..djvu,0,2000-01-01 01:00:00,2016-04-03 02:51:08,844000/1b5b1d3f133e07925e8cd47ad0156877-g.jpg,,
5126175,Основы проектирования систем цифровой обработки радиолокационной информации ,,,,Кузьмин С. З. ,1986,,Радио и связь ,,,0,Russian,КНИГИ АППАРАТУРА,mirknig.com,issue 2011-02,,,,,,,,,,,1181375001,0,,,,,1,,,61440396,pdf,1ad0f5a036542069d24fff58c0f5dff2,,,"[1181375001]Основы проектирования систем цифровой обработки радиолокационной информации.-Кузьмин С.З.,Радио и связь,1986.pdf",0,2000-01-01 01:00:00,2016-04-03 02:51:08,844000/1ad0f5a036542069d24fff58c0f5dff2-g.jpg,,
5126174,Парк-отель Марат. Крым. Ялта. Мисхор ,,,,,2010,,hotel-marat ,,,0,Russian,КНИГИ  ХОББИ и РАЗВЛЕЧЕНИЯ,mirknig.com,issue 2011-01,,,,,,,,,,,1181362708,0,,,,,1,,,2827487,pdf,19696d3c5c9d0f7713428a760ae00920,,,[1181362708]Парк-отель Марат.Крым.Ялта.Мисхор.pdf,0,2000-01-01 01:00:00,2016-04-03 02:51:08,844000/19696d3c5c9d0f7713428a760ae00920-g.jpg,,
5126173,Русское военное искусство ,,,,Базилевич К.В. ,1945,,Воениздат НКО СССР ,,,0,Russian,"КНИГИ,ВОЕННАЯ ИСТОРИЯ",mirknig.com,issue 2011-02,,,,,,,,,,,1181371818,0,,,,,1,,,22289749,pdf,18fb35e28f5ec1846fb432f32a9e6ac6,,,"[1181371818]Русское военное искусство.-Базилевич К.В.,Воениздат НКО СССР,1945.pdf",0,2000-01-01 01:00:00,2016-04-03 02:51:08,844000/18fb35e28f5ec1846fb432f32a9e6ac6-g.jpg,,
5126172,Учебник сапера ,,,,Коллектив авторов ,2001,,Воениздат ,,,0,Russian,"НАУЧНО-ПОПУЛЯРНОЕ, ПРОФЕССИИ И РЕМЕСЛА",mirknig.com,issue 2011-01,,,,,,,,,,,1181364535 Качество: Хорошее ,0,,,,,1,,,11401398,pdf,17f644bfd62ff9761b9789535c7a635c,,,[1181364535]Учебник сапера.pdf,0,2000-01-01 01:00:00,2016-04-03 02:51:08,http://mirknig.com/uploads/posts/2011-01/1296397612_152355-0.jpg,,
5126171,Технология производства синтетических моющих средств ,,,,Ковалев В. ,1992,,Химия ,,,0,Russian,КНИГИ НАУКА и УЧЕБА,mirknig.com,issue 2011-01,,,,,,,,,,,1181361546,0,,,,,1,,,3523735,djvu,17721b725167368e54f9a5353476b001,,,[1181361546]Технология производства синтетических моющих средств.-Ковалев В..djvu,0,2000-01-01 01:00:00,2016-04-03 02:51:08,844000/17721b725167368e54f9a5353476b001-d.jpg,,
5126170,Куба ,,,,,2010-2011,,nevatravel ,,,0,Russian,"КУЛЬТУРА и ИСКУССТВО, ХОББИ и РАЗВЛЕЧЕНИЯ",mirknig.com,issue 2011-01,,,,,,,,,,,1181361239,0,,,,,1,,,2616228,pdf,16f68cee1c6cbd45457a3ccb6671ce42,,,[1181361239]Куба.pdf,0,2000-01-01 01:00:00,2016-04-03 02:51:08,844000/16f68cee1c6cbd45457a3ccb6671ce42-g.jpg,,
5126169,Курс квантовой механики ,,,,"Балашов В.В., Долинов В.К. ",2001,,Ижевск: НИЦ Регулярная и хаотическая динамика ,,,0,Russian,КНИГИ НАУКА и УЧЕБА,mirknig.com,issue 2011-01,,,,,,,,,,,1181366052,0,,,,,1,,,1053377,djvu,12e3518c2c5a0d1396826efe6d9d3894,,,"[1181366052]Курс квантовой механики.-Балашов В.В.,Долинов В.К..djvu",0,2000-01-01 01:00:00,2016-04-03 02:51:08,http://mirknig.com/uploads/posts/2011-01/1296120739_vsemirnoe-tyagotenie-bogorodskiy-a.f.-umensh.jpg,,
5126168,Основы морского судовождения ,,,,"Ермолаев Г. Г., Зотеев Е. С. ",1988,,"Москва, «Транспорт» ",,,0,Russian,КНИГИ ТЕХНИКА,mirknig.com,issue 2011-01,,,,,,,,,,,1181361834,0,,,,,1,,,3886262,djvu,118eeed2fbbdbed47a14faa0a2aec3d4,,,"[1181361834]Основы морского судовождения.-Ермолаев Г.Г.,Зотеев Е.С..djvu",0,2000-01-01 01:00:00,2016-04-03 02:51:08,844000/118eeed2fbbdbed47a14faa0a2aec3d4-g.jpg,,
5126167,Маловысотная радиолокация ,,,,Буров Н.И. ,1977,,Воениздат ,,,0,Russian,КНИГИ АППАРАТУРА,mirknig.com,issue 2011-02,,,,,,,,,,,1181375290,0,,,,,1,,,3462239,djvu,0dfa228d66354c0ab4000f0818e81149,,,"[1181375290]Маловысотная радиолокация.-Буров Н.И.,Воениздат,1977.djvu",0,2000-01-01 01:00:00,2016-04-03 02:51:08,844000/0dfa228d66354c0ab4000f0818e81149-d.png,,
5126166,Всемирное тяготение ,,,,Богородский А.Ф. ,1971,,Киев: Наукова Думка ,,,0,Russian,КНИГИ НАУКА и УЧЕБА,mirknig.com,issue 2011-01,,,,,,,,,,,1181369263,0,,,,,1,,,5391904,djvu,0d1bb83bde94d1d71629b9a2e6e9b8c3,,,[1181369263]Всемирное тяготение.-Богородский А.Ф..djvu,0,2000-01-01 01:00:00,2016-04-03 02:51:08,844000/0d1bb83bde94d1d71629b9a2e6e9b8c3-g.jpg,,
5126165,Авиационная радиолокация ,,,,Давыдов П.С ,1984,,Транспорт ,,,0,Russian,КНИГИ АППАРАТУРА,mirknig.com,issue 2011-02,,,,,,,,,,,1181375362,0,,,,,1,,,7402018,djvu,0c1c98514fa9bd201bb09045a42c80d1,,,"[1181375362]Авиационная радиолокация.-Давыдов П.С,Транспорт,1984.djvu",0,2000-01-01 01:00:00,2016-04-03 02:51:08,844000/0c1c98514fa9bd201bb09045a42c80d1-g.jpg,,
5126164,Методы логического и логико-временного анализа цифровых КМОП СБИС ,,,,Стемпковский А.Л.,2007,,Наука ,,,0,Russian,"АППАРАТУРА,НАУКА и УЧЕБА",mirknig.com,issue 2011-02,,,,,,,,,,,1181371687,0,,,,,1,,,2157764,djvu,0ba6d295a74b8b66cc806cef66b1256f,,,"[1181371687]Методы логического и логико-временного анализа цифровых КМОП СБИС.-Стемпковский А.Л.,Наука,2007.djvu",0,2000-01-01 01:00:00,2016-04-03 02:51:08,844000/0ba6d295a74b8b66cc806cef66b1256f-g.jpg,,
5126163,JRC – каталог ,,,,,2010,,,,,0,English ,"ХОББИ и РАЗВЛЕЧЕНИЯ,РАЗВЛЕКАТЕЛЬНЫЕ",mirknig.com,issue 2011-01,,,,,,,,,,,1181361070,0,,,,,1,,,37853523,pdf,0a0f217af904fc374a5e615965146de4,,,[1181361070]JRC – каталог 2010.pdf,0,2000-01-01 01:00:00,2016-04-03 02:51:08,844000/0a0f217af904fc374a5e615965146de4-d.jpg,,
5126162,Владимир Набоков: американские годы ,,,,Брайан Бойд ,2004,,"Независимая Газета, Симпозиум ",,,0,Russian,КНИГИ ЧЕЛОВЕК,mirknig.com,issue 2011-01,,,,,,,,,,,1181363117,0,,,,,1,,,5601381,pdf,0753c55791e8dedbefa8d10586cfcaae,,,[1181363117]Владимир Набоков-американские годы.-Брайан Бойд.pdf,0,2000-01-01 01:00:00,2016-04-03 02:51:08,844000/0753c55791e8dedbefa8d10586cfcaae-g.jpg,,
5126161,Нелинейные волны в диспергирующих средах ,,,,Карпман В.И. ,1973,,Москва: Наука ,,,0,Russian,КНИГИ НАУКА и УЧЕБА,mirknig.com,issue 2011-01,,,,,,,,,,,1181368899,0,,,,,1,,,1622521,djvu,0751dd51bf772652f1903437373532bf,,,[1181368899]Нелинейные волны в диспергирующих средах.-Карпман В.И..djvu,0,2000-01-01 01:00:00,2016-04-03 02:51:08,844000/0751dd51bf772652f1903437373532bf-g.jpg,,
5126160,Оценка печати оттисков ,,,,Стефан Стефанов ,2003,,Репроцентр М ,,,0,Russian,КНИГИ НАУКА и УЧЕБА,mirknig.com,issue 2011-01,,,,,,,,,,,1181364399,0,,,,,1,,,3889212,pdf,073070df64b7b9ab23c569a84e74de86,,,[1181364399]Оценка печати оттисков.-книги-Стефан Стефанов.pdf,0,2000-01-01 01:00:00,2016-04-03 02:51:08,,,
5126159,Ekaterinburg in simple words ,,,,коллектив ,2010,,Ekaterinburg.com ,,,0,English ,"КУЛЬТУРА и ИСКУССТВО, ХОББИ и РАЗВЛЕЧЕНИЯ",mirknig.com,issue 2011-01,,,,,,,,,,,1181362703,0,,,,,1,,,4018274,pdf,06caff490e437cca1399488c6f3d9991,,,[1181362703]Ekaterinburg in simple words.pdf,0,2000-01-01 01:00:00,2016-04-03 02:51:08,844000/06caff490e437cca1399488c6f3d9991-d.jpg,,
