32033176,Investment Psychology Explained: Classic Strategies to Beat the Markets,,,,"PRING, Martin .J.",1993,1,"John Wiley & Sons, Inc.","New York, NY",,290,English,309,,,0471133000,,,,,,,,,,"New scan from paper edition, 300 dpi, b&w, portrait/1-up, page images with OCR layer.",300,,1,,,1,1,1,10929180,pdf,3A816C6F359ADFA89EDF89CE93308EC7,,,PRING(M.J.)-Investment_Psychology_Explained_(1993).pdf,0,2000-01-01 01:00:00,2020-02-26 02:50:02,3a816c6f359adfa89edf89ce93308ec7-g.jpg,"contrarianism, crowd psychology, gurus, manias, money managers, Humphrey Neill, news & rumors, objectivity, patience, securities, self-appraisal, market sentiment, trading rules, Peter Wyckoff",
32033177,Meditation saved my life : a Tibetan Lama and the healing power of the mind,,,,Phakyab Rinpoche,2017,,New World Library,,,0,"English, French",,,,"9781608684632,1608684636,9781608684625",,,,,,,,,,,0,,,,,,,,410786,epub,17D00CF7A923CAC572DB849CCD37FB0E,,,F:\\!upload\\_books\\Meditation Saved My Life - Phakyab Rinpoche.epub,0,2000-01-01 01:00:00,2020-02-26 02:50:02,17d00cf7a923cac572db849ccd37fb0e-d.jpg,"Phakyab Rinpoche, -- 1966-;Meditation -- Buddhism -- Therapeutic use.;Spiritual healing.",
32033178,Mirror Touch: Notes from a Doctor Who Can Feel Your Pain,,,,Joel Salinas,2017,1,HarperCollins,,307,0,English,,,,"9780062458667,0062458663,9780062660886,0062660888,9780062458629",,,,,,,,,,,0,,,,,,,,441515,epub,771F2A48FA2087E106E8128D883603F4,,,F:\\!upload\\_books\\Mirror Touch [RETAiL] - Joel Salinas.epub,0,2000-01-01 01:00:00,2020-02-26 02:50:02,771f2a48fa2087e106e8128d883603f4-d.jpg,"Salinas, Joel -- Mental health.;Neurologists -- Biography.;Salinas, Joel;Neurologists.;Neurologic Manifestations.;BIOGRAPHY & AUTOBIOGRAPHY -- Personal Memoirs.;BIOGRAPHY & AUTOBIOGRAPHY -- Medical.;BODY, MIND & SPIRIT -- General.;Salinas, Joel, -- Mental health.;Biography & Autobiography -- Personal Memoirs.;Biography & Autobiography -- Medical.;BODY, MIND & SPIRIT.;Salinas, Joel.;Mental health.",
32033179,Mises in America,,,,"Peterson, WIlliam H.; Von Mises, Ludwig",2009,,Ludwig von Mises Institute,Austria,72,82,English,,,,,,,,,,,,,,,0,,,,,,,,862682,pdf,F2C1EB5183E156309D6A81191A9D5FA9,,,F:\\!upload\\_books\\Mises in America - William Peterson.pdf,0,2000-01-01 01:00:00,2020-02-26 02:50:02,f2c1eb5183e156309d6a81191a9d5fa9-g.jpg,"Von Mises, Ludwig, -- 1881-1973.;Economists -- Austria -- Biography.;Austrian school of economics.;Economists.;Austria.",
32033180,Mobile Python : Rapid prototyping of applications on the mobile platform,,Symbian Press Ser,,"Scheible, JÃ; Scheible, Jürgen; Tuulos, Ville",2008,1st ed,John Wiley & Sons,,349,0,English,,,,"9780470518021,0470518022",,,,,,,,,,,0,,,,,,,,5920981,epub,44BA145C6FE6E8AFAA8439762E641A7A,,,F:\\!upload\\_books\\Mobile Python Rapid Prototyping of Applications on the Mobile Platform.epub,0,2000-01-01 01:00:00,2020-02-26 02:50:02,44ba145c6fe6e8afaa8439762e641a7a-d.jpg,Cell phones -- Programming.;Nokia smartphones.;Python (Computer program language);Symbian OS (Computer file),
32033181,Modern etiquette for a better life : master all social and business exchanges,,,,Diane Gottsman,2017,,Page Street Publishing Co.,"Salem, MA",,0,English,,,,"9781624143441,162414344X",,,,,,,,,,,0,,,,,,,,3573540,epub,7C9BCC62AD1B47E6BD14BC7133E78020,,,F:\\!upload\\_books\\Modern Etiquette for a Better Life - Diane Gottsman.epub,0,2000-01-01 01:00:00,2020-02-26 02:50:02,7c9bcc62ad1b47e6bd14bc7133e78020-g.jpg,Reference.;REFERENCE / Etiquette.,
32033182,Modern Python Cookbook,,,,Steven F. Lott,2018,,Packt Publishing,,,0,English,,,,,,,,,,,,,,,0,,,,,,,,1514114,epub,785889E14E199CE42CB00AFF544CD681,,,F:\\!upload\\_books\\Modern Python Cookbook.epub,0,2000-01-01 01:00:00,2020-02-26 02:50:02,785889e14e199ce42cb00aff544cd681-g.jpg,,
32033183,Modern Python Standard Library Cookbook,,,,Alessandro Molina,2018,,Packt Publishing,,356,0,English,,,,"9781788830829,1788830822",,,,,,,,,,,0,,,,,,,,1410004,epub,F0CFCD0E0CD4AE0F714936344AADA482,,,F:\\!upload\\_books\\Modern Python Standard Library Cookbook.epub,0,2000-01-01 01:00:00,2020-02-26 02:50:02,f0cfcd0e0cd4ae0f714936344aada482-g.jpg,,
32033184,Mommy burnout : how addressing yours will make you a better mother and create a better life for your children,,,,Dr. Sheryl Ziegler,2018,,HarperCollins 2018,,384,0,English,,,,"9780062683700,0062683705,9780062683687",,,,,,,,,,,0,,,,,,,,514926,epub,D75C7B1EF2ED83CCB9C83334AA3083A7,,,F:\\!upload\\_books\\Mommy Burnout - Dr. Sheryl Ziegler.epub,0,2000-01-01 01:00:00,2020-02-26 02:50:02,d75c7b1ef2ed83ccb9c83334aa3083a7-g.jpg,Motherhood.;Mothers -- Psychology.,
32033185,Monetizing Machine Learning: quickly turn python ml ideas into web applications on the ... serverless cloud,,,,"Mehdi Roopaei, Manuel Amunategui",2019,,Apress,Place of publication not identified,,0,English,,,,"9781484238721,1484238729",,,,,,,,,,,0,,,,,,,,38113934,epub,21A8BA6718176F526D4DBB96C1307E16,,,F:\\!upload\\_books\\Monetizing Machine Learning Quickly Turn Python ML Ideas into Web Applications on the Serverless Cloud.epub,0,2000-01-01 01:00:00,2020-02-26 02:50:02,21a8ba6718176f526d4dbb96c1307e16-d.jpg,,
32033186,Moral Combat: Why the War on Violent Video Games is Wrong,,,,"Patrick M. Markey, Christopher J. Ferguson",2017,,"BenBella Books, Inc.",,248,0,English,,,,"9781942952985,1942952988",,,,,,,,,,,0,,,,,,,,1724516,epub,E13DBBF5123E1D700EB63A1D13999C5C,,,F:\\!upload\\_books\\Moral Combat - Patrick M. Markey & Christopher J. Ferguson.epub,0,2000-01-01 01:00:00,2020-02-26 02:50:02,e13dbbf5123e1d700eb63a1d13999c5c-d.jpg,Violence in video games.;Video games -- Social aspects.;Video games -- Psychological aspects.;Social sciences -- Popular Culture.;Games -- Video and Electronic.;Psychology -- Social Psychology.;Social sciences -- Violence in Society.;SOCIAL SCIENCE -- Popular Culture -- bisacsh.;GAMES -- Video et Electronic -- bisacsh.;PSYCHOLOGY -- Social Psychology -- bisacsh.;SOCIAL SCIENCE -- Violence in Society -- bisacsh.,
32033187,Mothers of Sparta,,,,Dawn Davies,2018,,Flatiron Books,,,0,English,,,,"9781250133700,125013370X,9781250133717",,,,,,,,,,,0,,,,,,,,401364,epub,CCCBE5C3029464A2DDAF21EF131564F6,,,F:\\!upload\\_books\\Mothers of Sparta - Dawn Davies.epub,0,2000-01-01 01:00:00,2020-02-26 02:50:02,cccbe5c3029464a2ddaf21ef131564f6-d.jpg,"Davies, Dawn -- (Dawn S.);Davies, Dawn -- (Dawn S.) -- Family.;Mothers of autistic children -- United States -- Biography.;Sjogren's syndrome -- Patients -- Biography.;Women authors, American -- 21st century -- Biography.;Families.;Mothers of autistic children.;Women authors, American.;United States.",
32033188,Elementary quantum mechanics,,The Wykeham science series,,"Mott, Nevill Francis",1972,,Wykeham,London,122,69,English,,,,"9780851092706,0851092705,9780851093109,0851093108",,,,,,,,,,,0,,,,,,,,2140534,djvu,7599DFC07DFFD35D1A6C3D706B4C5E90,,,F:\\!upload\\_books\\Mott - Elementary Quantum Mechanics.djvu,0,2000-01-01 01:00:00,2020-02-26 02:50:03,7599dfc07dffd35d1a6c3d706b4c5e90-g.jpg,"Quanta, Teoría de los.;Quanta, Teoría de los.",
32033189,Elementary quantum mechanics,,The Wykeham science series,,"Mott, Nevill Francis",1972,,Wykeham,London,122,69,English,,,,"9780851092706,0851092705,9780851093109,0851093108",,,,,,,,,,,0,,,,,,,,20203181,pdf,07FD7E6EE49C8308163154D1124320AA,,,F:\\!upload\\_books\\Mott - Elementary Quantum Mechanics.pdf,0,2000-01-01 01:00:00,2020-02-26 02:50:03,07fd7e6ee49c8308163154d1124320aa-g.jpg,"Quanta, Teoría de los.;Quanta, Teoría de los.",
32033190,Food52 Ice Cream and Friends,,,,Editors Of Food52,2017,,Potter/Ten Speed/Harmony/Rodale,,,0,English,,,,9780399578038,,,,,,,,,,,0,,,,,,,,133624942,epub,A38ED54A36C9437BE4619C5968B3CCB9,,,Food52 Ice Cream and Friends - Editors Of Food52.epub,0,2000-01-01 01:00:00,2020-02-26 02:50:03,a38ed54a36c9437be4619c5968b3ccb9-g.jpg,,
32033191,"Murder & Mayhem in Scott County, Iowa",,,,John Brassard Jr.,2018,,The History Press/Arcadia Publishing,Newburyport,88,0,English,,,,"9781439664025,1439664021,9781625859761",,,,,,,,,,,0,,,,,,,,2043363,epub,56CA0E0E816E5DD1A97866F329638297,,,"F:\\!upload\\_books\\Murder & Mayhem in Scott County, Iowa - John Brassard Jr.epub",0,2000-01-01 01:00:00,2020-02-26 02:50:03,56ca0e0e816e5dd1a97866f329638297-g.jpg,"HISTORY -- United States -- State & Local -- Midwest (IA, IL, IN, KS, MI, MN, MO, ND, NE, OH, SD, WI)",
32033192,Natural Language Processing with Python Cookbook,,,,"Pratap Dangeti, Naresh Kumar, Krishna Bhavsar",2017,1st ed,Packt Publishing,,308,0,English,,,,"9781787283473,178728347X",,,,,,,,,,,0,,,,,,,,9919453,epub,209BB9C5CBC97ACE0712AE52223B18F3,,,F:\\!upload\\_books\\Natural Language Processing with Python Cookbook.epub,0,2000-01-01 01:00:00,2020-02-26 02:50:03,209bb9c5cbc97ace0712ae52223b18f3-g.jpg,,
32033193,Natural language processing with Python,,,,"Edward Loper, Steven Bird, Ewan Klein",2009,1st edition,"O'Reilly Media, Inc.",,479,0,English,,,,"9780596516499,0596516495,9780596550967,0596550960",,,,,,,,,,,0,,,,,,,,3134816,epub,920278AAE1A9A4C8C0CF2805A05DC118,,,F:\\!upload\\_books\\Natural Language Processing with Python.epub,0,2000-01-01 01:00:00,2020-02-26 02:50:03,920278aae1a9a4c8c0cf2805a05dc118-d.jpg,Python (Computer program language);Natural language processing (Computer science);Sprachverarbeitung;Python;Python (programspråk);Språk -- databehandling.,
32033194,Fihrist of al-Nadim. A Tenth-Century Survey of Muslim Culture,two,,,Ed. and transl. by B. Dodge,1970,,Columbia University Press,New York,604 + 582,1186,english,,,,,,,,,,,,,,the whole book,600,,1,,,1,1,1,55059445,djvu,25FB19A161EBB013177CD3163BB4CDDD,,,Fihrist of al-Nadim. A Tenth-Century Survey of Muslim Culture. Ed. and transl. by B. Dodge. Vol. 1-2. 1970.djvu,0,2000-01-01 01:00:00,2020-02-26 02:50:03,25fb19a161ebb013177cd3163bb4cddd-g.jpg,,
32033195,Odd boy out : a memoir,,,,Paul Ashford Harris,2018,,Ventura Press,,286,0,English,,,,"9781925384284,1925384284,9781925384307",,,,,,,,,,,0,,,,,,,,2964237,epub,EF9CC2FFDFF22B72715B173C3467D69B,,,F:\\!upload\\_books\\Odd Boy Out [RETAiL] - Paul Ashford Harris.epub,0,2000-01-01 01:00:00,2020-02-26 02:50:03,ef9cc2ffdff22b72715b173c3467d69b-g.jpg,"Harris, Paul Ashford.;Harris, Paul Ashford -- Family.;Families.;Harris, Paul Ashford - Family.",
32033196,On the Origin of Species,,,,Charles Darwin,1872,6,Feedbooks,,,0,English,,,,,,,,,,,,,,,0,,,,,,,,730343,epub,17BAB15640F97FB9FC1BCFF27379DA66,,,"F:\\!upload\\_books\\On the Origin of Species, 6th Edition - Charles Darwin.epub",0,2000-01-01 01:00:00,2020-02-26 02:50:03,17bab15640f97fb9fc1bcff27379da66-g.jpg,,
32033197,"MakeOverMonday : improving how we visualize and analyze data, one chart at a time",,,,Eva Murray & Andy Kriebel,2019,,John Wiley & Sons,,472,0,English,,,,"9781119510772,1119510775",,,,,,,,,,,0,,,,,,,,38963450,epub,327710CB5E211B0968146314A4EF2D55,,,F:\\!upload\\_books\\oreilly - #MakeoverMonday.epub,0,2000-01-01 01:00:00,2020-02-26 02:50:03,327710cb5e211b0968146314a4ef2d55-d.jpg,Information visualization.;Statistics.;Statistics as Topic.;Data Collection.;Tratamiento óptico de la información.;Minería de datos.;Estadística -- Informática.;Sistemas de visualización de la información;Estadística matemática-Métodos gráficos,
32033198,.NET and COM: The Complete Interoperability Guide,,,,Adam Nathan,2002,,Sams,,,0,English,,,,,,,,,,,,,,,0,,,,,,,,72763019,epub,A52D19C0DFB240F45C18D136801E7E93,,,F:\\!upload\\_books\\oreilly - .NET and COM The Complete Interoperability Guide.epub,0,2000-01-01 01:00:00,2020-02-26 02:50:03,a52d19c0dfb240f45c18d136801e7e93-g.jpg,,
32033199,Medieval Jewish Civilization: An Encyclopedia,,Routledge Revivals,,Norman Roth (editor),2003,,Routledge,,,726,English,,,,9781315165394,,,,,,,,,,,0,,,,,,1,1,38263635,pdf,81E52E50E665ADCCB29F8EE72EA25D4C,,,Medieval_Jewish_Civilization_An_Encyclopedia.pdf,0,2000-01-01 01:00:00,2020-02-26 02:50:03,81e52e50e665adccb29f8ee72ea25d4c-g.jpg,,
32033200,.NET Common Language Runtime Unleashed,,,,Kevin R. Burton,2002,,Sams,Indianapolis,997,0,English,,,,"9780672321245,0672321246",,,,,,,,,,,0,,,,,,,,5651805,epub,2149A00DF8DDCB57089F71434104236C,,,F:\\!upload\\_books\\oreilly - .NET Common Language Runtime Unleashed.epub,0,2000-01-01 01:00:00,2020-02-26 02:50:03,2149a00df8ddcb57089f71434104236c-g.jpg,Microsoft .NET Framework.;Programming languages (Electronic computers);Application software -- Development.;Microsoft .NET Common Language Runtime.;računalništvo -- programski jeziki -- .NET -- CLR - Common Language Runtime -- CLR komponente -- računalniške mreže -- Web aplikacije -- priročniki,
32033201,.NET Compact Framework 3.5 Data-Driven Applications,,From Technologies to Solutions,,Edmund Tan,2010,,Packt Publishing,"Birmingham, U.K",466,0,English,,,,"9781849690102,1849690103",,,,,,,,,,,0,,,,,,,,3886610,epub,3A4EFB52B5E8D6348FBE36A1D51DDF95,,,F:\\!upload\\_books\\oreilly - .NET Compact Framework 3.5 Data-Driven Applications.epub,0,2000-01-01 01:00:00,2020-02-26 02:50:03,3a4efb52b5e8d6348fbe36a1d51ddf95-g.jpg,Microsoft .NET Framework.,
32033202,女の子のカラダの描き方 色っぽく見せるテクニック,,,,林晃（Go office）,2019,,ホビージャパン / Hobby Japan,,,0,Japanese,,,,"4798620092,9784798620091",,,,,,,,,,,0,,,,,,,,35959113,epub,40898269E7007D6F8905F55D3625BEBB,,,Nu noZi nokaradanoMiao kiFang - Lin Huang (Go office).epub,0,2000-01-01 01:00:00,2020-02-26 02:50:03,40898269e7007d6f8905f55d3625bebb-g.jpg,,
32033203,Image acquisition and preprocessing for machine vision systems,,Press monograph 197,,"Sinha, Pradip K",2012,,SPIE Press,"Bellingham, Wash",750,661,English,,,,"9781680150964,1680150960,9780819482020",,,,,,,,,,,0,,,,,,,,21365668,pdf,E67545B1486259A09BC6EDC26B15F2CD,,,F:\\!upload\\_books\\0819482021.pdf,0,2000-01-01 01:00:00,2020-02-26 03:00:01,e67545b1486259a09bc6edc26b15f2cd-g.jpg,Computer vision.;Identification.;Electronic data processing -- Data preparation.,
32033204,Lung cancer screening,,,,"Parker, Mark S",2018,,Thieme,,,118,English,,,,"9781626235137,1626235139,9781626235144,1626235147",,,,,,,,,,,0,,,,,,,,11303374,pdf,3BDB816D61AF75B6EFE13DAA4CFCA54C,,,F:\\!upload\\_books\\1_5116350250574938219.pdf,0,2000-01-01 01:00:00,2020-02-26 03:00:02,3bdb816d61af75b6efe13daa4cfca54c-g.jpg,Lungs -- Cancer -- Diagnosis;Lungs -- Tomography;Lung Neoplasms -- diagnosis;Mass Screening;Early Detection of Cancer,
32033205,The Middle Ages: Facts and Fictions,,,,Winston Black;,2019,,ABC-CLIO,,,0,English,,,,9781440862328,,,,,,,,,,,0,,,,,,,,15577610,epub,AE41A80F63ED28B9260545458BDD96CD,,,The Middle Ages_ Facts and Fictions by Winston Black;.epub,0,2000-01-01 01:00:00,2020-02-26 03:00:02,ae41a80f63ed28b9260545458bdd96cd-g.jpg,,
32033206,Διγενής Ακρίτας. Μελέτη-Σύνθεση-Σχόλια-Σημειώσεις,,Νεοελληνική Βιβλιοθήκη 2,,Βασίλης Χ. Μάκης,1979,,Επικαιρότητα,Αθήνα,320,164,Greek,111,,,,,,,,,,,,,"Βιβλίο εξαντλημένο στον εκδότη. Η σάρωση και ανάρτηση περισσότερων από τους τόμους της σειράς \Νεοελληνική Βιβλιοθήκη\"" θα ήταν ευπρόσδεκτη.""",0,,,,,1,0,0,183474293,pdf,1E116B0FF09C26961F51EF11CBF7E94D,,,"Makis B, Digenis Akritas (Epikairotita 1979)[300ppi].pdf",0,2000-01-01 01:00:00,2020-02-26 03:00:02,1e116b0ff09c26961f51ef11cbf7e94d-g.jpg,,
32033207,Every last lie,,,,Mary Kubica,2017,First Australian paperback edition,"Harlequin Enterprises, Australia Pty Ltd",,331,0,English,,,,"9781489230553,1489230556",,,,,,,,,,,0,,,,,,,,666492,mobi,12DAFF0149BB13B3260A37D81A61EFFD,,,F:\\!upload\\_books\\12daff0149bb13b3260a37d81a61effd.mobi,0,2000-01-01 01:00:00,2020-02-26 03:00:02,12daff0149bb13b3260a37d81a61effd-g.jpg,Traffic accidents -- Fiction.;Widows -- Fiction.;Traffic accidents.;Widows.,
32033208,"Math 112, Numbers: From 2*0 = 0 to e^{2pi i} = 1",,,,Ray Mayer,2006,,,,,291,,113,,,,,,,,,,,,,Downloaded from http://people.reed.edu/~mayer/math112.html/,0,,,,,,,1,3017278,pdf,32825F56C725A42B11C05789CB79E4E7,,,mayer - math 112 numbers - version 2006.pdf,0,2000-01-01 01:00:00,2020-02-26 03:00:02,32825f56c725a42b11c05789cb79e4e7-g.jpg,,
32033209,Oracle enterprise manager 12c command-line interface,,,,"Smith, Ray",2014,,Apress,,188,0,English,,,,"9781484202395,1484202392",,,,,,,,,,,0,,,,,,,,1522074,epub,0D4D4F74E9F2F7973FF8FC498677BE7C,,,F:\\!upload\\_books\\1484202392.epub,0,2000-01-01 01:00:00,2020-02-26 03:00:02,0d4d4f74e9f2f7973ff8fc498677be7c-g.jpg,,
32033210,Sexual Chemistry: A History of the Contraceptive Pill,,,,Lara V. Marks,2001,1,Yale University Press,,352,394,English,,,,"0300089430,9780300089431",,,,,,,,,,,0,,,,,1,1,1,18474417,pdf,0D47DA6F792139F8D9E6EDE1E4674848,,,Sexual Chemistry 0 -30 0 -0 89 4 3 -0.pdf,0,2000-01-01 01:00:00,2020-02-26 03:00:02,0d47da6f792139f8d9e6ede1e4674848-g.jpg,,
32033211,1587 A Year of No Significance: The Ming Dynasty in Decline,,,,Huang,,,Yale University Press,,,314,English,,,,"9780300028843,0300028849,9780300163537,0300163533",,,,,,,,,,,0,,,,,,,,209122270,pdf,20E08D7DD840AFBA3881B5117F400E55,,,F:\\!upload\\_books\\1587yearofnosign00huan_good.pdf,0,2000-01-01 01:00:00,2020-02-26 03:00:02,20e08d7dd840afba3881b5117f400e55-g.jpg,HISTORY -- Asia -- China.,
32033212,Intelligent decision support methods : the science of knowledge work,,,,"Dhar, Vasant; Stein, Roger",1997,,Prentice Hall,Upper Saddle River,244,255,English,,,,"9780135199350,0135199352",,,,,,,,,,,0,,,,,,,,13620225,djvu,21D70F2EF326DCAA048C0CB13C205BEA,,,F:\\!upload\\_books\\1997-dhar-intelligentdecisionsupportmethods.djvu,0,2000-01-01 01:00:00,2020-02-26 03:00:02,21d70f2ef326dcaa048c0cb13c205bea-d.jpg,,
32033213,20 Python libraries you aren't using (but should),,,,Caleb Hattingh,2016,First edition,"O'Reilly Media, Inc.","Sebastopiol, CA",,0,English,,,,,,,,,,,,,,,0,,,,,,,,4249581,epub,A3EE9B327B65C25B5A90A3EA80EF0F87,,,F:\\!upload\\_books\\20 Python Libraries You Aren't Using (But Should).epub,0,2000-01-01 01:00:00,2020-02-26 03:00:02,a3ee9b327b65c25b5a90a3ea80ef0f87-g.jpg,Python (Computer program language);Libraries (Computer program subroutines);Object-oriented programming (Computer science),
32033214,20th century American fiction,,Great courses on tape,,"Weinstein, Arnold",2000,,Teaching Co,"Chantilly, Va",,123,English,,,,"9781598030983,1598030981",,,,,,,,,,,0,,,,,,,,1572864,pdf,B69E884B437FAEF95E7FFF4B26BA84EF,,,F:\\!upload\\_books\\20th Century American Fiction.pdf,0,2000-01-01 01:00:00,2020-02-26 03:00:02,b69e884b437faef95e7fff4b26ba84ef-g.jpg,American literature -- History and criticism.;American fiction -- 20th century -- History and criticism.;American fiction.;American literature.,
32033215,State Formation in Afghanistan: A Theoretical and Political History,,Library of International Relations,,Mujib Rahman Rahimi,2017,,I.B. Tauris,,352,356,English,,,,"178453949X,9781784539498,9781786722065,9781786732064",,,,,,,,,,,0,,,,,,1,1,4520151,pdf,20443F5EA48B1678B74FF9865311D103,,,STATE FORMATION IN AFGHANISTAN 978 1 78453 949 8.pdf,0,2000-01-01 01:00:00,2020-02-26 03:00:02,20443f5ea48b1678b74ff9865311d103-g.jpg,,
32033216,Manual de derecho ambiental en Centroamérica,,,,"Iza, Alejandro Omar; Aguilar Rojas, Grethel",2005,,"Unión Mundial para la Naturaleza, Oficina Regional para Mesoamérica","Moravia, Costa Rica, Central America",626,626,Spanish,,,,"9789968743891,9968743895",,,,,,,,,,,0,,,,,,,,2014378,pdf,CB7B104702BEB38195D64A4878D4CEEF,,,F:\\!upload\\_books\\220. MANUAL DE DERECHO AMBIENTAL EN CENTROAMERICA - GRETHEL AGUILAR - ALEJANDRO IZA.pdf,0,2000-01-01 01:00:00,2020-02-26 03:00:02,cb7b104702beb38195d64a4878d4ceef-g.jpg,Environmental law -- Central America.;Environmental management -- Central America -- Citizen participation.;Environmental protection -- Central America.;Environmental impact analysis -- Central America.;Sustainable development -- Central America.;Environmental impact analysis.;Environmental law.;Environmental management -- Citizen participation.;Environmental protection.;Sustainable development.;Central America.,
32033217,Los cambios en la infraestructura regional y sus impactos ambientales en clave de mejorar la gobernabilidad en el Mercosur,,Publicaciones AECID,,"Ali, María Luciana; Cienfuegos Mateo, Manuel; Mellado, Noemí Beatriz",2011,1ª ed,Lerner,Córdoba (Argentina),387,388,Spanish,,,,"9789871579440,9871579446",,,,,,,,,,,0,,,,,,,,2969433,pdf,3B27EEF5B7DFB06FFD14B4587F614D46,,,F:\\!upload\\_books\\221. Los cambios en la infraestructura regional y sus impactos ... (2011).pdf,0,2000-01-01 01:00:00,2020-02-26 03:00:02,3b27eef5b7dfb06ffd14b4587f614d46-g.jpg,Mercosur.;Democracia (Iberoamérica);Integración regional de Iberoamérica.;Medio ambiente de Iberoamérica.;Infraestructura (Economía política) -- Países del Cono Sur.;Países del Cono Sur -- Política y gobierno.;Países del Cono Sur -- Política del medio ambiente.,
32033218,Book of addresses,,Meridian,,Peggy Kamuf,2005,,Stanford University Press,"Stanford, Calif.",365,380,English,,,,"9780804750585,0804750580,9780804750592,0804750599",,,,,,,,,,,0,,,0,1,0,,1,1291849,pdf,97C2205ECA9C468562B041489332047E,,,Book_of_Addresses.pdf,0,2000-01-01 01:00:00,2020-02-26 03:00:02,97c2205eca9c468562b041489332047e-g.jpg,,
32033219,Teoría del delito y de la pena Tomo I,,,,"Donna, Edgardo Alberto","1996, 1996",2a. ed. actualizada y ampliada,Editorial Astrea,"Buenos Aires, Argentina",,279,Spanish,,,,"9789505083718,9505083718,9789505083725,9505083726",,,,,,,,,,,0,,,,,,,,9679329,pdf,5C67A9268EDF96417BB2FB8CBB2080FE,,,"F:\\!upload\\_books\\227. Teoria Del Delito Y De La Pena Tomo I - Donna, Edgardo-FreeLibros.pdf",0,2000-01-01 01:00:00,2020-02-26 03:00:02,5c67a9268edf96417bb2fb8cbb2080fe-g.jpg,Criminal act -- Argentina.;Criminal liability -- Argentina.;Punishment -- Argentina.;Criminal act.;Criminal liability.;Punishment.;Argentina.,
32033220,Teoría del delito y de la pena Tomo II,,,,"Donna, Edgardo Alberto","1996, 1996",2a. ed. actualizada y ampliada,Editorial Astrea,"Buenos Aires, Argentina",,425,Spanish,,,,"9789505083718,9505083718,9789505083725,9505083726,9505084447",,,,,,,,,,,0,,,,,,,,15355930,pdf,424E5AFA70E4BE3B7D9F1AFE78BC5601,,,"F:\\!upload\\_books\\228. Teoria Del Delito Y De La Pena Tomo II - Donna, Edgardo-FreeLibros.pdf",0,2000-01-01 01:00:00,2020-02-26 03:00:02,424e5afa70e4be3b7d9f1afe78bc5601-g.jpg,Criminal act -- Argentina.;Criminal liability -- Argentina.;Punishment -- Argentina.;Criminal act.;Criminal liability.;Punishment.;Argentina.,
32033221,Soul cage,,,,"Honda, Tetsuya; Murray, Giles",2017,,Minotaur Books,,299,0,"English, Japanese",,,,"9781250061584,125006158X,9781466867307",,,,,,,,,,,0,,,,,,,,1114112,mobi,FC0F5BBE54C6BABDC8A250DB79BD9D63,,,F:\\!upload\\_books\\2730f3c6adf1128a42040c40d5b7fd75.mobi,0,2000-01-01 01:00:00,2020-02-26 03:00:02,fc0f5bbe54c6babdc8a250db79bd9d63-d.jpg,"Meurtre -- Enquêtes -- Japon -- Tōkyō -- Romans, nouvelles, etc.;Inspectrices de police -- Japon -- Tōkyō -- Romans, nouvelles, etc.",
32033222,Curso de derecho civil III obligaciones,,,,"Domínguez Guillén, María Candelaria",2017,,Revista Venezolana de Legislación y Jurisprudencia,Venezuela,711,712,Spanish,,,,"9789807561013,9807561019",,,,,,,,,,,0,,,,,,,,167203157,pdf,B4A70403FD594E10E7E1CDFB3E9F05A3,,,F:\\!upload\\_books\\279. Curso de Derecho Civil 712 p. (2017) 978-980-7561-01-3.pdf,0,2000-01-01 01:00:00,2020-02-26 03:00:02,b4a70403fd594e10e7e1cdfb3e9f05a3-g.jpg,Obligations (Law) -- Venezuela.;Obligations (Law);Venezuela.,
32033223,Derechos fundamentales y democracia,,Cuadernos de divulgación d la cultura democrática 31,,"Carbonell, Miguel",2013,,Instituto Federal Electoral,México,82,84,Spanish,,,,"9786079218225,6079218224",,,,,,,,,,,0,,,,,,,,435115,pdf,57BAE56914EC038686A3A895472E8B6B,,,F:\\!upload\\_books\\281. derechos_fundamentales_y_democracia.pdf,0,2000-01-01 01:00:00,2020-02-26 03:00:02,57bae56914ec038686a3a895472e8b6b-g.jpg,Democracia constitucional -- Derechos humanos -- Estudios -- Aspectos políticos,
32033224,Derecho internacional : temas selectos,,Serie H--Estudios de derecho internacional publico (Universidad nacional Autonoma de Mexico. Instituto de Invstigaciones Juridicas) n. 12,,"Gómez-Robledo Verduzco, Alonso",2008,5a ed,Universidad Nacional Autónoma de México,"México, D.F",1003,1053,Spanish,,,,"9786072002494,6072002498,9789703205677,9703205674",,,,,,,,,,,0,,,,,,,,43153272,pdf,9CCB01A0D3C1A1083E493111EAED60A6,,,F:\\!upload\\_books\\289. Derecho Internacional - Temas Selectos.pdf,0,2000-01-01 01:00:00,2020-02-26 03:00:02,9ccb01a0d3c1a1083e493111eaed60a6-g.jpg,Derecho internacional.,
32033225,Lecciones de derecho internacional privado : parte general,,,,"Basz, Victoria; Biocca, Stella Maris; Cárdenas, Sara L. F. de",1997,,Editorial Universidad,Buenos Aires,,213,English,,,,"9789506792114,9506792119",,,,,,,,,,,0,,,,,,,,10135233,pdf,DEDA166024201D566FD660459CAB60DC,,,F:\\!upload\\_books\\298. Lecciones de Derecho Internacional Privado 1997.pdf,0,2000-01-01 01:00:00,2020-02-26 03:00:02,deda166024201d566fd660459cab60dc-g.jpg,Derecho internacional privado.,
32033226,Tropic of Kansas,,,,Christopher Brown,2017,,HarperCollins,,,0,English,,,,,,,,,,,,,,,0,,,,,,,,5655847,epub,2BEEB9E583F756A38CB643424980BDA9,,,F:\\!upload\\_books\\2beeb9e583f756a38cb643424980bda9.epub,0,2000-01-01 01:00:00,2020-02-26 03:00:02,2beeb9e583f756a38cb643424980bda9-g.jpg,,
32033227,Little boy found : they thought the nightmare was over ... it was only the beginning,,,,"Fox, L. K",2017,,Quercus,,,0,English,,,,"9781786488343,1786488345",,,,,,,,,,,0,,,,,,,,473747,mobi,2C2384046C866053D714AF6F1DEF7179,,,F:\\!upload\\_books\\2c2384046c866053d714af6f1def7179.mobi,0,2000-01-01 01:00:00,2020-02-26 03:00:02,2c2384046c866053d714af6f1def7179-g.jpg,Crime & Mystery.;FICTION -- Thrillers -- Crime.;FICTION -- Mystery & Detective -- Amateur Sleuth.;FICTION -- Mystery & Detective -- Police Procedural.;FICTION -- Psychological.,
32033228,Closing doors,,,,T.A. Pratt,2017,,CreateSpace Independent Publishing Platform/The Merry Blacksmith Press,,238,0,English,,,,"9781543007763,1543007767",,,,,,,,,,,0,,,,,,,,858463,mobi,2D67D3D319C15E0AEC7C9050D6CD6110,,,F:\\!upload\\_books\\2d67d3d319c15e0aec7c9050d6cd6110.mobi,0,2000-01-01 01:00:00,2020-02-26 03:00:02,2d67d3d319c15e0aec7c9050d6cd6110-g.jpg,"Mason, Marla (Fictitious character) -- Fiction.;Goddesses -- Fiction.;Death (Personification) -- Fiction.;Magic -- Fiction.;Death (Personification);Goddesses.;Magic.;Mason, Marla (Fictitious character)",
32033229,Another man's ground,,Sheriff Hank Worth mysteries 2,,Claire Booth,2017,First edition,St. Martin's Press/Minotaur Books,,320,0,English,,,,"9781250084415,1250084415",,,,,,,,,,,0,,,,,,,,590401,epub,2FF58F3D5A5DCDF25516D431A44929EE,,,F:\\!upload\\_books\\2ff58f3d5a5dcdf25516d431a44929ee.epub,0,2000-01-01 01:00:00,2020-02-26 03:00:02,2ff58f3d5a5dcdf25516d431a44929ee-d.jpg,Sheriffs -- Fiction.;City and town life -- Fiction.;Murder -- Investigation -- Fiction.;City and town life.;Murder -- Investigation.;Sheriffs.,
32033230,American government : institutions and policies,,,,"Bose, Meenekshi; DiIulio, John J.; Levendusky, Matthew; Wilson, James Q",2019,Sixteenth edition,Cengage,,,627,English,,,,"9781337568395,1337568392,9781337613651",,,,,,,,,,,0,,,,,,,,31876178,pdf,2111566A903CD438AE03AF69280C8D11,,,"F:\\!upload\\_books\\3120.  American Government_ Institutions and Policies, 16th Edition_James Q. Wilson .pdf",0,2000-01-01 01:00:00,2020-02-26 03:00:02,2111566a903cd438ae03af69280c8d11-d.jpg,United States -- Politics and government.;Politics and government.;United States.,
32033231,El Pueblo etrusco,,Akal Historia del Mundo Antiguo. Roma 1. 36,,"Martínez-Pinna, Jorge",1989,,Akal,"Grècia, Madrid",,64,Spanish,,,,"9788476002742,8476002742,9788476004845,8476004842,8476009992",,,,,,,,,,,0,,,,,,,,3427297,pdf,B05A76A30F36D219CE2B47714F10C5B3,,,F:\\!upload\\_books\\4. J. Urruela - Egipto durante el Imperio Medio.pdf,0,2000-01-01 01:00:00,2020-02-26 03:00:02,b05a76a30f36d219ce2b47714f10c5b3-g.jpg,Història antiga.;Grècia -- Història.,
32033232,"Subversive Pleasures: Bakhtin, Cultural Criticism, and Film",,Parallax: Re-visions of Culture and Society,,Professor Robert Stam,1989,,The Johns Hopkins University Press,,288,289,English,,,,"0801838142,9780801838149,0801845092",,,,,,,,,,,0,,,,,,1,1,7449102,pdf,C277A89A4C314B8CCC50BF8AA05D3717,,,Subversive Pleasures 0-8018-3814-2.pdf,0,2000-01-01 01:00:00,2020-02-26 03:00:03,c277a89a4c314b8ccc50bf8aa05d3717-g.jpg,,
32033233,The Guitar in Stuart England: A Social and Musical History,,Musical Performance and Reception,,Christopher Page,2018,,Cambridge University Press,Cambridge,288,310,English,61,,,"110841978X,9781108419789",,,,,,,,,,,0,,,,,,1,1,12226480,pdf,E63E27DE774AFB8AAC88F1C0EC49B372,,,The Guitar in Stuart England 978-1-108-41978-9.pdf,0,2000-01-01 01:00:00,2020-02-26 03:00:03,e63e27de774afb8aac88f1c0ec49b372-g.jpg,Music; Instruments; History and Criticism; Musicology; Social History,
32033234,A tortured people: the politics of colonization,,,,Howard Adams,1994,,Theytus Books,Penticton,,234,English,,,,0919441777,,,,,,,,,,,0,,,,,,,1,9704807,pdf,2CBFD9E6EABCFA8B3A63F28F1AEB5DF6,,,A tortured people  the politics of colonization.pdf,0,2000-01-01 01:00:00,2020-02-26 03:00:03,2cbfd9e6eabcfa8b3a63f28f1aeb5df6-g.jpg,,
32033235,Prison of grass: Canada from a native point of view,,,,Howard Adams,1989,2,Fifth House Publishers,Saskatoon,,216,English,,,,9780920079515,,,,,,,,,,,0,,,,,,,1,9036531,pdf,147D9EFFAF78C40E5C5040F404065603,,,Prison of grass  Canada from a Native point of view.pdf,0,2000-01-01 01:00:00,2020-02-26 03:00:03,147d9effaf78c40e5c5040f404065603-g.jpg,,
32033236,The Mathematical Principles of Scale Relativity Physics: The Concept of Interpretation,,,,"Nicolae Mazilu, Maricel Agop, Ioan Merches",2019,1,CRC Press,,256,256,English,,,,"0367349345,9780367349349",,,,,,,,,,,0,,,,,,1,1,17812552,pdf,52BFC0A85A4D0E6F8184D7D7FE553A75,,,The Mathematical Principles of Scale Relativity Physics 978-0-367-34934-9.pdf,0,2000-01-01 01:00:00,2020-02-26 03:00:03,52bfc0a85a4d0e6f8184d7d7fe553a75-g.jpg,,
32033237,Power Plant Equipment Operation and Maintenance Guide,,,,Philip Kiameh,2011,1,McGraw-Hill Professional,,768,770,English,,,,"9780071772228,0071772227,9780071772211,0071772219",,,,,,,,,,,0,,,,,,1,1,21788384,pdf,BE96635BE74B76AD589B1DB2EABD45AA,,,Power Plant Equipment Operation and Maintenance Guide 978-0-07-177221-1.pdf,0,2000-01-01 01:00:00,2020-02-26 03:00:03,be96635be74b76ad589b1db2eabd45aa-g.jpg,,
32033238,Theatre and Cognitive Neuroscience,,Performance and Science: Interdisciplinary Dialogues,,"Clelia Falletti (editor), Gabriele Sofia (editor), Victor Jacono (editor)",2016,,Methuen Drama,,280,0,English,,,,"1472584783,9781472584786",,,,,,,,,,,0,,,,,,,,2863606,epub,B9035CC12226FF2BDE87BA8266466757,,,Theatre and Cognitive Neuroscience 978-1-4725-8478-6.epub,0,2000-01-01 01:00:00,2020-02-26 03:00:03,b9035cc12226ff2bde87ba8266466757-g.jpg,,
32033239,Theatre and Cognitive Neuroscience,,Performance and Science: Interdisciplinary Dialogues,,"Clelia Falletti (editor), Gabriele Sofia (editor), Victor Jacono (editor)",2016,,Methuen Drama,,280,281,English,,,,"1472584783,9781472584786,9781408183984,9781472570789,9781472591791,9781472584809,9781472584793",,,,,,,,,,,0,,,,,,1,1,1647612,pdf,79C7D42FCAA3C821C5E432B1E362527A,,,Theatre and Cognitive Neuroscience 978-1-4725-8478-6.pdf,0,2000-01-01 01:00:00,2020-02-26 03:00:03,79c7d42fcaa3c821c5e432b1e362527a-g.jpg,,
32033240,Vehicle Collision Dynamics: Analysis and Reconstruction,,,,Dario Vangi,2020,1,Butterworth-Heinemann,,214,215,English,,,,"0128127503,9780128127506",,,,,,,,,,,0,,,,,,1,1,19528647,pdf,771AF0822838ABDF3B87B9B218D76654,,,Vehicle Collision Dynamics 978-0-12-812750-6.pdf,0,2000-01-01 01:00:00,2020-02-26 03:00:03,771af0822838abdf3b87b9b218d76654-g.jpg,,
32033241,Work That Body: Male Bodies in Digital Culture,,Radical Cultural Studies,,Jamie Hakim,2019,,Rowman & Littlefield Publishers,,190,0,English,,,,"1786604418,9781786604415",,,,,,,,,,,0,,,,,,,,654775,epub,C78F348B8A5E28533467D33580FC42E1,,,Work That Body 978-1-78660-441-5.epub,0,2000-01-01 01:00:00,2020-02-26 03:00:03,c78f348b8a5e28533467d33580fc42e1-g.jpg,,
32033242,Work That Body: Male Bodies in Digital Culture,,Radical Cultural Studies,,Jamie Hakim,2019,,Rowman & Littlefield Publishers,,190,190,English,,,,"1786604418,9781786604415,9781786604439",,,,,,,,,,,0,,,,,,1,1,1117762,pdf,604F6CE918D666FBED2564B2F2F48206,,,Work That Body 978-1-78660-441-5.pdf,0,2000-01-01 01:00:00,2020-02-26 03:00:03,604f6ce918d666fbed2564b2f2f48206-g.jpg,,
32033243,Проблеми сучасної конституціоналістики,,Серія «Проблеми сучасної конституціоналістики». Випуск 1,,Орзіх М.П. (заг. ред.),2011,,Юрінком Інтер,Київ,272,268,Ukrainian,313,academia.edu,,"9789666674572,9789666674565",,,342.4,67.300я73,,,,,,додано букмарки,0,,,,,0,1,1,3429819,pdf,FD03D1BEE74F0A932FC899D2A6F4977E,,,LG Проблеми сучасної конституціоналістики. Випуск 1 - 2011.pdf,0,2000-01-01 01:00:00,2020-02-26 03:00:03,fd03d1bee74f0a932fc899d2a6f4977e-g.jpg,"конституціоналізм, конституційне право, конституціоналістика, конституційне право України, права людини",
32033244,Проблеми сучасної конституціоналістики. Випуск З : Сучасний український конституціоналізм,,Серія «Проблеми сучасної конституціоналістики». Випуск 3,,Крусян А.Р. (заг. ред.),2015,,Юрінком Інтер,Київ,526,526,Ukrainian,313,academia.edu,,"9789666674572,9789664388907",,,342.4(477X075),67.300я73,,,,,,додано букмарки,0,,,,,,1,1,9068885,pdf,C1CB4A8DE0B59EA51D4A95F60C62B7D0,,,LG Проблеми сучасної конституціоналістики. Випуск 3 - 2015.pdf,0,2000-01-01 01:00:00,2020-02-26 03:00:03,c1cb4a8de0b59ea51d4a95f60c62b7d0-g.jpg,"конституціоналізм, конституційне право, конституціоналістика, конституційне право України, права людини",
32033245,Проблеми сучасної конституціоналістики. Випуск 4: Конституційне гуманітарне право,,Серія «Проблеми сучасної конституціоналістики». Випуск 4,,"Крусян А.Р., Єзеров А.А. (заг. ред.)",2018,,Юрінком Інтер,Київ,524,524,Ukrainian,313,academia.edu,,"9789666674572,9789666677085",,,342.4(477)(075),,,,,,,додано букмарки,0,,,,,,1,1,10757917,pdf,FBA20B9DD9B44B55562259C3D3F00519,,,LG Проблеми сучасної конституціоналістики. Випуск 4 - 2018.pdf,0,2000-01-01 01:00:00,2020-02-26 03:00:03,fba20b9dd9b44b55562259c3d3f00519-g.jpg,"конституціоналізм, конституційне право, конституціоналістика, конституційне право України, права людини",
32033246,AUTODESK FUSION 360 EXERCISES: 200 Practice Drawings For FUSION 360 and Other Feature-Based Modeling Software,,,,Sachidanand Jha,2019,,Independently published,,113,207,English,,,,"1096390221,9781096390220",,,,,,,,,,,0,1,,0,,,,1,11935396,pdf,F3B2776F2AAF819FDB53FAAF40959762,,,AUTODESK FUSION 360 EXERCISES - Sachidanand Jha.pdf,0,2000-01-01 01:00:00,2020-02-26 03:00:03,f3b2776f2aaf819fdb53faaf40959762-g.jpg,,
32033247,Osteoporoza - poradnik zdrowotny,,100 Rad,,praca zbiorowa,,,,,,40,Polish,,,,,,,,,,,,,,,0,,,,,1,,0,7846705,pdf,0B311FEAA2CAE1126B5E4C691B13B5EF,,,Osteoporoza - poradnik zdrowotny.pdf,0,2000-01-01 01:00:00,2020-02-26 03:00:03,0b311feaa2cae1126b5e4c691b13b5ef-g.jpg,,
32033248,Against The Plague of Nations: An Address to Thinking People on The Polish Question,,,,Nicolai Lenin,1920,,The Toiler Publishing Association,"Cleveland, Ohio",8,8,English,,,,,,,,,,,,,,,0,,1,0,1,,,1,4023021,pdf,F20180C9C2C1DF013F669DA0ED4BFACE,,,"Lenin, Nicolai 1920 Against The Plague of Nations - An Address to Thinking People on The Polish Question.pdf",0,2000-01-01 01:00:00,2020-02-26 03:00:03,f20180c9c2c1df013f669da0ed4bface-g.jpg,,
32033249,"Neurosurgery primary examination review : high yield questions, answers, diagrams, and tables",,,,"Hanna, Amgad S",2019,,Thieme,,258,278,English,,,,"9781626234901,1626234906,9781626234963",,,,,,,,,,,0,,,,,,,,83109411,pdf,B230D2D0CE672C28ABDDCEDEB5CBF3FA,,,F:\\!upload\\_books\\4_5940445446932530301.pdf,0,2000-01-01 01:00:00,2020-02-26 03:00:03,b230d2d0ce672c28abddcedeb5cbf3fa-d.jpg,"Nervous system -- Surgery -- Examinations, questions, etc.;Neurosurgical Procedures -- methods.;Nervous system -- Surgery.",
32033250,Crash Land on Kurai,,The Hikoboshi Series Book 1,,S. J. Pajonas,2017,,Onigiri Press,,,0,English,,,,,,B073G9QM78,,,,,,,,,0,,,,,,,,489441,epub,531A5CBBDEA7456739896EB9E231BB7F,,,F:\\!upload\\_books\\531a5cbbdea7456739896eb9e231bb7f.epub,0,2000-01-01 01:00:00,2020-02-26 03:00:03,531a5cbbdea7456739896eb9e231bb7f-g.jpg,,
32033251,The Red : an erotic fantasy,,,,Tiffany Reisz,2016,First edition,8th Circle Press,,233,0,English,,,,"9781537217765,1537217763,9781949769036,1949769038,9781541459052,9781541409057",,,,,,,,,,,0,,,,,,,,507904,mobi,BAC49EBE3567BFAE21E6B3176DF32B09,,,F:\\!upload\\_books\\5bbfc9b7605243ed49b32816288d1db6.mobi,0,2000-01-01 01:00:00,2020-02-26 03:00:03,bac49ebe3567bfae21e6b3176df32b09-g.jpg,Art museums -- Fiction.;Promises -- Fiction.;Man-woman relationships -- Fiction.;Art museums.;Man-woman relationships.;Promises.,
32033252,All fall down,,,,Cassandra Austin,2017,,Penguin Random House Australia,Australia,,0,English,,,,"9781742537863,1742537863",,,,,,,,,,,0,,,,,,,,1063383,mobi,6CB6DA09AF771B9BE63A68D85B67E23E,,,F:\\!upload\\_books\\6cb6da09af771b9be63a68d85b67e23e.mobi,0,2000-01-01 01:00:00,2020-02-26 03:00:03,6cb6da09af771b9be63a68d85b67e23e-g.jpg,"Bridge failures -- Australia -- Fiction.;Interpersonal relations -- Fiction.;Suspense fiction, Australian.;Bridge failures.;Interpersonal relations.;Australia.;Australian",
32033253,The Silence,,,,Mark Alpert,2017,,Sourcebooks,,,0,English,,,,,,,,,,,,,,,0,,,,,,,,1192477,mobi,6D8D541D1CEAA356DCA6195009D5F22B,,,F:\\!upload\\_books\\6d8d541d1ceaa356dca6195009d5f22b.mobi,0,2000-01-01 01:00:00,2020-02-26 03:00:03,6d8d541d1ceaa356dca6195009d5f22b-g.jpg,,
32033254,Raining fire,,,,Rajan Khanna,2017,,Prometheus Books/Pyr,,,0,English,,,,"9781633882744,1633882748,9781633882737",,,,,,,,,,,0,,,,,,,,714165,epub,6D9BE9ACB3F739B320B26E30CE00BBDF,,,F:\\!upload\\_books\\6d9be9acb3f739b320b26e30ce00bbdf.epub,0,2000-01-01 01:00:00,2020-02-26 03:00:03,6d9be9acb3f739b320b26e30ce00bbdf-d.jpg,Revenge -- Fiction.;Viruses -- Fiction.;Survival -- Fiction.;FICTION -- Science Fiction -- Steampunk.;Revenge.;Survival.;Viruses.,
32033255,Backstage Passes: Life on the Wild Side with David Bowie,,,,Angela Bowie,2020,,Endeavour Keys,,,0,English,,,,,,B0848DYRTW,,,,,,,,,0,,,,,,,,1446471,epub,80DFF34C861CECCBEEF39FDCC19BD049,,,Ba12ckstagePassesLifeOnWildS.epub,0,2000-01-01 01:00:00,2020-02-26 03:00:03,80dff34c861ceccbeef39fdcc19bd049-g.jpg,,
32033256,7.0 Tesla MRI Brain Atlas : In-vivo Atlas with Cryomacrotome Correlation,,,,"Cho, Zang-Hee",2015,2nd ed. 2015,Springer Berlin Heidelberg,"Berlin, Heidelberg",,569,English,,,,"9783642543975,3642543979,9783642543982,3642543987",,,,,,,,,,,0,,,,,,,,115999105,pdf,A424818731DA47AA491C8E36DC5E33B9,,,F:\\!upload\\_books\\7.0 Tesla MRI Brain Atla.pdf,0,2000-01-01 01:00:00,2020-02-26 03:00:03,a424818731da47aa491c8e36dc5e33b9-d.jpg,Medicine.;Neurosciences.;Medical radiology.;Nervous system -- Surgery.;Medicine and Public Health.,
32033257,The bright hour : a memoir of living and dying,,,,Nina Riggs,2017,First Simon & Schuster hardcover edition,Simon & Schuster,United States,310,0,English,,,,"9781501169359,1501169351,9781501169373,1501169378,9781501169366",,,,,,,,,,,0,,,,,,,,1769336,epub,71E5A385F4C431BF5D5D81A2D0EB8779,,,F:\\!upload\\_books\\71e5a385f4c431bf5d5d81a2d0eb8779.epub,0,2000-01-01 01:00:00,2020-02-26 03:00:03,71e5a385f4c431bf5d5d81a2d0eb8779-d.jpg,Ri,
32033258,表象与本质: 类比，思考之源和思维之火,,,,[美] 侯世达; [法] 桑德尔,2018,1,浙江人民出版社,Hang zhou,678,0,Chinese,,,,"7213089870,9787213089879",,,,,,,,,,,0,,,,,,,,4108662,azw3,DCABA60CA1F0D5CCD35BEB4C3AC43BF0,,,表象与本质【三秋书屋www.d4j.cn】.azw3,0,2000-01-01 01:00:00,2020-02-26 03:00:03,dcaba60ca1f0d5ccd35beb4c3ac43bf0-d.jpg,,
32033259,The Child : A Novel,,,,Fiona Barton,2017,International Ed,Penguin/Berkley,New York,,0,English,,,,"9780451488817,0451488814,9781101990483,9781101990506,9781473526938",,,,,,,,,,,0,,,,,,,,785511,mobi,75C8D244F5CF3BF102C472CDD38B2F2C,,,F:\\!upload\\_books\\75c8d244f5cf3bf102c472cdd38b2f2c.mobi,0,2000-01-01 01:00:00,2020-02-26 03:00:03,75c8d244f5cf3bf102c472cdd38b2f2c-d.jpg,,
32033260,Tornado Weather,,,,Deborah E. Kennedy,2017,,Flatiron Books,,,0,English,,,,"9781250079572,9781250154927,9781250079589",,,,,,,,,,,0,,,,,,,,1030376,epub,787795E2A1A5D78BC9737C494C24E17C,,,F:\\!upload\\_books\\787795e2a1a5d78bc9737c494c24e17c.epub,0,2000-01-01 01:00:00,2020-02-26 03:00:03,787795e2a1a5d78bc9737c494c24e17c-g.jpg,,
32033261,The sisters Chase,,,,Sarah Healy,2018,,Houghton Mifflin Harcourt/Blackfriars,,285,0,English,,,,"9780349134536,0349134537,9780349134543,0349134545,9780544960077,0544960076,9781328915863,1328915867,9780544960121",,,,,,,,,,,0,,,,,,,,1850448,epub,7D52664AEB3B30E45F09F7E5DCB7FF89,,,F:\\!upload\\_books\\7d52664aeb3b30e45f09f7e5dcb7ff89.epub,0,2000-01-01 01:00:00,2020-02-26 03:00:03,7d52664aeb3b30e45f09f7e5dcb7ff89-d.jpg,Sisters -- Fiction.;Family secrets -- Fiction.;Coming of age -- Fiction.;Voyages and travels -- Fiction.;Mothers -- Death -- Fiction.;Life change events -- Fiction.;Coming of age.;Family secrets.;Life change events.;Mothers -- Death.;Sisters.;Voyages and travels.,
32033262,The almost sisters,,,,Joshilyn Jackson,2017,First edition,HarperCollins/William Morrow,,342,0,English,,,,"9780062105714,006210571X,9780062105721,0062105728,9780062105738",,,,,,,,,,,0,,,,,,,,1249157,epub,84760977EA579D2A4EBCD106891762E6,,,F:\\!upload\\_books\\84760977ea579d2a4ebcd106891762e6.epub,0,2000-01-01 01:00:00,2020-02-26 03:00:03,84760977ea579d2a4ebcd106891762e6-d.jpg,Stepsisters -- Fiction.;Single mothers -- Fiction.;Family secrets -- Fiction.;Families -- Fiction.;Alabama -- Fiction.;Family life -- Fiction;FICTION -- Contemporary Women.;FICTION -- Literary.;FICTION -- General.;Fiction -- Contemporary Women.;Fiction -- Literary.;Fiction -- General.;Domestic fiction.;Families.;Family secrets.;Single mothers.;Stepsisters.;Alabama.;Women -- Fiction.,
32033263,Tornado weather,,,,Deborah E. Kennedy,2017,First edition,Flatiron Books,,308,0,English,,,,"9781250079572,1250079578,9781250134523,1250134528,9781520134529,1520134525,9781250154927,9781250079589",,,,,,,,,,,0,,,,,,,,1196032,mobi,4E6898F60505E89AFE6A8226EC075325,,,F:\\!upload\\_books\\8c74e287961306781a938c5b33a58fd3.mobi,0,2000-01-01 01:00:00,2020-02-26 03:00:03,4e6898f60505e89afe6a8226ec075325-d.jpg,Interpersonal relations -- Fiction.;City and town life -- Fiction.;Missing children -- Fiction.;FICTION -- Literary.;FICTION -- Mystery & Detective -- General.;City and town life.;Interpersonal relations.;Missing children.,
32033264,The Evolution of Law,,,,Alan Watson,1985,,The John Hopkins University Press,Baltimore,,175,English,313,,,0801825040,,,,,,,,,,,0,,,,,,,1,9875916,pdf,5A95B96A497424E284D85DDB52E2823B,,,"WATSON, A. The Evolution of Law [ A ].pdf",0,2000-01-01 01:00:00,2020-02-26 03:00:03,5a95b96a497424e284d85ddb52e2823b-g.jpg,,
32033265,Ortopedia y Traumatología,,,,"Silverman, Fernando S.; Varaona, Oscar",2003,2a ed,Panamericana,Buenos Aires,466,428,Spanish,,,,"9788479037970,8479037970,9789500619738,9500619733",,,,,,,,,,,0,,,,,,,,308913834,pdf,810DD7D21381CA5E28B45A11A481495E,,,F:\\!upload\\_books\\950-06-1973-3.pdf,0,2000-01-01 01:00:00,2020-02-26 03:00:03,810dd7d21381ca5e28b45a11a481495e-d.jpg,Ortopedia.;Traumatología.;Patología.;Ortopedia -- estudios y conferencias.;Traumatología -- estudios y conferencias.,
32033266,A reference grammar of Spanish,,,,"San José Lancha, Miguel Ángel de; Batchelor, Ronald Ernest",2010,,Cambridge University Press,"New York, Cambridge",553,573,English,,,,"9780521429610,0521429617,9780521728751,0521728754",,,,,,,,,,,0,,,,,,,,1961129,pdf,C6F5942BCED98E607B78E6150C7583DF,,,F:\\!upload\\_books\\9780521429610.pdf,0,2000-01-01 01:00:00,2020-02-26 03:00:03,c6f5942bced98e607b78e6150c7583df-d.jpg,Spanish language -- Grammar.;Spanish language -- Textbooks for foreign speakers -- English.;Spanish language.;Espagnol (langue) -- Grammaire.;Espagnol (langue) -- Manuels pour allophones.;Espagnol (langue);Grammaire.,
32033267,Church Law and Constitutional Thought in the Middle Ages,,,,Brian Tierney,1979,,Variorum Reprints,London,,343,English,313,,,0860780368,,,,,,,,,,,0,,,,,,,1,15990451,pdf,1E7171C2F7B5607449EB2626EA526157,,,"TIERNEY, B. Church Law and Constitutional Thought in the Middle Ages [ A ].pdf",0,2000-01-01 01:00:00,2020-02-26 03:00:03,1e7171c2f7b5607449eb2626ea526157-g.jpg,,
32033268,Reporting Quantitative Research in Psychology: How to Meet APA Style Journal Article Reporting Standards,,,,Harris Cooper,2018,second,American Psychological Association,,217,222,English,,,,"2019954932,0000178000",,,,,,,,,,,0,,,,,,1,1,2152849,pdf,182F5816C1127A01D461DA55A74A834F,,,Reporting Quantitative Research in Psychology-How to Meet APA Style Journal Article Reporting Standards.pdf,0,2000-01-01 01:00:00,2020-02-26 03:00:04,182f5816c1127a01d461da55a74a834f-g.jpg,,
32033269,Reporting Qualitative Research in Psychology: How to Meet APA Style Journal Article Reporting Standards,,,,Heidi M. Levitt,2019,1,American Psychological Association,,173,176,English,,,,0000179000,,,,,,,,,,,0,,,,1,0,1,1,1753075,pdf,11593454AE2CA1A722FBBBCB72196FBA,,,Reporting Qualitative Research in Psychology-How to Meet APA Style Journal Article Reporting Standards.pdf,0,2000-01-01 01:00:00,2020-02-26 03:00:04,11593454ae2ca1a722fbbbcb72196fba-g.jpg,,
32033270,Law in the American Revolution and the Revolution in Law: A Collection of Review Essays on American Legal History,,Linden Studies in the Historiography of American Law,,Hendrik Hartog,1981,,New York University Press,,,279,English,313,,,0814734138,,,,,,,,,,,0,,,,,,,1,12982522,pdf,43F05C54BFCC87353E52D40483A74330,,,"HARTOG, H. (ED.). Law in the American Revolution and the Revolution in Law [ A ].pdf",0,2000-01-01 01:00:00,2020-02-26 03:00:04,43f05c54bfcc87353e52d40483a74330-g.jpg,,
32033271,Constitutional Theory,,Clarendon Law Series,,Geoffrey Marshall,1971,,Clarendon Press,Oxford,,249,English,313,,,,,,,,,,,,,,0,,,,,,,1,10505549,pdf,3E67A338E465907A819A84D5DFA1FF1C,,,"MARSHALL, G. Constitutional Theory [ A ].pdf",0,2000-01-01 01:00:00,2020-02-26 03:00:04,3e67a338e465907a819a84d5dfa1ff1c-g.jpg,,
32033272,Hobbes and America: Exploring the Constitutional Foundations,,,,Frank M. Coleman,1977,,Toronto University Press,Toronto,,171,English,313,,,0802053599,,,,,,,,,,,0,,,,,,,1,23425977,pdf,82986DA545919C333047551BE7CB8A78,,,"COLEMAN, F. M. Hobbes and America Exploring Constitutional Foundations [ A ].pdf",0,2000-01-01 01:00:00,2020-02-26 03:00:04,82986da545919c333047551be7cb8a78-g.jpg,,
32033273,Legal Philosophy from Plato to Hegel,,,,Huntington Cairns,1949,,The John Hopkins Press,Baltimore,,601,English,313,,,,,,,,,,,,,,0,,,,,,,1,26325514,pdf,B3D71D20C1D718F5F6E8975281BCCE81,,,"CAIRNS, H. Legal Philosophy from Plato to Hegel [ A ].pdf",0,2000-01-01 01:00:00,2020-02-26 03:00:04,b3d71d20c1d718f5f6e8975281bcce81-g.jpg,,
32033274,"Marital and sexual lifestyles in the United States : attitudes, behaviors, and relationships in social context",,Haworth marriage and the family,,"Rouse, Linda P",2002,,Haworth Clinical Practice Press,United States,346,346,English,,,,"9780789010704,0789010704,9781315809304,1315809303,0789010712",,,,,,,,,,,0,,,,,,,,7497720,pdf,77F67C362294E9BF941E18309965780E,,,F:\\!upload\\_books\\9781315809304-Marital and Sexual Lifestyles in the United States.pdf,0,2000-01-01 01:00:00,2020-02-26 03:00:04,77f67c362294e9bf941e18309965780e-d.jpg,Lifestyles -- United States.;Marriage -- United States.;Married people -- Sexual behavior -- United States.;Sex -- United States.;Single people -- Sexual behavior -- United States.;Lifestyles;Marriage;Married people -- Sexual behavior;Sex;Single people -- Sexual behavior;United States,
32033275,Feminist therapy as a political act,,,,"Hill, Marcia",2011,,Psychology Press,New York,129,149,English,,,,"9781315809649,1315809648,0789005174,1560231122",,,,,,,,,,,0,,,,,,,,3040703,pdf,0C279CF6E47C83A1B4699BDC6BA67711,,,F:\\!upload\\_books\\9781315809649-Feminist Therapy as a Political Act.pdf,0,2000-01-01 01:00:00,2020-02-26 03:00:04,0c279cf6e47c83a1b4699bdc6ba67711-d.jpg,Feminist therapy -- Political aspects.;Psychotherapy.,
32033276,A dictionary of psychotherapy,,,,"Walrond-Skinner, Sue",2015,,Routledge,"London, New York",,392,English,,,,"9781315810706,1315810700",,,,,,,,,,,0,,,,,,,,13789772,pdf,283462F599D6531CBFF744C5D1C3C16C,,,F:\\!upload\\_books\\9781315810706-Dictionary of Psychotherapy.pdf,0,2000-01-01 01:00:00,2020-02-26 03:00:04,283462f599d6531cbff744c5d1c3c16c-g.jpg,Psychothérapie -- Dictionnaire.,
32033277,The geography of Malcolm X : black radicalism and the remaking of American space,,,,"X, Malcolm; X, Malcolm; Tyner, James A.; X, Malcolm",2006,,Routledge,"États-Unis, Schwarze., USA., Verenigde Staten",194,207,English,,,,"9781317793632,1317793633,9781315810805",,,,,,,,,,,0,,,,,,,,4234352,pdf,8FB2A0A104B59BF31B431207D9C64A64,,,F:\\!upload\\_books\\9781315810805-Geography of Malcolm X.pdf,0,2000-01-01 01:00:00,2020-02-26 03:00:04,8fb2a0a104b59bf31b431207d9c64a64-g.jpg,"X,",
32033278,Laboratorium fizyczne w domu (WNT) -,,,,Jan Gaj,,,,,,162,Polish,,,,,,,,,,,,,,,0,,,,,,,1,22877897,pdf,D9DD14C8A70F5B0EF45BCBEEE87872FA,,,Laboratorium fizyczne w domu (WNT) - Jan Gaj.pdf,0,2000-01-01 01:00:00,2020-02-26 03:00:04,d9dd14c8a70f5b0ef45bcbeee87872fa-g.jpg,,
32033279,Head First. Fizyka. Edycja polska,,,,Heather Lang,2010,,Helion,,,926,Polish,,,,,,,,,,,,,,,0,,,,,,1,1,41562750,pdf,715CC0C6083CB48FC247462425B461E5,,,"Head First. Fizyka. Edycja polska (2010, Helion) - Heather Lang.pdf",0,2000-01-01 01:00:00,2020-02-26 03:00:04,715cc0c6083cb48fc247462425b461e5-g.jpg,,
32033280,A reference grammar of modern French,,,,Anne Judge; F G Healey,1983,,E. Arnold,,,520,English,317,,,0713162856,,,,,,,,,,,0,,,,,,,1,15982681,pdf,84A20411361F805E3729CDB113C082CF,,,Untitled.FR12.pdf,0,2000-01-01 01:00:00,2020-02-26 03:00:04,84a20411361f805e3729cdb113c082cf-g.jpg,,
32033281,A Practical Guide to Clinical Virology,,,,"L. R. Haaheim (editor), John R. Pattison (editor), Richard J. Whitley (editor)",2002,2,Wiley,,308,286,English,,,,"0470844299,9780470844298",,,,,,,,,,,0,,,,,,,1,4366006,pdf,800E26BE5F8E52529757DDBA3E3524E6,,,"A Practical Guide to Clinical Virology 2nd ed. - L. Haaheim, J. Pattison, R. Whitley (Wiley, 2002) WW.pdf",0,2000-01-01 01:00:00,2020-02-26 03:00:04,800e26be5f8e52529757ddba3e3524e6-g.jpg,,
32033282,"Ideal Theoretic Methods in Commutative Algebra, in Honor of James A. Huckaba's Retirement",,Lecture Notes In Pure And Applied Mathematics 220,,Daniel D. Anderson; Ira J. Papick,2019,,CRC Press,,x+358,375,English,114,,,"1138401749,9781138401747",,,,,,,,,,,0,,,,,,1,1,38584829,pdf,A525B14BBD00F9FB9D6E62A912737B7A,,,Anderson&Papick_Ideal Theoretic Methods in Commutative Algebra.pdf,0,2000-01-01 01:00:00,2020-02-26 03:00:04,a525b14bbd00f9fb9d6e62a912737b7a-g.jpg,,
32033283,The geographical dimensions of terrorism,,,,"Cutter, Susan L.; Richardson, Douglas; Wilbanks, Thomas J",2013,,Routledge,"London, New York",274,297,English,,,,"9780415946414,0415946417,9780415946421,0415946425,9781315810874,1315810875,9781317793830,1317793838,9781317793847,1317793846,9781317793854,1317793854",,,,,,,,,,,0,,,,,,,,5981904,pdf,17AA44FC21D63118942DBE3899C3C4CC,,,F:\\!upload\\_books\\9781315810874-Geographical Dimensions of Terrorism.pdf,0,2000-01-01 01:00:00,2020-02-26 03:00:04,17aa44fc21d63118942dbe3899c3c4cc-d.jpg,Terrorism.;Terrorism -- Prevention.;Terrorism -- Risk assessment.;Geography.;Geographic information systems.;Emergency management.,
32033284,A Search for Antibacterial Agents,,,,Varaprasad Bobbarala (editor),2012,,IntechOpen,,,352,English,147,,,"9535107240,9789535107248",,,,,,,,,,,0,,,,,,1,1,13561881,pdf,D3BE3B996AAC7F2EC36A531D7AEA18B9,,,"A Search for Antibacterial Agents - V. Bobbarala (Intech, 2012) WW.pdf",0,2000-01-01 01:00:00,2020-02-26 03:00:04,d3be3b996aac7f2ec36a531d7aea18b9-g.jpg,,
32033285,ABC of Nutrition,,ABC Series (Book 138),,A. Stewart Truswell,2003,4,BMJ Books,,152,137,English,147,,,"0727916645,9780727916648",,,,,,,,,,,0,,,,,,1,1,3363992,pdf,DBF50F9C62CAFA4951A25484E22F7AFE,,,"ABC of Nutrition 4th ed., - S. Truswell (BMJ, 2003) WW.pdf",0,2000-01-01 01:00:00,2020-02-26 03:00:04,dbf50f9c62cafa4951a25484e22f7afe-g.jpg,,
32033286,Relational psychotherapy : a primer,,,,"DeYoung, Patricia A",2013,,Routledge,,241,241,English,,,,"9781315810911,1315810913",,,,,,,,,,,0,,,,,,,,5487042,pdf,2D19501FCB58BC699CCE9F97979E0DEF,,,F:\\!upload\\_books\\9781315810911-Relational Psychotherapy.pdf,0,2000-01-01 01:00:00,2020-02-26 03:00:04,2d19501fcb58bc699cce9f97979e0def-d.jpg,Interpersonal psychotherapy.;Interpersonal relations.;Psychotherapist and patient.,
32033287,Emerging Johannesburg : perspectives on the postapartheid city,,,,"Tomlinson, Richard",2013,,Routledge,"London, New York, Johannesburg (South Africa), South Africa--Johannesburg",305,322,English,,,,"9781315811000,1315811006,9780415935586,9780415935593",,,,,,,,,,,0,,,,,,,,6557947,pdf,34D32FB25FC2F3E0D247FDA591301A3D,,,F:\\!upload\\_books\\9781315811000-Emerging Johannesburg.pdf,0,2000-01-01 01:00:00,2020-02-26 03:00:04,34d32fb25fc2f3e0d247fda591301a3d-d.jpg,Johannesburg (South Africa) -- Social conditions.;Johannesburg (South Africa) -- Politics and government.;Politics and government.;Social conditions.;South Africa -- Johannesburg.,
32033288,Addictions: From Pathophysiology to Treatment,,,,David Belin (editor),2012,,IntechOpen,,,497,English,,,,"9535107836,9789535107835",,,,,,,,,,,0,,,,,,1,1,15564921,pdf,E127A222EDF41D9DF9EC83C8D923EFE2,,,"Addictions - From Pathophysiology to Treatment - D. Belin (Intech, 2012) WW.pdf",0,2000-01-01 01:00:00,2020-02-26 03:00:04,e127a222edf41d9df9ec83c8d923efe2-g.jpg,,
32033289,Advanced Digestive Endoscopy: ERCP,,,,"Peter B. Cotton (editor), Joseph W. Leung (editor)",2006,1,Wiley-Blackwell,,432,425,English,,,,"1405120797,9781405120791",,,,,,,,,,,0,,,,,,1,1,4995892,pdf,02E792902AA3810D35BD1E73BDEE4703,,,"Advanced Digestive Endoscopy - ERCP - P. Cotton, J. Leung (Blackwell, 2005) WW.pdf",0,2000-01-01 01:00:00,2020-02-26 03:00:04,02e792902aa3810d35bd1e73bdee4703-g.jpg,,
32033290,Advanced Nutrition and Human Metabolism,,,,"Sareen S. Gropper, Jack L. Smith",2008,5,Cengage Learning,,624,624,English,,,,"0495116572,9780495116578",,,,,,,,,,,0,,,,,,1,1,21458732,pdf,8722CB8FA041E5859B12672F4006EB1B,,,"Advanced Nutrition and Human Metabolism 5th ed. - S. Gropper, J. Smith, J. Groff (Cengage, 2009) WW.pdf",0,2000-01-01 01:00:00,2020-02-26 03:00:04,8722cb8fa041e5859b12672f4006eb1b-g.jpg,,
32033291,Culturally diverse mental health : the challenges of research and resistance,,,,"Mio, Jeffery Scott; Iwamasa, Gayle",2003,,Brunner-Routledge,,370,385,English,,,,"9781315811178,1315811170,9781317794738,1317794737,9781317794745,1317794745,9781317794752,1317794753,0415933579,0415933587",,,,,,,,,,,0,,,,,,,,9346938,pdf,35FDA54F8EFD1BCFFCDFF3C93C7B2F48,,,F:\\!upload\\_books\\9781315811178-Culturally Diverse Mental Health.pdf,0,2000-01-01 01:00:00,2020-02-26 03:00:04,35fda54f8efd1bcffcdff3c93c7b2f48-d.jpg,Cultural psychiatry.;Minorities -- Mental health services.;Mental Health Services.;Cultural Diversity.;Minority Groups -- psychology.;POLITICAL SCIENCE -- Public Policy -- Social Security.;POLITICAL SCIENCE -- Public Policy -- Social Services & Welfare.;Transkulturelle Psychiatrie.;Psychiatrische Versorgung.;Kulturvergleich.;Randgruppe.,
32033292,Advanced Practice Nursing: Core Concepts for Professional Role Development,,Springer Series on Advanced Practice Nursing,,"Michaelene P. Mirr Jansen RN  PhD  APRN  BC (editor), Dr. Mary Zwygart-Stauffacher PhD  RN  GNP/GC (editor)",2005,3,Springer Publishing Company,,240,242,English,,,,"0826130453,9780826130457",,,,,,,,,,,0,,,,,,1,1,1507699,pdf,E1C632EF4F086BE6BC84893F95CFD541,,,"Advanced Practice Nursing 3rd ed. - M. Jansen, et. al., (Springer, 2006) WW.pdf",0,2000-01-01 01:00:00,2020-02-26 03:00:04,e1c632ef4f086be6bc84893f95cfd541-g.jpg,,
32033293,Teaching feminist activism : strategies from the field,,,,"Bojar, Karen; Naples, Nancy A",2002,,Routledge,United States,324,337,English,,,,"9781315811253,1315811251,9781317794981,1317794982,041593186X,0415931878",,,,,,,,,,,0,,,,,,,,7350167,pdf,6E231F643DC9E576DEC3CA8476CA522A,,,F:\\!upload\\_books\\9781315811253-Teaching Feminist Activism.pdf,0,2000-01-01 01:00:00,2020-02-26 03:00:04,6e231f643dc9e576dec3ca8476ca522a-d.jpg,Feminism -- Study and teaching (Higher) -- United States.;Social action -- Study and teaching -- United States.;Féminisme -- Étude et enseignement (Supérieur) -- États-Unis.;Action sociale -- Étude et enseignement -- États-Unis.;SOCIAL SCIENCE -- Discrimination & Race Relations.;SOCIAL SCIENCE -- Minority Studies.;Feminism -- Study and teaching (Higher);Social action -- Study and teaching.;United States.,
32033294,"626 pytań testowych z fizyki, astrofizyki i kosmologii",,,,"Tomasz Płazak, Stanisław Salach, Zofia Sanok",2004,,Zamkor,,,181,Polish,,,,,,,,,,,,,,,0,,,,,,,1,39669974,pdf,55CFBA9395B07EA10D93182B3E0738EA,,,"626 pytan testowych z fizyki astrofizyki i kosmologii (2004, Zamkor) - Tomasz Płazak, Stanisław Salach, Zofia Sanok.pdf",0,2000-01-01 01:00:00,2020-02-26 03:00:04,55cfba9395b07ea10d93182b3e0738ea-g.jpg,,
32033295,"Revisioning women, health and healing : feminist, cultural, and technoscience perspectives",,,,"Clarke, Adele; Olesen, Virginia L",1999,,Routledge,"USA., United States",374,385,English,,,,"9781315811406,1315811405,9781317795421,1317795423,9781317795438,1317795431,9781317795445,131779544X,0415918464",,,,,,,,,,,0,,,,,,,,9479567,pdf,0B858E02C517D8811106ED48D89C39B9,,,"F:\\!upload\\_books\\9781315811406-Revisioning Women, Health and Healing.pdf",0,2000-01-01 01:00:00,2020-02-26 03:00:04,0b858e02c517d8811106ed48d89c39b9-d.jpg,Wo,
32033296,That obscure subject of desire : Freud's female homosexual revisited,,,,"Freud, Sigmund; Freud, Sigmund; Schoenberg, Erica; Lesser, Ronnie C",1999,,Routledge,,365,272,English,,,,"9781317795469,1317795466,9781317795476,1317795474,9781315811413",,,,,,,,,,,0,,,,,,,,7423754,pdf,042010324ECA3AA604EAB432DEF4F904,,,F:\\!upload\\_books\\9781315811413-That Obscure Subject of Desire.pdf,0,2000-01-01 01:00:00,2020-02-26 03:00:04,042010324eca3aa604eab432def4f904-d.jpg,"Freud, Sigmund, -- 1856-1939.;Sex (Psychology);Lesbians.;Homosexuality.;Psychoanalysis.;FAMILY & RELATIONSHIPS -- Life Stages -- General.;PSYCHOLOGY -- Developmental -- General.;PSYCHOLOGY -- Developmental -- Lifespan Development.;PSYCHOLOGY -- General.",
32033297,History of Russia from Earliest Times Volume 45: The Rule of Catherine the Great; The Legislative Commission (1767-1768) And Foreign Affairs (1766-1768),45,History of Russia from Earliest Times,,Sergei Soloviev,,,Academic International Press,,,217,English,64,,,,,,,,,,,,,,0,,,,,,,0,35148658,pdf,8A3A7D38DF7D8FF6F5CB8DC85628942D,,,Soloviev Vol 45.pdf,0,2000-01-01 01:00:00,2020-02-26 03:00:04,8a3a7d38df7d8ff6f5cb8dc85628942d-g.jpg,,
32033298,Gender & envy,,,,"Burke, Nancy; Hilu, Debora",2013,,Routledge,,347,347,English,,,,"9781315811437,131581143X,9781317795513,1317795512,9781317795520,1317795520,9781317795537,1317795539,9780415916288",,,,,,,,,,,0,,,,,,,,8156349,pdf,C1DF09D51E8C25FC6C92B33C65697F26,,,F:\\!upload\\_books\\9781315811437-Gender and Envy.pdf,0,2000-01-01 01:00:00,2020-02-26 03:00:04,c1df09d51e8c25fc6c92b33c65697f26-d.jpg,Psychoanalysis.;Sex.;Gender identity.;Envy.,
32033299,Susceptibility Weighted Imaging in MRI: Basic Concepts and Clinical Applications,,,,"E. Mark Haacke (editor), Jürgen R. Reichenbach (editor)",2011,1,Wiley-Blackwell,,784,751,English,,,,9780470043431,,,,,,,,,,,0,,,,,,1,1,181958036,pdf,8FEBCD4E486DCA16E7B2375ADE1F79BB,,,Haacke - Susceptibility Weighted Imaging in MRI Basic Concepts and Clinical Applications_2011.pdf,0,2000-01-01 01:00:00,2020-02-26 03:00:04,8febcd4e486dca16e7b2375ade1f79bb-g.jpg,MRT,
32033300,"Returns of the French Freud : Freud, Lacan, and Beyond",,,,"Dufresne, Todd; Freud, Sigmund; Lacan, Jacques",2013,,Routledge,France,,253,English,,,,"9781306222945,130622294X,9781315811468",,,,,,,,,,,0,,,,,,,,7134885,pdf,6744B19752A8616F2019ED2486D79680,,,F:\\!upload\\_books\\9781315811468-Returns of the French Freud-.pdf,0,2000-01-01 01:00:00,2020-02-26 03:00:04,6744b19752a8616f2019ed2486d79680-g.jpg,"Freud, Sigmund, -- 1856-1939.;Lacan, Jacques, -- 1901-1981.;Psychoanalysis -- History.;Psychoanalysis -- France.;Psychoanalysis.;France.",
32033301,反抗者: 加缪作品,,加缪作品,,(法)阿尔贝·加缪,2013,,上海译文出版社,Shang hai,344,0,Chinese,,,,"7532761843,9787532761845",,,,,,,,,,,0,,,,,,,,1311240,epub,DAE34624367E038C464DDEF0CFEB3809,,,反抗者.epub,0,2000-01-01 01:00:00,2020-02-26 03:00:04,dae34624367e038c464ddef0cfeb3809-d.jpg,,
32033302,The creative mystique : from red shoes frenzy to love and creativity,,,,"Kavaler-Adler, Susan",1996,,Routledge,,339,352,English,,,,"9781317795674,1317795679,9781317795681,1317795687,9781315811482",,,,,,,,,,,0,,,,,,,,6969022,pdf,EE7AFF6ED4196624496EDD4FB6546EB8,,,F:\\!upload\\_books\\9781315811482-Creative Mystique.pdf,0,2000-01-01 01:00:00,2020-02-26 03:00:05,ee7aff6ed4196624496edd4fb6546eb8-d.jpg,"Psychic trauma.;Object relations (Psychoanalysis);Creation (Literary, artistic, etc.) -- Psychological aspects.;PSYCHOLOGY -- Cognitive Psychology.;SCIENCE -- Cognitive Science.;Trauma;Objektbeziehung;Psychoanalyse;Création (esthétique) -- Aspect psychologique.;Relation d'objet (psychanalyse);Traumatisme psychique.",
32033303,"Latino gay men and HIV : culture, sexuality, and risk behavior",,,,"Diaz, Rafael M",1998,,Routledge,United States,192,209,English,,,,"9781315811499,1315811499,9781317795698,1317795695,9781317795704,1317795709,9781317795711,1317795717,041591387X,0415913888",,,,,,,,,,,0,,,,,,,,3701830,pdf,B9BE225E4437415F9170B2CB12CEC1C1,,,F:\\!upload\\_books\\9781315811499-Latino Gay Men and HIV.pdf,0,2000-01-01 01:00:00,2020-02-26 03:00:05,b9be225e4437415f9170b2cb12cec1c1-d.jpg,"AIDS (Disease) -- United States -- Prevention.;Hispanic American gays -- Diseases.;HIV Infections -- ethnology.;Hispanic Americans -- psychology.;Homosexuality, Male.;Sexual Behavior -- ethnology.;POLITICAL SCIENCE -- Public Policy -- Social Security.;POLITICAL SCIENCE -- Public Policy -- Social Services & Welfare.;AIDS (Disease) -- Prevention.;United States.;Syndrome d'immunodéficience acquise -- prévention et contrôle.;Homosexualité masculine.",
32033304,Live sex acts : women performing erotic labor,,,,"Chapkis, Wendy",1997,,Routledge,,248,257,English,,,,"9781315811512,1315811510,9781317795759,131779575X,9781317795766,1317795768,9781317795773,1317795776",,,,,,,,,,,0,,,,,,,,4452834,pdf,D5333ED9832E5F74F6F9C21CCC953C3C,,,F:\\!upload\\_books\\9781315811512-Live Sex Acts.pdf,0,2000-01-01 01:00:00,2020-02-26 03:00:05,d5333ed9832e5f74f6f9c21ccc953c3c-d.jpg,Prostitution.;Prostitutes -- Interviews.;Feminist ethics.;Sexual ethics.;Prostituées -- Entretiens.;Éthique féministe.;Morale sexuelle.;POLITICAL SCIENCE -- Public Policy -- Cultural Policy.;SOCIAL SCIENCE -- Anthropology -- Cultural.;SOCIAL SCIENCE -- Popular Culture.;Prostitutes.;Prostitution,
32033305,The threshold of the visible world,,,,"Silverman, Kaja",1996,,Routledge,,254,265,English,,,,"9781315811581,1315811588,9781317795964,1317795962,9781317795971,1317795970,9781317795988,1317795989,0415910382,0415910390",,,,,,,,,,,0,,,,,,,,6735454,pdf,9A3925505B33C9DC09F68F7FC856C093,,,F:\\!upload\\_books\\9781315811581-Threshold of the Visible World.pdf,0,2000-01-01 01:00:00,2020-02-26 03:00:05,9a3925505b33c9dc09f68f7fc856c093-d.jpg,Love.;Vision.;Appearance (Philosophy);Psychoanalysis and philosophy.;PSYCHOLOGY -- Reference.;Waarneming.;Filosofische aspecten.;Psychologische aspecten.;Liebe;Philosophie;Psychoanalyse,
32033306,论美国的民主,,zh,,Array; Array,2007,,Nan hai chu ban gong si,Hai kou,,0,Chinese,,,,"9787544238304,754423830X",,B00GXZV61I,,,,,,,,,0,,,,,,,,312538,epub,E8077DB04CAA42DA6F65B63DF713D8AA,,,论美国的民主 - Ya Li Xi Si _De _Tuo Ke Wei Er.epub,0,2000-01-01 01:00:00,2020-02-26 03:00:05,e8077db04caa42da6f65b63df713d8aa-g.jpg,,
32033307,"Grassroots warriors : activist mothering, community work, and the war on poverty",,Perspectives on gender (New York N.Y.),,"Naples, Nancy A",2013,,Routledge,United States,296,296,English,,,,"9781315811598,1315811596,9780415910248,9780415910255",,,,,,,,,,,0,,,,,,,,8198395,pdf,F4B05083179829BFD3A2A2FD8D6DDCAC,,,F:\\!upload\\_books\\9781315811598-Grassroots Warriors.pdf,0,2000-01-01 01:00:00,2020-02-26 03:00:05,f4b05083179829bfd3a2a2fd8d6ddcac-d.jpg,Women in community development -- United States.;Women in community organization -- United States.;Poor -- United States.;Women political activists -- United States.;Poor.;Women in community development.;Women in community organization.;Women political activists.;United States.,
32033308,Scriptwriting for the screen,,Media skills,,"Moritz, Charlie",2008,Second edition,Routledge,,220,233,English,,,,"9781315811857,1315811855,9781317796770,1317796772,9781317796787,1317796780,9781317796794,1317796799,9780415465182,9780415465175",,,,,,,,,,,0,,,,,,,,4423000,pdf,512914647813C9C89D94374ACDBE1296,,,F:\\!upload\\_books\\9781315811857-Scriptwriting for the Screen 2e.pdf,0,2000-01-01 01:00:00,2020-02-26 03:00:05,512914647813c9c89d94374acdbe1296-d.jpg,Motion picture authorship.;LANGUAGE ARTS & DISCIPLINES -- Composition & Creative Writing.;LANGUAGE ARTS & DISCIPLINES -- Rhetoric.;REFERENCE -- Writing Skills.,
32033309,Advances in personality psychology,,Advances in Personality Psychology,,"Hampson, Sarah E",2,,Taylor & Francis,"Philadelphia, PA",,258,English,,,,"9780203000953,0203000951,9781315812175,9780415227681",,,,,,,,,,,0,,,,,,,,5576756,pdf,13F12EEFCD88FC7FEAA8B31C5A6B7758,,,F:\\!upload\\_books\\9781315812175-Advances in Personality Psychology.pdf,0,2000-01-01 01:00:00,2020-02-26 03:00:05,13f12eefcd88fc7feaa8b31c5a6b7758-g.jpg,Personality.,
32033310,Schizophrenia : a scientific delusion?,,,,"Boyle, Mary",2009,Second edition,Routledge,,375,375,English,,,,"9781315812205,1315812207",,,,,,,,,,,0,,,,,,,,8846380,pdf,C62447ABC7367F5D721C470797634DD4,,,F:\\!upload\\_books\\9781315812205-Schizophrenia 2e.pdf,0,2000-01-01 01:00:00,2020-02-26 03:00:05,c62447abc7367f5d721c470797634dd4-d.jpg,Schizophrenia -- Diagnosis -- History.;Schizophrenia -- Diagnosis.,
32033311,Immaterial facts : Freud's discovery of psychic reality and Klein's development of his work,,,,"Caper, Robert; Freud, Sigmund; Klein, Melanie",2000,,Routledge,,161,176,English,,,,"9781315812236,1315812231,9781317797920,1317797922,9780415220842",,,,,,,,,,,0,,,,,,,,3478684,pdf,CB0D73E27404266CD32762E088BE8A7D,,,F:\\!upload\\_books\\9781315812236-Immaterial Facts.pdf,0,2000-01-01 01:00:00,2020-02-26 03:00:05,cb0d73e27404266cd32762e088be8a7d-d.jpg,"Freud, Sigmund, -- 1856-1939 -- Influence.;Klein, Melanie.;Psychoanalysis.;Klein, Melanie;Freudian Theory.;PSYCHOLOGY -- Reference.;Freud, Sigmund, -- 1856-1939.;Influence (Literary, artistic, etc.)",
32033312,Real World; An Introduction to Sociology,,,,"Ferris, Kerry; Stein, jill",2018,6,Norton,NY,,624,English,,,,9788578110796,,,,,,,,,,,0,,,,,,1,1,90317302,pdf,625F671A9A5A5EC581A21DE441FD5A55,,,6133-TheRealWorldAnIntroductiontoSociology6thEdition.pdf,0,2000-01-01 01:00:00,2020-02-26 03:00:05,625f671a9a5a5ec581a21de441fd5a55-g.jpg,,
32033313,Information society studies,,Routledge research in information technology and society,,"Duff, Alistair S",2000,,Routledge,,204,217,English,,,,"9780415513746,041551374X,9781315812250,1315812258,9781317797975,1317797973,9781317797982,1317797981,9781317797999,131779799X,9780415215510",,,,,,,,,,,0,,,,,,,,4969076,pdf,9FDF063512E82F27954ADCFF0688D522,,,F:\\!upload\\_books\\9781315812250-Information Society Studies.pdf,0,2000-01-01 01:00:00,2020-02-26 03:00:05,9fdf063512e82f27954adcff0688d522-d.jpg,Information science.;Sciences de l'information.;LANGUAGE ARTS & DISCIPLINES -- Library & Information Science -- General.;Informatiemaatschappij.;Informationsgesellschaft;Société de l'information.,
32033314,"A sociology of energy, buildings, and the environment : constructing knowledge, designing practice",,Routledge research global environmental change series,,"Guy, Simon; Shove, Elizabeth",2000,,Routledge,,,177,English,,,,"9781315812373,1315812371,9781317798330,1317798333,9781317798347,1317798341,9781317798354,131779835X",,,,,,,,,,,0,,,,,,,,3584008,pdf,EBC74FCCB785E4A2B97D3C14EFAEFBF5,,,"F:\\!upload\\_books\\9781315812373-Sociology of Energy, Buildings and the Environment.pdf",0,2000-01-01 01:00:00,2020-02-26 03:00:05,ebc74fccb785e4a2b97d3c14efaefbf5-d.jpg,Energy conservation -- Social aspects.;Energy conservation -- Environmental aspects.,
32033315,On the Advantage and Disadvantage of History for Life,,,,"Nietzsche, Friedrich",1980,,Hackett,Indianapolis,69,69,English,,,,"0915144956,0915144948",,,,,,,,,,,0,,,,,,1,1,2371597,pdf,424E592068946D125B7F268E4707C450,,,On the Advantage and Disadvantage of History for Life - Friedrich Nietzsche.pdf,0,2000-01-01 01:00:00,2020-02-26 03:00:05,424e592068946d125b7f268e4707c450-g.jpg,,
32033316,Mediterranean tourism : facets of socioeconomic development and cultural change,,,,"Apostolopoulos, Yiorgos; Leontidou, Lila; Loukissas, Philippos",2006,,Routledge,Mediterranean Region,337,338,English,,,,"9781315812380,131581238X,0415180236",,,,,,,,,,,0,,,,,,,,8393035,pdf,C8D6367D15F412A2A47FC6BA5DFD3E91,,,F:\\!upload\\_books\\9781315812380-Mediterranean Tourism.pdf,0,2000-01-01 01:00:00,2020-02-26 03:00:05,c8d6367d15f412a2a47fc6ba5dfd3e91-d.jpg,Tourism -- Mediterranean Region.;Tourism.;Mediterranean Region.,
32033317,Bolshevism at a Deadlock,,Routledge revivals,,"Kautsky, Karl; Pritchard, Bertha",2014,,Routledge,"London, New York",193,194,"English, German",,,,"9780415742658,041574265X,9781315814414,1315814412",,,,,,,,,,,0,,,,,,,,2984175,pdf,9AE55997D67F700A135843D7141CBADA,,,F:\\!upload\\_books\\9781315814414-Bolshevism at a Deadlock (Routledge Revivals).pdf,0,2000-01-01 01:00:00,2020-02-26 03:00:05,9ae55997d67f700a135843d7141cbada-d.jpg,Soviet Union -- Politics and government -- 1917-1936.;Soviet Union -- Economic conditions -- 1917-1945.;Communism -- Soviet Union.;Communism.;Economic history.;Politics and government.;Soviet Union.,
32033318,Psychosemantics:The Problem of Meaning in the Philosophy of Mind,,,,"Fodor, Jerry",1989,,Harvard University Press,"Cambridge, MA",1-172,172,English,,,,,,,,,,,,,,,0,,,,,,1,1,10443846,pdf,6526A4AFE026C32EA5BCA097DCD628C9,,,fodor-_psychosemantics.pdf,0,2000-01-01 01:00:00,2020-02-26 03:00:05,6526a4afe026c32ea5bca097dcd628c9-g.jpg,,
32033319,Emerging Trends in Disruptive Technology Management for Sustainable Development,,Chapman & Hall/CRC Computational Intelligence and Its Applications,,Rik Das; Mahua Banerjee; Sourav De,2020,,CRC Press,,xviii+120,139,English,31,,,"0367249642,9780367249649",,,,,,,,,,,0,,,,,,1,1,4391549,pdf,C8DAF84B649864430C91F9933A920AFA,,,"Das,Banerjee&De_Emerging Trends in Disruptive Technology Management for Sustainable Development.pdf",0,2000-01-01 01:00:00,2020-02-26 03:00:05,c8daf84b649864430c91f9933a920afa-g.jpg,,
32033320,How it all began : origins of the modern economy,,Routledge revivals,,"Rostow, Walt Whitman",2014,,Routledge,,,279,English,,,,"9780415742276,0415742277,9781315814810,1315814811,9781317805618,1317805615,9781317805625,1317805623",,,,,,,,,,,0,,,,,,,,4226830,pdf,A490A6E86C764A290B2247F95FADAE9C,,,F:\\!upload\\_books\\9781315814810-How it all Began (Routledge Revivals).pdf,0,2000-01-01 01:00:00,2020-02-26 03:00:05,a490a6e86c764a290b2247f95fadae9c-d.jpg,Economic history -- 1600-1750.;Economic history -- 1750-1918.;BUSINESS & ECONOMICS -- Economics -- General.;BUSINESS & ECONOMICS -- Reference.;Economic history.,
32033321,Partition and the South Asian diaspora : extending the subcontinent,,,,"Ghosh, Papiya",2007,,Routledge,South Asia,325,325,English,,,,"9781315816111,1315816113",,,,,,,,,,,0,,,,,,,,4563201,pdf,B6323AD5C60C5131156C0F553E7D9A3F,,,F:\\!upload\\_books\\9781315816111-Partition and the South Asian Diaspora.pdf,0,2000-01-01 01:00:00,2020-02-26 03:00:05,b6323ad5c60c5131156c0f553e7d9a3f-d.jpg,South Asians -- Foreign countries -- Politics and government.;Refugees -- Political activity -- South Asia -- History -- 20th century.;Bihari (South Asian people) -- Migrations -- History -- 20th century.;South Asian diaspora -- Political aspects -- History -- 20th century.;Refugees -- Political activity.;South Asia.,
32033322,Power and Purity: The Unholy Marriage that Spawned America's Social Justice Warriors,,,,Mark T. Mitchell,2020,,Gateway Editions,,256,0,English,192,,,"1684510112,9781684510115",,,,,,,,,,,0,,,,,,,,3439488,epub,01B375A1AFC6A35ADDEBC84F19D894C6,,,Mitchell_Power and Purity. The Unholy Marriage that Spawned America's Social Justice Warriors.epub,0,2000-01-01 01:00:00,2020-02-26 03:00:05,01b375a1afc6a35addebc84f19d894c6-g.jpg,,
32033323,Nester's Microbiology: A Human Perspective,,,,"Anderson, Denise; Salm, Sarah; Allen, Deborah; Nester, Eugene",2016,8,McGraw-Hill,New York,,897,English,,,,"1234567890,9780073522593,0073522597,2014021720",,,,,,,,,,,0,,,,,,,1,150379698,pdf,79B28683F626B8FE89BA1AD7BE9B21DC,,,8515-NestersMicrobiologyAHumanPerspective8th.pdf,0,2000-01-01 01:00:00,2020-02-26 03:00:05,79b28683f626b8fe89ba1ad7be9b21dc-g.jpg,,
32033324,Emerging China : prospects for partnership in Asia,,,,"Devare, Sudhir; Marwah, Reena; Singh, Swaran",2012,Online-ausg,Routledge,"Abingdon, England, New Delhi, India",436,437,English,,,,"9780415502368,0415502365,9781315816227,1315816229",,,,,,,,,,,0,,,,,,,,8672714,pdf,EBB687FF9448A974B37972F45D0353BB,,,F:\\!upload\\_books\\9781315816227-Emerging China.pdf,0,2000-01-01 01:00:00,2020-02-26 03:00:05,ebb687ff9448a974b37972f45d0353bb-d.jpg,International relations -- Congresses.;China -- Foreign relations -- Asia.;Asia -- Foreign relations -- China.;China -- Foreign relations -- India.;India -- Foreign relations -- China.;International relations.;Asia.;China.;India.,
32033325,MRI Made Easy,,Made Easy,,"M.D. Chavhan, Govind B.",2013,2,Jaypee Brothers Medical Pub,,208,222,English,,,,"9350902702,9789350902707",,,,,,,,,,,0,,,,,,1,1,17162988,pdf,BB1AD1092CEA036E0EE5AD369089F281,,,Chavhan - MRI Made Easy (for beginners)_2e_2013.pdf,0,2000-01-01 01:00:00,2020-02-26 03:00:05,bb1ad1092cea036e0ee5ad369089f281-g.jpg,MRT,
32033326,The Buddha and his religion,,Routledge revivals,,"Barthélemy Saint-Hilaire, Jules; Ensor, Laura",2014,,Routledge,,,385,"English, French",,,,"9781317811121,1317811127,9781315816609",,,,,,,,,,,0,,,,,,,,6767035,pdf,3AD55178790B96D102BD23C149D7D40A,,,F:\\!upload\\_books\\9781315816609-Buddha and His Religion (Routledge Revivals).pdf,0,2000-01-01 01:00:00,2020-02-26 03:00:06,3ad55178790b96d102bd23c149d7d40a-g.jpg,Buddhism.;RELIGION -- Comparative Religion.,
32033327,The Middle East in world politics,,Routledge revivals,,"Ayoob, Mohammed",2014,,Routledge,,,222,English,,,,"9781317811275,1317811275,9781315816654,9780415739382,0709905025",,,,,,,,,,,0,,,,,,,,4755272,pdf,3367CF10E119F82ED73597866311E764,,,F:\\!upload\\_books\\9781315816654-Middle East in World Politics (Routledge Revivals).pdf,0,2000-01-01 01:00:00,2020-02-26 03:00:06,3367cf10e119f82ed73597866311e764-g.jpg,Middle East -- Politics and government -- 1945-1979 -- Congresses.;POLITICAL SCIENCE -- Government -- International.;POLITICAL SCIENCE -- International Relations -- General.;Politics and government.;Middle East.,
32033328,New technology international perspective on human resources and industrial relations,,Routledge revivals,,"Bamber, Greg",2015,[Unveränd. Nachdr.],Routledge,Abingdon u.a,267 S,288,English,,,,"9780415736817,0415736811,9780415736848,0415736846,9781315818313,0044451237",,,,,,,,,,,0,,,,,,,,4754353,pdf,B72D82EC3255555B513B801CB9661D35,,,F:\\!upload\\_books\\9781315818313-New Technology (Routledge Revivals).pdf,0,2000-01-01 01:00:00,2020-02-26 03:00:06,b72d82ec3255555b513b801cb9661d35-d.jpg,Personnel management;Industrial relations,
32033329,The personal distribution of incomes,,Routledge revivals,,"Atkinson, A. B","1976, 2014",,Routledge,"New York, Great Britain",,353,English,,,,"9780415736497,0415736498,9780415736510,041573651X,9781315818450,1315818450,0043320643,0043320651",,,,,,,,,,,0,,,,,,,,6916993,pdf,8E8E74763F6B132F9D8BE6D0CFEDA43A,,,F:\\!upload\\_books\\9781315818450-Personal Distribution of Incomes (Routledge Revivals).pdf,0,2000-01-01 01:00:00,2020-02-26 03:00:06,8e8e74763f6b132f9d8be6d0cfeda43a-d.jpg,Income distribution -- Great Britain -- Congresses.;Indkomstfordeling;Income distribution;Great Britain,
32033330,Atlas of Normal Roentgen Variants That May Simulate Disease,,,,Mark W. Anderson; Theodore E. Keats,2012,9,Saunders,,816,1305,English,,,,"0323073557,9780323073554",,,,,,,,,,,0,,,,,,1,1,323804880,pdf,420295A364D3B4D776153B43063327C5,,,"Keats - Atlas of Normal Roentgen Variants that May Simulate Disease, 9th ed_2013.pdf",0,2000-01-01 01:00:00,2020-02-26 03:00:06,420295a364d3b4d776153b43063327c5-g.jpg,X-Ray,
32033331,The psychology of deductive reasoning,,Psychology revivals,,"Evans, Jonathan St. B. T",2014,,Psychology Press,,,288,English,,,,"9781315819631,1315819635,9781317820451,1317820452,0710009232",,,,,,,,,,,0,,,,,,,,5226113,pdf,6A9FAF9A3927308BF9E9B5CBE5D6D418,,,F:\\!upload\\_books\\9781315819631-Psychology of Deductive Reasoning (Psychology Revivals).pdf,0,2000-01-01 01:00:00,2020-02-26 03:00:06,6a9faf9a3927308bf9e9b5cbe5d6d418-g.jpg,Thought and thinking.;Logic.;Reasoning (Psychology);PSYCHOLOGY -- Cognitive Psychology.;SCIENCE -- Cognitive Science.,
32033332,Capitlaism and leisure theory,,Routledge revivals,,"Rojek, Chris",2014,,Routledge,,221,221,English,,,,"9781315819884,1315819880,0422790605,0422790702",,,,,,,,,,,0,,,,,,,,3762012,pdf,ACB0314096A2FA408E9FA94AA41920FF,,,F:\\!upload\\_books\\9781315819884-Capitalism and Leisure Theory (Routledge Revivals).pdf,0,2000-01-01 01:00:00,2020-02-26 03:00:06,acb0314096a2fa408e9fa94aa41920ff-d.jpg,Leisure -- Social aspects.;Capitalism -- Social aspects.,
32033333,The language of environment : a new rhetoric,,,,"Myerson, George; Rydin, Yvonne",2006,,Routledge,,276,273,English,,,,"9781315820026,1315820021,1857283309,1857283317",,,,,,,,,,,0,,,,,,,,3688780,pdf,DFB0E9511BEB8DFFE0C6A6AD15F440FA,,,F:\\!upload\\_books\\9781315820026-Language Of Environment.pdf,0,2000-01-01 01:00:00,2020-02-26 03:00:06,dfb0e9511beb8dffe0c6a6ad15f440fa-d.jpg,Environmentalism.,
32033334,Graphing Equations: Algebra,,Britannica Mathematics in Context,,"Kindt, M; Wijers, M; Spence, M.S.; Brinker, L.J; Plagge, M.A.; Burrill, J; Burrill, G",2006,,Encyclopedia Britannica Inc,chicago,,59,English,,,,0030385733,,,,,,,10.1142/9789814291873_0003,,,,0,,,,,,,1,2492096,pdf,7C48CC5D0E7AD6401791AA248702CC3F,,,6818-Graphing20Equations.pdf,0,2000-01-01 01:00:00,2020-02-26 03:00:06,7c48cc5d0e7ad6401791aa248702cc3f-g.jpg,,
32033335,Crime prevention,,Criminal justice series (Cullompton England),,"Tilley, Nick",2012,,Routledge,,210,225,English,,,,"9781315820071,1315820072,9781317821762,1317821769,9781317821779,1317821777,9781317821786,1317821785",,,,,,,,,,,0,,,,,,,,4338372,pdf,5BECA55E2B72517C6FC356E6B220128B,,,F:\\!upload\\_books\\9781315820071-Crime Prevention.pdf,0,2000-01-01 01:00:00,2020-02-26 03:00:06,5beca55e2b72517c6fc356e6b220128b-d.jpg,Crime prevention.;Crime prevention -- Philosophy.,
32033336,Criminology and criminal justice : a study guide,,,,"Joyce, Peter",2011,,Routledge,London,215,224,English,,,,"9781315820088,1315820080,9781843923367",,,,,,,,,,,0,,,,,,,,4986938,pdf,219B7694D0353088170137A177552290,,,F:\\!upload\\_books\\9781315820088-Criminology and Criminal Justice.pdf,0,2000-01-01 01:00:00,2020-02-26 03:00:06,219b7694d0353088170137a177552290-d.jpg,"Criminology -- Textbooks.;Criminal justice, Administration of -- Textbooks.;Criminal justice, Administration of.;Criminology.",
32033337,"Medical Imaging: Techniques, Reflection and Evaluation",,,,"Elizabeth Carver, Barry Carver",2012,2,Churchill Livingstone,,560,559,English,,,,9780702039331,,,,,,,,,,,0,,,,,,1,1,99091430,pdf,E78997B86A4AAA8214CD2D1D491D195B,,,"Carver & Carver - Medical Imaging - Techniques, Reflection and Evaluation, 2nd ed_2006.pdf",0,2000-01-01 01:00:00,2020-02-26 03:00:06,e78997b86a4aaa8214cd2d1d491d195b-g.jpg,X-Ray,
32033338,Radiography in the Digital Age: Physics - Exposure - Radiation Biology - Third Edition,,,,Quinn B. Carroll,2018,3,Charles C Thomas Pub Ltd,,900,900,English,,,,"0398092141,9780398092146",,,,,,,,,,,0,,,,,,1,1,67990567,pdf,A7A4D1269D6C977947AE62AF478F603D,,,"Carroll -  Radiography in the digital age - pysics, exposure, radiation biology_3ed_2018.pdf",0,2000-01-01 01:00:00,2020-02-26 03:00:06,a7a4d1269d6c977947ae62af478f603d-g.jpg,X-Ray,
32033339,"Penal populism, sentencing councils and sentencing policy",,,,Arie Freiberg and Karen Gelb,2013,,Routledge,,257,257,English,,,,"9781315820095,9781843922780,9781843922773",,,,,,,,,,,0,,,,,,,,6399957,pdf,B2CDFD35ADDD6020407314476DE41F29,,,"F:\\!upload\\_books\\9781315820095-Penal Populism, Sentencing Councils and Sentencing Policy.pdf",0,2000-01-01 01:00:00,2020-02-26 03:00:06,b2cdfd35addd6020407314476de41f29-d.jpg,Sentences (Criminal procedure) -- Public opinion.;Sentences (Criminal procedure) -- Citizen participation.;Sentences (Criminal procedure),
32033340,Ethnicity and the dementias,,,,"Gallagher-Thompson, Dolores; Yeo, Gwen",2013,,Routledge,United States,261,284,English,,,,"9781315820347,131582034X,9781317822578,1317822579,9781317822585,1317822587,9781317822592,1317822595,9781560324362,9781560324379",,,,,,,,,,,0,,,,,,,,5873701,pdf,B342EE20C4B733D243C45B0EC0FB9DEE,,,F:\\!upload\\_books\\9781315820347-Ethnicity and Dementias.pdf,0,2000-01-01 01:00:00,2020-02-26 03:00:06,b342ee20c4b733d243c45b0ec0fb9dee-d.jpg,"Dementia -- United States -- Cross-cultural studies.;Minorities -- Mental health -- United States.;Psychiatry, Transcultural.;Dementia.;Minorities -- Mental health.;United States.",
32033341,Preschoolers and substance abuse : strategies for prevention and intervention,,,,"Lecca, Pedro J.; Watts, Thomas D",2009,,Routledge,United States,125,125,English,,,,"9781315820484,131582048X,1560242345",,,,,,,,,,,0,,,,,,,,1971660,pdf,27B54FD64E616A9ECD05D1839137A2CE,,,F:\\!upload\\_books\\9781315820484-Preschoolers and Substance Abuse.pdf,0,2000-01-01 01:00:00,2020-02-26 03:00:06,27b54fd64e616a9ecd05d1839137a2ce-g.jpg,Preschool children -- Drug use -- United States.;Drug abuse -- United States -- Prevention.;Drug abuse -- Prevention.;United States.,
32033342,Developing healthy stepfamilies : twenty families tell their stories,,Haworth marriage and the family,,"Kelley, Patricia",2013,,Routledge,"London, New York",104,123,English,,,,"9781315820569,1315820560,9781560248880",,,,,,,,,,,0,,,,,,,,2290527,pdf,B8F0C61A5597A6E9773E8D18B46F243C,,,F:\\!upload\\_books\\9781315820569-Developing Healthy Stepfamilies.pdf,0,2000-01-01 01:00:00,2020-02-26 03:00:06,b8f0c61a5597a6e9773e8d18b46f243c-g.jpg,Stepfamilies -- Case studies.;Stepfamilies.,
32033343,Addressing homophobia and heterosexism on college campuses,,,,"Cramer, Elizabeth P.; Gaska, Jennifer M",2011,,Routledge,United States,287,288,English,,,,"9781315820576,1315820579",,,,,,,,,,,0,,,,,,,,5824336,pdf,CF99BDEC8C5F421D9F954892FD487B40,,,F:\\!upload\\_books\\9781315820576-Addressing Homophobia and Heterosexism on College Campuses.pdf,0,2000-01-01 01:00:00,2020-02-26 03:00:06,cf99bdec8c5f421d9f954892fd487b40-g.jpg,Homophobia in higher education -- United States.;Heterosexism in higher education -- United States.;Heterosexism in higher education.;Homophobia in higher education.;United States.,
32033344,School experiences of gay and lesbian youth : the invisible minority,,,,"Harris, Mary B.; Mayshock, Thomas J",2009,,Routledge,United States,138,138,English,,,,"9781315820583,1315820587,0789003767,1560231092",,,,,,,,,,,0,,,,,,,,2619239,pdf,C51B816C451F4AE51BFE5E5995076484,,,F:\\!upload\\_books\\9781315820583-School Experiences of Gay and Lesbian Youth.pdf,0,2000-01-01 01:00:00,2020-02-26 03:00:06,c51b816c451f4ae51bfe5e5995076484-d.jpg,Gay high school students -- United States.;Lesbian high school students -- United States.;Homophobia in high schools -- United States.;Gay high school students.;Homophobia in high schools.;Lesbian high school students.;United States.,
32033345,Women and Healthy Aging : Living Productively in Spite of It All,,,,"Garner, J. Dianne; Young, Alice A",2014,,Taylor and Francis,"Hoboken, United States",250,250,English,,,,"9781317823407,1317823400,9781315820613,9781560245094,9781560230496",,,,,,,,,,,0,,,,,,,,4942329,pdf,4FB3A4039BABABB7AAAB7218577C41FA,,,F:\\!upload\\_books\\9781315820613-Women and Healthy Aging.pdf,0,2000-01-01 01:00:00,2020-02-26 03:00:06,4fb3a4039bababb7aaab7218577c41fa-g.jpg,Older women -- Diseases.;Adjustment (Psychology) in old age.;Older women -- Health and hygiene.;Older women -- Mental health.;Self-actualization (Psychology) in old age.;Older women -- Medical care -- United States.;Women's Health.;Aging -- physiology.;Quality of Life.;Women's Health Services.;United States.,
32033346,DSM-IV training guide for diagnosis of childhood disorders,,,,"Ismond, Deborah R.; Rapoport, Judith L",1996,,Routledge,,383,385,English,,,,"9781315820767,1315820765,0876307667,0876307705",,,,,,,,,,,0,,,,,,,,6956960,pdf,360C09DDB9303CC8C9C97BE61E43E78D,,,F:\\!upload\\_books\\9781315820767-DSM-IV Training Guide For Diagnosis Of Childhood Disorders.pdf,0,2000-01-01 01:00:00,2020-02-26 03:00:06,360c09ddb9303cc8c9c97be61e43e78d-d.jpg,Diagnostic and statistical manual of mental disorders.;Mental illness -- Diagnosis.;Child psychopathology -- Classification.;Child psychopathology.,
32033347,DSM-IV: Training Guide,,,,"Susan Phillips, William H. Reid, Michael G. Wise",2012,,Routledge,,378,383,English,,,,"9781315820774,1315820773,0876307632,0876307683",,,,,,,,,,,0,,,,,,,,7234009,pdf,DE860AD3531DAAC5769E90E7AA36BB48,,,F:\\!upload\\_books\\9781315820774-DSM-IV Training Guide.pdf,0,2000-01-01 01:00:00,2020-02-26 03:00:06,de860ad3531daac5769e90e7aa36bb48-g.jpg,Diagnostic and statistical manual of mental disorders.;Mental illness -- Classification.;Mental illness -- Diagnosis.;Mental illness.,
32033348,Power of Probiotics: Improving Your Health with Beneficial Microbes,,,,Gary W. Elmer,2013,,Routledge,,,254,English,,,,"9781306223942,1306223946,9781315821139",,,,,,,,,,,0,,,,,,,,4644844,pdf,78FF1EAB118616054890E86D0E89A710,,,F:\\!upload\\_books\\9781315821139-Power of Probiotics.pdf,0,2000-01-01 01:00:00,2020-02-26 03:00:06,78ff1eab118616054890e86d0e89a710-g.jpg,Probiotics -- Therapeutic use.,
32033349,Clinical case management for people with mental illness : a biopsychosocial vulnerability-stress model,,Haworth social work in health care,,"Wong, Daniel Fu Keung",2013,,Routledge,,271,271,English,,,,"9781315821146,1315821141,9781317824978,1317824970,9781317824985,1317824989,9781317824992,1317824997",,,,,,,,,,,0,,,,,,,,5060243,pdf,681BBC151DD3EAB21910F30A7A65EF9F,,,F:\\!upload\\_books\\9781315821146-Clinical Case Management for People with Mental Illness.pdf,0,2000-01-01 01:00:00,2020-02-26 03:00:06,681bbc151dd3eab21910f30a7a65ef9f-d.jpg,"Mental health services.;Mentally ill -- Services for.;Psychiatric social work.;Social Work, Psychiatric -- methods.;Case Management.;Community Mental Health Services.;Mental Disorders -- diagnosis.;Mental Disorders -- therapy.",
32033350,"Obsessive-compulsive disorder : a guide for family, friends, and pastors",,,,"Collie, Robert M",2013,,Routledge,,133,133,English,,,,"9780789025364,0789025361,9780789025371,078902537X,9781315821207,1315821206",,,,,,,,,,,0,,,,,,,,2807038,pdf,60ED7DEEC3AB3BB310816FA92D0C39CD,,,F:\\!upload\\_books\\9781315821207-Obsessive-Compulsive Disorder.pdf,0,2000-01-01 01:00:00,2020-02-26 03:00:06,60ed7deec3ab3bb310816fa92d0c39cd-d.jpg,Obsessive-compulsive disorder -- Patients -- Pastoral counseling of.;Obsessive-compulsive disorder -- Patients -- Religious life.;Electronic books,
32033351,Peripheral Vascular Interventions,,,,Krishna Kandarpa (editor),2007,1,LWW,,720,1023,English,,,,"0781786878,9780781786874",,,,,,,,,,,0,,,,,,1,1,24137901,pdf,A75CECA6E0322F418797DF1F9F04CB23,,,Kandarpa - Peripheral Vascular Interventions_2008.pdf,0,2000-01-01 01:00:00,2020-02-26 03:00:07,a75ceca6e0322f418797df1f9f04cb23-g.jpg,Vascular and Interventional Radiology; Angioplasty & Stenting,
32033352,Strategic Management Competitiveness & Globalization,,,,"Hitt, Ireland, Hoskisson",2011,9,Southwestern Cengage,Mason,449,449,,,,,"9780538753098,0538753099",,,,,,,,,,,0,,,,,,1,1,12378011,pdf,A5DD9D3DF8457FE5155D6052D08900FE,,,2613-Strategicmanagementcompetitivenessglobalization4.pdf,0,2000-01-01 01:00:00,2020-02-26 03:00:07,a5dd9d3df8457fe5155d6052d08900fe-g.jpg,,
32033353,Czas niewolników. Jak świat stał się własnością kilku korporacji,,,,Józef Białek,2019,,Wektory,,,267,Polish,,,,,,,,,,,,,,,0,,,,,,,0,28212777,pdf,83445C5D3717387849A5429C6F026E67,,,"Czas niewolników. Jak świat stał się własnością kilku korporacji (2019, Wektory) - Józef Białek.pdf",0,2000-01-01 01:00:00,2020-02-26 03:00:07,83445c5d3717387849a5429c6f026e67-g.jpg,,
32033354,The hurricane,,Routledge Revivals,,"Pielke, Roger A",2013,[Nachdr. der Ausg.] 1990,Routledge,London,226,245,English,,,,"9780415615532,0415615534,9781315822679,1315822679,0415037050",,,,,,,,,,,0,,,,,,,,9429623,pdf,FEFC535F373F90CCA79FE383899760AA,,,F:\\!upload\\_books\\9781315822679-Hurricane.pdf,0,2000-01-01 01:00:00,2020-02-26 03:00:07,fefc535f373f90cca79fe383899760aa-d.jpg,,
32033355,Законы инженерной этики,,Будущее зависит от вас!,,,,,,,26,26,Russian,,,,,,,,,,,,,,,0,0,1,1,1,1,0,1,3491046,pdf,B60E7B79693233144042F79BA01B1A2C,,,Законы инженерной этики.pdf,0,2000-01-01 01:00:00,2020-02-26 03:00:07,b60e7b79693233144042f79ba01b1a2c-g.jpg,,
32033356,Atlas of Interventional Pain Management,,,,Steven D. Waldman,2014,4,Saunders,,952,1164,English,,,,"0323244289,9780323244282",,,,,,,,,,,0,,,,,,1,1,118923699,pdf,AE7BC1DF80F3770217A888E5E1C0458A,,,"Waldman - Atlas of Interventional Pain Management, 4th ed.pdf",0,2000-01-01 01:00:00,2020-02-26 03:00:07,ae7bc1df80f3770217a888e5e1c0458a-g.jpg,Vascular and Interventional Radiology,
32033357,Science and football IV,,,,"Murphy, A.; Reilly, T.; Spinks, W",2006,,Routledge,,450,450,English,,,,"9781315823775,1315823772",,,,,,,,,,,0,,,,,,,,7660844,pdf,4D6873ADCE1EE863744955655EDC26A6,,,F:\\!upload\\_books\\9781315823775-Science and Football IV.pdf,0,2000-01-01 01:00:00,2020-02-26 03:00:07,4d6873adce1ee863744955655edc26a6-g.jpg,Soccer -- Congresses.;Football -- Congresses.;Football.;Soccer.,
32033358,"Science and football III : proceedings of the Third World Congress of Science and Football, Cardiff, Wales, 9-13 April, 1995",,,,,2006,,Taylor & Francis,,339,356,English,,,,"9781315823799,0419221603",,,,,,,,,,,0,,,,,,,,7135957,pdf,6517D62ECB39E50B6ADEBB2B2A2DBB74,,,F:\\!upload\\_books\\9781315823799-Science and Football III.pdf,0,2000-01-01 01:00:00,2020-02-26 03:00:07,6517d62ecb39e50b6adebb2b2a2dbb74-d.jpg,Football -- Congresses.;Soccer -- Congresses.;Rugby football -- Congresses.;Gaelic football -- Congresses.;Touch football -- Congresses.;Sports medicine -- Congresses.;Sports sciences -- Congresses.;Football.;Gaelic football.;Rugby football.;Soccer.;Sports medicine.;Sports sciences.;Touch football.,
32033359,Roman Europe: 1000 BC - AD 400,,The Short Oxford History of Europe,,Edward Bispham,2008,,Oxford University Press,Oxford,377,398,English,,,,"0199266018,9780199266012",,,,,936.02-dc22,,,,,,0,,,,,,,0,4063379,pdf,DC780D94A16E8784E6EE3B0C92F29E81,,,Edward Bispham ed. - Roman Europe 1000 BC - AD 400.pdf,0,2000-01-01 01:00:00,2020-02-26 03:00:07,dc780d94a16e8784e6ee3b0c92f29e81-g.jpg,,
32033360,Hadzic's Peripheral Nerve Blocks and Anatomy for Ultrasound-Guided Regional Anesthesia (New York School of Regional Anesthesia),,,,Admir Hadzic,2012,2,McGraw-Hill Education / Medical,,722,1249,English,,,,"0071549617,9780071549615",,,,,,,,,,,0,,,,,,1,1,114058292,pdf,9F3BDB4F5EB5295D66D95A84E9EDECDC,,,"Hadzic's Peripheral Nerve Blocks and Anatomy for Ultrasound-Guided Regional Anesthesia, 2nd ed_2012.pdf",0,2000-01-01 01:00:00,2020-02-26 03:00:07,9f3bdb4f5eb5295d66d95a84e9edecdc-g.jpg,Vascular and Interventional Radiology,
32033361,Essentials of Sociology,,,,"Brinkerhoff, White, Ortega, Weitz",2014,8,Brooks / Cole,Belmont,514,481,English,,,,"2009939348,9780495812951,0495812951",,,,,,,,,,,0,,,,,,1,1,26053205,pdf,AE50A9153D1B28262635DA64AA2ED69B,,,Brinkerhoff et al. - 2011 - Essentials of Sociology.pdf,0,2000-01-01 01:00:00,2020-02-26 03:00:07,ae50a9153d1b28262635da64aa2ed69b-g.jpg,,
32033362,Interventional Radiology: A Survival Guide,,,,David Kessel,2010,3,Churchill Livingstone,,384,354,English,,,,"0702033898,9780702033896",,,,,,,,,,,0,,,,,,1,1,23441885,pdf,08F568E3361F04998E7988D077E4CE7C,,,"Kessel - Interventional Radiology - A Survival Guide, 3rd ed_2011.pdf",0,2000-01-01 01:00:00,2020-02-26 03:00:07,08f568e3361f04998e7988d077e4ce7c-g.jpg,Vascular and Interventional Radiology,
32033363,Arteriovenous Fistulas: Diagnosis and Management,,,,Stavropoula Tjoumakaris (editor),2013,,IntechOpen,,,209,English,,,,"9535111787,9789535111788",,,,,,,,,,,0,,,,,,1,1,9497815,pdf,BE3751573D1789449AD5DE16FAD5A715,,,Tjoumakaris - Arteriovenous Fistulas - Diagnosis and Management_2013.pdf,0,2000-01-01 01:00:00,2020-02-26 03:00:07,be3751573d1789449ad5de16fad5a715-g.jpg,Vascular and Interventional Radiology,
32033364,Stress and coping across development,,,,"Field, Tiffany M.; McCabe, Philip M.; Schneiderman, Neil",2009,,Psychology Press,,281,281,English,,,,"9781315825489,1315825481,0898599601",,,,,,,,,,,0,,,,,,,,5799401,pdf,64323ED64C1A7B7E6BB45E438632CB27,,,F:\\!upload\\_books\\9781315825489-Stress and Coping Across Development.pdf,0,2000-01-01 01:00:00,2020-02-26 03:00:07,64323ed64c1a7b7e6bb45e438632cb27-d.jpg,Stress (Psychology) -- Congresses.;Adjustment (Psychology) -- Congresses.;Developmental psychology -- Congresses.;Medicine and psychology -- Congresses.;Adjustment (Psychology);Developmental psychology.;Medicine and psychology.;Stress (Psychology),
32033365,A Guide to Radiological Procedures,,,,Frances Anne Aitchison,2009,5,Saunders Ltd.,,398,413,English,,,,"0702029823,9780702029820",,,,,,,,,,,0,,,,,,1,1,2625816,pdf,5854E36F5E07FE6862B5F2F9D19D1A87,,,"Chapman & Nakielny - A Guide to Radiological Procedures, 5th ed_2009.pdf",0,2000-01-01 01:00:00,2020-02-26 03:00:07,5854e36f5e07fe6862b5f2f9d19d1a87-g.jpg,Vascular and Interventional Radiology,
32033366,The effect of delay and intervening events on reinforcement value,,Quantitative analyses of behavior series Volume,,"Commons, Michael L",2009,,Psychology Press,,363,363,English,,,,"9781315825502,1315825503,0898598001",,,,,,,,,,,0,,,,,,,,7816314,pdf,02EF3858DCA91E96FD4A48436F2D0412,,,F:\\!upload\\_books\\9781315825502-Effect of Delay and of Intervening Events on Reinforcement Value.pdf,0,2000-01-01 01:00:00,2020-02-26 03:00:07,02ef3858dca91e96fd4a48436f2d0412-d.jpg,Reinforcement (Psychology);Reinforcement (Psychology) -- Congresses.;Behavior -- Congresses.,
32033367,"Field Dependence in Psychological Theory, Research, and Application: Two Symposia in Memory of Herman A. Witkin",,,,Mario Bertini (editor); Luigi Pizzamiglio (editor); Seymour Wapner (editor),2009,,Routledge,,150,150,English,,,,"9781315825564,1315825562,0898596688",,,,,,,,,,,0,,,,,,,,3109215,pdf,2DB0CC85AA7CE54C8C3E021A47B98ACF,,,"F:\\!upload\\_books\\9781315825564-Field Dependence in Psychological Theory, Research and Application.pdf",0,2000-01-01 01:00:00,2020-02-26 03:00:07,2db0cc85aa7ce54c8c3e021a47b98acf-d.jpg,"Witkin, Herman A. -- Congresses.;Field dependence (Psychology) -- Congresses.;Witkin, Herman A.;Field dependence (Psychology)",
32033368,Advances in personality assessment,,Advances in personality assessment 6,,"Butcher, James Neal; Spielberger, Charles Donald",1987,,Lawrence Erlbaum,"Hillsdale, N.J",169,182,English,,,,"9781315825571,1315825570,9781317838265,1317838262,9781317838272,1317838270,9781317838289,1317838289",,,,,,,,,,,0,,,,,,,,3764398,pdf,DA73C4273EA7EFB0C964F20625A9A937,,,F:\\!upload\\_books\\9781315825571-Advances in Personality Assessment.pdf,0,2000-01-01 01:00:00,2020-02-26 03:00:07,da73c4273ea7efb0c964f20625a9a937-g.jpg,Personality assessment.,
32033369,Event Theory: A Piaget-Freud Integration,,Child Psychology,,Irene Fast,2009,,Routledge,,193,193,English,,,,"9781315825588,1315825589,0898596181",,,,,,,,,,,0,,,,,,,,4336905,pdf,2DDCCDD94205E98C17F8DB9904615CB9,,,F:\\!upload\\_books\\9781315825588-Event Theory.pdf,0,2000-01-01 01:00:00,2020-02-26 03:00:07,2ddccdd94205e98c17f8db9904615cb9-d.jpg,"Piaget, Jean, -- 1896-1980.;Freud, Sigmund, -- 1856-1939.;Child psychology.;Self-perception in children.;Emotions in children.;Social interaction in children.",
32033370,Advances in personality assessment,,Advances in personality assessment 5,,"Butcher, James Neal; Spielberger, Charles Donald",1985,,Lawrence Erlbaum,"Hillsdale, N.J",211,224,English,,,,"9781315825601,1315825600",,,,,,,,,,,0,,,,,,,,4879432,pdf,23032BC0E2200CDD2108A01CFAEAD295,,,F:\\!upload\\_books\\9781315825601-Advances in Personality Assessment.pdf,0,2000-01-01 01:00:00,2020-02-26 03:00:07,23032bc0e2200cdd2108a01cfaead295-g.jpg,Personality assessment.,
32033371,Advances in Personality Assessment : Volume 4,,Advances in Personality Assessment Series,,"Spielberger, Charles D.; Butcher, J. N",2013,,Taylor and Francis,Hoboken,285,293,English,,,,"9781317838432,1317838432,9781315825625",,,,,,,,,,,0,,,,,,,,6090256,pdf,3BAAC2C46639C28432C17FD887CB2E65,,,F:\\!upload\\_books\\9781315825625-Advances in Personality Assessment.pdf,0,2000-01-01 01:00:00,2020-02-26 03:00:08,3baac2c46639c28432c17fd887cb2e65-g.jpg,Personality assessment.,
32033372,Advances in Personality Assessment : Volume 2,,Advances in Personality Assessment Series,,"Spielberger, Charles D.; Butcher, J. N",2013,,Taylor and Francis,Hoboken,209,215,English,,,,"9781317838524,1317838521,9781315825656",,,,,,,,,,,0,,,,,,,,4718005,pdf,4C72BD16C9F3231991F1B8D8EEBB4D40,,,F:\\!upload\\_books\\9781315825656-Advances in Personality Assessment.pdf,0,2000-01-01 01:00:00,2020-02-26 03:00:08,4c72bd16c9f3231991f1b8d8eebb4d40-g.jpg,Personality assessment.,
32033373,Mass psychogenic illness : a social psychological analysis,,Environment and health,,"Colligan, Michael; Murphy, Lawrence R.; Pennebaker, James W",1982,,Routledge,New York,270,289,English,,,,"9781315825694,1315825694,9781317838623,1317838629,9781317838630,1317838637,9781317838647,1317838645,0898591600",,,,,,,,,,,0,,,,,,,,6652640,pdf,F90710CEEAB0B6852D5B446EED6F9A1C,,,F:\\!upload\\_books\\9781315825694-Mass Psychogenic Illness.pdf,0,2000-01-01 01:00:00,2020-02-26 03:00:08,f90710ceeab0b6852d5b446eed6f9a1c-d.jpg,Hysteria -- Psychosomatic aspects.;Hysteria (Social psychology);Industrial psychiatry.,
32033374,Михаил Зощенко: pro et contra,,Русский путь,,Сухих И.Н. (ред),2015,2,РХГА,,1088,1090,Russian,,,,9785888126479,,,,,,,,,,,600,,,0,1,1,1,1,17252591,djvu,BD68A0B05187B6A8BCEC3CD9B883A61B,,,Сухих И.Н. - Мих. Зощенко pro et contra (Русский путь) - 2015.djvu,0,2000-01-01 01:00:00,2020-02-26 03:00:08,bd68a0b05187b6a8bcec3cd9b883a61b-g.jpg,,
32033375,"Black Magick of Ahriman The Ancient Rites, Spells  Demons of Persia",,,,Kurtis Joseph,,,,,,78,English,,,,,,,,,,,,,,,0,,,,,,1,1,3196782,pdf,698F13C0CD9F44CF1F31418BE57E17E8,,,"Black Magick of Ahriman The Ancient Rites, Spells  Demons of Persia by Kurtis Joseph (z-lib.org).pdf",0,2000-01-01 01:00:00,2020-02-26 03:00:08,698f13c0cd9f44cf1f31418be57e17e8-g.jpg,,
32033376,"What Do I Do?: How to Care for, Comfort, and Commune With Your Nursing Home Elder",,,,"Jesse Karr, Katherine Karr",2013,2,Routledge,,130,143,English,,,,"9781315826288,1315826283,9781317840398,1317840399,9781317840404,1317840402,9781317840411,1317840410,9780866563987",,,,,,,,,,,0,,,,,,,,1503027,pdf,88E642AE16269C45F10C2BFE82118909,,,F:\\!upload\\_books\\9781315826288-What Do I Do_.pdf,0,2000-01-01 01:00:00,2020-02-26 03:00:08,88e642ae16269c45f10c2bfe82118909-d.jpg,Geriatric nursing.;Older people -- Care.,
32033377,Mental health in our future cities,,Maudsley monographs no. 42,,"Goldberg, David P.; Thornicroft, Graham",1998,,Psychology Press,,290,303,English,,,,"9781317840886,1317840887,9781315826448,9780863775468",,,,,,,,,,,0,,,,,,,,6006035,pdf,FC12A2DEC6416C6FB3436B13D102EEA1,,,F:\\!upload\\_books\\9781315826448-Mental Health In Our Future Cities.pdf,0,2000-01-01 01:00:00,2020-02-26 03:00:08,fc12a2dec6416c6fb3436b13d102eea1-d.jpg,Community mental health services.;Cities and towns.;Mental Health.;POLITICAL SCIENCE -- Public Policy -- Social Security.;POLITICAL SCIENCE -- Public Policy -- Social Services & Welfare.;Großstadt;Psychiatrische Versorgung;Internationaler Vergleich;Aufsatzsammlung;Geestelijke gezondheid.;Steden.;Großstadt.;Psychiatrische Versorgung.;Internationaler Vergleich.;Aufsatzsammlung.,
32033378,Culture and Common Mental Disorders in Sub-Saharan Africa,,Maudsley Monographs 41,,Vikram Patel,1998,,Psychology Press,,128,145,English,,,,"9781134837342,1134837348,9781317840916,1317840917,9781315826455",,,,,,,,,,,0,,,,,,,,2982856,pdf,17C4BBAB8EF240FB7D9DF278DD115B90,,,F:\\!upload\\_books\\9781315826455-Culture And Common Mental Disorders In Sub-Saharan Africa.pdf,0,2000-01-01 01:00:00,2020-02-26 03:00:08,17c4bbab8ef240fb7d9df278dd115b90-g.jpg,"Mental illness -- Social aspects -- Africa, Sub-Saharan.;Mental health -- Social aspects -- Africa, Sub-Saharan.;Psychiatry -- Social aspects -- Africa, Sub-Saharan.;MEDICAL -- Mental Health.;PSYCHOLOGY -- Mental Health.;PSYCHOLOGY -- Mental Illness.;Mental health -- Social aspects.;Mental illness -- Social aspects.;Psychiatry -- Social aspects.;Sub-Saharan Africa.;Psychotherapie;Subsaharisches Afrika;Mental Disorders -- ethnology.;Cross-Cultural Comparison.;Africa South of the Sahara.",
32033379,Examination Review for Ultrasound: SPI: Sonographic Principles & Instrumentation,,,,Penny,2018,2,Lippincott Williams and Wilkins,,232,270,English,,,,"149637732X,9781496377326",,,,,,,,,,,0,,,,,,1,1,106125618,pdf,ADD1E128A6EE56E016DE59AD11E950F0,,,Penny -  Examination review for Ultrasound. Sonographic principles and instrumentation_2ed_2018.pdf,0,2000-01-01 01:00:00,2020-02-26 03:00:08,add1e128a6ee56e016de59ad11e950f0-g.jpg,Ultrasound,
32033380,Yearbook of Astronomy 2019,,,,Brian Jones,2019,,White Owl,,,330,English,,,,"1526737035,9781526737038",,,,,,,,,,,0,,,,,,1,1,74536852,pdf,E49A47D78C6EF3746F27F1CBDEB27D58,,,Yearbook of Astronomy 2019.pdf,0,2000-01-01 01:00:00,2020-02-26 03:00:08,e49a47d78c6ef3746f27f1cbdeb27d58-g.jpg,,
32033381,Grammatik Aktiv A1-B1,,,,,,,Cornelsen,,255,255,German,,,,9783060239726,,,,,,,,,,,0,,,,,,1,0,84513697,pdf,32C5146027E6A88FD31F7A0889294362,,,Grammatik_aktiv_A1-B1.pdf,0,2000-01-01 01:00:00,2020-02-26 03:00:08,32c5146027e6a88fd31f7a0889294362-g.jpg,,
32033382,"Adolescents and their families : structure, function, and parent-youth relationships",,Adolescence (New York N.Y.) 4,,"Castellino, Domini Rose; Lerner, Richard M",2013,,Routledge,"London, New York, United States",375,393,English,,,,"9780815332930,0815332939,9781315827063,1315827069,9781317842736,1317842731,9781317842743,131784274X,9781317842750,1317842758",,,,,,,,,,,0,,,,,,,,10779400,pdf,5D356B50FFA5C510A666E63414EB1B04,,,F:\\!upload\\_books\\9781315827063-Adolescents and Their Families.pdf,0,2000-01-01 01:00:00,2020-02-26 03:00:08,5d356b50ffa5c510a666e63414eb1b04-d.jpg,Teenagers -- Family relationships -- United States.;Teenagers -- United States -- Social conditions.;Parent and teenager -- United States.;Minority teenagers -- United States.;Adolescence -- United States.;Adolescence.;Minority teenagers.;Parent and teenager.;Teenagers -- Family relationships.;Teenagers -- Social conditions.;United States.,
32033383,Echocardiography Review Guide: Companion to the Textbook of Clinical Echocardiography,,,,Catherine M. Otto; Rebecca G Schwaegler; Rosario V Freeman,2015,,Elsevier,3,432,136,English,,,,"0323227589,9780323227582",,,,,,,,,,,0,,,,,,1,1,98107590,pdf,43B47D6C7EBD0E47B59A021F0A46E8D9,,,Hofer - Ultrasound Teaching Manual The Basics of Performing and Interpreting Ultrasound Scans_3ed_2013.pdf,0,2000-01-01 01:00:00,2020-02-26 03:00:08,43b47d6c7ebd0e47b59a021f0a46e8d9-g.jpg,Ultrasound,
32033384,Echocardiography Review Guide: Companion to the Textbook of Clinical Echocardiography,,,,"Catherine M. Otto MD, Rebecca Gibbons Schwaegler BS  RDCS, Rosario V. Freeman MD  MS",2015,3,Elsevier,,432,435,English,,,,"0323227589,9780323227582",,,,,,,,,,,0,,,,,,1,1,43318740,pdf,5DC634B87B6CBC3915272E125E168897,,,Otto - Echocardiography Review Guide Companion to the Textbook of Clinical Echocardiography 5E c2016.pdf,0,2000-01-01 01:00:00,2020-02-26 03:00:08,5dc634b87b6cbc3915272e125e168897-g.jpg,,
32033385,Was kommt nach dem Klimawandel? (Telepolis),,,,Jörg Phil Friedrich,,,Heise Medien,,,0,German,189,,,9783957881793,,,,,,,,,,,0,,,,,,,,810746,epub,4275E16B9F8BB108288EC33CF072293E,,,Jörg Phil Friedrich - Was kommt nach dem Klimawandel - Eine Spekulation.epub,0,2000-01-01 01:00:00,2020-02-26 03:00:08,4275e16b9f8bb108288ec33cf072293e-g.jpg,,
32033386,What if there were no significance tests?,,Multivariate applications book series,,"Mulaik, Stanley A.; Harlow, Lisa Lavoie; Steiger, James H",1997,,Lawrence Erlbaum Associates Publishers,,446,467,English,,,,"9781315827353,1315827352,9781317843610,1317843614,0805826343",,,,,,,,,,,0,,,,,,,,12193627,pdf,80E90F6ED65CBF1F741BAE94B72F13EA,,,F:\\!upload\\_books\\9781315827353-What If There Were No Significance Tests_.pdf,0,2000-01-01 01:00:00,2020-02-26 03:00:08,80e90f6ed65cbf1f741bae94b72f13ea-d.jpg,Statistical hypothesis testing.;Tests d'hypothèses (Statistique);MATHEMATICS -- Applied.;MATHEMATICS -- Probability & Statistics -- General.;Hypothesetoetsing.;Statistische toetsen.;Statistique mathématique.;Tests d'hypothèses (statistique),
32033387,Томас Стернз Элиот: Метафора в ранней поэзии,,,,Бент М.М.,2014,,Сергея Ходова,,,466,Russian,,,,"9785912742248,9785984560429",,,,,,,,,,,600,,,0,1,1,1,1,35332761,djvu,6264542DF2A997EE2DD193A03FA82F91,,,Бент Мария - Томас Стернз Элиот Метафора в ранней поэзии - 2014.djvu,0,2000-01-01 01:00:00,2020-02-26 03:00:08,6264542df2a997ee2dd193a03fa82f91-g.jpg,,
32033388,Was kommt nach dem Klimawandel? (Telepolis),,,,Jörg Phil Friedrich,2019,,Heise Medien,,,71,German,189,,,9783957881793,,,,,,,,,,,0,,,,,,1,1,1167116,pdf,92FD31C0E811FEA48604483A37EE9383,,,Jörg Phil Friedrich - Was kommt nach dem Klimawandel - Eine Spekulation.pdf,0,2000-01-01 01:00:00,2020-02-26 03:00:08,92fd31c0e811fea48604483a37ee9383-g.jpg,,
32033389,Introduzione all'orientalistica antica,,,,Wolfram von Soden,1989,,Paideia,,283,283,Italian,,,,,,,,,,,,,,,0,,,,,,,0,7838365,pdf,F92433B9CDA93A5BFC9A4E5B44F54159,,,von Soden - Introduzione all'orientalistica antica.pdf,0,2000-01-01 01:00:00,2020-02-26 03:00:08,f92433b9cda93a5bfc9a4e5b44f54159-g.jpg,,
32033390,Introduzione all'orientalistica antica,,,,Wolfram von Soden,1989,,Paideia,,283,283,Italian,,,,,,,,,,,,,,,0,,,,,,,1,9137370,pdf,43A05BB22CFEFC53324FFCE6C5FDBCEB,,,von Soden - Introduzione all'orientalistica antica OCR.pdf,0,2000-01-01 01:00:00,2020-02-26 03:00:08,43a05bb22cfefc53324ffce6c5fdbceb-g.jpg,,
32033391,Daily Life of U.S. Soldiers: From the American Revolution to the Iraq War,3 vols.,,,Chrisopher R. Mortenson; Paul J. Springer,2019,,Greenwood,,1139,1159,English,,,,"144086358X,9781440863585",,,,,,,,,,,0,,,,,,1,1,233895097,pdf,860AD322A5E804655199CC56ED68E6E7,,,Daily Life of U.S. Soldiers From the American Revolution to the Iraq War [3 Volumes].pdf,0,2000-01-01 01:00:00,2020-02-26 03:00:08,860ad322a5e804655199cc56ed68e6e7-g.jpg,,
32033392,Advanced structural equation modeling : issues and techniques,,,,"Marcoulides, George A.; Schumacker, Randall E",1996,,Psychology Press,,,375,English,,,,"9780805818192,0805818197,9781315827414,1315827417",,,,,,,,,,,0,,,,,,,,10296995,pdf,7A52E8B532000348C6DCAF84524BD9C5,,,F:\\!upload\\_books\\9781315827414-Advanced Structural Equation Modeling.pdf,0,2000-01-01 01:00:00,2020-02-26 03:00:08,7a52e8b532000348c6dcaf84524bd9c5-d.jpg,Structural equation modeling.;Social sciences -- Statistical methods.,
32033393,The Culture of Flowers,,,,Jack Goody,1993,first,Cambridge University,,449,492,English,,,,"0521424844,9780521424844",,,,,,,,,,,0,,,,,,,1,34903152,pdf,BBD8E7ADEDF67AA1EB61261EE9B4C6B4,,,"The culture of flowers - Goody, Jack.pdf",0,2000-01-01 01:00:00,2020-02-26 03:00:08,bbd8e7adedf67aa1eb61261ee9b4c6b4-g.jpg,,
32033394,Quality of life in behavioral medicine research,,Perspectives in behavioral medicine,,"Baum, Andrew; Dimsdale, Joel E",1995,,Psychology Press,,307,308,English,,,,"9781315827438,1315827433,0805816534",,,,,,,,,,,0,,,,,,,,6064982,pdf,319FE243E2BA0035B546B1D2AD93F942,,,F:\\!upload\\_books\\9781315827438-Quality of Life in Behavioral Medicine Research.pdf,0,2000-01-01 01:00:00,2020-02-26 03:00:08,319fe243e2ba0035b546b1d2ad93f942-d.jpg,Medicine and psychology -- Congresses.;Quality of life -- Congresses.;Medicine and psychology.;Quality of life.,
32033395,"Геймдизайн: Как создать игру, в которую будут играть все",,,,Джесси Шелл,2019,,Альпина Паблишер,,,0,Russian,,,,9785961425123,,,,,,,,,,,0,,,,,,,,8957667,epub,5E690490DDCF67A591850BC48C78A515,,,"Джесси Шелл — Геймдизайн. Как создать игру, в которую будут играть все.epub",0,2000-01-01 01:00:00,2020-02-26 03:00:08,5e690490ddcf67a591850bc48c78a515-g.jpg,,
32033396,"Геймдизайн. Как создать игру, в которую будут играть все",,,,Шелл Джесси,2019,,Альпина Паблишер,,,550,Russian,,,,9785961412093,,,,,,,,,,,0,,,,,,1,1,4888216,pdf,AE343E35AEF788054CE5E5722CE43C45,,,"Джесси Шелл — Геймдизайн. Как создать игру, в которую будут играть все (A4).pdf",0,2000-01-01 01:00:00,2020-02-26 03:00:09,ae343e35aef788054ce5e5722ce43c45-g.jpg,,
32033397,"Странная девочка, которая влюбилась в мозг: Как знание нейробиологии помогает стать привлекательнее, счастливее и лучше",,,,"Венди Сузуки, Билли Фицпатрик",2012,,,,,0,Russian,,,,"9785961471021,9785961453744,9785961463026",,,,,,,,,,,0,,,,,,,,1270590,epub,AC3A03DCCCD92378D7456BA0EC4BDA2F,,,"Венди Сузуки,Билли Фицпатрик-Странная девочка, которая влюбилась в мозг.Как знание нейробиологии помогает стать привлекательнее,счастливее и лучше-2016.epub",0,2000-01-01 01:00:00,2020-02-26 03:00:09,ac3a03dcccd92378d7456ba0ec4bda2f-g.jpg,,
32033398,Stepfamilies : who benefits? who does not?,,Penn State University family issues symposia series,,"Booth, Alan; Dunn, Judy",2013,,Routledge,"Pennsylvania State University),, United States",244,244,English,,,,"9781306580687,1306580684,9781315827469,1315827468",,,,,,,,,,,0,,,,,,,,5035471,pdf,D100CCEEC81F3D79EBE794823BDE15F1,,,F:\\!upload\\_books\\9781315827469-Stepfamilies.pdf,0,2000-01-01 01:00:00,2020-02-26 03:00:09,d100cceec81f3d79ebe794823bde15f1-g.jpg,Stepfamilies -- United States -- Congresses.;Stepfamilies.;United States.,
32033399,Advances in Personality Assessment : Volume 9,,Advances in Personality Assessment Series,,"Spielberger, Charles D.; Butcher, James N",2013,,Taylor and Francis,Hoboken,230,233,English,,,,"9781317844013,1317844017,9781315827483,0805812261",,,,,,,,,,,0,,,,,,,,5194090,pdf,D91AD7A4244276FC1EB761F01E65F8B3,,,F:\\!upload\\_books\\9781315827483-Advances in Personality Assessment.pdf,0,2000-01-01 01:00:00,2020-02-26 03:00:09,d91ad7a4244276fc1eb761f01e65f8b3-g.jpg,Personality assessment.,
32033400,A first course in factor analysis,,,,"Comrey, Andrew L.; Lee, Howard Bing",1992,Second edition,L. Erlbaum Associates,,443,452,English,,,,"9781315827506,1315827506,0805810625",,,,,,,,,,,0,,,,,,,,8830102,pdf,BFB8128474F70932AA8F4EEFE4CFB22B,,,F:\\!upload\\_books\\9781315827506-First Course in Factor Analysis 2e.pdf,0,2000-01-01 01:00:00,2020-02-26 03:00:09,bfb8128474f70932aa8f4eefe4cfb22b-d.jpg,Factor analysis.,
32033401,Nonexistent Objects,,,,Terence Parsons,1980,,Yale University Press,New Haven,"xiii, 258 p. ;",271,English,,,,0300024045,,,,,111-dc,,,,,,600,0,1,0,1,1,0,1,14588092,pdf,58D73B6D1571D95A4247EC9AB5FEA250,,,Terence Parsons (1980) - Nonexistent Objects [YUP] 0300024045.pdf,0,2000-01-01 01:00:00,2020-02-26 03:00:09,58d73b6d1571d95a4247ec9ab5fea250-g.jpg,,
32033402,Posthuman Biopolitics: The Science Fiction Of Joan Slonczewski,,Palgrave Studies In Science And Popular Culture,,Bruce Clarke,2020,1,Palgrave Macmillan,,"XIII, 187",198,English,103,,,"3030364852,9783030364854,3030364860,9783030364861",,,,,,,,,,,0,,,,,,1,1,3238765,pdf,68F7E4E25E3ADEDC90D6550B98A500AD,,,10.1007@978-3-030-36486-1_1.pdf,0,2000-01-01 01:00:00,2020-02-26 03:00:09,68f7e4e25e3adedc90d6550b98a500ad-g.jpg,Contemporary Literature,
32033403,Explanatory style,,,,"Buchanan, Gregory McClellan; Seligman, Martin E. P",1995,,Routledge,,314,314,English,,,,"9781315831497,131583149X,9781317856023,1317856023,9781317856030,1317856031,9781317856047,131785604X,9781315827537,0805809244",,,,,,,,,,,0,,,,,,,,8393032,pdf,E0B2C66B65004F60A594F16FAA167207,,,F:\\!upload\\_books\\9781315827537-Explanatory Style.pdf,0,2000-01-01 01:00:00,2020-02-26 03:00:09,e0b2c66b65004f60a594f16faa167207-d.jpg,Communication -- Psychological aspects.;Explanation.,
32033404,Marked Tableaux,,,,Graham Hawkes,2019,,"University of California, Davis",Davis,,99,,114,,,,,,,,,,,,,Downloaded from https://web.archive.org/web/20190927012449/https://www.math.ucdavis.edu/~tdenena/dissertations/201903_Hawkes_Dissertation.pdf,0,,,,,,1,1,449068,pdf,9387EEE25B449E5FF01B05751FBE3FFE,,,hawkes - marked tableaux (thesis).pdf,0,2000-01-01 01:00:00,2020-02-26 03:00:09,9387eee25b449e5ff01b05751fbe3ffe-g.jpg,,
32033405,The Anglo-Saxons,,,,"James Campbell (ed.), Eric John, Patrick Wormald",1982,1,Cornell University Press,"Ithaca, New York",272,278,English,64,,,"0801414822,9780801414824",,,,,,,,,,,0,,,,1,1,0,1,85754970,pdf,4FD203A311C834B0A180FDE363AD90C3,,,Campbell.pdf,0,2000-01-01 01:00:00,2020-02-26 03:00:09,4fd203a311c834b0a180fde363ad90c3-g.jpg,,
32033406,"Contemplating corporate marketing, identity and communication",,,,"Balmer, John M. T.; Podnar, Klement",2010,,Routledge,,163,176,English,,,,"9781306215848,1306215846,9781315829715,1315829711,9781317850687,1317850688,9781317850694,1317850696,9781317850700,131785070X,9780415577434",,,,,,,,,,,0,,,,,,,,3387715,pdf,2BFDCE3E32F48E842751CCC76F5BD7A5,,,"F:\\!upload\\_books\\9781315829715-Contemplating Corporate Marketing, Identity and Communication.pdf",0,2000-01-01 01:00:00,2020-02-26 03:00:09,2bfdce3e32f48e842751ccc76f5bd7a5-d.jpg,Corporate culture -- Congresses.;Corporate image -- Congresses.;Communication in organizations -- Congresses.;Marketing -- Management -- Congresses.;Branding (Marketing) -- Congresses.;BUSINESS & ECONOMICS -- Industrial Management.;BUSINESS & ECONOMICS -- Management.;BUSINESS & ECONOMICS -- Management Science.;BUSINESS & ECONOMICS -- Organizational Behavior.;Branding (Marketing);Communication in organizations.;Corporate culture.;Corporate image.;Marketing -- Management.,
32033407,The practical application of medical and dental hypnosis,,,,"Erickson, Milton H.; Hershman, Seymour; Secter, Irving I.; Zeig, Jeffrey K",1990,,Brunner/Mazel,,481,481,English,,,,"9781315831305,1315831309,0876305702",,,,,,,,,,,0,,,,,,,,6986159,pdf,61FD43D3513EFF65F64182BAA3335049,,,F:\\!upload\\_books\\9781315831305-Practical Application of Medical and Dental Hypnosis.pdf,0,2000-01-01 01:00:00,2020-02-26 03:00:09,61fd43d3513eff65f64182baa3335049-d.jpg,Hypnotism -- Therapeutic use.;Hypnotism.,
32033408,Tutto non può essere. Educazione e verità,,,,Henri Atlan,1995,,hopefulmonster,,247,247,Italian,,,,,,,,,,,,,,,0,,,,,,1,1,9687098,pdf,51AF53AF26AA89FCAF30C911934AE61C,,,"Henri Atlan - Tutto non può essere (HOPEFULMONSTER, 1995).pdf",0,2000-01-01 01:00:00,2020-02-26 03:00:09,51af53af26aa89fcaf30c911934ae61c-g.jpg,,
32033409,"Mito, fede ed ermeneutica. Il triplice velo della realtà",,,,Raimon Panikkar,2000,,Jaca Book,,464,464,Italian,,,,,,,,,,,,,,,0,,,,,,1,1,11379218,pdf,E1425FCE87BB603D8CEF115DA1124C3F,,,"Raimon Panikkar - Mito, fede ed ermeneutica (JACA BOOK, 2000).pdf",0,2000-01-01 01:00:00,2020-02-26 03:00:09,e1425fce87bb603d8cef115da1124c3f-g.jpg,,
32033410,L'Italia dei barbari,,,,Claudio Azzara,2002,,Il Mulino,,156,156,Italian,,,,"8815088121,9788815088123",,,,,,,,,,,0,,,,,,,1,5485170,pdf,3CDA903EB7CA2DC4D18551C552672469,,,Azzara - L'Italia dei barbari.pdf,0,2000-01-01 01:00:00,2020-02-26 03:00:09,3cda903eb7ca2dc4d18551c552672469-g.jpg,,
32033411,L'Italia dei barbari,,,,Claudio Azzara,2002,,Il Mulino,,156,156,Italian,,,,"8815088121,9788815088123",,,,,,,,,,,0,,,,,,,1,3416933,pdf,45B5774F587BCDEF2F671719E633C325,,,Azzara - L'Italia dei barbari CS.pdf,0,2000-01-01 01:00:00,2020-02-26 03:00:09,45b5774f587bcdef2f671719e633c325-g.jpg,,
32033412,Teoderico. Storia e mito di un re barbaro,,,,Claudio Azzara,2013,,Il Mulino,,170,170,Italian,,,,,,,,,,,,,,,0,,,,,,,0,4581964,pdf,E4E841981857B5CB491035B1C8F7CBC0,,,Azzara - Teoderico.pdf,0,2000-01-01 01:00:00,2020-02-26 03:00:09,e4e841981857b5cb491035b1c8f7cbc0-g.jpg,,
32033413,Teoderico. Storia e mito di un re barbaro,,,,Claudio Azzara,2013,,Il Mulino,,170,170,Italian,,,,9788815244666,,,,,,,,,,,0,,,,,,,1,5945444,pdf,775D7EC07728F3576CE2946043CB0BFA,,,Azzara - Teoderico CS.pdf,0,2000-01-01 01:00:00,2020-02-26 03:00:09,775d7ec07728f3576ce2946043cb0bfa-g.jpg,,
32033414,Echocardiography: A Case-Based Review,,,,"Ph.D. Kane, Garvan C., M.D., M.D. Oh, Jae K.",2012,Har/Psc,Lippincott Williams & Wilkins,,346,365,English,,,,"145110961X,9781451109610",,,,,,,,,,,0,,,,,,1,1,20773818,pdf,7B9B501CC71BE33095EE0753D6842D27,,,Kane - Echocardiography - A Case-Based Review_2013.pdf,0,2000-01-01 01:00:00,2020-02-26 03:00:09,7b9b501cc71be33095ee0753d6842d27-g.jpg,Ultrasound,
32033415,"L'ideologia tedesca. Critica della più recente filosofia tedesca nei suoi rappresentanti Feuerbach, B. Bauer e Stirner e del socialismo tedesco nei suoi vari profeti",,,,"Karl Marx, Friedrich Engels",1975,,Editori Riuniti,,624,0,Italian,,,,,,,,,,,,,,,0,,,,,,,,1275618,epub,22A214CA537E4CCCD01B81A11E9C8E95,,,Marx_Karl__Engels_Friedrich_-_ideologia_tedesca_L.epub,0,2000-01-01 01:00:00,2020-02-26 03:00:09,22a214ca537e4cccd01b81a11e9c8e95-g.jpg,,
32033416,"The Complete Insulin Resistance Diet for PCOS: A No-Stress Meal Plan with Easy Recipes to Stop PCOS Symptoms, Repair Your Metabolism, and Lose Weight Naturally",,,,Maggie Glisson,2020,,,,123,0,English,,,,,,B084JHYXW9,,,,,,,,,0,,,,,,,,230529,epub,5D8089A9CBABAA716E8D620BC9CF0510,,,"The Complete Insulin Resistance Diet for PCOS_ A No-Stress Meal Plan with Easy Recipes to Stop PCOS Symptoms, Repair Your Metabolism, and Lose Weight Naturally.epub",0,2000-01-01 01:00:00,2020-02-26 03:00:09,5d8089a9cbabaa716e8d620bc9cf0510-g.jpg,Cookbook pcos diet,
32033417,'Viva' : women and popular protest in Latin America,,International studies of women and place,,"Radcliffe, Sarah A.; Westwood, Sallie",1995,,Routledge,"London, New York, Latin America",270,285,English,,,,"9781315832265,1315832267",,,,,,,,,,,0,,,,,,,,5817102,pdf,0661DEEBB43DBB41ADE737FC017D4CA7,,,F:\\!upload\\_books\\9781315832265-Viva.pdf,0,2000-01-01 01:00:00,2020-02-26 03:00:09,0661deebb43dbb41ade737fc017d4ca7-g.jpg,Women -- Political activity -- Latin America.;Women political activists -- Latin America.;Feminism -- Latin America.;Feminism.;Women political activists.;Women -- Political activity.;Latin America.,
32033418,Arrivano i barbari. Le guerre persiane tra poesia e memoria,,,,Lorenzo Braccesi,2020,,Editori Laterza,,153,0,Italian,,,,,,,,,,,,,,,0,,,,,,,,1352827,epub,BD134FAA30ABEA17ABB1C159CE49C0AF,,,Braccesi_Lorenzo_-_Arrivano_i_barbari._Le_guerre_persiane_tra_poesia_e_memoria.epub,0,2000-01-01 01:00:00,2020-02-26 03:00:09,bd134faa30abea17abb1c159ce49c0af-g.jpg,,
32033419,L'apocalittica giudaica (200 a.C. - 100 d.C.),,,,David Syme Russell,1991,,Paideia,,547,547,Italian,,,,,,,,,,,,,,,0,,,,,,1,0,28958095,pdf,5616FCD70A5A353C694CD2D698CFCF11,,,Russell-Apocalittica-giudaica.pdf,0,2000-01-01 01:00:00,2020-02-26 03:00:09,5616fcd70a5a353c694cd2d698cfcf11-g.jpg,,
32033420,Introduzione alla Cinematica Dei Meccanismi 2,2,,,"Ettore Pennestri' , Augusto di Benedetto",1993,,Casa Editrice Ambrosiana,,309,160,Italiano,271,,,,,,,,,,,,,,0,,,,,,,0,112695505,pdf,55BC52DF275D0718610E1B56DC6C2EEC,,,Introduzione alla cinematica dei meccanismi 2.pdf,0,2000-01-01 01:00:00,2020-02-26 03:00:09,55bc52df275d0718610e1b56dc6c2eec-g.jpg,,
32033421,La Sacra Bibbia. Antico Testamento. Interlineare letterale. Ebraico-Italiano. Isaia - Malachia,Vol. 4,,,Armando Vianello,2008,,Il Buon Samaritano 2,,722,722,Italian,,,,,,,,,,,,,,,0,,,,,,,0,165306653,pdf,F128048A1D5404E44CD21F1AE9EEAE16,,,4 VOL. BIB. VIANELLO.pdf,0,2000-01-01 01:00:00,2020-02-26 03:00:09,f128048a1d5404e44cd21f1ae9eeae16-g.jpg,,
32033422,A verdadeira história da ficção científica,,,,Adam Roberts,2018,1ª,Editora Seoman,São Paulo/SP,1837,0,Portuguese,102,,,9788555030680,,B07FMGH2QJ,,,,,,,,Título original: The History of Science Fiction,0,,,,,,,,3305622,epub,C5AAD94C73B2964D885D9D9038E23F05,,,A verdadeira historia da ficcao - Adam Roberts.epub,0,2000-01-01 01:00:00,2020-02-26 03:00:09,c5aad94c73b2964d885d9d9038e23f05-g.jpg,1. Ficção científica – História e crítica 2. Literatura – História e crítica,
32033423,A Practical Guide to Fetal Echocardiography: Normal and Abnormal Hearts,,,,"M.D. Abuhamad, Alfred, M.D. Chaoui, Rabih",2009,2,Lippincott Williams & Wilkins,,379,685,English,,,,"0781797578,9780781797573",,,,,,,,,,,0,,,,,,1,1,14797432,pdf,F2464683447D0551DCDBE76D0CDE14FD,,,"Abuhamad - A Practical Guide to Fetal Echocardiography - Normal & Abnormal Hearts, 2nd ed_2010.pdf",0,2000-01-01 01:00:00,2020-02-26 03:00:09,f2464683447d0551dcdbe76d0cde14fd-g.jpg,,
32033424,La Sacra Bibbia. Nuovo Testamento. Traduzione letterale interlineare. Greco - Italiano. Matteo - Apocalisse,Vol. 5,,,Armando Vianello,2008,,Il Buon Samaritano 2,,657,657,Italian,,,,,,,,,,,,,,,0,,,,,,,0,192293273,pdf,64362D8E0B6D5C5ECDE1185ABA880186,,,5 VOL. BIB. VIANELLO.pdf,0,2000-01-01 01:00:00,2020-02-26 03:00:09,64362d8e0b6d5c5ecde1185aba880186-g.jpg,,
32033425,Principles of Echocardiography and Intracardiac Echocardiography: Expert Consult - Online and Print,,Principles of Cardiovascular Imaging,,Stuart J. Hutchison,2012,1,W B Saunders Co Ltd,,544,541,English,,,,9781437704037,,,,,,,,,,,0,,,,,,1,1,56947858,pdf,034F62ACA83088065BFA32AF5737EBBC,,,Hutchison - Principles of Echocardiography and Intracardiac Ecocardiography_2012.pdf,0,2000-01-01 01:00:00,2020-02-26 03:00:09,034f62aca83088065bfa32af5737ebbc-g.jpg,,
32033426,Echocardiography in Congenital Heart Disease,,Practical Echocardiography,,"Mark B. Lewin, Karen K Stout MD",2012,1,Saunders,,264,239,English,,,,"1437726968,9781437726961",,,,,,,,,,,0,,,,,,1,1,39487040,pdf,1CDCB33FBD09639C89AD6F7E526107E6,,,Lewin - Echocardiography in Congenital Heart Disease_2012.pdf,0,2000-01-01 01:00:00,2020-02-26 03:00:09,1cdcb33fbd09639c89ad6f7e526107e6-g.jpg,,
32033427,Appunti di Meccanica Applicata alle Macchine,,,,,,,,,,370,Italian,271,,,,,,,,,,,,,,0,,,,,,,0,68005216,pdf,CA7441A53F09F33C298F5289B1DED35C,,,Appunti di meccanica applicata alle macchine.pdf,0,2000-01-01 01:00:00,2020-02-26 03:00:09,ca7441a53f09f33c298f5289b1ded35c-g.jpg,,
32033428,Diario di un imboscato,,,,Attilio Frescura,1919,,Galla Editore,,,536,Italian,,,,,,,,,,,,,,,0,,,,,,,1,10745493,pdf,0B64D814D2A0701214DBDE54674E6782,,,"Attilio Frescura - Diario di un imboscato (1919, Galla Editore).pdf",0,2000-01-01 01:00:00,2020-02-26 03:00:09,0b64d814d2a0701214dbde54674e6782-g.jpg,,
32033429,The Echo Manual,,,,Jae K. Oh,2012,3,LWW,,496,892,English,,,,"1451156847,9781451156843",,,,,,,,,,,0,,,,,,1,1,19929344,pdf,A35CD803A5455A54E0705EB32757D029,,,"Oh - The Echo Manual, 3rd ed_2007.pdf",0,2000-01-01 01:00:00,2020-02-26 03:00:09,a35cd803a5455a54e0705eb32757d029-g.jpg,Ultrasound,
32033430,La Sacra Bibbia. Concordanza analitica del Nuovo Testamento,Vol. 6,,,Armando Vianello,2008,,Il Buon Samaritano 2,,666,666,Italian,,,,,,,,,,,,,,,0,,,,,,,0,216616256,pdf,F4D8C215997C231D70A22A2AF0DD1A25,,,6 VOL. BIB. VIANELLO.pdf,0,2000-01-01 01:00:00,2020-02-26 03:00:09,f4d8c215997c231d70a22a2af0dd1a25-g.jpg,,
32033431,Engineering Mechanics: Statics in SI Units,,,,Russell C. Hibbeler,2016,14,Pearson Higher Ed,,720,716,English,220,,,"1292089296,9781292089294",,,,,,,,QU8vDAAAQBAJ,,,0,1,,,,,1,1,191146939,pdf,12D4CDCAF59F3A98BD95DA6A4D0A83A6,,,99774.pdf,0,2000-01-01 01:00:00,2020-02-26 03:00:09,12d4cdcaf59f3a98bd95da6a4d0a83a6-g.jpg,,
32033432,Do The Work You Love: How to Create an Income without Working a Boring Job,,,,Joe Barnes,2020,,Watkins Publishing,,256,0,English,,,,"1786783142,9781786783141",,,,,,,,,,,0,,,,,,,,1107904,epub,4B282CF9AC0AC468C799B8BEF283176F,,,1786783142.epub,0,2000-01-01 01:00:00,2020-02-26 03:00:09,4b282cf9ac0ac468c799b8bef283176f-g.jpg,,
32033433,Dinamica Tecnica e Computazionale,1,,,Ettore Pennestri',2001,,Casa Editrice Ambrosiana,,517,268,Italian,271,,,,,,,,,,,,,,0,,,,,,,0,111083996,pdf,FCD91DC37E6A3F17ADC5EC36DC671B1F,,,Dinamica Tecnica e Computazionale.pdf,0,2000-01-01 01:00:00,2020-02-26 03:00:10,fcd91dc37e6a3f17adc5ec36dc671b1f-g.jpg,,
32033434,Disegno Tecnico Industriale 1,1,,,"Emilio Chirone , Stefano Tornincasa",1996,,Edizioni il Capitello,,335,336,Italian,271,,,,,,,,,,,,,,0,,,,,,,1,28249351,pdf,E58A4D3CE6ED8319F23E4EB7A02A67E9,,,Disegno tecnico industriale Vol1(Chirone).pdf,0,2000-01-01 01:00:00,2020-02-26 03:00:10,e58a4d3ce6ed8319f23e4eb7a02a67e9-g.jpg,,
32033435,The Medusa Effect - Representation and Epistemology in Victorian Aesthetics,,,,Thomas Albrecht,2009,1,SUNY Press,New York,166,179,English,,,,9781438428673,,,,,,,,,,,0,,,,,,,0,2828325,pdf,41C2447D5511B1C84327165F4A1EE10E,,,"ALBRECHT, T. (2009) The Medusa Effect.pdf",0,2000-01-01 01:00:00,2020-02-26 03:00:10,41c2447d5511b1c84327165f4a1ee10e-g.jpg,,
32033436,Zadania i problemy z Fizyki,,,,"A. Hennel, W. Krzyżanowski, W. Szuszkiewicz, K. Wódkiewicz",1999,5,PWN,,,253,Polish,,,,,,,,,,,,,,,0,,,,,1,,0,12566669,pdf,C3B1542320C6D8E6DE4B9FD08C04059F,,,"Zadania i problemy z Fizyki (1999, PWN, Wydanie 5)  - A. Hennel, W. Krzyżanowski, W. Szuszkiewicz, K. Wódkiewicz.pdf",0,2000-01-01 01:00:00,2020-02-26 03:00:10,c3b1542320c6d8e6de4b9fd08c04059f-g.jpg,,
32033437,Disegno Tecnico Industriale 2,2,,,"Emilio Chirone , Stefano Tornincasa",,,Edizioni il Capitello,,690,362,Italian,271,,,,,,,,,,,,,,0,,,,,,,0,67095964,pdf,49A608C646A491C592B6B2DB3C5868D4,,,Disegno tecnico industriale Vol2(Chirone).pdf,0,2000-01-01 01:00:00,2020-02-26 03:00:10,49a608c646a491c592b6b2db3c5868d4-g.jpg,,
32033438,The Meddling Gods - Four Essays on Classical Themes,,,,Hazel E. Barnes,1974,1,University of Nebraska,,141,160,English,,,,0803208383,,,,,,,,,,,0,,,,,,,1,5556278,pdf,71202F0E79630E331D7D743AAB6F8D74,,,"BARNES, H. E. () The meddling gods.pdf",0,2000-01-01 01:00:00,2020-02-26 03:00:10,71202f0e79630e331d7d743aab6f8d74-g.jpg,,
32033439,Fifty Years (And Twelve) of Classical Scholarship,,,,M. Platnauer,1968,2,Basil Blackwell,Oxford,523,562,English,,,,,,,,,,,,,,,0,,,,,,,1,23290835,pdf,2A25DE8764E557DFD2D5565A1AA31EBC,,,"PLATNAUER, M. (1968) Fifty years (and twelve) of classical scholarship.pdf",0,2000-01-01 01:00:00,2020-02-26 03:00:10,2a25de8764e557dfd2d5565a1aa31ebc-g.jpg,,
32033440,Обозрение пророческих книг Ветхого Завета,,,,Хергозерский,1899,,,Санкт-Петербург,,302,Русский,,,,,,,,,,,,,,,0,,,,,,,1,2573732,pdf,CBFA6636DD61294E58FC8A6361FDAB89,,,Хергозерский - Обозрение пророческих книг Ветхого Завета.pdf,0,2000-01-01 01:00:00,2020-02-26 03:00:10,cbfa6636dd61294e58fc8a6361fdab89-g.jpg,,
32033441,Ophthalmic Ultrasonography: Expert Consult - Online and Print,,,,"Arun D. Singh, Brandy H. Lorek ROUB  CDOS",2011,1,W B Saunders Co Ltd,,272,213,English,,,,"1437726364,9781437726367",,,,,,,,,,,0,,,,,,1,1,63491897,pdf,D462B897D383469E86786E0118974AB3,,,Singh - Ophthalmic Ultrasonography_2012.pdf,0,2000-01-01 01:00:00,2020-02-26 03:00:10,d462b897d383469e86786e0118974ab3-g.jpg,,
32033442,Traitors in American History: Lessons of the Moscow Trials,,,,Earl Browder,1938,,Workers Library Publishers,New York City,,0,English,,,,,,,,,,,,,,,0,,,,,,,,1106196,epub,CF68B458531471974474D209523ECE74,,,"Browder, Earl 1938 Traitors in American History - Lessons of the Moscow Trials.epub",0,2000-01-01 01:00:00,2020-02-26 03:00:10,cf68b458531471974474d209523ece74-g.jpg,,
32033443,Cognitive foundations of clinical psychology,,Psychology revivals,,"Brewin, Chris",2014,,Psychology Press,,229,229,English,,,,"9781315857015,1315857014,9781317932437,1317932439,9781317932444,1317932447,9781317932451,1317932455,9781848722880,1848722885,9781848722897,1848722893,0863770991,0863770983",,,,,,,,,,,0,,,,,,,,4149589,pdf,5BC3D7B2352A44F5627D54AAD7D317B2,,,F:\\!upload\\_books\\9781315857015-Cognitive Foundations of Clinical Psychology (Psychology Revivals).pdf,0,2000-01-01 01:00:00,2020-02-26 03:00:10,5bc3d7b2352a44f5627d54aad7d317b2-d.jpg,Behavior therapy.;Cognitive psychology.;HEALTH & FITNESS -- Diseases -- General.;MEDICAL -- Clinical Medicine.;MEDICAL -- Diseases.;MEDICAL -- Evidence-Based Medicine.;MEDICAL -- Internal Medicine.,
32033444,Pronounce it Perfectly in Russian,,,,Thomas R. Beyer,,,Barron's,,,148,English,,,,0812080165,,,,,,,,,,,0,,,,,,,0,40244692,pdf,F8D36B4788A55E47C4705696A10E4B11,,,pronounce.pdf,0,2000-01-01 01:00:00,2020-02-26 03:00:10,f8d36b4788a55e47c4705696a10e4b11-g.jpg,,
32033445,History of Russia from Earliest Times Volume 46: The Rule of Catherine the Great: Turkey and Ooland 1768-1770,46,History of Russia from Earliest Times,,Sergei Soloviev,,,Academic International Press,,,270,English,64,,,,,,,,,,,,,,0,,,,,,,0,42785136,pdf,29631F7CD3907D21C454FDB230A3F8FF,,,Soloviev Vol 46.pdf,0,2000-01-01 01:00:00,2020-02-26 03:00:10,29631f7cd3907d21c454fdb230a3f8ff-g.jpg,,
32033446,Fondamenti di Meccanica Applicata alle Macchine,,,,"Nicola Pio Belfiore , Augusto di Benedetto ,  Ettore Pennestri'",,Seconda Edizione,Casa Editrice Ambrosiana,,,821,Italian,271,,,,,,,,,,,,,,0,,,,,,,0,178948076,pdf,09A0F6A43A3188C78659E01D11A5D8D4,,,Fondamenti di Meccanica Applicata alle Macchine .pdf,0,2000-01-01 01:00:00,2020-02-26 03:00:10,09a0f6a43a3188c78659e01d11a5d8d4-g.jpg,,
32033447,Social work with groups : expanding horizons,,,,"Wenocur, Stanley",2013,,Haworth Press : Routledge,United States,230,230,English,,,,"9781315859569,1315859564,1560242965",,,,,,,,,,,0,,,,,,,,4330128,pdf,64AC8EB976F06665D7F38D9BC9DF00C9,,,F:\\!upload\\_books\\9781315859569-Social Work With Groups.pdf,0,2000-01-01 01:00:00,2020-02-26 03:00:10,64ac8eb976f06665d7f38d9bc9df00c9-d.jpg,Social group work -- United States -- Congresses.;Social group work.;United States.,
32033448,"The gendered new world order : militarism, development, and the environment",,,,"Lorentzen, Lois Ann; Turpin, Jennifer E",1996,,Routledge,,247,258,English,,,,"9781315865829,1315865823,9781317958840,1317958845,9781317958857,1317958853,9781317958864,1317958861",,,,,,,,,,,0,,,,,,,,7298732,pdf,1982E94D1B48AF6FEC056D5885A02008,,,F:\\!upload\\_books\\9781315865829-Gendered New World Order.pdf,0,2000-01-01 01:00:00,2020-02-26 03:00:10,1982e94d1b48af6fec056d5885a02008-g.jpg,Women -- Government policy.;Women in development.;Ecofeminism.;Women and war.;Women -- Political activity.;Femmes -- Politique gouvernementale.;Femmes dans le développement.;Écoféminisme.;Femmes et guerre.;Femmes en politique.;SOCIAL SCIENCE -- Discrimination & Race Relations.;SOCIAL SCIENCE -- Minority Studies.;Frau.;Politik.;Aufsatzsammlung.;Umweltpolitik.;Entwicklungspolitik.;WOMEN IN POLITICS.;WOMEN IN DEVELOPMENT.;ENVIRONMENTAL ASPECTS.,
32033449,Twenty Million New Customers! : Understanding Gay Men¿s Consumer Behavior,,,,"Dececco, Phd John",2013,,Routledge,United States,,248,English,,,,"9781306223379,1306223377,9781315870229,0789001756",,,,,,,,,,,0,,,,,,,,5251991,pdf,DD8FF1EACB98D431E5667659486BA080,,,F:\\!upload\\_books\\9781315870229-Twenty Million New Customers!.pdf,0,2000-01-01 01:00:00,2020-02-26 03:00:10,dd8ff1eacb98d431e5667659486ba080-g.jpg,Gay consumers -- United States.;Gay consumers.;United States.,
32033450,Global corruption report : climate change,,,,Transparency International,2011,,Earthscan/Routledge,,360,402,English,,,,"9781315870274,1315870274,9781317972198,1317972198,9781317972204,1317972201,9781849712828",,,,,,,,,,,0,,,,,,,,8156312,pdf,C8DCFE6C78662F17A8EDD709B7658D3C,,,F:\\!upload\\_books\\9781315870274-Global Corruption Report- Climate Change.pdf,0,2000-01-01 01:00:00,2020-02-26 03:00:10,c8dcfe6c78662f17a8edd709b7658d3c-d.jpg,Political corruption.;Climatic changes.;Climatic changes -- Political aspects.;Climatic changes -- Corrupt practices.;Environmental policy.;BUSINESS & ECONOMICS -- Infrastructure.;SOCIAL SCIENCE -- General.,
32033451,Homosexuality in Renaissance and Enlightenment England : Literary Representations in Historical Context,,,,"Summers, Claude J",2013,,Routledge,England,,233,English,,,,"9781306183574,130618357X,9781315870298,1560242957,1560230193",,,,,,,,,,,0,,,,,,,,3891042,pdf,7A6E7486496BFD9AD575E5FF032C4410,,,F:\\!upload\\_books\\9781315870298-Homosexuality in Renaissance and Enlightenment England.pdf,0,2000-01-01 01:00:00,2020-02-26 03:00:10,7a6e7486496bfd9ad575e5ff032c4410-g.jpg,En,
32033452,Counseling for spiritually empowered wholeness : a hope-centered approach,,,,"Clinebell, Howard John",1995,,Routledge,New York,177,194,English,,,,"9781315870311,1315870312,156024903X",,,,,,,,,,,0,,,,,,,,3273222,pdf,9E834F1D8354D27243BDAAE3118758F7,,,F:\\!upload\\_books\\9781315870311-Counseling for Spiritually Empowered Wholeness.pdf,0,2000-01-01 01:00:00,2020-02-26 03:00:10,9e834f1d8354d27243bdaae3118758f7-d.jpg,Pastoral counseling.;Self-actualization (Psychology),
32033453,"History of Russia from Earliest Times Volume 47: The Rule of Catherine the Great: War With Turkey, Polish Partition 1771-1772",,History of Russia from Earliest Times,,Sergei Soloviev,,,Academic International Press,,,162,English,64,,,,,,,,,,,,,,0,,,,,,,0,24859733,pdf,3E81435E2D3E7A70504FF59654AFC5F0,,,Soloviev Vol 47.pdf,0,2000-01-01 01:00:00,2020-02-26 03:00:10,3e81435e2d3e7a70504ff59654afc5f0-g.jpg,,
32033454,The future of relationship marketing,,,,"Bejou, David; Palmer, Adrian",2012,,Routledge,,139,139,English,,,,"9780789031617,0789031612,9780789031624,0789031620,9781306172899,1306172896,9781315870328,1315870320,9781317972334,1317972333,9781317972341,1317972341,9781317972358,131797235X",,,,,,,,,,,0,,,,,,,,2768472,pdf,B87E1AE4CA4BBB3E3C33CACC7B335000,,,F:\\!upload\\_books\\9781315870328-Future of Relationship Marketing.pdf,0,2000-01-01 01:00:00,2020-02-26 03:00:10,b87e1ae4ca4bbb3e3c33cacc7b335000-d.jpg,Relationship marketing.;Customer relations.;Marketing.,
32033455,"Climate change : the science, impacts and solutions",,,,"Pittock, A. Barrie",2009,2,CSIRO Pub,"Collingwood, VIC, Australia",369,369,English,,,,"9781315870359,1315870355,9781844077861,1844077861,9780643094840",,,,,,,,,,,0,,,,,,,,12182692,pdf,583D0693AF855062AB00A900041DC7C4,,,F:\\!upload\\_books\\9781315870359-Climate Change 2e.pdf,0,2000-01-01 01:00:00,2020-02-26 03:00:10,583d0693af855062ab00a900041dc7c4-d.jpg,Climatic changes.,
32033456,Машины для постройки и содержания автомобильных дорог,,,,Васильев А. А.,,,,,,258,,,,,,,,,,,,,,,,0,,,,,,,1,6710512,pdf,96A21AFFEB69AE06653890A34FA8F8C0,,,vasil_ev_a_a_mashiny_dlya_postroyki_i_soderzhaniya_avtomobil.pdf,0,2000-01-01 01:00:00,2020-02-26 03:00:10,96a21affeb69ae06653890a34fa8f8c0-g.jpg,,
32033457,Modern art : a critical introduction,,,,"Sheldon, Julie; Meecham, Pam",2005,2,Routledge,,354,384,English,,,,"9781315870366,1315870363,9781317972464,1317972465,9781317972471,1317972473",,,,,,,,,,,0,,,,,,,,10195276,pdf,5101A20DF9D1738E998DC4827BA5411B,,,F:\\!upload\\_books\\9781315870366-Modern Art 2e.pdf,0,2000-01-01 01:00:00,2020-02-26 03:00:10,5101a20df9d1738e998dc4827ba5411b-g.jpg,"Modernism (Art);Postmodernism.;Art, Modern -- 20th century.;Art -- Study and teaching.;ART -- History -- General.;Art, Modern.;Moderne;Kunst;Beeldende kunsten.;Arte moderna (história e crítica) -- Século 20.;Pós-modernismo.;Moderne.;Kunst.",
32033458,Executive development and organizational learning for global business,,,,"Fulmer, Robert M.; Keys, Bernard",1998,,Routledge,New York,272,291,English,,,,"9781315870427,1315870428",,,,,,,,,,,0,,,,,,,,5304802,pdf,C9EB60D38958A48DE11B19FA64985C93,,,F:\\!upload\\_books\\9781315870427-Executive Development and Organizational Learning for Global Business.pdf,0,2000-01-01 01:00:00,2020-02-26 03:00:10,c9eb60d38958a48de11b19fa64985c93-d.jpg,Executives -- Training of.;International business enterprises -- Employees -- Training.;Organizational learning.,
32033459,Citizen participation in global environmental governance,,,,"Rask, Mikko; Worthington, Richard; Lammi, Minna",2012,,Earthscan,,302,321,English,,,,"9781315870458,1315870452,9781317972730,1317972732,9781317972747,1317972740,9781849713788,9781849713795",,,,,,,,,,,0,,,,,,,,7521016,pdf,D4012E04C8743132C2DE12933820A0E9,,,F:\\!upload\\_books\\9781315870458-Citizen Participation in Global Environmental Governance.pdf,0,2000-01-01 01:00:00,2020-02-26 03:00:10,d4012e04c8743132c2de12933820a0e9-d.jpg,Political ecology.;Environmental protection -- Citizen participation.;Environmental policy -- Decision making.;Global environmental change -- Government policy.;Climatic changes -- Government policy.;BUSINESS & ECONOMICS -- Real Estate -- General.;Graubünden -- Regierung;Bürgerbeteiligung;Global Governance;Internationaler Vergleich;Klimaänderung;Politische Ökologie;Regierung.,
32033460,"Visions of the city : utopianism, power and politics in twentieth-century urbanism",,,,"Pinder, David John",2011,,Routledge,New York,354,370,English,,,,"9781315870496,1315870495",,,,,,,,,,,0,,,,,,,,8911682,pdf,F85E54B0DCC0CCBF6DD4F904F2F327F3,,,F:\\!upload\\_books\\9781315870496-Visions of the City.pdf,0,2000-01-01 01:00:00,2020-02-26 03:00:10,f85e54b0dcc0ccbf6dd4f904f2f327f3-g.jpg,Cities and towns.;City planning.;Utopias.,
32033461,"Agricultural expansion and tropical deforestation : poverty, international trade and land use",,,,"Barraclough, Solon; Ghimire, Kléber Bertrand",2000,,Earthscan,"London, Sterling, VA, Tropics",150,169,English,,,,"9780585395401,0585395403,9781315870533,1315870533,9781317972969,1317972961,9781317972976,131797297X,9781317972983,1317972988,9781849774086,1849774080,1853836656,1853836664",,,,,,,,,,,0,,,,,,,,2974154,pdf,4F1473E96A371A5BE0D21F5B2689AB72,,,F:\\!upload\\_books\\9781315870533-Agricultural Expansion and Tropical Deforestation.pdf,0,2000-01-01 01:00:00,2020-02-26 03:00:10,4f1473e96a371a5be0d21f5b2689ab72-d.jpg,Deforestation -- Tropics.;Sustainable development.;Agriculture -- Economic aspects.;Agriculture -- Environmental aspects.;NATURE -- Natural Resources.;BUSINESS & ECONOMICS -- Environmental Economics.;BUSINESS & ECONOMICS -- Green Business.;Deforestation.;Tropics.;Desenvolvimento sustentável.;Agricultura (aspectos ambientais;aspectos econômicos);Desmatamento (impactos sociais);Comércio internacional.,
32033462,Sustainable communities : the potential for eco-neighbourhoods,,,,"Barton, Hugh",2005,,Earthscan,,305,328,English,,,,"9780585395487,0585395489,9781315870649,1315870649,9781317973294,1317973291,9781317973300,1317973305,9781317973317,1317973313,9781849774154,1849774153,9781853835131",,,,,,,,,,,0,,,,,,,,7731047,pdf,38DB3AA809BE670FB83071ECFD466708,,,F:\\!upload\\_books\\9781315870649-Sustainable Communities.pdf,0,2000-01-01 01:00:00,2020-02-26 03:00:10,38db3aa809be670fb83071ecfd466708-d.jpg,Sustainable development.;City planning -- Environmental aspects.;City planning -- Environmental aspects -- Case studies.;SOCIAL SCIENCE -- Sociology -- Urban.,
32033463,"Climates of the British Isles : present, past, and future",,,,"Atkinson, Tim; Barrow, Elaine; Hulme, Mike",2007,,Routledge,"British Isles, Europe--British Isles",495,499,English,,,,"9781315870793,1315870797",,,,,,,,,,,0,,,,,,,,12800851,pdf,3594748C8F5B241C663AE6C5AD51BD93,,,F:\\!upload\\_books\\9781315870793-Climates of the British Isles.pdf,0,2000-01-01 01:00:00,2020-02-26 03:00:10,3594748c8f5b241c663ae6c5ad51bd93-d.jpg,Paleoclimatology -- British Isles.;British Isles -- Climate.;Climatology.;Paleoclimatology.;Europe -- British Isles.,
32033464,"Whales and dolphins : cognition, culture, conservation and human perceptions",,,,"Brakes, Philippa; Simmonds, Mark P",2011,,Earthscan,,220,249,English,,,,"9781299869172,1299869173,9781315871097,1315871092,9781317974680,1317974689,9781849712248,9781849712255",,,,,,,,,,,0,,,,,,,,4806973,pdf,91CD2B649B51ACF5670E910DED4F8DC4,,,F:\\!upload\\_books\\9781315871097-Whales and Dolphins.pdf,0,2000-01-01 01:00:00,2020-02-26 03:00:10,91cd2b649b51acf5670e910ded4f8dc4-d.jpg,Cetacea -- Psychology.;Cetacea -- Behavior.;Cetacea -- Conservation.;Human-animal relationships.;NATURE -- Animals -- Mammals.;SCIENCE -- Life Sciences -- Zoology -- Mammals.,
32033465,Occupations and society,,Routledge revivals,,"Dunkerley, David",2015,,Routledge,,,96,English,,,,"9780415717328,0415717329,9780415717410,0415717418,9781315871370,1315871378,0710082398,0710082401",,,,,,,,,,,0,,,,,,,,1912807,pdf,430189FB00DE522509C0D8DCCC50F7D7,,,F:\\!upload\\_books\\9781315871370-Occupations and Society (Routledge Revivals).pdf,0,2000-01-01 01:00:00,2020-02-26 03:00:10,430189fb00de522509c0d8dccc50f7d7-d.jpg,Industrial sociology.;Occupations.;Occupational prestige.,
32033466,Ethics and academic freedom in educational research,,,,"Sikes, Patricia J.; Piper, Heather",2011,,Routledge,,117,128,English,,,,"9781315872711,1315872714,9781317979579,1317979575,9780415669214",,,,,,,,,,,0,,,,,,,,3034236,pdf,9ECD73A79B1A936813B9A9D707E05456,,,F:\\!upload\\_books\\9781315872711-Ethics and Academic Freedom in Educational Research.pdf,0,2000-01-01 01:00:00,2020-02-26 03:00:10,9ecd73a79b1a936813b9a9d707e05456-d.jpg,Education -- Research -- Moral and ethical aspects.;Academic freedom.;EDUCATION -- Essays.;EDUCATION -- Organizations & Institutions.;EDUCATION -- Reference.,
32033467,The evolution of integrated marketing communications : the customer-driven marketplace,,,,"Kitchen, Philip J.; Patti, Charles H.; Schultz, Don",2011,,Routledge,,134,143,English,,,,"9781315872728,1315872722,9781317979609,1317979605,9780415668927",,,,,,,,,,,0,,,,,,,,3273436,pdf,B04F8B82D0FCDD7FE1FF64C1AC27DC47,,,F:\\!upload\\_books\\9781315872728-Evolution of Integrated Marketing Communications.pdf,0,2000-01-01 01:00:00,2020-02-26 03:00:10,b04f8b82d0fcdd7fe1ff64c1ac27dc47-d.jpg,Communication in marketing.;Customer services.;BUSINESS & ECONOMICS -- Industrial Management.;BUSINESS & ECONOMICS -- Management.;BUSINESS & ECONOMICS -- Management Science.;BUSINESS & ECONOMICS -- Organizational Behavior.,
32033468,Anti-Semitism and anti-Zionism in historical perspective : convergency and divergence,,,,"Herf, Jeffrey",2007,,Routledge/Taylor & Francis Group,,275,296,English,,,,"9781315874012,1315874016,9781317983477,1317983475,9781317983484,1317983483,0415400694,9780415400695",,,,,,,,,,,0,,,,,,,,7664108,pdf,38C64A925935324B6C24951C64C24CA6,,,F:\\!upload\\_books\\9781315874012-Anti-Semitism and Anti-Zionism in Historical Perspective.pdf,0,2000-01-01 01:00:00,2020-02-26 03:00:10,38c64a925935324b6c24951c64c24ca6-d.jpg,Antisemitism.;Zionism.;SOCIAL SCIENCE -- Discrimination & Race Relations.;SOCIAL SCIENCE -- Minority Studies.;Antizionismus;Antisemitismus;Antisemitisme.;Antizionisme.,
32033469,The futures of the city region,,Regions and cities 44,,"Neuman, Michael; Hull, Angela",2011,,Routledge,,145,145,English,,,,"9780415588034,0415588030,9780415754668,0415754666,9781315874968,1315874962,9781317986263,1317986261,9781317986270,131798627X,9781317986287,1317986288",,,,,,,,,,,0,,,,,,,,4811699,pdf,1A800857894FED4E42975B6EC1986742,,,F:\\!upload\\_books\\9781315874968-The Futures of the City Region.pdf,0,2000-01-01 01:00:00,2020-02-26 03:00:10,1a800857894fed4e42975b6ec1986742-g.jpg,City planning.;Regional planning.,
32033470,Structure of human abilities,,Psychology Revivals,,"Vernon, Philip E",2014,,Routledge,,221,221,English,,,,"9781315879512,1315879514",,,,,,,,,,,0,,,,,,,,4920522,pdf,0D641BF88DCC660317ABD9FB32760853,,,F:\\!upload\\_books\\9781315879512-Structure of Human Abilities (Psychology Revivals).pdf,0,2000-01-01 01:00:00,2020-02-26 03:00:10,0d641bf88dcc660317abd9fb32760853-d.jpg,Factor analysis.;Ability.,
32033471,\Dio mio," Dio mio perché mi hai abbandonato?\"" (Mc 15","34). I Salmi nel racconto della passione di Gesù secondo Marco""",,,,Franco De Carlo,2009,,Gregorian & Biblical Press,,488,488,Italian,,,,,,,,,,,,,,,0,,,,,,,0,8582770,pdf,BCB568C0CD4414F32B79A39BABFA64E2,,,"Dio mio, Dio mio, perché mi hai abbandonato (Mc 15,34).pdf",0,2000-01-01 01:00:00,2020-02-26 03:00:11,bcb568c0cd4414f32b79a39babfa64e2-g.jpg
32033472,Personality tests and assessments,,Psychology revivals,,"Vernon, Philip E",2014,Online-ausg,Routledge,London,,235,English,,,,"9780415716659,0415716659,9781306404983,1306404983,9781315879536,1315879530,9781317999980,1317999983",,,,,,,,,,,0,,,,,,,,5171429,pdf,A634DF70002ACB0498410C8767A4FD56,,,F:\\!upload\\_books\\9781315879536-Personality Tests and Assessments (Psychology Revivals).pdf,0,2000-01-01 01:00:00,2020-02-26 03:00:11,a634df70002acb0498410c8767a4fd56-g.jpg,Personality tests.,
32033473,Personality assessment : a critical survey,,Psychology Revivals,,"Vernon, Philip E",2014,,Routledge,,346,346,English,,,,"9780415716482,0415716489,9780415716529,0415716527,9781134751051,1134751052,9781134751129,1134751125,9781134751198,1134751192,9781315879888,1315879883",,,,,,,,,,,0,,,,,,,,7662659,pdf,5A9451752BF9D871EF103A5A6155186A,,,F:\\!upload\\_books\\9781315879888-Personality Assessment (Psychology Revivals).pdf,0,2000-01-01 01:00:00,2020-02-26 03:00:11,5a9451752bf9d871ef103a5a6155186a-d.jpg,Personality assessment.,
32033474,Rural land-use planning in developed nations,,,,Paul Cloke,2013,,Routledge,"Industriestaaten, Place of publication not identified",,302,English,,,,"9780415715638,0415715636,9780415715669,0415715660,9781315880570,1315880571,0047110252",,,,,,,,,,,0,,,,,,,,6506186,pdf,B10074594C5787553FE6572903921C19,,,F:\\!upload\\_books\\9781315880570-Rural Land-Use Planning in Developed Nations (Routledge Revivals).pdf,0,2000-01-01 01:00:00,2020-02-26 03:00:11,b10074594c5787553fe6572903921c19-d.jpg,"Stadtentwicklung;Stadtplanung;Industriestaaten;Land use, Rural -- Planning.",
32033475,Ascolta la Parola. Una lettera d'amore per gli abitanti della terra,,,,Giuseppe Marrazzo,2004,,Edizioni ADV,,224,224,Italian,,,,8876591516,,,,,,,,,,,0,,,,,,,1,1030697,pdf,712B11AD816AE71F0E38BD0AA2992805,,,Ascolta la Parola di Marrazzo.pdf,0,2000-01-01 01:00:00,2020-02-26 03:00:11,712b11ad816ae71f0e38bd0aa2992805-g.jpg,,
32033476,Spiritual wisdom for successful retirement : living forward,,,,"Brister, C. W",2013,,Routledge,New York,158,170,English,,,,"9781315880617,131588061X,0789028034,0789028042",,,,,,,,,,,0,,,,,,,,3425687,pdf,0EEDD12DBBC68D5A6D11716985CAB45D,,,F:\\!upload\\_books\\9781315880617-Spiritual Wisdom for Successful Retirement.pdf,0,2000-01-01 01:00:00,2020-02-26 03:00:11,0eedd12dbbc68d5a6d11716985cab45d-d.jpg,Retirees -- Religious life.;Retirement -- Religious aspects -- Christianity.;Retirement -- Religious aspects.,
32033477,Assault on the soul : women in the former Yugoslavia,,,,"Kaschak, Ellyn; Sharratt, Sara","2013, 2014",Online-ausg,Routledge,"Milton Park, Abingdon, Oxon, Yugoslavia",176,186,English,,,,"9780789007711,0789007711,9781315880662,1315880660,0789007703",,,,,,,,,,,0,,,,,,,,4007544,pdf,02E577C309B8FB39A3C505B5CB1C260A,,,F:\\!upload\\_books\\9781315880662-Assault on the Soul.pdf,0,2000-01-01 01:00:00,2020-02-26 03:00:11,02e577c309b8fb39a3c505b5cb1c260a-d.jpg,Feminist therapy.;Women -- Crimes against -- Yugoslavia.;Political refugees -- Mental health.;Women -- Crimes against.;Yugoslavia.,
32033478,Crimes against nature : environmental criminology and ecological justice,,,,"White, Robert Douglas",2013,,Routledge,,329,328,English,,,,"9781134733415,1134733410,9781281845856,128184585X,9781315880723,1315880725,9781843923626,1843923629,9781843925675,1843925672,9786611845858,6611845852,9781843923619",,,,,,,,,,,0,,,,,,,,6637505,pdf,10D2D33C632BD73EFA12B0868E52BB56,,,F:\\!upload\\_books\\9781315880723-Crimes Against Nature.pdf,0,2000-01-01 01:00:00,2020-02-26 03:00:11,10d2d33c632bd73efa12b0868e52bb56-d.jpg,Offenses against the environment.;Offenses against the environment -- Prevention.;Animal welfare.,
32033479,Criminal investigation : an introduction to principles and practice,,,,"Stelfox, Peter",2012,,Routledge,,248,260,English,,,,"9781134733200,1134733208,9781134733279,1134733275,9781134733347,1134733348,9781315880730,1315880733",,,,,,,,,,,0,,,,,,,,5269178,pdf,E114D9ACD4BDA5717E1C54CAA9497833,,,F:\\!upload\\_books\\9781315880730-Criminal Investigation.pdf,0,2000-01-01 01:00:00,2020-02-26 03:00:11,e114d9acd4bda5717e1c54caa9497833-g.jpg,Criminal investigation.,
32033480,Crime and inequality,,,,"Grover, Chris",2012,,Routledge,"London, New York, Great Britain",272,289,English,,,,"9781315880747,1315880741,9781843923299,1843923297,9781843923305,1843923300",,,,,,,,,,,0,,,,,,,,6166892,pdf,01A6C704B57BCA8B6FADB56291E9D216,,,F:\\!upload\\_books\\9781315880747-Crime and Inequality.pdf,0,2000-01-01 01:00:00,2020-02-26 03:00:11,01a6c704b57bca8b6fadb56291e9d216-d.jpg,"Crime -- Great Britain -- Sociological aspects.;Equality -- Great Britain.;Marginality, Social -- Great Britain.;Social isolation -- Great Britain.;Crime -- Sociological aspects.;Equality.;Marginality, Social.;Social isolation.;Great Britain.",
32033481,Boundaries of dissent : protest and state power in the media age,,,,"D'Arcus, Bruce",2006,,Routledge,"États-Unis, United States, USA., United States",197,206,English,,,,"9781134728374,1134728379,9781134728442,1134728441,9781134728510,1134728514,9781299869769,1299869769,9781315880969,1315880962,041594872X,0415948738",,,,,,,,,,,0,,,,,,,,3564762,pdf,E5DAF09A083DE38095D60390D1A4B0D7,,,F:\\!upload\\_books\\9781315880969-Boundaries of Dissent.pdf,0,2000-01-01 01:00:00,2020-02-26 03:00:11,e5daf09a083de38095d60390d1a4b0d7-d.jpg,Pr,
32033482,"Women's work is never done : comparative studies in caregiving, employment, and social policy reform",,,,"Bashevkin, Sylvia B",2002,,Routledge,,208,217,English,,,,"9781134726691,1134726694,9781299869356,1299869351,9781315881041,1315881047,041593480X,0415934818",,,,,,,,,,,0,,,,,,,,4275567,pdf,210701C0C1371D4CF4641A948285A2D3,,,F:\\!upload\\_books\\9781315881041-Women's Work is Never Done.pdf,0,2000-01-01 01:00:00,2020-02-26 03:00:11,210701c0c1371d4cf4641a948285a2d3-d.jpg,Wo,
32033483,The Right Wrong Man: John Demjanjuk and the Last Great Nazi War Crimes Trial,,,,Lawrence Douglas,2016,,Princeton University Press,,xxii+332,347,English,64,,,"0691125708,9780691125701",,,,,,,,,,,0,,,,,,1,1,46814098,pdf,D0C34ABA030E67870F5DB1EE73CBC6D8,,,Douglas_The Right Wrong Man. John Demjanjuk and the Last Great Nazi War Crimes Trial.pdf,0,2000-01-01 01:00:00,2020-02-26 03:00:11,d0c34aba030e67870f5db1ee73cbc6d8-g.jpg,,
32033484,Handbook of sexuality-related measures,,,,"Fisher, Terri D",2011,Third edition,Routledge,,656,680,English,,,,"9781134725854,113472585X,9781315881089,131588108X,9780415801751,9780415801744",,,,,,,,,,,0,,,,,,,,19644665,pdf,835B8BF4B2515758E46A5149755FB140,,,F:\\!upload\\_books\\9781315881089-Handbook of Sexuality-Related Measures 3e.pdf,0,2000-01-01 01:00:00,2020-02-26 03:00:11,835b8bf4b2515758e46a5149755fb140-d.jpg,Se,
32033485,The gentrification debates,,Metropolis and modern life,,"Brown-Saracino, Japonica",2010,,Routledge,,398,398,English,,,,"9781315881096,1315881098,9780415801645,0415801648,9780415801652,0415801656",,,,,,,,,,,0,,,,,,,,9733513,pdf,23A66DB44065F7D8E687869FA6A03F01,,,F:\\!upload\\_books\\9781315881096-The Gentrification Debates.pdf,0,2000-01-01 01:00:00,2020-02-26 03:00:11,23a66db44065f7d8e687869fa6a03f01-d.jpg,Gentrification.,
32033486,"Bypassing Bypass Surgery: Chelation Therapy: A Non-surgical Treatment for Reversing Arteriosclerosis, Improving Blocked Circulation, and Slowing the Aging Process by Elmer M. Cranton (2001-08-01)",,,,Elmer M. Cranton ; Linus Pauling,2002,,Hampton Roads Publishing,,,420,English,,,,"3604581661,4342962772,4342965096,3604581077,8007425682,1571742972,1098765432",,B01JXQNSX2,,,,,,,,,0,,,,,,,1,39454810,pdf,6F68F0404E3AC584F6F63A4B167C2C79,,,Ebook_Bypassing_Bypass_Surgery_Scranton_ocr_text.pdf,0,2000-01-01 01:00:00,2020-02-26 03:00:11,6f68f0404e3ac584f6f63a4b167c2c79-g.jpg,,
32033487,The sacred in-between : the mediating roles of architecture,,,,"Barrie, Thomas",2010,,Routledge,,272,286,English,,,,"9781134725229,1134725221,9781315881119,131588111X",,,,,,,,,,,0,,,,,,,,6041501,pdf,F3DAED60A749D15792B32DCD212EA94E,,,F:\\!upload\\_books\\9781315881119-The Sacred In-Between- The Mediating Roles of Architecture.pdf,0,2000-01-01 01:00:00,2020-02-26 03:00:11,f3daed60a749d15792b32dcd212ea94e-d.jpg,Religious architecture.;Mediation between God and man.;ARCHITECTURE -- Buildings -- Religious.,
32033488,Partners in Power: The Clintons and their America,,,,Roger Morris,1996,,Henry Holt and Company Inc,,,553,,,,,0805028048,,,,,,,,,,,0,,,,,,,1,56002841,pdf,3C017A34D06940F5ABA49FABCF64C75F,,,Partners in Power: The Clintons and their America Morris-1996.pdf,0,2000-01-01 01:00:00,2020-02-26 03:00:11,3c017a34d06940f5aba49fabcf64c75f-g.jpg,,
32033489,"History of Russia from Earliest Times Volume 48: The Rule of Catherine the Great: War, Diplomacy, and Domestic Affairs 1772-1774",48,History of Russia from Earliest Times,,Sergei Soloviev,,,Academic International Press,,,337,English,64,,,,,,,,,,,,,,0,,,,,,,0,53414702,pdf,BCC30D8F9165FD0A3FFF3FFD75A5A883,,,Soloviev Vol 48.pdf,0,2000-01-01 01:00:00,2020-02-26 03:00:11,bcc30d8f9165fd0a3fff3ffd75a5a883-g.jpg,,
32033490,Ogni Scrittura è ispirata. Nuove prospettive sull'ispirazione biblica,,,,"Peter Dubovsky, Jean-Pierre Sonnet",2013,,San Paolo/Gregorian Biblical Press,,412,412,Italian,,,,9788821577796,,,,,,,,,,,0,,,,,,,1,103311643,pdf,03BDFBAAB9ECED1EC0AA977EDCC7E6B6,,,Ogni Scrittura è ispirata di Dubovsky-Sonnet.pdf,0,2000-01-01 01:00:00,2020-02-26 03:00:11,03bdfbaab9eced1ec0aa977edcc7e6b6-g.jpg,,
32033491,Spatial recall : memory in architecture and landscape,,,,"Treib, Marc",2009,1st ed,Routledge,,,270,English,,,,"9781315881157,1315881152",,,,,,,,,,,0,,,,,,,,5727835,pdf,47B70756269651AD55F81880ECA90321,,,F:\\!upload\\_books\\9781315881157-Spatial Recall.pdf,0,2000-01-01 01:00:00,2020-02-26 03:00:11,47b70756269651ad55f81880eca90321-d.jpg,Space -- Psychological aspects.;Architecture and society.;Landscapes -- Psychological aspects.;Landscapes -- Symbolic aspects.;Collective memory.,
32033492,Introduction to environmental impact assessment,,Natural and built environment series,,"Chadwick, Andrew; Glasson, John; Therivel, Riki",2012,4th ed,Routledge,Great Britain,,414,English,,,,"9781315881218,1315881217,9780415664684,9780415664707",,,,,,,,,,,0,,,,,,,,11744273,pdf,593D93210538C1AE804DFBD9BB827BC5,,,F:\\!upload\\_books\\9781315881218-Introduction To Environmental Impact Assessment 4e.pdf,0,2000-01-01 01:00:00,2020-02-26 03:00:11,593d93210538c1ae804dfbd9bb827bc5-d.jpg,Environmental impact analysis -- Great Britain.;Environmental impact analysis.;Great Britain.,
32033493,Architecture of modern China : a historical critique,,,,"Zhu, Jianfei",2009,,Routledge,China,,334,English,,,,"9781315881348,1315881349,0415457807,0415457815,9780415457804,9780415457811",,,,,,,,,,,0,,,,,,,,7399879,pdf,146904E2C3EE64483AF6124537F34C23,,,F:\\!upload\\_books\\9781315881348-Architecture of Modern China.pdf,0,2000-01-01 01:00:00,2020-02-26 03:00:11,146904e2c3ee64483af6124537f34c23-d.jpg,Architecture -- China.;Architecture.;China.,
32033494,Rereading Camara Laye,,,,Adele King,2002,,University of Nebraska Press,"Lincoln, NE, USA and London, UK",216,233,English,,,,"0803227523,9780803227521",,,,,,,,,,,0,0,,0,1,1,,0,19853125,pdf,727B8256C7E5B8C174B73FC78F7559D9,,,rereading.pdf,0,2000-01-01 01:00:00,2020-02-26 03:00:11,727b8256c7e5b8c174b73fc78f7559d9-g.jpg,,
32033495,"Culture and economics : on values, economics and international business",,Routledge advanced texts in economics and finance,,"Jong, Eelke de",2009,,Routledge,,255,268,English,,,,"9781134719976,1134719973,9781134720040,1134720041,9781134720118,1134720114,9781315881362,1315881365,9780415438612,9780415438889,0415438616,0415438888",,,,,,,,,,,0,,,,,,,,5886593,pdf,9BB66EEF2F85E767272F6C45CEAD1EB6,,,F:\\!upload\\_books\\9781315881362-Culture and Economics.pdf,0,2000-01-01 01:00:00,2020-02-26 03:00:11,9bb66eef2f85e767272f6c45cead1eb6-d.jpg,Culture -- Economic aspects.;POLITICAL SCIENCE -- Public Policy -- Cultural Policy.;SOCIAL SCIENCE -- Anthropology -- Cultural.;SOCIAL SCIENCE -- Popular Culture.;Kulturwirtschaft,
32033496,From models to drawings : imagination and representation in architecture,,Critiques,,"Edited by Marco Frascari, Jonathan Hale and Bradley Starkey",2007,,Routledge,,289,310,English,,,,"9781315881386,9780415431132,0415431131",,,,,,,,,,,0,,,,,,,,5983590,pdf,C2CABB8E5166DA8CB2F300965D10BAFB,,,F:\\!upload\\_books\\9781315881386-From Models to Drawings.pdf,0,2000-01-01 01:00:00,2020-02-26 03:00:11,c2cabb8e5166da8cb2f300965d10bafb-d.jpg,Architectural drawing.;Architectural design.;ARCHITECTURE -- Adaptive Reuse & Renovation.;ARCHITECTURE -- Buildings -- Landmarks & Monuments.;ARCHITECTURE -- Professional Practice.;ARCHITECTURE -- Reference.;Architekturzeichnung;Design;Ästhetik;Präsentation;Design.;Models.;Drawings.;Architecture.,
32033497,Emotions : a social science reader,,Routledge student readers,,"Stenner, Paul; Greco, Monica",2008,,Routledge,"London, New York",480,510,English,,,,"9781134719341,1134719345,9781134719419,1134719418,9781134719488,1134719485,9781315881393,131588139X,0415425646",,,,,,,,,,,0,,,,,,,,12590820,pdf,096036B39785F86AA92ABD664F9BA60B,,,F:\\!upload\\_books\\9781315881393-Emotions.pdf,0,2000-01-01 01:00:00,2020-02-26 03:00:11,096036b39785f86aa92abd664f9ba60b-d.jpg,Emotions.;Sozialwissenschaften;Gefühl;Känslor.,
32033498,The advertising handbook,,Media practice,,"Powell, Helen; Brierley, Sean",2009,Third edition,Routledge,,247,260,English,,,,"9781134718924,1134718926,9781134718993,1134718993,9781134719068,113471906X,9781315881416,1315881411",,,,,,,,,,,0,,,,,,,,6002728,pdf,E8061106A6156D7DD4C3482F9180B7C8,,,F:\\!upload\\_books\\9781315881416-The Advertising Handbook 3e.pdf,0,2000-01-01 01:00:00,2020-02-26 03:00:11,e8061106a6156d7dd4c3482f9180b7c8-d.jpg,"Advertising -- Handbooks, manuals, etc.;BUSINESS & ECONOMICS -- Advertising & Promotion.;Advertising.;Einführung;Werbung",
32033499,Beyond Archigram : the structure of circulation,,,,"Steiner, Hadas A",2009,,Routledge,,252,276,English,,,,"9781134718085,113471808X,9781134718153,1134718152,9781134718221,1134718225,9781315881454,1315881454,0415394767,0415394775,9780415394765,9780415394772",,,,,,,,,,,0,,,,,,,,5840150,pdf,9427972B4340620E47476A6CDED574FF,,,F:\\!upload\\_books\\9781315881454-Beyond Archigram.pdf,0,2000-01-01 01:00:00,2020-02-26 03:00:11,9427972b4340620e47476a6cded574ff-d.jpg,"Archigram.;Communication in architectural design.;Architecture, Modern -- 20th century.;Communication en design architectural.;Architecture -- 20e siècle -- Histoire.;ARCHITECTURE -- Design, Drafting, Drawing & Presentation.;Architecture, Modern.",
32033500,"The state, class and the recession",,,,"Boreham, Paul; Clegg, Stewart; Dow, Geoff",2013,,Routledge,"Abingdon, Oxon",344,344,English,,,,"9780415715379,0415715377,9781315881539,1315881535",,,,,,,,,,,0,,,,,,,,10362754,pdf,18A61E0A8B864A710BB25CCDA1FDD91D,,,"F:\\!upload\\_books\\9781315881539-State, Class and the Recession (Routledge Revivals).pdf",0,2000-01-01 01:00:00,2020-02-26 03:00:11,18a61e0a8b864a710bb25ccda1fdd91d-d.jpg,,
32033501,Limit Tyt Fizik Soru Bankası,,,,Pancarsuyu,,,,,,184,Turkish,,,,,,,,,,,,,,,0,,,,,,,0,16104915,pdf,FD30CF6BA98E7BB7B83DB0B797D58AFB,,,limit fizik soru tyt .pdf,0,2000-01-01 01:00:00,2020-02-26 03:00:11,fd30cf6ba98e7bb7b83db0b797d58afb-g.jpg,,
32033502,Rough Times,,,,"Jerome Agel, The Rough Times Staff",1973,,Ballantine Books,New York,,131,English,,,,,,,,,,,,,,"some text near spine cannot be read due to bookbinding unsuitable to scanning. SBN printed in book is \345-23059-0-165\"".""",0,0,,,1,1,,1,10815105,pdf,D9C9433293FEBF4D4137561E76136D72,,,rough times.pdf,0,2000-01-01 01:00:00,2020-02-26 03:00:11,d9c9433293febf4d4137561e76136d72-g.jpg,,
32033503,Policies and plans for rural people : an international perspective,,Routledge revivals,,"Cloke, Paul J",2013,,Routledge,,274,275,English,,,,"9781134694563,1134694563,9781134694631,1134694636,9781134694709,1134694709,9781315882574,1315882574,0047110171",,,,,,,,,,,0,,,,,,,,6269238,pdf,FFEAB99C5E0E42731931AAFFD02F1DA7,,,F:\\!upload\\_books\\9781315882574-Policies and Plans for Rural People (Routledge Revivals).pdf,0,2000-01-01 01:00:00,2020-02-26 03:00:11,ffeab99c5e0e42731931aaffd02f1da7-d.jpg,Rural development -- Cross-cultural studies.;RELIGION -- Christianity -- History.;Rural development.,
32033504,"Storia della \Strage di Stato\"". Piazza Fontana: la strana vicenda di un libro e di un attentato""",,,,Aldo Giannuli,2019,,Ponte alle Grazie,,140,140,Italian,,,,9788833312934,,,,,,,,,,,0,,,,,,1,1,1279381,pdf,1B50CB7CA9FC3A9AA52865128400DEF3,,,Giannuli_-_Storia_della_Strage_di_stato.pdf,0,2000-01-01 01:00:00,2020-02-26 03:00:11,1b50cb7ca9fc3a9aa52865128400def3-g.jpg,,
32033505,Giuda. Il tradimento fedele,,,,Gustavo Zagrebelsky,2019,,Einaudi,,77,0,Italian,,,,,,,,,,,,,,,0,,,,,,,,1033191,epub,84A109E0BF88ABDDA86EE23B89C7C191,,,Zagrebelsky_-_Giuda_2019.epub,0,2000-01-01 01:00:00,2020-02-26 03:00:11,84a109e0bf88abdda86ee23b89c7c191-g.jpg,,
32033506,An introduction to rural settlement planning,,Routledge revivals,,"Cloke, Paul",2013,,Routledge,Great Britain,399,401,English,,,,"9780415714471,0415714478,9780415714488,0415714486,9781134693306,1134693303,9781134693375,1134693370,9781134693443,1134693443,9781315882635,1315882639",,,,,,,,,,,0,,,,,,,,10182269,pdf,217A80021CBAB7DC350FBF62E3A8524A,,,F:\\!upload\\_books\\9781315882635-Introduction to Rural Settlement Planning.pdf,0,2000-01-01 01:00:00,2020-02-26 03:00:11,217a80021cbab7dc350fbf62e3a8524a-d.jpg,Rural development -- Great Britain.;Regional planning -- Great Britain.;Regional planning.;Rural development.;Great Britain.,
32033507,Rural resource management,,Routledge revivals,,"Cloke, Paul J.; Park, Chris C",2013,,Routledge,,492,492,English,,,,"9780415712811,0415712815,9780415712828,0415712823,9781134671670,1134671679,9781134671748,1134671741,9781134671816,1134671814,9781315883663,131588366X,0709920377",,,,,,,,,,,0,,,,,,,,11781495,pdf,18249CCE2DF4F3594C6EAC801DA184B0,,,F:\\!upload\\_books\\9781315883663-Rural Resource Management (Routledge Revivals).pdf,0,2000-01-01 01:00:00,2020-02-26 03:00:11,18249cce2df4f3594c6eac801da184b0-d.jpg,"Land use, Rural -- Planning.;Rural development -- Planning.;Natural resources.;SOCIAL SCIENCE / Human Geography.;SOCIAL SCIENCE / Regional Studies.",
32033508,Acid rain : rhetoric and reality,,Routledge revivals,,"Park, Chris C",2013/1987,Online-ausg,Routledge,"Abingdon, Oxon UK",291,291,English,,,,"9780415712767,0415712769,9781315883687,1315883686,0416921906,0416922007",,,,,,,,,,,0,,,,,,,,7298326,pdf,B43954FEC7D10EEECE3296867A72FC42,,,F:\\!upload\\_books\\9781315883687-Acid Rain (Routledge Revivals).pdf,0,2000-01-01 01:00:00,2020-02-26 03:00:11,b43954fec7d10eeece3296867a72fc42-d.jpg,Acid rain -- Environmental aspects.,
32033509,Environmental policies : an international review,,Routledge Revivals,,"Park, Chris C",2013,,Routledge,Abingdon,328,328,English,,,,"9780415712729,0415712726,9781315883717,1315883716",,,,,,,,,,,0,,,,,,,,6008378,pdf,BF071FEF262D725C0CFB5198E3D66921,,,F:\\!upload\\_books\\9781315883717-Environmental Policies (Routledge Revivals).pdf,0,2000-01-01 01:00:00,2020-02-26 03:00:11,bf071fef262d725c0cfb5198e3d66921-d.jpg,,
32033510,Tomorrow I'll be slim : the psychology of dieting,,Psychology Revivals,,"Gilbert, Sara B. S",2013,,Routledge,London,155,166,English,,,,"9780415028448,0415028442,9780415712545,0415712548,9781134667123,1134667124,9781306404686,1306404681,9781315883885,1315883880",,,,,,,,,,,0,,,,,,,,3234050,pdf,79F5541CF1D2C9AE7F6B02F144369CBD,,,F:\\!upload\\_books\\9781315883885-Tomorrow I'll Be Slim (Psychology Revivals).pdf,0,2000-01-01 01:00:00,2020-02-26 03:00:11,79f5541cf1d2c9ae7f6b02f144369cbd-d.jpg,"Obesity -- Psychological aspects.;Self-control.;Weight loss -- Psychological aspects.;Feeding and Eating Disorders.;Diet, Reducing -- psychology.;HEALTH & FITNESS -- Healthy Living.;HEALTH & FITNESS -- Holism.;HEALTH & FITNESS -- Reference.;MEDICAL -- Preventive Medicine.",
32033511,Limit Biyoloji Soru Bankası,,,,Pancarsuyu,,,,,,168,Turkish,,,,,,,,,,,,,,,0,,,,,,1,0,30939470,pdf,61494FA91085E1815521B0BF5EB7F714,,,LİMİT BİYOLOJİ.pdf,0,2000-01-01 01:00:00,2020-02-26 03:00:11,61494fa91085e1815521b0bf5eb7f714-g.jpg,,
32033512,Pathology of eating : psychology and treatment,,Psychology revivals,,"Gilbert, Sara B. S",2013,,Routledge,"London, New York",246,259,English,,,,"9781315883922,1315883929,0710202717,9780415712514",,,,,,,,,,,0,,,,,,,,4404949,pdf,A767087EDD28CFD35A07E62F77525EDD,,,F:\\!upload\\_books\\9781315883922-Pathology of Eating (Psychology Revivals).pdf,0,2000-01-01 01:00:00,2020-02-26 03:00:12,a767087edd28cfd35a07e62f77525edd-d.jpg,Eating disorders.;Psychotherapy.,
32033513,Illustrations of madness,,Psychology revivals,,"Haslam, John; Matthews, James Tilly; Porter, Roy",2014,,Routledge,"London, New York, Great Britain",81,162,English,,,,"9781134665235,1134665237,9781134665303,113466530X,9781315883977,131588397X,0415006376",,,,,,,,,,,0,,,,,,,,2369175,pdf,166696913DADE48E0B3F8C10C940DD7D,,,F:\\!upload\\_books\\9781315883977-Illustrations of Madness (Psychology Revivals).pdf,0,2000-01-01 01:00:00,2020-02-26 03:00:12,166696913dade48e0b3f8c10c940dd7d-d.jpg,"Matthews, James Tilly -- Mental health.;Mentally ill -- Great Britain -- Biography.;Mental illness -- Case studies.;Matthews, James Tilly.;Mental health.;Mental illness.;Mentally ill.;Great Britain.",
32033514,George Cheyne : the English malady (1733),,Psychology revivals,,"Porter, Roy",2013,,Routledge,,465,465,English,,,,"9781134636884,1134636881,9781315885315,131588531X,0415017335,9780415709804",,,,,,,,,,,0,,,,,,,,7977478,pdf,C6516222EB39E1BAD98C9056C674D8CB,,,F:\\!upload\\_books\\9781315885315-George Cheyne- The English Malady (1733) (Psychology Revivals).pdf,0,2000-01-01 01:00:00,2020-02-26 03:00:12,c6516222eb39e1bad98c9056c674d8cb-d.jpg,Psychiatry -- Early works to 1900.;Nervous system -- Diseases -- Early works to 1800.;Nervous system -- Diseases.;Psychiatry.,
32033515,Population geography progress and prospect,,Croom Helm Progress in geography series,,"Pacione, Michael",2013,,Croom Helm,London,322,342,English,,,,"9780415616119,0415616115,9780415616126,0415616123,9780709940456,0709940459,9781315886633,1315886634",,,,,,,,,,,0,,,,,,,,6436748,pdf,CC051DD5C5A7A0A75E21870BC8CF7B85,,,F:\\!upload\\_books\\9781315886633-Population Geography- Progress and Prospect (Routledge Revivals).pdf,0,2000-01-01 01:00:00,2020-02-26 03:00:12,cc051dd5c5a7a0a75e21870bc8cf7b85-d.jpg,Bevölkerungsgeographie,
32033516,Primary science : knowledge and understanding,,,,"Kennedy, Jenny",1997,,Routledge,,208,228,English,,,,"9781134525799,1134525796,9781134525867,1134525869,9781134525935,1134525931,9781138158948,1138158941,9781315887739,1315887738,0415129125",,,,,,,,,,,0,,,,,,,,3958041,pdf,E41860661AEB2E14D4E2622ABD226D40,,,F:\\!upload\\_books\\9781315887739-Primary Science.pdf,0,2000-01-01 01:00:00,2020-02-26 03:00:12,e41860661aeb2e14d4e2622abd226d40-d.jpg,Science -- Study and teaching (Elementary);Sciences -- Étude et enseignement (Primaire);EDUCATION -- Elementary.,
32033517,New models in geography : the political-economy perspective,,,,"Peet, Richard; Thrift, N. J",2001,,Routledge,,382,383,English,,,,"9781315887760,1315887762,0415239656,9781134526635",,,,,,,,,,,0,,,,,,,,11722023,pdf,F06342A796C7B8255CB76B649B29BBC3,,,F:\\!upload\\_books\\9781315887760-New Models In Geog V 1.pdf,0,2000-01-01 01:00:00,2020-02-26 03:00:12,f06342a796c7b8255cb76b649b29bbc3-g.jpg,Human geography.;Economic geography.;Political geography.;Géographie économique.;Géographie politique.,
32033518,Nitelik 11. Sınıf Fizik Soru Bankası,,,,Pancarsuyu,,,Pancarsuyu,,,175,Turkish,,,,,,,,,,,,,,,0,,,,,,,0,39473397,pdf,521FFD732AF53CD3401AEAC66B258D8E,,,NİTELİK 11.SINIF FİZİK S.B.-17 TL(++).pdf,0,2000-01-01 01:00:00,2020-02-26 03:00:12,521ffd732af53cd3401aeac66b258d8e-g.jpg,,
32033519,Complexity and organization : readings and conversations,,,,"MacIntosh, Robert",2006,,Routledge,,299,311,English,,,,"9781134527199,1134527195,9781134527267,1134527268,9781134527335,1134527330,9781315887784,1315887789",,,,,,,,,,,0,,,,,,,,8499159,pdf,F1105C0E74DC49FE7EBA65A4C3508D7E,,,F:\\!upload\\_books\\9781315887784-Complexity and Organization.pdf,0,2000-01-01 01:00:00,2020-02-26 03:00:12,f1105c0e74dc49fe7eba65a4c3508d7e-d.jpg,Management.;Organization.;Complex organizations -- Management.;Complexity (Philosophy);Gestion.;Organisation.;Organisations complexes -- Gestion.;Complexité (Philosophie);BUSINESS & ECONOMICS -- Industrial Management.;BUSINESS & ECONOMICS -- Management.;BUSINESS & ECONOMICS -- Management Science.;BUSINESS & ECONOMICS -- Organizational Behavior.;Komplexitätstheorie;Organisationstheorie,
32033520,Elementi di Diritto Penale e di Procedura Penale: sintesi e ripasso,,,,Rocco Mela,2019,,Rocco Mela,,207,0,Italian,,,,,,B07TLNPF4R,,,,,,,,,0,,,,,,,,214409,epub,4FEB2EB31F604ED42771A2BDF749D79A,,,Rocco_Mela_-_Elementi_di_Diritto_Penale_e_di_Procedura_penale._Sintesi_e_ripasso.epub,0,2000-01-01 01:00:00,2020-02-26 03:00:12,4feb2eb31f604ed42771a2bdf749d79a-g.jpg,,
32033521,Lineamenti di Procedura Penale: sintesi e ripasso,,,,Rocco Mela,2006,,Rocco Mela,,69,0,Italian,,,,,,B00P9TWD5M,,,,,,,,,0,,,,,,,,124431,epub,73388B6C605A3834CBAE4B36A57B8687,,,Rocco_Mela_-_Lineamenti_di_Procedura_Penale.Sintesi_e_ripasso.epub,0,2000-01-01 01:00:00,2020-02-26 03:00:12,73388b6c605a3834cbae4b36a57b8687-g.jpg,,
32033522,"Japanese tea culture : art, history, and practice",,,,"Pitelka, Morgan",2003,,Routledge,Japan,241,241,English,,,,"9781134535316,1134535317,9781134535385,1134535384,9781134535453,1134535457,9781299998131,1299998135,9781315888071,1315888076",,,,,,,,,,,0,,,,,,,,7051043,pdf,BBDFF2400BD534239B4F6769D67BECDA,,,F:\\!upload\\_books\\9781315888071-Japanese Tea Culture.pdf,0,2000-01-01 01:00:00,2020-02-26 03:00:12,bbdff2400bd534239b4f6769d67becda-d.jpg,Japanese tea ceremony.;Tea -- Japan -- History.;HISTORY -- Asia -- Japan.;Tea.;Japan.,
32033523,A history of Egypt in the Middle Ages,,Routledge library editions. Islam ; 24,,"Lane-Poole, Stanley",2008,,Routledge,"London, New York",382,405,English,,,,"9781315888149,1315888149,0415426006,0415440688,9780415426008,9780415440684,9781134537273",,,,,,,,,,,0,,,,,,,,10884527,pdf,7FE46F0C1520CC91E50C0A75FD2EB8F4,,,F:\\!upload\\_books\\9781315888149-History of Egypt.pdf,0,2000-01-01 01:00:00,2020-02-26 03:00:12,7fe46f0c1520cc91e50c0a75fd2eb8f4-g.jpg,Egypt -- History -- 640-1882.;Egypt.,
32033524,The economic development of China and Japan,,Economic history,,"Cowan, C. D",2006,,Routledge,London,265,265,English,,,,"9780415381512,0415381517,9780415607735,0415607736,9781315888996,1315888998,9780415381109,9780415286190",,,,,,,,,,,0,,,,,,,,6454789,pdf,6242132DF85F7CE371A4913C943B8755,,,F:\\!upload\\_books\\9781315888996-Economic Development of China and Japan.pdf,0,2000-01-01 01:00:00,2020-02-26 03:00:12,6242132df85f7ce371a4913c943b8755-d.jpg,,
32033525,Class structure and economic growth : India and Pakistan since the Moghuls,,Routledge library editions. Economic history,,"Maddison, Angus",2006,,Routledge,"India, Pakistan, Pakistan., India",193,193,English,,,,"9781315889016,1315889013,9780415382595,9780415607766,9780415381109,9780415286190,0043301916,0043301924",,,,,,,,,,,0,,,,,,,,4435189,pdf,43ED3B0A22D5D258D21272A724511103,,,F:\\!upload\\_books\\9781315889016-Class Structure and Economic Growth.pdf,0,2000-01-01 01:00:00,2020-02-26 03:00:12,43ed3b0a22d5d258d21272a724511103-d.jpg,India -- Social conditions.;Pakistan -- Social conditions.;India -- Economic conditions.;Pakistan -- Economic conditions.;Economic history.;Social conditions.;India.;Pakistan.,
32033526,Inner city regeneration,,Routledge library editions,,"Home, Robert K",2007,,Routledge,"London, New York, Great Britain",188,204,English,,,,"9780415417525,041541752X,9780415611466,0415611466,9781134563593,1134563590,9781134563661,1134563663,9781134563739,1134563736,9781299997950,1299997953,9781315889085,1315889080,9780415413183,9780415419345,0419121501,0419121609",,,,,,,,,,,0,,,,,,,,4207733,pdf,7DA31519EDA99418C9B3C4D17EC6B495,,,F:\\!upload\\_books\\9781315889085-Inner City Regeneration.pdf,0,2000-01-01 01:00:00,2020-02-26 03:00:12,7da31519eda99418c9b3c4d17ec6b495-d.jpg,Urban renewal -- Great Britain.;Inner cities -- Great Britain.;Inner cities.;Urban renewal.;Great Britain.,
32033527,Gentrification of the city,,Routledge library editions,,"Williams, Peter; Smith, Neil",2007,,Routledge,,275,275,English,,,,"9780415418294,0415418291,9780415611671,0415611679,9781134563876,1134563876,9781134563944,1134563949,9781134564019,1134564015,9781315889092,1315889099,9780415413183,9780415419314,0043012019,0043012027",,,,,,,,,,,0,,,,,,,,5800218,pdf,3533D5FB20A3532AA8291B1B812AFEDB,,,F:\\!upload\\_books\\9781315889092-Gentrification of the City.pdf,0,2000-01-01 01:00:00,2020-02-26 03:00:12,3533d5fb20a3532aa8291b1b812afedb-d.jpg,Gentrification.;Urban renewal.,
32033528,"Geoffrey Sonnabend: Obliscence, Theories of Forgetting and the Problem of Matter - An Encapsulation",,"Contributions from the Museum of Jurassic Technology, supplement to A Chain of Flowers, Vol 5, No 5, Guide Leaflet No. 3",,Valentine Worth,1991,"4th Edition, abridged","Society for the Diffusion of Useful Information, The Museum of Jurassic Technology",Los Angeles,,12,English,264,,,0177313157,,,,,,,,,,,600,0,0,0,0,1,0,1,5301855,pdf,F3A382E16DC9CF9ADD70970E22BFDEB6,,,1991-worth-geoffreysonnabendobliscencetheoriesofforgettingandtheproblemofmatter.pdf,0,2000-01-01 01:00:00,2020-02-26 03:00:12,f3a382e16dc9cf9add70970e22bfdeb6-g.jpg,,
32033529,Aspects of Islamic civilization as depicted in the original texts,,Routledge library editions. Islam ; volume 19,,"Arberry, Arthur John",2008,,Routledge,,408,409,English,,,,"9781134564439,1134564430,9781315889115,1315889110",,,,,,,,,,,0,,,,,,,,9504417,pdf,EAD1230DECE58308D6F6B1E6D06C424D,,,F:\\!upload\\_books\\9781315889115-Aspects of Islamic Civilization.pdf,0,2000-01-01 01:00:00,2020-02-26 03:00:12,ead1230dece58308d6f6b1e6d06c424d-d.jpg,Islamic civilization -- Sources.;Islamic literature -- Translations into English.;Arabic literature -- Translations into English.;Littérature islamique -- Histoire et critique.;Civilisation islamique -- Histoire.;HISTORY -- World.;Arabic literature.;Islamic civilization.;Islamic literature.,
32033530,Islamic medicine,,Routledge library editions. Islam ; no. 23,,"Khan, Muhammad Salim",2010,,Routledge,,107,123,English,,,,"9781134564712,1134564716,9781315889122,0710203292",,,,,,,,,,,0,,,,,,,,1733948,pdf,244F182E825D2145DCB42E26E30DD4A4,,,F:\\!upload\\_books\\9781315889122-Islamic Medicine.pdf,0,2000-01-01 01:00:00,2020-02-26 03:00:12,244f182e825d2145dcb42e26e30dd4a4-d.jpg,"Medicine, Arab -- History.;Medicine -- History.;HEALTH & FITNESS -- Holism.;HEALTH & FITNESS -- Reference.;MEDICAL -- Alternative Medicine.;MEDICAL -- Atlases.;MEDICAL -- Essays.;MEDICAL -- Family & General Practice.;MEDICAL -- Holistic Medicine.;MEDICAL -- Osteopathy.;Medicine.;Medicine, Arab.",
32033531,Islam in tribal societies : from the Atlas to the Indus,,Routledge library editions. Islam ; 18,,"Ahmed, Akbar S.; Hart, David M",2008,,Routledge,Islamic countries,343,356,English,,,,"9781134565276,1134565275,9781315889146,1315889145,0710093209",,,,,,,,,,,0,,,,,,,,8327192,pdf,7849A71D3E1E3B8C3520A1095F75CBB4,,,F:\\!upload\\_books\\9781315889146-Islam in Tribal Societies.pdf,0,2000-01-01 01:00:00,2020-02-26 03:00:12,7849a71d3e1e3b8c3520a1095f75cbb4-d.jpg,Tribes -- Islamic countries.;Islamic sociology.;SOCIAL SCIENCE -- Discrimination & Race Relations.;SOCIAL SCIENCE -- Minority Studies.;Tribes.;Islamic countries.,
32033532,"Feminism and method : ethnography, discourse analysis, and activist research",,,,"Naples, Nancy A",2003,,Routledge,,281,281,English,,,,"9781315889245,1315889242,041594449X",,,,,,,,,,,0,,,,,,,,6618512,pdf,7DDA30FC171AA92811E681331357DAAD,,,F:\\!upload\\_books\\9781315889245-Feminism and Method.pdf,0,2000-01-01 01:00:00,2020-02-26 03:00:12,7dda30fc171aa92811e681331357daad-d.jpg,Feminism -- Research.;Feminism -- Methodology.;Women -- Research -- Methodology.;Action research -- Methodology.,
32033533,Problems and planning in third world cities,,Routledge revivals,,"Pacione, Michael",2013,Facsimile ed,Routledge,Abingdon,291,295,English,,,,"9781134519910,1134519915,9781315889511,131588951X,9780415705752,0709901925",,,,,,,,,,,0,,,,,,,,6865929,pdf,A51BA2A65DF5CCF6F0385B7DEB80817F,,,F:\\!upload\\_books\\9781315889511-Problems and Planning in Third World Cities (Routledge Revivals).pdf,0,2000-01-01 01:00:00,2020-02-26 03:00:12,a51ba2a65df5ccf6f0385b7deb80817f-d.jpg,Urbanisation -- Pays en voie de développement -- 20e siècle.;Politique urbaine -- Pays en voie de développement -- 20e siècle.;Croissance urbaine -- Pays en voie de développement -- 20e siècle.,
32033534,Introduction to political theory,,,,"Graham, Paul; Hoffman, John",2013,Second edition,Routledge,,559,559,English,,,,"9781315833958,1315833956,9781317863403,1317863402,9781317863410,1317863410,9781447917526,1447917529,9781405899888",,,,,,,,,,,0,,,,,,,,13013533,pdf,7B2C1234023465FF6EE0ACD4106A9269,,,F:\\!upload\\_books\\9781405899888-An Introduction to Political Theory 2e.pdf,0,2000-01-01 01:00:00,2020-02-26 03:00:12,7b2c1234023465ff6ee0acd4106a9269-d.jpg,Political science.,
32033535,"Cognition, Communication, and Romantic Relationships",,LEA's Series on Personal Relationships,,"Cantrill, James G.; Honeycutt, James M",2014,,Taylor and Francis,Hoboken,223,224,English,,,,"9780805835779,0805835776,9781410600486,1410600483",,,,,,,,,,,0,,,,,,,,5223050,pdf,CA6C95101ECD8FA1F9FBC53E28D9300F,,,"F:\\!upload\\_books\\9781410600486-Cognition, Communication, and Romantic Relationships.pdf",0,2000-01-01 01:00:00,2020-02-26 03:00:12,ca6c95101ecd8fa1f9fbc53e28d9300f-g.jpg,,
32033536,Problem Solving & Comprehension : a Short Course in Analytical Reasoning,,,,"Lochhead, Jack; Narode, Ronald; Whimbey, Arthur",2013,6th ed,Taylor and Francis,Hoboken,400,400,English,,,,"9781410601391,1410601390,0805832742",,,,,,,,,,,0,,,,,,,,4120054,pdf,546D657897DA814C3AC5A531C0506FC4,,,F:\\!upload\\_books\\9781410601391-Problem Solving & Comprehension.pdf,0,2000-01-01 01:00:00,2020-02-26 03:00:12,546d657897da814c3ac5a531c0506fc4-g.jpg,"Comprehension -- Problems, exercises, etc.;Problem solving -- Problems, exercises, etc.;Reasoning -- Problems, exercises, etc.",
32033537,Human Differences,,,,"Aiken, Lewis R",2014,,Taylor and Francis,Hoboken,737,354,English,,,,"9781410601551,1410601552,0805830928",,,,,,,,,,,0,,,,,,,,9224606,pdf,1C22CEAEEB0ABE746BA95AE860F4C4F9,,,F:\\!upload\\_books\\9781410601551-Human Differences.pdf,0,2000-01-01 01:00:00,2020-02-26 03:00:12,1c22ceaeeb0abe746ba95ae860f4c4f9-g.jpg,Individual differences.,
32033538,Literacy in a Digital World : Teaching and Learning in the Age of Information,,Routledge communication series,,"Tyner, Kathleen",2014,,Taylor and Francis,Hoboken,576,311,English,,,,"9781410601971,1410601978",,,,,,,,,,,0,,,,,,,,8481161,pdf,7EECA73F9915D531C7FA430DD1A30CAD,,,F:\\!upload\\_books\\9781410601971-Literacy in a Digital World.pdf,0,2000-01-01 01:00:00,2020-02-26 03:00:12,7eeca73f9915d531c7fa430dd1a30cad-g.jpg,Computers and literacy.;Educational innovations.;Mass media in education.;Media literacy.,
32033539,Visual Turn and the Transformation of the Textbook,,,,"LaSpina, James A",2014,,Taylor and Francis,Florence,269,285,English,,,,"9780805827019,0805827013,9781410602633,141060263X,0805827021",,,,,,,,,,,0,,,,,,,,6835376,pdf,39A5DF26BBF8F740F8DF9653C4275616,,,F:\\!upload\\_books\\9781410602633-The Visual Turn and the Transformation of the Textbook.pdf,0,2000-01-01 01:00:00,2020-02-26 03:00:12,39a5df26bbf8f740f8df9653c4275616-d.jpg,,
32033540,Utility of Gains and Losses Measurement-Theoretical and Experimental Approaches,,Scientific Psychology Series,,"Luce, R. Duncan",2014,,Taylor and Francis,Florence,344,344,English,,,,"9780805834604,0805834605,9781410602831,1410602834,8320003326",,,,,,,,,,,0,,,,,,,,8647300,pdf,2FDC4ED38A0BAE145450A75DC04B6227,,,F:\\!upload\\_books\\9781410602831-Utility of Gains and Losses.pdf,0,2000-01-01 01:00:00,2020-02-26 03:00:12,2fdc4ed38a0bae145450a75dc04b6227-d.jpg,,
32033541,"Coping With Divorce, Single Parenting, and Remarriage : a Risk and Resiliency Perspective",,,,"Hetherington, E. Mavis",2014,,Taylor and Francis,Hoboken,706,372,English,,,,"9781410602893,1410602893",,,,,,,,,,,0,,,,,,,,9282765,pdf,AB0FA6B856209301D2EC0E2373865A01,,,"F:\\!upload\\_books\\9781410602893-Coping With Divorce, Single Parenting, and Remarriage.pdf",0,2000-01-01 01:00:00,2020-02-26 03:00:12,ab0fa6b856209301d2ec0e2373865a01-g.jpg,Children of divorced parents -- Psychology.;Divorce -- Psychological aspects.;Divorced people -- Psychology.;Remarriage -- Psychological aspects.;Single-parent families -- Psychological aspects.;Stepfamilies -- Psychological aspects.,
32033542,An Assessment Guide To Geriatric Neuropsychology,,,,"Hadjistavropoulos, Thomas; Tuokko, Holly",2014,,Taylor and Francis,Hoboken,583,296,English,,,,"9780805819915,0805819916,9781410602916,1410602915",,,,,,,,,,,0,,,,,,,,7161656,pdf,BF49AF54BEB649F7B33A5944A9321037,,,F:\\!upload\\_books\\9781410602916-An Assessment Guide To Geriatric Neuropsychology.pdf,0,2000-01-01 01:00:00,2020-02-26 03:00:12,bf49af54beb649f7b33a5944a9321037-d.jpg,,
32033543,Latent Variable and Latent Structure Models,,Quantitative Methodology Series,,"Marcoulides, George A.; Moustaki, Irini",2014,,Taylor and Francis,Hoboken,522,296,English,,,,"9780805840469,080584046X,9781410602961,1410602966",,,,,,,,,,,0,,,,,,,,6195105,pdf,5FB2B955E4BE75DE6E699705C6882CD4,,,F:\\!upload\\_books\\9781410602961-Latent Variable and Latent Structure Models.pdf,0,2000-01-01 01:00:00,2020-02-26 03:00:12,5fb2b955e4be75de6e699705c6882cd4-d.jpg,,
32033544,Constructing the Beginning Discourses of Creation Science,,Routledge Communication Series,,"Locke, Simon",2014,,Routledge,,444,248,English,,,,"9780805823462,0805823468,9781410602992,1410602990,0805823476",,,,,,,,,,,0,,,,,,,,5045264,pdf,E8A4C0B06AB457545C01AD7D4D46F5A6,,,F:\\!upload\\_books\\9781410602992-Constructing The Beginning Discourses Of Creation Science.pdf,0,2000-01-01 01:00:00,2020-02-26 03:00:12,e8a4c0b06ab457545c01ad7d4d46f5a6-d.jpg,,
32033545,Psychological Perspectives on Deafness. Volume 2,,,,"Clark, M. Diane; Marschark, Marc",2014,First edition,Taylor and Francis,,346,357,English,,,,"9781410603302,141060330X,9781135683641",,,,,,,,,,,0,,,,,,,,9774818,pdf,62D642EB28084C57A4C60B147DDDCF4B,,,F:\\!upload\\_books\\9781410603302-Psychological Perspectives on Deafness.pdf,0,2000-01-01 01:00:00,2020-02-26 03:00:12,62d642eb28084c57a4c60b147dddcf4b-g.jpg,Deafness -- Psychological aspects.,
32033546,Dexterity and Its Development,,Resources for ecological psychology,,"Bernstein, Nicholai A.; Latash, Mark L",2014,1st ed,Taylor and Francis,Oxford,471,473,English,,,,"9781410603357,1410603350,0805816461",,,,,,,,,,,0,,,,,,,,11126739,pdf,4DB3829F32B3C971EFDA69256DFCD2FA,,,F:\\!upload\\_books\\9781410603357-Dexterity and Its Development.pdf,0,2000-01-01 01:00:00,2020-02-26 03:00:12,4db3829f32b3c971efda69256dfcd2fa-g.jpg,Biomechanics.;Motor ability.,
32033547,Clinician's Guide To Neuropsychological Assessment,,,,"Vanderploeg, Rodney D",2014,2nd ed,Taylor and Francis,Oxford,562,568,English,,,,"9781410603487,1410603482,0805836551,0805828346",,,,,,,,,,,0,,,,,,,,13205807,pdf,BE282B973234DE3AE3A44339857094DD,,,F:\\!upload\\_books\\9781410603487-Clinician's Guide To Neuropsychological Assessment.pdf,0,2000-01-01 01:00:00,2020-02-26 03:00:12,be282b973234de3ae3a44339857094dd-g.jpg,Clinical neuropsychology.;Neuropsychological tests.,
32033548,Statistical Analysis of Longitudinal Categorical Data in the Social and Behavioral Sciences An introduction With Computer Illustrations,,,,"Niedermeier, Keith E.; Von Eye, Alexander",2014,,Taylor and Francis,London,272,272,English,,,,"9780805831818,0805831819,9781410603524,1410603520,0805831827",,,,,,,,,,,0,,,,,,,,4217794,pdf,1975E3CDBD9C2F659C4A3C1537CB6923,,,F:\\!upload\\_books\\9781410603524-Statistical Analysis of Longitudinal Categorical Data in the Social and Behavioral Sciences.pdf,0,2000-01-01 01:00:00,2020-02-26 03:00:12,1975e3cdbd9c2f659c4a3c1537cb6923-d.jpg,,
32033549,"Becoming A Family Parents' Stories and Their Implications for Practice, Policy, and Research",,,,"Bolea, Patricia Stow; Colarossi, Lisa G.; Harold, Rena D",2014,,Taylor and Francis,Florence,240,243,English,,,,"9780805819618,0805819614,9781410605085,1410605086",,,,,,,,,,,0,,,,,,,,5240030,pdf,2BAA67200A350AC23A1AC3700FC61A90,,,F:\\!upload\\_books\\9781410605085-Becoming A Family.pdf,0,2000-01-01 01:00:00,2020-02-26 03:00:12,2baa67200a350ac23a1ac3700fc61a90-d.jpg,,
32033550,Children's Language,,,,"E.Nelson, Keith",2001,,Taylor & Francis,London,196,200,English,,,,"9781410605153,1410605159,0805832920",,,,,,,,,,,0,,,,,,,,4034292,pdf,126B43336C91CE39FA68035B0A0EBF57,,,F:\\!upload\\_books\\9781410605153-Children's Language Developing Narrative And Discourse Competence Volume 10.pdf,0,2000-01-01 01:00:00,2020-02-26 03:00:12,126b43336c91ce39fa68035b0a0ebf57-g.jpg,,
32033551,"Behavior, Health, and Aging",,Perspectives on Behavioral Medicine Series,,"Baum, Andrew S.; Jennings, Richard; Manuck, Stephen B.; Rabin, Bruce",2014,,Taylor and Francis,Hoboken,278,281,English,,,,"9780805834048,0805834044,9781410605160,1410605167",,,,,,,,,,,0,,,,,,,,6181803,pdf,E45FD3DE91896E8AC4DD233023CE087D,,,"F:\\!upload\\_books\\9781410605160-Behavior, Health, and Aging.pdf",0,2000-01-01 01:00:00,2020-02-26 03:00:12,e45fd3de91896e8ac4dd233023ce087d-d.jpg,,
32033552,Literacy in African American communities,,,,"Harris, Joyce L.; Kamhi, Alan G.; Pollock, Karen E",2001,,L. Erlbaum Associates,"Mahwah, N.J., United States",,344,English,,,,"9781135664695,1135664692,9781135664732,1135664730,9781135664749,1135664749,9781410605658,1410605655,080583401X,0805834028",,,,,,,,,,,0,,,,,,,,7505717,pdf,81FB464492C6E319F663E862AB7F73C8,,,F:\\!upload\\_books\\9781410605658-Literacy in African American Communities.pdf,0,2000-01-01 01:00:00,2020-02-26 03:00:13,81fb464492c6e319f663e862ab7f73c8-d.jpg,African Americans -- Education.;Literacy -- United States.;Literacy.;United States.,
32033553,Balancing Principles for Teaching Elementary Reading,,,,"Afflerbach, Peter; Baumann, James F.; Duffy-Hester, Ann M.; Hoffman, James V.; McCarthey, Sarah J",2014,,Routledge,,126,128,English,,,,"9780805829129,0805829121,9781410605788,1410605787,080582913X",,,,,,,,,,,0,,,,,,,,2548169,pdf,8D30B02F1FE4C18686D5469A5E3C2E07,,,F:\\!upload\\_books\\9781410605788-Balancing Principles for Teaching Elementary Reading.pdf,0,2000-01-01 01:00:00,2020-02-26 03:00:13,8d30b02f1fe4c18686d5469a5e3c2e07-d.jpg,,
32033554,"Perspectives on Thinking, Learning, and Cognitive Styles",,Educational Psychology Series,,"Sternberg, Robert J.; Zhang, Li-fang",2014,,Routledge,,287,289,English,,,,"9780805834307,0805834303,9781410605986,1410605981,0805834311",,,,,,,,,,,0,,,,,,,,6597057,pdf,B65FE90D448630492E082140BD3FC234,,,"F:\\!upload\\_books\\9781410605986-Perspectives on Thinking, Learning, and Cognitive Styles.pdf",0,2000-01-01 01:00:00,2020-02-26 03:00:13,b65fe90d448630492e082140bd3fc234-d.jpg,Denkstil;Kognition;Student;Lernverhalten,
32033555,"The Decline of Substance Use in Young Adulthood : Changes in Social Activities, Roles, and Beliefs",,Research Monographs in Adolescence Series,,"Bachman, Jerald G.; Bryant, Alison L.; Johnston, Lloyd D.; Merline, Alicia C.; O'Malley, Patrick M.; Schulenberg, John E",2014,,Taylor and Francis,Hoboken,322,331,English,,,,"9781410606013,1410606015,080583964X,9780415652346",,,,,,,,,,,0,,,,,,,,7818014,pdf,0F160EFA275AD45ED295B02171D83C00,,,F:\\!upload\\_books\\9781410606013-The Decline Of Substance Use In Young Adulthood Changes In Social Activities Roles And Beliefs.pdf,0,2000-01-01 01:00:00,2020-02-26 03:00:13,0f160efa275ad45ed295b02171d83c00-g.jpg,Attitudes.;Social life and customs.;Substance use.;Young adults.;Young adults -- Substance use -- United States.,
32033556,Globalization and Educational Rights An Intercivilizational Analysis,,Sociocultural Political and Historical Studies in Education,,"Spring, Joel",2014,,Taylor and Francis,Florence,199,200,English,,,,"9780805838817,0805838813,9781410606020,1410606023,0805838821",,,,,,,,,,,0,,,,,,,,4476581,pdf,F1B461D3F3EAEEB38B3C41245D43C25C,,,F:\\!upload\\_books\\9781410606020-Globalization and Educational Rights.pdf,0,2000-01-01 01:00:00,2020-02-26 03:00:13,f1b461d3f3eaeeb38b3c41245d43c25c-d.jpg,,
32033557,White News Why Local News Programs Don't Cover People of Color,,Routledge Communication Series,,"Heider, Don",2014,,Taylor and Francis,Hoboken,127,128,English,,,,"9780805834758,0805834753,9781410606105,1410606104,0805839569",,,,,,,,,,,0,,,,,,,,2284671,pdf,9B1E417B7D1B578B3258F7204C424ED4,,,F:\\!upload\\_books\\9781410606105-White News.pdf,0,2000-01-01 01:00:00,2020-02-26 03:00:13,9b1e417b7d1b578b3258f7204c424ed4-d.jpg,,
32033558,Peer Prejudice and Discrimination The Origins of Prejudice,,,,"Fishbein, Harold D",2014,2,Routledge,,352,352,English,,,,"9780805837711,080583771X,9781410606228,1410606228,0805837728",,,,,,,,,,,0,,,,,,,,6794752,pdf,49F145ADF6EEDF91C243CC9948D7532E,,,F:\\!upload\\_books\\9781410606228-PEER PREJUDICE AND DISCRIMINATION The Origins of Prejudice Second Edition.pdf,0,2000-01-01 01:00:00,2020-02-26 03:00:13,49f145adf6eedf91c243cc9948d7532e-d.jpg,,
32033559,The Spiritual World of Isaac the Syrian,,Cistercian Studies Series 175,,Hilarion Alfeyev,2000,,Cistercian Publications,,,332,English,,,,"6163878920,6163878390,8002044140,4163639409,5088858730,5088854687,087907775X,9780879077754",,,,,,,,,,,0,,,,,,,1,12517480,pdf,188E4DBD445F37B2C47BD5F115E3F8E3,,,The spiritual world of Isaac Syrian.pdf,0,2000-01-01 01:00:00,2020-02-26 03:00:13,188e4dbd445f37b2c47bd5f115e3f8e3-g.jpg,,
32033560,Geography (Quick Study Academic),,,,Terry Dyroff,2011,,QuickStudy,,,6,English,,,,1423217578,,,,,,,,,,,0,,,,,,1,1,5760818,pdf,A071487C4A8D6817407034CF693C2E87,,,Geography.pdf,0,2000-01-01 01:00:00,2020-02-26 03:00:13,a071487c4a8d6817407034cf693c2e87-g.jpg,,
32033561,"Sıkça Sorulan Sorular (Soru Kodları-Youtube, Yurtdışında Lise-Üniversite)",,,,Nils Yen Shoemaker,16 Şubat 2020,,Discord Supreme Elite Ultra Royal VIP Sınıf,Ankara,,19,Turkish,,,,,,,,,,,,,,,0,,,,,,,1,1319500,pdf,B52C3158F01C4E95A19AA64C65761B92,,,"Sıkça Sorulan Sorular (Soru Kodları-Youtube, Yurtdışında Lise-Üniversite).pdf",0,2000-01-01 01:00:00,2020-02-26 03:00:13,b52c3158f01c4e95a19aa64c65761b92-g.jpg,,
32033562,Applied multiple regression/correlation analysis for the behavioral sciences,,,,"Aiken, Leona S.; Cohen, Jacob; Cohen, Patricia; West, Stephen G",2003,Third edition,Lawrence Erlbaum Associates,,702,545,English,,,,"9780203774441,0203774442,9781134800940,1134800940,9781410606266,1410606260",,,,,,,,,,,0,,,,,,,,15335087,pdf,D77194F6BDBAC43CB2AADDF0C1B01893,,,F:\\!upload\\_books\\9781410606266-Applied Multiple Regression-Correlation Analysis for the Behavioral Sciences.pdf,0,2000-01-01 01:00:00,2020-02-26 03:00:13,d77194f6bdbac43cb2aaddf0c1b01893-g.jpg,Re,
32033563,Health Care and the Rise of Christianity,,,,Hector Avalos,1999,,Hendrickson Publishers,,,180,English,,,,1565633377,,,,,,,,,,,0,,,,,,,1,5959900,pdf,66A08991A4E2AB556CC360E87249FAE5,,,Health Care and the Rise of Christianity.pdf,0,2000-01-01 01:00:00,2020-02-26 03:00:13,66a08991a4e2ab556cc360e87249fae5-g.jpg,,
32033564,"American Dreams, Global Visions Dialogic Teacher Research With Refugee and Immigrant Families",,Sociocultural Political and Historical Studies in Education,,"Hones, Donald F",2014,,Routledge,,363,217,English,,,,"9780805837070,0805837078,9781410606532,1410606538,0805837086",,,,,,,,,,,0,,,,,,,,4337083,pdf,F0C3D7377F84DF3232850E71360B3DF1,,,"F:\\!upload\\_books\\9781410606532-American Dreams, Global Visions.pdf",0,2000-01-01 01:00:00,2020-02-26 03:00:13,f0c3d7377f84df3232850e71360b3df1-d.jpg,,
32033565,Crime and Local Television News,,,,"H.Lipschultz, Jeremy",2002,,Taylor & Francis,Milton,197,192,English,,,,"9781410606587,1410606589,0805836209,0805836217",,,,,,,,,,,0,,,,,,,,3876428,pdf,C13B44C16AE90B9EA65B7EDD6ADF3E05,,,"F:\\!upload\\_books\\9781410606587-Crime and Local Television News Dramatic, Breaking, and Live From the Scene.pdf",0,2000-01-01 01:00:00,2020-02-26 03:00:13,c13b44c16ae90b9ea65b7edd6adf3e05-g.jpg,,
32033566,World class : teaching and learning in global times,,,,"Gaudelli, William",2012,,Routledge,"New York, United States",214,238,English,,,,"9781410606839,141060683X",,,,,,,,,,,0,,,,,,,,4926884,pdf,12FDCC9EDEB3C806144F4EDAF205B89B,,,F:\\!upload\\_books\\9781410606839-World Class.pdf,0,2000-01-01 01:00:00,2020-02-26 03:00:13,12fdcc9edeb3c806144f4edaf205b89b-d.jpg,International education -- United States.;International education.;United States.,
32033567,"Progress in infancy Research, 3",,,,"Hayne, Harlene; Fagen, Jeffrey W",2002,,Taylor & Francis,Hoboken,296,328,English,,,,"9781410607010,1410607011,9780805843279",,,,,,,,,,,0,,,,,,,,6646894,pdf,4B707D0912A6B5ADC0A5D774BE6122D8,,,"F:\\!upload\\_books\\9781410607010-Progress In Infancy Research, Volume 3.pdf",0,2000-01-01 01:00:00,2020-02-26 03:00:13,4b707d0912a6b5adc0a5d774be6122d8-g.jpg,,
32033568,Formations of Belief: Historical Approaches to Religion and the Secular,,Publications in Partnership with the Shelby Cullom Davis Center at Princeton University (Book 6),,Philip Nord; Katja Guenther; Max Weiss; Anthony Grafton; Yaacob Dweck; Stefania Pastore; Peter R.L. Brown; Caterina Pizzigoni; Victoria Smolkin; Brad S. Gregory; Peter E. Gordon; Muhammad Qasim Zaman,2019,,Princeton University Press,,344,339,English,,,,"0691190755,9780691190754",,,,,,,,,,,0,,,,,,1,1,3754051,pdf,46632F6F360132BB92C25FB6DEC6A575,,,Formations of Belief.pdf,0,2000-01-01 01:00:00,2020-02-26 03:00:13,46632f6f360132bb92c25fb6dec6a575-d.jpg,,
32033569,"Socioeconomic Status, Parenting, and Child Development",,Monographs in Parenting Series,,"Bornstein, Marc H.; Bradley, Robert H",2014,,Psychology Press,,301,304,English,,,,"9780805842425,080584242X,9781410607027,141060702X,9780415654272",,,,,,,,,,,0,,,,,,,,6509199,pdf,E58C37646871800517EFA8D50D3EDBAA,,,"F:\\!upload\\_books\\9781410607027-Socioeconomic Status, Parenting,And Child Development.pdf",0,2000-01-01 01:00:00,2020-02-26 03:00:13,e58c37646871800517efa8d50d3edbaa-d.jpg,,
32033570,"Bolsheviks and British Jews: The Anglo-Jewish Community, Britain and the Russian Revolution",,,,Sharman Kadish,1992,1,Routledge,,312,317,English,,,,"0714633712,9780714633718",,,,,,,,,,,0,,,,,,1,1,4972927,pdf,2667722F31262858909EDFA43378CE4F,,,Bolsheviks and British Jews.pdf,0,2000-01-01 01:00:00,2020-02-26 03:00:13,2667722f31262858909edfa43378ce4f-g.jpg,,
32033571,The Impact of International Television,,,,"G.Elasmar, Michael",2002,,Taylor & Francis,Milton,224,211,English,,,,"9781410607041,1410607046,9780805842197,9780805842203",,,,,,,,,,,0,,,,,,,,4340272,pdf,693D2FD2751D973957713160A7D72FC6,,,F:\\!upload\\_books\\9781410607041-The Impact of International Television.pdf,0,2000-01-01 01:00:00,2020-02-26 03:00:13,693d2fd2751d973957713160a7d72fc6-g.jpg,,
32033572,Understanding Storytelling Among African American Children A Journey From Africa To America,,,,"Champion, Tempii B",2014,,Lawrence Erlbaum,,151,151,English,,,,"9780805834079,0805834079,9781410607102,1410607100",,,,,,,,,,,0,,,,,,,,2696850,pdf,5B629CAEF5F9CF7B05667AB618C63F32,,,F:\\!upload\\_books\\9781410607102-Understanding Storytelling Among African American Children.pdf,0,2000-01-01 01:00:00,2020-02-26 03:00:13,5b629caef5f9cf7b05667ab618c63f32-d.jpg,,
32033573,"History Lessons Teaching, Learning, and Testing in U",,,,"Grant, S. G",2014,,Routledge,,483,232,English,,,,"9780805845020,080584502X,9781410607607,1410607607",,,,,,,,,,,0,,,,,,,,5023609,pdf,34117FCF34563633E0A9CE94CB5E4FCF,,,F:\\!upload\\_books\\9781410607607-History Lessons.pdf,0,2000-01-01 01:00:00,2020-02-26 03:00:13,34117fcf34563633e0a9ce94cb5e4fcf-d.jpg,,
32033574,Visions of a Future A study of Christian Eschatology,,New Theology Series Volume 8,,Zachary Hayes,1989,,"Michael Glazier Wilmington, Delaware",,,220,English,,,,"0894537423,0894537768",,,,,,,,,,,0,,,,,,,1,12699042,pdf,68D68EC069859B3F0393E22CF930A8FF,,,Visions of a Future A study of Christian Eschatology.pdf,0,2000-01-01 01:00:00,2020-02-26 03:00:13,68d68ec069859b3f0393e22cf930a8ff-g.jpg,,
32033575,"Anglo-Soviet Relations, 1917-1921, Volume 1: Intervention and the War",,Princeton Legacy Library (Book 5376),,Richard Henry Ullman,2019,Reprint,Princeton University Press,,376,384,English,,,,"0691655111,9780691655116",,,,,,,,,,,0,,,,,,1,1,7355879,pdf,BCCAC03BD457B88F3312A252C0EEFA94,,,Anglo-Soviet Relations Vol. 1.pdf,0,2000-01-01 01:00:00,2020-02-26 03:00:13,bccac03bd457b88f3312a252c0eefa94-g.jpg,,
32033576,"Anglo-Soviet Relations, 1917-1921, Volume 2: Britain and the Russian Civil War",,Princeton Legacy Library (Book 5530),,James Ramsey Ullman,2019,Reprint,Princeton University Press,,432,432,English,,,,"069165512X,9780691655123",,,,,,,,,,,0,,,,,,1,1,7851456,pdf,3BC86DB5244597288A31922D3C768B28,,,Anglo-Soviet Relations Vol. 2.pdf,0,2000-01-01 01:00:00,2020-02-26 03:00:13,3bc86db5244597288a31922d3c768b28-g.jpg,,
32033577,"Anglo-Soviet Relations, 1917-1921, Volume 3: The Anglo-Soviet Accord",,Princeton Legacy Library (Book 5509),,James Ramsey Ullman,2019,,Princeton University Press,,536,536,English,,,,"0691655138,9780691655130",,,,,,,,,,,0,,,,,,1,1,9164941,pdf,F2E596CBD546E589B5E8B689DFB2BF58,,,Anglo-Soviet Relations Vol. 3.pdf,0,2000-01-01 01:00:00,2020-02-26 03:00:13,f2e596cbd546e589b5e8b689dfb2bf58-g.jpg,,
32033578,Psychomythics Sources of Artifacts and Misconceptions in Scientific Psychology,,,,"Uttal, William R",2014,,Psychology Press,,404,219,English,,,,"9780805845846,0805845844,9781410607614,1410607615,9780415651172",,,,,,,,,,,0,,,,,,,,5317155,pdf,9F9FC59168D90BC84300221874D7DCCD,,,F:\\!upload\\_books\\9781410607614-Psychomythics.pdf,0,2000-01-01 01:00:00,2020-02-26 03:00:13,9f9fc59168d90bc84300221874d7dccd-d.jpg,,
32033579,Спецслужбы мира на Ближнем Востоке /,,,,Лев Баусин,2001,,ОЛМА-ПРЕСС,М.,"413, [2] с., [16] л. ил.",448,Russian,,,,"5818900304,5224013062",,,,"Х811.120.110.12,0; Ц2,5(0)32; Ц8(53)1",,,,,,,0,,,,,,1,1,10328336,pdf,F141903D6E846911899C56A1CAE6ADA7,,,Спецслужбы мира на Ближнем Востоке.pdf,0,2000-01-01 01:00:00,2020-02-26 03:00:13,f141903d6e846911899c56a1cae6ada7-g.jpg,,
32033580,Media management : a casebook approach,,LEA's communication series,,"Wicks, Jan LeBlanc",2004,3rd ed,Lawrence Erlbaum,"Mahwah, NJ",326,336,English,,,,"9781410608956,1410608956",,,,,,,,,,,0,,,,,,,,6706024,pdf,E5A0BC3894BF4A17B421DF60F44DD929,,,F:\\!upload\\_books\\9781410608956-Media Management.pdf,0,2000-01-01 01:00:00,2020-02-26 03:00:13,e5a0bc3894bf4a17b421df60f44dd929-g.jpg,Mass media -- Management -- Case studies.;Mass media -- Management.,
32033581,Assessing Expressive Learning A Practical Guide for Teacher-directed Authentic Assessment in K-12 Visual Arts Education,,,,"Dorn, Charles M.; Madeja, Stanley S.; Sabol, Robert",2014,,Routledge,,381,480,English,,,,"9780805845235,0805845232,9781410608970,1410608972",,,,,,,,,,,0,,,,,,,,3948870,pdf,4AC16AA7C44196537486A5D701F9716B,,,F:\\!upload\\_books\\9781410608970-Assessing Expressive Learning.pdf,0,2000-01-01 01:00:00,2020-02-26 03:00:13,4ac16aa7c44196537486a5d701f9716b-g.jpg,,
32033582,"Group Creativity Music, Theater, Collaboration",,,,"Sawyer, R. Keith",2014,,Routledge,,378,225,English,,,,"9780805844351,080584435X,9781410609090,141060909X,0805844368",,,,,,,,,,,0,,,,,,,,4629840,pdf,4C2F954AB4B1995E818CCEC69175199B,,,F:\\!upload\\_books\\9781410609090-Group Creativity.pdf,0,2000-01-01 01:00:00,2020-02-26 03:00:13,4c2f954ab4b1995e818ccec69175199b-d.jpg,,
32033583,Relational Communication An Interactional Perspective To the Study of Process and Form,,LEA's Series on Personal Relationships,,"Escudero, Valent¡n; Rogers, L. Edna",2014,,Lawrence Erlbaum,,273,272,English,,,,"9780805837124,0805837124,9781410609656,1410609650",,,,,,,,,,,0,,,,,,,,4956633,pdf,F73DDF159A1688F6311DF2AC05971F19,,,F:\\!upload\\_books\\9781410609656-Relational Communication.pdf,0,2000-01-01 01:00:00,2020-02-26 03:00:13,f73ddf159a1688f6311df2ac05971f19-d.jpg,Zwischenmenschliche Beziehung;Interpersonale Kommunikation;Familientherapie,
32033584,Work-Family Challenges for Low-Income Parents and Their Children,,Penn State University Family Issues Symposia Series,,"Booth, Alan; Crouter, Ann C",2014,,Psychology Press,,317,305,English,,,,"9780805846003,080584600X,9781410609755,1410609758,0805850775",,,,,,,,,,,0,,,,,,,,6414743,pdf,DB7AEC8922E0B2A05A0DCC4F86735C73,,,F:\\!upload\\_books\\9781410609755-Work-Family Challenges for Low-Income Parents and Their Children.pdf,0,2000-01-01 01:00:00,2020-02-26 03:00:13,db7aec8922e0b2a05a0dcc4f86735c73-d.jpg,,
32033585,Managing Uncertainty in Organizational Communication,,Routledge Communication Series,,"Kramer, Michael W",2014,,Routledge,,486,264,English,,,,"9780805849202,0805849203,9781410609854,1410609855,9780415649896",,,,,,,,,,,0,,,,,,,,5227339,pdf,CCD6DBFECA3C1F9DF88B6DB7E6863BB3,,,F:\\!upload\\_books\\9781410609854-Managing Uncertainty in Organizational Communication.pdf,0,2000-01-01 01:00:00,2020-02-26 03:00:14,ccd6dbfeca3c1f9df88b6db7e6863bb3-d.jpg,,
32033586,Guide to Publishing in Scholarly Communication Journals,,Published for the International Communication Association,,"Daly, John A.; Knapp, Mark L",2014,3,Taylor and Francis,Mahwah,68,68,English,,,,"9780805849523,0805849521,9781410610157,1410610152",,,,,,,,,,,0,,,,,,,,1075160,pdf,6C83BEE883AA35163DAC6C5556469D1E,,,F:\\!upload\\_books\\9781410610157-A Guide to Publishing in Scholarly Communication Journals.pdf,0,2000-01-01 01:00:00,2020-02-26 03:00:14,6c83bee883aa35163dac6c5556469d1e-d.jpg,,
32033587,Simple Treatments for Complex Problems A Flexible Cognitive Behavior Analysis System Approach To Psychotherapy,,,,"Cukrowicz, Kelly C.; Driscoll, Kimberly A.; Lyons Reardon, Maureen",2014,,Taylor and Francis,Florence,255,256,English,,,,"9780805846430,0805846433,9781410610232,1410610233",,,,,,,,,,,0,,,,,,,,4759120,pdf,0D80AC54F87A5D78B93DB6800AB189DF,,,F:\\!upload\\_books\\9781410610232-Simple Treatments for Complex Problems.pdf,0,2000-01-01 01:00:00,2020-02-26 03:00:14,0d80ac54f87a5d78b93db6800ab189df-d.jpg,,
32033588,Holy Bible : recovery version,,,,"Lee, Witness",2003,1st ed,Living Stream Ministry,"Anaheim, CA",,0,English,,,,"9780736324205,0736324208,9780736332422,0736332421",,,,,,,,,,,0,,,,,,,,3663475,azw3,4EA05F9AF3DCB6C104036FB9F430933A,,,F:\\!upload\\_books\\Holy Bible Recovery Version.azw3,0,2000-01-01 01:00:00,2020-02-26 03:00:14,4ea05f9af3dcb6c104036fb9f430933a-g.jpg,Bible. -- Versions -- Recovery.;Bible.,
32033589,Holy Bible : recovery version,,,,"Lee, Witness",2003,1st ed,Living Stream Ministry,"Anaheim, CA",,0,English,,,,"9780736324205,0736324208,9780736332422,0736332421",,,,,,,,,,,0,,,,,,,,2503685,epub,77AF166CAE712A92ADD49B71D3B66B68,,,F:\\!upload\\_books\\Holy Bible Recovery Version.epub,0,2000-01-01 01:00:00,2020-02-26 03:00:14,77af166cae712a92add49b71d3b66b68-g.jpg,Bible. -- Versions -- Recovery.;Bible.,
32033590,Holy Bible : recovery version,,,,"Lee, Witness",2003,1st ed,Living Stream Ministry,"Anaheim, CA",,0,English,,,,"9780736324205,0736324208,9780736332422,0736332421",,,,,,,,,,,0,,,,,,,,2756141,mobi,BF70F8AB34B603F2997B7006CE772AAD,,,F:\\!upload\\_books\\Holy Bible Recovery Version.mobi,0,2000-01-01 01:00:00,2020-02-26 03:00:14,bf70f8ab34b603f2997b7006ce772aad-g.jpg,Bible. -- Versions -- Recovery.;Bible.,
32033591,I never knew that about England,,,,"Winn, Chris",2012,,Ebury Digital,,288,296,English,,,,"9781448146062,1448146062",,,,,,,,,,,0,,,,,,,,274472816,pdf,516572451A48AB7B76F9AEB039782AE6,,,F:\\!upload\\_books\\I Never Knew That About England.pdf,0,2000-01-01 01:00:00,2020-02-26 03:00:14,516572451a48ab7b76f9aeb039782ae6-g.jpg,England -- Miscellanea.;England -- Description and travel.;Great Britain -- History.;Travel writing.;Travel.;England.;Great Britain.;England,
32033592,Interactive Spark using PySpark,,,,"Jenny Kim, Benjamin Bengfort",2016,1,"O'Reilly Media, Inc.",,20,0,English,,,,"9781491965313,1491965312",,,,,,,,,,,0,,,,,,,,802841,epub,A943227D80F020D5AF0E6130C15CD771,,,F:\\!upload\\_books\\Interactive Spark using PySpark.epub,0,2000-01-01 01:00:00,2020-02-26 03:00:14,a943227d80f020d5af0e6130c15cd771-g.jpg,Python (Computer program language),
32033593,Internet of Things with Python,,,,Gastón C. Hillar,2018,,Packt Publishing,,,0,English,,,,,,,,,,,,,,,0,,,,,,,,22038075,epub,729FE5CBABA4B57748EF3646477E357A,,,F:\\!upload\\_books\\Internet of Things with Python.epub,0,2000-01-01 01:00:00,2020-02-26 03:00:14,729fe5cbaba4b57748ef3646477e357a-g.jpg,,
32033594,"Introducing Data Science : Big data, machine learning, and more, using Python tools",,,,Arno D. B. Meysman Davy Cielen & Mohamed Ali,2016,1st edition,Manning Publications,,320,0,English,,,,,,,,,,,,,,,0,,,,,,,,14007341,epub,7C7659C8C276701013CB21538A37274D,,,"F:\\!upload\\_books\\Introducing Data Science Big data, machine learning, and more, using Python tools.epub",0,2000-01-01 01:00:00,2020-02-26 03:00:14,7c7659c8c276701013cb21538a37274d-d.jpg,Python (Computer program language),
32033595,Introducing Python,,,,Bill Lubanovic,2018,,"O'Reilly Media, Inc.",,,0,English,,,,,,,,,,,,,,,0,,,,,,,,2724847,epub,F23562E7890B0316445642251F82CED6,,,F:\\!upload\\_books\\Introducing Python.epub,0,2000-01-01 01:00:00,2020-02-26 03:00:14,f23562e7890b0316445642251f82ced6-g.jpg,,
32033596,はじめての女性画レッスン帳,,,,岩崎 宏,2009,,株式会社エムディエヌコーポレーション / MdN Corporation,,,0,Japanese,,,,3684845271,,,,,,,,,,,0,,,,,,,,35100043,epub,64A5AC8D313C05ABE78B392107BD2ECC,,,hazimetenoNu Xing Hua retusunZh - Yan Qi  Hong.epub,0,2000-01-01 01:00:00,2020-02-26 03:00:14,64a5ac8d313c05abe78b392107bd2ecc-g.jpg,,
32033597,Science in the Medieval World,,,,Sa`id al-Andalusi,2010,1,University of Texas Press,,144,0,English,,,,"0292704690,9780292704695",,B00EP3NNJI,,,,,,,,,0,,,,,0,,1,2869166,epub,EEBE1827C9AF3578EABBCAF81BFC14FC,,,Science in the Medieval World - Sa`id al-Andalusi.epub,0,2000-01-01 01:00:00,2020-02-26 03:10:01,eebe1827c9af3578eabbcaf81bfc14fc-g.jpg,,
32033598,The Qur'an: An Eternal Challenge,,,,"Draz, Muhammad Abdullah; Salahi, Adil",2017,,Kube Publishing Ltd,,,0,English,,,,"9780860376491,0860376494",,,,,,,,,,,0,,,,,,,,848720,epub,947A17B2911D7B1C24012A2578337431,,,The Qur'an - Muhammad Abdullah Draz.epub,0,2000-01-01 01:00:00,2020-02-26 03:10:01,947a17b2911d7b1c24012a2578337431-g.jpg,,
32033599,セクシーに魅せる！萌える下着の描き方 (コスミックムック),,,,うめ丸; ぶんぼん; 218,2019,,コスミック出版 / Cosmic Publishing,,,0,Japanese,,,,"4774786632,9784774786636",,,,,,,,,,,0,,,,,,,,62658865,epub,32031E2495C42C5BBE1128211D52C514,,,sekusiniMei seru!Meng eruXia Zh - umeWan.epub,0,2000-01-01 01:00:00,2020-02-26 03:10:01,32031e2495c42c5bbe1128211d52c514-g.jpg,,
32033600,"Web Security, Privacy & Commerce",,,,"Spafford, Gene, Garfinkel, Simson & Gene Spafford",2011,,O'Reilly Media,,,0,English,,,,"2897261633,1880446839,6173442329,9781449387372",,,,,,,,,,,0,,,,,,,,7086826,epub,8A9C2FC7A448D3779FD1F257F9E294E8,,,"N:\\!genesis_\\0day\\!non_fiction\\Web Security, Privacy & Commerce.epub",0,2000-01-01 01:00:00,2020-02-26 03:10:01,8a9c2fc7a448d3779fd1f257f9e294e8-g.jpg,,
32033601,Whipping Girl: A Transsexual Woman on Sexism and the Scapegoating of Femininity,,,,"Serano, Julia",2009,,Perseus Books Group,,,0,English,,,,"1580052010,158005210X,1580051731,1580051847,158005160X,9780786747917",,,,,,,,,,,0,,,,,,,,422926,epub,05E25EFBBFA630FB254BF05A14E0B377,,,N:\\!genesis_\\0day\\!non_fiction\\Whipping Girl_ A Transsexual Woman on Sexism and the Scapegoating of Femininity.epub,0,2000-01-01 01:00:00,2020-02-26 03:10:02,05e25efbbfa630fb254bf05a14e0b377-g.jpg,,
32033602,WordPress for Education,,,,"Scott, Adam D.",2012,,Packt Publishing,,,0,English,,,,9781849518208,,,,,,,,,,,0,,,,,,,,8149632,epub,DD8CE556CC14D81649D32DAEA2EBB2B8,,,N:\\!genesis_\\0day\\!non_fiction\\WordPress for Education.epub,0,2000-01-01 01:00:00,2020-02-26 03:10:02,dd8ce556cc14d81649d32daea2ebb2b8-g.jpg,,
32033603,Your Brain on Sex,,,,Stanley Siegel LCSW,2011,,"Sourcebooks, Inc.",,,0,English,,,,,,,,,,,,,,,0,,,,,,,,808232,epub,42508E28FCF25BB4E39BDF6836454FB7,,,N:\\!genesis_\\0day\\!non_fiction\\Your Brain on Sex.epub,0,2000-01-01 01:00:00,2020-02-26 03:10:02,42508e28fcf25bb4e39bdf6836454fb7-g.jpg,,
32033604,Zen and the Art of Motorcycle Maintenance,,,,Robert M. Pirsig,2005,,HarperPerennial,,,0,English,,,,9780060839871,,,,,,,,,,,0,,,,,,,,368140,epub,96260E4751D0A418C213A90E77F5C0DF,,,N:\\!genesis_\\0day\\!non_fiction\\Zen and the Art of Motorcycle Maintenance.epub,0,2000-01-01 01:00:00,2020-02-26 03:10:02,96260e4751d0a418c213a90e77f5c0df-g.jpg,,
32033605,Zenboeddhisme : de kunst van het loslaten,,Oosterse filosofie 3,,Michel Dijkstra,2010,,Ambo|Amsterdam,Amsterdam,233,0,Dutch,,,,"9789026323690,9026323697",,,,,,,,,,,0,,,,,,,,241059,epub,3CDA2EFB52BC32E04F029D415B866140,,,N:\\!genesis_\\0day\\!non_fiction\\Zenboeddhisme.epub,0,2000-01-01 01:00:00,2020-02-26 03:10:02,3cda2efb52bc32e04f029d415b866140-g.jpg,Zenboeddhisme.;zen-boeddhisme.,
32033606,101 more things to do with a cake mix,,,,Stephanie Ashcraft,2010,,Gibbs Smith,"Salt Lake City, Utah",35,0,English,,,,"9781423612209,1423612205",,,,,,,,,,,0,,,,,,,,219767,epub,B62E5391FEA8C3AAF4F2F225B8E90CA3,,,N:\\!genesis_\\0day\\101 More Things To Do With A Cake Mix - Stephanie Ashcraft.epub,0,2000-01-01 01:00:00,2020-02-26 03:10:02,b62e5391fea8c3aaf4f2f225b8e90ca3-g.jpg,Cake.;COOKING -- Courses & Dishes -- Desserts.;Desserts.,
32033607,15 Pancakes - Vegan Dessert Recipes: Delicious Vegan Pancakes to delight your day!,,Vegan Recipes Book 6,,Abby Kiowes,2015,,Omkar Nisal,,,0,English,,,,,,B00RPHMMSY,,,,,,,,,0,,,,,,,,109732,epub,364D34AED32A3CD107CF0505724E1075,,,N:\\!genesis_\\0day\\15 Pancakes - Vegan Dessert Rec - Abby Kiowes.epub,0,2000-01-01 01:00:00,2020-02-26 03:10:02,364d34aed32a3cd107cf0505724e1075-g.jpg,,
32033608,15 Pancakes - Vegan Dessert Recipes: Delicious Vegan Pancakes to delight your day!,,Vegan Recipes Book 6,,Abby Kiowes,2015,,Omkar Nisal,,,0,English,,,,,,,,,,,,,,,0,,,,,,,,360000,mobi,D32395B69C31512D2865054AC8EC521C,,,N:\\!genesis_\\0day\\15 Pancakes - Vegan Dessert Rec - Abby Kiowes.mobi,0,2000-01-01 01:00:00,2020-02-26 03:10:02,d32395b69c31512d2865054ac8ec521c-g.jpg,,
32033609,20 Easy Recipes for Cast Iron Cooking,,,,Adele Cliff,2013,,,,,0,English,,,,,,,,,,,,,,,0,,,,,,,,105811,mobi,0372F5B7229D58BAF5F666DA2DF351C0,,,N:\\!genesis_\\0day\\20 Easy Recipes for Cast Iron Cooking - Adele Cliff.mobi,0,2000-01-01 01:00:00,2020-02-26 03:10:02,0372f5b7229d58baf5f666da2df351c0-g.jpg,,
32033610,20 Healthier Self Cake Recipes,,,,"Mason, Noah",2014,,The Healthier Self,,,0,English,,,,,,B00RM7UVTE,,,,,,,,,0,,,,,,,,187364,azw3,4923362E1A350E071E3DD05C6418B354,,,N:\\!genesis_\\0day\\20 Healthier Self Cake Recipes - Noah Mason.azw3,0,2000-01-01 01:00:00,2020-02-26 03:10:02,4923362e1a350e071e3dd05c6418b354-g.jpg,,
32033611,Традиции Преображающего Видения в Иудаизме и Христианстве,,,,Андрей Александрович Орлов и  Томас Гарсия-Уидобро,2020,,Институт Св. Фомы,Москва,329,329,Russian,,,,9785604230060,,,,,,,,,,,0,,,,,,,1,4010545,pdf,37E38936CE1F86898654139055B76C7B,,,Transformational Vision in Judaism and Christianity.pdf,0,2000-01-01 01:00:00,2020-02-26 03:10:02,37e38936ce1f86898654139055b76c7b-g.jpg,,
32033612,Ветхозаветные псевдоэпиграфы в славянской традиции,,,,Андрей Александрович Орлов,2020,,Институт Св. Фомы,Москва,629,629,Russian,,,,9785604230084,,,,,,,,,,,0,,,,,,,1,2348486,pdf,9853EFFC5AD2447644F29FEDCFFDBF99,,,Orlov 2020 - Old Testament Pseudepigrapha in Slavonic Tradition.pdf,0,2000-01-01 01:00:00,2020-02-26 03:10:02,9853effc5ad2447644f29fedcffdbf99-g.jpg,,
32033613,Exposing Lies of the Empire,,,,Andre Vltchek,2015,,Badak Merah,,802,828,English,,,,"6027005866,9786027005860",,,,,,,,09YUjwEACAAJ,,,0,,,,,,,1,400792606,pdf,7D5D393510B30EC0C41F945C9D228C9A,,,Exposing Lies of the Empire.pdf,0,2000-01-01 01:00:00,2020-02-26 03:10:02,7d5d393510b30ec0c41f945c9d228c9a-g.jpg,,
32033614,Pocket PC for dummies,,,,Brian Underdahl,,2,,,,390,,,,,8555510778,,,,,,,,,,,0,,,,,,,1,53088277,pdf,AE3BE338EC6D82300E6A1EAC2E491C41,,,"Pocket PC for dummies, second e - Underdahl, Brian;Underdahl, Bri.pdf",0,2000-01-01 01:00:00,2020-02-26 03:10:02,ae3be338ec6d82300e6a1eac2e491c41-g.jpg,,
32033615,Power plant engineering,,,,"Raja, A. K.; Srivastava, Amit Prakash; Dwivedi, Manish",2006,,"New Age International (P) Ltd., Publishers",New Delhi,470,166,English,,,,"9781281224477,1281224472,9788122418316,8122418317",,,,,,,,,,,0,,,,,,,,470487443,pdf,4A4A143DFC4EE7FB01A0A1E0787947D8,,,N:\\!genesis_\\0day\\7) Power Plant Engineering.pdf,0,2000-01-01 01:00:00,2020-02-26 03:10:02,4a4a143dfc4ee7fb01a0a1e0787947d8-g.jpg,Power-plants.;Power (Mechanics);Power resources.;TECHNOLOGY & ENGINEERING -- Electrical.,
32033616,3D ohne 3D-Brille Handbuch der Autostereoskopie,,,,"Grasnick, Armin",2016,,Springer Berlin Heidelberg,,,209,English,,,,"9783642305092,9783642305108",,,,,,,,,,,0,,,,,,,,11942979,pdf,C127C65A5B00DB40FC2B08DDDA4D8B15,,,N:\\!genesis_\\0day\\Armin Grasnick - 3D ohne 3D-Brille Handbuch der Autostereoskopie\\Armin Grasnick - 3D ohne 3D-Brille Handbuch der Autostereoskopie.pdf,0,2000-01-01 01:00:00,2020-02-26 03:10:02,c127c65a5b00db40fc2b08ddda4d8b15-g.jpg,,
32033617,Besser backen leicht gemacht,,Meine-Familie- & -ich-Kochbuch,,Mechthild Piepenbrock-Fischer,1978,,Burda,Offenburg,124,121,German,,,,,,,,,,,,,,,0,,,,,,,,20776285,pdf,CB9B30922DA7DB12ACF982448FDE7905,,,N:\\!genesis_\\0day\\book_ger1\\besser_backen_leicht_gemacht.pdf,0,2000-01-01 01:00:00,2020-02-26 03:10:02,cb9b30922da7db12acf982448fde7905-g.jpg,Gebäckrezept,
32033618,"Thermomix \Tier-\"" frei Schnauze : \""Vegan ist in--vegan macht kreativ\""""",,,,"Canan, Petra; Terpoorten, Heidi",2013,,Books on Demand,,,172,German,,,,"9783732221622,3732221628",,,,,,,,,,,0,,,,,,,,1557139,pdf,432352F7BC127ADCB6DB25EBCE5A2909,,,"N:\\!genesis_\\0day\\book_ger1\\Canan, Petra - Thermomix frei Schnauze  1 (BoD, 2011).pdf",0,2000-01-01 01:00:00,2020-02-26 03:10:02,432352f7bc127adcb6db25ebce5a2909-g.jpg,Vegan cooking.;Vegetarian cooking.,
32033619,Take Control of Home Security Cameras,,,,Glenn Fleishman,2020,,Take Control Books,,132,0,English,,,,9781947282506,,B0855JGYS6,,,,,,,,,0,,,,,,,,15477484,epub,36F1A2E3E5D2B570E83CF7F228370FD9,,,Take Control of Home Security Cameras.epub,0,2000-01-01 01:00:00,2020-02-26 03:10:02,36f1a2e3e5d2b570e83cf7f228370fd9-d.jpg,,
32033620,Defiance! - withstanding the kaiserschlacht,,,,"Nichols, G. H. F",2015,,Pen & Sword,,272,126,English,,,,"9781473833562,1473833566,9781473866935,9781473866928,9781473866911",,,,,,,,,,,0,,,,,,,,2802168,pdf,05DE1DB6C4CFC8CC751C328BC71E232F,,,N:\\!genesis_\\0day\\book_ger1\\Defiance Withstanding the Kaiserschlacht.pdf,0,2000-01-01 01:00:00,2020-02-26 03:10:02,05de1db6c4cfc8cc751c328bc71e232f-d.jpg,,
32033621,"Die nordische Seele Artung, Prägung, Ausdruck",,,,Ludwig Ferdinand Clauss,1932,2,Lehmann,München,91,196,German,,,,,,,,,,,,,,,0,,,,,,,,6308724,pdf,9698B8C0E3076405CF31D8AC972DD556,,,"N:\\!genesis_\\0day\\book_ger1\\Die nordische Seele - Clauss, Ludwig.pdf",0,2000-01-01 01:00:00,2020-02-26 03:10:02,9698b8c0e3076405cf31d8ac972dd556-g.jpg,Geschichtsphilosophie;Teutonic race;Ethnopsychology,
32033622,Elektromagnetische Schirmung : Theorie und Praxisbeispiele,,VDI-Buch,,"Wolfsperger, Hans A",2008,,Springer,Berlin,506,516,German,,,,"9783540769125,3540769129,9786611276157,6611276157,9783540769132",,,,,,,,,,,0,,,,,,,,7070043,pdf,7CF5454F91F23BDAD2E31C83FAEEA555,,,"N:\\!genesis_\\0day\\book_ger1\\Elektromagnetische Schirmung - Wolfsperger, A. Hans.pdf",0,2000-01-01 01:00:00,2020-02-26 03:10:02,7cf5454f91f23bdad2e31c83faeea555-d.jpg,Shielding (Electricity);Magnetic shielding.;Magnetic shielding,
32033623,Familienrezepte. 2. Noch mehr leckere Rezepte der WDR-Zuschauer,,,,,2007,,Schlütersche,Hannover,144,78,German,,,,"9783899937213,389993721X",,,,,,,,,,,0,,,,,,,,6566587,pdf,C47A9CBA99EA6F5234F20B52C5FDA317,,,N:\\!genesis_\\0day\\book_ger1\\Familienrezepte 2.pdf,0,2000-01-01 01:00:00,2020-02-26 03:10:02,c47a9cba99ea6f5234f20b52c5fda317-g.jpg,,
32033624,Fordern statt Verwöhnen: die Erkenntnisse der Verhaltensbiologie in der Erziehung,,Piper 2895,,Felix von Cube,2010,7,Piper,München,322,325,German,,,,"9783492228954,349222895X",,,,,,,,,,,0,,,,,,,,2035086,pdf,D8C4AE175BBEC67C4AD928A09BD10904,,,N:\\!genesis_\\0day\\book_ger1\\Fordern statt verwohnen - Felix von Cube.pdf,0,2000-01-01 01:00:00,2020-02-26 03:10:02,d8c4ae175bbec67c4ad928a09bd10904-g.jpg,Aggression.;Erziehung.;Führung.;Leistungsprinzip.;Pädagogik.;Verhaltensforschung.;Verwöhnung.;Wohlstandsgesellschaft.;Öko-Ethologie.,
32033625,Lehr- und Studienbriefe Kriminalistik / Kriminologie. Bd. 17: Grundlagen der Kriminaltechnik II,,Lehr- und Studienbriefe Kriminalistik.; Kriminologie,,"Rabe, Frank; Frings, Christoph",2011,1,Verl. Dt. Polizeiliteratur,Hilden,112,542,German,,,,"9783801106645,3801106640,9783801106973",,,,,,,,,,,0,,,,,,,,6245291,pdf,864CDA8F8F85E93C23E949944CA56C23,,,N:\\!genesis_\\0day\\book_ger1\\Grundlagen der Kriminaltechnik II - Frings & Rabe.pdf,0,2000-01-01 01:00:00,2020-02-26 03:10:02,864cda8f8f85e93c23e949944ca56c23-g.jpg,Schusswaffe.;Spurenauswertung.,
32033626,Bunte Salate: frische Kombinationen für alle Jahreszeiten: jedes Rezept in Farbe,,GU-Küchen-Ratgeber,,"Annette Wolter, Martina Reigl, Odette Teubner",1996,8,Gräfe und Unzer,München,64,66,German,,,,"9783774259058,3774259054",,,,,,,,,,,0,,,,,,,,35966295,pdf,C2B5DCCD7BBB2D605093612ACA84499E,,,N:\\!genesis_\\0day\\book_ger1\\GU - Bunte Salate - GU.pdf,0,2000-01-01 01:00:00,2020-02-26 03:10:02,c2b5dccd7bbb2d605093612aca84499e-g.jpg,Salat.;Kochbuch.;Salat -- Kochbuch,
32033627,Genesis 12-36: A Continental Commentary,,,,Claus Westermann,1985,,Fortress Press,,,596,English,,,,0806621729,,,,,,,,,,,0,,,,,,,1,27307955,pdf,AA7A1164054F7C331AA4D423F9D9836F,,,genesis_westermann_v2.pdf,0,2000-01-01 01:00:00,2020-02-26 03:10:02,aa7a1164054f7c331aa4d423f9d9836f-g.jpg,,
32033628,Symbol & Icon Dionysius the Areopagite and the Iconoclastic Crisis,,,,Filip Ivanović,2010,,PW Press,,,63,English,,,,"9781608993352,9781498272339",,,,,,,,,,,0,,,,,,,1,674036,pdf,94C013FFB76800C0059E3B497C87E5EC,,,yujtjrthtyujrt.pdf,0,2000-01-01 01:00:00,2020-02-26 03:10:02,94c013ffb76800c0059e3b497c87e5ec-g.jpg,,
32033629,"Das große GU-Familien-Kochbuch : frische Jahreszeitenküche aus dem Supermarkt ; [schnell, einfach, preiswert]",,,,"Brauner, Michael; Bodensteiner, Susanne; Cramm, Dagmar von",2009,11. Aufl,Gräfe und Unzer,München,240,151,German,,,,"9783774216952,3774216959",,,,,,,,,,,0,,,,,,,,60258869,pdf,4C820CC40D280515D2A27D9A81E3399D,,,N:\\!genesis_\\0day\\book_ger1\\GU - Das grosse Familien Kochbuch - GU.pdf,0,2000-01-01 01:00:00,2020-02-26 03:10:02,4c820cc40d280515d2a27d9a81e3399d-g.jpg,Kochbuch.,
32033630,"Liköre und Schnäpse selbst gemacht geistvolle Getränke aus Beeren, Früchten und Kräutern - zum Geniessen und Verschenken",,GU-Küchen-Ratgeber,,"Müller, Veronika",1990,3. Aufl,Gräfe und Unzer,München,54,56,German,,,,"9783774236424,3774236429",,,,,,,,,,,0,,,,,,,,9605369,pdf,FDEC06B11321AFD20DAEAD73AF049621,,,N:\\!genesis_\\0day\\book_ger1\\GU - Likore und Schnapse selbst gemacht - GU.pdf,0,2000-01-01 01:00:00,2020-02-26 03:10:02,fdec06b11321afd20daead73af049621-g.jpg,Likörherstellung;Branntweinherstellung,
32033631,Studienbuch Rhetorik,,,,"L. Kolmer, C.  Rob-Santer",2002,,UTB Verlag,,,238,German,,,,"3506970178,3825223353",,,,,,,,,,,0,,,,,,,1,1128174,pdf,CA7E36F646B2CE1028B140DDC60FD8EC,,,ebook.pdf,0,2000-01-01 01:00:00,2020-02-26 03:10:03,ca7e36f646b2ce1028b140ddc60fd8ec-g.jpg,,
32033632,Secrets of the Combined Astrology: The Full 144 Combinations of the Chinese & Western Zodiac Signs,,,,Zakariya Adeel,2016,,Dodona Books,,760,0,English,,,,"1782794689,9781782794684",,,,,,,,,,,0,,,,,,,,3702332,epub,9FAD8B3C3043C25D29909E68406664EC,,,Secrets Of The Combined Astrology; The Full 144 Combinations Of The Chinese & Western Zodiac Signs — Zakariya Adeel (2016).epub,0,2000-01-01 01:00:00,2020-02-26 03:10:03,9fad8b3c3043c25d29909e68406664ec-g.jpg,,
32033633,Media Essentials,,,,Richard Campbell,2019,5,Bedford/St. Martin's,,,1351,English,,,,"1319208177,9781319208172",,,,,,,,,,,0,1,,0,,0,1,1,38017269,pdf,3A474D99361D59DDF9DB36C719A8E6E9,,,Media Essentials 5th - Richard Campbell.pdf,0,2000-01-01 01:00:00,2020-02-26 03:10:03,3a474d99361d59ddf9db36c719a8e6e9-g.jpg,,
32033634,What Great Brands Do,,,,Denise Lee Yohn,2013,,Wiley,,,0,English,,,,"9786468600,9781118611258,9781118824405,9781118824337",,,,,,,,,,,0,,,,,,,,1223118,epub,62E6E81960859F24FAEA228F1054A1F2,,,N:\\!genesis_\\0day\\!non_fiction\\What Great Brands Do.epub,0,2000-01-01 01:00:00,2020-02-26 03:30:01,62e6e81960859f24faea228f1054a1f2-g.jpg,,
32033635,Reason for Life: Positive Action with Moral Purpose,,,,Jerry I. Jacobson,2012,,Abbott Press,,130,0,English,,,,"1458202712,9781458202710",,,,,,,,,,,0,,,,,,,,47651316,epub,3B6B5B35289228D43547BF32903D993C,,,Reason For Life; Positive Action With Moral Purpose — Dr. Jerry I. Jacobson (2012).epub,0,2000-01-01 01:00:00,2020-02-26 03:30:01,3b6b5b35289228d43547bf32903d993c-g.jpg,,
32033636,Muffins : süß & pikant,,Gu leicht gemacht,,"Spaeth, Radu",2004,Genehmigte Sonderausg,"Gu, Schwab","Hanau, München",15,36,German,,,,"9783774286818,3774286817",,,,,,,,,,,0,,,,,,,,14700230,pdf,F49A5F8752A2B209F9EEB90A5FDC81B6,,,N:\\!genesis_\\0day\\book_ger1\\GU - Muffins leicht gemacht.pdf,0,2000-01-01 01:00:00,2020-02-26 03:30:01,f49a5f8752a2b209f9eeb90a5fdc81b6-g.jpg,,
32033637,Raclette : neue Rezepte,,GU Küchenratgeber,,"Mewes, Kai; Schmidt, Claudia",2003,2. Aufl,Gräfe & Unzer,München,62,67,German,,,,"9783774254596,3774254591",,,,,,,,,,,0,,,,,,,,30019180,pdf,6AE7BC72A735EB6F025F2778C3426446,,,N:\\!genesis_\\0day\\book_ger1\\GU - Raclette - Neue Rezepte - GU.pdf,0,2000-01-01 01:00:00,2020-02-26 03:30:01,6ae7bc72a735eb6f025f2778c3426446-g.jpg,Raclette.,
32033638,"Sächsisch kochen traditionelle Rezepte, die leicht gelingen und Interessantes über die sächsische Küche ; jedes Rezept in Farbe",,GU-Küchen-Ratgeber,,"Bartz, Bettina; Ruschitzka, Gudrun; Teubner, Odette",1995,1. Aufl,Gräfe und Unzer,"München, Sachsen",64,68,German,,,,"9783774219410,3774219419",,,,,,,,,,,0,,,,,,,,18564273,pdf,96AE7B6D983323F5EA9EDE1F1E63AB62,,,N:\\!genesis_\\0day\\book_ger1\\GU - Sachsisch kochen - GU.pdf,0,2000-01-01 01:00:00,2020-02-26 03:30:01,96ae7b6d983323f5ea9ede1f1e63ab62-g.jpg,Sachsen,
32033639,Schlank im Schlaf vegetarisch,,Kochen & Verwöhnen; Gesunde Küche; GU Diät & Gesundheit,,"Cavelius, Anna; Ilies, Angelika; Pape, Detlef",2013,,Gräfe und Unzer,Erscheinungsort nicht ermittelbar,105,199,German,,,,"9783833839887,3833839880",,,,,,,,,,,0,,,,,,,,29306321,pdf,4937B83CD0D3EDA0E63CF38743BFCBA0,,,N:\\!genesis_\\0day\\book_ger1\\GU - Schlank im Schlaf - GU.pdf,0,2000-01-01 01:00:00,2020-02-26 03:30:02,4937b83cd0d3eda0e63cf38743bfcba0-g.jpg,Haysche Trennkost;Abmagerungsdiät;Vegetarische Kost;Kochbuch;Insulinstoffwechsel;Chronomedizin;Ratgeber,
32033640,Ikigai : The Japanese Secret to a Long and Happy Life,,,,Hector Garcia,2017,,Penguin Books,,,100,English,,,,"2017005811,2017022599,9781524704551,9780143130727",,,,,,,,,,,0,,,,,,1,1,3920460,pdf,1C0657844E26557F189F5543AC1DDC81,,,Ikigai The Japanese Secret to a Long and Happy Life.pdf,0,2000-01-01 01:00:00,2020-02-26 03:30:02,1c0657844e26557f189f5543ac1ddc81-g.jpg,,
32033641,"StudentInnenküche vegetarisch vergeßt die Mensa! ; köstlich, schnell und preiswert kochen - auch in der kleinsten Küche",,GU-KüchenRatgeber,,"Wehling, Christine; Teubner, Odette; Dewitz, Doris",1999,1. Aufl,Gräfe und Unzer,München,64,64,German,,,,"9783774211568,3774211566",,,,,,,,,,,0,,,,,,,,20286756,pdf,FC2D413F70992D68FEDE8E113284593D,,,N:\\!genesis_\\0day\\book_ger1\\GU - Studentinnenkuche vegetarisch - GU.pdf,0,2000-01-01 01:00:00,2020-02-26 03:30:02,fc2d413f70992d68fede8e113284593d-g.jpg,Vegetarische Kost,
32033642,"Tee in aller Welt : von der Teepflanze bis zum Punsch: alles über Anbau, Ernte und Zubereitung des aromatischen Gewächses : dazu ausgewählte Rezepte für Köstlichkeiten mit und zum Tee",,GU Küchen-Ratgeber,,"Bodensteiner, Susanne",2003,5. Aufl,Gräfe und Unzer,München,64,67,German,,,,"9783774210394,377421039X",,,,,,,,,,,0,,,,,,,,17158658,pdf,B0DE75808D4004B5CF62943F165E7EFC,,,N:\\!genesis_\\0day\\book_ger1\\GU - Tee in aller Welt - GU.pdf,0,2000-01-01 01:00:00,2020-02-26 03:30:02,b0de75808d4004b5cf62943f165e7efc-g.jpg,,
32033643,"Waffeln backen : schnell gerührt und frisch gebacken : knusprig und zart, süss und pikant ; mit vielen Rezepten auch für Crêpes ; jedes Rezept in Farbe",,GU-Küchen-Ratgeber,,"Schiansky, Bernd; Werz-Kovacs, Stephanie von; Teubner, Odette",1997,7. Aufl,Gräfe und Unzer,München,64,67,German,,,,"9783774211803,3774211809",,,,,,,,,,,0,,,,,,,,32503809,pdf,B32809F2824786B4FCDB48B33B430061,,,N:\\!genesis_\\0day\\book_ger1\\GU - Waffeln und Crepes - GU.pdf,0,2000-01-01 01:00:00,2020-02-26 03:30:02,b32809f2824786b4fcdb48b33b430061-g.jpg,Waffel.;Kochbuch.;Waffel -- Kochbuch,
32033644,"Eiscreme : kalte Köstlichkeiten, die auf der Zunge zergehen : selbstgemacht aus Sahne, Milch und Früchten ; jedes Rezept in Farbe",,GU-Küchen-Ratgeber,,"Kurz, Marey; Werz-Kovacs, Stephanie von; Teubner, Odette",1996,5. Aufl,Gräfe und Unzer,München,64,34,German,,,,"9783774211797,3774211795",,,,,,,,,,,0,,,,,,,,8370486,pdf,377980405DDF649248B89E088346D068,,,N:\\!genesis_\\0day\\book_ger1\\GU-Eiscreme.pdf,0,2000-01-01 01:00:00,2020-02-26 03:30:02,377980405ddf649248b89e088346d068-g.jpg,Speiseeis.;Kochbuch.;Speiseeis -- Kochbuch,
32033645,Die Inlandsnachrichtendienste in Frankreich und Deutschland : eine rechtsvergleichende Untersuchung,,Schriften zum Recht der Inneren Sicherheit 23,,"Krumrey, Björn",2014,,Boorberg,Stuttgart,267,285,German,,,,"9783415053564,3415053563,9783415053618",,,,,,,,,,,0,,,,,,,,2731305,pdf,2B9BD40505B22394BDEE2A78266B6EFC,,,"N:\\!genesis_\\0day\\book_ger1\\Inlandsnachrichtendienste in Frankreich und Deutschland, Die - Krumrey, Bjorn.pdf",0,2000-01-01 01:00:00,2020-02-26 03:30:02,2b9bd40505b22394bdee2a78266b6efc-g.jpg,Services de renseignements -- France -- 1990- ...;Services de renseignements -- Allemagne -- 1990- ...,
32033646,"Leckere Marmeladen, Gelees",,,,"Jones, Bridget",2004,Orig.-ausg,Weltbild,Augsburg,96,95,"German, English",,,,"9783898970341,3898970345",,,,,,,,,,,0,,,,,,,,11893435,pdf,5FF22606682EF277CB039FB69BE00063,,,"N:\\!genesis_\\0day\\book_ger1\\Jones, Bridget - Leckere Marmeladen und Gelees.pdf",0,2000-01-01 01:00:00,2020-02-26 03:30:02,5ff22606682ef277cb039fb69be00063-g.jpg,Marmelade -- Kochbuch.;Gelee -- Kochbuch.,
32033647,Backen mit Hanf : berauschend gut,,,,"Grotenhermen, Franjo; Gandjour, Joubin; Gebhardt, Kathrin; Wortmann, Frank T.; Thumm, Andreas",1997,Lizenzausg,Nachschatten-Verlag,Solothurn,79,55,German,,,,"9783855026111,3855026114",,,,,,,,,,,0,,,,,,,,1738910,pdf,69B41F1D6DF5769CB3AC04C75EFF00B7,,,N:\\!genesis_\\0day\\book_ger1\\Kathrin Gebhardt - Backen mit Hanf.pdf,0,2000-01-01 01:00:00,2020-02-26 03:30:02,69b41f1d6df5769cb3ac04c75eff00b7-g.jpg,Gebäck -- Hanf -- Kochbuch.;Hanf -- Gebäck -- Kochbuch.;Kochbuch -- Gebäck -- Hanf.,
32033648,"Kochen (fast) ohne Geld 70 Genießerrezepte. Wie Sie preisgünstig kochen, ohne am Geschmack zu sparen",,,,"Gerlach, Hans; Barbara Bonisolli Foodfotografie",2011,,E-Books der Verlagsgruppe Random House GmbH,München,,174,German,,,,"9783641563004,3641563003",,,,,,,,,,,0,,,,,,,,9469477,pdf,F4C077B5CF0EDFAD01A4A93E8C27FC61,,,N:\\!genesis_\\0day\\book_ger1\\Kochen (fast) ohne Geld.pdf,0,2000-01-01 01:00:00,2020-02-26 03:30:02,f4c077b5cf0edfad01a4a93e8c27fc61-g.jpg,Preiswertes Kochen,
32033649,Konzept zum Aufbau einer Geodateninfrastruktur bei der Polizei Rheinland-Pfalz,,,,"Lamacz, Uwe",2008,1. Auflage,Diplom.de,,,163,German,,,,"9783836613910,3836613913",,,,,,,,,,,0,,,,,,,,4426782,pdf,E301EBD8BC26DCA9B12C91F5E204D2BC,,,"N:\\!genesis_\\0day\\book_ger1\\Konzept zum Aufbau einer Geodateninfrastruktur bei der Polizei Rheinland-Pfalz - Lamcaz, Uwe.pdf",0,2000-01-01 01:00:00,2020-02-26 03:30:02,e301ebd8bc26dca9b12c91f5e204d2bc-g.jpg,(Produktform)Electronic book text;(BISAC Subject Heading)COM051000;open;source;polizei;topic;maps;(VLB-WN)9635,
32033650,"Kriminalistik, gestern - heute - morgen : Festschrift zum 10-jährigen Bestehen der Deutschen Gesellschaft für Kriminalistik",,Schriftenreihe der Deutschen Gesellschaft für Kriminalistik 4,,"Ackermann, Rolf; Artkämper, Heiko",2013,,Boorberg,Stuttgart,544,545,German,,,,"9783415051010,3415051013,9783415052307",,,,,,,,,,,0,,,,,,,,3469595,pdf,B2F022BDA3D82E5FE50BF4E7F2157FED,,,N:\\!genesis_\\0day\\book_ger1\\Kriminalistik - gestern-heute-morgen - Dr. Heiko Artkamper und Horst Clages.pdf,0,2000-01-01 01:00:00,2020-02-26 03:30:02,b2f022bda3d82e5fe50bf4e7f2157fed-g.jpg,Kriminalistik.;Kriminologie.,
32033651,Kriminalistische Fallanalyse,,Lehr- und Studienbriefe Kriminalistik.; Kriminologie,,"Ackermann, Rolf",2010,1. Aufl,Verl. Deutsche Polizeiliteratur,Hilden,152,979,German,,,,"9783801106317,3801106314,9783801106935",,,,,,,,,,,0,,,,,,,,2263127,pdf,34AA895061D16159256E502289C965B3,,,N:\\!genesis_\\0day\\book_ger1\\Kriminalistische Fallanalyse - Prof. Dr. Rolf Ackermann.pdf,0,2000-01-01 01:00:00,2020-02-26 03:30:02,34aa895061d16159256e502289c965b3-g.jpg,Kriminalistik.;Methode.;Straftat.;Analyse.,
32033652,Lehrbuch der Rechtspsychologie,,Psychologie Lehrbuch,,"Bliesener, Thomas",2014,,H. Huber,Bern,571,571,German,,,,"9783456854113,3456854110",,,,,,,,,,,0,,,,,,,,5158989,pdf,B174DCCE95DBACF4559977F322F41FAD,,,"N:\\!genesis_\\0day\\book_ger1\\Lehrbuch Rechtspsychologie - T. Bliesener, F.Losel G. Kohnken.pdf",0,2000-01-01 01:00:00,2020-02-26 03:30:02,b174dcce95dbacf4559977f322f41fad-g.jpg,Psychologie légale.,
32033653,Miss Ich-Bin-Nicht-Verliebt,,,,"Louis, Saskia",2016,,BUCHTALENT,,,352,German,,,,"9783849572457,3849572455,9783849598570",,,,,,,,,,,0,,,,,,,,1344968,pdf,A8903654538CEBFDA6108B6E4D8C0536,,,"N:\\!genesis_\\0day\\book_ger1\\Louis, Saskia - Miss Ich-Bin-Nicht-Verliebt.pdf",0,2000-01-01 01:00:00,2020-02-26 03:30:02,a8903654538cebfda6108b6e4d8c0536-g.jpg,,
32033654,Osteoporose : leitliniengerechte Diagnostik und Therapie mit 25 Fallbeispielen ; mit 35 Tabellen,,,,"Deuss, Ulrich; Peters, Klaus M",2005,1,Steinkopff,Darmstadt,128,133,German,,,,"9783798514652,3798514658,9783798515284,379851528X",,,,,,,,,,,0,,,,,,,,3507304,pdf,5CB38061D5ACAF6F1E6923902925092F,,,"N:\\!genesis_\\0day\\book_ger1\\Osteoporose; 1. Aufl. 2005 - Peters, Deuss.pdf",0,2000-01-01 01:00:00,2020-02-26 03:30:02,5cb38061d5acaf6f1e6923902925092f-g.jpg,Norm (Normung);Osteoporose.,
32033655,"Osteoporosis : diagnosis, prevention, therapy",,,,"Bartl, Reiner; Frisch, Bertha",2009,2nd rev. ed,Springer,Berlin,321,313,English,,,,"9783540795261,354079526X,9783540795278,3540795278",,,,,,,,,,,0,,,,,,,,11817442,pdf,EA6EEEE9247BB6F79ADAA82BD5414D49,,,N:\\!genesis_\\0day\\book_ger1\\Osteoporosis 2nd ed.2009 .pdf,0,2000-01-01 01:00:00,2020-02-26 03:30:02,ea6eeee9247bb6f79adaa82bd5414d49-d.jpg,Osteoporosis.;Osteoporosis -- Prevención.;Osteoporosis -- Diagnóstico.;Osteoporosis -- Tratamiento.,
32033656,Osteoporosis in Older Persons,,,,"Kiel, Douglas P.; Duque, Gustavo",2009,,Springer-Verlag London,London,,201,English,,,,"9781846286971,1846286972,9781846285158,9781848829244",,,,,,,,,,,0,,,,,,,,8771562,pdf,701033C4FAFFD72F2F5B765F3FD838F8,,,N:\\!genesis_\\0day\\book_ger1\\Osteoporosis in Older Persons 1st ed.2009 .pdf,0,2000-01-01 01:00:00,2020-02-26 03:30:02,701033c4faffd72f2f5b765f3fd838f8-g.jpg,Medicine.;Geriatrics.;Endocrinology.;Orthopedics.;Rheumatology.;Medicine and Public Health.;Geriatrics/Gerontology.,
32033657,Osteosynthese der schenkelhalsfraktur : ein bildatlas,,,,"Manninger, Jenő",2005,,Springer-Verlag/Wien,Vienna,334,339,German,,,,3211201521,,,,,,,,,,,0,,,,,,,,9300360,pdf,07029F60F8795BFF2CD850FC01B35A4F,,,N:\\!genesis_\\0day\\book_ger1\\Osteosynthese der Schenkelhalsfraktur .pdf,0,2000-01-01 01:00:00,2020-02-26 03:30:02,07029f60f8795bff2cd850fc01b35a4f-d.jpg,Orthopedic surgery.;Neck -- Wounds and injuries.,
32033658,Osteosynthese der schenkelhalsfraktur : ein bildatlas,,,,"Manninger, Jenő",2005,1,Springer-Verlag/Wien,Vienna,334,339,German,,,,3211201521,,,,,,,,,,,0,,,,,,,,9334356,pdf,6ADB5AAC22D974649F7BC4B422961668,,,N:\\!genesis_\\0day\\book_ger1\\Osteosynthese der Schenkelhalsfraktur; 1. Aufl. 2005 - Manninger.pdf,0,2000-01-01 01:00:00,2020-02-26 03:30:02,6adb5aac22d974649f7bc4b422961668-d.jpg,Orthopedic surgery.;Neck -- Wounds and injuries.,
32033659,Pädagogische Psychologie des Lernens und Lehrens,,,,"Mietzel, Gerd",1998,"5., vollst. überarb. Aufl","Hogrefe, Verl. für Psychologie",Göttingen,494,504,German,,,,"9783801709587,3801709582",,,,,,,,,,,0,,,,,,,,4731998,pdf,E857812FACA4F6BE72FF6233D5316CA1,,,N:\\!genesis_\\0day\\book_ger1\\Padagogische Psychologie des Lernens und Lehrens; 5. Aufl. 1998 - Mietzel.pdf,0,2000-01-01 01:00:00,2020-02-26 03:30:02,e857812faca4f6be72ff6233d5316ca1-g.jpg,Pädagogische Psychologie,
32033660,Pädagogische Psychologie des Lernens und Lehrens,,,,"Mietzel, Gerd",2001,"6., korrigierte Aufl","Hogrefe, Verl. für Psychologie",Göttingen,494,506,German,,,,"9783801714369,3801714365",,,,,,,,,,,0,,,,,,,,3411203,pdf,177DBDCD330497BAE644EEDB8A4F03BA,,,N:\\!genesis_\\0day\\book_ger1\\Padagogische Psychologie des Lernens und Lehrens; 6. Aufl. 2001 - Mietzel.pdf,0,2000-01-01 01:00:00,2020-02-26 03:30:02,177dbdcd330497bae644eedb8a4f03ba-g.jpg,"Learning, Psychology of.;Educational psychology.;Learning.;Psychology, Educational.;Pädagogische Psychologie.;Einführung;Lehrbuch;Pädagogische Psychologie",
32033661,Padagogisch-psychologische Diagnostik - Band 1,,,,"Tent, Lothar; Stelzl, Ingeborg",1993,1,Hogrefe,"Göttingen, Seattle",,245,German,,,,"9783801706470,3801706478",,,,,,,,,,,0,,,,,,,,2415096,pdf,FEC338F890CC9E8247A7249A335119FC,,,"N:\\!genesis_\\0day\\book_ger1\\Padagogisch-psychologische Diagnostik - Band 1; 1. Aufl. 1993 - Tent, Stelzl.pdf",0,2000-01-01 01:00:00,2020-02-26 03:30:02,fec338f890cc9e8247a7249a335119fc-g.jpg,Psychological tests.;Students -- Psychological testing.;Psychologische Diagnostik.;Pädagogische Diagnostik.,
32033662,Padagogisch-psychologische Diagnostik - Band 2,,,,"Tent, Lothar; Langfeldt, Hans-Peter; Stelzl, Ingeborg",1999,1,"Hogrefe, Verl. für Psychologie",Göttingen,316,301,German,,,,"9783801704063,3801704068",,,,,,,,,,,0,,,,,,,,1467829,pdf,0D9A7EC1582848C603E1B8BFA6E529C4,,,"N:\\!genesis_\\0day\\book_ger1\\Padagogisch-psychologische Diagnostik - Band 2; 1. Aufl. 1999 - Langfeldt, Tent.pdf",0,2000-01-01 01:00:00,2020-02-26 03:30:02,0d9a7ec1582848c603e1b8bfa6e529c4-g.jpg,,
32033663,考え方で絵は変わる ~ イラストスキル向上のためのダテ式思考法,,,,ダテナオト,2019,,Mynavi Publishing Corporation,,160,0,Japanese,,,,"1844782511,9784839969394",,,,,,,,,,,0,,,,,,,,42336824,epub,4E0DF57CD5AA7EBF3774AC379A579579,,,Kao eFang deHui haBian waru ira - datenaoto.epub,0,2000-01-01 01:00:00,2020-02-26 03:50:01,4e0df57cd5aa7ebf3774ac379a579579-g.jpg,,
32033664,Я жил. Мемуары непримкнувшего,,Культура политика философия,,Ричард Пайпс,2005,,Московская школа политических исследований,Москва,,423,Russian,,,,5938950759,,,,,,,,,,,600,,,,,,1,1,3259974,djvu,099EF8B23FD1EC2836044803737F5210,,,Pipes_Dixi.djvu,0,2000-01-01 01:00:00,2020-02-26 03:50:02,099ef8b23fd1ec2836044803737f5210-g.jpg,,
32033665,民主向何处去？：哈耶克政治学法学论文集,,,,哈耶克,2014,,首都经济贸易大学出版社,,,288,Chinese,,,,9787563821730,,,,,,,,,,,0,,,,,,1,0,72572092,pdf,4A9AFF156591FA6DB5D1BA23210D13D1,,,民主向何处去？  哈耶克政治学法学论文集.pdf,0,2000-01-01 01:00:00,2020-02-26 04:10:02,4a9aff156591fa6db5d1ba23210d13d1-g.jpg,,
32033666,作为一种发现过程的竞争：哈耶克经济学、历史学论文集,,,,哈耶克,2014,,首都经济贸易大学出版社,,,256,Chinese,,,,9787563821754,,,,,,,,,,,0,,,,,,1,0,52299041,pdf,048A1CCB3A37D2C685883E30743C9D22,,,作为一种发现过程的竞争：哈耶克经济学、历史学论文集.pdf,0,2000-01-01 01:00:00,2020-02-26 04:10:02,048a1ccb3a37d2c685883e30743c9d22-g.jpg,,
32033667,自由宪章,,西方现代思想丛书 6,,哈耶克,2012,,中国社会科学出版社,,,620,Chinese,,,,9787516109458,,,,,,,,,,,0,,,,,,1,0,28116352,pdf,CF015E739C7CA0DFE7F203F7DC6FFAE5,,,自由宪章.pdf,0,2000-01-01 01:00:00,2020-02-26 04:20:02,cf015e739c7ca0dfe7f203f7dc6ffae5-g.jpg,,
32033668,Revolução das plantas,,,,"Mancuso, Stefano",2019,1ª,Ubu Editora,São Paulo/SP,357,0,Portuguese,12,,,9788571260351,,B07W8WQP3H,,,,,,,,Título original: Plant Revolution: Le piante hanno già inventato il nostro futuro,0,,,,,,,,879258,epub,15EB5A103D19038BC94F8A89DA3E23F4,,,Revolucao das plantas - Stefano Mancuso.epub,0,2000-01-01 01:00:00,2020-02-26 04:30:01,15eb5a103d19038bc94f8a89da3e23f4-g.jpg,1. Ecologia. 2. Biologia. 3. Neurobiologia vegetal.,
32033669,Argumentación y debate,,,,Margarita Bonet Esteva,2019,,Dykinson,Madrid,,240,Spanish,,,,"9788413241692,8413241693",,,,,,,,,,,0,,,,,,1,1,2545255,pdf,6657EF04A5D3FB739F7BA6EB1D843C08,,,Argumentación y debate introducción al formato parlamentario bri 978-84-1324-169-2.pdf,0,2000-01-01 01:00:00,2020-02-26 04:30:01,6657ef04a5d3fb739f7ba6eb1d843c08-g.jpg,,
32033670,Fundamentos de administración de empresas (2a. ed.).,,,,Óscar Gutiérrez Aragón,2016,2,Difusora Larousse - Editorial Tecnos,Madrid,,424,Spanish; Castilian,,,,"9788436836530,8436836537",,,,,,,,,,,0,,,,,,1,1,7166407,pdf,91A60B39F0D56083931A28E078EADF0D,,,Fundamentos de administración de empresas (2a. ed.) 978-84-368-3653-0.pdf,0,2000-01-01 01:00:00,2020-02-26 04:30:01,91a60b39f0d56083931a28e078eadf0d-g.jpg,,
32033671,O Essencial da Estratégia: O Príncipe | O Livro dos Cinco Anéis | A Arte da Guerra,,,,Sun Tzu; Nicolau Maquiavel; Miyamoto Musashi,2015,1ª,Editora Novo Século,Barueri – SP,545,0,Portuguese,183,,,9788542804744,,B013TKYVNE,,,,,,,,,0,,,,,,,,709876,epub,EB8B610D21EEAC1679F546260EF282C4,,,O Essencial da Estrategia_ O Pr - Sun Tzu.epub,0,2000-01-01 01:00:00,2020-02-26 04:30:01,eb8b610d21eeac1679f546260ef282c4-g.jpg,Estratégia,
32033672,Manual de contabilidad financiera adaptado a personas con discapacidad intelectual,,,,,2017,1,J.M. BOSCH EDITOR,,352,351,Spanish,,,,"8494698788,9788494698781,9788494698798",,,,,,,,,,,0,,,,,,1,1,1122988,pdf,794C8AECEAE3B97B833950D9FABC1266,,,Manual de contabilidad financiera adaptado a personas con discap 978-84-946987-8-1.pdf,0,2000-01-01 01:00:00,2020-02-26 04:30:01,794c8aeceae3b97b833950d9fabc1266-g.jpg,,
32033673,Minha pátria era um caroço de maçã,,,,"Müller, Herta",2019,1ª,Biblioteca Azul,Rio de Janeiro/RJ,383,0,Portuguese,68,,,9786580722037,,B07YGPF2HB,,,,,,,,Título original: Mein vaterland war ein apfelkern: ein gespräch,0,,,,,,,,599363,epub,43A16AA17529BC1641808BBDE4D6BB64,,,Minha patria era um caroco de m - Herta Muller.epub,0,2000-01-01 01:00:00,2020-02-26 04:30:01,43a16aa17529bc1641808bbde4d6bb64-g.jpg,"1. Herta Müller, 1953–. 2. Escritoras romenas – Biografia.",
32033674,"No Sweat Public Speaking! How to Develop, Practice and Deliver a Knock Your Socks Off! Presentation with No Sweat!",,,,Fred E. Miller,2011,,Fred Co.,St. Louis,,0,English,,,,9780984396702,,B004UVPJXS,,,,,,,,,0,,,,,,,,813488,epub,C6949C4717EC10B983B68CFDC3338611,,,No Sweat Public Speaking.[ebooksbase.net].epub,0,2000-01-01 01:00:00,2020-02-26 04:30:02,c6949c4717ec10b983b68cfdc3338611-g.jpg,,
32033675,自由秩序原理,,,,哈耶克,1997,,三联书店,,,537,Chinese,,,,7108011042,,,,,,,,,,,0,,,,,,1,0,23046012,pdf,13F9DD9C2C9CD1FD1856B6B35AA5C662,,,自由秩序原理.pdf,0,2000-01-01 01:00:00,2020-02-26 04:30:02,13f9dd9c2c9cd1fd1856b6b35aa5c662-g.jpg,,
32033676,"No Sweat Public Speaking! How to Develop, Practice and Deliver a Knock Your Socks Off! Presentation with No Sweat!",,,,Fred E. Miller,2011,,Fred Co.,St. Louis,,0,English,,,,9780984396702,,,,,,,,,,,0,,,,,,,,1675363,azw3,2E6C24E0DC9C57ED6D80C883956F09C2,,,No Sweat Public Speaking.[ebooksbase.net].azw3,0,2000-01-01 01:00:00,2020-02-26 04:30:02,2e6c24e0dc9c57ed6d80c883956f09c2-g.jpg,,
32033677,致命的自负,,,,哈耶克,2000,,中国社会科学出版社,,,254,Chinese,,,,750042793X,,,,,,,,,,,0,,,,,,1,0,5385150,pdf,FA3A1D7FDD188D9FD38FD73873F352F1,,,致命的自负.pdf,0,2000-01-01 01:00:00,2020-02-26 04:30:02,fa3a1d7fdd188d9fd38fd73873f352f1-g.jpg,,
32033678,Criando arte de jogos 3D para iphone com unity,,,,"McDermott, Wes; Edson Furmankiewicz (Tradutor)",2012,1,"Campus, Focal Press",,273,264,Portuguese,,,,"9788535253726,9780240815633",,,,,,,,,,,0,,,,,,,,5102317,pdf,7E7EEFBCF91AAA98B2648FFDA44C21DB,,,F:\\!upload\\_books\\9788535253726-Criando Arte De Jogos 3d Para Iphone Com Unity.pdf,0,2000-01-01 01:00:00,2020-02-26 04:40:02,7e7eefbcf91aaa98b2648ffda44c21db-d.jpg,Internet games -- Programming.,
32033679,A filosofia como ciência de rigor,,,,Emund Husserl,1952,,,,,67,Portuguese,,,,,,,,,,,,,,,0,,,,,,,1,11997335,pdf,31472B13202B674DBDB3DFF2D70211DA,,,A-filosofia-como-ciência-de-rigor-tradução-portuguesa.pdf,0,2000-01-01 01:00:00,2020-02-26 04:40:02,31472b13202b674dbdb3dff2d70211da-g.jpg,,
32033680,Racionalidade e crise: estudos de história da filosofia moderna e contemporânea,,,,Carlos Alberto Ribeiro de Moura,2001,,Discurso,São Paulo,,402,Portuguese,,,,9788586590337,,,,,,,,,,,0,,,,,,1,0,18905024,pdf,4F171B78755C312C8D9E6C2D95B35A26,,,311213923-Carlos-Alberto-Ribeiro-de-Moura-Racionalidade-e-Crise-Uma-Pagina.pdf,0,2000-01-01 01:00:00,2020-02-26 04:40:02,4f171b78755c312c8d9e6c2d95b35a26-g.jpg,,
32033681,Vichingi. Tra storia e leggenda,,,,Jason. R. Forbus,2019,,Ali Ribelli Edizioni,,68,0,Italian,,,,,,,,,,,,,,,0,,,,,,,,3206125,epub,A837424292085C4610205789CCA0BEC1,,,Jason_R._Forbus_-_Vichinghi._Tra_storia_e_leggenda.epub,0,2000-01-01 01:00:00,2020-02-26 04:40:02,a837424292085c4610205789cca0bec1-g.jpg,,
32033682,Hamartia. Tragic Error in Poetics of Aristotle and in Greek Tragedy,,,,J. M. Bremer,1969,,Adolf M. Hakkert,,211,117,English,,,,,,,,,,,,,,,0,,,,,,,0,47408962,pdf,62FFFCF12D596E97F546CF984EE6CF60,,,J. Bremer_Hamartia.pdf,0,2000-01-01 01:00:00,2020-02-26 04:50:01,62fffcf12d596e97f546cf984ee6cf60-g.jpg,,
32033683,Mandarin Chinese for Beginners: Learning Conversational Chinese / Mastering Conversational Chinese [Book],,,,"Yi Ren, Xiayuan Liang",2018,Second Edition,Tuttle Publishing,,,0,English,,,,9781462914760,,,,,495.182421,PL1129.E5,,,,,0,,,,,,,,40293098,epub,850DAF7118A8F58CE84CDE02AF2753E6,,,"Mandarin Chinese for Beginners - Learning Conversational Chinese, Second Edition.[katcr.co].epub",0,2000-01-01 01:00:00,2020-02-26 05:00:02,850daf7118a8f58ce84cde02af2753e6-g.jpg,,
32033684,Geoanarchia. Appunti di resistenza ecologica,,,,Matteo Meschiari,2017,,Armillaria,,87,0,Italian,,,,9788899554200,,,,,,,,,,,0,,,,,,,,3046550,epub,FE8553B16F046633549FDD3956D01F18,,,"Meschiari, M. - Geoanarchia. Appunti di resistenza ecologica.epub",0,2000-01-01 01:00:00,2020-02-26 05:00:02,fe8553b16f046633549fdd3956d01f18-g.jpg,,
32033685,Mandarin Chinese for Beginners: Learning Conversational Chinese / Mastering Conversational Chinese [Book],,,,"Yi Ren, Xiayuan Liang",2018,Second Edition,Tuttle Publishing,,,0,English,,,,9781462914760,,,,,495.182421,PL1129.E5,,,,,0,,,,,,,,13350684,azw3,1BD57F3F384B3C0655BA0DC135EFDEEC,,,B00KO9K5K2_EBOK_nodrm.azw3,0,2000-01-01 01:00:00,2020-02-26 05:00:02,1bd57f3f384b3c0655ba0dc135efdeec-g.jpg,,
32033686,Facebook: The Inside Story,,,,Steven Levy,2020,,Blue Rider Press,,592,0,English,,,,"0735213151,9780735213159",,,,,,,,,,,0,,,,,,,,2041952,epub,92A3849D1DAF05DF740B55B2725FA70B,,,Facebook The Inside Story.epub,0,2000-01-01 01:00:00,2020-02-26 05:10:01,92a3849d1daf05df740b55b2725fa70b-g.jpg,,
32033687,"Revolution: Trump, Washington and \We the People\""""",,,,KT McFarland,2020,,Post Hill Press,,368,0,English,192,,,"1642934046,9781642934045",,,,,,,,,,,0,,,,,,,,3742403,epub,3E86142C722F445FD7178DC88D4E2A4E,,,"McFarland_Revolution. Trump, Washington and 'We the People'.epub",0,2000-01-01 01:00:00,2020-02-26 05:20:02,3e86142c722f445fd7178dc88d4e2a4e-g.jpg,,
32033688,L'impero del bene,,,,Philippe Muray,2017,,Mimesis,,107,0,Italian,,,,,,,,,,,,,,,0,,,,,,,,200022,epub,3BAF314E9D7B1C159031E352DC4D311C,,,"Murray, P. - L'impero del bene.epub",0,2000-01-01 01:00:00,2020-02-26 05:30:02,3baf314e9d7b1c159031e352dc4d311c-g.jpg,,
32033689,The Ethics of Universal Health Insurance,,,,Alex Rajczi,2019,,"Oxford University Press, USA",,xiv+338,353,English,192,,,"0190946830,9780190946838",,,,,,,,,,,0,,,,,,1,1,2542704,pdf,82B0BCB9A60B61DFEAF8C0844EFFB1FB,,,Rajczi_The Ethics of Universal Health Insurance.pdf,0,2000-01-01 01:00:00,2020-02-26 05:30:02,82b0bcb9a60b61dfeaf8c0844effb1fb-g.jpg,,
32033690,The Phantom Prince: My Life with Ted Bundy,,,,Elizabeth Kendall,2020,,Abrams,,224,0,English,,,,9781683359524,,,,,,,,,,,0,,,,,,,,12358063,epub,DF2CD0FE5F4E4881C5FA73F305607E52,,,The_Phantom_Prince_by_Elizabeth_Kendall__Molly_Kendall_UserUpload.Net.epub,0,2000-01-01 01:00:00,2020-02-26 05:30:02,df2cd0fe5f4e4881c5fa73f305607e52-g.jpg,,
32033691,Understanding Tuberculosis and its Control: Anthropological and Ethnographic Approaches,,,,Helen Macdonald; Ian Harper,2020,,Routledge,,xii+282,295,English,157,,,"1138314277,9781138314276",,,,,,,,,,,0,,,,,,1,1,16757842,pdf,C0049AEF6F7616452A284F3A0B61D3F5,,,MacDonald&Harper_Understanding Tuberculosis and Its Control. Anthropological and Ethnographic Approaches.pdf,0,2000-01-01 01:00:00,2020-02-26 05:40:01,c0049aef6f7616452a284f3a0b61d3f5-g.jpg,,
32033692,Routledge Handbook of Law and Society in Latin America,,Routledge Handbooks,,"Rachel Sieder (editor), Karina Ansolabehere (editor), Tatiana Alfonso (editor)",2018,1,Routledge,,494,0,English,,,,"1138184454,9781138184459",,,,,,,,,,,0,,,,,,,,2515407,epub,819528BD7F3417F6286C8EEF68B402C7,,,Routledge Handbook of Law and Society in Latin America 978-1-138-18445-9.epub,0,2000-01-01 01:00:00,2020-02-26 05:50:02,819528bd7f3417f6286c8eef68b402c7-g.jpg,,
32033693,Routledge Handbook of Law and Society in Latin America (Routledge Handbooks),,Routledge Handbooks,,"Rachel Sieder (editor), Karina Ansolabehere (editor), Tatiana Alfonso (editor)",2019,1,Routledge,,494,495,English,,,,"1138184454,9781138184459",,,,,,,,,,,0,,,,,,1,1,4130144,pdf,CCEC6D5C7C92DC0A50ABE6065AD5A62E,,,Routledge Handbook of Law and Society in Latin America 978-1-138-18445-9.pdf,0,2000-01-01 01:00:00,2020-02-26 05:50:02,ccec6d5c7c92dc0a50abe6065ad5a62e-g.jpg,,
32033694,Nonlinear Lp-Norm Estimation,,Statistics: A Series of Textbooks and Monographs (vol. 100),,"René Gonin, Arthur H. Money",1989,,"Marcel Dekker, Inc.",New York and Basel,320,317,English,131,,,"0824781252,9780824781255",,,,,519.5/44-dc19,,,vn3BWJoahuMC,,,0,,,,,,1,1,16122521,pdf,8AB5905226ECD4F071AB0B5CB35DA5CA,,,Gonin_Lpnorm_1989.pdf,0,2000-01-01 01:00:00,2020-02-26 05:50:02,8ab5905226ecd4f071ab0b5cb35da5ca-g.jpg,,
32033695,The Anxiety and Phobia Workbook,,,,Edmund J. Bourne,2015,6,New Harbinger Publications,,488,0,English,198,,,"1626252157,9781626252158",,,,,,,,,,,0,,,,,,,,1845507,epub,B222CA22684598CA751BB975329CCA79,,,"Bourne_The Anxiety and Phobia Workbook, 6th Edition.epub",0,2000-01-01 01:00:00,2020-02-26 06:00:02,b222ca22684598ca751bb975329cca79-g.jpg,,
32033696,Aquaculture landscapes : fish farming and the public realm,,,,Michael Ezban,2020,,Routledge,,,264,English,,,,"9781138218352,1138218359",,,,,,,,,,,0,,,,,,1,1,293984432,pdf,0C427E7A6B31134FD834159B9CB9D880,,,Aquaculture Landscapes 978-1-138-21835-2.pdf,0,2000-01-01 01:00:00,2020-02-26 06:00:02,0c427e7a6b31134fd834159b9cb9d880-g.jpg,,
32033697,Being dharma : the essence of the Buddha's teachings,,,,Chā; Paul Breiter,2001,,Shambhala,,,0,English,,,,"9780834823389,0834823381",,,,,,,,,,,0,,,,,,,,1417907,epub,7CD454D78FCC3A926A57625E052673BA,,,Being Dharma 978-1-57062-808-5.epub,0,2000-01-01 01:00:00,2020-02-26 06:00:02,7cd454d78fcc3a926a57625e052673ba-g.jpg,,
32033698,Conflict and conquest in the Islamic world : a historical encyclopedia.,,,,Alexander Mikaberidze,2011,,ABC-CLIO,Erscheinungsort nicht ermittelbar,,1143,English,,,,"9781598843361,1598843362",,,,,,,,,,,0,,,,,,1,1,12783209,pdf,267FFFA83D3A684D3D0468E71DC08AD4,,,Conflict and Conquest in the Islamic World 978-1-59884-336-1.pdf,0,2000-01-01 01:00:00,2020-02-26 06:00:02,267fffa83d3a684d3d0468e71dc08ad4-g.jpg,,
32033699,Construcción de problemas de investigación: Diálogos entre el interior y el exterior,,,,"Eschenhagen, María Luisa; Vélez-Cuartas, Gabriel; Maldonado, Carlos; Guerrero Pino, Germán",2011,,Universidad de Antioquia,,,0,Spanish; Castilian,,,,9789587147995,,,,,,,,,,,0,,,,,,,,8922341,epub,B54D43A90A6F5728BB12B2B75414604B,,,Construcción de problemas de investigación Diálogos entre el int 978-958-5413-68-9.epub,0,2000-01-01 01:00:00,2020-02-26 06:00:02,b54d43a90a6f5728bb12b2b75414604b-g.jpg,,
32033700,Dialects from Tropical Islands: Caribbean Spanish in the United States,,Routledge Studies in Hispanic and Lusophone Linguistics,,"Wilfredo Valentin-Marquez (editor), Melvin Gonzalez-Rivera (editor)",2019,,Routledge,,236,237,English,,,,"1138069752,9781138069756",,,,,,,,,,,0,,,,,,1,1,4345860,pdf,33D42941A1E0978EEC41C26BC85E86E6,,,Dialects From Tropical Islands 9781138069756.pdf,0,2000-01-01 01:00:00,2020-02-26 06:00:02,33d42941a1e0978eec41c26bc85e86e6-g.jpg,,
32033701,Manual práctico de contabilidad pública local,,,,Fernando Sánchez-Mayoral García-Calvo; Susana Villaluenga de Gracia; Elena Merino Madrid,2017,,Difusora Larousse - Ediciones Pirámide,Madrid,,328,Spanish; Castilian,,,,"9788436836936,8436836936",,,,,,,,,,,0,,,,,,1,1,2073802,pdf,C7DFBBE93499E00D487FC66D3079C479,,,Manual práctico de contabilidad pública local adaptado a la inst 978-84-368-3693-6.pdf,0,2000-01-01 01:00:00,2020-02-26 06:00:02,c7dfbbe93499e00d487fc66d3079c479-g.jpg,,
32033702,"Pathways to Well-Being in Design: Examples from the Arts, Humanities and the Built Environment",,,,"Richard Coles (editor), Sandra Costa (editor), Sharon Watson (editor)",2018,1,Routledge,,264,0,English,,,,"0815346948,9780815346944",,,,,,,,,,,0,,,,,,,,7857344,epub,DEE139A68F1F0E8D12ADCDD968BBD776,,,Pathways to Well-Being in Design 978-0-815-34694-4.epub,0,2000-01-01 01:00:00,2020-02-26 06:00:02,dee139a68f1f0e8d12adcdd968bbd776-g.jpg,,
32033703,"Pathways to Well-Being in Design: Examples from the Arts, Humanities and the Built Environment",,,,"Richard Coles (editor), Sandra Costa (editor), Sharon Watson (editor)",2018,1,Routledge,,264,265,English,,,,"0815346948,9780815346944",,,,,,,,,,,0,,,,,,1,1,11589854,pdf,6150BF3F7D971A81AAC7391B8D9DDECF,,,Pathways to Well-Being in Design 978-0-815-34694-4.pdf,0,2000-01-01 01:00:00,2020-02-26 06:00:02,6150bf3f7d971a81aac7391b8d9ddecf-g.jpg,,
32033704,Rambunctious Garden: Saving Nature in a Post-Wild World,,,,Emma Marris,2011,1,Bloomsbury USA,,224,0,English,,,,"1608190323,9781608190324",,,,,,,,,,,0,,,,,,,,2338230,epub,6C23E6856BB18A01E9CB3F3F281F7BFC,,,Rambunctious Garden 978-1-60819-032-4.epub,0,2000-01-01 01:00:00,2020-02-26 06:00:03,6c23e6856bb18a01e9cb3f3f281f7bfc-g.jpg,,
32033705,Teoría de la inversión.,,,,Francisco Blanco Ramos; Máximo Ferrando Borrado,2015,,Larousse - Ediciones Pirámide,Madrid,,408,Spanish; Castilian,,,,"9788436833089,8436833082",,,,,,,,,,,0,,,,,,1,1,3401186,pdf,E836649767FAA39AD16B13C3BA37E5A0,,,Teoría de la inversión 978-84-368-3308-9.pdf,0,2000-01-01 01:00:00,2020-02-26 06:00:03,e836649767faa39ad16b13c3ba37e5a0-g.jpg,,
32033706,Anxiety and Phobia Workbook,,New Harbinger Self Help Workbook,,Edmund J. Bourne,2015,6,New Harbinger,,504,489,English,,,,"1626252157,9781626252158",,,,,,,,,,,0,,,,,,1,1,4855896,pdf,88F0AC6D388B2F5C59B8BD205E450D95,,,The Anxiety and Phobia Workbook 978-1-62625-215-8.pdf,0,2000-01-01 01:00:00,2020-02-26 06:00:03,88f0ac6d388b2f5c59b8bd205e450d95-g.jpg,,
32033707,The World of the Siege : Representations of Early Modern Positional Warfare,,History of Warfare,,"Anke Fischer-Kattner, Jamel Ostwald",2019,,BRILL,,336,326,English,,,,"9004395687,9789004395688",,,,,,,,,,,0,,,,,,1,1,6042568,pdf,CAE4CF08EF61BD0FF089BF5540482F6D,,,The World of the Siege Representations of Early Modern Positiona 978-90-04-39568-8.pdf,0,2000-01-01 01:00:00,2020-02-26 06:00:03,cae4cf08ef61bd0ff089bf5540482f6d-g.jpg,,
32033708,"Introduction to Estimating, Plan Reading and Construction Techniques",,,,Gary Anglin,2020,,Routledge,,xiv+444,459,English,236,,,"0367209039,9780367209032",,,,,,,,,,,0,,,,,,1,1,30782662,pdf,AA0A8047DA914A4553C92FD11C208F3B,,,"Anglin_Introduction to Estimating, Plan Reading and Construction Techniques.pdf",0,2000-01-01 01:00:00,2020-02-26 06:00:03,aa0a8047da914a4553c92fd11c208f3b-g.jpg,,
32033709,The Scandi Sense Diet,,,,Suzy Wengel,2018,First,Mitchell Beazley,,418,428,Estados Unidos,,,,9781784725204,,,,,,FL,,,,,0,,,,,,1,1,16567978,pdf,28D7FC50E9695FB2D3A86B94616D8004,,,The Scandi Sense Diet - Suzy Wengel.pdf,0,2000-01-01 01:00:00,2020-02-26 06:10:00,28d7fc50e9695fb2d3a86b94616d8004-g.jpg,,
32033710,Шерлок Холмс. Головоломки великого сыщика,,Сказочные головоломки,,Гарет Мур,2018,1,,М.,256,257,Russian,138,,,9785040934386,,,794.5,77.056я92,,,,,,True PDF,0,0,,0,1,0,1,1,10057200,pdf,FD7E197C707208B00E5B700B65FA370C,,,Мур Гарет - Шерлок Холмс. Головоломки великого сыщика (Сказочные головоломки) - 2018.pdf,0,2000-01-01 01:00:00,2020-02-26 06:40:02,fd7e197c707208b00e5b700b65fa370c-g.jpg,Mathematics; Recreative Mathematics; Puzzles,
32033711,10 don'ts on your digital devices : the non-techie's survival guide to cyber security and privacy,,,,Eric J. Rzeszut & Daniel G. Bachrach,2014,,Friends of ED/Apress,New York,,0,English,,,,"9781484203675,1484203674",,,,,,,,,,,0,,,,,,,,1767506,epub,0B3F82024476B8A35D37EA0137073DAD,,,F:\\!upload\\_books\\oreilly - 10 Don'ts on Your Digital Devices The Non-Techies Survival Guide to Cyber Security and Privacy.epub,0,2000-01-01 01:00:00,2020-02-26 07:40:02,0b3f82024476b8a35d37ea0137073dad-d.jpg,Computer science.;Data encryption (Computer science);Sécurité informatique.;Réseaux d'ordinateurs -- Sécurité -- Mesures.;Informatique mobile -- Sécurité -- Mesures.;Protection de l'information (Informatique),
32033712,10 essentials for gamestorming,,,,James Macanufo & Sunni Brown & Dave Gray,2017,1st edition,"O'Reilly Media, Inc.",,20,0,English,,,,"9781492031260,1492031267,9781492031253",,,,,,,,,,,0,,,,,,,,981003,epub,BECEC2D286E1341A0344519DF721812F,,,F:\\!upload\\_books\\oreilly - 10 essentials for gamestorming.epub,0,2000-01-01 01:00:00,2020-02-26 07:40:02,becec2d286e1341a0344519df721812f-g.jpg,Creative ability in business.;Creative thinking.;Technological innovations.;New products.,
32033713,10 LED Projects for Geeks,,,,John Baichtal,2018,,No Starch Press,Place of publication not identified,,0,English,,,,"9781492067658,1492067652",,,,,,,,,,,0,,,,,,,,23202870,epub,997A4A29ECF4719E8691E6D2CC550D3D,,,F:\\!upload\\_books\\oreilly - 10 LED Projects for Geeks.epub,0,2000-01-01 01:00:00,2020-02-26 07:40:02,997a4a29ecf4719e8691e6d2cc550d3d-g.jpg,Electronics.,
32033714,10 minute guide Motivating people,,10 minute guides; Management series 2,,Nancy Stevenson,2000,,Alpha/Macmillan USA,"Indianapolis, IN",,0,English,,,,"9780028636122,0028636120",,,,,,,,,,,0,,,,,,,,266475,epub,D5822BB5806E01077E4212247A440874,,,F:\\!upload\\_books\\oreilly - 10 Minute Guide to Motivating People.epub,0,2000-01-01 01:00:00,2020-02-26 07:40:02,d5822bb5806e01077e4212247a440874-g.jpg,Employee motivation.,
32033715,10 Principles of Modern Marketing,,,,Kevin Lane Keller & Ann Lewnes,2019,1st edition,MIT Sloan Management Review,,12,0,English,,,,,,,,,,,,,,,0,,,,,,,,649105,epub,546ABE52A25417ECF685FC73A4417C67,,,F:\\!upload\\_books\\oreilly - 10 Principles of Modern Marketing.epub,0,2000-01-01 01:00:00,2020-02-26 07:40:02,546abe52a25417ecf685fc73a4417c67-g.jpg,,
32033716,10 Secrets of Time Management for Salespeople: Gain the Competitive Edge and Make Every Second Count,,,,Dave Kahle,2003,,Career Press,,,0,English,,,,9781564146304,,,,,,,,,,,0,,,,,,,,810155,epub,3EAB2679F026BFD4F6B1D7980C288C62,,,F:\\!upload\\_books\\oreilly - 10 Secrets of Time Management for Salespeople.epub,0,2000-01-01 01:00:00,2020-02-26 07:40:02,3eab2679f026bfd4f6b1d7980c288c62-d.jpg,BUSINESS & ECONOMICS -- Distribution.;BUSINESS & ECONOMICS -- Marketing -- General.,
32033717,10 Steps to a Digital Practice in the Cloud,,,,"Cho, S. (AICPA); Higgins.; L., John Higgins H. Bryan Smith",2017,2nd Edition,John Wiley & Sons,Place of publication not identified,,0,English,,,,"9781941651513,1941651518",,,,,,,,,,,0,,,,,,,,11553702,epub,0400F1B7BF56D41CB8CDCB65A1982E8C,,,"F:\\!upload\\_books\\oreilly - 10 Steps to a Digital Practice in the Cloud, 2nd Edition.epub",0,2000-01-01 01:00:00,2020-02-26 07:40:02,0400f1b7bf56d41cb8cdcb65a1982e8c-g.jpg,Cloud computing.,
32033718,10 steps to be a successful manager,,,,Lisa Haneberg,2019,2nd edition,Association for Talent Development/ASTD Press,,158,0,English,,,,"9781949036206,1949036200",,,,,,,,,,,0,,,,,,,,1726772,epub,1CC7A226E137144C8DAB65EAB972467A,,,"F:\\!upload\\_books\\oreilly - 10 Steps to Be a Successful Manager, 2nd Ed.epub",0,2000-01-01 01:00:00,2020-02-26 07:40:02,1cc7a226e137144c8dab65eab972467a-d.jpg,Executive ability.;Leadership.;Management.;Employee motivation.,
32033719,Massage for Beginners Books 1-5 Series Collection,,1-5 Series Collection,,"Kimberly, Jennifer",2014,,,,234,0,English,,,,,,B00MD6DYA2,,,,,,,,,0,,,,,,,,3375743,epub,A2BCAFD3E4C8C6E30C223C2497611C27,,,Massage for Beginners Books 1-5 Series Collection by Jennifer Kimberly (2014).epub,0,2000-01-01 01:00:00,2020-02-26 07:40:02,a2bcafd3e4c8c6e30c223c2497611c27-g.jpg,,
32033720,10 Steps to Successful Change Management,,10 Steps to Successful,,George Vukotich,2011,,Association for Talent Development,,,0,English,,,,"9786468600,9781562867539,9781607288015",,,,,,,,,,,0,,,,,,,,1467592,epub,9053598BD5EEB7F445403AE8154A628A,,,F:\\!upload\\_books\\oreilly - 10 Steps to Successful Change Management.epub,0,2000-01-01 01:00:00,2020-02-26 07:40:02,9053598bd5eeb7f445403ae8154a628a-g.jpg,,
32033721,10 steps to successful coaching,,10 steps,,Sophie Oberstein,2009,,Association for Talent Development/ASTD Press,"Alexandria, VA",230,0,English,,,,"9781562865443,1562865447",,,,,,,,,,,0,,,,,,,,2583218,epub,4F50CA89A56A11AC299EB9F39D0DE748,,,F:\\!upload\\_books\\oreilly - 10 Steps to Successful Coaching.epub,0,2000-01-01 01:00:00,2020-02-26 07:40:02,4f50ca89a56a11ac299eb9f39d0de748-d.jpg,Employees -- Coaching of.;Employees -- Training of.,
32033722,10 Steps to Successful Customer Service,,10 Steps to Successful,,Maxine Kamin,2010,,Association for Talent Development,,,0,English,,,,"9786468600,1562865900,9781562865900",,,,,,,,,,,0,,,,,,,,2134494,epub,1D0772F61D5CA51CCE47B428DC5AC570,,,F:\\!upload\\_books\\oreilly - 10 Steps to Successful Customer Service.epub,0,2000-01-01 01:00:00,2020-02-26 07:40:02,1d0772f61d5ca51cce47b428dc5ac570-g.jpg,,
32033723,10 Steps to Successful Facilitation,,,,ASTD,2008,1st edition,Association for Talent Development,,192,0,English,,,,9781562865382,,,,,,,,,,,0,,,,,,,,1740662,epub,EE34F8C9D7A559FDED24E95E639703EF,,,F:\\!upload\\_books\\oreilly - 10 Steps to Successful Facilitation.epub,0,2000-01-01 01:00:00,2020-02-26 07:40:02,ee34f8c9d7a559fded24e95e639703ef-d.jpg,Industrial management.;Leadership.;Teams in the workplace.;Organizational behavior.,
32033724,10 Steps to Successful Meetings,,10 Steps to Successful,,ASTD,2009,,Association for Talent Development,,,0,English,,,,"9786468600,9781562865474",,,,,,,,,,,0,,,,,,,,1460441,epub,A1B415F8D27477D6611322F3B2CC23ED,,,F:\\!upload\\_books\\oreilly - 10 Steps to Successful Meetings.epub,0,2000-01-01 01:00:00,2020-02-26 07:40:02,a1b415f8d27477d6611322f3b2cc23ed-g.jpg,,
32033725,10 Steps to Successful Mentoring,,,,Wendy Axelrod,2019,1st edition,Association for Talent Development,,224,0,English,,,,,,,,,,,,,,,0,,,,,,,,3404899,epub,BAB7A16E76764A8FF472088950CBB198,,,F:\\!upload\\_books\\oreilly - 10 Steps to Successful Mentoring.epub,0,2000-01-01 01:00:00,2020-02-26 07:40:02,bab7a16e76764a8ff472088950cbb198-g.jpg,,
32033726,10 Steps to Successful Presentations,,10 Steps to Successful,,ASTD,2008,,Association for Talent Development,,,0,English,,,,"9786468600,9781562865146,9781607282662",,,,,,,,,,,0,,,,,,,,961651,epub,634ED191E7EDA734BDD829FD6ACCF71B,,,F:\\!upload\\_books\\oreilly - 10 Steps to Successful Presentations.epub,0,2000-01-01 01:00:00,2020-02-26 07:40:02,634ed191e7eda734bdd829fd6accf71b-g.jpg,,
32033727,10 steps to successful project management,,,,Lou Russell,2007,,Association for Talent Development/ASTD Press,"London, Alexandria, Va",,0,English,,,,"9781562864637,1562864637",,,,,,,,,,,0,,,,,,,,1901798,epub,A1975A431A5A6D991D4500E329CCEA84,,,F:\\!upload\\_books\\oreilly - 10 Steps to Successful Project Management.epub,0,2000-01-01 01:00:00,2020-02-26 07:40:02,a1975a431a5a6d991d4500e329ccea84-d.jpg,Project management.,
32033728,10 steps to successful sales,,,,Brian Lambert,2010,,Association for Talent Development,,,0,English,,,,9781562866860,,,,,,,,,,,0,,,,,,,,1998426,epub,FB454809D212C34AF732FF33AEA5C4F4,,,F:\\!upload\\_books\\oreilly - 10 Steps to Successful Sales.epub,0,2000-01-01 01:00:00,2020-02-26 07:40:02,fb454809d212c34af732ff33aea5c4f4-d.jpg,BUSINESS & ECONOMICS -- Sales & Selling -- Management.,
32033729,10 steps to successful social networking for business,,10 steps series,,Darin E. Hartley,2010,,Association for Talent Development/ASTD Press,"Alexandria, Va",172,0,English,,,,"9781562867171,1562867172,9781607283591",,,,,,,,,,,0,,,,,,,,4843753,epub,2DC41621F1D26B02132774A7F2C16F01,,,F:\\!upload\\_books\\oreilly - 10 Steps to Successful Social Networking for Business.epub,0,2000-01-01 01:00:00,2020-02-26 07:40:02,2dc41621f1d26b02132774a7f2c16f01-d.jpg,Soziales Netzwerk.;Unternehmen.;Öffentlichkeitsarbeit.;Online-Marketing.,
32033730,10 Steps to Successful Strategic Planning,,,,Teri Lund & Susan Barksdale,2006,1st edition,Association for Talent Development,,256,0,English,,,,9781562864576,,,,,,,,,,,0,,,,,,,,3418823,epub,203FD2A9FDAF68D4B049AFEF7B26ED35,,,F:\\!upload\\_books\\oreilly - 10 Steps to Successful Strategic Planning.epub,0,2000-01-01 01:00:00,2020-02-26 07:40:02,203fd2a9fdaf68d4b049afef7b26ed35-d.jpg,Industrial management.;Project management.,
32033731,10 Steps to Successful Teams,,10 Steps to Successful,,Renie McClay,2009,,Association for Talent Development,,,0,English,,,,"9786468600,9781562866754,9781607283638",,,,,,,,,,,0,,,,,,,,2840151,epub,F2B745DEC27B7E425263FF631CD85900,,,F:\\!upload\\_books\\oreilly - 10 Steps to Successful Teams.epub,0,2000-01-01 01:00:00,2020-02-26 07:40:03,f2b745dec27b7e425263ff631cd85900-g.jpg,,
32033732,10 steps to Successful Time Management,,10 steps to success,,Cyndi Maxey & Kevin E. O'Connor,2014,Reprint,Association for Talent Development,,137,0,English,,,,"9781562867188,1562867180",,,,,,,,,,,0,,,,,,,,1772230,epub,063664E74C7066BC76AF78E967F142D0,,,F:\\!upload\\_books\\oreilly - 10 Steps to Successful Time Management.epub,0,2000-01-01 01:00:00,2020-02-26 07:40:03,063664e74c7066bc76af78e967f142d0-d.jpg,TIME MANAGEMENT;ZEITMANAGEMENT;GESTION DU TEMPS,
32033733,10 Steps to Successful Training,,10 Steps to Successful,,Elaine Biech,,,Association for Talent Development,,,0,English,,,,"9786468600,9781562865887,9781607283560,9781562865412",,,,,,,,,,,0,,,,,,,,2163584,epub,4FF27EEBB12C8D57C7B3F5D6DB75556F,,,F:\\!upload\\_books\\oreilly - 10 Steps to Successful Training.epub,0,2000-01-01 01:00:00,2020-02-26 07:40:03,4ff27eebb12c8d57c7b3f5d6db75556f-g.jpg,,
32033734,10 Steps to Virtual Presentations,,,,Wayne Turmel,2011,1st edition,Association for Talent Development/ASTD Press,"Alexandria, Va",176,0,English,,,,9781562867461,,,,,,,,,,,0,,,,,,,,1530631,epub,CCC18CF933D57F770D75F9311EF40393,,,F:\\!upload\\_books\\oreilly - 10 Steps to Virtual Presentations.epub,0,2000-01-01 01:00:00,2020-02-26 07:40:03,ccc18cf933d57f770d75f9311ef40393-d.jpg,Business presentations.;Communication in management.,
32033735,10 : the essential rules for beating the market,,,,"Louis Navellier & Turner, Michael K",2009,,John Wiley & Sons,"Hoboken, N.J",196,0,English,,,,"9780470292617,047029261X",,,,,,,,,,,0,,,,,,,,3326460,epub,487CDA6A3489FF63F6C1241FC768B9C1,,,F:\\!upload\\_books\\oreilly - 10 The Essential Rules for Beating the Market.epub,0,2000-01-01 01:00:00,2020-02-26 07:40:03,487cda6a3489ff63f6c1241fc768b9c1-d.jpg,Investments.;Speculation.,
32033736,10 things to do before upgrading to OS X 10.8 Mountain Lion,,,,Tom Negrino,2013,,Peachpit Press,"Berkeley, CA",,0,English,,,,"9780133157208,0133157202,9780133157215,0133157210",,,,,,,,,,,0,,,,,,,,2566623,epub,1C8B76209924F916BFCB0367E51DE0D5,,,F:\\!upload\\_books\\oreilly - 10 Things To Do Before Upgrading to OS X 10.8 Mountain Lion.epub,0,2000-01-01 01:00:00,2020-02-26 07:40:03,1c8b76209924f916bfcb0367e51de0d5-g.jpg,Mac OS.;Operating systems.;Macintosh -- Programming.;Operating systems (Computers);Macintosh (Computer) / Programming.,
32033737,100 habits of successful graphic designers : insider secrets on working smart and staying creative,,,,Plazm & Sarah Dougher & Josh Berger,2005,,Rockport Publishers,"Gloucester, Mass",,0,English,,,,"9781592531882,1592531881,9781610601474,1610601475",,,,,,,,,,,0,,,,,,,,105733502,epub,5379ACD1FD8A479B9EA5EC9C2C437020,,,F:\\!upload\\_books\\oreilly - 100 Habits of Successful Graphic Designers.epub,0,2000-01-01 01:00:00,2020-02-26 07:40:03,5379acd1fd8a479b9ea5ec9c2c437020-d.jpg,Graphic arts -- Vocational guidance.;Graphic arts -- Management.;Graphic arts -- Marketing.;Graphic arts / Vocational guidance.;Graphic arts / Management.;Graphic arts / Marketing.,
32033738,100 ideas that changed the web,,,,Jim Boulton,2015,[Enhanced Credo ed.],Laurence King Publishing,,,0,English,,,,"9781785391606,1785391607,9781780673707",,,,,,,,,,,0,,,,,,,,25744465,epub,B4BEA3672249F7F1010F66FD16D1B468,,,F:\\!upload\\_books\\oreilly - 100 Ideas that Changed the Web.epub,0,2000-01-01 01:00:00,2020-02-26 07:40:03,b4bea3672249f7f1010f66fd16d1b468-d.jpg,Internet -- History.;World Wide Web -- History.;World Wide Web -- Technological innovations.;Internet.;World Wide Web.,
32033739,100 MORE Things Every Designer Needs to Know About People,,,,Susan Weinschenk,2011,,New Riders,,,0,English,,,,"9780134196039,0134196031,1015950108,9780134196121",,,,,,,,,,,0,,,,,,,,5325104,epub,8A87A2320385B9DFE46CA401E840C143,,,F:\\!upload\\_books\\oreilly - 100 MORE Things Every Designer Needs to Know About People.epub,0,2000-01-01 01:00:00,2020-02-26 07:40:03,8a87a2320385b9dfe46ca401e840c143-g.jpg,,
32033740,100 questions and answers to help you land your dream iOS job : or to hire the right candidate!,,Online access with purchase: Springer,,Enrique López Mañas,2019,,Apress,,76,0,English,,,,"9781484242735,1484242734,9781484242728",,,,,,,,,,,0,,,,,,,,1394231,epub,9419D00193A636CCAD5C8CB0C7DF817D,,,F:\\!upload\\_books\\oreilly - 100 Questions and Answers to Help You Land Your Dream iOS Job Or to Hire the Right Candidate!.epub,0,2000-01-01 01:00:00,2020-02-26 07:40:03,9419d00193a636ccad5c8cb0c7df817d-d.jpg,iOS (Electronic resource);Computer software developers -- Vocational guidance.;IOS (Electronic resource),
32033741,100 SOA questions : asked and answered,,,,Ali Arsanjani & Kerrie Holley,2011,,Prentice Hall,"Upper Saddle River, N.J",,0,English,,,,"9780137080205,0137080204,9780132119818",,,,,,,,,,,0,,,,,,,,3464564,epub,7E4FB2800688425ACB9B0A821946521B,,,F:\\!upload\\_books\\oreilly - 100 SOA Questions Asked and Answered.epub,0,2000-01-01 01:00:00,2020-02-26 07:40:03,7e4fb2800688425acb9b0a821946521b-d.jpg,Service-oriented architecture (Computer science),
32033742,100 Things Every Artist Should Know,,,,Artists of Walter Foster,2012,1st edition,Walter Foster,,128,0,English,,,,9781610586047,,,,,,,,,,,0,,,,,,,,110659044,epub,B3442D6E0E22323919BD6F387B4D6D61,,,F:\\!upload\\_books\\oreilly - 100 Things Every Artist Should Know.epub,0,2000-01-01 01:00:00,2020-02-26 07:40:03,b3442d6e0e22323919bd6f387b4d6d61-d.jpg,Human-computer interaction.,
32033743,100 things every designer needs to know about people,,,,"Ph.D. Susan Weinschenk,",2011,,New Riders,Berkeley,242 sa,0,English,,,,"9780321767530,0321767535",,,,,,,,,,,0,,,,,,,,4087304,epub,F8F9564334048A5EE67CA34D51641A3C,,,F:\\!upload\\_books\\oreilly - 100 Things Every Designer Needs to Know About People.epub,0,2000-01-01 01:00:00,2020-02-26 07:40:03,f8f9564334048a5ee67ca34d51641a3c-d.jpg,Design -- Psychological aspects.;Tasarım -- Psikolojik yönler.,
32033744,100 things every presenter needs to know about people,,,,Susan Weinschenk,2012,,New Riders,"Berkeley, CA",,0,English,,,,"9780132964135,0132964139,9780321821249,0321821246",,,,,,,,,,,0,,,,,,,,6421942,epub,EBC2332906C783E068C0D4E59B1A976E,,,F:\\!upload\\_books\\oreilly - 100 Things Every Presenter Needs to Know About People.epub,0,2000-01-01 01:00:00,2020-02-26 07:40:03,ebc2332906c783e068c0d4e59b1a976e-d.jpg,Business presentations.;Business presentations -- Psychological aspects.;Public speaking.;Audiences -- Psychology.;Business presentations / Psychological aspects.;Audiences / Psychology.,
32033745,100 things you need to know about Microsoft Windows Vista,,,,Eric Geier,2008,,Que,,204 p),0,English,,,,"9780789737274,0789737272",,,,,,,,,,,0,,,,,,,,14512213,epub,E6F1EB693C8355ED6C30A6F75A101ECE,,,F:\\!upload\\_books\\oreilly - 100 Things You Need to Know About Microsoft Windows Vista.epub,0,2000-01-01 01:00:00,2020-02-26 07:40:03,e6f1eb693c8355ed6c30a6f75a101ece-d.jpg,Microsoft Windows (Computer file);Operating systems (Computers),
32033746,100 ways to motivate others : how great leaders can produce insane results without driving people crazy,,,,"Chandler, Steve; Richardson, Scott",2013,Third edition,Career Press,,223,0,English,,,,"9781601635556,1601635559,9781601632432",,,,,,,,,,,0,,,,,,,,638401,epub,51D5D8A2BBBA1387C9B9055FEEB0E5EE,,,F:\\!upload\\_books\\oreilly - 100 Ways to Motivate Others.epub,0,2000-01-01 01:00:00,2020-02-26 07:40:03,51d5d8a2bbba1387c9b9055feeb0e5ee-d.jpg,Employee motivation.;Leadershipages.,
32033747,100 Ways To Motivate Yourself,,,,Chandler Steve,2012,Third Edition,Career Press,,256,0,English,,,,9781601632449,,,,,,,,,,,0,,,,,,,,528440,epub,9C281348569253BF33ED8CD2AACB1BEC,,,"F:\\!upload\\_books\\oreilly - 100 Ways To Motivate Yourself, Third Edition.epub",0,2000-01-01 01:00:00,2020-02-26 07:40:03,9c281348569253bf33ed8cd2aacb1bec-d.jpg,Career development.,
32033748,100 ways to motivate yourself : change your life forever. - Includes index,,Safari Books Online,,Steve Chandler,2004,Rev. ed,Career Press,"Franklin Lakes, N.J",223,0,English,,,,"9781564147752,1564147754,9781601639226",,,,,,,,,,,0,,,,,,,,610093,epub,DCF0C79467C4C7F00BBBE71FA1518352,,,F:\\!upload\\_books\\oreilly - 100 Ways to Motivate Yourself.epub,0,2000-01-01 01:00:00,2020-02-26 07:40:03,dcf0c79467c4c7f00bbbe71fa1518352-d.jpg,Self-actualization (Psychology);Motivation (Psychology),
32033749,100 Ways to Take Better Portrait Photographs,,,,Daniel Lezano,2006,,David & Charles,Cincinnati,145,0,English,,,,"9780715335420,0715335421,9780715335635,0715335634",,,,,,,,,,,0,,,,,,,,23921643,epub,B7ED584995C4472BB7155A78E5EB537F,,,F:\\!upload\\_books\\oreilly - 100 Ways to Take Better Portrait Photographs.epub,0,2000-01-01 01:00:00,2020-02-26 07:40:03,b7ed584995c4472bb7155a78e5eb537f-g.jpg,Portrait photography.;Photography -- Digital techniques.,
32033750,100% Photoshop,,,,Steve Caplin,2012,,Focal Press,,257,0,English,,,,"9781136110290,1136110291,9780240814254",,,,,,,,,,,0,,,,,,,,44616200,epub,C7547E6DC6855E212ACAD828DA3BB7B9,,,F:\\!upload\\_books\\oreilly - 100% Photoshop.epub,0,2000-01-01 01:00:00,2020-02-26 07:40:03,c7547e6dc6855e212acad828da3bb7b9-g.jpg,Adobe Photoshop.,
32033751,1000 CEOs,,,,"Davidson, Andrew",2009,1st American ed,DK Publishing,"London, New York",512,0,English,,,,"9780756661243,0756661242,9780756670573,0756670578,9781405346658,1405346655,9781405352727,1405352728",,,,,,,,,,,0,,,,,,,,5111586,epub,00D0DB0904A16325CF519090CA08CB08,,,F:\\!upload\\_books\\oreilly - 1000 CEOs.epub,0,2000-01-01 01:00:00,2020-02-26 07:40:03,00d0db0904a16325cf519090ca08cb08-d.jpg,Chief executive officers -- Anecdotes.;Success in business -- Anecdotes.;BUSINESS & ECONOMICS -- Corporate Governance.;BUSINESS & ECONOMICS -- Leadership.;BUSINESS & ECONOMICS -- Organizational Development.;BUSINESS & ECONOMICS -- Workplace Culture.;Chief executive officers.;Success in business.;Manager.;Unternehmer -- Biographie.;Businesspeople -- Anecdotes.;Success -- Anecdotes.,
32033752,Classical Mythology,,,,Mark Morford,2014,10,Oxford University Press,,,865,English,,,,"9780199997329,2013028090",,,,,,,,,,,0,,,,,,1,1,31038912,pdf,A1436BBCA3FB7271099D71C64FD43B57,,,Classical-Mythology-10th-by-Mark-Morford.pdf,0,2000-01-01 01:00:00,2020-02-26 07:40:03,a1436bbca3fb7271099d71c64fd43b57-g.jpg,,
32033753,1000 Ideas by 100 Fashion Designers,,,,Carolina Cerimedo,2010,,Rockport Publishers,Osceola,320,0,English,,,,"9781616738686,1616738685",,,,,,,,,,,0,,,,,,,,250089909,epub,676BE80647ED1375AE570FE32407169E,,,F:\\!upload\\_books\\oreilly - 1000 Ideas by 100 Fashion Designers.epub,0,2000-01-01 01:00:00,2020-02-26 07:40:03,676be80647ed1375ae570fe32407169e-g.jpg,Fashion design.;Fashion designers.,
32033754,A Practical Introduction to Phonetics,,,,J. C. Catford,1988,1,Oxford University Press,,,260,English,314,,,"0198242174,9780198242178",,,,,,,,,,,0,,,,,,,1,27763512,pdf,5E6F8BA4A0E5620FC14D680CC74139F4,,,A practical introduction to pho - J. C. Catford.original_pdf.pdf,0,2000-01-01 01:00:00,2020-02-26 07:40:03,5e6f8ba4a0e5620fc14d680cc74139f4-g.jpg,,
32033755,1000 ideas by 100 graphic designers,,,,Matteo Cossu,2011,,Rockport Publishers,"Beverly, Mass",317,0,English,,,,"9781616736736,1616736739",,,,,,,,,,,0,,,,,,,,223782953,epub,06FBB266BB3D17F58BAA0C560ECE7153,,,F:\\!upload\\_books\\oreilly - 1000 Ideas by 100 Graphic Designers.epub,0,2000-01-01 01:00:00,2020-02-26 07:40:03,06fbb266bb3d17f58baa0c560ece7153-d.jpg,Graphic arts.;Graphic arts -- Vocational guidance.;Commercial artists.;Arts graphiques.;Arts graphiques -- Orientation professionnelle.;Dessinateurs publicitaires.,
32033756,1000 Illustrations for Children,,,,Julia Schonlau,2013,1st edition,Quarry Books,,320,0,English,,,,9781610587624,,,,,,,,,,,0,,,,,,,,324678399,epub,F353E7134ADE07ED20082E729ED3B1EF,,,F:\\!upload\\_books\\oreilly - 1000 Illustrations for Children.epub,0,2000-01-01 01:00:00,2020-02-26 07:40:03,f353e7134ade07ed20082e729ed3b1ef-d.jpg,Travel.;Tourism.;Product management.;Product differentiation.;New products.,
32033757,An Introduction to the Solar System,3,,,"David A. Rothery (editor), Neil McBride (editor), Iain Gilmour (editor)",2018,3,Cambridge University Press,,440,444,English,265,,,"1108430848,9781108430845",,,,,,,,,,"Fuck liberals, fuck astronomy, knowledge is power",0,1,1,0,1,0,1,1,21259986,pdf,865D5ACB9E826DC2CC376403BDFC88AF,,,An Introduction to the Solar System.pdf,0,2000-01-01 01:00:00,2020-02-26 07:40:03,865d5acb9e826dc2cc376403bdfc88af-g.jpg,"astronomy, solar system",
32033758,Practical Operations Management,,,,"Natalie Simpson, Philip Hancock",2017,2,Hercher,,590,590,English,6,,,"1939297133,9781939297136",,,,,,,,,,,0,,,,,,,0,380166064,pdf,E301B9F7DD74218124516E24944ECC67,,,Practical Operations Management Practical Operations Management.pdf,0,2000-01-01 01:00:00,2020-02-26 07:40:03,e301b9f7dd74218124516e24944ecc67-g.jpg,,
32033759,Mind the Stop: A brief guide to punctuation with a note on proof-correction,,,,G. V. Carey,1958,,"Penguin Books, Ltd.",,,132,English,314,,,"0140510729,9780140510720",,,,,,,,,,,0,,,,,,,1,22212087,pdf,2BBC82AF5D63BD7A334DB9F707342ECA,,,"Mind the stop _ a brief guide t - Carey, G. V.original_pdf.pdf",0,2000-01-01 01:00:00,2020-02-26 07:40:03,2bbc82af5d63bd7a334db9f707342eca-g.jpg,,
32033760,Engineering Mechanics: Dynamics in Si Units,,,,Russell Hibbeler,2016,14,Pearson Education,,792,793,English,,,,"1292088729,9781292088723",,,,,,,,,,,0,,,,,,,,226581788,pdf,0DFDE646679435237CB3528F21FBD3EB,,,101653.pdf,0,2000-01-01 01:00:00,2020-02-26 07:40:03,0dfde646679435237cb3528f21fbd3eb-g.jpg,,
32033761,1000+ more graphic elements : unique elements for distinctive designs. Volume II,,,,Grant Design Collaborative,2009,,Rockport Publishers,"Beverly, Mass",319,0,English,,,,"9781616736712,1616736712",,,,,,,,,,,0,,,,,,,,422002505,epub,3283DF421151648A5D17C4046CB33D60,,,F:\\!upload\\_books\\oreilly - 1000 More Graphic Elements.epub,0,2000-01-01 01:00:00,2020-02-26 07:40:03,3283df421151648a5d17c4046cb33d60-d.jpg,Graphic design (Typography);DESIGN -- Graphic Arts -- Typography.,
32033762,1001 algebra II practice problems for dummies : a Wiley Brand,,For Dummies,,Mary Jane Sterling,2013,,"John Wiley & Sons, Inc",New Jersey,486,0,English,,,,"9781118446621,1118446623",,,,,,,,,,,0,,,,,,,,13574570,epub,B30A1A8D819C5D712B1763B783EA330D,,,F:\\!upload\\_books\\oreilly - 1001 Algebra II Practice Problems For Dummies.epub,0,2000-01-01 01:00:00,2020-02-26 07:40:03,b30a1a8d819c5d712b1763b783ea330d-d.jpg,512.50,
32033763,101 business ideas that will change the way you work : turning clever thinking into smart advice,,,,Antonio E. Weiss,2013,,FT Publishing International/Pearson,"Harlow, U.K",,0,English,,,,"9780273794561,0273794566",,,,,,,,,,,0,,,,,,,,13001024,epub,DFDB7A4892E5653172E9778477D0CCCF,,,F:\\!upload\\_books\\oreilly - 101 Business Ideas That Will Change the Way You Work.epub,0,2000-01-01 01:00:00,2020-02-26 07:40:03,dfdb7a4892e5653172e9778477d0cccf-g.jpg,,
32033764,101 design ingredients to solve big tech problems,,Pragmatic programmers,,Eewei Chen,2014,,Pragmatic Bookshelf/The Pragmatic Programmers,"Frisco, TX",,0,English,,,,"9781937785321,1937785327",,,,,,,,,,,0,,,,,,,,18321703,epub,5BEBA95539310C66CC4F4A9879E8379D,,,F:\\!upload\\_books\\oreilly - 101 Design Ingredients to Solve Big Tech Problems.epub,0,2000-01-01 01:00:00,2020-02-26 07:40:03,5beba95539310c66cc4f4a9879e8379d-d.jpg,Teams in the workplace.;Interactive management.;Group problem solving.;Management.;Management / Technological innovations.,
32033765,101 design methods : a structured approach for driving innovation in your organization,,,,Vijay Kumar,2013,,Wiley,"Hoboken, N.J",326,0,English,,,,"9781118083468,1118083466",,,,,,,,,,,0,,,,,,,,96129758,epub,74C96696850733D0EAFDE2E32F365B7F,,,F:\\!upload\\_books\\oreilly - 101 Design Methods.epub,0,2000-01-01 01:00:00,2020-02-26 07:40:03,74c96696850733d0eafde2e32f365b7f-d.jpg,Canvi organitzatiu.;Creativitat en els negocis.;Innovacions tecnològiques.;Pensament creatiu.,
32033766,"101 Excel 2013 tips, tricks et timesavers",,,,John Walkenbach,2013,,John Wiley & Sons,"Hoboken, NJ",298,0,English,,,,"9781118642184,111864218X,9781118642320,1118642325,9781118651063,1118651065,9781118651148,1118651146",,,,,,,,,,,0,,,,,,,,11101619,epub,B95AE8B205BD6F71623DDA72C754F96A,,,"F:\\!upload\\_books\\oreilly - 101 Excel 2013 Tips, Tricks and Timesavers.epub",0,2000-01-01 01:00:00,2020-02-26 07:40:03,b95ae8b205bd6f71623dda72c754f96a-d.jpg,Electronic spreadsheets -- Computer programs.;Microsoft Excel (Computer file),
32033767,101 games for trainers : a collection of the best activities from Creative training techniques newsletter,,,,"Pike, Robert W.; Busse, Christopher",2004,,HRD Press,"Amherst, MA",107,0,English,,,,"9780943210384,0943210380",,,,,,,,,,,0,,,,,,,,2404867,epub,BD2093172E885D04584892A44E098C99,,,F:\\!upload\\_books\\oreilly - 101 Games for Trainers A Collection of the Best Activities from Creative Training Techniques Newsletter.epub,0,2000-01-01 01:00:00,2020-02-26 07:40:03,bd2093172e885d04584892a44e098c99-d.jpg,"Employees -- Training of -- Problems, exercises, etc.;Employees -- Training of.",
32033768,101 Great Games and Activities,,Pfeiffer Electronic Downloads Ser. 67,,Arthur B. VanGundy,2012,,"John Wiley & Sons, Incorporated., Pfeiffer [Imprint",Hoboken,372,0,English,,,,"9781118296011,111829601X",,,,,,,,,,,0,,,,,,,,2761765,epub,60B8D247D2AF8584889167D428B07B15,,,F:\\!upload\\_books\\oreilly - 101 Great Games and Activities.epub,0,2000-01-01 01:00:00,2020-02-26 07:40:03,60b8d247d2af8584889167d428b07b15-d.jpg,Internet games -- Programming.,
32033769,101 leadership actions for effective presentations,,,,Dr. Ollie Malone,2004,,HRD Press,"Amherst, Mass",,0,English,,,,9780874258035,,,,,,,,,,,0,,,,,,,,980916,epub,5E5595DD1C026347ADC4A8AF4A0469DA,,,F:\\!upload\\_books\\oreilly - 101 Leadership Actions for Effective Presentations.epub,0,2000-01-01 01:00:00,2020-02-26 07:40:04,5e5595dd1c026347adc4a8af4a0469da-g.jpg,Business presentations.;Public speaking.;Leadership.;Art de parler en public.;Présentations (Affaires),
32033770,101 Leadership Actions for Managing Change in the 21,,,,Ollie Malone,2011,1st edition,HRD Press,,140,0,English,,,,9781599962269,,,,,,,,,,,0,,,,,,,,837261,epub,47F468C6806F67A2DAC78A33371B65E5,,,F:\\!upload\\_books\\oreilly - 101 Leadership Actions for Managing Change in the 21.epub,0,2000-01-01 01:00:00,2020-02-26 07:40:04,47f468c6806f67a2dac78a33371b65e5-d.jpg,Leadership.,
32033771,101 leadership actions for performance management,,,,Dr. Ollie Malone,2004,,HRD Press,"Amherst, Ma",,0,English,,,,"9781423716822,1423716825,9781599966533,1599966530,9780874258356",,,,,,,,,,,0,,,,,,,,1021382,epub,242BA308B9E4992BBB5BF8C11D4C8243,,,F:\\!upload\\_books\\oreilly - 101 Leadership Actions for Performance Management.epub,0,2000-01-01 01:00:00,2020-02-26 07:40:04,242ba308b9e4992bbb5bf8c11d4c8243-d.jpg,Leadership.;Supervision of employees.;Employees -- Rating of.;Performance -- Measurement.;Labor productivity -- Measurement.;Organizational effectiveness -- Measurement.;BUSINESS & ECONOMICS -- Leadership.,
32033772,101 More Games for Trainers: A Collection of the Best Activities from Creative Training Techniques Newsletter,,,,Bob Pike,2017,,HRD Press,,,0,English,,,,9780943210445,,,,,,,,,,,0,,,,,,,,5159630,epub,673DEEA16E5A9C67478E86038875EDFB,,,F:\\!upload\\_books\\oreilly - 101 More Games for Trainers A Collection of the Best Activities from Creative Training Techniques Newsletter.epub,0,2000-01-01 01:00:00,2020-02-26 07:40:04,673deea16e5a9c67478e86038875edfb-g.jpg,,
32033773,App Store Confidential: Ein persönlicher Blick hinter die Kulissen von Apples wichtigstem Business,,,,Tom Sadowski,2020,,Murmann Publishers GmbH,,,0,German,,,,9783867746427,,B082XJGKPG,,,,,,,,,0,,,,,,,,987481,epub,52B9A118F73512345BF2864F97996EC8,,,App Store Confidential_ Ein persönlicher Blick hinter die Kulissen von Apples wichtigstem Business (German Edition).epub,0,2000-01-01 01:00:00,2020-02-26 07:40:04,52b9a118f73512345bf2864f97996ec8-g.jpg,,
32033774,101 quick and easy ideas taken from the master photographers of the twentieth century,,,,Matthew Bamberg,2010,,Course Technology/Cengage Learning,Boston,232,0,English,,,,"9781435454361,1435454367",,,,,,,,,,,0,,,,,,,,7825544,epub,75F38E5BC48F67BB6836C612EC1DA02A,,,F:\\!upload\\_books\\oreilly - 101 Quick and Easy Ideas Taken from the Master Photographers of the Twentieth Century.epub,0,2000-01-01 01:00:00,2020-02-26 07:40:04,75f38e5bc48f67bb6836c612ec1da02a-d.jpg,"Photography -- Handbooks, manuals, etc.;Photography.",
32033775,101 Quick and Easy Secrets for Using Your Digital Photographs,,,,Matthew Bamberg,2010,,Course Technology PTR,"Boston, Mass",208,0,English,,,,"9781435454378,1435454375,1435455673",,,,,,,,,,,0,,,,,,,,6751335,epub,CBBB7919B833EE95DEAD52D7AE5463CE,,,F:\\!upload\\_books\\oreilly - 101 Quick and Easy Secrets for Using Your Digital Photographs.epub,0,2000-01-01 01:00:00,2020-02-26 07:40:04,cbbb7919b833ee95dead52d7ae5463ce-d.jpg,Digital fotografi,
32033776,Um coração saudável,,,,Marcos Savioli; Roque,2015,2ª,Editora Canção Nova,São Paulo/SP,260,0,Portuguese,164,,,9788576771647,,B01B3EOYHQ,,,,,,,,,0,,,,,,,,849814,epub,9242F026790B9A45AAB7A5801AA18B3B,,,Um coracao saudavel - Roque Marcos Savioli.epub,0,2000-01-01 01:00:00,2020-02-26 07:50:02,9242f026790b9a45aab7a5801aa18b3b-g.jpg,Saúde - Doenças coronarianas - Orientações de Saúde,
32033777,Um coração de mulher,,,,Roque Marcos Savioli,2016,1ª,Editora Canção Nova,São Paulo/SP,159,0,Portuguese,164,,,9788576772347,,B01DJNC00W,,,,,,,,,0,,,,,,,,662087,epub,241B2F10FC741CA1B8A557EB5D6554FF,,,Um coracao de mulher - Roque Marcos Savioli.epub,0,2000-01-01 01:00:00,2020-02-26 07:50:02,241b2f10fc741ca1b8a557eb5d6554ff-g.jpg,1. Coração - Doenças 2. Cuidados médicos 3. Doenças cardiovasculares 4. Espiritualidade 5. Medicina Preventiva 6. Mulheres - Saúde,
32033778,Milagres que a medicina não contou,,,,Roque Marcos Savioli,2013,1ª,Editora Gaia,São Paulo/SP,227,0,Portuguese,186,,,9788575553343,,B015JQ6RA6,,,,,,,,,0,,,,,,,,885568,epub,FC9176203E37F5150704D67AC79C2B7D,,,Milagres que a medicina nao con - Roque Marcos Savioli.epub,0,2000-01-01 01:00:00,2020-02-26 07:50:02,fc9176203e37f5150704d67ac79c2b7d-g.jpg,1. Cura pela fé. 2. Medicina - Aspectos religiosos - Cristianismo.,
32033779,Christ in the Early Christian Hymns,,,,Daniel Liderbach,1998,,Paulist Press,,,172,English,,,,0809138093,,,,,,,,,,,0,,,,,,,1,5257361,pdf,3688FB43489DE1F820D9F6CB412AA293,,,Christ in the early Christian.pdf,0,2000-01-01 01:00:00,2020-02-26 07:50:03,3688fb43489de1f820d9f6cb412aa293-g.jpg,,
32033780,哈耶克论自由文明与保障,,,,哈耶克,2016,,中国商业出版社,,,286,Chinese,,,,9787504492715,,,,,,,,,,,0,,,,,,1,0,47111289,pdf,519D9208263F04791FEA1F2F748CC62C,,,哈耶克论自由文明与保障.pdf,0,2000-01-01 01:00:00,2020-02-26 08:40:02,519d9208263f04791fea1f2f748cc62c-g.jpg,,
32033781,知识的僭妄：哈耶克哲学社会科学论文集,,,,哈耶克,2014,,首都经济贸易大学出版社,,,223,Chinese,,,,9787563821747,,,,,,,,,,,0,,,,,,1,0,55374426,pdf,D5CC0AC697DDFEFCFBB22E71038ACFAD,,,知识的僭妄  哈耶克哲学社会科学论文集.pdf,0,2000-01-01 01:00:00,2020-02-26 08:40:02,d5cc0ac697ddfefcfbb22e71038acfad-g.jpg,,
32033782,法律、立法与自由（第一卷）,,,,哈耶克,2000,,中国大百科全书出版社,,,377,Chinese,,,,7500062605,,,,,,,,,,,0,,,,,,1,0,43288880,pdf,08C176DC81D6ABF0569A035DC4D5E173,,,法律、立法与自由（第一卷）.pdf,0,2000-01-01 01:00:00,2020-02-26 08:40:02,08c176dc81d6abf0569a035dc4d5e173-g.jpg,,
32033783,法律、立法与自由（第二、三卷）,,,,哈耶克,2000,,中国大百科全书出版社,,,635,Chinese,,,,7500064047,,,,,,,,,,,0,,,,,,1,0,75987268,pdf,7A7E278E1B5B9003A2E09883653B55A9,,,法律、立法与自由（第二、三卷）.pdf,0,2000-01-01 01:00:00,2020-02-26 08:40:02,7a7e278e1b5b9003a2e09883653b55a9-g.jpg,,
32033784,Doketismus und Inkarnation,,TANZ - Texte und Arbeiten zum neutestamentlichen Zeitalter,,Wichard von Heyden,2014,1,A. Francke Verlag,,581,586,German,,,,"3772085245,9783772085246",,,,,,,,,,,0,,,,,,1,1,7316992,pdf,163398D50DDE3E3478407587FAB38766,,,Doketismus und Inkarnation 978-3-7720-8524-6.pdf,0,2000-01-01 01:00:00,2020-02-26 08:40:02,163398d50dde3e3478407587fab38766-g.jpg,,
32033785,物理表現のイラスト描画,,,,平井 太朗,2017,,株式会社エムディエヌコーポレーション / MdN Corporation,,,0,Japanese,,,,3566172217,,,,,,,,,,,0,,,,,,,,86869685,epub,9BAF7129A29D6587BA2D9672FBE23EED,,,Wu Li Biao Xian noirasutoMiao H - Ping Jing  Tai Lang.epub,0,2000-01-01 01:00:00,2020-02-26 08:50:01,9baf7129a29d6587ba2d9672fbe23eed-g.jpg,,
32033786,The Short and Excruciatingly Embarrassing Reign of Captain Abbott,,,,Andrew P Street,2015,,,,,0,English,,,,"9781760290542,9781925268805",,,,,,,,lo-oCgAAQBAJ,,,0,,,,,,,,288906,epub,9FD7C1F7B64988799596B1FF87E14B73,,,N:\\!genesis_\\0day\\!non_fiction\\The Short and Excruciatingly Embarrassing Reign of Captain Abbott.epub,0,2000-01-01 01:00:00,2020-02-26 09:00:02,9fd7c1f7b64988799596b1ff87e14b73-g.jpg,,
32033787,The Web Application Hacker's Handbook: Finding and Exploiting Secirity Flaws,,,,"Dafydd Stuttard, Marcus Pinto",2011,2,John Wiley & Sons,,,0,English,,,,"0123456789,0100645003,2147483648,9781118026472,9781118175224,9781118175248,9781118175231",,,,,,,,,,,0,,,,,,,,20588218,epub,02397DF201278150ECF1F744098356D4,,,N:\\!genesis_\\0day\\!non_fiction\\The Web Application Hacker's Handbook.epub,0,2000-01-01 01:00:00,2020-02-26 09:00:02,02397df201278150ecf1f744098356d4-g.jpg,,
32033788,Soros on Soros : ahead of the curve,,,,George Soros,1995,,J. Wiley,New York,326,0,English,,,,"9780471119777,0471119776",,B000W0YFHW,,,,,,,,,0,,,,,,,,952097,epub,896A28E09D83343CAD45F98071F5DA12,,,N:\\!genesis_\\0day\\!non_fiction\\Soros on Soros_ Staying Ahead of the Curve.epub,0,2000-01-01 01:00:00,2020-02-26 09:10:02,896a28e09d83343cad45f98071f5da12-d.jpg,"Soros, George -- Interviews.;Soros, George -- Political and social views.;Soros, George.;Capitalists and financiers -- Interviews.;Investments.;Capitalists and financiers.;Political and social views.",
32033789,Essential Marx,,,,"Karl Marx, Leon Trotsky (ed.)",2012,,Dover Publications,,,0,English,,,,9780486122311,,,,,,,,,,,0,,,,,,,,615371,epub,5251C5902D693FA18DCAE2B3C732DE36,,,N:\\!genesis_\\0day\\!non_fiction\\The Essential Marx.epub,0,2000-01-01 01:00:00,2020-02-26 09:10:02,5251c5902d693fa18dcae2b3c732de36-g.jpg,Capital.;Economics.;BIOGRAPHY & AUTOBIOGRAPHY -- Philosophers.,
32033790,Multiculturalism : a Very Short Introduction,,Very short introductions,,Ali Rattansi,2011,,Oxford University Press/OUP Oxford,Oxford,201,0,English,,,,"9780191617553,0191617555,9780199546039",,B005PUWT3Q,,,,,,,,,0,,,,,,,,442865,epub,EBB58A7DF043C0C8D29C4B59598DFA7B,,,N:\\!genesis_\\0day\\!non_fiction\\Multiculturalism_ A Very Short Introduction (Very Short Introductions).epub,0,2000-01-01 01:00:00,2020-02-26 09:20:02,ebb58a7df043c0c8d29c4b59598dfa7b-g.jpg,Social Science.,
32033791,"St. Cyril of Alexandria, Commentary on the Twelve Prophets Band III",,The Fathers of the Church 124,,"Cyril of Alexandria,  trans. Robert C. Hill",2012,,The Catholic University of America Press,,,373,English,,,,"9780813201153,2007016972,9780813201245",,,,,,,,,,,0,,,,,,,1,1831941,pdf,C3DC5B948BD8A5587B126D618D2A75CE,,,Cyril of Alexandria.pdf,0,2000-01-01 01:00:00,2020-02-26 09:20:02,c3dc5b948bd8a5587b126d618d2a75ce-g.jpg,,
32033792,A History Of Indian Philosophy,1,,,Surendranath Dasgupta,1922,,Cambridge University Press,,,544,English,,,,"8120804120,9788120804128",,,,,,,,,,,0,,,,,,1,1,27023322,pdf,5468B91E66B6FABEF63629AA37F9A1A7,,,History of Indian Philosophy 1 - Surendranath Dasgupta.pdf,0,2000-01-01 01:00:00,2020-02-26 09:20:02,5468b91e66b6fabef63629aa37f9a1a7-g.jpg,,
32033793,A History of Indian Philosophy,2,,,Surendranath Dasgupta,1952,,Cambridge University Press,,638,631,English,,,,"1345218796,9781345218794",,,,,,,,,,,0,,,,,,1,1,37304544,pdf,D2E0394356F413034170F09DA3FD330E,,,History of Indian Philosophy 2 - Surendranath Dasgupta.pdf,0,2000-01-01 01:00:00,2020-02-26 09:20:02,d2e0394356f413034170f09da3fd330e-g.jpg,,
32033794,A History Of Indian Philosophy,3,,,Surendranath Dasgupta,1952,,Cambridge University Press,,614,627,English,,,,"8120804147,9788120804142",,,,,,,,,,,0,,,,,,1,1,31172476,pdf,3E93EEF5F809BC41A7AC7D32FA2ECDE7,,,History of Indian Philosophy 3 - Surendranath Dasgupta.pdf,0,2000-01-01 01:00:00,2020-02-26 09:20:02,3e93eef5f809bc41a7ac7d32fa2ecde7-g.jpg,,
32033795,A History of Indian Philosophy,4,,,Surendranath Dasgupta,1961,,Cambridge University Press,,526,496,,,,,"1988942667,9781988942667",,,,,,,,,,,0,,,,,,1,1,23775875,pdf,493864772A3E505C0F927C381E5B1ED9,,,History of Indian Philosophy 4 - Surendranath Dasgupta.pdf,0,2000-01-01 01:00:00,2020-02-26 09:20:02,493864772a3e505c0f927c381e5b1ed9-g.jpg,,
32033796,A History of Indian Philosophy,5,,,Surendranath Dasgupta,1955,,Cambridge University Press,,222,217,,,,,"0342665863,9780342665860",,,,,,,,,,,0,,,,,,1,1,11845382,pdf,EBF7730C4B646F4DB932AF053EC9A3AB,,,History of Indian Philosophy 5 - Surendranath Dasgupta.pdf,0,2000-01-01 01:00:00,2020-02-26 09:20:02,ebf7730c4b646f4db932af053ec9a3ab-g.jpg,,
32033797,Identità e memoria nell'Israele antico. Storiografia e confronto culturale negli scritti biblici e giudaici,,,,Gian Luigi Prato,2010,,Paideia,,324,324,Italian,,,,9788839407757,,,,,,,,,,,0,,,,,,,1,3928774,pdf,D7C2839045F6FC48D615C03D0699CF07,,,Gian Luigi Prato - Identità e memoria nellIsraele antico.pdf,0,2000-01-01 01:00:00,2020-02-26 09:30:01,d7c2839045f6fc48d615c03d0699cf07-g.jpg,,
32033798,"Master of the Grill: Foolproof Recipes, Top-Rated Gadgets, Gear, & Ingredients Plus Clever Test Kitchen Tips & Fascinating Food Science",,,,America's Test Kitchen,2016,,America's Test Kitchen,,,0,English,,,,"9781940352541,1940352541",,B013NI8WH8,,,,,,,,,0,,,,,,,,63999152,epub,01C307FAFEAB4CBBBD5844DD391C23A4,,,"N:\\!genesis_\\0day\\!non_fiction\\Master of the Grill_ Foolproof Recipes, Top-Rated Gadgets, Gear & Ingredients Plus Clever Test Kitchen Tips & Fascinating Food Science.epub",0,2000-01-01 01:00:00,2020-02-26 09:30:01,01c307fafeab4cbbbd5844dd391c23a4-d.jpg,Barbecuing.;Outdoor cooking.,
32033799,Mycelium Running: How Mushrooms Can Help Save the World,,,,Paul Stamets,2005,,Potter/TenSpeed/Harmony/Ten Speed Press,"Berkeley, Calif",343,0,English,,,,"9781580085793,1580085792",,B004GTLKEG,,,,,,,,,0,,,,,,,,11264954,epub,B7ECF1A2B9F9E9DCB2A9A249AFDB8169,,,N:\\!genesis_\\0day\\!non_fiction\\Mycelium Running_ How Mushrooms Can Help Save the World.epub,0,2000-01-01 01:00:00,2020-02-26 09:30:01,b7ecf1a2b9f9e9dcb2a9a249afdb8169-d.jpg,Hongos -- Cultivo.;Hongos -- Ecología.,
32033800,The Secret Midwife,,,,The Secret Midwife; Katy Weitz,2020,,John Blake,,,0,English,68,,,9781789462562,,B0832QKF8J,,,,,,,,,0,,,,,0,,,289461,epub,6FBA7EBE9C815F16C6A772D2EF97C7C9,,,The Secret Midwife - The Secret Midwife.epub,0,2000-01-01 01:00:00,2020-02-26 09:30:01,6fba7ebe9c815f16c6a772d2ef97c7c9-g.jpg,,
32033801,"Il vangelo di Giovanni. Testo greco, traduzione e commento ai capp. 1-4",Vol. 1,,,Rudolf Schnackenburg,1973,,Paideia,,770,770,Italian,,,,,,,,,,,,,,,0,,,,,,,1,20988608,pdf,1E21181BA48C49716C1F1E9F13262D44,,,Rudolf Schnackenburg (cur.) - Il vangelo di Giovanni. Parte 1.pdf,0,2000-01-01 01:00:00,2020-02-26 09:50:02,1e21181ba48c49716c1f1e9f13262d44-g.jpg,,
32033802,"Il vangelo di Giovanni. Testo greco, traduzione e commento ai capp. 5-12",Vol. 2,,,Rudolf Schnackenburg,1977,,Paideia,,729,729,Italian,,,,,,,,,,,,,,,0,,,,,,,1,36425696,pdf,E19C683F2EC86D5A7A02AA0D3FEA2AE6,,,Rudolf Schnackenburg (cur.) - Il vangelo di Giovanni. Parte 2.pdf,0,2000-01-01 01:00:00,2020-02-26 09:50:02,e19c683f2ec86d5a7a02aa0d3fea2ae6-g.jpg,,
32033803,"Il vangelo di Giovanni. Testo greco, traduzione e commento ai capp. 13-21",Vol. 3,,,Rudolf Schnackenburg,1981,,Paideia,,679,679,Italian,,,,,,,,,,,,,,,0,,,,,,1,1,21201987,pdf,7EC3CEE3A3AEF535E739DF3173C10ADC,,,Rudolf Schnackenburg (cur.) - Il vangelo di Giovanni. Parte 3.pdf,0,2000-01-01 01:00:00,2020-02-26 09:50:02,7ec3cee3a3aef535e739df3173c10adc-g.jpg,,
32033804,The World Beyond the Grave or the After Life,,,,"Athenagoras Cavadas, trans. Constantine Andrews",1988,,Holy Cross Orthodox Press,,,120,English,,,,0917651529,,,,,,,,,,,0,,,,,,,1,3496501,pdf,7469382B7C563320EFA02908456D5A18,,,"The world beyond the grave - Cavadas, Athenagoras.pdf",0,2000-01-01 01:00:00,2020-02-26 09:50:02,7469382b7c563320efa02908456d5a18-g.jpg,,
32033805,"Handmade Candies: Recipes for Homemade Desserts such as: Marshmallow, Fudge, Nougat, Marzipan and Taffies, Put Together in One Yummy Cookbook",,Handmade Desserts collection Series 2,,Adi Endevelt,2017,,CreateSpace Independent Publishing Platform,,120,0,English,49,,,,,B074W9NJSB,,,,,,,,,0,,,,,,,,66196659,epub,A7600D488ED0C3C1D2EA00153D8CBF1D,,,Handmade Candies.epub,0,2000-01-01 01:00:00,2020-02-26 09:50:02,a7600d488ed0c3c1d2ea00153d8cbf1d-d.jpg,,
32033806,Der Weg der europäischen Philosophie: Eine Gewissenserforschung. Bd. 1: Antike Philosophie,,,,Hermann Schmitz,2007,1,Verlag Karl Alber,,420,420,German,,,,"349548261X,9783495482612",,,,,,,,,,,0,,,,,,1,1,1858833,pdf,92595E377CE7F70C34FF546D8F7B49DD,,,"Der Weg der europäischen Philosophie, Band 1 Antike Philosophie 978-3-495-48261-2.pdf",0,2000-01-01 01:00:00,2020-02-26 09:50:02,92595e377ce7f70c34ff546d8f7b49dd-g.jpg,,
32033807,"Adel, Kirche und Königtum im Westgotenreich",,"Vorträge und Forschungen. Sonderband, 8",,Dietrich Claude,1971,,Jan Thorbecke Verlag,Sigmaringen,216,220,German,64,,,"9783799566681,3799566686",,,,,,,,,,,0,,,,1,0,0,1,101459401,pdf,EA8B65D5B1761E4B52AFF00CB0F815A5,,,Claude.pdf,0,2000-01-01 01:00:00,2020-02-26 09:50:02,ea8b65d5b1761e4b52aff00cb0f815a5-g.jpg,,
32033808,The Soviet Volunteers: Modernization and Bureaucracy in Public Mass Organization,,,,William E. Odom,1973,,Princeton University Press,,378,377,English,,,,"0691087180,9780691087184",,,,,,,,,,,0,0,1,0,1,1,1,1,11209922,pdf,0C0C79D7A5213B5D15F4F098539A1B60,,,Odom - The Soviet Volunteers.pdf,0,2000-01-01 01:00:00,2020-02-26 10:00:01,0c0c79d7a5213b5d15f4f098539a1b60-g.jpg,,
32033809,From Good to Grace: Letting Go of the Goodness Gospel,,,,Christine Hoover,2015,,"Baker Academic, Div of Baker Publishing Group",,,0,English,,,,"9781441222404,1441222405",,B00MBTYBPI,,,,,,,,,0,,,,,,,,918933,epub,301739662A044400B744C6453153365C,,,"N:\\!genesis_\\0day\\!non_fiction\\[(From Good to Grace_ Letting Go of the Goodness Gospel)] [Author_ Christine Hoover] Published on (April, 2015).epub",0,2000-01-01 01:00:00,2020-02-26 10:00:02,301739662a044400b744c6453153365c-d.jpg,Christian women -- Religious life.;Grace (Theology),
32033810,Lincoln: A Very Short Introduction,,Very short introductions 203,,"Guelzo, Allen C.; Lincoln, Abraham",2009,,Oxford University Press Inc,,147 S,0,English,,,,"9780199365661,0199365660,9780195367805",,B007OSM1YO,,,,,,,,,0,,,,,,,,480612,epub,41341FD431A40144AE955B2C365DCADA,,,N:\\!genesis_\\0day\\!non_fiction\\[(Lincoln_ A Very Short Introduction )] [Author_ Allen C. Guelzo] [Feb-2009].epub,0,2000-01-01 01:00:00,2020-02-26 10:00:02,41341fd431a40144ae955b2c365dcada-d.jpg,"Lincoln, Abraham, -- 1809-1865 -- Philosophy.;Lincoln, Abraham, -- 1809-1865 -- Political and social views.;Lincoln, Abraham, -- 1809-1865 -- Religion.;Lincoln, Abraham, -- 1809-1865.;Philosophy.;Political and social views.;Religion.",
32033811,Revolutions: A Very Short Introduction,,Very short introductions 381,,Jack A. Goldstone,2014,,Oxford University Press Inc,Oxford,148,0,English,,,,"9780199858507,0199858500",,B00Y2V2Y8Y,,,,,,,,,0,,,,,,,,714708,epub,C7271EEEAEF0E4DE597652EB088BFD36,,,"N:\\!genesis_\\0day\\!non_fiction\\[(Revolutions_ A Very Short Introduction)] [Author_ Jack A. Goldstone] Published on (February, 2014).epub",0,2000-01-01 01:00:00,2020-02-26 10:00:02,c7271eeeaef0e4de597652eb088bfd36-d.jpg,Revolutions -- History.;HISTORY -- Revolutionary -- bisacsh.;HISTORY -- Revolutionary.;Revolutions.;Revolution,
32033812,"To Shape a New World: Essays on the Political Philosophy of Martin Luther King, Jr.",,,,Tommie Shelby & Brandon M. Terry,2018,,Harvard University Press,,,0,English,,,,,,B078WFFZYF,,,,,,,,,0,,,,,,,,772841,epub,9209A01ECB70A4EFC7027B83B9C630D1,,,F:\\!upload\\_books\\To Shape a New World - Tommie Shelby & Brandon M. Terry.epub,0,2000-01-01 01:00:00,2020-02-26 10:10:01,9209a01ecb70a4efc7027b83b9c630d1-g.jpg,,
32033813,La fine del petrolio: combustibili fossili e prospettive energetiche per il ventunesimo secolo,,Saggi/scienze,,"Bardi, Ugo",2003,,Editori riuniti,Roma,244,244,Italian,,,,"9788835954255,8835954258",,,,,,,,,,,0,,,,,,,,1311829,pdf,0716B4788B410EEF78817512783EEDC6,,,F:\\!upload\\_books\\Ugo Bardi - La Fine Del Petrolio.pdf,0,2000-01-01 01:00:00,2020-02-26 10:10:01,0716b4788b410eef78817512783eedc6-g.jpg,,
32033814,"Ultimate Success, Featuring: Think and Grow Rich, As a Man Thinketh, and The Power of Your Subconscious Mind",,,,Napoleon Hill & James Allen & Joseph Murphy,2018,,Penguin Publishing Group/TarcherPerigee,,582,0,English,,,,"9780143132417,0143132415,9780525504399",,,,,,,,,,,0,,,,,,,,734102,epub,36C099ED5B61528CB0188D2475957D56,,,F:\\!upload\\_books\\Ultimate Success - Napoleon Hill & James Allen & Joseph Murphy.epub,0,2000-01-01 01:00:00,2020-02-26 10:10:01,36c099ed5b61528cb0188d2475957d56-d.jpg,New Thought.;Success.;Success in business.;Mental discipline.,
32033815,Search Results  Unthought: The Power of the Cognitive Nonconscious,,,,N. Katherine Hayles,2017,,The University of Chicago Press,,250,0,English,,,,"9780226447742,022644774X,9780226447889,022644788X,9780226447919",,,,,,,,,,,0,,,,,,,,325689,epub,B5AE5E95AD3E4A604CD21E243964FE02,,,F:\\!upload\\_books\\Unthought [RETAiL] - N. Katherine Hayles.epub,0,2000-01-01 01:00:00,2020-02-26 10:10:01,b5ae5e95ad3e4a604cd21e243964fe02-d.jpg,Cognition -- Philosophy.;Cognition -- Social aspects.;Cognition in literature.;Cognition.;Sociotechnical systems.;Subconsciousness.;Cognition -- Aspect social.;Inconscient.;Systèmes (Théorie des) -- Aspect psychologique.,
32033816,Upside: Profiting from the Profound Demographic Shifts Ahead,,,,Kenneth W. Gronbach & M. J. Moye,2017,,AMACOM,,276,0,English,,,,"9780814434697,081443469X,9780814434703",,,,,,,,,,,0,,,,,,,,4503826,epub,DEDDE239E6B4DC199158A778D7EC899A,,,F:\\!upload\\_books\\Upside [RETAiL] - Kenneth W. Gronbach & M. J. Moye.epub,0,2000-01-01 01:00:00,2020-02-26 10:10:01,dedde239e6b4dc199158a778d7ec899a-g.jpg,Target marketing -- United States.;Consumers -- United States.;Marketing research -- United States.;Demography -- United States.;United States -- Population.;Consumers.;Demography.;Marketing research.;Population.;Target marketing.;United States.;Bevölkerungsentwicklung;Marktforschung,
32033817,Winnebagos on Wednesdays,,,,Scott Cowen,2018,,Princeton University Press,,,0,English,,,,9780691174617,,,,,,,,,,,0,,,,,,,,432705,epub,F4D48F0334F7527C501EE49F46CBB8D5,,,F:\\!upload\\_books\\Winnebagos on Wednesdays - Scott Cowen.epub,0,2000-01-01 01:00:00,2020-02-26 10:10:01,f4d48f0334f7527c501ee49f46cbb8d5-g.jpg,,
32033818,Business Ethics: Decision Making for Personal Integrity & Social Responsibility,,,,"Laura Hartman, Joseph DesJardins, Chris MacDonald",2017,4,McGraw-Hill Education,,576,577,English,,,,"1259417859,9781259417856",,,,,,,,,,,0,,,,,0,1,1,11489458,pdf,9E9348BC2A96CEEADAEE114B981DBA47,,,"Business Ethics Decision Making for Personal Integrity & Social Responsibility, 4th Edition.pdf",0,2000-01-01 01:00:00,2020-02-26 10:10:01,9e9348bc2a96ceeadaee114b981dba47-g.jpg,,
32033819,The Development of Social Knowledge. Morality & Convention,,,,Elliott Turiel,1983,,Cambridge University Press,Cambridge,,126,English,,,,"0521273056,9780521273053",,,,,,,10.2307/3121515,pVwn18pM_x4C,,,0,,,,,,1,1,13750405,pdf,20A7700E3EE4C489E06E206D38BFE9C7,,,"Turiel, Elliot - The Development of Social Knowledge. Morality & Convention.pdf",0,2000-01-01 01:00:00,2020-02-26 10:10:02,20a7700e3ee4c489e06e206d38bfe9c7-d.jpg,,
32033820,Origins of Democratic Culture,,Princeton Studies in Cultural Sociology,,David Zaret,1999,,Princeton University Press,,288,153,English,64,,,"0691006946,9780691006949",,,,,,,,,,I am junior pirat!,0,0,,,,1,1,0,58987212,pdf,0A6353390473D98CD8278D2AA7EE2BD9,,,book_compressed.pdf,0,2000-01-01 01:00:00,2020-02-26 10:20:02,0a6353390473d98cd8278d2aa7ee2bd9-g.jpg,,
32033821,Psychoanalysis and the Global,,Cultural Geographies + Rewriting the Earth,,Ilan Kapoor,2018,,University of Nebraska Press,Lincoln,244,244,English,193,,,"2017049908,9781496206800,9781496207326,9781496208590,9781496208606,9781496208613",,,,,,,,,,,0,,,,,,,1,7168228,pdf,8EB7EEA565CE30A9B15F9C9029725D42,,,Psychoanalysis_and_the_GlObal.pdf,0,2000-01-01 01:00:00,2020-02-26 10:20:02,8eb7eea565ce30a9b15f9c9029725d42-g.jpg,"Psychoanalysis, Politics, Global, Culture, Populism, Political Economy, Cities, Urban Politics,",
32033822,Das Lukasevangelium übersetzt und erklärt,,,,Hans Klein,2006,10. Auflage / 1. Auflage dieser Auslegung,Vandenhoeck & Ruprecht,,,747,German,,,,3525515006,,,,,,,,,,,0,,,,,,,1,3716055,pdf,9D43F7299EA69C3A3AE6943A27D0C2C6,,,Das Lukasevangelium.pdf,0,2000-01-01 01:00:00,2020-02-26 10:20:02,9d43f7299ea69c3a3ae6943a27d0c2c6-g.jpg,,
32033823,The Fourth Cup: Unveiling the Mystery of the Last Supper and the Cross,,,,Scott Hahn,2018,,The Crown Publishing Group/Image,,192,0,English,,,,"9781524758790,1524758795,9781524758806",,,,,,,,,,,0,,,,,,,,364452,epub,31974DA41D58D9E9421882B92091408E,,,F:\\!upload\\_books\\The Fourth Cup - Scott Hahn.epub,0,2000-01-01 01:00:00,2020-02-26 10:20:02,31974da41d58d9e9421882b92091408e-d.jpg,"Catholic Church -- Doctrines.;Catholic Church.;Lord's Supper (Liturgy);Lord's Supper and Christian union.;Eucharistic prayers -- History and criticism.;Eucharistic prayers.;Theology, Doctrinal.",
32033824,"The Ideas Industry: How Pessimists, Partisans, and Plutocrats are Transforming the Marketplace of Ideas",,,,Daniel W. Drezner,2017,,Oxford University Press,,344,0,English,,,,"9780190264604,0190264608,9780190264628",,,,,,,,,,,0,,,,,,,,672728,epub,4D3DEF501C6B541F0BF3D0E00C2F01F4,,,F:\\!upload\\_books\\The Ideas Industry - Daniel W. Drezner.epub,0,2000-01-01 01:00:00,2020-02-26 10:20:02,4d3def501c6b541f0bf3d0e00c2f01f4-d.jpg,"Intellectual life -- Political aspects.;Intellectuals -- Political activity.;Knowledge, Sociology of.;Learning and scholarship -- Political aspects.;Research institutes -- Political aspects.",
32033825,"The Magnetic Leader: How Irresistible Leaders Attract Employees, Customers, and Profits",,,,Roberta Chinsky Matuson,2017,,"Bibliomotion, Inc./Taylor and Francis Ltd : Routledge",,,0,English,,,,"9781351816694,1351816691,9781629561653,9781315212807",,,,,,,,,,,0,,,,,,,,1891332,epub,9EB203A255C881F791D573B83BCB0CFF,,,F:\\!upload\\_books\\The Magnetic Leader - Roberta Chinsky Matuson.epub,0,2000-01-01 01:00:00,2020-02-26 10:20:02,9eb203a255c881f791d573b83bcb0cff-g.jpg,,
32033826,The MindBody Self: How Longevity Is Culturally Learned and the Causes of Health Are Inherited,,,,Dr. Mario Martinez,2017,,"Hay House, Inc.",,295,0,English,,,,"9781401951283,1401951287,9781401951306,1401951309",,,,,,,,,,,0,,,,,,,,734083,epub,0E06A1E391E9BBB7869A22579337247A,,,F:\\!upload\\_books\\The MindBody Self - Mario Martinez.epub,0,2000-01-01 01:00:00,2020-02-26 10:20:02,0e06a1e391e9bbb7869a22579337247a-d.jpg,Mind and body.;Health behavior.,
32033827,Trying Not to Notice,,,,"Dinski, Will",2016,,2dcloud,United States,184,198,English,,,,"9781937541286,1937541282",,,,,,,,,,,0,,,,,,,,14841212,pdf,DA261FD9ECC79B7F63E6F24E453F8A91,,,F:\\!upload\\_books\\TNTN_galley.pdf,0,2000-01-01 01:00:00,2020-02-26 10:20:02,da261fd9ecc79b7f63e6f24e453f8a91-d.jpg,"Graphic novels -- United States.;Comic books, strips, etc -- United States.;Comic books, strips, etc.;Graphic novels.;United States.",
32033828,战略论：间接路线,,,,李德·哈特,2010,,上海人民出版社,,,0,Chinese,,,,,,,,,,,,,,,0,,,,,,,,1096235,epub,86830D5D3A87EEE6FC8C3DDC23113710,,,丸子书屋-战略论：间接路线.epub,0,2000-01-01 01:00:00,2020-02-26 10:20:02,86830d5d3a87eee6fc8c3ddc23113710-g.jpg,,
32033829,Cover Up: What the Government Is Still Hiding About the War on Terror,,,,Peter Lance,2005,,HarperCollins,,368,376,English,67,,,"0060795115,9780060795115",,,,,,,,,,,0,1,,0,1,1,0,1,26219144,pdf,1C5004A39BE3AE37FE76AD5D8A2688F7,,,"Cover Up_ What the Government is Still Hiding About the War on Terror - Lance, Peter.pdf",0,2000-01-01 01:00:00,2020-02-26 10:20:03,1c5004a39be3ae37fe76ad5d8a2688f7-g.jpg,,
32033830,Impero. il nuovo ordine della globalizzazione,,,,Michael Hardt; Antonio Negri,2013,,BUR,,448,0,Italian,,,,9788817107037,,,,,,,,,,,0,,,,,,,,480485,epub,4DFA30D3C11D4F79414BC2C607212A77,,,"Hardt, Negri - Impero.epub",0,2000-01-01 01:00:00,2020-02-26 10:30:01,4dfa30d3c11d4f79414bc2c607212a77-g.jpg,,
32033831,Il canto degli alberi. Storie dei grandi connettori naturali,,,,David George Haskell,2018,,Einaudi,,283,0,Italian,,,,9788858429693,,,,,,,,,,,0,,,,,,,,731759,epub,90EA96488A1A41B36ED91D3D2422FB2C,,,"Haskell, D.G. - Il canto degli alberi. Storie dei grandi connettori naturali-Einaudi (2018).epub",0,2000-01-01 01:00:00,2020-02-26 10:30:01,90ea96488a1a41b36ed91d3d2422fb2c-g.jpg,,
32033832,Chimica e poesia. Identici modi per creare un legame,,,,Roald Hoffmann,2018,,Castelvecchi,,35,0,Italian,,,,9788832820096,,,,,,,,,,,0,,,,,,,,92926,epub,04720E8F3B836F397F9914E87EEDE326,,,"Hoffmann, R. - Chimica e poesia.epub",0,2000-01-01 01:00:00,2020-02-26 10:30:01,04720e8f3b836f397f9914e87eede326-g.jpg,,
32033833,Iran at the Crossroads,,,,Amin Saikal,2016,,Polity Press,,,0,English,,,,"9780745685687,0745685684",,,,,,,,,,,0,,,,,,,,297820,epub,72AD7269624BD09F3402EC2E9A1AE6CB,,,IRAN AT THE CROSSROADS  978-0-7456-8568-7.epub,0,2000-01-01 01:00:00,2020-02-26 10:30:01,72ad7269624bd09f3402ec2e9a1ae6cb-g.jpg,,
32033834,Il naufragio delle civiltà,,I fari,,Amin Maalouf,2019,,La nave di Teseo,,224,0,Italian,,,,,,,,,,,,,,,0,,,,,,,,2424796,epub,4FA1983DA18A9A3EACD7130A1CC2973A,,,Amin_Maalouf_-_Il_Naufragio_Delle_Civilta_La_Nave_Di_Teseo_2019.epub,0,2000-01-01 01:00:00,2020-02-26 10:30:01,4fa1983da18a9a3eacd7130a1cc2973a-g.jpg,,
32033835,Indo-European Cognate Dictionary,,,,Fiona McPherson,2018,,Wayz Press,,,0,English,,,,"1927166403,9781927166406",,,,,,,,,,,0,,,,,,,,1362629,epub,2691DF089D2893F663E0FB04C38E74F4,,,Indo-European Cognate Dictionary - Fiona McPherson.epub,0,2000-01-01 01:00:00,2020-02-26 10:30:01,2691df089d2893f663e0fb04c38e74f4-g.jpg,,
32033836,"C’era una volta il cinema. I miei film, la mia vita",,,,Sergio Leone,2018,,Il Saggiatore,,174,0,Italian,,,,,,,,,,,,,,,0,,,,,,,,973425,epub,78AA65140DC93D2CB44553551D75BF0F,,,"Leone, Sergio - C'era una volta il cinema [LDB].epub",0,2000-01-01 01:00:00,2020-02-26 10:40:02,78aa65140dc93d2cb44553551d75bf0f-g.jpg,,
32033837,A Vida no Antigo Egipto,,Colecção Saber,,Dominique Valbelle,1990,,Publicações Europa-América,,128,62,Portuguese,,,,"972103116X,9789721031166",,,,,,,,,,,0,,,,,,,1,14886925,pdf,CA16B1FFCD11A9C9361628BD7F7D0C2B,,,248696380-Dominique-Valbelle-a-Vida-No-A.pdf,0,2000-01-01 01:00:00,2020-02-26 10:40:02,ca16b1ffcd11a9c9361628bd7f7d0c2b-g.jpg,,
32033838,The World of Contemporary Architecture,,,,Francisco Asensio Cerver,2008,,American Map Corporation,,998,502,English,58,,,"084160097X,9780841600973",,,,,,,,,,,0,,,,,,,0,92597594,pdf,BC65581AF8CEA777DAAD1E6645A3EE33,,,"The world of architecture BY Asensio Cerver, Francisco.pdf",0,2000-01-01 01:00:00,2020-02-26 10:40:02,bc65581af8cea777daad1e6645a3ee33-g.jpg,Architecture; design,
32033839,"Lessico ragionato dell'esegesi biblica. Le parole, gli approcci, gli autori",,,,"Jean-Noel Aletti, Maurice Gilbert, Jean-Luis Ska, Sylvie De Vulpillieres",2006,,Queriniana,,165,165,Italian,,,,9788839923967,,,,,,,,,,,0,,,,,,1,0,9164185,pdf,8C85BBAF68ECC0CA4AD5BDF662F82CD1,,,Lessico ragionato dell'esegesi biblica.pdf,0,2000-01-01 01:00:00,2020-02-26 10:40:02,8c85bbaf68ecc0ca4ad5bdf662f82cd1-g.jpg,,
32033840,Experimentation Works: The Surprising Power of Business Experiments,,,,Stefan H. Thomke,2020,,Harvard Business Review Press,,,0,English,,,,9781633697119,,,,,,,,,,,0,,,,,,,,8666934,epub,4CA221087C13E568F7EC569000E97DC0,,,Experimentation Works; The Surprising Power Of Business Experiments — Stefan H. Thomke (2020).epub,0,2000-01-01 01:00:00,2020-02-26 10:40:02,4ca221087c13e568f7ec569000e97dc0-g.jpg,,
32033841,This Is Not a Hoax: Unsettling Truth in Canadian Culture,,,,Heather Jessup,2020,,Wilfrid Laurier University Press,,,0,English,,,,9781771123655,,,,,,,,,,,0,,,,,,,,12153562,epub,7D5036F8244495C55E7B39DDAD10420F,,,This Is Not A Hoax; Unsettling Truth In Canadian Culture — Heather Jessup (2020).epub,0,2000-01-01 01:00:00,2020-02-26 10:40:02,7d5036f8244495c55e7b39ddad10420f-g.jpg,,
32033842,How Time Is on Your Side,,,,Bridget Watson Payne,2020,,Chronicle Books LLC,,,0,English,,,,9781452172286,,,,,,,,,,,0,,,,,,,,564215,epub,7DFDA66411DF3603321E43A30902E099,,,How Time Is On Your Side — Bridget Watson Payne (2020).epub,0,2000-01-01 01:00:00,2020-02-26 10:40:02,7dfda66411df3603321e43a30902e099-g.jpg,,
32033843,Vichingi. Tra storia e leggenda,,,,Jason. R. Forbus,2019,,Ali Ribelli Edizioni,,68,0,Italian,,,,,,,,,,,,,,,0,,,,,,,,3206125,epub,A837424292085C4610205789CCA0BEC1,,,Jason_R._Forbus_-_Vichinghi._Tra_storia_e_leggenda.epub,0,2000-01-01 01:00:00,2020-02-26 10:48:28,2475000/a837424292085c4610205789cca0bec1-g.jpg,,
32033844,"Il falso e il vero. Fake news: cosa sono, chi ci guadagna, come evitarle",,,,Gabriela Jacomella,2017,,Feltrinelli,,88,0,Italian,,,,9788858830215,,,,,,,,,,,0,,,,,,,,248583,epub,7E9E265B924758A2E7A60925069D82EC,,,"Jacomella, Gabriela - Il falso e il vero. Fake news che cosa sono, chi ci guadagna, come evitarle [LDB].epub",0,2000-01-01 01:00:00,2020-02-26 11:00:02,7e9e265b924758a2e7a60925069d82ec-g.jpg,,
32033845,Una modernità singolare. Saggio sull’ontologia del presente,,,,Fredric Jameson,2003,,Sansoni,,219,0,Italian,,,,"8838348049,9788838348044",,,,,,,,,,,0,,,,,,,,1047275,epub,D7CC303A0CEBC42EE14D40A86FC03C1B,,,"Jameson, Fredric - Una modernità singolare. Saggio sull'ontologia del presente [LDB].epub",0,2000-01-01 01:00:00,2020-02-26 11:00:02,d7cc303a0cebc42ee14d40a86fc03c1b-g.jpg,,
32033846,Textbook of Endocrine Surgery,,,,"Orlo Clark, Quan-Yang Duh, Electron Kebebew",2016,3,Jaypee,,1365,1365,English,,,,"9351528065,9789351528067",,,,,,,,,,In Colour,0,,,,,,1,1,173431403,pdf,A63850A41DAFE85F10DC2942E8F215DD,,,Textbook of Endocrine Surgery 3e.pdf,0,2000-01-01 01:00:00,2020-02-26 11:00:02,a63850a41dafe85f10dc2942e8f215dd-g.jpg,,
32033847,The Third Reich in Power,,,,Richard J. Evans,2006,,Penguin,,,0,English,,,,9780143037903,,,,,,,,,,,0,,,,,,,,3477048,epub,D83EA672676E3BB3DAFB95371E35500E,,,The Third Reich in Power - Richard J. Evans.epub,0,2000-01-01 01:00:00,2020-02-26 11:10:02,d83ea672676e3bb3dafb95371e35500e-g.jpg,,
32033848,"Unfree Speech: The Threat to Global Democracy and Why We Must Act, Now",,,,Joshua Wong; Jason Y. Ng,2020,,Penguin Publishing Group,,288,0,English,192,,,"9780143135715,0143135716",,,,,,,,,,,0,,,,,,,,15655120,epub,DF956729D996C1CB39BA9B0BC006AAC6,,,"Wong_Unfree Speech. The Threat to Global Democracy and Why We Must Act, Now.epub",0,2000-01-01 01:00:00,2020-02-26 11:10:02,df956729d996c1cb39ba9b0bc006aac6-g.jpg,,
32033849,La crisi della coscienza europea,,,,Paul Hazard,2019,,UTET,,495,0,Italian,,,,9788851175474,,B07XL2FZ6S,,,,,,,,,0,,,,,,,,613729,epub,ED7CA6F98D35D0B4FE3279776E627795,,,Hazard_Paul_-_La_crisi_della_coscienza_europea_Italian_Edition.epub,0,2000-01-01 01:00:00,2020-02-26 11:10:02,ed7ca6f98d35d0b4fe3279776e627795-g.jpg,,
32033850,Le vetrate. Tecnica e storia,,,,Giuseppe Marchini,1977,,De Agostini,,210,210,Italian,,,,1112001350,,,,,,,,,,,0,,,,,,,1,130942778,pdf,5E3607BE10D7E20A9801A3BF0698F0D1,,,Giuseppe Marchini (cur.) - Le vetrate. Tecnica e storia.pdf,0,2000-01-01 01:00:00,2020-02-26 11:10:02,5e3607be10d7e20a9801a3bf0698f0d1-g.jpg,,
32033851,Storia comparata delle religioni. Principi fenomenologici,,,,Giovanni Magnani,1999,,Cittadella,,654,654,Italian,,,,"8830806633,9788830806634",,,,,,,,KwcRAQAAIAAJ,,,0,,,,,,1,0,36002941,pdf,FE6AB4319172963F17926392F8604D15,,,Storia comparata delle religioni.pdf,0,2000-01-01 01:00:00,2020-02-26 11:10:02,fe6ab4319172963f17926392f8604d15-g.jpg,,
32033852,Typeset in the Future: Typography and Design in Science Fiction Movies,,,,Dave Addey,2018,,Abrams,,,0,English,59,Google Play,,9781683353348,,,,,,,,,,https://typesetinthefuture.com/,0,1,1,,,,,,114276741,epub,29017E24B974738FBDE8598680E5F6BB,,,Typeset in the Future_ Typography and Desi - Dave Addey.epub,0,2000-01-01 01:00:00,2020-02-26 11:10:02,29017e24b974738fbde8598680e5f6bb-g.jpg,"typography, graphics design, science fiction, movies, Pixar, Ridley Scott, 2001: A Space Odyssey, Star Trek: The Motion Picture, Alien, Blade Runner, Total Recall, WALL·E, Moon, blog",
32033853,"Chinese Grammatology: Script Revolution and Literary Modernity, 1916-1958",,,,Yurou Zhong,2019,,Columbia University Press,,288,296,English,,,,"0231192622,9780231192620",,,,,,,,,,,0,,,,,,1,1,6688080,pdf,8F31F988C3DC5DB995C41BC4C13791E3,,,Chinese Grammatology 9780231192620.pdf,0,2000-01-01 01:00:00,2020-02-26 11:10:02,8f31f988c3dc5db995c41bc4c13791e3-g.jpg,,
32033854,Credit and Creed: A Critical Legal Theory of Money,,Routledge Research in Finance and Banking Law,,Andreas Rahmatian,2019,1,Routledge,,274,275,English,,,,"0367181037,9780367181031",,,,,,,,,,,0,,,,,,1,1,1500897,pdf,0FD5D65E27FAB328B557873D50A04310,,,Credit and Creed 978-0-367-18103-1.pdf,0,2000-01-01 01:00:00,2020-02-26 11:10:02,0fd5d65e27fab328b557873d50a04310-g.jpg,,
32033855,All About Market Timing: The Easy Way to Get Started,,,,"Masonson, Leslie N.",2005,,"McGraw-Hill Companies, Inc.",New York,,275,English,309,,,0071436081,,,,,,,,,,"Vector pdf.  Rear cover & bookmarks added, hallmarking removed.",0,,1,0,,,1,1,3461771,pdf,A3DE401825ED603B84F9AED2A72DFCEB,,,MASONSON(Leslie_N.)-All_About_Market_Timing_(2005).pdf,0,2000-01-01 01:00:00,2020-02-26 11:20:02,a3de401825ed603b84f9aed2a72dfceb-g.jpg,"buy and hold, ETFs, personal finance, indicators, investing, mutual funds, risk management, securities markets, calendar-based timing, technical analysis",
32033856,Diary of a Professional Commodity Trader: Lessons from 21 Weeks of Real Trading,,,,"Brandt, Peter L.",2011,,"John Wiley & Sons, Inc.","Hoboken, NJ",,304,English,,,,9780470521458,,,,,,,,,,"Most page images 300dpi with basic OCR, some of those with illustrations 150dpi",300,,1,0,,1,1,1,4942495,djvu,EFBA9C4196F25ED9CE98FC1BC04E4031,,,BRANDT(P.L.)-Diary_of_a_Professional_Commodity_Trader_(2011).djvu,0,2000-01-01 01:00:00,2020-02-26 11:20:02,efba9c4196f25ed9ce98fc1bc04e4031-g.jpg,"chart patterns, commodities, financial futures, FOREX, risk management, speculation, technical analysis, trading systems",
32033857,The Third Reich at War,,,,Richard J. Evans,2009,,Penguin,,,0,English,,,,9780143116714,,,,,,,,,,,0,,,,,,,,3742953,epub,2E7062E2D0ED0C0F70AE1F6A5074394B,,,The Third Reich at War - Richard J. Evans.epub,0,2000-01-01 01:00:00,2020-02-26 11:20:02,2e7062e2d0ed0c0f70ae1f6a5074394b-g.jpg,,
32033858,"Crime and the Fascist State, 1850-1940",,Studies for the International Society for Cultural History,,Tiago Pires Marques,2013,,Routledge,,240,237,English,,,,"1848933991,9781848933996",,,,,,,,,,,0,,,,,,1,1,1758873,pdf,D8667C0C0C0A4FD2D55890CDC4E25209,,,"Crime and the fascist state, 1850–1940 978-1-84893-399-6.pdf",0,2000-01-01 01:00:00,2020-02-26 11:20:02,d8667c0c0c0a4fd2d55890cdc4e25209-g.jpg,,
32033859,Early Modern Catalogues of Imaginary Books,,Intersections,,"Anne-Pascale Pouey-Mounou, Paul J. Smith",2019,,BRILL,,350,375,English,,,,"9004413642,9789004413641",,,,,,,,,,,0,,,,,,1,1,6299605,pdf,44F2543B133414E2EA8992A873D29397,,,Early Modern Catalogues of Imaginary Books A Scholarly Anthology 978-90-04-41364-1.pdf,0,2000-01-01 01:00:00,2020-02-26 11:20:02,44f2543b133414e2ea8992a873d29397-g.jpg,,
32033860,Golden Gate Bridge,,Engineering Marvels,,Nikole Brooks Bethea,2017,,Pogo Books,,24,25,English,,,,"1620316994,9781620316993",,,,,,,,,,,0,,,,,,1,1,11757506,pdf,FC3AEE912BA4D41911DC153D29FE5C3D,,,Golden Gate Bridge 9781620316993.pdf,0,2000-01-01 01:00:00,2020-02-26 11:20:02,fc3aee912ba4d41911dc153d29fe5c3d-g.jpg,,
32033861,"Heraklit, Parmenides und der Anfang von Philosophie und Wissenschaft: Eine phänomenologische Besinnung",,,,Klaus Held,1980,1,De Gruyter,,618,622,German,,,,"3110079623,9783110079623",,,,,,,,,,,0,,,,,,1,1,37571825,pdf,A4BF66ABBAE706B8ABBCDA21FBBE151D,,,"Heraklit, Parmenides und der Anfang von Philosophie und Wissenschaft 3-11-007962-3.pdf",0,2000-01-01 01:00:00,2020-02-26 11:20:02,a4bf66abbae706b8abbcda21fbbe151d-g.jpg,,
32033862,Jordan Structures in Lie Algebras,,Mathematical Surveys and Monographs,,Antonio Fernandez Lopez (author),2019,,American Mathematical Society,,299,314,English,113,,,"1470450860,9781470450861",,,,,,,,,,,0,,,,,,1,1,2849290,pdf,198533446E2139C9AFF45ED98869A8C0,,,Jordan Structures in Lie Algebras 9781470453626.pdf,0,2000-01-01 01:00:00,2020-02-26 11:30:02,198533446e2139c9aff45ed98869a8c0-g.jpg,,
32033863,Let's Get Free: A Hip-Hop Theory of Justice,,,,Paul Butler,2010,,The New Press,,224,0,English,,,,"1595585001,9781595585004",,,,,,,,,,,0,,,,,,,,446526,epub,79B4DB04FCF9A2BFA875A869EA693B1C,,,Paul Butler - Let's Get Free; A Hip-Hop Theory of Justice.epub,0,2000-01-01 01:00:00,2020-02-26 11:30:02,79b4db04fcf9a2bfa875a869ea693b1c-g.jpg,,
32033864,Mozart in Context,,Composers in Context,,Simon Keefe (editor),2018,,Cambridge University Press,,316,353,English,,,,"1107181054,9781107181052",,,,,,,,,,,0,,,,,,1,1,32485726,pdf,5E9FBC3B4D2AEDE75351CBEBF04AD54F,,,MOZART IN CONTEXT 978-1-107-18105-2.pdf,0,2000-01-01 01:00:00,2020-02-26 11:30:02,5e9fbc3b4d2aede75351cbebf04ad54f-g.jpg,,
32033865,"Seeing Red: Federal Campaigns Against Black Militancy, 1919-1925",,Blacks in the diaspora,,Theodore Kornweibel,1998,,Indiana University Press,Bloomington,,256,English,,,,"9780253213549,0253213541,9780253333377,0253333377",,,,,,,,,,,0,,,,,,,1,42476602,pdf,0DF1F12EC0718F12BD98E281C60D7B97,,,"Kornweibel, Seeing Red.pdf",0,2000-01-01 01:00:00,2020-02-26 11:30:02,0df1f12ec0718f12bd98e281c60d7b97-g.jpg,,
32033866,Researching the Archaeological Past through Imagined Narratives: A Necessary Fiction,,Routledge Studies in Archaeology,,"Daniël van Helden (editor), Robert Witcher (editor)",2019,1,Routledge,,320,0,English,,,,"1138303631,9781138303638",,,,,,,,,,,0,,,,,,,,34349998,epub,08F404838FBC0644E67BA06CD158043D,,,Researching the Archaeological Past Through Imagined Narratives 978- 1- 138- 30363- 8.epub,0,2000-01-01 01:00:00,2020-02-26 11:40:01,08f404838fbc0644e67ba06cd158043d-g.jpg,,
32033867,Researching the Archaeological Past through Imagined Narratives: A Necessary Fiction,,Routledge Studies in Archaeology,,"Daniël van Helden (editor), Robert Witcher (editor)",2019,1,Routledge,,320,321,English,,,,"1138303631,9781138303638",,,,,,,,,,,0,,,,,,1,1,59043911,pdf,7305922E1818812E6658DFE827A9D3B9,,,Researching the Archaeological Past Through Imagined Narratives 978- 1- 138- 30363- 8.pdf,0,2000-01-01 01:00:00,2020-02-26 11:40:01,7305922e1818812e6658dfe827a9d3b9-g.jpg,,
32033868,The Epic of the Buddha His Life and Teachings,,,,Chittadhar Hṛdaya; Todd T. Lewis; Subarna Man Tuladhar,2019,,Shambhala,,454,0,English,206,,,"9781611806199,9780834842021",,,,,,,,,,,0,,,,,,,,11444561,epub,8E7A4FC32896DDCC640EB8A23387EAAA,,,The Epic of the Buddha.epub,0,2000-01-01 01:00:00,2020-02-26 11:40:01,8e7a4fc32896ddcc640eb8a23387eaaa-g.jpg,,
32033869,Samuel Barber Remembered: A Centenary Tribute,,Eastman Studies in Music,,Peter Dickinson,2010,,University of Rochester Press,,214,216,English,,,,"1580463509,9781580463508",,,,,,,,,,,0,,,,,,1,1,2234385,pdf,FEA19E67A8359D17CA0E5B0081117161,,,Samuel Barber Remembered 978-1-58046-350-8.pdf,0,2000-01-01 01:00:00,2020-02-26 11:40:01,fea19e67a8359d17ca0e5b0081117161-g.jpg,,
32033870,Samuel Barber Remembered: A Centenary Tribute,,Eastman Studies in Music,,Peter Dickinson,2010,,University of Rochester Press,,214,216,English,,,,"1580463509,9781580463508",,,,,,,,,,,0,,,,,,1,1,2234385,pdf,FEA19E67A8359D17CA0E5B0081117161,,,Samuel Barber Remembered 978-1-58046-350-8.pdf,0,2000-01-01 01:00:00,2020-02-26 11:46:46,2476000/fea19e67a8359d17ca0e5b0081117161-g.jpg,,
32033871,The Life and Works of Severus of Antioch in the Coptic and Copto-Arabic Tradition: Texts and Commentaries,,Gorgias Eastern Christian Studies,,Youhanna Youssef,2014,,Gorgias Press LLC,,476,475,English,,,,"1617197386,9781617197383",,,,,,,,,,,0,,,,,,1,1,3041270,pdf,2727B6EC974FC69B8DB151A05EC37DA9,,,The Life and Works of Severus of Antioch in the Coptic and Copto 978-1-61719-738-3.pdf,0,2000-01-01 01:00:00,2020-02-26 11:50:01,2727b6ec974fc69b8db151a05ec37da9-g.jpg,,
32033872,"The Men Who Governed Han China: Companion to a Biographical Dictionary of the Qin, Former Han and Xin Periods: No. 17",,"Handbook of Oriental Studies, Section 4 China",,Michael Loewe,2004,,Brill,,672,683,English,,,,"9004138455,9789004138452",,,,,,,,,,,0,,,,,,1,1,141341178,pdf,2F6DE5047C02904EE22C5D8CEB1585B6,,,THE MEN WHO GOVERNED HAN CHINA 90 04 13845 5.pdf,0,2000-01-01 01:00:00,2020-02-26 11:50:02,2f6de5047c02904ee22c5d8ceb1585b6-g.jpg,,
32033873,The Sino-Tibetan Languages,,Routledge Language Family Series,,"Graham Thurgood (editor), Randy J. LaPolla (editor)",2017,2,Routledge,,1048,1049,English,,,,"1138783323,9781138783324",,,,,,,,,,,0,,,,,,1,1,14682709,pdf,D0FFFBE23D067D4399BA98769AB3F8A7,,,The Sino-Tibetan languages 9781138783324.pdf,0,2000-01-01 01:00:00,2020-02-26 12:00:02,d0fffbe23d067d4399ba98769ab3f8a7-g.jpg,,
32033874,The Tools of Metaphysics and the Metaphysics of Science,,,,Theodore Sider,2020,,OUP Oxford,,256,246,English,,,,"019881156X,9780198811565",,,,,,,,,,,0,,,,,,1,1,1348029,pdf,00E6DE9E6951621B8C6AE19A3B122DB6,,,The Tools of Metaphysics and the Metaphysics of Science 978–0–19–881156–5.pdf,0,2000-01-01 01:00:00,2020-02-26 12:00:02,00e6de9e6951621b8c6ae19a3b122db6-g.jpg,,
32033875,"The United States of Appalachia: How Southern Mountaineers Brought Independence, Culture, and Enlightenment to America",,,,Jeff Biggers,2006,,Shoemaker & Hoard,,238,260,English,,,,"1593760310,9781593760311",,,,,,,,,,,0,,,,,,1,1,1137306,pdf,83A2465509037D1BE15FF53623EECACD,,,The United States of Appalachia 978-1-59376-031-1.pdf,0,2000-01-01 01:00:00,2020-02-26 12:00:02,83a2465509037d1be15ff53623eecacd-g.jpg,,
32033876,Mozart in Context,,Composers in Context,,Simon Keefe (editor),2018,,Cambridge University Press,,316,353,English,,,,"1107181054,9781107181052",,,,,,,,,,,0,,,,,,1,1,32485726,pdf,5E9FBC3B4D2AEDE75351CBEBF04AD54F,,,MOZART IN CONTEXT 978-1-107-18105-2.pdf,0,2000-01-01 01:00:00,2020-02-26 12:00:45,2476000/5e9fbc3b4d2aede75351cbebf04ad54f-g.jpg,,
32033877,Translation as Metaphor,,Translation Theories Explored,,Rainer Guldin,2015,1,Routledge,,142,143,English,,,,"1138803561,9781138803565",,,,,,,,,,,0,,,,,,1,1,1463213,pdf,836D9D41BE56D07C57ED2150301489AE,,,Translation as metaphor 978-1-138-80356-5.pdf,0,2000-01-01 01:00:00,2020-02-26 12:20:02,836d9d41be56d07c57ed2150301489ae-g.jpg,,
32033878,Pathologie orthopedique de l'enfant,,,,Georges-François Penneçot; Dominique  Mouliès,2016,,Elsevier Masson,,312,312,French,,,,"0144074770,9782294750304,9782294750861",,,,,,,,,,,0,1,,,,,0,1,29746303,pdf,33A66B131704B874A64C290108D3BDA1,,,Pathologie orthopedique de l'enfant.pdf,0,2000-01-01 01:00:00,2020-02-26 13:40:02,33a66b131704b874a64c290108d3bda1-g.jpg,,
32033879,Writing the History of Early Christianity: From Reception to Retrospection,,,,Markus Vinzent,2019,,Cambridge University Press,,,492,English,,,,"9781108480109,9781108647052,2018043276",,,,,,,,,,,0,,,,,,0,1,2264718,pdf,84C3F7F54F140457B4E3E799E4F953D5,,,Writing the History of Early Christianity.pdf,0,2000-01-01 01:00:00,2020-02-26 16:30:02,84c3f7f54f140457b4e3e799e4f953d5-g.jpg,,
32033880,The Diplomatic History of Postwar Japan,,,,Makoto Iokibe,2013,,Routledge,,,262,English,,,,"2009010037,9780415498470,9780415498487",,,,,,,,,,,0,,,,,,1,1,3124834,pdf,0BE61AB0E8B00AA7240E138357FCF85A,,,img=9780203870969.pdf,0,2000-01-01 01:00:00,2020-02-26 16:30:02,0be61ab0e8b00aa7240e138357fcf85a-g.jpg,,
32033881,Convenience Triangle in White-Collar Crime: Case Studies of Fraud Examinations,,,,Petter Gottschalk,2019,,Edward Elgar Pub,,304,303,English,,,,"2019935393,9781789900934,9781789900927",,,,,,,,,,,0,,,,,,1,1,2561995,pdf,3ECEF9DB0D55E995EF28BB04F8467CA9,,,Convenience Triangle in White-Collar Crime 978 1 78990 092 7.pdf,0,2000-01-01 01:00:00,2020-02-26 17:50:02,3ecef9db0d55e995ef28bb04f8467ca9-g.jpg,,
32033882,"Political Candidate Selection: Who Wins, Who Loses, and Under-Representation in the UK",,Routledge Studies on Political Parties and Party Systems,,Jeanette Ashe,2019,1,Routledge,,234,235,English,,,,"1138039519,9781138039513",,,,,,,,,,,0,,,,,,1,1,2076168,pdf,CBFDDF56CB1C3543ECA83BEEE225485E,,,Political Candidate Selection 978-1-138-03951-3.pdf,0,2000-01-01 01:00:00,2020-02-26 17:50:02,cbfddf56cb1c3543eca83beee225485e-g.jpg,,
32033883,Analyzing American Democracy: Politics and Political Science,,,,"Jon R. Bond, Kevin B. Smith",2019,3,Routledge,,746,747,English,,,,"1138345199,9781138345195",,,,,,,,,,,0,,,,,,0,1,23022154,pdf,45BFB396D9FCBCFFB19B846C807EBB4B,,,Analyzing American Democracy.pdf,0,2000-01-01 01:00:00,2020-02-26 18:00:01,45bfb396d9fcbcffb19b846c807ebb4b-g.jpg,,
32033884,Leaner Six Sigma: Making Lean Six Sigma Easier and Adaptable to Current Workplaces,,,,Terra Vanzant Stern,2019,,Productivity Press,,xviii+232,251,English,7,,,"1138387924,9781138387928",,,,,,,,,,,0,,,,,,1,1,11466412,pdf,5EB180FA166F1194E40EBD10702DE004,,,Stern_Leaner Six Sigma. Making Lean Six Sigma Easier and Adaptable to Current Workplaces.pdf,0,2000-01-01 01:00:00,2020-02-26 18:00:02,5eb180fa166f1194e40ebd10702de004-g.jpg,,
32033885,"Analysing Police Interviews: Laughter, Confessions and the Tape",,,,Elisabeth Carter,2013,,Continuum,,218,217,English,,,,"0567129098,9780567129093",,,,,,,,,,,0,0,1,0,1,0,1,1,1325723,pdf,4F2C3F6A0512A7DCE1BA7CDA89293673,,,Carter - Analysing Police Interviews.pdf,0,2000-01-01 01:00:00,2020-02-26 18:00:02,4f2c3f6a0512a7dce1ba7cda89293673-g.jpg,,
32033886,The Jewish Study Bible,,,,Adele Berlin; Marc Zvi Brettler,2014,2,"Oxford University Press, USA",,2309,0,English,205,,,"0199978468,9780199978465",,,,,,,,,,,0,,,,,,,,7737248,epub,B91519A3202C67F6D4E967FAB79087BC,,,"Berlin&Brettler_The Jewish Study Bible, 2nd Edition.epub",0,2000-01-01 01:00:00,2020-02-26 18:00:02,b91519a3202c67f6d4e967fab79087bc-d.jpg,,
32033887,The Web Application Hacker's Handbook: Finding and Exploiting Secirity Flaws,,,,"Dafydd Stuttard, Marcus Pinto",2011,2,John Wiley & Sons,,,0,English,,,,"0123456789,0100645003,2147483648,9781118026472,9781118175224,9781118175248,9781118175231",,,,,,,,,,,0,,,,,,,,20588218,epub,02397DF201278150ECF1F744098356D4,,,N:\\!genesis_\\0day\\!non_fiction\\The Web Application Hacker's Handbook.epub,0,2000-01-01 01:00:00,2020-02-26 18:36:10,2475000/02397df201278150ecf1f744098356d4-g.jpg,,
32033888,自由秩序原理,,,,哈耶克,1997,,三联书店,,,537,Chinese,,,,7108011042,,,,,,,,,,,0,,,,,,1,0,23046012,pdf,13F9DD9C2C9CD1FD1856B6B35AA5C662,,,自由秩序原理.pdf,0,2000-01-01 01:00:00,2020-02-26 20:21:48,2475000/13f9dd9c2c9cd1fd1856b6b35aa5c662-g.jpg,,
32033889,A History of Indian Philosophy,4,,,Surendranath Dasgupta,1961,,Cambridge University Press,,526,496,,,,,"1988942667,9781988942667",,,,,,,,,,,0,,,,,,1,1,23775875,pdf,493864772A3E505C0F927C381E5B1ED9,,,History of Indian Philosophy 4 - Surendranath Dasgupta.pdf,0,2000-01-01 01:00:00,2020-02-26 23:54:19,2475000/493864772a3e505c0f927c381e5b1ed9-g.jpg,,
32033890,A History of Indian Philosophy,5,,,Surendranath Dasgupta,1955,,Cambridge University Press,,222,217,,,,,"0342665863,9780342665860",,,,,,,,,,,0,,,,,,1,1,11845382,pdf,EBF7730C4B646F4DB932AF053EC9A3AB,,,History of Indian Philosophy 5 - Surendranath Dasgupta.pdf,0,2000-01-01 01:00:00,2020-02-26 23:54:31,2475000/ebf7730c4b646f4db932af053ec9a3ab-g.jpg,,
32033891,Radiological English,,,,"Ribes, Ramón; Ros, Pablo R",2007,,Springer-Verlag Berlin · Heidelberg,"Berlin, Heidelberg",324,309,English,,,,"9783540293293,3540293299,3540293280,9783540293286",,,,,,,,,,,0,,,,,,,,3993020,pdf,D45F5B898FDFD75507374405DB22B9E9,,,"N:\\!genesis_\\0day\\book_ger1\\Radiological English - Ribes, Ramon & Ros, Pablo R_.pdf",0,2000-01-01 01:00:00,2020-02-27 01:00:02,d45f5b898fdfd75507374405db22b9e9-d.jpg,Medical radiology -- Terminology.;English language -- Medical English.;English language -- Textbooks for foreign speakers.;English language.;Medical radiology.;Radiologi -- terminologi.;Engelska språket.;Springer e-books,
32033892,Radiological Imaging of the Digestive Tract in Infants and Children,,Medical Radiology Diagnostic Imaging,,"Blickman, Johan G.; Devos, Annick S",2008,,Springer Berlin Heidelberg,,252,258,English,,,,"9783540681533,3540681531,9783540407331",,,,,,,,,,,0,,,,,,,,10922034,pdf,0A4DB3BAED6638CEE99C46D72E9AB55B,,,N:\\!genesis_\\0day\\book_ger1\\Radiological Imiging of the Digestive Tract in Infants and Children 1st ed.2008 .pdf,0,2000-01-01 01:00:00,2020-02-27 01:00:02,0a4db3baed6638cee99c46d72e9ab55b-g.jpg,Medicine.;Radiology.;Gastroenterology.;Oncology.;Pediatrics.,
32033893,Книга в 1921-1922 году (библиографический обзор). Классифицирован по десятичной системе.,,,,И.В. Владиславлев,1923,,Книга,Петроград,271,271,Russian,,,,,,,,,,,,,,,0,,,,,,1,1,12711792,djvu,43E65D569D1BC2CFC4A0897EDCB6BDCD,,,Книга в 1921-1922 году (1923).djvu,0,2000-01-01 01:00:00,2020-02-27 01:10:01,43e65d569d1bc2cfc4a0897edcb6bdcd-g.jpg,,
32033894,Būti lietuve: etninio stiliaus apranga XIX a. pabaigoje - XX a. pirmojoje pusėje,,,,Šidiškienė Irma,2004,,Versus aureus,Vilnius,222,251,Lithuanian,64,,,9955601418,,,391.2(474.5)(091),,,,,,,,400,0,,0,1,,0,0,20339786,pdf,9720ED9B825127B34CCC4CD2583ECFFE,,,"Šidiškienė, Būti lietuve, 2004.pdf",0,2000-01-01 01:00:00,2020-02-27 01:10:01,9720ed9b825127b34ccc4cd2583ecffe-g.jpg,,
32033895,"Bankininkystė Lietuvoje, 1795-1915",,,,Terleckas Vladas,2011,,Lietuvos bankas,Vilnius,622,616,Lithuanian,64,,,9789986651628,,,"336.71(474.5)(091)\1795/1915\""""",,,,,,,,400,0,,0,1,,0,0,33742177,pdf,65596ED74E3EF1F7F4F534BA2B767465,,,"Terleckas, Bankininkystė Lietuvoje 1795-1915, 2011.pdf",0,2000-01-01 01:00:00,2020-02-27 01:10:01,65596ed74e3ef1f7f4f534ba2b767465-g.jpg,,
32033896,1905 metų revoliucija Lietuvos kaime,,,,Tyla Antanas,1968,,Mintis,Vilnius,268,268,Lithuanian,64,,,,,,"94(474.5)\1861/1917\""""",,,,,,,,400,0,,0,1,,0,0,13183817,pdf,F07D1A71576198B5BF19CA0C3FE79D03,,,"Tyla, 1905 m. revoliucija Lietuvos kaime, 1968.pdf",0,2000-01-01 01:00:00,2020-02-27 01:10:01,f07d1a71576198b5bf19ca0c3fe79d03-g.jpg,,
32033897,Lietuvių tautinis atgimimas XIX amžiuje,,,,Vėbra Rimantas,1992,,Šviesa,Kaunas,189,189,Lithuanian,64,,,5430017450,,,,,,,,,,,400,0,,0,1,,0,0,13188860,pdf,B5E030F7596C1849A662ABB7308783DF,,,"Vėbra, Lietuvių tautinis atgimimas XIX amžiuje, 1992.pdf",0,2000-01-01 01:00:00,2020-02-27 01:10:01,b5e030f7596c1849a662abb7308783df-g.jpg,,
32033898,Lietuvių visuomenė XIX a. antrojoje pusėje: socialinės struktūros bruožai,,,,Vėbra Rimantas,1990,,Mokslas,Vilnius,267,270,Lithuanian,64,,,5420004755,,,,,,,,,,,400,0,,0,1,,0,0,16756400,pdf,24FE5EA21667E13875A48460E4FF6520,,,"Vėbra, Lietuvių visuomenė XIX a. II pusėje, 1990.pdf",0,2000-01-01 01:00:00,2020-02-27 01:10:01,24fe5ea21667e13875a48460e4ff6520-g.jpg,,
32033899,"Шаг вперед, два шага назад",,Размышляя о марксизме. № 39,,Ленин В.И.,2018,,Ленанд,М.,,232,Russian,192,,,9785382018553,,,,,,,,,,,300,0,1,0,1,1,1,1,7476842,pdf,C8B90BB99B2FF63A1C9E45CD2EAF44F0,,,"Ленин В.И. - Шаг вперед, два шага назад (2018).pdf",0,2000-01-01 01:00:00,2020-02-27 01:10:01,c8b90bb99b2ff63a1c9e45cd2eaf44f0-g.jpg,,
32033900,Mushrooms,,,,Roger Phillips,2006,Unabridged ed,Macmillan,,384,386,English,12,,,"0330442376,9780330442374",,,,,,,,,,,0,,,,,,,1,333443308,pdf,7C22DAE2983933797CE839C4137AC3B0,,,32fc478b41e2d372bc1cf9fa274578ef_ocr.pdf,0,2000-01-01 01:00:00,2020-02-27 01:10:01,7c22dae2983933797ce839c4137ac3b0-g.jpg,Mushrooms; Fungi,
32033901,Power over people : classical and modern political theory Part I,,Great courses,,Dennis Dalton,1996,Unabridged.,The Teaching Company,,,94,English,,,,"9781682767320,1682767329",,,,,,,,,,,0,,,,,,1,1,1042904,pdf,ACA77E46881900883A40E0F50C5AB5F8,,,f28019f65d44495630dbc0567ece5514.pdf,0,2000-01-01 01:00:00,2020-02-27 01:10:01,aca77e46881900883a40e0f50c5ab5f8-g.jpg,,
32033902,"Great masters. Robert and Clara Schumann, their lives and music",,Great courses (Compact disc),,Robert Greenberg,2015,,,,,57,English,,,,"9781490679006,1490679006",,,,,,,,,,,0,,,,,,1,1,732812,pdf,2BF9CF44865C9469C10E7D31C667F8E5,,,1c75747c158a4ee1d45676b487e42842.pdf,0,2000-01-01 01:00:00,2020-02-27 01:10:01,2bf9cf44865c9469c10e7d31c667f8e5-g.jpg,,
32033903,"Списки населенныхъ местъ Сувалкской губерніи, какъ матеріалъ для историко-этнографической географіи края",,,,Вольтеръ Э.А. (ed.),1901,,Типографія Императорской академіи наукъ,Санктпетербургъ,"[9], 315",164,Russian (Old),64,,,,,,,,,,,,,,0,,,,,,,1,139546963,pdf,0DFACCE3F67490EAEB7EB6105423ED03,,,"Списки населенных мест Сувалкской губернии, 1901.pdf",0,2000-01-01 01:00:00,2020-02-27 01:10:01,0dfacce3f67490eaeb7eb6105423ed03-g.jpg,,
32033904,Testi giudaici per lo studio del Nuovo Testamento,,,,"H.S. Kippenberg, G.A. Wewers",1987,,Paideia,,341,341,Italian,,,,,,,,,,,,,,,0,,,,,,,1,4025779,pdf,C73B6FB53F21A19E376090F98D6163A3,,,"H.S. Kippenberg, G.A. Wewers (curr.) - Testi giudaici per lo studio del Nuovo Testamento.pdf",0,2000-01-01 01:00:00,2020-02-27 01:10:01,c73b6fb53f21a19e376090f98d6163a3-g.jpg,,
32033905,Disruptive Elements: The Extremes of French Anarchism,,,,Ernest Coeurderoy; Joseph Déjacque; Zo d'Axa; Charles Jacquier; Georges Darien; Émile Pouget; Albert Libertad; Doug Irmie; Paul Albert; Clement Duval; Jules Scarceriaux; Marius Jacob; Raymond Callemin; Maxime Leroy; Alexandra David-Néel; André Lorulot; Manuel Devaldès; Ernst Bertran; L.A. Rodriguez; Paraf-Javal; Pierre Chardon; Dominique Petit; Émile Armand; Hugo Treni; Daniel Guérin,2014,,"Ardent Press, LBC Books",Berkeley,267,292,English,,,,"1620490358,9781620490358",,,,,,,,,,,0,1,1,0,1,0,1,1,1913971,pdf,95CA28D4C4132EF8F1F4FA5A72D736FE,,,Disruptive Elements_ The Extremes of French Anarchism.pdf,0,2000-01-01 01:00:00,2020-02-27 01:10:02,95ca28d4c4132ef8f1f4fa5a72d736fe-g.jpg,,
32033906,Radiologische Analyse des Knochens : Bestimmung der Mineralkonzentration (Quantitative physikalische Untersuchungsmethoden),,,,"Heuck, Friedrich",2005,1,Springer,Heidelberg,213,221,German,,,,"9781280621376,1280621370,9783540269663,3540269665,3540208836",,,,,,,,,,,0,,,,,,,,12360609,pdf,4DCA6EBE999BBDF74B5352ADCD173450,,,"N:\\!genesis_\\0day\\book_ger1\\Radiologische Analyse des Knochens; 1. Aufl. 2005 - Heuck, Vanselow.pdf",0,2000-01-01 01:00:00,2020-02-27 01:10:02,4dca6ebe999bbdf74b5352adcd173450-d.jpg,Bones -- Radiography.;Bone Density.;Bone and Bones -- diagnostic imaging.;MEDICAL -- Family & General Practice.;MEDICAL -- Osteopathy.;MEDICAL.;MEDICAL -- Holistic Medicine.;HEALTH & FITNESS -- Reference.;MEDICAL -- Essays.;MEDICAL -- Alternative Medicine.;HEALTH & FITNESS -- Holism.;Osteodensitometrie,
32033907,"Radiologische Diagnostik in der Onkologie. Band 1, Hals, Thorax, Mamma, Bewegungsapparat, lymphatisches System",,,,"Layer, Günter; Delorme, Stefan; Kaick, Gerhard van",2006,,Springer Verlag Berlin Heidelberg,"Berlin, Heidelberg",307,309,German,,,,"9783540335658,354033565X,3540669914",,,,,,,,,,,0,,,,,,,,51179841,pdf,925F4C0B69933D72E8ED06D8C97AEB20,,,"N:\\!genesis_\\0day\\book_ger1\\Radiologische Diagnostik in der Onkologie - Band 1 - Layer, van Kaick, Delorme.pdf",0,2000-01-01 01:00:00,2020-02-27 01:10:02,925f4c0b69933d72e8ed06d8c97aeb20-g.jpg,Oncology.;Medical radiology.;Radiotherapy.;Internal medicine.;Diagnostic imaging -- Methods.;Nuclear medicine.;Surgery.;Diagnostic imaging.,
32033908,The Shape of the Roman Order: The Republic and Its Spaces,,,,Daniel J Gargola,2017,,University of North Carolina Press,,0,304,English,,,0,"1469631822,9781469631820",,,,,,,,,,,0,,,,,,,1,3949331,pdf,5ce41ed3a4e2a1d892588214ccf87a45,,,The.Shape.of.the.Rom.pdf,0,2000-01-01 01:00:00,2020-02-27 01:13:22,2243000/5ce41ed3a4e2a1d892588214ccf87a45-d.jpg,,"1469631822,9781469631820"
32033909,Virtus Romana: Politics and Morality in the Roman Historians,,,,Catalina Balmaceda,2017,Hardcover,University of North Carolina Press,,312,0,English,,,0,"1469635127,9781469635125",,,,,,,,,,,0,,,,,,,,636678,epub,107ffa587befcb3ec0a98dc5e69f07a1,,,Virtus Romana_ Politics and Mor - Catalina Balmaceda.epub,0,2000-01-01 01:00:00,2020-02-27 01:14:05,2274000/107ffa587befcb3ec0a98dc5e69f07a1-d.jpg,,"1469635127,9781469635125"
32033910,"Rome, the Greek World, and the East: Volume 3: The Greek World, the Jews, and the East (Studies in the History of Greece and Rome)",3,,,Fergus Millar,2006,,University of North Carolina Press,,549,549,English,64,,до 2011-01,"0807856932,9780807856932,0807830305,9780807830307,9780807876657",,,,,,,,,OL7973028M,,0,,,,0,0,,1,3977526,pdf,014e3c146ee5ca6a45843feea57dcb65,,,D:\\!genesis\\library.nu\\01\\_147501.014e3c146ee5ca6a45843feea57dcb65.pdf,0,2000-01-01 01:00:00,2020-02-27 01:14:32,586000/014e3c146ee5ca6a45843feea57dcb65-d.jpg,Исторические дисциплины;Всемирная история;История древнего мира;История античного мира;История эллинизма;,"0807856932,9780807856932,0807830305,9780807830307,9780807876657"
32033911,"Rome, the Greek World, and the East: Volume 1: The Roman Republic and the Augustan Revolution (Studies in the History of Greece and Rome)",,,,Fergus Millar,2002,,The University of North Carolina Press,,414,414,English ,64,,,"0807849901,9780807849903",,,,,,,,,OL17067057M,,0,,,,0,0,0,1,4616067,pdf,21f5ba110db01d68d4944a3430514225,,,_304666.21f5ba110db01d68d4944a3430514225.pdf,0,2000-01-01 01:00:00,2020-02-27 01:14:50,829000/21f5ba110db01d68d4944a3430514225-d.jpg,Исторические дисциплины;Всемирная история;История древнего мира;История античного мира;История Древнего Рима;,"0807849901,9780807849903"
32033912,"Rome, the Greek World, and the East: Volume 2: Government, Society, and Culture in the Roman Empire (Studies in the History of Greece and Rome)",,Studies in the History of Greece and Rome,,Fergus Millar,2004,,University of North Carolina Press,,505,505,English,64,,до 2011-01,"0807855200,9780807855201,0807828521,9780807828526,9780807863695",,,,,,,,CVz_Jvp4DGEC,OL7972917M,,0,,,,0,0,,1,2793329,pdf,246fc893231ff4e91d8f6cf974212477,,,D:\\!genesis\\library.nu\\24\\_165946.246fc893231ff4e91d8f6cf974212477.pdf,0,2000-01-01 01:00:00,2020-02-27 01:15:17,561000/246fc893231ff4e91d8f6cf974212477-d.jpg,Исторические дисциплины;Всемирная история;История древнего мира;История античного мира;История Древнего Рима;,"0807855200,9780807855201,0807828521,9780807828526,9780807863695"
32033913,Roman Imperial Policy from Julian to Theodosius (Studies in the History of Greece and Rome)  ,,Studies in the History of Greece and Rome,,R. Malcolm Errington,2006,,The University of North Carolina Press,,351,351,English ,,,2011 12 30,"0807830380,9780807830383",,,,,,,,PpGvoLVkLxYC,OL9718113M,,0,,,,1,0,1,1,2691052,pdf,8f79fc3c6a043e96cedf4ea4a2b13a59,,,_473259.8f79fc3c6a043e96cedf4ea4a2b13a59.pdf,0,2000-01-01 01:00:00,2020-02-27 01:16:03,758000/8f79fc3c6a043e96cedf4ea4a2b13a59-d.jpg,,"0807830380,9780807830383"
32033914,A Teaching Seminar With Milton H. Erickson,,,,Jeffrey K. Zeig (editor),1980,1,Brunner/Mazel,,354,469,English,,,,"0876302479,9780876302477",,,,,,,,,,,0,,,,,,1,1,2428400,pdf,E64DC38FA26E82440B37992E72AD99E4,,,427497175-A-Teaching-Seminar-with-Milton-H-Erickson-pdf.pdf,0,2000-01-01 01:00:00,2020-02-27 02:40:02,e64dc38fa26e82440b37992e72ad99e4-g.jpg,,
32033915,The Good State: On the Principles of Democracy,,,,A.C. Grayling,2020,,Oneworld Publications,,256,0,English,192,,,"1786077183,9781786077189",,B07XYDG9JK,,,,,,,,,0,,,,,,,,585922,epub,5D92B2BA3AC82C9CE048EB3CC1CAE425,,,Grayling_The Good State. On the Principles of Democracy.epub,0,2000-01-01 01:00:00,2020-02-27 02:40:02,5d92b2ba3ac82c9ce048eb3cc1cae425-g.jpg,,
32033916,The Hero's Journey: A Voyage of Self Discovery,,,,Steven Gilligan; Robert Dilts,2009,,Crown House Pub Limited,,272,246,English,,,,"1845902866,9781845902865",,,,,,,,_yVsPgAACAAJ,,,0,,,,,,,0,1824469,pdf,D5E315F34C39C34893AAE4253A723240,,,410793159-Stephen-Gilligan-and-Robert-Dilts-The-Hero-s-Journey-A-Voyage-of-Self-Discovery.pdf,0,2000-01-01 01:00:00,2020-02-27 02:40:02,d5e315f34c39c34893aae4253a723240-g.jpg,,
32033917,Amongst Ourselves: A Self-Help Guide to Living with Dissociative Identity Disorder,,,,Tracy Alderman; Karen Marshall,1998,,New Harbinger Publications Incorporated,,240,252,English,,,,"1572241225,9781572241220",,,,,,,,GIsrAAAAYAAJ,,,0,,,,,,1,1,1566676,pdf,FA292886C6E6A2C3668A226A431E376D,,,390671449-Amongst-Ourselves-pdf.pdf,0,2000-01-01 01:00:00,2020-02-27 02:50:02,fa292886c6e6a2c3668a226a431e376d-g.jpg,,
32033918,Atticus-Briefe: lateinisch-deutsch,,Tusculum-Bücherei,,Marcus Tullius Cicero; Helmut Kasten,1980,"3., unveränd. Aufl.",Heimeran,München,1216,1216,"German, Latin",,,,"9783776520170,3776520175",,,,,,,,,,,0,,,,,,1,1,17053024,pdf,120A7CA7FA1F07E01C9AB0152143013D,,,"3776520175 Cicero, Marcus Tullius - Briefe an Atticus (1980, Heymeran Verlag).pdf",0,2000-01-01 01:00:00,2020-02-27 03:00:01,120a7ca7fa1f07e01c9ab0152143013d-g.jpg,,
32033919,Eros and Magic in the Renaissance,,,,Ioan P. Coulianu,1987,,University of Chicago Press,"Chicago, London",288,288,english,,,0,0-226-12316-2,,,,,,,,,,,300,0,1,,1,1,0,1,9407158,pdf,7619022d2f0c56cac5ce8bb3e065dc8d,,,"Ioan P. Culianu, Margaret Cook, Ioan P. Couliano Eros and Magic in the Renaissance abbyy.pdf",0,2000-01-01 01:00:00,2020-02-27 04:28:00,1708000/7619022d2f0c56cac5ce8bb3e065dc8d-g.jpg,,0226123162
32033920,Parkinson's disease and related disorders,,Journal of neural transmission. Supplementum ; 70,,"Riederer, Peter",2006,,Springer,"New York, Berlin, Germany), Wien",506,484,English,,,,"9783211289273,3211289275",,,,,,,,,,,0,,,,,,,,11039117,pdf,7EE9634D197CFE32F1495BA25E0587A8,,,N:\\!genesis_\\0day\\book_ger1\\Parkinson s Disease and Related Disorders .pdf,0,2000-01-01 01:00:00,2020-02-27 05:40:02,7ee9634d197cfe32f1495ba25e0587a8-d.jpg,"Parkinson's disease -- Congresses.;Extrapyramidal disorders -- Congresses.;Parkinson, Maladie de -- Congrès.;Syndrome extrapyramidal -- Congrès.;Extrapyramidal disorders.;Parkinson's disease.;Parkinson-Krankheit;Parkinson Disease.;Parkinson Disease -- therapy.;Parkinsonian Disorders.",
32033921,King Mob Echo: English Section of the Situationist International,,,,Tom Vague; Tim Clark; Christopher Gray; Donald Nicholson-Smith; Charles Radcliffe,2000,,AK Press,London,130,132,English,,,,"1871692075,9781871692075",,,,,,,,,,,600,1,1,0,1,1,1,1,7404467,pdf,847BCB08BDBE3E8801C2D8FCBF331B07,,,King Mob Echo_ English Section of the Situationist International.pdf,0,2000-01-01 01:00:00,2020-02-27 05:40:02,847bcb08bdbe3e8801c2d8fcbf331b07-g.jpg,,
32033922,King Mob Echo: From Gordon Riots to Situationists & Sex Pistols,,,,Tom Vague,2000,,AK Press,London,84,86,English,,,,"1871692083,9781871692082",,,,,,,,,,,600,1,1,0,1,1,1,1,4327707,pdf,1217362CFA88C2F5A750C78749D7133F,,,King Mob Echo_ From Gordon Riots to Situationists & Sex Pistols.pdf,0,2000-01-01 01:00:00,2020-02-27 05:40:02,1217362cfa88c2f5a750c78749d7133f-g.jpg,,
32033923,Cooking the German way : revised and expanded to include new low-fat and vegetarian recipes,,Easy menu ethnic cookbooks,,"Parnell, Helga",2003,Revised and expanded,Lerner Publications Company,"Minneapolis, MN",72,73,English,,,,"9780822541073,0822541076",,,,,,,,,,,0,,,,,,,,6439974,pdf,711A0AB916A63AE9AD5E2132FF3802A1,,,"N:\\!genesis_\\0day\\book_ger1\\Parnell, Helga - Cooking the German Way.pdf",0,2000-01-01 01:00:00,2020-02-27 05:40:03,711a0ab916a63ae9ad5e2132ff3802a1-d.jpg,"Cooking, German -- Juvenile literature.;Germany -- Social life and customs -- Juvenile literature.;Cooking, German.;Manners and customs.;Germany.",
32033924,The Machine and Its Discontents: A Fredy Perlman Anthology,,,,Fredy Perlman,2018,,,,247,247,English,,,,"9780995660977,9780995660984,0995660980",,,,,,,,,,,0,0,1,0,1,,1,1,2056542,pdf,2F0E643A8DDD0C096314B609AE40451D,,,The Machine and Its Discontents_ A Fredy Perlman Anthology.pdf,0,2000-01-01 01:00:00,2020-02-27 05:40:03,2f0e643a8ddd0c096314b609ae40451d-g.jpg,,
32033925,"The Myth of the Lazy Native: A Study of the Image of the Malays, Filipinos and Javanese from the 16th to the 20th Century and Its Function in the Ideology of Colonial Capitalism",,,,Syed Hussein Alatas,1977,1,Routledge,,276,276,English,,,,"0714630500,9780714630502",,,,,,,,,,,0,,,,,,1,1,13256123,pdf,35EA328F427B1B38B0244CB170214522,,,THE MYTH OF THE LAZY NATIVE 0 7146 3050 0.pdf,0,2000-01-01 01:00:00,2020-02-27 05:40:03,35ea328f427b1b38b0244cb170214522-g.jpg,,
32033926,Down With the Law: Anarchist Individualist Writings From Early Twentieth-Century France,,,,"Abidor, Mitchell; Serge, Victor; Libertad, Albert",2019,,AK Press,,,0,English,,,,,,,,,,,,,,,0,,,,,,,,1724936,epub,8B229B8CD677B197A6F95C069B2BBB0A,,,Down With the Law_ Anarchist Individualist Writings From Early Twentieth-Century France.epub,0,2000-01-01 01:00:00,2020-02-27 05:40:03,8b229b8cd677b197a6f95c069b2bbb0a-g.jpg,,
32033927,"Otherwise than Being, or, Beyond Essence",,,,Emmanuel Levinas; Alphonso Lingis,1998,,Duquesne University Press,,,213,English,,,,"0820702994,9780820702995",,,,,,,,,,,0,,,,,,1,1,1442998,pdf,61A20E836E8F6885A960CB560403BA74,,,Levinas Otherwise_than_being_or_beyond_essence.pdf,0,2000-01-01 01:00:00,2020-02-27 05:40:03,61a20e836e8f6885a960cb560403ba74-g.jpg,,
32033928,Antonin Artaud: Selected Writings,,,,Antonin Artaud; Susan Sontag; Helen Weaver,1988,,University of California Press,,,738,English,,,,"0520064437,9780520064430",,,,,,,,,,,600,1,1,0,1,1,1,1,7684869,pdf,48687916B8EE25852235BAF85ECAC964,,,Antonin Artaud_ Selected Writings.pdf,0,2000-01-01 01:00:00,2020-02-27 05:40:03,48687916b8ee25852235baf85ecac964-g.jpg,,
32033929,A Handbook for Electronics Engineering,,,,"ME Editorial Board, Made Easy",2012,1,Made Easy Publications,,468,461,English,,,,"9388137744,9789388137744",,,,,,,,,,,0,,,,,1,1,1,194493159,pdf,8AC10C8557D135CF29F02B34CEF77C6C,,,Made_Easy_EC_Handbook.pdf,0,2000-01-01 01:00:00,2020-02-27 05:40:03,8ac10c8557d135cf29f02b34cef77c6c-g.jpg,,
32033930,Public Health Behind Bars: From Prisons to Communities,,,,"Greifinger, Robert B.; Bick, Joseph A.; Goldenson, Joe",2007,1,Springer,"New York, United States., United States",576,588,English,,,,"9780387716947,0387716947,9780387716954,0387716955",,,,,,,,,,,0,,,,,,,,4186069,pdf,048B6FB92B20AFF331AD85E80FE45556,,,N:\\!genesis_\\0day\\book_ger1\\Public Health Behind Bars 1st ed.2007 .pdf,0,2000-01-01 01:00:00,2020-02-27 05:40:03,048b6fb92b20aff331ad85e80fe45556-d.jpg,Prisoners -- Medical care -- United States.;Medical policy -- United States.;Communicable diseases -- United States -- Prevention.;Prisoners.;Prisons -- organization & administration.;Communicable Disease Control -- organization & administration.;Health Policy.;United States.;Communicable diseases -- Prevention.;Medical policy.;Prisoners -- Medical care.;zapori -- zaporniki -- zdravstvena oskrba -- Združene države Amerike -- ZDA,
32033931,Radiation Dose from Adult and Pediatric Multidetector Computed Tomography,,Medical Radiology,,"Gevenois, Pierre Alain; Tack, Denis",2007,,Springer,Dordrecht,284,275,English,,,,"9783540685753,3540685758,3540288880,9783540288886",,,,,,,,,,,0,,,,,,,,7863756,pdf,C23958D82C335B5FC88EC3257EF329C5,,,N:\\!genesis_\\0day\\book_ger1\\Radiation Dose from Adult and Pediatric Multidetector Computed Tomography 2007 .pdf,0,2000-01-01 01:00:00,2020-02-27 05:40:03,c23958d82c335b5fc88ec3257ef329c5-g.jpg,Medical radiology.;Pediatrics.;Internal medicine.;Imaging / Radiology.;Diagnostic Radiology.;Neuroradiology.;Internal Medicine.,
32033932,Radiation Hormesis and the Linear-No-Threshold Assumption,,,,Charles L. Sanders,2010,,Springer,Berlin,,221,English,,,,"9783642037191,3642037194,9783642037207,3642037208",,,,,,,,,,,0,,,,,,,,3222068,pdf,FFBE65221DEF0140002CC21C5ABF17AD,,,N:\\!genesis_\\0day\\book_ger1\\Radiation Hormesis and the Linear-No-Threshold Assumption 1st ed.2010 .pdf,0,2000-01-01 01:00:00,2020-02-27 05:40:03,ffbe65221def0140002cc21c5abf17ad-d.jpg,Medicina.,
32033933,Radiation Oncology: An Evidence-Based Approach,,Medical radiology (Series),,"Molls, M.; Heilmann, H.-P",2008,1,Springer,Dordrecht,657,658,English,,,,"9783540773856,3540773851,9783540773849",,,,,,,,,,,0,,,,,,,,14801273,pdf,DD73493E2DFD6DC8B1EA4C315A6B5091,,,N:\\!genesis_\\0day\\book_ger1\\Radiation Oncology 1st ed.2008 .pdf,0,2000-01-01 01:00:00,2020-02-27 05:40:03,dd73493e2dfd6dc8b1ea4c315a6b5091-g.jpg,Medicine.,
32033934,Radiologic Diagnosis of Gastric Cancer: A new Outlook,,,,"Portnoæi, Lev Markovich",2006,,Springer Medizin,"New York, Berlin",307,315,English,,,,"9783540294214,354029421X,9786610625697,6610625697,3540291202",,,,,,,,,,,0,,,,,,,,17213988,pdf,DF1A3951C9F1008C9B51A80F0EBFA3D5,,,"N:\\!genesis_\\0day\\book_ger1\\Radiologic Diagnosis of Gastric Cancer - Portnoy, L. M_.pdf",0,2000-01-01 01:00:00,2020-02-27 05:40:03,df1a3951c9f1008c9b51a80f0ebfa3d5-g.jpg,"Stomach -- Cancer -- Diagnosis.;Diagnosis, Radioscopic.;Stomach Neoplasms -- diagnostic imaging.;Endoscopy, Gastrointestinal.;MEDICAL -- Oncology.;HEALTH & FITNESS -- Diseases -- Cancer.;Stomach Neoplasms -- radiography.",
32033935,"Brief Therapy: Myths, Methods, and Metaphors",,,,Jeffrey K. Zeig; Stephen G. Gilligan; Milton H. Erickson Foundation,1990,,Psychology Press,,492,520,English,,,,"087630577X,9780876305775",,,,,,,,B2PNU6iuWSQC,,,0,,,,,,,1,62423177,pdf,7E979B770C35121CC1652B89EFC3FD47,,,429285813-Brief-Therapy-Myths-Methods-And-Metaphors.pdf,0,2000-01-01 01:00:00,2020-02-27 05:40:03,7e979b770c35121cc1652b89efc3fd47-g.jpg,,
32033936,The Trauma Treatment Handbook: Protocols Across the Spectrum,,,,Robin Shapiro,2010,,W. W. Norton & Company,,235,283,English,,,,"9780393706185,0393706184",,,,,,,,zAObCCyNsgUC,,,0,,,,,,1,1,1166269,pdf,6F9E58ED37392D06F004C1C33BC1F70B,,,424583689-Trauma-Treatment-Handbook-Protocols-Across-the-SpecProfessional-Books-Hardcover-The-Robin-Shapiro.pdf,0,2000-01-01 01:00:00,2020-02-27 05:40:03,6f9e58ed37392d06f004c1c33bc1f70b-g.jpg,,
32033937,"Radiologische Diagnostik in der Onkologie / 2. Gastrointestinum, Urogenitaltrakt, Retroperitoneum",,,,"Layer, Günter; Delorme, Stefan; Kaick, Gerhard van",2008,,Springer,Berlin,332,257,German,,,,"9783540293187,3540293183,9783540293194,3540293191",,,,,,,,,,,0,,,,,,,,56286296,pdf,6DD0DE4021EC5751B637C8B131DE6779,,,"N:\\!genesis_\\0day\\book_ger1\\Radiologische Diagnostik in der Onkologie - Band 2 1st ed.2008 - Layer, van Kaick, Delorme.pdf",0,2000-01-01 01:00:00,2020-02-27 05:40:03,6dd0de4021ec5751b637c8b131de6779-d.jpg,"Diagnostic Radiology.;Internal medicine.;Medicine and Public Health.;Nuclear medicine.;Oncology.;Medical radiology.;Radiotherapy.;Surgery.;Internal medicine;Nuclear medicine;Oncology;Radiology, Medical;Radiotherapy;Surgery;Gastrointestinal Neoplasms;Retroperitoneal Neoplasms;Urogenital Neoplasms",
32033938,The Cast of Character: Style in Greek Literature,,,,Nancy Worman,2003,1,,,288,289,English,108,,до 2011-01,"0292791550,9780292791558,9780292796300",,,,,880.9/001,PA3052 .W67 2002,,,OL10314089M,,0,,,,,1,,1,1403641,pdf,2e15446465872173131aa6144d8bbb55,,,D:\\!genesis\\library.nu\\2e\\_161277.2e15446465872173131aa6144d8bbb55.pdf,0,2000-01-01 01:00:00,2020-02-27 07:48:06,554000/2e15446465872173131aa6144d8bbb55-d.jpg,,"0292791550,9780292791558,9780292796300"
32033939,Propertius in Love: The Elegies (A Joan Palevsky Book in Classical Literature),,,,Sextus Propertius,2002,,University of California Press,,315,315,English ,,,до 2011-08,"0520228782,9780520228788,9780585419619",,,,,874/.01,PA6645.E5 S58 2002,,,OL3938280M,,0,,,,,1,1,1,1031166,pdf,45bf2714f2c5c3f7c830e97a3f511a7a,,,_348249.45bf2714f2c5c3f7c830e97a3f511a7a.pdf,0,2000-01-01 01:00:00,2020-02-27 07:51:51,628000/45bf2714f2c5c3f7c830e97a3f511a7a-d.jpg,,"0520228782,9780520228788,9780585419619"
32033940,Sobre a arte brasileira: da pré-história aos anos 1960,,,,"Barcinski, Fabiana (org.)",2014,1,Martins Fontes / SESC,São Paulo,,364,Portuguese,57,,,9788578278243,,,,,,,,,,,0,1,,,,1,0,0,83511144,pdf,AFA05A3620AD06FDDF32B6CCD7FE6E43,,,"BARCINSKI, Fabiana. Sobre a arte brasileira.pdf",0,2000-01-01 01:00:00,2020-02-27 08:10:01,afa05a3620ad06fddf32b6ccd7fe6e43-g.jpg,,
32033941,Plato's <i>Parmenides</i> (The Joan Palevsky Imprint in Classical Literature),,The Joan Palevsky Imprint in Classical Literature,,Samuel Scolnicov,2003,1,University of California Press,,207,207,English,,,0,"9780520224032,9781417525515,0520224035",,,,,,,,,OL17087603M,,0,,,,1,1,1,1,1128507,pdf,f11a0dd00f35ff5e7d53d4903667d467,,,,0,2000-01-01 01:00:00,2020-02-27 08:26:48,314000/f11a0dd00f35ff5e7d53d4903667d467-d.jpg,,"9780520224032,9781417525515,0520224035"
32033942,The History of Make-Believe: Tacitus on Imperial Rome (The Joan Palevsky Imprint in Classical Literature),,,,Holly Haynes,2003,1,University of California Press,,242,247,English,64,,до 2011-01,"0520236505,9780520236509",,,,,937/.07/092,DG286 .H39 2003,,,OL3577870M,,0,,,,,1,1,1,1495475,pdf,b58c8b540cd6d5ca1003c2a59177d4b1,,,D:\\!genesis\\library.nu\\b5\\_57863.b58c8b540cd6d5ca1003c2a59177d4b1.pdf,0,2000-01-01 01:00:00,2020-02-27 08:27:02,500000/b58c8b540cd6d5ca1003c2a59177d4b1-d.jpg,,"0520236505,9780520236509"
32033943,Learned Girls and Male Persuasion: Gender and Reading in Roman Love Elegy (Joan Palevsky Imprint in Classical Literature),,,,Sharon Lynn James,2003,1,,,365,368,English,183,,до 2011-01,"0520233816,9780520233812,9780585466132",,,,,871/.01093543,PA6059.E6 J36 2003,,,OL22518880M,,0,,,,,1,,1,2291642,pdf,fe39e1af1099d2a9e73461d9494b049a,,,D:\\!genesis\\library.nu\\fe\\_57680.fe39e1af1099d2a9e73461d9494b049a.pdf,0,2000-01-01 01:00:00,2020-02-27 08:27:26,440000/fe39e1af1099d2a9e73461d9494b049a-d.jpg,,"0520233816,9780520233812,9780585466132"
32033944,Thucydides' War Narrative: A Structural Study (Joan Palevsky Imprint in Classical Literature),,,,Carolyn Dewald,2006,1,,,272,275,English,183,,до 2011-01,"0520241274,9780520241275,9781423745440",,,,,938/.05,DF229.T6 D48 2005,,,OL3293969M,,0,,,,,,1,1,934159,pdf,c64d2ab91fef91a914c6ce29298781df,,,D:\\!genesis\\library.nu\\c6\\_182658.c64d2ab91fef91a914c6ce29298781df.pdf,0,2000-01-01 01:00:00,2020-02-27 08:27:39,487000/c64d2ab91fef91a914c6ce29298781df-d.jpg,,"0520241274,9780520241275,9781423745440"
32033945,Epic Traditions in the Contemporary World: The Poetics of Community (Joan Palevsky Imprint in Classical Literature),,,,"Margaret Beissinger, Jane Tylus, Susanne Wofford",1999,1,University of California Press,,,0,English ,,,до 2011-08,"9780520210387,9780585139647,0520210387",,,,,809.1/32,PN56.E65 E665 1999,,,OL386317M,,0,,,,,1,,,715070,epub,d242cf8a11dac7fe995926ee17fe28cc,,,_346738.d242cf8a11dac7fe995926ee17fe28cc.epub,0,2000-01-01 01:00:00,2020-02-27 08:27:57,627000/d242cf8a11dac7fe995926ee17fe28cc-d.jpg,,"9780520210387,9780585139647,0520210387"
32033946,Late Antique Letter Collections: A Critical Introduction and Reference Guide,,Joan Palevsky imprint in classical literature.,,"Cristiana Sogno, Bradley K. Storin, Edward Jay Watts",2017,,University of California Press,,473,0,English,,,0,"9780520281448,0520281446",,,,,,,,,,,0,,,,,,,,7977103,epub,794b73da08855ce3011d42beb0a63847,,,Late Antique Letter Collections.epub,0,2000-01-01 01:00:00,2020-02-27 08:28:33,2365000/794b73da08855ce3011d42beb0a63847-d.jpg,"Classical letters -- History and criticism;Letter writing, Classical;Civilization, Classical, in literature;Classical letters;Griechisch;Latein;Spätantike;Briefsammlung","9780520281448,0520281446"
32033947,Republic of Numbers: Unexpected Stories of Mathematical Americans Through History,,,,David Lindsay Roberts,2019,,Johns Hopkins University Press,,x+244,255,English,113,,,"1421433087,9781421433080",,,,,,,,,,,0,,,,,,1,1,8196202,pdf,365256ACF04595E43CC22F9E31D4A457,,,Roberts_Republic of Numbers. Unexpected Stories of Mathematical Americans through History.pdf,0,2000-01-01 01:00:00,2020-02-27 08:30:02,365256acf04595e43cc22f9e31d4a457-g.jpg,,
32033948,Os índios antes do Brasil,,,,"Fausto, Carlos",2010,4,Zahar,Rio de Janeiro,,49,Portuguese,,,,9788571105430,,,,,,,,,,,0,,,,0,1,0,0,20035162,pdf,9ED1E25436C82DF3655549F3A266FB2C,,,"FAUSTO, Carlos. Os índios antes do Brasil.pdf",0,2000-01-01 01:00:00,2020-02-27 08:30:02,9ed1e25436c82df3655549f3a266fb2c-g.jpg,,
32033949,The seer in ancient Greece,,Joan Palevsky imprint in classical literature,,Michael A Flower,2008,,University of California Press ,Berkeley,"xviii, 305 p. : ill. ; 24 cm",330,English,,,,"9780520252295,0520252292,9780520259935,0520259939",,,,,,,,,,,0,,,,,,,1,2896647,pdf,0dbbc558bf5cb8e4d11cd9c5e27624fb,,,"A:\\!upload\\_non_fict_in_process\\! The Ancient World\\Books on Ancient Greece\\Flower, Michael Attyah - The Seer in Ancient Greece.pdf",0,2000-01-01 01:00:00,2020-02-27 08:30:24,876000/0dbbc558bf5cb8e4d11cd9c5e27624fb-d.jpg,,"9780520252295,0520252292,9780520259935,0520259939"
32033950,Ancient Greek epigrams : major poets in verse translation,,Joan Palevsky imprint in classical literature,,"Fain, Gordon L",2010,0,University of California Press,Berkeley,252,0,English,,,,"0520265793,978-0-520-26579-0,9780520947764,0520947762,978-0-520-26580-6",,,,,,,,,,,0,,,,,,,0,2230530,epub,21c853643565c1b8baecfa8b116b25de,,,K:\\_add\\!woodhead\\!\\!!!\\Ancient Greek Epigrams - Gordon L Fain.epub,0,2000-01-01 01:00:00,2020-02-27 08:30:53,1420000/21c853643565c1b8baecfa8b116b25de-d.jpg,"Epigrams, Greek -- Translations into English.                  Greek poetry -- Translations into English.                  Greek anthology.                  Epigrams, Greek.                  Greek poetry.                  Greek poetry, Hellenistic.                  Translations into English.                  Literature.                  LITERARY CRITICISM -- Ancient & Classical.","0520265793,9780520265790,9780520947764,0520947762,9780520265806"
32033951,Caligula : a biography,,Joan Palevsky imprint in classical literature,,"Emperor of Rome. Caligula; Emperor of Rome Caligula; Most, Glenn W.; Psoinos, Paul; Winterling, Aloys; Schneider, Deborah Lucas; Emperor of Rome Caligula",2011,F First Edition,University of California Press,"Berkeley, Rome, Rome (Empire)",229,0,"English, German",,,,"0520248953,978-0-520-24895-3,9780520943148,0520943147",,,,,,,,,,,0,,,,,,,0,1794942,epub,22fe3785af2b2c3f3442e804b7f37baf,,,K:\\_add\\!woodhead\\!\\!!!\\Caligula_A Biography - Aloys Winterling.epub,0,2000-01-01 01:00:00,2020-02-27 08:31:48,1421000/22fe3785af2b2c3f3442e804b7f37baf-d.jpg,"Caligula, -- Emperor of Rome, -- 12-41.                  Emperors -- Rome -- Biography.                  Rome -- History -- Caligula, 37-41.                  Caligula, -- 12-41 -- Emperor of Rome.                  BIOGRAPHY & AUTOBIOGRAPHY -- Historical.                  HISTORY -- Ancient -- Rome.                  POLITICAL SCIENCE -- History & Theory.                  Emperors.                  Rome (Empire)","0520248953,9780520248953,9780520943148,0520943147"
32033952,Caligula: A Biography,,Joan Palevsky imprint in classical literature,,Aloys Winterling,2011,F First Edition,University of California Press,"Berkeley, Rome, Rome (Empire)",229,0,"English, German",,,,"0520248953,9780520248953,9780520943148,0520943147",,,,,,,,,,,0,,,,,,,0,1794942,epub,22fe3785af2b2c3f3442e804b7f37baf,,,K:\\_add\\!woodhead\\!\\!!!\\Caligula_A Biography - Aloys Winterling.epub,0,2000-01-01 01:00:00,2020-02-27 08:32:05,1421000/22fe3785af2b2c3f3442e804b7f37baf-d.jpg,"Caligula, -- Emperor of Rome, -- 12-41.                  Emperors -- Rome -- Biography.                  Rome -- History -- Caligula, 37-41.                  Caligula, -- 12-41 -- Emperor of Rome.                  BIOGRAPHY & AUTOBIOGRAPHY -- Historical.                  HISTORY -- Ancient -- Rome.                  POLITICAL SCIENCE -- History & Theory.                  Emperors.                  Rome (Empire)","0520248953,9780520248953,9780520943148,0520943147"
32033953,"City of demons : violence, ritual, and Christian power in late antiquity",,Joan Palevsky imprint in classical literature,,"Saint Bishop of Milan Ambrose; Saint Bishop of Jerusalem Cyril; Saint John Chrysostom; Saint Bishop of Milan Ambrose; Saint Bishop of Jerusalem Cyril; Kalleres, Dayna S",2015,,University of California Press,"Antioch (Turkey), Jerusalem, Milan (Italy), Italy--Milan, Turkey--Antioch, Middle East--Jerusalem",374,0,English,,,,"9780520276475,0520276477",,,,,,,,,,,0,,,,,,,1,1912868,pdf,a1644d5bc00c7f350a2f860be55f28e6,,,"K:\\_add\\!woodhead\\!\\!!\\New Books(100)\\City of Demons - Violence, Ritual, and Christian Power in Late Antiquity(2015).pdf",0,2000-01-01 01:00:00,2020-02-27 08:33:07,1423000/a1644d5bc00c7f350a2f860be55f28e6-g.jpg,"John Chrysostom, -- Saint, -- -407. Cyril, -- Saint, Bishop of Jerusalem, -- approximately 315-386. Ambrose, -- Saint, Bishop of Milan, -- -397. Demonology -- History of doctrines -- Early church, ca. 30-600. Church history -- Primitive and early church, ca. 30-600. Antioch (Turkey) -- Religious life and customs. Jerusalem -- Religious life and customs. Mil","9780520276475,0520276477"
32033954,Cleopatra : a Sphinx revisited,,Joan Palevsky imprint in classical literature,,"Queen of Egypt Cleopatra; Miles, Margaret M.; Queen of Egypt Cleopatra",2011,,University of California Press,"Berkeley, Egypt, Rome, Rome (Empire), Egypt",251,0,English,,,,"0520243676,978-0-520-24367-5,9780520950269,0520950267,9781280102769,1280102764",,,,,,,,,,,0,,,,,,,1,2953418,pdf,9a1f1939cdcd4b3dcd791649dbd98d36,,,K:\\_add\\!woodhead\\!\\!!!\\Cleopatra - Margaret M. Miles.pdf,0,2000-01-01 01:00:00,2020-02-27 08:33:33,1423000/9a1f1939cdcd4b3dcd791649dbd98d36-d.jpg,"Cleopatra, -- Queen of Egypt, -- -30 B.C. Egypt -- History -- 332-30 B.C. Rome -- History -- Republic, 265-30 B.C. Queens -- Egypt -- Biography. Egypt -- Kings and rulers -- Biography. Cleopatra, Queen of Egypt, d. 30 B.C. Cleopatra. Egypt -- Kings and rulers. Queens -- Egypt. History. HISTORY -- Ancient --","0520243676,9780520243675,9780520950269,0520950267,9781280102769,1280102764"
32033955,Homosexuality in Greece and Rome : a sourcebook of basic documents,,Joan Palevsky imprint in classical literature,,"Hubbard, Thomas K",2003,annotated edition,University of California Press,"Berkeley Calif., Greece, Rome, Rome (Empire), Greece",558,0,English,,,,"0-520-22381-0,9780520223813,9780520234307,0-520-23430-8,9780520936508,0520936507,9780585466026,0585466025,9781597346597,1597346594,66-2003-306-7",,,,,,,,,,,0,,,,,,,1,5256184,pdf,7225a3412b477993d3ea8c091b8f1941,,,K:\\_add\\!woodhead\\!\\!!\\slow\\(University of California Press) Homosexuality in Greece and Rome_ A Sourcebook of Basic Documents - Thomas K. Hubbard.pdf,0,2000-01-01 01:00:00,2020-02-27 08:34:50,1425000/7225a3412b477993d3ea8c091b8f1941-d.jpg,Homosexuality -- Greece -- History -- Sources. Homosexuality -- Rome -- History -- Sources. Greece -- Social life and customs -- Sources. Rome -- Social life and customs -- Sources. Homosexuality -- Greece -- History. Homosexuality -- Rome -- History. Electronic books. Greece -- Social life and customs. Rome -- Social life and customs.,"0520223810,9780520223813,9780520234307,0520234308,9780520936508,0520936507,9780585466026,0585466025,9781597346597,1597346594,6620033067"
32033956,"Laughter in ancient Rome : on joking, tickling, and cracking up",,Sather classical lectures 71.; Joan Palevsky imprint in classical literature,,"Beard, Mary",2014,,University of California Press,"Rome, Römisches Reich., Rome (Empire)",319,0,English,,,,"0520277163,978-0-520-27716-8,9780520287587,0520287584,978-0-520-95820-3",,,,,,,,,,,0,,,,,,,1,8331515,pdf,76de4ba49af709d1416ee360c52cd6fc,,,"K:\\_add\\!woodhead\\!\\!!\\slow\\(University of California Press) (Sather Classical Lectures) Laughter in Ancient Rome_ On Joking, Tickling, and Cracking Up - Mary Beard (1).pdf",0,2000-01-01 01:00:00,2020-02-27 08:35:25,1426000/76de4ba49af709d1416ee360c52cd6fc-d.jpg,Laughter -- Rome -- History -- To 1500. Latin wit and humor -- History and criticism. Rome -- Social life and customs. HISTORY / Ancient / General. LITERARY CRITICISM / Ancient & Classical. POLITICAL SCIENCE / History & Theory. Lachen. Römisches Reich. Latin wit and humor. Laughter. Manners and customs.,"0520277163,9780520277168,9780520287587,0520287584,9780520958203"
32033957,Learned girls and male persuasion : gender and reading in Roman love elegy,,Joan Palevsky imprint in classical literature,,"Tibullus, Albius; Propertius, Sextus Aurelius; James, Sharon L.; Ovidius Naso, Publius",2003,0,University of California Press,"Berkeley, Rome (Empire)",350,0,English,,,,"0-520-23381-6,9780520233812,9780520928664,0520928660,9780585466132,0585466130,9781282356825,1282356828,9781597347075,1597347078",,,,,,,,,,,0,,,,,,,1,2518364,pdf,b7ddf1196b924a722b675368ed398c7d,,,K:\\_add\\!woodhead\\!\\!!!\\Learned Girls and Male Persuasion - Sharon L. James.pdf,0,2000-01-01 01:00:00,2020-02-27 08:35:59,1426000/b7ddf1196b924a722b675368ed398c7d-d.jpg,"Elegiac poetry, Latin -- History and criticism. Love poetry, Latin -- History and criticism. Man-woman relationships in literature. Women -- Books and reading -- Rome. Women and literature -- Rome. Books and reading -- Rome. Sex role in literature. Persuasion (Rhetoric) Women in literature. Ovidius Naso, P. -- (Publius), --","0520233816,9780520233812,9780520928664,0520928660,9780585466132,0585466130,9781282356825,1282356828,9781597347075,1597347078"
32033958,Lectura Dantis : Purgatorio,,Joan Palevsky imprint in classical literature.; California lectura Dantis 2,,"Oldcorn, Anthony; Ross, Charles; Mandelbaum, Allen; Dante Alighieri",2008,"First Edition, A Canto-by-Canto Commentary",University of California Press,Berkeley,412,0,English,,,,"0520250559,978-0-520-25055-0,978-0-520-25056-7,0520250567,9780520940529,0520940520,9781282360174,1282360175,9781433711213,1433711214,9781435630390,1435630394",,,,,,,,,,,0,,,,,,,1,2684614,pdf,ddb6f183897548e4be928e2f84707dc3,,,K:\\_add\\!woodhead\\!\\!!\\slow\\(University of California Press) Lectura Dantis_ Purgatorio - Allen Mandelbaum & Anthony Oldcorn & Charles Ross.pdf,0,2000-01-01 01:00:00,2020-02-27 08:36:25,1426000/ddb6f183897548e4be928e2f84707dc3-d.jpg,"Dante Alighieri, -- 1265-1321. -- Purgatorio. POETRY -- Continental European. LITERARY CRITICISM -- European -- General. Purgatorio (Dante Alighieri)","0520250559,9780520250550,9780520250567,0520250567,9780520940529,0520940520,9781282360174,1282360175,9781433711213,1433711214,9781435630390,1435630394"
32033959,Man and the word : the orations of Himerius,,Transformation of the classical heritage 43.; Joan Palevsky imprint in classical literature,,"Himerius; Penella, Robert J.; Himerius",2007,1,University of California Press,Berkeley,312,0,English,,,,"0520250931,978-0-520-25093-2,9780520933712,0520933710",,,,,,,,,,,0,,,,,,,1,1390203,pdf,1997408448c173358a73a1f89cdd65e7,,,K:\\_add\\!woodhead\\!\\!!\\slow\\(University of California Press) Man and the Word_ The Orations of Himerius - Robert J. Penella.pdf,0,2000-01-01 01:00:00,2020-02-27 08:37:08,1427000/1997408448c173358a73a1f89cdd65e7-d.jpg,"Himerius, -- approximately 310-approximately 390. Rhetoric, Ancient. PHILOSOPHY -- History & Surveys -- Ancient & Classical. LANGUAGE ARTS & DISCIPLINES -- Composition & Creative Writing. LANGUAGE ARTS & DISCIPLINES -- Rhetoric. REFERENCE -- Writing Skills. Himerius. -- Declamationes et orationes.","0520250931,9780520250932,9780520933712,0520933710"
32033960,"Mediterranean anarchy, interstate war, and the rise of Rome",,Hellenistic culture and society 48.; Joan Palevsky imprint in classical literature,,"Eckstein, Arthur M",2006,1,University of California Press,"Berkeley, Middellandse-Zeegebied., Rome, Rome (Empire), Romeinse rijk",370,0,English,64,,,"0-520-24618-7,978-0-520-24618-8,9780520932302,0520932307,9781282358881,128235888X",,,,,,,,,,,0,,,,,,,1,1640955,pdf,f51858d8e1955f22e1b115bc41f3fa27,,,"K:\\_add\\!woodhead\\!\\!!\\slow\\(University of California Press) Mediterranean Anarchy, Interstate War, and the Rise of Rome - Arthur M. Eckstein.pdf",0,2000-01-01 01:00:00,2020-02-27 08:37:32,1427000/f51858d8e1955f22e1b115bc41f3fa27-d.jpg,Исторические дисциплины;Всемирная история;История древнего мира;История античного мира;История эллинизма;,"0520246187,9780520246188,9780520932302,0520932307,9781282358881,128235888X"
32033961,Meta-religion : religion and power in world history,,Joan Palevsky imprint in classical literature,,"Laine, James W",2014,,University of California Press,,282,0,English,,,,"0520281365,978-0-520-28136-3,978-0-520-28137-0,0520281373,978-0-520-95999-6",,,,,,,,,,,0,,,,,,,1,4051779,pdf,590bbf8dc9bc63c091d67bf7c74ddfb0,,,K:\\_add\\!woodhead\\!\\!!\\slow\\(University of California Press) Meta-Religion_ Religion and Power in World History - James W. Laine (1).pdf,0,2000-01-01 01:00:00,2020-02-27 08:37:57,1427000/590bbf8dc9bc63c091d67bf7c74ddfb0-d.jpg,Religions -- History. Religion and politics -- History. Religion and politics. Religions.,"0520281365,9780520281363,9780520281370,0520281373,9780520959996"
32033962,Meta-religion : religion and power in world history,,Joan Palevsky imprint in classical literature,,"Laine, James W",2014,,University of California Press,,282,0,English,,,,"0520281365,978-0-520-28136-3,978-0-520-28137-0,0520281373,978-0-520-95999-6",,,,,,,,,,,0,,,,,,,0,21441468,epub,388fbdc3bd4c35a56841d44ef46b46ac,,,K:\\_add\\!woodhead\\!\\!!\\slow\\(University of California Press) Meta-Religion_ Religion and Power in World History - James W. Laine.epub,0,2000-01-01 01:00:00,2020-02-27 08:38:32,1427000/388fbdc3bd4c35a56841d44ef46b46ac-d.jpg,Religions -- History. Religion and politics -- History. Religion and politics. Religions.,"0520281365,9780520281363,9780520281370,0520281373,9780520959996"
32033963,Pericles: a sourcebook and reader,,Joan Palevsky imprint in classical literature,,Stephen V. Tracy,2009,,University of California Press,"Athens (Greece), CA, Greece--Athens",248,0,English,,,0,"9780520256033,0520256034,9780520256040,0520256042,9780520943629,0520943627",,,,,938’.505092—dc22,DF228.P4T73 2009,10.1525/j.ctt1pp19x,p0foJ48o_TYC,,"if it doesn’t work in Adobe Reader/Acrobat, try to open with other PDF viewer",0,,,,1,0,1,1,3988490,pdf,37c3d9c51ea68d25803fbaf143a26b64,,,K:/_add/!woodhead/!/!!/slow/(University of California Press) Pericles_ A Sourcebook and Reader - Stephen V. Tracy.pdf,0,2000-01-01 01:00:00,2020-02-27 08:39:21,1428000/37c3d9c51ea68d25803fbaf143a26b64-d.jpg,"Pericles, -- approximately 495 B.C.-429 B.C. Athens (Greece) -- History. Statesmen -- Greece -- Athens -- Biography. Orators -- Greece -- Athens -- Biography. Orators -- Greece -- Athens. Pericles. Pericles, ca. 495-429 B.C. Statesmen -- Greece -- Athens. History. Political Science. HISTORY -- Ancient -- Gr","9780520256033,0520256034,9780520256040,0520256042,9780520943629,0520943627"
32033964,The Economy of the Greek Cities : From the Archaic Period to the Early Roman Empire,,Joan Palevsky imprint in classical literature,,"Migeotte, Léopold; Lloyd, Janet",2009,0,University of California Press,"CA, Greece, Greece",216,0,"English, French",,,,"0520253655,978-0-520-25365-0,978-0-520-25366-7,0520253663,9780520944671,0520944674",,,,,,,,,,,0,,,,,,,1,1141377,pdf,033710c832d94badda426fc8f4d1767e,,,"K:\\_add\\!woodhead\\!\\!!\\slow\\(University of California Press) Economy of the Greek Cities_ From the Archaic Period to the Early Roman Empire, The - Leopold Migeotte.pdf",0,2000-01-01 01:00:00,2020-02-27 08:39:56,1431000/033710c832d94badda426fc8f4d1767e-d.jpg,Greece -- Economic conditions -- To 146 B.C. Business. BUSINESS & ECONOMICS -- Economic Conditions. BUSINESS & ECONOMICS -- Economic History. BUSINESS & ECONOMICS -- Economics -- Comparative. POLITICAL SCIENCE -- Economic Conditions. HISTORY -- Ancient -- General. Economic history. Greece. Economische situatie.,"0520253655,9780520253650,9780520253667,0520253663,9780520944671,0520944674"
32033965,Principles of clinical medicine for space flight,,,,"Pool, Sam Lee; Barratt, Michael R",2008,,Springer,New York,596,592,English,,,,"9780387681641,0387681647,9780387988429,0387988424",,,,,,,,,,,0,,,,,,,,6653127,pdf,F4DA52C053739082FFD8DCA9C7EB2B01,,,N:\\!genesis_\\0day\\book_ger1\\Principles of Clinical Medicine for Space Flight 1st ed.2009 .pdf,0,2000-01-01 01:00:00,2020-02-27 08:40:02,f4da52c053739082ffd8dca9c7eb2b01-d.jpg,Medycyna kosmiczna.,
32033966,独龙语简志,,中国少数民族语言简志丛书,,孙宏开,1982,,民族出版社,Beijing,248,254,Chinese,314,,,,,,,,,,,,,,0,,,,,1,,0,3056641,pdf,DC1C1C25C71F3EC605473712154277B2,,,独龙语简志.pdf,0,2000-01-01 01:00:00,2020-02-27 08:40:02,dc1c1c25c71f3ec605473712154277b2-g.jpg,獨龍語簡誌,
32033967,Sanskrit Swayam Shikshak संस्कृत स्वयं शिक्षक - Learn Sankrit Easily,,,,Shripad Damodar Saatvalekar श्रिपाद दामोदर सातवलेकर,,,,,,371,"Hindi, Sanskrit",319,https://telegram.me/MagickEbookz,,,,,,,,,,,,,0,,,,,,,0,12151989,pdf,A318B7FA007B8BB77E554C757C17AE73,,,संस्कृत स्वयं शिक्षक.pdf,0,2000-01-01 01:00:00,2020-02-27 08:40:02,a318b7fa007b8bb77e554c757c17ae73-g.jpg,Sanskrit Hindi language AncientIndia India Knowledge Vedas Upanishads Kundalini Magick,
32033968,粤西客家方言调查报告,,,,李如龙,1999,1,暨南大学出版社,Guangzhou,215,221,Chinese,314,,,"7810298879,9787810298872",,,,,,,,,,,0,,,,,1,1,1,11411732,pdf,585BBE422F9D7D4BFFADB0C9A7829142,,,粤西客家方言调查报告.pdf,0,2000-01-01 01:00:00,2020-02-27 08:40:02,585bbe422f9d7d4bffadb0c9a7829142-g.jpg,粵西客家方言調查報告,
32033969,Psychologisches Grundwissen für die Polizei : Ein Lehrbuch. Mit Online-Materialien,,,,"Krauthan, Günter",2013,Neuausgabe,Beltz,,,241,German,,,,"9783621281997,3621281991,9783621280860",,,,,,,,,,,0,,,,,,,,4932378,pdf,0F6E2F3F491C4178CC8F348B1BAAC84B,,,"N:\\!genesis_\\0day\\book_ger1\\Psychologisches Grundwissen fur die Polizei - Krauthan, Gunter.pdf",0,2000-01-01 01:00:00,2020-02-27 08:40:02,0f6e2f3f491c4178cc8f348b1baac84b-g.jpg,Polizeibeamter.;Ausbildung.;Psychologie.,
32033970,Psychopathologie : Merkmale psychischer Krankheitsbilder und klinische Neurowissenschaft,,,,"Reischies, Friedel M",2007,1,Springer Medizin,Heidelberg,346,350,German,,,,"9783540372530,3540372539",,,,,,,,,,,0,,,,,,,,4365704,pdf,8890725C61F988679265F7E59023BE95,,,N:\\!genesis_\\0day\\book_ger1\\Psychopathologie; 1. Aufl. 2007 - Reischies.pdf,0,2000-01-01 01:00:00,2020-02-27 08:40:02,8890725c61f988679265f7e59023be95-d.jpg,Psychopathology -- methods.;Neurosciences -- methods.,
32033971,Psychopharmakologie : Anwendung und Wirkungsweisen von Psychopharmaka und Drogen,,,,"Elbert, Thomas; Rockstroh, Brigitte; Banholzer, Peter",1993,"2., überarbeitete und erg. Aufl",Hogrefe,"Göttingen, Seattle",358,362,German,,,,"9783801706876,3801706877",,,,,,,,,,,0,,,,,,,,2186115,pdf,22FB33A306ADAC804FEC4EB5BA2B0274,,,"N:\\!genesis_\\0day\\book_ger1\\Psychopharmakologie; 2. Aufl. 1993 - Elbert, Rockstroh.pdf",0,2000-01-01 01:00:00,2020-02-27 08:40:02,22fb33a306adac804fec4eb5ba2b0274-g.jpg,Psychopharmacology,
32033972,Psychopharmakologischer Leitfaden für Psychologen und Psychotherapeuten,,,,"Graf-Morgenstern, Mechthild; Hautzinger, Martin; Benkert, Otto",2008,1,Springer Medizin Verlag,,,319,German,,,,"9783540479574,3540479570,9783540479581,3540479589",,,,,,,,,,,0,,,,,,,,2049236,pdf,C069144E7888084258713DDB76D35638,,,N:\\!genesis_\\0day\\book_ger1\\Psychopharmakologischer Leitfaden fuer Psychologen und Psychotherapeuten 1st ed.2008 .pdf,0,2000-01-01 01:00:00,2020-02-27 08:40:02,c069144e7888084258713ddb76d35638-d.jpg,Philosophy (General);Psychiatry.;Psychiatry;Psychopharmakotherapie;Psychology;Online-Publikation,
32033973,Psychosoziale Hilfe bei Katastrophen und komplexen Schadenslagen : lessons learned,,,,"Lueger-Schuster, Krusmann, Purtscher",2006,1,Springer,Wien,228,240,German,,,,"9783211291306,321129130X",,,,,,,,,,,0,,,,,,,,2223174,pdf,BE827B36FC4FA60D5A3D3316FF60D5A6,,,"N:\\!genesis_\\0day\\book_ger1\\Psychopsoziale Hilfe bei Katastrophen und komplexen Sc; 1. Aufl. 2006 - Lueger-Schuster, Krusmann, Purtscher.pdf",0,2000-01-01 01:00:00,2020-02-27 08:40:02,be827b36fc4fa60d5a3d3316ff60d5a6-d.jpg,"Crisis Intervention.;Stress Disorders, Traumatic.;Katastrophe.;Katastrophenhilfe.;Krisenintervention.;Posttraumatisches Stresssyndrom.;Psychosoziale Betreuung.;Schaden.",
32033974,The Go Workshop,,,,"Delio D'Anna, Andrew Hayes, Et al",2019,1,Packt Publishing Ltd.,Birmingham,822,822,English,,,,9781838647940,,,,,,,,,,,0,,,,,0,1,1,13549007,pdf,07B2B1536098770D13A1EFF697880B96,,,"(Packt) Delio D’Anna, Andrew Hayes, Sam Hennessy, Jeremy Leasor, Gobin Sougrakpam - The Go Workshop_ A New, Interactive Approach to Learning Go-Packt Publishing (2019).pdf",0,2000-01-01 01:00:00,2020-02-27 08:40:02,07b2b1536098770d13a1eff697880b96-g.jpg,,
32033975,Pulmonary Arterial Hypertension and Interstitial Lung Diseases: a Clinical Guide,,,,"Baughman, Robert P.; Bottino, Giovanni; Carbone, Roberto G",2009,1,Humana Press,"Totowa, NJ",,253,English,,,,"9781603270748,1603270744,9781588296955",,,,,,,,,,,0,,,,,,,,5636900,pdf,02FCC3D219E1353C6A8AE4CB5B0AACCF,,,N:\\!genesis_\\0day\\book_ger1\\Pulmonary Arterial Hypertension and Interstitial Lung Diseases 1st ed.2009 .pdf,0,2000-01-01 01:00:00,2020-02-27 08:40:02,02fcc3d219e1353c6a8ae4cb5b0aaccf-d.jpg,Cardiology.;Medicine & Public Health.,
32033976,Pulmonary Function Tests in Clinical Practice,,,,"Altalag, Ali; Road, Jeremy; Wilcox, Pearce",2009,,Springer,London,285,285,English,,,,"9781848822313,1848822316,9786612236259,6612236256,9781848822306",,,,,,,,,,,0,,,,,,,,3637292,pdf,E094E20A56EAE809EF68ECB567F67081,,,N:\\!genesis_\\0day\\book_ger1\\Pulmonary Function Tests in clinical Practice 1st ed.2009 .pdf,0,2000-01-01 01:00:00,2020-02-27 08:40:02,e094e20a56eae809ef68ecb567f67081-d.jpg,Pulmonary function tests -- Interpretation.;Respiratory Function Tests.;Respiratory Function Tests -- methods.;Lung Diseases -- diagnosis.;MEDICAL -- Pulmonary & Thoracic Medicine.,
32033977,Pulmonary Problems in Pregnancy : Clinical and Research Aspects,,Respiratory Medicine,,"Bourjeily, Ghada; Rosene-Montella, Karen",2009,1,Humana Press,"Totowa, NJ",,415,English,,,,"9781597454452,1597454451,9781934115121,1934115126",,,,,,,,,,,0,,,,,,,,6838960,pdf,B8CEFE7EE2E9BCD8DAADD50056888516,,,N:\\!genesis_\\0day\\book_ger1\\Pulmonary Problems in Pregnancy 1st ed.2009 .pdf,0,2000-01-01 01:00:00,2020-02-27 08:40:02,b8cefe7ee2e9bcd8daadd50056888516-d.jpg,,
32033978,Repensando el desarrollo: lecturas interdisciplinares,,,,Mariana Valderrama Leongómez; Luis Gabriel Duquino Rojas; Fabio Andrés Vinasco Ñustes; Marco Aguilera-Prado,2018,,Editorial Uniagustiniana,"Bogotá, D.C.",,148,Spanish,,,,"9789585498099,9789585498105",,,,,,,10.28970/9789585498105,,,,0,,,,,,,1,2111344,pdf,D4544E55A76451170E49B5595A80684E,,,"Valderrama. Duquino, Vinasco, Aguilera-Prado (2018) Repensando el desarrollo-lecturas inderdisciplinares.pdf",0,2000-01-01 01:00:00,2020-02-27 08:40:02,d4544e55a76451170e49b5595a80684e-d.jpg,,
32033979,Hectors Reise oder die Suche nach dem Glück,,,,Francois Lelord,2020,,PIPER,,,204,deutsch,,,,9783492248280,,,,,,,,,,,200,1,1,,,1,,0,11816781,pdf,553DC030A46B1E8CD2D0882CA449563E,,,Hector Reise.pdf,0,2000-01-01 01:00:00,2020-02-27 08:40:02,553dc030a46b1e8cd2d0882ca449563e-g.jpg,,
32033980,Das Zweite - kompakt : Querschnittsbereiche GK 2,,Springer-Lehrbuch,,"Fetzner, Ulrich; Schaps, Klaus-Peter; Kessler, Oliver",2008,1,Springer Medizin Verlag Heidelberg,"Berlin, Heidelberg",,429,German,,,,"9783540463573,3540463577,9783540463580,3540463585",,,,,,,,,,,0,,,,,,,,23358124,pdf,EF6C51E930DFE224487E229BA1C86A66,,,"N:\\!genesis_\\0day\\book_ger1\\Querschnittsbereiche; 1 Aufl. 2008 - Schaps, Kessler, Fetzner.pdf",0,2000-01-01 01:00:00,2020-02-27 08:40:02,ef6c51e930dfe224487e229ba1c86a66-d.jpg,"Emergency medicine.;Emerging infectious diseases.;Geriatrics.;Medicine.;Medical radiology.;Toxicology.;Emergency medicine;Emerging infectious diseases;Geriatrics;Medicine;Toxicology;Medicine & Public Health;Radiology, Medical",
32033981,Radiology education the scholarship of teaching and learning,,,,"Chhem, Rethy K",2009,1,Springer,"Berlin, Heidelberg",296,305,English,,,,"9783540689874,3540689877,9783540689898,3540689893",,,,,,,,,,,0,,,,,,,,5554449,pdf,7200DFB250A74815B899A02F42C6A5BD,,,N:\\!genesis_\\0day\\book_ger1\\Radiology Education 1st ed.2009 .pdf,0,2000-01-01 01:00:00,2020-02-27 08:40:02,7200dfb250a74815b899a02f42c6a5bd-d.jpg,"Medizinische Radiologie;Medizinstudium;Radiology;education;Technology, Radiologic;education;RADIODIAGNOSTIK + RÖNTGENDIAGNOSTIK + RÖNTGENAUFNAHMEN (MEDIZIN);MEDIZINISCHE AUSBILDUNG (BERUFSAUSBILDUNG);RADIODIAGNOSTICS + X-RAY DIAGNOSTICS + RADIOGRAPHY (MEDICAL DIAGNOSTICS);RADIODIAGNOSTIC (DIAGNOSTIC MÉDICAL);MEDICAL EDUCATION (VOCATIONAL EDUCATION);ENSEIGNEMENT DE LA MÉDECINE (FORMATION PROFESSIONNELLE)",
32033982,Radiology of the postoperative GI tract,,,,"Wolf, Ellen L.; Javors, Bruce R",2005,,Springer,New York,,392,English,,,,"9780387215891,0387215891,0387952004",,,,,,,,,,,0,,,,,,,,11918871,pdf,3703C20321A7855019A229A9768A73B8,,,N:\\!genesis_\\0day\\book_ger1\\Radiology of the Postoperative GI Tract 1st ed.2003 .pdf,0,2000-01-01 01:00:00,2020-02-27 08:40:02,3703c20321a7855019a229a9768a73b8-g.jpg,Tractus gastro-intestinal -- Chirurgie -- Complications et séquelles.;Tractus gastro-intestinal -- Radiographie.;Maladie gastro-intestinale.;Radiologie médicale.;Radiographie.;Complications médicales.;Soins postopératoires.,
32033983,Radiology of the stomach and duodenum,,Medical radiology,,"Balan, Kottekattu; Freeman, Alan H.; Sala, Evis",2008,1,Springer,"New York, Berlin",262,266,English,,,,"9783540424628,3540424628,9783540498971,3540498974",,,,,,,,,,,0,,,,,,,,12337725,pdf,9A2CAC9AE3BDB0DB9AF91DAF1A497BA6,,,N:\\!genesis_\\0day\\book_ger1\\Radiology Stomach and Duodenum 1st ed.2008 .pdf,0,2000-01-01 01:00:00,2020-02-27 08:40:02,9a2cac9ae3bdb0db9af91daf1a497ba6-d.jpg,Estómago -- Radiografías.;Duodeno -- Radiografías.,
32033984,"Human Resource Information Systems: Basics, Applications, and Future Directions",,,,Michael J. Kavanagh (editor); Richard David Johnson (editor),2018,4,,,,878,English,,,,"9781506351452,150635145X,9781506386539,1506386539",,,,,658.300285,,,,,,0,,,,,,1,1,9194029,pdf,4B0BA221F342AD762DFADA463A8AFBFA,,,Human Resource Information Systems - 4th ed - Kavanagh (2017).pdf,0,2000-01-01 01:00:00,2020-02-27 08:40:02,4b0ba221f342ad762dfada463a8afbfa-g.jpg,,
32033985,Latine Loqui: Trends and Directions in the Crystallization of Classical Latin,,,,Hannah Rosen,1999,,Wilhelm Fink Verlag,München,,222,English,,,,"3770533887,9783770533886",,,,,,,,,,,0,,,,,,1,1,10275386,pdf,27850234E71ABBA9AAECA7E73D722752,,,3770533887 Latine loqui trends and directions in the crystallization of classical Latin.pdf,0,2000-01-01 01:00:00,2020-02-27 08:40:02,27850234e71abba9aaeca7e73d722752-g.jpg,,
32033986,Reproductive Endocrinology: A Molecular Approach,,,,"Chedrese, Pedro J",2009,,Springer,New York,,351,English,,,,"9780387881867,0387881867,9780387881850",,,,,,,,,,,0,,,,,,,,22824505,pdf,9EDCCDAEE86A8BBD7BF8084864E379FB,,,N:\\!genesis_\\0day\\book_ger1\\Reproductive Endocrinology A Molecular Approach 1st ed.2009 .pdf,0,2000-01-01 01:00:00,2020-02-27 08:40:02,9edccdaee86a8bbd7bf8084864e379fb-g.jpg,Reproduction -- Endocrine aspects.;Reproduction -- physiology.;Gene Expression.;Gonadal Disorders -- physiopathology.;Hormones -- physiology.;Reproduction -- Aspect endocrinien.,
32033987,Gliomas,,Recent Results in Cancer Research 171,,"Deimling, Andreas",2009,,Springer Berlin Heidelberg,"Berlin, Heidelberg",,262,English,,,,"9783540312062,3540312064,9783540312055",,,,,,,,,,,0,,,,,,,,19075392,pdf,7FF3BB888F163C8AC0E78A31B53A53CA,,,N:\\!genesis_\\0day\\book_ger1\\Resent Results in Cancer Research - Vol 171 - Gliomas 2009 - Resent Results in Cancer Research.pdf,0,2000-01-01 01:00:00,2020-02-27 08:40:03,7ff3bb888f163c8ac0e78a31b53a53ca-d.jpg,Oncology.;Nervous system -- Surgery.;Neurology.;Medicine.;Medicine & Public Health.,
32033988,Minimally Invasive Tumor Therapies,,Recent results in cancer research 167,,"Stroszczynski, Christian",2006,,Springer,"New York, Berlin, Heidelberg",146,143,English,,,,"9783540281368,3540281363",,,,,,,,,,,0,,,,,,,,3055323,pdf,3443E51FA7B5066F0850847E91AB6E3D,,,N:\\!genesis_\\0day\\book_ger1\\Resent Results in Cancer Research - Vol. 167 - Minimalmor Therapies 2006 - Resent Results in Cancer Research.pdf,0,2000-01-01 01:00:00,2020-02-27 08:40:03,3443e51fa7b5066f0850847e91ab6e3d-d.jpg,Krebs <Medizin>;Minimal-invasive Chirurgie,
32033989,Communication in Cancer Care,,Recent results in cancer research 168,,"Stiefel, Friedrich",2006,,Springer,New York,125,131,English,,,,"9783540307570,3540307575",,,,,,,,,,,0,,,,,,,,1490544,pdf,3CC432B4CD8B6DC41B245784DA99C520,,,N:\\!genesis_\\0day\\book_ger1\\Resent Results in Cancer Research - Vol. 168 - Communin Cancer Care 2006 - Resent Results in Cancer Research.pdf,0,2000-01-01 01:00:00,2020-02-27 08:40:03,3cc432b4cd8b6dc41b245784da99c520-d.jpg,Cancer -- Patients -- Hospital care -- Social aspects.;Communication in medicine.;Communication in nursing.;Communication in medicine;Communication in nursing,
32033990,Risikomanagement in der operativen Medizin : mit 18 Tabellen,,,,"Gasser, Annette; Kleine, Peter; Pietrowski, Detlef; Ennker, Jürgen",2007,1,Steinkopff,Darmstadt,189,197,German,,,,"9783798517370,3798517371,9783798517387,379851738X",,,,,,,,,,,0,,,,,,,,8839790,pdf,D9EC352E11BEC84CB750FCE2EE5F92A1,,,"N:\\!genesis_\\0day\\book_ger1\\Risikomanagement in der operativen Medizin; 1. Aufl. 2007 - Ennker, Pietrowski, Kleine.pdf",0,2000-01-01 01:00:00,2020-02-27 08:40:03,d9ec352e11bec84cb750fce2ee5f92a1-d.jpg,"Risk Management.;Surgical Procedures, Operative.;Chirurgie;Risikomanagement;Chirurgie.;Risikomanagement.",
32033991,Der Riss in der Tafel : Amoklauf und schwere Gewalttaten in der Schule,,,,"Robertz, Frank",2007,1,Springer,Heidelberg,246,251,German,,,,9783540716303,,,,,,,,,,,0,,,,,,,,6622626,pdf,39AA090356BA6492CF1A34D3B8FE57F1,,,"N:\\!genesis_\\0day\\book_ger1\\Riss in der Tafel; 1. Aufl. 2007, Der - Robertz, Wickenhauser.pdf",0,2000-01-01 01:00:00,2020-02-27 08:40:03,39aa090356ba6492cf1a34d3b8fe57f1-d.jpg,School violence.;School management and organization.,
32033992,"Reise-Kochbuch für Wohnmobil, Camping und Ferienwohnung",,Praxis,,"Küttner, Swantje",2007,1. Aufl,Reise-Know-How-Verl. Rump,Bielefeld,160,160,German,,,,"9783831715978,3831715971",,,,,,,,,,,0,,,,,,,,7576388,pdf,F927102DBD9EF79960A145FBA1609119,,,"N:\\!genesis_\\0day\\book_ger1\\RKH Verlag - Reisekochbuch fuer Wohnmobil, Camping und Ferienwohnung (2008).pdf",0,2000-01-01 01:00:00,2020-02-27 08:40:03,f927102dbd9ef79960a145fba1609119-g.jpg,Reise.;Reise,
32033993,烹饪、菜肴与阶级,,,,杰克·古迪,2010,,浙江大学出版社,,,344,Chinese,,,,9787308079020,,,,,,,,,,,0,,,,,,1,1,8200680,pdf,145D944CA572EAACDD0F0B8C767D2FF2,,,烹饪、菜肴与阶级.pdf,0,2000-01-01 01:00:00,2020-02-27 08:40:03,145d944ca572eaacdd0f0b8c767d2ff2-g.jpg,,
32033994,恶魔花园：禁忌食物的故事,,,,斯图尔德·李·艾伦,2008,,新星出版社,,,291,Chinese,,,,9787802255104,,,,,,,,,,,0,,,,,,1,0,7652132,pdf,C3DAC6B9D08A0AC1C5C9F3CCD696126A,,,恶魔花园：禁忌食物的故事.pdf,0,2000-01-01 01:00:00,2020-02-27 08:40:03,c3dac6b9d08a0ac1c5c9f3ccd696126a-g.jpg,,
32033995,左手咖啡，右手世界,,,,马克·彭德格拉斯特,2016,,机械工业出版社,,,424,Chinese,,,,9787111533436,,,,,,,,,,,0,,,,,,1,0,72211474,pdf,024135FE3BFBD05C17947D9E6E257EEF,,,左手咖啡，右手世界.pdf,0,2000-01-01 01:00:00,2020-02-27 08:40:03,024135fe3bfbd05c17947d9e6e257eef-g.jpg,,
32033996,Primary Care in Urban Disadvantaged Communities,,,,"Drinkwater, Chris; Kai, Joe",2018,,Chapman and Hall/CRC,Boca Raton,210,210,English,,,,"9781498794855,1498794858,9781857754377",,,,,,,,,,,0,,,,,,,,13175252,pdf,48F13A219B9D563042492761B9138181,,,N:\\!genesis_\\0day\\crc_dnd1505\\Primary Care in Urban Disadvantaged Communities - 9781315379241.pdf,0,2000-01-01 01:00:00,2020-02-27 08:40:03,48f13a219b9d563042492761b9138181-g.jpg,,
32033997,Tensions and barriers in improving maternity care : the story of a birth centre,,,,"Deery, Ruth; Hughes, Deborah; Kirkham, Mavis; Kitzinger, Sheila",2018,,Radcliffe Publishing,Great Britain,,136,English,,,,"9781315346465,131534646X,9781846194252",,,,,,,,,,,0,,,,,,,,7277522,pdf,3CDC354F38D0DD271A95BA1B535F4591,,,N:\\!genesis_\\0day\\crc_dnd1505\\Tensions and Barriers in Improving Maternity Care - The Story of a Birth Centre - 9781498791793.pdf,0,2000-01-01 01:00:00,2020-02-27 08:40:03,3cdc354f38d0dd271a95ba1b535f4591-d.jpg,Birthing centers -- Great Britain.;MEDICAL / Gynecology & Obstetrics.;Birthing centers.;Great Britain.,
32033998,The art of presenting: getting it right in the post-modern world,,,,"Gillies, Alan",2015,,CRC Press Inc,,,122,English,,,,"9781846190919,1846190916",,,,,,,,,,,0,,,,,,,,21705733,pdf,A15C283CDFAB80D5BEE1FEE12A52CD49,,,N:\\!genesis_\\0day\\crc_dnd1505\\The Art of Presenting - Getting It Right in the Post-Modern World - 9781315383125.pdf,0,2000-01-01 01:00:00,2020-02-27 08:40:03,a15c283cdfab80d5bee1fee12a52cd49-d.jpg,,
32033999,"International Organizations: Politics, Law, Practice",,,,Ian Hurd,2014,2,,,375,375,,,,,"9781107612617,9781107040977",,,,,,,,,,,0,,,,,,1,1,4389476,pdf,786D11F3EBDA05F3A93103FABC3C559B,,,"FV645-International Organizations_ Politics, Law, Practice - Ian Hurd.pdf",0,2000-01-01 01:00:00,2020-02-27 08:40:03,786d11f3ebda05f3a93103fabc3c559b-g.jpg,,
32034000,饮食行为的人类学研究：巴黎和广州的中国人日常饮食行为比较,,,,杨晓敏,2015,,上海外语教育出版社,,,301,"Chinese,French",,,,9787544625517,,,,,,,,,,,0,,,,,,1,0,59254886,pdf,09800EAA0C46956971A9D52FCAE67FB8,,,饮食行为的人类学研究  巴黎和广州的中国人日常饮食行为比较.pdf,0,2000-01-01 01:00:00,2020-02-27 08:40:03,09800eaa0c46956971a9d52fcae67fb8-g.jpg,,
32034001,中国的文化与文人,,,,任继愈,2017,,现代出版社,Beijing,,221,Chinese,,,,"9787514344127,7514344128",,,,,,,,,,,0,,,,,,1,1,2239608,pdf,0EE20E8F6FBA25CA8256A4546341A9ED,,,中国的文化与文人.任继愈.现代出版社.2017.pdf,0,2000-01-01 01:00:00,2020-02-27 08:40:03,0ee20e8f6fba25ca8256a4546341a9ed-g.jpg,,
32034002,时光的甬道：12个小地方的人类学饮食笔记,,,,洪震宇,2016,,中央广播电视大学出版社,,,282,Chinese,,,,9787304080457,,,,,,,,,,,0,,,,,,1,0,45699212,pdf,034FF25E3608D2935E6EB0F1F3ECF5C7,,,时光的甬道  12个小地方的人类学饮食笔记.pdf,0,2000-01-01 01:00:00,2020-02-27 08:40:03,034ff25e3608d2935e6eb0f1f3ecf5c7-g.jpg,,
32034003,Excel VBA ganz einfach! (New Edition): Lernen Sie Programmieren mit Microsoft Excel (German Edition),,,,Daniel Hofer,2016,,Daniel Hofer,,,0,English,,,,,,,,,,,,,,,0,,,,,,,,13582005,azw3,1BC15570ECD3433601A56B5ABB75D1F0,,,N:\\!genesis_\\0day\\Excel VBA ganz einfach - Daniel Hofer.azw3,0,2000-01-01 01:00:00,2020-02-27 08:40:03,1bc15570ecd3433601a56b5abb75d1f0-g.jpg,,
32034004,Excel VBA ganz einfach! (New Edition): Lernen Sie Programmieren mit Microsoft Excel (German Edition),,,,Daniel Hofer,2016,,Daniel Hofer,,,0,English,,,,,,,,,,,,,,,0,,,,,,,,11251152,epub,255BE2229D9A28FBF2EEB1E246D65C57,,,N:\\!genesis_\\0day\\Excel VBA ganz einfach - Daniel Hofer.epub,0,2000-01-01 01:00:00,2020-02-27 08:40:03,255be2229d9a28fbf2eeb1e246d65c57-g.jpg,,
32034005,"The consultant's toolkit : high-impact questionnaires, activities, and how-to guides for diagnosing and solving client problems",,,,"Silberman, Melvin L",2001,,McGraw-Hill,"New York, N.Y",,369,English,,,,"9780071394987,0071394982,0071362614",,,,,,,,,,,0,,,,,,,,1626352,pdf,4D9A6B360286F54983FC94708F574607,,,N:\\!genesis_\\0day\\Mcgraw.Hill.Ebook.Collection_p30download.com\\Mcgraw.Hill.Mel.Silberman.The.Consultant's.Toolkit.(2001)_p30download.com.pdf,0,2000-01-01 01:00:00,2020-02-27 08:40:03,4d9a6b360286f54983fc94708f574607-d.jpg,"Business consultants -- Handbooks, manuals, etc.;Conseillers d'entreprise -- Guides, manuels, etc.;Business consultants.",
32034006,Making jewelry with beads and paracord bracelets : a complete and step by step guide,,,,"Evans, Janet",2013,,"Made available through hoopla, Speedy Publishing Books",United States,,125,English,,,,"9781630223564,1630223565",,,,,,,,,,,0,,,,,,,,4552546,pdf,112BAAE26CE036B7ED0BB10B6EA87D9D,,,N:\\!genesis_\\0day\\new030220\\!paracord\\Making Jewelry with Beads and Paracord Bracelets --A Complete an.pdf,0,2000-01-01 01:00:00,2020-02-27 08:40:03,112baae26ce036b7ed0bb10b6ea87d9d-g.jpg,Beadwork.;Jewelry making.;CRAFTS & HOBBIES / Beadwork.,
32034007,"Paracord! : how to make the best bracelets, lanyards, key chains, buckles, and more",,,,Todd Mikkelsen,2014,,Skyhorse Publishing,"New York, Knots and splices",162,0,English,,,,"9781629148199,1629148199,9781629148205",,,,,,,,,,,0,,,,,,,,50655811,epub,C235CA92602DC00A63A3DC200D8C8B71,,,N:\\!genesis_\\0day\\new030220\\!paracord\\Paracord!.epub,0,2000-01-01 01:00:00,2020-02-27 08:40:03,c235ca92602dc00a63a3dc200d8c8b71-d.jpg,Macramé.;Bracelets.;Cordage.;Knots and splices.;Hand weaving.,
32034008,Transition from Slavery in Zanzibar and Mauritius,,,,"Abdul Sheriff, Vijayalakshmi Teelock, Saada Omar Wahab, Satyendra Peerthum",2016,,Codesria,,182,182,English,,,,"2869786808,9782869786806",,,,,,,,,,,0,0,1,0,1,0,1,1,6286485,pdf,34C2EE3924CA97C1E59C86B0CE76DB93,,,Sheriff et al - Transition from Slavery in Zanzibar and Mauritius.pdf,0,2000-01-01 01:00:00,2020-02-27 08:40:03,34c2ee3924ca97c1e59c86b0ce76db93-d.jpg,,
32034009,Polymer Science,,,,"V R Gowariker, N V Vishwanathan, Jayadev Shreedhar",1986,,New age international,New Delhi,413,413,English,300,,,0852263074,,,,,,,,,,,0,,,,,,,0,72001565,pdf,8E565424480B07C48C943DFF08D5341D,,,Polymer Science by V R Gowariker.pdf,0,2000-01-01 01:00:00,2020-02-27 08:40:03,8e565424480b07c48c943dff08d5341d-g.jpg,,
32034010,The Economy of Prostitution in the Roman World: A Study of Social History and the Brothel,,,,Thomas McGinn,2004,,University of Michigan Press,,359,358,English ,,,до 2011-08,"0472113623,9780472113620",,,,,,,,,OL7634141M,,0,,,,,0,,1,1807826,pdf,ee6a645457192ee6787956a0246c02e4,,,_335454.ee6a645457192ee6787956a0246c02e4.pdf,0,2000-01-01 01:00:00,2020-02-27 08:45:51,617000/ee6a645457192ee6787956a0246c02e4-d.jpg,,"0472113623,9780472113620"
32034011,Satiric Advice on Women and Marriage: From Plautus to Chaucer,,,,Warren S. Smith,2005,,,,308,311,English,,,до 2011-01,"0472114263,9780472114269",,,,,877.009/3543,PA3033 .S28 2005,,,OL3294025M,,0,,,,,,,1,1238212,pdf,618bbdd9c336ad4c18126992054c8ee1,,,F:\\Library.nu\\61\\_176886.618bbdd9c336ad4c18126992054c8ee1.pdf,0,2000-01-01 01:00:00,2020-02-27 08:59:45,431000/618bbdd9c336ad4c18126992054c8ee1-d.jpg,,"0472114263,9780472114269"
32034012,"Diodorus Siculus, Books 11-12.37.1: Greek History, 480-431 BC--the Alternative Version",,,,"Peter Green, Peter Green",2006,,,,336,337,English,64,,до 2011-01,"9780292706040,0292706049,9780292795877",,,,,938/.04,DF227 .D56 2006,,,OL10293329M,,0,,,,,1,1,1,2189551,pdf,f6fa384f679a5baa1280ce6c3759d866,,,D:\\!genesis\\library.nu\\f6\\_44749.f6fa384f679a5baa1280ce6c3759d866.pdf,0,2000-01-01 01:00:00,2020-02-27 09:14:56,447000/f6fa384f679a5baa1280ce6c3759d866-g.jpg,,"9780292706040,0292706049,9780292795877"
32034013,The art of presenting: getting it right in the post-modern world,,,,"Gillies, Alan",2015,,CRC Press Inc,,,122,English,,,,"9781846190919,1846190916",,,,,,,,,,,0,,,,,,,,21705733,pdf,A15C283CDFAB80D5BEE1FEE12A52CD49,,,N:\\!genesis_\\0day\\crc_dnd1505\\The Art of Presenting - Getting It Right in the Post-Modern World - 9781315383125.pdf,0,2000-01-01 01:00:00,2020-02-27 12:48:27,2476000/a15c283cdfab80d5bee1fee12a52cd49-d.jpg,,
32034014,Semiconductor Manufacturing Handbook,,,,Hwaiyu Geng,2018,2,McGraw-Hill Education,,560,0,English,254,,,"125958769X,9781259587696",,B075M3SY5T,,,,,,,,,0,,,,,,,,58479800,azw3,10FDC75E64A24C05CBC0DA36E2669721,,,"Geng_Semiconductor Manufacturing Handbook, 2nd Edition.azw3",0,2000-01-01 01:00:00,2020-02-27 14:30:02,10fdc75e64a24c05cbc0da36e2669721-g.jpg,,
32034015,Los Secretos del mar Cousteau. Enciclopedia Del Mar 5,5/36,,,Jacques Ives Cousteau,1993,,,,,94,Spanish,31,,,,,,,,,,,,,,300,1,,0,0,1,1,0,26942650,pdf,6A18D79542225207EDCB1ACEB69C0FBA,,,Los Secretos Del Mar Tomo 5 J Cousteau Folio 1993.pdf,0,2000-01-01 01:00:00,2020-02-27 15:20:02,6a18d79542225207edcb1aceb69c0fba-g.jpg,,
32034016,Breaking Hate: Confronting the New Culture of Extremism,,,,Christian Picciolini,2020,,Hachette Books,,272,0,English,,,,"0316522937,9780316522939",,,,,,,,,,,0,,,,,,,,2051736,epub,212160BADE52318CE0F0830488E93C4E,,,Breaking Hate; Confronting The New Culture Of Extremism — Christian Picciolini (2020).epub,0,2000-01-01 01:00:00,2020-02-27 15:20:02,212160bade52318ce0f0830488e93c4e-g.jpg,,
32034017,Human Gravity: An Engineer’s Analysis of Society-Government Relations,,,,Al Keller,2020,,Elm Hill,,172,0,English,192,,,"1400328683,9781400328680",,,,,,,,,,,0,,,,,,,,5126769,epub,1CDA70C5BBD50B530D799DE86D2606DD,,,Keller_Human Gravity. An Engineer's Analysis of Society-Government Relations.epub,0,2000-01-01 01:00:00,2020-02-27 15:30:02,1cda70c5bbd50b530d799de86d2606dd-d.jpg,,
32034018,Perversion - The  Erotic Form of Hatred,,,,Robert J. Stoller,1986,,Karnac Books,,164,0,English,201,,,,,,,,,,,,,OCRed from http://libgen.is/book/index.php?md5=2586C99A421458EEC12463225E336991,0,,,,,,,,272169,epub,7C9C76128AC3B1750342292D08FA3AA3,,,Perversion The Erotic Form of Hatred by Robert J. Stoller.epub,0,2000-01-01 01:00:00,2020-02-27 15:30:02,7c9c76128ac3b1750342292d08fa3aa3-g.jpg,,
32034019,Um Curso de Álgebra Linear,1,,,Flávio Ulhoa Coelho e Mary Lilian Lourenço,2015,1,Edusp,,272,270,Portuguese,,,,9788531405945,,,,,,,,,,,0,,,,,1,0,0,32233496,pdf,68DF6F13F011AECE51CDE7438A1FEEB1,,,Um curso de Álgebra Linear - Flávio Ulhoa Coelho.pdf,0,2000-01-01 01:00:00,2020-02-27 15:30:02,68df6f13f011aece51cde7438a1feeb1-g.jpg,,
32034020,Anamnese: Da Teoria da História e Da Política,,,,Eric Voegelin,2009,,É Realizações Editora,,,538,Português,,,,9788588062672,,,,,,,,,,,0,0,,0,,1,1,1,70418693,pdf,838EF462D2569CA9437E13D2AE603936,,,Eric Voegelin - Anamnese.pdf,0,2000-01-01 01:00:00,2020-02-27 15:30:02,838ef462d2569ca9437e13d2ae603936-g.jpg,"Eric Voegelin, Anamnese",
32034021,Sussurros: A vida privada na Rússia de Stalin,,,,Orlando Figes,2019,1ª,Record,Rio de Janeiro/RJ,1848,0,Portuguese,68,,,9788501116789,,B07QV3VB8F,,,,,,,,Título original: The whisperers,0,,,,,,,,2272257,epub,8366ECCC7B475AFED57B89AEAF0B948F,,,Sussurros_ A vida privada na Ru - Orlando Figes.epub,0,2000-01-01 01:00:00,2020-02-27 15:40:01,8366eccc7b475afed57b89aeaf0b948f-g.jpg,1. Família - União Soviética - História. 2. Vida urbana - União Soviética. 3. Comunismo - União Soviética - Aspectos psicológicos. 4. União Soviética - Condições sociais. 5. União Soviética - História - 1925-1953.,
32034022,Dimensión religiosa de los conflictos políticos,,,,"Yves Solis Nicot, Valentina Torres Septién",2018,,Universidad Autónoma Metropolitana,Mexico City,,464,Spanish,,,,9786072814967,,,,,,,,,,,0,,,,,,,1,3823694,pdf,39D59301585AF5DD5789A9C2E22398E6,,,Solis y Torres (coords.) - Dimension religiosa de los conflictos politicos [2018].pdf,0,2000-01-01 01:00:00,2020-02-27 15:40:01,39d59301585af5dd5789a9c2e22398e6-g.jpg,,
32034023,The Mahabharata (Complete 10 Volumes),,Hinduism,,"Veda Vyasa, Vyasa, Veda Vyas",2015,1,Penguin Books Ltd,,8892,0,English,205,,0,,,,,,,,,,,Hinduism,0,,,,,,,,24739579,epub,3b87c337f9acdcbd583827400d45770f,,,The Mahabharata (10 Volumes) - Veda Vyas.epub,0,2000-01-01 01:00:00,2020-02-27 18:02:22,2461000/3b87c337f9acdcbd583827400d45770f-g.jpg,Hinduism,
32034024,I Campani,,Biblioteca di Archeologia,,Luca Cerchiai,1995,,Longanesi,Milano,264,315,Italian,,,,"9788830412736,8830412732",,,,,,,,,,,300,,1,0,,1,0,1,21725842,pdf,08414EBD16343BA089F6E7AF1DBA52FD,,,Cerchiai - I Campani.pdf,0,2000-01-01 01:00:00,2020-02-27 22:40:02,08414ebd16343ba089f6e7af1dba52fd-g.jpg,,
32034025,Tecnica della falange,,Gli archi,,Giuseppe Cascarino,2011,,Il Cerchio,,250,220,Italian,,,,"8884742862,9788884742865",,,,,,,,,,,300,,1,0,,1,0,1,36830006,pdf,BFF1F40D84426DEE1A315139C747BE14,,,Cascarino - Tecnica della falange.pdf,0,2000-01-01 01:00:00,2020-02-27 22:40:02,bff1f40d84426dee1a315139c747be14-g.jpg,,
32034026,I Veneti. Società e cultura di un popolo dell'Italia preromana,,Biblioteca di archeologia,,Loredana Capuis,1993,2,Longanesi,,344,341,Italian,,,,"8830411329,9788830411326",,,,,,,,,,,300,,1,0,,1,0,1,21473480,pdf,6035827471AE23D3C0D11E4A566ACB06,,,Capuis - I Veneti.pdf,0,2000-01-01 01:00:00,2020-02-27 22:40:02,6035827471ae23d3c0d11e4a566acb06-g.jpg,,
32034027,Gli antichi popoli della Campania. Archeologia e storia,,Studi superiori,,Luca Cerchiai,2010,,Carocci,,151,150,Italian,,,,"8843054090,9788843054091",,,,,,,,,,,300,,1,0,,1,0,1,8587161,pdf,AB811F7D82E00DA8D4815E288B01B165,,,Cerchiai - Gli antichi popoli della Campania.pdf,0,2000-01-01 01:00:00,2020-02-27 22:40:02,ab811f7d82e00da8d4815e288b01b165-g.jpg,,
32034028,Archeologia delle identità e delle differenze,,Le bussole,,"Mariassunta Cuozzo, Alessandro Guidi",2013,,Carocci,,109,112,Italian,,,,"884307007X,9788843070077",,,,,,,,,,,300,,1,,,1,0,0,4328900,pdf,189D4E9E577102930D2DB67E785B6504,,,Cuozzo & Guidi - Archeologia delle differenze.pdf,0,2000-01-01 01:00:00,2020-02-27 22:40:02,189d4e9e577102930d2db67e785b6504-g.jpg,,
32034029,Archeologia delle identità e delle differenze,,Le bussole,,"Mariassunta Cuozzo, Alessandro Guidi",2013,,Carocci,,109,112,Italian,,,,"884307007X,9788843070077",,,,,,,,,,,300,,1,0,,1,0,1,5080003,pdf,43AFE2B537D4334FF303096FE65F33B3,,,Cuozzo & Guidi - Archeologia delle differenze CS.pdf,0,2000-01-01 01:00:00,2020-02-27 22:40:02,43afe2b537d4334ff303096fe65f33b3-g.jpg,,
32034030,Il dio che muore : mito e cultura nel mondo preclassico,,Lezioni / [La nuova Italia],,Henri Frankfort,1992,,La nuova Italia,Scandicci (FI),145,207,Italian,,,,"9788822111227,8822111222",,,,,935,,,,,,0,,1,0,,1,0,0,11981570,pdf,A1E701B6D0479C65B70A455BB82ECA83,,,Frankfort - Il dio che muore.pdf,0,2000-01-01 01:00:00,2020-02-27 22:40:02,a1e701b6d0479c65b70a455bb82eca83-g.jpg,,
32034031,Il dio che muore : mito e cultura nel mondo preclassico,,Lezioni / [La nuova Italia],,Henri Frankfort,1992,,La nuova Italia,Scandicci (FI),145,207,Italian,,,,"9788822111227,8822111222",,,,,935,,,,,,300,,1,0,,1,0,1,18005774,pdf,C8F3480164A50DF9801DBF1FE8901617,,,Frankfort - Il dio che muore CS.pdf,0,2000-01-01 01:00:00,2020-02-27 22:40:02,c8f3480164a50df9801dbf1fe8901617-g.jpg,,
32034032,"Elements Old and New: Discoveries, Developments, Challenges, and Environmental Implications",,ACS symposium series 1263,,"Benvenuto, Mark Anthony; Williamson, Tracy C",2017,,American Chemical Society,,225,238,English,,,,"9780841232556,0841232555,9780841232525",,,,,,,,,,,0,,,,,,,,88502863,pdf,6140A6E6E3DC4C299A38CA5F02D48E1C,,,"N:\\!genesis_\\0day\\new030220\\ASC Symp\\1263 - Elements Old and New Discoveries, Developments, Challenges, and .pdf",0,2000-01-01 01:00:00,2020-02-28 00:30:01,6140a6e6e3dc4c299a38ca5f02d48e1c-g.jpg,Chemical elements.;Chemical elements -- History.;Chemistry -- History.;Periodic table of the elements.;Chemistry.;Chemisches Element;Periodensystem,
32034033,Advances in Agrochemicals: Ion Channels and G Protein-Coupled Receptors (GPCRs) As Targets for Pest Control,1,ACS symposium series 1264,,Aaron D. Gross; Yoshihisa Ozoe; Joel R. Coats,2018,,American Chemical Society,"Washington, DC",152,152,English,,,,"0841232571,9780841232570",,,,,,,,rVu3tAEACAAJ,,,0,,,,,,,,23104144,pdf,F9C4FB488CDAED7296A01A6525C0CFF8,,,N:\\!genesis_\\0day\\new030220\\ASC Symp\\1264 - Advances in Agrochemicals Ion Channels and G Protein-Coupled Rec.pdf,0,2000-01-01 01:00:00,2020-02-28 00:30:01,f9c4fb488cdaed7296a01a6525c0cff8-d.jpg,,
32034034,Advances in Agrochemicals: Ion Channels and G Protein-Coupled Receptors (GPCRs) As Targets for Pest Control,2,ACS symposium series 1265,,Aaron D. Gross; Yoshihisa Ozoe; Joel R. Coats,2018,,American Chemical Society,"Washington, DC",168,168,English,,,,"0841232601,9780841232600",,,,,,,,kB_lAAAACAAJ,,,0,,,,,,,,24040027,pdf,F76B896E535CBA5D99D3FE5757285507,,,N:\\!genesis_\\0day\\new030220\\ASC Symp\\1265 - Advances in Agrochemicals Ion Channels and G Protein-Coupled Rec-1.pdf,0,2000-01-01 01:00:00,2020-02-28 00:30:01,f76b896e535cba5d99d3fe5757285507-d.jpg,,
32034035,Liberal Arts Strategies for the Chemistry Classroom,,ACS symposium series 1266,,"Crawford, Garland L.; Kloepper, Kathryn D",2017,,American Chemical Society,,,212,English,,,,"9780841232617,084123261X,9780841232648",,,,,,,,,,,0,,,,,,,,21288721,pdf,5F884C4A18CD0F62C30F4EEEB503C369,,,N:\\!genesis_\\0day\\new030220\\ASC Symp\\1266 - Liberal Arts Strategies for the Chemistry Classroom.pdf,0,2000-01-01 01:00:00,2020-02-28 00:30:01,5f884c4a18cd0f62c30f4eeeb503c369-d.jpg,Chimie -- Étude et enseignement.;Interdisciplinarité en éducation.;Éducation humaniste.,
32034036,Stereochemistry and Global Connectivity: The Legacy of Ernest L. Eliel,1,ACS symposium series 1257,,H. N. Cheng; Cynthia A. Maryanoff; Diane Grob Schmidt,2018,,American Chemical Society,"Washington, DC",224,237,English,,,,"0841232385,9780841232389",,,,,,,,JeZDtAEACAAJ,,,0,,,,,,,,65814782,pdf,5BD795121FB1E3333954E0EE3998F64E,,,N:\\!genesis_\\0day\\new030220\\ASC Symp\\1257 - Stereochemistry and Global Connectivity the Legacy of Ernest L. .pdf,0,2000-01-01 01:00:00,2020-02-28 00:40:01,5bd795121fb1e3333954e0ee3998f64e-d.jpg,,
32034037,Stereochemistry and Global Connectivity: The Legacy of Ernest L. Eliel,2,ACS symposium series 1258,,H. N. Cheng; Cynthia A. Maryanoff; Diane Grob Schmidt,2018,,American Chemical Society,"Washington, DC",240,246,English,,,,"0841232407,9780841232402",,,,,,,,S1OOswEACAAJ,,,0,,,,,,,,37234205,pdf,29FAA81B82BBB6B27F2F425398453B16,,,N:\\!genesis_\\0day\\new030220\\ASC Symp\\1258 - Stereochemistry and Global Connectivity the Legacy of Ernest L. -1.pdf,0,2000-01-01 01:00:00,2020-02-28 00:40:01,29faa81b82bbb6b27f2f425398453b16-d.jpg,,
32034038,Educational and Outreach Projects from the Cottrell Scholars: Undergraduate and Graduate Education,,ACS symposium series 1248 1259,,Rory M. Waterman; Andrew Feig,2018,,American Chemical Society,,128,115,English,,,,"0841232083,9780841232082",,,,,,,,Xhw0tAEACAAJ,,,0,,,,,,,,13089579,pdf,BD63F739FD1267B9B05389B20A2E86A3,,,N:\\!genesis_\\0day\\new030220\\ASC Symp\\1259 - Educational and Outreach Projects from the Cottrell Scholars Col-1.pdf,0,2000-01-01 01:00:00,2020-02-28 00:40:01,bd63f739fd1267b9b05389b20a2e86a3-d.jpg,Chemistry -- Study and teaching (Secondary);Chemistry -- Study and teaching (Higher),
32034039,The Marquis de Sade: A Biography,,,,Gilbert Lély,1961,,Grove Press,,,468,English,,,,,,B0007FJIR4,,,,,,A_9DAAAAYAAJ,,,0,,,,,,,1,45448987,pdf,22C28B48C1EF136A0773FC6464E01706,,,The Marquis de Sade; a biography.pdf,0,2000-01-01 01:00:00,2020-02-28 00:40:01,22c28b48c1ef136a0773fc6464e01706-g.jpg,,
32034040,The Posthumous Nobel Prize in Chemistry: Correcting the Errors and Oversights of the Nobel Prize Committee,1,ACS symposium series 1262,,E. Thomas Strom; Vera V. Mainz,2018,,American Chemical Society,,368,369,English,,,,"0841232512,9780841232518",,,,,,,,uRe7AQAACAAJ,,,0,,,,,,,,140536042,pdf,566792B410379327FA805992FC43C520,,,N:\\!genesis_\\0day\\new030220\\ASC Symp\\1262 - The Posthumous Nobel Prize in Chemistry. Volume 1. Correcting th.pdf,0,2000-01-01 01:00:00,2020-02-28 00:40:01,566792b410379327fa805992fc43c520-d.jpg,Chemistry -- Awards -- History.;Nobel Prizes -- History.;Nobel Prize winners.;Chemistry -- Awards.;Nobel Prizes.,
32034041,"Encyclopaedia of Historical Metrology, Weights, and Measures",1,Science Networks. Historical Studies; 56,,Jan Gyllenbok,2018,,"Springer International Publishing, Cham",,1215,0,English,,,,9783319575964,,,,,,,,,,,0,,,,,,,,4317132,epub,37BBDE68C2227F978327DDE45DDF1805,,,"978-3-319-57596-4 Encyclopaedia of Historical Metrology, Weights, and Measures Volume 1.epub",0,2000-01-01 01:00:00,2020-02-28 01:50:28,2473000/37bbde68c2227f978327dde45ddf1805-g.jpg,,
32034042,Sociolinguistics,,Oxford Introductions to Language Study,,Bernard Spolsky,1998,1,Oxford University Press,,142,71,English,,,,"0194372111,9780194372114",,,,,,,,,,,0,,,,0,1,0,0,5868019,pdf,A9BBCDEA0F66BE46C40E765A5B268718,,,Sociolinguistics - Bernard Spolsky.pdf,0,2000-01-01 01:00:00,2020-02-28 01:50:28,2473000/a9bbcdea0f66be46c40e765a5b268718-d.jpg,,
32034043,Safe and Healthy Children's Environments,,,,Ingrid Crowther,2018,2,Pearson Education Canada,,352,173,English,,,,"0134663551,9780134663555",,,,,,,,,,,0,,,,,,1,1,89676364,pdf,5C7A3DE5118BF56F624124B6F1BE6E2F,,,Safe and Healthy Children's Environments by Ingrid Crowther.pdf,0,2000-01-01 01:00:00,2020-02-28 01:50:28,2473000/5c7a3de5118bf56f624124b6f1be6e2f-g.jpg,,
32034044,Collins COBUILD English Guides 1: Prepositions,,Collins COBUILD,,John Sinclair (Editor in Chief),1996,,HarperCollins,London,xx+218,124,English,322,,,000370520X,,,,,,,,,,,0,,,,,1,0,0,114546566,pdf,CD71FA4A706897A278589AAA95B028DF,,,"Collins Cobuild, English Prepositions (1996)[300ppi].pdf",0,2000-01-01 01:00:00,2020-02-28 01:50:28,2473000/cd71fa4a706897a278589aaa95b028df-g.jpg,,
32034045,The Hidden Dangers of the Rainbow: The New Age Movement and Our Coming Age of Barbarism,,,,"CUMBEY, Constance E.",1983,Revised edition.,"Huntington House, Inc.","Lafayette, La.",,274,English,209,,,091031103X,,,,,,,,,,"Rescan from the revised edition; b&w, 300dpi, 1-up images with ocr layer.",300,,1,0,,1,1,1,11869146,pdf,CF6FFCE719290A3CB55ED17D1FDC6694,,,CUMBEY(C.E.)-Hidden_Dangers_of_the_Rainbow_(1983).pdf,0,2000-01-01 01:00:00,2020-02-28 01:50:28,2473000/cf6ffce719290a3cb55ed17d1fdc6694-g.jpg,"666, apostasy, Alice Bailey, anti-Christ, Aquarian Conspiracy, Helena Blavatsky, Catholicism, channeling, Benjamin Creme, Eastern Mysticism, electronic surveillance, environmentalism, Eschatology, euthanasia, Findhorn, Great Invocation, hologram, interdependence, Israel, Jews, Lucifer, Lucis Publishing, Maitreya, Nazism, New Age, NWO, occultism, philosemitism, off-planet, rapture, Club of Rome, Scofield Bible, Tara Center, technocratic elite, Theosophy, UNO, White Genocide, world government",
32034046,"A Guerrilla Odyssey: Modernization, Secularism, Democracy, and the Fadai Period of National Liberation in Iran, 1971–1979",,,,Peyman Vahabzadeh,2010,1,Syracuse University Press,"Syracuse, NY",318,318,English,,Memory of the World Library,,9780815632436,,,,,956.704'3—dc22,DS316.6.V34 2010,,,,,0,,,0,1,0,1,1,2093502,pdf,210560BFCD88B41706E14B7B9E3C2E53,,,fadai-period-of-national-liberation-in-iran.pdf,0,2000-01-01 01:00:00,2020-02-28 01:50:28,2473000/210560bfcd88b41706e14b7b9e3c2e53-g.jpg,,
32034047,Children of Bethany: The Story of a Palestinian Family,,,,Said K. Aburish,1988,,Indiana University Press,Bloomington and Indianapolis,,256,English,,,,0253306760,,,,,956.95'3,DS110.B398A38 1989,,,,,0,,,,1,1,1,1,3429875,pdf,94B87209F20E242E52D5F4B3CAA2C389,,,Children of Bethany.pdf,0,2000-01-01 01:00:00,2020-02-28 01:50:28,2473000/94b87209f20e242e52d5f4b3caa2c389-g.jpg,,
32034048,Dimensions of human behavior: the changing life course,,,,Elizabeth D. Hutchison,2019,6,"SAGE Publications, Inc.","Thousand Oaks, California",1179,1179,English,,,,"1544339348,9781544339344",,,,,302—dc23,HM1033 .D553 2019,,,,,0,,,,,0,1,1,12314881,pdf,F065FDC207966E9FCEAAB71481201F31,,,Dimensions of Human Behavior_ The Changing Life Course.pdf,0,2000-01-01 01:00:00,2020-02-28 01:50:28,2473000/f065fdc207966e9fceaab71481201f31-g.jpg,,
32034049,The Tragic Era: The Revolution After Lincoln,,,,Claude G. Bowers,1929,,Read Books Ltd,,,0,English,65,,,9781446546888,,,,,,,,,,,0,,,,,,,,1729147,epub,C40220DED7ABB405D925769442F4491A,,,"Bowers, Claude G. - The Tragic Era_ The Revolution After Lincoln (2013).epub",0,2000-01-01 01:00:00,2020-02-28 01:50:28,2473000/c40220ded7abb405d925769442f4491a-g.jpg,"Civil War, Abraham Lincoln, slavery, reconstruction, Andrew Johnson",
32034050,Easy Biology Step-by-Step: Master High-Frequency Concepts and Skills for Biology Proficiency—Fast!,,Easy Step-by-Step,,Nichole Vivion,2012,1,McGraw-Hill Education,,,0,English,12,,,"9780071767804,9780071767798",,,,,570.76,QH308.7,,,,,0,,,,,,,,3810322,epub,5BA01B7B0051B609BA35E8C86EE452A3,,,Easy Biology Step-by-Step.[ebook3000.com].epub,0,2000-01-01 01:00:00,2020-02-28 01:50:28,2473000/5ba01b7b0051b609ba35e8c86ee452a3-g.jpg,,
32034051,Politics of Anxiety,,,,"Emmy Eklundh, Andreja Zevnik, Emmanuel-Pierre Guittet (editors)",2017,,Rowman & Littlefield International,London,233,122,English,,,,9781783489909,,,,,,,,,,,0,1,0,,0,1,1,1,105686031,pdf,5106BB03752D2F122BE649719B1BCEC1,,,Eklundh et al - Politics of Anxiety 3.pdf,0,2000-01-01 01:00:00,2020-02-28 01:50:28,2473000/5106bb03752d2f122be649719b1bcec1-g.jpg,,
32034052,Музыка XX века. Энциклопедический словарь,,,,Акопян Л.О.,2010,,Практика,Москва,,854,Russian,,,,9785898160920,,,,,,,,,,,600,,1,,,1,1,1,76997092,djvu,4BE70CE651EEF06191578E8CF4EC5C66,,,Акопян Л.О. Музыка XX века. Энциклопедический словарь (Практика 2010).djvu,0,2000-01-01 01:00:00,2020-02-28 01:50:28,2473000/4be70ce651eef06191578e8cf4ec5c66-g.jpg,,
32034053,Grammatica russa. Manuale di teoria,,Grammatiche,,"Claudia Cevese, Julia Dobrovolskaja, Emilia Magnanini",2018,3,Hoepli,,544,536,Italian,,,,"8820385430,9788820385439",,,,,,,,,,only some bookmarks present,300,0,,,,1,1,1,29031779,pdf,5C33BB9A5F2F88470C9707BA6DE69A7A,,,Cevese - Grammatica Russa - Hoepli (3a ed.) (2018).pdf,0,2000-01-01 01:00:00,2020-02-28 01:50:28,2473000/5c33bb9a5f2f88470c9707ba6de69a7a-g.jpg,,
32034054,The Brain Chemistry Plan Diet: The Personalized Prescription for Balancing Modd Relieving Stress Conquering Dep,,,,"Michael Lesser, Colleen J. Kapklein",2002,,Putnam Adult,,304,366,English,12,,,"0399147446,9780399147449",,,,,,,,,,,0,,,,,,,1,36343495,pdf,60780AAFD78423A37E93992AEEDE107B,,,"The brain chemistry diet _ the personalize - Lesser, Michael.pdf",0,2000-01-01 01:00:00,2020-02-28 01:50:28,2473000/60780aafd78423a37e93992aeede107b-g.jpg,,
32034055,ทฤษฎีการอนุมานเชิงสถิติ,,,,ศาสตราจารย์ ดร. ประชุม สุวัตถี,2010,3,National Institute of Development Administration,Bangkok,620,634,Thai,,,,9789742318024,,,,,,,,,,,0,,,,,,,1,92839567,pdf,87C9D224951A6902648AC2C25F871EF4,,,ทฤษฎีการอนุมานเชิงสถิติ.pdf,0,2000-01-01 01:00:00,2020-02-28 01:50:28,2473000/87c9d224951a6902648ac2c25f871ef4-g.jpg,,
32034056,Value-creation in Middle Market Private Equity,,,,"Lanier, John A.",2016,,Taylor and Francis,,326,0,English,,,,"9781472444455,9781315548470,1472444450",,,,,,,,,,,0,,,,,,,,2795220,azw3,2723E6F07B51411BA319319B8F7F2358,,,Lanier_Value-creation in Middle Market Private Equity.azw3,0,2000-01-01 01:00:00,2020-02-28 01:50:28,2473000/2723e6f07b51411ba319319b8f7f2358-g.jpg,,
32034057,Drehgruppen,,Schriftenreihe zur Mathematik,,Manfred Herbig,1974,,Diesterweg-Salle,Frankfurt a.M.,,36,German,,,,3425053191,,,,,,,,,,,0,,,,,,1,0,10392384,pdf,CC91B90E95FE9E29DF28E1569AD0BCB5,,,Herbig_Drehgruppen.pdf,0,2000-01-01 01:00:00,2020-02-28 01:50:28,2473000/cc91b90e95fe9e29df28e1569ad0bcb5-g.jpg,,
32034058,Contemporary Linguistics: An Introduction,,,,"William O'Grady, John Archibald, Mark Aronoff, Janie Rees-Miller",2017,7,Bedford/St. Martin's,Boston,674,674,English,,,,"1319040896,9781319040895",,,,,,,,,,,200,0,1,0,1,1,0,0,17164982,pdf,BF107FCF159C223146A38033DF189A26,,,contemporary-linguistics.pdf,0,2000-01-01 01:00:00,2020-02-28 01:50:28,2473000/bf107fcf159c223146a38033df189a26-g.jpg,,
32034059,The Moods of Homeric Greek,,Cambridge Classical Studie,,"Willmott, Jo",2007,,Cambridge University Press,Cambridge,264,274,English,,,,0521879884,,,,,,,,,,,0,,,,,,,0,13731725,pdf,904C9A4FF987996839626F14B73D05FA,,,Willmott.pdf,0,2000-01-01 01:00:00,2020-02-28 01:50:28,2473000/904c9a4ff987996839626f14b73d05fa-g.jpg,,
32034060,Filmed Thought: Cinema as Reflective Form,,,,Robert Pippin,,,,,312,313,English,,,,"9780226671956,9780226672007,9780226672144,2019014786",,,,,,,,,,,0,,,,,,1,1,6839856,pdf,22AA3A43F93D79CEDF819593249E4429,,,Robert B. Pippin Filmed Thought Cinema as Reflective Form.pdf,0,2000-01-01 01:00:00,2020-02-28 01:50:28,2473000/22aa3a43f93d79cedf819593249e4429-g.jpg,,
32034061,Cultura e utilità,,,,Marshall Sahlins,1994,,Anabasi,,,304,Italian,,,,8841750154,,,,,,,,,,,0,,,,,,,1,7314649,pdf,91A57549E35050166D56D08F171F3216,,,"Marshall Sahlins - Cultura e utilità (1994, Anabasi).pdf",0,2000-01-01 01:00:00,2020-02-28 01:50:28,2473000/91a57549e35050166d56d08f171f3216-g.jpg,,
32034062,"Islam, Context, Pluralism and Democracy: Classical and Modern Interpretations",,,,Yaser Ellethy,2014,,Routledge,,xiv+339,354,English,192,,,"1138800309,9781138800304",,,,,,,,,,,0,,,,,,1,1,4979968,pdf,AC178540AB5EE6257833C57183B45A1B,,,"Ellethy_Islam, Context, Pluralism and Democracy. Classical and Modern Interpretations.pdf",0,2000-01-01 01:00:00,2020-02-28 01:50:28,2473000/ac178540ab5ee6257833c57183b45a1b-g.jpg,,
32034063,"Sonneborn, Martin",,,,Herr Sonneborn geht nach Brüssel,2019,1,Kiepenheuer & Witsch,Köln,432,0,German,,,,"3462052616,9783462052619",,B07K7RK94Y,,,,,,,,,0,1,1,,0,0,1,0,5755478,azw3,989FF49B119611A62406359D6FD33075,,,"Sonneborn, Martin - Herr Sonneborn geht nach Brusse.azw3",0,2000-01-01 01:00:00,2020-02-28 01:50:28,2473000/989ff49b119611a62406359d6fd33075-g.jpg,,
32034064,The Tragedy of Great Power Politics,,,,John Mearsheimer,2001,,W. W. Norton & Company,,,569,English,305,,,"0393020258,2001030915",,,,,,,,,,,0,,,,,,,1,7515229,pdf,ED2AA2B4EB2F5450C9DB120ABFDBBC0C,,,mearsheimer_john_j_the_tragedy_of_great_power_politics_merged.pdf,0,2000-01-01 01:00:00,2020-02-28 01:50:28,2473000/ed2aa2b4eb2f5450c9db120abfdbbc0c-g.jpg,,
32034065,Un litro di lacrime,,,,Aya Kito,2019,,,,,214,Italian,,,,9788858698457,,,,,,,,,,,0,,,,,,1,1,1073000,pdf,4D8AB8D9D5790C9D4134BC27D69309AB,,,Un litro di lacrime - Aya Kito.pdf,0,2000-01-01 01:00:00,2020-02-28 01:50:28,2473000/4d8ab8d9d5790c9d4134bc27d69309ab-g.jpg,,
32034066,Ethnic options : choosing identities in America,,,,Mary C. Waters,1990,,University of California Press,Berkeley,,207,English,189,,,"9780520068568,0520068564,9780520070837,0520070836",,,,,,,,,,,0,,,,,,,1,8170990,pdf,D03B62C5C9148B8639A4DADC9BAE3E84,,,Waters_EthnicOptions.pdf,0,2000-01-01 01:00:00,2020-02-28 01:50:28,2473000/d03b62c5c9148b8639a4dadc9bae3e84-g.jpg,,
32034067,Italia - Giappone e ritorno. 34.000 km in moto in due mesi,,,,Marcello Anglana,,,,,,235,Italian,,,,9788897336129,,,,,,,,,,,0,,,,,,1,1,7549264,pdf,DBD41368A13AB7B558708A1537491075,,,Italia-Giappone e ritorno. 34.000 km in moto in due mesi  - Marcello Anglana.pdf,0,2000-01-01 01:00:00,2020-02-28 01:50:28,2473000/dbd41368a13ab7b558708a1537491075-g.jpg,,
32034068,The ethnic imperative : examining the new white ethnic movement,,,,Howard F. Stein; Robert F. Hill,1977,,Pennsylvania State Univ. Press,,,317,English,,,,"9780271005089,0271005084",,,,,301.451,,,,,,0,,,,,,,1,12488251,pdf,6B41D292C6A1374E0CBCC62851CA977C,,,SteinAndHill_TheEthnicImperative.pdf,0,2000-01-01 01:00:00,2020-02-28 01:50:28,2473000/6b41d292c6a1374e0cbcc62851ca977c-g.jpg,,
32034069,Medio Oriente_ la Terra Proibita. In moto dalla Turchia all'Egitto attraverso Israele,,,,Marcello Anglana,,,,,,204,Italian,,,,9788897336112,,,,,,,,,,,0,,,,,,1,1,12680866,pdf,5E69FB7E6C97C3F91E76CE1839172CDC,,,Medio Oriente_ la Terra Proibita. In moto dalla Turchia all'Egitto attraverso Israele - Marcello Anglana.pdf,0,2000-01-01 01:00:00,2020-02-28 01:50:28,2473000/5e69fb7e6c97c3f91e76ce1839172cdc-g.jpg,,
32034070,Gelişmekte olan ülkeler için para kurulları: el kitabı,,,,"Steve Hanke, Kurt Schuler",2001,,Liberte Yayınları,Ankara,,157,Turkish,,,,9756877332,,,,,,,,,,,0,0,1,0,1,1,1,0,13380073,pdf,C579001A48A606665CC6761EA9C049EE,,,T002 Currency Boards Gelismekte olan ulkeler icin para kurullari.pdf,0,2000-01-01 01:00:00,2020-02-28 01:50:28,2473000/c579001a48a606665cc6761ea9c049ee-g.jpg,,
32034071,La mente illuminata,,,,Culadasa (John Yates),2019,,Mondadori,,,0,Italian,,,,9788804710981,,,,,,,,,,,0,,,,,,,,12803160,epub,2A16F3C968C770048B7BBA570C55B7BD,,,Culadasa - La mente illuminata (Oscar Mondadori SpiritualitÃ  Baobab 2019-07).epub,0,2000-01-01 01:00:00,2020-02-28 01:50:28,2473000/2a16f3c968c770048b7bba570c55b7bd-g.jpg,,
32034072,Le nuove melanconie. Destini del desiderio nel tempo ipermoderno,,,,Massimo Recalcati,2019,,Raffaello Cortina Editore,,218,108,Italian,198,,,9788832851359,,,,,,,,,,,0,,,,,,,0,31275073,pdf,85552D4459A2D9E388A8C81B871BD6C9,,,"Recalcati, Le nuove melanconie.pdf",0,2000-01-01 01:00:00,2020-02-28 01:50:28,2473000/85552d4459a2d9e388a8c81b871bd6c9-g.jpg,,
32034073,Capire e progettare le barche. Manuale per progettisti nautici. Aero-idrodinamica della barca a vela,,,,Paolo Lodigiani,2015,,Hoepli,,483,0,Italian,,,,9788820370206,,,,,,,,,,,0,,,,,,,,14183392,epub,59C7D21972DAD907BA090589F25CC981,,,Capire e progettare le barche _ - Paolo Lodigiani.epub,0,2000-01-01 01:00:00,2020-02-28 01:50:28,2473000/59c7d21972dad907ba090589f25cc981-g.jpg,,
32034074,Come creare un gruppo di lettura in biblioteca,,,,Bianca Verri,2015,,Editrice Bibliografica,,59,0,Italian,,,,9788870758078,,,,,,,,,,,0,,,,,,,,193356,epub,C08B4D8D0966F7FB8A2F709A4445272F,,,Come creare un gruppo di lettur - Bianca Verri.epub,0,2000-01-01 01:00:00,2020-02-28 01:50:28,2473000/c08b4d8d0966f7fb8a2f709a4445272f-g.jpg,,
32034075,"Unter Wien: Auf den Spuren des Dritten Mannes durch Kanäle, Grüfte und Kasematten",,,,"Alexander Glück, Marcello LaSperanza, Peter Ryborz",2001,1,Ch. Links,Berlin,184,92,German,,,,"3861532387,9783861532385",,,,,,,,,,,0,1,1,1,,1,,1,87739023,pdf,278CD92F35C6BD9513D4C478B1238AB3,,,"Glueck, La Sperazna, Ryborz - Unter Wien - 2001.pdf",0,2000-01-01 01:00:00,2020-02-28 01:50:28,2473000/278cd92f35c6bd9513d4c478b1238ab3-g.jpg,,
32034076,"La geografia del genio. Alla ricerca dei luoghi più creativi del mondo, dall'antica Atene alla Silicon Valley",,,,Eric Weiner,2016,,Bompiani,,324,0,Italian,,,,9788858773789,,,,,,,,,,,0,,,,,,,,2117824,epub,E1350C2E650445B9CC6A65D75A3C6D93,,,Geografia del genio _ alla rice - Eric Weiner.epub,0,2000-01-01 01:00:00,2020-02-28 01:50:28,2473000/e1350c2e650445b9cc6a65d75a3c6d93-g.jpg,,
32034077,"Fault Lines of Modernity: The Fractures and Repairs of Religion, Ethics, and Literature",,,,"Kitty Millet, Dorothy Figueira",2019,,Bloomsbury USA,,273,0,English,189,,,1501316656,,,,,,,,,,,0,,,,,,,,1699351,epub,273A6570ECC2027B8EEF608188BBAAFF,,,"Millet&Figueira_Fault Lines of Modernity. The Fractures and Repairs of Religion, Ethics, and Literature.epub",0,2000-01-01 01:00:00,2020-02-28 01:50:28,2473000/273a6570ecc2027b8eef608188bbaaff-g.jpg,,
32034078,Basta salari da fame!,,,,"Marta Fana, Simone Fana",2019,,Editori Laterza,,,0,Italian,,,,9788858138878,,,,,,,,,,,0,,,,,,,,1042729,epub,A147D0E032134D44D1D544A1BE3F54B0,,,basta-salari-da-fame.epub,0,2000-01-01 01:00:00,2020-02-28 01:50:28,2473000/a147d0e032134d44d1d544a1be3f54b0-g.jpg,,
32034079,Cinema 4D完全学习手册,,,,TVart培训基地,2012,,人民邮电出版社,,424,424,Chinese,Computers\\\\Media,,,9787115291196,,,,,,,,,,,0,,,,,,,0,669356061,pdf,D9EDE18005908386F9EE3908A0F73F6C,,,C4D完全自学手册.pdf,0,2000-01-01 01:00:00,2020-02-28 01:50:28,2473000/d9ede18005908386f9ee3908a0f73f6c-g.jpg,,
32034080,一口气读完世界历史:从人类起源到9·11事件,,,,Manfred Mai,2004,,海南出版社,,179,0,Chinese,History\\\\Military History,,,9787544312585,,,,,,,,,,,0,,,,,,,,297213,epub,74629CA74314AD51E521738064CDA284,,,5344531_一口气读完世界历史.epub,0,2000-01-01 01:00:00,2020-02-28 01:50:28,2473000/74629ca74314ad51e521738064cda284-g.jpg,,
32034081,网络战争：颠覆商业世界的黑客事件,,,,Charles Arthur,2019,,杭州蓝狮子文化创意股份有限公司,,204,0,Chinese,Computers,,,9787308189873,,,,,,,,,,,0,,,,,,,,533564,epub,73558BB0FB324EFEC2B52DCB8B3BB0F6,,,《网络战争》.epub,0,2000-01-01 01:00:00,2020-02-28 01:50:28,2473000/73558bb0fb324efec2b52dcb8b3bb0f6-g.jpg,,
32034082,梅兰芳传,,,,刘彦君,1996,,河北教育出版社,,462,0,Chinese,"History\\\\Memoirs, Biographies",,,9787543428294,,,,,,,,,,,0,,,,,,,,372368,epub,50DAF32A145FCA755667454B7BD72CC7,,,梅兰芳传 - 未知.epub,0,2000-01-01 01:00:00,2020-02-28 01:50:28,2473000/50daf32a145fca755667454b7bd72cc7-g.jpg,,
32034083,中国绘画史,,,,陈师曾,2018,,民主与建设出版社,,232,0,Chinese,Art\\\\Graphic Arts,,,9787513918404,,,,,,,,,,,0,,,,,,,,7012324,epub,CC8901DAAA86130FF7DB303B5A32EB66,,,www.ziliaoh.com 中国绘画史（中国绘画界的“国家宝藏”） - 陈师曾.epub,0,2000-01-01 01:00:00,2020-02-28 01:50:28,2473000/cc8901daaa86130ff7db303b5a32eb66-g.jpg,,
32034084,别对我说谎：练就一双精确识人眼,,,,Pamela Meyer,2012,,中信出版社,,264,0,Chinese,Psychology,,,9787508634050,,,,,,,,,,,0,,,,,,,,1783560,epub,E6812F9DE4EC55F56F9A3706C6B45DE2,,,www.ziliaoh.com 别对我说谎：练就一双精确识人眼.epub,0,2000-01-01 01:00:00,2020-02-28 01:50:28,2473000/e6812f9de4ec55f56f9a3706c6b45de2-g.jpg,,
32034085,创新简史：从石斧到爆品,,,,杨旸,2017,,九州出版社,,296,0,Chinese,Computers\\\\Networking: Internet,,,9787510859922,,,,,,,,,,,0,,,,,,,,2175792,epub,136E52E6678DBF8E14B667B7A83FEB7D,,,www.ziliaoh.com《创新简史：从石斧到爆品》.epub,0,2000-01-01 01:00:00,2020-02-28 01:50:28,2473000/136e52e6678dbf8e14b667b7a83feb7d-g.jpg,,
32034086,真历史在民间,,,,梁晓声,2014,,民主与建设出版社,,304,0,Chinese,History,,,9787513903578,,,,,,,,,,,0,,,,,,,,605624,epub,FC32CD89D56FFC4E6DF5D002EF49C1EC,,,www.ziliaoh.com 真历史在民间 - 梁晓声.epub,0,2000-01-01 01:00:00,2020-02-28 01:50:28,2473000/fc32cd89d56ffc4e6df5d002ef49c1ec-d.jpg,,
32034087,Manual de psihodiagnostic. Metoda și rezultatele unui experiment diagnostic al percepţiei. Interpretarea liberă a formelor fortuite,,,,Herman Rorschach,2005,2,Trei,București,,169,Romanian,,,,973707033X,,,,,,,,,,,0,,,,,,,1,11447920,pdf,227E35879FB8CACC53E8126BD43304D3,,,408845821-P-Manualul-de-psihodiagnostic-Testul-Rorschach-Hermann-Rorschach-pdf.pdf,0,2000-01-01 01:00:00,2020-02-28 01:50:28,2473000/227e35879fb8cacc53e8126bd43304d3-d.jpg,,
32034088,俄罗斯的良心: 索尔仁尼琴传,,传记文库,,乔治·尼瓦,2016,,新星出版社,,392,0,Chinese,,,,"7513322090,9787513322096",,,,,,,,,,,0,,,,,,,,1690263,mobi,9CD7BEA6CEA78DE18E5B15DFA1478562,,,俄罗斯的良心：索尔仁尼琴传.mobi,0,2000-01-01 01:00:00,2020-02-28 01:50:28,2473000/9cd7bea6cea78de18e5b15dfa1478562-g.jpg,,
32034089,"The Productivity Revolution: Control your time and get things done! (Change your habits, change your life Book 2)",,,,Marc Reklau,2016,,Marc Reklau,,,0,English,,,,1533464243,,B01G8MS5E6,,,,,,,,,0,,,,,,,,1730197,epub,F232DE633D68CF29CED77F89AE859068,,,1533464243.epub,0,2000-01-01 01:00:00,2020-02-28 01:50:28,2473000/f232de633d68cf29ced77f89ae859068-g.jpg,,
32034090,I robot sono tra noi. Dalla fantascienza alla realtà,,,,Enrica Battifoglia,2016,,Hoepli,,112,0,Italian,,,,9788820374051,,,,,,,,,,,0,,,,,,,,1824859,epub,75FF5B9AA23C4123602F783F81784CC6,,,I robot sono tra noi _ dalla fa - Enrica Battifoglia.epub,0,2000-01-01 01:00:00,2020-02-28 01:50:28,2473000/75ff5b9aa23c4123602f783f81784cc6-g.jpg,,
32034091,Menina sem estrela,,,,Nelson Rodrigues,1993,,,,274,263,Português,,,,8571643547,,,,,,,,,,,0,,,,,,,1,8734135,pdf,C35D64B5EB511C60430FF697210ACBCF,,,Menina sem estrela.pdf,0,2000-01-01 01:00:00,2020-02-28 01:50:28,2473000/c35d64b5eb511c60430ff697210acbcf-g.jpg,,
32034092,Наука развития жизни: Сборник трудов,1,,,Кузнецов П.Г.,2015,,РАЕН,Москва - Дубна,240,240,Russian,180,,,9785905527111,,,,,,,,,,,300,,,,,,,1,2351743,djvu,C6EF684E8E965D095F8C64AE72DCB194,,,Кузнецов_Наука развития Жизни_т1.djvu,0,2000-01-01 01:00:00,2020-02-28 01:50:28,2473000/c6ef684e8e965d095f8c64ae72dcb194-g.jpg,,
32034093,悲伤与理智,,约瑟夫·布罗茨基作品,,[美] 约瑟夫·布罗茨基,2015,,上海译文出版社,,592,0,Chinese,,,,"7532768341,9787532768349",,,,,,,,,,,0,,,,,,,,1125431,mobi,FDECB7DCB57E48781FB1015A4B39C6F6,,,悲伤与理智 - [美]约瑟夫·布罗茨基.mobi,0,2000-01-01 01:00:00,2020-02-28 01:50:28,2473000/fdecb7dcb57e48781fb1015a4b39c6f6-g.jpg,,
32034094,"Il museo dei numeri. Da zero verso l'infinito, storie dal mondo della matematica",,,,Piergiorgio Odifreddi,2014,,Rizzoli,,378,0,Italian,,,,9788858682609,,,,,,,,,,,0,,,,,,,,116089956,epub,D5AE00A065F5F6352D31375BFE65BE50,,,Il museo dei numeri - Piergiorgio Odifreddi.epub,0,2000-01-01 01:00:00,2020-02-28 01:50:28,2473000/d5ae00a065f5f6352d31375bfe65be50-g.jpg,,
32034095,Наука развития жизни: Сборник трудов,2,,,Кузнецов П.Г.,2015,,РАЕН,Москва - Дубна,462,462,Russian,180,,,9785905527111,,,,,,,,,,,300,,,,,,,1,4587080,djvu,00766A21EA0346096038325893776C51,,,Кузнецов_Наука развития Жизни_т2.djvu,0,2000-01-01 01:00:00,2020-02-28 01:50:28,2473000/00766a21ea0346096038325893776c51-g.jpg,,
32034096,La matematica è divertente,,,,Giorgio Dendi,2013,,Digital Index,,88,0,Italian,,,,9788897982609,,,,,,,,,,,0,,,,,,,,1369855,epub,667386E9694B2A00798BC2D09456BA69,,,La matematica e divertente - Giorgio Dendi.epub,0,2000-01-01 01:00:00,2020-02-28 01:50:28,2473000/667386e9694b2a00798bc2d09456ba69-g.jpg,,
32034097,NON CONVENTIONAL ENERGY RESOURCES (SCANNED COPY),,,,B.H KHAN,,2,Tata McGraw-Hill Education,,,238,English,,,,"9781259081392,1259081397",,,,,,,,,,,0,,,,,,,0,166512821,pdf,574D4C237DB48DC9471BB416EFC6ACD6,,,290987441-Non-Conventional-Energy-Source-B-H-Khan.pdf,0,2000-01-01 01:00:00,2020-02-28 01:50:28,2473000/574d4c237db48dc9471bb416efc6acd6-g.jpg,,
32034098,Наука развития жизни: Сборник трудов,3,,,Кузнецов П.Г.,2015,,РАЕН,Москва - Дубна,561,561,Russian,,,,9785905527111,,,,,,,,,,,300,,,,,,,1,6592138,djvu,FFA51AAFDDCCA626BA40CDC7ACF1F80C,,,Кузнецов_Наука развития Жизни_т3.djvu,0,2000-01-01 01:00:00,2020-02-28 01:50:28,2473000/ffa51aafddcca626ba40cdc7acf1f80c-g.jpg,,
32034099,Mai più paura della matematica. Come fare pace con numeri e formule,,,,Giovanni Filocamo,2009,,Kowalski Editore,,156,0,Italian,,,,9788874967674,,,,,,,,,,,0,,,,,,,,5406662,epub,E4A7B8345E625D856302F04F64172541,,,Mai piu paura della matematica - Giovanni Filocamo.epub,0,2000-01-01 01:00:00,2020-02-28 01:50:28,2473000/e4a7b8345e625d856302f04f64172541-g.jpg,,
32034100,"Manuale del casaro. Il latte, i fermenti, la coagulazione e la cagliata, la maturazione e i difetti dei formaggi",,,,Michele Grassi,2015,,Hoepli,,230,0,Italian,,,,9788820371180,,,,,,,,,,,0,,,,,,,,11458337,epub,19436CF2A64E6B542213F46A045B9958,,,Manuale del casaro - Michele Grassi.epub,0,2000-01-01 01:00:00,2020-02-28 01:50:28,2473000/19436cf2a64e6b542213f46a045b9958-g.jpg,,
32034101,Parole in gioco. Per una semiotica del gioco linguistico,,,,Stefano Bartezzaghi,2017,,Bompiani,,190,0,Italian,,,,9788858775295,,,,,,,,,,,0,,,,,,,,668693,epub,0A63D9F84C05DD06AE6C1C0E203C28DC,,,Parole in gioco - Stefano Bartezzaghi.epub,0,2000-01-01 01:00:00,2020-02-28 01:50:28,2473000/0a63d9f84c05dd06ae6c1c0e203c28dc-g.jpg,,
32034102,Seminare il futuro. Perché coltivare la biodiversità?,,,,"Salvatore Ceccarelli, Stefania Grando",2019,,Giunti,,167,0,Italian,,,,9788809893757,,,,,,,,,,,0,,,,,,,,573111,epub,CC80AB763B0F230024929B0BC32FA536,,,Seminare il futuro - Salvatore Ceccarelli.epub,0,2000-01-01 01:00:00,2020-02-28 01:50:28,2473000/cc80ab763b0f230024929b0bc32fa536-g.jpg,,
32034103,Vitrum. Il vetro fra arte e scienza nel mondo romano,,,,"Marco Beretta, Giovanni Di Pasquale",2004,,Giunti,,358,358,Italian,,,,880903662X,,,,,,,,,,,0,,,,,,1,1,56858288,pdf,73886927E41F67901C6A96BEEE9FDF7A,,,"M. Beretta, G. Di Pasquale - Vitrum. Il vetro tra arte e scienza nel mondo romano.pdf",0,2000-01-01 01:00:00,2020-02-28 01:50:28,2473000/73886927e41f67901c6a96beee9fdf7a-g.jpg,,
32034104,"Philosophical Analysis in the Twentieth Century, Volume 1: The Dawn of Analysis",,,,Scott Soames,2009,,Princeton University Press,,432,0,English,,,,"1400825792,9781400825790",,,,,,,,,,,0,,,,,,,,2531860,epub,79EB38A97AE8165AC0F0CE326DB4D2DA,,,"1_ Philosophical Analysis in th - Soames, Scott;.epub",0,2000-01-01 01:00:00,2020-02-28 01:50:28,2473000/79eb38a97ae8165ac0f0ce326db4d2da-g.jpg,,
32034105,Brainwashed Republic: India's Controlled Systemic Deracination,,,,"Neeraj Atri, Munieshwar A Sagar",2017,PDF,Abhishek Publications,,,331,English,64,,,9788182476103,,,,,,,,,,,0,,,,,,1,1,2990452,pdf,377FEF129ADEB7FC4D2B91703187A88E,,,Brainwashed Republic - India's Controlled Systemic Deracination - Neeraj Atri & Munieshwar A Sagar.pdf,0,2000-01-01 01:00:00,2020-02-28 01:50:28,2473000/377fef129adeb7fc4d2b91703187a88e-g.jpg,Education,
32034106,Brainwashed Republic: India's Controlled Systemic Deracination,,,,"Neeraj Atri, Munieshwar A Sagar",2017,eBook,Abhishek Publications,,430,0,English,64,,,8182476100,,B071Z8Q667,,,,,,,,,0,,,,,,,,2206002,epub,5239D807F3BA887D2EF34FF1250E324E,,,Brainwashed Republic - India's Controlled Systemic Deracination - Neeraj Atri & Munieshwar A Sagar.epub,0,2000-01-01 01:00:00,2020-02-28 01:50:28,2473000/5239d807f3ba887d2ef34ff1250e324e-g.jpg,Education,
32034107,Engineering Fundamentals of the Internal Combustion Engine,,,,Willard W. Pulkrabek,2003,2,,,411,426,English,220,,,9780131405707,,,,,,,,,,,0,,,,,,1,1,4960381,pdf,DFFA575FD5018A7EBFE89E19EBF05C0A,,,Engineering-Fundamentals-of-the-Internal-Combustion-Engine-2nd-Edition-By-Willard-W-Pulkrabek.pdf,0,2000-01-01 01:00:00,2020-02-28 01:50:28,2473000/dffa575fd5018a7ebfe89e19ebf05c0a-g.jpg,,
32034108,Optimization Theory: A Concise Introduction,,,,Jiongmin Yong,2018,1,World Scientific Publishing Co. Pte. Ltd.,,,237,,136,,,9789813237643,,,,,,,,,,,0,,,,,0,1,1,10074440,pdf,6A1B7883891D0AA27A9D4ECDA4D59653,,,Optimization Theory_ A Concise - Jiongmin Yong.pdf,0,2000-01-01 01:00:00,2020-02-28 01:50:28,2473000/6a1b7883891d0aa27a9d4ecda4d59653-g.jpg,,
32034109,L'educazione di un fascista,,Serie bianca,,Paolo Berizzi,2020,,Feltrinelli,,235,0,Italian,,,,"8807173727,9788807173721",,,,,,,,,,,0,,,,,,,,562392,epub,EF689E8579ADF54C04A084AD5F35EDF9,,,berizzi - l' educazione di un fascista - Paolo Berizzi.epub,0,2000-01-01 01:00:00,2020-02-28 01:50:28,2473000/ef689e8579adf54c04a084ad5f35edf9-g.jpg,,
32034110,Fundamentos de Odontologia Radiologia Odontológica e Imaginologia,,,,Marlene Fenyo Pereira,2011,1,SANTOS - GRUPO GEN,,380,393,Portuguese Brazilian,,,,"8572889191,9788572889193",,,,,,,,,,,0,,,,,,,1,105646429,pdf,4BC5D2A9661D4CD6F5CB552FEE605CEF,,,Fundamentos de odontologia radiologia odontológica e imaginologia - Fenyo (2011).pdf,0,2000-01-01 01:00:00,2020-02-28 01:50:28,2473000/4bc5d2a9661d4cd6f5cb552fee605cef-g.jpg,,
32034111,Almanac of World History,,National Geographic,,"Patricia S. Daniels, Stephen G. Hyslop, Douglas Brinkley",2011,2nd ed.,National Geographic,"Washington, D.C.",384,388,English,,,,"9781426208904,1426208901",,,,,,,,,,,0,,,,,,,1,42470521,pdf,07F03318E95CE6B56456E1EA1136584F,,,"National Geographic Almanac of World History [2nd Ed.] (2011) Patricia S. Daniels, Stephen G. Hyslop, Douglas Brinkley.pdf",0,2000-01-01 01:00:00,2020-02-28 01:50:28,2473000/07f03318e95ce6b56456e1ea1136584f-d.jpg,"World history;Civilization, Ancient;Civilization, Medieval;Civilization, Modern",
32034112,"Secret Places, Hidden Sanctuaries : Uncovering Mysterious Sites, Symbols, and Societies",,,,"Stephen Klimczuk, Gerald Warner of Craigenmaddie",2009,,Sterling Ethos,"New York, N.Y",259,280,English,,,,"9781402762079,1402762070",,,,,,,,,,,0,,,,,,,1,22993654,pdf,751A477AE4A00BABB429E0DC1106D209,,,"Secret Places, Hidden Sanctuaries - Uncovering Mysterious Sites, Symbols, and Societies (2009) by Stephen Klimczuk, Gerald Warner of Craigenmaddie.pdf",0,2000-01-01 01:00:00,2020-02-28 01:50:28,2473000/751a477ae4a00babb429e0dc1106d209-g.jpg,PARAPSYCHOLOGIE;OKKULTISMUS + ESOTERIK;HEILIGE ORTE + HEILIGE STÄTTEN (RELIGIONSWISSENSCHAFT);WUNDER + RELIQUIEN + STIGMATISATION (THEOLOGIE);GEHEIMBÜNDE (KÖRPERSCHAFTEN);BANKGEHEIMNIS;PARAPSYCHOLOGY;OCCULTISME + ÉSOTÉRISME;OCCULTISM + ESOTERICS;LIEUX SACRÉS (THÉOLOGIE GÉNÉRALE);SACRED PLACES (RELIGIOUS STUDIES);MIRACLES + RELICS + STIGMATA (THEOLOGY);MIRACLES + RELIQUES + STIGMATISATION (THÉOLOGIE);SECRET SOCIETIES (ORGANISATIONS);SOCIÉTÉS SECRÈTES (COLLECTIVITÉS);SE,
32034113,正则指引,,,,余晟,2018,2nd,电子工业出版社,,392,392,Chinese,Computers\\\\Programming,,,9787121351303,,,,,,,,,,,0,,,,,,1,1,7510716,pdf,66C6A0AEB5E81F107C3A0E632E886765,,,正则指引（第2版）.pdf,0,2000-01-01 01:00:00,2020-02-28 01:50:28,2473000/66c6a0aeb5e81f107c3a0e632e886765-g.jpg,,
32034114,"Politics and History. Montesquieu, Rousseau, Hegel and Marx",,,,Louis Althusser,1972,,NLB,London,,191,English,,,,"9780902308350,0902308351",,,,,320.094,,,,,,0,0,1,0,1,1,1,1,3628942,pdf,F184C01735D54C87C0B5664CAD4EADC2,,,"Althusser, Louis - Politics and History - Montesquieu, Rousseau, Hegel and Marx.pdf",0,2000-01-01 01:00:00,2020-02-28 01:50:28,2473000/f184c01735d54c87c0b5664cad4eadc2-g.jpg,,
32034115,International Financial Management,,,,"Peter Moles, Alan C. Shapiro",2014,1,Wiley,,696,720,,,,,"9781118929322,2014017816,9781118935866,9781118953556",,,,,,,,,,,0,,,,,,1,1,8135477,pdf,F0A7009425510F20E3D9E302E9C1F984,,,International Financial Management 1st Edition by Peter Moles Alan C. Shapiro.pdf,0,2000-01-01 01:00:00,2020-02-28 01:50:28,2473000/f0a7009425510f20e3d9e302e9c1f984-g.jpg,,
32034116,Legenda Des Freres Aines De La Rose Croix,,,,Roger Caro,2009,,MASSANNE,,,203,French,,,,"2911705130,9782911705137",,,,,,,,,,,0,,,,,,,1,160235703,pdf,04E1361AE5D3C61A7423185209478530,,,Legenda des Freres Aines de la Rose-Croix.pdf,0,2000-01-01 01:00:00,2020-02-28 01:50:28,2473000/04e1361ae5d3c61a7423185209478530-g.jpg,,
32034117,Contemporary Practice and Theory of Organisations - Part 2 : Leading and Changing the Organisation.,,,,Timea Havar-Simonovich; Daniel Simonovich,2016,,Ibidem Verlag,Berlin,150,163,English,,,,"9783838267487,3838267486",,,,,,,,,,,0,,,,1,,1,1,2004567,pdf,6527955548D86D48D7A6C8D6EEB9B5A4,,,Contemporary Theory and Practice of Organizations 978-3-8382-6748-7.pdf,0,2000-01-01 01:00:00,2020-02-28 01:50:28,2473000/6527955548d86d48d7a6c8d6eeb9b5a4-g.jpg,,
32034118,Mapping the Commodore 128,,,,"Cowper, Ottis R.",1986,,Compute! Publications,"Greensboro, N.C.",689,708,English,,,,"9780874550603,0874550602",,,,,,,,,,From https://commodore.bombjack.org/commodore/books-commodore128.htm,0,,,0,1,1,0,1,11526413,pdf,C7D6D46843115B3CF7D7B02932019D82,,,Compute__039;s_Mapping_the_Commodore_128_(Final_version).pdf,0,2000-01-01 01:00:00,2020-02-28 01:50:28,2473000/c7d6d46843115b3cf7d7b02932019d82-d.jpg,Commodore 128 (Computer) -- Programming;Memory maps (Computer science),
32034119,A gumi rugalmas és termikus tulajdonságai,,FAKULTATÍV TANKÖNYV A GIMNÁZIUMOK IV. OSZTÁLYA SZÁMÁRA,,Főzy István-Juhász András-Tasnádi Péter,1985,1,Műszaki Könyvkiadó,Budapest,36,36,Hungarian,278,,,9361065012,,,,,,,,,,,150,0,0,0,0,1,0,0,1983110,pdf,B06871CECCB37F677B7C5E55D7B4FE47,,,A gumi rugalmas és termikus tulajdonságai - Főzy István-Juhász András-Tasnádi Péter.pdf,0,2000-01-01 01:00:00,2020-02-28 01:50:28,2473000/b06871ceccb37f677b7c5e55d7b4fe47-g.jpg,,
32034120,Programming the 65816,,,,"Labiak, William",1986,,Sybex,"Berkeley, Californie",370,381,English,,,,"9780895883247,0895883244",,,,,,,,,,From https://commodore.bombjack.org/generic/generic-books-hardware.htm,300,,,0,1,1,0,0,10242064,pdf,D7C0CC5FE54B61C4374095027390E62F,,,Programming_the_65816.pdf,0,2000-01-01 01:00:00,2020-02-28 01:50:28,2473000/d7c0cc5fe54b61c4374095027390e62f-d.jpg,,
32034121,La scoperta della storia delle religioni. Scienza delle religioni e modernità,,,,Hans G. Kippenberg,2002,,Morcelliana,,341,341,Italian,,,,8837219075,,,,,,,,,,,0,,,,,,,1,9625854,pdf,A86DE89E677C88494578BF92B8A7E44C,,,Hans G. Kippenberg - La scoperta della storia delle religioni.pdf,0,2000-01-01 01:00:00,2020-02-28 01:50:28,2473000/a86de89e677c88494578bf92b8a7e44c-g.jpg,,
32034122,A lézer,,FIZIKA FAKULTATÍV MODUL A GIMNÁZIUMOK IV. OSZTÁLYA SZÁMÁRA,,Radnóti Katalin,1986,1,Műszaki Könyvkiadó,Budapest,72,72,Hungarian,278,,,9631794148,,,,,,,,,,,150,0,0,0,0,1,0,0,4152373,pdf,E3B398F163E7EEA79B5AF98DB0F7B079,,,A lézer - Radnóti Katalin.pdf,0,2000-01-01 01:00:00,2020-02-28 01:50:28,2473000/e3b398f163e7eea79b5af98db0f7b079-g.jpg,,
32034123,A mozgások leírása gyorsuló koordináta-rendszerben,,FAKULTATÍV TANKÖNYV A GIMNÁZIUMOK III. OSZTÁLYA SZÁMÁRA,,Főzy István-Juhász András-Tasnádi Péter,1986,1,Tankönyvkiadó Vállalat,Budapest,44,44,Hungarian,278,,,9631793699,,,,,,,,,,,150,0,0,0,0,1,0,0,2298218,pdf,4BC5E96BCD522677EE9EB7CA39CE2287,,,A mozgások leírása gyorsuló koordináta-rendszerben - Főzy István-Juhász András-Tasnádi Péter.pdf,0,2000-01-01 01:00:00,2020-02-28 01:50:28,2473000/4bc5e96bcd522677ee9eb7ca39ce2287-g.jpg,,
32034124,Tutto fisica,,Tutto,,AAVV,2017,5,De Agostini,,336,338,Italian,,,,"8851150486,9788851150488",,,,,,,,,,,0,,,,,,1,1,4109233,pdf,9BC028340A2C4DCE8B81C5C8C18A660A,,,Tutto - Fisica - AA.VV._24232.pdf,0,2000-01-01 01:00:00,2020-02-28 01:50:28,2473000/9bc028340a2c4dce8b81c5c8c18a660a-g.jpg,,
32034125,A pörgettyű,,FIZIKAI FAKULTATÍV MODUL A GIMNÁZIUM III. OSZTÁLYA SZÁMÁRA,,Skrapits Lajos,1986,1,Műszaki Könyvkiadó,Budapest,52,52,Hungarian,278,,,9631794008,,,,,,,,,,,150,0,0,0,0,1,0,0,11639531,pdf,79746123D1EB3DB77205113F81912C00,,,A pörgettyű - Skrapits Lajos.pdf,0,2000-01-01 01:00:00,2020-02-28 01:50:28,2473000/79746123d1eb3db77205113f81912c00-g.jpg,,
32034126,Asztronautikai feladatok,,FAKULTATÍV TANKÖNYV A GIMNÁZIUMOK IV. OSZTÁLYA SZÁMÁRA,,Dr. Némedi István,1985,1,Műszaki Könyvkiadó,Budapest,100,100,Hungarian,278,,,9631066045,,,,,,,,,,,150,0,0,0,0,1,0,0,5165846,pdf,4930D804D9D95834CB6B42F4CF0D6866,,,Asztronautikai feladatok - Dr. Némedi István.pdf,0,2000-01-01 01:00:00,2020-02-28 01:50:28,2473000/4930d804d9d95834cb6b42f4cf0d6866-g.jpg,,
32034127,What If? 2 : More What If? : Eminent Historians Imagine What Might Have Been,,,,"Robert Cowley, James Bradley, Caleb Carr, Thomas Fleming, John Lukacs, Geoffrey C. Ward",2001,,Putnam,New York,427,456,English,,,,"9780330487252,0330487256,9780399147951,0399147950",,,,,,,,,,,0,,,,,,,1,63670546,pdf,72ACB086BDF78EF7C5413F58748DBA0F,,,"What If_ 2 - Eminent Historians Imagine What Might Have Been (2001) by Robert Cowley, James Bradley, Caleb Carr, Thomas Fleming, John Lukacs, Geoffrey C. Ward.pdf",0,2000-01-01 01:00:00,2020-02-28 01:50:28,2473000/72acb086bdf78ef7c5413f58748dba0f-d.jpg,Imaging history;Imaging wars and battles;Imaginary wars and battles;Imaginary histories;Military history,
32034128,Atomfizikai feladatok,,FAKULTATÍV TANKÖNYV A GIMNÁZIUMOK IV. OSZTÁLYA SZÁMÁRA,,Légrádi Imre,1986,1,Műszaki Könyvkiadó,Budapest,,80,Hungarian,278,,,9631067874,,,,,,,,,,,150,0,0,0,0,1,0,0,4306543,pdf,1653387AADE38D0EBA92C819B0B36013,,,Atomfizikai feladatok - Légrádi Imre.pdf,0,2000-01-01 01:00:00,2020-02-28 01:50:28,2473000/1653387aade38d0eba92c819b0b36013-g.jpg,,
32034129,Une intrigue criminelle de la philosophie. Lire la phénoménologie de l'Esprit de Hegel,,,,Jean-Clet Martin,2015,,La Découverte,,218,0,French,,,,9782359250183,,,,,,,,,,,0,,,,,,,,331939,epub,E24BF725E35A62F80FF9882B4528CA6E,,,Une intrigue criminelle de la philosophie.epub,0,2000-01-01 01:00:00,2020-02-28 01:50:28,2473000/e24bf725e35a62f80ff9882b4528ca6e-g.jpg,,
32034130,Csillagászati megfigyelések,,FIZIKA FAKULTATÍV MODUL A GIMNÁZIUM IV. OSZTÁLYA SZÁMÁRA,,Csaba György,1986,1,Műszaki Könyvkiadó,Budapest,36,36,Hungarian,278,,,9631794016,,,,,,,,,,,150,0,0,0,0,1,0,0,2679232,pdf,22431D0847DA99E4493525BD9BF97931,,,Csillagászati megfigyelések - Csaba György.pdf,0,2000-01-01 01:00:00,2020-02-28 01:50:28,2473000/22431d0847da99e4493525bd9bf97931-g.jpg,,
32034131,Félvezetok elektromos viselkedése,,FAKULTATÍV TANKÖNYV A GIMNÁZIUMOK IV. OSZTÁLYA SZÁMÁRA,,Molnár Ervin,1985,1,Műszaki Könyvkiadó,Budapest,52,52,Hungarian,278,,,9631067475,,,,,,,,,,,150,0,0,0,0,1,0,0,2971791,pdf,23CD5CE3C69BB37DBCA8376B675A08E8,,,Félvezetok elektromos viselkedése - Molnár Ervin.pdf,0,2000-01-01 01:00:00,2020-02-28 01:50:28,2473000/23cd5ce3c69bb37dbca8376b675a08e8-g.jpg,,
32034132,Foundations of Clinical Research: Applications to Evidence-Based Practice,,,,Leslie G. Portney DPT  PhD  FAPTA,2020,4,F.A. Davis Company,,696,696,English,,,,"0803661134,9780803661134",,,,,,,,,,,0,1,1,0,1,0,1,1,51327108,pdf,14B3A873CEC989F19997D30C3E13FB1F,,,"G. Portney, 4th edition. Foundations of Clinical Research. Applications to Practice.pdf",0,2000-01-01 01:00:00,2020-02-28 01:50:28,2473000/14b3a873cec989f19997d30c3e13fb1f-g.jpg,,
32034133,Process Heat Transfer,,,,"T. Reg Bott G. F. Hewitt, G. L. Shires , George L. Shires, T. R. Bott",1994,1,CRC-Press,,1016,1016,English,,,,"0849399181,9780849399183",,,,,,,,,,,0,,,0,,1,1,0,93207212,pdf,F3A1AAD1B375BF2FCAAD6261A3B2C44F,,,Process Heat transfer Hewitt_2.pdf,0,2000-01-01 01:00:00,2020-02-28 01:50:28,2473000/f3a1aad1b375bf2fcaad6261a3b2c44f-g.jpg,,
32034134,Félvezetok és ionkristályok néhány érdekes optikai tulajdonsága és alkalmazásuk,,FAKULTATÍV TANKÖNYV A GIMNÁZIUMOK IV. OSZTÁLYA SZÁMÁRA,,Kovács László,1985,1,Műszaki Könyvkiadó,Budapest,36,36,Hungarian,278,,,9631067777,,,,,,,,,,,150,0,0,0,0,1,0,0,7449200,pdf,D8AC7193003DB6A1630170C4A66F3C78,,,Félvezetok és ionkristályok néhány érdekes optikai tulajdonsága és alkalmazásuk - Kovács László.pdf,0,2000-01-01 01:00:00,2020-02-28 01:50:28,2473000/d8ac7193003db6a1630170c4a66f3c78-g.jpg,,
32034135,L'interpretazione di Mozart al pianoforte,,,,"Eva Badura-Skoda, Paul Badura-Skoda",1980,,Zanibon,,412,412,Italian,,,,9788886642231,,,,,,,,,,,0,,,,,,,1,224711312,pdf,3DA638AF0A8E32D920B1CCE6F752EF40,,,Badura-Skoda-Eva-e-Badura-Skoda-Paul-L-interpretazione-di-Mozart-al-pianoforte-OCR-pdf.pdf,0,2000-01-01 01:00:00,2020-02-28 01:50:28,2473000/3da638af0a8e32d920b1cce6f752ef40-g.jpg,,
32034136,Kapcsolatok a szilárd testek szerkezete és néhány tulajdonsága között,,FAKULTATÍV TANKÖNYV A GIMNÁZIUMOK IV. OSZTÁLYA SZÁMÁRA,,Kovács László,1986,1,Műszaki Könyvkiadó,Budapest,60,60,Hungarian,278,,,9631067807,,,,,,,,,,,150,0,0,0,0,1,0,0,26202091,pdf,5A6EDA21CE57688288BF3615D348856C,,,Kapcsolatok a szilárd testek szerkezete és néhány tulajdonsága között - Kovács László.pdf,0,2000-01-01 01:00:00,2020-02-28 01:50:28,2473000/5a6eda21ce57688288bf3615d348856c-g.jpg,,
32034137,Emerging Security Algorithms and Techniques,,,,Khaleel Ahmad; M. N. Doja; Nur Izura Udzir; Manu Pratap Singh,2019,,CRC Press,,330,0,English,77,,,"0815361459,9780815361459",,,,,,,,,,,0,,,,,,,,11938068,epub,B62E7EEE8EB9BB46D3C7B548A23BB224,,,Ahmad&al._Emerging Security Algorithms and Techniques.epub,0,2000-01-01 01:00:00,2020-02-28 01:50:28,2473000/b62e7eee8eb9bb46d3c7b548a23bb224-g.jpg,,
32034138,Kísérletek a fizikai fénytan köréből,,FIZIKA FAKULTATÍV MODUL A GIMNÁZIUM III. OSZTÁLYA SZÁMÁRA,,Főzy István-Juhász András-Tasnádi Péter,1985,1,Tankönyvkiadó Vállalat,Budapest,44,44,Hungarian,278,,,9631786072,,,,,,,,,,,150,0,0,0,0,1,0,0,2836369,pdf,7C2B34B7AACE730E47F6EDCB67D9FA28,,,Kísérletek a fizikai fénytan köréből - Főzy István-Juhász András-Tasnádi Péter.pdf,0,2000-01-01 01:00:00,2020-02-28 01:50:28,2473000/7c2b34b7aace730e47f6edcb67d9fa28-g.jpg,,
32034139,Dinamica pianistica. Trattato sull'insegnamento razionale del pianoforte,,,,Attilio Brugnoli,1989,,Ricordi,,77,77,Italian,,,,9790041826066,,,,,,,,,,,0,,,,,,,1,39239912,pdf,CF9DE775C2A1AD7E6D5A398D367A54D5,,,"Brugnoli Attilio - Dinamica pianistica - Trattato sull'insegnamento, razionale del pianoforte - RICORDI 1989 (OCR).pdf",0,2000-01-01 01:00:00,2020-02-28 01:50:28,2473000/cf9de775c2a1ad7e6d5a398d367a54d5-g.jpg,,
32034140,Kísérletek a geometriai fénytanból,,FIZIKA FAKULTATÍV MODUL A GIMNÁZIUM III. OSZTÁLYA SZÁMÁRA,,Tóth László,1983,1,Műszaki Könyvkiadó,Budapest,48,48,Hungarian,278,,,9631057690,,,,,,,,,,,150,0,0,0,0,1,0,0,2936110,pdf,C08EA865417B64D000B9D54B118E91F9,,,Kísérletek a geometriai fénytanból - Tóth László.pdf,0,2000-01-01 01:00:00,2020-02-28 01:50:28,2473000/c08ea865417b64d000b9d54b118e91f9-g.jpg,,
32034141,Kísérletek a termodinamika és az anyagszerkezet köréből,,FIZIKA FAKULTATÍV MODUL A GIMNÁZIUM III. OSZTÁLYA SZÁMÁRA,,Főzy István-Juhász András-Tasnádi Péter,1984,1,Műszaki Könyvkiadó,Budapest,64,64,Hungarian,278,,,9631058794,,,,,,,,,,,150,0,0,0,0,1,0,0,3634457,pdf,707862B8586E2426DEFE88633779FDDA,,,Kísérletek a termodinamika és az anyagszerkezet köréből - Főzy István-Juhász András-Tasnádi Péter.pdf,0,2000-01-01 01:00:00,2020-02-28 01:50:28,2473000/707862b8586e2426defe88633779fdda-g.jpg,,
32034142,Kísérletek folyadékokkal és gázokkal,,FIZIKA FAKULTATÍV MODUL A GIMNÁZIUM III. OSZTÁLYA SZÁMÁRA/GIMNÁZIUMI TANKÖNYV,,Főzy István-Juhász András-Tasnádi Péter,1986,1,Tankönyvkiadó Vállalat,Budapest,80,80,Hungarian,278,,,9631794105,,,,,,,,,,,150,0,0,0,0,1,0,0,19879559,pdf,9647A4BA4F842C6CD01BB6F90841ABB7,,,Kísérletek folyadékokkal és gázokkal - Főzy István-Juhász András-Tasnádi Péter.pdf,0,2000-01-01 01:00:00,2020-02-28 01:50:28,2473000/9647a4ba4f842c6cd01bb6f90841abb7-g.jpg,,
32034143,Nazitalia - Viaggio in un Paese che si è riscoperto fascista,,,,BERIZZI Paolo,2018,,Baldini Castoldi,,,287,Italian,192,,,9788893885515,,,,,,,,,,,0,,,,,,1,1,1604294,pdf,B918D61939AB183066DDD49F50E1EBCB,,,Nazitalia - Viaggio in un Paese che si è riscoperto fascista.pdf,0,2000-01-01 01:00:00,2020-02-28 01:50:28,2473000/b918d61939ab183066ddd49f50e1ebcb-g.jpg,,
32034144,Magfizikai kísérletek GM-csővel,,FAKULTATÍV TANKÖNYV A GIMNÁZIUMOK IV. OSZTÁLYA SZÁMÁRA,,Légrádi Imre,1985,1,Műszaki Könyvkiadó,Budapest,36,36,Hungarian,278,,,9631066754,,,,,,,,,,,150,0,0,0,0,1,0,0,2527777,pdf,1394A8CBC8992956EEA023501958834B,,,Magfizikai kísérletek GM-csővel - Légrádi Imre.pdf,0,2000-01-01 01:00:00,2020-02-28 01:50:28,2473000/1394a8cbc8992956eea023501958834b-g.jpg,,
32034145,Merev testek síkmozgása,,FIZIKA FAKULTATÍV MODUL A GIMNÁZIUM III. OSZTÁLYA SZÁMÁRA,,Dr. Nagy László,1984,1,Műszaki Könyvkiadó,Budapest,100,100,Hungarian,278,,,9631058425,,,,,,,,,,,150,0,0,0,0,1,0,0,5093881,pdf,7A49C4ED96627DE3C02D91BA70ED3A41,,,Merev testek síkmozgása - Dr. Nagy László.pdf,0,2000-01-01 01:00:00,2020-02-28 01:50:28,2473000/7a49c4ed96627de3c02d91ba70ed3a41-g.jpg,,
32034146,Szilárd testek mágneses tulajdonságai,,FIZIKA FAKULTATÍV MODUL A GIMNÁZIUMOK IV. OSZTÁLYA SZÁMÁRA,,Kovács László,1987,1,Műszaki Könyvkiadó,Budapest,36,36,Hungarian,278,,,9631801047,,,,,,,,,,,150,0,0,0,0,1,0,0,3616718,pdf,CD7B81380BED648F924D873690A0E5E3,,,Szilárd testek mágneses tulajdonságai - Kovács László.pdf,0,2000-01-01 01:00:00,2020-02-28 01:50:28,2473000/cd7b81380bed648f924d873690a0e5e3-g.jpg,,
32034147,Űrkutatás,,FIZIKA FAKULTATÍV MODUL A GIMNÁZIUM IV. OSZTÁLYA SZÁMÁRA,,Both Előd-Dr. Horváth András,1985,1,Műszaki Könyvkiadó,Budapest,84,84,Hungarian,,,,9631067009,,,,,,,,,,,150,0,0,0,0,1,0,0,25142037,pdf,3F75190AA1D099D471511B65C9E15CA3,,,Űrkutatás - Both Előd-Dr. Horváth András.pdf,0,2000-01-01 01:00:00,2020-02-28 01:50:28,2473000/3f75190aa1d099d471511b65c9e15ca3-g.jpg,,
32034148,"Psicología como filosofía, filosofía como psicología -- Artículos y reseñas 2006-2019",,,,michael richard starks,2020,Spanish Edition,Reality Press,"Las Vegas, NV  USA",371,371,Spanish,,https://www.researchgate.net/publication/339213351,,9781951440336,,,,,,,,,,,0,0,,0,1,0,,0,2822258,pdf,FB9E0D480DC0208DC1858D0DC5A8B22B,,,PPPP spanish ed 2-7-2020.pdf,0,2000-01-01 01:00:00,2020-02-28 01:50:28,2473000/fb9e0d480dc0208dc1858d0dc5a8b22b-g.jpg,,
32034149,Armonia,,I manuali EDT/SIDM,,"Walter Piston, G. Bosco (editor), G. Vinay (editor)",1996,,EDT,,576,294,Italian,,,,"8870630498,9788870630497",,,,,,,,,,,0,,,,,,,0,38738870,pdf,FED63EAAADC881CF5E5ECBB7D69C90F4,,,53466924-Armonia-Walter-Piston.pdf,0,2000-01-01 01:00:00,2020-02-28 01:50:28,2473000/fed63eaaadc881cf5e5ecbb7d69c90f4-g.jpg,,
32034150,60 ESERCIZI PROGRESSIVI,,PIANO,,PISCHNA J.,1984,,Ricordi,,,90,Italian,,,,"0041800966,9780041800968",,,,,,,,,,,0,,,,,,1,1,8763923,pdf,0C3DABB6A5C8B9783DEE85BE060A1BCD,,,Pischna - 60 esercizi progressivi.pdf,0,2000-01-01 01:00:00,2020-02-28 01:50:28,2473000/0c3dabb6a5c8b9783dee85be060a1bcd-g.jpg,,
32034151,Geopolitica. Orientarsi nel grande disordine internazionale,,Le vie della civiltà,,Manlio Graziano,2019,,Il Mulino,,385,373,Italian,,,,"8815283722,9788815283726",,,,,,,,,,,0,,,,,,,0,12464929,pdf,E55D4F4AE3B85F986BBC740D4AE60E47,,,"Manlio Graziano - Geopolitica (Il Mulino, 2019).pdf",0,2000-01-01 01:00:00,2020-02-28 01:50:28,2473000/e55d4f4ae3b85f986bbc740d4ae60e47-g.jpg,,
32034152,American Ground Unbuilding the World Trade Center,,,,William Langewiesche,2004,,"Farrar, Straus and Giroux",,,0,English,,,,9781429954587,,B000Y2I74K,,,,,,,,,0,,,,,,,,232943,epub,1779CDBF71803F9D01211FC674E503A0,,,American Ground - William Langewiesche.epub,0,2000-01-01 01:00:00,2020-02-28 01:50:28,2473000/1779cdbf71803f9d01211fc674e503a0-g.jpg,,
32034153,Really Useful* : *the origins of everyday things,,,,Joel Levy,2002,,Firefly Books,"Willowdale, Ont.",240,244,English,,,,"9781552976227,155297622X,9781552976234,1552976238",,,,,,,,,,,0,,,,,,,1,36867839,pdf,D9B2C6EF42F9D4E829C7F98AFF802D66,,,Really Useful - The Origins of Everyday Things (2002) by Joel Levy.pdf,0,2000-01-01 01:00:00,2020-02-28 01:50:28,2473000/d9b2c6ef42f9d4e829c7f98aff802d66-d.jpg,Inventions -- History;Inventions -- Histoire;Inventions,
32034154,Psicologia como Filosofia  -   Filosofia como Psicologia   --  Artigos e Avaliações 2006-2019 (Portuguese Edition),,,,michael starks,2020,1,Reality Press,"Las Vegas, NV  USA",361,361,Portuguese,,https://www.researchgate.net/publication/339213570,,"195144034X,9781951440343",,,,,,,,,,,0,0,,0,1,,,1,2817951,pdf,69491397F725E4D7C639854A43D14DF8,,,pppp portuguese edition  2-7--2020.pdf,0,2000-01-01 01:00:00,2020-02-28 01:50:28,2473000/69491397f725e4d7c639854a43d14df8-g.jpg,,
32034155,The United States and Canada: how two democracies differ and why it matters /,,,,Paul J. Quirk.,2019,,Oxford University Press,,"xii, 359 pages :",0,English,,,,"9780190870829,9780190870836",,B07SZJ5KYF,,,320.973-dc23,,,,,,0,1,,0,1,0,1,,1163317,epub,BD79901CD41F8D7A2DD712B64D8FD3E7,,,"United States and Canada, The - Paul J. Quirk - Copy.epub",0,2000-01-01 01:00:00,2020-02-28 01:50:28,2473000/bd79901cd41f8d7a2dd712b64d8fd3e7-g.jpg,,
32034156,The Blood Code: Unlock the Secrets of Your Metabolism,,,,Richard Maurer,2014,,The Blood Code,,276,0,English,172,,,"9780991218103,0991218108",,B00JFK9M14,,,,,,,,,0,,,,,,,,2424441,epub,4ED58C3A990D0CBD681C28E17D88271A,,,Maurer_The Blood Code. Unlock the Secrets of Your Metabolism.epub,0,2000-01-01 01:00:00,2020-02-28 01:50:28,2473000/4ed58c3a990d0cbd681c28e17d88271a-g.jpg,,
32034157,"Comentários sobre Biologia, Psicologia e Política da Religião (Portuguese Edition)",,,,michael starks,2020,1,Reality Press,,203,203,Portuguese,,https://www.researchgate.net/publication/339213648,,"1951440609,9781951440602",,,,,,,,,,,0,0,,0,1,0,,0,1862075,pdf,87EAC6DF51B3DB1C262195B4836B27C4,,,religion portuguese edition  2-10--2020 new.pdf,0,2000-01-01 01:00:00,2020-02-28 01:50:28,2473000/87eac6df51b3db1c262195b4836b27c4-g.jpg,,
32034158,Outliers,,,,Malcolm Gladwell,2009,,Mediacat,,,0,Turkish,,,,9781603966160,,,,,,,,,,,0,,,,,,,,512956,epub,CDB1A3B9B577CF6F1B1644632C2DBA63,,,Outliers - Malcolm Gladwell.epub,0,2000-01-01 01:00:00,2020-02-28 01:50:28,2473000/cdb1a3b9b577cf6f1b1644632c2dba63-g.jpg,,
32034159,Bilgiyle Sohbet,,,,A. M. Celâl Şengör,2013,4,İş Bankası Kültür Yayınları,İstanbul,,788,,,,,9786053609728,,,,,,,,,,,0,,,,,,,1,17618754,pdf,E348DBFF52B3932CF800C1A178E05533,,,Celal Şengör - Bilgiyle Sohbet.booktandunya.com.pdf,0,2000-01-01 01:00:00,2020-02-28 01:50:28,2473000/e348dbff52b3932cf800c1a178e05533-g.jpg,,
32034160,"Hakowanie Androida. Kompletny przewodnik XDA Developers po rootowaniu, ROM-ach i kompozycjach",,,,"Jason Tyler, Will Verduzco",2012,,Helion,,,162,Polish,,,,9788324656837,,,,,,,,,,"PDF przerobiony na bitmapę, a później przerobiony na wektory, by pozbyć się znaku wodnego.",0,,,,,,,1,3827291,pdf,A63C4E4FDB28F594037A1B225B89790C,,,"Hakowanie Androida. Kompletny przewodnik XDA Developers po rootowaniu, ROM-ach i kompozycjach (2012, Helion) - Jason Tyler, Will Verduzco.pdf",0,2000-01-01 01:00:00,2020-02-28 01:50:28,2473000/a63c4e4fdb28f594037a1b225b89790c-g.jpg,,
32034161,Leading from Purpose: Clarity and the Confidence to Act When It Matters Most,,,,Nick Craig,2018,,Hachette Books,,320,226,English,,,,"031641624X,9780316416245",,,,,,,,,,,0,,,,,,1,1,2537899,pdf,B59F4F713DB006EDBB4D0088F9F32329,,,Leading From Purpose; Clarity and Confidence to Act when it Matters — Nick Craig (2018).pdf,0,2000-01-01 01:00:00,2020-02-28 01:50:28,2473000/b59f4f713db006edbb4d0088f9f32329-g.jpg,,
32034162,最新黑客攻防从入门到精通,,网络安全技术丛书,,天河文化,2015,,机械工业出版社,北京,419,419,Chinese,Computers\\\\Security,,,9787111497875,,,,,,,,,,,0,,,,,,1,1,335564114,pdf,59A8ED4BE207C25BA5CA6918476B6FD6,,,最新黑客攻防从入门到精通.pdf,0,2000-01-01 01:00:00,2020-02-28 01:50:28,2473000/59a8ed4be207c25ba5ca6918476b6fd6-g.jpg,,
32034163,L’umorismo,,,,Luigi Pirandello,1994,,Giunti Gruppo Editoriale,Firenze,73,73,Italiano,Literature,,,8809205448,,,,,,,,,,Sottolineato. Comprende solo il saggio sull’umorismo.,0,,,,,,,0,11067784,pdf,B28536F13F8A805734CB18A436CF7C5B,,,L__039;umorismo.pdf,0,2000-01-01 01:00:00,2020-02-28 01:50:28,2473000/b28536f13f8a805734cb18a436cf7c5b-g.jpg,,
32034164,Big Israel: How Israel’s Lobby Moves America,,,,Grant F. Smith,2016,Paperback,Institute for Research,,332,0,English,History,,,"0982775717,9780982775714",,,,,,,,,,,0,,,,,,,,794500,epub,2E99386755E8350D43B47FDD8946220F,,,Big Israel - Grant Smith (2016).epub,0,2000-01-01 01:00:00,2020-02-28 01:50:28,2473000/2e99386755e8350d43b47fdd8946220f-d.jpg,,
32034165,The Bible Unearthed : Archaeology’s New Vision of Ancient Israel and the Origin of Its Sacred Texts,,,,"Israel Finkelstein, Neil Asher Silberman",2002,,"The Free Press, Touchstone","New York, NY.",404,404,English,,,,"9780684869124,0684869128",,,,,,,,,,,0,,,,,,,1,42190100,pdf,2D90C18C641DB1362C636D5569CB6331,,,"The Bible Unearthed - Archaeology__039;s New Vision of Ancient Israel and the Origin of Its Sacred Texts (2002) by Israel Finkelstein, Neil Asher Silberman.pdf",0,2000-01-01 01:00:00,2020-02-28 01:50:28,2473000/2d90c18c641db1362c636d5569cb6331-g.jpg,"Bible O T -- Antiquities;Bible O T -- Evidence, authority, etc",
32034166,Common Sense Christianity,,,,C. Randolph Ross,2010,,Occam Publishers,,,0,English,,,,"0929368002,9780929368009",,B00427YKU8,,,,,,,,,0,,,,,,,,342353,epub,525A26487BF29D4E3F32232F2664B2E7,,,Common Sense Christianity - C. Randolph Ross.epub,0,2000-01-01 01:00:00,2020-02-28 01:50:28,2473000/525a26487bf29d4e3f32232f2664b2e7-g.jpg,,
32034167,The Lucifer Effect : Understanding How Good People Turn Evil,,,,Philip G. Zimbardo,2008,Random House trade paperback edition.,Random House Trade Paperbacks,,551,580,English,,,,"9780812974447,0812974441",,,,,,,,,,,0,,,,,,,1,49497462,pdf,3BD9BF27890C3519569E48F54C9A2AB0,,,The Lucifer Effect - Understanding How Good People Turn Evil (2008) Philip Zimbardo.pdf,0,2000-01-01 01:00:00,2020-02-28 01:50:28,2473000/3bd9bf27890c3519569e48f54c9a2ab0-g.jpg,Mal -- Aspect psychologique;Bien -- Aspect psychologique,
32034168,What If? : The World’s Foremost Military Historians Imagine What Might Have Been,,,,"Robert Cowley, Stephen E. Ambrose, John Keegan, David McCullough, James M. McPherson",1999,,Putnam,New York,395,424,English,,,,"9780399145766,0399145761",,,,,,,,,,,0,,,,,,,1,60619094,pdf,DE086840521B4143683419AD4237C668,,,"What If_ - The World__039;s Foremost Military Historians Imagine What Might Have Been (1999) by Robert Cowley, Stephen E. Ambrose, John Keegan, David McCullough, James M. McPherson.pdf",0,2000-01-01 01:00:00,2020-02-28 01:50:28,2473000/de086840521b4143683419ad4237c668-d.jpg,Imaginary wars and battles;Imaginary histories,
32034169,Compute!’s 128 programmer’s guide,,,,"Ottis R. Cowper, David Florance, Todd D. Heimarck, John Krause, George W. Miller, Kevin Mykytyn, Philip I. Nelson, Tim Victor",1985,,Compute! Publications,"Greensboro, N.C.",444,468,English,Computers\\\\Programming,,,"9780874550313,0874550319",,,,,,,,,,,600,,,0,1,1,0,1,38485300,pdf,8254C0FB8F3C3ECFA64924B1DA853EEF,,,Compute__039;s_128_Programmer__039;s_Guide.pdf,0,2000-01-01 01:00:00,2020-02-28 01:50:28,2473000/8254c0fb8f3c3ecfa64924b1da853eef-d.jpg,Commodore 128 (Computer) -- Programming,
32034170,The Lucifer Effect : Understanding How Good People Turn Evil,,,,Philip G. Zimbardo,2008,Random House trade paperback edition.,Random House Trade Paperbacks,,551,580,English,,,,"9780812974447,0812974441",,,,,,,,,,Better version,0,,,0,,1,1,1,9512130,djvu,602A360E9B1175E8C26D2004B07ED1D1,,,The Lucifer Effect - Understanding How Good People Turn Evil (2008) Philip Zimbardo.djvu,0,2000-01-01 01:00:00,2020-02-28 01:50:28,2473000/602a360e9b1175e8c26d2004b07ed1d1-d.jpg,Mal -- Aspect psychologique;Bien -- Aspect psychologique,
32034171,Conceitos de Linguagem de Programação,,,,Robert W. Sebesta,2011,9,,Porto Alegre,775,795,português,69,,,"9780136073475,9788577808625",,,,,,,,,,,0,,,,,,1,1,5500907,pdf,238EA59DBC2934EA12D03FD5AB0ADCE2,,,Conceitos de Linguagem de Programação (9a Edição) - Robert W. Sebesta - trabalho.pdf,0,2000-01-01 01:00:00,2020-02-28 01:50:28,2473000/238ea59dbc2934ea12d03fd5ab0adce2-g.jpg,programming,
32034172,The official book for the Commodore 128 personal computer,,,,"Lafore, Robert; Volpe, Jerry; Waite, Mitchell",1986,"1. edition, 4. printing",Howard W. Sams,"Indianapolis, Ind.",210,230,English,Computers,,,"9780672224560,0672224569",,,,,,,,,,,300,1,,0,1,1,0,1,5850492,pdf,467F1AECDCE978E0D4C84227B2219174,,,The_Official_Book_for_the_Commodore_128.pdf,0,2000-01-01 01:00:00,2020-02-28 01:50:28,2473000/467f1aecdce978e0d4c84227b2219174-g.jpg,Commodore 128 (Computer),
32034173,Commodore 128 data file programming,,,,"Miller, David",1987,1st ed.,TAB Books,"Blue Ridge Summit, PA",289,304,English,,,,"9780830602056,0830602054,9780830628056,0830628053",,,,,,,,,,,0,,,0,0,1,0,1,5853180,pdf,F87E4E8191781195D5DC9FE4BE37928A,,,Commodore_128_Data_File_Programming.pdf,0,2000-01-01 01:00:00,2020-02-28 01:50:28,2473000/f87e4e8191781195d5dc9fe4be37928a-d.jpg,Commodore 128 (Computer) -- Programming,
32034174,Crafting And Shaping Knowledge Worker Services In The Information Economy,,,,"Keith Sherringham, Bhuvan Unhelkar",2020,1,Palgrave Macmillan,,566,593,English,6,,,"981151223X,9789811512230,9789811512247",,,,,,,,,,,0,,,,,,1,1,8046572,pdf,F124BC54161FD585CB19F3A3B8B2CAF5,,,981151223X_9789811512230_CraftingAndShapingKnowledgeWorkerServicesInformationEconomy.pdf,0,2000-01-01 01:00:00,2020-02-28 01:50:28,2473000/f124bc54161fd585cb19f3a3b8b2caf5-g.jpg,Innovation/Technology Management,
32034175,Commodore 128 programming secrets,,,,"Wiese, William M.",1986,,Osborne McGraw-Hill,"Berkeley, Calif.",0,422,English,Computers\\\\Programming,,,"9780078812507,007881250X",,,,,,,,,,,600,,,0,1,1,0,1,24655791,pdf,9A1AD05BB5DF9FB6E5ABBD42101C4268,,,Commodore_128_Programming_Secrets.pdf,0,2000-01-01 01:00:00,2020-02-28 01:50:28,2473000/9a1ad05bb5df9fb6e5abbd42101c4268-d.jpg,,
