6945111,Greek prose usage : a companion to Greek prose composition,,,,G.S. Thompson,1955,1,MacMillan & Co,,155,0,English,Greek language -- Style,,0,"1853995541,9781853995545",,,,,,,,,,,0,,,,,,,0,3329377,pdf,7f8f33f6de953ec4c865e4de75ff5e3c,,,7f8f33f6de953ec4c865e4de75ff5e3c,0,2000-01-01 01:00:00,2016-04-03 02:51:08,868000/7f8f33f6de953ec4c865e4de75ff5e3c-g.jpg,,
6945112,212 surprising checkmates,,,,by Bruce Alberston & Fred Wilson,Inc,,Russell Enterprises,"Milford, CT",152 p. : ill. ; 23 cm,0,English,Checkmate (Chess),,0,"9781936490233,1936490234",,,,,,,,,,,0,,,,,,,1,3874349,pdf,7b443f407b34ffd8635db54bf7f5506c,,,7b443f407b34ffd8635db54bf7f5506c,0,2000-01-01 01:00:00,2016-04-03 02:51:08,868000/7b443f407b34ffd8635db54bf7f5506c-d.jpg,,
6945113,"Emperyalizmin tuzaklarındaki ülke, ya da, Oltadaki balık Türkiye",,,,M. Emin Değer,1993,2. basım,Çınar Yayınları,"Beyoğlu, İstanbul",381 p. ; 20 cm,0,Turkish,Turkey -- Foreign relations -- United States.United States -- Foreign relations -- Turkey,,0,"9753480482,9789753480482",,,,,,,,,,,0,,,,,,,1,2032329,pdf,2fc3067429e91f44fe851c3d044dd51a,,,2fc3067429e91f44fe851c3d044dd51a,0,2000-01-01 01:00:00,2016-04-03 02:51:08,868000/2fc3067429e91f44fe851c3d044dd51a-g.jpg,,
6945114,Cutting Edge Research in New Technologies,,,,Edited by Constantin Volosencu,2012,,InTeOp,,358,0,English,Technology,,0,978-953-51-0463-6,,,,,,,10.5772/2431,,,,0,,,,,,,1,25243487,pdf,31c68e378016e87600c865b6b26d37b8,,,31c68e378016e87600c865b6b26d37b8,0,2000-01-01 01:00:00,2016-04-03 02:51:08,868000/31c68e378016e87600c865b6b26d37b8-g.jpg,,
6945115,CMOS cookbook,,,,Don Lancaster,1988,2nd ed,H.W. Sams,"Indianapolis, Ind",526,0,English,"Metal oxide semiconductors, Complementary.MOS complémentaires.Metal oxide semiconductors, Complimentary",,0,"0672224593,9780672224591",,,,,,,,,,,0,,,,,,,0,34088220,pdf,48ae3fe8492d62b62a1042a053d25c35,,,48ae3fe8492d62b62a1042a053d25c35,0,2000-01-01 01:00:00,2016-04-03 02:51:08,868000/48ae3fe8492d62b62a1042a053d25c35-g.jpg,,
6945116,Греческая религия. Архаика и классика,,"Миф, религия, культура",,В. Буркерт (авт.),2004,,Алетейя,,584,0,Russian,Книги//Нехудожественная литература//Религия. Оккультизм. Эзотерика//Религии древности,,0,5-89329-661-3,,,,,,,,,,,0,,,,,,,1,20555339,djvu,644c1737a16cd62e6d83811ad8eca0c4,,,644c1737a16cd62e6d83811ad8eca0c4,0,2000-01-01 01:00:00,2016-04-03 02:51:08,868000/644c1737a16cd62e6d83811ad8eca0c4-d.jpg,,
6945117,Fourier Transform Applications,,,,Edited by Salih Mohammed Salih,2012,,InTech,,310,0,English,Numerical Analysis and Scientific,,0,978-953-51-0518-3,,,,,,,10.5772/2658,,,,0,,,,,,,1,17132894,pdf,51710f6099c7abfa8ccb79cd9bce2850,,,978-953-51-0518-3,0,2000-01-01 01:00:00,2016-04-03 02:51:08,868000/51710f6099c7abfa8ccb79cd9bce2850-g.jpg,,
6945118,Evolving Trends in Urology,,,,Edited by Sashi S. Kommu,2012,,InTech,,88,0,English,Surgery,,0,978-953-51-0811-5,,,,,,,10.5772/2198,,,,0,,,,,,,1,6067015,pdf,4d6596c54d1588a992820be4f21ee74f,,,978-953-51-0811-5,0,2000-01-01 01:00:00,2016-04-03 02:51:08,868000/4d6596c54d1588a992820be4f21ee74f-g.jpg,,
6945119,"Справочник по правописанию, произношению, литературному редактированию",,,,"Розенталь, Дитмар Эльяшевич;Джанджакова, Евгения Васильевна; Кабанова, Наталья Петровна;авт.; авт",1998,"2-е изд., испр",ЧеРо,М,"399,[1] с",0,Russian,"Русский язык - Орфография - Справочники, Русский язык - Орфоэпия - Справочники, Русский язык - Пунктуация - Справочники, Литературное редактирование - Справочники, Справочники - Русский язык, Справочники - Литературное редактирование",,0,5-88711-092-9,,,"[808.2-1, 82.083]",,,,,,,,0,,,,,,,1,20029806,djvu,541211ec79fd632a8066028fc18cec30,,,"Розенталь.Справочник по правописанию,произношению",0,2000-01-01 01:00:00,2016-04-03 02:51:08,868000/541211ec79fd632a8066028fc18cec30-g.jpg,,
6945120,Toki wo kakeru shōjo,,"Haruki bunko, Tsu 1-1 C0193",,Tsutsui Yasutaka,1997,,Kadokawa Haruki Jimusho,Tōkyo,141 p. : ill. ; 15 cm,0,Japanese,"Science fiction, Japanese",,0,"4894563061,9784894563063",,,,,,,,,,,0,,,,,,,0,13578700,pdf,501dcb2d33d20c37e5dd64ecb782fbfc,,,Yasutaka_Tsutsui_-_Toki_wo_Kakeru_Shoujo,0,2000-01-01 01:00:00,2016-04-03 02:51:08,868000/501dcb2d33d20c37e5dd64ecb782fbfc-g.jpg,,
6945121,"Edible medicinal and non-medicinal plants. / Volume 3, Fruits",,,,T.K. Lim,2012,English,Springer,Dordrecht ; New York,1 online resource (v.) : ill. (col. ill.),0,English,"Medicinal plants.Botany, Medical",,0,"9789048186617,9048186617,9789400717640,9400717644,9789400725348,9400725345",,,,,,,10.1007/978-90-481-8661-7,,,,0,,,,,,,1,27505794,pdf,897c1d3fc2fe35055c414628ecff22ca,,,lim2012_edible_plants_fruits_1,0,2000-01-01 01:00:00,2016-04-03 02:51:08,868000/897c1d3fc2fe35055c414628ecff22ca-d.jpg,,
6945122,Filosofía zombi,,,,Jorge Fernández Gonzalo,2011,,Anagrama,,191,0,Spanish,philisophy,,0,,,,,,,,,,,On zombies,0,,,,,,,1,1310368,pdf,33655bce25511fa3dcd2b4637f093288,,,Jorge-Fernandez-Gonzalo-Filosofia-Zombi,0,2000-01-01 01:00:00,2016-04-03 02:51:08,868000/33655bce25511fa3dcd2b4637f093288-g.jpg,,
6945123,Clean Energy for Better Environment,,,,Edited by Cumhur Aydinalp,2012,,InTech,,92,0,English,Energy Engineering,,0,978-953-51-0822-1,,,,,,,10.5772/2597,,,,0,,,,,,,1,6430233,pdf,a5a2da25af423ffe7e4b6c346c2e70d2,,,978-953-51-0822-1,0,2000-01-01 01:00:00,2016-04-03 02:51:08,868000/a5a2da25af423ffe7e4b6c346c2e70d2-g.jpg,,
6945124,Cirugía de mínima invasión : profilaxis perioperatoria,,,,[editado por] José Humberto Vázquez-Sanders ... [et al.],2009,,Editorial Alfil,"México, D.F",503,0,Spanish,"Surgical Procedures, Minimally Invasive",,0,"9789689338130,9689338137",,,,,,,,,,,0,,,,,,,1,57670140,pdf,4ffa9f6710d1f7d3a256b77e564cc2b7,,,978-968-9338-13-0,0,2000-01-01 01:00:00,2016-04-03 02:51:08,868000/4ffa9f6710d1f7d3a256b77e564cc2b7-g.jpg,,
6945125,Ausgewählte Werke Band II,II,,,Mao Tse-Tung,1968,,,,298,0,German,Philosophische und politische Schriften Mao Tse Tungs,,0,,,,,,,,,,,,0,,,,,,,1,74983344,pdf,086e6c425df996d96fcf79d46379bf88,,,Mao Tse-Tung- Ausgewählte Werke Band II (Verlag für fremdsprachige Literatur) Peking 1 Auflage 1968,0,2000-01-01 01:00:00,2016-04-03 02:51:08,868000/086e6c425df996d96fcf79d46379bf88-g.jpg,,
6945126,The Greenblatt Reader,,,,Michael Payne,2005,,Blackwell,Oxford,327,0,English,Literary criticism,,0,1405115661,,,,,,,,,,,0,,,,,,,1,5028439,pdf,761156959437fb964ebbfec6e5e105e5,,,The-Greenblatt-Reader-1,0,2000-01-01 01:00:00,2016-04-03 02:51:08,869000/761156959437fb964ebbfec6e5e105e5-g.jpg,,
6945127,Animal Models in Diabetes Research,933,"Methods in Molecular Biology, vol. 933",,"Hans-Georg Joost, Hadi Al-Hasani, Annette Schürmann",2012,,Springer Science Humana Press,New York Dordrecht Heidelberg London,320,0,English,Biochemistry/Cell Biology/Physiology/Medicine,,0,"978-1-62703-067-0, 978-1-62703-068-7",,,,,,,,,,,0,1,,,0,,1,1,4830117,pdf,2b0256fb70c8042ca6ab225c6a07e04c,,,Animal_Model_Diabetes_MMB_933,0,2000-01-01 01:00:00,2016-04-03 02:51:08,869000/2b0256fb70c8042ca6ab225c6a07e04c-d.tif,,
6945128,6000 Chinese characters with Japanese pronunciation and Japanese and English renderings,,,,J. Ira Jones,1915,,Kyo Bun Kwan,Tokyo,244,0,English,Japanese language -- Dictionaries,,0,,,,,,,,,,OL7220159M,,0,,,,,,,1,18559788,pdf,2725c83996fc3c9bea87b6f769ad1b99,,,6000,0,2000-01-01 01:00:00,2016-04-03 02:51:08,869000/2725c83996fc3c9bea87b6f769ad1b99-d.jpg,,
6945129,Scala : objektfunktionale Programmierung,,,,Oliver Braun,2011,,Hanser,München,330,0,German,Scala (Programmiersprache),,0,"9783446423992,3446423990",,,,,,,,,,,0,,,,,,,1,3833565,pdf,138027e3802ee470d21562e68c907da8,,,138027e3802ee470d21562e68c907da8,0,2000-01-01 01:00:00,2016-04-03 02:51:08,869000/138027e3802ee470d21562e68c907da8-g.jpg,,
6945130,Η κρυφή γοητεία της μπουρζουαζίας,,,,Ραφαηλίδης Βασίλης,1991,,Εκδόσεις του Εικοστού Πρώτου,Athēna,230 p. ; 21 cm,0,"Greek, Modern",Middle class,,0,"9607058070,9789607058072",,,,,,,,,,,0,,,,,,,1,13100513,pdf,928118c998108fa2dcf8005e2da2f533,,,928118c998108fa2dcf8005e2da2f533,0,2000-01-01 01:00:00,2016-04-03 02:51:08,869000/928118c998108fa2dcf8005e2da2f533-g.jpg,,
6945131,Literature and the Economics of Liberty,,,,"Paul Cantor, Stephen Cox",2010,,Ludwig von Mises Institute,,509,0,English,Literary criticism,,0,"1933550643,9781933550640",,,,,,,,,,,0,,,,,,,1,3305365,pdf,894cbf19de591360596acaee937a282b,,,Book-Economy-nad-Literature,0,2000-01-01 01:00:00,2016-04-03 02:51:08,869000/894cbf19de591360596acaee937a282b-d.jpg,,
6945132,Mass of a Joyful Heart - Keyboard/Vocal Edition,,,,Steve Angrisano & Tom Tomaszek,2012,,Oregon Catholic Press,,23,0,English,"Гимн, Музыка, Hymn, Music",,0,,,,,,,,,,,,0,,,,,,,1,611421,pdf,8ab36596feadd92452b7e3e1515ba689,,,Mass of a Joyful Heart,0,2000-01-01 01:00:00,2016-04-03 02:51:08,869000/8ab36596feadd92452b7e3e1515ba689-g.jpg,,
6945133,"The Gay Gospels: Good News for Lesbian, Gay, Bisexual, and Transgendered People",,,,Keith Sharpe,2011,,Circle Books,,160,0,English,"Religion, Christianity, Bible, LGBT rights",,0,"1846945488,9781846945489",,,,,,,,,,,0,,,,,,,,532442,mobi,42756720340398e246c8791702dcb370,,,"The Gay _The_Gay_Gospels__Good_News_for_Lesbian,_Gay,_Bisexual,_and_Transgendered_People_nodrm",0,2000-01-01 01:00:00,2016-04-03 02:51:08,869000/42756720340398e246c8791702dcb370-d.jpg,,
6945134,Автослесарь,,Профессиональное образование,,Ханников А. А. (сост),2009,,Современная школа,,384,0,Russian,Книги//Нехудожественная литература//Научная и техническая литература//Техника. Технические науки//Транспорт//Автотранспорт//Запчасти. РемонтКниги//Учебная литература//Студентам и аспирантам//Технические науки. Медицина. Сельское хозяйство//Транспорт,,0,978-985-513-474-0,,,,,,,,,,,0,,,,,,,1,31340504,pdf,1d55f0e76328e11181b8f09e461e96ce,,,978-985-513-474-0,0,2000-01-01 01:00:00,2016-04-03 02:51:08,869000/1d55f0e76328e11181b8f09e461e96ce-d.jpg,,
6945135,All about metal,,,,Norman Colton,1977,,Key Books,Toronto,119 p. : ill. ; 22 cm,0,English,"Refrigeration and refrigerating machinery -- Popular works.Millwrights -- Popular works.Metal-work -- Popular works.Pipe fitting -- Popular works.Plumbing -- Popular works.Réfrigération et appareils frigorifiques -- Ouvrages de vulgarisation.Mécaniciens de chantier -- Ouvrages de vulgarisation.Métaux, Travail des -- Ouvrages de vulgarisation.Tuyautage -- Ouvrages de vulgarisation.Plomberie -- Ouvrages de vulgarisation",,0,,,,,,,,,,,,0,,,,,,,0,8740954,pdf,a71e813de1bbeb4c6b1f9d814cf696f4,,,a71e813de1bbeb4c6b1f9d814cf696f4,0,2000-01-01 01:00:00,2016-04-03 02:51:08,869000/a71e813de1bbeb4c6b1f9d814cf696f4-g.jpg,,
6945136,"Anthracycline antibiotics : new analogues, methods of delivery, and mechanisms of action : developed from a symposium sponsored by the Division of Carbohydrate Chemistry at the 205th National Meeting of the American Chemical Society, Denver, Colorado, March 28-April 2, 1993",,"ACS symposium series, 574",,"Waldemar Priebe, editor",1995,English,American Chemical Society,"Washington, DC",326,0,Conference publication,"Anthracyclines -- Congresses.Antibioticos (ciencias farmaceuticas)Carcinoma.Antibiotics, Antineoplastic -- Congresses.Anthracyclines -- Congrès.Anthracycline -- congrès.Anthracyclines.Anticancéreux.Antibiotiques antinéoplasiques.Antibiotics, Anthracycline.Anthracyclines -- Congresses",,0,"0841230404,9780841230408",,,,,,,,,,,0,,,,,,,1,30458410,pdf,7119b61d37c6fe02fa99990c75b954d1,,,"ACS 0574 - Anthracycline Antibiotics - New Analogues, Methods of Delivery, and Mechanisms of Action (missing 9 due to bad source)",0,2000-01-01 01:00:00,2016-04-03 02:51:08,869000/7119b61d37c6fe02fa99990c75b954d1-g.jpg,,
6945137,Biomarkers for agrochemicals and toxic substances : applications and risk assessment,,"ACS symposium series, 643",,"Jerry N. Blancato ... [et al.], editor",1996,English,American Chemical Society,"Washington, DC",282,0,Conference publication,Agricultural chemicals -- Health aspects,,0,"0841234493,9780841234499",,,,,,,,,,,0,,,,,,,1,29009958,pdf,ca32f4a279df504ad708753b888842ae,,,ACS 0643 - Biomarkers for Agrochemicals and Toxic Substances,0,2000-01-01 01:00:00,2016-04-03 02:51:08,869000/ca32f4a279df504ad708753b888842ae-d.jpg,,
6945138,"Innovative subsurface remediation : field testing of physical, chemical, and characterization technologies",,"ACS symposium series, 725",,"Mark L. Brusseau, editor ... [et al.]",1999,,American Chemical Society,"Washington, DC",301,0,English,Soil remediation -- Technological innovations -- Evaluation.Hazardous waste site remediation -- Technological innovations -- Evaluation.Sols -- Décontamination -- Innovations -- Évaluation.Dépôts de déchets dangereux -- Restauration -- Innovations -- Évaluation.Eaux souterraines -- Épuration -- Innovations -- Évaluation.BodensanierungTechnischer FortschrittBewertungAufsatzsammlungSonderabfallbeseitigung,,0,"0841235961,9780841235960",,,,,,,,,,,0,,,,,,,1,30559683,pdf,021f08fd7dd7ddac420ec0ea8eec3e19,,,ACS 0725 - Innovative Subsurface Remediation,0,2000-01-01 01:00:00,2016-04-03 02:51:08,869000/021f08fd7dd7ddac420ec0ea8eec3e19-d.jpg,,
6945139,Stimuli-responsive water soluble and amphiphilic polymers,,"ACS symposium series, 780",,"Charles L. McCormick, editor",2001,English,American Chemical Society,"Washington, DC",357,0,Conference publication,Water soluble polymers -- Congresses.Amphiphiles.Smart materials -- Congresses.Polymères hydrosolubles -- Congrès.Matériaux intelligents -- Congrès.Wasserlösliche PolymereKongress,,0,"0841237255,9780841237254",,,,,,,,,,,0,,,,,,,1,40154138,pdf,5abec2335bc44314a3956b758719c0dc,,,ACS 0780 - Stimuli-Responsive Water Soluble and Amphiphilic Polymers,0,2000-01-01 01:00:00,2016-04-03 02:51:08,869000/5abec2335bc44314a3956b758719c0dc-d.jpg,,
6945140,Anticancer agents : frontiers in cancer chemotherapy,,"ACS symposium series, 796",,"Iwao Ojima, Gregory D. Vite, Karl-Heinz Altmann, editor[s]",2001,English,American Chemical Society,"Washington, DC",375,0,Conference publication,Antineoplastic agents -- Congresses.Antineoplastic Agents -- therapeutic use -- Congresses.Neoplasms -- drug therapy -- Congresses.Oncologia.Quimioterapia,,0,"084123745X,9780841237452",,,,,,,,,,,0,,,,,,,1,33937465,pdf,e90762b86b77fc3404c315f338f6c307,,,ACS 0796 - Anticancer Agents - Frontiers in Cancer Chemotherapy,0,2000-01-01 01:00:00,2016-04-03 02:51:08,869000/e90762b86b77fc3404c315f338f6c307-d.jpg,,
6945141,Advances in cognitive neurodynamics ICCN 2007 : proceedings of the International Conference on Cognitive Neurodynamics,,,,"edited by Rubin Wang, Fanji Gu, Enhua Shen",2008,,Springer,Dordrecht ; London,1 online resource,0,English,Cognitive neuroscience -- Congresses,,0,"9781402083877,1402083874",,,,,,,,,,,0,,,,,,,1,37564288,pdf,8b24acca8fe253dcb546060f36d6fac1,,,Advances in Cognitive Neurodynamics,0,2000-01-01 01:00:00,2016-04-03 02:51:08,869000/8b24acca8fe253dcb546060f36d6fac1-g.jpg,,
6945142,An Ainu-English-Japanese dictionary (including A grammar of the Ainu language.),,,,By the Rev. John Batchelor,1903,2d ed,"Tokyo, Methodist Pub. house; London, K. Paul, Trench, Trübner, Co",,"4 p. l., [3]-525 p., 1 l., 3, 159, [2] p. 23 cm",0,English,Ainu language -- Dictionaries -- Polyglot.Japanese language -- Dictionaries -- Polyglot.English language -- Dictionaries -- Polyglot,,0,,,,,,,,,,,,0,,,,,,,0,20425922,pdf,bd4d624f75053583e7e18ff09ca61c68,,,Ainu-English-Japanese,0,2000-01-01 01:00:00,2016-04-03 02:51:08,869000/bd4d624f75053583e7e18ff09ca61c68-g.jpg,,
6945143,An introduction to Markov processes,,"Graduate texts in mathematics, 230",,Daniel W. Stroock,2005,English,Springer,Berlin ; New York,"1 online resource (xiv, 171 p.)",0,Document,"Markov processes.Markov, Processus de.Markov-processen.Processos de markov",,0,"9783540269908,3540269908,3540234993,9783540234999",,,,,,,,,,,0,,,,,,,1,6243501,djvu,2eb922efee8021dba5cecca1f3e63edc,,,an_introduction_to_markov_processes,0,2000-01-01 01:00:00,2016-04-03 02:51:08,869000/2eb922efee8021dba5cecca1f3e63edc-d.jpg,,
6945144,Physics and music,,,,"Gleb Anfilov, Translated from the Russian by Boris Kuznetsov",1966,,"Moscow, Mir Publishers",,252 p. illus. 18 cm,0,English,Music -- Acoustics and physics.Geluid.Muziek,,0,,,,,,,,,,,,0,,,,,,,1,28475129,pdf,519a124200fba0e2888da1ecfb10826f,,,anfilov-physics-and-music,0,2000-01-01 01:00:00,2016-04-03 02:51:08,869000/519a124200fba0e2888da1ecfb10826f-g.jpg,,
6945145,A SAS/IML companion for linear models,,Statistics and computing,,Jamis J. Perrett,2010,English,Springer,New York,"1 online resource (xiv, 228 p.) : ill",0,Document,SAS (Computer file)Linear models (Statistics) -- Data processing,,0,"9781441955579,1441955577,1441955569,9781441955562",,,,,,,10.1007/978-1-4419-5557-9,,,,0,,,,,,,1,1720757,pdf,fbd8605ec24921d49a7208d9a9140650,,,aSASIMLCompanionForLinearModels,0,2000-01-01 01:00:00,2016-04-03 02:51:08,869000/fbd8605ec24921d49a7208d9a9140650-d.jpg,,
6945146,"Transport and remediation of subsurface contaminants : colloidal, interfacial, and surfactant phenomena : developed from a symposium sponsored by the Division of Colloid and Surface Chemistry of the American Chemical Society at the 65th annual Colloid and Surface Science Symposium, Norman, Oklahoma, June 17-19, 1991",,"ACS symposium series, 491",,"David A. Sabatini, editor, Robert C. Knox, editor",1992,English,American Chemical Society,"Washington, DC",250,0,Conference publication,Hazardous substances -- Environmental aspects,,0,"0841222231,9780841222236",,,,,,,,,,,0,,,,,,,1,26032835,pdf,291dc085ec9b9df0dc76d0a22a2e9a97,,,ASC 0491 - Transport _amp; Remediation of Subsurface Contaminants,0,2000-01-01 01:00:00,2016-04-03 02:51:08,869000/291dc085ec9b9df0dc76d0a22a2e9a97-d.jpg,,
6945147,Asymptotic theory of statistics and probability,,Springer texts in statistics,,Anirban DasGupta,2008,English,Springer,New York,726,0,English,Mathematical statistics -- Asymptotic theory,,0,"9780387759715,0387759719,0387759700,9780387759708",,,,,,,10.1007/978-0-387-75971-5,,,,0,,,,0,0,1,1,4307664,pdf,21cc7f3640ed00f5e2b5f2614fc33657,,,asymptoticTheoryOfStatisticsAndProbability,0,2000-01-01 01:00:00,2016-04-03 02:51:08,869000/21cc7f3640ed00f5e2b5f2614fc33657-d.jpg,,
6945148,Bayesian core : a practical approach to computational Bayesian statistics,,Springer texts in statistics,,"Jean-Michel Marin, Christian P. Robert",2007,English,Springer,New York,"1 online resource (xiii, 255 p.) : ill",0,Document,Bayesian statistical decision theory -- Textbooks.Statistique bayésienne -- Manuels d'enseignement supérieur.Statistique bayésienne -- Informatique -- Manuels d'enseignement supérieur.Inferência bayesiana (inferência estatística),,0,"9780387389837,0387389830,9780387389790,0387389792",,,,,,,,,,,0,,,,,,,1,10164403,pdf,bb2a819b1f48b9cf516715a587c4b99c,,,bayesianCore_APracticalApproachToComputationalBayesianStatistics,0,2000-01-01 01:00:00,2016-04-03 02:51:08,869000/bb2a819b1f48b9cf516715a587c4b99c-d.jpg,,
6945149,Beneficial microorganisms in multicellular life forms,,,,"Eugene Rosenberg, Uri Gophna, editors",2011,English,Springer,Berlin ; New York,"1 online resource (ix, 348 p.) : ill. (some col.)",0,Document,Symbiosis.Microorganisms.Host-bacteria relationships,,0,"9783642216800,3642216803",,,,,,,10.1007/978-3-642-21680-0,,,,0,,,,,,,1,2705652,pdf,5bfe1a70a1db3169d456f5adeab0b981,,,beneficial_microorganisms_in_multicellular_life_forms_2011,0,2000-01-01 01:00:00,2016-04-03 02:51:08,869000/5bfe1a70a1db3169d456f5adeab0b981-d.jpg,,
6945150,Biogeography of microscopic organisms : is everything small everywhere?,,"Systematics Association special volume, no. 79",,[edited by] Diego Fontaneto,2011,,Cambridge University Press,New York,388,0,English,Microorganisms -- Geographical distribution.Environmental Microbiology,,0,"9780521766708,0521766702",,,,,,,,,,,0,,,,,,,1,4265647,pdf,1620fb3dfae2692557570f437110482b,,,biogeogr_micr_organisms_2011,0,2000-01-01 01:00:00,2016-04-03 02:51:08,869000/1620fb3dfae2692557570f437110482b-d.jpg,,
6945151,"Encyclopaedia of the Qur'ān. Vol. 3, J-O",,,,"Jane Dammen McAuliffe, general ed. [et al.]",2003,,Brill,Leiden ; Boston,644,0,English,Koran -- encyklopedie.Koran -- słowniki angielskie,,0,"9004123547,9789004123540",,,,,,,,,,,0,,,,,,,1,13092908,pdf,343566e55ac9a4ef550ac3d405e842d3,,,Brill_-_Encyclopaedia_of_the_Qur_an_vol_3,0,2000-01-01 01:00:00,2016-04-03 02:51:08,,,
6945152,"Encyclopaedia of the Qurʼān. / Volume four, P-Sh",,,,"Jane Dammen McAuliffe, general editor",2004,,Brill,Leiden ; Boston,1 vol. (XXIII-606 p.-[32] p. de pl.) : ill. ; 27 cm,0,English,"Coran -- Encyclopédies et dictionnaires.Coran -- Critique, interprétation, etc",,0,"9004123555,9789004123557",,,,,,,,,,,0,,,,,,,1,10969299,pdf,2262a4c07ae2e0cb802783e8891b80fc,,,Brill_-_Encyclopaedia_of_the_Qur_an_vol_4,0,2000-01-01 01:00:00,2016-04-03 02:51:08,,,
6945153,"Woody plants of the Gunlogson Arboretum; Icelandic State Park, North Dakota",,,,[by] Robert L. Burgess,1968,,"[Fargo, North Dakota Institute for Regional Studies, State University Station",,"64 p. illus., map. 22 cm",0,English,Woody plants -- North Dakota -- Icelandic State Park,,0,,,,,,,,,,,,0,,,,,,,0,536358,djvu,2ac489a9b3a4ea977476601dcca177fe,,,burgess1968_woody_plants_gunlogson_arb_nd,0,2000-01-01 01:00:00,2016-04-03 02:51:08,869000/2ac489a9b3a4ea977476601dcca177fe-g.jpg,,
6945154,Epigenetic principles of evolution,,Elsevier insights,,Nelson R. Cabej,2012,,Elsevier,London,"1 online resource (xlii, 804 p.) : ill",0,English,"Evolution (Biology)Epigenesis.Epigenesis, Genetic.Biological Evolution.SCIENCE / Life Sciences / Evolution",,0,"9780124158511,012415851X",,,,,,,,,,,0,,,,,,,1,25947309,pdf,2aedf140af2187984d4ea4a7775d92db,,,cabej2012 epigenetic principles of evolution,0,2000-01-01 01:00:00,2016-04-03 02:51:08,869000/2aedf140af2187984d4ea4a7775d92db-d.jpg,,
6945155,Chocolate in health and nutrition,,Nutrition and health,,"Ronald Ross Watson ... [et al.], eds",2013,,Humana Press,New York,553 S : Ill,0,English,SCHOKOLADE + SCHOKOLADENTECHNOLOGIE,,0,"9781617798023,1617798029,9781617798030,1617798037",,,,,,,10.1007/978-1-61779-803-0,,,,0,,,,,,,1,7783535,pdf,9f94788cd5fa28a678ad8cf58aff9289,,,Chocolate in Health and Nutrition,0,2000-01-01 01:00:00,2016-04-03 02:51:08,869000/9f94788cd5fa28a678ad8cf58aff9289-d.jpg,,
6945156,留学生のための漢字の教科書中級700 /Ryūgakusei no tame no kanji no kyōkasho chūkyū nanahyaku,,,,Satō Naoko;Sasaki Hitoko,2008,,Kokusho Kankōkai,"国書刊行会, Tōkyo�",237 p. : ill. ; 26 cm.  + 1 answer book (27 p. ; 25 cm.),0,Japanese,Chinese characters -- Study and teaching.Chinese characters -- Japan.Japanese language -- Study and teaching (Higher) -- Japan.Nihongo kyōiku(Tai gaikokujin).Kanji,,0,"9784336050298,4336050295",,,,,,,,,,,0,,,,,,,0,79409415,pdf,e9a32d630298e0e5d1d9028234a96325,,,Chuukyuu 700,0,2000-01-01 01:00:00,2016-04-03 02:51:08,869000/e9a32d630298e0e5d1d9028234a96325-g.jpg,,
6945157,テーマ別中級から学ぶ日本語/ テーマ別中級から学ぶ日本語,,Tema-betsu,,Matsuda H,2004,Revideret udg,Kenkyusha,Tokyo,191 s. + 80 s,0,Japanese,Japansk sprog.Japansk grammatik.Japanske lærebøger,,0,"9784327384456,4327384453",,,,,,,,,,,0,,,,,,,,12112374,zip,db7e3e6f284a34c6e13285a3ec89f5bb,,,chuukyuu kara manabu nihongo,0,2000-01-01 01:00:00,2016-04-03 02:51:08,,,
6945158,Flora of the Yukon Territory,,,,William J. Cody,2000,2nd ed,National Research Press,Ottawa,"1 online resource (xvii, 669 p.) : ill., maps (some col.)",0,English,Botany -- Yukon.Electronic books,,0,"9780660181103,066018110X",,,,,,,,,,,0,,,,,,,1,29215452,pdf,401e65d8be7dcc0816d28b2d6430a75d,,,cody2000 flora of the yukon territory,0,2000-01-01 01:00:00,2016-04-03 02:51:08,869000/401e65d8be7dcc0816d28b2d6430a75d-g.jpg,,
6945159,Time-frequency analysis,,Prentice Hall signal processing series,,Leon Cohen,1995,,Prentice Hall PTR,"Englewood Cliffs, N.J",315,0,English,Signal processing.Time-series analysis.Frequency spectra.analyse temps-fréquence.signal temporel.Traitement du signal.Séries chronologiques.Spectres de fréquences.Frequenzanalyse.Signals -- Processing,,0,"0135945321,9780135945322",,,,,,,,,,,0,,,,,,,1,5271568,pdf,7cd13d2aead1186952353c37f989dad9,,,Cohen L. Time Frequency Analysis..Theory and Applications (PH 1994)(ISBN 0135945321)(T)(315s),0,2000-01-01 01:00:00,2016-04-03 02:51:08,869000/7cd13d2aead1186952353c37f989dad9-g.jpg,,
6945160,Collected papers of G.H. Hardy; including joint papers with J.E. Littlewood and others,vol 5,,,edited by a committee appointed by the London Mathematical Society,1972,,"Oxford, Clarendon Press",,708,0,English,Mathematics.MatematicaMathématiques -- Collections,,0,,,,,,,,,2OfuAAAAMAAJ,,,0,,,,,,,1,67681377,pdf,0ed496e0bf2e43cc3bcc5110bb5ba055,,,Collected papers of G.H. Hardy V,0,2000-01-01 01:00:00,2016-04-03 02:51:08,869000/0ed496e0bf2e43cc3bcc5110bb5ba055-g.jpg,,
6945161,The language of God : a scientist presents evidence for belief,,,,Francis S. Collins,2006,,Free Press,New York,274,0,English,Religion and science.Apologetics.Religion and Science.Religion et sciences.Apologétique.Geloof en wetenschap.Christlicher Glaube.Glaube.Naturwissenschaften.Religion,,0,"0743286391,9780743286398",,,,,,,,,,,0,,,,,,,1,970931,pdf,ae933af6a187f92bcbc4e8d78a6addb8,,,collins2006 the language of god,0,2000-01-01 01:00:00,2016-04-03 02:51:08,869000/ae933af6a187f92bcbc4e8d78a6addb8-d.jpg,,
6945162,"Complex datasets and inverse problems : tomography, networks, and beyond",,"Lecture notes-monograph series, v. 54",,"Regina Liu, William Strawderman, and Cun-Hui Zhang, editors",2007,,Institute of Mathematical Statistics,"Beachwood, Ohio",281,0,English,Inverse problems (Differential equations)Tomography.Computer networks,,0,"9780940600706,0940600706",,,,,,,10.1214/074921707000000021,,,,0,,,,,,,1,7837227,pdf,77f95320b55205d93567ad2d91007b8f,,,complex datasets and inverse problems  tomography networks and beyond,0,2000-01-01 01:00:00,2016-04-03 02:51:08,869000/77f95320b55205d93567ad2d91007b8f-g.jpg,,
6945163,Concrete mathematics : a foundation for computer science,,,,"Ronald L. Graham, Donald E. Knuth, Oren Patashnik",cop. 1994,2nd ed,Addison-Wesley,"Reading, MA [etc.]",690,0,English,Matemàtica.Informàtica -- Matemàtica,,0,"0201558025,9780201558029",,,,,,,,,,,0,,,,,,,1,5359463,pdf,645b6611f2ee4fcdb5355c1958c21147,,,concrete mathematics  knuth patashnik,0,2000-01-01 01:00:00,2016-04-03 02:51:08,869000/645b6611f2ee4fcdb5355c1958c21147-d.jpg,,
6945164,History of life,,,,Richard Cowen,2005,4th ed,Blackwell Pub,"Malden, MA",339,0,English,Paleontology.Paléontologie.Evolution.Paleontologia.Paläontologie,,0,"1405117567,9781405117562",,,,,,,,,,,0,,,,,,,1,11153061,pdf,698ce2c5a583a7c3d783184c9be6d6d7,,,cowen2005 history of life,0,2000-01-01 01:00:00,2016-04-03 02:51:08,869000/698ce2c5a583a7c3d783184c9be6d6d7-d.jpg,,
6945165,Ten lectures on wavelets,,"CBMS-NSF regional conference series in applied mathematics, 61",,Ingrid Daubechies,1992,English,Society for Industrial and Applied Mathematics,"Philadelphia, Pa",378,0,Conference publication,Wavelets (Mathematics) -- Congresses.orthonormalisation.transformée ondelette.ondelette.Ondelettes -- Congrès.Wiskundige methoden.Wavelets (Mathematics) -- Congresses,,0,"0898712742,9780898712742",,,,,,,,,,,0,,,,,,,1,4641014,djvu,1ff10fc66f0a27d1f4bc84c14215a64d,,,daubechies ten lectures on wavelets,0,2000-01-01 01:00:00,2016-04-03 02:51:08,869000/1ff10fc66f0a27d1f4bc84c14215a64d-g.jpg,,
6945166,Design of observational studies,,Springer series in statistics,,Paul R. Rosenbaum,2010,English,Springer,New York,"1 online resource (xviii, 384 p.) : ill",0,Document,Experimental design.Analysis of variance.Beobachtungsstudie.MATHEMATICS -- Probability & Statistics -- General,,0,"9781441912138,1441912134",,,,,,,10.1007/978-1-4419-1213-8,,,,0,,,,,,,1,2518304,pdf,0163cd9d9caa8279ae4db4aa41bc6f8a,,,designOfObservationalStudies,0,2000-01-01 01:00:00,2016-04-03 02:51:08,869000/0163cd9d9caa8279ae4db4aa41bc6f8a-d.jpg,,
6945167,日本語Eメールの書き方 = Writing E-mails in Japanese /Nihongo E mēru no kakikata = Writing E-mails in Japanese,,,,"Yana Akiko, Ōki Rie, Komatsu Yuka cho",2005,1st edition,The Japan Times,Tokyo,134 p. ; 26 cm,0,Japanese,Japanese language -- Study and teaching.Letter writing.Electronic mail messages,,0,"4789011844,9784789011846",,,,,,,,,,,0,,,,,,,1,73757133,pdf,0f7145a1fd3d1537c5bd64ed5b79ab63,,,E meiru Writing Emails in Japanese,0,2000-01-01 01:00:00,2016-04-03 02:51:08,869000/0f7145a1fd3d1537c5bd64ed5b79ab63-g.jpg,,
6945168,The ecology of Sulawesi,,,,"Anthony J. Whitten, Muslimin Mustafa, Gregory S. Henderson",1987,,Gadjah Mada University Press,"Yogyakarta, Indonesia",433,0,English,Ecology -- Indonesia -- Celebes.Celebes (Indonesia)Écologie -- Indonésie -- Célèbes.Écologie des forêts pluviales -- Indonésie -- Célèbes.Écologie des eaux -- Indonésie -- Célèbes,,0,"9794200484,9789794200483,9794200603,9789794200605",,,,,,,,,,,0,,,,,,,0,9658163,djvu,9911969e527c80d7ad08a7c9f3447143,,,ecol sulawesi 1987,0,2000-01-01 01:00:00,2016-04-03 02:51:08,869000/9911969e527c80d7ad08a7c9f3447143-g.jpg,,
6945169,Ecology of the planted aquarium : a practical manual and scientific treatise for the home aquarist,,,,by Diana L. Walstad,1999,1st ed,Echinodorus Pub,"Chapel Hill, NC",205,0,English,"Aquarium plants -- Handbooks, manuals, etc.Aquariums -- Handbooks, manuals, etc",,0,"0967377307,9780967377308",,,,,,,,,,,0,,,,,,,0,13242013,pdf,ebfd44f6130b57246299273109318676,,,ecology of the Planted Aquarium   A Practical Manual and Scientific Treatise for the Home Aquarist,0,2000-01-01 01:00:00,2016-04-03 02:51:08,869000/ebfd44f6130b57246299273109318676-d.jpg,,
6945170,"Die Farnpflanzen Zentraleuropas : Gestalt, Geschichte, Lebensraum",,,,"Photographie, Kurt Rasbach und Helga Rasbach ; Text, Ottilie Wilmanns",1976,2. Aufl,Fischer,Stuttgart,304 p. : ill. ; 32 cm,0,English,Fougères -- Europe centrale,,0,"343730223X,9783437302237",,,,,,,,,,,0,,,,,,,0,22002424,djvu,d1819e9d378b32bea2c5c8c22b950528,,,farnpflanzen zentraleuropas 1976,0,2000-01-01 01:00:00,2016-04-03 02:51:08,869000/d1819e9d378b32bea2c5c8c22b950528-g.jpg,,
6945171,Practical methods of optimization,,,,R. Fletcher,1987,2nd ed,Wiley,Chichester ; New York,,0,English,Mathematical optimization.Mathematics.Operations Research.Optimisation mathématique.Optimaliseren.Wiskundige methoden.Optimierung.21030 -- mathematics -- p1030 -- optimisation -- p0030 -- applicationsMathematical optimization,,0,"0471915475,9780471915478",,,,,,,,,,,0,,,,,,,0,13238272,pdf,42d29403d0ebfa3bda9587a64c41bd55,,,"Fletcher R. Practical Methods of Optimization.2nd.ed.(Wiley, 2000)(451s)",0,2000-01-01 01:00:00,2016-04-03 02:51:08,,,
6945172,Flowers on the tree of life,,"Systematics Association special volume, no. 80",,"edited by Livia Wanntorp, Louis P. Ronse De Craene",2011,,Cambridge University Press,Cambridge ; New York,328,0,English,Flowers -- Morphology.Flowers -- Evolution.Angiosperms -- Morphology.Angiosperms -- Evolution.SCIENCE / Life Sciences / Botany,,0,"9780521765992,0521765994",,,,,,,,,,,0,,,,,,,1,7175766,pdf,3a244e45fe1677eff055ad0938e6d681,,,flowers on the tree of life 2011,0,2000-01-01 01:00:00,2016-04-03 02:51:08,869000/3a244e45fe1677eff055ad0938e6d681-d.jpg,,
6945173,Galileo's daughter,,,,Dava Sobel,2000,,Penguin BOOKS,170,170,0,English,"Galilei, Galileo, -- 1564-1642 -- Family.Galilei, Maria Celeste, -- 1600-1634 -- Family.Large type books.Nuns -- Italy -- Biography.Astronomers -- Italy -- Biography.Italy -- History -- 1559-1789.Galilei, Virginia, -- 1600-1634 -- Family",,0,0-8027-9975-2,,,,,,,,,,,0,,,,,,,1,1221123,pdf,3d1e649bc687fa71b88116fa4db525dc,,,galileo s daughter,0,2000-01-01 01:00:00,2016-04-03 02:51:08,869000/3d1e649bc687fa71b88116fa4db525dc-g.jpg,,
6945174,Fundamentals of computerized tomography : image reconstruction from projections,,Advances in pattern recognition,,Gabor T. Herman,2009,,Springer,Dordrecht ; New York,"1 online resource (xi, 297 p.) : ill",0,English,Tomography.Image reconstruction.Imaging systems in medicine.Medicine,,0,"9781846287237,1846287235",,,,,,,10.1007/978-1-84628-723-7,,,,0,,,,,,,1,55452647,pdf,82024040aa6db66ef2a8dbaebf440d9a,,,fundamentals of computed tomography  gabor herman,0,2000-01-01 01:00:00,2016-04-03 02:51:08,869000/82024040aa6db66ef2a8dbaebf440d9a-d.jpg,,
6945175,Animal evolution : interrelationships of the living phyla,,,,Claus Nielsen,2012,3rd ed,Oxford University Press,Oxford ; New York,421,0,English,Phylogeny.Evolution (Biology)Evolution.Phylogenie.Tiere,,0,"9780199606030,019960603X,9780199606023,0199606021",,,,,,,,,,,0,,,,,,,1,10365049,pdf,28ea49915accaa6908f178382eee3c11,,,nielsen2012 animal evolution interrelationships of the living phyla,0,2000-01-01 01:00:00,2016-04-03 02:51:08,869000/28ea49915accaa6908f178382eee3c11-d.jpg,,
6945176,Introduction to time series and forecasting,,Springer texts in statistics,,"Peter J. Brockwell, Richard A. Davis",2002,2,Springer,New York,"1 online resource (xiv, 434 p.) : ill",0,English,Time-series analysis.Série chronologique.MATHEMATICS -- Probability & Statistics -- Time Series.Tijdreeksen.Prognoses.Análise de séries temporais,,0,"038721657X,9780387216577,9788181284044,8181284046,0387953515,9780387953519",,,,,,,,,,,0,,,,,,,1,7946476,pdf,b37a633567d72d56aac8bbd213983d5c,,,introductionToTimeSeriesAndForecasting E2,0,2000-01-01 01:00:00,2016-04-03 02:51:08,869000/b37a633567d72d56aac8bbd213983d5c-d.jpg,,
6945177,An introduction to statistical signal processing,,,,"Robert M. Gray, Lee D. Davisson",2004,,Cambridge University Press,"Cambridge, UK ; New York",475,0,English,Signal processing -- Statistical methods.Processamento de sinais.Estatística.Traitement du signal -- Méthodes statistiques.Stochastisches Signal.Statistische Nachrichtentheorie.Signalverarbeitung,,0,"0521838606,9780521838603,9780521131827,0521131820",,,,,,,,,,,0,,,,,,,1,3363365,pdf,d460138f018e3b9b2cc096e79f004686,,,introduction to statistical signal processing,0,2000-01-01 01:00:00,2016-04-03 02:51:08,869000/d460138f018e3b9b2cc096e79f004686-d.jpg,,
6945178,A flora of northeastern Minnesota,,,,Olga Lakela,1965,Minnesota Archive Editions,University of Minnesota Press,Minneapolis,556,0,English,Plants -- Minnesota.Botanique -- Minnesota.Plants -- Minnesota,,0,,,,,,,,,,,,0,,,,,,,1,32520811,pdf,a9345ff03928a0acb888ec00af0db200,,,lakela1965 flora of northeastern minnesota,0,2000-01-01 01:00:00,2016-04-03 02:51:08,869000/a9345ff03928a0acb888ec00af0db200-g.jpg,,
6945179,Japanese folk songs,,,,with piano acc. compiled by Ryutaro Hattori ; piano acc. arr. by Teiji Miyahara and Masao Shinohara ; verses translated into English by Iwao Matsuhara,1967,6,Japan Times,Tokyo,168 p. : ill. ; 31 cm,0,Japanese-English,"Folk songs, Japanese -- Japan.Folk music -- Japan",,0,,,,,,,,,,,,0,,,,,,,1,25657316,pdf,805b0bacf92a1055e200a7d0684496f2,,,Japanese folk songs,0,2000-01-01 01:00:00,2016-04-03 02:51:08,869000/805b0bacf92a1055e200a7d0684496f2-g.jpg,,
6945180,LATEX : a document preparation system,,,,Leslie Lamport ; illustrations by Duane Bibby,1994,,Addison-Wesley,"Reading, Mass",289,0,English,LaTeX (Computer file)Computerized typesetting,,0,"0201529831,9780201529838",,,,,,,,,,,0,,,,,,,1,2977650,djvu,c4f7d8856dcc764ded5a06798c795642,,,latex  a document preparation system,0,2000-01-01 01:00:00,2016-04-03 02:51:08,869000/c4f7d8856dcc764ded5a06798c795642-d.jpg,,
6945181,Markov chains and mixing times,,,,"David A. Levin, Yuval Peres, Elizabeth L. Wilmer",2009,,American Mathematical Society,"Providence, R.I",387,0,English,Markov processes.Procesos de markov,,0,"9780821847398,0821847392",,,,,,,,,,,0,,,,,,,1,4743044,pdf,7248ec24264428bc80506c4c32bac837,,,markov chains and mixing times,0,2000-01-01 01:00:00,2016-04-03 02:51:08,869000/7248ec24264428bc80506c4c32bac837-d.jpg,,
6945182,Economics,,,,"Paul Krugman, Robin Wells",2009,2nd ed,Worth Publishers,New York,1 v. (various pagings) : col. ill. ; 29 cm,0,English,Economics.Wirtschaftstheorie.Theorie.USA.Volkswirtschaftslehre,,0,"9780716771586,0716771586,9781429238069,1429238062,9781429218269,1429218266",,,,,,,,,,,0,,,,,,,1,49255553,pdf,97a9e48132d37bd352960ca314814ba7,,,Krugman Economics 2nd edition,0,2000-01-01 01:00:00,2016-04-03 02:51:08,869000/97a9e48132d37bd352960ca314814ba7-d.jpg,,
6945183,"A neotropical companion : an introduction to the animals, plants, and ecosystems of the New World tropics",,,,"John Kricher ; illustrated by William E. Davis, Jr",1997,"2nd ed., rev. and expanded",Princeton University Press,"Princeton, N.J",423,0,English,Ecology -- Latin America.Natural history -- Latin America.Ecologie.Natuurlijke historie.Écologie -- Amérique latine.Sciences naturelles -- Amérique latine.Animaux -- Amérique latine.Plantes -- Amérique latine.Ökologie.Neotropis.Ecology -- Latin AmericaNatural history -- Latin America,,0,"0691044333,9780691044330,0691009740,9780691009742",,,,,,,,,,,0,,,,,,,0,4993493,djvu,8133ab80e6e7da767665f854a2fa0472,,,kricher1997 neotropical companion part,0,2000-01-01 01:00:00,2016-04-03 02:51:08,869000/8133ab80e6e7da767665f854a2fa0472-d.jpg,,
6945184,Linear algebra,,,,by Jim Hefferon,0,,Math Dept St. Michael's College,"Colchester, Vt",449,0,English,"Algebras, Linear -- Textbooks",,0,,,,,,,,,,,,0,,,,,,,1,2770877,pdf,6b4cb78e1d1404432134b0308c0c9eb9,,,linear algebra by jim hefferon,0,2000-01-01 01:00:00,2016-04-03 02:51:08,869000/6b4cb78e1d1404432134b0308c0c9eb9-g.jpg,,
6945185,"Mabberley's plant-book : a portable dictionary of plants, their classification and uses",,,,David J. Mabberley,2008,"3rd ed., completely rev",Cambridge University Press,"Cambridge, UK ; New York",754,0,English,"Plants -- Nomenclature.Plant names, Popular -- Dictionaries.English language -- Dictionaries -- Latin, Medieval and modern",,0,"9780521820714,0521820715",,,,,,,,,,,0,,,,,,,0,89248176,pdf,440e693a583a38ffcc8b599664345967,,,mabberley2008 plant book,0,2000-01-01 01:00:00,2016-04-03 02:51:08,869000/440e693a583a38ffcc8b599664345967-d.jpg,,
6945186,A new island biogeography of the sea of Cortés,,,,"edited by Ted. J. Case, Martin L. Cody, Exequiel Ezcurra",2002,,Oxford University Press,Oxford ; New York,690,0,English,"Island ecology -- Mexico -- California, Gulf of -- Congresses.Biogeography -- Mexico -- California, Gulf of -- Congresses.California, Gulf of (Mexico) -- Congresses.Inselbiogeographie.Naturschutz.Insel.Ökologie.Golf von Kalifornien",,0,"0195133463,9780195133462",,,,,,,,,,,0,,,,,,,1,11807403,pdf,2dc16f0a3b170182e5b7b169f395b273,,,new island biogeogr sea od cortes 2002,0,2000-01-01 01:00:00,2016-04-03 02:51:08,869000/2dc16f0a3b170182e5b7b169f395b273-g.jpg,,
6945187,The Harvard brief dictionary of music,,,,Willi Apel and Ralph T. Daniel,1966,2,Harvard University Press,"Cambridge, Mass","341 p. : illus., music. ; 19 cm",0,English,Music -- Dictionaries,,0,0-674-37501-7,,,,,,,,,,,0,,,,,,,1,17289397,djvu,37941b841cb1b186491755d4854c9fda,,,Harvard Dictionary of Music,0,2000-01-01 01:00:00,2016-04-03 02:51:08,869000/37941b841cb1b186491755d4854c9fda-g.jpg,,
6945188,Elements of classical thermodynamics for advanced students of physics,,,,by A.B. Pippard,1966,Reprint,University Press,Cambridge [Eng.],174,0,English,Thermodynamics.ThermodynamiqueThermodynamica,,0,,,,,,,,,,,,0,,,,,,,1,12261791,pdf,c99189309e88fa305733fabe3d343522,,,Elements of Classical Thermodynamics For Advanced Students of Physics,0,2000-01-01 01:00:00,2016-04-03 02:51:08,869000/c99189309e88fa305733fabe3d343522-g.jpg,,
6945189,Functional Analysis,,,,Gerald Teschl,2006,,"Fakultät für Mathematik, Universität Wien",,113,0,English,"Differential equations, Nonlinear -- Congresses.Differential equations, Hyperbolic -- Congresses.Differential equations, Partial -- Congresses",,0,,,,,,,,,Fg-VXwAACAAJ,,,0,,,,,,,1,1161176,pdf,ee52084562ae7a8f4aae5de831cfaae1,,,functional analysisauthorgerald teschl,0,2000-01-01 01:00:00,2016-04-03 02:51:08,http://bks8.books.google.ru/books?id=Fg-VXwAACAAJ&printsec=frontcover&img=1&zoom=1,,
6945190,Forecasting with exponential smoothing : the state space approach,,Springer series in statistics,,Rob J. Hyndman ... [et al.],2008,English,Springer,Berlin,"1 online resource (xiii, 359 p.) : ill",0,Document,Business forecasting.Smoothing (Statistics)BUSINESS & ECONOMICS -- Forecasting,,0,"9783540719182,3540719180,9783540719168,3540719164",,,,,,,,,,,0,,,,,,,1,3284365,pdf,889beb70f93be37f9ab531edc6317655,,,forecastingWithExponentialSmoothing TheStateSpaceApproach,0,2000-01-01 01:00:00,2016-04-03 02:51:08,869000/889beb70f93be37f9ab531edc6317655-d.jpg,,
6945191,"Inverse Problems and Imaging : Lectures given at the C.I.M.E. Summer School held in Martina Franca, Italy September 1521, 2002 00",,"Lecture Notes in Mathematics, 1943",,"by Ana Carpio, Oliver Dorn, Miguel Moscoso, Frank Natterer, George C. Papanicolaou, Maria Luisa Rap?n, Alessandro Teta ; edited by Luis L. Bonilla",2008,English,Springer Berlin Heidelberg,"Berlin, Heidelberg",1 online resource,0,Document,"Mathematics.Mathematics, general",,0,"9783540785477,3540785477",,,,,,,10.1007/978-3-540-78547-7,,,,0,,,,,,,1,8429978,pdf,bb61fd45b7b0657da6b01e46966cb742,,,inverse problems in tomography,0,2000-01-01 01:00:00,2016-04-03 02:51:08,869000/bb61fd45b7b0657da6b01e46966cb742-g.jpg,,
6945192,Japanese language insights = Naruhodo nihongo,,,,Zen Loy and Harumi Willow,1996,,Soroban Pty. Ltd,"Cammeray, N.S.W",53,0,English,Japanese language.Japan -- Civilization,,0,"0646285300,:,9780646285306",,,,,,,,,,,0,,,,,,,0,4560337,pdf,43a4b27207e48b7e0dd4efad54625580,,,Japanese language insights   naruhodo nihongo,0,2000-01-01 01:00:00,2016-04-03 02:51:08,869000/43a4b27207e48b7e0dd4efad54625580-g.jpg,,
6945193,The logic of chance : the nature and origin of biological evolution,,,,Eugene V. Koonin,2012,,Pearson Education,"Upper Saddle River, N.J",529,0,English,Evolutionary genetics.Genomes.Evolution (Biology)Evolution.Genanalyse,,0,"9780132542494,0132542498",,,,,,,,,,,0,,,,,,,1,3660365,pdf,21a3286b9ac411220460b55526d4369a,,,koonin2011 logic of chance,0,2000-01-01 01:00:00,2016-04-03 02:51:08,869000/21a3286b9ac411220460b55526d4369a-d.jpg,,
6945194,The C programming language,,,,"Brian W. Kernighan, Dennis M. Ritchie",1988,2nd ed,Prentice Hall,"Englewood Cliffs, N.J",217,0,English,C (Computer program language)Computers.Software.Linguagem De Programacao (Outras)C (Langage de programmation)C (programmeertaal)C &lt;Programmiersprache&gt;C (Computer program language).Programming languages,,0,"0131103709,9780131103702,0131103628,9780131103627",,,,,,,,,,,0,,,,,,,1,1143598,pdf,98a5e73f956560fe2108f0e7a2f72fe1,,,Kernighan Ritchie Language C,0,2000-01-01 01:00:00,2016-04-03 02:51:08,869000/98a5e73f956560fe2108f0e7a2f72fe1-d.jpg,,
6945195,Modern multidimensional scaling : theory and applications,,Springer series in statistics,,"Ingwer Borg, Patrick J.F. Groenen",2005,,Springer,New York,"1 online resource (xxi, 614 p.) : ill",0,English,"Multidimensional scaling.Multidimensional scaling -- Data processing.Psychometrics.Psychometrics -- methods.Data Interpretation, Statistical -- methods.Models, Statistical.Algorithms.Échelle multidimensionnelle.Échelle multidimensionnelle -- Informatique.Psychométrie.MATHEMATICS -- Probability & Statistics -- Multivariate Analysis",,0,"9780387289816,038728981X,0387251502,9780387251509",,,,,,,,,,,0,,,,,,,1,5463261,pdf,50b968b01a5010af8f4f6107bb3166b6,,,modernMultidimensionalScaling TheoryAndApplications E2,0,2000-01-01 01:00:00,2016-04-03 02:51:08,869000/50b968b01a5010af8f4f6107bb3166b6-d.jpg,,
6945196,Parasites and the behavior of animals,,Oxford series in ecology and evolution,,Janice Moore,2002,,Oxford University Press,Oxford ; New York,329,0,English,"Host-parasite relationships.Animal behavior.Relación huesped-parásito.Animales -- Hábitos y comportamiento.Relations hôte-parasite.Animaux -- Mœurs et comportement.Parasieten.Diergedrag.Host-Parasite Interactions.Behavior, Animal.Parasit.Parasitismus.Tiere.Verhalten.Wirt",,0,"0195084411,9780195084412,0195146530,9780195146530",,,,,,,,,,,0,,,,,,,1,21222143,pdf,f483d3d77fd74a4185304cfbd3f270b7,,,moore2002 parasites and the behavior of animals,0,2000-01-01 01:00:00,2016-04-03 02:51:08,869000/f483d3d77fd74a4185304cfbd3f270b7-g.jpg,,
6945197,INDUCTION  AND  ANALOGY  IN  MATHEMATICS  Mathematics and plausible reasoning,vol 1,,,by G. Polya,1990,1st Princeton paperback,Princeton University Press,"Princeton, N.J",2 v. : ill. ; 24 cm,0,English,"Mathematics -- Philosophy.Logic, Symbolic and mathematical",,0,"0691025096,9780691025094,069102510X,9780691025100",,,,,,,,,,,0,,,,,,,1,5419304,djvu,4aaf5ea869f3c3f76d167369dfd5ffc8,,,Polya Mathematics and Plausible Reasoning Vol 1,0,2000-01-01 01:00:00,2016-04-03 02:51:08,869000/4aaf5ea869f3c3f76d167369dfd5ffc8-g.jpg,,
6945198,Spring flora of Minnesota; including common cultivated plants,,,,,1969,,"Minneapolis, University of Minnesota Press",,"283 p. illus., maps. 23 cm",0,English,Plants -- Minnesota.Botanique -- Minnesota,,0,,,,,,,,,,,,0,,,,,,,0,2146723,djvu,0eb1e39f8bb45c0114f1c082cc023a0d,,,morley1969 spring flora mn,0,2000-01-01 01:00:00,2016-04-03 02:51:08,,,
6945199,"Edible medicinal and non-medicinal plants. / Volume 2, Fruits",,,,T. K. Lim,2012,English,Springer,Dordrecht ; New York,"1 online resource (xii, 1100 p.) : ill",0,English,"Plants, Edible.Plants, Medicinal.Medicinal plants.Botany, Medical.Life sciences.Medicine.Chemistry.Agriculture.Biodiversity.Botany.Plant Sciences.Biomedicine general.Medicine/Public Health, general.Chemistry/Food Science, general",,0,"9789400717640,9400717644",,,,,,,10.1007/978-94-007-1764-0,,,,0,,,,,,,1,27730898,pdf,d0136c2748f8947aff4aaa4ee8e05727,,,lim2012 edible plants fruits 2,0,2000-01-01 01:00:00,2016-04-03 02:51:08,869000/d0136c2748f8947aff4aaa4ee8e05727-g.jpg,,
6945200,Japanese beyond words : how to walk and talk like a native speaker,,,,,2000,,Stone Bridge Press,Berkely,176 s,0,English,Japansk sprog.Hiragana.Katakana.Kanji.Sprogbrug.Romaji.Kultur og oversættelse.National kultur.Etikette.Kommunikation.Kulturforskelle,,0,"1880656426,9781880656426",,,,,,,,,,part of books,0,,,,,,,0,28430728,pdf,83048d5588005af46cfb6307ddaebf26,,,Japanese Beyond Words2,0,2000-01-01 01:00:00,2016-04-03 02:51:08,869000/83048d5588005af46cfb6307ddaebf26-d.jpg,,
6945201,A book of five rings,,,,Miyamoto Musaschi ; translated by Victor Harris,1974,,Overlook Press,New York,"95 p. : ill., map ; 22 cm",0,English,"Military art and science -- Early works to 1800.Swordplay -- Japan -- Early works to 1800.Art et science militaires -- Ouvrages avant 1800.Kendo.Miyamoto, Musashi, -- 1584-1645.Swordplay -- Japan",,0,"0879510188,9780879510183,0517415283,9780517415283",,,,,,,,,,,0,,,,,,,1,491100,pdf,71e3f77ea4abdf2991fc4dbf61a797cf,,,Miyamoto Musashi   A Book Of Five Rings,0,2000-01-01 01:00:00,2016-04-03 02:51:08,869000/71e3f77ea4abdf2991fc4dbf61a797cf-d.jpg,,
6945202,Visual Complex Functions: An Introduction with Phase Portraits,,,,Elias Wegert,2012,,Birkhäuser,,375,0,English,Mathematics,,0,"3034801793,9783034801799",,,,,,,10.1007/978-3-0348-0180-5,,,,0,,,,0,,1,1,22888998,pdf,a3635ccc23668761f49f8728eba760af,b3314402874aa1cef48dc452dc5969b8,,Wegert - Visual Complex Functions,0,2000-01-01 01:00:00,2016-04-03 02:51:08,869000/a3635ccc23668761f49f8728eba760af-d.jpg,,
6945203,The computer music tutorial,,,,Curtis Roads ; with John Strawn ... [et al.],1996,,MIT Press,"Cambridge, Mass",1269,0,English,Computer music -- Instruction and study.Computer composition.Música -- Enseñanza asistida por computadoras.Composición (Música) -- Ciencia de la computación.Musique par ordinateur -- Étude et enseignement.Composition (Musique) par ordinateur.Son -- Traitement par ordinateur.Music -- Use of -- Computers,,0,"0262181584,9780262181587,0262680823,9780262680820",,,,,,,,,,,0,,,,,,,1,119800643,pdf,3eb43774972dc11b8194329e4fbd5597,,,The Computer Music Tutorial   by Curtis Roads,0,2000-01-01 01:00:00,2016-04-03 02:51:08,869000/3eb43774972dc11b8194329e4fbd5597-g.jpg,,
6945204,Japanese vocabulary,,,,Sumiko Uo,2008,,BarCharts,[Boca Raton],6,0,English,"Japanese language -- Vocabulary -- Outlines, syllabi, etc.Japanese language -- Outlines, syllabi, etc",,0,"9781423206330,1423206339",,,,,,,,,,,0,,,,,,,1,424535,pdf,2aa5669e3ed9c2880e32ed01a8ae0bf9,,,QuickStudy   Japanese Vocabulary,0,2000-01-01 01:00:00,2016-04-03 02:51:08,869000/2aa5669e3ed9c2880e32ed01a8ae0bf9-g.jpg,,
6945205,The physics of music and color,,,,Leon Gunther,2012,,Springer,"New York, NY","1 online resource (xxii, 540 p.) : ill. (some col.)",0,English,"Wave-motion, Theory of.Music -- Acoustics and physics.Colors.PhysicsAcousticsOptics and ElectrodynamicsEngineering Acoustics",,0,"9781461405573,1461405572",,,,,,,10.1007/978-1-4614-0557-3,,,,0,,,,,,,1,15209285,pdf,d653acc28c7804343793c73a9b5bdda3,,,"The Physics of Music and Color   L. Gunther (Springer, 2012) BBS",0,2000-01-01 01:00:00,2016-04-03 02:51:08,869000/d653acc28c7804343793c73a9b5bdda3-d.jpg,,
6945206,Systematics,,,,Ward C. Wheeler,2012,English,Wiley-Blackwell,"Chichester, West Sussex ; Hoboken, NJ",1 online resource,0,English,Biology -- Classification.Biology -- Textbooks.NATURE / ReferenceSCIENCE / Life Sciences / BiologySCIENCE / Life Sciences / General,,0,"9781118301104,1118301102",,,,,,,,,,,0,,,,,,,1,10419716,pdf,16baea59ce53a15f08c69b22e069ec56,,,wheeler2012 systematics,0,2000-01-01 01:00:00,2016-04-03 02:51:08,869000/16baea59ce53a15f08c69b22e069ec56-d.jpg,,
6945207,Minna no nihongo shokyu 1 : shokyuu de yomeru topikku 25,,,,,2000,,3A Corp,Tokyo,"65, 42 p. : ill., maps ; 26 cm",0,Japanese,"Japanese language -- Problems, exercises, etc",,0,"4883191680,9784883191680",,,,,,,,,,,0,,,,,,,0,13537432,pdf,0e004924a2f1eae7f55d1cf11826ffca,,,Minna No Nihongo Shokyuu I   Shokyuu De Yomeru Topikku 25 (Booklet),0,2000-01-01 01:00:00,2016-04-03 02:51:08,869000/0e004924a2f1eae7f55d1cf11826ffca-g.jpg,,
6945208,The Evolution of perissodactyls,,"Oxford monographs on geology and geophysics, no. 15",,"edited by Donald R. Prothero, Robert M. Schoch",1989,,"Oxford University Press, USA",,537 p. : ill. ; 26 cm,0,English,"Perissodactyla, Fossil -- Evolution.Hyracoidea, Fossil.Périssodactyles fossiles -- Évolution.Hyracoïdes fossiles.Périssodactyles.Paléontologie.Fossil mammalsHyracoidea, FossilPerissodactyla, Fossil -- Evolution",,0,"0195060393,9780195060393",,,,,,,,,,,0,,,,,,,0,7074938,djvu,afb6d85b690c0cd228a8e86ced4d0df3,,,evol perissodactyls 1989,0,2000-01-01 01:00:00,2016-04-03 02:51:08,869000/afb6d85b690c0cd228a8e86ced4d0df3-g.jpg,,
6945209,Numerical analysis for statisticians,,Statistics and computing,,Kenneth Lange,2010,2nd ed,Springer,New York,606,0,English,Numerical analysis.Mathematical statistics,,0,"9781441959447,1441959440,9781441959454,1441959459",,,,,,,10.1007/978-1-4419-5945-4,,,,0,,,,,,,1,5669011,pdf,e6eed7197ec5f748752e60c47ed15b9f,,,numericalAnalysisForStatisticians E2,0,2000-01-01 01:00:00,2016-04-03 02:51:08,869000/e6eed7197ec5f748752e60c47ed15b9f-d.jpg,,
6945210,Flora of Alaska and neighboring territories; a manual of the vascular plants,,,,Eric Hultén,1968,,"Stanford, Calif., Stanford University Press",,522,0,English,Plants -- Alaska.Plants -- Canada.Botanique -- Alaska.Botanique -- Canada,,0,"0804706433,9780804706438",,,,,,,,,,,0,,,,,,,0,60861970,djvu,99fa41f754f276d2087cc25f5202cfdc,,,hulten1968 flora of alaska,0,2000-01-01 01:00:00,2016-04-03 02:51:08,869000/99fa41f754f276d2087cc25f5202cfdc-d.jpg,,
6945211,Популяционная биология растений,,,,М. В. Марков (авт.),2012,,КМК,,392,0,Russian,Книги//Нехудожественная литература//Научная и техническая литература//Естественные науки//Биологические науки//Ботаника,,0,978-5-87317-816-2,,,,,,,,,,,0,,,,,,,0,8392941,djvu,61f16614b3f86627daabd835c77c4b43,,,markov2012 pop biol rast,0,2000-01-01 01:00:00,2016-04-03 02:51:08,869000/61f16614b3f86627daabd835c77c4b43-d.jpg,,
6945212,Measure theory and probability theory,,Springer texts in statistics,,"Krishna B. Athreya, Soumendra N. Lahiri",2006,,Springer,New York,"1 online resource (xviii, 618 p.)",0,English,"Measure theory.Probabilities.Integrals, Generalized.Probabilidade",,0,"038732903X,9780387329031,9780387354347,0387354344",,,,,,,,,,,0,,,,,,,1,4929536,pdf,220837ca67ac4d84b1f7ef238a269ff5,,,measureTheoryAndProbabilityTheory,0,2000-01-01 01:00:00,2016-04-03 02:51:08,869000/220837ca67ac4d84b1f7ef238a269ff5-d.jpg,,
6945213,The unified neutral theory of biodiversity and biogeography,,"Monographs in population biology, 32",,Stephen P. Hubbell,2001,,Princeton University Press,Princeton,390,0,English,Biodiversidad.Biodiversity.Biogeography.BiodiversitéBiogéographie.Biodiversiteit.Biogeografie.Biodiversidade.Biogeografia.Biogeographie.Biodiversität,,0,"0691021295,9780691021294,0691021287,9780691021287",,,,,,,,,,,0,,,,,,,1,4896771,pdf,cd8b7a1c94a34d3c80e01e6e32b3e960,,,hubbell2001 neutral theory bioviv biogeogr,0,2000-01-01 01:00:00,2016-04-03 02:51:08,869000/cd8b7a1c94a34d3c80e01e6e32b3e960-g.jpg,,
6945214,Trees of life : a visual history of evolution,,,,Theodore W. Pietsch,2012,,Johns Hopkins University Press,Baltimore,368,0,English,"Evolution (Biology) -- History.Evolution (Biology) -- Charts, diagrams, etc. -- History.Tree of life -- History.Naturalists -- Biography.Biologists -- Biography",,0,"9781421404790,1421404796",,,,,,,,,,,0,,,,,,,0,19703583,pdf,4bef0ef591e4735fc22f43b9c5f64397,,,pietsch2012 trees of life part,0,2000-01-01 01:00:00,2016-04-03 02:51:08,869000/4bef0ef591e4735fc22f43b9c5f64397-g.jpg,,
6945215,"Field guide to sedge species of the Rocky Mountain region : the genus Carex in Colorado, Wyoming, western South Dakota, western Nebraska, and western Kansas",,"Renewable resources, R2-RR-01-03",,Barry C. Johnston,Forest Service,English,U.S. Dept. of Agriculture,"Denver, Colo",319,0,National government publication,Carex -- Rocky Mountains Region,,0,,,,,,,,,,,,0,,,,,,,1,22955437,djvu,a9e1b62a12369fea233ff2bb532f9447,,,johnston2001 field guide sedges,0,2000-01-01 01:00:00,2016-04-03 02:51:08,869000/a9e1b62a12369fea233ff2bb532f9447-g.jpg,,
6945216,"Solutions to I.E. Irodov's problems in general physics. Volume 2, Waves, optics, modern physics",,,,Abhay Kumar Singh,1998,2nd ed,CBS Publishers,New Delhi,394 p,0,English,"Physics -- Problems, exercises, etc",,0,"812390486X,9788123904863",,,,,,,,,,,0,,,,,,,1,7794349,djvu,88223757261669faeebfe63be5a11d93,EF0D4E6675329DDF8C5E6CBDCE389C99,,phys prob irodov singh vol2,0,2000-01-01 01:00:00,2016-04-03 02:51:08,869000/88223757261669faeebfe63be5a11d93-g.jpg,,
6945217,Theory of multivariate statistics,,Springer texts in statistics,,"Martin Bilodeau, David Brenner",1999,,Springer,New York,305,0,English,Multivariate analysis.Analyse multivariée.Multivariate analyse.Análise multivariada.Multivariate Analyse,,0,"0387987398,9780387987392",,,,,,,,,,,0,,,,,,,1,1951372,pdf,1d9073169463c01183c914561e1fb2fc,,,theoryOfMultivariateStatistics,0,2000-01-01 01:00:00,2016-04-03 02:51:08,869000/1d9073169463c01183c914561e1fb2fc-d.jpg,,
6945218,Plantago : a multidisciplinary study,,"Ecological studies, v. 89",,"P.J.C. Kuiper, M. Bos, eds",1992,,Springer-Verlag,Berlin ; New York,379,0,English,Plantago.Plants -- EcologyPlantains.Écologie végétale.Plantes -- Amélioration génétique -- Recherche.Plantaginacées.WegerichPflanzenökologieAufsatzsammlungÖkologieGenetik,,0,"3540536329,9783540536321,0387536329,9780387536323",,,,,,,,,,,0,,,,,,,0,5793541,djvu,16c2720b3c03800cbc893908bd9a3340,,,plantago 1992,0,2000-01-01 01:00:00,2016-04-03 02:51:08,869000/16c2720b3c03800cbc893908bd9a3340-g.jpg,,
6945219,Flora of the Hudson Bay Lowland and its postglacial origins,,,,John Riley,2003,,NRC Research Press,Ottawa,"1 online resource (viii, 236 p.) : maps",0,English,"Botany -- Hudson Bay Region.Phytogeography -- Hudson Bay Region.Phytogeography -- Canada -- Maps.Plantes -- Hudson, Région de la baie d'Phytogéographie -- Hudson, Région de la baie d'Phytogéographie -- Canada -- Cartes.SCIENCE -- Life Sciences -- Botany",,0,"0660192594,9780660192598,9780660189413,0660189410,1280452137,9781280452130",,,,,,,,,,,0,,,,,,,1,9238417,pdf,72892d85aef860395cdb7c6127ce3c37,,,riley2003 flora of the hudson bay lowland and its postglacial origins,0,2000-01-01 01:00:00,2016-04-03 02:51:08,869000/72892d85aef860395cdb7c6127ce3c37-g.jpg,,
6945220,The vascular plants of South Dakota,,,,Theodore Van Bruggen,1976,1st ed,Iowa State University Press,Ames,253,0,English,Plants -- South Dakota -- Identification.Botanique -- Dakota du Sud,,0,"081380650X,9780813806501",,,,,,,,,,,0,,,,,,,1,5308799,djvu,818e9bc0fd6f6270f9a1ff4479562ce3,,,vanbruggen1985 vasc plants sd,0,2000-01-01 01:00:00,2016-04-03 02:51:08,869000/818e9bc0fd6f6270f9a1ff4479562ce3-g.jpg,,
6945221,The world according to wavelets,,,,Barbara Burke Hubbard,1996,,A K Peters,"Wellesley, Ma",275,0,English,Wavelets (Mathematics),,0,"1568810474,9781568810478",,,,,,,,,,,0,,,,,,,1,1507328,djvu,9380126b4ee9e9f664120bdd6eecff97,,,"Hubbard B.B. The world according to wavelets (Peters, 1997)(ISBN 1568810474)(600dpi)(T)(275s) MNw",0,2000-01-01 01:00:00,2016-04-03 02:51:08,869000/9380126b4ee9e9f664120bdd6eecff97-g.jpg,,
6945222,"Nonlinear dynamics and Chaos : with applications to physics, biology, chemistry, and engineering",,Addison-Wesley studies in nonlinearity,,Steven H. Strogatz,1994,,Addison-Wesley Pub,"Reading, Mass",,0,English,Chaotic behavior in systems.Dynamics.Nonlinear theories.Chaos.Dynamique.Théories non linéaires.Chaos (théorie des systèmes).Systèmes dynamiques,,0,"0201543443,9780201543445",,,,,,,,,,broken,0,,,,,,,,294912,djvu,60de681da275b745dd702a517bcf8072,,no,"Strogatz S.H. Nonlinear Dynamics And Chaos (Perseus, 1994)(KA)(T)(ISBN 0201543443)(505s) PNc",0,2000-01-01 01:00:00,2016-04-03 02:51:08,869000/60de681da275b745dd702a517bcf8072-g.jpg,,
6945223,Kaguya Hime,,,,by Aikiku ; illustrations by Mizu,1980,English,Rafael Barrett,"London (28, Russell Rd., W.14)",55 p. : ill. ; 26 cm,0,Fiction,"Fiction in English, 1945- - Texts",,0,,,,,,,,,,,,0,,,,,,,1,12527624,pdf,98a53e1b26d13b6789ac8386955e7c09,,,Kaguya hime,0,2000-01-01 01:00:00,2016-04-03 02:51:08,869000/98a53e1b26d13b6789ac8386955e7c09-g.jpg,,
6945224,"Kanji pict-o-graphix : over 1,000 Japanese kanji and kana mnemonics",,,,Michael Rowley,1992,,Stone Bridge Press,"Berkeley, Calif",216 p. : ill. ; 21 cm,0,English,"Chinese characters -- Japan -- Glossaries, vocabularies, etc.Japanese language -- Glossaries, vocabularies, etc.Einführung.Kanji",,0,"0962813702,9780962813702",,,,,,,,,,,0,,,,,,,0,12663295,pdf,2cffdf03f7659d3d1c9e67e5c89898a9,,,Kanji Pict o graphix,0,2000-01-01 01:00:00,2016-04-03 02:51:08,869000/2cffdf03f7659d3d1c9e67e5c89898a9-d.jpg,,
6945225,Mammalian paleofaunas of the world,,,,"Donald E. Savage, Donald E. Russell",1983,,Addison-Wesley,"Reading, Mass",228,0,English,"Mammals, Fossil.Zoogdieren.Fossielen.Paleontologie.Mammifères fossiles",,0,"0201064944,9780201064940",,,,,,,,,,,0,,,,,,,0,6865150,djvu,901010c702176870b5f9ee54b21ddf4f,,,savage1983 mamm paleofaunas,0,2000-01-01 01:00:00,2016-04-03 02:51:08,869000/901010c702176870b5f9ee54b21ddf4f-g.jpg,,
6945226,Tree flora of Indonesia : check list for Sulawesi,,,,"compiled by K. Sidiyasa ... [et al.] ; edited by T.C. Whitmore, I G.M. Tantra and U. Sutisna",1989,English,Ministry of Forestry,Bogor,108,0,English,Trees -- Indonesia -- Celebes.Trees -- Indonesia -- Celebes -- Indexes.Arbres à fleurs -- Indonésie -- Célèbres -- Index,,0,,,,,,,,,,,,0,,,,,,,0,1364951,djvu,cb0f9389c1006e6cbdcb5aabc4c2d57f,,,tree flora sulawesi 1989,0,2000-01-01 01:00:00,2016-04-03 02:51:08,869000/cb0f9389c1006e6cbdcb5aabc4c2d57f-g.jpg,,
6945227,Arabic phrases for dummies,,For dummies,,by Amine Bouchentouf,2009,,Wiley,,220,0,English,Arabic language -- Conversation and phrase books -- English,,0,"9780470225233,0470225238,9780470378427,0470378425",,,,,,,,,,,0,,,,,,,1,3626760,pdf,9819c5a6319e255a654725adf19d58cb,,,UZ Arabic Phrases Dummies,0,2000-01-01 01:00:00,2016-04-03 02:51:08,869000/9819c5a6319e255a654725adf19d58cb-d.jpg,,
6945228,"Nonlinear dynamics and Chaos : with applications to physics, biology, chemistry, and engineering",,Addison-Wesley studies in nonlinearity,,Steven H. Strogatz,1994,,Addison-Wesley Pub,"Reading, Mass",,0,English,Chaotic behavior in systems.Dynamics.Nonlinear theories.Chaos.Dynamique.Théories non linéaires.Chaos (théorie des systèmes).Systèmes dynamiques,,0,"0201543443,9780201543445",,,,,,,,,,broken,0,,,,,,,,294914,djvu,2ab5661a0e27b92ffa3b0c79da500f35,,no,"(Addison-Wesley_studies_in_nonlinearity)Steven_H._Strogatz-Nonlinear_dynamics_and_Chaos___with_applications_to_physics,_biology,_chemistry,_and_engineering-Addison-Wesley_Pub(1994)",0,2000-01-01 01:00:00,2016-04-03 02:51:08,869000/2ab5661a0e27b92ffa3b0c79da500f35-g.jpg,,
6945229,MIL Mi-24 Hind,,"Combat aircraft series, 14",,Mike Spick,1988,,Osprey,London,48 p. : ill. (some col.) ; 25 cm,0,English,MIL Mi-24 Hind (Helicopter)Military helicopters.MIL Mi-24 Hind helicopters,,0,"0850458315,9780850458312",,,,,,,,,,,0,,,,,,,0,16855353,pdf,a9fcd40046ec6b4283369577555fe788,,,0-85045-831-5,0,2000-01-01 01:00:00,2016-04-03 02:51:08,869000/a9fcd40046ec6b4283369577555fe788-g.jpg,,
6945230,Тензорная тригонометрия : теория и прил,,,,"Нинул, Анатолий Сергеевич",2004,,Мир,Москва,335 с,0,Russian,"Тригонометрия, Физико - математические науки -- Математика -- Геометрия и топология -- Геометрия -- Векторное и тензорное исчисление -- Тензорное исчисление, Физико - математические науки -- Математика -- Геометрия и топология -- Геометрия -- Тригонометрия",,0,5-03-003717-9,,,517/501,,,,,,,,0,,,,,,,1,2649647,pdf,cf9fb38520e3f786e6534815a6cac218,,,5-03-003717-9,0,2000-01-01 01:00:00,2016-04-03 02:51:08,869000/cf9fb38520e3f786e6534815a6cac218-g.jpg,,
6945231,Palimpsestes,,,,Gérard Genette,1982,SEUIL,Seuil,Madrid,467,0,Français,Narratology,,0,"2020061163,9782020061162",,,,,,,,,,On intertextuality,0,,,,,,,1,23722939,pdf,dd1cb699c1475eac2ab3671d5557a555,,,Gerard-Genette-Palimpsestos,0,2000-01-01 01:00:00,2016-04-03 02:51:08,http://ecx.images-amazon.com/images/I/31379GBE9TL.jpg,,
6945232,Между физикой и метафизикой. Книга 4. Вслед за Лейбницем и Махом,,Наука в СССР. Через тернии к звездам,,Ю. С. Владимиров (Авт.),2012,,Либроком,,274,0,Russian,Книги//Нехудожественная литература//Научная и техническая литература//Естественные науки//Физико-математические науки//Физика//Общие работы по физике,,0,978-5-397-02919-3,,,,,,,,,,,0,,,,,,,0,17290966,djvu,1f0a205e550eb7b413a965a15819c886,,,Владимиров Ю. C. - Между физикой и метафизикой. Кн. 4. Вслед за Лейбницем и Махом,0,2000-01-01 01:00:00,2016-04-03 02:51:08,869000/1f0a205e550eb7b413a965a15819c886-d.jpg,,
6945233,中・上級者のための速読の日本語 = Rapid reading Japanese Answers,,,,Miura Akira ; Oka Mayumi,1998,,The Japan Times,"The Japan Times, [Tōkyō]",176 p. ; 26 cm. + 20p(22 cm),0,Japanese,Nihongo,,0,"4789009157,9784789009157",,,,,,,,,,,0,,,,,,,0,13485813,pdf,0f0af5b7b136509fd03edfee60f6bd46,,,Rapid Reading Japanese Answers,0,2000-01-01 01:00:00,2016-04-03 02:51:08,869000/0f0af5b7b136509fd03edfee60f6bd46-g.jpg,,
6945234,"Five more golden rules : knots, codes, chaos, and other great theories of 20th century mathematics",,,,John L. Casti,2000,,John Wiley,New York,"1 online resource (iv, 268 p.) : ill",0,English,Mathematics -- Popular works.MATHEMATICS -- Pre-Calculus.MATHEMATICS -- Reference.MATHEMATICS -- Essays.Electronic books,,0,"0471437891,9780471437895",,,,,,,,,,,0,,,,,,,,2116617,rar,a97c00557687ed0a2c0676e191870da1,,,"Five More Golden Rules  Knots, Codes, Chaos, and Other Great Theories of 20th Century Mathematics 0471395285",0,2000-01-01 01:00:00,2016-04-03 02:51:08,,,
6945235,Tundra to tropics : the floristic plant geography of North America,,"Sida, botanical miscellany, no. 30",,Steven P. McLaughlin,2007,,Botanical Research Institute of Texas,"Fort Worth, Tex., USA",34,0,English,Phytogeography -- North America.Botany -- North America.Phytogéographie -- Amérique du Nord.Phytogéographie -- Cartes -- Amérique du Nord.Plantes -- Amérique du Nord,,0,,,,,,,,,,,,0,,,,,,,0,1140536,djvu,3331855c6f2bf378d30eab910e5410ec,,,mclaughin2007 floristic geogr na,0,2000-01-01 01:00:00,2016-04-03 02:51:08,869000/3331855c6f2bf378d30eab910e5410ec-g.jpg,,
6945236,"Edible medicinal and non-medicinal plants. / Volume 3, Fruits",,,,T.K. Lim,2012,,Springer,Dordrecht ; New York,916,0,English,"Medicinal plants.Botany, Medical",,0,"9789048186617,9048186617,9789400717640,9400717644,9789400725348,9400725345",,,,,,,10.1007/978-94-007-2534-8,,,,0,,,,,,,1,24376886,pdf,ee0d908e074388a148c4e6b428577294,,,lim2012 edible plants fruits 3,0,2000-01-01 01:00:00,2016-04-03 02:51:08,869000/ee0d908e074388a148c4e6b428577294-d.jpg,,
6945237,Flora of the prairies and plains of central North America,,,,Rydberg А,1932,,"New York, Published for the New York Botanical Garden by Hafner Pub. Co., 1965",,489,0,English,Botany -- North America.Pteridophyta.Phanerogams.Plantes -- Amérique du Nord.Ptéridophytes.Phanérogames.Botany -- North AmericaPhanerogamsPteridophyta,,0,,,,,,,,,,,,0,,,,,,,1,19171187,djvu,57e61e94f0b53737ba17d034b73d8205,,,rydberg1932 flora prairies plains central na,0,2000-01-01 01:00:00,2016-04-03 02:51:08,869000/57e61e94f0b53737ba17d034b73d8205-g.jpg,,
6945238,Universal languages and scientific taxonomy in the seventeenth century,,,,M.M. Slaughter,1982,,Cambridge University Press,Cambridge [Cambridgeshire] ; New York,144,0,English,"Language, Universal -- History -- 17th century.Classification of sciences -- History -- 17th century.Biology -- Classification -- History -- 17th century.Langue universelle -- Histoire.Classification des sciences -- Histoire.Biologie -- Classification -- Histoire.Wereldtalen.Kunsttalen.Taxonomie.Biology -- classification.History, 17th Century.Language.Science -- classification.Universalsprache.Welthilfssprache.Sciences naturelles -- Classification -- Histoire.Geschichte -- 1600-1700",,0,"0521244773,9780521244770,9780521135443,),0521135443,((pbk.)",,,,,,,,,,,0,,,,,,,0,2242035,djvu,fc2d0054a5b8a4a907705700d4cc4a3c,,,slaughter1982 universal languages and taxonomy,0,2000-01-01 01:00:00,2016-04-03 02:51:08,869000/fc2d0054a5b8a4a907705700d4cc4a3c-d.jpg,,
6945239,Willows and poplars of Great Britain and Ireland,,"B.S.B.I. handbook, no. 4",,R.D. Meikle,1984,,Botanical Society of the British Isles,London,198 p. : ill. ; 18 cm,0,English,"Willows -- Great Britain -- Handbooks, manuals, etc.Willows -- Ireland -- Handbooks, manuals, etc.Poplar -- Great Britain -- Handbooks, manuals, etc.Poplar -- Ireland -- Handbooks, manuals, etc.Wilgen (bomen)Populieren",,0,"0901158070,9780901158079",,,,,,,,,,,0,,,,,,,0,3161650,djvu,cdaacbcdf0a58d86bfbafe28c2c61f71,,,meikle1984 willows poplars britain,0,2000-01-01 01:00:00,2016-04-03 02:51:08,869000/cdaacbcdf0a58d86bfbafe28c2c61f71-g.jpg,,
6945240,日语同义词词典 /Ri yu tong yi ci ci dian,,,,"Wang Xinchao, Zhang Baohua, Wang Yuning bian zhu",1991,Di 1 ban,Jilin ren min chu ban she,"吉林人民出版社, Changchun Shi","18, 577 p. ; 20 cm",0,Chinese,Japanese language -- Synonyms and antonyms -- Dictionaries -- Chinese,,0,"720600931X,9787206009310",,,,,,,,,,,0,,,,,,,0,15247836,pdf,e189d764d71dd439ba019048ac363d4a,,,Sinonims,0,2000-01-01 01:00:00,2016-04-03 02:51:08,869000/e189d764d71dd439ba019048ac363d4a-g.jpg,,
6945241,"Processus stochastiques : Processus de poisson, chaînes de Markov et martingales",,,,"Dominique Foata, Aimé Fuchs",2004,,Dunod,,253,0,Français,Mathematics,,0,"2100488503,9782100488506",,,,,,,,,,,600,,,,,1,,1,4598147,djvu,a6e4ee2b6f16bd99dfa17768cdcd2890,,,"Foata, Fuchs - Processus Stochastiques",0,2000-01-01 01:00:00,2016-04-03 02:51:08,869000/a6e4ee2b6f16bd99dfa17768cdcd2890-d.jpg,,
6945242,The Essentials of Statistics: A Tool for Social Research,,,,Joseph  F. Healey,2012,3,Wadsworth Publishing,,483,0,English,Mathematics,,0,"111182956X,9781111829568",,,,,,,,,,,0,,,,1,,1,1,27193099,pdf,54a532d69c53221d1818b71bc21ebd66,,,The.Essentials.of.Statistics.3E,0,2000-01-01 01:00:00,2016-04-03 02:51:08,869000/54a532d69c53221d1818b71bc21ebd66-d.jpg,,
6945243,Large Scale Geometry,,EMS Textbooks in Mathematics,,"Piotr W. Nowak, Guoliang Yu",2012,,European Mathematical Society,,203,0,English,Mathematics,,0,"3037191120,9783037191125",,,,,,,,,,,0,,,,1,,1,1,1836500,pdf,9b876f4f0b4b87068c835ae3ae1b617f,,,9783037191125-01,0,2000-01-01 01:00:00,2016-04-03 02:51:08,869000/9b876f4f0b4b87068c835ae3ae1b617f-d.jpg,,
6945244,Classical Mechanics with Mathematica®,,"Modeling and Simulation in Science, Engineering and Technology",,Antonio Romano,2012,,Birkhäuser,,523,0,English,Mathematics,,0,"0817683518,9780817683511",,,,,,,10.1007/978-0-8176-8352-8,,,"\Part II\"" pages are double.""",0,,,,0,,1,1,9724683,pdf,c2bbda0f25656a9ea84908f4503123ab,22dbe4aa8c2d8b0577ab64c0c12715a2,,Mechanics Mathematica,0,2000-01-01 01:00:00,2016-04-03 02:51:08,869000/c2bbda0f25656a9ea84908f4503123ab-d.jpg,,
6945245,Διδυμότειχο μια άγνωστη πρωτεύουσα,,,,Αθανάσιος Ι. Γουρίδης,2009,,Δήμος Διδυμοτείχου,,265,0,Greek,history of Didymoteicho,,0,978-960-86488-1-4,,,,,,,,,,,0,,,,,1,0,0,166696318,pdf,275288fd5825f28dee32a459f8bc3521,,,2008_Athanasios_Gouridis_Didymoteicho_mia_agnwsth_prwteyousa,0,2000-01-01 01:00:00,2016-04-03 02:51:08,869000/275288fd5825f28dee32a459f8bc3521-g.jpg,,
6945246,Continuum Mechanics: Constitutive Modeling of Structural and Biological Materials,,,,"Franco M. Capaldi, Merrimack College",2012,,Cambridge University Press,Cambridge,360,0,English,Continuum mechanics.SCIENCE / Mechanics / Dynamics / Fluid Dynamics,,0,"9781107011816,1107011817",,,,,,,,,,,0,,,,,,,1,7313052,pdf,5757c7f0acb476198160ba5d05284cbb,,,Continuum mechanics  constitutive modeling of structural and biological materials,0,2000-01-01 01:00:00,2016-04-03 02:51:08,http://pixhost.me/avaxhome/9b/cb/0023cb9b.jpeg,,
6945247,Analysis of numerical differential equations and finite element method,,,,"Jenna Brandenburg, Lashaun Clemmons",2012,,College Publishing House,Delhi,1 online resource : ill. (some col.),0,English,Differential equations -- Numerical solutions.Finite element method.MATHEMATICS / Differential Equations / General,,0,"9788132313625,8132313623",,,,,,,,,,,0,,,,,,,1,3119759,pdf,cf11beacc2b84edb64e8a16e820071e4,,,Analysis of Numerical Differential equations and finite element method,0,2000-01-01 01:00:00,2016-04-03 02:51:08,869000/cf11beacc2b84edb64e8a16e820071e4-g.jpg,,
6945248,Continuum and solid mechanics : concepts and applications,,,,"Victor Quinn, Andrew Stubblefield",2012,English,Academic Studio,Delhi,1 online resource (1 v. (unpaged)) : col. ill,0,Document,Continuum mechanics.SCIENCE / Mechanics / GeneralSCIENCE / Mechanics / Solids,,0,"9788132308546,8132308549",,,,,,,,,,,0,,,,,,,1,3175491,pdf,90a0c7fdc36ad60e3a3b1ffbeca392ad,,,Continuum and solid mechanics,0,2000-01-01 01:00:00,2016-04-03 02:51:08,869000/90a0c7fdc36ad60e3a3b1ffbeca392ad-g.jpg,,
6945249,Continuum Mechanics in the Earth Sciences,,,,William I. Newman,2012,,Cambridge University Press,Cambridge ; New York,196,0,English,Continuum mechanics.Geophysics -- Mathematics.Planetary theory -- Mathematics.Geology -- Mathematics,,0,"9780521562898,0521562899",,,,,,,,,,,0,,,,,,,1,1607151,pdf,5f921227328ea63605b549d2811276a8,,,CONTINUUM MECHANICS IN THE EARTH SCIENCE,0,2000-01-01 01:00:00,2016-04-03 02:51:08,http://pixhost.me/avaxhome/d7/cb/0023cbd7.jpeg,,
6945250,Craig&#039;s soil mechanics,,,,J. A. Knappett and R. F. Craig,2012,8th ed,Spon Press,"Abingdon, Oxon ; New York",570,0,English,Soil mechanics,,0,"9780415561259,0415561256,9780415561266,0415561264,9780203865248,0203865243",,,,,,,,,,,0,,,,,,,1,23299978,pdf,54ea83e4f41155a5ac600d01e09e7079,,,CraigЎЇs Soil Mechanics,0,2000-01-01 01:00:00,2016-04-03 02:51:08,,,
6945251,Computational materials science : the simulation of materials microstructures and properties,,,,Dierk Raabe,1998,,Wiley-VCH,Weinheim ; New York,402,0,English,"Micromechanics -- Mathematical models.Materials science -- Simulation methods.Microstructure -- Mathematical models.Materiaalkunde.Computational chemistry.Simulatiemodellen.Moleculaire dynamica.Microstructuur.Science des matériaux -- Simulation, Méthodes de.Micromécanique -- Simulation, Méthodes de.Microstructure (Physique) -- Modèles mathématiques.Mikrostruktur.Werkstoffforschung.Numerisches Verfahren.Stoffeigenschaft",,0,"3527295410,9783527295418",,,,,,,,,,,0,,,,,,,1,2655474,pdf,2b32984480940b41bc3c4455f0b1974b,51f176857cfe4a42c40da0b506418cea,,DierkRaabe Computationalmaterialssciencethesimulationofmaterialsmicrostructuresandproperties,0,2000-01-01 01:00:00,2016-04-03 02:51:08,869000/2b32984480940b41bc3c4455f0b1974b-d.jpg,,
6945252,Elements and analysis of partial differential equations,,,,Harriet Tindall,2012,,Research World,Delhi,1 online resource (1 v. (unpaged)),0,English,"Differential equations, Partial.MATHEMATICS / Differential Equations / Partial",,0,"9788132334446,8132334442",,,,,,,,,,,0,,,,,,,1,2600159,pdf,431cea094305aa4b45bfb29b64327561,,,Elements and analysis of partial differential equations,0,2000-01-01 01:00:00,2016-04-03 02:51:08,869000/431cea094305aa4b45bfb29b64327561-g.jpg,,
6945253,Finite Elements: Computational Engineering Sciences,,,,A.J. Baker,2012,,Wiley,"Chichester, West Sussex",289,0,English,Finite element method,,0,"9781119940500,1119940508",,,,,,,,,,,0,,,,,,,1,5644593,pdf,afb8d8f23826067c0f133d1ddce2fa6e,,,Finite elements computational engineering sciences,0,2000-01-01 01:00:00,2016-04-03 02:51:08,http://pixhost.me/avaxhome/8a/cb/0023cb8a.jpeg,,
6945254,Experimental Mechanics of Solids,,,,"C.A. Sciammarella, F.M. Sciammarella",2012,English,John Wiley & Sons,"Hoboken, NJ","1 online resource (xvi, 743 p.) ill",0,Document,Strength of materials.Solids -- Mechanical properties.Structural analysis (Engineering)TECHNOLOGY & ENGINEERING / Material Science,,0,"9781119994091,1119994098,9781119994084,111999408X,0470689536,9780470689530",,,,,,,,,,,0,,,,,,,1,12765966,pdf,c85d85efaebfc6fd171b7ce7602cda33,,,Experimental Mechanics of Solids,0,2000-01-01 01:00:00,2016-04-03 02:51:08,http://pixhost.me/avaxhome/60/cb/0023cb60.jpeg,,
6945255,Mechanics of Paper Products,,De Gruyter graduate,,edited by Kaarlo Niskanen,2012,,De Gruyter,Berlin ; Boston,272,0,English,Paper -- Mechanical properties.Paper products,,0,"9783110254617,3110254611",,,,,,,,,,,0,,,,,,,1,7507856,pdf,802a8742f2037ce1d9bb9de2e218ac1e,,,Mechanics of Paper Products,0,2000-01-01 01:00:00,2016-04-03 02:51:08,http://pixhost.me/avaxhome/85/cb/0023cb85.jpeg,,
6945256,"Nonlinear Finite Element Analysis of Solids and Structures, 2nd edition",,Wiley series in computational mechanics,,"René De Borst, Mike Crisfield, Joris Remmers and Clemens Verhoosel",2012,2nd Edition,Wiley,"Chichester, West Sussex, U.K",542,0,English,Structural analysis (Engineering) -- Data processing.Finite element method -- Data processing.TECHNOLOGY & ENGINEERING -- Drafting & Mechanical Drawing,,0,"9781118375990,1118375998,9781118376003,1118376005,9781118376010,1118376013,9781118375938,1118375939",,,,,,,,,,,0,,,,0,0,1,1,9396533,pdf,e53a1c26c1752b080971b478109611ee,,,Non-linear Finite Element Analysisof solids and structures 2nd,0,2000-01-01 01:00:00,2016-04-03 02:51:08,http://pixhost.me/avaxhome/6a/cb/0023cb6a.jpeg,,
6945257,Nonlinear Solid Mechanics: Bifurcation Theory and Material Instability,,,,"Davide Bigoni, University of Trento",2012,,Cambridge University Press,Cambridge,550,0,English,Nonlinear mechanics.Materials -- Mechanical properties.Elastic analysis (Engineering)Bifurcation theory.SCIENCE / Mechanics / Dynamics / Fluid Dynamics,,0,"9781107025417,1107025419",,,,,,,,,,,0,,,,,,,1,21267402,pdf,e78c1f00c64e0ecf2261537501d14e6f,,,Nonlinear solid mechanics  bifurcation theory and material instability,0,2000-01-01 01:00:00,2016-04-03 02:51:08,http://pixhost.me/avaxhome/5e/cb/0023cb5e.jpeg,,
6945258,"Polymer thermodynamics : blends, copolymers and reversible polymerization",,,,Kal Renganathan Sharma,2012,,CRC Press,Boca Raton,364,0,English,Polymers.Copolymers.Thermodynamics,,0,"9781439826393,1439826390",,,,,,,,,,Index missiing,0,,,,,,,1,18875217,pdf,607592780dcaf3c6492f0bf9bce931f1,,,Polymer Thermodynamics blends copolymers and Reversible Polymerization,0,2000-01-01 01:00:00,2016-04-03 02:51:08,http://pixhost.me/avaxhome/5a/cb/0023cb5a.jpeg,,
6945259,Simplified Mechanics & Strength of Materials for Architects and Builders,,Parker-Ambrose series of simplified design guides,,James Ambrose ; based on the work of the late Harry Parker,2002,6th ed,J. Wiley,"New York, NY",432,0,English,"Mechanics, Applied.Strength of materials.Mécanique appliquée.Résistance des matériaux.Strukturmechanik",,0,"0471400521,9780471400523",,,,,,,,,,,0,,,,,,,1,2647867,pdf,a7e4788364508645ac32621dff5348fb,,,Simplied Mechanics and Strength of Materials 5th,0,2000-01-01 01:00:00,2016-04-03 02:51:08,http://pixhost.me/avaxhome/58/cb/0023cb58.jpeg,,
6945260,"The Finite Element Method in Engineering, Fifth Edition",,,,Singiresu S. Rao,2011,5th ed,Elsevier/Butterworth Heinemann,"Amsterdam ; Boston, MA",727,0,English,Finite element method.Engineering mathematics,,0,"9781856176613,1856176614",,,,,,,,,,,0,,,,,,,1,31334902,pdf,5017afe2013890c54e7b46317cb53e6a,,,The Finite Element Method in Engineering 5th,0,2000-01-01 01:00:00,2016-04-03 02:51:08,http://pixhost.me/avaxhome/55/cb/0023cb55.jpeg,,
6945261,Worked Examples in Nonlinear Continuum Mechanics for Finite Element Analysis,,,,"Javier Bonet, Antonio J. Gil, Richard D. Wood",2012,English,Cambridge University Press,Cambridge,1 online resource,0,Document,Continuum mechanics.Finite element method.SCIENCE -- Mechanics -- Dynamics -- Fluid Dynamics.SCIENCE -- Mechanics -- General.SCIENCE -- Mechanics -- Solids,,0,"9781139550147,1139550144,9781139088046,1139088041",,,,,,,,,,,0,,,,,,,1,1598375,pdf,10f87b19b5d200eb180dd1bc1495ba96,,,WORKED EXAMPLES IN NONLINEAR CONTINUUM MECHANICS FOR FINITE ELEMENT ANALYSIS,0,2000-01-01 01:00:00,2016-04-03 02:51:08,http://pixhost.me/avaxhome/52/cb/0023cb52.jpeg,,
6945262,Οθωμανικά λουτρά στον Ελλαδικό χώρο,,,,Ελένη Κανετάκη,2004,,Τεχνικό Επιμελητήριο Ελλάδος,,391,0,Greek,ottoman baths (hamams) in greece,,0,960-8369-04-5,,,,,,,,,,,0,,,,,1,0,0,170010947,pdf,34447c5df1b2d07b9984fa4e87fbf76b,,,eleni_katetaki_2004_othomanika_loutra_ellada,0,2000-01-01 01:00:00,2016-04-03 02:51:08,869000/34447c5df1b2d07b9984fa4e87fbf76b-g.jpg,,
6945263,The Stars Will Fall From Heaven: 'Cosmic Catastrophe' in the New Testament and its World,,,,Edward Adams,2007,1,T&T Clark,,314,0,English,Biblical Studies,,0,978-0567089120,,,,,,,,,,,0,,,,,,,1,10583274,pdf,4428f9984d6142fec400b5ef3db0bd2a,,,AdamsTheStarsWillFall,0,2000-01-01 01:00:00,2016-04-03 02:51:08,869000/4428f9984d6142fec400b5ef3db0bd2a-g.jpg,,
6945264,The Taurobolium: Its Evolution and Terminology,,,,Robert Duthoy,1969,,Brill,,140,0,English,Religious Studies,,0,,,B0006E04JW,,,,,,,,,0,,,,,,,1,3830657,pdf,6eb11ae23410678349bb89fd1522d21a,,,DuthoytauroboliumNew,0,2000-01-01 01:00:00,2016-04-03 02:51:08,869000/6eb11ae23410678349bb89fd1522d21a-g.jpg,,
6945265,Между физикой и метафизикой. Книга 4. Вслед за Лейбницем и Махом,,Наука в СССР. Через тернии к звездам,,Ю. С. Владимиров (Авт.),2012,,Либроком,,274,0,Russian,Книги//Нехудожественная литература//Научная и техническая литература//Естественные науки//Физико-математические науки//Физика//Общие работы по физике,,0,978-5-397-02919-3,,,,,,,,,,,0,,,,,,,0,44068909,pdf,046299cd9f320acc45ee9a946f453ebf,,,Владимиров Ю. C. - Между физикой и метафизикой. Кн. 4. Вслед за Лейбницем и Махом,0,2000-01-01 01:00:00,2016-04-03 02:51:08,869000/046299cd9f320acc45ee9a946f453ebf-d.jpg,,
6945266,Let's cook,,,,Dr. Oetker ; [translated by Annette Englander],1992,English,Sterling Pub. Co,New York,48 p. : col. ill. ; 27 cm,0,Juvenile audience,Cooking -- Juvenile literature.Cooking.Cookery,,0,"0806985321,9780806985329",,,,,,,,,,,0,,,,,,,0,30859706,pdf,bb3f80b99860428fe029a34574bb3703,,,0-8069-8532-1,0,2000-01-01 01:00:00,2016-04-03 02:51:08,869000/bb3f80b99860428fe029a34574bb3703-g.jpg,,
6945267,F/A-18 Hornet,,Combat aircraft series,,Lindsay Peacock,1986,,Osprey,London,"48 p. : ill. (some col.), photos ; 25 cm",0,English,Hornet (Jet fighter plane) -- History,,0,"0850457076,9780850457070",,,,,,,,,,,0,,,,,,,0,4240409,pdf,e8757bf3b8c1abfafb3a1ecaee499533,,,0-85045-707-6,0,2000-01-01 01:00:00,2016-04-03 02:51:08,869000/e8757bf3b8c1abfafb3a1ecaee499533-g.jpg,,
6945268,Panzerkampfwagen Skoda 35 (t),,Schiffer military history,,Horst Scheibert,1994,,Schiffer Military/Aviation History,"Atglen, PA",47 p. : ill. ; 21 cm,0,English,Tanks (Military science) -- Germany -- Pictorial works,,0,"0887406785,9780887406782",,,,,,,,,,,0,,,,,,,0,27925003,pdf,71ed743b3bcae9d71f316f330df384dc,,,0-88740-678-5,0,2000-01-01 01:00:00,2016-04-03 02:51:08,869000/71ed743b3bcae9d71f316f330df384dc-g.jpg,,
6945269,Creative collage techniques,,,,Nita Leland and Virginia Lee Williams,1994,1st ed,North Light Books,"Cincinnati, Ohio",134 p. : ill. (some col.) ; 29 cm,0,English,Collage -- Technique.Collage -- Technique,,0,"0891345639,9780891345633",,,,,,,,,,,0,,,,,,,0,54761506,pdf,706b75105eef2f7c5f9a456905cf818e,,,0-89134-563-9,0,2000-01-01 01:00:00,2016-04-03 02:51:08,869000/706b75105eef2f7c5f9a456905cf818e-g.jpg,,
6945270,Vulcan,,"Aeroguide series, 6",,"[written, designed and produced by Roger Chesneau and Ray Rimell]",1984,,Linewrights,Essex,32 p. : ill. ; 30 cm,0,English,Vulcan (Jet bomber),,0,"094695805X,9780946958054",,,,,,,,,,,0,,,,,,,0,19102737,pdf,39211499ae22ae9574c55d6e267739cc,,,0-946958-05-X,0,2000-01-01 01:00:00,2016-04-03 02:51:08,869000/39211499ae22ae9574c55d6e267739cc-g.jpg,,
6945271,Metal Spining,,Machinery's reference series 57,,,1910,,The Industrial Press,New York City,38,0,English,Machinery,,0,,,,,,,,,,,,0,,,,,,,0,669230,djvu,4ca3e0cfefc2183c2e70b85859dd5fb4,,,1-55918-137-X,0,2000-01-01 01:00:00,2016-04-03 02:51:08,,,
6945272,Panzerwaffe 1945. Vol. 3,,"Tank Power - Militaria, vol. 19",,Maksym Kołomyjec,2005,,Militaria,Warszawa,76,0,Polish,Niemcy. -- Wehrmacht -- wojska pancerne.Wojna światowa (1939-1945) -- wojna pancerna,,0,"8372192367,9788372192363",,,,,,,,,,,0,,,,,,,0,53515062,pdf,31541980fe02b065842953a409ea27bb,,,83-7219-236-7,0,2000-01-01 01:00:00,2016-04-03 02:51:08,869000/31541980fe02b065842953a409ea27bb-g.jpg,,
6945273,"Культивируемые беспозвоночные. Пищевые беспозвоночные: мидии, устрицы, гребешки, раки, креветки",,,,"Супрунович, Александр Васильевич;Макаров, Юрий Николаевич;авт",1990,,Наук. думка,Киев,"261,[2] с",0,Russian,"Беспозвоночные морские - Биология, Беспозвоночные морские - Разведение",,0,5-12-001611-1,,,639.4/.6,,,,,,,,0,,,,,,,1,9876917,pdf,4b49d4c359bd3175325a7d5cf5e659db,,,5-12-001611-1,0,2000-01-01 01:00:00,2016-04-03 02:51:08,869000/4b49d4c359bd3175325a7d5cf5e659db-g.jpg,,
6945274,Общетехнический справочник,,"Серия \В помощь технологу-машиностроителю\""; Вып. 1""",,"Серебреницкий, Павел Павлович",2004,,Политехника,СПб,"443, [1] с",0,Russian,Техника и технические науки,,0,5-7325-0797-3,,,621.95,,,,,,,,0,,,,,,,0,30034868,pdf,8df985065b2257dbdfadb196e2c6b51a,,,5-7325-0797-3,0,2000-01-01 01:00:00,2016-04-03 02:51:08,869000/8df985065b2257dbdfadb196e2c6b51a-g.jpg,,
6945275,Основы конструирования. В двух книгах. Книга 1,,,,П. И. Орлов (Авт.),1988,,Машиностроение,,560,0,Russian,Книги//Нехудожественная литература//Научная и техническая литература//Техника. Технические науки//Промышленность//Машиностроение. Приборостроение,,0,"5-217-00221-2, 5-217-00222-0",,,,,,,,,,,0,,,,,,,0,13772663,djvu,afe7c9b54c6709d9a760461d39aa2c2a,,,5-217-00222-0,0,2000-01-01 01:00:00,2016-04-03 02:51:08,869000/afe7c9b54c6709d9a760461d39aa2c2a-d.jpg,,
6945276,Основы конструирования. В двух книгах. Книга 2,,,,П. И. Орлов (Авт.),1988,,Машиностроение,,544,0,Russian,Книги//Нехудожественная литература//Научная и техническая литература//Техника. Технические науки//Промышленность//Машиностроение. Приборостроение,,0,"5-217-00221-2, 5-217-00223-9",,,,,,,,,,,0,,,,,,,0,16029973,djvu,333c689432bb5f69ba3f11cbc769adb1,,,5-217-00223-9,0,2000-01-01 01:00:00,2016-04-03 02:51:08,869000/333c689432bb5f69ba3f11cbc769adb1-d.jpg,,
6945277,F-8 Crusader units of the Vietnam War,,"Osprey combat aircraft, 7",,Peter Mersky,1998,,Osprey,London,"112 p. : ill. (some col.), maps, ports. ; 25 cm",0,English,"Crusader (Jet fighter plane)Fighter planes -- United States.United States. -- Navy -- Aviation -- History.United States. -- Marine Corps -- Aviation -- History.Vietnam War, 1961-1975 -- Aerial operations, American.United States. -- Air Force -- History.Crusader (Jet fighter plane) -- History",,0,"1855327244,9781855327245",,,,,,,,,,,0,,,,,,,0,33310121,pdf,0b39dba69b962730a046700ec13c7157,,,1-83532-724-4,0,2000-01-01 01:00:00,2016-04-03 02:51:08,869000/0b39dba69b962730a046700ec13c7157-d.jpg,,
6945278,B-17 Flying Fortress units of the Eighth Air Force. gPart 1,,"Osprey combat aircraft, 18",,Martin Bowman,2000,,Osprey,Oxford,"112 p. : ill. (some col.), ports. ; 25 cm",0,English,"United States. -- Army Air Forces. -- Air Force, 8th -- History.B-17 bomber -- History.B-17 bomber -- Pictorial works.World War, 1939-1945 -- Aerial operations, American.World War, 1939-1945 -- Personal narratives, American",,0,"1841760218,9781841760216",,,,,,,,,,,0,,,,,,,0,25177147,pdf,56f937c2dcc3fa8a8bca8c68930d60a3,,,1-84176-021-8,0,2000-01-01 01:00:00,2016-04-03 02:51:08,869000/56f937c2dcc3fa8a8bca8c68930d60a3-d.jpg,,
6945279,Sunderland squadrons of World War 2,,"Osprey combat aircraft series, 19",,Jon Lake,2000,,Osprey,Oxford,112 p. : ill. (some col.) ; 25 cm,0,English,"Sunderland (Seaplanes) -- History.World War, 1939-1945 -- Aerial operations, British.World War, 1939-1945 -- Aerial operations.Sunderland (Schiff)Weltkrieg (1939-1945)",,0,"1841760242,9781841760247",,,,,,,,,,,0,,,,,,,0,70143545,pdf,ba3cc6e8c706bb5c98033db5042489e1,,,1-84176-024-2,0,2000-01-01 01:00:00,2016-04-03 02:51:08,869000/ba3cc6e8c706bb5c98033db5042489e1-d.jpg,,
6945280,B-24 Liberator units of the Fifteenth Air Force,,"Osprey combat aircraft, 21",,Robert F. Dorr,2000,,Osprey Aviation,Oxford,"96 p. : ill. (some col.), ports. ; 25 cm",0,English,"B-24 bomber -- History.B-24 bomber -- History -- Pictorial works.World War, 1939-1945 -- Personal narratives, American.United States. -- Army Air Forces. -- Air Force, 15th -- History.Großbritannien -- Air Force (15)B-24 Liberator",,0,"1841760811,9781841760810",,,,,,,,,,,0,,,,,,,0,20496879,pdf,304528d08f03224925e3800c298198f2,,,1-84176-081-1,0,2000-01-01 01:00:00,2016-04-03 02:51:08,869000/304528d08f03224925e3800c298198f2-d.jpg,,
6945281,B-25 Mitchell units of the MTO,,"Osprey combat aircraft, 32",,Steve Pace,2002,,Osprey,Oxford,96 p. : ill. (some col.) ; 25 cm,0,English,"Mitchell (Bomber) -- History.World War, 1939-1945 -- Aerial operations, American.World War, 1939-1945 -- Campaigns -- Mediterranean Region",,0,"1841762849,9781841762845",,,,,,,,,,,0,,,,,,,0,38842755,pdf,2f0a0b3e7e0f044f5a846f334e4023cf,,,1-84176-284-9,0,2000-01-01 01:00:00,2016-04-03 02:51:08,869000/2f0a0b3e7e0f044f5a846f334e4023cf-d.jpg,,
6945282,North American F-100 Super Sabre,,Crowood aviation series,,Peter E. Davies with David W. Menard,2003,,Crowood Press,Marlborough,"176 p., [8] p. of plates : ill. (some col.), ports. ; 29 cm",0,English,F-100 (Jet fighter plane) -- History,,0,"1861265778,9781861265777",,,,,,,,,,,0,,,,,,,0,90489984,pdf,ba57bf46b4a3b0726be8fe7c7317c3bd,,,1-86126-577-8,0,2000-01-01 01:00:00,2016-04-03 02:51:08,869000/ba57bf46b4a3b0726be8fe7c7317c3bd-d.jpg,,
6945283,Vauxhall Astra and Zafira (petrol) : service and repair manual,,Haynes service & repair manual series,,Martynn J. Randall and Andrew K. Legg,2001,,Haynes,Sparkford,400 p. : ill. ; 28 cm,0,English,Vauxhall Astra automobile -- Maintenance and repair -- Amateurs&#039; manuals.Vauxhall Zafira automobile -- Maintenance and repair -- Amateurs&#039; manuals,,0,"1859607586,9781859607589",,,,,,,,,,,0,,,,,,,1,26931725,pdf,ab31e8c19183d02b4e581be6f2230841,,,1-85960-758-6,0,2000-01-01 01:00:00,2016-04-03 02:51:08,869000/ab31e8c19183d02b4e581be6f2230841-g.jpg,,
6945284,Устойчивость движения,,,,Н. Г. Четаев ; С примеч. В. В. Румянцева,1990,"4-е издание, исправленное",Наука,Москва,175 p. ; 22 cm,0,Russian,Stability,,0,"502014018X,9785020140189",,,,,,,,,,,0,,,,,,,0,8181030,pdf,1fc12d250d617901c99859ef2eb96951,,,5-02-014018-X,0,2000-01-01 01:00:00,2016-04-03 02:51:08,869000/1fc12d250d617901c99859ef2eb96951-g.jpg,,
6945285,Введение в теорию механических колебаний : учеб. для вузов,,,,Я. Г. Пановко,1991,"3 изд., перераб",Наука,М,255,0,Russian,Vibration,,0,"5020141372,9785020141377",,,,,,,,,,,0,,,,,,,0,9847561,pdf,91f276ca55f6691833d38c8ee8bf1fe2,,,5-02-014137-2,0,2000-01-01 01:00:00,2016-04-03 02:51:08,869000/91f276ca55f6691833d38c8ee8bf1fe2-g.jpg,,
6945286,Теория катастроф,,,,В. И. Арнольд (Авт.),1990,,Наука,,128,0,Russian,Книги//Нехудожественная литература//Научная и техническая литература//Естественные науки//Физико-математические науки//Математика//Теория вероятностей,,0,5-02-014271-9,,,,,,,,,,,0,,,,,,,0,6148066,pdf,5d7e66de0e26d8a43aec17e1199e4d17,,,5-02-014271-9,0,2000-01-01 01:00:00,2016-04-03 02:51:08,869000/5d7e66de0e26d8a43aec17e1199e4d17-d.jpg,,
6945287,US Air Force F-4 Phantom II MiG killers 1965-1968,,"Osprey combat aircraft, 45",,Peter Davies ; illustrated by Jim Laurier,2004,,Osprey,Oxford,96 p. : ill. (some col.) ; 25 cm,0,English,"United States. -- Air Force -- History -- Vietnamese Conflict, 1961-1975.Phantom II (Jet fighter plane)Vietnam War, 1961-1975 -- Aerial operations, American",,0,"1841766569,9781841766560",,,,,,,,,,,0,,,,,,,0,51211370,pdf,a296f15d30dc7853d28018e7f6a82fb5,,,1-84176-656-9,0,2000-01-01 01:00:00,2016-04-03 02:51:08,869000/a296f15d30dc7853d28018e7f6a82fb5-d.jpg,,
6945288,Методы и приемы качественного исследования динамических систем на плоскости,,Справочная математическая библиотека,,Н. Н. Баутин (Авт.),1990,,"Главная редакция физико-математической литературы издательства \Наука\""""",,488,0,Russian,Книги//Нехудожественная литература//Научная и техническая литература//Естественные науки//Физико-математические науки//Математика//Теория вероятностей,,0,5-02-014321-9,,,,,,,,,,,0,,,,,,,0,24001931,pdf,1a65f9dfda7eff860aa6faf993a97c39,,,5-02-014321-9,0,2000-01-01 01:00:00,2016-04-03 02:51:08,869000/1a65f9dfda7eff860aa6faf993a97c39-d.jpg,,
6945289,Хаотические колебания: Вводный курс для научных работников и инженеров,,,,"Ф. Мун (Авт.); : Юлий Данилов, А. Шукуров (Пер.)",1990,,Мир,,312,0,Russian,Книги//Нехудожественная литература//Научная и техническая литература//Техника. Технические науки//Технические науки в целом,,0,5-03-001413-6,,,,,,,,,,,0,,,,,,,0,3597263,djvu,37f99c6fc0faf86c379a60309c6fd46d,,,5-03-001413-6,0,2000-01-01 01:00:00,2016-04-03 02:51:08,869000/37f99c6fc0faf86c379a60309c6fd46d-d.jpg,,
6945290,Физиология растений,,,,В. В. Полевой (Авт.),1989,,Высшая школа,,464,0,Russian,Книги//Нехудожественная литература//Научная и техническая литература//Естественные науки//Биологические науки//Ботаника,,0,5-06-001604-8,,,,,,,,,,,0,,,,,,,0,74616917,djvu,50b761bf213833b128ccd664d8fb5693,,,5-06-001604-8,0,2000-01-01 01:00:00,2016-04-03 02:51:08,869000/50b761bf213833b128ccd664d8fb5693-d.jpg,,
6945291,Лабораторный практикум по предмету \Монтаж," эксплуатация и ремонт электрооборудования предприятий и установок\"" [Учеб. пособие для техникумов по электротехн. спец.]""",,,,"Нейштадт, Евгений Теодорович",1991,,Высш. шк,М,111 с,0,Russian,Электрические установки промпредприятий - Монтаж - - Практические работы учащихся,,0,5-06-001779-6,,,621.31.002.72,,,,,,,,0,,,,,,,0,1348386,djvu,63969612df5ab7007f02f13fc4eef4a6,,,5-06-001779-6,0,2000-01-01 01:00:00,2016-04-03 02:51:08,869000/63969612df5ab7007f02f13fc4eef4a6-g.jpg,
6945292,Курс теоретической физики. Классическая механика. Основы специальной теории относительности. Релятивистская механика [Для физ.-мат. фак.] / В. В. Мултановский,,Учеб. пособие для пед. ин-тов,,"Мултановский, Вячеслав Всеволодович",1988,,Просвещение,М,"303,[1] с",0,Russian,Физика теоретическая - Учебники и пособия,,0,5-09-000625-3,,,530.1,,,,,,,,0,,,,,,,1,2574662,djvu,fd4c8b197a1284565b002f9341a2e624,,,5-09-000625-3,0,2000-01-01 01:00:00,2016-04-03 02:51:08,869000/fd4c8b197a1284565b002f9341a2e624-g.jpg,,
6945293,Курс теоретической физики Классич. электродинамика : [Для физ.-мат. фак.],,Учеб. пособие для пед. ин-тов,,"Мултановский, Вячеслав Всеволодович;Василевский, Анатолий Семенович;авт",1990,,Просвещение,М,"270,[1] с",0,Russian,Электродинамика - Учебники и пособия,,0,5-09-000927-9,,,537.8,,,,,,,,0,,,,,,,1,7045208,djvu,7835bd5a0d2d1c3e97fc0f4ef14df8ea,,,5-09-000927-9,0,2000-01-01 01:00:00,2016-04-03 02:51:08,869000/7835bd5a0d2d1c3e97fc0f4ef14df8ea-g.jpg,,
6945294,"Плазмотроны Конструкции, характеристики, расчет",,,,"Коротеев, Анатолий Сазонович;Миронов, Всеволод Михайлович; Свирчук, Юрий Семенович;авт.; авт",1993,,Машиностроение,М,295 с,0,Russian,Плазмотроны,,0,5-217-01342-7,,,621.387.143,,,,,,,,0,,,,,,,1,8367751,djvu,e3c7deb1fa978eb60955b98b60114a3d,,,5-217-01342-7,0,2000-01-01 01:00:00,2016-04-03 02:51:08,869000/e3c7deb1fa978eb60955b98b60114a3d-g.jpg,,
6945295,Сетевые операционные системы,,,,"В. Г. Олифер, Н. А. Олифер (Авт.)",2007,,Питер,,544,0,Russian,"Книги//Учебная литература//Студентам и аспирантам//Технические науки. Медицина. Сельское хозяйство//Информатика. Вычислительная техника//Операционные системыКниги//Нехудожественная литература//Компьютерная литература//Основы информатики, общие работы",,0,5-272-00120-6,,,,,,,,,,,0,,,,,,,1,7836432,djvu,9a86fcfdbb854b751d93fc8bf3395857,,,5-272-00120-6,0,2000-01-01 01:00:00,2016-04-03 02:51:08,869000/9a86fcfdbb854b751d93fc8bf3395857-d.jpg,,
6945296,Оценка погрешностей результатов измерений,,,,"Новицкий, Петр Васильевич;Зограф, Ирина Аркадьевна",1991,"2-е изд., перераб. и доп","Энергоатомиздат, Ленингр. отд-ние",Л,"301,[2] с",0,Russian,Физические измерения - Точность,,0,5-283-04513-7,,,53.088,,,,,,,,0,,,,,,,0,4699592,djvu,dd0a8522dd5d45626ad970c4c6843906,,,5-283-04513-7,0,2000-01-01 01:00:00,2016-04-03 02:51:08,869000/dd0a8522dd5d45626ad970c4c6843906-g.jpg,,
6945297,Автомобили : [для сред. шк. возраста],,Энциклопедия техники. Транспорт,,"Шугуров, Лев Михайлович",2005,,РОСМЭН,М,63 с,0,Russian,Детская литература,,0,5-353-00474-4,,,,,,,,,,,0,,,,,,,1,30739588,pdf,2b71da6f964fd993e2b7b1b0f1db7f42,,,5-353-00474-4,0,2000-01-01 01:00:00,2016-04-03 02:51:08,869000/2b71da6f964fd993e2b7b1b0f1db7f42-g.jpg,,
6945298,Наши четвероногие друзья,,,,"Н. К. Слепнев, А. В. Зеньков (Авт.)",1991,,Ураджай,,288,0,Russian,"Книги//Нехудожественная литература//Домашний круг//Домашние питомцы. Аквариум//Собаки//Породы собакКниги//Нехудожественная литература//Домашний круг//Домашние питомцы. Аквариум//Собаки//Уход, содержание, лечение",,0,5-7860-0507-0,,,,,,,,,,,0,,,,,,,0,5570167,pdf,376d8ae9c4558b820b219055c8ac607d,,,5-7860-0507-0,0,2000-01-01 01:00:00,2016-04-03 02:51:08,869000/376d8ae9c4558b820b219055c8ac607d-d.jpg,,
6945299,Лекарственные средства. В 2 томах. Том 2,,,,М. Д. Машковский (Авт.),2002,"Четырнадцатое издание, переработанное","Новая Волна, Издатель С. Б. Дивов",,1080,0,Russian,Книги//Нехудожественная литература//Медицинская литература//Фармакология. Рецептура. Токсикология//Лекарственные препараты,,0,5-7864-0127-8,,,,,,,,,,,0,,,,,,,1,36214839,pdf,961e203a6a3f3ff13b02a902edc54ba7,,,5-7864-0129-4,0,2000-01-01 01:00:00,2016-04-03 02:51:08,http://www.ozon.ru/multimedia/books_covers/1004489848.jpg,,
6945300,Транзисторы и их зарубежные аналоги. Том 3,,Справочник,,В. М. Петухов (Авт.),2000,"Издание второе, исправленное",РадиоСофт,,672,0,Russian,"Книги//Нехудожественная литература//Научная и техническая литература//Техника. Технические науки//Радиоэлектроника, радиотехника, связь//Микроэлектроника, интегральные схемы",,0,5-93037-034-6,,,,,,,,,,,0,,,,,,,0,6605579,djvu,1ce60dfaf2ce11321297e8500da89d35,,,5-93037-034-6,0,2000-01-01 01:00:00,2016-04-03 02:51:08,869000/1ce60dfaf2ce11321297e8500da89d35-d.jpg,,
6945301,Microsoft Office 2003,,К вершинам мастерства,,"Берлинер Э. М., Глазырина И. Б., Глазырин Б. Э. (Авт.)",0,,Бином-Пресс,,576,0,Russian,Книги//Нехудожественная литература//Компьютерная литература//MS Office. Офисные программы Майкрософт//MS Office для пользователей (в целом),,0,5-9518-0076-5,,,,,,,,,,,0,,,,,,,0,21348053,djvu,2eae2f8efec548e06235f68ff678d07d,,,5-9518-0076-5,0,2000-01-01 01:00:00,2016-04-03 02:51:08,869000/2eae2f8efec548e06235f68ff678d07d-g.jpg,,
6945302,Плазма - четвертое состояние вещества. Элективный курс. Методическое пособие,,Элективный курс,,"В. А. Орлов, С. В. Дорожкин (Авт.)",2005,,Бином. Лаборатория знаний,,144,0,Russian,Книги//Учебная литература//Педагогам//Учителям//Преподавание учебных предметов//Дополнительные методические пособия//Физика,,0,978-5-94774-149-0,,,,,,,,,,,0,,,,,,,0,6447906,pdf,2fdbedd24de6ae8d58a15b8d58eb8fd7,,,5-94774-149-0,0,2000-01-01 01:00:00,2016-04-03 02:51:08,869000/2fdbedd24de6ae8d58a15b8d58eb8fd7-d.jpg,,
6945303,Lehninger Princípios de bioquímica,,,,"David L. Nelson, Michael M. Cox ; coordenação da tradução Arnaldo Antonio Simões, Wilson Roberto Navega Lodi .. ... [et al.]",2002,3. ed,Sarvier,São Paulo,975 p. : il,0,Portuguese,Bioquímica,,0,"8573781254,9788573781250",,,,,,,,,,,0,,,,,,,1,205133427,pdf,757c6377c562119f2f1607dd504ca106,,,85-7378-125-4,0,2000-01-01 01:00:00,2016-04-03 02:51:08,869000/757c6377c562119f2f1607dd504ca106-g.jpg,,
6945304,Программирование документов и приложений MS Office в Delphi (+ CD-ROM),,Профессиональное программирование,,Василий Корняков (Авт.),2006,,БХВ-Петербург,,496,0,Russian,Книги//Нехудожественная литература//Компьютерная литература//MS Office. Офисные программы Майкрософт//MS Office для пользователей (в целом),,0,5-94157-458-4,,,,,,,,,,,0,,,,,,,1,38601775,pdf,23d0686faa3ff20f3400d792b7aa03fa,,,5-94157-458-4,0,2000-01-01 01:00:00,2016-04-03 02:51:08,869000/23d0686faa3ff20f3400d792b7aa03fa-d.jpg,,
6945305,Краткий курс математического анализа,,,,С. М. Натанзон (Авт.),2000,,МЦНМО,,112,0,Russian,Книги//Учебная литература//Студентам и аспирантам//Естественные науки. Математика//Математика//Математический и функциональный анализ,,0,5-900916-75-8,,,,,,,,,,,0,,,,,,,1,1257950,djvu,d16628cf11dbb08adaf7c41d0842d9dd,,,5-900916-75-8,0,2000-01-01 01:00:00,2016-04-03 02:51:08,869000/d16628cf11dbb08adaf7c41d0842d9dd-d.jpg,,
6945306,Consolidated PBY Catalina. Cz. 1,,"Monografie Lotnicze, 84",,Krzysztof Janowski,cop. 2002,,AJ-Press,Gdańsk,"80 s., [2] k. tabl. złoż. luz. : il. (w tym kolor.) ; 30 cm",0,Polish,Catalina (wodnosamolot) -- wydawnictwa ilustrowane,,0,"8372371148,9788372371140",,,,,,,,,,,0,,,,,,,0,21701566,pdf,6d42c351ebee6f022c698b34c4b4a7c7,,,83-7237-114-8,0,2000-01-01 01:00:00,2016-04-03 02:51:08,869000/6d42c351ebee6f022c698b34c4b4a7c7-g.jpg,,
6945307,Очерки теории трудового права,,Трудовое право и право социального обеспечения,,"М. В. Лушникова, А. М. Лушников (Авт.)",2006,,"Издательство Р. Асланова \Юридический центр Пресс\"""," Издательство Р. Асланова \""Юридический центр Пресс\""""",,940,0,Russian,Книги//Нехудожественная литература//Общественные и гуманитарные науки//Право. Юриспруденция//Отрасли права//Трудовое право. Социальное обеспечение//Теория трудового права,,0,5-94201-467-1,,,,,,,,,,,0,,,,,,,0,6524081,djvu,77016d83795666b1e87405d2a0b9e043,,,5-94201-467-1,0,2000-01-01 01:00:00,2016-04-03 02:51:08,869000/77016d83795666b1e87405d2a0b9e043-d.jpg,
6945308,Corsair aces of World War 2,,"Osprey aircraft of the aces, 8",,Mark Styling,1995,,Osprey Aerospace,London,96 p. : ill. (some col.) ; 25 cm,0,English,"World War, 1939-1945 -- Aerial operations.Corsair (Fighter plane)Fighter pilots",,0,"1855325306,9781855325302",,,,,,,,,,,0,,,,,,,0,21875320,pdf,85bad0cab2cf99596d7d189a7fcb0f64,,,1-85532-530-6,0,2000-01-01 01:00:00,2016-04-03 02:51:08,869000/85bad0cab2cf99596d7d189a7fcb0f64-d.jpg,,
6945309,Методы анализа нелинейных динамических моделей,,,,"М. Холодниок, А. Клич, М. Кубичек, М. Марек; Пер. с чеш. И. Е. Зино; Под ред. [и с предисл.] Э. Э. Шноля",1991,,Мир,М,365 с,0,Russian,"Динамические системы - Математические исследования, Бифуркации",,0,5-03-001849-2,,,681.511.4.015.26.012,,,,,,,,0,,,,,,,0,13818042,pdf,f7ce87cde12f98487f2a843172dc93ca,,,5-03-001849-2,0,2000-01-01 01:00:00,2016-04-03 02:51:08,869000/f7ce87cde12f98487f2a843172dc93ca-g.jpg,,
6945310,Курс теоретической физики. Квантовая механика [Для физ.-мат. фак.],,Учебное пособие для педагогических институтов,,"Мултановский, Вячеслав Всеволодович;Василевский, Анатолий Семенович;авт",1991,,Просвещение,М,"319,[1] с",0,Russian,Квантовая механика - Учебники и пособия,,0,5-09-001832-4,,,530.145.6,,,,,,,,0,,,,,,,1,2681116,djvu,496d3037a86801dad05309cb48548887,,,5-09-001832-4,0,2000-01-01 01:00:00,2016-04-03 02:51:08,869000/496d3037a86801dad05309cb48548887-g.jpg,,
6945311,Оптоэлектроника,,,,"Носов, Юрий Романович",1989,"2-е изд., перераб. и доп",Радио и связь,М,"359,[1] с",0,Russian,Оптоэлектроника,,0,5-256-00246-5,,,621.383,,,,,,,,0,,,,,,,0,3906641,djvu,e611e8af5b0dd2775ad431200a646a05,,,5-256-00246-5,0,2000-01-01 01:00:00,2016-04-03 02:51:08,869000/e611e8af5b0dd2775ad431200a646a05-g.jpg,,
6945312,От нейрона к мозгу,,,,"Дж. Г. Николлс, А. Р. Мартин, Б. Дж. Валлас, П. А. Фукс (Авт.); : П. Балабан, А. Галкин, Р. Гиниатуллин, Р. Хазипов, Л. Хируг (Пер.)",2003,,Едиториал УРСС,,672,0,Russian,Книги//Нехудожественная литература//Медицинская литература//Неврология. Нервная система,,0,5-354-00162-5,,,,,,,,,,,0,,,,,,,0,41800861,pdf,4537220a28b27180f054aea7aaeb890a,,,5-354-00162-5,0,2000-01-01 01:00:00,2016-04-03 02:51:08,869000/4537220a28b27180f054aea7aaeb890a-d.jpg,,
6945313,Цифровые устройства и микропроцессоры : учеб. пособие для студентов высш. учеб. заведений,,Высшее профессиональное образование. Радиоэлектроника,,"Нарышкин, Александр Кириллович",2006,,Academia,М,"317, [1] с",0,Russian,"Физико-математические науки -- Математика -- Математическая логика -- Исчисление высказываний -- Применение ЭВМ -- Учебник для высшей школы, Вычислительная техника -- Вычислительные машины электронные цифровые -- Арифметические и логические устройства. Устройства дискретно�",,0,5-7695-1618-6,,,621.377.6,,,,,,,,0,,,,,,,0,19314125,djvu,378c6722310f0d6f8dca9f89b8497e62,,,5-7695-1618-6,0,2000-01-01 01:00:00,2016-04-03 02:51:08,869000/378c6722310f0d6f8dca9f89b8497e62-g.jpg,,
6945314,Материалы электронной техники. Учебник,,Учебники для вузов. Специальная литература,,"В. В. Пасынков, В. С. Сорокин (Авт.)",0,Издание 3-е,Лань,,368,0,Russian,"Книги//Нехудожественная литература//Научная и техническая литература//Техника. Технические науки//Радиоэлектроника, радиотехника, связь//Микроэлектроника, интегральные схемыКниги//Нехудожественная литература//Научная и техническая литература//Техника. Технические науки//Радиоэлектроника, радиотехника, связь//Радиоэлектроника",,0,5-8114-0409-3,,,,,,,,,,,0,,,,,,,0,6542815,djvu,31ad67733a5417aefbc0182a1392b4a3,,,5-8114-0409-3,0,2000-01-01 01:00:00,2016-04-03 02:51:08,869000/31ad67733a5417aefbc0182a1392b4a3-g.jpg,,
6945315,Оборудование для производства сахарных кондитерских изделий,,Профессиональное образование,,"А. И. Драгилев, Я. М. Сезанаев (Авт.)",2000,,"Академия (Москва), ИРПО",,272,0,Russian,Книги//Учебная литература//Студентам и аспирантам//Технические науки. Медицина. Сельское хозяйство//Промышленность. Энергетика//Машиностроение//Машины и оборудование,,0,"5-8222-0045-1, 5-7695-0490-0",,,,,,,,,,,0,,,,,,,0,7147307,pdf,071176bba7d5a940bff01906f0e16d9c,,,5-8222-0045-1,0,2000-01-01 01:00:00,2016-04-03 02:51:08,869000/071176bba7d5a940bff01906f0e16d9c-d.jpg,,
6945316,Евангелие Иисуса Христа эпохи Водолея,,,,Леви Х. Доулинг (Авт.); М. Турий (Пер.),1994,,Иван Федоров,,284,0,Russian,Книги//Нехудожественная литература//Религия. Оккультизм. Эзотерика//Эзотерика. Парапсихология. Тайны//Эзотерические учения//Другие эзотерические учения,,0,5-87383-008-8,,,,,,,,,,,0,,,,,,,0,13239809,djvu,fa9588c274bb5cd3ff5378cbba1affb1,,,5-87383-008-8,0,2000-01-01 01:00:00,2016-04-03 02:51:08,869000/fa9588c274bb5cd3ff5378cbba1affb1-d.jpg,,
6945317,Математические модели переноса излучения,,,,Т. А. Сушкевич (Авт.),2006,,Бином. Лаборатория знаний,,664,0,Russian,Книги//Нехудожественная литература//Научная и техническая литература//Естественные науки//Физико-математические науки//Математика//Математическое моделирование,,0,5-94774-346-9,,,,,,,,,,,0,,,,,,,0,3135567,djvu,a069813132a1941b72c7a613970d589b,,,5-94774-346-9,0,2000-01-01 01:00:00,2016-04-03 02:51:08,869000/a069813132a1941b72c7a613970d589b-d.jpg,,
6945318,Введение в теорию солитонов,,,,В. Ю. Новокшенов (Авт.),2002,,Институт компьютерных исследований,,96,0,Russian,Книги//Учебная литература//Студентам и аспирантам//Естественные науки. Математика//Физика//Математическая физика,,0,5-93972-100-1,,,,,,,,,,,0,,,,,,,1,686398,djvu,a80bd6dd24d9c6e74a24e515e555433a,,,5-93972-100-1,0,2000-01-01 01:00:00,2016-04-03 02:51:08,869000/a80bd6dd24d9c6e74a24e515e555433a-d.jpg,,
6945319,Селен в морских организмах = Selenium in marine organisms,,,,О. Н. Лукьянова [и др.],2006,,ТИНРО-Центр,Владивосток,151 с,0,Russian,"Биологические науки -- Гидробиология -- Экологические факторы водной среды -- Химические факторы, Биологические науки -- Общая биохимия -- Химический состав живых организмов -- Минеральные вещества. Минеральный обмен -- Селен",,0,5-89131-066-X,,,574.64,,,,,,,,0,,,,,,,0,2848839,djvu,450089fc2b6cf8e5d4280f934b7b98bb,,,5-89131-066-X,0,2000-01-01 01:00:00,2016-04-03 02:51:08,869000/450089fc2b6cf8e5d4280f934b7b98bb-g.jpg,,
6945320,"North American P-51 Mustang, P-82 Twin Mustang. Cz. 3",,"Monografie Lotnicze, 57",,"Jacek B. Żurek, Piotr Wiśniewski",cop. 2003,,AJ-Press,Gdańsk,"148 s. : il., portr. ; 30 cm",0,Polish,Mustang (samolot myśliwski),,0,"8372371296,9788372371294",,,,,,,,,,,0,,,,,,,0,194676953,pdf,e9ef9ea6129e3f94436c669a934a8d73,,,83-7237-129-6,0,2000-01-01 01:00:00,2016-04-03 02:51:08,869000/e9ef9ea6129e3f94436c669a934a8d73-g.jpg,,
6945321,Dewoitine D.520,,"Mushroom Model magazine special., Yellow series",,Bartłomiej Belcarz ; colour illustrations by Artur Juszczak,2005,,Stratus,,104 p. : ill. (chiefly col.) ; 24 cm,0,English,"Dewoitine D.520 (Fighter plane) -- History.Dewoitine D.520 (Fighter plane) -- Design and construction.World War, 1939-1945 -- Aerial operations",,0,"8389450097,9788389450098",,,,,,,,,,,0,,,,,,,0,34501535,pdf,70c0164e6f722a6e2559c11dd2d2e118,,,83-89450-09-7,0,2000-01-01 01:00:00,2016-04-03 02:51:08,869000/70c0164e6f722a6e2559c11dd2d2e118-g.jpg,,
6945322,"Applied Mathematics And Modeling For Chemical Engineers, Second Edition",,,,"Richard G. Rice, Duong D. Do",2012,2,Wiley-AIChE,,383,0,English,Chemical Engineering,TrUe LiAr,0,"1118024729,9781118024720",,,,,,,,,,,0,,,,1,0,1,1,4112112,pdf,0332c1cdb7efc65e32b024c39a00e17a,,,"Applied Mathematics And Modeling For Chemical Engineers, Second Edition",0,2000-01-01 01:00:00,2016-04-03 02:51:08,869000/0332c1cdb7efc65e32b024c39a00e17a-d.jpg,,
6945323,Органические парамагнетики,,,,"Розанцев, Эдуард Григорьевич;Гольдфейн, Марк Давидович; Пулин, Виктор Федотович",2000,,Изд-во Саратов. ун-та,Саратов,"335, [2] с",0,Russian,Органическая химия -- Теоретические основы органической химии -- Строение и свойства органических соединений -- Строение и физические свойства -- Химия органических парамагнетиков,,0,5-292-02157-1,,,,,,,,,,,0,,,,,,,1,4640599,djvu,754c28827f78890ef9b7c7b1e55c6525,,,5-292-02157-1,0,2000-01-01 01:00:00,2016-04-03 02:51:08,869000/754c28827f78890ef9b7c7b1e55c6525-g.jpg,,
6945324,"Технологические процессы лазерной обработки : учебное пособие для студентов вузов, обучающихся по специальности, обучающихся по специальности \Машины и технология высокоэффективных процессов обраб. материалов\"" направления подгот. \""Машиностроит. технологии и оборудование\""""",,,,"Григорьянц, Александр Григорьевич;Шиганов, Игорь Николаевич; Мисюров, Александр Иванович",2006,,Изд-во МГТУ им. Н. Э. Баумана,Москва,663 с,0,Russian,"Техника и технические науки, Машиностроение -- Технология машиностроения. Обработка металлов -- Лазерная обработка -- Учебник для высшей школы",,0,5-7038-2701-9,,,621.7:621.373.826,,,,,,,,0,,,,,,,0,16002466,djvu,5a57d2fdeb0ed38a51a4f4b78659c738,,,5-7038-2701-9,0,2000-01-01 01:00:00,2016-04-03 02:51:08,869000/5a57d2fdeb0ed38a51a4f4b78659c738-g.jpg,,
6945325,Физическая оптика : Учеб. пособие,,,,"М-во образования Рос. Федерации. Моск. гос. ин-т радиотехники, электроники и автоматики;Бугрова, Антонина Ивановна;сост",2002,,"Моск. гос. ин-т радиотехники, электроники и автоматики",М,83 с,0,Russian,Физика -- Физическая оптика -- Учебник для высшей школы,,0,5-7339-0035-5,,,,,,,,,,,0,,,,,,,1,1371019,pdf,189b2773c01a24dd898f53dc86bdcedc,,,5-7339-0035-5,0,2000-01-01 01:00:00,2016-04-03 02:51:08,869000/189b2773c01a24dd898f53dc86bdcedc-g.jpg,,
6945326,Photoshop CS2. Настоящий самоучитель,,,,В. В. Легейда (Авт.),2006,,"Век +, Корона-Принт, НТИ",,528,0,Russian,"Книги//Нехудожественная литература//Путешествия. Хобби. Фото. Спорт//Цифровое фото и видео//Adobe PhotoshopКниги//Нехудожественная литература//Компьютерная литература//Графика, дизайн, мультимедиа//Adobe Photoshop. Графический редактор (растровый)",,0,966-7140-53-9,,,,,,,,,,,0,,,,,,,0,55077177,pdf,1c64385a4a0ac295c7752c94da2cb36d,,,966-7140-53-9,0,2000-01-01 01:00:00,2016-04-03 02:51:08,869000/1c64385a4a0ac295c7752c94da2cb36d-d.jpg,,
6945327,Molded optics : design and manufacture,,Series in optics and optoelectronics (CRC Press),,Michael Schaub ... [et al.,2011,English,CRC Press,Boca Raton,"1 online resource (xi, 248 p.) : ill",0,English,Optical instruments -- Design and construction.Molding (Chemical technology)TECHNOLOGY & ENGINEERING -- Technical & Manufacturing Industries & Trades,,0,"9781439832585,1439832587",,,,,,,,,,,0,,,,,,,1,22905747,pdf,57b3071681a25c87312aa0468ac6a258,,,978-1-4398-3258-5,0,2000-01-01 01:00:00,2016-04-03 02:51:08,869000/57b3071681a25c87312aa0468ac6a258-d.jpg,,
6945328,Алгебра и начала математического анализа. 11 класс : учебник для общеобразовательных учреждений : базовый и профильный уровни,,МГУ-школе,,Никольский С.М. и др.,2009,8-е изд,Просвещение,Москва,464 с,0,Russian,"Физико-математические науки -- Математика -- Элементарная алгебра -- Учебник для средней общеобразовательной школы, Физико-математические науки -- Математика -- Введение в математический анализ -- Учебник для средней общеобразовательной школы, Алгебра, Математический анали",,0,978-5-09-021970-9,,,"373.167.1:512, 512",,,,,,,,0,,,,,,,0,45339869,pdf,182670b0e6a25cbe2757e569c0b3745f,,,978-5-09-021970-9,0,2000-01-01 01:00:00,2016-04-03 02:51:08,869000/182670b0e6a25cbe2757e569c0b3745f-g.jpg,,
6945329,Греческий язык за один месяц. Самоучитель разговорного языка. Начальный уровень,,Реальные самоучители иностранных языков,,Павловская З.В.,2008,,"АСТ, Хранитель, Восток-Запад",,192,0,Russian,"Книги//Нехудожественная литература//Изучение языков мира//Другие европейские языки//Учебники, самоучители, пособия",,0,"978-5-17-049686-0, 978-5-9762-5713-9, 978-5-478-00872-7",,,,,,,,,,,0,,,,,,,0,1882675,djvu,e17a8afe88a2dc700d9284eceb7eeead,,,978-5-17-049686-0,0,2000-01-01 01:00:00,2016-04-03 02:51:08,869000/e17a8afe88a2dc700d9284eceb7eeead-d.jpg,,
6945330,Поделки из скорлупы,,Чудесные фантазии,,Екатерина Немешаева (Авт.),2011,,Айрис-Пресс,,32,0,Russian,"Книги//Детям и родителям//Досуг и творчество детей//Поделки, мастерилки, маски",,0,978-5-8112-4030-2,,,,,,,,,,,0,,,,,,,1,6062637,djvu,1d4d634666461b80818fc4c559ec85e7,,,978-5-8112-4030-2,0,2000-01-01 01:00:00,2016-04-03 02:51:08,869000/1d4d634666461b80818fc4c559ec85e7-d.jpg,,
6945331,Тайны египетских пирамид,,Все тайны Земли,,Александр Попов (Авт.),2009,,"АСТ, Астрель-СПб",,256,0,Russian,Книги//Нехудожественная литература//Религия. Оккультизм. Эзотерика//Эзотерика. Парапсихология. Тайны//Тайны (таинственные явления в природе и истории)//Загадки и тайны истории,,0,"978-5-17-059723-9, 978-5-9725-1558-5",,,,,,,,,,,0,,,,,,,0,15901519,djvu,d6a606313d193b6110c9801aae7bb00e,,,978-5-17-059723-9,0,2000-01-01 01:00:00,2016-04-03 02:51:08,869000/d6a606313d193b6110c9801aae7bb00e-d.jpg,,
6945332,Конспект лекций по высшей математике. Полный курс,,Высшее образование,,Д. Т. Письменный (Авт.),2009,9-е издание,Айрис-Пресс,,608,0,Russian,Книги//Учебная литература//Студентам и аспирантам//Естественные науки. Математика//Математика//Высшая математика,,0,978-5-8112-3775-3,,,,,,,,,,,0,,,,,,,0,3584163,djvu,dcac5c12ec110d4b9314b55e5ddf4729,,,978-5-8112-3775-3,0,2000-01-01 01:00:00,2016-04-03 02:51:08,869000/dcac5c12ec110d4b9314b55e5ddf4729-d.jpg,,
6945333,Обман. Философско-психологический анализ,,,,Д. И. Дубровский (Авт.),2010,,"Канон+РООИ \Реабилитация\""""",,336,0,Russian,Книги//Нехудожественная литература//Общественные и гуманитарные науки//Психология//Общая психология//Основы психологииКниги//Нехудожественная литература//Общественные и гуманитарные науки//Философия//Этика,,0,978-5-88373-239-9,,,,,,,,,,,0,,,,,,,1,2877779,djvu,ba618e166218aa3fe7f898da8da2e70e,,,978-5-88373-239-9,0,2000-01-01 01:00:00,2016-04-03 02:51:08,869000/ba618e166218aa3fe7f898da8da2e70e-d.jpg,,
6945334,Геометрические свойства кривых второго порядка,,,,"А. В. Акопян, А. А. Заславский (Авт.)",2007,,МЦНМО,М,136,0,Russian,Физико-математические науки -- Математика -- Геометрия -- Аналитическая геометрия -- Кривые и поверхности второго порядка -- Кривые второго порядка,,0,978-5-94057-300-5,,,,,,,,,,,0,,,,,,,1,3891070,pdf,2de62a21d5def8aa62219099659f81ad,,,978-5-94057-300-5,0,2000-01-01 01:00:00,2016-04-03 02:51:08,869000/2de62a21d5def8aa62219099659f81ad-d.jpg,,
6945335,Top 10 Puerto Rico,,Eyewitness Top 10 Travel Guides,,Christopher P Baker,2009,Pap/Map,DK Travel,,128,0,English,Travel tourism,,0,"0756653681,9780756653682",,,,,,,,,,Travel guide,0,,,,,,,1,11360151,pdf,67d12b6583face29e5a60eb720d7543b,,,Top-10-Puerto-Rico,0,2000-01-01 01:00:00,2016-04-03 02:51:08,869000/67d12b6583face29e5a60eb720d7543b-d.jpg,,
6945336,Компьютер для бухгалтера,,,,В. Филатова (Авт.),2007,3-е издание,Питер,,416,0,Russian,"Книги//Бизнес-книги//Бухгалтерия. Налоги. Аудит//Бухгалтерский учет//Бухгалтерский учет на компьютереКниги//Нехудожественная литература//Компьютерная литература//Компьютеры и программы//Компьютер для... (юриста, медика, секретаря, бухгалтера...)",,0,978-5-91180-417-6,,,,,,,,,,,0,,,,,,,1,7408453,pdf,df3385243e24a58dadcd000c7c06e24f,,,978-5-91180-417-6,0,2000-01-01 01:00:00,2016-04-03 02:51:08,869000/df3385243e24a58dadcd000c7c06e24f-d.jpg,,
6945337,"Think yourself successful : rewire your mind, become confident, and achieve your goals",,,,Alireza Azmandian,2010,,McGraw-Hill,New York,"1 online resource (xvii, 201 p.)",0,English,Success.Self-actualization (Psychology)SELF-HELP -- Motivational & Inspirational.SELF-HELP -- Neuro-Linguistic Programming (NLP)SELF-HELP -- Inner Child.SELF-HELP -- Personal Growth -- General.SELF-HELP -- Affirmations.SELF-HELP -- Personal Growth -- Self-Esteem,,0,"9780071751124,0071751122",,,,,,,,,,,0,,,,,,,1,6269637,pdf,e6225e34fc4e2376db32f24c8a44deea,,,978-0-07-175112-4,0,2000-01-01 01:00:00,2016-04-03 02:51:08,869000/e6225e34fc4e2376db32f24c8a44deea-g.jpg,,
6945338,"Лабораторное культивирование Морских микроводорослей, включая лродуцентов фитотоксинов научно-методическое лособие",,,,"Орлова Т. Ю., Айздайчер Н. А., Стоник И. В",2011,,Дальнаука,,88 p,0,Russian,Écologie marine.Biologie marine,,0,"9785804411320,5804411322",,,582.252/.26.082.26,,,,,,,,0,,,,,,,0,7827268,djvu,9aa1771ebe6bfc766e05c6e2ffa21cdd,,,978-5-8044-1132-0,0,2000-01-01 01:00:00,2016-04-03 02:51:08,869000/9aa1771ebe6bfc766e05c6e2ffa21cdd-g.jpg,,
6945339,Поделки из проволоки,,Чудесные фантазии,,Юлия Курганова (Авт.),2008,,Айрис-Пресс,,32,0,Russian,"Книги//Детям и родителям//Досуг и творчество детей//Поделки, мастерилки, маски",,0,978-5-8112-3437-0,,,,,,,,,,,0,,,,,,,1,6301872,djvu,8c28df59b5c78cd8c0566f6f7017914a,,,978-5-8112-3437-0,0,2000-01-01 01:00:00,2016-04-03 02:51:08,869000/8c28df59b5c78cd8c0566f6f7017914a-d.jpg,,
6945340,Справочник инженера по контрольно-измерительным приборам и автоматике,,,,"А. В. Калиниченко, Н. В. Уваров, В. В. Дойников (Авт.); : Андрей Калиниченко (Ред.)",2008,,Инфра-Инженерия,,576,0,Russian,Книги//Нехудожественная литература//Научная и техническая литература//Техника. Технические науки//Промышленность//Машиностроение. Приборостроение,,0,978-5-9729-0017-6,,,,,,,,,,,0,,,,,,,0,12292161,djvu,d053da2d47b0f6c4ba95aada88b58135,,,978-5-9729-0017-6,0,2000-01-01 01:00:00,2016-04-03 02:51:08,869000/d053da2d47b0f6c4ba95aada88b58135-d.jpg,,
6945341,Задачи для детей от 5 до 15 лет,,,,В. И. Арнольд (Авт.),2007,"2-е издание, дополненное",МЦНМО,,16,0,Russian,"Книги//Детям и родителям//Досуг и творчество детей//Кроссворды, головоломкиКниги//Учебная литература//Школьникам и абитуриентам//Дополнительные учебные пособия//Дополнительные материалы//Сборники по развитию мыслительных способностей",,0,978-5-94057-314-2,,,,,,,,,,,0,,,,,,,1,322811,pdf,c1c5217e768e6a809a0b638e93b434eb,,,978-5-94057-314-2,0,2000-01-01 01:00:00,2016-04-03 02:51:08,869000/c1c5217e768e6a809a0b638e93b434eb-d.jpg,,
6945342,Dodge &amp; Plymouth Neon 2000-2005. Ремонт и техническое обслуживание,,Haynes. Ремонт и техническое обслуживание,,"Л. Уоррен, Дж. Х. Хейнес (Авт.)",2007,,Алфамер Паблишинг,,264,0,Russian,Книги//Нехудожественная литература//Научная и техническая литература//Техника. Технические науки//Транспорт//Автотранспорт//Легковые автомобили мира//Другие марки автомобилей,,0,978-5-93392-116-5,,,,,,,,,,,0,,,,,,,1,215615238,pdf,9256c038e6a69261080a9746f248a50a,,,978-5-93392-116-5,0,2000-01-01 01:00:00,2016-04-03 02:51:08,869000/9256c038e6a69261080a9746f248a50a-d.jpg,,
6945343,Messerschmitt Me 410,,"Mushroom Model Magazine special., Yellow series ;, no. 6120",,Robert Pęczkowski ; colour illustrations by Krzysztof Wołowski,2006,,STRATUS for Mushroom Model Publications,Sandomierz ; Redbourn,120,0,English,"Germany. -- Luftwaffe.Messerschmitt 410 (Military aircraft) -- History.Messerschmitt 410 (Military aircraft) -- Design and construction.Airplanes, Military -- Markings -- Germany.World War, 1939-1945 -- Aerial operations, German",,0,"9788389450241,8389450240",,,,,,,,,,,0,,,,,,,0,48584801,pdf,c871a798e2d10221bc41c93de2de1f87,,,978-83-89450-24-1,0,2000-01-01 01:00:00,2016-04-03 02:51:08,869000/c871a798e2d10221bc41c93de2de1f87-g.jpg,,
6945344,Righteous republic. the political foundations of modern India,,,,Ananya Vajpeyi,2012,,Harvard University Press,"Cambridge, Mass",368,0,English,"Politics and government; Political science; Philosophy; Nationalism; Self-determination, National; History",,0,"9780674048959, 0674048954",,,,,320.0954,2012005074,,,,,0,,,,,1,,1,15470750,pdf,15b0f39156a6a64654d3808e4f661d38,,,Righteous Republic,0,2000-01-01 01:00:00,2016-04-03 02:51:08,869000/15b0f39156a6a64654d3808e4f661d38-g.jpg,,
6945345,Yakovlev Yak-23 : the first Yakovlev jet fighters,,"Yellow series, no. 6124",,"Marian Mikołajczuk ; colour profiles Artur Juszczak, Marek Radomski",2008,,STRATUS for MMP,Sandomierz,152,0,English,"Yak-23 (Jet fighter plane) -- History.Yak-23 (Jet fighter plane) -- Design and construction.Yak (Fighter plane) -- History.Yak (Fighter plane) -- Design and construction.Airplanes, Military -- Markings.Airplanes, Military -- Markings -- Soviet Union",,0,"9788389450548,8389450542",,,,,,,,,,,0,,,,,,,0,161015523,pdf,7884c2f39bd39a0172257ba222a8b690,,,978-83-89450-54-8,0,2000-01-01 01:00:00,2016-04-03 02:51:08,869000/7884c2f39bd39a0172257ba222a8b690-d.jpg,,
6945346,Suomen historia 1--2,,"Suomalaisen Kirjallisuuden Seuran toimituksia, 846",,Pentti Virrankoski,2009,2. korj. p,Suomalaisen Kirjallisuuden Seura,Helsinki,1138,0,Finnish,Finland -- History,,0,"9789522221605,9522221600",,,,,,,,,,,0,,,,,,,1,63565395,djvu,7ca92c8ed6762660b60cff9c8d6b6ec3,,,978-952-222-160-5,0,2000-01-01 01:00:00,2016-04-03 02:51:08,869000/7ca92c8ed6762660b60cff9c8d6b6ec3-g.jpg,,
6945347,Nanotechnology,,,,G. Schmid ... [et al.] (eds.),2010,,,,2664,0,English,Nanotechnology.Nanotechnology -- Environmental aspects,,0,"9783527628155,3527628150",,,,,,,10.1002/9783527628155/,,,,0,,,,,,,1,54919798,pdf,98597374e7db9d564ecd6aa7b3c09d41,,,978-352762815-5,0,2000-01-01 01:00:00,2016-04-03 02:51:08,869000/98597374e7db9d564ecd6aa7b3c09d41-d.jpg,,
6945348,Японско-русский фразеологический словарь,,,,С. А. Быкова (Авт.),2000,,Муравей-Гайд,,272,0,Russian,Книги//Нехудожественная литература//Изучение языков мира//Японский язык//Словари и разговорники,,0,5-8463-0024-3,,,,,,,,,,,0,,,,,,,0,8274459,pdf,55c2dde224e29051391a076a2a1d9721,,,"Быкова, С.А.   Японско русский фразеологический словарь (2000)",0,2000-01-01 01:00:00,2016-04-03 02:51:08,869000/55c2dde224e29051391a076a2a1d9721-d.jpg,,
6945349,"Wildflowers and plant communities of the southern Appalachian Mountains and Piedmont : a naturalist's guide to the Carolinas, Virginia, Tennessee, and Georgia",,Southern gateways,,Timothy P. Spira,2011,,University of North Carolina Press,"Chapel Hill, NC",521,0,English,"Wild flowers -- Appalachian Region, Southern -- Identification.Wild flowers -- Piedmont (U.S. : Region) -- Identification.Plant communities -- Appalachian Region, Southern.Plant communities -- Piedmont (U.S. : Region)Science.Botany.NATURE -- Plants -- Flowers",,0,"9780807877654,0807877654",,,,,,,,,,,0,,,,,,,1,37128491,pdf,49c09668f257403a1ab74116b6cebfd2,,,spira2011 wildflowers south appal piedmont,0,2000-01-01 01:00:00,2016-04-03 02:51:08,869000/49c09668f257403a1ab74116b6cebfd2-d.jpg,,
6945350,New flora of the British Isles,,,,Clive Stace ; with illustrations mainly by Hilli Thompson,2010,,Cambridge University Press,Cambridge,1268,0,English,Botany -- Great Britain.Plants -- Great Britain -- Identification,,0,"051174210X,9780511742101",,,,,,,,,,,0,,,,,,,1,26198358,pdf,fb8c10e82a1f23dedb21de7326c4c2b5,,,stace2010 new flora of the british isles 3rd edition,0,2000-01-01 01:00:00,2016-04-03 02:51:08,869000/fb8c10e82a1f23dedb21de7326c4c2b5-g.jpg,,
6945351,"Género, mujeres y saberes en América Latina: entre el movimiento social, la academia y el Estado",,,,Yolanda Puyana,2007,,Universidad Nacional de Colombia,Bogotá,312,0,Spanish,Mujeres en América Latina,,0,978-958-701-839-4,,,,,,,,,,,0,,,,,,,1,4839207,pdf,01bb6da0fd8810c6b1a53065bdc79b28,,,"Luz Gabriela Arango y Yolanda Puyana (comps.) - Género, Mujeres y Saberes en América Latina. Entre el Movimiento Social, la Academia y el Estado",0,2000-01-01 01:00:00,2016-04-03 02:51:08,869000/01bb6da0fd8810c6b1a53065bdc79b28-g.jpg,,
6945352,Η Κλειώ μπροστά στο δικαστήριο της αστικής φιλοσοφίας (τ. Α΄+ Β΄),,,,Νικολάι Ιριμπατζιάκοφ,1978,,Δωδώνη,,556,0,Greek,"History, Phllosophy, Marxism",,0,,,,,,,,,,,,600,,,0,,1,1,1,9702345,djvu,7b772024d0201002e4350b6c66f0cf39,,,Kleiw_final,0,2000-01-01 01:00:00,2016-04-03 02:51:08,869000/7b772024d0201002e4350b6c66f0cf39-g.jpg,,
6945353,Η Κλειώ μπροστά στο δικαστήριο της αστικής φιλοσοφίας (τ. Α΄+ Β΄),,,,Νικολάι Ιριμπατζιάκοφ,1978,,Δωδώνη,,556,0,Greek,"History, Phllosophy, Marxism",,0,,,,,,,,,,,,600,,,0,,1,1,1,14378991,pdf,eaee732480459f11119b7f8d674bab1e,,,Kleiw_final,0,2000-01-01 01:00:00,2016-04-03 02:51:08,869000/eaee732480459f11119b7f8d674bab1e-g.jpg,,
6945354,Flora of the Southern and Mid-Atlantic states,,,,by Alan S. Weakley,2011,,University of North Carolina Herbarium,"Chapel Hill, N.C",994 p. ; 28 cm,0,English,Plants -- Middle Atlantic States.Plants -- Southern States.Plants -- North Carolina.Plants -- South Carolina.Plants -- Virginia.Plants -- Georgia.Plants -- West Virginia.Plants -- Delaware.Plants -- Florida.Plants -- Alabama.Plants -- Mississippi.Plants -- Tennessee.Plants -- Kentucky.Plants -- Maryland.Plants -- Washington (D.C.)Plants -- Louisiana.Plants -- New Jersey,,0,,,,,,,,,,,,0,,,,,,,1,33550545,pdf,39c53f30d158ad3f5e18ce7b1f7fc13b,,,weakley2011 flora southern mid atl states,0,2000-01-01 01:00:00,2016-04-03 02:51:08,869000/39c53f30d158ad3f5e18ce7b1f7fc13b-g.jpg,,
6945355,Города для людей,,,,"Гейл, Ян",2012,,"Концерн \Крост\"""," Альпина Паблишер""",Москва,277,0,Russian,"Строительство -- Градостроительство -- Планировка и застройка городов -- Функциональная организация территорий города -- Иллюстративное издание, Города",,0,978-5-9614-1933-7,,,,,,,,,,,0,,,,,,,0,204140757,pdf,88285e03c7c1cc6b5dcb3df57ca72122,,,yan gail goroda dlya ludey russkoe izdanie q70,0,2000-01-01 01:00:00,2016-04-03 02:51:08,869000/88285e03c7c1cc6b5dcb3df57ca72122-g.jpg,
6945356,Грамматика японского языка в таблицах,,,,У. П. Стрижак (Авт.),2010,,Восточная книга,,64,0,Russian,"Книги//Нехудожественная литература//Изучение языков мира//Японский язык//Учебники, самоучители, пособия",,0,978-5-7873-0465-7,,,,,,,,,,,0,,,,,,,0,25716752,pdf,d1c4871fc4f02eb186d734367b8a0702,,,Грамматика японского языка в таблицах (У.П. Стрижак),0,2000-01-01 01:00:00,2016-04-03 02:51:08,869000/d1c4871fc4f02eb186d734367b8a0702-d.jpg,,
6945357,Разработка приложений для Windows Phone 7.5,,Профессиональное программирование : PRO,,"Пугачев, Сергей Вячеславович;Павлов, Станислав Иванович; Сошников, Дмитрий Валерьевич",2012,,БХВ-Петербург,Санкт-Петербург,376 с,0,Russian,"Радиоэлектроника -- Электрическая связь -- Радиосвязь -- Радиотелефонная связь. Сотовая связь. Мобильная связь -- Радиотелефоны. Сотовые телефоны -- Автоматизация, Смартфоны, Телевидение -- Цветное телевидение -- Видеозапись и воспроизведение изображений -- Запись на киноплен",,0,978-5-9775-0873-5,,,,,,,,,,,0,,,,,,,1,16389789,pdf,48d26840bf3b9fb9d717740132df4c5c,,,wp7.5,0,2000-01-01 01:00:00,2016-04-03 02:51:08,http://static.ozone.ru/multimedia/books_covers/c200/1005352155.jpg,,
6945358,Разработка приложений для Windows 8 на языке C#,,Профессиональное программирование,,С. Пугачев (Авт.),2013,,БХВ-Петербург,,416,0,Russian,Книги//Нехудожественная литература//Компьютерная литература//Языки и системы программирования//C#. Язык программирования Си ШарпКниги//Нехудожественная литература//Компьютерная литература//Базы данных//Разработка приложений для баз данных,,0,978-5-9775-0846-9,,,,,,,,,,,0,,,,,,,1,11658299,pdf,0edb377c608c9a859315573ed4427f05,,,windows8csharp,0,2000-01-01 01:00:00,2016-04-03 02:51:08,869000/0edb377c608c9a859315573ed4427f05-d.jpg,,
6945359,Political Discourse Analysis. A method for advanced students,,,,"Isabela Fairclough, Norman Fairclough",2012,,Routledge,,275,0,English,"Discourse Analysis, Critical Discourse Analysis, Argumentation Theory, Rhetoric, Pragma-Dialectics, Political Philosophy",,0,,,,,,,,,,,,0,,,,,,,0,32195748,pdf,5f43a73441e110c26e500ac7df0ecd0d,,,Fairclough _amp; Fairchough(2012) - Political Discourse Analysis,0,2000-01-01 01:00:00,2016-04-03 02:51:08,869000/5f43a73441e110c26e500ac7df0ecd0d-g.jpg,,
6945360,Singular Perturbations of Differential Operators: Solvable Schrödinger-type Operators,,London Mathematical Society Lecture Note Series 271,,"S. Albeverio, P. Kurasov",2000,,Cambridge University Press,,444,0,English,Mathematics,,0,"052177912X,9780521779128",,,,,,,,,,,600,,,,,1,,1,13204207,djvu,eda62ff6ef006250cefced50a0e12d31,,,"Albeverio, Kurasov - Singular Perturbation",0,2000-01-01 01:00:00,2016-04-03 02:51:08,869000/eda62ff6ef006250cefced50a0e12d31-d.jpg,,
6945361,Сборник текстовых задач по математике. 4 класс,,,,Т. Н. Максимова (Авт.),2010,,ВАКО,,98,0,Russian,Книги//Учебная литература//Педагогам//Учителям//Преподавание учебных предметов//Дополнительные методические пособия//Математика//Математика,,0,978-5-408-00039-5,,,,,,,,,,,0,,,,,,,1,1258882,djvu,b9b9b4e11ecc382305f8b73c0bf06bb5,,,"Максимова Т.Н. - Сборник текстовых задач по математике, 4 класс [2010]",0,2000-01-01 01:00:00,2016-04-03 02:51:08,869000/b9b9b4e11ecc382305f8b73c0bf06bb5-d.jpg,,
6945362,Philosophical Instructions,,,,Ayatullah Muhammad Taqi Misbah Yazdi,1999,,Binghamton University and Brigham Young University,"Binghamton, New York",568,0,English,"philosophy, Islamic philosophy",,0,1-883058-75-9,,,,,,,,,,translated from Persian by Muhammad Legenhausen and Azim Sarvdalir,0,,,,,,,1,2131855,pdf,7590b50d47b675e700dd3ad80c5b6fae,,,philosophicalinstructions,0,2000-01-01 01:00:00,2016-04-03 02:51:08,869000/7590b50d47b675e700dd3ad80c5b6fae-g.jpg,,
6945363,Metric and Differential Geometry: The Jeff Cheeger Anniversary Volume,,Progress in Mathematics 297,,"Xianzhe Dai, Xiaochun Rong",2012,,Birkhäuser,,410,0,English,Mathematics,,0,"3034802560,9783034802567",,,,,,,10.1007/978-3-0348-0257-4,,,,0,,,,,,1,1,7981661,pdf,3ec74de0f99ae6246f11474f72b68f8b,,,Cheeger Metric and Differential Geometry,0,2000-01-01 01:00:00,2016-04-03 02:51:08,869000/3ec74de0f99ae6246f11474f72b68f8b-d.jpg,,
6945364,Για το ζήτημα της κατοικίας,,,,Φρίντριχ Ένγκελς,2012,,Σύγχρονη Εποχή,,152,0,Greek,Marxism,,0,978-960-451-140-2,,,,,,,,,,,600,,,0,,1,1,1,3924667,pdf,845b435e6359f92fcbb8cac689e370d9,,,Gia_to_zhthma_ths_katoikias,0,2000-01-01 01:00:00,2016-04-03 02:51:08,869000/845b435e6359f92fcbb8cac689e370d9-g.jpg,,
6945365,Για το ζήτημα της κατοικίας,,,,Φρίντριχ Ένγκελς,2012,,Σύγχρονη Εποχή,,152,0,Greek,Marxism,,0,978-960-451-140-2,,,,,,,,,,,600,,,0,,1,1,1,1410777,djvu,5343d93d5e84e581b2943052490fbc28,,,Gia_to_zhthma_ths_katoikias,0,2000-01-01 01:00:00,2016-04-03 02:51:08,869000/5343d93d5e84e581b2943052490fbc28-g.jpg,,
6945366,Города для людей,,,,"Гейл, Ян",2012,,"Концерн \Крост\"""," Альпина Паблишер""",Москва,277,0,Russian,"Строительство -- Градостроительство -- Планировка и застройка городов -- Функциональная организация территорий города -- Иллюстративное издание, Города",,0,978-5-9614-1933-7,,,,,,,,,,,300,1,0,0,,1,0,1,17687511,djvu,09dc6fa916b9d85fef1dff589505cbc0,,,Gejl Ja. Goroda dlja ljudej (ru)(2012)(C)(277s)-ocr,0,2000-01-01 01:00:00,2016-04-03 02:51:08,869000/09dc6fa916b9d85fef1dff589505cbc0-g.jpg,
6945367,Jesus of Nazareth: Millenarian Prophet,,,,Dale C. Allison,1991,,Augsburg Fortress Publishers,,268,0,English,"Biblical Studies, Historical Jesus",,0,978-0800631444,,,,,,,,,,,0,,,,,,,1,8601910,pdf,37760374ec9b53c4044c7ccd4bb15827,,,Allisonjesusofnazareth,0,2000-01-01 01:00:00,2016-04-03 02:51:08,870000/37760374ec9b53c4044c7ccd4bb15827-d.jpg,,
6945368,Fundamentals of corporate finance,,"McGraw-Hill/Irwin series in finance, insurance, and real estate.",,"Richard A. Brealey, Stewart C. Myers, Alan J. Marcus.",2001,3,McGraw-Hill Irwin,"Boston, Mass.",651,0,English,Corporations -- Finance.Bedrijfsfinanciën.Corporate Finance.Finanzierungstheorie.Management.Corporations -- Finance. -- Management.,,0,0-07-553109-7,,,,,,,,,,,0,,,,,,,1,3054052,pdf,51ad36f621ede407444cc14c5e1d7215,,,Brealey R.A. et al. - Fundamentals of Corporate Finance. 3rd еdition,0,2000-01-01 01:00:00,2016-04-03 02:51:08,870000/51ad36f621ede407444cc14c5e1d7215-g.jpg,,
6945369,Spreadsheet modeling in corporate finance,,Spreadsheet modeling series.,,Craig W. Holden.,2002.,English,Prentice Hall,"Upper Saddle River, N.J.",161,0,English,Corporations -- Finance -- Mathematical models.Electronic spreadsheets.Corporations -- Finance.,,0,"0130499056,9780130499059,0130675237,9780130675231",,,,,,,,,,,0,,,,,,,1,1543198,pdf,205c0ae698392b68717e13b8cd4f195c,,,Craig W. Holden - Spreadsheet Modeling in Corporate Finance (To accompany Principles of Corporate Finance by Brealey and Myers),0,2000-01-01 01:00:00,2016-04-03 02:51:08,870000/205c0ae698392b68717e13b8cd4f195c-g.jpg,,
6945370,Rozumowania abdukcyjne. Modele i procedury,,,,Mariusz Urbański,2009,,Wydawnictwo Naukowe UAM,Poznań,213,0,Polish,Philosophy,,0,9788323221098,,,,,,,,,,,0,,,,,,,1,2024126,pdf,751e8753368d7c257e4479fa45680358,,,URBAŃSKI-Rozumowania abdukcyjne...-2009,0,2000-01-01 01:00:00,2016-04-03 02:51:08,870000/751e8753368d7c257e4479fa45680358-g.jpg,,
6945371,Mensch und Welt in Dostoevskijs Werk. ein Beitrag zur poetischen Anthropologie,,"Bausteine zur slavischen Philologie und Kulturgeschichte.,n.F., Bd. 8",,Birgit Harress,1993,,Böhlau,Köln,389,0,German,"Dostoyevsky, Fyodor, 1821-1881 -- Philosophy.; Dostoyevsky, Fyodor, 1821-1881 -- Characters.; Human beings in literature.; Literature and society -- Russia -- History -- 19th century.",,0,3412004936,,,,,891.73/3,93184807,,,,,0,,,,,,,0,34208671,pdf,56f8083b154e176dff2b1a137066fe6c,,,Haress.MenschWeltDost,0,2000-01-01 01:00:00,2016-04-03 02:51:08,870000/56f8083b154e176dff2b1a137066fe6c-d.jpg,,
6945372,Математическая энциклопедия. Том 4: Ока теоремы — Сложная функция.,4,,,Виноградов И.М. (ред.),1984,,Советская Энциклопедия,,610,0,Russian,M_Mathematics//MGe_Encyclopaediae,,0,,,,,,,,,,,,600,0,1,0,,1,0,1,74745383,pdf,507f285d870b28bc5f373bda240adaa4,,,MathEnc 4,0,2000-01-01 01:00:00,2016-04-03 02:51:08,870000/507f285d870b28bc5f373bda240adaa4-g.jpg,,
6945373,Visual Complex Functions: An Introduction with Phase Portraits,,,,Elias Wegert,2012,,Birkhäuser,,375,0,English,Mathematics,,0,"3034801793,9783034801799",,,,,,,10.1007/978-3-0348-0180-5,,,"Cover, Bookmarks, Pagination",0,,,,1,0,1,1,20631456,pdf,b3314402874aa1cef48dc452dc5969b8,,,visual-complex-functions-an-introduction-with-phase-portraits,0,2000-01-01 01:00:00,2016-04-03 02:51:08,870000/b3314402874aa1cef48dc452dc5969b8-d.jpg,,
6945374,Images: A Reader,,,,"Sunil Manghani, Arthur Piper, Jon Simons",2006,1,SAGE Publications Ltd,London,352,0,English,Visual studies,,0,"141290045X,9781412900454",,,,,,,,,,Resource for image analysis,0,,,,,,,,117746952,pdf,dd9bb2c12e45dfb3c6158cbaaa7a5199,,,Images-A-Reader,0,2000-01-01 01:00:00,2016-04-03 02:51:08,870000/dd9bb2c12e45dfb3c6158cbaaa7a5199-d.jpg,,
6945375,Classical Mechanics with Mathematica®,,"Modeling and Simulation in Science, Engineering and Technology",,Antonio Romano,2012,,Birkhäuser,,521,0,English,Mathematics,,0,"0817683518,9780817683511",,,,,,,10.1007/978-0-8176-8352-8,,,,0,,,,1,0,1,1,7402264,pdf,22dbe4aa8c2d8b0577ab64c0c12715a2,,,classical-mechanics-with-mathematica,0,2000-01-01 01:00:00,2016-04-03 02:51:08,870000/22dbe4aa8c2d8b0577ab64c0c12715a2-d.jpg,,
6945376,"Light It, Shoot It, Retouch It: Learn Step by Step How to Go from Empty Studio to Finished Image",,Voices That Matter,,Scott Kelby,2011,1,Peachpit Press,,264,0,English,Photography,,0,"0321786610,9780321786616",,,,,,,,,,,0,,,,,,,,31133756,mobi,8c4d810ca4dd7947bffd203b73233ad5,,,"Kelby, Scott (2011-09-02). Light It, Shoot It, Retouch It Learn Step by Step How to Go from Empty Studio to Finished Image",0,2000-01-01 01:00:00,2016-04-03 02:51:08,870000/8c4d810ca4dd7947bffd203b73233ad5-d.jpg,,
6945377,Motion control,,,,edited by Federico Casolo.,2010.,,In-Tech,s.n.,590,0,English,Control automàtic.,,0,"9789537619558,9537619559",,,,,,,,,,,0,,,,,,,1,68601106,pdf,a676284a72d0bcbe8bd7de03b9d9c08e,,, CasoloFederico - Motion  Control - 2010 - 558,0,2000-01-01 01:00:00,2016-04-03 02:51:08,870000/a676284a72d0bcbe8bd7de03b9d9c08e-g.jpg,,
6945378,Frontiers in adaptive control,,,,edited by Shuang Cong.,2009.,,InTech,"Rijek, Crotia",334,0,English,Adaptive control systems.,,0,978-953-7619-43-5,,,,,,,,,,,0,,,,,,,1,37979181,pdf,1426ce55d4a26736150bab9edcc034c6,,,CongShuang - FrontiersInAdaptive  Control - 2009 - 435,0,2000-01-01 01:00:00,2016-04-03 02:51:08,870000/1426ce55d4a26736150bab9edcc034c6-g.jpg,,
6945379,Robot surgery,,,,Seung Hyuk Baik.,2010.,,InTech,"Rijeka, Croatia",172,0,English,Robotics in medicine.Surgical robots.,,0,"9789537619770,953761977X",,,,,,,,,,,0,,,,,,,1,25321277,pdf,ffdccbde9aedca3be053dfab132beee7,,,BaikHyuk - RobotSurgery - 2010 - 770,0,2000-01-01 01:00:00,2016-04-03 02:51:08,870000/ffdccbde9aedca3be053dfab132beee7-g.jpg,,
6945380,The Stone Gods,,,,Jeanette Winterson,2008,,Knopf Canada,Toronto,224,0,English,Fiction,,0,"030739722X,9780307397225",,,,,,,,,,,0,,,,,,,1,855765,pdf,77d3fb1061a7c180536b74ca484e1e45,,,The stone gods - Jeanette Winterson,0,2000-01-01 01:00:00,2016-04-03 02:51:08,870000/77d3fb1061a7c180536b74ca484e1e45-d.jpg,,
6945381,"Ο Ευρωπαϊκός Διαφωτισμός, Τόμος Α΄",,Ιστορική Βιβλιοθήκη,,Παναγιώτης Κονδύλης,2004.,4th ed.,Θεμέλιο,Αθήνα,218,0,"Greek, Modern [1453","Enlightenment.Rationalism.Philosophy, Modern -- 18th century.",,0,"9603100072,9789603100072,9603100099,9789603100096",,,,,,,,,,,0,0,,1,0,1,,0,39226554,pdf,777b721a07bbce3c241cdce2bcbf9b8a,,,KOND.AUFKL.1,0,2000-01-01 01:00:00,2016-04-03 02:51:08,870000/777b721a07bbce3c241cdce2bcbf9b8a-g.jpg,,
6945382,"Ο Ευρωπαϊκός Διαφωτισμός, Τόμος Β΄",,Ιστορική Βιβλιοθήκη,,Παναγιώτης Κονδύλης,2004.,4th ed.,Θεμέλιο,Αθήνα,2 v. ; 21 cm.,0,"Greek, Modern [1453","Enlightenment.Rationalism.Philosophy, Modern -- 18th century.",,0,"9603100072,9789603100072,9603100099,9789603100096",,,,,,,,,,,0,,,1,0,1,,0,38768895,pdf,7c4d9d832cab79787a2fb3c35039c2c6,,,KOND.AUFKL.2,0,2000-01-01 01:00:00,2016-04-03 02:51:08,870000/7c4d9d832cab79787a2fb3c35039c2c6-g.jpg,,
6945383,Минералы Ковдора,,,,"Иванюк Г.Ю., Яковенчук В.Н.",1997,,Изд-во Кольского НЦ РАН,Ковдор-Апатиты,117,0,Russian,"Геология, минералогия",,0,,,,,,,,,,,,0,1,,0,,1,1,1,6992571,djvu,4a5a1d9feed9f73dbcd2cf90b69d24ea,,,Иванюк Яковенчук_Минералы Ковдора 1997,0,2000-01-01 01:00:00,2016-04-03 02:51:08,870000/4a5a1d9feed9f73dbcd2cf90b69d24ea-g.jpg,,
6945384,"Modules : Théorie, pratique... et un peu d'arithmétique",,,,Gregory Berhuy,2012,,Calvage et Mounet,,402,0,French,Mathematics,,0,"2916352252,9782916352251",,,,,,,,,,,600,,,,,1,,1,5195266,djvu,4a03d1b0ffe3912fdd54f2c15ee6073a,,,Berhuy - Modules,0,2000-01-01 01:00:00,2016-04-03 02:51:08,870000/4a03d1b0ffe3912fdd54f2c15ee6073a-d.jpg,,
6945385,Νίκος Γαβριήλ Πεντζίκης. Ο άνθρωπος και τα σύμβολα,,Πορτραίτα,,Εύη Βογιατζάκη,2004.,,Σαββάλας,Αθήνα,287,0,"Greek, Modern [1453","Pentzikēs, Nikos Gabriēl, -- 1908-1993. Νίκος Γαβριήλ Πεντζίκης. Greek Literature",,0,"9604231537,9789604231539",,,,,,,,,,,0,0,,1,0,1,,0,19097559,pdf,a12143afb1e837ce8f638ebbfde5e625,,,V.Petz,0,2000-01-01 01:00:00,2016-04-03 02:51:08,870000/a12143afb1e837ce8f638ebbfde5e625-g.jpg,,
6945386,"Ulysses. Οδηγός ανάγνωσης, 3η έκδ.",,Επί των κειμένων,,Άρης Μαραγκόπουλος,2010,3rd ed.,Εκδόσεις Τόπος,Αθήνα,250,0,Greek,"James Joyce, Ulysses, Literature, Irish literature",,0,978-960-6863-49-3,,,,,,,,,,,0,,,,,,,0,30796101,pdf,599bb57a896a46a1501382dc375c2be1,,,UL.MAR,0,2000-01-01 01:00:00,2016-04-03 02:51:08,870000/599bb57a896a46a1501382dc375c2be1-g.jpg,,
6945387,Ντοστογιέφσκι. Η ζωή μέσα από το έργο του,,,,Μαξιμίλιαν Μπράουν (Maximilian Braun),2008,1st ed.,Εκκρεμές,Αθήνα,211,0,Greek,"Dostoyevsky, Fyodor, 1821-1881 Dostoyevsky, Fyodor, Literature -- Russia --19th century.",,0,978-960-7651-59-4,,,,,,,,,,,0,0,,1,0,1,0,0,34764174,pdf,5a4ee5901e1f75158af938e6cea6e751,,,MB.D,0,2000-01-01 01:00:00,2016-04-03 02:51:08,870000/5a4ee5901e1f75158af938e6cea6e751-g.jpg,,
6945388,"Chaos, Fractals, and Noise: Stochastic Aspects of Dynamics, Second Edition",,Applied Mathematical Sciences97,,"Andrzej Lasota, Michael C. Mackey",1994,,Springer,,490,0,English,"Chaos, Fractals, Noise",,0,0-387-94049-9,,,,,,,,,,,300,,,0,,1,,1,15224479,pdf,81805c0c56f7c4fc34f4ab62a26039d1,,,"Andrzej_Lasota,_Michael_C._Mackey_Chaos,_Fractals,_and Noise_Stochastic_Aspects_of_Dynamics_2nd_Ed.__1994",0,2000-01-01 01:00:00,2016-04-03 02:51:08,870000/81805c0c56f7c4fc34f4ab62a26039d1-g.jpg,,
6945389,The cinema of Eisenstein : with a new preface by the author,,,,David Bordwell,2005,,Routledge,New York,316,0,English,"Eisenstein, Sergei, -- 1898-1948 -- Criticism and interpretation.Silent films -- Soviet Union -- History and criticism.Eisenstein, Sergei, -- 1898-1948 -- Critique et interprétation.Films muets -- URSS -- Histoire et critique.Ėjzenštejn, Sergej M.",,0,"0415973651,9780415973656",,,,,,,,,,,0,,,1,0,1,0,0,75041086,pdf,8a9157c54f10f3e7fa3a66425043f806,,,DBTCOE,0,2000-01-01 01:00:00,2016-04-03 02:51:08,870000/8a9157c54f10f3e7fa3a66425043f806-d.jpg,,
6945390,Reading T.S. Eliot : four quartets and the journey towards understanding,,,,G. Douglas Atkins.,2012.,,Palgrave Macmillan,New York,198,0,English,"Eliot, T. S. -- (Thomas Stearns), -- 1888-1965 -- Criticism and interpretation.Eliot, T. S. -- (Thomas Stearns), -- 1888-1965. -- Four quartets.Poetics -- History -- 20th century.LITERARY CRITICISM / American / GeneralLITERARY CRITICISM / PoetryLITERARY CRITICISM / ReferenceEliot, Thomas S.Eliot, Thomas S., -- 1888-1965.",,0,"9780230112483,023011248X",,,,,,,10.1057/9781137011589,,,,0,1,,0,1,0,,1,1586706,pdf,a04dbc40caadc6dc8b98fb763c6c79a3,,,023011248X,0,2000-01-01 01:00:00,2016-04-03 02:51:08,870000/a04dbc40caadc6dc8b98fb763c6c79a3-d.jpg,,
6945391,Kosmische Liturgie ; das Weltbild Maximus&#039; des Bekenners,,,,Hans Urs von Balthasar,1961,,Johannes-Verlag,"Einsiedeln, Switz.",691,0,German,"Maximus, -- Confessor, Saint, -- approximately 580-662.Maxime de Chrysopolis -- (0580-0662; -- saint).",,0,,,,,,,,,,,,0,,,0,1,1,,1,75048458,pdf,86b1c5ddca2c0c6d18fd94e74712c4be,,,HUvBKL,0,2000-01-01 01:00:00,2016-04-03 02:51:08,870000/86b1c5ddca2c0c6d18fd94e74712c4be-g.jpg,,
6945392,"Multiple Dirichlet Series, L-functions and Automorphic Forms",,Progress in Mathematics 300,,"Daniel Bump, Solomon Friedberg, Dorian Goldfeld",2012,,Birkhäuser,,367,0,English,Mathematics,,0,"081768333X,9780817683337",,,,,,,10.1007/978-0-8176-8334-4,,,,0,,,,,,1,1,9405381,pdf,33fc0079d4edd85f13b9ac5128d77490,,,Bump - Multiple Dirichlet,0,2000-01-01 01:00:00,2016-04-03 02:51:08,870000/33fc0079d4edd85f13b9ac5128d77490-d.jpg,,
6945393,"Associahedra, Tamari Lattices and Related Structures: Tamari Memorial Festschrift",,Progress in Mathematics 299,,"Folkert Müller-Hoissen, Jean Marcel Pallo, Jim Stasheff",2012,,Birkhäuser,,454,0,English,Mathematics,,0,"3034804040,9783034804042",,,,,,,10.1007/978-3-0348-0405-9,,,,0,,,,,,1,1,22854298,pdf,4ae1667225cb463d63053ab1c50860a2,,,Associahedra,0,2000-01-01 01:00:00,2016-04-03 02:51:08,870000/4ae1667225cb463d63053ab1c50860a2-d.jpg,,
6945394,The films of Andrei Tarkovsky : a visual fugue,,,,Vida T. Johnson and Graham Petrie.,1994.,English,Indiana University Press,Bloomington,178,0,English,"Tarkovskiĭ, Andreĭ Arsenʹevich, -- 1932-1986 -- Criticism and interpretation.Films.Tarkovskij, Andrej Arsenʹevič, -- 1932-1986 -- Critique et interprétation.Tarkovskij, Andrej A.FilmTarkovskiĭ, Andreĭ Arsen&#039;evich, -- 1932-1986 -- Criticism and interpretation.Tarkovskiĭ, Andreĭ Arsenʹevich -- 1932-1986 -- Criticism and interpretation",,0,"0253331374,9780253331373,0253208874,9780253208873",,,,,,,,,,,0,,,1,0,1,,0,33165687,pdf,49c2a1b4773302e3d729653159f3b35c,,,GP.VJ.VF,0,2000-01-01 01:00:00,2016-04-03 02:51:08,870000/49c2a1b4773302e3d729653159f3b35c-g.jpg,,
6945395,Светотехнические измерения,,,,"М. Г. Козлов, К. А. Томский (Авт.)",2004,,Петербургский институт печати,,320,0,Russian,Книги//Учебная литература//Студентам и аспирантам//Естественные науки. Математика//Физика//Оптика,,0,5-8122-0305-9,,,,,,,,,,,600,1,1,0,,1,1,1,4630063,djvu,5288019a5bd563aeb4c3cf6fbb6c868f,,,"Kozlov M.G., Tomskij K.A. Svetotexnicheskie izmereniya (Peterburgskij in-t pechati, 2004)(ISBN 5812203059)(ru)(600dpi)(K)(S)(T)(O)(320s)_ET_",0,2000-01-01 01:00:00,2016-04-03 02:51:08,870000/5288019a5bd563aeb4c3cf6fbb6c868f-g.jpg,,
6945396,Светотехнические измерения,,,,"М. Г. Козлов, К. А. Томский (Авт.)",2004,,Петербургский институт печати,,320,0,Russian,Книги//Учебная литература//Студентам и аспирантам//Естественные науки. Математика//Физика//Оптика,,0,5-8122-0305-9,,,,,,,,,,,600,1,1,0,,1,1,1,8865117,pdf,10b138d11014055672cfd57632fbbbb3,,,"Kozlov M.G., Tomskij K.A. Svetotexnicheskie izmereniya (Peterburgskij in-t pechati, 2004)(ISBN 5812203059)(ru)(600dpi)(K)(S)(T)(O)(320s)_ET_",0,2000-01-01 01:00:00,2016-04-03 02:51:08,870000/10b138d11014055672cfd57632fbbbb3-g.jpg,,
6945397,"Food lipids : chemistry, nutrition, and biotechnology",,"Food science and technology (Marcel Dekker, Inc.), 88.",,"edited by Casimir C. Akoh, David B. Min.",1997.,,Marcel Dekker,New York,816 p,0,English,Lipids.Lipids in human nutrition.Lipids -- Biotechnology.Lipids -- Metabolism.Food.Nutrition.MEDICAL -- Nutrition.,,0,"0585158347,9780585158341",,,,,,,,,,,400,,,,,,,1,8387146,djvu,9cc6df9fa00e6f72a68ea2199b72d315,,,"Akoh C.C., Min D.B. (eds.) Food lipids (Dekker, 1998)(ISBN 0824799852)(400dpi)(T)(807s)",0,2000-01-01 01:00:00,2016-04-03 02:51:08,870000/9cc6df9fa00e6f72a68ea2199b72d315-d.jpg,,
6945398,Manufacturing engineering processes,,"Manufacturing engineering and materials processing, 40.",,Leo Alting ; english version edited by Geoffrey Boothroyd.,1994.,"2nd ed., revised and expanded",Marcel Dekker,New York [etc.,487,0,English,Fabricació.Manufactures -- Planificació.Producció -- Planificació.,,0,"0824791290,9780824791292",,,,,,,,,,,400,,,,,,,1,7493654,djvu,de84f7815f4a930bd8bf417e216527f5,,,"Alting L. Manufacturing engineering processes (2ed., Dekker, 1994)(ISBN 0824791290)(400dpi)(T)(487s)",0,2000-01-01 01:00:00,2016-04-03 02:51:08,870000/de84f7815f4a930bd8bf417e216527f5-d.jpg,,
6945399,Industrial solvents handbook,,,,Wesley L. Archer.,1996.,English,M. Dekker,New York,315,0,3.5 in. disc,"Solvents -- Handbooks, manuals, etc.Tecnologia quimicaToxicologia industrialIndustrie.Lösungsmittel.Toxikologie.",,0,"0824797183,9780824797188",,,,,,,,,,,400,,,,,,,1,2130795,djvu,5d62c5a0e5d61536e6492b3ea485ca0b,,,"Archer W.L. Industrial solvents handbook (Dekker, 1996)(ISBN 0824797183)(400dpi)(T)(315s)",0,2000-01-01 01:00:00,2016-04-03 02:51:08,870000/5d62c5a0e5d61536e6492b3ea485ca0b-d.jpg,,
6945400,"Foams : theory, measurements, and applications",,"Surfactant science series, v. 57.",,"edited by Robert K. Prud'homme, Saad A. Khan.",1996,,Marcel Dekker,New York,588,0,English,Foam.Émulsions.Mousse (chimie).Mousse (chimie) -- Applications industrielles.,,0,"0824793951,9780824793951",,,,,,,,,,,0,,,,,,,1,5382568,djvu,1119746448828a126f0350aadd059abc,,,"Prud__039;homme R.K., Khan S.A. (eds.) Foams.. theory, measurements, and applications (Dekker, 1996)(ISBN 0824793951)(400dpi)(T)(588s)",0,2000-01-01 01:00:00,2016-04-03 02:51:08,870000/1119746448828a126f0350aadd059abc-d.jpg,,
6945401,Free radicals and oxidation phenomena in biological systems,,,,"Marcel Roberfroid, Pedro Buc Calderon.",1995.,1,M. Dekker,New York,264,0,English,"Free radicals (Chemistry) -- Pathophysiology.Active oxygen -- Pathophysiology.Oxidation, Physiological.Free Radicals -- chemistry.Free Radicals -- metabolism.Antioxidants -- therapeutic use.Antioxidants -- pharmacology.Radicalen (chemie)Oxidatieve stress.Freies Radikal.Oxidation.Pathophysiologie.Physiologie.",,0,"0824795873,9780824795870",,,,,,,,,,,400,,,,,,,1,1644939,djvu,e677ca3b718331030bcbac934c34b7eb,,,"Roberfroid M., Calderon P.B. Free radicals and oxidation phenomena in biological systems (Dekker, 1995)(ISBN 0824795873)(400dpi)(T)(264s)",0,2000-01-01 01:00:00,2016-04-03 02:51:08,870000/e677ca3b718331030bcbac934c34b7eb-d.jpg,,
6945402,Animasophy : theoretical writings on the animated film,,,,Ülo Pikkov ; [translated by Eva N̈aripea].,2010,,Estonian Academy of Arts,Tallinn,"199, [1] p. : ill. ; 21 cm. + 1 videodisc (4 3/4 in.)",0,English,Animated films.Animationsfilm.Filmtheorie.,,0,"9789949467068,9949467063,9789949467044,9949467047",,,,,,,,,,,0,1,1,0,1,0,0,1,3986139,pdf,1b8806185a06c19ede4aa47fce234f19,,,Ulo Pikkov - Animasophy,0,2000-01-01 01:00:00,2016-04-03 02:51:08,870000/1b8806185a06c19ede4aa47fce234f19-g.jpg,,
6945403,"Yamabe-type Equations on Complete, Noncompact Manifolds",,Progress in Mathematics 302,,"Paolo Mastrolia, Marco Rigoli, Alberto G Setti",2012,,Birkhäuser,,265,0,English,Mathematics,,0,"3034803753,9783034803755",,,,,,,10.1007/978-3-0348-0376-2,,,,0,,,,,,,1,3401293,pdf,3684b1de0182161d426213b60b5c914f,,,Yamabe-type,0,2000-01-01 01:00:00,2016-04-03 02:51:08,870000/3684b1de0182161d426213b60b5c914f-d.jpg,,
6945404,Chinese medical Qigong therapy. Energetic Anatomy and Physiology,vol 1,,,"Jerry Alan Johnson ; edited by L. Francesca Ferrari, Gideon B. Enz, Suzanne B. Friedman.",2002.,,International Institute of Medical Qigong,"Pacific Grove, CA",5 v. : ill. ; 24 cm.,0,English,Qi gong.,,0,"1885246285,9781885246288,1885246293,9781885246295,1885246307,9781885246301,1885246315,9781885246318,1885246323,9781885246325",,,,,,,,,,,0,,,,,,,1,32053197,pdf,936ac478522914ac4a3ae5c2729faa0b,,,Jerry A. Johnson - CMQT (Vol1) - Energetic Anatomy and Physiology,0,2000-01-01 01:00:00,2016-04-03 02:51:08,870000/936ac478522914ac4a3ae5c2729faa0b-g.jpg,,
6945405,"Chinese medical Qigong therapy. Energetic Alchemy, Dao Yin Therapy and Qi Deviations",vol 2,,,"Jerry Alan Johnson ; edited by L. Francesca Ferrari, Gideon B. Enz, Suzanne B. Friedman.",2002.,,International Institute of Medical Qigong,"Pacific Grove, CA",5 v. : ill. ; 24 cm.,0,English,Qi gong.,,0,"1885246285,9781885246288,1885246293,9781885246295,1885246307,9781885246301,1885246315,9781885246318,1885246323,9781885246325",,,,,,,,,,,0,,,,,,,1,33629199,pdf,dedb1c7e44139a5daae4495e62b1434a,,,"Jerry A. Johnson - CMQT (Vol2) - Energetic Alchemy, Dao Yin Therapy and Qi Deviations",0,2000-01-01 01:00:00,2016-04-03 02:51:08,870000/dedb1c7e44139a5daae4495e62b1434a-d.jpg,,
6945406,"Chinese medical Qigong therapy. Differential Diagnosis, Clinical Foundations, Treatment Principles and Clinical Protocols",vol 3,,,"Jerry Alan Johnson ; edited by L. Francesca Ferrari, Gideon B. Enz, Suzanne B. Friedman.",2002.,,International Institute of Medical Qigong,"Pacific Grove, CA",5 v. : ill. ; 24 cm.,0,English,Qi gong.,,0,"1885246285,9781885246288,1885246293,9781885246295,1885246307,9781885246301,1885246315,9781885246318,1885246323,9781885246325",,,,,,,,,,,0,,,,,,,1,32590690,pdf,2bfa2d8d34fc09cd36192fd580733f0b,,,"Jerry A. Johnson - CMQT (Vol3) - Differential Diagnosis, Clinical Foundations, Treatment Principles and Clinical Protocols",0,2000-01-01 01:00:00,2016-04-03 02:51:08,870000/2bfa2d8d34fc09cd36192fd580733f0b-g.jpg,,
6945407,"Chinese medical Qigong therapy. Prescription Exercises and Meditations, Treatment of Internal Diseases",vol 4,,,"Jerry Alan Johnson ; edited by L. Francesca Ferrari, Gideon B. Enz, Suzanne B. Friedman.",2002.,,International Institute of Medical Qigong,"Pacific Grove, CA",5 v. : ill. ; 24 cm.,0,English,Qi gong.,,0,"1885246285,9781885246288,1885246293,9781885246295,1885246307,9781885246301,1885246315,9781885246318,1885246323,9781885246325",,,,,,,,,,,0,,,,,,,1,32745768,pdf,070b2484365e500e999373fc05a8df92,,,"Jerry A. Johnson - CMQT (Vol4) - Prescription Exercises and Meditations, Treatment of Internal Diseases",0,2000-01-01 01:00:00,2016-04-03 02:51:08,870000/070b2484365e500e999373fc05a8df92-g.jpg,,
6945408,"Evolution Equations of Hyperbolic and Schrödinger Type: Asymptotics, Estimates and Nonlinearities",,Progress in Mathematics 301,,"Michael Ruzhansky, Mitsuru Sugimoto, Jens Wirth",2012,,Birkhäuser,,333,0,English,Mathematics,,0,"3034804539,9783034804530",,,,,,,10.1007/978-3-0348-0454-7,,,,0,,,,,,1,1,6492268,pdf,5b28c0e19a432711370de0cb5fd7de8c,,,Evolution Schrodinger,0,2000-01-01 01:00:00,2016-04-03 02:51:08,870000/5b28c0e19a432711370de0cb5fd7de8c-d.jpg,,
6945409,The Dzogchen Community,,,,Chögyal Namkhai Norbu,2006,,Shang Shung Edizioni,Arcidosso,81,0,,Dzogchen,,0,,,,,,,,,,,,600,1,1,0,1,1,1,1,2762361,pdf,49b092fe6528d43d87df06c4175b6740,,,Chögyal Namkhai Norbu - The Dzogchen Community,0,2000-01-01 01:00:00,2016-04-03 02:51:08,870000/49b092fe6528d43d87df06c4175b6740-g.jpg,,
6945410,Amyloid Proteins: Methods and Protocols,849,Methods in Molecular Biology,,"Einar M. Sigurdsson, Miguel Calero, María Gasset",2012,2nd ed. 2012,Humana Press,New York Dordrecht Heidelberg London,563,0,English,Biochemistry/Cell Biology/Physiology/Medicine,,0,"161779550X,9781617795503",,,,,,,,,,,0,,,,,,,1,8666917,pdf,85e97dc0b2b1150941751be79240ba72,,,Amyloid_Proteins_MMB_849,0,2000-01-01 01:00:00,2016-04-03 02:51:08,870000/85e97dc0b2b1150941751be79240ba72-d.jpg,,
6945411,Recombinant Protein Production in Yeast: Methods and Protocols,866,Methods in Molecular Biology,,Roslyn M. Bill,2012,2012,Humana Press,New York Dordrecht Heidelberg London,260,0,English,Biochemistry/Cell Biology/Physiology/Medicine,,0,"1617797693,9781617797699",,,,,,,,,,,0,,,,,,,1,3331957,pdf,6c195bdbd9c48ffb57215bc299bdcdfc,,,Recombinant_Protein_Production_Yeast_MMB_866,0,2000-01-01 01:00:00,2016-04-03 02:51:08,870000/6c195bdbd9c48ffb57215bc299bdcdfc-d.jpg,,
6945412,Che cos&#039;è la dialettica hegeliana? : un&#039;interpretazione analitica del metodo,,"Letture filosofiche, 6.",,Francesco Berto ; prefazione di Diego Marconi.,2005.,,Il poligrafo,Padova,453 p. ; 21 cm.,0,Italian,"Hegel, Georg Wilhelm Friedrich, -- 1770-1831.Dialectic.Hegel, Georg Wilhelm Friedrich.Dialektik.",,0,"8871154843,9788871154848",,,,,,,,,,,0,,,,,,,1,12597205,pdf,72637835569008b8a8779ca949ecf978,,,116029105-Francesco-Berto-Che-cos-e-la-dialettica-hegeliana,0,2000-01-01 01:00:00,2016-04-03 02:51:08,870000/72637835569008b8a8779ca949ecf978-g.jpg,,
6945413,Metafisica delle forme simboliche,,,,Ernst Cassirer ; a cura di Giulio Raio.,2003.,1. ed,Sansoni,Milano,370,0,Italian,"Language and languages -- Philosophy.Knowledge, Theory of.Symbolism.Metaphysics.Symbol.Philosophie.",,0,"8838348057,9788838348051",,,,,,,,,,,0,,,,,,,0,10597706,pdf,5b1fb5bb8d126c449e67b7950925f7de,,,116022499-Ernst-Cassirer-Metafisica-delle-forme-simboliche,0,2000-01-01 01:00:00,2016-04-03 02:51:08,870000/5b1fb5bb8d126c449e67b7950925f7de-g.jpg,,
6945414,Linear Systems and Signals,,Oxford Series in Electrical and Computer Engineering,,B. P. Lathi,2004,2,"Oxford University Press, USA",New York,992,0,English,engineering,,0,"0195158334,9780195158335",,9780195158335,,,,,,,OL14756883M,,0,0,1,0,0,0,1,1,27104650,pdf,52b83cbc299814b822175b3e38547570,,,"Linear Systems and Signals, 2nd Edition - B.P. Lathi",0,2000-01-01 01:00:00,2016-04-03 02:51:08,870000/52b83cbc299814b822175b3e38547570-d.jpg,,
6945415,Άπαντα,,"Αρχαίοι συγγραφείς, 8.",,"Ηράκλειτος [Τ. Φάλκος-Αρβανιτάκης, Ι.Σ. Χριστδούλου, W.K.C. Guthrie",1999.,,Ζήτρος,Θεσσαλονίκη,339 p. ; 20 cm.,0,Greek,"Philosophy, Ancient.",,0,"9607760360,9789607760364",,,,,,,,,,,0,1,,1,0,1,,0,7249156,pdf,80f7ba5cf155f2de08e8aaf1b08ee60f,,,Heraklit,0,2000-01-01 01:00:00,2016-04-03 02:51:08,870000/80f7ba5cf155f2de08e8aaf1b08ee60f-g.jpg,,
6945416,Il Graal : i testi che hanno fondato la leggenda,,"I meridiani., Classici dello spirito.",,a cura di Mariantonia Liborio ; saggio introduttivo di Francesco Zambon ; traduzioni e commenti di Adele Cipolla ... [et al.].,2005,,Mondadori,Milano,1788,0,Italian,Graal nella letteratura.,,0,"8804538198,9788804538196",,,,,,,,,,,0,,,,,,,0,46132312,pdf,8962396545a7d097578664b892022570,,,100204604-Graal-I-testi-che-hanno-fondato-la-leggenda,0,2000-01-01 01:00:00,2016-04-03 02:51:08,870000/8962396545a7d097578664b892022570-g.jpg,,
6945417,"Русские глагольные приставки: семантическое устройство, системные отношения",,,,"Волохина, Галина Андреевна;Попова, Зинаида Даниловна;авт.",1993,,Изд-во Воронеж. ун-та,Воронеж,"192,[2] с.",0,Russian,"Приставки в русском языке, Глагол в русском языке, Русский язык - Семантика",,0,5-7455-0414-5,,,808.2-28,,,,,,,,0,,,,,,,0,27402054,pdf,294e8bf0903d8bb34ab25f8e4eb70c43,,,Binder2,0,2000-01-01 01:00:00,2016-04-03 02:51:08,870000/294e8bf0903d8bb34ab25f8e4eb70c43-g.jpg,,
6945418,Gaussian Processes,,Translations of Mathematical Monographs 120,,Takeyuki Hida and Masuyuki Hitsuda,1993,,American Mathematical Society,,203,0,English,Mathematics,,0,0-8218-4568-3,,,,,,,,,,,600,,,,,1,,1,2869623,djvu,4c2c6ee1bb4838c2434e84240b8506ea,,,"Hida, Hitsuda - Gaussian Processes",0,2000-01-01 01:00:00,2016-04-03 02:51:08,870000/4c2c6ee1bb4838c2434e84240b8506ea-d.jpg,,
6945419,Le peri philosophias d'Aristote et la theorie platoniceinne des idees nombres,,,,H.D. Saffrey,1955,,E.J. Brill,Leiden,74,0,French,philosophy,,0,,,,,,,,,,,,0,0,,,0,1,0,0,55771887,pdf,0d0c50d7667b6dfb24844f3c4b307643,,,SAFFREY-Le Peri philosophias d__039;Aristote...-1955a,0,2000-01-01 01:00:00,2016-04-03 02:51:08,870000/0d0c50d7667b6dfb24844f3c4b307643-g.jpg,,
6945420,La filosofia antica. Volume 1,1,"Universale economica Feltrinelli, 1135",,Francesco Adorno,1991,"1. ed. nell&#039;\Universale economica\""""",Feltrinelli,Milano,480,0,Italian,"Philosophy, Ancient.Christianity -- Philosophy -- History.",,0,8807811359,,,,,,,,,,,0,,,,,,,1,13543864,pdf,34551ce07422eecdddaf47e480a9e5f0,,,109842948-Francesco-Adorno-La-filosofia-antica-vol-I-TR,0,2000-01-01 01:00:00,2016-04-03 02:51:08,870000/34551ce07422eecdddaf47e480a9e5f0-g.jpg,,
6945421,Decolonization and the Evolution of International Human Rights,6,Pennsylvania Studies in Human Rights,,Rolan Burke,2010,,University of Pennsylvania Press,"Philadelphia, PA",240,0,English,"Human Rights, Law, Political Science",,0,081224219X,,,,,,,10.1177/1743872110374267,,,,0,0,0,1,0,1,0,0,19564571,pdf,89a7d6094aa4a5bb789e7b00cc99c587,,,Burke_Decolonization,0,2000-01-01 01:00:00,2016-04-03 02:51:08,870000/89a7d6094aa4a5bb789e7b00cc99c587-d.jpg,,
6945422,La filosofia antica. Volume 2,,"Universale economica Feltrinelli, 1136",,Francesco Adorno,1991,,Feltrinelli,Milano,387 S.,0,Italian,Philosophie.Geschichte Anfänge-100 v. Chr.Geschichte 800 v. Chr.-500.Philosophie -- Geschichte Anfänge-100 v. Chr.Philosophie -- Geschichte 800 v. Chr.-500,,0,8807811367,,,,,,,,,,,0,,,,,,,1,10125525,pdf,f2824abe108cd4cadfa24172704d3c82,,,109843141-Francesco-Adorno-La-filosofia-antica-vol-II-TR,0,2000-01-01 01:00:00,2016-04-03 02:51:08,870000/f2824abe108cd4cadfa24172704d3c82-g.jpg,,
6945423,La filosofia antica. Volume 3,,"Universale economica Feltrinelli, 1137",,Francesco Adorno,1992,,Feltrinelli,Milano,482 S.,0,Italian,Philosophie.Geschichte Anfänge-100 v. Chr.Geschichte 800 v. Chr.-500.Philosophie -- Geschichte Anfänge-100 v. Chr.Philosophie -- Geschichte 800 v. Chr.-500,,0,8807811375,,,,,,,,,,,0,,,,,,,1,13742470,pdf,8405f5ed68cc538b552232d6c42e8be2,,,110478099-Francesco-Adorno-La-filosofia-antica-vol-III-TR,0,2000-01-01 01:00:00,2016-04-03 02:51:08,870000/8405f5ed68cc538b552232d6c42e8be2-g.jpg,,
6945424,La filosofia antica. Volume 4,,"Universale economica Feltrinelli, 1138",,Francesco Adorno,1992,,Feltrinelli,Milano,637 S.,0,Italian,Philosophie.Geschichte Anfänge-100 v. Chr.Geschichte 800 v. Chr.-500.Philosophie -- Geschichte Anfänge-100 v. Chr.Philosophie -- Geschichte 800 v. Chr.-500,,0,8807811383,,,,,,,,,,,0,,,,,,,1,17713300,pdf,fff88289d4965a547c961c5777341e19,,,110473551-Francesco-Adorno-La-filosofia-antica-Vol-IV-TR,0,2000-01-01 01:00:00,2016-04-03 02:51:08,870000/fff88289d4965a547c961c5777341e19-g.jpg,,
6945425,"Nonsense Upon Stilts: Bentham, Burke and Marx on the Rights of Man",,,,Jeremy Waldron (Editor),1987,,Methuen Publishing,London ; New York,236,0,English,"История, Human rights history, political history, history of ideas",,0,0416918905,03855953,,,,,,,Jn0OAAAAQAAJ,,,0,,0,1,0,1,,1,4371997,pdf,55ba8a0e38faa25b4cee45946c54a19a,,,Waldron_Nonsense+Upon+Stilts_1987 copy,0,2000-01-01 01:00:00,2016-04-03 02:51:08,870000/55ba8a0e38faa25b4cee45946c54a19a-d.jpg,,
6945426,Storia della filosofia antica. Volume I: dalle origini a Socrate,,,,Giovanni Reale,1987,5,Vita e Pensiero,Milano,701,0,Italian,Philosophie.Geschichte 600 v. Chr.-500.Bibliographie.Geschichte 600 v. Chr.-320 v. Chr.Geschichte 800 v. Chr.-500.Geschichte Anfänge-529.Griechenland (Altertum)Philosophie -- Geschichte 600 v. Chr.-500Philosophie -- Griechenland (Altertum) -- BibliographieGriechenland (Altertum) -- Philosophie -- Geschichte 600 v. Chr.-320 v. Chr.Philosophie -- Geschichte 800 v. Chr.-500Philosophie -- Geschichte Anfänge-529,,0,8834325761,,,,,,,,,,,0,,,,,,,1,10860065,pdf,bb7469fc46fa0d01448aeb3de97cd699,,,110471888-Giovanni-Reale-Storia-della-filosofia-antica-Vol-I-TR,0,2000-01-01 01:00:00,2016-04-03 02:51:08,870000/bb7469fc46fa0d01448aeb3de97cd699-g.jpg,,
6945427,Storia della filosofia antica. Volume IV: le scuole dell'età imperiale,,,,Giovanni Reale,1987,5,Vita e Pensiero,Milano,701,0,Italian,Filozofia starożytna -- historia.,,0,"8834325788,9788834325780",,,,,,,,,,,0,,,,,,,1,16760536,pdf,786475854edab5d7e0f4730616d6692a,,,110472681-Giovanni-Reale-Storia-della-filosofia-antica-Vol-IV-TR,0,2000-01-01 01:00:00,2016-04-03 02:51:08,870000/786475854edab5d7e0f4730616d6692a-g.jpg,,
6945428,"Oracle для профессионалов. Архитектура, методики программирования и особенности версий 9i, 10g и 11g",,,,Томас Кайт (Авт.),2011,2-е издание.,Вильямс,,848,0,Russian,Книги//Нехудожественная литература//Компьютерная литература//Базы данных//Базы данных OracleКниги//Нехудожественная литература//Компьютерная литература//Базы данных//Разработка приложений для баз данных,,0,"978-5-8459-1703-4, 978-1-43-022946-9",,,,,,,,,,,0,,,,,,,0,47126129,pdf,3e456c2c006dcd29521b72a49fad7c32,,,Oracle-9-10-11,0,2000-01-01 01:00:00,2016-04-03 02:51:08,870000/3e456c2c006dcd29521b72a49fad7c32-d.jpg,,
6945429,"Medici bizantini: Oribasio di Pergamo, Aezio d&#039;Amida, Alessandro di Tralle, Paolo d&#039;Egina, Leone medico",,Classici greci,,con la direzione di Antonio Garzya,2006,,UTET,Torino,1 vol. (908 p.) : iil. ; 24 cm.,0,"Ancient Greek, Italian",Médecine ancienne -- Empire byzantin.Médecins -- Empire byzantin.médecine -- époque byzantine -- [document,,0,880207433X,,,,,,,,,,,0,,,,,,,1,25171845,pdf,34ac9bde72a327ef37bcb766f3872789,,,105396616-Medici-bizantini-antologia-Utet-con-testo-greco-a-fronte,0,2000-01-01 01:00:00,2016-04-03 02:51:08,870000/34ac9bde72a327ef37bcb766f3872789-g.jpg,,
6945430,Nationalism,,,,Elie Kedourie,1961,,HUTCHINSON & CO. (Publishers) LTD,,149,0,English,Politics,,0,,,,,,,,,,,,300,0,0,0,1,1,,1,3100279,pdf,4471510a63d1289428ab37d421eadebc,,,Elie_Kedourie_NATIONALISM,0,2000-01-01 01:00:00,2016-04-03 02:51:08,870000/4471510a63d1289428ab37d421eadebc-g.jpg,,
6945431,Advances in Applied Analysis,,Trends in Mathematics,,"Sergei V. Rogosin, Anna A. Koroleva",2012,2012,Birkhäuser,,262,0,English,Mathematics,,0,"3034804164,9783034804165",,,,,,,10.1007/978-3-0348-0417-2,,,,0,,,,,,1,1,4609097,pdf,dfe4ec9ad139a34f05568263959bfcd8,,,Rogosin - Applied Analysis,0,2000-01-01 01:00:00,2016-04-03 02:51:08,870000/dfe4ec9ad139a34f05568263959bfcd8-d.jpg,,
6945432,Compressible Navier-Stokes Equations: Theory and Shape Optimization,,Monografie Matematyczne 73,,"Pavel Plotnikov, Jan Sokolowski",2012,,Birkhäuser,,474,0,English,Mathematics,,0,"3034803664,9783034803663",,,,,,,10.1007/978-3-0348-0367-0,,,,0,,,,,,1,1,6616105,pdf,d45f408019be83a1121566399d6af2f5,,,Navier-Stokes,0,2000-01-01 01:00:00,2016-04-03 02:51:08,870000/d45f408019be83a1121566399d6af2f5-d.jpg,,
6945433,On Aristotle Physics 8.6-10,,"Ancient commentators on Aristotle (London, England)",,Simplicius ; translated by Richard McKirahan.,2001,,Duckworth,London,247 p. ; 24 cm.,0,English,"Aristotle. -- Physics. -- Book 8.Motion -- Early works to 1800.Physics -- Early works to 1800.Science, Ancient.Physica (Aristoteles)",,0,"0715630393,9780715630396",,,,,,,,,,,0,,,,,,,0,20973025,pdf,146ff9598e476a397262c368b54feca3,,,117307184-Simplicius-On-Aristotle-Physics-8-6-10-tr-Richard-McKirahan-2001,0,2000-01-01 01:00:00,2016-04-03 02:51:08,870000/146ff9598e476a397262c368b54feca3-g.jpg,,
6945434,"Il pessimismo tedesco dell&#039;Ottocento : Schopenhauer, Hartmann, Bahnsen e Mainländer e i loro avversari",,"Pubblicazioni della Facoltà di lettere e filosofia dell&#039;Università di Milano, 157.; Pubblicazioni della Facoltà di lettere e filosofia dell&#039;Università di Milano., Sezione di filosofia ;, 23.",,Giuseppe Invernizzi,1994,1. ed,La nuova Italia,Firenze,611,0,Italian,"Pessimism -- Germany.Schopenhauer, Arthur, -- 1788-1860.Philosophy, German -- 19th century.Bahnsen, Julius.Mainländer, Philipp.Hartmann, Eduard von.Schopenhauer, Arthur.von.Philosophie.Pessimismus.Deutschland.Pessimism -- GermanyPhilosophy, German -- 19th centurySchopenhauer, Arthur",,0,8822114582,,,,,,,,,,,0,,,,,,,1,44185592,pdf,69cde8869b204fb26f8108807fedffec,,,105318926-G-Invernizzi-Il-pessimismo-tedesco-dell’Ottocento-Schopenhauer-Hartmann-Bahnsen-e-Mainlander-e-i-loro-avversari,0,2000-01-01 01:00:00,2016-04-03 02:51:08,870000/69cde8869b204fb26f8108807fedffec-g.jpg,,
6945435,Etudes de philosophie ancienne et de philosophie moderne,,,,V. Brochard,1912,,Librarie Felix Alcan,Paris,583,0,French,philosophy,,0,,,,,,,,,,,,0,,,,,,,1,29834432,pdf,bc3098949ca7346242425db5f4ec290b,,,BROCHARD-Etudes de philosophie ancienne et de philosophie moderne-1912,0,2000-01-01 01:00:00,2016-04-03 02:51:08,870000/bc3098949ca7346242425db5f4ec290b-g.jpg,,
6945436,Bütün Oyunları - 1,1,,,Bertolt Brecht,2007,,Mitos Boyut Yayınları,,218,0,Turkish,"Theatre, Tiyatro",,0,9755080155,,,,,,,,,,,0,,,,,,,0,9971662,pdf,c05a3bf4529de09017a191f1ccf2be66,,,Bertolt_Brecht_Butun_Oyunlari_1,0,2000-01-01 01:00:00,2016-04-03 02:51:08,870000/c05a3bf4529de09017a191f1ccf2be66-d.jpg,,
6945437,Pyrrhon ou l'apparence,,,,Marcel Conche,1973,,Editions de Megare,Villers sur Mer,169,0,French,philosophy,,0,,,,,,,,,,,,0,0,,0,0,1,0,0,21808192,pdf,fcd5f479ed1cbd7d9404faf47fc6584f,,,CONCHE-Pyrrhon ou l__039;apparence-1973,0,2000-01-01 01:00:00,2016-04-03 02:51:08,870000/fcd5f479ed1cbd7d9404faf47fc6584f-g.jpg,,
6945438,La metamorfosi dell'antilluminismo: aspetti ed itinerari del dibattito sui lumi nella storia del pensiero politico,,"Methexis didattica, 2",,Mauro Lenci,2007,,PLUS-Pisa University Press,Pisa,373 p. ; 24 cm.,0,Italian,Enlightenment.Political science.,,0,"9788884924827,8884924820",,,,,,,,,,,0,,,,,,,1,1920383,pdf,2e7b479b4a2d690c9dc1a5082cfe9ab2,,,105105155-M-Lenci-Le-metamorfosi-dell-antilluminismo-Aspetti-ed-itinerari-del-dibattito-sui-Lumi-nella-storia-del-pensiero-politico,0,2000-01-01 01:00:00,2016-04-03 02:51:08,870000/2e7b479b4a2d690c9dc1a5082cfe9ab2-g.jpg,,
6945439,Augmented reality,,,,Soha Maad.,2010,,InTech,"Rijek, Crotia",695,0,English,Augmented reality.Computer vision in medicine.Endoscopic surgery.Surgery.,,0,978-953-7619-69-5,,,,,,,10.5772/126,,,,0,,,,,,,1,28098072,pdf,4de5d3ee2fc0d3ff2549c7a26749dd8a,,,MaadSoha - AugmentedReality - 2010 - 695,0,2000-01-01 01:00:00,2016-04-03 02:51:08,870000/4de5d3ee2fc0d3ff2549c7a26749dd8a-d.jpg,,
6945440,Διαβάζοντας τον Φρόυντ. Δέκα μαθήματα για την ψυχανάλυση,,,,Μιμίκα Κρανάκη,2000,,Εστία,Αθήνα,176,0,Greek,"Freus, Psychology, Psychoanalysis",,0,978-960-05-0901-4,,,,,,,,,,,0,1,,,0,1,,1,4250369,pdf,603e7a6eec86534503f48e96b147f0d6,,,85634303-Ψυχανάλυση,0,2000-01-01 01:00:00,2016-04-03 02:51:08,870000/603e7a6eec86534503f48e96b147f0d6-g.jpg,,
6945441,"Τέχνη, επιθυμία και σώμα στην αρχαία Ελλάδα",,Ο αρχαίος κόσμος,,Andrew Stewart,2003,,,Αθήνα,240,0,Greek,"Ancient Greece, Greek Art, Body Desire, Anthropology",,0,978-960-221-249-3,,,,,,,,,,,0,,,1,0,1,,0,42836011,pdf,e7be072d6acb61b61d33ec16ab81025e,,,TexnSoma,0,2000-01-01 01:00:00,2016-04-03 02:51:08,870000/e7be072d6acb61b61d33ec16ab81025e-g.jpg,,
6945442,Βυζαντινή θεολογία,,"Ιδιόμελα, 4",,Ιωάννης Μάγιεντορφ (John Meyendorff),2010,,Ίνδικτος,Αθήνα,259,0,Greek,"Byzantine Theology, History of Doctrine, Eastern Church, Theology, Orthodox Christianity",,0,978-960-518-356-1,,,,,,,,,,,0,,,1,0,1,,0,39166302,pdf,5700537d183f98aace3cd7e3abede206,,,MeyBThl,0,2000-01-01 01:00:00,2016-04-03 02:51:08,870000/5700537d183f98aace3cd7e3abede206-g.jpg,,
6945443,"Από τον Χέγκελ στον Νίτσε, τόμος Α΄",,"Φιλοσοφική και πολιτική βιβλιοθήκη, 19",,Karl Löwith,1987,,Γνώση,Αθήνα,190,0,Greek,"Philosophy, Hegel, Nietzsche",,0,9780002350303,,,,,,,,,,,0,,,1,0,1,,0,29657689,pdf,caa8c0fb8731713660e186b750cf1152,,,LoewithA,0,2000-01-01 01:00:00,2016-04-03 02:51:08,870000/caa8c0fb8731713660e186b750cf1152-g.jpg,,
6945444,"Από τον Χέγκελ στον Νίτσε, τόμος Β΄",,"Φιλοσοφική και πολιτική βιβλιοθήκη, 20",,Karl Löwith,1987,,Γνώση,Αθήνα,127,0,Greek,"Philosophy, Hegel, Nietzsche",,0,9780002350310,,,,,,,,,,,0,,,1,0,1,,0,19197866,pdf,752fb2a8d9ab5d9bb3128c4f8eb885eb,,,LoewithB,0,2000-01-01 01:00:00,2016-04-03 02:51:08,870000/752fb2a8d9ab5d9bb3128c4f8eb885eb-g.jpg,,
6945445,Teoria generale del diritto,,"Recta ratio, 1.",,Norberto Bobbo,1993,,G. Giappichelli,Torino,156,0,Italian,Law -- Philosophy.Rechtstheorie.,,0,"8834830717,9788834830710",,,,,,,,,,,0,,,,,,,1,19316476,pdf,288a4608602c82bd66a5e46cd959f0e3,,,117505415-Bobbio-Teoria-Generale-Del-Diritto,0,2000-01-01 01:00:00,2016-04-03 02:51:08,870000/288a4608602c82bd66a5e46cd959f0e3-g.jpg,,
6945446,Crisi della democrazia e neocontrattualismo,,"Biblioteca minima (Rome, Italy)",,"Norberto Bobbio, Giuliano Pontara, Salvatore Veca.",1984,1a ed,Editori Riuniti,,119 p. ; 17 cm.,0,Italian,Democracy.Social contract.Civil rights.Socialism.,,0,"8835927471,9788835927471",,,,,,,,,,,0,,,,,,,1,49982915,pdf,45b565fe88b06c599686dec5813f104c,,,113654689-Bobbio-Crisi-Della-Democrazia-e-Neocontrattualismo,0,2000-01-01 01:00:00,2016-04-03 02:51:08,870000/45b565fe88b06c599686dec5813f104c-g.jpg,,
6945447,Adikia in Platons Politeia,,,,Dorothee Hellwig,1980,,B.R. Gruener,Amsterdam,179,0,German,philosophy,,0,,,,,,,,,,,,0,,,,,,,0,68632567,pdf,9210f8d4996efd7d942d0497cf9f22c3,,,HELLWIG-Adikia in Platons Politeia-1980,0,2000-01-01 01:00:00,2016-04-03 02:51:08,870000/9210f8d4996efd7d942d0497cf9f22c3-g.jpg,,
6945448,Filosofia del linguaggio: un'introduzione,,Università; Filosofia.,,Paolo Casalegno,2000,3. ristampa,Carocci,Roma,406 S.,0,Italian,Sprachphilosophie ; SWD-ID: 40564861,,0,"8843016318,9788843016310",,,,,,,,,,,0,,,,,,,0,12390421,pdf,0e29379528ca0ad58f106b5e41769a4f,,,116032820-Paolo-Casalegno-Filosofia-del-linguaggio-Un-introduzione,0,2000-01-01 01:00:00,2016-04-03 02:51:08,870000/0e29379528ca0ad58f106b5e41769a4f-g.jpg,,
6945449,Fuck and Forget: Journal de Pattaya,,Lectures amoureuses 133,,"Xavier Coton, préface Esparbec",2010,Lectures amoureuses,la Musardine,Paris,440,0,French,Littérature - Littérature érotique - Littérature érotique - Contemporains,,0,"2842714520,978-2-84271-452-9",,,,,,,,,,first 100 pages,0,,,,,,,1,14989298,pdf,31d157b5b2145be9f82bde99619d7371,,,F_amp;F,0,2000-01-01 01:00:00,2016-04-03 02:51:08,870000/31d157b5b2145be9f82bde99619d7371-d.jpg,,
6945450,Sharp Martingale and Semimartingale Inequalities,,Monografie Matematyczne 72,,Adam Osekowski,2012,2012,Birkhäuser,,475,0,English,Mathematics,,0,"3034803699,9783034803694",,,,,,,10.1007/978-3-0348-0370-0,,,,0,,,,,,1,1,6345142,pdf,2ef4280c1a780988d7168e41f5cffd5b,,,Sharp Martingale and Semimartingale Inequalities,0,2000-01-01 01:00:00,2016-04-03 02:51:08,870000/2ef4280c1a780988d7168e41f5cffd5b-d.jpg,,
6945451,Evolutionary Integral Equations and Applications,,Modern Birkhäuser Classics,,Jan Prüss,2012,2012,Birkhäuser,,393,0,English,Mathematics,,0,"3034804989,9783034804981",,,,,,,10.1007/978-3-0348-0499-8,,,,0,,,,,,1,1,5553350,pdf,d1d2360948fea53528ac2632e9886f54,,,Pruss - Evolutionary Integral Equations and Applications,0,2000-01-01 01:00:00,2016-04-03 02:51:08,870000/d1d2360948fea53528ac2632e9886f54-d.jpg,,
6945452,The apeiron of Anaximander; a study in the origin and function of metaphysical ideas.,,,,Paul Seligman,1962,,"London] University of London, Althone Press",,183,0,English,Anaximander.Metaphysics. Critique et interprétation.,,0,,,,,,,,,,,,600,,1,0,,1,0,1,1311668,djvu,19414b7bf11323115eafe87f0313abaa,,,"Seligman P. The Apeiron of Anaximander.. a study in the origin and function of metaphysical ideas (Athlone Press, 1962)(600dpi)(T)(183s)",0,2000-01-01 01:00:00,2016-04-03 02:51:08,870000/19414b7bf11323115eafe87f0313abaa-g.jpg,,
6945453,Managerial Economics,,,,William F. Samuelson / Stephen G. Marks,2011,7,Wiley,,824,0,,Economics,,0,978-1118041581,,,,,,,,,,,0,,,,,,,1,8484749,pdf,4f4f5d4c4e0f3f9cba293471c2710380,,,managerial_economics_edition_7,0,2000-01-01 01:00:00,2016-04-03 02:51:08,870000/4f4f5d4c4e0f3f9cba293471c2710380-g.jpg,,
6945454,Erotokritos,,Studies in modern Greek.,,David Holton.,1991,English,Bristol Classical,Bristol,88,0,English,"Kornaros, Vitzentzos, -- 17th cent.? -- Erōtokritos.Kornaros, Vitsentzos. -- Erotokritos.Epen.Nieuwgrieks.Kornaros, Bitsentzos. -- Erōtokritos.Modern Greek poetry",,0,,,,,,,,,,,,0,,,1,0,1,,0,7447518,pdf,6e6ceae624f9c3cb627ce77415083088,,,Holton,0,2000-01-01 01:00:00,2016-04-03 02:51:08,870000/6e6ceae624f9c3cb627ce77415083088-g.jpg,,
6945455,The New Scientific Spirit,,,,Gaston Bachelard,0,,,,34,0,English,Philosophy of Science,,0,,,,,,,,,,,,0,,,,,,,0,2606741,pdf,bb0c5369c7869e5543aab602df055e5e,,,Gaston Bachelard - The new scientific spirit,0,2000-01-01 01:00:00,2016-04-03 02:51:08,870000/bb0c5369c7869e5543aab602df055e5e-g.jpg,,
6945456,City of Socrates. An Introduction to Classical Athens,,,,J.W. Roberts,1984,,Routledge,London-New York,251,0,English,classics,,0,"0-203-19479-9,0-203-19482-9,0-415-16777-9,0-415-16778-7",,,,,,,,,,,0,,,,,,,1,1949102,pdf,7dd72ac00e23e03f9791b76114a18ce4,,,ROBERTS-City of Socrates...-1984,0,2000-01-01 01:00:00,2016-04-03 02:51:08,871000/7dd72ac00e23e03f9791b76114a18ce4-g.jpg,,
6945457,The Complete Book on Takeout Doubles,,,,Mike Lawrence,2012,2,Master Point Press,,312,0,English,Bridge,,0,"1897106874,9781897106877",,,,,,,,,,,0,1,,0,,,1,1,1504929,pdf,c5f323172d43f54dd3ef9df678c97c8b,,,Lawrence - TakeoutDoubles,0,2000-01-01 01:00:00,2016-04-03 02:51:08,871000/c5f323172d43f54dd3ef9df678c97c8b-d.jpg,,
6945458,Completitive Bidding in the 21st Century,,,,Marshall Miles,2000,,Master Point Press,,256,0,English,contract bridge,,0,978-1-55494-069-1,,,,,,,,,,,0,1,,0,1,,1,1,1430997,pdf,da2c261edaf08698b179d8dd856c2829,,,Miles - CompetitiveBiddingIn21Century,0,2000-01-01 01:00:00,2016-04-03 02:51:08,871000/da2c261edaf08698b179d8dd856c2829-d.jpg,,
6945459,Mass media e consenso nel Giappone prebellico,,Simorg,,Marco Del Bene.,2008.,,Mimesis,Milano,273 p. ; 21 cm.,0,Italian,Mass media and propaganda -- Japan -- History -- 20th century.Mass media -- Japan -- History -- 20th century.Consensus (Social sciences) -- Japan -- History -- 20th century.Japan -- Cultural policy -- History -- 20th century.,,0,"9788884835284,8884835283",,,,,,,,4D62GAAACAAJ,OL13842295W,,0,,,,,,,1,4656548,pdf,c214e5a6358306b7860ae9de0659a767,,,DelBene,0,2000-01-01 01:00:00,2016-04-03 02:51:08,871000/c214e5a6358306b7860ae9de0659a767-d.jpg,,
6945460,Philosophy and the Brain,,,,J.Z. Young,1988,,Oxford,Oxford,233,0,English,philosophy,,0,,,,,,,,,,,,0,,,,,,,1,148146193,pdf,994ef8299651aceeed11d3bc0b1ea857,,,YOUNG-Philosophy and the Brain-1988,0,2000-01-01 01:00:00,2016-04-03 02:51:08,871000/994ef8299651aceeed11d3bc0b1ea857-g.jpg,,
6945461,Mito,,"Oscar saggi; Saggi, 160",,Furio Jesi,1989,,Mondadori,Milano,130 p. ; 20 cm.,0,Italian,Myth.Mythology.Myth in literature.Mythology in literature.,,0,"8804326840,9788804326847",,,,,,,,,,,0,,,,,,,1,3760468,pdf,bc9c3c747db6a28d6d66f44f1cc02659,,,117865973-Furio-Jesi-Mito-TR,0,2000-01-01 01:00:00,2016-04-03 02:51:08,871000/bc9c3c747db6a28d6d66f44f1cc02659-g.jpg,,
6945462,The peace,,Humanist library,,"Jünger, Ernst",1948.,,H. Regnery Co.,"Hinsdale, Ill.",77 p. ; 20 cm.,0,English,"World War, 1939-1945 -- Peace.",,0,,,,,,,,,,,,0,,,,,,,1,1107318,pdf,88d9245c98cefd2196eab5503212c2f8,,,Ernst Juenger - The Peace,0,2000-01-01 01:00:00,2016-04-03 02:51:08,871000/88d9245c98cefd2196eab5503212c2f8-g.jpg,,
6945463,Rudolf Carnap and the legacy of logical empiricism,,"Vienna Circle Institute yearbook, 16.",,"Richard Creath, editor.",2012,1,Springer,Dordrecht ; New York,203,0,,"Logical positivism.Carnap, Rudolf, -- 1891-1970.Philosophy (General).Logic.Pragmatism.Philosophy of Science.History of Philosophy.",,0,"9789400739291,940073929X,9789400739284",,,,,,,10.1007/978-94-007-3929-1,,,"Correct bookmarks, cover, pagination",0,,,,1,,1,1,1424665,pdf,ffdb84d2d7b1daa65865567afdb24782,,,rudolf-carnap-and-the-legacy-of-logical-empiricism,0,2000-01-01 01:00:00,2016-04-03 02:51:08,871000/ffdb84d2d7b1daa65865567afdb24782-d.jpg,,
6945464,Wahrnehmung und Wissen bei Aristoteles,,,,Stephan Herzberg,2011,,De Gruyter,Berlin-New York,250,0,German,philosophy,,0,"978-3-11-021236-5,978-3-11-021237-2",,,,,,,,,,,0,,,,,,,1,3671695,pdf,1fb7522dcb183a3fb11fa3b3225e439e,,,3110212366,0,2000-01-01 01:00:00,2016-04-03 02:51:08,871000/1fb7522dcb183a3fb11fa3b3225e439e-g.jpg,,
6945465,Рассеяние носителей тока в металлах и полупроводниках,,,,"Гантмахер В.Ф., Левинсон И.Б.",1984,,ФМЛ,Москва,352,0,Russian,Рассеяние носителей тока,,0,,,,539.2,,,,,,,,0,,,,,,,0,3701134,djvu,9041dab29a8bd596c09e88ddde8dcf3d,,,Gantmaher_Levinson,0,2000-01-01 01:00:00,2016-04-03 02:51:08,871000/9041dab29a8bd596c09e88ddde8dcf3d-g.jpg,,
6945466,The Legal(or Law) Essay Exam Writing (System) - LEEWS - Primer,,,,Wentworth Miller,2003,6th,LEEWS.com,,136,0,English,Law School,,0,,,,,,,,,,,,0,,,0,1,1,,0,52219319,pdf,fccde748892a3787dbea746717fcad8e,,,leewsprimer,0,2000-01-01 01:00:00,2016-04-03 02:51:08,871000/fccde748892a3787dbea746717fcad8e-g.jpg,,
6945467,Beginning Objective-C,,,,"James Dovey, Ash Furrow",2012,1st Edition,Apress,,391,0,English,Computer,,0,1430243686,,,,,,,,,,,0,,,,1,0,,1,6120575,pdf,6b487c7d7c53b89ebfae141424362b8d,,,"Beginning Objective-C By James Dovey, Ash Furrow",0,2000-01-01 01:00:00,2016-04-03 02:51:08,871000/6b487c7d7c53b89ebfae141424362b8d-g.jpg,,
6945468,"The Joy of x: A Guided Tour of Math, from One to Infinity",,,,Steven Strogatz,2012,,Eamon Dolan/Houghton Mifflin Harcourt,,336,0,English,Mathematics,,0,"0547517653,9780547517650",,,,,,,,,,,0,,,,,,,,4363207,epub,a8ddf07d48b5773a7d2254b152f11eaa,,,the_joy_of_x_a_guided_tour_of_math_from_one_to_inf,0,2000-01-01 01:00:00,2016-04-03 02:51:08,871000/a8ddf07d48b5773a7d2254b152f11eaa-d.jpg,,
6945469,Enigmi e Giochi Matematici,,,,Martin Gardner,1967,,Sansoni,,172,0,Italian,Mathematics,,0,,,,,,,,,,,,0,,,,,,1,1,4769042,pdf,8525723c9d1ab3176322b15567298ac2,,,MartinGardner-EnigmiEGiochiMatematici,0,2000-01-01 01:00:00,2016-04-03 02:51:08,871000/8525723c9d1ab3176322b15567298ac2-g.jpg,,
6945470,Statistical Signal Processing: Frequency Estimation,,SpringerBriefs in Statistics,,"Debasis Kundu, Swagata Nandi",2012,2012,Springer,,149,0,English,M_Mathematics//MV_Probability//MVsa_Statistics and applications,,0,"8132206274,9788132206279",,,,,,,10.1007/978-81-322-0628-6,,,"Correct bookmarks, cover, pagination",0,,,,1,,1,1,1356613,pdf,53658fd98882742be5aced4c33be48a4,,,statistical-signal-processing-frequency-estimation,0,2000-01-01 01:00:00,2016-04-03 02:51:08,871000/53658fd98882742be5aced4c33be48a4-d.jpg,,
6945471,Global Well-posedness of Nonlinear Parabolic-Hyperbolic Coupled Systems,,Frontiers in Mathematics,,"Yuming Qin, Lan Huang",2012,,Springer,,182,0,English,Mathematics,,0,"303480279X,9783034802796",,,,,,,10.1007/978-3-0348-0280-2,,,,0,,,,,,1,1,4331679,pdf,5bf6870485e9a86b4f475dd9cea9e740,,,"Qin, Huang - Well posedness",0,2000-01-01 01:00:00,2016-04-03 02:51:08,871000/5bf6870485e9a86b4f475dd9cea9e740-d.jpg,,
6945472,The Complete Book on Overcalls,,,,Mike Lawrence,2009,2,Master Point Press,,215,0,English,Bridge,,0,9781554943968,,,,,,,,,,,0,1,,0,,,1,1,9392799,epub,d9ada8b210329a2929c5f56ba1573e8e,,,Lawrence - Complete_Overcalls,0,2000-01-01 01:00:00,2016-04-03 02:51:08,871000/d9ada8b210329a2929c5f56ba1573e8e-d.jpg,,
6945473,Philosophical Greek: An Introduction,,,,Francis Howard Fobes,2012,,"Literary Licensing, LLC",Chicago,332,0,English,Language,,0,"1258437104,9781258437107",,,,,,,,,,Philosophical Greek Language Teaching Book,400,0,1,0,1,1,0,1,17522988,pdf,4276f7550214688f3cb66f9a27db4cee,,,Francis H. Fobes_PHILOSOPHICAL GREEK - An Introduction,0,2000-01-01 01:00:00,2016-04-03 02:51:08,871000/4276f7550214688f3cb66f9a27db4cee-d.jpg,,
6945474,Spiegare i miracoli : interpretazione critica di prodigi e guarigioni miracolose,,"Nuova biblioteca Dedalo, 279.",,Maurizio Magnani; prefazione di Piergiorgio Odifreddi,2005,,Dedalo,Bari,292 p. 21 cm.,0,Italian,Miracoli.,,0,"8822062795,9788822062796",,,,,,,,,,,0,,,,,,,0,53221038,pdf,d0586f09da46779c473681ab21efed56,,,114608325-Spiegare-i-miracoli,0,2000-01-01 01:00:00,2016-04-03 02:51:08,871000/d0586f09da46779c473681ab21efed56-g.jpg,,
6945475,Esercizi di pensiero per apprendisti filosofi,,"Incipit (Turin, Italy), 4.",,Roberta De Monticelli,2006,1. ed,Bollati Boringhieri,Torino,"171, [4] p. ; 18 cm.",0,Italian,Philosophy.Reasoning.Philosophie.,,0,"8833916804,9788833916804",,,,,,,,,,,0,,,,,,,1,6639272,pdf,6a5ccf785b51090756689ee07c51123e,,,118054609-Roberta-De-Monticelli-Esercizi-di-pensiero-per-apprendisti-filosofi,0,2000-01-01 01:00:00,2016-04-03 02:51:08,871000/6a5ccf785b51090756689ee07c51123e-g.jpg,,
6945476,Destra e sinistra : ragioni e significati di una distinzione politica,,Saggine.,,Norberto Bobbio,1994,,Donzelli,Roma,114,0,Italian,Politica - Ideologie - Italia - Sec.20.,,0,"8879890654,9788879890656",,,,,,,,,,,0,,,,,,,1,6121592,pdf,6f5e709064de14254e1234c21c0c3e16,,,118054527-Norberto-Bobbio-Destra-e-Sinistra,0,2000-01-01 01:00:00,2016-04-03 02:51:08,871000/6f5e709064de14254e1234c21c0c3e16-g.jpg,,
6945477,Plane Algebraic Curves: Translated by John Stillwell,,Modern Birkhäuser Classics,,"Egbert Brieskorn, Horst Knörrer, John Stillwell",2012,,Birkhäuser,,732,0,English,Mathematics,,0,"303480492X,9783034804929",,,,,,,10.1007/978-3-0348-0493-6,,,,0,,,,,,1,1,66459242,pdf,8ed9632f1ea7c337850f2ad357f25a8a,,,Plane Algebraic Curves,0,2000-01-01 01:00:00,2016-04-03 02:51:08,871000/8ed9632f1ea7c337850f2ad357f25a8a-d.jpg,,
6945478,Diario di santa Maria Faustina Kowalska: la misericordia divina nella mia anima,,,,Maria Faustina Kowalska,2004,Nuova ed. rinnovata,Libreria editrice vaticana,Città del Vaticano,"982 p., [2] c. di tav. 19 cm.",0,Italian,"Faustina Kowalska, santa - Diari e memorie.",,0,"8820975270,9788820975272",,,,,,,,,,,0,,,,,,,1,8797083,pdf,e0f66dbcb51cbcf9576cf58b7d98c3da,,,112788516-Maria-Faustina-Kowalska-Diario,0,2000-01-01 01:00:00,2016-04-03 02:51:08,871000/e0f66dbcb51cbcf9576cf58b7d98c3da-g.jpg,,
6945479,Dieci (possibili) ragioni della tristezza del pensiero,,Le forme,,George Steiner,2007,,Garzanti,Milano,87 p. 21 cm.,0,Italian,Pensiero.Melanconia (Filosofia),,0,"9788811597735,8811597730",,,,,,,,,,,0,,,,,,,1,4251905,pdf,ccf304547a76aecd8823019100b664f3,,,118117706-George-Steiner-Dieci-possibili-ragioni-della-tristezza-del-pensiero,0,2000-01-01 01:00:00,2016-04-03 02:51:08,871000/ccf304547a76aecd8823019100b664f3-g.jpg,,
6945480,Encyclopedia of Nanotechnology,,,,Bharat Bhushan,2012,,Springer,,2868,0,English,Nanotechnology,,0,978-90-481-9750-7,,,,,,,10.1007/978-90-481-9751-4,,,,0,1,1,0,0,0,1,1,143434981,pdf,19c22f3f431e63f641f181f1c3f40810,,,Encyclopedia of Nanotechnology,0,2000-01-01 01:00:00,2016-04-03 02:51:08,871000/19c22f3f431e63f641f181f1c3f40810-d.jpg,,
6945481,Ormai solo un Dio ci può salvare: intervista con lo Spiegel,,Biblioteca tascabile,,Martin Heidegger; a cura di Alfredo Marini,1998,,Guanda,Parma,"156 p., [4] c. di tav. 19 cm.",0,Italian,"Heidegger, Martin - Interviste.",,0,"8882460533,9788882460532",,,,,,,,,,,0,,,,,,,1,1205579,pdf,aee996bb2786c83ee9aefacf7f7986a6,,,117957850-Martin-Heidegger-Ormai-solo-un-dio-ci-puo-salvare-Intervista-con-lo-«Spiegel»,0,2000-01-01 01:00:00,2016-04-03 02:51:08,871000/aee996bb2786c83ee9aefacf7f7986a6-g.jpg,,
6945482,The Elements of Alchemy,,,,Cherry Gilchrist,1991,,Element,,144 p.,0,English,Alchemy,,0,"1852302054,9781852302054",,,,,,,,,,,600,1,1,0,1,1,1,1,5617392,pdf,5ed0f2963238a406bf821ed753ec4736,,,Cherry Gilchrist - The Elements of Alchemy,0,2000-01-01 01:00:00,2016-04-03 02:51:08,871000/5ed0f2963238a406bf821ed753ec4736-d.jpg,,
6945483,Aspetti della letteratura socratica antica. pro-manuscripto per il corso di storia della filosofia antica,,,,Livio Rossetti,1977,,"Libera università degli studi G. D&#039;Annunzio, Facoltà di lettere e filosofia",Chieti,168,0,Italian,"Socrates -- Influence.; Philosophy, Ancient.",,0,,,,,,,79388874,,,OL4041748M,,0,,,,,,,0,7416670,pdf,f934fc4b96cade154b4a2592ac2e88db,,,118230888-Livio-Rossetti-Aspetti-della-Letteratura-Socratica-Antica,0,2000-01-01 01:00:00,2016-04-03 02:51:08,871000/f934fc4b96cade154b4a2592ac2e88db-g.jpg,,
6945484,Gorgia e Parmenide: lezioni 1965-1967,,"Biblioteca filosofica, 22",,Giorgio Colli,2003,,Adelphi,Milano,263,0,Italian,"Gorgias, -- of Leontini.Parmenides.Philosophy, Ancient.Gorgias -- Of Leontini.ParmÊnides -- 540-450 A. C.Filosofia antiga.Filosofia grega.Sofistas.Plato -- GorgiasParmenidesGorgiasAufsatzsammlungGorgias &lt;Of Leontini&gt;ParmÊnides &lt;540-450 A. C&gt",,0,"8845917746,9788845917745",,,,,,,,,,,0,,,,,,,1,3912011,pdf,b9d05ad22d1b03fc35a177c07934831a,,,109796596-Giorgio-Colli-Gorgia-e-Parmenide-TR,0,2000-01-01 01:00:00,2016-04-03 02:51:08,871000/b9d05ad22d1b03fc35a177c07934831a-g.jpg,,
6945485,Zenone di Elea: lezioni 1964-1965,,"Biblioteca filosofica, 16",,Giorgio Colli; a cura di Enrico Colli,1998,,Adelphi,Milano,177 p. ; 23 cm.,0,Italian,"Zeno, -- of Elea.Zeno -- Of Elea.Filosofia antiga.Filosofia grega.Pré-socráticos.Zeno (Eleaticus)",,0,"884591402X,9788845914027",,,,,,,,,,,0,,,,,,,1,3368402,pdf,94c90b67cdfb37dafa4b45e5627b9a0d,,,109796616-Giorgio-Colli-Zenone-di-Elea-TR,0,2000-01-01 01:00:00,2016-04-03 02:51:08,871000/94c90b67cdfb37dafa4b45e5627b9a0d-g.jpg,,
6945486,The Meiji Constitution : the Japanese experience of the West and the shaping of the modern state,,"Chōkin kokusai raiburarī, no. 21.",,Takii Kazuhiro ; translated by David Noble.,2007,1st English ed,International House of Japan,"Tokyo, Japan",220,0,English,Constitutional history -- Japan.Japan -- Politics and government -- 1868-1912.Grondwetten.Japan.Constituição (história) -- Japão.Política e governo -- 1868 - 1912 -- Japão.Histoire constitutionnelle -- Japon.Japon -- Politique et gouvernement -- 1868-1912.VerfassungJapan,,0,"9784924971202,4924971200",,,,,,,,,,,600,1,,0,1,1,0,1,7787920,pdf,ef392430cfa4b134ace625cc7dbda124,,,TakiiMijiConstitution,0,2000-01-01 01:00:00,2016-04-03 02:51:08,871000/ef392430cfa4b134ace625cc7dbda124-d.jpg,,
6945487,IT-Sicherheit für Dummies : kleine Unternehmen,,For dummies.,,von Trend Micro.,2010.,German,Wiley,"Chichester, West Sussex, England",1 online resource (74 p.),0,Document,Small business -- Computer networks -- Security measures.Small business -- Data processing -- Security measures.Information technology -- Security measures.COMPUTERS -- Internet -- Security.COMPUTERS -- Networking -- Security.COMPUTERS -- Security -- General.,,0,"9780470666937,0470666935",,,,,,,,,,,0,,,,,,,1,702280,pdf,568280d33338820e9e12949270b857e7,,,pages,0,2000-01-01 01:00:00,2016-04-03 02:51:08,871000/568280d33338820e9e12949270b857e7-g.jpg,,
6945488,Le origini della tragedia e del tragico: dalla preistoria a Eschilo,,"Testi e interpreti del pensiero antico, 1",,Mario Untersteiner,1984,Ristampa riv. e corretta della 2a ed,Istituto editoriale Cisalpino,Milano,627 p. ; 24 cm.,0,Italian,"Greek drama (Tragedy) -- History and criticism.Tragedy.Tragic, The.Aeschylus -- Criticism and interpretation.TragödieGeschichte Anfänge-400 v. Chr.EntstehungGriechisch",,0,"882050488X,9788820504885",,,,,,,,,,,0,,,,,,,1,8809106,pdf,06b9f89fed5dc99d01d3acdd64ef4d49,,,118261064-Mario-Untersteiner-Le-origini-della-tragedia-e-del-tragico,0,2000-01-01 01:00:00,2016-04-03 02:51:08,871000/06b9f89fed5dc99d01d3acdd64ef4d49-g.jpg,,
6945489,Vita di Gesù Cristo,,"Oscar Saggi, 385",,Giuseppe Ricciotti; prefazione di Vittorio Messori,1994,,Mondadori,Milano,764,0,Italian,Gesù Cristo - Vita.,,0,"8804388196,9788804388197",,,,,,,,,,,0,,,,,,,1,22175867,pdf,38eba65d1b2647f268b63d5d27e8d863,,,116951883-Giuseppe-Ricciotti-Vita-di-Gesu-Cristo,0,2000-01-01 01:00:00,2016-04-03 02:51:08,871000/38eba65d1b2647f268b63d5d27e8d863-g.jpg,,
6945490,Xiang guan he chu (乡关何处),,,,Yefu (野夫),2012,,Zhong xin chu ban she (中信出版社),Beijing,164,0,Chinese,Chinese essays,,0,9787508632971,,,,,,,,,,,0,0,1,0,0,0,0,1,4099035,pdf,9f6a73ed2abf38eca24b5628c594710e,,,乡关何处,0,2000-01-01 01:00:00,2016-04-03 02:51:08,871000/9f6a73ed2abf38eca24b5628c594710e-d.img,,
6945491,Radiation biophysics,,,,Edward L Alpen ,1997,2ed.,Academic Press,"San Diego, Calif",510,0,English,B_Biology/,kolxoz,10,"0120530856,9780120530854",,,,,,,,,,,300,,,,,,,1,3175498,djvu,34cd87b263d82049e986a0991d7984e7,,,"B_Biology/Alpen E.L. Radiation biophysics (2ed., AP, 1997)(ISBN 0120530856)(T)(O)(510s)_B_.djvu",0,2000-01-01 01:00:00,2016-04-03 02:51:08,871000/34cd87b263d82049e986a0991d7984e7-d.jpg,,
6945492,Chemical Biomarkers in Aquatic Ecosystems,,,,Thomas S Bianchi; Elizabeth A Canuel ,2011,,Princeton University Press,Princeton,417,0,English,B_Biology/,kolxoz,10,"9780691134147,0691134146",,,,,,,,,,,0,,,,,,,1,2874220,pdf,bf65de67032c95a0db25f59a8d97030c,,,"B_Biology/Bianchi T.S., Canuel E.A. Chemical Biomarkers in Aquatic Ecosystems (PUP, 2011)(ISBN 9780691134147)(O)(417s)_B_.pdf",0,2000-01-01 01:00:00,2016-04-03 02:51:08,871000/bf65de67032c95a0db25f59a8d97030c-d.jpg,,
6945493,Mathematical models in population biology and epidemiology,,"Texts in applied mathematics, 40",,Fred Brauer; Carlos Castillo-ChaМЃvez ,2012,2ed.,Springer,New York ; Heidelberg,522,0,English,B_Biology/,kolxoz,10,"146141685X,9781461416852",,,,,,,10.1007/978-1-4614-1686-9,,,,0,,,,,,,1,3363550,pdf,f8cc64b293520b550d905306e32ddc9f,,,"B_Biology/Brauer F., Castillo-Chavez C. Mathematical models in population biology and epidemiology (2ed., Springer, 2012)(ISBN 9781461416852)(O)(522s)_B_.pdf",0,2000-01-01 01:00:00,2016-04-03 02:51:08,871000/f8cc64b293520b550d905306e32ddc9f-d.jpg,,
6945494,Essential mathematical biology,,Springer undergraduate mathematics series,,Britton N.F. ,2004,,Springer,London ; New York,351,0,English,B_Biology/,kolxoz,10,"185233536X,9781852335366",,,,,,,,,,,600,,,,,,,1,3764699,djvu,38b0107be19aef6b35f46f7c1ae78dd0,,,"B_Biology/Britton N.F. Essential mathematical biology (Springer, 2004)(ISBN 185233536X)(600dpi)(T)(O)(351s)_B_.djvu",0,2000-01-01 01:00:00,2016-04-03 02:51:08,871000/38b0107be19aef6b35f46f7c1ae78dd0-d.jpg,,
6945495,Multiscale modeling of cancer : an integrated experimental and mathematical modeling approach,,,,Vittorio Cristini; John Lowengrub ,2010,,Cambridge University Press,Cambridge,300,0,English,B_Biology/,kolxoz,10,"9780511902277,0511902271,9780521884426,052188442X",,,,,,,,,,,0,,,,,,,1,5181913,pdf,77044ee8a4ae19df81066acb0d4a697d,,,"B_Biology/Cristini V., Lowengrub J. Multiscale Modeling of Cancer (CUP, 2010)(ISBN 052188442X)(O)(300s)_B_.pdf",0,2000-01-01 01:00:00,2016-04-03 02:51:08,871000/77044ee8a4ae19df81066acb0d4a697d-d.jpg,,
6945496,Biophysics : a physiological approach,,,,Patrick F Dillon ,2012,,Cambridge University Press,"Cambridge, UK ; New York",313,0,English,B_Biology/,kolxoz,10,"9781107001442,1107001447,9780521172165,0521172160",,,,,,,,,,,0,,,,,,,1,5561105,pdf,f7eb3a4b00721c04f936d01b12ba19bf,,,"B_Biology/Dillon P.F. Biophysics (CUP, 2012)(ISBN 9781107001442)(O)(313s)_B_.pdf",0,2000-01-01 01:00:00,2016-04-03 02:51:08,871000/f7eb3a4b00721c04f936d01b12ba19bf-d.jpg,,
6945497,Biophysics: A physiological approach,,,,Patrick F Dillon ,2012,draft,Cambridge University Press,"Cambridge, UK ; New York",314,0,English,B_Biology/,kolxoz,10,"9781107001442,1107001447,9780521172165,0521172160",,,,,,,,,,,0,,,,,,,1,5269012,pdf,40373c4e0dea191f1314d572e9838773,,,"B_Biology/Dillon P.F. Biophysics.. A physiological approach (draft, CUP, 2012)(ISBN 1107001447)(314s)_B_.pdf",0,2000-01-01 01:00:00,2016-04-03 02:51:08,871000/40373c4e0dea191f1314d572e9838773-d.jpg,,
6945498,Advances in systems biology,,"Advances in experimental medicine and biology, 736",,Igor Goryanin; Andrew B Goryachev  (eds.),2012,,Springer,"New York, NY",705,0,English,B_Biology/,kolxoz,10,"9781441972101,1441972102",,,,,,,10.1007/978-1-4419-7210-1,,,,0,,,,,,,1,11403591,pdf,9d3e13cfd0ffb8fc02b7c4f2d6b43bce,,,"B_Biology/Goryanin I., Goryachev A. (eds.) Advances in systems biology (Springer, 2012)(ISBN 9781441972095)(O)(705s)_B_.pdf",0,2000-01-01 01:00:00,2016-04-03 02:51:08,871000/9d3e13cfd0ffb8fc02b7c4f2d6b43bce-d.jpg,,
6945499,The Fitness of the Environment,,,,Henderson L.J. ,1913,,Macmillan,,340,0,English,B_Biology/,kolxoz,10,,,,,,,,,,,,600,,,,,,,1,2028340,djvu,0ef567518d8bd1a743a145b810eeab83,,,"B_Biology/Henderson L.J. The Fitness of the Environment (Macmillan, 1913)(600dpi)(T)(340s)_B_.djvu",0,2000-01-01 01:00:00,2016-04-03 02:51:08,871000/0ef567518d8bd1a743a145b810eeab83-g.jpg,,
6945500,Physical Properties of Foods and Food Processing Systems,,,,Lewis M.J. ,1990,,Woodhead Pub,"Cambridge, England",456,0,English,B_Biology/,kolxoz,10,"1855732726,9781855732728",,,,,,,,,,,300,,,,,,,1,4834725,djvu,0c736894deeda9b0f8d9a483fab211db,,,"B_Biology/Lewis M.J. Physical Properties of Foods and Food Processing Systems (Woodhead, 1990)(ISBN 1855732726)(T)(456s)_B_.djvu",0,2000-01-01 01:00:00,2016-04-03 02:51:08,871000/0c736894deeda9b0f8d9a483fab211db-d.jpg,,
6945501,Protein-protein interactions in plant biology,,"Annual plant reviews, v. 7",,Michael T McManus; William A Laing; Andrew C Allan  (eds.),2002,,Sheffield Academic Press,Sheffield,342,0,English,B_Biology/,kolxoz,10,"1841272299,9781841272290,0849397901,),9780849397905,(USA,(CRC,PRESS)",,,,,,,10.1007/S004250/00636,,,,400,,,,,,,1,4668228,djvu,95babf67a5366b4cd7a11b23ff1e5326,,,"B_Biology/McManus M.T., et al. (eds.) Protein-protein interactions in plant biology (Wiley, 2002)(ISBN 1841272299)(400dpi)(T)(O)(342s)_B_.djvu",0,2000-01-01 01:00:00,2016-04-03 02:51:08,871000/95babf67a5366b4cd7a11b23ff1e5326-d.jpg,,
6945502,Mathematical Ideas in Biology,,,,John Maynard Smith ,1968,,Cambridge University Press,London,159,0,English,B_Biology/,kolxoz,10,"0521073359,9780521073356,0521095506,9780521095501",,,,,,,,,,,300,,,,,,,1,1099623,djvu,2c062a3c27e36f791c99dc06aebcf9cf,,,"B_Biology/Smith J.M. Mathematical Ideas in Biology (CUP, 1968)(ISBN 9780521095501)(T)(159s)_B_.djvu",0,2000-01-01 01:00:00,2016-04-03 02:51:08,871000/2c062a3c27e36f791c99dc06aebcf9cf-d.jpg,,
6945503,"Biological nanostructures and applications of nanostructures in biology : electrical, mechanical, and optical properties",,Bioelectric engineering,,Michael A Stroscio; Mitra Dutta  (eds.),2004,,Kluwer Academic/Plenum Publishers,New York,193,0,English,B_Biology/,kolxoz,10,"0306486288,9780306486289,9780306486272,030648627X,0306486091,9780306486098",,,,,,,,,,,0,,,,,,,1,5477564,pdf,6ccf30e3df35300273f98ecbbbcf9642,,,"B_Biology/Stroscio M.A., Dutta M. (eds.) Biological nanostructures and applications of nanostructures in biology (Kluwer, 2004)(ISBN 0306486288)(193s)_B_.pdf",0,2000-01-01 01:00:00,2016-04-03 02:51:08,871000/6ccf30e3df35300273f98ecbbbcf9642-d.jpg,,
6945504,Life in Moving Fluids: The Physical Biology of Flow,,Princeton paperbacks,,Steven Vogel ,1994,"2nd ed., rev. and expanded",Princeton University Press,"Princeton, N.J",480,0,English,B_Biology/,kolxoz,10,"0691034850,9780691034850,0691026165,9780691026169",,,,,,,,,,,300,,,,,,,1,4779146,djvu,69a585a168b62d82642afc0578848625,,,"B_Biology/Vogel S. Life in Moving Fluids.. The Physical Biology of Flow (PUP, 1994)(ISBN 9780691034850)(T)(480s)_B_.djvu",0,2000-01-01 01:00:00,2016-04-03 02:51:08,871000/69a585a168b62d82642afc0578848625-d.jpg,,
6945505,Микоплазмы ,,,,"Борхсениус С.Н., Чернова О.А., Чернов В.М. ",2002,,Наука,,313,0,Russian,B_Biology/,kolxoz,10,5020261777,,,,,,,,,,нет начала и номеров стр.,300,,,,,,,1,3169578,djvu,94b82c6027c2bbae7103bc3ffae0a27e,,,"B_Biology/Borxsenius S.N., Chernova O.A., Chernov V.M. Mikoplazmy (net nachala i nomerov str.)(Nauka, 2002)(ru)(ISBN 5020261777)(T)(313s)_B_.djvu",0,2000-01-01 01:00:00,2016-04-03 02:51:08,,,
6945506,Человек в лабиринте эволюции,,,,Вишняцкий Л.Б. ,2004,,Весь Мир,,157,0,Russian,B_Biology/,kolxoz,10,5777702708,,,,,,,,,,,600,,,,,,,1,2596269,djvu,975be889c87939ca70ff226f9cbfca4d,,,"B_Biology/Vishnyackij L.B. Chelovek v labirinte e#volyucii (Ves# Mir, 2004)(ISBN 5777702708)(ru)(600dpi)(T)(O)(157s)_B_.djvu",0,2000-01-01 01:00:00,2016-04-03 02:51:08,,,
6945507,Предистория интеллекта. К проблеме антропогенеза,,,,Войтонис Н.Ю. ,1949,,АН СССР,,190,0,Russian,B_Biology/,kolxoz,10,,,,,,,,,,,,0,,,,,,,1,9907588,pdf,f32a581636cb3580bad272c287155285,,,"B_Biology/Vojtonis N.Yu. Predistoriya intellekta. K probleme antropogeneza (AN SSSR, 1949)(ru)(190s)_B_.pdf",0,2000-01-01 01:00:00,2016-04-03 02:51:08,871000/f32a581636cb3580bad272c287155285-g.jpg,,
6945508,Эволюция адаптаций,,,,Георгиевский А.Б. ,1989,,Наука,,191,0,Russian,B_Biology/,kolxoz,10,502026573X,,,,,,,,,,,600,,,,,,,1,1942042,djvu,0bd448d19d399dab24902e77d23de33c,,,"B_Biology/Georgievskij A.B. E#volyuciya adaptacij (Nauka, 1989)(ru)(ISBN 502026573X)(600dpi)(T)(191s)_B_.djvu",0,2000-01-01 01:00:00,2016-04-03 02:51:08,,,
6945509,Гармония и алгебра живого ,,,,"Голицын Г.А., Петров В.М. ",1990,,Знание,,128,0,Russian,B_Biology/,kolxoz,10,5070006592,,,,,,,,,,нет огл. и номеров стр.,600,,,,,,,1,1322551,djvu,3979116b0e59394e3963cf1c20e97063,,,"B_Biology/Golicyn G.A., Petrov V.M. Garmoniya i algebra zhivogo (net ogl. i nomerov str.) (Znanie, 1990)(ISBN 5070006592)(ru)(600dpi)(T)(O)(128s)_B_.djvu",0,2000-01-01 01:00:00,2016-04-03 02:51:08,,,
6945510,Легенды и были о лекарственных растениях,,,,"Гринкевич Н.И., Сорокина А.А. ",1988,,Наука,,89,0,Russian,B_Biology/,kolxoz,10,5020039276,,,,,,,,,,,300,,,,,,,1,2624541,djvu,304ad7970070b9e2805e61239624928d,,,"B_Biology/Grinkevich N.I., Sorokina A.A. Legendy i byli o lekarstvennyx rasteniyax (Nauka, 1988)(ru)(ISBN 5020039276)(T)(89s)_B_.djvu",0,2000-01-01 01:00:00,2016-04-03 02:51:08,871000/304ad7970070b9e2805e61239624928d-d.jpg,,
6945511,Микробиология: Учебник,,,,"Гусев М.В., Минеева Л.А. ",2003,4изд., Академия,,466,0,Russian,B_Biology/,kolxoz,10,5769514035,,,,,,,,,,,300,,,,,,,1,8967782,djvu,990f2c03eedbde36a262a6161edb0d56,,,"B_Biology/Gusev M.V., Mineeva L.A. Mikrobiologiya.. Uchebnik (4izd., Akademiya, 2003)(ISBN 5769514035)(ru)(T)(466s)_B_.djvu",0,2000-01-01 01:00:00,2016-04-03 02:51:08,871000/990f2c03eedbde36a262a6161edb0d56-g.jpg,,
6945512,Раширенный фенотип. Длинная рука гена,,,,Докинз Р.(Dawkins) ,2010,,Астрель,,512,0,Russian,B_Biology/,kolxoz,10,"978-5-271-31206-9,295-296-305-3",,,,,,,,,,,600,,,,,,,1,3530105,djvu,f658c1f7b7d566972d0d20a529a9666c,,,"B_Biology/Dokinz R. (_Dawkins_) Rashirennyj fenotip. Dlinnaya ruka gena (Astrel#, 2010)(ru)(600dpi)(T)(512s)_B_.djvu",0,2000-01-01 01:00:00,2016-04-03 02:51:08,871000/f658c1f7b7d566972d0d20a529a9666c-g.jpg,,
6945513,Бионика,,МНТ,,Жерарден Л.(Gerardin L.) ,1971,, Мир,,233,0,Russian,B_Biology/,kolxoz,10,,,,,,,,,,,,600,,,,,,,1,6097092,djvu,f94374c3d71fd45491ede766030f5663,,,"B_Biology/Zherarden L. (_Gerardin L._) Bionika (MNT, Mir, 1971)(ru)(600dpi)(T)(O)(233s)_B_.djvu",0,2000-01-01 01:00:00,2016-04-03 02:51:08,871000/f94374c3d71fd45491ede766030f5663-g.jpg,,
6945514,"Биология, справочник студента",,,,"Каменский А.А., и др. ",2001,,АСТ,,640,0,Russian,B_Biology/,kolxoz,10,5812300585,,,,,,,,,,,600,,,,,,,1,8640397,djvu,a61d248c0d73f3d63b11314a71a4b8b0,,,"B_Biology/Kamenskij A.A., i dr. Biologiya, spravochnik studenta (AST, 2001)(ru)(ISBN 5812300585)(600dpi)(T)(640s)_B_.djvu",0,2000-01-01 01:00:00,2016-04-03 02:51:08,871000/a61d248c0d73f3d63b11314a71a4b8b0-g.jpg,,
6945515,Эволюция не по Дарвину,,,,Назаров В.И. ,2005,,УРСС,,519,0,Russian,B_Biology/,kolxoz,10,548400067X,,,,,,,,,,,400,,,,,,,1,8157958,djvu,09e866b2e64a0196e5edb14a3899195e,,,"B_Biology/Nazarov V.I. E#volyuciya ne po Darvinu (URSS, 2005)(ru)(ISBN 548400067X)(400dpi)(T)(519s)_B_.djvu",0,2000-01-01 01:00:00,2016-04-03 02:51:08,,,
6945516,"Природа России, жизнь животных. Земноводные и пресмыкающиеся",,,,Павлинов И.Я. (ред.) ,1999,,АСТ,,482,0,Russian,B_Biology/,kolxoz,10,5237018092,,,,,,,,,,,600,,,,,,,1,11321882,djvu,c3782ad436d4b750dae6f12e7e62f358,,,"B_Biology/Pavlinov I.Ya. (red.) Priroda Rossii, zhizn# zhivotnyx. Zemnovodnye i presmykayushchiesya (AST, 1999)(ru)(ISBN 5237018092)(600dpi)(T)(482s)_B_.djvu",0,2000-01-01 01:00:00,2016-04-03 02:51:08,871000/c3782ad436d4b750dae6f12e7e62f358-g.jpg,,
6945517,"Природа России, жизнь животных. Млекопитающие, часть 1",,,,Павлинов И.Я. (ред.) ,1999,,АСТ,,609,0,Russian,B_Biology/,kolxoz,10,5237011292,,,,,,,,,,,600,,,,,,,1,11498970,djvu,972b7026b49a7ed16842f929d9b08a72,,,"B_Biology/Pavlinov I.Ya. (red.) Priroda Rossii, zhizn# zhivotnyx. Mlekopitayushchie, chast# 1 (AST, 1999)(ru)(ISBN 5237011292)(600dpi)(T)(609s)_B_.djvu",0,2000-01-01 01:00:00,2016-04-03 02:51:08,871000/972b7026b49a7ed16842f929d9b08a72-g.jpg,,
6945518,"Природа России, жизнь животных. Млекопитающие, часть 2",,,,Павлинов И.Я. (ред.) ,1999,,АСТ,,626,0,Russian,B_Biology/,kolxoz,10,5237021131,,,,,,,,,,,600,,,,,,,1,12317443,djvu,dc462f81c9ac9eba289324b383bfaa6b,,,"B_Biology/Pavlinov I.Ya. (red.) Priroda Rossii, zhizn# zhivotnyx. Mlekopitayushchie, chast# 2 (AST, 1999)(ru)(ISBN 5237021131)(600dpi)(T)(626s)_B_.djvu",0,2000-01-01 01:00:00,2016-04-03 02:51:08,871000/dc462f81c9ac9eba289324b383bfaa6b-d.jpg,,
6945519,Чудесные добавки,,,,Розен Б. ,1957,,Детгиз,,144,0,Russian,B_Biology/,kolxoz,10,,,,,,,,,,,,600,,,,,,,1,2302774,djvu,e84ca85dc408cfb01696751f21366f88,,,"B_Biology/Rozen B. Chudesnye dobavki (Detgiz, 1957)(ru)(600dpi)(T)(144s)_B_.djvu",0,2000-01-01 01:00:00,2016-04-03 02:51:08,871000/e84ca85dc408cfb01696751f21366f88-g.jpg,,
6945520,Введение в физику белка. Курс лекций ,,,,Финкельштейн А.В. ,2000,,,,22,0,Russian,B_Biology/,kolxoz,10,,,,,,,,,,,,0,,,,,,,,19416857,chm,f31c7ade7c4133fcb942fe92aca4e1a4,,,B_Biology/Finkel#shtejn A.V. Vvedenie v fiziku belka. Kurs lekcij (2000)(ru)(22s)_B_.chm,0,2000-01-01 01:00:00,2016-04-03 02:51:08,,,
6945521,Думают ли животные,,МНТ,,Фишель В.(Fischel W.) ,1973,, Мир,,162,0,Russian,B_Biology/,kolxoz,10,,,,,,,,,,,,600,,,,,,,1,3353628,djvu,dcb77a06fd3e21d1e8c015d3097d8594,,,"B_Biology/Fishel# V. (_Fischel W._) Dumayut li zhivotnye (MNT, Mir, 1973)(ru)(T)(O)(600dpi)(162s)_B_.djvu",0,2000-01-01 01:00:00,2016-04-03 02:51:08,871000/dcb77a06fd3e21d1e8c015d3097d8594-g.jpg,,
6945522,Эволюция: Триумф идеи,,,,Циммер К.(Zimmer C.) ,2012,,АНФ,,565,0,Russian,B_Biology/,kolxoz,10,9785916711387,,,,,,,,,,,600,,,,,,,1,5478068,djvu,4e5938c83f940ec86d1932d7a912490d,,,"B_Biology/Cimmer K. (_Zimmer C._) E#volyuciya.. Triumf idei (ANF, 2012)(ISBN 9785916711387)(ru)(600dpi)(T)(O)(565s)_B_.djvu",0,2000-01-01 01:00:00,2016-04-03 02:51:08,871000/4e5938c83f940ec86d1932d7a912490d-d.jpg,,
6945523,Нейробиология. Том 2,,,,Шеперд Г.(Shepherd G.M.) ,1987,,Мир,,368,0,Russian,B_Biology/,kolxoz,10,,,,,,,,,,,,600,,,,,,,1,13630973,djvu,3df511da8a224fa03f7dbd52526c51ac,,,"B_Biology/Sheperd G. (_Shepherd G.M._) Nejrobiologiya. Tom 2 (Mir, 1987)(ru)(600dpi)(T)(368s)_B_.djvu",0,2000-01-01 01:00:00,2016-04-03 02:51:08,871000/3df511da8a224fa03f7dbd52526c51ac-g.jpg,,
6945524,"Экологическая безопасность, оценка риска",,,,Яковлев В.В. ,2007,,СПб политех. институт,,399,0,Russian,B_Biology/,kolxoz,10,,,,,,,,,,,,300,,,,,,,1,2858120,djvu,7c32e2ba104f559a3677b0f64209f3f6,,,"B_Biology/Yakovlev V.V. E#kologicheskaya bezopasnost#, ocenka riska (SPb politex. institut, 2007)(ru)(T)(399s)_B_.djvu",0,2000-01-01 01:00:00,2016-04-03 02:51:08,871000/7c32e2ba104f559a3677b0f64209f3f6-g.jpg,,
6945525,Болезни желудка,,,, ,2010,,Популярная медицина,,300,0,Russian,B_Biology/BH_Human/,kolxoz,10,9789660337183,,,,,,,,,,,300,,,,,,,1,1959577,djvu,6d5061cbeb225d159da3fcd993467451,,,"B_Biology/BH_Human/Bolezni zheludka (Populyarnaya medicina, 2010)(ru)(ISBN 9789660337183)(T)(300s)_BH_.djvu",0,2000-01-01 01:00:00,2016-04-03 02:51:08,871000/6d5061cbeb225d159da3fcd993467451-g.jpg,,
6945526,Гипертония,,,, ,2010,,Популярная медицина,,284,0,Russian,B_Biology/BH_Human/,kolxoz,10,9789660337268,,,,,,,,,,,300,,,,,,,1,1494004,djvu,1ccf63bc082db877301b4d675bdce34a,,,"B_Biology/BH_Human/Gipertoniya (Populyarnaya medicina, 2010)(ru)(ISBN 9789660337268)(T)(284s)_BH_.djvu",0,2000-01-01 01:00:00,2016-04-03 02:51:08,,,
6945527,Clinical physiology : an examination primer,,,,Ashis Banerjee ,2005,,Cambridge University Press,"Cambridge, UK ; New York",373,0,English,B_Biology/BH_Human/,kolxoz,10,"052154226X,9780521542265",,,,,,,,,,,0,,,,,,,1,1115318,pdf,ef105c8afaab6c7225fec00c9159adc7,,,"B_Biology/BH_Human/Banerjee A. Clinical physiology (CUP, 2005)(ISBN 9780521542265)(373s)_BH_.pdf",0,2000-01-01 01:00:00,2016-04-03 02:51:08,871000/ef105c8afaab6c7225fec00c9159adc7-d.jpg,,
6945528,The complete idiot's guide to eating smart,,,,Joy Bauer ,1996,,Alpha Books,"New York, NY",336,0,English,B_Biology/BH_Human/,kolxoz,10,"0028612760,9780028612768",,,,,,,,,,,0,,,,,,,1,12277523,pdf,5d1d3d0b470214d346ec1563bd5944f2,,,"B_Biology/BH_Human/Bauer J. The complete idiot#s guide to eating smart (Alpha, 1996)(ISBN 0028612760)(336s)_BH_.pdf",0,2000-01-01 01:00:00,2016-04-03 02:51:08,871000/5d1d3d0b470214d346ec1563bd5944f2-d.jpg,,
6945529,Radiology,,McGraw-Hill specialty board review,,Canon L.C. (ed.) ,2010,,McGraw-Hill Medical,New York,943,0,English,B_Biology/BH_Human/,kolxoz,10,"9780071601658,0071601651",,,,,,,,,,,0,,,,,,,1,7244258,pdf,c18455446151b21119e61a219f203d4c,,,"B_Biology/BH_Human/Canon L.C. (ed.) Radiology (MGH, 2010)(ISBN 9780071601658)(O)(943s)_BH_.pdf",0,2000-01-01 01:00:00,2016-04-03 02:51:08,,,
6945530,Radiation Physics for Nuclear Medicine,,,,"Cantone M.C., Hoeschen C. (eds.) ",2011,,Springer,Berlin ; London,295,0,English,B_Biology/BH_Human/,kolxoz,10,"9783642113277,3642113273",,,,,,,10.1007/978-3-642-11327-7,,,,0,,,,,,,1,3234454,pdf,e3270a80e216b4058a1470944f6914b3,,,"B_Biology/BH_Human/Cantone M.C., Hoeschen C. (eds.) Radiation Physics for Nuclear Medicine (Springer, 2011)(ISBN 3642113265)(O)(295s)_BH_.pdf",0,2000-01-01 01:00:00,2016-04-03 02:51:08,871000/e3270a80e216b4058a1470944f6914b3-d.jpg,,
6945531,Physiology of behavior,,,,Neil R Carlson ,2001,7ed.,Allyn and Bacon,Boston,716,0,English,B_Biology/BH_Human/,kolxoz,10,"0205308406,9780205308408,020532407X,9780205324071",,,,,,,,,,,300,,,,,,,1,18939679,djvu,871630124564bde232c419cb508ec922,,,"B_Biology/BH_Human/Carlson N.R. Physiology of behavior (7ed., Allyn & Bacon, 2001)(ISBN 0205308406)(T)(716s)_BH_.djvu",0,2000-01-01 01:00:00,2016-04-03 02:51:08,871000/871630124564bde232c419cb508ec922-d.jpg,,
6945532,Genetics and sports,,"Medicine and sport science, v. 54",,Collins M. (ed.) ,2009,,Karger,Basel ; New York,208,0,English,B_Biology/BH_Human/,kolxoz,10,"9783805590273,380559027X,9783805590280,3805590288",,,,,,,,,,,0,,,,,,,1,1163834,pdf,2eed0e02fb324975d82d7c37d8e81806,,,"B_Biology/BH_Human/Collins M. (ed.) Genetics and sports (Karger, 2009)(ISBN 380559027X)(208s)_BH_.pdf",0,2000-01-01 01:00:00,2016-04-03 02:51:08,871000/2eed0e02fb324975d82d7c37d8e81806-d.jpg,,
6945533,Handbook of toxicology ,,,,Michael J Derelanko; Mannfred A Hollinger  (eds.),2001,2ed.,CRC Press,Boca Raton,1381,0,English,B_Biology/BH_Human/,kolxoz,10,"0849303702,9780849303708",,,,,,,,,,no Index,0,,,,,,,1,9261091,pdf,ed2d4bf91ad27049693f1650c12e4af8,,,"B_Biology/BH_Human/Derelanko M.J., Hollinger M.A. (eds.) Handbook of toxicology (no Index)(2ed., Informa, 2001)(ISBN 0849303702)(O)(1381s)_BH_.pdf",0,2000-01-01 01:00:00,2016-04-03 02:51:08,871000/ed2d4bf91ad27049693f1650c12e4af8-d.jpg,,
6945534,Present knowledge in nutrition,,,,John W Erdman; Ian A MacDonald; Steven H Zeisel  (eds.),2012,10ed.,John Wiley &  Sons,Chicester,1330,0,English,B_Biology/BH_Human/,kolxoz,10,"9780470963074,0470963077",,,,,,,,,,,0,,,,,,,1,11374281,pdf,a67d002b4469f3f8abb49ea2494903aa,,,"B_Biology/BH_Human/Erdman J.W., et al. (eds.) Present knowledge in nutrition (10ed., Wiley, 2012)(ISBN 0470959177)(O)(1330s)_BH_.pdf",0,2000-01-01 01:00:00,2016-04-03 02:51:08,871000/a67d002b4469f3f8abb49ea2494903aa-d.jpg,,
6945535,"Language, Memory, and Aging",,,,Leah L Light; Deborah M Burke ,1988,,Cambridge University Press,New York,293,0,English,B_Biology/BH_Human/,kolxoz,10,"0521329426,9780521329422",,,,,,,,,,,300,,,,,,,1,2383686,djvu,57f4fa065eb02d50dc4fc2b11f8e2a48,,,"B_Biology/BH_Human/Light L.L., Burke D.M. Language, Memory, and Aging (CUP, 1988)(ISBN 9780521329422)(T)(O)(293s)_BH_.djvu",0,2000-01-01 01:00:00,2016-04-03 02:51:08,,,
6945536,Acupuncture - Concepts and physiology,,,,Saad M. (ed.) ,2011,,InTech,,246,0,English,B_Biology/BH_Human/,kolxoz,10,9789533074108,,,,,,,,,,,0,,,,,,,1,6549765,pdf,821a5436cc37bb6f39ff4cf5db473307,,,"B_Biology/BH_Human/Saad M. (ed.) Acupuncture - Concepts and physiology (InTech, 2011)(ISBN 9789533074108)(O)(246s)_BH_.pdf",0,2000-01-01 01:00:00,2016-04-03 02:51:08,871000/821a5436cc37bb6f39ff4cf5db473307-g.jpg,,
6945537,Biological aspects of human health and well-being,,Medicine and biology research developments,,Shartava T. (ed.) ,2011,,Nova Science Publishers,New York,290,0,English,B_Biology/BH_Human/,kolxoz,10,"9781614707929,1614707928",,,,,,,,,,,0,,,,,,,1,5659055,pdf,9e759d1f7e6bca3016171997c5f28a48,,,"B_Biology/BH_Human/Shartava T. (ed.) Biological aspects of human health and well-being (Nova, 2011)(ISBN 9781614707929)(O)(290s)_BH_.pdf",0,2000-01-01 01:00:00,2016-04-03 02:51:08,871000/9e759d1f7e6bca3016171997c5f28a48-d.jpg,,
6945538,Anatomy and physiology for dummies,,,,Donna Rae Siegfried ,2002,,Hungry Minds,"New York, NY",310,0,English,B_Biology/BH_Human/,kolxoz,10,"0764554220,9780764554223",,,,,,,,,,,0,,,,,,,1,5364500,pdf,cdab82e20f377b9f46c3fd3c60a5dafe,,,"B_Biology/BH_Human/Siegfried D.R. Anatomy and physiology for dummies (Wiley, 2002)(ISBN 0764554220)(310s)_BH_.pdf",0,2000-01-01 01:00:00,2016-04-03 02:51:08,871000/cdab82e20f377b9f46c3fd3c60a5dafe-d.jpg,,
6945539,"Harrison's principles of internal medicine, self-assessment and board review",,,,"Wiener C., et al. (eds.) ",2008,17ed.,McGraw-Hill,New York,490,0,English,B_Biology/BH_Human/,kolxoz,10,"9780071496193,007149619X",,,,,,,10.1036/007149619X,,,,0,,,,,,,1,5833207,pdf,860f0709d4069e62e68164a94001bc45,,,"B_Biology/BH_Human/Wiener C., et al. (eds.) Harrison#s principles of internal medicine, self-assessment and board review (17ed., MGH, 2008)(ISBN 007149619X)(O)(490s)_BH_.pdf",0,2000-01-01 01:00:00,2016-04-03 02:51:08,871000/860f0709d4069e62e68164a94001bc45-d.jpg,,
6945540,Становление человечества,,,,Алексеев В.П. ,1984,,Политиздат,,466,0,Russian,B_Biology/BH_Human/,kolxoz,10,,,,,,,,,,,,600,,,,,,,1,7268332,djvu,c8c692e17720148076110202cab1e996,,,"B_Biology/BH_Human/Alekseev V.P. Stanovlenie chelovechestva (Politizdat, 1984)(ru)(600dpi)(T)(466s)_BH_.djvu",0,2000-01-01 01:00:00,2016-04-03 02:51:08,871000/c8c692e17720148076110202cab1e996-g.jpg,,
6945541,Кибернетика и живой организм,,,,Амосов Н.М. (ред.) ,1964,,,Киев,120,0,Russian,B_Biology/BH_Human/,kolxoz,10,,,,,,,,,,,,600,,,,,,,1,1087885,djvu,fcee763c7a9ca227993b4e6c43d5abe7,,,"B_Biology/BH_Human/Amosov N.M. (red.) Kibernetika i zhivoj organizm (Kiev, 1964)(ru)(600dpi)(T)(120s)_BH_.djvu",0,2000-01-01 01:00:00,2016-04-03 02:51:08,871000/fcee763c7a9ca227993b4e6c43d5abe7-g.jpg,,
6945542,Память человека,,,,"Вейн А.М., Каменецкая Б.И. ",1973,,Наука,,209,0,Russian,B_Biology/BH_Human/,kolxoz,10,,,,,,,,,,,,600,,,,,,,1,2080179,djvu,476aafbf92b775c27d970a6ea7e27421,,,"B_Biology/BH_Human/Vejn A.M., Kameneckaya B.I. Pamyat# cheloveka (Nauka, 1973)(ru)(600dpi)(T)(209s)_BH_.djvu",0,2000-01-01 01:00:00,2016-04-03 02:51:08,871000/476aafbf92b775c27d970a6ea7e27421-g.jpg,,
6945543,Основы доказательной медицины,,,,Гринхальх Т. ,2006,,Гэотар,,240,0,Russian,B_Biology/BH_Human/,kolxoz,10,5970402745,,,,,,,,,,,600,,,,,,,1,2262177,djvu,7f32dd4a3200b31cd829b70e639de877,,,"B_Biology/BH_Human/Grinxal#x T. Osnovy dokazatel#noj mediciny (Ge#otar, 2006)(ru)(ISBN 5970402745)(600dpi)(T)(O)(240s)_BH_.djvu",0,2000-01-01 01:00:00,2016-04-03 02:51:08,871000/7f32dd4a3200b31cd829b70e639de877-g.jpg,,
6945544,Четыре модели медицины,,,,Дильман В.М. ,1987,,Медицина,,284,0,Russian,B_Biology/BH_Human/,kolxoz,10,,,,,,,,,,,,600,,,,,,,1,8694893,djvu,878721d0f329159d1593974b1c4f5e37,,,"B_Biology/BH_Human/Dil#man V.M. Chetyre modeli mediciny (Medicina, 1987)(ru)(600dpi)(T)(284s)_BH_.djvu",0,2000-01-01 01:00:00,2016-04-03 02:51:08,871000/878721d0f329159d1593974b1c4f5e37-g.jpg,,
6945545,Целительные точки нашего тела. Практический атлас,,,,Коваль Д. ,2012,,АСТ,,160,0,Russian,B_Biology/BH_Human/,kolxoz,10,9785170682928,,,,,,,,,,,300,,,,,,,1,853368,djvu,ebe2e4bf13612ffb576694ae4e012928,,,"B_Biology/BH_Human/Koval# D. Celitel#nye tochki nashego tela. Prakticheskij atlas (AST, 2012)(ru)(ISBN 9785170682928)(T)(160s)_BH_.djvu",0,2000-01-01 01:00:00,2016-04-03 02:51:08,871000/ebe2e4bf13612ffb576694ae4e012928-g.jpg,,
6945546,Популярно о фармакологии,,,,Корпачев В.В. ,1989,, НД,Киев,184,0,Russian,B_Biology/BH_Human/,kolxoz,10,5120005594,,,,,,,,,,,414,,,,,,,1,4533959,djvu,48cd77bfa9cf7d8ef669545964ca0abb,,,"B_Biology/BH_Human/Korpachev V.V. Populyarno o farmakologii (Kiev, ND, 1989)(ru)(ISBN 5120005594)(414dpi)(T)(184s)_BH_.djvu",0,2000-01-01 01:00:00,2016-04-03 02:51:08,,,
6945547,Аэробика для хорошего самочувствия,,,,Купер К. ,1989,2изд., ФиС,,225,0,Russian,B_Biology/BH_Human/,kolxoz,10,"5-278-00116-X,0-553-34018-2",,,,,,,,,,,300,,,,,,,1,2738478,djvu,9a0b858c19a9826773b6b093c63b3958,,,"B_Biology/BH_Human/Kuper K. Ae#robika dlya xoroshego samochuvstviya (2izd., FiS, 1989)(ru)(T)(O)(225s)_BH_.djvu",0,2000-01-01 01:00:00,2016-04-03 02:51:08,871000/9a0b858c19a9826773b6b093c63b3958-g.jpg,,
6945548,Обмен веществ у человека,,,,Мак-Мюррей У. ,1980,,Мир,,368,0,Russian,B_Biology/BH_Human/,kolxoz,10,,,,,,,,,,,,400,,,,,,,1,4662015,djvu,f63a06e1f00020f2b76cb7aca2ee7569,,,"B_Biology/BH_Human/Mak-Myurrej U. Obmen veshchestv u cheloveka (Mir, 1980)(ru)(400dpi)(T)(368s)_BH_.djvu",0,2000-01-01 01:00:00,2016-04-03 02:51:08,871000/f63a06e1f00020f2b76cb7aca2ee7569-g.jpg,,
6945549,"Эволюция человека 1. Обезьяны, кости и гены",,,,Марков А. ,2011,,Астрель,,496,0,Russian,B_Biology/BH_Human/,kolxoz,10,9785271362934,,,,,,,,,,,300,,,,,,,1,7364873,djvu,242f0f4088b2b479679f0354ff772975,,,"B_Biology/BH_Human/Markov A. E#volyuciya cheloveka 1. Obez#yany, kosti i geny (Astrel#, 2011)(ru)(ISBN 9785271362934)(T)(496s)_BH_.djvu",0,2000-01-01 01:00:00,2016-04-03 02:51:08,,,
6945550,Питание и долголетие,,,,Медведев Ж.А. ,2011,,Время,,1007,0,Russian,B_Biology/BH_Human/,kolxoz,10,9785969105133,,,,,,,,,,,0,,,,,,,1,4682304,pdf,34dc6f26afab06065fade19f4db78c3d,,,"B_Biology/BH_Human/Medvedev Zh.A. Pitanie i dolgoletie (Vremya, 2011)(ru)(ISBN 9785969105133)(O)(1007s)_BH_.pdf",0,2000-01-01 01:00:00,2016-04-03 02:51:08,,,
6945551,Микрофизиология опухолей,,,,"Осинский С., Ваупель П. ",2009,, НД,Киев,256,0,Russian,B_Biology/BH_Human/,kolxoz,10,9789660010001,,,,,,,,,,,600,,,,,,,1,2685991,djvu,8f1d70127c8275442a8bac1675688cab,,,"B_Biology/BH_Human/Osinskij S., Vaupel# P. Mikrofiziologiya opuholej (Kiev, ND, 2009)(ru)(ISBN 9789660010001)(600dpi)(T)(O)(256s)_BH_.djvu",0,2000-01-01 01:00:00,2016-04-03 02:51:08,871000/8f1d70127c8275442a8bac1675688cab-g.jpg,,
6945552,Антропология,,,,"Рогинский Я.Я., Левин М.Г. ",1978,3изд., ВШ,,528,0,Russian,B_Biology/BH_Human/,kolxoz,10,,,,,,,,,,,,0,,,,,,,,22402517,chm,8044e979795331737de18837343cc6d5,,,"B_Biology/BH_Human/Roginskij Ya.Ya., Levin M.G. Antropologiya (3izd., VSh, 1978)(ru)(528s)_BH_.chm",0,2000-01-01 01:00:00,2016-04-03 02:51:08,,,
6945553,Химия - союзник медицины,,,,Розен Б. ,1975,,Медицина,,74,0,Russian,B_Biology/BH_Human/,kolxoz,10,,,,,,,,,,,,600,,,,,,,1,1072657,djvu,4f4097a225b520c7210ca806ed2e2244,,,"B_Biology/BH_Human/Rozen B. Ximiya - soyuznik mediciny (Medicina, 1975)(ru)(600dpi)(T)(74s)_BH_.djvu",0,2000-01-01 01:00:00,2016-04-03 02:51:08,871000/4f4097a225b520c7210ca806ed2e2244-g.jpg,,
6945554,Спортивный массаж,,,,Саркизов-Серазини И.М. ,1963,,ФиС,,248,0,Russian,B_Biology/BH_Human/,kolxoz,10,,,,,,,,,,,,600,,,,,,,1,9242795,djvu,1a89e8f0d898d85b67f0b82049c52804,,,"B_Biology/BH_Human/Sarkizov-Serazini I.M. Sportivnyj massazh (FiS, 1963)(ru)(600dpi)(T)(248s)_BH_.djvu",0,2000-01-01 01:00:00,2016-04-03 02:51:08,871000/1a89e8f0d898d85b67f0b82049c52804-g.jpg,,
6945555,"Физиология человека, общая, спортивная, возрастная",,,,"Солодков А.С., Сологуб Е.Б. ",2005,,Олимпия,,530,0,Russian,B_Biology/BH_Human/,kolxoz,10,5942990379,,,,,,,,,,,600,,,,,,,1,9656714,djvu,cf913cd0c37e990924bd43c816a0e8b4,,,"B_Biology/BH_Human/Solodkov A.S., Sologub E.B. Fiziologiya cheloveka, obshchaya, sportivnaya, vozrastnaya (Olimpiya, 2005)(ISBN 5942990379)(ru)(600dpi)(T)(530s)_BH_.djvu",0,2000-01-01 01:00:00,2016-04-03 02:51:08,871000/cf913cd0c37e990924bd43c816a0e8b4-g.jpg,,
6945556,Антропология,,,,"Тегако Л., Кметинский Е. ",2004,,Новое знание,,402,0,Russian,B_Biology/BH_Human/,kolxoz,10,5947350335,,,,,,,,,,,0,,,,,,,1,11374296,pdf,6391c8af9148411ec098132e2e5f3510,,,"B_Biology/BH_Human/Tegako L., Kmetinskij E. Antropologiya (Novoe znanie, 2004)(ru)(ISBN 5947350335)(402s)_BH_.pdf",0,2000-01-01 01:00:00,2016-04-03 02:51:08,,,
6945557,Микроорганизмы и антибиотики. Заболевания мочевыводящих путей,,,,Тец В.В. ,2005,,Клет,,164,0,Russian,B_Biology/BH_Human/,kolxoz,10,5933560375,,,,,,,,,,,0,,,,,,,1,1083007,pdf,c887385e974d4b6fb18d24268e1e2f8a,,,"B_Biology/BH_Human/Tec V.V. Mikroorganizmy i antibiotiki. Zabolevaniya mochevyvodyashchix putej (Klet, 2005)(ru)(ISBN 5933560375)(164s)_BH_.pdf",0,2000-01-01 01:00:00,2016-04-03 02:51:08,,,
6945558,Физиотерапия. Энциклопедия,,,,Улащик В.С. ,2008,,,Минск,639,0,Russian,B_Biology/BH_Human/,kolxoz,10,9789854897134,,,,,,,,,,,300,,,,,,,1,8066355,djvu,ad929e7fd1155b55dcb162315d3fce11,,,"B_Biology/BH_Human/Ulashchik V.S. Fizioterapiya. E#nciklopediya (Minsk, 2008)(ru)(ISBN 9789854897134)(T)(O)(639s)_BH_.djvu",0,2000-01-01 01:00:00,2016-04-03 02:51:08,871000/ad929e7fd1155b55dcb162315d3fce11-g.jpg,,
6945559,Пептидная регуляция старения,,,,Хавинсон В.Х. ,2009,,Наука,,54,0,Russian,B_Biology/BH_Human/,kolxoz,10,,,,,,,,,,,,0,,,,,,,1,646857,pdf,4921b75c9d7336e96825d3e344ed4bb4,,,"B_Biology/BH_Human/Xavinson V.X. Peptidnaya regulyaciya stareniya (Nauka, 2009)(ru)(54s)_BH_.pdf",0,2000-01-01 01:00:00,2016-04-03 02:51:08,871000/4921b75c9d7336e96825d3e344ed4bb4-g.jpg,,
6945560,Аллергия,,,, ,2010,,Популярная медицина,,282,0,Russian,"B_Biology/BH_Human/BHPop_Popular, health/",kolxoz,10,9789660337282,,,,,,,,,,,300,,,,,,,1,1267196,djvu,0ce0e30b1e27b8b6868e54b84bc4a227,,,"B_Biology/BH_Human/BHPop_Popular, health/Allergiya (Populyarnaya medicina, 2010)(ru)(ISBN 9789660337282)(T)(282s)_BHPop_.djvu",0,2000-01-01 01:00:00,2016-04-03 02:51:08,,,
6945561,Болезни глаз,,,, ,2010,,Популярная медицина,,282,0,Russian,"B_Biology/BH_Human/BHPop_Popular, health/",kolxoz,10,9789660337176,,,,,,,,,,,300,,,,,,,1,1527178,djvu,637858d6294f10ad8197ae6c27c7ef2a,,,"B_Biology/BH_Human/BHPop_Popular, health/Bolezni glaz (Populyarnaya medicina, 2010)(ru)(ISBN 9789660337176)(T)(282s)_BHPop_.djvu",0,2000-01-01 01:00:00,2016-04-03 02:51:08,871000/637858d6294f10ad8197ae6c27c7ef2a-g.jpg,,
6945562,Болезни кожи,,,, ,2010,,Популярная медицина,,284,0,Russian,"B_Biology/BH_Human/BHPop_Popular, health/",kolxoz,10,9789660337244,,,,,,,,,,,300,,,,,,,1,1838246,djvu,c8eb26d12174cf72e0d464ce8680b593,,,"B_Biology/BH_Human/BHPop_Popular, health/Bolezni kozhi (Populyarnaya medicina, 2010)(ru)(ISBN 9789660337244)(T)(284s)_BHPop_.djvu",0,2000-01-01 01:00:00,2016-04-03 02:51:08,871000/c8eb26d12174cf72e0d464ce8680b593-g.jpg,,
6945563,Болезни почек,,,, ,2010,,Популярная медицина,,282,0,Russian,"B_Biology/BH_Human/BHPop_Popular, health/",kolxoz,10,9789660337206,,,,,,,,,,,300,,,,,,,1,1338120,djvu,b6d0e7954fc3a684d8d0c83eac555451,,,"B_Biology/BH_Human/BHPop_Popular, health/Bolezni pochek (Populyarnaya medicina, 2010)(ru)(ISBN 9789660337206)(T)(282s)_BHPop_.djvu",0,2000-01-01 01:00:00,2016-04-03 02:51:08,871000/b6d0e7954fc3a684d8d0c83eac555451-g.jpg,,
6945564,Болезни сердца,,,, ,2010,,Популярная медицина,,284,0,Russian,"B_Biology/BH_Human/BHPop_Popular, health/",kolxoz,10,9789660337206,,,,,,,,,,,300,,,,,,,1,1434876,djvu,e3673c31264ce6e93ac73afa694c8bec,,,"B_Biology/BH_Human/BHPop_Popular, health/Bolezni serdca (Populyarnaya medicina, 2010)(ru)(ISBN 9789660337206)(T)(284s)_BHPop_.djvu",0,2000-01-01 01:00:00,2016-04-03 02:51:08,871000/e3673c31264ce6e93ac73afa694c8bec-g.jpg,,
6945565,Болезни суставов,,,, ,2010,,Популярная медицина,,286,0,Russian,"B_Biology/BH_Human/BHPop_Popular, health/",kolxoz,10,9789660337237,,,,,,,,,,,300,,,,,,,1,1622415,djvu,ff17d14fd68d36b381759d4e28d6253c,,,"B_Biology/BH_Human/BHPop_Popular, health/Bolezni sustavov (Populyarnaya medicina, 2010)(ru)(ISBN 9789660337237)(T)(286s)_BHPop_.djvu",0,2000-01-01 01:00:00,2016-04-03 02:51:08,871000/ff17d14fd68d36b381759d4e28d6253c-g.jpg,,
6945566,Женские болезни,,,, ,2010,,Популярная медицина,,300,0,Russian,"B_Biology/BH_Human/BHPop_Popular, health/",kolxoz,10,9789660337299,,,,,,,,,,,300,,,,,,,1,1588374,djvu,c068d061bcdc5f803a4354fe63d16dba,,,"B_Biology/BH_Human/BHPop_Popular, health/Zhenskie bolezni (Populyarnaya medicina, 2010)(ru)(ISBN 9789660337299)(T)(300s)_BHPop_.djvu",0,2000-01-01 01:00:00,2016-04-03 02:51:08,871000/c068d061bcdc5f803a4354fe63d16dba-g.jpg,,
6945567,Мужские болезни,,,, ,2010,,Популярная медицина,,300,0,Russian,"B_Biology/BH_Human/BHPop_Popular, health/",kolxoz,10,9789660337305,,,,,,,,,,,300,,,,,,,1,1611432,djvu,c0cd362ee459300e741e470af550cd2a,,,"B_Biology/BH_Human/BHPop_Popular, health/Muzhskie bolezni (Populyarnaya medicina, 2010)(ru)(ISBN 9789660337305)(T)(300s)_BHPop_.djvu",0,2000-01-01 01:00:00,2016-04-03 02:51:08,,,
6945568,Swimming,,Handbook of sports medicine and science,,Joel M Stager; David A Tanner; David L Costill; Ernest W Maglischo; Allen B Richardson; All authors  (eds.),2005,2ed.,Blackwell Science,Oxford,161,0,English,"B_Biology/BH_Human/BHPop_Popular, health/",kolxoz,10,"0632059141,9780632059140",,,,,,,,,,,300,,,,,,,1,2325542,djvu,223138dc6286640833e2eacd13f6fdf9,,,"B_Biology/BH_Human/BHPop_Popular, health/Stager J., Tanner D. (eds.) Swimming (2ed., Blackwell, 2005)(ISBN 0632059141)(T)(O)(161s)_BH_.djvu",0,2000-01-01 01:00:00,2016-04-03 02:51:08,871000/223138dc6286640833e2eacd13f6fdf9-d.jpg,,
6945569,Себя преодолеть,,,,Алексеев А.В. ,1978,,ФиС,,145,0,Russian,"B_Biology/BH_Human/BHPop_Popular, health/",kolxoz,10,,,,,,,,,,,,600,,,,,,,1,1897676,djvu,23ab3f2f49c51b1ca341890a225aee64,,,"B_Biology/BH_Human/BHPop_Popular, health/Alekseev A.V. Sebya preodolet# (FiS, 1978)(ru)(600dpi)(T)(145s)_BHPop_.djvu",0,2000-01-01 01:00:00,2016-04-03 02:51:08,871000/23ab3f2f49c51b1ca341890a225aee64-g.jpg,,
6945570,Лечение артрозов,,,,Гитт В.Д. ,2010,,Единение,,176,0,Russian,"B_Biology/BH_Human/BHPop_Popular, health/",kolxoz,10,9785804000760,,,,,,,,,,,0,,,,,,,1,1255350,pdf,5748c22f2f88890d8af89d7bdd565117,,,"B_Biology/BH_Human/BHPop_Popular, health/Gitt V.D. Lechenie artrozov (Edinenie, 2010)(ru)(ISBN 9785804000760)(176s)_BH_.pdf",0,2000-01-01 01:00:00,2016-04-03 02:51:08,871000/5748c22f2f88890d8af89d7bdd565117-g.jpg,,
6945571,"Медики шутят, пока молчит сирена",,,,Горобец Б.С. ,2012,,УРСС,,210,0,Russian,"B_Biology/BH_Human/BHPop_Popular, health/",kolxoz,10,9785971004158,,,,,,,,,,,400,,,,,,,1,2416752,djvu,33091f4047aaa7844f9f521aabb44bbe,,,"B_Biology/BH_Human/BHPop_Popular, health/Gorobec B.S. Mediki shutyat, poka molchit sirena (URSS, 2012)(ru)(ISBN 9785971004158)(400dpi)(T)(210s)_BHPop_.djvu",0,2000-01-01 01:00:00,2016-04-03 02:51:08,871000/33091f4047aaa7844f9f521aabb44bbe-g.jpg,,
6945572,Здоровое сердце и сосуды,,,,Улесова Г.В. ,2012,, КСД,Харьков,510,0,Russian,"B_Biology/BH_Human/BHPop_Popular, health/",kolxoz,10,9789661439152,,,,,,,,,,,300,,,,,,,1,3254422,djvu,cd6547a3d417b0426f288474bd7cc9b8,,,"B_Biology/BH_Human/BHPop_Popular, health/Ulesova G.V. Zdorovoe serdce i sosudy (Xar#kov, KSD, 2012)(ru)(ISBN 9789661439152)(T)(510s)_BHPop_.djvu",0,2000-01-01 01:00:00,2016-04-03 02:51:08,871000/cd6547a3d417b0426f288474bd7cc9b8-g.jpg,,
6945573,Первая мужская книга,,,,Чуприн А. ,2012,,Иркутск,,98,0,Russian,"B_Biology/BH_Human/BHPop_Popular, health/",kolxoz,10,,,,,,,,,,,,0,,,,,,,1,1751885,pdf,6603573effce53679038f9c3ca4b7b56,,,"B_Biology/BH_Human/BHPop_Popular, health/Chuprin A. Pervaya muzhskaya kniga (Irkutsk, 2012)(ru)(98s)_BH_.pdf",0,2000-01-01 01:00:00,2016-04-03 02:51:08,871000/6603573effce53679038f9c3ca4b7b56-g.jpg,,
6945574,Природа наших ощущений,,,,Шостак В.И. ,1983,,Просвещение,,127,0,Russian,"B_Biology/BH_Human/BHPop_Popular, health/",kolxoz,10,,,,,,,,,,,,600,,,,,,,1,2556336,djvu,a689053927d58509d090ebc660eb29e8,,,"B_Biology/BH_Human/BHPop_Popular, health/Shostak V.I. Priroda nashix oshchushchenij (Prosveshchenie, 1983)(ru)(600dpi)(T)(127s)_BH_.djvu",0,2000-01-01 01:00:00,2016-04-03 02:51:08,871000/a689053927d58509d090ebc660eb29e8-g.jpg,,
6945575,Discrete optimization for TSP-like genome mapping problems,,Genetics--research and issues series,,"Mester D., Ronin D., et al. ",2010,,Nova Science Publishers,New York,73,0,English,B_Biology/BN_Genetics/,kolxoz,10,"9781616683740,1616683740",,,,,,,,,,,0,,,,,,,1,1126454,pdf,26f855febf0247df897d2bc5eba74b8f,,,"B_Biology/BN_Genetics/Mester D., Ronin D., et al. Discrete optimization for TSP-like genome mapping problems (Nova, 2010)(ISBN 9781616683740)(O)(73s)_BN_.pdf",0,2000-01-01 01:00:00,2016-04-03 02:51:08,871000/26f855febf0247df897d2bc5eba74b8f-d.jpg,,
6945576,Genetics. A conceptual approach,,,,Benjamin A Pierce ,2012,4ed.,W.H. Freeman,New York,857,0,English,B_Biology/BN_Genetics/,kolxoz,10,"9781429232500,1429232501,9781429232524,1429232528",,,,,,,,,,,0,,,,,,,1,20543908,pdf,3349433102b9b49f4d427c472a29b240,,,"B_Biology/BN_Genetics/Pierce B.A. Genetics. A conceptual approach (4ed., Freeman, 2012)(ISBN 9781429232500)(O)(857s)_BN_.pdf",0,2000-01-01 01:00:00,2016-04-03 02:51:08,871000/3349433102b9b49f4d427c472a29b240-d.jpg,,
6945577,Генетика,,,,Ауэрбах Ш. ,1966,,Атомиздат,,321,0,Russian,B_Biology/BN_Genetics/,kolxoz,10,,,,,,,,,,,,600,,,,,,,1,4030383,djvu,6d6d0c6351087b6eb3a2c109b4832d61,,,"B_Biology/BN_Genetics/Aue#rbax Sh. Genetika (Atomizdat, 1966)(ru)(600dpi)(T)(321s)_BN_.djvu",0,2000-01-01 01:00:00,2016-04-03 02:51:08,871000/6d6d0c6351087b6eb3a2c109b4832d61-g.jpg,,
6945578,Власть и наука. Разгром коммунистами генетики в СССР,,,,Сойфер В.Н. ,2002,4изд., ЧеРо,,691,0,Russian,B_Biology/BN_Genetics/,kolxoz,10,588711147X,,,,,,,,,,,0,,,,,,,1,5186264,pdf,97eeabdb0f9059b6064efde43b150c68,,,"B_Biology/BN_Genetics/Sojfer V.N. Vlast# i nauka. Razgrom kommunistami genetiki v SSSR (4izd., CheRo, 2002)(ru)(ISBN 588711147X)(691s)_BN_.pdf",0,2000-01-01 01:00:00,2016-04-03 02:51:08,,,
6945579,Engineering Materials and Processes Desk Reference,,,,"Ashby M.F., et al. ",2009,1st ed,Butterworth-Heinemann,"Oxford ; Burlington, MA",543,0,English,Ch_Chemistry/,kolxoz,10,"9781856175869,1856175863",,,,,,,,,,,0,,,,,,,1,27402217,pdf,f6a653c080bc7308ebeaab656a00ff75,,,"Ch_Chemistry/Ashby M.F., et al. Engineering Materials and Processes Desk Reference (BH, 2009)(ISBN 1856175863)(543s)_Ch_.pdf",0,2000-01-01 01:00:00,2016-04-03 02:51:08,871000/f6a653c080bc7308ebeaab656a00ff75-d.jpg,,
6945580,Instructor's solutions manual to accompany Atkins' physical chemistry,,,,"Atkins P., Trapp C., Cady M., Giunta C. ",2006,8ed.,Oxford University Press,Oxford,508,0,English,Ch_Chemistry/,kolxoz,10,"0199288577,9780199288571",,,,,,,,,,,400,,,,,,,1,6373825,djvu,78750fabfa731792cf9771631beee93b,,,"Ch_Chemistry/Atkins P., Trapp C., Cady M., Giunta C. Physical chemistry.. Solutions manual (8ed., OUP, 2006)(ISBN 0199288577)(400dpi)(T)(O)(508s)_Ch_.djvu",0,2000-01-01 01:00:00,2016-04-03 02:51:08,871000/78750fabfa731792cf9771631beee93b-d.jpg,,
6945581,Encyclopedia of Chromatography,,,,Cazes J. (ed.) ,2009,3ed.,CRC Press,"Boca Raton, FL",2518,0,English,Ch_Chemistry/,kolxoz,10,"9781420084597,1420084593,9781420084801,1420084801,9781420084818,142008481X,9781420084825,1420084828",,,,,,,,,,,0,,,,,,,1,50994139,pdf,2c86eeb23d6a921a3c2041646ded4b4a,,,"Ch_Chemistry/Cazes J. (ed.) Encyclopedia of Chromatography (3ed., CRC, 2009)(ISBN 1420084593)(O)(2518s)_Ch_.pdf",0,2000-01-01 01:00:00,2016-04-03 02:51:08,871000/2c86eeb23d6a921a3c2041646ded4b4a-d.jpg,,
6945582,"Analytic Combustion : With Thermodynamics, Chemical Kinetics and Mass Transfer",,,,Anil W Date ,2011,,Cambridge University Press,Cambridge ; New York,365,0,English,Ch_Chemistry/,kolxoz,10,"9781107002869,1107002869",,,,,,,,,,,0,,,,,,,1,2837275,pdf,30da922ca7c9c56f8e434b2fdac1d099,,,"Ch_Chemistry/Date A. Analytic Combustion (CUP, 2011)(ISBN 9781107002869)(O)(365s)_Ch_.pdf",0,2000-01-01 01:00:00,2016-04-03 02:51:08,871000/30da922ca7c9c56f8e434b2fdac1d099-d.jpg,,
6945583,Handbook on the physics and chemistry of rare earths. Volume 19,,,,Karl A Gschneidner; ScienceDirect (Online service)  (eds.),1978,,Elsevier,Amsterdam ; Oxford,665,0,English,Ch_Chemistry/,kolxoz,10,"9780444820150,0444820159",,,,,,,,,,,300,,,,,,,1,7055156,djvu,0732e183b2ad53375d761c970842e72e,,,"Ch_Chemistry/Gschneidner K.A., Jr, Eyring L. (eds.) Handbook on the physics and chemistry of rare earths, vol. 19 (NH, 1978)(ISBN 0444820159)(T)(665s)_Ch_.djvu",0,2000-01-01 01:00:00,2016-04-03 02:51:08,,,
6945584,Rare earth coordination chemistry: fundamentals and applications,,,,Chun-Hui Huang ,2010,,John Wiley&  Sons,"Singapore ; Hoboken, NJ",587,0,English,Ch_Chemistry/,kolxoz,10,"9780470824856,0470824859",,,,,,,10.1039/a809696a-by,,,,600,,,,,,,1,10923583,djvu,fa4d0f1ddb073bbd1e260c070cd8fe7e,,,"Ch_Chemistry/Huang C.-H. Rare earth coordination chemistry.. fundamentals and applications (Wiley, 2010)(ISBN 0470824859)(600dpi)(T)(587s)_Ch_.djvu",0,2000-01-01 01:00:00,2016-04-03 02:51:08,871000/fa4d0f1ddb073bbd1e260c070cd8fe7e-d.jpg,,
6945585,Semiconductor Nanomaterials,,"Nanomaterials for the life sciences, v. 6",,Kumar C.S.S.R. (ed.) ,2010,,Wiley-VCH,Weinheim,459,0,English,Ch_Chemistry/,kolxoz,10,"9783527321667,3527321667",,,,,,,,,,,0,,,,,,,1,15012562,pdf,a0ac59c5c43b448785902d8d0cb9a678,,,"Ch_Chemistry/Kumar C.S.S.R. (ed.) Semiconductor Nanomaterials (Wiley, 2010)(ISBN 3527321667)(O)(459s)_Ch_.pdf",0,2000-01-01 01:00:00,2016-04-03 02:51:08,871000/a0ac59c5c43b448785902d8d0cb9a678-d.jpg,,
6945586,Metal-organic frameworks : design and application,,,,MacGillivray L.R. (ed.) ,2010,,Wiley,"Hoboken, N.J",363,0,English,Ch_Chemistry/,kolxoz,10,"9780470195567,0470195568",,,,,,,,,,,0,,,,,,,1,8565306,pdf,b0e7079bd031c26d3e2d56f1b9d9b66a,,,"Ch_Chemistry/MacGillivray L.R. (ed.) Metal-Organic Frameworks (Wiley, 2010)(ISBN 0470195568)(O)(363s)_Ch_.pdf",0,2000-01-01 01:00:00,2016-04-03 02:51:08,871000/b0e7079bd031c26d3e2d56f1b9d9b66a-d.jpg,,
6945587,Physical Properties of Polymers,,,,James E Mark; et al ,2004,3ed.,Cambridge University Press,Cambridge ; New York,535,0,English,Ch_Chemistry/,kolxoz,10,"052182317X,9780521823173,0521530180,9780521530187",,,,,,,,,,,0,,,,,,,1,16762120,pdf,af7aff0189d0cbc16ec76e6ac972211f,,,"Ch_Chemistry/Mark J., et al. Physical Properties of Polymers (3ed., CUP, 2004)(ISBN 9780521823173)(O)(535s)_Ch_.pdf",0,2000-01-01 01:00:00,2016-04-03 02:51:08,871000/af7aff0189d0cbc16ec76e6ac972211f-d.jpg,,
6945588,"Adsorption at interfaces : papers from a symposium honoring Robert D. Vold and Marjorie J. Vold sponsored by the Division of Colloid and Surface Chemistry at the 167th meeting of the American Chemical Society, Los Angeles, Calif., April 2-5, 1974",,"ACS symposium series, 8",,K  L Mittal; Robert D Vold; Marjorie J Vold; American Chemical Society. Division of Colloid and Surface Chemistry.; American Chemical Society. Meeting (ed.),1975,,American Chemical Society,Washington,299,0,English,Ch_Chemistry/,kolxoz,10,"0841202494,9780841202498",,,,,,,,,,,300,,,,,,,1,4851752,djvu,72226df1d156480698b9df94d2498867,,,"Ch_Chemistry/Mittal K.L. (ed.) Adsorption at interfaces (ACS, 1975)(ISBN 0841202494)(T)(O)(299s)_Ch_.djvu",0,2000-01-01 01:00:00,2016-04-03 02:51:08,871000/72226df1d156480698b9df94d2498867-d.jpg,,
6945589,Advances in forensic applications of mass spectrometry,,,,Yinon J. (ed.) ,2004,,CRC Press,Boca Raton,286,0,English,Ch_Chemistry/,kolxoz,10,"0849315220,9780849315220",,,,,,,,,,,0,,,,,,,1,7020255,pdf,5b5ea1dc46d0f2e65779da2ffc82e790,,,"Ch_Chemistry/Yinon J. (ed.) Advances in forensic applications of mass spectrometry (CRC, 2004)(ISBN 0849315220)(286s)_Ch_.pdf",0,2000-01-01 01:00:00,2016-04-03 02:51:08,871000/5b5ea1dc46d0f2e65779da2ffc82e790-d.jpg,,
6945590,Three-dimensional nanoarchitectures : designing next-generation devices,,,,Weilie Zhou; Zhong Lin Wang  (eds.),2011,,Springer,New York,557,0,English,Ch_Chemistry/,kolxoz,10,"9781441998224,1441998225",,,,,,,10.1007/978-1-4419-9822-4,,,,0,,,,,,,1,21194407,pdf,89716929e5db9c1afa007176f0e1ed29,,,"Ch_Chemistry/Zhou W., Wang Z.L. (eds.) Three-Dimensional Nanoarchitectures (Springer, 2011)(ISBN 1441998217)(O)(557s)_Ch_.pdf",0,2000-01-01 01:00:00,2016-04-03 02:51:08,871000/89716929e5db9c1afa007176f0e1ed29-d.jpg,,
6945591,Спектроскопия,,,,Бёккер Ю. ,2009,,Техносфера,,517,0,Russian,Ch_Chemistry/,kolxoz,10,9785948362205,,,,,,,,,,,600,,,,,,,1,6365161,djvu,3bbbebb12e52fdbc0c77c0283d70531f,,,"Ch_Chemistry/Byokker Yu. Spektroskopiya (Texnosfera, 2009)(ru)(ISBN 9785948362205)(600dpi)(T)(517s)_Ch_.djvu",0,2000-01-01 01:00:00,2016-04-03 02:51:08,871000/3bbbebb12e52fdbc0c77c0283d70531f-g.jpg,,
6945592,Как образуется химическая связь и протекают химические реакции,,,,"Ганкин В.Ю., Ганкин Ю.В. ",1998,,ИТХ,,323,0,Russian,Ch_Chemistry/,kolxoz,10,,,,,,,,,,,,300,,,,,,,1,2254946,djvu,b53592dfd04c4b224c6001199e26faab,,,"Ch_Chemistry/Gankin V.Yu., Gankin Yu.V. Kak obrazuetsya ximicheskaya svyaz# i protekayut ximicheskie reakcii (ITX, 1998)(ru)(T)(323s)_Ch_.djvu",0,2000-01-01 01:00:00,2016-04-03 02:51:08,871000/b53592dfd04c4b224c6001199e26faab-g.jpg,,
6945593,Электрохимия,,,,"Дамаскин Б.Б., Петрий О.А., Цирлина Г.А. ",2001,,Химия,,623,0,Russian,Ch_Chemistry/,kolxoz,10,5724510472,,,,,,,,,,,300,,,,,,,1,7538782,djvu,b11540b21351da0c755dfa18ad792e0e,,,"Ch_Chemistry/Damaskin B.B., Petrij O.A., Cirlina G.A. E#lektroximiya (Ximiya, 2001)(ISBN 5724510472)(ru)(T)(623s)_Ch_.djvu",0,2000-01-01 01:00:00,2016-04-03 02:51:08,871000/b11540b21351da0c755dfa18ad792e0e-g.jpg,,
6945594,Общие сведения. Строение вещества,,Новый справочник химика и технолога.,, ,2006,,Профессионал,,1466,0,Russian,Ch_Chemistry/,kolxoz,10,9785912590139,,,,,,,,,,,400,,,,,,,1,22759741,djvu,de5ab8c88c796a061f831484c9768dd1,,,"Ch_Chemistry/Novyj spravochnik ximika i texnologa. Obshchie svedeniya. Stroenie veshchestva (Professional, 2006)(ru)(ISBN 9785912590139)(400dpi)(T)(1466s)_Ch_.djvu",0,2000-01-01 01:00:00,2016-04-03 02:51:08,871000/de5ab8c88c796a061f831484c9768dd1-g.jpg,,
6945595,"Основные свойства неорг., орг. и элементоорг. соединений",,Новый справочник химика и технолога.,, ,2002,,Профессионал,,1276,0,Russian,Ch_Chemistry/,kolxoz,10,5943650326,,,,,,,,,,,400,,,,,,,1,19369539,djvu,5a0f565c5c22617400b03962c356c1e0,,,"Ch_Chemistry/Novyj spravochnik ximika i texnologa. Osnovnye svojstva neorg., org. i e#lementoorg. soedinenij (Professional, 2002)(ru)(ISBN 5943650326)(400dpi)(T)(1276s)_Ch_.djvu",0,2000-01-01 01:00:00,2016-04-03 02:51:08,871000/5a0f565c5c22617400b03962c356c1e0-g.jpg,,
6945596,Процессы и аппараты химических технологий. ч.2,,Новый справочник химика и технолога.,, ,2006,,Профессионал,,920,0,Russian,Ch_Chemistry/,kolxoz,10,5912590038,,,,,,,,,,,400,,,,,,,1,19438954,djvu,7141efd5238a84e74131bac796a3dd1e,,,"Ch_Chemistry/Novyj spravochnik ximika i texnologa. Processy i apparaty ximicheskix texnologij. ch.2 (Professional, 2006)(ru)(ISBN 5912590038)(400dpi)(T)(920s)_Ch_.djvu",0,2000-01-01 01:00:00,2016-04-03 02:51:08,871000/7141efd5238a84e74131bac796a3dd1e-g.jpg,,
6945597,Радиоактивные вещества. Вредные вещества,,Новый справочник химика и технолога.,, ,2004,,Профессионал,,1146,0,Russian,Ch_Chemistry/,kolxoz,10,5983710257,,,,,,,,,,,400,,,,,,,,21296195,djvu,611c57d3b49fe6d45bcb74e93a1f4d46,,,"Ch_Chemistry/Novyj spravochnik ximika i texnologa. Radioaktivnye veshchestva. Vrednye veshchestva (Professional, 2004)(ru)(ISBN 5983710257)(400dpi)(T)(1146s)_Ch_.djvu",0,2000-01-01 01:00:00,2016-04-03 02:51:08,871000/611c57d3b49fe6d45bcb74e93a1f4d46-g.jpg,,
6945598,Сырьё и продукты промышленности орг. и неорг. веществ ч.2,,Новый справочник химика и технолога.,, ,2007,,Профессионал,,1144,0,Russian,Ch_Chemistry/,kolxoz,10,5983710281,,,,,,,,,,,400,,,,,,,1,27679868,djvu,cb20cf054885098436081ef868d44356,,,"Ch_Chemistry/Novyj spravochnik ximika i texnologa. Syr#yo i produkty promyshlennosti org. i neorg. veshchestv ch.2 (Professional, 2007)(ru)(ISBN 5983710281)((400dpi)(T)(1144s)_Ch_.djvu",0,2000-01-01 01:00:00,2016-04-03 02:51:08,871000/cb20cf054885098436081ef868d44356-g.jpg,,
6945599,Химическое равновесие. Свойства растворов,,Новый справочник химика и технолога.,, ,2004,,Профессионал,,1002,0,Russian,Ch_Chemistry/,kolxoz,10,5983710176,,,,,,,,,,,400,,,,,,,1,19793485,djvu,01c29625c948ae2822ee6ab5f8a23e86,,,"Ch_Chemistry/Novyj spravochnik ximika i texnologa. Ximicheskoe ravnovesie. Svojstva rastvorov (Professional, 2004)(ru)(ISBN 5983710176)(400dpi)(T)(1002s)_Ch_.djvu",0,2000-01-01 01:00:00,2016-04-03 02:51:08,871000/01c29625c948ae2822ee6ab5f8a23e86-g.jpg,,
6945600,Электродные процессы. Химическая кинетика и диффузия,,Новый справочник химика и технолога.,, ,2004,,Профессионал,,839,0,Russian,Ch_Chemistry/,kolxoz,10,5983710168,,,,,,,,,,,400,,,,,,,1,14301803,djvu,d8f8a9e86cd97353ba4596dc78231728,,,"Ch_Chemistry/Novyj spravochnik ximika i texnologa. E#lektrodnye processy. Ximicheskaya kinetika i diffuziya (Professional, 2004)(ru)(ISBN 5983710168)(400dpi)(T)(839s)_Ch_.djvu",0,2000-01-01 01:00:00,2016-04-03 02:51:08,871000/d8f8a9e86cd97353ba4596dc78231728-g.jpg,,
6945601,Клиническая биохимия,,,,Ткачук В.А. (ред.) ,2004,2изд., МГУ,,515,0,Russian,Ch_Chemistry/,kolxoz,10,5923104202,,,,,,,,,,,300,,,,,,,1,5855347,djvu,f76d755f0c262835e58a2292364f943f,,,"Ch_Chemistry/Tkachuk V.A. (red.) Klinicheskaya bioximiya (2izd., MGU, 2004)(ISBN 5923104202)(ru)(T)(515s)_Ch_.djvu",0,2000-01-01 01:00:00,2016-04-03 02:51:08,871000/f76d755f0c262835e58a2292364f943f-g.jpg,,
6945602,"Multiscale simulation methods in molecular sciences winter school, 2 - 6 March 2009, Forschungszentrum JuМ€lich, Germany ; lecture notes",,John-von-Neumann-Institut fuМ€r Computing & lt;JuМ€lich& gt; NIC series,,Johannes Grotendorst; Institute for Advanced Simulation & lt;JuМ€lich& gt ,2009,,JuМ€lich NIC 2009,,592,0,English,Ch_Chemistry/ChCm_Computational chemistry/,kolxoz,10,"9783981084382,3981084381",,,,,,,,,,,0,,,,,,,1,9619292,pdf,7164e70e6e3a9c399a119d95c4694fec,,,"Ch_Chemistry/ChCm_Computational chemistry/Grotendorst J., Attig N., Bluegel S., Marx D. Multiscale Simulation Methods in Molecular Sciences (Juelich Supercomputing Centre, 2009)(ISBN 9783981084382)(O)(592s)_ChCm_.pdf",0,2000-01-01 01:00:00,2016-04-03 02:51:08,,,
6945603,Molecular modelling and bonding,,"Molecular world, bk. 6",,Elaine Moore; Royal Society of Chemistry (Great Britain); Open University (ed.),2002,,Royal Society of Chemistry,"Cambridge, UK",156,0,English,Ch_Chemistry/ChCm_Computational chemistry/,kolxoz,10,"0854046755,9780854046751",,,,,,,,,,,0,,,,,,,1,8708124,pdf,9200d276bab089ba4414954813de1029,,,"Ch_Chemistry/ChCm_Computational chemistry/Moore E. (ed.) Molecular modelling and bonding (RSC, 2002)(ISBN 0854046755)(O)(156s)_ChCm_.pdf",0,2000-01-01 01:00:00,2016-04-03 02:51:08,871000/9200d276bab089ba4414954813de1029-d.jpg,,
6945604,Computational chemistry : a practical guide for applying techniques to real world problems,,,,David C Young ,2001,,Wiley,New York,407,0,English,Ch_Chemistry/ChCm_Computational chemistry/,kolxoz,10,"0471333689,9780471333685",,,,,,,,,,,0,,,,,,,1,1366026,pdf,4952b85a3c481dbc4fa7a20884f12867,,,"Ch_Chemistry/ChCm_Computational chemistry/Young D.C. Computational chemistry (Wiley, 2001)(ISBN 0471333689)(O)(407s)_ChCm_.pdf",0,2000-01-01 01:00:00,2016-04-03 02:51:08,871000/4952b85a3c481dbc4fa7a20884f12867-d.jpg,,
6945605,.,,"Проблемы кибернетики, вып.07",, ,1962,,ФМЛ,,237,0,Russian,Cs_Computer science/,kolxoz,10,,,,,,,,,,,,600,,,,,,,1,5436247,djvu,875a1abb6cce14c61cc587e20699c4fb,,,"Cs_Computer science/Problemy kibernetiki, vyp.07 (FML, 1962)(ru)(600dpi)(T)(237s)_Cs_.djvu",0,2000-01-01 01:00:00,2016-04-03 02:51:08,871000/875a1abb6cce14c61cc587e20699c4fb-g.jpg,,
6945606,.,,"Проблемы кибернетики, вып.14",, ,1965,,Наука,,309,0,Russian,Cs_Computer science/,kolxoz,10,,,,,,,,,,,,600,,,,,,,1,5085154,djvu,dd6f44e0e8a374fba063ebbfcbffb925,,,"Cs_Computer science/Problemy kibernetiki, vyp.14 (Nauka, 1965)(ru)(600dpi)(T)(309s)_Cs_.djvu",0,2000-01-01 01:00:00,2016-04-03 02:51:08,871000/dd6f44e0e8a374fba063ebbfcbffb925-g.jpg,,
6945607,.,,"Проблемы кибернетики, вып.16",, ,1966,,Наука,,249,0,Russian,Cs_Computer science/,kolxoz,10,,,,,,,,,,,,600,,,,,,,1,3508425,djvu,f3e350d4a695c0be8c797114e16dcca6,,,"Cs_Computer science/Problemy kibernetiki, vyp.16 (Nauka, 1966)(ru)(600dpi)(T)(249s)_Cs_.djvu",0,2000-01-01 01:00:00,2016-04-03 02:51:08,871000/f3e350d4a695c0be8c797114e16dcca6-g.jpg,,
6945608,.,,"Проблемы кибернетики, вып.19",, ,1967,,Наука,,319,0,Russian,Cs_Computer science/,kolxoz,10,,,,,,,,,,,,600,,,,,,,1,5058353,djvu,e60f068c6d23102e22f0755a0bb115f7,,,"Cs_Computer science/Problemy kibernetiki, vyp.19 (Nauka, 1967)(ru)(600dpi)(T)(319s)_Cs_.djvu",0,2000-01-01 01:00:00,2016-04-03 02:51:08,871000/e60f068c6d23102e22f0755a0bb115f7-g.jpg,,
6945609,.,,"Проблемы кибернетики, вып.28",, ,1974,,Наука,,281,0,Russian,Cs_Computer science/,kolxoz,10,,,,,,,,,,,,600,,,,,,,1,4118896,djvu,0029b042ae422f15e9690b1cff85f835,,,"Cs_Computer science/Problemy kibernetiki, vyp.28 (Nauka, 1974)(ru)(600dpi)(T)(281s)_Cs_.djvu",0,2000-01-01 01:00:00,2016-04-03 02:51:08,871000/0029b042ae422f15e9690b1cff85f835-g.jpg,,
6945610,Instruction Sequences for Computer Science,,"Atlantis studies in computing, v.2",,J  A Bergstra; Cornelis A Middelburg ,2012,,Atlantis Press,Amsterdam ; Paris,241,0,English,Cs_Computer science/,kolxoz,10,"9789491216657,9491216651",,,,,,,,,,,0,,,,,,,1,1608059,pdf,cf0f8b77064760a2d466a63d8532aa95,,,"Cs_Computer science/Bergstra J.A., Middelburg C.A. Instruction Sequences for Computer Science (Atlantis Press, 2012)(ISBN 9789491216640)(O)(241s)_Cs_.pdf",0,2000-01-01 01:00:00,2016-04-03 02:51:08,871000/cf0f8b77064760a2d466a63d8532aa95-d.jpg,,
6945611,"Patterns, Programming and Everything",,,,"Breitman K.K., Horspool R.N. (eds.) ",2012,,Springer,London ; New York,179,0,English,Cs_Computer science/,kolxoz,10,"9781447123507,1447123506",,,,,,,10.1007/978-1-4471-2350-7,,,,0,,,,,,,1,2265842,pdf,c59fd307ab6819d9330fc6ef304998a7,,,"Cs_Computer science/Breitman K.K., Horspool R.N. (eds.) Patterns, Programming and Everything (Springer, 2012)(ISBN 9781447123491)(O)(179s)_Cs_.pdf",0,2000-01-01 01:00:00,2016-04-03 02:51:08,871000/c59fd307ab6819d9330fc6ef304998a7-d.jpg,,
6945612,Feynman lectures on computation,,,,Richard Phillips Feynman; Anthony J  G Hey; Robin W Allen ,1996,,Addison-Wesley,"Reading, Mass. ; Harlow",317,0,English,Cs_Computer science/,kolxoz,10,"0201489910,9780201489910",,,,,,,,,,,300,,,,,,,1,2643642,djvu,b27a77e1dfb1d310aacd00c4e3da89a7,,,"Cs_Computer science/Feynman R.P. Lectures on computation (AW, 1996)(ISBN 0201489910)(T)(O)(317s)_Cs_.djvu",0,2000-01-01 01:00:00,2016-04-03 02:51:08,871000/b27a77e1dfb1d310aacd00c4e3da89a7-d.jpg,,
6945613,Computer science: abstraction to implementation,,,,Keller R. ,2001,free web version,,,627,0,English,Cs_Computer science/,kolxoz,10,,,,,,,,,,,,0,,,,,,,1,3584261,pdf,6fbbc46643100c8501287301315847ad,,,"Cs_Computer science/Keller R. Computer science.. abstraction to implementation(free web version, 2001)(627s)_Cs_.pdf",0,2000-01-01 01:00:00,2016-04-03 02:51:08,871000/6fbbc46643100c8501287301315847ad-g.jpg,,
6945614,Computational complexity: selected entries from the Encyclopedia of computational complexity and systems science,,,,Meyers R.A. (ed.) ,2012,,Springer,New York,3533,0,English,Cs_Computer science/,kolxoz,10,"1461417996,9781461417996",,,,,,,,,,,0,,,,,,,1,71252768,pdf,fa20e3b151c5f3dfc9661f76a4c59bab,,,"Cs_Computer science/Meyers R.A. (ed.) Computational complexity.. selected entries from the Encyclopedia of computational complexity and systems science (Springer, 2012)(ISBN 9781461417996)(O)(3533s)_Cs_.pdf",0,2000-01-01 01:00:00,2016-04-03 02:51:08,871000/fa20e3b151c5f3dfc9661f76a4c59bab-d.jpg,,
6945615,"Advances in logic, artificial intelligence and robotics: procedings LAPTEC 2002",,"Frontiers in artificial intelligence and applications, v. 85",,Jair Minoro Abe; JoaМѓo InaМЃcio da Silva Filho ,2002,,IOS Press/Ohmsha,"Amsterdam ; Washington, DC",286,0,English,"Cs_Computer science/CsAi_AI, knowledge/",kolxoz,10,"1417511400,9781417511402,1601294026,9781601294029,9781586032920,1586032925",,,,,,,,,,,300,,,,,,,1,3755200,djvu,4edceb5666fe39d1865778d139e547bc,,,"Cs_Computer science/CsAi_AI, knowledge/Advances in logic, artificial intelligence and robotics.. procedings LAPTEC 2002 (IOS Press, 2002)(ISBN 1586032925)(T)(286s)_CsAi_.djvu",0,2000-01-01 01:00:00,2016-04-03 02:51:08,871000/4edceb5666fe39d1865778d139e547bc-d.jpg,,
6945616,Support vector machines for pattern classification,,,,Shigeo Abe ,2010,2ed.,Springer,London,486,0,English,"Cs_Computer science/CsAi_AI, knowledge/",kolxoz,10,"9781849960984,1849960984",,,,,,,10.1007/978-1-84996-098-4,,,,0,,,,,,,1,2416923,pdf,a356649db22c9237b0ce9f4f345113e0,,,"Cs_Computer science/CsAi_AI, knowledge/Abe S. Support vector machines for pattern classification (2ed., Springer, 2010)(ISBN 9781849960977)(O)(486s)_CsAi_.pdf",0,2000-01-01 01:00:00,2016-04-03 02:51:08,,,
6945617,Composing music by composing rules: generic music constraint system,,,,Anders T. ,2007,,,,244,0,English,"Cs_Computer science/CsAi_AI, knowledge/",kolxoz,10,,,,,,,,,,,phd thesis,0,,,,,,,1,1628308,pdf,5d1d8beed5821c8f9a07c3790bf2b7f5,,,"Cs_Computer science/CsAi_AI, knowledge/Anders T. Composing music by composing rules.. generic music constraint system (phd thesis, 2007)(O)(244s)_CsAi_.pdf",0,2000-01-01 01:00:00,2016-04-03 02:51:08,871000/5d1d8beed5821c8f9a07c3790bf2b7f5-g.jpg,,
6945618,Automated reasoning : essays in honor of Woody Bledsoe,,"Automated reasoning series, v. 1",,W  W Bledsoe; Robert S Boyer (ed.),1991,,Kluwer Academic Publishers,Dordrecht ; Boston,379,0,English,"Cs_Computer science/CsAi_AI, knowledge/",kolxoz,10,"0792314093,9780792314097",,,,,,,,,,,600,,,,,,,1,2835725,djvu,38e0ab0eaafd42a6831e490f278c47d7,,,"Cs_Computer science/CsAi_AI, knowledge/Boyer R.S. (ed.) Automated reasoning.. essays in honor of W.Bledsoe (Kluwer, 1991)(ISBN 0792314093)(600dpi)(T)(379s)_CsAi_.djvu",0,2000-01-01 01:00:00,2016-04-03 02:51:08,871000/38e0ab0eaafd42a6831e490f278c47d7-d.jpg,,
6945619,Knowledge representation and reasoning,,,,Ronald J Brachman; Hector J Levesque ,2004,,Morgan Kaufmann,Amsterdam ; Boston,413,0,English,"Cs_Computer science/CsAi_AI, knowledge/",kolxoz,10,"1558609326,9781558609327",,,,,,,,,,,0,,,,,,,1,2122553,pdf,a89beae76feb6bea4ba828666d1c1d99,,,"Cs_Computer science/CsAi_AI, knowledge/Brachman R., Levesque H. Knowledge representation and reasoning (MK, 2004)(ISBN 1558609326)(O)(413s)_CsAi_.pdf",0,2000-01-01 01:00:00,2016-04-03 02:51:08,871000/a89beae76feb6bea4ba828666d1c1d99-d.jpg,,
6945620,Machine Proofs In Geometry: Automated Production of Readable Proofs for Geometry Theorems,,"Series on applied mathematics, v. 6",,Shang-Ching Chou; Xiao-Shan Gao; Jingzhong Zhang ,1994,,World Scientific,Singapore ; New Jersey,476,0,English,"Cs_Computer science/CsAi_AI, knowledge/",kolxoz,10,"9810215843,9789810215842",,,,,,,,,,,300,,,,,,,1,4123877,djvu,c00cd9e238f169c5be5c1d5b468dce09,,,"Cs_Computer science/CsAi_AI, knowledge/Chou S. Machine Proofs In Geometry.. Automated Production of Readable Proofs for Geometry Theorems (WS, 1994)(ISBN 9789810215842)(T)(O)(476s)_CsAi_.djvu",0,2000-01-01 01:00:00,2016-04-03 02:51:08,871000/c00cd9e238f169c5be5c1d5b468dce09-d.jpg,,
6945621,Machine Proofs In Geometry: Automated Production of Readable Proofs for Geometry Theorems,,"Series on applied mathematics, v. 6",,Shang-Ching Chou; Xiao-Shan Gao; Jingzhong Zhang ,1994,,World Scientific,Singapore ; New Jersey,476,0,English,"Cs_Computer science/CsAi_AI, knowledge/",kolxoz,10,"9810215843,9789810215842",,,,,,,,,,,600,,,,,,,1,6922608,djvu,8d27e8e2c584f6233b17daaf1d19b639,,,"Cs_Computer science/CsAi_AI, knowledge/Chou S. Machine Proofs In Geometry.. Automated Production of Readable Proofs for Geometry Theorems (WS, 1994)(ISBN 9789810215842)(600dpi)(T)(O)(476s)_CsAi_.djvu",0,2000-01-01 01:00:00,2016-04-03 02:51:08,871000/8d27e8e2c584f6233b17daaf1d19b639-d.jpg,,
6945622,Mathematical methods for artificial intelligence and autonomous systems,,,,Edward R Dougherty; Charles R Giardina ,1988,,Prentice Hall,"Englewood Cliffs, N.J",463,0,English,"Cs_Computer science/CsAi_AI, knowledge/",kolxoz,10,"0135609135,9780135609132",,,,,,,,,,,600,,,,,,,1,3756253,djvu,77631cdb041bd1500d541ea24295074d,,,"Cs_Computer science/CsAi_AI, knowledge/Dougherty E.R., Giardina C.R. Mathematical methods for artificial intelligence and autonomous systems (PH, 1988)(ISBN 0135609135)(600dpi)(T)(O)(463s)_CsAi_.djvu",0,2000-01-01 01:00:00,2016-04-03 02:51:08,871000/77631cdb041bd1500d541ea24295074d-d.jpg,,
6945623,Logic and the Organization of Information,,,,Martin Frické,2012,,Springer,"New York, NY",317,0,English,"Cs_Computer science/CsAi_AI, knowledge",kolxoz,10,"9781461430872,1461430879,9781461430889,1461430887",,,,,,,10.1007/978-1-4614-3088-9,,,,0,,,,,,1,1,2313118,pdf,0a3eb24a77d16d605cb7d2bfc4b15fcf,,,"Cs_Computer science/CsAi_AI, knowledge/Fricke M. Logic and the Organization of Information (Springer, 2012)(ISBN 9781461430872)(O)(317s)_CsAi_.pdf",0,2000-01-01 01:00:00,2016-04-03 02:51:08,871000/0a3eb24a77d16d605cb7d2bfc4b15fcf-d.jpg,,
6945624,Logic and the organization of information,,,,Fricke M.,2012,,Springer-Verlag New York Inc,"New York, NY",316,0,English,"Cs_Computer science/CsAi_AI, knowledge",kolxoz,10,"9781461430872,1461430879,9781461430889,1461430887",,,,,,,10.1007/978-1-4614-3088-9,,,,0,,,,,,,1,2251848,pdf,e35b0eb4a39970ddcf587331d7df1dee,0a3eb24a77d16d605cb7d2bfc4b15fcf,,"Cs_Computer science/CsAi_AI, knowledge/Fricke M. Logic and the organization of information (Springer, 2012)(ISBN 9781461430872)(O)(316s)_CsAi_.pdf",0,2000-01-01 01:00:00,2016-04-03 02:51:08,871000/e35b0eb4a39970ddcf587331d7df1dee-d.jpg,,
6945625,"Handbook of logic in AI and logic programming, vol.3: nonmonotonic reasoning and uncertain reasoning",,,,"Gabbay D.M., Hogger C.J., Robinson J.A. (eds.) ",1994,,OUP,,550,0,English,"Cs_Computer science/CsAi_AI, knowledge/",kolxoz,10,198537476,,,,,,,,,,,600,,,,,,,1,4557978,djvu,be61c727083fb79da6ce18ee4872cb1f,,,"Cs_Computer science/CsAi_AI, knowledge/Gabbay D.M., Hogger C.J., Robinson J.A. (eds.) Handbook of logic in AI and logic programming, vol.3.. nonmonotonic reasoning and uncertain reasoning (OUP, 1994)(ISBN 0198537476)(600dpi)(T)(550s)_CsAi_.djvu",0,2000-01-01 01:00:00,2016-04-03 02:51:08,871000/be61c727083fb79da6ce18ee4872cb1f-d.jpg,,
6945626,"Handbook of logic in artificial intelligence and logic programming/ 5, Logic programming",,,,"Gabbay D.M., Hogger C.J., Robinson J.A. (eds.) ",1998,,Clarendon Press,Oxford,815,0,English,"Cs_Computer science/CsAi_AI, knowledge/",kolxoz,10,"0198537921,9780198537922",,,,,,,,,,,600,,,,,,,1,11991166,djvu,c14f4c48137d20f233f925f3a2fd45bc,,,"Cs_Computer science/CsAi_AI, knowledge/Gabbay D.M., Hogger C.J., Robinson J.A. (eds.) Handbook of logic in AI and logic programming, vol.5.. logic programming (OUP, 1998)(ISBN 0198537921)(600dpi)(T)(815s)_CsAi_.djvu",0,2000-01-01 01:00:00,2016-04-03 02:51:08,871000/c14f4c48137d20f233f925f3a2fd45bc-d.jpg,,
6945627,Algorithmic methods for artificial intelligence,,New technology modular series,,M Griffiths; Carol Palissier ,1987,,"London, Kogan Page",,144,0,English,"Cs_Computer science/CsAi_AI, knowledge/",kolxoz,10,"1850912572,9781850912576",,,,,,,,,,,600,,,,,,,1,912675,djvu,7f8bc0586d6995dc57915aff13401822,,,"Cs_Computer science/CsAi_AI, knowledge/Griffiths M., Palissier C. Algorithmic methods for artificial intelligence (Kogan Page, 1987)(ISBN 1850912572)(600dpi)(T)(144s)_CsAi_.djvu",0,2000-01-01 01:00:00,2016-04-03 02:51:08,871000/7f8bc0586d6995dc57915aff13401822-d.jpg,,
6945628,Advances in knowledge representation,,,,Carlos Ramírez Gutiérrez (ed.),2012,,Intech,Rijeka,284,0,English,"Cs_Computer science/CsAi_AI, knowledge/",kolxoz,10,"9789535105978,9535105973",,,,,,,,,,,600,,,,,,,1,4671116,djvu,758289b6e3af53c8f114df71554755c2,,,"Cs_Computer science/CsAi_AI, knowledge/Gutierrez C.R. (ed.) Advances in knowledge representation (InTech, 2012)(ISBN 9789535105978)(600dpi)(T)(O)(284s)_CsAi_.djvu",0,2000-01-01 01:00:00,2016-04-03 02:51:08,,,
6945629,Swarm intelligence,,Morgan Kaufmann series in evolutionary computation,,James F Kennedy; Russell C Eberhart; Yuhui Shi ,2001,,Morgan Kaufmann Publishers,San Francisco,541,0,English,"Cs_Computer science/CsAi_AI, knowledge/",kolxoz,10,"1558605959,9781558605954",,,,,,,,,,,0,,,,,,,1,6956975,pdf,58d4e03a6f04efd799df27b6f0de73ca,,,"Cs_Computer science/CsAi_AI, knowledge/Kennedy J., Eberhart R.C., Shi Y. Swarm intelligence (MK, 2001)(ISBN 1558605959)(O)(541s)_CsAi_.pdf",0,2000-01-01 01:00:00,2016-04-03 02:51:08,871000/58d4e03a6f04efd799df27b6f0de73ca-d.jpg,,
6945630,Logic for problem solving,,Artificial intelligence series; The Computer science library,,Robert Kowalski ,1979,,Elsevier North Holland,New York,298,0,English,"Cs_Computer science/CsAi_AI, knowledge/",kolxoz,10,"0444003657,9780444003652,0444003681,9780444003683",,,,,,,,,,,400,,,,,,,1,2679861,djvu,0e740e559970efaf00f497ff98c8da34,,,"Cs_Computer science/CsAi_AI, knowledge/Kowalski R. Logic for problem solving (NH, 1979)(ISBN 0444003657)(400dpi)(T)(O)(298s)_CsAi_.djvu",0,2000-01-01 01:00:00,2016-04-03 02:51:08,,,
6945631,Thinking as computation: a first course,,,,Hector J Levesque ,2012,,MIT Press,"Cambridge, Mass",322,0,English,"Cs_Computer science/CsAi_AI, knowledge/",kolxoz,10,"9780262016995,0262016990",,,,,,,,,,,0,,,,,,,1,1892691,pdf,a0ad2809d9d46ec4661da81d6a789e24,,,"Cs_Computer science/CsAi_AI, knowledge/Levesque H.J. Thinking as computation.. a first course (MIT, 2012)(ISBN 9780262016995)(O)(322s)_CsAi_.pdf",0,2000-01-01 01:00:00,2016-04-03 02:51:08,871000/a0ad2809d9d46ec4661da81d6a789e24-d.jpg,,
6945632,An Introduction to AI Robotics,,Intelligent robotics and autonomous agents,,Robin Murphy ,2000,,MIT Press,"Cambridge, Mass",487,0,English,"Cs_Computer science/CsAi_AI, knowledge/",kolxoz,10,"0262133830,9780262133838",,,,,,,,,,,0,,,,,,,1,5365776,pdf,0f594d22e32a6db0c795f6b8b9f0f074,,,"Cs_Computer science/CsAi_AI, knowledge/Murphy R.R. An Introduction to AI Robotics (MIT, 2000)(ISBN 0262133830)(O)(487s)_CsAi_.pdf",0,2000-01-01 01:00:00,2016-04-03 02:51:08,871000/0f594d22e32a6db0c795f6b8b9f0f074-d.jpg,,
6945633,The quest for artificial intelligence : a history of ideas and achievements,,,,Nils J Nilsson ,2009,free web version,Cambridge University Press,Cambridge ; New York,707,0,English,"Cs_Computer science/CsAi_AI, knowledge/",kolxoz,10,"9780521116398,0521116392,9780521122931,0521122937",,,,,,,,,,,0,,,,,,,1,8582411,pdf,2a207f988070257b8b7c7641e42c0471,,,"Cs_Computer science/CsAi_AI, knowledge/Nilsson N.J. The quest for artificial intelligence (free web version, CUP, 2009)(ISBN 0521122937)(O)(707s)_CsAi_.pdf",0,2000-01-01 01:00:00,2016-04-03 02:51:08,871000/2a207f988070257b8b7c7641e42c0471-d.jpg,,
6945634,Artificial intelligence: a modern approach,,Prentice Hall series in artificial intelligence,,Stuart J Russell; Peter Norvig; Ernest Davis; et al ,2010,3ed.,Prentice Hall,Upper Saddle River,1152,0,English,"Cs_Computer science/CsAi_AI, knowledge/",kolxoz,10,"9780136042594,0136042597,9780132071482,0132071487",,,,,,,,,,,0,,,,,,,1,14080351,pdf,b4052c307936d988ceaab7beeeead628,,,"Cs_Computer science/CsAi_AI, knowledge/Russell S.J., Norvig P. Artificial intelligence.. a modern approach (3ed., Pearson, 2010)(ISBN 0136042597)(O)(1152s)_CsAi_.pdf",0,2000-01-01 01:00:00,2016-04-03 02:51:08,871000/b4052c307936d988ceaab7beeeead628-d.jpg,,
6945635,Non-standard logics for automated reasoning,,,,"Smets P., Mamdani E.H., Dubois D., Prade H. (eds.) ",1988,,Academic Press,London ; San Diego,346,0,English,"Cs_Computer science/CsAi_AI, knowledge/",kolxoz,10,"0126495203,9780126495201",,,,,,,,,,,600,,,,,,,1,3031790,djvu,da4847e63daa45ceefb96f948bd73641,,,"Cs_Computer science/CsAi_AI, knowledge/Smets P., Mamdani E.H., Dubois D., Prade H. (eds.) Non-standard logics for automated reasoning (AP, 1988)(ISBN 0126495203)(600dpi)(T)(346s)_CsAi_.djvu",0,2000-01-01 01:00:00,2016-04-03 02:51:08,871000/da4847e63daa45ceefb96f948bd73641-d.jpg,,
6945636,The collected works of Larry Wos: Exploring the power of automated reasoning,,,,"Wos L., Pieper G.W. (eds.) ",2000,,World Scientific,"Singapore ; River Edge, NJ",1655,0,English,"Cs_Computer science/CsAi_AI, knowledge/",kolxoz,10,"9810249969,9789810249960,9810249985,9789810249984,9810240015,9789810240011,9810240023,9789810240028",,,,,,,,,,,300,,,,,,,0,10913734,djvu,2e4e1f2fcd2ce672380f57c60f9dbeca,,,"Cs_Computer science/CsAi_AI, knowledge/Wos L., Pieper G.W. (eds.) The collected works of Larry Wos.. Exploring the power of automated reasoning (WS, 2000)(ISBN 9810240015)(O)(1655s)_CsAi_.djvu",0,2000-01-01 01:00:00,2016-04-03 02:51:08,871000/2e4e1f2fcd2ce672380f57c60f9dbeca-d.jpg,,
15823319,Проблема центра и периферии в современной физиологии нервной деятельности,,,,П.К. Анохин,1935,,,,40,0,Russian,,,0,,,,,,,,,,,,0,,,,,,,1,1560688,pdf,b30d805827a7b2b984d5a12aeb8836d6,,,ПК Анохин - Проблема центра и периферии в современной физиологии нервной деятельности,0,2000-01-01 01:00:00,2016-04-03 02:51:08,,,
15823320,"ТЕОРИИ ЮРИДИЧЕСКИХ ФАКТОВ ГРАЖДАНСКОГО И ПРОЦЕССУАЛЬНОГО ПРАВА: ПОНЯТИЯ, КЛАССИФИКАЦИИ, ОСНОВЫ ВЗАИМОДЕЙСТВИЯ",,,,Рожкова Марина Александровна,0,,,,418,0,,,,0,,,,,,,,,,,,0,,,,,,,0,2127614,pdf,1149a56ce019a5ce6a233be5ecb81c43,,,"Теории_юридических_фактов_гражданского_и_процессуального_права_понятия,_классификации,_основы_взаимодействия._Диссертация__",0,2000-01-01 01:00:00,2016-04-03 02:51:08,,,
6945638,"The theory of parsing, translation, and compiling. Volume 1: Parsing",,"Prentice-Hall series in automatic computation.; Theory of parsing, translation, and compiling / Alfred V. Aho; Jeffrey D. Ullman, vol. 1",,Alfred V Aho; Jeffrey D Ullman ,1972,,Prentice-Hall,"Englewood Cliffs, NJ",560,0,English,Cs_Computer science/CsAl_Algorithms/,kolxoz,10,"0139145567,9780139145568",,,,,,,,,,,600,,,,,,,,3898445,djvu,dbbb06e408f3351dd993cd41c6a78179,,,"Cs_Computer science/CsAl_Algorithms/Aho A.V., Ullman J.D. The theory of parsing, translation, and compiling. Volume 1.. Parsing (PH, 1972)(ISBN 0139145567)(600dpi)(T)(560s)_CsAl_.djvu",0,2000-01-01 01:00:00,2016-04-03 02:51:08,871000/dbbb06e408f3351dd993cd41c6a78179-d.jpg,,
6945639,"The theory of parsing, translation, and compiling. Volume 2: Compiling",,"Prentice-Hall series in automatic computation.; Theory of parsing, translation, and compiling / Alfred V. Aho; Jeffrey D. Ullman, vol. 2",,Alfred V Aho; Jeffrey D Ullman ,1973,,Prentice-Hall,"Englewood Cliffs, NJ",476,0,English,Cs_Computer science/CsAl_Algorithms/,kolxoz,10,"0139145648,9780139145643",,,,,,,,,,,600,,,,,,,1,3521982,djvu,f367dc8af7d01ee10266d3884f15e335,,,"Cs_Computer science/CsAl_Algorithms/Aho A.V., Ullman J.D. The theory of parsing, translation, and compiling. Volume 2.. Compiling (PH, 1973)(ISBN 0139145648)(600dpi)(T)(476s)_CsAl_.djvu",0,2000-01-01 01:00:00,2016-04-03 02:51:08,,,
6945640,The design and analysis of parallel algorithms,,,,Selim G Akl ,1989,,Prentice Hall,"Englewood Cliffs, N.J",415,0,English,Cs_Computer science/CsAl_Algorithms/,kolxoz,10,"0132000563,9780132000567,0132000733,9780132000734",,,,,,,,,,,600,,,,,,,1,6277839,djvu,11cf01cea0170961ae35c675f02584da,,,"Cs_Computer science/CsAl_Algorithms/Akl S.G. The design and analysis of parallel algorithms (PH, 1989)(ISBN 0132000563)(600dpi)(T)(415s)_CsAl_.djvu",0,2000-01-01 01:00:00,2016-04-03 02:51:08,871000/11cf01cea0170961ae35c675f02584da-d.jpg,,
6945641,Concurrent programming: principles and practice,,,,Gregory R Andrews ,1991,,The Benjamin/Cummings,Redwood City [etc.],656,0,English,Cs_Computer science/CsAl_Algorithms/,kolxoz,10,"0805300864,9780805300864",,,,,,,,,,,600,,,,,,,1,5078683,djvu,c9af16be58c7eee5647fc45b517b13f8,,,"Cs_Computer science/CsAl_Algorithms/Andrews G.R. Concurrent programming.. principles and practice (Benjamin Cummings, 1991)(ISBN 0805300864)(600dpi)(T)(656s)_CsAl_.djvu",0,2000-01-01 01:00:00,2016-04-03 02:51:08,871000/c9af16be58c7eee5647fc45b517b13f8-d.jpg,,
6945642,"Foundations of multithreaded, parallel, and distributed programming",,,,Gregory R Andrews ,2000,,Addison-Wesley,"Reading, Mass",687,0,English,Cs_Computer science/CsAl_Algorithms/,kolxoz,10,"0201357526,9780201357523",,,,,,,,,,,600,,,,,,,1,6030746,djvu,d226748a77f895777fb1320dddc17d6d,,,"Cs_Computer science/CsAl_Algorithms/Andrews G.R. Foundations of multithreaded, parallel, and distributed programming (AW, 2000)(ISBN 0201357526)(600dpi)(T)(687s)_CsAl_.djvu",0,2000-01-01 01:00:00,2016-04-03 02:51:08,871000/d226748a77f895777fb1320dddc17d6d-d.jpg,,
6945643,Grammars for programming languages,,"Programming languages series, 4",,J  Craig Cleaveland; Robert C Uzgalis ,1977,,Elsevier,New York,164,0,English,Cs_Computer science/CsAl_Algorithms/,kolxoz,10,"0444001875,9780444001870,0444001999,9780444001993",,,,,,,,,,,600,,,,,,,1,2421940,djvu,54b1521a77a2f9055d6232bbbc46a128,,,"Cs_Computer science/CsAl_Algorithms/Cleaveland J.C., Uzgalis R.C. Grammars for programming languages (NH, 1977)(ISBN 9780444001993)(600dpi)(T)(164s)_CsAl_.djvu",0,2000-01-01 01:00:00,2016-04-03 02:51:08,,,
6945644,Computer Architecture and Implementation,,,,Harvey G Cragon ,2000,,Cambridge University Press,Cambridge ; New York,328,0,English,Cs_Computer science/CsAl_Algorithms/,kolxoz,10,"0521651689,9780521651684,0521657059,9780521657051",,,,,,,,,,,300,,,,,,,1,2925415,djvu,f74e0c24c8d900d871242c35d96f6a7a,,,"Cs_Computer science/CsAl_Algorithms/Cragon H.G. Computer Architecture and Implementation (CUP, 2000)(ISBN 9780521651684)(T)(O)(328s)_CsAl_.djvu",0,2000-01-01 01:00:00,2016-04-03 02:51:08,871000/f74e0c24c8d900d871242c35d96f6a7a-d.jpg,,
6945645,Introduction to High Performance Scientific Computing,,,,Eijkhout V. ,2011,draft,,,350,0,English,Cs_Computer science/CsAl_Algorithms/,kolxoz,10,,,,,,,,,,,,0,,,,,,,1,5150663,pdf,73914b7fb28963f685fb4e5514611e98,,,"Cs_Computer science/CsAl_Algorithms/Eijkhout V. Introduction to High Performance Scientific Computing (draft, 2011)(O)(350s)_CsAl_.pdf",0,2000-01-01 01:00:00,2016-04-03 02:51:08,871000/73914b7fb28963f685fb4e5514611e98-g.jpg,,
6945646,"Weighting for Baudot, and other problems for you and your computer",,,,F  D Federighi; Edwin D Reilly ,1978,,Avery Pub. Group,"Wayne, N.J",251,0,English,Cs_Computer science/CsAl_Algorithms/,kolxoz,10,"0895290618,:,9780895290618",,,,,,,,,,,600,,,,,,,1,2126030,djvu,af50fbaf2b123dbdf1353672f2dbf460,,,"Cs_Computer science/CsAl_Algorithms/Federighi F.D., Reilly E.D. Weighting for Baudot, and other problems for you and your computer (Avery, 1978)(ISBN 0895290618)(600dpi)(T)(251s)_CsAl_.djvu",0,2000-01-01 01:00:00,2016-04-03 02:51:08,871000/af50fbaf2b123dbdf1353672f2dbf460-d.jpg,,
6945647,Algorithms and parallel computing,,Wiley Series on Parallel and Distributed Computing,,Fayez Gebali; Wiley InterScience (Online service) ,2011,,Wiley,"Hoboken, N.J",365,0,English,Cs_Computer science/CsAl_Algorithms/,kolxoz,10,"9780470932025,0470932023,9780470932018,0470932015,1283025574,9781283025577",,,,,,,,,,,0,,,,,,,1,5038878,pdf,9475b9dc2f070ded3f700d140687adfa,,,"Cs_Computer science/CsAl_Algorithms/Gebali F. Algorithms and parallel computing (Wiley, 2011)(ISBN 9780470902103)(O)(365s)_CsAl_.pdf",0,2000-01-01 01:00:00,2016-04-03 02:51:08,871000/9475b9dc2f070ded3f700d140687adfa-d.jpg,,
6945648,Algebraic Shift Register Sequences,,,,Mark Goresky; Andrew Klapper ,2012,,Cambridge University Press,"Cambridge, UK ; New York",514,0,English,Cs_Computer science/CsAl_Algorithms/,kolxoz,10,"9781107014992,1107014999",,,,,,,,,,,0,,,,,,,1,2632400,pdf,23026c8ed550aafe5cd6390dc053f650,,,"Cs_Computer science/CsAl_Algorithms/Goresky M., Klapper A. Algebraic Shift Register Sequences (CUP, 2012)(ISBN 9781107014992)(O)(514s)_CsAl_.pdf",0,2000-01-01 01:00:00,2016-04-03 02:51:08,871000/23026c8ed550aafe5cd6390dc053f650-d.jpg,,
6945649,Problems for computer solution,,,,Fred Gruenberger; George Jaffray ,1965,,"New York, Wiley",,416,0,English,Cs_Computer science/CsAl_Algorithms/,kolxoz,10,"0471329088,9780471329084",,,,,,,,,,,600,,,,,,,1,3041038,djvu,8f84ba740e06667997b3e73e93741ba4,,,"Cs_Computer science/CsAl_Algorithms/Gruenberger F., Jaffray G. Problems for computer solution (Wiley, 1965)(ISBN 0471329088)(600dpi)(T)(O)(416s)_CsAl_.djvu",0,2000-01-01 01:00:00,2016-04-03 02:51:08,871000/8f84ba740e06667997b3e73e93741ba4-d.jpg,,
6945650,Modern compiler design,,,,"Dick Grune, Kees van Reeuwijk, Henri E. Bal, Ceriel J.H. Jacobs, Koen Langendoen",2012,2,Springer,"New York, NY",832,0,English,Cs_Computer science/CsAl_Algorithms,kolxoz,10,"9781461446996,1461446996",,,,,,,10.1007/978-1-4614-4699-6,,,,0,,,,1,,1,1,3087641,pdf,1a3458febe0a3c2332246fdb74d2e3ab,,,"Cs_Computer science/CsAl_Algorithms/Grune D., van Reeuwijk K., Bal H.E., Jacobs C.J., Langendoen K. Modern Compiler Design (Springer, 2012)(ISBN 1461446988)(O)(832s)_CsAl_.pdf",0,2000-01-01 01:00:00,2016-04-03 02:51:08,871000/1a3458febe0a3c2332246fdb74d2e3ab-d.jpg,,
6945651,Advanced algorithms,,,,Khuller S. ,1994, web draft,,,112,0,English,Cs_Computer science/CsAl_Algorithms/,kolxoz,10,,,,,,,,,,,lecture notes,600,,,,,,,1,624888,djvu,17b4f13f45ddfebe64643c7de98b1ed0,,,"Cs_Computer science/CsAl_Algorithms/Khuller S. Advanced algorithms (lecture notes, web draft, 1994)(600dpi)(T)(112s)_CsAl_.djvu",0,2000-01-01 01:00:00,2016-04-03 02:51:08,871000/17b4f13f45ddfebe64643c7de98b1ed0-g.jpg,,
6945652,Algorithm design,,,,Jon Kleinberg; EМЃva Tardos ,2005,,Pearson/Addison-Wesley,Boston,863,0,English,Cs_Computer science/CsAl_Algorithms/,kolxoz,10,"0321295358,9780321295354",,,,,,,,,,,600,,,,,,,1,11139402,djvu,ee6f41c05f9c0e7a3e1e4c61e0506c60,,,"Cs_Computer science/CsAl_Algorithms/Kleinberg J., Tardos E. Algorithm design (AW, 2005)(ISBN 0321295358)(600dpi)(T)(O)(863s)_CsAl_.djvu",0,2000-01-01 01:00:00,2016-04-03 02:51:08,871000/ee6f41c05f9c0e7a3e1e4c61e0506c60-d.jpg,,
6945653,"The art of computer programming, fascicle 1: MMIX",,,,Knuth D. ,2004,draft, AW,,140,0,English,Cs_Computer science/CsAl_Algorithms/,kolxoz,10,,,,,,,,,,,,0,,,,,,,1,1138851,pdf,43b1aa61c839919e97eb1e5f68204c6e,,,"Cs_Computer science/CsAl_Algorithms/Knuth D. The art of computer programming, fascicle 1.. MMIX (draft, AW, 2004)(140s)_CsAl_.pdf",0,2000-01-01 01:00:00,2016-04-03 02:51:08,871000/43b1aa61c839919e97eb1e5f68204c6e-g.jpg,,
6945654,The Stanford GraphBase: a platform for combinatorial computing,,,,Donald Ervin Knuth ,1994,,AW,,584,0,English,Cs_Computer science/CsAl_Algorithms/,kolxoz,10,"0201542757,9780201542752",,,,,,,,,,,600,,,,,,,1,11447825,djvu,df3a7f4a6bc3e284486ce1e626cf8eaa,,,"Cs_Computer science/CsAl_Algorithms/Knuth D.E. The Stanford GraphBase.. a platform for combinatorial computing (AW, 1994)(ISBN 0201542757)(600dpi)(T)(584s)_CsAl_.djvu",0,2000-01-01 01:00:00,2016-04-03 02:51:08,871000/df3a7f4a6bc3e284486ce1e626cf8eaa-d.jpg,,
6945655,"The art of computer programming. Volume 4A, Combinatorial algorithms, Part 1",,,,Donald Ervin Knuth ,2011,,Addison-Wesley,"Upper Saddle River, NJ",901,0,English,Cs_Computer science/CsAl_Algorithms/,kolxoz,10,"9780201038040,0201038048",,,,,,,,,,,600,,,,,,,1,10337245,djvu,3efd1ae55f1add27acf328a134d910fb,,,"Cs_Computer science/CsAl_Algorithms/Knuth D.E. The art of computer programming 4A Combinatorial algorithms, Part 1 (AW, 2011)(ISBN 0201038048)(600dpi)(T)(O)(901s)_CsAl_.djvu",0,2000-01-01 01:00:00,2016-04-03 02:51:08,871000/3efd1ae55f1add27acf328a134d910fb-d.jpg,,
6945656,"The art of computer programming. Volume 2, Seminumerical algorithms",,Seminumerical algorithms,,Donald Ervin Knuth ,1997,3ed.,Addison-Wesley,"Reading, Mass",774,0,English,Cs_Computer science/CsAl_Algorithms/,kolxoz,10,"0201896842,9780201896848",,,,,,,,,,,600,,,,,,,1,14732043,djvu,8b0ff93cf386a3b9a21fc01f4925b7ef,,,"Cs_Computer science/CsAl_Algorithms/Knuth D.E. The art of computer programming, vol.2.. seminumerical algorithms (3ed., AW, 1997)(ISBN 0201896842)(600dpi)(T)(774s)_CsAl_.djvu",0,2000-01-01 01:00:00,2016-04-03 02:51:08,871000/8b0ff93cf386a3b9a21fc01f4925b7ef-d.jpg,,
6945657,"The art of computer programming, vol.3: sorting and searching",,Addison-Wesley series in computer science and information processing,,Donald Ervin Knuth ,1998,2ed.,Addison-Wesley,"Reading, Mass. [u.a.]",791,0,English,Cs_Computer science/CsAl_Algorithms/,kolxoz,10,"0201485419,9780201485417,0201038099,9780201038095,0201038218,9780201038217",,,,,,,,,,,600,,,,,,,1,14722222,djvu,faa9b342c7c95aab85ef62dc6d3ffeb5,,,"Cs_Computer science/CsAl_Algorithms/Knuth D.E. The art of computer programming, vol.3.. sorting and searching (2ed., AW, 1998)(ISBN 0201038099)(600dpi)(T)(791s)_CsAl_.djvu",0,2000-01-01 01:00:00,2016-04-03 02:51:08,871000/faa9b342c7c95aab85ef62dc6d3ffeb5-d.jpg,,
6945658,Inductive logic programming: techniques and applications,,,,"Lavrac N., Dzeroski S. ",1994,free web version, Ellis Horwood,,311,0,English,Cs_Computer science/CsAl_Algorithms/,kolxoz,10,,,,,,,,,,,,600,,,,,,,1,1732556,djvu,c39264aa2f9d44cce2d4bc4be326dda9,,,"Cs_Computer science/CsAl_Algorithms/Lavrac N., Dzeroski S. Inductive logic programming.. techniques and applications (free web version, Ellis Horwood, 1994)(600dpi)(T)(311s)_CsAl_.djvu",0,2000-01-01 01:00:00,2016-04-03 02:51:08,871000/c39264aa2f9d44cce2d4bc4be326dda9-g.jpg,,
6945659,Algorithmic Puzzles,,,,Anany Levitin; Maria Levitin ,2011,,Oxford University Press,Oxford ; New York,280,0,English,Cs_Computer science/CsAl_Algorithms/,kolxoz,10,"9780199740444,0199740445",,,,,,,,,,,0,,,,,,,1,1218139,pdf,7b9374a97d8189a7e9dcfaabd0d2ac96,,,"Cs_Computer science/CsAl_Algorithms/Levitin A., Levitin M. Algorithmic Puzzles (OUP, 2011)(ISBN 0199740445)(O)(280s)_CsAl_.pdf",0,2000-01-01 01:00:00,2016-04-03 02:51:08,871000/7b9374a97d8189a7e9dcfaabd0d2ac96-d.jpg,,
6945660,Graded problems in computer science,,,,Andrew D McGettrick; Peter D Smith ,1983,,Addison-Wesley,"London ; Reading, Mass",321,0,English,Cs_Computer science/CsAl_Algorithms/,kolxoz,10,"0201137879,9780201137873",,,,,,,,,,,600,,,,,,,1,2017152,djvu,f39a94030c2bc40310f8307f6dfe8be3,,,"Cs_Computer science/CsAl_Algorithms/McGettrick A.D., Smith P.D. Graded problems in computer science (AW, 1983)(ISBN 0201137879)(600dpi)(T)(O)(321s)_CsAl_.djvu",0,2000-01-01 01:00:00,2016-04-03 02:51:08,871000/f39a94030c2bc40310f8307f6dfe8be3-d.jpg,,
6945661,Communicating and mobile systems: the pi-calculus,,,,Robin Milner ,1999,5. print,Cambridge Univ. Press,Cambridge [u.a.],175,0,English,Cs_Computer science/CsAl_Algorithms/,kolxoz,10,"0521643201,9780521643207,0521658691,9780521658690",,,,,,,,,,,600,,,,,,,1,1827195,djvu,bd8ecb71fe2b81241e5b9ad75c6d83e3,,,"Cs_Computer science/CsAl_Algorithms/Milner R. Communicating and mobile systems.. the pi-calculus (CUP, 1999)(ISBN 9780521643207)(600dpi)(T)(175s)_CsAl_.djvu",0,2000-01-01 01:00:00,2016-04-03 02:51:08,871000/bd8ecb71fe2b81241e5b9ad75c6d83e3-d.jpg,,
6945662,Parallel programming in C with MPI and Open MP,,,,Michael J Quinn ,2003,International ed,McGraw-Hill,Boston [etc.],552,0,English,Cs_Computer science/CsAl_Algorithms/,kolxoz,10,"0071232656,9780071232654,0072822562,9780072822564",,,,,,,,,,,300,,,,,,,1,8717233,djvu,fd02b45fd0c4fd9d11d1124c83a0b9ab,,,"Cs_Computer science/CsAl_Algorithms/Quinn M.J. Parallel programming in C with MPI and Open MP (MGH, 2003)(ISBN 0072822562)(300dpi)(T)(552s)_CsAl_.djvu",0,2000-01-01 01:00:00,2016-04-03 02:51:08,871000/fd02b45fd0c4fd9d11d1124c83a0b9ab-d.jpg,,
6945663,"Handbook of parallel computing. Models, algorithms and applications",,Chapman &  Hall/CRC computer and information science series,,Sanguthevar Rajasekaran; J  H Reif  (eds.),2008,,Chapman &  Hall/CRC,Boca Raton,1173,0,English,Cs_Computer science/CsAl_Algorithms/,kolxoz,10,"9781584886235,1584886234",,,,,,,,,,,0,,,,,,,1,10410658,pdf,af042d3ef355798f6452f4f14fe43c1f,,,"Cs_Computer science/CsAl_Algorithms/Rajasekaran S., Reif J. (eds.) Handbook of parallel computing. Models, algorithms and applications (Taylor, 2008)(ISBN 1584886234)(O)(1173s)_CsAl_.pdf",0,2000-01-01 01:00:00,2016-04-03 02:51:08,871000/af042d3ef355798f6452f4f14fe43c1f-d.jpg,,
6945664,The craft of programming,,Prentice-Hall International series in computer science,,John C Reynolds ,1981,free web version,Prentice/Hall International,"Englewood Cliffs, N.J",449,0,English,Cs_Computer science/CsAl_Algorithms/,kolxoz,10,"0131888625,9780131888623",,,,,,,,,,,600,,,,,,,1,3503489,djvu,20ac39e5b1c00ed29c83c657d2b7c685,,,"Cs_Computer science/CsAl_Algorithms/Reynolds J.C. The craft of programming (free web version, PH, 1981)(ISBN 0131888625)(600dpi)(T)(449s)_CsAl_.djvu",0,2000-01-01 01:00:00,2016-04-03 02:51:08,871000/20ac39e5b1c00ed29c83c657d2b7c685-d.jpg,,
6945665,An algebraic approach to compiler design,,,,Sampaio A. ,1993,, Oxford,,167,0,English,Cs_Computer science/CsAl_Algorithms/,kolxoz,10,,,,,,,,,,,phd thesis  report PRG-110,600,,,,,,,1,3728824,djvu,c9b6e99a54f7e5537789d0939336bc28,,,"Cs_Computer science/CsAl_Algorithms/Sampaio A. An algebraic approach to compiler design (phd thesis, report PRG-110, Oxford, 1993)(600dpi)(T)(167s)_CsAl_.djvu",0,2000-01-01 01:00:00,2016-04-03 02:51:08,871000/c9b6e99a54f7e5537789d0939336bc28-g.jpg,,
6945666,Programming challenges: The programming contest training manual,,Texts in computer science,,Steven S Skiena; Miguel A Revilla ,2003,,Springer,New York,379,0,English,Cs_Computer science/CsAl_Algorithms/,kolxoz,10,"0387001638,9780387001630",,,,,,,,,,,0,,,,,,,1,1585303,pdf,933a1781f5dca8e7f7d982edd842c4af,,,"Cs_Computer science/CsAl_Algorithms/Skiena S.S., Revilla M. Programming challenges.. The programming contest training manual (Springer, 2003)(ISBN 0387001638)(O)(379s)_CsAl_.pdf",0,2000-01-01 01:00:00,2016-04-03 02:51:08,871000/933a1781f5dca8e7f7d982edd842c4af-d.jpg,,
6945667,An Introduction to Logic Programming Through Prolog,,Prentice-Hall international series in computer science,,Spivey J.M. ,2008, free web version (1996),Prentice Hall,London ; New York,259,0,English,Cs_Computer science/CsAl_Algorithms/,kolxoz,10,"0135360471,9780135360477",,,,,,,,,,,0,,,,,,,1,1214161,pdf,84d5fa830de3a44aa228b1147424d687,,,"Cs_Computer science/CsAl_Algorithms/Spivey J.M. An Introduction to Logic Programming Through Prolog (PH, 1996, free web version, 2008)(ISBN 9780135360477)(259s)_CsAl_.pdf",0,2000-01-01 01:00:00,2016-04-03 02:51:08,,,
6945668,Problems for computer solutions using BASIC,,Winthrop computer systems series,,Henry M Walker ,1980,,Winthrop Publishers,"Cambridge, Mass",200,0,English,Cs_Computer science/CsAl_Algorithms/,kolxoz,10,"0876267177,9780876267172",,,,,,,,,,,600,,,,,,,1,1847222,djvu,a6e7d8287b68f2e7ce223747a97a6c83,,,"Cs_Computer science/CsAl_Algorithms/Walker H.M. Problems for computer solutions using BASIC (Winthrop Publishers, 1980)(ISBN 0876267177)(600dpi)(T)(O)(200s)_CsAl_.djvu",0,2000-01-01 01:00:00,2016-04-03 02:51:08,871000/a6e7d8287b68f2e7ce223747a97a6c83-d.jpg,,
6945669,Etudes for programmers,,,,Charles Wetherell,1978,,Prentice-Hall,"Englewood Cliffs, N.J",209,0,English,Cs_Computer science/CsAl_Algorithms,kolxoz,10,"0132918072,9780132918077",,,,,,,,,,,600,,,,,,,1,2151537,djvu,81dab4ec23ff55e481094bfccf6b6e1b,,,"Cs_Computer science/CsAl_Algorithms/Wetherell C. Etudes for programmers (PH, 1978)(ISBN 0132918072)(600dpi)(T)(O)(209s)_CsAl_.djvu",0,2000-01-01 01:00:00,2016-04-03 02:51:08,871000/81dab4ec23ff55e481094bfccf6b6e1b-d.jpg,,
6945670,"Algorithms and data structures, Oberon version",,,,Wirth N. ,2012,free web version,,,211,0,English,Cs_Computer science/CsAl_Algorithms/,kolxoz,10,,,,,,,,,,,,0,,,,,,,1,2080093,pdf,b00eaba2caf84a40f597c4df9ff7f0b1,,,"Cs_Computer science/CsAl_Algorithms/Wirth N. Algorithms and data structures, Oberon version (free web version, 2012)(211s)_CsAl_.pdf",0,2000-01-01 01:00:00,2016-04-03 02:51:08,871000/b00eaba2caf84a40f597c4df9ff7f0b1-g.jpg,,
6945671,Устойчивость супружеских пар и другие комбинаторные задачи. Введение в математический анализ алгоритмов,,,,Кнут Д.(Knuth D.E.) ,2011,драфт, МЦНМО,,78,0,Russian,Cs_Computer science/CsAl_Algorithms/,kolxoz,10,,,,,,,,,,,,600,,,,,,,1,821899,djvu,f097c5c610db2c751ecd0824a212eb5b,,,"Cs_Computer science/CsAl_Algorithms/Knut D. (_Knuth D.E._) Ustojchivost# supruzheskix par i drugie kombinatornye zadachi. Vvedenie v matematicheskij analiz algoritmov (draft, MCNMO, 2011)(ru)(600dpi)(T)(78s)_CsAl_.djvu",0,2000-01-01 01:00:00,2016-04-03 02:51:08,871000/f097c5c610db2c751ecd0824a212eb5b-g.jpg,,
6945672,Информационная поддержка жизненного цикла изделий машиностроения,,,,"Ковшов А.Н., и др. ",2007,,Академия,,305,0,Russian,Cs_Computer science/CsAl_Algorithms/,kolxoz,10,9785769530036,,,,,,,,,,,300,,,,,,,1,6162593,djvu,269bf0f5d87edf5835a5ef64f339eda1,,,"Cs_Computer science/CsAl_Algorithms/Kovshov A.N., i dr. Informacionnaya podderzhka zhiznennogo cikla izdelij mashinostroeniya (Akademiya, 2007)(ru)(ISBN 9785769530036)(T)(O)(305s)_CsAl_.djvu",0,2000-01-01 01:00:00,2016-04-03 02:51:08,871000/269bf0f5d87edf5835a5ef64f339eda1-g.jpg,,
6945673,Алгоритмы. Просто как дважды два,,,,"Красиков И.В., Красикова И.Е. ",2007,,Эксмо,,247,0,Russian,Cs_Computer science/CsAl_Algorithms/,kolxoz,10,9785699210473,,,,,,,,,,,300,,,,,,,1,1602307,djvu,92dfb4e0ae30eb09a49a29b962de6cf1,,,"Cs_Computer science/CsAl_Algorithms/Krasikov I.V., Krasikova I.E. Algoritmy. Prosto kak dvazhdy dva (E#ksmo, 2007)(ru)(ISBN 9785699210473)(T)(247s)_CsAl_.djvu",0,2000-01-01 01:00:00,2016-04-03 02:51:08,871000/92dfb4e0ae30eb09a49a29b962de6cf1-g.jpg,,
6945674,Программирование для математиков,,,,"Кушниренко А.Г., Лебедев Г.В. ",1988,,Наука,,386,0,Russian,Cs_Computer science/CsAl_Algorithms/,kolxoz,10,5020142352,,,,,,,,,,,600,,,,,,,1,5998273,djvu,9b871e0cf67a43fc56d4b7ba5a60d6a3,,,"Cs_Computer science/CsAl_Algorithms/Kushnirenko A.G., Lebedev G.V. Programmirovanie dlja matematikov (ru)(Nauka, 1988)(ISBN 5020142352)(600dpi)(T)(386s)_CsAl_.djvu",0,2000-01-01 01:00:00,2016-04-03 02:51:08,,,
6945675,Языки программирования и методы трансляции,,,,"Опалева Э.А., Самойленко В.П. ",2005,,БХВ,,471,0,Russian,Cs_Computer science/CsAl_Algorithms/,kolxoz,10,5941573278,,,,,,,,,,,600,,,,,,,1,3318024,djvu,8ca87f6e57712226f0bdb431d739e1bc,,,"Cs_Computer science/CsAl_Algorithms/Opaleva E#.A., Samojlenko V.P. Jazyki programmirovanija i metody transljacii (ru)(BXV, 2005)(ISBN 5941573278)(600dpi)(T)(O)(471s)_CsAl_.djvu",0,2000-01-01 01:00:00,2016-04-03 02:51:08,871000/8ca87f6e57712226f0bdb431d739e1bc-g.jpg,,
6945676,Взлом программного обеспечения: анализ и использование кода,,,,"Хогланд Г., Мак-Гроу Г.(Hoglund G., McGraw G.) ",2005,,Вильямс,,398,0,Russian,Cs_Computer science/CsAl_Algorithms/,kolxoz,10,5845907853,,,,,,,,,,,600,,,,,,,1,7321892,djvu,a315ef5a75d8b0366d1f9ce65bc68ac9,,,"Cs_Computer science/CsAl_Algorithms/Xogland G., Mak-Grou G. (_Hoglund G., McGraw G._) Vzlom programmnogo obespecheniya.. analiz i ispol#zovanie koda (Vil#yams, 2005)(ISBN 5845907853)(ru)(600dpi)(T)(O)(398s)_CsAl_.djvu",0,2000-01-01 01:00:00,2016-04-03 02:51:08,871000/a315ef5a75d8b0366d1f9ce65bc68ac9-g.jpg,,
6945677,Future visions on biomedicine and bioinformatics : a liber amicorum in memory of Swamy Laxminarayan,,"Communications in medical and care compunetics, v. 1-2",,"Bos L., et al. (eds.) ",2011,,Springer,Heidelberg ; New York,112,0,English,Cs_Computer science/CsBi_Bioinformatics/,kolxoz,10,"9783642150500,3642150500,9783642195532,3642195539",,,,,,,10.1007/978-3-642-19554-9,,,,0,,,,,,,1,769966,pdf,4d011bc1c6646aacca6329b62ce839c9,,,"Cs_Computer science/CsBi_Bioinformatics/Bos L., et al. (eds.) Future visions on biomedicine and bioinformatics 2 (Springer, 2011)(ISBN 3642195539)(O)(112s)_CsBi_.pdf",0,2000-01-01 01:00:00,2016-04-03 02:51:08,871000/4d011bc1c6646aacca6329b62ce839c9-d.jpg,,
6945678,Computational biology of transcription factor binding,,"Methods in molecular biology (Clifton, N.J.), v. 674.; Springer protocols",,Ladunga I. (ed.) ,2010,,Humana Press,"New York, NY",452,0,English,Cs_Computer science/CsBi_Bioinformatics/,kolxoz,10,"9781607618539,1607618532,9781607618546,1607618540",,,,,,,10.1007/978-1-60761-854-6,,,,0,,,,,,,1,6604841,pdf,3aeddfa2586769b1525c2f889b08265d,,,"Cs_Computer science/CsBi_Bioinformatics/Ladunga I. (ed.) Computational biology of transcription factor binding (Humana, 2010)(ISBN 1607618532)(O)(452s)_CsBi_.pdf",0,2000-01-01 01:00:00,2016-04-03 02:51:08,871000/3aeddfa2586769b1525c2f889b08265d-d.jpg,,
6945679,Optimization and Data Analysis in Biomedical Informatics,,"Fields Institute communications, v.63",,P  M Pardalos; Thomas F Coleman; Petros Xanthopoulos  (eds.),2012,,Springer,"New York, NY",200,0,English,Cs_Computer science/CsBi_Bioinformatics/,kolxoz,10,"9781461441335,1461441331,1461441323,9781461441328",,,,,,,10.1007/978-1-4614-4133-5,,,,0,,,,,,,1,3243139,pdf,7bb6ae0e585c7911294c7e25af40e594,,,"Cs_Computer science/CsBi_Bioinformatics/Pardalos P.M., et al. (eds.) Optimization and Data Analysis in Biomedical Informatics (Springer, 2012)(ISBN 9781461441328)(O)(200s)_CsBi_.pdf",0,2000-01-01 01:00:00,2016-04-03 02:51:08,,,
6945680,Some tapas of computer algebra,,"Algorithms and computation in mathematics, 4",,"Cohen A.M., Cuypers H., Sterk H. (eds.) ",1999,,Springer,Berlin,367,0,English,Cs_Computer science/CsCa_Computer algebra/,kolxoz,10,"3540634800,9783540634805",,,,,,,,,,,600,,,,,,,1,5832486,djvu,7432133c0ac84780a8264b5718e8bb0c,,,"Cs_Computer science/CsCa_Computer algebra/Cohen A.M., Cuypers H., Sterk H. (eds.) Some tapas of computer algebra (Springer, 1999)(ISBN 3540634800)(600dpi)(T)(367s)_CsCa_.djvu",0,2000-01-01 01:00:00,2016-04-03 02:51:08,871000/7432133c0ac84780a8264b5718e8bb0c-d.jpg,,
6945681,Recent Advances in Algorithmic Differentiation,,"Lecture notes in computational science and engineering, 87",,"Forth S., et al. (eds.) ",2012,,Springer,Berlin ; Heidelberg [u.a.],356,0,English,Cs_Computer science/CsCa_Computer algebra/,kolxoz,10,"9783642300226,3642300227",,,,,,,10.1007/978-3-642-30023-3,,,,0,,,,,,,1,5384639,pdf,c27d847c466c743f10002fd6554d0533,,,"Cs_Computer science/CsCa_Computer algebra/Forth S., et al. (eds.) Recent Advances in Algorithmic Differentiation (Springer, 2012)(ISBN 9783642300226)(O)(356s)_CsCa_.pdf",0,2000-01-01 01:00:00,2016-04-03 02:51:08,871000/c27d847c466c743f10002fd6554d0533-d.jpg,,
6945682,"Computer algebra handbook : foundations, applications, systems",,,,Johannes Grabmeier; Erich Kaltofen; Volker Weispfenning  (eds.),2003,,Springer,New York,656,0,English,Cs_Computer science/CsCa_Computer algebra/,kolxoz,10,"3540654666,9783540654667",,,,,,,,,,,600,,,,,,,1,6079666,djvu,9fc479d9595350119e02ea26d1c76cab,,,"Cs_Computer science/CsCa_Computer algebra/Grabmeier J., et al. (eds.) Computer algebra handbook (Springer, 2003)(ISBN 3540654666)(600dpi)(T)(656s)_CsCa_.djvu",0,2000-01-01 01:00:00,2016-04-03 02:51:08,871000/9fc479d9595350119e02ea26d1c76cab-d.jpg,,
6945683,Polynomial algorithms in computer algebra,,Texts and monographs in symbolic computation,,Franz Winkler ,1996,,Springer,Wien ; New York,276,0,English,Cs_Computer science/CsCa_Computer algebra/,kolxoz,10,"3211827595,9783211827598",,,,,,,,,,,600,,,,,,,,2127322,djvu,e74a652b47548479c77542667b984040,,,"Cs_Computer science/CsCa_Computer algebra/Winkler F. Polynomial algorithms in computer algebra (Springer, 1996)(ISBN 3211827595)(600dpi)(T)(276s)_CsCa_.djvu",0,2000-01-01 01:00:00,2016-04-03 02:51:08,871000/e74a652b47548479c77542667b984040-d.jpg,,
6945684,Основы компьютерной алгебры с приложениями,,,,Акритас А.Г. ,1994,,Мир,,530,0,Russian,Cs_Computer science/CsCa_Computer algebra/,kolxoz,10,,,,,,,,,,,,600,,,,,,,1,2966969,djvu,ec0c3d3eea65bb744c8c249c4816db5c,,,"Cs_Computer science/CsCa_Computer algebra/Akritas A.G. Osnovy komp#juternoj algebry s prilozhenijami (Mir, 1994)(ru)(600dpi)(T)(530s)_CsCa_.djvu",0,2000-01-01 01:00:00,2016-04-03 02:51:08,871000/ec0c3d3eea65bb744c8c249c4816db5c-g.jpg,,
6945685,Innovations in 3D geo information systems,,Lecture notes in geoinformation and cartography,,"Abdul-Rahman A., et al. (eds.) ",2006,,Springer,Berlin ; Heidelberg New York,752,0,English,Cs_Computer science/CsCg_Computational geometry/,kolxoz,10,"9783540369974,354036997X",,,,,,,,,,,301,,,,,,,1,13456813,djvu,a130787b24b21f2e1912367f30521515,,,"Cs_Computer science/CsCg_Computational geometry/Abdul-Rahman A., et al. (eds.) Innovations in 3D geo information systems (LNGC, Springer, 2006)(ISBN 354036997X)(301dpi)(T)(O)(752s)_CsCg_.djvu",0,2000-01-01 01:00:00,2016-04-03 02:51:08,871000/a130787b24b21f2e1912367f30521515-d.jpg,,
6945686,"Guide to computational geometry processing: foundations, algorithms, and methods",,,,"Jakob Andreas Bærentzen, Jens Gravesen, François Anton, Henrik Aanæs",2012,,Springer,London ; New York,330,0,English,Cs_Computer science/CsCg_Computational geometry,kolxoz,10,"1447140753, 978-1-4471-4074-0, 978-1-4471-4075-7",,,,,,,10.1007/978-1-4471-4075-7,,,,0,,,,1,0,1,1,14022083,pdf,7b85df7f193f4335f246ae0b1ccf7d99,,,"Cs_Computer science/CsCg_Computational geometry/Baerentzen J.A., Gravesen J., Anton F., Aanaes H. Guide to Computational Geometry Processing (Springer, 2012)(ISBN 9781447140740)(O)(330s)_CsCg_.pdf",0,2000-01-01 01:00:00,2016-04-03 02:51:08,871000/7b85df7f193f4335f246ae0b1ccf7d99-d.png,,
6945687,Fast algorithms for 3D-graphics,,,,Georg Glaeser ,1994,,Springer-Verlag,New York,320,0,English,Cs_Computer science/CsCg_Computational geometry/,kolxoz,10,"0387942882,9780387942889",,,,,,,,,,,600,,,,,,,1,3954616,djvu,14a34262e3d5ba22b83839b9720750c7,,,"Cs_Computer science/CsCg_Computational geometry/Glaeser G. Fast algorithms for 3D-graphics (Springer, 1994)(ISBN 0387942882)(600dpi)(T)(320s)_CsCg_.djvu",0,2000-01-01 01:00:00,2016-04-03 02:51:08,871000/14a34262e3d5ba22b83839b9720750c7-d.jpg,,
6945688,Fast algorithms for 3D-graphics (program code),,,,Georg Glaeser ,1994,,Springer-Verlag,New York,,0,English,Cs_Computer science/CsCg_Computational geometry/,kolxoz,10,"0387942882,9780387942889",,,,,,,,,,,0,,,,,,,,274878,rar,cbe9d4c6ef4de5d17dc34f962eaab94a,,,"Cs_Computer science/CsCg_Computational geometry/Glaeser G. Fast algorithms for 3D-graphics (Springer, 1994)(ISBN 0387942882)(program code).rar",0,2000-01-01 01:00:00,2016-04-03 02:51:08,871000/cbe9d4c6ef4de5d17dc34f962eaab94a-d.jpg,,
6945689,New Developments in the Visualization and Processing of Tensor Fields,,Mathematics and visualization,,"Laidlaw D.H., Vilanova A. (eds.) ",2012,,Springer,Berlin ; New York,406,0,English,Cs_Computer science/CsCg_Computational geometry/,kolxoz,10,"9783642273438,3642273432",,,,,,,10.1007/978-3-642-27343-8,,,,0,,,,,,,1,11497597,pdf,d1fc29b385e46696a30d0ad655d61b6f,,,"Cs_Computer science/CsCg_Computational geometry/Laidlaw D.H., Vilanova A. (eds.) New Developments in the Visualization and Processing of Tensor Fields (Springer, 2012)(ISBN 9783642273421)(O)(406s)_CsCg_.pdf",0,2000-01-01 01:00:00,2016-04-03 02:51:08,871000/d1fc29b385e46696a30d0ad655d61b6f-d.jpg,,
6945690,Advanced methods in computer graphics : with examples in OpenGL,,,,Mukundan R. ,2012,,Springer,London ; New York,319,0,English,Cs_Computer science/CsCg_Computational geometry/,kolxoz,10,"9781447123408,1447123409",,,,,,,10.1007/978-1-4471-2340-8,,,,0,,,,,,,1,3887730,pdf,b09078ff7e2f215fce60a8e68284cf94,,,"Cs_Computer science/CsCg_Computational geometry/Mukundan R. Advanced Methods in Computer Graphics (Springer, 2012)(ISBN 9781447123392)(O)(319s)_CsCg_.pdf",0,2000-01-01 01:00:00,2016-04-03 02:51:08,871000/b09078ff7e2f215fce60a8e68284cf94-d.jpg,,
6945691,"Robot manipulators : mathematics, programming, and control : the computer control of robot manipulators",,MIT Press series in artificial intelligence,,Richard P Paul ,1981,,MIT Press,"Cambridge, Mass",291,0,English,Cs_Computer science/CsCg_Computational geometry/,kolxoz,10,"026216082X,9780262160827",,,,,,,,,,,600,,,,,,,1,4420323,djvu,da0e7594721525840888d9d2f5807e87,,,"Cs_Computer science/CsCg_Computational geometry/Paul R.P. Robot manipulators.. mathematics, programming, and control (MIT, 1981)(ISBN 026216082X)(600dpi)(T)(291s)_CsCg_.djvu",0,2000-01-01 01:00:00,2016-04-03 02:51:08,871000/da0e7594721525840888d9d2f5807e87-d.jpg,,
6945692,Generative modeling for computer graphics and CAD : symbolic shape design using interval analysis,,,,John M Snyder ,1992,,Academic Press,Boston,343,0,English,Cs_Computer science/CsCg_Computational geometry/,kolxoz,10,"0126540403,9780126540406",,,,,,,,,,,600,,,,,,,1,3862112,djvu,26f061252228268a7de8e052f3a8594a,,,"Cs_Computer science/CsCg_Computational geometry/Snyder J.M. Generative models for computer graphics and CAD (AP, 1992)(ISBN 0126540403)(600dpi)(T)(343s)_CsCg_.djvu",0,2000-01-01 01:00:00,2016-04-03 02:51:08,,,
6945693,Graphics and Visualization: Principles and Algorithms,,,,"Theoharis T., Papaioannou G., Platis N., Patrikalakis N.M. ",2012,,A.K. Peters,"Wellesley, Mass",777,0,English,Cs_Computer science/CsCg_Computational geometry/,kolxoz,10,"9781568812748,1568812744",,,,,,,,,,,0,,,,,,,1,10358960,pdf,215caf3e4d5d138f99a3fa6048af7e57,,,"Cs_Computer science/CsCg_Computational geometry/Theoharis T., Papaioannou G., Platis N., Patrikalakis N.M. Graphics and Visualization.. Principles and Algorithms(Taylor and Francis, 2012)(ISBN 1568812744)(O)(777s)_CsCg_.pdf",0,2000-01-01 01:00:00,2016-04-03 02:51:08,871000/215caf3e4d5d138f99a3fa6048af7e57-d.jpg,,
6945694,Matrix Transforms for Computer Games and Animation,,,,John Vince ,2012,,Springer,London ; New York,170,0,English,Cs_Computer science/CsCg_Computational geometry/,kolxoz,10,"9781447143215,1447143213",,,,,,,10.1007/978-1-4471-4321-5,,,,0,,,,,,,1,1571995,pdf,1e24ad9e8532b056059f5b2bb2e1a5b7,,,"Cs_Computer science/CsCg_Computational geometry/Vince J. Matrix Transforms for Computer Games and Animation (Springer, 2012)(ISBN 9781447143208)(O)(170s)_CsCg_.pdf",0,2000-01-01 01:00:00,2016-04-03 02:51:08,871000/1e24ad9e8532b056059f5b2bb2e1a5b7-d.jpg,,
6945695,Основы компьютерной графики,,,,Демин А.Ю. ,2011,,,Томск,191,0,Russian,Cs_Computer science/CsCg_Computational geometry/,kolxoz,10,,,,,,,,,,,,0,,,,,,,1,2839866,pdf,4841b599b9af92feebb6a1ed84731877,,,"Cs_Computer science/CsCg_Computational geometry/Demin A.Yu. Osnovy komp#yuternoj grafiki (Tomsk, 2011)(ru)(191s)_CsCg_.pdf",0,2000-01-01 01:00:00,2016-04-03 02:51:08,871000/4841b599b9af92feebb6a1ed84731877-g.jpg,,
6945696,Design and verification of a cryptographic security architecture,,,,Peter Gutmann ,2004,,Springer,New York,339,0,English,Cs_Computer science/CsCr_Cryptography/,kolxoz,10,"0387953876,9780387953878",,,,,,,,,,,0,,,,,,,1,1554249,pdf,dea6008dbea8cf2a7296ac1dae66c337,,,"Cs_Computer science/CsCr_Cryptography/Gutmann P. Cryptographic security architecture (Springer, 2004)(ISBN 0387953876)(O)(339s)_CsCr_.pdf",0,2000-01-01 01:00:00,2016-04-03 02:51:08,871000/dea6008dbea8cf2a7296ac1dae66c337-d.jpg,,
6945697,Black-Box Models of Computation in Cryptology,,,,Tibor Jager ,2012,,Springer Spektrum,Wiesbaden,91,0,English,Cs_Computer science/CsCr_Cryptography/,kolxoz,10,"9783834819901,3834819905",,,,,,,10.1007/978-3-8348-1990-1,,,,0,,,,,,,1,523156,pdf,3cb973441ea65e7619fe14cc5564986a,,,"Cs_Computer science/CsCr_Cryptography/Jager T. Black-Box Models of Computation in Cryptology (Vieweg, 2012)(ISBN 9783834819895)(O)(91s)_CsCr_.pdf",0,2000-01-01 01:00:00,2016-04-03 02:51:08,871000/3cb973441ea65e7619fe14cc5564986a-d.jpg,,
6945698,Fault Analysis in Cryptography,,Information security and cryptography,,"Joye M., Tunstall M. (eds.) ",2012,,Springer,Berlin ; New York,352,0,English,Cs_Computer science/CsCr_Cryptography/,kolxoz,10,"9783642296567,3642296564,3642296556,9783642296550",,,,,,,10.1007/978-3-642-29656-7,,,,0,,,,,,,1,4138795,pdf,85580561d373e250f2a42334ef56db56,,,"Cs_Computer science/CsCr_Cryptography/Joye M., Tunstall M. (eds.) Fault Analysis in Cryptography (Springer, 2012)(ISBN 9783642296550)(O)(352s)_CsCr_.pdf",0,2000-01-01 01:00:00,2016-04-03 02:51:08,871000/85580561d373e250f2a42334ef56db56-d.jpg,,
6945699,Encyclopedia of cryptography and security,,Springer reference,,Henk C  A  van Tilborg; Sushil Jajodia  (eds.),2011,2ed.,Springer,New York,1457,0,English,Cs_Computer science/CsCr_Cryptography/,kolxoz,10,"9781441959065,1441959068",,,,,,,,,,,0,,,,,,,1,20470436,pdf,ee544040710947941193407745ab2c98,,,"Cs_Computer science/CsCr_Cryptography/Van Tilborg H., Jajodia S. (eds.) Encyclopedia of cryptography and security (2ed., Springer, 2011)(ISBN 9781441959058)(O)(1457s)_CsCr_.pdf",0,2000-01-01 01:00:00,2016-04-03 02:51:08,871000/ee544040710947941193407745ab2c98-d.jpg,,
6945700,Cryptography in C and C++,,,,Michael Welschenbach ,2005,2ed., Apress,,504,0,English,Cs_Computer science/CsCr_Cryptography/,kolxoz,10,"1590595025,9781590595022,9781430200260,143020026X",,,,,,,,,,,0,,,,,,,1,1389071,pdf,93ffa64679361024105e6ca6189c3ccf,,,"Cs_Computer science/CsCr_Cryptography/Welschenbach M. Cryptography in C and C++ (2ed., Apress, 2005)(ISBN 1590595025)(O)(504s)_CsCr_.pdf",0,2000-01-01 01:00:00,2016-04-03 02:51:08,871000/93ffa64679361024105e6ca6189c3ccf-d.jpg,,
6945701,Теория и практика защиты программ,,,,Казарин О.В. ,2004,,,Москва,388,0,Russian,Cs_Computer science/CsCr_Cryptography/,kolxoz,10,,,,,,,,,,,,0,,,,,,,1,1902677,pdf,f4de612c341b501d6e3df12ebb5962c7,,,"Cs_Computer science/CsCr_Cryptography/Kazarin O.V. Teoriya i praktika zashchity programm (Moskva, 2004)(ru)(O)(388s)_CsCr_.pdf",0,2000-01-01 01:00:00,2016-04-03 02:51:08,871000/f4de612c341b501d6e3df12ebb5962c7-g.jpg,,
6945702,Шифры и революционеры России ,,,,Синельников А.В. ,2000,,,,,0,Russian,Cs_Computer science/CsCr_Cryptography/,kolxoz,10,,,,,,,,,,,,0,,,,,,,,531502,chm,9477b5fcf2deec963186fd3b42889a26,,,Cs_Computer science/CsCr_Cryptography/Sinel#nikov A.V. Shifry i revolyucionery Rossii (2000)(ru)_CsCr_.chm,0,2000-01-01 01:00:00,2016-04-03 02:51:08,,,
6945703,A guide to the SQL standard : a user's guide to the standard relational language SQL,,,,Date C.J. ,1989,2ed.,Addison-Wesley Pub. Co,"Reading, Mass",243,0,English,Cs_Computer science/CsDb_Databases/,kolxoz,10,"0201502097,9780201502091",,,,,,,,,,,600,,,,,,,1,1521113,djvu,037861f5afdb26c682a83dc3e83178e2,,,"Cs_Computer science/CsDb_Databases/Date C.J. A guide to the SQL standard (2ed., AW, 1989)(ISBN 0201502097)(600dpi)(T)(243s)_CsDb_.djvu",0,2000-01-01 01:00:00,2016-04-03 02:51:08,871000/037861f5afdb26c682a83dc3e83178e2-d.jpg,,
6945704,Fundamentals of Database Systems,,,,Ramez Elmasri; Sham Navathe ,2010,6ed.,Addison-Wesley,Boston,1201,0,English,Cs_Computer science/CsDb_Databases/,kolxoz,10,"9780136086208,0136086209",,,,,,,,,,,0,,,,,,,1,5414381,pdf,0cb9f56b05ac8624a7bb97d4ca1299be,,,"Cs_Computer science/CsDb_Databases/Elmasri R., Navathe S. Fundamentals of Database Systems (6ed., AW, 2010)(ISBN 0136086209)(O)(1201s)_CsDb_.pdf",0,2000-01-01 01:00:00,2016-04-03 02:51:08,871000/0cb9f56b05ac8624a7bb97d4ca1299be-d.jpg,,
6945705,Database Management Systems,,,,"Ramakrishnan R., Gehrke J. ",2000,2ed., MGH,,931,0,English,Cs_Computer science/CsDb_Databases/,kolxoz,10,72465352,,,,,,,,,,,0,,,,,,,1,3239349,pdf,008cb85cf6f84f4e46058c606431588a,,,"Cs_Computer science/CsDb_Databases/Ramakrishnan R., Gehrke J. Database Management Systems (2ed., MGH, 2000)(ISBN 0072465352)(O)(931s)_CsDb_.pdf",0,2000-01-01 01:00:00,2016-04-03 02:51:08,871000/008cb85cf6f84f4e46058c606431588a-g.jpg,,
6945706,Database modeling and design: logical design,,Morgan Kaufmann series in data management systems,,Toby J Teorey; Sam Lightstone; Tom Nadeau ,2005,4ed.,Morgan Kaufmann Publishers,Amsterdam [etc.],289,0,English,Cs_Computer science/CsDb_Databases/,kolxoz,10,"9780126853520,0126853525",,,,,,,,,,,0,,,,,,,1,6342605,pdf,271991d54f642885027a7711396bb39b,,,"Cs_Computer science/CsDb_Databases/Teorey T.J., Lightstone S.S., Nadeau T. Database modeling and design.. logical design (4ed., MK, 2005)(ISBN 0126853525)(O)(289s)_CsDb_.pdf",0,2000-01-01 01:00:00,2016-04-03 02:51:08,871000/271991d54f642885027a7711396bb39b-d.jpg,,
6945707,Database modeling and design: logical design,,Morgan Kaufmann series in data management systems,,"Teorey T.J., Lightstone S.S., Nadeau T., Jagadish H.V. ",2011,5ed.,Morgan Kaufmann,"Burlington, MA",335,0,English,Cs_Computer science/CsDb_Databases/,kolxoz,10,"9780123820204,0123820200,9780123820211,0123820219",,,,,,,,,,,0,,,,,,,1,5830989,pdf,27e86ea52c8b0baa02b033aee1dbe997,,,"Cs_Computer science/CsDb_Databases/Teorey T.J., Lightstone S.S., Nadeau T., Jagadish H.V. Database modeling and design.. logical design (5ed., MK, 2011)(ISBN 9780123820204)(O)(335s)_CsDb_.pdf",0,2000-01-01 01:00:00,2016-04-03 02:51:08,871000/27e86ea52c8b0baa02b033aee1dbe997-d.jpg,,
6945708,A functional database,,,,Trinder P. ,1989,, Oxford,,210,0,English,Cs_Computer science/CsDb_Databases/,kolxoz,10,0-902928-61-9,,,,,,,,,,phd thesis  report PRG-82,600,,,,,,,1,1812606,djvu,5fc1debc79c9a230ae61afc7be43fa55,,,"Cs_Computer science/CsDb_Databases/Trinder P. A functional database (phd thesis, report PRG-82, Oxford, 1989)(600dpi)(T)(210s)_CsDb_.djvu",0,2000-01-01 01:00:00,2016-04-03 02:51:08,871000/5fc1debc79c9a230ae61afc7be43fa55-g.jpg,,
6945709,SQL,,,,Грабер М.(Gruber) ,2003,,Лори,,664,0,Russian,Cs_Computer science/CsDb_Databases/,kolxoz,10,5855821099,,,,,,,,,,,600,,,,,,,1,10378619,djvu,7615b72a2565d7a23aa821b15de93cc1,,,"Cs_Computer science/CsDb_Databases/Graber M. (_Gruber_) __SQL__ (ru)(Lori, 2003)(ISBN 5855821099)(600dpi)(T)(664s)_CsDb_.djvu",0,2000-01-01 01:00:00,2016-04-03 02:51:08,871000/7615b72a2565d7a23aa821b15de93cc1-g.jpg,,
6945710,SQL-запросы для простых смертных,,,,"Хернандес М.Дз., Вьескас Д.Л. ",2003,,Лори,,473,0,Russian,Cs_Computer science/CsDb_Databases/,kolxoz,10,"0-201-43336-2,5-85582-178-1",,,,,,,,,,,600,,,,,,,1,22846224,djvu,9f38400b09e37d7e913935a2714eac86,,,"Cs_Computer science/CsDb_Databases/Xernandes M.Dz., V#eskas D.L. __SQL__-zaprosy dlya prostyx smertnyx (Lori, 2003)(ru)(600dpi)(T)(473s)_CsDb_.djvu",0,2000-01-01 01:00:00,2016-04-03 02:51:08,872000/9f38400b09e37d7e913935a2714eac86-g.jpg,,
6945711,SQL-запросы для простых смертных. Примеры,,,,"Хернандес М.Дз., Вьескас Д.Л. ",2003,,Лори,,,0,Russian,Cs_Computer science/CsDb_Databases/,kolxoz,10,,,,,,,,,,,,0,,,,,,,,4649977,rar,09d58691b5ff9f48c3037842a1f095fe,,,"Cs_Computer science/CsDb_Databases/Xernandes M.Dz., V#eskas D.L. __SQL__-zaprosy dlya prostyx smertnyx. Primery (Lori, 2003)(ru)_CsDb_.rar",0,2000-01-01 01:00:00,2016-04-03 02:51:08,,,
6945712,"The Haskell road to logic, maths and programming",,"Texts in computing, 4",,Kees Doets; J  van Eijck ,2004,,King's College Publications,London,449,0,English,Cs_Computer science/CsDi_Discrete math/,kolxoz,10,"0954300696,9780954300692",,,,,,,,,,,0,,,,,,,1,1267478,pdf,1415d536ac00df561e13ac7ca30c6bd6,,,"Cs_Computer science/CsDi_Discrete math/Doets K., van Eijck J. The Haskell road to logic, maths and programming (College Publications, 2004)(ISBN 0954300696)(449s)_CsDi_.pdf",0,2000-01-01 01:00:00,2016-04-03 02:51:08,,,
6945713,Discrete mathematics for new technology,,,,Rowan Garnier; John Taylor ,2002,2ed.,Institute of Physics Pub,Bristol ; Philadelphia,767,0,English,Cs_Computer science/CsDi_Discrete math/,kolxoz,10,"0750306521,9780750306522,0750306513,9780750306515",,,,,,,,,,,0,,,,,,,1,3900442,pdf,da252f4f288cc71df1debae7b207e84e,,,"Cs_Computer science/CsDi_Discrete math/Garnier R., Taylor J. Discrete mathematics for new technology (2ed., IoP, 2002)(ISBN 0750306521)(O)(767s)_CsDi_.pdf",0,2000-01-01 01:00:00,2016-04-03 02:51:08,872000/da252f4f288cc71df1debae7b207e84e-d.jpg,,
6945714,Logic in Computer Science: Modelling and Reasoning about Systems,,,,M Huth; Mark Ryan ,1999,,Cambridge University Press,Cambridge,407,0,English,Cs_Computer science/CsDi_Discrete math/,kolxoz,10,"0521652006,9780521652001,0521656028,9780521656023",,,,,,,,,,,600,,,,,,,1,4004179,djvu,5249289cadcaa22b870aed961b4d9806,,,"Cs_Computer science/CsDi_Discrete math/Huth M., Ryan M. Logic in Computer Science.. Modelling and Reasoning about Systems (CUP, 1999)(ISBN 9780521656023)(600dpi)(T)(O)(407s)_CsDi_.djvu",0,2000-01-01 01:00:00,2016-04-03 02:51:08,872000/5249289cadcaa22b870aed961b4d9806-d.jpg,,
6945715,Boolean function complexity,,,,Jukna S. ,2011,draft, Springer,,633,0,English,Cs_Computer science/CsDi_Discrete math/,kolxoz,10,,,,,,,,,,,,0,,,,,,,1,2669273,pdf,dae511362618563c987a8360063291fb,,,"Cs_Computer science/CsDi_Discrete math/Jukna S. Boolean function complexity (draft, Springer, 2011)(633s)_CsDi_.pdf",0,2000-01-01 01:00:00,2016-04-03 02:51:08,872000/dae511362618563c987a8360063291fb-g.jpg,,
6945716,Boolean function complexity. Advances and frontiers,,"Algorithms and combinatorics, v.27",,Stasys Jukna ,2012,,Springer,Berlin ; New York,634,0,English,Cs_Computer science/CsDi_Discrete math/,kolxoz,10,"9783642245084,3642245080",,,,,,,10.1007/978-3-642-24508-4,,,,0,,,,,,,1,3522120,pdf,e9f2b7d59e64fd1f1c4c8dd9d8580afc,,,"Cs_Computer science/CsDi_Discrete math/Jukna S. Boolean function complexity. Advances and frontiers (Springer, 2012)(ISBN 9783642245077)(O)(634s)_CsDi_.pdf",0,2000-01-01 01:00:00,2016-04-03 02:51:08,872000/e9f2b7d59e64fd1f1c4c8dd9d8580afc-d.jpg,,
6945717,"Problems in set theory, mathematical logic and the theory of algorithms",,University series in mathematics (Plenum Press),,I  A Lavrov; L  L Maksimova; Giovanna Corsi ,2003,,Kluwer Academic/Plenum Publishers,New York,293,0,English,Cs_Computer science/CsDi_Discrete math/,kolxoz,10,"0306477122,9780306477126",,,,,,,,,,,600,,,,,,,1,1810981,djvu,9463a427534c4c49a081948752abcd86,,,"Cs_Computer science/CsDi_Discrete math/Lavrov I., Maksimova L. Problems in set theory, mathematical logic and the theory of algorithms (Kluwer, 2003)(ISBN 0306477122)(600dpi)(T)(O)(293s)_CsDi_.djvu",0,2000-01-01 01:00:00,2016-04-03 02:51:08,872000/9463a427534c4c49a081948752abcd86-d.jpg,,
6945718,Mathematics for computer science,,,,"Lehman E., Leighton T., Meyer A. ",2012,,web draft,,829,0,English,Cs_Computer science/CsDi_Discrete math/,kolxoz,10,,,,,,,,,,,,0,,,,,,,1,4538954,pdf,e467a540287ed8775962afa97bd82dd6,,,"Cs_Computer science/CsDi_Discrete math/Lehman E., Leighton T., Meyer A. Mathematics for computer science (web draft, 2012)(O)(829s)_CsDi_.pdf",0,2000-01-01 01:00:00,2016-04-03 02:51:08,872000/e467a540287ed8775962afa97bd82dd6-g.jpg,,
6945719,Discrete mathematics. Elementary and beyond,,Undergraduate texts in mathematics,,LaМЃszloМЃ LovaМЃsz; J PelikaМЃn; K Vsztergombi ,2003,,Springer,New York,301,0,English,Cs_Computer science/CsDi_Discrete math/,kolxoz,10,"0387217770,9780387217772,9780387955841,0387955844,0585478104,9780585478104",,,,,,,,,,,0,,,,,,,1,1754658,pdf,e3b36f33fceea1a68905d8e1686e3a00,,,"Cs_Computer science/CsDi_Discrete math/Lovasz L., Pelikan J., Vesztergombi K. Discrete mathematics. Elementary and beyond (Springer, 2003)(ISBN 0387955852)(O)(301s)_CsDi_.pdf",0,2000-01-01 01:00:00,2016-04-03 02:51:08,872000/e3b36f33fceea1a68905d8e1686e3a00-d.jpg,,
6945720,A half-century of automata theory : celebration and inspiration,,,,Arto Salomaa; Derick Wood; Sheng Yu  (eds.),2001,,World Scientific,"River Edge, N.J",164,0,English,Cs_Computer science/CsDi_Discrete math/,kolxoz,10,"9789812810168,9812810161",,,,,,,,,,,300,,,,,,,1,1004617,djvu,a7dec9a1b0a6e5de11c4c6bcd0e08783,,,"Cs_Computer science/CsDi_Discrete math/Salomaa A., Wood D., Yu S. (eds.) A half-century of automata theory (WS, 2001)(ISBN 9810245904)(T)(O)(164s)_CsDi_.djvu",0,2000-01-01 01:00:00,2016-04-03 02:51:08,872000/a7dec9a1b0a6e5de11c4c6bcd0e08783-d.jpg,,
6945721,A Beginner's Guide to Discrete Mathematics,,,,W  D Wallis ,2011,2nd ed,BirkhaМ€user,New York,435,0,English,Cs_Computer science/CsDi_Discrete math/,kolxoz,10,"9780817682859,0817682856,9780817682866,0817682864",,,,,,,10.1007/978-0-8176-8286-6,,,,0,,,,,,,1,3523320,pdf,9b6cb588e8e82683162484cefa64e712,,,"Cs_Computer science/CsDi_Discrete math/Wallis W. A Beginner#s Guide to Discrete Mathematics (Birkhauser, 2011)(ISBN 0817682856)(O)(435s)_CsDi_.pdf",0,2000-01-01 01:00:00,2016-04-03 02:51:08,872000/9b6cb588e8e82683162484cefa64e712-d.jpg,,
6945722,A beginner's guide to discrete mathematics,,,,Wallis W.D. ,2011,2ed.,BirkhaМ€user,New York,442,0,English,Cs_Computer science/CsDi_Discrete math/,kolxoz,10,"9780817682859,0817682856,9780817682866,0817682864",,,,,,,10.1007/978-0-8176-8286-6,,,,0,,,,,,,1,1783342,pdf,f9bdce4de5c5a4b3770f0293e434670a,,,"Cs_Computer science/CsDi_Discrete math/Wallis W.D. A beginner#s guide to discrete mathematics (2ed., Birkhauser, 2011)(ISBN 0817682856)(O)(442s)_CsDi_.pdf",0,2000-01-01 01:00:00,2016-04-03 02:51:08,872000/f9bdce4de5c5a4b3770f0293e434670a-d.jpg,,
6945723,Дискретная математика,,МвТУ19,,"Белоусов А.И., Ткачев С.Б. ",2006, 4изд., МГТУ,,745,0,Russian,Cs_Computer science/CsDi_Discrete math/,kolxoz,10,"5-7038-2886-4,5-7038-2484-2",,,,,,,,,,,600,,,,,,,1,5661214,djvu,a70a63c9199a4ea680a358430fff46d6,,,"Cs_Computer science/CsDi_Discrete math/Belousov A.I., Tkachev S.B. Diskretnaja matematika (MvTU19, 4izd., MGTU, 2006)(ru)(600dpi)(T)(O)(745s)_CsDi_.djvu",0,2000-01-01 01:00:00,2016-04-03 02:51:08,872000/a70a63c9199a4ea680a358430fff46d6-g.jpg,,
6945724,Лекции по дискретной математике,,,,"Капитонова Ю.В., и др. ",2004,,БХВ-Петербург,,626,0,Russian,Cs_Computer science/CsDi_Discrete math/,kolxoz,10,5941575467,,,,,,,,,,,600,,,,,,,1,6024339,djvu,5c8f2c6ddc626f06f223e69141931931,,,"Cs_Computer science/CsDi_Discrete math/Kapitonova Yu.V., i dr. Lekcii po diskretnoj matematike (BXV-Peterburg, 2004)(ru)(ISBN 5941575467)(600dpi)(T)(O)(626s)_CsDi_.djvu",0,2000-01-01 01:00:00,2016-04-03 02:51:08,872000/5c8f2c6ddc626f06f223e69141931931-g.jpg,,
6945725,Microbiology. Principles and explorations,,,,Jacquelyn G Black ,2012,8ed.,Wiley,"Hoboken, NJ",975,0,English,B_Biology/,kolxoz,10,"9780470541098,0470541091",,,,,,,,,,,0,1,,,,,,1,54015657,pdf,af79fc283bef202b50d0dbb3de081b2a,,,"B_Biology/Black J.G. Microbiology. Principles and explorations (8ed., Wiley, 2012)(ISBN 9780470541098)(C)(O)(975s)_B_.pdf",0,2000-01-01 01:00:00,2016-04-03 02:51:08,872000/af79fc283bef202b50d0dbb3de081b2a-d.jpg,,
6945726,Mechanics of the cell,,,,David H Boal ,2012,2ed.,Cambridge University Press,Cambridge ; New York,624,0,English,B_Biology/,kolxoz,10,"9780521113762,0521113768,9780521130691,0521130697",,,,,,,,,,,0,1,,,,,,1,10699460,pdf,1c3b00eaa6e11161cedecbba76fe6587,,,"B_Biology/Boal D.H. Mechanics of the cell (2ed., CUP, 2012)(ISBN 9780521113762)(C)(O)(624s)_B_.pdf",0,2000-01-01 01:00:00,2016-04-03 02:51:08,872000/1c3b00eaa6e11161cedecbba76fe6587-d.jpg,,
6945727,Molecules and medicine,,,,"Corey E.J., Kurti L., Czako B.  ",2007,,John Wiley &  Sons,"Hoboken, N.J",266,0,English,B_Biology/,kolxoz,10,"9780470227497,0470227494,0470260963,9780470260968",,,,,,,,,,,400,1,,,,,,1,7516891,djvu,44d85f6d09bbfa4492626ea9edec55b1,,,"B_Biology/Corey E.J., Kurti L., Czako B. Molecules and medicine (Wiley, 2007)(ISBN 0470227494)(400dpi)(T)(C)(266s)_B_.djvu",0,2000-01-01 01:00:00,2016-04-03 02:51:08,872000/44d85f6d09bbfa4492626ea9edec55b1-d.jpg,,
6945728,Microbiology. A systems approach,,,,M  Kelly Cowan ,2012,3ed.,McGraw-Hill,"New York, NY",881,0,English,B_Biology/,kolxoz,10,"9780073522524,007352252X,9780071314879,0071314873",,,,,,,,,,,0,1,,,,,,1,60688437,pdf,f4aa97438f42ad23296c52e5bef0090c,,,"B_Biology/Cowan M.K. Microbiology. A systems approach (3ed., MGH, 2012)(ISBN 9780073522524)(C)(O)(881s)_B_.pdf",0,2000-01-01 01:00:00,2016-04-03 02:51:08,872000/f4aa97438f42ad23296c52e5bef0090c-d.jpg,,
6945729,Protein structure. A practical approach,,Practical approach series,,Creighton T.E. (ed.) ,1997,2ed.,IRL Press at Oxford University Press,Oxford ; New York,399,0,English,B_Biology/,kolxoz,10,"0199636192,9780199636198,0199636184,9780199636181,0199636176,9780199636174,0199636206,9780199636204",,,,,,,,,,,300,1,,,,,,1,5341123,djvu,d194aa712b199dfe890349a92a96c22f,,,"B_Biology/Creighton T.E. (ed.) Protein structure. A practical approach (2ed., OUP, 1997)(ISBN 0199636192)(T)(C)(399s)_B_.djvu",0,2000-01-01 01:00:00,2016-04-03 02:51:08,872000/d194aa712b199dfe890349a92a96c22f-d.jpg,,
6945730,Electromagnetics in biology,,,,Masamichi Kato (ed.),2006,,Springer,Tokyo ; New York,334,0,English,B_Biology/,kolxoz,10,"9784431279143,4431279148,443127913X,9784431279136",,,,,,,,,,,0,1,,,,,,1,2921736,pdf,1558bef0fd88da48f7b41a25bd4beaa7,,,"B_Biology/Kato M. (ed.) Electromagnetics in biology (Springer, 2006)(ISBN 9784431279136)(C)(O)(334s)_B_.pdf",0,2000-01-01 01:00:00,2016-04-03 02:51:08,872000/1558bef0fd88da48f7b41a25bd4beaa7-d.jpg,,
6945731,Brock Biology of Microorganisms,,,,"Madigan M.T., et al. ",2012,13ed., Benjamin,,1155,0,English,B_Biology/,kolxoz,10,,,,,,,,,,,,300,1,,,,,,1,37846748,djvu,f72d27308e84c0a5275d0eb54d2d1067,,,"B_Biology/Madigan M.T., et al. Brock Biology of Microorganisms (13ed., Benjamin, 2012)(T)(C)(O)(1155s)_B_.djvu",0,2000-01-01 01:00:00,2016-04-03 02:51:08,872000/f72d27308e84c0a5275d0eb54d2d1067-g.jpg,,
6945732,Beginnings of Cellular Life: Metabolism Recapitulates Biogenesis,,Bio-origins series,,Harold J Morowitz ,1992,,Yale University Press,New Haven,206,0,English,B_Biology/,kolxoz,10,"0300054831,9780300054835",,,,,,,,,,,600,1,,,,,,1,1459463,djvu,84ff41acb890f732dafc42bc00b75118,,,"B_Biology/Morowitz P.H.J. Beginnings of Cellular Life.. Metabolism Recapitulates Biogenesis (YUP, 1992)(ISBN 9780300054835)(600dpi)(T)(C)(206s)_B_.djvu",0,2000-01-01 01:00:00,2016-04-03 02:51:08,,,
6945733,Protein structure and function,,Primers in biology,,Gregory A Petsko; Dagmar Ringe,2004,,New Science,,184,0,English,B_Biology,kolxoz,10,"0878936637,9780878936632,0953918149,9780953918140,1405119225,9781405119221,9780199556847,0199556849",,,,,,,,,,,0,1,,,,,,1,6998891,pdf,7a08f2f9485208b1dc2e6f0ffa787a22,,,"B_Biology/Petsko G.A., Ringe D. Protein stucture and function (New Science, 2004)(ISBN 0953918149)(C)(O)(184s)_B_.pdf",0,2000-01-01 01:00:00,2016-04-03 02:51:08,872000/7a08f2f9485208b1dc2e6f0ffa787a22-d.jpg,,
6945734,Campbell Biology,,,,Jane B Reece; Lisa A Urry; Michael Lee Cain; Steven A Wasserman; Peter  V Minorsky; et al; All authors ,2011,9ed.,Benjamin Cummings,Boston [etc.],1472,0,English,B_Biology/,kolxoz,10,"9780321558237,0321558235,9780321697301,0321697308",,,,,,,10.1038/nature04592,,,,600,1,,,,,,1,87446931,djvu,6d3fccebc64df36a71bae0e577826a80,,,"B_Biology/Reece J.B., et al. Campbell Biology (9ed., Benjamin, 2011)(ISBN 9780321697301)(600dpi)(T)(C)(O)(1472s)_B_.djvu",0,2000-01-01 01:00:00,2016-04-03 02:51:08,872000/6d3fccebc64df36a71bae0e577826a80-d.jpg,,
6945735,Molecular biology,,,,Robert Franklin Weaver ,2012,5ed.,McGraw-Hill,New York,915,0,English,B_Biology/,kolxoz,10,"9780073525327,0073525324,9780071316866,0071316868",,,,,,,,,,,0,1,,,,,,1,38131608,pdf,914a9a8ad0dab396fca91858e42cf558,,,"B_Biology/Weaver R. Molecular biology (5ed., MGH, 2012)(ISBN 9780073525327)(C)(O)(915s)_B_.pdf",0,2000-01-01 01:00:00,2016-04-03 02:51:08,872000/914a9a8ad0dab396fca91858e42cf558-d.jpg,,
6945736,"Экологические риски. Расчет, управление, страхование",,,,Башкин В.Н. ,2007,,ВШ,,361,0,Russian,B_Biology/,kolxoz,10,9785060055597,,,,,,,,,,,300,,1,,,,,1,4519574,djvu,9d533d37cafc6b692eb9fe2121daf156,,,"B_Biology/Bashkin V.N. E#kologicheskie riski. Raschet, upravlenie, strahovanie (VSh, 2007)(ru)(ISBN 9785060055597)(K)(T)(O)(361s)_B_.djvu",0,2000-01-01 01:00:00,2016-04-03 02:51:08,872000/9d533d37cafc6b692eb9fe2121daf156-g.jpg,,
6945737,Молекулы и жизнь. Введение в молекулярную биофизику,,,,Волькенштейн М.В. ,1965,,Наука,,502,0,Russian,B_Biology/,kolxoz,10,,,,,,,,,,,,600,,1,,,,,1,9449004,djvu,9622e99828c289a7a8ce7fdfc25d3d4d,,,"B_Biology/Vol#kenshtejn M.V. Molekuly i zhizn#. Vvedenie v molekulyarnuyu biofiziku (Nauka, 1965)(ru)(600dpi)(K)(T)(O)(502s)_B_.djvu",0,2000-01-01 01:00:00,2016-04-03 02:51:08,872000/9622e99828c289a7a8ce7fdfc25d3d4d-g.jpg,,
6945738,Дары моря,,,,"Зенкевич Л., и др. ",1968,,Экономика,,219,0,Russian,B_Biology/,kolxoz,10,,,,,,,,,,,,600,1,1,,,,,1,12517529,djvu,479a5da594ba30dcf73b384095e1728d,,,"B_Biology/Zenkevich L., i dr. Dary morya (E#konomika, 1968)(ru)(600dpi)(K)(T)(C)(219s)_B_.djvu",0,2000-01-01 01:00:00,2016-04-03 02:51:08,872000/479a5da594ba30dcf73b384095e1728d-g.jpg,,
6945739,Живая клетка,,,,Либерман Е.А. ,1982,,Наука,,163,0,Russian,B_Biology/,kolxoz,10,,,,,,,,,,,,600,,1,,,,,1,2224154,djvu,71b95d6e6e5f8b4e08e24b6fa450bd80,,,"B_Biology/Liberman E.A. Zhivaya kletka (Nauka, 1982)(ru)(600dpi)(K)(T)(163s)_B_.djvu",0,2000-01-01 01:00:00,2016-04-03 02:51:08,872000/71b95d6e6e5f8b4e08e24b6fa450bd80-g.jpg,,
6945740,Невосприимчивость в инфекционных болезнях,,,,Мечников И.И. ,2012,3изд., УРСС,,713,0,Russian,B_Biology/,kolxoz,10,9785397025836,,,,,,,,,,,300,,1,,,,,1,6846497,djvu,dd67f714bd2f25f6e034675a33a885ab,,,"B_Biology/Mechnikov I.I. Nevospriimchivost# v infekcionnyx boleznyax (3izd., URSS, 2012)(ru)(ISBN 9785397025836)(K)(T)(713s)_B_.djvu",0,2000-01-01 01:00:00,2016-04-03 02:51:08,872000/dd67f714bd2f25f6e034675a33a885ab-g.jpg,,
6945741,Химия жизни,,МНТ,,Роуз С.(Rose S.) ,1969,, Мир,,305,0,Russian,B_Biology/,kolxoz,10,,,,,,,,,,,,600,,1,,,,,1,4042361,djvu,3c18015ef0b40bb843a4f941d9966b7d,,,"B_Biology/Rouz S. (_Rose S._) Ximiya zhizni (MNT, Mir, 1969)(ru)(600dpi)(K)(S)(T)(O)(305s)_B_.djvu",0,2000-01-01 01:00:00,2016-04-03 02:51:08,872000/3c18015ef0b40bb843a4f941d9966b7d-g.jpg,,
6945742,Эволюция пищеварения и принципы эволюции функций,,,,Уголев А.М. ,1985,,Наука,,545,0,Russian,B_Biology/,kolxoz,10,,,,,,,,,,,,600,,1,,,,,1,12603315,djvu,f486cf67c4f96b5022626e3029782efb,,,"B_Biology/Ugolev A.M. E#volyuciya pishchevareniya i principy e#volyucii funkcij (Nauka, 1985)(ru)(600dpi)(K)(T)(545s)_B_.djvu",0,2000-01-01 01:00:00,2016-04-03 02:51:08,872000/f486cf67c4f96b5022626e3029782efb-g.jpg,,
6945743,Биохимия,,,,"Чиркин А.А., Данченко Е.О. ",2010,,МедЛит,,610,0,Russian,B_Biology/,kolxoz,10,9785918030028,,,,,,,,,,,400,,1,,,,,1,18868226,djvu,478518a95e266e292de54c5c7cf973bd,,,"B_Biology/Chirkin A.A., Danchenko E.O. Bioximiya (MedLit, 2010)(ISBN 9785918030028)(ru)(400dpi)(K)(T)(610s)_B_.djvu",0,2000-01-01 01:00:00,2016-04-03 02:51:08,872000/478518a95e266e292de54c5c7cf973bd-g.jpg,,
6945744,Физико-химические факторы биологической эволюции,,,,Шноль С.Э. ,1979,,Наука,,263,0,Russian,B_Biology/,kolxoz,10,,,,,,,,,,,,300,,1,,,,,1,3514157,djvu,923a7eabde1aa44ecef5d65edd318675,,,"B_Biology/Shnol# S.E#. Fiziko-ximicheskie faktory biologicheskoj e#volyucii (Nauka, 1979)(ru)(K)(T)(O)(263s)_B_.djvu",0,2000-01-01 01:00:00,2016-04-03 02:51:08,872000/923a7eabde1aa44ecef5d65edd318675-g.jpg,,
6945745,Физиология высшей нервной деятельности с основами нейробиологии,,,,Шульговский В.В. ,2008,2изд, Академия,,526,0,Russian,B_Biology/,kolxoz,10,9785769550928,,,,,,,,,,,600,,1,,,,,1,6254768,djvu,16f46a258aa7b72bc5b305ce074569d5,,,"B_Biology/Shul#govskij V.V. Fiziologiya vysshej nervnoj deyatel#nosti s osnovami nejrobiologii (2izd, Akademiya, 2008)(ru)(ISBN 9785769550928)(600dpi)(K)(T)(526s)_B_.djvu",0,2000-01-01 01:00:00,2016-04-03 02:51:08,872000/16f46a258aa7b72bc5b305ce074569d5-g.jpg,,
6945746,Scientific American Mind,,,, ,2011,,November-December,,80,0,English,B_Biology/BH_Human/,kolxoz,10,,,,,,,,,,,,0,1,,,,,,1,12678668,pdf,e925fa2ccde3531b39e1fe97b65dff1f,,,"B_Biology/BH_Human/Scientific American Mind (November-December, 2011)(C)(O)(80s)_BH_.pdf",0,2000-01-01 01:00:00,2016-04-03 02:51:08,872000/e925fa2ccde3531b39e1fe97b65dff1f-g.jpg,,
6945747,Clinical pharmacology,,,,"Bennett P.N., Brown M.J. ",2003,9th ed,Churchill Livingstone,Edinburgh,805,0,English,B_Biology/BH_Human/,kolxoz,10,"0443064806,9780443064807,0443064814,9780443064814",,,,,,,,,,,150,1,,,,,,1,38037921,djvu,a3996931d9a04d1c63d210ffd33bb3fc,,,"B_Biology/BH_Human/Bennett P.N., Brown M.J. Clinical pharmacology (Elsevier, 2003)(ISBN 0443064814)(150dpi)(T)(C)(805s)_BH_.djvu",0,2000-01-01 01:00:00,2016-04-03 02:51:08,872000/a3996931d9a04d1c63d210ffd33bb3fc-d.jpg,,
6945748,"Advanced techniques of hypnosis and therapy : selected papers of Milton H. Erickson, M.D",,,,Milton H Erickson; Jay Haley ,1967,,Grune &  Stratton,N.Y,566,0,English,B_Biology/BH_Human/,kolxoz,10,"0808901699,9780808901693",,,,,,,,,,,300,,1,,,,,1,5355504,djvu,91cbdac160ac0ed680c84e8c92dc2ebf,,,"B_Biology/BH_Human/Erickson M. Advanced techniques of hypnosis and therapy.. Selected papers (Grune & Stratton, 1967)(ISBN 0808901699)(K)(T)(566s)_BH_.djvu",0,2000-01-01 01:00:00,2016-04-03 02:51:08,872000/91cbdac160ac0ed680c84e8c92dc2ebf-d.jpg,,
6945749,Human biology. Concepts and current issues,,,,Michael D Johnson ,2011,6ed.,Benjamin Cummings,Boston,642,0,English,B_Biology/BH_Human/,kolxoz,10,"9780321701671,0321701674,0321758188,9780321758187",,,,,,,,,,,0,1,,,,,,1,47750425,pdf,d8e4a7f6d4c2318495a824e5d0a9cff2,,,"B_Biology/BH_Human/Johnson M.D. Human biology. Concepts and current issues (6ed., Benjamin, 2011)(ISBN 9780321701671)(O)(C)(642s)_BH_.pdf",0,2000-01-01 01:00:00,2016-04-03 02:51:08,872000/d8e4a7f6d4c2318495a824e5d0a9cff2-d.jpg,,
6945750,Abnormal psychology,,,,Ann M Kring; Sheri L Johnson; Gerald C Davison; John M Neale ,2012,12ed.,John Wiley &  Sons,"Hoboken, N.J",656,0,English,B_Biology/BH_Human/,kolxoz,10,"9781118018491,1118018494",,,,,,,10.1177/088626087002001001,,,,600,1,,,,,,1,22645712,djvu,9537c6ec6416088a42f882156638b989,,,"B_Biology/BH_Human/Kring A.M., Johnson S.L., Davison G.C., Neale J.M. Abnormal psychology (12ed., Wiley, 2012)(ISBN 9781118018491)(600dpi)(T)(C)(O)(656s)_BH_.djvu",0,2000-01-01 01:00:00,2016-04-03 02:51:08,872000/9537c6ec6416088a42f882156638b989-d.jpg,,
6945751,Human physiology. From cells to systems,,,,Lauralee Sherwood ,2010,,Thomson/Brooks/Cole,"Australia ; Belmont, CA",973,0,English,B_Biology/BH_Human/,kolxoz,10,"0495110590,0495014850,9780495014850,9780495110590,9780495391845,0495391840,9780538734509,0538734507,9780495826293,0495826294",,,,,,,,,,,0,1,,,,,,1,62653880,pdf,ee4c5b80316952aecabc3bfc5f43da1d,,,"B_Biology/BH_Human/Sherwood L. Human physiology. From cells to systems (Brooks, 2010)(ISBN 9780495391845)(C)(O)(973s)_BH_.pdf",0,2000-01-01 01:00:00,2016-04-03 02:51:08,872000/ee4c5b80316952aecabc3bfc5f43da1d-d.jpg,,
6945752,Основы физиологии человека,,,,"Агаджанян Н.А., и др. ",2005,2изд., РУДН,,410,0,Russian,B_Biology/BH_Human/,kolxoz,10,5209010406,,,,,,,,,,,300,,1,,,,,1,3222246,djvu,3eb2062458751fcb498c9a1049091984,,,"B_Biology/BH_Human/Agadzhanyan N.A., i dr. Osnovy fiziologii cheloveka (2izd., RUDN, 2005)(ru)(ISBN 5209010406)(K)(T)(410s)_BH_.djvu",0,2000-01-01 01:00:00,2016-04-03 02:51:08,872000/3eb2062458751fcb498c9a1049091984-g.jpg,,
6945753,Здоровое питание ,,,,Бранд Я.Б. ,2006,,Октопус,,239,0,Russian,B_Biology/BH_Human/,kolxoz,10,5948870383,,,,,,,,,,"нет с1,2,195",400,1,,,,,,1,2699363,djvu,f7303812604543387810d9f6d0cf62ec,,,"B_Biology/BH_Human/Brand Ya.B. Zdorovoe pitanie (net s1,2,195)(Oktopus, 2006)(ru)(ISBN 5948870383)(400dpi)(C)(T)(O)(239s)_BH_.djvu",0,2000-01-01 01:00:00,2016-04-03 02:51:08,872000/f7303812604543387810d9f6d0cf62ec-g.jpg,,
6945754,Биологические проблемы старения и долголетия,,,,Виленчик М.М. ,1987,2изд., Знание,,225,0,Russian,B_Biology/BH_Human/,kolxoz,10,,,,,,,,,,,,400,,1,,,,,1,3292794,djvu,f116ae208da310aa48711e1d452b0e8f,,,"B_Biology/BH_Human/Vilenchik M.M. Biologicheskie problemy stareniya i dolgoletiya (2izd., Znanie, 1987)(ru)(400dpi)(K)(T)(225s)_BH_.djvu",0,2000-01-01 01:00:00,2016-04-03 02:51:08,872000/f116ae208da310aa48711e1d452b0e8f-g.jpg,,
6945755,Старение мозга и нейротрофическая терапия,,,,Гомазков О.А. ,2011,,ИКАР,,93,0,Russian,B_Biology/BH_Human/,kolxoz,10,,,,,,,,,,,,0,1,,,,,,1,3291457,pdf,375e25acbd442090d868a51c9ffb311e,,,"B_Biology/BH_Human/Gomazkov O.A. Starenie mozga i nejrotroficheskaya terapiya (IKAR, 2011)(ru)(C)(93s)_BH_.pdf",0,2000-01-01 01:00:00,2016-04-03 02:51:08,872000/375e25acbd442090d868a51c9ffb311e-g.jpg,,
6945756,Ритмы клетки и здоровье человека,,,,Загускин С.Л. ,2010,,,Ростов,292,0,Russian,B_Biology/BH_Human/,kolxoz,10,9785927507771,,,,,,,,,,,0,1,,,,,,1,8618382,pdf,5a227d473474b5ccbe4f396ef66f7994,,,"B_Biology/BH_Human/Zaguskin S.L. Ritmy kletki i zdorov#e cheloveka (Rostov, 2010)(ru)(ISBN 9785927507771)(C)(292s)_BH_.pdf",0,2000-01-01 01:00:00,2016-04-03 02:51:08,,,
6945757,Физиология человека,,,,Зимкин Н.В. (ред.) ,1970,4изд., ФиС,,535,0,Russian,B_Biology/BH_Human/,kolxoz,10,,,,,,,,,,,,600,,1,,,,,1,9545252,djvu,0f7adae41fb1a4e94b851a7460e31448,,,"B_Biology/BH_Human/Zimkin N.V. (red.) Fiziologiya cheloveka (4izd., FiS, 1970)(ru)(600dpi)(K)(T)(535s)_BH_.djvu",0,2000-01-01 01:00:00,2016-04-03 02:51:08,872000/0f7adae41fb1a4e94b851a7460e31448-g.jpg,,
6945758,Медицинский справочник туриста,,,,Коструб А.А. ,1986,,Профиздат,,241,0,Russian,B_Biology/BH_Human/,kolxoz,10,,,,,,,,,,,,300,1,,,,,,1,2620555,djvu,c792a1c288d3b26adaf50968cef3a882,,,"B_Biology/BH_Human/Kostrub A.A. Medicinskij spravochnik turista (Profizdat, 1986)(ru)(C)(T)(O)(241s)_BH_.djvu",0,2000-01-01 01:00:00,2016-04-03 02:51:08,872000/c792a1c288d3b26adaf50968cef3a882-g.jpg,,
6945759,Динамика воспаления,,,,Менкин В. ,1948,,Медгиз,,230,0,Russian,B_Biology/BH_Human/,kolxoz,10,,,,,,,,,,,,600,,1,,,,,1,5160711,djvu,601ba9d78014d13e24d92bc210dbd0b5,,,"B_Biology/BH_Human/Menkin V. Dinamika vospaleniya (Medgiz, 1948)(ru)(600dpi)(K)(T)(O)(230s)_BH_.djvu",0,2000-01-01 01:00:00,2016-04-03 02:51:08,872000/601ba9d78014d13e24d92bc210dbd0b5-g.jpg,,
6945760,Ультразвуковое исследование сердца и эхокардиография. Лабораторный практикум,,,,"Михайлов В.Н., и др. ",2011,,МИФИ,,287,0,Russian,B_Biology/BH_Human/,kolxoz,10,9785726215433,,,,,,,,,,,0,1,,,,,,1,8320253,pdf,026fb2741b8627bcb238a5f881c8959b,,,"B_Biology/BH_Human/Mixajlov V.N., i dr. Ul#trazvukovoe issledovanie serdca i e#xokardiografiya. Laboratornyj praktikum (MIFI, 2011)(ru)(ISBN 9785726215433)(C)(287s)_BH_.pdf",0,2000-01-01 01:00:00,2016-04-03 02:51:08,872000/026fb2741b8627bcb238a5f881c8959b-g.jpg,,
6945761,От нейрона к мозгу,,,,"Николлс Дж.Г., и др.(Nicholls et J.G., et al.) ",2003,4изд., УРСС,,677,0,Russian,B_Biology/BH_Human/,kolxoz,10,5354001625,,,,,,,,,,,300,1,,,,,,1,18470577,djvu,117ae7fa6f5b155421059284c74dbf6a,,,"B_Biology/BH_Human/Nikolls Dzh.G., i dr. (_Nicholls et J.G., et al._) Ot nejrona k mozgu (4izd., URSS, 2003)(ISBN 5354001625)(ru)(C)(T)(677s)_BH_.djvu",0,2000-01-01 01:00:00,2016-04-03 02:51:08,872000/117ae7fa6f5b155421059284c74dbf6a-g.jpg,,
6945762,Норма и патология в человеческом организме. Сердечно-сосудитая система,,,,Парнес Е.Я. ,1998,,МГУ,,90,0,Russian,B_Biology/BH_Human/,kolxoz,10,5892092542,,,,,,,,,,,400,,1,,,,,1,1753938,djvu,ca029f67024062e1f3e0681411f5eebe,,,"B_Biology/BH_Human/Parnes E.Ya. Norma i patologiya v chelovecheskom organizme. Serdechno-sosuditaya sistema (MGU, 1998)(ru)(ISBN 5892092542)(400dpi)(K)(T)(90s)_BH_.djvu",0,2000-01-01 01:00:00,2016-04-03 02:51:08,872000/ca029f67024062e1f3e0681411f5eebe-g.jpg,,
6945763,Биологически активные вещества пищевых продуктов ,,,,"Петрушевский В.В., и др. ",1992,,,Киев,192,0,Russian,B_Biology/BH_Human/,kolxoz,10,5337007610,,,,,,,,,,"брак с75,86,101,127,149,155",600,,1,,,,,1,7398776,djvu,39501797a140a89c1c547e61be9b4096,,,"B_Biology/BH_Human/Petrushevskij V.V., i dr. Biologicheski aktivnye veshchestva pishchevyx produktov (brak s75,86,101,127,149,155)(Kiev, 1992)(ru)(ISBN 5337007610)(600dpi)(K)(T)(192s)_BH_.djvu",0,2000-01-01 01:00:00,2016-04-03 02:51:08,872000/39501797a140a89c1c547e61be9b4096-g.jpg,,
6945764,"Стресс, старение и их биохимическая коррекция",,,,"Тодоров И.Н., Тодоров Г.И. ",2003,,Наука,,480,0,Russian,B_Biology/BH_Human/,kolxoz,10,5020028274,,,,,,,,,,,600,,1,,,,,1,8963584,djvu,e4eb362062cfbf7ec1c0a6592c6e9cf1,,,"B_Biology/BH_Human/Todorov I.N., Todorov G.I. Stress, starenie i ix bioximicheskaya korrekciya (Nauka, 2003)(ru)(ISBN 5020028274)(600dpi)(K)(T)(480s)_BH_.djvu",0,2000-01-01 01:00:00,2016-04-03 02:51:08,872000/e4eb362062cfbf7ec1c0a6592c6e9cf1-d.jpg,,
6945765,Физическая культура как метод профилактики и лечения плоскостопия у школьников,,,,Чоговадзе А.В. ,1962,,Медгиз,,116,0,Russian,B_Biology/BH_Human/,kolxoz,10,,,,,,,,,,,,600,,1,,,,,1,5717940,djvu,f77f20c38c9fb8a4afcdb803daed6b05,,,"B_Biology/BH_Human/Chogovadze A.V. Fizicheskaya kul#tura kak metod profilaktiki i lecheniya ploskostopiya u shkol#nikov (Medgiz, 1962)(ru)(600dpi)(K)(T)(116s)_BH_.djvu",0,2000-01-01 01:00:00,2016-04-03 02:51:08,872000/f77f20c38c9fb8a4afcdb803daed6b05-g.jpg,,
6945766,Учебник китайской медицины для западных врачей,,,,Шнорренбергер К.(Shnorrenberger) ,2007,,Балбе,,558,0,Russian,B_Biology/BH_Human/,kolxoz,10,5880750191,,,,,,,,,,,300,,1,,,,,1,6457504,djvu,6af81757cea45c23346467b1411a7f2e,,,"B_Biology/BH_Human/Shnorrenberger K. (_Shnorrenberger_) Uchebnik kitajskoj mediciny dlya zapadnyx vrachej (Balbe, 2007)(ru)(ISBN 5880750191)(K)(T)(558s)_BH_.djvu",0,2000-01-01 01:00:00,2016-04-03 02:51:08,872000/6af81757cea45c23346467b1411a7f2e-g.jpg,,
6945767,Tackling major killers - Cancer,,Scientific American special online issue No.17,, ,2004,,,,52,0,English,"B_Biology/BH_Human/BHPop_Popular, health/",kolxoz,10,,,,,,,,,,,,0,1,,,,,,1,1229647,pdf,6af9b1cd1b800f2ddcb1306e1120bcf2,,,"B_Biology/BH_Human/BHPop_Popular, health/Tackling major killers - Cancer (Scientific American special online issue No.17, 2004)(C)(O)(52s)_BH_.pdf",0,2000-01-01 01:00:00,2016-04-03 02:51:08,872000/6af9b1cd1b800f2ddcb1306e1120bcf2-g.jpg,,
6945768,НЛП для чайников,,,,"Реди Р., Бертон К.(Ready, Burton) ",2009,,Диалектика,,269,0,Russian,"B_Biology/BH_Human/BHPop_Popular, health/",kolxoz,10,9785845913999,,,,,,,,,,,400,,1,,,,,1,6800401,djvu,ebf4509efe2204817d329d002d3cae17,,,"B_Biology/BH_Human/BHPop_Popular, health/Redi R., Berton K. (_Ready, Burton_) NLP dlya chajnikov (Dialektika, 2009)(ru)(ISBN 9785845913999)(400dpi)(K)(T)(269s)_BH_.djvu",0,2000-01-01 01:00:00,2016-04-03 02:51:08,872000/ebf4509efe2204817d329d002d3cae17-g.jpg,,
6945769,Будьте здоровы. 180 компетентных ответов,,,,Цодиков Г.В. ,2006,,Собеседник,,161,0,Russian,"B_Biology/BH_Human/BHPop_Popular, health/",kolxoz,10,,,,,,,,,,,,300,,1,,,,,1,2169957,djvu,89c175872cdca285facf59208dbffb30,,,"B_Biology/BH_Human/BHPop_Popular, health/Codikov G.V. Bud#te zdorovy. 180 kompetentnyx otvetov (Sobesednik, 2006)(ru)(K)(T)(161s)_BH_.djvu",0,2000-01-01 01:00:00,2016-04-03 02:51:08,872000/89c175872cdca285facf59208dbffb30-g.jpg,,
6945770,From genes to genomes. Concepts and applications of DNA technology,,,,Jeremy Dale; Malcolm von Schantz; Nick Plant ,2012,3ed.,Wiley-Blackwell,Oxford,402,0,English,B_Biology/BN_Genetics/,kolxoz,10,"9780470683866,0470683864,9780470683859,0470683856,1119953154,9781119953159,1119954274,9781119954279,1119954282,9781119954286",,,,,,,,,,,0,1,,,,,,1,4622813,pdf,cbcd7adab631f4dad44092a82d56dbea,,,"B_Biology/BN_Genetics/Dale J.W., et al. From genes to genomes. Concepts and applications of DNA technology (3ed., Wiley, 2012)(ISBN 9780470683866)(C)(O)(402s)_BN_.pdf",0,2000-01-01 01:00:00,2016-04-03 02:51:08,872000/cbcd7adab631f4dad44092a82d56dbea-d.jpg,,
6945771,An introduction to human molecular genetics : mechanisms of inherited diseases,,,,Jack J Pasternak ,2005,2ed.,Wiley-Liss,"Hoboken, N.J",659,0,English,B_Biology/BN_Genetics/,kolxoz,10,"047171917X,9780471719175,9780471474265,0471474266,0471719188,9780471719182",,,,,,,,,,,0,1,,,,,,1,9398657,pdf,db86fe0b086b9db6758bf59b68ef6a6f,,,"B_Biology/BN_Genetics/Pasternak J.J. An introduction to human molecular genetics (2ed., Wiley, 2005)(ISBN 0471474266)(O)(C)(659s)_BN_.pdf",0,2000-01-01 01:00:00,2016-04-03 02:51:08,872000/db86fe0b086b9db6758bf59b68ef6a6f-d.jpg,,
6945772,iGenetics. A molecular approach,,,,Russell P.J. ,2010,3ed., Pearson,,853,0,English,B_Biology/BN_Genetics/,kolxoz,10,9780321581020,,,,,,,,,,,600,1,,,,,,1,25693106,djvu,1f40a65947ffa9550755bf9b0bb8f52b,,,"B_Biology/BN_Genetics/Russell P.J. iGenetics. A molecular approach (3ed., Pearson, 2010)(ISBN 9780321581020)(600dpi)(T)(C)(O)(853s)_BN_.djvu",0,2000-01-01 01:00:00,2016-04-03 02:51:08,872000/1f40a65947ffa9550755bf9b0bb8f52b-g.jpg,,
6945773,iGenetics. A molecular approach,,,,Russell P.J. ,2010,3ed., Pearson,,853,0,English,B_Biology/BN_Genetics/,kolxoz,10,9780321581020,,,,,,,,,,,0,1,,,,,,1,60765739,pdf,8659c0d002a0a19c67d5fee00bddb857,,,"B_Biology/BN_Genetics/Russell P.J. iGenetics. A molecular approach (3ed., Pearson, 2010)(ISBN 9780321581020)(C)(O)(853s)_BN_.pdf",0,2000-01-01 01:00:00,2016-04-03 02:51:08,872000/8659c0d002a0a19c67d5fee00bddb857-g.jpg,,
6945774,Знайте свои гены,,МНТ,,Милунски О.(Milunsky A.) ,1981,, Мир,,394,0,Russian,B_Biology/BN_Genetics/,kolxoz,10,,,,,,,,,,,,600,,1,,,,,1,5166474,djvu,21b62d27bfbbfd277f65f4322a76ed7a,,,"B_Biology/BN_Genetics/Milunski O. (_Milunsky A._) Znajte svoi geny (MNT, Mir, 1981)(ru)(600dpi)(S)(T)(O)(394s)_BN_.djvu",0,2000-01-01 01:00:00,2016-04-03 02:51:08,872000/21b62d27bfbbfd277f65f4322a76ed7a-g.jpg,,
6945775,Chemical principles: The quest for insight,,,,P  W Atkins; Loretta Jones ,1999,,W.H. Freeman,New York,1125,0,English,Ch_Chemistry/,kolxoz,10,"0716735962,9780716735960,0716732645,9780716732648,0716733595,9780716733591",,,,,,,,,,,300,1,,,,,,1,26148865,djvu,b569b6163046c63bdc24d08119b2d723,,,"Ch_Chemistry/Atkins P., Jones L. Chemical principles.. The quest for insight (Freeman, 1999)(ISBN 0716735962)(C)(T)(1125s)_Ch_.djvu",0,2000-01-01 01:00:00,2016-04-03 02:51:08,872000/b569b6163046c63bdc24d08119b2d723-d.jpg,,
6945776,Chemistry: the central science,,,,Theodore L Brown; et al ,2012,12ed.,Prentice Hall,Boston,1195,0,English,Ch_Chemistry/,kolxoz,10,"9780321696724,0321696727",,,,,,,,,,,300,1,,,,,,1,24675735,djvu,d5a2e516849c45e29d84a4082a138d76,,,"Ch_Chemistry/Brown T.L., et al. Chemistry.. the central science (12ed., PH, 2012)(ISBN 9780321696724)(T)(C)(O)(1195s)_Ch_.djvu",0,2000-01-01 01:00:00,2016-04-03 02:51:08,872000/d5a2e516849c45e29d84a4082a138d76-d.jpg,,
6945777,Organic chemistry,,,,William Henry Brown; et al ,2012,6ed.,Brooks/Cole,"Belmont, CA",1303,0,English,Ch_Chemistry/,kolxoz,10,"9780840054982,084005498X",,,,,,,,,,,0,1,,,,,,1,21653070,pdf,e5c5c2caa83737e06c92dee8b8d6a314,,,"Ch_Chemistry/Brown W.H., et al. Organic chemistry (6ed., Brooks, 2012)(ISBN 9780840054982)(C)(O)(1303s)_Ch_.pdf",0,2000-01-01 01:00:00,2016-04-03 02:51:08,872000/e5c5c2caa83737e06c92dee8b8d6a314-d.jpg,,
6945778,Chemistry,,,,Julia R Burdge ,2011,2ed.,McGraw-Hill,New York,1121,0,English,Ch_Chemistry/,kolxoz,10,"9780073375649,0073375640,9780077354763,0077354761",,,,,,,,,,,300,1,,,,,,1,29019271,djvu,d8634480f1ca517f27a3cd608e27569f,,,"Ch_Chemistry/Burdge J. Chemistry (2ed., MGH, 2011)(ISBN 0073375640)(T)(C)(O)(1121s)_Ch_.djvu",0,2000-01-01 01:00:00,2016-04-03 02:51:08,872000/d8634480f1ca517f27a3cd608e27569f-d.jpg,,
6945779,An Introduction to Crystal Chemistry,,,,Evans R.C. ,1964,2ed., CUP,,424,0,English,Ch_Chemistry/,kolxoz,10,521049547,,,,,,,,,,,600,,1,,,,,1,6782774,djvu,79ae165d1fb13c83ce176653f2794acd,,,"Ch_Chemistry/Evans R.C. An Introduction to Crystal Chemistry (2ed., CUP, 1964)(ISBN 0521049547)(600dpi)(T)(S)(424s)_Ch_.djvu",0,2000-01-01 01:00:00,2016-04-03 02:51:08,872000/79ae165d1fb13c83ce176653f2794acd-g.jpg,,
6945780,Extraordinary properties of ordinary solutions,,,,Fialkov Yu.Ya. ,1985,,Mir,,111,0,English,Ch_Chemistry/,kolxoz,10,828530734,,,,,,,,,,,600,1,,,,,,1,2631794,djvu,a937b6abf00679dbeafa08ba14135c1e,,,"Ch_Chemistry/Fialkov Yu.Ya. Extraordinary properties of ordinary solutions (Mir, 1985)(ISBN 0828530734)(600dpi)(T)(O)(C)(111s)_Ch_.djvu",0,2000-01-01 01:00:00,2016-04-03 02:51:08,872000/a937b6abf00679dbeafa08ba14135c1e-g.jpg,,
6945781,Comprehensive enzyme kinetics,,,,Vladimir Leskovac ,2003,,Kluwer Academic/Plenum Pub,New York,451,0,English,Ch_Chemistry/,kolxoz,10,"0306483904,9780306483905",,,,,,,,,,,300,,1,,,,,1,3993081,djvu,b756a4f1ad09e796f362095b670dcf64,,,"Ch_Chemistry/Leskovac V. Comprehensive enzyme kinetics (Kluwer, 2003)(ISBN 0306467127)(T)(O)(S)(451s)_Ch_.djvu",0,2000-01-01 01:00:00,2016-04-03 02:51:08,872000/b756a4f1ad09e796f362095b670dcf64-d.jpg,,
6945782,Thermoreversible Networks: Viscoelastic Properties and Structure of Gels,,"Advances in polymer science, 130",,K  te Nijenhuis ,1997,,Springer,Berlin ; New York,270,0,English,Ch_Chemistry/,kolxoz,10,"3540618570,9783540618577",,,,,,,,,,,300,1,,,,,,1,4216516,djvu,e4cf69f38cd60b5daa8a949298a86f35,,,"Ch_Chemistry/Nijenhuis K.t. Thermoreversible Networks.. Viscoelastic Properties and Structure of Gels (Springer, 1997)(ISBN 3540618570)(T)(O)(C)(270s)_Ch_.djvu",0,2000-01-01 01:00:00,2016-04-03 02:51:08,872000/e4cf69f38cd60b5daa8a949298a86f35-d.jpg,,
6945783,The Hydrogen Bond: And Other Intermolecular Forces,,"Monographs for teachers, no. 27",,J  Clare Speakman ,1975,,Chemical Society,London,42,0,English,Ch_Chemistry/,kolxoz,10,"085186919X,9780851869193",,,,,,,,,,,600,,1,,,,,1,969036,djvu,12fd00e9d2974c5595c76cdb25f7b7c0,,,"Ch_Chemistry/Speakman J.C. The Hydrogen Bond.. And Other Intermolecular Forces (The Chemical Society, 1975)(ISBN 085186919X)(600dpi)(T)(S)(42s)_Ch_.djvu",0,2000-01-01 01:00:00,2016-04-03 02:51:08,872000/12fd00e9d2974c5595c76cdb25f7b7c0-d.jpg,,
6945784,Molecules and Crystals in Inorganic Chemistry,,,,Van Arkel A.E. ,1956,2ed., Butterworths,,281,0,English,Ch_Chemistry/,kolxoz,10,,,,,,,,,,,,600,,1,,,,,1,4763833,djvu,a6c5a590d023e8cd5025e2c83ebdbf45,,,"Ch_Chemistry/Van Arkel A.E. Molecules and Crystals in Inorganic Chemistry (2ed., Butterworths, 1956)(600dpi)(T)(S)(281s)_Ch_.djvu",0,2000-01-01 01:00:00,2016-04-03 02:51:08,,,
6945785,Неорганическая стереохимия,,,,Киперт Д. ,1985,,Мир,,278,0,Russian,Ch_Chemistry/,kolxoz,10,,,,,,,,,,,,300,,1,,,,,1,2457436,djvu,264f9eda0f87283a6c88511dbd1b39f1,,,"Ch_Chemistry/Kipert D. Neorganicheskaya stereoximiya (Mir, 1985)(ru)(K)(T)(278s)_Ch_.djvu",0,2000-01-01 01:00:00,2016-04-03 02:51:08,872000/264f9eda0f87283a6c88511dbd1b39f1-g.jpg,,
6945786,"ПВХ, Поливинилхлорид ",,,,"Уилки Ч., Саммерс Дж. (ред.) ",2007,, Профессия,СПб,695,0,Russian,Ch_Chemistry/,kolxoz,10,9785939131537,,,,,,,,,,нет много стр,300,,1,,,,,1,8487464,djvu,3e7a9822d86a369602a6f0e4a5607497,,,"Ch_Chemistry/Uilki Ch., Sammers Dzh. (red.) PVX, Polivinilxlorid (net mnogo str)(SPb, Professiya, 2007)(ru)(ISBN 9785939131537)(K)(T)(695s)_Ch_.djvu",0,2000-01-01 01:00:00,2016-04-03 02:51:08,872000/3e7a9822d86a369602a6f0e4a5607497-g.jpg,,
6945787,Занимательная минералогия,,,,Ферсман А.Е. ,1954,,,Свердловск,224,0,Russian,Ch_Chemistry/,kolxoz,10,,,,,,,,,,,,600,1,1,,,,,1,4999899,djvu,660e4c6dc7b60d594da81e3dabe208bb,,,"Ch_Chemistry/Fersman A.E. Zanimatel#naya mineralogiya (Sverdlovsk, 1954)(ru)(600dpi)(C)(K)(T)(224s)_Ch_.djvu",0,2000-01-01 01:00:00,2016-04-03 02:51:08,872000/660e4c6dc7b60d594da81e3dabe208bb-g.jpg,,
6945788,Строение вещества,,,,Китайгородский А. ,1951,2е изд., Воениздат,,50,0,Russian,Ch_Chemistry/ChSch_School-level/,kolxoz,10,,,,,,,,,,,,600,,1,,,,,1,1359978,djvu,3425878a88c0fca70829df021a881b91,,,"Ch_Chemistry/ChSch_School-level/Kitajgorodskij A. Stroenie veshchestva (2e izd., Voenizdat, 1951)(ru)(600dpi)(K)(T)(50s)_ChSch_.djvu",0,2000-01-01 01:00:00,2016-04-03 02:51:08,872000/3425878a88c0fca70829df021a881b91-g.jpg,,
6945789,Семья солеродов,,,,Розен Б. ,1956,,Детгиз,,162,0,Russian,Ch_Chemistry/ChSch_School-level/,kolxoz,10,,,,,,,,,,,,600,,1,,,,,1,3009741,djvu,486b6e215ec092a5072a261997d29f28,,,"Ch_Chemistry/ChSch_School-level/Rozen B. Sem#ya solerodov (Detgiz, 1956)(ru)(600dpi)(K)(T)(162s)_ChSch_.djvu",0,2000-01-01 01:00:00,2016-04-03 02:51:08,872000/486b6e215ec092a5072a261997d29f28-g.jpg,,
6945790,.,,"Вопросы кибернетики, вып.83",, ,1981,,ВИНИТИ,,152,0,Russian,Cs_Computer science/,kolxoz,10,,,,,,,,,,,,600,,1,,,,,1,2285528,djvu,c4c1b9b6738dcd5df6d29fc9d8860d7b,,,"Cs_Computer science/Voprosy kibernetiki, vyp.81 (VINITI, 1981)(ru)(600dpi)(T)(K)(O)(152s)_Cs_.djvu",0,2000-01-01 01:00:00,2016-04-03 02:51:08,872000/c4c1b9b6738dcd5df6d29fc9d8860d7b-g.jpg,,
6945791,.,,"Математические вопросы кибернетики, вып.04",, ,1992,,Наука,,241,0,Russian,Cs_Computer science/,kolxoz,10,5020146684,,,,,,,,,,,600,,1,,,,,1,4740041,djvu,6c0a0d5a63f29db2047ae0bdb4795d32,,,"Cs_Computer science/Matematicheskie voprosy kibernetiki, vyp.04 (Nauka, 1992)(ISBN 5020146684)(ru)(T)(K)(O)(600dpi)(241s)_Cs_.djvu",0,2000-01-01 01:00:00,2016-04-03 02:51:08,,,
6945792,.,,"Математические вопросы кибернетики, вып.07",, ,1998,,Физматлит,,370,0,Russian,Cs_Computer science/,kolxoz,10,5020151211,,,,,,,,,,,600,,1,,,,,1,11417022,djvu,298ebb1c44bee7dd830f4a937432d509,,,"Cs_Computer science/Matematicheskie voprosy kibernetiki, vyp.07 (Fizmatlit, 1998)(ISBN 5020151211)(ru)(600dpi)(K)(T)(O)(370s)_Cs_.djvu",0,2000-01-01 01:00:00,2016-04-03 02:51:08,872000/298ebb1c44bee7dd830f4a937432d509-g.jpg,,
6945793,.,,"Математические вопросы кибернетики, вып.15",, ,2006,,ФМЛ,,308,0,Russian,Cs_Computer science/,kolxoz,10,9785922107969,,,,,,,,,,,600,,1,,,,,1,4653638,djvu,5ac0fd1e87887fc0802b7c746b44c22a,,,"Cs_Computer science/Matematicheskie voprosy kibernetiki, vyp.15 (FML, 2006)(ISBN 9785922107969)(ru)(K)(600dpi)(T)(O)(308s)_Cs_.djvu",0,2000-01-01 01:00:00,2016-04-03 02:51:08,872000/5ac0fd1e87887fc0802b7c746b44c22a-g.jpg,,
6945794,.,,"Проблемы кибернетики, вып.38",, ,1981,,Наука,,274,0,Russian,Cs_Computer science/,kolxoz,10,,,,,,,,,,,,600,,1,,,,,1,5051169,djvu,9315d958afd991d5f5b1072731da57e9,,,"Cs_Computer science/Problemy kibernetiki, vyp.38 (Nauka, 1981)(ru)(S)(K)(600dpi)(T)(O)(274s)_Cs_.djvu",0,2000-01-01 01:00:00,2016-04-03 02:51:08,872000/9315d958afd991d5f5b1072731da57e9-g.jpg,,
6945795,.,,"Проблемы кибернетики, вып.39",, ,1982,,ФМЛ,,265,0,Russian,Cs_Computer science/,kolxoz,10,,,,,,,,,,,,600,,1,,,,,1,4320031,djvu,8e330ced288ee0482a1074d296d8f3cc,,,"Cs_Computer science/Problemy kibernetiki, vyp.39 (FML, 1982)(ru)(600dpi)(T)(K)(O)(265s)_Cs_.djvu",0,2000-01-01 01:00:00,2016-04-03 02:51:08,872000/8e330ced288ee0482a1074d296d8f3cc-g.jpg,,
6945796,.,,"Проблемы кибернетики, вып.41",, ,1984,,Наука,,257,0,Russian,Cs_Computer science/,kolxoz,10,,,,,,,,,,,,600,,1,,,,,1,5737816,djvu,49c5f97feb053cf532ed375d36c029df,,,"Cs_Computer science/Problemy kibernetiki, vyp.41 (Nauka, 1984)(ru)(S)(K)(600dpi)(T)(O)(257s)_Cs_.djvu",0,2000-01-01 01:00:00,2016-04-03 02:51:08,872000/49c5f97feb053cf532ed375d36c029df-g.jpg,,
6945797,Введение в компьютерные науки. Общий обзор,,,,Брукшир Дж.(Brookshear) ,2001,6изд., Вильямс,,688,0,Russian,Cs_Computer science/,kolxoz,10,5845901790,,,,,,,,,,,600,,1,,,,,1,8950677,djvu,4a8ebe6afb3e2a9082225a3d03bea550,,,"Cs_Computer science/Brukshir Dzh. (_Brookshear_) Vvedenie v komp#yuternye nauki. Obshchij obzor (6izd., Vil#yams, 2001)(ru)(ISBN 5845901790)(600dpi)(K)(T)(O)(688s)_Cs_.djvu",0,2000-01-01 01:00:00,2016-04-03 02:51:08,872000/4a8ebe6afb3e2a9082225a3d03bea550-g.jpg,,
6945798,.,,Математические вопросы кибернетики.  Вып. 10,,,2001,,Физматлит,,271,0,Russian,Cs_Computer science/,kolxoz,10,5922102214,,,,,,,,,,,600,,1,,,,,1,3221668,djvu,ee7c8430fdb89a71d8672b7d916d804a,,,"Cs_Computer science/Matematicheskie voprosy kibernetiki. Vyp. 10 (Fizmatlit, 2001)(ISBN 5922102214)(ru)(T)(K)(O)(600dpi)(271s)_Cs_.djvu",0,2000-01-01 01:00:00,2016-04-03 02:51:08,872000/ee7c8430fdb89a71d8672b7d916d804a-g.jpg,,
6945799,AI game engine programming,,,,Brian Schwab ,2004,1ed.,Charles River Media,"Hingham, MA",622,0,English,"Cs_Computer science/CsAi_AI, knowledge/",kolxoz,10,"9781584503446,1584503440",,,,,,,,,,,600,1,,,,,,1,5618563,djvu,4c0c6e2c120f9f402e2df743d32d1f97,,,"Cs_Computer science/CsAi_AI, knowledge/Schwab B. AI game engine programming (1ed., Charles River Media, 2004)(ISBN 1584503440)(600dpi)(T)(C)(622s)_CsAi_.djvu",0,2000-01-01 01:00:00,2016-04-03 02:51:08,872000/4c0c6e2c120f9f402e2df743d32d1f97-d.jpg,,
6945800,От амебы до робота: модели поведения,,,,"Гаазе-Рапопорт М.Г., Поспелов Д.А. ",1987,,Наука,,286,0,Russian,"Cs_Computer science/CsAi_AI, knowledge/",kolxoz,10,141-144-145-1,,,,,,,,,,,450,,1,,,,,1,5816365,djvu,80eac7799f8bb748f85dd0ccb07fedda,,,"Cs_Computer science/CsAi_AI, knowledge/Gaaze-Rapoport M.G., Pospelov D.A. Ot ameby do robota.. modeli povedeniya (Nauka, 1987)(450dpi)(ru)(K)(T)(O)(286s)_CsAi_.djvu",0,2000-01-01 01:00:00,2016-04-03 02:51:08,872000/80eac7799f8bb748f85dd0ccb07fedda-g.jpg,,
6945801,Искусственный интеллект: Применение в интегрированных производственных системах,,,,Кьюсиак Э. (ред.)(Kusiak) ,1991,,Машиностроение,,542,0,Russian,"Cs_Computer science/CsAi_AI, knowledge/",kolxoz,10,"5-217-00971-3,0-948507-44-6,0-387-17445-1",,,,,,,,,,,600,,1,,,,,1,7917020,djvu,40be899ea89f79c3998826a7408bb439,,,"Cs_Computer science/CsAi_AI, knowledge/K#yusiak E#. (_Kusiak_) (red.) Iskusstvennyj intellekt.. Primenenie v integrirovannyx proizvodstvennyx sistemax (Mashinostroenie, 1991)(ru)(600dpi)(K)(T)(O)(542s)_CsAi_.djvu",0,2000-01-01 01:00:00,2016-04-03 02:51:08,872000/40be899ea89f79c3998826a7408bb439-g.jpg,,
6945802,Моделирование рассуждений. Опыт анализа мыслительных актов,,,,Поспелов Д.А. ,1989,,РиС,,186,0,Russian,"Cs_Computer science/CsAi_AI, knowledge/",kolxoz,10,5256001833,,,,,,,,,,,600,,1,,,,,1,2556168,djvu,bc2a35b3fcdcc16add6645168f54ce9b,,,"Cs_Computer science/CsAi_AI, knowledge/Pospelov D.A. Modelirovanie rassuzhdenij. Opyt analiza myslitel#nyx aktov (RiS, 1989)(ISBN 5256001833)(ru)(600dpi)(K)(T)(O)(186s)_CsAi_.djvu",0,2000-01-01 01:00:00,2016-04-03 02:51:08,,,
6945803,"Кибернетический сборник, вып.08",,,, ,1971,,Мир,,245,0,Russian,Cs_Computer science/CsAl_Algorithms/,kolxoz,10,,,,,,,,,,,,600,,1,,,,,1,3582435,djvu,70d5d4ad4c2a28a15a5514b7e4de633b,,,"Cs_Computer science/CsAl_Algorithms/Kiberneticheskij sbornik, vyp.08 (Mir, 1971)(ru)(600dpi)(T)(K)(O)(245s)_CsAl_.djvu",0,2000-01-01 01:00:00,2016-04-03 02:51:08,872000/70d5d4ad4c2a28a15a5514b7e4de633b-g.jpg,,
6945804,"Кибернетический сборник, вып.25",,,, ,1988,,Мир,,240,0,Russian,Cs_Computer science/CsAl_Algorithms/,kolxoz,10,5-03-000999-X,,,,,,,,,,,600,,1,,,,,1,3268612,djvu,9ed6d23fe8f77905fb3cfacf7bcb1271,,,"Cs_Computer science/CsAl_Algorithms/Kiberneticheskij sbornik, vyp.25 (Mir, 1988)(ru)(600dpi)(T)(K)(O)(240s)_CsAl_.djvu",0,2000-01-01 01:00:00,2016-04-03 02:51:08,872000/9ed6d23fe8f77905fb3cfacf7bcb1271-g.jpg,,
6945805,Similarity search: the metric space approach,,"Advances in database systems, 32",,"Zezula P., Amato G., Dohnal V., Batko M. ",2006,,Springer,New York,239,0,English,Cs_Computer science/CsAl_Algorithms/,kolxoz,10,"9780387291512,0387291512,0387291466,9780387291468",,,,,,,,,,,600,1,1,,,,,1,3571001,djvu,51d4680d98781cf3694917f5305e8fa2,,,"Cs_Computer science/CsAl_Algorithms/Zezula P., Amato G., Dohnal V., Batko M. Similarity search.. the metric space approach (ADBS32, Springer, 2006)(ISBN 0387291466)(600dpi)(K)(T)(O)(C)(239s)_CsAl_.djvu",0,2000-01-01 01:00:00,2016-04-03 02:51:08,872000/51d4680d98781cf3694917f5305e8fa2-d.jpg,,
6945806,Решение математических задач на автоматических цифровых машинах ,,,,"Люстерник Л.А., Абрамов А.А., Шестаков В.И., Шура-Бура М.Р. ",1952,,АН СССР,,327,0,Russian,Cs_Computer science/CsAl_Algorithms/,kolxoz,10,,,,,,,,,,,нет стр.295,600,,1,,,,,1,3127887,djvu,3bcd36996009f67b118353318da2c07d,,,"Cs_Computer science/CsAl_Algorithms/Lyusternik L.A., Abramov A.A., Shestakov V.I., Shura-Bura M.R. Reshenie matematicheskix zadach na avtomaticheskix cifrovyx mashinax (net str.295)(AN SSSR, 1952)(ru)(600dpi)(T)(O)(S)(327s)_CsAl_.djvu",0,2000-01-01 01:00:00,2016-04-03 02:51:08,872000/3bcd36996009f67b118353318da2c07d-g.jpg,,
6945807,Основы биоинформатики,,,,Игнасимуту С.(Ignacimuthu) ,2007,,РХД,,321,0,Russian,Cs_Computer science/CsBi_Bioinformatics/,kolxoz,10,9785939726207,,,,,,,,,,,600,,1,,,,,1,3423876,djvu,aeeccf0938ba553ecae0bcf8b4b8005d,,,"Cs_Computer science/CsBi_Bioinformatics/Ignasimutu S. (_Ignacimuthu_) Osnovy bioinformatiki (RXD, 2007)(ru)(ISBN 9785939726207)(600dpi)(K)(T)(321s)_CsBi_.djvu",0,2000-01-01 01:00:00,2016-04-03 02:51:08,872000/aeeccf0938ba553ecae0bcf8b4b8005d-g.jpg,,
6945808,Integration of algebraic functions,,PhD thesis,,Trager B.M. ,1984,, MIT,,83,0,English,Cs_Computer science/CsCa_Computer algebra/,kolxoz,10,,,,,,,,,,,,600,,1,,,,,1,1499591,djvu,9832ef0f3631364c3d9144aaea592016,,,"Cs_Computer science/CsCa_Computer algebra/Trager B.M. Integration of algebraic functions (PhD thesis, MIT, 1984)(K)(600dpi)(T)(83s)_CsCa_.djvu",0,2000-01-01 01:00:00,2016-04-03 02:51:08,872000/9832ef0f3631364c3d9144aaea592016-g.jpg,,
6945809,Основы компьютерной алгебры с приложениями,,,,Акритас А.Г. ,1994,,Мир,,544,0,Russian,Cs_Computer science/CsCa_Computer algebra/,kolxoz,10,5-03-002016-0,,,,,,,,,,,300,,1,,,,,1,5360087,djvu,257f19eaf581a407f81558a6368d1293,,,"Cs_Computer science/CsCa_Computer algebra/Akritas A.G. Osnovy komp#juternoj algebry s prilozhenijami (Mir, 1994)(ru)(KA)(T)(544s)_CsCa_.djvu",0,2000-01-01 01:00:00,2016-04-03 02:51:08,872000/257f19eaf581a407f81558a6368d1293-g.jpg,,
6945810,Game physics,,Morgan Kaufmann series in interactive 3D technology,,David H Eberly; Ken Shoemake ,2004,,Elsevier/Morgan Kaufmann,Amsterdam ; Boston,826,0,English,Cs_Computer science/CsCg_Computational geometry/,kolxoz,10,"1558607404,9781558607408",,,,,,,,,,,400,,1,,,,,1,8600378,djvu,7368f15970d21e3eab3f67241eea99dc,,,"Cs_Computer science/CsCg_Computational geometry/Eberly D. Game physics (Morgan Kaufmann, 2004)(ISBN 1558607404)(400dpi)(K)(T)(O)(826s)_CsCg_.djvu",0,2000-01-01 01:00:00,2016-04-03 02:51:08,872000/7368f15970d21e3eab3f67241eea99dc-d.jpg,,
6945811,Основы криптологии,,,,ван Тилборг Х.К.А.(van Tilborg H.C.A.) ,2006,,Мир,,474,0,Russian,Cs_Computer science/CsCr_Cryptography/,kolxoz,10,5030036393,,,,,,,,,,,400,,1,,,,,1,5649093,djvu,ae26662d766cedc3a2e123acabb393e4,,,"Cs_Computer science/CsCr_Cryptography/van Tilborg X.K.A. (_van Tilborg H.C.A._) Osnovy kriptologii (Mir, 2006)(ISBN 5030036393)(ru)(400dpi)(T)(S)(474s)_CsCr_.djvu",0,2000-01-01 01:00:00,2016-04-03 02:51:08,872000/ae26662d766cedc3a2e123acabb393e4-g.jpg,,
6945812,Алгебраические методы в теории баз данных,,,,Бениаминов Е.М. ,2003,,Научный мир,,184,0,Russian,Cs_Computer science/CsDb_Databases/,kolxoz,10,5891762080,,,,,,,,,,,600,,1,,,,,1,1736930,djvu,874ef1388ce6f60722b12baa86f776a9,,,"Cs_Computer science/CsDb_Databases/Beniaminov E.M. Algebraicheskie metody v teorii baz dannyx (Nauchnyj mir, 2003)(ru)(ISBN 5891762080)(600dpi)(K)(T)(184s)_CsDb_.djvu",0,2000-01-01 01:00:00,2016-04-03 02:51:08,872000/874ef1388ce6f60722b12baa86f776a9-g.jpg,,
6945813,Теория и практика построения баз данных,,,,Крёнке Д.(Kroenke) ,2003,8изд., Питер,,799,0,Russian,Cs_Computer science/CsDb_Databases/,kolxoz,10,5947232758,,,,,,,,,,,600,,1,,,,,1,19115714,djvu,bdb470b148304622638a60b68fb05958,,,"Cs_Computer science/CsDb_Databases/Kryonke D. (_Kroenke_) Teoriya i praktika postroeniya baz dannyx (8izd., Piter, 2003)(ru)(ISBN 5947232758)(600dpi)(K)(T)(799s)_CsDb_.djvu",0,2000-01-01 01:00:00,2016-04-03 02:51:08,872000/bdb470b148304622638a60b68fb05958-g.jpg,,
6945814,Конструкторские базы данных,,,,"Хорафас Д., Легг С.(Chorafas, Legg) ",1990,,Машиностроение,,219,0,Russian,Cs_Computer science/CsDb_Databases/,kolxoz,10,5217009764,,,,,,,,,,,600,,1,,,,,1,3136483,djvu,91554ff77eac74e89d91dace5e257607,,,"Cs_Computer science/CsDb_Databases/Xorafas D., Legg S. (_Chorafas, Legg_) Konstruktorskie bazy dannyx (Mashinostroenie, 1990)(ru)(ISBN 5217009764)(600dpi)(K)(T)(219s)_CsDb_.djvu",0,2000-01-01 01:00:00,2016-04-03 02:51:08,872000/91554ff77eac74e89d91dace5e257607-g.jpg,,
6945815,Логические основы проектирования дискретных устройств,,,,"Закревский А.Д., Поттосин Ю.В., Черемисинова Л.Д. ",2007,,ФМЛ,,594,0,Russian,Cs_Computer science/CsDi_Discrete math/,kolxoz,10,9785922108119,,,,,,,,,,,600,,1,,,,,1,6713688,djvu,dd1b0bf0f2c9ac90fd38c483ae560a47,,,"Cs_Computer science/CsDi_Discrete math/Zakrevskij A.D., Pottosin Yu.V., Cheremisinova L.D. Logicheskie osnovy proektirovaniya diskretnyx ustrojstv (FML, 2007)(ru)(ISBN 9785922108119)(600dpi)(K)(T)(594s)_CsDi_.djvu",0,2000-01-01 01:00:00,2016-04-03 02:51:08,872000/dd1b0bf0f2c9ac90fd38c483ae560a47-g.jpg,,
6945816,Полиномиальная реализация частичных булевых функций и систем,,,,"Закревский А.Д., Торопов Н.Р. ",2001,, ИТК,,201,0,Russian,Cs_Computer science/CsDi_Discrete math/,kolxoz,10,9856453712,,,,,,,,,,Минск,600,,1,,,,,1,4581000,djvu,b02bed400a3b66f9054103b35b7b2a8d,,,"Cs_Computer science/CsDi_Discrete math/Zakrevskij A.D., Toropov N.R. Polinomial#naya realizaciya chastichnyx bulevyx funkcij i sistem (Minsk, ITK, 2001)(ru)(ISBN 9856453712)(600dpi)(K)(T)(201s)_CsDi_.djvu",0,2000-01-01 01:00:00,2016-04-03 02:51:08,872000/b02bed400a3b66f9054103b35b7b2a8d-g.jpg,,
6945817,Дискретный анализ,,Труды ИМ СО РАН  т.27,,Коршунов А.Д. (ред.) ,1994,,,,183,0,Russian,Cs_Computer science/CsDi_Discrete math/,kolxoz,10,5-86134-006-4,,,,,,,,,,,600,,,,,,,1,2496525,djvu,e5bee4b4a15d7d2354395d921d1ef5f6,,,"Cs_Computer science/CsDi_Discrete math/Korshunov A.D. (red.) Diskretnyj analiz (Trudy IM SO RAN, t.27, 1994)(ru)(600dpi)(T)(183s)_CsDi_.djvu",0,2000-01-01 01:00:00,2016-04-03 02:51:08,872000/e5bee4b4a15d7d2354395d921d1ef5f6-g.jpg,,
6945818,Principles of data mining,,Undergraduate topics in computer science,,M  A Bramer ,2007,,Springer,London,353,0,English,Cs_Computer science/CsDm_Data mining/,kolxoz,10,"9781846287664,1846287669,9781846287657,1846287650",,,,,,,,,,,0,,,,,,,1,1571736,pdf,9831b5efeb3810b43888fcb20791e9be,,,"Cs_Computer science/CsDm_Data mining/Bramer M. Principles of data mining (Springer, 2007)(ISBN 1846287650)(O)(353s)_CsDm_.pdf",0,2000-01-01 01:00:00,2016-04-03 02:51:08,872000/9831b5efeb3810b43888fcb20791e9be-d.jpg,,
6945819,Data mining: know it all,,,,Soumen Chakrabarti; et al ,2009,,Elsevier/Morgan Kaufmann Publishers,"Burlington, MA",477,0,English,Cs_Computer science/CsDm_Data mining/,kolxoz,10,"9780123746290,0123746299",,,,,,,,,,,0,,,,,,,1,2447057,pdf,7e44232a4d42d72a5dff93928418f950,,,"Cs_Computer science/CsDm_Data mining/Chakrabarti S., et al. Data mining.. know it all (Elsevier, 2009)(ISBN 9780123746290)(O)(477s)_CsDm_.pdf",0,2000-01-01 01:00:00,2016-04-03 02:51:08,872000/7e44232a4d42d72a5dff93928418f950-d.jpg,,
6945820,"Data matching: concepts and techniques for record linkage, entity resolution, and duplicate detection",,Data-centric systems and applications,,Peter Christen,2012,,Springer,Berlin; New York,279,0,English,Cs_Computer science/CsDm_Data mining,kolxoz,10,"9783642311642,3642311644",,,,,,,10.1007/978-3-642-31164-2,,,,0,,,,1,0,1,1,2906180,pdf,415adec1f7e0ebc06cd8e43aa0e7171e,,,"Cs_Computer science/CsDm_Data mining/Christen P. Data Matching (Springer, 2012)(ISBN 9783642311635)(O)(279s)_CsDm_.pdf",0,2000-01-01 01:00:00,2016-04-03 02:51:08,872000/415adec1f7e0ebc06cd8e43aa0e7171e-d.jpg,,
6945821,Advances in K-means Clustering: a Data Mining Thinking,,Springer theses,,Junjie Wu ,2012,,Springer,Berlin ; New York,187,0,English,Cs_Computer science/CsDm_Data mining/,kolxoz,10,"9783642298073,3642298079",,,,,,,10.1007/978-3-642-29807-3,,,,0,,,,,,,1,2571825,pdf,4f954032fa9d99edbff923d6113364f7,,,"Cs_Computer science/CsDm_Data mining/Wu J. Advances in K-means Clustering.. a Data Mining Thinking (Springer, 2012)(ISBN 9783642298066)(O)(187s)_CsDm_.pdf",0,2000-01-01 01:00:00,2016-04-03 02:51:08,872000/4f954032fa9d99edbff923d6113364f7-d.jpg,,
6945822,"Link mining: Models, algorithms, and applications",,,,Philip S Yu; Jiawei Han; Christos Faloutsos  (eds.),2010,,Springer,New York,600,0,English,Cs_Computer science/CsDm_Data mining/,kolxoz,10,"9781441965158,1441965157",,,,,,,10.1007/978-1-4419-6515-8,,,,0,,,,,,,1,8832757,pdf,63aea97194e960ddd4cd63e756c3172e,,,"Cs_Computer science/CsDm_Data mining/Yu P.S.,  Han J., Faloutsos C. (eds.) Link mining.. Models, algorithms, and applications (Springer, 2010)(ISBN 1441965149)(O)(600s)_CsDm_.pdf",0,2000-01-01 01:00:00,2016-04-03 02:51:08,872000/63aea97194e960ddd4cd63e756c3172e-d.jpg,,
6945823,Logics and models of concurrent systems,,"NATO ASI series., Series F,, Computer and systems sciences ;, no. 13",,Krzysztof R Apt; North Atlantic Treaty Organization. Scientific Affairs Division (ed.),1985,,Springer-Verlag,Berlin ; New York,509,0,English,Cs_Computer science/CsF_Formal methods/,kolxoz,10,"0387151818,9780387151816,3540151818,9783540151814",,,,,,,,,,,600,,,,,,,1,4723853,djvu,aabe05f166bc621585e8c88bc51067db,,,"Cs_Computer science/CsF_Formal methods/Apt K.R. (ed.) Logics and models of concurrent systems (NATO ASI F7, Springer, 1985)(ISBN 0387151818)(600dpi)(T)(509s)_CsF_.djvu",0,2000-01-01 01:00:00,2016-04-03 02:51:08,872000/aabe05f166bc621585e8c88bc51067db-d.jpg,,
6945824,A model for communicating sequential processes,,phd thesis,,Brookes S.D. ,1983,, Oxford,,188,0,English,Cs_Computer science/CsF_Formal methods/,kolxoz,10,,,,,,,,,,,,600,,,,,,,1,999091,djvu,f68ee9e36ebc2aa17e1c8bb4e94edac1,,,"Cs_Computer science/CsF_Formal methods/Brookes S.D. A model for communicating sequential processes (phd thesis, Oxford, 1983)(600dpi)(T)(188s)_CsF_.djvu",0,2000-01-01 01:00:00,2016-04-03 02:51:08,872000/f68ee9e36ebc2aa17e1c8bb4e94edac1-g.jpg,,
6945825,"CafeOBJ report: the language, proof techniques, and methodologies for object-oriented algebraic specification",,"AMAST series in computing, vol. 6",,RaМ†zvan Diaconescu; Kokichi Futatsugi ,1998,,World Scientific,Singapore,196,0,English,Cs_Computer science/CsF_Formal methods/,kolxoz,10,"9810235135,9789810235130",,,,,,,,,,,600,,,,,,,1,1112000,djvu,b67b932c65c95f93491287a8a2c359a3,,,"Cs_Computer science/CsF_Formal methods/Diaconescu R., Futatsugi K. CafeOBJ report.. the language, proof techniques, and methodologies for object-oriented algebraic specification (WS, 1998)(ISBN 9810235135)(600dpi)(T)(196s)_CsF_.djvu",0,2000-01-01 01:00:00,2016-04-03 02:51:08,872000/b67b932c65c95f93491287a8a2c359a3-d.jpg,,
6945826,Automatentheorie und Logik,,eXamen.press,,"Hofmann M., Lange M. ",2011,,Springer,[s.l.],252,0,German,Cs_Computer science/CsF_Formal methods/,kolxoz,10,"3642180892,9783642180897,9783642180903,3642180906",,,,,,,10.1007/978-3-642-18090-3,,,,0,,,,,,,1,1696154,pdf,867142ffabc93ef2671e671681f79cd1,,,"Cs_Computer science/CsF_Formal methods/Hofmann M., Lange M. Automatentheorie und Logik (de)(Springer, 2011)(ISBN 9783642180897)(O)(252s)_CsF_.pdf",0,2000-01-01 01:00:00,2016-04-03 02:51:08,872000/867142ffabc93ef2671e671681f79cd1-d.jpg,,
6945827,The Correctness-by-Construction Approach to Programming,,,,Derrick Kourie; Bruce W Watson ,2012,,Springer,Berlin ; New York,273,0,English,Cs_Computer science/CsF_Formal methods/,kolxoz,10,"9783642279195,3642279198",,,,,,,10.1007/978-3-642-27919-5,,,,0,,,,,,,1,1775839,pdf,aecf4c6fd93c8993e86bd1de9cedb2dc,,,"Cs_Computer science/CsF_Formal methods/Kourie D.G., Watson B.W. The Correctness-by-Construction Approach to Programming (Springer, 2012)(ISBN 9783642279188)(O)(273s)_CsF_.pdf",0,2000-01-01 01:00:00,2016-04-03 02:51:08,872000/aecf4c6fd93c8993e86bd1de9cedb2dc-d.jpg,,
6945828,Temporal verification of reactive systems: progress,,,,"Manna Z., Pnueli A. ",1996,,web draft,,247,0,English,Cs_Computer science/CsF_Formal methods/,kolxoz,10,,,,,,,,,,,,0,,,,,,,1,1466543,pdf,b26cf4a5eee89b1d7c199f9587f1ca6c,,,"Cs_Computer science/CsF_Formal methods/Manna Z., Pnueli A. Temporal verification of reactive systems.. progress (web draft, 1996)(O)(247s)_CsF_.pdf",0,2000-01-01 01:00:00,2016-04-03 02:51:08,872000/b26cf4a5eee89b1d7c199f9587f1ca6c-g.jpg,,
6945829,The [pi]-calculus : a theory of mobile processes,,,,Davide Sangiorgi; David Walker ,2001,,Cambridge University Press,Cambridge [England] ; New York,592,0,English,Cs_Computer science/CsF_Formal methods/,kolxoz,10,"0521781779,9780521781770",,,,,,,,,,,600,,,,,,,1,5929493,djvu,15b79243de412213a7d71a80004629b4,,,"Cs_Computer science/CsF_Formal methods/Sangiorgi D., Walker D. The pi-calculus.. a theory of mobile processes (CUP, 2001)(ISBN 0521781779)(600dpi)(T)(592s)_CsF_.djvu",0,2000-01-01 01:00:00,2016-04-03 02:51:08,872000/15b79243de412213a7d71a80004629b4-d.jpg,,
6945830,Foundations of Algebraic Specification and Formal Software Development,,Monographs in theoretical computer science,,D Sannella; Andrzej Tarlecki ,2011,,Springer,Berlin ; New York,594,0,English,Cs_Computer science/CsF_Formal methods/,kolxoz,10,"9783642173363,3642173365",,,,,,,10.1007/978-3-642-17336-3,,,,0,,,,,,,1,3047991,pdf,fef62bad8ec196267572083dfa5c9fb4,,,"Cs_Computer science/CsF_Formal methods/Sannella D., Tarlecki A. Foundations of Algebraic Specification and Formal Software Development (Springer, 2011)(ISBN 3642173357)(O)(594s)_CsF_.pdf",0,2000-01-01 01:00:00,2016-04-03 02:51:08,872000/fef62bad8ec196267572083dfa5c9fb4-d.jpg,,
6945831,Automated theorem proving in software engineering,,,,Johann M Schumann ,2001,,Springer,Berlin ; New York,244,0,English,Cs_Computer science/CsF_Formal methods/,kolxoz,10,"3540679898,9783540679899,3642087590,9783642087592",,,,,,,,,,,600,,,,,,,1,2767699,djvu,bbeb05edc5fa7710e239d052219e7da9,,,"Cs_Computer science/CsF_Formal methods/Schumann J.M. Automated theorem proving in software engineering (Springer, 2001)(ISBN 3540679898)(600dpi)(T)(244s)_CsF_.djvu",0,2000-01-01 01:00:00,2016-04-03 02:51:08,872000/bbeb05edc5fa7710e239d052219e7da9-d.jpg,,
6945832,Toward zero-defect programming,,,,Allan M Stavely ,1999,,Addison-Wesley,"Reading, Mass",258,0,English,Cs_Computer science/CsF_Formal methods/,kolxoz,10,"0201385953,9780201385953",,,,,,,,,,,600,,,,,,,1,1864049,djvu,8a49b91d0de76e6c846ff5c4fa72aad9,,,"Cs_Computer science/CsF_Formal methods/Stavely A.M. Toward zero-defect programming (AW, 1999)(ISBN 0201385953)(600dpi)(T)(258s)_CsF_.djvu",0,2000-01-01 01:00:00,2016-04-03 02:51:08,872000/8a49b91d0de76e6c846ff5c4fa72aad9-d.jpg,,
6945833,Formal development of a network-centric rtos : software engineering for reliable embedded systems,,,,"Verhulst E., et al. ",2011,,Springer,Berlin,238,0,English,Cs_Computer science/CsF_Formal methods/,kolxoz,10,"1441997350,9781441997357,9781441997364,1441997369",,,,,,,10.1007/978-1-4419-9736-4,,,,0,,,,,,,1,3079714,pdf,87d1533b1a43e9d20e78622bcdad4d09,,,"Cs_Computer science/CsF_Formal methods/Verhulst E., et al. Formal development of a network-centric RTOS (Springer, 2011)(ISBN 1441997350)(O)(238s)_CsF_.pdf",0,2000-01-01 01:00:00,2016-04-03 02:51:08,872000/87d1533b1a43e9d20e78622bcdad4d09-d.jpg,,
6945834,Handbook of theoretical computer science. Vol.A. Algorithms and complexity,,,,van Leeuwen J. (ed.) ,1990,,Elsevier,,1011,0,English,Cs_Computer science/CsF_Formal methods/,kolxoz,10,"0444880755,9780444880758,0444880712,9780444880710,0444880747,9780444880741,0262220407,9780262220408,0262220385,9780262220385,0262220393,9780262220392",,,,,,,,,,,600,,,,,,,1,12816237,djvu,1cc164a9ecdb5f55dd34bfc133af8d7c,,,"Cs_Computer science/CsF_Formal methods/van Leeuwen J. (ed.) Handbook of theoretical computer science. Vol.A. Algorithms and complexity (Elsevier, 1990)(600dpi)(ISBN 0444880712)(T)(1011s)_CsF_.djvu",0,2000-01-01 01:00:00,2016-04-03 02:51:08,,,
6945835,Neural networks and qualitative physics: a viability approach,,,,Jean Pierre Aubin ,1996,,Cambridge University Press,Cambridge ; New York,302,0,English,"Cs_Computer science/CsGn_Genetic, neural/",kolxoz,10,"0521445329,9780521445320,9781107402843,1107402840",,,,,,,,,,,300,,,,,,,1,1941873,djvu,a1c611921bfa7f957a1759f1ba681e3c,,,"Cs_Computer science/CsGn_Genetic, neural/Aubin J.-P. Neural networks and qualitative physics.. a viability approach (CUP, 1996)(ISBN 0521445329)(T)(O)(302s)_CsGn_.djvu",0,2000-01-01 01:00:00,2016-04-03 02:51:08,872000/a1c611921bfa7f957a1759f1ba681e3c-d.jpg,,
6945836,Data mining with neural networks : solving business problems--from application development to decision support,,,,Joseph P Bigus ,1996,,McGraw-Hill,New York,237,0,English,"Cs_Computer science/CsGn_Genetic, neural/",kolxoz,10,"0070057796,9780070057791",,,,,,,,,,,300,,,,,,,1,2723323,djvu,7215fb7e6772f649f44a9e5b828bb22a,,,"Cs_Computer science/CsGn_Genetic, neural/Bigus J.P. Data mining with neural networks (MGH, 1996)(ISBN 0070057796)(T)(237s)_CsGn_.djvu",0,2000-01-01 01:00:00,2016-04-03 02:51:08,872000/7215fb7e6772f649f44a9e5b828bb22a-d.jpg,,
6945837,Computer simulation in brain science,,,,Cotterill R.M.J. (ed.) ,1988,,Cambridge University Press,Cambridge ; New York,583,0,English,"Cs_Computer science/CsGn_Genetic, neural/",kolxoz,10,"0521341795,9780521341790,9780521061186,0521061180",,,,,,,,,,,300,,,,,,,1,4539078,djvu,14ff702814cbb076b096a0082ac0687b,,,"Cs_Computer science/CsGn_Genetic, neural/Cotterill R.M.J. (ed.) Computer simulation in brain science (CUP, 1988)(ISBN 9780521341790)(T)(O)(583s)_CsGn_.djvu",0,2000-01-01 01:00:00,2016-04-03 02:51:08,872000/14ff702814cbb076b096a0082ac0687b-d.jpg,,
6945838,"Neural networks, algorithms, applications, and programming techniques",,Computation and neural systems series,,James A Freeman; David M Skapura ,1991,,Addison-Wesley,"Reading, Mass",414,0,English,"Cs_Computer science/CsGn_Genetic, neural/",kolxoz,10,"0201513765,9780201513769,0201548550,9780201548556",,,,,,,,,,,300,,1,,,,,1,4113782,djvu,27ddf4c470d27c7e3c32815057372593,,,"Cs_Computer science/CsGn_Genetic, neural/Freeman J.A., Skapura D.M. Neural networks, algorithms, applications, and programming techniques (AW, 1991)(ISBN 0201513765)(T)(S)(414s)_CsGn_.djvu",0,2000-01-01 01:00:00,2016-04-03 02:51:08,872000/27ddf4c470d27c7e3c32815057372593-d.jpg,,
6945839,Introduction to the theory of neural computation,,"Santa Fe Institute studies in the sciences of complexity., Lecture notes ;, v. 1",,John Hertz; Anders Krogh; Richard G Palmer ,1991,,Addison-Wesley Pub. Co,"Redwood City, Calif",338,0,English,"Cs_Computer science/CsGn_Genetic, neural/",kolxoz,10,"0201503956,9780201503951,0201515601,9780201515602",,,,,,,,,,,400,,,,,,,1,3834014,djvu,bcdc6375bfaa1755244b115b38e51bc9,,,"Cs_Computer science/CsGn_Genetic, neural/Hertz J., Krogh A., Palmer R.G. Introduction to the theory of neural computation (AW, 1991)(ISBN 0201515601)(400dpi)(T)(338s)_CsGn_.djvu",0,2000-01-01 01:00:00,2016-04-03 02:51:08,872000/bcdc6375bfaa1755244b115b38e51bc9-d.jpg,,
6945840,An introduction to the modeling of neural networks,,"Collection AleМЃa-Saclay, 2",,Pierre Peretto ,1992,,Cambridge University Press,Cambridge ; New York,492,0,English,"Cs_Computer science/CsGn_Genetic, neural/",kolxoz,10,"0521414512,9780521414517,0521424879,9780521424875",,,,,,,,,,,300,,,,,,,1,4096515,djvu,56a1f2f150488b572c74ff0f28103dfe,,,"Cs_Computer science/CsGn_Genetic, neural/Peretto P. An introduction to the modeling of neural networks (CUP, 1992)(ISBN 0521414512)(T)(492s)_CsGn_.djvu",0,2000-01-01 01:00:00,2016-04-03 02:51:08,,,
6945841,Основные концепции нейронных сетей,,,,Каллан Р.(Callan R.) ,2001,,Вильямс,,291,0,Russian,"Cs_Computer science/CsGn_Genetic, neural/",kolxoz,10,584590210X,,,,,,,,,,,300,,,,,,,1,4961853,djvu,6bf7c867c412f0fb901ef5342466550a,,,"Cs_Computer science/CsGn_Genetic, neural/Kallan R. (_Callan R._) Osnovnye koncepcii nejronnyx setej (Vil#yams, 2001)(ISBN 584590210X)(ru)(T)(291s)_CsGn_.djvu",0,2000-01-01 01:00:00,2016-04-03 02:51:08,872000/6bf7c867c412f0fb901ef5342466550a-g.jpg,,
6945842,Introduction to Coding Theory,,,,Ron Roth ,2006,,Cambridge University Press,Cambridge,578,0,English,Cs_Computer science/CsIn_Information theory/,kolxoz,10,"0521845041,9780521845045",,,,,,,,,,,0,,,,,,,1,2588382,pdf,ff1a9b461c8d2f0e84dd6609bf6f560d,,,"Cs_Computer science/CsIn_Information theory/Roth R. Introduction to Coding Theory (CUP, 2006)(ISBN 9780521845045)(O)(578s)_CsIn_.pdf",0,2000-01-01 01:00:00,2016-04-03 02:51:08,872000/ff1a9b461c8d2f0e84dd6609bf6f560d-d.jpg,,
6945843,Принципы цифровой связи и кодирования,,,,"Витерби А.Д., Омура Дж.К.(Viterbi,Omura) ",1982,,РиС,,537,0,Russian,Cs_Computer science/CsIn_Information theory/,kolxoz,10,,,,,,,,,,,,600,,1,,,,,1,8627992,djvu,55d9e602ea998dcf8e5349aa6f973953,,,"Cs_Computer science/CsIn_Information theory/Viterbi A.D., Omura Dzh.K. (_Viterbi,Omura_) Principy cifrovoj svyazi i kodirovaniya (RiS, 1982)(ru)(600dpi)(K)(T)(537s)_CsIn_.djvu",0,2000-01-01 01:00:00,2016-04-03 02:51:08,872000/55d9e602ea998dcf8e5349aa6f973953-g.jpg,,
6945844,Handbook of medical imaging : processing and analysis,,Academic Press series in biomedical engineering,,Bankman I.N. (ed.) ,2000,,Academic Press,"San Diego, CA",910,0,English,Cs_Computer science/CsIp_Image processing/,kolxoz,10,"9780120777907,0120777908",,,,,,,,,,,0,,,,,,,1,21773087,pdf,8ec2c337e6d1983512d2c787b5be1139,,,"Cs_Computer science/CsIp_Image processing/Bankman I.N. (ed.) Handbook of medical imaging (AP, 2000)(ISBN 0120777908)(O)(910s)_CsIp_.pdf",0,2000-01-01 01:00:00,2016-04-03 02:51:08,872000/8ec2c337e6d1983512d2c787b5be1139-d.jpg,,
6945845,Visual Indexing and Retrieval,,SpringerBriefs in computer science,,Jenny Benois-Pineau; FreМЃdeМЃric Precioso; Matthieu Cord ,2012,,Springer,"New York, NY",113,0,English,Cs_Computer science/CsIp_Image processing/,kolxoz,10,"9781461435884,1461435889",,,,,,,10.1007/978-1-4614-3588-4,,,,0,,,,,,,1,1545867,pdf,8592416924e5dea4c46ceef2238dbbab,,,"Cs_Computer science/CsIp_Image processing/Benois-Pineau J., Precioso F., Cord M. Visual Indexing and Retrieval (Springer, 2012)(ISBN 9781461435877)(O)(113s)_CsIp_.pdf",0,2000-01-01 01:00:00,2016-04-03 02:51:08,872000/8592416924e5dea4c46ceef2238dbbab-d.jpg,,
6945846,Vision with direction : a systematic introduction to image processing and computer vision,,,,Josef Bigun ,2006,,Springer,Berlin [etc.],395,0,English,Cs_Computer science/CsIp_Image processing/,kolxoz,10,"3540273220,9783540273226",,,,,,,,,,,0,,,,,,,1,6417518,pdf,68c9092855a49ac2c0caea6bd4f4447e,,,"Cs_Computer science/CsIp_Image processing/Bigun J. Vision with direction (Springer, 2006)(ISBN 3540273220)(395s)_CsIp_.pdf",0,2000-01-01 01:00:00,2016-04-03 02:51:08,872000/68c9092855a49ac2c0caea6bd4f4447e-d.jpg,,
6945847,Handbook of image and video processing,,,,Bovik A. (ed.) ,2005,2ed.,Elsevier Academic Press,"Amsterdam ; Boston, MA",1429,0,English,Cs_Computer science/CsIp_Image processing/,kolxoz,10,"9780121197926,0121197921",,,,,,,,,,,300,1,,,,,,1,37540741,djvu,373f11fb82e2f4689e59952d736bb9fc,,,"Cs_Computer science/CsIp_Image processing/Bovik A. (ed.) Handbook of image and video processing (2ed., Elsevier, 2005)(ISBN 0121197921)(T)(C)(O)(1429s)_CsIp_.djvu",0,2000-01-01 01:00:00,2016-04-03 02:51:08,872000/373f11fb82e2f4689e59952d736bb9fc-d.jpg,,
6945848,Principles of digital image processing. Core algorithms,,Undergraduate topics in computer science,,Wilhelm Burger; Mark Burge ,2009,,Springer,London,341,0,English,Cs_Computer science/CsIp_Image processing/,kolxoz,10,"9781848001954,1848001959",,,,,,,10.1007/978-1-84800-195-4,,,,0,,,,,,,1,8361001,pdf,6ccc0788311e8418cdb9bd05394153c2,,,"Cs_Computer science/CsIp_Image processing/Burger W., Burge M.J. Principles of digital image processing. Core algorithms (Springer, 2009)(ISBN 1848001940)(O)(341s)_CsIp_.pdf",0,2000-01-01 01:00:00,2016-04-03 02:51:08,872000/6ccc0788311e8418cdb9bd05394153c2-d.jpg,,
6945849,Image processing for remote sensing,,,,Chen C.H. (ed.) ,2008,,CRC Press/Taylor &  Francis Group,Boca Raton,418,0,English,Cs_Computer science/CsIp_Image processing/,kolxoz,10,"9781420066647,1420066641",,,,,,,,,,,0,,,,,,,1,13390180,pdf,3fbfbf129c683077d306b59e544a474f,,,"Cs_Computer science/CsIp_Image processing/Chen C.H. (ed.) Image processing for remote sensing (CRC, 2008)(ISBN 9781420066647)(O)(418s)_CsIp_.pdf",0,2000-01-01 01:00:00,2016-04-03 02:51:08,,,
6945850,Computer vision-guided virtual craniofacial surgery : a graph-theoretic and statistical perspective,,Advances in computer vision and pattern recognition,,Ananda S Chowdhury; S  M Bhandarkar ,2011,,Springer,London ; New York,191,0,English,Cs_Computer science/CsIp_Image processing/,kolxoz,10,"9780857292964,085729296X",,,,,,,10.1007/978-0-85729-296-4,,,,0,,,,,,,1,3051696,pdf,ba57719feb065f7e6ada719f17dd64b4,,,"Cs_Computer science/CsIp_Image processing/Chowdhury A., Bhandarkar S. Computer vision-guided virtual craniofacial surgery (Springer, 2011)(ISBN 9780857292957)(O)(191s)_CsIp_.pdf",0,2000-01-01 01:00:00,2016-04-03 02:51:08,,,
6945851,Expanding the Frontiers of Visual Analytics and Visualization,,,,"Dill J., et al. (eds.) ",2012,,Springer,London ; New York,555,0,English,Cs_Computer science/CsIp_Image processing/,kolxoz,10,"9781447128045,1447128044",,,,,,,10.1007/978-1-4471-2804-5,,,,0,,,,,,,1,17065815,pdf,3926fe9f4f27c0d2a26d985c5bed2a8c,,,"Cs_Computer science/CsIp_Image processing/Dill J., et al. (eds.) Expanding the Frontiers of Visual Analytics and Visualization (Springer, 2012)(ISBN 9781447128038)(O)(555s)_CsIp_.pdf",0,2000-01-01 01:00:00,2016-04-03 02:51:08,,,
6945852,Introduction to the mathematics of medical imaging,,,,Charles L Epstein ,2008,2ed.,Society for Industrial and Applied Mathematics,"Philadelphia, PA",793,0,English,Cs_Computer science/CsIp_Image processing/,kolxoz,10,"9780898716429,089871642X",,,,,,,,,,,0,,,,,,,1,7945619,pdf,727a52249a26b85db3bcf6c0cebcaf66,,,"Cs_Computer science/CsIp_Image processing/Epstein C.L. Introduction to the mathematics of medical imaging (2ed., SIAM, 2008)(ISBN 089871642X)(793s)_CsIp_.pdf",0,2000-01-01 01:00:00,2016-04-03 02:51:08,872000/727a52249a26b85db3bcf6c0cebcaf66-d.jpg,,
6945853,"Introduction to the mathematics of computed tomography, in: Inside out. Uhlmann G.",,,,Faridani A. (ed.) ,2002,draft, CUP,,61,0,English,Cs_Computer science/CsIp_Image processing/,kolxoz,10,521824699,,,,,,,,,,,0,,,,,,,1,458430,pdf,997b16274d2902922c593395e873e32b,,,"Cs_Computer science/CsIp_Image processing/Faridani A. Introduction to the mathematics of computed tomography, in.. Inside out. Uhlmann G. (ed.) (draft, CUP, 2002)(0521824699)(61s)_CsIp_.pdf",0,2000-01-01 01:00:00,2016-04-03 02:51:08,872000/997b16274d2902922c593395e873e32b-g.jpg,,
6945854,The mathematical structure of raster graphics,,,,Eugene L Fiume ,1989,,Academic Press,Boston,236,0,English,Cs_Computer science/CsIp_Image processing/,kolxoz,10,"0122579607,9780122579608",,,,,,,,,,,600,,,,,,,1,2380931,djvu,7fc0bcd3677e0c4e1109c0a07e3f7abe,,,"Cs_Computer science/CsIp_Image processing/Fiume E.L. The mathematical structure of raster graphics (AP, 1989)(ISBN 0122579607)(600dpi)(T)(O)(236s)_CsIp_.djvu",0,2000-01-01 01:00:00,2016-04-03 02:51:08,,,
6945855,"Morphs, mallards, and montages: computer-aided imagination",,,,Andrew S Glassner ,2004,,A K Peters,"Wellesley, Mass",332,0,English,Cs_Computer science/CsIp_Image processing/,kolxoz,10,"1568812310,9781568812311",,,,,,,,,,,0,,,,,,,1,14884747,pdf,2fcf60845504d7a209debf8ae8a730a4,,,"Cs_Computer science/CsIp_Image processing/Glassner A. Morphs, mallards, and montages.. computer-aided imagination (A.K.Peters, 2004)(ISBN 1568812310)(O)(332s)_CsIp_.pdf",0,2000-01-01 01:00:00,2016-04-03 02:51:08,872000/2fcf60845504d7a209debf8ae8a730a4-d.jpg,,
6945856,"Image registration. Principles, tools and methods",,Advances in Computer Vision and Pattern Recognition,,Goshtasby A. ,2012,,Springer London,London,460,0,English,Cs_Computer science/CsIp_Image processing/,kolxoz,10,"9781447124573,144712457X,9781447124580,1447124588",,,,,,,10.1007/978-1-4471-2458-0,,,,0,,,,,,,1,8109353,pdf,614f7c799cb852bb143b9c9e5b6d0a47,,,"Cs_Computer science/CsIp_Image processing/Goshtasby A. Image registration. Principles, tools and methods (Springer, 2012)(ISBN 9781447124573)(O)(460s)_CsIp_.pdf",0,2000-01-01 01:00:00,2016-04-03 02:51:08,872000/614f7c799cb852bb143b9c9e5b6d0a47-d.jpg,,
6945857,Computer vision and applications,,,,"Jaehne B., Haussecker H. (eds.) ",2000,,Academic Press,"San Diego, CA, [etc.]",702,0,English,Cs_Computer science/CsIp_Image processing/,kolxoz,10,"0123797772,9780123797773",,,,,,,,,,,0,,,,,,,1,21313694,pdf,21fb4e8134b525dd2748c5ec737790c0,,,"Cs_Computer science/CsIp_Image processing/Jaehne B., Haussecker H. (eds.) Computer vision and applications (AP, 2000)(ISBN 0123797772)(O)(702s)_CsIp_.pdf",0,2000-01-01 01:00:00,2016-04-03 02:51:08,872000/21fb4e8134b525dd2748c5ec737790c0-d.jpg,,
6945858,Introduction to biometrics,,,,Anil K Jain; Arun A Ross; Karthik Nandakumar ,2011,,Springer,New York,328,0,English,Cs_Computer science/CsIp_Image processing/,kolxoz,10,"9780387773261,0387773266",,,,,,,10.1007/978-0-387-77326-1,,,,0,,,,,,,1,13889279,pdf,a6d666a4bd5a4720c64cfa8668ad973c,,,"Cs_Computer science/CsIp_Image processing/Jain A.K., Ross A.A., Nandakumar K. Introduction to biometrics (Springer, 2011)(ISBN 9780387773254)(O)(328s)_CsIp_.pdf",0,2000-01-01 01:00:00,2016-04-03 02:51:08,872000/a6d666a4bd5a4720c64cfa8668ad973c-d.jpg,,
6945859,Visualization in medicine and life sciences II,,Mathematics and visualization,,"Linsen, Hagen, Hamann. (eds.) ",2012,,Springer,Berlin ; New York,299,0,English,Cs_Computer science/CsIp_Image processing/,kolxoz,10,"9783642216084,3642216080",,,,,,,10.1007/978-3-642-21608-4,,,,0,1,,,,,,1,7871966,pdf,1a2556a694a564477f049de26d390aa4,,,"Cs_Computer science/CsIp_Image processing/Linsen, Hagen, Hamann. (eds.) Visualization in medicine and life sciences II (Springer, 2012)(ISBN 9783642216077)(C)(O)(299s)_CsIp_.pdf",0,2000-01-01 01:00:00,2016-04-03 02:51:08,872000/1a2556a694a564477f049de26d390aa4-d.jpg,,
6945860,Robust Motion Detection in Real-Life Scenarios,,,,"Martn̕ez-martn̕, Ester; Pobil, ℓngel P. Del ",2012,,Springer-Verlag New York Inc,,117,0,English,Cs_Computer science/CsIp_Image processing/,kolxoz,10,"9781447142157,1447142152",,,,,,,10.1007/978-1-4471-4216-4,,,,0,,,,,,,1,4325503,pdf,80a4d2d1db33a24c240f860d0934873f,,,"Cs_Computer science/CsIp_Image processing/Martines-Martin E., del Pobil P. Robust Motion Detection in Real-Life Scenarios (Springer, 2012)(ISBN 9781447142157)(O)(117s)_CsIp_.pdf",0,2000-01-01 01:00:00,2016-04-03 02:51:08,872000/80a4d2d1db33a24c240f860d0934873f-d.jpg,,
6945861,3D Video and Its Applications,,,,"Matsuyama T., Nobuhara S., Takai T., Tung T. ",2012,,Springer,London,353,0,English,Cs_Computer science/CsIp_Image processing/,kolxoz,10,"9781447141204,1447141202,1447141199,9781447141198",,,,,,,10.1007/978-1-4471-4120-4,,,,0,,,,,,,1,10931732,pdf,828f9377b425fe9fd2746a08f9f52aa9,,,"Cs_Computer science/CsIp_Image processing/Matsuyama T., Nobuhara S., Takai T., Tung T. 3D Video and Its Applications (Springer, 2012)(ISBN 9781447141198)(O)(353s)_CsIp_.pdf",0,2000-01-01 01:00:00,2016-04-03 02:51:08,872000/828f9377b425fe9fd2746a08f9f52aa9-d.jpg,,
6945862,A computational framework for segmentation and grouping,,,,"Medioni G., et al. ",2000,,Elsevier,,282,0,English,Cs_Computer science/CsIp_Image processing/,kolxoz,10,44450353,,,,,,,,,,,300,1,,,,,,1,6789900,djvu,fb69a43ab5dc85316ebfe75fdadc33ec,,,"Cs_Computer science/CsIp_Image processing/Medioni G., et al. A computational framework for segmentation and grouping (Elsevier, 2000)(ISBN 044450353)(C)(T)(282s)_CsIp_.djvu",0,2000-01-01 01:00:00,2016-04-03 02:51:08,872000/fb69a43ab5dc85316ebfe75fdadc33ec-g.jpg,,
6945863,Feature extraction in computer vision and image processing,,,,Mark S Nixon; Alberto S Aguado ,2002,,Newnes,Oxford,360,0,English,Cs_Computer science/CsIp_Image processing/,kolxoz,10,"0750650788,9780750650786",,,,,,,,,,,0,,,,,,,1,3448073,pdf,038548c6bfd62d25c8d7979031f94736,,,"Cs_Computer science/CsIp_Image processing/Nixon M.S., Aguado A.S. Feature extraction in computer vision and image processing (Newnes, 2002)(ISBN 0750650788)(O)(360s)_CsIp_.pdf",0,2000-01-01 01:00:00,2016-04-03 02:51:08,872000/038548c6bfd62d25c8d7979031f94736-d.jpg,,
6945864,"3D Imaging, Analysis and Applications",,,,Nick Pears; Yonghuai Liu; Peter Bunting  (eds.),2012,,Springer,London ; New York,506,0,English,Cs_Computer science/CsIp_Image processing/,kolxoz,10,"9781447140634,144714063X",,,,,,,10.1007/978-1-4471-4063-4,,,,0,,,,,,,1,12519962,pdf,b22f956233e2eccae0cdded6d40d0b24,,,"Cs_Computer science/CsIp_Image processing/Pears N., et al. (eds.) 3D Imaging, Analysis and Applications (Springer, 2012)(ISBN 9781447140627)(O)(506s)_CsIp_.pdf",0,2000-01-01 01:00:00,2016-04-03 02:51:08,872000/b22f956233e2eccae0cdded6d40d0b24-d.jpg,,
6945865,The image processing handbook,,,,John C Russ ,2007,5ed.,CRC/Taylor and Francis,Boca Raton,836,0,English,Cs_Computer science/CsIp_Image processing/,kolxoz,10,"0849372542,9780849372544",,,,,,,,,,,600,1,,,,,,1,33966200,djvu,4a653fd8cae56f93156e0b7b947f0767,,,"Cs_Computer science/CsIp_Image processing/Russ J. The image processing handbook (5ed., CRC, 2007)(ISBN 0849372542)(600dpi)(T)(C)(O)(836s)_CsIp_.djvu",0,2000-01-01 01:00:00,2016-04-03 02:51:08,872000/4a653fd8cae56f93156e0b7b947f0767-d.jpg,,
6945866,Fundamentals of Computer Vision,,,,Shah M. ,1997,draft,,,133,0,English,Cs_Computer science/CsIp_Image processing/,kolxoz,10,,,,,,,,,,,,0,,,,,,,1,1923985,pdf,5c018b180d829011481a0795d839f903,,,"Cs_Computer science/CsIp_Image processing/Shah M. Fundamentals of Computer Vision (draft, 1997)(133s)_CsIp_.pdf",0,2000-01-01 01:00:00,2016-04-03 02:51:08,872000/5c018b180d829011481a0795d839f903-g.jpg,,
6945867,Advanced Algorithmic Approaches to Medical Image Segmentation,,,,"Suri J.S., et al. (eds.) ",2002,,Springer,[S.l.],661,0,English,Cs_Computer science/CsIp_Image processing/,kolxoz,10,"1447110439,9781447110439",,,,,,,10.1007/978-0-85729-333-6,,,,600,1,,,,,,1,11032261,djvu,78280534d4f04159ca8c64f1cf8160ea,,,"Cs_Computer science/CsIp_Image processing/Suri J.S., et al. (eds.) Advanced Algorithmic Approaches to Medical Image Segmentation (Springer, 2002)(ISBN 9781447110439)(600dpi)(T)(C)(O)(661s)_CsIp_.djvu",0,2000-01-01 01:00:00,2016-04-03 02:51:08,,,
6945868,Advanced Algorithmic Approaches to Medical Image Segmentation,,,,"Suri J.S., et al. (eds.) ",2002,,Springer,[S.l.],661,0,English,Cs_Computer science/CsIp_Image processing/,kolxoz,10,"1447110439,9781447110439",,,,,,,10.1007/978-0-85729-333-6,,,,0,,,,,,,1,19927499,pdf,77913029ef921def0661b302e2e5243d,,,"Cs_Computer science/CsIp_Image processing/Suri J.S., et al. (eds.) Advanced Algorithmic Approaches to Medical Image Segmentation (Springer, 2002)(ISBN 9781447110439)(O)(661s)_CsIp_.pdf",0,2000-01-01 01:00:00,2016-04-03 02:51:08,,,
6945869,Fundamentals of Digital Imaging,,,,"Trussell H.J., Vrhel M.J. ",2008,,Cambridge University Press,Cambridge,552,0,English,Cs_Computer science/CsIp_Image processing/,kolxoz,10,"9780521868532,052186853X",,,,,,,,,,,600,1,,,,,,1,8952868,djvu,42febff69a8dcfe4c0cc22a33c6de79d,,,"Cs_Computer science/CsIp_Image processing/Trussell H.J., Vrhel M.J. Fundamentals of Digital Imaging (CUP, 2008)(ISBN 052186853X)(600dpi)(T)(C)(O)(552s)_CsIp_.djvu",0,2000-01-01 01:00:00,2016-04-03 02:51:08,872000/42febff69a8dcfe4c0cc22a33c6de79d-d.jpg,,
6945870,Multispectral satellite image understanding : from land classification to building and road detection,,Advances in computer vision and pattern recognition,,Cem Ünsalan; Kim L Boyer ,2011,,Springer,London ; New York,203,0,English,Cs_Computer science/CsIp_Image processing/,kolxoz,10,"9780857296672,0857296671",,,,,,,10.1007/978-0-85729-667-2,,,,0,1,,,,,,1,6546817,pdf,0c946ce9ce220eaa26ebb01fe3527b5b,,,"Cs_Computer science/CsIp_Image processing/Unsalan C., Boyer K.L. Multispectral satellite image understanding (Springer, 2011)(ISBN 9780857296665)(C)(O)(203s)_CsIp_.pdf",0,2000-01-01 01:00:00,2016-04-03 02:51:08,872000/0c946ce9ce220eaa26ebb01fe3527b5b-d.jpg,,
6945871,Unconstrained face recognition,,"International series on biometrics, v. 5",,S  Kevin Zhou; Rama Chellappa; Wenyi Zhao ,2006,,Springer,New York ; London,243,0,English,Cs_Computer science/CsIp_Image processing/,kolxoz,10,"9780387294865,0387294864,0387264078,9780387264073",,,,,,,,,,,300,,1,,,,,1,2963367,djvu,be5315bb8c3813e9d57aca9123c7f45b,,,"Cs_Computer science/CsIp_Image processing/Zhou S.K., Chellappa R., Zhao W. Unconstrained face recognition (Springer, 2006)(ISBN 0387264078)(S)(T)(243s)_CsIp_.djvu",0,2000-01-01 01:00:00,2016-04-03 02:51:08,872000/be5315bb8c3813e9d57aca9123c7f45b-d.jpg,,
6945872,Восстановление изображений,,,,"Василенко Г.И., Тараторин А.М. ",1986,,РиС,,303,0,Russian,Cs_Computer science/CsIp_Image processing/,kolxoz,10,,,,,,,,,,,,600,,1,,,,,1,4729558,djvu,44a53b6916178501b518be1920e912e1,,,"Cs_Computer science/CsIp_Image processing/Vasilenko G.I., Taratorin A.M. Vosstanovlenie izobrazhenij (RiS, 1986)(ru)(600dpi)(K)(T)(O)(303s)_CsIp_.djvu",0,2000-01-01 01:00:00,2016-04-03 02:51:08,872000/44a53b6916178501b518be1920e912e1-g.jpg,,
6945873,Распознавание образов: состояние и перспективы,,,,"Верхаген К., и др.(Verhagen) ",1985,,РиС,,105,0,Russian,Cs_Computer science/CsIp_Image processing/,kolxoz,10,,,,,,,,,,,,600,,1,,,,,1,1754103,djvu,c40827353d9d71c095232081f2074ec6,,,"Cs_Computer science/CsIp_Image processing/Verhagen K., i dr. (_Verhagen_) Raspoznavanie obrazov.. sostoyanie i perspektivy (RiS, 1985)(ru)(600dpi)(K)(T)(O)(105s)_CsIp_.djvu",0,2000-01-01 01:00:00,2016-04-03 02:51:08,872000/c40827353d9d71c095232081f2074ec6-g.jpg,,
6945874,Обработка и анализ изображений в задачах машинного зрения ,,,,"Визильтер Ю.В., и др. ",2010,,Физматкнига,,689,0,Russian,Cs_Computer science/CsIp_Image processing/,kolxoz,10,9785891552012,,,,,,,,,,нет с443,300,,1,,,,,1,13723055,djvu,c112e5f478784966bad2dd989d2ae4a9,,,"Cs_Computer science/CsIp_Image processing/Vizil#ter Yu.V., i dr. Obrabotka i analiz izobrazhenij v zadachax mashinnogo zreniya (net s443)(Fizmatkniga, 2010)(ru)(ISBN 9785891552012)(K)(T)(689s)_CsIp_.djvu",0,2000-01-01 01:00:00,2016-04-03 02:51:08,872000/c112e5f478784966bad2dd989d2ae4a9-g.jpg,,
6945875,Моделирование и обработка изображений,,,,Ежова К.В. ,2009,,СПбНИУ ИТМО,,95,0,Russian,Cs_Computer science/CsIp_Image processing/,kolxoz,10,,,,,,,,,,,,0,,,,,,,1,2910923,pdf,33cd2277520c738e8416f284fd55da47,,,"Cs_Computer science/CsIp_Image processing/Ezhova K.V. Modelirovanie i obrabotka izobrazhenij (SPbNIU ITMO, 2009)(ru)(O)(95s)_CsIp_.pdf",0,2000-01-01 01:00:00,2016-04-03 02:51:08,872000/33cd2277520c738e8416f284fd55da47-g.jpg,,
6945876,Цифровая обработка видеоинформации,,,,Ефимов С.Н. ,2007,,Сайнс,,274,0,Russian,Cs_Computer science/CsIp_Image processing/,kolxoz,10,5880701328,,,,,,,,,,,600,,1,,,,,1,4803765,djvu,87bf2d9a47d52fed1dd254879dd081ba,,,"Cs_Computer science/CsIp_Image processing/Efimov S.N. Cifrovaya obrabotka videoinformacii (Sajns, 2007)(ru)(ISBN 5880701328)(600dpi)(K)(T)(274s)_CsIp_.djvu",0,2000-01-01 01:00:00,2016-04-03 02:51:08,872000/87bf2d9a47d52fed1dd254879dd081ba-g.jpg,,
6945877,Цифровая обработка видеоизображений,,,,"Лукьяница А.А., Шишкин А.Г. ",2009,,АйЭсЭс,,511,0,Russian,Cs_Computer science/CsIp_Image processing/,kolxoz,10,9785990189911,,,,,,,,,,,300,,1,,,,,1,16785235,djvu,7a386f7ff13c94998decd1b8ee426363,,,"Cs_Computer science/CsIp_Image processing/Luk#yanica A.A., Shishkin A.G. Cifrovaya obrabotka videoizobrazhenij (AjE#sE#s, 2009)(ru)(ISBN 9785990189911)(K)(T)(511s)_CsIp_.djvu",0,2000-01-01 01:00:00,2016-04-03 02:51:08,872000/7a386f7ff13c94998decd1b8ee426363-g.jpg,,
6945878,Методы морфологического анализа изображений,,,,"Пытьев Ю.П., Чуличков А.И. ",2010,,ФМЛ,,343,0,Russian,Cs_Computer science/CsIp_Image processing/,kolxoz,10,9785922112253,,,,,,,,,,,600,,,,,,,1,5462706,djvu,08b9a7b1063920af15ea3b99499622b7,,,"Cs_Computer science/CsIp_Image processing/Pyt#ev Yu.P., Chulichkov A.I. Metody morfologicheskogo analiza izobrazhenij (FML, 2010)(ru)(ISBN 9785922112253)(600dpi)(T)(O)(343s)_CsIp_.djvu",0,2000-01-01 01:00:00,2016-04-03 02:51:08,872000/08b9a7b1063920af15ea3b99499622b7-g.jpg,,
6945879,Компьютерное зрение: Современный подход,,,,"Форсайт Д., Понс Ж.(D.A.Forsyth,J.Ponce) ",2004,,Вильямс,,929,0,Russian,Cs_Computer science/CsIp_Image processing/,kolxoz,10,5845905427,,,,,,,,,,,400,1,,,,,,1,22146532,djvu,214a5418645ba3a207659aabf0a33824,,,"Cs_Computer science/CsIp_Image processing/Forsajt D., Pons Zh. (_D.A.Forsyth,J.Ponce_) Komp#yuternoe zrenie.. Sovremennyj podxod (Vil#yams, 2004)(ISBN 5845905427)(ru)(400dpi)(T)(C)(929s)_CsIp_.djvu",0,2000-01-01 01:00:00,2016-04-03 02:51:08,872000/214a5418645ba3a207659aabf0a33824-g.jpg,,
6945880,"Algorithms - ESA 2012 : 20th Annual European Symposium, Ljubljana, Slovenia, September 10-12, 2012. Proceedings",,"SpringerLink : Bücher; Lecture notes in computer science, 7501",,Paolo Ferragina ,2012,, Springer,,858,0,English,Cs_Computer science/CsLn_Lecture notes/,kolxoz,10,"9783642330902,3642330908,9783642330896,3642330894",,,,,,,10.1007/978-3-642-33090-2,,,,0,,,,,,,1,13486017,pdf,58baf4c9a8b186f9ab3b5db4bbb7fab3,,,"Cs_Computer science/CsLn_Lecture notes/Algorithms, 20 conf., ESA 2012 (LNCS7501, Springer, 2012)(ISBN 9783642330896)(O)(858s)_CsLn_.pdf",0,2000-01-01 01:00:00,2016-04-03 02:51:08,872000/58baf4c9a8b186f9ab3b5db4bbb7fab3-d.jpg,,
6945881,"Applications of Discrete Geometry and Mathematical Morphology : First International Workshop, WADGMM 2010, Istanbul, Turkey, August 22, 2010, Revised Selected Papers",,"Lecture Notes in Computer Science, 7346; Lecture Notes in Computer Science, 7346",,Ullrich Köthe; Annick Montanvert; Pierre Soille ,2012,,Springer Berlin Heidelberg,"Berlin, Heidelberg",175,0,English,Cs_Computer science/CsLn_Lecture notes/,kolxoz,10,"9783642323133,3642323138",,,,,,,10.1007/978-3-642-32313-3,,,,600,,,,,,,1,3367286,djvu,be2a4ec9c34dfa8ab4aeb9b2e5aea0e2,,,"Cs_Computer science/CsLn_Lecture notes/Applications of Discrete Geometry and Mathematical Morphology, 1 conf., WADGMM 2010 (LNCS7346, Springer, 2012)(ISBN 9783642323126)(600dpi)(T)(O)(175s)_CsLn_.djvu",0,2000-01-01 01:00:00,2016-04-03 02:51:08,,,
6945882,"Computer Science - Theory and Applications : 7th International Computer Science Symposium in Russia, CSR 2012, Nizhny Novgorod, Russia, July 3-7, 2012. Proceedings",,"SpringerLink : Bücher; Lecture notes in computer science, 7353",,Edward A Hirsch; Juhani Karhumäki; Arto Lepistö ,2012,, Springer,,348,0,English,Cs_Computer science/CsLn_Lecture notes/,kolxoz,10,"9783642306426,364230642X,9783642306419,3642306411",,,,,,,10.1007/978-3-642-30642-6,,,,0,,,,,,,1,4286025,pdf,434afc0044a177f497b6925eb56398ef,,,"Cs_Computer science/CsLn_Lecture notes/Computer Science - Theory and Applications, 7 conf., CSR 2012 (LNCS7353, Springer, 2012)(ISBN 9783642306419)(O)(348s)_CsLn_.pdf",0,2000-01-01 01:00:00,2016-04-03 02:51:08,872000/434afc0044a177f497b6925eb56398ef-d.jpg,,
6945883,"Controlled Natural Language : Workshop on Controlled Natural Language, CNL 2009, Marettimo Island, Italy, June 8-10, 2009. Revised Papers",,"SpringerLink: Springer e-Books; Lecture Notes in Computer Science, 5972",,Norbert E Fuchs ,2010,,Springer-Verlag Berlin Heidelberg,"Berlin, Heidelberg",299,0,English,Cs_Computer science/CsLn_Lecture notes/,kolxoz,10,"9783642144189,3642144187,9783642144172,3642144179",,,,,,,,,,,0,,,,,,,1,3685551,pdf,123d4e444d0e46683c963954245eaa68,,,"Cs_Computer science/CsLn_Lecture notes/Controlled Natural Language, 1 conf., CNL 2009 (LNCS5972, Springer, 2010)(ISBN 9783642144172)(O)(299s)_CsLn_.pdf",0,2000-01-01 01:00:00,2016-04-03 02:51:08,872000/123d4e444d0e46683c963954245eaa68-d.jpg,,
6945884,"Controlled natural language : second international workshop, CNL 2010, Marettimo Island, Italy, September 13 - 15, 2010 ; revised papers",,"Lecture notes in computer science, 7175",,Michael Rosner ,2012,,Springer,Berlin [u.a.],202,0,English,Cs_Computer science/CsLn_Lecture notes/,kolxoz,10,"3642311741,9783642311741,9783642311758,364231175X",,,,,,,10.1007/978-3-642-31175-8,,,,0,,,,,,,1,3215693,pdf,f031a049263dbc521797e81ad4d39682,,,"Cs_Computer science/CsLn_Lecture notes/Controlled Natural Language, 2 conf., CNL 2010 (LNCS7175, Springer, 2012)(ISBN 9783642311741)(O)(202s)_CsLn_.pdf",0,2000-01-01 01:00:00,2016-04-03 02:51:08,872000/f031a049263dbc521797e81ad4d39682-d.jpg,,
6945885,"Controlled Natural Language Third International Workshop, Cnl 2012, Zurich, Switzerland, August 29-31, 2012, Proceedings",,LNCS7247,,"Kuhn, Tobias; Fuchs, Norbert E ",2012,,Springer Verlag,,194,0,English,Cs_Computer science/CsLn_Lecture notes/,kolxoz,10,"9783642326110,3642326110",,,,,,,10.1007/978-3-642-32612-7,,,,0,,,,,,,1,2457101,pdf,f87cfd7d04367aa62dfff29126232d09,,,"Cs_Computer science/CsLn_Lecture notes/Controlled Natural Language, 3 conf., CNL 2012 (LNCS7247, Springer, 2012)(ISBN 9783642326110)(O)(194s)_CsLn_.pdf",0,2000-01-01 01:00:00,2016-04-03 02:51:08,,,
6945886,"Datalog reloaded : first International Workshop, Datalog 2010, Oxford, UK, March 16-19, 2010. Revised selected papers",,"Lecture notes in computer science, 6702.; LNCS sublibrary., SL 3,, Information systems and applications, incl. Internet/Web, and HCI",,Oege de Moor; et al ,2011,,Springer,Berlin ; New York,407,0,English,Cs_Computer science/CsLn_Lecture notes/,kolxoz,10,"9783642242069,3642242065",,,,,,,10.1007/978-3-642-24206-9,,,,0,,,,,,,1,4068002,pdf,9e1878acd26cc911561706081ae32d27,,,"Cs_Computer science/CsLn_Lecture notes/Datalog Reloaded, 1 conf., DATALOG 2010 (LNCS6702, Springer, 2011)(ISBN 9783642242052)(O)(407s)_CsLn_.pdf",0,2000-01-01 01:00:00,2016-04-03 02:51:08,872000/9e1878acd26cc911561706081ae32d27-d.jpg,,
6945887,"Datalog in Academia and Industry : second international workshop, Datalog 2.0, Vienna, Austria, September 11-13, 2012 : proceedings",,"Lecture notes in computer science, 7494",,Pablo Barceló; Reinhard Pichler ,2012,,SpringerLink,Heidelberg [etc.],201,0,English,Cs_Computer science/CsLn_Lecture notes/,kolxoz,10,"9783642329258,364232925X,9783642329241,3642329241",,,,,,,10.1007/978-3-642-32925-8,,,,0,,,,,,,1,2887345,pdf,d98713c277e4b120c06fea03c430d1bd,,,"Cs_Computer science/CsLn_Lecture notes/Datalog in Academia and Industry, 2 conf., Datalog 2.0 (LNCS7494, Springer, 2012)(ISBN 9783642329241)(O)(201s)_CsLn_.pdf",0,2000-01-01 01:00:00,2016-04-03 02:51:08,,,
6945888,Empirical methods in natural language generation : data-oriented methods and empirical evaluation,,"Lecture notes in computer science, 5790.; Lecture notes in computer science., Lecture notes in artificial intelligence",,Emiel Krahmer; Mariet Theune ,2010,,Springer,Berlin,363,0,English,Cs_Computer science/CsLn_Lecture notes/,kolxoz,10,9783642155727,,,,,,,,,,,0,,,,,,,1,4422812,pdf,3cca1c96199805b51d41691bc38fd0eb,,,"Cs_Computer science/CsLn_Lecture notes/Empirical methods in natural language generation (LNCS5790, Springer, 2010)(ISBN 9783642155727)(O)(363s)_CsLn_.pdf",0,2000-01-01 01:00:00,2016-04-03 02:51:08,872000/3cca1c96199805b51d41691bc38fd0eb-d.jpg,,
6945889,"FM 2009 : formal methods : second world congress, Eindhoven, the Netherlands, November 2-6, 2009 : proceedings",,"Lecture notes in computer science, 5850.; LNCS sublibrary., SL 2,, Programming and software engineering",,Ana Cavalcanti; Dennis Dams ,2009,,Springer,Berlin ; New York,835,0,English,Cs_Computer science/CsLn_Lecture notes/,kolxoz,10,"9783642050893,3642050891",,,,,,,,,,,0,,,,,,,1,10680125,pdf,b1b7fd2adba87a9cffd179ccf1adac34,,,"Cs_Computer science/CsLn_Lecture notes/FM 2009.. Formal methods, 2 congress (LNCS5850, Springer, 2009)(ISBN 9783642050886)(O)(835s)_CsLn_.pdf",0,2000-01-01 01:00:00,2016-04-03 02:51:08,872000/b1b7fd2adba87a9cffd179ccf1adac34-d.jpg,,
6945890,"Formal methods: foundations and applications : 13th Brazilian Symposium on Formal Methods, SBMF 2010, Natal, Brazil, November 8-11, 2010 : revised selected papers",,"Lecture notes in computer science, 6527.; LNCS sublibrary., SL 2,, Programming and software engineering",,Jim Davies; Leila Silva; Adenilso Simão ,2011,,Springer,Berlin ; Heidelberg ; New York,299,0,English,Cs_Computer science/CsLn_Lecture notes/,kolxoz,10,"9783642198298,3642198295",,,,,,,10.1007/978-3-642-19829-8,,,,0,,,,,,,1,4584746,pdf,c6cfeb1de34d4b570da0ee96aaddde60,,,"Cs_Computer science/CsLn_Lecture notes/Formal Methods Foundations and Applications, 13 conf., SBFM 2010 (LNCS6527, Springer, 2011)(ISBN 9783642198281)(O)(299s)_CsLn_.pdf",0,2000-01-01 01:00:00,2016-04-03 02:51:08,872000/c6cfeb1de34d4b570da0ee96aaddde60-d.jpg,,
6945891,"Formal methods and software engineering : 11th International Conference on Formal Engineering Methods, ICFEM 2009, Rio de Janeiro, Brazil, December 9-12, 2009 ; proceedings",,"Lecture notes in computer science, 5885",,K  K Breitman; Ana Cavalcanti ,2009,,Springer,Berlin,770,0,English,Cs_Computer science/CsLn_Lecture notes/,kolxoz,10,"9783642103735,3642103731",,,,,,,,,,,0,,,,,,,1,14551189,pdf,bbfee10b638dfe5d648d6229512a5e20,,,"Cs_Computer science/CsLn_Lecture notes/Formal Methods and Software Engineering, 11 conf., ICFEM 2009 (LNCS5885, Springer, 2009)(ISBN 9783642103728)(O)(770s)_CsLn_.pdf",0,2000-01-01 01:00:00,2016-04-03 02:51:08,872000/bbfee10b638dfe5d648d6229512a5e20-d.jpg,,
6945892,"Formal methods and software engineering : 12th International Conference on Formal Engineering Methods, ICFEM 2010, Shanghai, China, November 17-19, 2010 : proceedings",,"Lecture notes in computer science, 6447.; LNCS sublibrary., SL 2,, Programming and software engineering",,Jin Song Dong; Huibiao Zhu ,2010,,Springer,Berlin,723,0,English,Cs_Computer science/CsLn_Lecture notes/,kolxoz,10,"9783642169014,3642169015",,,,,,,,,,,0,,,,,,,1,9774227,pdf,2745c26673c35e9058c477fdd491d4ba,,,"Cs_Computer science/CsLn_Lecture notes/Formal Methods and Software Engineering, 12 conf., ICFEM 2010 (LNCS6447, Springer, 2010)(ISBN 9783642169007)(O)(723s)_CsLn_.pdf",0,2000-01-01 01:00:00,2016-04-03 02:51:08,872000/2745c26673c35e9058c477fdd491d4ba-d.jpg,,
6945893,Formal methods for components and objects : 6th international symposium : revised papers,,"Lecture notes in computer science, 5382",,Frank S  de Boer; et al ,2008,,Springer,Berlin,321,0,English,Cs_Computer science/CsLn_Lecture notes/,kolxoz,10,"9783540921875,3540921877,9783540921882,3540921885",,,,,,,,,,,0,,,,,,,1,5166981,pdf,cd18d8fb5ca92f7ef35c7c742c4c838b,,,"Cs_Computer science/CsLn_Lecture notes/Formal Methods for Components and Objects, 6 conf., FMCO 2007 (LNCS5382, Springer, 2008)(ISBN 9783540921875)(O)(321s)_CsLn_.pdf",0,2000-01-01 01:00:00,2016-04-03 02:51:08,872000/cd18d8fb5ca92f7ef35c7c742c4c838b-d.jpg,,
6945894,"Formal methods for components and objects : 7th International Symposium, FMCO 2008, Sophia Antipolis, France, October 21-23, 2008 : revised papers",,"Lecture notes in computer science, 5751",,F S  de Boer; Marcello Bonsangue ,2009,,Springer,Berlin [etc.],307,0,English,Cs_Computer science/CsLn_Lecture notes/,kolxoz,10,"9783642041679,3642041671,9783642041662,3642041663",,,,,,,,,,,0,,,,,,,1,4692890,pdf,0dc792ccd2086e33a8e3a92d58685641,,,"Cs_Computer science/CsLn_Lecture notes/Formal Methods for Components and Objects, 7 conf., FMCO 2008 (LNCS5751, Springer, 2009)(ISBN 9783642041662)(O)(307s)_CsLn_.pdf",0,2000-01-01 01:00:00,2016-04-03 02:51:08,872000/0dc792ccd2086e33a8e3a92d58685641-d.jpg,,
6945895,"Formal methods for components and objects : 8th international symposium, FMCO 2009, Eindhoven, the Netherlands, November 4-6, 2009 : revised selected papers",,"Lecture notes in computer science, 6286.; LNCS sublibrary., SL 2,, Programming and software engineering",,Frank S  de Boer; et al ,2011,,Springer,Berlin,347,0,English,Cs_Computer science/CsLn_Lecture notes/,kolxoz,10,"9783642170713,3642170714",,,,,,,,,,,0,,,,,,,1,4524412,pdf,be38066dfd90b761cf15ac01394abed3,,,"Cs_Computer science/CsLn_Lecture notes/Formal Methods for Components and Objects, 8 conf., FMCO 2009 (LNCS6286, Springer, 2011)(ISBN 9783642170706)(O)(347s)_CsLn_.pdf",0,2000-01-01 01:00:00,2016-04-03 02:51:08,,,
6945896,"Formal methods for eternal networked software systems : 11th International School on Formal Methods for the Design of Computer, Communication and Software Systems, SFM 2011, Bertinoro, Italy, June 13-18, 2011, Advanced lectures",,"Lecture notes in computer science, 6659.; Lecture notes in computer science., Tutorial.; LNCS sublibrary., SL 2,, Programming and software engineering",,Marco Bernardo; Valérie Issarny ,2011,,Springer,Berlin ; Heidelberg ; New York,535,0,English,Cs_Computer science/CsLn_Lecture notes/,kolxoz,10,"9783642214554,364221455X",,,,,,,10.1007/978-3-642-21455-4,,,,0,,,,,,,1,9895589,pdf,bdf633db17c24959c01c0ddf9829ac38,,,"Cs_Computer science/CsLn_Lecture notes/Formal Methods for Eternal Networked Software Systems, 11 conf., SFM 2011 (LNCS6659, Springer, 2011)(ISBN 9783642214547)(O)(535s)_CsLn_.pdf",0,2000-01-01 01:00:00,2016-04-03 02:51:08,872000/bdf633db17c24959c01c0ddf9829ac38-d.jpg,,
6945897,"Formal methods for industrial critical systems : 13th international workshop, FMICS 2008, L'Aquila, Italy, September 15-16, 2008 : revised selected papers",,"Lecture notes in computer science, 5596.; LNCS sublibrary., SL 2,, Programming and software engineering",,Darren Cofer; Alessandro Fantechi ,2009,,Springer,Berlin,242,0,English,Cs_Computer science/CsLn_Lecture notes/,kolxoz,10,"9783642032400,3642032400",,,,,,,,,,,0,,,,,,,1,3499368,pdf,8b196ac2e1684b74c00b425f5c5b97dc,,,"Cs_Computer science/CsLn_Lecture notes/Formal Methods for Industrial Critical Systems, 13 conf., FMICS 2008 (LNCS5596, Springer, 2009)(ISBN 9783642032394)(O)(242s)_CsLn_.pdf",0,2000-01-01 01:00:00,2016-04-03 02:51:08,872000/8b196ac2e1684b74c00b425f5c5b97dc-d.jpg,,
6945898,"Formal Methods for Industrial Critical Systems, 14 conf., FMICS 2009",,"Lecture notes in computer science, 5825",,María Alpuente; Byron Cook; Christophe Joubert ,2009,,Springer,Berlin ; London,223,0,English,Cs_Computer science/CsLn_Lecture notes/,kolxoz,10,"9783642045707,3642045707",,,,,,,,,,,0,,,,,,,1,8154739,pdf,4ed8eac210df1ace0c9a064ec023ffbb,,,"Cs_Computer science/CsLn_Lecture notes/Formal Methods for Industrial Critical Systems, 14 conf., FMICS 2009 (LNCS5825, Springer, 2009)(ISBN 9783642045691)(O)(223s)_CsLn_.pdf",0,2000-01-01 01:00:00,2016-04-03 02:51:08,,,
6945899,"Formal methods for industrial critical systems : 15th international workshop, FMICS 2010, Antwerp, Belgium, September 20-21, 2010, proceedings",,"Lecture notes in computer science, 6371.; LNCS sublibrary., SL 2,, Programming and software engineering",,S Kowalewski; Marco Roveri ,2010,,Springer,Berlin,242,0,English,Cs_Computer science/CsLn_Lecture notes/,kolxoz,10,"9783642158988,3642158986",,,,,,,,,,,0,,,,,,,1,5805195,pdf,b9ddbb02dd99c1e85c7a2ecf6d3f4a18,,,"Cs_Computer science/CsLn_Lecture notes/Formal Methods for Industrial Critical Systems, 15 conf., FMICS 2010 (LNCS6371, Springer, 2010)(ISBN 9783642158971)(O)(242s)_CsLn_.pdf",0,2000-01-01 01:00:00,2016-04-03 02:51:08,872000/b9ddbb02dd99c1e85c7a2ecf6d3f4a18-d.jpg,,
6945900,"Formal methods for industrial critical systems : 17th international workshop, FMICS 2012, Paris, France, August 27-28, 2012 : proceedings",,"Lecture notes in computer science, 7437",,Mariëlle Stoelinga; Ralf Pinger ,2012,,SpringerLink,Berlin [etc.],234,0,English,Cs_Computer science/CsLn_Lecture notes/,kolxoz,10,"9783642324697,364232469X,9783642324680,3642324681",,,,,,,10.1007/978-3-642-32469-7,,,,0,,,,,,,1,5946008,pdf,8ba7ce4eda69eeff0e3152d53b0de97f,,,"Cs_Computer science/CsLn_Lecture notes/Formal Methods for Industrial Critical Systems, 17 conf., FMICS 2012 (LNCS7437, Springer, 2012)(ISBN 9783642324680)(O)(234s)_CsLn_.pdf",0,2000-01-01 01:00:00,2016-04-03 02:51:08,,,
6945901,"Formal methods for quantitative aspects of programming languages : 10th International School on Formal Methods for the Desing of Computer, Communication and Software Systems, SFM 2010 Bertinoro, Italy, June 21-26, 2010 :advanced lectures",,"Lecture notes in computer science, 6154",,Alessandro Aldini; et al ,2010,,Springer-Verlag,Heidelberg,174,0,English,Cs_Computer science/CsLn_Lecture notes/,kolxoz,10,"9783642136771,364213677X",,,,,,,,,,,0,,,,,,,1,1733074,pdf,13e776713fc8b38be776eb4ce32e11c8,,,"Cs_Computer science/CsLn_Lecture notes/Formal Methods for Quantitative Aspects of Programming Languages, 10 conf., SFM 2010 (LNCS6154, Springer, 2010)(ISBN 9783642136771)(O)(174s)_CsLn_.pdf",0,2000-01-01 01:00:00,2016-04-03 02:51:08,872000/13e776713fc8b38be776eb4ce32e11c8-d.jpg,,
6945902,"FM 2011 : formal methods : 17th International Symposium on Formal Methods, Limerick, Ireland, June 20-24, 2011 : proceedings",,"Lecture notes in computer science, 6664.; LNCS sublibrary., SL 2,, Programming and software engineering",,Michael Butler; Wolfram Schulte ,2011,,Springer,Berlin,462,0,English,Cs_Computer science/CsLn_Lecture notes/,kolxoz,10,"9783642214370,3642214371",,,,,,,10.1007/978-3-642-21437-0,,,,0,,,,,,,1,5641784,pdf,686fb5f6fcf1f8ecee035d9095393d05,,,"Cs_Computer science/CsLn_Lecture notes/Formal Methods, 17 conf., FM2011 (LNCS6664, Springer, 2011)(ISBN 9783642214363)(O)(462s)_CsLn_.pdf",0,2000-01-01 01:00:00,2016-04-03 02:51:08,872000/686fb5f6fcf1f8ecee035d9095393d05-d.jpg,,
6945903,"Formal Methods, Foundations and Applications, 14 conf., SBMF 2011",,"Lecture notes in computer science. Programming and software engineering, 7021",,Adenilso Simão; Carroll Morgan ,2011,,Springer,Berlin ; London,213,0,English,Cs_Computer science/CsLn_Lecture notes/,kolxoz,10,"9783642250316,3642250319",,,,,,,10.1007/978-3-642-25032-3,,,,0,,,,,,,1,2608975,pdf,97b59c9a62911fb4f5b43a93d04bb2d1,,,"Cs_Computer science/CsLn_Lecture notes/Formal Methods, Foundations and Applications, 14 conf., SBMF 2011 (LNCS7021, Springer, 2011)(ISBN 9783642250316)(O)(213s)_CsLn_.pdf",0,2000-01-01 01:00:00,2016-04-03 02:51:08,872000/97b59c9a62911fb4f5b43a93d04bb2d1-d.jpg,,
6945904,Formal methods: foundations and applications 15th Brazilian symposium ; proceedings,,"Lecture notes in computer science, 7498",,Rohit Gheyi; David Naumann ,2012,,Berlin Heidelberg Springer 2012,,235,0,English,Cs_Computer science/CsLn_Lecture notes/,kolxoz,10,"9783642332951,3642332951",,,,,,,10.1007/978-3-642-33296-8,,,,0,,,,,,,1,4058202,pdf,bf01b3f008cd165f040f42ffc442848f,,,"Cs_Computer science/CsLn_Lecture notes/Formal methods Foundations and Applications, 15 conf., SBMF 2012 (LNCS7498, Springer, 2012)(ISBN 9783642332951)(O)(235s)_CsLn_.pdf",0,2000-01-01 01:00:00,2016-04-03 02:51:08,,,
6945905,"Foundations of software science and computational structures: 15th international conference, FOSSACS 2012, held as part of the European joint conferences on theory and practice of software, ETAPS 2012, Tallinn, Estonia, March 24 – April 1, 2012. Proceedings",,Lecture notes in computer science 7213,,Lars Birkedal (editor),2012,,Springer,,497,0,English,Cs_Computer science/CsLn_Lecture notes,kolxoz,10,"9783642287282,364228728X",,,,,,,10.1007/978-3-642-28729-9,,,,0,,,,,,,1,5553557,pdf,2113de566ea052b78337ed374baa8330,,,"Cs_Computer science/CsLn_Lecture notes/Foundations of Software Science and Computational Structures, 15 conf., FOSSACS 2012 (LNCS7213, Springer, 2012)(ISBN 9783642287282)(O)(497s)_CsLn_.pdf",0,2000-01-01 01:00:00,2016-04-03 02:51:08,872000/2113de566ea052b78337ed374baa8330-d.jpg,,
6945906,"Integrated formal methods : 8th international conference, IFM 2010, Nancy, France, October 11-14, 2010 : proceedings",,"Lecture notes in computer science, 6396.; LNCS sublibrary., SL 2,, Programming and software engineering",,Dominique Méry; Stephan Merz ,2010,,Springer,Berlin,345,0,English,Cs_Computer science/CsLn_Lecture notes/,kolxoz,10,"9783642162657,3642162657",,,,,,,,,,,0,,,,,,,1,4674426,pdf,ea727ae20d8aad029d71627289aa60a0,,,"Cs_Computer science/CsLn_Lecture notes/Integrated Formal Methods, 8 conf., IFM 2010 (LNCS6396, Springer, 2010)(ISBN 9783642162640)(O)(345s)_CsLn_.pdf",0,2000-01-01 01:00:00,2016-04-03 02:51:08,,,
6945907,"Integrated formal methods : 9th International Conference, IFM 2012, Pisa, Italy, June 18-21, 2012. Proceedings",,"Lecture notes in computer science, 7321.; LNCS sublibrary., SL 2,, Programming and software engineering",,John Derrick; et al ,2012,,Springer,Berlin ; New York,370,0,English,Cs_Computer science/CsLn_Lecture notes/,kolxoz,10,"9783642307294,3642307299",,,,,,,10.1007/978-3-642-30729-4,,,,0,,,,,,,1,6925854,pdf,bca947aeda999124f12e90907a7e9ea4,,,"Cs_Computer science/CsLn_Lecture notes/Integrated Formal Methods, 9 conf., IFM 2012 (LNCS7321, Springer, 2012)(ISBN 9783642307287)(O)(370s)_CsLn_.pdf",0,2000-01-01 01:00:00,2016-04-03 02:51:08,872000/bca947aeda999124f12e90907a7e9ea4-d.jpg,,
6945908,"Interactive Theorem Proving : Third International Conference, ITP 2012, Princeton, NJ, USA, August 13-15, 2012. Proceedings",,"SpringerLink : Bücher; Lecture notes in computer science, 7406",,Amy Felty ,2012,, Springer,,429,0,English,Cs_Computer science/CsLn_Lecture notes/,kolxoz,10,"9783642323478,3642323472,9783642323461,3642323464",,,,,,,10.1007/978-3-642-32347-8,,,,0,,,,,,,1,4564781,pdf,b33c7b776a482e6b78560887fd8d4549,,,"Cs_Computer science/CsLn_Lecture notes/Interactive Theorem Proving, 3 conf., ITP 2012 (LNCS7406, Springer, 2012)(ISBN 9783642323461)(O)(429s)_CsLn_.pdf",0,2000-01-01 01:00:00,2016-04-03 02:51:08,872000/b33c7b776a482e6b78560887fd8d4549-d.jpg,,
6945909,"Leveraging applications of formal methods, verification and validation, 4 conf., ISOLA 2010, part II",,"Lecture notes in computer science, 6416",,,2010,,Springer,Berlin ; Heidelberg [u.a.],517,0,English,Cs_Computer science/CsLn_Lecture notes/,kolxoz,10,"3642165605,9783642165603",,,,,,,,,,,0,,,,,,,1,9461296,pdf,6b8867d907a771be785fec5b7b003fdc,,,"Cs_Computer science/CsLn_Lecture notes/Leveraging applications of formal methods, verification and validation, 4 conf., ISOLA 2010, part II (LNCS6414, Springer, 2010)(ISBN 9783642165603)(O)(517s)_CsLn_.pdf",0,2000-01-01 01:00:00,2016-04-03 02:51:08,872000/6b8867d907a771be785fec5b7b003fdc-d.jpg,,
6945910,"Leveraging Applications of Formal Methods, Verification and Validation 5th International Symposium, Isola 2012, Heraklion, Crete, Greece, October 15-18, 2012, Proceedings",,LNCS7610,,"Margaria, Tiziana; Steffen, Bernhard ",2012,,Springer-Verlag New York Inc,,376,0,English,Cs_Computer science/CsLn_Lecture notes/,kolxoz,10,"9783642340314,3642340318",,,,,,,10.1007/978-3-642-34032-1,,,,0,,,,,,,1,9396846,pdf,c4497d3a0b7114ccc2b502f648dfa234,,,"Cs_Computer science/CsLn_Lecture notes/Leveraging applications of formal methods, verification and validation, 5 conf., ISOLA12, part II (LNCS7610, Springer, 2012)(ISBN 9783642340314)(O)(376s)_CsLn_.pdf",0,2000-01-01 01:00:00,2016-04-03 02:51:08,,,
6945911,"Logics in artificial intelligence : 13th European conference, JELIA 2012, Toulouse, France, September 26-28, 2012 : proceedings",,"Lecture notes in computer science, 7519.; Lecture notes in artificial intelligence",,Luis Fariñas del Cerro; Andreas Herzig; Jérôme Mengin ,2012,,Springer,Berlin [etc.],509,0,English,Cs_Computer science/CsLn_Lecture notes/,kolxoz,10,"9783642333538,3642333532,9783642333521,3642333524",,,,,,,10.1007/978-3-642-33353-8,,,,0,,,,,,,1,7209264,pdf,1a0e07eeda31989ebc061161847c003d,,,"Cs_Computer science/CsLn_Lecture notes/Logics in Artificial Intelligence, 13 conf., JELIA 2012 (LNCS7519, Springer, 2012)(ISBN 9783642333521)(O)(509s)_CsLn_.pdf",0,2000-01-01 01:00:00,2016-04-03 02:51:08,,,
6945912,"NASA formal methods : third international symposium, NFM 2011, Pasadena, CA, USA, April 18-20, 2011 : proceedings",,"Lecture notes in computer science, 6617",,,2011,,Springer,Berlin,546,0,English,Cs_Computer science/CsLn_Lecture notes/,kolxoz,10,"9783642203978,3642203973",,,,,,,10.1007/978-3-642-20398-5,,,,0,,,,,,,1,7459942,pdf,8d65ffbba660c7b443fe501726908b9e,,,"Cs_Computer science/CsLn_Lecture notes/NASA Formal Methods, 3 conf., NFM 2011 (LNCS6617, Springer, 2011)(ISBN 9783642203978)(O)(546s)_CsLn_.pdf",0,2000-01-01 01:00:00,2016-04-03 02:51:08,872000/8d65ffbba660c7b443fe501726908b9e-d.jpg,,
6945913,"NASA formal methods : 4th International Symposium, NFM 2012, Norfolk, VA, USA, April 3-5, 2012. Proceedings",,"Lecture notes in computer science, 7226.; LNCS sublibrary., SL 2,, Programming and software engineering",,Alwyn E Goodloe; Suzette Person ,2012,,Springer,Berlin ; New York,477,0,English,Cs_Computer science/CsLn_Lecture notes/,kolxoz,10,"9783642288913,364228891X",,,,,,,10.1007/978-3-642-28891-3,,,,0,,,,,,,1,6853564,pdf,a60c5bd4eee17befdcc1c26c742855e2,,,"Cs_Computer science/CsLn_Lecture notes/NASA Formal Methods, 4 conf., NFM 2012 (LNCS7226, Springer, 2012)(ISBN 9783642288906)(O)(477s)_CsLn_.pdf",0,2000-01-01 01:00:00,2016-04-03 02:51:08,872000/a60c5bd4eee17befdcc1c26c742855e2-d.jpg,,
6945914,"Natural language generation : third international conference, INLG 2004, Brockenhurst, UK, July 14-16, 2004 : proceedings",,"Lecture notes in computer science, 3123.; Lecture notes in computer science., Lecture notes in artificial intelligence",,Anja Belz; Roger Evans; Paul Piwek ,2004,,Springer,Berlin ; New York,233,0,English,Cs_Computer science/CsLn_Lecture notes/,kolxoz,10,"3540223401,9783540223405",,,,,,,,,,,600,,,,,,,1,3778612,djvu,396bde814a510bf8ae02db9b1876d618,,,"Cs_Computer science/CsLn_Lecture notes/Natural Language Generation, 3 conf., INLG 2004(LNCS3123, Springer, 2004)(ISBN 3540223401)(600dpi)(T)(O)(233s)_CsLn_.djvu",0,2000-01-01 01:00:00,2016-04-03 02:51:08,872000/396bde814a510bf8ae02db9b1876d618-d.jpg,,
6945915,"Natural language generation : third international conference, INLG 2004, Brockenhurst, UK, July 14-16, 2004 : proceedings",,"Lecture notes in computer science, 3123.; Lecture notes in computer science., Lecture notes in artificial intelligence",,Anja Belz; Roger Evans; Paul Piwek ,2004,,Springer,Berlin ; New York,233,0,English,Cs_Computer science/CsLn_Lecture notes/,kolxoz,10,"3540223401,9783540223405",,,,,,,,,,,0,,,,,,,1,6242575,pdf,1267226296d97eb99dce33937c87f37c,,,"Cs_Computer science/CsLn_Lecture notes/Natural Language Generation, 3 conf., INLG 2004(LNCS3123, Springer, 2004)(ISBN 3540223401)(O)(233s)_CsLn_.pdf",0,2000-01-01 01:00:00,2016-04-03 02:51:08,872000/1267226296d97eb99dce33937c87f37c-d.jpg,,
6945916,"Programming Languages : 16th Brazilian Symposium, SBLP 2012, Natal, Brazil, September 23-28, 2012. Proceedings",,"SpringerLink : Bücher; Lecture notes in computer science, 7554",,,2012,, Springer,,173,0,English,Cs_Computer science/CsLn_Lecture notes/,kolxoz,10,"9783642331824,3642331823,9783642331817,3642331815",,,,,,,10.1007/978-3-642-33182-4,,,,0,,,,,,,1,3717206,pdf,535e9a1d69acb144d4d1e9ca7e66920b,,,"Cs_Computer science/CsLn_Lecture notes/Programming Languages, 16 conf., SBLP 2012 (LNCS7554, Springer, 2012)(ISBN 9783642331817)(O)(173s)_CsLn_.pdf",0,2000-01-01 01:00:00,2016-04-03 02:51:08,872000/535e9a1d69acb144d4d1e9ca7e66920b-d.jpg,,
6945917,"Relational and algebraic methods in computer science : 13th international conference, RAMICS 2012, Cambridge, UK, September 17-20, 2012 : proceedings",,"Lecture notes in computer science, 7560",,Wolfram Kahl; Timothy G Griffin ,2012,,SpringerLink,Berlin [etc.],368,0,English,Cs_Computer science/CsLn_Lecture notes/,kolxoz,10,"9783642333149,3642333141,9783642333132,3642333133",,,,,,,10.1007/978-3-642-33314-9,,,,0,,,,,,,1,3932333,pdf,edf9d932a2ce89f695d23ecbe176273a,,,"Cs_Computer science/CsLn_Lecture notes/Relational and Algebraic Methods in Computer Science, 13 conf., RAMiCS 2012 (LNCS7560, Springer, 2012)(ISBN 9783642333132)(O)(368s)_CsLn_.pdf",0,2000-01-01 01:00:00,2016-04-03 02:51:08,,,
6945918,"STACS 84 : first annual Symposium of theoretical aspects of computer science; Paris, April 11-13, 1984",,"Lecture notes in computer science, 166",,M Fontet; et al ,1984,,Springer,Berlin,344,0,English,Cs_Computer science/CsLn_Lecture notes/,kolxoz,10,"3540129200,9783540129202,0387129200,9780387129204",,,,,,,,,,,300,,,,,,,1,3147051,djvu,eac7b5c8a647be8a272d96f31f632242,,,"Cs_Computer science/CsLn_Lecture notes/STACS 84, Theoretical Aspects of Computer Science 1 conf.(LNCS0166, Springer, 1984)(ISBN 3540129200)(T)(O)(344s)_CsLn_.djvu",0,2000-01-01 01:00:00,2016-04-03 02:51:08,,,
6945919,"Software engineering and formal methods : 9th international conference, SEFM 2011, Montevideo, Uruguay, November 14-18, 2011 : proceedings",,"Lecture notes in computer science, 7041",,G Barthe; Alberto Pardo; Gerardo Schneider ,2011,,Springer,Heidelberg [etc.],517,0,English,Cs_Computer science/CsLn_Lecture notes/,kolxoz,10,"9783642246906,3642246907,9783642246890,3642246893",,,,,,,10.1007/978-3-642-24690-6,,,,0,,,,,,,1,8004299,pdf,531e7e9c577d3aecd319ad45d736f30a,,,"Cs_Computer science/CsLn_Lecture notes/Software Engineering and Formal Methods, 9 conf., SEFM 2011 (LNCS7041, Springer, 2011)(ISBN 9783642246890)(O)(517s)_CsLn_.pdf",0,2000-01-01 01:00:00,2016-04-03 02:51:08,872000/531e7e9c577d3aecd319ad45d736f30a-d.jpg,,
6945920,"Static analysis : 19th International Symposium, SAS 2012, Deauville, France, September 11-13, 2012. Proceedings",,"Lecture notes in computer science, 7460.; Lecture notes in computer science., Advanced research in computing and software science.; LNCS sublibrary., SL 2,, Programming and software engineering",,Antoine Miné; David A Schmidt ,2012,,Springer,Berlin ; New York,466,0,English,Cs_Computer science/CsLn_Lecture notes/,kolxoz,10,"9783642331251,3642331254",,,,,,,10.1007/978-3-642-33125-1,,,,0,,,,,,,1,5835631,pdf,292e540ab4cbe1783bc991ee152e3a32,,,"Cs_Computer science/CsLn_Lecture notes/Static Analysis, 19 conf., SAS 2012 (LNCS7460, Springer, 2012)(ISBN 9783642331244)(O)(466s)_CsLn_.pdf",0,2000-01-01 01:00:00,2016-04-03 02:51:08,,,
6945921,Web services and formal methods 6th international workshop ; revised selected papers,,"Lecture notes in computer science, 6194",,Cosimo Laneve ,2010,,"Berlin Heidelberg New York, NY Springer 2010",,203,0,English,Cs_Computer science/CsLn_Lecture notes/,kolxoz,10,"9783642144578,3642144578",,,,,,,,,,,0,,,,,,,1,2476792,pdf,015f5c76e6aeaa24c74949542d13486f,,,"Cs_Computer science/CsLn_Lecture notes/Web Services and Formal Methods, 6 conf., WS-FM 2009 (LNCS6194, Springer, 2010)(ISBN 9783642144578)(O)(203s)_CsLn_.pdf",0,2000-01-01 01:00:00,2016-04-03 02:51:08,,,
6945922,"Web services and formal methods : 7th International Workshop, WS-FM 2010, Hoboken, NJ, USA, September 16-17, 2010 : revised selected papers",,"Lecture notes in computer science, 6551.; LNCS sublibrary., SL 2,, Programming and software engineering",,Mario Bravetti; Tevfik Bultan ,2011,,Springer,Berlin ; Heidelberg ; New York,199,0,English,Cs_Computer science/CsLn_Lecture notes/,kolxoz,10,"9783642195891,364219589X",,,,,,,10.1007/978-3-642-19589-1,,,,0,,,,,,,1,3188143,pdf,ff0409f89e9b20731dec58ccb4622b22,,,"Cs_Computer science/CsLn_Lecture notes/Web Services and Formal Methods, 7 conf., WS-FM 2010 (LNCS6551, Springer, 2011)(ISBN 9783642195884)(O)(199s)_CsLn_.pdf",0,2000-01-01 01:00:00,2016-04-03 02:51:08,872000/ff0409f89e9b20731dec58ccb4622b22-d.jpg,,
6945923,"Web Services and Formal Methods, 8 conf., WS-FM 2011",,"Lecture notes in computer science, 5387",,,2011,,Springer Berlin Heidelberg,,151,0,English,Cs_Computer science/CsLn_Lecture notes/,kolxoz,10,"9783642013645,3642013643",,,,,,,10.1007/978-3-642-29834-9,,,,0,,,,,,,1,2696584,pdf,8356ae279c2b4bb3ab9f13c7d9aff5d2,,,"Cs_Computer science/CsLn_Lecture notes/Web Services and Formal Methods, 8 conf., WS-FM 2011 (LNCS7176, Springer, 2011)(ISBN 9783642013638)(O)(151s)_CsLn_.pdf",0,2000-01-01 01:00:00,2016-04-03 02:51:08,872000/8356ae279c2b4bb3ab9f13c7d9aff5d2-d.jpg,,
6945924,"Medical image computing and computer-assisted intervention - MICCAI 2009 : 12th international conference, London, UK, September 20-24, 2009 ; proceedings. Part II",,"Lecture notes in computer science, 5762",,Guang-Zhong Yang; et al ,2009,,Springer,Berlin,1167,0,English,Cs_Computer science/CsLn_Lecture notes/M/,kolxoz,10,"9783642042713,3642042716",,,,,,,,,,,0,,,,,,,1,26720629,pdf,689af4a57c10c90a95ac4d8357ff3025,,,"Cs_Computer science/CsLn_Lecture notes/M/Medical Image Computing and Computer-Assisted Intervention - MICCAI 2009, 12 conf., part 2 (LNCS5762, Springer, 2009)(ISBN 9783642042706)(1167s)_CsLn_.pdf",0,2000-01-01 01:00:00,2016-04-03 02:51:08,872000/689af4a57c10c90a95ac4d8357ff3025-d.jpg,,
6945925,"Transactions on Computational Science, 14 conf., Voronoi diagrams and Delaunay triangulation",,"Lecture notes in computer science. Transactions on computational science, 6970",,Mir Abolfazl Mostafavi; Marina L Gavrilova; C  J  Kenneth Tan ,2012,,Springer,Berlin ; London,254,0,English,Cs_Computer science/CsLn_Lecture notes/T/,kolxoz,10,"9783642252488,3642252486",,,,,,,10.1007/978-3-642-25249-5,,,,0,,,,,,,1,5573583,pdf,f24c9fde3bc91d6ec72288d0d0a93654,,,"Cs_Computer science/CsLn_Lecture notes/T/Transactions on Computational Science, 14 conf., Voronoi diagrams and Delaunay triangulation (LNCS6970, Springer, 2012)(ISBN 9783642252488)(O)(254s)_CsLn_.pdf",0,2000-01-01 01:00:00,2016-04-03 02:51:08,872000/f24c9fde3bc91d6ec72288d0d0a93654-d.jpg,,
6945926,Natural language parsing systems,,"Symbolic computation., Artificial intelligence",,Leonard Bolc; Jaime G Carbonell; et al (ed.),1987,,Springer-Verlag,Berlin ; New York,387,0,English,Cs_Computer science/CsNl_Natural language/,kolxoz,10,"0387175377,9780387175379,3540175377,9783540175377",,,,,,,,,,,600,,,,,,,1,4072586,djvu,b278e2c84a6ec9407719462731a302ce,,,"Cs_Computer science/CsNl_Natural language/Bolc L. (ed.) Natural language parsing systems (Springer, 1987)(ISBN 0387175377)(600dpi)(T)(387s)_CsNl_.djvu",0,2000-01-01 01:00:00,2016-04-03 02:51:08,,,
6945927,Naive semantics for natural language understanding,,"Kluwer international series in engineering and computer science, SECS 58.; Kluwer international series in engineering and computer science., Natural language processing and machine translation",,Kathleen Dahlgren ,1988,,Kluwer Academic Publishers,Boston,270,0,English,Cs_Computer science/CsNl_Natural language/,kolxoz,10,"0898382874,9780898382877",,,,,,,,,,,600,,,,,,,1,1867551,djvu,27bbc74828b64d023b3e52f3d1ec3f31,,,"Cs_Computer science/CsNl_Natural language/Dahlgren K. Naive semantics for natural language understanding (Kluwer, 1988)(ISBN 0898382874)(600dpi)(T)(270s)_CsNl_.djvu",0,2000-01-01 01:00:00,2016-04-03 02:51:08,,,
6945928,Current research in natural language generation,,"Cognitive science series (London, England)",,Robert Dale; C  S Mellish; Michael Zock  (eds.),1990,,Academic,London,368,0,English,Cs_Computer science/CsNl_Natural language/,kolxoz,10,"0122007352,9780122007354",,,,,,,,,,,600,,,,,,,1,3105132,djvu,fa5ad9fae1e6c6120c74ccb33899a9ab,,,"Cs_Computer science/CsNl_Natural language/Dale R., Mellish C., Zock M. (eds.) Current research in natural language generation (AP, 1990)(ISBN 0122007352)(600dpi)(T)(368s)_CsNl_.djvu",0,2000-01-01 01:00:00,2016-04-03 02:51:08,872000/fa5ad9fae1e6c6120c74ccb33899a9ab-d.jpg,,
6945929,The linguistic basis of text generation,,,,Laurence Danlos ,1987,,Cambridge University Press,Cambridge,238,0,English,Cs_Computer science/CsNl_Natural language/,kolxoz,10,"0521329388,9780521329385",,,,,,,,,,,600,,,,,,,1,2093010,djvu,bc787d93f71b4a5a362bcb80c5bfc133,,,"Cs_Computer science/CsNl_Natural language/Danlos L. The linguistic basis of text generation (CUP, 1987)(ISBN 9780521329385)(600dpi)(T)(238s)_CsNl_.djvu",0,2000-01-01 01:00:00,2016-04-03 02:51:08,,,
6945930,"Computational linguistic text processing: lexicon, grammar, parsing, and anaphora resolution",,,,Rodolfo Delmonte ,2008,,Nova Science Publishers,New York,401,0,English,Cs_Computer science/CsNl_Natural language/,kolxoz,10,"9781613242667,1613242662",,,,,,,,,,,600,,,,,,,1,3425207,djvu,f6e4412abaa5cb4e961705fdf1f3c0f2,,,"Cs_Computer science/CsNl_Natural language/Delmonte R. Computational linguistic text processing.. lexicon, grammar, parsing, and anaphora resolution (Nova, 2008)(ISBN 9781604567496)(600dpi)(T)(401s)_CsNl_.djvu",0,2000-01-01 01:00:00,2016-04-03 02:51:08,,,
6945931,"Computational linguistic text processing: logical form, semantic interpretation, discourse relations and question answering",,,,Rodolfo Delmonte ,2007,,Nova Science,New York,381,0,English,Cs_Computer science/CsNl_Natural language/,kolxoz,10,"9781600217005,1600217001",,,,,,,,,,,600,,,,,,,1,3254608,djvu,993cbd83af693b038a420eebc9db5d10,,,"Cs_Computer science/CsNl_Natural language/Delmonte R. Computational linguistic text processing.. logical form, semantic interpretation, discourse relations and question answering (Nova, 2007)(ISBN 1600217001)(600dpi)(T)(381s)_CsNl_.djvu",0,2000-01-01 01:00:00,2016-04-03 02:51:08,872000/993cbd83af693b038a420eebc9db5d10-d.jpg,,
6945932,Natural language computing: an English generative grammar in Prolog,,,,Dougherty R.C. ,1994,,Lawrence Erlbaum Associates,"Hillsdale, N.J",396,0,English,Cs_Computer science/CsNl_Natural language/,kolxoz,10,"0805815252,9780805815252,0805815260,9780805815269",,,,,,,,,,,600,,,,,,,1,4408867,djvu,4b09a3ef9646aaaa3aaf336a0aab44eb,,,"Cs_Computer science/CsNl_Natural language/Dougherty R.C. Natural language computing.. an English generative grammar in Prolog (Lawrence Erlbaum, 1994)(ISBN 0805815252)(600dpi)(T)(396s)_CsNl_.djvu",0,2000-01-01 01:00:00,2016-04-03 02:51:08,872000/4b09a3ef9646aaaa3aaf336a0aab44eb-d.jpg,,
6945933,Natural language computing: an English generative grammar in Prolog (program code),,,,Dougherty R.C. ,1994,,Lawrence Erlbaum Associates,"Hillsdale, N.J",,0,English,Cs_Computer science/CsNl_Natural language/,kolxoz,10,"0805815252,9780805815252,0805815260,9780805815269",,,,,,,,,,,0,,,,,,,,19967,rar,3eaee6f5a22403afd5a02272f68afb22,,,"Cs_Computer science/CsNl_Natural language/Dougherty R.C. Natural language computing.. an English generative grammar in Prolog (Lawrence Erlbaum, 1994)(ISBN 0805815252)(program code).rar",0,2000-01-01 01:00:00,2016-04-03 02:51:08,872000/3eaee6f5a22403afd5a02272f68afb22-d.jpg,,
6945934,Computer translation of natural language,,,,Walter Goshawke; Ian D  K Kelly; J  David Wigg ,1987,,Sigma press,,292,0,English,Cs_Computer science/CsNl_Natural language/,kolxoz,10,"0470209135,9780470209134,1850580561,9781850580560",,,,,,,,,,,600,,,,,,,1,2487592,djvu,15ddbb439879bd2c3b1e341d4ffd81d1,,,"Cs_Computer science/CsNl_Natural language/Goshawke W., Kelly I.D.K., Wigg J.D. Computer translation of natural language (Sigma press, 1987)(ISBN 1850580561)(600dpi)(T)(292s)_CsAi_.djvu",0,2000-01-01 01:00:00,2016-04-03 02:51:08,872000/15ddbb439879bd2c3b1e341d4ffd81d1-d.jpg,,
6945935,Handbook of natural language processing,,Chapman &  Hall/CRC machine learning &  pattern recognition series,,Nitin Indurkhya; Frederick J Damerau  (eds.),2010,2ed.,Chapman &  Hall/CRC,"Boca Raton, FL",692,0,English,Cs_Computer science/CsNl_Natural language/,kolxoz,10,"9781420085921,1420085921",,,,,,,,,,,0,,,,,,,1,5994958,pdf,6ec0c785b1d3a8ecdab9a07617bd75f0,,,"Cs_Computer science/CsNl_Natural language/Indurkhya N., Damerau F.J. (eds.) Handbook of natural language processing (2ed., CRC, 2010)(ISBN 9781420085921)(O)(692s)_CsNl_.pdf",0,2000-01-01 01:00:00,2016-04-03 02:51:08,872000/6ec0c785b1d3a8ecdab9a07617bd75f0-d.jpg,,
6945936,Statistical machine translation : textbook,,,,Philipp Koehn ,2010,,Univ. Pr,Cambridge,447,0,English,Cs_Computer science/CsNl_Natural language/,kolxoz,10,"9780521874151,0521874157",,,,,,,,,,,0,,,,,,,1,1680544,pdf,a4734bf58d4b2d854e639d2870e8e185,,,"Cs_Computer science/CsNl_Natural language/Koehn P. Statistical machine translation (CUP, 2010)(ISBN 9780521874151)(O)(447s)_CsNl_.pdf",0,2000-01-01 01:00:00,2016-04-03 02:51:08,872000/a4734bf58d4b2d854e639d2870e8e185-d.jpg,,
6945937,Natural language generation systems,,"Symbolic computation., Artificial intelligence",,David D McDonald; Leonard Bolc  (eds.),1988,,Springer-Verlag,New York [etc.],403,0,English,Cs_Computer science/CsNl_Natural language/,kolxoz,10,"0387966919,9780387966915",,,,,,,,,,,600,,,,,,,1,5505741,djvu,ce0cf85309268b1a8cd6259b365f4b32,,,"Cs_Computer science/CsNl_Natural language/McDonald D.D., Bolc L. (eds.) Natural language generation systems (Springer, 1988)(ISBN 0387966919)(600dpi)(T)(403s)_CsNl_.djvu",0,2000-01-01 01:00:00,2016-04-03 02:51:08,,,
6945938,Handbook of natural language processing and machine translation  : DARPA global autonomous language exploitation,,,,Joseph P Olive; Caitlin Christianson; John McCary  (eds.),2011,,Springer,New York,964,0,English,Cs_Computer science/CsNl_Natural language/,kolxoz,10,"9781441977120,1441977120",,,,,,,10.1007/978-1-4419-7713-7,,,,0,,,,,,,1,17219024,pdf,9951e9e19ac8d2805f824fbd20694d03,,,"Cs_Computer science/CsNl_Natural language/Olive J., et al. (eds.) Handbook of natural language processing and machine translation (Springer, 2011)(ISBN 9781441977120)(O)(964s)_CsNl_.pdf",0,2000-01-01 01:00:00,2016-04-03 02:51:08,872000/9951e9e19ac8d2805f824fbd20694d03-d.jpg,,
6945939,Integration of world knowledge for natural language understanding,,"Atlantis thinking machines, v.3",,Ekaterina Ovchinnikova ,2012,,Atlantis Press,Amsterdam,252,0,English,Cs_Computer science/CsNl_Natural language/,kolxoz,10,"9789491216534,9491216538",,,,,,,,,,,0,,,,,,,1,1505916,pdf,626752cc8524205925f60ae20623923c,,,"Cs_Computer science/CsNl_Natural language/Ovchinnikova E. Integration of world knowledge for natural language understanding (Atlantis Press, 2012)(ISBN 9789491216527)(O)(252s)_CsNl_.pdf",0,2000-01-01 01:00:00,2016-04-03 02:51:08,872000/626752cc8524205925f60ae20623923c-d.jpg,,
6945940,Introduction to natural language semantics,,"CSLI lecture notes, no. 80",,Henriëtte de Swart ,1998,,CSLI Publications,"Stanford, Calif",271,0,English,Cs_Computer science/CsNl_Natural language/,kolxoz,10,"1575861399,9781575861395,1575861380,9781575861388",,,,,,,,,,,600,,,,,,,1,1931126,djvu,a1ad622a184b684d4514ca55b892e0f1,,,"Cs_Computer science/CsNl_Natural language/de Swart H. Introduction to natural language semantics (CSLI, 1998)(ISBN 1575861380)(600dpi)(T)(271s)_CsAi_.djvu",0,2000-01-01 01:00:00,2016-04-03 02:51:08,872000/a1ad622a184b684d4514ca55b892e0f1-d.jpg,,
6945941,Grammatical Inference: Learning Automata and Grammars,,,,de la Higuera C. ,2010,,CUP,,433,0,English,Cs_Computer science/CsNl_Natural language/,kolxoz,10,9780521963165,,,,,,,,,,,0,,,,,,,1,2492768,pdf,95878dcde648d53d16168218a2f181c3,,,"Cs_Computer science/CsNl_Natural language/de la Higuera C. Grammatical Inference.. Learning Automata and Grammars (CUP, 2010)(ISBN 9780521963165)(O)(433s)_CsAi_.pdf",0,2000-01-01 01:00:00,2016-04-03 02:51:08,872000/95878dcde648d53d16168218a2f181c3-g.jpg,,
6945942,Синтаксические структуры естественного языка в автоматизированных системах общения,,,,Гладкий А.В. ,1985,,Наука,,145,0,Russian,Cs_Computer science/CsNl_Natural language/,kolxoz,10,,,,,,,,,,,,600,,,,,,,1,4449579,djvu,419bc66742ee376993ad693114204114,,,"Cs_Computer science/CsNl_Natural language/Gladkij A.V. Sintaksicheskie struktury estestvennogo jazyka v avtomatizirovannyh sistemah obshchenija (ru)(Nauka, 1985)(600dpi)(T)(145s)_CsNl_.djvu",0,2000-01-01 01:00:00,2016-04-03 02:51:08,872000/419bc66742ee376993ad693114204114-g.jpg,,
6945943,Super-recursive algorithms,,Monographs in computer science,,M  S Burgin ,2005,,Springer,"New York, NY",314,0,English,Cs_Computer science/CsNp_Computability/,kolxoz,10,"0387955690,9780387955698,9780387268064,0387268065",,,,,,,,,,,0,,,,,,,1,2140634,pdf,ca2d7b0f375ca494fdd201500d1977e5,,,"Cs_Computer science/CsNp_Computability/Burgin M. Super-recursive algorithms (Springer, 2005)(ISBN 0387955690)(O)(314s)_CsNp_.pdf",0,2000-01-01 01:00:00,2016-04-03 02:51:08,872000/ca2d7b0f375ca494fdd201500d1977e5-d.jpg,,
6945944,Computability in context. Computation and logic in the real world,,,,"Cooper S.B., Sorbi A. (eds.) ",2009,,WS,,419,0,English,Cs_Computer science/CsNp_Computability/,kolxoz,10,"9781848162778,1848162774",,,,,,,,,,,0,,,,,,,1,2312251,pdf,f7d8f1db2d6e92d1d1e8aced22fdb2e5,,,"Cs_Computer science/CsNp_Computability/Cooper S.B., Sorbi A. (eds.)  Computability in context. Computation and logic in the real world (WS, 2009)(ISBN 1848162456)(O)(419s)_CsNp_.pdf",0,2000-01-01 01:00:00,2016-04-03 02:51:08,872000/f7d8f1db2d6e92d1d1e8aced22fdb2e5-d.jpg,,
6945945,The complexity theory companion,,Texts in theoretical computer science,,Lane A Hemaspaandra; Mitsunori Ogihara ,2002,,Springer,Berlin ; New York,382,0,English,Cs_Computer science/CsNp_Computability/,kolxoz,10,"3540674195,9783540674191",,,,,,,,,,,600,,,,,,,1,3177334,djvu,e81ebc56d40de3d016a0d3ae46afa44e,,,"Cs_Computer science/CsNp_Computability/Hemaspaandra L.A., Ogihara M. The complexity theory companion (Springer, 2002)(ISBN 3540674195)(T)(O)(600dpi)(382s)_CsNp_.djvu",0,2000-01-01 01:00:00,2016-04-03 02:51:08,872000/e81ebc56d40de3d016a0d3ae46afa44e-d.jpg,,
6945946,Колмогоровская сложность и алгоритмическая случайность,,,,"Верещагин Н.К., Успенский В.А., Шень А. ",2012,,МЦНМО,,588,0,Russian,Cs_Computer science/CsNp_Computability/,kolxoz,10,9785940577096,,,,,,,10.1016/j.ic.2006.10.004,,,,600,,,,,,,1,4568952,djvu,6cfc3901fb0ff57731d392be9859878d,,,"Cs_Computer science/CsNp_Computability/Vereshchagin N.K., Uspenskij V.A., Shen# A. Kolmogorovskaya slozhnost# i algoritmicheskaya sluchajnost# (MCNMO, 2012)(ISBN 9785940577096)(ru)(600dpi)(T)(O)(588s)_CsNp_.djvu",0,2000-01-01 01:00:00,2016-04-03 02:51:08,872000/6cfc3901fb0ff57731d392be9859878d-g.jpg,,
6945947,The D programming language,,,,Andrei Alexandrescu ,2010,,Addison-Wesley,"Upper Saddle River, NJ",492,0,English,Cs_Computer science/CsPl_Programming languages/,kolxoz,10,"9780321635365,0321635361",,,,,,,,,,,600,,,,,,,1,3331258,djvu,79530f51c21dce2f2ed3f4c812d9aff0,,,"Cs_Computer science/CsPl_Programming languages/Alexandrescu A. The D programming language (Pearson, 2010)(ISBN 9780321635365)(600dpi)(T)(O)(492s)_CsPl_.djvu",0,2000-01-01 01:00:00,2016-04-03 02:51:08,872000/79530f51c21dce2f2ed3f4c812d9aff0-d.jpg,,
6945948,Haskell-Intensivkurs: Ein kompakter Einstieg in die funktionale Programmierung,,Xpert.press,,Marco Block; Adrian Neumann ,2010,,Springer-Verlag Berlin Heidelberg,"Berlin, Heidelberg",298,0,German,Cs_Computer science/CsPl_Programming languages/,kolxoz,10,"9783642047183,3642047181,9783642047176,3642047173",,,,,,,,,,,0,,,,,,,1,3913595,pdf,b2f87407045256d005a3f607d99a2311,,,"Cs_Computer science/CsPl_Programming languages/Block M., Neumann A. Haskell-Intensivkurs.. Ein kompakter Einstieg in die funktionale Programmierung (de)(Springer, 2010)(ISBN 3642047173)(O)(298s)_CsPl_.pdf",0,2000-01-01 01:00:00,2016-04-03 02:51:08,872000/b2f87407045256d005a3f607d99a2311-d.jpg,,
6945949,Multiparadigm Programming in Leda,,,,Timothy Budd ,1994,,Addison-Wesley,"Reading, Mass",412,0,English,Cs_Computer science/CsPl_Programming languages/,kolxoz,10,"0201820803,9780201820805",,,,,,,,,,,600,,,,,,,1,2764138,djvu,26ad2eb5f675e4acce984bc25888431b,,,"Cs_Computer science/CsPl_Programming languages/Budd T. Multiparadigm Programming in Leda (AW, 1994)(ISBN 0201820803)(600dpi)(T)(412s)_CsPl_.djvu",0,2000-01-01 01:00:00,2016-04-03 02:51:08,872000/26ad2eb5f675e4acce984bc25888431b-d.jpg,,
6945950,"Pattern-oriented software architecture, vol.4: patterns for distributed computing",,"Pattern-oriented software architecture / Frank Buschmann ..., Vol. 4.; Wiley series in software design patterns.; Wiley software patterns series",,Frank Buschmann; Kevlin Henney; Douglas C Schmidt ,2007,,Wiley,Chichester [u.a.],639,0,English,Cs_Computer science/CsPl_Programming languages/,kolxoz,10,"0470059028,9780470059029",,,,,,,,,,,0,,,,,,,1,2426741,pdf,84f81c4e5fb3ff0f5f053749173312a0,,,"Cs_Computer science/CsPl_Programming languages/Buschmann F., et al. Pattern-oriented software architecture, vol.4.. patterns for distributed computing (Wiley, 2007)(ISBN 9780470059029)(639s)_CsPl_.pdf",0,2000-01-01 01:00:00,2016-04-03 02:51:08,872000/84f81c4e5fb3ff0f5f053749173312a0-d.jpg,,
6945951,"Pattern-oriented software architecture, vol.5: on patterns and pattern languages",,Wiley series in software design patterns,,Frank Buschmann; Kevlin Henney; Douglas C Schmidt ,2007,,John Wiley,"Chichester, England ; Hoboken, NJ",491,0,English,Cs_Computer science/CsPl_Programming languages/,kolxoz,10,"0471486485,9780471486480",,,,,,,,,,,0,,,,,,,1,4807827,pdf,53624e5b5eabb44a2ad906ff6d6c0de7,,,"Cs_Computer science/CsPl_Programming languages/Buschmann F., et al. Pattern-oriented software architecture, vol.5.. on patterns and pattern languages (Wiley, 2007)(ISBN 9780471486480)(O)(491s)_CsPl_.pdf",0,2000-01-01 01:00:00,2016-04-03 02:51:08,872000/53624e5b5eabb44a2ad906ff6d6c0de7-d.jpg,,
6945952,Implementations of PROLOG,,Ellis Horwood series in artificial intelligence,,Campbell J.A. (ed.) ,1984,,Ellis Horwood,,395,0,English,Cs_Computer science/CsPl_Programming languages/,kolxoz,10,"0470200448,9780470200445,0470200456,9780470200452,0853126186,9780853126188,9780853126751,0853126755,0134516265,9780134516264",,,,,,,,,,,600,,,,,,,1,3716048,djvu,198a2457565194b884072e3cb91d0d74,,,"Cs_Computer science/CsPl_Programming languages/Campbell J.A. (ed.) Implementations of PROLOG (Ellis Horwood, 1984)(ISBN 0853126755)(600dpi)(T)(395s)_CsPl_.djvu",0,2000-01-01 01:00:00,2016-04-03 02:51:08,,,
6945953,Think Python,,,,Allen Downey ,2012,,O'Reilly,"Sebastopol, CA",298,0,English,Cs_Computer science/CsPl_Programming languages/,kolxoz,10,"9781449332037,144933203X,9781449332020,1449332021",,,,,,,,,,,0,,,,,,,1,2553694,pdf,dd804d2ffd47f5f2d0b3d28b1d602d10,,,"Cs_Computer science/CsPl_Programming languages/Downey A.B. Think Python (O#Reilly, 2012)(ISBN 9781449330729)(O)(298s)_CsPl_.pdf",0,2000-01-01 01:00:00,2016-04-03 02:51:08,872000/dd804d2ffd47f5f2d0b3d28b1d602d10-d.jpg,,
6945954,Scala fuer Umsteiger,,,,Friedrich Esser ,2011,,Oldenbourg,München,415,0,German,Cs_Computer science/CsPl_Programming languages/,kolxoz,10,"9783486596939,3486596934",,,,,,,,,,,0,,,,,,,1,1848704,pdf,540fb65f5dc65aa47a421795f5e19da4,,,"Cs_Computer science/CsPl_Programming languages/Esser F. Scala fuer Umsteiger (de)(Oldenbourg, 2011)(ISBN 9783486596939)(O)(415s)_CsPl_.pdf",0,2000-01-01 01:00:00,2016-04-03 02:51:08,,,
6945955,Essentials of programming languages,,,,Daniel P Friedman; Mitchell Wand ,2008,3ed.,MIT Press,"Cambridge, MA",433,0,English,Cs_Computer science/CsPl_Programming languages/,kolxoz,10,"9780262273275,0262273276,9781435647596,1435647599,0262062798,9780262062794",,,,,,,,,,,0,,,,,,,1,1285516,pdf,ea1eb0ac2b2eb0fd38d40926b5e8e791,,,"Cs_Computer science/CsPl_Programming languages/Friedman D.P., Wand M. Essentials of programming languages (3ed., MIT, 2008)(ISBN 0262062798)(433s)_CsPl_.pdf",0,2000-01-01 01:00:00,2016-04-03 02:51:08,872000/ea1eb0ac2b2eb0fd38d40926b5e8e791-d.jpg,,
6945956,Programming languages: principles and practice,,,,Kenneth C Louden; Kenneth Alfred Lambert ,2011,3ed.,Course Technology/Cengage Learning,"Boston, MA",666,0,English,Cs_Computer science/CsPl_Programming languages/,kolxoz,10,"9781111529413,1111529418,9781111577636,1111577633",,,,,,,,,,,0,,,,,,,1,2916339,pdf,062750ade02e28185b1fb8e8cf6dc89e,,,"Cs_Computer science/CsPl_Programming languages/Louden K.C., Lambert K.A. Programming languages.. principles and practice (3ed., Course Technology, 2011)(ISBN 9781111529413)(666s)_CsPl_.pdf",0,2000-01-01 01:00:00,2016-04-03 02:51:08,872000/062750ade02e28185b1fb8e8cf6dc89e-d.jpg,,
6945957,"Moderne C++ Programmierung : Klassen, Templates, Design Patterns",,Xpert.press,,Ralf Schneeweiß ,2012,2. Aufl,Springer,Berlin,401,0,German,Cs_Computer science/CsPl_Programming languages/,kolxoz,10,"9783642214288,3642214282",,,,,,,,,,,0,,,,,,,1,1885727,pdf,98e05bb029228a21cc33c632463a3314,,,"Cs_Computer science/CsPl_Programming languages/Schneeweiss R. Moderne C++ Programmierung (Springer, 2012)(ISBN 9783642214288)(O)(401s)(de)_CsPl_.pdf",0,2000-01-01 01:00:00,2016-04-03 02:51:08,872000/98e05bb029228a21cc33c632463a3314-d.jpg,,
6945958,The formal semantics of programming languages: an introduction,,Foundations of computing,,Winskel G. ,1993,,MIT Press,"Cambridge, Mass",383,0,English,Cs_Computer science/CsPl_Programming languages/,kolxoz,10,"0262231697,9780262231695",,,,,,,,,,,600,,,,,,,1,2653942,djvu,d5cca6e4f401ae44b1db3c90875dea33,,,"Cs_Computer science/CsPl_Programming languages/Winskel G. The formal semantics of programming languages.. an introduction (MIT, 1993)(ISBN 0262231697)(600dpi)(T)(O)(383s)_CsPl_.djvu",0,2000-01-01 01:00:00,2016-04-03 02:51:08,,,
6945959,Язык программирования D,,,,Александреску А. ,2012,,Символ,,538,0,Russian,Cs_Computer science/CsPl_Programming languages/,kolxoz,10,9785932862056,,,,,,,,,,,300,,,,,,,1,3599540,djvu,213a8da263c0f1f9655d32709d562b19,,,"Cs_Computer science/CsPl_Programming languages/Aleksandresku A. Yazyk programmirovaniya __D__ (Simvol, 2012)(ru)(ISBN 9785932862056)(T)(O)(538s)_CsPl_.djvu",0,2000-01-01 01:00:00,2016-04-03 02:51:08,872000/213a8da263c0f1f9655d32709d562b19-g.jpg,,
6945960,Программирование на языке Паскаль: практическое руководство,,,,Прайс Д.(Price) ,1987,,Мир,,234,0,Russian,Cs_Computer science/CsPl_Programming languages/,kolxoz,10,,,,,,,,,,,,600,,,,,,,1,1966580,djvu,f780d92389e7d6f5cae551f1a263b98a,,,"Cs_Computer science/CsPl_Programming languages/Prajs D. (_Price_) Programmirovanie na jazyke Paskal#.. prakticheskoe rukovodstvo (Mir, 1987)(ru)(600dpi)(T)(234s)_CsPl_.djvu",0,2000-01-01 01:00:00,2016-04-03 02:51:08,872000/f780d92389e7d6f5cae551f1a263b98a-g.jpg,,
6945961,C++ Programming. Program design including data structures,,,,Malik D.S. ,2011,5ed., Course technology,,1617,0,English,Cs_Computer science/CsPl_Programming languages/C++/,kolxoz,10,9780538798092,,,,,,,,,,,0,1,,,,,,1,5695276,pdf,f7dbb24174dec136a8d4d91bd4a14a9f,,,"Cs_Computer science/CsPl_Programming languages/C++/Malik D.S. C++ Programming. Program design including data structures (5ed., Course technology, 2011)(ISBN 9780538798092)(C)(O)(1617s)_CsPl_.pdf",0,2000-01-01 01:00:00,2016-04-03 02:51:08,872000/f7dbb24174dec136a8d4d91bd4a14a9f-g.jpg,,
6945962,"Язык программирования C++, лекции и упражнения",,,,Прата С. ,2012,6изд., Вильямс,,1244,0,Russian,Cs_Computer science/CsPl_Programming languages/C++/,kolxoz,10,9785845917782,,,,,,,,,,,600,,,,,,,1,10341279,djvu,fc4263d48e10055daf164ca23d7c5a11,,,"Cs_Computer science/CsPl_Programming languages/C++/Prata S. Yazyk programmirovaniya __C++__, lekcii i uprazhneniya (6izd., Vil#yams, 2012)(ru)(ISBN 9785845917782)(600dpi)(T)(O)(1244s)_CsPl_.djvu",0,2000-01-01 01:00:00,2016-04-03 02:51:08,872000/fc4263d48e10055daf164ca23d7c5a11-g.jpg,,
6945963,Haskell-Intensivkurs: Ein kompakter Einstieg in die funktionale Programmierung,,Xpert.press,,Marco Block; Adrian Neumann ,2010,,Springer-Verlag Berlin Heidelberg,"Berlin, Heidelberg",298,0,German,Cs_Computer science/CsPl_Programming languages/Haskell/,kolxoz,10,"9783642047183,3642047181,9783642047176,3642047173",,,,,,,,,,,0,,,,,,,1,3914141,pdf,2ed04f380c23e2ff2911567d159745ff,,,"Cs_Computer science/CsPl_Programming languages/Haskell/Block M., Neumann A. Haskell-Intensivkurs.. Ein kompakter Einstieg in die funktionale Programmierung (de)(Springer, 2010)(ISBN 3642047173)(O)(298s)_CsPl_.pdf",0,2000-01-01 01:00:00,2016-04-03 02:51:08,872000/2ed04f380c23e2ff2911567d159745ff-d.jpg,,
6945964,The Seasoned Schemer,,,,"Daniel P. Friedman, Matthias Felleisen",1996,,The MIT Press,"Cambridge, Mass",225,0,English,Cs_Computer science/CsPl_Programming languages/Lisp,kolxoz,10,"026256100X,9780262561006",,,,,,,,,,,600,,,,,,,1,2407239,djvu,9f4c25450b9b90b09cc43105accc51c3,,,"Cs_Computer science/CsPl_Programming languages/Lisp/Friedman D.P., Felleisen M. The seasoned schemer (MIT, 1996)(ISBN 026256100X)(600dpi)(T)(O)(225s)_CsPl_.djvu",0,2000-01-01 01:00:00,2016-04-03 02:51:08,872000/9f4c25450b9b90b09cc43105accc51c3-d.jpg,,
6945965,ANSI Common Lisp,,Prentice Hall series in artificial intelligence,,Paul Graham ,1996,,Prentice Hall,"Englewood Cliffs, N.J",450,0,English,Cs_Computer science/CsPl_Programming languages/Lisp/,kolxoz,10,"0133708756,9780133708752",,,,,,,,,,,600,,,,,,,1,4824107,djvu,aa150434543ab765998aeb946bf5f925,,,"Cs_Computer science/CsPl_Programming languages/Lisp/Graham P. ANSI Common Lisp (PH, 1996)(ISBN 0133708756)(600dpi)(T)(O)(450s)_CsPl_.djvu",0,2000-01-01 01:00:00,2016-04-03 02:51:08,872000/aa150434543ab765998aeb946bf5f925-d.jpg,,
6945966,"The LispKit manual, vols.1 and 2",,,,"Henderson P., Jones G.A., Jones S.B. ",1983,, Oxford,,263,0,English,Cs_Computer science/CsPl_Programming languages/Lisp/,kolxoz,10,"0-13-215871-X,0-521-24503-6",,,,,,,,,,report PRG-32,400,,,,,,,1,1777458,djvu,71167f74a6e90c0048c8f694fcf40b8d,,,"Cs_Computer science/CsPl_Programming languages/Lisp/Henderson P., Jones G.A., Jones S.B. The LispKit manual, vols.1 and 2 (report PRG-32, Oxford, 1983)(400dpi)(T)(263s)_CsPl_.djvu",0,2000-01-01 01:00:00,2016-04-03 02:51:08,872000/71167f74a6e90c0048c8f694fcf40b8d-g.jpg,,
6945967,Common LISP : an interactive approach,,Principles of computer science series,,Stuart Charles Shapiro ,1992,,Computer Science Press,New York,346,0,English,Cs_Computer science/CsPl_Programming languages/Lisp/,kolxoz,10,"0716782189,9780716782186",,,,,,,,,,,0,,,,,,,1,960697,pdf,76e13766bf8a955ff650f7bb3c753803,,,"Cs_Computer science/CsPl_Programming languages/Lisp/Shapiro S.C. Common LISP (Computer Science Press, 1992)(ISBN 0716782189)(346s)_CsPl_.pdf",0,2000-01-01 01:00:00,2016-04-03 02:51:08,872000/76e13766bf8a955ff650f7bb3c753803-d.jpg,,
6945968,A primer on scientific programming with Python,,"Texts in computational science and engineering, 6",,Hans Petter Langtangen ,2012,3ed.,Springer,Berlin ; New York,820,0,English,Cs_Computer science/CsPl_Programming languages/Python/,kolxoz,10,"9783642302930,3642302939",,,,,,,10.1007/978-3-642-30293-0,,,,0,,,,,,,1,5435362,pdf,5722a6584b67eacfbddb19dd2245d5a7,,,"Cs_Computer science/CsPl_Programming languages/Python/Langtangen H.P. A primer on scientific programming with Python (3ed., Springer, 2012)(ISBN 9783642302923)(O)(820s)_CsPl_.pdf",0,2000-01-01 01:00:00,2016-04-03 02:51:08,,,
6945969,"Программирование на Python, Том 2",,,,Лутц М.(Lutz) ,2011,4изд., Символ,,991,0,Russian,Cs_Computer science/CsPl_Programming languages/Python/,kolxoz,10,9785932862117,,,,,,,,,,,0,,,,,,,1,12853418,pdf,cd465c2e11131910869529cabd82a94f,,,"Cs_Computer science/CsPl_Programming languages/Python/Lutc M. (_Lutz_) Programmirovanie na __Python__, Tom 2 (4izd., Simvol, 2011)(ru)(ISBN 9785932862117)(O)(991s)_CsPl_.pdf",0,2000-01-01 01:00:00,2016-04-03 02:51:08,872000/cd465c2e11131910869529cabd82a94f-g.jpg,,
6945970,Программирование на Python 3,,,,Саммерфилд М.(Summerfield) ,2009,,Символ,,609,0,Russian,Cs_Computer science/CsPl_Programming languages/Python/,kolxoz,10,9785932861615,,,,,,,,,,,600,,,,,,,1,5383027,djvu,1b670b213f46b2eed67720938939af99,,,"Cs_Computer science/CsPl_Programming languages/Python/Sammerfild M. (_Summerfield_) Programmirovanie na __Python__ 3 (Simvol, 2009)(ru)(ISBN 9785932861615)(600dpi)(T)(O)(609s)_CsPl_.djvu",0,2000-01-01 01:00:00,2016-04-03 02:51:08,872000/1b670b213f46b2eed67720938939af99-g.jpg,,
6945971,A History of Modern Computing,,History of computing,,Paul E Ceruzzi ,2003,2ed.,MIT Press,"London, Eng. ; Cambridge, Mass",459,0,English,Cs_Computer science/CsPop_Popular-level/,kolxoz,10,"0262532034,9780262532037",,,,,,,,,,,0,,,,,,,1,4399381,pdf,e903e06e03716fe6ba69fa1baf2f2751,,,"Cs_Computer science/CsPop_Popular-level/Ceruzzi P.E. A History of Modern Computing (2ed., MIT,2003)(ISBN 0262532034)(O)(459s)_Cs_.pdf",0,2000-01-01 01:00:00,2016-04-03 02:51:08,,,
6945972,The worldwide history of telecommunications,,,,Anton A Huurdeman ,2003,,J. Wiley,New York,656,0,English,Cs_Computer science/CsPop_Popular-level/,kolxoz,10,"0471205052,9780471205050",,,,,,,,,,,0,,,,,,,1,12109883,pdf,689281470ca18cb52019ba54962a07e8,,,"Cs_Computer science/CsPop_Popular-level/Huurdeman A.A. The worldwide history of telecommunications (Wiley, 2003)(ISBN 0471205052)(656s)_CsPop_.pdf",0,2000-01-01 01:00:00,2016-04-03 02:51:08,872000/689281470ca18cb52019ba54962a07e8-d.jpg,,
6945973,Abgruende der Informatik: Geheimnisse und Gemeinheiten,,,,Alois Potton ,2012,,Springer,Heidelberg,242,0,German,Cs_Computer science/CsPop_Popular-level/,kolxoz,10,"9783642229756,3642229751",,,,,,,10.1007/978-3-642-22975-6,,,,0,,,,,,,1,849117,pdf,fed58805cb69adecafb9a45f9274b1e0,,,"Cs_Computer science/CsPop_Popular-level/Potton A. Abgruende der Informatik.. Geheimnisse und Gemeinheiten (de)(Springer, 2012)(ISBN 3642229743)(O)(242s)_Cs_.pdf",0,2000-01-01 01:00:00,2016-04-03 02:51:08,872000/fed58805cb69adecafb9a45f9274b1e0-d.jpg,,
6945974,The code book : the secret history of codes and code-breaking,,,,Simon Singh ,2000,,Fourth Estate,London,418,0,English,Cs_Computer science/CsPop_Popular-level/,kolxoz,10,"1857028899,9781857028898,1857028791,9781857028799",,,,,,,,,,,600,,,,,,,1,4966241,djvu,3ec89924a33f13c72b3bcb25f0cffbc8,,,"Cs_Computer science/CsPop_Popular-level/Singh S. The code book. The secret history of codes and codebreaking (Fourth estate, 2000)(ISBN 1857028899)(600dpi)(T)(418s)_CsPop_.djvu",0,2000-01-01 01:00:00,2016-04-03 02:51:08,872000/3ec89924a33f13c72b3bcb25f0cffbc8-d.jpg,,
6945975,The code book : the secret history of codes and code-breaking,,,,Simon Singh ,2002,,Fourth Estate,London,418,0,English,Cs_Computer science/CsPop_Popular-level/,kolxoz,10,"1857028899,9781857028898,1857028791,9781857028799",,,,,,,,,,,600,1,,,,,,1,9484087,djvu,80c52c0eb2f696ab748bfa0b61ecb87a,,,"Cs_Computer science/CsPop_Popular-level/Singh S. The code book.. The secret history of codes & codebreaking (Harpercollins, 2002)(ISBN 1857028899)(600dpi)(T)(C)(418s)_CsPop_.djvu",0,2000-01-01 01:00:00,2016-04-03 02:51:08,872000/80c52c0eb2f696ab748bfa0b61ecb87a-d.jpg,,
6945976,сост.) Современные проблемы кибернетики. Сборник,,МК-1980-12,,Гуревич И.Б. ,1980,, Знание,,66,0,Russian,Cs_Computer science/CsPop_Popular-level/,kolxoz,10,,,,,,,,,,,,600,,1,,,,,1,1277714,djvu,1b3104683dcdf045232966f744291149,,,"Cs_Computer science/CsPop_Popular-level/Gurevich I.B. (sost.) Sovremennye problemy kibernetiki. Sbornik (MK-1980-12, Znanie, 1980)(ru)(T)(K)(O)(600dpi)(66s)_CsPop_.djvu",0,2000-01-01 01:00:00,2016-04-03 02:51:08,872000/1b3104683dcdf045232966f744291149-g.jpg,,
6945977,Из истории вычислительной техники,,,,"Душутин Н.К., Ушакова С.Н., Ясюкевич Ю.В. ",2011,, ИГУ,Иркутск,277,0,Russian,Cs_Computer science/CsPop_Popular-level/,kolxoz,10,9785962405575,,,,,,,,,,,0,,,,,,,1,4060647,pdf,a8f63914b67e63aa7396a92520f20af5,,,"Cs_Computer science/CsPop_Popular-level/Dushutin N.K., Ushakova S.N., Yasyukevich Yu.V. Iz istorii vychislitel#noj texniki (Irkutsk, IGU, 2011)(ru)(ISBN 9785962405575)(277s)_CsPop_.pdf",0,2000-01-01 01:00:00,2016-04-03 02:51:08,872000/a8f63914b67e63aa7396a92520f20af5-g.jpg,,
6945978,Я иду на урок информатики. Задачи по программированию 7-11 кл. ,,,,Златопольский Д.М. ,2001,,,,209,0,Russian,Cs_Computer science/CsPop_Popular-level/,kolxoz,10,5824600708,,,,,,,,,,,300,,,,,,,1,1286646,djvu,7cafd7681b9888808f5b911ea024cd28,,,Cs_Computer science/CsPop_Popular-level/Zlatopol#skij D.M. Ya idu na urok informatiki. Zadachi po programmirovaniyu 7-11 kl. (2001)(ISBN 5824600708)(ru)(T)(209s)_CsPop_.djvu,0,2000-01-01 01:00:00,2016-04-03 02:51:08,872000/7cafd7681b9888808f5b911ea024cd28-g.jpg,,
6945979,Кибернетика. Дела практические,,,,Пекелис В.Д. (ред.) ,1984,,Наука,,178,0,Russian,Cs_Computer science/CsPop_Popular-level/,kolxoz,10,,,,,,,,,,,,600,,1,,,,,1,3182505,djvu,f238fdddeecdc4cf54903c3ef25779b5,,,"Cs_Computer science/CsPop_Popular-level/Pekelis V.D. (red.) Kibernetika. Dela prakticheskie (Nauka, 1984)(ru)(T)(K)(O)(600dpi)(178s)_CsPop_.djvu",0,2000-01-01 01:00:00,2016-04-03 02:51:08,872000/f238fdddeecdc4cf54903c3ef25779b5-g.jpg,,
6945980,сост.) Возможное и невозможное в кибернетике,,,,Пекелис В.Д. ,1964,,Наука,,224,0,Russian,Cs_Computer science/CsPop_Popular-level/,kolxoz,10,,,,,,,,,,,,600,,1,,,,,1,4121965,djvu,65655f59d8eb5023b4afe956d38ce263,,,"Cs_Computer science/CsPop_Popular-level/Pekelis V.D. (sost.) Vozmozhnoe i nevozmozhnoe v kibernetike (Nauka, 1964)(ru)(T)(O)(K)(600dpi)(224s)_CsPop_.djvu",0,2000-01-01 01:00:00,2016-04-03 02:51:08,872000/65655f59d8eb5023b4afe956d38ce263-g.jpg,,
6945981,Lectures on quantum information,,,,"Bruss D., Leuchs G. (eds.) ",2007,,Wiley-VCH,Weinheim ; [Chichester],636,0,English,Cs_Computer science/CsQc_Quantum computing/,kolxoz,10,"9783527405275,3527405275",,,,,,,,,,,0,,,,,,,1,10167524,pdf,e955faabc0cf76eac088679b6a110d82,,,"Cs_Computer science/CsQc_Quantum computing/Bruss D., Leuchs G. (eds.) Lectures on quantum information (Wiley, 2007)(ISBN 9783527405275)(O)(636s)_CsQc_.pdf",0,2000-01-01 01:00:00,2016-04-03 02:51:08,872000/e955faabc0cf76eac088679b6a110d82-d.jpg,,
6945982,Topological quantum computation,,"Regional conference series in mathematics, no. 112",,Zhenghan Wang ,2010,,Published for the  Conference Board of the Mathematical Sciences by the American Mathematical Society,"Providence, R.I",135,0,English,Cs_Computer science/CsQc_Quantum computing/,kolxoz,10,"9780821849309,0821849301",,,,,,,,,,,600,,,,,,,1,1330277,djvu,72b7f83ce3af153036be2ea14e1fdc5c,,,"Cs_Computer science/CsQc_Quantum computing/Wang Z. Topological quantum computation (AMS, 2010)(ISBN 0821849301)(600dpi)(T)(O)(135s)_CsQc_.djvu",0,2000-01-01 01:00:00,2016-04-03 02:51:08,872000/72b7f83ce3af153036be2ea14e1fdc5c-d.jpg,,
6945983,Конструктивная физика,,,,Ожигов Ю.И. ,2010,,РХД,,432,0,Russian,Cs_Computer science/CsQc_Quantum computing/,kolxoz,10,9785939728362,,,,,,,,,,,600,,1,,,,,1,5014343,djvu,e5d1f0a95a17fa169b5a221704bdf941,,,"Cs_Computer science/CsQc_Quantum computing/Ozhigov Yu.I. Konstruktivnaya fizika (RXD, 2010)(ru)(ISBN 9785939728362)(600dpi)(K)(T)(432s)_CsQc_.djvu",0,2000-01-01 01:00:00,2016-04-03 02:51:08,872000/e5d1f0a95a17fa169b5a221704bdf941-g.jpg,,
6945984,"Квантовый компьютер и квантовые вычисления, вып. 2",,,,Садовничий В.А. (ред.) ,1999,,РХД,,288,0,Russian,Cs_Computer science/CsQc_Quantum computing/,kolxoz,10,5898060251,,,,,,,,,,,600,,,,,,,1,1873760,djvu,1ae61dda8a0d5db1f1f2d46ec7d77546,,,"Cs_Computer science/CsQc_Quantum computing/Sadovnichij V.A. (red.) Kvantovyj komp#yuter i kvantovye vychisleniya, vyp. 2 (RXD, 1999)(ISBN 5898060251)(ru)(600dpi)(T)(288s)_CsQc_.djvu",0,2000-01-01 01:00:00,2016-04-03 02:51:08,872000/1ae61dda8a0d5db1f1f2d46ec7d77546-d.jpg,,
6945985,Введение в квантовую теорию информации,,,,Хренников А.Ю. ,2008,,ФМЛ,,286,0,Russian,Cs_Computer science/CsQc_Quantum computing/,kolxoz,10,9785922109512,,,,,,,,,,,600,,,,,,,1,2287781,djvu,f68e3b34b45c6f2c30c4ed12fbe08b33,,,"Cs_Computer science/CsQc_Quantum computing/Xrennikov A.Yu. Vvedenie v kvantovuyu teoriyu informacii (FML, 2008)(ISBN 9785922109512)(ru)(600dpi)(T)(O)(286s)_CsQc_.djvu",0,2000-01-01 01:00:00,2016-04-03 02:51:08,872000/f68e3b34b45c6f2c30c4ed12fbe08b33-g.jpg,,
6945986,"Надёжность и эффективность в технике 01 Методология, организация, терминология",,,, ,1986,,Машиностроение,,223,0,Russian,E_Engineering/,kolxoz,10,,,,,,,,,,,,300,,,,,,,1,11101840,djvu,2f4fd8da8cb7d92766c3c0445a4b0f53,,,"E_Engineering/Nadyozhnost# i e#ffektivnost# v texnike 01 Metodologiya, organizaciya, terminologiya (Mashinostroenie, 1986)(ru)(T)(223s)_E_.djvu",0,2000-01-01 01:00:00,2016-04-03 02:51:08,872000/2f4fd8da8cb7d92766c3c0445a4b0f53-g.jpg,,
6945987,Надёжность и эффективность в технике 02 Математические методы,,,, ,1987,,Машиностроение,,280,0,Russian,E_Engineering/,kolxoz,10,,,,,,,,,,,,300,,,,,,,1,6896353,djvu,5ef650a04ffb76a88a1b113ebc187f74,,,"E_Engineering/Nadyozhnost# i e#ffektivnost# v texnike 02 Matematicheskie metody (Mashinostroenie, 1987)(ru)(T)(280s)_E_.djvu",0,2000-01-01 01:00:00,2016-04-03 02:51:08,872000/5ef650a04ffb76a88a1b113ebc187f74-g.jpg,,
6945988,Надёжность и эффективность в технике 03 Эффективность технических систем,,,, ,1988,,Машиностроение,,328,0,Russian,E_Engineering/,kolxoz,10,,,,,,,,,,,,300,,,,,,,1,8586823,djvu,1e1a0b1068bcb3aec6c4e02a5d1062f8,,,"E_Engineering/Nadyozhnost# i e#ffektivnost# v texnike 03 E#ffektivnost# texnicheskix sistem (Mashinostroenie, 1988)(ru)(T)(328s)_E_.djvu",0,2000-01-01 01:00:00,2016-04-03 02:51:08,872000/1e1a0b1068bcb3aec6c4e02a5d1062f8-g.jpg,,
6945989,Надёжность и эффективность в технике 04 Методы подобия в надежности,,,, ,1987,,Машиностроение,,279,0,Russian,E_Engineering/,kolxoz,10,,,,,,,,,,,,300,,,,,,,1,7378391,djvu,1307a5c68c20929b0e7d480c7e44fb2c,,,"E_Engineering/Nadyozhnost# i e#ffektivnost# v texnike 04 Metody podobiya v nadezhnosti (Mashinostroenie, 1987)(ru)(T)(279s)_E_.djvu",0,2000-01-01 01:00:00,2016-04-03 02:51:08,872000/1307a5c68c20929b0e7d480c7e44fb2c-g.jpg,,
6945990,Надёжность и эффективность в технике 05 Проектный анализ надежности,,,, ,1988,,Машиностроение,,320,0,Russian,E_Engineering/,kolxoz,10,,,,,,,,,,,,300,,,,,,,1,8924456,djvu,5e93f0baa8afee74d8111f45887db8ba,,,"E_Engineering/Nadyozhnost# i e#ffektivnost# v texnike 05 Proektnyj analiz nadezhnosti (Mashinostroenie, 1988)(ru)(T)(320s)_E_.djvu",0,2000-01-01 01:00:00,2016-04-03 02:51:08,872000/5e93f0baa8afee74d8111f45887db8ba-g.jpg,,
6945991,Надёжность и эффективность в технике 06 Экспериментальная обработка и испытания,,,, ,1989,,Машиностроение,,375,0,Russian,E_Engineering/,kolxoz,10,,,,,,,,,,,,300,,,,,,,1,11028834,djvu,3b61feecf6e3116314e32ecd63fea332,,,"E_Engineering/Nadyozhnost# i e#ffektivnost# v texnike 06 E#ksperimental#naya obrabotka i ispytaniya  (Mashinostroenie, 1989)(ru)(T)(375s)_E_.djvu",0,2000-01-01 01:00:00,2016-04-03 02:51:08,872000/3b61feecf6e3116314e32ecd63fea332-g.jpg,,
6945992,Надёжность и эффективность в технике 07 Качество и надежность в производстве,,,, ,1989,,Машиностроение,,280,0,Russian,E_Engineering/,kolxoz,10,,,,,,,,,,,,300,,,,,,,1,8127152,djvu,4b0f905150bedef40bc1fbc463516884,,,"E_Engineering/Nadyozhnost# i e#ffektivnost# v texnike 07 Kachestvo i nadezhnost# v proizvodstve (Mashinostroenie, 1989)(ru)(T)(280s)_E_.djvu",0,2000-01-01 01:00:00,2016-04-03 02:51:08,872000/4b0f905150bedef40bc1fbc463516884-g.jpg,,
6945993,Надёжность и эффективность в технике 08 Эксплуатация и ремонт,,,, ,1990,,Машиностроение,,319,0,Russian,E_Engineering/,kolxoz,10,,,,,,,,,,,,300,,,,,,,1,11580279,djvu,cddeb18cb3717e7a0604af20847f5205,,,"E_Engineering/Nadyozhnost# i e#ffektivnost# v texnike 08 E#kspluataciya i remont (Mashinostroenie, 1990)(ru)(T)(319s)_E_.djvu",0,2000-01-01 01:00:00,2016-04-03 02:51:08,872000/cddeb18cb3717e7a0604af20847f5205-g.jpg,,
6945994,Надёжность и эффективность в технике 09 Техническая диагностика,,,, ,1987,,Машиностроение,,351,0,Russian,E_Engineering/,kolxoz,10,,,,,,,,,,,,300,,,,,,,1,9934956,djvu,aedc16baf95341093de13684ea134441,,,"E_Engineering/Nadyozhnost# i e#ffektivnost# v texnike 09 Texnicheskaya diagnostika (Mashinostroenie, 1987)(ru)(T)(351s)_E_.djvu",0,2000-01-01 01:00:00,2016-04-03 02:51:08,872000/aedc16baf95341093de13684ea134441-g.jpg,,
6945995,Надёжность и эффективность в технике 10 Справочные данные по условиям эксплуатации и характеристикам,,,, ,1990,,Машиностроение,,330,0,Russian,E_Engineering/,kolxoz,10,,,,,,,,,,,,300,,,,,,,1,10841734,djvu,1b9712421f81f6f996f2fc65814de2fa,,,"E_Engineering/Nadyozhnost# i e#ffektivnost# v texnike 10 Spravochnye dannye po usloviyam e#kspluatacii i xarakteristikam (Mashinostroenie, 1990)(ru)(T)(330s)_E_.djvu",0,2000-01-01 01:00:00,2016-04-03 02:51:08,872000/1b9712421f81f6f996f2fc65814de2fa-g.jpg,,
6945996,"Engineering noise control, theory and practice",,,,David A Bies; Colin H Hansen ,2009,4ed.,Spon Press/Taylor &  Francis,London ; New York,768,0,English,E_Engineering/,kolxoz,10,"0415487064,0415487072,0203872401,9780415487061,9780415487078,9780203872406",,,,,,,,,,,0,,,,,,,1,18664061,pdf,58d2e9eb99a1c3ea7a0f06f70d970b30,,,"E_Engineering/Bies D., Hansen C. Engineering noise control, theory and practice (4ed., Taylor, 2009)(ISBN 9780415487061)(O)(768s)_E_.pdf",0,2000-01-01 01:00:00,2016-04-03 02:51:08,872000/58d2e9eb99a1c3ea7a0f06f70d970b30-d.jpg,,
6945997,"Combustion generated fine carbonaceous particles proceedings of an international workshop held in Villa Orlandi, Anacapri, May 13 - 16, 2007",,,,"Bockhorn H., et al. (eds.) ",2009,,"Karlsruhe KIT, Scientific Publ. 2009",,754,0,English,E_Engineering/,kolxoz,10,"9783866444416,3866444419",,,,,,,,,,,0,,,,,,,1,15333828,pdf,d2704dd23602cf5ae35ef1f72a792792,,,"E_Engineering/Bockhorn H., et al. (eds.) Combustion generated fine carbonaceous particles (KIT Scientific Publ., 2009)(ISBN 9783866444416)(754s)_E_.pdf",0,2000-01-01 01:00:00,2016-04-03 02:51:08,,,
6945998,Control System Dynamics,,,,Robert N Clark ,1996,,Cambridge University Press,Cambridge ; New York,526,0,English,E_Engineering/,kolxoz,10,"0521472393,9780521472395",,,,,,,,,,,300,,,,,,,1,3862346,djvu,0f9e2da38591697a34f117234b2dff4a,,,"E_Engineering/Clark R.N. Control System Dynamics (CUP, 1996)(ISBN 9780521472395)(T)(O)(526s)_E_.djvu",0,2000-01-01 01:00:00,2016-04-03 02:51:08,872000/0f9e2da38591697a34f117234b2dff4a-d.jpg,,
6945999,Introduction to robotics : mechanics and control,,,,John J Craig ,2005,3ed.,Pearson/Prentice Hall,"Upper Saddle River, N.J",408,0,English,E_Engineering/,kolxoz,10,"0201543613,9780201543612,0131236296,9780131236295,9788178084510,8178084511",,,,,,,,,,,300,,,,,,,1,3585369,djvu,4e2fa596a1b0d42a553cbb59e97aba5c,,,"E_Engineering/Craig J.J. Introduction to Robotics Mechanics and Control (3ed., Pearson, 2005)(ISBN 0131236296)(T)(O)(408s)_E_.djvu",0,2000-01-01 01:00:00,2016-04-03 02:51:08,872000/4e2fa596a1b0d42a553cbb59e97aba5c-d.jpg,,
6946000,Soft Materials: Structure and Dynamics,,,,John R Dutcher; Alejandro G Marangoni  (eds.),2004,,Marcel Dekker,New York,389,0,English,E_Engineering/,kolxoz,10,"0824753585,9780824753580",,,,,,,,,,,0,,,,,,,1,9502160,pdf,97d31a96520686582193a3a19164f1ef,,,"E_Engineering/Dutcher J.R., Marangoni A.G. (eds.) Soft Materials.. Structure and Dynamics (CRC, 2004)(ISBN 9780824753580)(O)(389s)_E_.pdf",0,2000-01-01 01:00:00,2016-04-03 02:51:08,872000/97d31a96520686582193a3a19164f1ef-d.jpg,,
6946001,Engineering design : representation and reasoning,,,,Clive L Dym; David C Brown ,2012,2nd ed,Cambridge University Press,New York,210,0,English,E_Engineering/,kolxoz,10,"9780521514293,0521514290",,,,,,,,,,,0,,,,,,,1,2463519,pdf,de9daac41d9f62ba797c65b148512b46,,,"E_Engineering/Dym C.L., Brown D.C. Engineering Design (CUP, 2012)(ISBN 9780521514293)(O)(210s)_E_.pdf",0,2000-01-01 01:00:00,2016-04-03 02:51:08,872000/de9daac41d9f62ba797c65b148512b46-d.jpg,,
6946002,Signals and systems made ridiculously simple,,,,Zoher Z Karu ,1995,,ZiZi Press,"Cambridge, MA",139,0,English,E_Engineering/,kolxoz,10,"0964375214,9780964375215",,,,,,,,,,,600,,,,,,,1,1791981,djvu,1cfbc9228d195b8f530cb068169215af,,,"E_Engineering/Karu Z.Z. Signals and systems made ridiculously simple (ZiZi Press, 1995)(ISBN 0964375214)(600dpi)(T)(O)(139s)_E_.djvu",0,2000-01-01 01:00:00,2016-04-03 02:51:08,872000/1cfbc9228d195b8f530cb068169215af-d.jpg,,
6946003,Engines: an introduction,,,,John Leask Lumley ,1999,,Cambridge university press,"Cambridge, UK",268,0,English,E_Engineering/,kolxoz,10,"0521642779,9780521642774,0521644895,9780521644891",,,,,,,,,,,300,,,,,,,1,2691826,djvu,6a79bd5d1a7e37c0e34fbe31e3ef55de,,,"E_Engineering/Lumley J.L. Engines.. an introduction (CUP, 1999)(ISBN 9780521642774)(T)(O)(268s)_E_.djvu",0,2000-01-01 01:00:00,2016-04-03 02:51:08,872000/6a79bd5d1a7e37c0e34fbe31e3ef55de-d.jpg,,
6946004,"Green tribology: biomimetics, energy conservation and sustainability",,Green Energy and Technology; Green Energy and Technology,,Michael Nosonovsky; Bharat Bhushan  (eds.),2012,,Springer Berlin Heidelberg,"Berlin, Heidelberg",647,0,English,E_Engineering/,kolxoz,10,"9783642236815,3642236812",,,,,,,10.1007/978-3-642-23681-5,,,,0,,,,,,,1,12736572,pdf,27ee46e2a47463a0567597532a8230cb,,,"E_Engineering/Nosonovsky M., Bhushan B. (eds.) Green tribology.. biomimetics, energy conservation and sustainability (Springer, 2012)(ISBN 9783642236808)(O)(647s)_E_.pdf",0,2000-01-01 01:00:00,2016-04-03 02:51:08,,,
6946005,"Biomimetics in materials science : self-healing, self-lubricating, and self-cleaning materials",,"Springer series in materials science, 152",,Mikhail Nosonovskiĭ; P  K Rohatgi ,2012,,Springer,"New York, NY",432,0,English,E_Engineering/,kolxoz,10,"9781461409267,1461409268",,,,,,,10.1007/978-1-4614-0926-7,,,,0,,,,,,,1,7434446,pdf,5f609674de29432af4b86db198e6607f,,,"E_Engineering/Nosonovsky M., Rohatgi P.K. Biomimetics in materials science.. Sef-healing, self-lubricating, and self-cleaning materials(Springer, 2012)(ISBN 9781461409250)(O)(432s)_E_.pdf",0,2000-01-01 01:00:00,2016-04-03 02:51:08,872000/5f609674de29432af4b86db198e6607f-d.jpg,,
6946006,An engineer's alphabet : gleanings from the softer side of a profession,,,,Henry Petroski ,2011,,Cambridge University Press,England ; New York,368,0,English,E_Engineering/,kolxoz,10,"9781107015067,1107015065",,,,,,,,,,,600,,,,,,,1,2671291,djvu,156fae67b2be9038f382b8e8a567e5f6,,,"E_Engineering/Petroski H. An Engineer#s Alphabet (CUP, 2011)(ISBN 9781107015067)(600dpi)(T)(O)(368s)_E_.djvu",0,2000-01-01 01:00:00,2016-04-03 02:51:08,872000/156fae67b2be9038f382b8e8a567e5f6-d.jpg,,
6946007,Design paradigms: case histories of errors and judgment in engineering,,,,Henry Petroski ,1994,,Cambridge University Press,"Cambridge [England] ; New York, N.Y",221,0,English,E_Engineering/,kolxoz,10,"0521461081,9780521461085,0521466490,9780521466493",,,,,,,,,,,300,,,,,,,1,2822244,djvu,47abc872dfd508bf10f3f3325d23e9ba,,,"E_Engineering/Petroski H. Design paradigms.. case histories of errors and judgment in engineering (CUP, 1994)(ISBN 9780521461085)(T)(O)(221s)_E_.djvu",0,2000-01-01 01:00:00,2016-04-03 02:51:08,872000/47abc872dfd508bf10f3f3325d23e9ba-d.jpg,,
6946008,CRC materials science and engineering handbook,,,,James F Shackelford; William Alexander  (eds.),2001,3rd ed,CRC Press,"Boca Raton, FL",1928,0,English,E_Engineering/,kolxoz,10,"0849326966,9780849326967",,,,,,,,,,,0,,,,,,,1,13851942,pdf,95abbd7f1d2b810a8ea06b5e98986ce5,,,"E_Engineering/Shackelford J.F., Alexander W. (eds.) CRC materials science and engineering handbook (CRC, 2001)(ISBN 0849326966)(O)(1928s)_E_.pdf",0,2000-01-01 01:00:00,2016-04-03 02:51:08,872000/95abbd7f1d2b810a8ea06b5e98986ce5-d.jpg,,
6946009,"Handbook of reliability, availability, maintainability and safety in engineering design",,,,Rudolph Frederick Stapelberg ,2009,,Springer,London,842,0,English,E_Engineering/,kolxoz,10,"9781848001756,1848001754",,,,,,,10.1007/978-1-84800-175-6,,,,0,,,,,,,1,12842146,pdf,b5e747a98ff5b8d7a97503748f86d4bd,,,"E_Engineering/Stapelberg R.F. Handbook of reliability, availability, maintainability and safety in engineering design (Springer, 2009)(ISBN 9781848001749)(O)(842s)_E_.pdf",0,2000-01-01 01:00:00,2016-04-03 02:51:08,872000/b5e747a98ff5b8d7a97503748f86d4bd-d.jpg,,
6946010,"Advances in environmental remote sensing : sensors, algorithms, and applications",,Taylor &  Francis series in remote sensing applications,,Weng Q. (ed.) ,2011,,CRC Press,Boca Raton,600,0,English,E_Engineering/,kolxoz,10,"9781420091755,1420091751",,,,,,,,,,,0,,,,,,,1,11509283,pdf,708c417bca5c15f989207c1191ec76db,,,"E_Engineering/Weng Q. (ed.) Advances in environmental remote sensing (CRC, 2011)(ISBN 1420091751)(O)(600s)_E_.pdf",0,2000-01-01 01:00:00,2016-04-03 02:51:08,872000/708c417bca5c15f989207c1191ec76db-d.jpg,,
6946011,"Hydraulics of dams and river structures : proceedings of the International Conference on Hydraulics of Dams and River Structures, 26-28 April 2004, Tehran, Iran",,,,"Yazdandoost F., Attari J. (eds.) ",2004,,Balkema,Leiden ; New York,610,0,English,E_Engineering/,kolxoz,10,"0203024095,9780203024096",,,,,,,,,,,0,,,,,,,1,16126437,pdf,d82bed9e4518ebc66aa8631ca89b1e27,,,"E_Engineering/Yazdandoost F., Attari J. (eds.) Hydraulics of dams and river structures (Taylor, 2004)(ISBN 0203024095)(O)(610s)_E_.pdf",0,2000-01-01 01:00:00,2016-04-03 02:51:08,872000/d82bed9e4518ebc66aa8631ca89b1e27-d.jpg,,
6946012,Советская школа механики машин,,,,Боголюбов А.Н. ,1975,,Наука,,175,0,Russian,E_Engineering/,kolxoz,10,,,,,,,,,,,,300,,1,,,,,1,2142248,djvu,920dc1731316b2f5c9a6a8efe25ff5d0,,,"E_Engineering/Bogolyubov A.N. Sovetskaya shkola mexaniki mashin (Nauka, 1975)(ru)(K)(T)(175s)_E_.djvu",0,2000-01-01 01:00:00,2016-04-03 02:51:08,872000/920dc1731316b2f5c9a6a8efe25ff5d0-g.jpg,,
6946013,Методы анализа безопасности АЭС при технологических авариях,,,,"Буторин С.Л., Шульман Г.С. ",2012,,Машиностроение,,437,0,Russian,E_Engineering/,kolxoz,10,9785942756116,,,,,,,,,,,600,1,,,,,,1,4658699,djvu,a52003209901675789b7658f29dde2ee,,,"E_Engineering/Butorin S.L., Shul#man G.S. Metody analiza bezopasnosti AE#S pri texnologicheskix avariyax (Mashinostroenie, 2012)(ru)(ISBN 9785942756116)(600dpi)(C)(T)(437s)_E_.djvu",0,2000-01-01 01:00:00,2016-04-03 02:51:08,872000/a52003209901675789b7658f29dde2ee-g.jpg,,
6946014,Элементы механизмов,,,,"Кожевников С.Н., и др. ",1956,2изд., ГИОП,,1079,0,Russian,E_Engineering/,kolxoz,10,,,,,,,,,,,,400,,,,,,,1,20777923,djvu,1a219972010635aaf9ef0c8dbb4a2031,,,"E_Engineering/Kozhevnikov S.N., i dr. E#lementy mexanizmov (2izd., GIOP, 1956)(ru)(400dpi)(T)(1079s)_E_.djvu",0,2000-01-01 01:00:00,2016-04-03 02:51:08,872000/1a219972010635aaf9ef0c8dbb4a2031-g.jpg,,
6946015,Возникновение и развитие технических наук,,,,Козлов Б.И. ,1988,,Наука,,248,0,Russian,E_Engineering/,kolxoz,10,502027240X,,,,,,,,,,,400,1,1,,,,,1,5532224,djvu,a9659dd6d8fe6609a7a540d28ced475b,,,"E_Engineering/Kozlov B.I. Vozniknovenie i razvitie texnicheskix nauk (Nauka, 1988)(ru)(ISBN 502027240X)(400dpi)(C)(K)(T)(248s)_E_.djvu",0,2000-01-01 01:00:00,2016-04-03 02:51:08,,,
6946016,Этажи надежности,,,,"Красновский А.А., Ткаченко Л.Г. ",1971,,Машиностроение,,161,0,Russian,E_Engineering/,kolxoz,10,,,,,,,,,,,,600,,,,,,,1,1881831,djvu,c9a204a21c0ff85b4834bbfe1587d11a,,,"E_Engineering/Krasnovskij A.A., Tkachenko L.G. E#tazhi nadezhnosti (Mashinostroenie, 1971)(ru)(600dpi)(T)(161s)_E_.djvu",0,2000-01-01 01:00:00,2016-04-03 02:51:08,872000/c9a204a21c0ff85b4834bbfe1587d11a-g.jpg,,
6946017,Инженерные сети городов и населенных пунктов,,,,Музалевская Г.Н. ,2006,,АСВ,,149,0,Russian,E_Engineering/,kolxoz,10,593093424X,,,,,,,,,,,600,,1,,,,,1,2173059,djvu,f6fdad426680a09be214962a76c70573,,,"E_Engineering/Muzalevskaya G.N. Inzhenernye seti gorodov i naselennyx punktov (ASV, 2006)(ru)(ISBN 593093424X)(600dpi)(K)(T)(149s)_E_.djvu",0,2000-01-01 01:00:00,2016-04-03 02:51:08,872000/f6fdad426680a09be214962a76c70573-g.jpg,,
6946018,Методы построения моделей течений в трубах и каналах,,,,"Селезнев В.Е., Прялов С.Н. ",2012,,УРСС,,560,0,Russian,E_Engineering/,kolxoz,10,9785354014316,,,,,,,,,,,300,,1,,,,,1,12793797,djvu,8b05c99bddb75e2b86b80a05cc0fbc2a,,,"E_Engineering/Seleznev V.E., Pryalov S.N. Metody postroeniya modelej techenij v trubax i kanalax (URSS, 2012)(ru)(ISBN 9785354014316)(K)(T)(560s)_E_.djvu",0,2000-01-01 01:00:00,2016-04-03 02:51:08,872000/8b05c99bddb75e2b86b80a05cc0fbc2a-g.jpg,,
6946019,Научные основы технологии машиностроения,,,,"Суслов А.Г., Дальский А.М. ",2002,,Машиностроение,,686,0,Russian,E_Engineering/,kolxoz,10,5217031085,,,,,,,,,,,600,,,,,,,1,13371431,djvu,462ed9fd631803f9442713505a8ef572,,,"E_Engineering/Suslov A.G., Dal#skij A.M. Nauchnye osnovy texnologii mashinostroeniya (Mashinostroenie, 2002)(ru)(ISBN 5217031085)(600dpi)(T)(686s)_E_.djvu",0,2000-01-01 01:00:00,2016-04-03 02:51:08,872000/462ed9fd631803f9442713505a8ef572-g.jpg,,
6946020,Современные технологии защиты и спасения,,,,Цаликов Р.Х. (ред.) ,2007,,Деловой экспресс,,288,0,Russian,E_Engineering/,kolxoz,10,9785896440987,,,,,,,,,,,0,1,,,,,,1,3256637,pdf,208554f931342c1ed7771be956a60251,,,"E_Engineering/Calikov R.X. (red.) Sovremennye texnologii zashchity i spaseniya (Delovoj e#kspress, 2007)(ru)(ISBN 9785896440987)(C)(288s)_E_.pdf",0,2000-01-01 01:00:00,2016-04-03 02:51:08,872000/208554f931342c1ed7771be956a60251-g.jpg,,
6946021,Малышев,,Жизнь Замечательных Людей,,Чалмаев В. ,1981,2изд.,Молодая Гвардия,,369,0,Russian,E_Engineering/,kolxoz,10,,,,,,,,,,,,600,1,,,,,,1,10728194,djvu,b4590db265855a395c67f72a15acfbe4,,,"E_Engineering/Chalmaev V. Malyshev (2izd., ZhZL, MG, 1981)(ru)(600dpi)(T)(C)(O)(369s)_E_.djvu",0,2000-01-01 01:00:00,2016-04-03 02:51:08,872000/b4590db265855a395c67f72a15acfbe4-g.jpg,,
6946022,Spacecraft Trajectory Optimization,,"Cambridge aerospace series, 29",,Conway B. (ed.) ,2010,,Cambridge University Press,Cambridge ; New York,312,0,English,E_Engineering/EAs_Aerospace/,kolxoz,10,"9780511909450,0511909454,0511906668,9780511906664,9780511903915,eBook,051190391X,eBook",,,,,,,,,,,0,,,,,,,1,3636972,pdf,6274352dbd2c825978dd75c723e788c3,,,"E_Engineering/EAs_Aerospace/Conway B. (ed.) Spacecraft Trajectory Optimization (CUP, 2010)(ISBN 0521518504)(O)(312s)_EAs_.pdf",0,2000-01-01 01:00:00,2016-04-03 02:51:08,872000/6274352dbd2c825978dd75c723e788c3-d.jpg,,
6946023,"Principles of GNSS, inertial, and multi-sensor integrated navigation systems",,GNSS technology and applications series,,Paul D Groves ,2008,,Artech House,Boston,522,0,English,E_Engineering/EAs_Aerospace/,kolxoz,10,1580532551,,,,,,,,,,,0,,,,,,,1,4044932,pdf,febc50ff09e8fbe37a154f3a700ad2db,,,"E_Engineering/EAs_Aerospace/Groves P.D. Principles of GNSS, inertial, and multi-sensor integrated navigation systems (Artech, 2008)(ISBN 1580532551)(O)(522s)_EAs_.pdf",0,2000-01-01 01:00:00,2016-04-03 02:51:08,872000/febc50ff09e8fbe37a154f3a700ad2db-d.jpg,,
6946024,Space Vehicle Dynamics and Control,,AIAA education series,,Bong Wie ,1998,,American Institute of Aeronautics and Astronautics,"Reston, VA",668,0,English,E_Engineering/EAs_Aerospace/,kolxoz,10,"9781601192196,1601192193",,,,,,,,,,,300,,,,,,,1,6032041,djvu,b08b9c87fae07a8006a51fdc012db0b4,,,"E_Engineering/EAs_Aerospace/Wie B. Space Vehicle Dynamics and Control (AIAA, 1998)(ISBN 1563472619)(T)(668s)_EAs_.djvu",0,2000-01-01 01:00:00,2016-04-03 02:51:08,872000/b08b9c87fae07a8006a51fdc012db0b4-d.jpg,,
6946025,Применение кватернионов в задачах ориентации твердого тела,,,,"Бранец В.Н., Шмыглевский И.П. ",1973,,ФМЛ,,321,0,Russian,E_Engineering/EAs_Aerospace/,kolxoz,10,,,,,,,,,,,,600,,,,,,,1,3376894,djvu,c12d00729022b3ea33c2c8bb65813e65,,,"E_Engineering/EAs_Aerospace/Branec V.N., Shmyglevskij I.P. Primenenie kvaternionov v zadachax orientacii tverdogo tela (FML, 1973)(ru)(600dpi)(T)(321s)_EAs_.djvu",0,2000-01-01 01:00:00,2016-04-03 02:51:08,872000/c12d00729022b3ea33c2c8bb65813e65-g.jpg,,
6946026,Братья Райт,,Жизнь Замечательных Людей,,Зенкевич М. ,1933,,Молодая Гвардия,,202,0,Russian,E_Engineering/EAs_Aerospace/,kolxoz,10,,,,,,,,,,,,600,,1,,,,,1,11672657,djvu,0a43ea587e592b8893b6716166e87b54,,,"E_Engineering/EAs_Aerospace/Zenkevich M. Brat#ya Rajt (ZhZL, 1933)(ru)(600dpi)(K)(T)(202s)_EAs_.djvu",0,2000-01-01 01:00:00,2016-04-03 02:51:08,872000/0a43ea587e592b8893b6716166e87b54-g.jpg,,
6946027,Генеральный конструктор Павел Сухой,,,,Кузьмина Л.М. ,1985,,,Минск,273,0,Russian,E_Engineering/EAs_Aerospace/,kolxoz,10,,,,,,,,,,,,300,,,,,,,1,2638244,djvu,bc31f26bd7cf27695a0600cc2bd2c420,,,"E_Engineering/EAs_Aerospace/Kuz#mina L.M. General#nyj konstruktor Pavel Suxoj (Minsk, 1985)(ru)(T)(O)(273s)_EAs_.djvu",0,2000-01-01 01:00:00,2016-04-03 02:51:08,872000/bc31f26bd7cf27695a0600cc2bd2c420-g.jpg,,
6946028,Analogue and digital electronics for engineers : an introduction,,Electronics texts for engineers and scientists,,"Ahmed H., Spreadbury P.J. ",1984,2nd ed,Cambridge University Press,Cambridge [Cambridgeshire] ; New York,303,0,English,E_Engineering/EE_Electrical engineering/,kolxoz,10,"0521264634,9780521264631,0521319102,9780521319102",,,,,,,,,,,300,,,,,,,1,3166513,djvu,801c39a5578e6574f31122b207596587,,,"E_Engineering/EE_Electrical engineering/Ahmed H., Spreadbury P.J. Analogue and Digital Electronics for Engineers (CUP, 1984)(ISBN 9780521264631)(T)(O)(303s)_EE_.djvu",0,2000-01-01 01:00:00,2016-04-03 02:51:08,,,
6946029,Power semiconductor devices,,,,B  Jayant Baliga ,1996,,PWS Pub. Co,Boston,621,0,English,E_Engineering/EE_Electrical engineering/,kolxoz,10,"0534940986,9780534940980",,,,,,,,,,,600,,,,,,,1,8681746,djvu,77ce0ad11fc185d0483c6ca1a49d087b,,,"E_Engineering/EE_Electrical engineering/Baliga B.J. Power semiconductor devices (PWS publ., 1996)(ISBN 0534940986)(600dpi)(T)(621s)_EE_.djvu",0,2000-01-01 01:00:00,2016-04-03 02:51:08,872000/77ce0ad11fc185d0483c6ca1a49d087b-d.jpg,,
6946030,"The circuits and filters handbook. Passive, active, and digital filters",,,,Chen W.K. (ed.) ,2009,3ed.,CRC Press,"Boca Raton, FL",840,0,English,E_Engineering/EE_Electrical engineering/,kolxoz,10,"9781420058857,1420058851,9781420055276,1420055275",,,,,,,,,,,0,,,,,,,1,13544172,pdf,e24dc04ea980913849f5b90cae388c90,,,"E_Engineering/EE_Electrical engineering/Chen W.K. (ed.) Passive, active, and digital filters (3ed., CRC, 2009)(ISBN 9781420058857)(O)(840s)_EE_.pdf",0,2000-01-01 01:00:00,2016-04-03 02:51:08,872000/e24dc04ea980913849f5b90cae388c90-d.jpg,,
6946031,Advanced BDD optimization,,,,Rüdiger Ebendt; Görschwin Fey; Rolf Drechsler ,2005,,Springer,Dordrecht ; New York,225,0,English,E_Engineering/EE_Electrical engineering/,kolxoz,10,"9780387254548,0387254544,0387254536,9780387254531",,,,,,,,,,,0,,,,,,,1,3119932,pdf,fb0b9712f48a1f71b8af8e0e353c1dbc,,,"E_Engineering/EE_Electrical engineering/Ebendt R., Fey G., Drechsler R. Advanced BDD optimization (Springer, 2005)(ISBN 9780387254531)(O)(225s)_EE_.pdf",0,2000-01-01 01:00:00,2016-04-03 02:51:08,872000/fb0b9712f48a1f71b8af8e0e353c1dbc-d.jpg,,
6946032,Optical fiber transmission systems,,Artech House telecommunications library,,Siegfried Geckeler ,1987,,Artech House,"Norwood, MA",387,0,English,E_Engineering/EE_Electrical engineering/,kolxoz,10,"0890062269,9780890062265",,,,,,,,,,,600,,,,,,,1,6953125,djvu,a94e2c83a3340fa9d0f8af1ac2327710,,,"E_Engineering/EE_Electrical engineering/Geckeler S. Optical fiber transmission systems (Artech House, 1987)(ISBN 0890062269)(600dpi)(T)(O)(387s)_EE_.djvu",0,2000-01-01 01:00:00,2016-04-03 02:51:08,,,
6946033,A Practical Introduction to Electronic Circuits,,,,Martin Hartley Jones ,1995,3rd ed,Cambridge University Press,Cambridge ; New York,544,0,English,E_Engineering/EE_Electrical engineering/,kolxoz,10,"0521472865,9780521472869,0521478790,9780521478793",,,,,,,,,,,300,,,,,,,1,3407150,djvu,a2fdafd01cb6c3f95d3d28fff9f89496,,,"E_Engineering/EE_Electrical engineering/Jones M.H. A Practical Introduction to Electronic Circuits (CUP, 1995)(ISBN 9780521472869)(T)(O)(544s)_EE_.djvu",0,2000-01-01 01:00:00,2016-04-03 02:51:08,872000/a2fdafd01cb6c3f95d3d28fff9f89496-d.jpg,,
6946034,Electronic concepts : an introduction,,,,Jerrold H Krenz ,2000,,Cambridge University Press,"Cambridge, UK ; New York, NY, USA",468,0,English,E_Engineering/EE_Electrical engineering/,kolxoz,10,"0521662826,9780521662826",,,,,,,,,,,300,,,,,,,1,3827397,djvu,98c6402954a61b944632fb21681d0ee5,,,"E_Engineering/EE_Electrical engineering/Krenz J.H. Electronic Concepts (CUP, 2000)(ISBN 9780521662826)(T)(O)(468s)_EE_.djvu",0,2000-01-01 01:00:00,2016-04-03 02:51:08,872000/98c6402954a61b944632fb21681d0ee5-d.jpg,,
6946035,Modern Radar Systems,,Artech House radar library,,Hamish Meikle ,2008,2ed.,Artech House,Boston,722,0,English,E_Engineering/EE_Electrical engineering/,kolxoz,10,"9781596932432,1596932430",,,,,,,,,,,0,,,,,,,1,14061542,pdf,c3897fdb6ab0b40dda78b6041942f7d5,,,"E_Engineering/EE_Electrical engineering/Meikle H. Modern Radar Systems (2ed., Artech House, 2008)(ISBN 9781596932425)(O)(722s)_EE_.pdf",0,2000-01-01 01:00:00,2016-04-03 02:51:08,872000/c3897fdb6ab0b40dda78b6041942f7d5-d.jpg,,
6946036,VHDL: a logic synthesis approach,,,,David Naylor; Simon Jones ,1997,1st ed,Chapman &  Hall,London ; New York,349,0,English,E_Engineering/EE_Electrical engineering/,kolxoz,10,"0412616505,9780412616501",,,,,,,,,,,600,,,,,,,1,8338305,djvu,d1010e9da2da90459e79b9da2dddfe49,,,"E_Engineering/EE_Electrical engineering/Naylor D., Jones S. VHDL.. a logic synthesis approach (Chapman & Hall, 1997)(ISBN 0412616505)(600dpi)(T)(349s)_EE_.djvu",0,2000-01-01 01:00:00,2016-04-03 02:51:08,872000/d1010e9da2da90459e79b9da2dddfe49-d.jpg,,
6946037,Circuits for Electronic Instrumentation,,,,O'Dell T.H. ,1991,,Cambridge University Press,Cambridge ; New York,232,0,English,E_Engineering/EE_Electrical engineering/,kolxoz,10,"0521404282,9780521404280",,,,,,,,,,,300,,,,,,,1,1502597,djvu,e7041078fc44d0551fe2b89b808ea1f2,,,"E_Engineering/EE_Electrical engineering/O#Dell T.H. Circuits for Electronic Instrumentation (CUP, 1991)(ISBN 9780521404280)(T)(O)(232s)_EE_.djvu",0,2000-01-01 01:00:00,2016-04-03 02:51:08,872000/e7041078fc44d0551fe2b89b808ea1f2-d.jpg,,
6946038,Principles of Linear Systems,,,,Philip E Sarachik ,1997,,Cambridge University Press,Cambridge ; New York,293,0,English,E_Engineering/EE_Electrical engineering/,kolxoz,10,"0521570573,9780521570572,0521576067,9780521576062",,,,,,,,,,,300,,,,,,,1,1587374,djvu,479f927ef5e533eea7d31cf66f96f118,,,"E_Engineering/EE_Electrical engineering/Sarachik P.E. Principles of Linear Systems (CUP, 1997)(ISBN 9780521570572)(T)(O)(293s)_EE_.djvu",0,2000-01-01 01:00:00,2016-04-03 02:51:08,872000/479f927ef5e533eea7d31cf66f96f118-d.jpg,,
6946039,Smart antennas,,Wiley series in microwave and optical engineering,,"Sarkar T.K., et al. ",2003,,Wiley-IEEE,,473,0,English,E_Engineering/EE_Electrical engineering/,kolxoz,10,"0471210102,9780471210108",,,,,,,,,,,300,,,,,,,1,4375545,djvu,300c3bf96f23ab7dd0cb6d9f67e24333,,,"E_Engineering/EE_Electrical engineering/Sarkar T.K., et al. Smart antennas (Wiley-IEEE, 2003)(ISBN 0471210102)(T)(O)(473s)_EE_.djvu",0,2000-01-01 01:00:00,2016-04-03 02:51:08,872000/300c3bf96f23ab7dd0cb6d9f67e24333-d.jpg,,
6946040,"KC's problems and solutions for Microelectronic circuits, fourth edition [by] Sedra/Smith",,,,Kenneth Carless Smith; Adel S Sedra ,1998,,Oxford University Press,New York ; Oxford,471,0,English,E_Engineering/EE_Electrical engineering/,kolxoz,10,"0195117719,9780195117714",,,,,,,,,,,600,,,,,,,1,6881875,djvu,d870cd4f28556ff98ce0c57f58869996,,,"E_Engineering/EE_Electrical engineering/Smith K.C. KC#s problems and solutions for Microelectronic circuits, 4ed.(Oxford, 1998)(ISBN 0195117719)(600dpi)(T)(O)(471s)_EE_.djvu",0,2000-01-01 01:00:00,2016-04-03 02:51:08,872000/d870cd4f28556ff98ce0c57f58869996-d.jpg,,
6946041,"Introduction to microlithography : theory, materials, and processing : based on a workshop sponsored by the ACS Division of Organic Coatings and Plastics Chemistry at the 185th Meeting of the American Chemical Society, Seattle, Washington, March 20-25, 1983",,"ACS symposium series, 219",,L  F Thompson; C  G Willson; M  J Bowden; American Chemical Society. Division of Organic Coatings and Plastics Chemistry.; American Chemical Society. Meeting  (eds.),1983,,American Chemical Society,"Washington, D.C",364,0,English,E_Engineering/EE_Electrical engineering/,kolxoz,10,"0841207755,9780841207752",,,,,,,,,,,600,1,,,,,,1,5036192,djvu,568d45badbfd8ff1949f4afaa9187815,,,"E_Engineering/EE_Electrical engineering/Thompson L.F., et al. (eds.) Introduction to microlithography (ACS, 1983)(ISBN 0841207755)(600dpi)(T)(O)(C)(364s)_EE_.djvu",0,2000-01-01 01:00:00,2016-04-03 02:51:08,872000/568d45badbfd8ff1949f4afaa9187815-d.jpg,,
6946042,Электротехнический справочник,,,,Алиев И.И. ,2010,5изд., РадиоСофт,,385,0,Russian,E_Engineering/EE_Electrical engineering/,kolxoz,10,9785930372137,,,,,,,,,,,600,,,,,,,1,4449139,djvu,fd24d81880196e98653cf1017a5e5293,,,"E_Engineering/EE_Electrical engineering/Aliev I.I. E#lektrotexnicheskij spravochnik (5izd., RadioSoft, 2010)(ISBN 9785930372137)(ru)(600dpi)(T)(O)(385s)_EE_.djvu",0,2000-01-01 01:00:00,2016-04-03 02:51:08,872000/fd24d81880196e98653cf1017a5e5293-g.jpg,,
6946043,История развития теории связи ,,,,Быховский М.А. ,2006,,Техносфера,,362,0,Russian,E_Engineering/EE_Electrical engineering/,kolxoz,10,,,,,,,,,,,нет титул. и огл.,0,,,,,,,1,6593971,pdf,8891174524729af507e38b07bdcec823,,,"E_Engineering/EE_Electrical engineering/Byxovskij M.A. Istoriya razvitiya teorii svyazi (net titul. i ogl.)(Texnosfera, 2006)(ru)(362s)_EE_.pdf",0,2000-01-01 01:00:00,2016-04-03 02:51:08,872000/8891174524729af507e38b07bdcec823-g.jpg,,
6946044,Управление радиочастотным спектром и электромагнитная совместимость радиосистем,,,,"Быховский М.А., и др. ",2006,,Эко-Трендз,,377,0,Russian,E_Engineering/EE_Electrical engineering/,kolxoz,10,5884050674,,,,,,,,,,,600,,,,,,,1,4839959,djvu,48f967418cccf8278e230229e3ebd02b,,,"E_Engineering/EE_Electrical engineering/Byxovskij M.A., i dr. Upravlenie radiochastotnym spektrom i e#lektromagnitnaya sovmestimost# radiosistem (E#ko-Trendz, 2006)(ru)(ISBN 5884050674)(600dpi)(T)(O)(377s)_EE_.djvu",0,2000-01-01 01:00:00,2016-04-03 02:51:08,872000/48f967418cccf8278e230229e3ebd02b-g.jpg,,
6946045,Дальняя тропосферная связь,,,,Давыденко Ю.И. ,1968,, Воениздат,М.,213,0,Russian,E_Engineering/EE_Electrical engineering/,kolxoz,10,,,,,,,,,,,,600,,1,,,,,1,4508209,djvu,93ae2a4c9be3ee943f949ee65009dcfb,,,"E_Engineering/EE_Electrical engineering/Davydenko Yu.I. Dal#nyaya troposfernaya svyaz# (M., Voenizdat, 1968)(ru)(K)(600dpi)(T)(213s)_EE_.djvu",0,2000-01-01 01:00:00,2016-04-03 02:51:08,872000/93ae2a4c9be3ee943f949ee65009dcfb-g.jpg,,
6946046,Радиотехника. Энциклопедия,,,,"Мазор Ю.Л., и др. (ред.) ",2002,,Додэка,,945,0,Russian,E_Engineering/EE_Electrical engineering/,kolxoz,10,5941200129,,,,,,,,,,,600,,,,,,,1,16610267,djvu,24a244f4ee406e826fd7ad719d9f29a9,,,"E_Engineering/EE_Electrical engineering/Mazor Yu.L., i dr. (red.) Radiotexnika. E#nciklopediya (Dode#ka, 2002)(ru)(ISBN 5941200129)(600dpi)(T)(945s)_EE_.djvu",0,2000-01-01 01:00:00,2016-04-03 02:51:08,,,
6946047,Аналоговая электроника,,,,Наундорф У.(Naundorf) ,2008,,Техносфера,,475,0,Russian,E_Engineering/EE_Electrical engineering/,kolxoz,10,9785948361857,,,,,,,,,,,600,,,,,,,1,4851450,djvu,4bf5ecdf1dfdadf792e152af96730c5b,,,"E_Engineering/EE_Electrical engineering/Naundorf U. (_Naundorf_) Analogovaya e#lektronika (Texnosfera, 2008)(ISBN 9785948361857)(ru)(600dpi)(T)(475s)_EE_.djvu",0,2000-01-01 01:00:00,2016-04-03 02:51:08,872000/4bf5ecdf1dfdadf792e152af96730c5b-g.jpg,,
6946048,Принципы и техника радиолокации,,,,"Пенроз, Боулдинг. ",1956,,Воениздат,,781,0,Russian,E_Engineering/EE_Electrical engineering/,kolxoz,10,,,,,,,,,,,,600,,,,,,,1,13961956,djvu,9c2900d252ef3b5b11fc94e551492098,,,"E_Engineering/EE_Electrical engineering/Penroz, Boulding. Principy i texnika radiolokacii (Voenizdat, 1956)(ru)(600dpi)(T)(781s)_EE_.djvu",0,2000-01-01 01:00:00,2016-04-03 02:51:08,872000/9c2900d252ef3b5b11fc94e551492098-g.jpg,,
6946049,Обработка сверхширокопоосных сигналов и помех,,,,"Радзиевский В.Г., Трифонов П.А. ",2009,,Радиотехника,,290,0,Russian,E_Engineering/EE_Electrical engineering/,kolxoz,10,9785880702312,,,,,,,,,,,300,,,,,,,1,2109174,djvu,d02f645a85b9ca6b777daa7f0e940743,,,"E_Engineering/EE_Electrical engineering/Radzievskij V.G., Trifonov P.A. Obrabotka sverxshirokopoosnyx signalov i pomex (Radiotexnika, 2009)(ru)(ISBN 9785880702312)(T)(290s)_EE_.djvu",0,2000-01-01 01:00:00,2016-04-03 02:51:08,,,
6946050,Построение релейных схем управления,,,,Рогинский В.Н. ,1964,,Энергия,,424,0,Russian,E_Engineering/EE_Electrical engineering/,kolxoz,10,,,,,,,,,,,,600,,,,,,,1,6692176,djvu,7999e401081ce7cbc4ac066f776e230f,,,"E_Engineering/EE_Electrical engineering/Roginskij V.N. Postroenie relejnyh sxem upravlenija (ru)(E#nergija, 1964)(600dpi)(T)(424s)_EE_.djvu",0,2000-01-01 01:00:00,2016-04-03 02:51:08,872000/7999e401081ce7cbc4ac066f776e230f-g.jpg,,
6946051,Основы траекторной обработки радиолокационной информации в многоканальных РЛС,,,,Фарбер В.Е. ,2005,,МФТИ,,222,0,Russian,E_Engineering/EE_Electrical engineering/,kolxoz,10,5741701299,,,,,,,,,,,600,,,,,,,1,3398966,djvu,2c4092f6dac8ab9d03e155d160072a49,,,"E_Engineering/EE_Electrical engineering/Farber V.E. Osnovy traektornoj obrabotki radiolokacionnoj informacii v mnogokanal#nyx RLS (MFTI, 2005)(ru)(ISBN 5741701299)(600dpi)(T)(222s)_EE_.djvu",0,2000-01-01 01:00:00,2016-04-03 02:51:08,872000/2c4092f6dac8ab9d03e155d160072a49-g.jpg,,
6946052,Учебник по общей электротехнике,,,,"Шатенье Г., и др.(Chateigner) ",2009,,Техносфера,,626,0,Russian,E_Engineering/EE_Electrical engineering/,kolxoz,10,9785948362106,,,,,,,,,,,300,,1,,,,,1,6003842,djvu,98cfccd19fcf2ff73999fedbf3f08491,,,"E_Engineering/EE_Electrical engineering/Shaten#e G., i dr. (_Chateigner_) Uchebnik po obshchej e#lektrotexnike (Texnosfera, 2009)(ru)(ISBN 9785948362106)(K)(T)(626s)_EE_.djvu",0,2000-01-01 01:00:00,2016-04-03 02:51:08,872000/98cfccd19fcf2ff73999fedbf3f08491-g.jpg,,
6946053,"Applied materials science : applications of engineering materials in structural, electronics, thermal, and other industries",,,,Deborah D  L Chung ,2001,,CRC Press,"Boca Raton, Fla",231,0,English,E_Engineering/EM_Mechanics of elastic materials/,kolxoz,10,"0849310733,9780849310737",,,,,,,,,,,0,,,,,,,1,1327644,pdf,19fecb8825103c0dfa16275a093e73dc,,,"E_Engineering/EM_Mechanics of elastic materials/Chung D.D.L. Applied materials science (CRC, 2001)(ISBN 0849310733)(O)(231s)_EM_.pdf",0,2000-01-01 01:00:00,2016-04-03 02:51:08,872000/19fecb8825103c0dfa16275a093e73dc-d.jpg,,
6946054,Metrology for Engineers,,,,J  F  W Galyer; C  R Shotbolt ,1990,5ed.,Cassell,,296,0,English,E_Engineering/EM_Mechanics of elastic materials/,kolxoz,10,"0304318442,9780304318445",,,,,,,,,,,600,,1,,,,,1,6788285,djvu,372d4e672558d472f1947563a5279fb2,,,"E_Engineering/EM_Mechanics of elastic materials/Galyer J.F.W., Shotbolt C.R. Metrology for Engineers (5ed., Cassel, 1990)(ISBN 0304318442)(600dpi)(T)(O)(S)(296s)_EM_.djvu",0,2000-01-01 01:00:00,2016-04-03 02:51:08,872000/372d4e672558d472f1947563a5279fb2-d.jpg,,
6946055,Introduction to Structural Dynamics and Aeroelasticity,,"Cambridge aerospace series, 15",,Dewey H Hodges; G  Alvin Pierce ,2011,2ed.,Cambridge University Press,New York,271,0,English,E_Engineering/EM_Mechanics of elastic materials/,kolxoz,10,"9781139127882,1139127888,9781139110693,1139110691,9781139115056,1139115057,9780511997112,0511997116",,,,,,,,,,,0,,,,,,,1,2844774,pdf,ff00095802ab2a4469781f896a6bed42,,,"E_Engineering/EM_Mechanics of elastic materials/Hodges D.H., Pierce G.A. Introduction to Structural Dynamics and Aeroelasticity (2ed., CUP, 2011)(ISBN 9780521195904)(O)(271s)_EM_.pdf",0,2000-01-01 01:00:00,2016-04-03 02:51:08,872000/ff00095802ab2a4469781f896a6bed42-d.jpg,,
6946056,Materials for Engineers,,,,William F Hosford ,2008,,Cambridge University Press,Cambridge ; New York,298,0,English,E_Engineering/EM_Mechanics of elastic materials/,kolxoz,10,"9780521899970,0521899974",,,,,,,,,,,0,,,,,,,1,20072856,pdf,f74376bbeb1cbdab058e45db8456ee95,,,"E_Engineering/EM_Mechanics of elastic materials/Hosford W.F. Materials for Engineers (CUP, 2008)(ISBN 9780521899970)(O)(298s)_EM_.pdf",0,2000-01-01 01:00:00,2016-04-03 02:51:08,872000/f74376bbeb1cbdab058e45db8456ee95-d.jpg,,
6946057,Welding and cutting : a guide to fusion welding and associated cutting processes,,,,Peter Houldcroft; Robert John ,2001,,Woodhead,"Cambridge, England",238,0,English,E_Engineering/EM_Mechanics of elastic materials/,kolxoz,10,"1855735784,9781855735781",,,,,,,,,,,300,1,,,,,,1,4013350,djvu,7d9c7dc6aebef4ed62c0aa15e2d281f1,,,"E_Engineering/EM_Mechanics of elastic materials/Houldcroft P.T. Welding and Cutting (Woodhead Pub., 2001)(ISBN 1855735784)(T)(C)(238s)_EM_.djvu",0,2000-01-01 01:00:00,2016-04-03 02:51:08,872000/7d9c7dc6aebef4ed62c0aa15e2d281f1-d.jpg,,
6946058,"Mechanical engineers' handbook. / Vol. 1, Materials and mechanical design",,Wiley InterScience electronic collection,,Myer Kutz; John Wiley &  Sons.; Wiley InterScience (Online service) (ed.),2006,3ed.,John Wiley,"Hoboken, N.J",1351,0,English,E_Engineering/EM_Mechanics of elastic materials/,kolxoz,10,"0471777447,9780471777441,0471719854,9780471719854",,,,,,,,,,,0,,,,,,,1,10289216,pdf,9235424ce2a2ba06e83119a6926ab54b,,,"E_Engineering/EM_Mechanics of elastic materials/Kutz M. (ed.) Mechanical engineers# handbook, book 1.. Materials and mechanical design (3ed., Wiley, 2006)(ISBN 0471719854)(O)(1351s)_EM_.pdf",0,2000-01-01 01:00:00,2016-04-03 02:51:08,872000/9235424ce2a2ba06e83119a6926ab54b-d.jpg,,
6946059,"Mechanical engineers' handbook, book 3: Manufacturing and measurement",,,,Kutz M. (ed.) ,2006,3ed., Wiley,,834,0,English,E_Engineering/EM_Mechanics of elastic materials/,kolxoz,10,471719870,,,,,,,,,,,0,,,,,,,1,11176016,pdf,6e809ec6b40c650a67d0d674dbcb000b,,,"E_Engineering/EM_Mechanics of elastic materials/Kutz M. (ed.) Mechanical engineers# handbook, book 3.. Manufacturing and measurement (3ed., Wiley, 2006)(ISBN 0471719870)(O)(834s)_EM_.pdf",0,2000-01-01 01:00:00,2016-04-03 02:51:08,872000/6e809ec6b40c650a67d0d674dbcb000b-d.jpg,,
6946060,"Mechanical engineers' handbook, book 4: Energy and power",,,,Kutz M. (ed.) ,2006,3ed.,Wiley,"Hoboken, NJ",1099,0,English,E_Engineering/EM_Mechanics of elastic materials/,kolxoz,10,"0471719889,9780471719885",,,,,,,,,,,0,,,,,,,1,20802840,pdf,806694c4a0f07fec690f7790226c683d,,,"E_Engineering/EM_Mechanics of elastic materials/Kutz M. (ed.) Mechanical engineers# handbook, book 4.. Energy and power (3ed., Wiley, 2006)(ISBN 0471719889)(O)(1099s)_EM_.pdf",0,2000-01-01 01:00:00,2016-04-03 02:51:08,872000/806694c4a0f07fec690f7790226c683d-d.jpg,,
6946061,Wheel Rail Interface Handbook,,Woodhead Publishing in mechanical engineering,,"Lewis R., Olofsson U. ",2009,,CRC,,924,0,English,E_Engineering/EM_Mechanics of elastic materials/,kolxoz,10,"9781615831531,1615831533",,,,,,,10.1243/PIME_PR0C_1993_207_227_02,,,,300,1,,,,,,1,15800620,djvu,c0d5c50e476d18feb8873916adf18c33,,,"E_Engineering/EM_Mechanics of elastic materials/Lewis R., Olofsson U. Wheel Rail Interface Handbook (CRC, 2009)(ISBN 1439801460)(T)(O)(C)(924s)_EM_.djvu",0,2000-01-01 01:00:00,2016-04-03 02:51:08,872000/c0d5c50e476d18feb8873916adf18c33-d.jpg,,
6946062,Matrix methods of structural analysis,,"Pergamon international library of science, technology, engineering, and social studies",,Livesley R.K. ,1975,2ed.,Pergamon Press,Oxford ; New York,287,0,English,E_Engineering/EM_Mechanics of elastic materials/,kolxoz,10,"0080188885,9780080188881,0080188877,9780080188874",,,,,,,,,,,300,,,,,,,1,3521174,djvu,d65200baa8604c1446c838584d2b5c72,,,"E_Engineering/EM_Mechanics of elastic materials/Livesley R.K. Matrix methods of structural analysis (2ed., Pergamon Press, 1975)(ISBN 0080188885)(T)(O)(287s)_EM_.djvu",0,2000-01-01 01:00:00,2016-04-03 02:51:08,872000/d65200baa8604c1446c838584d2b5c72-d.jpg,,
6946063,"Composites manufacturing : materials, product, and process engineering",,,,Sanjay K Mazumdar ,2002,,CRC Press,"Boca Raton, Fla",396,0,English,E_Engineering/EM_Mechanics of elastic materials/,kolxoz,10,"0849305853,9780849305856",,,,,,,,,,,0,,,,,,,1,8610056,pdf,1eb1c65af75925e257dd638614891c99,,,"E_Engineering/EM_Mechanics of elastic materials/Mazumdar S.K. Composites manufacturing (CRC, 2002)(ISBN 0849305853)(O)(396s)_EM_.pdf",0,2000-01-01 01:00:00,2016-04-03 02:51:08,872000/1eb1c65af75925e257dd638614891c99-d.jpg,,
6946064,Fluid-structure interactions : cross-flow-induced instabilities,,,,M  P Paidoussis; Stuart Price; Emmanuel de Langre ,2010,,Cambridge University Press,New York,414,0,English,E_Engineering/EM_Mechanics of elastic materials/,kolxoz,10,"9780511860591,0511860595,9780511856242,0511856245,9780511760792,0511760795",,,,,,,,,,,0,,,,,,,1,5518414,pdf,058dceba9a8bb3a2f311874aeba06556,,,"E_Engineering/EM_Mechanics of elastic materials/Paidoussis M., Price S., de Langre E. Fluid-Structure Interactions (CUP, 2010)(ISBN 0521119421)(O)(414s)_EM_.pdf",0,2000-01-01 01:00:00,2016-04-03 02:51:08,872000/058dceba9a8bb3a2f311874aeba06556-d.jpg,,
6946065,Engineering Mechanics: Dynamics,,,,Andrew Pytel; Jaan Kiusalaas ,2010,3ed.,Cengage Learning,"Stamford, CT",673,0,English,E_Engineering/EM_Mechanics of elastic materials/,kolxoz,10,"9780495295631,0495295639",,,,,,,,,,,0,,,,,,,1,8579667,pdf,abf30d29b097ea0a50f65abe7409f613,,,"E_Engineering/EM_Mechanics of elastic materials/Pytel A., Kiusalaas J. Engineering Mechanics.. Dynamics (3ed., CL, 2010)(ISBN 0495295639)(O)(673s)_EM_.pdf",0,2000-01-01 01:00:00,2016-04-03 02:51:08,872000/abf30d29b097ea0a50f65abe7409f613-d.jpg,,
6946066,Engineering Mechanics: Statics,,,,Andrew Pytel; Jaan Kiusalaas ,2009,3ed.,Cengage Learning,"Stamford, CT",601,0,English,E_Engineering/EM_Mechanics of elastic materials/,kolxoz,10,"0495244694,9780495244691",,,,,,,,,,,0,,,,,,,1,8701275,pdf,38ff5588c04744bbe6571afc53e6d822,,,"E_Engineering/EM_Mechanics of elastic materials/Pytel A., Kiusalaas J. Engineering Mechanics.. Statics (3ed., CL, 2009)(ISBN 9780495244691)(O)(601s)_EM_.pdf",0,2000-01-01 01:00:00,2016-04-03 02:51:08,872000/38ff5588c04744bbe6571afc53e6d822-d.jpg,,
6946067,Mechanics of Materials,,,,Andrew Pytel; Jaan Kiusalaas ,2011,2ed.,Cengage Learning,"Stamford, CT",576,0,English,E_Engineering/EM_Mechanics of elastic materials/,kolxoz,10,"9780495667759,0495667757",,,,,,,,,,,0,,,,,,,1,7804639,pdf,a43a461abbf7079c5414fb9992f3faa2,,,"E_Engineering/EM_Mechanics of elastic materials/Pytel A., Kiusalaas J. Mechanics of Materials (2ed., CL, 2011)(ISBN 0495667757)(O)(576s)_EM_.pdf",0,2000-01-01 01:00:00,2016-04-03 02:51:08,,,
6946068,"Advances in surface acoustic wave technology, systems, and applications : Vol. 1",,Selected topics in electronics and systems,,"Ruppel C.C.W., Fjeldly T.A. (eds.) ",2000,,World Scientific,Singapore ; River Edge (N.J) ; London,322,0,English,E_Engineering/EM_Mechanics of elastic materials/,kolxoz,10,"9810244142,9789810244149",,,,,,,,,,,300,1,,,,,,1,8312667,djvu,491fd835e4e953ff0ac912e79ed424f2,,,"E_Engineering/EM_Mechanics of elastic materials/Ruppel C.C.W., Fjeldly T.A. (eds.) Advances in surface acoustic wave technology (WS, 2000)(ISBN 9810244142)(T)(O)(C)(322s)_EM_.djvu",0,2000-01-01 01:00:00,2016-04-03 02:51:08,872000/491fd835e4e953ff0ac912e79ed424f2-d.jpg,,
6946069,Why Buildings Stand Up: The Strength of Architecture,,,,Mario Salvadori; Saralinda Hooker; Christopher Ragus ,1980,1st ed,Norton,New York,310,0,English,E_Engineering/EM_Mechanics of elastic materials/,kolxoz,10,"0393014010,9780393014013",,,,,,,,,,,600,,,,,,,1,7653503,djvu,b6654d936dbeb385764c3dc4d5c4321f,,,"E_Engineering/EM_Mechanics of elastic materials/Salvadori M.G. Why Buildings Stand Up.. The Strength of Architecture (Norton, 1980)(ISBN 9780393014013)(600dpi)(T)(310s)_EM_.djvu",0,2000-01-01 01:00:00,2016-04-03 02:51:08,872000/b6654d936dbeb385764c3dc4d5c4321f-d.jpg,,
6946070,Fatigue of Materials,,,,Suresh S. ,1998,2nd ed,Cambridge University Press,Cambridge ; New York,701,0,English,E_Engineering/EM_Mechanics of elastic materials/,kolxoz,10,"0521570468,9780521570466,0521578477,9780521578479",,,,,,,,,,,300,,,,,,,1,7196568,djvu,90d337de6a59e78f21543e5bde502e59,,,"E_Engineering/EM_Mechanics of elastic materials/Suresh S. Fatigue of Materials (CUP, 1998)(ISBN 9780521570466)(T)(O)(701s)_EM_.djvu",0,2000-01-01 01:00:00,2016-04-03 02:51:08,872000/90d337de6a59e78f21543e5bde502e59-d.jpg,,
6946071,Приложение методов теории упругости и пластичности к решению инженерных задач,,,,"Безухов Н.И., Лужин О.В. ",1974,,ВШ,,201,0,Russian,E_Engineering/EM_Mechanics of elastic materials/,kolxoz,10,,,,,,,,,,,,400,,,,,,,1,2401584,djvu,50e6aeee74d4842617318e2ac4403ca1,,,"E_Engineering/EM_Mechanics of elastic materials/Bezuxov N.I., Luzhin O.V. Prilozhenie metodov teorii uprugosti i plastichnosti k resheniyu inzhenernyx zadach (VSh, 1974)(ru)(400dpi)(T)(201s)_EM_.djvu",0,2000-01-01 01:00:00,2016-04-03 02:51:08,872000/50e6aeee74d4842617318e2ac4403ca1-g.jpg,,
6946072,Plastic Design of Frames : Applications,,,,Jaques Heyman ,1971,,Cambridge University Press,Cambridge,300,0,English,E_Engineering/EM_Mechanics of elastic materials/EMes_Elastic shells/,kolxoz,10,"9781139116022,1139116029",,,,,,,,,,,600,,,,,,,1,3507230,djvu,9c68d6ada4e376b7e15b013b9820ff46,,,"E_Engineering/EM_Mechanics of elastic materials/EMes_Elastic shells/Heyman J. Plastic Design of Frames (CUP, 1971)(ISBN 9780521079846)(600dpi)(T)(O)(300s)_EMes_.djvu",0,2000-01-01 01:00:00,2016-04-03 02:51:08,,,
6946073,Макетирование из бумаги и картона,,,,"Калмыкова Н.В., Максимова И.А. ",2000,,Книжный дом Университет,,81,0,Russian,E_Engineering/EM_Mechanics of elastic materials/EMes_Elastic shells/,kolxoz,10,580130052X,,,,,,,,,,,300,,,,,,,1,1633639,djvu,1817ee8d8ce59dbcdda51690490e59ea,,,"E_Engineering/EM_Mechanics of elastic materials/EMes_Elastic shells/Kalmykova N.V., Maksimova I.A. Maketirovanie iz bumagi i kartona (Knizhnyj dom Universitet, 2000)(ISBN 580130052X)(ru)(T)(O)(81s)_EMes_.djvu",0,2000-01-01 01:00:00,2016-04-03 02:51:08,872000/1817ee8d8ce59dbcdda51690490e59ea-g.jpg,,
6946074,Handbook of Optofluidics,,,,"Hawkins A.R., Schmidt H. (eds.) ",2010,,Taylor &  Francis,Boca Raton,631,0,English,E_Engineering/EO_Optical devices/,kolxoz,10,"9781420093544,1420093541",,,,,,,,,,,0,,,,,,,1,12417666,pdf,35503579ba9d205ab5d62428f9b6656a,,,"E_Engineering/EO_Optical devices/Hawkins A.R., Schmidt H. (eds.) Handbook of Optofluidics (CRC, 2010)(ISBN 1420093541)(O)(631s)_EO_.pdf",0,2000-01-01 01:00:00,2016-04-03 02:51:08,872000/35503579ba9d205ab5d62428f9b6656a-d.jpg,,
6946075,Introduction to Optics and Lasers in Engineering,,,,Gabriel Laufer ,1996,,Cambridge University Press,Cambridge ; New York,496,0,English,E_Engineering/EO_Optical devices/,kolxoz,10,"0521452333,9780521452335",,,,,,,,,,,300,,,,,,,1,3750880,djvu,7db798bc6fb83458f9697d29f171899d,,,"E_Engineering/EO_Optical devices/Laufer G. Introduction to Optics and Lasers in Engineering (CUP, 1996)(ISBN 9780521452335)(T)(O)(496s)_EO_.djvu",0,2000-01-01 01:00:00,2016-04-03 02:51:08,872000/7db798bc6fb83458f9697d29f171899d-d.jpg,,
6946076,Optical lithography : here is why,,"SPIE monograph, PM190",,Burn Jeng Lin; SPIE (Society) ,2010,,SPIE,"Bellingham, Wash",493,0,English,E_Engineering/EO_Optical devices/,kolxoz,10,"9780819481825,0819481823,9781615837274,1615837272,0819475602,9780819475602",,,,,,,,,,,0,,,,,,,1,17036821,pdf,133827f464dc23e33c0d57e472371586,,,"E_Engineering/EO_Optical devices/Lin B.J. Optical lithography (SPIE, 2010)(ISBN 0819475602)(O)(493s)_EO_.pdf",0,2000-01-01 01:00:00,2016-04-03 02:51:08,872000/133827f464dc23e33c0d57e472371586-d.jpg,,
6946077,Tutorials in Complex Photonic Media,,,,"Noginov M.A., Dewar G., McCall M.W., Zheludev N.I. ",2009,,SPIE Press,"Bellingham, Wash",729,0,English,E_Engineering/EO_Optical devices/,kolxoz,10,"9781615837083,1615837086,9780819477736,0819477737",,,,,,,,,,,0,,,,,,,1,12631225,pdf,3dc4ed9dba8e26cf0fe06037c8c5b8bc,,,"E_Engineering/EO_Optical devices/Noginov M.A., Dewar G., McCall M.W., Zheludev N.I. Tutorials in Complex Photonic Media (SPIE, 2009)(ISBN 0819477737)(O)(729s)_EO_.pdf",0,2000-01-01 01:00:00,2016-04-03 02:51:08,872000/3dc4ed9dba8e26cf0fe06037c8c5b8bc-d.jpg,,
6946078,Interference-optical Methods of Solid Mechanics,,Foundations of engineering mechanics,,"Razumovsky I.A., Yakovlevich G.A. (eds.) ",2010,,Springer,Heidelberg ; New York,195,0,English,E_Engineering/EO_Optical devices/,kolxoz,10,"9783642112225,3642112226",,,,,,,10.1007/978-3-642-11222-5,,,,0,,,,,,,1,3101984,pdf,73761777715787bf79bcf1aa19108608,,,"E_Engineering/EO_Optical devices/Razumovsky I.A., Yakovlevich G.A. (eds.) Interference-optical Methods of Solid Mechanics (Springer, 2010)(ISBN 3642112218)(O)(195s)_EO_.pdf",0,2000-01-01 01:00:00,2016-04-03 02:51:08,872000/73761777715787bf79bcf1aa19108608-d.jpg,,
6946079,Molded optics: design and manufacture,,Series in optics and optoelectronics (CRC Press),,Michael Schaub; et al ,2011,,CRC Press,Boca Raton,265,0,English,E_Engineering/EO_Optical devices/,kolxoz,10,"9781439832585,1439832587",,,,,,,,,,,600,1,,,,,,1,4403058,djvu,9820bf5e54d451a62c1f0fa4b8fca8a5,,,"E_Engineering/EO_Optical devices/Schaub M., et al. Molded optics.. design and manufacture (CRC, 2011)(ISBN 1439832560)(600dpi)(T)(C)(O)(265s)_EO_.djvu",0,2000-01-01 01:00:00,2016-04-03 02:51:08,872000/9820bf5e54d451a62c1f0fa4b8fca8a5-d.jpg,,
6946080,Оптические гироскопы ,,,,Филатов Ю.В. ,2005,,,,139,0,Russian,E_Engineering/EO_Optical devices/,kolxoz,10,,,,,,,,,,,,0,,,,,,,1,1228952,pdf,375906f29c93d631b4b3edab31ec9101,,,E_Engineering/EO_Optical devices/Filatov Yu.V. Opticheskie giroskopy (2005)(ru)(O)(139s)_EO_.pdf,0,2000-01-01 01:00:00,2016-04-03 02:51:08,872000/375906f29c93d631b4b3edab31ec9101-g.jpg,,
6946081,"Огонь, энергия, ракета (о реактивных топливах)",,,,Кулинич Д. ,1963,,Воениздат,,82,0,Russian,E_Engineering/ESch_School-level/,kolxoz,10,,,,,,,,,,,,600,,1,,,,,1,2091685,djvu,afd9f5a9490e69d4fb843d879b6a0ad0,,,"E_Engineering/ESch_School-level/Kulinich D. Ogon#, e#nergiya, raketa (o reaktivnyx toplivax) (Voenizdat, 1963)(ru)(600dpi)(K)(T)(82s)_ESch_.djvu",0,2000-01-01 01:00:00,2016-04-03 02:51:08,872000/afd9f5a9490e69d4fb843d879b6a0ad0-g.jpg,,
6946082,Основные стандарты по издательскому делу,,,,"Джиго А.А., Калинин С.Ю. (ред.) ",2010,2изд, УК,,368,0,Russian,E_Engineering/ET_Typesetting/,kolxoz,10,9785979200224,,,,,,,,,,,300,,,,,,,1,2180548,djvu,5de41910e28002b55d6fba423fb087ee,,,"E_Engineering/ET_Typesetting/Dzhigo A.A., Kalinin S.Yu. (red.) Osnovnye standarty po izdatel#skomu delu (2izd, UK, 2010)(ru)(ISBN 9785979200224)(T)(368s)_ET_.djvu",0,2000-01-01 01:00:00,2016-04-03 02:51:08,872000/5de41910e28002b55d6fba423fb087ee-g.jpg,,
6946083,Что такое магнетизм,,НПБ,,Белов К.П. ,1955,, Гостехиздат,,68,0,Russian,E_Engineering/Nauchno-populyarnaja biblioteka Gostexizdata/,kolxoz,10,,,,,,,,,,,,600,,,,,,,1,1570273,djvu,154de92fa18a134c7bfdf74216d4ae0e,,,"E_Engineering/Nauchno-populyarnaja biblioteka Gostexizdata/Belov K.P. Chto takoe magnetizm (ru)(NPB, Gostexizdat, 1955)(600dpi)(T)(68s)_E_.djvu",0,2000-01-01 01:00:00,2016-04-03 02:51:08,872000/154de92fa18a134c7bfdf74216d4ae0e-g.jpg,,
6946084,Водяной пар,,НПБ,,Бобровский Г.С. ,1958,, Гостехиздат,,66,0,Russian,E_Engineering/Nauchno-populyarnaja biblioteka Gostexizdata/,kolxoz,10,,,,,,,,,,,,600,,,,,,,1,1263252,djvu,9f7c6cd8f46f15c743e20a83e7c852b8,,,"E_Engineering/Nauchno-populyarnaja biblioteka Gostexizdata/Bobrovskij G.S. Vodyanoj par (ru)(NPB, Gostexizdat, 1958)(600dpi)(T)(66s)_E_.djvu",0,2000-01-01 01:00:00,2016-04-03 02:51:08,872000/9f7c6cd8f46f15c743e20a83e7c852b8-g.jpg,,
6946085,Подводный мир (Жизнь в море),,НПБ,,Богоров В.Г. ,1946,, Гостехиздат,,50,0,Russian,E_Engineering/Nauchno-populyarnaja biblioteka Gostexizdata/,kolxoz,10,,,,,,,,,,,,600,,,,,,,1,2399127,djvu,33a405cb4d91fe07893692cc0deb232a,,,"E_Engineering/Nauchno-populyarnaja biblioteka Gostexizdata/Bogorov V.G. Podvodnyj mir (Zhizn# v more) (ru)(NPB, Gostexizdat, 1946)(600dpi)(T)(50s)_E_.djvu",0,2000-01-01 01:00:00,2016-04-03 02:51:08,872000/33a405cb4d91fe07893692cc0deb232a-g.jpg,,
6946086,Земля,,НПБ,,Бублейников Ф.Д. ,1953,, Гостехиздат,,50,0,Russian,E_Engineering/Nauchno-populyarnaja biblioteka Gostexizdata/,kolxoz,10,,,,,,,,,,,,600,,,,,,,1,1305558,djvu,dad071c7846471670d00645b68328bfc,,,"E_Engineering/Nauchno-populyarnaja biblioteka Gostexizdata/Bublejnikov F.D. Zemlya (ru)(NPB, Gostexizdat, 1953)(600dpi)(T)(50s)_E_.djvu",0,2000-01-01 01:00:00,2016-04-03 02:51:08,872000/dad071c7846471670d00645b68328bfc-g.jpg,,
6946087,Электроны,,НПБ,,Гапонов В.И. ,1949,, Гостехиздат,,50,0,Russian,E_Engineering/Nauchno-populyarnaja biblioteka Gostexizdata/,kolxoz,10,,,,,,,,,,,,600,1,,,,,,1,899568,djvu,dd9529846c7412e7f34430f52aeed55a,,,"E_Engineering/Nauchno-populyarnaja biblioteka Gostexizdata/Gaponov V.I. E#lektrony (ru)(NPB, Gostexizdat, 1949)(600dpi)(T)(C)(50s)_E_.djvu",0,2000-01-01 01:00:00,2016-04-03 02:51:08,872000/dd9529846c7412e7f34430f52aeed55a-g.jpg,,
6946088,Атомная энергия - медицине,,НПБ,,Гродзенский Д.Э. ,1958,, Гостехиздат,,84,0,Russian,E_Engineering/Nauchno-populyarnaja biblioteka Gostexizdata/,kolxoz,10,,,,,,,,,,,,600,,,,,,,1,1266843,djvu,a9ef822b49f3c0bea330f34e602a76e2,,,"E_Engineering/Nauchno-populyarnaja biblioteka Gostexizdata/Grodzenskij D.E#. Atomnaya e#nergiya - medicine (ru)(NPB, Gostexizdat, 1958)(600dpi)(T)(84s)_E_.djvu",0,2000-01-01 01:00:00,2016-04-03 02:51:08,872000/a9ef822b49f3c0bea330f34e602a76e2-g.jpg,,
6946089,Мотор,,НПБ,,Захарченко В.Д. ,1949,, Гостехиздат,,58,0,Russian,E_Engineering/Nauchno-populyarnaja biblioteka Gostexizdata/,kolxoz,10,,,,,,,,,,,,600,,,,,,,1,1350938,djvu,90c728d9045141cd57bb07f0bb4eb8bd,,,"E_Engineering/Nauchno-populyarnaja biblioteka Gostexizdata/Zaxarchenko V.D. Motor (ru)(NPB, Gostexizdat, 1949)(600dpi)(T)(58s)_E_.djvu",0,2000-01-01 01:00:00,2016-04-03 02:51:08,872000/90c728d9045141cd57bb07f0bb4eb8bd-g.jpg,,
6946090,Искусственный холод,,НПБ,,Комаров Н.С. ,1954,, Гостехиздат,,58,0,Russian,E_Engineering/Nauchno-populyarnaja biblioteka Gostexizdata/,kolxoz,10,,,,,,,,,,,,600,,,,,,,1,1297587,djvu,baa564673780f0e2a5828f58df2c1b47,,,"E_Engineering/Nauchno-populyarnaja biblioteka Gostexizdata/Komarov N.S. Iskusstvennyj xolod (ru)(NPB, Gostexizdat, 1954)(600dpi)(T)(58s)_E_.djvu",0,2000-01-01 01:00:00,2016-04-03 02:51:08,872000/baa564673780f0e2a5828f58df2c1b47-g.jpg,,
6946091,Трение в природе и технике,,НПБ,,"Лисовский Л.П., Саломононич А.Е. ",1948,, Гостехиздат,,54,0,Russian,E_Engineering/Nauchno-populyarnaja biblioteka Gostexizdata/,kolxoz,10,,,,,,,,,,,,600,,,,,,,1,1731206,djvu,42477ce3de88688490cc16fb9a9e02e2,,,"E_Engineering/Nauchno-populyarnaja biblioteka Gostexizdata/Lisovskij L.P., Salomononich A.E. Trenie v prirode i texnike (ru)(NPB, Gostexizdat, 1948)(600dpi)(T)(54s)_E_.djvu",0,2000-01-01 01:00:00,2016-04-03 02:51:08,872000/42477ce3de88688490cc16fb9a9e02e2-g.jpg,,
6946092,Происхождение гор и материков,,НПБ,,Обручев В.А. ,1948,, Гостехиздат,,38,0,Russian,E_Engineering/Nauchno-populyarnaja biblioteka Gostexizdata/,kolxoz,10,,,,,,,,,,,,600,,,,,,,1,1505573,djvu,abe009b06af413ec06a8d7b769724324,,,"E_Engineering/Nauchno-populyarnaja biblioteka Gostexizdata/Obruchev V.A. Proisxozhdenie gor i materikov (ru)(NPB, Gostexizdat, 1948)(600dpi)(T)(38s)_E_.djvu",0,2000-01-01 01:00:00,2016-04-03 02:51:08,872000/abe009b06af413ec06a8d7b769724324-g.jpg,,
6946093,Редкие металлы,,НПБ,,Парфенов В.А. ,1954,, Гостехиздат,,50,0,Russian,E_Engineering/Nauchno-populyarnaja biblioteka Gostexizdata/,kolxoz,10,,,,,,,,,,,,600,,,,,,,1,908064,djvu,ffa0ea7a063fdf1b600dd29d753d7364,,,"E_Engineering/Nauchno-populyarnaja biblioteka Gostexizdata/Parfenov V.A. Redkie metally (ru)(NPB, Gostexizdat, 1954)(600dpi)(T)(50s)_E_.djvu",0,2000-01-01 01:00:00,2016-04-03 02:51:08,872000/ffa0ea7a063fdf1b600dd29d753d7364-g.jpg,,
6946094,Свойства металлов,,НПБ,,Славин Д.О. ,1952,, Гостехиздат,,68,0,Russian,E_Engineering/Nauchno-populyarnaja biblioteka Gostexizdata/,kolxoz,10,,,,,,,,,,,,600,,,,,,,1,1799026,djvu,6a676dd82e2c6f33033579f462f4c4c2,,,"E_Engineering/Nauchno-populyarnaja biblioteka Gostexizdata/Slavin D.O. Svojstva metallov (ru)(NPB, Gostexizdat, 1952)(600dpi)(T)(68s)_E_.djvu",0,2000-01-01 01:00:00,2016-04-03 02:51:08,872000/6a676dd82e2c6f33033579f462f4c4c2-g.jpg,,
6946095,Межпланетные полеты,,НПБ,,Штернфельд А.А. ,1956,, Гостехиздат,,49,0,Russian,E_Engineering/Nauchno-populyarnaja biblioteka Gostexizdata/,kolxoz,10,,,,,,,,,,,,600,,,,,,,1,1220612,djvu,7fe3c4956b8e21d1e3157c071356e120,,,"E_Engineering/Nauchno-populyarnaja biblioteka Gostexizdata/Shternfel#d A.A. Mezhplanetnye polety (ru)(NPB, Gostexizdat, 1956)(600dpi)(T)(49s)_E_.djvu",0,2000-01-01 01:00:00,2016-04-03 02:51:08,872000/7fe3c4956b8e21d1e3157c071356e120-g.jpg,,
6946096,Stochastic Optimal Control and the U.S. Financial Debt Crisis,,,,Jerome L Stein ,2012,,Springer,New York,175,0,English,"F_Finance/FC_Credit, Risk/",kolxoz,10,"9781461430797,1461430798",,,,,,,10.1007/978-1-4614-3079-7,,,,0,,,,,,,1,1376771,pdf,6bc5ac14a11e34fa2fd90ef3b56ac300,,,"F_Finance/FC_Credit, Risk/Stein J.L. Stochastic Optimal Control and the U.S. Financial Debt Crisis (Springer, 2012)(ISBN 9781461430780)(O)(175s).pdf",0,2000-01-01 01:00:00,2016-04-03 02:51:08,872000/6bc5ac14a11e34fa2fd90ef3b56ac300-d.jpg,,
6946097,Hedging with trees : advances in pricing and risk managing derivatives,,,,Paul Glasserman; Mark Nathan Broadie ,1998,,Risk,London,236,0,English,F_Finance/FD_Derivatives/,kolxoz,10,"0585195994,9780585195995",,,,,,,,,,no front,300,1,,,,,,1,4874547,djvu,b4da878b421a098619c20cb29408bad4,,,"F_Finance/FD_Derivatives/Broadie M., Glasserman P. Hedging with options (no front)(Risk Books, 1998)(ISBN 1899332022)(T)(C)(236s)_FD_.djvu",0,2000-01-01 01:00:00,2016-04-03 02:51:08,,,
6946098,Econophysics of order-driven markets : proceedings of Econophys-Kolkata V,,New economic windows,," Abergel F., et al  (eds.) ",2011,,Springer,New York,326,0,English,F_Finance/FK_Markets/,kolxoz,10,"9788847017658,8847017653",,,,,,,10.1007/978-88-470-1766-5,,,,0,,,,,,,1,3836680,pdf,5d149eb9fd1b4116a24ac6aa4ac1599e,,,"F_Finance/FK_Markets/Abergel F., et al (eds.) Econophysics of order-driven markets (Springer, 2011)(ISBN 9788847017658)(326s)_FK_.pdf",0,2000-01-01 01:00:00,2016-04-03 02:51:08,872000/5d149eb9fd1b4116a24ac6aa4ac1599e-d.jpg,,
6946099,"Modeling financial markets : using Visual Basic.NET and databases to create pricing, trading and risk management models",,,,Benjamin Van Vliet; Robert Hendry ,2004,,McGraw-Hill,New York,400,0,English,F_Finance/FK_Markets/,kolxoz,10,"0071417729,9780071417723",,,,,,,10.1036/007144288X,,,,0,,,,,,,1,1963557,pdf,4a0417b904ae139e3278177c1c805639,,,"F_Finance/FK_Markets/Vliet B.V., Hendry R. Modeling financial markets (MGH, 2004)(ISBN 0071417729)(400s)_FK_.pdf",0,2000-01-01 01:00:00,2016-04-03 02:51:08,,,
6946100,"Handbook of financial econometrics, v.1 tools and techniques",,,,"Ait-Sahalia Y., Hansen L. (eds.) ",2010,,NH,,809,0,English,F_Finance/FL_Financial Econometrics/,kolxoz,10,044450897X,,,,,,,,,,,0,,,,,,,1,3845102,pdf,941c4c0ba6580b2c28d6ac671ea5fa57,,,"F_Finance/FL_Financial Econometrics/Ait-Sahalia Y., Hansen L. (eds.) Handbook of financial econometrics, v.1 tools and techniques (NH, 2010)(ISBN 044450897X)(O)(809s)_FL_.pdf",0,2000-01-01 01:00:00,2016-04-03 02:51:08,872000/941c4c0ba6580b2c28d6ac671ea5fa57-d.jpg,,
6946101,"Handbook of financial econometrics. Volume 2, Applications",,,,Yacine Aït-Sahalia; Lars Peter Hansen  (eds.),2010,,North-Holland/Elsevier,Amsterdam ; Boston,385,0,English,F_Finance/FL_Financial Econometrics/,kolxoz,10,"9780444535498,0444535497",,,,,,,,,,,0,,,,,,,1,2468825,pdf,a42f571c0666ae8414f5b22edbc17d4e,,,"F_Finance/FL_Financial Econometrics/Ait-Sahalia Y., Hansen L. (eds.) Handbook of financial econometrics, v.2 applications (NH, 2010)(ISBN 0444535489)(O)(385s)_FL_.pdf",0,2000-01-01 01:00:00,2016-04-03 02:51:08,872000/a42f571c0666ae8414f5b22edbc17d4e-d.jpg,,
6946102,Нейронные сети и финансовые рынки,,,,"Бэстенс Д.Э., Ван Ден Берг В.-М., Вуд Д.(Baestaens D.E., van der Bergh W.M., Wood D.) ",1997,,ТВП,,254,0,Russian,F_Finance/FM_Mathematical/,kolxoz,10,5854840286,,,,,,,,,,,300,,1,,,,,1,3416324,djvu,69a78ab11cea2cad63c8241470547c78,,,"F_Finance/FM_Mathematical/Be#stens D.E#., Van Den Berg V.-M., Vud D. (_Baestaens D.E., van der Bergh W.M., Wood D._) Nejronnye seti i finansovye rynki (TVP, 1997)(ISBN 5854840286)(ru)(T)(S)(254s)_FM_.djvu",0,2000-01-01 01:00:00,2016-04-03 02:51:08,872000/69a78ab11cea2cad63c8241470547c78-g.jpg,,
6946103,Monte Carlo methods in financial engineering,,"Applications of mathematics, 53",,Paul Glasserman ,2004,,Springer,New York,610,0,English,F_Finance/FN_Numerical/,kolxoz,10,"0387004513,9780387004518",,,,,,,,,,,0,,,,,,,1,3257320,pdf,ef5332b1fdfc1169835037a39be4cfea,,,"F_Finance/FN_Numerical/Glasserman P. Monte Carlo methods in financial engineering (Springer, 2004)(ISBN 0387004513)(O)(610s)_FN_.pdf",0,2000-01-01 01:00:00,2016-04-03 02:51:08,872000/ef5332b1fdfc1169835037a39be4cfea-d.jpg,,
6946104,Консервативный скальпинг intraday,,,,Ширяев Н.А. ,2000,,ФорексКлуб,,228,0,Russian,F_Finance/FT_Trading/FTfx_Forex/,kolxoz,10,9785911802271,,,,,,,,,,,300,,,,,,,1,3744732,djvu,c1424000b9f131f0ebd8c32d13fb6451,,,"F_Finance/FT_Trading/FTfx_Forex/Shiryaev N.A. Konservativnyj skal#ping __intraday__ (ForeksKlub, 2000)(ISBN 9785911802271)(ru)(T)(228s)_FTfx_.djvu",0,2000-01-01 01:00:00,2016-04-03 02:51:08,872000/c1424000b9f131f0ebd8c32d13fb6451-g.jpg,,
6946105,New perspectives on games and interaction,,"Texts in logic and games, v. 4",,Krzysztof R Apt; Robert Van Rooij; Koninklijke Nederlandse Akademie van Wetenschappen. Colloquium  (eds.),2008,,Amsterdam Univ. Press,"Amsterdam, Netherlands",329,0,English,G_Economics/GA_Game Theory/,kolxoz,10,"9789048506422,9048506425",,,,,,,,,,,0,,,,,,,1,9778270,pdf,fd3a482281d8da24a7bc1dc8b588d317,,,"G_Economics/GA_Game Theory/Apt K., van Rooij R. (eds.) New perspectives on games and interaction (Amsterdam Univ., 2008)(ISBN 9789089640574)(O)(329s)_GA_.pdf",0,2000-01-01 01:00:00,2016-04-03 02:51:08,872000/fd3a482281d8da24a7bc1dc8b588d317-d.jpg,,
6946106,Behavioral game theory : experiments in strategic interaction,,The roundtable series in behavioral economics,,Colin Camerer ,2003,,Sage,,248,0,English,G_Economics/GA_Game Theory/,kolxoz,10,"0691090394,9780691090399",,,,,,,,,,no front,300,,1,,,,,1,7364272,djvu,616b1f29aecfa72af581217e2f4aaf71,,,"G_Economics/GA_Game Theory/Camerer C.F. Behavioral game theory (no front) (Sage, 2003)(ISBN 0691090394)(T)(O)(S)(248s)_GA_.djvu",0,2000-01-01 01:00:00,2016-04-03 02:51:08,872000/616b1f29aecfa72af581217e2f4aaf71-d.jpg,,
6946107,Social choice and the mathematics of manipulation,,Outlooks,,Alan D Taylor; Mathematical Association of America ,2005,,Cambridge University Press,Cambridge ; New York,190,0,English,G_Economics/GA_Game Theory/GAsoc_Social Choice Theory/,kolxoz,10,"0521810523,9780521810524,0521008832,9780521008839",,,,,,,,,,,0,,,,,,,1,796198,pdf,d9231228288f68441a29ca746bf2c23f,,,"G_Economics/GA_Game Theory/GAsoc_Social Choice Theory/Taylor A.D. Social choice and the mathematics of manipulation (CUP, 2005)(ISBN 0521810523)(O)(190s)_GAsoc_.pdf",0,2000-01-01 01:00:00,2016-04-03 02:51:08,872000/d9231228288f68441a29ca746bf2c23f-d.jpg,,
6946108,Public Economics and the Household,,,,Patricia Apps; Ray Rees ,2009,,Cambridge University Press,"Cambridge, UK ; New York",304,0,English,G_Economics/GC_Microeconomics/,kolxoz,10,"9780521887878,0521887879,9780521716284,0521716284",,,,,,,,,,,0,,,,,,,1,1738343,pdf,077c98ad7a70d9701eeab76bc233687e,,,"G_Economics/GC_Microeconomics/Apps P., Rees R. Public Economics and the Household (CUP, 2009)(ISBN 0521887879)(O)(304s)_GC_.pdf",0,2000-01-01 01:00:00,2016-04-03 02:51:08,872000/077c98ad7a70d9701eeab76bc233687e-d.jpg,,
6946109,The economic organization of the household,,,,W  Keith Bryant; Cathleen D Zick ,2006,2ed.,Cambridge University Press,Cambridge ; New York,354,0,English,G_Economics/GC_Microeconomics/,kolxoz,10,"0511136927,9780511136924,0511133324,9780511133329,0521801419,9780521801416,0521805279,9780521805278,0511134258,9780511134258",,,,,,,,,,,0,,,,,,,1,1927899,pdf,3281f7b8b91ab340414ccfbb95774ce2,,,"G_Economics/GC_Microeconomics/Bryant W.K., Zick C.D. The economic organization of the household (2ed., CUP, 2006)(ISBN 0521801419)(O)(354s)_GC_.pdf",0,2000-01-01 01:00:00,2016-04-03 02:51:08,872000/3281f7b8b91ab340414ccfbb95774ce2-d.jpg,,
