32753260,Ressentiment: Reflections on Mimetic Desire and Society,,Breakthroughs in Mimetic Theory,,Stefano Tomelleri,2015,,Michigan State University Press,,245,246,English,,,,"1611861845,9781611861846",,,,,,,,,,,0,0,1,0,1,0,1,1,1164969,pdf,45EBBD9A70E5D5E6D6CE607AA8B86EEE,,,Tomelleri - Ressentiment.pdf,0,2021-03-16 08:19:06,2021-03-16 08:19:06,45ebbd9a70e5d5e6d6ce607aa8b86eee-g.jpg,,"1611861845,9781611861846"
32753261,"Markets, Minds, and Money: Why America Leads the World in University Research",,,,Miguel Urquiola,2020,,Harvard University Press,,288,358,English,,,,"0674244230,9780674244238",,,,,,,,,,,0,0,1,0,1,0,1,1,4094985,pdf,6C76A74E36FBD389191DCFF75D3EACB4,,,"Urquiola - Markets, Minds, and Money.pdf",0,2021-03-16 08:19:49,2021-03-16 08:19:49,6c76a74e36fbd389191dcff75d3eacb4-g.jpg,,"0674244230,9780674244238"
32753262,Varieties of Post-classical and Byzantine Greek,,Trends in Linguistics. Studies and Monographs [TiLSM] 331,,"Klaas Bentein (editor), Mark Janse (editor)",2020,,De Gruyter Mouton,,447,448,English,,,,"3110608553,9783110608557",,,,,,,,,,,0,0,1,0,1,0,1,1,3510384,pdf,55BB06A4E3249D236863957586AE25D1,,,Varieties of Post-classical and Byzantine Greek.pdf,0,2021-03-16 08:20:32,2021-03-16 08:20:32,55bb06a4e3249d236863957586ae25d1-g.jpg,,"3110608553,9783110608557"
32753263,The Prosodic Word in European Portuguese,,Interface Explorations [IE] 6,,Marina Vigário,2011,Reprint,De Gruyter Mouton,,458,457,English,,,,"3110177137,9783110177138",,,,,,,,,,,0,0,1,0,1,1,1,1,12031526,pdf,350A1C6CB46379A541614BBE1A7FE2E9,,,Vigario - The Prosodic Word in European Portuguese.pdf,0,2021-03-16 08:21:28,2021-03-16 08:21:28,350a1c6cb46379a541614bbe1a7fe2e9-g.jpg,,"3110177137,9783110177138"
32753264,The Second Sickness: Contradictions of Capitalist Health Care: Contradictions of Capitalist Health Care,,,,Howard Waitzkin,2000,2,Rowman & Littlefield,,258,257,English,,,,"0847698874,9780847698875",,,,,,,,,,,0,0,1,0,1,1,1,1,14926090,pdf,E365730FFEB13D4AFCDE595C409858F1,,,Waitzkin - The Second Sickness.pdf,0,2021-03-16 08:22:06,2021-03-16 08:22:06,e365730ffeb13d4afcde595c409858f1-g.jpg,,"0847698874,9780847698875"
32753265,Killing Strangers: How Political Violence Became Modern,,,,T. K. Wilson,2020,,Oxford University Press,,288,274,English,,,,"0198863500,9780198863502",,,,,,,,,,,0,0,1,0,1,0,1,1,4725713,pdf,CF3B4593C3DE34B289D3472ACC67B4DB,,,Wilson - Killing Strangers.pdf,0,2021-03-16 08:22:48,2021-03-16 08:22:48,cf3b4593c3de34b289d3472acc67b4db-g.jpg,,"0198863500,9780198863502"
32753266,代数几何 Algebraic Geometry,,数学名著译丛,,（美）哈茨霍恩（Robin Hartshorne）; 冯克勤; 刘木兰; 胥鸣伟,1994,,科学出版社,,596,595,Chinese,,,,9787030029706,,,,,,,,,,,0,,,,,,1,0,7510127,pdf,04B485BB09BB6D233C2AB6024003A762,,,数学名著译丛 代数几何 [美]R·哈茨霍恩 冯克勤 刘木兰 胥鸣伟(译) 1994年版.pdf,0,2021-03-16 08:23:26,2021-03-16 08:28:09,04b485bb09bb6d233c2ab6024003a762-g.jpg,,9787030029706
32753267,"Hong Kong's 2019-2020 Social Unrest: The Trigger, History and Lessons",,,,Bernard Yeung,2020,,World Scientific,,184,184,English,,,,"9811226296,9789811226298",,,,,,,,,,,0,0,1,0,1,0,1,1,9050907,pdf,0C1CF11444DB398D1485A8268F2C9099,,,Yeung - Hong Kong’s 2019–2020 Social Unrest.pdf,0,2021-03-16 08:23:40,2021-03-16 08:23:40,0c1cf11444db398d1485a8268f2c9099-g.jpg,,"9811226296,9789811226298"
32753268,"The Place of Religion in the Liberal Philosophy of Constant, Tocqueville, and Lord Acton",,,,Ralph Raico,2010,,Ludwig von Mises Institute,,374,179,English,189,,,"1610163680,9781610163682",,,,,,,,XnWPoXIvJKQC,,,0,,,,,,1,1,2294680,pdf,64192620CF29EAB74F11EA7B9B688548,,,"The Place of Religion in the Liberal Philosophy of Constant, Tocqueville, and Lord Acton_2.pdf",0,2021-03-16 08:25:57,2021-03-16 14:59:37,64192620cf29eab74f11ea7b9b688548-d.jpg,,"1610163680,9781610163682"
32753269,"Locke, Science, and Politics",,,,Steven Forde,2013,,Cambridge University Press,,,270,English,189,,,"9781107041141,2013023224",,,,,,,,,,,0,,,,,,,1,4117775,pdf,6B1AE102797C8DA40BE791FEFE92BAD3,,,ilovepdf_merged (34) (1).pdf,0,2021-03-16 08:33:09,2021-03-16 08:33:09,6b1ae102797c8da40be791fefe92bad3-g.jpg,,"9781107041141,2013023224"
32753270,Five Proofs of the Existence of God,,,,Edward Feser,2017,,Ignatius Press,,,312,English,205,,,"9781621641339,9781681497808,2017932705",,,,,,,,,,,0,,,,,,1,1,3467102,pdf,489E32711801AE552FAD11EDFD05659B,,,ilovepdf_merged (32).pdf,0,2021-03-16 08:37:03,2021-03-16 08:37:03,489e32711801ae552fad11edfd05659b-g.jpg,,"9781621641339,9781681497808,2017932705"
32753271,Aristotle’s Revenge: The Metaphysical Foundations of Physical and Biological Science,,,,Edward Feser,2019,,Editiones Scholasticae,,,632,English,189,,,9783868381993,,,,,,,,,,,0,,,,,,1,1,3093369,pdf,036C155B59989E8927EE815BE81D5734,,,ilovepdf_merged (33).pdf,0,2021-03-16 08:40:08,2021-03-16 09:01:45,036c155b59989e8927ee815be81d5734-g.jpg,,9783868381993
32753272,Die Lehrer Gurdjieffs,,,,Rafael Lefort,1983,,Bruno Martin,Frankfurt,,121,German,,,,3921786215,,,,,,,,,,,0,,,,,,1,0,27405751,pdf,644D2BF2C00A770BF2669027DADEB364,,,Die Lehrer Gurdjieffs (1983).pdf,0,2021-03-16 08:49:29,2021-03-16 08:59:18,644d2bf2c00a770bf2669027dadeb364-g.jpg,,3921786215
32753273,"Entre imagens: foto, cinema, video",,,,Raymond Bellour,1997,,Papirus,,392,388,Portuguese,,,,"8530804570,9788530804572",,,,,,,,awiNQgAACAAJ,,,0,,,,,,,1,78726368,pdf,D554D1623DB4502E63D28D3FF885F2F4,,,"BELLOUR, Raymond. Entre-imagens.pdf",0,2021-03-16 08:50:33,2021-03-16 08:58:34,d554d1623db4502e63d28d3ff885f2f4-g.jpg,,"8530804570,9788530804572"
32753274,Integrating Pain Treatment into Your Spine Practice,,,,Steven M. Falowski and Jason E. Pope (editors),2016,,"Springer International Publishing, Cham",,272,0,English,175,,,"9783319277967,2015959710,3319277944",,,,,,,,,,"how to identify candidates for pain treatment and when to refer them to specialists, ent techniques into their practice,  how to integrate pain management techniques into their practice",0,,,,,,,,2848018,epub,82AE495C10320809BBF24EE7C0F91E55,,,Integrating Pain Treatment into Your Spine Practice by Steven M. Falowski +2 (2016).epub,0,2021-03-16 09:03:42,2021-03-16 09:03:42,82ae495c10320809bbf24ee7c0f91e55-g.jpg,"how to identify candidates for pain treatment and when to refer them to specialists, ent techniques into their practice,  how to integrate pain management techniques into their practice","9783319277967,2015959710,3319277944"
32753275,Prehistoric Britain: The Ceramic Basis,,"Prehistoric Ceramics Research Group Occasional papers, 3",,"Ann Woodward, J. D. Hill",2016,Illustrated,Oxbow Books,,200,0,English,66,,,"1842170716,9781842170717",,B06Y5Y8JPW,,,,,,,,,0,,,,,,,,15968444,epub,B5EF968C3BD5E2C5FDF1527A4E9F1333,,,"Ann Woodward, J. D. Hill - Prehistoric Britain. The Ceramic Basis [Retail].epub",0,2021-03-16 09:03:46,2021-03-16 09:03:46,b5ef968c3bd5e2c5fdf1527a4e9f1333-g.jpg,,"1842170716,9781842170717"
32753276,苏轼十讲,,阅微讲堂,,朱刚,2019,,上海三联书店,,438,450,Chinese,,,,9787542666635,,,,,,,,,,,600,1,1,,,1,,0,235573863,pdf,1C539A8012484C15343B97BE4B79EE3B,,,苏轼十讲-450.pdf,0,2021-03-16 09:05:42,2021-03-16 09:05:42,1c539a8012484c15343b97be4b79ee3b-g.jpg,,9787542666635
32753277,O Desaparecimento da Infância,,,,Neil Postman,2002,,,,,98,Portuguese,,,,8585277300,,,,,,,,,,,0,,,,,,,1,24745959,pdf,59B17A6542BD66FA93402ACD59B0F19D,,,Neil Postman - O Desaparecimento da Infânciaa.pdf,0,2021-03-16 09:07:11,2021-03-16 09:07:11,59b17a6542bd66fa93402acd59b0f19d-g.jpg,,8585277300
32753278,Teorias da etnicidade,,,,"Philippe Poutignat, Jocelyne Streiff-Fenart",1998,,,,,125,Portuguese,,,,8571391955,,,,,,,,,,,0,,,,,,,1,48051925,pdf,C68E78A146D5C6FD86C074A43A07F255,,,Philippe Poutignat & Jocelyne Streiff-Fenart - Teorias da etnicidadeee.pdf,0,2021-03-16 09:08:55,2021-03-16 09:08:55,c68e78a146d5c6fd86c074a43a07f255-g.jpg,,8571391955
32753279,What If? Writing Exercises for Fiction Writers,,,,"Anne Bernays, Pamela Painter",2009,3,Pearson,,472,453,English,,,,"0205616887,9780205616886",,,,,,,,,,,0,,,,,,,1,62731564,pdf,A69840BAA83D53F8A901C67E1F06776E,,,"What If, Writing Exercises for Fiction Writers 3e (2009).pdf",0,2021-03-16 09:33:13,2021-03-16 09:33:13,a69840baa83d53f8a901c67e1f06776e-g.jpg,,"0205616887,9780205616886"
32753280,Pirating And Publishing: The Book Trade In The Age Of Enlightenment,,,,Robert Darnton,2021,1,Oxford Univesity Press,,401,401,English,64,,,"019514452X,9780195144529,0197529739,9780197529737,0197529720,9780197529720",,,,,,,,,,TruePDF,0,,,,,,1,1,7505970,pdf,A4AEDDC28BD253D41DC87E41C225E9F0,,,019514452X_9780195144529_PiratingAndPublishing.pdf,0,2021-03-16 09:45:00,2021-03-16 09:45:00,a4aeddc28bd253d41dc87e41c225e9f0-g.jpg,Book Industries And Trade: France: History: 18th Century; Publishers And Publishing: Government Policy: France: History: 18th Century; Literature Publishing: France: History: 18th Century; Authors And Publishing: France: History: 18th Century; French Imprints: Publishing: Foreign Countries: History: 18th Century; Société Typographique de Neuchâtel: History: 18th Century; Book Industries And Trade: Europe: History: 18th Century; Enlightenment: France,"019514452X,9780195144529,0197529739,9780197529737,0197529720,9780197529720"
32753281,Зеленое дерево жизни,,,,Волынский Л.,1964,,Детская литература,Москва,,182,Russian,,,,,,,,,,,,,,,600,1,1,0,1,1,0,1,18533567,djvu,49A1518E7836DA81606F7E3FEEBCE50F,,,Volynsky_L_-_Zelenoe_Derevo_Zhizni_-_1964.djvu,0,2021-03-16 09:57:39,2021-03-16 09:57:39,49a1518e7836da81606f7e3feebce50f-g.jpg,,
32753282,По следам минувшего,,,,"Яковлева И., Яковлев В.",1983,,Детская литература,Москва,,326,Russian,,,,,,,,,,,,,,,600,1,1,0,1,1,0,1,58216152,djvu,9C0EE33A34AC8689830379841C3F8036,,,Yakovleva_I_n_-_Po_Sledam_Minuvshego_1983.djvu,0,2021-03-16 09:59:07,2021-03-16 09:59:07,9c0ee33a34ac8689830379841c3f8036-g.jpg,,
32753283,Палеонтология в картинках,,,,Яковлева И.,1977,,Детская литература,Москва,,45,Russian,,,,,,,,,,,,,,,600,1,1,0,1,1,0,1,27514956,djvu,81FF06AA46DA9C3ABD3D1829E475F8A0,,,Yakovleva_I_n_-_Paleontologia_V_Kartinkakh_1977.djvu,0,2021-03-16 10:00:28,2021-03-16 10:00:28,81ff06aa46da9c3abd3d1829e475f8a0-g.jpg,,
32753284,Государство хорезмшахов-ануштегинидов 1097—1231,,,,Буниятов З.М.,1986,,Наука,Москва,,251,Russian,,,,,,,,,,,,,,,0,1,1,0,1,1,0,0,18989569,pdf,B84945F8E2C85CC7386BE0647DE486DF,,,Buniatov_Z_m_-_Gosudarstvo_Khorezmshakhov-Anushgeginidov_-_1986.pdf,0,2021-03-16 10:03:05,2021-03-16 10:03:05,b84945f8e2c85cc7386be0647de486df-g.jpg,,
32753285,Живой Корчагин,,,,Трегуб С.А.,1973,,Советская Россия,Москва,288,290,Russian,,,,,,,,,,,,,,,600,1,1,0,1,1,1,1,11054434,djvu,54F5A4CD34DB2844FF1E606212BDAF33,,,Tregub_S_a_-_Zhivoy_Korchagin_-_1973.djvu,0,2021-03-16 10:08:41,2021-03-16 10:08:41,54f5a4cd34db2844ff1e606212bdaf33-g.jpg,,
32753286,Советская наука в годы Великой Отечественной войны,,,,Левшин Б.В.,1983,,Наука,Москва,,387,Russian,,,,,,,,,,,,,,,600,1,1,0,1,1,1,1,10410241,djvu,D4BACEED11B0C9ECBB754982643D539B,,,Levshin_B_v_-_Sovetskaya_Nauka_V_Gody_Velikoy_Otechestvennoy_Voyny_-_1983.djvu,0,2021-03-16 10:10:59,2021-03-16 10:10:59,d4baceed11b0c9ecbb754982643d539b-g.jpg,,
32753287,Лекции по математическому анализу,,,,Рождественский Б.Л.,1972,,Наука,Москва,,546,Russian,,,,,,,,,,,,,,,600,,1,0,1,1,0,0,7897530,djvu,D17EB53EB235ED8737B94FF85BCA6AC5,,,Rozhdestvensky_B_l_-_Lektsii_Po_Matematicheskomu_Analizu_1972.djvu,0,2021-03-16 10:14:33,2021-03-16 10:14:33,d17eb53eb235ed8737b94ff85bca6ac5-g.jpg,,
32753288,Сборник зазадач по математической физике,,,,"Будак Б.М., Самарский А.А., Тихонов А.Н.",2004,"4, исправленное",Физматлит,Москва,688,688,Russian,,,,5922103113,,,517,22.16,,,,,,,600,1,,0,1,,1,1,4675019,djvu,343697BD58EE8528C6D5696407E2A854,,,Budak_B_m_-_Sbornik_Zadach_Po_Matematicheskoy_Fizike_-_2004.djvu,0,2021-03-16 10:16:17,2021-03-16 10:16:17,343697bd58ee8528c6d5696407e2a854-g.jpg,,5922103113
32753289,"The Religion of White Rage: Religious Fervor, White Workers and the Myth of Black Racial Progress",,,,"Lori Latrice Martin (editor), Stephen C. Finley (editor), Biko Mandela Gray (editor)",2020,1,Edinburgh University Press,,360,337,English,,,,"1474473709,9781474473705",,,,,,,,,,,0,,,,,,1,1,2503745,pdf,D44454E9D0323E027C9D88AA75334D67,,,"Stephen C. Finley, Biko Mandela Gray, Lori Latrice Martin - The Religion of White Rage. White Workers, Religious Fervor, and the Myth of Black Racial Progress.pdf",0,2021-03-16 10:25:05,2021-03-16 10:25:05,d44454e9d0323e027c9d88aa75334d67-g.jpg,,"1474473709,9781474473705"
32753290,When Ivory Towers Were Black: A Story about Race in America's Cities and Universities,,,,Sharon Egretta Sutton,2017,Illustrated,Empire State Editions,,312,313,English,,,,9780823276127,,,,,,,,,,,0,,,,,,1,1,15325942,pdf,5D1B890D90DE74D5F87CDC6A8429ED25,,,When Ivory Towers Were Black_ A Story About Race in America's Cities and Universities - Sharon Egretta Sutton.pdf,0,2021-03-16 10:26:58,2021-03-16 10:26:58,5d1b890d90de74d5f87cdc6a8429ed25-g.jpg,,9780823276127
32753291,Energia e civiltà,,,,Vaclav Smil,2021,,Hoepli,,,0,Italian,64,,,9788836003914,,,,,,,,,,,0,,,,,,,,23496448,epub,8F3310117E464678ACEED459E1C78F93,,,Energia e civilta - Vaclav Smil.epub,0,2021-03-16 10:47:03,2021-03-16 10:47:03,8f3310117e464678aceed459e1c78f93-g.jpg,,9788836003914
32753292,Il tempo della decrescita. Introduzione alla frugalità felice,,,,Serge Latouche; Didier Harpagès,2017,,Elèuthera,,95,0,Italian,194,,,"8898860552,9788898860555",,,,,,,,ZppLMQAACAAJ,,,0,,,,,,,,1340360,epub,9A3C611FA67F0F418E3DE03E7D5A44A8,,,"Il tempo della decrescita - Serge Latouche, Didier Harpages.epub",0,2021-03-16 10:47:28,2021-03-16 15:01:58,9a3c611fa67f0f418e3de03e7d5a44a8-d.jpg,,"8898860552,9788898860555"
32753293,Storia della solitudine. Da Aristotele ai social network,,,,Aurelio Musi,2021,,Neri Pozza,,,0,Italian,198,,,9788854523005,,,,,,,,,,,0,,,,,,,,398201,epub,AE99019A385F4AFE04EB4FE571A3D3EF,,,Storia della solitudine - Aurelio Musi.epub,0,2021-03-16 10:48:28,2021-03-16 10:48:28,ae99019a385f4afe04eb4fe571a3d3ef-g.jpg,,9788854523005
32753294,Scritti letterari,,,,Michel Foucault,2021,,Feltrinelli,,,0,Italian,195,,,9788858840382,,,,,,,,,,,0,,,,,,,,1198277,epub,C987CF9C0CF154BBEF9E56548CB34E2E,,,Scritti letterari - Michel Foucault.epub,0,2021-03-16 10:48:54,2021-03-16 10:48:54,c987cf9c0cf154bbef9e56548cb34e2e-g.jpg,,9788858840382
32753295,Нижегородский университет. 1918-1993,,,,Хохлов А.В. (отв. ред.),1994,,Издательство Нижегородского университета,Нижний Новгород,,242,Russian,68,,,5230038480,,,,,,,,,,,0,,,,,,,0,120028299,pdf,7D00F5D5A02883C1E3C052DE45F71D3C,,,Нижегородский университет. 1918-1993 (1993).pdf,0,2021-03-16 10:50:43,2021-03-16 10:50:43,7d00f5d5a02883c1e3c052de45f71d3c-g.jpg,,5230038480
32753296,Rock Art and the Wild Mind: Visual Imagery in Mesolithic Northern Europe,,,,Ingrid Fuglestvedt,2017,1,Routledge,,458,458,English,66,,,"1138090530,9781138090538",,,,,,,,,,,0,,,,,,1,1,7710264,pdf,D199831D719B263D5561AD6F8D473E7D,,,Ingrid Fuglestvedt - Rock Art and the Wild Mind. Visual Imagery in Mesolithic Northern Europe (Retail).pdf,0,2021-03-16 10:55:54,2021-03-16 10:55:54,d199831d719b263d5561ad6f8d473e7d-g.jpg,,"1138090530,9781138090538"
32753297,The Viking Diaspora,,,,Judith Jesch,2015,,Routledge,Abingdon,244,245,English,,,,"1317482549,9781317482543",,,,,,,,IjrLCQAAQBAJ,,,0,,,,,,1,1,1527476,pdf,7D26C4EA3DF4BC990BAC6AC167272257,,,The Viking Diaspora.pdf,0,2021-03-16 11:07:55,2021-03-16 15:02:37,7d26c4ea3df4bc990bac6ac167272257-d.jpg,,"1317482549,9781317482543"
32753298,Book of Secrets - Handbook for Beginners,,,,Shmueli,2021,,,,,131,English,,,,9788719227740,,,,,,,,,,,0,,,,,,,1,8932744,pdf,06CD49FABACAE41445F5B7B4A7EED119,,,Book of Secrets - Handbook for Beginners(2021)[Shmueli][9788719227740].pdf,0,2021-03-16 11:11:01,2021-03-16 15:04:04,06cd49fabacae41445f5b7b4a7eed119-g.jpg,,9788719227740
32753299,Alexander the Great: Man and God,,,,Ian Worthington,2004,1,Routledge,,388,389,English,68,,,"140580162X,9781405801621",,,,,,,,,,,0,,,,,,1,1,6780374,pdf,B033A3EEAF645C974CD30310C6F869F2,,,Ian Worthington - Alexander the Great. Man and God (Retail).pdf,0,2021-03-16 11:19:52,2021-03-16 11:19:52,b033a3eeaf645c974cd30310c6f869f2-g.jpg,,"140580162X,9781405801621"
32753300,"Production, value, distribution and employment",,,,Marco Piccioni,2014,,ARACNE,,,80,English,,,,9788854878655,,,,,,,,,,https://www.amazon.it/Production-distribution-employment-analysis-relations/dp/8854878650,0,,,,,,1,1,1116710,pdf,7869C8A4691A729B9678B0E8D712DD1E,,,"Production, Value, Distribution and Employment.pdf",0,2021-03-16 11:23:16,2021-03-16 11:23:55,7869c8a4691a729b9678b0e8d712dd1e-g.jpg,,9788854878655
32753301,Das große Handbuch der Stiftungen,,,,Johann C. Köber,2018,,FinanzBuch Verlag,,,0,German,,,,"9783960922445,9783960922438",,,,,,,,,,,0,,,,,,,,1123171,epub,5BF7E53DE5B4EF79D5E866570965707A,,,Johann Kober-Das groBe Handbuch der Stiftungen[german].epub,0,2021-03-16 11:27:49,2021-03-16 11:27:49,5bf7e53de5b4ef79d5e866570965707a-g.jpg,,"9783960922445,9783960922438"
32753302,Das große Handbuch der Stiftungen: Wie Sie mit Stiftungen Ihr Vermögen gestalten und Ihr Erbe sichern,,,,Johann C. Kober,2018,,FinanzBuch Verlag,,320,321,German,,,,"9783959721356,9783960922438,9783960922445",,,,,,,,,,,0,,,,,,1,1,3017421,pdf,71DFA31B0889842504CD631380092BEB,,,Johann Kober-Das groBe Handbuch der Stiftungen[german].pdf,0,2021-03-16 11:29:21,2021-03-16 11:29:21,71dfa31b0889842504cd631380092beb-g.jpg,,"9783959721356,9783960922438,9783960922445"
32753303,Introduction to Algebraic Geometry,,,,"Igor Kriz, Sophie Kriz",2021,1,Birkhäuser,,470,481,English,121,,,"9783030626433,9783030626440",,,,,,,,,,,0,1,,0,1,,1,1,5339454,pdf,EF1EC23E7321753C320DC373094EB126,,,Introduction_to_Algebraic_Geometry(Kriz).pdf,0,2021-03-16 11:37:19,2021-03-16 11:37:19,ef1ec23e7321753c320dc373094eb126-g.jpg,"Algebraic Geometry, Variety, Schemes, Sheaves, Cohomology","9783030626433,9783030626440"
32753304,"Street Hypnosis: World's Leading Street Hypnotist Shows Techniques for the Office, Stage and Street",,,,"Andrews, Sean Michael",2016,,World's Fastest Hypnotist Sean Michael Andrews,,,0,English,,,,,,,,,,,,,,,0,,,,,,,,1477036,mobi,9D957BE37FF050FD39D3164FEC58E9B4,,,"Street Hypnosis_ World's Leadin - Andrews, Sean Michael.mobi",0,2021-03-16 11:38:23,2021-03-16 11:38:23,9d957be37ff050fd39d3164fec58e9b4-g.jpg,,
32753305,Dan Candell's Rapid Induction Formula: How To Hypnotize Anyone Quickly,,,,"Candell, Dan",2020,,,,,0,English,,,,9781732646025,,,,,,,,,,,0,,,,,,,,478789,mobi,B93252B3B0C7E405FBBDB3ABF8070D78,,,"Dan Candell's Rapid Induction F - Candell, Dan.mobi",0,2021-03-16 11:39:04,2021-03-16 11:39:04,b93252b3b0c7e405fbbdb3abf8070d78-g.jpg,,9781732646025
32753306,"Faith Gives Fullness to Reasoning: The Five Theological Orations of Gregory Nazianzen (Vigiliae Christianae, Supplements)",,,,Frederick W Norris (editor),1990,,Brill,,326,326,English,,,,"9004092536,9789004092532",,,,,,,,,,,0,,,,,,1,1,38957908,pdf,4C0C8B80A81317A9AD49CB856D38AD37,,,faith-gives-fullness-to-reasoning-1990.pdf,0,2021-03-16 11:58:01,2021-03-16 11:58:01,4c0c8b80a81317a9ad49cb856d38ad37-g.jpg,,"9004092536,9789004092532"
32753307,Modern Infrastructure with VMware Cloud on AWS,,,,Martin Hosken,2021,second,VMware Press,,,184,English,,,,9781527285125,,,,,,,,,,,0,,,,,,1,1,38664092,pdf,DBB742537160B7273B97B13F0F054B44,,,797425_Modern_Infrastructure_with_VMware_Cloud_on_AWS.pdf,0,2021-03-16 11:58:43,2021-03-16 11:58:43,dbb742537160b7273b97b13f0f054b44-g.jpg,,9781527285125
32753308,Даргинско-русский словарь омонимов,,,,З. Ш. Никатуева,2014,,"АЛЕФ, ДГПУ",,,297,Russian,322,,,9785424201967,,,,,,,,,,,0,,,,,,,1,14386016,pdf,CBCC7922AAAAA811F0ECC0C0338022F7,,,nikatueva_zsh_darginskorusskii_slovar_omonimov.pdf,0,2021-03-16 12:31:27,2021-03-16 12:31:27,cbcc7922aaaaa811f0ecc0c0338022f7-g.jpg,Dargwa;language;orthography,9785424201967
32753309,"This Difficult Individual, Ezra Pound",,,,Eustace Clarence Mullins,1961,,,,390,0,English,191,,,,,,,,,,,,,no name index,0,,1,,0,,1,,671826,epub,F34A4F3F0B7961838B8ABBB2F40FDDAA,,,"This Difficult Individual, Ezra Pound (1961)-Eustace Mullins.epub",0,2021-03-16 12:35:22,2021-03-16 12:35:22,f34a4f3f0b7961838b8abbb2f40fddaa-g.jpg,"biography, Ezra Pound, poet, poetry, Cantos, E.E. Cummings, T.S. Eliot, Robert Frost, Ernest Hemingway, Yeats, James Joyce, Wyndham Lewis, incarceration, international finance, Italy, Mussolini, radio broadcasts, treason trial, usury, St-Elizabeth’s hospital, WW2, patriot",
32753310,The Great Ideas Today 1978,,,,Encyclopaedia Britannica,1978,,"Encyclopaedia Britannica, Inc.",,,488,English,,,,0852293445,,,,,,,,,,,300,1,1,0,1,1,1,1,21641641,pdf,BB25F6EEEF39FC7C1FAAAE66638D9A11,,,The Great Ideas Today 1978.pdf,0,2021-03-16 12:36:54,2021-03-16 12:36:54,bb25f6eeef39fc7c1faaae66638d9a11-g.jpg,,0852293445
32753311,Отраслевая лексика даргинского языка,,,,С. М. Темирбулатова,2012,,"Институт языка, литературы и искусства им. Г. Цадасы",,,449,Russian,315,,,9785914310674,,,,,,,,,,,0,,,,,,,1,34552541,pdf,639A7268298CAE7FFC18775037C36CBE,,,temirbulatova_sm_otraslevaia_leksika_darginskogo_iazyka.pdf,0,2021-03-16 12:38:36,2021-03-16 12:38:36,639a7268298cae7ffc18775037c36cbe-g.jpg,Dargwa;language;orthography,9785914310674
32753312,The Great Ideas Today 1979,,,,Encyclopaedia Britannica,1979,,"Encyclopaedia Britannica, Inc.",,,490,English,,,,,,,,,,,,,,,300,1,1,0,1,1,1,1,21060969,pdf,E9CEB54AA5ACF5D3FB9979F85950EF31,,,The Great Ideas Today 1979.pdf,0,2021-03-16 12:39:01,2021-03-16 12:39:01,e9ceb54aa5acf5d3fb9979f85950ef31-g.jpg,,
32753313,Tumačenje snova I,,Odabrana dela Sigmunda Frojda (Knjiga VI),,Sigmund Frojd,1984,,Matica srpska,Novi Sad,,350,Srpski,,,,,,,,,,,,,,,0,,,,,,,1,1495644,pdf,600A188F9B39F01A4EB8A8D0311D60EA,,,Frojd_Tumacenje snova I (1984).pdf,0,2021-03-16 12:40:52,2021-03-16 12:45:45,600a188f9b39f01a4eb8a8d0311d60ea-g.jpg,,
32753314,Karl Marx,,,,Tom B. Bottomore,1979,,Basil Blackwell,,,202,English,,,,,,,,,,,,,,,0,,,,,,,1,8446378,pdf,47CE3BECBB329B58EC6A722C91AF3AD2,,,"Karl Marx - Bottomore, T. B_cropped.pdf",0,2021-03-16 12:42:16,2021-03-16 12:42:16,47ce3becbb329b58ec6a722c91af3ad2-g.jpg,,
32753315,Вопросы языкознания 3 (май — июнь),,,,coll.,1953,,Издательство Академии наук СССР,,,169,Russian,315,,,,,,,,,,,,,,0,,,,,,,1,15224085,pdf,9D9231C1B8FDA012074453CFC6FC132A,,,voprosy1953-3.pdf,0,2021-03-16 12:42:32,2021-03-16 12:42:32,9d9231c1b8fda012074453cfc6fc132a-g.jpg,Dargwa;language;orthography,
32753316,Tumačenje snova II / O snu,,Odabrana dela Sigmunda Frojda (Knjiga VII),,Sigmund Frojd,1984,,Matica srpska,Novi Sad,,326,Srpski,,,,,,,,,,,,,,,0,,,,,,,1,1422351,pdf,ECB35A780B8DCDDCFC1A2F2C5B7A73E4,,,Frojd_Tumacenje snova II (1984).pdf,0,2021-03-16 12:43:19,2021-03-16 12:44:17,ecb35a780b8dcddcfc1a2f2c5b7a73e4-g.jpg,,
32753317,"Alfred Lorenzer zur Einführung. Psychoanalyse, Sozialisationstheorie und Tiefenhermeneutik",,,,"Hans-Dieter König, Julia König, Jan Lohl, Sebastian Winter",2020,,Barbara Budrich,Opladen/Toronto,166,163,German,,,,9783825254308,,,,,,,,,,,0,,,,,,,1,15208292,pdf,7D745BB28D698BF6C9EE8D34F896BFA0,,,König u.a. 2020 – Lorenzer zur Einführung.pdf,0,2021-03-16 12:43:50,2021-03-16 12:43:50,7d745bb28d698bf6c9ee8d34f896bfa0-g.jpg,,9783825254308
32753318,Marx e Engels como historiadores da literatura,,,,György Lukács,2016,,Boitempo,,,254,Portuguese,,,,9788575595176,,,,,,,,,,,0,,,,,,1,1,6922206,pdf,18F9CC279D06ADCEA43365046D469C1B,,,"György Lukács, Georg Lukács - Marx e Engels como Historiadores da Literatura-boitempo (2016)_cropped.pdf",0,2021-03-16 12:43:55,2021-03-16 12:43:55,18f9cc279d06adcea43365046d469c1b-g.jpg,,9788575595176
32753319,Is the voice of a woman shameful? A linguistic anthropological study of the multinormativity of Jordan's society,,,,Martin Kurani,2021,,Ridderprint,"Ablasserdam, NL",248,270,English,,,,9789464164688,,,,,,,,,,,0,,,,,,,1,3896763,pdf,7F7554F2C6A85639120D38AF93E39391,,,149418- Kurani_COM_email.pdf,0,2021-03-16 12:45:01,2021-03-16 12:45:01,7f7554f2c6a85639120d38af93e39391-g.jpg,,9789464164688
32753320,Известия Отделения русского языка и словесности Императорской Академии наук,8 3,,,,1903,,Типография Императорской Академии наук,Санктпетербург,,438,Russian (Old),321,google,,,,,,,,,,,,,0,0,,0,1,1,0,0,16139895,pdf,3682D7418DAA8DDF72CFAE91245D0EA1,,,8 3 1903.pdf,0,2021-03-16 12:47:05,2021-03-16 12:47:05,3682d7418daa8ddf72cfae91245d0ea1-g.jpg,,
32753321,The Great Ideas Today 1981,,,,Encyclopaedia Britannica,1981,,"Encyclopaedia Britannica, Inc.",,,487,English,,,,0852293852,,,,,,,,,,,300,1,1,0,1,1,1,1,81284172,pdf,84A1C25630A8A820044370B0DB922C32,,,The Great Ideas Today 1981.pdf,0,2021-03-16 12:49:23,2021-03-16 12:49:23,84a1c25630a8a820044370b0db922c32-g.jpg,,0852293852
32753322,Magisterio rebelde. Antología libertaria,,,,Jorge Arturo Borja,2018,,Editorial Taller de Creación Literaria,,,207,Spanish,,,,,,,,,,,,,,,0,,,,,,,1,1952115,pdf,0DCF861F80769ED7C04DFE0E9377CEA5,,,Magisterio Rebelde antologia cnte.pdf,0,2021-03-16 12:49:40,2021-03-16 12:49:40,0dcf861f80769ed7c04dfe0e9377cea5-g.jpg,,
32753323,The Great Ideas Today 1982,,,,Encyclopaedia Britannica,1982,,"Encyclopaedia Britannica, Inc.",,,488,English,,,,0852293984,,,,,,,,,,,300,1,1,0,1,1,1,1,22518017,pdf,26340688157CB0C2591419619BB6D790,,,The Great Ideas Today 1982.pdf,0,2021-03-16 12:58:28,2021-03-16 12:58:28,26340688157cb0c2591419619bb6d790-g.jpg,,0852293984
32753324,"A 21st-Century Yogasanalia, Celebrating the Integration of Yoga, Science, and Medicine",,,,"Robin, Mel",2016,,Wheatmark,,2583,0,English,158,,,1627870210,,B071FQF893,,,,,,,,"Yogasanalia, Celebrating the Integration of Yoga, Science, and Medicine",0,,,,,,,,59795700,epub,54A60E542FAE71CA4B2F57F0335DE02A,,,"A 21st-Century Yogasanalia Celebrating the Integration of Yoga, Science, and Medicine by Mel Robin (2017).epub",0,2021-03-16 13:07:46,2021-03-16 13:07:46,54a60e542fae71ca4b2f57f0335de02a-g.jpg,"Yogasanalia, Celebrating the Integration of Yoga, Science, and Medicine",1627870210
32753325,An etymological dictionary of Burji,,Kuschitische Sprachstudien,,Hans-Jürgen Sasse,1982,,H. Buske,Hamburg,,274,English,,,,"9783871185618,3871185612",,,,,,,,,,,0,,,,,,,1,5751175,pdf,E9D3E38D3D1A68AEA1047C549B313DE6,,,"Burji, etymological dictionary (Sasse).pdf",0,2021-03-16 13:12:14,2021-03-16 13:12:14,e9d3e38d3d1a68aea1047c549b313de6-g.jpg,,"9783871185618,3871185612"
32753326,The Tamasheq of North-East Burkina Faso: notes on grammar and syntax including a key vocabulary,,Berber studies,,David Sudlow,2011,"2., rev. ed.",Rüdiger Köppe Verlag,,,350,English,,,,"9783896459190,3896459198",,,,,,,,,,,0,,,,,,,1,1357923,pdf,A4827F837437402B9EBA9BB95E0B5F58,,,Tamasheq of Burkina Faso (Sudlow).pdf,0,2021-03-16 13:14:31,2021-03-16 13:14:31,a4827f837437402b9eba9bb95e0b5f58-g.jpg,,"9783896459190,3896459198"
32753327,Tuareg-English vocabulary (from Tuareg elementary course (Tahăggart)),,Berber studies,,Karl-G Prasse,2010,,Rüdiger Köppe Verlag,Köln,,35,English,,,,"9783896459299,3896459295",,,,,,,,,,,0,,,,,,1,1,28632060,pdf,365627CDE0582DC615ED0D9D52F2809F,,,Tahaggart vocabulary (Prasse).pdf,0,2021-03-16 13:19:49,2021-03-16 13:19:49,365627cde0582dc615ed0d9d52f2809f-g.jpg,,"9783896459299,3896459295"
32753328,The Great Ideas Today 1986,,,,Encyclopaedia Britannica,1986,,"Encyclopaedia Britannica, Inc.",,,489,English,,,,0852294409,,,,,,,,,,,300,1,1,0,1,1,1,1,21826807,pdf,15FD2631BE7A8CDC9D5203BA985D3934,,,The Great Ideas Today 1986.pdf,0,2021-03-16 13:21:18,2021-03-16 13:21:18,15fd2631be7a8cdc9d5203ba985d3934-g.jpg,,0852294409
32753329,ГӀурус — авар словарь. Русско — аварский словарь,,,,С. З. ГӀалиханов,2003,,ДНЦ РАН,,,713,Russian,322,,,5944340231,,,,,,,,,,,0,,,,,,1,1,10609761,pdf,EE3E2B8499E35680EA7E85B1E21E17DB,,,alikhanov_zs_red_russkoavarskii_slovar.pdf,0,2021-03-16 13:22:01,2021-03-16 13:22:01,ee3e2b8499e35680ea7e85b1e21e17db-g.jpg,Avaric;language;orthography,5944340231
32753330,Авар мацӀ. Avar dili (2-ci sinif üçün dərslik),,,,Əhməd Boroyev,2007,,Aspoliqraf,,,57,Avaric,315,,,,,,,,,,,,,,0,,,,,,,1,9427885,pdf,2666B2D95F5750963BB7C0BCCB07D8CD,,,Avar_matsi=Avar_dili_2-ci_sinif_uchun_derslik.pdf,0,2021-03-16 13:27:08,2021-03-16 13:27:08,2666b2d95f5750963bb7c0bccb07d8cd-g.jpg,Avaric;language;orthography,
32753331,The Application of Artificial Intelligence: Step-by-Step Guide from Beginner to Expert,,,,Zoltán Somogyi,2021,,Springer,,,448,English,,,,"9783030600310,9783030600327",,,,,,,,,,,0,,,,,,1,1,20739412,pdf,6DAE338B1F5F4EF08954B7ED55E1A604,,,The Application of Artificial Intelligence(2021)[Somogyi][9783030600327].pdf,0,2021-03-16 13:27:19,2021-03-17 00:10:59,6dae338b1f5f4ef08954b7ed55e1a604-g.jpg,,"9783030600310,9783030600327"
32753332,Введение в PonyORM,,,,"О.С. Черепанов, А.В. Маер",2020,,Курганский гос. университет,Курган,85,86,Russian,,,,9785421705697,,,,,,,,,,,0,1,,0,1,1,0,1,16141140,pdf,9A9C48AF493D5CF8FBD7382D7CFB93F4,,,"Черепанов, Маер - Введение в PonyORM - 2020.pdf",0,2021-03-16 13:32:03,2021-03-16 13:32:03,9a9c48af493d5cf8fbd7382d7cfb93f4-g.jpg,python,9785421705697
32753333,Magharulmatz (dil). Latin alfabe,,,,coll.,2015,,Kahramanmaraş dağıstanlılar kültür ve dayanışma derneği,,,87,Turkish,315,,,,,,,,,,,,,,0,,,,,,,1,7625620,pdf,3C71143EFC96BD39276799421CD6DA79,,,dagder_magharulmatz_latin_alfabe.pdf,0,2021-03-16 13:33:27,2021-03-16 13:33:27,3c71143efc96bd39276799421cd6da79-g.jpg,Avaric;language;orthography,
32753334,Step-by-Step Guide from Beginner to Expert,,,,Zoltán Somogyi,,,Springer International Publishing,,,0,English,,,,9783030600327,,,,,,,,,,,0,,,,,,,,75251137,epub,A5F6CE84538ED72DF09EF0A90D6CA022,,,The Application of Artificial Intelligence(2021)[Somogyi][9783030600327].epub,0,2021-03-16 13:41:54,2021-03-16 13:41:54,a5f6ce84538ed72df09ef0a90d6ca022-g.jpg,,9783030600327
32753335,The Great Ideas Today 1989,,,,Encyclopaedia Britannica,1989,,"Encyclopaedia Britannica, Inc.",,,488,English,,,,0852295081,,,,,,,,,,,300,1,1,0,1,1,1,1,100983922,pdf,FBECDB6654F9B27F2B543C8DFD40F848,,,The Great Ideas Today 1989.pdf,0,2021-03-16 13:43:14,2021-03-16 13:43:14,fbecdb6654f9b27f2b543c8dfd40f848-g.jpg,,0852295081
32753336,The Dhammapada,,,,G. Buddha,1936,,New Directions,,,0,English,,,,9780811221429,,,,,,,,,,,0,,,,,,,,377254,epub,AA67A92F6E21EBCFF736776C3965FD42,,,G._Buddha_-_Dhammapada_The.epub,0,2021-03-16 13:53:04,2021-03-16 13:53:04,aa67a92f6e21ebcff736776c3965fd42-g.jpg,,9780811221429
32753337,Oranges & Peanuts for Sale,,,,Eliot Weinberger,2009,,New Directions,,,0,English,,,,9780811226318,,,,,,,,,,,0,,,,,,,,1723774,epub,422DF8C9FFA2F384F16D59A62AEC3BDF,,,Eliot_Weinberger_-_Oranges__Peanuts_for_Sale.epub,0,2021-03-16 13:53:27,2021-03-16 13:53:27,422df8c9ffa2f384f16d59a62aec3bdf-g.jpg,,9780811226318
32753338,Amazing Pace,,,,Paul McMullen,2006,,Rodale,,,0,English,,,,9781609616786,,,,,,,,,,,0,,,,,,,,2790448,epub,CF64B5DF1654542F7CF3C06221FF9521,,,Amazing_Pace.epub,0,2021-03-16 13:54:13,2021-03-16 13:54:13,cf64b5df1654542f7cf3c06221ff9521-g.jpg,,9781609616786
32753339,The Secret Gospel of Mark,,,,Spencer Reece,2021,,Seven Stories Press,,,0,English,,,,"9781644210437,2020043138,9781644210420",,,,,,,,,,,0,,,,,,,,2953554,epub,1CE2625E6F65C86F3EF6FA41A9633A1C,,,SecretGospelOfMarkSp14encerRee.epub,0,2021-03-16 13:54:31,2021-03-16 13:54:31,1ce2625e6f65c86f3ef6fa41a9633a1c-g.jpg,,"9781644210437,2020043138,9781644210420"
32753340,Remarkable Women of Sanibel & Captiva,,American Heritage,,Jeri Magg,2016,,Arcadia Publishing,,,0,English,,,,2015943177,,B01M33EF6N,,,,,,,,,0,,,,,,,,3656412,epub,2610A51A1990C660580767E06FE7B8D9,,,Remarkable_Women_of_Sanibel_&_Captiva.epub,0,2021-03-16 13:54:59,2021-03-17 00:09:59,2610a51a1990c660580767e06fe7b8d9-g.jpg,,2015943177
32753341,"Articles and Lectures: Articles, Published Letters and Lectures on the F. M. Alexander Technique",,,,F. Matthias Alexander,2011,Second edition,Mouritz,,244,246,English,,,,"0956849830,9780956849830",,,,,,,,,,,0,,,,,1,,1,69190265,pdf,8333EDD427134117C0585CB9BBB7A863,,,Articles and Lectures_F.M. Alexander_244_A_OCR.pdf,0,2021-03-16 13:55:28,2021-03-16 13:56:35,8333edd427134117c0585cb9bbb7a863-g.jpg,,"0956849830,9780956849830"
32753342,Lost Biloxi,,,,"Boudreaux, Edmond",2015,,Arcadia Publishing Inc.,,,0,English,,,,2015943181,,B015X2CEDK,,,,,,,,,0,,,,,,,,5427580,epub,9626917AC84F73AD091739FB1061B548,,,Lost_Biloxi.epub,0,2021-03-16 13:56:27,2021-03-16 15:07:28,9626917ac84f73ad091739fb1061b548-g.jpg,,2015943181
32753343,WINDOWS 10 USER LEARNING GUIDE: The Complete Quick User Manual for Beginners and Seniors To Master The Operating System Of Windows 10 With Tips and Tricks,,,,"Stark, Denis W",2021,,,,,0,English,,,,,,B08YWMG7R1,,,,,,,,,0,,,,,,,,9292726,epub,0FBE39027DD951C8E56028917F30796A,,,Windows_10_User_Learning_Guide_by_Denis_W_Stark.epub,0,2021-03-16 13:56:49,2021-03-16 13:56:49,0fbe39027dd951c8e56028917f30796a-g.jpg,,
32753344,Solar Power For Newbies: How To Install Solar Power Systems By Yourself: Solar Power For Dummies,,,,"Rogowski, Aura",2021,,UNKNOWN,,,0,English,,,,,,B08YDG5F7L,,,,,,,,,0,,,,,,,,9726812,epub,1FD09AD560F2979C89BCD36055F323AC,,,Solar_Power_For_Newbies_by_Aura_Rogowski.epub,0,2021-03-16 13:57:11,2021-03-16 13:57:11,1fd09ad560f2979c89bcd36055f323ac-g.jpg,,
32753345,The Luckiest Guy in the World,,,,Robert Abrams,2021,,Skyhorse,,,0,English,,,,9781510759039,,,,,,,,,,,0,,,,,,,,10155501,epub,C3AB86D80152EF854088AB64C6E8BBEC,,,The_Luckiest_Guy_in_the_World_-_Robert_Abrams.epub,0,2021-03-16 13:57:34,2021-03-16 13:57:34,c3ab86d80152ef854088ab64c6e8bbec-g.jpg,,9781510759039
32753346,The Road Less Traveled,,,,Philip Zelikow,2021,,PublicAffairs,,,0,English,,,,"9781541750944,9781541750951",,,,,,,,,,,0,,,,,,,,15266084,epub,E4D66D1A4FC097D1EA9BF30B4F04D5D9,,,The.Road.Less.Traveled.epub,0,2021-03-16 13:58:03,2021-03-16 13:58:03,e4d66d1a4fc097d1ea9bf30b4f04d5d9-g.jpg,,"9781541750944,9781541750951"
32753347,Адабияб гӀелмуялъул терминазул словарь II,,,,А. ХӀамзатов,2013,,,,,131,Avaric,322,,,,,,,,,,,,,,0,,,,,,,1,704541,pdf,8FE2530ED3F798276AA106D36E67D82D,,,khiamzatov_a_adabiiab_gielmuialul_terminazul_slovar.pdf,0,2021-03-16 13:58:10,2021-03-16 13:58:10,8fe2530ed3f798276aa106d36e67d82d-g.jpg,Avaric;language;orthography,
32753348,"Essential Oils to Boost the Brain and Heal the Body: 5 Steps to Calm Anxiety, Sleep Better, and Reduce Inflammation to Regain Control of Your Health",,,,Jodi Cohen; Terry Wahls M.D.,2021,,Potter/Ten Speed/Harmony/Rodale,,,0,English,,,,"9781984858610,9781984858603",,,,,,,,,,,0,,,,,,,,16718614,epub,C367BD831768C121BE12B5585060B24D,,,Oils_to_Boost_the_Brain_and_Heal_the_Body_by_Jodi_Cohen_.epub,0,2021-03-16 13:59:13,2021-03-16 13:59:13,c367bd831768c121be12b5585060b24d-g.jpg,,"9781984858610,9781984858603"
32753349,Crossroads,,,,Kaleb Dahlgren,2021,,HarperCollins Publishers,,,0,English,,,,"9781443462891,9781443462877",,,,,,,,,,,0,,,,,,,,18278990,epub,1290EAEAEF62C219DB41232B6817F9C2,,,Crossroads.epub,0,2021-03-16 13:59:48,2021-03-16 13:59:48,1290eaeaef62c219db41232b6817f9c2-g.jpg,,"9781443462891,9781443462877"
32753350,The Call to Unite: Voices of Hope and Awakening,,,,Tim Shriver; Tom Rosshirt,2021,,Penguin Publishing Group,,,0,English,,,,"9780593298244,2020043050,9780593298237",,,,,,,,,,,0,,,,,,,,23094252,epub,97199498BB887877601F95C6D2618FA6,,,The_Call_to_Unite_-_Unknown.epub,0,2021-03-16 14:01:04,2021-03-16 14:01:04,97199498bb887877601f95c6d2618fa6-g.jpg,,"9780593298244,2020043050,9780593298237"
32753351,Аварско-русский фразеологический словарь. Авар-гӀурус фразеологияб словарь,,,,"Магомедханов М. М., МухӀамадханов М. М.",1993,,Русский язык,,,399,Russian,322,,,5200011116,,,,,,,,,,,0,,,,,,,1,15265678,pdf,33F9B737244F6054926CAC11713EAE82,,,magomedkhanov_mm_avarskorusskii_frazeologicheskii_slovar.pdf,0,2021-03-16 14:03:37,2021-03-16 14:03:37,33f9b737244f6054926cac11713eae82-g.jpg,Avaric;language;orthography,5200011116
32753352,The Performing Pianist's Guide to Fingering,,,,"Joseph Banowetz, Nancy Lee Harper, and Philip Fowke",2021,,,,,244,English,,,,"2020038384,2020038385,9780253053138,9780253053145",,,,,,,,,,,0,,,,,,1,1,18250099,pdf,6FD387E06A1D6AD2D2B91B5089324080,,,The.Performing.Pianist.s.Guide.to.Fingering.pdf,0,2021-03-16 14:06:06,2021-03-16 14:06:06,6fd387e06a1d6ad2d2b91b5089324080-g.jpg,,"2020038384,2020038385,9780253053138,9780253053145"
32753353,Самоучитель аварского языка,,Серия «Язык — душа нации». «Языки народов Дагестана»,,"Магомедханов М. М., Бечедова Х. М., Юсупова Р. М.",2018,,Издательский дом «Эпоха»,,,242,Russian,315,,,,,,,,,,,,,,0,,,,,,,1,5970416,pdf,A2583EA11BDA519846801FB40804C0EA,,,magomedkhanov_mm_bechedova_khm_iusupova_rm_samouchitel_avars.pdf,0,2021-03-16 14:09:16,2021-03-16 14:09:16,a2583ea11bda519846801fb40804c0ea-g.jpg,Avaric;language;orthography,
32753354,Aristotle on the Concept of Shared Life,,,,Sara Brill,2020,,"Oxford University Press, USA",,304,289,English,,,,"9780198839583,0198839588",,,,,,,,JHbnDwAAQBAJ,,,0,,,,,,,1,1840217,pdf,C8543B88F10D8944B249A9E6096D38EA,,,9780198839583 Brill_Aristotle_on_the_Concept_of_Shared_Life_2020.pdf,0,2021-03-16 14:15:57,2021-03-16 14:15:57,c8543b88f10d8944b249a9e6096d38ea-g.jpg,,"9780198839583,0198839588"
32753355,Аварско-русский словарь. Авар-гӀурус мацӀалъул словарь,,,,"Магомедсайид Саидов, МухӀамадсайид Саидов",1967,,Издательство «Советская энциклопедия»,,,806,Russian,322,,,,,,,,,,,,,,0,,,,,,,1,40394139,pdf,DF221E0845891E586297AF1B0CB22FAB,,,saidov_m_avarskorusskii_slovar.pdf,0,2021-03-16 14:17:03,2021-03-16 14:17:03,df221e0845891e586297af1b0cb22fab-g.jpg,Avaric;language;orthography,
32753356,A Child's Introduction to Egyptology,,,,Heather Alexander; Sara Mulvanny,2021,,Running Press,,,0,English,,,,"9780762471584,1130326109,1161616299,1140277566,1148379401,2020016100,2020016101,9780762471577",,,,,,,,,,,0,,,,,,,,131289963,epub,BA4EEC047205BA98DBC1F9F55702B848,,,A.Child.s.Introduction.to.Egyptology.epub,0,2021-03-16 14:20:17,2021-03-16 14:20:17,ba4eec047205ba98dbc1f9f55702b848-g.jpg,,"9780762471584,1130326109,1161616299,1140277566,1148379401,2020016100,2020016101,9780762471577"
32753357,The Great Ideas Today 1992,,,,Encyclopaedia Britannica,1992,,"Encyclopaedia Britannica, Inc.",,,487,English,,,,0852295693,,,,,,,,,,,300,1,1,0,1,1,1,1,97479997,pdf,BA4CD2E242BAFB5B405F6E400FF43CD2,,,The Great Ideas Today 1992.pdf,0,2021-03-16 14:21:03,2021-03-16 14:21:03,ba4cd2e242bafb5b405f6e400ff43cd2-g.jpg,,0852295693
32753358,Lady Bird Johnson: Hiding in Plain Sight,,,,Julia Sweig,2021,,Random House Publishing Group,,,0,English,,,,"9780812995916,2020001667,9780812995909",,,,,,,,,,,0,,,,,,,,41966256,epub,92DBE7CEB2618DD790AAD1C3BECCE4BD,,,Lady_Bird_Johnson_-_Julia_Sweig.epub,0,2021-03-16 14:21:03,2021-03-16 15:08:57,92dbe7ceb2618dd790aad1c3becce4bd-g.jpg,,"9780812995916,2020001667,9780812995909"
32753359,WINDOWS 10 FOR BEGINNERS & POWER USERS: The Concise Windows 10 A-Z Mastery Guide for All Users,,,,"Demystified, Tech",2021,,,,,0,English,,,,9798716368798,,B08YWL16XR,,,,,,,,,0,,,,,,,,41469163,epub,612C85CC033675A6694AF10F83D4B3B8,,,Windows_10_For_Beginners__Power_Users_by_Tech_Demystified.epub,0,2021-03-16 14:21:46,2021-03-16 14:21:46,612c85cc033675a6694af10f83d4b3b8-g.jpg,,9798716368798
32753360,"Amboina, 1623: Fear and Conspiracy on the Edge of Empire",,,,Adam Clulow,2019,,Columbia University Press,,289,0,English,,,,"0231175124,9780231175128",,,,,,,,qf8VvgEACAAJ,,,0,,,,,,,,36692939,epub,0EA38FD625C6825BA25A0831CAA08D42,,,Adam_Clulow_-_Amboina_1623.epub,0,2021-03-16 14:22:24,2021-03-16 15:10:00,0ea38fd625c6825ba25a0831caa08d42-d.jpg,,"0231175124,9780231175128"
32753361,The Lost Art of Doing Nothing: How the Dutch Unwind with Niksen,,,,Maartje Willems,2021,,The Experiment,,,162,English,,,,"2020051106,2020051107,9781615197644,9781615197651",,,,,,,,,,,0,,,,,,1,1,24923303,pdf,958C57C5F1DDC9BF52EC91C7AF12BD2E,,,The_Lost_Art_of_Doing_Nothing_-_Maartje_Willems.pdf,0,2021-03-16 14:24:03,2021-03-17 00:08:45,958c57c5f1ddc9bf52ec91c7af12bd2e-g.jpg,,"2020051106,2020051107,9781615197644,9781615197651"
32753362,Delitos Contra la Administración Pública,,,,RAMIRO SALINAS SICCHA,2019,5,IDEAS SA,LIMA,,870,Spanish,,,,9786124362132,,,,,,,,,,,0,,,,,,,1,33966269,pdf,2A8ED99D2CB33FC63D0B328CED789AD8,,,delitos contra la administración pública RAMIRO SALINAS SICCHA 2019.pdf,0,2021-03-16 14:25:59,2021-03-16 15:11:11,2a8ed99d2cb33fc63d0b328ced789ad8-g.jpg,,9786124362132
32753363,"The Greatest War, Volume I",,,,Gerald Astor,2001,,Grand Central Publishing,,,0,English,,,,9780759526501,,,,,,,,,,,0,,,,,,,,926583,epub,4151B23E3CC6737F42ABDC03695C090D,,,0446610461.epub,0,2021-03-16 14:26:21,2021-03-16 14:26:21,4151b23e3cc6737f42abdc03695c090d-g.jpg,,9780759526501
32753364,The Great Ideas Today 1993,,,,Encyclopaedia Britannica,1993,,"Encyclopaedia Britannica, Inc.",,,488,English,,,,0852295898,,,,,,,,,,,300,1,1,0,1,1,1,1,98605590,pdf,8AD70B95B688BC7351B9271EF5237934,,,The Great Ideas Today 1993.pdf,0,2021-03-16 14:26:37,2021-03-16 14:26:37,8ad70b95b688bc7351b9271ef5237934-g.jpg,,0852295898
32753365,Microsoft Excel for Stock and Option Traders: Build Your Own Analytical Tools for Higher Returns,,,,Jeff Augen,2011,,Cisco Press,,,0,English,,,,"013340904X,9780137131822,2011003034",,,,,,,,,,,0,,,,,,,,3953070,epub,1D4D7681DCD1D7849AA1C265E1190CCE,,,Jeff Augen - Microsoft Excel for Stock and Option Traders.epub,0,2021-03-16 14:26:50,2021-03-16 14:26:50,1d4d7681dcd1d7849aa1c265e1190cce-g.jpg,,"013340904X,9780137131822,2011003034"
32753366,"The Music Advantage: How Music Helps Your Child Develop, Learn, and Thrive",,,,Dr. Anita Collins,2021,,Penguin Publishing Group,,,0,English,,,,"9780593332139,2020041087,9780593332122",,,,,,,,,,,0,,,,,,,,757323,epub,7E3FDEF970847E6E89144D92505EF246,,,The Music Advantage - Dr. Anita Collins.epub,0,2021-03-16 14:27:15,2021-03-16 14:27:15,7e3fdef970847e6e89144d92505ef246-g.jpg,,"9780593332139,2020041087,9780593332122"
32753367,Think and Grow Rich,,,,Napoleon Hill,,,St. Martin's Publishing Group,,,0,English,,,,9781250780010,,,,,,,,,,,0,,,,,,,,726520,epub,E9804904F07DD345BBB53D153D18C923,,,"Think and Grow Rich, 2021 - Napoleon Hill.epub",0,2021-03-16 14:27:29,2021-03-16 14:27:29,e9804904f07dd345bbb53d153d18c923-g.jpg,,9781250780010
32753368,Fully Alive: Discovering What Matters Most,,,,Timothy Shriver,2014,,"Farrar, Straus and Giroux",,,0,English,,,,"9781429942799,2014020245",,B00H6EJR3O,,,,,,RahzAwAAQBAJ,,,0,,,,,,,,1373186,epub,DA30A88E82DE6C850E14BE16A3E1741C,,,Timothy Shriver - Fully Alive- Discovering What Matters Most.epub,0,2021-03-16 14:27:43,2021-03-16 14:27:43,da30a88e82de6c850e14be16a3e1741c-g.jpg,,"9781429942799,2014020245"
32753369,The Nature of New Testament Theology: Essays in Honour of Robert Morgan,,,,Christopher Rowland; Christopher Tuckett,2006,,Wiley,,334,333,English,,,,"1405111755,9781405111751",,,,,,,,FFL5ZL4OEc4C,,,0,,,,,,,1,2220030,pdf,1FD1D2F4438BE4C28AF284F00DF31FD2,,,Christopher Rowland & Christopher Tuckett - The Nature of New Testament Theology.pdf,0,2021-03-16 14:28:16,2021-03-16 15:12:00,1fd1d2f4438be4c28af284f00df31fd2-d.jpg,,"1405111755,9781405111751"
32753370,"Capitalism, Socialism and Democracy",,,,"Schumpeter, Joseph A., Stiglitz, Joseph",2010,,Taylor & Francis,,,0,English,,,,"4076361729,0415567890,0203092953,9780415567893,9780203092958",,,,,,,,,,,0,,,,,,,,1114861,mobi,0ACC01F0ECB152A33B02CFA3A0E161F5,,,"Capitalism, Socialism and Democ - Schumpeter, Joseph A., Stiglitz.mobi",0,2021-03-16 14:30:51,2021-03-16 14:30:51,0acc01f0ecb152a33b02cfa3a0e161f5-g.jpg,,"4076361729,0415567890,0203092953,9780415567893,9780203092958"
32753371,The Great Ideas Today 1994,,,,Encyclopaedia Britannica,1994,,"Encyclopaedia Britannica, Inc.",,,488,English,,,,0852296037,,,,,,,,,,,300,1,1,0,1,1,1,1,89357054,pdf,7529E368FC8FD13362F38CA0CC0C9533,,,The Great Ideas Today 1994.pdf,0,2021-03-16 14:33:00,2021-03-16 14:33:00,7529e368fc8fd13362f38ca0cc0c9533-g.jpg,,0852296037
32753372,Kotlin. Программирование на примерах,,,,Ияну Аделекан,2020,,БХВ-Петербург,Санкт-Петербург,432,434,Russian,,,,9785977566735,,,,"З973.2-018.19Kotlin,07",,,,,,,300,0,,0,1,1,1,0,47184923,djvu,0F5F32479838131044CA2B62B18BDAD5,,,Аделекан - Kotlin. Программирование на примерах - 2020.djvu,0,2021-03-16 14:48:01,2021-03-16 14:48:01,0f5f32479838131044ca2b62b18bdad5-g.jpg,kotlin,9785977566735
32753373,Самоучитель аварского языка,,,,Атаев Б. М.,1996,,"Институт языка, литературы и искусства им. Г. Цадасы",,,64,Russian,315,,,,,,,,,,,,,,600,,,,,,,0,10343284,djvu,6FD3678B0E023D8E22D8D31F7FBADECD,,,Атаев - Самоучитель аварского языка.djvu,0,2021-03-16 14:50:12,2021-03-16 14:50:12,6fd3678b0e023d8e22d8d31f7fbadecd-g.jpg,Avaric;language;orthography,
32753374,Walking with Dinosaurs: The Evidence,,,,David M. Martill; Darren Naish,2000,,DK,,176,90,English,,,,"0789471671,9780789471673",,,,,,,,R8tMAAAACAAJ,,,0,,,,,,1,0,56436635,pdf,1B673A04632BA1E472CF932CDDC53260,,,wwdtheevidence.pdf,0,2021-03-16 14:57:12,2021-03-16 15:13:14,1b673a04632ba1e472cf932cddc53260-d.jpg,,"0789471671,9780789471673"
32753375,Emile Jacques-Dalcroze et son temps,,,,Alfred Berchtold,2000,,L'Age d'Homme,,230,241,French,,,,"2825113549,9782825113547",,,,,,,,,,,0,,,,,,,1,40349129,pdf,E343A024A7172D4A32A6740F479AD701,,,Emile Jacques-Dalcroze et son temps_Alfred Berchtold_233_A-H_OCR.pdf,0,2021-03-16 15:00:25,2021-03-16 15:00:25,e343a024a7172d4a32a6740f479ad701-g.jpg,,"2825113549,9782825113547"
32753376,Podstawy technologii materiałów budowlanych i metody badań,,,,Jan Małolepszy,2013,,AGH,,,265,Polish,298,,,9788374645140,,,,,,,,,,,0,,,,,1,,1,388988398,pdf,862DB9CCAEA8826E07FC33367128ECC0,,,Małolepszy_Podstawy_Technologii_Materiałów_Budowlanych_i_Metody.pdf,0,2021-03-16 15:06:52,2021-03-17 00:07:21,862db9ccaea8826e07fc33367128ecc0-g.jpg,,9788374645140
32753377,"Social Mendelism: Genetics And The Politics Of Race In Germany, 1900–1948",,,,Amir Teicher,2020,1,Cambridge University Press,,283,283,English,64,,,"110849949X,9781108499491,1108583199,9781108583190,1108730744,9781108730747",,,,,,,,,,TruePDF / Cover / TOC,0,,,,,,1,1,4038674,pdf,F1EFD4A2A78CAD0F3655806DC459B9FC,,,110849949X_9781108499491_SocialMendelism.pdf,0,2021-03-16 15:08:43,2021-03-16 15:14:12,f1efd4a2a78cad0f3655806dc459b9fc-g.jpg,"Mendel, Gregor: 1822-1884: Influence; Eugenics: Germany: History: 20th Century; Mendel's Law; Involuntary Sterilization: Germany: History: 20th Century","110849949X,9781108499491,1108583199,9781108583190,1108730744,9781108730747"
32753378,A Rich Man's Secret : An Amazing Formula for Success,,,,Ken Roberts,1995,1,Llewellyn Publications,"St. Paul, Minnesota",,222,English,186,,,"1567185800,9781567185805",,,,,,,,,,,0,,,,,,,1,21626305,pdf,EEB177739A962149031BE4A4C45ACF62,,,A rich man's secret - Ken Roberts.original_pdf.pdf,0,2021-03-16 15:15:14,2021-03-16 15:15:14,eeb177739a962149031be4a4c45acf62-g.jpg,,"1567185800,9781567185805"
32753379,Greek and Roman Historiography in Late Antiquity: Fourth to Sixth Century A.D.,,,,Gabriele Marasco (ed.),2003,,Brill,Leiden,X+540,552,English,64,,,"9004112758,9789004112759",,,,,,,,,,,0,,,,1,0,1,1,3715276,pdf,85647CAD9BD7A82539F50A67C5F4D89F,,,Greek.pdf,0,2021-03-16 15:18:32,2021-03-16 15:18:32,85647cad9bd7a82539f50a67c5f4d89f-g.jpg,,"9004112758,9789004112759"
32753380,The Smell of War: Lessons from the Battlefield,,,,Roland Bartetzko,2018,,Amazon Digital Services LLC - Kdp Print Us,,132,0,English,,,,"9951562353,9789951562355",,B079P3W4QL,,,,,,7XhztgEACAAJ,,,0,,,,,,,,587626,epub,9962D07DED5179A48BED014141AB4236,,,Roland Bartetzko - The Smell of War.epub,0,2021-03-16 15:19:03,2021-03-17 00:32:54,9962d07ded5179a48bed014141ab4236-d.jpg,,"9951562353,9789951562355"
32753381,A Rich Man's Secret : An Amazing Formula for Success,,,,Ken Roberts,1995,1,Llewellyn Publications,"St. Paul, Minnesota",,220,English,186,,,"1567185800,9781567185805",,,,,,,,,,,0,,,,,,,1,10358175,pdf,31990791043341CBB19D16BA4E542C55,,,"A rich man's secret _ an amazin - Roberts, Ken, 1951-.original_pdf.pdf",0,2021-03-16 15:19:07,2021-03-16 15:19:07,31990791043341cbb19d16ba4e542c55-g.jpg,,"1567185800,9781567185805"
32753382,Copyright Exhaustion: Law And Policy In The United States And The European Union,43,Cambridge Intellectual Property And Information Law,,Péter Mezei,2018,1,Cambridge University Press,,226,226,English,313,,,"1107193680,9781107193680,1108135293,9781108135290,1316645118,9781316645116,1108153666,9781108153669",,,,,,,,,,TruePDF,0,,,,,,1,1,7999149,pdf,740109A634883B6B70DF5F04FFA5A917,,,1107193680_9781107193680_CopyrightExhaustion.pdf,0,2021-03-16 15:31:39,2021-03-16 15:31:39,740109a634883b6b70df5f04ffa5a917-g.jpg,Fair Use (Copyright): United States; Fair Use (Copyright): European Union Countries,"1107193680,9781107193680,1108135293,9781108135290,1316645118,9781316645116,1108153666,9781108153669"
32753383,ხუნძურ-ქართული ლექსიკონი,,,,ლევან აზმაიფარაშვილი,2017,,,,,211,Georgian,322,,,,,,,,,,,,,,0,,,,,,,1,1866683,pdf,C53931CC0F1604652C6B903C4D9E2771,,,ლოლუა-AR2432-13214-ხუნძურ-ქართული-ლექსიკონი-გაერთიანებული-ლ.-აზმაიფარაშვილი.pdf,0,2021-03-16 15:41:05,2021-03-16 15:41:05,c53931cc0f1604652c6b903c4d9e2771-g.jpg,Avaric;language;orthography,
32753384,Anty-Edyp,,"Kapitalizm i schizofrenia, t. 1",,"Gilles Deleuze, Félix Guattari",2017,,Wydawnictwo Krytyki Politycznej,Warszawa,483,483,Polish,195,,,9788365369826,,,,,,,,,,Bibuła,0,1,1,0,,1,,1,14508562,pdf,127D39541F2944ADE17AC6619784D090,,,"Deleuze, Guattari - Anty-Edyp.pdf",0,2021-03-16 15:54:05,2021-03-16 15:54:05,127d39541f2944ade17ac6619784d090-g.jpg,"Deleuze, Guattari, schizofrenia, poststrukturalizm, french theory, kapitalizm",9788365369826
32753385,"As leis de Eshnunna (1824-1787 a.C.): introdução, texto cuneiforme em transcrição, tradução do original cuneiforme e comentários",,Publicações CID,,Emanuel Bouzon,1981,,Vozes,Petrópolis,176,177,Portuguese,,,,,,,,,340.93502,,,,,,0,,,0,,,,0,44735434,pdf,309AE5DDEBC4A573AE062B2FF5C04026,,,eshnunna.pdf,0,2021-03-16 15:54:28,2021-03-17 00:32:07,309ae5ddebc4a573ae062b2ff5c04026-g.jpg,,
32753386,Mesopotâmia - O Amanhecer da Civilização,,Coleção Desafios,,Olavo Leonel Ferreira,1996,3,Moderna,São Paulo,72,72,Portuguese,,,,"8516007944,9788516007942",,,,,,,,,,,0,,,0,,,,0,17027509,pdf,7D4ECED5710848412BCFA1513C7E9551,,,amahecer.pdf,0,2021-03-16 15:55:59,2021-03-17 00:29:38,7d4eced5710848412bcfa1513c7e9551-g.jpg,,"8516007944,9788516007942"
32753387,The British Empire at Home and Abroad,5,,,Edgar Sanderson,1902,,Gresham Publishing,London,,517,English,,,,,,,,,,,,,,,300,1,1,0,1,1,1,1,78868657,pdf,DCD0E313B5B26C609BE376B6CB6F1FE8,,,British Empire at Home and Abroad 1902 v5.pdf,0,2021-03-16 15:57:36,2021-03-16 15:57:36,dcd0e313b5b26c609be376b6cb6f1fe8-g.jpg,,
32753388,Tenentismo e Forças Armadas na Revolução de 30,,,,Maria Cecília Spina Forjaz,1988,,Forense Universitária,Rio de Janeiro,240,247,Portuguese,,,,,,,,,,,,,,,0,,,0,,,,0,53214923,pdf,3D136FC6E0906C4573E84CEFA4F91893,,,ten30.pdf,0,2021-03-16 15:58:07,2021-03-16 15:58:07,3d136fc6e0906c4573e84cefa4f91893-g.jpg,,
32753389,The British Empire at Home and Abroad,6,,,Edgar Sanderson,1902,,Gresham Publishing,London,,489,English,64,,,,,,,,,,,,,,300,1,1,0,1,1,1,1,76075249,pdf,4917F7CAB0FFF52FEBBAB0C5204F375D,,,British Empire at Home and Abroad 1902 v6-Index.pdf,0,2021-03-16 16:03:01,2021-03-16 16:03:01,4917f7cab0fff52febbab0c5204f375d-g.jpg,,
32753390,Tysiąc plateau,,"Kapitalizm i schizofrenia, t. 2",,"Gilles Deleuze, Félix Guattari",2015,,Fundacja Bęc Zmiana,Warszawa,329,329,Polish,195,,,9788362418565,,,,,,,,,,Bibuła,0,,,1,,0,,1,3208034,pdf,B6C70A91C7271067261FAA32D14403EB,,,Deleuze & Guattari - Tysiąc plateau.pdf,0,2021-03-16 16:03:27,2021-03-16 16:03:27,b6c70a91c7271067261faa32d14403eb-g.jpg,"Deleuze, Guattari, schizofrenia, poststrukturalizm, french theory, kapitalizm",9788362418565
32753391,The Cambridge Companion to the Age of Attila,,Cambridge Companions to the Ancient World,,Michael Maas (ed.),2015,,Cambridge University Press,,XXXII+496,532,English,64,,,"1107633885,9781107633889,1107021758,9781107021754",,,,,,,,,,,0,,,,1,0,1,1,7983605,pdf,5FA972F324452F46F14A48C603519CEE,,,Attila.pdf,0,2021-03-16 16:07:53,2021-03-16 16:07:53,5fa972f324452f46f14a48c603519cee-g.jpg,,"1107633885,9781107633889,1107021758,9781107021754"
32753392,Theatrum legale mundi : symbola Cs. Varga oblata,,Biblioteca Iuridica,,"ed. Péter Cserne, István H. Szilágyi, Miklós Könczöl, Máté Paksy, Péter Takács, Szilárd Tattay",2007,,Societas Sancti Stephani,Budapest,xiv + 674,689,English,,,,"9789633617892,9633617898",0865-0349,,,,,,,,,,0,,,,,,,1,4231114,pdf,A5A9387A95771D3F256A15E7D5398E14,,,TheatrvmLegaleMvndi(2007).pdf,0,2021-03-16 16:11:41,2021-03-17 00:28:26,a5a9387a95771d3f256a15e7d5398e14-g.jpg,,"9789633617892,9633617898"
32753393,Standing tall: hommages à Csaba Varga,,Xenia,,Bjarne Melkevik (editor); Csaba Varga,2012,,Pázmány Press,Budapest,487,492,English,,,,9789633089733,2061-9227,,,,,,,,,,0,,,,,,,1,5355816,pdf,EA9FA939A5F454F5B53B24FD4A3EB7DF,,,StandingTall(edMelkevik)-Bp2012.pdf,0,2021-03-16 16:17:27,2021-03-17 00:27:34,ea9fa939a5f454f5b53b24fd4a3eb7df-g.jpg,,9789633089733
32753394,The Animal Claim: Sensibility and the Creaturely Voice,,,,Tobias Menely,2015,,University of Chicago Press,,280,0,English,,Scribd,,"9780226239422,022623942X",,,,,,,,WrXtBgAAQBAJ,,,0,,,,0,0,,,1240519,epub,043A0984FCE7D138FD75B14E9AD57664,,,The Animal Claim_ Sensibility and the Creaturely Voice - 257632263.epub,0,2021-03-16 16:18:04,2021-03-16 16:18:32,043a0984fce7d138fd75b14e9ad57664-d.png,,"9780226239422,022623942X"
32753395,A History of the Scottish People,1,,,Thomas Thomson,1895,,Blackie & Son,London,,329,English,64,,,,,,,,,,,,,,300,1,1,0,1,1,1,1,24664734,pdf,FBCBDF7D90FBD5A660B2B83756EB4749,,,A History of the Scottish People 1895 v1 (BC-1329 AD).pdf,0,2021-03-16 16:18:51,2021-03-16 16:18:51,fbcbdf7d90fbd5a660b2b83756eb4749-g.jpg,,
32753396,A History of the Scottish People,2,,,Thomas Thomson,1895,,Blackie & Son,London,,333,English,64,,,,,,,,,,,,,,300,1,1,0,1,1,1,1,25143141,pdf,CA52A13194CBE4A2699FDEB888423E77,,,A History of the Scottish People 1895 v2 (1329-1542).pdf,0,2021-03-16 16:20:58,2021-03-16 16:20:58,ca52a13194cbe4a2699fdeb888423e77-g.jpg,,
32753397,A History of the Scottish People,3,,,Thomas Thomson,1895,,Blackie & Son,London,,308,English,64,,,,,,,,,,,,,,300,1,1,0,1,1,1,1,30108168,pdf,2EE120331272EEE36B0D9EFDEE046979,,,A History of the Scottish People 1895 v3 (1542-1603).pdf,0,2021-03-16 16:23:28,2021-03-16 16:23:28,2ee120331272eee36b0d9efdee046979-g.jpg,,
32753398,A History of the Scottish People,4,,,Thomas Thomson,1895,,Blackie & Son,London,,328,English,64,,,,,,,,,,,,,,300,1,1,0,1,1,1,1,33258644,pdf,EC0857617C458CE5AA1C1E4C6193942B,,,A History of the Scottish People 1895 v4 (1603-1625).pdf,0,2021-03-16 16:26:25,2021-03-16 16:26:25,ec0857617c458ce5aa1c1e4c6193942b-g.jpg,,
32753399,"Contemporary Global Challenges and National Interests: the 16th International Likhachov Scientific Conference, May 19–21, 2016",,,,A. S. Zapesotsky,2016,,SPbUHSS,St. Petersburg,244,244,English,,,,9785762108850,,,,,,,,,,,0,,,,,,,1,4089175,pdf,B83E603EEFF10DF935CB2F0F41F3D2FC,,,2016(English).pdf,0,2021-03-16 16:28:16,2021-03-16 16:38:24,b83e603eeff10df935cb2f0f41f3d2fc-g.jpg,,9785762108850
32753400,A History of the Scottish People,5,,,Thomas Thomson,1895,,Blackie & Son,London,,345,English,64,,,,,,,,,,,,,,300,1,1,0,1,1,1,1,34193312,pdf,B61045AFE22D7B2590EFB7A9CF750E3A,,,A History of the Scottish People 1895 v5 (1625-1707).pdf,0,2021-03-16 16:29:09,2021-03-16 16:29:09,b61045afe22d7b2590efb7a9cf750e3a-g.jpg,,
32753401,"A textbook of Ḥadīth studies: authenticity, compilation, classification and criticism of Ḥadīth",,,,Mohammad Hashim Kamali.,2005,,Islamic Foundation,Markfield,"xi, 257 p. ;",273,English,,EBSCO,,"0860374505,0860374351,9780860374350",,,,,297.12406-dc22,,,,,,0,,,0,1,0,1,1,4408421,pdf,D243A45132E4C54E1E4072D6F7B03C39,,,"HADITH STUDIES 00per.indd - Kamali, Mohammad Hashim.;.pdf",0,2021-03-16 16:31:26,2021-03-16 16:37:54,d243a45132e4c54e1e4072d6f7b03c39-g.jpg,,"0860374505,0860374351,9780860374350"
32753402,Popolo vs Democrazia. Dalla cittadinanza alla dittatura elettorale,,Serie bianca,,Yascha Mounk,2018,,Feltrinelli Editore,Milano,,0,Italian,,,,9788858832059,,,,,,,,,,,0,,,,,,,,3255957,epub,E975ECAA42DB6D722F12859972DC6FE2,,,Mounk_Popolo.epub,0,2021-03-16 16:34:40,2021-03-16 16:34:40,e975ecaa42db6d722f12859972dc6fe2-g.jpg,,9788858832059
32753403,"Global World: System Shifts, Challenges and Contours of the Future: The 17th International Likhachov Scientific Conference, May 18–20, 2017",,,,A. S. Zapesotsky,2017,,SPbUHSS,St. Petersburg,242,242,English,,,,9785762109307,,,,,,,,,,,0,,,,,,,1,1845279,pdf,623868015D462C72C6D9D9C0A8CA882B,,,2017(English).pdf,0,2021-03-16 16:35:29,2021-03-16 16:35:29,623868015d462c72c6d9d9c0a8ca882b-g.jpg,,9785762109307
32753404,A History of the Scottish People,6,,,Thomas Thomson,1895,,Blackie & Son,London,,392,English,64,,,,,,,,,,,,,,300,1,1,0,1,1,1,1,29550121,pdf,F8A66AE2305FDC6FE79221A541E59886,,,A History of the Scottish People 1895 v6 (1707-1887).pdf,0,2021-03-16 16:35:50,2021-03-16 16:35:50,f8a66ae2305fdc6fe79221a541e59886-g.jpg,,
32753405,Mythmaking in the New Russia: Politics and Memory in the Yeltsin Era,,,,Kathleen E. Smith,2002,,Cornell University Press,,240,237,English,,,,"0801439639,9780801439636",,,,,,,,,,,0,,,,,,1,1,12878258,pdf,8EAC56935AA3BC525AB3B300D6ECB4C9,,,10.7591_9781501717963.pdf,0,2021-03-16 16:36:58,2021-03-16 16:36:58,8eac56935aa3bc525ab3b300d6ecb4c9-g.jpg,,"0801439639,9780801439636"
32753406,Six Thousand Years of History,1,,,Edgar Sanderson,1899,,E. R. DuMONT,Philadelphia,,479,English,64,,,,,,,,,,,,,,300,1,1,0,1,1,1,1,32240064,pdf,3E0E26511D6F5BBC35FD8C3947A050CF,,,Six Thousand Years of History v01 (1899) Ancient and Medieval History.pdf,0,2021-03-16 16:40:33,2021-03-16 16:40:33,3e0e26511d6f5bbc35fd8c3947a050cf-g.jpg,,
32753407,Six Thousand Years of History,2,,,Edgar Sanderson,1899,,E. R. DuMONT,Philadelphia,,521,English,,,,,,,,,,,,,,,300,1,1,0,1,1,1,1,35532441,pdf,E2422C77996E4D91C48191B01154BF9D,,,Six Thousand Years of History v02 (1899) Modern Europe.pdf,0,2021-03-16 16:43:04,2021-03-16 16:43:04,e2422c77996e4d91c48191b01154bf9d-g.jpg,,
32753408,Imperialismo Greco-Romano,,Série Princípios,,Norberto Luiz Guarinello,1994,,Ática,São Paulo,87,87,Portuguese,,,,"8508018614,9788508018611",,,,,,,,,,,0,,,0,,,,0,28326019,pdf,A8925B02AE7BF884CD0BB8074141BE9E,,,imperialismo.pdf,0,2021-03-16 16:44:48,2021-03-17 00:25:37,a8925b02ae7bf884cd0bb8074141be9e-g.jpg,,"8508018614,9788508018611"
32753409,Rhythm and Life: The Work of Emile Jaques-Dalcroze,,,,Irwin Spector,1991,,Pendragon,,411,432,English,,,,"0945193009,9780945193005",,,,,,,,,,,0,,,,,1,,1,111723271,pdf,31E72DADF711E0576DD1A030D7C36A05,,,Rhythm and Life - The Work of Emile Jaques-Dalcroze_Irwin Spector_411_A-H.pdf,0,2021-03-16 16:45:04,2021-03-16 16:45:04,31e72dadf711e0576dd1a030d7c36a05-g.jpg,,"0945193009,9780945193005"
32753410,Six Thousand Years of History,3,,,Edgar Sanderson,1899,,E. R. DuMONT,Philadelphia,,450,English,64,,,,,,,,,,,,,,300,1,1,0,1,1,1,1,23497900,pdf,AFB807DBD45E0BF53D795513369E2513,,,Six Thousand Years of History v03 (1899) American History.pdf,0,2021-03-16 16:46:12,2021-03-16 16:46:12,afb807dbd45e0bf53d795513369e2513-g.jpg,,
32753411,A Guerra na Grécia Antiga,,Série Princípios,,Marcos Alvito Pereira de Souza,1988,,Ática,São Paulo,88,88,Portuguese,,,,"8508030789,9788508030781",,,,,,,,,,,0,,,0,,,,0,15856293,pdf,9342B041B532CC33E771E387F2ED9D16,,,guerraGrecia.pdf,0,2021-03-16 16:46:28,2021-03-17 00:24:36,9342b041b532cc33e771e387f2ed9d16-g.jpg,,"8508030789,9788508030781"
32753412,Funkcja i pole mówienia i mowy w psychoanalizie : referat wygłoszony na kongresie rzymskim 26-27 września 1953 w Instituto di psicologia della universitá di Roma,,,,Jacques Lacan,1996,,Wydawnictwo KR,Warszawa,175,175,Polish,195,,,8386989106,,,,,,,,,,Bibuła,0,1,,0,,1,,1,5033075,pdf,492C4D8A2109E290EA1420A272355D32,,,Lacan - Funkcja i pole mówienia i mowy w psychoanalizie. Referat wygłoszony na kongresie rzymskim 26-27 września 1953 w Instituto di psicologia della universitá di Roma.pdf,0,2021-03-16 16:47:41,2021-03-16 16:48:14,492c4d8a2109e290ea1420a272355d32-g.jpg,"Lacan, psychoanaliza, dyskurs rzymski",8386989106
32753413,Six Thousand Years of History,4,,,Edgar Sanderson,1899,,E. R. DuMONT,Philadelphia,,421,English,64,,,,,,,,,,,,,,300,1,1,0,1,1,1,1,21233194,pdf,BCBDAFCD14F84284CD9BD5CCF4BA5662,,,Six Thousand Years of History v04 (1899) Great Philosophers.pdf,0,2021-03-16 16:49:14,2021-03-16 16:49:14,bcbdafcd14f84284cd9bd5ccf4ba5662-g.jpg,,
32753414,Il tramonto della democrazia. Il fallimento della politica e il fascino dell'autoritarismo,,,,Anne Applebaum,2021,1,Mondadori,,,0,Italian,,,,9788835708070,,,,,,,,,,,0,,,,,,,,301991,epub,E8E4A7F0B534FC7ECEAAAD6EF12C5597,,,Il tramonto della democrazia - Anne Applebaum.epub,0,2021-03-16 16:53:31,2021-03-16 16:53:31,e8e4a7f0b534fc7eceaaad6ef12c5597-g.jpg,,9788835708070
32753415,Six Thousand Years of History,5,,,Edgar Sanderson,1899,,E. R. DuMONT,Philadelphia,,461,English,64,,,,,,,,,,,,,,300,1,1,0,1,1,1,1,31627740,pdf,979B43CAF784FFB8DDC34C32528E6D3E,,,Six Thousand Years of History v05 (1899) Famous Women.pdf,0,2021-03-16 16:55:26,2021-03-16 16:55:26,979b43caf784ffb8ddc34c32528e6d3e-g.jpg,,
32753416,Die Stufenweise entstehung des Juristokratischen Staates / The Gradual Emergence of the Juristocratic State,,,,ed. Béla Pokol & András Téglási,2019,,Dialóg Campus,Budapest,202,206,German and English,,,,"9786156020710,9786156020727,9786156020703",,,,,,,,,,,0,,,,,,1,1,2751988,pdf,9C838ABE1112F7225E48C768F62D6876,,,PDF_Die_stufenweise_Entstehung_des_juristokratischen_Staates_The_Gradual__.pdf,0,2021-03-16 16:56:56,2021-03-16 16:56:56,9c838abe1112f7225e48c768f62d6876-g.jpg,,"9786156020710,9786156020727,9786156020703"
32753417,Six Thousand Years of History,6,,,Edgar Sanderson,1899,,E. R. DuMONT,Philadelphia,,520,English,64,,,,,,,,,,,,,,300,1,1,0,1,1,1,1,36240750,pdf,8E29884E43A869E031D63B40C6CD12FD,,,Six Thousand Years of History v06 (1899) Famous Warriors.pdf,0,2021-03-16 16:58:37,2021-03-16 16:58:37,8e29884e43a869e031d63b40c6cd12fd-g.jpg,,
32753418,O Brasil na Monarquia Hispânica (1580-1668): novas interpretações,,"História Diversa, v. 2",,"Ana Paula Torres Megiani, José Manuel Santos Pérez, Kalina Vanderlei Silva",2016,,Humanitas,São Paulo,,198,Portuguese,,,,9788577323203,,,,,,,,,,,0,,,,,,,1,895233,pdf,EA8EC054947257EC893DE7EDA8523833,,,"MEGIANI, A. P. T.; PÉREZ, J. M. S.; SILVA, K. V. O Brasil na Monarquia Hispânica (1580-1668).pdf",0,2021-03-16 16:59:23,2021-03-16 16:59:23,ea8ec054947257ec893de7eda8523833-g.jpg,,9788577323203
32753419,Je parle aux murs. Entretiens de la Chapelle de Sainte-Anne,,,,Jacques Lacan,2011,,Éditions du Seuil,Paris,119,119,French,195,,,9782020971669,,,,,,,,,,Bibuła,0,1,1,0,,1,,1,1784638,pdf,F88DCAD780574973C248E6CEA3862C1B,,,Lacan - Je parle aux murs. Entretiens de la Chapelle de Sainte-Anne.pdf,0,2021-03-16 17:00:40,2021-03-16 17:00:40,f88dcad780574973c248e6cea3862c1b-g.jpg,"Lacan, psychanalyse, Champ Freudien, Paradoxes de Lacan",9782020971669
32753420,Portugal na Monarquia Hispânica. Dinâmicas de integração e de conflito,,Estudos & Documentos 18,,"Pedro Cardim, Leonor Freire Costa, Mafalda Soares da Cunha",2013,,"CHAM, CIDEHUS, GHES, Red Columnaria",Lisboa,,518,Portuguese,64,,,9789898492159,,,,,,,,,,,0,,,,,,,1,8169513,pdf,26E2FD18CF97DC4E8B425C5EE7B75B2F,,,"CARDIM, P.; COSTA, L. F.; CUNHA, M. S. Portugal na Monarquia Hispânica.pdf",0,2021-03-16 17:00:41,2021-03-16 17:00:41,26e2fd18cf97dc4e8b425c5ee7b75b2f-g.jpg,,9789898492159
32753421,Six Thousand Years of History,7,,,Edgar Sanderson,1899,,E. R. DuMONT,Philadelphia,,470,English,64,,,,,,,,,,,,,,300,1,1,0,1,1,1,1,32098311,pdf,20C6391622A5620E3B8CE5D379A6CD73,,,Six Thousand Years of History v07 (1899) Famous Foreign Statesmen.pdf,0,2021-03-16 17:03:31,2021-03-16 17:03:31,20c6391622a5620e3b8ce5d379a6cd73-g.jpg,,
32753422,Dimensões Culturais da Globalização: a modernidade sem peias,,,,Arjun Appadurai,1996,,Editorial Teorema,Lisboa,,133,Portuguese,,,,"9726956129,9789726956129",,,,,,,,,,,0,,,,,,,1,41261388,pdf,79E81A7D8D98DE75C8C9876D506A1FFA,,,"APPADURAI, A. Dimensões Culturais da Globalização.pdf",0,2021-03-16 17:06:35,2021-03-17 00:23:15,79e81a7d8d98de75c8c9876d506a1ffa-g.jpg,,"9726956129,9789726956129"
32753423,Migration and Vodou,,,,Karen E. Richman,2008,paperback,University Press of Florida,,384,388,English,,,,"081303325X,9780813033259",,,,,,,,,,,0,,,0,1,1,,1,18428816,pdf,1D4F6B87040CF628F6D36FACABCAE8A8,,,"Migration and vodou - Richman, Karen E.pdf",0,2021-03-16 17:09:00,2021-03-16 17:09:00,1d4f6b87040cf628f6d36facabcae8a8-g.jpg,,"081303325X,9780813033259"
32753424,Six Thousand Years of History,8,,,Edgar Sanderson,1899,,E. R. DuMONT,Philadelphia,,421,English,64,,,,,,,,,,,,,,300,1,1,0,1,1,1,1,37989850,pdf,F99E9723055FC1A3CE5007A917123800,,,Six Thousand Years of History v08 (1899) Famous American Statesmen.pdf,0,2021-03-16 17:09:18,2021-03-16 17:09:18,f99e9723055fc1a3ce5007a917123800-g.jpg,,
32753425,Past and Present in Medieval Chronicles,,"Collegium: Studies Across Disciplines in the Humanities and Social Sciences, 17",,Mari Isoaho (ed.),2015,,Helsinki Collegium for Advanced Studies,Helsinki,196,200,English,64,,,9789515108708,,,,,,,,,,,0,,,,1,0,1,1,3271094,pdf,1CFEAE673B2D13894C2B38C31A304670,,,Isoaho.pdf,0,2021-03-16 17:10:38,2021-03-16 17:10:38,1cfeae673b2d13894c2b38c31a304670-g.jpg,,9789515108708
32753426,"Profits, Power, and Prohibition: Alcohol Reform and the Industrializing of America, 1800-1930",,,,John J. Rumbarger,1989,,State University of New York Press,,,310,English,64,,,"0887067824,0887067832",,,,,,,,,,,0,,,,,,,1,9900622,pdf,42679171A3E540D4C4FA661707CC523F,,,"John J. Rumbarger - Profits, power, and prohibition (1989).pdf",0,2021-03-16 17:10:53,2021-03-16 17:10:53,42679171a3e540d4c4fa661707cc523f-g.jpg,,"0887067824,0887067832"
32753427,A vida social das coisas,,,,Arjun Appadurai,2008,,Editora da Universidade Federal Fluminense,"Niterói, RJ",,200,Portuguese,32,,,"8522804206,9788522804207",,,,,,,,,,,0,,,,,,,0,50660681,pdf,D5F33BEA994829E294F267CA7B50C3A0,,,"APPADURAI, A. A vida social das coisas.pdf",0,2021-03-16 17:11:14,2021-03-17 00:22:28,d5f33bea994829e294f267ca7b50c3a0-g.jpg,,"8522804206,9788522804207"
32753428,Six Thousand Years of History,9,,,Edgar Sanderson,1899,,E. R. DuMONT,Philadelphia,,544,English,64,,,,,,,,,,,,,,300,1,1,0,1,1,1,1,38954626,pdf,74EB9A73A15466B5B6B2E058B6A71BCD,,,Six Thousand Years of History v09 (1899) Literature of the 19th Century.pdf,0,2021-03-16 17:13:41,2021-03-16 17:13:41,74eb9a73a15466b5b6b2e058b6a71bcd-g.jpg,,
32753429,Őszintén A 2019-es önkormányzati választások tanulságai,,,,Simon János (editor),2020,,CEPoliti Kiadó / Harsányi János Tudásközpont,Budapest,263,269,Hungarian,,,,9786155771187,,,,,,,,,,,0,,,,,,,1,3310977,pdf,C957B0EF276FE35A228883F6EA50CAD5,,,combinepdf.pdf,0,2021-03-16 17:14:59,2021-03-17 00:04:59,c957b0ef276fe35a228883f6ea50cad5-g.jpg,,9786155771187
32753430,Six Thousand Years of History,10,,,Edgar Sanderson,1899,,E. R. DuMONT,Philadelphia,,497,English,64,,,,,,,,,,,,,,300,1,1,0,1,1,1,1,34726116,pdf,B88E0D47DEB0787004B712FB95E5F28C,,,Six Thousand Years of History v10 (1899) Achievements of the 19th Century plus INDEX.pdf,0,2021-03-16 17:20:35,2021-03-16 17:20:35,b88e0d47deb0787004b712fb95e5f28c-g.jpg,,
32753431,Yeltsin's Russia: Myths And Reality,,,,Liliia Fedorovna Shevtsova,1999,,Carnegie Endowment for International Peace,,346,360,English,,,,"0870030949,9780870030949",,,,,,,,,,,0,,,,,,1,1,6041036,pdf,54929E23881CF2FBCB2913DE139C03C0,,,Yeltsin's Russia.pdf,0,2021-03-16 17:25:29,2021-03-16 17:25:29,54929e23881cf2fbcb2913de139c03c0-g.jpg,,"0870030949,9780870030949"
32753432,Small Animal Clinical Techniques,,,,Susan M. Taylor,2016,2,Elsevier,St. Louis,282,282,English,,,,9780323312165,,,,,,,,,,,0,,,,,,1,1,42528858,pdf,DD9052B611ACC5EB2F1F2730AB07206F,,,Small Animal Clinical Techniques 2nd Edition.pdf,0,2021-03-16 17:25:58,2021-03-16 17:25:58,dd9052b611acc5eb2f1f2730ab07206f-g.jpg,,9780323312165
32753433,Passados recompostos: campos e canteiros da história,,,,Jean Boutier; Dominique Julia,1998,,UFRJ,Rio de Janeiro,350,176,Portuguese,64,,,"857108209X,9788571082090",,,,,,,,ikVyGwAACAAJ,,,0,,,,,,,0,54425034,pdf,BD29C0BAB9BDFCCB821D18D1B66DE642,,,"JULIA, D.; BOUTIER, J. Passados Recompostos.pdf",0,2021-03-16 17:31:18,2021-03-17 00:21:34,bd29c0bab9bdfccb821d18d1b66de642-g.jpg,,"857108209X,9788571082090"
32753434,O protestantismo brasileiro: estudo de eclesiologia e de história social,,,,Léonard Émile-Guillaume,1981,2,JUERP/ASTE,,,177,Portuguese,64,,,,,,,,,,,,,,0,,,,,,,0,18930383,pdf,DAA088271C04B8D9025031FDCAFEDA8F,,,"LEONARD, É. G. O protestantismo brasileiro.pdf",0,2021-03-16 17:35:25,2021-03-17 00:04:10,daa088271c04b8d9025031fdcafeda8f-g.jpg,,
32753435,"Appians Κελτική: Einleitung, Text, Übersetzung und Kommentar",,"Tyche Supplementband, 9",,Andreas Hofeneder (editor),2018,,Verlag Holzhausen,Wien,VI+506,516,German,64,,,"3903207047,9783903207042",,,,,,,,,,,0,,,,1,0,0,1,4033284,pdf,8312769079DE5A68D74D976A1DA4AD56,,,Hofeneder.pdf,0,2021-03-16 17:49:04,2021-03-16 17:49:04,8312769079de5a68d74d976a1da4ad56-g.jpg,,"3903207047,9783903207042"
32753436,"Hukuk kurultayı 2006 (03–07 Ocak 2006, Ankara)",Cilt – II,,,[Ankara Barosu],2007,,Ankara Barosu Yayınları,Ankara,"xv,656",672,"Turkish, Englis and French",,,,"975603761X,9756037598",,,,,,,,,,,0,,,,,,,0,30157553,pdf,D36C67DC9F3583AC269DCA455F166E36,,,"HukukKurultay2006-CLC,eng+tur.pdf",0,2021-03-16 18:04:36,2021-03-17 00:03:09,d36c67dc9f3583ac269dca455f166e36-g.jpg,,"975603761X,9756037598"
32753437,Os povos bárbaros,,Série Princípios,,Maria Sonsoles Guerras,1987,2,Ática,São Paulo,86,83,Portuguese,,,,"8508018592,9788508018598",,,,,,,,,,,0,,,0,,,,0,18820455,pdf,FADAFDB4CEF06E7C839C366CC834ECC5,,,Barbaros.pdf,0,2021-03-16 18:07:50,2021-03-17 00:19:38,fadafdb4cef06e7c839c366cc834ecc5-g.jpg,,"8508018592,9788508018598"
32753438,A Short History of Bonaire,,History in Short,,J. Hartog (Johannes Hartog); Virginia Gideon Oenes,1975,2 (revised & enlarged),Island Territory of Bonaire,,,124,English,,Biblioteca Nacional Aruba,,,,,,,,,,,,,0,,,0,1,1,,1,16769850,pdf,944ACA41871C867CF3473E44F902892A,,,"Bonaire short history - Hartog, Johannes 1867-1947.pdf",0,2021-03-16 18:09:48,2021-03-16 18:09:48,944aca41871c867cf3473e44f902892a-g.jpg,,
32753439,The Genesis 6 Conspiracy: How Secret Societies and the Descendants of Giants Plan to Enslave Humankind,,,,Gary Wayne,2014,,Trusted Books,,,0,English,,,,"9781632692900,2011960135",,B00QWDUGA8,,,,,,,,,0,,,,,,,,6000876,epub,BA2F62F3B30DE8EF4BA00FF1081237A4,,,"Wayne, Gary - The Genesis 6 Conspiracy_ How Secret Societies and the Descendants of Giants Plan to Enslave Humankind-Trusted Books (2014).epub",0,2021-03-16 18:23:00,2021-03-16 18:23:00,ba2f62f3b30de8ef4ba00ff1081237a4-g.jpg,,"9781632692900,2011960135"
32753440,Carter's Guide to Australian Contract Law,,,,John W. Carter,2015,3,,,,0,English,,,,"0409342882,9780409342888",,,,,,,,qUBfjwEACAAJ,,,0,,,,,,,,5306934,epub,C9C4DDE8124B08E829CA7610E1ECA79D,,,Carter's Guide to Australian Contract Law 3rd edition - Carter.epub,0,2021-03-16 18:54:43,2021-03-17 00:18:28,c9c4dde8124b08e829ca7610e1eca79d-g.jpg,,"0409342882,9780409342888"
32753441,Digital Data Collection And Information Privacy Law,54,Cambridge Intellectual Property And Information Law,,Cambridge University Press,2020,1,Cambridge University Press,,337,337,English,313,,,"1108417922,9781108417921,1108283713,9781108283717,1108287182,9781108287180,1108406017,9781108406017",,,,,,,,,,TruePDF / TOC,0,,,,,,1,1,2258614,pdf,380A8F4BC0FA27CD127DC36267E6FEB8,,,1108417922_9781108417921_DigitalDataCollectionInformationPrivacyLaw.pdf,0,2021-03-16 18:58:28,2021-03-16 18:58:28,380a8f4bc0fa27cd127dc36267e6feb8-g.jpg,Data Protection: Law And Legislation; Databases: Law And Legislation; Big Data: Social Aspects; Technological Innovations: Social Aspects; Internet Of Things: Social Aspects,"1108417922,9781108417921,1108283713,9781108283717,1108287182,9781108287180,1108406017,9781108406017"
32753442,"The English-language press networks of East Asia, 1918-45",,,,Peter O'Connor,2010,1. publ.,Global Oriental,Folkestone,,432,English,,,,"9781905246670,1905246676",,,,,,,,,,,0,,,,,,1,1,11041222,pdf,6C3DF174E7E5AE6F94B7C2E4AF4C3346,,,"The English-language Press Netw - O'Connor, Peter;.pdf",0,2021-03-16 18:58:48,2021-03-16 18:58:48,6c3df174e7e5ae6f94b7c2e4af4c3346-g.jpg,,"9781905246670,1905246676"
32753443,Thunau am Kamp: Das frühmittelalterliche Gräberfeld auf der Oberen Holzwiese,,"Österreichische Akademie der Wissenschaften. Philosophisch-historische Klasse. Mitteilungen der Prähistorischen Kommission, 87",,Elisabeth Nowotny,2018,,Verlag der Österreichischen Akademie der Wissenschaften,Wien,400,404,German,66,,,"3700180667,9783700180661",,,,,,,,,,,0,,,,1,0,0,1,49481472,pdf,133A71E8AE65A8EC568F50EAA0DEBA49,,,Nowotny.pdf,0,2021-03-16 19:02:00,2021-03-16 19:02:00,133a71e8ae65a8ec568f50eaa0deba49-g.jpg,,"3700180667,9783700180661"
32753444,Crea tu Propia Riqueza: Descubre el mundo de las inversiones y aprende a invertir en la bolsa de valores,,,,Alejandro Cardona,2016,,AM EDUCATION & SERVICES,,144,56,Spanish,306,,,"0997419903,9780997419900",,,,,,,,,,"Pages 1-108, pages 109-144 missing",0,1,0,1,1,0,0,0,21756074,pdf,42BC697E2A31F29DA828E3EAF9BF9577,,,ctrp ac.pdf,0,2021-03-16 19:13:40,2021-03-16 19:14:19,42bc697e2a31f29da828e3eaf9bf9577-g.jpg,,"0997419903,9780997419900"
32753445,"Military, Monarchy and Repression: Assessing Thailand's authoritarian turn",,,,Veerayooth Kanchoochat; Kevin Hewison eds,2017,,Routledge,London,,183,English,,,,9781138215658,,,,,,,,,,,0,,,,,,,1,38140552,pdf,2BE02FD8B8D5EE2D6265134FEE7688E0,,,"Veerayooth_Hewison eds (2017) Military, Monarchy and Repression Assessing Thailand's authoritarian turn.pdf",0,2021-03-16 19:32:38,2021-03-16 19:32:38,2be02fd8b8d5ee2d6265134fee7688e0-g.jpg,,9781138215658
32753446,Europe's Cultural Landscape: Archaeologists and the Management of Change,,"EAC Occasional Papers, 2",,"Graham Fairclough, Stephen Rippon, David Bull (eds.)",2002,,Europae Archaeologiae Consilium,Brussels,VIII+234,260,English,66,,,"9076975027,9789076975023",,,,,,,,,,,0,,,,1,0,1,1,21054577,pdf,0E807F826AE3B0367BBEEEB204CC0325,,,Cultural.pdf,0,2021-03-16 19:40:29,2021-03-16 19:40:29,0e807f826ae3b0367bbeeeb204cc0325-g.jpg,,"9076975027,9789076975023"
32753447,Traite d'Harmonie - Théorique et Pratique,,,,Nikolai Rimsky-Korsakov,1910,3,Alphonse Leduc Editions Musicales,,108,108,French,61,,,,,,,,,,,,,,0,,,,,,,1,6933996,pdf,A8276E323032F4E4404037086D400B54,,,traitd harmonie-rimsky-korsakov.pdf,0,2021-03-16 19:46:37,2021-03-16 19:46:37,a8276e323032f4e4404037086d400b54-g.jpg,"#Harmony; #Musical Harmony; #Voice; #Instruments; #Music; #Arts & Photography; #Techniques; #Theory, Composition & Performance; #Instruments & Performers;",
32753448,"Listing Archaeological Sites, Protecting the Historical Landscape",,"EAC Occasional Papers, 3",,Peter A. C. Schut (ed.),2009,,Europae Archaeologiae Consilium,Brussels,170,174,"English, French",66,,,"9057991446,9789057991448",,,,,,,,,,,0,,,,1,0,0,1,31168391,pdf,59C91299E565E21712169B28E5DE0B6E,,,Listing.pdf,0,2021-03-16 20:11:28,2021-03-16 20:11:28,59c91299e565e21712169b28e5de0b6e-g.jpg,,"9057991446,9789057991448"
32753449,El empirismo-pragmatismo: crítica de la trayectoria de una filosofía dominante,,,,George Novack,2005,1,Fontamara,México,232,220,Spanish,,,,9684765320,,,,,,,,,,,0,,,,,,,1,7372456,pdf,6E264C9C17236E47A43A92F692C7CA09,,,EL EMPIRISMO-PRAGMATSMO CRÍTICA DE LA TRAYECTORIA DE UNA FILOSOFÍA DOMINANTE GEORGE NOVACK.pdf,0,2021-03-16 20:20:17,2021-03-17 00:02:04,6e264c9c17236e47a43a92f692c7ca09-g.jpg,,9684765320
32753450,Destructive Creation: American Business And The Winning Of World War II,,"American Business, Politics, And Society",,Mark R. Wilson,2016,1,University Of Pennsylvania Press,,393,393,English,65,,,"0812248333,9780812248333,0812224310,9780812224313,0812293541,9780812293548",,,,,,,,,,TruePDF,0,,,,,,1,1,13515990,pdf,17282C1ADC0F25FC74A045BDD7E16A37,,,0812248333_9780812248333_DestructiveCreation.pdf,0,2021-03-16 20:29:30,2021-03-16 20:29:30,17282c1adc0f25fc74a045bdd7e16a37-g.jpg,"Defense Industries: United States: History: 20th Century; World War, 1939-1945: Economic Aspects: United States; Industrial Mobilization: United States: History: 20th Century","0812248333,9780812248333,0812224310,9780812224313,0812293541,9780812293548"
32753451,Heritage Management of Farmed and Forested Landscapes in Europe,,"EAC Occasional Papers, 4",,"Stephen Trow, Vincent Holyoak, Emmet Byrnes (eds.)",2010,,Europae Archaeologia Consilium,Brussels,184,188,English,66,,,"9639911178,9789639911178",,,,,,,,,,,0,,,,1,0,1,1,30022209,pdf,8BC26959B65CAA082A89E3B39706B0E9,,,Heritage.pdf,0,2021-03-16 20:32:05,2021-03-16 20:32:05,8bc26959b65caa082a89e3b39706b0e9-g.jpg,,"9639911178,9789639911178"
32753452,"The Lynx Point People : The Dynamics of a Northern Athapaskan Band (Athabascan, Dene, Dehcho, Slavey, Jean Marie River)",,"National Museum of Canada, Bulletin No. 176, Anthropological Series No. 53",,June Helm,1961,1,Queen’s Printer,Ottawa,,208,English,197,,,,,,,,,,,,,,0,,,,,,,1,13069321,pdf,6ED1D983D2000CAD0CCFD9D028EC1629,,,"The Lynx Point people _ the dyn - Helm, June, 1924-.original_pdf.pdf",0,2021-03-16 20:36:51,2021-03-16 20:36:51,6ed1d983d2000cad0ccfd9d028ec1629-g.jpg,,
32753453,When love goes wrong : what to do when you can't do anything right,,,,Ann Jones; Susan Schechter,1993,,HarperPerennial,"New York, NY",,372,English,,,,"9780060163068,0060163062,9780060923693,0060923695",,,,,,,,,,,0,,,,,,,1,15045375,pdf,400C9CE75AE11F6E824133FBAE6078FD,,,"When love goes wrong _ what to do when you can't do anything right - Jones, Ann, 1937-;Schechter, Susan.pdf",0,2021-03-16 20:38:38,2021-03-16 20:38:38,400c9ce75ae11f6e824133fbae6078fd-g.jpg,,"9780060163068,0060163062,9780060923693,0060923695"
32753454,Own and Be Owned: Archaeological Approaches to the Concept of Possession,,"Stockholm Studies in Archaeology, 62",,"Alison Klevnäs, Charlotte Hedenstierna-Jonson (eds.)",2015,,Stockholm University,,VIII+230,242,English,66,,,"916378212X,9789163782121",,,,,,,,,,,0,,,,1,0,0,1,21948564,pdf,510A129BD4AA98A2D1F38A9764CD148D,,,Own.pdf,0,2021-03-16 20:59:59,2021-03-16 20:59:59,510a129bd4aa98a2d1f38a9764cd148d-g.jpg,,"916378212X,9789163782121"
32753455,Dictionary of word origins,,,,Joseph Twadell Shipley,1945,2d ed.,Philosophical Library,,,456,English,,,,,,,,,803,,,,,,0,,,,,,,1,47949445,pdf,0F0B9F21804EE8EF06D296519A435ACE,,,Dictionary of word origins (1945).pdf,0,2021-03-16 21:01:18,2021-03-16 21:01:18,0f0b9f21804ee8ef06d296519a435ace-g.jpg,,
32753456,Antología de Introducción a la Filosofía de la Educación l,,Pedagogía SUAYED Primer semestre,,,,,SUAyED UNAM,,,332,Spanish,,,,,,,,,,,,,,,0,,,,,,,0,85054307,pdf,12EA5F63B643F91CBDFA7B1D1C58C44C,,,Filosofía 1.pdf,0,2021-03-16 21:02:46,2021-03-17 00:00:19,12ea5f63b643f91cbdfa7b1d1c58c44c-g.jpg,,
32753457,"When Life is Not Peachy: Real-life lessons in recovery from heartache, grief and tough times",,,,Pip Lincolne,2020,,Allen & Unwin,,264,0,English,,,,"9781760873721,1760873721",,,,,,,,gRvBDwAAQBAJ,,,0,,,,,0,,0,4703506,epub,63683EF995196A7ECB9CD4F2505E6349,,,When Life is Not Peachy.epub,0,2021-03-16 21:07:39,2021-03-16 21:07:39,63683ef995196a7ecb9cd4f2505e6349-g.jpg,,"9781760873721,1760873721"
32753458,The Hawks of Peace Notes of the Russian Ambassador,,,,Dmitry Rogozin,,,Glagoslav Publications,,,0,English,,,,"9781782670117,9781782670124",,,,,,,,,,,0,,,,,,,,478766,epub,02B1D296059170AFA8352F6E04E41047,,,The Hawks of Peace Notes of the Russian Ambassador by Dmitry Rogozin.epub,0,2021-03-16 21:08:52,2021-03-16 21:08:52,02b1d296059170afa8352f6e04e41047-g.jpg,,"9781782670117,9781782670124"
32753459,"Qualitative Research Methods: Collecting Evidence, Crafting Analysis, Communicating Impact",,,,Sarah J. Tracy,2020,2,John Wiley & Sons,,435,435,English,197,,,"1119390788,9781119390787,1119390796,9781119390794,111939080X,9781119390800",,,,,,,,,,TruePDF,0,,,,,,1,1,10979083,pdf,EA5AB1D1FB864B3D7925E1AE59C27555,,,1119390788_9781119390787_QualitativeResearchMethods.pdf,0,2021-03-16 21:10:24,2021-03-16 21:10:24,ea5ab1d1fb864b3d7925e1ae59c27555-g.jpg,Social Sciences: Research: Methodology; Research; Qualitative Research; Qualitative Research: Methodology,"1119390788,9781119390787,1119390796,9781119390794,111939080X,9781119390800"
32753460,Ультразвук и его применение в науке и технике,,,,Бергман Л.,1957,2,Издательство иностранной литературы,Москва,,730,Russian,,,,,,,,,,,,,,,600,1,1,0,1,1,1,1,80039499,djvu,BC73124EB8DADF98B1CFC51A071A0E0C,,,Ультразвук и его применение в науке и технике Л.Брегман 1957-600RM.djvu,0,2021-03-16 21:23:50,2021-03-16 21:23:50,bc73124eb8dadf98b1cfc51a071a0e0c-g.jpg,,
32753461,Речевое манипулирование: учебное пособие,,,,Копнина Галина Анатольевна,2007,,Флинта,Москва,"169, [1] с.",171,Russian,,,,9785976500600,,,,Ш100.23я73-1; Ю953.31я73-1,,,,,,,0,,,,,1,,1,9960559,pdf,AA255F843D3E17FE8110812A85705519,,,"Копнина Галина Анатольевна — Речевое манипулирование (Флинта, 2012).pdf",0,2021-03-16 21:26:35,2021-03-16 21:26:35,aa255f843d3e17fe8110812a85705519-g.jpg,,9785976500600
32753462,Sociología de la Educación l,,Pedagogía SUAYED Primer semestre,,"María de la Luz Hernández, Fernando Jiménez",2017,,SUAyED UNAM,,,148,Spanish,,,,9683651054,,,,,,,,,,,0,,,,,1,,0,77435462,pdf,A190043649F7192E596713D60470D2CE,,,1184 Sociología de la Educación I.pdf,0,2021-03-16 21:27:02,2021-03-16 23:55:01,a190043649f7192e596713d60470d2ce-g.jpg,,9683651054
32753463,Композиция: шестнадцать уроков для начинающих авторов,,,,"Ранкинг Джеймс Э., Харт Эндрю У., фон дер Остен Роберт",2005,,Наука,Москва,463,466,Russian,,,,"5893497007,5020331317",,,,"Ш107.0я7; Ш402.31,0",,,,,,,0,,,,,1,1,1,40505351,pdf,1EC0F3577ABFFC9D1FA12C7C8F5334C6,,,"Ранкинг Джеймс Э., Харт Эндрю У., фон дер Остен Роберт — Композиция. Шестнадцать уроков для начинающих авторов (Флинта, Наука, 2009).pdf",0,2021-03-16 21:54:26,2021-03-16 21:54:26,1ec0f3577abffc9d1fa12c7c8f5334c6-g.jpg,,"5893497007,5020331317"
32753464,From Text to Artefact: Studies in Honour of Anne Mette Hansen,,"Manuscript Studies, 1",,"Katarzyna Anna Kapitan, Beeke Stegmann, Seán D. Vrieland (eds.)",2019,,Kismet Press,Leeds,XVIII+300,300,"English, German, Danish",102,,,"1912801078,9781912801077,9781912801084",,,,,,,,,,,0,,,,1,0,0,1,11875792,pdf,59EFEBAB21984506813ADC685F8D4043,,,Hansen.pdf,0,2021-03-16 22:01:03,2021-03-16 22:01:03,59efebab21984506813adc685f8d4043-g.jpg,,"1912801078,9781912801077,9781912801084"
32753465,Medieval Merchants and Money: Essays in Honour of James L. Bolton,,,,"Martin Allen, Matthew Davies (eds.)",2016,,Institute of Historical Research,London,XX+364,388,English,64,,,"1909646164,9781909646162,9781909646735",,,,,,,,,,,0,,,,1,0,0,1,3447892,pdf,8FE44A6A92E592B09893CD7ECA73EEA8,,,Bolton.pdf,0,2021-03-16 22:18:04,2021-03-16 22:19:21,8fe44a6a92e592b09893cd7eca73eea8-g.jpg,,"1909646164,9781909646162,9781909646735"
32753466,Backyard Biodiesel: How to Brew Your Own Fuel,,,,"Lyle Estill, Bob Armantrout",20115,,New Society Publishers,,,0,English,,,,9781550925913,,,,,,,,,,,0,,,0,,,,,1330878,epub,2AE96954996A4358D3139FF6B393E1E3,,,Backyard Biodiesel.epub,0,2021-03-16 22:23:41,2021-03-16 22:23:41,2ae96954996a4358d3139ff6b393e1e3-g.jpg,,9781550925913
32753467,Неврология. Национальное руководство,1,,,"Богомильский М. Р., Галстян Г. Р., Гусева М. Р. и др.",2019,2,Гэотар-медиа,,877,1892,Russian,,,,9785970451731,,,,Р62я81,,,,,,,0,,,,,0,,1,25250988,pdf,E23A2E21B6488F877C7BC422389D9743,,,4460.pdf,0,2021-03-16 22:26:49,2021-03-16 23:50:11,e23a2e21b6488f877c7bc422389d9743-g.jpg,,9785970451731
32753468,The Pet Poo Pocket Guide: How to Safely Compost & Recycle Pet Waste,,,,Rose Seemann,2015,,New Society Publishers,,,0,English,,,,9781550925883,,,,,,,,,,,0,,,0,,,,,1585630,epub,CD575F59D2BCBE730436338510701215,,,The Pet Poo Pocket Guide.epub,0,2021-03-16 22:30:05,2021-03-16 22:30:05,cd575f59d2bcbe730436338510701215-g.jpg,,9781550925883
32753469,"People, Texts and Artefacts: Cultural Transmission in the Medieval Norman Worlds",,,,"David Bates, Edoardo D'Angelo, Elisabeth van Houts (eds.)",2017,,Institute of Historical Research,London,XVIII+284,306,"English, Italian, French",64,,,"1909646539,9781909646537,9781909646568",,,,,,,,,,,0,,,,1,0,0,1,3344837,pdf,E9B3235E081F05B9F93EB3A3F67DD686,,,Norman.pdf,0,2021-03-16 22:37:52,2021-03-16 22:37:52,e9b3235e081f05b9f93eb3a3f67dd686-g.jpg,,"1909646539,9781909646537,9781909646568"
32753470,Satellite Formation Flying High Precision Guidance using Optimal and Adaptive Control Techniques,,,,"S. Mathavaraj, R. Padhi",2021,,Springer,,167,167,English,,,,"9789811596308,9789811596315",,,,,,,,,,,0,,,,,,1,1,11223010,pdf,6513257AA45706C52E70462A9658E241,,,mathavaraj_s_padhi_r_satellite_formation_flying_high_precisi.pdf,0,2021-03-16 22:56:11,2021-03-16 23:49:39,6513257aa45706c52e70462a9658e241-g.jpg,,"9789811596308,9789811596315"
32753471,London and Beyond: Essays in Honour of Derek Keene,,,,"Matthew Davies, James A. Galloway (eds.)",2012,,Institute of Historical Research,London,XVIII+374,396,English,64,,,"1905165706,9781905165704,9781909646445",,,,,,,,,,,0,,,,1,0,0,1,4691010,pdf,32F015365A0608AB5603B16B93BF4320,,,London.pdf,0,2021-03-16 22:56:36,2021-03-16 22:56:36,32f015365a0608ab5603b16b93bf4320-g.jpg,,"1905165706,9781905165704,9781909646445"
32753472,Gender and Historiography: Studies in the Earlier Middle Ages in Honour of Pauline Stafford,,,,"Janet L. Nelson, Susan Reynolds, Susan M. Johns (eds.)",2012,,Institute of Historical Research,London,XIV+218,236,English,64,,,"190516579X,9781905165797,9781909646469",,,,,,,,,,,0,,,,1,0,0,1,1005124,pdf,BA1867138C0B35C7A27132D0469CA873,,,Gender.pdf,0,2021-03-16 23:09:33,2021-03-16 23:09:33,ba1867138c0b35c7a27132d0469ca873-g.jpg,,"190516579X,9781905165797,9781909646469"
32753473,"Magna Carta: History, Context and Influence. Papers Delivered at Peking University on the 800th Anniversary of Magna Carta",,"IHR Shorts, 2",,Lawrence Goldman (ed.),2018,,Institute of Historical Research,London,XII+122,138,English,64,,,"1909646873,9781909646872,9781909646889",,,,,,,,,,,0,,,,1,0,0,1,5415577,pdf,90C2BABB722296A5C348BB864C626D28,,,Magna.pdf,0,2021-03-16 23:22:34,2021-03-16 23:22:34,90c2babb722296a5c348bb864c626d28-g.jpg,,"1909646873,9781909646872,9781909646889"
32753474,"The Source: Open Your Mind, Change Your Life",,,,Tara Swart,2019,,Vermilion,,269,269,English,,,,"9781473559882,9781785041990",,,,,,,,,,,0,,,,,,1,1,3781486,pdf,DCF70D0DFA32F8DDFFF8B546CD52A78D,,,"Tara Swart - The Source_ Open Your Mind, Change Your Life-Vermilion (2019).pdf",0,2021-03-16 23:28:45,2021-03-16 23:49:03,dcf70d0dfa32f8ddfff8b546cd52a78d-g.jpg,,"9781473559882,9781785041990"
32753475,Masks and Masking: Faces of Tradition and Belief Worldwide,,,,Gary Edson,2009,,McFarland & Co,,267,268,English,,,,"0786445785,9780786445783",,,,,,,,,,,0,0,1,0,1,0,1,1,42530715,pdf,F0D8B2D4BE9478AF93B14B6405D1000D,,,Edson - Masks and Masking.pdf,0,2021-03-16 23:42:30,2021-03-16 23:42:30,f0d8b2d4be9478af93b14b6405d1000d-g.jpg,,"0786445785,9780786445783"
32753476,"The Resurrection of Jesus: Apologetics, Polemics, History",,,,Dale C. Allison Jr.,2021,,T&T Clark,,464,414,English,,,,"0567697568,9780567697561",,,,,,,,,,,0,0,1,0,1,0,1,1,4196373,pdf,4AD1170AFD1D89E35BC5B942C71AAF8D,,,Allison - The Resurrection of Jesus.pdf,0,2021-03-16 23:43:18,2021-03-16 23:43:18,4ad1170afd1d89e35bc5b942c71aaf8d-g.jpg,,"0567697568,9780567697561"
32753477,ALIEN Thinking: The Unconventional Path to Breakthrough Ideas,,,,Cyril Bouquet; Jean-Louis Barsoux; Michael Wade,2021,,Hachette UK,,304,0,English,,,,"1541750926,9781541750920",,,,,,,,qsrvDwAAQBAJ,,,0,,,,,,,,4280504,epub,389E11EF87B8673AE032CC3D5C45B427,,,ALIEN_Thinking_-_Cyril_Bouquet.epub,0,2021-03-16 23:53:26,2021-03-17 00:16:01,389e11ef87b8673ae032cc3d5c45b427-d.png,,"1541750926,9781541750920"
32753478,The Oxford Handbook of Functional Brain Imaging in Neuropsychology and Cognitive Neurosciences,,,,Andrew C. Papanicolaou,2017,,Oxford University Press,,,0,English,,,,9780190669126,,,,,,,,,,,0,,,,,,,,14654075,epub,225B2427F6BFC3E8FE3D0FECEDDAE1A7,,,0199764220_UserUpload.Net.epub,0,2021-03-16 23:55:09,2021-03-16 23:55:09,225b2427f6bfc3e8fe3d0feceddae1a7-g.jpg,,9780190669126
32753479,Civil Engineering PE All-in-One Exam Guide,,,,Indranil Goswami,2020,,McGraw-Hill Education,,,0,English,,,,"1260457230,9781260457223,1260457222",,,,,,,,,,,0,,,,,,,,130594683,epub,81B8CA75A7FDF95C39FDBD842B2A0E82,,,1260457222.epub,0,2021-03-16 23:56:49,2021-03-16 23:56:49,81b8ca75a7fdf95c39fdbd842b2a0e82-g.jpg,,"1260457230,9781260457223,1260457222"
32753480,Putting Skill to Work: How to Create Good Jobs in Uncertain Times,,,,Nichola Lowe,,,MIT Press,,,0,English,,,,"9780262361989,9780262045162",,,,,,,,,,,0,,,,,,,,1523592,epub,44F1D8D142FF37F0922A47FA92F3A7E2,,,Putting_Skill_to_Work_-_Nichola_Lowe.epub,0,2021-03-16 23:57:28,2021-03-16 23:57:28,44f1d8d142ff37f0922a47fa92f3a7e2-g.jpg,,"9780262361989,9780262045162"
32753481,Johnny Cash: The Last Interview and Other Conversations,,,,Johnny Cash,2021,,Melville House,,,0,English,,,,9781612198941,,,,,,,,,,,0,,,,,,,,2612811,epub,F9AAEDC15F74B8804EF7D553DEFA67FF,,,Johnny_Cash_-_Johnny_Cash.epub,0,2021-03-16 23:58:01,2021-03-16 23:58:01,f9aaedc15f74b8804ef7d553defa67ff-g.jpg,,9781612198941
32753482,Wild Women of Maryland: Grit & Gumption in the Free State,,,,"Silberman, Lauren R.",2015,,Arcadia Publishing Inc.,,,0,English,,,,2015943176,,B015X2CE76,,,,,,,,,0,,,,,,,,2757309,epub,6C4FE529D51B8DF940CDD3ECF9879ACF,,,Wild_Women_of_Maryland.epub,0,2021-03-16 23:58:18,2021-03-16 23:58:18,6c4fe529d51b8df940cdd3ecf9879acf-g.jpg,,2015943176
32753483,Gut Feelings: The Microbiome and Our Health,,,,Alessio Fasano,2021,,MIT Press,,,0,English,,,,"9780262362696,9780262044271",,,,,,,,,,,0,,,,,,,,3793718,epub,089768F131B99C078203FCDCE12376BF,,,Gut_Feelings_-_Alessio_Fasano.epub,0,2021-03-16 23:58:48,2021-03-17 00:14:38,089768f131b99c078203fcdce12376bf-g.jpg,,"9780262362696,9780262044271"
32753484,Making Yugoslavs: Identity in King Aleksandar's Yugoslavia,,,,Christian Axboe Nielsen,2014,,University of Toronto Press,,400,400,English,,,,"1442627506,9781442627505",,,,,,,,,,,0,,,,,,1,1,1944559,pdf,E0F898944489639062CD6B7B2CDB9E7D,,,Making Yugoslavs.pdf,0,2021-03-16 23:59:44,2021-03-16 23:59:44,e0f898944489639062cd6b7b2cdb9e7d-g.jpg,,"1442627506,9781442627505"
32753485,Sound Advice: The Ultimate Guide to a Healthy and Successful Career in Music,,,,Rhian Jones; Lucy Heyman,2021,,Shoreditch Press,,200,0,English,,,,"9781838194925,1838194924",,,,,,,,8NwfEAAAQBAJ,,,0,,,,,,,,4401305,epub,ADD5974DE83C968B43BFDD070DF2B67E,,,Sound_Advice_-_Rhian_Jones_UserUpload.Net.epub,0,2021-03-17 00:00:32,2021-03-17 00:13:46,add5974de83c968b43bfdd070df2b67e-d.jpg,,"9781838194925,1838194924"
32753486,The Entrepreneur's Paradox,,,,Curtis Morley,2021,,Mango Media,,,0,English,,,,"9781642504132,9781642504125",,,,,,,,,,,0,,,,,,,,5221162,epub,C4B92BCD1D9868C24C784D77C9F51615,,,The_Entrepreneurs_Paradox_-_Curtis_Morley.epub,0,2021-03-17 00:00:52,2021-03-17 00:14:06,c4b92bcd1d9868c24c784d77c9f51615-g.jpg,,"9781642504132,9781642504125"
32753487,The Shawshank Redemption Revealed,,,,Mark Dawidziak,2019,,Lyons Press,,,0,English,,,,9781493040995,,,,,,,,,,,0,,,,,,,,7861406,epub,336710A5811980115670A96CF745F8DF,,,The_Shawshank_Redemption_Revealed_-_Mark_Dawidziak.epub,0,2021-03-17 00:01:27,2021-03-17 00:15:01,336710a5811980115670a96cf745f8df-g.jpg,,9781493040995
32753488,Your Work from Home Life,,,,MJ Fievre,2021,,Mango Media,,,0,English,,,,"9781642504910,2020951518",,,,,,,,,,,0,,,,,,,,8052626,epub,4FF367AF148CCEFBC7A6BFE9ADBDA618,,,Your_Work_from_Home_Life_-_MJ_Fievre.epub,0,2021-03-17 00:02:16,2021-03-17 00:02:16,4ff367af148ccefbc7a6bfe9adbda618-g.jpg,,"9781642504910,2020951518"
32753489,Value(S): Building a Better World for All,,,,Mark Carney,2021,,McClelland & Stewart,,,0,English,,,,9780771051562,,,,,,,,,,,0,,,,,,,,8428211,epub,A038015249B004BCE231429AC3504D0A,,,Values_-_Mark_Carney.epub,0,2021-03-17 00:02:49,2021-03-17 00:02:49,a038015249b004bce231429ac3504d0a-g.jpg,,9780771051562
32753490,It's in the Action: Memories of a Nonviolent Warrior,,,,C. T. Vivian; Steve Fiffer,2021,,NewSouth Books,,,0,English,,,,"9781588384423,158838442X",,,,,,,,k90NEAAAQBAJ,,,0,,,,,,,,24517939,epub,A4B749EB947B085817450729A2E88809,,,Its_in_the_Action_-_C._T._Vivian.epub,0,2021-03-17 00:03:16,2021-03-17 00:13:14,a4b749eb947b085817450729a2e88809-d.jpg,,"9781588384423,158838442X"
32753491,Average Expectations: Lessons in Lowering the Bar,,,,Shep Rose,2021,,Gallery Books,,,0,English,,,,"9781982159818,2020044101,9781982159795,9781982159801",,,,,,,,,,,0,,,,,,,,27832242,epub,27C4289030A8B3EFE0286EB30F1F4709,,,Average.Expectations.epub,0,2021-03-17 00:04:05,2021-03-17 00:04:05,27c4289030a8b3efe0286eb30f1f4709-g.jpg,,"9781982159818,2020044101,9781982159795,9781982159801"
32753492,RAF and East German Fast-Jet Pilots in the Cold War,,,,Nigel Walpole,2021,,Pen and Sword,,,0,English,,,,9781526758392,,,,,,,,,,,0,,,,,,,,121207155,epub,3F0BD2805B61049FE916DC40870658F1,,,RAF.and.East.German.Fast-Jet.Pilots.in.the.Cold.War.epub,0,2021-03-17 00:05:22,2021-03-17 00:05:22,3f0bd2805b61049fe916dc40870658f1-g.jpg,,9781526758392
32753493,Are You Coming? A Vagina Owner's Guide to Orgasm,,,,Laura Hiddinga,2021,,The Experiment,,,210,English,,,,"2020035584,2020035585,9781615197088,9781615197095",,,,,,,,,,,0,,,,,,1,1,7189020,pdf,4B88930116E4F01FF5FDEA530DBB1BB9,,,Are_You_Coming__-_Laura_Hiddinga.pdf,0,2021-03-17 00:06:12,2021-03-17 00:13:59,4b88930116e4f01ff5fdea530dbb1bb9-g.jpg,,"2020035584,2020035585,9781615197088,9781615197095"
32753494,Akhenaten's Sed-festival at Karnak,,,,Jocelyn Olive Gohary,1992,,Kegan Paul International,,238,397,English,,,,"0710303807,9780710303806",,,,,,,,ZLefAAAAMAAJ,,,0,,,,,,1,1,76722131,pdf,E2D5A7BC2CC51DE72021BBCAE7E56D6A,,,Akhenaten.s.Sed-Festival.at.Karnak_UserUpload.Net.pdf,0,2021-03-17 00:07:42,2021-03-17 00:12:35,e2d5a7bc2cc51de72021bbcae7e56d6a-d.png,,"0710303807,9780710303806"
32753495,No Way Home,,,,Wayne Winegarden,2020,,Encounter Books,,,0,English,,,,"9781641771658,2020037432,9781641771641",,,,,,,,,,,0,,,,,,,,721833,epub,7A3B8EFC0349AA93FD12FE01DDE3DA4A,,,No Way Home - Wayne Winegarden.epub,0,2021-03-17 00:07:58,2021-03-17 00:07:58,7a3b8efc0349aa93fd12fe01dde3da4a-g.jpg,,"9781641771658,2020037432,9781641771641"
32753496,RSPB Nature Guide Wildlife,,,,Catherine Brereton,2021,,Bloomsbury Publishing,,,0,English,,,,9781526621016,,,,,,,,,,,0,,,,,,,,142993346,epub,0733F86C31E4CBD860080AFBDF165512,,,RSPB.Nature.Guide.Wildlife.epub,0,2021-03-17 00:08:22,2021-03-17 00:08:22,0733f86c31e4cbd860080afbdf165512-g.jpg,,9781526621016
32753497,Elite Education: International Perspectives,,,,Claire Maxwell and Peter Aggleton,2016,,Routledge,,,221,English,,,,"9781138799592,9781138799615,9781315755984",,,,,,,,,,,0,,,,,,1,1,2574414,pdf,D163E5A881CDC525254D60D5F499549F,,,Elite Education. International perspectives.pdf,0,2021-03-17 00:09:40,2021-03-17 00:09:40,d163e5a881cdc525254d60d5f499549f-g.jpg,,"9781138799592,9781138799615,9781315755984"
32753498,Routledge Handbook of Civil Society in Asia,,,,Akihiro Ogawa,2018,,Routledge,,,577,English,,,,"9781138655959,9781315100852",,,,,,,,,,,0,,,,,,1,1,6460321,pdf,FA30411B041D51EAC9AE1E90818184E8,,,Routledge Handbook of Civil Society in Asia.pdf,0,2021-03-17 00:10:26,2021-03-17 00:10:26,fa30411b041d51eac9ae1e90818184e8-g.jpg,,"9781138655959,9781315100852"
32753499,"Social Ontology, Sociocultures, and Inequality in the Global South",,Routledge Studies in Emerging Societies,,Benjamin Baumann and Daniel Bultmann,2020,,Routledge,,,253,English,,Taylor & Francis,,"2019060078,2019060079,9780367419073,9780367816810",,,,,,,,,,,0,,,,,,1,1,2279522,pdf,04F844C75F57B0893F24E60A60ACE7AB,,,"Social Ontology, Sociocultures, and Inequality in the Global South.pdf",0,2021-03-17 00:11:37,2021-03-17 00:11:37,04f844c75f57b0893f24e60a60ace7ab-g.jpg,,"2019060078,2019060079,9780367419073,9780367816810"
32753500,The Cambodian Agony,,Routledge Revivals,,David A. Ablin & Marlowe Hood,1990,,Routledge,,,497,English,,,,"9781138896727,9781315179056",,,,,,,,,,,0,,,,,,1,1,8308574,pdf,F74A16DB030747E10977CD6583F79D67,,,The Cambodian Agony.pdf,0,2021-03-17 00:12:32,2021-03-17 00:12:32,f74a16db030747e10977cd6583f79d67-g.jpg,,"9781138896727,9781315179056"
32753501,Elite Mobilities,,Changing mobilities,,Thomas Birtchnell and Javier Caletrío,2014,,Routledge,,,284,English,,,,"2013012025,9780415655804,9780203078532",,,,,,,,,,,0,,,,,,1,1,5171182,pdf,CCCEE4298BD5D6198F2353E64DD21269,,,_Elite Mobilities.pdf,0,2021-03-17 00:13:12,2021-03-17 00:13:12,cccee4298bd5d6198f2353e64dd21269-g.jpg,,"2013012025,9780415655804,9780203078532"
32753502,Asian-American Education: Historical Background and Current Realities,,"Sociocultural, Political, and Historical Studies in Education",,Meyer Weinberg,1997,,Lawrence Erlbaum Associates,,,355,English,,,,"0805827757,0805827765",,,,,,,,,,,0,,,,,,1,1,15037083,pdf,33A2ED2741DB9E801EDCADF93A6B789B,,,Asian-american Education.pdf,0,2021-03-17 00:14:51,2021-03-17 00:14:51,33a2ed2741db9e801edcadf93a6b789b-g.jpg,,"0805827757,0805827765"
32753503,Financial Inclusion for Poverty Alleviation: Issues and Case Studies for Sustainable Development,,,,Essam Yassin Mohammed and Zenebe Bashaw Uraguchi,2018,,Routledge,,,279,English,,,,"2017029591,9781138102750,9781138102767,9781315103457",,,,,,,,,,,0,,,,,,1,1,4209667,pdf,71A08E214D57919EE672CD8C9883E058,,,Financial Inclusion for Poverty Alleviation.pdf,0,2021-03-17 00:21:30,2021-03-17 00:21:30,71a08e214d57919ee672cd8c9883e058-g.jpg,,"2017029591,9781138102750,9781138102767,9781315103457"
32753504,Non-Legality in International Law: Unruly Law,,Cambridge studies in international and comparative law,,Fleur Johns,2013,,Cambridge University Press,,,282,English,,,,"9781107014015,2012029707",,,,,,,,,,,0,,,,,,1,1,3206928,pdf,3F6A4986760E682B3EAC254329E01289,,,Non-Legality in International Law.pdf,0,2021-03-17 00:23:08,2021-03-17 00:23:08,3f6a4986760e682b3eac254329e01289-g.jpg,,"9781107014015,2012029707"
32753505,"Cybertypes: Race, Ethnicity, and Identity on the Internet",,,,Lisa Nakamura,2002,,Routledge,,169,190,English,,,,"0415938368,9780415938365",,,,,,,,,,,0,,,,,,1,1,5521823,pdf,C722584B7B6907CEF8C511CDC53D978A,,,Cybertypes - Copy.pdf,0,2021-03-17 00:23:20,2021-03-17 00:23:20,c722584b7b6907cef8c511cdc53d978a-g.jpg,,"0415938368,9780415938365"
32753506,A Poetry Handbook,,,,Mary Oliver,1994,,Harcourt Brace & Company,,140,139,English,,,,0156724006,,,,,,,,,,,0,,,,,,,1,693872,pdf,7EE1A5C1ADB099E39C46BE8D6C57D73C,,,Mary Oliver A_Poetry_Handbook.pdf,0,2021-03-17 00:23:44,2021-03-17 00:39:59,7ee1a5c1adb099e39c46be8d6c57d73c-g.jpg,,0156724006
32753507,Research Methods for Criminology and Criminal Justice,,,,Dantzker; Ronald D. Hunter; Susan T. Quinn,2016,Fourth,Jones & Bartlett Learning,,258,644,English,,,,"1284113019,9781284113013",,,,,,,,7F-HDQAAQBAJ,,,0,,,,,,1,1,3127001,pdf,05F844C4487AA5CF0BD94750038F74F9,,,Mark L. Dantzker. Research Methods for Criminology and Criminal Justice.pdf,0,2021-03-17 00:23:59,2021-03-17 00:45:46,05f844c4487aa5cf0bd94750038f74f9-d.jpg,,"1284113019,9781284113013"
32753508,A Poetry Handbook,,,,Mary Oliver,1994,,Harcourt Brace & Company,,,0,English,,,,2440350553,,,,,,,,,,,0,,,,,,,,182488,mobi,54A4B3141380629F868287E58B899B38,,,Mary Oliver A Poetry Handbook - Mary Oliver.mobi,0,2021-03-17 00:24:29,2021-03-17 00:25:19,54a4b3141380629f868287e58b899b38-g.jpg,,2440350553
32753509,"Filipino Engraving, 17th to 19th Century",,,,Imelda Cajipe-Endaya; Jesus Merino; Rodolfo Paras-Perez,1980,,Ylang-Ylang Graphic Group,Metro Manila,,67,English,,,,,,,,,,,,,,,0,,,,,,1,0,8437916,pdf,81B37A4197493A6B5E1D9CBB90AB5625,,,Filipino Engraving.pdf,0,2021-03-17 00:25:52,2021-03-17 00:25:52,81b37a4197493a6b5e1d9cbb90ab5625-g.jpg,,
32753510,The Great Fiction,,,,Hans-Hermann Hoppe,2021,2,Mises Institute,,,607,English,192,,,9781610167284,,,,,,,,,,,0,,,,,,,1,2437995,pdf,2EE76F4C53624333C823B9F453A2A775,,,ilovepdf_merged (40).pdf,0,2021-03-17 00:32:41,2021-03-17 00:32:41,2ee76f4c53624333c823b9f453a2a775-g.jpg,,9781610167284
32753511,Theories of Distinction: Redescribing the Descriptions of Modernity,,,,Niklas Luhmann,2002,,Stanford University Press,,240,244,English,,,,9780804741231,,,,,,,,,,,0,,,,,,,1,27960640,pdf,02329E9B06254B293D8FC89E9886340F,,,Niklas Luhmann - Theories of Distinction_ Redescribing the Descriptions of Modernity (Cultural Memory in the Present) (2002) - libgen.lc.pdf,0,2021-03-17 01:10:00,2021-03-17 01:10:00,02329e9b06254b293d8fc89e9886340f-g.jpg,,9780804741231
32753512,Deep Learning and Physics,,Mathematical Physics Studies,,Akinori Tanaka; Akio Tomiya; Koji Hashimoto,2021,,Springer Singapore,,,0,English,,,,9789813361089,,,,,,,,,,,0,,,,,,,,16767207,epub,A23A78B823E40658D3DAB083A1783FDE,,,Deep Learning and Physics.epub,0,2021-03-17 01:45:05,2021-03-17 01:55:09,a23a78b823e40658d3dab083a1783fde-g.jpg,,9789813361089
32753513,Deep Learning and Physics,,Mathematical Physics Studies,,"Akinori Tanaka, Akio Tomiya, Koji Hashimoto",2021,,Springer,,,211,English,,,,"9789813361072,9789813361089",,,,,,,,,,,0,,,,,,1,1,7115325,pdf,9CA57A8D4B5611D47DC73A1215C246F4,,,Deep Learning and Physics.pdf,0,2021-03-17 01:46:44,2021-03-17 01:54:49,9ca57a8d4b5611d47dc73a1215c246f4-g.jpg,,"9789813361072,9789813361089"
32753514,Quantum Superﬁeld Supersymmetry,,Fundamental Theories of Physics 202,,Albert Petrov,2021,,Springer,,,160,English,,,,"9783030681357,9783030681364",,,,,,,,,,,0,,,,,,1,1,2625500,pdf,5FA01DF72EB8B857ADE281E6A2559BBA,,,"Petrov, Quantum Superfield Supersymmetry.pdf",0,2021-03-17 01:48:02,2021-03-17 01:55:56,5fa01df72eb8b857ade281e6a2559bba-g.jpg,,"9783030681357,9783030681364"
32753515,Quantum f-Divergences in von Neumann Algebras: Reversibility of Quantum Operations,,Mathematical Physics Studies,,Fumio Hiai,2021,,Springer,,,199,English,,,,"9789813341982,9789813341999",,,,,,,,,,,0,,,,,,1,1,2598262,pdf,470F7F29E3452B8090C542C272D86AD0,,,Quantum f-Divergences in von Neumann Algebras.pdf,0,2021-03-17 01:50:02,2021-03-17 01:56:27,470f7f29e3452b8090c542c272d86ad0-g.jpg,,"9789813341982,9789813341999"
32753516,Symmetry Breaking,,,,Franco Strocchi,,,Springer Berlin Heidelberg,,,0,English,,,,9783662621660,,,,,,,,,,,0,,,,,,,,14076221,epub,0FB32D2DB4B3272D0ABC161F47F9ADCC,,,"Strocchi, Symmetry Breaking.epub",0,2021-03-17 01:50:54,2021-03-17 01:50:54,0fb32d2db4b3272d0abc161f47f9adcc-g.jpg,,9783662621660
32753517,The Universe: Poincaré Seminar 2015,,Progress in Mathematical Physics 76,,"Bertrand Duplantier (editor), Vincent Rivasseau (editor)",2021,,Birkhäuser,,,159,English,,,,"9783030673918,9783030673925",,,,,,,,,,,0,,,,,,1,1,9095071,pdf,EE7D81CFCFDF49D5F20EE3AC49F8883B,,,The Universe.. Poincaré Seminar 2015.pdf,0,2021-03-17 01:52:16,2021-03-17 01:57:23,ee7d81cfcfdf49d5f20ee3ac49f8883b-g.jpg,,"9783030673918,9783030673925"
32753518,The Spartacus War,,,,Barry Strauss,2009,,Weidenfeld & Nicolson,London,264,0,English,64,,,"1416532056,9781416532057,9780297857662",,,,,,,,,,,0,,,,,,,,1286157,epub,580B1F0D3AA8236A1DD93F0195E54757,,,Strauss.epub,0,2021-03-17 01:52:24,2021-03-17 01:52:24,580b1f0d3aa8236a1dd93f0195e54757-g.jpg,,"1416532056,9781416532057,9780297857662"
32753519,"Al dumneavoastră, irațional",,,,Dan Ariely,2015,,Publica,,,237,Romanian,,,,6067221608,,,,,,,,,,,0,,,,,,1,1,4366631,pdf,2CD397522F3731B0AB16E3838BF2DB1B,,,Al Dumneavoastra irational.pdf,0,2021-03-17 01:57:08,2021-03-17 03:25:22,2cd397522f3731b0ab16e3838bf2db1b-g.jpg,,6067221608
32753520,"Seduction in Popular Culture, Psychology, and Philosophy",,"Advances in Psychology, Mental Health, and Behavioral Studies (APMHBS) Book Series",,"Constantino Pereira Martins, Manuel Damásio",2017,,IGI Global,,,352,English,,,,"2016017811,9781522505259,9781522505266,9781522505198,9781522502289,9781522500896,9781466699892,9781466699861",,,,,,,,,,,0,,,,,,1,1,6388682,pdf,3CA0E184FEB9A5B56C93080F3CAD93C3,,,"Constantino Pereira Martins, Manuel Damásio  (eds.), Seduction in popular culture philosophy psychology IGI global 2017.pdf",0,2021-03-17 02:13:18,2021-03-17 02:22:39,3ca0e184feb9a5b56c93080f3cad93c3-g.jpg,,"2016017811,9781522505259,9781522505266,9781522505198,9781522502289,9781522500896,9781466699892,9781466699861"
32753521,Politics and Image,,,,"Constantino Pereira Martins, Pedro T. Magalhães (eds.)",2019,,,,,201,English,,,,9789895432837,,,,,,,,,,,0,,,,,,1,1,4847516,pdf,E70672B4CD9869A0AE6D6699AE92B235,,,"Constantino Pereira Martins, Pedro T. Magalhães (eds.), Politics and Image, IEF Coimbra University, 2019.pdf",0,2021-03-17 02:14:51,2021-03-17 02:23:14,e70672b4cd9869a0ae6d6699ae92b235-g.jpg,,9789895432837
32753522,The New Penguin Book of English Folk Songs,,Penguin Classics,,"Steve Roud, Julia Bishop (eds.)",2014,,Penguin Books,London,608,0,English,111,,,"0141194618,9780141194615,9780141964324",,,,,,,,,,,0,,,,,,,,6606293,epub,107BB4CAA687FBF9BB15318207920138,,,Folk.epub,0,2021-03-17 02:24:31,2021-03-17 02:24:31,107bb4caa687fbf9bb15318207920138-g.jpg,,"0141194618,9780141194615,9780141964324"
32753523,Historische Tatsachen,80,,,Siegfried Egel,2000,,Vrij Historisch Onderzoek,Antwerpen,39,39,German,64,,,,,,,,,,,,,,0,,,0,1,1,,0,58538960,pdf,9CFFFB2E0A8C04A6EBDF47AAF82E2D56,,,historische-tatsachen-80.pdf,0,2021-03-17 02:25:02,2021-03-17 02:25:02,9cfffb2e0a8c04a6ebdf47aaf82e2d56-g.jpg,German-American relations,
32753524,Venire al mondo e dare alla luce,,,,Verena Schmid,2019,,Feltrinelli Editore,,279,0,Italian,,,,9788858837962,,B07VF7FLYM,,,,,,,,,0,,,,,,,,1249661,epub,9E3A5D9334D3886D14DA7BC5226735C4,,,Venire al mondo e dare alla luce_nodrm.epub,0,2021-03-17 02:33:49,2021-03-17 02:34:14,9e3a5d9334d3886d14da7bc5226735c4-g.jpg,,9788858837962
32753525,The Gutenberg Revolution: The Story of a Genius and an Invention That Changed the World,,,,John Man,2009,,Transworld Publishers,London,304,0,English,64,,,"0553819666,9780553819663,9781409045526",,,,,,,,,,,0,,,,,,,,2202349,epub,B0218A5E38DB6391A23DEA0D2CE72CE3,,,Mann.epub,0,2021-03-17 02:44:55,2021-03-17 02:44:55,b0218a5e38db6391a23dea0d2ce72ce3-g.jpg,,"0553819666,9780553819663,9781409045526"
32753526,The Concept of Meaninglessness,,,,Edward Erwin,2019,,Johns Hopkins University Press,,178,170,English,195,,,"1421430703,9781421430706",,,,,,,,,,,300,,,,,,1,1,4602710,djvu,166DC11D8D82BF8334AD8AD83FAEF4B6,,,The concept of meaninglessness.djvu,0,2021-03-17 02:46:58,2021-03-17 03:01:29,166dc11d8d82bf8334ad8ad83faef4b6-g.jpg,,"1421430703,9781421430706"
32753527,A Hebrew & Chaldee lexicon to the Old Testament,,,,Julius Fürst,1867,3,Williams & Norgate,London,,1562,English,322,,,,,,,,,,,,OL6329794M,,0,,,,,,,1,173829666,pdf,7499CC8E0A5892D3AB5057DC35019E4C,,,hebrewchaldeelex00frst.pdf,0,2021-03-17 02:51:30,2021-03-17 02:51:30,7499cc8e0a5892d3ab5057dc35019e4c-g.jpg,,
32753528,Perché parlavo da solo,,,,Paolo Bonolis,2019,,Rizzoli,,336,0,Italian,,,,"8817142158,9788817142151",,,,,,,,,,,0,,,,,,,,444519,epub,5738A1E5DBF5B67A8779F82D5DBDA5C7,,,Perché parlavo da solo_nodrm.epub,0,2021-03-17 02:58:42,2021-03-17 02:58:42,5738a1e5dbf5b67a8779f82d5dbda5c7-g.jpg,,"8817142158,9788817142151"
32753529,Revisiting Classical Economics : Studies in long-period analysis,,"Routledge Studies in the History of Economics, 168",,Heinz D. Kurz and Neri Salvadori,2015,,Routledge,,,347,English,,,,,,,,,,,,,,,0,,,,,,1,1,7139797,pdf,870E255BCE7FCC2841C7408C4C681B77,,,Revisiting Classical Economics.pdf,0,2021-03-04 15:46:45,2021-03-05 03:00:19,2930000/870e255bce7fcc2841c7408c4c681b77-g.jpg,,
32753530,Reporte de resultados del estudio de la Guerra Cristera,,,,,2006,,,,,176,Spanish,,,,,,,,,,,,,,,0,1,1,0,0,0,0,1,7930976,pdf,C9FA6D8477259C9FB1603763D2A97506,,,Lopez Amescua Luz Paola - Voces Del Pasado - La Guerra Cristera En El Estado De Guanajuato (1926-1929).pdf,0,2021-03-13 13:59:04,2021-03-13 23:32:37,c9fa6d8477259c9fb1603763d2a97506-g.jpg,,
32753531,Fuego Oculto,,,,Deborah Luzige,2015,,,,,0,Spanish,,,,,,,,,,,,,,,0,1,1,0,0,0,0,1,208679,epub,883625F4560B5EB5730BEFB952EECA6A,,,Luzige Deborah - Fuego Oculto - El Renacer De Una Mujer.epub,0,2021-03-13 17:52:35,2021-03-13 17:52:35,883625f4560b5eb5730befb952eeca6a-g.jpg,,
32753532,Русский филологический вестник,18 3 4,,,Александр Иванович Смирнов (ed.),1887,,Типография Марии Земкевич,Варшава,,430,Russian (Old),321,google,,,,,,,,,,,,,0,0,,0,1,1,0,0,15074479,pdf,B21F9286E1661D09B41609A49B9179E7,,,18 3-4 1887.pdf,0,2021-03-15 12:03:35,2021-03-15 12:03:35,b21f9286e1661d09b41609a49b9179e7-g.jpg,,
32753533,Русский филологический вестник,17 1 2,,,Александр Иванович Смирнов (ed.),1887,,Типография Марии Земкевич,Варшава,,465,Russian (Old),321,google,,,,,,,,,,,,,0,0,,0,1,1,0,0,17045953,pdf,6623A9233B2CC8E8B9E52C82D14FB380,,,17 1-2 1887.pdf,0,2021-03-15 12:10:34,2021-03-15 12:10:34,6623a9233b2cc8e8b9e52c82d14fb380-g.jpg,,
32753534,Types Of Digital Multimeters: The Basics Of Digital Multimeters: Digital Multimeter Price,,,,"Fath, Sulema",2021,,UNKNOWN,,,0,English,,,,,,B08YYW1N24,,,,,,,,,0,,,,,,,,5737664,epub,2DB42CB1F0BE131464A7935C051A7943,,,Types_Of_Digital_Multimeters_by_Sulema_Fath_.epub,0,2021-03-15 12:11:01,2021-03-15 12:11:01,2db42cb1f0be131464a7935c051a7943-g.jpg,,
32753535,MicroPython For Everyone: How To Use ESP32 And ESP8266: Micropython Arduino,,,,"Donelan, Lamont",2021,,UNKNOWN,,,0,English,,,,,,B08YYS789D,,,,,,,,,0,,,,,,,,6532890,epub,971970C27EEADA4A5C29D8469B192730,,,MicroPython_For_Everyone_by_Lamont_Donelan.epub,0,2021-03-15 12:11:24,2021-03-15 12:11:24,971970c27eeada4a5c29d8469b192730-g.jpg,,
32753536,The Concise Book of Acupoints,,,,John R. Cross,2014,,Blue River Press,,,0,English,,,,"9781935628286,9781935628774",,B00KPXPUR0,,,,,,iYyWmwEACAAJ,,,0,,,,,,,,9016384,epub,FA2D4FF29DC48B6DC32FC872B5D87A41,,,John R. Cross - The Concise Book Of Acupoints.epub,0,2021-03-15 12:26:43,2021-03-15 12:26:43,fa2d4ff29dc48b6dc32fc872b5d87a41-g.jpg,,"9781935628286,9781935628774"
32753537,Not Quite a Genius,,,,Nate Dern,2017,,Simon and Schuster,,,0,English,,,,9781501122224,,,,,,,,7CppDQAAQBAJ,,,0,,,,,,,,382597,epub,5CA655A286D3F4CDF5C748BFEBA0922F,,,Nate Dern - Not Quite a Genius.epub,0,2021-03-15 12:26:57,2021-03-15 12:26:57,5ca655a286d3f4cdf5c748bfeba0922f-g.jpg,,9781501122224
32753538,PYTORCH BASICS: FOR ABSOLUTE BEGINNERS,,,,"SEL, TAM",2021,,,,,0,English,,,,,,B08YX2X1H3,,,,,,,,,0,,,,,,,,648678,epub,978266105281EEC41C2EC64460FF8BB1,,,PYTORCH BASICS_ FOR ABSOLUTE BEGINNERS.epub,0,2021-03-15 12:27:12,2021-03-15 12:27:12,978266105281eec41c2ec64460ff8bb1-g.jpg,,
32753539,Seven Secrets of Time Travel,,,,Von Braschler,2012,,Inner Traditions / Bear & Company,,,0,English,,,,"9781594776953,2011045075",,,,,,,,,,,0,,,,,,,,469821,epub,D207AB308DE01FF0C0E31CA160689607,,,Von Braschler - Seven Secrets of Time Travel.epub,0,2021-03-15 12:27:26,2021-03-15 12:27:26,d207ab308de01ff0c0e31ca160689607-g.jpg,,"9781594776953,2011045075"
32753540,Murder by Injection; The Story of the Medical Conspiracy Against America,,,,Eustace Mullins,1988,,,,200,0,English,147,,,,,,,,,,,,,,0,,,,0,,1,,640876,epub,CA27AE2C6B70DA8FE285175AFDDB679A,,,Murder by Injection; The Story of the Medical Conspiracy Against America - Eustace Mullins.epub,0,2021-03-15 13:20:54,2021-03-15 13:20:54,ca27ae2c6b70da8fe285175afddb679a-g.jpg,"Medicine, history, American Medical Association, fraud, scam, quackery, monopoly, abuse, toxic exposure, rockefeller",
32753541,The Rape of Justice; America’s Tribunals Exposed,,,,Eustace Mullins,1989,,,,550,0,English,313,,,,,,,,,,,,,,0,,1,,0,,1,,736734,epub,2771B7324F1CC875635418DD6251F575,,,The Rape of Justice; America's Tribunals Exposed - Eustace Mullins.epub,0,2021-03-15 13:25:53,2021-03-15 13:25:53,2771b7324f1cc875635418dd6251f575-g.jpg,"Jurisprudence, lawyers, abuse, fraud, justice, courts, taxation",
32753542,Martin George R R - Wild Cards 02,,,,,,,,,,0,Spanish,,,,,,,,,,,,,,,0,1,1,0,0,0,0,1,946032,epub,EDD17A0D8A8174D1416ECBDEC269BE9F,,,Martin George R R - Wild Cards 02 - Ases En Lo Alto.epub,0,2021-03-15 16:08:51,2021-03-15 22:03:55,edd17a0d8a8174d1416ecbdec269be9f-g.jpg,,
32753543,Martin George R R - Wild Cards 03,,,,,,,,,,0,Spanish,,,,,,,,,,,,,,,0,1,1,0,0,0,0,1,1026902,epub,C59519147C74C4087C90F93A13F6B851,,,Martin George R R - Wild Cards 03 - Jokers Salvajes.epub,0,2021-03-15 16:09:08,2021-03-15 22:03:17,c59519147c74c4087c90f93a13f6b851-g.jpg,,
32753544,Scenarios for the Future of Technology and International Development,,,,Rockefeller foundation,2010,,,,,54,english,,,,,,,,,,,,,,,0,,,,,,,1,6503916,pdf,4F13BB70995543BBCC687FEE4D748C16,,,Rockefeller-Foundation.pdf,0,2021-03-15 16:27:23,2021-03-16 14:38:20,4f13bb70995543bbcc687fee4d748c16-g.jpg,,
32753545,Salud salvaje fitness revolucionario,,,,Marcos Vazquez,,,,,,0,English,,,,,,,,,,,,,,,0,,,,,,,,74420793,epub,0873FF06D1AB4384AF6F5305898626E6,,,Salud Salvaje by Marcos Vazquez.epub,0,2021-03-15 19:49:54,2021-03-15 19:49:54,0873ff06d1ab4384af6f5305898626e6-g.jpg,,
32753546,saludable mente habitos para optimizar tu cerebro,,,,marcos vazquez,,,,,,211,Spanish,,,,9788425359484,,,,,,,,,,,0,,,,,,1,1,3431119,pdf,F636573C15B9204792FB863E2EFABC09,,,Saludable mente Hábitos para optimizar tu cerebro y mejorar tu salud a cualquier edad by Marcos Vázquez.pdf,0,2021-03-15 19:54:15,2021-03-15 19:54:15,f636573c15b9204792fb863e2efabc09-g.jpg,,9788425359484
32753547,"The Home Stretch: 23 Powerful At-Home Exercises to Improve Posture, Reduce Pain & Live Well",,,,"Pavlovic, Danka",2021,,,,37,37,English,290,,,,,B08WKRXKJ5,,,,,,,,"The Home Stretch, 23 Powerful At-Home Exercises to Improve Posture, Reduce Pain & Live Well",0,,,,,,1,1,1846910,pdf,4545122975A895DB501FA792FB2CE74F,,,"The Home Stretch 23 Powerful At-Home Exercises to Improve Posture, Reduce Pain & Live Well by Danka Paulovic (2021).pdf",0,2021-03-16 01:17:01,2021-03-16 01:17:01,4545122975a895db501fa792fb2ce74f-g.jpg,"The Home Stretch, 23 Powerful At-Home Exercises to Improve Posture, Reduce Pain & Live Well",
32753548,"Stand Tall, Don't Fall: Improve Your Strength, Balance and Posture",,,,"Case, Bill PT",2017,,,,168,182,English,290,,,"9780692776766,0692776761",,B01N13Q7UQ,,,,,,,,"Stand Tall, Don't Fall, Improve Your Strength, Balance and Posture",0,,,,,,1,1,6320675,pdf,E4C7FA880D789101F75787314BEB9906,,,"Stand Tall, Don't Fall Improve Your Strength, Balance and Posture  by Bill Case, PT (2017).pdf",0,2021-03-16 01:34:45,2021-03-16 01:34:45,e4c7fa880d789101f75787314beb9906-g.jpg,"Stand Tall, Don't Fall, Improve Your Strength, Balance and Posture","9780692776766,0692776761"
32753549,代数学,,,,T. W. Hungerford; 冯克勤,1985,,湖南教育出版社,,741,745,Chinese,,,,,,,,,,,,,,,0,,,,,,1,0,20737201,pdf,D1F6C19D4E5B6960E9D211DB5CB72AA9,,,《代数学》亨格福德着；冯克勤译.pdf,0,2021-03-16 07:46:09,2021-03-16 07:46:09,d1f6c19d4e5b6960e9d211db5cb72aa9-g.jpg,,
32753550,博大精深的素数,,数学名著译丛,,P·里本伯姆; 孙淑玲; 冯克勤,2007,,科学出版社,,343,360,Chinese,,,,9787030173706,,,,,,,,,,,0,,,,,,1,0,30581690,pdf,E6739F8D0935AB2B963114E8AFF358BD,,,博大精深的素数-[加]P.里本伯姆著 孙淑玲 冯克勤译 科学出版社 2007.pdf,0,2021-03-16 07:49:39,2021-03-16 07:49:39,e6739f8d0935ab2b963114e8aff358bd-g.jpg,,9787030173706
32753551,纠错码的代数理论,,研究生数学丛书,,冯克勤,2005,,清华大学出版社,,144,155,Chinese,,,,9787302112549,,,,,,,,,,,0,,,,,,1,1,1831606,pdf,58D1444FFD557BF9342FE9B503EAB804,,,纠错码的代数理论.pdf,0,2021-03-16 07:51:06,2021-03-16 07:51:06,58d1444ffd557bf9342fe9b503eab804-g.jpg,,9787302112549
32753552,Известия Отделения русского языка и словесности Императорской Академии наук,10 3 4,,,,1905,,Типография Императорской Академии наук,Санктпетербург,[870],864,Russian (Old),321,rusneb.ru,,,,,,,,,,,,,600,0,1,0,1,1,0,0,17529901,djvu,8E819E088900F235B4CA91A93587DF88,,,10 3-4 1905.djvu,0,2021-03-16 12:25:26,2021-03-16 12:25:26,8e819e088900f235b4ca91a93587df88-g.jpg,,
32753553,Известия Отделения русского языка и словесности Императорской Академии наук,10 2,,,,1905,,Типография Императорской Академии наук,Санктпетербург,,464,Russian (Old),321,google,,,,,,,,,,,,,0,0,,0,1,1,0,0,21512291,pdf,2FAD3DA1BC348A8EF5BD2123075BD859,,,10 2 1905.pdf,0,2021-03-16 12:29:20,2021-03-16 12:30:12,2fad3da1bc348a8ef5bd2123075bd859-g.jpg,,
32753554,Известия Отделения русского языка и словесности Императорской Академии наук,10 1,,,,1905,,Типография Императорской Академии наук,Санктпетербург,,458,Russian (Old),321,google,,,,,,,,,,,,,0,0,,0,1,1,0,0,12761365,pdf,0DB7B591AAB15FD3027B29025321B7D1,,,10 1 1905.pdf,0,2021-03-16 12:31:49,2021-03-16 12:31:49,0db7b591aab15fd3027b29025321b7d1-g.jpg,,
32753555,Известия Отделения русского языка и словесности Императорской Академии наук,9 4,,,,1904,,Типография Императорской Академии наук,Санктпетербург,,392,Russian (Old),321,google,,,,,,,,,,,,,0,0,,0,1,1,0,0,12066930,pdf,7FBE6851C95C5CE3FE5FB95615583559,,,9 4 1904.pdf,0,2021-03-16 12:33:46,2021-03-16 12:33:46,7fbe6851c95c5ce3fe5fb95615583559-g.jpg,,
32753556,Известия Отделения русского языка и словесности Императорской Академии наук,9 3,,,,1904,,Типография Императорской Академии наук,Санктпетербург,,437,Russian (Old),321,google,,,,,,,,,,,,,0,0,,0,1,1,0,0,14114892,pdf,42F579FB3FA49071AEAE000864A153FB,,,9 3 1904.pdf,0,2021-03-16 12:35:39,2021-03-16 12:35:39,42f579fb3fa49071aeae000864a153fb-g.jpg,,
32753557,Известия Отделения русского языка и словесности Императорской Академии наук,9 2,,,,1904,,Типография Императорской Академии наук,Санктпетербург,,396,Russian (Old),321,google,,,,,,,,,,,,,0,0,,0,1,1,0,0,12372496,pdf,5664A4326C419586046558B8CABCD8D0,,,9 2 1904.pdf,0,2021-03-16 12:40:46,2021-03-16 12:40:46,5664a4326c419586046558b8cabcd8d0-g.jpg,,
32753558,Известия Отделения русского языка и словесности Императорской Академии наук,9 1,,,,1904,,Типография Императорской Академии наук,Санктпетербург,,452,Russian (Old),321,google,,,,,,,,,,,,,0,0,,0,1,1,0,0,12658344,pdf,300C4006BE47FF0D6B2EC8561B092018,,,9 1 1904.pdf,0,2021-03-16 12:42:50,2021-03-16 12:42:50,300c4006be47ff0d6b2ec8561b092018-g.jpg,,
32753559,Известия Отделения русского языка и словесности Императорской Академии наук,8 4,,,,1903,,Типография Императорской Академии наук,Санктпетербург,,406,Russian (Old),321,google,,,,,,,,,,,,,0,0,,0,1,1,0,0,15084322,pdf,B4B04BAE4165CE6DF079A800238BBF7C,,,8 4 1903.pdf,0,2021-03-16 12:44:47,2021-03-16 12:44:47,b4b04bae4165ce6df079a800238bbf7c-g.jpg,,
32753560,Известия Отделения русского языка и словесности Императорской Академии наук,8 2,,,,1903,,Типография Императорской Академии наук,Санктпетербург,,432,Russian (Old),321,google,,,,,,,,,,,,,0,0,,0,1,1,0,0,14740582,pdf,0A116F44F5BEB49A93791843C40F092A,,,8 2 1903.pdf,0,2021-03-16 12:49:05,2021-03-16 12:49:05,0a116f44f5beb49a93791843c40f092a-g.jpg,,
32753561,Известия Отделения русского языка и словесности Императорской Академии наук,8 1,,,,1903,,Типография Императорской Академии наук,Санктпетербург,,430,Russian (Old),321,google,,,,,,,,,,,,,0,0,,0,1,1,0,0,14719843,pdf,074BB5D6B8A0058EB9FAF3EF29D6EA8A,,,8 1 1903.pdf,0,2021-03-16 12:51:40,2021-03-16 12:51:40,074bb5d6b8a0058eb9faf3ef29d6ea8a-g.jpg,,
32753562,Известия Отделения русского языка и словесности Императорской Академии наук,7 4,,,,1902,,Типография Императорской Академии наук,Санктпетербург,,446,Russian (Old),321,google,,,,,,,,,,,,,0,0,,0,1,1,0,0,16411920,pdf,C8474B84E8526AF190C40D8465B1D05E,,,7 4 1902.pdf,0,2021-03-16 12:58:56,2021-03-16 12:58:56,c8474b84e8526af190c40d8465b1d05e-g.jpg,,
32753563,Известия Отделения русского языка и словесности Императорской Академии наук,7 3,,,,1902,,Типография Императорской Академии наук,Санктпетербург,,404,Russian (Old),321,google,,,,,,,,,,,,,0,0,,0,1,1,0,0,13485074,pdf,1FAD9E67B52E5363BA86A1ED46DC6A4D,,,7 3 1902.pdf,0,2021-03-16 13:01:11,2021-03-16 13:01:11,1fad9e67b52e5363ba86a1ed46dc6a4d-g.jpg,,
32753564,Известия Отделения русского языка и словесности Императорской Академии наук,7 2,,,,1902,,Типография Императорской Академии наук,Санктпетербург,,438,Russian (Old),321,google,,,,,,,,,,,,,0,0,,0,1,1,0,0,15740073,pdf,76A8A3E431A823518B52B183464A37C1,,,7 2 1902.pdf,0,2021-03-16 13:03:39,2021-03-16 13:03:39,76a8a3e431a823518b52b183464a37c1-g.jpg,,
32753565,The Great Ideas Today 1983,,,,Encyclopaedia Britannica,1983,,"Encyclopaedia Britannica, Inc.",,,488,English,,,,0852294115,,,,,,,,,,,300,1,1,0,1,1,1,1,22821640,pdf,99BD928F0809453A4ECB9F6D53869057,,,The Great Ideas Today 1983.pdf,0,2021-03-16 13:17:12,2021-03-16 13:17:12,99bd928f0809453a4ecb9f6d53869057-g.jpg,,0852294115
32753566,The Great Ideas Today 1985,,,,Encyclopaedia Britannica,1985,,"Encyclopaedia Britannica, Inc.",,,487,English,,,,085229431X,,,,,,,,,,,300,1,1,0,1,1,1,1,21570714,pdf,E1AF332329B1245C7040E30A7A8098EC,,,The Great Ideas Today 1985.pdf,0,2021-03-16 13:19:10,2021-03-16 13:19:10,e1af332329b1245c7040e30a7a8098ec-g.jpg,,085229431X
32753567,Известия Отделения русского языка и словесности Императорской Академии наук,7 1,,,,1902,,Типография Императорской Академии наук,Санктпетербург,,422,Russian (Old),321,google,,,,,,,,,,,,,0,0,,0,1,1,0,0,13607238,pdf,B93219731CF7F4FD79087D83FA6B2FE3,,,7 1 1902.pdf,0,2021-03-16 13:21:01,2021-03-16 13:21:01,b93219731cf7f4fd79087d83fa6b2fe3-g.jpg,,
32753568,Известия Отделения русского языка и словесности Императорской Академии наук,6 4,,,,1901,,Типография Императорской Академии наук,Санктпетербург,,374,Russian (Old),321,google,,,,,,,,,,,,,0,0,,0,1,1,0,0,13237287,pdf,E9C2021999D862A746560CB211B4E31D,,,6 4 1901.pdf,0,2021-03-16 13:23:43,2021-03-16 13:23:43,e9c2021999d862a746560cb211b4e31d-g.jpg,,
32753569,Известия Отделения русского языка и словесности Императорской Академии наук,6 3,,,,1901,,Типография Императорской Академии наук,Санктпетербург,,368,Russian (Old),321,google,,,,,,,,,,,,,0,0,,0,1,1,0,0,11750566,pdf,50FAC17BA81ADA8D178C4A700EF886BA,,,6 3 1901.pdf,0,2021-03-16 13:25:20,2021-03-16 13:25:20,50fac17ba81ada8d178c4a700ef886ba-g.jpg,,
32753570,Известия Отделения русского языка и словесности Императорской Академии наук,6 2,,,,1901,,Типография Императорской Академии наук,Санктпетербург,,388,Russian (Old),321,google,,,,,,,,,,,,,0,0,,0,1,1,0,0,12726986,pdf,D0A55F74EF1F0F708630A6AA818C76A3,,,6 2 1901.pdf,0,2021-03-16 13:28:13,2021-03-16 13:28:13,d0a55f74ef1f0f708630a6aa818c76a3-g.jpg,,
32753571,Kommunikation ist möglich,,,,Andreas Huckele,,2019,,,43,43,German,200,https://andreas-huckele.de,,,,,,,,,,,,,0,1,,0,1,0,,,748683,pdf,4DF5B3AE72571D212AB4E1B90F6DAF56,,,Andreas Huckele - Kommunikation ist möglich.pdf,0,2021-03-16 13:29:49,2021-03-16 13:29:49,4df5b3ae72571d212ab4e1b90f6daf56-g.jpg,,
32753572,Известия Отделения русского языка и словесности Императорской Академии наук,6 1,,,,1901,,Типография Императорской Академии наук,Санктпетербург,,364,Russian (Old),321,google,,,,,,,,,,,,,0,0,,0,1,1,0,0,13358808,pdf,2081467C3EDC87CCBF9558934ACD4B4E,,,6 1 1901.pdf,0,2021-03-16 13:36:54,2021-03-16 13:36:54,2081467c3edc87ccbf9558934acd4b4e-g.jpg,,
32753573,Известия Отделения русского языка и словесности Императорской Академии наук,5 4,,,,1900,,Типография Императорской Академии наук,Санктпетербург,,358,Russian (Old),321,google,,,,,,,,,,,,,0,0,,0,1,1,0,0,18047841,pdf,B30493EBD53B75495E0F55552A2572EF,,,5 4 1900.pdf,0,2021-03-16 13:38:59,2021-03-16 13:38:59,b30493ebd53b75495e0f55552a2572ef-g.jpg,,
32753574,Известия Отделения русского языка и словесности Императорской Академии наук,5 3,,,,1900,,Типография Императорской Академии наук,Санктпетербург,,330,Russian (Old),321,google,,,,,,,,,,,,,0,0,,0,1,1,0,0,13993323,pdf,0B70ECF9F840273B3CC95CB9A05970C7,,,5 3 1900.pdf,0,2021-03-16 13:40:37,2021-03-16 13:40:37,0b70ecf9f840273b3cc95cb9a05970c7-g.jpg,,
32753575,Известия Отделения русского языка и словесности Императорской Академии наук,5 2,,,,1900,,Типография Императорской Академии наук,Санктпетербург,,408,Russian (Old),321,google,,,,,,,,,,,,,0,0,,0,1,1,0,0,19458613,pdf,EECDAFE77317ED3CAD7CADD870089BFF,,,5 2 1900.pdf,0,2021-03-16 13:43:34,2021-03-16 13:43:34,eecdafe77317ed3cad7cadd870089bff-g.jpg,,
32753576,Кибербезопасность в условиях электронного банкинга,,,,П.В. Ревенков (ред.),2020,,Прометей,М.,522,523,Russian,,,,9785907244610,,,,,,,,,,,0,0,,0,1,0,0,1,11415398,pdf,25AC4845FBE0DEAB45AAF72992C2F9EC,,,Ревенков - Кибербезопасность в условиях электронного банкинга - 2020.pdf,0,2021-03-16 13:46:15,2021-03-16 13:46:15,25ac4845fbe0deab45aaf72992c2f9ec-g.jpg,bank,9785907244610
32753577,Известия Отделения русского языка и словесности Императорской Академии наук,5 1,,,,1900,,Типография Императорской Академии наук,Санктпетербург,,370,Russian (Old),321,google,,,,,,,,,,,,,0,0,,0,1,1,0,0,14994601,pdf,199CD242FA77407D66CEFB565E631E69,,,5 1 1900.pdf,0,2021-03-16 13:52:11,2021-03-16 13:52:11,199cd242fa77407d66cefb565e631e69-g.jpg,,
32753578,Arabian Satire,,,,Ḥmēdān al-Shwēʿir,2020,,NYU Press,,,0,English,,,,9781479840274,,,,,,,,,,,0,,,,,,,,4167356,epub,B94685A225B8D7CDB565394C35F1FD85,,,Arabian.Satire.epub,0,2021-03-16 13:55:17,2021-03-16 13:55:17,b94685a225b8d7cdb565394c35f1fd85-g.jpg,,9781479840274
32753579,Известия Отделения русского языка и словесности Императорской Академии наук,2 4,,,,1897,,Типография Императорской Академии наук,Санктпетербург,,323,Russian (Old),321,google,,,,,,,,,,,,,0,0,,0,1,1,0,0,12736510,pdf,9FDC00ECE56C3A0556AB5EB6765C4C8D,,,2 4 1897.pdf,0,2021-03-16 13:56:01,2021-03-16 13:56:01,9fdc00ece56c3a0556ab5eb6765c4c8d-g.jpg,,
32753580,Известия Отделения русского языка и словесности Императорской Академии наук,2 3,,,,1897,,Типография Императорской Академии наук,Санктпетербург,,274,Russian (Old),321,google,,,,,,,,,,,,,0,0,,0,1,1,0,0,10851710,pdf,79B2D560B25CE6457C9635AD778AD78E,,,2 3 1897.pdf,0,2021-03-16 13:58:02,2021-03-16 13:58:02,79b2d560b25ce6457c9635ad778ad78e-g.jpg,,
32753581,Известия Отделения русского языка и словесности Императорской Академии наук,2 2,,,,1897,,Типография Императорской Академии наук,Санктпетербург,,303,Russian (Old),321,google,,,,,,,,,,,,,0,0,,0,1,1,0,0,11096789,pdf,D9F846B3F4AA6A89857CD61591FC21CD,,,2 2 1897.pdf,0,2021-03-16 13:59:31,2021-03-16 13:59:31,d9f846b3f4aa6a89857cd61591fc21cd-g.jpg,,
32753582,How To Program Using SQL: The Ultimate Guide For Beginners: How To Learn Sql Programming Beginners,,,,"Ringeisen, Leone",2021,,UNKNOWN,,,0,English,,,,,,B08Z26BKQL,,,,,,,,,0,,,,,,,,18717737,epub,3CED3EDC2AE3DABBAF8036D5554E7473,,,How_To_Program_Using_SQL_by_Leone_Ringeisen_.epub,0,2021-03-16 14:00:16,2021-03-16 14:00:16,3ced3edc2ae3dabbaf8036d5554e7473-g.jpg,,
32753583,Известия Отделения русского языка и словесности Императорской Академии наук,2 1,,,,1897,,Типография Императорской Академии наук,Санктпетербург,,292,Russian (Old),321,google,,,,,,,,,,,,,0,0,,0,1,1,0,0,11277476,pdf,913EE51E4A72066349D7CD1DD9D93F2A,,,2 1 1897.pdf,0,2021-03-16 14:01:08,2021-03-16 14:01:08,913ee51e4a72066349d7cd1dd9d93f2a-g.jpg,,
32753584,Learn MYSQL: Learn MYSQL For Beginners: Learn How To Create An Address Book Using Php And Mysql,,,,"Margerum, Cherie",2021,,UNKNOWN,,,0,English,,,,,,B08Z3S7ZR7,,,,,,,,,0,,,,,,,,24593810,epub,8BD5DF1FD389ED49F00CED2E1D51F13B,,,Learn_MYSQL_by_Cherie_Margerum.epub,0,2021-03-16 14:01:46,2021-03-16 14:01:46,8bd5df1fd389ed49f00ced2e1d51f13b-g.jpg,,
32753585,Известия Отделения русского языка и словесности Императорской Академии наук,1 4,,,,1896,,Типография Императорской Академии наук,Санктпетербург,,366,Russian (Old),321,google,,,,,,,,,,,,,0,0,,0,1,1,0,0,14726027,pdf,8E70B6B1FAD6B87D46E627778553CDF1,,,1 4 1896.pdf,0,2021-03-16 14:02:47,2021-03-16 14:05:03,8e70b6b1fad6b87d46e627778553cdf1-g.jpg,,
32753586,Известия Отделения русского языка и словесности Императорской Академии наук,1 3,,,,1896,,Типография Императорской Академии наук,Санктпетербург,,213,Russian (Old),321,google,,,,,,,,,,,,,0,0,,0,1,1,0,0,7950355,pdf,0CEAF0F4DF62688FDDB084A7DF183961,,,1 3 1896.pdf,0,2021-03-16 14:04:32,2021-03-16 14:04:32,0ceaf0f4df62688fddb084a7df183961-g.jpg,,
32753587,הנסתר שבגלוי (The Elusive Obvious),,,,משה פלדנקרייז (Moshe Feldenkrais),1983,,אל״ף (Alef),,185,196,Hebrew,,,,,,,,,,,,,,,0,,,,,1,,1,67048543,pdf,BD2F52AD55B3D3637416F9A950468E1B,,,הנסתר שבגלוי (The Elusive Obvious)_  (Moshe Feldenkrais) משה פלדנקרייז_A-4Ej.pdf,0,2021-03-16 14:07:43,2021-03-16 14:07:43,bd2f52ad55b3d3637416f9a950468e1b-g.jpg,,
32753588,Известия Отделения русского языка и словесности Императорской Академии наук,1 2,,,,1896,,Типография Императорской Академии наук,Санктпетербург,,208,Russian (Old),321,google,,,,,,,,,,,,,0,0,,0,1,1,0,0,8776999,pdf,CC4E724DB9571509909726FE51A291DC,,,1 2 1896.pdf,0,2021-03-16 14:08:14,2021-03-16 14:08:14,cc4e724db9571509909726fe51a291dc-g.jpg,,
32753589,Известия Отделения русского языка и словесности Императорской Академии наук,1 1,,,,1896,,Типография Императорской Академии наук,Санктпетербург,,251,Russian (Old),321,google,,,,,,,,,,,,,0,0,,0,1,1,0,0,9876076,pdf,B59AAA6852AA90CF4D6CDF8B81070D7C,,,1 1 1896.pdf,0,2021-03-16 14:09:56,2021-03-16 14:09:56,b59aaa6852aa90cf4d6cdf8b81070d7c-g.jpg,,
32753590,JavaScript. Полное руководство: справочник по самому популярному языку программирования,,,,Дэвид Флэнаган,2021,7,Диалектика,Санкт-Петербург,720,732,Russian,,,,9785907203792,,,,З973.233.02-018.19JavaScript.я22,,,,,,,0,0,,0,1,1,1,1,56002332,pdf,6733BDCD702C15EAFB9EE55CC1B5DA7B,,,Флэнаган - JavaScript. Полное руководство. 7-е - 2021.pdf,0,2021-03-16 14:15:28,2021-03-16 14:15:28,6733bdcd702c15eafb9ee55cc1b5da7b-g.jpg,javascript,9785907203792
32753591,Машинное обучение: алгоритмы для бизнеса,,,,Маркос Лопез де Прадо,2019,,Питер,СПб.,432,434,Russian,,,,"9785446111541,9781119482086",,,,,,,,,,,0,0,,0,1,1,0,1,58306810,pdf,ADF6A2E50FC7CD6CD9720A66B866E4E8,,,Прадо - Машинное обучение алгоритмы для бизнеса - 2019.pdf,0,2021-03-16 14:22:24,2021-03-16 14:22:24,adf6a2e50fc7cd6cd9720a66b866e4e8-g.jpg,,"9785446111541,9781119482086"
32753592,The Latest Computer Vision for Beginners and Experts: Procedure and Demand,,,,Harry Leonard,2021,,,,,0,English,,,,,,B08YK5NYDY,,,,,,,,,0,,,,,,,,184756,epub,1D672467C5B547260423EBD5C3B925AC,,,THE LATEST COMPUTER VISION For Beginners And Experts _ Procedure And Demand.epub,0,2021-03-16 14:26:06,2021-03-17 00:08:13,1d672467c5b547260423ebd5c3b925ac-g.jpg,,
32753593,The British Empire at Home and Abroad,1,,,Edgar Sanderson,1902,,Gresham Publishing,London,,450,English,,,,,,,,,,,,,,,300,1,1,0,1,1,1,1,61836717,pdf,72DF9B151A87890D1C37581A0B84A7F6,,,British Empire at Home and Abroad 1902 v1.pdf,0,2021-03-16 15:37:45,2021-03-16 15:37:45,72df9b151a87890d1c37581a0b84a7f6-g.jpg,,
32753594,The British Empire at Home and Abroad,2,,,Edgar Sanderson,1902,,Gresham Publishing,London,,491,English,64,,,,,,,,,,,,,,300,1,1,0,1,1,1,1,164638665,pdf,CA876D994B593622CD6CD21E7FBF8949,,,British Empire at Home and Abroad 1902 v2.pdf,0,2021-03-16 15:45:05,2021-03-16 15:45:05,ca876d994b593622cd6cd21e7fbf8949-g.jpg,,
32753595,The British Empire at Home and Abroad,3,,,Edgar Sanderson,1902,,Gresham Publishing,l,,459,English,64,,,,,,,,,,,,,,300,1,1,0,1,1,1,1,26892757,pdf,56035ED8379A14B9B5A6D853B24B4567,,,British Empire at Home and Abroad 1902 v3.pdf,0,2021-03-16 15:47:49,2021-03-16 15:47:49,56035ed8379a14b9b5a6d853b24b4567-g.jpg,,
32753596,The British Empire at Home and Abroad,4,,,Edgar Sanderson,1902,,Gresham Publishing,London,,453,English,64,,,,,,,,,,,,,,300,1,1,0,1,1,1,1,29013591,pdf,B44C7A1B41FE71E7B0B9ECBF721FC482,,,British Empire at Home and Abroad 1902 v4.pdf,0,2021-03-16 15:50:29,2021-03-16 15:50:29,b44c7a1b41fe71e7b0b9ecbf721fc482-g.jpg,,
32753597,»A civil társadalmi részvétel alakulása és fejlődése Közép-Európában 1990-től napjainkig« Közép-Európai Civil Konferencia: Kecskemét 2017. október 12–14.,,,,ed. Alföldi Civilekért Alapítvány,2018,,Alföldi Civilekért Alapítvány,Kecskemét,128,132,Hungarian and English,,,,,,,,,,,,,,,0,,,,,,1,1,11424634,pdf,327E682E45129BFC648BA6EB047D6013,,,CivilRészvétel(Kecskemét2017).pdf,0,2021-03-16 17:30:07,2021-03-16 17:30:07,327e682e45129bfc648ba6eb047d6013-g.jpg,,
32753598,"正義理論及其實踐 / Gerechtigkeit - Theorie und Praxis Justice / Theory and Practice // May 25-27, 2009 Taipei, Taiwan",,,,hrsg./ed. Shing-I Liu & Ulfried Neumann,2009,,[National Taipei University],[Taipei],12 + 12,24,Chinese and German or English,,,,,,,,,,,,,,,0,,,,,,,1,411844,pdf,166B191B0257A665CCF3B1BBCE5CCE99,,,"IVR,Taipei(2009.05.26)abstracts-Chinese+English.pdf",0,2021-03-16 18:45:26,2021-03-16 18:45:26,166b191b0257a665ccf3b1bbce5cce99-g.jpg,,
32753599,"Fundamentos de la Investigación Pedagógica I; Técnicas Bibliográficas, Hemerográficas y Documentales I",,Pedagogía SUAYED Primer semestre,,,2011,,SUAyED UNAM,,,296,Spanish,,,,,,,,,,,,,,,0,,,,,,,0,19617801,pdf,986D518731A326C59D5CE6DF6512C366,,,Fundamentos 1 - Tecnicas 1.pdf,0,2021-03-16 20:45:53,2021-03-17 00:01:17,986d518731a326c59d5ce6df6512c366-g.jpg,,
32753600,从单位圆谈起,,,,华罗庚,1977,,科学出版社,,200,204,Chinese,,,,,,,,,,,,,,,0,,,,,,1,1,3437346,pdf,13738C5CDEDCC13BCCC537EC2397837A,,,从单位圆谈起.pdf,0,2021-03-16 21:06:53,2021-03-16 21:06:53,13738c5cdedcc13bccc537ec2397837a-g.jpg,,
32753601,Bash. Карманный справочник системного администратора,,,,Арнольд Роббинс,2017,2,Альфа-книга,Санкт-Петербург,150,150,Russian,,,,9785990944541,,,681.3.07,,,,,,,,300,0,1,0,,,0,1,1180166,djvu,8E5AB633E98F3404D6031834C4458A8F,,,Bash Карманный справочник системного администратора Роббинс.А 2017 ocr.djvu,0,2021-03-16 21:27:42,2021-03-17 00:16:16,8e5ab633e98f3404d6031834c4458a8f-g.jpg,,9785990944541
32753602,Миф о рациональном избирателе: почему демократии выбирают плохую политику,,"Серия: \Политическая наука\""""",,Каплан Брайан,2012,,Мысль,Москва,"364, [1] с.",364,Russian,,,,"9785910660490,9785244011494",,,,"С555.511,0",,,,,,,0,,,,,1,,1,93301694,pdf,25BC715BD16C0E7FDCFD303BCC2DB90B,,,"Каплан Брайан — Миф о рациональном избирателе. Почему демократии выбирают плохую политику (Серия «Политическая наука») (ИРИСЭН, Мысль, 2012).pdf",0,2021-03-16 21:36:57,2021-03-16 21:36:57,25bc715bd16c0e7fdcfd303bcc2db90b-g.jpg,,"9785910660490,9785244011494"
32753603,Мышление: пятнадцать уроков для начинающих авторов,,,,Ружийэро Винсент Райан,2006,,Наука,Москва,"437, [2] с.",442,Russian,,,,"5893499514,502034690X",,,,Ю935.131я73-1,,,,,,,0,,,,,1,1,1,41832753,pdf,69C86B61944F3A961A3B3F920103B970,,,"Ружиэйро Винсент Райан — Мышление. Пятнадцать уроков для начинающих авторов (Флинта, Наука, 2006).pdf",0,2021-03-16 22:05:57,2021-03-16 22:05:57,69c86b61944f3a961a3b3f920103b970-g.jpg,,"5893499514,502034690X"
32753604,倦怠社会,,韩炳哲作品,,韩炳哲,2019,,中信出版集团,,120,0,Chinese,,,,9787521704693,,,,,,,,,,,0,,,,,,,,108017,epub,77C6713B37ED3ABDDFBEB5432DAF07F9,,,倦怠社会.epub,0,2021-03-16 23:19:42,2021-03-16 23:19:42,77c6713b37ed3abddfbeb5432daf07f9-g.jpg,,9787521704693
32753605,Bricktown,,Images of Modern America,,Steve Lackmeyer,2016,,Arcadia Publishing,,96,0,English,,,,"1439657971,9781439657973",,B01MEF3R9S,,,,,,rkZIDQAAQBAJ,,,0,,,,,,,,16243324,epub,7BBB1213637AEDCA6AA5AE6288B4DB9F,,,Bricktown.epub,0,2021-03-16 23:53:50,2021-03-17 00:15:29,7bbb1213637aedca6aa5ae6288b4db9f-d.jpg,,"1439657971,9781439657973"
32753606,C#: 3 in 1- Beginner's Guide+ Simple and Effective Tips and Tricks+ Advanced Guide to Learn C# Programming Effectively,,,,"Smith, Benjamin",2021,,,,,0,English,,,,,,B08Z487ZV5,,,,,,,,,0,,,,,,,,15169786,epub,A461FE88B3D0643B99633593D1AA9BCB,,,C_by_Benjamin_Smith_UserUpload.Net.epub,0,2021-03-16 23:54:41,2021-03-16 23:54:41,a461fe88b3d0643b99633593d1aa9bcb-g.jpg,,
32753607,DATA ANALYTICS: 3 in 1- Beginner's Guide+ Simple and Effective Tips and Tricks+ Advanced Guide to Learn the Realms of Data Analytics Effectively,,,,"Smith, Benjamin",2021,,,,,0,English,,,,,,B08Z483L62,,,,,,,,,0,,,,,,,,7914975,epub,40AB46E5AE4B402349EBB15B5D50AB45,,,Data_Analytics_3_in_1_by_Benjamin_Smith_UserUpload.Net.epub,0,2021-03-17 00:01:48,2021-03-17 00:01:48,40ab46e5ae4b402349ebb15b5d50ab45-g.jpg,,
32753608,"Fleshing out surfaces: Skin in French art and medicine, 1650-1850",,,,Mechthild Fend,2017,,Manchester University Press,,352,347,English,,,,"0719087961,9780719087967",,,,,,,,,,,0,,,,,,1,1,62675977,pdf,DFE0CF51DC86F61E1B3498B9AEB23F9D,,,Fleshing Out Surfaces_ Skin in - Mechthild Fend.pdf,0,2021-03-17 01:03:59,2021-03-17 01:03:59,dfe0cf51dc86f61e1b3498b9aeb23f9d-g.jpg,,"0719087961,9780719087967"
32753609,"Immigration, Assimilation, and the Cultural Construction of American National Identity",,"Routledge Research in Race and Ethnicity, 14",,Shannon Latkin Anderson,2016,,Routledge,,,254,English,,,,"2015026490,9781138100411,9781315657677",,,,,,,,,,,0,,,,,,1,1,1567563,pdf,AE29913159018BD8921E997C9A63812E,,,"Immigration, Assimilation, and the Cultural Construction of American National Identity.pdf",0,2021-03-17 01:05:53,2021-03-17 01:05:53,ae29913159018bd8921e997c9a63812e-g.jpg,,"2015026490,9781138100411,9781315657677"
32753610,自由書,,在 瓜分危言 ; 第2卷 梁啟超全集 ; 第1冊(336-408面),,梁啟超,1999,1,北京出版社,北京市,,36,Chinese,,,,7200037036,,,,,,,,,,,0,,,,,,,0,10740705,pdf,8126B1F3640060FF71861203947068BC,,,自由書梁啟超 17032021131548-0001.pdf,0,2021-03-17 01:15:43,2021-03-17 01:15:43,8126b1f3640060ff71861203947068bc-g.jpg,,7200037036
32753611,The Spartan Tradition in European Thought,,,,"Rawson, Elizabeth",1969,,Clarendon Press,Oxford,390,408,English,,,,,,,,,,,,,,,0,,,,,,,1,24641754,pdf,20F1BC36748B833BCC3F5CCBA1E5FCD3,,,Rawson.pdf,0,2021-03-17 01:26:38,2021-03-17 01:26:38,20f1bc36748b833bcc3f5ccba1e5fcd3-g.jpg,,
32753612,Homer: Iliad Book XXIV,,Cambridge Greek and Latin Classics,,"Macleod, Colin W.",1982,,Cambridge University Press,Cambridge,ix + 161,171,English,,,,0521286204,,,,,,,,,,,0,,,,,,,0,9199055,pdf,5CE66164F7B40BA44C3FB277C734F09F,,,Macleod.pdf,0,2021-03-17 01:32:18,2021-03-17 01:32:18,5ce66164f7b40ba44c3fb277c734f09f-g.jpg,,0521286204
32753613,Deutsch-Amerikanische Geschichtsblätter,7,,,,1907,,Deutsch-Amerikanische Historische Gesellschaft,"Chicago, IL",257,257,German,65,,,,,,,,,,,,,,0,,,0,1,1,,1,27258244,pdf,856BD67D4F9221AFA21484EB73901A5B,,,Dt-Am Geschichtsblätter 07.pdf,0,2021-03-17 01:42:50,2021-03-17 01:58:21,856bd67d4f9221afa21484eb73901a5b-g.jpg,German-American relations,
32753614,The BFI Companion to Crime,,,,Phil Hardy,1998,,University of California Press,,352,360,ENGLISH,60,,,9780520215382,,,,,,,,,,,0,,,,,,,1,131394143,pdf,1A3D211586B437D72A9B7AAD842FD45E,,,Phil Hardy - The BFI Companion to Crime (University of California Press) [1998] [9780520215382].pdf,0,2021-03-17 02:05:01,2021-03-17 02:05:01,1a3d211586b437d72a9b7aad842fd45e-g.jpg,,9780520215382
32753615,The Bee Book,,,,Charlotte Milner,2018,,DK Publishing,,,48,English,,,,9781465465535,,,,,,,,,,,0,,,,,,1,1,33256451,pdf,4115A4680DFEBDFAE760CBAB32121BE3,,,"DK - The Bee Book, Charlotte Milner.pdf",0,2021-03-17 02:05:08,2021-03-17 02:05:08,4115a4680dfebdfae760cbab32121be3-g.jpg,,9781465465535
32753616,力学（上、下册）,,物理学大题典,,强元棨; 程稼夫,2005,,科学出版社,,1074,1091,Chinese,,,,9787030154941,,,,,,,,,,,0,0,0,,,1,0,0,30375337,pdf,86E146D2397160D233FC1F919FA28E82,,,[物理学大题典].1.力学（上下册）.强元棨&程稼夫.扫描版.pdf,0,2021-03-17 02:34:17,2021-03-17 02:34:17,86e146d2397160d233fc1f919fa28e82-g.jpg,,9787030154941
32753617,定性与半定量物理学,,,,赵凯华,1991,,高等教育出版社,,272,277,Chinese,,,,9787040035025,,,,,,,,,,,0,0,0,,,1,0,0,5871812,pdf,44BA137D2370A09E72B2A552AF0B09FE,,,_定性与半定量物理学.pdf,0,2021-03-17 02:36:43,2021-03-17 02:36:43,44ba137d2370a09e72b2a552af0b09fe-g.jpg,,9787040035025
32753618,光学,,物理学大题典,,轩植华,2005,,科学出版社,,358,365,Chinese,,,,9787030154934,,,,,,,,,,,0,0,0,,,1,0,0,9379699,pdf,526068A607DB42B2116896DA5413E3BE,,,《物理学大题典》3+光学.pdf,0,2021-03-17 02:39:09,2021-03-17 02:39:09,526068a607db42b2116896da5413e3be-g.jpg,,9787030154934
32753619,量子力学,,物理学大题典,,张永德,2005,,科学出版社,,739,768,Chinese,,,,9787030145109,,,,,,,,,,,0,0,0,,,1,0,0,18749517,pdf,23C171035537334FFE2F873BEA180DFC,,,《物理学大题典》6.量子力学.张永德等.pdf,0,2021-03-17 02:43:29,2021-03-17 02:43:29,23c171035537334ffe2f873bea180dfc-g.jpg,,9787030145109
32753620,Glory of Brahma Vidya (Glory of Brahmavidya),,,,"Swami Tapovanam (author), Swami Chinmayananda (translator)",,,Chinmaya Mission,,,24,English,,,,,,,,,,,,,,,0,,,,,,,0,5555135,pdf,37623942ABC17A8D3DB7E67104B0ADEF,,,The Glory of Brahmavidya.pdf,0,2021-03-17 02:44:02,2021-03-17 02:47:36,37623942abc17a8d3db7e67104b0adef-g.jpg,,
32753621,Vis & Ramin,,,,Fakhr al-Dīn Gurgānī; Dick Davis,2008,,Mage Publishers,"Washington, DC",517,571,English,109,,,,,,,,,,,7IMrAQAAMAAJ,,,0,,,,1,1,1,1,126334474,pdf,3878D3381C2C70C154608DD4D2A08B73,,,vis-ramin-davis.pdf,0,2021-03-17 02:47:15,2021-03-17 02:47:15,3878d3381c2c70c154608dd4d2a08b73-g.jpg,Literature; Poetry; Persia; Iran; Persian Literature; 11th Century,
32753622,固体物理及物理量测量,,物理学大题典,,林鸿生,2005,,科学出版社,,327,335,Chinese,,,,9787030156785,,,,,,,,,,,0,0,0,,,1,0,0,8502207,pdf,EE4E0FD076D8426C2C4467967C686EA9,,,《物理学大题典》7+固体物理及物理量测量+准清晰版.pdf,0,2021-03-17 02:48:54,2021-03-17 02:48:54,ee4e0fd076d8426c2c4467967c686ea9-g.jpg,,9787030156785
32753623,微分几何入门与广义相对论（上册 中册 下册·第二版）,,现代物理基础丛书,,梁灿彬; 周彬,2006,,科学出版社,,442,1221,Chinese,,,,"9787030164605,9787030240576,9787030252319",,,,,,,,,,,0,0,0,,,1,1,0,35760675,pdf,F389E7E34646DABBDF9A1969EEF5D063,,,2ed.pdf,0,2021-03-17 02:54:43,2021-03-17 02:54:43,f389e7e34646dabbdf9a1969eef5d063-g.jpg,,"9787030164605,9787030240576,9787030252319"
32753624,20 solfeggi parlati di media difficoltà in chiave di Sol,,,,Lazzari,1955,,Crisopoli,,21,21,Italian,61,,,,,,,,,,,,,,0,,,,,,1,0,3974008,pdf,1CE15171299083B8852CD2E74180975D,,,243543780-Lazzari-PDF.pdf,0,2021-03-17 03:01:53,2021-03-17 03:26:08,1ce15171299083b8852cd2e74180975d-g.jpg,,
32753625,Gaussian Harmonic Analysis,,Springer Monographs in Mathematic,,Wilfredo Urbina-Romero,2019,Corrected version,Springer,,477,501,English,117,,,"9783030055967,9783030055974,2018968525",,,,,,,10.1007/978-3-030-05597-4,,,,0,,,,,,1,1,5465971,pdf,999285171BCA216BD8033035DD99147F,,,Gaussian Harmonic Analysis.pdf,0,2021-03-17 03:07:46,2021-03-17 03:07:46,999285171bca216bd8033035dd99147f-g.jpg,,"9783030055967,9783030055974,2018968525"
32753626,White Trash: Race and Class in America,,,,Annalee Newitz; Matt Wray,1997,,Routledge,,288,281,English,,,,"0415916917,9780415916912",,,,,,,,,,,0,,,,,,1,1,5087397,pdf,89E20EC3CE6BB3E487AEB8758DF141D8,,,White trash Race and class in America - Copy.pdf,0,2021-03-17 03:17:33,2021-03-17 03:17:33,89e20ec3ce6bb3e487aeb8758df141d8-g.jpg,,"0415916917,9780415916912"
32753627,The End Game: How Inequality Shapes Our Final Years,,,,Corey M. Abramson,2015,,Harvard University Press,,256,257,English,,,,"9780674286825,0674286820",,,,,,,,c77FCQAAQBAJ,,,0,,,,,,1,1,1787268,pdf,52BC76F8A1E7F476519154B31106A9A3,,,The End Game_ How Inequality Sh - Corey M. Abramson.pdf,0,2021-03-17 03:18:36,2021-03-17 03:22:10,52bc76f8a1e7f476519154b31106a9a3-g.jpg,,"9780674286825,0674286820"
32753628,Enséñame a olvidarte,,,,Isabella Marín,2016,,,,,0,Spanish,,,,,,,,,,,,,,,0,1,1,0,0,0,0,1,515737,epub,4E4BC2264390A99FDDDF8595B2161567,,,Marin Isabella - Ense�ame A Olvidarte.epub,0,2021-03-15 14:22:51,2021-03-15 22:08:37,4e4bc2264390a99fdddf8595b2161567-g.jpg,,
32753629,La decisión de la señorita Moon. Tercera Parte. (Spanish Edition),,,,Patricia Marin,2017,,Cuentos íntimos,,,0,Spanish,,,,,,,,,,,,,,,0,1,1,0,0,0,0,1,142519,epub,AD566396659D13351273C5ADBD8B0FD2,,,Marin Paty C - La Decision De La Senorita Moon.epub,0,2021-03-15 14:26:24,2021-03-15 14:26:24,ad566396659d13351273c5adbd8b0fd2-g.jpg,,
32753630,"Optimal Training Sequences to Develop Lower Body Force, Velocity, Power, and Jump Height: A Systematic Review with Meta‑Analysis",,,Sports Medicine,"James Marshall, Chris Bishop, Anthony Turner, G. Gregory Haff",2021,,Springer,,,27,English,,,,,,,,,,,10.1007/s40279-021-01430-z,,,,0,,,,,,,1,6161819,pdf,A5C50C7DBC6BC3664FD816B536F44756,,,10.1007_s40279-021-01430-z.pdf,0,2021-03-15 14:30:56,2021-03-15 14:30:56,a5c50c7dbc6bc3664fd816b536f44756-g.jpg,,
32753631,Советские писатели на фронтах Великой Отечественной войны. Кн. 2,78.2,Литературное наследство. Том 78. Кн.2,,,1966,,Наука,Москва,,734,Russian,,,,,,,,,,,,,,,600,0,1,,,1,1,1,35837247,djvu,E05C7F53A27F661F77DE97E17B1EECAE,,,Том 78. Советские писатели на фронтах Великой Отечественной войны. Кн. 2. 1966.djvu,0,2021-03-17 03:20:29,2021-03-17 03:21:24,e05c7f53a27f661f77de97e17b1eecae-g.jpg,,
32753632,String Theory in a Nutshell,,,,Elias Kiritsis,2019,2,Princeton University Press,,855,882,English,264,,,"0691155798,9780691155791",,,,,,,,,,,600,,,,,,1,1,27895366,pdf,A1E9C36F5BD409E057C38A217EF0A31F,,,string_theory_in_a_nutshell.pdf,0,2021-03-17 03:27:35,2021-03-17 03:31:01,a1e9c36f5bd409e057c38a217ef0a31f-g.jpg,,"0691155798,9780691155791"
32753633,String Theory in a Nutshell,,,,Elias Kiritsis,2019,2,Princeton University Press,,855,882,English,,,,"0691155798,9780691155791",,,,,,,,,,,600,,,,,,1,1,14398737,djvu,44A042E36EA6BAC0BDF903BB2A4C25D7,,,string_theory_in_a_nutshell.djvu,0,2021-03-17 03:30:37,2021-03-17 03:30:37,44a042e36ea6bac0bdf903bb2a4c25d7-g.jpg,,"0691155798,9780691155791"
32753634,Cutting Words - Polemical Dimensions of Galen's Anatomical Experiments,,Studies in Ancient Medicine 55,,Luis Alejandro Salas,2020,,BRILL,,340,339,English,,,,"9789004443860,900444386X",,,,,,,,nWULEAAAQBAJ,,,0,,,,,,1,1,3267569,pdf,1A1AACA8074B1178A980571572FEFDA8,,,"9789004439184 55. Luis Alejandro Salas - Cutting Words - Polemical Dimensions of Galens Anatomical Experiments (Studies in Ancient Medicine, Book 55).pdf",0,2021-03-17 03:31:49,2021-03-17 03:31:49,1a1aaca8074b1178a980571572fefda8-g.jpg,,"9789004443860,900444386X"
32753635,Probabilidade um curso intermediário,,Projeto Euclides,,Barry R James,2015,4,IMPA,,321,156,Portuguese,,,,9788524404146,,,,,,,,,,,0,,,,,,,0,34823210,pdf,5F607EAD586A5840EFBF4596B31DC830,,,probabilidade-um-curso-de-nivel-intermedio-barry-james-pdf-free.pdf,0,2021-03-17 03:33:10,2021-03-17 03:33:10,5f607ead586a5840efbf4596b31dc830-g.jpg,,9788524404146
32753636,10000个科学难题·地球科学卷,,10000个科学难题,,“10000个科学难题”地球科学编委会 编,2010,,科学出版社,,979,999,Chinese,,,,9787030289834,,,,,,,,,,,0,0,0,,,0,0,1,260868729,pdf,4EA7A3413B526A1E4C8E64CB0C00D0B8,,,10000个科学难题地球科学卷.pdf,0,2021-03-17 03:33:59,2021-03-17 03:33:59,4ea7a3413b526a1e4c8e64cb0c00d0b8-g.jpg,,9787030289834
32753637,Vladimir Nabokov: The American Years,,,,Brian Boyd,1991,,Princeton University Press,,804,829,English,,,,"069106797X,9780691067971",,,,,,,,,,,0,,,,,,1,1,88367629,pdf,A83BB5CC2FD0248390ACC4401D0C67BA,,,Nabokov_The American Years (Boyd 1991).4.pdf,0,2021-03-17 03:36:49,2021-03-17 03:57:57,a83bb5cc2fd0248390acc4401d0c67ba-g.jpg,,"069106797X,9780691067971"
32753638,Griechische Palaeographie,1.4.1,Handbuch der Altertumswissenschaft. I. Einleitende und Hilfsdisziplinen,,Wilhelm Schubart,1966,,Verlag C. H. Beck,München,,198,German,,,,,,,,,,,,,,,600,0,1,,,1,1,1,12117931,djvu,A7A8545CEF4F6D8AE6939B6F389D8829,,,"1,4,1. Wilhelm Schubart. Griechische Palaeographie. (1966; 1925).djvu",0,2021-03-17 03:38:22,2021-03-17 03:38:48,a7a8545cef4f6d8ae6939b6f389d8829-g.jpg,,
32753639,"Routledge Handbook of Science, Technology, and Society",,Routledge International Handbooks,,"Daniel Lee Kleinman (editor), Kelly Moore (editor)",2014,1,Routledge,,540,540,English,,,,"0415531527,9780415531528",,,,,,,,,,,0,0,1,0,1,0,1,1,5932287,pdf,C21FAB187EED45042AF74CEB4DC55E20,,,"Routledge Handbook of Science, Technology, and Society.pdf",0,2021-03-16 08:16:52,2021-03-17 06:02:01,2938000/c21fab187eed45042af74ceb4dc55e20-g.jpg,,"0415531527,9780415531528"
32753640,Eight Lectures on Mathematical Analysis,,,,Aleksandr Ya. Khinchin,1965,,D. C. Heath & Co,,241,241,English,,,,,,,,,,,,,,,0,,,,,,,0,20547583,pdf,67359A54B79E1008DD00E608381EA08E,,,Khinchin Eight Lectures on Mathematical Analysis (1).pdf,0,2021-03-17 03:41:04,2021-03-17 03:57:28,67359a54b79e1008dd00e608381ea08e-g.jpg,,
32753641,10000个科学难题（数学卷）: 数学卷,,10000个科学难题,,“10000个科学难题”数学编委会,2009,,科学出版社,,551,568,Chinese,,,,9787030242679,,,,,,,,,,,0,0,0,,,0,0,1,43723303,pdf,E2B0AEE6485F5130FEDF234B3236CA66,,,10000个科学难题数学卷.pdf,0,2021-03-17 03:42:16,2021-03-17 03:42:16,e2b0aee6485f5130fedf234b3236ca66-g.jpg,,9787030242679
32753642,Cicero's Speech Pro Rabirio Postumo,,Clarendon ancient history series,,Mary Siani-Davies,2001,online,Oxford University Press,,282,352,English,,,,"0199240965,9780199240968",,,,,,,,wSoc98JBQHMC,,,0,,,,,,1,1,1663929,pdf,BC5D0216F150E43074769E8D345D7874,,,9780199240968 Cicero. Pro Rabirio Postumo (Siani-Davies).pdf,0,2021-03-17 03:47:03,2021-03-17 03:47:03,bc5d0216f150e43074769e8d345d7874-g.jpg,,"0199240965,9780199240968"
32753643,Hierocles of Alexandria,,,,Hermann Sadun Schibli,2002,online,Oxford University Press on Demand,,419,566,English,,,,"0199249210,9780199249213",,,,,,,,Y1U5mAEACAAJ,,,0,,,,,,1,1,4286855,pdf,FBC32BA77834D5E2D7935CD43D61B99C,,,9780199249213 Hierocles of Alexandria.pdf,0,2021-03-17 03:50:00,2021-03-17 03:50:00,fbc32ba77834d5e2d7935cd43d61b99c-g.jpg,,"0199249210,9780199249213"
32753644,Робин Гуд,,"Жизнь замечательных людей. Серия биографий. Малая серия, 32",,Вадим Викторович Эрлихман,2012,,Молодая гвардия,Москва,256+XVI,276,Russian,111,,,9785235035294,,,,,,,,,,,0,,,,1,1,1,1,27497554,pdf,68E73A660CB2609383F2E2993A3829BB,,,Robin.pdf,0,2021-03-17 03:50:23,2021-03-17 03:50:23,68e73a660cb2609383f2e2993a3829bb-g.jpg,,9785235035294
32753645,Homer's Ancient Readers: The Hermeneutics of Greek Epic's Earliest Exegetes,,Princeton Legacy Library,,Robert Lamberton; John J. Keaney,2019,reprint,Princeton University Press,,232,223,English,,,,"9780691604176,0691604177",,,,,,,,5ViYDwAAQBAJ,,,0,,,,,,1,1,4308405,pdf,FDF993E5D9C367A74507C6210D111B49,,,9780691656274 Lamberton - Keaney eds. Homer's Ancient Readers cc.pdf,0,2021-03-17 03:55:51,2021-03-17 03:55:51,fdf993e5d9c367a74507c6210d111b49-g.jpg,,"9780691604176,0691604177"
32753646,Farewell to Arms: How Rebels Retire Without Getting Killed,,MODERN SOUTH ASIA SERIES,,Rumela Sen,2021,1,Oxford University Press,,248,0,English,,,,,,B08Y97B1ZX,,,,,,,,,0,,,,,0,,1,657393,epub,E3630FF7D32AE9822C8AD2654D37857D,,,Farewell to Arms (MODERN SOUTH - Rumela Sen.epub,0,2021-03-17 03:57:17,2021-03-17 03:57:17,e3630ff7d32ae9822c8ad2654d37857d-g.jpg,,
32753647,Kleinasien,3.1.3.3.1,"Handbuch der Altertumswissenschaft. III. Alter Orient, Griechische Geschichte, Römische Geschichte",,Albrecht Götze,1957,2. neubearbeitete Auflage,Verlag C. H. Beck,München,,263,немецкий,,,,,,,,,,,,,,,600,0,1,,,1,1,1,7737393,djvu,7263E87658731A06F3D5A6A9470517D1,,,3.1.3.3.1. Albrecht Götze. Kleinasien.  2. neubearbeitete Auflage 1957.djvu,0,2021-03-17 04:02:04,2021-03-17 04:02:04,7263e87658731a06f3d5a6a9470517d1-g.jpg,,
32753648,10000个科学难题·天文学卷,,10000个科学难题,,“10000个科学难题”天文学编委会 编,2010,,科学出版社,,1078,1087,Chinese,,,,9787030295187,,,,,,,,,,,0,0,0,,,0,0,1,297481314,pdf,8C073064770469672DCB0A8CA87294A9,,,10000个科学难题天文学卷1.pdf,0,2021-03-17 04:03:41,2021-03-17 04:03:41,8c073064770469672dcb0a8ca87294a9-g.jpg,,9787030295187
32753649,Сборник Отделения русского языка и словесности Императорской Академии наук,92,,,,1914,,Типография Императорской Академии наук,Петроград,,716,Russian (Old),321,archive.org,,,,,,,,,,,,,400,,,0,1,1,0,1,24707749,djvu,2E49F0BAAE69668D6ED28CE4628E5486,,,92 1914.djvu,0,2021-03-17 04:04:13,2021-03-17 04:04:13,2e49f0baae69668d6ed28ce4628e5486-g.jpg,,
32753650,"量子纠缠: 上帝效应,科学中最奇特的现象",,科学可以这样看丛书,,布赖恩•克莱格,2011,,重庆出版社,,219,232,Chinese,,,,9787229038953,,,,,,,,,,,0,0,0,,,1,1,1,7890761,pdf,072B9680D73FF1938257D79CF4FBE7C9,,,[科学可以这样看丛书] 量子纠缠（英）布莱恩·克莱格.pdf,0,2021-03-17 04:11:22,2021-03-17 04:11:22,072b9680d73ff1938257d79cf4fbe7c9-g.jpg,,9787229038953
32753651,从一到无穷大: 科学中的事实和臆测,,20世纪科普经典特藏（中译本）,,校注 吴伯泽 ,2002,,科学出版社,,329,314,Chinese,,,,9787030107596,,,,,,,,,,,0,0,1,,,0,1,1,8862603,pdf,BC632A2E15EF21973448BE90FEF352E8,,,19. 从一到无穷大：科学中的事实与臆测.pdf,0,2021-03-17 04:14:54,2021-03-17 04:14:54,bc632a2e15ef21973448be90fef352e8-g.jpg,,9787030107596
32753652,Tales of Norse Mythology,,,,Hélène Adeline Guerber,2017,,Barnes & Noble,New York,464,0,English,102,,,"1435164989,9781435164987,9781435164994",,,,,,,,,,,0,,,,,,,,10638236,epub,65DE30680188C474A25B1E9C779DC597,,,Guerber.epub,0,2021-03-17 04:15:38,2021-03-17 04:17:06,65de30680188c474a25b1e9c779dc597-g.jpg,,"1435164989,9781435164987,9781435164994"
32753653,Сборник Отделения русского языка и словесности Императорской Академии наук,90 1 2 3 4 5 6 7,,,,1914,,Типография Императорской Академии наук,Санктпетербург,,816,Russian (Old),321,archive.org,,,,,,,,,,,,,400,,,0,1,1,0,1,20256588,djvu,C2BE01FE20C919D3118D0F59A19A8D93,,,90 1 1912 2-6 1913 7 1914.djvu,0,2021-03-17 04:17:18,2021-03-17 04:17:18,c2be01fe20c919d3118d0f59a19a8d93-g.jpg,,
32753654,干草堆中的恐龙: 自然史沉思录,,青鸟文丛,,史蒂芬·杰·古尔德,2009,,江苏科学技术出版社,,365,380,Chinese,,,,9787534568879,,,,,,,,,,,0,0,0,,,1,1,0,20049881,pdf,94AB37001FC2D8BBA24D69EB8A377E12,,,701. 干草堆中的恐龙：自然史沉思录（美）斯蒂芬·杰·古尔德.pdf,0,2021-03-17 04:20:32,2021-03-17 04:20:32,94ab37001fc2d8bba24d69eb8a377e12-g.jpg,,9787534568879
32753655,Сборник Отделения русского языка и словесности Императорской Академии наук,86 1 2 3,,,,1909,,Типография Императорской Академии наук,Санктпетербург,,832,Russian (Old),321,,,,,,,,,,,,,,600,,,0,1,1,0,0,30429253,djvu,6AF46BDB1E3C244F63CDA1CC5E933E95,,,86 1 1908 2-3 1909.djvu,0,2021-03-17 04:27:55,2021-03-17 04:27:55,6af46bdb1e3c244f63cda1cc5e933e95-g.jpg,,
32753656,Integrated Korean: Beginning 1,,,,"Young-Mee Cho, Hyo Sang Lee, Carol Schulz, Ho-Min Sohn, Sung-Ock Sohn",2009,2,University of Hawaii Press,,330,330,English,,,,"0824834402,9780824834401",,,,,,,,,,Audio can be found here http://www.hawaii.edu/uhpress/mp3/klear/IKb1MP3.zip,0,,,,,,,0,41689658,pdf,203942CAB0400427061312E449EE4586,,,"Integrated Korean- Beginning 1 (2009, University of Hawaii Press).pdf",0,2021-03-17 04:29:06,2021-03-17 04:29:06,203942cab0400427061312e449ee4586-g.jpg,,"0824834402,9780824834401"
32753657,"An Uncensored Encyclopedia of Life, Basketball, and Everything in Between",,,,Kevin Garnett,2021,,Simon & Schuster,,,0,English,,,,"9781982170349,9781982170325",,,,,,,,,,,0,,,,,,,,61252333,epub,C3FEECD4752AC0418181E1707C011922,,,KG_A_to_Z.epub,0,2021-03-17 04:39:08,2021-03-17 04:39:08,c3feecd4752ac0418181e1707c011922-g.jpg,,"9781982170349,9781982170325"
32753658,Codex Hammurabi,,,,Anton Deimel,1930,,Pont. Institutum Biblicum,Roma,199,202,Latin,66,,,,,,,,,,,,,,0,,,0,1,1,,1,15107091,pdf,195CFB1F37ED95DCD745E175A8FADBD6,,,Deimel Codex Hammurabi (1930).pdf,0,2021-03-17 04:41:33,2021-03-17 04:41:33,195cfb1f37ed95dcd745e175a8fadbd6-g.jpg,,
32753659,1014: Brian Boru & the Battle for Ireland,,,,Morgan Llywelyn,2014,,The O'Brien Press,Dublin,256,0,English,64,,,"1847175570,9781847175571,9781847176554",,,,,,,,,,,0,,,,,,,,971741,epub,D309D7F18A44EA02F0FC1D947BAF3ADB,,,Llywelyn.epub,0,2021-03-17 04:43:58,2021-03-17 04:43:58,d309d7f18a44ea02f0fc1d947baf3adb-g.jpg,,"1847175570,9781847175571,9781847176554"
32753660,蟹状星云和她的明珠,,,,何香涛,2005,,湖南科学技术出版社,,172,181,Chinese,,,,9787535742421,,,,,,,,,,,0,1,0,,,1,0,0,13105882,pdf,77A5FDD36A386FAE7D6D83024EA9811E,,,蟹状星云和她的明珠.pdf,0,2021-03-17 04:44:30,2021-03-17 04:45:06,77a5fdd36a386fae7d6d83024ea9811e-g.jpg,,9787535742421
32753661,"Denkwürdigkeiten des Grafen von M .., eine getreue Schilderung seines Lebens und seiner Schicksale zu den Zeiten des nordamerikanischen Befreiungskrieges, der französischen Revolution bis zur Restauration.",,,,A. Levasseur (transl.),1829,,Fritsche,Dessau,264,264,German,68,,,,,,,,,,,,,,0,,,0,1,1,1,1,9486397,pdf,3F59BFCA10E55E6B21CFCF8A9C7BC86C,,,Denkwürdigkeiten_des_Grafen_von_M.pdf,0,2021-03-17 04:48:03,2021-03-17 04:48:03,3f59bfca10e55e6b21cfcf8a9c7bc86c-g.jpg,,
32753662,火烈鸟的微笑: 自然史沉思录,,青鸟文丛,,史蒂芬·杰·古尔德,2009,,江苏科学技术出版社,,295,307,Chinese,,,,9787534567629,,,,,,,,,,,0,0,0,,,1,1,0,17180397,pdf,53E7DE3D4B15150BB2EECED0E1D3CA3D,,,702. 火烈鸟的微笑：自然史沉思录（美）斯蒂芬·杰·古尔德.pdf,0,2021-03-17 04:55:14,2021-03-17 04:55:14,53e7de3d4b15150bb2eeced0e1d3ca3d-g.jpg,,9787534567629
32753663,Software Design for Flexibility: How to Avoid Programming Yourself into a Corner,,,,Chris Hanson; Gerald Jay Sussman,2021,,MIT Press,,448,541,English,,,,"9780262362474,0262362473",,,,,,,,iM_tDwAAQBAJ,,,0,,,,,,1,1,3077906,pdf,0AE9F9A644B357AC86E9C7ED0A37501A,,,Chris Hanson_ Gerald Sussman - Software Design for Flexibility-MIT Press (2021).pdf,0,2021-03-17 04:56:23,2021-03-17 04:56:23,0ae9f9a644b357ac86e9c7ed0a37501a-g.jpg,,"9780262362474,0262362473"
32753664,熊猫的拇指: 自然史沉思录,,,,[美国] 斯蒂芬·杰·古尔德,2008,,海南出版社,,233,248,Chinese,,,,9787807001652,,,,,,,,,,decrypted from 1F73A3DDE5E95E7A576053F40C4E3673 source file,0,0,0,,,1,1,0,12392701,pdf,023FE5B546635568D2B220D7FCC1A59E,,,703. 自然史沉思录·熊猫的拇指 （美）斯蒂芬·杰·古.pdf,0,2021-03-17 04:57:32,2021-03-17 04:57:32,023fe5b546635568d2b220d7fcc1a59e-g.jpg,,9787807001652
32753665,Сборник Отделения русского языка и словесности Императорской Академии наук,85 1,,,,1908,,Типография Императорской Академии наук,Санктпетербург,,708,Russian (Old),321,google,,,,,,,,,,,,,0,0,,0,1,1,0,1,25351427,pdf,CB2F42A2EF96EF72422DDB31EF93C0C1,,,85 1 1908.pdf,0,2021-03-17 04:58:33,2021-03-17 04:58:33,cb2f42a2ef96ef72422ddb31ef93c0c1-g.jpg,,
32753666,自达尔文以来: 自然史沉思录,,,,[美国] 斯蒂芬·杰·古尔德,2008,,海南出版社,,211,226,Chinese,,,,9787807001645,,,,,,,,,,decrypted from FC0C3EF699F860ADDDCA04CDEE4C7BE6 source file,0,0,0,,,1,1,0,9258847,pdf,84E1EFED1877539E1F671E7970517FF4,,,704. 自然史沉思录·自达尔文以来 （美）斯蒂芬·杰.pdf,0,2021-03-17 04:59:24,2021-03-17 04:59:24,84e1efed1877539e1f671e7970517ff4-g.jpg,,9787807001645
32753667,民族志: 步步深入,,万卷方法,,大卫·费特曼,2007,,重庆大学出版社,,127,152,Chinese,,,,9787562439967,,,,,,,,,,,0,0,0,,,1,1,1,17026241,pdf,A221F22D23BF1D1DFC3067E4EB6436E7,,,[万卷]12 民族志 步步深入.pdf,0,2021-03-17 05:03:22,2021-03-17 05:03:22,a221f22d23bf1d1dfc3067e4eb6436e7-g.jpg,,9787562439967
32753668,Der Deutsche in Nord-Amerika,,,,"Hans-Christoph von Gagern, Moritz Fürstenwärther",1818,,Cotta,"Stuttgart, Tübingen",127,127,German,65,,,,,,,,,,,,,,0,,,0,1,1,1,1,7673133,pdf,05B515D0A44D37A97FA3F7B46EC2D381,,,Der_Deutsche_in_Nord_Amerika.pdf,0,2021-03-17 05:04:56,2021-03-17 05:04:56,05b515d0a44d37a97fa3f7b46ec2d381-g.jpg,German-American relations,
32753669,"Aquinas, Aristotle, and the Promise of the Common Good",,,,Mary M. Keys,2006,,Cambridge University Press,,,263,English,189,,,"9780521864732,9780511256585,0511256582,0521864739",,,,,,,,,,More best quality,0,,,,,,1,1,2244081,pdf,ACA5592F564485D16460AC12FCA378FB,,,ilovepdf_merged (19).pdf,0,2021-03-17 05:05:33,2021-03-17 05:05:33,aca5592f564485d16460ac12fca378fb-g.jpg,,"9780521864732,9780511256585,0511256582,0521864739"
32753670,一个模范家庭的趣事,,,,[以色列] 基雄,2001,,上海译文出版社,,341,351,Chinese,,,,9787532725700,,,,,,,,,,,0,0,0,,,1,1,1,9519245,pdf,ED61BA56EBAA96130D31AE8CCE7B6C50,,,一个模范家庭的趣事[以色列]埃弗赖姆·基雄.魏育青、魏宏琰译.上海译文出版社(2001).pdf,0,2021-03-17 05:07:45,2021-03-17 05:07:45,ed61ba56ebaa96130d31ae8cce7b6c50-g.jpg,,9787532725700
32753671,Beyond Fear: Thinking Sensibly About Security In An Uncertain World,,,,Bruce Schneier,2003,1,Copernicus/Springer,,304,304,English,77,,,"0387026207,9780387026206,1475781199,9781475781199,0387217126,9780387217123",,,,,,,,,,TruePDF / TOC / Original,0,,,,,,1,1,1428748,pdf,9CE605E996BBB56169282B59AF01E5C7,,,0387026207_9780387026206_BeyondFear.pdf,0,2021-03-17 05:10:03,2021-03-17 05:10:03,9ce605e996bbb56169282b59af01e5c7-g.jpg,"Terrorism: United States: Prevention; War On Terrorism, 2001–; Security Science And Technology","0387026207,9780387026206,1475781199,9781475781199,0387217126,9780387217123"
32753672,Сборник Отделения русского языка и словесности Императорской Академии наук,84 1 2 3 4 5,,,,1908,,Типография Императорской Академии наук,Санктпетербург,,657,Russian (Old),321,google,,,,,,,,,,,,,0,,0,0,1,1,0,1,21053082,pdf,E0C1230B3C1745B778EA1643556803CA,,,84 1-5 1908.pdf,0,2021-03-17 05:11:04,2021-03-17 05:11:04,e0c1230b3c1745b778ea1643556803ca-g.jpg,,
32753673,Zur Geschichte des Deutschthums in Indiana; eine Festschrift zur Indiana-Feier im Jahre 1900,,,,William August Fritsch,1896,,Steiger,New York,78,78,German,65,,,3183302333,,,,,,,,,,,0,,,0,1,1,,1,4740918,pdf,B545823B92BF8660A2D82D189057D734,,,Fritsch Geschichte des Deutschtums in Indiana (1896).pdf,0,2021-03-17 05:13:36,2021-03-17 05:13:36,b545823b92bf8660a2d82d189057d734-g.jpg,German-American relations,3183302333
32753674,一个模范丈夫的自白,,,,[以色列] 基雄,2001,,上海译文出版社,,287,299,Chinese,,,,9787532725724,,,,,,,,,,,0,0,0,,,1,0,0,10377491,pdf,302936EDAE337E705FA72C0EA997565A,,,一个模范丈夫的自白[以色列]埃弗赖姆·基雄.王佩莉、聂欣如译.上海译文出版社(2001).pdf,0,2021-03-17 05:16:11,2021-03-17 05:16:11,302936edae337e705fa72c0ea997565a-g.jpg,,9787532725724
32753675,通往群猫之路,,,,耶何华·凯纳兹,1998,,花城出版社,,327,334,Chinese,,,,9787536027893,,,,,,,,,,,0,0,0,,,1,0,1,12473463,pdf,53AB1E43077FDD0FCAB714C136E2DBB4,,,通往群猫之路[以色列]凯纳兹.王晓珏、罗晓芳译.花城出版社(1998).pdf,0,2021-03-17 05:17:19,2021-03-17 05:17:19,53ab1e43077fdd0fcab714c136e2dbb4-g.jpg,,9787536027893
32753676,審議民主指南：21世紀公民參與的有效策略,,,,約翰‧蓋斯提爾; 彼得‧列文; John Gastil; Peter Levine; 劉介修 (譯); 陳逸玲 (譯),2012,,群學,,,213,Chinese,,,,9789866525568,,,,,,,,,,,0,,,,,,,0,288453701,pdf,060B2AE927CF12039C19BED8C58FEB69,,,審議民主指南.pdf,0,2021-03-17 05:18:14,2021-03-17 05:28:17,060b2ae927cf12039c19bed8c58feb69-g.jpg,,9789866525568
32753677,Kant’s reform of metaphysics: the Critique of pure reason reconsidered,,,,Karin de Boer,2020,,Cambridge University Press,,,284,English,195,,,9781108897983,,,,,,,,,,,0,,,,,,,1,5283788,pdf,5ECF25BFF1C7596DF7F99D70E99AF331,,,ilovepdf_merged (18).pdf,0,2021-03-17 05:19:29,2021-03-17 05:19:29,5ecf25bff1c7596df7f99d70e99af331-g.jpg,,9781108897983
32753678,Сборник Отделения русского языка и словесности Императорской Академии наук,83 1-5,,,,1907,,Типография Императорской Академии наук,Санктпетербург,,742,Russian (Old),321,archive.org,,,,,,,,,,,,,400,,,0,1,1,0,1,20403123,djvu,AE6D1DC7D0F2E6FBF1C15295C5F843B0,,,83 1-5 1907.djvu,0,2021-03-17 05:19:52,2021-03-17 05:19:52,ae6d1dc7d0f2e6fbf1c15295c5f843b0-g.jpg,,
32753679,審議民主,,,,Jon Elster (ed.); 埃爾斯特 (主編); 李宗義(譯); 許雅淑(譯),2010,,群學,,432,219,Chinese,,,,9789866525322,,,,,,,,,,,0,,,,,,,0,270437328,pdf,B2ACD0FD853520F1F88984FDE247B364,,,審議民主.pdf,0,2021-03-17 05:22:45,2021-03-17 05:22:45,b2acd0fd853520f1f88984fde247b364-g.jpg,,9789866525322
32753680,Opere scelte. I. Storia e società,,,,Lorenz von Stein,1986,,Giuffrè,,,391,Italian,,,,8814004331,,,,,,,,,,,0,,,,,,,1,143026688,pdf,259F577B9B5241F247A589393E6DB077,,,Stein.pdf,0,2021-03-17 05:23:07,2021-03-17 05:23:07,259f577b9b5241f247a589393e6db077-g.jpg,,8814004331
32753681,理想國的磚塊：當盲目民粹遇到審議民主,,,,朱雲鵬; 王立昇; 吳中書; 鄭睿合; 吳建忠,2017,,五南,,276,140,Chinese,,,,9789571193076,,,,,,,,,,,0,,,,,,,0,165752129,pdf,E8BB71E3C30D6A2D47F9E62CAE9A33FD,,,理想國的磚塊.pdf,0,2021-03-17 05:27:09,2021-03-17 05:27:09,e8bb71e3c30d6a2d47f9e62cae9a33fd-g.jpg,,9789571193076
32753682,世界十大思想家,,,,王德峰 吴晓明,1996,,上海古籍出版社,上海,,232,Chinese,,,,9787532521302,,,,,,,,,,,0,,,,,,1,0,8951717,pdf,1CFFC24E3B9FA8B7C5EBCBEB5565597A,,,智慧之光世界十大思想家.pdf,0,2021-03-17 05:31:17,2021-03-17 05:31:17,1cffc24e3b9fa8b7c5ebcbeb5565597a-g.jpg,,9787532521302
32753683,James Harrington's Oceana,,,,S. B. Liljegren,1924,,Lund and Heidelberg,,,402,English,189,,,,,,,,,,,,,,0,,,,,,,1,22073285,pdf,52CFFD0C6682E243668626EFEBC60060,,,jamesharringtons0000harr.pdf,0,2021-03-17 05:31:33,2021-03-17 05:31:33,52cffd0c6682e243668626efebc60060-g.jpg,,
32753684,音乐哲学,,,,阿伦·瑞德莱,2007,,上海人民出版社,上海,225,232,Chinese,,,,9787208068636,,,,,,,,,,,0,,,,,,1,0,9220951,pdf,C88E07D821160A44206A710096EB948A,,,音乐哲学.pdf,0,2021-03-17 05:33:11,2021-03-17 05:33:11,c88e07d821160a44206a710096eb948a-g.jpg,,9787208068636
32753685,Сборник Отделения русского языка и словесности Императорской Академии наук,82 1 2 3 4 5 6 7 8,,,,1907,,Типография Императорской Академии наук,Санктпетербург,,883,Russian (Old),321,google,,,,,,,,,,,,,0,,,0,1,1,0,1,22971413,pdf,B6DB4255D39461479C51A32061DC8B8D,,,82 1-3 1906 4-8 1907.pdf,0,2021-03-17 05:38:02,2021-03-17 05:38:02,b6db4255d39461479c51a32061dc8b8d-g.jpg,,
32753686,Сборник Отделения русского языка и словесности Императорской Академии наук,81 1 2 3 4 5 6 7,,,,1906,,Типография Императорской Академии наук,Санктпетербург,,1254,Russian (Old),321,google,,,,,,,,,,,,,0,,,0,1,1,0,1,40917982,pdf,8C08F65A5CA628E39A0012EED95B4139,,,81 1-2 1905 3-7 1906.pdf,0,2021-03-17 05:49:54,2021-03-17 05:49:54,8c08f65a5ca628e39a0012eed95b4139-g.jpg,,
32753687,Introdução à metodologia do trabalho científico: elaboração de trabalhos na graduação,,,,Maria Margarida de Andrade,,,,,,176,Portuguese,,,,"9788522458561,9788522478392",,,,,,,,,,,0,,,,,,1,1,1798680,pdf,B3C723956EDE1A6F19E7E69904AE486D,,,"ANDRADE, M. Introdução à metodologia do trabalho científico.pdf",0,2021-03-17 05:53:26,2021-03-17 05:53:26,b3c723956ede1a6f19e7e69904ae486d-g.jpg,,"9788522458561,9788522478392"
32753688,Recordar Foucault,,,,Renato Janine Ribeiro,,,,,,125,Portuguese,,,,,,,,,,,,,,,0,,,,,,1,1,7336027,pdf,3B2DCC7C0410FF0A0A39832EF0E68BC4,,,RIBEIRO_Renato_Janine_org_Recordar_Fouca.pdf,0,2021-03-17 05:55:59,2021-03-17 05:55:59,3b2dcc7c0410ff0a0a39832ef0e68bc4-g.jpg,,
32753689,Britannica Book of the Year 1938,,,,Encyclopaedia Britannica,1938,,"Encyclopaedia Britannica, Inc.",,,757,English,64,,,,,,,,,,,,,,300,1,1,0,1,1,1,0,51063769,pdf,A1C24243F165BFDE31EFF9C751E990D9,,,1938 Britannica Book of the Year.pdf,0,2021-03-17 06:06:49,2021-03-17 06:06:49,a1c24243f165bfde31eff9c751e990d9-g.jpg,,
32753690,Britannica Book of the Year 1939,,,,Encyclopaedia Britannica,1939,,"Encyclopaedia Britannica, Inc.",,,774,English,64,,,,,,,,,,,,,,300,1,1,0,1,1,1,0,56315240,pdf,52D9D8D0BB7C53BD5BB0150C6AE16CDD,,,1939 Britannica Book of the Year.pdf,0,2021-03-17 06:10:39,2021-03-17 06:10:39,52d9d8d0bb7c53bd5bb0150c6ae16cdd-g.jpg,,
32753691,Britannica Book of the Year 1940,,,,Encyclopaedia Britannica,1940,,"Encyclopaedia Britannica, Inc.",,,802,English,64,,,,,,,,,,,,,,300,1,1,0,0,1,1,1,60894595,pdf,26348BE18B518DCC3E212DA22BE9CD70,,,1940 Britannica Book of the Year.pdf,0,2021-03-17 06:14:24,2021-03-17 06:14:24,26348be18b518dcc3e212da22be9cd70-g.jpg,,
32753692,Britannica Book of the Year 1942,,,,Encyclopaedia Britannica,1942,,,,,811,English,64,,,,,,,,,,,,,,300,1,1,0,1,1,1,0,60058858,pdf,964AB7F1C73B67679A57BE9301C20ABA,,,1942 Britannica Book of the Year.pdf,0,2021-03-17 06:17:33,2021-03-17 06:17:33,964ab7f1c73b67679a57be9301c20aba-g.jpg,,
32753693,Britannica Book of the Year 1943,,,,Encyclopaedia Britannica,1943,,"Encyclopaedia Britannica, Inc.",,,844,English,64,,,,,,,,,,,,,,300,1,1,0,1,1,1,1,95733569,pdf,1AD24642D36916F87BB7E2C8857F623A,,,1943 Britannica Book of the Year.pdf,0,2021-03-17 06:22:10,2021-03-17 06:22:10,1ad24642d36916f87bb7e2c8857f623a-g.jpg,,
32753694,Britannica Book of the Year 1944,,,,Encyclopaedia Britannica,1944,,"Encyclopaedia Britannica, Inc.",,,834,English,64,,,,,,,,,,,,,,300,1,1,0,1,1,1,0,56032751,pdf,32D82D3E4977D4D7F7F0D2A1C992DEF8,,,1944 Britannica Book of the Year.pdf,0,2021-03-17 06:25:49,2021-03-17 06:25:49,32d82d3e4977d4d7f7f0d2a1c992def8-g.jpg,,
32753695,"Multilingual Metal Music: Sociocultural, Linguistic and Literary Perspectives on Heavy Metal Lyrics",,Emerald Studies in Metal Music and Culture,,Riitta-Liisa Valijärvi (Editor); Charlotte Doesburg (Editor); Amanda Digioia (Editor),2021,,Emerald,,291,310,English,,,,"1839099496,9781839099496",,,,,,,,,,,0,,,,,,1,1,1915388,pdf,ECA81FE574CDFC9997487A59F2E6E680,,,Multilingual Metal Music.pdf,0,2021-03-17 06:32:55,2021-03-17 06:32:55,eca81fe574cdfc9997487a59f2e6e680-g.jpg,,"1839099496,9781839099496"
32753696,Britannica Book of the Year 1946,,,,Encyclopaedia Britannica,1946,,"Encyclopaedia Britannica, Inc.",,,894,English,64,,,,,,,,,,,,,,300,1,1,0,1,1,1,0,122793250,pdf,9E17BA0031E9E0968C3C46FDC90FB48F,,,1946 Britannica Book of the Year.pdf,0,2021-03-17 06:33:33,2021-03-17 06:33:33,9e17ba0031e9e0968c3c46fdc90fb48f-g.jpg,,
32753697,Britannica Book of the Year 1948,,,,Encyclopaedia Britannica,1948,,"Encyclopaedia Britannica, Inc.",,,865,English,64,,,,,,,,,,,,,,300,1,1,0,1,1,1,0,58583714,pdf,1F9D9CF3472179D9E48EAAA7ACC86FB1,,,1948 Britannica Book of the Year.pdf,0,2021-03-17 06:36:53,2021-03-17 06:36:53,1f9d9cf3472179d9e48eaaa7acc86fb1-g.jpg,,
32753698,Aspects of Hobbes,,,,Noel Malcolm,2004,,Oxford University Press,,,657,English,,,,"0199275408,9780199275403",,,,,,,,,,,0,,,,,,1,1,5824902,pdf,88708325D3DAC8E4B8638D90BBB762F3,,,Aspects of Hobbes.pdf,0,2021-03-17 06:59:59,2021-03-17 06:59:59,88708325d3dac8e4b8638d90bbb762f3-g.jpg,,"0199275408,9780199275403"
32753699,От калькулятора до супер-ЭВМ,Вып. 1,"Новое в жизни, науке, технике. Вычислительная техника и ее применение",,Щербаков В.И.,1988,,Знание,,98,0,Russian,181,,0,,,,,,,,,,,,0,,,,,,,1,5310445,djvu,ef89078f97436f57166207f74e2acb51,,no,"Щербаков В.И.;От калькулятора до супер-ЭВМ;Новое в жизни, науке, технике.  Вычислительная техника и ее применение;Вып. 1;Знание;1988;;;Russian.djvu",0,2015-04-20 23:05:21,2019-12-21 13:23:21,1333000/ef89078f97436f57166207f74e2acb51-g.jpg,"Библиотека;Периодика;Научно-популярные журналы;Новое в жизни, науке, технике (Знание);Новое в жизни, науке, технике (Вычислительная техника и ее применение);",
32753700,saludable mente habitos para optimizar tu cerebro,,,,marcos vazquez,,,,,,211,Spanish,,,,9788425359484,,,,,,,,,,,0,,,,,,1,1,3431119,pdf,F636573C15B9204792FB863E2EFABC09,,,Saludable mente Hábitos para optimizar tu cerebro y mejorar tu salud a cualquier edad by Marcos Vázquez.pdf,0,2021-03-15 19:54:15,2021-03-17 06:21:43,2938000/f636573c15b9204792fb863e2efabc09-g.jpg,,9788425359484
32753701,"Destroying the world to save it : Aum Shinrikyō, apocalyptic violence, and the the new global terrorism",,,,Robert Jay Lifton,2000,,Henry Holt and Co.,,,429,English,,,,"9780805065114,0805065113",,,,,,,,,,,0,,,,,,1,1,1365090,pdf,994F49E8538EB241B8CBBA628007EFFE,,,Destroying the world to save it.pdf,0,2021-03-17 06:25:43,2021-03-17 06:25:43,994f49e8538eb241b8cbba628007effe-g.jpg,,"9780805065114,0805065113"
32753702,Disput über den Totalitarismus. Texte und Briefe,,"Berichte und Studien Nr. 70, herausgegeben vom Hannah-Arendt-Institut für Totalitarismusforschung e.V.",,"Hannah Arendt, Eric Voegelin, Ursula Ludz (ed.), Ingeborg Nordmann, Michael Henkel",2015,,,,110,100,German,,,,"9783847104926,9783847004929,9783737004923",,,,,,,10.14220/9783737004923,,,,0,,,,,,,1,6239050,pdf,DBE6856CACE24E9100E90542E5F02740,,,"Arendt, Voegelin 2015.pdf",0,2021-03-17 06:27:31,2021-03-17 06:27:31,dbe6856cace24e9100e90542e5f02740-g.jpg,,"9783847104926,9783847004929,9783737004923"
32753703,"Preserving Electronic Evidence for Trial: A Team Approach to the Litigation Hold, Data Collection, and Evidence Preservation",,,,Ann D. Zeigler,2016,,Syngress,,192,194,English,,,,"0128093358,9780128093351",,,,,,,,,,,0,,,,,,1,1,7380086,pdf,E1B1C649FB29DA1BCF8CE9CDFB403F3A,,,9780128093351.Syngress.Preserving_Electronic_Evidence_for_Trialvidence_Preservation.Ann_D._Zeigler_&_Ernesto_F._Rojas.Feb.2016.pdf,0,2021-03-17 07:12:06,2021-03-17 07:12:06,e1b1c649fb29da1bcf8ce9cdfb403f3a-g.jpg,,"0128093358,9780128093351"
32753704,Mobile Platform Security,,,,"N. Asokan, Lucas Davi, Alexandra Dmitrienko, Stephan Heuser, Kari Kostiainen",2014,,Morgan & Claypool,,96,110,English,,,,"1627050973,9781627050975",,,,,,,,,,,0,,,,,,1,1,7377343,pdf,91AE00BCBD59213FCB5A990F9FF2D1DE,,,9781627050975.Morgan_&_Claypool.Mobile_Platform_Security.N._Asokan_&_Lucas_Davi_&_Alexandra_Dmitrienko.Dec.2013.pdf,0,2021-03-17 07:12:49,2021-03-17 07:12:49,91ae00bcbd59213fcb5a990f9ff2d1de-g.jpg,,"1627050973,9781627050975"
32753705,Latin and Greek Monasticism in the Crusader States,,,,"Bernard Hamilton, Andrew Jotischky",2020,,Cambridge University Press,,300,566,English,,,,"0521836387,9780521836388",,,,,,,,,,,0,,,,,,1,1,7375322,pdf,F9F50332DD077F8E2CE0BE9F72B2E438,,,9780521836388.Cambridge_University_Press.Latin_and_Greek_Monasthe_Crusader_States.Bernard_Hamilton_&_Andrew_Jotischky.Oct.2020.pdf,0,2021-03-17 07:14:06,2021-03-17 07:14:06,f9f50332dd077f8e2ce0be9f72b2e438-g.jpg,,"0521836387,9780521836388"
32753706,"How Greek Tragedy Works: A Guide for Directors, Dramaturges, and Playwrights",,,,Brian Kulick,2020,1°,Routledge,,194,195,English,,,,"0367634074,9780367634070",,,,,,,,,,,0,,,,,,1,1,7370869,pdf,8F704D9D2B9D832CD626FD04DA667AD2,,,"9780367634070.Routledge.How_Greek_Tragedy_Works;_A_Guide_for_Directors,_Dramaturges,_and_Playwrights.Brian_Kulick.Nov.2020.pdf",0,2021-03-17 07:14:51,2021-03-17 07:14:51,8f704d9d2b9d832cd626fd04da667ad2-g.jpg,,"0367634074,9780367634070"
32753707,Sophocles: Oedipus the King,,Cambridge Classical Texts and Commentaries 57,,P. J. Finglass,2018,,Cambridge University Press,,720,724,English,,,,"9781108419512,1108419518",,,,,,,,,,,0,,,,,,1,1,7367014,pdf,D7D2654D70E008150A9B59D94C5FE1DF,,,9781108419512.Cambridge_University_Press.Sophocles__Oedipus_the_King.P._J._Finglass.Apr.2018.pdf,0,2021-03-17 07:15:52,2021-03-17 10:25:11,d7d2654d70e008150a9b59d94c5fe1df-g.jpg,,"9781108419512,1108419518"
32753708,Making sense of color management,,A book apart briefs,,Craig Hockenberry,2016,,,,,98,English,,,,"9781937557515,1937557510",,,,,510.234,,,,,,0,,,,,,1,1,7358081,pdf,74786089FA6A0DE5EBB0BB60B545053A,,,9781937557515.A_Book_Apart.Making_Sense_of_Color_Management.Craig_Hockenberry.Feb.2016.pdf,0,2021-03-17 07:18:03,2021-03-17 07:18:03,74786089fa6a0de5ebb0bb60b545053a-g.jpg,,"9781937557515,1937557510"
32753709,Los desafíos de la sociedad digital en el mundo contemporáneo,,,,Jorge Rasner compilador,2021,,CSIC/UdelaR,Montevideo,,152,spanish,179,,,,,,,,,,,,,,0,,,,,,,1,1248149,pdf,44FA78FEAACD28A8314C797EA3617415,,,Los desafíos de la sociedad digital en el mundo contyemporáneo.pdf,0,2021-03-17 07:18:56,2021-03-17 07:18:56,44fa78feaacd28a8314c797ea3617415-g.jpg,,
32753710,The Physics and Chemistry of Materials,,,,"Joel I. Gersten, Frederick W. Smith",2001,1.,Wiley-Interscience,,826,560,English,,,,"0471057940,9780471057949",,,,,,,,,,,0,,,,,,,1,7356044,pdf,EC24930F3790C4DA8F255F4636AC599F,,,"0471057940.Wiley.Physics_and_Chemistry_of_Materials,_The.Joel_I._Gersten_&_Frederick_W._Smith_&_Smith.Jun.2001.pdf",0,2021-03-17 07:19:00,2021-03-17 07:19:00,ec24930f3790c4da8f255f4636ac599f-g.jpg,,"0471057940,9780471057949"
32753711,The Early Medieval Church in Wales,,,,Dr. David Petts,2014,,History Press (SC),,219,219,English,,,,"0752498231,9780752498232",,,,,,,,rmmzoQEACAAJ,,,0,,,,,,1,1,7350097,pdf,0F853CBF977D77B53692AECF5ECC645B,,,"9780752498232.History_Press_Limited.Early_Medieval_Church_in_Wales,_The.Dr._David_Petts.Nov.2008.pdf",0,2021-03-17 07:19:48,2021-03-17 07:19:48,0f853cbf977d77b53692aecf5ecc645b-g.jpg,,"0752498231,9780752498232"
32753712,Yoga Philosophy of Patanjali: Containing His Yoga Aphorisms With Vyasa's Commentary in Sanskrit and a Translation With Annotations Including Many Su: ... many suggestions for the practice of yoga,,,,Swami Hariharananda Aranya,1984,,State Univ of New York Pr,,512,1420,English,,,,"0873957288,9780873957281",,,,,,,,,,,0,,,,,,1,1,7346419,pdf,E14B7C2C8EEC5CF096DD51E202023EC3,,,0873957288.SUNY_Press.Yoga_Philosophy_of_Patanjali__Containing_ractice_of_Yoga.Patanjali_&_Swami_Harihar_nanda__ra_ya.Jan.1983.pdf,0,2021-03-17 07:20:40,2021-03-17 07:20:40,e14b7c2c8eec5cf096dd51e202023ec3-g.jpg,,"0873957288,9780873957281"
32753713,The Colonies of Genoa in the Black Sea Region: Evolution and Transformation: 11,,,,Evgeny Khvalkov,2017,1°,Routledge,,458,458,English,,,,"1138081604,9781138081604",,,,,,,,,,,0,,,,,,1,1,7343204,pdf,9F9F29B4B171C16959E2F9A2248BB337,,,"9781138081604.Routledge.Colonies_of_Genoa_in_the_Black_Sea_Region__Evolution_and_Transformation,_The.Evgeny_Khvalkov.Feb.2018.pdf",0,2021-03-17 07:21:29,2021-03-17 07:21:29,9f9f29b4b171c16959e2f9a2248bb337-g.jpg,,"1138081604,9781138081604"
32753714,Initiation in the Aeon of the Child: The Inward Journey,,,,J. Daniel Gunther,2014,Reprint,Ibis Pr,,223,408,English,,,,"0892542098,9780892542093",,,,,,,,,,,0,,,,,,1,1,7325956,pdf,995CFC38491DB8F1CFE7F38F186875B4,,,"9780892542116.Nicolas-Hays,_Inc_Angel_&_the_Abyss,_The.Gunther,_J._Daniel.Oct.2014.pdf",0,2021-03-17 07:22:12,2021-03-17 07:22:12,995cfc38491db8f1cfe7f38f186875b4-g.jpg,,"0892542098,9780892542093"
32753715,Britannica Book of the Year 1954,,,,Encyclopaedia Britannica,1954,,"Encyclopaedia Britannica, Inc.",,,801,English,64,,,,,,,,,,,,,,300,1,1,0,1,1,1,1,238921288,pdf,49E72529834D2D65C20413A0AE3A881E,,,1954 Britannica Book of the Year.pdf,0,2021-03-17 07:22:29,2021-03-17 07:22:29,49e72529834d2d65c20413a0ae3a881e-g.jpg,,
32753716,Tears of the Tree: The Story of Rubber - A Modern Marvel,,,,John Loadman,2005,New,OUP Oxford,,356,367,English,,,,"0198568401,9780198568407",,,,,,,,,,,0,,,,,,,1,7295177,pdf,8729CCAB141DA8B32A91CBAF90811A68,,,9780198568407.OxfordUP.Tears_of_the_Tree__The_Story_of_Rubber_-_a_Modern_Marvel.John_Loadman.Jul.2005.pdf,0,2021-03-17 07:22:57,2021-03-17 07:22:57,8729ccab141da8b32a91cbaf90811a68-g.jpg,,"0198568401,9780198568407"
32753717,Usuriers Publics Et Banquiers Du Prince: Le Role Economique Des Financiers Piemontais Dans Les Villes Du Luche De Brabant,,,,David Kusman,2013,1°,Brepols Pub,,467,486,Francese,,,,"2503529259,9782503529257",,,,,,,,,,,0,,,,,,,1,7293149,pdf,68AF01871CAB9D63FB461F898FC29D1B,,,9782503529257.Brepols.Usuriers_publics_et_banquiers_du_prince__s_du_duche_de_Brabant_(XIIIe-XIVe_siecle).David_Kusman.Feb.2013.pdf,0,2021-03-17 07:23:37,2021-03-17 07:23:37,68af01871cab9d63fb461f898fc29d1b-g.jpg,,"2503529259,9782503529257"
32753718,Chi-mewinzha: Ojibwe Stories from Leech Lake,,,,"Dorothy Dora Whipple, Wendy Makoons Geniusz (editor), Brendan Fairbanks (editor)",2015,,Univ of Minnesota Pr,,124,145,English,,,,"9780816697267,0816697264",,,,,,,,,,,0,,,,,,1,1,7292515,pdf,97F5711E3ABBA61AEF6A744EF8C4861F,,,9780816697267.University_of_Minnesota_Press.Chi-Mewinzha__Ojibwe_Stories_From_Leech_Lake.Dorothy_Dora_Whipple.Feb.2015.pdf,0,2021-03-17 07:24:36,2021-03-17 07:24:36,97f5711e3abba61aef6a744ef8c4861f-g.jpg,,"9780816697267,0816697264"
32753719,Anti-Italianism in Sixteenth-Century France,,,,Henry Heller,2003,,University of Toronto Press,,360,320,English,,,,"0802036899,9780802036896",,,,,,,,,,,0,,,,,,1,1,5468823,pdf,4374EE6478A31B9F0DAEA51C5D8191D6,,,Anti-Italianism in Sixteenth-century France-10.pdf,0,2021-03-17 07:25:33,2021-03-17 07:25:33,4374ee6478a31b9f0daea51c5d8191d6-g.jpg,,"0802036899,9780802036896"
32753720,"Proclus and the Chaldean Oracles: A Study on Proclean Exegesis, with a Translation and Commentary of Proclus’ Treatise On Chaldean Philosophy",,,,Nicola Spanu,2020,1°,Routledge,,210,211,English,,,,"0367473143,9780367473143",,,,,,,,,,,0,,,,,,1,1,7277177,pdf,5DDF45E7AE43C9F85615A581DC46CDA5,,,9780367473143.Routledge.Proclus_and_the_Chaldean_Oracles__A_StuProclus'_Treatise_on_Chaldean_Philosophy.Nicola._Spanu.Aug.2020.pdf,0,2021-03-17 07:25:53,2021-03-17 07:25:53,5ddf45e7ae43c9f85615a581dc46cda5-g.jpg,,"0367473143,9780367473143"
32753721,'The Right Ordering of Souls': The Parish of All Saints' Bristol on the Eve of the Reformation,,,,Clive Burgess,2018,,Boydell Press,,491,493,English,,,,"1783273097,9781783273096",,,,,,,,,,,0,,,,,,1,1,7255986,pdf,0F9007F94E4F61AAC6DDCD9DD5001A5D,,,"9781783273096.Boydell_Press.Right_Ordering_of_Souls'__The_Parisistol_on_the_Eve_of_the_Reformation,_The.Clive_Burgess.Feb.2018.pdf",0,2021-03-17 07:26:38,2021-03-17 07:26:38,0f9007f94e4f61aac6ddcd9dd5001a5d-g.jpg,,"1783273097,9781783273096"
32753722,Modern Fourier Analysis: 250,,,,Loukas Grafakos,2014,3°,Springer Verlag,,642,636,English,,,,"1493912291,9781493912292",,,,,,,,,,,0,,,,,,1,1,7255805,pdf,D065065BFE59AD0BFCA6579AC08D23AC,,,9781493912292.Springer.Modern_Fourier_Analysis.Loukas_Grafakos.Apr.2009.pdf,0,2021-03-17 07:27:26,2021-03-17 07:27:26,d065065bfe59ad0bfca6579ac08d23ac-g.jpg,,"1493912291,9781493912292"
32753723,Universal Chronicles in the High Middle Ages,,,,Henry Bainton (editor),2017,,York Medieval Press,,328,330,English,,,,"1903153735,9781903153734",,,,,,,,,,,0,,,,,,1,1,7240351,pdf,1807BDB17BA82ED54FC555AA2B3646DB,,,9781903153734.Boydell_&_Brewer.Universal_Chronicles_in_the_High_Middle_Ages.Michele_Campopiano_&_Henry_Bainton.Feb.2017.pdf,0,2021-03-17 07:28:11,2021-03-17 07:28:11,1807bdb17ba82ed54fc555aa2b3646db-g.jpg,,"1903153735,9781903153734"
32753724,Bombing Pompeii: World Heritage and Military Necessity,,,,Nigel Pollard,2020,,Univ of Michigan Pr,,321,341,English,,,,"0472132202,9780472132201",,,,,,,,,,,0,,,,,,1,1,7234815,pdf,106D68782DF2A7A1B281B6816EF395FD,,,9780472132201.University_of_Michigan_Press.Bombing_Pompeii__World_Heritage_and_Military_Necessity.Nigel_Pollard.Nov.2020.pdf,0,2021-03-17 07:28:53,2021-03-17 07:28:53,106d68782df2a7a1b281b6816ef395fd-g.jpg,,"0472132202,9780472132201"
32753725,Analysis of Algorithms,,,,Jeffrey McConnell,2009,,Jones & Bartlett Publishers,,451,471,English,,,,"9780763787004,0763787000",,,,,,,,FUeGDaqjk5oC,,,0,,,,,,,0,7230293,pdf,200EDF0B7630822DB46314AC773C6619,,,9780763787004.Jones_&_Bartlett.Analysis_of_Algorithms.Jeffrey_McConnell.Nov.2007.pdf,0,2021-03-17 07:29:56,2021-03-17 07:29:56,200edf0b7630822db46314ac773c6619-g.jpg,,"9780763787004,0763787000"
32753726,Britannica Book of the Year 1960,,,,Encyclopaedia Britannica,1960,,"Encyclopaedia Britannica, Inc.",,,854,English,64,,,,,,,,,,,,,,300,1,1,0,1,1,1,1,162169786,pdf,8FE867D30E98F0CF358B1A524D62E97A,,,1960 Britannica Book of the Year.pdf,0,2021-03-17 07:29:56,2021-03-17 07:29:56,8fe867d30e98f0cf358b1a524d62e97a-g.jpg,,
32753727,"Poetry Writing Handbook (ENHANCED eBook): Definitions, Examples, Lessons",,,,Greta Barclay Lipson,1998,,Lorenz Educational Press,,112,116,English,,,,"9781429111362,1429111364",,,,,,,,nbmUC_7K15IC,,,0,,,,,,,1,7227128,pdf,B5E5C895B18C48821A1316E2E769D0E7,,,"9781429111362.Lorenz_Educational_Press.Poetry_Writing_Handbook_)__Definitions,_Examples,_Lessons.Greta_Barclay_Lipson.Mar.1998.pdf",0,2021-03-17 07:30:56,2021-03-17 07:30:56,b5e5c895b18c48821a1316e2e769d0e7-g.jpg,,"9781429111362,1429111364"
32753728,The Chemistry of Organic Derivatives of Gold and Silver,,,,"Saul Patai (editor), Zvi Rappoport (editor)",1999,,John Wiley & Sons Inc,,734,749,English,,,,"0471981648,9780471981640",,,,,,,,,,decrypted from B97D30FCA6F5B16E7BDF8D53B23E0FDC source file,0,,,,,,,1,7226777,pdf,00613059574469CC4799B2F1ACCF9197,,,"0471981648.Wiley.Chemistry_of_Organic_Derivatives_of_Gold_and_Silver,_The.Saul_Patai_&_Zvi_Rappoport.Oct.1999.pdf",0,2021-03-17 07:31:47,2021-03-17 07:31:47,00613059574469cc4799b2f1accf9197-g.jpg,,"0471981648,9780471981640"
32753729,Što te briga što drugi misle,,,,Richard P. Feynman,2010,,Mozaik knjiga,Zagreb,185,185,Croatian,264,,,9789531407595,,,,,,,,,,,0,,,,,,1,1,1840351,pdf,95565193D030C8A7B5BE05353529DDB8,,,huum.info-248369088-richard-feynman-sto-te-briga-sto-drugi-mislepdf-pr_ee19df4e4d1309da0456db17cbafcedd.pdf,0,2021-03-17 07:32:41,2021-03-17 10:23:26,95565193d030c8a7b5be05353529ddb8-g.jpg,,9789531407595
32753730,The Book of Building Fires: How to Master the Art of the Perfect Fire,,,,S. Coulthard,2018,,Chronicle Books,,160,164,English,,,,"9781452170824,1452170827",,,,,,,,045iDwAAQBAJ,,,0,,,,,,1,1,7210883,pdf,0B0BC3C9959B3D5DB9CDFAF6F6AED907,,,"9781452170824.Chronicle_Books.Book_of_Building_Fires__How_to_Master_the_Art_of_the_Perfect_Fire,_The.S._Coulthard.Oct.2018.pdf",0,2021-03-17 07:32:43,2021-03-17 07:32:43,0b0bc3c9959b3d5db9cdfaf6f6aed907-g.jpg,,"9781452170824,1452170827"
32753731,Kushan Mystique,,,,David Jongeward,2020,,Spink & Son Ltd,,248,229,English,,,,"1912667460,9781912667468",,,,,,,,,,,0,,,,,,1,1,7209720,pdf,DAB0FD6869B33364F3B6F3679CC3AE5A,,,9781912667468.Spink_&_Son_Limited.Kushan_Mystique.David_Jongeward.May.2020.pdf,0,2021-03-17 07:33:38,2021-03-17 07:33:38,dab0fd6869b33364f3b6f3679cc3ae5a-g.jpg,,"1912667460,9781912667468"
32753732,"Art in Chemistry: Chemistry in Art: Chemistry in Art, 2nd Edition",,,,Barbara R. Greenberg,2007,2,Libraries Unlimited,,412,413,English,,,,"1591583098,9781591583097",,,,,,,,,,,0,,,,,,1,1,7206879,pdf,5F3C21931571714F7C827879845A7F0B,,,"9781591583097.Teacher_Ideas_Press.Art_in_Chemistry,_Chemistry_in_Art.Barbara_R._Greenberg_&_Dianne_Patterson.Feb.2008.pdf",0,2021-03-17 07:34:18,2021-03-17 07:34:18,5f3c21931571714f7c827879845a7f0b-g.jpg,,"1591583098,9781591583097"
32753733,Aramaean Borders: Defining Aramaean Territories in the 10th   8th Centuries B.C.E.,,,,"Jan Duek (editor), Jana Mynárová (editor)",2019,8,Brill Academic Pub,,351,370,English,,,,"900439852X,9789004398528",,,,,,,,,,,0,,,,,,1,1,7202689,pdf,9ED0016E61E1AA56FF05692DFC33C03E,,,9789004398528.Brill.Aramaean_Borders__Defining_Aramaean_Territothe_10th_8th_Centuries_B.C.E_Jan_Dusek_&_Jana_Mynarova.Feb.2019.pdf,0,2021-03-17 07:35:08,2021-03-17 07:35:08,9ed0016e61e1aa56ff05692dfc33c03e-g.jpg,,"900439852X,9789004398528"
32753734,mySAP ERP for Dummies,,,,"Andreas Vogel, Ian Kimbell",2005,1.,For Dummies,,291,314,English,,,,"076459995X,9780764599958",,,,,,,,,,,0,,,,,,1,1,7187213,pdf,223669696674782B03854EA3F054C137,,,9780764599958.Wiley.MySAP_ERP_for_Dummies.Andreas_Vogel_&_Ian_Kimbell.Sep.2005.pdf,0,2021-03-17 07:36:00,2021-03-17 07:36:00,223669696674782b03854ea3f054c137-g.jpg,,"076459995X,9780764599958"
32753735,There Is No Planet B: A Handbook for the Make or Break Years – Updated Edition,,,,Mike Berners-Lee,2021,Revised,Cambridge University Press,,336,338,English,,,,"110882157X,9781108821575",,,,,,,,,,,0,,,,,,1,1,7183529,pdf,B585AA842047D7E97B81CB552786DE67,,,9781108821575.Cambridge_University_Press.There_Is_No_Planet_B___Make_or_Break_Years__Updated_Edition.Mike_Berners-Lee.Jan.2021.pdf,0,2021-03-17 07:36:40,2021-03-17 07:36:40,b585aa842047d7e97b81cb552786de67-g.jpg,,"110882157X,9781108821575"
32753736,L'exercisier - Corrigés des exercices,,,,"Christiane Descotes-Genon, Marie-Hélène Morsel et Claude Richou",2005,2005,Presse Universitaire de Grenoble PUG,Grenoble,,139,French,,,,9782706115097,,,,,,,,,,,0,,,,,,,1,96893002,pdf,1BD284D13EDFA1EEBBA31C1536C2AAE9,,,L'exercisier - Corrigés.pdf,0,2021-03-17 07:37:25,2021-03-17 07:37:25,1bd284d13edfa1eebba31c1536c2aae9-g.jpg,,9782706115097
32753737,Imperial Villages: Cultures of Political Freedom in the German Lands c. 1300-1800,,,,Beat Kümin,2019,,BRILL,,292,294,English,,,,"9789004396609,9004396608",,,,,,,,BzGbDwAAQBAJ,,,0,,,,,,1,1,7178008,pdf,C34111A6BA8C23B5CDEE76CA44FDD338,,,9789004396609.Brill.Imperial_Villages__Cultures_of_Political_Freedom_in_the_German_Lands_C._1300-1800.Beat_Kumin.May.2019.pdf,0,2021-03-17 07:37:27,2021-03-17 07:37:27,c34111a6ba8c23b5cdee76ca44fdd338-g.jpg,,"9789004396609,9004396608"
32753738,"Vi se sigurno šalite, gospodine Feynman",,,,Richard P. Feynman,2007,,Izvori,Zagreb,276,276,Croatian,,,,9789532032895,,,,,,,,,,,0,,,,,,,1,2243988,pdf,A7C8241A9B24D35603B00D31110276F8,,,documentstips-vi-se-sigurno-salite-gospodine-feynman_compress.pdf,0,2021-03-17 07:37:53,2021-03-17 10:22:46,a7c8241a9b24d35603b00d31110276f8-g.jpg,,9789532032895
32753739,"Archaeology of the Military Orders: A Survey of the Urban Centres, Rural Settlements and Castles of the Military Orders in the Latin East (c.1120–1291)",,,,Adrian Boas,2006,1°,Routledge,,336,337,English,,,,"0415299802,9780415299800",,,,,,,,,,,0,,,,,,1,1,7171133,pdf,3A356214CC5D62EF7078A53BE99C0286,,,9780415299800.Taylor_&_Francis.Archaeology_of_the_Military_Ordeary_Orders_in_the_Latin_East_(C.1120-1291).Adrian_Boas.Aug.2006.pdf,0,2021-03-17 07:38:05,2021-03-17 07:38:05,3a356214cc5d62ef7078a53be99c0286-g.jpg,,"0415299802,9780415299800"
32753740,The Greater India Experiment: Hindutva and the Northeast,,,,Arkotong Longkumer,2020,1°,Stanford Univ Pr,,321,338,English,,,,"1503613461,9781503613461",,,,,,,,,,,0,,,,,,1,1,7159401,pdf,DA50484930204FA8DCF96F1A805D76EA,,,"9781503613461.Stanford_University_Press.Greater_India_Experiment__Hindutva_and_the_Northeast,_The.Arkotong_Longkumer.Dec.2020.pdf",0,2021-03-17 07:38:39,2021-03-17 07:38:39,da50484930204fa8dcf96f1a805d76ea-g.jpg,,"1503613461,9781503613461"
32753741,Britannica Book of the Year 1962,,,,Encyclopaedia Britannica,1962,,"Encyclopaedia Britannica, Inc.",,,897,English,64,,,,,,,,,,,,,,300,1,1,0,1,1,1,1,202811238,pdf,6215DD373765B412DF139D1117F8451D,,,1962 Britannica Book of the Year.pdf,0,2021-03-17 07:39:41,2021-03-17 07:39:41,6215dd373765b412df139d1117f8451d-g.jpg,,
32753742,A construção social da realidade: tratado de sociologia do conhecimento,,,,Peter Berger & Thomas Luckmann,2003 (1985),,Vozes,Petrópolis,248 p.,253,Portuguese,178,,,85.326.05982,,,,,,,,,,,300,1,1,0,1,1,0,1,9265785,pdf,C0565D9360C8BD18847874DBD9776D25,,,BEGER Peter. A construcao social da realidade.pdf,0,2021-03-17 07:39:49,2021-03-17 07:39:49,c0565d9360c8bd18847874dbd9776d25-g.jpg,,85.326.05982
32753743,"After Discourse: Things, Affects, Ethics",,Routledge Archaeologies of the Contemporary World,,Bjørnar J. Olsen (editor); Mats Burström (editor); Caitlin DeSilvey (editor); Þóra Pétursdóttir (editor),2021,,Routledge,,,323,English,,,,"0367190486,9780367190484",,,,,,,,,,,0,,,,,,1,1,8481588,pdf,5FBB90C0E556431D4BCF9D5456E9B36A,,,9780429200014.pdf,0,2021-03-17 07:48:43,2021-03-17 07:48:43,5fbb90c0e556431d4bcf9d5456e9b36a-g.jpg,,"0367190486,9780367190484"
32753744,Terapie sexuala pentru cuplu,,,,"Victoria Zdrok Wilson, John Wilson",,,Litera,,,162,Romanian,,,,,,,,,,,,,,,0,,,,,,1,1,784323,pdf,F73387894923E3B2B08402A78C8087CF,,,"Terapie sexuala pentru cuplu - John Wilson,Victoria Wilson.pdf",0,2021-03-17 02:07:27,2021-03-17 02:07:27,f73387894923e3b2b08402a78c8087cf-g.jpg,,
32753745,Сборник Отделения русского языка и словесности Императорской Академии наук,80 1 2 3,,,,1905,,Типография Императорской Академии наук,Санктпетербург,,1186,Russian (Old),321,,,,,,,,,,,,,,600,,,0,1,1,0,0,28250992,djvu,48C074051E00EB629162F1B70998579C,,,80 1-3 1905.djvu,0,2021-03-17 06:25:07,2021-03-17 06:25:07,48c074051e00eb629162f1b70998579c-g.jpg,,
32753746,Сборник Отделения русского языка и словесности Императорской Академии наук,79,,,,1905,,Типография Императорской Академии наук,Санктпетербург,,1060,Russian (Old),321,google,,,,,,,,,,,,,0,,,0,1,1,0,1,35357669,pdf,A1247C1968B55092E52E868F59F7C6AE,,,79 1905.pdf,0,2021-03-17 06:39:17,2021-03-17 06:39:17,a1247c1968b55092e52e868f59f7c6ae-g.jpg,,
32753747,Britannica Book of the Year 1949,,,,Encyclopaedia Britannica,1949,,"Encyclopaedia Britannica, Inc.",,,835,English,64,,,,,,,,,,,,,,300,1,1,0,1,1,1,1,93512874,pdf,81CCCC3022ADEC8AE49D233D5844105A,,,1949 Britannica Book of the Year.pdf,0,2021-03-17 06:41:22,2021-03-17 06:41:22,81cccc3022adec8ae49d233d5844105a-g.jpg,,
32753748,Aprender a vivir con fibromialgia,,,,Javier García Campayo; Aida Pascual López,2005,,Edika Med,Barcelona,85,32,Spanish; Castilian,,,,"9788478773954,8478773959",,,,,,,,LaKiAAAACAAJ,,,0,,,,,,1,1,474914,pdf,AF3FA282CDD0D94B84A80CA3E0F8C5B9,,,Aprendiendo a vivir con fibromialgia. Parace que mata pero puedes vivir con ella.pdf,0,2021-03-17 06:44:43,2021-03-17 06:44:43,af3fa282cdd0d94b84a80ca3e0f8c5b9-g.jpg,,"9788478773954,8478773959"
32753749,A Mesopotâmia,,Que História é Essa?,,Marcelo Rede,2002,,Saraiva,São Paulo,48,47,Portuguese,,,,,,,,,,,,,,,0,,,0,,,,0,11101133,pdf,71F941AF333F55687F8567B3FAC60448,,,MesoRede.pdf,0,2021-03-17 06:46:04,2021-03-17 06:46:04,71f941af333f55687f8567b3fac60448-g.jpg,,
32753750,"Instructional Writing in English, 1350-1650: Materiality and Meaning",,,,Carrie Griffin,2019,1°,Routledge,,254,255,English,,,,"140945262X,9781409452621",,,,,,,,,,,0,,,,,,1,1,7506706,pdf,E0BBB423B914B02619F4387D0E25446A,,,"9781409452621.Routledge.Instructional_Writing_in_English,_1350-1650__Materiality_and_Meaning.Carrie_Griffin.Feb.2019.pdf",0,2021-03-17 06:46:08,2021-03-17 06:46:08,e0bbb423b914b02619f4387d0e25446a-g.jpg,,"140945262X,9781409452621"
32753751,Artistic and Cultural Dialogues in the Late Medieval Mediterranean,,,,María Marcos Cobaleda (editor),2020,1st ed. 2021,Palgrave Macmillan,,288,304,English,,,,"3030533654,9783030533656",,,,,,,,,,,0,,,,,,1,1,7496166,pdf,03397641C4F11D7FD652E2B16917ED88,,,9783030533656.Springer.Artistic_and_Cultural_Dialogues_in_the_Late_Medieval_Mediterranean.Maria_Marcos_Cobaleda.Dec.2020.pdf,0,2021-03-17 06:47:20,2021-03-17 06:47:20,03397641c4f11d7fd652e2b16917ed88-g.jpg,,"3030533654,9783030533656"
32753752,死海古卷,,,,西奥多.H.加斯特,1995,,商务印书馆,Beijing,,532,Chinese,,,,"9787100015912,710001591X",,,,,,,,,,,0,0,0,,,1,0,1,18319300,pdf,35B481046C6E29B873D16048DAA7873D,,,死海古卷[美]西奥多·H.加斯特英译.王神荫译.商务印书馆(1995).pdf,0,2021-03-17 06:47:46,2021-03-17 06:47:46,35b481046c6e29b873d16048daa7873d-g.jpg,,"9787100015912,710001591X"
32753753,Quantitative Data Analysis for Language Assessment Volume II: Advanced Methods,,,,"Vahid Aryadoust (editor), Michelle Raquel (editor)",2019,1°,Routledge,,260,260,English,,,,"1138733148,9781138733145",,,,,,,,,,,0,,,,,,1,1,7494790,pdf,296D41F838BF0455738639F1374BCCC9,,,9781138733145.Routledge.Quantitative_Data_Analysis_for_Language_Assessment.Vahid_Aryadoust_&_Michelle_Raquel.Feb.2019.pdf,0,2021-03-17 06:48:06,2021-03-17 06:48:06,296d41f838bf0455738639f1374bccc9-g.jpg,,"1138733148,9781138733145"
32753754,Movimentos Populares na idade Média,,Coleção Desafios,,José Rivair Macedo,1993,,Moderna,São Paulo,79,81,Portuguese,,,,,,,,,,,,,,,0,,,0,,,,0,21601378,pdf,D685D324169E3EADDFA67F29FBA6553A,,,Movimentos.pdf,0,2021-03-17 06:48:56,2021-03-17 06:48:56,d685d324169e3eaddfa67f29fba6553a-g.jpg,,
32753755,Crossing the Gate: Everyday Lives of Women in Song Fujian (960-1279),,,,Man Xu,2016,,State Univ of New York Pr,,357,374,English,,,,"1438463219,9781438463216",,,,,,,,,,,0,,,,,,1,1,7487222,pdf,E5BDDCA4E29E8786FB563156353BD5EF,,,9781438463216.SUNY_Press.Crossing_the_Gate__Everyday_Lives_of_Women_in_Song_Fujian_(960-1279).Man_Xu.Oct.2016.pdf,0,2021-03-17 06:48:57,2021-03-17 06:48:57,e5bddca4e29e8786fb563156353bd5ef-g.jpg,,"1438463219,9781438463216"
32753756,Сборник Отделения русского языка и словесности Императорской Академии наук,78 1 2 3 4 5,,,,1905,,Типография Императорской Академии наук,Санктпетербург,,1074,Russian (Old),321,archive.org,,,,,,,,,,,,,400,,,0,1,1,0,1,30959938,djvu,698665BC3905B35B361E4D3CFC0A14E8,,,78 1-3 1904 4-5 1905.djvu,0,2021-03-17 06:49:15,2021-03-17 06:49:15,698665bc3905b35b361e4d3cfc0a14e8-g.jpg,,
32753757,"Erotic Colour Prints of the Ming Period: With an Essay on Chinese Sex Life from the Han to the Ching Dynasty, B.C. 206-A.D. 1644",,,,Robert Hans Van Gulik,2003,,Brill Academic Pub,,,329,English,,,,"9004136649,9789004136649",,,,,,,,,,,0,,,,,,,1,7473087,pdf,144C95E033D4A513A9FB24C71069F67D,,,"9004136649.Brill.Erotic_Colour_Prints_of_the_Ming_Period__With_'ing_Dynasty,_B.C._206-A.D._1644.Robert_Hans_van_Gulik.Feb.2004.pdf",0,2021-03-17 06:50:04,2021-03-17 06:50:04,144c95e033d4a513a9fb24c71069f67d-g.jpg,,"9004136649,9789004136649"
32753758,Britannica Book of the Year 1950,,,,Encyclopaedia Britannica,1950,,"Encyclopaedia Britannica, Inc.",,,735,English,64,,,,,,,,,,,,,,300,1,1,0,1,1,1,1,148232742,pdf,AE7989E7DBD7284A59DC8C722183F9FD,,,1950 Britannica Book of the Year.pdf,0,2021-03-17 06:50:14,2021-03-17 06:50:14,ae7989e7dbd7284a59dc8c722183f9fd-g.jpg,,
32753759,Practical Tourism Research,,,,Stephen L. J. Smith,2016,2,Cab Intl,,268,297,English,,,,"1780648871,9781780648873",,,,,,,,,,,0,,,,,,1,1,7471808,pdf,70E87FC76A410B31E3D40B6200C32EF6,,,"9781780648873.CABI.Practical_Tourism_Research,_2nd_Edition.Stephen_L_J_Smith.Dec.2016.pdf",0,2021-03-17 06:50:54,2021-03-17 06:50:54,70e87fc76a410b31e3d40b6200c32ef6-g.jpg,,"1780648871,9781780648873"
32753760,Anton Wilhelm Amo's Philosophical Dissertations on Mind and Body,,,,Stephen Menn; Justin E H Smith,2020,,OUP USA,,248,253,English,,,,"0197501621,9780197501627",,,,,,,,,,,0,,,,,,1,1,7458683,pdf,1E84C62381935DBEC03AA95270490907,,,9780197501627.OxfordUP.Anton_Wilhelm_Amo's_Philosophical_Disserons_on_Mind_and_Body.Stephen_Menn_&_Justin_E._H._Smith.Feb.2020.pdf,0,2021-03-17 06:52:22,2021-03-17 06:52:22,1e84c62381935dbec03aa95270490907-g.jpg,,"0197501621,9780197501627"
32753761,The Yoga-Darshana: The Sutras of Patanjali--With the Bhasya of Vyasa: Sutras of Patanjali with Bhasya of Vyasa,,,,"Patanjali, Ganganath Jha, S. Subrahmanya Sastri",2002,Revised,Asian Humanities Pr,,296,298,English,,,,"0895819511,9780895819512",,,,,,,,,,,0,,,,,,,0,7457674,pdf,7490B41A61C1B86F8106DD7EE1515D8D,,,9780895819512.Jain_Publishing_Company.Yoga-Darshana__ComprisingPatanjali_&_Sir_Ganganatha_Jha_&_S._Subrahmanya_Sastri.Feb.2002.pdf,0,2021-03-17 06:53:29,2021-03-17 06:53:29,7490b41a61c1b86f8106dd7ee1515d8d-g.jpg,,"0895819511,9780895819512"
32753762,Principles of Electron Tunneling Spectroscopy: Second Edition: 152,,,,E. L. Wolf,2011,2,OUP Oxford,,610,617,English,,,,"0199589496,9780199589494",,,,,,,,,,,0,,,,,,1,1,7455952,pdf,F946D77795710F7CFAEFF55679AF7592,,,9780199589494.OxfordUP.Principles_of_Electron_Tunneling_Spectroscopy__Second_Edition.E._L._Wolf.Feb.2012.pdf,0,2021-03-17 06:54:08,2021-03-17 06:54:08,f946d77795710f7cfaeff55679af7592-g.jpg,,"0199589496,9780199589494"
32753763,Advanced Persistent Threat: Understanding the Danger and How to Protect Your Organization,,,,Dr. Eric Cole,2012,1°,Syngress,,308,309,English,,,,"1597499498,9781597499491",,,,,,,,,,,0,,,,,,1,1,7438264,pdf,DC592F16A09E82BDE0632A04478E85B8,,,9781597499491.Elsevier_Science.Advanced_Persistent_Threat__Unde_Danger_and_How_to_Protect_Your_Organization.Eric_Cole.Nov.2012.pdf,0,2021-03-17 06:54:45,2021-03-17 06:54:45,dc592f16a09e82bde0632a04478e85b8-g.jpg,,"1597499498,9781597499491"
32753764,新旧约全书,,,,,1989,,中国基督教协会 印发,南京,299,1193,Chinese,205,,,,,,,,,,,,,,0,0,0,,,1,1,0,56994239,pdf,FFA2278BA822E3B2C716FE731B24CDE4,,,新旧约全书.中国基督教协会印发（1989年，南京）.pdf,0,2021-03-17 06:55:23,2021-03-17 06:55:23,ffa2278ba822e3b2c716fe731b24cde4-g.jpg,,
32753765,We're Still Here: Pain and Politics in the Heart of America,,,,Jennifer M. Silva,2019,,"Oxford University Press, USA",,304,225,English,,,,"0190888059,9780190888053",,,,,,,,E8SbDwAAQBAJ,,,0,,,,,,1,1,7431435,pdf,7785973A40A5EAB780D76964CDE91D9F,,,9780190888053.OxfordUP.We're_Still_Here__Pain_and_Politics_in_the_Heart_of_America.Jennifer_M._Silva.Jul.2019.pdf,0,2021-03-17 06:55:53,2021-03-17 06:55:53,7785973a40a5eab780d76964cde91d9f-g.jpg,,"0190888059,9780190888053"
32753766,Britannica Book of the Year 1951,,,,Encyclopaedia Britannica,1951,,"Encyclopaedia Britannica, Inc.",,,739,English,64,,,,,,,,,,,,,,300,1,1,0,1,1,1,1,207973154,pdf,26D3E127745018CC76205730D22448EE,,,1951 Britannica Book of the Year.pdf,0,2021-03-17 06:58:35,2021-03-17 06:58:35,26d3e127745018cc76205730d22448ee-g.jpg,,
32753767,古兰经,,,,马坚 译,2003,2,中国社会科学出版社,,484,507,Chinese,205,,,9787500406778,,,,,,,,,,,0,0,0,,,1,1,1,19530035,pdf,092C2EB3E3149CC3302B31040400C2EE,,,古兰经.马坚译.中国社会科学出版社(2003).pdf,0,2021-03-17 06:59:35,2021-03-17 06:59:35,092c2eb3e3149cc3302b31040400c2ee-g.jpg,,9787500406778
32753768,Britannica Book of the Year 1952,,,,Encyclopaedia Britannica,1952,,"Encyclopaedia Britannica, Inc.",,,709,English,64,,,,,,,,,,,,,,300,1,1,0,1,1,1,1,182024996,pdf,45794CA01D031AC3289B3CDA20D90E2B,,,1952 Britannica Book of the Year.pdf,0,2021-03-17 07:06:26,2021-03-17 07:06:26,45794ca01d031ac3289b3cda20d90e2b-g.jpg,,
32753769,Medieval Ritual And Early Modern Music: The Devotional Practice of Lauda Singing in Late-renaissance Italy: 01,,,,"Eyolf Ostrem, Nils Holger Petersen",2008,1°,Brepols Pub,,348,356,English,,,,"2503520669,9782503520667",,,,,,,,,,,0,,,,,,,1,7422930,pdf,90513F37E4549F02B99FA50196E3289A,,,9782503520667.Brepols.Medieval_Ritual_and_Early_Modern_Music__T-Renaissance_Italy.Eyolf_Ostrem_&_Nils_Holger_Petersen.Feb.2008.pdf,0,2021-03-17 07:06:29,2021-03-17 07:06:29,90513f37e4549f02b99fa50196e3289a-g.jpg,,"2503520669,9782503520667"
32753770,Peptides: Chemistry and Biology,,,,"Norbert Sewald, Hans-Dieter Jakubke",2002,,Vch Verlagsgesellschaft Mbh,,562,590,English,,,,"3527304053,9783527304059",,,,,,,,,,,0,,,,,,,1,7420656,pdf,A6FE38C801C327D798ACB36D5FC3352D,,,3527304053.Wiley.Peptides__Chemistry_and_Biology.Norbert_Sewald_&_Hans-Dieter_Jakubke.Feb.2002.pdf,0,2021-03-17 07:07:14,2021-03-17 07:07:14,a6fe38c801c327d798acb36d5fc3352d-g.jpg,,"3527304053,9783527304059"
32753771,Purifying the Land of the Pure: A History of Pakistan's Religious Minorities,,,,Farahnaz Ispahani,2017,,OUP USA,,224,225,English,,,,"0190621656,9780190621650",,,,,,,,,,,0,,,,,,1,1,7416349,pdf,11E8F39FC5CA38BFB762E6CE23D50DD9,,,9780190621650.OxfordUP.Purifying_the_Land_of_the_Pure__A_History_of_Pakistan's_Religious_Minorities.Farahnaz_Ispahani.Feb.2017.pdf,0,2021-03-17 07:07:50,2021-03-17 07:07:50,11e8f39fc5ca38bfb762e6ce23d50dd9-g.jpg,,"0190621656,9780190621650"
32753772,Practical Vulnerability Management: A Strategic Approach to Managing Cyber Risk,,,,Andrew Magnusson,2020,,No Starch Pr,,166,196,English,,,,"1593279884,9781593279882",,,,,,,,,,,0,,,,,,1,1,7403391,pdf,2A7AFBDC41C1636AE33DBCEC77DEA993,,,9781593279882.No_Starch_Press.Practical_Vulnerability_Management.Andrew_Magnusson.Sep.2020.pdf,0,2021-03-17 07:08:29,2021-03-17 07:08:29,2a7afbdc41c1636ae33dbcec77dea993-g.jpg,,"1593279884,9781593279882"
32753773,Сборник Отделения русского языка и словесности Императорской Академии наук,77 1-9,,,,1904,,Типография Императорской Академии наук,Санктпетербург,,1088,Russian (Old),321,archive.org,,,,,,,,,,,,,400,,,0,1,1,0,1,30721848,djvu,7A2B3C11853B2A52EDAB65C52F2D6EDC,,,77 1 1903 2-9 1904.djvu,0,2021-03-17 07:08:35,2021-03-17 07:08:35,7a2b3c11853b2a52edab65c52f2d6edc-g.jpg,,
32753774,Among the Gentiles: Greco-Roman Religion and Christianity,,,,Luke Timothy Johnson,2009,,Yale Univ Pr,,416,474,English,,,,"0300142080,9780300142082",,,,,,,,,,,0,,,,,,1,1,7398783,pdf,F4868F9E0D75890C2FD8DF4A92B7C57F,,,9780300142082.Yale_University_Press.Among_the_Gentiles__Greco-Roman_Religion_and_Christianity.Luke_Timothy_Johnson.Feb.2009.pdf,0,2021-03-17 07:09:21,2021-03-17 07:09:21,f4868f9e0d75890c2fd8df4a92b7c57f-g.jpg,,"0300142080,9780300142082"
32753775,"Mani in Dublin: Selected Papers from the Seventh International Conference of the International Association of Manichaean Studies in the Chester Beatty Library, Dublin, 8 12 September 2009",,,,"Siegfried G. Richter (editor), Charles Horton (editor), Klaus Ohlhafer (editor)",2015,,Brill Academic Pub,,459,478,English,,,,"9004288368,9789004288362",,,,,,,,,,,0,,,,,,1,1,7392057,pdf,D62A9653491F37AD67177E9885AAA79D,,,9789004288362.Brill.Mani_in_Dublin__Selected_Papers_From_the_Seiation_Of_Manichaean_Studies._International_Conference.Feb.2015.pdf,0,2021-03-17 07:10:30,2021-03-17 07:10:30,d62a9653491f37ad67177e9885aaa79d-g.jpg,,"9004288368,9789004288362"
32753776,The Metaphor of the Monster: Interdisciplinary Approaches to Understanding the Monstrous Other in Literature,,,,"Keith Moser (editor), Karina Zelaya (editor)",2020,,Bloomsbury USA Academic,,242,253,English,,,,"1501364332,9781501364334",,,,,,,,,,,0,,,,,,1,1,7381994,pdf,8AD481FFC3698C37EA52169646E384CB,,,"9781501364334.Bloomsbury_Academic.Metaphor_of_the_Monster__Intes_Other_in_Literature,_The.Keith_Moser_&_Karina_Zelaya.Oct.2020.pdf",0,2021-03-17 07:11:23,2021-03-17 07:11:23,8ad481ffc3698c37ea52169646e384cb-g.jpg,,"1501364332,9781501364334"
32753777,Britannica Book of the Year 1953,,,,Encyclopaedia Britannica,1953,,"Encyclopaedia Britannica, Inc.",,,680,English,64,,,,,,,,,,,,,,300,1,1,0,1,1,1,1,100730187,pdf,5D3AE08AA9300E38F0D6C7A20BDCF09B,,,1953 Britannica Book of the Year.pdf,0,2021-03-17 07:12:07,2021-03-17 07:12:07,5d3ae08aa9300e38f0d6c7a20bdcf09b-g.jpg,,
32753778,Naturally Occurring Chemicals Against Alzheimer s Disease,,,,"Tarun Belwal (editor), Seyed Mohammad Nabavi (editor), Seyed Fazel Nabavi (editor), Ahmad Reza Dehpour (editor), Samira Shirooie (editor)",2020,1°,Academic Pr,,636,534,English,,,,"0128192127,9780128192122",,,,,,,,,,,0,,,,,,1,1,7375522,pdf,1EEF84241CA24547471382C939707426,,,9780128192122.Elsevier.Naturally_Occurring_Chemicals_against_Aled_Fazel_Nabavi_&_Ahmad_Reza_Dehpour_&_Samira_Shirooie.Nov.2020.pdf,0,2021-03-17 07:13:27,2021-03-17 07:13:27,1eef84241ca24547471382c939707426-g.jpg,,"0128192127,9780128192122"
32753779,"Gender, Otherness, and Culture in Medieval and Early Modern Art",,,,"Carlee A. Bradbury (editor), Michelle Moseley-christian (editor)",2017,1st ed. 2017,Palgrave Macmillan,,244,255,English,,,,"3319650483,9783319650487",,,,,,,,,,,0,,,,,,1,1,7358250,pdf,4D0B2239BA80F0B2D2B524689DFAF6A3,,,"9783319650487.Springer.Gender,_Otherness,_and_Culture_in_Medievrn_Art.Carlee_A._Bradbury_&_Michelle_Moseley-Christian.Dec.2017.pdf",0,2021-03-17 07:16:31,2021-03-17 07:16:31,4d0b2239ba80f0b2d2b524689dfaf6a3-g.jpg,,"3319650483,9783319650487"
32753780,Сборник Отделения русского языка и словесности Императорской Академии наук,76 1 2 3 4 5,,,,1904,,Типография Императорской Академии наук,Санктпетербург,,1044,Russian (Old),321,rusneb.ru,,,,,,,,,,,,,600,0,1,0,1,1,0,0,15005615,djvu,DAC111212FE492A27513A545138D2160,,,76 1-2 1903 3-5 1904.djvu,0,2021-03-17 07:20:12,2021-03-17 07:20:12,dac111212fe492a27513a545138d2160-g.jpg,,
32753781,古兰经简注,,,,马仲刚 译注,2005,,宗教文化出版社,,670,1290,Chinese,,,,9787801236517,,,,,,,,,,,0,0,0,,,1,0,1,100612083,pdf,FDCE16240D2371DEAF0C3FB6913D8A8F,,,古兰经简注.马仲刚注释.宗教文化出版社(2005).pdf,0,2021-03-17 07:29:56,2021-03-17 07:29:56,fdce16240d2371deaf0c3fb6913d8a8f-g.jpg,,9787801236517
32753782,Сборник Отделения русского языка и словесности Императорской Академии наук,75 1 2 3 4 5 6 7 8,,,,1904,,Типография Императорской Академии наук,Санктпетербург,,1035,Russian (Old),321,google,,,,,,,,,,,,,0,,,0,1,1,0,1,35022244,pdf,BC33A7AA14A4A91410B9CC96B08FF97C,,,75 1-8 1903 1904.pdf,0,2021-03-17 07:29:59,2021-03-17 07:29:59,bc33a7aa14a4a91410b9cc96b08ff97c-g.jpg,,
32753783,圣经次经,,,,"赵沛林, 张钧, 殷耀 译",1995,,时代文艺出版社,,644,650,Chinese,,,,9787538709292,,,,,,,,,,,0,0,0,,,1,1,1,20011410,pdf,D654F88795A1570F35CD330D8DF0B4E1,,,圣经次经.赵沛林等译.时代文艺出版社(1995).pdf,0,2021-03-17 07:33:13,2021-03-17 07:33:13,d654f88795a1570f35cd330d8df0b4e1-g.jpg,,9787538709292
32753784,伊斯坦布尔之仁慈七日,,,,穆拉特·居尔索伊,2010,,中国国际广播出版社,,174,183,Chinese,,,,9787507829563,,,,,,,,,,,0,0,0,,,1,0,1,13847074,pdf,5C0FFFEFF4EA448827B86F6BBA75B214,,,伊斯坦布尔之仁慈七日[土耳其]穆拉特·居尔索伊著.夏勇敏译.中国国际广播出版社(2010).pdf,0,2021-03-17 07:36:44,2021-03-17 07:36:44,5c0fffeff4ea448827b86f6bba75b214-g.jpg,,9787507829563
32753785,Comprender el trastorno bipolar,,,,Manuel Martin Carrasco,2014,,Editorial AMAT,,80,80,Spanish,,,,"9788497357272,8497357272",,,,,,,,S2m9AgAAQBAJ,,,0,,,,,,1,1,1125385,pdf,2ED5E45ABB82FB48804ADD5221F1B54E,,,Comprender el trastorno bipolar.pdf,0,2021-03-17 07:42:05,2021-03-17 07:42:05,2ed5e45abb82fb48804add5221f1b54e-g.jpg,,"9788497357272,8497357272"
32753786,古拉格群岛（中）,,,,[俄] 亚历山大·索尔仁尼琴,1996,2,群众出版社,,,732,Chinese,,,,9787501410514,,,,,,,,,,,0,0,0,,,1,1,1,29882744,pdf,7AB838A9104A5BB6963B93C1208AA6AD,,,古拉格群岛++（中册）.pdf,0,2021-03-17 07:43:05,2021-03-17 07:43:05,7ab838a9104a5bb6963b93c1208aa6ad-g.jpg,,9787501410514
32753787,Convivir con el trastorno bipolar,,Convivir con,,Eduard Vieta Pascual; Javier Bejega; Francesc Colom Victoriano,2007,2,Editorial Médica Panamericana,Madrid,116,122,Spanish,,,,"9788479038403,8479038403",,,,,,,,,,,0,,,,,,,0,10625183,pdf,5C8C1F373456F5D8931D6B295A9EF961,,,Convivir con el trastorno bipolar.pdf,0,2021-03-17 07:44:45,2021-03-17 07:44:45,5c8c1f373456f5d8931d6b295a9ef961-g.jpg,,"9788479038403,8479038403"
32753788,西方心理咨询经典案例集,,,,徐光兴,2003,,上海教育出版社,,384,382,Chinese,,,,9787532088164,,,,,,,,,,,0,0,0,,,1,0,0,17758636,pdf,A1E6729C5E92ADAE4790A3CA000343DE,,,708. 西方心理咨询经典案例集.pdf,0,2021-03-17 07:48:25,2021-03-17 07:48:25,a1e6729c5e92adae4790a3ca000343de-g.jpg,,9787532088164
32753789,Cuando un ser querido es bipolar,,,,Cynthia G. Last,2010,,,,384,270,Spanish,,,,"843303586X,9788433035868",,,,,,,,,,,0,,,,,,1,1,1609298,pdf,E1D73428E9668EB3127F947164097515,,,Cuando un ser querido es bipolar.pdf,0,2021-03-17 07:49:02,2021-03-17 07:49:02,e1d73428e9668eb3127f947164097515-g.jpg,,"843303586X,9788433035868"
32753790,O dossel sagrado: elementos para uma teoria sociológica da religião,,"Coleção sociologia e religião, 2",,Peter L. Berger,1985,,Edições Paulinas,São Paulo,195 p.,196,Portuguese,,,,8505002407,,,,,,,,,,,300,1,1,0,1,1,0,1,12272818,pdf,F63E2D845F4F40461B8205211A5DA039,,,BERGER Peter. O dossel sagrado.pdf,0,2021-03-17 07:49:12,2021-03-17 07:49:12,f63e2d845f4f40461b8205211a5da039-g.jpg,,8505002407
32753791,Britannica Book of the Year 1963,,,,Encyclopaedia Britannica,1963,,"Encyclopaedia Britannica, Inc.",,,899,English,64,,,,,,,,,,,,,,300,1,1,0,1,1,1,1,160365292,pdf,81B218FF746C1B3FAB0FFC476E6A3608,,,1963 Britannica Book of the Year.pdf,0,2021-03-17 07:49:53,2021-03-17 07:49:53,81b218ff746c1b3fab0ffc476e6a3608-g.jpg,,
32753792,Objedinjavanje kvantitativnih i kvalitativnih istraživanja,,,,Živan Ristić,2016,1,EVROPSKI CENTAR ZA MIR I RAZVOJ (ECPD),Beograd,396,396,Serbian,195,,,9788672361001,,,,,,,,,,,0,,,,,,,1,7941828,pdf,A690C242F1E1F79D6F7885410C433F9D,,,2016_ristic_objedinjavanje_web.pdf,0,2021-03-17 07:51:25,2021-03-17 07:51:25,a690c242f1e1f79d6f7885410c433f9d-g.jpg,Metodologija nauke,9788672361001
32753793,心理学研究要义,,万卷方法,,詹妮弗·埃文斯,2010,,重庆大学出版社,,213,234,Chinese,,,,9787562450986,,,,,,,,,,,0,0,0,,,1,0,0,12423520,pdf,C3C8A2C88B51C5DC94B455BECA8B9096,,,[万卷]18 心理学研究要义.pdf,0,2021-03-17 07:53:51,2021-03-17 07:53:51,c3c8a2c88b51c5dc94b455beca8b9096-g.jpg,,9787562450986
32753794,Britannica Book of the Year 1965,,,,Encyclopaedia Britannica,1965,,"Encyclopaedia Britannica, Inc.",,,899,English,64,,,,,,,,,,,,,,300,1,1,0,1,1,1,1,91076122,pdf,1DB53834C22F7E517A4323E7067D95A0,,,1965 Britannica Book of the Year.pdf,0,2021-03-17 07:56:45,2021-03-17 07:56:45,1db53834c22f7e517a4323e7067d95a0-g.jpg,,
32753795,111个失败的案例: 常见的心理治疗错误 第2版,,,,杰拉德·斯考尼沃夫,2007,,北京大学出版社,,269,288,Chinese,,,,9787301126103,,,,,,,,,,,0,0,0,,,1,0,0,15988475,pdf,59D1FD4A954F8CB48EF8B71496B33BB8,,,707. 111个失败的案例_常见的心理治疗错误.pdf,0,2021-03-17 08:02:15,2021-03-17 08:02:15,59d1fd4a954f8cb48ef8b71496b33bb8-g.jpg,,9787301126103
32753796,The Yogi and the Commissar : and other essays : with a new preface by the author,,The Danube edition,,Arthur Koestler,,,Hutchinson,,,234,English,,,,"9780091531812,0091531810",,,,,,,,,,,300,,1,,,1,,1,3392633,pdf,A11ADFBABFED4541E7546CB1A612296A,,,"Koestler,_Arthur-The_Yogi_And_The_Commissar_:_And_Other_Essays_(1965).pdf",0,2021-03-17 08:08:06,2021-03-17 08:08:06,a11adfbabfed4541e7546cb1a612296a-g.jpg,,"9780091531812,0091531810"
32753797,心理学论文写作: 基于APA格式的指导手册（第8版）,,万卷方法,,拉尔夫·罗斯诺,2010,,重庆大学出版社,,182,205,Chinese,,,,9787562453543,,,,,,,,,,,0,0,0,,,1,1,1,18997144,pdf,3973A11F29CE981C61AAD32B2DC4687E,,,[万卷]17 心理学论文写作 第8版.pdf,0,2021-03-17 08:08:29,2021-03-17 08:08:29,3973a11f29ce981c61aad32b2dc4687e-g.jpg,,9787562453543
32753798,Britannica Book of the Year 1970,,,,Encyclopaedia Britannica,1970,,"Encyclopaedia Britannica, Inc.",,,899,English,64,,,0852291442,,,,,,,,,,,300,1,1,0,1,1,1,1,223484563,pdf,99920C0651AA9E0696CD964015DC988D,,,1970 Britannica Book of the Year.pdf,0,2021-03-17 08:08:48,2021-03-17 08:08:48,99920c0651aa9e0696cd964015dc988d-g.jpg,,0852291442
32753799,Сборник Отделения русского языка и словесности Императорской Академии наук,74 1 2,,,,1903,,Типография Императорской Академии наук,Санктпетербург,,1048,Russian (Old),321,google,,,,,,,,,,,,,0,,,0,1,1,0,1,52191632,pdf,6F138A80704283A7E8DF2841783529B9,,,74 1 2 1903.pdf,0,2021-03-17 08:08:48,2021-03-17 08:08:48,6f138a80704283a7e8df2841783529b9-g.jpg,,
32753800,A Comparison of Methylprednisolone and Dexamethasone in Intensive Care Patients with COVID-19,,,,"Justine J. Ko, Clay Wu, Neha Mehta, Noah Wald-Dickler, Wei Yang, Renli Qiao",2021,,,,,22,ENGLISH,,,,,,,,,,,10.1101/2021.02.03.21251088,,,,0,,,,,,,1,298204,pdf,986EB232336E78308C67CE3BE2B90DD8,,,2021.02.03.21251088v1.full.pdf,0,2021-03-17 08:11:02,2021-03-17 08:11:02,986eb232336e78308c67ce3be2b90dd8-g.jpg,,
32753801,印度20世纪经典小说,,,,[印度] 拉宾德拉纳特·泰戈尔,2006,,哈尔滨出版社,,,330,Chinese,,,,9787806995167,,,,,,,,,,,0,0,0,,,1,1,1,15452823,pdf,2B407F8064925F6BE91BA03735788EA0,,,印度20世纪经典小说.胡光利等译.哈尔滨出版社(2006).pdf,0,2021-03-17 08:11:47,2021-03-17 08:11:47,2b407f8064925f6be91ba03735788ea0-g.jpg,,9787806995167
32753802,Discussing Language,,Janua Linguarum. Series Maior (93),,Herman Parret,1974,,De Gruyter,,,441,English,314,,,,,,,,,,,,,,0,,,,,,1,1,8537293,pdf,14BEAD7822D723B193FE1C326E24E9AF,,,Discussing Language-10.pdf,0,2021-03-17 08:14:11,2021-03-17 08:14:11,14bead7822d723b193fe1c326e24e9af-g.jpg,,
32753803,Сборник Отделения русского языка и словесности Императорской Академии наук,73 1 2 3 4 5,,,,1903,,Типография Императорской Академии наук,Санктпетербург,,1144,Russian (Old),321,archive.org,,,,,,,,,,,,,400,,,0,1,1,0,1,34415848,djvu,204E3488EE822758C8E1488E3A5AE66A,,,73 1-5 1903.djvu,0,2021-03-17 08:14:22,2021-03-17 08:14:22,204e3488ee822758c8e1488e3a5ae66a-g.jpg,,
32753804,Britannica Book of the Year 1971,,,,Encyclopaedia Britannica,1971,,"Encyclopaedia Britannica, Inc.",,,900,English,64,,,0852291582,,,,,,,,,,,300,1,1,0,1,1,1,1,85506037,pdf,22C58C7C151FB6648C5457D652664191,,,1971 Britannica Book of the Year.pdf,0,2021-03-17 08:15:33,2021-03-17 08:15:33,22c58c7c151fb6648c5457d652664191-g.jpg,,0852291582
32753805,"Samuele. Introduzione, traduzione e commento",,Nuova versione della Bibbia dai testi antichi,,Massimo Gargiulo,2016,,San Paolo,,458,458,"Italian, Hebrew",,,,9788821577208,,,,,,,,,,,0,,,,,,,1,31036865,pdf,549A4F745C0A038FC47A25CFBF1EE9E5,,,Massimo Gargiulo - Samuele.pdf,0,2021-03-17 08:16:39,2021-03-17 08:16:39,549a4f745c0a038fc47a25cfbf1ee9e5-g.jpg,,9788821577208
32753806,I luoghi del pensiero. Dove sono nate le idee che hanno cambiato il mondo,,Piccola Biblioteca Neri Pozza,,Paolo Pagani,2019,,NERI POZZA EDITORE,,,0,Italian,,,,9788854518865,,,,,,,,,,,0,,,,,,,,1469716,epub,60D04A1715D031F63FD01ED9C9B77A85,,,I_Luoghi_del_Pensiero-_PAOLO_Pagani_2019.epub,0,2021-03-17 08:20:08,2021-03-17 08:20:08,60d04a1715d031f63fd01ed9c9b77a85-g.jpg,,9788854518865
32753807,Alain on Happiness,,,,"Robert D. Cottrell,  Jane E. Cottrell, Alain (Emile Chartier)",1973,Reprint,Northwestern University Press,,276,276,English,195,,,"0810108208,9780810108202",,,,,,,,,,,0,1,,0,,1,,1,11631017,pdf,710A7D25E4608C2A7F234F6E1148C88C,,,Alain on happiness.pdf,0,2021-03-17 08:21:51,2021-03-17 08:25:43,710a7d25e4608c2a7f234f6e1148c88c-g.jpg,"Émile-Auguste Chartier, Alain Chartier, propos sur le bonheur","0810108208,9780810108202"
32753808,"Levitico. Introduzione, traduzione e commento",,Nuova versione della Bibbia dai testi antichi,,Giorgio Paximadi,2017,,San Paolo,,354,354,"Italian, Hebrew",,,,"8821599426,9788821599422",,,,,,,,,,,0,,,,,,,1,24023938,pdf,401DECF861C1E22367065B2BB95712CA,,,Giorgio Paximadi - Levitico.pdf,0,2021-03-17 08:22:06,2021-03-17 08:22:06,401decf861c1e22367065b2bb95712ca-g.jpg,,"8821599426,9788821599422"
32753809,Britannica Book of the Year 1972,,,,Encyclopaedia Britannica,1972,,"Encyclopaedia Britannica, Inc.",,,806,English,64,,,085229168X,,,,,,,,,,,300,1,1,0,1,1,1,1,166628438,pdf,50A5E9CD4B16492AB044570D0C050676,,,1972 Britannica Book of the Year.pdf,0,2021-03-17 08:22:08,2021-03-17 08:22:08,50a5e9cd4b16492ab044570d0c050676-g.jpg,,085229168X
32753810,Nietzsche on the road. Quattromila chilometri verso la follia,,"Bloom, 188",,Paolo Pagani,2021,1 ed.,Neri Pozza,Vicenza,,0,Italian,,,,9788854522831,,,,,,,,,,,0,,,,,,,,1989027,epub,90DC42003763B50BDF0D4F8558053151,,,Nietzsche on the road - Paolo Pagani.epub,0,2021-03-17 08:23:47,2021-03-17 08:23:47,90dc42003763b50bdf0d4f8558053151-g.jpg,,9788854522831
32753811,基辛格: 大国博弈的背后,,,,沃尔特·艾萨克森,2008,,国际文化出版公司,,574,595,Chinese,,,,9787801737106,,,,,,,,,,,0,0,0,,,1,1,0,26351041,pdf,D6683781A7B83DD1A6885656DF28B670,,,基辛格：大国博弈的背后+（美）沃尔特·艾萨克森.pdf,0,2021-03-17 08:24:51,2021-03-17 08:24:51,d6683781a7b83dd1a6885656df28b670-g.jpg,,9787801737106
32753812,种子的信仰,,,,亨利·戴维·梭罗,2010,,上海书店出版社,,261,269,Chinese,,,,9787545802672,,,,,,,,,,,0,0,0,,,1,1,1,10136790,pdf,6605864FC5C79E226DE554E417EBAAAD,,,种子的信仰（美）亨利·戴维·梭罗.pdf,0,2021-03-17 08:27:15,2021-03-17 08:27:15,6605864fc5c79e226de554e417ebaaad-g.jpg,,9787545802672
32753813,Britannica Book of the Year 1973,,,,Encyclopaedia Britannica,1973,,"Encyclopaedia Britannica, Inc.",,,803,English,64,,,0852292821,,,,,,,,,,,300,1,1,0,1,1,1,1,113314123,pdf,27C80695A6C8965C63256BB12FA34E14,,,1973 Britannica Book of the Year.pdf,0,2021-03-17 08:28:20,2021-03-17 08:28:20,27c80695a6c8965c63256bb12fa34e14-g.jpg,,0852292821
32753814,印度的发现 （统一书号：10003-25）,,,,瓦哈拉尔·尼赫鲁 著 齐文 译,1956,,世界知识出版社,,783,802,Chinese,,,,,,,,,,,,,,,0,0,0,,,1,0,1,36692163,pdf,D6975B6F0F251B24F5C0C63A448A94D1,,,印度的发现[印度]尼赫鲁.齐文译.世界知识社(1956).pdf,0,2021-03-17 08:30:13,2021-03-17 08:33:18,d6975b6f0f251b24f5c0c63a448a94d1-g.jpg,,
32753815,过去的延续,,,,雅可夫·沙伯塔依,1995,,花城出版社,,240,248,Chinese,,,,9787536020528,,,,,,,,,,,0,0,0,,,1,0,1,9816929,pdf,04D4B1F4BEA4CDF14A7D273DB7A5662E,,,过去的延续[以色列]雅可夫·沙伯塔依.麦梅娟、谢咏译.花城出版社(1995).pdf,0,2021-03-17 08:34:21,2021-03-17 08:34:21,04d4b1f4bea4cdf14a7d273db7a5662e-g.jpg,,9787536020528
32753816,INFJ - Advocate (16personalities premium profile),,,,16personalities,,,,,,243,English,,,,,,,,,,,,,,decrypted from AB1E4F6B607175CDA3B5FE3C4952F67D source file,0,,,,,,1,1,2865867,pdf,249F2082EF25AD3E358E9D9C1B1AD865,,,Advocate profile.PDF,0,2021-03-17 08:35:47,2021-03-17 08:35:47,249f2082ef25ad3e358e9d9c1b1ad865-g.jpg,,
32753817,Britannica Book of the Year 1974,,,,Encyclopaedia Britannica,1974,,"Encyclopaedia Britannica, Inc.",,,803,English,64,,,0852292945,,,,,,,,,,,300,1,1,0,1,1,1,1,146613108,pdf,2080B68F872E8EA5AB693B4A0D6A8D47,,,1974 Britannica Book of the Year.pdf,0,2021-03-17 08:37:10,2021-03-17 08:37:10,2080b68f872e8ea5ab693b4a0d6a8d47-g.jpg,,0852292945
32753818,Сборник Отделения русского языка и словесности Императорской Академии наук,72 1 2 3 4 5,,,,1903,,Типография Императорской Академии наук,Санктпетербург,,1018,Russian (Old),321,google,,,,,,,,,,,,"poor quality, mangled pages",0,,,0,1,1,0,1,56701042,pdf,ED95D3C332B199A19AC14AC36F1CC608,,,72 1 2 3 4 5 1902 1903.pdf,0,2021-03-17 08:37:18,2021-03-17 08:37:18,ed95d3c332b199a19ac14ac36f1cc608-g.jpg,,
32753819,伊玛目霍梅尼诗集,,,,赛义德·鲁胡拉·霍梅尼,2009,,线装书局,,294,320,Chinese,,,,9787801069467,,,,,,,,,,,0,0,0,,,1,1,1,14981802,pdf,BF98F58CF7380789D4D197D7BC08250E,,,伊玛目霍梅尼诗集[伊朗]赛义德·鲁胡拉·霍梅尼.宋丕方译.线装书局(2009).pdf,0,2021-03-17 08:39:41,2021-03-17 08:39:41,bf98f58cf7380789d4d197d7bc08250e-g.jpg,,9787801069467
32753820,中国基督教史纲,,百年经典学术丛刊,,王治心,2012,,上海古籍出版社,,325,0,Chinese,,,,9787532561476,,,,,,,,,,,0,,,,,,,,1571671,mobi,1B92EE0785C7ACA8F64FF6A39360060C,,,1615988831.mobi,0,2021-03-17 08:41:08,2021-03-17 08:41:08,1b92ee0785c7aca8f64ff6a39360060c-g.jpg,,9787532561476
32753821,诗经楚辞选评,,中国古代文史经典读本,,徐志啸,2018,,上海古籍出版社,,,0,Chinese,,,,9787532588350,,,,,,,,,,,0,,,,,,,,339929,mobi,A0404E574A46933B7CD671536589AA48,,,1615988979.mobi,0,2021-03-17 08:43:20,2021-03-17 08:43:29,a0404e574a46933b7cd671536589aa48-g.jpg,,9787532588350
32753822,古籍修复技术,,,,童芷珍,2014,,上海古籍出版社,,221,0,Chinese,,,,9787532574384,,,,,,,,,,,0,,,,,,,,2527390,mobi,DB1F2F481BAA05FF13CFD7F1BE2BD3A5,,,1615988797.mobi,0,2021-03-17 08:45:36,2021-03-17 08:45:36,db1f2f481baa05ff13cfd7f1be2bd3a5-g.jpg,,9787532574384
32753823,丘处机“一言止杀”考,,杨讷著作集,,杨讷,2018,,上海古籍出版社,,200,0,Chinese,,,,9787532586950,,,,,,,,,,,0,,,,,,,,262619,mobi,8FE8BCD28C9D6D5E58E052E5635C5031,,,1615988656.mobi,0,2021-03-17 08:46:24,2021-03-17 08:46:34,8fe8bcd28c9d6d5e58e052e5635c5031-g.jpg,,9787532586950
32753824,古今名人书牍选,,龙榆生选名人尺牍三种,,龙榆生,2016,,上海古籍出版社,,248,0,Chinese,,,,9787532580460,,,,,,,,,,,0,,,,,,,,277862,mobi,84907925A5C4264AD233DBC82873829C,,,1615988793.mobi,0,2021-03-17 08:47:28,2021-03-17 08:47:28,84907925a5c4264ad233dbc82873829c-g.jpg,,9787532580460
32753825,"Statement by Major General George V.H. Moseley, retired, before House of Representatives Committee on Un-American Activities",,,,,1939,,,,,23,English,,,,,,,,,,,,,,,0,,,,,,,0,33957275,pdf,30DE7CF0BEEE799081CDACA27ED11329,,,Statement of General Moseley before CUAA.pdf,0,2021-03-17 08:48:29,2021-03-17 08:48:29,30de7cf0beee799081cdaca27ed11329-g.jpg,,
32753826,Сборник Отделения русского языка и словесности Императорской Академии наук,71 1 2 5 6 7,,,,1902,,Типография Императорской Академии наук,Санктпетербург,,1008,Russian (Old),321,google,,,,,,,,,,,,"poor quality, mangled pages, №№ 4 and 5 missing",0,,,0,1,1,0,1,34986692,pdf,F7E38BF8AC43FCED3A53F2E8446148D6,,,71 1 1902 2 5-6 1901 7 1902.pdf,0,2021-03-17 08:48:34,2021-03-17 08:48:34,f7e38bf8ac43fced3a53f2e8446148d6-g.jpg,,
32753827,魏晋之际的政治权力与家族网络,,中古中国知识·信仰·制度研究书系,,仇鹿鸣,2015,,上海古籍出版社,,337,0,Chinese,,,,9787532576159,,,,,,,,,,,0,,,,,,,,1025228,mobi,5830D5E0268FE6F8CF972930B799BBE5,,,1614077828.mobi,0,2021-03-17 08:48:51,2021-03-17 08:48:51,5830d5e0268fe6f8cf972930b799bbe5-g.jpg,,9787532576159
32753828,Arrivano i Sisters,,,,Patrick Dewitt,2012,,Neri Pozza,,272,0,Italian,,,,"8854504734,9788854504738",,,,,,,,,,,0,,,,,,,,234986,epub,DE8F73416D7B14C221B0F3E40349F770,,,"Arrivano i Sisters by Patrick deWitt [deWitt, Patrick] (z-lib.org).epub",0,2021-03-17 08:49:24,2021-03-17 10:19:49,de8f73416d7b14c221b0f3e40349f770-g.jpg,,"8854504734,9788854504738"
32753829,李白诗选评,,中国古代文史经典读本,,赵昌平,2019,,上海古籍出版社,,391,0,Chinese,,,,9787532592050,,,,,,,,,,,0,,,,,,,,487729,mobi,34B357E2586F1B8B3D5F90D2EEAF6227,,,1615988568.mobi,0,2021-03-17 08:49:33,2021-03-17 08:49:33,34b357e2586f1b8b3d5f90d2eeaf6227-g.jpg,,9787532592050
32753830,Byzance en Europe,,Créations Européennes,,Marie-France Auzépy (Coord.),2003,,Presses Universitaires de Vincennes,,240,156,French,,,,9782842921439,,,,,,,,,,,0,,,,,,,0,22626076,pdf,8BDBA06170FC2932B5A1A69C65CD4C22,,,'Byzance en Europe' de Marie-France Auzépy (Dir.).pdf,0,2021-03-17 08:51:06,2021-03-17 08:51:28,8bdba06170fc2932b5a1a69c65cd4c22-g.jpg,,9782842921439
32753831,Axexo de Pedagogía I,,Pedagogía SUAYED Primer semestre,,SUAYED UNAM,,,SUAYED UNAM,,,39,Spanish,,,,,,,,,,,,,,,0,,,,,,,0,6892854,pdf,10FB19F1A1734491279E6696989C0AAB,,,1181 anexo introducción a la pedagogía.pdf,0,2021-03-17 08:51:52,2021-03-17 08:51:52,10fb19f1a1734491279e6696989c0aab-g.jpg,,
32753832,Pathoma: Fundamentals of Pathology,2021,,,Dr. Husain A Sattar,2021,,pathoma.com,Chicago,234,234,English,147,,,"0983224609,9780983224600",,,,,,,,,,,0,1,1,,,0,1,1,13157707,pdf,3C5602F67760F668D93A8EF3996376E9,,,Pathoma 2021.pdf,0,2021-03-17 08:54:17,2021-03-17 08:54:17,3c5602f67760f668d93a8ef3996376e9-g.jpg,"Pathology, Pathoma, Fundamentals of Pathology, 2021","0983224609,9780983224600"
32753833,Britannica Book of the Year 1975,,,,Encyclopaedia Britannica,1975,,"Encyclopaedia Britannica, Inc.",,,771,English,64,,,,,,,,,,,,,,300,1,1,0,1,1,1,1,108200867,pdf,71F035C20FD8ED5555CACEE20E10DBAA,,,1975 Britannica Book of the Year.pdf,0,2021-03-17 08:56:38,2021-03-17 08:56:38,71f035c20fd8ed5555cacee20e10dbaa-g.jpg,,
32753834,"Basil I (867-886), the Founder of the Macedonian Dynasty - A Study of the Political and Military History of the Byzantine Empire in the Ninth Century (PhD thesis)",,,,Norman Tobias,1969,,Rutgers University,,,551,English,,,,,,,,,,,,,,,0,,,,,,,1,31098967,pdf,FD323198FD42BC3BBC6BD096E1817AFC,,,"'Basil I (867-886), the Founder of the Macedonian Dynasty - A Study of the Political and Military History of the Byzantine Empire in the Ninth Century' by Norman Tobias (PhD Thesis).pdf",0,2021-03-17 08:56:57,2021-03-17 08:56:57,fd323198fd42bc3bbc6bd096e1817afc-g.jpg,,
32753835,Drinkers of infinity : essays 1955-1967,,,,Arthur Koestler,1968,,Hutchinson and C°,,,302,English,,,,"9780090887606,0090887603",,,,,,,,,,,300,,1,,,1,,1,5022467,pdf,67B7E064D228C00C3EE860CB9D8C6A70,,,"Koestler, Arthur-Drinkers of infinity: essays (1968).pdf",0,2021-03-17 09:00:07,2021-03-17 10:19:17,67b7e064d228c00c3ee860cb9d8c6a70-g.jpg,,"9780090887606,0090887603"
32753836,The Hundred Years War (Part II): Different Vistas,,"History of Warfare, 51",,L. J. Andrew Villalon; Donald Kagay (Eds.),2008,,Brill,Leiden,480,513,English,,,,"9789004168213,2008022006",,,,,,,,,,,0,,,,,,1,1,3944903,pdf,54E8150C8D5434166512A912E93E7EB3,,,'The Hundred Years War (Part II). Different Vistas' by L. J. Andrew Villalon and Donald Kagay (Eds.).pdf,0,2021-03-17 09:00:42,2021-03-17 09:00:42,54e8150c8d5434166512a912e93e7eb3-g.jpg,,"9789004168213,2008022006"
32753837,Ранние формы танца,,,,Королева Э.,1977,,Штиинца,Кишинев,,217,русский,,,,,,,,,,,,,,,600,0,1,,,1,1,1,10680873,djvu,240FDB9A37A9C025966E7716681CCAB7,,,"Королева Э. Ранние формы танца (Кишинев, 1977).djvu",0,2021-03-17 09:01:01,2021-03-17 09:01:01,240fdb9a37a9c025966e7716681ccab7-g.jpg,,
32753838,Сборник Отделения русского языка и словесности Императорской Академии наук,70 1 2 3 4 5 6 7,,,,1902,,Типография Императорской Академии наук,Санктпетербург,,1075,Russian (Old),321,google,,,,,,,,,,,,some pages mangled,0,,,0,1,1,0,1,33036800,pdf,BEE75CB9928C0F09579CBF4AA57D20E0,,,70 1-7 1901 1902.pdf,0,2021-03-17 09:01:07,2021-03-17 09:01:07,bee75cb9928c0f09579cbf4aa57d20e0-g.jpg,,
32753839,Movimenti religiosi alternativi. Effetti dell'adesione e motivi dell'abbandono,,,,"Sergio Pollina, Achille Aveta",1998,,Libreria Editrice Vaticana,,248,199,Italian,,,,"8820925087,9788820925086",,,,,,,,,,,0,,,,,,,1,1036853,pdf,E7D9C4863069A32E39E4C0602F06BF4C,,,Aveta e Pollina - Movimenti religiosi alternativi - (testimoni di Geova).pdf,0,2021-03-17 09:02:35,2021-03-17 09:02:35,e7d9c4863069a32e39e4c0602f06bf4c-g.jpg,,"8820925087,9788820925086"
32753840,Britannica Book of the Year 1976,,,,Encyclopaedia Britannica,1976,,"Encyclopaedia Britannica, Inc.",,,770,English,64,,,0852293119,,,,,,,,,,,300,1,1,0,1,1,1,1,133590701,pdf,14A2C96D6099D0224636392AA0517C6E,,,1976 Britannica Book of the Year.pdf,0,2021-03-17 09:06:42,2021-03-17 09:06:42,14a2c96d6099d0224636392aa0517c6e-g.jpg,,0852293119
32753841,"Thesaurus Graeco Latinorum Eruditionis Scholasticae, sive  Ratio Docendi Ac Discendi, Facili, plana et Compendaria Prorsus Via",,,,Basilius Faber,1571,1,,Leipzig,1135,1135,latin,,,,,,,,,,,,,,,600,0,,,,1,,1,248992467,pdf,42112FE0BEF5BFAB7822FF4682632181,,,Thesaurus Graeco Latinorum Faber Gessner ABBYY OCR.pdf,0,2021-03-17 09:08:01,2021-03-17 09:08:01,42112fe0bef5bfab7822ff4682632181-g.jpg,,
32753842,"The Hundred Years War, (Part III): Further considerations",,,,L. J. Andrew Villalon; Donald Kagay (Eds.),2013,,Brill,Leiden,608,587,English,,,,"9789004245648,9789004245655,2013012195",,,,,,,,,,,0,,,,,,1,1,6861455,pdf,726E7CAD05ECE31C70E53F2EED2ED333,,,"'The Hundred Years War, (Part III). Further considerations' by L. J. Andrew Villalon and Donald Kagay (Eds.).pdf",0,2021-03-17 09:08:15,2021-03-17 09:08:15,726e7cad05ece31c70e53f2eed2ed333-g.jpg,,"9789004245648,9789004245655,2013012195"
32753843,Psicología de la Educación I y Psicología Evolutiva I,,Pedagogía SUAYED Primer semestre,,SUAYED UNAM,,,SUAYED UNAM,,,162,Spanish,,,,,,,,,,,,,,,0,,,1,,1,,0,90650406,pdf,DF5BC8E7A6DDF4944D0EBD00570189BB,,,Psi _ Educación 1 _ Evolutiva 1.pdf,0,2021-03-17 09:09:05,2021-03-17 09:09:05,df5bc8e7a6ddf4944d0ebd00570189bb-g.jpg,,
32753844,иё,69 1 2 3,,,,1901,,Типография Императорской Академии наук,Санктпетербург,,1116,Russian (Old),321,archive.org,,,,,,,,,,,,,400,,,0,1,1,0,1,34488174,djvu,7C5303DD59A3CBB881CE017A1C2CC331,,,69 1-3 1901.djvu,0,2021-03-17 09:09:32,2021-03-17 09:09:32,7c5303dd59a3cbb881ce017a1c2cc331-g.jpg,,
32753845,La hacienda real de Castilla en el siglo XV,,"Estudios de Historia, Nº 1",,Miguel Ángel Ladero Quesada,1973,,Universidad de la Laguna - Secretariados de Publicaciones,Santa Cruz de Tenerife,379,197,Spanish,,,,8460058077,,,,,,,,,,,0,,,,,,,1,40008495,pdf,9B9FE5DF03DFD894FD9BEC84511EB320,,,'La hacienda real de Castilla en el siglo XV' de Miguel Ángel Ladero Quesada.pdf,0,2021-03-17 09:10:57,2021-03-17 09:10:57,9b9fe5df03dfd894fd9bec84511eb320-g.jpg,,8460058077
32753846,Britannica Book of the Year 1977,,,,Encyclopaedia Britannica,1977,,"Encyclopaedia Britannica, Inc.",,,771,English,64,,,0852293259,,,,,,,,,,,300,1,1,0,1,1,1,1,150179716,pdf,0B780BAD0E0E1E1E09B5E345FD629CB8,,,1977 Britannica Book of the Year.pdf,0,2021-03-17 09:13:08,2021-03-17 09:13:08,0b780bad0e0e1e1e09b5e345fd629cb8-g.jpg,,0852293259
32753847,"Maimónides, el sabio sefaradí : el médico judío-español de la Edad de Oro, 1135-1204",,,,Antonio L. Turnes,2007,3,Ediciones Granada,,374,377,Spanish,,,,"9974962994,9789974962996",,,,,,,,,,,0,,,,,,1,0,63677552,pdf,43C0579195D36244B3A27A70A7D34088,,,"'Maimónides, el sabio sefaradí. El médico judío español de la Edad de Oro' de Antonio L. Turnes.pdf",0,2021-03-17 09:17:00,2021-03-17 09:17:00,43c0579195d36244b3a27a70a7d34088-g.jpg,,"9974962994,9789974962996"
32753848,Kinematics and Geometry of Planar and Spatial Cam Mechanisms,,,,Jyotsnamoy Chakraborty; Sanjay Govind Dhande,1977,,Wiley Eastern Limited,,174,109,English,220,,,"0852261160,9780852261163",,,,,,,,wxKBAAAACAAJ,,,300,0,1,0,1,1,,0,56839855,pdf,6402D39D7FBADC6C9F95AB047A36C938,,,Kinematics_geometry_of_planar_spatial_com_mechanisms.pdf,0,2021-03-17 09:20:17,2021-03-17 10:18:25,6402d39d7fbadc6c9f95ab047a36c938-g.jpg,,"0852261160,9780852261163"
32753849,Introducción a la Pedagogía I,,Pedagogía SUAYED Primer semestre,,SUAYED UNAM,,,SUAYED UNAM,,,135,Spanish,,,,,,,,,,,,,,,0,,,,,1,,0,74770446,pdf,BA91561CABFE07C880AC109F388AA66B,,,Introducción a la pedagogía 1.pdf,0,2021-03-17 09:20:34,2021-03-17 09:20:34,ba91561cabfe07c880ac109f388aa66b-g.jpg,,
32753850,The Arabic Role in Medieval Literary History: A Forgotten Heritage,,The Middle Ages Series,,María Rosa Menocal,1990,,University of Pennsylvania Press,,208,203,English,,,,"0812213246,2003065792",,,,,,,,,,,0,,,,,,1,1,12123360,pdf,8FD7D9AB4C03484B591EE0FF5E3CD28C,,,'The Arabic Role in Medieval Literary History. A Forgotten Heritage' by María Rosa Menocal.pdf,0,2021-03-17 09:20:39,2021-03-17 09:24:04,8fd7d9ab4c03484b591ee0ff5e3cd28c-g.jpg,,"0812213246,2003065792"
32753851,Britannica Book of the Year 1978,,,,Encyclopaedia Britannica,1978,,"Encyclopaedia Britannica, Inc.",,,771,English,64,,,0852293429,,,,,,,,,,,300,1,1,0,1,1,1,1,159963975,pdf,837A87658DA5CA913B5EDFB06B7424F9,,,1978 Britannica Book of the Year.pdf,0,2021-03-17 09:21:17,2021-03-17 09:21:17,837a87658da5ca913b5edfb06b7424f9-g.jpg,,0852293429
32753852,12 гренадерский Астраханский Его Величества полк в боевой службе Царю и Отечеству. Чтение для солдат,,,,Саранчовъ,1889,,И.Н. Кушнерев и К,М.,,141,Russian (Old),,,,,,,,,,,,,,,0,,,,,,1,0,569788132,pdf,F7F425FF0539E13207BE3577336888A7,,,Итог1.pdf,0,2021-03-17 09:22:30,2021-03-17 09:22:30,f7f425ff0539e13207be3577336888a7-g.jpg,,
32753853,Medieval Art in Motion: The Inventory and Gift Giving of Queen Clemence de Hongrie,,,,Mariah Proctor-Tiffany,2019,,Penn State University Press,,232,233,English,,,,"2018026636,9780271081120",,,,,,,,,,,0,,,,,,1,1,16815338,pdf,124E5502378C6C2345CE6737B6A1AAF1,,,'Medieval Art in Motion. The Inventory and Gift Giving of Queen Clemence de Hongrie' by Mariah Proctor-Tiffany.pdf,0,2021-03-17 09:24:31,2021-03-17 09:24:31,124e5502378c6c2345ce6737b6a1aaf1-g.jpg,,"2018026636,9780271081120"
32753854,Écrits mémorables - Tome 1,1,Collection Bouquin,,"Louis MASSIGNON, Christian JAMBET (editor)",2009,,Robert Laffont,Paris,1024,1026,French,,,,"2221105729,9782221105726",,,,,,,,,,,300,0,1,,1,1,,1,35719604,pdf,7C82090502D1921514C324CF5A087A6D,,,Écrits mémorables by Louis Massignon François LYvonnet François Angelier Souâd Ayada Christian Jambet abbyy ocr.pdf,0,2021-03-17 09:24:45,2021-03-17 09:24:45,7c82090502d1921514c324cf5a087a6d-g.jpg,,"2221105729,9782221105726"
32753855,Britannica Book of the Year 1979,,,,Encyclopaedia Britannica,1979,,"Encyclopaedia Britannica, Inc.",,,770,English,64,,,0852293623,,,,,,,,,,,300,1,1,0,1,1,1,1,125167020,pdf,4E9F9A8F88F6F8011ABFD295706E2B9A,,,1979 Britannica Book of the Year.pdf,0,2021-03-17 09:28:50,2021-03-17 09:28:50,4e9f9a8f88f6f8011abfd295706e2b9a-g.jpg,,0852293623
32753856,Элитные вооруженные силы,,,,Эрик Мишелетти,1998,,Полярис,Moskva,,160,Russian,,,,"9785881323806,5881323807",,,,,,,,,,,0,,,,,,1,0,439691473,pdf,C1864EA3D6FC01EAD21C1EF3CE4C440A,,,Итог2.pdf,0,2021-03-17 09:29:37,2021-03-17 09:29:37,c1864ea3d6fc01ead21c1ef3ce4c440a-g.jpg,,"9785881323806,5881323807"
32753857,Meetings of Cultures in the Black Sea Region: Between Conflict and Coexistence,,Black Sea Studies,,Pia Guldager Bilde; Jane Hjarl Petersen (Eds.),2008,,Aarhus University Press,Aarhus,422,422,English,,,,9788779346543,,,,,,,,,,,0,,,,,,1,1,37156784,pdf,22454D9552AF311AED456FFD4572A74F,,,'Meetings of Cultures in the Black Sea Region. Between Conflict and Coexistence' by Pia Guldager Bilde and Jane Hjarl Petersen (Eds.).pdf,0,2021-03-17 09:30:02,2021-03-17 09:30:02,22454d9552af311aed456ffd4572a74f-g.jpg,,9788779346543
32753858,Сборник Отделения русского языка и словесности Императорской Академии наук,68 1 2 3 4 5 6,,,,1901,,Типография Императорской Академии наук,Санктпетербург,,906,Russian (Old),321,google,,,,,,,,,,,,,0,,,0,1,1,0,1,25296442,pdf,612816589FBE4BFEF50AF7EF6661C047,,,68 1-3 1900 4 1901 5-6 1900 1901.pdf,0,2021-03-17 09:31:53,2021-03-17 09:31:53,612816589fbe4bfef50af7ef6661c047-g.jpg,,
32753859,Britannica Book of the Year 1980,,,,Encyclopaedia Britannica,1980,,"Encyclopaedia Britannica, Inc.",,,771,English,64,,,0852293720,,,,,,,,,,,300,1,1,0,1,1,1,1,119293257,pdf,3600191A91106AFCAD9B0DE21F6AE3D9,,,1980 Britannica Book of the Year.pdf,0,2021-03-17 09:33:44,2021-03-17 09:33:44,3600191a91106afcad9b0de21f6ae3d9-g.jpg,,0852293720
32753860,Mercenaries and Paid Men: The Mercenary Identity in the Middle Ages,,,,John France (Ed.),2008,,Brill,Leiden,416,428,English,,,,9789004164475,,,,,,,,,,,0,,,,,,1,1,4113570,pdf,3BF6F5EA0892CDF56B2EA7B399B399D2,,,'Mercenaries and Paid Men. The Mercenary Identity in the Middle Ages' by John France (Ed.).pdf,0,2021-03-17 09:33:52,2021-03-17 09:33:52,3bf6f5ea0892cdf56b2ea7b399b399d2-g.jpg,,9789004164475
32753861,A Cultural History of Bathing in Late Antiquity and Early Byzantium,,,,Michael Zitka,2020,,Routledge,,216,216,English,,,,"9780815354093,9781351134118",,,,,,,,,,,0,,,,,,1,1,3445710,pdf,5ED27CEC5E0F0E4A08A7F41CB8E67EBF,,,'A Cultural History of Bathing in Late Antiquity and Early Byzantium' by Michael Zitka.pdf,0,2021-03-17 09:38:07,2021-03-17 09:38:07,5ed27cec5e0f0e4a08a7f41cb8e67ebf-g.jpg,,"9780815354093,9781351134118"
32753862,Энциклопедия оружия,,,,Бехайм В.,1995,,Оркестр,Санкт-Петербург,,577,Russian,,,,5876850292,,,,,,,,,,,0,,,,,,1,0,635329319,pdf,4C4C2F5C5FF740C14191A9B41B96AA0E,,,Итог3.pdf,0,2021-03-17 09:40:06,2021-03-17 09:40:06,4c4c2f5c5ff740c14191a9b41b96aa0e-g.jpg,,5876850292
32753863,Mithridates VI and the Pontic Kingdom,,,,Jakob Munk Højte (Ed.),2009,,Aarhus University Press,Aarhus,375,376,English,,,,9788779346550,,,,,,,,,,,0,,,,,,1,1,37592618,pdf,ABF03D9749770CF5013D68E053A24250,,,'Mithridates VI and the Pontic Kingdom' by Jakob Munk Højte (Ed.).pdf,0,2021-03-17 09:41:10,2021-03-17 09:41:10,abf03d9749770cf5013d68e053a24250-g.jpg,,9788779346550
32753864,Musical Culture in the World of Adam de la Halle,,"Brill's Companions to the Musical Culture of Medieval and Early Modern Europe, 3",,Jennifer Saltzstein (Ed.),2019,,Brill,Leiden,446,445,English,,,,"2019003774,2019004877,9789004379480,9789004368453",,,,,,,,,,,0,,,,,,1,1,5689983,pdf,C188FF668D87656526BEA01998943955,,,'Musical Culture in the World of Adam de la Halle' by Jennifer Saltzstein (Ed.).pdf,0,2021-03-17 09:45:11,2021-03-17 09:45:11,c188ff668d87656526bea01998943955-g.jpg,,"2019003774,2019004877,9789004379480,9789004368453"
32753865,Магия ПК,,,№ 1/октябрь '97,,1997,,,,,54,Russian,,,,,,,,,,,,,,,0,,1,0,1,1,0,1,18575754,pdf,F660E5EDE8FB840E06DBA68564E74531,,,MagicPC_1997_01a.pdf,0,2021-03-17 09:45:14,2021-03-17 09:45:14,f660e5ede8fb840e06dba68564e74531-g.jpg,,
32753866,Сборник Отделения русского языка и словесности Императорской Академии наук,67 1 2 3 4 5 6 7 8 9,,,,1901,,Типография Императорской Академии наук,Санктпетербург,,1138,Russian (Old),321,archive.org,,,,,,,,,,,,,400,,,0,1,1,0,1,35053178,djvu,4F8FDA239734A5B71BD5A7E319FCB0C6,,,67 1-3 1899 4-6 1900 7-9 1901.djvu,0,2021-03-17 09:45:41,2021-03-17 09:45:41,4f8fda239734a5b71bd5a7e319fcb0c6-g.jpg,,
32753867,Борьба с танками,,,,"Бирюков Г.Ф., Мельников Г.В.",1967,,Воениздат,М.,,186,Russian,,,,,,,,,,,,,,,300,,,,,,,0,2589438,djvu,CD2A017677B2616E16BBA07F44029E7C,,,Борьба с танками -+- Бирюков Г.djvu,0,2021-03-17 09:45:43,2021-03-17 09:45:43,cd2a017677b2616e16bba07f44029e7c-g.jpg,,
32753868,Muslim Fortresses in the Levant: Between Crusaders and Mongols,,"Culture and Civilization in the Middle East, 23",,Kate Raphael,2010,,Routledge,,,284,English,,,,"2010007402,0203845161,9780415569255,9780203845165",,,,,,,,,,,0,,,,,,1,1,11164915,pdf,847B67B045040315D5AD5AEE0C794DE0,,,'Muslim Fortresses in the Levant. Between Crusaders and Mongols' by Kate Raphael.pdf,0,2021-03-17 09:47:36,2021-03-17 09:47:36,847b67b045040315d5ad5aee0c794de0-g.jpg,,"2010007402,0203845161,9780415569255,9780203845165"
32753869,Britannica Book of the Year 1981,,,,Encyclopaedia Britannica,1981,,"Encyclopaedia Britannica, Inc.",,,770,English,64,,,085229381X,,,,,,,,,,,300,1,1,0,1,1,1,1,153983963,pdf,F98C5B35BF14364CA52D9A7182DAB340,,,1981 Britannica Book of the Year.pdf,0,2021-03-17 09:48:34,2021-03-17 09:48:34,f98c5b35bf14364ca52d9a7182dab340-g.jpg,,085229381X
32753870,КомпьютерПресс,,,Выпуск 4,,1990,,,,,84,Russian,,,,,,,,,,,,,,,0,,0,0,1,1,1,1,27256228,pdf,D4BB210A208D90C61BF9FC8CC3690475,,,ComputerPress-1990-04b.pdf,0,2021-03-17 09:50:02,2021-03-17 09:50:02,d4bb210a208d90c61bf9fc8cc3690475-g.jpg,,
32753871,Законы снайперской войны.,,,,Рязанов О.,2003,,Восточный горизонт,М.,,241,Russian,,,,978593848004,,,,,,,,,,,600,,,,,,,0,27522404,djvu,A63C9E6AC6AABA8BAC6B88C6FA96883C,,,Законы снайперской войны. -+- Рязанов О.djvu,0,2021-03-17 09:50:06,2021-03-17 09:50:06,a63c9e6ac6aaba8bac6b88c6fa96883c-g.jpg,,978593848004
32753872,Nicholas Mesarites: His Life and Works (in Translation),,"Translated Texts for Byzantinists, 4",,Michael Angold,2017,,Liverpool University Press,,362,187,English,,,,"178694006X,9781786940063",,,,,,,,K2otMQAACAAJ,,,0,,,,,,,0,22300502,pdf,5A6D3E7C7AD34CBD6D470A54C99C6F99,,,'Nicholas Mesarites. His life and works (in translation)' by Michael Angold.pdf,0,2021-03-17 09:51:33,2021-03-17 10:17:00,5a6d3e7c7ad34cbd6d470a54c99c6f99-d.jpg,,"178694006X,9781786940063"
32753873,Sociología de la Educación II,,Pedagogía SUAYED Segundo semestre,,SUAYED UNAM,,,SUAYED UNAM,,,210,Spanish,,,,,,,,,,,,,,,0,,,,,1,,0,87614288,pdf,D9D6DEAE85ADC36F370A3B9DABCD3FF2,,,1221 Sociología de la Educación II.pdf,0,2021-03-17 09:53:57,2021-03-17 09:53:57,d9d6deae85adc36f370a3b9dabcd3ff2-g.jpg,,
32753874,Britannica Book of the Year 1982,,,,Encyclopaedia Britannica,1982,,"Encyclopaedia Britannica, Inc.",,,770,English,64,,,0852293941,,,,,,,,,,,300,1,1,0,1,1,1,1,118320513,pdf,7F01CA14A8197D511600694BA42A9636,,,1982 Britannica Book of the Year.pdf,0,2021-03-17 09:54:05,2021-03-17 09:54:05,7f01ca14a8197d511600694ba42a9636-g.jpg,,0852293941
32753875,Planning for Foot Traffic Flow in Buildings,,,,"V.M. Predtechenskii, A.I. Milinskii",1978,,Amerind,,,251,English,,,,,,,,,,,,,,,0,,,,,,,1,25183822,pdf,A990A948A29BF4DF9856715CAB46F5D0,,,"Planning for Foot Traffic Flow in Buildings - Predtechenskii, Milinskii (1969) 1978.pdf",0,2021-03-17 09:56:17,2021-03-17 09:56:17,a990a948a29bf4df9856715cab46f5d0-g.jpg,,
32753876,Советские сухопутные войска в последний год Союза ССР: справочник,,,,Андрей Григорьевич Ленский,2001,,В&К,Санкт-Петербург,293,294,Russian,,,,,,,,,,,,GujyAAAAMAAJ,,,0,,,,,,1,0,316810277,pdf,9E9B2E45B578F0294F895F09830A9107,,,Советские сухупутные войска в последний год Союза ССР. Справочник -+- Ленский А.pdf,0,2021-03-17 09:57:31,2021-03-17 09:57:31,9e9b2e45b578f0294f895f09830a9107-g.jpg,,
32753877,Монитор,,,Версия 1.91,,1991,,,,,51,Russian,,,,,,,,,,,,,,,600,,,0,1,1,1,0,2316687,djvu,C814F912794994ADDE6F8A20094E3C48,,,1991_01.djvu,0,2021-03-17 09:57:40,2021-03-17 09:57:40,c814f912794994adde6f8a20094e3c48-g.jpg,,
32753878,Britannica Book of the Year 1983,,,,Encyclopaedia Britannica,1983,,"Encyclopaedia Britannica, Inc.",,,770,English,64,,,0852294077,,,,,,,,,,,300,1,1,0,1,1,1,1,79859530,pdf,BAD59B33FCB5CF72E0B98F1EFAE3F85D,,,1983 Britannica Book of the Year.pdf,0,2021-03-17 09:57:42,2021-03-17 09:57:42,bad59b33fcb5cf72e0b98f1efae3f85d-g.jpg,,0852294077
32753879,Информационная война /,,,,С. П. Расторгуев,1998,,Радио и связь,М.,415 с.,221,Russian,,,,5256013998,,,,"Ч234(0)к1; Ю252:З818,0; Ю935.10-975,0",,,,,,,0,,,,,,1,1,2804716,pdf,ADDAB023ADC0A36FAC7790CBB7D9EDA7,,,Информационная война -+- Расторгуев С.pdf,0,2021-03-17 09:58:53,2021-03-17 09:58:53,addab023adc0a36fac7790cbb7d9eda7-g.jpg,,5256013998
32753880,Le nostre verità,,,,Kamala Harris,2021,,La nave di Teseo,,384,0,Italian,,,,"8834606531,9788834606537",,,,,,,,,,,0,,,,,,,,42557440,epub,33E4A563AABD2E002306C69471E2CBAC,,,Le nostre verità_nodrm.epub,0,2021-03-17 09:59:54,2021-03-17 09:59:54,33e4a563aabd2e002306c69471e2cbac-g.jpg,,"8834606531,9788834606537"
32753881,Psicología de la Educación II y Psicología Evolutiva II,,Pedagogía SUAYED Segundo semestre,,SUAYED UNAM,,,SUAYED UNAM,,,208,Spanish,,,,,,,,,,,,,,,0,,,,,1,,0,48297863,pdf,44FFE81EC37065A2F0001F5652DF4B20,,,1219-1222 Psicología de la Educación II y Psicología Evolutiva II.pdf,0,2021-03-17 10:01:31,2021-03-17 10:01:31,44ffe81ec37065a2f0001f5652df4b20-g.jpg,,
32753882,"Катера мобилизованные войной Альбом №1 КМ-4, ПГ",,,,"Д.С. Венедиктов, А.А. Гармашев",2008,,Частный Военно-Исторический Архив,Санкт-Петербург,,7,Russian,,,,,,,,,,,,,,,300,,,,,,,0,259798,djvu,72E1459BA1C2B554323B60A36E33685E,,,Катера мобилизованные войной Альбом №1 КМ-4 ПГ -+- Венедиктов Д.djvu,0,2021-03-17 10:02:11,2021-03-17 10:02:11,72e1459ba1c2b554323b60a36e33685e-g.jpg,,
32753883,Компьютер в школе,,"Новое в жизни, науке, технике. Вычислительная техника и ее применение №2",,,1988,,Знание,Москва,96,98,Russian,,,,,,,,,,,,,,,150,1,0,0,1,1,0,0,3284390,djvu,5A66398E466E5C47557B0341B28DB776,,,vtep1988_02.djvu,0,2021-03-17 10:03:55,2021-03-17 10:03:55,5a66398e466e5c47557b0341b28db776-g.jpg,,
32753884,"Огнестрельные ранения лица, ЛОР-органов и шеи",,,,"М.Б. Швырков, Г.И. Буренков, В.Р. Деменков; Под ред. М.Б. Швыркова",2001,,Медицина,М.,397 с.,398,Russian,,,,5225046045,,,,"Р665.808.1,07; Р457.260.81,07",,,,,,,400,,,,,,,0,8378082,djvu,4F37E50F8CAB269CFDB7B6DF68856478,,,"Огнестрельные ранения лица, ЛОР-органов и шеи -+- Швырков М.djvu",0,2021-03-17 10:05:00,2021-03-17 10:05:00,4f37e50f8cab269cfdb7b6df68856478-g.jpg,,5225046045
32753885,Интерфейс,,,4/91,,1991,,,,,68,Russian,,,,,,,,,,,,,,,0,1,0,0,1,1,0,1,43040310,pdf,82C8552947A3F2126F943793A2191DAA,,,interface_4_91.pdf,0,2021-03-17 10:05:52,2021-03-17 10:05:52,82c8552947a3f2126f943793a2191daa-g.jpg,,
32753886,Britannica Book of the Year 1985,,,,Encyclopaedia Britannica,1985,,"Encyclopaedia Britannica, Inc.",,,1006,English,64,,,,,,,,,,,,,,300,1,1,0,1,1,1,1,225237910,pdf,DBDDE7A43663346DBE74BAF62B7D23BC,,,1985 Britannica Book of the Year.pdf,0,2021-03-17 10:06:27,2021-03-17 10:06:27,dbdde7a43663346dbe74baf62b7d23bc-g.jpg,,
32753887,Arrow in the Blue: An Autobiography,1,,,Arthur Koestler,1952,,"Collins, With H. Hamilton",,322,309,English,,,,,,,,,,,,-7OFvQEACAAJ,,,300,,1,,,1,,1,8273883,pdf,09519EEA73F9B507B0DF52D3E4FEC2A4,,,"Koestler, Arthur-Arrow in the blue (1952).pdf",0,2021-03-17 10:10:10,2021-03-17 10:15:39,09519eea73f9b507b0df52d3e4fec2a4-d.png,,
32753888,Anexo de Pedagogía II,,Pedagogía SUAYED Segundo semestre,,Maria Esther Aguirre Loza,2011,,SUAYED UNAM,,,143,Spanish,,,,,,,,,,,,,,,0,,,,,1,,0,94376447,pdf,39BC2AE830A0EDCEDBDB55228CF1BAB3,,,Copia de Anexo.pdf,0,2021-03-17 10:12:08,2021-03-17 10:14:45,39bc2ae830a0edcedbdb55228cf1bab3-g.jpg,,
32753889,"Коммандос. Формирование, подготовка, выдающиеся операции спецподразделений",,,,Дон Миллер,1998,,Харвест,,,213,Russian,,,,9854331733,,,,,,,,,,,0,,,,,,1,1,1804821,pdf,DFC4F530CFFE16D6A6FC14380586F5E6,,,"Коммандос. Формирование, подготовка, выдающиеся операции спецподразделений -+- Миллер Д.pdf",0,2021-03-17 10:13:24,2021-03-17 10:13:24,dfc4f530cffe16d6a6fc14380586f5e6-g.jpg,,9854331733
32753890,Britannica Book of the Year 1986,,,,Encyclopaedia Britannica,1986,,"Encyclopaedia Britannica, Inc.",,,1007,English,64,,,0852294379,,,,,,,,,,,300,1,1,0,1,1,1,1,198393899,pdf,2E72DE300F7654FD18D835E70B5FA02F,,,1986 Britannica Book of the Year.pdf,0,2021-03-17 10:13:58,2021-03-17 10:13:58,2e72de300f7654fd18d835e70b5fa02f-g.jpg,,0852294379
32753891,Откуда и что на флоте пошло,,,,В. Дыгало,2000,,Крафт+,Москва,381,247,Russian,,,,5936750132,,,,"Т3(2)0-54,02; Ц66,6(2)0-1я44; Т3(2)0-752.3,02",,,,,,,0,,,,,,1,1,3349854,pdf,A2822729B736063E93E0BC392E0D0223,,,Откуда и что на флоте пошло -+- Дыгало В.pdf,0,2021-03-17 10:19:44,2021-03-17 10:19:44,a2822729b736063e93e0bc392e0d0223-g.jpg,,5936750132
32753892,Dar corpo ao impossível: O sentido da dialética a partir de Theodor Adorno,,,,Vladimir Safatle,2019,,Autêntica,,320,144,Portuguese,,,,"8551304550,9788551304556",,,,,,,,,,,0,,,,,,1,0,90903058,pdf,9725B7833D6D9C7CE9D04EADB38395EE,,,VLADIMIR SAFATLE - Dar corpo ao impossível.pdf,0,2021-03-17 10:23:28,2021-03-17 10:23:28,9725b7833d6d9c7ce9d04eadb38395ee-g.jpg,,"8551304550,9788551304556"
32753893,Специальные средства органов внутренных дел Российской Федерации,,,,Князев Н.,2007,,,Ростов-на- Дону,,24,Russian,,,,,,,,,,,,,,,0,,,,,,,0,62100334,pdf,121C9D7F9B1660B37FF874195CDF8D8A,,,Специальные средства органов внутренных дел Российской Федерации -+- Князев Н.pdf,0,2021-03-17 10:24:22,2021-03-17 10:24:22,121c9d7f9b1660b37ff874195cdf8d8a-g.jpg,,
32753894,Anxiety and Stress Management,,,,"Trevor J. Powell, Simon J. Enright",2017,1,Routledge,,210,211,English,,,,"1138925268,9781138925267",,,,,,,,,,,0,,,,,,1,1,4384428,pdf,1DA0B45EEBEA8333B753411BAACF8384,,,Anxiety and Stress Management Trevor Powell.pdf,0,2021-03-17 10:26:24,2021-03-17 10:26:24,1da0b45eebea8333b753411baacf8384-g.jpg,,"1138925268,9781138925267"
32753895,Britannica Book of the Year 1987,,,,Encyclopaedia Britannica,1987,,"Encyclopaedia Britannica, Inc.",,,974,English,64,,,0852294662,,,,,,,,,,,300,1,1,0,1,1,1,1,226823580,pdf,99143DAE9A029CC8D743DDC5A546A9B6,,,1987 Britannica Book of the Year.pdf,0,2021-03-17 10:27:24,2021-03-17 10:27:24,99143dae9a029cc8d743ddc5a546a9b6-g.jpg,,0852294662
32753896,Didactica General I,,Pedagogía SUAYED Tercer semestre,,SUAYED UNAM,,,SUAYED UNAM,,,260,Spanish,,,,,,,,,,,,,,,0,,,,,1,,0,28547280,pdf,9D4C7021A20A58F9FE55AA9971716EDB,,,DIDACTICA GENERAL I.pdf,0,2021-03-17 10:29:35,2021-03-17 10:29:35,9d4c7021a20a58f9fe55aa9971716edb-g.jpg,,
32753897,Стратегия 2020. Демонтаж армии.,,,,Коллектив авторов,2008,,Военно-Державный Союз России,М.,,18,Russian,,,,,,,,,,,,,,,0,,,,,,,1,2153395,pdf,2D027BDF546455B9549C3AB337D212F2,,,Стратегия 2020 Демонтаж армии.PDF,0,2021-03-17 10:30:18,2021-03-17 10:30:18,2d027bdf546455b9549c3ab337d212f2-g.jpg,,
32753898,Handbook of Neurotrauma: Volume 2: Cranial Trauma,,,,"Sumit Sinha, Nishant Yagnick, Harsh Deora",2021,1,Salubris Publishers,,,0,English,175,,,"9788194558194,8194558190",,B08YWP7DLB,,,,,,,,,0,,,,,,,,8860421,epub,F79C64E9E5E1DDD976E7443ADD32C8C8,,,Handbook of Neurotrauma Volume 2 Cranial Trauma.epub,0,2021-03-17 10:32:04,2021-03-17 10:32:04,f79c64e9e5e1ddd976e7443add32c8c8-g.jpg,Neurotrauma; Neurosurgery; Cranial Trauma; Traumatic Brain Injury,"9788194558194,8194558190"
32753899,Britannica Book of the Year 1988,,,,Encyclopaedia Britannica,1988,,"Encyclopaedia Britannica, Inc.",,,915,English,64,,,0852294867,,,,,,,,,,,300,1,1,0,1,1,1,1,92728298,pdf,D36E721A68488948CA659CA14511ADF2,,,1988 Britannica Book of the Year.pdf,0,2021-03-17 10:32:39,2021-03-17 10:32:39,d36e721a68488948ca659ca14511adf2-g.jpg,,0852294867
32753900,Сборник Отделения русского языка и словесности Императорской Академии наук,66 1 2 3 4 6 7 8,,,,1900,,Типография Императорской Академии наук,Санктпетербург,,1070,Russian (Old),321,google,,,,,,,,,,,,№ 5 missing,0,,,0,1,1,0,1,38469715,pdf,96C58740F8F8A4E01D32145D6603EFE4,,,66 1 1900 2 1898 3 1900 4 1898 6 1900 7-8 1899 1900.pdf,0,2021-03-17 10:32:43,2021-03-17 10:32:43,96c58740f8f8a4e01d32145d6603efe4-g.jpg,,
32753901,The Place of Humanities in Our Universities,,,,Mrinal Miri,2018,,Routledge,,,223,English,,,,"9781138688599,9781351252508",,,,,,,,,,,0,,,,,,1,1,886336,pdf,7F6AD6049275692E51836DB43B91A97E,,,The Place of Humanities in Our Universities.pdf,0,2021-03-17 10:34:21,2021-03-17 10:34:21,7f6ad6049275692e51836db43b91a97e-g.jpg,,"9781138688599,9781351252508"
32753902,In Mixed Company: Communicating in Small Groups and Teams,,,,J. Dan Rothwell,,10,,,,275,English,,,,"2018033502,9780190919900,9780190058500",,,,,,,,,,,0,,,,,,1,1,8991975,pdf,0D05C9CA40B63E2849B51BF140003468,,,COM Book.pdf,0,2021-03-17 10:35:07,2021-03-17 10:35:07,0d05c9ca40b63e2849b51bf140003468-g.jpg,,"2018033502,9780190919900,9780190058500"
32753903,Суперэсминцы Советского флота,,,,Д.Ю.Литинский,1998,,Тайфун,Санкт-Петербург,,79,Russian,,,,,,,,,,,,,,,0,,,,,,1,0,93850546,pdf,D2992B3C832C2E33D103EFCD424E1527,,,Суперэсминцы советского флота -+- Литинский Д.pdf,0,2021-03-17 10:35:12,2021-03-17 10:35:12,d2992b3c832c2e33d103efcd424e1527-g.jpg,,
32753904,Middle Eastern Minorities and the Arab Spring: Identity and Community in the Twenty-First Century,,The Modern Muslim World 2,,"K. Scott Parker, Tony E. Nasrallah",2017,,Gorgias Press,,,353,English,,,,9781463206536,,,,,,,,,,,0,,,,,,1,1,2206596,pdf,1132CA3C915FCFA50B5C9F71834B726C,,,Middle Eastern Minorities and the Arab Spring.pdf,0,2021-03-17 10:35:50,2021-03-17 10:35:50,1132ca3c915fcfa50b5c9f71834b726c-g.jpg,,9781463206536
32753905,Historia de la Educación y la Pedagogía I,,Pedagogía SUAYED Tercer semestre,,SUAYED UNAM,,,SUAYED UNAM,,,186,Spanish,,,,,,,,,,,,,,,0,,,1,,1,,0,21732392,pdf,35B375B2B33166480D1C6C5DE7EEB1AE,,,HISTORIA DE LA EDUCACI+ôN I.pdf,0,2021-03-17 10:36:25,2021-03-17 10:36:25,35b375b2b33166480d1c6c5de7eeb1ae-g.jpg,,
32753906,"Power and Influence in India: Bosses, Lords and Captains",,"Exploring the Political in South Asia, 5",,"Pamela Price, Arild Engelsen Ruud",2010,,Routledge,,,285,English,,,,"9780415467322,9780415460927,9780415544542,9780415563116,9780415585958",,,,,,,,,,,0,,,,,,1,1,1704061,pdf,4D63B5235D8D6DF4487F4882295918E9,,,Power and Influence in India.pdf,0,2021-03-17 10:38:07,2021-03-17 10:38:07,4d63b5235d8d6df4487f4882295918e9-g.jpg,,"9780415467322,9780415460927,9780415544542,9780415563116,9780415585958"
32753907,CONTACTO FISICO ESTABLECIDO - El Llamado Planetario II - por Marcelo G. Martorelli,,,,Marcelo G. Martorelli,2009,,,,,172,Spanish,,,,,,,,,,,,,,,0,1,1,0,0,0,0,1,899425,pdf,713A5F28F1718DFEFD3D794B6A411B69,,,Martorelli Marcelo - El Llamado Planetario 2 - Contacto Fisico Establecido.pdf,0,2021-03-17 10:38:18,2021-03-17 10:38:18,713a5f28f1718dfefd3d794b6a411b69-g.jpg,,
32753908,Denes Martos - Los Espartanosq,,,,hinohotaru.blogspot.com,2008,,,,,59,Spanish,,,,,,,,,,,,,,,0,1,1,0,0,0,0,1,1673614,pdf,9E0782B03C65996A993FCCD27BC25B63,,,Martos Denes - Los Espartanos.pdf,0,2021-03-17 10:38:37,2021-03-17 10:38:37,9e0782b03c65996a993fccd27bc25b63-g.jpg,,
32753909,Pensar en ser libre de la filosofía tradicional a la filosofía transpersonal,,,,Amador Martos,2011,,Silva,,,401,Spanish; Castilian,,,,"9788492465774,8492465778",,,,,,,,,,,0,1,1,0,0,0,0,1,2021758,pdf,78FC69124C05F884C08E58EE4C1714A8,,,Martos Garcia Amador - Pensar En Ser Libre - De La Filosofia Tradicional A La Filosofia Transpersonal.PDF,0,2021-03-17 10:39:31,2021-03-17 10:39:31,78fc69124c05f884c08e58ee4c1714a8-g.jpg,,"9788492465774,8492465778"
32753910,Britannica Book of the Year 1989,,,,Encyclopaedia Britannica,1989,,"Encyclopaedia Britannica, Inc.",,,915,English,64,,,0852295049,,,,,,,,,,,300,1,1,0,1,1,1,1,180408596,pdf,BA96532E21947EF49FEB92ECFC353F52,,,1989 Britannica Book of the Year.pdf,0,2021-03-17 10:40:23,2021-03-17 10:40:23,ba96532e21947ef49feb92ecfc353f52-g.jpg,,0852295049
32753911,Cambio de rumbo : la sociedad a escala del individuo,,Colección escafandra,,Danilo Martuccelli,2007,,,,,234,Spanish; Castilian,,,,"9781449258368,1449258360",,,,,,,,,,,0,1,1,0,0,0,0,1,6000424,pdf,12BB171A28E9CB7B12DEE85387F420CE,,,Martuccelli Danilo - Cambio De Rumbo.pdf,0,2021-03-17 10:41:12,2021-03-17 10:41:12,12bb171a28e9cb7b12dee85387f420ce-g.jpg,,"9781449258368,1449258360"
32753912,Corruption and the Lava Jato Scandal in Latin America,,Routledge Corruption and Anti-Corruption Studies,,Paul Lagunes and Jan Svejnar,2020,,Routledge,,,269,English,,,,"9780367904135,9781003024286",,,,,,,,,,,0,,,,,,1,1,4161167,pdf,209DE4DFD76A595E4D6A973B6D6A3375,,,Corruption and the Lava Jato Scandal in Latin America.pdf,0,2021-03-17 10:41:18,2021-03-17 10:41:18,209de4dfd76a595e4d6a973b6d6a3375-g.jpg,,"9780367904135,9781003024286"
32753913,Corrientes de Filosofía de la Educación I y Antropología Pedagógica,,Pedagogía SUAYED Tercer semestre,,SUAYED UNAM,,,SUAYED UNAM,,,454,Spanish,,,,,,,,,,,,,,,0,,,,,1,,0,45914428,pdf,89C97F5A32F0B0D2A096C2FBA550E058,,,CORRIENTES DE LA FILOSOFIA.pdf,0,2021-03-17 10:42:47,2021-03-17 10:42:47,89c97f5a32f0b0d2a096c2fba550e058-g.jpg,,
32753914,Social Histories of Iran: Modernism and Marginality in the Middle East,,,,Stephanie Cronin,2021,,Cambridge University Press,,,324,English,,,,"9781107190849,9781108120289,2020030270,2020030271,9781316641255",,,,,,,10.1017/9781108120289,,,,0,,,,,,,1,8641518,pdf,7F978C543036FCC435A89FA66F0493AE,,,Social Histories of Iran.pdf,0,2021-03-17 10:43:17,2021-03-17 10:43:17,7f978c543036fcc435a89fa66f0493ae-g.jpg,,"9781107190849,9781108120289,2020030270,2020030271,9781316641255"
32753915,Languages and Literary Cultures in Hyderabad,,,,Kousar J. Azam,2018,,Routledge,,,309,English,,,,"9781138095441,9781315141664",,,,,,,,,,,0,,,,,,1,1,9841589,pdf,573848F9EBAD22BB0B83A28A2F06F1FF,,,Languages and Literary Cultures in Hyderabad.pdf,0,2021-03-17 10:43:53,2021-03-17 10:43:53,573848f9ebad22bb0b83a28a2f06f1ff-g.jpg,,"9781138095441,9781315141664"
32753916,Fieramente humano (La Ciudad nº 3) (Spanish Edition),,,,Rodolfo Martínez,2015,,Sportula Ediciones,,,0,Spanish,,,,,,,,,,,,,,,0,1,1,0,0,0,0,1,1191268,epub,4A4CFB0D404DB0605BC811F47FEB7658,,,Mart�nez  Rodolfo - Fieramente Humano.epub,0,2021-03-17 10:44:02,2021-03-17 10:44:02,4a4cfb0d404db0605bc811f47feb7658-g.jpg,rodolfo martinez,
32753917,Hegelian-Lacanian Variations on Late Modernity: Spectre of Madness,,,,Alireza Taheri,2021,,Routledge,,,193,English,,,,"2020032308,2020032309,9780367523077,9780367523084,9781003057390",,,,,,,,,,,0,,,,,,1,1,17980266,pdf,04EC090EFE84D7D264D7E2102CF023BB,,,Hegelian-Lacanian Variations on Late Modernity.pdf,0,2021-03-17 10:44:25,2021-03-17 10:44:25,04ec090efe84d7d264d7e2102cf023bb-g.jpg,,"2020032308,2020032309,9780367523077,9780367523084,9781003057390"
32753918,Малая война Партизанство и диверсии,,,,М.А. Дробов,1998,,Вымпел,Владимир,,114,Russian,,,,,,,,,,,,,,,0,,,,,,1,0,44171080,pdf,A66EEEC93B148C2335A37423D6717A09,,,Итог1.pdf,0,2021-03-17 10:45:08,2021-03-17 10:45:08,a66eeec93b148c2335a37423d6717a09-g.jpg,,
32753919,Seguir la senda : introducción al budismo,,,,José Mas Godayol,2007,,CETR,,,105,Spanish; Castilian,,,,9788493536830,,,,,,,,,,,0,1,1,0,0,0,0,1,1147166,pdf,1A9A83A3BF3DF725C34D442813AFDDDB,,,Mas Godayol Josep - Seguir La Senda - Introduccion Al Budismo.pdf,0,2021-03-17 10:51:03,2021-03-17 10:51:03,1a9a83a3bf3df725c34d442813afdddb-g.jpg,,9788493536830
32753920,Сборник Отделения русского языка и словесности Императорской Академии наук,65 2 3 4 5 6 7 8 9,,,,1899,,Типография Императорской Академии наук,Санктпетербург,,1056,Russian (Old),321,google,,,,,,,,,,,,№ 1 missing (except half-title),0,,,0,1,1,0,1,33183028,pdf,3CB023018983CC4405DBEAE4DE2ABD03,,,65 2-5 1897 6 1898 7-8 1897 9 1898 1899.pdf,0,2021-03-17 10:51:07,2021-03-17 10:51:07,3cb023018983cc4405dbeae4de2abd03-g.jpg,,
32753921,Comunicación Educativa I,,Pedagogía SUAYED Tercer semestre,,SUAYED UNAM,,,SUAYED UNAM,,,241,Spanish,,,,,,,,,,,,,,,0,,,,,1,,0,20625160,pdf,FACB82CC134311A589307B89E77C1E96,,,COMUNICACI+ôN EDUCATIVA I.pdf,0,2021-03-17 10:51:13,2021-03-17 10:51:13,facb82cc134311a589307b89e77c1e96-g.jpg,,
32753922,Стратегия духа Основы воспитания войск по взглядам А.В. Суворова и М.И. Драгомирова,,Российский военный сборник,,Коллектив авторов,2000,,Русский путь,М.,,179,Russian,,,,,,,,,,,,,,,0,,,,,,,1,1151938,pdf,8A874C2B3952D46B03D31439073F23AF,,,Стратегия духа Основы воспитания войск по взглядам А.В. Суворова и М.И. Драгомирова(full permission).pdf,0,2021-03-17 10:53:07,2021-03-17 10:53:07,8a874c2b3952d46b03d31439073f23af-g.jpg,,
32753923,Britannica Book of the Year 1990,,,,Encyclopaedia Britannica,1990,,"Encyclopaedia Britannica, Inc.",,,931,English,64,,,0852295227,,,,,,,,,,,300,1,1,0,1,1,1,1,179845543,pdf,6BC6655D139A467786AE7BD427B10E79,,,1990 Britannica Book of the Year.pdf,0,2021-03-17 10:55:01,2021-03-17 10:55:01,6bc6655d139a467786ae7bd427b10e79-g.jpg,,0852295227
32753924,Performing #MeToo: How Not to Look Away,,,,Judith Rudakoff (editor),2021,,Intellect Books,,260,261,English,,,,"1789383811,9781789383812",,,,,,,,,,,0,1,1,0,1,0,1,1,18709678,pdf,E77C1724761A8F78A871964D4B478022,,,Performing MeToo.pdf,0,2021-03-17 10:57:55,2021-03-17 10:57:55,e77c1724761a8f78a871964d4b478022-g.jpg,,"1789383811,9781789383812"
32753925,"Dance, Drugs and Escape: The Club Scene in Literature, Film and Television Since the Late 1980s",,,,Stan Beeler,2007,,McFarland & Co,,222,223,English,,,,"078643001X,9780786430017",,,,,,,,,,,0,0,1,0,1,0,1,1,1969716,pdf,6F055A64C292DD0CE56494DC6CEF6ED0,,,"Beeler - Dance, Drugs and Escape.pdf",0,2021-03-17 10:58:39,2021-03-17 10:58:39,6f055a64c292dd0ce56494dc6cef6ed0-g.jpg,,"078643001X,9780786430017"
32753926,"Palabras graves, palabras rebeldes : léxico de la investigación en ciencias sociales",,,,Rodolfo Masías Núñez,2008,,"Universidad de los Andes, Facultad de Ciencias Sociales-CESO, Departamento de Ciencia Política",,,350,Spanish; Castilian,,,,"9789586953382,9586953386",,,,,,,,,,,0,1,1,0,0,0,0,1,3201376,pdf,47CBC8C50B213457DA38479555FED683,,,Masias Nuñez Rodolfo - Palabras Graves Palabras Rebeldes.pdf,0,2021-03-17 10:59:43,2021-03-17 10:59:43,47cbc8c50b213457da38479555fed683-g.jpg,,"9789586953382,9586953386"
32753927,Britannica Book of the Year 1991,,,,Encyclopaedia Britannica,1991,,"Encyclopaedia Britannica, Inc.",,,913,English,64,,,0852295464,,,,,,,,,,,300,1,1,0,1,1,1,1,177684096,pdf,5F2154C177AB667C938CD7BE93C6A6BC,,,1991 Britannica Book of the Year.pdf,0,2021-03-17 11:02:43,2021-03-17 11:02:43,5f2154c177ab667c938cd7be93c6a6bc-g.jpg,,0852295464
32753928,Сборник Отделения русского языка и словесности Императорской Академии наук,63 1 2 3,,,,1897,,Типография Императорской Академии наук,Санктпетербург,,1001,Russian (Old),321,google,,,,,,,,,,,,,0,,,0,1,1,0,1,32740147,pdf,D54A9F6EEDEC51987455CFE25B4D45E8,,,63 1-2 1895 3 1897.pdf,0,2021-03-17 11:07:39,2021-03-17 11:07:39,d54a9f6eedec51987455cfe25b4d45e8-g.jpg,,
32753929,Сборник Отделения русского языка и словесности Императорской Академии наук,62,,,,1897,,Типография Императорской Академии наук,Санктпетербург,,1052,Russian (Old),321,google,,,,,,,,,,,,,0,,,0,1,1,0,1,33207160,pdf,FB6A3D0B7D86F7CFB2AD8D4BF779C21B,,,62 1897.pdf,0,2021-03-17 11:11:09,2021-03-17 11:11:09,fb6a3d0b7d86f7cfb2ad8d4bf779c21b-g.jpg,,
32753930,"Jan Masschelein y Marteen Simons, DEFENSA DE LA ESCUELA",,,,Fernando,2013,,,,,81,Spanish,,,,,,,,,,,,,,,0,1,1,0,0,0,0,1,1750555,pdf,70B6F0344661F537BA0C77AA27AE10CB,,,Masschelein Jan Y Simons Maarten - Defensa De La Escuela Una Cuestion Publica.pdf,0,2021-03-17 11:11:11,2021-03-17 11:11:11,70b6f0344661f537ba0c77aa27ae10cb-g.jpg,,
32753931,Comunicación Educativa II,,Pedagogía SUAYED Cuarto semestre,,SUAYED UNAM,,,SUAYED UNAM,,,310,Spanish,,,,,,,,,,,,,,,0,,,,,1,,0,26186912,pdf,7587D57A9BB92DDF146AF25877EAEA1F,,,COMUNICACIÓN EDUCATIVA 2.pdf,0,2021-03-17 11:13:08,2021-03-17 11:13:08,7587d57a9bb92ddf146af25877eaea1f-g.jpg,,
32753932,"正義理論及其實踐 / Gerechtigkeit - Theorie und Praxis Justice / Theory and Practice // May 25-27, 2009 Taipei, Taiwan",,,,hrsg./ed. Shing-I Liu & Ulfried Neumann,2009,,[National Taipei University],[Taipei],12 + 12,24,Chinese and German or English,,,,,,,,,,,,,,,0,,,,,,,1,411844,pdf,166B191B0257A665CCF3B1BBCE5CCE99,,,"IVR,Taipei(2009.05.26)abstracts-Chinese+English.pdf",0,2021-03-16 18:45:26,2021-03-17 06:21:50,2938000/166b191b0257a665ccf3b1bbce5cce99-g.jpg,,
32753933,Corporate finance,,"The Irwin/McGraw-Hill series in finance, insurance, and real estate",,Randolph W Westerfield; Bradford D Jordan; Stephen Alan Ross; Jeffrey F Jaffe,2019,12,,,,1041,English,,,,"9781260091878,1260091872",,,,,,,,,,,0,,,,,,1,1,32936964,pdf,6D318054AC0B10A3EB13514656CD203D,,,1260091872.pdf,0,2021-03-13 00:13:42,2021-03-13 11:22:13,2936000/6d318054ac0b10a3eb13514656cd203d-g.jpg,,"9781260091878,1260091872"
32753934,Modern mathematical foundations Books Collector's Edition 67: Differential Equation variational method (revised edition)(Chinese Edition),,,,LU WEN DUAN ZHU,2003,,Science Press,,,402,Chinese,,,,"7030108612,9787030108616",,,,,,,,,,,0,,,,,,1,0,4750375,pdf,26DAA747F7C1EA0791BE0157C55C2576,,,微分方程中的变分方法.pdf,0,2020-10-19 01:22:29,2020-10-27 20:39:21,2790000/26daa747f7c1ea0791be0157c55c2576-g.jpg,,"7030108612,9787030108616"
32753935,Encyclopedia Britannica International Chinese Edition 1,,,,"Encyclopedia Britannica, Inc.",1999,,中国大百科全书出版社,,557,557,Chinese ,,,до 2011-08,7500060602,,,,,,,,,,,0,,,,0,1,0,0,254116479,pdf,0ba82b70919c197adf535c80dcf5a2a0,,,_357118.0ba82b70919c197adf535c80dcf5a2a0.pdf,0,2011-08-30 21:54:40,2019-12-21 13:23:21,635000/0ba82b70919c197adf535c80dcf5a2a0-g.jpg,,7500060602
32753936,不列颠百科全书,13,,,,1999,,中国大百科全书出版社,Beijing,,548,Chinese,,,,,,,,,,,,,,,0,,,,,,,0,249793136,pdf,4B9B60F4293CB1F56AA0903B2051E2C9,,,i-book.in__中国大百科全书出版社 - 不列颠百科全书.pdf,0,2020-04-19 02:56:53,2020-04-19 08:00:04,2504000/4b9b60f4293cb1f56aa0903b2051e2c9-g.jpg,,
32753937,不列颠百科全书(国际中文版),1,,,美国不列颠百科全书出版社; 中国大百科全书出版社不列颠百科全书编辑部编译,1998,,中国大百科全书出版社,,557,557,Chinese,,,до 2011-08,"9787500060604,7500060602",,,,,,,,,,,0,,,,0,1,0,0,254116479,pdf,0ba82b70919c197adf535c80dcf5a2a0,,,_357118.0ba82b70919c197adf535c80dcf5a2a0.pdf,0,2011-08-30 21:54:40,2021-03-17 18:40:04,635000/0ba82b70919c197adf535c80dcf5a2a0-d.jpg,,"9787500060604,7500060602"
32753938,Theory Of Literature: New Revised Edition,,,,Rene Wellek; Austin Warren,1956,,Harvest/HBJ Book,,384,449,Chinese,,,,"0156890844,9780156890847",,,,,,,,,,,0,,,,,,1,0,19032823,pdf,4B918F97D912E2A364C8F3BB71056772,,,韦勒克、沃伦：文学理论(1984版 扫描版).pdf,0,2020-02-21 20:34:22,2020-03-06 16:03:11,2477000/4b918f97d912e2a364c8f3bb71056772-g.jpg,,"0156890844,9780156890847"
32753939,文学理论（统一书号：10002-32）,,现代外国文艺理论译丛,,"(美)韦勒克, (美)沃伦, 刘象愚等",1984,,生活·读书·新知三联书店,,420,449,Chinese,,,,,,,,,,,,,,,0,0,0,,,1,1,0,19032823,pdf,4B918F97D912E2A364C8F3BB71056772,,,韦勒克、沃伦：文学理论(1984版 扫描版).pdf,0,2020-02-21 20:34:22,2021-03-17 18:48:57,2477000/4b918f97d912e2a364c8f3bb71056772-g.jpg,,
32753940,Trends and Issues in Instructional Design and Technology (4th Edition),,,,Robert V. Reiser,2017,,Pearson Education,,346,27,English,183,,0,0-13-423546-0,,,,,,,,,,,0,,,,,,1,1,8527109,pdf,220927a6d4c21054d074302d2388c650,,,Trends and Issues in Instructional Design and Technology (4th Edition) - Robert V. Reiser _amp; John V. Dempse- Robert A. Reiser.pdf,0,2018-11-27 21:52:09,2019-12-21 13:23:21,2290000/220927a6d4c21054d074302d2388c650-g.jpg,"Instructional Design and Technology, educational technology",0134235460
32753941,The Dark Net Searching: how to search anonymously,,,,Kumar Vishal.,,,,,,0,English,69,twirpx,,,,,,,,,,,,1926114,0,,,,,,,0,75719,epub,ecf5fec91288ee5139557befeac3a971,,,F:\\twirpx\\_19\\_9\\1926114\\1kumar_vishal_the_dark_net_searching_how_to_search_anonymousl.epub,0,2017-08-07 00:01:42,2019-12-21 13:23:21,1727000/ecf5fec91288ee5139557befeac3a971-d.jpg,Библиотека;Компьютерная литература,
32753942,穿破裤子的慈善家,（共两册）,二十世纪外国文学丛书,,罗·特雷塞尔;孙铢;龙文佩; 张月祥;薛诗绮,1982,,外国文学出版社,,768,768,Chinese,103,,0,,,,,,,,,,,,0,,,,,,1,0,14262654,pdf,1061d1bcadf847ec7454f86b390b66e3,,,穿破裤子的慈善家.pdf,0,2020-01-23 22:55:45,2020-01-23 22:56:40,2463000/1061d1bcadf847ec7454f86b390b66e3-g.jpg,,
32753943,船长与大尉,（共两册）,二十世纪外国文学丛书,,卡维林;于光,1982,,外国文学出版社,,876,876,Chinese,103,,0,,,,,,,,,,,,0,,,,,,1,0,32962230,pdf,b12acbeea09854b742c69499d6d4a5f3,,,船长与大尉.pdf,0,2020-01-23 21:57:03,2020-01-23 22:11:05,2463000/b12acbeea09854b742c69499d6d4a5f3-g.jpg,,
32753944,一个青年艺术家的画像,,二十世纪外国文学丛书,,詹姆斯·乔伊斯;黄雨石,1983,,外国文学出版社,,328,328,Chinese,103,,0,,,,,,,,,,,,0,,,,,,1,0,6925691,pdf,d379f246993f02d0aed55134e96d6bb8,,,一个青年艺术家的画像.pdf,0,2020-01-23 23:06:57,2020-01-23 23:06:58,2463000/d379f246993f02d0aed55134e96d6bb8-g.jpg,,
32753945,斯·茨威格小说选,,二十世纪外国文学丛书,,斯·茨威格;张玉书;纪琨;涛声;赵登荣;张荣昌,1982,,外国文学出版社,,448,448,Chinese,103,,0,,,,,,,,,,,,0,,,,,,1,0,9898728,pdf,6ec4697ebe08010a7ff060123109448d,,,斯·茨威格小说选.pdf,0,2020-01-23 23:19:55,2020-01-23 23:19:56,2463000/6ec4697ebe08010a7ff060123109448d-g.jpg,,
32753946,西线无战事,,二十世纪外国文学丛书,,雷马克;朱雯,1983,,外国文学出版社,,241,241,Chinese,103,,0,,,,,,,,,,,,0,,,,,,1,0,18948527,pdf,2493461dd3421f6faaaf2ffa9b29bb55,,,西线无战事.pdf,0,2020-01-24 04:20:53,2020-01-24 07:16:08,2463000/2493461dd3421f6faaaf2ffa9b29bb55-g.jpg,,
32753947,愤怒的葡萄,,二十世纪外国文学丛书,,斯坦培克;胡仲持,1982,,外国文学出版社,,612,612,Chinese,103,,0,,,,,,,,,,,,0,,,,,,0,0,27567969,pdf,940beacb3de09a19c8380ec3b48b3d3e,,,愤怒的葡萄.pdf,0,2020-01-25 22:29:44,2020-01-25 22:29:46,2463000/940beacb3de09a19c8380ec3b48b3d3e-g.jpg,,
32753948,起义,,二十世纪外国文学丛书,,李·列勃里亚努;黎星,1982,,外国文学出版社,,578,578,Chinese,103,,0,,,,,,,,,,,,0,,,,,,1,0,11773936,pdf,c3e15033ace48cb29376d4edef4faf39,,,起义.pdf,0,2020-01-26 21:26:35,2020-01-26 21:27:51,2464000/c3e15033ace48cb29376d4edef4faf39-g.jpg,,
32753949,恰巴耶夫,,二十世纪外国文学丛书,,富尔曼诺夫;郑泽生;陈恩冬;陈明秀;耿龙明,1981,,外国文学出版社,,388,388,Chinese,103,,0,,,,,,,,,,,,0,,,,,,1,0,7271020,pdf,95480f335fa4195facb1f2b948cde41d,,,恰巴耶夫.pdf,0,2020-01-26 22:46:34,2020-01-26 22:46:35,2464000/95480f335fa4195facb1f2b948cde41d-g.jpg,,
32753950,"Palabras graves, palabras rebeldes : léxico de la investigación en ciencias sociales",,,,Rodolfo Masías Núñez,2008,,"Universidad de los Andes, Facultad de Ciencias Sociales-CESO, Departamento de Ciencia Política",,,350,Spanish; Castilian,,,,"9789586953382,9586953386",,,,,,,,,,,0,1,1,0,0,0,0,1,3201376,pdf,47CBC8C50B213457DA38479555FED683,,,Masias Nuñez Rodolfo - Palabras Graves Palabras Rebeldes.pdf,0,2021-03-17 10:59:43,2021-03-17 14:01:59,2938000/47cbc8c50b213457da38479555fed683-g.jpg,,"9789586953382,9586953386"
32753951,Seguir la senda : introducción al budismo,,,,José Mas Godayol,2007,,CETR,,,105,Spanish; Castilian,,,,9788493536830,,,,,,,,,,,0,1,1,0,0,0,0,1,1147166,pdf,1A9A83A3BF3DF725C34D442813AFDDDB,,,Mas Godayol Josep - Seguir La Senda - Introduccion Al Budismo.pdf,0,2021-03-17 10:51:03,2021-03-17 14:01:58,2938000/1a9a83a3bf3df725c34d442813afdddb-g.jpg,,9788493536830
32753952,Cambio de rumbo : la sociedad a escala del individuo,,Colección escafandra,,Danilo Martuccelli,2007,,,,,234,Spanish; Castilian,,,,"9781449258368,1449258360",,,,,,,,,,,0,1,1,0,0,0,0,1,6000424,pdf,12BB171A28E9CB7B12DEE85387F420CE,,,Martuccelli Danilo - Cambio De Rumbo.pdf,0,2021-03-17 10:41:12,2021-03-17 14:01:55,2938000/12bb171a28e9cb7b12dee85387f420ce-g.jpg,,"9781449258368,1449258360"
32753953,Pensar en ser libre de la filosofía tradicional a la filosofía transpersonal,,,,Amador Martos,2011,,Silva,,,401,Spanish; Castilian,,,,"9788492465774,8492465778",,,,,,,,,,,0,1,1,0,0,0,0,1,2021758,pdf,78FC69124C05F884C08E58EE4C1714A8,,,Martos Garcia Amador - Pensar En Ser Libre - De La Filosofia Tradicional A La Filosofia Transpersonal.PDF,0,2021-03-17 10:39:31,2021-03-17 13:41:33,2938000/78fc69124c05f884c08e58ee4c1714a8-g.jpg,,"9788492465774,8492465778"
32753954,Denes Martos - Los Espartanosq,,,,hinohotaru.blogspot.com,2008,,,,,59,Spanish,,,,,,,,,,,,,,,0,1,1,0,0,0,0,1,1673614,pdf,9E0782B03C65996A993FCCD27BC25B63,,,Martos Denes - Los Espartanos.pdf,0,2021-03-17 10:38:37,2021-03-17 13:41:33,2938000/9e0782b03c65996a993fccd27bc25b63-g.jpg,,
32753955,Salud salvaje fitness revolucionario,,,,Marcos Vazquez,,,,,,0,English,,,,,,,,,,,,,,,0,,,,,,,,74420793,epub,0873FF06D1AB4384AF6F5305898626E6,,,Salud Salvaje by Marcos Vazquez.epub,0,2021-03-15 19:49:54,2021-03-17 06:21:43,2938000/0873ff06d1ab4384af6f5305898626e6-g.jpg,,
32753956,"After Discourse: Things, Affects, Ethics",,Routledge Archaeologies of the Contemporary World,,Bjørnar J. Olsen (editor); Mats Burström (editor); Caitlin DeSilvey (editor); Þóra Pétursdóttir (editor),2021,,Routledge,,,323,English,,,,"0367190486,9780367190484",,,,,,,,,,,0,,,,,,1,1,8481588,pdf,5FBB90C0E556431D4BCF9D5456E9B36A,,,9780429200014.pdf,0,2021-03-17 07:48:43,2021-03-17 11:00:03,2938000/5fbb90c0e556431d4bcf9d5456e9b36a-g.jpg,,"0367190486,9780367190484"
32753957,No es natural : para una sociología de la vida cotidiana,,Educación sentimental,,Josep Vicent Marquès,,,Anagrama,,,103,Spanish; Castilian,,,,"9788433913180,8433913182",,,,,,,,,,,0,1,1,0,0,0,0,1,9452589,pdf,81528AA15E3D5CBC9CAAF1CAA4DF71BE,,,Marques Josep Vicent - No Es Natural.pdf,0,2021-03-15 14:49:47,2021-03-17 02:02:05,2937000/81528aa15e3d5cbc9caaf1caa4df71be-g.jpg,,"9788433913180,8433913182"
32753958,Benefactors and the Polis: The Public Gift in the Greek Cities from the Homeric World to Late Antiquity,,,,Marc Domingo Gygax; Arjan Zuiderhoek,2021,,Cambridge University Press,,348,380,English,,,,"1108842054,9781108842051",,,,,,,,rXYSEAAAQBAJ,,,0,,,,,,1,1,5696657,pdf,7965257A7DE7561EF6BE8D4C36095C00,,,Benefactors.and.the.Polis.pdf,0,2021-03-17 12:56:05,2021-03-18 02:24:05,7965257a7de7561ef6be8d4c36095c00-d.jpg,,"1108842054,9781108842051"
32753959,Alla ricerca di Omega,,,,Gregory Chaitin,2017,,Adelphi,,186,0,Italian,,,0,,,,,,,,,,,,0,,,,,,,,1015693,epub,641b73ca152220ff9ca9a0dd0b2c06d9,,,"Gregory Chaitin - Alla ricerca di Omega (Adelphi, 2017).epub",0,2018-05-21 05:47:08,2019-12-21 13:23:21,2221000/641b73ca152220ff9ca9a0dd0b2c06d9-g.jpg,,
32753960,Brother Ray. L'autobiografia,,Minimum Fax musica,,"Ray Charles, David Ritz",2015,2,Minimum Fax,,456,0,Italian,,,,"887521655X,9788875216559",,,,,,,,,,,0,,,,,,,,579142,epub,CBA0437A97A4409F36B783049B982435,,,"Ray Charles, David Ritz - Brother Ray. L’autobiografia (Minimum Fax, 2015).epub",0,2020-05-15 05:07:15,2020-05-15 11:15:50,2521000/cba0437a97a4409f36b783049b982435-g.jpg,,"887521655X,9788875216559"
32753961,Casi,,Gli Adelphi,,"Daniil I. Charms, Rosanna Giaquinta (editor)",2008,,Adelphi,,343,0,Italian,,,0,"8845923045,9788845923043",,,,,,,,,,,0,,,,,,,,307147,epub,5af2d80a05ebe78b9f01ba847c07f4aa,,,"Charms, Danii - Casi [LDB].epub",0,2018-01-03 06:32:11,2020-12-31 06:14:10,2168000/5af2d80a05ebe78b9f01ba847c07f4aa-d.jpg,,"8845923045,9788845923043"
32753962,Casi,,Gli Adelphi,,"Daniil I. Charms, Rosanna Giaquinta (editor)",2008,,Adelphi,,343,0,Italian,,,,"8845923045,9788845923043",,,,,,,,,,,0,,,,,,,,307335,epub,6A3BCC725E21CF039D6EA65563B24B2D,,,Casi_-_Charms_Daniil.epub,0,2021-01-19 11:03:00,2021-01-20 01:01:53,2896000/6a3bcc725e21cf039d6ea65563b24b2d-g.jpg,,"8845923045,9788845923043"
32753963,Основы конструирования изделий из древесины. Дизайн корпусной мебели,,,,Лукаш А.А.,2017,,Лань,,,138,Russian,,,,978-5-8114-2341-5,,,,,,,,,,,0,,,,,,0,1,28797007,pdf,bc1988117f3d92dd6b974e144caa387a,,,Лукаш А.А.;Основы конструирования изделий из древесины. Дизайн корпусной мебели;;;Лань;2017;978-5-8114-2341-5;;Russian,0,2017-08-11 13:16:41,2019-12-21 13:23:21,2067000/bc1988117f3d92dd6b974e144caa387a-g.jpg,,9785811423415
32753964,Авар-гӀурус словарь. Аварско-русский словарь,,,,М. М. Гимбатов,2006,,ДНЦ РАН,,,1558,Russian,322,,,5944340231,,,,,,,,,,,0,,,,,,,1,12475022,pdf,50D09D0299D9A7F9E3FFD40A1FB99704,,,Avar-Russian.pdf,0,2021-03-17 16:35:22,2021-03-17 16:35:22,50d09d0299d9a7f9e3ffd40a1fb99704-g.jpg,Avaric;language;orthography,5944340231
32753965,Oxford English Dictionary,19,,,Oxford University,1989,2,Oxford University Press,,,1026,English,322,,,,,,,,,,,,,,0,,,,,,1,1,147670410,pdf,617DE075323755DED81DE6E87B25F5AD,,,"The Oxford English Dictionary, ED2, v19 - UNE-WAU.pdf",0,2021-03-17 16:37:48,2021-03-17 16:37:48,617de075323755ded81de6e87b25f5ad-g.jpg,,
32753966,Социальные и экологические основы архитектурного проектирования,,,,Тетиор А.Н.,2009,,Издательский центр «Академия»,,,242,Russian,,,,,,,,,,,,,,,0,,,,,,0,1,11593195,djvu,f41005b555193fb462011d40fc894022,,,Тетиор А.Н.;Социальные и экологические основы архитектурного проектирования;;;Издательский центр «Академия»;2009;;;Russian,0,2017-08-13 05:37:59,2019-12-21 13:23:21,2068000/f41005b555193fb462011d40fc894022-g.jpg,,
32753967,Заметки о пространственной и эстетической сущности архитектуры,,,,Лебедев В.В.,,,,,,258,Russian,58,twirpx,,,,,,,,,,,,1285941,0,,,,,,,1,9700917,djvu,0ebd4271a285e416cd835daae383b294,,,F:\\twirpx\\_15\\_5\\1285941\\lebedev_v_v_zametki_o_prostranstvennoy_i_esteticheskoy_sushc.djvu,0,2017-08-07 00:01:42,2019-12-21 13:23:21,1991000/0ebd4271a285e416cd835daae383b294-d.jpg,Искусство и искусствоведение;Искусство архитектуры,
32753968,Britannica Book of the Year 1993,,,,Encyclopaedia Britannica,1993,,"Encyclopaedia Britannica, Inc.",,,931,English,64,,,,,,,,,,,,,,300,1,1,0,1,1,1,1,212188146,pdf,A27762956F72581C9F91D3B7D8B9490A,,,1993 Britannica Book of the Year.pdf,0,2021-03-17 11:15:51,2021-03-17 11:15:51,a27762956f72581c9f91d3b7d8b9490a-g.jpg,,
32753969,"Performing Indigenous Identities on the Contemporary Australian Stage: Land, People, Culture",,,,Susanne Julia Thurow,2020,,Routledge,,,207,English,,,,"9780367242725,9780429281488",,,,,,,,,,,0,,,,,,1,1,1973958,pdf,B7A8F0B61945EFA7C6628662FF651C71,,,Performing Indigenous Identities on the Contemporary Australian Stage.pdf,0,2021-03-17 11:42:59,2021-03-17 11:42:59,b7a8f0b61945efa7c6628662ff651c71-g.jpg,,"9780367242725,9780429281488"
32753970,The Routledge Companion to Global Television,,Routledge media and cultural studies companions,,Shawn Shimpach,2020,1. ed.,Routledge,,,533,English,,,,"2019018452,2019980257,9781138724341,9781315192468",,,,,,,,,,,0,,,,,,1,1,7867840,pdf,A4CE69D6B5486180D1D437A62E343A9D,,,The Routledge Companion to Global Television.pdf,0,2021-03-17 11:45:31,2021-03-17 11:45:31,a4ce69d6b5486180d1d437a62e343a9d-g.jpg,,"2019018452,2019980257,9781138724341,9781315192468"
32753971,The Heel of Achilles: Essays 1968-1973,,,,Arthur Koestler,1974,,Random House (NY),New York,273,286,English,,,,,,,,,,,,fidXAAAAYAAJ,,,300,,1,,,1,,1,3432206,pdf,325577C95801D8D7259072DF2D661371,,,"Koestler, Arthur-The heel of Achilles: essays (1975).pdf",0,2021-03-17 12:18:51,2021-03-17 12:45:22,325577c95801d8d7259072df2d661371-d.jpg,,
32753972,Encyclopaedia Britannica Almanac 2005,,,,Encyclopaedia Britannica,2005,,"Encyclopaedia Britannica, Inc.",,,1172,English,64,,,"1402203276,159339120X",,,,,,,,,,,0,,,,,,1,1,175859592,pdf,2A2881D54258681F74495037277C03B7,,,2005 Encyclopaedia Britannica Almanac.pdf,0,2021-03-17 12:30:00,2021-03-17 12:30:00,2a2881d54258681f74495037277c03b7-g.jpg,,"1402203276,159339120X"
32753973,Uncertain Dynamic Systems,,,,Fred Schweppe,,,,,,576,English,,,,"0139355936,9780139355936",,,,,,,,,,,0,,,,,,,0,28923966,pdf,3BA1FB37C38CDB938FEB9BD21484688B,,,Uncertain dynamic systems by Fred C. Schweppe.pdf,0,2021-03-17 12:36:07,2021-03-17 12:36:07,3ba1fb37c38cdb938feb9bd21484688b-g.jpg,,"0139355936,9780139355936"
32753974,Encyclopaedia Britannica Almanac 2006,,,,Encyclopaedia Britannica,2006,,"Encyclopaedia Britannica, Inc.",,,1186,English,64,,,"9781402206047,1402206046,9781593392581",,,,,,,,,,,0,,,,,,1,1,110889726,pdf,3B74BD0BCA782D8363457850AD9466C3,,,2006 Encyclopaedia Britannica Almanac.pdf,0,2021-03-17 12:38:46,2021-03-17 12:38:46,3b74bd0bca782d8363457850ad9466c3-g.jpg,,"9781402206047,1402206046,9781593392581"
32753975,Hazzard's Geriatric Medicine and Gerontology,,,,"Jeffrey B. Halter, Joseph G. Ouslander, Mary E. Tinetti, Stephanie Studenski, Kevin P. High, Sanjay Asthana",2009,6,McGraw-Hill Medical,,1634,1663,English,147,,,"9780071641241,0071641246,9780071488723,0071488723",,,,,,,,,,,0,1,1,,1,1,1,1,29696645,pdf,5A1D6AD5B48D6ECF32EE653C5259BA97,,,"Hazzard's Geriatric Medicine and Gerontology (2009), 6e upplagan.pdf",0,2021-03-17 12:40:43,2021-03-17 12:40:43,5a1d6ad5b48d6ecf32ee653c5259ba97-g.jpg,,"9780071641241,0071641246,9780071488723,0071488723"
32753976,Britannica Book of the Year 2008,,,,Encyclopaedia Britannica,2008,,"Encyclopaedia Britannica, Inc.",,,880,English,64,,,9781593394943,,,,,,,,,,,0,,,,,,1,1,75628114,pdf,B566682AB428DEBE85B9CDA7287E19DE,,,2008 Britannica Book of the Year.pdf,0,2021-03-17 12:42:16,2021-03-17 12:42:16,b566682ab428debe85b9cda7287e19de-g.jpg,,9781593394943
32753977,"Serving the empire in the Great War: The Cypriot mule corps, imperial loyalty and silenced memory",,Studies in imperialism,,Andrekos Varnava,2017,,Manchester University Press,,,269,English,,,,9781526103673,,,,,,,,,,,0,,,,,,1,1,6315216,pdf,2ED6BDF6DE90498E322E15978E436C1E,,,Serving-the-Empire-in-the-Great-War Cypriot-Mule-Corps.pdf,0,2021-03-17 12:44:21,2021-03-17 12:44:21,2ed6bdf6de90498e322e15978e436c1e-g.jpg,,9781526103673
32753978,The Decolonial Abyss: Mysticism and Cosmopolitics from the Ruins,,Perspectives in Continental Philosophy,,An Yountae,2017,1. ed.,Fordham University Press,,,194,English,,,,"2016014169,9780823273072,9780823273089",,,,,,,,,,,0,,,,,,1,1,6943525,pdf,FB6A176BEDF33F714EBDC2B1A4BB1F64,,,The Decolonial Abyss_ Mysticism - An Yountae.pdf,0,2021-03-17 12:46:24,2021-03-17 12:46:24,fb6a176bedf33f714ebdc2b1a4bb1f64-g.jpg,,"2016014169,9780823273072,9780823273089"
32753979,Encyclopaedia Britannica Almanac 2008,,,,Encyclopaedia Britannica,2008,,"Encyclopaedia Britannica, Inc.",,,978,English,64,,,9781593394141,,,,,,,,,,,0,,,,,,1,1,50353806,pdf,08E874D4CA94F31AC86C62F43BB49773,,,2008 Encyclopaedia Britannica Almanac.pdf,0,2021-03-17 12:46:28,2021-03-17 12:46:28,08e874d4ca94f31ac86c62f43bb49773-g.jpg,,9781593394141
32753980,Representing the enemy : Musaylima in Muslim literature,,"Europäische Hochschulschriften, Bd. 106",,Al Makin,2010,,Peter Lang,Frankfurt am Main,,335,English,,,,"9783631608623,3631608624",,,,,,,,,,,0,,,,,,,0,44916488,pdf,02C26F6DA978E7F9EE6D18C497116BC0,,,RepresentingtheEnemy.pdf,0,2021-03-17 12:53:32,2021-03-17 12:53:32,02c26f6da978e7f9ee6d18c497116bc0-g.jpg,,"9783631608623,3631608624"
32753981,Encyclopaedia Britannica Almanac 2009,,,,Encyclopaedia Britannica,2009,,"Encyclopaedia Britannica, Inc.",,,977,English,64,,,9781593392284,,,,,,,,,,,0,,,,,,1,1,41915253,pdf,47FCC67F121976B740C235CBA76DC284,,,2009 Encyclopaedia Britannica Almanac.pdf,0,2021-03-17 12:54:14,2021-03-17 12:54:14,47fcc67f121976b740c235cba76dc284-g.jpg,,9781593392284
32753982,Finding Rhythm: An International Dance Journey,,,,Aliénor Salmon,2020,,Apollo Publishers,,,0,Portuguese,,,,"2020935820,9781948062725,9781948062732",,,,,,,,,,,0,,,,,,,,1265950,epub,BF1950CCC5DF8375F3C8B00A6EC9B06E,,,Finding_Rhythm_by_Alinor_Alienor_Salmon.epub,0,2021-03-17 12:54:18,2021-03-17 12:54:18,bf1950ccc5df8375f3c8b00a6ec9b06e-g.jpg,,"2020935820,9781948062725,9781948062732"
32753983,Tomorrow's Economy: A Guide to Creating Healthy Green Growth,,,,Per Espen Stoknes,2021,,MIT Press,,,0,English,,,,"2020007225,9780262044851",,,,,,,,,,,0,,,,,,,,1670741,epub,17BAE58A91612EAE833BEFE087E28407,,,Tomorrows_Economy_by_Per_Espen_Stoknes.epub,0,2021-03-17 12:54:56,2021-03-17 12:54:56,17bae58a91612eae833befe087e28407-g.jpg,,"2020007225,9780262044851"
32753984,The AI Marketing Canvas: A Five Stage Roadmap to Implementing for Customer,,,,"Raj Venkatesan, Jim Lecinski",2021,,,,,269,English,,,,"2020041771,9781503613164,9781503628045",,,,,,,,,,,0,,,,,,1,1,6600059,pdf,7B5BEFF1B6E80FA6090F4BDEE7F505AC,,,The_AI_Marketing_Canvas_by_Raj_Venkatesan.pdf,0,2021-03-17 12:56:48,2021-03-17 12:56:48,7b5beff1b6e80fa6090f4bdee7f505ac-g.jpg,,"2020041771,9781503613164,9781503628045"
32753985,Animals of the Soul: Sacred Animals of the Oglala Sioux,,,,Joseph Epes Brown,1992,1,Element Books,,156,156,English,,,,"1862041377,9781862041370",,,,,,,,,,,300,1,0,0,1,1,1,0,77687373,pdf,46ABF8A466D1E63D798212918E813F54,,,Joseph Epes Brown - Animals of the Soul [Scan 2021 v2].pdf,0,2021-03-17 12:57:29,2021-03-17 12:57:29,46abf8a466d1e63d798212918e813f54-g.jpg,,"1862041377,9781862041370"
32753986,Отраслевая лексика лезгинского языка,,,,Ганиева Ф.А.,,,,,,0,Nakho-Dagestanian-Russian,315,twirpx,,,,,,,,,,,,593932,0,,,,,,,0,2257408,doc,32b2f347a52b9b3e6240aa6960a71993,,,F:\\twirpx\\_12\\_2\\593932\\1ganieva_f_a_otraslevaya_leksika_lezginskogo_yazyka.DOC,0,2017-08-07 00:01:42,2019-12-21 13:23:21,1901000/32b2f347a52b9b3e6240aa6960a71993-d.jpg,Языки и языкознание;Нахско-дагестанские языки;Лезгинский язык,
32753987,Аварско-русский словарь,,,,Гимбатов М.М. (ред.).,,,,,,909,Nakho-Dagestanian-Russian,315,twirpx,,,,,,,,,,,,1914570,0,,,,,,,1,8372194,pdf,80c8e57fb786444e4e4c6001a3b05191,,,F:\\twirpx\\_19\\_9\\1914570\\1gimbatov_m_m_red_avarsko_russkiy_slovar.pdf,0,2017-08-07 00:01:42,2019-12-21 13:23:21,1868000/80c8e57fb786444e4e4c6001a3b05191-d.jpg,Языки и языкознание;Нахско-дагестанские языки;Аваро-андо-цезские языки,
32753988,Аварско-русский словарь,,,,"Гимбатов М.М., Исаков И.А., Магомедханов М.М., Халилов М.Ш.",,,,,,0,Nakho-Dagestanian-Russian,315,twirpx,,,,,,,,,,,,262241,0,,,,,,,0,2126966,zip,d8fa713b71f3846364a25685896355fc,,,F:\\twirpx\\_10\\_0\\262241\\1gimbatov_m_m_isakov_i_a_magomedkhanov_m_m_khalilov_m_sh_avar.zip,0,2017-08-07 00:01:42,2019-12-21 13:23:21,1847000/d8fa713b71f3846364a25685896355fc-d.jpg,Языки и языкознание;Нахско-дагестанские языки;Аваро-андо-цезские языки,
32753989,Самоучитель аварского языка,,,,Атаев,1996,,РАН,,,0,Russian,314,,,,,,,,,,,,,,0,,,,,,,,13457123,zip,b25538ef98853545259774115c8f1920,,,G:\\!upload\\!ADD\\Лингвистика\\Компаративистика\\Кавказские\\Атаев - Самоучитель аварского языка.zip,0,2010-07-14 04:48:42,2019-12-21 13:23:21,283000/B25538EF98853545259774115C8F1920-g.jpg,,
32753990,Самоучитель аварского языка,,,,Атаев,1996,,РАН,,,0,Russian,314,,,,,,,,,,,,,,0,,,,,,,,13457123,zip,b25538ef98853545259774115c8f1920,,,G:\\!upload\\!ADD\\Лингвистика\\Компаративистика\\Кавказские\\Атаев - Самоучитель аварского языка.zip,0,2010-07-14 04:48:42,2021-03-18 13:42:11,283000/B25538EF98853545259774115C8F1920-g.jpg,6FD3678B0E023D8E22D8D31F7FBADECD,
32753991,Краткий грамматический очерк аварского языка,,,,Саидов,1968,,,,61,61,Russian,315,,0,,,,,,,,,,,,0,,,,,,,0,9591563,djvu,8ed01e1a1c44793fba0626a210047af7,,,Саидов. Краткий грамматический очерк аварского языка.djvu,0,2019-06-01 08:06:36,2019-12-21 13:23:21,2373000/8ed01e1a1c44793fba0626a210047af7-g.jpg,,
32753992,"Sacred Words: Orality, Literacy and Religion (Mnemosyne Supplements - Volume 332)  ",,Mnemosyne Supplements 332,,"A.P.M.H. Lardinois, J.H. Blok M.G.M. van der Poel (editors)",2011,,Brill Academic Publishers,,430,430,English ,,,2011 12 30,"9004194126,9789004194120",0169-8958,,,,200.9182/20901,BL785 .I535 2008,,,OL25032503M,,0,,,,1,0,1,1,2583004,pdf,0cc8db70a6a69fbbf7bfafc3c2718b85,,,_510335.0cc8db70a6a69fbbf7bfafc3c2718b85.pdf,0,2012-02-04 08:00:00,2019-12-21 13:23:21,725000/0cc8db70a6a69fbbf7bfafc3c2718b85-d.jpg,,"9004194126,9789004194120"
32753993,"Sacred Words: Orality, Literacy and Religion",,Mnemosyne Supplements 332,,"A.P.M.H. Lardinois, J.H. Blok M.G.M. van der Poel (editors)",2011,,Brill Academic Publishers,,430,430,English,,,2011 12 30,"9004194126,9789004194120",0169-8958,,,,200.9182/20901,BL785 .I535 2008,,,OL25032503M,,0,,,,1,0,1,1,2583004,pdf,0cc8db70a6a69fbbf7bfafc3c2718b85,,,_510335.0cc8db70a6a69fbbf7bfafc3c2718b85.pdf,0,2012-02-04 08:00:00,2021-03-18 14:36:26,725000/0cc8db70a6a69fbbf7bfafc3c2718b85-d.jpg,,"9004194126,9789004194120"
32753994,Cities and Priests: Cult Personnel in Asia Minor and the Aegean Islands from the Hellenistic to the Imperial Period (Religionsgeschichtliche Versuche und Vorarbeiten Book 64),,,,"Marietta Horster (editor), Anja Klöckner (editor)",2013,1,De Gruyter,,380,380,English,,,,"9783110318371,9783110318487",,B015N8QI36,,,,,,,,,0,,,,,,,1,39485864,pdf,839273A60337DAC55BBA3F6589FAFABF,,,"HORSTER, M.; KLÖCKNER, A. (eds.). Cities and Priests.pdf",0,2020-10-19 04:17:44,2020-10-27 20:39:21,2790000/839273a60337dac55bba3f6589fafabf-g.jpg,,"9783110318371,9783110318487"
32753995,"Power, paideia & Pythagoreanism: Greek identity, conceptions of the relationship between philosophers and monarchs, and political ideas in Philostratus' Life of Apollonius",,Dutch monographs on ancient history and archaeology 13,,Jaap-Jan Flinterman,1995,,"J.C. Gieben, Publisher",Amsterdam,,285,English,,,,"9789050632362,905063236X",,,,,,,,,,,0,,,,,,,1,5867512,pdf,D82E1C0DA293CAE96E7E25FD3B39F27F,,,905063236X Flinterman 1995 on Philostratus VA.pdf,0,2021-03-18 04:16:53,2021-03-18 04:16:53,d82e1c0da293cae96e7e25fd3b39f27f-g.jpg,,"9789050632362,905063236X"
32753996,Political Thought in Hellenistic Times,,,,Gerhard Jean Daniël Aalders,1975,,Amsterdam : A. M. Hakkert,,130,136,English,,,,,,,,,,,,3bcLAQAAIAAJ,,,0,,,,,,,1,5885651,pdf,DF53905FF69A8B39A9082FB108EAD2CD,,,9025607381 Political thought in the Hellenistic time.pdf,0,2021-03-16 02:08:49,2021-03-16 15:01:37,2937000/df53905ff69a8b39a9082fb108ead2cd-g.jpg,,
32753997,Britannica Book of the Year 1942,,,,Encyclopaedia Britannica,1942,,,,,811,English,64,,,,,,,,,,,,,,300,1,1,0,1,1,1,0,60058858,pdf,964AB7F1C73B67679A57BE9301C20ABA,,,1942 Britannica Book of the Year.pdf,0,2021-03-17 06:17:33,2021-03-17 09:21:46,2938000/964ab7f1c73b67679a57be9301c20aba-g.jpg,,
32753998,Построение и перспектива рисунка,,,,Шешко И.Б.,1981,,Вышэйшая школа,Минск,139,139,Russian,59,www.infanata.com,2010 07-10,,,,,,,,,,,1146131632,0,,,,,,1,0,10703669,pdf,ef8e2e4dc2fd1e3a82cb87bd670f6333,,,"[1146131632]Построение и перспектива рисунка.-Шешко И.Б.,Минск,Вышэйшая школа,1981.pdf",0,2010-12-09 22:40:08,2019-12-21 13:23:21,323000/ef8e2e4dc2fd1e3a82cb87bd670f6333-d.jpg,Искусство и искусствоведение;Изобразительное искусство;Теоретические основы рисунка и живописи;Перспектива;,
32753999,Constructivismo ético y justicia procedimental en John Rawls.,,,,Carlos I. Massini Correas,2010,,Instituto de Investigaciones Jurídicas - UNAM,,,129,Spanish,,,,"9789703215201,9703215203",,,,,,,,,,,0,1,1,0,0,0,0,1,1078588,pdf,DF36B3A8ED477FAC3DC4886A9A9CA402,,,Massini Correas Carlos - Constructivismo Etico Y Justicia Procedimental.PDF,0,2021-03-17 11:21:21,2021-03-17 21:12:23,df36b3a8ed477fac3dc4886a9a9ca402-g.jpg,,"9789703215201,9703215203"
32754000,Neurocomunicacion,,,,Masters Robert,2003,,,,,71,Spanish,,,,,,,,,,,,,,,0,1,1,0,0,0,0,1,674721,pdf,8D591B3259F92624B3EAB700D8863D68,,,Masters Robert - Neurocomunicacion.PDF,0,2021-03-17 11:23:33,2021-03-17 11:23:33,8d591b3259f92624b3eab700d8863d68-g.jpg,,
32754001,The trail of the dinosaur & other essays,,,,Arthur Koestler,1956,,MacMillan,,,255,English,,,,,,,,,,,,,,,300,,1,,,1,,1,3460479,pdf,50587D38BD644D06F0CDAF6D0A49D980,,,"Koestler, Arthur-The trail of the dinosaur & other essays (1955).pdf",0,2021-03-17 11:24:17,2021-03-17 11:24:17,50587d38bd644d06f0cdaf6d0a49d980-g.jpg,,
32754002,Britannica Book of the Year 1995,,,,Encyclopaedia Britannica,1995,,"Encyclopaedia Britannica, Inc.",,,931,English,64,,,0852296118,,,,,,,,,,,300,1,1,0,1,1,1,1,142557430,pdf,1D549D869F35016AC0DDB4161FAC4303,,,1995 Britannica Book of the Year.pdf,0,2021-03-17 11:25:28,2021-03-17 11:25:28,1d549d869f35016ac0ddb4161fac4303-g.jpg,,0852296118
32754003,Corrientes de la Filosofía de la Educación II,,Pedagogía SUAYED Cuarto semestre,,SUAYED UNAM,,,SUAYED UNAM,,,354,Spanish,,,,,,,,,,,,,,,0,,,,,,,0,31129662,pdf,4F60C8C58045BCEF895519591511C52B,,,CORRIENTES DE LA FILOSOFÍA 2.pdf,0,2021-03-17 11:26:28,2021-03-17 11:26:28,4f60c8c58045bcef895519591511c52b-g.jpg,,
32754004,Zarys krytyki ekonomii politycznej,,,,Karol Marks,1986,,Książka i Wiedza,Warszawa,994,994,Polish,195,,,,,,,,,,,,,Bibuła,0,1,1,0,,1,,1,52540917,pdf,33A8FD4968EA58CB21E0E3E66CA376A1,,,Marks - Zarys krytyki ekonomii politycznej.pdf,0,2021-03-17 11:27:55,2021-03-17 11:33:15,33a8fd4968ea58cb21e0e3e66ca376a1-g.jpg,"Marks, marksizm, grundrisse, późny Marks, ekonomia, filozofia",
32754005,Einführung in die Zahlentheorie,,,,"L. E. Dickson, Ewald Bodewig",1931,,B. G. Teubner,"Leipzig, Berlin",,188,German,143,,,,,,,,,,,,,,0,,,,,,,1,12993531,pdf,C62EA84F9F6AC4FF6F4F6DF72436E485,,,dickson-zt.pdf,0,2021-03-17 11:33:29,2021-03-17 11:33:29,c62ea84f9f6ac4ff6f4f6df72436e485-g.jpg,,
32754006,Dúo matemático,,,,Mariano Mataix Lorda & Susana Mataix Hidalgo,1995,,Jacgarper-Sargont,,,0,Spanish,,,,,,,,,,,,,,,0,1,1,0,0,0,0,1,513415,epub,C6F789E0F15BDFEE97706CD4F652DEE4,,,Mataix Lorda Mariano Y Mataix Hidalgo Susana - Dúo Matemático.epub,0,2021-03-17 11:34:16,2021-03-17 11:34:16,c6f789e0f15bdfee97706cd4f652dee4-g.jpg,,
32754007,Cajón de sastre matemático,,,,Mariano Mataix,1993,,Jacgarper-Sargont,,,0,Spanish,,,,,,,,,,,,,,,0,1,1,0,0,0,0,1,282400,epub,79DEED4323B7D2C3DB59B757FF63ABD8,,,Mataix Mariano - Cajon De Sastre Matematico.epub,0,2021-03-17 11:34:30,2021-03-17 11:34:30,79deed4323b7d2c3db59b757ff63abd8-g.jpg,,
32754008,Ocio Matemático,,,,Mariano Mataix,1984,,Jacgarper-Sargont,,,0,Spanish,,,,,,,,,,,,,,,0,1,1,0,0,0,0,1,399521,epub,A5583C47D1D0C8292F9B89F1F8AE2949,,,Mataix Mariano - Ocio Matematico.epub,0,2021-03-17 11:34:42,2021-03-17 11:34:42,a5583c47d1d0c8292f9b89f1f8ae2949-g.jpg,,
32754009,Etyka : pochodzenie i rozwój moralności,,,,Piotr Kropotkin,1949,,Słowo,Łódź,326,326,Polish,195,,,,,,,,,,,,,Bibuła,0,1,1,0,,1,1,1,18363264,pdf,23710F349FD88E510C76B8F94DD8DF7F,,,Kropotkin - Etyka. Pochodzenie i rozwój moralności.pdf,0,2021-03-17 11:36:43,2021-03-17 11:36:43,23710f349fd88e510c76b8f94dd8df7f-g.jpg,"Kropotkin, etyka, anarchizm, moralność, anarcho-komunizm, filozofia, ewolucjonizm",
32754010,Didactica General II y Teoría del Aprendizaje,,Pedagogía SUAYED Cuarto semestre,,SUAYED UNAM,,,SUAYED UNAM,,,254,Spanish,,,,,,,,,,,,,,,0,,,,,1,,0,23966805,pdf,C685D5BE1F327E856CE15BDEA42D4348,,,DIDACTICA GENERAL 2.pdf,0,2021-03-17 11:39:25,2021-03-17 11:39:25,c685d5be1f327e856ce15bdea42d4348-g.jpg,,
32754011,Britannica Book of the Year 1996,,,,Encyclopaedia Britannica,1996,,"Encyclopaedia Britannica, Inc.",,,931,English,64,,,,,,,,,,,,,,300,1,1,0,1,1,1,1,219792730,pdf,1E23B183AA4C0CB8CAFA19954D94F526,,,1996 Britannica Book of the Year.pdf,0,2021-03-17 11:39:58,2021-03-17 11:39:58,1e23b183aa4c0cb8cafa19954d94f526-g.jpg,,
32754012,Socialism and Communication: Reflections on language and left politics,,Routledge Revivals,,Omar Swartz,1999,,Ashgate,,,116,English,,,,"9781138342828,9780429439537",,,,,,,,,,,0,,,,,,1,1,8826621,pdf,E7D92118F8E3E081D28311FC902A6073,,,Socialism and Communication.pdf,0,2021-03-17 11:41:23,2021-03-17 11:41:23,e7d92118f8e3e081d28311fc902a6073-g.jpg,,"9781138342828,9780429439537"
32754013,Écrits mémorables - Tome 2 (02),,Collection Bouquin,,"Louis MASSIGNON, Christian JAMBET (editor)",2009,,Robert Laffont,Paris,1024,1025,French,,,,"2221106563,9782221106563",,,,,,,,,,,300,0,1,,1,1,,1,38104761,pdf,E90B3B43308EB5A5B9447E4651A02EE7,,,"Écrits mémorables, II by Louis Massignon François LYvonnet François Angelier Souâd Ayada Christian Jambet abbyy ocr.pdf",0,2021-03-17 11:43:58,2021-03-17 11:43:58,e90b3b43308eb5a5b9447e4651a02ee7-g.jpg,,"2221106563,9782221106563"
32754014,Pamiętniki nerwowo chorego wraz z suplementami i aneksem dotyczącym kwestii w jakich warunkach osobę uznaną za psychicznie chorą można trzymać w zakładzie leczniczym wbrew jej zadeklarowanej woli,,,,Daniel Paul Schreber,2006,,Libron,Kraków,389,389,Polish,198,,,8392149467,,,,,,,,,,Bibuła,0,1,1,0,,1,,1,13082916,pdf,78D93188C0F048012141FCAEC5664E2C,,,Schreber - Pamiętniki nerwowo chorego wraz z suplementami i aneksem dotyczącym kwestii w jakich warunkach osobę uznaną za psychicznie chorą można trzymać w zakładzie leczniczym wbrew jej zadeklarowanej woli.pdf,0,2021-03-17 11:44:10,2021-03-17 11:44:10,78d93188c0f048012141fcaec5664e2c-g.jpg,,8392149467
32754015,Historia de la Educación y la Pedagogía II,,Pedagogía SUAYED Cuarto semestre,,SUAYED UNAM,,,SUAYED UNAM,,,190,Spanish,,,,,,,,,,,,,,,0,,,,,1,,0,18222130,pdf,4FBCBB1DA109DEE8C3940011D91265F8,,,HISTORIA DE LA EDUCACION 2 .pdf,0,2021-03-17 11:45:24,2021-03-17 11:45:24,4fbcbb1da109dee8c3940011d91265f8-g.jpg,,
32754016,Britannica Year in Review 2001,,,,Encyclopaedia Britannica,2001,,"Encyclopaedia Britannica, Inc.",,,565,English,64,,,"2002100912,0852298315",,,,,,,,,,,300,1,1,0,1,1,1,1,128895508,pdf,124C2508FA7BEC55440ED600A11C9BF3,,,2001 Year in Review.pdf,0,2021-03-17 11:49:47,2021-03-17 11:49:47,124c2508fa7bec55440ed600a11c9bf3-g.jpg,,"2002100912,0852298315"
32754017,El Evangelio de Juan : análisis lingüístico y comentario exegético,,Lectura del Nuevo Testamento,,Juan Mateos,1992,,Ediciones Cristiandad,,,933,Spanish; Castilian,,,,"9788470572616,847057261X",,,,,,,,,,,0,1,1,0,0,0,0,1,54616627,pdf,A7F4F8993AAA5A5175A0B79D54AD7BFA,,,Mateos Juan - El Evangelio De Juan - Analisis Linguistico Y Comentario Exegetico.PDF,0,2021-03-17 11:50:41,2021-03-17 21:10:58,a7f4f8993aaa5a5175a0b79d54ad7bfa-g.jpg,,"9788470572616,847057261X"
32754018,Encyclopaedia Britannica Almanac 2003,,,,Encyclopaedia Britannica,2003,,"Encyclopaedia Britannica, Inc.",,,1188,English,64,,,0852299230,,,,,,,,,,,0,,,,,,1,1,206387332,pdf,B5ABE5E3023120EB80EB7A22E1D3B748,,,2003 Encyclopaedia Britannica Almanac.pdf,0,2021-03-17 12:04:52,2021-03-17 12:04:52,b5abe5e3023120eb80eb7a22e1d3b748-g.jpg,,0852299230
32754019,Encyclopaedia Britannica Almanac 2004,,,,Encyclopaedia Britannica,2004,,"Encyclopaedia Britannica, Inc.",,,1188,English,64,,,1593390726,,,,,,,,,,,0,,,,,,1,1,223536982,pdf,836841216EF9D8DBE5BF6FCC8BDC754E,,,2004 Encyclopaedia Britannica Almanac.pdf,0,2021-03-17 12:17:31,2021-03-17 12:17:31,836841216ef9d8dbe5bf6fcc8bdc754e-g.jpg,,1593390726
32754020,Britannica Book of the Year 2009,,,,Encyclopaedia Britannica,2009,,"Encyclopaedia Britannica, Inc.",,,882,English,64,,,9781593392321,,,,,,,,,,,0,,,,,,1,1,59535957,pdf,BF2A66B5DA494A00113DDB2461AE9852,,,2009 Britannica Book of the Year.pdf,0,2021-03-17 12:50:47,2021-03-17 12:50:47,bf2a66b5da494a00113ddb2461ae9852-g.jpg,,9781593392321
32754021,Britannica Book of the Year 2010,,,,Encyclopaedia Britannica,2010,,"Encyclopaedia Britannica, Inc.",,,882,English,64,,,9781615353668,,,,,,,,,,,0,,,,,,1,1,75067215,pdf,C1B03344D7AF4F7885B98FEC6FCCD242,,,2010 Britannica Book of the Year.pdf,0,2021-03-17 13:00:39,2021-03-17 13:00:39,c1b03344d7af4f7885b98fec6fccd242-g.jpg,,9781615353668
32754022,BeMo's Ultimate Guide to CASPer Test Prep: How to Increase Your CASPer SIM Score by 23% Using the Proven Strategies They May Not Want You to Know,,,,BeMo Academic Consulting Inc.,2018,,,,,204,English,,,,"1722496762,9781722496760",,,,,,,,,,,0,,,,,,1,1,1181717,pdf,56B8473FC1777EC6AE712D581F543DE2,,,BeMo's Ultimate Guide to CASPer - BeMo Academic Consulting.pdf,0,2021-03-17 13:00:41,2021-03-17 13:00:41,56b8473fc1777ec6ae712d581f543de2-g.jpg,,"1722496762,9781722496760"
32754023,Encyclopaedia Britannica Almanac 2010,,,,Encyclopaedia Britannica,2010,,"Encyclopaedia Britannica, Inc.",,,882,English,64,,,9781615353293,,,,,,,,,,,0,,,,,,1,1,44480974,pdf,610835A0E4226A137B2ADC5C9ABB9B25,,,2010 Encyclopaedia Britannica Almanac.pdf,0,2021-03-17 13:03:18,2021-03-17 13:03:18,610835a0e4226a137b2adc5c9abb9b25-g.jpg,,9781615353293
32754024,Britannica Book of the Year 2011,,,,Encyclopaedia Britannica,2011,,"Encyclopaedia Britannica, Inc.",,,882,English,64,,,9781615355006,,,,,,,,,,,0,,,,,,1,1,56918416,pdf,07A9F4DD62732A5DEDAF0428E72E8A62,,,2011 Britannica Book of the Year.pdf,0,2021-03-17 13:09:05,2021-03-17 13:09:05,07a9f4dd62732a5dedaf0428e72e8a62-g.jpg,,9781615355006
32754025,Astrology SOS,,,,"Mystix, The Woke;",2021,,Hardie Grant Books (UK),,,0,English,,,,9781784884086,,,,,,,,,,,0,,,,,,,,8621940,epub,016FBDE591DC1DA0ED37B398AE463CED,,,Astrology_SOS_by_The_Woke_Mystix_.epub,0,2021-03-17 13:13:00,2021-03-17 13:13:00,016fbde591dc1da0ed37b398ae463ced-g.jpg,,9781784884086
32754026,The Bike Repair Book,,,,"Janssen, Gerard;",2021,,"Quadrille Publishing, Limited",,,0,English,,,,9781787136892,,,,,,,,,,,0,,,,,,,,9399666,epub,05F51126A505CD37A7E41B874AEC3AA6,,,The_Bike_Repair_Book_by_Gerard_Janssen.epub,0,2021-03-17 13:13:28,2021-03-17 13:13:28,05f51126a505cd37a7e41b874aec3aa6-g.jpg,,9781787136892
32754027,The Urban Vegetable Patch,,,,"Paul, Grace;",2021,,Hardie Grant Books (UK),,,0,English,,,,9781784884314,,,,,,,,,,,0,,,,,,,,11992289,epub,3BB9ECA250537CE492E1FF05F83FBBA4,,,The_Urban_Vegetable_Patch_by_Grace_Paul.epub,0,2021-03-17 13:13:49,2021-03-17 13:13:49,3bb9eca250537ce492e1ff05f83fbba4-g.jpg,,9781784884314
32754028,The Renaissance,,Berkshire studies in European history,,Wallace Klippert Ferguson,1967,,"Holt, Rinehart and Winston",,,160,English,,HathiTrust,,"9780030828317,0030828317",,,,,,,,,,,0,,,,,1,,0,9137997,pdf,3F5F5ED144D56C7A3ECD42AAFA60B1FB,,,coo.31924014527117.pdf,0,2021-03-17 13:14:02,2021-03-17 13:14:02,3f5f5ed144d56c7a3ecd42aafa60b1fb-g.jpg,,"9780030828317,0030828317"
32754029,Safavid Persia in the Age of Empires,,,,Charles Melville;,2020,,Bloomsbury UK,,,0,English,,,,"9780755633807,9781845114060,9781845116903,9781845116910,9781780760612,9781780769479,9781788312851,9781788315289",,,,,,,,,,,0,,,,,,,,14536295,epub,4588CF1929477DD44C545A627264DF2C,,,Safavid.Persia.in.the.Age.of.Empires.epub,0,2021-03-17 13:14:34,2021-03-17 13:14:34,4588cf1929477dd44c545a627264df2c-g.jpg,,"9780755633807,9781845114060,9781845116903,9781845116910,9781780760612,9781780769479,9781788312851,9781788315289"
32754030,Grow Green: Tips and Advice for Gardening with Intention,,,,Jen Chillingsworth,2021,,Hardie Grant Publishing,,160,0,English,,,,"9781787135864,1787135861",,,,,,,,fVESEAAAQBAJ,,,0,,,,,,,,14641524,epub,B9DB72C4AEC4904E4C26B5915D4B162A,,,Regrown_by_Paul_Anderton.epub,0,2021-03-17 13:14:54,2021-03-18 02:23:15,b9db72c4aec4904e4c26b5915d4b162a-d.jpg,,"9781787135864,1787135861"
32754031,The World of Bees,,,,Gilbert Nixon,2021,,Open Road Media,,246,0,English,,,,"150406707X,9781504067072",,,,,,,,7ggiEAAAQBAJ,,,0,,,,,,,,18174774,epub,9CF5E421759CA98C2383AA2B1C15E5C7,,,The_World_of_Bees_1st_Edition_by_Gilbert_Nixon.epub,0,2021-03-17 13:15:50,2021-03-18 02:22:51,9cf5e421759ca98c2383aa2b1c15e5c7-d.jpg,,"150406707X,9781504067072"
32754032,Time-Encyclopaedia Britannica Almanac 2011,,,,Time & Encyclopaedia Britannica,2011,,Time & Encyclopaedia Britannica,,,900,English,64,,,"1603201645,9781603201643,1603201653,9781603201650",,,,,,,,,,,0,,,,,,1,1,131600869,pdf,7D0FCE1451C064B8052368FFEEAC9527,,,2011 Time-Encyclopaedia Britannica Almanac.pdf,0,2021-03-17 13:16:08,2021-03-17 13:16:08,7d0fce1451c064b8052368ffeeac9527-g.jpg,,"1603201645,9781603201643,1603201653,9781603201650"
32754033,"Girl on the Rocks: A Woman's Guide to Climbing with Strength, Grace, and Courage",,,,Katie Brown,2008,,Rowman & Littlefield,,160,0,English,,,,"0762752467,9780762752461",,,,,,,,3i9e_PTltT0C,,,0,,,,,,,,20073477,epub,441397B057930D0EBA512190DFA93270,,,Girl_on_the_Rocks_by_Katie_Brown.epub,0,2021-03-17 13:16:15,2021-03-18 02:22:13,441397b057930d0eba512190dfa93270-d.jpg,,"0762752467,9780762752461"
32754034,Tsunami: The World's Greatest Waves,,,,James Goff and Walter Dudley,2021,,Oxford University Press,,,0,English,,,,"2020042460,2020042461,9780197546123,9780197546147,9780197546130,9780197546154",,,,,,,,,,,0,,,,,,,,23848701,epub,320CC8857E7B483B777B38DA944E1F14,,,Tsunami_The_Worlds_Greatest_Waves_by_James_Goff_.epub,0,2021-03-17 13:17:08,2021-03-17 13:17:08,320cc8857e7b483b777b38da944e1f14-g.jpg,,"2020042460,2020042461,9780197546123,9780197546147,9780197546130,9780197546154"
32754035,A Place Like Mississippi,,,,W. Ralph Eubanks,2021,,Timber Press,,,0,English,,,,9781643260587,,,,,,,,,,,0,,,,,,,,24517060,epub,322A42CA19744BA669C0E8CFD207C9D0,,,A.Place.Like.Mississippi.epub,0,2021-03-17 13:17:34,2021-03-17 13:17:34,322a42ca19744ba669c0e8cfd207c9d0-g.jpg,,9781643260587
32754036,Immanent Art: From Structure to Meaning in Traditional Oral Epic,,,,John Miles Foley,1991,,Indiana University Press,Bloomington,,297,English,,,,"9780253322166,0253322162",,,,,,,,,,,0,,,,,,,0,17947826,pdf,FA82E83EABFBC1AC5BAE2199F6A2C5F7,,,inu.30000020707125.pdf,0,2021-03-17 13:18:33,2021-03-18 02:21:47,fa82e83eabfbc1ac5bae2199f6a2c5f7-g.jpg,,"9780253322166,0253322162"
32754037,Con fina desobediencia,,,,Fermín de la Calle,,,Libros del K.O.,,,0,Spanish; Castilian,,,,9788417678234,,,,,,,,,,,0,,,,,,,,2196645,epub,4D6519D24703650BEB49B25E403F7242,,,De La Calle Fermin - Con Fina Desobediencia.epub,0,2021-03-17 13:22:21,2021-03-17 13:22:21,4d6519d24703650beb49b25e403f7242-g.jpg,,9788417678234
32754038,The Defining Decade: Why Your Twenties Matter--And How to Make the Most of Them Now,,,,Meg Jay,2012,,Twelve,,,0,English,,,,1538754231,,,,,,,,,,,0,,,,,,,,338598,mobi,D228BAF007E7F1AA04E379793D44E6FD,,,The Defining Decade_ Why Your Twenties M - Meg Jay.mobi,0,2021-03-17 13:25:07,2021-03-17 13:25:07,d228baf007e7f1aa04e379793d44e6fd-g.jpg,,1538754231
32754039,Time-Encyclopaedia Britannica Almanac 2012,,,,Time & Encyclopaedia Britannica,2012,,Time & Encyclopaedia Britannica,,,900,English,64,,,"1603202064,9781603202060,1603209018,9781603209014",,,,,,,,,,,0,,,,,,1,1,155841137,pdf,49D66D332DA5F88BF4542D1D3DD69944,,,2012 Time-Encyclopaedia Britannica Almanac.pdf,0,2021-03-17 13:26:12,2021-03-17 13:26:12,49d66d332da5f88bf4542d1d3dd69944-g.jpg,,"1603202064,9781603202060,1603209018,9781603209014"
32754040,Dizionario italiano-albanese,,,,"Ferdinand Leka, Zef Simoni",1996,,Salento Books,,965,979,Italian,,,,"8886730047,9788886730044",,,,,,,,,,,600,,1,,1,1,1,1,44283765,pdf,578D4CFA9C8096879AB6397F5A6A42F3,,,"LEKA, SIMONI. Dizionario Italiano-Albanese (1998, Besa) OCR.pdf",0,2021-03-17 13:32:37,2021-03-17 13:32:37,578d4cfa9c8096879ab6397f5a6a42f3-g.jpg,,"8886730047,9788886730044"
32754041,Time-Encyclopaedia Britannica Almanac 2013,,,,Time & Encyclopaedia Britannica,2013,,Time & Encyclopaedia Britannica,,,884,English,64,,,"1618930192,9781618930194,1603209409,9781603209403",,,,,,,,,,,0,,,,,,1,1,171703551,pdf,CD4EF164D8EC9D5A8F629BF5E66A868D,,,2013 Time-Encyclopaedia Britannica Almanac.pdf,0,2021-03-17 13:33:18,2021-03-17 13:33:18,cd4ef164d8ec9d5a8f629bf5e66a868d-g.jpg,,"1618930192,9781618930194,1603209409,9781603209403"
32754042,Juicio a la prisión : una evaluación crítica,,,,Thomas Mathiesen; Mario Coriolano,2003,,Ediar,,,313,Spanish; Castilian,,,,"9789505741588,9505741588",,,,,,,,,,,0,1,1,0,0,0,0,1,15734057,pdf,CBDE455B93A0A81772FC81BEDF00B3E1,,,Mathiesen Thomas - Juicio A La Prision.PDF,0,2021-03-17 13:33:58,2021-03-17 21:06:29,cbde455b93a0a81772fc81bedf00b3e1-g.jpg,,"9789505741588,9505741588"
32754043,Dizionario albanese-italiano,,,,"Ferdinand Leka, Zef Simoni",2001,,Salento Books,,712,732,Italian,,,,"8886730195,9788886730198",,,,,,,,,,,600,0,1,,1,1,1,1,32112737,pdf,A790754DBD68A8A8B791145675920BD0,,,"LEKA, SIMONI. Dizionario Albanese-Italiano OCR.pdf",0,2021-03-17 13:37:53,2021-03-18 02:21:04,a790754dbd68a8a8b791145675920bd0-g.jpg,,"8886730195,9788886730198"
32754044,La Mundialización de la comunicación,,Paidós comunicación,,Armand Mattelart,1998,,Paidós,,,132,Spanish; Castilian,,,,"9788449304934,8449304938",,,,,,,,,,,0,1,1,0,0,0,0,1,3407443,pdf,3134D6DD79441202D19861008E523E60,,,Mattelart Armand - La Mundializacion De La Comunicacion.pdf,0,2021-03-17 13:43:11,2021-03-17 21:05:34,3134d6dd79441202d19861008e523e60-g.jpg,,"9788449304934,8449304938"
32754045,"Get Up and Grow: Herb, Vegetable and Fruit Growing Projects for Both Indoors and Outdoors",,,,Lucy Hutchings,2021,,Hardie Grant Publishing,,160,0,English,,,,"9781784884208,1784884200",,,,,,,,C1ASEAAAQBAJ,,,0,,,,,,,,34057704,epub,C163B6840D13CC512B987CAEAEA73E88,,,Get_Up_and_Grow_by_Lucy_Hutchings.epub,0,2021-03-17 13:43:44,2021-03-18 02:20:32,c163b6840d13cc512b987caeaea73e88-d.jpg,,"9781784884208,1784884200"
32754046,"Floriography: The Myths, Magic & Language of Flowers",,,,Sally Coulthard,2021,,Hardie Grant Publishing,,144,0,English,,,,"9781787136311,1787136310",,,,,,,,DA4SEAAAQBAJ,,,0,,,,,,,,36007077,epub,AB624620364226428118F0911C3B8A41,,,Floriography_by_Sally_Coulthard.epub,0,2021-03-17 13:45:57,2021-03-18 02:20:03,ab624620364226428118f0911c3b8a41-d.jpg,,"9781787136311,1787136310"
32754047,Why We Climb: The World's Most Inspiring Climbers,,,,Chris Noble,2017,,Rowman & Littlefield,,320,0,English,,,,"9781493018543,149301854X",,,,,,,,9qA9DQAAQBAJ,,,0,,,,,,,,37751732,epub,B9995EFAD3294D59977A0486042BB1B2,,,Why_We_Climb_by_Chris__le_.epub,0,2021-03-17 13:46:38,2021-03-18 02:19:51,b9995efad3294d59977a0486042bb1b2-d.jpg,,"9781493018543,149301854X"
32754048,La bendición original : una nueva espiritualidad para el hombre del s. XXI,,Aventura interior,,Matthew Fox,2002,,Obelisco,,,206,Spanish; Castilian,,,,"9788477209768,8477209766",,,,,,,,,,,0,1,1,0,0,0,0,1,18491446,pdf,AC3239711113970D07AC93A48EFEAFB2,,,Matthew Fox - La Bendicion Original - Una Nueva Espiritualidad Para El Hombre Del Siglo XXI.pdf,0,2021-03-17 13:47:05,2021-03-17 21:05:13,ac3239711113970d07ac93a48efeafb2-g.jpg,,"9788477209768,8477209766"
32754049,Waves and Beaches: Explaining the Interaction of Sea and Coast - an Updated Classic,,,,Kim McCoy; Willard Bascom,2021,,ARTBOOK D A P,,400,0,English,,,,"1938340957,9781938340956",,,,,,,,4G1syAEACAAJ,,,0,,,,,,,,53476444,epub,91BBED160430C7E0136E054454359C4C,,,Waves_and_Beaches_by_Willard_Bascom.epub,0,2021-03-17 13:47:31,2021-03-18 02:19:25,91bbed160430c7e0136e054454359c4c-d.jpg,,"1938340957,9781938340956"
32754050,"El arte de la meditación: ¿Por qué meditar?, ¿Sobre qué?, ¿Cómo?",,,,Matthieu Ricard,2009,,Urano,,156,74,Spanish; Castilian,,,,"8479537221,9788479537227",,,,,,,,g9GiQAAACAAJ,,,0,1,1,0,0,0,0,1,4806252,pdf,D4AD79799EBF4F077AEBFF157898C86F,,,Matthieu Ricard - El Arte De La Meditacion.pdf,0,2021-03-17 13:47:59,2021-03-18 02:19:01,d4ad79799ebf4f077aebff157898c86f-d.jpg,,"8479537221,9788479537227"
32754051,Fodor’s Essential England,,,,Fodor’s Travel Guides,2021,,Fodor’s,,,0,English,,,,"9781640972964,9781640972971",,,,,,,,,,,0,,,,,,,,85011709,epub,A0A10DA211531DA19DFE32F9E1BC004D,,,Fodors_Essential_England_by_Fodors_Travel_Guides.epub,0,2021-03-17 13:48:29,2021-03-17 13:48:29,a0a10da211531da19dfe32f9e1bc004d-g.jpg,,"9781640972964,9781640972971"
32754052,Crisis y teoría de la crisis,,Ediciones de bolsillo,,Paul Mattick,1977,digital,Península,Barcelona,229,119,Spanish; Castilian,,,,"9788429712902,8429712909",,,,,,,,,,,0,1,1,0,0,0,0,1,2003974,pdf,098CC299DBB8EF437BF537C471AC682C,,,Mattick Paul - Crisis Y Teoria De La Crisis.PDF,0,2021-03-17 13:49:32,2021-03-18 02:18:26,098cc299dbb8ef437bf537c471ac682c-g.jpg,,"9788429712902,8429712909"
32754053,Supermarine Southampton,,,,Jo Hillman,2020,,Pen and Sword,,,0,English,,,,"9781526784957,9781526784964",,,,,,,,,,,0,,,,,,,,100452075,epub,5DCEE3E66EDE202CACB54465A0DBCA04,,,Supermarine.Southampton.epub,0,2021-03-17 13:49:41,2021-03-17 13:49:41,5dcee3e66ede202cacb54465a0dbca04-g.jpg,,"9781526784957,9781526784964"
32754054,Short Walks in Beautiful Places,,,,Short Walks in Beautiful Places,2020,,National Trust Books,,,0,English,,,,9781911657323,,,,,,,,,,,0,,,,,,,,106372827,epub,40DA96883C407C2BA2E840222003C73D,,,Short_Walks_in_Beautiful_Places_by_Jilly_MacLeod.epub,0,2021-03-17 13:51:13,2021-03-18 02:17:15,40da96883c407c2ba2e840222003c73d-g.jpg,,9781911657323
32754055,Short Runs in Beautiful Places,,,,Jen & Sim Benson,2020,,National Trust Books,,,0,English,,,,9781911657040,,,,,,,,,,,0,,,,,,,,111538601,epub,4337A718142B50E744FF789A466DC127,,,Short_Runs_in_Beautiful_Places_by_Jen_Benson_UserUpload.Net.epub,0,2021-03-17 13:52:48,2021-03-18 02:17:21,4337a718142b50e744ff789a466dc127-g.jpg,,9781911657040
32754056,Taste of Home Favorites—25th Anniversary Edition,,,,Taste of Home,2018,,Reader's Digest/Taste of Home,,,0,English,49,,,"9781617657634,161765762X",,,,,,,,,,Taste of 496 recipes  Home Favorites—25th Anniversary Edition,0,,,,,,,,194828085,epub,10F9D436A383726274803587C006644E,,,"Taste of Home Favorites Delicious Recipes Shared Across Generations, 25th Anniversary Edition by Taste Of Home (2018).epub",0,2021-03-17 13:53:20,2021-03-17 13:53:20,10f9d436a383726274803587c006644e-g.jpg,Taste of 496 recipes  Home Favorites—25th Anniversary Edition,"9781617657634,161765762X"
32754057,El árbol del conocimiento : las bases biológicas del conocimiento humano,,,,Humberto Maturana Romesín; Francisco J. Varela,2003,,Lumen,,,185,Spanish; Castilian,,,,"9789870003588,9870003583",,,,,,,,,,,0,1,1,0,0,0,0,1,13733768,pdf,57CB7E3C5A867861B8150F570B7F85B9,,,Maturana Humberto Y Varela Francisco - El Arbol Del Conocimiento.pdf,0,2021-03-17 13:53:39,2021-03-17 21:04:27,57cb7e3c5a867861b8150f570b7f85b9-g.jpg,,"9789870003588,9870003583"
32754058,Oxford English Dictionary,1,,,Oxford University,1989,2,Oxford University Press,,,1091,English,322,,,"0198612133,0198611862",,,,,,,,,,,0,,,,,,1,1,147387495,pdf,15608CEE5DBBFBD31E2A36276B5FC208,,,"The Oxford English Dictionary, ED2, v01 - A-BAZ.pdf",0,2021-03-17 13:55:56,2021-03-17 13:55:56,15608cee5dbbfbd31e2a36276b5fc208-g.jpg,,"0198612133,0198611862"
32754059,Simple Vegan Kitchen,,,,Susanna Wurz,2021,,Dachbuch Verlag,,228,0,German,49,,,"9783903263352,9783903263369",,,,,,,,,,Vegan Kitchen,0,,,,,,,,23894188,epub,F91D591E95DC4986373845CFF09B9655,,,Simple Vegan Kitchen The easy & vegan way of life by Susanna Wurz (2021).epub,0,2021-03-17 13:57:46,2021-03-17 13:57:46,f91d591e95dc4986373845cff09b9655-g.jpg,Vegan Kitchen,"9783903263352,9783903263369"
32754060,The Barbizon: The Hotel That Set Women Free,,,,Paulina Bren,2021,,Simon & Schuster,,,0,English,,,,9781982123925,,,,,,,,,,,0,,,,,,,,12102611,epub,54DDAF8ED45481C97EEEBBB1680AF926,,,BarbizonPaulinaBr01.epub,0,2021-03-17 13:58:07,2021-03-17 13:58:07,54ddaf8ed45481c97eeebbb1680af926-g.jpg,,9781982123925
32754061,Economía Política de la Devastación Ambiental y Conflictos Socioambientales en México,,,,"Andres Barreda Marín, Lilia Enriquez Valencia, Raymundo Espinoza Hernández",2019,,Facultad de Economía-UNAM,Ciudad de México,,192,Spanish,,,,"9786073013741,9786078651061",,,,,,,,,,,0,,,,,,,0,55538082,pdf,ACD313B4F5E8B40F185C795D8D3C681B,,,Andres Barreda - Economia politica de la devastacion ambiental y conflictos socioambientales en Mexico.pdf,0,2021-03-17 13:59:15,2021-03-17 13:59:15,acd313b4f5e8b40f185c795d8d3c681b-g.jpg,,"9786073013741,9786078651061"
32754062,México en el siglo XIX : antología de fuentes e interpretaciones históricas,,Lecturas universitarias,,Alvaro Matute,2013,5. ed.,Universidad Nacional Autónoma de México,Array,,188,Spanish; Castilian,,,,"9786070240386,6070240383",,,,,,,,,,,0,1,1,0,0,0,0,1,1940212,pdf,F2969A3E03ADA54EDDE7695ABEE517C0,,,Matute Alvaro - Mexico En El Siglo XIX.pdf,0,2021-03-17 13:59:57,2021-03-18 02:15:58,f2969a3e03ada54edde7695abee517c0-g.jpg,,"9786070240386,6070240383"
32754063,Theoretical issues in Indian archaeology,,,,Dilip K. Chakrabarti,1988,,Munshiram Manoharlal Publishers,New Delhi,,160,English,,,,"8121504430,9788121504430",,,,,,,,,,,0,,,,,,,0,12950369,pdf,29A123541CB58D5D54B83261A01F7DB5,,,mdp.39015023595948.pdf,0,2021-03-17 14:00:26,2021-03-18 02:15:00,29a123541cb58d5d54b83261a01f7db5-g.jpg,,"8121504430,9788121504430"
32754064,Il sistema di guerra: Studi sul bipolarismo,,,,Carlo Maria Santoro,1988,,Franco Angeli,,251,247,Italian,,,,"8820427273,9788820427276",,,,,,,,,,,0,,,,,,1,1,13531836,pdf,0A72464C8C40049F6C443910CB8C7DE1,,,"Carlo Maria Santoro - Il sistema di guerra. Studi sul bipolarismo (1988, Franco Angeli).pdf",0,2021-03-17 14:01:56,2021-03-17 14:01:56,0a72464c8c40049f6c443910cb8c7de1-g.jpg,,"8820427273,9788820427276"
32754065,Oxford English Dictionary,2,,,Oxford University,1989,2,Oxford University Press,,,1090,English,322,,,"0198612141,0198611862",,,,,,,,,,,0,,,,,,1,1,159447462,pdf,704F2B3968082B049D635B2BEAEE5C6C,,,"The Oxford English Dictionary, ED2, v02 - BBC-CHA.pdf",0,2021-03-17 14:02:15,2021-03-17 14:02:15,704f2b3968082b049d635b2beaee5c6c-g.jpg,,"0198612141,0198611862"
32754066,"Eat Well, Be Well: 100+ Healthy Re-creations of the Food You Crave",,,,"Cristofano, Jana",2021,,Sterling; Illustrated edición,,,0,English,49,,,"9781454933991,2019019084,9781454933779,1454933771",,,,,,,,,,"This 100% plant-based, gluten-free, and refined sugar-free cookboo",0,,,,,,,,49411265,epub,DE9F0317B1AC7AAEE31C66D520C11117,,,"Eat Well, Be Well 100+ Healthy Re-creations of the Food You Crave by  Jana Cristofano (2021).epub",0,2021-03-17 14:02:27,2021-03-17 14:02:48,de9f0317b1ac7aaee31c66d520c11117-g.jpg,"This 100% plant-based, gluten-free, and refined sugar-free cookboo","9781454933991,2019019084,9781454933779,1454933771"
32754067,A history of Indian archaeology from the beginning to 1947,,,,Dilip K. Chakrabarti,1988,,Munshiram Manoharlal Publishers,New Delhi,,272,English,,,,"9788121500791,8121500796",,,,,,,,,,,0,,,,,,,0,20281095,pdf,97A8D22EEE6753365A068656958CCAEA,,,mdp.39015028713991.pdf,0,2021-03-17 14:03:33,2021-03-17 14:03:33,97a8d22eee6753365a068656958ccaea-g.jpg,,"9788121500791,8121500796"
32754068,Oxford English Dictionary,3,,,Oxford University,1989,2,Oxford University Press,,,1155,English,322,,,"019861215X,0198611862",,,,,,,,,,,0,,,,,,1,1,157096921,pdf,7D3F77183BA8996B20614A0BC4699DC8,,,"The Oxford English Dictionary, ED2, v03 - CHA-CRE.pdf",0,2021-03-17 14:12:50,2021-03-17 14:12:50,7d3f77183ba8996b20614a0bc4699dc8-g.jpg,,"019861215X,0198611862"
32754069,Oxford English Dictionary,4,,,Oxford University,1989,2,Oxford University Press,,,1156,English,322,,,,,,,,,,,,,,0,,,,,,1,1,155865163,pdf,4DADD7E6B245A730A5A0EE509640BD2F,,,"The Oxford English Dictionary, ED2, v04 - CRE-DUZ.pdf",0,2021-03-17 14:18:59,2021-03-17 14:18:59,4dadd7e6b245a730a5a0ee509640bd2f-g.jpg,,
32754070,"OtjiHerero Woordeboek, Dictionary, Embo Romambo",,,,"J. J. Viljoen, T. K. Kamupingene",1983,,Gamsberg Publishers,,197,33,English,,,,,,,,,,,,,,,0,,,,,,,0,4949464,pdf,FF05F4961902EB20FF834D04C874885C,,,ViljoenDictionary.pdf,0,2021-03-17 14:26:49,2021-03-17 14:26:49,ff05f4961902eb20ff834d04c874885c-g.jpg,,
32754071,Sdraiato in cima al mondo. La mia storia dalla vetta del Nanga Parbat all'inferno del Gasherbrum VII,,,,Cala Cimenti,2020,,Sperling & Kupfer,,208,0,Italian,,,,"8820069288,9788820069285",,,,,,,,,,,0,,,,,,,,16007739,epub,8AE7E066A16275019E7AFC001031B85D,,,Sdraiato in cima al mondo_nodrm.epub,0,2021-03-17 14:36:06,2021-03-17 14:36:06,8ae7e066a16275019e7afc001031b85d-g.jpg,,"8820069288,9788820069285"
32754072,Jaques-Dalcroze: sa vie – son oeuvre,,,,H. Brunet-Lecomte,1950,,Jeheber,Genève,290,291,French,,,,,,,,,,,,,,,0,,,,,,1,1,225835719,pdf,6822CF00FBFD1AF2FAD3D5247ABADE70,,,Jaques-Dalcroze. Sa vie - Son oeuvre_H. Brunet-Lecomte_OCR.pdf,0,2021-03-17 14:36:58,2021-03-17 14:36:58,6822cf00fbfd1af2fad3d5247abade70-g.jpg,,
32754073,"Entre o encardido, o branco e o branquíssimo",,,,Lia Vainer Schucman,2020,,,,216,110,Portuguese,,,,"9788539104680,9788595710665",,,,,,,,,,,0,,,,,,1,1,1174010,pdf,3560008F64623E2974258C29B60BD1A3,,,livro encardido veneta pdf.pdf,0,2021-03-17 14:37:35,2021-03-17 14:37:35,3560008f64623e2974258c29b60bd1a3-g.jpg,,"9788539104680,9788595710665"
32754074,"La estera y la silla. Individuo, comunidad, Estado e instituciones jurídicas nahuas",,,,Carlos Brokmann,2006,1,Comisión Nacional de los Derechos Humanos,Mexico,126,126,Spanish,65,,,9706445021,,,,,,,,,,,0,,,,,,,1,1676889,pdf,1B4C8DBE81F3AB6063F27D32D0BF58FA,,,"2006 - Brokmann, Carlos - La Estera y la Silla (CNDH, 2006).pdf",0,2021-03-17 14:39:35,2021-03-17 14:39:35,1b4c8dbe81f3ab6063f27d32d0bf58fa-g.jpg,"Law, Aztec, History, Anthropology, Legal, Nahua",9706445021
32754075,Uncertain Dynamic Systems,,,,Fred C. Schweppe,1973,,Prentice Hal,,,576,English,,,,"0139355936,9780139355936",,,,,,,,,,,0,,,,,,,1,16307228,pdf,D1449D7D0B80D623BEB4C2768A61E59B,,,Uncertain dynamic systems by Fred C. Schweppe.pdf,0,2021-03-17 14:51:43,2021-03-17 14:53:18,d1449d7d0b80d623beb4c2768a61e59b-g.jpg,,"0139355936,9780139355936"
32754076,Oxford English Dictionary,6,,,Oxford University,1989,2,Oxford University Press,,,1155,English,322,,,"0198612184,0198611862",,,,,,,,,,,0,,,,,,1,1,168016417,pdf,7AA2ABA0DCC955118A3E3298D714F900,,,"The Oxford English Dictionary, ED2, v06 - FOL-HAS.pdf",0,2021-03-17 14:57:07,2021-03-17 14:57:07,7aa2aba0dcc955118a3e3298d714f900-g.jpg,,"0198612184,0198611862"
32754077,Oxford English Dictionary,7,,,Oxford University,1989,2,Oxford University Press,,,1155,English,322,,,,,,,,,,,,,,0,,,,,,1,1,188713735,pdf,18F96DB2E6024A884A505E4EDDC78C73,,,"The Oxford English Dictionary, ED2, v07 - HAT-INT.pdf",0,2021-03-17 15:04:12,2021-03-17 15:04:12,18f96db2e6024a884a505e4eddc78c73-g.jpg,,
32754078,L'orecchio mancante,,,,Carmelo Bene,1970,,Feltrinelli,,,85,Italian,,,,,,,,,,,,,,,0,,,,,,,0,59335810,pdf,35A292F22F913ADA30649A0142EC5BCC,,,L'orecchio mancante.pdf,0,2021-03-17 15:07:35,2021-03-17 15:07:35,35a292f22f913ada30649a0142ec5bcc-g.jpg,,
32754079,Sampurnanand Sanskrit University's Publication Catalogue,,,,,2020,,Sampurnanand University,Varanasi,132,132,Hindi,102,,,,,,,,,,,,,,300,0,0,0,1,1,1,0,24492824,pdf,6EC4938E3C3ED0699BB861D52769229A,,,Sampurnanand Publications.pdf,0,2021-03-17 15:08:21,2021-03-17 15:08:21,6ec4938e3c3ed0699bb861d52769229a-g.jpg,,
32754080,Stazio: Achilleide,,,,Gianpiero Rosati,1994,,Rizzoli,,,85,Italian,,,,9788817169868,,,,,,,,,,,0,,,,,,,0,56110717,pdf,D141027C19B2C6E94F0BDF26A9C53A4B,,,"Achilleide, rosati.pdf",0,2021-03-17 15:14:07,2021-03-18 02:11:39,d141027c19b2c6e94f0bdf26a9c53a4b-g.jpg,,9788817169868
32754081,Oxford English Dictionary,8,,,Oxford University,1989,2,Oxford University Press,,,1153,English,322,,,,,,,,,,,,,,0,,,,,,1,1,167495389,pdf,459AD40A483CF9FD3B8D7AF9497FD059,,,"The Oxford English Dictionary, ED2, v08 - INT-LOO.pdf",0,2021-03-17 15:16:30,2021-03-17 15:16:30,459ad40a483cf9fd3b8d7af9497fd059-g.jpg,,
32754082,"Marx populi : collage para repensar el marxismo (a 150 años del Capital, a 100 años de la Revolición Rusa, a 50 años de la caida de Ernesto Che guevara y a 200 años del nacimiento de Karl Marx)",,Ensayo e investigación,,Miguel Mazzeo; Martin Malamud,2018,,,,,176,Spanish; Castilian,,,,"9789871497867,9871497865",,,,,,,,,,,0,1,1,0,0,0,0,1,3454282,pdf,A23EDDCA07D24189985B1F6322FB066C,,,Mazzeo Miguel - Marx Populi (Ilustrado).pdf,0,2021-03-17 15:24:51,2021-03-17 20:59:34,a23eddca07d24189985b1f6322fb066c-g.jpg,,"9789871497867,9871497865"
32754083,África rebelde : comunalismo y anarquismo en Nigeria,,Disidencias (Alikornio),,Sam Mbah; I. E. Igariwey,2000,,Alikornio,,,175,Spanish; Castilian,,,,"9788493162535,8493162531",,,,,,,,,,,0,1,1,0,0,0,0,1,4204334,pdf,5DBBC50AC8E0EEA1383F89C1F460C797,,,Mbah Sam Y Igariwey I E - Africa Rebelde - Comunalismo Y Anarquismo En Nigeria.pdf,0,2021-03-17 15:27:00,2021-03-17 20:59:15,5dbbc50ac8e0eea1383f89c1f460c797-g.jpg,,"9788493162535,8493162531"
32754084,The Truth About Hungary,,,,Herbert Aptheker,1957,,Mainstream Publishers,New York,256,255,English,64,,,,,,,,,,,,,,0,0,,0,1,1,,1,13398790,pdf,D728D241DAB0C0DA8C99182C43B24545,,,"Aptheker, Herbert 1957 The Truth About Hungary.pdf",0,2021-03-17 15:27:03,2021-03-17 15:27:03,d728d241dab0c0da8c99182c43b24545-g.jpg,,
32754085,El arte de ser un desastre,,,,Jennifer McCartney,2019,,Temas de Hoy,,143,0,Spanish; Castilian,,,,"8499987540,9788499987545",,,,,,,,xkoWywEACAAJ,,,0,1,1,0,0,0,0,1,2438669,epub,3D58B2734D356F29F52B77D14090EFEE,,,Mc Cartney Jennifer - El Arte De Ser Un Desastre.epub,0,2021-03-17 15:27:22,2021-03-18 02:10:06,3d58b2734d356f29f52b77d14090efee-g.jpg,,"8499987540,9788499987545"
32754086,Oxford English Dictionary,9,,,Oxford University,1989,2,Oxford University Press,,,1152,English,322,,,,,,,,,,,,,,0,,,,,,1,1,164063654,pdf,D34756FAC9581A7CD52AC433DEF445E1,,,"The Oxford English Dictionary, ED2, v09 - LOO-MOU.pdf",0,2021-03-17 15:28:03,2021-03-17 15:28:03,d34756fac9581a7cd52ac433def445e1-g.jpg,,
32754087,A hierro y fuego : las atrocidades de la guerra en la Edad Media,,"Tiempo de historia (Barcelona, España)",,Sean McGlynn,2009,,Editorial Crítica,,,472,Spanish; Castilian,,,,"9788474239393,8474239397",,,,,,,,,,,0,1,1,0,0,0,0,1,10258884,pdf,FDE35EEB1DE0B443954B92241F392B08,,,Mc Glynn Sean - A Hierro Y Fuego.pdf,0,2021-03-17 15:33:12,2021-03-17 20:58:35,fde35eeb1de0b443954b92241f392b08-g.jpg,,"9788474239393,8474239397"
32754088,Splendore e viltà,,,,Erik Larson,2020,,Neri Pozza,,704,0,Italian,,,,"8854517003,9788854517004",,,,,,,,,,,0,,,,,,,,1453491,epub,AD74D61267FC9CB31A842B2024555690,,,Splendore e viltà_nodrm.epub,0,2021-03-17 15:36:19,2021-03-17 15:36:19,ad74d61267fc9cb31a842b2024555690-g.jpg,,"8854517003,9788854517004"
32754089,Roads to Russia - United States Lend-Lease to the Soviet Union,,,,Robert Huhn Jones,1969,,University of Oklahoma Press,"Norman, Oklahoma",326,340,English,64,,,,,,,,,,,,,,300,,,0,1,1,,1,15322118,pdf,C53E168901D18FFDA2F24521699DCC15,,,"Jones, Robert H. 1969 Roads to Russia - United States Lend-Lease to the Soviet Union.pdf",0,2021-03-17 15:39:00,2021-03-17 15:39:00,c53e168901d18ffda2f24521699dcc15-g.jpg,,
32754090,Oxford English Dictionary,10,,,Oxford University,1989,2,Oxford University Press,,,1155,English,322,,,"0198612222,0198611862",,,,,,,,,,,0,,,,,,1,1,165652437,pdf,F0BEA92D0E7E2006C8E95958E5E4183D,,,"The Oxford English Dictionary, ED2, v10 - MOU-OVU.pdf",0,2021-03-17 15:40:48,2021-03-17 15:40:48,f0bea92d0e7e2006c8e95958e5e4183d-g.jpg,,"0198612222,0198611862"
32754091,Le emozioni che curano. Stare bene con la nuova medicina delle emozioni,,,,Erica Francesca Poli,2019,,Mondadori,,381,0,Italian,,,,"8804715359,9788804715351",,,,,,,,,,,0,,,,,,,,543000,epub,C9435DE7C34FA03DACEF6028D730CE53,,,Le emozioni che curano_nodrm.epub,0,2021-03-17 15:43:11,2021-03-17 15:43:11,c9435de7c34fa03dacef6028d730ce53-g.jpg,,"8804715359,9788804715351"
32754092,Alles unter dem Himmel,,,,Zhao Tingyang,2020,,Suhrkamp Verlag,,,0,German,,,,9783518761960,,,,,,,,,,,0,,,,,,,,40951085,epub,54A293C244CD98EDEF7F719518E841A1,,,Tingyang_Alles-unter-dem-Himmel_9783518761960.epub,0,2021-03-17 15:49:43,2021-03-17 15:49:43,54a293c244cd98edef7f719518e841a1-g.jpg,,9783518761960
32754093,Hágalo usted mismo,,,,Mariano Fernández Enguita,1991,,Ministerio de Educación,,262,262,Spanish; Castilian,,,,"8436919459,9788436919455",,,,,,,,qRM0tdj5Rc8C,,,0,,,,,,,1,35409709,pdf,6B3F078627B908CEA87A56EA1A3E98DF,,,Hágalo usted mismo - Fernández Enguita.pdf,0,2021-03-17 15:52:28,2021-03-18 02:09:09,6b3f078627b908cea87a56ea1a3e98df-d.png,,"8436919459,9788436919455"
32754094,Las mil y una caras de eros : la sexualidad humana en busca de soluciones,,Psicología profunda,,Joyce McDougall,1998,,Paidós,,,305,Spanish; Castilian,,,,"9789501242140,9501242145",,,,,,,,,,,0,1,1,0,0,0,0,1,8398932,pdf,F90D085309EC1A5AF206E3C1142A280E,,,Mcdougall Joyce - Las Mil Y Una Caras De Eros.pdf,0,2021-03-17 15:52:45,2021-03-17 20:54:39,f90d085309ec1a5af206e3c1142a280e-g.jpg,,"9789501242140,9501242145"
32754095,Oxford English Dictionary,11,,,Oxford University,1989,2,Oxford University Press,,,1153,English,322,,,"0198612230,0198611862",,,,,,,,,,,0,,,,,,1,1,169996013,pdf,DF6FF457F3737FBC42BACF3776C60A51,,,"The Oxford English Dictionary, ED2, v11 - OW-POI.pdf",0,2021-03-17 15:52:54,2021-03-17 15:52:54,df6ff457f3737fbc42bacf3776c60a51-g.jpg,,"0198612230,0198611862"
32754096,"A Brotherhood Betrayed: The Man Behind the Rise and Fall of Murder, Inc.",,,,Michael Cannell,2020,,Minotaur Books,,304,0,English,,,,"9781250204400,1250204402",,,,,,,,2yrQDwAAQBAJ,,,0,,,,,,,,1732699,epub,3D0DEC54114A5D5303D16DCB4EAFA3EE,,,1250204380.epub,0,2021-03-17 15:55:00,2021-03-18 02:07:58,3d0dec54114a5d5303d16dcb4eafa3ee-d.jpg,,"9781250204400,1250204402"
32754097,Terror to the Wicked: America's First Trial by Jury That Ended a War and Helped to Form a Nation,,,,Tobey Pearl,2021,,Knopf Doubleday Publishing Group,,,0,English,,,,"9781101871720,2020027984,9781101871713",,,,,,,,,,,0,,,,,,,,22722870,epub,40A69A038E186873B8C780EC9FE487C2,,,1101871717.epub,0,2021-03-17 15:55:45,2021-03-17 15:55:45,40a69a038e186873b8c780ec9fe487c2-g.jpg,,"9781101871720,2020027984,9781101871713"
32754098,La lógica de las ciencias sociales,,,,"Theodor W. Adorno, Jürgen Habermas, Karl R. Popper",2008,,Colofón,,,138,Spanish,,,,9789688673621,,,,,,,,,,,0,,,,,,,1,23428865,pdf,F8025F081A54DC9EEA57F51C0410D6E9,,,La lógica de las ciencias sociales.pdf,0,2021-03-17 15:57:40,2021-03-17 15:57:40,f8025f081a54dc9eea57f51c0410d6e9-g.jpg,,9789688673621
32754099,"America, Amerikkka: Elect Nation and Imperial Violence",,Religion and Violence,,Rosemary Radford Ruether,2007,First,Routledge,"Abingdon, Oxon",288,300,English,65,,,"9781845531577,9781845531584,1845531574,1845531582,2006019370",,,,,,,,,OL8960288M,,0,,,0,1,,1,1,2592960,pdf,F64C4D00BCEC8FBFBE05490B3390F470,,,"America, Amerikkka--Rosemary Radford Ruether.pdf",0,2021-03-17 15:59:17,2021-03-17 15:59:17,f64c4d00bcec8fbfbe05490b3390f470-g.jpg,"politics, imperialism, colonialism, hegemony, american exceptionalism","9781845531577,9781845531584,1845531574,1845531582,2006019370"
32754100,Oxford English Dictionary,12,,,Oxford University,1989,2,Oxford University Press,,,1028,English,322,,,"0198612249,0198611862",,,,,,,,,,,0,,,,,,1,1,144994588,pdf,3EFFBFF8F258E605A7A7A5C402A45285,,,"The Oxford English Dictionary, ED2, v12 - POI-QUE.pdf",0,2021-03-17 15:59:22,2021-03-17 15:59:22,3effbff8f258e605a7a7a5c402a45285-g.jpg,,"0198612249,0198611862"
32754101,Calidad del aprendizaje universitario,,,,John Biggs,2005,,Narcea,,,295,Spanish,,,,8427713983,,,,,,,,,,,0,,,,,,1,1,15952783,pdf,70EAB7A199D7EDF42D28C91DE1E6231C,,,Calidad del aprendizaje universitario.pdf,0,2021-03-17 15:59:37,2021-03-18 02:07:24,70eab7a199d7edf42d28c91de1e6231c-g.jpg,,8427713983
32754102,No Place Like Murder: True Crime in the Midwest,,,,Janis Thornton,2020,,Indiana University Press,,,0,English,,,,"9780253052810,9780253052780,9780253052797",,,,,,,,,,,0,,,,,,,,4725885,epub,2E36E3DB133B61B57ADCEFDA18548BD1,,,No Place Like Murder.epub,0,2021-03-17 16:01:07,2021-03-17 16:01:07,2e36e3db133b61b57adcefda18548bd1-g.jpg,,"9780253052810,9780253052780,9780253052797"
32754103,"Forever and Five Days: The Chilling True Story of Love, Betrayal, and Serial Murder in Grand Rapids, Michigan",,,,Lowell Cauffiel,2014,,Open Road Media,,512,0,English,,,,"9781497649712,1497649714",,,,,,,,G5vWAwAAQBAJ,,,0,,,,,,,,3626820,epub,C1245F6B2284AFA1F5537A6F526F1E0E,,,Forever and Five Days.epub,0,2021-03-17 16:02:32,2021-03-18 02:06:18,c1245f6b2284afa1f5537a6f526f1e0e-d.jpg,,"9781497649712,1497649714"
32754104,Crime Science: Methods of Forensic Detection,,,,Joe Nickell,1999,,University Press of Kentucky,,324,0,English,,,,"9780813126388,081312638X",,,,,,,,QEpgv0X6BVQC,,,0,,,,,,,,9750893,epub,AA5C51D326A55B9530E46B7525FA97C2,,,Crime Science.epub,0,2021-03-17 16:02:58,2021-03-18 02:05:30,aa5c51d326a55b9530e46b7525fa97c2-d.jpg,,"9780813126388,081312638X"
32754105,"Countdown to rebellion : British policy in Cyprus, 1939-1955",,"Contributions in comparative colonial studies, no. 27",,George Horton Kelling,1990,,Greenwood Press,New York,,199,English,,,,"9780313268489,0313268487",,,,,,,,,,,0,,,,,,,0,17937164,pdf,1A8724FEC9264108D3389D3192329A46,,,mdp.39015018957798.pdf,0,2021-03-17 16:03:01,2021-03-17 16:03:01,1a8724fec9264108d3389d3192329a46-g.jpg,,"9780313268489,0313268487"
32754106,Bad: An Unprecedented Investigation Into the Michael Jackson Cover-Up,,,,Dylan Howard,2020,,Skyhorse,,,0,English,,,,9781510763272,,,,,,,,,,,0,,,,,,,,30222705,epub,AE66C826D7F5787A6D512CBEB07B6F9D,,,Bad.epub,0,2021-03-17 16:03:56,2021-03-17 16:03:56,ae66c826d7f5787a6d512cbeb07b6f9d-g.jpg,,9781510763272
32754107,Oxford English Dictionary,13,,,Oxford University,1989,2,Oxford University Press,,,1028,English,322,,,,,,,,,,,,,,0,,,,,,1,1,147324032,pdf,23802687B72B3031BAD98450428C760A,,,"The Oxford English Dictionary, ED2, v13 - QUE-ROA.pdf",0,2021-03-17 16:05:26,2021-03-17 16:05:26,23802687b72b3031bad98450428c760a-g.jpg,,
32754108,La justicia en el mundo prehispánico,,Episodios y Personajes del Poder Judicial 13,,Carlos Brokmann,2010,1,Suprema Corte de Justicia de la Nación,México,272,274,Spanish,65,,,9786074681710,,,,,,,,,,,0,,,,,,1,1,965276,pdf,D899FCC5896BEAB33EB7E595B081BE0C,,,"2010 - Brokmann, Carlos - La justicia en el mundo prehispanico, 2 Texto (Mexico SCJN 2010).pdf",0,2021-03-17 16:06:44,2021-03-17 20:53:15,d899fcc5896beab33eb7e595b081be0c-g.jpg,"Law, Aztec, Maya, Mixtec, Zapotec, Legal Anthropology, Legas Systems",9786074681710
32754109,Fikirler tarihi: ateşten Freud'a,,,,Peter Watson,2014,,Yapı Kredi Yayınları,,,0,Turkish,,,,9789750826924,,,,,,,,,,,0,,,,,,,,1455574,epub,EC339861F6C0BFF8AB8CDC41A3A154E4,,,Fikirler tarihi ateşten Freud'a -Peter Watson.epub,0,2021-03-17 16:08:05,2021-03-17 16:08:05,ec339861f6c0bff8ab8cdc41a3a154e4-g.jpg,,9789750826924
32754110,Oxford English Dictionary,14,,,Oxford University,1989,2,Oxford University Press,,,1028,English,322,,,"0198612265,0198611862",,,,,,,,,,,0,,,,,,1,1,147675570,pdf,222F24C18BA958F9DDA3A577360E8E0A,,,"The Oxford English Dictionary, ED2, v14 - ROB-SEQ.pdf",0,2021-03-17 16:10:59,2021-03-17 16:10:59,222f24c18ba958f9dda3a577360e8e0a-g.jpg,,"0198612265,0198611862"
32754111,Oxford English Dictionary,15,,,Oxford University,1989,2,Oxford University Press,,,1025,English,322,,,"0198612273,0198611862",,,,,,,,,,,0,,,,,,1,1,151391692,pdf,F7257BDA85AC5BE151625E0E7E28D07D,,,"The Oxford English Dictionary, ED2, v15 - SER-SOO.pdf",0,2021-03-17 16:17:02,2021-03-17 16:17:02,f7257bda85ac5be151625e0e7e28d07d-g.jpg,,"0198612273,0198611862"
32754112,Where Angels Tread Lightly: The Assassination of President Kennedy Volume 1,,,,"Newman, John",2015,,,,,0,English,,,,"4104935019,9781478302414,2014922513",,,,,,,,,,,0,,,,,,,,1566291,epub,10DBC9A2F819C662C29694F16A3B9C62,,,Where Angels Tread Lightly_ The - John Newman.epub,0,2021-03-17 16:17:15,2021-03-17 16:17:15,10dbc9a2f819c662c29694f16a3b9c62-g.jpg,,"4104935019,9781478302414,2014922513"
32754113,"The Writings of Salvian, the Presbyter",,"The Fathers of the Church, 3",,"Salvian, Salvianus, Jeremiah F. O'Sullivan (transl.)",2008,Reprint,The Catholic University of America Press,Washington,398,402,English,205,,,"0813215501,9780813215501",,,,,,,,,,,0,,,,1,0,0,1,5672278,pdf,4FEDF319734A03B1FA6142D4649F6A25,,,Salvian.pdf,0,2021-03-17 16:21:11,2021-03-17 16:27:12,4fedf319734a03b1fa6142d4649f6a25-g.jpg,,"0813215501,9780813215501"
32754114,Oxford English Dictionary,16,,,Oxford University,1989,2,Oxford University Press,,,1027,English,322,,,,,,,,,,,,,,0,,,,,,1,1,146960498,pdf,D6A8B4F04279BE0F21A72259A0A4352E,,,"The Oxford English Dictionary, ED2, v16 - SOO-STY.pdf",0,2021-03-17 16:22:34,2021-03-17 16:22:34,d6a8b4f04279be0f21a72259a0a4352e-g.jpg,,
32754115,Late Night with Trump: Political Humor and the American Presidency,,,,Stephen J. Farnsworth and S. Robert Lichter,2020,First,Routledge,"New York, NY",188,189,English,192,,,"2019033142,2019033143,9781138370647,9781138370654,9780429427916",,,,,,,,,OL29425358M,,0,,,0,,,1,1,2213106,pdf,63EEB9505862A7B05A452A9C54984348,,,Late Night with Trump.pdf,0,2021-03-17 16:25:13,2021-03-17 16:25:13,63eeb9505862a7b05a452a9c54984348-g.jpg,"trump, politics, culture, america, public opinion, political humor","2019033142,2019033143,9781138370647,9781138370654,9780429427916"
32754116,Oxford English Dictionary,17,,,Oxford University,1989,2,Oxford University Press,,,1027,English,322,,,,,,,,,,,,,,0,,,,,,1,1,124777604,pdf,F7E997F8311E617CBDC93D67F9538EF8,,,"The Oxford English Dictionary, ED2, v17 - SU-THR.pdf",0,2021-03-17 16:27:34,2021-03-17 16:27:34,f7e997f8311e617cbdc93d67f9538ef8-g.jpg,,
32754117,Gabinete de curiosidades médicas de la Antigüedad: Historias sorprendentes de las artes curativas de Grecia y Roma,,,,James C. McKeown,2017,,Grupo Planeta,,380,0,Spanish; Castilian,,,,"8417067361,9788417067366",,,,,,,,59osDwAAQBAJ,,,0,1,1,0,0,0,0,1,5048030,epub,CAE3F3700B2E4A3FBC7C6289645C0CA1,,,Mckeown James C - Gabinete De Curiosidades Medicas De La Antiguedad.epub,0,2021-03-17 16:31:15,2021-03-18 02:03:57,cae3f3700b2e4a3fbc7c6289645c0ca1-d.jpg,,"8417067361,9788417067366"
32754118,Oxford English Dictionary,18,,,Oxford University,1989,2,Oxford University Press,,,1028,English,322,,,,,,,,,,,,,,0,,,,,,1,1,124810999,pdf,87C4D8EB6C6035EE4C2F92F056E8D5A1,,,"The Oxford English Dictionary, ED2, v18 - THR-UNE.pdf",0,2021-03-17 16:32:26,2021-03-17 16:32:26,87c4d8eb6c6035ee4c2f92f056e8d5a1-g.jpg,,
32754119,"As cartas de Hammurabi: introdução, tradução do texto cuneiforme e comentários",,,,Emanuel Bouzon,1986,,Vozes,Petrópolis,240,241,Portuguese,,,,,,,,,,,,icBKvwEACAAJ,,,0,,,0,,,,0,69971316,pdf,E67B391894C5B99A35CB82278092BBF3,,,Cartas.pdf,0,2021-03-17 16:34:30,2021-03-18 02:03:18,e67b391894c5b99a35cb82278092bbf3-g.jpg,,
32754120,Thirteen ways of looking at a man : psychoanalysis and masculinity,,,,Donald Moss,2012,,Routledge,,,86,English,,,,"9781136255991,1136255990",,,,,,,,,,,0,1,1,0,0,0,0,1,5438179,pdf,332DD0F864372AE9ED07552169E25B51,,,Mcnaspy Clemente J - Un Conquistador Sin Espada.PDF,0,2021-03-17 16:43:10,2021-03-17 16:43:10,332dd0f864372ae9ed07552169e25b51-g.jpg,,"9781136255991,1136255990"
32754121,Oxford English Dictionary,20,,,Oxford University,1989,2,Oxford University Press,,,987,English,322,,,,,,,,,,,,,,0,,,,,,1,1,147251073,pdf,7DD054C363C27769136ECCC72E0970B8,,,"The Oxford English Dictionary, ED2, v20 - WAV-ZYX.pdf",0,2021-03-17 16:43:55,2021-03-17 16:43:55,7dd054c363c27769136eccc72e0970b8-g.jpg,,
32754122,Understanding Security Practices in South Asia: Securitization Theory and the Role of Non-State Actors,,,,Monika Barthwal-Datta,2012,,Routledge,,,213,English,,,,"2011044047,9780415616317,9780203120682",,,,,,,,T-OG04D9A_oC,,,0,,,,,,1,1,5537806,pdf,2DBC82BC49172A03ABB589C64AA5B54E,,,Understanding Security Practice - Monika Barthwal-Datta.pdf,0,2021-03-17 16:48:37,2021-03-17 16:48:37,2dbc82bc49172a03abb589c64aa5b54e-g.jpg,,"2011044047,9780415616317,9780203120682"
32754123,A Guide to the Oxford English Dictionary,,,,Donna Lee Berg,1993,,Oxford University Press,,"x, 206 p. ;",219,English,322,,,0198691793,,,,,423-dc20,,,,,,0,,,,,,1,1,32562582,pdf,747E91849BB0E3E6B2C6876A8EEDCE3B,,,A Guide to the Oxford English Dictionary (1993).pdf,0,2021-03-17 16:49:32,2021-03-17 16:49:32,747e91849bb0e3e6b2c6876a8eedce3b-g.jpg,,0198691793
32754124,"Iberian Fathers. Vol. 2. Braulio of Saragossa, Fructuosus of Braga",2,"The Fathers of the Church, 63",,"Braulio of Saragossa, Fructuosus of Braga, Braulius Caesaraugustanus, Fructuosus Bracarensis, Claude W. Barlow (transl.)",1969,,The Catholic University of America Press,Washington,VI+244,252,English,205,,,"0813226309,9780813226309",,,,,,,,,,,0,,,,1,0,0,1,12083350,pdf,FC95ECD1523E6B43032542547765E470,,,Iberian2.pdf,0,2021-03-17 16:49:52,2021-03-17 16:49:52,fc95ecd1523e6b43032542547765e470-g.jpg,,"0813226309,9780813226309"
32754125,A History of Communication Technology,,,,Philip Loubere,2021,1,Routledge,,310,310,English,,,,"0367211505,9780367211509",,,,,,,,,,,0,,,,,,1,1,18250900,pdf,A813828EAE51BDAB7EA5515B38530194,,,outputEbook.pdf,0,2021-03-17 16:52:30,2021-03-17 16:52:30,a813828eae51bdab7ea5515b38530194-g.jpg,,"0367211505,9780367211509"
32754126,"Primitive Photography: A Guide to Making Cameras, Lenses, and Calotypes",,Alternative Process Photography,,Alan Greene,2002,1,Routledge,,240,249,English,,,,9780240804613,,,,,,,,,,,0,,,,,,1,1,16299050,pdf,B0B9428D8516237B1F0889FEA8C4BC8C,,,00.pdf,0,2021-03-17 16:59:07,2021-03-17 17:03:17,b0b9428d8516237b1f0889fea8c4bc8c-g.jpg,,9780240804613
32754127,"Iberian Fathers. Vol. 3. Pacian of Barcelona, Orosius of Braga",3,"The Fathers of the Church, 99",,"Pacian of Barcelona, Orosius of Braga, Pacianus Barcinonensis, Orosius Bracarensis, Craig L. Hanson (transl.)",1999,,The Catholic University of America Press,Washington,X+192,206,English,205,,,"0813200997,9780813200996",,,,,,,,,,,0,,,,1,0,0,1,1019585,pdf,0F3C55D5B3BA007E82B498F2B612332B,,,Iberian3.pdf,0,2021-03-17 17:00:27,2021-03-17 17:00:27,0f3c55d5b3ba007e82b498f2b612332b-g.jpg,,"0813200997,9780813200996"
32754128,"Making Media: Production, Practices, and Professions",,,,Mark Deuze and Mirjam Prenger,2019,,Amsterdam University Press,,,493,English,,EBSCOhost,,"9789462988118,9789048540150",,,,,,,10.5117/9789462988118,,,,0,,,,,,1,1,3203878,pdf,6F738017AA1FDC43BFA4057CC8AA955D,,,MarkDeuzeMirjamPreng_2019_MakingMediaProductionPracticesandProfess.pdf,0,2021-03-17 17:16:22,2021-03-17 17:16:22,6f738017aa1fdc43bfa4057cc8aa955d-g.jpg,,"9789462988118,9789048540150"
32754129,Vom Brande Moskaus bis zum Pariser Frieden,,"Diplomatische Geschichte der Jahre 1813, 1814, 181; 1",,(Heinrich K. Pappermann),1863,,Brockhaus,Leipzig,515,525,German,64,,,,,,,,,,,,,,0,,,0,1,1,1,1,44983908,pdf,BE0DE3007587C78871CBB57383F59CC4,,,Diplomatische_Geschichte_der_Jahre_1813 1.pdf,0,2021-03-17 17:28:36,2021-03-17 17:28:36,be0de3007587c78871cbb57383f59cc4-g.jpg,"diplomatic history, Prussia, Germany, France",
32754130,"The beginnings of commercial and financial journalism : the commodity price currents, exchange rate currents, and money currents of early modern Europe",,"NEHA-series III, 11",,John J. McCusker; Cora Gravesteijn,1991,,NEHA,Amsterdam,,517,English,,,,"9789071617270,9071617270",,,,,,,,,,,0,,,,,,,0,27253849,pdf,BBBEC6AD6338118C551E2B464C5CD48E,,,mdp.39015038571330.pdf,0,2021-03-17 17:28:47,2021-03-17 17:28:47,bbbec6ad6338118c551e2b464c5cd48e-g.jpg,,"9789071617270,9071617270"
32754131,Black on Black : Urban Youth Films and the Multicultural Audience,,,,Celeste A. Fisher,2006,,Scarecrow Press,"Lanham, Md.",,152,English,,EBSCOhost,,"9780810857223,0810857227,2005035444",,,,,,,,,,,0,,,,,,1,1,7116552,pdf,B77A5680185BB2D1379DD66255BF01D6,,,Black on Black_ Urban Youth Fil - Celeste A. Fisher.pdf,0,2021-03-17 17:29:53,2021-03-17 17:29:53,b77a5680185bb2d1379dd66255bf01d6-g.jpg,,"9780810857223,0810857227,2005035444"
32754132,Después de la finitud : ensayo sobre la necesidad de la contingencia,,Futuros próximos,,Quentin Meillassoux,2015,,Caja Negra,,,191,Spanish; Castilian,,,,"9789871622344,9871622341",,,,,,,,,,,0,1,1,0,0,0,0,1,5626366,pdf,1CE92B7BC454C0F9E9B46C3EA35977CB,,,Meillassoux Quentin - Despues De La Finitud.pdf,0,2021-03-17 17:30:35,2021-03-18 02:01:48,1ce92b7bc454c0f9e9b46c3ea35977cb-g.jpg,,"9789871622344,9871622341"
32754133,Vom Wiener Congresse bis zum zweiten Pariser Frieden,,"Diplomatische Geschichte der Jahre 1813, 1814, 181; 2",,(Heinrich K. Pappermann),1863,,Brockhaus,Leipzig,463,468,German,64,,,,,,,,,,,,,,0,,,0,1,1,1,1,25485991,pdf,E66E5143E001C34E4C0CC50F00FF350C,,,Diplomatische_Geschichte_der_Iahre_1813 2.pdf,0,2021-03-17 17:32:31,2021-03-17 17:32:31,e66e5143e001c34e4c0cc50f00ff350c-g.jpg,"diplomatic history, Prussia, Germany, France",
32754134,El Historicismo y Su Génesis,,,,Friedrich Meinecke,1943,,Fondo de Cultura Económcia,,525,508,Spanish; Castilian,,,,"9681611497,9789681611491",,,,,,,,EG2SAAAACAAJ,,,0,1,1,0,0,0,0,1,17980740,pdf,963AD0027BDC6C659C980784C68A60E8,,,Meinecke Friedrich - El Historicismo Y Su Genesis.pdf,0,2021-03-17 17:33:45,2021-03-18 01:59:13,963ad0027bdc6c659c980784c68a60e8-d.jpg,,"9681611497,9789681611491"
32754135,The Dangers of Ritual: Between Early Medieval Texts and Social Scientific Theory,,,,Philippe Buc,2001,,Princeton University Press,,XIV+272,290,English,64,,,"0691016046,9780691016047",,,,,,,,,,,0,,0,,1,1,0,1,13210037,pdf,683FEF4436EF3274698CB0BBBE857884,,,Buc.pdf,0,2021-03-17 17:34:55,2021-03-17 17:34:55,683fef4436ef3274698cb0bbbe857884-g.jpg,,"0691016046,9780691016047"
32754136,El golpe de Estado en Honduras desde una perspectiva de los Derechos Humanos,,,,Joaquin A. Mejia Rivera; Victor A. Fernandez,2010,,Guaymuras,,,432,Spanish; Castilian,,,,"9789992654026,9992654023",,,,,,,,,,,0,1,1,0,0,0,0,1,3816920,pdf,E76AA325BCB161B9E6CF7456838E1DE1,,,Mejia Joaquin - El Golpe De Estado En Honduras.PDF,0,2021-03-17 17:37:53,2021-03-17 20:50:36,e76aa325bcb161b9e6cf7456838e1de1-g.jpg,,"9789992654026,9992654023"
32754137,John Locke : ensayo sobre el entendimiento humano,,Crítica filosófica,,Tomás Melendo,1978,,Magisterio Español,,,260,Spanish; Castilian,,,,"9788426553218,8426553214",,,,,,,,,,,0,1,1,0,0,0,0,1,6190449,pdf,27BDEE8B3790A985A85984E96886355C,,,Melendo Tomas - J Locke - Ensayo Sobre El Entendimiento Humano.pdf,0,2021-03-17 17:44:09,2021-03-17 20:49:43,27bdee8b3790a985a85984e96886355c-g.jpg,,"9788426553218,8426553214"
32754138,Allegorical Imagery: Some Mediaeval Books and Their Posterity,,,,Rosemond Tuve,1966,,Princeton University Press,,472,477,English,,,,"9780691197616,069119761X",,,,,,,,3_-JDwAAQBAJ,,,0,,,,,,1,1,24992861,pdf,B01EB6732421CFD707D1BE59A1E77A08,,,Allegorical imagery; some mediaeval books and their posterity (1966).pdf,0,2021-03-17 23:34:20,2021-03-17 23:34:20,b01eb6732421cfd707d1be59a1e77a08-g.jpg,,"9780691197616,069119761X"
32754139,熵：一种新的世界观,,当代学术思潮译丛,,Jeremy Rifkin; Ted Howard,1987,,上海译文出版社,,243,262,Chinese,,,,9787532701520,,,,,,,,,,,0,0,0,,,1,0,0,6686209,pdf,32AC1A75833B4CD45A657BA60D7E887D,,,[当代学术思潮译丛]18熵：一种新的世界观.pdf,0,2021-03-17 23:35:16,2021-03-17 23:35:16,32ac1a75833b4cd45a657ba60d7e887d-g.jpg,,9787532701520
32754140,Культурология : учебник,,,,"Алабушева, Н. С., Блошенко, Е. В., Булатова, А. В., Быстрова, Т. Ю., Вожева, Л. Б., Ган, О. И., Головнева, Е. В., Журавлева, Н. И., Кабанова, К. И., Мельникова, С. В.",2014,,", Издательство Уральского университета,",,0,0,Russian,191,,0,,,,,,,,,,,,0,,,,,,,1,1354391,pdf,7e78c7b6b2297a6a0d903fc8ad0c68a6,,,67.978-5-7996-1163-7_2014.pdf,0,2016-06-12 12:31:32,2019-12-21 13:23:21,1516000/7e78c7b6b2297a6a0d903fc8ad0c68a6-g.jpg,Культурология;,
32754141,Bastogne - O último bloqueio,10,História Ilustrada da 2° Guerra Mundial - Batalhas,,Peter Elstob,1976,,Renes,Rio de Janeiro,162,163,Portuguese,,,,,,,,,,,,,,,0,,,0,,,,0,56785445,pdf,097BB92D143B16975272C12ACB284AA0,,,Bastogne.pdf,0,2021-03-17 17:29:51,2021-03-17 17:29:51,097bb92d143b16975272c12acb284aa0-g.jpg,,
32754142,"Doce inferno: açucar, guerra e escravidão no Brasil holandês (1580-1654)",,História em Documentos,,Elsa Gonçalves Avancini,1991,,Atual Editora,São Paulo,95,101,Portuguese,,,,"8570563809,9788570563804",,,,,,,,iBMsAAAAYAAJ,,,0,,,0,,,,0,17261631,pdf,A82A4EBCE86841F25211AC8A12AE0A88,,,Doce.pdf,0,2021-03-17 17:48:37,2021-03-18 01:58:20,a82a4ebce86841f25211ac8a12ae0a88-d.png,,"8570563809,9788570563804"
32754143,Del extraño al cómplice : la educación en la vida cotidiana,,"Autores, Textos y Temas",,Joan-Carles Mèlich,1997,,Anthropos,,,190,Spanish; Castilian,,,,"9788476584224,8476584229",,,,,,,,,,,0,1,1,0,0,0,0,1,4926350,pdf,8B2B6724B1897E339A4DAD61C068CABA,,,Melich Joan Carles - Del Extraño Al Complice.pdf,0,2021-03-17 17:50:17,2021-03-17 20:49:22,8b2b6724b1897e339a4dad61c068caba-g.jpg,,"9788476584224,8476584229"
32754144,"1652: The Cardinal, the Prince, and the Crisis of the \Fronde\""""",,,,David Parrott,2020,,Oxford University Press,,XXII+308,338,English,64,,,"019879746X,9780198797463",,,,,,,,,,,0,,,,1,0,1,1,5871779,pdf,DCECA6F644684387DC30B44DA6186A47,,,Parrot.pdf,0,2021-03-17 17:50:41,2021-03-17 17:50:41,dceca6f644684387dc30b44da6186a47-g.jpg,,"019879746X,9780198797463"
32754145,El Músico de la Lluvia,,,,Mar Mella,2017,,,,,0,Spanish,,,,"1522063951,9781522063957",,,,,,,,,,,0,1,1,0,0,0,0,1,497606,epub,36873487F264AB8A8B1AFAC1731FFFF9,,,Mella Mar - El Musico De La Lluvia.epub,0,2021-03-17 17:51:27,2021-03-18 01:57:38,36873487f264ab8a8b1afac1731ffff9-g.jpg,,"1522063951,9781522063957"
32754146,"La Patagonia habitada : experiencias, identidades y memorias en los imaginarios artísticos del sur argentino",,"Aperturas. Serie Artes, letras y cultura",,Luciana Mellado (editor),2019,,,,,139,Spanish; Castilian,,,,"9789874960092,9874960094",,,,,,,,,,,0,1,1,0,0,0,0,1,3252983,pdf,9351FDA69E2ADC23D25D71BD4C8C97E8,,,Mellado Luciana A - La Patagonia Habitada.pdf,0,2021-03-17 17:52:19,2021-03-17 20:48:32,9351fda69e2adc23d25d71bd4c8c97e8-g.jpg,,"9789874960092,9874960094"
32754147,Super Courses: The Future of Teaching and Learning,,,,Ken Bain,2021,,Princeton University Press,,296,0,English,,,,"9780691216591,0691216592",,,,,,,,0gn-DwAAQBAJ,,,0,,,,,,,,1471840,epub,5035B861F35D4FCDBB50F362DE25F2F7,,,Super_Courses_by_Ken_Bain.epub,0,2021-03-17 17:52:55,2021-03-18 01:57:08,5035b861f35d4fcdbb50f362de25f2f7-d.jpg,,"9780691216591,0691216592"
32754148,Joan of Arc: A Captivating Guide to a Heroine of France and Her Role During the Lancastrian Phase of the Hundred Years’ War,,,,"History, Captivating",2019,,,,,0,English,,,,2009489944,,,,,,,,,,,0,,,,,,,,1588819,epub,18922038075DE8664F8B612C5587CE40,,,Joan_of_Arc_by_Captivating_History_UserUpload.Net.epub,0,2021-03-17 17:53:16,2021-03-17 17:53:16,18922038075de8664f8b612c5587ce40-g.jpg,,2009489944
32754149,The Great Book of American Heroes,,,,"O'Neill, Bill",2020,,,,,0,English,,,,2153434539,,,,,,,,,,,0,,,,,,,,1995812,epub,F24A265ED1D19C0AE1C103DF981EC05F,,,The_Great_Book_of_American_Heroes_by_Bill_ONeill.epub,0,2021-03-17 17:54:11,2021-03-17 17:54:11,f24a265ed1d19c0ae1c103df981ec05f-g.jpg,,2153434539
32754150,Wiring Guide: The 2020 Lithium-Ion Battery Guide: The Ultimate DIY Guide To Building Lithium-Ion Battery Packs,,,,"Johnson, Neal",2020,,,,,0,English,,,,4138736962,,,,,,,,,,,0,,,,,,,,2427071,epub,C02C4AEBF65D347E78CE03712F999226,,,Wiring_Guide_2020_by_Neal_Johnson_.epub,0,2021-03-17 17:55:16,2021-03-17 17:55:16,c02c4aebf65d347e78ce03712f999226-g.jpg,,4138736962
32754151,FUCCFILES: Lessons from a decade of women,,,,Rian Stone,2020,,,,,0,English,,,,,,B0873ZX5MV,,,,,,,,,0,,,,,,,,4421688,epub,9C982F3C1DFE6F63053C7E1BFAAAE59C,,,Fuccfiles.epub,0,2021-03-17 17:55:37,2021-03-18 01:56:26,9c982f3c1dfe6f63053c7e1bfaaae59c-d.jpg,,
32754152,The Real World of Democracy,,,,C.B. Macpherson,1966,,Oxford University Press,New York,,76,English,,,,0195015347,,,,,,,,,,,0,,,,,,,1,9922161,pdf,CB56E28C80F494822C6B110D3319AE78,,,Macpherson (1966) Real World of Democracy.pdf,0,2021-03-17 17:55:40,2021-03-17 17:55:40,cb56e28c80f494822c6b110d3319ae78-g.jpg,,0195015347
32754153,Growing Medicinal Mushrooms At Home The Easy Way: The Simplest & Cheapest Way To Grow Medicinal Mushrooms At Home Even If You Have Never Grown Anything Before Now.,,,,"Mushrooms, Curative",2021,,,,,0,English,,,,9798715834607,,,,,,,,,,,0,,,,,,,,11078610,epub,B3299DDB56EB5E9FAB3D2218B9A33250,,,Growing_Medicinal_Mushrooms_At_Home_The_Easy_Way.epub,0,2021-03-17 17:56:24,2021-03-18 01:54:18,b3299ddb56eb5e9fab3d2218b9a33250-g.jpg,,9798715834607
32754154,尼采（上下）,,,,[德国] 马丁·海德格尔,2002,,商务印书馆,,1162,1177,Chinese,195,,,9787100035231,,,,,,,,,,,0,0,0,,,1,1,0,47622086,pdf,F59C0FDDBD3E7B4879403A131F2FD03A,,,尼采.pdf,0,2021-03-17 17:56:36,2021-03-17 17:56:36,f59c0fddbd3e7b4879403a131f2fd03a-g.jpg,,9787100035231
32754155,Luxurious Loving: Tantric Inspirations for Passion and Pleasure,,,,Barbara Carrellas,2006,,Quiver Books,,,0,English,,,,"9781616735630,1592332374,9781592332274,1592332277,9781592332403,1592332404,9781592332380",,,,,,,,,,,0,,,,,,,,11285338,epub,466C4A54B855D6CB65E168B9107716CB,,,Luxurious.Loving.epub,0,2021-03-17 17:56:47,2021-03-18 01:53:50,466c4a54b855d6cb65e168b9107716cb-g.jpg,,"9781616735630,1592332374,9781592332274,1592332277,9781592332403,1592332404,9781592332380"
32754156,The Beginner's Guide to Chicken Breeds: An Introductory Guide to Choosing the Right Flock,,,,"Bradshaw, Amber",2021,,Rockridge Press,,,0,English,,,,"9781648766756,9781648761720",,,,,,,,,,,0,,,,,,,,11699459,epub,68D1DF1ADB3FE6FAD94EFA7F047C9844,,,The_Beginners_Guide_to_Chicken_Breeds.epub,0,2021-03-17 17:57:07,2021-03-17 17:57:07,68d1df1adb3fe6fad94efa7f047c9844-g.jpg,,"9781648766756,9781648761720"
32754157,Her Sweet Spot: 101 Sexy Ways to Find and Please It,,,,Jude Schell,2011,,Celestial Arts,,216,0,English,,,,"9781587613784,1587613786",,,,,,,,xm4TwyFErKEC,,,0,,,,,,,,21465271,epub,B1AB49A75AF0BBABED4B9F4DABAB31C0,,,Her.Sweet.Spot.epub,0,2021-03-17 17:58:01,2021-03-18 01:52:45,b1ab49a75af0bbabed4b9f4dabab31c0-d.jpg,,"9781587613784,1587613786"
32754158,"The British National Daily Press and Popular Music, c.1956-1975",,,,Gillian A.M. Mitchell,2019,,Anthem Press,,148,150,English,,,,"1783089105,9781783089109",,,,,,,,WMSHDwAAQBAJ,,,0,,,,,,1,1,7507508,pdf,F0881518CAA694ADDDF52990553A102A,,,The_British_National_Daily_Press.pdf,0,2021-03-17 18:00:04,2021-03-18 01:51:12,f0881518caa694adddf52990553a102a-d.jpg,,"1783089105,9781783089109"
32754159,Britain's 'brown Babies': The Stories of Children Born to Black GIs and White Women in the Second World War,,,,Lucy Bland,2019,,,,280,284,English,,,,"1526133261,9781526133267",,,,,,,,XR9AwAEACAAJ,,,0,,,,,,1,1,13344251,pdf,31897B560543C9F86C4D69F39836B3F4,,,Britains_brown_Babies.pdf,0,2021-03-17 18:01:55,2021-03-18 01:50:38,31897b560543c9f86c4d69f39836b3f4-d.jpg,,"1526133261,9781526133267"
32754160,La Batalla de Cartagena de Indias,,,,Francisco Javier Membrillo Becerra,2017,,Penguin Random House Grupo Editorial España,,384,0,English,,,,"8417164138,9788417164133",,,,,,,,pHFNDwAAQBAJ,,,0,1,1,0,0,0,0,1,1833310,epub,C8AE17458E575E5ACB978D7192BA8319,,,Membrillo Becerra Francisco Javier - La Batalla De Cartagena De Indias.epub,0,2021-03-17 18:03:15,2021-03-18 01:49:54,c8ae17458e575e5acb978d7192ba8319-d.jpg,,"8417164138,9788417164133"
32754161,Navegar é preciso: grandes descobrimentos marítimos europeus,,História em Documentos,,Janaína Amado; Ledonias Franco Garcia,1989,,Atual Editora,São Paulo,71,77,Portuguese,,,,"857056273X,9788570562739",,,,,,,,pcR_AAAACAAJ,,,0,,,0,,,,0,13438693,pdf,8CAC309E1CB74C74BA679CED556039DC,,,Navegar.pdf,0,2021-03-17 18:03:54,2021-03-18 01:49:23,8cac309e1cb74c74ba679ced556039dc-g.jpg,,"857056273X,9788570562739"
32754162,Recent American Socialism,,"Johns Hopkins University Studies in Historical and Political Science; III, 4",,Richard T. Ely,1885,,Johns Hopkins University,"Baltimore, MD",74,74,English,192,,,,,,,,,,,,,,0,,,0,1,1,,1,3635036,pdf,D696FB62596B436BF2AA74511BEF6AFA,,,Ely Recent American socialism (1885).pdf,0,2021-03-17 18:03:58,2021-03-17 18:03:58,d696fb62596b436bf2aa74511bef6afa-g.jpg,,
32754163,"Bienes de los hijos menores : administración, disposicion, usufructo",,,,Maria Josefa Mendez Costa,1987,,Rubinzal-Culzoni,,,308,Spanish; Castilian,,,,"9789509163775,9509163775",,,,,,,,,,,0,1,1,0,0,0,0,1,10119303,pdf,1B18569A6B3638EB2224B17574FBA421,,,Mendez Costa Maria Josefa - Bienes De Los Hijos Menores.PDF,0,2021-03-17 18:10:49,2021-03-17 20:46:46,1b18569a6b3638eb2224b17574fba421-g.jpg,,"9789509163775,9509163775"
32754164,"Régimen legal del matrimonio civil, Ley 23,515. Matrimonio, cuestiones conexas, nombre, domicilio, adopción, sociedad conyugal, sucesión de los conyuges",,,,María Josefa Méndez Costa,1987,,Rubinzal y Culzoni,,,303,Spanish; Castilian,,,,9509163783,,,,,,,,,,,0,1,1,0,0,0,0,1,7122263,pdf,967D0BA2690DC1E34004DD185B2A12C4,,,Mendez Costa Maria Josefa - Regimen Legal Del Matrimonio Civil (argentina).PDF,0,2021-03-17 18:14:39,2021-03-17 20:46:22,967d0ba2690dc1e34004dd185b2a12c4-g.jpg,,9509163783
32754165,Tratados sobre Néstor Perlongher,,,,Nicolás Rosa,1997,1a ed.,Editorial Ars,Buenos Aires,,125,Spanish,,,,"9789879928028,9879928024",,,,,,,,,,,0,,,,,,,0,4886158,pdf,0D316831A551D4A1307EC235DF82A4FE,,,mdp.39015040069158.pdf,0,2021-03-17 18:15:31,2021-03-17 18:15:31,0d316831a551d4a1307ec235df82a4fe-g.jpg,,"9789879928028,9879928024"
32754166,Humanístas del siglo XVIII,,,,Gabriel Méndez Plancarte,1941,,,,,236,Spanish,,,,,,,,,,,,,,,0,1,1,0,0,0,0,1,20371765,pdf,ACA27296EFB6D351E9259F62426F3C84,,,Mendez Plancarte Gabriel - Humanistas Del Siglo XVIII.pdf,0,2021-03-17 18:19:16,2021-03-18 01:48:34,aca27296efb6d351e9259f62426f3c84-g.jpg,,
32754167,Agriculture and EU environmental law,,,,Brian Jack,2009,,Ashgate,,,289,English,,,,"9780754645405,0754645401,9780754692416,0754692418",,,,,,,,,,,0,1,1,0,0,0,0,1,2202335,pdf,A267D0523481706BE4BCFD23BE717539,,,Mendez Tapia Jose Manuel - Cuerpos Trazando Caminos De Resistencia.pdf,0,2021-03-17 18:20:10,2021-03-17 18:20:10,a267d0523481706be4bcfd23be717539-g.jpg,,"9780754645405,0754645401,9780754692416,0754692418"
32754168,Medical law : cases and commentaries,,Biblioteka Sądowa,,Zbigniew Banaszczyk; Marek Safjan,2012,,Wolters Kluwer,,,38,Polish,,,,"9788326411205,8326411205",,,,,,,,,,,0,1,1,0,0,0,0,1,705737,pdf,D77CE9DE777A952762BE98ABC3CED42B,,,Mendia Azkue Irantzu - Justicia Transicional - Dilemas Y Critica Feminista.pdf,0,2021-03-17 18:20:40,2021-03-17 18:20:40,d77ce9de777a952762be98abc3ced42b-g.jpg,,"9788326411205,8326411205"
32754169,美国史(1492-1997)(第10版)(彩色插图版): 美国最受欢迎的历史教科书 上册,,历史书系,,艾伦·布林克利,2014,,海南出版社,,1011,511,Chinese,,,,9787544348904,,,,,,,,,,,0,1,0,,,1,1,0,259047003,pdf,3E0981483A01278A52A21E0199419B08,,,[美]艾伦·布林克利 - 美国史1492-1997：美国最受欢迎的历史教科书 上（第10版彩色插图版）.pdf,0,2021-03-17 18:25:39,2021-03-17 18:25:54,3e0981483a01278a52a21e0199419b08-g.jpg,,9787544348904
32754170,"Warriors, Weapons, and Harness from the 5th-10th Centuries in the Carpathian Basin",,"Ethnic and Cultural Interferences in the 1st Millennium B.C. to the 1st Millennium A.D., 22",,Călin Cosma (ed.),2015,,Mega Publishing House,Cluj‑Napoca,408,410,"English, German, French",66,,,"6065435511,9786065435513",,,,,,,,,,,0,,,,1,0,0,1,22002263,pdf,A1AE46BA99B6F33B9B8CBE8B2C3662EB,,,Cosma2.pdf,0,2021-03-17 18:33:06,2021-03-17 18:33:06,a1ae46ba99b6f33b9b8cbe8b2c3662eb-g.jpg,,"6065435511,9786065435513"
32754171,Lenguaje y comunicación : segundo año básico,,,,Edda Leonor Mendoza Muñoz; Ana Fernández,2011,,Norma,,,260,Spanish; Castilian,,,,"9789563002140,9563002148",,,,,,,,,,,0,1,1,0,0,0,0,1,66048931,pdf,C883669B05ED9BB69220120E7AA12BE3,,,Mendoza Mu�oz Leonor - Texto Para El Estudiante - Lenguaje Y Comunicacion - 2do Basico.PDF,0,2021-03-17 18:38:03,2021-03-17 20:44:30,c883669b05ed9bb69220120e7aa12be3-g.jpg,,"9789563002140,9563002148"
32754172,New Perspectives in Theology of Judaism,,,,Shubert Spero,2013,,Academic Studies Press,,,397,English,,EBSCOhost,,"9781618112675,9781618112682",,,,,,,,,,,0,,,,,,1,1,2638165,pdf,5E2E1DA0F70E31FA6573BD75CF01CB20,,,"Spero-gotovo.indd - Spero, Shubert.pdf",0,2021-03-17 18:41:56,2021-03-17 18:41:56,5e2e1da0f70e31fa6573bd75cf01cb20-g.jpg,,"9781618112675,9781618112682"
32754173,Constitutional safeguards for scheduled castes and scheduled tribes,,,,Bhālacandra Gosvāmī; B. Goswami,2003,,Rawat Publications,Jaipur,,294,English,,,,"9788170337638,8170337631",,,,,,,,,,,0,,,,,,,0,15588030,pdf,37372F2ED96507DC5719AD1D0D4968CD,,,mdp.39015052979658.pdf,0,2021-03-17 18:47:41,2021-03-17 18:47:41,37372f2ed96507dc5719ad1d0d4968cd-g.jpg,,"9788170337638,8170337631"
32754174,"El camino de las fieras : violencia, muerte y política en el Sur global",,,,Luis Martínez Andrade (editor); José Manuel Meneses Canalejo (editor),2016,,,,,341,Spanish; Castilian,,,,"9786078399291,6078399292",,,,,,,,,,,0,1,1,0,0,0,0,1,4491972,pdf,A171A8500EB6ABB185444B07CB4E93D8,,,Meneses Manuel Y Martinez Andrade Luis - El Camino De Las Fieras.pdf,0,2021-03-17 18:48:09,2021-03-17 20:44:13,a171a8500eb6abb185444b07cb4e93d8-g.jpg,,"9786078399291,6078399292"
32754175,Wall patterns in Hima huts,,"Uganda Museum occasional paper, 1",,C. M. Sekintu; Klaus Wachsmann,1956,,Uganda Museum,Kampala,,14,English,,,,,,,,,967.61,,,,,,0,,,,,,,0,735389,pdf,9914524100D2FFC17E41A5121F53268D,,,mdp.39015041816631.pdf,0,2021-03-17 19:00:16,2021-03-17 19:00:16,9914524100d2ffc17e41a5121f53268d-g.jpg,,
32754176,Adventures on the freedom road : the French intellectuals in the 20th Century,,,,Bernard Henri Lévy; Richard Veasey,1995,,Harvill Press,London,,445,English,,,,"9781860460357,1860460356",,,,,,,,,,,0,,,,,,,0,25140099,pdf,86A8B80B48FAE1673C6356D0C9FD5C9C,,,uc1.32106012097637.pdf,0,2021-03-17 19:06:33,2021-03-17 19:06:33,86a8b80b48fae1673c6356d0c9fd5c9c-g.jpg,,"9781860460357,1860460356"
32754177,"Art and Symbolism in Medieval Europe. Papers of the \Medieval Europe Brugge 1997\"" Conference. Volume 5""",,"I.A.P. Rapporten, 5",,"Guy De Boe, Frans Verhaeghe (eds.)",1997,,Institute for the Archaeological Heritage,Zellik,156,158,"English, French, German",57,,,"9075230060,9789075230062",,,,,,,,,,,0,,,,1,1,0,1,12735091,pdf,BF470BB673C880F43A2466B214B2B90F,,,Art.pdf,0,2021-03-17 19:08:03,2021-03-17 19:08:03,bf470bb673c880f43a2466b214b2b90f-g.jpg,,"9075230060,9789075230062"
32754178,On pleasure = De Voluptate,,"Janus series, 1",,Lorenzo Valla; Maristella De Panizza Lorch; A. Kent Hieatt,1977,,Abaris Books,"New York, N.Y.",,417,English,,,,"9780913870334,0913870331",,,,,,,,,,,0,,,,,,,0,28212980,pdf,889EF057D0C54A20E964B4A7E736552E,,,uc1.32106008521582.pdf,0,2021-03-17 19:10:47,2021-03-17 19:10:47,889ef057d0c54a20e964b4a7e736552e-g.jpg,,"9780913870334,0913870331"
32754179,Crisis del signo : política del ritmo y teoría del languaje : edicíon bilingüe = Crise du signe : politique du rythme et théorie du langage,,,,Henri Meschonnic,2000,,Comisión Permanente de la Feria del Libro,,,90,Spanish; Castilian,,,,"9789993480297,9993480290",,,,,,,,,,,0,1,1,0,0,0,0,1,2673066,pdf,825DA63BD2D8BB8A337880A3C880F02A,,,Meschonnic Henri - Crisis Del Signo.pdf,0,2021-03-17 19:26:23,2021-03-17 20:43:13,825da63bd2d8bb8a337880a3c880f02a-g.jpg,,"9789993480297,9993480290"
32754180,Lenguas indígenas y lenguas minorizadas : estudios sobre la diversidad (socio)linguística de la Argentina y países limítrofes,,Lectores,,Ana Carolina Hecht (editor); Cristina Messineo (editor); Cristina Messineo,2000,,,,,344,Spanish; Castilian,,,,"9789502324180,9502324188",,,,,,,,,,,0,1,1,0,0,0,0,1,2297153,pdf,823366724CCAEBF0FAEF5AC00B5E4F1A,,,Messineo Cristina Y Hecht Ana Carolina - Lenguas Indigenas Y Lenguas Minorizadas.pdf,0,2021-03-17 19:32:59,2021-03-18 01:46:47,823366724ccaebf0faef5ac00b5e4f1a-g.jpg,,"9789502324180,9502324188"
32754181,"Dios, dónde estás? : Una introducción práctica a la Bilbia",,Colección Estudios Biblicos,,Carlos Mesters,1996,,Editorial Verbo Divino,,,130,Spanish; Castilian,,,,"9788471518286,8471518287",,,,,,,,,,,0,1,1,0,0,0,0,1,11919749,pdf,D381CD5B2F8CF0303A0C237C22E706CD,,,Mesters Carlos - Dios Donde Estas.PDF,0,2021-03-17 19:35:47,2021-03-17 20:42:42,d381cd5b2f8cf0303a0c237c22e706cd-g.jpg,,"9788471518286,8471518287"
32754182,The Illusion of Statehood: Perceptions of Catalan Independence Up to the End of the Spanish Civil War,,,,Arnau Gonzàlez i Vilalta,2019,,Sussex Academic Press,,320,0,English,,,,"1789760348,9781789760347",,,,,,,,160DywEACAAJ,,,0,,,,,,,,1901091,epub,E26D9034FE1E4155E5324AE34C2B0C42,,,The_Illusion_of_Statehood.epub,0,2021-03-17 19:38:55,2021-03-18 01:46:07,e26d9034fe1e4155e5324ae34c2b0c42-d.jpg,,"1789760348,9781789760347"
32754183,The Earliest English Kings,,,,D. P. Kirby,2000,2,Routledge,,,0,English,,,,9781315011608,,,,,,,,,,,0,,,,,,,,3727893,epub,FEA5D8D410C0ACCD46562644A85C5C67,,,The_Earliest_English_Kings__2nd_Edition_by_D._P._Kirby_UserUpload.Net.epub,0,2021-03-17 19:39:26,2021-03-17 19:39:26,fea5d8d410c0accd46562644a85c5c67-g.jpg,,9781315011608
32754184,El Desafio Y La Carga Del Tiempo Historico,,Cuadernos de la CEPAL,,Meszaros Istvan,1991,,Naciones Unidas. Comisión Económica para América Latina y el Caribe,,,430,Spanish; Castilian,,,,"9789213213490,9213213492",,,,,,,,,,,0,1,1,0,0,0,0,1,26911371,pdf,9D74371A149531E25B02D2C8E3C01D88,,,Meszaros Istvan - El Desafio Y La Carga Del Tiempo Historico.PDF,0,2021-03-17 19:40:51,2021-03-17 19:40:51,9d74371a149531e25b02d2c8e3c01d88-g.jpg,,"9789213213490,9213213492"
32754185,Poesie latine,,Classici contemporanei italiani,,Giovanni Pascoli; Manara Valgimigli,1966,4. ed.,A. Mondadori,,,790,Latin,,,,,,,,,851.8,,,,,,0,,,,,,,0,35744127,pdf,F4D39CFFB1859E50AB56E91949767450,,,uc1.b3308743.pdf,0,2021-03-17 19:41:52,2021-03-17 19:41:52,f4d39cffb1859e50ab56e91949767450-g.jpg,"Carmina, Ioannis Pascoli",
32754186,"Captives, Colonists and Craftspeople: Material Culture and Institutional Power in Malta, 1600–1900",,,,Russell Palmer,2020,,,,,286,English,,,,"2020016098,2020016099,9781789207781,9781789207798",,,,,,,,,,,0,,,,,,1,1,3198490,pdf,90CE24EDD4F876AE11F3130E6E424AED,,,Captives_Colonists_and_Craftspeople.pdf,0,2021-03-17 19:44:58,2021-03-17 19:44:58,90ce24edd4f876ae11f3130e6e424aed-g.jpg,,"2020016098,2020016099,9781789207781,9781789207798"
32754187,The Beatles Trivia and Facts: All You Need to Know about The Legend Boy Band,,,,Roy Stephens,2021,,,,,0,English,,,,1910235212,,,,,,,,,,,0,,,,,,,,5665236,epub,789E48AF5BA7D80810FD438E1E7BE433,,,The_Beatles_Trivia_and_Facts_by_Roy_Stephens_UserUpload.Net.epub,0,2021-03-17 19:45:25,2021-03-18 01:45:14,789e48af5ba7d80810fd438e1e7be433-g.jpg,,1910235212
32754188,Anal Sex Basics,,,,Carlyle Jansen,2016,,Quiver Books,,,0,English,,,,"9781627888288,9781592337033",,,,,,,,,,,0,,,,,,,,27869467,epub,B04D9E6C32E6BD845A43003DB4C5D5C0,,,_._.Basics.epub,0,2021-03-17 19:47:12,2021-03-17 19:47:12,b04d9e6c32e6bd845a43003db4c5d5c0-g.jpg,,"9781627888288,9781592337033"
32754189,The Oxford History of the Ancient Near East: Volume I: from the Beginnings to Old Kingdom Egypt and the Dynasty of Akkad,,,,"Karen Radner, Nadine Moeller, D. T. Potts",2020,,Oxford University Press,,804,0,English,,,,"0190687851,9780190687854",,,,,,,,GSrtDwAAQBAJ,,,0,,,,,,,,35142324,epub,3E5E16AE477EB5DC7B1C9D49D0B41CFD,,,History_of_the_Ancient_Near_East_Volume_I_by_Karen_Radner_.epub,0,2021-03-17 19:48:33,2021-03-18 01:42:53,3e5e16ae477eb5dc7b1c9d49d0b41cfd-d.jpg,,"0190687851,9780190687854"
32754190,The Little Book of Kink,,,,Jessica O'Reilly,2013,,Quiver Books,,,0,English,,,,9781610589017,,,,,,,,,,,0,,,,,,,,41637032,epub,44425931B7757077A1C47FA8E160B13C,,,The.Little.Book.of.Kink.epub,0,2021-03-17 19:49:21,2021-03-17 19:49:21,44425931b7757077a1c47fa8e160b13c-g.jpg,,9781610589017
32754191,The Better Sex Guide to Extraordinary Lovemaking,,,,The Sinclair Institute,2011,,Quiver Books,,,0,English,,,,"9781610602242,159233475x,9781592333523,1592333524,2009021134",,,,,,,,,,,0,,,,,,,,75956734,epub,EC293BF9864C44EAD4711EE4A1259E6A,,,The.Better._.Guide.to.Extraordinary.Lovemaking.epub,0,2021-03-17 19:50:23,2021-03-17 19:50:23,ec293bf9864c44ead4711ee4a1259e6a-g.jpg,,"9781610602242,159233475x,9781592333523,1592333524,2009021134"
32754192,Monster Anthropology: Ethnographic Explorations of Transforming Social Worlds Through Monsters,,,,"Geir H. Presterudstuen, Yasmine Musharbash",2019,,,,,249,English,,,,"2019949541,9781350096257,9781350096264,9781350096271",,,,,,,,,,,0,,,,,,1,1,6791710,pdf,FA5B87A90BADA8D456A8B0C3A7AADBDA,,,Monster_Anthropology_UserUpload.Net.pdf,0,2021-03-17 19:51:23,2021-03-17 19:51:23,fa5b87a90bada8d456a8b0c3a7aadbda-g.jpg,,"2019949541,9781350096257,9781350096264,9781350096271"
32754193,El saqueo del pasado : historia del tráfico internacional ilegal de obras de arte,,Sección de obras de antropología,,Karl E. Meyer,1990,,Fondo de Cultura Economica,,,369,Spanish; Castilian,,,,"9789681635497,9681635493",,,,,,,,,,,0,1,1,0,0,0,0,1,11437909,pdf,8822D340AE6FE291BE33971A6BAC4D44,,,Meyer Karl E - El Saqueo Del Pasado.pdf,0,2021-03-17 19:53:12,2021-03-17 20:40:48,8822d340ae6fe291be33971a6bac4d44-g.jpg,,"9789681635497,9681635493"
32754194,美国史(1492-1997)(第10版)(彩色插图版): 美国最受欢迎的历史教科书 下册,,历史书系,,艾伦·布林克利,2014,,海南出版社,,1011,519,Chinese,,,,9787544348904,,,,,,,,,,,0,1,0,,,1,1,1,194823698,pdf,F910C477DC6CD0C2088EAEE70B9684E8,,,[美]艾伦·布林克利 - 美国史1492-1997：美国最受欢迎的历史教科书 下（第10版彩色插图版）OCR.pdf,0,2021-03-17 19:53:35,2021-03-17 19:53:35,f910c477dc6cd0c2088eaee70b9684e8-g.jpg,,9787544348904
32754195,罗马盛衰原因论: 附：论趣味,,汉译世界学术名著丛书·政治法律社会,,[法国] 孟德斯鸠,1962,,商务印书馆,,217,225,Chinese,,,,9787100018708,,,,,,,,,,,0,0,0,,,1,0,0,10025731,pdf,AD4720A2502E7F97AB5B6576F7FD938F,,,C0311罗马盛衰原因论.pdf,0,2021-03-17 19:56:13,2021-03-17 19:56:13,ad4720a2502e7f97ab5b6576f7fd938f-g.jpg,,9787100018708
32754196,Founding God's Nation: Reading Exodus,,,,Leon Kass,2021,,,,,749,English,,,,"2020937463,9780300253030",,,,,,,,,,,0,,,,,,1,1,9514106,pdf,48D6E6A9A280B793DF55C1D5BE1F7B8C,,,Founding_Gods_Nation.pdf,0,2021-03-17 19:56:33,2021-03-17 19:56:33,48d6e6a9a280b793df55c1d5be1f7b8c-g.jpg,,"2020937463,9780300253030"
32754197,Real diccionario de la vulgar lengua guanaca. Tomo 2 ...,,Colección Tamachtiani,,Joaquín Meza,2015,,,,,587,Spanish; Castilian,,,,"9789992370605,9992370602",,,,,,,,,,,0,1,1,0,0,0,0,1,6093332,pdf,9C2809609D82B7E134E0B9A95141D1DA,,,Meza Joaquin - Real Diccionario De La Vulgar Lengua Guanaca.pdf,0,2021-03-17 19:58:18,2021-03-17 20:40:32,9c2809609d82b7e134e0b9a95141d1da-g.jpg,,"9789992370605,9992370602"
32754198,Fire and Fauna: Tales of a Life Untamed,,,,Joan E. Berish,2019,,,,,275,English,,,,"2019021682,9781623498313,9781623498320",,,,,,,,,,,0,,,,,,1,1,14506167,pdf,86759932FEE4DFCBD443CB6F15658C06,,,Fire_and_Fauna_UserUpload.Net.pdf,0,2021-03-17 19:59:27,2021-03-17 19:59:27,86759932fee4dfcbd443cb6f15658c06-g.jpg,,"2019021682,9781623498313,9781623498320"
32754199,The Court of Richard II and Bohemian Culture,,,,Alfred Thomas,2020,,,,,238,English,,,,9781843845669,,,,,,,,,,,0,,,,,,1,1,132572648,pdf,E58D02DC9FBBD54A923B790988920CB8,,,The_Court_of_Richard_II_and_Bohemian.pdf,0,2021-03-17 20:02:33,2021-03-17 20:02:33,e58d02dc9fbbd54a923b790988920cb8-g.jpg,,9781843845669
32754200,"Riddles: Perspectives on the Use, Function and Change in a Folklore Genre",,"Studia Fennica Folkloristica, 10",,Annikki Kaivola-Bregenhøj,2001,,Finnish Literature Society,Helsinki,186,188,English,111,,,"9517460198,9789517460194,9789517465762",,,,,,,,,,,0,,,,1,0,1,1,1239259,pdf,7B18242FD23E8B0A74920FFE6088C5CA,,,Kaivola.pdf,0,2021-03-17 20:03:40,2021-03-17 20:03:40,7b18242fd23e8b0a74920ffe6088c5ca-g.jpg,,"9517460198,9789517460194,9789517465762"
32754201,"Translation research and interpreting research traditions, gaps and synergies",,,,Christina Schäffner,2004,,Multilingual Matters,,,387,English,,,,"9781853597343,1853597341,9781853597350,185359735X",,,,,,,,,,,0,1,1,0,0,0,0,1,16671770,pdf,0E7C907C8862B27273595233189358CC,,,Michaud Eric - La Estetica Nazi - Un Arte De La Eternidad.pdf,0,2021-03-17 20:06:41,2021-03-17 20:06:41,0e7c907c8862b27273595233189358cc-g.jpg,,"9781853597343,1853597341,9781853597350,185359735X"
32754202,"Me cuesta tanto olvidarte: mujeres abatidas por una ruptura amorosa, dispuestas a superar el dolor y reconstruir su identidad",,,,Mariela Michelena,2012,,La Esfera de los Libros,,359,0,Spanish; Castilian,,,,"8499707319,9788499707310",,,,,,,,aib6ugAACAAJ,,,0,1,1,0,0,0,0,1,313479,epub,827149C7215C085BCA882D5B8C7BC03D,,,Michelena Mariela - Me Cuesta Tanto Olvidarte.epub,0,2021-03-17 20:11:12,2021-03-18 01:41:27,827149c7215c085bca882d5b8c7bc03d-g.jpg,,"8499707319,9788499707310"
32754203,Relocating World Christianity: Interdisciplinary Studies in Universal and Local Expressions of the Christian Faith,,"Theology and Mission in World Christianity, v. 7",,"Joel Cabrita, David Maxwell, Emma Wild-Wood",2017,,Brill,,,361,English,,,,"2017033076,2017037109,9789004355026,9789004342620",,,,,,,,,,,0,,,,,,1,1,1780977,pdf,ABFF73245B19E4E97D78ACB7B11B27FF,,,Relocating World Christianity.pdf,0,2021-03-17 20:23:18,2021-03-17 20:23:18,abff73245b19e4e97d78acb7b11b27ff-g.jpg,,"2017033076,2017037109,9789004355026,9789004342620"
32754204,Ganar perdiendo: Los procesos de duelo y las experiencias de pérdida: muerte - divorcio - migración,,,,Migdyrai Martín Reyes,2011,,Desclée De Brouwer,,160,162,Spanish; Castilian,,,,"843302518X,9788433025180",,,,,,,,ULS7pwAACAAJ,,,0,1,1,0,0,0,0,1,978742,pdf,DBF1B4146CC22294F8798E785C65ECB3,,,Migdyrai Martin - Ganar Perdiendo.pdf,0,2021-03-17 20:25:32,2021-03-18 01:39:39,dbf1b4146cc22294f8798e785c65ecb3-g.jpg,,"843302518X,9788433025180"
32754205,Roman Imperial Grand Strategy,,"Publications of the Association of Ancient Historians, 3",,Arther Ferrill,1991,,University Press of America,Lanham,X+74,86,English,64,,,"0819184454,9780819184450,0819184462,9780819184467",,,,,,,,,,,0,,,,1,0,1,1,30418354,pdf,7ACD9AE1BFFE53B3A1159F04CEC5F801,,,Ferrill.pdf,0,2021-03-17 20:27:23,2021-03-17 20:27:39,7acd9ae1bffe53b3a1159f04cec5f801-g.jpg,,"0819184454,9780819184450,0819184462,9780819184467"
32754206,Género y descolonialidad,,Pensamiento crítico y opción descolonial,,Madina Vladimirovna Tlostanova; Walter Mignolo; Isabel Jiménez Lucena; Maria Lugones,2008,,Ediciones del Signo,,,121,Spanish; Castilian,,,,9789871074587,,,,,,,,,,,0,1,1,0,0,0,0,1,3209395,pdf,3A40059957DC42996DCFA91278B1FBF7,,,Mignolo Walter - Genero Y Descolonialidad.pdf,0,2021-03-17 20:27:31,2021-03-17 20:37:27,3a40059957dc42996dcfa91278b1fbf7-g.jpg,,9789871074587
32754207,Biophysics of Computation - Information Processing in Single Neurons,,,,Christof Koch,2004,,Oxford University Press,,,583,English,,,,"9780195104912,9780195181999",,,,,,,,,,,0,,,,,,1,1,13712868,pdf,F29B6C2FD3C325C0584F8E3485AA85AE,,,Biophysics of Computation - Information Processing in Single Neurons.pdf,0,2021-03-17 20:36:55,2021-03-17 20:36:55,f29b6c2fd3c325c0584f8e3485aa85ae-g.jpg,,"9780195104912,9780195181999"
32754208,The Global Indies,,,,Ashley L. Cohen,2021,,,,,320,English,,,,"2020936896,9780300239973",,,,,,,,,,,0,,,,,,1,1,23679938,pdf,3D02811D988015AD49BCD6FA78ABC6CE,,,The_Global_Indies_UserUpload.Net.pdf,0,2021-03-17 20:38:55,2021-03-17 20:38:55,3d02811d988015ad49bcd6fa78abc6ce-g.jpg,,"2020936896,9780300239973"
32754209,Fashion and Materiality: Cultural Practices in Global Contexts,,,,"Heike Jenss, Viola Hofmann",2019,,,,,313,English,,,,"9781350057814,9781350057821,9781350057838",,,,,,,,,,,0,,,,,,1,1,31861472,pdf,6768983DCE611286F32E2C2D094238B1,,,Fashion_and_Materiality.pdf,0,2021-03-17 20:40:08,2021-03-17 20:40:08,6768983dce611286f32e2c2d094238b1-g.jpg,,"9781350057814,9781350057821,9781350057838"
32754210,Transportation Engineering and Planning,,,,C. S. Papacostas; Panos D. Prevedouros; Othman Che Puan,2009,3,Pearson/Prentice Hall,,685,704,English,,,,"0131973096,9780131973091",,,,,,,,2pQsAAAACAAJ,,,0,,,,,,,1,30969414,pdf,9C4358B2FA33CEC88B3E190364E464EB,,,Transportation Engineering and Planning by Papacostas.pdf,0,2021-03-17 20:49:46,2021-03-18 01:38:45,9c4358b2fa33cec88b3e190364e464eb-d.jpg,,"0131973096,9780131973091"
32754211,世界通史: 公元前10000年至公元2009年（第四版）,,,,霍华德·斯波德,2013,,山东画报出版社,,887,927,Chinese,,,,9787547406274,,,,,,,,,,,0,1,0,,,1,1,0,398051251,pdf,A1FF15E1261A49F1EC7269D0310D2DE5,,,[美]霍华德·斯波德 - 世界通史：公元前10000年至公元2009年（第4版）9.pdf,0,2021-03-17 20:49:54,2021-03-17 20:49:54,a1ff15e1261a49f1ec7269d0310d2de5-g.jpg,,9787547406274
32754212,男向导的奇遇,,,,R.K.纳拉扬; R. K. Narayan,1993,,上海译文出版社,,274,280,Chinese,,,,9787532707157,,,,,,,,,,,0,0,0,,,1,0,1,11396323,pdf,756A9648829A60CFFF19F7B7854E55E0,,,男向导的奇遇[印度]纳拉扬.李南译.上海译文出版社(1993).pdf,0,2021-03-17 21:04:17,2021-03-17 21:04:17,756a9648829a60cfff19f7b7854e55e0-g.jpg,,9787532707157
32754213,Dos dimensiones clínicas : sintoma y fantasma ; La teoría del yo en la obra de Jacques Lacan,,,,Jacques-Alain Miller; Diana S. Rabinovich,1989,,Ediciones Manantial,,,82,Spanish; Castilian,,,,"9789509515000,9509515000",,,,,,,,,,,0,1,1,0,0,0,0,1,2149257,pdf,6D49F372C2CE8AE0B8686B28C69F2488,,,Miller Jacques Alain - Dos Dimensiones Clinicas - Sintoma Y Fantasma.pdf,0,2021-03-17 21:07:51,2021-03-17 21:16:53,6d49f372c2ce8ae0b8686b28c69f2488-g.jpg,,"9789509515000,9509515000"
32754214,皇帝新脑: 有关电脑、人脑及物理定律,,第一推动丛书,,罗杰・彭罗斯; Roger Penrose,1995,,湖南科学技术出版社,,604,551,Chinese,,,,9787535715814,,,,,,,,,,,0,0,0,,,1,0,0,12679304,pdf,DA45713CF35AEABB5B8DB81AFCF29A12,,,1 [第一推动丛书] 皇帝新脑-有关电脑、人脑及物理定律.pdf,0,2021-03-17 21:08:18,2021-03-17 21:08:18,da45713cf35aeabb5b8db81afcf29a12-g.jpg,,9787535715814
32754215,Alergias alimentarias. Reacciones adversas a alimentos y aditivos alimentarios,,,,Dean D Metcalfe; Hugh A. Sampson; Ronald A. Simon; Gideon Lack,2015,5,Elsevier España,,624,0,Spanish; Castilian,,,,"8490229392,9788490229392",,,,,,,,12lrCgAAQBAJ,,,0,,,,,,,,20235946,pdf,6965B1EDB4CE6B4D92A172F18F9C1842,,,Metcalfe Dean D - Alergias Alimentarias.pdf,0,2021-03-17 19:43:08,2021-03-18 01:34:49,6965b1edb4ce6b4d92a172f18f9c1842-d.png,,"8490229392,9788490229392"
32754216,The Quest for Consciousness: A Neurobiological Approach,,,,Christof Koch,2004,,Roberts and Company,,429,442,English,,,,"0974707708,9780974707709",,,,,,,,7L9qAAAAMAAJ,,,0,,,,,,,1,9066305,pdf,0EB11FE78EFECF7ACCDB6CBC29419EF4,,,Quest for Consciousness - Neurobiological Approach.pdf,0,2021-03-17 21:13:47,2021-03-18 01:34:03,0eb11fe78efecf7accdb6cbc29419ef4-d.png,,"0974707708,9780974707709"
32754217,El otro que no existe y sus comités de ética,,,,Jacques-Alain Miller; Éric Laurent,2006,,Paidós,,,451,Spanish; Castilian,,,,"9789501288568,9501288560",,,,,,,,,,,0,1,1,0,0,0,0,1,13928145,pdf,C37B5B09995CCBCB21760EAA2264A0B0,,,Miller Jacques Alain - El Otro Que No Existe Y Sus Comites De Etica.pdf,0,2021-03-17 21:14:06,2021-03-17 21:16:01,c37b5b09995ccbcb21760eaa2264a0b0-g.jpg,,"9789501288568,9501288560"
32754218,The Sovereign State and Its Competitors,,,,Hendrik Spruyt,2020,,Princeton University Press,,,0,English,,,,9780691213057,,,,,,,,,,,0,,,,,,,,2520908,epub,B1C06465C59ACE00C9BB8A056C8016ED,,,The.Sovereign.State.and.Its.Compe_ors.epub,0,2021-03-17 21:15:46,2021-03-17 21:15:46,b1c06465c59ace00c9bb8a056c8016ed-g.jpg,,9780691213057
32754219,El partenaire-Síntoma,,Cursos psicoanalíticos de Jacques-Alain Miller,,Jacques-Alain Miller; Dora Gladys ; Saroka,2008,,Paidós,,,482,Spanish; Castilian,,,,"9789501288575,9501288579",,,,,,,,,,,0,1,1,0,0,0,0,1,8023827,pdf,E266D76B430BDCFBDF2F877860819FCC,,,Miller Jacques Alain - El Partenaire - Sintoma.pdf,0,2021-03-17 21:15:54,2021-03-17 21:54:29,e266d76b430bdcfbdf2f877860819fcc-g.jpg,,"9789501288575,9501288579"
32754220,Christopher Nolan: A Critical Study of the Films,,,,Darren Mooney,2018,,McFarland,,218,0,English,,,,"9781476634616,1476634610",,,,,,,,hOxzDwAAQBAJ,,,0,,,,,,,,4044077,epub,AB48CAAAAE46548294B7945A9F6EF783,,,Christopher.Nolan.A.Critical.Study.of.the.Films.epub,0,2021-03-17 21:16:08,2021-03-18 01:33:27,ab48caaaae46548294b7945a9f6ef783-d.jpg,,"9781476634616,1476634610"
32754221,Fiancé and Marriage Visas: A Couple's Guide to U.S. Immigration,,,,Ilona Bray,2019,,Nolo,,432,0,English,,,,"9781413326741,1413326749",,,,,,,,t7qmDwAAQBAJ,,,0,,,,,,,,110807598,epub,71EDA4BE637897F06713602494922B85,,,Fiance.and.Marriage.Visas.10e.epub,0,2021-03-17 21:17:36,2021-03-18 01:33:10,71eda4be637897f06713602494922b85-d.jpg,,"9781413326741,1413326749"
32754222,Moral Uncertainty,,,,William MacAskill; Krister Bykvist; Toby Ord,2020,,Oxford University Press,,224,0,English,,,,"9780191033643,0191033642",,,,,,,,evH6DwAAQBAJ,,,0,,,,,,,,625408,epub,04AF0FF73CE3FC821A76FF808E06B024,,,0198722273.epub,0,2021-03-17 21:18:04,2021-03-18 01:32:38,04af0ff73ce3fc821a76ff808e06b024-d.jpg,,"9780191033643,0191033642"
32754223,力学（统一书号：13010-531）,,,,"Л.Д.朗道, E.A.栗弗席兹",1959,,高等教育出版社,,,230,Chinese,,,,,,,,,,,,,,,0,0,0,,,1,0,0,3713260,pdf,87985534C7FACA66421D8EB94964020F,,,(旧版)-卷一 力学.pdf,0,2021-03-17 21:18:52,2021-03-17 21:18:52,87985534c7faca66421d8eb94964020f-g.jpg,,
32754224,统计物理学（统一书号：13010-1126）,,,,"Л.Д.朗道, Е.М.栗弗席兹",1964,,人民教育出版社,,609,625,Chinese,,,,,,,,,,,,,,,0,0,0,,,1,1,1,10606757,pdf,62A7A64E409B6EC340DBF691EA941FE9,,,(旧版)-卷五 统计物理I.pdf,0,2021-03-17 21:24:17,2021-03-17 21:24:17,62a7a64e409b6ec340dbf691ea941fe9-g.jpg,,
32754225,可怕的对称: 现代物理学中美的探索,,第一推动丛书,,[美] 阿·热,1992,,湖南科学技术出版社,,324,334,Chinese,,,,9787535710635,,,,,,,,,,,0,0,0,,,1,0,0,8622505,pdf,5B64B52A6BCE6DF520CFA3598E4A543A,,,1 [第一推动丛书] 可怕的对称-现代物理学中美的探索.pdf,0,2021-03-17 21:25:59,2021-03-17 21:25:59,5b64b52a6bce6df520cfa3598e4a543a-g.jpg,,9787535710635
32754226,时间之箭: 揭开时间最大奥秘之科学旅程,,第一推动丛书,,彼得·柯文尼; 罗杰·海菲尔德,1995,,湖南科学技术出版社,,354,332,Chinese,,,,9787535715807,,,,,,,,,,,0,0,0,,,1,0,1,8414294,pdf,36F0D5EE1767F9F80DE26863C655021D,,,1 [第一推动丛书] 时间之箭(1).pdf,0,2021-03-17 21:28:05,2021-03-17 21:28:05,36f0d5ee1767f9f80de26863c655021d-g.jpg,,9787535715807
32754227,惊人的假说: 灵魂的科学探索,,第一推动丛书,,弗朗西斯·克里克,2001,,湖南科学技术出版社,,350,372,Chinese,,,,9787535722829,,,,,,,,,,,0,0,0,,,1,0,0,11538122,pdf,F57DFE3C9508C633DAB33243B45205C5,,,2 [第一推动丛书] 惊人的假说-灵魂的科学探索.pdf,0,2021-03-17 21:31:24,2021-03-17 21:31:24,f57dfe3c9508c633dab33243b45205c5-g.jpg,,9787535722829
32754228,莎士比亚、牛顿和贝多芬: 不同的创造模式,,第一推动丛书,,S.钱德拉塞卡,1996,,湖南科学技术出版社,,197,211,Chinese,,,,9787535718549,,,,,,,,,,,0,0,0,,,1,0,0,5479625,pdf,F873DB617C719D4FECB0F13DB5C10DD9,,,2 [第一推动丛书] 莎士比亚、牛顿和贝多芬-不同的创造模式.pdf,0,2021-03-17 21:33:26,2021-03-17 21:33:26,f873db617c719d4fecb0f13db5c10dd9-g.jpg,,9787535718549
32754229,从反粒子到最终定律,,第一推动丛书,,查里得·费曼; 史蒂文·温伯格,2003,,湖南科学技术出版社,,96,117,Chinese,,,,9787535736895,,,,,,,,,,,0,0,0,,,1,0,0,2701028,pdf,EEEAAB440A86C780202E5BAF7E21AF65,,,3 [第一推动丛书] 从反粒子到最终定律.pdf,0,2021-03-17 21:38:18,2021-03-17 21:38:18,eeeaab440a86c780202e5baf7e21af65-g.jpg,,9787535736895
32754230,"La obra clara : Lacan, la ciencia, la filosofía",,Bordes. Manantial,,Jean-Claude Milner,,,Manantial,,,176,Spanish; Castilian,,,,"9789509515987,9509515981",,,,,,,,,,,0,1,1,0,0,0,0,1,3077727,pdf,E4984BBF749D8980CBC1E0BCE2AF0DE7,,,Milner Jean Claude - La Obra Clara - Lacan La Ciencia La Filosofia.pdf,0,2021-03-17 21:40:33,2021-03-17 21:54:08,e4984bbf749d8980cbc1e0bce2af0de7-g.jpg,,"9789509515987,9509515981"
32754231,时间、空间和万物,,第一推动丛书,,B・K・里德雷,2002,,湖南科学技术出版社,,191,203,Chinese,,,,9787535732736,,,,,,,,,,,0,0,0,,,1,0,0,4028644,pdf,96850C7B4B37F8EEBA7ABD448E428E2B,,,3 [第一推动丛书] 时间、空间和万物.pdf,0,2021-03-17 21:40:34,2021-03-17 21:40:34,96850c7b4b37f8eeba7abd448e428e2b-g.jpg,,9787535732736
32754232,果壳里的60年,,第一推动丛书,,S. W. 霍金 等,2005,,湖南科学技术出版社,,235,245,Chinese,,,,9787535741554,,,,,,,,,,decrypted from 32058967256A3DFDC808B4B2C5BB8B67 source file,0,0,0,,,1,0,0,18094405,pdf,803AD7DCDB76CC16A10E5F4B4C78B877,,,4 [第一推动丛书] 果壳里的60年.pdf,0,2021-03-17 21:42:10,2021-03-17 21:42:10,803ad7dcdb76cc16a10e5f4b4c78b877-g.jpg,,9787535741554
32754233,Beyond Democracy in Cambodia: Political Reconstruction in a Post-Conflict Society,,"Democracy in Asia, No. 12",,Joakim Öjendal and Mona Lilja,2009,,Nordic Institute of Asian Studies,,,337,English,,,,9788776940430,,,,,,,,,,,0,,,,,,1,1,3967973,pdf,28D90849B4FE64DFFBA812BCBAD52DCA,,,"Beyond Democracy in Cambodia - Lilja, Mona.,Ojendal, Joakim_.pdf",0,2021-03-17 21:43:34,2021-03-17 21:43:34,28d90849b4fe64dffba812bcbad52dca-g.jpg,,9788776940430
32754234,时空的未来,,第一推动丛书,,史蒂芬·霍金等,2005,,湖南科学技术出版社,,212,225,Chinese,,,,9787535741561,,,,,,,,,,decrypted from 793898BAF02E70198EF081B3F40FC8ED source file,0,0,0,,,1,0,0,11572977,pdf,77C731F1380DC5650C3BDD67001CCBE7,,,4 [第一推动丛书] 时空的未来.pdf,0,2021-03-17 21:43:38,2021-03-17 21:43:38,77c731f1380dc5650c3bdd67001ccbe7-g.jpg,,9787535741561
32754235,四维旅行,,第一推动丛书,,R. L. 普瓦德万,2005,,湖南科学技术出版社,,306,326,Chinese,,,,9787535742698,,,,,,,,,,decrypted from 274F421F3B866FB32A5265FC4D02BABD source file,0,0,0,,,1,0,0,11131827,pdf,A1E911B16604C616096F2E430B0222EA,,,4 [第一推动丛书] 四维旅行.pdf,0,2021-03-17 21:47:21,2021-03-17 21:47:21,a1e911b16604c616096f2e430b0222ea-g.jpg,,9787535742698
32754236,物理天文学前沿,,第一推动丛书,,F·霍伊尔; J·纳里卡,2005,,湖南科学技术出版社,,551,572,Chinese,,,,9787535741547,,,,,,,,,,decrypted from BA0C20A5F6F0DC4D9847968B385DE041 source file,0,0,0,,,1,0,0,43919605,pdf,1AB495791644F472FCB9BC187C099AEF,,,4 [第一推动丛书] 物理天文学前沿.pdf,0,2021-03-17 21:48:39,2021-03-17 21:48:39,1ab495791644f472fcb9bc187c099aef-g.jpg,,9787535741547
32754237,新量子世界,,第一推动丛书,,安东尼·帕特里克·沃尔特斯,2005,,湖南科学技术出版社,,301,317,Chinese,,,,9787535742681,,,,,,,,,,decrypted from 908FF8BD6806B0DD26E40B44B9EC283F source file,0,1,0,,,1,0,0,55356069,pdf,6C23CCB323E64E068592209C507DF3BB,,,4 [第一推动丛书] 新量子世界.pdf,0,2021-03-17 21:50:05,2021-03-17 21:50:33,6c23ccb323e64e068592209c507df3bb-g.jpg,,9787535742681
32754238,伽利略的手指,,第一推动丛书,,彼得·阿特金斯,2007,,湖南科学技术出版社,,491,506,Chinese,,,,9787535751133,,,,,,,,,,,0,0,0,,,1,0,0,28489500,pdf,C459A7DC07702C8D66E74CB971A5CA56,,,7 [第一推动丛书] 伽利略的手指.pdf,0,2021-03-17 21:52:41,2021-03-17 21:52:41,c459a7dc07702c8d66e74cb971a5ca56-g.jpg,,9787535751133
32754239,"A Social History of England, 900-1200",,,,"Julia Crick, Elisabeth van Houts (eds.)",2011,,Cambridge University Press,,XVI+454,474,English,64,,,"0521713234,9780521713238,0521885612,9780521885614",,,,,,,,,,,0,,,,1,0,1,1,13420764,pdf,3696E191E4D57E38F8D38F648D4A2CC4,,,Social.pdf,0,2021-03-17 21:52:56,2021-03-17 21:52:56,3696e191e4d57e38f8d38f648d4a2cc4-g.jpg,,"0521713234,9780521713238,0521885612,9780521885614"
32754240,"Marta Minujín : happenings, performances",,,,Martín Lucas (editor); ; Marta Minujin,2015,,,,,286,Spanish; Castilian,,,,"9789871358380,9871358385",,,,,,,,,,,0,1,1,0,0,0,0,1,26361901,pdf,C86048002C8D853AEAAC32C99E59DC38,,,Minujin Marta - Marta Minujin - Happenings Y Performances.compressed.pdf,0,2021-03-17 21:56:02,2021-03-17 21:56:02,c86048002c8d853aeaac32c99e59dc38-g.jpg,,"9789871358380,9871358385"
32754241,Función de la pena y teoría del delito en el Estado social y democrático de Derecho,,,,Santiago Mir Puig,,,Bosch,,,108,Spanish; Castilian,,,,"9788471628817,8471628813",,,,,,,,,,,0,1,1,0,0,0,0,1,3932610,pdf,B6BD6535D363E64392A57693EF53A8CB,,,Mir Puig Santiago - Funcion De La Pena Y Teoria Del Delito.PDF,0,2021-03-17 22:00:26,2021-03-17 22:02:48,b6bd6535d363e64392a57693ef53a8cb-g.jpg,,"9788471628817,8471628813"
32754242,"¡Mamá, quiero ser político!: Cómo tener la vida solucionada durante cuatro años o más sin idiomas, ni estudios, ni experiencia profesional",,,,Sandra Mir; Gabriel Cruz,2013,,La Esfera de los Libros,,261,0,Spanish; Castilian,,,,"8499709206,9788499709208",,,,,,,,Oa0PAQAAQBAJ,,,0,1,1,0,0,0,0,1,385913,epub,1E6248923BF11FFFC64344A284031C13,,,Mir Sandra - Mama Quiero Ser Politico.epub,0,2021-03-17 22:00:37,2021-03-18 01:31:46,1e6248923bf11fffc64344a284031c13-d.jpg,,"8499709206,9788499709208"
32754243,El Helenismo: épocas helenística y romana de la cultura griega,,Biblioteca de divulgación temática,,Carles Miralles,1989,,Montesinos,,,152,Spanish; Castilian,,,,"9788485859252,8485859251",,,,,,,,,,,0,1,1,0,0,0,0,1,4057661,pdf,52D255009B6DA2100717E1A3C9353E51,,,Miralles Carles - El Helenismo.pdf,0,2021-03-17 22:05:04,2021-03-18 01:31:11,52d255009b6da2100717e1a3c9353e51-g.jpg,,"9788485859252,8485859251"
32754244,Il cerimoniale per i missionari del Giappone,,"Storia e letteratura, N. 13",,Alessandro Valignano; Josef Franz Schütte,1946,,Edizioni di Storia e letterature,Roma,,401,Italian,,,,,,,,,271.5,,,,,,0,,,,,,,0,21903986,pdf,F8A111378AF8414B5BBF3AA73338C5FA,,,mdp.39015049229548.pdf,0,2021-03-17 22:11:32,2021-03-17 22:45:55,f8a111378af8414b5bbf3aa73338c5fa-g.jpg,"Giuseppe Fr. Schütte, Jesuits, Missions, Japan, 16th Century,",
32754245,文明的进程: 文明的社会发生和心理发生的研究,,大学译丛,,[德国] 诺贝特·埃利亚斯,2009,,上海译文出版社,,645,707,Chinese,,,,9787532747214,,,,,,,,,,,0,0,0,,,1,1,0,34001959,pdf,F23F7A218CE2E3C89B0BCEEC4F705469,,,文明的进程 8.8 - [德] 诺贝特·埃利亚斯.pdf,0,2021-03-17 22:25:17,2021-03-17 22:25:17,f23f7a218ce2e3c89b0bceec4f705469-g.jpg,,9787532747214
32754246,La rebelión permanente : las revoluciones sociales en América Latina,,Historia,,Fernando Mires,1988,,Siglo Veintiuno Ed.,,,446,Spanish,,,,"9789682314803,9682314801",,,,,,,,,,,0,1,1,0,0,0,0,1,20385800,pdf,06130AC0C2B3B61219107AD188D85F20,,,Mires Fernando - La Rebelion Permanente.pdf,0,2021-03-17 22:26:16,2021-03-17 22:44:55,06130ac0c2b3b61219107ad188d85f20-g.jpg,,"9789682314803,9682314801"
32754247,"Nunca dejes que una crisis te gane la partida: ¿Cómo ha conseguido el neoliberalismo, responsable de la crisis, salir indemne de la misma?",,,,Philip Mirowski,2014,,Grupo Planeta (GBS),,640,0,Spanish; Castilian,,,,"8423418731,9788423418732",,,,,,,,VS2JBAAAQBAJ,,,0,1,1,0,0,0,0,1,1884733,epub,CA45E21067331E68DBA92E819FBB7BB0,,,Mirowski Philip - Nunca Dejes Que Una Crisis Te Gane La Partida.epub,0,2021-03-17 22:28:26,2021-03-18 01:30:36,ca45e21067331e68dba92e819fbb7bb0-d.png,,"8423418731,9788423418732"
32754248,La edad de la ira: una historia del presente,,,,Pankaj Mishra,2017,,Galaxia Gutenberg,,325,0,Spanish; Castilian,,,,"8416734720,9788416734726",,,,,,,,C8LpAQAACAAJ,,,0,1,1,0,0,0,0,1,916737,epub,7095A8FA6B4E7A3C11BB8993719DCAD3,,,Mishra Pankaj - La Edad De La Ira - Historia Del Presente.epub,0,2021-03-17 22:30:01,2021-03-18 01:29:14,7095a8fa6b4e7a3c11bb8993719dcad3-d.jpg,,"8416734720,9788416734726"
32754249,后哲学文化,,当代学术思潮译丛,,罗蒂,1992,,上海译文出版社,,263,338,Chinese,,,,9787532711673,,,,,,,,,,,0,0,0,,,1,0,0,7506269,pdf,2CD68FCED95AF33F8F0DE4F800A19D9A,,,后哲学文化.pdf,0,2021-03-17 22:30:03,2021-03-17 22:30:18,2cd68fced95af33f8f0de4f800a19d9a-g.jpg,,9787532711673
32754250,社会心理学（第11版）,,新曲线·心理学丛书,,戴维·迈尔斯,2016,,人民邮电出版社,,707,745,Chinese,,,,9787115410047,,,,,,,,,,,0,0,0,,,1,0,1,197859170,pdf,7399C05711CAAA4548B56E932A3F27A4,,,社会心理学  第11版_13920285.pdf,0,2021-03-17 22:48:20,2021-03-17 22:48:20,7399c05711caaa4548b56e932a3f27a4-g.jpg,,9787115410047
32754251,Morir en la Edad Media: Los hechos y los sentimientos,,,,Emilio Mitre,2019,,Ediciones Cátedra,,352,0,Spanish; Castilian,,,,"8437640423,9788437640426",,,,,,,,2_ehDwAAQBAJ,,,0,1,1,0,0,0,0,1,513044,epub,1CC77A53583D68866322DAAD14DD9233,,,Mitre Emilio - Morir En La Edad Media.epub,0,2021-03-17 22:49:17,2021-03-18 01:28:48,1cc77a53583d68866322daad14dd9233-d.jpg,,"8437640423,9788437640426"
32754252,Essays on European Literature,,Princeton Legacy Library,,Ernst Robert Curtius,1973,,Princeton University Press,,XXX+508,542,English,102,,,"0691100101,9780691100104",,,,,,,,,,,0,,,,1,0,1,1,16187193,pdf,BC8FF015CE87D38C957C33BBC8E284D4,,,Curtius.pdf,0,2021-03-17 22:50:32,2021-03-17 22:50:32,bc8ff015ce87d38c957c33bbc8e284d4-g.jpg,,"0691100101,9780691100104"
32754253,实践与反思: 反思社会学导引,,新世纪学术译丛,,皮埃乐.布迪厄; 华康德,1998,,中央编译出版社,,478,487,Chinese,,,,9787801092120,,,,,,,,,,,0,,,,,,,1,11645521,pdf,C98960DC736BE5222D3FA23D7B607A9D,,,《实践与反思—反思社会学导引》.pdf,0,2021-03-17 22:53:31,2021-03-17 22:53:31,c98960dc736be5222d3fa23d7b607a9d-g.jpg,,9787801092120
32754254,Body Studies: An Introduction,,,,Margo DeMello,2014,,Routledge,,,367,English,,,,"2013015937,9780415699297,9780415699303,9780203519608",,,,,,,,,,,0,,,,,,1,1,5686685,pdf,935BE442D8F98780B27894ABC6A366C5,,,DeMello - 2014 - Body Studies - An introduction.pdf,0,2021-03-17 22:54:08,2021-03-17 22:54:08,935be442d8f98780b27894abc6a366c5-g.jpg,,"2013015937,9780415699297,9780415699303,9780203519608"
32754255,从混沌到有序: 人与自然的新对话（统一书号：2188-38）,,当代学术思潮译丛,,普里戈金; 斯唐热,1987,,上海译文出版社,,374,391,Chinese,,,,,,,,,,,,,,,0,0,0,,,1,1,0,14981880,pdf,333F73F18722A6FC9C508EE866D3BFC7,,,[当代学术思潮译丛]05普里戈金：从混沌到有序 人与自然的新对话.pdf,0,2021-03-17 22:54:59,2021-03-17 22:54:59,333f73f18722a6fc9c508ee866d3bfc7-g.jpg,,
32754256,European Paintings in The Metropolitan Museum of Art by Artists Born before 1865,,,,Katharine Baetjer,2012,,,,,543,Spanish,,,,"0870997343,9780870997341",,,,,,,,,,,0,1,1,0,0,0,0,1,70287337,pdf,7AC4DD1FE713B19FA93FB065661C7D71,,,Mma - European Paintings In The Metropolitan Museum Of Art.pdf,0,2021-03-17 22:55:23,2021-03-18 01:28:13,7ac4dd1fe713b19fa93fb065661c7d71-g.jpg,,"0870997343,9780870997341"
32754257,大众传播模式论（统一书号：7188-44）,,当代学术思潮译丛,,丹尼斯·麦奎尔; 斯文·温德尔,1987,,上海译文出版社,,143,158,Chinese,,,,,,,,,,,,,,,0,0,0,,,1,0,0,4367025,pdf,6F55766088521E85EED638521182040D,,,[当代学术思潮译丛]06大众传播模式论.pdf,0,2021-03-17 22:58:39,2021-03-17 22:58:39,6f55766088521e85eed638521182040d-g.jpg,,
32754258,"Subalternidad, antagonismo, autonomía : marxismos y subjetivación política",,Colección Perspectivas,,Massimo Modonesi,2010,,,,,185,Spanish; Castilian,,,,"9789871543465,9871543468",,,,,,,,,,,0,1,1,0,0,0,0,1,901463,pdf,D3416C445851F889DF574F34DC95EA47,,,Modonesi Massimo - Subalternidad Antagonismo Autonomia - Marxismo Y Subjetivacion Politica.pdf,0,2021-03-17 23:00:41,2021-03-17 23:53:47,d3416c445851f889df574f34dc95ea47-g.jpg,,"9789871543465,9871543468"
32754259,当代史学主要趋势,,当代学术思潮译丛,,杰佛里·巴勒克拉夫,1987,,上海译文出版社,,343,361,Chinese,,,,9789573219095,,,,,,,,,,,0,0,0,,,1,0,1,8113697,pdf,12182D4E93ED0600CB6A1808C5C5E5CC,,,[当代学术思潮译丛]07当代史学主要趋势.pdf,0,2021-03-17 23:01:20,2021-03-17 23:01:20,12182d4e93ed0600cb6a1808c5c5e5cc-g.jpg,,9789573219095
