15922755,A Project Manager's Book of Forms: A Companion to the PMBOK Guide,,,,Cynthia Stackpole Snyder,2013,2,Wiley,,240,0,English,,,,"1118430786,978-1-118-43078-1,978-111-8-53740-4,978-111-8-53743-5,978-111-8-53752-7",,,,,,,,,,,0,,,,,,,1,4875155,pdf,90e4d4287edefd36141aa8a4f6e06b9f,,,D:\\HDD4\\_missing\\90e4d4287edefd36141aa8a4f6e06b9f.pdf,0,2000-01-01 01:00:00,2016-04-03 02:51:08,1153000/90e4d4287edefd36141aa8a4f6e06b9f-d.jpg,,
15922752,Industrial Communication Systems,,The Industrial Electronics Handbook,,"Bogdan M. Wilamowski, J. David Irwin",2011,2,CRC Press,,962,0,English,,,,"1439802815,978-1-4398-0281-6",,,,,,,,,,,0,,,,,,,1,29104799,pdf,90cd61cae818ea59cbf93da9aff292cf,,,D:\\HDD4\\_missing\\90cd61cae818ea59cbf93da9aff292cf.pdf,0,2000-01-01 01:00:00,2016-04-03 02:51:08,1153000/90cd61cae818ea59cbf93da9aff292cf-d.jpg,,
15922753,Engineering Chemistry,,as Per VTU,,S. K. Singh,2007,,New Age International Pvt Ltd Publishers,,288,0,English,,,,"8122424201,978-81-224-2420-1",,,,,,,,,,,0,,,,,,,1,4042633,pdf,90d8bb9caa4bfb6d563a6afc4b5dd415,,,D:\\HDD4\\_missing\\90d8bb9caa4bfb6d563a6afc4b5dd415.pdf,0,2000-01-01 01:00:00,2016-04-03 02:51:08,1153000/90d8bb9caa4bfb6d563a6afc4b5dd415-g.jpg,,
15922750,Air Pollution Control Technology Handbook,,Sheffield Biological Sciences,,"Karl B. Schnelle  Jr., Charles A. Brown",2001,,CRC Press,,408,0,English,,,,"0-8493-9588-7,9780849395888",,,,,,,,,,,0,,,,,,,1,15044296,pdf,90be7a9aba33b5aff44e227fa3336615,,,D:\\HDD4\\_missing\\90be7a9aba33b5aff44e227fa3336615.pdf,0,2000-01-01 01:00:00,2016-04-03 02:51:08,1153000/90be7a9aba33b5aff44e227fa3336615-d.jpg,,
15922751,How Nurses Use Math,,Math in the Real World,,"Sarah Glasscock, Rhea A. Stewart",2009,0,Chelsea Clubhouse,,32,0,English,,,,"1604136073,978-1-60413-607-4,978-1-4381-2956-3",,,,,,,,,,,0,,,,,,,1,3614790,pdf,90cb91ff2943545c0a27783934b6d30e,,,D:\\HDD4\\_missing\\90cb91ff2943545c0a27783934b6d30e.pdf,0,2000-01-01 01:00:00,2016-04-03 02:51:08,1153000/90cb91ff2943545c0a27783934b6d30e-d.jpg,,
15922748,Capitalism 3.0: A Guide to Reclaiming the Commons,,Bk Currents,,Peter Barnes,2006,,Berrett-Koehler Publishers,,195,0,English,,,,"1-57675-361-1,978-1-57675-361-3",,,,,,,,,,,0,,,,,,,1,3416750,pdf,9088c02f4461f2748eb6affdbc54e6f2,,,D:\\HDD4\\_missing\\9088c02f4461f2748eb6affdbc54e6f2.pdf,0,2000-01-01 01:00:00,2016-04-03 02:51:08,1153000/9088c02f4461f2748eb6affdbc54e6f2-d.jpg,,
15922749,Handbook of Geotechnical Investigation and Design Tables,,"Balkema: Proceedings and Monographs in Engineering, Water and Earth Sciences",,Burt G. Look,2007,,Taylor & Francis,,346,0,English,,,,"0415430380,978-0-415-43038-8,0-203-94660-X",,,,,,,,,,,0,,,,,,,1,3409475,pdf,90ac99913b01cd4e224211fc6d7a954c,,,D:\\HDD4\\_missing\\90ac99913b01cd4e224211fc6d7a954c.pdf,0,2000-01-01 01:00:00,2016-04-03 02:51:08,1153000/90ac99913b01cd4e224211fc6d7a954c-d.jpg,,
15922746,Digital Mantras: The Languages of Abstract and Virtual Worlds,,,,Steven R. Holtzman,1994,0,Mit Pr,,460,0,English,,,,"0-262-08228-4,9780262082280,0-262-58143-4",,,,,,,,,,,0,,,,,,,1,10914331,pdf,90456f067632d9fc027632c8383d42e3,,,D:\\HDD4\\_missing\\90456f067632d9fc027632c8383d42e3.pdf,0,2000-01-01 01:00:00,2016-04-03 02:51:08,1153000/90456f067632d9fc027632c8383d42e3-d.gif,,
15922747,The One-Page Project Manager for Execution: Drive Strategy and Solve Problems with a Single Sheet of Paper,,,,"Clark A. Campbell, Mike Collins",2010,1,Wiley,,208,0,English,,,,"0470499338,978-0470-49933-7",,,,,,,,,,,0,,,,,,,1,4284280,pdf,907584dc5e265b9f8983abee91ce6136,,,D:\\HDD4\\_missing\\907584dc5e265b9f8983abee91ce6136.pdf,0,2000-01-01 01:00:00,2016-04-03 02:51:08,1153000/907584dc5e265b9f8983abee91ce6136-d.jpg,,
15922745,Interventionism: An Economic Analysis,,Lib Works Ludwig Von Mises CL,,Ludwig von Mises,2011,New Edition,Liberty Fund Inc,,122,0,English,,,,"0865977380,978-0-86597-738-9,978-0-86597-739-6",,,,,,,,,,,0,,,,,,,1,3221688,pdf,900987e3a123144e508de01540f7a62a,,,D:\\HDD4\\_missing\\900987e3a123144e508de01540f7a62a.pdf,0,2000-01-01 01:00:00,2016-04-03 02:51:08,1153000/900987e3a123144e508de01540f7a62a-d.jpg,,
15922743,Practical Emergency and Critical Care Veterinary Nursing,,,,"Paul Aldridge, Louise O'Dwyer",2013,1,Wiley-Blackwell,,224,0,English,,,,"0470656816,978-0-470-65681-5",,,,,,,,,,,0,,,,,,,1,48955027,pdf,9001de155204d4926a3804594bdf3b86,,,D:\\HDD4\\_missing\\9001de155204d4926a3804594bdf3b86.pdf,0,2000-01-01 01:00:00,2016-04-03 02:51:08,1153000/9001de155204d4926a3804594bdf3b86-d.jpg,,
15922744,Madame Jazz: Contemporary Women Instrumentalists,,,,Leslie Gourse,1995,0,"Oxford University Press, USA",,304,0,English,,,,"0-19-508696-1,9780195086966,0-19-510647-4",,,,,,,,,,,0,,,,,,,1,22010560,pdf,9004fc637a8abf1741a730776d868f77,,,D:\\HDD4\\_missing\\9004fc637a8abf1741a730776d868f77.pdf,0,2000-01-01 01:00:00,2016-04-03 02:51:08,1153000/9004fc637a8abf1741a730776d868f77-d.jpg,,
15922740,Computer Simulation in Brain Science,,,,Rodney M. J. Cotterill,1989,0,Cambridge University Press,,584,0,English,,,,"0521341795,978-0-521-34179-0,978-0-521-06118-6",,,,,,,,,,,0,,,,,,,1,46167264,pdf,8fe228027b47efb99558d6718a4fbdd4,,,D:\\HDD4\\_missing\\8fe228027b47efb99558d6718a4fbdd4.pdf,0,2000-01-01 01:00:00,2016-04-03 02:51:08,1153000/8fe228027b47efb99558d6718a4fbdd4-d.jpg,,
15922741,A Field Guide to Melancholy,,,,Jacky Bowring,2009,,Oldcastle Books,,240,0,English,,,,"1842432923,978-1-84243-292-1",,,,,,,,,,,0,,,,,,,1,3344044,pdf,8ffac30940926e92d3cbcfa898e76d59,,,D:\\HDD4\\_missing\\8ffac30940926e92d3cbcfa898e76d59.pdf,0,2000-01-01 01:00:00,2016-04-03 02:51:08,1153000/8ffac30940926e92d3cbcfa898e76d59-d.jpg,,
15922742,A Practical Guide to Job Analysis,,,,"Erich P. Prien, Leonard D. Goodstein, Jeanette Goodstein, Louis G. Gamble Jr",2009,1,Pfeiffer,,288,0,English,,,,"0470434449,978-0-470-43444-4",,,,,,,,,,,0,,,,,,,1,3954889,pdf,8ffd0e92e4a72ea40ca2242c8009639d,,,D:\\HDD4\\_missing\\8ffd0e92e4a72ea40ca2242c8009639d.pdf,0,2000-01-01 01:00:00,2016-04-03 02:51:08,1153000/8ffd0e92e4a72ea40ca2242c8009639d-d.jpg,,
15922739,Dielectric Materials and Electrostatics,,ISTE,,Olivier Gallot-Lavall?e,2013,1,Wiley-ISTE,,207,0,English,,,,"1848216041,978-1-84821-604-4",,,,,,,,,,,0,,,,,,,1,4449689,pdf,8fe0ec8ba5c788d2ec30f5c4fa0bc269,,,D:\\HDD4\\_missing\\8fe0ec8ba5c788d2ec30f5c4fa0bc269.pdf,0,2000-01-01 01:00:00,2016-04-03 02:51:08,1153000/8fe0ec8ba5c788d2ec30f5c4fa0bc269-d.jpg,,
15922737,Hadoop Real World Solutions Cookbook,,,,"Jonathan R. Owens, Brian Femiano, Jon Lentz",2013,,Packt Publishing,,316,0,English,,,,"1849519129,978-1-84951-912-0",,,,,,,,,,,0,,,,,,,1,16796401,pdf,8fc60118f85cb1273d28d47523383c04,,,D:\\HDD4\\_missing\\8fc60118f85cb1273d28d47523383c04(1).pdf,0,2000-01-01 01:00:00,2016-04-03 02:51:08,1153000/8fc60118f85cb1273d28d47523383c04-d.jpg,,
15922738,Winning Secrets of Online Blackjack,,,,Catherine Karayanis,2005,1,Course Technology PTR,,325,0,English,,,,"1-59200-914-X,9781592009145",,,,,,,,,,,0,,,,,,,1,21307850,pdf,8fdb3be802c200e29196318e607f27fd,,,D:\\HDD4\\_missing\\8fdb3be802c200e29196318e607f27fd(1).pdf,0,2000-01-01 01:00:00,2016-04-03 02:51:08,1153000/8fdb3be802c200e29196318e607f27fd-d.jpg,,
15922735,Understanding Physics,,Undergraduate Texts in Contemporary Physics,,"David C. Cassidy, Gerald Holton, F. James Rutherford",2002,,Springer,,853,0,English,,,,"0-387-98756-8,9780387987569",,,,,,,,,,,0,,,,,,,1,48118616,pdf,8f9b6fab2ef1fdcd7d99c90714829ee8,,,D:\\HDD4\\_missing\\8f9b6fab2ef1fdcd7d99c90714829ee8.pdf,0,2000-01-01 01:00:00,2016-04-03 02:51:08,1153000/8f9b6fab2ef1fdcd7d99c90714829ee8-d.jpg,,
15922736,"Computing for Scientists and Engineers: A Workbook of Analysis, Numerics, and Applications",,,,William J. Thompson,1992,,Wiley-VCH,,464,0,English,,,,"0-471-54718-2,9780471547181",,,,,,,,,,,0,,,,,,,1,4890636,pdf,8fa91f59b3c4fe3c2400ef9fa32bda45,,,D:\\HDD4\\_missing\\8fa91f59b3c4fe3c2400ef9fa32bda45.pdf,0,2000-01-01 01:00:00,2016-04-03 02:51:08,1153000/8fa91f59b3c4fe3c2400ef9fa32bda45-d.jpg,,
15922734,From the Gospel to the Gospels,,Beihefte Zur Zeitschrift Fur Die Neutestamentliche Wissenschaft Und Die Kunde Der Alteren Kirche,,Petr Pokorn√Ω,2013,,de Gruyter,,240,0,English,,,,"3110300540,978-3-11-030054-3,978-3-11-030060-4",,,,,,,,,,,0,,,,,,,1,3189851,pdf,8f7d14f74e8de8c489b306626200fc4a,,,D:\\HDD4\\_missing\\8f7d14f74e8de8c489b306626200fc4a(1).pdf,0,2000-01-01 01:00:00,2016-04-03 02:51:08,1153000/8f7d14f74e8de8c489b306626200fc4a-d.jpg,,
15922731,Hot: Living Through the Next Fifty Years on Earth,,,,Mark Hertsgaard,2011,1,Houghton Mifflin Harcourt,,352,0,English,,,,"0618826122,978-0-618-82612-4",,,,,,,,,,,0,,,,,,,1,3314044,pdf,8f4c621d52dac8ef6dc0f406f171d214,,,D:\\HDD4\\_missing\\8f4c621d52dac8ef6dc0f406f171d214.pdf,0,2000-01-01 01:00:00,2016-04-03 02:51:08,1153000/8f4c621d52dac8ef6dc0f406f171d214-d.jpg,,
15922732,English in the Digital Age: Information and Communications Technology,,ITC) and the Teaching of English (Education (Continuum),,Andrew Goodwyn,2000,1,Continuum,,156,0,English,,,,"0-304-70623-X,9780304706235",,,,,,,,,,,0,,,,,,,1,11101920,pdf,8f5fca8b77889d466f40923c7f0e100d,,,D:\\HDD4\\_missing\\8f5fca8b77889d466f40923c7f0e100d.pdf,0,2000-01-01 01:00:00,2016-04-03 02:51:08,1153000/8f5fca8b77889d466f40923c7f0e100d-d.jpg,,
15922733,Probabilistic and Statistical Aspects of Quantum Theory,,Publications of the Scuola Normale Superiore / Monographs (Scuola Normale Superiore),,Alexander S. Holevo,2011,1st Edition,Edizioni della Normale,,334,0,English,,,,"8876423753,978-88-7642-375-8",,,,,,,,,,,0,,,,,,,1,3182937,pdf,8f61bac6e0cf66296ea5959532f3370b,,,D:\\HDD4\\_missing\\8f61bac6e0cf66296ea5959532f3370b.pdf,0,2000-01-01 01:00:00,2016-04-03 02:51:08,1153000/8f61bac6e0cf66296ea5959532f3370b-d.jpg,,
15922729,21st Century Guidebook to Fungi with CD,,,,"David Moore, Geoffrey D. Robson, Anthony P. J. Trinci",2011,0,Cambridge University Press,,640,0,English,,,,"1107006767,978-1-107-00676-8,978-0-521-18695-7",,,,,,,,,,,0,,,,,,,1,59833035,pdf,8f18bdb113677425e9bc11e58503736d,,,D:\\HDD4\\_missing\\8f18bdb113677425e9bc11e58503736d.pdf,0,2000-01-01 01:00:00,2016-04-03 02:51:08,1153000/8f18bdb113677425e9bc11e58503736d-d.jpg,,
15922730,Aptana RadRails: An IDE for Rails Development: A comprehensive guide to using RadRails to develop your Ruby on Rails projects in a professional and productive manner,,,,Javier Ramirez,2008,,Packt Publishing,,233,0,English,,,,"1847193986,978-1-847193-98-8",,,,,,,,,,,0,,,,,,,1,5778958,pdf,8f1c9e5d4845c4f72904f70ed93f3c54,,,D:\\HDD4\\_missing\\8f1c9e5d4845c4f72904f70ed93f3c54(1).pdf,0,2000-01-01 01:00:00,2016-04-03 02:51:08,1153000/8f1c9e5d4845c4f72904f70ed93f3c54-d.jpg,,
15922727,"Chinese Women Writers and the Feminist Imagination, 1905-1948",,Asia's Transformations,,Yan Haiping,2006,1,Routledge,,320,0,English,,,,"0-415-23288-0,978-0-415-23288-3",,,,,,,,,,,0,,,,,,,1,3183111,pdf,8eff647b4c6ca652d181c37d0eec3de5,,,D:\\HDD4\\_missing\\8eff647b4c6ca652d181c37d0eec3de5.pdf,0,2000-01-01 01:00:00,2016-04-03 02:51:08,1153000/8eff647b4c6ca652d181c37d0eec3de5-d.jpg,,
15922728,"Brand Management: Research, Theory And Practice",,,,Tilde Heding,,,Routledge,,267,0,English,,,,"0-203-99617-8,9780203996171",,,,,,,,,,,0,,,,,,,1,12624874,pdf,8f17dde3193493b711295a0fa7ade40f,,,D:\\HDD4\\_missing\\8f17dde3193493b711295a0fa7ade40f.pdf,0,2000-01-01 01:00:00,2016-04-03 02:51:08,1153000/8f17dde3193493b711295a0fa7ade40f-g.jpg,,
15922726,Service-Oriented Design with Ruby and Rails,,Addison-Wesley Professional Ruby Series,,Paul Dix,2010,1,Addison-Wesley Professional,,320,0,English,,,,"0-321-65936-8,978-0-321-65936-1",,,,,,,,,,,0,,,,,,,1,3710804,pdf,8ed1bcf8b353f079caa5e5471c516ded,,,D:\\HDD4\\_missing\\8ed1bcf8b353f079caa5e5471c516ded.pdf,0,2000-01-01 01:00:00,2016-04-03 02:51:08,1153000/8ed1bcf8b353f079caa5e5471c516ded-d.jpg,,
15922724,JavaFX: Developing Rich Internet Applications,,,,"Jim Clarke, Jim Connors, Eric J. Bruno",2009,1,Addison-Wesley Professional,,384,0,English,,,,"0-13-701287-X,978-0-13-701287-9",,,,,,,,,,,0,,,,,,,1,8433871,pdf,8eb1c08a07925d323c127e0b8dea75d6,,,D:\\HDD4\\_missing\\8eb1c08a07925d323c127e0b8dea75d6.pdf,0,2000-01-01 01:00:00,2016-04-03 02:51:08,1153000/8eb1c08a07925d323c127e0b8dea75d6-d.jpg,,
15922725,"Digital Storytelling: Capturing Lives, Creating Community",,,,Joe Lambert,2012,4,Routledge,,224,0,English,,,,"0415627028,978-0-415-62702-3,978-0-415-62703-0,978-0-203-10232-9",,,,,,,,,,,0,,,,,,,1,3633999,pdf,8ebc1150ceb360b92cc03d016d1a5fc3,,,D:\\HDD4\\_missing\\8ebc1150ceb360b92cc03d016d1a5fc3.pdf,0,2000-01-01 01:00:00,2016-04-03 02:51:08,1153000/8ebc1150ceb360b92cc03d016d1a5fc3-d.jpg,,
15922722,ŒüŒπ ŒπœÉœÑŒøœÅŒπŒ∫ŒøŒØ Œ∫Œ±Œπ œÑŒø ŒøŒªŒøŒ∫Œ±œçœÑœâŒºŒ±,,,,Moishe Postone,2006,,ŒôœÉŒΩŒ¨œÜŒπ,,82,0,Greek,,,0,,,,,,,,,,,,600,,,,,,,1,2846180,pdf,ad9d0c54de5c18d5689ecf9afd7e5748,,,oi_istorikoi_kait_to_olokaytwma,0,2000-01-01 01:00:00,2016-04-03 02:51:08,1153000/ad9d0c54de5c18d5689ecf9afd7e5748-g.jpg,,
15922723,A Companion to Peter Martyr Vermigli,,Brill's Companions to the Christian Tradition,,"Torrance Kirby, Emidio Campi, Frank A., III James",2009,,Brill Academic Pub,,540,0,English,,,,"9004175547,978-90-04-17554-9",,,,,,,,,,,0,,,,,,,1,5231660,pdf,8eae4865542da79bfb169795b9b0cb6d,,,D:\\HDD4\\_missing\\8eae4865542da79bfb169795b9b0cb6d.pdf,0,2000-01-01 01:00:00,2016-04-03 02:51:08,1153000/8eae4865542da79bfb169795b9b0cb6d-d.jpg,,
15922720,The Great Brain Race: How Global Universities Are Reshaping the World,,,,Ben Wildavsky,2010,0,Princeton University Press,,248,0,English,,,,"0691146896,978-0-691-14689-8",,,,,,,,,,,0,,,,,,,1,4047994,pdf,8eabf04f24c5e743be02f5ab6c87c7b1,,,D:\\HDD4\\_missing\\8eabf04f24c5e743be02f5ab6c87c7b1.pdf,0,2000-01-01 01:00:00,2016-04-03 02:51:08,1153000/8eabf04f24c5e743be02f5ab6c87c7b1-d.jpg,,
15922721,Eye Movement Disorders,,,,Agnes Wong,2008,,"Oxford University Press, USA",,312,0,English,,,,"0195324269,978-0-19-532426-6",,,,,,,,,,,0,,,,,,,1,3420541,pdf,8ead6aa90673534d688516555a7b9e05,,,D:\\HDD4\\_missing\\8ead6aa90673534d688516555a7b9e05.pdf,0,2000-01-01 01:00:00,2016-04-03 02:51:08,1153000/8ead6aa90673534d688516555a7b9e05-d.jpg,,
15922718,FISMA and the Risk Management Framework: The New Practice of Federal Cyber Security,,,,"Stephen D. Gantz, Daniel R. Philpott",2012,1,Syngress,,584,0,English,,,,"1597496413,978-1-59749-641-4",,,,,,,,,,,0,,,,,,,1,10225274,pdf,8e7cc41174add01bc66ee3a3ee30089a,,,D:\\HDD4\\_missing\\8e7cc41174add01bc66ee3a3ee30089a.pdf,0,2000-01-01 01:00:00,2016-04-03 02:51:08,1153000/8e7cc41174add01bc66ee3a3ee30089a-d.jpg,,
15922719,Comic Relief: A Comprehensive Philosophy of Humor,,"New Directions in Aesthetics, No. 9",,"John Morreall, Robert Mankoff",2009,1st,Wiley-Blackwell,,208,0,English,,,,"1405196122,978-1-4051-9612-3",,,,,,,,,,,0,,,,,,,1,3302943,pdf,8e80c4d5192d9cb84b70f290e7b00056,,,D:\\HDD4\\_missing\\8e80c4d5192d9cb84b70f290e7b00056.pdf,0,2000-01-01 01:00:00,2016-04-03 02:51:08,1153000/8e80c4d5192d9cb84b70f290e7b00056-d.jpg,,
15922716,The Cambridge Companion to German Idealism,,Cambridge Companions to Philosophy,,Karl Ameriks,2000,,Cambridge University Press,,324,0,English,,,,"0-521-65178-6,978-0-521-65178-3,978-0-521-65695-5,0-521-65695-8",,,,,,,,,,,0,,,,,,,1,3795469,pdf,8e57d563ef812c2fef5affd6a392bfea,,,D:\\HDD4\\_missing\\8e57d563ef812c2fef5affd6a392bfea.pdf,0,2000-01-01 01:00:00,2016-04-03 02:51:08,1153000/8e57d563ef812c2fef5affd6a392bfea-d.jpg,,
15922717,Physics: The First Science,,,,"Peter Lindenfeld, Suzanne White Brahmia",2011,,Rutgers University Press,,416,0,English,,,,"081354937X,978-0-8135-4937-8",,,,,,,,,,,0,,,,,,,1,4960973,pdf,8e799fda073a6943c57cdfe33560d09e,,,D:\\HDD4\\_missing\\8e799fda073a6943c57cdfe33560d09e.pdf,0,2000-01-01 01:00:00,2016-04-03 02:51:08,1153000/8e799fda073a6943c57cdfe33560d09e-d.jpg,,
15922714,The Holotropic Mind: The Three Levels of Human Consciousness and How They Shape Our Lives,,,,"Stanislav Grof, Hal Zina Bennett",1993,0,HarperOne,,256,0,English,,,,"0-06-250659-5,9780062506597",,,,,,,,,,,0,,,,,,,1,4842180,pdf,8e452e077f7a534a6cfc655959601297,,,D:\\HDD4\\_missing\\8e452e077f7a534a6cfc655959601297.pdf,0,2000-01-01 01:00:00,2016-04-03 02:51:08,1153000/8e452e077f7a534a6cfc655959601297-d.jpg,,
15922715,SQL: Practical Guide for Developers,,The Practical Guides,,"Michael J. Donahoo, Gregory D. Speegle",2005,1,Morgan Kaufmann,,272,0,English,,,,"0-12-220531-6,978-0-1222-0531-6",,,,,,,,,,,0,,,,,,,1,4374288,pdf,8e4e710bd543a61dc45da65f39314638,,,D:\\HDD4\\_missing\\8e4e710bd543a61dc45da65f39314638.pdf,0,2000-01-01 01:00:00,2016-04-03 02:51:08,1153000/8e4e710bd543a61dc45da65f39314638-d.jpg,,
15922712,"Cloud, Grid and High Performance Computing: Emerging Applications",,,,"Emmanuel Udoh, Emmanuel Udoh",2011,1,IGI Global,,412,0,English,,,,"1609606035,978-1-60960-603-9,978-1-60960-604-6",,,,,,,,,,,0,,,,,,,1,11550450,pdf,8e2b6507af5705a252b5df0037482fe5,,,D:\\HDD4\\_missing\\8e2b6507af5705a252b5df0037482fe5.pdf,0,2000-01-01 01:00:00,2016-04-03 02:51:08,1153000/8e2b6507af5705a252b5df0037482fe5-d.jpg,,
15922713,"Islam, Politics, Anthropology",,,,"Filippo Osella, Benjamin Soares",2010,1,Wiley-Blackwell,,252,0,English,,,,"1444332953,978-1-444-33295-7",,,,,,,,,,,0,,,,,,,1,3425184,pdf,8e40a49e538b2b33311f8c831e8ca970,,,D:\\HDD4\\_missing\\8e40a49e538b2b33311f8c831e8ca970(1).pdf,0,2000-01-01 01:00:00,2016-04-03 02:51:08,1153000/8e40a49e538b2b33311f8c831e8ca970-d.jpg,,
15922711,Level of Detail for 3D Graphics,,The Morgan Kaufmann Series in Computer Graphics,,"David Luebke, Martin Reddy, Jonathan D. Cohen, Amitabh Varshney, Benjamin Watson, Robert Huebner",2002,1,Morgan Kaufmann,,432,0,English,,,,"1-55860-838-9,9781558608382",,,,,,,,,,,0,,,,,,,1,13337922,pdf,8e0fadc8bfdca61e24146b9d67fb1a50,,,D:\\HDD4\\_missing\\8e0fadc8bfdca61e24146b9d67fb1a50(1).pdf,0,2000-01-01 01:00:00,2016-04-03 02:51:08,1153000/8e0fadc8bfdca61e24146b9d67fb1a50-d.jpg,,
15922709,Moonshine - The First Quarter Century and Beyond: Proceedings of a Workshop on the Moonshine Conjectures and Vertex Algebras,,London Mathematical Society Lecture Note Series,,"James Lepowsky, John McKay, Michael P. Tuite",2010,,Cambridge University Press,,416,0,English,,,,"0521106648,978-0-521-10664-1",,,,,,,,,,,0,,,,,,,1,3239532,pdf,8d862b4e7a495f3059ca471082fdbd95,,,D:\\HDD4\\_missing\\8d862b4e7a495f3059ca471082fdbd95.pdf,0,2000-01-01 01:00:00,2016-04-03 02:51:08,1153000/8d862b4e7a495f3059ca471082fdbd95-d.jpg,,
15922710,Hot-Wiring Your Creative Process: Strategies for print and new media designers,,,,Curt Cloninger,2006,,New Riders,,264,0,English,,,,"0-321-35024-3,9780321350244",,,,,,,,,,,0,,,,,,,1,18250541,pdf,8dc51315ff6b2c7b926fbc625f233318,,,D:\\HDD4\\_missing\\8dc51315ff6b2c7b926fbc625f233318.pdf,0,2000-01-01 01:00:00,2016-04-03 02:51:08,1153000/8dc51315ff6b2c7b926fbc625f233318-d.jpg,,
15922708,Mysticism in the World Religions,,,,E.G. Parrinder,1995,,Oneworld Publications,,220,0,English,,,,"1-85168-101-9,9781851681013",,,,,,,,,,,0,,,,,,,1,8817194,pdf,8d7eb5247ac634fd7afec6483f72f0fb,,,D:\\HDD4\\_missing\\8d7eb5247ac634fd7afec6483f72f0fb.pdf,0,2000-01-01 01:00:00,2016-04-03 02:51:08,1153000/8d7eb5247ac634fd7afec6483f72f0fb-d.jpg,,
15922706,Trade the Trader: Know Your Competition and Find Your Edge for Profitable Trading,,,,Quint Tatro,2010,1,FT Press,,252,0,English,,,,"0-13-706708-9,978-0-13-706708-4",,,,,,,,,,,0,,,,,,,1,3215036,pdf,8d782b8b906f9693014442f318c0ac4a,,,D:\\HDD4\\_missing\\8d782b8b906f9693014442f318c0ac4a.pdf,0,2000-01-01 01:00:00,2016-04-03 02:51:08,1153000/8d782b8b906f9693014442f318c0ac4a-d.jpg,,
15922707,Robotic Sailing 2013: Proceedings of the 6th International Robotic Sailing Conference,,,,"Fabrice Le Bars, Luc Jaulin",2013,,Springer,,160,0,English,,,,"331902275X,978-3-319-02275-8,978-3-319-02276-5",,,,,,,10.1007/978-3-319-02276-5,,,,0,,,,,,,1,4542756,pdf,8d79d24721bb4b97aec5a3ec091d07f7,,,D:\\HDD4\\_missing\\8d79d24721bb4b97aec5a3ec091d07f7.pdf,0,2000-01-01 01:00:00,2016-04-03 02:51:08,1153000/8d79d24721bb4b97aec5a3ec091d07f7-d.jpg,,
15922704,Lysosomal Storage Disorders: Principles and Practice,,,,"Gregory M., M.D. Pastores",2009,1,World Scientific Publishing Company,,180,0,English,,,,"981-4271-31-4,978-981-4271-31-8",,,,,,,,,,,0,,,,,,,1,3510318,pdf,8d6dfb15745edbf84edcb996f4059c30,,,D:\\HDD4\\_missing\\8d6dfb15745edbf84edcb996f4059c30.pdf,0,2000-01-01 01:00:00,2016-04-03 02:51:08,1153000/8d6dfb15745edbf84edcb996f4059c30-d.jpg,,
15922705,Volcanism and the Earth's Atmosphere,,Geophysical Monograph Series,,"Alan Robock, Clive Oppenheimer",2004,1,American Geophysical Union,,364,0,English,,,,"0-87590-998-1,9780875909981",,,,,,,10.1029/139GM01,,,,0,,,,,,,1,83316248,pdf,8d7316cb6620b6c032755fb3f839cd7f,,,D:\\HDD4\\_missing\\8d7316cb6620b6c032755fb3f839cd7f.pdf,0,2000-01-01 01:00:00,2016-04-03 02:51:08,1153000/8d7316cb6620b6c032755fb3f839cd7f-d.jpg,,
15922702,Self-Help Approaches for Obesity and Eating Disorders: Research and Practice,,,,"Janet D. Latner PhD, G. Terence Wilson PhD",2007,1,The Guilford Press,,376,0,English,,,,"1-59385-442-0,978-1-59385-442-3",,,,,,,,,,,0,,,,,,,1,3336516,pdf,8d69cdc748974e6694fe7815413e11d4,,,D:\\HDD4\\_missing\\8d69cdc748974e6694fe7815413e11d4.pdf,0,2000-01-01 01:00:00,2016-04-03 02:51:08,1153000/8d69cdc748974e6694fe7815413e11d4-d.jpg,,
15922703,Reproducing the State,,,,Jacqueline Stevens,1999,,Princeton University Press,,312,0,English,,,,"0-691-01713-1,9780691017136,0-691-01714-X",,,,,,,,,,,0,,,,,,,1,11780508,pdf,8d6d526a577318161ba06288e12734b5,,,D:\\HDD4\\_missing\\8d6d526a577318161ba06288e12734b5.pdf,0,2000-01-01 01:00:00,2016-04-03 02:51:08,1153000/8d6d526a577318161ba06288e12734b5-d.jpg,,
15922700,The Principles of Semiconductor Laser Diodes and Amplifiers: Analysis and Transmission Line Laser Modeling,,,,H. Ghafouri-Shiraz,2003,,Imperial College Press,,450,0,English,,,,"1-86094-339-X,9781860943393,1-86094-341-1",,,,,,,,,,,0,,,,,,,1,15957331,pdf,8d5c49fabdf5d0efc77a16231a6ff063,,,D:\\HDD4\\_missing\\8d5c49fabdf5d0efc77a16231a6ff063.pdf,0,2000-01-01 01:00:00,2016-04-03 02:51:08,1153000/8d5c49fabdf5d0efc77a16231a6ff063-d.jpg,,
15922701,AppleScript Studio Programming for the Absolute Beginner,,,,Jr.  Jerry Lee Ford,2006,1,Cengage Learning PTR,,384,0,English,,,,"1-59863-303-1,978-1-59863-303-0,1-59863-781-9",,,,,,,,,,,0,,,,,,,1,12774040,pdf,8d68c39db089b1330b42c71d6a864d8f,,,D:\\HDD4\\_missing\\8d68c39db089b1330b42c71d6a864d8f.pdf,0,2000-01-01 01:00:00,2016-04-03 02:51:08,1153000/8d68c39db089b1330b42c71d6a864d8f-d.jpg,,
15922699,Observing the Messier Objects with a Small Telescope: In the Footsteps of a Great Observer,,The Patrick Moore Practical Astronomy Series,,Philip Pugh,2011,,Springer,,304,0,English,,,,"0387853561,978-0-387-85356-7,978-0-387-85357-4",,,,,,,10.1007/978-0-387-85357-4,,,,0,,,,,,,1,13156100,pdf,8d53f728091fc2480d2884bfc119d6de,,,D:\\HDD4\\_missing\\8d53f728091fc2480d2884bfc119d6de.pdf,0,2000-01-01 01:00:00,2016-04-03 02:51:08,1153000/8d53f728091fc2480d2884bfc119d6de-d.jpg,,
15922697,Design of Observational Studies,,Springer Series in Statistics,,Paul R. Rosenbaum,2009,,Springer,,385,0,English,,,,"1441912126,978-1-4419-1212-1,978-1-4419-1213-8",,,,,,,10.1007/978-1-4419-1213-8,,,,0,,,,,,,1,2125777,pdf,8d40b6b6019bc553ee03be9fa85daa34,,,D:\\HDD4\\_missing\\8d40b6b6019bc553ee03be9fa85daa34.pdf,0,2000-01-01 01:00:00,2016-04-03 02:51:08,1153000/8d40b6b6019bc553ee03be9fa85daa34-d.jpg,,
15922698,"Ramsey Theory: Yesterday, Today, and Tomorrow",,"Progress in Mathematics, Vol. 285",,Alexander Soifer,2010,1st,Birkh√§user,,250,0,English,,,,"0817680918,978-0-8176-8091-6,978-0-8176-8092-3",,,,,,,10.1007/978-0-8176-8092-3,,,,0,,,,,,,1,3193332,pdf,8d4ba777892f5bd120cd24fe9ae719e2,,,D:\\HDD4\\_missing\\8d4ba777892f5bd120cd24fe9ae719e2.pdf,0,2000-01-01 01:00:00,2016-04-03 02:51:08,1153000/8d4ba777892f5bd120cd24fe9ae719e2-d.jpg,,
15922695,"Sobolev Inequalities, Heat Kernels under Ricci Flow, and the Poincare Conjecture",,,,Qi S. Zhang,2010,1,CRC Press,,432,0,English,,,,"1439834598,978-1-4398-3459-6",,,,,,,,,,,0,,,,,,,1,4331689,pdf,8cfca1a81b733ef034c5e2d7ea3333b7,,,D:\\HDD4\\_missing\\8cfca1a81b733ef034c5e2d7ea3333b7.pdf,0,2000-01-01 01:00:00,2016-04-03 02:51:08,1153000/8cfca1a81b733ef034c5e2d7ea3333b7-d.jpg,,
15922696,Polysaccharides in Medicinal and Pharmaceutical Applications,,,,Valentin Popa,2011,1,Smithers Rapra Technology,,430,0,English,,,,"184735436X,978-1-84735-436-5,978-1-84735-437-2,978-1-84735-438-9",,,,,,,,,,,0,,,,,,,1,3351680,pdf,8d1ff3bfb70e3ebd565af115cdbcf254,,,D:\\HDD4\\_missing\\8d1ff3bfb70e3ebd565af115cdbcf254.pdf,0,2000-01-01 01:00:00,2016-04-03 02:51:08,1153000/8d1ff3bfb70e3ebd565af115cdbcf254-d.jpg,,
15922693,Domain Decomposition Methods for the Numerical Solution of Partial Differential Equations,,Lecture Notes in Computational Science and Engineering,,Tarek Mathew,2008,,Springer,,770,0,English,,,,"3540772057,978-3-540-77205-7,978-3-540-77209-5",,,,,,,,,,,0,,,,,,,1,4490879,pdf,8ce8dd48c537c1f1784ec07635277832,,,D:\\HDD4\\_missing\\8ce8dd48c537c1f1784ec07635277832.pdf,0,2000-01-01 01:00:00,2016-04-03 02:51:08,1153000/8ce8dd48c537c1f1784ec07635277832-d.jpg,,
15922694,"Blogging For Dummies, 3rd Edition",,,,"Susannah Gardner, Shane Birley",2010,3rd,Wiley Publishing,,388,0,English,,,,"047056556X,978-0-470-56556-8",,,,,,,,,,,0,,,,,,,1,11267491,pdf,8cfc836570a23454071eb2b73295a63d,,,D:\\HDD4\\_missing\\8cfc836570a23454071eb2b73295a63d.pdf,0,2000-01-01 01:00:00,2016-04-03 02:51:08,1153000/8cfc836570a23454071eb2b73295a63d-d.jpg,,
15922691,Political Polling in the Digital Age: The Challenge of Measuring and Understanding Public Opinion,,Media & Public Affairs,,"Charlie Cook, Kirby Goidel, Kirby Goidel",2011,,Louisiana State University Press,,168,0,English,,,,"0807138290,978-0-8071-3829-8,978-0-8071-3783-3",,,,,,,,,,,0,,,,,,,1,3217921,pdf,8cdfefa32b6e09d5958bc51da7ac8895,,,D:\\HDD4\\_missing\\8cdfefa32b6e09d5958bc51da7ac8895(1).pdf,0,2000-01-01 01:00:00,2016-04-03 02:51:08,1153000/8cdfefa32b6e09d5958bc51da7ac8895-d.jpg,,
15922692,Metaethics: An Introduction,,,,Andrew Fisher,2011,,Acumen Publishing,,200,0,English,,,,"1844652572,978-1-84465-257-0,978-1-84465-258-7",,,,,,,,,,,0,,,,,,,1,3162931,pdf,8ce46059a88f0ef73db96a2fb74af311,,,D:\\HDD4\\_missing\\8ce46059a88f0ef73db96a2fb74af311.pdf,0,2000-01-01 01:00:00,2016-04-03 02:51:08,1153000/8ce46059a88f0ef73db96a2fb74af311-d.jpg,,
15922690,"Phenomenal Crystals: Giant Quartz Crystals, Unique Minerals in World Museums, Gem Treasures of Brazil",,,,Ilia Deleff,2004,,Coronet Books,,121,0,English,,,,"954-642-215-0,9789546422156",,,,,,,,,,,0,,,,,,,1,41427775,pdf,8cda72ede212a72a4c6a6945167122f2,,,D:\\HDD4\\_missing\\8cda72ede212a72a4c6a6945167122f2(1).pdf,0,2000-01-01 01:00:00,2016-04-03 02:51:08,1153000/8cda72ede212a72a4c6a6945167122f2-d.jpg,,
15922688,Hospital Pharmacy,,,,Martin Stephens,2011,2,Pharmaceutical Pr,,313,0,English,,,,"0853699003,978-0-85369-900-2",,,,,,,,,,,0,,,,,,,1,4082501,pdf,8c712b9f0ad426bb77de61ce6a5f91a4,,,D:\\HDD4\\_missing\\8c712b9f0ad426bb77de61ce6a5f91a4(1).pdf,0,2000-01-01 01:00:00,2016-04-03 02:51:08,1153000/8c712b9f0ad426bb77de61ce6a5f91a4-d.jpg,,
15922689,Toward a Postcolonial Reading of the Epistle of James: James 2:1-13 in its Roman Imperial Context,,Biblical Interpretation Series,,Ingeborg Mongstad-Kvammen,2013,,BRILL,,270,0,English,,,,"9004251863,978-90-04-25186-1,978-90-04-25187-8",,,,,,,,,,,0,,,,,,,1,5097858,pdf,8c986de02ad4f8503594baf6314772e9,,,D:\\HDD4\\_missing\\8c986de02ad4f8503594baf6314772e9(1).pdf,0,2000-01-01 01:00:00,2016-04-03 02:51:08,1153000/8c986de02ad4f8503594baf6314772e9-d.jpg,,
15922686,Start Your Own Medical Claims Billing Service,,StartUp Series,,"Entrepreneur Press, Charlene Davis",2012,3,Entrepreneur Press,,206,0,English,,,,"1599184443,978-1-59918-444-9",,,,,,,,,,,0,,,,,,,1,3794815,pdf,8c5991cfcada72c3f6cada7048e28c49,,,D:\\HDD4\\_missing\\8c5991cfcada72c3f6cada7048e28c49.pdf,0,2000-01-01 01:00:00,2016-04-03 02:51:08,1153000/8c5991cfcada72c3f6cada7048e28c49-d.jpg,,
15922687,Barycentric Calculus in Euclidean and Hyperbolic Geometry: A Comparative Introduction,,,,Ungar Abraham Albert,2010,1,World Scientific Publishing Company,,360,0,English,,,,"981-4304-93-X,978-981-4304-93-1",,,,,,,,,,,0,,,,,,,1,3263266,pdf,8c646978019f9f8ee3579f59f4311e46,,,D:\\HDD4\\_missing\\8c646978019f9f8ee3579f59f4311e46.pdf,0,2000-01-01 01:00:00,2016-04-03 02:51:08,1153000/8c646978019f9f8ee3579f59f4311e46-d.jpg,,
15922683,Getting Started with IBM WebSphere sMash,,,,"Ron Lynn, Karl Bishop, Brett King",2010,1,IBM Press,,416,0,English,,,,"0-13-701970-X,978-0-13-701970-0",,,,,,,,,,,0,,,,,,,1,9706926,pdf,8c25d53b2145a5f06294466c1855d5dd,,,D:\\HDD4\\_missing\\8c25d53b2145a5f06294466c1855d5dd.pdf,0,2000-01-01 01:00:00,2016-04-03 02:51:08,1153000/8c25d53b2145a5f06294466c1855d5dd-d.jpg,,
15922684,Fixed Mobile Convergence Handbook,,,,"Syed A. Ahson, Mohammad Ilyas",2010,0,CRC Press,,492,0,English,,,,"1420091700,978-1-4200-9170-0",,,,,,,,,,,0,,,,,,,1,11611664,pdf,8c3b2867a89aab558eed2a95ed6ee8e0,,,D:\\HDD4\\_missing\\8c3b2867a89aab558eed2a95ed6ee8e0.pdf,0,2000-01-01 01:00:00,2016-04-03 02:51:08,1153000/8c3b2867a89aab558eed2a95ed6ee8e0-d.jpg,,
15922685,Handbook of Reading Interventions,,,,"Rollanda E. O'Connor PhD, Patricia F. Vadasy PhD",2011,1,The Guilford Press,,436,0,English,,,,"1609181514,978-1-60918-151-2",,,,,,,,,,,0,,,,,,,1,3539201,pdf,8c507eaa3af49df13e1bfd7b547352b8,,,D:\\HDD4\\_missing\\8c507eaa3af49df13e1bfd7b547352b8.pdf,0,2000-01-01 01:00:00,2016-04-03 02:51:08,1153000/8c507eaa3af49df13e1bfd7b547352b8-d.jpg,,
15922682,Legacy from the Stars,,,,Dolores Cannon,1996,0,Ozark Mountain Publishing,,320,0,English,,,,"0-9632776-9-3,9780963277695",,,,,,,,,,,0,,,,,,,1,3541246,pdf,8c1b703a166d2fc716dd83de3bb2dab2,,,D:\\HDD4\\_missing\\8c1b703a166d2fc716dd83de3bb2dab2.pdf,0,2000-01-01 01:00:00,2016-04-03 02:51:08,1153000/8c1b703a166d2fc716dd83de3bb2dab2-d.jpg,,
15922679,Queueing Theory for Telecommunications: Discrete Time Modelling of a Single Node System,,,,Attahiru Sule Alfa,2010,,Springer,,252,0,English,,,,"1441973133,978-1-4419-7313-9,978-1-4419-7314-6",,,,,,,10.1007/978-1-4419-7314-6,,,,0,,,,,,,1,1471714,pdf,8bf6740d4a7b6c0ff5f7b2a30c0c510f,,,D:\\HDD4\\_missing\\8bf6740d4a7b6c0ff5f7b2a30c0c510f.pdf,0,2000-01-01 01:00:00,2016-04-03 02:51:08,1153000/8bf6740d4a7b6c0ff5f7b2a30c0c510f-d.jpg,,
15922680,PostgreSQL 9 Admin Cookbook,,,,"Simon Riggs, Hannu Krosing",2010,,Packt Publishing,,360,0,English,,,,978-1-849510-28-8,,,,,,,,,,,0,,,,,,,1,5424526,pdf,8c06d773b66dc4883bd5485f97c98534,,,D:\\HDD4\\_missing\\8c06d773b66dc4883bd5485f97c98534.pdf,0,2000-01-01 01:00:00,2016-04-03 02:51:08,1153000/8c06d773b66dc4883bd5485f97c98534-d.jpg,,
15922681,Handbook of Polymer Testing: Short-Term Mechanical Tests,,,,R.P. Brown,1997,,Smithers Rapra Press,,222,0,English,,,,"1-85957-324-X,9781859573242",,,,,,,,,,,0,,,,,,,1,1342523,pdf,8c06e23eee74f97631be6af9188db3a4,,,D:\\HDD4\\_missing\\8c06e23eee74f97631be6af9188db3a4.pdf,0,2000-01-01 01:00:00,2016-04-03 02:51:08,1153000/8c06e23eee74f97631be6af9188db3a4-d.jpg,,
15922677,The Orchestra: A Very Short Introduction,,,,D. Kern Holoman,2012,,Oxford University Press,,168,0,English,,,,"0199760284,978-0-19-976028-2",,,,,,,,,,,0,,,,,,,1,4136194,pdf,8bde066f7be8643507c5b2eaf19560c3,,,D:\\HDD4\\_missing\\8bde066f7be8643507c5b2eaf19560c3.pdf,0,2000-01-01 01:00:00,2016-04-03 02:51:08,1153000/8bde066f7be8643507c5b2eaf19560c3-d.jpg,,
15922678,Computational Methods For PDE In Mechanics,,Series on Advances in Mathematics for Applied Sciences,,Berardino D'Acunto,2004,,World Scientific Pub Co Inc,,300,0,English,,,,"981-256-037-8,9789812560377",,,,,,,,,,,0,,,,,,,1,3936799,pdf,8bf4d4eddea6ceaf4848ff4906c287e1,,,D:\\HDD4\\_missing\\8bf4d4eddea6ceaf4848ff4906c287e1.pdf,0,2000-01-01 01:00:00,2016-04-03 02:51:08,1153000/8bf4d4eddea6ceaf4848ff4906c287e1-d.jpg,,
15922674,Thinking as Computation: A First Course,,,,Hector J. Levesque,2012,,The MIT Press,,328,0,English,,,,"0262016990,978-0-262-01699-5",,,,,,,,,,,0,,,,,,,1,3438462,pdf,8b93d400a18cee0857453f96a08f1222,,,D:\\HDD4\\_missing\\8b93d400a18cee0857453f96a08f1222.pdf,0,2000-01-01 01:00:00,2016-04-03 02:51:08,1153000/8b93d400a18cee0857453f96a08f1222-d.jpg,,
15922675,The Contract Scorecard,,,,Sara Cullen,2009,0,Gower,,266,0,English,,,,"0566087936,978-0-566-08793-6",,,,,,,,,,,0,,,,,,,1,11786542,pdf,8bc15503613b85ab45234b35ff74985c,,,D:\\HDD4\\_missing\\8bc15503613b85ab45234b35ff74985c.pdf,0,2000-01-01 01:00:00,2016-04-03 02:51:08,1153000/8bc15503613b85ab45234b35ff74985c-d.jpg,,
15922676,Gestalt Therapy Around the World,,,,Eleanor O'Leary,2013,1,Wiley-Blackwell,,390,0,English,,,,"0470699361,978-0-470-69936-2,978-0-470-69937-9",,,,,,,,,,,0,,,,,,,1,3941234,pdf,8bce6ba02e7d2a1c16c3a699808a699a,,,D:\\HDD4\\_missing\\8bce6ba02e7d2a1c16c3a699808a699a.pdf,0,2000-01-01 01:00:00,2016-04-03 02:51:08,1153000/8bce6ba02e7d2a1c16c3a699808a699a-d.jpg,,
15922672,The Hacker's Guide to OS X: Exploiting OS X from the Root Up,,,,"Robert Bathurst, Russ Rogers, Alijohn Ghassemlouei",2012,1,Syngress,,248,0,English,,,,"1597499501,978-1-59749-950-7",,,,,,,,,,,0,,,,,,,1,20629947,pdf,8b8d5f37a7672c44d103c0796ada5257,,,D:\\HDD4\\_missing\\8b8d5f37a7672c44d103c0796ada5257.pdf,0,2000-01-01 01:00:00,2016-04-03 02:51:08,1153000/8b8d5f37a7672c44d103c0796ada5257-d.jpg,,
15922673,Human Information Retrieval,,History and Foundations of Information Science,,Julian Warner,2009,1,The MIT Press,,200,0,English,,,,"0262013444,978-0-262-01344-4",,,,,,,,,,,0,,,,,,,1,3495179,pdf,8b933e16f959a883a1763d8a2d507733,,,D:\\HDD4\\_missing\\8b933e16f959a883a1763d8a2d507733(1).pdf,0,2000-01-01 01:00:00,2016-04-03 02:51:08,1153000/8b933e16f959a883a1763d8a2d507733-d.jpg,,
15922671,Building a Web Site For Dummies,,,,David A. Crowder,2010,4,For Dummies,,360,0,English,,,,"0470560932,978-0-470-56093-8",,,,,,,,,,,0,,,,,,,1,10174786,pdf,8b623088ebff429680009a0cc742c4dc,,,D:\\HDD4\\_missing\\8b623088ebff429680009a0cc742c4dc.pdf,0,2000-01-01 01:00:00,2016-04-03 02:51:08,1153000/8b623088ebff429680009a0cc742c4dc-d.jpg,,
15922669,The Essential Sopranos Reader,,Essential Readers in Contemporary Media and Culture,,"David Lavery, Douglas L. Howard, Paul Levinson",2011,0,The University Press of Kentucky,,404,0,English,,,,"0813130123,978-0-8131-3012-5,978-0-8131-3014-9",,,,,,,,,,,0,,,,,,,1,3194745,pdf,8b282e87981c7c869827a6b691194b74,,,D:\\HDD4\\_missing\\8b282e87981c7c869827a6b691194b74.pdf,0,2000-01-01 01:00:00,2016-04-03 02:51:08,1153000/8b282e87981c7c869827a6b691194b74-d.jpg,,
15922670,Cooperative Networking,,,,"Mohammad S. Obaidat, Sudip Misra",2011,1,Wiley,,352,0,English,,,,"0470749156,978-0-470-74915-9",,,,,,,,,,,0,,,,,,,1,9054821,pdf,8b50e7abed21b54140ddec03b3d24fec,,,D:\\HDD4\\_missing\\8b50e7abed21b54140ddec03b3d24fec(1).pdf,0,2000-01-01 01:00:00,2016-04-03 02:51:08,1153000/8b50e7abed21b54140ddec03b3d24fec-d.jpg,,
15922667,Alcohol: A Social and Cultural History,,,,Mack Holt,2006,,Bloomsbury Academic,,288,0,English,,,,"1-84520-166-3,978-1-84520-166-1,978-1-84520-165-4,1-84520-165-5",,,,,,,,,,,0,,,,,,,1,3246061,pdf,8b1e94fd0dc6d78bb99633a36e796f0d,,,D:\\HDD4\\_missing\\8b1e94fd0dc6d78bb99633a36e796f0d.pdf,0,2000-01-01 01:00:00,2016-04-03 02:51:08,1153000/8b1e94fd0dc6d78bb99633a36e796f0d-d.jpg,,
15922668,Developing Large Web Applications: Producing Code That Can Grow and Thrive,,,,Kyle Loudon,2010,1,Yahoo Press,,304,0,English,,,,"0596803028,978-0-596-80302-5",,,,,,,,,,,0,,,,,,,1,3395542,pdf,8b226fd5d06c0522c7a3bfa23835fa0e,,,D:\\HDD4\\_missing\\8b226fd5d06c0522c7a3bfa23835fa0e.pdf,0,2000-01-01 01:00:00,2016-04-03 02:51:08,1153000/8b226fd5d06c0522c7a3bfa23835fa0e-d.jpg,,
15922666,Language Disorders in Children and Adults: New Issues in Research and Practice,,Wiley Series in Human Communication Science,,"Victoria Joffe, Madeline Cruice, Shula Chiat",2008,1,Wiley,,208,0,English,,,,"0470518391,978-0-470-51839-7",,,,,,,,,,,0,,,,,,,1,3565063,pdf,8b1a0bb5814c803579cdf995a0cc92df,,,D:\\HDD4\\_missing\\8b1a0bb5814c803579cdf995a0cc92df.pdf,0,2000-01-01 01:00:00,2016-04-03 02:51:08,1153000/8b1a0bb5814c803579cdf995a0cc92df-d.jpg,,
15922664,Comprehensive Management of Chronic Obstructive Pulmonary Disease,,,,"Jean, M.D. Bourbeau, Diane Nault, Elizabeth Borycki",2002,1st,B.C. Decker,,372,0,English,,,,"1-55009-174-3,9781550091748",,,,,,,,,,,0,,,,,,,1,9047099,pdf,8ae4940c13d0e41f2b2fda110ae6a3aa,,,D:\\HDD4\\_missing\\8ae4940c13d0e41f2b2fda110ae6a3aa.pdf,0,2000-01-01 01:00:00,2016-04-03 02:51:08,1153000/8ae4940c13d0e41f2b2fda110ae6a3aa-d.jpg,,
15922665,Light on the Path: A Christian Perspective on College Success,,,,"John A. Beck, Marmy A. Clason",2007,2,Wadsworth Publishing,,211,0,English,,,,"1-4130-3368-7,978-1-4130-3368-7",,,,,,,,,,,0,,,,,,,1,4530225,pdf,8b0c8a5adc29f00fb6552afa822a52c8,,,D:\\HDD4\\_missing\\8b0c8a5adc29f00fb6552afa822a52c8.pdf,0,2000-01-01 01:00:00,2016-04-03 02:51:08,1153000/8b0c8a5adc29f00fb6552afa822a52c8-d.jpg,,
15922662,Idealism and Existentialism: Hegel and Nineteenth- and Twentieth-Century European Philosophy,,Continuum Studies in Continental Philosophy,,Jon Stewart,2010,1,Bloomsbury Academic,,304,0,English,,,,"1441133992,978-1-4411-3399-1",,,,,,,,,,,0,,,,,,,1,3163470,pdf,8ad156f4689038ad67e019340f271f28,,,D:\\HDD4\\_missing\\8ad156f4689038ad67e019340f271f28.pdf,0,2000-01-01 01:00:00,2016-04-03 02:51:08,1153000/8ad156f4689038ad67e019340f271f28-d.jpg,,
15922663,Ranking Faiths: Religious Stratification in America,,,,"James D. Davidson, Ralph E. Pyle",2011,,Rowman & Littlefield Publishers,,230,0,English,,,,"1442208538,978-1-4422-0853-7,978-1-4422-0855-1",,,,,,,,,,,0,,,,,,,1,3367023,pdf,8ad4a4181c3523fcc7a8af5ceca41560,,,D:\\HDD4\\_missing\\8ad4a4181c3523fcc7a8af5ceca41560.pdf,0,2000-01-01 01:00:00,2016-04-03 02:51:08,1153000/8ad4a4181c3523fcc7a8af5ceca41560-d.jpg,,
15922660,"The Power of Pause: How to be More Effective in a Demanding, 24/7 World",,,,Nance Guilmartin,2009,1,Jossey-Bass,,256,0,English,,,,"0470478276,978-0-470-47827-1",,,,,,,,,,,0,,,,,,,1,3931411,pdf,8ac66acf5e47efda4c1ee5bb4e03b423,,,D:\\HDD4\\_missing\\8ac66acf5e47efda4c1ee5bb4e03b423.pdf,0,2000-01-01 01:00:00,2016-04-03 02:51:08,1153000/8ac66acf5e47efda4c1ee5bb4e03b423-d.jpg,,
15922661,Obesity Before Birth: Maternal and prenatal influences on the offspring,,Endocrine Updates,,Robert H Lustig,2010,,Springer,,428,0,English,,,,"1441970339,978-1-4419-7033-6,978-1-4419-7034-3",,,,,,,10.1007/978-1-4419-7034-3,,,,0,,,,,,,1,19552339,pdf,8acd92b099bc05c5712731ce9ca2c103,,,D:\\HDD4\\_missing\\8acd92b099bc05c5712731ce9ca2c103.pdf,0,2000-01-01 01:00:00,2016-04-03 02:51:08,1153000/8acd92b099bc05c5712731ce9ca2c103-d.jpg,,
15922658,"Living With Someone Who's Living With Bipolar Disorder: A Practical Guide for Family, Friends, and Coworkers",,,,"Chelsea Lowe, Bruce M. Cohen MD  PhD",2010,1,Jossey-Bass,,272,0,English,,,,"0470475668,978-0-470-47566-9",,,,,,,,,,,0,,,,,,,1,3016233,pdf,8a9dc23abad4fcdb58edef32e70197ef,,,D:\\HDD4\\_missing\\8a9dc23abad4fcdb58edef32e70197ef.pdf,0,2000-01-01 01:00:00,2016-04-03 02:51:08,1153000/8a9dc23abad4fcdb58edef32e70197ef-d.jpg,,
15922659,Pleasure in Ancient Greek Philosophy,,Key Themes in Ancient Philosophy,,David Wolfsdorf,2013,0,Cambridge University Press,,322,0,English,,,,"0521761301,978-0-521-76130-7,978-0-521-14975-4",,,,,,,,,,,0,,,,,,,1,3269239,pdf,8aa16ad10fcd2682feaed00c55a71daa,,,D:\\HDD4\\_missing\\8aa16ad10fcd2682feaed00c55a71daa.pdf,0,2000-01-01 01:00:00,2016-04-03 02:51:08,1153000/8aa16ad10fcd2682feaed00c55a71daa-d.jpg,,
15922656,Transcranial Brain Stimulation for Treatment of Psychiatric Disorders,,Advances in Biological Psychiatry,,"M. A. Marcolin, F. Padberg",2007,1,S Karger Pub,,230,0,English,,,,"3805581866,978-3-8055-8186-8",,,,,,,,,,,0,,,,,,,1,3198042,pdf,8a84cb789de478b946405ec05d98ee34,,,D:\\HDD4\\_missing\\8a84cb789de478b946405ec05d98ee34.pdf,0,2000-01-01 01:00:00,2016-04-03 02:51:08,1153000/8a84cb789de478b946405ec05d98ee34-d.jpg,,
15922657,"Future, Inc.: How Businesses Can Anticipate and Profit from What's Next",,,,"Eric Garland, Joseph Coates",2006,0,AMACOM,,256,0,English,,,,"0-8144-0897-4,978-0-8144-0897-1",,,,,,,,,,,0,,,,,,,1,3275314,pdf,8a9114a5fabf9d509358ce889dd607d6,,,D:\\HDD4\\_missing\\8a9114a5fabf9d509358ce889dd607d6.pdf,0,2000-01-01 01:00:00,2016-04-03 02:51:08,1153000/8a9114a5fabf9d509358ce889dd607d6-d.jpg,,
15922654,The Persistence of the Color Line: Racial Politics and the Obama Presidency,,,,Randall Kennedy,2011,0,Pantheon,,336,0,English,,,,978-0-307-37789-0,,,,,,,,,,,0,,,,,,,1,3180971,pdf,8a7102e5f8effdd811ee11d4f2f37292,,,D:\\HDD4\\_missing\\8a7102e5f8effdd811ee11d4f2f37292(1).pdf,0,2000-01-01 01:00:00,2016-04-03 02:51:08,1153000/8a7102e5f8effdd811ee11d4f2f37292-d.jpg,,
15922655,"The History of Cartography, Volume 2, Book 2: Cartography in the Traditional East and Southeast Asian Societies",,,,"David Woodward, J. B. Harley",1995,1,University Of Chicago Press,,998,0,English,,,,"0-226-31637-8,9780226316376",,,,,,,,,,,0,,,,,,,1,117829034,pdf,8a766947bf161d2e9801ad2d1065a3a5,,,D:\\HDD4\\_missing\\8a766947bf161d2e9801ad2d1065a3a5.pdf,0,2000-01-01 01:00:00,2016-04-03 02:51:08,1153000/8a766947bf161d2e9801ad2d1065a3a5-d.jpg,,
15922652,Alfresco 3 Business Solutions,,,,Martin Bergljung,2011,,Packt Publishing,,608,0,English,,,,"1849513341,978-1-849513-34-0",,,,,,,,,,,0,,,,,,,1,17554703,pdf,8a66639e0c4d2d2823289c5d8dcc9b0e,,,D:\\HDD4\\_missing\\8a66639e0c4d2d2823289c5d8dcc9b0e.pdf,0,2000-01-01 01:00:00,2016-04-03 02:51:08,1153000/8a66639e0c4d2d2823289c5d8dcc9b0e-d.jpg,,
15922653,Conflict Management for Security Professionals,,,,Andrew A. Tufano,2013,1,Butterworth-Heinemann,,170,0,English,,,,"0124171966,978-0-12-417196-1",,,,,,,,,,,0,,,,,,,1,3639852,pdf,8a6fa5ab4aadc329fb01124d0db1f8b4,,,D:\\HDD4\\_missing\\8a6fa5ab4aadc329fb01124d0db1f8b4.pdf,0,2000-01-01 01:00:00,2016-04-03 02:51:08,1153000/8a6fa5ab4aadc329fb01124d0db1f8b4-d.jpg,,
15922651,"Finance: Capital Markets, Financial Management, and Investment Management",,Frank J. Fabozzi Series,,"Frank J. Fabozzi CFA, Pamela Peterson Drake",2009,1,Wiley,,832,0,English,,,,"0470407352,978-0-470-40735-6",,,,,,,,,,,0,,,,,,,1,4739557,pdf,8a124df803850c0d94451b74867135c0,,,D:\\HDD4\\_missing\\8a124df803850c0d94451b74867135c0.pdf,0,2000-01-01 01:00:00,2016-04-03 02:51:08,1153000/8a124df803850c0d94451b74867135c0-d.jpg,,
15922649,Stress-Related Disorders Sourcebook,,,,Amy L. Sutton,2011,3,Omnigraphics Inc,,621,0,English,,,,"0780811488,978-0-7808-1148-5",,,,,,,,,,,0,,,,,,,1,3435901,pdf,8a0291423d1cf556cb62c833f9adcb30,,,D:\\HDD4\\_missing\\8a0291423d1cf556cb62c833f9adcb30.pdf,0,2000-01-01 01:00:00,2016-04-03 02:51:08,1153000/8a0291423d1cf556cb62c833f9adcb30-d.jpg,,
15922650,Global Outsourcing and Offshoring: An Integrated Approach to Theory and Corporate Strategy,,,,"Farok J. Contractor, Vikas Kumar, Sumit K. Kundu, Torben Pedersen",2010,0,Cambridge University Press,,494,0,English,,,,"0521193532,978-0-521-19353-5",,,,,,,,,,,0,,,,,,,1,3495024,pdf,8a049b482a0ed621b4bdfa1736b1b14c,,,D:\\HDD4\\_missing\\8a049b482a0ed621b4bdfa1736b1b14c(1).pdf,0,2000-01-01 01:00:00,2016-04-03 02:51:08,1153000/8a049b482a0ed621b4bdfa1736b1b14c-d.jpg,,
15922648,RF and Microwave Transmitter Design,,Wiley Series in Microwave and Optical Engineering,,Andrei Grebennikov,2011,1,Wiley,,832,0,English,,,,"047052099X,978-0-470-52099-4,978-0-470-92930-8",,,,,,,,,,,0,,,,,,,1,11281055,pdf,89ead6fbfbca496ee9c33d0e5b056781,,,D:\\HDD4\\_missing\\89ead6fbfbca496ee9c33d0e5b056781.pdf,0,2000-01-01 01:00:00,2016-04-03 02:51:08,1153000/89ead6fbfbca496ee9c33d0e5b056781-d.jpg,,
15922646,Counselling for Grief and Bereavement,,Therapy in Practice,,"Geraldine M Humphrey, David Zimpfer",2007,2nd,SAGE Publications Ltd,,192,0,English,,,,"1412935652,978-1-4129-3565-4,978-1-4129-3566-1",,,,,,,,,,,0,,,,,,,1,4065597,pdf,89a514395eed7ceeb0902297397b2acf,,,D:\\HDD4\\_missing\\89a514395eed7ceeb0902297397b2acf(1).pdf,0,2000-01-01 01:00:00,2016-04-03 02:51:08,1153000/89a514395eed7ceeb0902297397b2acf-d.jpg,,
15922647,Vibrational Spectroscopy With Neutrons: With Applications in Chemistry,,Series on Neutron Techniques and Applications,,"Philip C. H. Mitchell, Stewart F Parker, Anibal J Ramirez-Cuesta",2005,,World Scientific Publishing Company,,668,0,English,,,,"981-256-013-0,9789812560131",,,,,,,,,,,0,,,,,,,1,28764302,pdf,89cb431176272e74ce7903702ce3aab2,,,D:\\HDD4\\_missing\\89cb431176272e74ce7903702ce3aab2.pdf,0,2000-01-01 01:00:00,2016-04-03 02:51:08,1153000/89cb431176272e74ce7903702ce3aab2-d.jpg,,
15922643,Practical Django Projects,,Expert's Voice in Web Development,,James Bennett,2008,1,Apress,,256,0,English,,,,"1-59059-996-9,978-1-59059-996-9,978-1-4302-0868-6",,,,,,,,,,,0,,,,,,,1,5322177,pdf,898ed456db0d5252e43d0815392cb7bb,,,D:\\HDD4\\_missing\\898ed456db0d5252e43d0815392cb7bb.pdf,0,2000-01-01 01:00:00,2016-04-03 02:51:08,1153000/898ed456db0d5252e43d0815392cb7bb-d.jpg,,
15922644,Nginx 1 Web Server Implementation Cookbook,,,,Dipankar Sarkar,2011,,Packt Publishing,,236,0,English,,,,"1849514968,978-1-849514-96-5",,,,,,,,,,,0,,,,,,,1,6618559,pdf,89925e47be7d97e7d3b7e695204dc515,,,D:\\HDD4\\_missing\\89925e47be7d97e7d3b7e695204dc515.pdf,0,2000-01-01 01:00:00,2016-04-03 02:51:08,1153000/89925e47be7d97e7d3b7e695204dc515-d.jpg,,
15922645,Lunar Orbiter Photographic Atlas of the Near Side of the Moon,,,,Charles Byrne,2005,,Springer,,329,0,English,,,,"9781852338862,1-85233-886-5",,,,,,,,,,,0,,,,,,,1,69663802,pdf,899aa7aba97d679d1d50512ad850d396,,,D:\\HDD4\\_missing\\899aa7aba97d679d1d50512ad850d396.pdf,0,2000-01-01 01:00:00,2016-04-03 02:51:08,1153000/899aa7aba97d679d1d50512ad850d396-d.jpg,,
15922642,Sports Economics,,,,Roger D. Blair,2011,0,Cambridge University Press,,554,0,English,,,,"0521876613,978-0-521-87661-2",,,,,,,,,,,0,,,,,,,1,6279184,pdf,898df05e10c8ef49865a48f3d2c73f19,,,D:\\HDD4\\_missing\\898df05e10c8ef49865a48f3d2c73f19.pdf,0,2000-01-01 01:00:00,2016-04-03 02:51:08,1153000/898df05e10c8ef49865a48f3d2c73f19-d.jpg,,
15922639,Avicenna,,Great Medieval Thinkers,,Jon McGinnis,2010,,"Oxford University Press, USA",,320,0,English,,,,"0195331478,978-0-19-533147-9,978-0-19-533148-6",,,,,,,,,,,0,,,,,,,1,3943068,pdf,892b0695f95e645f76b1fb6c8176c24b,,,D:\\HDD4\\_missing\\892b0695f95e645f76b1fb6c8176c24b.pdf,0,2000-01-01 01:00:00,2016-04-03 02:51:08,1153000/892b0695f95e645f76b1fb6c8176c24b-d.jpg,,
15922640,"Analog Circuit Design, Volume 2: Immersion in the Black Art of Analog Design",,,,"Bob Dobkin, Jim Williams",2013,1,Newnes,,1268,0,English,,,,"0123978882,978-0-12-397888-2",,,,,,,,,,,0,,,,,,,1,106244929,pdf,895b26b810ad11f2459029a6fa65148d,,,D:\\HDD4\\_missing\\895b26b810ad11f2459029a6fa65148d.pdf,0,2000-01-01 01:00:00,2016-04-03 02:51:08,1153000/895b26b810ad11f2459029a6fa65148d-d.jpg,,
15922641,Holy Places of the Buddha Crystal Mirror 9,,Crystal Mirror Series,,Elizabeth Cook,1994,0,Dharma Publishing,,481,0,English,,,,"0898000017,9780898002447,0-89800-244-3",,,,,,,,,,,0,,,,,,,1,38976087,pdf,8989d98851b1f7475468d8ca6e3a874e,,,D:\\HDD4\\_missing\\8989d98851b1f7475468d8ca6e3a874e.pdf,0,2000-01-01 01:00:00,2016-04-03 02:51:08,1153000/8989d98851b1f7475468d8ca6e3a874e-d.jpg,,
15922637,Wedding Photography: Advanced Techniques for Digital Photographers,,,,Bill Hurter,2010,,Amherst Media,,125,0,English,,,,"1584289902,978-1-58428-990-6",,,,,,,,,,,0,,,,,,,1,8425218,pdf,890792d88e5afe7184530a7abdf647b7,,,D:\\HDD4\\_missing\\890792d88e5afe7184530a7abdf647b7.pdf,0,2000-01-01 01:00:00,2016-04-03 02:51:08,1153000/890792d88e5afe7184530a7abdf647b7-d.jpg,,
15922638,A Programmer's Companion to Algorithm Analysis,,,,Ernst L. Leiss,2006,1,Chapman and Hall/CRC,,255,0,English,,,,"1-58488-673-0,9781584886730",,,,,,,,,,,0,,,,,,,1,5601536,pdf,8907c839d10d6c7ca53cc135cc7f5801,,,D:\\HDD4\\_missing\\8907c839d10d6c7ca53cc135cc7f5801.pdf,0,2000-01-01 01:00:00,2016-04-03 02:51:08,1153000/8907c839d10d6c7ca53cc135cc7f5801-d.jpg,,
15922636,Using Humor to Maximize Learning: The Links between Positive Emotions and Education,,,,Mary Kay Morrison,2007,,R&L Education,,214,0,English,,,,"1-57886-731-2,978-1-57886-731-8,978-1-57886-732-5,1-57886-732-0",,,,,,,,,,,0,,,,,,,1,3161699,pdf,8903094f77cfd17b1e26d47282ba0afa,,,D:\\HDD4\\_missing\\8903094f77cfd17b1e26d47282ba0afa.pdf,0,2000-01-01 01:00:00,2016-04-03 02:51:08,1153000/8903094f77cfd17b1e26d47282ba0afa-d.jpg,,
15922634,Dictionary of Business Terms,,Barron's Business Guides,,Jack P. Friedman,2000,3rd,"Barron's Educational Series, Inc",,767,0,English,,,,"0-7641-1200-7,9780764112003",,,,,,,,,,,0,,,,,,,1,8876312,pdf,88f1542232359b383680148873268712,,,D:\\HDD4\\_missing\\88f1542232359b383680148873268712(1).pdf,0,2000-01-01 01:00:00,2016-04-03 02:51:08,1153000/88f1542232359b383680148873268712-d.jpg,,
15922635,Nanotechnology for Photovoltaics,,,,Loucas Tsakalakos,2010,0,CRC Press,,458,0,English,,,,"1420076744,978-1-4200-7674-5",,,,,,,,,,,0,,,,,,,1,40016240,pdf,89015066b039b311d5c17961db47ac27,,,D:\\HDD4\\_missing\\89015066b039b311d5c17961db47ac27(1).pdf,0,2000-01-01 01:00:00,2016-04-03 02:51:08,1153000/89015066b039b311d5c17961db47ac27-d.jpg,,
15922632,The Poverty of Clio: Resurrecting Economic History,,,,Francesco Boldizzoni,2011,,Princeton University Press,,232,0,English,,,,"0691144001,978-0-691-14400-9",,,,,,,,,,,0,,,,,,,1,3369547,pdf,88cdaaa043f7335d1f1fd814e7809610,,,D:\\HDD4\\_missing\\88cdaaa043f7335d1f1fd814e7809610.pdf,0,2000-01-01 01:00:00,2016-04-03 02:51:08,1153000/88cdaaa043f7335d1f1fd814e7809610-d.jpg,,
15922633,Engineering Fluid Mechanics,,,,"Donald F. Elger, Barbara C. Williams, Clayton T. Crowe, John A. Roberson",2012,10,Wiley,,688,0,English,,,,"1118164296,978-1-118-16429-7",,,,,,,,,,,0,,,,,,,1,90675360,pdf,88de3caf9c19be4aed9dc476581b6d6c,,,D:\\HDD4\\_missing\\88de3caf9c19be4aed9dc476581b6d6c.pdf,0,2000-01-01 01:00:00,2016-04-03 02:51:08,1153000/88de3caf9c19be4aed9dc476581b6d6c-d.jpg,,
15922630,RFID For Dummies,,,,Patrick J. Sweeney II,2005,1,For Dummies,,408,0,English,,,,"0-7645-7910-X,9780764579103",,,,,,,,,,,0,,,,,,,1,9509829,pdf,88b83f29ef4ac46671a6e74a5a567816,,,D:\\HDD4\\_missing\\88b83f29ef4ac46671a6e74a5a567816.pdf,0,2000-01-01 01:00:00,2016-04-03 02:51:08,1153000/88b83f29ef4ac46671a6e74a5a567816-d.jpg,,
15922631,Doing Social Work Research,,,,Roger Smith,2009,1,Open University Press,,200,0,English,,,,"0335235646,978-0-33-523564-3,978-0-33-523563-6",,,,,,,,,,,0,,,,,,,1,3271784,pdf,88c17a4d4ff4eba670da8ea813d6dc48,,,D:\\HDD4\\_missing\\88c17a4d4ff4eba670da8ea813d6dc48.pdf,0,2000-01-01 01:00:00,2016-04-03 02:51:08,1153000/88c17a4d4ff4eba670da8ea813d6dc48-d.jpg,,
15922628,Pseudo-Cyril of Jerusalem  On the Life and the Passion of Christ : A Coptic Apocryphon,,Supplements to Vigiliae Christianae,,van den Roelof Broek,2012,,BRILL,,228,0,English,,,,"9004237577,978-90-04-23757-5,978-90-04-24197-8",,,,,,,,,,,0,,,,,,,1,3631674,pdf,88a260e669e11f7039d22792d0cb41c7,,,D:\\HDD4\\_missing\\88a260e669e11f7039d22792d0cb41c7.pdf,0,2000-01-01 01:00:00,2016-04-03 02:51:08,1153000/88a260e669e11f7039d22792d0cb41c7-d.jpg,,
15922629,Statistical Methods in Spatial Epidemiology,,Wiley Series in Probability and Statistics,,Andrew B. Lawson,2006,2,Wiley,,424,0,English,,,,"0-470-01484-9,978-0-470-01484-4",,,,,,,,,,,0,,,,,,,1,5851741,pdf,88a85f0bf2795843af67a4248d48f5ee,,,D:\\HDD4\\_missing\\88a85f0bf2795843af67a4248d48f5ee.pdf,0,2000-01-01 01:00:00,2016-04-03 02:51:08,1153000/88a85f0bf2795843af67a4248d48f5ee-d.jpg,,
15922626,African American Folk Healing,,,,Stephanie Mitchem,2007,1,NYU Press,,189,0,English,,,,"0-8147-5731-6,978-0-8147-5731-4,978-0-8147-5732-1,0-8147-5732-4",,,,,,,,,,,0,,,,,,,1,3161034,pdf,8874772bf3f769c6d5cd0c2dfe60fe5e,,,D:\\HDD4\\_missing\\8874772bf3f769c6d5cd0c2dfe60fe5e(1).pdf,0,2000-01-01 01:00:00,2016-04-03 02:51:08,1153000/8874772bf3f769c6d5cd0c2dfe60fe5e-d.jpg,,
15922627,Accelerated Reliability and Durability Testing Technology,,Wiley Series in Systems Engineering and Management,,Lev M. Klyatis,2012,1,Wiley,,432,0,English,,,,"0470454652,978-0-470-45465-7",,,,,,,,,,,0,,,,,,,1,3337151,pdf,8876a1bc61a192b6a4f66d95dea6111b,,,D:\\HDD4\\_missing\\8876a1bc61a192b6a4f66d95dea6111b.pdf,0,2000-01-01 01:00:00,2016-04-03 02:51:08,1153000/8876a1bc61a192b6a4f66d95dea6111b-d.jpg,,
15922624,Cognitive Hypnotherapy: An Integrated Approach to the Treatment of Emotional Disorders,,,,Assen Alladin,2008,1,Wiley,,310,0,English,,,,"0470032510,978-0-470-03251-0,978-0-470-03247-3",,,,,,,,,,,0,,,,,,,1,3484261,pdf,886a16f9458ec5627e40feec87036ca8,,,D:\\HDD4\\_missing\\886a16f9458ec5627e40feec87036ca8.pdf,0,2000-01-01 01:00:00,2016-04-03 02:51:08,1153000/886a16f9458ec5627e40feec87036ca8-d.jpg,,
15922625,Retinal Degenerative Diseases,,Advances in Experimental Medicine and Biology,,"Joe G. Hollyfield, Robert E. Anderson, Matthew M. LaVail",2006,,Springer,,558,0,English,,,,"0-387-28464-8,978-0387-28464-4",,,,,,,,,,,0,,,,,,,1,18994826,pdf,886b162614eb43b10ebfccc8c74e2341,,,D:\\HDD4\\_missing\\886b162614eb43b10ebfccc8c74e2341.pdf,0,2000-01-01 01:00:00,2016-04-03 02:51:08,1153000/886b162614eb43b10ebfccc8c74e2341-d.jpg,,
15922622,"Reverse Mortgages and Linked Securities: The Complete Guide to Risk, Pricing, and Regulation",,Wiley Finance,,Vishaal B. Bhuyan,2010,1,Wiley,,188,0,English,,,,"0470584629,978-0-470-58462-0",,,,,,,,,,,0,,,,,,,1,3474491,pdf,885bf55d9403adada29ec79b69adbd3d,,,D:\\HDD4\\_missing\\885bf55d9403adada29ec79b69adbd3d.pdf,0,2000-01-01 01:00:00,2016-04-03 02:51:08,1153000/885bf55d9403adada29ec79b69adbd3d-d.jpg,,
15922623,Urban Landscapes: Environmental Networks and the Quality of Life,,,,Massimo Sargolini,2013,,Springer,,208,0,English,,,,"8847028795,978-88-470-2879-1,978-88-470-2880-7",,,,,,,10.1007/978-88-470-2880-7,,,,0,,,,,,,1,12715104,pdf,8863d8e0947019870854fac94adeeff4,,,D:\\HDD4\\_missing\\8863d8e0947019870854fac94adeeff4.pdf,0,2000-01-01 01:00:00,2016-04-03 02:51:08,1153000/8863d8e0947019870854fac94adeeff4-d.jpg,,
15922621,"Physics of the Impossible: A Scientific Exploration into the World of Phasers, Force Fields, Teleportation, and Time Travel",,,,Michio Kaku,2008,1st,Doubleday,,352,0,English,,,,"0385520697,978-0-385-52069-0",,,,,,,,,,,0,,,,,,,1,3929158,pdf,885437ba38370ded0db1b9ae5e41e857,,,D:\\HDD4\\_missing\\885437ba38370ded0db1b9ae5e41e857.pdf,0,2000-01-01 01:00:00,2016-04-03 02:51:08,1153000/885437ba38370ded0db1b9ae5e41e857-d.jpg,,
15922620,Oligomers - Polymer Composites  -Molecular Imprinting,,Advances in Polymer Science,,"B. Boutevin, C. Boyer, Ildiko Csetneki, G. David, Joseph S. Ferguson, Genoveva Filipcsei, Bing Gong, Songjun Li, Wuke Li, Adam R. Sanford, Andras Szilagyi, Guangfu Yang, Miklos Zrinyi",2007,,Springer,,217,0,English,,,,"3540468293,978-3-540-46829-5,978-3-540-46830-1",,,,,,,10.1007/978-3-540-46830-1,,,,0,,,,,,,1,8954772,pdf,883c4d7b899b9717e846e0182a593d46,,,D:\\HDD4\\_missing\\883c4d7b899b9717e846e0182a593d46.pdf,0,2000-01-01 01:00:00,2016-04-03 02:51:08,1153000/883c4d7b899b9717e846e0182a593d46-d.jpg,,
15922618,Spiritual Care in a Hospital Setting,,Empirical Studies in Theology,,"Smeets, W",2006,,BRILL,,290,0,English,,,,"90-04-15189-3,978-90-04-15189-5",,,,,,,,,,,0,,,,,,,1,3859481,pdf,88348982f8c952de11161e2297afb315,,,D:\\HDD4\\_missing\\88348982f8c952de11161e2297afb315.pdf,0,2000-01-01 01:00:00,2016-04-03 02:51:08,1153000/88348982f8c952de11161e2297afb315-d.jpg,,
15922619,Mastering Microsoft Lync Server 2013,,,,"Keith Hanna, Nathan Winters",2013,1,Sybex,,888,0,English,,,,"1118521323,978-1-118-52132-8,978-1-118-72858-1,978-1-118-73245-8,978-1-118-72863-5",,,,,,,,,,,0,,,,,,,1,78264227,pdf,883bb3722e870528d05adc14829a37c9,,,D:\\HDD4\\_missing\\883bb3722e870528d05adc14829a37c9.pdf,0,2000-01-01 01:00:00,2016-04-03 02:51:08,1153000/883bb3722e870528d05adc14829a37c9-d.jpg,,
15922616,Inside Secrets of Finding a Teaching Job: The Most Effective Search Methods for Both New and Experienced Educators,,,,"Jack Warner, Clyde Bryan, Diane Warner",2003,0,Jist Works,,192,0,English,,,,"1-56370-921-X,9781563709210",,,,,,,,,,,0,,,,,,,1,3476282,pdf,881cab9633e30f05c661ce078f49476b,,,D:\\HDD4\\_missing\\881cab9633e30f05c661ce078f49476b.pdf,0,2000-01-01 01:00:00,2016-04-03 02:51:08,1153000/881cab9633e30f05c661ce078f49476b-d.jpg,,
15922617,Historical Dictionary of Ancient Egyptian Warfare,,,,Robert G. Morkot,2003,,Scarecrow Press,,400,0,English,,,,"0-8108-4862-7,9780810848627",,,,,,,,,,,0,,,,,,,1,4412145,pdf,882689ce161959c85975dbb871923c11,,,D:\\HDD4\\_missing\\882689ce161959c85975dbb871923c11.pdf,0,2000-01-01 01:00:00,2016-04-03 02:51:08,1153000/882689ce161959c85975dbb871923c11-d.jpg,,
15922614,Functional Analysis of DNA and Chromatin,,Methods in Molecular Biology,,"Juan Carlos Stockert, Jes√∫s Espada, Alfonso Bl√°zquez-Castro",2013,,Humana Press,,300,0,English,,,,"1627037055,978-1-62703-705-1,978-1-62703-706-8",,,,,,,10.1007/978-1-62703-706-8,,,,0,,,,,,,1,7492335,pdf,88131a3dc85e2b8f08dec9235a769f5b,,,D:\\HDD4\\_missing\\88131a3dc85e2b8f08dec9235a769f5b.pdf,0,2000-01-01 01:00:00,2016-04-03 02:51:08,1153000/88131a3dc85e2b8f08dec9235a769f5b-d.jpg,,
15922615,Psychopathy and Law: A Practitioner's Guide,,,,"Helin√§ H√§kk√§nen-Nyholm, Jan-Olof Nyholm",2012,1,Wiley-Blackwell,,314,0,English,,,,"0470972386,978-0-470-97238-0,978-0-470-97237-3",,,,,,,,,,,0,,,,,,,1,3877886,pdf,88136082f0a4dcab4c78f0f972414235,,,D:\\HDD4\\_missing\\88136082f0a4dcab4c78f0f972414235.pdf,0,2000-01-01 01:00:00,2016-04-03 02:51:08,1153000/88136082f0a4dcab4c78f0f972414235-d.jpg,,
15922612,Apps entwickeln f√ºr iPhone und iPad,,,,Clemens Wagner Klaus M. Rodewig,2011,,Galileo Press GmbH,,516,0,German,,,,"3836214636,978-3-8362-1463-6",,,,,,,,,,,0,,,,,,,1,11656514,pdf,87e804b08964c64f2485684442406d6d,,,D:\\HDD4\\_missing\\87e804b08964c64f2485684442406d6d(1).pdf,0,2000-01-01 01:00:00,2016-04-03 02:51:08,1153000/87e804b08964c64f2485684442406d6d-d.jpg,,
15922613,"Dying, Bereavement, and the Healing Arts",,,,Gillie Bolton,2007,1,Jessica Kingsley Pub,,216,0,English,,,,"1843105160,978-1-84310-516-9",,,,,,,,,,,0,,,,,,,1,3418921,pdf,880cf256e046796bb84f9e41d1bd4024,,,D:\\HDD4\\_missing\\880cf256e046796bb84f9e41d1bd4024.pdf,0,2000-01-01 01:00:00,2016-04-03 02:51:08,1153000/880cf256e046796bb84f9e41d1bd4024-d.jpg,,
15922610,Open Services Innovation: Rethinking Your Business to Grow and Compete in a New Era,,,,Henry Chesbrough,2011,1,Jossey-Bass,,256,0,English,,,,"0470905743,978-0-470-90574-6",,,,,,,,,,,0,,,,,,,1,4071466,pdf,87dc4598c2de32e5d254887b7f98ea7f,,,D:\\HDD4\\_missing\\87dc4598c2de32e5d254887b7f98ea7f.pdf,0,2000-01-01 01:00:00,2016-04-03 02:51:08,1153000/87dc4598c2de32e5d254887b7f98ea7f-d.jpg,,
15922611,Reflective Network Therapy In The Preschool Classroom,,,,Gilbert Kliman,2011,,University Press of America,,390,0,English,,,,"0761854703,978-0-7618-5470-8,978-0-7618-5469-2",,,,,,,,,,,0,,,,,,,1,3267492,pdf,87df5a68319992cf6a78fc7f58cbf630,,,D:\\HDD4\\_missing\\87df5a68319992cf6a78fc7f58cbf630.pdf,0,2000-01-01 01:00:00,2016-04-03 02:51:08,1153000/87df5a68319992cf6a78fc7f58cbf630-d.jpg,,
15922608,A Tale of Two Cultures: Qualitative and Quantitative Research in the Social Sciences,,,,"Gary Goertz, James Mahoney",2012,,Princeton University Press,,248,0,English,,,,"0691149704,978-0-691-14970-7,978-0-691-14971-4",,,,,,,,,,,0,,,,,,,1,8743995,pdf,87c056ba2d59ef3009cae9540f7ba3bb,,,D:\\HDD4\\_missing\\87c056ba2d59ef3009cae9540f7ba3bb.pdf,0,2000-01-01 01:00:00,2016-04-03 02:51:08,1153000/87c056ba2d59ef3009cae9540f7ba3bb-d.jpg,,
15922609,Organisms and Artifacts: Design in Nature and Elsewhere,,Life and Mind: Philosophical Issues in Biology and Psychology,,Tim Lewens,2004,,A Bradford Book,,240,0,English,,,,"0-262-12261-8,9780262122610",,,,,,,,,,,0,,,,,,,1,3562459,pdf,87c0c8a1d5c413d20b53a7ec51c21d04,,,D:\\HDD4\\_missing\\87c0c8a1d5c413d20b53a7ec51c21d04.pdf,0,2000-01-01 01:00:00,2016-04-03 02:51:08,1153000/87c0c8a1d5c413d20b53a7ec51c21d04-d.jpg,,
15922606,Fermented Beverage Production,,,,"Andrew G.H. Lea, John R. Piggott",2003,2nd,Springer,,423,0,English,,,,"0306477068,978-0-306-47706-5,978-1-4615-0187-9",,,,,,,10.1007/978-1-4615-0187-9,,,,0,,,,,,,1,62931205,pdf,878f1b3c47fecbc3b5cb65e12299ee00,,,D:\\HDD4\\_missing\\878f1b3c47fecbc3b5cb65e12299ee00.pdf,0,2000-01-01 01:00:00,2016-04-03 02:51:08,1153000/878f1b3c47fecbc3b5cb65e12299ee00-d.jpg,,
15922607,Piano For Dummies,,,,Blake Neely,2009,2,For Dummies,,384,0,English,,,,"0470496444,978-0-470-49644-2",,,,,,,,,,,0,,,,,,,1,12385580,pdf,8792010c799a5119ce642cf61a7e0c39,,,D:\\HDD4\\_missing\\8792010c799a5119ce642cf61a7e0c39.pdf,0,2000-01-01 01:00:00,2016-04-03 02:51:08,1153000/8792010c799a5119ce642cf61a7e0c39-d.jpg,,
15922604,Electrical Safety and the Law,,,,"Ken Oldham-Smith, John M. Madden",2002,4,Wiley-Blackwell,,378,0,English,,,,"0-632-06001-8,9780632060016",,,,,,,,,,,0,,,,,,,1,3353696,pdf,875a9e0b583aa53a2ed774a74c9cb64f,,,D:\\HDD4\\_missing\\875a9e0b583aa53a2ed774a74c9cb64f(1).pdf,0,2000-01-01 01:00:00,2016-04-03 02:51:08,1153000/875a9e0b583aa53a2ed774a74c9cb64f-d.jpg,,
15922605,Helping Teens Work Through Grief,,Second Edition,,Mary Kelly Perschy,2004,2,Routledge,,184,0,English,,,,"0-415-94696-4,9780415946964,0-203-48790-7,0-203-57749-3",,,,,,,,,,,0,,,,,,,1,3490647,pdf,878d856fa1b611e3dba85febe9be03b7,,,D:\\HDD4\\_missing\\878d856fa1b611e3dba85febe9be03b7.pdf,0,2000-01-01 01:00:00,2016-04-03 02:51:08,1153000/878d856fa1b611e3dba85febe9be03b7-d.jpg,,
15922602,The Biology of Cancer,,,,Robert A. Weinberg,2006,1,Garland Science,,850,0,English,,,,"0-8153-4078-8,9780815340782,0-8153-4076-1",,,,,,,,,,,0,,,,,,,1,67147390,pdf,8747e7fe7decbf0faae0880c5f5e09d3,,,D:\\HDD4\\_missing\\8747e7fe7decbf0faae0880c5f5e09d3(1).pdf,0,2000-01-01 01:00:00,2016-04-03 02:51:08,1153000/8747e7fe7decbf0faae0880c5f5e09d3-d.jpg,,
15922603,Strategic Human Resource Management: A Guide to Action,,,,Michael Armstrong,2008,4th,Kogan Page,,256,0,English,,,,"0749453753,978-0-7494-5375-6",,,,,,,,,,,0,,,,,,,1,6163379,pdf,875584c898a559ae3573aa7ae709b87f,,,D:\\HDD4\\_missing\\875584c898a559ae3573aa7ae709b87f.pdf,0,2000-01-01 01:00:00,2016-04-03 02:51:08,1153000/875584c898a559ae3573aa7ae709b87f-d.jpg,,
15922600,What the IRS Doesn't Want You to Know: A CPA Reveals the Tricks of the Trade,,,,Martin S. Kaplan,2003,9,Wiley,,432,0,English,,,,"0-471-44972-5,9780471449720",,,,,,,,,,,0,,,,,,,1,10243267,pdf,87213c9ee046cd3261b8341498623d23,,,D:\\HDD4\\_missing\\87213c9ee046cd3261b8341498623d23.pdf,0,2000-01-01 01:00:00,2016-04-03 02:51:08,1153000/87213c9ee046cd3261b8341498623d23-d.jpg,,
15922601,Mathematical Modeling with Multidisciplinary Applications,,,,Xin-She Yang,2013,1,Wiley,,592,0,English,,,,"1118294416,978-1-118-29441-3",,,,,,,,,,,0,,,,,,,1,29174547,pdf,8742d8dea44da0ea74fe9ed098850600,,,D:\\HDD4\\_missing\\8742d8dea44da0ea74fe9ed098850600.pdf,0,2000-01-01 01:00:00,2016-04-03 02:51:08,1153000/8742d8dea44da0ea74fe9ed098850600-d.jpg,,
15922598,CRC Handbook of Liquid-Liquid Equilibrium Data of Polymer Solutions,,,,Christian Wohlfarth,2007,0,CRC Press,,688,0,English,,,,"1420067982,978-1-4200-6798-9",,,,,,,,,,,0,,,,,,,1,6405275,pdf,86e79f2d39818e22ccd66b5de1479104,,,D:\\HDD4\\_missing\\86e79f2d39818e22ccd66b5de1479104.pdf,0,2000-01-01 01:00:00,2016-04-03 02:51:08,1153000/86e79f2d39818e22ccd66b5de1479104-d.jpg,,
15922599,Death by Theory: A Tale of Mystery and Archaeological Theory,,,,Adrian Praetzellis,2011,Revised Edition,AltaMira Press,,198,0,English,,,,"0759119570,978-0-7591-1957-4,978-0-7591-1958-1,978-0-7591-1959-8",,,,,,,,,,,0,,,,,,,1,3163474,pdf,8720cbdbf0e5f179decaa79b44f5f591,,,D:\\HDD4\\_missing\\8720cbdbf0e5f179decaa79b44f5f591.pdf,0,2000-01-01 01:00:00,2016-04-03 02:51:08,1153000/8720cbdbf0e5f179decaa79b44f5f591-d.jpg,,
15922596,Networks-on-Chips: Theory and Practice,,Embedded Multi-Core Systems,,"Fayez Gebali, Haytham Elmiligi, Mohamed Watheq El-Kharashi",2009,0,CRC Press,,389,0,English,,,,"1420079786,978-1-4200-7978-4",,,,,,,,,,,0,,,,,,,1,4494281,pdf,86bfdae53195b01659359049d31b7592,,,D:\\HDD4\\_missing\\86bfdae53195b01659359049d31b7592.pdf,0,2000-01-01 01:00:00,2016-04-03 02:51:08,1153000/86bfdae53195b01659359049d31b7592-d.jpg,,
15922597,Mathematical Horizons for Quantum Physics,,"Lecture Notes Series, Institute for Mathematical Sciences, National University of Singapore",,"Huzihiro Araki, Huzihiro Araki, Berthold-Georg Englert, Leong-chuan Kwek",2010,1,World Scientific Publishing Company,,220,0,English,,,,"981-4313-31-9,978-981-4313-31-5",,,,,,,,,,,0,,,,,,,1,4313475,pdf,86d9a5298c4d0d1294b9491359da2af5,,,D:\\HDD4\\_missing\\86d9a5298c4d0d1294b9491359da2af5.pdf,0,2000-01-01 01:00:00,2016-04-03 02:51:08,1153000/86d9a5298c4d0d1294b9491359da2af5-d.jpg,,
15922595,Ion Beams in Materials Processing and Analysis,,,,"Bernd Schmidt, Klaus Wetzig",2012,,Springer,,400,0,English,,,,"321199355X,978-3-211-99355-2,978-3-211-99356-9,978-3-211-99357-6",,,,,,,10.1007/978-3-211-99356-9,,,,0,,,,,,,1,14028346,pdf,86a3647dada800a50e2d0c25a74e95ad,,,D:\\HDD4\\_missing\\86a3647dada800a50e2d0c25a74e95ad.pdf,0,2000-01-01 01:00:00,2016-04-03 02:51:08,1153000/86a3647dada800a50e2d0c25a74e95ad-d.jpg,,
15922593,"Diversity, Intercultural Encounters, and Education",,Routledge Research in Education,,"Susana Gon√ßalves, Markus A. Carpenter",2012,0,Routledge,,276,0,English,,,,"041563833X,978-0-415-63833-3,978-0-203-08407-6",,,,,,,,,,,0,,,,,,,1,3383183,pdf,8660ba252b25d2a0e6812131c0de1b96,,,D:\\HDD4\\_missing\\8660ba252b25d2a0e6812131c0de1b96(1).pdf,0,2000-01-01 01:00:00,2016-04-03 02:51:08,1153000/8660ba252b25d2a0e6812131c0de1b96-d.jpg,,
15922594,Intermediate Spectral Theory and Quantum Dynamics,,Progress in Mathematical Physics,,C√©sar R. de Oliveira,2008,,Birkh√§user,,410,0,English,,,,"3764387947,978-3-7643-8794-5,978-3-7643-8795-2",,,,,,,,,,,0,,,,,,,1,3333051,pdf,869441160c3466b61a2ada2126b7647f,,,D:\\HDD4\\_missing\\869441160c3466b61a2ada2126b7647f.pdf,0,2000-01-01 01:00:00,2016-04-03 02:51:08,1153000/869441160c3466b61a2ada2126b7647f-d.jpg,,
15922591,ATM Networks:Principles and Use,,Wiley-Teubner Communications,,Martin P. Clark,2012,,B.G.Teubner GmbH,,234,0,English,,,,"3519064480,978-3-519-06448-0,978-3-322-89939-2",,,,,,,10.1007/978-3-322-89939-2,,,,0,,,,,,,1,6793473,pdf,86517729b8b597872c707a51264ad751,,,D:\\HDD4\\_missing\\86517729b8b597872c707a51264ad751.pdf,0,2000-01-01 01:00:00,2016-04-03 02:51:08,1153000/86517729b8b597872c707a51264ad751-d.jpg,,
15922592,"A Passion for Facts: Social Surveys and the Construction of the Chinese Nation-State, 1900-1949",,Asia Pacific Modern,,Tong Lam,2011,0,University of California Press,,280,0,English,,,,"0520267869,978-0-520-26786-2",,,,,,,,,,,0,,,,,,,1,3198368,pdf,865316321b501b440ca558c0f97f799b,,,D:\\HDD4\\_missing\\865316321b501b440ca558c0f97f799b.pdf,0,2000-01-01 01:00:00,2016-04-03 02:51:08,1153000/865316321b501b440ca558c0f97f799b-d.jpg,,
15922588,Plant Biochemistry,,,,"P. M. Dey, J. B. Harborne",1997,1,Academic Press,,554,0,English,,,,"0-12-214674-3,9780122146749,0-12-799214-6",,,,,,,,,,,0,,,,,,,1,44212735,pdf,861aa4bc838cf213c5b420721c15f14b,,,D:\\HDD4\\_missing\\861aa4bc838cf213c5b420721c15f14b.pdf,0,2000-01-01 01:00:00,2016-04-03 02:51:08,1153000/861aa4bc838cf213c5b420721c15f14b-d.jpg,,
15922589,Evidence-Based Nursing Care for Stroke and Neurovascular Conditions,,,,Sheila A. Alexander,2013,1,Wiley-Blackwell,,312,0,English,,,,"0470958758,978-0-4709-5875-9",,,,,,,,,,,0,,,,,,,1,3324025,pdf,86340a288ea6ee10ffaeb83737a7d047,,,D:\\HDD4\\_missing\\86340a288ea6ee10ffaeb83737a7d047.pdf,0,2000-01-01 01:00:00,2016-04-03 02:51:08,1153000/86340a288ea6ee10ffaeb83737a7d047-d.jpg,,
15922590,Heterogeneous Computing with OpenCL,,,,"Benedict Gaster, Lee Howes, David R. Kaeli, Perhaad Mistry, Dana Schaa",2011,1,Morgan Kaufmann,,296,0,English,,,,"0123877660,978-0-12-387766-6",,,,,,,,,,,0,,,,,,,1,5532021,pdf,8641f69bb370e13446a4ec00392044dc,,,D:\\HDD4\\_missing\\8641f69bb370e13446a4ec00392044dc.pdf,0,2000-01-01 01:00:00,2016-04-03 02:51:08,1153000/8641f69bb370e13446a4ec00392044dc-d.jpg,,
15922586,Surviving Sexual Violence: A Guide to Recovery and Empowerment,,,,Thema Bryant-Davis,2011,,Rowman & Littlefield Publishers,,384,0,English,,,,"144220639X,978-1-4422-0639-7,978-1-4422-0641-0",,,,,,,,,,,0,,,,,,,1,3764054,pdf,861977b1f7be7c2c856ddf14be03720c,,,D:\\HDD4\\_missing\\861977b1f7be7c2c856ddf14be03720c.pdf,0,2000-01-01 01:00:00,2016-04-03 02:51:08,1153000/861977b1f7be7c2c856ddf14be03720c-d.jpg,,
15922587,French and Indian War,,,,"Laurie Collier Hillstrom, Kevin Hillstrom, Lawrence W. Baker, Julie Carnagie",2003,1,UXL,,240,0,English,,,,"0-7876-6560-6,9780787665609",,,,,,,,,,,0,,,,,,,1,5020036,pdf,861a933b96c8aa09863f721db5fd0cb6,,,D:\\HDD4\\_missing\\861a933b96c8aa09863f721db5fd0cb6.pdf,0,2000-01-01 01:00:00,2016-04-03 02:51:08,1153000/861a933b96c8aa09863f721db5fd0cb6-d.jpg,,
15922585,"Allusion, Authority, and Truth: Critical Perspectives on Greek Poetic and Rhetorical Praxis",,Trends in Classics - Supplementary Volumes,,Christos Tsagalis,2010,1,De Gruyter,,460,0,English,,,,"3110245396,978-3-11-024539-4,978-3-11-024540-0",,,,,,,,,,,0,,,,,,,1,4964099,pdf,860f4cc79358f8de5cde8506e44f761e,,,D:\\HDD4\\_missing\\860f4cc79358f8de5cde8506e44f761e(1).pdf,0,2000-01-01 01:00:00,2016-04-03 02:51:08,1153000/860f4cc79358f8de5cde8506e44f761e-d.jpg,,
15922583,"The Psychology of Prosocial Behavior: Group Processes, Intergroup Relations, and Helping",,,,"Stefan St√ºrmer, Mark Snyder",2009,1,Wiley-Blackwell,,464,0,English,,,,"1405178817,978-1-405-17881-5,978-1-4051-7880-8",,,,,,,,,,,0,,,,,,,1,3205949,pdf,85fef6575c1bf87c68d9c8bf6c562273,,,D:\\HDD4\\_missing\\85fef6575c1bf87c68d9c8bf6c562273.pdf,0,2000-01-01 01:00:00,2016-04-03 02:51:08,1153000/85fef6575c1bf87c68d9c8bf6c562273-d.jpg,,
15922584,Reproducing Kernel Hilbert Spaces in Probability and Statistics,,,,"Alain Berlinet, Christine Thomas-Agnan",2012,Softcover reprint of the original 1st ed. 2004,Springer,,355,0,English,,,,"1461347920,978-1-4613-4792-7,978-1-4419-9096-9",,,,,,,10.1007/978-1-4419-9096-9,,,,0,,,,,,,1,26560992,pdf,86064085692cc9d532fe989fb817724f,,,D:\\HDD4\\_missing\\86064085692cc9d532fe989fb817724f.pdf,0,2000-01-01 01:00:00,2016-04-03 02:51:08,1153000/86064085692cc9d532fe989fb817724f-d.jpg,,
15922581,Voices of Foreign Brides: The Roots and Development of Multiculturalism in Korea,,,,Choong Soon Kim,2011,,AltaMira Press,,272,0,English,,,,"0759120358,978-0-7591-2035-8,978-0-7591-2037-2",,,,,,,,,,,0,,,,,,,1,3279578,pdf,85e396fa95da7e83c03d70a30f094a3d,,,D:\\HDD4\\_missing\\85e396fa95da7e83c03d70a30f094a3d(1).pdf,0,2000-01-01 01:00:00,2016-04-03 02:51:08,1153000/85e396fa95da7e83c03d70a30f094a3d-d.jpg,,
15922582,Handbook of Graph Theory,,Discrete Mathematics and Its Applications,,"Jonathan L. Gross, Jay Yellen",2003,1,CRC Press,,1192,0,English,,,,"1-58488-090-2,9781584880905",,,,,,,,,,,0,,,,,,,1,11105368,pdf,85f57faf7051aed4bc827f707abea141,,,D:\\HDD4\\_missing\\85f57faf7051aed4bc827f707abea141.pdf,0,2000-01-01 01:00:00,2016-04-03 02:51:08,1153000/85f57faf7051aed4bc827f707abea141-d.jpg,,
15922579,Stephan Schiffman's 101 Successful Sales Strategies: Top Techniques to Boost Sales Today,,,,Stephan Schiffman,2005,,Adams Media,,275,0,English,,,,"1-59337-376-7,9781593373764,978-1-44050-087-9",,,,,,,,,,,0,,,,,,,1,3789363,pdf,85dae9a25e1828d711f679ca18fe964e,,,D:\\HDD4\\_missing\\85dae9a25e1828d711f679ca18fe964e.pdf,0,2000-01-01 01:00:00,2016-04-03 02:51:08,1153000/85dae9a25e1828d711f679ca18fe964e-d.jpg,,
15922580,The Manager's Pocket Calculator: A Quick Guide to Essential Business Formulas and Ratios,,,,Michael C. Thomsett,2010,,AMACOM,,288,0,English,,,,"0-8144-1635-7,978-0-8144-1635-8",,,,,,,,,,,0,,,,,,,1,3323862,pdf,85dd826f6ec7f7634a6b7c091cb421af,,,D:\\HDD4\\_missing\\85dd826f6ec7f7634a6b7c091cb421af(1).pdf,0,2000-01-01 01:00:00,2016-04-03 02:51:08,1153000/85dd826f6ec7f7634a6b7c091cb421af-d.jpg,,
15922577,Psychological Approaches to Generalized Anxiety Disorder: A Clinician's Guide to Assessment and Treatment,,Series in Anxiety and Related Disorders,,Holly Hazlett-Stevens,2008,,Springer,,190,0,English,,,,"0387768696,978-0-387-76869-4,978-0-387-76870-0",,,,,,,10.1007/978-0-387-76870-0,,,,0,,,,,,,1,3359147,pdf,8575ea4cc2709f1078b1d300202146ca,,,D:\\HDD4\\_missing\\8575ea4cc2709f1078b1d300202146ca.pdf,0,2000-01-01 01:00:00,2016-04-03 02:51:08,1153000/8575ea4cc2709f1078b1d300202146ca-d.jpg,,
15922578,Anesthesia and the Fetus,,,,"Yehuda Ginosar, Felicity Reynolds, Stephen H. Halpern, Carl Weiner",2013,1,Wiley-Blackwell,,418,0,English,,,,"1444337076,978-1-4443-3707-5",,,,,,,,,,,0,,,,,,,1,4429984,pdf,85bca356230a650c290e7741d6d7dd71,,,D:\\HDD4\\_missing\\85bca356230a650c290e7741d6d7dd71.pdf,0,2000-01-01 01:00:00,2016-04-03 02:51:08,1153000/85bca356230a650c290e7741d6d7dd71-d.jpg,,
15922575,"Born Entrepreneurs, Born Leaders: How Your Genes Affect Your Work Life",,,,Scott Shane,2010,1,"Oxford University Press, USA",,288,0,English,,,,"0195373421,978-0-19-537342-4",,,,,,,,,,,0,,,,,,,1,3574179,pdf,85666835d86e70803d7a4590bf1ccc0b,,,D:\\HDD4\\_missing\\85666835d86e70803d7a4590bf1ccc0b.pdf,0,2000-01-01 01:00:00,2016-04-03 02:51:08,1153000/85666835d86e70803d7a4590bf1ccc0b-d.jpg,,
15922576,De Havilland Comet - Airliner Tech Vol. 7,,,,Kev Darling,2001,0,Specialty Press,,100,0,English,,,,"1-58007-036-1,9781580070362",,,,,,,,,,,0,,,,,,,1,72275267,pdf,856b9dd8301dae2b68da0e70755e7045,,,D:\\HDD4\\_missing\\856b9dd8301dae2b68da0e70755e7045.pdf,0,2000-01-01 01:00:00,2016-04-03 02:51:08,1153000/856b9dd8301dae2b68da0e70755e7045-d.jpg,,
15922573,Historical Dictionary of Film Noir,,Historical Dictionaries of Literature and the Arts,,Andrew Spicer,2010,,Scarecrow Press,,532,0,English,,,,"0810859602,978-0-8108-5960-9,978-0-8108-7378-0",,,,,,,,,,,0,,,,,,,1,4164521,pdf,855ac246ce4e6f4a7a89564dff62d086,,,D:\\HDD4\\_missing\\855ac246ce4e6f4a7a89564dff62d086.pdf,0,2000-01-01 01:00:00,2016-04-03 02:51:08,1153000/855ac246ce4e6f4a7a89564dff62d086-d.jpg,,
15922574,Enhanced Recovery Methods for Heavy Oil and Tar Sands,,,,James G. Speight,2009,1,Gulf Publishing Company,,354,0,English,,,,"1-933762-25-X,978-1-933762-25-8",,,,,,,,,,,0,,,,,,,1,8971086,pdf,8560226c42bb2da35f433293b3383c84,,,D:\\HDD4\\_missing\\8560226c42bb2da35f433293b3383c84.pdf,0,2000-01-01 01:00:00,2016-04-03 02:51:08,1153000/8560226c42bb2da35f433293b3383c84-d.jpg,,
15922571,Diseases of the Human Body,,Diseases of the Human Body (Tamporo),,"Carol D. Tamparo PhD  CMA-A (AAMA), Marcia (Marti) A. Lewis EdD  RN  CMA-AC (AAMA)",2011,5,F.A. Davis Company,,544,0,English,,,,"0-8036-2505-7,978-0-8036-2505-1",,,,,,,,,,,0,,,,,,,1,100035823,pdf,8552a7603a4611572cf42310049debe6,,,D:\\HDD4\\_missing\\8552a7603a4611572cf42310049debe6.pdf,0,2000-01-01 01:00:00,2016-04-03 02:51:08,1153000/8552a7603a4611572cf42310049debe6-d.jpg,,
15922572,Mathematical Lives: Protagonists of the Twentieth Century From Hilbert to Wiles,,,,"CLAUDIO BARTOCCI, Renato Betti, Angelo Guerraggio, Roberto Lucchetti, Kim Williams",2010,,Springer,,330,0,English,,,,"3642136052,978-3-642-13605-4,978-3-642-13606-1",,,,,,,10.1007/978-3-642-13606-1,,,,0,,,,,,,1,3333121,pdf,855a37229279d102929f0d0f58b2716f,,,D:\\HDD4\\_missing\\855a37229279d102929f0d0f58b2716f.pdf,0,2000-01-01 01:00:00,2016-04-03 02:51:08,1153000/855a37229279d102929f0d0f58b2716f-d.jpg,,
15922569,Knockout: The Boxer and Boxing in American Cinema,,,,Leger Grindon,2011,,University Press of Mississippi,,320,0,English,,,,"1604739886,978-1-60473-988-6,978-1-60473-989-3",,,,,,,,,,,0,,,,,,,1,4287472,pdf,850fc5066760ea9807e1235e69b6df1e,,,D:\\HDD4\\_missing\\850fc5066760ea9807e1235e69b6df1e.pdf,0,2000-01-01 01:00:00,2016-04-03 02:51:08,1153000/850fc5066760ea9807e1235e69b6df1e-d.jpg,,
15922570,Data Converters,,,,Franco Maloberti,2007,,Springer,,440,0,English,,,,"0815148178,978-0-387-32485-2,0-387-32485-2,0-387-32486-0,978-0-387-32486-9",,,,,,,,,,,0,,,,,,,1,20862899,pdf,851f360af83b7d6cd8987db9b4cec70c,,,D:\\HDD4\\_missing\\851f360af83b7d6cd8987db9b4cec70c.pdf,0,2000-01-01 01:00:00,2016-04-03 02:51:08,1153000/851f360af83b7d6cd8987db9b4cec70c-d.jpg,,
15922567,Kallikrein-related peptidases,,,,Manfred Schmitt,2012,1,de Gruyter,,409,0,English,,,,"3110260360,978-3-11-026036-6,978-3-11-026037-3,978-3-11-030358-2,978-3-11-030366-7",,,,,,,,,,,0,,,,,,,1,4541230,pdf,84f35b94883ec8008701d9c584dee584,,,D:\\HDD4\\_missing\\84f35b94883ec8008701d9c584dee584.pdf,0,2000-01-01 01:00:00,2016-04-03 02:51:08,1153000/84f35b94883ec8008701d9c584dee584-d.jpg,,
15922568,Environmental Science,,,,"G. Tyler Miller, Scott Spoolman",2010,13,Cengage Learning,,552,0,English,,,,"0-495-56016-2,978-0-495-56016-6,978-0-495-56017-3,0-495-56017-0",,,,,,,,,,,0,,,,,,,1,42546666,pdf,8505c76dc327b2f2e4bcbf84ac306081,,,D:\\HDD4\\_missing\\8505c76dc327b2f2e4bcbf84ac306081.pdf,0,2000-01-01 01:00:00,2016-04-03 02:51:08,1153000/8505c76dc327b2f2e4bcbf84ac306081-d.jpg,,
15922565,Troubleshooting Vacuum Systems: Steam Turbine Surface Condensers and Refinery Vacuum Towers,,,,Norman P. Lieberman,2012,1,Wiley-Scrivener,,280,0,English,,,,"1118290348,978-1-118-29034-7",,,,,,,,,,,0,,,,,,,1,3604050,pdf,84c0d812ddf23e531077ae57dba9175e,,,D:\\HDD4\\_missing\\84c0d812ddf23e531077ae57dba9175e.pdf,0,2000-01-01 01:00:00,2016-04-03 02:51:08,1153000/84c0d812ddf23e531077ae57dba9175e-d.jpg,,
15922566,The Fundamentals of Landscape Architecture,,,,Tim Waterman,2009,0,Fairchild Books,,176,0,English,,,,"2940373914,978-2-940373-91-8",,,,,,,,,,,0,,,,,,,1,44286017,pdf,84dc06c53bd75419fbf662d00a95a905,,,D:\\HDD4\\_missing\\84dc06c53bd75419fbf662d00a95a905.pdf,0,2000-01-01 01:00:00,2016-04-03 02:51:08,1153000/84dc06c53bd75419fbf662d00a95a905-d.jpg,,
15922563,Gastrointestinal Oncology,,,,"Spranger, Abbruzzese, Davies, Udwadia, Parkin, Jumar, Pemberton, Bhugra, Trobe, Lynch, D.A. Nyberg, W. Holzgreve, Parthenon, Shankie, Mehta, Pamela Mason, Mark Freed, James L. Abbruzzese, Douglas B. Evans, Christopher G. Willett, Cecilia Fenoglio-Preiser",2004,1,"Oxford University Press, USA",,948,0,English,,,,"0-19-513372-2,9780195133721",,,,,,,,,,,0,,,,,,,1,24745113,pdf,84b40482d6b68cfe36b6b398a11eabb2,,,D:\\HDD4\\_missing\\84b40482d6b68cfe36b6b398a11eabb2.pdf,0,2000-01-01 01:00:00,2016-04-03 02:51:08,1153000/84b40482d6b68cfe36b6b398a11eabb2-d.jpg,,
15922564,Schizophrenia: A New Guide for Clinicians,,Medical Psychiatry Series,,John G. Csernansky,2002,1,CRC Press,,352,0,English,,,,"0-8247-0642-0,9780824706425",,,,,,,,,,,0,,,,,,,1,3596006,pdf,84bfc225df72a1af34f66851564a88af,,,D:\\HDD4\\_missing\\84bfc225df72a1af34f66851564a88af.pdf,0,2000-01-01 01:00:00,2016-04-03 02:51:08,1153000/84bfc225df72a1af34f66851564a88af-d.jpg,,
15922561,What the Tortoise Taught Us: The Story of Philosophy,,,,Burton Porter,2010,,Rowman & Littlefield Publishers,,200,0,English,,,,"1442205512,978-1-4422-0551-2,978-1-4422-0553-6",,,,,,,,,,,0,,,,,,,1,3730910,pdf,848278f78153b47aca6932f02c30f3de,,,D:\\HDD4\\_missing\\848278f78153b47aca6932f02c30f3de.pdf,0,2000-01-01 01:00:00,2016-04-03 02:51:08,1153000/848278f78153b47aca6932f02c30f3de-d.jpg,,
15922562,Truth,,Princeton Foundations of Contemporary Philosophy,,"Alexis G. Burgess, John P. Burgess",2011,1ST,Princeton University Press,,176,0,English,,,,"069114401X,978-0-691-14401-6",,,,,,,,,,,0,,,,,,,1,3205843,pdf,84852ba51627a06b5c31cba9593be443,,,D:\\HDD4\\_missing\\84852ba51627a06b5c31cba9593be443.pdf,0,2000-01-01 01:00:00,2016-04-03 02:51:08,1153000/84852ba51627a06b5c31cba9593be443-d.jpg,,
15922559,Analog Circuits and Devices,,Principles and Applications in Engineering,,Wai-Kai Chen,2003,1,CRC Press,,512,0,English,,,,"0-8493-1736-3,9780849317361",,,,,,,,,,,0,,,,,,,1,26029375,pdf,84778fb4879dbe7202392034613073be,,,D:\\HDD4\\_missing\\84778fb4879dbe7202392034613073be.pdf,0,2000-01-01 01:00:00,2016-04-03 02:51:08,1153000/84778fb4879dbe7202392034613073be-d.jpg,,
15922560,Multiparadigm Constraint Programming Languages,,Cognitive Technologies,,Petra Hofstedt,2011,,Springer,,190,0,English,,,,"3642173292,978-3-642-17329-5,978-3-642-17330-1",,,,,,,10.1007/978-3-642-17330-1,,,,0,,,,,,,1,2426998,pdf,847fc4dd66b67a7b2180263d3b0750c5,,,D:\\HDD4\\_missing\\847fc4dd66b67a7b2180263d3b0750c5.pdf,0,2000-01-01 01:00:00,2016-04-03 02:51:08,1153000/847fc4dd66b67a7b2180263d3b0750c5-d.jpg,,
15922557,Dictionary of Typography and its Accessory Arts,,"Cambridge Library Collection - History of Printing, Publishing and Libraries",,John Southward,2010,1,Cambridge University Press,,200,0,English,,,,"1108009069,978-1-108-00906-5",,,,,,,,,,,0,,,,,,,1,5272099,pdf,84413ae3d0953090f59ec6e5ae5b3ee3,,,D:\\HDD4\\_missing\\84413ae3d0953090f59ec6e5ae5b3ee3.pdf,0,2000-01-01 01:00:00,2016-04-03 02:51:08,1153000/84413ae3d0953090f59ec6e5ae5b3ee3-d.jpg,,
15922558,"Be Big: Step Up, Step Out, Be Bold: Daring to Do Our Best Work Together",,,,"Judith H. Katz, Frederick A. Miller",2008,,Berrett-Koehler Publishers,,85,0,English,,,,"1576754529,978-1-57675-452-8,978-1-57675-784-0",,,,,,,,,,,0,,,,,,,1,1124682,pdf,845a8a0777a11cc9aa0abe9a2c3fbb12,,,D:\\HDD4\\_missing\\845a8a0777a11cc9aa0abe9a2c3fbb12.pdf,0,2000-01-01 01:00:00,2016-04-03 02:51:08,1153000/845a8a0777a11cc9aa0abe9a2c3fbb12-d.jpg,,
15922555,Understanding Modern Transistors and Diodes,,,,David L. Pulfrey,2010,1,Cambridge University Press,,354,0,English,,,,"0521514606,978-0-521-51460-6",,,,,,,,,,,0,,,,,,,1,3211305,pdf,841d6a4a8496245d15ca897832ef308a,,,D:\\HDD4\\_missing\\841d6a4a8496245d15ca897832ef308a.pdf,0,2000-01-01 01:00:00,2016-04-03 02:51:08,1153000/841d6a4a8496245d15ca897832ef308a-d.jpg,,
15922556,Bananas and Plantains,,Crop Production Science in Horticulture,,"Victor G. Sa√∫co, John C. Robinson",2010,Second,CABI,,320,0,English,,,,"1845936582,978-1-84593-658-7",,,,,,,,,,,0,,,,,,,1,5350468,pdf,8424a8b2f0f565cbbffca723ddb9616c,,,D:\\HDD4\\_missing\\8424a8b2f0f565cbbffca723ddb9616c.pdf,0,2000-01-01 01:00:00,2016-04-03 02:51:08,1153000/8424a8b2f0f565cbbffca723ddb9616c-d.jpg,,
15922553,"On-Premise Catering: Hotels, Convention & Conference Centers, and Clubs",,,,"Patti J. Shock, John M. Stefanelli",2000,1,Wiley,,448,0,English,,,,"0-471-38908-0,9780471389088",,,,,,,,,,,0,,,,,,,1,18279808,pdf,8400c433078c8e1e8f5593cd3a9f8a4f,,,D:\\HDD4\\_missing\\8400c433078c8e1e8f5593cd3a9f8a4f.pdf,0,2000-01-01 01:00:00,2016-04-03 02:51:08,1153000/8400c433078c8e1e8f5593cd3a9f8a4f-d.jpg,,
15922554,Society at a Glance: OECD Social Indicators,,,,Organization for Economic Cooperation and Development OECD,2009,,Organization for Economic Cooperation and Development,,164,0,English,,,,"926404938X,978-92-64-04938-3",,,,,,,,,,,0,,,,,,,1,10830730,pdf,8401acb4be4eac2283e6e680007cb45c,,,D:\\HDD4\\_missing\\8401acb4be4eac2283e6e680007cb45c(1).pdf,0,2000-01-01 01:00:00,2016-04-03 02:51:08,1153000/8401acb4be4eac2283e6e680007cb45c-d.jpg,,
15922551,Statistics: A Tool for Social Research,,,,Joseph  F. Healey,2008,8,Wadsworth Publishing,,512,0,English,,,,"0-495-09655-5,978-0-495-09655-9",,,,,,,,,,,0,,,,,,,1,3059443,pdf,83ec6fce4b39cedf034b52e10cc726e3,,,D:\\HDD4\\_missing\\83ec6fce4b39cedf034b52e10cc726e3.pdf,0,2000-01-01 01:00:00,2016-04-03 02:51:08,1153000/83ec6fce4b39cedf034b52e10cc726e3-d.jpg,,
15922552,Anxiety and Substance Use Disorders: The Vicious Cycle of Comorbidity,,Series in Anxiety and Related Disorders,,"Sherry H. Stewart, Patricia Conrod",2007,,Springer,,282,0,English,,,,"0387742891,978-0-387-74289-2,978-0-387-74290-8",,,,,,,,,,,0,,,,,,,1,3241299,pdf,83f19dbe377044c072c4de5a2be6fe2c,,,D:\\HDD4\\_missing\\83f19dbe377044c072c4de5a2be6fe2c.pdf,0,2000-01-01 01:00:00,2016-04-03 02:51:08,1153000/83f19dbe377044c072c4de5a2be6fe2c-d.jpg,,
15922549,Building Web Sites All-in-One For Dummies,,,,"Claudia Snell, Doug Sahlin",2009,2,For Dummies,,792,0,English,,,,"0470385413,978-0-470-38541-8",,,,,,,,,,,0,,,,,,,1,28936217,pdf,83d402a8b6d2aef5a7640009beb1d49b,,,D:\\HDD4\\_missing\\83d402a8b6d2aef5a7640009beb1d49b.pdf,0,2000-01-01 01:00:00,2016-04-03 02:51:08,1153000/83d402a8b6d2aef5a7640009beb1d49b-d.jpg,,
15922550,Philosophy of Music: an Introduction,,,,R.A. Sharpe,2004,,Acumen Publishing Ltd,,256,0,English,,,,"1-84465-000-6,9781844650002,1-84465-001-4",,,,,,,,,,,0,,,,,,,1,3306149,pdf,83e6834c235ff2c668d69a7c2c780efe,,,D:\\HDD4\\_missing\\83e6834c235ff2c668d69a7c2c780efe.pdf,0,2000-01-01 01:00:00,2016-04-03 02:51:08,1153000/83e6834c235ff2c668d69a7c2c780efe-d.jpg,,
15922547,"The Manager's Guide to HR: Hiring, Firing, Performance Evaluations, Documentation, Benefits, and Everything Else You Need to Know",,,,Max Muller,2009,,AMACOM,,304,0,English,,,,"0-8144-1076-6,978-0-8144-1076-9",,,,,,,,,,,0,,,,,,,1,3634077,pdf,83c6152db65b028bcc018e21db64aa10,,,D:\\HDD4\\_missing\\83c6152db65b028bcc018e21db64aa10.pdf,0,2000-01-01 01:00:00,2016-04-03 02:51:08,1153000/83c6152db65b028bcc018e21db64aa10-d.jpg,,
15922548,Multilingualism in the Graeco-Roman Worlds,,,,"Dr Alex Mullen, Dr Patrick James",2012,,Cambridge University Press,,405,0,English,,,,"1107013860,978-1-107-01386-5",,,,,,,,,,,0,,,,,,,1,6957051,pdf,83d144c556dbd8272bd026b3e7f4346b,,,D:\\HDD4\\_missing\\83d144c556dbd8272bd026b3e7f4346b.pdf,0,2000-01-01 01:00:00,2016-04-03 02:51:08,1153000/83d144c556dbd8272bd026b3e7f4346b-d.jpg,,
15922545,Adaptive WCDMA: Theory and Practice,,,,Savo G. Glisic,2003,1,Wiley,,628,0,English,,,,"0-470-84825-1,9780470848258",,,,,,,,,,,0,,,,,,,1,11254984,pdf,839d230fca2453196b1ba5ebd75774ff,,,D:\\HDD4\\_missing\\839d230fca2453196b1ba5ebd75774ff.pdf,0,2000-01-01 01:00:00,2016-04-03 02:51:08,1153000/839d230fca2453196b1ba5ebd75774ff-d.jpg,,
15922546,Open Grave: Secrets of the Undead: A 4th Edition D&D Supplement,,,,"Bruce R. Cordell, Eytan Bernstein, Brian R. James",2009,0,Wizards of the Coast,,224,0,English,,,,"0786950692,978-0-7869-5069-0",,,,,,,,,,,0,,,,,,,1,17239900,pdf,83bd728cfcb53707a9c1d5f831176d17,,,D:\\HDD4\\_missing\\83bd728cfcb53707a9c1d5f831176d17(1).pdf,0,2000-01-01 01:00:00,2016-04-03 02:51:08,1153000/83bd728cfcb53707a9c1d5f831176d17-d.jpg,,
15922543,Programming Languages: Principles and Paradigms,,Undergraduate Topics in Computer Science,,"Maurizio Gabbrielli, Simone Martini",2010,,Springer,,440,0,English,,,,"1848829132,978-1-84882-913-8,978-1-84882-914-5",,,,,,,10.1007/978-1-84882-914-5,,,,0,,,,,,,1,3366039,pdf,8376d164757ac22d301abeb4348862fe,,,D:\\HDD4\\_missing\\8376d164757ac22d301abeb4348862fe(1).pdf,0,2000-01-01 01:00:00,2016-04-03 02:51:08,1153000/8376d164757ac22d301abeb4348862fe-d.jpg,,
15922544,Improving Patient Treatment Adherence: A Clinician's Guide,,,,Hayden Bosworth,2010,,Springer,,300,0,English,,,,"1441958657,978-1-4419-5865-5,978-1-4419-5866-2",,,,,,,10.1007/978-1-4419-5866-2,,,,0,,,,,,,1,18788563,pdf,838e66a2a879fd22304598bd43c53daa,,,D:\\HDD4\\_missing\\838e66a2a879fd22304598bd43c53daa.pdf,0,2000-01-01 01:00:00,2016-04-03 02:51:08,1153000/838e66a2a879fd22304598bd43c53daa-d.jpg,,
15922542,Encyclopedia Of Medieval Literature,,Encyclopedia of World Literature,,Jay Ruud,2005,,Facts on File,,734,0,English,,,,"0-8160-5497-5,9780816054978",,,,,,,,,,,0,,,,,,,1,4218098,pdf,83757632c94871f3ca985e2ab3931a18,,,D:\\HDD4\\_missing\\83757632c94871f3ca985e2ab3931a18.pdf,0,2000-01-01 01:00:00,2016-04-03 02:51:08,1153000/83757632c94871f3ca985e2ab3931a18-d.jpg,,
15922540,Frommer's Las Vegas 2013,,Frommer's Color Complete,,Rick Garman,2012,8,Frommers,,384,0,English,,,,"1118288548,978-1-118-28854-2,978-1-118-33380-8,978-1-118-33495-9,978-1-118-33160-6",,,,,,,,,,,0,,,,,,,1,133810927,pdf,83405cc526fc098b6ba7ba28528e1e76,,,D:\\HDD4\\_missing\\83405cc526fc098b6ba7ba28528e1e76.pdf,0,2000-01-01 01:00:00,2016-04-03 02:51:08,1153000/83405cc526fc098b6ba7ba28528e1e76-d.jpg,,
15922541,Philosophy and the Jewish Tradition : Lectures and Essays,,"Studies in Jewish history and culture, No. 34",,"Aryeh Leo Motzkin, Yehuda Halper, Yehuda Halper, Eva Brann",2011,1st,Brill,,162,0,English,,,,"9004217703,978-90-04-21770-6",,,,,,,,,,,0,,,,,,,1,3190375,pdf,835373680133421f5a915dbba4973abf,,,D:\\HDD4\\_missing\\835373680133421f5a915dbba4973abf.pdf,0,2000-01-01 01:00:00,2016-04-03 02:51:08,1153000/835373680133421f5a915dbba4973abf-d.jpg,,
15922538,Time-Triggered Communication,,Embedded Systems,,Roman Obermaisser,2011,1,CRC Press,,575,0,English,,,,"1439846618,978-1-4398-4661-2",,,,,,,,,,,0,,,,,,,1,7434105,pdf,830b476e046e18dceb00d6d53a386c81,,,D:\\HDD4\\_missing\\830b476e046e18dceb00d6d53a386c81.pdf,0,2000-01-01 01:00:00,2016-04-03 02:51:08,1153000/830b476e046e18dceb00d6d53a386c81-d.jpg,,
15922539,"Medically Unexplained Symptoms, Somatisation and Bodily Distress: Developing Better Clinical Services",,,,"Francis Creed, Peter Henningsen, Per Fink",2011,1,Cambridge University Press,,266,0,English,,,,"0521762235,978-0-521-76223-6",,,,,,,,,,,0,,,,,,,1,3741367,pdf,832a6453558dae6dbe7a00328380720d,,,D:\\HDD4\\_missing\\832a6453558dae6dbe7a00328380720d.pdf,0,2000-01-01 01:00:00,2016-04-03 02:51:08,1153000/832a6453558dae6dbe7a00328380720d-d.jpg,,
15922536,Prescription for Healing: 365 Daily Devotions,,,,Mark Brazee,2003,,Harrison House,,374,0,English,,,,"1-57794-599-9,9781577945994",,,,,,,,,,,0,,,,,,,1,3294859,pdf,82c1e5812f47d02ea58f858eca32ebeb,,,D:\\HDD4\\_missing\\82c1e5812f47d02ea58f858eca32ebeb(1).pdf,0,2000-01-01 01:00:00,2016-04-03 02:51:08,1153000/82c1e5812f47d02ea58f858eca32ebeb-d.jpg,,
15922537,A Guide to Teaching Development Psychology,,,,"Elizabeth Brestan Knight, Ember L. Lee",2008,1,Wiley-Blackwell,,280,0,English,,,,"1405157801,978-1-405-15780-3,978-1-4051-5781-0",,,,,,,,,,,0,,,,,,,1,3348508,pdf,82e42a318eb86ee3789bc468d19ef837,,,D:\\HDD4\\_missing\\82e42a318eb86ee3789bc468d19ef837.pdf,0,2000-01-01 01:00:00,2016-04-03 02:51:08,1153000/82e42a318eb86ee3789bc468d19ef837-d.jpg,,
15922535,Advances in Collaborative Civil Aeronautical Multidisciplinary Design Optimization,,Progress in Astronautics and Aeronautics,,"E. Kesseler, M. Guenov",2009,,AIAA,,456,0,English,,,,"1600867251,978-1-60086-725-5",,,,,,,,,,,0,,,,,,,1,23480482,pdf,8266e04cb03abca01c3eb98585cb9a58,,,D:\\HDD4\\_missing\\8266e04cb03abca01c3eb98585cb9a58.pdf,0,2000-01-01 01:00:00,2016-04-03 02:51:08,1153000/8266e04cb03abca01c3eb98585cb9a58-d.jpg,,
15922533,Quantum Invariants of Knots and 3-Manifolds,,"De Gruyter Studies in Mathematics, Vol. 18",,Vladimir G. Turaev,2010,2,De Gruyter,,592,0,English,,,,"3110221837,978-3-11-022183-1,978-3-11-022184-8",,,,,,,,,,,0,,,,,,,1,3101095,pdf,8249068189e27e05d3c24f3396ba4443,,,D:\\HDD4\\_missing\\8249068189e27e05d3c24f3396ba4443.pdf,0,2000-01-01 01:00:00,2016-04-03 02:51:08,1153000/8249068189e27e05d3c24f3396ba4443-d.jpg,,
15922534,"Psychiatry and Heart Disease: The Mind, Brain, and Heart",,World Psychiatric Association,,"Michelle Riba, Lawson Wulsin, Melvyn Rubenfire, Divy Ravindranath",2011,1,Wiley-Blackwell,,272,0,English,,,,"0470685808,978-0-470-68580-8",,,,,,,,,,,0,,,,,,,1,3893954,pdf,82649b68d594e33f446a725176213dbb,,,D:\\HDD4\\_missing\\82649b68d594e33f446a725176213dbb(1).pdf,0,2000-01-01 01:00:00,2016-04-03 02:51:08,1153000/82649b68d594e33f446a725176213dbb-d.jpg,,
15922531,The Future of Leadership: Today's Top Leadership Thinkers Speak to Tomorrow's Leaders,,,,"Thomas Cummings, Warren Bennis, Gretchen M. Spreitzer, Thomas G. Cummings",2001,1,Jossey-Bass,,352,0,English,,,,"0-7879-5567-1,9780787955670",,,,,,,,,,,0,,,,,,,1,8570752,pdf,821c1ba2ef1c1c73247e6c1f6dd58054,,,D:\\HDD4\\_missing\\821c1ba2ef1c1c73247e6c1f6dd58054.pdf,0,2000-01-01 01:00:00,2016-04-03 02:51:08,1153000/821c1ba2ef1c1c73247e6c1f6dd58054-d.jpg,,
15922532,Paradox,,Central Problems of Philosophy,,Doris Olin,2003,1st,Acumen Publishing,,222,0,English,,,,"1-902683-81-1,9781902683812,1-902683-82-X",,,,,,,,,,,0,,,,,,,1,3576089,pdf,8245c500bb93068836c05c6b88f7d5f9,,,D:\\HDD4\\_missing\\8245c500bb93068836c05c6b88f7d5f9.pdf,0,2000-01-01 01:00:00,2016-04-03 02:51:08,1153000/8245c500bb93068836c05c6b88f7d5f9-g.jpg,,
15922529,Handbook of Diagnosis and Treatment of DSM-IV-TR Personality Disorders,,,,Len Sperry,2003,2,Routledge,,320,0,English,,,,"0-415-93569-5,9780415935692,0-203-42708-4,0-203-43909-0",,,,,,,,,,,0,,,,,,,1,3446904,pdf,820e57528b206c694686f82671695685,,,D:\\HDD4\\_missing\\820e57528b206c694686f82671695685.pdf,0,2000-01-01 01:00:00,2016-04-03 02:51:08,1153000/820e57528b206c694686f82671695685-d.jpg,,
15922530,Punctuation at Work: Simple Principles for Achieving Clarity and Good Style,,,,Richard Lauchman,2010,,AMACOM,,208,0,English,,,,"0-8144-1494-X,978-0-8144-1494-1",,,,,,,,,,,0,,,,,,,1,3921012,pdf,82115a73d8df38c0781acfeabc28af6d,,,D:\\HDD4\\_missing\\82115a73d8df38c0781acfeabc28af6d.pdf,0,2000-01-01 01:00:00,2016-04-03 02:51:08,1153000/82115a73d8df38c0781acfeabc28af6d-d.jpg,,
15922527,Beginner's Guide to Adobe Photoshop,,,,Michelle Perkins,2006,3rd,"Amherst Media, Inc",,128,0,English,,,,"1-58428-187-1,9781584281870",,,,,,,,,,,0,,,,,,,1,3415348,pdf,81fc40fd578ddcc6028138f030c96eed,,,D:\\HDD4\\_missing\\81fc40fd578ddcc6028138f030c96eed.pdf,0,2000-01-01 01:00:00,2016-04-03 02:51:08,1153000/81fc40fd578ddcc6028138f030c96eed-d.jpg,,
15922528,"Designing the Customer-Centric Organization: A Guide to Strategy, Structure, and Process",,,,Jay R. Galbraith,2005,1,Jossey-Bass,,208,0,English,,,,"0-7879-7919-8,9780787979195",,,,,,,,,,,0,,,,,,,1,3173984,pdf,8208018cdee988b09e5cc625884ab101,,,D:\\HDD4\\_missing\\8208018cdee988b09e5cc625884ab101.pdf,0,2000-01-01 01:00:00,2016-04-03 02:51:08,1153000/8208018cdee988b09e5cc625884ab101-d.jpg,,
15922525,Physics of the Life Sciences,,,,Jay Newman,2008,,Springer,,718,0,English,,,,"0387772588,978-0-387-77258-5,978-0-387-77259-2",,,,,,,10.1007/978-0-387-77259-2,,,,0,,,,,,,1,14566856,pdf,81e16c9d41d4ec46e772c571ac25181e,,,D:\\HDD4\\_missing\\81e16c9d41d4ec46e772c571ac25181e.pdf,0,2000-01-01 01:00:00,2016-04-03 02:51:08,1153000/81e16c9d41d4ec46e772c571ac25181e-d.jpg,,
15922526,"Reading People: How to Understand People and Predict Their Behavior- -Anytime, Anyplace",,,,"Jo-Ellan Dimitrius, Mark C. Mazzarella",1999,1,Ballantine Books,,320,0,English,,,,"0-345-42587-1,9780345425874",,,,,,,,,,,0,,,,,,,1,3777888,pdf,81f3debce6291512931bbb2fe59d98cd,,,D:\\HDD4\\_missing\\81f3debce6291512931bbb2fe59d98cd.pdf,0,2000-01-01 01:00:00,2016-04-03 02:51:08,1153000/81f3debce6291512931bbb2fe59d98cd-d.jpg,,
15922524,Disturbance Analysis for Power Systems,,,,Mohamed A. Ibrahim,2011,1,Wiley-IEEE Press,,736,0,English,,,,"0470916818,978-0-470-91681-0,978-1-118-17211-7,978-1-118-17209-4,978-1-118-17210-0",,,,,,,,,,,0,,,,,,,1,115358757,pdf,81cf144bc7cb3a7aa22c906db4014e2b,,,D:\\HDD4\\_missing\\81cf144bc7cb3a7aa22c906db4014e2b(1).pdf,0,2000-01-01 01:00:00,2016-04-03 02:51:08,1153000/81cf144bc7cb3a7aa22c906db4014e2b-d.jpg,,
15922522,Comparing Special Education: Origins to Contemporary Paradoxes,,,,"John Richardson, Justin Powell",2011,,Stanford University Press,,360,0,English,,,,"080476073X,978-0-8047-6073-7",,,,,,,,,,,0,,,,,,,1,3233242,pdf,81c30832af2ab84302694ffffcbc232b,,,D:\\HDD4\\_missing\\81c30832af2ab84302694ffffcbc232b.pdf,0,2000-01-01 01:00:00,2016-04-03 02:51:08,1153000/81c30832af2ab84302694ffffcbc232b-d.jpg,,
15922523,"Assessing Quality in European Higher Education Institutions: Dissemination, Methods and Procedures",,,,Chiara Orsingher,2005,,Physica,,166,0,English,,,,"3-7908-1659-0,978-3-7908-1659-4",,,,,,,,,,,0,,,,,,,1,9765790,pdf,81c7b40a9fed31450b4215fde337268b,,,D:\\HDD4\\_missing\\81c7b40a9fed31450b4215fde337268b.pdf,0,2000-01-01 01:00:00,2016-04-03 02:51:08,1153000/81c7b40a9fed31450b4215fde337268b-d.jpg,,
15922520,A New Reading of the Animal Apocalypse of 1 Enoch: ''''All Nations Shall be Blessed'''' / With a New Translation and Commentary,,Studia in Veteris Testamenti Pseudepigrapha,,Daniel  Olson,2013,,BRILL,,308,0,English,,,,"9004245308,978-90-04-24530-3,978-90-04-24778-9",,,,,,,,,,,0,,,,,,,1,5429180,pdf,81b28005048bd5b386590c6ce901d7c2,,,D:\\HDD4\\_missing\\81b28005048bd5b386590c6ce901d7c2.pdf,0,2000-01-01 01:00:00,2016-04-03 02:51:08,1153000/81b28005048bd5b386590c6ce901d7c2-d.jpg,,
15922521,The International Financial Crisis: Have the Rules of Finance Changed?,,World Scientific Studies in International Economics,,"Asli Demirguc-Kunt, Asli Demirguc-Kunt, Douglas D. Evanoff, George G. Kaufman",2011,,World Scientific Publishing Company,,448,0,English,,,,"981-4322-08-3,978-981-4322-08-9",,,,,,,,,,,0,,,,,,,1,4040842,pdf,81c11259f8c291f8cc069aaae4ad9f2d,,,D:\\HDD4\\_missing\\81c11259f8c291f8cc069aaae4ad9f2d.pdf,0,2000-01-01 01:00:00,2016-04-03 02:51:08,1153000/81c11259f8c291f8cc069aaae4ad9f2d-d.jpg,,
15922518,Process Identification and PID Control,,,,"Su Whan Sung, Jietae Lee, In-Beum Lee",2009,1,Wiley-IEEE Press,,352,0,English,,,,"0470824107,978-0-470-82410-8",,,,,,,,,,,0,,,,,,,1,13562993,pdf,8181d6dbaff16f614a3535b937158612,,,D:\\HDD4\\_missing\\8181d6dbaff16f614a3535b937158612.pdf,0,2000-01-01 01:00:00,2016-04-03 02:51:08,1153000/8181d6dbaff16f614a3535b937158612-d.jpg,,
15922519,Clearly Visual Basic: Programming with Microsoft Visual Basic 2012,,,,Diane Zak,2013,3,Cengage Learning,,672,0,English,,,,"1-285-08410-1,978-1-285-08410-7",,,,,,,,,,,0,,,,,,,1,65946724,pdf,819324a1ddf98c70a9b5235af4010f40,,,D:\\HDD4\\_missing\\819324a1ddf98c70a9b5235af4010f40.pdf,0,2000-01-01 01:00:00,2016-04-03 02:51:08,1153000/819324a1ddf98c70a9b5235af4010f40-d.jpg,,
15922517,The Foot in Diabetes,,Practical Diabetes,,"Andrew J. M. Boulton, Peter R. Cavanagh, Gerry Rayman",2006,4,Wiley,,464,0,English,,,,"0-470-01504-7,978-0-470-01504-9",,,,,,,,,,,0,,,,,,,1,36200813,pdf,8167a892157505fa87bb11325431b94b,,,D:\\HDD4\\_missing\\8167a892157505fa87bb11325431b94b(1).pdf,0,2000-01-01 01:00:00,2016-04-03 02:51:08,1153000/8167a892157505fa87bb11325431b94b-d.jpg,,
15922515,The Sociology of Healthcare,,,,Alan Clarke,2010,2,Routledge,,448,0,English,,,,"1405858494,978-1-4058-5849-6",,,,,,,,,,,0,,,,,,,1,4365521,pdf,8165a471c894bd69e9d53dd72d62d15e,,,D:\\HDD4\\_missing\\8165a471c894bd69e9d53dd72d62d15e(1).pdf,0,2000-01-01 01:00:00,2016-04-03 02:51:08,1153000/8165a471c894bd69e9d53dd72d62d15e-d.jpg,,
15922516,Lotus Notes Domino 8: Upgrader's Guide: What's new in the latest Lotus Notes Domino Platform,,,,"Tim Speed, Dick McCarrick, Bennie Gibson, Brad Schauf, Joseph Anderson, David Byrd, Barry Rosen",2007,,Packt Publishing,,276,0,English,,,,"1847192742,978-1-847192-74-5",,,,,,,,,,,0,,,,,,,1,10497513,pdf,816786bcccff135aaf1084d5ed715767,,,D:\\HDD4\\_missing\\816786bcccff135aaf1084d5ed715767.pdf,0,2000-01-01 01:00:00,2016-04-03 02:51:08,1153000/816786bcccff135aaf1084d5ed715767-d.jpg,,
15922513,"External Influences and the Educational Landscape: Analysis of Political, Economic, Geographic, Health and Demographic Factors in Ghana",,SpringerBriefs in Economics,,Alexander Krauss,2012,,Springer,,125,0,English,,,,"1461449359,978-1-4614-4935-5,978-1-4614-4936-2",,,,,,,10.1007/978-1-4614-4936-2,,,,0,,,,,,,1,3267791,pdf,815dbf09f760f242b09df32f1264dfe1,,,D:\\HDD4\\_missing\\815dbf09f760f242b09df32f1264dfe1(1).pdf,0,2000-01-01 01:00:00,2016-04-03 02:51:08,1153000/815dbf09f760f242b09df32f1264dfe1-d.jpg,,
15922514,The Tyranny of Guilt: An Essay on Western Masochism,,,,"Pascal Bruckner, Steven Rendall",2010,0,Princeton University Press,,256,0,English,,,,"0691143765,978-0-691-14376-7",,,,,,,,,,,0,,,,,,,1,4020819,pdf,815dd10b6835746b4a1cccdee16607f6,,,D:\\HDD4\\_missing\\815dd10b6835746b4a1cccdee16607f6(1).pdf,0,2000-01-01 01:00:00,2016-04-03 02:51:08,1153000/815dd10b6835746b4a1cccdee16607f6-d.jpg,,
15922511,"Sentences, Paragraphs, and Beyond: With Integrated Readings",,,,"Lee Brandon, Kelly Brandon",2010,6,Cengage Learning,,528,0,English,,,,"0-495-80213-1,978-0-495-80213-6",,,,,,,,,,,0,,,,,,,1,11523376,pdf,812dbfeb2f899ead64c304a81ea612bf,,,D:\\HDD4\\_missing\\812dbfeb2f899ead64c304a81ea612bf.pdf,0,2000-01-01 01:00:00,2016-04-03 02:51:08,1153000/812dbfeb2f899ead64c304a81ea612bf-d.jpg,,
15922512,"The Ambiguity of Teaching to the Test: Standards, Assessment, and Educational Reform",,,,"William A. Firestone, Roberta Y. Schorr, Lora F. Monfils",2004,,Routledge,,112,0,English,,,,"0-8058-4568-2,9780805845686,0-8058-4569-0",,,,,,,,,,,0,,,,,,,1,8015302,pdf,813f58848e6d7c398038d25098f209c8,,,D:\\HDD4\\_missing\\813f58848e6d7c398038d25098f209c8.pdf,0,2000-01-01 01:00:00,2016-04-03 02:51:08,1153000/813f58848e6d7c398038d25098f209c8-d.jpg,,
15922509,Foundations of Fuzzy Control: A Practical Approach,,,,Jan Jantzen,2007,,,,332,0,English,,,,"111853557X,978-1-118-53557-8,978-1-118-53558-5,978-1-118-53559-2,978-1-118-50622-6",,,,,,,,,,,0,,,,,,,1,3171314,pdf,8110e4c19c5a67d07ab8b7a873aec1c4,,,D:\\HDD4\\_missing\\8110e4c19c5a67d07ab8b7a873aec1c4.pdf,0,2000-01-01 01:00:00,2016-04-03 02:51:08,1153000/8110e4c19c5a67d07ab8b7a873aec1c4-g.jpg,,
15922510,Singing Mother Home: A Psychologist's Journey through Anticipatory Grief,,,,Donna S. Davenport,2003,,University of North Texas Press,,184,0,English,,,,"1-57441-162-4,9781574411621",,,,,,,,,,,0,,,,,,,1,3277058,pdf,811d3421b176e54440b0eb2e79b3ed95,,,D:\\HDD4\\_missing\\811d3421b176e54440b0eb2e79b3ed95.pdf,0,2000-01-01 01:00:00,2016-04-03 02:51:08,1153000/811d3421b176e54440b0eb2e79b3ed95-d.jpg,,
15922507,The Civil War in Mississippi: Major Campaigns and Battles,,Heritage of Mississippi,,Michael B. Ballard,2011,,University Press of Mississippi,,320,0,English,,,,"1604738421,978-1-60473-842-1,978-1-60473-843-8",,,,,,,,,,,0,,,,,,,1,3623844,pdf,80cfe4fb06a4f364740687eec1fd9b40,,,D:\\HDD4\\_missing\\80cfe4fb06a4f364740687eec1fd9b40.pdf,0,2000-01-01 01:00:00,2016-04-03 02:51:08,1153000/80cfe4fb06a4f364740687eec1fd9b40-d.jpg,,
15922508,The Power of Strategic Commitment: Achieving Extraordinary Results Through Total Alignment and Engagement,,,,"Josh Leibner, Gershon Mader, Alan Weiss Ph.D",2009,0,AMACOM,,288,0,English,,,,"0814413749,978-0-8144-1374-6",,,,,,,,,,,0,,,,,,,1,3403095,pdf,810f87e3a3701b65c2e2fe8f9377c1f6,,,D:\\HDD4\\_missing\\810f87e3a3701b65c2e2fe8f9377c1f6(1).pdf,0,2000-01-01 01:00:00,2016-04-03 02:51:08,1153000/810f87e3a3701b65c2e2fe8f9377c1f6-d.jpg,,
15922506,Coaxial Electrical Circuits for Interference-Free Measurements,,Iet Electrical Measurement,,"Shakil Awan, Bryan Kibble, Jurgen Schurr",2011,,The Institution of Engineering and Technology,,504,0,English,,,,"1849190690,978-1-84919-069-5,978-1-84919-070-1",,,,,,,,,,,0,,,,,,,1,2455692,pdf,80cf229a587d2fa809d19018966afe69,,,D:\\HDD4\\_missing\\80cf229a587d2fa809d19018966afe69.pdf,0,2000-01-01 01:00:00,2016-04-03 02:51:08,1153000/80cf229a587d2fa809d19018966afe69-d.jpg,,
15922504,Protecting Your Health Privacy: A Citizen's Guide to Safeguarding the Security of Your Medical Information,,,,Jacqueline Klosek,2010,,Praeger,,244,0,English,,,,"0313387176,978-0-313-38717-3,978-0-313-38718-0",,,,,,,,,,,0,,,,,,,1,4114374,pdf,80adc535261859d870ca93a427b5ec8e,,,D:\\HDD4\\_missing\\80adc535261859d870ca93a427b5ec8e.pdf,0,2000-01-01 01:00:00,2016-04-03 02:51:08,1153000/80adc535261859d870ca93a427b5ec8e-d.jpg,,
15922505,"Exits, Voices and Social Investment: Citizens' Reaction to Public Services",,Theories of Institutional Design,,"Professor Keith Dowding, Professor Peter John",2012,0,Cambridge University Press,,208,0,English,,,,"1107022428,978-1-107-02242-3",,,,,,,,,,,0,,,,,,,1,3236787,pdf,80bb768f3d94bafa298c23eedee8b948,,,D:\\HDD4\\_missing\\80bb768f3d94bafa298c23eedee8b948.pdf,0,2000-01-01 01:00:00,2016-04-03 02:51:08,1153000/80bb768f3d94bafa298c23eedee8b948-d.jpg,,
15922502,"Army Architecture in the West: Forts Laramie, Bridger, and D. A. Russell, 1849-1912",,,,Alison K. Hoagland,2004,0,University of Oklahoma Press,,352,0,English,,,,"0-8061-3620-0,9780806136202",,,,,,,,,,,0,,,,,,,1,7534682,pdf,808169403b61f5e604aad8dd1a41fa27,,,D:\\HDD4\\_missing\\808169403b61f5e604aad8dd1a41fa27.pdf,0,2000-01-01 01:00:00,2016-04-03 02:51:08,1153000/808169403b61f5e604aad8dd1a41fa27-d.jpg,,
15922503,Managing Data in Motion: Data Integration Best Practice Techniques and Technologies,,The Morgan Kaufmann Series on Business Intelligence,,April Reeve,2013,1,Morgan Kaufmann,,204,0,English,,,,"0123971675,978-0-12-397167-8",,,,,,,,,,,0,,,,,,,1,5526203,pdf,80a1e707d04748452e6e91d26e330264,,,D:\\HDD4\\_missing\\80a1e707d04748452e6e91d26e330264.pdf,0,2000-01-01 01:00:00,2016-04-03 02:51:08,1153000/80a1e707d04748452e6e91d26e330264-d.jpg,,
15922500,Machine Learning in Image Steganalysis,,Wiley - IEEE,,Hans Georg Schaathun,2012,1,Wiley-IEEE Press,,296,0,English,,,,"0470663057,978-0-470-66305-9",,,,,,,,,,,0,,,,,,,1,4877428,pdf,804c8f16b6963b2c4da70448141b30d7,,,D:\\HDD4\\_missing\\804c8f16b6963b2c4da70448141b30d7.pdf,0,2000-01-01 01:00:00,2016-04-03 02:51:08,1153000/804c8f16b6963b2c4da70448141b30d7-d.jpg,,
15922501,Diffusion MRI: From quantitative measurement to in-vivo neuroanatomy,,,,"Heidi Johansen-Berg, Timothy E.J. Behrens",2009,1,Academic Press,,576,0,English,,,,"0123747090,978-0-12-374709-9",,,,,,,,,,,0,,,,,,,1,33980986,pdf,8078a993d8cdc3e83124d4eccc602342,,,D:\\HDD4\\_missing\\8078a993d8cdc3e83124d4eccc602342.pdf,0,2000-01-01 01:00:00,2016-04-03 02:51:08,1153000/8078a993d8cdc3e83124d4eccc602342-d.jpg,,
15922499,How Sex Changed: A History of Transsexuality in the United States,,,,Joanne Meyerowitz,2002,0,Harvard University Press,,400,0,English,,,,"0-674-00925-8,9780674009257,0-674-01379-4",,,,,,,,,,,0,,,,,,,1,3730972,pdf,803680f0daefc7c7473d5391d4fa1e59,,,D:\\HDD4\\_missing\\803680f0daefc7c7473d5391d4fa1e59.pdf,0,2000-01-01 01:00:00,2016-04-03 02:51:08,1153000/803680f0daefc7c7473d5391d4fa1e59-d.jpg,,
15922497,"Brain, Self and Consciousness: Explaining the Conspiracy of Experience",,"Studies in Neuroscience, Consciousness and Spirituality",,Sangeetha Menon,2013,,Springer,,200,0,English,,,,"813221580X,978-81-322-1580-6,978-81-322-1581-3",,,,,,,10.1007/978-81-322-1581-3,,,,0,,,,,,,1,4287348,pdf,8035b4f59748b139e2dc20abf397c828,,,D:\\HDD4\\_missing\\8035b4f59748b139e2dc20abf397c828.pdf,0,2000-01-01 01:00:00,2016-04-03 02:51:08,1153000/8035b4f59748b139e2dc20abf397c828-d.jpg,,
15922498,Postethnophilosophy,,Value Inquiry Book Series,,Sanya Osha,2011,,Rodopi,,256,0,English,,,,"9042033177,978-90-420-3317-7,978-90-420-3318-4",,,,,,,,,,,0,,,,,,,1,3340992,pdf,803632cd27ab2f4968feb79977939b34,,,D:\\HDD4\\_missing\\803632cd27ab2f4968feb79977939b34.pdf,0,2000-01-01 01:00:00,2016-04-03 02:51:08,1153000/803632cd27ab2f4968feb79977939b34-d.jpg,,
15922495,Delusions and Other Irrational Beliefs,,International Perspectives in Philosophy and Psychiatry,,Lisa Bortolotti,2010,1,"Oxford University Press, USA",,320,0,English,,,,"0199206163,978-0-19-920616-2",,,,,,,10.1093/schbul/sbn069,,,,0,,,,,,,1,3177606,djvu,800db977938f4fd93c7d37cbd6951c16,,,D:\\HDD4\\_missing\\800db977938f4fd93c7d37cbd6951c16.djvu,0,2000-01-01 01:00:00,2016-04-03 02:51:08,1153000/800db977938f4fd93c7d37cbd6951c16-d.jpg,,
15922496,Guide to a Healthy Cat,,,,Elaine Wexler-Mitchell,2003,1,Howell Book House,,272,0,English,,,,"0-7645-4163-3,9780764541636",,,,,,,,,,,0,,,,,,,1,7496217,pdf,802af6a147eeb77bed27faad1cb8a81a,,,D:\\HDD4\\_missing\\802af6a147eeb77bed27faad1cb8a81a.pdf,0,2000-01-01 01:00:00,2016-04-03 02:51:08,1153000/802af6a147eeb77bed27faad1cb8a81a-d.jpg,,
15922493,Frommer's Arizona & the Grand Canyon,,Frommer's Color Complete,,Karl Samson,2012,19,Frommers,,576,0,English,,,,"1118288572,978-1-118-28857-3,978-1-118-33383-9,978-1-118-33498-0,978-1-118-33163-7",,,,,,,,,,,0,,,,,,,1,175625985,pdf,7fee274327ca46015e843ad0f7049081,,,D:\\HDD4\\_missing\\7fee274327ca46015e843ad0f7049081.pdf,0,2000-01-01 01:00:00,2016-04-03 02:51:08,1153000/7fee274327ca46015e843ad0f7049081-d.jpg,,
15922494,"Handbook of Usability Testing: Howto Plan, Design, and Conduct Effective Tests",,,,"Jeffrey Rubin, Dana Chisnell, Jared Spool",2008,2,Wiley,,384,0,English,,,,"0470185481,978-0-470-18548-3",,,,,,,,,,,0,,,,,,,1,5862224,pdf,7ff5f42a149d2dbe861bca3da648ef91,,,D:\\HDD4\\_missing\\7ff5f42a149d2dbe861bca3da648ef91.pdf,0,2000-01-01 01:00:00,2016-04-03 02:51:08,1153000/7ff5f42a149d2dbe861bca3da648ef91-d.jpg,,
15922492,"Dyslogic Syndrome: Why Millions of Kids are 'Hyper', Attention-Disordered, Learning Disabled, Depressed, Aggressive, Defiant, or Violent--and What We Can Do About It",,,,Bernard Rimland,2008,1,Jessica Kingsley Pub,,240,0,English,,,,"1843108771,978-1-84310-877-1",,,,,,,,,,,0,,,,,,,1,3312961,pdf,7fdef786d4e3e4b136c43c8b1151d9fe,,,D:\\HDD4\\_missing\\7fdef786d4e3e4b136c43c8b1151d9fe.pdf,0,2000-01-01 01:00:00,2016-04-03 02:51:08,1153000/7fdef786d4e3e4b136c43c8b1151d9fe-d.jpg,,
15922490,Drools JBoss Rules 5.0 Developer's Guide,,,,Michal Bali,2009,,Packt Publishing,,320,0,English,,,,"1847195644,978-1-847195-64-7",,,,,,,,,,,0,,,,,,,1,5064450,pdf,7fc07b88e6db7b9455889e7d9b0e063e,,,D:\\HDD4\\_missing\\7fc07b88e6db7b9455889e7d9b0e063e.pdf,0,2000-01-01 01:00:00,2016-04-03 02:51:08,1153000/7fc07b88e6db7b9455889e7d9b0e063e-d.jpg,,
15922491,Mechanism of Acupuncture Therapy and Clinical Case Studies,,,,Lily Cheung,2001,,Taylor & Francis,,372,0,English,,,,"0-203-30126-9,9780203301265,0-203-34637-8,0-415-27254-8",,,,,,,,,,,0,,,,,,,1,3936445,pdf,7fdab50a5cfcb1bb9a3cda5dd9522e90,,,D:\\HDD4\\_missing\\7fdab50a5cfcb1bb9a3cda5dd9522e90.pdf,0,2000-01-01 01:00:00,2016-04-03 02:51:08,1153000/7fdab50a5cfcb1bb9a3cda5dd9522e90-d.jpg,,
15922488,Mathematics for New Speakers of English,,,,Saddleback Educational Publishing,2005,,Saddleback Educational Publishing,,161,0,English,,,,"1-56254-646-5,978-1-56254-646-5,978-1-60291-218-2",,,,,,,,,,,0,,,,,,,1,3630277,pdf,7fb909cff0a3e804a8a7883b645595f7,,,D:\\HDD4\\_missing\\7fb909cff0a3e804a8a7883b645595f7.pdf,0,2000-01-01 01:00:00,2016-04-03 02:51:08,1153000/7fb909cff0a3e804a8a7883b645595f7-d.jpg,,
15922489,Enterprise Directory and Security Implementation Guide: Designing and Implementing Directories in Your Organization,,The Korper and Ellis E-Commerce Books Series,,"Charles Carrington, Tim Speed, Juanita Ellis, Steffano Korper",2002,1,Academic Press,,272,0,English,,,,"0-12-160452-7,9780121604523",,,,,,,,,,,0,,,,,,,1,3638654,pdf,7fbc9e2d3269facca4ffd838256622c5,,,D:\\HDD4\\_missing\\7fbc9e2d3269facca4ffd838256622c5.pdf,0,2000-01-01 01:00:00,2016-04-03 02:51:08,1153000/7fbc9e2d3269facca4ffd838256622c5-d.jpg,,
15922486,CCSP: Securing Cisco IOS Networks Study Guide,,642-501,,"Todd Lammle, Carl Timm",2003,,Sybex,,544,0,English,,,,"0-7821-4231-1,9780782142310",,,,,,,,,,,0,,,,,,,1,9605485,pdf,7fad28c23f6577bc2478f85f8024838c,,,D:\\HDD4\\_missing\\7fad28c23f6577bc2478f85f8024838c.pdf,0,2000-01-01 01:00:00,2016-04-03 02:51:08,1153000/7fad28c23f6577bc2478f85f8024838c-d.jpg,,
15922487,Take No Prisoners: A No-Holds-Barred Approach to Corporate Excellence,,,,Marvin A. Davis,2007,,AMACOM,,240,0,English,,,,"0-8144-8060-8,978-0-8144-8060-1",,,,,,,,,,,0,,,,,,,1,4231971,pdf,7fb7ca2072adca3eea60acb9c6221493,,,D:\\HDD4\\_missing\\7fb7ca2072adca3eea60acb9c6221493(1).pdf,0,2000-01-01 01:00:00,2016-04-03 02:51:08,1153000/7fb7ca2072adca3eea60acb9c6221493-d.jpg,,
15922484,Phobic and Anxiety Disorders in Children and Adolescents: A Clinician's Guide to Effective Psychosocial and Pharmacological Interventions,,,,"Thomas H. Ollendick, John S. March",2004,1,"Oxford University Press, USA",,592,0,English,,,,"0-19-513594-6,9780195135947",,,,,,,,,,,0,,,,,,,1,3292355,pdf,7f90846541f2b9639cc09ddbb178d76a,,,D:\\HDD4\\_missing\\7f90846541f2b9639cc09ddbb178d76a(1).pdf,0,2000-01-01 01:00:00,2016-04-03 02:51:08,1153000/7f90846541f2b9639cc09ddbb178d76a-d.jpg,,
15922485,"Creative Industries in China: Art, Design and Media",,China Today,,Michael Keane,2013,1,Polity,,192,0,English,,,,"0745661009,978-0-7456-6100-1,978-0-7456-6101-8",,,,,,,,,,,0,,,,,,,1,3530934,pdf,7faa756e892c16bb8e9015689cf13a47,,,D:\\HDD4\\_missing\\7faa756e892c16bb8e9015689cf13a47.pdf,0,2000-01-01 01:00:00,2016-04-03 02:51:08,1153000/7faa756e892c16bb8e9015689cf13a47-d.jpg,,
15922482,Strength of Materials: A New Unified Theory  for the 21st Century,,,,"Surya Patnaik, Dale Hopkins",2003,1,Butterworth-Heinemann,,750,0,English,,,,"0-7506-7402-4,9780750674027",,,,,,,,,,,0,,,,,,,1,6566790,pdf,7f59cf712feb0340e7901856303708e6,,,D:\\HDD4\\_missing\\7f59cf712feb0340e7901856303708e6.pdf,0,2000-01-01 01:00:00,2016-04-03 02:51:08,1153000/7f59cf712feb0340e7901856303708e6-d.jpg,,
15922483,Programming Microsoft Dynamics NAV,,,,David Studebaker,2007,,Packt Publishing,,480,0,English,,,,"1904811744,978-1-904811-74-9",,,,,,,,,,,0,,,,,,,1,15934399,pdf,7f752ffecff7404089b3cdb5019cd0d7,,,D:\\HDD4\\_missing\\7f752ffecff7404089b3cdb5019cd0d7.pdf,0,2000-01-01 01:00:00,2016-04-03 02:51:08,1153000/7f752ffecff7404089b3cdb5019cd0d7-d.jpg,,
15922481,Business and Scientific Workflows: A Web Service-Oriented Approach,,IEEE Press Series on Systems Science and Engineering,,"Wei Tan, MengChu Zhou",2013,1,Wiley-IEEE Press,,272,0,English,,,,"1118171330,978-1-11-817133-2",,,,,,,,,,,0,,,,,,,1,5746667,pdf,7f4d374b2557ab13a77bc7b0866b0d6d,,,D:\\HDD4\\_missing\\7f4d374b2557ab13a77bc7b0866b0d6d.pdf,0,2000-01-01 01:00:00,2016-04-03 02:51:08,1153000/7f4d374b2557ab13a77bc7b0866b0d6d-d.jpg,,
15922479,The Wiley-Blackwell Companion to Inter-Religious Dialogue,,Wiley Blackwell Companions to Religion,,Catherine Cornille,2013,1,Wiley-Blackwell,,507,0,English,,,,"0470655208,978-0-470-65520-7",,,,,,,,,,,0,,,,,,,1,3370645,pdf,7f410971e3ab3104dc7314a2e9b76532,,,D:\\HDD4\\_missing\\7f410971e3ab3104dc7314a2e9b76532(1).pdf,0,2000-01-01 01:00:00,2016-04-03 02:51:08,1153000/7f410971e3ab3104dc7314a2e9b76532-d.jpg,,
15922480,Conscientious Objection in Health Care: An Ethical Analysis,,,,Mark R. Wicclair,2011,0,Cambridge University Press,,264,0,English,,,,"0521514312,978-0-521-51431-6,978-0-521-73543-8",,,,,,,,,,,0,,,,,,,1,3221537,pdf,7f4d0ae8c84ef63091bc4463a31f913a,,,D:\\HDD4\\_missing\\7f4d0ae8c84ef63091bc4463a31f913a.pdf,0,2000-01-01 01:00:00,2016-04-03 02:51:08,1153000/7f4d0ae8c84ef63091bc4463a31f913a-d.jpg,,
15922477,Innovations in Neonatal-perinatal Medicine: Innovative Technologies and Therapies That Have Fundamentally Changed the Way We Deliver Care for the Fetus and the Neonate,,,,Oommen Mathew,2010,1,World Scientific Publishing Company,,372,0,English,,,,"981-4280-04-6,978-981-4280-04-4",,,,,,,,,,,0,,,,,,,1,3508120,pdf,7f177adba70032ac062e1c511099a08b,,,D:\\HDD4\\_missing\\7f177adba70032ac062e1c511099a08b.pdf,0,2000-01-01 01:00:00,2016-04-03 02:51:08,1153000/7f177adba70032ac062e1c511099a08b-d.jpg,,
15922478,Is science neurotic?,,,,Nicholas Maxwell,2004,,Icp,,260,0,English,,,,"1-86094-500-7,9781860945007",,,,,,,,,,,0,,,,,,,1,3316636,pdf,7f35c5a8774ecd3659b70dc5dd1253de,,,D:\\HDD4\\_missing\\7f35c5a8774ecd3659b70dc5dd1253de.pdf,0,2000-01-01 01:00:00,2016-04-03 02:51:08,1153000/7f35c5a8774ecd3659b70dc5dd1253de-d.jpg,,
15922475,"Basic Private Investigation: A Guide to Business Organization, Management, and Basic Investigative Skills for the Private Investigator",,,,William F. Blake,2011,,Charles C Thomas Pub Ltd,,295,0,English,,,,"0398086427,978-0-398-08642-8,978-0-398-08645-9",,,,,,,,,,,0,,,,,,,1,3509459,pdf,7f09467f7978a1787ce9fd0d2e8eff35,,,D:\\HDD4\\_missing\\7f09467f7978a1787ce9fd0d2e8eff35.pdf,0,2000-01-01 01:00:00,2016-04-03 02:51:08,1153000/7f09467f7978a1787ce9fd0d2e8eff35-d.jpg,,
15922476,"Behind the Guns: The History of Battery I, 2nd Regiment, Illinois Light Artillery",,Shawnee Classics,,"Thaddeus C Brown, Samuel J Murphy, William G Putney, Clyde C Walton",2000,1st,Southern Illinois University Press,,208,0,English,,,,"0-8093-2342-7,9780809323425",,,,,,,,,,,0,,,,,,,1,20837858,pdf,7f1275d7dc521eb80c2588303456ab59,,,D:\\HDD4\\_missing\\7f1275d7dc521eb80c2588303456ab59.pdf,0,2000-01-01 01:00:00,2016-04-03 02:51:08,1153000/7f1275d7dc521eb80c2588303456ab59-d.jpg,,
15922473,Learning jQuery 1.3,,,,"Jonathan Chaffer, Karl Swedberg, John Resig",2009,2nd edition,Packt Publishing,,444,0,English,,,,"1847196705,978-1-847196-70-5",,,,,,,,,,,0,,,,,,,1,9625700,pdf,7ef4b995de232613682ba14d6fab117c,,,D:\\HDD4\\_missing\\7ef4b995de232613682ba14d6fab117c.pdf,0,2000-01-01 01:00:00,2016-04-03 02:51:08,1153000/7ef4b995de232613682ba14d6fab117c-d.jpg,,
15922474,Statistical Methods for Hospital Monitoring with R,,Statistics in Practice,,"Anthony Morton, Kerrie L. Mengersen, Geoffrey Playford, Michael Whitby",2013,1,Wiley,,426,0,English,,,,"1118596307,978-1-118-59630-2",,,,,,,,,,,0,,,,,,,1,3560301,pdf,7efaf3a70e811527872829eb223fe064,,,D:\\HDD4\\_missing\\7efaf3a70e811527872829eb223fe064.pdf,0,2000-01-01 01:00:00,2016-04-03 02:51:08,1153000/7efaf3a70e811527872829eb223fe064-d.jpg,,
15922471,Basic Black-Scholes: Option Pricing and Trading,,,,Timothy Falcon Crack,2009,Revised 2nd,Timothy Crack,,256,0,English,,,,"0-9700552-4-2,9780970055248",,,,,,,,,,,0,,,,,,,1,41424721,pdf,7ea9b4c84d245ec27bc248e0c9971126,,,D:\\HDD4\\_missing\\7ea9b4c84d245ec27bc248e0c9971126(1).pdf,0,2000-01-01 01:00:00,2016-04-03 02:51:08,1153000/7ea9b4c84d245ec27bc248e0c9971126-d.jpg,,
15922472,Spatial Politics: Essays For Doreen Massey,,RGS-IBG Book Series,,"David Featherstone, Joe Painter",2013,1,Wiley-Blackwell,,326,0,English,,,,"1444338315,978-1-4443-3831-7,978-1-4443-3830-0",,,,,,,,,,,0,,,,,,,1,3344335,pdf,7eba9edb3c3fee85abdbcc4bda926299,,,D:\\HDD4\\_missing\\7eba9edb3c3fee85abdbcc4bda926299.pdf,0,2000-01-01 01:00:00,2016-04-03 02:51:08,1153000/7eba9edb3c3fee85abdbcc4bda926299-d.jpg,,
15922469,Globalization,,Introducing Issues With Opposing Viewpoints,,Noel Merino,2009,,Greenhaven,,142,0,English,,,,"0737744766,978-0-7377-4476-7",,,,,,,,,,,0,,,,,,,1,24859626,pdf,7e8d2f55f21c3af6c6ba500714e5ac54,,,D:\\HDD4\\_missing\\7e8d2f55f21c3af6c6ba500714e5ac54.pdf,0,2000-01-01 01:00:00,2016-04-03 02:51:08,1153000/7e8d2f55f21c3af6c6ba500714e5ac54-d.jpg,,
15922470,Coin Collecting For Dummies,,,,"Neil S. Berman, Ron Guth",2008,2,For Dummies,,384,0,English,,,,"0470222751,978-0-470-22275-1",,,,,,,,,,,0,,,,,,,1,24652970,pdf,7ea06751370c59e9469434d0e80bbe3d,,,D:\\HDD4\\_missing\\7ea06751370c59e9469434d0e80bbe3d.pdf,0,2000-01-01 01:00:00,2016-04-03 02:51:08,1153000/7ea06751370c59e9469434d0e80bbe3d-d.jpg,,
15922467,Fundamentals of Quality Control and Improvement,,,,Amitava Mitra,2008,3,Wiley,,722,0,English,,,,"0470226536,978-0-470-22653-7",,,,,,,,,,,0,,,,,,,1,13124628,pdf,7e38f4df59626f570f2d2fc00446db67,,,D:\\HDD4\\_missing\\7e38f4df59626f570f2d2fc00446db67.pdf,0,2000-01-01 01:00:00,2016-04-03 02:51:08,1153000/7e38f4df59626f570f2d2fc00446db67-d.jpg,,
15922468,What Architects & Industrial Designers Can Teach Each Other About Managing the Design Process,,,,"W. Poelman, W. Poelman, D. Keyson",2008,,IOS Press,,128,0,English,,,,"1586039458,978-1-58603-945-5",,,,,,,,,,,0,,,,,,,1,4225799,pdf,7e899c6745f709911973544ac67d06c7,,,D:\\HDD4\\_missing\\7e899c6745f709911973544ac67d06c7(1).pdf,0,2000-01-01 01:00:00,2016-04-03 02:51:08,1153000/7e899c6745f709911973544ac67d06c7-d.jpg,,
15922465,A Companion to Analytic Philosophy,,Blackwell Companions to Philosophy,,"A. P. Martinich, E. David Sosa",2001,1,Wiley-Blackwell,,512,0,English,,,,"0-631-21415-1,9780631214151",,,,,,,,,,,0,,,,,,,1,3643116,pdf,7e3196343386a4829f074606c08643de,,,D:\\HDD4\\_missing\\7e3196343386a4829f074606c08643de.pdf,0,2000-01-01 01:00:00,2016-04-03 02:51:08,1153000/7e3196343386a4829f074606c08643de-d.jpg,,
15922466,From Isolation to Intimacy: Making Friends Without Words,,,,"Phoebe Caldwell, Jane Horwood",2007,1,Jessica Kingsley Pub,,188,0,English,,,,"1843105004,978-1-84310-500-8,978-1-84310-539-8",,,,,,,,,,,0,,,,,,,1,3376297,pdf,7e36000912762e13a4e6e67539b8034e,,,D:\\HDD4\\_missing\\7e36000912762e13a4e6e67539b8034e.pdf,0,2000-01-01 01:00:00,2016-04-03 02:51:08,1153000/7e36000912762e13a4e6e67539b8034e-d.jpg,,
15922464,Boutique Baby Photography: The Digital Photographer's Guide to Success in Maternity and Baby Portraiture,,,,Mimika Cooney,2011,,Amherst Media,,160,0,English,,,,"1608952592,978-1-60895-259-5",,,,,,,,,,,0,,,,,,,1,17217071,pdf,7e2decdd3f1b07d7a92cf7694406ef96,,,D:\\HDD4\\_missing\\7e2decdd3f1b07d7a92cf7694406ef96.pdf,0,2000-01-01 01:00:00,2016-04-03 02:51:08,1153000/7e2decdd3f1b07d7a92cf7694406ef96-d.jpg,,
15922462,Women and Mass Consumer Society in Postwar France,,,,Rebecca J. Pulju,2011,0,Cambridge University Press,,274,0,English,,,,"1107001358,978-1-107-00135-0",,,,,,,,,,,0,,,,,,,1,3669998,pdf,7e1e904a50279f3263f191585ebefe30,,,D:\\HDD4\\_missing\\7e1e904a50279f3263f191585ebefe30(1).pdf,0,2000-01-01 01:00:00,2016-04-03 02:51:08,1153000/7e1e904a50279f3263f191585ebefe30-d.jpg,,
15922463,Advances in Genomic Sequence Analysis and Pattern Discovery,,"Science, Engineering, and Biology Informatics",,"Laura Elnitski, Laura Elnitski, Helen Piontkivska, Lonnie R. Welch",2011,,World Scientific Publishing Company,,236,0,English,,,,"981-4327-72-7,978-981-4327-72-5",,,,,,,,,,,0,,,,,,,1,3159374,pdf,7e2034d9e95cd9bdac552378bd4a26c7,,,D:\\HDD4\\_missing\\7e2034d9e95cd9bdac552378bd4a26c7.pdf,0,2000-01-01 01:00:00,2016-04-03 02:51:08,1153000/7e2034d9e95cd9bdac552378bd4a26c7-d.jpg,,
15922460,Soil Mechanics and Foundations,,,,Muni Budhu,2010,3,Wiley,,780,0,English,,,,"0470556846,978-0-470-55684-9,978-0471-47012-0",,,,,,,,,,,0,,,,,,,1,29327555,pdf,7e109df66dcdba2cd637cbaaa795eb6c,,,D:\\HDD4\\_missing\\7e109df66dcdba2cd637cbaaa795eb6c.pdf,0,2000-01-01 01:00:00,2016-04-03 02:51:08,1153000/7e109df66dcdba2cd637cbaaa795eb6c-d.jpg,,
15922461,Lessons in Project Management,,,,"Thomas Mochal, Jeffrey Mochal",2011,2,Apress,,236,0,English,,,,"1430238348,978-1-4302-3834-8,978-1-4302-3835-5",,,,,,,,,,,0,,,,,,,1,3024658,pdf,7e1594271ada3036f45b8590289daf31,,,D:\\HDD4\\_missing\\7e1594271ada3036f45b8590289daf31.pdf,0,2000-01-01 01:00:00,2016-04-03 02:51:08,1153000/7e1594271ada3036f45b8590289daf31-d.jpg,,
15922459,Forest Trees,,Managing Global Genetic Resources: A Series,,"Committee on Managing Global Genetic Resources: Agricultural Imperatives, Board on Agriculture, National Research Council",1991,,National Academies Press,,248,0,English,,,,"0-309-04034-5,9780309040341",,,,,,,,,,,0,,,,,,,1,6042644,pdf,7dde84cebe3b832a8331400bc868d83f,,,D:\\HDD4\\_missing\\7dde84cebe3b832a8331400bc868d83f(1).pdf,0,2000-01-01 01:00:00,2016-04-03 02:51:08,1153000/7dde84cebe3b832a8331400bc868d83f-d.jpg,,
15922457,Moving Forward: The Future of Consumer Credit and Mortgage Finance,,James a. Johnson Metro Series,,"Nicolas P. Retsinas, Eric S. Belsky",2011,Original,Brookings Institution Press and Harvard University Joint Center for Housing Studies,,264,0,English,,,,"0815705034,978-0-8157-0503-1",,,,,,,,,,,0,,,,,,,1,3295685,pdf,7dcc54f8e1360e63c9c803b64a968204,,,D:\\HDD4\\_missing\\7dcc54f8e1360e63c9c803b64a968204.pdf,0,2000-01-01 01:00:00,2016-04-03 02:51:08,1153000/7dcc54f8e1360e63c9c803b64a968204-d.jpg,,
15922458,Sing Not War: The Lives of Union and Confederate Veterans in Gilded Age America,,Civil War America,,James Marten,2011,,The University of North Carolina Press,,368,0,English,,,,"0807834769,978-0-8078-3476-3",,,,,,,,,,,0,,,,,,,1,3257046,pdf,7dd497559fb661f4a05e4f86a2bab4c2,,,D:\\HDD4\\_missing\\7dd497559fb661f4a05e4f86a2bab4c2.pdf,0,2000-01-01 01:00:00,2016-04-03 02:51:08,1153000/7dd497559fb661f4a05e4f86a2bab4c2-d.jpg,,
15922455,"Botulinum Toxins in Clinical Aesthetic Practice, Second Edition",,Series in Cosmetic and Laser Therapy,,Anthony Benedetto,2011,2,CRC Press,,296,0,English,,,,"0415476364,978-0-415-47636-2",,,,,,,,,,,0,,,,,,,1,27423043,pdf,7dbaa36e4b35f70e56088f6665b45ea5,,,D:\\HDD4\\_missing\\7dbaa36e4b35f70e56088f6665b45ea5.pdf,0,2000-01-01 01:00:00,2016-04-03 02:51:08,1153000/7dbaa36e4b35f70e56088f6665b45ea5-d.jpg,,
15922456,"Salt, Shale and Igneous Diapirs in and Around Europe",,Geological Society Special Publication,,"B. C. Vendeville, B. C. Vendeville, Yossi Mart, J. L. Vigneresse, Jean Louis Vigneresse",2000,,Geological Society of London,,216,0,English,,,,"1-86239-066-5,9781862390669",,,,,,,,,,,0,,,,,,,1,20541260,pdf,7dc03ed11b955e1faca56fd79602824c,,,D:\\HDD4\\_missing\\7dc03ed11b955e1faca56fd79602824c(1).pdf,0,2000-01-01 01:00:00,2016-04-03 02:51:08,1153000/7dc03ed11b955e1faca56fd79602824c-d.jpg,,
15922453,Microwave Bandpass Filters for Wideband Communications,,Wiley Series in Microwave and Optical Engineering,,"Lei Zhu, Sheng Sun, Rui Li",2012,1,Wiley,,240,0,English,,,,"0470876611,978-0-470-87661-9",,,,,,,,,,,0,,,,,,,1,3703396,pdf,7db3eeb621392ddce5a49ad2a880d114,,,D:\\HDD4\\_missing\\7db3eeb621392ddce5a49ad2a880d114.pdf,0,2000-01-01 01:00:00,2016-04-03 02:51:08,1153000/7db3eeb621392ddce5a49ad2a880d114-d.jpg,,
15922454,"Intelligent Systems Design: Integrating Expert Systems, Hypermedia, and Database Technologies",,Wiley Professional Computing,,"Larry Bielawski, Robert Lewand",1991,1,Wiley,,302,0,English,,,,"0-471-52958-3,9780471529583,0-471-52535-9",,,,,,,,,,,0,,,,,,,1,5448218,pdf,7db5832cb945a4191f8d92f20af249a0,,,D:\\HDD4\\_missing\\7db5832cb945a4191f8d92f20af249a0.pdf,0,2000-01-01 01:00:00,2016-04-03 02:51:08,1153000/7db5832cb945a4191f8d92f20af249a0-d.jpg,,
15922452,"Sales Promotion: How to Create, Implement and Integrate Campaigns that Really Work",,,,Roddy Mullin,2010,Fifth Edition,Kogan Page,,280,0,English,,,,"074945704X,978-0-7494-5704-4",,,,,,,,,,,0,,,,,,,1,3729924,pdf,7dab776a5ac1899630da1ce93d591ed7,,,D:\\HDD4\\_missing\\7dab776a5ac1899630da1ce93d591ed7.pdf,0,2000-01-01 01:00:00,2016-04-03 02:51:08,1153000/7dab776a5ac1899630da1ce93d591ed7-d.jpg,,
15922450,"Vegan Soul Kitchen: Fresh, Healthy, and Creative African-American Cuisine",,,,Bryant Terry,2009,Original,Da Capo Press,,256,0,English,,,,"0738212288,978-0-7382-1228-9",,,,,,,,,,,0,,,,,,,1,5126894,pdf,7d5be41c5419430b785b8377a06952ab,,,D:\\HDD4\\_missing\\7d5be41c5419430b785b8377a06952ab.pdf,0,2000-01-01 01:00:00,2016-04-03 02:51:08,1153000/7d5be41c5419430b785b8377a06952ab-d.jpg,,
15922451,"Estimator's Electrical Man-Hour Manual, Third Edition",,Estimator's Man-Hour Library,,John S. Page,1999,3rd,Gulf Professional Publishing,,448,0,English,,,,"0-88415-228-6,978-0-88415-228-6",,,,,,,,,,,0,,,,,,,1,7356710,pdf,7da6cf16a39e8132c39ffd8bdc8bc964,,,D:\\HDD4\\_missing\\7da6cf16a39e8132c39ffd8bdc8bc964(1).pdf,0,2000-01-01 01:00:00,2016-04-03 02:51:08,1153000/7da6cf16a39e8132c39ffd8bdc8bc964-d.jpg,,
15922448,Madison's Nightmare: How Executive Power Threatens American Democracy,,,,Peter M. Shane,2009,1,University Of Chicago Press,,258,0,English,,,,"0-226-74939-8,978-0-226-74939-6",,,,,,,,,,,0,,,,,,,1,3198911,pdf,7cd427bbb207c096c4e0512307e5c429,,,D:\\HDD4\\_missing\\7cd427bbb207c096c4e0512307e5c429(1).pdf,0,2000-01-01 01:00:00,2016-04-03 02:51:08,1153000/7cd427bbb207c096c4e0512307e5c429-d.jpg,,
15922449,How to Invent and Protect Your Invention: A Guide to Patents for Scientists and Engineers,,,,"Joseph P. Kennedy, Wayne H. Watkins, Elyse N. Ball",2012,1,Wiley,,248,0,English,,,,"1118369378,978-1-118-36937-1",,,,,,,,,,,0,,,,,,,1,3807660,pdf,7d2d0bc8cfbc7f6cadeb371a67ee3960,,,D:\\HDD4\\_missing\\7d2d0bc8cfbc7f6cadeb371a67ee3960.pdf,0,2000-01-01 01:00:00,2016-04-03 02:51:08,1153000/7d2d0bc8cfbc7f6cadeb371a67ee3960-d.jpg,,
15922447,Macrofinancial Risk Analysis,,The Wiley Finance Series,,"Dale Gray, Samuel W Malone",2008,1,Wiley,,362,0,English,,,,"0470058315,978-0-470-05831-2",,,,,,,,,,,0,,,,,,,1,4497575,pdf,7ccfff0de911b72b516946bd07ab161c,,,D:\\HDD4\\_missing\\7ccfff0de911b72b516946bd07ab161c.pdf,0,2000-01-01 01:00:00,2016-04-03 02:51:08,1153000/7ccfff0de911b72b516946bd07ab161c-d.jpg,,
15922445,"Handbook of Nutrition, Diet and Sleep",,Human Health Handbooks,,"Victor R. Preedy, Vinood B. Patel, Lan-anh Le",2013,1,Wageningen Pers,,500,0,English,,,,"908686208X,978-90-8686-208-5,978-90-8686-763-9",,,,,,,10.3920/978-90-8686-763-9,,,,0,,,,,,,1,5341318,pdf,7c8b3a23bd69120ef24c7ff6a239206c,,,D:\\HDD4\\_missing\\7c8b3a23bd69120ef24c7ff6a239206c.pdf,0,2000-01-01 01:00:00,2016-04-03 02:51:08,1153000/7c8b3a23bd69120ef24c7ff6a239206c-d.jpg,,
15922446,"Algebra and Trigonometry with Analytic Geometry, Classic Edition",,,,"Earl Swokowski, Jeffery A. Cole",2009,12,Cengage Learning,,912,0,English,,,,"0-495-55971-7,978-0-495-55971-9",,,,,,,,,,,0,,,,,,,1,19203148,pdf,7cbe3c84774fda44d01780b6a4ea3853,,,D:\\HDD4\\_missing\\7cbe3c84774fda44d01780b6a4ea3853.pdf,0,2000-01-01 01:00:00,2016-04-03 02:51:08,1153000/7cbe3c84774fda44d01780b6a4ea3853-d.jpg,,
15922443,"Multiple Personality Disorders - A Medical Dictionary, Bibliography, and Annotated Research Guide to Internet References",,,,Icon Health Publications,2004,,ICON Health Publications,,64,0,English,,,,"0-597-84506-9,9780597845062",,,,,,,,,,,0,,,,,,,1,3194034,pdf,7c7fa8545ebbf1ea9b71df83bd77f483,,,D:\\HDD4\\_missing\\7c7fa8545ebbf1ea9b71df83bd77f483(1).pdf,0,2000-01-01 01:00:00,2016-04-03 02:51:08,1153000/7c7fa8545ebbf1ea9b71df83bd77f483-d.jpg,,
15922444,Travel Adventures Hawaii,,,,"Bryan Fryklund, Jan Reeder",2010,2,Hunter Pub Inc,,520,0,English,,,,"1588436926,978-1-58843-692-4",,,,,,,,,,,0,,,,,,,1,50397309,pdf,7c85ac290b117ffb1c71e114b972bdbd,,,D:\\HDD4\\_missing\\7c85ac290b117ffb1c71e114b972bdbd.pdf,0,2000-01-01 01:00:00,2016-04-03 02:51:08,1153000/7c85ac290b117ffb1c71e114b972bdbd-d.jpg,,
15922441,Electricity Power Generation: The Changing Dimensions,,IEEE Press Series on Power Engineering,,Digambar M. Tagare,2011,1,Wiley-IEEE Press,,408,0,English,,,,"0470600284,978-0-470-60028-3,978-0-470-87265-9,978-0-470-87266-6",,,,,,,,,,,0,,,,,,,1,6376332,pdf,7c75ca4d92da35e8ef65a16d41e4ec43,,,D:\\HDD4\\_missing\\7c75ca4d92da35e8ef65a16d41e4ec43.pdf,0,2000-01-01 01:00:00,2016-04-03 02:51:08,1153000/7c75ca4d92da35e8ef65a16d41e4ec43-d.jpg,,
15922442,"Beneficial Bombing: The Progressive Foundations of American Air Power, 1917-1945",,"Studies in War, Society, and the Militar",,Mark Clodfelter,2011,,Univ of Nebraska Pr,,392,0,English,,,,"0803233981,978-0-8032-3398-0",,,,,,,,,,,0,,,,,,,1,15900027,pdf,7c7c0272c27f14938ec88bd34ae91f9f,,,D:\\HDD4\\_missing\\7c7c0272c27f14938ec88bd34ae91f9f(1).pdf,0,2000-01-01 01:00:00,2016-04-03 02:51:08,1153000/7c7c0272c27f14938ec88bd34ae91f9f-d.jpg,,
15922439,Conquering Eating Disorders: How Family Communication Heals,,,,"Ph.D. Sue Cooper, R.D. Peggy Norton",2008,,Seal Press,,225,0,English,,,,"1-58005-260-6,978-1-58005-260-3",,,,,,,,,,,0,,,,,,,1,3292545,pdf,7bdc1175ded134593d067e1e452a9e02,,,D:\\HDD4\\_missing\\7bdc1175ded134593d067e1e452a9e02.pdf,0,2000-01-01 01:00:00,2016-04-03 02:51:08,1153000/7bdc1175ded134593d067e1e452a9e02-d.jpg,,
15922440,RF and Microwave Modeling and Measurement Techniques for Field Effect Transistors,,,,Jianjun Gao,2010,,SciTech Publishing,,350,0,English,,,,"1891121898,978-1-891121-89-0",,,,,,,,,,,0,,,,,,,1,7806335,pdf,7c199fa5e6bcf3d78385c9de3d147d61,,,D:\\HDD4\\_missing\\7c199fa5e6bcf3d78385c9de3d147d61.pdf,0,2000-01-01 01:00:00,2016-04-03 02:51:08,1153000/7c199fa5e6bcf3d78385c9de3d147d61-d.jpg,,
15922437,Where the Spirits Ride the Wind: Trance Journeys and Other Ecstatic Experiences,,A Midland Book,,"Felicitas D Goodman, Gerhard Binder",1990,,Indiana University Press,,242,0,English,,,,"0253327644,978-0-253-32764-2,978-0-253-20566-7",,,,,,,,,,,0,,,,,,,1,14695740,pdf,7b98d5dc7ba25e96e318bf2fca324423,,,D:\\HDD4\\_missing\\7b98d5dc7ba25e96e318bf2fca324423.pdf,0,2000-01-01 01:00:00,2016-04-03 02:51:08,1153000/7b98d5dc7ba25e96e318bf2fca324423-d.jpg,,
15922438,"Evolution and the Genetics of Populations, Volume 4: Variability Within and Among Natural Populations",,Evolution & the Genetics of Populations,,Sewall Wright,1978,,University of Chicago Press,,590,0,English,,,,"0-226-91052-0,9780226910529,0-226-91049-0,0-226-91050-4,0-226-91051-2",,,,,,,,,,,0,,,,,,,1,27773487,djvu,7bcbc9720be2618cace6cdc166d434a0,,,D:\\HDD4\\_missing\\7bcbc9720be2618cace6cdc166d434a0.djvu,0,2000-01-01 01:00:00,2016-04-03 02:51:08,1153000/7bcbc9720be2618cace6cdc166d434a0-d.jpg,,
15922435,Microsoft Office Project 2007 For Dummies,,,,Nancy C. Muir,2007,0,For Dummies,,408,0,English,,,,"0-470-03651-6,978-0-470-03651-8",,,,,,,,,,,0,,,,,,,1,25572496,pdf,7b6f67011014e6e52a207ee6a0b477be,,,D:\\HDD4\\_missing\\7b6f67011014e6e52a207ee6a0b477be.pdf,0,2000-01-01 01:00:00,2016-04-03 02:51:08,1153000/7b6f67011014e6e52a207ee6a0b477be-d.jpg,,
15922436,Tricks of the eBay Masters,,,,Michael Miller,2004,,Que,,432,0,English,,,,"0-7897-3290-4,9780789732903",,,,,,,,,,,0,,,,,,,1,8509756,pdf,7b97c1c2e06bbc5da832c16c482ee96f,,,D:\\HDD4\\_missing\\7b97c1c2e06bbc5da832c16c482ee96f.pdf,0,2000-01-01 01:00:00,2016-04-03 02:51:08,1153000/7b97c1c2e06bbc5da832c16c482ee96f-d.jpg,,
15922433,Fanconi Anemia: A Paradigmatic Disease for the Understanding of Cancer and Aging,,Monographs in Human Genetics,,"D. Schindler, H. Hoehn",2007,,S Karger Pub,,230,0,English,,,,"3805582773,978-3-8055-8277-3",,,,,,,,,,,0,,,,,,,1,3281439,pdf,7b67e1a77d0eab90e438a5972f257451,,,D:\\HDD4\\_missing\\7b67e1a77d0eab90e438a5972f257451.pdf,0,2000-01-01 01:00:00,2016-04-03 02:51:08,1153000/7b67e1a77d0eab90e438a5972f257451-d.jpg,,
15922434,Stop Pissing Me Off: What to Do When the People You Work with Drive You Crazy,,,,Lynne Eisaguirre,2007,,Adams Media,,336,0,English,,,,"1-59337-548-4,978-1-59337-548-5,978-1-44050-092-3",,,,,,,,,,,0,,,,,,,1,13411721,pdf,7b6d1d6d2278b6fa00a9c8b533b26723,,,D:\\HDD4\\_missing\\7b6d1d6d2278b6fa00a9c8b533b26723(1).pdf,0,2000-01-01 01:00:00,2016-04-03 02:51:08,1153000/7b6d1d6d2278b6fa00a9c8b533b26723-d.jpg,,
15922432,The Cinema of B√©la Tarr: The Circle Closes,,Directors' Cuts,,Andr√°s Kov√°cs,2013,,Wallflower Press,,256,0,English,,,,"0231165307,978-0-231-16530-3,978-0-231-16531-0,978-0-231-85037-7",,,,,,,,,,,0,,,,,,,1,3781823,pdf,7af49b2ea716b617aa1bef203ec03809,,,D:\\HDD4\\_missing\\7af49b2ea716b617aa1bef203ec03809.pdf,0,2000-01-01 01:00:00,2016-04-03 02:51:08,1153000/7af49b2ea716b617aa1bef203ec03809-d.jpg,,
15922430,Cancer Disparities: Causes and Evidence-Based Solutions,,,,"Ronit Elk PhD, Hope Landrine PhD",2012,1,American Cancer Society,,542,0,English,,,,"0826108822,978-0-8261-0882-1,978-0-8261-0883-8",,,,,,,,,,,0,,,,,,,1,3969815,pdf,7abed8956e8f481fa78058e1d5ed3d79,,,D:\\HDD4\\_missing\\7abed8956e8f481fa78058e1d5ed3d79(1).pdf,0,2000-01-01 01:00:00,2016-04-03 02:51:08,1153000/7abed8956e8f481fa78058e1d5ed3d79-d.jpg,,
15922431,A History of Ottoman Architecture,,,,J. Freely,2011,1,WIT Press,,464,0,English,,,,"1845645065,978-1-84564-506-9",,,,,,,,,,,0,,,,,,,1,34843144,pdf,7ace67ffc30d808f2a7bed84321cbb41,,,D:\\HDD4\\_missing\\7ace67ffc30d808f2a7bed84321cbb41.pdf,0,2000-01-01 01:00:00,2016-04-03 02:51:08,1153000/7ace67ffc30d808f2a7bed84321cbb41-d.jpg,,
15922428,Male Germline Stem Cells: Developmental and Regenerative Potential,,Stem Cell Biology and Regenerative Medicine,,"Kyle E. Orwig, Brian P. Hermann",2010,,Humana Press,,280,0,English,,,,"1617379727,978-1-61737-972-7,978-1-61737-973-4",,,,,,,10.1007/978-1-61737-973-4,,,,0,,,,,,,1,8143413,pdf,7aaae3b320f91a473acb9bebf88f81af,,,D:\\HDD4\\_missing\\7aaae3b320f91a473acb9bebf88f81af.pdf,0,2000-01-01 01:00:00,2016-04-03 02:51:08,1153000/7aaae3b320f91a473acb9bebf88f81af-d.jpg,,
15922429,Perfectly Able: How to Attract and Hire Talented People with Disabilities,,,,"Lighthouse International, Jim Hasse",2010,,AMACOM,,272,0,English,,,,"0-8144-1564-4,978-0-8144-1564-1",,,,,,,,,,,0,,,,,,,1,3627819,pdf,7ab6bb21c65c3c923ab87a3e634d84a3,,,D:\\HDD4\\_missing\\7ab6bb21c65c3c923ab87a3e634d84a3.pdf,0,2000-01-01 01:00:00,2016-04-03 02:51:08,1153000/7ab6bb21c65c3c923ab87a3e634d84a3-d.jpg,,
15922426,Twitter Application Development For Dummies,,,,Dusty Reagan,2010,1,For Dummies,,456,0,English,,,,"0470568623,978-0-470-56862-0",,,,,,,,,,,0,,,,,,,1,19169737,pdf,7a9e7777048f2e5cfbec8926597944b2,,,D:\\HDD4\\_missing\\7a9e7777048f2e5cfbec8926597944b2.pdf,0,2000-01-01 01:00:00,2016-04-03 02:51:08,1153000/7a9e7777048f2e5cfbec8926597944b2-d.jpg,,
15922427,Approximation and Optimization of Discrete and Differential Inclusions,,Elsevier Insights,,Elimhan N Mahmudov,2011,1,Elsevier,,396,0,English,,,,"0123884284,978-0-12-388428-2",,,,,,,,,,,0,,,,,,,1,4237592,pdf,7aa7adbc50bdf0640f3e8f6b2cdeb266,,,D:\\HDD4\\_missing\\7aa7adbc50bdf0640f3e8f6b2cdeb266.pdf,0,2000-01-01 01:00:00,2016-04-03 02:51:08,1153000/7aa7adbc50bdf0640f3e8f6b2cdeb266-d.jpg,,
15922424,Industrial Galactomannan Polysaccharides,,,,N. K. Mathur,2011,0,CRC Press,,187,0,English,,,,"1439846286,978-1-4398-4628-5",,,,,,,,,,,0,,,,,,,1,3638327,pdf,7a976cf1971af67a735b15b99e009f3d,,,D:\\HDD4\\_missing\\7a976cf1971af67a735b15b99e009f3d.pdf,0,2000-01-01 01:00:00,2016-04-03 02:51:08,1153000/7a976cf1971af67a735b15b99e009f3d-d.jpg,,
15922425,Cyberbullying in the Global Playground: Research from International Perspectives,,,,"Qing Li, Donna Cross, Peter K. Smith",2012,1,Wiley-Blackwell,,326,0,English,,,,"1444333763,978-1-4443-3376-3",,,,,,,,,,,0,,,,,,,1,3249594,pdf,7a9b3bfc9022c910c94d69a0c8ad84a2,,,D:\\HDD4\\_missing\\7a9b3bfc9022c910c94d69a0c8ad84a2(1).pdf,0,2000-01-01 01:00:00,2016-04-03 02:51:08,1153000/7a9b3bfc9022c910c94d69a0c8ad84a2-d.jpg,,
15922422,"Applied and Numerical Partial Differential Equations: Scientific Computing in Simulation, Optimization and Control in a Multidisciplinary Context",,Computational Methods in Applied Sciences,,"W. Fitzgibbon, Y.A. Kuznetsov, Pekka Neittaanm√§ki, Jacques P√©riaux, Olivier Pironneau",2009,,Springer,,248,0,English,,,,"904813238X,978-90-481-3238-6,978-90-481-3239-3",,,,,,,10.1007/978-90-481-3239-3,,,,0,,,,,,,1,5389006,pdf,7a7c022da60238993fcca911a335ac70,,,D:\\HDD4\\_missing\\7a7c022da60238993fcca911a335ac70.pdf,0,2000-01-01 01:00:00,2016-04-03 02:51:08,1153000/7a7c022da60238993fcca911a335ac70-d.jpg,,
15922423,A Primer of Botanical Latin with Vocabulary,,,,"Emma Short, Alex George",2013,,Cambridge University Press,,304,0,English,,,,"1107693756,978-1-107-69375-3",,,,,,,,,,,0,,,,,,,1,3914442,pdf,7a8540c724462da6a6e0272d9666af4d,,,D:\\HDD4\\_missing\\7a8540c724462da6a6e0272d9666af4d.pdf,0,2000-01-01 01:00:00,2016-04-03 02:51:08,1153000/7a8540c724462da6a6e0272d9666af4d-d.jpg,,
15922420,Knowledge Representation in the Social Semantic Web,,Knowledge & Information: Studies in Information Science,,Katrin Weller,2010,1,De Gruyter,,300,0,English,,,,"3598251807,978-3-598-25180-1,978-3-598-44158-5",,,,,,,,,,,0,,,,,,,1,11672652,pdf,7a5bb47907fa7054595571d9b46ada87,,,D:\\HDD4\\_missing\\7a5bb47907fa7054595571d9b46ada87.pdf,0,2000-01-01 01:00:00,2016-04-03 02:51:08,1153000/7a5bb47907fa7054595571d9b46ada87-d.jpg,,
15922421,Fundamentals of Materials Science and Engineering: An Integrated Approach,,,,"William D. Callister, David G. Rethwisch",2007,3,Wiley,,912,0,English,,,,"0470125373,978-0-470-12537-3",,,,,,,,,,,0,,,,,,,1,27864879,pdf,7a615528ee379405cbcd415b752a21a8,,,D:\\HDD4\\_missing\\7a615528ee379405cbcd415b752a21a8.pdf,0,2000-01-01 01:00:00,2016-04-03 02:51:08,1153000/7a615528ee379405cbcd415b752a21a8-d.jpg,,
15922418,Memory Management Algorithms And Implementation In C/C++,,Windows Programming/Development,,Bill Blunden,2002,1,Jones & Bartlett Learning,,360,0,English,92,,,"1-55622-347-1,9781556223471",,,,,,,,,,,0,,,,,,,1,5800799,pdf,7a316e03bd0b5bc5c8586455a7d3ea2e,,,D:\\HDD4\\_missing\\7a316e03bd0b5bc5c8586455a7d3ea2e.pdf,0,2000-01-01 01:00:00,2016-04-03 02:51:08,1153000/7a316e03bd0b5bc5c8586455a7d3ea2e-d.jpg,,
15922419,Rich Client Programming: Plugging into the NetBeans Platform,,,,"Tim Boudreau, Jaroslav Tulach, Geertjan Wielenga",2007,,Prentice Hall,,640,0,English,,,,"0-13-235480-2,9780132354806",,,,,,,,,,,0,,,,,,,1,6320591,pdf,7a3362001c71cc1ccff8c076065b6a24,,,D:\\HDD4\\_missing\\7a3362001c71cc1ccff8c076065b6a24.pdf,0,2000-01-01 01:00:00,2016-04-03 02:51:08,1153000/7a3362001c71cc1ccff8c076065b6a24-d.jpg,,
15922417,The Tribal Imagination: Civilization and the Savage Mind,,,,Robin Fox,2011,,Harvard University Press,,432,0,English,,,,"0674059018,978-0-674-05901-6",,,,,,,,,,,0,,,,,,,1,5502101,pdf,7a243e099dcd9dca17d967f5984ca629,,,D:\\HDD4\\_missing\\7a243e099dcd9dca17d967f5984ca629.pdf,0,2000-01-01 01:00:00,2016-04-03 02:51:08,1153000/7a243e099dcd9dca17d967f5984ca629-d.jpg,,
15922415,"Approximate Dynamic Programming: Solving the Curses of Dimensionality, 2nd Edition",,Wiley Series in Probability and Statistics,,Warren B. Powell,2011,2,Wiley,,606,0,English,,,,"047060445X,978-0-470-60445-8,978-1-118-02917-6,978-1-118-02915-2,978-1-118-02916-9",,,,,,,,,,,0,,,,,,,1,5506652,pdf,7a11bdc1588fc03cc7280dfbd3341edf,,,D:\\HDD4\\_missing\\7a11bdc1588fc03cc7280dfbd3341edf.pdf,0,2000-01-01 01:00:00,2016-04-03 02:51:08,1153000/7a11bdc1588fc03cc7280dfbd3341edf-d.jpg,,
15922416,"Nonlinear Biomedical Signal Processing, Fuzzy Logic, Neural Networks, and New Algorithms",,IEEE Press Series on Biomedical Engineering) (Volume 1,,Metin Akay,2000,,Wiley-IEEE Press,,276,0,English,,,,"0-7803-6011-7,9780780360112,0-7803-3494-9,0-7803-3495-7,0-7803-4729-3,0-7803-1128-0",,,,,,,,,,,0,,,,,,,1,9726193,pdf,7a1e9a65cc932cc8c100c1902d1fd7bb,,,D:\\HDD4\\_missing\\7a1e9a65cc932cc8c100c1902d1fd7bb.pdf,0,2000-01-01 01:00:00,2016-04-03 02:51:08,1153000/7a1e9a65cc932cc8c100c1902d1fd7bb-d.jpg,,
15922413,APOS Theory: A Framework for Research and Curriculum Development in Mathematics Education,,,,"Ilana Arnon, Jim Cottrill, Ed Dubinsky, Asuman Okta√ß, Solange Roa Fuentes, Maria Trigueros, Kirk Weller",2013,,Springer,,270,0,English,,,,"1461479657,978-1-4614-7965-9,978-1-4614-7966-6",,,,,,,10.1007/978-1-4614-7966-6,,,,0,,,,,,,1,3165116,pdf,7a05f3bb56cb4ce6a4acfbdd537bfa46,,,D:\\HDD4\\_missing\\7a05f3bb56cb4ce6a4acfbdd537bfa46.pdf,0,2000-01-01 01:00:00,2016-04-03 02:51:08,1153000/7a05f3bb56cb4ce6a4acfbdd537bfa46-d.jpg,,
15922414,True Digital Control: Statistical Modelling and Non-Minimal State Space Design,,,,"C. James Taylor, Peter C. Young, Arun Chotai",2013,1,Wiley,,360,0,English,,,,"1118521218,978-1-118-52121-2",,,,,,,,,,,0,,,,,,,1,4056731,pdf,7a108eae247858e8aa1f6747fb4d3dbb,,,D:\\HDD4\\_missing\\7a108eae247858e8aa1f6747fb4d3dbb.pdf,0,2000-01-01 01:00:00,2016-04-03 02:51:08,1153000/7a108eae247858e8aa1f6747fb4d3dbb-d.jpg,,
15922412,"Greek Prostitutes in the Ancient Mediterranean, 800 BCE-200 CE",,Wisconsin Studies in Classics,,"Allison Glazebrook, Madeleine M. Henry",2011,1,University of Wisconsin Press,,360,0,English,,,,"0299235645,978-0-299-23564-2,978-0-299-23563-5",,,,,,,,,,,0,,,,,,,1,3230192,pdf,79f43dffc1a8a57a8ee82966723192fd,,,D:\\HDD4\\_missing\\79f43dffc1a8a57a8ee82966723192fd.pdf,0,2000-01-01 01:00:00,2016-04-03 02:51:08,1153000/79f43dffc1a8a57a8ee82966723192fd-d.jpg,,
15922410,"Jesus Drank, Judas Repented and God Divorced His Bride",,Second Edition,,Steve Brown,2011,,Happy About,,146,0,English,,,,"1-60005-201-0,978-1-60005-201-9,978-1-60005-202-6,1-60005-202-9",,,,,,,,,,,0,,,,,,,1,3160029,pdf,79d0bec02da88fc4b929b99be1a0932a,,,D:\\HDD4\\_missing\\79d0bec02da88fc4b929b99be1a0932a.pdf,0,2000-01-01 01:00:00,2016-04-03 02:51:08,1153000/79d0bec02da88fc4b929b99be1a0932a-d.jpg,,
15922411,"Symmetric Markov Processes, Time Change, and Boundary Theory",,LMS-35) (London Mathematical Society Monographs,,"Zhen-Qing Chen, Masatoshi Fukushima",2011,,Princeton University Press,,512,0,English,,,,"069113605X,978-0-691-13605-9",,,,,,,,,,,0,,,,,,,1,3217831,pdf,79e811c485e9feea0467d7148a9746a3,,,D:\\HDD4\\_missing\\79e811c485e9feea0467d7148a9746a3(1).pdf,0,2000-01-01 01:00:00,2016-04-03 02:51:08,1153000/79e811c485e9feea0467d7148a9746a3-d.jpg,,
15922408,Forest Management and the Water Cycle: An Ecosystem-Based Approach,,Ecological Studies,,"Michael Bredemeier, Shabtai Cohen, Douglas L. Godbold, Elve Lode, Viliam Pichler, Patrick Schleppi",2010,,Springer,,546,0,English,,,,"904819833X,978-90-481-9833-7,978-90-481-9834-4",,,,,,,10.1007/978-90-481-9834-4,,,,0,,,,,,,1,57932686,pdf,79cd3addf438510d01a1f11c80969ea9,,,D:\\HDD4\\_missing\\79cd3addf438510d01a1f11c80969ea9.pdf,0,2000-01-01 01:00:00,2016-04-03 02:51:08,1153000/79cd3addf438510d01a1f11c80969ea9-d.jpg,,
15922409,A Companion to Ancient Greek Government,,Blackwell Companions to the Ancient World,,Hans Beck,2013,1,Wiley-Blackwell,,612,0,English,,,,"1405198583,978-1-4051-9858-5",,,,,,,,,,,0,,,,,,,1,5159698,pdf,79cda41a34f759aeaf8c97698e795123,,,D:\\HDD4\\_missing\\79cda41a34f759aeaf8c97698e795123.pdf,0,2000-01-01 01:00:00,2016-04-03 02:51:08,1153000/79cda41a34f759aeaf8c97698e795123-d.jpg,,
15922407,"A Clear Differentiation of the Three Codes: Essential Distinctions Among the Individual Liberation, Great Vehicle, and Tantric Systems : The Sdom Gsum ... Six Letters",,Suny Series in Buddhist Studies,,"Sa-Skya Pandi-Ta Kun-Dga-Rgyal-Mtshan, Sakya Pandita Kunga Gyaltshen, Jared Douglas Rhoton, Victoria R. M. Scott, Jared Douglas Rhoton, Victoria R. M. Scott",2002,,State Univ of New York Pr,,369,0,English,,,,"0-7914-5285-9,9780791452851,0-7914-5286-7",,,,,,,,,,,0,,,,,,,1,18478130,pdf,79c562d94f0d0efc92f595675d144fd9,,,D:\\HDD4\\_missing\\79c562d94f0d0efc92f595675d144fd9.pdf,0,2000-01-01 01:00:00,2016-04-03 02:51:08,1153000/79c562d94f0d0efc92f595675d144fd9-d.jpg,,
15922405,"Urban Poverty in Bangladesh: Slum Communities, Migration and Social Integration",,Library of Development Studies,,Shahadat Hossain,2010,,Tauris Academic Studies,,288,0,English,,,,"1848854706,978-1-84885-470-3,978-1-84885-427-7,978-1-84885-487-1",,,,,,,,,,,0,,,,,,,1,3380291,pdf,79a3c3a94a0e2adce8ebf7fb6cea5eb6,,,D:\\HDD4\\_missing\\79a3c3a94a0e2adce8ebf7fb6cea5eb6.pdf,0,2000-01-01 01:00:00,2016-04-03 02:51:08,1153000/79a3c3a94a0e2adce8ebf7fb6cea5eb6-d.jpg,,
15922406,Bush's Wars,,,,Terry H. Anderson,2011,,"Oxford University Press, USA",,312,0,English,,,,"0199747520,978-0-19-974752-8",,,,,,,,,,,0,,,,,,,1,3247420,pdf,79ac1cd9798671cb169f56211f847566,,,D:\\HDD4\\_missing\\79ac1cd9798671cb169f56211f847566.pdf,0,2000-01-01 01:00:00,2016-04-03 02:51:08,1153000/79ac1cd9798671cb169f56211f847566-d.jpg,,
15922403,An Introduction to the International Criminal Court,,,,William A. Schabas,2011,4,Cambridge University Press,,594,0,English,,,,"0521767504,978-0-521-76750-7,978-0-521-15195-5",,,,,,,,,,,0,,,,,,,1,3946908,pdf,797b726bc49011c5a273fe1bd6d72c86,,,D:\\HDD4\\_missing\\797b726bc49011c5a273fe1bd6d72c86(1).pdf,0,2000-01-01 01:00:00,2016-04-03 02:51:08,1153000/797b726bc49011c5a273fe1bd6d72c86-d.jpg,,
15922404,Stochastic Modeling and Analysis of Telecoms Networks,,ISTE,,"Laurent Decreusefond, Pascal Moyal",2012,1,Wiley-ISTE,,387,0,English,,,,"1848212380,978-1-84821-238-1",,,,,,,,,,,0,,,,,,,1,6469573,pdf,79a1a34a412c7d592d6e1971d5fcad13,,,D:\\HDD4\\_missing\\79a1a34a412c7d592d6e1971d5fcad13.pdf,0,2000-01-01 01:00:00,2016-04-03 02:51:08,1153000/79a1a34a412c7d592d6e1971d5fcad13-d.jpg,,
15922401,Biodiversity of West African Forests: An Ecological Atlas of Woody Plant Species,,,,"L. Poorter, F. Bongers, F.N'. Kouam√Ω, W.D. Hawthorne",2004,First,CABI,,528,0,English,,,,"0-85199-734-1,9780851997346",,,,,,,,,,,0,,,,,,,1,69505592,pdf,7944d4067d84f2823e9ccc59321f0746,,,D:\\HDD4\\_missing\\7944d4067d84f2823e9ccc59321f0746(1).pdf,0,2000-01-01 01:00:00,2016-04-03 02:51:08,1153000/7944d4067d84f2823e9ccc59321f0746-d.jpg,,
15922402,Corporate Performance Management Best Practices: A Case Study Approach to Accelerating CPM Results,,Wiley Corporate F&A,,Bob Paladino,2013,1,Wiley,,336,0,English,,,,"1118478584,978-1-118-47858-5,978-1-118-50746-9,978-1-118-50769-8,978-1-118-50745-2",,,,,,,,,,,0,,,,,,,1,3157552,pdf,795731167833f7ebaccc7527da44badd,,,D:\\HDD4\\_missing\\795731167833f7ebaccc7527da44badd.pdf,0,2000-01-01 01:00:00,2016-04-03 02:51:08,1153000/795731167833f7ebaccc7527da44badd-d.jpg,,
15922399,Building OpenSocial Apps: A Field Guide to Working with the MySpace Platform,,,,"Chris Cole, Chad Russell, Jessica Whyte",2009,1,Addison-Wesley Professional,,408,0,English,,,,"0-321-61906-4,978-0-321-61906-8",,,,,,,,,,,0,,,,,,,1,5262625,pdf,791b1bfbafc557c731d7751f4b589810,,,D:\\HDD4\\_missing\\791b1bfbafc557c731d7751f4b589810.pdf,0,2000-01-01 01:00:00,2016-04-03 02:51:08,1153000/791b1bfbafc557c731d7751f4b589810-d.jpg,,
15922400,Linux All-in-One Desk Reference For Dummies,,For Dummies (Computers),,Naba Barkakati,2006,2,For Dummies,,840,0,English,,,,"0-471-75262-2,978-0-471-75262-2",,,,,,,,,,,0,,,,,,,1,21182358,pdf,792720823146d68f19fd50c99ebfce4b,,,D:\\HDD4\\_missing\\792720823146d68f19fd50c99ebfce4b.pdf,0,2000-01-01 01:00:00,2016-04-03 02:51:08,1153000/792720823146d68f19fd50c99ebfce4b-d.jpg,,
15922398,Fitness For Dummies,,,,"Suzanne Schlosberg, Liz Neporent",2010,4,For Dummies,,432,0,English,,,,"0470767596,978-0-470-76759-7",,,,,,,,,,,0,,,,,,,1,8713785,pdf,7918a629b8f4dc52825032417e312e6c,,,D:\\HDD4\\_missing\\7918a629b8f4dc52825032417e312e6c.pdf,0,2000-01-01 01:00:00,2016-04-03 02:51:08,1153000/7918a629b8f4dc52825032417e312e6c-d.jpg,,
15922395,Concise Physical Chemistry,,,,Donald W. Rogers,2011,1,Wiley,,404,0,English,,,,"047052264X,978-0-470-52264-6",,,,,,,,,,,0,,,,,,,1,3191009,pdf,79113a7ef9592e3db3a9dbd334b9e4be,,,D:\\HDD4\\_missing\\79113a7ef9592e3db3a9dbd334b9e4be.pdf,0,2000-01-01 01:00:00,2016-04-03 02:51:08,1153000/79113a7ef9592e3db3a9dbd334b9e4be-d.jpg,,
15922396,The Philosophy of Habermas,,Continental European Philosophy,,Andrew Edgar,2005,,Acumen Publishing Ltd,,304,0,English,,,,"1-902683-93-5,9781902683935,1-902683-94-3",,,,,,,,,,,0,,,,,,,1,4704786,pdf,791160552b340c0ce3053358cbbb0a34,,,D:\\HDD4\\_missing\\791160552b340c0ce3053358cbbb0a34.pdf,0,2000-01-01 01:00:00,2016-04-03 02:51:08,1153000/791160552b340c0ce3053358cbbb0a34-g.jpg,,
15922397,"The Convergence of Judaism and Islam: Religious, Scientific, and Cultural Dimensions",,,,"Michael M. Laskier, Yaacov Lev",2011,0,University Press of Florida,,304,0,English,,,,"0813036496,978-0-8130-3649-6",,,,,,,,,,,0,,,,,,,1,3258703,pdf,79170b8926df906fd8957d52d29088e9,,,D:\\HDD4\\_missing\\79170b8926df906fd8957d52d29088e9.pdf,0,2000-01-01 01:00:00,2016-04-03 02:51:08,1153000/79170b8926df906fd8957d52d29088e9-d.jpg,,
15922393,Fiber Optic Sensors: An Introduction for Engineers and Scientists,,Wiley Series in Pure and Applied Optics,,Eric Udd,2006,1,Wiley-Interscience,,492,0,English,,,,"0-470-06810-8,978-0-470-06810-6",,,,,,,,,,,0,,,,,,,1,21185921,pdf,79020fb367296d32c1afc70a6b055192,,,D:\\HDD4\\_missing\\79020fb367296d32c1afc70a6b055192(1).pdf,0,2000-01-01 01:00:00,2016-04-03 02:51:08,1153000/79020fb367296d32c1afc70a6b055192-d.jpg,,
15922394,Office 2007 All-in-One Desk Reference For Dummies,,,,Peter Weverka,2007,1,For Dummies,,816,0,English,,,,"0471782793,978-0-471-78279-7",,,,,,,,,,,0,,,,,,,1,30490991,pdf,7910e0edbce3f9fb8d53629291fe431e,,,D:\\HDD4\\_missing\\7910e0edbce3f9fb8d53629291fe431e.pdf,0,2000-01-01 01:00:00,2016-04-03 02:51:08,1153000/7910e0edbce3f9fb8d53629291fe431e-d.jpg,,
15922391,Branding and Sustainable Competitive Advantage: Building Virtual Presence,,,,"Avinash Kapoor, Avinash Kapoor, Chinmaya Kulshrestha",2011,1,IGI Global,,294,0,English,,,,"1613501714,978-1-61350-171-9,978-1-61350-172-6,978-1-61350-173-3",,,,,,,,,,,0,,,,,,,1,4629890,pdf,78f06554061d59b9948cf534454fc2fc,,,D:\\HDD4\\_missing\\78f06554061d59b9948cf534454fc2fc(1).pdf,0,2000-01-01 01:00:00,2016-04-03 02:51:08,1153000/78f06554061d59b9948cf534454fc2fc-d.jpg,,
15922392,Elementary Physical Chemistry,,,,Bruno Linder,2010,1,World Scientific Publishing Company,,160,0,English,,,,"9814299669,978-981-4299-66-4",,,,,,,,,,,0,,,,,,,1,3780540,pdf,78fbb2474706e47230b6b5d214e6db7e,,,D:\\HDD4\\_missing\\78fbb2474706e47230b6b5d214e6db7e.pdf,0,2000-01-01 01:00:00,2016-04-03 02:51:08,1153000/78fbb2474706e47230b6b5d214e6db7e-d.jpg,,
15922389,Geometric Formulation of Classical and Quantum Mechanics,,,,Giovanni Giachetta,2010,,World Scientific Publishing Company,,404,0,English,,,,"981-4313-72-6,978-981-4313-72-8",,,,,,,,,,,0,,,,,,,1,5638555,pdf,78d06afd0fa74dee679034ad0444d714,,,D:\\HDD4\\_missing\\78d06afd0fa74dee679034ad0444d714.pdf,0,2000-01-01 01:00:00,2016-04-03 02:51:08,1153000/78d06afd0fa74dee679034ad0444d714-d.jpg,,
15922390,Microbes: Concepts and Applications,,,,"Prakash S. Bisen, Mousumi Debnath, G. B. Prasad",2012,1,Wiley-Blackwell,,724,0,English,,,,"0470905948,978-0-470-90594-4",,,,,,,,,,,0,,,,,,,1,19189723,pdf,78d22c27696e1050fa61eb0799464629,,,D:\\HDD4\\_missing\\78d22c27696e1050fa61eb0799464629.pdf,0,2000-01-01 01:00:00,2016-04-03 02:51:08,1153000/78d22c27696e1050fa61eb0799464629-d.jpg,,
15922387,Numerical Analysis for Statisticians,,Statistics and Computing,,Kenneth Lange,2010,2nd ed. 2010,Springer,,620,0,English,,,,"1441959440,978-1-4419-5944-7,978-1-4419-5945-4",,,,,,,10.1007/978-1-4419-5945-4,,,,0,,,,,,,1,3760170,pdf,78acc4a142766cc2e84818e50a7200a8,,,D:\\HDD4\\_missing\\78acc4a142766cc2e84818e50a7200a8.pdf,0,2000-01-01 01:00:00,2016-04-03 02:51:08,1153000/78acc4a142766cc2e84818e50a7200a8-d.jpg,,
15922388,Convergent Evolution: Limited Forms Most Beautiful,,Vienna Series in Theoretical Biology,,George McGhee,2011,,The MIT Press,,336,0,English,,,,"0262016427,978-0-262-01642-1",,,,,,,,,,,0,,,,,,,1,4405850,pdf,78bb9312bffbcdc0f1ff131ada6c5cd1,,,D:\\HDD4\\_missing\\78bb9312bffbcdc0f1ff131ada6c5cd1.pdf,0,2000-01-01 01:00:00,2016-04-03 02:51:08,1153000/78bb9312bffbcdc0f1ff131ada6c5cd1-d.jpg,,
15922385,Power Up Your Mind,,,,Bill Lucas,2001,,Nicholas Brealey,,276,0,English,,,,"1-85788-275-X,9781857882759",,,,,,,,,,,0,,,,,,,1,21141806,pdf,7877ace4abd473d8ac3be4c66de09687,,,D:\\HDD4\\_missing\\7877ace4abd473d8ac3be4c66de09687(1).pdf,0,2000-01-01 01:00:00,2016-04-03 02:51:08,1153000/7877ace4abd473d8ac3be4c66de09687-d.jpg,,
15922386,Patriots for Profit: Contractors and the Military in U.S. National Security,,,,Thomas Bruneau,2011,,Stanford Security Studies,,288,0,English,,,,"0804775486,978-0-8047-7548-9,978-0-8047-7549-6",,,,,,,,,,,0,,,,,,,1,3687748,pdf,787d7a1db9fb84b989e085cb71d22946,,,D:\\HDD4\\_missing\\787d7a1db9fb84b989e085cb71d22946.pdf,0,2000-01-01 01:00:00,2016-04-03 02:51:08,1153000/787d7a1db9fb84b989e085cb71d22946-d.jpg,,
15922384,Handbook of Sinc Numerical Methods,,Chapman & Hall/CRC Numerical Analysis and Scientific Computing Series,,Frank Stenger,2010,Har/Cdr,CRC Press,,482,0,English,,,,"1439821585,978-1-4398-2158-9",,,,,,,,,,,0,,,,,,,1,5007254,pdf,786a08dec83cdd64449a80bd1adf78f0,,,D:\\HDD4\\_missing\\786a08dec83cdd64449a80bd1adf78f0.pdf,0,2000-01-01 01:00:00,2016-04-03 02:51:08,1153000/786a08dec83cdd64449a80bd1adf78f0-d.jpg,,
15922382,SharePoint 2010 Development with Visual Studio 2010,,Microsoft Windows Development Series,,"Eric Carter, Boris Scholl, Peter Jausovec",2010,1,Addison-Wesley Professional,,912,0,English,,,,"0-321-71831-3,978-0-321-71831-0",,,,,,,,,,,0,,,,,,,1,21719286,pdf,784da6169a709af6aa4c5367901835dd,,,D:\\HDD4\\_missing\\784da6169a709af6aa4c5367901835dd.pdf,0,2000-01-01 01:00:00,2016-04-03 02:51:08,1153000/784da6169a709af6aa4c5367901835dd-d.jpg,,
15922383,State Profiles: The Population and Economy of Each U.S. State 3rd Edition,,,,Helmut F. Wendel,2006,3,Bernan Press,,576,0,English,,,,"1-59888-011-X,9781598880113",,,,,,,,,,,0,,,,,,,1,5655132,pdf,7863b33a2a1d3283eb8f0eb9cb3f4af7,,,D:\\HDD4\\_missing\\7863b33a2a1d3283eb8f0eb9cb3f4af7.pdf,0,2000-01-01 01:00:00,2016-04-03 02:51:08,1153000/7863b33a2a1d3283eb8f0eb9cb3f4af7-d.jpg,,
15922380,i -Net+ Study Guide,,,,"David Groth, Dorothy McGee",2002,2,Sybex,,672,0,English,,,,"0-7821-4028-9,9780782140286",,,,,,,,,,,0,,,,,,,1,9700359,pdf,782d5eb3e09978de72b79607aa3d7d31,,,D:\\HDD4\\_missing\\782d5eb3e09978de72b79607aa3d7d31.pdf,0,2000-01-01 01:00:00,2016-04-03 02:51:08,1153000/782d5eb3e09978de72b79607aa3d7d31-d.jpg,,
15922381,"Decoding Organization: Bletchley Park, Codebreaking and Organization Studies",,,,Christopher Grey,2012,0,Cambridge University Press,,340,0,English,,,,"1107005450,978-1-107-00545-7",,,,,,,,,,,0,,,,,,,1,6014798,pdf,78303aa887e4690047cd6f471859f908,,,D:\\HDD4\\_missing\\78303aa887e4690047cd6f471859f908.pdf,0,2000-01-01 01:00:00,2016-04-03 02:51:08,1153000/78303aa887e4690047cd6f471859f908-d.jpg,,
15922379,Prosopagnosia: When all faces look the same,,Cognitive Systems Monographs,,Davide Rivolta,2013,,Springer,,299,0,English,,,,"3642407838,978-3-642-40783-3,978-3-642-40784-0",,,,,,,10.1007/978-3-642-40784-0,,,,0,,,,,,,1,3858795,pdf,7821406273a7baccd9f8d3592e0af5c4,,,D:\\HDD4\\_missing\\7821406273a7baccd9f8d3592e0af5c4(1).pdf,0,2000-01-01 01:00:00,2016-04-03 02:51:08,1153000/7821406273a7baccd9f8d3592e0af5c4-d.jpg,,
15922376,A Companion to African American Literature,,,,Gene Andrew Jarrett,2010,1,Wiley-Blackwell,,488,0,English,,,,"1405188626,978-1-405-18862-3",,,,,,,,,,,0,,,,,,,1,4809491,pdf,77c51bddf605d56019ff1df36b3ed42c,,,D:\\HDD4\\_missing\\77c51bddf605d56019ff1df36b3ed42c.pdf,0,2000-01-01 01:00:00,2016-04-03 02:51:08,1153000/77c51bddf605d56019ff1df36b3ed42c-d.jpg,,
15922377,Fundamentals and Applications in Aerosol Spectroscopy,,,,"Ruth Signorell, Jonathan P. Reid",2010,1,CRC Press,,535,0,English,,,,"1420085611,978-1-4200-8561-7",,,,,,,,,,,0,,,,,,,1,34051849,pdf,77cca60ae06b3cfa43d1de8a83065013,,,D:\\HDD4\\_missing\\77cca60ae06b3cfa43d1de8a83065013.pdf,0,2000-01-01 01:00:00,2016-04-03 02:51:08,1153000/77cca60ae06b3cfa43d1de8a83065013-d.jpg,,
15922378,Exposure Anxiety - The Invisible Cage: An Exploration of Self-Protection Responses in the Autism Spectrum and Beyond,,,,Donna Williams,2008,1,Jessica Kingsley,,336,0,English,,,,"1-84310-051-7,9781843100515",,,,,,,,,,,0,,,,,,,1,3422726,pdf,77f0dfcc25b31729cf3838fe9d4d0299,,,D:\\HDD4\\_missing\\77f0dfcc25b31729cf3838fe9d4d0299.pdf,0,2000-01-01 01:00:00,2016-04-03 02:51:08,1153000/77f0dfcc25b31729cf3838fe9d4d0299-d.jpg,,
15922375,Basic Algebraic Geometry 2: Schemes and Complex Manifolds,,,,"Igor R. Shafarevich, Miles Reid",2013,3rd ed. 2013,Springer,,280,0,English,,,,"3642380093,978-3-642-38009-9,978-3-642-38010-5",,,,,,,10.1007/978-3-642-38010-5,,,,0,,,,,,,1,4064991,pdf,77bb210f9f33d5c3c23d9671fc13a92e,,,D:\\HDD4\\_missing\\77bb210f9f33d5c3c23d9671fc13a92e.pdf,0,2000-01-01 01:00:00,2016-04-03 02:51:08,1153000/77bb210f9f33d5c3c23d9671fc13a92e-d.jpg,,
15922373,Material Cultures: Why Some Things Matter,,Consumption & Space,,Daniel Miller Professor of Ant,1997,1,Routledge,,256,0,English,,,,"1-85728-685-5,9781857286854,1-85728-686-3,0-203-03314-0,0-203-18558-7",,,,,,,,,,,0,,,,,,,1,3579325,pdf,77ac87c62b2969923f788a4727bc4aa0,,,D:\\HDD4\\_missing\\77ac87c62b2969923f788a4727bc4aa0.pdf,0,2000-01-01 01:00:00,2016-04-03 02:51:08,1153000/77ac87c62b2969923f788a4727bc4aa0-d.jpg,,
15922374,Spasmodic Torticollis Handbook: A Guide to Treatment and Rehabilitation,,,,"Dr. Karen Frei MD, Dr. Mayank Pathak MD, Dr. Daniel Troung MD",2003,1,Demos Health,,120,0,English,,,,"1-888799-77-3,9781888799774",,,,,,,,,,,0,,,,,,,1,3223004,pdf,77ad0531e12a693c148e9ee81eab78ec,,,D:\\HDD4\\_missing\\77ad0531e12a693c148e9ee81eab78ec.pdf,0,2000-01-01 01:00:00,2016-04-03 02:51:08,1153000/77ad0531e12a693c148e9ee81eab78ec-d.jpg,,
15922371,A First Course in Mathematical Modeling,,,,"Frank R. Giordano, William P. Fox, Steven B. Horton",2013,5,Cengage Learning,,704,0,English,,,,"1-285-05090-8,978-1-285-05090-4",,,,,,,,,,,0,,,,,,,1,12890111,pdf,778345271dabab1e7418de6acef88e7f,,,D:\\HDD4\\_missing\\778345271dabab1e7418de6acef88e7f.pdf,0,2000-01-01 01:00:00,2016-04-03 02:51:08,1153000/778345271dabab1e7418de6acef88e7f-d.jpg,,
15922372,Management Reset: Organizing for Sustainable Effectiveness,,,,"Edward E. Lawler III, Christopher G. Worley, David Creelman",2011,1,Jossey-Bass,,352,0,English,,,,"0470637986,978-0-470-63798-2,978-1-118-00842-3,978-1-118-00843-0,978-1-118-00844-7",,,,,,,,,,,0,,,,,,,1,4068556,pdf,778e08265beb5725f126c97d1fc5a7ab,,,D:\\HDD4\\_missing\\778e08265beb5725f126c97d1fc5a7ab.pdf,0,2000-01-01 01:00:00,2016-04-03 02:51:08,1153000/778e08265beb5725f126c97d1fc5a7ab-d.jpg,,
15922369,Substance Abuse in the Mentally and Physically Disabled,,,,"John R. Hubbard, Peter R. Martin",2001,1,CRC Press,,326,0,English,,,,"0-8247-0587-4,9780824705879",,,,,,,,,,,0,,,,,,,1,3187659,pdf,7767989c090847957e73409b54199bf0,,,D:\\HDD4\\_missing\\7767989c090847957e73409b54199bf0.pdf,0,2000-01-01 01:00:00,2016-04-03 02:51:08,1153000/7767989c090847957e73409b54199bf0-d.jpg,,
15922370,A Trader's Money Management System: How to Ensure Profit and Avoid the Risk of Ruin,,Wiley Trading,,"Bennett A. McDowell, Steve Nison",2008,1,Wiley,,210,0,English,,,,"0470187719,978-0-470-18771-5",,,,,,,,,,,0,,,,,,,1,3243067,pdf,77816a503422cf5abf8378685ea411f9,,,D:\\HDD4\\_missing\\77816a503422cf5abf8378685ea411f9.pdf,0,2000-01-01 01:00:00,2016-04-03 02:51:08,1153000/77816a503422cf5abf8378685ea411f9-d.jpg,,
15922367,Learning Objective-C 2.0: A Hands-On Guide to Objective-C for Mac and iOS Developers,,,,Robert Clair,2010,1,Addison-Wesley Professional,,416,0,English,,,,"0-321-71138-6,978-0-321-71138-0",,,,,,,,,,,0,,,,,,,1,5237103,pdf,76d4811a08eab8661f65c0f84232f696,,,D:\\HDD4\\_missing\\76d4811a08eab8661f65c0f84232f696.pdf,0,2000-01-01 01:00:00,2016-04-03 02:51:08,1153000/76d4811a08eab8661f65c0f84232f696-d.jpg,,
15922368,The Externally Focused Quest: Becoming the Best Church for the Community,,,,"Eric Swanson, Rick Rusaw",2010,1,Jossey-Bass,,272,0,English,,,,"0470500786,978-0-470-50078-1",,,,,,,,,,,0,,,,,,,1,3784439,pdf,77012c78bdcdaa8a04c040cbbd3edc94,,,D:\\HDD4\\_missing\\77012c78bdcdaa8a04c040cbbd3edc94.pdf,0,2000-01-01 01:00:00,2016-04-03 02:51:08,1153000/77012c78bdcdaa8a04c040cbbd3edc94-d.jpg,,
15922366,Clinical Handbook of Schizophrenia,,,,"Kim T. Mueser PhD, Dilip V. Jeste MD",2008,1,The Guilford Press,,650,0,English,,,,"1593856520,978-1-59385-652-6",,,,,,,,,,,0,,,,,,,1,4706785,pdf,76c26a0ae6662f53b88b47db57fac943,,,D:\\HDD4\\_missing\\76c26a0ae6662f53b88b47db57fac943.pdf,0,2000-01-01 01:00:00,2016-04-03 02:51:08,1153000/76c26a0ae6662f53b88b47db57fac943-d.jpg,,
15922364,Social Entrepreneurship: Theory and Practice,,,,"Ryszard Praszkier, Andrzej Nowak",2011,0,Cambridge University Press,,248,0,English,,,,"0521767318,978-0-521-76731-6,978-0-521-14978-5",,,,,,,,,,,0,,,,,,,1,3667292,pdf,76934d7492844b78789ec8f56d26e206,,,D:\\HDD4\\_missing\\76934d7492844b78789ec8f56d26e206.pdf,0,2000-01-01 01:00:00,2016-04-03 02:51:08,1153000/76934d7492844b78789ec8f56d26e206-d.jpg,,
15922365,Agile Software Engineering with Visual Studio: From Concept to Continuous Feedback,,2nd Edition) (Microsoft Windows Development Series,,"Sam Guckenheimer, Neno Loje",2011,2,Addison-Wesley Professional,,352,0,English,,,,"0-321-68585-7,978-0-321-68585-8",,,,,,,,,,,0,,,,,,,1,25189302,pdf,76c0a948695f8300ab2218821efc68f3,,,D:\\HDD4\\_missing\\76c0a948695f8300ab2218821efc68f3.pdf,0,2000-01-01 01:00:00,2016-04-03 02:51:08,1153000/76c0a948695f8300ab2218821efc68f3-d.jpg,,
15922362,Professional WPF Programming: .NET Development with the Windows Presentation Foundation,,,,"Chris Andrade, Shawn Livermore, Mike Meyers, Scott Van Vliet",2007,1,Wrox,,480,0,English,92,,,"0470041803,978-0-470-04180-2",,,,,,,,,,,0,,,,,,,1,13758925,pdf,76802115f4994b08363a6f8ff46de27a,,,D:\\HDD4\\_missing\\76802115f4994b08363a6f8ff46de27a.pdf,0,2000-01-01 01:00:00,2016-04-03 02:51:08,1153000/76802115f4994b08363a6f8ff46de27a-d.jpg,,
15922363,Conduct Disorder and Behavioural Parent Training: Research and Practice,,,,"Dermot O'Reilly, Brian Sheldon",2005,,Jessica Kingsley Pub,,208,0,English,,,,"1-84310-163-7,978-1-84310-163-5",,,,,,,,,,,0,,,,,,,1,3204896,pdf,768690d74f508417a58c12e080d21bc6,,,D:\\HDD4\\_missing\\768690d74f508417a58c12e080d21bc6.pdf,0,2000-01-01 01:00:00,2016-04-03 02:51:08,1153000/768690d74f508417a58c12e080d21bc6-d.jpg,,
15922360,Migration and Mental Health,,,,"Dinesh Bhugra, Susham Gupta",2011,1,Cambridge University Press,,366,0,English,,,,"0521190770,978-0-521-19077-0",,,,,,,,,,,0,,,,,,,1,5014980,pdf,763dfe7786dc69f17236372a57ccc783,,,D:\\HDD4\\_missing\\763dfe7786dc69f17236372a57ccc783.pdf,0,2000-01-01 01:00:00,2016-04-03 02:51:08,1153000/763dfe7786dc69f17236372a57ccc783-d.jpg,,
15922361,Algorithms and Ordering Heuristics for Distributed Constraint Satisfaction Problems,,FOCUS Series,,Mohamed Wahbi,2013,1,Wiley-ISTE,,176,0,English,,,,"1848215940,978-1-84821-594-8",,,,,,,,,,,0,,,,,,,1,5240882,pdf,7662099341be24064bfef87079a67b95,,,D:\\HDD4\\_missing\\7662099341be24064bfef87079a67b95.pdf,0,2000-01-01 01:00:00,2016-04-03 02:51:08,1153000/7662099341be24064bfef87079a67b95-d.jpg,,
15922358,Frommer's Walt Disney World& Orlando with Kids,,Frommer's With Kids,,"Jim Tunstall, Cynthia Tunstall",2004,1,Frommers,,352,0,English,,,,"0-7645-4499-3,9780764544996",,,,,,,,,,,0,,,,,,,1,11281438,pdf,76287f31dcd48b6e4fa806faf223df40,,,D:\\HDD4\\_missing\\76287f31dcd48b6e4fa806faf223df40.pdf,0,2000-01-01 01:00:00,2016-04-03 02:51:08,1153000/76287f31dcd48b6e4fa806faf223df40-d.jpg,,
15922359,Interactive Storytelling for Video Games: A Player-Centered Approach to Creating Memorable Characters and Stories,,,,"Josiah Lebowitz, Chris Klug",2011,1,Focal Press,,336,0,English,,,,"0240817176,978-0-240-81717-0",,,,,,,,,,,0,,,,,,,1,4321494,pdf,762ecd79cf92c4335d689dcd8229ae23,,,D:\\HDD4\\_missing\\762ecd79cf92c4335d689dcd8229ae23.pdf,0,2000-01-01 01:00:00,2016-04-03 02:51:08,1153000/762ecd79cf92c4335d689dcd8229ae23-d.jpg,,
15922356,Acceptance- and Mindfulness-Based Approaches to Anxiety: Conceptualization and Treatment,,Series in Anxiety and Related Disorders,,"Susan M. Orsillo, Lizabeth Roemer",2005,,Springer,,378,0,English,,,,"0-387-25988-0,978-0387-25988-8",,,,,,,,,,,0,,,,,,,1,4330253,pdf,75a507780f483bd4eb361042fe36215d,,,D:\\HDD4\\_missing\\75a507780f483bd4eb361042fe36215d.pdf,0,2000-01-01 01:00:00,2016-04-03 02:51:08,1153000/75a507780f483bd4eb361042fe36215d-d.jpg,,
15922357,A Sneetch is a Sneetch and Other Philosophical Discoveries: Finding Wisdom in Children's Literature,,,,Thomas E. Wartenberg,2013,1,Wiley-Blackwell,,176,0,English,,,,"0470656786,978-0-470-65678-5,978-0-470-65683-9",,,,,,,,,,,0,,,,,,,1,3696567,pdf,7609bad170fea2b885a90423bf9f8bbf,,,D:\\HDD4\\_missing\\7609bad170fea2b885a90423bf9f8bbf.pdf,0,2000-01-01 01:00:00,2016-04-03 02:51:08,1153000/7609bad170fea2b885a90423bf9f8bbf-d.jpg,,
15922354,Switching to a Mac For Dummies,,,,Arnold Reinhold,2009,2,For Dummies,,408,0,English,,,,"0470466618,978-0-470-46661-2",,,,,,,,,,,0,,,,,,,1,6784919,pdf,75955b9a75333c7023cab7c701484ebc,,,D:\\HDD4\\_missing\\75955b9a75333c7023cab7c701484ebc.pdf,0,2000-01-01 01:00:00,2016-04-03 02:51:08,1153000/75955b9a75333c7023cab7c701484ebc-d.jpg,,
15922355,The Liberating Power of Symbols: Philosophical Essays,,Studies in Contemporary German Social Thought,,"J√ºrgen Habermas, rgen, Peter Dews",2001,1st MIT Press Ed,The MIT Press,,136,0,English,,,,"0-262-08296-9,9780262082969,0-262-58205-8",,,,,,,,,,,0,,,,,,,1,6588217,pdf,75985e432054ee6037a143e5bfe975a3,,,D:\\HDD4\\_missing\\75985e432054ee6037a143e5bfe975a3.pdf,0,2000-01-01 01:00:00,2016-04-03 02:51:08,1153000/75985e432054ee6037a143e5bfe975a3-d.jpg,,
15922352,Statistical Approach to Quantum Field Theory: An Introduction,,Lecture Notes in Physics,,Andreas Wipf,2012,,Springer,,420,0,English,,,,"3642331041,978-3-642-33104-6,978-3-642-33105-3",,,,,,,10.1007/978-3-642-33105-3,,,,0,,,,,,,1,9423446,pdf,758f7297db0071220a76a357394e7df0,,,D:\\HDD4\\_missing\\758f7297db0071220a76a357394e7df0(1).pdf,0,2000-01-01 01:00:00,2016-04-03 02:51:08,1153000/758f7297db0071220a76a357394e7df0-d.jpg,,
15922353,"Rakes, Highwaymen, and Pirates: The Making of the Modern Gentleman in the Eighteenth Century",,,,Erin Mackie,2009,,Johns Hopkins University Press,,248,0,English,,,,"0-8018-9088-8,978-0-8018-9088-8",,,,,,,,,,,0,,,,,,,1,3245105,pdf,759137ce62a8f5b42aeeefef61f74c64,,,D:\\HDD4\\_missing\\759137ce62a8f5b42aeeefef61f74c64.pdf,0,2000-01-01 01:00:00,2016-04-03 02:51:08,1153000/759137ce62a8f5b42aeeefef61f74c64-d.jpg,,
15922350,Digital Crossroads: American Telecommunications Policy in the Internet Age,,,,"Jonathan E. Nuechterlein, Philip J. Weiser",2005,,The MIT Press,,702,0,English,,,,"0-262-14091-8,9780262140911",,,,,,,,,,,0,,,,,,,1,25339691,pdf,756b03a4229593174d5d399efd767ab0,,,D:\\HDD4\\_missing\\756b03a4229593174d5d399efd767ab0.pdf,0,2000-01-01 01:00:00,2016-04-03 02:51:08,1153000/756b03a4229593174d5d399efd767ab0-d.jpg,,
15922351,Introduction to the Physics of Waves,,,,Tim Freegarde,2012,,Cambridge University Press,,312,0,English,,,,"0521197570,978-0-521-19757-1,978-0-521-14716-3",,,,,,,,,,,0,,,,,,,1,14209672,pdf,757f5de7b04439f729a1b580bd1502a9,,,D:\\HDD4\\_missing\\757f5de7b04439f729a1b580bd1502a9.pdf,0,2000-01-01 01:00:00,2016-04-03 02:51:08,1153000/757f5de7b04439f729a1b580bd1502a9-d.jpg,,
15922349,OpenGL SuperBible: Comprehensive Tutorial and Reference,,5th Edition,,"Richard S. Wright, Nicholas Haemel, Graham Sellers, Benjamin Lipchak",2010,5,Addison-Wesley Professional,,1008,0,English,,,,"0-32-171261-7,978-0-321-71261-5",,,,,,,,,,,0,,,,,,,1,26544332,pdf,7563905a65738c4dab98c5a14323ea24,,,D:\\HDD4\\_missing\\7563905a65738c4dab98c5a14323ea24.pdf,0,2000-01-01 01:00:00,2016-04-03 02:51:08,1153000/7563905a65738c4dab98c5a14323ea24-d.jpg,,
15922347,Stairway To The Stars,,,,Barry Parker,1994,0,Basic Books,,350,0,English,,,,"0-306-44763-0,9780306447631,0-7382-0578-8",,,,,,,,,,,0,,,,,,,1,45742563,pdf,7542fda897b2652b287270501fc5c29c,,,D:\\HDD4\\_missing\\7542fda897b2652b287270501fc5c29c.pdf,0,2000-01-01 01:00:00,2016-04-03 02:51:08,1153000/7542fda897b2652b287270501fc5c29c-d.jpg,,
15922348,Corneal Disease: Recent Developments in Diagnosis and Therapy,,,,"Thomas Reinhard, Frank Larkin",2012,,Springer,,150,0,English,,,,"3642287468,978-3-642-28746-6,978-3-642-28747-3",,,,,,,10.1007/978-3-642-28747-3,,,,0,,,,,,,1,3310839,pdf,7561712bdb2e552e518d943720a48fbf,,,D:\\HDD4\\_missing\\7561712bdb2e552e518d943720a48fbf.pdf,0,2000-01-01 01:00:00,2016-04-03 02:51:08,1153000/7561712bdb2e552e518d943720a48fbf-d.jpg,,
15922344,Global Order and Global Disorder: Globalization and the Nation-State,,,,Keith Suter,2003,,Praeger,,216,0,English,,,,"0-275-97388-3,9780275973889",,,,,,,,,,,0,,,,,,,1,3332975,pdf,75170b30a87528f3c7ec6629c908110a,,,D:\\HDD4\\_missing\\75170b30a87528f3c7ec6629c908110a.pdf,0,2000-01-01 01:00:00,2016-04-03 02:51:08,1153000/75170b30a87528f3c7ec6629c908110a-d.jpg,,
15922345,Revitalizing Electoral Geography,,,,"Barney Warf, Jonathan Leib",2011,,Ashgate,,256,0,English,,,,"1409410722,978-1-4094-1072-0,978-1-4094-1073-7",,,,,,,,,,,0,,,,,,,1,5128747,pdf,7523e7d658dab6c08f02e3bafa39cc62,,,D:\\HDD4\\_missing\\7523e7d658dab6c08f02e3bafa39cc62(1).pdf,0,2000-01-01 01:00:00,2016-04-03 02:51:08,1153000/7523e7d658dab6c08f02e3bafa39cc62-d.jpg,,
15922346,"Language, Names, and Information",,,,Frank Jackson,2010,1,Wiley-Blackwell,,176,0,English,,,,"1405161582,978-1-4051-6158-9",,,,,,,,,,,0,,,,,,,1,3263893,pdf,752c17eb566b9bf9c410665bbfd2b97c,,,D:\\HDD4\\_missing\\752c17eb566b9bf9c410665bbfd2b97c(1).pdf,0,2000-01-01 01:00:00,2016-04-03 02:51:08,1153000/752c17eb566b9bf9c410665bbfd2b97c-d.jpg,,
15922342,Nietzsche's Enlightenment: The Free-Spirit Trilogy of the Middle Period,,,,Paul Franco,2011,,University Of Chicago Press,,280,0,English,,,,"0-226-25981-1,978-0-226-25981-9",,,,,,,,,,,0,,,,,,,1,3824592,pdf,750a22f23682d840586d635edf3d23af,,,D:\\HDD4\\_missing\\750a22f23682d840586d635edf3d23af.pdf,0,2000-01-01 01:00:00,2016-04-03 02:51:08,1153000/750a22f23682d840586d635edf3d23af-d.jpg,,
15922343,Papervision3D Essentials,,,,"Paul Tondeur, Jeff Winder",2009,1st,Packt Publishing,,428,0,English,,,,"1847195725,978-1-847195-72-2",,,,,,,,,,,0,,,,,,,1,7027219,pdf,750bde1f6d08fc8e2e7c8dfc119e10ef,,,D:\\HDD4\\_missing\\750bde1f6d08fc8e2e7c8dfc119e10ef.pdf,0,2000-01-01 01:00:00,2016-04-03 02:51:08,1153000/750bde1f6d08fc8e2e7c8dfc119e10ef-d.jpg,,
15922340,The Scientific Basis of Integrative Medicine,,,,"Leonard A. Wisneski, Lucy Anderson",2004,1,CRC Press,,304,0,English,,,,"0-8493-2081-X,9780849320811",,,,,,,,,,,0,,,,,,,1,5516930,pdf,74dfd44ae40b5a8630c62172101b1aad,,,D:\\HDD4\\_missing\\74dfd44ae40b5a8630c62172101b1aad.pdf,0,2000-01-01 01:00:00,2016-04-03 02:51:08,1153000/74dfd44ae40b5a8630c62172101b1aad-d.jpg,,
15922341,Getting Started with Raspberry Pi,,Make: Projects,,"Matt Richardson, Shawn Wallace",2012,1,O'Reilly Media,,176,0,English,,,,"1449344216,978-1-449-34421-4",,,,,,,,,,,0,,,,,,,1,14683327,pdf,7502f8327503f7dbb362c56b33939f33,,,D:\\HDD4\\_missing\\7502f8327503f7dbb362c56b33939f33.pdf,0,2000-01-01 01:00:00,2016-04-03 02:51:08,1153000/7502f8327503f7dbb362c56b33939f33-d.jpg,,
15922339,The Crucible of Consciousness: An Integrated Theory of Mind and Brain,,,,"Zoltan Torey, Daniel C. Dennett",2009,Reprint,The MIT Press,,264,0,English,,,,"026251284X,978-0-262-51284-8",,,,,,,,,,,0,,,,,,,1,3177699,pdf,74c9d8113afbb6bf7cf4e3282ed7b954,,,D:\\HDD4\\_missing\\74c9d8113afbb6bf7cf4e3282ed7b954.pdf,0,2000-01-01 01:00:00,2016-04-03 02:51:08,1153000/74c9d8113afbb6bf7cf4e3282ed7b954-d.jpg,,
15922336,Shiloh ; a Biblical City in Tradition and History,,,,Donald G Schley,1989,,Sheffield Academic Press,,257,0,English,,,,"1-85075-161-7,9781850751618",,,,,,,,,,,0,,,,,,,1,12593969,pdf,745d6e186038633d6499ec757933e351,,,D:\\HDD4\\_missing\\745d6e186038633d6499ec757933e351.pdf,0,2000-01-01 01:00:00,2016-04-03 02:51:08,1153000/745d6e186038633d6499ec757933e351-d.jpg,,
15922337,Beginning Mac OS X Snow Leopard Programming,,,,"Michael Trent, Drew McCormack",2010,1,Wrox,,672,0,English,,,,"0470577525,978-0-470-57752-3",,,,,,,,,,,0,,,,,,,1,64187544,pdf,749b3f206861b3c7595a1ff3ee99d1d8,,,D:\\HDD4\\_missing\\749b3f206861b3c7595a1ff3ee99d1d8.pdf,0,2000-01-01 01:00:00,2016-04-03 02:51:08,1153000/749b3f206861b3c7595a1ff3ee99d1d8-d.jpg,,
15922338,Cooperative Control of Distributed Multi-Agent Systems,,,,Jeff Shamma,2008,,Wiley-Interscience,,452,0,English,,,,"047006031X,978-0-470-06031-5",,,,,,,,,,,0,,,,,,,1,18312616,pdf,74adba388af269328fe54c7a7dec6cef,,,D:\\HDD4\\_missing\\74adba388af269328fe54c7a7dec6cef(1).pdf,0,2000-01-01 01:00:00,2016-04-03 02:51:08,1153000/74adba388af269328fe54c7a7dec6cef-d.jpg,,
15922335,Evolving Role of Asia in Global Finance,,Frontiers in Economics and Globalization) (Frontiers of Economics and Globalization,,"Yin-Wong Cheung, Vikas Kakkar, Guonan Ma",2011,,Emerald Group Publishing Limit,,410,0,English,,,,"085724745X,978-0-85724-745-2",,,,,,,,,,,0,,,,,,,1,13664581,pdf,745a529e71bcddd4c8ddddf9563c4c02,,,D:\\HDD4\\_missing\\745a529e71bcddd4c8ddddf9563c4c02(1).pdf,0,2000-01-01 01:00:00,2016-04-03 02:51:08,1153000/745a529e71bcddd4c8ddddf9563c4c02-d.jpg,,
15922333,The Lomborg Deception: Setting the Record Straight About Global Warming,,,,"Howard Friel, Thomas E. Lovejoy",2010,0,Yale University Press,,272,0,English,,,,"0300161034,978-0-300-16103-8",,,,,,,,,,,0,,,,,,,1,3157541,pdf,7408600e6980fa9726520294ca16fc2c,,,D:\\HDD4\\_missing\\7408600e6980fa9726520294ca16fc2c(1).pdf,0,2000-01-01 01:00:00,2016-04-03 02:51:08,1153000/7408600e6980fa9726520294ca16fc2c-d.jpg,,
15922334,Rate Constant Calculation for Thermal Reactions: Methods and Applications,,,,"Herbert DaCosta, Maohong Fan",2012,1,Wiley,,25,0,English,,,,"0470582308,978-0-470-58230-5",,,,,,,,,,,0,,,,,,,1,3524801,pdf,745005f2723251c3bc5f7a2d74f7df1d,,,D:\\HDD4\\_missing\\745005f2723251c3bc5f7a2d74f7df1d.pdf,0,2000-01-01 01:00:00,2016-04-03 02:51:08,1153000/745005f2723251c3bc5f7a2d74f7df1d-d.jpg,,
15922331,"Six Sigma and Beyond: Problem Solving and Basic Mathematics, Volume II",,,,D.H. Stamatis,2001,1st,CRC Press,,416,0,English,,,,"1-57444-310-0,9781574443103",,,,,,,,,,,0,,,,,,,1,6045358,pdf,73fe9acd9ababb6af300db4e7e69decd,,,D:\\HDD4\\_missing\\73fe9acd9ababb6af300db4e7e69decd.pdf,0,2000-01-01 01:00:00,2016-04-03 02:51:08,1153000/73fe9acd9ababb6af300db4e7e69decd-d.jpg,,
15922332,Empire and Underworld: Captivity in French Guiana,,Harvard Historical Studies,,Miranda Frances Spieler,2012,,Harvard University Press,,296,0,English,,,,"0674057546,978-0-674-05754-8",,,,,,,,,,,0,,,,,,,1,4204282,pdf,7402820e2ff2f6af7cf11cb874a79c3e,,,D:\\HDD4\\_missing\\7402820e2ff2f6af7cf11cb874a79c3e.pdf,0,2000-01-01 01:00:00,2016-04-03 02:51:08,1153000/7402820e2ff2f6af7cf11cb874a79c3e-d.jpg,,
15922329,Essential Project Management Skills,,,,Kerry Wills,2010,,CRC Press,,220,0,English,,,,"1439827168,978-1-4398-2716-1",,,,,,,,,,,0,,,,,,,1,5696006,pdf,73e78a41ceeee01797852ede1a0aa0d8,,,D:\\HDD4\\_missing\\73e78a41ceeee01797852ede1a0aa0d8.pdf,0,2000-01-01 01:00:00,2016-04-03 02:51:08,1153000/73e78a41ceeee01797852ede1a0aa0d8-d.jpg,,
15922330,Stable Solutions of Elliptic Partial Differential Equations,,Monographs and Surveys in Pure and Applied Mathematics,,Louis Dupaigne,2011,1,Chapman and Hall/CRC,,335,0,English,,,,"1420066544,978-1-4200-6654-8",,,,,,,,,,,0,,,,,,,1,3922975,pdf,73fd1f57536ab73b82015bc0dd768019,,,D:\\HDD4\\_missing\\73fd1f57536ab73b82015bc0dd768019.pdf,0,2000-01-01 01:00:00,2016-04-03 02:51:08,1153000/73fd1f57536ab73b82015bc0dd768019-d.jpg,,
15922327,Windows Server 2008 Unleashed,,,,"Rand Morimoto, Michael Noel, Omar Droubi, Ross Mistry, Chris Amaris",2008,0,Sams Publishing,,1432,0,English,,,,"0-672-32930-1,978-0-672-32930-2",,,,,,,,,,,0,,,,,,,1,35969092,pdf,73cb556c3ff800d43beaa7bde1cae0fb,,,D:\\HDD4\\_missing\\73cb556c3ff800d43beaa7bde1cae0fb.pdf,0,2000-01-01 01:00:00,2016-04-03 02:51:08,1153000/73cb556c3ff800d43beaa7bde1cae0fb-d.jpg,,
15922328,Myasthenia Gravis and Related Disorders,,Current Clinical Neurology,,Henry J. Kaminski,2008,2nd ed. 2009,Humana Press,,312,0,English,,,,"1588298523,978-1-58829-852-2,978-1-59745-156-7",,,,,,,10.1007/978-1-59745-156-7,,,,0,,,,,,,1,9971354,pdf,73dfdc608195784eb44dff5791573983,,,D:\\HDD4\\_missing\\73dfdc608195784eb44dff5791573983.pdf,0,2000-01-01 01:00:00,2016-04-03 02:51:08,1153000/73dfdc608195784eb44dff5791573983-d.jpg,,
15922325,"Cameras into the Wild: A History of Early Wildlife and Expedition Filmmaking, 1895-1928",,,,Palle Bogelund Petterson,2011,,Mcfarland,,236,0,English,,,,"0786461667,978-0-7864-6166-0",,,,,,,,,,,0,,,,,,,1,7543971,pdf,73b02ff08f0e6bc96774559790f38291,,,D:\\HDD4\\_missing\\73b02ff08f0e6bc96774559790f38291.pdf,0,2000-01-01 01:00:00,2016-04-03 02:51:08,1153000/73b02ff08f0e6bc96774559790f38291-d.jpg,,
15922326,One Foot Out the Door: How to Combat the Psychological Recession That's Alienating Employees and Hurting American Business,,,,Judith M. Bardwick Ph.D,2007,,AMACOM,,240,0,English,,,,"0814480586,978-0-8144-8058-8",,,,,,,,,,,0,,,,,,,1,3579019,pdf,73b1784ee5755b03eb0531ff4232b6a6,,,D:\\HDD4\\_missing\\73b1784ee5755b03eb0531ff4232b6a6(1).pdf,0,2000-01-01 01:00:00,2016-04-03 02:51:08,1153000/73b1784ee5755b03eb0531ff4232b6a6-d.jpg,,
15922323,Spinors in Four-Dimensional Spaces,,"Progress in Mathematical Physics, Vol. 59",,Gerardo F. Torres del Castillo,2010,1st,Birkh√§user,,184,0,English,,,,"0817649832,978-0-8176-4983-8,978-0-8176-4984-5",,,,,,,10.1007/978-0-8176-4984-5,,,,0,,,,,,,1,3175451,pdf,739319cd597ea90f19380386c4a11902,,,D:\\HDD4\\_missing\\739319cd597ea90f19380386c4a11902.pdf,0,2000-01-01 01:00:00,2016-04-03 02:51:08,1153000/739319cd597ea90f19380386c4a11902-d.jpg,,
15922324,Rock and Roll,,American Popular Music,,"Craig Morrison, Kevein J., Ph.D. Holm-Hudson",2005,,Facts on File (J),,328,0,English,,,,"0-8160-5317-0,9780816053179",,,,,,,,,,,0,,,,,,,1,21034686,pdf,73aa10ea6f4195ec5a328b3129e0ecd1,,,D:\\HDD4\\_missing\\73aa10ea6f4195ec5a328b3129e0ecd1.pdf,0,2000-01-01 01:00:00,2016-04-03 02:51:08,1153000/73aa10ea6f4195ec5a328b3129e0ecd1-d.jpg,,
15922322,"Borderline Personality Disorder - A Medical Dictionary, Bibliography, and Annotated Research Guide to Internet References",,,,Health Publica Icon Health Publications,2003,,ICON Health Publications,,168,0,English,,,,"0-597-83769-4,9780597837692",,,,,,,,,,,0,,,,,,,1,3185580,pdf,7389624bc8e0c8b19ff3f8dda843dd70,,,D:\\HDD4\\_missing\\7389624bc8e0c8b19ff3f8dda843dd70.pdf,0,2000-01-01 01:00:00,2016-04-03 02:51:08,1153000/7389624bc8e0c8b19ff3f8dda843dd70-d.jpg,,
15922320,Recognizing Reality: Dharmakirti's Philosophy and Its Tibetan Interpretations,,"Suny Series, Buddhist Studies",,Georges B. J. Dreyfus,1997,,State University of New York Press,,622,0,English,,,,"0-7914-3097-9,9780791430972,0-7914-3098-7",,,,,,,,,,,0,,,,,,,1,51645407,pdf,73742309830acce3d8c7278e7fedf040,,,D:\\HDD4\\_missing\\73742309830acce3d8c7278e7fedf040(1).pdf,0,2000-01-01 01:00:00,2016-04-03 02:51:08,1153000/73742309830acce3d8c7278e7fedf040-d.jpg,,
15922321,Kinematic Chains and Machine Components Design,,,,Dan B. Marghitu,2005,1,Academic Press,,792,0,English,,,,"0-12-471352-1,9780124713529",,,,,,,,,,,0,,,,,,,1,22178240,pdf,73875a23b86dc74331bbdf73b753adc9,,,D:\\HDD4\\_missing\\73875a23b86dc74331bbdf73b753adc9.pdf,0,2000-01-01 01:00:00,2016-04-03 02:51:08,1153000/73875a23b86dc74331bbdf73b753adc9-d.jpg,,
15922317,Cell Death: The Role of PARP,,,,Csaba Szabo,2000,1,CRC Press,,352,0,English,,,,"0-8493-2267-7,9780849322679",,,,,,,,,,,0,,,,,,,1,10749262,pdf,7353eafab81168c111da6859bdf02b49,,,D:\\HDD4\\_missing\\7353eafab81168c111da6859bdf02b49.pdf,0,2000-01-01 01:00:00,2016-04-03 02:51:08,1153000/7353eafab81168c111da6859bdf02b49-d.jpg,,
15922318,A Brief History of Australia,,,,"Barbara A. West, Frances T. Murphy",2010,1,Facts on File (J),,356,0,English,,,,"0816078858,978-0-8160-7885-1",,,,,,,,,,,0,,,,,,,1,16120338,pdf,735f5603f424a303b8a8aa3e323ab396,,,D:\\HDD4\\_missing\\735f5603f424a303b8a8aa3e323ab396.pdf,0,2000-01-01 01:00:00,2016-04-03 02:51:08,1153000/735f5603f424a303b8a8aa3e323ab396-d.jpg,,
15922319,Finite and Algorithmic Model Theory,,"London Mathematical Society Lecture Note Series, Vol. 379",,"Javier Esparza, Christian Michaux, Charles Steinhorn",2011,1st,Cambridge University Press,,356,0,English,,,,"0521718201,978-0-521-71820-2",,,,,,,,,,,0,,,,,,,1,3210723,pdf,73726b2e2c0a209f874a41449b6b9bca,,,D:\\HDD4\\_missing\\73726b2e2c0a209f874a41449b6b9bca.pdf,0,2000-01-01 01:00:00,2016-04-03 02:51:08,1153000/73726b2e2c0a209f874a41449b6b9bca-d.jpg,,
15922315,–ü–∏—Å—å–º–∞ –ø—Ä–µ–∑–∏–¥–µ–Ω—Ç—É,,,,–ê–ª–µ–∫—Å–∞–Ω–¥—Ä –ú–∏–Ω–∫–∏–Ω,2010,,–ê–°–¢,,,0,Russian,,,,,,,,,,,,,,,0,,,,,,,0,1064336,fb2,73351ed6db08e9858c354819520a4354,,,D:\\HDD4\\_missing\\73351ed6db08e9858c354819520a4354.fb2,0,2000-01-01 01:00:00,2016-04-03 02:51:08,1153000/73351ed6db08e9858c354819520a4354-g.jpg,,
15922316,The Real Life Guide to Accounting Research: A Behind-the-Scenes View of Using Qualitative Research Methods,,,,"Christopher Humphrey, Bill H.K. Lee",2004,1,Elsevier Science,,569,0,English,,,,"0-08-043972-1,9780080439723",,,,,,,,,,,0,,,,,,,1,4207130,pdf,734381515afb8fbc86833677cec8392f,,,D:\\HDD4\\_missing\\734381515afb8fbc86833677cec8392f.pdf,0,2000-01-01 01:00:00,2016-04-03 02:51:08,1153000/734381515afb8fbc86833677cec8392f-d.jpg,,
15922313,Beyond 401,,k,,Jean D. Sifleet,2003,1,Wiley,,272,0,English,,,,"0-471-27268-X,9780471272687",,,,,,,,,,,0,,,,,,,1,11838427,pdf,72c2a30c746e8a6743ff434efed1ac5b,,,D:\\HDD4\\_missing\\72c2a30c746e8a6743ff434efed1ac5b.pdf,0,2000-01-01 01:00:00,2016-04-03 02:51:08,1153000/72c2a30c746e8a6743ff434efed1ac5b-d.jpg,,
15922314,An Introduction to Probability and Statistical Inference,,,,George G. Roussas,2003,1,Academic Press,,523,0,English,,,,"0-12-599020-0,9780125990202",,,,,,,,,,,0,,,,,,,1,3483915,pdf,72e376f4cf1c45c48c13fc91b0cc058f,,,D:\\HDD4\\_missing\\72e376f4cf1c45c48c13fc91b0cc058f.pdf,0,2000-01-01 01:00:00,2016-04-03 02:51:08,1153000/72e376f4cf1c45c48c13fc91b0cc058f-d.jpg,,
15922311,Internet Security Dictionary,,,,Vir V. Phoha,2002,,Springer,,264,0,English,,,,"0-387-95261-6,9780387952611",,,,,,,,,,,0,,,,,,,1,27088310,pdf,728ce022c8f0682d40e44d71e32fdc59,,,D:\\HDD4\\_missing\\728ce022c8f0682d40e44d71e32fdc59.pdf,0,2000-01-01 01:00:00,2016-04-03 02:51:08,1153000/728ce022c8f0682d40e44d71e32fdc59-d.jpg,,
15922312,Clemente's Anatomy Dissector,,,,Carmine D. Clemente PhD,2010,Third,Lippincott Williams & Wilkins,,464,0,English,,,,"1608313840,978-1-60831-384-6",,,,,,,,,,,0,,,,,,,1,14728060,pdf,72ac767d5f6047ba4841f2b3c2caf201,,,D:\\HDD4\\_missing\\72ac767d5f6047ba4841f2b3c2caf201.pdf,0,2000-01-01 01:00:00,2016-04-03 02:51:08,1153000/72ac767d5f6047ba4841f2b3c2caf201-d.jpg,,
15922309,Behavior Dynamics in Media-Sharing Social Networks,,,,"H. Vicky Zhao, W. Sabrina Lin, K. J. Ray Liu",2011,0,Cambridge University Press,,350,0,English,,,,"0521197279,978-0-521-19727-4",,,,,,,,,,,0,,,,,,,1,3430453,pdf,726fdd3dd100fde25e7139d070861b99,,,D:\\HDD4\\_missing\\726fdd3dd100fde25e7139d070861b99.pdf,0,2000-01-01 01:00:00,2016-04-03 02:51:08,1153000/726fdd3dd100fde25e7139d070861b99-d.jpg,,
15922310,"John, Qumran, and the Dead Sea Scrolls: Sixty Years of Discovery and Debate",,Society of Biblical Literature: Early Judaism and Its Literature,,"Mary L. Coloe, Tom Thatcher, Mary L. Coloe, Tom Thatcher",2011,Bilingual,Society of Biblical Literature,,246,0,English,,,,"1589835468,978-1-58983-546-7",,,,,,,,,,,0,,,,,,,1,3730274,pdf,72803dcd20c00f6cce6e9739dc89743c,,,D:\\HDD4\\_missing\\72803dcd20c00f6cce6e9739dc89743c.pdf,0,2000-01-01 01:00:00,2016-04-03 02:51:08,1153000/72803dcd20c00f6cce6e9739dc89743c-d.jpg,,
15922307,Identity Complex: Making the Case for Multiplicity,,,,Michael Hames-Garc√≠a,2011,,Univ Of Minnesota Press,,304,0,English,,,,"0816649855,978-0-8166-4985-3,978-0-8166-4986-0",,,,,,,,,,,0,,,,,,,1,3178352,pdf,72556eb45dbbfdbdb169b3235d014ad8,,,D:\\HDD4\\_missing\\72556eb45dbbfdbdb169b3235d014ad8.pdf,0,2000-01-01 01:00:00,2016-04-03 02:51:08,1153000/72556eb45dbbfdbdb169b3235d014ad8-d.jpg,,
15922308,Absolute Beginner's Guide to Microsoft Windows Vista,,,,"Shelley O'Hara, Ron Mansfield",2007,1,Que Publishing,,408,0,English,,,,"0-7897-3576-8,9780789735768",,,,,,,,,,,0,,,,,,,1,19053042,pdf,726d509e19a4696676c21ab0b3aacd49,,,D:\\HDD4\\_missing\\726d509e19a4696676c21ab0b3aacd49.pdf,0,2000-01-01 01:00:00,2016-04-03 02:51:08,1153000/726d509e19a4696676c21ab0b3aacd49-d.jpg,,
15922305,Introduction to Modern Navigation Systems,,,,Esmat Bekir,2007,,World Scientific Publishing Company,,256,0,English,,,,"981-270-765-4,978-981-270-765-9,978-981-270-766-6,981-270-766-2",,,,,,,,,,,0,,,,,,,1,4253882,pdf,724ceef87139cbe57dee171bdded8a37,,,D:\\HDD4\\_missing\\724ceef87139cbe57dee171bdded8a37.pdf,0,2000-01-01 01:00:00,2016-04-03 02:51:08,1153000/724ceef87139cbe57dee171bdded8a37-d.jpg,,
15922306,Genetic Hearing Loss,,,,Patrick J. Willems,2003,1,CRC Press,,406,0,English,,,,"0-8247-4309-1,9780824743093",,,,,,,,,,,0,,,,,,,1,7400350,pdf,724eb7a64bd8b415c0e5b947e06b927c,,,D:\\HDD4\\_missing\\724eb7a64bd8b415c0e5b947e06b927c.pdf,0,2000-01-01 01:00:00,2016-04-03 02:51:08,1153000/724eb7a64bd8b415c0e5b947e06b927c-d.jpg,,
15922304,"Fractal Geometry, Complex Dimensions and Zeta Functions: Geometry and Spectra of Fractal Strings",,Springer Monographs in Mathematics,,"Michel  L. Lapidus, Machiel van Frankenhuijsen",2012,2nd ed. 2013,Springer,,590,0,English,,,,"1461421756,978-1-4614-2175-7,978-1-4614-2176-4",,,,,,,10.1007/978-1-4614-2176-4,,,,0,,,,,,,1,3879430,pdf,72400f2790c863c11e21dc51f7fb33d0,,,D:\\HDD4\\_missing\\72400f2790c863c11e21dc51f7fb33d0.pdf,0,2000-01-01 01:00:00,2016-04-03 02:51:08,1153000/72400f2790c863c11e21dc51f7fb33d0-d.jpg,,
15922302,Vegan for Life: Everything You Need to Know to Be Healthy and Fit on a Plant-Based Diet,,,,"Jack Norris, Virginia Messina",2011,0,Da Capo Lifelong Books,,304,0,English,,,,"0738214930,978-0-7382-1493-1,978-0-7382-1497-9",,,,,,,,,,,0,,,,,,,1,2287491,pdf,72058cd3078a4be648815c7a67aa3515,,,D:\\HDD4\\_missing\\72058cd3078a4be648815c7a67aa3515.pdf,0,2000-01-01 01:00:00,2016-04-03 02:51:08,1153000/72058cd3078a4be648815c7a67aa3515-d.jpg,,
15922303,"The Everything HR Kit: A Complete Guide to Attracting, Retaining, and Motivating High-Performance Employees",,,,"John Putzier, David Baker",2010,Pap/Cdr,AMACOM,,272,0,English,,,,"0-8144-1609-8,978-0-8144-1609-9",,,,,,,,,,,0,,,,,,,1,3245201,pdf,7228f45519ebc215d31154bef8dc1693,,,D:\\HDD4\\_missing\\7228f45519ebc215d31154bef8dc1693.pdf,0,2000-01-01 01:00:00,2016-04-03 02:51:08,1153000/7228f45519ebc215d31154bef8dc1693-d.jpg,,
15922300,Oath and State in Ancient Greece,,Beitrage Zur Altertumskunde,,Alan H. Sommerstein,2012,,de Gruyter,,376,0,English,,,,"3110284383,978-3-11-028438-6,978-3-11-028538-3",,,,,,,,,,,0,,,,,,,1,3520445,pdf,71f53f1bfe8de62cc247cd88f80447d1,,,D:\\HDD4\\_missing\\71f53f1bfe8de62cc247cd88f80447d1.pdf,0,2000-01-01 01:00:00,2016-04-03 02:51:08,1153000/71f53f1bfe8de62cc247cd88f80447d1-d.jpg,,
15922301,Gated Communities: Social Sustainability in Contemporary and Historical Gated Developments,,,,"Samer Bagaeen, Ola Uduku, Saskia Sassen",2010,,Routledge,,160,0,English,,,,"1844075192,978-1-84407-519-5",,,,,,,,,,,0,,,,,,,1,6149649,pdf,720301ae9548f771e44c235914822854,,,D:\\HDD4\\_missing\\720301ae9548f771e44c235914822854.pdf,0,2000-01-01 01:00:00,2016-04-03 02:51:08,1153000/720301ae9548f771e44c235914822854-d.jpg,,
15922298,Transmission Lines in Digital and Analog Electronic Systems: Signal Integrity and Crosstalk,,,,Clayton R. Paul,2010,1,Wiley,,298,0,English,,,,"0470592303,978-0-470-59230-4",,,,,,,,,,,0,,,,,,,1,13070052,pdf,71debc065ad87cfeba9bf9629548cc09,,,D:\\HDD4\\_missing\\71debc065ad87cfeba9bf9629548cc09.pdf,0,2000-01-01 01:00:00,2016-04-03 02:51:08,1153000/71debc065ad87cfeba9bf9629548cc09-d.jpg,,
15922299,Information Security Governance: A Practical Development and Implementation Approach,,Wiley Series in Systems Engineering and Management,,Krag Brotby,2009,1,Wiley,,220,0,English,,,,"0470131187,978-0-470-13118-3",,,,,,,,,,,0,,,,,,,1,3189423,pdf,71ed4318b048105a52a98ea63bb3ff0d,,,D:\\HDD4\\_missing\\71ed4318b048105a52a98ea63bb3ff0d.pdf,0,2000-01-01 01:00:00,2016-04-03 02:51:08,1153000/71ed4318b048105a52a98ea63bb3ff0d-d.jpg,,
15922296,Sects and Sectarianism in Jewish History,,Ijs Studies in Judaica,,Sacha Stern,2011,,BRILL,,304,0,English,,,,"9004206485,978-90-04-20648-9",,,,,,,,,,,0,,,,,,,1,3184439,pdf,71bc2de61a43d3ea054965aa43548974,,,D:\\HDD4\\_missing\\71bc2de61a43d3ea054965aa43548974.pdf,0,2000-01-01 01:00:00,2016-04-03 02:51:08,1153000/71bc2de61a43d3ea054965aa43548974-d.jpg,,
15922297,"The Virtues of Our Vices: A Modest Defense of Gossip, Rudeness, and Other Bad Habits",,,,Emrys Westacott,2011,,Princeton University Press,,304,0,English,,,,"0691141991,978-0-691-14199-2",,,,,,,,,,,0,,,,,,,1,3247158,pdf,71d7824048e4aec209d443f60845feb1,,,D:\\HDD4\\_missing\\71d7824048e4aec209d443f60845feb1.pdf,0,2000-01-01 01:00:00,2016-04-03 02:51:08,1153000/71d7824048e4aec209d443f60845feb1-d.jpg,,
15922294,Cognitive Capitalism,,,,Yann Moulier-Boutang,2012,1,Polity,,200,0,English,,,,"0745647324,978-0-7456-4732-6,978-0-7456-4733-3",,,,,,,,,,,0,,,,,,,1,10105021,pdf,718b6a59c6c9fc823cafe6281f6d75b5,,,D:\\HDD4\\_missing\\718b6a59c6c9fc823cafe6281f6d75b5.pdf,0,2000-01-01 01:00:00,2016-04-03 02:51:08,1153000/718b6a59c6c9fc823cafe6281f6d75b5-d.jpg,,
15922295,"Badiou, Zizek, and Political Transformations: The Cadence of Change",,Studies in Phenomenology and Existential Philosophy,,Adrian Johnston,2009,1,Northwestern University Press,,312,0,English,,,,"0810125692,978-0-8101-2569-8,978-0-8101-2570-4",,,,,,,,,,,0,,,,,,,1,8856030,pdf,71984c8e9ebf43b9581e1442ca84dc6f,,,D:\\HDD4\\_missing\\71984c8e9ebf43b9581e1442ca84dc6f.pdf,0,2000-01-01 01:00:00,2016-04-03 02:51:08,1153000/71984c8e9ebf43b9581e1442ca84dc6f-d.jpg,,
15922291,Django 1.0 Template Development,,,,Scott Newman,2008,,Packt Publishing,,272,0,English,,,,"1847195709,978-1-847195-70-8",,,,,,,,,,,0,,,,,,,1,6455667,pdf,716d97e811a94408ad28be7400472fc5,,,D:\\HDD4\\_missing\\716d97e811a94408ad28be7400472fc5(1).pdf,0,2000-01-01 01:00:00,2016-04-03 02:51:08,1153000/716d97e811a94408ad28be7400472fc5-d.jpg,,
15922292,"Engineered Concrete: Mix Design and Test Methods, Second Edition",,,,Irving Kett,2009,2,CRC Press,,246,0,English,,,,"1420091018,978-1-4200-9101-4",,,,,,,,,,,0,,,,,,,1,4196799,pdf,71751a1542a922ba63b626d2d1438520,,,D:\\HDD4\\_missing\\71751a1542a922ba63b626d2d1438520.pdf,0,2000-01-01 01:00:00,2016-04-03 02:51:08,1153000/71751a1542a922ba63b626d2d1438520-d.jpg,,
15922293,"Sport Science and Studies in Asia: Issues, Reflections and Emergent Solutions",,,,"Michael Chia, Michael Chia, Jasson Chiang",2010,,World Scientific Publishing Company,,316,0,English,,,,"981-4304-08-5,978-981-4304-08-5",,,,,,,,,,,0,,,,,,,1,3565761,pdf,7187e01ea95f52ccbeb85813c896b0d2,,,D:\\HDD4\\_missing\\7187e01ea95f52ccbeb85813c896b0d2.pdf,0,2000-01-01 01:00:00,2016-04-03 02:51:08,1153000/7187e01ea95f52ccbeb85813c896b0d2-d.jpg,,
15922290,"Body, Remember: A Memoir",,Living Out: Gay and Lesbian Autobiographies,,Kenny Fries,2003,1,University of Wisconsin Press,,248,0,English,,,,"0-299-19054-4,9780299190545",,,,,,,,,,,0,,,,,,,1,9946192,pdf,7165fe922634be1ceea1f1cb76fffd47,,,D:\\HDD4\\_missing\\7165fe922634be1ceea1f1cb76fffd47.pdf,0,2000-01-01 01:00:00,2016-04-03 02:51:08,1153000/7165fe922634be1ceea1f1cb76fffd47-d.jpg,,
15922288,Computerized Food Processing Operations,,,,"Arthur A. Teixeira, Charles F. Shoemaker",2012,Softcover reprint of the original 1st ed. 1989,Springer,,202,0,English,,,,"1461358477,978-1-4613-5847-3,978-1-4615-2043-6",,,,,,,10.1007/978-1-4615-2043-6,,,,0,,,,,,,1,26395016,pdf,7106786e5e504cfafaeae8eba4b4ecfb,,,D:\\HDD4\\_missing\\7106786e5e504cfafaeae8eba4b4ecfb.pdf,0,2000-01-01 01:00:00,2016-04-03 02:51:08,1153000/7106786e5e504cfafaeae8eba4b4ecfb-d.jpg,,
15922289,Casualties of Care: Immigration and the Politics of Humanitarianism in France,,,,Miriam I. Ticktin,2011,0,University of California Press,,312,0,English,,,,"0520269047,978-0-520-26904-0,978-0-520-26905-7",,,,,,,,,,,0,,,,,,,1,3286219,pdf,711dd43004103ad292ae78299ca1c8fa,,,D:\\HDD4\\_missing\\711dd43004103ad292ae78299ca1c8fa.pdf,0,2000-01-01 01:00:00,2016-04-03 02:51:08,1153000/711dd43004103ad292ae78299ca1c8fa-d.jpg,,
15922286,MATLAB for Psychologists,,,,"Mauro Borgo, Alessandro Soranzo, Massimo Grassi",2012,,Springer,,160,0,English,,,,"1461421969,978-1-4614-2196-2,978-1-4614-2197-9",,,,,,,10.1007/978-1-4614-2197-9,,,,0,,,,,,,1,11066446,pdf,70b2b61427c7d651f63e742080ecbcd6,,,D:\\HDD4\\_missing\\70b2b61427c7d651f63e742080ecbcd6.pdf,0,2000-01-01 01:00:00,2016-04-03 02:51:08,1153000/70b2b61427c7d651f63e742080ecbcd6-d.jpg,,
15922287,Bad Thoughts: A Guide to Clear Thinking,,,,Jamie Whyte,2003,,Corvo Books,,160,0,English,,,,"0954325532,978-0-9543255-3-4",,,,,,,,,,,0,,,,,,,1,4518406,pdf,70ff27e6ef1eed1c14f0193cb6e8d6f3,,,D:\\HDD4\\_missing\\70ff27e6ef1eed1c14f0193cb6e8d6f3.pdf,0,2000-01-01 01:00:00,2016-04-03 02:51:08,1153000/70ff27e6ef1eed1c14f0193cb6e8d6f3-d.jpg,,
15922284,"Magic and the Mind: Mechanisms, Functions, and Development of Magical Thinking and Behavior",,,,Eugene Subbotsky,2010,1,"Oxford University Press, USA",,216,0,English,,,,"0195393872,978-0-19-539387-3",,,,,,,,,,,0,,,,,,,1,3557575,pdf,707e88e4233ab53e5dfdc4ecf7429551,,,D:\\HDD4\\_missing\\707e88e4233ab53e5dfdc4ecf7429551.pdf,0,2000-01-01 01:00:00,2016-04-03 02:51:08,1153000/707e88e4233ab53e5dfdc4ecf7429551-d.jpg,,
15922285,Valorizing the Barbarians: Enemy Speeches in Roman Historiography,,Ashley and Peter Larkin Series in Greek and Roman Culture,,Eric Adler,2011,,University of Texas Press,,300,0,English,,,,"0292726287,978-0-292-72628-4,978-0-292-72991-9",,,,,,,,,,,0,,,,,,,1,3240874,pdf,70b2b2641efbbb030e6d54e0e1d4730a,,,D:\\HDD4\\_missing\\70b2b2641efbbb030e6d54e0e1d4730a.pdf,0,2000-01-01 01:00:00,2016-04-03 02:51:08,1153000/70b2b2641efbbb030e6d54e0e1d4730a-d.jpg,,
15922282,Facebook Application Development with Graph API Cookbook,,,,"Shashwat Srivastava, Apeksha Singh",2011,,Packt Publishing,,350,0,English,,,,"1849690928,978-1-84969-092-8",,,,,,,,,,,0,,,,,,,1,8994513,pdf,706e932770e26444c392bdb9774eed6f,,,D:\\HDD4\\_missing\\706e932770e26444c392bdb9774eed6f.pdf,0,2000-01-01 01:00:00,2016-04-03 02:51:08,1153000/706e932770e26444c392bdb9774eed6f-d.jpg,,
15922283,The Pursuit of Philosophy: Some Cambridge Perspectives,,,,Alexis Papazoglou,2012,1,Wiley-Blackwell,,178,0,English,,,,"1118295188,978-1-118-29518-2",,,,,,,,,,,0,,,,,,,1,3683665,pdf,706ffc38c0817443547a2a682a98b5e1,,,D:\\HDD4\\_missing\\706ffc38c0817443547a2a682a98b5e1.pdf,0,2000-01-01 01:00:00,2016-04-03 02:51:08,1153000/706ffc38c0817443547a2a682a98b5e1-d.jpg,,
15922280,Civilizing the Economy: A New Economics of Provision,,,,Marvin T. Brown,2010,1,Cambridge University Press,,282,0,English,,,,"0521767326,978-0-521-76732-3,978-0-521-15246-4",,,,,,,,,,,0,,,,,,,1,3256521,pdf,704dad0e2b77a351ed2ce8c514b040a4,,,D:\\HDD4\\_missing\\704dad0e2b77a351ed2ce8c514b040a4.pdf,0,2000-01-01 01:00:00,2016-04-03 02:51:08,1153000/704dad0e2b77a351ed2ce8c514b040a4-d.jpg,,
15922281,Managing Information Services: A Transformational Approach,,,,Jo Bryson,2006,2,Ashgate Pub Co,,346,0,English,,,,"0-7546-4631-9,978-0-7546-4631-0,0-7546-4634-3,978-0-7546-4634-1",,,,,,,,,,,0,,,,,,,1,1333359,pdf,7051dc15914cc4a8626ee05610082406,,,D:\\HDD4\\_missing\\7051dc15914cc4a8626ee05610082406.pdf,0,2000-01-01 01:00:00,2016-04-03 02:51:08,1153000/7051dc15914cc4a8626ee05610082406-d.jpg,,
15922278,Postcolonial Philosophy of Religion,,,,"Purushottama Bilimoria, Andrew B. Irvine",2010,,Springer,,350,0,English,,,,"9048125375,978-90-481-2537-1,978-90-481-2538-8",,,,,,,10.1007/978-90-481-2538-8,,,,0,,,,,,,1,3298841,pdf,70317e1017f2f70d40fd4a0de958ce73,,,D:\\HDD4\\_missing\\70317e1017f2f70d40fd4a0de958ce73.pdf,0,2000-01-01 01:00:00,2016-04-03 02:51:08,1153000/70317e1017f2f70d40fd4a0de958ce73-d.jpg,,
15922279,Taken for Grantedness: The Embedding of Mobile Communication into Society,,,,Richard Ling,2012,,The MIT Press,,256,0,English,,,,"0262018136,978-0-262-01813-5",,,,,,,,,,,0,,,,,,,1,3821192,pdf,704056ce5712cbe18c6b25add299da4c,,,D:\\HDD4\\_missing\\704056ce5712cbe18c6b25add299da4c(1).pdf,0,2000-01-01 01:00:00,2016-04-03 02:51:08,1153000/704056ce5712cbe18c6b25add299da4c-d.jpg,,
15922276,The Wiley-Blackwell Companion to Economic Geography,,,,"Trevor J. Barnes, Jamie Peck, Eric Sheppard",2012,1,Wiley-Blackwell,,664,0,English,,,,"1444336800,978-1-4443-3680-1",,,,,,,,,,,0,,,,,,,1,6485914,pdf,7003796d4fe82ccbc1d4bc8a931944e2,,,D:\\HDD4\\_missing\\7003796d4fe82ccbc1d4bc8a931944e2.pdf,0,2000-01-01 01:00:00,2016-04-03 02:51:08,1153000/7003796d4fe82ccbc1d4bc8a931944e2-d.jpg,,
15922277,Calculus of Variations and Optimal Control Theory: A Concise Introduction,,,,Daniel Liberzon,2012,,Princeton University Press,,256,0,English,,,,"0691151873,978-0-691-15187-8",,,,,,,,,,,0,,,,,,,1,3402621,pdf,701cb7120fdafb2288091b18938e1ddf,,,D:\\HDD4\\_missing\\701cb7120fdafb2288091b18938e1ddf.pdf,0,2000-01-01 01:00:00,2016-04-03 02:51:08,1153000/701cb7120fdafb2288091b18938e1ddf-d.jpg,,
15922274,Advanced NXT: The Da Vinci Inventions Book,,Technology in Action,,Matthias Paul Scholz,2007,1,Apress,,369,0,English,,,,"1-59059-843-1,978-1-59059-843-6",,,,,,,,,,,0,,,,,,,1,26607307,pdf,6ff6ec08e60e8fc248ed5c218975f4f3,,,D:\\HDD4\\_missing\\6ff6ec08e60e8fc248ed5c218975f4f3.pdf,0,2000-01-01 01:00:00,2016-04-03 02:51:08,1153000/6ff6ec08e60e8fc248ed5c218975f4f3-d.jpg,,
15922275,Degrees of Belief,,Synthese Library,,"Franz Huber, Christoph Schmidt-Petri",2009,,Springer,,354,0,English,,,,"1402091974,978-1-4020-9197-1,978-1-4020-9198-8",,,,,,,10.1007/978-1-4020-9198-8,,,,0,,,,,,,1,4247331,pdf,700003f45d3bed51003536cc0981952f,,,D:\\HDD4\\_missing\\700003f45d3bed51003536cc0981952f.pdf,0,2000-01-01 01:00:00,2016-04-03 02:51:08,1153000/700003f45d3bed51003536cc0981952f-d.jpg,,
15922272,Challenges of the Housing Economy: An International Perspective,,Real Estate Issues,,"Colin Jones, Michael White, Neil Dunse",2012,1,Wiley-Blackwell,,336,0,English,,,,"0470672331,978-0-470-67233-4",,,,,,,,,,,0,,,,,,,1,3199705,pdf,6fd5f3ccedc034467fc3dc190a5c6724,,,D:\\HDD4\\_missing\\6fd5f3ccedc034467fc3dc190a5c6724(1).pdf,0,2000-01-01 01:00:00,2016-04-03 02:51:08,1153000/6fd5f3ccedc034467fc3dc190a5c6724-d.jpg,,
15922273,Sacred Rights: The Case for Contraception and Abortion in World Religions,,,,Daniel C. Maguire,2003,,"Oxford University Press, USA",,304,0,English,,,,"0-19-516000-2,9780195160000,0-19-516001-0",,,,,,,,,,,0,,,,,,,1,17268120,pdf,6ff1ad24995566551cc93d63da603b5c,,,D:\\HDD4\\_missing\\6ff1ad24995566551cc93d63da603b5c(1).pdf,0,2000-01-01 01:00:00,2016-04-03 02:51:08,1153000/6ff1ad24995566551cc93d63da603b5c-d.jpg,,
15922271,The Wiley Blackwell Companion to Practical Theology,,,,Bonnie J. Miller-McLemore,2011,1,Wiley-Blackwell,,640,0,English,,,,"1444330829,978-1-4443-3082-3",,,,,,,,,,,0,,,,,,,1,4600370,pdf,6fae9a309a1c38fcf10712027ab0ad7c,,,D:\\HDD4\\_missing\\6fae9a309a1c38fcf10712027ab0ad7c.pdf,0,2000-01-01 01:00:00,2016-04-03 02:51:08,1153000/6fae9a309a1c38fcf10712027ab0ad7c-d.jpg,,
15922269,Configurations from a Graphical Viewpoint,,Birkh√§user Advanced Texts   Basler Lehrb√ºcher,,"Tomaz Pisanski, Brigitte Servatius",2012,,Birkh√§user,,304,0,English,,,,"0817683631,978-0-8176-8363-4,978-0-8176-8364-1",,,,,,,10.1007/978-0-8176-8364-1,,,,0,,,,,,,1,3042255,pdf,6f9a50369a5111396d356e252ee362de,,,D:\\HDD4\\_missing\\6f9a50369a5111396d356e252ee362de.pdf,0,2000-01-01 01:00:00,2016-04-03 02:51:08,1153000/6f9a50369a5111396d356e252ee362de-d.jpg,,
15922270,The Changing Realities of Work and Family,,Blackwell/Claremont Applied Social Psychology Series,,"Amy Marcus-Newhall, Diane F. Halpern, Sherylle J. Tan",2008,1,Wiley-Blackwell,,320,0,English,,,,"1405163453,978-1-405-16345-3,978-1-4051-6346-0",,,,,,,,,,,0,,,,,,,1,3421527,pdf,6f9bcb73f77c10f81fffffb46cd46a2e,,,D:\\HDD4\\_missing\\6f9bcb73f77c10f81fffffb46cd46a2e.pdf,0,2000-01-01 01:00:00,2016-04-03 02:51:08,1153000/6f9bcb73f77c10f81fffffb46cd46a2e-d.jpg,,
15922267,Apartness and Uniformity: A Constructive Development,,Theory and Applications of Computability,,"Douglas Bridges, Luminita Simona V√Æta",2011,,Springer,,210,0,English,,,,"3642224148,978-3-642-22414-0,978-3-642-22415-7",,,,,,,10.1007/978-3-642-22415-7,,,,0,,,,,,,1,3344262,pdf,6f80754e5714c025de98f1212832fe6f,,,D:\\HDD4\\_missing\\6f80754e5714c025de98f1212832fe6f.pdf,0,2000-01-01 01:00:00,2016-04-03 02:51:08,1153000/6f80754e5714c025de98f1212832fe6f-d.jpg,,
15922268,How the Trading Floor Really Works,,Bloomberg Financial,,Terri Duhon,2012,1,Bloomberg Press,,368,0,English,,,,"1119962951,978-1-119-96295-3,978-1-119-96601-2,978-1-119-96603-6,978-1-119-96602-9",,,,,,,,,,,0,,,,,,,1,3920681,pdf,6f8cf8060784689aa7917a4bfee11ee3,,,D:\\HDD4\\_missing\\6f8cf8060784689aa7917a4bfee11ee3.pdf,0,2000-01-01 01:00:00,2016-04-03 02:51:08,1153000/6f8cf8060784689aa7917a4bfee11ee3-d.jpg,,
15922265,On Computing: The Fourth Great Scientific Domain,,,,Paul S. Rosenbloom,2012,,The MIT Press,,336,0,English,,,,"0262018322,978-0-262-01832-6",,,,,,,,,,,0,,,,,,,1,47256070,pdf,6f5211357bd680f9ef74ac4b76554fb3,,,D:\\HDD4\\_missing\\6f5211357bd680f9ef74ac4b76554fb3.pdf,0,2000-01-01 01:00:00,2016-04-03 02:51:08,1153000/6f5211357bd680f9ef74ac4b76554fb3-d.jpg,,
15922266,The Power of Convergence: Linking Business Strategies and Technology Decisions to Create Sustainable Success,,,,"Faisal Hoque, Lawrence M. Walsh, Diana L. Mirakaj, Jeffrey Bruckner",2011,,AMACOM,,231,0,English,,,,"0-8144-1695-0,978-0-8144-1695-2",,,,,,,,,,,0,,,,,,,1,4702851,pdf,6f76121fd304773b9dfd15c7a8f5e6b9,,,D:\\HDD4\\_missing\\6f76121fd304773b9dfd15c7a8f5e6b9.pdf,0,2000-01-01 01:00:00,2016-04-03 02:51:08,1153000/6f76121fd304773b9dfd15c7a8f5e6b9-d.jpg,,
15922263,Sexual Morality in the World's Religions,,,,Geoffrey Parrinder,1995,,Oneworld,,290,0,English,,,,"1-85168-108-6,9781851681082",,,,,,,,,,,0,,,,,,,1,3586184,pdf,6f39b2cc085b0d1bda589782cba877de,,,D:\\HDD4\\_missing\\6f39b2cc085b0d1bda589782cba877de.pdf,0,2000-01-01 01:00:00,2016-04-03 02:51:08,1153000/6f39b2cc085b0d1bda589782cba877de-d.jpg,,
15922264,Case Study Research in Software Engineering: Guidelines and Examples,,,,"Per Runeson, Martin Host, Austen Rainer, Bjorn Regnell",2012,1,Wiley,,256,0,English,,,,"1118104358,978-1-118-10435-4",,,,,,,,,,,0,,,,,,,1,4014897,pdf,6f40c013ee7bdacd7166ad169a178c36,,,D:\\HDD4\\_missing\\6f40c013ee7bdacd7166ad169a178c36.pdf,0,2000-01-01 01:00:00,2016-04-03 02:51:08,1153000/6f40c013ee7bdacd7166ad169a178c36-d.jpg,,
15922260,The Association Guide to Going Global: New Strategies for a Changing Economic Landscape,,,,Steven Worth,2010,1,Wiley,,208,0,English,,,,"047058789X,978-0-470-58789-8",,,,,,,,,,,0,,,,,,,1,3352794,pdf,6f005f474537f777f1856644c993c962,,,D:\\HDD4\\_missing\\6f005f474537f777f1856644c993c962.pdf,0,2000-01-01 01:00:00,2016-04-03 02:51:08,1153000/6f005f474537f777f1856644c993c962-d.jpg,,
15922261,Bond Investing For Dummies,,,,Russell Wild,2007,1,For Dummies,,360,0,English,,,,"0470134593,978-0-470-13459-7",,,,,,,,,,,0,,,,,,,1,4848488,pdf,6f011b042aacd4e4308c8e1b32472556,,,D:\\HDD4\\_missing\\6f011b042aacd4e4308c8e1b32472556.pdf,0,2000-01-01 01:00:00,2016-04-03 02:51:08,1153000/6f011b042aacd4e4308c8e1b32472556-d.jpg,,
15922262,Basic Guide to Dental Instruments,,,,Carmen Scheller-Sheridan,2011,2,Wiley-Blackwell,,304,0,English,,,,"1-4443-3532-4,978-1-4443-3532-3",,,,,,,,,,,0,,,,,,,1,50726959,pdf,6f2f998b2107d5a5d7ad0a731ef03c56,,,D:\\HDD4\\_missing\\6f2f998b2107d5a5d7ad0a731ef03c56.pdf,0,2000-01-01 01:00:00,2016-04-03 02:51:08,1153000/6f2f998b2107d5a5d7ad0a731ef03c56-d.jpg,,
15922258,Advances in Interdisciplinary Applied Discrete Mathematics,,Interdisciplinary Mathematical Sciences,,Hemanshu Kaul,2010,,World Scientific Publishing Company,,272,0,English,,,,"981-4299-14-6,978-981-4299-14-5",,,,,,,,,,,0,,,,,,,1,3478817,pdf,6ec19d30887e18016e0e1fa7e26cc6b8,,,D:\\HDD4\\_missing\\6ec19d30887e18016e0e1fa7e26cc6b8.pdf,0,2000-01-01 01:00:00,2016-04-03 02:51:08,1153000/6ec19d30887e18016e0e1fa7e26cc6b8-d.jpg,,
15922259,Plant Biotechnology: Current and Future Applications of Genetically Modified Crops,,,,Nigel Halford,2006,1,Wiley,,316,0,English,,,,"0-470-02181-0,978-0-470-02181-1",,,,,,,,,,,0,,,,,,,1,3371123,pdf,6ede80cefc68e8ed4705b338431c3465,,,D:\\HDD4\\_missing\\6ede80cefc68e8ed4705b338431c3465.pdf,0,2000-01-01 01:00:00,2016-04-03 02:51:08,1153000/6ede80cefc68e8ed4705b338431c3465-d.jpg,,
15922256,Professional Linux Programming,,,,"Jon Masters, Richard Blum",2007,1,Wrox,,465,0,English,,,,"0471776130,978-0-471-77613-0",,,,,,,,,,,0,,,,,,,1,14086067,pdf,6ea015fe3780bced263df79e63b0f875,,,D:\\HDD4\\_missing\\6ea015fe3780bced263df79e63b0f875(1).pdf,0,2000-01-01 01:00:00,2016-04-03 02:51:08,1153000/6ea015fe3780bced263df79e63b0f875-d.jpg,,
15922257,Business and Technology in China,,Understanding China Today,,Jing Luo,2010,,ABC-CLIO,,234,0,English,,,,"0313357323,978-0-313-35732-9,978-0-313-35733-6",,,,,,,,,,,0,,,,,,,1,3601707,pdf,6eafd6b8eb74bcb941df7409c00e0800,,,D:\\HDD4\\_missing\\6eafd6b8eb74bcb941df7409c00e0800.pdf,0,2000-01-01 01:00:00,2016-04-03 02:51:08,1153000/6eafd6b8eb74bcb941df7409c00e0800-d.jpg,,
15922254,Mindfire: Big Ideas for Curious Minds,,,,Scott Berkun,2011,,Berkun Media,,196,0,English,,,,"0983873100,978-0-9838731-0-5",,,,,,,,,,,0,,,,,,,1,3666943,pdf,6e64ac139cdaf9bc72f114b2190b5a65,,,D:\\HDD4\\_missing\\6e64ac139cdaf9bc72f114b2190b5a65.pdf,0,2000-01-01 01:00:00,2016-04-03 02:51:08,1153000/6e64ac139cdaf9bc72f114b2190b5a65-d.jpg,,
15922255,High Efficiency RF and Microwave Solid State Power Amplifiers,,Microwave and Optical Engineering,,"Paolo Colantonio, Franco Giannini, Ernesto Limiti",2009,1,Wiley,,514,0,English,,,,"0470513004,978-0-470-51300-2",,,,,,,,,,,0,,,,,,,1,21672356,pdf,6e73519b4fba3aa8786443d323c0138e,,,D:\\HDD4\\_missing\\6e73519b4fba3aa8786443d323c0138e.pdf,0,2000-01-01 01:00:00,2016-04-03 02:51:08,1153000/6e73519b4fba3aa8786443d323c0138e-d.jpg,,
15922253,Visualizing Human Biology Lab Manual,,,,Jennifer Ellie,2011,1,Wiley,,512,0,English,,,,"0470591498,978-0470-59149-9",,,,,,,,,,,0,,,,,,,1,77650874,pdf,6e51f12c186906b6ce2bba0f46dbbf38,,,D:\\HDD4\\_missing\\6e51f12c186906b6ce2bba0f46dbbf38(1).pdf,0,2000-01-01 01:00:00,2016-04-03 02:51:08,1153000/6e51f12c186906b6ce2bba0f46dbbf38-d.jpg,,
15922250,"HTML, XHTML and CSS For Dummies",,,,"Ed Tittel, Jeff Noble",2011,7,For Dummies,,416,0,English,,,,"0470916591,978-0-470-91659-9",,,,,,,,,,,0,,,,,,,1,27597268,pdf,6e0cc997834532eb664cff0b497a37f8,,,D:\\HDD4\\_missing\\6e0cc997834532eb664cff0b497a37f8.pdf,0,2000-01-01 01:00:00,2016-04-03 02:51:08,1153000/6e0cc997834532eb664cff0b497a37f8-d.jpg,,
15922251,Physics MCQs for the Part 1 FRCR,,,,"Dr Shahzad Ilyas, Dr Tomasz Matys, Dr Nasim Sheikh-Bahaei, Dr Adam K. Yamamoto, Dr Martin John Graves",2011,1,Cambridge University Press,,160,0,English,,,,"1107400996,978-1-107-40099-3",,,,,,,,,,,0,,,,,,,1,3293761,pdf,6e22dfd5782df2aad6d251e00c51c993,,,D:\\HDD4\\_missing\\6e22dfd5782df2aad6d251e00c51c993.pdf,0,2000-01-01 01:00:00,2016-04-03 02:51:08,1153000/6e22dfd5782df2aad6d251e00c51c993-d.jpg,,
15922252,Insect Biotechnology,,Biologically-Inspired Systems,,Andreas Vilcinskas,2010,,Springer,,220,0,English,,,,"904819640X,978-90-481-9640-1,978-90-481-9641-8",,,,,,,10.1007/978-90-481-9641-8,,,,0,,,,,,,1,11972109,pdf,6e469f6212382fe0b3b2c7a6fde92a19,,,D:\\HDD4\\_missing\\6e469f6212382fe0b3b2c7a6fde92a19.pdf,0,2000-01-01 01:00:00,2016-04-03 02:51:08,1153000/6e469f6212382fe0b3b2c7a6fde92a19-d.jpg,,
15922249,Computational Biology of Transcription Factor Binding,,Methods in Molecular Biology,,Istvan Ladunga,2010,,Humana Press,,415,0,English,,,,"1607618532,978-1-60761-853-9,978-1-60761-854-6",,,,,,,10.1007/978-1-60761-854-6,,,,0,,,,,,,1,18282422,pdf,6e0a6150b84533e2b6a645628d3b3501,,,D:\\HDD4\\_missing\\6e0a6150b84533e2b6a645628d3b3501.pdf,0,2000-01-01 01:00:00,2016-04-03 02:51:08,1153000/6e0a6150b84533e2b6a645628d3b3501-d.jpg,,
15922247,Differential Equations with Impulse Effects: Multivalued Right-hand Sides with Discontinuities,,De Gruyter Studies in Mathematics,,Nikolai A. Perestyuk,2011,1,De Gruyter,,307,0,English,,,,"311021816X,978-3-11-021816-9,978-3-11-021817-6",,,,,,,,,,,0,,,,,,,1,3272001,pdf,6df41f7f5faff387b12ea4da175097c6,,,D:\\HDD4\\_missing\\6df41f7f5faff387b12ea4da175097c6.pdf,0,2000-01-01 01:00:00,2016-04-03 02:51:08,1153000/6df41f7f5faff387b12ea4da175097c6-d.jpg,,
15922248,Online Recruiting and Selection: Innovations in Talent Acquisition,,TMEZ - Talent Management Essentials,,"Douglas H. Reynolds, John A. Weiner",2009,1,Wiley-Blackwell,,232,0,English,,,,"140518230X,978-1-405-18230-0,978-1-4051-8229-4",,,,,,,,,,,0,,,,,,,1,3848741,pdf,6df57c77acb1ca78f3ec3596654e3aac,,,D:\\HDD4\\_missing\\6df57c77acb1ca78f3ec3596654e3aac.pdf,0,2000-01-01 01:00:00,2016-04-03 02:51:08,1153000/6df57c77acb1ca78f3ec3596654e3aac-d.jpg,,
15922245,Juvenile Justice,,,,K√§ren M. Hess,2009,5,Cengage Learning,,496,0,English,,,,"0-495-50437-8,9780495504375",,,,,,,,,,,0,,,,,,,1,7709644,pdf,6de4a369a2322426ecfc14e415eb46f5,,,D:\\HDD4\\_missing\\6de4a369a2322426ecfc14e415eb46f5.pdf,0,2000-01-01 01:00:00,2016-04-03 02:51:08,1153000/6de4a369a2322426ecfc14e415eb46f5-d.jpg,,
15922246,Counterterrorism and Cybersecurity: Total Information Awareness,,,,Newton Lee,2013,,Springer,,234,0,English,,,,"1461472040,978-1-4614-7204-9,978-1-4614-7205-6",,,,,,,10.1007/978-1-4614-7205-6,,,,0,,,,,,,1,5448413,pdf,6dea90c53edb7a1a8a0ee765c0f684a8,,,D:\\HDD4\\_missing\\6dea90c53edb7a1a8a0ee765c0f684a8.pdf,0,2000-01-01 01:00:00,2016-04-03 02:51:08,1153000/6dea90c53edb7a1a8a0ee765c0f684a8-d.jpg,,
15922244,Essentials of Sports Nutrition and Supplements,,,,"Jose Antonio, Douglas Kalman, Jeffrey R. Stout, Mike Greenwood, Darryn Willoughby, G. Gregory Haff",2008,,Humana Press,,691,0,English,,,,"1588296113,978-1-58829-611-5,978-1-59745-302-8",,,,,,,10.1007/978-1-59745-302-8,,,,0,,,,,,,1,3561859,pdf,6de043eb0327e1d1e98939d7f6d2df0e,,,D:\\HDD4\\_missing\\6de043eb0327e1d1e98939d7f6d2df0e.pdf,0,2000-01-01 01:00:00,2016-04-03 02:51:08,1153000/6de043eb0327e1d1e98939d7f6d2df0e-d.jpg,,
15922242,"Practical Design, Construction and Operation of Food Facilities",,Food Science and Technology,,J. Peter Clark,2008,1,Academic Press,,328,0,English,,,,"0123742048,978-0-12-374204-9",,,,,,,,,,,0,,,,,,,1,3191397,pdf,6da3a74176ea4f0ae7b479e06890f171,,,D:\\HDD4\\_missing\\6da3a74176ea4f0ae7b479e06890f171.pdf,0,2000-01-01 01:00:00,2016-04-03 02:51:08,1153000/6da3a74176ea4f0ae7b479e06890f171-d.jpg,,
15922243,Recent Advances in Stochastic Operations Research,,,,"Tadashi Dohi, Shunji Osaki, Katsushige Sawaki",2007,,World Scientific Publishing,,324,0,English,,,,"981-256-704-6,978-981-256-704-8",,,,,,,,,,,0,,,,,,,1,11978561,pdf,6db48e7b1c009e1d58d8672bfbd7d9f8,,,D:\\HDD4\\_missing\\6db48e7b1c009e1d58d8672bfbd7d9f8.pdf,0,2000-01-01 01:00:00,2016-04-03 02:51:08,1153000/6db48e7b1c009e1d58d8672bfbd7d9f8-d.jpg,,
15922239,Theories of Race and Racism: A Reader,,Routledge Student Readers,,"Les Back, John Solomos",2000,,Routledge,,672,0,English,,,,"0-415-15671-8,9780415156714,0-415-15672-6",,,,,,,,,,,0,,,,,,,1,13536046,pdf,6d49b70f5a9b1e5853f99cb13e7ed091,,,D:\\HDD4\\_missing\\6d49b70f5a9b1e5853f99cb13e7ed091.pdf,0,2000-01-01 01:00:00,2016-04-03 02:51:08,1153000/6d49b70f5a9b1e5853f99cb13e7ed091-d.jpg,,
15922240,Encyclopedia of Religion and Film,,,,Eric Michael Mazur,2011,,ABC-CLIO,,644,0,English,,,,"0313330727,978-0-313-33072-8,978-0-313-01398-0",,,,,,,,,,,0,,,,,,,1,3983053,pdf,6d896b75b903f491cba338f00510add8,,,D:\\HDD4\\_missing\\6d896b75b903f491cba338f00510add8.pdf,0,2000-01-01 01:00:00,2016-04-03 02:51:08,1153000/6d896b75b903f491cba338f00510add8-d.jpg,,
15922241,Terrorism and the Ethics of War,,,,Stephen Nathanson,2010,1,Cambridge University Press,,328,0,English,,,,"0521199956,978-0-521-19995-7,978-0-521-13716-4",,,,,,,,,,,0,,,,,,,1,3941100,pdf,6da35584b0bd9397e0d9a32b20f5c807,,,D:\\HDD4\\_missing\\6da35584b0bd9397e0d9a32b20f5c807.pdf,0,2000-01-01 01:00:00,2016-04-03 02:51:08,1153000/6da35584b0bd9397e0d9a32b20f5c807-d.jpg,,
15922238,ACSM's Foundations of Strength Training and Conditioning,,,,"American College of Sports Medicine, Nicholas Ratamess Jr. PhD  CSCS*D  FNSCA",2011,1 Har/Psc,Lippincott Williams & Wilkins,,560,0,English,,,,"0781782678,978-0-7817-8267-8",,,,,,,,,,,0,,,,,,,1,25477701,pdf,6d3ab309c5085e083de416fc7b562aa8,,,D:\\HDD4\\_missing\\6d3ab309c5085e083de416fc7b562aa8(1).pdf,0,2000-01-01 01:00:00,2016-04-03 02:51:08,1153000/6d3ab309c5085e083de416fc7b562aa8-d.jpg,,
15922236,WiMAX Security and Quality of Service: An End-to-End Perspective,,,,"Seok-Yee Tang, Peter Muller, Hamid Sharif",2010,1,Wiley,,418,0,English,,,,"0470721979,978-0-470-72197-1",,,,,,,,,,,0,,,,,,,1,3614106,pdf,6cfe573b6e5b5df9acc6319e2d85e8e6,,,D:\\HDD4\\_missing\\6cfe573b6e5b5df9acc6319e2d85e8e6.pdf,0,2000-01-01 01:00:00,2016-04-03 02:51:08,1153000/6cfe573b6e5b5df9acc6319e2d85e8e6-d.jpg,,
15922237,Noscendi Nilum Cupido,,Trends in Classics - Supplementary Volumes,,Eleni Manolaraki,2012,,de Gruyter,,380,0,English,,,,"3110297671,978-3-11-029767-6,978-3-11-029773-7",,,,,,,,,,,0,,,,,,,1,4308780,pdf,6d2ff69ee9814ae87246dd848d82be32,,,D:\\HDD4\\_missing\\6d2ff69ee9814ae87246dd848d82be32(1).pdf,0,2000-01-01 01:00:00,2016-04-03 02:51:08,1153000/6d2ff69ee9814ae87246dd848d82be32-d.jpg,,
15922234,Remote Sensing from Air And Space,,SPIE Press Monograph Vol. PM162,,R. C. Olsen,2007,0,SPIE,,270,0,English,,,,"0819462357,978-0-8194-6235-0",,,,,,,,,,,0,,,,,,,1,113290969,pdf,6ce37007a3d64a988724d04cd164425d,,,D:\\HDD4\\_missing\\6ce37007a3d64a988724d04cd164425d(1).pdf,0,2000-01-01 01:00:00,2016-04-03 02:51:08,1153000/6ce37007a3d64a988724d04cd164425d-d.jpg,,
15922235,"Ventricular Arrhythmias and Sudden Cardiac Death: Mechanism, Ablation, and Defibrillation",,,,"Paul Wang, Henry H. Hsia, Amin Al-Ahmad, Paul C. Zei",2008,1,Wiley-Blackwell,,360,0,English,,,,"1405161140,978-1-4051-6114-5",,,,,,,,,,,0,,,,,,,1,17303998,pdf,6cf9c7610ecdb5a916fed10778d44ada,,,D:\\HDD4\\_missing\\6cf9c7610ecdb5a916fed10778d44ada.pdf,0,2000-01-01 01:00:00,2016-04-03 02:51:08,1153000/6cf9c7610ecdb5a916fed10778d44ada-d.jpg,,
15922232,Israel's Years of Bogus Grandeur: From the Six-Day War to the First Intifada,,,,Nissim Rejwan,2006,,University of Texas Press,,272,0,English,,,,"0-292-71415-7,978-0-292-71415-1",,,,,,,,,,,0,,,,,,,1,14976002,pdf,6ccc0a1ddda50f8a67b42d6a5bbc87dc,,,D:\\HDD4\\_missing\\6ccc0a1ddda50f8a67b42d6a5bbc87dc(1).pdf,0,2000-01-01 01:00:00,2016-04-03 02:51:08,1153000/6ccc0a1ddda50f8a67b42d6a5bbc87dc-d.jpg,,
15922233,The Elements of Cantor Sets: With Applications,,,,Robert W. Vallin,2013,1,Wiley,,248,0,English,,,,"1118405714,978-1-118-40571-0",,,,,,,,,,,0,,,,,,,1,18368680,pdf,6ce1d6a3f937934aebee954616079d7e,,,D:\\HDD4\\_missing\\6ce1d6a3f937934aebee954616079d7e.pdf,0,2000-01-01 01:00:00,2016-04-03 02:51:08,1153000/6ce1d6a3f937934aebee954616079d7e-d.jpg,,
15922230,Financial Independence,,Getting to Point X,,John J. Vento,2013,1,Wiley,,384,0,English,,,,"1118460219,978-1-118-46021-4,978-1-118-52636-1,978-1-118-52643-9,978-1-118-52638-5",,,,,,,,,,,0,,,,,,,1,3380327,pdf,6c9cc40b2fc6ee62992e35f5ccf71c96,,,D:\\HDD4\\_missing\\6c9cc40b2fc6ee62992e35f5ccf71c96.pdf,0,2000-01-01 01:00:00,2016-04-03 02:51:08,1153000/6c9cc40b2fc6ee62992e35f5ccf71c96-d.jpg,,
15922231,By Parallel Reasoning,,,,Paul Bartha,2010,,"Oxford University Press, USA",,376,0,English,,,,"0195325532,978-0-19-532553-9",,,,,,,,,,,0,,,,,,,1,4001305,pdf,6ca94d95c9454690d796aba9ec00ce25,,,D:\\HDD4\\_missing\\6ca94d95c9454690d796aba9ec00ce25.pdf,0,2000-01-01 01:00:00,2016-04-03 02:51:08,1153000/6ca94d95c9454690d796aba9ec00ce25-d.jpg,,
15922229,"The It Factor: Be the One People Like, Listen to, and Remember",,,,Mark Wiskup,2007,,AMACOM,,192,0,English,,,,"0-8144-7437-3,978-0-8144-7437-2",,,,,,,,,,,0,,,,,,,1,3788390,pdf,6c96fcbcd0297cef1df16a16f86fdb0c,,,D:\\HDD4\\_missing\\6c96fcbcd0297cef1df16a16f86fdb0c(1).pdf,0,2000-01-01 01:00:00,2016-04-03 02:51:08,1153000/6c96fcbcd0297cef1df16a16f86fdb0c-d.jpg,,
15922227,Designing Community,,,,David Walters,2007,,taylor & francis,,282,0,English,,,,"075066925X,978-0-7506-6925-2",,,,,,,,,,,0,,,,,,,1,21847574,pdf,6c5999061cd3379f91db81c3f198bef8,,,D:\\HDD4\\_missing\\6c5999061cd3379f91db81c3f198bef8.pdf,0,2000-01-01 01:00:00,2016-04-03 02:51:08,1153000/6c5999061cd3379f91db81c3f198bef8-d.jpg,,
15922228,Problems in Philosophy: The Limits of Inquiry,,,,Colin McGinn,1994,,Blackwell Publishers,,163,0,English,,,,"1-55786-474-8,9781557864741,1-55786-475-6",,,,,,,,,,,0,,,,,,,1,17064890,pdf,6c5f828475fc5768358a4e9fc3c19588,,,D:\\HDD4\\_missing\\6c5f828475fc5768358a4e9fc3c19588(1).pdf,0,2000-01-01 01:00:00,2016-04-03 02:51:08,1153000/6c5f828475fc5768358a4e9fc3c19588-d.jpg,,
15922225,The Unofficial MacGyver How-To Handbook: Revised 2nd Edition,,,,"Bret Terrill, Greg Dierkers",2005,2nd edition,American International Press,,192,0,English,,,,"1-887641-47-5,9781887641470",,,,,,,,,,,0,,,,,,,1,3515709,pdf,6c40d69e64d9a2f242e349c35cc42b51,,,D:\\HDD4\\_missing\\6c40d69e64d9a2f242e349c35cc42b51.pdf,0,2000-01-01 01:00:00,2016-04-03 02:51:08,1153000/6c40d69e64d9a2f242e349c35cc42b51-d.jpg,,
15922226,Owls of the United States and Canada: A Complete Guide to Their Biology and Behavior,,,,Wayne Lynch,2007,1,Johns Hopkins University Press,,264,0,English,,,,"0-8018-8687-2,978-0-8018-8687-4",,,,,,,,,,,0,,,,,,,1,63276080,pdf,6c5953f5c25dae33f3bae51e085c5046,,,D:\\HDD4\\_missing\\6c5953f5c25dae33f3bae51e085c5046(1).pdf,0,2000-01-01 01:00:00,2016-04-03 02:51:08,1153000/6c5953f5c25dae33f3bae51e085c5046-d.jpg,,
15922224,Alfred Hitchcock: The Icon Years,,,,John William Law,2010,First,Aplomb Publishing,,232,0,English,,,,"0966567641,978-0-9665676-4-9",,,,,,,,,,,0,,,,,,,1,9666494,pdf,6c13b180217c5cec6eab5d7b3c6418c9,,,D:\\HDD4\\_missing\\6c13b180217c5cec6eab5d7b3c6418c9.pdf,0,2000-01-01 01:00:00,2016-04-03 02:51:08,1153000/6c13b180217c5cec6eab5d7b3c6418c9-d.jpg,,
15922222,The Man Who Divided India: With a New Chapter on Musharraf's Leadership,,,,Rafiq Zakaria,2004,,Popular Prakashan,,306,0,English,,,,"8179911454,978-81-7991-145-7",,,,,,,,,,,0,,,,,,,1,12729341,pdf,6becca7dfdd54bcd5297b180165a2db6,,,D:\\HDD4\\_missing\\6becca7dfdd54bcd5297b180165a2db6.pdf,0,2000-01-01 01:00:00,2016-04-03 02:51:08,1153000/6becca7dfdd54bcd5297b180165a2db6-d.jpg,,
15922223,"Myeloproliferative Disorder - A Medical Dictionary, Bibliography, and Annotated Research Guide to Internet References",,,,Icon Health Publications,2004,,ICON Health Publications,,152,0,English,,,,"0-497-00738-X,9780497007386",,,,,,,,,,,0,,,,,,,1,3209579,pdf,6bff635a761c619076e9923795565852,,,D:\\HDD4\\_missing\\6bff635a761c619076e9923795565852.pdf,0,2000-01-01 01:00:00,2016-04-03 02:51:08,1153000/6bff635a761c619076e9923795565852-d.jpg,,
15922220,An Illustrated Brief History of Western Philosophy,,,,Sir Anthony Kenny,2006,2,Wiley-Blackwell,,400,0,English,,,,"1-4051-4180-8,978-1-4051-4180-2,978-1-4051-4179-6,1-4051-4179-4",,,,,,,,,,,0,,,,,,,1,7330750,pdf,6be551d36aa50520e538e0cc6c1b492d,,,D:\\HDD4\\_missing\\6be551d36aa50520e538e0cc6c1b492d(1).pdf,0,2000-01-01 01:00:00,2016-04-03 02:51:08,1153000/6be551d36aa50520e538e0cc6c1b492d-d.jpg,,
15922221,Advances in Computer-Supported Learning,,,,"Francisco Milton Mendes Neto, Francisco Milton Mendes Neto, Francisco Brasileiro",2006,1,IGI Global,,376,0,English,,,,"1-59904-355-6,9781599043555,1-59904-356-4,1-59904-357-2",,,,,,,,,,,0,,,,,,,1,5559821,pdf,6be638fafa4dcb207b5ea043c0821db5,,,D:\\HDD4\\_missing\\6be638fafa4dcb207b5ea043c0821db5.pdf,0,2000-01-01 01:00:00,2016-04-03 02:51:08,1153000/6be638fafa4dcb207b5ea043c0821db5-d.jpg,,
15922218,Lighting Techniques for Photographing Model Portfolios: Strategies for Digital Photographers,,,,Billy Pegram,2009,Ill,Amherst Media,,126,0,English,,,,"1584282592,978-1-58428-259-4",,,,,,,,,,,0,,,,,,,1,18906177,pdf,6ba631fbedf80d97bd48137f239506a5,,,D:\\HDD4\\_missing\\6ba631fbedf80d97bd48137f239506a5.pdf,0,2000-01-01 01:00:00,2016-04-03 02:51:08,1153000/6ba631fbedf80d97bd48137f239506a5-d.jpg,,
15922219,Macroscopic Models for Vehicular Flows and Crowd Dynamics: Theory and Applications: Classical and Non-Classical Advanced Mathematics for Real Life Applications,,Understanding Complex Systems,,Massimiliano Daniele Rosini,2013,,Springer,,237,0,English,,,,"331900154X,978-3-319-00154-8,978-3-319-00155-5",,,,,,,10.1007/978-3-319-00155-5,,,,0,,,,,,,1,3638855,pdf,6bcc09cb38f12b0ac4acf2b26b039ed3,,,D:\\HDD4\\_missing\\6bcc09cb38f12b0ac4acf2b26b039ed3(1).pdf,0,2000-01-01 01:00:00,2016-04-03 02:51:08,1153000/6bcc09cb38f12b0ac4acf2b26b039ed3-d.jpg,,
15922216,Intelligence and Human Progress: The Story of What was Hidden in our Genes,,,,James Flynn,2013,1,Academic Press,,126,0,English,,,,"0124170145,978-0-12-417014-8",,,,,,,,,,,0,,,,,,,1,3705676,pdf,6b78fc227e33818765c748e2cce759a4,,,D:\\HDD4\\_missing\\6b78fc227e33818765c748e2cce759a4.pdf,0,2000-01-01 01:00:00,2016-04-03 02:51:08,1153000/6b78fc227e33818765c748e2cce759a4-d.jpg,,
15922217,"Long-Term Memory Problems in Children and Adolescents: Assessment, Intervention, and Effective Instruction",,,,Milton J. Dehn,2010,1,Wiley,,408,0,English,,,,"0470438312,978-0-470-43831-2,978-0-470-77048-1,978-0-470-87206-2,978-0-470-87207-9",,,,,,,,,,,0,,,,,,,1,3225529,pdf,6b8f0cda702ca8eb3e0ce51ee801410a,,,D:\\HDD4\\_missing\\6b8f0cda702ca8eb3e0ce51ee801410a(1).pdf,0,2000-01-01 01:00:00,2016-04-03 02:51:08,1153000/6b8f0cda702ca8eb3e0ce51ee801410a-d.jpg,,
15922214,Speed Reading For Dummies,,,,"Richard Sutz, Peter Weverka",2009,1,For Dummies,,288,0,English,,,,"0470457449,978-0-470-45744-3",,,,,,,,,,,0,,,,,,,1,3360493,pdf,6b5cab457487b85fa49bcb790341f5af,,,D:\\HDD4\\_missing\\6b5cab457487b85fa49bcb790341f5af.pdf,0,2000-01-01 01:00:00,2016-04-03 02:51:08,1153000/6b5cab457487b85fa49bcb790341f5af-d.jpg,,
15922215,Surveys in Contemporary Mathematics,,London Mathematical Society Lecture Note Series,,"Nicholas Young, Yemon Choi",2007,1,Cambridge University Press,,370,0,English,,,,"0521705649,978-0-521-70564-6",,,,,,,,,,,0,,,,,,,1,3295546,pdf,6b6950035e8a23d4023012a71ee44bee,,,D:\\HDD4\\_missing\\6b6950035e8a23d4023012a71ee44bee(1).pdf,0,2000-01-01 01:00:00,2016-04-03 02:51:08,1153000/6b6950035e8a23d4023012a71ee44bee-d.jpg,,
15922212,"Making Things See: 3D vision with Kinect, Processing, Arduino, and MakerBot",,Make: Books,,Greg Borenstein,2012,,"Maker Media, Inc",,440,0,English,,,,"1449307078,978-1-449-30707-3",,,,,,,,,,,0,,,,,,,1,21414354,pdf,6b517f5626bf3851d06d39ddf68fa02d,,,D:\\HDD4\\_missing\\6b517f5626bf3851d06d39ddf68fa02d(1).pdf,0,2000-01-01 01:00:00,2016-04-03 02:51:08,1153000/6b517f5626bf3851d06d39ddf68fa02d-d.jpg,,
15922213,"Functional Thin Films and Nanostructures for Sensors: Synthesis, Physics and Applications",,Integrated Analytical Systems,,"Anis Zribi, Jeffrey Fortin",2009,,Springer,,214,0,English,,,,"0387362290,978-0-387-36229-8,978-0-387-68609-7",,,,,,,10.1007/978-0-387-68609-7,,,,0,,,,,,,1,4673837,pdf,6b52bc6e763e0ed5b8787990735a7d4b,,,D:\\HDD4\\_missing\\6b52bc6e763e0ed5b8787990735a7d4b(1).pdf,0,2000-01-01 01:00:00,2016-04-03 02:51:08,1153000/6b52bc6e763e0ed5b8787990735a7d4b-d.jpg,,
15922210,Game Theory and Policy Making in Natural Resources and the Environment,,,,Ariel Dinar,,,Routledge,,366,0,English,,,,"0-203-93201-3,9780203932018",,,,,,,,,,,0,,,,,,,1,3480774,pdf,6b40e723d307f1cd2ed7d3caf4b92813,,,D:\\HDD4\\_missing\\6b40e723d307f1cd2ed7d3caf4b92813.pdf,0,2000-01-01 01:00:00,2016-04-03 02:51:08,1153000/6b40e723d307f1cd2ed7d3caf4b92813-g.jpg,,
15922211,Landscaping with Herbs,,,,James Adams,1987,,"Timber Press, Incorporated",,223,0,English,,,,"0-88192-073-8,9780881920734",,,,,,,,,,,0,,,,,,,1,14483229,pdf,6b4625285b660a03990c22581a0d5106,,,D:\\HDD4\\_missing\\6b4625285b660a03990c22581a0d5106.pdf,0,2000-01-01 01:00:00,2016-04-03 02:51:08,1153000/6b4625285b660a03990c22581a0d5106-d.jpg,,
15922208,The Messianic Disruption of Trinitarian Theology,,,,Kornel Zathureczky,2009,,Lexington Books,,190,0,English,,,,"0-7391-3150-8,978-0-7391-3150-3,978-0-7391-3152-7,0-7391-3152-4",,,,,,,,,,,0,,,,,,,1,3500792,pdf,6b25570a1591c9a5098f9d5044814b47,,,D:\\HDD4\\_missing\\6b25570a1591c9a5098f9d5044814b47.pdf,0,2000-01-01 01:00:00,2016-04-03 02:51:08,1153000/6b25570a1591c9a5098f9d5044814b47-d.jpg,,
15922209,Oncogenomics: Molecular Approaches to Cancer,,,,"Charles Brenner, David Duggan",2004,1,Wiley-Liss,,394,0,English,,,,"0-471-22592-4,9780471225928",,,,,,,,,,,0,,,,,,,1,26563037,pdf,6b2d7bccccf2644a8e2c09cf06faa8f3,,,D:\\HDD4\\_missing\\6b2d7bccccf2644a8e2c09cf06faa8f3.pdf,0,2000-01-01 01:00:00,2016-04-03 02:51:08,1153000/6b2d7bccccf2644a8e2c09cf06faa8f3-d.jpg,,
15922206,Trade and Poverty: When the Third World Fell Behind,,,,Jeffrey G. Williamson,2011,,The MIT Press,,320,0,English,,,,"0262015153,978-0-262-01515-8",,,,,,,,,,,0,,,,,,,1,3548919,pdf,6b197a11c72ac6c1416f49f3d427edd6,,,D:\\HDD4\\_missing\\6b197a11c72ac6c1416f49f3d427edd6.pdf,0,2000-01-01 01:00:00,2016-04-03 02:51:08,1153000/6b197a11c72ac6c1416f49f3d427edd6-d.jpg,,
15922207,"An Executive's Guide to Fundraising Operations: Principles, Tools & Trends",,The AFP/Wiley Fund Development Series,,Christopher M. Cannon,2011,1,Wiley,,256,0,English,,,,"0470610018,978-0-470-61001-5,978-1-118-03023-3,978-1-118-03028-8,978-1-118-03029-5",,,,,,,,,,,0,,,,,,,1,3372635,pdf,6b1a082778dd03a9ec037996f483058f,,,D:\\HDD4\\_missing\\6b1a082778dd03a9ec037996f483058f(1).pdf,0,2000-01-01 01:00:00,2016-04-03 02:51:08,1153000/6b1a082778dd03a9ec037996f483058f-d.jpg,,
15922204,A Mathematician Comes of Age,,Spectrum,,Steven G. Krantz,2011,,Mathematical Association of America,,137,0,English,,,,"088385578X,978-0-88385-578-2,978-1-61444-511-1",,,,,,,,,,,0,,,,,,,1,1187112,pdf,6b15b6e4e3a6d7cd420606aa8aeb7a42,,,D:\\HDD4\\_missing\\6b15b6e4e3a6d7cd420606aa8aeb7a42(1).pdf,0,2000-01-01 01:00:00,2016-04-03 02:51:08,1153000/6b15b6e4e3a6d7cd420606aa8aeb7a42-d.jpg,,
15922205,Learning Mathematics and Logo,,,,"Celia Hoyles, Richard Noss",1992,0,The MIT Press,,507,0,English,,,,"0-262-08207-1,9780262082075",,,,,,,,,,,0,,,,,,,1,23472368,pdf,6b1727b78477ea79972c410e31196bbd,,,D:\\HDD4\\_missing\\6b1727b78477ea79972c410e31196bbd(1).pdf,0,2000-01-01 01:00:00,2016-04-03 02:51:08,1153000/6b1727b78477ea79972c410e31196bbd-d.jpg,,
15922202,"Dictionary of Hong Kong English, A: Words from the Fragrant Harbor",,,,Patrick Cummings,2011,,Hong Kong University Press,,320,0,English,,,,"9888083309,978-988-8083-30-5",,,,,,,,,,,0,,,,,,,1,3393434,pdf,6afec8eaf4a6b4373ae0fadd92e06d07,,,D:\\HDD4\\_missing\\6afec8eaf4a6b4373ae0fadd92e06d07.pdf,0,2000-01-01 01:00:00,2016-04-03 02:51:08,1153000/6afec8eaf4a6b4373ae0fadd92e06d07-d.jpg,,
15922203,The Life of George Eliot: A Critical Biography,,,,Nancy Henry,2012,1,Wiley-Blackwell,,314,0,English,,,,"1405137053,978-1-4051-3705-8",,,,,,,,,,,0,,,,,,,1,4292072,pdf,6b15541dd189a23b795fba0da14987c2,,,D:\\HDD4\\_missing\\6b15541dd189a23b795fba0da14987c2.pdf,0,2000-01-01 01:00:00,2016-04-03 02:51:08,1153000/6b15541dd189a23b795fba0da14987c2-d.jpg,,
15922201,The Angel in Annunciation and Synchronicity: Knowledge and Belief in C.G. Jung,,,,Tammy Montgomery,2013,1,Lexington Books,,134,0,English,,,,"0739175777,978-0-7391-7577-4,978-0-7391-7578-1",,,,,,,,,,,0,,,,,,,1,6621534,pdf,6afeba57ab51278a8fb5cd36525535e9,,,D:\\HDD4\\_missing\\6afeba57ab51278a8fb5cd36525535e9(1).pdf,0,2000-01-01 01:00:00,2016-04-03 02:51:08,1153000/6afeba57ab51278a8fb5cd36525535e9-d.jpg,,
15922199,"The New Create an Oasis with Greywater: Choosing, Building and Using Greywater Systems - Includes Branched Drains",,,,Art Ludwig,2006,5 Rev Exp,Oasis Design,,144,0,English,,,,"0-9643433-9-8,9780964343399",,,,,,,,,,,0,,,,,,,1,17600268,pdf,6ae1c5210c1a4bccec6b3b70bf42885d,,,D:\\HDD4\\_missing\\6ae1c5210c1a4bccec6b3b70bf42885d.pdf,0,2000-01-01 01:00:00,2016-04-03 02:51:08,1153000/6ae1c5210c1a4bccec6b3b70bf42885d-d.jpg,,
15922200,College Organization and Professional Development: Integrating Moral Reasoning and Reflective Practice,,,,,2011,,Routledge,,252,0,English,,,,0-203-88166-4,,,,,,,,,,,0,,,,,,,1,3332062,pdf,6afab34bf53cf372e4afe9f2c76ad578,,,D:\\HDD4\\_missing\\6afab34bf53cf372e4afe9f2c76ad578.pdf,0,2000-01-01 01:00:00,2016-04-03 02:51:08,1153000/6afab34bf53cf372e4afe9f2c76ad578-g.jpg,,
15922197,Case Histories in Vibration Analysis and Metal Fatigue for the Practicing Engineer,,,,Anthony Sofronas,2012,1,Wiley,,306,0,English,,,,"1118169468,978-1-118-16946-9",,,,,,,,,,,0,,,,,,,1,3476292,pdf,6ab3815cc0af627260b9374849d4e5e6,,,D:\\HDD4\\_missing\\6ab3815cc0af627260b9374849d4e5e6(1).pdf,0,2000-01-01 01:00:00,2016-04-03 02:51:08,1153000/6ab3815cc0af627260b9374849d4e5e6-d.jpg,,
15922198,Karate's Grappling Methods,,,,"Iain Stuart Abernethy, Peter Skillen",2001,,Neth Publishing,,172,0,English,,,,"0-9538932-0-0,9780953893201",,,,,,,,,,,0,,,,,,,1,10806762,pdf,6ab43b0b9272b0dd0db544d823ed0b4b,,,D:\\HDD4\\_missing\\6ab43b0b9272b0dd0db544d823ed0b4b.pdf,0,2000-01-01 01:00:00,2016-04-03 02:51:08,1153000/6ab43b0b9272b0dd0db544d823ed0b4b-d.jpg,,
15922195,The Online Teaching Survival Guide: Simple and Practical Pedagogical Tips,,,,"Judith V. Boettcher, Rita-Marie Conrad",2010,1,Jossey-Bass,,320,0,English,,,,"0470423536,978-0-470-42353-0",,,,,,,,,,,0,,,,,,,1,4517360,pdf,6a7ae6db4f24061a02304f4424273b42,,,D:\\HDD4\\_missing\\6a7ae6db4f24061a02304f4424273b42.pdf,0,2000-01-01 01:00:00,2016-04-03 02:51:08,1153000/6a7ae6db4f24061a02304f4424273b42-d.jpg,,
15922196,Peppers: Vegetable and Spice Capsicums,,Crop Production Science in Horticulture,,"Paul W. Bosland, Eric J. Votava",2012,2,CABI,,248,0,English,,,,"1845938259,978-1-84593-825-3",,,,,,,,,,,0,,,,,,,1,3653811,pdf,6a84b50bc99ae5a4a44d10d1acd5b3ac,,,D:\\HDD4\\_missing\\6a84b50bc99ae5a4a44d10d1acd5b3ac(1).pdf,0,2000-01-01 01:00:00,2016-04-03 02:51:08,1153000/6a84b50bc99ae5a4a44d10d1acd5b3ac-d.jpg,,
15922193,Practical Real Estate Law,,,,Daniel F. Hinkel,2007,5,Cengage Learning,,704,0,English,,,,"1-4180-4841-0,9781418048419",,,,,,,,,,,0,,,,,,,1,11785724,pdf,6a5be1d8721f1403effacf1d5b19630e,,,D:\\HDD4\\_missing\\6a5be1d8721f1403effacf1d5b19630e.pdf,0,2000-01-01 01:00:00,2016-04-03 02:51:08,1153000/6a5be1d8721f1403effacf1d5b19630e-d.jpg,,
15922194,"Lectures on Computational Fluid Dynamics, Mathematical Physics, and Linear Algebra",,,,"Karl E. Gustafson, T. Abe, K. Kuwahara",1998,,World Scientific Pub Co Inc,,169,0,English,,,,"981-02-3213-6,9789810232139",,,,,,,,,,,0,,,,,,,1,106865907,pdf,6a63de639233eabac806770864b82037,,,D:\\HDD4\\_missing\\6a63de639233eabac806770864b82037.pdf,0,2000-01-01 01:00:00,2016-04-03 02:51:08,1153000/6a63de639233eabac806770864b82037-d.jpg,,
15922191,After Crime and Punishment,,,,"Shadd Maruna, Russ Immarigeon, Neal Shover",2011,,Willan,,320,0,English,,,,"1-84392-057-3,9781843920571,1-84392-058-1",,,,,,,,,,,0,,,,,,,1,5354973,pdf,6a18e72c3b9ced8967b1c98fc2cfb12f,,,D:\\HDD4\\_missing\\6a18e72c3b9ced8967b1c98fc2cfb12f.pdf,0,2000-01-01 01:00:00,2016-04-03 02:51:08,1153000/6a18e72c3b9ced8967b1c98fc2cfb12f-d.jpg,,
15922192,MCSE: Exchange Server 2000 Administration Study Guide,,,,"Walter J. Glenn, James Chellis",2001,,Sybex,,768,0,English,,,,"0-7821-2898-X,9780782128987",,,,,,,,,,,0,,,,,,,1,10529457,pdf,6a36e7cbc8d9401fc75090e505bb6f09,,,D:\\HDD4\\_missing\\6a36e7cbc8d9401fc75090e505bb6f09(1).pdf,0,2000-01-01 01:00:00,2016-04-03 02:51:08,1153000/6a36e7cbc8d9401fc75090e505bb6f09-d.jpg,,
15922189,Federated Identity Primer,,,,Derrick Rountree,2012,1,Syngress,,96,0,English,,,,"0124071899,978-0-12-407189-6",,,,,,,,,,,0,,,,,,,1,4595066,pdf,69f7c82242b1b112ee027a2e6bead651,,,D:\\HDD4\\_missing\\69f7c82242b1b112ee027a2e6bead651.pdf,0,2000-01-01 01:00:00,2016-04-03 02:51:08,1153000/69f7c82242b1b112ee027a2e6bead651-d.jpg,,
15922190,Psychobiological Approaches for Anxiety Disorders: Treatment Combination Strategies,,,,Stefan G. Hofmann,2012,1,Wiley-Blackwell,,216,0,English,,,,"0470971819,978-0-470-97181-9,978-0-470-97180-2",,,,,,,,,,,0,,,,,,,1,4060436,pdf,6a0438b5b962fd280eaab7e1d588788b,,,D:\\HDD4\\_missing\\6a0438b5b962fd280eaab7e1d588788b.pdf,0,2000-01-01 01:00:00,2016-04-03 02:51:08,1153000/6a0438b5b962fd280eaab7e1d588788b-d.jpg,,
15922187,Veterinary Assisting Fundamentals & Applications,,,,"Beth Vanhorn, Robert Clark",2010,1,Cengage Learning,,960,0,English,,,,"1-4354-5387-5,978-1-4354-5387-6",,,,,,,,,,,0,,,,,,,1,154353758,pdf,69eb4b0be6cf1f59fcd3dd947003c70d,,,D:\\HDD4\\_missing\\69eb4b0be6cf1f59fcd3dd947003c70d.pdf,0,2000-01-01 01:00:00,2016-04-03 02:51:08,1153000/69eb4b0be6cf1f59fcd3dd947003c70d-d.jpg,,
15922188,Research in Logopedics: Speech and Language Therapy in Finland,,Communication Disorders Across Languages,,"Anu Klippi, Kaisa Launonen",2008,,Multilingual Matters,,240,0,English,,,,"1847690580,978-1-84769-058-6",,,,,,,,,,,0,,,,,,,1,4001465,pdf,69f06ff2890dc862c0ea8597c206df71,,,D:\\HDD4\\_missing\\69f06ff2890dc862c0ea8597c206df71.pdf,0,2000-01-01 01:00:00,2016-04-03 02:51:08,1153000/69f06ff2890dc862c0ea8597c206df71-d.jpg,,
15922185,Pulmonary Function Testing and Cardiopulmonary Stress Testing,,PULMONARY FUNCTION TESTING & CARDIOPULM STRESS TESTING,,Vincent C. Madama,1997,2,Cengage Learning,,528,0,English,,,,"0-8273-8410-6,9780827384101",,,,,,,,,,,0,,,,,,,1,58826444,pdf,699ab1da5ba37de7db8ff4ee02114653,,,D:\\HDD4\\_missing\\699ab1da5ba37de7db8ff4ee02114653.pdf,0,2000-01-01 01:00:00,2016-04-03 02:51:08,1153000/699ab1da5ba37de7db8ff4ee02114653-d.jpg,,
15922186,Ozone Depletion And Climate Change: Constructing A Global Response,,Suny Series in Global Politics,,Matthew J. Hoffmann,2005,,State University of New York Press,,276,0,English,,,,"0-7914-6526-8,9780791465264",,,,,,,,,,,0,,,,,,,1,3397920,pdf,69a06ef6c6afeb59e364444dc8bd10a0,,,D:\\HDD4\\_missing\\69a06ef6c6afeb59e364444dc8bd10a0.pdf,0,2000-01-01 01:00:00,2016-04-03 02:51:08,1153000/69a06ef6c6afeb59e364444dc8bd10a0-d.jpg,,
15922183,"Born Entrepreneurs, Born Leaders: How Your Genes Affect Your Work Life",,,,Scott Shane,2010,1,"Oxford University Press, USA",,288,0,English,,,,"0195373421,978-0-19-537342-4",,,,,,,,,,,0,,,,,,,1,3574412,pdf,6971141f6d9ff4b718174175f819f15b,,,D:\\HDD4\\_missing\\6971141f6d9ff4b718174175f819f15b.pdf,0,2000-01-01 01:00:00,2016-04-03 02:51:08,1153000/6971141f6d9ff4b718174175f819f15b-d.jpg,,
15922184,Geriatric Medicine: An Evidence-Based Approach,,,,"Christine K. Cassel, Rosanne Leipzig, Harvey Jay Cohen, Eric B. Larson, Diane E. Meier",2003,4th,Springer,,1320,0,English,,,,"0-387-95514-3,9780387955148,0-387-32324-4,978-0-387-32324-4,0-387-32326-0,978-0-387-32326-8",,,,,,,,,,,0,,,,,,,1,6090799,pdf,6977b0ba96f97638066d5793a9f4ca69,,,D:\\HDD4\\_missing\\6977b0ba96f97638066d5793a9f4ca69(1).pdf,0,2000-01-01 01:00:00,2016-04-03 02:51:08,1153000/6977b0ba96f97638066d5793a9f4ca69-d.jpg,,
15922181,LWUIT 1.1 for Java ME Developers,,,,Biswajit Sarkar,2009,,Packt Publishing,,300,0,English,,,,"184719740X,978-1-847197-40-5",,,,,,,,,,,0,,,,,,,1,11439260,pdf,69420f4ecbfdeffbf266471028b49d4d,,,D:\\HDD4\\_missing\\69420f4ecbfdeffbf266471028b49d4d(1).pdf,0,2000-01-01 01:00:00,2016-04-03 02:51:08,1153000/69420f4ecbfdeffbf266471028b49d4d-d.jpg,,
15922182,Creative Interventions with Traumatized Children,,,,"Cathy A. Malchiodi, Bruce Perry",2008,1,The Guilford Press,,332,0,English,,,,"1-59385-615-6,978-1-59385-615-1",,,,,,,,,,,0,,,,,,,1,3460255,pdf,69486818d82fdce26523226ab2bfbacf,,,D:\\HDD4\\_missing\\69486818d82fdce26523226ab2bfbacf.pdf,0,2000-01-01 01:00:00,2016-04-03 02:51:08,1153000/69486818d82fdce26523226ab2bfbacf-d.jpg,,
15922180,"Levinas, Subjectivity, Education: Towards an Ethics of Radical Responsibility",,,,Anna Strhan,2012,1,Wiley-Blackwell,,230,0,English,,,,"1118312392,978-1-118-31239-1",,,,,,,,,,,0,,,,,,,1,3816316,pdf,69391b0c1a3d08d691b5ae4a7b0f8d9c,,,D:\\HDD4\\_missing\\69391b0c1a3d08d691b5ae4a7b0f8d9c.pdf,0,2000-01-01 01:00:00,2016-04-03 02:51:08,1153000/69391b0c1a3d08d691b5ae4a7b0f8d9c-d.jpg,,
15922178,Quantum Mechanics and Quantum Field Theory: A Mathematical Primer,,,,Jonathan Dimock,2011,0,Cambridge University Press,,238,0,English,,,,"1107005094,978-1-107-00509-9",,,,,,,,,,,0,,,,,,,1,1349539,pdf,6928b6dab0c3a9cebb05105b4b0f4cd4,,,D:\\HDD4\\_missing\\6928b6dab0c3a9cebb05105b4b0f4cd4.pdf,0,2000-01-01 01:00:00,2016-04-03 02:51:08,1153000/6928b6dab0c3a9cebb05105b4b0f4cd4-d.jpg,,
15922179,Special Relativity: An Introduction with 200 Problems and Solutions,,,,Michael Tsamparlis,2010,,Springer,,596,0,English,,,,"3642038360,978-3-642-03836-5,978-3-642-03837-2",,,,,,,10.1007/978-3-642-03837-2,,,,0,,,,,,,1,3545882,pdf,692a3d1c6cde2966979481205513ab6e,,,D:\\HDD4\\_missing\\692a3d1c6cde2966979481205513ab6e.pdf,0,2000-01-01 01:00:00,2016-04-03 02:51:08,1153000/692a3d1c6cde2966979481205513ab6e-d.jpg,,
15922176,Volume 10: Philosophy of Religion,,Contemporary Philosophy: A New Survey,,Guttorm Fl√∏istad,2009,,Springer,,416,0,English,,,,"9048135265,978-90-481-3526-4,978-90-481-3527-1",,,,,,,10.1007/978-90-481-3527-1,,,,0,,,,,,,1,3243707,pdf,69179e84e9f76f57b0aa4461b89f14f2,,,D:\\HDD4\\_missing\\69179e84e9f76f57b0aa4461b89f14f2.pdf,0,2000-01-01 01:00:00,2016-04-03 02:51:08,1153000/69179e84e9f76f57b0aa4461b89f14f2-d.jpg,,
15922177,Blow-up Theories for Semilinear Parabolic Equations,,"Lecture Notes in Mathematics, Vol. 2018",,Bei Hu,2011,1st,Springer,,136,0,English,,,,"3642184596,978-3-642-18459-8,978-3-642-18460-4",,,,,,,10.1007/978-3-642-18460-4,,,,0,,,,,,,1,3201335,pdf,691b50ed7313d3b96a9bb4ca45c97ee7,,,D:\\HDD4\\_missing\\691b50ed7313d3b96a9bb4ca45c97ee7.pdf,0,2000-01-01 01:00:00,2016-04-03 02:51:08,1153000/691b50ed7313d3b96a9bb4ca45c97ee7-d.jpg,,
15922174,The Book of Job in Form: A Literary Translation With Commentary,,Studia Semitica Neerlandica,,Jan P. Fokkelman,2012,,Brill Academic Pub,,335,0,English,,,,"9004231587,978-90-04-23158-0,978-90-04-23234-1",,,,,,,,,,,0,,,,,,,1,3628841,pdf,690d96b65f23ecc3a15bcfb98e7a57ac,,,D:\\HDD4\\_missing\\690d96b65f23ecc3a15bcfb98e7a57ac.pdf,0,2000-01-01 01:00:00,2016-04-03 02:51:08,1153000/690d96b65f23ecc3a15bcfb98e7a57ac-d.jpg,,
15922175,CBT for Schizophrenia: Evidence-Based Interventions and Future Directions,,,,Craig Steel,2013,1,Wiley-Blackwell,,288,0,English,,,,"0470712066,978-0-470-71206-1,978-0-470-71205-4",,,,,,,,,,,0,,,,,,,1,4199885,pdf,691260c3634b38186adc3c718b80f54d,,,D:\\HDD4\\_missing\\691260c3634b38186adc3c718b80f54d(1).pdf,0,2000-01-01 01:00:00,2016-04-03 02:51:08,1153000/691260c3634b38186adc3c718b80f54d-d.jpg,,
15922172,Fitted Numerical Methods For Singular Perturbation Problems: Error Estimates in the Maximum Norm for Linear Problems in One and Two Dimensions,,Revised Edition,,"J J H Miller, E O'Riordan, G I Shishkin",2012,Revised Edition,World Scientific Publishing Company,,192,0,English,,,,"981-4390-73-9,978-981-4390-73-6",,,,,,,,,,,0,,,,,,,1,3981601,pdf,68d97bb64d6251f3cf1a75732293dcc2,,,D:\\HDD4\\_missing\\68d97bb64d6251f3cf1a75732293dcc2(1).pdf,0,2000-01-01 01:00:00,2016-04-03 02:51:08,1153000/68d97bb64d6251f3cf1a75732293dcc2-d.jpg,,
15922173,Bioinformatics for Systems Biology,,,,Stephen Krawetz,2009,2nd ed. 2009,Humana Press,,740,0,English,,,,"1934115029,978-1-934115-02-2,978-1-59745-440-7",,,,,,,10.1007/978-1-59745-440-7,,,,0,,,,,,,1,15147276,pdf,68f0a25e06a381fda1d6064477ecf76a,,,D:\\HDD4\\_missing\\68f0a25e06a381fda1d6064477ecf76a(1).pdf,0,2000-01-01 01:00:00,2016-04-03 02:51:08,1153000/68f0a25e06a381fda1d6064477ecf76a-d.jpg,,
15922171,Doping in III-V Semiconductors,,Cambridge Studies in Semiconductor Physics and Microelectronic Engineering,,E. F. Schubert,2005,Digitally Printed 1st Pbk. Version,Cambridge University Press,,632,0,English,,,,"0-521-01784-X,9780521017848,978-0-511-34476-3,0-511-34476-7,978-0-521-86538-8,0-521-86538-7",,,,,,,,,,,0,,,,,,,1,18350630,pdf,68d6475c46dc1148b10e420faf40b51c,,,D:\\HDD4\\_missing\\68d6475c46dc1148b10e420faf40b51c.pdf,0,2000-01-01 01:00:00,2016-04-03 02:51:08,1153000/68d6475c46dc1148b10e420faf40b51c-d.jpg,,
15922169,Economics,,,,"William Boyes, Michael Melvin",2012,9,Cengage Learning,,888,0,English,,,,"1-111-82613-7,978-1-111-82613-0",,,,,,,,,,,0,,,,,,,1,41507886,pdf,68ae405280de00225b40291445a793ff,,,D:\\HDD4\\_missing\\68ae405280de00225b40291445a793ff.pdf,0,2000-01-01 01:00:00,2016-04-03 02:51:08,1153000/68ae405280de00225b40291445a793ff-d.jpg,,
15922170,Business Database Systems,,,,"Thomas Connolly, Carolyn Begg, Richard Holowczak",2008,1,Addison-Wesley,,592,0,English,,,,"1405874376,978-1-4058-7437-3",,,,,,,,,,,0,,,,,,,1,11534383,pdf,68c8f7530ca506ea4d985b7bdbce6704,,,D:\\HDD4\\_missing\\68c8f7530ca506ea4d985b7bdbce6704.pdf,0,2000-01-01 01:00:00,2016-04-03 02:51:08,1153000/68c8f7530ca506ea4d985b7bdbce6704-d.jpg,,
15922167,Wicked Cool Shell Scripts,,,,Dave Taylor,2004,1st,No Starch Press,,488,0,English,,,,"1-59327-012-7,9781593270124",,,,,,,,,,,0,,,,,,,1,6198733,pdf,68a6f94ffe93074c4d9a02bc0517352f,,,D:\\HDD4\\_missing\\68a6f94ffe93074c4d9a02bc0517352f.pdf,0,2000-01-01 01:00:00,2016-04-03 02:51:08,1153000/68a6f94ffe93074c4d9a02bc0517352f-d.jpg,,
15922168,"International Libel and Privacy Handbook: A Global Reference for Journalists, Publishers, Webmasters, and Lawyers",,Bloomberg,,Charles J. Glasser Jr,2013,3,Bloomberg Press,,592,0,English,,,,"1118357051,978-1-118-35705-7,978-1-118-41689-1,978-1-118-42049-2,978-1-118-51821-2",,,,,,,,,,,0,,,,,,,1,5253237,pdf,68a74045ea67a9605b69a28d23ba83ba,,,D:\\HDD4\\_missing\\68a74045ea67a9605b69a28d23ba83ba.pdf,0,2000-01-01 01:00:00,2016-04-03 02:51:08,1153000/68a74045ea67a9605b69a28d23ba83ba-d.jpg,,
15922165,The Self-Esteem Workbook,,,,Glenn R. Schiraldi,2001,1st,New Harbinger Publications,,183,0,English,,,,"1-57224-252-3,9781572242524",,,,,,,,,,,0,,,,,,,1,8230926,pdf,68806d17f0b83348162f0555d87b8530,,,D:\\HDD4\\_missing\\68806d17f0b83348162f0555d87b8530.pdf,0,2000-01-01 01:00:00,2016-04-03 02:51:08,1153000/68806d17f0b83348162f0555d87b8530-d.jpg,,
15922166,Building Services Handbook,,,,"Fred Hall, Roger Greeno",2011,6,Routledge,,720,0,English,,,,"0080969828,978-0-08-096982-4",,,,,,,,,,,0,,,,,,,1,6029048,pdf,68a5fa0eb093cc377b4cdcdb9b5297e4,,,D:\\HDD4\\_missing\\68a5fa0eb093cc377b4cdcdb9b5297e4.pdf,0,2000-01-01 01:00:00,2016-04-03 02:51:08,1153000/68a5fa0eb093cc377b4cdcdb9b5297e4-d.jpg,,
15922163,Handbook of Chemoinformatics Algorithms,,Chapman & Hall/CRC Mathematical & Computational Biology,,"Jean-Loup Faulon, Andreas Bender",2010,0,Chapman and Hall/CRC,,454,0,English,,,,"1420082922,978-1-4200-8292-0",,,,,,,,,,,0,,,,,,,1,5974731,pdf,686d0e92a65d05409e4dcd6592863b77,,,D:\\HDD4\\_missing\\686d0e92a65d05409e4dcd6592863b77(1).pdf,0,2000-01-01 01:00:00,2016-04-03 02:51:08,1153000/686d0e92a65d05409e4dcd6592863b77-d.jpg,,
15922164,Monotheism and Tolerance: Recovering a Religion of Reason,,Indiana Series in the Philosophy of Religion,,Robert Erlewine,2010,,Indiana University Press,,258,0,English,,,,"0253354196,978-0-253-35419-8,978-0-253-22156-8",,,,,,,,,,,0,,,,,,,1,4211575,pdf,687a7b62e27da2dc5193733c67587f64,,,D:\\HDD4\\_missing\\687a7b62e27da2dc5193733c67587f64.pdf,0,2000-01-01 01:00:00,2016-04-03 02:51:08,1153000/687a7b62e27da2dc5193733c67587f64-d.jpg,,
15922161,Sacred Ground: Jamgon Kongtrul On Pilgrimage And Sacred Geography,,Tsadra,,Ngawang Zangpo,2001,,Snow Lion,,272,0,English,,,,"1-55939-164-2,9781559391641",,,,,,,,,,,0,,,,,,,1,17864161,pdf,682ec4a03dcc65abf18e13cf87e8e731,,,D:\\HDD4\\_missing\\682ec4a03dcc65abf18e13cf87e8e731.pdf,0,2000-01-01 01:00:00,2016-04-03 02:51:08,1153000/682ec4a03dcc65abf18e13cf87e8e731-d.jpg,,
15922162,"Data Matching: Concepts and Techniques for Record Linkage, Entity Resolution, and Duplicate Detection",,Data-Centric Systems and Applications,,Peter Christen,2012,,Springer,,287,0,English,,,,"3642311636,978-3-642-31163-5,978-3-642-31164-2",,,,,,,10.1007/978-3-642-31164-2,,,,0,,,,,,,1,4245365,pdf,6847a6a1ac8a6aa59bf65203f711ba13,,,D:\\HDD4\\_missing\\6847a6a1ac8a6aa59bf65203f711ba13.pdf,0,2000-01-01 01:00:00,2016-04-03 02:51:08,1153000/6847a6a1ac8a6aa59bf65203f711ba13-d.jpg,,
15922160,"Osteoporosis and the Osteoporosis of Rheumatic Diseases: A Companion to Rheumatology, Third Edition",,,,"Nancy E. Lane MD, Philip Sambrook OAM  MD  FRACP",2006,1,Mosby,,290,0,English,,,,"0-323-03437-3,9780323034371",,,,,,,,,,,0,,,,,,,1,9085812,pdf,68123825eb0c3f061515b19505c71ac7,,,D:\\HDD4\\_missing\\68123825eb0c3f061515b19505c71ac7.pdf,0,2000-01-01 01:00:00,2016-04-03 02:51:08,1153000/68123825eb0c3f061515b19505c71ac7-d.jpg,,
15922158,Singing in My Soul: Black Gospel Music in a Secular Age,,,,Jerma A. Jackson,2004,,The University of North Carolina Press,,256,0,English,,,,"0-8078-2860-2,9780807828601,0-8078-5530-8",,,,,,,,,,,0,,,,,,,1,3994075,pdf,67f6a5cd03ca821bc92eebecea26fe80,,,D:\\HDD4\\_missing\\67f6a5cd03ca821bc92eebecea26fe80.pdf,0,2000-01-01 01:00:00,2016-04-03 02:51:08,1153000/67f6a5cd03ca821bc92eebecea26fe80-d.jpg,,
15922159,Advanced Qt Programming: Creating Great Software with C++ and Qt 4,,Prentice Hall Open Source Software Development,,Mark Summerfield,2010,1,Prentice Hall,,553,0,English,92,,,"0-321-63590-6,978-0-321-63590-7",,,,,,,,,,,0,,,,,,,1,6437461,pdf,680566d11bd38de1a521f89cfeee7b4d,,,D:\\HDD4\\_missing\\680566d11bd38de1a521f89cfeee7b4d.pdf,0,2000-01-01 01:00:00,2016-04-03 02:51:08,1153000/680566d11bd38de1a521f89cfeee7b4d-d.jpg,,
15922156,Fundamentals of Python: From First Programs through Data Structures,,,,Kenneth A. Lambert,2009,1,Cengage Learning,,944,0,English,92,,,"1-4239-0218-1,978-1-4239-0218-8",,,,,,,,,,,0,,,,,,,1,12055661,pdf,67e91c188ce076a7087310ecbd104858,,,D:\\HDD4\\_missing\\67e91c188ce076a7087310ecbd104858.pdf,0,2000-01-01 01:00:00,2016-04-03 02:51:08,1153000/67e91c188ce076a7087310ecbd104858-d.jpg,,
15922157,The Madness of Women: Myth and Experience,,Women and Psychology,,Jane M. Ussher,2011,0,Routledge,,328,0,English,,,,"0415339278,978-0-415-33927-8,978-0-415-33928-5,0-203-80657-3",,,,,,,,,,,0,,,,,,,1,3940530,pdf,67eba1c5f8186dfec4aaf20394e702fe,,,D:\\HDD4\\_missing\\67eba1c5f8186dfec4aaf20394e702fe.pdf,0,2000-01-01 01:00:00,2016-04-03 02:51:08,1153000/67eba1c5f8186dfec4aaf20394e702fe-d.jpg,,
15922154,Building Websites with DotNetNuke 5,,,,"Michael Washington, Ian Lackey",2010,,Packt Publishing,,336,0,English,,,,"1847199925,978-1-847199-92-8",,,,,,,,,,,0,,,,,,,1,9314189,pdf,67c5d8b0462754cdffc047422594aa98,,,D:\\HDD4\\_missing\\67c5d8b0462754cdffc047422594aa98(1).pdf,0,2000-01-01 01:00:00,2016-04-03 02:51:08,1153000/67c5d8b0462754cdffc047422594aa98-d.jpg,,
15922155,Quantum Enigma: Physics Encounters Consciousness,,,,"Bruce Rosenblum, Fred Kuttner",2011,2,"Oxford University Press, USA",,304,0,English,,,,"0199753814,978-0-19-975381-9",,,,,,,,,,,0,,,,,,,1,3644217,pdf,67d54d69c8e9db35f3b441317edb7aac,,,D:\\HDD4\\_missing\\67d54d69c8e9db35f3b441317edb7aac.pdf,0,2000-01-01 01:00:00,2016-04-03 02:51:08,1153000/67d54d69c8e9db35f3b441317edb7aac-d.jpg,,
15922152,Hack the Stack: Using Snort and Ethereal to Master The 8 Layers of An Insecure Network,,,,"Michael Gregg, Stephen Watkins, George Mays, Chris Ries, Ronald M. Bandes, Brandon Franklin",2006,1,Syngress,,481,0,English,,,,"1-59749-109-8,9781597491099",,,,,,,,,,,0,,,,,,,1,11976125,pdf,6796f36ca2b7981cda01416682252577,,,D:\\HDD4\\_missing\\6796f36ca2b7981cda01416682252577(1).pdf,0,2000-01-01 01:00:00,2016-04-03 02:51:08,1153000/6796f36ca2b7981cda01416682252577-d.jpg,,
15922153,Echoes from the Caves: Qumran and the New Testament,,Studies of the Texts of Thedesert of Judah,,"Florentino Garc√≠a Mart√≠nez, Florentino Garcia Martinez",2009,,Brill,,349,0,English,,,,"9004176969,978-90-04-17696-6",,,,,,,,,,,0,,,,,,,1,4309881,pdf,67b625ec48af65e7cc4f02adc69dab48,,,D:\\HDD4\\_missing\\67b625ec48af65e7cc4f02adc69dab48.pdf,0,2000-01-01 01:00:00,2016-04-03 02:51:08,1153000/67b625ec48af65e7cc4f02adc69dab48-d.jpg,,
15922150,Darkness at Dawn: The Rise of the Russian Criminal State,,,,David Satter,2003,0,Yale University Press,,336,0,English,,,,"0-300-09892-8,9780300098921",,,,,,,,,,,0,,,,,,,1,10707334,pdf,677cc5caec8c4b378dcdf9f44397d089,,,D:\\HDD4\\_missing\\677cc5caec8c4b378dcdf9f44397d089.pdf,0,2000-01-01 01:00:00,2016-04-03 02:51:08,1153000/677cc5caec8c4b378dcdf9f44397d089-d.jpg,,
15922151,MCAT Verbal Reasoning & Writing Review,,Graduate School Test Preparation,,Princeton Review,2010,1,Princeton Review,,432,0,English,,,,"0375427961,978-0-375-42796-1",,,,,,,,,,,0,,,,,,,1,12807654,pdf,678a448db0fc32a0bb6858a23dc297d0,,,D:\\HDD4\\_missing\\678a448db0fc32a0bb6858a23dc297d0.pdf,0,2000-01-01 01:00:00,2016-04-03 02:51:08,1153000/678a448db0fc32a0bb6858a23dc297d0-d.jpg,,
15922149,Discrete and Computational Geometry,,,,"Satyan L. Devadoss, Joseph O'Rourke",2011,,Princeton University Press,,272,0,English,,,,"0691145539,978-0-691-14553-2",,,,,,,,,,,0,,,,,,,1,8164700,pdf,674e84a6f9a04108ef45af1e1ba945be,,,D:\\HDD4\\_missing\\674e84a6f9a04108ef45af1e1ba945be.pdf,0,2000-01-01 01:00:00,2016-04-03 02:51:08,1153000/674e84a6f9a04108ef45af1e1ba945be-d.jpg,,
15922147,Clinician's Guide to Adult ADHD: Assessment and Intervention,,Practical Resources for the Mental Health Professional,,"Sam Goldstein, Anne Teeter Ellison",2002,1,Academic Press,,299,0,English,,,,"0-12-287049-2,9780122870491",,,,,,,,,,,0,,,,,,,1,24972623,pdf,672cae71742e820f988a5afda0db0ad5,,,D:\\HDD4\\_missing\\672cae71742e820f988a5afda0db0ad5.pdf,0,2000-01-01 01:00:00,2016-04-03 02:51:08,1153000/672cae71742e820f988a5afda0db0ad5-d.jpg,,
15922148,Mathematics and Technology,,Springer Undergraduate Texts in Mathematics and Technology,,"Christiane Rousseau, Yvan Saint-Aubin, Chris Hamilton, H√©l√®ne Antaya, Isabelle Ascah-Coallier",2008,,Springer,,582,0,English,,,,"0387692150,978-0-387-69215-9,978-0-387-69216-6",,,,,,,10.1007/978-0-387-69216-6,,,,0,,,,,,,1,21048679,pdf,67494a6e18066967f74b50c365fd94ff,,,D:\\HDD4\\_missing\\67494a6e18066967f74b50c365fd94ff.pdf,0,2000-01-01 01:00:00,2016-04-03 02:51:08,1153000/67494a6e18066967f74b50c365fd94ff-d.jpg,,
15922144,Managing the Monstrous Feminine: Regulating the Reproductive Body,,Women and Psychology,,Jane M. Ussher,2006,2Rev Ed,Routledge,,240,0,English,,,,"0-415-32810-1,9780415328104,0-415-32811-X,0-203-32842-6",,,,,,,,,,,0,,,,,,,1,3257371,pdf,66833870f1b84e57ecc24c7cc2df8577,,,D:\\HDD4\\_missing\\66833870f1b84e57ecc24c7cc2df8577.pdf,0,2000-01-01 01:00:00,2016-04-03 02:51:08,1153000/66833870f1b84e57ecc24c7cc2df8577-d.jpg,,
15922145,Mac OS X Tiger Timesaving Techniques For Dummies,,,,"Larry Ullman, Marc Liyanage",2005,1,For Dummies,,521,0,English,,,,"0-7645-7963-0,978-0-7645-7963-9",,,,,,,,,,,0,,,,,,,1,40064540,pdf,67039e140706d35881beaf014d899ad8,,,D:\\HDD4\\_missing\\67039e140706d35881beaf014d899ad8.pdf,0,2000-01-01 01:00:00,2016-04-03 02:51:08,1153000/67039e140706d35881beaf014d899ad8-d.jpg,,
15922146,Transforming Terror: Remembering the Soul of the World,,,,"Karin Lofthus Carrington, Susan Griffin",2011,0,University of California Press,,392,0,English,,,,"0520251024,978-0-520-25102-1,978-0-520-26928-6",,,,,,,,,,,0,,,,,,,1,3551279,pdf,6704fb95986248842c0faf461172475f,,,D:\\HDD4\\_missing\\6704fb95986248842c0faf461172475f.pdf,0,2000-01-01 01:00:00,2016-04-03 02:51:08,1153000/6704fb95986248842c0faf461172475f-d.jpg,,
15922143,C++ GUI Programming with Qt 4,,,,"Jasmin Blanchette, Mark Summerfield",2006,,Prentice Hall PTR,,560,0,English,92,,,"0-13-187249-4,9780131872493",,,,,,,,,,,0,,,,,,,1,52414254,pdf,666b2abd2f0ce6a0d81cac724598c558,,,D:\\HDD4\\_missing\\666b2abd2f0ce6a0d81cac724598c558.pdf,0,2000-01-01 01:00:00,2016-04-03 02:51:08,1153000/666b2abd2f0ce6a0d81cac724598c558-d.jpg,,
15922140,The Business of Tourism,,8th Edition,,"Chris Holloway, R. Davidson, Claire Humphreys",2009,8,Pearson Education Canada,,792,0,English,,,,"0273717103,978-0-273-71710-2",,,,,,,,,,,0,,,,,,,1,24358101,pdf,66409543a45655e7aa8a5a6a1cc450d4,,,D:\\HDD4\\_missing\\66409543a45655e7aa8a5a6a1cc450d4.pdf,0,2000-01-01 01:00:00,2016-04-03 02:51:08,1153000/66409543a45655e7aa8a5a6a1cc450d4-d.jpg,,
15922141,Veterinary Immunology: Principles and Practice,,,,"Michael J. Day, Ronald D. Schultz",2010,1,CRC Press,,256,0,English,,,,"1840761431,978-1-84076-143-6",,,,,,,,,,,0,,,,,,,1,8736782,pdf,66429e2ecd2645156e154341d89377c7,,,D:\\HDD4\\_missing\\66429e2ecd2645156e154341d89377c7.pdf,0,2000-01-01 01:00:00,2016-04-03 02:51:08,1153000/66429e2ecd2645156e154341d89377c7-d.jpg,,
15922142,Educating Children with Complex Conditions: Understanding Overlapping & Co-existing Developmental Disorders,,,,"Winand H Dittrich, Rona Tutt",2008,,SAGE Publications Ltd,,128,0,English,,,,"1847873170,978-1-84787-317-0,978-1-84787-318-7",,,,,,,,,,,0,,,,,,,1,3351266,pdf,66550bc7b8a8899cfeaf38af4ba59221,,,D:\\HDD4\\_missing\\66550bc7b8a8899cfeaf38af4ba59221(1).pdf,0,2000-01-01 01:00:00,2016-04-03 02:51:08,1153000/66550bc7b8a8899cfeaf38af4ba59221-d.jpg,,
15922139,Data Flow Analysis: Theory and Practice,,,,"Uday Khedker, Amitabha Sanyal, Bageshri Sathe",2009,0,CRC Press,,395,0,English,,,,"0849328802,978-0-8493-2880-0",,,,,,,,,,,0,,,,,,,1,3944085,pdf,663f63965e128ff9349e0c54d189a9f7,,,D:\\HDD4\\_missing\\663f63965e128ff9349e0c54d189a9f7.pdf,0,2000-01-01 01:00:00,2016-04-03 02:51:08,1153000/663f63965e128ff9349e0c54d189a9f7-d.jpg,,
15922137,Interpersonal Regulation of Learning and Motivation: Methodological Advances,,New Perspectives on Learning and Instruction,,"Simone Volet, Marja Vauras",2013,,Routledge,,240,0,English,,,,"0415698286,978-0-415-69828-3,978-0-415-69829-0,978-0-203-11773-6",,,,,,,,,,,0,,,,,,,1,3406898,pdf,661ae39690a89f6a53f196f5beb04e0a,,,D:\\HDD4\\_missing\\661ae39690a89f6a53f196f5beb04e0a.pdf,0,2000-01-01 01:00:00,2016-04-03 02:51:08,1152000/661ae39690a89f6a53f196f5beb04e0a-d.jpg,,
15922138,Programmierhandbuch f√ºr den IBM¬Æ PC: Das vollst√§ndige und umfassende Nachschlagewerk f√ºr die IBM Personal Computer,,German Edition,,Peter Norton,1986,,Vieweg+Teubner Verlag,,403,0,German,,,,"3528044896,978-3-528-04489-3,978-3-322-99366-3",,,,,,,10.1007/978-3-322-99366-3,,,,0,,,,,,,1,12398576,pdf,6634f01473aff1f9a967b018b76f5f81,,,D:\\HDD4\\_missing\\6634f01473aff1f9a967b018b76f5f81.pdf,0,2000-01-01 01:00:00,2016-04-03 02:51:08,1152000/6634f01473aff1f9a967b018b76f5f81-d.jpg,,
15922135,Folate and Human Development,,,,"Edward J. Massaro, John M. Rogers",2002,,Humana Press,,359,0,English,,,,"0-89603-936-6,9780896039360",,,,,,,,,,,0,,,,,,,1,3165822,pdf,65e453fda870ca21f41ad94213ef70b2,,,D:\\HDD4\\_missing\\65e453fda870ca21f41ad94213ef70b2.pdf,0,2000-01-01 01:00:00,2016-04-03 02:51:08,1152000/65e453fda870ca21f41ad94213ef70b2-d.jpg,,
15922136,Fundamentals of Nursing,,Fundamentals of Nursing (Delmar Cengage Learning),,"Sue C. DeLaune, Patricia Kelly Ladner",2010,4,Cengage Learning,,1456,0,English,,,,"1-4354-8067-8,9781435480674",,,,,,,,,,,0,,,,,,,1,65685626,pdf,6602016b80ebea473dc390805075a436,,,D:\\HDD4\\_missing\\6602016b80ebea473dc390805075a436.pdf,0,2000-01-01 01:00:00,2016-04-03 02:51:08,1152000/6602016b80ebea473dc390805075a436-d.jpg,,
15922133,Real-Time Shadows,,,,"Elmar Eisemann, Michael Schwarz, Ulf Assarsson, Michael Wimmer",2011,1,A K Peters/CRC Press,,398,0,English,,,,"1568814380,978-1-56881-438-4",,,,,,,,,,,0,,,,,,,1,50602844,pdf,658a7e9d83cfcf210a5c063a330dcc7a,,,D:\\HDD4\\_missing\\658a7e9d83cfcf210a5c063a330dcc7a.pdf,0,2000-01-01 01:00:00,2016-04-03 02:51:08,1152000/658a7e9d83cfcf210a5c063a330dcc7a-d.jpg,,
15922134,"Psychotherapies for the Psychoses: Theoretical, Cultural and Clinical Integration",,The International Society for Psychological and Social Approaches  to Psychosis Book Series,,"John F. M. Gleeson, E√≥in Killackey, Helen Krstev",2008,1,Routledge,,288,0,English,,,,"0415411912,978-0-415-41191-2,978-0-415-41192-9,0-203-93797-X",,,,,,,,,,,0,,,,,,,1,3433975,pdf,65c6985cb41d55f70fec4e261a9ab68d,,,D:\\HDD4\\_missing\\65c6985cb41d55f70fec4e261a9ab68d.pdf,0,2000-01-01 01:00:00,2016-04-03 02:51:08,1152000/65c6985cb41d55f70fec4e261a9ab68d-d.jpg,,
15922131,The Path to Phenomenal Health,,,,Sam Graci,2005,2,Wiley,,336,0,English,,,,"0-470-83671-7,978-0-470-83671-2",,,,,,,,,,,0,,,,,,,1,3987741,pdf,6582a32166113bc6141f8ef073725468,,,D:\\HDD4\\_missing\\6582a32166113bc6141f8ef073725468.pdf,0,2000-01-01 01:00:00,2016-04-03 02:51:08,1152000/6582a32166113bc6141f8ef073725468-d.jpg,,
15922132,Core Fitness,,Body Coach,,Paul Collins,2010,,Meyer & Meyer Fachverlag und Buchhandel GmbH,,144,0,English,,,,"1841262927,978-1-84126-292-5",,,,,,,,,,,0,,,,,,,1,12944124,pdf,6583b860eeeff60ae170197ba94eb80f,,,D:\\HDD4\\_missing\\6583b860eeeff60ae170197ba94eb80f.pdf,0,2000-01-01 01:00:00,2016-04-03 02:51:08,1152000/6583b860eeeff60ae170197ba94eb80f-d.jpg,,
15922129,Eyewitness: American Revolution,,Eyewitness Books,,DK,2002,1st,DK CHILDREN,,64,0,English,,,,"0-7894-8556-7,9780789485564,0-7894-8557-5",,,,,,,,,,,0,,,,,,,1,19717353,pdf,653e5502f9680093070f4095ba0206c3,,,D:\\HDD4\\_missing\\653e5502f9680093070f4095ba0206c3.pdf,0,2000-01-01 01:00:00,2016-04-03 02:51:08,1152000/653e5502f9680093070f4095ba0206c3-d.jpg,,
15922130,Postfix: The Definitive Guide,,,,Kyle Dent D,2003,1st,O'Reilly Media,,280,0,English,,,,"0-596-00212-2,9780596002121",,,,,,,,,,,0,,,,,,,1,15341226,pdf,654d3c563042087745bbb8b306c7e67d,,,D:\\HDD4\\_missing\\654d3c563042087745bbb8b306c7e67d.pdf,0,2000-01-01 01:00:00,2016-04-03 02:51:08,1152000/654d3c563042087745bbb8b306c7e67d-d.jpg,,
15922127,Research Methods in Education,,,,"Louis Cohen, Lawrence Manion, Keith Morrison",2000,5,Routledge,,464,0,English,,,,"0-415-19541-1,9780415195416,0-203-22434-5,0-203-22446-9",,,,,,,,,,,0,,,,,,,1,3673560,pdf,6531aca1c64845ec019a73d85b965d07,,,D:\\HDD4\\_missing\\6531aca1c64845ec019a73d85b965d07.pdf,0,2000-01-01 01:00:00,2016-04-03 02:51:08,1152000/6531aca1c64845ec019a73d85b965d07-d.jpg,,
15922128,Discovering Computers Fundamentals: Your Interactive Guide to the Digital World,,Shelly Cashman,,"Gary B. Shelly, Misty E. Vermaat",2011,8,Cengage Learning,,568,0,English,,,,"1-1115-3045-9,978-1-1115-3045-7",,,,,,,,,,,0,,,,,,,1,77379247,pdf,65364fd666f76f777ff2b395459a37df,,,D:\\HDD4\\_missing\\65364fd666f76f777ff2b395459a37df.pdf,0,2000-01-01 01:00:00,2016-04-03 02:51:08,1152000/65364fd666f76f777ff2b395459a37df-d.jpg,,
15922125,"Introduction to Finite Element Analysis: Formulation, Verification and Validation",,Wiley Series in Computational Mechanics,,"Barna Szab√≥, Ivo Babu≈°ka",2011,1,Wiley,,382,0,English,,,,"0470977280,978-0-470-97728-6",,,,,,,,,,,0,,,,,,,1,9615409,pdf,6516d30150804bc554f245c2b88390b1,,,D:\\HDD4\\_missing\\6516d30150804bc554f245c2b88390b1.pdf,0,2000-01-01 01:00:00,2016-04-03 02:51:08,1152000/6516d30150804bc554f245c2b88390b1-d.jpg,,
15922126,The Globalization of Managerial Innovation in Health Care,,,,"John Kimberly, Gerard de de Pouvourville, Thomas d'Aunno",2009,1,Cambridge University Press,,394,0,English,,,,"0521885000,978-0-521-88500-3,978-0-521-71198-2",,,,,,,,,,,0,,,,,,,1,3259938,pdf,651e64e93580c6ad5f2146e6cc8d32a6,,,D:\\HDD4\\_missing\\651e64e93580c6ad5f2146e6cc8d32a6.pdf,0,2000-01-01 01:00:00,2016-04-03 02:51:08,1152000/651e64e93580c6ad5f2146e6cc8d32a6-d.jpg,,
15922124,Fast-Tracking Your Career: Soft Skills for Engineering and IT Professionals,,Professional Engineering Communication Series,,Wushow Chou,2013,1,Wiley-IEEE Press,,186,0,English,,,,"1118521781,978-1-118-52178-6",,,,,,,,,,,0,,,,,,,1,3209641,pdf,64e40c80280016db7a166a0016e40def,,,D:\\HDD4\\_missing\\64e40c80280016db7a166a0016e40def.pdf,0,2000-01-01 01:00:00,2016-04-03 02:51:08,1152000/64e40c80280016db7a166a0016e40def-d.jpg,,
15922123,"The Theory Toolbox: Critical Concepts for the Humanities, Arts, & Social Sciences",,Culture and Politics Series,,"Jeffrey Nealon, Susan Searls Giroux",2011,2nd Edition,Rowman & Littlefield Publishers,,290,0,English,,,,"0742570495,978-0-7425-7049-8,978-0-7425-7050-4,978-0-7425-7051-1",,,,,,,,,,,0,,,,,,,1,49631192,pdf,64c388cfa392a826bb9e023274c58aca,,,D:\\HDD4\\_missing\\64c388cfa392a826bb9e023274c58aca.pdf,0,2000-01-01 01:00:00,2016-04-03 02:51:08,1152000/64c388cfa392a826bb9e023274c58aca-d.jpg,,
15922121,Bipolar Disorder in Young People: A Psychological Intervention Manual,,,,"Craig A. Macneil, Melissa K. Hasty, Philippe Conus, Michael Berk, Jan Scott",2009,1,Cambridge University Press,,198,0,English,,,,"0521719364,978-0-521-71936-0",,,,,,,,,,,0,,,,,,,1,3583357,pdf,644cfa56a3e808cd02d4fe6d58619709,,,D:\\HDD4\\_missing\\644cfa56a3e808cd02d4fe6d58619709.pdf,0,2000-01-01 01:00:00,2016-04-03 02:51:08,1152000/644cfa56a3e808cd02d4fe6d58619709-d.jpg,,
15922122,"Contemporary Maritime Piracy: International Law, Strategy, and Diplomacy at Sea",,"Contemporary Military, Strategic, and Security Issues",,James Kraska,2011,1,Praeger,,253,0,English,,,,"0313387249,978-0-313-38724-1,978-0-313-38725-8",,,,,,,,,,,0,,,,,,,1,4463698,pdf,6471346eecd95c8f356f8a544ea16f5d,,,D:\\HDD4\\_missing\\6471346eecd95c8f356f8a544ea16f5d(1).pdf,0,2000-01-01 01:00:00,2016-04-03 02:51:08,1152000/6471346eecd95c8f356f8a544ea16f5d-d.jpg,,
15922119,"Quasilinear Hyperbolic Systems, Compressible Flows, and Waves",,Monographs and Surveys in Pure and Applied Mathematics,,Vishnu D. Sharma,2010,0,CRC Press,,282,0,English,,,,"1439836906,978-1-4398-3690-3",,,,,,,,,,,0,,,,,,,1,3862476,pdf,63e812bc20839ac04cc67cf288a15010,,,D:\\HDD4\\_missing\\63e812bc20839ac04cc67cf288a15010(1).pdf,0,2000-01-01 01:00:00,2016-04-03 02:51:08,1152000/63e812bc20839ac04cc67cf288a15010-d.jpg,,
15922120,Protocols and Processes: A Case Book of Video Protocol Analyses in Written Composition,,,,Deirdre Pratt,2010,,LAP LAMBERT Academic Publishing,,200,0,English,,,,"3838392582,978-3-8383-9258-5",,,,,,,,,,,0,,,,,,,1,1474641,pdf,63fbba2e3f3da9cb99aaf7284a772383,,,D:\\HDD4\\_missing\\63fbba2e3f3da9cb99aaf7284a772383.pdf,0,2000-01-01 01:00:00,2016-04-03 02:51:08,1152000/63fbba2e3f3da9cb99aaf7284a772383-d.jpg,,
15922117,Nuclear Power and the Environment,,Issues in Environmental Science and Technology,,"R M Harrison, R E Hester, John Walls, Francis Livens, Jim Smith, Jon Lloyd, Anthony Banford, Kath Morris, Joanna Renshaw, Brenda Howard, Jan Pentreath, Clint Sharrard, Lawrence Harwood, Richard Jarvis, Gareth Law, Richard Kimber, N D Bryan, Diana Kountcheva, Nick Beresford",2011,1,Royal Society of Chemistry,,246,0,English,,,,"1849731942,978-1-84973-194-2",,,,,,,,,,,0,,,,,,,1,3209395,pdf,63c81e6e50649085a07c88892fc14de0,,,D:\\HDD4\\_missing\\63c81e6e50649085a07c88892fc14de0(1).pdf,0,2000-01-01 01:00:00,2016-04-03 02:51:08,1152000/63c81e6e50649085a07c88892fc14de0-d.jpg,,
15922118,In-Game: From Immersion to Incorporation,,,,Gordon Calleja,2011,1,The MIT Press,,240,0,English,,,,"0262015463,978-0-262-01546-2",,,,,,,,,,,0,,,,,,,1,3674445,pdf,63c8f8693684eac4c1b73612adf58f35,,,D:\\HDD4\\_missing\\63c8f8693684eac4c1b73612adf58f35(1).pdf,0,2000-01-01 01:00:00,2016-04-03 02:51:08,1152000/63c8f8693684eac4c1b73612adf58f35-d.jpg,,
15922116,Excursions in Classical Analysis,,Classroom Resource Materials,,Hongwei Chen,2010,,Mathematical Association of America,,301,0,English,,,,"0883857685,978-0-88385-768-7,978-0-88385-935-3",,,,,,,,,,,0,,,,,,,1,4440151,pdf,63a264cf90a427244fe46af38b9c6dc8,,,D:\\HDD4\\_missing\\63a264cf90a427244fe46af38b9c6dc8(1).pdf,0,2000-01-01 01:00:00,2016-04-03 02:51:08,1152000/63a264cf90a427244fe46af38b9c6dc8-d.jpg,,
15922114,Zionism in the Age of the Dictators,,,,Lenni Brenner,1983,,Law Book Co of Australasia,,304,0,English,,,,"0-7099-0628-5,9780709906285,0-88208-164-0",,,,,,,,,,,0,,,,,,,1,3301427,pdf,638d6a6bee85eec643d4f9b562c65d83,,,D:\\HDD4\\_missing\\638d6a6bee85eec643d4f9b562c65d83(1).pdf,0,2000-01-01 01:00:00,2016-04-03 02:51:08,1152000/638d6a6bee85eec643d4f9b562c65d83-d.jpg,,
15922115,Practical Guide to MIMO Radio Channel: with MATLAB Examples,,,,"Tim Brown, Persefoni Kyritsi, Elizabeth De Carvalho",2012,1,Wiley,,284,0,English,,,,"0470994495,978-0-470-99449-8,978-1-119-94495-9,978-1-119-94496-6",,,,,,,,,,,0,,,,,,,1,3699500,pdf,639b1e2258d228d8fe2d3d1bbf87a7e1,,,D:\\HDD4\\_missing\\639b1e2258d228d8fe2d3d1bbf87a7e1.pdf,0,2000-01-01 01:00:00,2016-04-03 02:51:08,1152000/639b1e2258d228d8fe2d3d1bbf87a7e1-d.jpg,,
15922112,Successful Marketing Strategies for Nonprofit Organizations: Winning in the Age of the Elusive Donor,,,,Barry J. McLeish,2010,2,Wiley,,256,0,English,,,,"0470529814,978-0-470-52981-2",,,,,,,,,,,0,,,,,,,1,3156872,pdf,634c042e949b3cd8979f0c58302a602c,,,D:\\HDD4\\_missing\\634c042e949b3cd8979f0c58302a602c.pdf,0,2000-01-01 01:00:00,2016-04-03 02:51:08,1152000/634c042e949b3cd8979f0c58302a602c-d.jpg,,
15922113,Thermodynamic Tables to Accompany Modern Engineering Thermodynamics,,,,Robert T. Balmer,2010,1,Academic Press,,76,0,English,,,,"012385038X,978-0-12-385038-6",,,,,,,10.1016/B978-0-12-385038-6.00030-0,,,,0,,,,,,,1,3274468,pdf,636d288bfeb52e6a56d6e268834de740,,,D:\\HDD4\\_missing\\636d288bfeb52e6a56d6e268834de740.pdf,0,2000-01-01 01:00:00,2016-04-03 02:51:08,1152000/636d288bfeb52e6a56d6e268834de740-d.jpg,,
15922110,The Lying Stones of Marrakech: Penultimate Reflections in Natural History,,,,Stephen Jay Gould,2011,Reprint,Belknap Press,,384,0,English,,,,"0674061675,978-0-674-06167-5",,,,,,,,,,,0,,,,,,,1,3489451,pdf,630fb4300830afd022d350d605ccfd60,,,D:\\HDD4\\_missing\\630fb4300830afd022d350d605ccfd60.pdf,0,2000-01-01 01:00:00,2016-04-03 02:51:08,1152000/630fb4300830afd022d350d605ccfd60-d.jpg,,
15922111,The End of Early Music: A Period Performer's History of Music for the Twenty-First Century,,,,Bruce Haynes,2007,,"Oxford University Press, USA",,304,0,English,,,,"0195189876,978-0-19-518987-2",,,,,,,,,,,0,,,,,,,1,13625564,pdf,631e5e66fa495486c1576e0dfbf85ef1,,,D:\\HDD4\\_missing\\631e5e66fa495486c1576e0dfbf85ef1.pdf,0,2000-01-01 01:00:00,2016-04-03 02:51:08,1152000/631e5e66fa495486c1576e0dfbf85ef1-d.jpg,,
15922108,Renewable Energy - The Facts,,,,"Walter Witzel, Dieter Seifried",2010,,Routledge,,256,0,English,,,,"1849711593,978-1-84971-159-3,978-1-84971-160-9",,,,,,,,,,,0,,,,,,,1,5070637,pdf,63049024eef5746adfbf880562395094,,,D:\\HDD4\\_missing\\63049024eef5746adfbf880562395094.pdf,0,2000-01-01 01:00:00,2016-04-03 02:51:08,1152000/63049024eef5746adfbf880562395094-d.jpg,,
15922109,Blood Will Out: Essays on Liquid Transfers and Flows,,Journal of the Royal Anthropological Institute Special Issue Book Series,,Janet Carsten,2013,1,Wiley-Blackwell,,198,0,English,,,,"1118656288,978-1-118-65628-0",,,,,,,,,,,0,,,,,,,1,3206424,pdf,630b533d30f1dfb694ea9d8bd4b79399,,,D:\\HDD4\\_missing\\630b533d30f1dfb694ea9d8bd4b79399.pdf,0,2000-01-01 01:00:00,2016-04-03 02:51:08,1152000/630b533d30f1dfb694ea9d8bd4b79399-d.jpg,,
15922106,"The Peacekeeping Economy: Using Economic Relationships to Build a More Peaceful, Prosperous, and Secure World",,,,Lloyd J. Dumas,2011,,Yale University Press,,432,0,English,,,,"0300166346,978-0-300-16634-7",,,,,,,,,,,0,,,,,,,1,3617156,pdf,6302445683b03ccca49ce7e12a519b9f,,,D:\\HDD4\\_missing\\6302445683b03ccca49ce7e12a519b9f.pdf,0,2000-01-01 01:00:00,2016-04-03 02:51:08,1152000/6302445683b03ccca49ce7e12a519b9f-d.jpg,,
15922107,Fallen Giants: A History of Himalayan Mountaineering from the Age of Empire to the Age of Extremes,,,,"Maurice Isserman, Stewart Weaver",2008,1,Yale University Press,,592,0,English,,,,"0300115016,978-0-300-11501-7",,,,,,,,,,,0,,,,,,,1,5269975,pdf,63039fa0f1f1ffdfbeda1be440b977b5,,,D:\\HDD4\\_missing\\63039fa0f1f1ffdfbeda1be440b977b5.pdf,0,2000-01-01 01:00:00,2016-04-03 02:51:08,1152000/63039fa0f1f1ffdfbeda1be440b977b5-d.jpg,,
15922104,Money Enough: Everyday Practices for Living Faithfully in the Global Economy,,,,Douglas A. Hicks,2010,1,Jossey-Bass,,224,0,English,,,,"0787997757,978-0-7879-9775-5",,,,,,,,,,,0,,,,,,,1,3481259,pdf,62e4c6c2d105ce5da771f2fe44811da8,,,D:\\HDD4\\_missing\\62e4c6c2d105ce5da771f2fe44811da8.pdf,0,2000-01-01 01:00:00,2016-04-03 02:51:08,1152000/62e4c6c2d105ce5da771f2fe44811da8-d.jpg,,
15922105,Ethernet in the First Mile: Access for Everyone,,,,"Wael W. Diab, Howard M. Frazier",2010,1,Standards Information Network,,480,0,English,,,,"0-7381-4838-5,9780738148380",,,,,,,,,,,0,,,,,,,1,10843905,pdf,62ee534c6f99b863faa867876c3e0e0f,,,D:\\HDD4\\_missing\\62ee534c6f99b863faa867876c3e0e0f.pdf,0,2000-01-01 01:00:00,2016-04-03 02:51:08,1152000/62ee534c6f99b863faa867876c3e0e0f-d.jpg,,
15922102,"Handbook of Thiophene-Based Materials: Applications in Organic Electronics and Photonics, 2 Volume Set",,,,"Igor F. Perepichka, Dmitrii F. Perepichka",2009,1,Wiley,,910,0,English,,,,"0470057327,978-0-470-05732-2",,,,,,,,,,,0,,,,,,,1,11689689,pdf,62ddc834e0c1bf86f0d6778814f92945,,,D:\\HDD4\\_missing\\62ddc834e0c1bf86f0d6778814f92945.pdf,0,2000-01-01 01:00:00,2016-04-03 02:51:08,1152000/62ddc834e0c1bf86f0d6778814f92945-d.jpg,,
15922103,Problems in Operator Theory,,"Graduate Studies in Mathematics, V. 51",,"Y. A. Abramovich, Charalambos D. Aliprantis",2002,,Amer Mathematical Society,,386,0,English,,,,"0-8218-2147-4,9780821821473",,,,,,,,,,,0,,,,,,,1,11853027,pdf,62e2268f2191ea436f1caccf1812c42d,,,D:\\HDD4\\_missing\\62e2268f2191ea436f1caccf1812c42d.pdf,0,2000-01-01 01:00:00,2016-04-03 02:51:08,1152000/62e2268f2191ea436f1caccf1812c42d-d.jpg,,
15922101,An Introduction to the Mechanical Properties of Solid Polymers,,,,"I. M. Ward, J. Sweeney",2004,2,Wiley,,394,0,English,,,,"0-471-49625-1,9780471496250,0-471-49626-X",,,,,,,,,,,0,,,,,,,1,5301772,pdf,62d8a06666cc5479f6d776ddc60cc7a2,,,D:\\HDD4\\_missing\\62d8a06666cc5479f6d776ddc60cc7a2.pdf,0,2000-01-01 01:00:00,2016-04-03 02:51:08,1152000/62d8a06666cc5479f6d776ddc60cc7a2-d.jpg,,
15922099,"Principles of Mathematical Modeling, Second Edition",,,,Clive Dym,2004,2,Academic Press,,303,0,English,,,,"0-12-226551-3,9780122265518",,,,,,,,,,,0,,,,,,,1,4258967,pdf,62bf51e2652f9425ccd36795da6fadc1,,,D:\\HDD4\\_missing\\62bf51e2652f9425ccd36795da6fadc1.pdf,0,2000-01-01 01:00:00,2016-04-03 02:51:08,1152000/62bf51e2652f9425ccd36795da6fadc1-d.jpg,,
15922100,Conversational Informatics: An Engineering Approach,,Wiley Series in Agent Technology,,Toyoaki Nishida,2007,1,Wiley,,430,0,English,,,,"0470026995,978-0-470-02699-1,0-470-86120-7,978-0-470-05747-6,978-0-470-02900-8",,,,,,,,,,,0,,,,,,,1,19015027,pdf,62cb659ee588d2110e3e9ec3dc45b2f5,,,D:\\HDD4\\_missing\\62cb659ee588d2110e3e9ec3dc45b2f5(1).pdf,0,2000-01-01 01:00:00,2016-04-03 02:51:08,1152000/62cb659ee588d2110e3e9ec3dc45b2f5-d.jpg,,
15922098,Android Application Development For Dummies,,,,"Michael Burton, Donn Felker",2012,2,For Dummies,,408,0,English,,,,"1118387104,978-1-118-38710-8,978-1-118-41745-4,978-1-118-42190-1,978-1-118-43327-0",,,,,,,,,,,0,,,,,,,1,41564126,pdf,62893ff3b99cd388fb14901570b7b510,,,D:\\HDD4\\_missing\\62893ff3b99cd388fb14901570b7b510.pdf,0,2000-01-01 01:00:00,2016-04-03 02:51:08,1152000/62893ff3b99cd388fb14901570b7b510-d.jpg,,
15922096,The Funding of Biopharmaceutical Research and Development,,Woodhead Publishing Series in Biomedicine,,D. R. Williams,2013,1,Woodhead Publishing,,284,0,English,,,,"1907568948,978-1-907568-94-7,978-1-908818-38-6",,,,,,,,,,,0,,,,,,,1,5063379,pdf,6271ba6bb91989fe9c073b1683c2f499,,,D:\\HDD4\\_missing\\6271ba6bb91989fe9c073b1683c2f499.pdf,0,2000-01-01 01:00:00,2016-04-03 02:51:08,1152000/6271ba6bb91989fe9c073b1683c2f499-d.jpg,,
15922097,"Processing and Properties of Advanced Ceramics and Composites V: Ceramic Transactions, Volume 240",,Ceramic Transactions Series,,"Narottam P. Bansal, Jitendra P. Singh, Song Ko, Ricardo Castro, Gary Pickrell, Navin Jose Manjooran, Mani Nair, Gurpreet Singh",2013,1,Wiley-American Ceramic Society,,374,0,English,,,,"1118744098,978-1-118-74409-3",,,,,,,,,,,0,,,,,,,1,52917352,pdf,62743b6a1862017dbb5a12ca0f1d206a,,,D:\\HDD4\\_missing\\62743b6a1862017dbb5a12ca0f1d206a.pdf,0,2000-01-01 01:00:00,2016-04-03 02:51:08,1152000/62743b6a1862017dbb5a12ca0f1d206a-d.jpg,,
15922094,Ultra High Field Magnetic Resonance Imaging,,Biological Magnetic Resonance,,"Pierre-Marie Robitaille, Lawrence Berliner",2006,,Springer,,476,0,English,,,,"0-387-34231-1,978-0387-34231-3",,,,,,,,,,,0,,,,,,,1,34647819,pdf,624ea6cc6551a3f7f180e20717e2b8df,,,D:\\HDD4\\_missing\\624ea6cc6551a3f7f180e20717e2b8df(1).pdf,0,2000-01-01 01:00:00,2016-04-03 02:51:08,1152000/624ea6cc6551a3f7f180e20717e2b8df-d.jpg,,
15922095,Nitrogen Acquisition and Assimilation in Higher Plants,,Plant Ecophysiology,,"Sara Amancio, Ineke Stulen",2005,,Springer,,300,0,English,,,,"1-4020-2727-3,9781402027277,1-4020-2728-1",,,,,,,,,,,0,,,,,,,1,4640608,pdf,625472ddc3c418645c7aa776c104188c,,,D:\\HDD4\\_missing\\625472ddc3c418645c7aa776c104188c.pdf,0,2000-01-01 01:00:00,2016-04-03 02:51:08,1152000/625472ddc3c418645c7aa776c104188c-d.jpg,,
15922093,Application of Hydrodynamic Cavitation in Environmental Engineering,,,,Janusz Ozonek,2012,1,CRC Press,,144,0,English,,,,"0415616263,978-0-415-61626-3",,,,,,,,,,,0,,,,,,,1,3159958,pdf,6248c206f40209a95b6a83d38626d3d1,,,D:\\HDD4\\_missing\\6248c206f40209a95b6a83d38626d3d1(1).pdf,0,2000-01-01 01:00:00,2016-04-03 02:51:08,1152000/6248c206f40209a95b6a83d38626d3d1-d.jpg,,
15922090,Bilingual Competence and Bilingual Proficiency in Child Development,,,,Norbert Francis,2011,,The MIT Press,,416,0,English,,,,"0262016397,978-0-262-01639-1",,,,,,,,,,,0,,,,,,,1,3257333,pdf,62262b75b5d92664f28231af2d2ae75d,,,D:\\HDD4\\_missing\\62262b75b5d92664f28231af2d2ae75d.pdf,0,2000-01-01 01:00:00,2016-04-03 02:51:08,1152000/62262b75b5d92664f28231af2d2ae75d-d.jpg,,
15922091,The Foundations of Mathematics,,Logic,,Kenneth Kunen,2009,,College Publications,,262,0,English,,,,"1904987141,978-1-904987-14-7",,,,,,,,,,,0,,,,,,,1,3239838,djvu,622d59ea5913fd4bf7794655a0189b8d,,,D:\\HDD4\\_missing\\622d59ea5913fd4bf7794655a0189b8d.djvu,0,2000-01-01 01:00:00,2016-04-03 02:51:08,1152000/622d59ea5913fd4bf7794655a0189b8d-d.jpg,,
15922092,"Nonabelian Algebraic Topology: Filtered Spaces, Crossed Complexes, Cubical Homotopy Groupoids",,EMS Tracts in Mathematics,,"Ronald Brown, Philip J. Higgins, Rafael Sivera",2011,,European Mathematical Society,,703,0,English,,,,"3037190833,978-3-03719-083-8",,,,,,,,,,,0,,,,,,,1,6949426,pdf,6236e0cbe3f0074ce00ecf3057f4a695,,,D:\\HDD4\\_missing\\6236e0cbe3f0074ce00ecf3057f4a695(1).pdf,0,2000-01-01 01:00:00,2016-04-03 02:51:08,1152000/6236e0cbe3f0074ce00ecf3057f4a695-d.jpg,,
15922088,Frontiers of Remote Sensing Information Processing,,,,C. H. Chen,2003,,World Scientific Pub Co Inc,,628,0,English,,,,"981-238-344-1,9789812383440",,,,,,,,,,,0,,,,,,,1,52625591,pdf,620f580fef5c5380188bf2c121e5d852,,,D:\\HDD4\\_missing\\620f580fef5c5380188bf2c121e5d852.pdf,0,2000-01-01 01:00:00,2016-04-03 02:51:08,1152000/620f580fef5c5380188bf2c121e5d852-d.jpg,,
15922089,"From Yugoslavia to the Western Balkans: Studies of a European Disunion, 1991-2011",,Balkan Studies Library,,Robert Hayden,2012,,BRILL,,410,0,English,,,,"9004241906,978-90-04-24190-9,978-90-04-24191-6",,,,,,,,,,,0,,,,,,,1,3577049,pdf,621f4b43b9586115c141b5ace886e04d,,,D:\\HDD4\\_missing\\621f4b43b9586115c141b5ace886e04d(1).pdf,0,2000-01-01 01:00:00,2016-04-03 02:51:08,1152000/621f4b43b9586115c141b5ace886e04d-d.jpg,,
15922087,Interpretation of Three-Dimensional Seismic Data,,"Aapg Memoir, 42",,Alistair R. Brown,1999,5,Amer Assn of Petroleum Geologists,,514,0,English,,,,"0-89181-352-7,9780891813521",,,,,,,,,,,0,,,,,,,1,83054984,pdf,620d8015c12c128832afd83089cd6587,,,D:\\HDD4\\_missing\\620d8015c12c128832afd83089cd6587.pdf,0,2000-01-01 01:00:00,2016-04-03 02:51:08,1152000/620d8015c12c128832afd83089cd6587-d.jpg,,
15922085,The Liar Paradox and the Towers of Hanoi: The Ten Greatest Math Puzzles of All Time,,,,Marcel Danesi,2004,1,Wiley,,256,0,English,,,,"0-471-64816-7,9780471648161",,,,,,,,,,,0,,,,,,,1,3933786,pdf,620bee56792468ffe65ccd603695d270,,,D:\\HDD4\\_missing\\620bee56792468ffe65ccd603695d270.pdf,0,2000-01-01 01:00:00,2016-04-03 02:51:08,1152000/620bee56792468ffe65ccd603695d270-d.jpg,,
15922086,DOM Scripting: Web Design with JavaScript and the Document Object Model,,,,"Jeremy Keith, Jeffrey Sambells",2010,2,friendsofED,,336,0,English,,,,"1430233893,978-1-4302-3389-3,978-1-4302-3390-9",,,,,,,,,,,0,,,,,,,1,8471847,pdf,620d40254eae88b35af4b5f2ffe6b500,,,D:\\HDD4\\_missing\\620d40254eae88b35af4b5f2ffe6b500(1).pdf,0,2000-01-01 01:00:00,2016-04-03 02:51:08,1152000/620d40254eae88b35af4b5f2ffe6b500-d.jpg,,
15922083,Alain L. Locke: The Biography of a Philosopher,,,,"Leonard Harris, Charles Molesworth",2008,1,University Of Chicago Press,,448,0,English,,,,"0-226-31776-5,978-0-226-31776-2",,,,,,,,,,,0,,,,,,,1,3351259,pdf,61edc3c059c00e722860e9039659bdcf,,,D:\\HDD4\\_missing\\61edc3c059c00e722860e9039659bdcf.pdf,0,2000-01-01 01:00:00,2016-04-03 02:51:08,1152000/61edc3c059c00e722860e9039659bdcf-d.jpg,,
15922084,Metaphysics,,Kant Yearbook,,"Dietmar H. Heidemann, Dietmar H. Heidemann",2010,1,De Gruyter,,198,0,English,,,,"3110222922,978-3-11-022292-0,978-3-11-022293-7,978-3-11-022294-4",,,,,,,10.1515/kantyb,,,,0,,,,,,,1,3157768,pdf,6206a99819918c009967d709f9b28659,,,D:\\HDD4\\_missing\\6206a99819918c009967d709f9b28659.pdf,0,2000-01-01 01:00:00,2016-04-03 02:51:08,1152000/6206a99819918c009967d709f9b28659-d.jpg,,
15922081,Cacti 0.8 Network Monitoring,,,,"S. M. Ibrahim Lavlu, Dinangkur Kundu",2009,,Packt Publishing,,132,0,English,,,,"1847195962,978-1-847195-96-8",,,,,,,,,,,0,,,,,,,1,6410934,pdf,61dca32833aa05bb56dc51de6ed65e1d,,,D:\\HDD4\\_missing\\61dca32833aa05bb56dc51de6ed65e1d.pdf,0,2000-01-01 01:00:00,2016-04-03 02:51:08,1152000/61dca32833aa05bb56dc51de6ed65e1d-d.jpg,,
15922082,"Big Money, Little Effort: Practical and Effective Strategies for Stock Market Investment",,,,Mark Shipman,2008,,Kogan Page,,272,0,English,,,,"0749449438,978-0-7494-4943-8",,,,,,,,,,,0,,,,,,,1,4757210,pdf,61eac8f2ec6207d0027fb76252240a3a,,,D:\\HDD4\\_missing\\61eac8f2ec6207d0027fb76252240a3a.pdf,0,2000-01-01 01:00:00,2016-04-03 02:51:08,1152000/61eac8f2ec6207d0027fb76252240a3a-d.jpg,,
15922079,The Ambient Metric,,AM-178) (Annals of Mathematics Studies,,"Charles Fefferman, C. Robin Graham",2011,,Princeton University Press,,128,0,English,,,,"0691153132,978-0-691-15313-1,978-0691-15314-8",,,,,,,,,,,0,,,,,,,1,3285487,pdf,619f7c9a792d132d172e41e75652ffdb,,,D:\\HDD4\\_missing\\619f7c9a792d132d172e41e75652ffdb.pdf,0,2000-01-01 01:00:00,2016-04-03 02:51:08,1152000/619f7c9a792d132d172e41e75652ffdb-d.jpg,,
15922080,Conceptualizing Iranian Anthropology: Past and Present Perspectives,,,,Shahnaz R. Nadjmabadi,2009,,Berghahn Books,,288,0,English,,,,"1845456262,978-1-84545-626-9",,,,,,,,,,,0,,,,,,,1,3586417,pdf,61ba8148b536c3a79fff8170a694468f,,,D:\\HDD4\\_missing\\61ba8148b536c3a79fff8170a694468f.pdf,0,2000-01-01 01:00:00,2016-04-03 02:51:08,1152000/61ba8148b536c3a79fff8170a694468f-d.jpg,,
15922078,In the Light of Evolution: Volume 1. Adaptation and Complex Design,,In Light of Evolution,,"John C. Avise, Francisco J. Ayala",2007,,National Academies Press,,380,0,English,,,,"0-309-10405-X,978-0-309-10405-0,978-0-309-66786-9,0-309-66786-0",,,,,,,,,,,0,,,,,,,1,12037824,pdf,619020125273c51a48bc59ea8b183d99,,,D:\\HDD4\\_missing\\619020125273c51a48bc59ea8b183d99.pdf,0,2000-01-01 01:00:00,2016-04-03 02:51:08,1152000/619020125273c51a48bc59ea8b183d99-d.jpg,,
15922076,Autism Spectrum Disorder,,Pittsburgh Pocket Psychiatry,,"Martin J. Lubetsky, Benjamin L. Handen, John J. McGonigle",2011,1,"Oxford University Press, USA",,360,0,English,,,,"0199753857,978-0-19-975385-7",,,,,,,,,,,0,,,,,,,1,2954125,pdf,616b63183f9e3439d3e8c37c285492b6,,,D:\\HDD4\\_missing\\616b63183f9e3439d3e8c37c285492b6.pdf,0,2000-01-01 01:00:00,2016-04-03 02:51:08,1152000/616b63183f9e3439d3e8c37c285492b6-d.jpg,,
15922077,"After the Globe, Before the World",,Global Horizons,,RBJ Walker,2009,1,Routledge,,368,0,English,,,,"0415779022,978-0-415-77902-9,978-0-415-77903-6,978-0-203-87124-9",,,,,,,,,,,0,,,,,,,1,4035542,pdf,618c19623e5225ff660405fbbfbfc9d1,,,D:\\HDD4\\_missing\\618c19623e5225ff660405fbbfbfc9d1.pdf,0,2000-01-01 01:00:00,2016-04-03 02:51:08,1152000/618c19623e5225ff660405fbbfbfc9d1-d.jpg,,
15922074,Independence-Friendly Logic: A Game-Theoretic Approach,,London Mathematical Society Lecture Note Series,,"Allen L. Mann, Gabriel Sandu, Merlijn Sevenster",2011,0,Cambridge University Press,,216,0,English,,,,"0521149347,978-0-521-14934-1",,,,,,,,,,,0,,,,,,,1,3193902,pdf,6149d4b543d647dfca249e4e3ccd65a9,,,D:\\HDD4\\_missing\\6149d4b543d647dfca249e4e3ccd65a9.pdf,0,2000-01-01 01:00:00,2016-04-03 02:51:08,1152000/6149d4b543d647dfca249e4e3ccd65a9-d.jpg,,
15922075,Computational Approaches in Cheminformatics and Bioinformatics,,,,"Rajarshi Guha, Andreas Bender",2012,1,Wiley,,292,0,English,,,,"0470384417,978-0-470-38441-1",,,,,,,,,,,0,,,,,,,1,5231594,pdf,614f05bd7e70056e3ec1010da6926f35,,,D:\\HDD4\\_missing\\614f05bd7e70056e3ec1010da6926f35(1).pdf,0,2000-01-01 01:00:00,2016-04-03 02:51:08,1152000/614f05bd7e70056e3ec1010da6926f35-d.jpg,,
15922072,Digital Capture After Dark,,,,"Amanda Quintenz-Fiedler, Philipp Scholz Rittermann",2013,1,Rocky Nook,,192,0,English,,,,"1933952660,978-1-933952-66-6",,,,,,,,,,,0,,,,,,,1,151834150,pdf,613d5c97f1cc08ba808dfb9acd54c6b2,,,D:\\HDD4\\_missing\\613d5c97f1cc08ba808dfb9acd54c6b2.pdf,0,2000-01-01 01:00:00,2016-04-03 02:51:08,1152000/613d5c97f1cc08ba808dfb9acd54c6b2-d.jpg,,
15922073,Sticking to the Union: An Oral History of the Life and Times of Julia Ruuttila,,Palgrave Studies in Oral History,,"Sandy Polishuk, Amy Kesselman",2003,1,Palgrave Macmillan,,273,0,English,,,,"1-4039-6239-1,9781403962393,1-4039-6240-5",,,,,,,,,,,0,,,,,,,1,3418164,pdf,6147b7b427270e574991247e485457c2,,,D:\\HDD4\\_missing\\6147b7b427270e574991247e485457c2.pdf,0,2000-01-01 01:00:00,2016-04-03 02:51:08,1152000/6147b7b427270e574991247e485457c2-d.jpg,,
15922070,Fichte's Social and Political Philosophy: Property and Virtue,,Modern European Philosophy,,David James,2011,,Cambridge University Press,,234,0,English,,,,"1107001552,978-1-107-00155-8",,,,,,,,,,,0,,,,,,,1,4475339,pdf,611fcea273c6379830094d7638c6714f,,,D:\\HDD4\\_missing\\611fcea273c6379830094d7638c6714f.pdf,0,2000-01-01 01:00:00,2016-04-03 02:51:08,1152000/611fcea273c6379830094d7638c6714f-d.jpg,,
15922071,Legal Aspects of Occupational Therapy,,,,Bridgit C. Dimond,2004,2,Wiley-Blackwell,,440,0,English,,,,"1-4051-1343-X,9781405113434",,,,,,,,,,,0,,,,,,,1,3207746,pdf,612ce06c14913381e212883bd47a7d25,,,D:\\HDD4\\_missing\\612ce06c14913381e212883bd47a7d25.pdf,0,2000-01-01 01:00:00,2016-04-03 02:51:08,1152000/612ce06c14913381e212883bd47a7d25-d.jpg,,
15922068,"Marketing Strategy, Text and Cases",,,,"O. C. Ferrell, Michael Hartline",2012,6,Cengage Learning,,624,0,English,,,,"1-285-07304-5,978-1-285-07304-0",,,,,,,,,,,0,,,,,,,1,13992773,pdf,6104775120fdae4e37480b4c9f4ad46c,,,D:\\HDD4\\_missing\\6104775120fdae4e37480b4c9f4ad46c.pdf,0,2000-01-01 01:00:00,2016-04-03 02:51:08,1152000/6104775120fdae4e37480b4c9f4ad46c-d.jpg,,
15922069,An Essay on Liberation,,,,Herbert Marcuse,1971,,Beacon Press,,104,0,English,,,,"0-8070-0595-9,9780807005958",,,,,,,,,,,0,,,,,,,1,4317434,pdf,610eb01411b2686a8b374c843acd469f,,,D:\\HDD4\\_missing\\610eb01411b2686a8b374c843acd469f(1).pdf,0,2000-01-01 01:00:00,2016-04-03 02:51:08,1152000/610eb01411b2686a8b374c843acd469f-d.jpg,,
15922066,Veto Power: Institutional Design in the European Union,,New Comparative Politics,,Jonathan Slapin,2011,,University of Michigan Press,,196,0,English,,,,"0472117939,978-0-472-11793-2,978-0-472-02775-0",,,,,,,,,,,0,,,,,,,1,3172114,pdf,60f8949921ee1baebdc06c96b8b804a8,,,D:\\HDD4\\_missing\\60f8949921ee1baebdc06c96b8b804a8.pdf,0,2000-01-01 01:00:00,2016-04-03 02:51:08,1152000/60f8949921ee1baebdc06c96b8b804a8-d.jpg,,
15922067,International Law in the U.S. Supreme Court,,,,"David L. Sloss, Michael D. Ramsey, William S. Dodge",2011,,Cambridge University Press,,654,0,English,,,,"0521119561,978-0-521-11956-6",,,,,,,,,,,0,,,,,,,1,7556009,pdf,61020c4853ec9c728408bf0ecec8090f,,,D:\\HDD4\\_missing\\61020c4853ec9c728408bf0ecec8090f.pdf,0,2000-01-01 01:00:00,2016-04-03 02:51:08,1152000/61020c4853ec9c728408bf0ecec8090f-d.jpg,,
15922064,World Religions,,,,Warren Matthews,2012,7,Cengage Learning,,464,0,English,,,,"1-111-83472-5,978-1-111-83472-2",,,,,,,,,,,0,,,,,,,1,42410511,pdf,60d5154d74a37aedb3c439f4c24acab8,,,D:\\HDD4\\_missing\\60d5154d74a37aedb3c439f4c24acab8.pdf,0,2000-01-01 01:00:00,2016-04-03 02:51:08,1152000/60d5154d74a37aedb3c439f4c24acab8-d.jpg,,
15922065,Classical and New Inequalities in Analysis,,Mathematics and its Applications,,"Dragoslav S. Mitrinovic, J. Pecaric, A.M Fink",1992,,Springer,,740,0,English,,,,"0-7923-2064-6,9780792320647,173-175-176-1",,,,,,,,,,,0,,,,,,,1,6609666,djvu,60f586a3e7b6bc4c55118f6c3875d758,,,D:\\HDD4\\_missing\\60f586a3e7b6bc4c55118f6c3875d758.djvu,0,2000-01-01 01:00:00,2016-04-03 02:51:08,1152000/60f586a3e7b6bc4c55118f6c3875d758-d.jpg,,
15922062,Accounts Demystified: The Astonishingly Simple Guide to Accounting,,,,Anthony Rice,2008,5th,Prentice Hall,,251,0,English,,,,"0273714929,978-0-273-71492-7",,,,,,,,,,,0,,,,,,,1,3289496,pdf,60b4910ee7d8612f12d008f5b29f3754,,,D:\\HDD4\\_missing\\60b4910ee7d8612f12d008f5b29f3754.pdf,0,2000-01-01 01:00:00,2016-04-03 02:51:08,1152000/60b4910ee7d8612f12d008f5b29f3754-d.jpg,,
15922063,"Movement, Connectivity, and Landscape Change in the Ancient Southwest",,Proceedings of the Southwest Symposium,,"Margaret C. Nelson, Colleen A. Strawhacker",2011,20 Anv,University Press of Colorado,,448,0,English,,,,"1607320649,978-1-60732-064-7,978-1-60732-065-4",,,,,,,,,,,0,,,,,,,1,3458095,pdf,60d382ef645ac40e2764bfb0111dbfc7,,,D:\\HDD4\\_missing\\60d382ef645ac40e2764bfb0111dbfc7.pdf,0,2000-01-01 01:00:00,2016-04-03 02:51:08,1152000/60d382ef645ac40e2764bfb0111dbfc7-d.jpg,,
15922060,Comparative Constitutional Design,,Comparative Constitutional Law and Policy,,Tom Ginsburg,2012,0,Cambridge University Press,,406,0,English,,,,"1107020565,978-1-107-02056-6",,,,,,,,,,,0,,,,,,,1,5667148,pdf,6083b62da57672a151a5f256b7f00cc2,,,D:\\HDD4\\_missing\\6083b62da57672a151a5f256b7f00cc2.pdf,0,2000-01-01 01:00:00,2016-04-03 02:51:08,1152000/6083b62da57672a151a5f256b7f00cc2-d.jpg,,
15922061,Autism Spectrum Disorders: A Research Review for Practitioners,,,,"Sally Ozonoff, Sally J. Rogers, Robert L. Hendren",2003,1,Amer Psychiatric Pub,,296,0,English,,,,"1-58562-119-6,9781585621194",,,,,,,,,,,0,,,,,,,1,3427687,pdf,609f38d66021e18121ea89700fe27d37,,,D:\\HDD4\\_missing\\609f38d66021e18121ea89700fe27d37.pdf,0,2000-01-01 01:00:00,2016-04-03 02:51:08,1152000/609f38d66021e18121ea89700fe27d37-d.jpg,,
15922059,Physiology,,Lippincott's Illustrated Reviews Series,,"Robin R Preston PhD, Thad Wilson PhD",2012,North American Edition,Lippincott Williams & Wilkins,,528,0,English,,,,"1609132416,978-1-60913-241-5",,,,,,,,,,,0,,,,,,,1,145792903,pdf,604b28905616ed515ca710211ce06ca8,,,D:\\HDD4\\_missing\\604b28905616ed515ca710211ce06ca8(1).pdf,0,2000-01-01 01:00:00,2016-04-03 02:51:08,1152000/604b28905616ed515ca710211ce06ca8-d.jpg,,
15922057,Modelling Environmental Dynamics: Advances in Geomatic Solutions,,Environmental Science and Engineering / Environmental Science,,"Martin Paegelow, Mar√≠a Teresa Camacho Olmedo",2008,,Springer,,390,0,English,,,,"3540684891,978-3-540-68489-3,978-3-540-68498-5",,,,,,,,,,,0,,,,,,,1,24602831,pdf,602198b6d38348341acd42d7a9a0ee2c,,,D:\\HDD4\\_missing\\602198b6d38348341acd42d7a9a0ee2c.pdf,0,2000-01-01 01:00:00,2016-04-03 02:51:08,1152000/602198b6d38348341acd42d7a9a0ee2c-d.jpg,,
15922058,Semblance and Event: Activist Philosophy and the Occurrent Arts,,Technologies of Lived Abstraction,,Brian Massumi,2011,0,The MIT Press,,232,0,English,,,,"0262134918,978-0-262-13491-0",,,,,,,,,,,0,,,,,,,1,4197179,pdf,6042772baf2b66eaa182ae531f70ba46,,,D:\\HDD4\\_missing\\6042772baf2b66eaa182ae531f70ba46.pdf,0,2000-01-01 01:00:00,2016-04-03 02:51:08,1152000/6042772baf2b66eaa182ae531f70ba46-d.jpg,,
15922055,Happiness: A Guide to Developing Life's Most Important Skill,,,,Matthieu Ricard,2006,,"Little, Brown and Company",,304,0,English,,,,"0-316-05783-5,978-0-316-05783-7,0-316-16725-8,978-0-316-16725-3",,,,,,,,,,,0,,,,,,,1,3198030,pdf,5ffe43cf4c9c21a21018ba99b6a62915,,,D:\\HDD4\\_missing\\5ffe43cf4c9c21a21018ba99b6a62915.pdf,0,2000-01-01 01:00:00,2016-04-03 02:51:08,1152000/5ffe43cf4c9c21a21018ba99b6a62915-d.jpg,,
15922056,The Art of Posing: Techniques for Digital Portrait Photographers,,Pro Photo Workshop,,Lou Jacobs,2010,,Amherst Media,,127,0,English,,,,"1584289910,978-1-58428-991-3",,,,,,,,,,,0,,,,,,,1,11676138,pdf,60113ce5097d43736fdf2a27e4055ad9,,,D:\\HDD4\\_missing\\60113ce5097d43736fdf2a27e4055ad9.pdf,0,2000-01-01 01:00:00,2016-04-03 02:51:08,1152000/60113ce5097d43736fdf2a27e4055ad9-d.jpg,,
15922053,"New Science of Learning: Cognition, Computers and Collaboration in Education",,,,"Myint Swe Khine, Issa M. Saleh",2010,,Springer,,566,0,English,,,,"1441957154,978-1-4419-5715-3,978-1-4419-5716-0",,,,,,,10.1007/978-1-4419-5716-0,,,,0,,,,,,,1,23073701,pdf,5ff9de220c3b9d1850320da2eb6f96e0,,,D:\\HDD4\\_missing\\5ff9de220c3b9d1850320da2eb6f96e0.pdf,0,2000-01-01 01:00:00,2016-04-03 02:51:08,1152000/5ff9de220c3b9d1850320da2eb6f96e0-d.jpg,,
15922054,Green Jobs: A Guide to Eco-Friendly Employment,,,,A. Bronwyn Llewellyn,2008,,Adams Media,,256,0,English,,,,"1-59869-872-9,978-1-59869-872-5,978-1-44050-120-3",,,,,,,,,,,0,,,,,,,1,3730461,pdf,5ffa45ea5184dd8b34e9510f3ba4ee6b,,,D:\\HDD4\\_missing\\5ffa45ea5184dd8b34e9510f3ba4ee6b.pdf,0,2000-01-01 01:00:00,2016-04-03 02:51:08,1152000/5ffa45ea5184dd8b34e9510f3ba4ee6b-d.jpg,,
15922052,Twenty-First Century Gateways: Immigrant Incorporation in Suburban America,,James a. Johnson Metro Series,,"Audrey Singer, Susan W. Hardwick, Caroline B. Brettell, Henry G. Cisneros",2008,,Brookings Institution Press,,331,0,English,,,,"0-8157-7926-7,978-0-8157-7926-1,978-0-8157-7927-8,0-8157-7927-5",,,,,,,,,,,0,,,,,,,1,10651328,pdf,5ff361e9772282288416c0d0c8b22c7d,,,D:\\HDD4\\_missing\\5ff361e9772282288416c0d0c8b22c7d.pdf,0,2000-01-01 01:00:00,2016-04-03 02:51:08,1152000/5ff361e9772282288416c0d0c8b22c7d-d.jpg,,
15922050,Macs All-in-One For Dummies,,,,Joe Hutsko,2009,2,For Dummies,,816,0,English,,,,"0470537981,978-0-470-53798-5",,,,,,,,,,,0,,,,,,,1,26377095,pdf,5fe36f9a28f4e6c543eb2bd5e4ff3127,,,D:\\HDD4\\_missing\\5fe36f9a28f4e6c543eb2bd5e4ff3127.pdf,0,2000-01-01 01:00:00,2016-04-03 02:51:08,1152000/5fe36f9a28f4e6c543eb2bd5e4ff3127-d.jpg,,
15922051,Encyclopedia of Deafness and Hearing Disorders,,Facts on File Library of Health & Living,,"Carol A. Turkington, Allen E. Sussman",2003,2 Updated,Facts on File,,294,0,English,,,,"0-8160-5615-3,9780816056156",,,,,,,,,,,0,,,,,,,1,3262302,pdf,5fe987ed0ac8772c7767ef7e7e4effc0,,,D:\\HDD4\\_missing\\5fe987ed0ac8772c7767ef7e7e4effc0.pdf,0,2000-01-01 01:00:00,2016-04-03 02:51:08,1152000/5fe987ed0ac8772c7767ef7e7e4effc0-d.jpg,,
15922048,Attention-Deficit/Hyperactivity Disorder: A Clinical Guide to Diagnosis and Treatment for Health and Mental Professionals,,"Silver, Attention-Deficit/ Hyperactivity Disorder",,Larry B. Silver,2003,3,Amer Psychiatric Pub,,264,0,English,,,,"1-58562-131-5,9781585621316",,,,,,,,,,,0,,,,,,,1,3488028,pdf,5fd8eec4ab539aaf1484e43526a570b4,,,D:\\HDD4\\_missing\\5fd8eec4ab539aaf1484e43526a570b4.pdf,0,2000-01-01 01:00:00,2016-04-03 02:51:08,1152000/5fd8eec4ab539aaf1484e43526a570b4-d.jpg,,
15922049,Effective Interpersonal and Team Communication Skills for Engineers,,,,"Clifford Whitcomb, Leslie E. Whitcomb",2013,1,Wiley-IEEE Press,,168,0,English,,,,"1118317092,978-1-118-31709-9",,,,,,,,,,,0,,,,,,,1,3503339,pdf,5fdfaa256d6fef3c069cbec80f8627dc,,,D:\\HDD4\\_missing\\5fdfaa256d6fef3c069cbec80f8627dc.pdf,0,2000-01-01 01:00:00,2016-04-03 02:51:08,1152000/5fdfaa256d6fef3c069cbec80f8627dc-d.jpg,,
15922046,Community Child and Adolescent Psychiatry: A Manual of Clinical Practice and Consultation,,,,"Theodore A., M.D. Petti, Carlos, M.D. Salguero",2005,1,American Psychiatric Publishing,,320,0,English,,,,"1-58562-180-3,9781585621804",,,,,,,,,,,0,,,,,,,1,3195372,pdf,5fbf88bfda15af071a1d08c7dba620ad,,,D:\\HDD4\\_missing\\5fbf88bfda15af071a1d08c7dba620ad.pdf,0,2000-01-01 01:00:00,2016-04-03 02:51:08,1152000/5fbf88bfda15af071a1d08c7dba620ad-d.jpg,,
15922047,How International Law Works: A Rational Choice Theory,,,,Andrew T. Guzman,2008,,"Oxford University Press, USA",,272,0,English,,,,"0195305566,978-0-19-530556-2",,,,,,,,,,,0,,,,,,,1,3377525,pdf,5fc3e1b70655c03938d0452ac6c29071,,,D:\\HDD4\\_missing\\5fc3e1b70655c03938d0452ac6c29071.pdf,0,2000-01-01 01:00:00,2016-04-03 02:51:08,1152000/5fc3e1b70655c03938d0452ac6c29071-d.jpg,,
15922044,"Desk Reference of Clinical Pharmacology, Second Edition",,CRC Desk Reference Series,,Manuchair Ebadi,2007,2,CRC Press,,824,0,English,,,,"1-4200-4743-4,978-1-4200-4743-1",,,,,,,,,,,0,,,,,,,1,39965406,pdf,5f8ade592157dced4267980a16414cd1,,,D:\\HDD4\\_missing\\5f8ade592157dced4267980a16414cd1(1).pdf,0,2000-01-01 01:00:00,2016-04-03 02:51:08,1152000/5f8ade592157dced4267980a16414cd1-d.jpg,,
15922045,"Small Plot, Big Harvest",,,,DK,2012,,DK ADULT,,256,0,English,,,,"0756690552,978-0-7566-9055-7",,,,,,,,,,,0,,,,,,,1,51592092,pdf,5fa7a02b8cd54e6dfd755a69566630e9,,,D:\\HDD4\\_missing\\5fa7a02b8cd54e6dfd755a69566630e9.pdf,0,2000-01-01 01:00:00,2016-04-03 02:51:08,1152000/5fa7a02b8cd54e6dfd755a69566630e9-d.jpg,,
15922043,Diagnostic Issues in Substance Use Disorders: Refining the Research Agenda for DSM-V,,,,"John B. Saunders, Marc A. Schuckit, Paul J. Sirovatka, and Darrel A. Regier, John B. Saunders, Marc A. Schuckit, Paul J. Sirovatka, Darrel A. Regier",2007,1,American Psychiatric Publishing,,352,0,English,,,,"0890422990,978-0-89042-299-1",,,,,,,,,,,0,,,,,,,1,3267278,pdf,5f79c51e0b3d1bc1f68dea86ba789c8e,,,D:\\HDD4\\_missing\\5f79c51e0b3d1bc1f68dea86ba789c8e.pdf,0,2000-01-01 01:00:00,2016-04-03 02:51:08,1152000/5f79c51e0b3d1bc1f68dea86ba789c8e-d.jpg,,
15922041,Fluid Flow for the Practicing Chemical Engineer,,Essential Engineering Calculations Series,,"James P. Abulencia, Louis Theodore",2009,1,Wiley-AIChE,,600,0,English,,,,"0470317639,978-0-470-31763-1",,,,,,,,,,,0,,,,,,,1,19312078,pdf,5f4baed5099d15d22149479bbd88d123,,,D:\\HDD4\\_missing\\5f4baed5099d15d22149479bbd88d123.pdf,0,2000-01-01 01:00:00,2016-04-03 02:51:08,1152000/5f4baed5099d15d22149479bbd88d123-d.jpg,,
15922042,Time and Petri Nets,,,,Louchka Popova-Zeugmann,2013,,Springer,,205,0,English,,,,"3642411142,978-3-642-41114-4,978-3-642-41115-1",,,,,,,10.1007/978-3-642-41115-1,,,,0,,,,,,,1,4054339,pdf,5f4e759bc62ec65f670cc2f29dfb96d3,,,D:\\HDD4\\_missing\\5f4e759bc62ec65f670cc2f29dfb96d3.pdf,0,2000-01-01 01:00:00,2016-04-03 02:51:08,1152000/5f4e759bc62ec65f670cc2f29dfb96d3-d.jpg,,
15922039,The Motivated Student: Unlocking the Enthusiasm for Learning,,,,Bob Sullo,2009,,Association for Supervision & Curriculum Development,,177,0,English,,,,"1416608109,978-1-4166-0810-3",,,,,,,,,,,0,,,,,,,1,6244106,pdf,5f167da559ef412c1bdc90b7bd433ca3,,,D:\\HDD4\\_missing\\5f167da559ef412c1bdc90b7bd433ca3.pdf,0,2000-01-01 01:00:00,2016-04-03 02:51:08,1152000/5f167da559ef412c1bdc90b7bd433ca3-d.jpg,,
15922040,An Anthropology of Ethics,,New Departures in Anthropology,,James D. Faubion,2011,1,Cambridge University Press,,316,0,English,,,,"1107004942,978-1-107-00494-8,978-0-521-18195-2",,,,,,,,,,,0,,,,,,,1,1167539,pdf,5f4698c8f8d2bb9902ffd5693c885ff6,,,D:\\HDD4\\_missing\\5f4698c8f8d2bb9902ffd5693c885ff6.pdf,0,2000-01-01 01:00:00,2016-04-03 02:51:08,1152000/5f4698c8f8d2bb9902ffd5693c885ff6-d.jpg,,
15922037,Revealing the Hidden Social Code: Social Stories for People with Autistic Spectrum Disorders,,,,"Marie Howley, Eileen Arnold, Carol Gray",2005,,Jessica Kingsley Pub,,160,0,English,,,,"1-84310-222-6,978-1-84310-222-9",,,,,,,,,,,0,,,,,,,1,3392810,pdf,5ecb8163a4a152c85094493074b1e6ca,,,D:\\HDD4\\_missing\\5ecb8163a4a152c85094493074b1e6ca.pdf,0,2000-01-01 01:00:00,2016-04-03 02:51:08,1152000/5ecb8163a4a152c85094493074b1e6ca-d.jpg,,
15922038,802.1aq Shortest Path Bridging Design and Evolution: The Architect's Perspective,,,,"David Allan, Nigel Bragg",2012,1,Wiley-IEEE Press,,224,0,English,,,,"1118148665,978-1-118-14866-2",,,,,,,,,,,0,,,,,,,1,3412736,pdf,5f151ba2ba88d07eebcdf22c4e3eeee9,,,D:\\HDD4\\_missing\\5f151ba2ba88d07eebcdf22c4e3eeee9.pdf,0,2000-01-01 01:00:00,2016-04-03 02:51:08,1152000/5f151ba2ba88d07eebcdf22c4e3eeee9-d.jpg,,
15922035,Partial Differential Equations: A unified Hilbert Space Approach,,De Gruyter Expositions in Mathematics,,Rainer Picard,2011,1,De Gruyter,,469,0,English,,,,"3110250268,978-3-11-025026-8,978-3-11-025027-5",,,,,,,,,,,0,,,,,,,1,3181402,pdf,5eaa617ddb934d250ed054dce5259f19,,,D:\\HDD4\\_missing\\5eaa617ddb934d250ed054dce5259f19.pdf,0,2000-01-01 01:00:00,2016-04-03 02:51:08,1152000/5eaa617ddb934d250ed054dce5259f19-d.jpg,,
15922036,"Six Not-So-Easy Pieces: Einstein's Relativity, Symmetry, and Space-Time",,,,"Richard P. Feynman, Robert B. Leighton, Matthew Sands",2011,Fourth Edition,Basic Books,,184,0,English,,,,"0465025269,978-0-465-02526-8,978-0-465-02528-2",,,,,,,,,,,0,,,,,,,1,3147370,pdf,5eb7b48a5b434909686969e9e11c8716,,,D:\\HDD4\\_missing\\5eb7b48a5b434909686969e9e11c8716.pdf,0,2000-01-01 01:00:00,2016-04-03 02:51:08,1152000/5eb7b48a5b434909686969e9e11c8716-d.jpg,,
15922033,"Nursing Diagnosis Manual: Planning, Individualizing, and Documenting Client Care",,,,"Marilynn Doenges, Mary Moorhouse, Alice Murr",2010,3,F.A. Davis Company,,1024,0,English,,,,"0-8036-2221-X,978-0-8036-2221-0",,,,,,,,,,,0,,,,,,,1,120758659,pdf,5ea46ff22f607b7907fbfb2939c1d025,,,D:\\HDD4\\_missing\\5ea46ff22f607b7907fbfb2939c1d025.pdf,0,2000-01-01 01:00:00,2016-04-03 02:51:08,1152000/5ea46ff22f607b7907fbfb2939c1d025-d.jpg,,
15922034,The Attack of the Unexpected,,,,Magnus Lindkvist,2010,,Marshall Cavendish Corp/Ccb,,176,0,English,,,,"9814302597,978-981-430-259-3",,,,,,,,,,,0,,,,,,,1,3343634,pdf,5ea8e5b1e5988d08cd6c68456da284e6,,,D:\\HDD4\\_missing\\5ea8e5b1e5988d08cd6c68456da284e6.pdf,0,2000-01-01 01:00:00,2016-04-03 02:51:08,1152000/5ea8e5b1e5988d08cd6c68456da284e6-d.jpg,,
15922031,Davis's Q&A for the NCLEX-RN¬Æ Examination,,,,Kathleen A. Ohman EdD  MS  CCRN  RN,2010,1,F.A. Davis Company,,896,0,English,,,,"0-8036-2187-6,9780803621879",,,,,,,,,,,0,,,,,,,1,15141038,pdf,5e4f1fc7cfd5b06d3fc4e0b0fb6b7191,,,D:\\HDD4\\_missing\\5e4f1fc7cfd5b06d3fc4e0b0fb6b7191.pdf,0,2000-01-01 01:00:00,2016-04-03 02:51:08,1152000/5e4f1fc7cfd5b06d3fc4e0b0fb6b7191-d.jpg,,
15922032,Computational Analysis of the Human Eye with Applications,,,,"Sumeet Dua, Sumeet Dua, Rajendra Acharya U., E. Y. K. Ng",2011,1,World Scientific Publishing Company,,468,0,English,,,,"981-4340-29-4,978-981-4340-29-8",,,,,,,,,,,0,,,,,,,1,20884408,pdf,5e7f414d0ecb3bdadd6f44cc29d7a629,,,D:\\HDD4\\_missing\\5e7f414d0ecb3bdadd6f44cc29d7a629.pdf,0,2000-01-01 01:00:00,2016-04-03 02:51:08,1152000/5e7f414d0ecb3bdadd6f44cc29d7a629-d.jpg,,
15922029,"Blogs and Tweets, Texting and Friending: Social Media and Online Professionalism in Health Care",,,,Sandra M. DeJong MD,2013,1,Academic Press,,192,0,English,,,,"0124081282,978-0-12-408128-4",,,,,,,10.1016/B978-0-12-408128-4.00001-1,,,,0,,,,,,,1,3520691,pdf,5e2464c5f134851394a5faedd7a192c3,,,D:\\HDD4\\_missing\\5e2464c5f134851394a5faedd7a192c3.pdf,0,2000-01-01 01:00:00,2016-04-03 02:51:08,1152000/5e2464c5f134851394a5faedd7a192c3-d.jpg,,
15922030,Software Product Quality Control,,,,Stefan Wagner,2013,,Springer,,220,0,English,,,,"3642385702,978-3-642-38570-4,978-3-642-38571-1",,,,,,,10.1007/978-3-642-38571-1,,,,0,,,,,,,1,3748433,pdf,5e3ae815e61861474305f87e252add1e,,,D:\\HDD4\\_missing\\5e3ae815e61861474305f87e252add1e.pdf,0,2000-01-01 01:00:00,2016-04-03 02:51:08,1152000/5e3ae815e61861474305f87e252add1e-d.jpg,,
15922027,Power Systems,,"The Electric Power Engineering Hbk, Second Edition",,Leonard L. Grigsby,2007,2nd,CRC Press,,464,0,English,,,,"0-8493-9288-8,978-0-8493-9288-7",,,,,,,,,,,0,,,,,,,1,7732432,pdf,5e1c2d523f82c66441321a94524510b5,,,D:\\HDD4\\_missing\\5e1c2d523f82c66441321a94524510b5.pdf,0,2000-01-01 01:00:00,2016-04-03 02:51:08,1152000/5e1c2d523f82c66441321a94524510b5-d.jpg,,
15922028,Linear Mixed-Effects Models Using R: A Step-by-Step Approach,,Springer Texts in Statistics,,"Andrzej Galecki, Tomasz Burzykowski",2013,,Springer,,625,0,English,,,,"1461438993,978-1-4614-3899-1,978-1-4614-3900-4",,,,,,,10.1007/978-1-4614-3900-4,,,,0,,,,,,,1,13480127,pdf,5e1d12bc32b3cfcee31aef9569124752,,,D:\\HDD4\\_missing\\5e1d12bc32b3cfcee31aef9569124752.pdf,0,2000-01-01 01:00:00,2016-04-03 02:51:08,1152000/5e1d12bc32b3cfcee31aef9569124752-d.jpg,,
15922025,Practical Residual Stress Measurement Methods,,,,Gary S. Schajer,2013,1,Wiley,,328,0,English,,,,"1118342372,978-1-118-34237-4",,,,,,,,,,,0,,,,,,,1,5891209,pdf,5db1d590fc4df0711f0678ecc805156b,,,D:\\HDD4\\_missing\\5db1d590fc4df0711f0678ecc805156b.pdf,0,2000-01-01 01:00:00,2016-04-03 02:51:08,1152000/5db1d590fc4df0711f0678ecc805156b-d.jpg,,
15922026,Applied XML Programming for Microsoft¬Æ .NET,,,,Dino Esposito,2002,0,Microsoft Press,,720,0,English,,,,"0-7356-1801-1,9780735618015",,,,,,,,,,,0,,,,,,,1,15975564,pdf,5deab1f5a844b9b2b93e372ade4f4f7e,,,D:\\HDD4\\_missing\\5deab1f5a844b9b2b93e372ade4f4f7e.pdf,0,2000-01-01 01:00:00,2016-04-03 02:51:08,1152000/5deab1f5a844b9b2b93e372ade4f4f7e-d.jpg,,
15922023,Dataset Shift in Machine Learning,,Neural Information Processing series,,"Joaquin Qui√±onero-Candela, Masashi Sugiyama, Anton Schwaighofer, Neil D. Lawrence",2008,0,The MIT Press,,248,0,English,,,,"0262170051,978-0-262-17005-5",,,,,,,,,,,0,,,,,,,1,4725091,pdf,5d8fcfadfac6da44e8a05d58465bbcad,,,D:\\HDD4\\_missing\\5d8fcfadfac6da44e8a05d58465bbcad.pdf,0,2000-01-01 01:00:00,2016-04-03 02:51:08,1152000/5d8fcfadfac6da44e8a05d58465bbcad-d.jpg,,
15922024,Full House: The Spread of Excellence from Plato to Darwin,,,,Stephen Jay Gould,2011,Reprint,Belknap Press,,256,0,English,,,,"0674061616,978-0-674-06161-3",,,,,,,,,,,0,,,,,,,1,19962444,pdf,5da75f91f7fb4fb6d29382bcfaefbd60,,,D:\\HDD4\\_missing\\5da75f91f7fb4fb6d29382bcfaefbd60.pdf,0,2000-01-01 01:00:00,2016-04-03 02:51:08,1152000/5da75f91f7fb4fb6d29382bcfaefbd60-d.jpg,,
15922022,And Quiet Flows the Vodka: or When Pushkin Comes to Shove: The Curmudgeon's Guide to Russian Literature with the Devil's Dictionary of Received Ideas,,,,"Alicia Chudo, Gary Saul Morson, Andrew Sobesednikov",2000,1,Northwestern University Press,,248,0,English,,,,"0-8101-1788-6,9780810117884",,,,,,,,,,,0,,,,,,,1,3408421,pdf,5d85ef35317c3e7eaa8a5f51d2daab2c,,,D:\\HDD4\\_missing\\5d85ef35317c3e7eaa8a5f51d2daab2c.pdf,0,2000-01-01 01:00:00,2016-04-03 02:51:08,1152000/5d85ef35317c3e7eaa8a5f51d2daab2c-d.jpg,,
15922020,"Women, Gender, and Terrorism",,Studies in Security and International Affairs,,"Laura Sjoberg, Caron E. Gentry",2011,,University of Georgia Press,,224,0,English,,,,"0820335835,978-0-8203-3583-4,978-0-8203-4038-8",,,,,,,,,,,0,,,,,,,1,3542871,pdf,5d67f51d7b2bda9711fa328767fbed1c,,,D:\\HDD4\\_missing\\5d67f51d7b2bda9711fa328767fbed1c(1).pdf,0,2000-01-01 01:00:00,2016-04-03 02:51:08,1152000/5d67f51d7b2bda9711fa328767fbed1c-d.jpg,,
15922021,S-BPM Illustrated: A Storybook about Business Process Modeling and Execution,,,,"Albert Fleischmann, Stefan Ra√ü, Robert Singer",2013,,Springer,,200,0,English,,,,"3642369030,978-3-642-36903-2,978-3-642-36904-9",,,,,,,10.1007/978-3-642-36904-9,,,,0,,,,,,,1,9910403,pdf,5d6ddfd17c17a6ccfbe42d56ac43749e,,,D:\\HDD4\\_missing\\5d6ddfd17c17a6ccfbe42d56ac43749e.pdf,0,2000-01-01 01:00:00,2016-04-03 02:51:08,1152000/5d6ddfd17c17a6ccfbe42d56ac43749e-d.jpg,,
15922018,The Last Sorcerers: The Path from Alchemy to the Periodic Table,,,,Richard Morris,2003,1,Joseph Henry Press,,296,0,English,,,,"0-309-08905-0,9780309089050,0-309-50593-3",,,,,,,,,,,0,,,,,,,1,14124002,pdf,5d4ab4422f8ec2e7cdc7e47b432f7fcf,,,D:\\HDD4\\_missing\\5d4ab4422f8ec2e7cdc7e47b432f7fcf.pdf,0,2000-01-01 01:00:00,2016-04-03 02:51:08,1152000/5d4ab4422f8ec2e7cdc7e47b432f7fcf-d.jpg,,
15922019,The Politics of the European Union,,Cambridge Textbooks in Comparative Politics,,"Herman Lelieveldt, Sebastiaan Princen",2011,,Cambridge University Press,,330,0,English,,,,"0521518628,978-0-521-51862-8,978-0-521-74011-1",,,,,,,,,,,0,,,,,,,1,4064639,pdf,5d65847f82919620dcdddb908b99dbcd,,,D:\\HDD4\\_missing\\5d65847f82919620dcdddb908b99dbcd(1).pdf,0,2000-01-01 01:00:00,2016-04-03 02:51:08,1152000/5d65847f82919620dcdddb908b99dbcd-d.jpg,,
15922017,Communicative proficiency and linguistic development,,,,"Inge Bartning, Maisa Martin, Ineke Vedder",2011,,lulu.com,,252,0,English,,,,"1446669939,978-1-4466-6993-8",,,,,,,,,,,0,,,,,,,1,3454890,pdf,5d27c8be5fbf83d4aefa8c5f7e634f98,,,D:\\HDD4\\_missing\\5d27c8be5fbf83d4aefa8c5f7e634f98.pdf,0,2000-01-01 01:00:00,2016-04-03 02:51:08,1152000/5d27c8be5fbf83d4aefa8c5f7e634f98-d.jpg,,
15922015,Timetables of World Literature,,Facts on File Library of World Literature,,George Thomas Kurian,2003,,Facts on File,,576,0,English,,,,"0-8160-4197-0,9780816041978",,,,,,,,,,,0,,,,,,,1,23467534,pdf,5d1d6534d4991d3aa91b7188eeb67168,,,D:\\HDD4\\_missing\\5d1d6534d4991d3aa91b7188eeb67168.pdf,0,2000-01-01 01:00:00,2016-04-03 02:51:08,1152000/5d1d6534d4991d3aa91b7188eeb67168-d.jpg,,
15922016,How the Best Leaders Lead: Proven Secrets to Getting the Most Out of Yourself and Others,,,,Brian Tracy,2010,,AMACOM,,256,0,English,,,,"0-8144-1434-6,978-0-8144-1434-7",,,,,,,,,,,0,,,,,,,1,4448804,pdf,5d1f8101d17337869f5aa0d6a44ba712,,,D:\\HDD4\\_missing\\5d1f8101d17337869f5aa0d6a44ba712.pdf,0,2000-01-01 01:00:00,2016-04-03 02:51:08,1152000/5d1f8101d17337869f5aa0d6a44ba712-d.jpg,,
15922013,Pocket Adventures Costa Rica,,,,"Bruce Conord, June Conord",2008,2,Hunter Pub Inc,,418,0,English,,,,"1588436705,978-1-58843-670-2",,,,,,,,,,,0,,,,,,,1,10365848,pdf,5d12e3ffc66aa418caec914eb69438c4,,,D:\\HDD4\\_missing\\5d12e3ffc66aa418caec914eb69438c4.pdf,0,2000-01-01 01:00:00,2016-04-03 02:51:08,1152000/5d12e3ffc66aa418caec914eb69438c4-d.jpg,,
15922014,Mission-Based Marketing: Positioning Your Not-for-Profit in an Increasingly Competitive World,,,,Peter C. Brinckerhoff,2010,3,Wiley,,242,0,English,,,,"047060218X,978-0-470-60218-8,978-0-470-88984-8,978-0-470-88985-5,978-0-470-88986-2",,,,,,,,,,,0,,,,,,,1,3455373,pdf,5d184a68395034fd8f8fe965a13ef092,,,D:\\HDD4\\_missing\\5d184a68395034fd8f8fe965a13ef092.pdf,0,2000-01-01 01:00:00,2016-04-03 02:51:08,1152000/5d184a68395034fd8f8fe965a13ef092-d.jpg,,
15922011,"I'll Take Learning for 500: Using Game Shows to Engage, Motivate, and Train",,,,"Dan Yaman, Missy Covington, Sivasailam Thiagarajan",2006,,Pfeiffer,,272,0,English,,,,"0-7879-8306-3,978-0-7879-8306-2",,,,,,,,,,,0,,,,,,,1,5344108,pdf,5cec9548701e6054775bb3f4ee785d03,,,D:\\HDD4\\_missing\\5cec9548701e6054775bb3f4ee785d03.pdf,0,2000-01-01 01:00:00,2016-04-03 02:51:08,1152000/5cec9548701e6054775bb3f4ee785d03-d.jpg,,
15922012,Teaching English Language Learners through Technology,,Teaching English Language Learners Across the Curriculum,,"Tony Erben, Ruth Ban, Martha Casta√±eda",2008,1,Routledge,,240,0,English,,,,"0415957672,978-0-415-95767-0,978-0-415-95768-7,978-0-203-89442-2,0-203-89442-1",,,,,,,,,,,0,,,,,,,1,5738449,pdf,5d0004b7cb804366b9b2bcd10e0052eb,,,D:\\HDD4\\_missing\\5d0004b7cb804366b9b2bcd10e0052eb.pdf,0,2000-01-01 01:00:00,2016-04-03 02:51:08,1152000/5d0004b7cb804366b9b2bcd10e0052eb-d.jpg,,
15922009,Information Security Risk Assessment Toolkit: Practical Assessments through Data Collection and Data Analysis,,,,"Mark Talabis, Jason Martin",2012,1,Syngress,,278,0,English,,,,"1597497355,978-1-59749-735-0",,,,,,,,,,,0,,,,,,,1,7743825,pdf,5caf1d47c2e2e2d227523e1a3794c35b,,,D:\\HDD4\\_missing\\5caf1d47c2e2e2d227523e1a3794c35b.pdf,0,2000-01-01 01:00:00,2016-04-03 02:51:08,1152000/5caf1d47c2e2e2d227523e1a3794c35b-d.jpg,,
15922010,Historical Dictionary of Surrealism,,Historical Dictionaries of Literature and the Arts,,Keith Aspley,2010,,Scarecrow Press,,574,0,English,,,,"0810858479,978-0-8108-5847-3",,,,,,,,,,,0,,,,,,,1,5586118,pdf,5ce873a74f99cc90f19a2a060e0e5ef9,,,D:\\HDD4\\_missing\\5ce873a74f99cc90f19a2a060e0e5ef9.pdf,0,2000-01-01 01:00:00,2016-04-03 02:51:08,1152000/5ce873a74f99cc90f19a2a060e0e5ef9-d.jpg,,
15922007,Branded Male: Marketing to Men,,,,Mark Tungate,2008,,Kogan Page,,256,0,English,,,,"0749450118,978-0-7494-5011-3",,,,,,,,,,,0,,,,,,,1,3946178,pdf,5c92ce7bb745bef5e0bba4faeaa7b4f1,,,D:\\HDD4\\_missing\\5c92ce7bb745bef5e0bba4faeaa7b4f1.pdf,0,2000-01-01 01:00:00,2016-04-03 02:51:08,1152000/5c92ce7bb745bef5e0bba4faeaa7b4f1-d.jpg,,
15922008,Practice Made,,More) Perfect: Transforming a Financial Advisory Practice Into a Business (Bloomberg Financial,,"Mark C. Tibergien, Rebecca Pomering",2011,1,Bloomberg Press,,336,0,English,,,,"1118019318,978-1-118-01931-3,978-1-118-09547-8,978-1-118-09548-5,978-1-118-09549-2",,,,,,,,,,,0,,,,,,,1,3239127,pdf,5ca0e9c7e71dec58ebb458e778af8f5a,,,D:\\HDD4\\_missing\\5ca0e9c7e71dec58ebb458e778af8f5a.pdf,0,2000-01-01 01:00:00,2016-04-03 02:51:08,1152000/5ca0e9c7e71dec58ebb458e778af8f5a-d.jpg,,
15922006,An Introduction to International Economics: New Perspectives on the World Economy,,,,Kenneth A. Reinert,2011,2,Cambridge University Press,,492,0,English,,,,"1107003571,978-1-107-00357-6,978-0-521-17710-8",,,,,,,,,,,0,,,,,,,1,5690559,pdf,5c8be9499a5441710749714bb5676716,,,D:\\HDD4\\_missing\\5c8be9499a5441710749714bb5676716.pdf,0,2000-01-01 01:00:00,2016-04-03 02:51:08,1152000/5c8be9499a5441710749714bb5676716-d.jpg,,
15922004,Story Vines and Readers Theatre: Getting Started,,,,Marlene McKay,2008,,Portage & Main Press,,80,0,English,,,,"155379155X,978-1-55379-155-3,978-1-55379-318-2",,,,,,,,,,,0,,,,,,,1,22454745,pdf,5c80ea096c37d03b4b731efdebb91bff,,,D:\\HDD4\\_missing\\5c80ea096c37d03b4b731efdebb91bff.pdf,0,2000-01-01 01:00:00,2016-04-03 02:51:08,1152000/5c80ea096c37d03b4b731efdebb91bff-d.jpg,,
15922005,The Problem with Grace: Reconfiguring Political Theology,,,,Vincent Lloyd,2011,,Stanford University Press,,256,0,English,,,,"0804768838,978-0-8047-6883-2,978-0-8047-6884-9",,,,,,,,,,,0,,,,,,,1,3264236,pdf,5c82e0088cd96b3f0e147f670889394f,,,D:\\HDD4\\_missing\\5c82e0088cd96b3f0e147f670889394f(1).pdf,0,2000-01-01 01:00:00,2016-04-03 02:51:08,1152000/5c82e0088cd96b3f0e147f670889394f-d.jpg,,
15922002,"A Practical Guide to Content Delivery Networks, Second Edition",,,,Gilbert Held,2010,2,CRC Press,,304,0,English,,,,"1439835888,978-1-4398-3588-3",,,,,,,,,,,0,,,,,,,1,6561509,pdf,5c67da544e0017e361a1607080cf3765,,,D:\\HDD4\\_missing\\5c67da544e0017e361a1607080cf3765.pdf,0,2000-01-01 01:00:00,2016-04-03 02:51:08,1152000/5c67da544e0017e361a1607080cf3765-d.jpg,,
15922003,Choices for the High School Graduate: A Survival Guide for the Information Age,,,,Bryna J. Fireside,2009,5,Ferguson Pub,,261,0,English,,,,"0-8160-7617-0,978-0-8160-7617-8",,,,,,,,,,,0,,,,,,,1,4456354,pdf,5c6e696428d8d8b6523dc5ceaea2a6e9,,,D:\\HDD4\\_missing\\5c6e696428d8d8b6523dc5ceaea2a6e9.pdf,0,2000-01-01 01:00:00,2016-04-03 02:51:08,1152000/5c6e696428d8d8b6523dc5ceaea2a6e9-d.jpg,,
15922000,"Introduction to General, Organic and Biochemistry",,Available Titles Owl,,"Frederick A. Bettelheim, William H. Brown, Mary K. Campbell, Shawn O. Farrell",2009,9,Cengage Learning,,960,0,English,,,,"0-495-39112-3,978-0-495-39112-8",,,,,,,,,,,0,,,,,,,1,35152752,pdf,5c39daf43ea48b687883a7a1cdf7e0ae,,,D:\\HDD4\\_missing\\5c39daf43ea48b687883a7a1cdf7e0ae.pdf,0,2000-01-01 01:00:00,2016-04-03 02:51:08,1152000/5c39daf43ea48b687883a7a1cdf7e0ae-d.jpg,,
15922001,"Algae: Anatomy, Biochemistry, and Biotechnology",,,,"Laura Barsanti, Paolo Gualtieri",2005,1,CRC Press,,320,0,English,,,,"0-8493-1467-4,978-0-8493-1467-4",,,,,,,,,,,0,,,,,,,1,8523403,pdf,5c559acde1918047cd5fe2f5343c0a82,,,D:\\HDD4\\_missing\\5c559acde1918047cd5fe2f5343c0a82(1).pdf,0,2000-01-01 01:00:00,2016-04-03 02:51:08,1152000/5c559acde1918047cd5fe2f5343c0a82-d.jpg,,
15921998,Illusions of Reality: A History of Deception in Social Psychology,,,,James H. Korn,1997,,State University of New York Press,,230,0,English,,,,"0-7914-3308-0,9780791433089",,,,,,,,,,,0,,,,,,,1,3367616,pdf,5bf4447a3a566878a42fa86c05fb128e,,,D:\\HDD4\\_missing\\5bf4447a3a566878a42fa86c05fb128e.pdf,0,2000-01-01 01:00:00,2016-04-03 02:51:08,1152000/5bf4447a3a566878a42fa86c05fb128e-d.jpg,,
15921999,Non-Associative Algebra and Its Applications,,Lecture Notes in Pure and Applied Mathematics,,"Lev Sabinin, Larissa Sbitneva, Ivan Shestakov",2006,,Chapman and Hall/CRC,,552,0,English,,,,"0-8247-2669-3,9780824726690",,,,,,,,,,,0,,,,,,,1,11055850,pdf,5c2da040941450452b9cb87440e8d26e,,,D:\\HDD4\\_missing\\5c2da040941450452b9cb87440e8d26e.pdf,0,2000-01-01 01:00:00,2016-04-03 02:51:08,1152000/5c2da040941450452b9cb87440e8d26e-d.jpg,,
15921996,Fibonacci and Catalan Numbers: An Introduction,,,,Ralph Grimaldi,2012,1,Wiley,,380,0,English,,,,"0470631570,978-0-470-63157-7",,,,,,,,,,,0,,,,,,,1,4912861,pdf,5be7ec9c3ad398d1772d806b1e8825cc,,,D:\\HDD4\\_missing\\5be7ec9c3ad398d1772d806b1e8825cc.pdf,0,2000-01-01 01:00:00,2016-04-03 02:51:08,1152000/5be7ec9c3ad398d1772d806b1e8825cc-d.jpg,,
15921997,"Missile Guidance and Pursuit: Kinematics, Dynamics and Control",,,,N.A. Shneydor,1998,Reprint,Woodhead Publishing,,266,0,English,,,,"1904275370,978-1-904275-37-4",,,,,,,,,,,0,,,,,,,1,16859229,pdf,5bea81950eddb77e41e77199ba1852f2,,,D:\\HDD4\\_missing\\5bea81950eddb77e41e77199ba1852f2.pdf,0,2000-01-01 01:00:00,2016-04-03 02:51:08,1152000/5bea81950eddb77e41e77199ba1852f2-d.jpg,,
15921994,The Labour of Leisure: The Culture of Free Time,,,,Chris Rojek,2009,,SAGE Publications Ltd,,216,0,English,,,,"1412945526,978-1-4129-4552-3,978-1-4129-4553-0",,,,,,,,,,,0,,,,,,,1,47238669,pdf,5ba07520fc62664d316deda7a66998da,,,D:\\HDD4\\_missing\\5ba07520fc62664d316deda7a66998da.pdf,0,2000-01-01 01:00:00,2016-04-03 02:51:08,1152000/5ba07520fc62664d316deda7a66998da-d.jpg,,
15921995,Between Death & Life: Conversations with a Spirit,,,,Dolores Cannon,1993,1st,"Ozark Mountain Publishing, Inc",,242,0,English,,,,"0-9632776-5-0,9780963277657",,,,,,,,,,,0,,,,,,,1,3644083,pdf,5bbfa7e978a8a0b01bb3f741eb0f28e4,,,D:\\HDD4\\_missing\\5bbfa7e978a8a0b01bb3f741eb0f28e4.pdf,0,2000-01-01 01:00:00,2016-04-03 02:51:08,1152000/5bbfa7e978a8a0b01bb3f741eb0f28e4-d.jpg,,
15921992,The Ironic Spectator: Solidarity in the Age of Post-Humanitarianism,,,,Lilie Chouliaraki,2013,1,Polity,,248,0,English,,,,"0745642101,978-0-7456-4210-9",,,,,,,,,,,0,,,,,,,1,30341724,pdf,5b9ce0ed287480c57dae05fa246c8048,,,D:\\HDD4\\_missing\\5b9ce0ed287480c57dae05fa246c8048.pdf,0,2000-01-01 01:00:00,2016-04-03 02:51:08,1152000/5b9ce0ed287480c57dae05fa246c8048-d.jpg,,
15921993,Green Electricity: 25 Green Technologies That Will Electrify Your Future,,,,Kendall Haven,2011,,Libraries Unlimited,,175,0,English,,,,"1598845799,978-1-59884-579-2,978-1-59884-580-8",,,,,,,,,,,0,,,,,,,1,4520744,pdf,5ba05fe59e86daf7fefe625a6e20b3aa,,,D:\\HDD4\\_missing\\5ba05fe59e86daf7fefe625a6e20b3aa.pdf,0,2000-01-01 01:00:00,2016-04-03 02:51:08,1152000/5ba05fe59e86daf7fefe625a6e20b3aa-d.jpg,,
15921991,"Critical Issues in Peace and Conflict Studies: Theory, Practice, and Pedagogy",,,,"Thomas Maty√≥k , Jessica Senehi, Sean Byrne, Ousmane Bakary B√¢, Thomas Boudreau, Jason J. Campbell, Paul Cormier, Nathan C. Funk, Johan Galtung, Nancy Hansen, Sherrill Hayes, Myrtle Hill, Peter Karari, Neil H. Katz, Peter Kellett, Alka Kumar, Brenda LeFran√ßois, Andrea Levy, Marie Olson Lounsbery, Siobhan McEvoy-Levy, Amos Nadan, Robin Neustaeter, Frederic Pearson, Jean Poitras, Jodi Read, Brian Rice, Anna Snyder, Arnaud Stimec, Chuck Thiessen, Hamdesa Tuso, Jean-Guy Vaillancourt, Christina J. Woolner",2011,,Lexington Books,,446,0,English,,,,"0739149601,978-0-7391-4960-7,978-0-7391-4962-1",,,,,,,,,,,0,,,,,,,1,3210038,pdf,5b8d1bf869f276f0c097bd51eeaea94a,,,D:\\HDD4\\_missing\\5b8d1bf869f276f0c097bd51eeaea94a.pdf,0,2000-01-01 01:00:00,2016-04-03 02:51:08,1152000/5b8d1bf869f276f0c097bd51eeaea94a-d.jpg,,
15921988,ABC of Aids,,ABC Series,,Michael W. Adler,2001,5,BMJ Books,,128,0,English,,,,"0-7279-1503-7,9780727915030",,,,,,,,,,,0,,,,,,,1,14059428,pdf,5b836c85b627f2330409325d87d41f17,,,D:\\HDD4\\_missing\\5b836c85b627f2330409325d87d41f17.pdf,0,2000-01-01 01:00:00,2016-04-03 02:51:08,1152000/5b836c85b627f2330409325d87d41f17-d.jpg,,
15921989,Quantum Non-Locality and Relativity: Metaphysical Intimations of Modern Physics,,,,Tim Maudlin,2011,3,Wiley-Blackwell,,312,0,English,,,,"1444331264,978-1-4443-3126-4,978-1-4443-3127-1",,,,,,,,,,,0,,,,,,,1,4384170,pdf,5b8848c6b45e765dcf07703f69ce5d5d,,,D:\\HDD4\\_missing\\5b8848c6b45e765dcf07703f69ce5d5d.pdf,0,2000-01-01 01:00:00,2016-04-03 02:51:08,1152000/5b8848c6b45e765dcf07703f69ce5d5d-d.jpg,,
15921990,The American Revolution,,Eyewitness History Series,,David F. Burg,2007,2 Revised,Facts on File,,480,0,English,,,,"0-8160-6482-2,978-0-8160-6482-3",,,,,,,,,,,0,,,,,,,1,15884462,pdf,5b8b1bf4087d8e77583f10b6f45681b2,,,D:\\HDD4\\_missing\\5b8b1bf4087d8e77583f10b6f45681b2.pdf,0,2000-01-01 01:00:00,2016-04-03 02:51:08,1152000/5b8b1bf4087d8e77583f10b6f45681b2-d.jpg,,
15921986,Creating Characters: How to Build Story People,,,,Dwight V. Swain,1991,1st,Writer's Digest Books,,208,0,English,,,,"0-89879-417-X,9780898794175",,,,,,,,,,,0,,,,,,,1,2948495,pdf,5b602615d255a8eec794115239d58cd9,,,D:\\HDD4\\_missing\\5b602615d255a8eec794115239d58cd9.pdf,0,2000-01-01 01:00:00,2016-04-03 02:51:08,1152000/5b602615d255a8eec794115239d58cd9-g.jpg,,
15921987,Dynamics of Large Herbivore Populations in Changing Environments,,,,Norman Owen-Smith,2010,1,Wiley-Blackwell,,216,0,English,,,,"140519894X,978-1-4051-9894-3,978-1-4051-9895-0",,,,,,,,,,,0,,,,,,,1,1415497,pdf,5b7a2b6a975a1f4f46181ca5b70a0392,,,D:\\HDD4\\_missing\\5b7a2b6a975a1f4f46181ca5b70a0392.pdf,0,2000-01-01 01:00:00,2016-04-03 02:51:08,1152000/5b7a2b6a975a1f4f46181ca5b70a0392-d.jpg,,
15921984,The New Damascus Document,,Studies of the Texts of Thedesert of Judah,,"Wacholder, B.Z",2006,Bilingual,BRILL,,426,0,English,,,,"90-04-14108-1,9789004141087",,,,,,,,,,,0,,,,,,,1,3295248,pdf,5b481cb3eced9372c5d12c033e3560ef,,,D:\\HDD4\\_missing\\5b481cb3eced9372c5d12c033e3560ef(1).pdf,0,2000-01-01 01:00:00,2016-04-03 02:51:08,1152000/5b481cb3eced9372c5d12c033e3560ef-d.jpg,,
15921985,The Human Microbiota: How Microbial Communities Affect Health and Disease,,,,David N. Fredricks,2013,1,Wiley-Blackwell,,389,0,English,,,,"0470479892,978-0-470-47989-6",,,,,,,,,,,0,,,,,,,1,8696977,pdf,5b56414bd4b7536186388d93afb4d152,,,D:\\HDD4\\_missing\\5b56414bd4b7536186388d93afb4d152.pdf,0,2000-01-01 01:00:00,2016-04-03 02:51:08,1152000/5b56414bd4b7536186388d93afb4d152-d.jpg,,
15921982,"Student's Solutions Manual for Multivariable Calculus, Early and Late Transcendentals",,,,Jon Rogawski,2011,0,W.H. Freeman & Company,,711,0,English,,,,"1-4292-5508-0,978-1-4292-5508-0",,,,,,,,,,,0,,,,,,,1,15380101,pdf,5b3559ff23f54e593266f4e6e5ec658e,,,D:\\HDD4\\_missing\\5b3559ff23f54e593266f4e6e5ec658e.pdf,0,2000-01-01 01:00:00,2016-04-03 02:51:08,1152000/5b3559ff23f54e593266f4e6e5ec658e-d.jpg,,
15921983,"Math Connects, Kindergarten, Activity Flip Chart",,,,Macmillan/McGraw-Hill,2007,1,Macmillan/McGraw-Hill,,57,0,English,,,,"0-02-106313-3,978-0-02-106313-0",,,,,,,,,,,0,,,,,,,1,16817381,pdf,5b3a8450c3c22f32ef6e46ee314a6b39,,,D:\\HDD4\\_missing\\5b3a8450c3c22f32ef6e46ee314a6b39.pdf,0,2000-01-01 01:00:00,2016-04-03 02:51:08,1152000/5b3a8450c3c22f32ef6e46ee314a6b39-d.jpg,,
15921980,Power Transmission And Distribution,,,,Anthony J. Pansini,2004,2nd,Fairmont Pr,,414,0,English,,,,"0-88173-503-5,9780881735031,0-88173-504-3,0-8493-5034-4",,,,,,,,,,,0,,,,,,,1,4513162,pdf,5b2e21e4689f51f294921946bed6fa55,,,D:\\HDD4\\_missing\\5b2e21e4689f51f294921946bed6fa55.pdf,0,2000-01-01 01:00:00,2016-04-03 02:51:08,1152000/5b2e21e4689f51f294921946bed6fa55-d.jpg,,
15921981,Operations Management,,,,Slack Nigel/ Chambers Stuart/ Johnston R,2010,6,Pearson College Div,,712,0,English,,,,"0273730460,978-0-273-73046-0",,,,,,,,,,,0,,,,,,,1,23720099,pdf,5b34e90a4df5a9ceaf69de8dbeb23804,,,D:\\HDD4\\_missing\\5b34e90a4df5a9ceaf69de8dbeb23804.pdf,0,2000-01-01 01:00:00,2016-04-03 02:51:08,1152000/5b34e90a4df5a9ceaf69de8dbeb23804-d.jpg,,
15921979,"Intersectionality, Sexuality and Psychological Therapies: Working with Lesbian, Gay and Bisexual Diversity",,,,"Roshan das Nair, Catherine Butler",2012,1,BPS Blackwell,,296,0,English,,,,"0470975008,978-0-470-97500-8,978-0-470-97499-5",,,,,,,,,,,0,,,,,,,1,3437872,pdf,5b05ed5e147c80834f84f4da679c7280,,,D:\\HDD4\\_missing\\5b05ed5e147c80834f84f4da679c7280(1).pdf,0,2000-01-01 01:00:00,2016-04-03 02:51:08,1152000/5b05ed5e147c80834f84f4da679c7280-d.jpg,,
15921976,The Words of Others: From Quotations to Culture,,,,Gary Saul Morson,2011,,Yale University Press,,352,0,English,,,,"0300167474,978-0-300-16747-4",,,,,,,,,,,0,,,,,,,1,3275257,pdf,5aee7dfbad87683bbe373db8749cb50b,,,D:\\HDD4\\_missing\\5aee7dfbad87683bbe373db8749cb50b.pdf,0,2000-01-01 01:00:00,2016-04-03 02:51:08,1152000/5aee7dfbad87683bbe373db8749cb50b-d.jpg,,
15921977,Shape-Memory Alloys Handbook,,ISTE,,Christian Lexcellent,2013,1,Wiley-ISTE,,400,0,English,,,,"1848214340,978-1-84821-434-7",,,,,,,,,,,0,,,,,,,1,9836216,pdf,5afb237c0a444edcbda358404e1818aa,,,D:\\HDD4\\_missing\\5afb237c0a444edcbda358404e1818aa.pdf,0,2000-01-01 01:00:00,2016-04-03 02:51:08,1152000/5afb237c0a444edcbda358404e1818aa-d.jpg,,
15921978,"Foundations Of Decision-Making Agents: Logic, Probability and Modality",,,,Subrata Das,2008,,World Scientific Publishing Company,,384,0,English,,,,"981-277-983-3,978-981-277-983-0",,,,,,,,,,,0,,,,,,,1,4288695,pdf,5afc38b4e1edd2bba5b35196180d6652,,,D:\\HDD4\\_missing\\5afc38b4e1edd2bba5b35196180d6652.pdf,0,2000-01-01 01:00:00,2016-04-03 02:51:08,1152000/5afc38b4e1edd2bba5b35196180d6652-d.jpg,,
15921974,Numerical Methods for Linear Control Systems,,,,Biswa Datta,2003,,Academic Press,,640,0,English,,,,"0-12-203590-9,9780122035906",,,,,,,,,,,0,,,,,,,1,26244794,pdf,5aafadd3065605ce6b9f3a31c2308680,,,D:\\HDD4\\_missing\\5aafadd3065605ce6b9f3a31c2308680(1).pdf,0,2000-01-01 01:00:00,2016-04-03 02:51:08,1152000/5aafadd3065605ce6b9f3a31c2308680-d.jpg,,
15921975,Practical Virtualization Solutions: Virtualization from the Trenches,,,,"Kenneth Hess, Amy Newman",2009,1,Prentice Hall,,336,0,English,,,,"978-0-13-714297-2,0-137-14297-8",,,,,,,,,,,0,,,,,,,1,13781148,pdf,5ad9cf7263f11c8f8be3eb1355841f40,,,D:\\HDD4\\_missing\\5ad9cf7263f11c8f8be3eb1355841f40.pdf,0,2000-01-01 01:00:00,2016-04-03 02:51:08,1152000/5ad9cf7263f11c8f8be3eb1355841f40-d.jpg,,
15921972,Delta Functions: Introduction to Generalised Functions,,,,R.F. Hoskins,2009,Second Edition,Woodhead Publishing,,280,0,English,,,,"1904275397,978-1-904275-39-8",,,,,,,,,,,0,,,,,,,1,1965164,djvu,5a73c2a8f764d8a549647624e8568519,,,D:\\HDD4\\_missing\\5a73c2a8f764d8a549647624e8568519.djvu,0,2000-01-01 01:00:00,2016-04-03 02:51:08,1152000/5a73c2a8f764d8a549647624e8568519-d.jpg,,
15921973,Engineering Money: Financial Fundamentals for Engineers,,,,"Richard Hill, George Solt",2010,1,Wiley,,196,0,English,,,,"0470546018,978-0-470-54601-7",,,,,,,,,,,0,,,,,,,1,3220442,pdf,5aa17aaa5ae29549833211a39ab99471,,,D:\\HDD4\\_missing\\5aa17aaa5ae29549833211a39ab99471.pdf,0,2000-01-01 01:00:00,2016-04-03 02:51:08,1152000/5aa17aaa5ae29549833211a39ab99471-d.jpg,,
15921970,Projects in Computing and Information Systems: A Student's Guide,,2nd Edition,,Christian Dawson,2009,2,Pearson Education Canada,,304,0,English,,,,"0273721313,978-0-273-72131-4",,,,,,,,,,,0,,,,,,,1,9682148,pdf,5a69b2dff1862c73b1778a6ce581e0ed,,,D:\\HDD4\\_missing\\5a69b2dff1862c73b1778a6ce581e0ed.pdf,0,2000-01-01 01:00:00,2016-04-03 02:51:08,1152000/5a69b2dff1862c73b1778a6ce581e0ed-d.jpg,,
15921971,"Education and Support Programs for Caregivers: Research, Practice, Policy",,Caregiving: Research  Practice  Policy,,"Ronald W. Toseland, David H. Haigler, Deborah J. Monahan",2011,,Springer,,250,0,English,,,,"144198030X,978-1-4419-8030-4,978-1-4419-8031-1",,,,,,,10.1007/978-1-4419-8031-1,,,,0,,,,,,,1,3462398,pdf,5a6a72d470cf5f986049baa1e1c9c5fd,,,D:\\HDD4\\_missing\\5a6a72d470cf5f986049baa1e1c9c5fd.pdf,0,2000-01-01 01:00:00,2016-04-03 02:51:08,1152000/5a6a72d470cf5f986049baa1e1c9c5fd-d.jpg,,
15921968,Confederate Outlaw: Champ Ferguson and the Civil War in Appalachia,,Conflicting Worlds: New Dimensions of the American Civil War,,Brian D. Mcknight,2011,,Louisiana State University Press,,288,0,English,,,,"0807137693,978-0-8071-3769-7",,,,,,,,,,,0,,,,,,,1,4520514,pdf,5a2a19190a606188549e159a1659e41b,,,D:\\HDD4\\_missing\\5a2a19190a606188549e159a1659e41b.pdf,0,2000-01-01 01:00:00,2016-04-03 02:51:08,1152000/5a2a19190a606188549e159a1659e41b-d.jpg,,
15921969,Bushcraft: The Ultimate Guide to Survival in the Wilderness,,,,Richard Graves,2013,1,Skyhorse Publishing,,352,0,English,,,0,"1620873613,9781620873618",,,,,,,,,,,0,,,,,,,,21122173,epub,46c2005645760cb3ccd0a8854f8be9b5,,,Bushcraft - Richard Graves,0,2000-01-01 01:00:00,2016-04-03 02:51:08,http://ecx.images-amazon.com/images/I/512mrI-PU0L.jpg,,
15921966,Start with Why: How Great Leaders Inspire Everyone to Take Action,,,,Simon Sinek,2009,0,Portfolio Hardcover,,256,0,English,,,,"1591842808,978-1-59184-280-4",,,,,,,,,,,0,,,,,,,1,3731960,pdf,5a0651a903603e46ae566edd1f438291,,,D:\\HDD4\\_missing\\5a0651a903603e46ae566edd1f438291.pdf,0,2000-01-01 01:00:00,2016-04-03 02:51:08,1152000/5a0651a903603e46ae566edd1f438291-d.jpg,,
15921967,Electrical Distribution Networks,,ISTE,,"Nouredine Hadjsa√Ød, Jean-Claude Sabonnadi√®re",2011,1,Wiley-ISTE,,512,0,English,,,,"1848212453,978-1-84821-245-9",,,,,,,,,,,0,,,,,,,1,22311050,pdf,5a266984ad7b06f2710b5d36318a880a,,,D:\\HDD4\\_missing\\5a266984ad7b06f2710b5d36318a880a(1).pdf,0,2000-01-01 01:00:00,2016-04-03 02:51:08,1152000/5a266984ad7b06f2710b5d36318a880a-d.jpg,,
15921964,Classical and Quantum Dynamics of Constrained Hamiltonian Systems,,World Scientific Lecture Notes in Physics,,"Heinz J Rothe, Klaus D Rothe",2010,1,World Scientific Publishing Company,,316,0,English,,,,"981-4299-64-2,978-981-4299-64-0",,,,,,,,,,,0,,,,,,,1,4397220,pdf,59fbba4b6bed8806b5afff4cfe49257d,,,D:\\HDD4\\_missing\\59fbba4b6bed8806b5afff4cfe49257d.pdf,0,2000-01-01 01:00:00,2016-04-03 02:51:08,1152000/59fbba4b6bed8806b5afff4cfe49257d-d.jpg,,
15921965,Creative Approaches to Physical Education: Helping Children to Achieve Their True Potential,,,,Jim Lavin,2013,,Routledge,,151,0,English,,,,"0-203-92784-2,9780203927847",,,,,,,,,,,0,,,,,,,1,3482236,pdf,59fd6acfca4c9c83ef9a4241354594fa,,,D:\\HDD4\\_missing\\59fd6acfca4c9c83ef9a4241354594fa.pdf,0,2000-01-01 01:00:00,2016-04-03 02:51:08,1152000/59fd6acfca4c9c83ef9a4241354594fa-d.jpg,,
15921962,"Leading & Managing Continuing Professional Development: Developing People, Developing Schools",,,,"Sara Bubb, Peter Earley",2007,2nd,SAGE Publications Ltd,,208,0,English,,,,"1412948274,978-1-4129-4827-2,978-1-4129-4828-9",,,,,,,,,,,0,,,,,,,1,3157533,pdf,59dcb648b8a9347fdac2f72cd7d83308,,,D:\\HDD4\\_missing\\59dcb648b8a9347fdac2f72cd7d83308.pdf,0,2000-01-01 01:00:00,2016-04-03 02:51:08,1152000/59dcb648b8a9347fdac2f72cd7d83308-d.jpg,,
15921963,IP Telephony: Deploying VoIP Protocols and IMS Infrastructure,,,,Olivier Hersent,2010,2,Wiley,,474,0,English,,,,"047066584X,978-0-470-66584-8",,,,,,,,,,,0,,,,,,,1,5789591,pdf,59e3fd6e875a602d1bfae1a63e5cd1c5,,,D:\\HDD4\\_missing\\59e3fd6e875a602d1bfae1a63e5cd1c5.pdf,0,2000-01-01 01:00:00,2016-04-03 02:51:08,1152000/59e3fd6e875a602d1bfae1a63e5cd1c5-d.jpg,,
15921960,The Art of Toshiko Takaezu: In the Language of Silence,,,,Peter Held,2011,,The University of North Carolina Press,,160,0,English,,,,"0807834823,978-0-8078-3482-4",,,,,,,,,,,0,,,,,,,1,110993756,pdf,59c798772df4718c073984fa2362bf46,,,D:\\HDD4\\_missing\\59c798772df4718c073984fa2362bf46.pdf,0,2000-01-01 01:00:00,2016-04-03 02:51:08,1152000/59c798772df4718c073984fa2362bf46-d.jpg,,
15921961,Analysis of Singularities for Partial Differential Equations,,"Series in Applied and Computational Mathematics, Vol. 1",,Shuxing Chen,2010,1st,World Scientific Publishing Company,,208,0,English,,,,"981-4304-83-2,978-981-4304-83-2",,,,,,,,,,,0,,,,,,,1,3689781,pdf,59dc0299f9c0be397bf923767f842b6f,,,D:\\HDD4\\_missing\\59dc0299f9c0be397bf923767f842b6f.pdf,0,2000-01-01 01:00:00,2016-04-03 02:51:08,1152000/59dc0299f9c0be397bf923767f842b6f-d.jpg,,
15921959,Wojna meksyka≈Ñska 1861-1867,,,,Jaroslaw Wojtczak,2013,,,,188,0,Polish,,,,"8311115206,978-83-11-11520-0",,,,,,,,,,,0,,,,,,,1,3965849,pdf,59b669b272192fcd1fdb546379da4d2f,,,D:\\HDD4\\_missing\\59b669b272192fcd1fdb546379da4d2f.pdf,0,2000-01-01 01:00:00,2016-04-03 02:51:08,1152000/59b669b272192fcd1fdb546379da4d2f-d.jpg,,
15921957,Conflicted Boundaries in Wisdom and Apocalypticism,,"SBL: Symposium, 35) (Symposium Series",,"Benjamin G. Wright III, Lawrence M. Wills",2006,,Brill Academic Publishers,,248,0,English,,,,"90-04-14667-9,978-90-04-14667-9",,,,,,,,,,,0,,,,,,,1,9384905,pdf,59a6b2f93bedddfe3ed203b355de5f18,,,D:\\HDD4\\_missing\\59a6b2f93bedddfe3ed203b355de5f18.pdf,0,2000-01-01 01:00:00,2016-04-03 02:51:08,1152000/59a6b2f93bedddfe3ed203b355de5f18-d.jpg,,
15921958,Love: A Brief History Through Western Christianity,,Wiley Blackwell Brief Histories of Religion,,Carter Lindberg,2008,1,Wiley-Blackwell,,208,0,English,,,,"0631235981,978-0-631-23598-9,978-0-631-23599-6",,,,,,,,,,,0,,,,,,,1,3338882,pdf,59b1ee30e024f6aed34c4efaf3d67914,,,D:\\HDD4\\_missing\\59b1ee30e024f6aed34c4efaf3d67914.pdf,0,2000-01-01 01:00:00,2016-04-03 02:51:08,1152000/59b1ee30e024f6aed34c4efaf3d67914-d.jpg,,
15921955,Cardiovascular Clinical Trials: Putting the Evidence into Practice,,,,"Marcus Flather, Deepak Bhatt, Tobias Geisler",2012,1,BMJ Books,,412,0,English,,,,"1405162155,978-1-4051-6215-9",,,,,,,,,,,0,,,,,,,1,5075430,pdf,597c5435bae0cea607531d5a3cd532ed,,,D:\\HDD4\\_missing\\597c5435bae0cea607531d5a3cd532ed(1).pdf,0,2000-01-01 01:00:00,2016-04-03 02:51:08,1152000/597c5435bae0cea607531d5a3cd532ed-d.jpg,,
15921956,"JCT Intermediate Form of Contract, Second Edition",,,,"David Chappell, Vincent Powell-Smith",1999,2,Wiley-Blackwell,,400,0,English,,,,"0-632-03965-5,9780632039654,0-632-04899-9,0-632-03967-1,0-632-03964-7",,,,,,,,,,,0,,,,,,,1,3430178,pdf,597e4a8c123427ef2289947fea5116c3,,,D:\\HDD4\\_missing\\597e4a8c123427ef2289947fea5116c3.pdf,0,2000-01-01 01:00:00,2016-04-03 02:51:08,1152000/597e4a8c123427ef2289947fea5116c3-d.jpg,,
15921953,"Therapeutics and Control of Sheep and Goat Diseases, An Issue of Veterinary Clinics: Food Animal Practice, 1e",,The Clinics: Veterinary Medicine,,"George C. Fthenakis DVM  MSc  PhD, Paula Menzies DVM  MPVM",2011,1,Saunders,,264,0,English,,,,"1455705225,978-1-4557-0522-1",,,,,,,,,,,0,,,,,,,1,3869348,pdf,596ede3fc4406696e28e51de69c739ef,,,D:\\HDD4\\_missing\\596ede3fc4406696e28e51de69c739ef(1).pdf,0,2000-01-01 01:00:00,2016-04-03 02:51:08,1152000/596ede3fc4406696e28e51de69c739ef-d.jpg,,
15921954,Elements of Modern Algebra,,,,Linda Gilbert,2008,7,Cengage Learning,,528,0,English,,,,"0-495-56136-3,978-0495-56136-1",,,,,,,,,,,0,,,,,,,1,3795798,pdf,597632176a8882f921b19659e47c7b11,,,D:\\HDD4\\_missing\\597632176a8882f921b19659e47c7b11.pdf,0,2000-01-01 01:00:00,2016-04-03 02:51:08,1152000/597632176a8882f921b19659e47c7b11-d.jpg,,
15921951,Early Music: A Very Short Introduction,,,,Thomas Forrest Kelly,2011,,Oxford University Press,,144,0,English,,,,"0199730768,978-0-19-973076-6",,,,,,,,,,,0,,,,,,,1,3336402,pdf,5951cb1687e9aefec21b78542968d06e,,,D:\\HDD4\\_missing\\5951cb1687e9aefec21b78542968d06e.pdf,0,2000-01-01 01:00:00,2016-04-03 02:51:08,1152000/5951cb1687e9aefec21b78542968d06e-d.jpg,,
15921952,Security for Wireless Ad Hoc Networks,,,,"Farooq Anjum, Petros Mouchtaris",2007,1,Wiley-Interscience,,247,0,English,,,,"0471756881,978-0-471-75688-0",,,,,,,,,,,0,,,,,,,1,4390980,pdf,59595b54dd4778f0924e339c9bae5227,,,D:\\HDD4\\_missing\\59595b54dd4778f0924e339c9bae5227.pdf,0,2000-01-01 01:00:00,2016-04-03 02:51:08,1152000/59595b54dd4778f0924e339c9bae5227-d.jpg,,
15921949,Online Maps with APIs and WebServices,,Lecture Notes in Geoinformation and Cartography,,Michael P Peterson,2012,,Springer,,250,0,English,,,,"3642274846,978-3-642-27484-8,978-3-642-27485-5",,,,,,,10.1007/978-3-642-27485-5,,,,0,,,,,,,1,15326084,pdf,591e24dc77f38f61815e3ef4e745106d,,,D:\\HDD4\\_missing\\591e24dc77f38f61815e3ef4e745106d.pdf,0,2000-01-01 01:00:00,2016-04-03 02:51:08,1152000/591e24dc77f38f61815e3ef4e745106d-d.jpg,,
15921950,Biotechnology in Flavor Production,,,,"Daphna Havkin-Frenkel, Faith Belanger",2008,1,Wiley-Blackwell,,232,0,English,,,,"1-4051-5649-X,978-1-4051-5649-3",,,,,,,,,,,0,,,,,,,1,13346942,pdf,5929dc1765bd85823453ee7d4c52fee8,,,D:\\HDD4\\_missing\\5929dc1765bd85823453ee7d4c52fee8.pdf,0,2000-01-01 01:00:00,2016-04-03 02:51:08,1152000/5929dc1765bd85823453ee7d4c52fee8-d.jpg,,
15921947,Differential Equations with Boundary-Value Problems,,,,"Dennis G. Zill, Michael R. Cullen",2008,7,Cengage Learning,,608,0,English,,,,"0-495-10836-7,978-0-495-10836-8",,,,,,,,,,,0,,,,,,,1,8188094,pdf,58feedcf878b038f86e161d9ad2401e3,,,D:\\HDD4\\_missing\\58feedcf878b038f86e161d9ad2401e3.pdf,0,2000-01-01 01:00:00,2016-04-03 02:51:08,1152000/58feedcf878b038f86e161d9ad2401e3-d.jpg,,
15921948,Organizational Communication: Approaches and Processes,,,,Katherine Miller,2011,6,Cengage Learning,,336,0,English,,,,"0-495-89832-5,978-0-495-89832-0",,,,,,,,,,,0,,,,,,,1,4746270,pdf,590c459c5ec33000cc3e7e6ec8f3930d,,,D:\\HDD4\\_missing\\590c459c5ec33000cc3e7e6ec8f3930d.pdf,0,2000-01-01 01:00:00,2016-04-03 02:51:08,1152000/590c459c5ec33000cc3e7e6ec8f3930d-d.jpg,,
15921945,"Guide to Essential Math: A Review for Physics, Chemistry and Engineering Students",,Complementary Science,,Sy M. Blinder,2008,1,Academic Press,,312,0,English,,,,"0123742641,978-0-12-374264-3",,,,,,,,,,,0,,,,,,,1,3625110,pdf,58f964dda046595dc315a965900eaaff,,,D:\\HDD4\\_missing\\58f964dda046595dc315a965900eaaff.pdf,0,2000-01-01 01:00:00,2016-04-03 02:51:08,1152000/58f964dda046595dc315a965900eaaff-d.jpg,,
15921946,"Photo Finish: The Digital Photographer's Guide to Printing, Showing, and Selling Images",,,,"Jon Canfield, Tim Grey",2004,1,Sybex,,320,0,English,,,,"0-7821-4348-2,9780782143485",,,,,,,,,,,0,,,,,,,1,12822921,pdf,58faf47666d3004a3b864744268231c4,,,D:\\HDD4\\_missing\\58faf47666d3004a3b864744268231c4.pdf,0,2000-01-01 01:00:00,2016-04-03 02:51:08,1152000/58faf47666d3004a3b864744268231c4-d.jpg,,
15921943,"Core Knowledge in Orthopaedics: Hand, Elbow, and Shoulder",,,,"Thomas Trumble, Roger Cornwall, Jeffrey Budoff",2005,1,Mosby,,696,0,English,,,,"0-323-02769-5,978-0-323-02769-4",,,,,,,,,,,0,,,,,,,1,55321820,pdf,58deef39edd9d0d289e18ebb236de6c7,,,D:\\HDD4\\_missing\\58deef39edd9d0d289e18ebb236de6c7.pdf,0,2000-01-01 01:00:00,2016-04-03 02:51:08,1152000/58deef39edd9d0d289e18ebb236de6c7-d.jpg,,
15921944,Word 2010 All-in-One For Dummies,,,,"Doug Lowe, Ryan C. Williams",2010,1,For Dummies,,648,0,English,,,,"0470487666,978-0-470-48766-2",,,,,,,,,,,0,,,,,,,1,21873539,pdf,58f418412af673a6453c8064c1d007ae,,,D:\\HDD4\\_missing\\58f418412af673a6453c8064c1d007ae.pdf,0,2000-01-01 01:00:00,2016-04-03 02:51:08,1152000/58f418412af673a6453c8064c1d007ae-d.jpg,,
15921941,"The End of Energy: The Unmaking of America's Environment, Security, and Independence",,,,Michael J. Graetz,2011,1,The MIT Press,,384,0,English,,,,"0262015676,978-0-262-01567-7",,,,,,,,,,,0,,,,,,,1,3635725,pdf,58bdbe2db587e93f15f8f86f216f3ca9,,,D:\\HDD4\\_missing\\58bdbe2db587e93f15f8f86f216f3ca9.pdf,0,2000-01-01 01:00:00,2016-04-03 02:51:08,1152000/58bdbe2db587e93f15f8f86f216f3ca9-d.jpg,,
15921942,Tactical Wireless Communications and Networks: Design Concepts and Challenges,,,,George F. Elmasry,2012,2,Wiley,,324,0,English,,,,"1119951763,978-1-119-95176-6",,,,,,,,,,,0,,,,,,,1,3210443,pdf,58cb15a00426bf60fb8219cf4f299d30,,,D:\\HDD4\\_missing\\58cb15a00426bf60fb8219cf4f299d30.pdf,0,2000-01-01 01:00:00,2016-04-03 02:51:08,1152000/58cb15a00426bf60fb8219cf4f299d30-d.jpg,,
15921938,Women in a Celtic Church: Ireland 450 - 1150,,,,Christina Harrington,2002,,"Oxford University Press, USA",,320,0,English,,,,"0-19-820823-5,9780198208235",,,,,,,,,,,0,,,,,,,1,11246179,pdf,5896110fc685865d7b3aced3378d63e0,,,D:\\HDD4\\_missing\\5896110fc685865d7b3aced3378d63e0.pdf,0,2000-01-01 01:00:00,2016-04-03 02:51:08,1152000/5896110fc685865d7b3aced3378d63e0-d.jpg,,
15921939,MATLAB Simulations for Radar Systems Design,,,,"Bassem R. Mahafza, Atef Elsherbeni",2003,1,Chapman and Hall/CRC,,704,0,English,,,,"1-58488-392-8,9781584883920",,,,,,,,,,,0,,,,,,,1,27047101,pdf,58aa070d0571d8233834286232c97f91,,,D:\\HDD4\\_missing\\58aa070d0571d8233834286232c97f91.pdf,0,2000-01-01 01:00:00,2016-04-03 02:51:08,1152000/58aa070d0571d8233834286232c97f91-d.jpg,,
15921940,Service Intelligence: Improving Your Bottom Line with the Power of IT Service Management,,,,Sharon Taylor,2011,1,Prentice Hall,,208,0,English,,,,"0-13-269207-4,978-0-13-269207-6",,,,,,,,,,,0,,,,,,,1,2238630,pdf,58aeca0c2de70716922e09589bb9b5f8,,,D:\\HDD4\\_missing\\58aeca0c2de70716922e09589bb9b5f8.pdf,0,2000-01-01 01:00:00,2016-04-03 02:51:08,1152000/58aeca0c2de70716922e09589bb9b5f8-d.jpg,,
15921936,Grandmaster Secrets Endings,,,,"Andy Soltis, Rob Long",1997,,Thinkers' Press,,214,0,English,,,,"0-938650-66-1,9780938650669",,,,,,,,,,,0,,,,,,,1,12812198,pdf,58752abf36f228e54ba7f43d868fdc1b,,,D:\\HDD4\\_missing\\58752abf36f228e54ba7f43d868fdc1b(1).pdf,0,2000-01-01 01:00:00,2016-04-03 02:51:08,1152000/58752abf36f228e54ba7f43d868fdc1b-d.jpg,,
15921937,Dance Composition: A Practical Guide to Creative Success in Dance Making,,Performance Books,,Jacqueline M. Smith-Autard,2010,Pap/DVD,Bloomsbury Methuen Drama,,320,0,English,,,,"1408115646,978-1-408-11564-0",,,,,,,,,,,0,,,,,,,1,8821954,pdf,589403aa38dda241d9ce379adb143066,,,D:\\HDD4\\_missing\\589403aa38dda241d9ce379adb143066.pdf,0,2000-01-01 01:00:00,2016-04-03 02:51:08,1152000/589403aa38dda241d9ce379adb143066-d.jpg,,
15921934,Secret Societies: Their Mysteries Revealed,,,,John Lawrence Reynolds,2007,,Summersdale Publishers,,304,0,English,,,,"1-84024-612-X,9781840246124",,,,,,,,,,,0,,,,,,,1,3895604,pdf,585d612e796bb5acf7d051836ca6ebac,,,D:\\HDD4\\_missing\\585d612e796bb5acf7d051836ca6ebac(1).pdf,0,2000-01-01 01:00:00,2016-04-03 02:51:08,1152000/585d612e796bb5acf7d051836ca6ebac-d.jpg,,
15921935,Encyclopedia of Birth Control,,,,Vern L. Bullough,2001,,ABC-CLIO,,349,0,English,,,,"1-57607-181-2,9781576071816,1-57607-533-8",,,,,,,,,,,0,,,,,,,1,3257730,pdf,586dafa77f5114dfc954b5a390e3952e,,,D:\\HDD4\\_missing\\586dafa77f5114dfc954b5a390e3952e.pdf,0,2000-01-01 01:00:00,2016-04-03 02:51:08,1152000/586dafa77f5114dfc954b5a390e3952e-d.jpg,,
15921932,"Mother Is Gold, Father Is Glass: Gender and Colonialism in a Yoruba Town",,,,"Lorelle D Semley, Lorelle D. Semley",2010,,Indiana University Press,,256,0,English,,,,"0253355451,978-0-253-35545-4,978-0-253-22253-4",,,,,,,,,,,0,,,,,,,1,3881358,pdf,58354bb1e286c5df0994f478edf19b09,,,D:\\HDD4\\_missing\\58354bb1e286c5df0994f478edf19b09(1).pdf,0,2000-01-01 01:00:00,2016-04-03 02:51:08,1152000/58354bb1e286c5df0994f478edf19b09-d.jpg,,
15921933,Enthronement: The Recognition Of The Reincarnate Masters Of Tibet And The Himalayas,,,,"Jamgon Kongtrul, Ngawang Zangpo",1997,,Snow Lion,,192,0,English,,,,"1-55939-083-2,9781559390835",,,,,,,,,,,0,,,,,,,1,9945311,pdf,5844989688fffe41e3a2960474e3083b,,,D:\\HDD4\\_missing\\5844989688fffe41e3a2960474e3083b.pdf,0,2000-01-01 01:00:00,2016-04-03 02:51:08,1152000/5844989688fffe41e3a2960474e3083b-d.jpg,,
15921931,"101 Tough Conversations to Have with Employees: A Manager's Guide to Addressing Performance, Conduct, and Discipline Challenges",,,,Paul Falcone,2009,1,AMACOM,,320,0,English,,,,"0-8144-1348-X,978-0-8144-1348-7",,,,,,,,,,,0,,,,,,,1,4079967,pdf,58352d34a9badc14035fa9e176080c10,,,D:\\HDD4\\_missing\\58352d34a9badc14035fa9e176080c10(1).pdf,0,2000-01-01 01:00:00,2016-04-03 02:51:08,1152000/58352d34a9badc14035fa9e176080c10-d.jpg,,
15921928,Sustainable Agriculture and New Biotechnologies,,Advances in Agroecology,,Noureddine Benkeblia,2011,1,CRC Press,,555,0,English,,,,"1439825041,978-1-4398-2504-4",,,,,,,,,,,0,,,,,,,1,6978958,pdf,57cc8d24d2412eb037cc67b2f54ce8dd,,,D:\\HDD4\\_missing\\57cc8d24d2412eb037cc67b2f54ce8dd.pdf,0,2000-01-01 01:00:00,2016-04-03 02:51:08,1152000/57cc8d24d2412eb037cc67b2f54ce8dd-d.jpg,,
15921929,Microsoft Excel 2000 Functions in Practice,,Que Quick Reference,,"Patrick Blattner, Laura Stewart",1999,,Que,,350,0,English,,,,"0-7897-2045-0,9780789720450",,,,,,,,,,,0,,,,,,,1,7799490,pdf,57e986970324b0186b717379a252b21b,,,D:\\HDD4\\_missing\\57e986970324b0186b717379a252b21b(1).pdf,0,2000-01-01 01:00:00,2016-04-03 02:51:08,1152000/57e986970324b0186b717379a252b21b-d.jpg,,
15921930,The Continuing Evolution of Europe,,CESifo Seminar Series,,"Thiess Buettner, Wolfgang Ochel",2011,,The MIT Press,,184,0,English,,,,"0262017016,978-0-262-01701-5",,,,,,,,,,,0,,,,,,,1,3403649,pdf,57f2ccb19f82161ff48737002bd8a04b,,,D:\\HDD4\\_missing\\57f2ccb19f82161ff48737002bd8a04b.pdf,0,2000-01-01 01:00:00,2016-04-03 02:51:08,1152000/57f2ccb19f82161ff48737002bd8a04b-d.jpg,,
15921926,The Internet of Things: Connecting Objects,,ISTE,,Hakima Chaouchi,2010,1,Wiley-ISTE,,288,0,English,,,,"1848211406,978-1-84821-140-7",,,,,,,,,,,0,,,,,,,1,9554304,pdf,57a18c3a4529c5b2fbc3b89e419070d3,,,D:\\HDD4\\_missing\\57a18c3a4529c5b2fbc3b89e419070d3.pdf,0,2000-01-01 01:00:00,2016-04-03 02:51:08,1152000/57a18c3a4529c5b2fbc3b89e419070d3-d.jpg,,
15921927,Windows 7 For Dummies Quick Reference,,,,Greg Harvey,2009,1,For Dummies,,224,0,English,,,,"0470489618,978-0-470-48961-1",,,,,,,,,,,0,,,,,,,1,6305264,pdf,57a6d3cd2702eb63135a88dfb0cc4185,,,D:\\HDD4\\_missing\\57a6d3cd2702eb63135a88dfb0cc4185.pdf,0,2000-01-01 01:00:00,2016-04-03 02:51:08,1152000/57a6d3cd2702eb63135a88dfb0cc4185-d.jpg,,
15921925,"Surface Modification and Mechanisms: Friction, Stress, and Reaction Engineering",,,,"George E. Totten, Hong Liang",2004,1,CRC Press,,800,0,English,,,,"0-8247-4872-7,9780824748722",,,,,,,,,,,0,,,,,,,1,20541048,pdf,579d7f3e455922bdbadd95f2f9170637,,,D:\\HDD4\\_missing\\579d7f3e455922bdbadd95f2f9170637.pdf,0,2000-01-01 01:00:00,2016-04-03 02:51:08,1152000/579d7f3e455922bdbadd95f2f9170637-d.jpg,,
15921923,The Evolving Universe and the Origin of Life: The Search for Our Cosmic Roots,,Lecture notes in mathematics ; 736,,"Pekka Teerikorpi, Mauri Valtonen, K. Lehto, Harry Lehto, Gene Byrd, Arthur Chernin",2008,,Springer,,508,0,English,,,,"0387095330,978-0-387-09533-2,978-0-387-09534-9",,,,,,,,,,,0,,,,,,,1,10354230,pdf,5753e07022e40d3341796688595ba146,,,D:\\HDD4\\_missing\\5753e07022e40d3341796688595ba146.pdf,0,2000-01-01 01:00:00,2016-04-03 02:51:08,1152000/5753e07022e40d3341796688595ba146-d.jpg,,
15921924,"Convergence Technologies for 3G Networks: IP, UMTS, EGPRS and ATM",,,,"Jeffrey Bannister, Paul Mather, Sebastian Coope",2004,1,Wiley,,670,0,English,,,,"0-470-86091-X,9780470860915",,,,,,,,,,,0,,,,,,,1,7409098,pdf,577699dc6010cc571064f644dd1f20ac,,,D:\\HDD4\\_missing\\577699dc6010cc571064f644dd1f20ac.pdf,0,2000-01-01 01:00:00,2016-04-03 02:51:08,1152000/577699dc6010cc571064f644dd1f20ac-d.jpg,,
15921922,Signal Recovery from Noise in Electronic Instrumentation,,,,T. H. Wilmshurst,1990,2 Sub,Inst of Physics Pub Inc,,248,0,English,,,,"0-7503-0059-0,9780750300599,0-7503-0058-2",,,,,,,,,,,0,,,,,,,1,5679460,pdf,5743dc2585c9191c7fd140273eb4ff3b,,,D:\\HDD4\\_missing\\5743dc2585c9191c7fd140273eb4ff3b.pdf,0,2000-01-01 01:00:00,2016-04-03 02:51:08,1152000/5743dc2585c9191c7fd140273eb4ff3b-d.jpg,,
15921920,Understanding and Treating Borderline Personality Disorder: A Guide for Professionals and Families,,,,"John G. Gunderson, Perry D. Hoffman",2005,1st,American Psychiatric Publishing,,192,0,English,,,,"1-58562-135-8,9781585621354",,,,,,,,,,,0,,,,,,,1,3758383,pdf,5727fd05ef9af52fbeff58f871983a29,,,D:\\HDD4\\_missing\\5727fd05ef9af52fbeff58f871983a29.pdf,0,2000-01-01 01:00:00,2016-04-03 02:51:08,1152000/5727fd05ef9af52fbeff58f871983a29-d.jpg,,
15921921,Decoding Challenging Classroom Behaviors: What Every Teacher and Paraeducator Should Know!,,,,Ennio Cipani,2011,Pap/Cdr,Charles C Thomas Pub Ltd,,229,0,English,,,,"0398086745,978-0-398-08674-9,978-0-398-08675-6",,,,,,,,,,,0,,,,,,,1,4107963,pdf,5742e6dc35306d246f6a27a976ffc978,,,D:\\HDD4\\_missing\\5742e6dc35306d246f6a27a976ffc978.pdf,0,2000-01-01 01:00:00,2016-04-03 02:51:08,1152000/5742e6dc35306d246f6a27a976ffc978-d.jpg,,
15921918,SAS For Dummies,,,,"Stephen McDaniel, Chris Hemedinger",2007,1,For Dummies,,408,0,English,,,,"0471788325,978-0-471-78832-4",,,,,,,,,,,0,,,,,,,1,16893499,pdf,56f0b8f79c81aad8798e496f964f9f75,,,D:\\HDD4\\_missing\\56f0b8f79c81aad8798e496f964f9f75.pdf,0,2000-01-01 01:00:00,2016-04-03 02:51:08,1152000/56f0b8f79c81aad8798e496f964f9f75-d.jpg,,
15921919,Computer Networking: A Top-Down Approach,,6th Edition,,"James F. Kurose, Keith W. Ross",2012,6th,Pearson,,864,0,English,,,,"0-13-285620-4,978-0-13-285620-1",,,,,,,,,,,0,,,,,,,1,11708020,pdf,56f42ee64bc6010b83ae31994da541ae,,,D:\\HDD4\\_missing\\56f42ee64bc6010b83ae31994da541ae.pdf,0,2000-01-01 01:00:00,2016-04-03 02:51:08,1152000/56f42ee64bc6010b83ae31994da541ae-d.jpg,,
15921916,Yoga - Philosophy for Everyone: Bending Mind and Body,,,,"Fritz Allhoff, Liz Stillwaggon Swan, John Friend",2011,1,Wiley-Blackwell,,248,0,English,,,,"0470658800,978-0-470-65880-2",,,,,,,,,,,0,,,,,,,1,3717136,pdf,56d2cfca6299dce8dd9a760d54bba5e0,,,D:\\HDD4\\_missing\\56d2cfca6299dce8dd9a760d54bba5e0.pdf,0,2000-01-01 01:00:00,2016-04-03 02:51:08,1152000/56d2cfca6299dce8dd9a760d54bba5e0-d.jpg,,
15921917,Crafting Rails 4 Applications: Expert Practices for Everyday Rails Development,,,,Jos√© Valim,2013,Second Edition,Pragmatic Bookshelf,,200,0,English,,,,"1937785556,978-1-937785-55-0",,,,,,,,,,,0,,,,,,,1,3541549,pdf,56e152e7e3174a2c8c6ba0ab9bbe0458,,,D:\\HDD4\\_missing\\56e152e7e3174a2c8c6ba0ab9bbe0458(1).pdf,0,2000-01-01 01:00:00,2016-04-03 02:51:08,1152000/56e152e7e3174a2c8c6ba0ab9bbe0458-d.jpg,,
15921914,Business Insights: China: Practical Advice on Entry Strategy and Engagement,,,,Jonathan Reuvid,2008,,Kogan Page,,352,0,English,,,,"0749450622,978-0-7494-5062-5",,,,,,,,,,,0,,,,,,,1,4278470,pdf,568a0d929ca0c59173196cc70714e546,,,D:\\HDD4\\_missing\\568a0d929ca0c59173196cc70714e546(1).pdf,0,2000-01-01 01:00:00,2016-04-03 02:51:08,1152000/568a0d929ca0c59173196cc70714e546-d.jpg,,
15921915,"The Synthesis of Three Dimensional Haptic Textures: Geometry, Control, and Psychophysics",,Springer Series on Touch and Haptic Systems,,Gianni Campion,2011,,Springer,,190,0,English,,,,"0857295756,978-0-85729-575-0,978-0-85729-576-7",,,,,,,10.1007/978-0-85729-576-7,,,,0,,,,,,,1,3384185,pdf,56ad16b3b8ca56b5b322f994d3b97089,,,D:\\HDD4\\_missing\\56ad16b3b8ca56b5b322f994d3b97089.pdf,0,2000-01-01 01:00:00,2016-04-03 02:51:08,1152000/56ad16b3b8ca56b5b322f994d3b97089-d.jpg,,
15921912,Electron Transport in Nanostructures and Mesoscopic Devices: An Introduction,,ISTE,,Thierry Ouisse,2008,,Wiley-ISTE,,387,0,English,,,,"1848210507,978-1-84821-050-9",,,,,,,,,,,0,,,,,,,1,8559845,pdf,56528761e31d710e7c5a7d1b5e8d1e43,,,D:\\HDD4\\_missing\\56528761e31d710e7c5a7d1b5e8d1e43(1).pdf,0,2000-01-01 01:00:00,2016-04-03 02:51:08,1152000/56528761e31d710e7c5a7d1b5e8d1e43-d.jpg,,
15921913,The Furies: Violence and Terror in the French and Russian Revolutions,,,,Arno J. Mayer,2000,0,Princeton University Press,,656,0,English,,,,"0-691-04897-5,9780691048970",,,,,,,,,,,0,,,,,,,1,5986651,pdf,567501b062254cc6c2f9186b9139c479,,,D:\\HDD4\\_missing\\567501b062254cc6c2f9186b9139c479.pdf,0,2000-01-01 01:00:00,2016-04-03 02:51:08,1152000/567501b062254cc6c2f9186b9139c479-d.jpg,,
15921910,Cognitive Behavioral Therapy for Social Anxiety Disorder: Evidence-Based and Disorder-Specific Treatment Techniques,,Practical Clinical Guidebooks,,"Stefan G. Hofmann, Michael W. Otto",2008,1,Routledge,,216,0,English,,,,"0415954029,978-0-415-95402-0",,,,,,,,,,,0,,,,,,,1,3262663,pdf,55fb05ad0ea30a65e7da0fb12a32e929,,,D:\\HDD4\\_missing\\55fb05ad0ea30a65e7da0fb12a32e929(1).pdf,0,2000-01-01 01:00:00,2016-04-03 02:51:08,1152000/55fb05ad0ea30a65e7da0fb12a32e929-d.jpg,,
15921911,Chromatic Cinema: A History of Screen Color,,,,Richard Misek,2010,1,Wiley-Blackwell,,240,0,English,,,,"1444332392,978-1-4443-3239-1",,,,,,,,,,,0,,,,,,,1,13155548,pdf,561fc7980a204f8449de8b5a66902767,,,D:\\HDD4\\_missing\\561fc7980a204f8449de8b5a66902767.pdf,0,2000-01-01 01:00:00,2016-04-03 02:51:08,1152000/561fc7980a204f8449de8b5a66902767-d.jpg,,
15921908,Civil Rights in New York City: From World War II to the Giuliani Era,,,,Clarence Taylor,2011,0,Fordham University Press,,176,0,English,,,,"0823232891,978-0-8232-3289-5,978-0-8232-3291-8",,,,,,,,,,,0,,,,,,,1,3456870,pdf,55d2598ff2e0e50781b1b627e5a10925,,,D:\\HDD4\\_missing\\55d2598ff2e0e50781b1b627e5a10925.pdf,0,2000-01-01 01:00:00,2016-04-03 02:51:08,1152000/55d2598ff2e0e50781b1b627e5a10925-d.jpg,,
15921909,Memoir 36 - The Geological Record of Neoproterozoic Glaciations,,Geological Society Memoir,,"E Arnaud, G P Halverson, G Shields-Zhou",2011,,Geological Society of London,,752,0,English,,,,"1862393346,978-1-86239-334-9",,,,,,,,,,,0,,,,,,,1,34119304,pdf,55e88810abf12a335ad61219b898891b,,,D:\\HDD4\\_missing\\55e88810abf12a335ad61219b898891b.pdf,0,2000-01-01 01:00:00,2016-04-03 02:51:08,1152000/55e88810abf12a335ad61219b898891b-d.jpg,,
15921906,Practical Sensory Programmes: For Students With Autism Spectrum Disorders,,,,Sue Larkey,2007,1,Jessica Kingsley Pub,,112,0,English,,,,"1-84310-479-2,978-1-84310-479-7",,,,,,,,,,,0,,,,,,,1,3429027,pdf,55cbd72453785d2ce6f27ad55698df55,,,D:\\HDD4\\_missing\\55cbd72453785d2ce6f27ad55698df55.pdf,0,2000-01-01 01:00:00,2016-04-03 02:51:08,1152000/55cbd72453785d2ce6f27ad55698df55-d.jpg,,
15921907,Archaeological Approaches to Technology,,,,Heather M. L. Miller,2006,1,Academic Press,,298,0,English,,,,"0-12-496951-8,9780124969513",,,,,,,,,,,0,,,,,,,1,6507765,pdf,55d1389d05f69355f67b62dd7f294118,,,D:\\HDD4\\_missing\\55d1389d05f69355f67b62dd7f294118.pdf,0,2000-01-01 01:00:00,2016-04-03 02:51:08,1152000/55d1389d05f69355f67b62dd7f294118-d.jpg,,
15921905,Blueberries,,Crop Production Science in Horticulture,,"Jorge B. Retamales, James F. Hancock",2012,,CABI,,336,0,English,,,,"1845938267,978-1-84593-826-0",,,,,,,,,,,0,,,,,,,1,3228347,pdf,55c2bea51600266d51befbfc6ae83ef5,,,D:\\HDD4\\_missing\\55c2bea51600266d51befbfc6ae83ef5(1).pdf,0,2000-01-01 01:00:00,2016-04-03 02:51:08,1152000/55c2bea51600266d51befbfc6ae83ef5-d.jpg,,
15921903,Proofs and Computations,,Perspectives in Logic,,"Helmut Schwichtenberg, Stanley S. Wainer",2012,0,Cambridge University Press,,480,0,English,,,,"0521517699,978-0-521-51769-0",,,,,,,,,,,0,,,,,,,1,3844777,pdf,559e7193555191b286f3ba42063b231c,,,D:\\HDD4\\_missing\\559e7193555191b286f3ba42063b231c.pdf,0,2000-01-01 01:00:00,2016-04-03 02:51:08,1152000/559e7193555191b286f3ba42063b231c-d.jpg,,
15921904,English Adjectives of Comparison: Lexical and Grammaticalized Uses,,Topics in English Linguistics,,Tine Breban,2010,1,De Gruyter Mouton,,395,0,English,,,,"3110205807,978-3-11-020580-0,978-3-11-021601-1",,,,,,,,,,,0,,,,,,,1,3848718,pdf,559f9d95bb9e441f384a81c5fa38b3ee,,,D:\\HDD4\\_missing\\559f9d95bb9e441f384a81c5fa38b3ee.pdf,0,2000-01-01 01:00:00,2016-04-03 02:51:08,1152000/559f9d95bb9e441f384a81c5fa38b3ee-d.jpg,,
15921901,The Essential HBO Reader,,Essential Readers in Contemporary Media,,"Gary R. Edgerton, Jeffrey P. Jones",2008,,University Press of Kentucky,,384,0,English,,,,"0813124522,978-0-8131-2452-0",,,,,,,,,,,0,,,,,,,1,3316972,pdf,5593f71486087ff3c529c71508e759ef,,,D:\\HDD4\\_missing\\5593f71486087ff3c529c71508e759ef.pdf,0,2000-01-01 01:00:00,2016-04-03 02:51:08,1152000/5593f71486087ff3c529c71508e759ef-d.jpg,,
15921902,Schopenhauer: The World as Will and Representation: Volume 1,,The Cambridge Edition of the Works of Schopenhauer,,"Christopher Janaway, Judith Norman, Alistair Welchman",2010,0,Cambridge University Press,,696,0,English,,,,"0521871840,978-0-521-87184-6",,,,,,,,,,,0,,,,,,,1,4598116,pdf,55956a98db928bd5ad23d029e1165e61,,,D:\\HDD4\\_missing\\55956a98db928bd5ad23d029e1165e61.pdf,0,2000-01-01 01:00:00,2016-04-03 02:51:08,1152000/55956a98db928bd5ad23d029e1165e61-d.jpg,,
15921900,Hedge Fund Activism in Japan: The Limits of Shareholder Primacy,,,,"John Buchanan, Dominic Heesang Chai, Simon Deakin",2012,,Cambridge University Press,,388,0,English,,,,"1107016835,978-1-107-01683-5",,,,,,,,,,,0,,,,,,,1,3240666,pdf,5591df33479836a103c3425f433eded1,,,D:\\HDD4\\_missing\\5591df33479836a103c3425f433eded1.pdf,0,2000-01-01 01:00:00,2016-04-03 02:51:08,1152000/5591df33479836a103c3425f433eded1-d.jpg,,
15921897,Business Ethics and Continental Philosophy,,,,"Mollie Painter-Morland, Ren√© ten Bos",2011,0,Cambridge University Press,,392,0,English,,,,"0521199042,978-0-521-19904-9,978-0-521-13756-0",,,,,,,,,,,0,,,,,,,1,3456452,pdf,5521196877391562e5920931169ecda6,,,D:\\HDD4\\_missing\\5521196877391562e5920931169ecda6.pdf,0,2000-01-01 01:00:00,2016-04-03 02:51:08,1152000/5521196877391562e5920931169ecda6-d.jpg,,
15921898,Introduction to Axiomatic Set Theory,,Graduate Texts in Mathematics,,"Gaisi Takeuti, Wilson M. Zaring",1981,2nd,Springer,,246,0,English,,,,"0-387-90683-5,9780387906836,3-540-90683-5",,,,,,,,,,,0,,,,,,,1,4209663,djvu,555e6b1c6da3c6bdfa18754774f08214,,,D:\\HDD4\\_missing\\555e6b1c6da3c6bdfa18754774f08214.djvu,0,2000-01-01 01:00:00,2016-04-03 02:51:08,1152000/555e6b1c6da3c6bdfa18754774f08214-g.jpg,,
15921899,Cooperative Lot Sizing Games in Supply Chains,,Lecture Notes in Economics and Mathematical Systems,,Julia Drechsel,2010,,Springer,,150,0,English,,,,"3642137245,978-3-642-13724-2,978-3-642-13725-9",,,,,,,10.1007/978-3-642-13725-9,,,,0,,,,,,,1,3223119,pdf,5565db684e3a31c78843a3f5d00f04f5,,,D:\\HDD4\\_missing\\5565db684e3a31c78843a3f5d00f04f5.pdf,0,2000-01-01 01:00:00,2016-04-03 02:51:08,1152000/5565db684e3a31c78843a3f5d00f04f5-d.jpg,,
15921895,eBay For Dummies,,,,Marsha Collier,2012,7,For Dummies,,408,0,English,,,,"1118098064,978-1-118-09806-6,978-1-118-19931-2,978-1-118-19935-0,978-1-118-19938-1",,,,,,,,,,,0,,,,,,,1,30836030,pdf,54f5ba101c6fc1cdfb729ad5a87d5823,,,D:\\HDD4\\_missing\\54f5ba101c6fc1cdfb729ad5a87d5823.pdf,0,2000-01-01 01:00:00,2016-04-03 02:51:08,1152000/54f5ba101c6fc1cdfb729ad5a87d5823-d.jpg,,
15921896,"Smoothness, Regularity and Complete Intersection",,London Mathematical Society Lecture Note Series,,"Javier Majadas, Antonio G. Rodicio",2010,1,Cambridge University Press,,140,0,English,,,,"0521125723,978-0-521-12572-7",,,,,,,,,,,0,,,,,,,1,3382648,pdf,54f8f60d3138b2688e8914f1cfdc7e59,,,D:\\HDD4\\_missing\\54f8f60d3138b2688e8914f1cfdc7e59.pdf,0,2000-01-01 01:00:00,2016-04-03 02:51:08,1152000/54f8f60d3138b2688e8914f1cfdc7e59-d.jpg,,
15921894,Asian American and Pacific Islander Children and Mental Health,,Child Psychology and Mental Health,,"Frederick T. Leong, Linda Juang, Desiree B. Qin, Hiram E. Fitzgerald",2011,,Praeger,,518,0,English,,,,"0313383006,978-0-313-38300-7,978-0-313-38301-4",,,,,,,,,,,0,,,,,,,1,3240329,pdf,54e15da1ca80c2028ed03db46d7fa25b,,,D:\\HDD4\\_missing\\54e15da1ca80c2028ed03db46d7fa25b.pdf,0,2000-01-01 01:00:00,2016-04-03 02:51:08,1152000/54e15da1ca80c2028ed03db46d7fa25b-d.jpg,,
15921892,Interpretation and Uses of Medical Statistics,,,,"Leslie Daly, Geoffrey J Bourke",2000,5,Wiley-Blackwell,,568,0,English,,,,"0632047631,978-0-632-04763-5",,,,,,,,,,,0,,,,,,,1,5866657,pdf,54c3ddd38750f2e30fb5d1403e2a3d4f,,,D:\\HDD4\\_missing\\54c3ddd38750f2e30fb5d1403e2a3d4f(1).pdf,0,2000-01-01 01:00:00,2016-04-03 02:51:08,1152000/54c3ddd38750f2e30fb5d1403e2a3d4f-d.jpg,,
15921893,Advanced Linux 3D Graphics,,Wordware Game Developer's Library,,Norman Lin,2001,,"Wordware Publishing, Inc",,622,0,English,,,,"1-55622-853-8,9781556228537",,,,,,,,,,,0,,,,,,,1,15579847,pdf,54c435fb74d76e46f7b0cf1f495ef03d,,,D:\\HDD4\\_missing\\54c435fb74d76e46f7b0cf1f495ef03d.pdf,0,2000-01-01 01:00:00,2016-04-03 02:51:08,1152000/54c435fb74d76e46f7b0cf1f495ef03d-d.jpg,,
15921890,Teachers as Classroom Coaches: How to Motivate Students Across the Content Areas,,,,"Andi Stix, Frank Hrbek",2006,1st,Association for Supervision & Curriculum Deve,,190,0,English,,,,"1-4166-0411-1,978-1-4166-0411-2",,,,,,,,,,,0,,,,,,,1,5760105,pdf,5496e68225fe479379bb7216bb34cd74,,,D:\\HDD4\\_missing\\5496e68225fe479379bb7216bb34cd74.pdf,0,2000-01-01 01:00:00,2016-04-03 02:51:08,1152000/5496e68225fe479379bb7216bb34cd74-d.jpg,,
15921891,Windows 8 Five Minutes at a Time,,,,Lance Whitney,2012,1,Wiley,,384,0,English,,,,"1118418646,978-1-118-41864-2",,,,,,,,,,,0,,,,,,,1,83161270,pdf,5499b85976f6ac546908b4306a2248e4,,,D:\\HDD4\\_missing\\5499b85976f6ac546908b4306a2248e4.pdf,0,2000-01-01 01:00:00,2016-04-03 02:51:08,1152000/5499b85976f6ac546908b4306a2248e4-d.jpg,,
15921888,Religious Revival in the Tibetan Borderlands,,Studies on Ethnic Groups in China,,Koen Wellens,2010,,University of Washington Press,,288,0,English,,,,"0295990686,978-0-295-99068-2,978-0-295-99069-9",,,,,,,,,,,0,,,,,,,1,3663828,pdf,547b37188e67c1cfe7653b40c6273437,,,D:\\HDD4\\_missing\\547b37188e67c1cfe7653b40c6273437.pdf,0,2000-01-01 01:00:00,2016-04-03 02:51:08,1152000/547b37188e67c1cfe7653b40c6273437-d.jpg,,
15921889,Wiley CPA Exam Review Fast Track Study Guide,,Wiley Cpa Examination Review Fast Track Study Guide,,O. Ray Whittington,2008,4,Wiley,,384,0,English,,,,"0470196092,978-0-470-19609-0",,,,,,,,,,,0,,,,,,,1,4151774,pdf,54889affdb823ed28fbd7ddd882d48f4,,,D:\\HDD4\\_missing\\54889affdb823ed28fbd7ddd882d48f4.pdf,0,2000-01-01 01:00:00,2016-04-03 02:51:08,1152000/54889affdb823ed28fbd7ddd882d48f4-d.jpg,,
15921886,"Lecture Notes on Diseases of the Ear, Nose and Throat",,,,Peter D. Bull,2002,9,Wiley-Blackwell,,181,0,English,,,,"0-632-06506-0,9780632065066",,,,,,,,,,,0,,,,,,,1,5659842,pdf,54683cad282cd7afe943c08cc6986946,,,D:\\HDD4\\_missing\\54683cad282cd7afe943c08cc6986946.pdf,0,2000-01-01 01:00:00,2016-04-03 02:51:08,1152000/54683cad282cd7afe943c08cc6986946-d.jpg,,
15921887,Practical Electromagnetics: From Biomedical Sciences to Wireless Communication,,,,Devendra K. Misra,2006,1,Wiley-Interscience,,507,0,English,,,,"0-471-74865-X,9780471748656",,,,,,,,,,,0,,,,,,,1,9109851,pdf,5475cd834f47d3a34318bba17d97e423,,,D:\\HDD4\\_missing\\5475cd834f47d3a34318bba17d97e423.pdf,0,2000-01-01 01:00:00,2016-04-03 02:51:08,1152000/5475cd834f47d3a34318bba17d97e423-d.jpg,,
15921884,The History of Mathematics: A Brief Course,,,,Roger L. Cooke,2005,2,Wiley-Interscience,,640,0,English,,,,"0471444596,978-0-471-44459-6",,,,,,,,,,,0,,,,,,,1,12760295,pdf,5454496b4a0e19914a8e3bfbac362cdc,,,D:\\HDD4\\_missing\\5454496b4a0e19914a8e3bfbac362cdc.pdf,0,2000-01-01 01:00:00,2016-04-03 02:51:08,1152000/5454496b4a0e19914a8e3bfbac362cdc-d.jpg,,
15921885,"Colloid Science: Principles, Methods and Applications",,,,Terence Cosgrove,2010,2,Wiley-Blackwell,,394,0,English,,,,"144432019X,978-1-4443-2019-0,978-1-4443-2020-6",,,,,,,,,,,0,,,,,,,1,17926432,pdf,545b512a08f70ad3e8f47d7b38089909,,,D:\\HDD4\\_missing\\545b512a08f70ad3e8f47d7b38089909.pdf,0,2000-01-01 01:00:00,2016-04-03 02:51:08,1152000/545b512a08f70ad3e8f47d7b38089909-d.jpg,,
15921882,Testing UMTS: Assuring Conformance and Quality of UMTS User Equipment,,,,Daniel Fox,2008,1,Wiley,,274,0,English,,,,"0470724420,978-0-470-72442-2",,,,,,,,,,,0,,,,,,,1,9422032,pdf,53efc3f9e730ffbb941de52a3ef844e0,,,D:\\HDD4\\_missing\\53efc3f9e730ffbb941de52a3ef844e0.pdf,0,2000-01-01 01:00:00,2016-04-03 02:51:08,1152000/53efc3f9e730ffbb941de52a3ef844e0-d.jpg,,
15921883,Retail Nation: Department Stores and the Making of Modern Canada,,,,Donica Belisle,2011,,Univ of British Columbia Pr,,272,0,English,,,,"0774819472,978-0-7748-1947-3,978-0-7748-1948-0,978-0-7748-1945-9,978-0-7748-1946-6",,,,,,,,,,,0,,,,,,,1,17000074,pdf,541603dcde6d9df136120f76ac353813,,,D:\\HDD4\\_missing\\541603dcde6d9df136120f76ac353813(1).pdf,0,2000-01-01 01:00:00,2016-04-03 02:51:08,1152000/541603dcde6d9df136120f76ac353813-d.jpg,,
15921880,Sams Teach Yourself TCP/IP in 24 Hours,,5th Edition,,Joe Casad,2011,5,Sams Publishing,,544,0,English,,,,"0-672-33571-9,978-0-672-33571-6",,,,,,,,,,,0,,,,,,,1,13129311,pdf,53c8d992c7da0419cb193b6fb6050e70,,,D:\\HDD4\\_missing\\53c8d992c7da0419cb193b6fb6050e70.pdf,0,2000-01-01 01:00:00,2016-04-03 02:51:08,1152000/53c8d992c7da0419cb193b6fb6050e70-d.jpg,,
15921881,Learning and Behavior: Active Learning Edition,,,,Paul Chance,2008,6,Cengage Learning,,528,0,English,,,,"0-495-09564-8,978-0-495-09564-4",,,,,,,,,,,0,,,,,,,1,4641608,pdf,53e9a1cdc7b8884c8b457d43a04dc4fc,,,D:\\HDD4\\_missing\\53e9a1cdc7b8884c8b457d43a04dc4fc.pdf,0,2000-01-01 01:00:00,2016-04-03 02:51:08,1152000/53e9a1cdc7b8884c8b457d43a04dc4fc-d.jpg,,
15921878,Decentralization Policies in Asian Development,,,,Ichimura Shinichi,2008,,World Scientific Publishing Company,,440,0,English,,,,"981-281-863-4,978-981-281-863-8",,,,,,,,,,,0,,,,,,,1,3405312,pdf,53b70de4b659e2733ea664e13fa704b5,,,D:\\HDD4\\_missing\\53b70de4b659e2733ea664e13fa704b5.pdf,0,2000-01-01 01:00:00,2016-04-03 02:51:08,1152000/53b70de4b659e2733ea664e13fa704b5-d.jpg,,
15921879,"Active Training: A Handbook of Techniques, Designs, Case Examples, and Tips",,,,"Melvin L. Silberman, Carol Auerbach",2006,3,Pfeiffer,,380,0,English,,,,"0-7879-7623-7,978-0-7879-7623-1",,,,,,,,,,,0,,,,,,,1,3259289,pdf,53c28a8a80351aabdfc1ef7c5fc52e57,,,D:\\HDD4\\_missing\\53c28a8a80351aabdfc1ef7c5fc52e57(1).pdf,0,2000-01-01 01:00:00,2016-04-03 02:51:08,1152000/53c28a8a80351aabdfc1ef7c5fc52e57-d.jpg,,
15921877,Speech in Action: Interactive Activities Combining Speech Language Pathology and Adaptive Physical Education,,,,"America X. Gonzalez, Lois Jean Brady, Jim Elliot",2011,1,Jessica Kingsley Publishers,,158,0,English,,,,"1849058466,978-1-84905-846-9",,,,,,,,,,,0,,,,,,,1,3045174,pdf,53ac01ed6e1ee946f34540f0262f0766,,,D:\\HDD4\\_missing\\53ac01ed6e1ee946f34540f0262f0766.pdf,0,2000-01-01 01:00:00,2016-04-03 02:51:08,1152000/53ac01ed6e1ee946f34540f0262f0766-d.jpg,,
15921875,Practical Speech User Interface Design,,Human Factors and Ergonomics,,James R. Lewis,2010,1,CRC Press,,344,0,English,,,,"1439815844,978-1-4398-1584-7",,,,,,,,,,,0,,,,,,,1,4451419,pdf,539355ef4cd878a69370a7d0ec8b5a8d,,,D:\\HDD4\\_missing\\539355ef4cd878a69370a7d0ec8b5a8d(1).pdf,0,2000-01-01 01:00:00,2016-04-03 02:51:08,1152000/539355ef4cd878a69370a7d0ec8b5a8d-d.jpg,,
15921876,Direct-Chill Casting of Light Alloys: Science and Technology,,,,"J. F. Grandfield, D. G. Eskin, Ian Bainbridge",2013,1,Wiley-TMS,,424,0,English,,,,"1118022653,978-1-118-02265-8",,,,,,,,,,,0,,,,,,,1,20298638,pdf,53954e6300e20d11bbfe4896fd654903,,,D:\\HDD4\\_missing\\53954e6300e20d11bbfe4896fd654903.pdf,0,2000-01-01 01:00:00,2016-04-03 02:51:08,1152000/53954e6300e20d11bbfe4896fd654903-d.jpg,,
15921873,Analysis of Economic Data,,,,Gary Koop,2005,2,Wiley,,256,0,English,,,,"0-470-02468-2,9780470024683",,,,,,,,,,,0,,,,,,,1,3675994,pdf,537644eee7c84b866d47c5e9b2abd26f,,,D:\\HDD4\\_missing\\537644eee7c84b866d47c5e9b2abd26f.pdf,0,2000-01-01 01:00:00,2016-04-03 02:51:08,1152000/537644eee7c84b866d47c5e9b2abd26f-d.jpg,,
15921874,Frontiers in Crystal Engineering,,,,"Edward R. T. Tiekink, Jagadese Vittal",2006,1,Wiley,,346,0,English,,,,"0-470-02258-2,978-0-470-02258-0",,,,,,,,,,,0,,,,,,,1,14086726,pdf,5388942ed313a43f36bc2c3a6c2e3b61,,,D:\\HDD4\\_missing\\5388942ed313a43f36bc2c3a6c2e3b61(1).pdf,0,2000-01-01 01:00:00,2016-04-03 02:51:08,1152000/5388942ed313a43f36bc2c3a6c2e3b61-d.jpg,,
15921871,A Short History of Nearly Everything,,,,Bill Bryson,2003,0,Random House Large Print,,960,0,English,,,,"0-375-43200-0,9780375432002",,,,,,,,,,,0,,,,,,,1,3164225,pdf,52fec8e9776901cabec19b66cfb540fe,,,D:\\HDD4\\_missing\\52fec8e9776901cabec19b66cfb540fe(1).pdf,0,2000-01-01 01:00:00,2016-04-03 02:51:08,1152000/52fec8e9776901cabec19b66cfb540fe-d.jpg,,
15921872,Petroleum Geology of Africa: New Themes and Developing Technologies,,Geological Society Special Publication No. 207,,"T. J. Arthur, T. J. Arthur, Douglas Scott Macgregor, N. R. Cameron",2003,,Geological Society of London,,289,0,English,,,,"1-86239-128-9,9781862391284",,,,,,,,,,,0,,,,,,,1,43482370,pdf,531e623f38c1f38f88ca5227785933ce,,,D:\\HDD4\\_missing\\531e623f38c1f38f88ca5227785933ce.pdf,0,2000-01-01 01:00:00,2016-04-03 02:51:08,1152000/531e623f38c1f38f88ca5227785933ce-d.jpg,,
15921870,Iterative Splitting Methods for Differential Equations,,Chapman & Hall/CRC Numerical Analysis and Scientific Computing Series,,Juergen Geiser,2011,0,Chapman and Hall/CRC,,320,0,English,,,,"1439869820,978-1-4398-6982-6",,,,,,,,,,,0,,,,,,,1,10160371,pdf,52fc7f751cbd0b49a8bcad163dc2dcef,,,D:\\HDD4\\_missing\\52fc7f751cbd0b49a8bcad163dc2dcef.pdf,0,2000-01-01 01:00:00,2016-04-03 02:51:08,1152000/52fc7f751cbd0b49a8bcad163dc2dcef-d.jpg,,
15921868,Practical Manual of Clinical Obesity,,,,"Robert Kushner, Victor Lawrence, Sudhesh Kumar",2013,1,Wiley-Blackwell,,204,0,English,,,,"0470654767,978-0-4706-5476-7",,,,,,,,,,,0,,,,,,,1,3432028,pdf,52e3b26e58f125529a6948f1e0d56777,,,D:\\HDD4\\_missing\\52e3b26e58f125529a6948f1e0d56777.pdf,0,2000-01-01 01:00:00,2016-04-03 02:51:08,1152000/52e3b26e58f125529a6948f1e0d56777-d.jpg,,
15921869,Why Intelligence Fails: Lessons from the Iranian Revolution and the Iraq War,,Cornell Studies in Security Affairs,,Robert L. Jervis,2010,1,Cornell University Press,,248,0,English,,,,"0801447852,978-0-8014-4785-3",,,,,,,,,,,0,,,,,,,1,1149263,pdf,52f4996ed541629454133191b4b5ec5e,,,D:\\HDD4\\_missing\\52f4996ed541629454133191b4b5ec5e.pdf,0,2000-01-01 01:00:00,2016-04-03 02:51:08,1152000/52f4996ed541629454133191b4b5ec5e-d.jpg,,
15921866,Steel Designers' Manual,,,,"SCI (Steel Construction Institute), Buick Davison, Graham W. Owens",2012,7,Wiley-Blackwell,,1398,0,English,,,,"1-4051-8940-1,978-1-4051-8940-8",,,,,,,,,,,0,,,,,,,1,69913889,pdf,52ce62cd8ca07305dae94d00ae9574e1,,,D:\\HDD4\\_missing\\52ce62cd8ca07305dae94d00ae9574e1(1).pdf,0,2000-01-01 01:00:00,2016-04-03 02:51:08,1152000/52ce62cd8ca07305dae94d00ae9574e1-d.jpg,,
15921867,Clinical Immunology of the Dog and Cat,,,,Thomas K. Day,2008,2Rev Ed,Manson Publishing Ltd,,352,0,English,,,,"1840760982,978-1-84076-098-9",,,,,,,,,,,0,,,,,,,1,39088440,pdf,52d30473f183a2b3b71435757d1026f7,,,D:\\HDD4\\_missing\\52d30473f183a2b3b71435757d1026f7(1).pdf,0,2000-01-01 01:00:00,2016-04-03 02:51:08,1152000/52d30473f183a2b3b71435757d1026f7-d.jpg,,
15921864,"Pulse Doppler Radar: Principles, Technology, Applications",,,,Clive Alabaster,2012,,SciTech Publishing,,420,0,English,,,,"1891121987,978-1-891121-98-2",,,,,,,,,,,0,,,,,,,1,21099442,pdf,52a4f079227fbdd02d3c89ae4005c793,,,D:\\HDD4\\_missing\\52a4f079227fbdd02d3c89ae4005c793.pdf,0,2000-01-01 01:00:00,2016-04-03 02:51:08,1152000/52a4f079227fbdd02d3c89ae4005c793-d.jpg,,
15921865,Playing With Planets,,,,Gerard 't Hooft,2008,1,World Scientific Publishing Company,,252,0,English,,,,"981-279-307-0,978-981-279-307-2,978-981-279-020-0,981-279-020-9",,,,,,,,,,,0,,,,,,,1,3542109,pdf,52ab7d03257bee831404482ce82a9b50,,,D:\\HDD4\\_missing\\52ab7d03257bee831404482ce82a9b50.pdf,0,2000-01-01 01:00:00,2016-04-03 02:51:08,1152000/52ab7d03257bee831404482ce82a9b50-d.jpg,,
15921862,Performance Measurement for Construction Profitability,,,,Clive Thomas Cain,2004,1,Wiley-Blackwell,,232,0,English,,,,"1-4051-1462-2,9781405114622",,,,,,,,,,,0,,,,,,,1,3750960,pdf,529a0288622d44727e048c23d7c0a3de,,,D:\\HDD4\\_missing\\529a0288622d44727e048c23d7c0a3de.pdf,0,2000-01-01 01:00:00,2016-04-03 02:51:08,1152000/529a0288622d44727e048c23d7c0a3de-d.jpg,,
15921863,Modern Differential Geometry in Gauge Theories,,"Yang-Mills Fields, Vol. 2",,Anastasios Mallios,2009,1st,Birkh√§user,,234,0,English,,,,"0817643796,978-0-8176-4379-9,978-0-8176-4634-9",,,,,,,10.1007/978-0-8176-4634-9,,,,0,,,,,,,1,3342963,pdf,529d4033961dac0d74b2044372060fe5,,,D:\\HDD4\\_missing\\529d4033961dac0d74b2044372060fe5.pdf,0,2000-01-01 01:00:00,2016-04-03 02:51:08,1152000/529d4033961dac0d74b2044372060fe5-d.jpg,,
15921861,Lipid Metabolism and Health,,,,"Robert J. Moffatt, Bryant Stamford",2005,1,CRC Press,,376,0,English,,,,"0-8493-2680-X,9780849326806",,,,,,,,,,,0,,,,,,,1,6485861,pdf,523105f179c979500901e6c8b16faf33,,,D:\\HDD4\\_missing\\523105f179c979500901e6c8b16faf33.pdf,0,2000-01-01 01:00:00,2016-04-03 02:51:08,1152000/523105f179c979500901e6c8b16faf33-d.jpg,,
15921858,Systems Biology and Livestock Science,,,,"Marinus te Pas, Henri Woelders, Andr√© Bannink",2011,1,Wiley-Blackwell,,332,0,English,,,,"0-8138-1174-0,978-0-8138-1174-1",,,,,,,,,,,0,,,,,,,1,17212117,pdf,5210a8792411025c5478c564f5ee3c9f,,,D:\\HDD4\\_missing\\5210a8792411025c5478c564f5ee3c9f.pdf,0,2000-01-01 01:00:00,2016-04-03 02:51:08,1152000/5210a8792411025c5478c564f5ee3c9f-d.jpg,,
15921859,General Concepts in Integrated Pest and Disease Management,,Integrated Management of Plant Pests and Diseases,,"A. Ciancio, K.G. Mukerji",2007,,Springer,,360,0,English,,,,"1402060602,978-1-4020-6060-1,978-1-4020-6062-5,978-1-4020-8570-3,978-1-4020-8571-0",,,,,,,,,,,0,,,,,,,1,10966046,pdf,5215b4a2267445ffcdea0eea10d26dd3,,,D:\\HDD4\\_missing\\5215b4a2267445ffcdea0eea10d26dd3(1).pdf,0,2000-01-01 01:00:00,2016-04-03 02:51:08,1152000/5215b4a2267445ffcdea0eea10d26dd3-d.jpg,,
15921860,"Identity, Character, and Morality: Essays in Moral Psychology",,,,"Owen Flanagan, Amelie Oksenberg Rorty",1991,0,Mit Pr,,500,0,English,,,,"0-262-06115-5,9780262061155,0-262-56074-7",,,,,,,,,,,0,,,,,,,1,3342565,pdf,522fee069a17516f6372fd8c9afade5c,,,D:\\HDD4\\_missing\\522fee069a17516f6372fd8c9afade5c.pdf,0,2000-01-01 01:00:00,2016-04-03 02:51:08,1152000/522fee069a17516f6372fd8c9afade5c-g.jpg,,
15921857,Understanding Sonet/Sdh and Atm: Communications Networks for the Next Millennium,,,,Stamatios V. Kartalopoulos,1999,,Wiley-IEEE Press,,257,0,English,,,,"0-7803-4745-5,9780780347458,0-7803-4707-2,0-7803-1005-5,0-7803-5399-4",,,,,,,,,,,0,,,,,,,1,109443895,pdf,520c3caf9e2de9db76627d20005f3326,,,D:\\HDD4\\_missing\\520c3caf9e2de9db76627d20005f3326.pdf,0,2000-01-01 01:00:00,2016-04-03 02:51:08,1152000/520c3caf9e2de9db76627d20005f3326-d.jpg,,
15921855,Street-Fighting Mathematics: The Art of Educated Guessing and Opportunistic Problem Solving,,,,"Sanjoy Mahajan, Carver A. Mead",2010,New,The MIT Press,,152,0,English,,,,"026251429X,978-0-262-51429-3",,,,,,,,,,,0,,,,,,,1,3295767,pdf,51fe12ec5885b739a10daff9ee1020e3,,,D:\\HDD4\\_missing\\51fe12ec5885b739a10daff9ee1020e3.pdf,0,2000-01-01 01:00:00,2016-04-03 02:51:08,1152000/51fe12ec5885b739a10daff9ee1020e3-d.jpg,,
15921856,Access 2007 All-in-One Desk Reference For Dummies,,,,"Alan Simpson, Margaret Levine Young, Alison Barrows, April Wells, Jim McCarter",2006,1,For Dummies,,768,0,English,,,,"0-470-03649-4,978-0-470-03649-5",,,,,,,,,,,0,,,,,,,1,22235908,pdf,5200facc6c12ee65ddedb2722b65679a,,,D:\\HDD4\\_missing\\5200facc6c12ee65ddedb2722b65679a(1).pdf,0,2000-01-01 01:00:00,2016-04-03 02:51:08,1152000/5200facc6c12ee65ddedb2722b65679a-d.jpg,,
15921853,"Panic Disorder - A Medical Dictionary, Bibliography, and Annotated Research Guide to Internet References",,,,Icon Health Publications,2004,,ICON Health Publications,,280,0,English,,,,"0-597-84151-9,9780597841514",,,,,,,,,,,0,,,,,,,1,4498490,pdf,51c9951936711be79feab3899ee16ddb,,,D:\\HDD4\\_missing\\51c9951936711be79feab3899ee16ddb.pdf,0,2000-01-01 01:00:00,2016-04-03 02:51:08,1152000/51c9951936711be79feab3899ee16ddb-d.jpg,,
15921854,Status and Sacredness: A General Theory of Status Relations and an Analysis of Indian Culture,,,,Murray Milner Jr,1994,,"Oxford University Press, USA",,352,0,English,,,,"0-19-508334-2,9780195083347,0-19-508489-6",,,,,,,,,,,0,,,,,,,1,22427685,pdf,51e18cff5f08d7869280c8e15a2d19d6,,,D:\\HDD4\\_missing\\51e18cff5f08d7869280c8e15a2d19d6.pdf,0,2000-01-01 01:00:00,2016-04-03 02:51:08,1152000/51e18cff5f08d7869280c8e15a2d19d6-d.jpg,,
15921851,Panoramic Imaging: Sensor-Line Cameras and Laser Range-Finders,,,,"Fay Huang, Reinhard Klette, Karsten Scheibe",2008,1,Wiley,,284,0,English,,,,"0470060654,978-0-470-06065-0",,,,,,,,,,,0,,,,,,,1,11835934,pdf,51a506f6bfc8c512e2342252a0d08c5b,,,D:\\HDD4\\_missing\\51a506f6bfc8c512e2342252a0d08c5b.pdf,0,2000-01-01 01:00:00,2016-04-03 02:51:08,1152000/51a506f6bfc8c512e2342252a0d08c5b-d.jpg,,
15921852,All-Digital Frequency Synthesizer in Deep-Submicron CMOS,,,,"Robert B. Staszewski, Poras T. Balsara",2006,1,Wiley-Interscience,,261,0,English,,,,"0-471-77255-0,978-0-471-77255-2",,,,,,,,,,,0,,,,,,,1,8471080,pdf,51afa25c2055fc8598b21584cee5ce9d,,,D:\\HDD4\\_missing\\51afa25c2055fc8598b21584cee5ce9d.pdf,0,2000-01-01 01:00:00,2016-04-03 02:51:08,1152000/51afa25c2055fc8598b21584cee5ce9d-d.jpg,,
15921849,ABC of Sleep Medicine,,ABC Series,,Paul Reading,2013,1,BMJ Books,,66,0,English,,,,"0470659467,978-0-470-65946-5",,,,,,,,,,,0,,,,,,,1,3801697,pdf,51a249b9e6c21b74b6b194c3fd6a1b3b,,,D:\\HDD4\\_missing\\51a249b9e6c21b74b6b194c3fd6a1b3b(1).pdf,0,2000-01-01 01:00:00,2016-04-03 02:51:08,1152000/51a249b9e6c21b74b6b194c3fd6a1b3b-d.jpg,,
15921850,Free-Space Optics: Propagation and Communication,,ISTE,,"Olivier Bouchet, Herv√© Sizun, Christian Boisrobert, Fr√©d√©rique de Fornel, Pierre-No√´l Favennec",2006,1,Wiley-ISTE,,219,0,English,,,,"1905209029,978-1-905209-02-6",,,,,,,,,,,0,,,,,,,1,5252497,pdf,51a2a54e2ed3efc0ccc25a5e0773bd28,,,D:\\HDD4\\_missing\\51a2a54e2ed3efc0ccc25a5e0773bd28(1).pdf,0,2000-01-01 01:00:00,2016-04-03 02:51:08,1152000/51a2a54e2ed3efc0ccc25a5e0773bd28-d.jpg,,
15921847,"Ruined by Excess, Perfected by Lack: The Paradox of Pet Nutrition",,,,R. Patton,2011,1,Nottingham University Press,,278,0,English,,,,"1904761720,978-1-904761-72-3",,,,,,,,,,,0,,,,,,,1,4460602,pdf,5174f1a6690d863f408c7c63133f0ac3,,,D:\\HDD4\\_missing\\5174f1a6690d863f408c7c63133f0ac3.pdf,0,2000-01-01 01:00:00,2016-04-03 02:51:08,1152000/5174f1a6690d863f408c7c63133f0ac3-d.jpg,,
15921848,Making Sense of Construction Improvement,,,,Stuart D. Green,2011,,Wiley-Blackwell,,392,0,English,,,,"1405130466,978-1-4051-3046-2",,,,,,,,,,,0,,,,,,,1,3756011,pdf,519e8232a636cfcb3f13b94c83490963,,,D:\\HDD4\\_missing\\519e8232a636cfcb3f13b94c83490963.pdf,0,2000-01-01 01:00:00,2016-04-03 02:51:08,1152000/519e8232a636cfcb3f13b94c83490963-d.jpg,,
15921846,"Diagnosing Learning Disorders, Second Edition: A Neuropsychological Framework",,,,Bruce F. Pennington PhD,2008,Second Edition,The Guilford Press,,355,0,English,,,,"1593857144,978-1-59385-714-1",,,,,,,,,,,0,,,,,,,1,3298183,pdf,51592f1c1a3d1936db46dff050d6208d,,,D:\\HDD4\\_missing\\51592f1c1a3d1936db46dff050d6208d.pdf,0,2000-01-01 01:00:00,2016-04-03 02:51:08,1152000/51592f1c1a3d1936db46dff050d6208d-d.jpg,,
15921844,How to Succeed at E-learning,,,,"Peter Donnelly, Joel Benson, Paul Kirk",2012,12,Wiley-Blackwell,,160,0,English,,,,"0470670231,978-0-470-67023-1",,,,,,,,,,,0,,,,,,,1,3187302,pdf,514332ee73a2c6a30daa81fc464a28dc,,,D:\\HDD4\\_missing\\514332ee73a2c6a30daa81fc464a28dc.pdf,0,2000-01-01 01:00:00,2016-04-03 02:51:08,1152000/514332ee73a2c6a30daa81fc464a28dc-d.jpg,,
15921845,Database of Piano Chords: An Engineering View of Harmony,,SpringerBriefs in Electrical and Computer Engineering,,"Ana M. Barbancho, Isabel Barbancho, Lorenzo J. Tard√≥n, Emilio Molina",2013,,Springer,,60,0,English,,,,"1461474752,978-1-4614-7475-3,978-1-4614-7476-0",,,,,,,10.1007/978-1-4614-7476-0,,,,0,,,,,,,1,3364604,pdf,5144abd797f4b038543e50223abfd5ee,,,D:\\HDD4\\_missing\\5144abd797f4b038543e50223abfd5ee.pdf,0,2000-01-01 01:00:00,2016-04-03 02:51:08,1152000/5144abd797f4b038543e50223abfd5ee-d.jpg,,
15921841,"Managing the Use of Force Incident: For Criminal Justice Officers, Supervisors, and Administrators",,,,Howard Webb,2011,,Charles C Thomas Pub Ltd,,404,0,English,,,,"0398086575,978-0-398-08657-2,978-0-398-08658-9,978-0-398-08659-6",,,,,,,,,,,0,,,,,,,1,3437171,pdf,512d48aaf2d1783f28df8d161790c10f,,,D:\\HDD4\\_missing\\512d48aaf2d1783f28df8d161790c10f(1).pdf,0,2000-01-01 01:00:00,2016-04-03 02:51:08,1152000/512d48aaf2d1783f28df8d161790c10f-d.jpg,,
15921842,The Ultimate Teaching Manual: A route to success for beginning teachers,,,,Gererd Dixie,2011,1,Continuum,,224,0,English,,,,"144118886X,978-1-4411-8886-1",,,,,,,,,,,0,,,,,,,1,3623928,pdf,5137e21c7fa7faf61fbe0a0e2dfbe657,,,D:\\HDD4\\_missing\\5137e21c7fa7faf61fbe0a0e2dfbe657.pdf,0,2000-01-01 01:00:00,2016-04-03 02:51:08,1152000/5137e21c7fa7faf61fbe0a0e2dfbe657-d.jpg,,
15921843,"The Pain-Free Program: A Proven Method to Relieve Back, Neck, Shoulder, and Joint Pain",,,,Anthony B. Carey,2005,1,Wiley,,264,0,English,,,,"0-471-68720-0,978-0-471-68720-7",,,,,,,,,,,0,,,,,,,1,3237833,pdf,513e849640da8e4465c45821e6b626f5,,,D:\\HDD4\\_missing\\513e849640da8e4465c45821e6b626f5.pdf,0,2000-01-01 01:00:00,2016-04-03 02:51:08,1152000/513e849640da8e4465c45821e6b626f5-d.jpg,,
15921839,"Moral Selves, Evil Selves: The Social Psychology of Conscience",,,,Steven Hitlin,2008,,Palgrave Macmillan,,284,0,English,,,,"0-230-60395-5,978-0-230-60395-0",,,,,,,,,,,0,,,,,,,1,3320068,pdf,5114b0adf985f2fcab66a752a05795b9,,,D:\\HDD4\\_missing\\5114b0adf985f2fcab66a752a05795b9.pdf,0,2000-01-01 01:00:00,2016-04-03 02:51:08,1152000/5114b0adf985f2fcab66a752a05795b9-d.jpg,,
15921840,Conquering Math Anxiety,,with CD-ROM,,Cynthia A. Arem,2009,3,Cengage Learning,,240,0,English,,,,"0-495-82940-4,978-0-495-82940-9",,,,,,,,,,,0,,,,,,,1,3960805,pdf,512873a9981b9e899d20f804b9946583,,,D:\\HDD4\\_missing\\512873a9981b9e899d20f804b9946583.pdf,0,2000-01-01 01:00:00,2016-04-03 02:51:08,1152000/512873a9981b9e899d20f804b9946583-d.jpg,,
15921838,Essays in the Philosophy and History of Logic and Mathematics,,Poznan Studies in the Philosophy of the Sciences & the Humanities,,"Roman Murawski, Jan Wole Ski",2010,,Rodopi,,344,0,English,,,,"9042030909,978-90-420-3090-9,978-90-420-3091-6",,,,,,,,,,,0,,,,,,,1,3188755,pdf,50eec0576e576407c31ecb2f9ccde8ab,,,D:\\HDD4\\_missing\\50eec0576e576407c31ecb2f9ccde8ab.pdf,0,2000-01-01 01:00:00,2016-04-03 02:51:08,1152000/50eec0576e576407c31ecb2f9ccde8ab-d.jpg,,
15921836,Western Civilization: Volume C: Since 1789,,,,Jackson J. Spielvogel,2008,7,Wadsworth Publishing,,1000,0,English,,,,"0-495-50290-1,978-0-495-50290-6",,,,,,,,,,,0,,,,,,,1,109033667,pdf,50d3d31750d33350dd9e606a2fc2e607,,,D:\\HDD4\\_missing\\50d3d31750d33350dd9e606a2fc2e607.pdf,0,2000-01-01 01:00:00,2016-04-03 02:51:08,1152000/50d3d31750d33350dd9e606a2fc2e607-d.jpg,,
15921837,Kant on God,,Ashgate Studies in the History of Philosophical Theology,,Peter Byrne,2007,,Ashgate Pub Co,,183,0,English,,,,"0754640221,978-0-7546-4022-6,978-0-7546-4023-3",,,,,,,,,,,0,,,,,,,1,3312660,pdf,50d8f8afda453041d0f98e6a1f76d131,,,D:\\HDD4\\_missing\\50d8f8afda453041d0f98e6a1f76d131.pdf,0,2000-01-01 01:00:00,2016-04-03 02:51:08,1152000/50d8f8afda453041d0f98e6a1f76d131-d.jpg,,
15921834,Textual Research on the Psalms and Gospels / Recherches textuelles sur les psaumes et les evangiles: Papers From the Tbilisi Colloquium on the Editing ... 2007,,Supplements to Novum Testamentum,,"Christian-B. Amphoux, J. Keith Elliott, Bernard Outtier",2011,Bilingual,Brill Academic Pub,,272,0,English,,,,"9004209271,978-90-04-20927-5,978-90-04-21443-9",,,,,,,,,,,0,,,,,,,1,4546072,pdf,50b7e1e03dca8b0e8c5cec550165795a,,,D:\\HDD4\\_missing\\50b7e1e03dca8b0e8c5cec550165795a.pdf,0,2000-01-01 01:00:00,2016-04-03 02:51:08,1152000/50b7e1e03dca8b0e8c5cec550165795a-d.jpg,,
15921835,Array Comparative Genomic Hybridization: Protocols and Applications,,Methods in Molecular Biology,,"Diponkar Banerjee, Sohrab P. Shah",2013,,Humana Press,,396,0,English,,,,"1627032800,978-1-62703-280-3,978-1-62703-281-0",,,,,,,10.1007/978-1-62703-281-0,,,,0,,,,,,,1,6594353,pdf,50ce1397d33d0f5a62f9296f7050a20c,,,D:\\HDD4\\_missing\\50ce1397d33d0f5a62f9296f7050a20c.pdf,0,2000-01-01 01:00:00,2016-04-03 02:51:08,1152000/50ce1397d33d0f5a62f9296f7050a20c-d.jpg,,
15921833,Fundamentals Of Robotic Grasping And Fixturing,,Series on Manufacturing Systems and Technology,,Caihua Xiong,2007,,World Scientific Publishing Company,,228,0,English,,,,"981-277-183-2,978-981-277-183-4",,,,,,,,,,,0,,,,,,,1,3251449,pdf,508e75c31c368f68943780a4c33164bd,,,D:\\HDD4\\_missing\\508e75c31c368f68943780a4c33164bd.pdf,0,2000-01-01 01:00:00,2016-04-03 02:51:08,1152000/508e75c31c368f68943780a4c33164bd-d.jpg,,
15921831,Introduction to Geometrical Optics,,,,Milton Katz,2003,1,World Scientific Pub Co Inc,,328,0,English,,,,"981-238-202-X,9789812382023,981-238-224-0",,,,,,,,,,,0,,,,,,,1,7047669,pdf,505a923bd599dcefd7224ae38398a16a,,,D:\\HDD4\\_missing\\505a923bd599dcefd7224ae38398a16a.pdf,0,2000-01-01 01:00:00,2016-04-03 02:51:08,1152000/505a923bd599dcefd7224ae38398a16a-d.jpg,,
15921832,The Global Financial Crisis,,,,Tony Ciro,2012,,Ashgate,,260,0,English,,,,"1409411397,978-1-4094-1139-0,978-1-4094-1140-6",,,,,,,,,,,0,,,,,,,1,4295880,pdf,5077c81fd3fbdea19ea70413c84c183f,,,D:\\HDD4\\_missing\\5077c81fd3fbdea19ea70413c84c183f.pdf,0,2000-01-01 01:00:00,2016-04-03 02:51:08,1152000/5077c81fd3fbdea19ea70413c84c183f-d.jpg,,
15921829,Running Science,,,,Owen Anderson,2013,,Human Kinetics,,608,0,English,,,,"0-7360-7418-X,978-0-7360-7418-6",,,,,,,,,,,0,,,,,,,1,10773682,pdf,50314678921b5a32d18fb5b9ca3d004a,,,D:\\HDD4\\_missing\\50314678921b5a32d18fb5b9ca3d004a.pdf,0,2000-01-01 01:00:00,2016-04-03 02:51:08,1152000/50314678921b5a32d18fb5b9ca3d004a-d.jpg,,
15921830,The Precariat: The New Dangerous Class,,,,Guy Standing,2011,,Bloomsbury Academic,,192,0,English,,,,"1849663521,978-1-84966-352-6,978-1-84966-351-9,978-1-84966-456-1,978-1-84966-454-7",,,,,,,,,,,0,,,,,,,1,4992800,pdf,505a33a3164771c89b247b054b52c096,,,D:\\HDD4\\_missing\\505a33a3164771c89b247b054b52c096.pdf,0,2000-01-01 01:00:00,2016-04-03 02:51:08,1152000/505a33a3164771c89b247b054b52c096-d.jpg,,
15921827,Introduction to Neural Engineering for Motor Rehabilitation,,IEEE Press Series on Biomedical Engineering,,"Dario Farina, Winnie Jensen, Metin Akay",2013,1,Wiley-IEEE Press,,600,0,English,,,,"0470916737,978-0-470-91673-5",,,,,,,,,,,0,,,,,,,1,13086299,pdf,500255cf9dc0460478c9f0de6d6c454e,,,D:\\HDD4\\_missing\\500255cf9dc0460478c9f0de6d6c454e.pdf,0,2000-01-01 01:00:00,2016-04-03 02:51:08,1152000/500255cf9dc0460478c9f0de6d6c454e-d.jpg,,
15921828,Designing Sociable Robots,,Intelligent Robotics and Autonomous Agents,,Cynthia Breazeal,2002,1st,The MIT Press,,281,0,English,,,,"0-262-02510-8,9780262025102",,,,,,,,,,,0,,,,,,,1,3401147,pdf,500b0d6e02f11813bf398f91c5616ffd,,,D:\\HDD4\\_missing\\500b0d6e02f11813bf398f91c5616ffd.pdf,0,2000-01-01 01:00:00,2016-04-03 02:51:08,1152000/500b0d6e02f11813bf398f91c5616ffd-d.jpg,,
15921825,"Truth, Lies, and Online Dating: Secrets to Finding Romance on the Internet",,,,"Terry Ulick, Alyssa Wodtke",2005,1,Cengage Learning PTR,,275,0,English,,,,"1-59200-916-6,9781592009169",,,,,,,,,,,0,,,,,,,1,12431725,pdf,4fdd0633b72bfe66f5f421cf2ecbd080,,,D:\\HDD4\\_missing\\4fdd0633b72bfe66f5f421cf2ecbd080.pdf,0,2000-01-01 01:00:00,2016-04-03 02:51:08,1152000/4fdd0633b72bfe66f5f421cf2ecbd080-d.jpg,,
15921826,Constructing Reality: Quantum Theory and Particle Physics,,,,John Marburger,2011,0,Cambridge University Press,,296,0,English,,,,"1107004837,978-1-107-00483-2",,,,,,,,,,,0,,,,,,,1,3092237,pdf,4ff97826db4ba40a53bc4256a057c67d,,,D:\\HDD4\\_missing\\4ff97826db4ba40a53bc4256a057c67d.pdf,0,2000-01-01 01:00:00,2016-04-03 02:51:08,1152000/4ff97826db4ba40a53bc4256a057c67d-d.jpg,,
15921823,The Dyslexic Adult: Interventions and Outcomes - An Evidence-based Approach,,,,"David McLoughlin, Carol Leather",2013,2,Wiley-Blackwell,,336,0,English,,,,"1119973945,978-1-119-97394-2,978-1-119-97393-5",,,,,,,,,,,0,,,,,,,1,3420640,pdf,4fa294383908c2f525a8aaab2048fedf,,,D:\\HDD4\\_missing\\4fa294383908c2f525a8aaab2048fedf.pdf,0,2000-01-01 01:00:00,2016-04-03 02:51:08,1152000/4fa294383908c2f525a8aaab2048fedf-d.jpg,,
15921824,Best Practices in Lean Six Sigma Process Improvement,,,,Richard J. Schonberger,2007,,Wiley,,304,0,English,,,,"0470168862,978-0-470-16886-8",,,,,,,,,,,0,,,,,,,1,4011834,pdf,4fc68157f5d8840ca404efcbdab07ab5,,,D:\\HDD4\\_missing\\4fc68157f5d8840ca404efcbdab07ab5.pdf,0,2000-01-01 01:00:00,2016-04-03 02:51:08,1152000/4fc68157f5d8840ca404efcbdab07ab5-d.jpg,,
15921821,Academic and Behavior Supports for At-Risk Students: Tier 2 Interventions,,Guilford Practical Intervention in the Schools Series,,"Melissa Stormont, Wendy M. Reinke, Keith C. Herman, Erica S. Lembke",2012,Lay-Flat,The Guilford Press,,222,0,English,,,,"1462503047,978-1-4625-0304-9",,,,,,,,,,,0,,,,,,,1,3179501,pdf,4f9d8e3fa465c32270486eb1f5f95759,,,D:\\HDD4\\_missing\\4f9d8e3fa465c32270486eb1f5f95759.pdf,0,2000-01-01 01:00:00,2016-04-03 02:51:08,1152000/4f9d8e3fa465c32270486eb1f5f95759-d.jpg,,
15921822,The Last Empress: The She-Dragon of China,,,,Keith Laidler,2003,1,Wiley,,316,0,English,,,,"0-470-84880-4,9780470848807",,,,,,,,,,,0,,,,,,,1,3845815,pdf,4f9dc1390e0e94cfa27893d5206ce2ff,,,D:\\HDD4\\_missing\\4f9dc1390e0e94cfa27893d5206ce2ff.pdf,0,2000-01-01 01:00:00,2016-04-03 02:51:08,1152000/4f9dc1390e0e94cfa27893d5206ce2ff-d.jpg,,
15921819,The Quantum Mechanics Solver: How to Apply Quantum Theory to Modern Physics,,,,"Jean-Louis Basdevant, Jean Dalibard",2005,2nd,Springer,,292,0,English,,,,"3-540-27721-8,978-3-540-27721-7,3-540-63409-6,978-3-540-63409-6",,,,,,,,,,,0,,,,,,,1,3929682,pdf,4f56b9eb353587263af377a40967b28e,,,D:\\HDD4\\_missing\\4f56b9eb353587263af377a40967b28e.pdf,0,2000-01-01 01:00:00,2016-04-03 02:51:08,1152000/4f56b9eb353587263af377a40967b28e-d.jpg,,
15921820,Magnetic Resonance in Chemistry and Medicine,,,,Ray Freeman,2003,1,"Oxford University Press, USA",,290,0,English,,,,"0-19-926225-X,9780199262250",,,,,,,,,,,0,,,,,,,1,15987845,pdf,4f5fffc0d99f7cab379a620e78e019c0,,,D:\\HDD4\\_missing\\4f5fffc0d99f7cab379a620e78e019c0.pdf,0,2000-01-01 01:00:00,2016-04-03 02:51:08,1152000/4f5fffc0d99f7cab379a620e78e019c0-d.jpg,,
15921817,CSS Instant Results,,Programmer to Programmer,,Richard York,2006,,Wrox,,383,0,English,,,,"0-471-75126-X,978-0-471-75126-7",,,,,,,,,,,0,,,,,,,1,14251827,pdf,4f3417346626bfc0941feb3c8211c7f8,,,D:\\HDD4\\_missing\\4f3417346626bfc0941feb3c8211c7f8.pdf,0,2000-01-01 01:00:00,2016-04-03 02:51:08,1152000/4f3417346626bfc0941feb3c8211c7f8-d.jpg,,
15921818,Green Energy: Sustainable Electricity Supply with Low Environmental Impact,,,,Eric Jeffs,2009,1,CRC Press,,236,0,English,,,,"1439818924,978-1-4398-1892-3",,,,,,,,,,,0,,,,,,,1,3303781,pdf,4f4d9c3f6027b32f81651eeed46976a6,,,D:\\HDD4\\_missing\\4f4d9c3f6027b32f81651eeed46976a6(1).pdf,0,2000-01-01 01:00:00,2016-04-03 02:51:08,1152000/4f4d9c3f6027b32f81651eeed46976a6-d.jpg,,
15921815,Living in a Material World: The Commodity Connection,,Wiley Finance,,Kevin Morrison,2008,1,Wiley,,308,0,English,,,,"047051891X,978-0-470-51891-5",,,,,,,,,,,0,,,,,,,1,3824821,pdf,4f26a86be71e4250446ba743eb652642,,,D:\\HDD4\\_missing\\4f26a86be71e4250446ba743eb652642.pdf,0,2000-01-01 01:00:00,2016-04-03 02:51:08,1152000/4f26a86be71e4250446ba743eb652642-d.jpg,,
15921816,Handbook of Transcription Factor NF-kappaB,,,,Sankar Ghosh,2006,1,CRC Press,,232,0,English,,,,"0849327946,978-0-8493-2794-0",,,,,,,,,,,0,,,,,,,1,27240477,pdf,4f2b091a08364d874789c5ca0f00c1c2,,,D:\\HDD4\\_missing\\4f2b091a08364d874789c5ca0f00c1c2.pdf,0,2000-01-01 01:00:00,2016-04-03 02:51:08,1152000/4f2b091a08364d874789c5ca0f00c1c2-d.jpg,,
15921813,Living Without Domination: The Possibility of an Anarchist Utopia,,Ashgate New Critical Thinking in Philosophy,,Samuel Clark,2007,,Ashgate Pub Co,,174,0,English,,,,"0-7546-5461-3,978-0-7546-5461-2",,,,,,,,,,,0,,,,,,,1,3196349,pdf,4f16faf171186c4dea969c08236ed446,,,D:\\HDD4\\_missing\\4f16faf171186c4dea969c08236ed446.pdf,0,2000-01-01 01:00:00,2016-04-03 02:51:08,1152000/4f16faf171186c4dea969c08236ed446-d.jpg,,
15921814,The Middle East in Turmoil,,,,John V. Canfield,2002,,Nova Science Pub Inc,,190,0,English,,,,"1-59033-160-5,9781590331606,978-1-60692-366-5,978-1-60741-518-3,978-1-61470-176-7",,,,,,,,,,,0,,,,,,,1,3290403,pdf,4f219d41a67ef3a440eafd8915b19216,,,D:\\HDD4\\_missing\\4f219d41a67ef3a440eafd8915b19216.pdf,0,2000-01-01 01:00:00,2016-04-03 02:51:08,1152000/4f219d41a67ef3a440eafd8915b19216-d.jpg,,
15921811,Echocardiography in Congenital Heart Disease Made Simple,,Cardiopulmonary Medicine from Imperial College Press,,"Siew Yen Ho, Michael L. Rigby, Robert Henry Anderson",2005,1,World Scientific Publishing Company,,260,0,English,,,,"1-86094-124-9,9781860941245",,,,,,,,,,,0,,,,,,,1,21141991,pdf,4f0ceeb2c5dfc6e1aca896f191a806ed,,,D:\\HDD4\\_missing\\4f0ceeb2c5dfc6e1aca896f191a806ed.pdf,0,2000-01-01 01:00:00,2016-04-03 02:51:08,1152000/4f0ceeb2c5dfc6e1aca896f191a806ed-d.jpg,,
15921812,"Disunion!: The Coming of the American Civil War, 1789-1859",,Littlefield History of the Civil War Era,,Elizabeth R. Varon,2008,,The University of North Carolina Press,,416,0,English,,,,"0807832324,978-0-8078-3232-5",,,,,,,,,,,0,,,,,,,1,4977040,pdf,4f114ccd1c95dc54bdc4ae774db3a5fc,,,D:\\HDD4\\_missing\\4f114ccd1c95dc54bdc4ae774db3a5fc(1).pdf,0,2000-01-01 01:00:00,2016-04-03 02:51:08,1152000/4f114ccd1c95dc54bdc4ae774db3a5fc-d.jpg,,
15921809,Chaos Theory in the Social Sciences: Foundations and Applications,,,,"L. Douglas Kiel, Euel Elliott",1996,,Univ of Michigan Pr,,349,0,English,,,,"0-472-10638-4,9780472106387,0-472-08472-0",,,,,,,,,,,0,,,,,,,1,10801082,pdf,4ef0276c69410813c84c3e1125e4b23a,,,D:\\HDD4\\_missing\\4ef0276c69410813c84c3e1125e4b23a(1).pdf,0,2000-01-01 01:00:00,2016-04-03 02:51:08,1152000/4ef0276c69410813c84c3e1125e4b23a-d.jpg,,
15921810,The Bureaucracy of Beauty: Design in the Age of its Global Reproducibility,,,,Arindam Dutta,2006,0,Routledge,,376,0,English,,,,"0-415-97919-6,978-0-415-97919-1,0-415-97920-X",,,,,,,,,,,0,,,,,,,1,5464852,pdf,4ef2a31a506133c36f898f52b80ca909,,,D:\\HDD4\\_missing\\4ef2a31a506133c36f898f52b80ca909.pdf,0,2000-01-01 01:00:00,2016-04-03 02:51:08,1152000/4ef2a31a506133c36f898f52b80ca909-d.jpg,,
15921807,The Two Faces of American Freedom,,,,Aziz Rana,2010,,Harvard University Press,,432,0,English,,,,"0674048970,978-0-674-04897-3",,,,,,,,,,,0,,,,,,,1,3915631,pdf,4edbbc5f4844dd3c50a15fa771b54ce1,,,D:\\HDD4\\_missing\\4edbbc5f4844dd3c50a15fa771b54ce1.pdf,0,2000-01-01 01:00:00,2016-04-03 02:51:08,1152000/4edbbc5f4844dd3c50a15fa771b54ce1-d.jpg,,
15921808,The Spiritual-Industrial Complex: America's Religious Battle against Communism in the Early Cold War,,,,Jonathan P. Herzog,2011,,"Oxford University Press, USA",,288,0,English,,,,"0195393465,978-0-19-539346-0",,,,,,,,,,,0,,,,,,,1,4946236,pdf,4eecbc0c01280a7fe80c65b6ab34c275,,,D:\\HDD4\\_missing\\4eecbc0c01280a7fe80c65b6ab34c275.pdf,0,2000-01-01 01:00:00,2016-04-03 02:51:08,1152000/4eecbc0c01280a7fe80c65b6ab34c275-d.jpg,,
15921805,Rational Decisions,,Gorman Lectures in Economics,,Ken Binmore,2008,0,Princeton University Press,,216,0,English,,,,"0691130744,978-0-691-13074-3",,,,,,,,,,,0,,,,,,,1,3233874,pdf,4ed1d987e710447879cbff1055d4bbd2,,,D:\\HDD4\\_missing\\4ed1d987e710447879cbff1055d4bbd2.pdf,0,2000-01-01 01:00:00,2016-04-03 02:51:08,1152000/4ed1d987e710447879cbff1055d4bbd2-d.jpg,,
15921806,Mechanics of Real Fluids,,,,"M. Rahman, M. Rahman",2011,1,WIT Press / Computational Mechanics,,256,0,English,,,,"1845645022,978-1-84564-502-1",,,,,,,,,,,0,,,,,,,1,3265474,pdf,4edafc17bb4bea523aea9f0474f82b32,,,D:\\HDD4\\_missing\\4edafc17bb4bea523aea9f0474f82b32.pdf,0,2000-01-01 01:00:00,2016-04-03 02:51:08,1152000/4edafc17bb4bea523aea9f0474f82b32-d.jpg,,
15921804,Digital Media Processing: DSP Algorithms Using C,,,,Hazarathaiah Malepati,2010,1,Newnes,,768,0,English,,,,"1856176789,978-1-85617-678-1",,,,,,,,,,,0,,,,,,,1,12177866,pdf,4ec42ef5f5bf636977473fd40564f3d2,,,D:\\HDD4\\_missing\\4ec42ef5f5bf636977473fd40564f3d2.pdf,0,2000-01-01 01:00:00,2016-04-03 02:51:08,1152000/4ec42ef5f5bf636977473fd40564f3d2-d.jpg,,
15921802,Unexpected Consequences: Why The Things We Trust Fail,,,,James William Martin,2011,,Praeger,,280,0,English,,,,"0313393117,978-0-313-39311-2,978-0-313-39312-9",,,,,,,,,,,0,,,,,,,1,3352847,pdf,4e9099df0ff5b0be4b71c9fc1d43f2bd,,,D:\\HDD4\\_missing\\4e9099df0ff5b0be4b71c9fc1d43f2bd.pdf,0,2000-01-01 01:00:00,2016-04-03 02:51:08,1152000/4e9099df0ff5b0be4b71c9fc1d43f2bd-d.jpg,,
15921803,"Culture, Relevance, and Schooling: Exploring Uncommon Ground",,,,"Lisa Scherff, Karen Spector, Dorothy E. Aguilera-Black Bear, Carolyn Albright, Angela Calabrese Barton, Corey Drake, Miguel Manter, Kenan Metzger, Joshua I. Newman, Nadjwa E. L. Norton, Alfred Tatum, Ryan King-White, Charnita V. West, Kristien Zenkov",2011,,R&L Education,,176,0,English,,,,"1607098881,978-1-60709-888-1,978-1-60709-889-8,978-1-60709-890-4",,,,,,,,,,,0,,,,,,,1,3511061,pdf,4e93f7c219832e63c50500110fdef587,,,D:\\HDD4\\_missing\\4e93f7c219832e63c50500110fdef587.pdf,0,2000-01-01 01:00:00,2016-04-03 02:51:08,1152000/4e93f7c219832e63c50500110fdef587-d.jpg,,
15921800,Lung Cancer Therapy Annual 7,,,,Rolf  A. Stahel,2012,7,CRC Press,,176,0,English,,,,"1841848654,978-1-8418-4865-5,978-184-1-84867-9",,,,,,,,,,,0,,,,,,,1,4916893,pdf,4e7aa47301c966cc221efe7c34379f61,,,D:\\HDD4\\_missing\\4e7aa47301c966cc221efe7c34379f61.pdf,0,2000-01-01 01:00:00,2016-04-03 02:51:08,1152000/4e7aa47301c966cc221efe7c34379f61-d.jpg,,
15921801,Approximate Kalman Filtering,,Approximations and Decompositions,,Guanrong Chen,1993,,World Scientific Pub Co Inc,,300,0,English,,,,"981021359X,9789810213596",,,,,,,,,,,0,,,,,,,1,105957553,pdf,4e8a8f76faeaf7fbe044793b20edf42a,,,D:\\HDD4\\_missing\\4e8a8f76faeaf7fbe044793b20edf42a.pdf,0,2000-01-01 01:00:00,2016-04-03 02:51:08,1152000/4e8a8f76faeaf7fbe044793b20edf42a-d.gif,,
15921798,Greco-Roman Culture and the New Testament: Studies Commemorating the Centennial of the Pontifical Biblical Institute,,Supplements to Novum Testamentum,,"David E. Aune, Frederick E. Brenk",2012,,Brill Academic Pub,,218,0,English,,,,"9004226311,978-90-04-22631-9",,,,,,,,,,,0,,,,,,,1,3715991,pdf,4e5e47e40fe1ecfdb1ff701428696e61,,,D:\\HDD4\\_missing\\4e5e47e40fe1ecfdb1ff701428696e61.pdf,0,2000-01-01 01:00:00,2016-04-03 02:51:08,1152000/4e5e47e40fe1ecfdb1ff701428696e61-d.jpg,,
15921799,The Road from Mont Pelerin: The Making of the Neoliberal Thought Collective,,,,"Philip Mirowski, Dieter Plehwe",2009,1,Harvard University Press,,480,0,English,,,,"0674033183,978-0-674-03318-4",,,,,,,,,,,0,,,,,,,1,3285365,pdf,4e65e1174c275c9dccfbe332ff7f873c,,,D:\\HDD4\\_missing\\4e65e1174c275c9dccfbe332ff7f873c.pdf,0,2000-01-01 01:00:00,2016-04-03 02:51:08,1152000/4e65e1174c275c9dccfbe332ff7f873c-d.jpg,,
15921796,Real Astronomy with Small Telescopes: Step-by-Step Activities for Discovery,,The Patrick Moore Practical Astronomy Series,,Michael Gainer,2006,,Springer,,148,0,English,,,,"1-84628-478-3,978-1-84628-478-6,1-84628-508-9,978-1-84628-508-0",,,,,,,,,,,0,,,,,,,1,7542274,pdf,4e09d8669b9658f9da75b21e5c431f56,,,D:\\HDD4\\_missing\\4e09d8669b9658f9da75b21e5c431f56(1).pdf,0,2000-01-01 01:00:00,2016-04-03 02:51:08,1152000/4e09d8669b9658f9da75b21e5c431f56-d.jpg,,
15921797,Pro VB 2010 and the .NET 4.0 Platform,,,,"Andrew Troelsen, Vidya Vrat Agarwal",2010,1,Apress,,1800,0,English,,,,"1430229853,978-1-4302-2985-8,978-1-4302-2986-5",,,,,,,,,,,0,,,,,,,1,24124334,pdf,4e55b0348f9fd5f1b7a9795626a9b5ce,,,D:\\HDD4\\_missing\\4e55b0348f9fd5f1b7a9795626a9b5ce.pdf,0,2000-01-01 01:00:00,2016-04-03 02:51:08,1152000/4e55b0348f9fd5f1b7a9795626a9b5ce-d.jpg,,
15921795,Biopesticides: Pest Management and Regulation,,,,"Alastair Bailey, David Chandler, Wyn Grant, Justin Greaves, Gillian Prince, Mark Tatchell",2010,First,CABI,,240,0,English,,,,"1845935594,978-1-84593-559-7",,,,,,,,,,,0,,,,,,,1,3552205,pdf,4dee54a3e55cb2dc8e002f3f0e9104d1,,,D:\\HDD4\\_missing\\4dee54a3e55cb2dc8e002f3f0e9104d1.pdf,0,2000-01-01 01:00:00,2016-04-03 02:51:08,1152000/4dee54a3e55cb2dc8e002f3f0e9104d1-d.jpg,,
15921793,Movie Love: Complete Reviews 1988-1991,,Plume,,Pauline Kael,1991,0,Plume,,368,0,English,,,,"0-452-26635-1,9780452266353",,,,,,,,,,,0,,,,,,,1,21338102,pdf,4dee23bdc8d6568413b8f68f256299f0,,,D:\\HDD4\\_missing\\4dee23bdc8d6568413b8f68f256299f0.pdf,0,2000-01-01 01:00:00,2016-04-03 02:51:08,1152000/4dee23bdc8d6568413b8f68f256299f0-d.jpg,,
15921794,Set-theoretic Fault-tolerant Control in Multisensor Systems,,ISTE,,"Florin Stoican, Sorin Olaru",2013,1,Wiley-ISTE,,176,0,English,,,,"1848215657,978-1-84821-565-8",,,,,,,,,,,0,,,,,,,1,3315278,pdf,4dee53e038ff88718cca228f8c7ac614,,,D:\\HDD4\\_missing\\4dee53e038ff88718cca228f8c7ac614.pdf,0,2000-01-01 01:00:00,2016-04-03 02:51:08,1152000/4dee53e038ff88718cca228f8c7ac614-d.jpg,,
15921791,SystemVerilog for Design Second Edition: A Guide to Using SystemVerilog for Hardware Design and Modeling,,,,"Stuart Sutherland, Simon Davidmann, Peter Flake, P. Moorby",2006,2nd,Springer,,418,0,English,,,,"0-387-33399-1,9780387333991,0-387-36495-1",,,,,,,,,,,0,,,,,,,1,3540538,pdf,4dae373b93090c1754eb55edf33e901f,,,D:\\HDD4\\_missing\\4dae373b93090c1754eb55edf33e901f.pdf,0,2000-01-01 01:00:00,2016-04-03 02:51:08,1152000/4dae373b93090c1754eb55edf33e901f-d.jpg,,
15921792,Foundations of Comparative Politics,,Cambridge Textbooks in Comparative Politics,,"Kenneth Newton, Jan W. van Deth",2009,2,Cambridge University Press,,472,0,English,,,,"0521199883,978-0-521-19988-9,978-0-521-13679-2",,,,,,,,,,,0,,,,,,,1,5564013,pdf,4de3f7a7cd71c4cfac18bf66a909daaa,,,D:\\HDD4\\_missing\\4de3f7a7cd71c4cfac18bf66a909daaa.pdf,0,2000-01-01 01:00:00,2016-04-03 02:51:08,1152000/4de3f7a7cd71c4cfac18bf66a909daaa-d.jpg,,
15921789,Tudor Protestant Political Thought 1547-1603,,Studies in the History of Christian Thought,,Stephen A. Chavura,2011,,BRILL,,252,0,English,,,,"9004206329,978-90-04-20632-8",,,,,,,,,,,0,,,,,,,1,3942080,pdf,4d95174da095faab323c4b6656d64a95,,,D:\\HDD4\\_missing\\4d95174da095faab323c4b6656d64a95.pdf,0,2000-01-01 01:00:00,2016-04-03 02:51:08,1152000/4d95174da095faab323c4b6656d64a95-d.jpg,,
15921790,In the Light of Evolution V: Cooperation and Conflict,,,,"National Academy of Sciences, Joan E. Strassman, David C. Queller, John C. Avise, Francisco J. Ayala",2012,,National Academies Press,,466,0,English,,,,"0-309-21836-5,978-0-309-21836-8",,,,,,,,,,,0,,,,,,,1,13734499,pdf,4dac1b2e80cda3a6c3e605fff34d044e,,,D:\\HDD4\\_missing\\4dac1b2e80cda3a6c3e605fff34d044e.pdf,0,2000-01-01 01:00:00,2016-04-03 02:51:08,1152000/4dac1b2e80cda3a6c3e605fff34d044e-d.jpg,,
15921787,Stan Brakhage: Filmmaker,,Wide Angle Books,,David James,2005,1,Temple University Press,,248,0,English,,,,"1-59213-271-5,9781592132713,1-59213-272-3",,,,,,,,,,,0,,,,,,,1,37940707,pdf,4d890168e3c9138a20dbc58f6817d61e,,,D:\\HDD4\\_missing\\4d890168e3c9138a20dbc58f6817d61e.pdf,0,2000-01-01 01:00:00,2016-04-03 02:51:08,1152000/4d890168e3c9138a20dbc58f6817d61e-d.jpg,,
15921788,Cucumber Recipes: Automate Anything with BDD Tools and Techniques,,Pragmatic Programmers,,"Ian Dees, Matt Wynne, Aslak Hellesoy",2013,,Pragmatic Bookshelf,,250,0,English,,,,"1937785017,978-1-937785-01-7",,,,,,,,,,,0,,,,,,,1,6225449,pdf,4d8fc4e3ca731277ca4c3cc5fcdfdef1,,,D:\\HDD4\\_missing\\4d8fc4e3ca731277ca4c3cc5fcdfdef1.pdf,0,2000-01-01 01:00:00,2016-04-03 02:51:08,1152000/4d8fc4e3ca731277ca4c3cc5fcdfdef1-d.jpg,,
15921785,Understanding Health Inequalities,,,,Hilary Graham,2009,2,Open University Press,,248,0,English,,,,"0335234593,978-0-335-23459-2",,,,,,,,,,,0,,,,,,,1,3322769,pdf,4d3575a55421f1407e34914ca147028e,,,D:\\HDD4\\_missing\\4d3575a55421f1407e34914ca147028e.pdf,0,2000-01-01 01:00:00,2016-04-03 02:51:08,1152000/4d3575a55421f1407e34914ca147028e-d.jpg,,
15921786,Tomatoes,,Crop Production Science in Horticulture,,Ep Heuvelink,2005,First,CABI,,256,0,English,,,,"0-85199-396-6,9780851993966",,,,,,,,,,,0,,,,,,,1,4889976,pdf,4d7e2cfb7f7b7cf152834cb88e0825c0,,,D:\\HDD4\\_missing\\4d7e2cfb7f7b7cf152834cb88e0825c0.pdf,0,2000-01-01 01:00:00,2016-04-03 02:51:08,1152000/4d7e2cfb7f7b7cf152834cb88e0825c0-d.jpg,,
15921783,Encyclopedia of Distances,,,,"Michel Marie Deza, Elena Deza",2009,1,Springer,,604,0,English,,,,"3642002331,978-3-642-00233-5,978-3-642-00234-2",,,,,,,10.1007/978-3-642-00234-2,,,,0,,,,,,,1,4835286,pdf,4d0fd712579724d9880181b83f8d3864,,,D:\\HDD4\\_missing\\4d0fd712579724d9880181b83f8d3864(1).pdf,0,2000-01-01 01:00:00,2016-04-03 02:51:08,1152000/4d0fd712579724d9880181b83f8d3864-d.jpg,,
15921784,The Truth About Illness and Disease,,,,"Robert N., M.d. Golden, Fred L., Ph.D. Peterson, Carla Weiland, Karen Weiland",2009,1,Facts on File,,222,0,English,,,,"0-8160-7635-9,978-0-8160-7635-2,978-1-4381-2637-1",,,,,,,,,,,0,,,,,,,1,3752791,pdf,4d30c85ec945254062e4a4774a916454,,,D:\\HDD4\\_missing\\4d30c85ec945254062e4a4774a916454.pdf,0,2000-01-01 01:00:00,2016-04-03 02:51:08,1152000/4d30c85ec945254062e4a4774a916454-d.jpg,,
15921782,Career Counseling: A Holistic Approach,,,,Vernon G. Zunker,2006,7,Brooks Cole,,688,0,English,,,,"0-534-64017-6,9780534640170",,,,,,,,,,,0,,,,,,,1,12163437,pdf,4d05491da30eb1d2c5384ab453ca07f4,,,D:\\HDD4\\_missing\\4d05491da30eb1d2c5384ab453ca07f4.pdf,0,2000-01-01 01:00:00,2016-04-03 02:51:08,1152000/4d05491da30eb1d2c5384ab453ca07f4-d.jpg,,
15921780,Public Speaking Success in 20 Minutes a Day,,,,LearningExpress Editors,2010,,"Learningexpress, Llc",,256,0,English,,,,"1-57685-746-8,978-1-57685-746-5",,,,,,,,,,,0,,,,,,,1,9448905,pdf,4cf712e5359fbe43d64f907752a2a7b0,,,D:\\HDD4\\_missing\\4cf712e5359fbe43d64f907752a2a7b0.pdf,0,2000-01-01 01:00:00,2016-04-03 02:51:08,1152000/4cf712e5359fbe43d64f907752a2a7b0-d.jpg,,
15921781,Mathematics and the Laws of Nature: Developing the Language of Science,,The History of Mathematics,,"John, Ph.D. Tabak",2011,Revised,Facts on File,,244,0,English,,,,"0816079439,978-0-8160-7943-8,978-1-4381-3624-0",,,,,,,,,,,0,,,,,,,1,3757204,pdf,4d038dcdb6f49bb73346a8c4d9a6c8ec,,,D:\\HDD4\\_missing\\4d038dcdb6f49bb73346a8c4d9a6c8ec.pdf,0,2000-01-01 01:00:00,2016-04-03 02:51:08,1152000/4d038dcdb6f49bb73346a8c4d9a6c8ec-d.jpg,,
15921778,Recovery from Schizophrenia: Psychiatry and Political Economy,,,,Richard Warner,2003,3,Routledge,,424,0,English,,,,"0-415-21266-9,9780415212663,0-203-42087-X,0-203-44259-8,0-415-21267-7",,,,,,,,,,,0,,,,,,,1,3416583,pdf,4ccee425ea110ef67c0f44b5dcafc90d,,,D:\\HDD4\\_missing\\4ccee425ea110ef67c0f44b5dcafc90d.pdf,0,2000-01-01 01:00:00,2016-04-03 02:51:08,1152000/4ccee425ea110ef67c0f44b5dcafc90d-d.jpg,,
15921779,Interdisciplinary Concepts in Cardiovascular Health: Volume I: Primary Risk Factors,,,,"Ichiro Wakabayashi, Klaus Groschner",2013,,Springer,,229,0,English,,,,"3709113334,978-3-7091-1333-2,978-3-7091-1334-9",,,,,,,10.1007/978-3-7091-1334-9,,,,0,,,,,,,1,5118939,pdf,4cd1ea25d4cf0aa28060e33dbdb5a4e0,,,D:\\HDD4\\_missing\\4cd1ea25d4cf0aa28060e33dbdb5a4e0.pdf,0,2000-01-01 01:00:00,2016-04-03 02:51:08,1152000/4cd1ea25d4cf0aa28060e33dbdb5a4e0-d.jpg,,
15921776,Windows 8 eLearning Kit For Dummies,,,,Faithe Wempen,2013,1,For Dummies,,416,0,English,,,,"1118202872,978-1-118-20287-6,978-1-118-22831-9,978-1-118-23347-4,978-1-118-26544-4",,,,,,,,,,,0,,,,,,,1,45684666,pdf,4c9e467cddefd0ecf39f752ae4a0aadf,,,D:\\HDD4\\_missing\\4c9e467cddefd0ecf39f752ae4a0aadf.pdf,0,2000-01-01 01:00:00,2016-04-03 02:51:08,1152000/4c9e467cddefd0ecf39f752ae4a0aadf-d.jpg,,
15921777,Commodity Derivatives: Markets and Applications,,The Wiley Finance Series,,Neil C. Schofield,2007,,Wiley,,336,0,English,,,,"0470019107,978-0-470-01910-8",,,,,,,,,,,0,,,,,,,1,3174006,pdf,4cbbd42c925e72a416fd7829a735d671,,,D:\\HDD4\\_missing\\4cbbd42c925e72a416fd7829a735d671.pdf,0,2000-01-01 01:00:00,2016-04-03 02:51:08,1152000/4cbbd42c925e72a416fd7829a735d671-d.jpg,,
15921774,"Issues in Finance: Credit, Crises and Policies",,Surveys of Recent Research in Economics,,Stuart Sayer,2011,1,Wiley-Blackwell,,224,0,English,,,,"1444334018,978-1-4443-3401-2",,,,,,,,,,,0,,,,,,,1,3324186,pdf,4c7290648512e2a082b01bdedf04007d,,,D:\\HDD4\\_missing\\4c7290648512e2a082b01bdedf04007d.pdf,0,2000-01-01 01:00:00,2016-04-03 02:51:08,1152000/4c7290648512e2a082b01bdedf04007d-d.jpg,,
15921775,Making the Business Case,,,,Ian Gambles,2009,,Gower,,198,0,English,,,,"0566087456,978-0-566-08745-5",,,,,,,,,,,0,,,,,,,1,3179210,pdf,4c74977771c4e3d7190e70b2967cf053,,,D:\\HDD4\\_missing\\4c74977771c4e3d7190e70b2967cf053.pdf,0,2000-01-01 01:00:00,2016-04-03 02:51:08,1152000/4c74977771c4e3d7190e70b2967cf053-d.jpg,,
15921772,Guia de Clinica Mayo: Hipertension,,Guia de la Clinica Mayo) (Spanish Edition,,Clinica Mayo,2002,1,Plaza y Janes,,192,0,Spanish,,,,"140-000-190-0,9781400001903",,,,,,,,,,,0,,,,,,,1,3736176,pdf,4c65b686ee184f177441e3c50bfa2d23,,,D:\\HDD4\\_missing\\4c65b686ee184f177441e3c50bfa2d23.pdf,0,2000-01-01 01:00:00,2016-04-03 02:51:08,1152000/4c65b686ee184f177441e3c50bfa2d23-d.jpg,,
15921773,HTML5 for Web Designers,,,,Jeremy Keith,2010,1ST,A Book Apart Jeffrey Zeldmann,,96,0,English,,,,"0984442502,978-0-9844425-0-8",,,,,,,,,,,0,,,,,,,1,4423698,pdf,4c711cdc4dfd718b9e4dedcc6b6f08f8,,,D:\\HDD4\\_missing\\4c711cdc4dfd718b9e4dedcc6b6f08f8.pdf,0,2000-01-01 01:00:00,2016-04-03 02:51:08,1152000/4c711cdc4dfd718b9e4dedcc6b6f08f8-d.jpg,,
15921770,The Eighth Situpa On The Third Karmapa's Mahamudra Prayer,,,,Sherab Dorje,2004,Revised Edition,Snow Lion,,208,0,English,,,,"1-55939-213-4,9781559392136,1-55939-025-5",,,,,,,,,,,0,,,,,,,1,21054416,pdf,4c3fe44b8544679c0278077f6d1c12c4,,,D:\\HDD4\\_missing\\4c3fe44b8544679c0278077f6d1c12c4.pdf,0,2000-01-01 01:00:00,2016-04-03 02:51:08,1152000/4c3fe44b8544679c0278077f6d1c12c4-d.jpg,,
15921771,Green IT Strategies and Applications: Using Environmental Intelligence,,Advanced & Emerging Communications Technologies,,Bhuvan Unhelkar,2011,1,CRC Press,,480,0,English,,,,"1439837805,978-1-4398-3780-1",,,,,,,,,,,0,,,,,,,1,6221014,pdf,4c461b16d0c35a45962bdb84109a352a,,,D:\\HDD4\\_missing\\4c461b16d0c35a45962bdb84109a352a.pdf,0,2000-01-01 01:00:00,2016-04-03 02:51:08,1152000/4c461b16d0c35a45962bdb84109a352a-d.jpg,,
15921768,Learning to Program with MATLAB: Building GUI Tools,,,,Craig S. Lent,2013,1,Wiley,,308,0,English,,,,"0470936444,978-0-470-93644-3",,,,,,,,,,,0,,,,,,,1,8809706,pdf,4c31021b6b79807a7f21b7c401e1b5eb,,,D:\\HDD4\\_missing\\4c31021b6b79807a7f21b7c401e1b5eb.pdf,0,2000-01-01 01:00:00,2016-04-03 02:51:08,1152000/4c31021b6b79807a7f21b7c401e1b5eb-d.jpg,,
15921769,Java in 60 Minutes A Day,,,,R. F. Raposa,2003,1,Wiley,,800,0,English,,,,"0-471-42314-9,9780471423140",,,,,,,,,,,0,,,,,,,1,9727062,pdf,4c324ef11d06318af9c51545e40e405b,,,D:\\HDD4\\_missing\\4c324ef11d06318af9c51545e40e405b(1).pdf,0,2000-01-01 01:00:00,2016-04-03 02:51:08,1152000/4c324ef11d06318af9c51545e40e405b-d.jpg,,
15921766,Stability Criteria for Fluid Flows,,Series on Advances in Mathematics for Applied Sciences,,"Adelina Georgescu, Lidia Palese",2009,,World Scientific Publishing Company,,420,0,English,,,,"981-4289-56-6,978-981-4289-56-6",,,,,,,,,,,0,,,,,,,1,3215571,pdf,4c20a91d5618c704b3373e6affb8d90c,,,D:\\HDD4\\_missing\\4c20a91d5618c704b3373e6affb8d90c(1).pdf,0,2000-01-01 01:00:00,2016-04-03 02:51:08,1152000/4c20a91d5618c704b3373e6affb8d90c-d.jpg,,
15921767,Effective Grading: A Tool for Learning and Assessment in College,,,,"Barbara E. Walvoord, Virginia Johnson Anderson",2009,2,Jossey-Bass,,272,0,English,,,,"0470502150,978-0-470-50215-0",,,,,,,,,,,0,,,,,,,1,3721400,pdf,4c26aacc01a43b6b3e15a9d8f9476a14,,,D:\\HDD4\\_missing\\4c26aacc01a43b6b3e15a9d8f9476a14.pdf,0,2000-01-01 01:00:00,2016-04-03 02:51:08,1152000/4c26aacc01a43b6b3e15a9d8f9476a14-d.jpg,,
15921764,Hallucinogenic Plants,,A Golden Guide,,"Richard Evans Schultes, Elmer W. Smith",1976,,Golden Press,,160,0,English,,,,"0-307-24362-1,9780307243621",,,,,,,,,,,0,,,,,,,1,5547416,pdf,4c090cb89c1d7077bd05b2b6ea39f908,,,D:\\HDD4\\_missing\\4c090cb89c1d7077bd05b2b6ea39f908.pdf,0,2000-01-01 01:00:00,2016-04-03 02:51:08,1152000/4c090cb89c1d7077bd05b2b6ea39f908-d.jpg,,
15921765,Anxiety in Health Behaviors and Physical Illness,,Series in Anxiety and Related Disorders,,"Michael J. Zvolensky, Jasper A. J. Smits",2007,,Springer,,380,0,English,,,,"0387747524,978-0-387-74752-1,978-0-387-74753-8",,,,,,,,,,,0,,,,,,,1,4632539,pdf,4c0d6f1d651eeeb77fd37f8c9e40876b,,,D:\\HDD4\\_missing\\4c0d6f1d651eeeb77fd37f8c9e40876b.pdf,0,2000-01-01 01:00:00,2016-04-03 02:51:08,1152000/4c0d6f1d651eeeb77fd37f8c9e40876b-d.jpg,,
15921762,Unusually Excellent: The Necessary Nine Skills Required for the Practice of Great Leadership,,,,John Hamm,2011,1,Jossey-Bass,,256,0,English,,,,"0470928433,978-0-470-92843-1",,,,,,,,,,,0,,,,,,,1,4462072,pdf,4bfdfb5cb4a0402ea037e9a9007fff26,,,D:\\HDD4\\_missing\\4bfdfb5cb4a0402ea037e9a9007fff26.pdf,0,2000-01-01 01:00:00,2016-04-03 02:51:08,1152000/4bfdfb5cb4a0402ea037e9a9007fff26-d.jpg,,
15921763,A Dictionary of Astronomy,,Oxford Paperback Reference,,Ian Ridpath,1998,,"Oxford University Press, USA",,544,0,English,,,,"0-19-211596-0,9780192115966",,,,,,,,,,,0,,,,,,,1,7405582,pdf,4c07e77194a025a96322667a7ca9e27d,,,D:\\HDD4\\_missing\\4c07e77194a025a96322667a7ca9e27d.pdf,0,2000-01-01 01:00:00,2016-04-03 02:51:08,1152000/4c07e77194a025a96322667a7ca9e27d-d.jpg,,
15921760,An Introduction to Jewish-Christian Relations,,Introduction to Religion,,Edward Kessler,2010,1,Cambridge University Press,,264,0,English,,,,"0521879760,978-0-521-87976-7,978-0-521-70562-2",,,,,,,,,,,0,,,,,,,1,3667961,pdf,4baf2bd92050dafd4629250e8ffce77b,,,D:\\HDD4\\_missing\\4baf2bd92050dafd4629250e8ffce77b.pdf,0,2000-01-01 01:00:00,2016-04-03 02:51:08,1152000/4baf2bd92050dafd4629250e8ffce77b-d.jpg,,
15921761,Even Faster Web Sites: Performance Best Practices for Web Developers,,,,Steve Souders,2009,Original,O'Reilly Media,,256,0,English,,,,"0596522304,978-0-596-52230-8",,,,,,,,,,,0,,,,,,,1,3347509,pdf,4bf771de94aa72c0fd09c430850757f7,,,D:\\HDD4\\_missing\\4bf771de94aa72c0fd09c430850757f7.pdf,0,2000-01-01 01:00:00,2016-04-03 02:51:08,1152000/4bf771de94aa72c0fd09c430850757f7-d.jpg,,
15921759,"The Allure of Machinic Life: Cybernetics, Artificial Life, and the New AI",,Bradford Books,,John Johnston,2008,,A Bradford Book,,480,0,English,,,,"0262101262,978-0-262-10126-4",,,,,,,,,,,0,,,,,,,1,4743002,pdf,4ba483c57cf99ce59a9f2ddc1299c6e7,,,D:\\HDD4\\_missing\\4ba483c57cf99ce59a9f2ddc1299c6e7(1).pdf,0,2000-01-01 01:00:00,2016-04-03 02:51:08,1152000/4ba483c57cf99ce59a9f2ddc1299c6e7-d.jpg,,
15921757,Investing in Dynamic Markets: Venture Capital in the Digital Age,,,,"Henry Kressel, Thomas V. Lento",2010,,Cambridge University Press,,280,0,English,,,,"052111148X,978-0-521-11148-5",,,,,,,,,,,0,,,,,,,1,4509276,pdf,4b880c87ed4e67506fcd8cc25d5a3b48,,,D:\\HDD4\\_missing\\4b880c87ed4e67506fcd8cc25d5a3b48.pdf,0,2000-01-01 01:00:00,2016-04-03 02:51:08,1152000/4b880c87ed4e67506fcd8cc25d5a3b48-d.jpg,,
15921758,The Value of Arts for Business,,,,Giovanni Schiuma,2011,0,Cambridge University Press,,304,0,English,,,,"0521769515,978-0-521-76951-8",,,,,,,,,,,0,,,,,,,1,4285370,pdf,4b90a65164e74a2d9be814df0f8f7cdf,,,D:\\HDD4\\_missing\\4b90a65164e74a2d9be814df0f8f7cdf.pdf,0,2000-01-01 01:00:00,2016-04-03 02:51:08,1152000/4b90a65164e74a2d9be814df0f8f7cdf-d.jpg,,
15921755,Psychological Therapies for Adults with Intellectual Disabilities,,,,"John L. Taylor, William R. Lindsay, Richard P. Hastings, Chris Hatton",2013,1,Wiley-Blackwell,,302,0,English,,,,"0470683465,978-0-470-68346-0,978-0-470-68345-3",,,,,,,,,,,0,,,,,,,1,3523689,pdf,4b59039b9c7c69bfee1ea660780f9879,,,D:\\HDD4\\_missing\\4b59039b9c7c69bfee1ea660780f9879.pdf,0,2000-01-01 01:00:00,2016-04-03 02:51:08,1152000/4b59039b9c7c69bfee1ea660780f9879-d.jpg,,
15921756,Assisted Reproduction Techniques: Challenges and Management Options,,,,"Khaldoun Sharif, Arri Coomarasamy",2012,1,Wiley-Blackwell,,466,0,English,,,,"1-4443-3555-3,978-1-4443-3555-2",,,,,,,,,,,0,,,,,,,1,6513871,pdf,4b7c7c0474a5510dc091d59ebb2f65cf,,,D:\\HDD4\\_missing\\4b7c7c0474a5510dc091d59ebb2f65cf.pdf,0,2000-01-01 01:00:00,2016-04-03 02:51:08,1152000/4b7c7c0474a5510dc091d59ebb2f65cf-d.jpg,,
