14914177,"Kabinett physikalischer Raritäten: Eine Anthologie zum Mit-, Nach- und Weiterdenken",,Facetten der Physik 1,,"Robert L. Weber, Eric Mendoza",1984,,Vieweg+Teubner Verlag,,229,0,German,,,0,"978-3-528-28404-6,978-3-663-16334-3",,,,,,,10.1007/978-3-663-16334-3,,,,0,,1,0,1,,,1,8237791,pdf,1e9be2524d0d9548a6766cf3f05e768c,,,10.1007%2F978-3-663-16334-3.pdf,0,2000-01-01 01:00:00,2016-04-03 02:51:08,http://link.springer.com/static-content/covers/books/604/9783663163343.jpg,,
14914176,"Kabinett physikalischer Raritäten: Eine Anthologie zum Mit-, Nach- und Weiterdenken",,Facetten der Physik 1,,"Robert L. Weber, Eric Mendoza (auth.)",1984,,Vieweg+Teubner Verlag,,229,0,German,,,,"978-3-528-28404-6,978-3-663-16334-3",,,,,,,10.1007/978-3-663-16334-3,,,,0,,1,0,1,,,1,8237791,pdf,1e9be2524d0d9548a6766cf3f05e768c,,,10.1007%2F978-3-663-16334-3.pdf,0,2000-01-01 01:00:00,2016-04-03 02:51:08,http://link.springer.com/static-content/covers/books/604/9783663163343.jpg,,
14914175,Büroautomation,,Schriften zur Unternehmensführung 42,,Dieter B. Preßmar,1990,,Gabler Verlag,,153,0,German,,,0,"978-3-409-13129-2,978-3-663-16361-9",,,,,,,10.1007/978-3-663-16361-9,,,,0,,1,0,1,,,1,5581846,pdf,6a3d4e31425b483d3e5313e2dbeed502,,,10.1007%2F978-3-663-16361-9.pdf,0,2000-01-01 01:00:00,2016-04-03 02:51:08,http://link.springer.com/static-content/covers/books/808/9783663163619.jpg,,
14914174,Büroautomation,,Schriften zur Unternehmensführung 42,,Dieter B. Preßmar (auth.),1990,,Gabler Verlag,,153,0,German,,,,"978-3-409-13129-2,978-3-663-16361-9",,,,,,,10.1007/978-3-663-16361-9,,,,0,,1,0,1,,,1,5581846,pdf,6a3d4e31425b483d3e5313e2dbeed502,,,10.1007%2F978-3-663-16361-9.pdf,0,2000-01-01 01:00:00,2016-04-03 02:51:08,http://link.springer.com/static-content/covers/books/808/9783663163619.jpg,,
14914173,Programmieren von Taschenrechnern: Lehr- und Übungsbuch für den TI-58 und TI-59,,Programmieren von Taschenrechnern 3,,Hans Heinrich Gloistehn,1981,,Vieweg+Teubner Verlag,,160,0,German,,,0,"978-3-528-24095-0,978-3-663-16364-0",,,,,,,10.1007/978-3-663-16364-0,,,,0,,1,0,1,,,1,4655813,pdf,89403bb45906a452d9d5fa53a858bf7d,,,10.1007%2F978-3-663-16364-0.pdf,0,2000-01-01 01:00:00,2016-04-03 02:51:08,http://link.springer.com/static-content/covers/books/724/9783663163640.jpg,,
14914172,Programmieren von Taschenrechnern: Lehr- und Übungsbuch für den TI-58 und TI-59,,Programmieren von Taschenrechnern 3,,Hans Heinrich Gloistehn (auth.),1981,,Vieweg+Teubner Verlag,,160,0,German,,,,"978-3-528-24095-0,978-3-663-16364-0",,,,,,,10.1007/978-3-663-16364-0,,,,0,,1,0,1,,,1,4655813,pdf,89403bb45906a452d9d5fa53a858bf7d,,,10.1007%2F978-3-663-16364-0.pdf,0,2000-01-01 01:00:00,2016-04-03 02:51:08,http://link.springer.com/static-content/covers/books/724/9783663163640.jpg,,
14914171,Gauss: Ein Umriss seines Lebens und Wirkens,,,,F. A. T. Winnecke,1877,,Vieweg+Teubner Verlag,,36,0,German,,,0,"978-3-663-16345-9,978-3-663-16370-1",,,,,,,10.1007/978-3-663-16370-1,,,,0,,1,0,1,,,1,1294444,pdf,1b45e12d4c3ac66ee2e2a2048f0f4cf1,,,10.1007%2F978-3-663-16370-1.pdf,0,2000-01-01 01:00:00,2016-04-03 02:51:08,http://link.springer.com/static-content/covers/books/886/9783663163701.jpg,,
14914170,Gauss: Ein Umriss Seines Lebens und Wirkens,,,,F. A. T. Winnecke (auth.),1877,,Vieweg+Teubner Verlag,,36,0,German,,,,"978-3-663-16345-9,978-3-663-16370-1",,,,,,,10.1007/978-3-663-16370-1,,,,0,,1,0,1,,,1,1294444,pdf,1b45e12d4c3ac66ee2e2a2048f0f4cf1,,,10.1007%2F978-3-663-16370-1.pdf,0,2000-01-01 01:00:00,2016-04-03 02:51:08,http://link.springer.com/static-content/covers/books/886/9783663163701.jpg,,
14914169,Gabler Volkswirtschafts Lexikon,,,,"Karlernst Ringer, Heinz-Jürgen Telkamp, Volker Häfner, Michael Hammes, Klaus Hölzel, Franz-Josef Lerdo, Marlene Maser",1983,,Gabler Verlag,,718,0,English,,,0,"978-3-409-99182-7,978-3-663-16353-4",,,,,,,10.1007/978-3-663-16353-4,,,,0,,1,0,1,,,1,28292052,pdf,e9733ac84b66f788d7d5712513512921,,,10.1007%2F978-3-663-16353-4.pdf,0,2000-01-01 01:00:00,2016-04-03 02:51:08,1016000/e9733ac84b66f788d7d5712513512921-d.jpg,,
14914168,Unobserved Variables: Models and Misunderstandings,,SpringerBriefs in Statistics,,David J. Bartholomew (auth.),2013,,Springer Berlin Heidelberg,,"VII, 86 p. 5 illus.",0,English,,,,"978-3-642-39911-4,978-3-642-39912-1",,,,,,,10.1007/978-3-642-39912-1,,,,0,,1,0,1,,,1,1092125,pdf,09ff95b5302fc71414b065fcae6f4566,,,10.1007%2F978-3-642-39912-1.pdf,0,2000-01-01 01:00:00,2016-04-03 02:51:08,http://link.springer.com/static-content/covers/books/882/9783642399121.jpg,,
14914167,Wahrscheinlichkeit Statistik und Wahrheit: Einführung in die Neue Wahrscheinlichkeitslehre und Ihre Anwendung,,,,Richard von Mises,1951,,Springer Vienna,,288,0,German,,,0,"978-3-7091-2068-2,978-3-7091-2067-5",,,,,,,10.1007/978-3-7091-2067-5,,,,0,,1,0,1,,,1,13964899,pdf,97728867ee7c0c2dc8db2b2dd606d9c0,,,10.1007%2F978-3-7091-2067-5.pdf,0,2000-01-01 01:00:00,2016-04-03 02:51:08,http://link.springer.com/static-content/covers/books/222/9783709120675.jpg,,
14914166,Wahrscheinlichkeit Statistik und Wahrheit: Einführung in die Neue Wahrscheinlichkeitslehre und Ihre Anwendung,,,,Richard von Mises (auth.),1951,,Springer Vienna,,288,0,German,,,,"978-3-7091-2068-2,978-3-7091-2067-5",,,,,,,10.1007/978-3-7091-2067-5,,,,0,,1,0,1,,,1,13964899,pdf,97728867ee7c0c2dc8db2b2dd606d9c0,,,10.1007%2F978-3-7091-2067-5.pdf,0,2000-01-01 01:00:00,2016-04-03 02:51:08,http://link.springer.com/static-content/covers/books/222/9783709120675.jpg,,
14914165,Einführung in die Festigkeitslehre für Studierende des Bauwesens,,,,"Fritz Chmelka, Ernst Melan",1947,,Springer Vienna,,313,0,German,,,0,"978-3-7091-2077-4,978-3-7091-2076-7",,,,,,,10.1007/978-3-7091-2076-7,,,,0,,1,0,1,,,1,13918368,pdf,05a92afee75dfade2fcd7015613ca2db,,,10.1007%2F978-3-7091-2076-7.pdf,0,2000-01-01 01:00:00,2016-04-03 02:51:08,http://link.springer.com/static-content/covers/books/290/9783709120767.jpg,,
14914164,Einführung in die Festigkeitslehre für Studierende des Bauwesens,,,,"Dr. phil. Dr. techn. Fritz Chmelka, Dipl.-Ing. Dr. techn. Ernst Melan (auth.)",1947,,Springer Vienna,,313,0,German,,,,"978-3-7091-2077-4,978-3-7091-2076-7",,,,,,,10.1007/978-3-7091-2076-7,,,,0,,1,0,1,,,1,13918368,pdf,05a92afee75dfade2fcd7015613ca2db,,,10.1007%2F978-3-7091-2076-7.pdf,0,2000-01-01 01:00:00,2016-04-03 02:51:08,http://link.springer.com/static-content/covers/books/290/9783709120767.jpg,,
14914163,Symbiotic Endophytes,,Soil Biology 37,,"Tessema Kassaw, Julia Frugoli (auth.), Ricardo Aroca (eds.)",2013,,Springer Berlin Heidelberg,,"VIII, 348 p. 36 illus. 16 illus. in color.",0,English,,,,"978-3-642-39316-7,978-3-642-39317-4",,,,,,,10.1007/978-3-642-39317-4,,,,0,,1,0,1,,,1,4047961,pdf,00d9fee258c60ecf27b61c8e81cde4d8,,,10.1007%2F978-3-642-39317-4.pdf,0,2000-01-01 01:00:00,2016-04-03 02:51:08,http://link.springer.com/static-content/covers/books/470/9783642393174.jpg,,
14914162,Erfolgsmessung beim Investitionsgütereinkauf: Eine alleinige Frage von Savings?,,Advanced Purchasing &amp; SCM 4,,"Daniel Maucher, Wolfgang Stölzle, Erik Hofmann (auth.)",2013,,Springer Berlin Heidelberg,,63,0,German,,,,"978-3-642-38471-4,978-3-642-38472-1",,,,,,,10.1007/978-3-642-38472-1,,,,0,,1,0,1,,,1,1333790,pdf,1a2b4459c666f51fbd69ff0a2ccc07a5,,,10.1007%2F978-3-642-38472-1.pdf,0,2000-01-01 01:00:00,2016-04-03 02:51:08,http://link.springer.com/static-content/covers/books/592/9783642384721.jpg,,
14914161,Gabler Volkswirtschafts Lexikon,,,,"Karlernst Ringer, Heinz-Jürgen Telkamp, Volker Häfner, Michael Hammes, Klaus Hölzel, Franz-Josef Lerdo, Marlene Maser",1983,,Gabler Verlag,,718,0,English,,,0,"978-3-409-99182-7,978-3-663-16353-4",,,,,,,10.1007/978-3-663-16353-4,,,,0,,1,0,1,,,1,28292052,pdf,e9733ac84b66f788d7d5712513512921,,,10.1007%2F978-3-663-16353-4.pdf,0,2000-01-01 01:00:00,2016-04-03 02:51:08,http://link.springer.com/static-content/covers/books/712/9783663163534.jpg,,
14914160,Gabler Volkswirtschafts Lexikon,,,,"Prof. Dr. Karlernst Ringer, Dr. Heinz-Jürgen Telkamp (auth.), Diplom-Volkswirt Volker Häfner, Dr. Michael Hammes, Diplom-Volkswirt Klaus Hölzel, Diplom-Volkswirt Franz-Josef Lerdo, Diplom-Betriebswirt Marlene Maser (eds.)",1983,,Gabler Verlag,,718,0,English,,,,"978-3-409-99182-7,978-3-663-16353-4",,,,,,,10.1007/978-3-663-16353-4,,,,0,,1,0,1,,,1,28292052,pdf,e9733ac84b66f788d7d5712513512921,,,10.1007%2F978-3-663-16353-4.pdf,0,2000-01-01 01:00:00,2016-04-03 02:51:08,http://link.springer.com/static-content/covers/books/712/9783663163534.jpg,,
14914159,Theoretical Concepts of X-Ray Nanoscale Analysis: Theory and Applications,,Springer Series in Materials Science 183,,"Andrei Benediktovich, Ilya Feranchuk, Alexander Ulyanenkov (auth.)",2014,,Springer Berlin Heidelberg,,"XIII, 318 p. 108 illus. 37 illus. in color.",0,English,,,,"978-3-642-38176-8,978-3-642-38177-5",,,,,,,10.1007/978-3-642-38177-5,,,,0,,1,0,1,,,1,9074096,pdf,8691ca267bcd2152bf89924acee1a485,,,10.1007%2F978-3-642-38177-5.pdf,0,2000-01-01 01:00:00,2016-04-03 02:51:08,http://link.springer.com/static-content/covers/books/806/9783642381775.jpg,,
14914158,Elektrische Maschinen: Eine Einführung in die Grundlagen,,,,"Theodor Bödefeld, Heinrich Sequenz",1949,,Springer Vienna,,499,0,German,,,0,"978-3-7091-2083-5,978-3-7091-2082-8",,,,,,,10.1007/978-3-7091-2082-8,,,,0,,1,0,1,,,1,39308721,pdf,80108c426d9b32a6eee044ad8bc21466,,,10.1007%2F978-3-7091-2082-8.pdf,0,2000-01-01 01:00:00,2016-04-03 02:51:08,http://link.springer.com/static-content/covers/books/452/9783709120828.jpg,,
14914157,Elektrische Maschinen: Eine Einführung in die Grundlagen,,,,"Professor, Dr.-Ing. Theodor Bödefeld, Professor, Dr. Techn., Dr.-Ing., Dr. Phil. Heinrich Sequenz (auth.)",1949,,Springer Vienna,,499,0,German,,,,"978-3-7091-2083-5,978-3-7091-2082-8",,,,,,,10.1007/978-3-7091-2082-8,,,,0,,1,0,1,,,1,39308721,pdf,80108c426d9b32a6eee044ad8bc21466,,,10.1007%2F978-3-7091-2082-8.pdf,0,2000-01-01 01:00:00,2016-04-03 02:51:08,http://link.springer.com/static-content/covers/books/452/9783709120828.jpg,,
14914156,Photoelectron Spectroscopy: Bulk and Surface Electronic Structures,,Springer Series in Optical Sciences 176,,"Shigemasa Suga, Akira Sekiyama (auth.)",2014,,Springer Berlin Heidelberg,,389,0,English,,,,"978-3-642-37529-3,978-3-642-37530-9",,,,,,,10.1007/978-3-642-37530-9,,,,0,,1,0,1,,,1,13573727,pdf,d7358606aad25122b557bca700396cec,,,10.1007%2F978-3-642-37530-9.pdf,0,2000-01-01 01:00:00,2016-04-03 02:51:08,http://link.springer.com/static-content/covers/books/220/9783642375309.jpg,,
14914155,Allgemeine Baubetriebslehre,,,,Maximilian Soeser,1930,,Springer Vienna,,285,0,German,,,0,"978-3-7091-3122-0,978-3-7091-3129-9",,,,,,,10.1007/978-3-7091-3129-9,,,,0,,1,0,1,,,1,16768943,pdf,b3a170f1796e28ae307565011fea8634,,,10.1007%2F978-3-7091-3129-9.pdf,0,2000-01-01 01:00:00,2016-04-03 02:51:08,http://link.springer.com/static-content/covers/books/688/9783709131299.jpg,,
14914154,Allgemeine Baubetriebslehre,,,,Maximilian Soeser (auth.),1930,,Springer Vienna,,285,0,German,,,,"978-3-7091-3122-0,978-3-7091-3129-9",,,,,,,10.1007/978-3-7091-3129-9,,,,0,,1,0,1,,,1,16768943,pdf,b3a170f1796e28ae307565011fea8634,,,10.1007%2F978-3-7091-3129-9.pdf,0,2000-01-01 01:00:00,2016-04-03 02:51:08,http://link.springer.com/static-content/covers/books/688/9783709131299.jpg,,
14914153,Die Österreichische Kohle: Gesamtbericht des Ökw-Arbeitsausschusses „Inlandskohle“,,,,,1934,,Springer Vienna,,166,0,German,,,0,"978-3-7091-3148-0,978-3-7091-3151-0",,,,,,,10.1007/978-3-7091-3151-0,,,,0,,1,0,1,,,1,7323837,pdf,c5911f39cfb50099a27a841a421edb68,,,10.1007%2F978-3-7091-3151-0.pdf,0,2000-01-01 01:00:00,2016-04-03 02:51:08,http://link.springer.com/static-content/covers/books/62/9783709131510.jpg,,
14914152,Die Österreichische Kohle: Gesamtbericht des Ökw-Arbeitsausschusses „Inlandskohle“,,,,(auth.),1934,,Springer Vienna,,166,0,German,,,,"978-3-7091-3148-0,978-3-7091-3151-0",,,,,,,10.1007/978-3-7091-3151-0,,,,0,,1,0,1,,,1,7323837,pdf,c5911f39cfb50099a27a841a421edb68,,,10.1007%2F978-3-7091-3151-0.pdf,0,2000-01-01 01:00:00,2016-04-03 02:51:08,http://link.springer.com/static-content/covers/books/62/9783709131510.jpg,,
14914151,Atome und Strahlen,,,,Gustav Ortner,1947,,Springer Vienna,,91,0,German,,,0,"978-3-7091-3559-4,978-3-7091-3558-7",,,,,,,10.1007/978-3-7091-3558-7,,,,0,,1,0,1,,,1,4060661,pdf,75dbd628417914c87f0cbce9dc54969e,,,10.1007%2F978-3-7091-3558-7.pdf,0,2000-01-01 01:00:00,2016-04-03 02:51:08,http://link.springer.com/static-content/covers/books/674/9783709135587.jpg,,
14914150,Atome und Strahlen,,,,Gustav Ortner (auth.),1947,,Springer Vienna,,91,0,German,,,,"978-3-7091-3559-4,978-3-7091-3558-7",,,,,,,10.1007/978-3-7091-3558-7,,,,0,,1,0,1,,,1,4060661,pdf,75dbd628417914c87f0cbce9dc54969e,,,10.1007%2F978-3-7091-3558-7.pdf,0,2000-01-01 01:00:00,2016-04-03 02:51:08,http://link.springer.com/static-content/covers/books/674/9783709135587.jpg,,
14914149,Die Schweissung von Torstählen,,,,"Stefan Soretz, Rudolf Tinti",1952,,Springer Vienna,,52,0,German,,,0,"978-3-7091-3865-6,978-3-7091-3864-9",,,,,,,10.1007/978-3-7091-3864-9,,,,0,,1,0,1,,,1,2638989,pdf,97717bf567444c3779ee3d2d63e8f430,,,10.1007%2F978-3-7091-3864-9.pdf,0,2000-01-01 01:00:00,2016-04-03 02:51:08,http://link.springer.com/static-content/covers/books/462/9783709138649.jpg,,
14914148,Die Schweissung von Torstählen,,,,"Dipl. Ing. Dr. techn. Stefan Soretz, Dipl. Ing. Rudolf Tinti (auth.)",1952,,Springer Vienna,,52,0,German,,,,"978-3-7091-3865-6,978-3-7091-3864-9",,,,,,,10.1007/978-3-7091-3864-9,,,,0,,1,0,1,,,1,2638989,pdf,97717bf567444c3779ee3d2d63e8f430,,,10.1007%2F978-3-7091-3864-9.pdf,0,2000-01-01 01:00:00,2016-04-03 02:51:08,http://link.springer.com/static-content/covers/books/462/9783709138649.jpg,,
14914147,"Sustainable Urban Logistics: Concepts, Methods and Information Systems",,EcoProduction,,"Daniel Boudoin, Christian Morel (auth.), Jesus Gonzalez-Feliu, Frédéric Semet, Jean-Louis Routhier (eds.)",2014,,Springer Berlin Heidelberg,,"XII, 265 p. 47 illus. 34 illus. in color.",0,English,,,,"978-3-642-31787-3,978-3-642-31788-0",,,,,,,10.1007/978-3-642-31788-0,,,,0,,1,0,1,,,1,3362451,pdf,92fc9a59e3378d3a6a0bf682d814721d,,,10.1007%2F978-3-642-31788-0.pdf,0,2000-01-01 01:00:00,2016-04-03 02:51:08,http://link.springer.com/static-content/covers/books/720/9783642317880.jpg,,
14914146,Physikalisch-chemisches Rechnen mit einer Einführung in die höhere Mathematik,,,,"Walter Wittenberger, Werner Fritz",1980,,Springer Vienna,,481,0,German,,,0,"978-3-7091-3401-6,978-3-7091-3400-9",,,,,,,10.1007/978-3-7091-3400-9,,,,0,,1,0,1,,,1,15792726,pdf,4e759386a9b45302f2334da5f24e0919,,,10.1007%2F978-3-7091-3400-9.pdf,0,2000-01-01 01:00:00,2016-04-03 02:51:08,http://link.springer.com/static-content/covers/books/516/9783709134009.jpg,,
14914145,Physikalisch-chemisches Rechnen mit einer Einführung in die höhere Mathematik,,,,"Dr. techn. Ing. Walter Wittenberger, Dr. rer. nat. Werner Fritz (auth.)",1980,,Springer Vienna,,481,0,German,,,,"978-3-7091-3401-6,978-3-7091-3400-9",,,,,,,10.1007/978-3-7091-3400-9,,,,0,,1,0,1,,,1,15792726,pdf,4e759386a9b45302f2334da5f24e0919,,,10.1007%2F978-3-7091-3400-9.pdf,0,2000-01-01 01:00:00,2016-04-03 02:51:08,http://link.springer.com/static-content/covers/books/516/9783709134009.jpg,,
14914144,"Achtes Kolloquium über Metallkundliche Analyse mit Besonderer Berücksichtigung der Elektronenstrahl- und Ionenstrahl-Mikroanalyse Wien, 27. bis 29. Oktober 1976",,Mikrochimica Acta 7,,"Günther Tölg, M. K. Zacherl",1977,,Springer Vienna,,596,0,German,,,0,"978-3-211-81433-8,978-3-7091-3724-6",,,,,,,10.1007/978-3-7091-3724-6,,,,0,,1,0,1,,,1,19047172,pdf,2c7a7882516552569d2310f083258f8a,,,10.1007%2F978-3-7091-3724-6.pdf,0,2000-01-01 01:00:00,2016-04-03 02:51:08,http://link.springer.com/static-content/covers/books/100/9783709137246.jpg,,
14914143,"Achtes Kolloquium über Metallkundliche Analyse mit Besonderer Berücksichtigung der Elektronenstrahl- und Ionenstrahl-Mikroanalyse Wien, 27. bis 29. Oktober 1976",,Mikrochimica Acta 7,,"Prof. Dr. Günther Tölg (auth.), M. K. Zacherl (eds.)",1977,,Springer Vienna,,596 S.,0,German,,,,"978-3-211-81433-8,978-3-7091-3724-6",,,,,,,10.1007/978-3-7091-3724-6,,,,0,,1,0,1,,,1,19047172,pdf,2c7a7882516552569d2310f083258f8a,,,10.1007%2F978-3-7091-3724-6.pdf,0,2000-01-01 01:00:00,2016-04-03 02:51:08,http://link.springer.com/static-content/covers/books/100/9783709137246.jpg,,
14914142,INT - Integrierte neurokognitive Therapie bei schizophren Erkrankten,,,,"Volker Roder Prof. Dr. phil. (auth.), Volker Roder, Daniel R. Müller (eds.)",2013,,Springer Berlin Heidelberg,,"XI, 218 S. 38 Abb. Mit CD-ROM.",0,German,,,,"978-3-642-21439-4,978-3-642-21440-0",,,,,,,10.1007/978-3-642-21440-0,,,,0,,1,0,1,,,1,9770203,pdf,bae84f6250098064207a96ebe084d93b,,,10.1007%2F978-3-642-21440-0.pdf,0,2000-01-01 01:00:00,2016-04-03 02:51:08,http://link.springer.com/static-content/covers/books/14/9783642214394.jpg,,
14914141,"Medizinische Physik: Physik für Mediziner, Pharmazeuten und Biologen",,,,Adolf Friedrich Fercher,1992,,Springer Vienna,,919,0,German,,,0,"978-3-211-82371-2,978-3-7091-3309-5",,,,,,,10.1007/978-3-7091-3309-5,,,,0,,1,0,1,,,1,22941305,pdf,1fe73000403a5381454f852ae40d172e,,,10.1007%2F978-3-7091-3309-5.pdf,0,2000-01-01 01:00:00,2016-04-03 02:51:08,http://link.springer.com/static-content/covers/books/32/9783709133095.jpg,,
14914139,Statistik: Eine verständliche Einführung,,,,"Udo Kuckartz, Stefan Rädiker, Thomas Ebert, Julia Schehl (auth.)",2013,überarb. Aufl. 2013,VS Verlag für Sozialwissenschaften,,XII 301 S. 51 Abb.,0,German,,,,"978-3-531-19889-7,978-3-531-19890-3",,,,,,,10.1007/978-3-531-19890-3,,,,0,,1,0,1,,,1,88126641,pdf,3bbb22a316e65b685935b11a63c56f51,,,10.1007%2F978-3-531-19890-3.pdf,0,2000-01-01 01:00:00,2016-04-03 02:51:08,http://link.springer.com/static-content/covers/books/580/9783531198903.jpg,,
14914140,"Medizinische Physik: Physik für Mediziner, Pharmazeuten und Biologen",,,,O. Prof. Dr. techn. Adolf Friedrich Fercher (auth.),1992,,Springer Vienna,,919 S.Zeige nächste Auflage,0,German,,,,"978-3-211-82371-2,978-3-7091-3309-5",,,,,,,10.1007/978-3-7091-3309-5,,,,0,,1,0,1,,,1,22941305,pdf,1fe73000403a5381454f852ae40d172e,,,10.1007%2F978-3-7091-3309-5.pdf,0,2000-01-01 01:00:00,2016-04-03 02:51:08,http://link.springer.com/static-content/covers/books/32/9783709133095.jpg,,
14914138,The International Imperative in Higher Education,,Global Perspectives on Higher Education,,Philip G. Altbach,2013,,SensePublishers,,196,0,English,,,0,978-84-6209-338-6,,,,,,,10.1007/978-84-6209-338-6,,,,0,,1,0,1,,,1,1232054,pdf,ecfd118526d847a18cd6ae69b90002a2,,,10.1007%2F978-84-6209-338-6.pdf,0,2000-01-01 01:00:00,2016-04-03 02:51:08,http://link.springer.com/static-content/covers/books/273/9788462093386.jpg,,
14914137,The International Imperative in Higher Education,,Global Perspectives on Higher Education,,Philip G. Altbach (auth.),2013,,SensePublishers,,196,0,English,,,,978-84-6209-338-6,,,,,,,10.1007/978-84-6209-338-6,,,,0,,1,0,1,,,1,1232054,pdf,ecfd118526d847a18cd6ae69b90002a2,,,10.1007%2F978-84-6209-338-6.pdf,0,2000-01-01 01:00:00,2016-04-03 02:51:08,http://link.springer.com/static-content/covers/books/273/9788462093386.jpg,,
14914136,Metal–Molecular Assembly for Functional Materials,,SpringerBriefs in Molecular Science,,"Yutaka Matsuo, Masayoshi Higuchi, Yuichi Negishi, Michito Yoshizawa, Takashi Uemura, Hikaru Takaya, Takafumi Ueno, Masayuki Takeuchi, Soichiro Yoshimoto",2013,,Springer Japan,,94,0,English,,,0,"978-4-431-54369-5,978-4-431-54370-1",,,,,,,10.1007/978-4-431-54370-1,,,,0,,1,0,1,,,1,6169384,pdf,60f52908c26ffc003050ba00b174d400,,,10.1007%2F978-4-431-54370-1.pdf,0,2000-01-01 01:00:00,2016-04-03 02:51:08,http://link.springer.com/static-content/covers/books/230/9784431543701.jpg,,
14914135,Metal–Molecular Assembly for Functional Materials,,SpringerBriefs in Molecular Science,,"Yutaka Matsuo (auth.), Yutaka Matsuo, Masayoshi Higuchi, Yuichi Negishi, Michito Yoshizawa, Takashi Uemura, Hikaru Takaya, Takafumi Ueno, Masayuki Takeuchi, Soichiro Yoshimoto (eds.)",2013,,Springer Japan,,94,0,English,,,,"978-4-431-54369-5,978-4-431-54370-1",,,,,,,10.1007/978-4-431-54370-1,,,,0,,1,0,1,,,1,6169384,pdf,60f52908c26ffc003050ba00b174d400,,,10.1007%2F978-4-431-54370-1.pdf,0,2000-01-01 01:00:00,2016-04-03 02:51:08,http://link.springer.com/static-content/covers/books/230/9784431543701.jpg,,
14914134,Psychotherapie und Tiefenpsychologie: Ein Kurzlehrbuch,,,,Hans Strotzka,1994,,Springer Vienna,,310,0,German,,,0,"978-3-211-82572-3,978-3-7091-9359-4",,,,,,,10.1007/978-3-7091-9359-4,,,,0,,1,0,1,,,1,7874224,pdf,4b78ee62fb76d2002cf012bb8e091a07,,,10.1007%2F978-3-7091-9359-4.pdf,0,2000-01-01 01:00:00,2016-04-03 02:51:08,http://link.springer.com/static-content/covers/books/102/9783709193594.jpg,,
14914133,Psychotherapie und Tiefenpsychologie: Ein Kurzlehrbuch,,,,Prof. Dr. Hans Strotzka (auth.),1994,,Springer Vienna,,310,0,German,,,,"978-3-211-82572-3,978-3-7091-9359-4",,,,,,,10.1007/978-3-7091-9359-4,,,,0,,1,0,1,,,1,7874224,pdf,4b78ee62fb76d2002cf012bb8e091a07,,,10.1007%2F978-3-7091-9359-4.pdf,0,2000-01-01 01:00:00,2016-04-03 02:51:08,http://link.springer.com/static-content/covers/books/102/9783709193594.jpg,,
14914132,Pflanzenernährung,,Handbuch der Pflanzenernährung und Düngung 1 / 1,,"K. Scharrer, D. I. Arnon, W. Baumeister, W. U. Behrens, E. v. Boguslawski, M. J. Bukovac, H. Burghardt, M. Erichsen, W. Flaig, W. H. Fuchs, F. Grossmann, F. Heilinger, G. P. Hill, J. Jung, H. Kick, J. G. Kisser, P. J. Kramer, H. Kühn, P. Limberg, H. Linser, H. H. Mayr, K. Mengel, K.-H. Neumann, G. Schmid, W. Schuster, H. B. Tukey, H. B. Tukey Jr., H. Walter, S. H. Wittwer",1969,,Springer Vienna,,612,0,German,,,0,"978-3-7091-8221-5,978-3-7091-8220-8",,,,,,,10.1007/978-3-7091-8220-8,,,,0,,1,0,1,,,1,28137470,pdf,39fb416f12f3c0c5549f96032a02dae6,,,10.1007%2F978-3-7091-8220-8.pdf,0,2000-01-01 01:00:00,2016-04-03 02:51:08,http://link.springer.com/static-content/covers/books/572/9783709182208.jpg,,
14914131,Pflanzenernährung,,Handbuch der Pflanzenernährung und Düngung 1 / 1,,"K. Scharrer (auth.), D. I. Arnon, W. Baumeister, W. U. Behrens, E. v. Boguslawski, M. J. Bukovac, H. Burghardt, M. Erichsen, W. Flaig, W. H. Fuchs, F. Grossmann, F. Heilinger, G. P. Hill, J. Jung, H. Kick, J. G. Kisser, P. J. Kramer, H. Kühn, P. Limberg, H. Linser, H. H. Mayr, K. Mengel, K.-H. Neumann, K. Scharrer, G. Schmid, W. Schuster, H. B. Tukey, H. B. Tukey Jr., H. Walter, S. H. Wittwer (eds.)",1969,,Springer Vienna,,612,0,German,,,,"978-3-7091-8221-5,978-3-7091-8220-8",,,,,,,10.1007/978-3-7091-8220-8,,,,0,,1,0,1,,,1,28137470,pdf,39fb416f12f3c0c5549f96032a02dae6,,,10.1007%2F978-3-7091-8220-8.pdf,0,2000-01-01 01:00:00,2016-04-03 02:51:08,http://link.springer.com/static-content/covers/books/572/9783709182208.jpg,,
14914130,Handbuch der Virusforschung: 4. Band (III. Ergänzungsband),,,,"F. M. Burnet, C. Hallauer, K. F. Meyer",1958,,Springer Vienna,,704,0,German,,,0,"978-3-7091-7886-7,978-3-7091-7885-0",,,,,,,10.1007/978-3-7091-7885-0,,,,0,,1,0,1,,,1,28882212,pdf,45f2e4fa54b0499e10e4b7017527da01,,,10.1007%2F978-3-7091-7885-0.pdf,0,2000-01-01 01:00:00,2016-04-03 02:51:08,http://link.springer.com/static-content/covers/books/434/9783709178850.jpg,,
14914129,Handbuch der Virusforschung: 4. Band (III. Ergänzungsband),,,,"F. M. Burnet (auth.), Prof. Dr. C. Hallauer, Prof. Dr. K. F. Meyer (eds.)",1958,,Springer Vienna,,704,0,German,,,,"978-3-7091-7886-7,978-3-7091-7885-0",,,,,,,10.1007/978-3-7091-7885-0,,,,0,,1,0,1,,,1,28882212,pdf,45f2e4fa54b0499e10e4b7017527da01,,,10.1007%2F978-3-7091-7885-0.pdf,0,2000-01-01 01:00:00,2016-04-03 02:51:08,http://link.springer.com/static-content/covers/books/434/9783709178850.jpg,,
14914128,Die Grossglockner-Hochalpenstrasse: Die Geschichte ihres Baues,,,,F. Wallack,1949,,Springer Vienna,,230,0,German,,,0,"978-3-211-80123-9,978-3-7091-7734-1",,,,,,,10.1007/978-3-7091-7734-1,,,,0,,1,0,1,,,1,13289353,pdf,e030c4d6a2be372172c6922f537e2431,,,10.1007%2F978-3-7091-7734-1.pdf,0,2000-01-01 01:00:00,2016-04-03 02:51:08,http://link.springer.com/static-content/covers/books/60/9783709177341.jpg,,
14914127,Die Grossglockner-Hochalpenstrasse: Die Geschichte ihres Baues,,,,Dipl.-Ing. F. Wallack (auth.),1949,,Springer Vienna,,230,0,German,,,,"978-3-211-80123-9,978-3-7091-7734-1",,,,,,,10.1007/978-3-7091-7734-1,,,,0,,1,0,1,,,1,13289353,pdf,e030c4d6a2be372172c6922f537e2431,,,10.1007%2F978-3-7091-7734-1.pdf,0,2000-01-01 01:00:00,2016-04-03 02:51:08,http://link.springer.com/static-content/covers/books/60/9783709177341.jpg,,
14914126,"Fragen der Ethik in der Psychotherapie: Konfliktfelder, Machtmißbrauch, Berufspflichten",,,,"Alfred Simon, Renate Hutterer-Krisch",2001,,Springer Vienna,,748,0,German,,,0,"978-3-211-83594-4,978-3-7091-6750-2",,,,,,,10.1007/978-3-7091-6750-2,,,,0,,1,0,1,,,1,18615854,pdf,1052f691e427340b6fdbdabb75a6d236,,,10.1007%2F978-3-7091-6750-2.pdf,0,2000-01-01 01:00:00,2016-04-03 02:51:08,http://link.springer.com/static-content/covers/books/442/9783211835944.jpg,,
14914124,Moderne Algebraische Geometrie: Die Idealtheoretischen Grundlagen,,,,Wolfgang Gröbner,1949,,Springer Vienna,,224,0,German,,,0,"978-3-211-80090-4,978-3-7091-5740-4",,,,,,,10.1007/978-3-7091-5740-4,,,,0,,1,0,1,,,1,10351741,pdf,61129d863f9ebb4120314a66675b64a4,,,10.1007%2F978-3-7091-5740-4.pdf,0,2000-01-01 01:00:00,2016-04-03 02:51:08,http://link.springer.com/static-content/covers/books/262/9783709157404.jpg,,
14914125,"Fragen der Ethik in der Psychotherapie: Konfliktfelder, Machtmißbrauch, Berufspflichten",,,,"Alfred Simon (auth.), Dr. Renate Hutterer-Krisch (eds.)",2001,,Springer Vienna,,748,0,German,,,,"978-3-211-83594-4,978-3-7091-6750-2",,,,,,,10.1007/978-3-7091-6750-2,,,,0,,1,0,1,,,1,18615854,pdf,1052f691e427340b6fdbdabb75a6d236,,,10.1007%2F978-3-7091-6750-2.pdf,0,2000-01-01 01:00:00,2016-04-03 02:51:08,http://link.springer.com/static-content/covers/books/442/9783211835944.jpg,,
14914123,Moderne Algebraische Geometrie: Die Idealtheoretischen Grundlagen,,,,Dr. Wolfgang Gröbner (auth.),1949,,Springer Vienna,,224,0,English,,,,"978-3-211-80090-4,978-3-7091-5740-4",,,,,,,10.1007/978-3-7091-5740-4,,,,0,,1,0,1,,,1,10351741,pdf,61129d863f9ebb4120314a66675b64a4,,,10.1007%2F978-3-7091-5740-4.pdf,0,2000-01-01 01:00:00,2016-04-03 02:51:08,http://link.springer.com/static-content/covers/books/262/9783709157404.jpg,,
14914122,Wiener Neustadt 1970–1990: Strukturanalyse und Stadtentwicklungsplanung Studienarbeit 1969/70 durchgeführt von Studenten der Studienrichtung Architektur an der Technischen Hochschule Wien,,"Schriftenreihe des Institutes für Städtebau, Raumplanung und Raumordnung 14",,Klaus R. Kunzmann,1970,,Springer Vienna,,114,0,German,,,0,"978-3-211-81009-5,978-3-7091-5596-7",,,,,,,10.1007/978-3-7091-5596-7,,,,0,,1,0,1,,,1,4775796,pdf,88785070dc69ffa686f335ca146e915e,,,10.1007%2F978-3-7091-5596-7.pdf,0,2000-01-01 01:00:00,2016-04-03 02:51:08,http://link.springer.com/static-content/covers/books/850/9783709155967.jpg,,
14914121,Wiener Neustadt 1970–1990: Strukturanalyse und Stadtentwicklungsplanung Studienarbeit 1969/70 durchgeführt von Studenten der Studienrichtung Architektur an der Technischen Hochschule Wien,,"Schriftenreihe des Institutes für Städtebau, Raumplanung und Raumordnung 14",,"Dipl.-Ing. Klaus R. Kunzmann (auth.), Dipl.-Ing. Klaus R. Kunzmann (eds.)",1970,,Springer Vienna,,114,0,German,,,,"978-3-211-81009-5,978-3-7091-5596-7",,,,,,,10.1007/978-3-7091-5596-7,,,,0,,1,0,1,,,1,4775796,pdf,88785070dc69ffa686f335ca146e915e,,,10.1007%2F978-3-7091-5596-7.pdf,0,2000-01-01 01:00:00,2016-04-03 02:51:08,http://link.springer.com/static-content/covers/books/850/9783709155967.jpg,,
14914120,Werkstoff-Prüfung im Bergbau,,"Wissenschaftliche Abhandlungen der Deutschen Materialprüfungsanstalten 1,3",,E. Klemke,1939,,Springer Vienna,,101,0,German,,,0,"978-3-7091-5291-1,978-3-7091-5439-7",,,,,,,10.1007/978-3-7091-5439-7,,,,0,,1,0,1,,,1,12899626,pdf,c2b9db893bee4f1fc91c05174208df9e,,,10.1007%2F978-3-7091-5439-7.pdf,0,2000-01-01 01:00:00,2016-04-03 02:51:08,http://link.springer.com/static-content/covers/books/314/9783709154397.jpg,,
14914119,Werkstoff-Prüfung im Bergbau,,"Wissenschaftliche Abhandlungen der Deutschen Materialprüfungsanstalten 1,3",,Dipl.-Ing. E. Klemke (auth.),1939,,Springer Vienna,,101,0,German,,,,"978-3-7091-5291-1,978-3-7091-5439-7",,,,,,,10.1007/978-3-7091-5439-7,,,,0,,1,0,1,,,1,12899626,pdf,c2b9db893bee4f1fc91c05174208df9e,,,10.1007%2F978-3-7091-5439-7.pdf,0,2000-01-01 01:00:00,2016-04-03 02:51:08,http://link.springer.com/static-content/covers/books/314/9783709154397.jpg,,
14914118,Zielsichere Betonbildung: Auf der Grundlage der Versuchsberichte des Unterausschusses für Zielsichere Beton-Bildung (UABb) im Österr. Eisenbetonausschusse,,,,Ottokar Stern,1933,,Springer Vienna,,107,0,German,,,0,"978-3-7091-5157-0,978-3-7091-5305-5",,,,,,,10.1007/978-3-7091-5305-5,,,,0,,1,0,1,,,1,3685070,pdf,b2eb62aea3e7c1bfdbb19bf9c13022ea,,,10.1007%2F978-3-7091-5305-5.pdf,0,2000-01-01 01:00:00,2016-04-03 02:51:08,http://link.springer.com/static-content/covers/books/114/9783709153055.jpg,,
14914117,Zielsichere Betonbildung: Auf der Grundlage der Versuchsberichte des Unterausschusses für Zielsichere Beton-Bildung (UABb) im Österr. Eisenbetonausschusse,,,,"Ottokar Stern (auth.), Ottokar Stern (eds.)",1933,,Springer Vienna,,107,0,German,,,,"978-3-7091-5157-0,978-3-7091-5305-5",,,,,,,10.1007/978-3-7091-5305-5,,,,0,,1,0,1,,,1,3685070,pdf,b2eb62aea3e7c1bfdbb19bf9c13022ea,,,10.1007%2F978-3-7091-5305-5.pdf,0,2000-01-01 01:00:00,2016-04-03 02:51:08,http://link.springer.com/static-content/covers/books/114/9783709153055.jpg,,
14914116,Der Aufbau schnellaufender Verbrennungskraftmaschinen für Kraftfahrzeuge und Triebwagen,,Die Verbrennungskraftmaschine 11,,H. Kremser,1942,,Springer Vienna,,235,0,German,,,0,"978-3-7091-9755-4,978-3-7091-5016-0",,,,,,,10.1007/978-3-7091-5016-0,,,,0,,1,0,1,,,1,17223431,pdf,e6707cfcd7c802a4570b7fdf5b72eb58,,,10.1007%2F978-3-7091-5016-0.pdf,0,2000-01-01 01:00:00,2016-04-03 02:51:08,http://link.springer.com/static-content/covers/books/500/9783709150160.jpg,,
14914115,Der Aufbau schnellaufender Verbrennungskraftmaschinen für Kraftfahrzeuge und Triebwagen,,Die Verbrennungskraftmaschine 11,,Obering. H. Kremser (auth.),1942,,Springer Vienna,,235,0,German,,,,"978-3-7091-9755-4,978-3-7091-5016-0",,,,,,,10.1007/978-3-7091-5016-0,,,,0,,1,0,1,,,1,17223431,pdf,e6707cfcd7c802a4570b7fdf5b72eb58,,,10.1007%2F978-3-7091-5016-0.pdf,0,2000-01-01 01:00:00,2016-04-03 02:51:08,http://link.springer.com/static-content/covers/books/500/9783709150160.jpg,,
14914114,Englisch-deutsches und deutsch-englisches Wörterbuch für die Eisen- und Stahl-Industrie / English-German and German-English Dictionary for the Iron and Steel Industry,,,,"Eduard L. Köhler, Alois Legat",1955,,Springer Vienna,,342,0,German,,,0,"978-3-7091-3882-3,978-3-7091-3881-6",,,,,,,10.1007/978-3-7091-3881-6,,,,0,,1,0,1,,,1,19408396,pdf,1547c5812661d814c926948097fd7771,,,10.1007%2F978-3-7091-3881-6.pdf,0,2000-01-01 01:00:00,2016-04-03 02:51:08,http://link.springer.com/static-content/covers/books/636/9783709138816.jpg,,
14914113,Englisch-deutsches und deutsch-englisches Wörterbuch für die Eisen- und Stahl-Industrie / English-German and German-English Dictionary for the Iron and Steel Industry,,,,"Eduard L. Köhler, Priv.-Doz. Dr. mont. Alois Legat (auth.)",1955,,Springer Vienna,,342,0,German,,,,"978-3-7091-3882-3,978-3-7091-3881-6",,,,,,,10.1007/978-3-7091-3881-6,,,,0,,1,0,1,,,1,19408396,pdf,1547c5812661d814c926948097fd7771,,,10.1007%2F978-3-7091-3881-6.pdf,0,2000-01-01 01:00:00,2016-04-03 02:51:08,http://link.springer.com/static-content/covers/books/636/9783709138816.jpg,,
14914112,70.–71. Jahresbericht des Sonnblick-Vereines für die Jahre 1972–1973,,Jahresberichte des Sonnblick-Vereines 1972/73,,F. Steinhauser,1974,,Springer Vienna,,111,0,German,,,0,"978-3-211-81286-0,978-3-7091-3979-0",,,,,,,10.1007/978-3-7091-3979-0,,,,0,,1,0,1,,,1,9475206,pdf,7a285505dae9f04d20f115ffd1288c56,,,10.1007%2F978-3-7091-3979-0.pdf,0,2000-01-01 01:00:00,2016-04-03 02:51:08,http://link.springer.com/static-content/covers/books/564/9783709139790.jpg,,
14914111,70.–71. Jahresbericht des Sonnblick-Vereines für die Jahre 1972–1973,,Jahresberichte des Sonnblick-Vereines 1972/73,,Prof. Dr. F. Steinhauser (auth.),1974,,Springer Vienna,,111 S.,0,German,,,,"978-3-211-81286-0,978-3-7091-3979-0",,,,,,,10.1007/978-3-7091-3979-0,,,,0,,1,0,1,,,1,9475206,pdf,7a285505dae9f04d20f115ffd1288c56,,,10.1007%2F978-3-7091-3979-0.pdf,0,2000-01-01 01:00:00,2016-04-03 02:51:08,http://link.springer.com/static-content/covers/books/564/9783709139790.jpg,,
14914110,74.–75. Jahresbericht des Sonnblick-Vereines für die Jahre 1976–1977,,Jahresberichte des Sonnblick-Vereines 1976/77,,F. Steinhauser,1977,,Springer Vienna,,98,0,German,,,0,"978-3-211-81458-1,978-3-7091-3980-6",,,,,,,10.1007/978-3-7091-3980-6,,,,0,,1,0,1,,,1,7216309,pdf,2f28e9b6bcf1b3b257ed465d66a886a4,,,10.1007%2F978-3-7091-3980-6.pdf,0,2000-01-01 01:00:00,2016-04-03 02:51:08,http://link.springer.com/static-content/covers/books/876/9783709139806.jpg,,
14914109,74.–75. Jahresbericht des Sonnblick-Vereines für die Jahre 1976–1977,,Jahresberichte des Sonnblick-Vereines 1976/77,,Prof. Dr. F. Steinhauser (auth.),1977,,Springer Vienna,,98 S.,0,German,,,,"978-3-211-81458-1,978-3-7091-3980-6",,,,,,,10.1007/978-3-7091-3980-6,,,,0,,1,0,1,,,1,7216309,pdf,2f28e9b6bcf1b3b257ed465d66a886a4,,,10.1007%2F978-3-7091-3980-6.pdf,0,2000-01-01 01:00:00,2016-04-03 02:51:08,http://link.springer.com/static-content/covers/books/876/9783709139806.jpg,,
14914108,Technische Mechanik: Aufgaben und Lösungen,,,,"Peter Lugner, Kurt Desoyer, Anton Novak",1988,,Springer Vienna,,224,0,German,,,0,"978-3-211-82082-7,978-3-7091-4123-6",,,,,,,10.1007/978-3-7091-4123-6,,,,0,,1,0,1,,,1,6571523,pdf,f171053ad0b5f40a403fd55c5ed82652,,,10.1007%2F978-3-7091-4123-6.pdf,0,2000-01-01 01:00:00,2016-04-03 02:51:08,1016000/f171053ad0b5f40a403fd55c5ed82652-d.jpg,,
14914107,Technische Mechanik: Aufgaben und Lösungen,,,,"Peter Lugner, Kurt Desoyer, Anton Novak",1988,,Springer Vienna,,224,0,German,,,0,"978-3-211-82082-7,978-3-7091-4123-6",,,,,,,10.1007/978-3-7091-4123-6,,,,0,,1,0,1,,,1,6571523,pdf,f171053ad0b5f40a403fd55c5ed82652,,,10.1007%2F978-3-7091-4123-6.pdf,0,2000-01-01 01:00:00,2016-04-03 02:51:08,http://link.springer.com/static-content/covers/books/356/9783709141236.jpg,,
14914106,Technische Mechanik: Aufgaben und Lösungen,,,,"Univ.-Doz. Dipl.-Ing. Dr. techn. Peter Lugner, O. Univ.-Prof. Mag. rer. nat. Dr. phil. Kurt Desoyer, Dipl.-Ing. Dr. techn. Anton Novak (auth.)",1988,VII,Springer Vienna,,224 S.Zeige nächste Auflage,0,German,,,,"978-3-211-82082-7,978-3-7091-4123-6",,,,,,,10.1007/978-3-7091-4123-6,,,,0,,1,0,1,,,1,6571523,pdf,f171053ad0b5f40a403fd55c5ed82652,,,10.1007%2F978-3-7091-4123-6.pdf,0,2000-01-01 01:00:00,2016-04-03 02:51:08,http://link.springer.com/static-content/covers/books/356/9783709141236.jpg,,
14914105,"Dynamic Localization Phenomena in Elasticity, Acoustics and Electromagnetism",,CISM International Centre for Mechanical Sciences 547,,"Richard V. Craster, M. Makwana, Julius Kaplunov (eds.)",2013,,Springer Vienna,,256,0,English,,,0,"978-3-7091-1618-0,978-3-7091-1619-7",,,,,,,10.1007/978-3-7091-1619-7,,,,0,,1,0,1,,,1,4735973,pdf,63ff310ba089d775f8e6c619c6d33a4c,,,10.1007%2F978-3-7091-1619-7.pdf,0,2000-01-01 01:00:00,2016-04-03 02:51:08,http://link.springer.com/static-content/covers/books/738/9783709116197.jpg,,
14914104,"Dynamic Localization Phenomena in Elasticity, Acoustics and Electromagnetism",,CISM International Centre for Mechanical Sciences 547,,"Richard V. Craster, M. Makwana (auth.), Richard V. Craster, Julius Kaplunov (eds.)",2013,,Springer Vienna,,"VII, 256 p. 60 illus.",0,English,,,,"978-3-7091-1618-0,978-3-7091-1619-7",,,,,,,10.1007/978-3-7091-1619-7,,,,0,,1,0,1,,,1,4735973,pdf,63ff310ba089d775f8e6c619c6d33a4c,,,10.1007%2F978-3-7091-1619-7.pdf,0,2000-01-01 01:00:00,2016-04-03 02:51:08,http://link.springer.com/static-content/covers/books/738/9783709116197.jpg,,
14914103,Stochastic Methods in Fluid Mechanics,,CISM International Centre for Mechanical Sciences 548,,"Jean-Pierre Minier, Sergio Chibbaro",2014,,Springer Vienna,,165,0,English,,,0,"978-3-7091-1621-0,978-3-7091-1622-7",,,,,,,10.1007/978-3-7091-1622-7,,,,0,,1,0,1,,,1,2327931,pdf,b1e4bb83eb61a394a00b862752774b84,,,10.1007%2F978-3-7091-1622-7.pdf,0,2000-01-01 01:00:00,2016-04-03 02:51:08,http://link.springer.com/static-content/covers/books/994/9783709116227.jpg,,
14914102,Stochastic Methods in Fluid Mechanics,,CISM International Centre for Mechanical Sciences 548,,"Jean-Pierre Minier, Sergio Chibbaro (auth.), Sergio Chibbaro, Jean Pierre Minier (eds.)",2014,,Springer Vienna,,"IX, 165 p. 25 illus.",0,English,,,,"978-3-7091-1621-0,978-3-7091-1622-7",,,,,,,10.1007/978-3-7091-1622-7,,,,0,,1,0,1,,,1,2327931,pdf,b1e4bb83eb61a394a00b862752774b84,,,10.1007%2F978-3-7091-1622-7.pdf,0,2000-01-01 01:00:00,2016-04-03 02:51:08,http://link.springer.com/static-content/covers/books/994/9783709116227.jpg,,
14914101,Entangled Life: Organism and Environment in the Biological and Social Sciences,,"History, Philosophy and Theory of the Life Sciences 4",,"Trevor Pearce, Gillian Barker, Eric Desjardins",2014,,Springer Netherlands,,279,0,English,,,0,"978-94-007-7066-9,978-94-007-7067-6",,,,,,,10.1007/978-94-007-7067-6,,,,0,,1,0,1,,,1,2333788,pdf,06f01c98310aef0d8da64e7f43e49291,,,10.1007%2F978-94-007-7067-6.pdf,0,2000-01-01 01:00:00,2016-04-03 02:51:08,http://link.springer.com/static-content/covers/books/136/9789400770676.jpg,,
14914100,Entangled Life: Organism and Environment in the Biological and Social Sciences,,"History, Philosophy and Theory of the Life Sciences 4",,"Trevor Pearce (auth.), Gillian Barker, Eric Desjardins, Trevor Pearce (eds.)",2014,,Springer Netherlands,,"VI, 279 p. 15 illus.",0,English,,,,"978-94-007-7066-9,978-94-007-7067-6",,,,,,,10.1007/978-94-007-7067-6,,,,0,,1,0,1,,,1,2333788,pdf,06f01c98310aef0d8da64e7f43e49291,,,10.1007%2F978-94-007-7067-6.pdf,0,2000-01-01 01:00:00,2016-04-03 02:51:08,http://link.springer.com/static-content/covers/books/136/9789400770676.jpg,,
14914098,Grundprinzipien der Mechatronik: Modellbildung und Simulation mit Bondgraphen,,,,Werner Roddeck (auth.),2013,,Springer Fachmedien Wiesbaden,,"IX, 331 S. 450 Abb. 157 Abb. in Farbe.",0,German,,,,"978-3-8348-1747-1,978-3-8348-2194-2",,,,,,,10.1007/978-3-8348-2194-2,,,,0,,1,0,1,,,1,7839618,pdf,d33dfcbf5faa7f9c047b21f8cc65b41d,,,10.1007%2F978-3-8348-2194-2.pdf,0,2000-01-01 01:00:00,2016-04-03 02:51:08,http://link.springer.com/static-content/covers/books/218/9783834821942.jpg,,
14914099,Grundprinzipien der Mechatronik: Modellbildung und Simulation mit Bondgraphen,,,,Werner Roddeck,2013,,Springer Fachmedien Wiesbaden,,331,0,German,,,0,"978-3-8348-1747-1,978-3-8348-2194-2",,,,,,,10.1007/978-3-8348-2194-2,,,,0,,1,0,1,,,1,7839618,pdf,d33dfcbf5faa7f9c047b21f8cc65b41d,,,10.1007%2F978-3-8348-2194-2.pdf,0,2000-01-01 01:00:00,2016-04-03 02:51:08,http://link.springer.com/static-content/covers/books/218/9783834821942.jpg,,
14914097,"Cross-Channel Retail Branding: Eine verhaltenswissenschaftliche Untersuchung in Deutschland, Frankreich und Großbritannien",,,,Sebastian Rittinger,2013,,Springer Fachmedien Wiesbaden,,406,0,German,,,0,"978-3-658-03609-6,978-3-658-03610-2",,,,,,,10.1007/978-3-658-03610-2,,,,0,,1,0,1,,,1,3041633,pdf,0590c72863736b53c8243c736023636e,,,10.1007%2F978-3-658-03610-2.pdf,0,2000-01-01 01:00:00,2016-04-03 02:51:08,http://link.springer.com/static-content/covers/books/698/9783658036102.jpg,,
14914096,"Cross-Channel Retail Branding: Eine verhaltenswissenschaftliche Untersuchung in Deutschland, Frankreich und Großbritannien",,,,Sebastian Rittinger (auth.),2013,,Springer Fachmedien Wiesbaden,,"XXII, 406 S. 63 Abb.",0,German,,,,"978-3-658-03609-6,978-3-658-03610-2",,,,,,,10.1007/978-3-658-03610-2,,,,0,,1,0,1,,,1,3041633,pdf,0590c72863736b53c8243c736023636e,,,10.1007%2F978-3-658-03610-2.pdf,0,2000-01-01 01:00:00,2016-04-03 02:51:08,http://link.springer.com/static-content/covers/books/698/9783658036102.jpg,,
14914095,Die Unternehmensberatung: Von der strategischen Konzeption zur praktischen Umsetzung,,,,Dirk Lippold,2013,,Springer Fachmedien Wiesbaden,,589,0,German,,,0,"978-3-658-03092-6,978-3-658-03093-3",,,,,,,10.1007/978-3-658-03093-3,,,,0,,1,0,1,,,1,6366100,pdf,52d271e316c324dcd6c79ca79dc39152,,,10.1007%2F978-3-658-03093-3.pdf,0,2000-01-01 01:00:00,2016-04-03 02:51:08,http://link.springer.com/static-content/covers/books/662/9783658030933.jpg,,
14914094,Die Unternehmensberatung: Von der strategischen Konzeption zur praktischen Umsetzung,,,,Dirk Lippold (auth.),2013,,Springer Fachmedien Wiesbaden,,"XXI, 589 S. 400 Abb.",0,German,,,,"978-3-658-03092-6,978-3-658-03093-3",,,,,,,10.1007/978-3-658-03093-3,,,,0,,1,0,1,,,1,6366100,pdf,52d271e316c324dcd6c79ca79dc39152,,,10.1007%2F978-3-658-03093-3.pdf,0,2000-01-01 01:00:00,2016-04-03 02:51:08,http://link.springer.com/static-content/covers/books/662/9783658030933.jpg,,
14914093,Kommunale Gesundheitslandschaften,,Gesundheit,,Ernst-Wilhelm Luthe,2013,,Springer Fachmedien Wiesbaden,,465,0,German,,,0,"978-3-658-02430-7,978-3-658-02431-4",,,,,,,10.1007/978-3-658-02431-4,,,,0,,1,0,1,,,1,3447934,pdf,52aca26e357deddab0377019af4679a8,,,10.1007%2F978-3-658-02431-4.pdf,0,2000-01-01 01:00:00,2016-04-03 02:51:08,http://link.springer.com/static-content/covers/books/846/9783658024314.jpg,,
14914091,Policy-Integration und Nachhaltigkeit: Integrative Politik in der Nachhaltigkeitsstrategie der deutschen Bundesregierung,,,,Basil Bornemann,2013,,Springer Fachmedien Wiesbaden,,671,0,German,,,0,"978-3-658-02208-2,978-3-658-02209-9",,,,,,,10.1007/978-3-658-02209-9,,,,0,,1,0,1,,,1,4392562,pdf,26f3a55146aa23baa609ebad89a46208,,,10.1007%2F978-3-658-02209-9.pdf,0,2000-01-01 01:00:00,2016-04-03 02:51:08,http://link.springer.com/static-content/covers/books/58/9783658022099.jpg,,
14914092,Kommunale Gesundheitslandschaften,,Gesundheit,,"Ernst-Wilhelm Luthe (auth.), Ernst-Wilhelm Luthe (eds.)",2013,,Springer Fachmedien Wiesbaden,,"XVI, 465 S. 24 Abb. 7 Abb. in Farbe.",0,German,,,,"978-3-658-02430-7,978-3-658-02431-4",,,,,,,10.1007/978-3-658-02431-4,,,,0,,1,0,1,,,1,3447934,pdf,52aca26e357deddab0377019af4679a8,,,10.1007%2F978-3-658-02431-4.pdf,0,2000-01-01 01:00:00,2016-04-03 02:51:08,http://link.springer.com/static-content/covers/books/846/9783658024314.jpg,,
14914090,Policy-Integration und Nachhaltigkeit: Integrative Politik in der Nachhaltigkeitsstrategie der deutschen Bundesregierung,,,,Basil Bornemann (auth.),2013,,Springer Fachmedien Wiesbaden,,671,0,German,,,,"978-3-658-02208-2,978-3-658-02209-9",,,,,,,10.1007/978-3-658-02209-9,,,,0,,1,0,1,,,1,4392562,pdf,26f3a55146aa23baa609ebad89a46208,,,10.1007%2F978-3-658-02209-9.pdf,0,2000-01-01 01:00:00,2016-04-03 02:51:08,http://link.springer.com/static-content/covers/books/58/9783658022099.jpg,,
14914089,Viruses and Human Cancer: From Basic Science to Clinical Prevention,,Recent Results in Cancer Research 193,,"John T. Schiller, Douglas R. Lowy, Mei Hwei Chang, Kuan-Teh Jeang",2014,,Springer Berlin Heidelberg,,290,0,English,,,0,"978-3-642-38964-1,978-3-642-38965-8",,,,,,,10.1007/978-3-642-38965-8,,,,0,,1,0,1,,,1,3611530,pdf,7690180997e5e20b8ea6f64076c3477f,,,10.1007%2F978-3-642-38965-8.pdf,0,2000-01-01 01:00:00,2016-04-03 02:51:08,http://link.springer.com/static-content/covers/books/498/9783642389658.jpg,,
14914088,Viruses and Human Cancer: From Basic Science to Clinical Prevention,,Recent Results in Cancer Research 193,,"John T. Schiller, Douglas R. Lowy (auth.), Mei Hwei Chang, Kuan-Teh Jeang (eds.)",2014,,Springer Berlin Heidelberg,,"VIII, 290 p. 26 illus. 14 illus. in color.",0,English,,,,"978-3-642-38964-1,978-3-642-38965-8",,,,,,,10.1007/978-3-642-38965-8,,,,0,,1,0,1,,,1,3611530,pdf,7690180997e5e20b8ea6f64076c3477f,,,10.1007%2F978-3-642-38965-8.pdf,0,2000-01-01 01:00:00,2016-04-03 02:51:08,http://link.springer.com/static-content/covers/books/498/9783642389658.jpg,,
14914087,Study on Heterotrophic-Autotrophic Denitrification Permeable Reactive Barriers (HAD PRBs) for In Situ Groundwater Remediation,,SpringerBriefs in Water Science and Technology,,"Fei Liu, Guoxin Huang, Howard Fallowfield, Huade Guan, Lingling Zhu, Hongyan Hu",2014,,Springer Berlin Heidelberg,,105,0,English,,,0,"978-3-642-38153-9,978-3-642-38154-6",,,,,,,10.1007/978-3-642-38154-6,,,,0,,1,0,1,,,1,2410821,pdf,8fa5e566f8906e50e2eeac942379c596,,,10.1007%2F978-3-642-38154-6.pdf,0,2000-01-01 01:00:00,2016-04-03 02:51:08,http://link.springer.com/static-content/covers/books/820/9783642381546.jpg,,
14914086,Study on Heterotrophic-Autotrophic Denitrification Permeable Reactive Barriers (HAD PRBs) for In Situ Groundwater Remediation,,SpringerBriefs in Water Science and Technology,,"Fei Liu, Guoxin Huang, Howard Fallowfield, Huade Guan, Lingling Zhu, Hongyan Hu (auth.)",2014,,Springer Berlin Heidelberg,,"IX, 105 p. 38 illus. 2 illus. in color.",0,English,,,,"978-3-642-38153-9,978-3-642-38154-6",,,,,,,10.1007/978-3-642-38154-6,,,,0,,1,0,1,,,1,2410821,pdf,8fa5e566f8906e50e2eeac942379c596,,,10.1007%2F978-3-642-38154-6.pdf,0,2000-01-01 01:00:00,2016-04-03 02:51:08,http://link.springer.com/static-content/covers/books/820/9783642381546.jpg,,
14914085,The Deductive Spreadsheet,,Cognitive Technologies,,Iliano Cervesato,2013,,Springer Berlin Heidelberg,,406,0,English,,,0,"978-3-642-37746-4,978-3-642-37747-1",,,,,,,10.1007/978-3-642-37747-1,,,,0,,1,0,1,,,1,7760515,pdf,3a17790d40da39174e78bed31d57e7c7,,,10.1007%2F978-3-642-37747-1.pdf,0,2000-01-01 01:00:00,2016-04-03 02:51:08,http://link.springer.com/static-content/covers/books/468/9783642377471.jpg,,
14914084,The Deductive Spreadsheet,,Cognitive Technologies,,Iliano Cervesato (auth.),2013,,Springer Berlin Heidelberg,,"XXI, 406 p. 98 illus.",0,English,,,,"978-3-642-37746-4,978-3-642-37747-1",,,,,,,10.1007/978-3-642-37747-1,,,,0,,1,0,1,,,1,7760515,pdf,3a17790d40da39174e78bed31d57e7c7,,,10.1007%2F978-3-642-37747-1.pdf,0,2000-01-01 01:00:00,2016-04-03 02:51:08,http://link.springer.com/static-content/covers/books/468/9783642377471.jpg,,
14914083,Analysis of Engineering Drawings and Raster Map Images,,,,Thomas C. Henderson,2014,,Springer New York,,241,0,English,,,0,"978-1-4419-8166-0,978-1-4419-8167-7",,,,,,,10.1007/978-1-4419-8167-7,,,,0,,1,0,1,,,1,6126023,pdf,e85fecf6f8f0af36ab88597b578fd9c8,,,10.1007%2F978-1-4419-8167-7.pdf,0,2000-01-01 01:00:00,2016-04-03 02:51:08,http://link.springer.com/static-content/covers/books/764/9781441981677.jpg,,
14914082,Analysis of Engineering Drawings and Raster Map Images,,,,Thomas C. Henderson (auth.),2014,,Springer New York,,"XII, 241 p. 214 illus.",0,English,,,,"978-1-4419-8166-0,978-1-4419-8167-7",,,,,,,10.1007/978-1-4419-8167-7,,,,0,,1,0,1,,,1,6126023,pdf,e85fecf6f8f0af36ab88597b578fd9c8,,,10.1007%2F978-1-4419-8167-7.pdf,0,2000-01-01 01:00:00,2016-04-03 02:51:08,http://link.springer.com/static-content/covers/books/764/9781441981677.jpg,,
14914081,Atlas of Esophagus and Stomach Pathology,,Atlas of Anatomic Pathology,,"Scott R. Owens, Henry D. Appelman",2014,,Springer New York,,195,0,English,,,0,"978-1-4614-8083-9,978-1-4614-8084-6",,,,,,,10.1007/978-1-4614-8084-6,,,,0,,1,0,1,,,1,50030021,pdf,69851e12e34fdca1e31e0b36c8fea4ce,,,10.1007%2F978-1-4614-8084-6.pdf,0,2000-01-01 01:00:00,2016-04-03 02:51:08,http://link.springer.com/static-content/covers/books/260/9781461480846.jpg,,
14914080,Atlas of Esophagus and Stomach Pathology,,Atlas of Anatomic Pathology,,"Scott R. Owens, Henry D. Appelman (auth.)",2014,,Springer New York,,"X, 195 p. 373 illus. in color.",0,English,,,,"978-1-4614-8083-9,978-1-4614-8084-6",,,,,,,10.1007/978-1-4614-8084-6,,,,0,,1,0,1,,,1,50030021,pdf,69851e12e34fdca1e31e0b36c8fea4ce,,,10.1007%2F978-1-4614-8084-6.pdf,0,2000-01-01 01:00:00,2016-04-03 02:51:08,http://link.springer.com/static-content/covers/books/260/9781461480846.jpg,,
14914079,"Migration, Gender and Social Justice: Perspectives on Human Insecurity",,Hexagon Series on Human and Environmental Security and Peace 9,,"Thanh-Dam Truong, Des Gasper, Jeff Handmaker, Sylvia I. Bergh",2014,,Springer Berlin Heidelberg,,408,0,English,,,0,"978-3-642-28011-5,978-3-642-28012-2",,,,,,,10.1007/978-3-642-28012-2,,,,0,,1,0,1,,,1,5011700,pdf,e179ca5931668498550461f27b41cdbb,,,10.1007%2F978-3-642-28012-2.pdf,0,2000-01-01 01:00:00,2016-04-03 02:51:08,http://link.springer.com/static-content/covers/books/672/9783642280122.jpg,,
14914078,"Migration, Gender and Social Justice: Perspectives on Human Insecurity",,Hexagon Series on Human and Environmental Security and Peace 9,,"Thanh-Dam Truong, Des Gasper, Jeff Handmaker (auth.), Tanh-Dam Truong, Des Gasper, Jeff Handmaker, Sylvia I. Bergh (eds.)",2014,,Springer Berlin Heidelberg,,"XII, 408 p. 20 illus.",0,English,,,,"978-3-642-28011-5,978-3-642-28012-2",,,,,,,10.1007/978-3-642-28012-2,,,,0,,1,0,1,,,1,5011700,pdf,e179ca5931668498550461f27b41cdbb,,,10.1007%2F978-3-642-28012-2.pdf,0,2000-01-01 01:00:00,2016-04-03 02:51:08,http://link.springer.com/static-content/covers/books/672/9783642280122.jpg,,
14914076,Geodesic Convexity in Graphs,,SpringerBriefs in Mathematics,,Ignacio M. Pelayo (auth.),2013,,Springer New York,,"VIII, 112 p. 41 illus.",0,English,,,,"978-1-4614-8698-5,978-1-4614-8699-2",,,,,,,10.1007/978-1-4614-8699-2,,,,0,,1,0,1,,,1,1577744,pdf,81b36ae1c9f1daa7c5f403f7cf07c206,,,10.1007%2F978-1-4614-8699-2.pdf,0,2000-01-01 01:00:00,2016-04-03 02:51:08,http://link.springer.com/static-content/covers/books/402/9781461486992.jpg,,
14914077,Geodesic Convexity in Graphs,,SpringerBriefs in Mathematics,,Ignacio M. Pelayo,2013,,Springer New York,,112,0,English,,,0,"978-1-4614-8698-5,978-1-4614-8699-2",,,,,,,10.1007/978-1-4614-8699-2,,,,0,,1,0,1,,,1,1577744,pdf,81b36ae1c9f1daa7c5f403f7cf07c206,,,10.1007%2F978-1-4614-8699-2.pdf,0,2000-01-01 01:00:00,2016-04-03 02:51:08,http://link.springer.com/static-content/covers/books/402/9781461486992.jpg,,
14914075,The Economics of the Monetary Union and the Eurozone Crisis,,SpringerBriefs in Economics,,Manuel Sanchis i Marco,2014,,Springer International Publishing,,109,0,English,,,0,"978-3-319-00019-0,978-3-319-00020-6",,,,,,,10.1007/978-3-319-00020-6,,,,0,,1,0,1,,,1,1932759,pdf,abe805dbc4ea1e8bad634f5e7479804b,,,10.1007%2F978-3-319-00020-6.pdf,0,2000-01-01 01:00:00,2016-04-03 02:51:08,http://link.springer.com/static-content/covers/books/128/9783319000206.jpg,,
14914074,The Economics of the Monetary Union and the Eurozone Crisis,,SpringerBriefs in Economics,,Manuel Sanchis i Marco (auth.),2014,,Springer International Publishing,,"XIII, 109 p. 14 illus. 12 illus. in color.",0,English,,,,"978-3-319-00019-0,978-3-319-00020-6",,,,,,,10.1007/978-3-319-00020-6,,,,0,,1,0,1,,,1,1932759,pdf,abe805dbc4ea1e8bad634f5e7479804b,,,10.1007%2F978-3-319-00020-6.pdf,0,2000-01-01 01:00:00,2016-04-03 02:51:08,http://link.springer.com/static-content/covers/books/128/9783319000206.jpg,,
14914073,Broadband Direct RF Digitization Receivers,,Analog Circuits and Signal Processing 121,,Olivier Jamin,2014,,Springer International Publishing,,162,0,English,,,0,"978-3-319-01149-3,978-3-319-01150-9",,,,,,,10.1007/978-3-319-01150-9,,,,0,,1,0,1,,,1,5394818,pdf,ced560af7dafd663d60e707ed2c6dc3c,,,10.1007%2F978-3-319-01150-9.pdf,0,2000-01-01 01:00:00,2016-04-03 02:51:08,http://link.springer.com/static-content/covers/books/930/9783319011509.jpg,,
14914072,Broadband Direct RF Digitization Receivers,,Analog Circuits and Signal Processing 121,,Olivier Jamin (auth.),2014,,Springer International Publishing,,"XVI, 162 p. 166 illus. 68 illus. in color.",0,English,,,,"978-3-319-01149-3,978-3-319-01150-9",,,,,,,10.1007/978-3-319-01150-9,,,,0,,1,0,1,,,1,5394818,pdf,ced560af7dafd663d60e707ed2c6dc3c,,,10.1007%2F978-3-319-01150-9.pdf,0,2000-01-01 01:00:00,2016-04-03 02:51:08,http://link.springer.com/static-content/covers/books/930/9783319011509.jpg,,
14914071,"Sustained Simulation Performance 2013: Proceedings of the joint Workshop on Sustained Simulation Performance, University of Stuttgart (HLRS) and Tohoku University, 2013",,,,"Hiroaki Kobayashi, Michael M. Resch, Wolfgang Bez, Erich Focht, Yevgeniya Kovalenko",2013,,Springer International Publishing,,157,0,English,,,0,"978-3-319-01438-8,978-3-319-01439-5",,,,,,,10.1007/978-3-319-01439-5,,,,0,,1,0,1,,,1,5331405,pdf,2b05f7c48a0bcd200ca7275be125b913,,,10.1007%2F978-3-319-01439-5.pdf,0,2000-01-01 01:00:00,2016-04-03 02:51:08,http://link.springer.com/static-content/covers/books/204/9783319014395.jpg,,
14914070,Delay Systems: From Theory to Numerics and Applications,,Advances in Delays and Dynamics 1,,"Carlos Cuvas, Adrian Ramírez, Alexey Egorov, Sabine Mondié (auth.), Tomáš Vyhlídal, Jean-François Lafay, Rifat Sipahi (eds.)",2014,,Springer International Publishing,,"XXIV, 404 p. 130 illus. 4 illus. in color.",0,English,,,,"978-3-319-01694-8,978-3-319-01695-5",,,,,,,10.1007/978-3-319-01695-5,,,,0,,1,0,1,,,1,8622615,pdf,054512622e99ae766b8415daa2646d51,,,10.1007%2F978-3-319-01695-5.pdf,0,2000-01-01 01:00:00,2016-04-03 02:51:08,http://link.springer.com/static-content/covers/books/980/9783319016955.jpg,,
14914069,"Sustained Simulation Performance 2013: Proceedings of the joint Workshop on Sustained Simulation Performance, University of Stuttgart (HLRS) and Tohoku University, 2013",,,,"Hiroaki Kobayashi (auth.), Michael M. Resch, Wolfgang Bez, Erich Focht, Hiroaki Kobayashi, Yevgeniya Kovalenko (eds.)",2013,,Springer International Publishing,,"X, 157 p. 84 illus. 71 illus. in color.",0,English,,,,"978-3-319-01438-8,978-3-319-01439-5",,,,,,,10.1007/978-3-319-01439-5,,,,0,,1,0,1,,,1,5331405,pdf,2b05f7c48a0bcd200ca7275be125b913,,,10.1007%2F978-3-319-01439-5.pdf,0,2000-01-01 01:00:00,2016-04-03 02:51:08,http://link.springer.com/static-content/covers/books/204/9783319014395.jpg,,
14914068,New Trends in Medical and Service Robots: Theory and Integrated Applications,,Mechanisms and Machine Science 16,,"Hannes Bleuler, M. Bouri, Doina Pisla, Aleksandar Rodic, Calin Vaida, Adrian Pisla",2014,,Springer International Publishing,,238,0,English,,,0,"978-3-319-01591-0,978-3-319-01592-7",,,,,,,10.1007/978-3-319-01592-7,,,,0,,1,0,1,,,1,7928595,pdf,52c3981e5983a063976853fb1e92dce2,,,10.1007%2F978-3-319-01592-7.pdf,0,2000-01-01 01:00:00,2016-04-03 02:51:08,http://link.springer.com/static-content/covers/books/862/9783319015927.jpg,,
14914067,New Trends in Medical and Service Robots: Theory and Integrated Applications,,Mechanisms and Machine Science 16,,"H. Bleuler, M. Bouri (auth.), Doina Pisla, Hannes Bleuler, Aleksandar Rodic, Calin Vaida, Adrian Pisla (eds.)",2014,,Springer International Publishing,,"VIII, 238 p. 167 illus. 127 illus. in color.",0,English,,,,"978-3-319-01591-0,978-3-319-01592-7",,,,,,,10.1007/978-3-319-01592-7,,,,0,,1,0,1,,,1,7928595,pdf,52c3981e5983a063976853fb1e92dce2,,,10.1007%2F978-3-319-01592-7.pdf,0,2000-01-01 01:00:00,2016-04-03 02:51:08,http://link.springer.com/static-content/covers/books/862/9783319015927.jpg,,
14914066,Permutation Tests in Shape Analysis,,SpringerBriefs in Statistics 15,,"LUIGI SALMASO, Chiara Brombin",2013,,Springer New York,,95,0,English,,,0,"978-1-4614-8162-1,978-1-4614-8163-8",,,,,,,10.1007/978-1-4614-8163-8,,,,0,,1,0,1,,,1,1572498,pdf,514eab2affd813e30a8f099a5f96ac30,,,10.1007%2F978-1-4614-8163-8.pdf,0,2000-01-01 01:00:00,2016-04-03 02:51:08,http://link.springer.com/static-content/covers/books/420/9781461481638.jpg,,
14914065,Permutation Tests in Shape Analysis,,SpringerBriefs in Statistics 15,,"LUIGI SALMASO, Chiara Brombin (auth.)",2013,,Springer New York,,"X, 95 p. 19 illus. 16 illus. in color.",0,English,,,,"978-1-4614-8162-1,978-1-4614-8163-8",,,,,,,10.1007/978-1-4614-8163-8,,,,0,,1,0,1,,,1,1572498,pdf,514eab2affd813e30a8f099a5f96ac30,,,10.1007%2F978-1-4614-8163-8.pdf,0,2000-01-01 01:00:00,2016-04-03 02:51:08,http://link.springer.com/static-content/covers/books/420/9781461481638.jpg,,
14914064,Optimal Stochastic Control Schemes within a Structural Reliability Framework,,SpringerBriefs in Statistics,,Bernt J. Leira (auth.),2013,,Springer International Publishing,,"VI, 98 p. 54 illus. 11 illus. in color.",0,English,,,,"978-3-319-01404-3,978-3-319-01405-0",,,,,,,10.1007/978-3-319-01405-0,,,,0,,1,0,1,,,1,2706733,pdf,f65c4fb0b738d7a1cf8c15e760a0b12f,,,10.1007%2F978-3-319-01405-0.pdf,0,2000-01-01 01:00:00,2016-04-03 02:51:08,http://link.springer.com/static-content/covers/books/216/9783319014050.jpg,,
14914063,Dropwise Condensation on Inclined Textured Surfaces,,SpringerBriefs in Applied Sciences and Technology,,"Sameer Khandekar, Krishnamurthy Muralidhar",2014,,Springer New York,,141,0,English,,,0,"978-1-4614-8446-2,978-1-4614-8447-9",,,,,,,10.1007/978-1-4614-8447-9,,,,0,,1,0,1,,,1,7174892,pdf,268959df31a908cbfa3fb2e3ef1b9a45,,,10.1007%2F978-1-4614-8447-9.pdf,0,2000-01-01 01:00:00,2016-04-03 02:51:08,http://link.springer.com/static-content/covers/books/844/9781461484479.jpg,,
14914062,Dropwise Condensation on Inclined Textured Surfaces,,SpringerBriefs in Applied Sciences and Technology,,"Sameer Khandekar, Krishnamurthy Muralidhar (auth.)",2014,,Springer New York,,"XV, 141 p. 81 illus. 25 illus. in color.",0,English,,,,"978-1-4614-8446-2,978-1-4614-8447-9",,,,,,,10.1007/978-1-4614-8447-9,,,,0,,1,0,1,,,1,7174892,pdf,268959df31a908cbfa3fb2e3ef1b9a45,,,10.1007%2F978-1-4614-8447-9.pdf,0,2000-01-01 01:00:00,2016-04-03 02:51:08,http://link.springer.com/static-content/covers/books/844/9781461484479.jpg,,
14914061,Constant-Scale Natural Boundary Mapping to Reveal Global and Cosmic Processes,,SpringerBriefs in Astronomy,,"Pamela Elizabeth Clark, Chuck Clark",2013,,Springer New York,,116,0,English,,,0,"978-1-4614-7761-7,978-1-4614-7762-4",,,,,,,10.1007/978-1-4614-7762-4,,,,0,,1,0,1,,,1,9931737,pdf,5502526ee4f78b2f8ab93bdd99fbd5f6,,,10.1007%2F978-1-4614-7762-4.pdf,0,2000-01-01 01:00:00,2016-04-03 02:51:08,http://link.springer.com/static-content/covers/books/230/9781461477624.jpg,,
14914060,The Assessment and Treatment of Children Who Abuse Animals: The AniCare Child Approach,,,,"Kenneth Shapiro, Mary Lou Randour, Susan Krinsk, Joann L. Wolf (auth.)",2014,,Springer International Publishing,,"XII, 124 p. 10 illus.",0,English,,,,"978-3-319-01088-5,978-3-319-01089-2",,,,,,,10.1007/978-3-319-01089-2,,,,0,,1,0,1,,,1,1395968,pdf,feb0a6980f62f15f31a75c0e00787711,,,10.1007%2F978-3-319-01089-2.pdf,0,2000-01-01 01:00:00,2016-04-03 02:51:08,http://link.springer.com/static-content/covers/books/566/9783319010892.jpg,,
14914059,Constant-Scale Natural Boundary Mapping to Reveal Global and Cosmic Processes,,SpringerBriefs in Astronomy,,"Pamela Elizabeth Clark, Chuck Clark (auth.)",2013,,Springer New York,,"X, 116 p. 53 illus. 30 illus. in color.",0,English,,,,"978-1-4614-7761-7,978-1-4614-7762-4",,,,,,,10.1007/978-1-4614-7762-4,,,,0,,1,0,1,,,1,9931737,pdf,5502526ee4f78b2f8ab93bdd99fbd5f6,,,10.1007%2F978-1-4614-7762-4.pdf,0,2000-01-01 01:00:00,2016-04-03 02:51:08,http://link.springer.com/static-content/covers/books/230/9781461477624.jpg,,
14914058,Periprosthetic Joint Infection of the Hip and Knee,,,,"David J. Jaekel, Bryan D. Springer, Javad Parvizi",2014,,Springer New York,,257,0,English,,,0,"978-1-4614-7927-7,978-1-4614-7928-4",,,,,,,10.1007/978-1-4614-7928-4,,,,0,,1,0,1,,,1,7471342,pdf,3839d58f6c1895a67fd96cc8067e9c01,,,10.1007%2F978-1-4614-7928-4.pdf,0,2000-01-01 01:00:00,2016-04-03 02:51:08,http://link.springer.com/static-content/covers/books/306/9781461479284.jpg,,
14914057,"Design in Educational Technology: Design Thinking, Design Process, and the Design Studio",,Educational Communications and Technology: Issues and Innovations 1,,"Monica W. Tracey, John Baaki (auth.), Brad Hokanson, Andrew Gibbons (eds.)",2014,,Springer International Publishing,,"X, 273 p. 27 illus. 6 illus. in color.",0,English,,,,"978-3-319-00926-1,978-3-319-00927-8",,,,,,,10.1007/978-3-319-00927-8,,,,0,,1,0,1,,,1,3659106,pdf,7a09dc1c94260cd1a2aac1d19b1410a0,,,10.1007%2F978-3-319-00927-8.pdf,0,2000-01-01 01:00:00,2016-04-03 02:51:08,http://link.springer.com/static-content/covers/books/790/9783319009278.jpg,,
14914056,Periprosthetic Joint Infection of the Hip and Knee,,,,"David J. Jaekel Ph.D. (auth.), Bryan D. Springer, Javad Parvizi (eds.)",2014,,Springer New York,,"XVII, 257 p. 57 illus. 35 illus. in color.",0,English,,,,"978-1-4614-7927-7,978-1-4614-7928-4",,,,,,,10.1007/978-1-4614-7928-4,,,,0,,1,0,1,,,1,7471342,pdf,3839d58f6c1895a67fd96cc8067e9c01,,,10.1007%2F978-1-4614-7928-4.pdf,0,2000-01-01 01:00:00,2016-04-03 02:51:08,http://link.springer.com/static-content/covers/books/306/9781461479284.jpg,,
14914055,Electrogenerated Chemiluminescence: Protocols and Applications,,SpringerBriefs in Molecular Science,,"Saima Parveen, Muhammad Sohail Aslam, Lianzhe Hu, Guobao Xu",2013,,Springer Berlin Heidelberg,,152,0,English,,,0,"978-3-642-39554-3,978-3-642-39555-0",,,,,,,10.1007/978-3-642-39555-0,,,,0,,1,0,1,,,1,3586952,pdf,3af5d5321b4e5b9fbe0a4890edf05d4c,,,10.1007%2F978-3-642-39555-0.pdf,0,2000-01-01 01:00:00,2016-04-03 02:51:08,http://link.springer.com/static-content/covers/books/110/9783642395550.jpg,,
14914054,Electrogenerated Chemiluminescence: Protocols and Applications,,SpringerBriefs in Molecular Science,,"Saima Parveen, Muhammad Sohail Aslam, Lianzhe Hu, Guobao Xu (auth.)",2013,,Springer Berlin Heidelberg,,"XIII, 152 p. 54 illus. 22 illus. in color.",0,English,,,,"978-3-642-39554-3,978-3-642-39555-0",,,,,,,10.1007/978-3-642-39555-0,,,,0,,1,0,1,,,1,3586952,pdf,3af5d5321b4e5b9fbe0a4890edf05d4c,,,10.1007%2F978-3-642-39555-0.pdf,0,2000-01-01 01:00:00,2016-04-03 02:51:08,http://link.springer.com/static-content/covers/books/110/9783642395550.jpg,,
14914053,Awareness in Action: The Role of Consciousness in Language Acquisition,,Second Language Learning and Teaching,,"Hanna Komorowska (auth.), Andrzej Łyda, Konrad Szcześniak (eds.)",2014,,Springer International Publishing,,"XVI, 268 p. 29 illus.",0,English,,,,"978-3-319-00460-0,978-3-319-00461-7",,,,,,,10.1007/978-3-319-00461-7,,,,0,,1,0,1,,,1,2886949,pdf,ef8c68e4e2561e30d95821e2e18fb713,,,10.1007%2F978-3-319-00461-7.pdf,0,2000-01-01 01:00:00,2016-04-03 02:51:08,http://link.springer.com/static-content/covers/books/88/9783319004617.jpg,,
14914052,Econophysics of Agent-Based Models,,New Economic Windows,,"Hiroyuki Kyan, Jun-ichi Inoue (auth.), Frédéric Abergel, Hideaki Aoyama, Bikas K. Chakrabarti, Anirban Chakraborti, Asim Ghosh (eds.)",2014,,Springer International Publishing,,"VIII, 302 p. 91 illus.",0,English,,,,"978-3-319-00022-0,978-3-319-00023-7",,,,,,,10.1007/978-3-319-00023-7,,,,0,,1,0,1,,,1,5751434,pdf,561cece6bd3f54660ada7747a597d189,,,10.1007%2F978-3-319-00023-7.pdf,0,2000-01-01 01:00:00,2016-04-03 02:51:08,http://link.springer.com/static-content/covers/books/34/9783319000237.jpg,,
14914051,Peptide Modifications to Increase Metabolic Stability and Activity,,Methods in Molecular Biology 1081,,"Adel Nefzi (auth.), Predrag Cudic (eds.)",2013,,Humana Press,,245,0,English,,,,"978-1-62703-651-1,978-1-62703-652-8",,,,,,,10.1007/978-1-62703-652-8,,,,0,,1,0,1,,,1,3993196,pdf,b1fbfee6dfbdf6b486206c4bf71b8d2f,,,10.1007%2F978-1-62703-652-8.pdf,0,2000-01-01 01:00:00,2016-04-03 02:51:08,http://link.springer.com/static-content/covers/books/142/9781627036528.jpg,,
14914050,"Bat Evolution, Ecology, and Conservation",,,,"Lisa Noelle Cooper, Karen E. Sears (auth.), Rick A. Adams, Scott C. Pedersen (eds.)",2013,,Springer New York,,"XVI, 547 p. 127 illus. 70 illus. in color.",0,English,,,,"978-1-4614-7396-1,978-1-4614-7397-8",,,,,,,10.1007/978-1-4614-7397-8,,,,0,,1,0,1,,,1,13398441,pdf,7d3cb2fae828175378605672a0205a88,,,10.1007%2F978-1-4614-7397-8.pdf,0,2000-01-01 01:00:00,2016-04-03 02:51:08,http://link.springer.com/static-content/covers/books/352/9781461473978.jpg,,
14914048,Using Statistics in Social Research: A Concise Approach,,,,Scott M. Lynch (auth.),2013,,Springer New York,,"XXIII, 229 p. 44 illus.",0,English,,,,"978-1-4614-8572-8,978-1-4614-8573-5",,,,,,,10.1007/978-1-4614-8573-5,,,,0,,1,0,1,,,1,1876394,pdf,36c2bff110c700e1e94437b07bcb286c,,,10.1007%2F978-1-4614-8573-5.pdf,0,2000-01-01 01:00:00,2016-04-03 02:51:08,http://link.springer.com/static-content/covers/books/298/9781461485735.jpg,,
14914049,Primates in Fragments: Complexity and Resilience,,Developments in Primatology: Progress and Prospects,,"Laura K. Marsh (auth.), Laura K. Marsh, Colin A. Chapman (eds.)",2013,,Springer New York,,"XXII, 537 p. 120 illus. 84 illus. in color.",0,English,,,,"978-1-4614-8838-5,978-1-4614-8839-2",,,,,,,10.1007/978-1-4614-8839-2,,,,0,,1,0,1,,,1,13063336,pdf,5339c051568233e3b695a0f7c462caf5,,,10.1007%2F978-1-4614-8839-2.pdf,0,2000-01-01 01:00:00,2016-04-03 02:51:08,http://link.springer.com/static-content/covers/books/586/9781461488392.jpg,,
14914047,"The life of hsuan-tsang, the Tripitaka-master of the Great Tzu En Monastery",,,,Huili; San Shih Buddhist Institute (Tr),1959,,Chinese Buddhist Association,Peking,288,0,English,206,,0,,,,,,,,,,,,0,,1,,1,1,1,1,7659085,pdf,a4f6dce5013a01c3a54f9750fc0ada0a,,,Huili; Chinese Buddhist Association (Tr) - Life of Hsuan-Tsang (288p),0,2000-01-01 01:00:00,2016-04-03 02:51:08,1016000/a4f6dce5013a01c3a54f9750fc0ada0a-g.jpg,,
14914046,"The life of hsuan-tsang, the Tripitaka-master of the Great Tzu En Monastery.",,,,Huili; San Shih Buddhist Institute (Tr),1959,,Chinese Buddhist Association,Peking,288,0,,206,,0,,,,,,,,,,,,0,,1,,1,1,1,1,7659085,pdf,a4f6dce5013a01c3a54f9750fc0ada0a,,,Huili; Chinese Buddhist Association (Tr) - Life of Hsuan-Tsang (288p),0,2000-01-01 01:00:00,2016-04-03 02:51:08,1016000/a4f6dce5013a01c3a54f9750fc0ada0a-g.jpg,,
14914045,Elliptically Contoured Models in Statistics and Portfolio Theory,,,,"Arjun K. Gupta, Tamas Varga, Taras Bodnar (auth.)",2013,,Springer New York,,"XX, 321 p. 7 illus.",0,English,,,,"978-1-4614-8153-9,978-1-4614-8154-6",,,,,,,10.1007/978-1-4614-8154-6,,,,0,,1,0,1,,,1,2737207,pdf,d794cd31035575dec00ab9ff63a4e06d,,,10.1007%2F978-1-4614-8154-6.pdf,0,2000-01-01 01:00:00,2016-04-03 02:51:08,http://link.springer.com/static-content/covers/books/352/9781461481546.jpg,,
14914044,Advances in Chronic Lymphocytic Leukemia,,Advances in Experimental Medicine and Biology 792,,"Andreas Agathangelidis, Stavroula Ntoufa (auth.), Sami Malek (eds.)",2013,,Springer New York,,"XI, 334 p. 25 illus. 24 illus. in color.",0,English,,,,"978-1-4614-8050-1,978-1-4614-8051-8",,,,,,,10.1007/978-1-4614-8051-8,,,,0,,1,0,1,,,1,3633899,pdf,ef4b0c01e3982404bb64853c63ac974c,,,10.1007%2F978-1-4614-8051-8.pdf,0,2000-01-01 01:00:00,2016-04-03 02:51:08,http://link.springer.com/static-content/covers/books/234/9781461480518.jpg,,
14914043,Beiträge zur Entwicklungsgeschichte der Kraniozerebralen Topographie des Menschen: Vorgelegt in der Sitzung am 17. Dezember 1942,,,,Ferdinand Hochstetter,1943,,Springer Vienna,,100,0,German,,,0,"978-3-7091-9574-1,978-3-7091-9821-6",,,,,,,10.1007/978-3-7091-9821-6,,,,0,,1,0,1,,,1,7366886,pdf,d8f18dd5a67a1c69092fdc7f500c1234,,,10.1007%2F978-3-7091-9821-6.pdf,0,2000-01-01 01:00:00,2016-04-03 02:51:08,http://link.springer.com/static-content/covers/books/276/9783709198216.jpg,,
14914042,Beiträge zur Entwicklungsgeschichte der Kraniozerebralen Topographie des Menschen: Vorgelegt in der Sitzung am 17. Dezember 1942,,,,Ferdinand Hochstetter (auth.),1943,,Springer Vienna,,100,0,German,,,,"978-3-7091-9574-1,978-3-7091-9821-6",,,,,,,10.1007/978-3-7091-9821-6,,,,0,,1,0,1,,,1,7366886,pdf,d8f18dd5a67a1c69092fdc7f500c1234,,,10.1007%2F978-3-7091-9821-6.pdf,0,2000-01-01 01:00:00,2016-04-03 02:51:08,http://link.springer.com/static-content/covers/books/276/9783709198216.jpg,,
14914041,"Unternehmerisches Preisänderungsverhalten: Dimensionen, Determinanten und Konsequenzen",,,,Thomas R. W. Schmidt,2013,,Springer Fachmedien Wiesbaden,,241,0,German,,,0,"978-3-8349-4012-4,978-3-8349-4013-1",,,,,,,10.1007/978-3-8349-4013-1,,,,0,,1,0,1,,,1,1546855,pdf,46e7215d513e020cdfc9cdc85a46e9d9,,,10.1007%2F978-3-8349-4013-1.pdf,0,2000-01-01 01:00:00,2016-04-03 02:51:08,http://link.springer.com/static-content/covers/books/536/9783834940131.jpg,,
14914040,"Unternehmerisches Preisänderungsverhalten: Dimensionen, Determinanten und Konsequenzen",,,,Thomas R. W. Schmidt (auth.),2013,,Springer Fachmedien Wiesbaden,,241,0,German,,,,"978-3-8349-4012-4,978-3-8349-4013-1",,,,,,,10.1007/978-3-8349-4013-1,,,,0,,1,0,1,,,1,1546855,pdf,46e7215d513e020cdfc9cdc85a46e9d9,,,10.1007%2F978-3-8349-4013-1.pdf,0,2000-01-01 01:00:00,2016-04-03 02:51:08,http://link.springer.com/static-content/covers/books/536/9783834940131.jpg,,
14914039,Transport Properties of Molecular Junctions,,Springer Tracts in Modern Physics 254,,Natalya A. Zimbovskaya (auth.),2013,,Springer New York,,"XIII, 338 p. 104 illus. 95 illus. in color.",0,English,,,,"978-1-4614-8010-5,978-1-4614-8011-2",,,,,,,10.1007/978-1-4614-8011-2,,,,0,,1,0,1,,,1,6743896,pdf,3760598aacdbd2658b98d8fde07021b0,,,10.1007%2F978-1-4614-8011-2.pdf,0,2000-01-01 01:00:00,2016-04-03 02:51:08,http://link.springer.com/static-content/covers/books/84/9781461480112.jpg,,
14914038,Topographische Diagnostik des Gehirns,,Verhandlungen der Deutschen Gesellschaft für Neurologie 9,,"H.-J. Freund, Wilfried Lang, Lüder Deecke, Hanns Christian Hopf",1995,,Springer Vienna,,841,0,German,,,0,"978-3-211-82707-9,978-3-7091-9415-7",,,,,,,10.1007/978-3-7091-9415-7,,,,0,,1,0,1,,,1,31491385,pdf,6a119ec93624190013368ef16cf023a7,,,10.1007%2F978-3-7091-9415-7.pdf,0,2000-01-01 01:00:00,2016-04-03 02:51:08,http://link.springer.com/static-content/covers/books/276/9783709194157.jpg,,
14914036,Computing with Memory for Energy-Efficient Robust Systems,,,,"Somnath Paul, Swarup Bhunia (auth.)",2014,,Springer New York,,"XIII, 210 p. 73 illus. 41 illus. in color.",0,English,,,,"978-1-4614-7797-6,978-1-4614-7798-3",,,,,,,10.1007/978-1-4614-7798-3,,,,0,,1,0,1,,,1,6564067,pdf,2f66c4e16c61e887386fc8a139272528,,,10.1007%2F978-1-4614-7798-3.pdf,0,2000-01-01 01:00:00,2016-04-03 02:51:08,http://link.springer.com/static-content/covers/books/162/9781461477983.jpg,,
14914037,Topographische Diagnostik des Gehirns,,Verhandlungen der Deutschen Gesellschaft für Neurologie 9,,"H.-J. Freund (auth.), Univ.-Doz. Dr. Wilfried Lang, Univ.-Prof. Dr. Lüder Deecke, Univ.-Prof. Dr. Hanns Christian Hopf (eds.)",1995,,Springer Vienna,,841 S.,0,German,,,,"978-3-211-82707-9,978-3-7091-9415-7",,,,,,,10.1007/978-3-7091-9415-7,,,,0,,1,0,1,,,1,31491385,pdf,6a119ec93624190013368ef16cf023a7,,,10.1007%2F978-3-7091-9415-7.pdf,0,2000-01-01 01:00:00,2016-04-03 02:51:08,http://link.springer.com/static-content/covers/books/276/9783709194157.jpg,,
14914035,The Hamlyn Pictorial History of the 20th Century,,,,Neil Wenborn,1995,,Hamlyn,,592,0,,,,0,"0600587762,9780600587767",,,,,,,,,,,600,,1,,,1,1,1,72699231,djvu,bb01622c0a1d0001973acc377107b1ff,,,Hamlyn Pictoral History of the 20th Century [BSF 4] [v3],0,2000-01-01 01:00:00,2016-04-03 02:51:08,1016000/bb01622c0a1d0001973acc377107b1ff-d.jpg,,
14914034,Fundamental Beta: Ermittlung des systematischen Risikos bei nicht börsennotierten Unternehmen,,,,Alexander Scheld,2013,,Springer Fachmedien Wiesbaden,,293,0,German,,,0,"978-3-8349-3189-4,978-3-8349-7154-8",,,,,,,10.1007/978-3-8349-7154-8,,,,0,,1,0,1,,,1,2777276,pdf,a4bb76f14e692ccebb5e32822ee54ecc,,,10.1007%2F978-3-8349-7154-8.pdf,0,2000-01-01 01:00:00,2016-04-03 02:51:08,http://link.springer.com/static-content/covers/books/300/9783834971548.jpg,,
14914033,The Mathematical Structure of Classical and Relativistic Physics: A General Classification Diagram,,"Modeling and Simulation in Science, Engineering and Technology",,Enzo Tonti (auth.),2013,,Springer New York,,537,0,English,,,,"978-1-4614-7421-0,978-1-4614-7422-7",,,,,,,10.1007/978-1-4614-7422-7,,,,0,,1,0,1,,,1,13936668,pdf,49e0aa5a08d6fe08a9505607d83518fd,,,10.1007%2F978-1-4614-7422-7.pdf,0,2000-01-01 01:00:00,2016-04-03 02:51:08,http://link.springer.com/static-content/covers/books/444/9781461474227.jpg,,
14914032,Fundamental Beta: Ermittlung des systematischen Risikos bei nicht börsennotierten Unternehmen,,,,Alexander Scheld (auth.),2013,,Springer Fachmedien Wiesbaden,,"XXVIII, 293 S. 34 Abb. 3 Abb. in Farbe.",0,German,,,,"978-3-8349-3189-4,978-3-8349-7154-8",,,,,,,10.1007/978-3-8349-7154-8,,,,0,,1,0,1,,,1,2777276,pdf,a4bb76f14e692ccebb5e32822ee54ecc,,,10.1007%2F978-3-8349-7154-8.pdf,0,2000-01-01 01:00:00,2016-04-03 02:51:08,http://link.springer.com/static-content/covers/books/300/9783834971548.jpg,,
14914031,Cleaner Combustion: Developing Detailed Chemical Kinetic Models,,Green Energy and Technology,,"Edward Blurock, Frédérique Battin-Leclerc, John M. Simmie",2013,,Springer London,,658,0,English,,,0,"978-1-4471-5306-1,978-1-4471-5307-8",,,,,,,10.1007/978-1-4471-5307-8,,,,0,,1,0,1,,,1,10444434,pdf,48ffa4e8278081bdd00c37413e2afd9f,,,10.1007%2F978-1-4471-5307-8.pdf,0,2000-01-01 01:00:00,2016-04-03 02:51:08,http://link.springer.com/static-content/covers/books/632/9781447153078.jpg,,
14914030,Cleaner Combustion: Developing Detailed Chemical Kinetic Models,,Green Energy and Technology,,"Edward Blurock, Frédérique Battin-Leclerc (auth.), Frédérique Battin-Leclerc, John M. Simmie, Edward Blurock (eds.)",2013,,Springer London,,"XIII, 658 p. 245 illus.",0,English,,,,"978-1-4471-5306-1,978-1-4471-5307-8",,,,,,,10.1007/978-1-4471-5307-8,,,,0,,1,0,1,,,1,10444434,pdf,48ffa4e8278081bdd00c37413e2afd9f,,,10.1007%2F978-1-4471-5307-8.pdf,0,2000-01-01 01:00:00,2016-04-03 02:51:08,http://link.springer.com/static-content/covers/books/632/9781447153078.jpg,,
14914029,Municipal Solid Waste Management in Asia and the Pacific Islands: Challenges and Strategic Solutions,,Environmental Science and Engineering,,"Masaru Tanaka, Agamuthu Pariatamby",2014,,Springer Singapore,,377,0,English,,,0,"978-981-4451-72-7,978-981-4451-73-4",,,,,,,10.1007/978-981-4451-73-4,,,,0,,1,0,1,,,1,5846453,pdf,ae8f2f813a545ccf4fb5609e83c17b51,,,10.1007%2F978-981-4451-73-4.pdf,0,2000-01-01 01:00:00,2016-04-03 02:51:08,http://link.springer.com/static-content/covers/books/406/9789814451734.jpg,,
14914028,Municipal Solid Waste Management in Asia and the Pacific Islands: Challenges and Strategic Solutions,,Environmental Science and Engineering,,"Masaru Tanaka (auth.), Agamuthu Pariatamby, Masaru Tanaka (eds.)",2014,,Springer Singapore,,"XI, 377 p. 95 illus. 72 illus. in color.",0,English,,,,"978-981-4451-72-7,978-981-4451-73-4",,,,,,,10.1007/978-981-4451-73-4,,,,0,,1,0,1,,,1,5846453,pdf,ae8f2f813a545ccf4fb5609e83c17b51,,,10.1007%2F978-981-4451-73-4.pdf,0,2000-01-01 01:00:00,2016-04-03 02:51:08,http://link.springer.com/static-content/covers/books/406/9789814451734.jpg,,
14914027,Fallverstehen in der Pflege von alten Menschen,,,,Esther Matolycz,2013,,Springer Vienna,,183,0,German,,,0,"978-3-7091-0768-3,978-3-7091-0769-0",,,,,,,10.1007/978-3-7091-0769-0,,,,0,,1,0,1,,,1,1512604,pdf,a5bf8547d530e05de73fed74dff4d4d2,,,10.1007%2F978-3-7091-0769-0.pdf,0,2000-01-01 01:00:00,2016-04-03 02:51:08,http://link.springer.com/static-content/covers/books/698/9783709107683.jpg,,
14914026,Fallverstehen in der Pflege von alten Menschen,,,,Esther Matolycz (auth.),2013,,Springer Vienna,,"IX, 183 S.",0,German,,,,"978-3-7091-0768-3,978-3-7091-0769-0",,,,,,,10.1007/978-3-7091-0769-0,,,,0,,1,0,1,,,1,1512604,pdf,a5bf8547d530e05de73fed74dff4d4d2,,,10.1007%2F978-3-7091-0769-0.pdf,0,2000-01-01 01:00:00,2016-04-03 02:51:08,http://link.springer.com/static-content/covers/books/698/9783709107683.jpg,,
14914025,Optimization in the Energy Industry,,Energy Systems,,"Torben Franch, Max Scheidt, Günter Stock, Josef Kallrath, Panos M. Pardalos, Steffen Rebennack, Max Scheidt",2009,,Springer Berlin Heidelberg,,533,0,English,,,0,"978-3-540-88964-9,978-3-540-88965-6",,,,,,,10.1007/978-3-540-88965-6,,,,0,,1,0,1,,,1,15274640,pdf,ba85266daef39b8257df7197f9b350a1,,,10.1007%2F978-3-540-88965-6.pdf,0,2000-01-01 01:00:00,2016-04-03 02:51:08,http://link.springer.com/static-content/covers/books/576/9783540889649.jpg,,
14914024,High Performance Multi-Channel High-Speed I/O Circuits,,Analog Circuits and Signal Processing,,"Taehyoun Oh, Ramesh Harjani (auth.)",2014,,Springer New York,,"X, 89 p. 64 illus. 44 illus. in color.",0,English,,,,"978-1-4614-4962-1,978-1-4614-4963-8",,,,,,,10.1007/978-1-4614-4963-8,,,,0,,1,0,1,,,1,6304722,pdf,186efa3686fc01a7f2b19948f97a291b,,,10.1007%2F978-1-4614-4963-8.pdf,0,2000-01-01 01:00:00,2016-04-03 02:51:08,http://link.springer.com/static-content/covers/books/176/9781461449638.jpg,,
14914023,Optimization in the Energy Industry,,Energy Systems,,"Torben Franch, Max Scheidt, Günter Stock (auth.), Josef Kallrath, Panos M. Pardalos, Steffen Rebennack, Max Scheidt (eds.)",2009,,Springer Berlin Heidelberg,,"XX, 533 p.",0,English,,,,"978-3-540-88964-9,978-3-540-88965-6",,,,,,,10.1007/978-3-540-88965-6,,,,0,,1,0,1,,,1,15274640,pdf,ba85266daef39b8257df7197f9b350a1,,,10.1007%2F978-3-540-88965-6.pdf,0,2000-01-01 01:00:00,2016-04-03 02:51:08,http://link.springer.com/static-content/covers/books/576/9783540889649.jpg,,
14914022,"Advances in Production Management Systems. Sustainable Production and Service Supply Chains: IFIP WG 5.7 International Conference, APMS 2013, State College, PA, USA, September 9-12, 2013, Proceedings, Part II",,IFIP Advances in Information and Communication Technology 415,,"Takashi Tanizaki, Vittal Prabhu, Marco Taisch, Dimitris Kiritsis",2013,,Springer Berlin Heidelberg,,604,0,English,,,0,"978-3-642-41262-2,978-3-642-41263-9",,,,,,,10.1007/978-3-642-41263-9,,,,0,,1,0,1,,,1,16352484,pdf,a14d21faa2e0624e53ad5df71019f815,,,10.1007%2F978-3-642-41263-9.pdf,0,2000-01-01 01:00:00,2016-04-03 02:51:08,http://link.springer.com/static-content/covers/books/592/9783642412639.jpg,,
14914021,"Advances in Production Management Systems. Sustainable Production and Service Supply Chains: IFIP WG 5.7 International Conference, APMS 2013, State College, PA, USA, September 9-12, 2013, Proceedings, Part II",,IFIP Advances in Information and Communication Technology 415,,"Takashi Tanizaki (auth.), Vittal Prabhu, Marco Taisch, Dimitris Kiritsis (eds.)",2013,,Springer Berlin Heidelberg,,"XXIV, 604 p. 190 illus.",0,English,,,,"978-3-642-41262-2,978-3-642-41263-9",,,,,,,10.1007/978-3-642-41263-9,,,,0,,1,0,1,,,1,16352484,pdf,a14d21faa2e0624e53ad5df71019f815,,,10.1007%2F978-3-642-41263-9.pdf,0,2000-01-01 01:00:00,2016-04-03 02:51:08,http://link.springer.com/static-content/covers/books/592/9783642412639.jpg,,
14914020,"Extensions to the No-Core Shell Model: Importance-Truncation, Regulators and Reactions",,Springer Theses,,Michael Karl Gerhard Kruse,2013,,Springer International Publishing,,126,0,English,,,0,"978-3-319-01392-3,978-3-319-01393-0",,,,,,,10.1007/978-3-319-01393-0,,,,0,,1,0,1,,,1,2500683,pdf,31b8c238f3aa0fbac7e95369ad3096ad,,,10.1007%2F978-3-319-01393-0.pdf,0,2000-01-01 01:00:00,2016-04-03 02:51:08,http://link.springer.com/static-content/covers/books/420/9783319013930.jpg,,
14914018,Energy-Efficient Fault-Tolerant Systems,,,,"Rishad A. Shafik, Jimson Mathew (auth.), Jimson Mathew, Rishad A. Shafik, Dhiraj K. Pradhan (eds.)",2014,,Springer New York,,"XIV, 335 p. 132 illus. 51 illus. in color.",0,English,,,,"978-1-4614-4192-2,978-1-4614-4193-9",,,,,,,10.1007/978-1-4614-4193-9,,,,0,,1,0,1,,,1,5596507,pdf,8c6c43cd43dda25e08138b38efb6653a,,,10.1007%2F978-1-4614-4193-9.pdf,0,2000-01-01 01:00:00,2016-04-03 02:51:08,http://link.springer.com/static-content/covers/books/620/9781461441939.jpg,,
14914019,"Extensions to the No-Core Shell Model: Importance-Truncation, Regulators and Reactions",,Springer Theses,,Michael Karl Gerhard Kruse (auth.),2013,,Springer International Publishing,,"XIII, 126 p. 52 illus. 45 illus. in color.",0,English,,,,"978-3-319-01392-3,978-3-319-01393-0",,,,,,,10.1007/978-3-319-01393-0,,,,0,,1,0,1,,,1,2500683,pdf,31b8c238f3aa0fbac7e95369ad3096ad,,,10.1007%2F978-3-319-01393-0.pdf,0,2000-01-01 01:00:00,2016-04-03 02:51:08,http://link.springer.com/static-content/covers/books/420/9783319013930.jpg,,
14914017,Nano-photonics in III-V Semiconductors for Integrated Quantum Optical Circuits,,Springer Theses,,Nicholas Andrew Wasley,2014,,Springer International Publishing,,129,0,English,,,0,"978-3-319-01513-2,978-3-319-01514-9",,,,,,,10.1007/978-3-319-01514-9,,,,0,,1,0,1,,,1,5360920,pdf,5af883ebec265dc74be12988c52f3950,,,10.1007%2F978-3-319-01514-9.pdf,0,2000-01-01 01:00:00,2016-04-03 02:51:08,http://link.springer.com/static-content/covers/books/486/9783319015149.jpg,,
14914016,Nano-photonics in III-V Semiconductors for Integrated Quantum Optical Circuits,,Springer Theses,,Nicholas Andrew Wasley (auth.),2014,,Springer International Publishing,,"XV, 129 p. 77 illus. 51 illus. in color.",0,English,,,,"978-3-319-01513-2,978-3-319-01514-9",,,,,,,10.1007/978-3-319-01514-9,,,,0,,1,0,1,,,1,5360920,pdf,5af883ebec265dc74be12988c52f3950,,,10.1007%2F978-3-319-01514-9.pdf,0,2000-01-01 01:00:00,2016-04-03 02:51:08,http://link.springer.com/static-content/covers/books/486/9783319015149.jpg,,
14914015,Organizational Psychology for Managers,,Management for Professionals,,Stephen R. Balzac,2014,,Springer New York,,266,0,English,,,0,"978-1-4614-8504-9,978-1-4614-8505-6",,,,,,,10.1007/978-1-4614-8505-6,,,,0,,1,0,1,,,1,1534784,pdf,f974259610bd25589d7d23acef446614,,,10.1007%2F978-1-4614-8505-6.pdf,0,2000-01-01 01:00:00,2016-04-03 02:51:08,http://link.springer.com/static-content/covers/books/962/9781461485056.jpg,,
14914014,Organizational Psychology for Managers,,Management for Professionals,,Stephen R. Balzac (auth.),2014,,Springer New York,,"XVII, 266 p. 4 illus.",0,English,,,,"978-1-4614-8504-9,978-1-4614-8505-6",,,,,,,10.1007/978-1-4614-8505-6,,,,0,,1,0,1,,,1,1534784,pdf,f974259610bd25589d7d23acef446614,,,10.1007%2F978-1-4614-8505-6.pdf,0,2000-01-01 01:00:00,2016-04-03 02:51:08,http://link.springer.com/static-content/covers/books/962/9781461485056.jpg,,
14914013,Kernel Learning Algorithms for Face Recognition,,,,"Jun-Bao Li, Shu-Chuan Chu, Jeng-Shyang Pan (auth.)",2014,,Springer New York,,"XV, 225 p. 58 illus. 19 illus. in color.",0,English,,,,"978-1-4614-0160-5,978-1-4614-0161-2",,,,,,,10.1007/978-1-4614-0161-2,,,,0,,1,0,1,,,1,3326134,pdf,c3c31133cd1c217404d4318b806aab97,,,10.1007%2F978-1-4614-0161-2.pdf,0,2000-01-01 01:00:00,2016-04-03 02:51:08,http://link.springer.com/static-content/covers/books/656/9781461401612.jpg,,
14914012,Observation of CP Violation in B± → DK± Decays,,Springer Theses,,Paolo Gandini,2014,,Springer International Publishing,,167,0,English,,,0,"978-3-319-01028-1,978-3-319-01029-8",,,,,,,10.1007/978-3-319-01029-8,,,,0,,1,0,1,,,1,9918847,pdf,dacec0a0b68cb9d93fdd477b358a9cca,,,10.1007%2F978-3-319-01029-8.pdf,0,2000-01-01 01:00:00,2016-04-03 02:51:08,http://link.springer.com/static-content/covers/books/326/9783319010298.jpg,,
14914011,Observation of CP Violation in B± → DK± Decays,,Springer Theses,,Paolo Gandini (auth.),2014,,Springer International Publishing,,"XIX, 167 p. 127 illus. 115 illus. in color.",0,English,,,,"978-3-319-01028-1,978-3-319-01029-8",,,,,,,10.1007/978-3-319-01029-8,,,,0,,1,0,1,,,1,9918847,pdf,dacec0a0b68cb9d93fdd477b358a9cca,,,10.1007%2F978-3-319-01029-8.pdf,0,2000-01-01 01:00:00,2016-04-03 02:51:08,http://link.springer.com/static-content/covers/books/326/9783319010298.jpg,,
14914009,Towards Autonomous Soft Matter Systems: Experiments on Membranes and Active Emulsions,,Springer Theses,,Shashi Thutupalli,2014,,Springer International Publishing,,127,0,English,,,0,"978-3-319-00734-2,978-3-319-00735-9",,,,,,,10.1007/978-3-319-00735-9,,,,0,,1,0,1,,,1,6757422,pdf,18bd0e99ff7a1fe8aca9a7b87658e923,,,10.1007%2F978-3-319-00735-9.pdf,0,2000-01-01 01:00:00,2016-04-03 02:51:08,http://link.springer.com/static-content/covers/books/472/9783319007359.jpg,,
14914010,Electronic Visualisation in Arts and Culture,,Springer Series on Cultural Computing,,"Michael Lesk (auth.), Jonathan P. Bowen, Suzanne Keene, Kia Ng (eds.)",2013,,Springer London,,"XII, 291 p. 130 illus. 92 illus. in color.",0,English,,,,"978-1-4471-5405-1,978-1-4471-5406-8",,,,,,,10.1007/978-1-4471-5406-8,,,,0,,1,0,1,,,1,10131405,pdf,ad2a13ed2d53af3d4a960c5a4076363b,,,10.1007%2F978-1-4471-5406-8.pdf,0,2000-01-01 01:00:00,2016-04-03 02:51:08,http://link.springer.com/static-content/covers/books/872/9781447154068.jpg,,
14914008,Towards Autonomous Soft Matter Systems: Experiments on Membranes and Active Emulsions,,Springer Theses,,Shashi Thutupalli (auth.),2014,,Springer International Publishing,,"XVIII, 127 p. 84 illus. 26 illus. in color.",0,English,,,,"978-3-319-00734-2,978-3-319-00735-9",,,,,,,10.1007/978-3-319-00735-9,,,,0,,1,0,1,,,1,6757422,pdf,18bd0e99ff7a1fe8aca9a7b87658e923,,,10.1007%2F978-3-319-00735-9.pdf,0,2000-01-01 01:00:00,2016-04-03 02:51:08,http://link.springer.com/static-content/covers/books/472/9783319007359.jpg,,
14914007,Computer Vision Analysis of Image Motion by Variational Methods,,Springer Topics in Signal Processing 10,,"Amar Mitiche, J.K. Aggarwal",2014,,Springer International Publishing,,207,0,English,,,0,"978-3-319-00710-6,978-3-319-00711-3",,,,,,,10.1007/978-3-319-00711-3,,,,0,,1,0,1,,,1,5176700,pdf,42459a701ee7f2eed7207f9f39802d2c,,,10.1007%2F978-3-319-00711-3.pdf,0,2000-01-01 01:00:00,2016-04-03 02:51:08,http://link.springer.com/static-content/covers/books/524/9783319007113.jpg,,
14914006,Computer Vision Analysis of Image Motion by Variational Methods,,Springer Topics in Signal Processing 10,,"Amar Mitiche, J.K. Aggarwal (auth.)",2014,,Springer International Publishing,,"VII, 207 p. 54 illus. 29 illus. in color.",0,English,,,,"978-3-319-00710-6,978-3-319-00711-3",,,,,,,10.1007/978-3-319-00711-3,,,,0,,1,0,1,,,1,5176700,pdf,42459a701ee7f2eed7207f9f39802d2c,,,10.1007%2F978-3-319-00711-3.pdf,0,2000-01-01 01:00:00,2016-04-03 02:51:08,http://link.springer.com/static-content/covers/books/524/9783319007113.jpg,,
14914005,The Affordable Care Act as a National Experiment: Health Policy Innovations and Lessons,,,,"James Roosevelt Jr., Terence Burke, Paul Jean, Harry P. Selker, June S. Wasser",2014,,Springer New York,,155,0,English,,,0,"978-1-4614-8350-2,978-1-4614-8351-9",,,,,,,10.1007/978-1-4614-8351-9,,,,0,,1,0,1,,,1,2786894,pdf,890a27db55180728d0d19929c43905a3,,,10.1007%2F978-1-4614-8351-9.pdf,0,2000-01-01 01:00:00,2016-04-03 02:51:08,http://link.springer.com/static-content/covers/books/860/9781461483519.jpg,,
14914004,The Affordable Care Act as a National Experiment: Health Policy Innovations and Lessons,,,,"James Roosevelt Jr. J.D., Terence Burke, Paul Jean (auth.), Harry P. Selker, June S. Wasser (eds.)",2014,,Springer New York,,"XVI, 155 p. 37 illus. 29 illus. in color.",0,English,,,,"978-1-4614-8350-2,978-1-4614-8351-9",,,,,,,10.1007/978-1-4614-8351-9,,,,0,,1,0,1,,,1,2786894,pdf,890a27db55180728d0d19929c43905a3,,,10.1007%2F978-1-4614-8351-9.pdf,0,2000-01-01 01:00:00,2016-04-03 02:51:08,http://link.springer.com/static-content/covers/books/860/9781461483519.jpg,,
14914003,Student Voice in Mathematics Classrooms around the World,,Series Preface,,"Glenda Anthony, Berinderjeet Kaur (auth.), Berinderjeet Kaur, Glenda Anthony, Minoru Ohtani, David Clarke (eds.)",2013,,SensePublishers,,254,0,English,,,,978-94-6209-350-8,,,,,,,10.1007/978-94-6209-350-8,,,,0,,1,0,1,,,1,2912119,pdf,850a22a11fc03f1e4dabefbcea6495e3,,,10.1007%2F978-94-6209-350-8.pdf,0,2000-01-01 01:00:00,2016-04-03 02:51:08,http://link.springer.com/static-content/covers/books/926/9789462093508.jpg,,
14914002,"Extreme Explosions: Supernovae, Hypernovae, Magnetars, and Other Unusual Cosmic Blasts",,Astronomers' Universe,,David S. Stevenson,2014,,Springer New York,,369,0,English,,,0,"978-1-4614-8135-5,978-1-4614-8136-2",,,,,,,10.1007/978-1-4614-8136-2,,,,0,,1,0,1,,,1,3649115,pdf,940940574c96e84f07d3991a52a1b7d9,,,10.1007%2F978-1-4614-8136-2.pdf,0,2000-01-01 01:00:00,2016-04-03 02:51:08,http://link.springer.com/static-content/covers/books/216/9781461481362.jpg,,
14914001,"Extreme Explosions: Supernovae, Hypernovae, Magnetars, and Other Unusual Cosmic Blasts",,Astronomers' Universe,,David S. Stevenson (auth.),2014,,Springer New York,,"XIII, 369 p. 75 illus. 61 illus. in color.",0,English,,,,"978-1-4614-8135-5,978-1-4614-8136-2",,,,,,,10.1007/978-1-4614-8136-2,,,,0,,1,0,1,,,1,3649115,pdf,940940574c96e84f07d3991a52a1b7d9,,,10.1007%2F978-1-4614-8136-2.pdf,0,2000-01-01 01:00:00,2016-04-03 02:51:08,http://link.springer.com/static-content/covers/books/216/9781461481362.jpg,,
14914000,The 8th International Conference on Knowledge Management in Organizations: Social and Big Data Computing for Knowledge Management,,Springer Proceedings in Complexity,,"Zahir Ahamed, Akira Kamoshida, Takehiro Inohara (auth.), Lorna Uden, Leon S.L. Wang, Juan Manuel Corchado Rodríguez, Hsin-Chang Yang, I-Hsien Ting (eds.)",2014,,Springer Netherlands,,"XIV, 629 p. 145 illus. 90 illus. in color.",0,English,,,,"978-94-007-7286-1,978-94-007-7287-8",,,,,,,10.1007/978-94-007-7287-8,,,,0,,1,0,1,,,1,8687430,pdf,901599ab659c925a8149bb41592bfe7e,,,10.1007%2F978-94-007-7287-8.pdf,0,2000-01-01 01:00:00,2016-04-03 02:51:08,http://link.springer.com/static-content/covers/books/630/9789400772878.jpg,,
14913999,Angiogenesis in Adipose Tissue,,,,Yihai Cao,2013,,Springer New York,,378,0,English,,,0,"978-1-4614-8068-6,978-1-4614-8069-3",,,,,,,10.1007/978-1-4614-8069-3,,,,0,,1,0,1,,,1,9725333,pdf,20f16e4d45eb297e7db848f76d7768a4,,,10.1007%2F978-1-4614-8069-3.pdf,0,2000-01-01 01:00:00,2016-04-03 02:51:08,http://link.springer.com/static-content/covers/books/30/9781461480693.jpg,,
14913998,Angiogenesis in Adipose Tissue,,,,"Yihai Cao M.D., Ph.D. (auth.), Yihai Cao (eds.)",2013,,Springer New York,,"VIII, 378 p. 73 illus. 53 illus. in color.",0,English,,,,"978-1-4614-8068-6,978-1-4614-8069-3",,,,,,,10.1007/978-1-4614-8069-3,,,,0,,1,0,1,,,1,9725333,pdf,20f16e4d45eb297e7db848f76d7768a4,,,10.1007%2F978-1-4614-8069-3.pdf,0,2000-01-01 01:00:00,2016-04-03 02:51:08,http://link.springer.com/static-content/covers/books/30/9781461480693.jpg,,
14913997,"National Intellectual Capital and the Financial Crisis in Austria, Belgium, the Netherlands, and Switzerland",,SpringerBriefs in Economics 14,,"Carol Yeh-Yun Lin, Leif Edvinsson, Jeffrey Chen, Tord Beding",2014,,Springer New York,,109,0,English,,,0,"978-1-4614-8020-4,978-1-4614-8021-1",,,,,,,10.1007/978-1-4614-8021-1,,,,0,,1,0,1,,,1,2718374,pdf,10bb085e1a614eb30e71eb400ad850ab,,,10.1007%2F978-1-4614-8021-1.pdf,0,2000-01-01 01:00:00,2016-04-03 02:51:08,http://link.springer.com/static-content/covers/books/124/9781461480211.jpg,,
14913996,"National Intellectual Capital and the Financial Crisis in Austria, Belgium, the Netherlands, and Switzerland",,SpringerBriefs in Economics 14,,"Carol Yeh-Yun Lin, Leif Edvinsson, Jeffrey Chen, Tord Beding (auth.)",2014,,Springer New York,,"XXXI, 109 p. 39 illus. 35 illus. in color.",0,English,,,,"978-1-4614-8020-4,978-1-4614-8021-1",,,,,,,10.1007/978-1-4614-8021-1,,,,0,,1,0,1,,,1,2718374,pdf,10bb085e1a614eb30e71eb400ad850ab,,,10.1007%2F978-1-4614-8021-1.pdf,0,2000-01-01 01:00:00,2016-04-03 02:51:08,http://link.springer.com/static-content/covers/books/124/9781461480211.jpg,,
14913994,Solar Based Hydrogen Production Systems,,SpringerBriefs in Energy,,"Ibrahim Dincer, Anand S. Joshi (auth.)",2013,,Springer New York,,"IX, 141 p. 72 illus. 27 illus. in color.",0,English,,,,"978-1-4614-7430-2,978-1-4614-7431-9",,,,,,,10.1007/978-1-4614-7431-9,,,,0,,1,0,1,,,1,4508939,pdf,d9b7b3749f8706cea3796a383f2d6351,,,10.1007%2F978-1-4614-7431-9.pdf,0,2000-01-01 01:00:00,2016-04-03 02:51:08,http://link.springer.com/static-content/covers/books/512/9781461474319.jpg,,
14913995,Solar Based Hydrogen Production Systems,,SpringerBriefs in Energy,,"Ibrahim Dincer, Anand S. Joshi",2013,,Springer New York,,141,0,English,,,0,"978-1-4614-7430-2,978-1-4614-7431-9",,,,,,,10.1007/978-1-4614-7431-9,,,,0,,1,0,1,,,1,4508939,pdf,d9b7b3749f8706cea3796a383f2d6351,,,10.1007%2F978-1-4614-7431-9.pdf,0,2000-01-01 01:00:00,2016-04-03 02:51:08,http://link.springer.com/static-content/covers/books/512/9781461474319.jpg,,
14913993,Lexical Availability in English and Spanish as a Second Language,,Educational Linguistics 17,,"Roberto A. Ferreira Campos (auth.), Rosa María Jiménez Catalán (eds.)",2014,,Springer Netherlands,,"XIV, 205 p. 25 illus. 11 illus. in color.",0,English,,,,"978-94-007-7157-4,978-94-007-7158-1",,,,,,,10.1007/978-94-007-7158-1,,,,0,,1,0,1,,,1,2343721,pdf,828228194e79506784a3ca8706320793,,,10.1007%2F978-94-007-7158-1.pdf,0,2000-01-01 01:00:00,2016-04-03 02:51:08,http://link.springer.com/static-content/covers/books/280/9789400771581.jpg,,
14913992,Advanced Techniques for Modelling Maternal and Child Health in Africa,,The Springer Series on Demographic Methods and Population Analysis 34,,"Gebrenegus Ghilagaber (auth.), Ngianga-Bakwin Kandala, Gebrenegus Ghilagaber (eds.)",2014,,Springer Netherlands,,"XIV, 330 p. 40 illus. 21 illus. in color.",0,English,,,,"978-94-007-6777-5,978-94-007-6778-2",,,,,,,10.1007/978-94-007-6778-2,,,,0,,1,0,1,,,1,4164970,pdf,a7ab325da17ca0bc7c57cb1a7fd07b3e,,,10.1007%2F978-94-007-6778-2.pdf,0,2000-01-01 01:00:00,2016-04-03 02:51:08,http://link.springer.com/static-content/covers/books/132/9789400767782.jpg,,
14913991,Leaders in Gender and Education: Intellectual Self-Portraits,,Leaders in Educational Studies,,"Marcus B. Weaver-Hightower, Christine Skelton",2013,,SensePublishers,,244,0,English,,,0,978-94-6209-305-8,,,,,,,10.1007/978-94-6209-305-8,,,,0,,1,0,1,,,1,1702432,pdf,d99328c2a9cd8e7c86053c1ea5f193b4,,,10.1007%2F978-94-6209-305-8.pdf,0,2000-01-01 01:00:00,2016-04-03 02:51:08,http://link.springer.com/static-content/covers/books/576/9789462093058.jpg,,
14913990,Leaders in Gender and Education: Intellectual Self-Portraits,,Leaders in Educational Studies,,"Marcus B. Weaver-Hightower, Christine Skelton (auth.), Marcus B. Weaver-Hightower, Christine Skelton (eds.)",2013,,SensePublishers,,244,0,English,,,,978-94-6209-305-8,,,,,,,10.1007/978-94-6209-305-8,,,,0,,1,0,1,,,1,1702432,pdf,d99328c2a9cd8e7c86053c1ea5f193b4,,,10.1007%2F978-94-6209-305-8.pdf,0,2000-01-01 01:00:00,2016-04-03 02:51:08,http://link.springer.com/static-content/covers/books/576/9789462093058.jpg,,
14913989,Reflections on Naturalism,,,,"Alberto Cordero, José Ignacio Galparsoro",2013,,SensePublishers,,174,0,English,,,0,978-94-6209-296-9,,,,,,,10.1007/978-94-6209-296-9,,,,0,,1,0,1,,,1,1177533,pdf,2dc135eeec6094e808440a26c036d090,,,10.1007%2F978-94-6209-296-9.pdf,0,2000-01-01 01:00:00,2016-04-03 02:51:08,http://link.springer.com/static-content/covers/books/686/9789462092969.jpg,,
14913988,Reflections on Naturalism,,,,"Alberto Cordero, José Ignacio Galparsoro (auth.), José Ignacio Galparsoro, Alberto Cordero (eds.)",2013,,SensePublishers,,174,0,English,,,,978-94-6209-296-9,,,,,,,10.1007/978-94-6209-296-9,,,,0,,1,0,1,,,1,1177533,pdf,2dc135eeec6094e808440a26c036d090,,,10.1007%2F978-94-6209-296-9.pdf,0,2000-01-01 01:00:00,2016-04-03 02:51:08,http://link.springer.com/static-content/covers/books/686/9789462092969.jpg,,
14913987,Structural Shell Analysis: Understanding and Application,,Solid Mechanics and Its Applications 200,,"Johan Blaauwendraad, Jeroen H. Hoefakker (auth.)",2014,,Springer Netherlands,,"XV, 300 p. 148 illus.",0,English,,,,"978-94-007-6700-3,978-94-007-6701-0",,,,,,,10.1007/978-94-007-6701-0,,,,0,,1,0,1,,,1,6072982,pdf,61d26457dcecb124cb3312da7d34caf1,,,10.1007%2F978-94-007-6701-0.pdf,0,2000-01-01 01:00:00,2016-04-03 02:51:08,http://link.springer.com/static-content/covers/books/78/9789400767010.jpg,,
14913986,Activity Theory in Formal and Informal Science Education,,Cultural and Historical Perspectives on Science Education,,Katerina Plakitsi,2013,,SensePublishers,,254,0,English,,,0,978-94-6091-317-4,,,,,,,10.1007/978-94-6091-317-4,,,,0,,1,0,1,,,1,6417257,pdf,45ef06fba4d167ccf69f200f6df37cac,,,10.1007%2F978-94-6091-317-4.pdf,0,2000-01-01 01:00:00,2016-04-03 02:51:08,http://link.springer.com/static-content/covers/books/728/9789460913174.jpg,,
14913985,Activity Theory in Formal and Informal Science Education,,Cultural and Historical Perspectives on Science Education,,"Katerina Plakitsi (auth.), Katerina Plakitsi (eds.)",2013,,SensePublishers,,254,0,English,,,,978-94-6091-317-4,,,,,,,10.1007/978-94-6091-317-4,,,,0,,1,0,1,,,1,6417257,pdf,45ef06fba4d167ccf69f200f6df37cac,,,10.1007%2F978-94-6091-317-4.pdf,0,2000-01-01 01:00:00,2016-04-03 02:51:08,http://link.springer.com/static-content/covers/books/728/9789460913174.jpg,,
14913984,Revision ACL Reconstruction: Indications and Technique,,,,"Andrew R. Duffee, Timothy E. Hewett, Robert G. Marx",2014,,Springer New York,,273,0,English,,,0,"978-1-4614-0765-2,978-1-4614-0766-9",,,,,,,10.1007/978-1-4614-0766-9,,,,0,,1,0,1,,,1,8931320,pdf,98fadbd6f2138af7d145c2ec9c00d911,,,10.1007%2F978-1-4614-0766-9.pdf,0,2000-01-01 01:00:00,2016-04-03 02:51:08,http://link.springer.com/static-content/covers/books/748/9781461407669.jpg,,
14913983,Revision ACL Reconstruction: Indications and Technique,,,,"Andrew R. Duffee MD, Timothy E. Hewett PhD (auth.), Robert G. Marx (eds.)",2014,,Springer New York,,"XXI, 273 p. 169 illus. 72 illus. in color.",0,English,,,,"978-1-4614-0765-2,978-1-4614-0766-9",,,,,,,10.1007/978-1-4614-0766-9,,,,0,,1,0,1,,,1,8931320,pdf,98fadbd6f2138af7d145c2ec9c00d911,,,10.1007%2F978-1-4614-0766-9.pdf,0,2000-01-01 01:00:00,2016-04-03 02:51:08,http://link.springer.com/static-content/covers/books/748/9781461407669.jpg,,
14913982,"Security and Trust Management: 9th International Workshop, STM 2013, Egham, UK, September 12-13, 2013. Proceedings",,Lecture Notes in Computer Science 8203,,"Costas Delakouridis, Christos Anagnostopoulos, Rafael Accorsi, Silvio Ranise",2013,,Springer Berlin Heidelberg,,235,0,English,,,0,"978-3-642-41097-0,978-3-642-41098-7",,,,,,,10.1007/978-3-642-41098-7,,,,0,,1,0,1,,,1,3930936,pdf,3179adcd9112e61750f90c601de16a82,,,10.1007%2F978-3-642-41098-7.pdf,0,2000-01-01 01:00:00,2016-04-03 02:51:08,http://link.springer.com/static-content/covers/books/138/9783642410987.jpg,,
14913981,Grundprinzipien der Mechatronik: Modellbildung und Simulation mit Bondgraphen,,,,Werner Roddeck (auth.),2013,,Springer Fachmedien Wiesbaden,,"IX, 331 S. 450 Abb. 157 Abb. in Farbe.",0,German,,,,"978-3-8348-1747-1,978-3-8348-2194-2",,,,,,,10.1007/978-3-8348-2194-2,,,,0,,1,0,1,,,1,7839618,pdf,d33dfcbf5faa7f9c047b21f8cc65b41d,,,10.1007%2F978-3-8348-2194-2.pdf,0,2000-01-01 01:00:00,2016-04-03 02:51:08,http://link.springer.com/static-content/covers/books/218/9783834821942.jpg,,
14913980,"Security and Trust Management: 9th International Workshop, STM 2013, Egham, UK, September 12-13, 2013. Proceedings",,Lecture Notes in Computer Science 8203,,"Costas Delakouridis, Christos Anagnostopoulos (auth.), Rafael Accorsi, Silvio Ranise (eds.)",2013,,Springer Berlin Heidelberg,,"X, 235 p. 53 illus.",0,English,,,,"978-3-642-41097-0,978-3-642-41098-7",,,,,,,10.1007/978-3-642-41098-7,,,,0,,1,0,1,,,1,3930936,pdf,3179adcd9112e61750f90c601de16a82,,,10.1007%2F978-3-642-41098-7.pdf,0,2000-01-01 01:00:00,2016-04-03 02:51:08,http://link.springer.com/static-content/covers/books/138/9783642410987.jpg,,
14913979,"Trustworthy Global Computing: 7th International Symposium, TGC 2012, Newcastle upon Tyne, UK, September 7-8, 2012, Revised Selected Papers",,Lecture Notes in Computer Science 8191,,"Antoine Amarilli, Fabrice Ben Hamouda, Florian Bourse, Catuscia Palamidessi, Mark D. Ryan",2013,,Springer Berlin Heidelberg,,213,0,English,,,0,"978-3-642-41156-4,978-3-642-41157-1",,,,,,,10.1007/978-3-642-41157-1,,,,0,,1,0,1,,,1,3019287,pdf,b11ccf962a65f2c9f9708bd5c7832360,,,10.1007%2F978-3-642-41157-1.pdf,0,2000-01-01 01:00:00,2016-04-03 02:51:08,http://link.springer.com/static-content/covers/books/228/9783642411571.jpg,,
14913978,"Trustworthy Global Computing: 7th International Symposium, TGC 2012, Newcastle upon Tyne, UK, September 7-8, 2012, Revised Selected Papers",,Lecture Notes in Computer Science 8191,,"Antoine Amarilli, Fabrice Ben Hamouda, Florian Bourse (auth.), Catuscia Palamidessi, Mark D. Ryan (eds.)",2013,,Springer Berlin Heidelberg,,"X, 213 p. 37 illus.",0,English,,,,"978-3-642-41156-4,978-3-642-41157-1",,,,,,,10.1007/978-3-642-41157-1,,,,0,,1,0,1,,,1,3019287,pdf,b11ccf962a65f2c9f9708bd5c7832360,,,10.1007%2F978-3-642-41157-1.pdf,0,2000-01-01 01:00:00,2016-04-03 02:51:08,http://link.springer.com/static-content/covers/books/228/9783642411571.jpg,,
14913977,Public Attitudes towards Family Policies in Europe: Linking Institutional Context and Public Opinion,,,,Monika Mischke,2014,,Springer Fachmedien Wiesbaden,,230,0,English,,,0,"978-3-658-03576-1,978-3-658-03577-8",,,,,,,10.1007/978-3-658-03577-8,,,,0,,1,0,1,,,1,1878931,pdf,f367002de3df648bac772dcc160f78f5,,,10.1007%2F978-3-658-03577-8.pdf,0,2000-01-01 01:00:00,2016-04-03 02:51:08,http://link.springer.com/static-content/covers/books/500/9783658035778.jpg,,
14913976,"Cross-Channel Retail Branding: Eine verhaltenswissenschaftliche Untersuchung in Deutschland, Frankreich und Großbritannien",,,,Sebastian Rittinger (auth.),2013,,Springer Fachmedien Wiesbaden,,"XXII, 406 S. 63 Abb.",0,German,,,,"978-3-658-03609-6,978-3-658-03610-2",,,,,,,10.1007/978-3-658-03610-2,,,,0,,1,0,1,,,1,3041633,pdf,0590c72863736b53c8243c736023636e,,,10.1007%2F978-3-658-03610-2.pdf,0,2000-01-01 01:00:00,2016-04-03 02:51:08,http://link.springer.com/static-content/covers/books/698/9783658036102.jpg,,
14913975,Public Attitudes towards Family Policies in Europe: Linking Institutional Context and Public Opinion,,,,Monika Mischke (auth.),2014,,Springer Fachmedien Wiesbaden,,"X, 230 p. 10 illus.",0,English,,,,"978-3-658-03576-1,978-3-658-03577-8",,,,,,,10.1007/978-3-658-03577-8,,,,0,,1,0,1,,,1,1878931,pdf,f367002de3df648bac772dcc160f78f5,,,10.1007%2F978-3-658-03577-8.pdf,0,2000-01-01 01:00:00,2016-04-03 02:51:08,http://link.springer.com/static-content/covers/books/500/9783658035778.jpg,,
14913974,Purpose in Life: A Critical Component of Optimal Youth Development,,,,Kendall Cotton Bronk,2014,,Springer Netherlands,,175,0,English,,,0,"978-94-007-7490-2,978-94-007-7491-9",,,,,,,10.1007/978-94-007-7491-9,,,,0,,1,0,1,,,1,1806113,pdf,a4f89fbad080548d53493dfe1fb74845,,,10.1007%2F978-94-007-7491-9.pdf,0,2000-01-01 01:00:00,2016-04-03 02:51:08,http://link.springer.com/static-content/covers/books/272/9789400774919.jpg,,
14913973,Purpose in Life: A Critical Component of Optimal Youth Development,,,,Kendall Cotton Bronk (auth.),2014,,Springer Netherlands,,"X, 175 p. 1 illus.",0,English,,,,"978-94-007-7490-2,978-94-007-7491-9",,,,,,,10.1007/978-94-007-7491-9,,,,0,,1,0,1,,,1,1806113,pdf,a4f89fbad080548d53493dfe1fb74845,,,10.1007%2F978-94-007-7491-9.pdf,0,2000-01-01 01:00:00,2016-04-03 02:51:08,http://link.springer.com/static-content/covers/books/272/9789400774919.jpg,,
14913972,Die Unternehmensberatung: Von der strategischen Konzeption zur praktischen Umsetzung,,,,Dirk Lippold (auth.),2013,,Springer Fachmedien Wiesbaden,,"XXI, 589 S. 400 Abb.",0,German,,,,"978-3-658-03092-6,978-3-658-03093-3",,,,,,,10.1007/978-3-658-03093-3,,,,0,,1,0,1,,,1,6366100,pdf,52d271e316c324dcd6c79ca79dc39152,,,10.1007%2F978-3-658-03093-3.pdf,0,2000-01-01 01:00:00,2016-04-03 02:51:08,http://link.springer.com/static-content/covers/books/662/9783658030933.jpg,,
14913971,Seismic Design of Industrial Facilities: Proceedings of the International Conference on Seismic Design of Industrial Facilities (SeDIF-Conference),,,,"Mustafa Erdik, Eren Uckan, Sven Klinkel, Christoph Butenweg, Gao Lin, Britta Holtschoppen",2014,,Springer Fachmedien Wiesbaden,,640,0,English,,,0,"978-3-658-02809-1,978-3-658-02810-7",,,,,,,10.1007/978-3-658-02810-7,,,,0,,1,0,1,,,1,26405882,pdf,c9b3fd72f3fe8258d1635f48adb4d3af,,,10.1007%2F978-3-658-02810-7.pdf,0,2000-01-01 01:00:00,2016-04-03 02:51:08,http://link.springer.com/static-content/covers/books/632/9783658028107.jpg,,
14913970,Seismic Design of Industrial Facilities: Proceedings of the International Conference on Seismic Design of Industrial Facilities (SeDIF-Conference),,,,"Mustafa Erdik, Eren Uckan (auth.), Sven Klinkel, Christoph Butenweg, Gao Lin, Britta Holtschoppen (eds.)",2014,,Springer Fachmedien Wiesbaden,,"XIII, 640 p. 341 illus.",0,English,,,,"978-3-658-02809-1,978-3-658-02810-7",,,,,,,10.1007/978-3-658-02810-7,,,,0,,1,0,1,,,1,26405882,pdf,c9b3fd72f3fe8258d1635f48adb4d3af,,,10.1007%2F978-3-658-02810-7.pdf,0,2000-01-01 01:00:00,2016-04-03 02:51:08,http://link.springer.com/static-content/covers/books/632/9783658028107.jpg,,
14913969,Kommunale Gesundheitslandschaften,,Gesundheit,,"Ernst-Wilhelm Luthe (auth.), Ernst-Wilhelm Luthe (eds.)",2013,,Springer Fachmedien Wiesbaden,,"XVI, 465 S. 24 Abb. 7 Abb. in Farbe.",0,German,,,,"978-3-658-02430-7,978-3-658-02431-4",,,,,,,10.1007/978-3-658-02431-4,,,,0,,1,0,1,,,1,3447934,pdf,52aca26e357deddab0377019af4679a8,,,10.1007%2F978-3-658-02431-4.pdf,0,2000-01-01 01:00:00,2016-04-03 02:51:08,http://link.springer.com/static-content/covers/books/846/9783658024314.jpg,,
14913968,Robustness in Statistical Forecasting,,,,Yuriy Kharin,2013,,Springer International Publishing,,356,0,English,,,0,"978-3-319-00839-4,978-3-319-00840-0",,,,,,,10.1007/978-3-319-00840-0,,,,0,,1,0,1,,,1,4003398,pdf,a41b629b6adc0714ea7eaed4721c23c5,,,10.1007%2F978-3-319-00840-0.pdf,0,2000-01-01 01:00:00,2016-04-03 02:51:08,http://link.springer.com/static-content/covers/books/884/9783319008400.jpg,,
14913967,Robustness in Statistical Forecasting,,,,Yuriy Kharin (auth.),2013,,Springer International Publishing,,"XVI, 356 p. 47 illus.",0,English,,,,"978-3-319-00839-4,978-3-319-00840-0",,,,,,,10.1007/978-3-319-00840-0,,,,0,,1,0,1,,,1,4003398,pdf,a41b629b6adc0714ea7eaed4721c23c5,,,10.1007%2F978-3-319-00840-0.pdf,0,2000-01-01 01:00:00,2016-04-03 02:51:08,http://link.springer.com/static-content/covers/books/884/9783319008400.jpg,,
14913966,Web Services Foundations,,,,"Mohammed AbuJarour, Ahmed Awad, Athman Bouguettaya, Quan Z. Sheng, Florian Daniel",2014,,Springer New York,,739,0,English,,,0,"978-1-4614-7517-0,978-1-4614-7518-7",,,,,,,10.1007/978-1-4614-7518-7,,,,0,,1,0,1,,,1,15852554,pdf,e125732cad8c1c2d6e5537d1a466b055,,,10.1007%2F978-1-4614-7518-7.pdf,0,2000-01-01 01:00:00,2016-04-03 02:51:08,http://link.springer.com/static-content/covers/books/428/9781461475187.jpg,,
14913965,Web Services Foundations,,,,"Mohammed AbuJarour, Ahmed Awad (auth.), Athman Bouguettaya, Quan Z. Sheng, Florian Daniel (eds.)",2014,,Springer New York,,"XIX, 739 p. 205 illus.",0,English,,,,"978-1-4614-7517-0,978-1-4614-7518-7",,,,,,,10.1007/978-1-4614-7518-7,,,,0,,1,0,1,,,1,15852554,pdf,e125732cad8c1c2d6e5537d1a466b055,,,10.1007%2F978-1-4614-7518-7.pdf,0,2000-01-01 01:00:00,2016-04-03 02:51:08,http://link.springer.com/static-content/covers/books/428/9781461475187.jpg,,
14913964,"Progress in Artificial Intelligence: 16th Portuguese Conference on Artificial Intelligence, EPIA 2013, Angra do Heroísmo, Azores, Portugal, September 9-12, 2013. Proceedings",,Lecture Notes in Computer Science 8154,,"Davide Carneiro, Sérgio Gonçalves, Paulo Novais, José Neves, Luís Correia, Luís Paulo Reis, José Cascalho",2013,,Springer Berlin Heidelberg,,542,0,English,,,0,"978-3-642-40668-3,978-3-642-40669-0",,,,,,,10.1007/978-3-642-40669-0,,,,0,,1,0,1,,,1,13833601,pdf,8050419882d65f9255bbbf01b9d73035,,,10.1007%2F978-3-642-40669-0.pdf,0,2000-01-01 01:00:00,2016-04-03 02:51:08,http://link.springer.com/static-content/covers/books/772/9783642406690.jpg,,
14913963,Policy-Integration und Nachhaltigkeit: Integrative Politik in der Nachhaltigkeitsstrategie der deutschen Bundesregierung,,,,Basil Bornemann (auth.),2013,,Springer Fachmedien Wiesbaden,,671,0,German,,,,"978-3-658-02208-2,978-3-658-02209-9",,,,,,,10.1007/978-3-658-02209-9,,,,0,,1,0,1,,,1,4392562,pdf,26f3a55146aa23baa609ebad89a46208,,,10.1007%2F978-3-658-02209-9.pdf,0,2000-01-01 01:00:00,2016-04-03 02:51:08,http://link.springer.com/static-content/covers/books/58/9783658022099.jpg,,
14913962,"Progress in Artificial Intelligence: 16th Portuguese Conference on Artificial Intelligence, EPIA 2013, Angra do Heroísmo, Azores, Portugal, September 9-12, 2013. Proceedings",,Lecture Notes in Computer Science 8154,,"Davide Carneiro, Sérgio Gonçalves, Paulo Novais, José Neves (auth.), Luís Correia, Luís Paulo Reis, José Cascalho (eds.)",2013,,Springer Berlin Heidelberg,,"XXX, 542 p. 172 illus.",0,English,,,,"978-3-642-40668-3,978-3-642-40669-0",,,,,,,10.1007/978-3-642-40669-0,,,,0,,1,0,1,,,1,13833601,pdf,8050419882d65f9255bbbf01b9d73035,,,10.1007%2F978-3-642-40669-0.pdf,0,2000-01-01 01:00:00,2016-04-03 02:51:08,http://link.springer.com/static-content/covers/books/772/9783642406690.jpg,,
14913961,"Artificial Neural Networks and Machine Learning – ICANN 2013: 23rd International Conference on Artificial Neural Networks Sofia, Bulgaria, September 10-13, 2013. Proceedings",,Lecture Notes in Computer Science 8131,,"Botond Attila Bócsi, Lehel Csató, Valeri Mladenov, Petia Koprinkova-Hristova, Günther Palm, Alessandro E. P. Villa, Bruno Appollini, Nikola Kasabov",2013,,Springer Berlin Heidelberg,,643,0,English,,,0,"978-3-642-40727-7,978-3-642-40728-4",,,,,,,10.1007/978-3-642-40728-4,,,,0,,1,0,1,,,1,22043244,pdf,e4a99b25da26948bb00f356e80a4fd7f,,,10.1007%2F978-3-642-40728-4.pdf,0,2000-01-01 01:00:00,2016-04-03 02:51:08,http://link.springer.com/static-content/covers/books/852/9783642407284.jpg,,
14913960,Viruses and Human Cancer: From Basic Science to Clinical Prevention,,Recent Results in Cancer Research 193,,"John T. Schiller, Douglas R. Lowy (auth.), Mei Hwei Chang, Kuan-Teh Jeang (eds.)",2014,,Springer Berlin Heidelberg,,"VIII, 290 p. 26 illus. 14 illus. in color.",0,English,,,,"978-3-642-38964-1,978-3-642-38965-8",,,,,,,10.1007/978-3-642-38965-8,,,,0,,1,0,1,,,1,3611530,pdf,7690180997e5e20b8ea6f64076c3477f,,,10.1007%2F978-3-642-38965-8.pdf,0,2000-01-01 01:00:00,2016-04-03 02:51:08,http://link.springer.com/static-content/covers/books/498/9783642389658.jpg,,
14913959,"Artificial Neural Networks and Machine Learning – ICANN 2013: 23rd International Conference on Artificial Neural Networks Sofia, Bulgaria, September 10-13, 2013. Proceedings",,Lecture Notes in Computer Science 8131,,"Botond Attila Bócsi, Lehel Csató (auth.), Valeri Mladenov, Petia Koprinkova-Hristova, Günther Palm, Alessandro E. P. Villa, Bruno Appollini, Nikola Kasabov (eds.)",2013,,Springer Berlin Heidelberg,,"XVIII, 643 p. 231 illus.",0,English,,,,"978-3-642-40727-7,978-3-642-40728-4",,,,,,,10.1007/978-3-642-40728-4,,,,0,,1,0,1,,,1,22043244,pdf,e4a99b25da26948bb00f356e80a4fd7f,,,10.1007%2F978-3-642-40728-4.pdf,0,2000-01-01 01:00:00,2016-04-03 02:51:08,http://link.springer.com/static-content/covers/books/852/9783642407284.jpg,,
14913958,Study on Heterotrophic-Autotrophic Denitrification Permeable Reactive Barriers (HAD PRBs) for In Situ Groundwater Remediation,,SpringerBriefs in Water Science and Technology,,"Fei Liu, Guoxin Huang, Howard Fallowfield, Huade Guan, Lingling Zhu, Hongyan Hu (auth.)",2014,,Springer Berlin Heidelberg,,"IX, 105 p. 38 illus. 2 illus. in color.",0,English,,,,"978-3-642-38153-9,978-3-642-38154-6",,,,,,,10.1007/978-3-642-38154-6,,,,0,,1,0,1,,,1,2410821,pdf,8fa5e566f8906e50e2eeac942379c596,,,10.1007%2F978-3-642-38154-6.pdf,0,2000-01-01 01:00:00,2016-04-03 02:51:08,http://link.springer.com/static-content/covers/books/820/9783642381546.jpg,,
14913957,Non-Linear Feedback Neural Networks: VLSI Implementations and Applications,,Studies in Computational Intelligence 508,,Mohd. Samar Ansari,2014,,Springer India,,201,0,English,,,0,"978-81-322-1562-2,978-81-322-1563-9",,,,,,,10.1007/978-81-322-1563-9,,,,0,,1,0,1,,,1,3619606,pdf,adbc93db52be7a9d4a449588e91a7675,,,10.1007%2F978-81-322-1563-9.pdf,0,2000-01-01 01:00:00,2016-04-03 02:51:08,http://link.springer.com/static-content/covers/books/482/9788132215639.jpg,,
14913956,The Deductive Spreadsheet,,Cognitive Technologies,,Iliano Cervesato (auth.),2013,,Springer Berlin Heidelberg,,"XXI, 406 p. 98 illus.",0,English,,,,"978-3-642-37746-4,978-3-642-37747-1",,,,,,,10.1007/978-3-642-37747-1,,,,0,,1,0,1,,,1,7760515,pdf,3a17790d40da39174e78bed31d57e7c7,,,10.1007%2F978-3-642-37747-1.pdf,0,2000-01-01 01:00:00,2016-04-03 02:51:08,http://link.springer.com/static-content/covers/books/468/9783642377471.jpg,,
14913955,Non-Linear Feedback Neural Networks: VLSI Implementations and Applications,,Studies in Computational Intelligence 508,,Mohd. Samar Ansari (auth.),2014,,Springer India,,"XXII, 201 p. 79 illus.",0,English,,,,"978-81-322-1562-2,978-81-322-1563-9",,,,,,,10.1007/978-81-322-1563-9,,,,0,,1,0,1,,,1,3619606,pdf,adbc93db52be7a9d4a449588e91a7675,,,10.1007%2F978-81-322-1563-9.pdf,0,2000-01-01 01:00:00,2016-04-03 02:51:08,http://link.springer.com/static-content/covers/books/482/9788132215639.jpg,,
14913954,Aesthetics and Business Ethics,,Issues in Business Ethics 41,,"John Dobson, Daryl Koehn, Dawn Elm",2014,,Springer Netherlands,,159,0,English,,,0,"978-94-007-7069-0,978-94-007-7070-6",,,,,,,10.1007/978-94-007-7070-6,,,,0,,1,0,1,,,1,1434140,pdf,93a4829a08a009bc9081f7917a6a75c7,,,10.1007%2F978-94-007-7070-6.pdf,0,2000-01-01 01:00:00,2016-04-03 02:51:08,http://link.springer.com/static-content/covers/books/392/9789400770706.jpg,,
14913953,Aesthetics and Business Ethics,,Issues in Business Ethics 41,,"John Dobson Ph.D. (auth.), Daryl Koehn, Dawn Elm (eds.)",2014,,Springer Netherlands,,"IX, 159 p. 9 illus. 8 illus. in color.",0,English,,,,"978-94-007-7069-0,978-94-007-7070-6",,,,,,,10.1007/978-94-007-7070-6,,,,0,,1,0,1,,,1,1434140,pdf,93a4829a08a009bc9081f7917a6a75c7,,,10.1007%2F978-94-007-7070-6.pdf,0,2000-01-01 01:00:00,2016-04-03 02:51:08,http://link.springer.com/static-content/covers/books/392/9789400770706.jpg,,
14913952,"Migration, Gender and Social Justice: Perspectives on Human Insecurity",,Hexagon Series on Human and Environmental Security and Peace 9,,"Thanh-Dam Truong, Des Gasper, Jeff Handmaker (auth.), Tanh-Dam Truong, Des Gasper, Jeff Handmaker, Sylvia I. Bergh (eds.)",2014,,Springer Berlin Heidelberg,,"XII, 408 p. 20 illus.",0,English,,,,"978-3-642-28011-5,978-3-642-28012-2",,,,,,,10.1007/978-3-642-28012-2,,,,0,,1,0,1,,,1,5011700,pdf,e179ca5931668498550461f27b41cdbb,,,10.1007%2F978-3-642-28012-2.pdf,0,2000-01-01 01:00:00,2016-04-03 02:51:08,http://link.springer.com/static-content/covers/books/672/9783642280122.jpg,,
14913951,Virtual Reality Technology and Applications,,"Intelligent Systems, Control and Automation: Science and Engineering 68",,"Matjaž Mihelj, Domen Novak, Samo Beguš",2014,,Springer Netherlands,,231,0,English,,,0,"978-94-007-6909-0,978-94-007-6910-6",,,,,,,10.1007/978-94-007-6910-6,,,,0,,1,0,1,,,1,7243357,pdf,27e81e48ace382459bfbf1486caedebf,,,10.1007%2F978-94-007-6910-6.pdf,0,2000-01-01 01:00:00,2016-04-03 02:51:08,http://link.springer.com/static-content/covers/books/560/9789400769106.jpg,,
14913950,Virtual Reality Technology and Applications,,"Intelligent Systems, Control and Automation: Science and Engineering 68",,"Matjaž Mihelj, Domen Novak, Samo Beguš (auth.)",2014,,Springer Netherlands,,"X, 231 p. 169 illus. 35 illus. in color.",0,English,,,,"978-94-007-6909-0,978-94-007-6910-6",,,,,,,10.1007/978-94-007-6910-6,,,,0,,1,0,1,,,1,7243357,pdf,27e81e48ace382459bfbf1486caedebf,,,10.1007%2F978-94-007-6910-6.pdf,0,2000-01-01 01:00:00,2016-04-03 02:51:08,http://link.springer.com/static-content/covers/books/560/9789400769106.jpg,,
14913949,Group Theory Applied to Chemistry,,Theoretical Chemistry and Computational Modelling,,Arnout Jozef Ceulemans,2013,,Springer Netherlands,,269,0,English,,,0,"978-94-007-6862-8,978-94-007-6863-5",,,,,,,10.1007/978-94-007-6863-5,,,,0,,1,0,1,,,1,3215275,pdf,3a317e0d297bba0cfb021c26bbc79215,,,10.1007%2F978-94-007-6863-5.pdf,0,2000-01-01 01:00:00,2016-04-03 02:51:08,http://link.springer.com/static-content/covers/books/454/9789400768635.jpg,,
14913947,Food in the Internet Age,,"SpringerBriefs in Food, Health, and Nutrition",,"William Aspray, George Royer, Melissa G. Ocepek (auth.)",2013,,Springer International Publishing,,94,0,English,,,,"978-3-319-01597-2,978-3-319-01598-9",,,,,,,10.1007/978-3-319-01598-9,,,,0,,1,0,1,,,1,1247700,pdf,ff24116af3c089fc446c07871f5b7b0f,,,10.1007%2F978-3-319-01598-9.pdf,0,2000-01-01 01:00:00,2016-04-03 02:51:08,http://link.springer.com/static-content/covers/books/674/9783319015989.jpg,,
14913948,Group Theory Applied to Chemistry,,Theoretical Chemistry and Computational Modelling,,Arnout Jozef Ceulemans (auth.),2013,,Springer Netherlands,,"XIII, 269 p. 63 illus. 11 illus. in color.",0,English,,,,"978-94-007-6862-8,978-94-007-6863-5",,,,,,,10.1007/978-94-007-6863-5,,,,0,,1,0,1,,,1,3215275,pdf,3a317e0d297bba0cfb021c26bbc79215,,,10.1007%2F978-94-007-6863-5.pdf,0,2000-01-01 01:00:00,2016-04-03 02:51:08,http://link.springer.com/static-content/covers/books/454/9789400768635.jpg,,
14913946,New Trends in Medical and Service Robots: Theory and Integrated Applications,,Mechanisms and Machine Science 16,,"H. Bleuler, M. Bouri (auth.), Doina Pisla, Hannes Bleuler, Aleksandar Rodic, Calin Vaida, Adrian Pisla (eds.)",2014,,Springer International Publishing,,"VIII, 238 p. 167 illus. 127 illus. in color.",0,English,,,,"978-3-319-01591-0,978-3-319-01592-7",,,,,,,10.1007/978-3-319-01592-7,,,,0,,1,0,1,,,1,7928595,pdf,52c3981e5983a063976853fb1e92dce2,,,10.1007%2F978-3-319-01592-7.pdf,0,2000-01-01 01:00:00,2016-04-03 02:51:08,http://link.springer.com/static-content/covers/books/862/9783319015927.jpg,,
14913945,"Sustained Simulation Performance 2013: Proceedings of the joint Workshop on Sustained Simulation Performance, University of Stuttgart (HLRS) and Tohoku University, 2013",,,,"Hiroaki Kobayashi (auth.), Michael M. Resch, Wolfgang Bez, Erich Focht, Hiroaki Kobayashi, Yevgeniya Kovalenko (eds.)",2013,,Springer International Publishing,,"X, 157 p. 84 illus. 71 illus. in color.",0,English,,,,"978-3-319-01438-8,978-3-319-01439-5",,,,,,,10.1007/978-3-319-01439-5,,,,0,,1,0,1,,,1,5331405,pdf,2b05f7c48a0bcd200ca7275be125b913,,,10.1007%2F978-3-319-01439-5.pdf,0,2000-01-01 01:00:00,2016-04-03 02:51:08,http://link.springer.com/static-content/covers/books/204/9783319014395.jpg,,
14913944,Broadband Direct RF Digitization Receivers,,Analog Circuits and Signal Processing 121,,Olivier Jamin (auth.),2014,,Springer International Publishing,,"XVI, 162 p. 166 illus. 68 illus. in color.",0,English,,,,"978-3-319-01149-3,978-3-319-01150-9",,,,,,,10.1007/978-3-319-01150-9,,,,0,,1,0,1,,,1,5394818,pdf,ced560af7dafd663d60e707ed2c6dc3c,,,10.1007%2F978-3-319-01150-9.pdf,0,2000-01-01 01:00:00,2016-04-03 02:51:08,http://link.springer.com/static-content/covers/books/930/9783319011509.jpg,,
14913943,The Economics of the Monetary Union and the Eurozone Crisis,,SpringerBriefs in Economics,,Manuel Sanchis i Marco (auth.),2014,,Springer International Publishing,,"XIII, 109 p. 14 illus. 12 illus. in color.",0,English,,,,"978-3-319-00019-0,978-3-319-00020-6",,,,,,,10.1007/978-3-319-00020-6,,,,0,,1,0,1,,,1,1932759,pdf,abe805dbc4ea1e8bad634f5e7479804b,,,10.1007%2F978-3-319-00020-6.pdf,0,2000-01-01 01:00:00,2016-04-03 02:51:08,http://link.springer.com/static-content/covers/books/128/9783319000206.jpg,,
14913942,Sirtuins: Methods and Protocols,,Methods in Molecular Biology 1077,,"Leonard Guarente (auth.), Matthew D. Hirschey (eds.)",2013,,Humana Press,,310,0,English,,,,"978-1-62703-636-8,978-1-62703-637-5",,,,,,,10.1007/978-1-62703-637-5,,,,0,,1,0,1,,,1,5497808,pdf,d469c86d8a1dd767e0a43e0271823ea2,,,10.1007%2F978-1-62703-637-5.pdf,0,2000-01-01 01:00:00,2016-04-03 02:51:08,http://link.springer.com/static-content/covers/books/912/9781627036375.jpg,,
14913940,Geodesic Convexity in Graphs,,SpringerBriefs in Mathematics,,Ignacio M. Pelayo (auth.),2013,,Springer New York,,"VIII, 112 p. 41 illus.",0,English,,,,"978-1-4614-8698-5,978-1-4614-8699-2",,,,,,,10.1007/978-1-4614-8699-2,,,,0,,1,0,1,,,1,1577744,pdf,81b36ae1c9f1daa7c5f403f7cf07c206,,,10.1007%2F978-1-4614-8699-2.pdf,0,2000-01-01 01:00:00,2016-04-03 02:51:08,http://link.springer.com/static-content/covers/books/402/9781461486992.jpg,,
14913941,Pheromone Signaling: Methods and Protocols,,Methods in Molecular Biology 1068,,"Tetsu Ando (auth.), Kazushige Touhara (eds.)",2013,,Humana Press,,397,0,English,,,,"978-1-62703-618-4,978-1-62703-619-1",,,,,,,10.1007/978-1-62703-619-1,,,,0,,1,0,1,,,1,6816874,pdf,e5c493888850c99cfe1a382f77ff17b6,,,10.1007%2F978-1-62703-619-1.pdf,0,2000-01-01 01:00:00,2016-04-03 02:51:08,http://link.springer.com/static-content/covers/books/776/9781627036191.jpg,,
14913939,Dropwise Condensation on Inclined Textured Surfaces,,SpringerBriefs in Applied Sciences and Technology,,"Sameer Khandekar, Krishnamurthy Muralidhar (auth.)",2014,,Springer New York,,"XV, 141 p. 81 illus. 25 illus. in color.",0,English,,,,"978-1-4614-8446-2,978-1-4614-8447-9",,,,,,,10.1007/978-1-4614-8447-9,,,,0,,1,0,1,,,1,7174892,pdf,268959df31a908cbfa3fb2e3ef1b9a45,,,10.1007%2F978-1-4614-8447-9.pdf,0,2000-01-01 01:00:00,2016-04-03 02:51:08,http://link.springer.com/static-content/covers/books/844/9781461484479.jpg,,
14913938,Permutation Tests in Shape Analysis,,SpringerBriefs in Statistics 15,,"LUIGI SALMASO, Chiara Brombin (auth.)",2013,,Springer New York,,"X, 95 p. 19 illus. 16 illus. in color.",0,English,,,,"978-1-4614-8162-1,978-1-4614-8163-8",,,,,,,10.1007/978-1-4614-8163-8,,,,0,,1,0,1,,,1,1572498,pdf,514eab2affd813e30a8f099a5f96ac30,,,10.1007%2F978-1-4614-8163-8.pdf,0,2000-01-01 01:00:00,2016-04-03 02:51:08,http://link.springer.com/static-content/covers/books/420/9781461481638.jpg,,
14913937,Atlas of Esophagus and Stomach Pathology,,Atlas of Anatomic Pathology,,"Scott R. Owens, Henry D. Appelman (auth.)",2014,,Springer New York,,"X, 195 p. 373 illus. in color.",0,English,,,,"978-1-4614-8083-9,978-1-4614-8084-6",,,,,,,10.1007/978-1-4614-8084-6,,,,0,,1,0,1,,,1,50030021,pdf,69851e12e34fdca1e31e0b36c8fea4ce,,,10.1007%2F978-1-4614-8084-6.pdf,0,2000-01-01 01:00:00,2016-04-03 02:51:08,http://link.springer.com/static-content/covers/books/260/9781461480846.jpg,,
14913936,"Grammaire du tibétain littéraire. Tome I : Grammaire, et Tome II : Index morphologique (Langue littéraire et langue parlée).",,,,Jacques Bacot,"1981, 1948",,Librairie d'Amérique et d'Orient,Paris,240,0,French,,,0,978-2-7200-0402-5,,,,,,,,,,,0,,1,,0,1,0,1,6829399,pdf,7130b1a24017713e67dbe8dae9f4d6f9,,,"Bacot, Jacques M. - Grammaire du Tibetain Litteraire. Tome I et II (240p)",0,2000-01-01 01:00:00,2016-04-03 02:51:08,,,
14913935,Periprosthetic Joint Infection of the Hip and Knee,,,,"David J. Jaekel Ph.D. (auth.), Bryan D. Springer, Javad Parvizi (eds.)",2014,,Springer New York,,"XVII, 257 p. 57 illus. 35 illus. in color.",0,English,,,,"978-1-4614-7927-7,978-1-4614-7928-4",,,,,,,10.1007/978-1-4614-7928-4,,,,0,,1,0,1,,,1,7471342,pdf,3839d58f6c1895a67fd96cc8067e9c01,,,10.1007%2F978-1-4614-7928-4.pdf,0,2000-01-01 01:00:00,2016-04-03 02:51:08,http://link.springer.com/static-content/covers/books/306/9781461479284.jpg,,
14913934,Constant-Scale Natural Boundary Mapping to Reveal Global and Cosmic Processes,,SpringerBriefs in Astronomy,,"Pamela Elizabeth Clark, Chuck Clark (auth.)",2013,,Springer New York,,"X, 116 p. 53 illus. 30 illus. in color.",0,English,,,,"978-1-4614-7761-7,978-1-4614-7762-4",,,,,,,10.1007/978-1-4614-7762-4,,,,0,,1,0,1,,,1,9931737,pdf,5502526ee4f78b2f8ab93bdd99fbd5f6,,,10.1007%2F978-1-4614-7762-4.pdf,0,2000-01-01 01:00:00,2016-04-03 02:51:08,http://link.springer.com/static-content/covers/books/230/9781461477624.jpg,,
14913933,Cleaner Combustion: Developing Detailed Chemical Kinetic Models,,Green Energy and Technology,,"Edward Blurock, Frédérique Battin-Leclerc (auth.), Frédérique Battin-Leclerc, John M. Simmie, Edward Blurock (eds.)",2013,,Springer London,,"XIII, 658 p. 245 illus.",0,English,,,,"978-1-4471-5306-1,978-1-4471-5307-8",,,,,,,10.1007/978-1-4471-5307-8,,,,0,,1,0,1,,,1,10444434,pdf,48ffa4e8278081bdd00c37413e2afd9f,,,10.1007%2F978-1-4471-5307-8.pdf,0,2000-01-01 01:00:00,2016-04-03 02:51:08,http://link.springer.com/static-content/covers/books/632/9781447153078.jpg,,
14913931,Handbook of Combinatorial Optimization,,,,"Thang N. Dinh, D. T. Nguyen, My T. Thai (auth.), Panos M. Pardalos, Ding-Zhu Du, Ronald L. Graham (eds.)",2013,,Springer New York,,3399,0,English,,,,"978-1-4419-7996-4,978-1-4419-7997-1",,,,,,,10.1007/978-1-4419-7997-1,,,,0,,1,0,1,,,1,42289047,pdf,24083cbbc46ecd54d60e21544085057d,,,10.1007%2F978-1-4419-7997-1.pdf,0,2000-01-01 01:00:00,2016-04-03 02:51:08,http://link.springer.com/static-content/covers/books/80/9781441979971.jpg,,
14913932,Analysis of Engineering Drawings and Raster Map Images,,,,Thomas C. Henderson (auth.),2014,,Springer New York,,"XII, 241 p. 214 illus.",0,English,,,,"978-1-4419-8166-0,978-1-4419-8167-7",,,,,,,10.1007/978-1-4419-8167-7,,,,0,,1,0,1,,,1,6126023,pdf,e85fecf6f8f0af36ab88597b578fd9c8,,,10.1007%2F978-1-4419-8167-7.pdf,0,2000-01-01 01:00:00,2016-04-03 02:51:08,http://link.springer.com/static-content/covers/books/764/9781441981677.jpg,,
14913930,Municipal Solid Waste Management in Asia and the Pacific Islands: Challenges and Strategic Solutions,,Environmental Science and Engineering,,"Masaru Tanaka (auth.), Agamuthu Pariatamby, Masaru Tanaka (eds.)",2014,,Springer Singapore,,"XI, 377 p. 95 illus. 72 illus. in color.",0,English,,,,"978-981-4451-72-7,978-981-4451-73-4",,,,,,,10.1007/978-981-4451-73-4,,,,0,,1,0,1,,,1,5846453,pdf,ae8f2f813a545ccf4fb5609e83c17b51,,,10.1007%2F978-981-4451-73-4.pdf,0,2000-01-01 01:00:00,2016-04-03 02:51:08,http://link.springer.com/static-content/covers/books/406/9789814451734.jpg,,
14913929,Entangled Life: Organism and Environment in the Biological and Social Sciences,,"History, Philosophy and Theory of the Life Sciences 4",,"Trevor Pearce (auth.), Gillian Barker, Eric Desjardins, Trevor Pearce (eds.)",2014,,Springer Netherlands,,"VI, 279 p. 15 illus.",0,English,,,,"978-94-007-7066-9,978-94-007-7067-6",,,,,,,10.1007/978-94-007-7067-6,,,,0,,1,0,1,,,1,2333788,pdf,06f01c98310aef0d8da64e7f43e49291,,,10.1007%2F978-94-007-7067-6.pdf,0,2000-01-01 01:00:00,2016-04-03 02:51:08,http://link.springer.com/static-content/covers/books/136/9789400770676.jpg,,
14913928,Stochastic Methods in Fluid Mechanics,,CISM International Centre for Mechanical Sciences 548,,"Jean-Pierre Minier, Sergio Chibbaro (auth.), Sergio Chibbaro, Jean Pierre Minier (eds.)",2014,,Springer Vienna,,"IX, 165 p. 25 illus.",0,English,,,,"978-3-7091-1621-0,978-3-7091-1622-7",,,,,,,10.1007/978-3-7091-1622-7,,,,0,,1,0,1,,,1,2327931,pdf,b1e4bb83eb61a394a00b862752774b84,,,10.1007%2F978-3-7091-1622-7.pdf,0,2000-01-01 01:00:00,2016-04-03 02:51:08,http://link.springer.com/static-content/covers/books/994/9783709116227.jpg,,
14913927,"Dynamic Localization Phenomena in Elasticity, Acoustics and Electromagnetism",,CISM International Centre for Mechanical Sciences 547,,"Richard V. Craster, M. Makwana (auth.), Richard V. Craster, Julius Kaplunov (eds.)",2013,,Springer Vienna,,"VII, 256 p. 60 illus.",0,English,,,,"978-3-7091-1618-0,978-3-7091-1619-7",,,,,,,10.1007/978-3-7091-1619-7,,,,0,,1,0,1,,,1,4735973,pdf,63ff310ba089d775f8e6c619c6d33a4c,,,10.1007%2F978-3-7091-1619-7.pdf,0,2000-01-01 01:00:00,2016-04-03 02:51:08,http://link.springer.com/static-content/covers/books/738/9783709116197.jpg,,
14913926,Fallverstehen in der Pflege von alten Menschen,,,,Esther Matolycz (auth.),2013,,Springer Vienna,,"IX, 183 S.",0,German,,,,"978-3-7091-0768-3,978-3-7091-0769-0",,,,,,,10.1007/978-3-7091-0769-0,,,,0,,1,0,1,,,1,1512604,pdf,a5bf8547d530e05de73fed74dff4d4d2,,,10.1007%2F978-3-7091-0769-0.pdf,0,2000-01-01 01:00:00,2016-04-03 02:51:08,http://link.springer.com/static-content/covers/books/698/9783709107683.jpg,,
14913925,Briefe und Tagebücher,,Der Mensch und Sein Werk 1,,"Franz Rosenzweig, Rachel Rosenzweig, Edith Rosenzweig - Scheinmann",1979,,Springer Netherlands,,1372,0,German,,,0,"978-94-009-9264-1,978-94-009-9263-4",,,,,,,10.1007/978-94-009-9263-4,,,,0,,1,0,1,,,1,54275135,pdf,1ea987f97d91cea523531b0757a3deb2,,,10.1007%2F978-94-009-9263-4.pdf,0,2000-01-01 01:00:00,2016-04-03 02:51:08,http://link.springer.com/static-content/covers/books/336/9789400992634.jpg,,
14913924,Briefe und Tagebücher,,Der Mensch und Sein Werk 1,,"Franz Rosenzweig (auth.), Rachel Rosenzweig, Edith Rosenzweig - Scheinmann (eds.)",1979,,Springer Netherlands,,1372,0,German,,,,"978-94-009-9264-1,978-94-009-9263-4",,,,,,,10.1007/978-94-009-9263-4,,,,0,,1,0,1,,,1,54275135,pdf,1ea987f97d91cea523531b0757a3deb2,,,10.1007%2F978-94-009-9263-4.pdf,0,2000-01-01 01:00:00,2016-04-03 02:51:08,http://link.springer.com/static-content/covers/books/336/9789400992634.jpg,,
14913923,Bibliographie der Sowjetischen Philosophie: Bibliography of Soviet Philosophy V,,Sovietica 17,,J. M. Bocheński,1964,,Springer Netherlands,,150,0,German,,,0,"978-94-010-3610-8,978-94-010-3609-2",,,,,,,10.1007/978-94-010-3609-2,,,,0,,1,0,1,,,1,6743109,pdf,9a7311d2727dfd4e6197e41b104433a0,,,10.1007%2F978-94-010-3609-2.pdf,0,2000-01-01 01:00:00,2016-04-03 02:51:08,http://link.springer.com/static-content/covers/books/558/9789401036092.jpg,,
14913922,Bibliographie der Sowjetischen Philosophie: Bibliography of Soviet Philosophy V,,Sovietica 17,,"Prof. Dr. J. M. Bocheński (auth.), Prof. Dr. J. M. Bocheński (eds.)",1964,,Springer Netherlands,,150,0,English,,,,"978-94-010-3610-8,978-94-010-3609-2",,,,,,,10.1007/978-94-010-3609-2,,,,0,,1,0,1,,,1,6743109,pdf,9a7311d2727dfd4e6197e41b104433a0,,,10.1007%2F978-94-010-3609-2.pdf,0,2000-01-01 01:00:00,2016-04-03 02:51:08,http://link.springer.com/static-content/covers/books/558/9789401036092.jpg,,
14913921,"Hendrick Goltzius als Maler, 1600–1617",,Quellenstudien zur Holländischen Kunstgeschichte 9,,O. Hirschmann,1916,,Springer Netherlands,,121,0,German,,,0,"978-94-017-0040-5,978-94-015-7584-3",,,,,,,10.1007/978-94-015-7584-3,,,,0,,1,0,1,,,1,5420210,pdf,98e568d29a17a66beb414a2938934e45,,,10.1007%2F978-94-015-7584-3.pdf,0,2000-01-01 01:00:00,2016-04-03 02:51:08,http://link.springer.com/static-content/covers/books/976/9789401575843.jpg,,
14913920,"Hendrick Goltzius als Maler, 1600–1617",,Quellenstudien zur Holländischen Kunstgeschichte 9,,Dr. O. Hirschmann (auth.),1916,,Springer Netherlands,,121,0,German,,,,"978-94-017-0040-5,978-94-015-7584-3",,,,,,,10.1007/978-94-015-7584-3,,,,0,,1,0,1,,,1,5420210,pdf,98e568d29a17a66beb414a2938934e45,,,10.1007%2F978-94-015-7584-3.pdf,0,2000-01-01 01:00:00,2016-04-03 02:51:08,http://link.springer.com/static-content/covers/books/976/9789401575843.jpg,,
14913919,Die Urkunden über Rembrandt: 1575–1721,,Quellenstudien zur Holländischen Kunstgeschichte,,C. Hofstede De Groot,1906,,Springer Netherlands,,563,0,German,,,0,"978-94-015-2047-8,978-94-015-3226-6",,,,,,,10.1007/978-94-015-3226-6,,,,0,,1,0,1,,,1,19318752,pdf,70a4804e629cb35c2e6744012a6582e7,,,10.1007%2F978-94-015-3226-6.pdf,0,2000-01-01 01:00:00,2016-04-03 02:51:08,http://link.springer.com/static-content/covers/books/134/9789401532266.jpg,,
14913918,Die Urkunden über Rembrandt: 1575–1721,,Quellenstudien zur Holländischen Kunstgeschichte,,"Dr. C. Hofstede De Groot (auth.), Dr. C. Hofstede De Groot (eds.)",1906,,Springer Netherlands,,563,0,German,,,,"978-94-015-2047-8,978-94-015-3226-6",,,,,,,10.1007/978-94-015-3226-6,,,,0,,1,0,1,,,1,19318752,pdf,70a4804e629cb35c2e6744012a6582e7,,,10.1007%2F978-94-015-3226-6.pdf,0,2000-01-01 01:00:00,2016-04-03 02:51:08,http://link.springer.com/static-content/covers/books/134/9789401532266.jpg,,
14913917,Bibliographie der Sowjetischen Philosophie: Die ‘Voprosy Filosofii’ 1947–1956,,Sovietica 1,,J. M. Bochenski,1960,,Springer Netherlands,,85,0,German,,,0,"978-94-010-3685-6,978-94-010-3684-9",,,,,,,10.1007/978-94-010-3684-9,,,,0,,1,0,1,,,1,5868049,pdf,f7913df379fc65ade500681c2b235017,,,10.1007%2F978-94-010-3684-9.pdf,0,2000-01-01 01:00:00,2016-04-03 02:51:08,http://link.springer.com/static-content/covers/books/18/9789401036849.jpg,,
14913916,Bibliographie der Sowjetischen Philosophie: Die ‘Voprosy Filosofii’ 1947–1956,,Sovietica 1,,"Prof. Dr. J. M. Bochenski (auth.), Prof. Dr. J. M. Bochenski (eds.)",1960,,Springer Netherlands,,85,0,German,,,,"978-94-010-3685-6,978-94-010-3684-9",,,,,,,10.1007/978-94-010-3684-9,,,,0,,1,0,1,,,1,5868049,pdf,f7913df379fc65ade500681c2b235017,,,10.1007%2F978-94-010-3684-9.pdf,0,2000-01-01 01:00:00,2016-04-03 02:51:08,http://link.springer.com/static-content/covers/books/18/9789401036849.jpg,,
14913915,Bibliographie der Sowjetischen Philosophie: Bücher 1947–1956; Bücher und Aufsätze 1957–1958; Namenverzeichnis 1946–1958,,Sovietica 2,,J. M. Bochenski,1960,,Springer Netherlands,,117,0,German,,,0,"978-94-010-3687-0,978-94-010-3686-3",,,,,,,10.1007/978-94-010-3686-3,,,,0,,1,0,1,,,1,10389364,pdf,7ce7bc89b4861f8cc77ff5109424d2be,,,10.1007%2F978-94-010-3686-3.pdf,0,2000-01-01 01:00:00,2016-04-03 02:51:08,http://link.springer.com/static-content/covers/books/962/9789401036863.jpg,,
14913914,Bibliographie der Sowjetischen Philosophie: Bücher 1947–1956; Bücher und Aufsätze 1957–1958; Namenverzeichnis 1946–1958,,Sovietica 2,,"Prof. Dr. J. M. Bochenski (auth.), Prof. Dr. J. M. Bochenski (eds.)",1960,,Springer Netherlands,,117,0,German,,,,"978-94-010-3687-0,978-94-010-3686-3",,,,,,,10.1007/978-94-010-3686-3,,,,0,,1,0,1,,,1,10389364,pdf,7ce7bc89b4861f8cc77ff5109424d2be,,,10.1007%2F978-94-010-3686-3.pdf,0,2000-01-01 01:00:00,2016-04-03 02:51:08,http://link.springer.com/static-content/covers/books/962/9789401036863.jpg,,
14913913,"Cohomologie Galoisienne: Cours au Collège de France, 1962–1963",,Lecture Notes in Mathematics 5,,Jean-Pierre Serre,1973,,Springer Berlin Heidelberg,,217,0,English,,,0,"978-3-540-06084-0,978-3-662-21553-1",,,,,,,10.1007/978-3-662-21553-1,,,,0,,1,0,1,,,1,9684655,pdf,eef81e184454ed044b302d743adc42a7,,,10.1007%2F978-3-662-21553-1.pdf,0,2000-01-01 01:00:00,2016-04-03 02:51:08,http://link.springer.com/static-content/covers/books/268/9783662215531.jpg,,
14913912,"Cohomologie Galoisienne: Cours au Collège de France, 1962–1963",,Lecture Notes in Mathematics 5,,Jean-Pierre Serre (auth.),1973,,Springer Berlin Heidelberg,,217 p.Show next edition,0,English,,,,"978-3-540-06084-0,978-3-662-21553-1",,,,,,,10.1007/978-3-662-21553-1,,,,0,,1,0,1,,,1,9684655,pdf,eef81e184454ed044b302d743adc42a7,,,10.1007%2F978-3-662-21553-1.pdf,0,2000-01-01 01:00:00,2016-04-03 02:51:08,http://link.springer.com/static-content/covers/books/268/9783662215531.jpg,,
14913911,"National Intellectual Capital and the Financial Crisis in Israel, Jordan, South Africa, and Turkey",,SpringerBriefs in Economics 16,,"Carol Yeh-Yun Lin, Leif Edvinsson, Jeffrey Chen, Tord Beding",2014,,Springer New York,,107,0,English,,,0,"978-1-4614-7980-2,978-1-4614-7981-9",,,,,,,10.1007/978-1-4614-7981-9,,,,0,,1,0,1,,,1,2725737,pdf,5722ce1a22a00d8e6781b62a97954fb1,,,10.1007%2F978-1-4614-7981-9.pdf,0,2000-01-01 01:00:00,2016-04-03 02:51:08,http://link.springer.com/static-content/covers/books/752/9781461479819.jpg,,
14913910,"National Intellectual Capital and the Financial Crisis in Israel, Jordan, South Africa, and Turkey",,SpringerBriefs in Economics 16,,"Carol Yeh-Yun Lin, Leif Edvinsson, Jeffrey Chen, Tord Beding (auth.)",2014,,Springer New York,,"XXIX, 107 p. 39 illus. 37 illus. in color.",0,English,,,,"978-1-4614-7980-2,978-1-4614-7981-9",,,,,,,10.1007/978-1-4614-7981-9,,,,0,,1,0,1,,,1,2725737,pdf,5722ce1a22a00d8e6781b62a97954fb1,,,10.1007%2F978-1-4614-7981-9.pdf,0,2000-01-01 01:00:00,2016-04-03 02:51:08,http://link.springer.com/static-content/covers/books/752/9781461479819.jpg,,
14913909,Zwischenprüfungstraining Bankfachklasse: Programmierte Aufgaben mit Lösungen,,Prüfungstraining für Bankkaufleute,,"Wolfgang Grundmann, Rudolf Rathner",2013,,Gabler Verlag,,309,0,German,,,0,"978-3-8349-4583-9,978-3-8349-4584-6",,,,,,,10.1007/978-3-8349-4584-6,,,,0,,1,0,1,,,1,52693103,pdf,7ab248b6e34bd882f561c001e3f15d75,,,10.1007%2F978-3-8349-4584-6.pdf,0,2000-01-01 01:00:00,2016-04-03 02:51:08,http://link.springer.com/static-content/covers/books/818/9783834945846.jpg,,
14913908,Zwischenprüfungstraining Bankfachklasse: Programmierte Aufgaben mit Lösungen,,Prüfungstraining für Bankkaufleute,,"Wolfgang Grundmann, Rudolf Rathner (auth.)",2013,,Gabler Verlag,,"VIII, 309 S.",0,German,,,,"978-3-8349-4583-9,978-3-8349-4584-6",,,,,,,10.1007/978-3-8349-4584-6,,,,0,,1,0,1,,,1,52693103,pdf,7ab248b6e34bd882f561c001e3f15d75,,,10.1007%2F978-3-8349-4584-6.pdf,0,2000-01-01 01:00:00,2016-04-03 02:51:08,http://link.springer.com/static-content/covers/books/818/9783834945846.jpg,,
14913907,Agentenbasierte Schwarmintelligenz,,,,Tjorben Bogon,2013,,Springer Fachmedien Wiesbaden,,171,0,German,,,0,"978-3-658-02291-4,978-3-658-02292-1",,,,,,,10.1007/978-3-658-02292-1,,,,0,,1,0,1,,,1,2277265,pdf,3c9dd8c2129ce28f68d42174def937e1,,,10.1007%2F978-3-658-02292-1.pdf,0,2000-01-01 01:00:00,2016-04-03 02:51:08,http://link.springer.com/static-content/covers/books/634/9783658022921.jpg,,
14913906,Agentenbasierte Schwarmintelligenz,,,,Tjorben Bogon (auth.),2013,,Springer Fachmedien Wiesbaden,,171,0,German,,,,"978-3-658-02291-4,978-3-658-02292-1",,,,,,,10.1007/978-3-658-02292-1,,,,0,,1,0,1,,,1,2277265,pdf,3c9dd8c2129ce28f68d42174def937e1,,,10.1007%2F978-3-658-02292-1.pdf,0,2000-01-01 01:00:00,2016-04-03 02:51:08,http://link.springer.com/static-content/covers/books/634/9783658022921.jpg,,
14913905,Betriebliches Gesundheitsmanagement für die Praxis: Ein Leitfaden zur systematischen Umsetzung der DIN SPEC 91020,,,,Martin Kaminski,2013,,Springer Fachmedien Wiesbaden,,146,0,German,,,0,"978-3-658-01273-1,978-3-658-01274-8",,,,,,,10.1007/978-3-658-01274-8,,,,0,,1,0,1,,,1,2282418,pdf,c8ca161d571d64377cdfa68c76194818,,,10.1007%2F978-3-658-01274-8.pdf,0,2000-01-01 01:00:00,2016-04-03 02:51:08,http://link.springer.com/static-content/covers/books/8/9783658012748.jpg,,
14913904,Betriebliches Gesundheitsmanagement für die Praxis: Ein Leitfaden zur systematischen Umsetzung der DIN SPEC 91020,,,,Martin Kaminski (auth.),2013,,Springer Fachmedien Wiesbaden,,"XII, 146 S. 42 Abb.",0,German,,,,"978-3-658-01273-1,978-3-658-01274-8",,,,,,,10.1007/978-3-658-01274-8,,,,0,,1,0,1,,,1,2282418,pdf,c8ca161d571d64377cdfa68c76194818,,,10.1007%2F978-3-658-01274-8.pdf,0,2000-01-01 01:00:00,2016-04-03 02:51:08,http://link.springer.com/static-content/covers/books/8/9783658012748.jpg,,
14913903,Die subjektive Seite der Stadt: Neue politische Herausforderungen und die Bedeutung von Eliten im lokalen Bereich,,,,"Frank Eckardt, Katrin Harm, Jens Aderhold",2013,,Springer Fachmedien Wiesbaden,,396,0,German,,,0,"978-3-531-18805-8,978-3-531-18806-5",,,,,,,10.1007/978-3-531-18806-5,,,,0,,1,0,1,,,1,3700432,pdf,3ea14150440c74e933681ee92699b600,,,10.1007%2F978-3-531-18806-5.pdf,0,2000-01-01 01:00:00,2016-04-03 02:51:08,http://link.springer.com/static-content/covers/books/562/9783531188065.jpg,,
14913902,Die subjektive Seite der Stadt: Neue politische Herausforderungen und die Bedeutung von Eliten im lokalen Bereich,,,,"Prof. Dr. Frank Eckardt (auth.), Katrin Harm, Jens Aderhold (eds.)",2013,,Springer Fachmedien Wiesbaden,,396,0,German,,,,"978-3-531-18805-8,978-3-531-18806-5",,,,,,,10.1007/978-3-531-18806-5,,,,0,,1,0,1,,,1,3700432,pdf,3ea14150440c74e933681ee92699b600,,,10.1007%2F978-3-531-18806-5.pdf,0,2000-01-01 01:00:00,2016-04-03 02:51:08,http://link.springer.com/static-content/covers/books/562/9783531188065.jpg,,
14913901,Proficiency and Beliefs in Learning and Teaching Mathematics: Learning from Alan Schoenfeld and Günter Törner,,Mathematics Teaching and Learning,,"Yeping Li, Judit N. Moschkovich",2013,,SensePublishers,,310,0,English,,,0,978-94-6209-299-0,,,,,,,10.1007/978-94-6209-299-0,,,,0,,1,0,1,,,1,2447149,pdf,e039962f2d4cb7339fe9bfd8ae2c250f,,,10.1007%2F978-94-6209-299-0.pdf,0,2000-01-01 01:00:00,2016-04-03 02:51:08,http://link.springer.com/static-content/covers/books/602/9789462092990.jpg,,
14913900,Proficiency and Beliefs in Learning and Teaching Mathematics: Learning from Alan Schoenfeld and Günter Törner,,Mathematics Teaching and Learning,,"Yeping Li, Judit N. Moschkovich (auth.), Yeping Li, Judit N. Moschkovich (eds.)",2013,,SensePublishers,,310,0,German,,,,978-94-6209-299-0,,,,,,,10.1007/978-94-6209-299-0,,,,0,,1,0,1,,,1,2447149,pdf,e039962f2d4cb7339fe9bfd8ae2c250f,,,10.1007%2F978-94-6209-299-0.pdf,0,2000-01-01 01:00:00,2016-04-03 02:51:08,http://link.springer.com/static-content/covers/books/602/9789462092990.jpg,,
14913899,"Seminar on Stochastic Analysis, Random Fields and Applications VII: Centro Stefano Franscini, Ascona, May 2011",,Progress in Probability 67,,"Raluca M. Balan (auth.), Robert C. Dalang, Marco Dozzi, Francesco Russo (eds.)",2013,,Springer Basel,,470,0,English,,,0,"978-3-0348-0544-5,978-3-0348-0545-2",,,,,,,10.1007/978-3-0348-0545-2,,,,0,,1,0,1,,,1,4700736,pdf,f840ee6d1c44bca2de02621ed0515e2e,,,10.1007%2F978-3-0348-0545-2.pdf,0,2000-01-01 01:00:00,2016-04-03 02:51:08,http://link.springer.com/static-content/covers/books/398/9783034805452.jpg,,
14913898,"Seminar on Stochastic Analysis, Random Fields and Applications VII: Centro Stefano Franscini, Ascona, May 2011",,Progress in Probability 67,,"Raluca M. Balan (auth.), Robert C. Dalang, Marco Dozzi, Francesco Russo (eds.)",2013,,Springer Basel,,470,0,German,,,,"978-3-0348-0544-5,978-3-0348-0545-2",,,,,,,10.1007/978-3-0348-0545-2,,,,0,,1,0,1,,,1,4700736,pdf,f840ee6d1c44bca2de02621ed0515e2e,,,10.1007%2F978-3-0348-0545-2.pdf,0,2000-01-01 01:00:00,2016-04-03 02:51:08,http://link.springer.com/static-content/covers/books/398/9783034805452.jpg,,
14913897,"Advances in Production Management Systems. Sustainable Production and Service Supply Chains: IFIP WG 5.7 International Conference, APMS 2013, State College, PA, USA, September 9-12, 2013, Proceedings, Part II",,IFIP Advances in Information and Communication Technology 415,,"Takashi Tanizaki (auth.), Vittal Prabhu, Marco Taisch, Dimitris Kiritsis (eds.)",2013,,Springer Berlin Heidelberg,,"XXIV, 604 p. 190 illus.",0,English,,,,"978-3-642-41262-2,978-3-642-41263-9",,,,,,,10.1007/978-3-642-41263-9,,,,0,,1,0,1,,,1,16352484,pdf,a14d21faa2e0624e53ad5df71019f815,,,10.1007%2F978-3-642-41263-9.pdf,0,2000-01-01 01:00:00,2016-04-03 02:51:08,http://link.springer.com/static-content/covers/books/592/9783642412639.jpg,,
14913896,Electrogenerated Chemiluminescence: Protocols and Applications,,SpringerBriefs in Molecular Science,,"Saima Parveen, Muhammad Sohail Aslam, Lianzhe Hu, Guobao Xu (auth.)",2013,,Springer Berlin Heidelberg,,"XIII, 152 p. 54 illus. 22 illus. in color.",0,English,,,,"978-3-642-39554-3,978-3-642-39555-0",,,,,,,10.1007/978-3-642-39555-0,,,,0,,1,0,1,,,1,3586952,pdf,3af5d5321b4e5b9fbe0a4890edf05d4c,,,10.1007%2F978-3-642-39555-0.pdf,0,2000-01-01 01:00:00,2016-04-03 02:51:08,http://link.springer.com/static-content/covers/books/110/9783642395550.jpg,,
14913895,Molecular Virology,,,,"Susanne Modrow, Dietrich Falke, Uwe Truyen, Hermann Schätzl (auth.)",2013,,Springer Berlin Heidelberg,,1013,0,English,,,,"978-3-642-20717-4,978-3-642-20718-1",,,,,,,10.1007/978-3-642-20718-1,,,,0,,1,0,1,,,1,14332647,pdf,3b9b282e16c050a8b66a357bd82644f3,,,10.1007%2F978-3-642-20718-1.pdf,0,2000-01-01 01:00:00,2016-04-03 02:51:08,http://link.springer.com/static-content/covers/books/118/9783642207181.jpg,,
14913894,Optimization in the Energy Industry,,Energy Systems,,"Torben Franch, Max Scheidt, Günter Stock (auth.), Josef Kallrath, Panos M. Pardalos, Steffen Rebennack, Max Scheidt (eds.)",2009,,Springer Berlin Heidelberg,,"XX, 533 p.",0,English,,,,"978-3-540-88964-9,978-3-540-88965-6",,,,,,,10.1007/978-3-540-88965-6,,,,0,,1,0,1,,,1,15274640,pdf,ba85266daef39b8257df7197f9b350a1,,,10.1007%2F978-3-540-88965-6.pdf,0,2000-01-01 01:00:00,2016-04-03 02:51:08,http://link.springer.com/static-content/covers/books/576/9783540889649.jpg,,
14913892,"Extensions to the No-Core Shell Model: Importance-Truncation, Regulators and Reactions",,Springer Theses,,Michael Karl Gerhard Kruse (auth.),2013,,Springer International Publishing,,"XIII, 126 p. 52 illus. 45 illus. in color.",0,English,,,,"978-3-319-01392-3,978-3-319-01393-0",,,,,,,10.1007/978-3-319-01393-0,,,,0,,1,0,1,,,1,2500683,pdf,31b8c238f3aa0fbac7e95369ad3096ad,,,10.1007%2F978-3-319-01393-0.pdf,0,2000-01-01 01:00:00,2016-04-03 02:51:08,http://link.springer.com/static-content/covers/books/420/9783319013930.jpg,,
14913893,Nano-photonics in III-V Semiconductors for Integrated Quantum Optical Circuits,,Springer Theses,,Nicholas Andrew Wasley (auth.),2014,,Springer International Publishing,,"XV, 129 p. 77 illus. 51 illus. in color.",0,English,,,,"978-3-319-01513-2,978-3-319-01514-9",,,,,,,10.1007/978-3-319-01514-9,,,,0,,1,0,1,,,1,5360920,pdf,5af883ebec265dc74be12988c52f3950,,,10.1007%2F978-3-319-01514-9.pdf,0,2000-01-01 01:00:00,2016-04-03 02:51:08,http://link.springer.com/static-content/covers/books/486/9783319015149.jpg,,
14913891,Observation of CP Violation in B± → DK± Decays,,Springer Theses,,Paolo Gandini (auth.),2014,,Springer International Publishing,,"XIX, 167 p. 127 illus. 115 illus. in color.",0,English,,,,"978-3-319-01028-1,978-3-319-01029-8",,,,,,,10.1007/978-3-319-01029-8,,,,0,,1,0,1,,,1,9918847,pdf,dacec0a0b68cb9d93fdd477b358a9cca,,,10.1007%2F978-3-319-01029-8.pdf,0,2000-01-01 01:00:00,2016-04-03 02:51:08,http://link.springer.com/static-content/covers/books/326/9783319010298.jpg,,
14913890,"Cohomologie Galoisienne: Cours au Collège de France, 1962–1963",,Lecture Notes in Mathematics 5,,Jean-Pierre Serre (auth.),1973,,Springer Berlin Heidelberg,,217 p.Show next edition,0,English,,,,"978-3-540-06084-0,978-3-662-21553-1",,,,,,,10.1007/978-3-662-21553-1,,,,0,,1,0,1,,,1,9684655,pdf,eef81e184454ed044b302d743adc42a7,,,10.1007%2F978-3-662-21553-1.pdf,0,2000-01-01 01:00:00,2016-04-03 02:51:08,http://link.springer.com/static-content/covers/books/268/9783662215531.jpg,,
14913889,,,,,,,,,,207,0,English,,,,,,,,,,,10.1007/978-3-662-16378-8,,,,0,,1,0,1,,,1,10196732,pdf,61022cf843bfecfacd76ab011ec1a146,,,10.1007%2F978-3-662-16378-8.pdf,0,2000-01-01 01:00:00,2016-04-03 02:51:08,http://link.springer.com/static-content/covers/books/.jpg,,
14913888,Public Attitudes towards Family Policies in Europe: Linking Institutional Context and Public Opinion,,,,Monika Mischke (auth.),2014,,Springer Fachmedien Wiesbaden,,"X, 230 p. 10 illus.",0,English,,,,"978-3-658-03576-1,978-3-658-03577-8",,,,,,,10.1007/978-3-658-03577-8,,,,0,,1,0,1,,,1,1878931,pdf,f367002de3df648bac772dcc160f78f5,,,10.1007%2F978-3-658-03577-8.pdf,0,2000-01-01 01:00:00,2016-04-03 02:51:08,http://link.springer.com/static-content/covers/books/500/9783658035778.jpg,,
14913887,Seismic Design of Industrial Facilities: Proceedings of the International Conference on Seismic Design of Industrial Facilities (SeDIF-Conference),,,,"Mustafa Erdik, Eren Uckan (auth.), Sven Klinkel, Christoph Butenweg, Gao Lin, Britta Holtschoppen (eds.)",2014,,Springer Fachmedien Wiesbaden,,"XIII, 640 p. 341 illus.",0,English,,,,"978-3-658-02809-1,978-3-658-02810-7",,,,,,,10.1007/978-3-658-02810-7,,,,0,,1,0,1,,,1,26405882,pdf,c9b3fd72f3fe8258d1635f48adb4d3af,,,10.1007%2F978-3-658-02810-7.pdf,0,2000-01-01 01:00:00,2016-04-03 02:51:08,http://link.springer.com/static-content/covers/books/632/9783658028107.jpg,,
14913886,Agentenbasierte Schwarmintelligenz,,,,Tjorben Bogon (auth.),2013,,Springer Fachmedien Wiesbaden,,171,0,German,,,,"978-3-658-02291-4,978-3-658-02292-1",,,,,,,10.1007/978-3-658-02292-1,,,,0,,1,0,1,,,1,2277265,pdf,3c9dd8c2129ce28f68d42174def937e1,,,10.1007%2F978-3-658-02292-1.pdf,0,2000-01-01 01:00:00,2016-04-03 02:51:08,http://link.springer.com/static-content/covers/books/634/9783658022921.jpg,,
14913885,Betriebliches Gesundheitsmanagement für die Praxis: Ein Leitfaden zur systematischen Umsetzung der DIN SPEC 91020,,,,Martin Kaminski (auth.),2013,,Springer Fachmedien Wiesbaden,,"XII, 146 S. 42 Abb.",0,German,,,,"978-3-658-01273-1,978-3-658-01274-8",,,,,,,10.1007/978-3-658-01274-8,,,,0,,1,0,1,,,1,2282418,pdf,c8ca161d571d64377cdfa68c76194818,,,10.1007%2F978-3-658-01274-8.pdf,0,2000-01-01 01:00:00,2016-04-03 02:51:08,http://link.springer.com/static-content/covers/books/8/9783658012748.jpg,,
14913884,"Trustworthy Global Computing: 7th International Symposium, TGC 2012, Newcastle upon Tyne, UK, September 7-8, 2012, Revised Selected Papers",,Lecture Notes in Computer Science 8191,,"Antoine Amarilli, Fabrice Ben Hamouda, Florian Bourse (auth.), Catuscia Palamidessi, Mark D. Ryan (eds.)",2013,,Springer Berlin Heidelberg,,"X, 213 p. 37 illus.",0,English,,,,"978-3-642-41156-4,978-3-642-41157-1",,,,,,,10.1007/978-3-642-41157-1,,,,0,,1,0,1,,,1,3019287,pdf,b11ccf962a65f2c9f9708bd5c7832360,,,10.1007%2F978-3-642-41157-1.pdf,0,2000-01-01 01:00:00,2016-04-03 02:51:08,http://link.springer.com/static-content/covers/books/228/9783642411571.jpg,,
14913883,"Security and Trust Management: 9th International Workshop, STM 2013, Egham, UK, September 12-13, 2013. Proceedings",,Lecture Notes in Computer Science 8203,,"Costas Delakouridis, Christos Anagnostopoulos (auth.), Rafael Accorsi, Silvio Ranise (eds.)",2013,,Springer Berlin Heidelberg,,"X, 235 p. 53 illus.",0,English,,,,"978-3-642-41097-0,978-3-642-41098-7",,,,,,,10.1007/978-3-642-41098-7,,,,0,,1,0,1,,,1,3930936,pdf,3179adcd9112e61750f90c601de16a82,,,10.1007%2F978-3-642-41098-7.pdf,0,2000-01-01 01:00:00,2016-04-03 02:51:08,http://link.springer.com/static-content/covers/books/138/9783642410987.jpg,,
14913882,"Artificial Neural Networks and Machine Learning – ICANN 2013: 23rd International Conference on Artificial Neural Networks Sofia, Bulgaria, September 10-13, 2013. Proceedings",,Lecture Notes in Computer Science 8131,,"Botond Attila Bócsi, Lehel Csató (auth.), Valeri Mladenov, Petia Koprinkova-Hristova, Günther Palm, Alessandro E. P. Villa, Bruno Appollini, Nikola Kasabov (eds.)",2013,,Springer Berlin Heidelberg,,"XVIII, 643 p. 231 illus.",0,English,,,,"978-3-642-40727-7,978-3-642-40728-4",,,,,,,10.1007/978-3-642-40728-4,,,,0,,1,0,1,,,1,22043244,pdf,e4a99b25da26948bb00f356e80a4fd7f,,,10.1007%2F978-3-642-40728-4.pdf,0,2000-01-01 01:00:00,2016-04-03 02:51:08,http://link.springer.com/static-content/covers/books/852/9783642407284.jpg,,
14913880,Towards Autonomous Soft Matter Systems: Experiments on Membranes and Active Emulsions,,Springer Theses,,Shashi Thutupalli (auth.),2014,,Springer International Publishing,,"XVIII, 127 p. 84 illus. 26 illus. in color.",0,English,,,,"978-3-319-00734-2,978-3-319-00735-9",,,,,,,10.1007/978-3-319-00735-9,,,,0,,1,0,1,,,1,6757422,pdf,18bd0e99ff7a1fe8aca9a7b87658e923,,,10.1007%2F978-3-319-00735-9.pdf,0,2000-01-01 01:00:00,2016-04-03 02:51:08,http://link.springer.com/static-content/covers/books/472/9783319007359.jpg,,
14913881,"Progress in Artificial Intelligence: 16th Portuguese Conference on Artificial Intelligence, EPIA 2013, Angra do Heroísmo, Azores, Portugal, September 9-12, 2013. Proceedings",,Lecture Notes in Computer Science 8154,,"Davide Carneiro, Sérgio Gonçalves, Paulo Novais, José Neves (auth.), Luís Correia, Luís Paulo Reis, José Cascalho (eds.)",2013,,Springer Berlin Heidelberg,,"XXX, 542 p. 172 illus.",0,English,,,,"978-3-642-40668-3,978-3-642-40669-0",,,,,,,10.1007/978-3-642-40669-0,,,,0,,1,0,1,,,1,13833601,pdf,8050419882d65f9255bbbf01b9d73035,,,10.1007%2F978-3-642-40669-0.pdf,0,2000-01-01 01:00:00,2016-04-03 02:51:08,http://link.springer.com/static-content/covers/books/772/9783642406690.jpg,,
14913879,Die subjektive Seite der Stadt: Neue politische Herausforderungen und die Bedeutung von Eliten im lokalen Bereich,,,,"Prof. Dr. Frank Eckardt (auth.), Katrin Harm, Jens Aderhold (eds.)",2013,,Springer Fachmedien Wiesbaden,,396,0,German,,,,"978-3-531-18805-8,978-3-531-18806-5",,,,,,,10.1007/978-3-531-18806-5,,,,0,,1,0,1,,,1,3700432,pdf,3ea14150440c74e933681ee92699b600,,,10.1007%2F978-3-531-18806-5.pdf,0,2000-01-01 01:00:00,2016-04-03 02:51:08,http://link.springer.com/static-content/covers/books/562/9783531188065.jpg,,
14913878,Robustness in Statistical Forecasting,,,,Yuriy Kharin (auth.),2013,,Springer International Publishing,,"XVI, 356 p. 47 illus.",0,English,,,,"978-3-319-00839-4,978-3-319-00840-0",,,,,,,10.1007/978-3-319-00840-0,,,,0,,1,0,1,,,1,4003398,pdf,a41b629b6adc0714ea7eaed4721c23c5,,,10.1007%2F978-3-319-00840-0.pdf,0,2000-01-01 01:00:00,2016-04-03 02:51:08,http://link.springer.com/static-content/covers/books/884/9783319008400.jpg,,
14913877,Representations of Linear Operators Between Banach Spaces,,Operator Theory: Advances and Applications 238,,"David E. Edmunds, W. Desmond Evans (auth.)",2013,,Springer Basel,,164,0,English,,,,"978-3-0348-0641-1,978-3-0348-0642-8",,,,,,,10.1007/978-3-0348-0642-8,,,,0,,1,0,1,,,1,1718827,pdf,f69d042e6d32a0d2f273772a4eebf74d,,,10.1007%2F978-3-0348-0642-8.pdf,0,2000-01-01 01:00:00,2016-04-03 02:51:08,http://link.springer.com/static-content/covers/books/694/9783034806428.jpg,,
14913876,"National Intellectual Capital and the Financial Crisis in Israel, Jordan, South Africa, and Turkey",,SpringerBriefs in Economics 16,,"Carol Yeh-Yun Lin, Leif Edvinsson, Jeffrey Chen, Tord Beding (auth.)",2014,,Springer New York,,"XXIX, 107 p. 39 illus. 37 illus. in color.",0,English,,,,"978-1-4614-7980-2,978-1-4614-7981-9",,,,,,,10.1007/978-1-4614-7981-9,,,,0,,1,0,1,,,1,2725737,pdf,5722ce1a22a00d8e6781b62a97954fb1,,,10.1007%2F978-1-4614-7981-9.pdf,0,2000-01-01 01:00:00,2016-04-03 02:51:08,http://link.springer.com/static-content/covers/books/752/9781461479819.jpg,,
14913875,Web Services Foundations,,,,"Mohammed AbuJarour, Ahmed Awad (auth.), Athman Bouguettaya, Quan Z. Sheng, Florian Daniel (eds.)",2014,,Springer New York,,"XIX, 739 p. 205 illus.",0,English,,,,"978-1-4614-7517-0,978-1-4614-7518-7",,,,,,,10.1007/978-1-4614-7518-7,,,,0,,1,0,1,,,1,15852554,pdf,e125732cad8c1c2d6e5537d1a466b055,,,10.1007%2F978-1-4614-7518-7.pdf,0,2000-01-01 01:00:00,2016-04-03 02:51:08,http://link.springer.com/static-content/covers/books/428/9781461475187.jpg,,
14913874,Java Quick Syntax Reference,,,,Mikael Olsson (auth.),2013,,Apress,,80,0,English,,,,"978-1-4302-6286-2,978-1-4302-6287-9",,,,,,,10.1007/978-1-4302-6287-9,,,,0,,1,0,1,,,1,526114,pdf,ffbc0422473457c756c27c988a260c39,,,10.1007%2F978-1-4302-6287-9.pdf,0,2000-01-01 01:00:00,2016-04-03 02:51:08,http://link.springer.com/static-content/covers/books/940/9781430262879.jpg,,
14913872,Science Fiction and Speculative Fiction: Challenging Genres,,Critical Literacy Teaching Series,,"P. L. Thomas (auth.), P. L. Thomas (eds.)",2013,,SensePublishers,,219,0,English,,,,978-94-6209-380-5,,,,,,,10.1007/978-94-6209-380-5,,,,0,,1,0,1,,,1,1523487,pdf,feeca739f0b82aeeebf19987f4283eba,,,10.1007%2F978-94-6209-380-5.pdf,0,2000-01-01 01:00:00,2016-04-03 02:51:08,http://link.springer.com/static-content/covers/books/46/9789462093805.jpg,,
14913873,PHP Quick Scripting Reference,,,,Mikael Olsson (auth.),2013,,Apress,,120,0,English,,,,"978-1-4302-6283-1,978-1-4302-6284-8",,,,,,,10.1007/978-1-4302-6284-8,,,,0,,1,0,1,,,1,670523,pdf,5314420c8b0a778d44506b095e72a088,,,10.1007%2F978-1-4302-6284-8.pdf,0,2000-01-01 01:00:00,2016-04-03 02:51:08,http://link.springer.com/static-content/covers/books/34/9781430262848.jpg,,
14913871,Educating Health Professionals: Becoming a University Teacher,,"Practice, Education, Work and Society",,"Stephen Loftus PhD, Tania Gerzina PhD (auth.), Stephen Loftus, Tania Gerzina, Joy Higgs, Megan Smith, Elaine Duffy (eds.)",2013,,SensePublishers,,345,0,English,,,,978-94-6209-353-9,,,,,,,10.1007/978-94-6209-353-9,,,,0,,1,0,1,,,1,2641907,pdf,0cdd3a2b23c03dba575af9bc1a11cdfe,,,10.1007%2F978-94-6209-353-9.pdf,0,2000-01-01 01:00:00,2016-04-03 02:51:08,http://link.springer.com/static-content/covers/books/832/9789462093539.jpg,,
14913870,Capacity Building for School Improvement: Revisited,,Contemporary Approaches to Research in Learning Innovations,,Patricia Stringer (auth.),2013,,SensePublishers,,137,0,English,,,,978-94-6209-329-4,,,,,,,10.1007/978-94-6209-329-4,,,,0,,1,0,1,,,1,1666709,pdf,0192b2e2924f4398f724491c3209a233,,,10.1007%2F978-94-6209-329-4.pdf,0,2000-01-01 01:00:00,2016-04-03 02:51:08,http://link.springer.com/static-content/covers/books/534/9789462093294.jpg,,
14913869,The Creation of a Professional Learning Community for School Leaders: Insights on the Change Process from the Lens of the School Leader,,,,Amalia Humada-LudekeCarlos (auth.),2013,,SensePublishers,,157,0,English,,,,978-94-6209-320-1,,,,,,,10.1007/978-94-6209-320-1,,,,0,,1,0,1,,,1,621438,pdf,62b4eab6614e7881a42a1548867f5470,,,10.1007%2F978-94-6209-320-1.pdf,0,2000-01-01 01:00:00,2016-04-03 02:51:08,http://link.springer.com/static-content/covers/books/816/9789462093201.jpg,,
14913868,Zombie Seed and the Butterfly Blues: A Case of Social Justice,,Social Fictions Series,,"R. P. Clair (auth.), R. P. Clair (eds.)",2013,,SensePublishers,,354,0,English,,,,978-94-6209-308-9,,,,,,,10.1007/978-94-6209-308-9,,,,0,,1,0,1,,,1,1853328,pdf,d7647e6ecf8e6a470d7e7bdfaefc729b,,,10.1007%2F978-94-6209-308-9.pdf,0,2000-01-01 01:00:00,2016-04-03 02:51:08,http://link.springer.com/static-content/covers/books/482/9789462093089.jpg,,
14913867,Engaged Scholarship: The Politics of Engagement and Disengagement,,Comparative and International Education,,"Tania Kajner, Lynette Shultz (auth.), Lynette Shultz, Tania Kajner (eds.)",2013,,SensePublishers,,193,0,English,,,,978-94-6209-290-7,,,,,,,10.1007/978-94-6209-290-7,,,,0,,1,0,1,,,1,775740,pdf,ffb6bab20cf2894bcc970a43ee729071,,,10.1007%2F978-94-6209-290-7.pdf,0,2000-01-01 01:00:00,2016-04-03 02:51:08,http://link.springer.com/static-content/covers/books/874/9789462092907.jpg,,
14913866,Mathematics Classrooms: Students’ Activities and Teachers’ Practices,,,,"Fabrice Vandebrouck (auth.), Fabrice Vandebrouck (eds.)",2013,,SensePublishers,,257,0,English,,,,978-94-6209-281-5,,,,,,,10.1007/978-94-6209-281-5,,,,0,,1,0,1,,,1,2528089,pdf,0d1ab1c3ca267f505eb0e7e65ae99656,,,10.1007%2F978-94-6209-281-5.pdf,0,2000-01-01 01:00:00,2016-04-03 02:51:08,http://link.springer.com/static-content/covers/books/806/9789462092815.jpg,,
14913865,Counselling for Career Construction: Connecting life themes to construct life portraits: Turning pain into hope,,,,J. G. Maree (auth.),2013,,SensePublishers,,144,0,English,,,,978-94-6209-272-3,,,,,,,10.1007/978-94-6209-272-3,,,,0,,1,0,1,,,1,1244650,pdf,d802b2ee6f2f382050e36473575c8469,,,10.1007%2F978-94-6209-272-3.pdf,0,2000-01-01 01:00:00,2016-04-03 02:51:08,http://link.springer.com/static-content/covers/books/738/9789462092723.jpg,,
14913864,The Nature of Technology: Implications for Learning and Teaching,,,,"Michael P. Clough, Joanne K. Olson, Dale S. Niederhauser (auth.), Michael P. Clough, Joanne K. Olson, Dale S. Niederhauser (eds.)",2013,,SensePublishers,,449,0,English,,,,978-94-6209-269-3,,,,,,,10.1007/978-94-6209-269-3,,,,0,,1,0,1,,,1,2254409,pdf,bb28daed51d3b9666f551f087269c1e1,,,10.1007%2F978-94-6209-269-3.pdf,0,2000-01-01 01:00:00,2016-04-03 02:51:08,http://link.springer.com/static-content/covers/books/482/9789462092693.jpg,,
14913862,Excellence in Scholarship: Transcending Transdisciplinarity in Teacher Education,,,,"Sivakumar Alagumalai, Stephanie Burley, John P. Keeves (auth.)",2013,,SensePublishers,,288,0,English,,,,978-94-6209-257-0,,,,,,,10.1007/978-94-6209-257-0,,,,0,,1,0,1,,,1,1820837,pdf,8127e6bbe5d2d0b812f5239ebe472559,,,10.1007%2F978-94-6209-257-0.pdf,0,2000-01-01 01:00:00,2016-04-03 02:51:08,http://link.springer.com/static-content/covers/books/508/9789462092570.jpg,,
14913863,Multilingualism and Multimodality: Current Challenges for Educational Studies,,The Future of Education Research,,"Ingrid de Saint-Georges (auth.), Ingrid de Saint-Georges, Jean-Jacques Weber (eds.)",2013,,SensePublishers,,207,0,English,,,,978-94-6209-266-2,,,,,,,10.1007/978-94-6209-266-2,,,,0,,1,0,1,,,1,1168377,pdf,67bdfb9324496d5da39c08bfd57be469,,,10.1007%2F978-94-6209-266-2.pdf,0,2000-01-01 01:00:00,2016-04-03 02:51:08,http://link.springer.com/static-content/covers/books/576/9789462092662.jpg,,
14913861,The Creative University,,Creative Education,,"Michael A. Peters, Tina Besley (auth.), Michael A. Peters, Tina Besley (eds.)",2013,,SensePublishers,,190,0,English,,,,978-94-6209-245-7,,,,,,,10.1007/978-94-6209-245-7,,,,0,,1,0,1,,,1,1267628,pdf,b7f6a6729bbc87f083777a0b8c248668,,,10.1007%2F978-94-6209-245-7.pdf,0,2000-01-01 01:00:00,2016-04-03 02:51:08,http://link.springer.com/static-content/covers/books/524/9789462092457.jpg,,
14913860,Private Tutoring Across the Mediterranean: Power Dynamics and Implications for Learning and Equity,,Comparative and International Education,,"Mark Bray, André E. Mazawi, Ronald G. Sultana (auth.), Mark Bray, André E. Mazawi, Ronald G. Sultana (eds.)",2013,,SensePublishers,,221,0,English,,,,978-94-6209-237-2,,,,,,,10.1007/978-94-6209-237-2,,,,0,,1,0,1,,,1,1446793,pdf,77b8ceb92f6a83149b25c050befeaf28,,,10.1007%2F978-94-6209-237-2.pdf,0,2000-01-01 01:00:00,2016-04-03 02:51:08,http://link.springer.com/static-content/covers/books/428/9789462092372.jpg,,
14913859,Political Sociology of Adult Education,,International Issues in adult Education,,Carlos Alberto Torres (auth.),2013,,SensePublishers,,110,0,English,,,,978-94-6209-227-3,,,,,,,10.1007/978-94-6209-227-3,,,,0,,1,0,1,,,1,452925,pdf,9d74791aea17694f46fb1cb89b037e6c,,,10.1007%2F978-94-6209-227-3.pdf,0,2000-01-01 01:00:00,2016-04-03 02:51:08,http://link.springer.com/static-content/covers/books/388/9789462092273.jpg,,
14913858,"Hendrick Goltzius als Maler, 1600–1617",,Quellenstudien zur Holländischen Kunstgeschichte 9,,Dr. O. Hirschmann (auth.),1916,,Springer Netherlands,,121,0,German,,,,"978-94-017-0040-5,978-94-015-7584-3",,,,,,,10.1007/978-94-015-7584-3,,,,0,,1,0,1,,,1,5420210,pdf,98e568d29a17a66beb414a2938934e45,,,10.1007%2F978-94-015-7584-3.pdf,0,2000-01-01 01:00:00,2016-04-03 02:51:08,http://link.springer.com/static-content/covers/books/976/9789401575843.jpg,,
14913857,Die Urkunden über Rembrandt: 1575–1721,,Quellenstudien zur Holländischen Kunstgeschichte,,"Dr. C. Hofstede De Groot (auth.), Dr. C. Hofstede De Groot (eds.)",1906,,Springer Netherlands,,563,0,German,,,,"978-94-015-2047-8,978-94-015-3226-6",,,,,,,10.1007/978-94-015-3226-6,,,,0,,1,0,1,,,1,19318752,pdf,70a4804e629cb35c2e6744012a6582e7,,,10.1007%2F978-94-015-3226-6.pdf,0,2000-01-01 01:00:00,2016-04-03 02:51:08,http://link.springer.com/static-content/covers/books/134/9789401532266.jpg,,
14913856,Computer Vision Analysis of Image Motion by Variational Methods,,Springer Topics in Signal Processing 10,,"Amar Mitiche, J.K. Aggarwal (auth.)",2014,,Springer International Publishing,,"VII, 207 p. 54 illus. 29 illus. in color.",0,English,,,,"978-3-319-00710-6,978-3-319-00711-3",,,,,,,10.1007/978-3-319-00711-3,,,,0,,1,0,1,,,1,5176700,pdf,42459a701ee7f2eed7207f9f39802d2c,,,10.1007%2F978-3-319-00711-3.pdf,0,2000-01-01 01:00:00,2016-04-03 02:51:08,http://link.springer.com/static-content/covers/books/524/9783319007113.jpg,,
14913855,Bibliographie der Sowjetischen Philosophie: Bücher 1947–1956; Bücher und Aufsätze 1957–1958; Namenverzeichnis 1946–1958,,Sovietica 2,,"Prof. Dr. J. M. Bochenski (auth.), Prof. Dr. J. M. Bochenski (eds.)",1960,,Springer Netherlands,,117,0,German,,,,"978-94-010-3687-0,978-94-010-3686-3",,,,,,,10.1007/978-94-010-3686-3,,,,0,,1,0,1,,,1,10389364,pdf,7ce7bc89b4861f8cc77ff5109424d2be,,,10.1007%2F978-94-010-3686-3.pdf,0,2000-01-01 01:00:00,2016-04-03 02:51:08,http://link.springer.com/static-content/covers/books/962/9789401036863.jpg,,
14913854,Bibliographie der Sowjetischen Philosophie: Die ‘Voprosy Filosofii’ 1947–1956,,Sovietica 1,,"Prof. Dr. J. M. Bochenski (auth.), Prof. Dr. J. M. Bochenski (eds.)",1960,,Springer Netherlands,,85,0,German,,,,"978-94-010-3685-6,978-94-010-3684-9",,,,,,,10.1007/978-94-010-3684-9,,,,0,,1,0,1,,,1,5868049,pdf,f7913df379fc65ade500681c2b235017,,,10.1007%2F978-94-010-3684-9.pdf,0,2000-01-01 01:00:00,2016-04-03 02:51:08,http://link.springer.com/static-content/covers/books/18/9789401036849.jpg,,
14913852,Hadoop Operations,,,,Eric Sammer,2012,1,O'Reilly Media,,297,0,English,69,,0,978-1-4493-2704-0,,,,,,,,,,,0,,,,,,,1,5796462,pdf,c7deb0096ea18b93bdcb9f52bd0d69d7,,,Sammer E. - Hadoop Operations - 2012,0,2000-01-01 01:00:00,2016-04-03 02:51:08,1016000/c7deb0096ea18b93bdcb9f52bd0d69d7-g.jpg,,
14913853,Bibliographie der Sowjetischen Philosophie: Bibliography of Soviet Philosophy V,,Sovietica 17,,"Prof. Dr. J. M. Bocheński (auth.), Prof. Dr. J. M. Bocheński (eds.)",1964,,Springer Netherlands,,150,0,English,,,,"978-94-010-3610-8,978-94-010-3609-2",,,,,,,10.1007/978-94-010-3609-2,,,,0,,1,0,1,,,1,6743109,pdf,9a7311d2727dfd4e6197e41b104433a0,,,10.1007%2F978-94-010-3609-2.pdf,0,2000-01-01 01:00:00,2016-04-03 02:51:08,http://link.springer.com/static-content/covers/books/558/9789401036092.jpg,,
14913851,Briefe und Tagebücher,,Der Mensch und Sein Werk 1,,"Franz Rosenzweig (auth.), Rachel Rosenzweig, Edith Rosenzweig - Scheinmann (eds.)",1979,,Springer Netherlands,,1372,0,German,,,,"978-94-009-9264-1,978-94-009-9263-4",,,,,,,10.1007/978-94-009-9263-4,,,,0,,1,0,1,,,1,54275135,pdf,1ea987f97d91cea523531b0757a3deb2,,,10.1007%2F978-94-009-9263-4.pdf,0,2000-01-01 01:00:00,2016-04-03 02:51:08,http://link.springer.com/static-content/covers/books/336/9789400992634.jpg,,
14913850,The Hamlyn Pictorial History of the 20th Century,,,,Neil Wenborn,1995,,Hamlyn,,592,0,,,,0,"0600587762,9780600587767",,,,,,,,,,,600,,1,,,1,1,1,72699231,djvu,bb01622c0a1d0001973acc377107b1ff,,,Hamlyn Pictoral History of the 20th Century [BSF 4] [v3],0,2000-01-01 01:00:00,2016-04-03 02:51:08,1016000/bb01622c0a1d0001973acc377107b1ff-d.jpg,,
14913849,"Seminar on Stochastic Analysis, Random Fields and Applications VII: Centro Stefano Franscini, Ascona, May 2011",,Progress in Probability 67,,"Raluca M. Balan (auth.), Robert C. Dalang, Marco Dozzi, Francesco Russo (eds.)",2013,,Springer Basel,,470,0,German,,,,"978-3-0348-0544-5,978-3-0348-0545-2",,,,,,,10.1007/978-3-0348-0545-2,,,,0,,1,0,1,,,1,4700736,pdf,f840ee6d1c44bca2de02621ed0515e2e,,,10.1007%2F978-3-0348-0545-2.pdf,0,2000-01-01 01:00:00,2016-04-03 02:51:08,http://link.springer.com/static-content/covers/books/398/9783034805452.jpg,,
14913848,Aesthetics and Business Ethics,,Issues in Business Ethics 41,,"John Dobson Ph.D. (auth.), Daryl Koehn, Dawn Elm (eds.)",2014,,Springer Netherlands,,"IX, 159 p. 9 illus. 8 illus. in color.",0,English,,,,"978-94-007-7069-0,978-94-007-7070-6",,,,,,,10.1007/978-94-007-7070-6,,,,0,,1,0,1,,,1,1434140,pdf,93a4829a08a009bc9081f7917a6a75c7,,,10.1007%2F978-94-007-7070-6.pdf,0,2000-01-01 01:00:00,2016-04-03 02:51:08,http://link.springer.com/static-content/covers/books/392/9789400770706.jpg,,
14913847,Virtual Reality Technology and Applications,,"Intelligent Systems, Control and Automation: Science and Engineering 68",,"Matjaž Mihelj, Domen Novak, Samo Beguš (auth.)",2014,,Springer Netherlands,,"X, 231 p. 169 illus. 35 illus. in color.",0,English,,,,"978-94-007-6909-0,978-94-007-6910-6",,,,,,,10.1007/978-94-007-6910-6,,,,0,,1,0,1,,,1,7243357,pdf,27e81e48ace382459bfbf1486caedebf,,,10.1007%2F978-94-007-6910-6.pdf,0,2000-01-01 01:00:00,2016-04-03 02:51:08,http://link.springer.com/static-content/covers/books/560/9789400769106.jpg,,
14913846,Group Theory Applied to Chemistry,,Theoretical Chemistry and Computational Modelling,,Arnout Jozef Ceulemans (auth.),2013,,Springer Netherlands,,"XIII, 269 p. 63 illus. 11 illus. in color.",0,English,,,,"978-94-007-6862-8,978-94-007-6863-5",,,,,,,10.1007/978-94-007-6863-5,,,,0,,1,0,1,,,1,3215275,pdf,3a317e0d297bba0cfb021c26bbc79215,,,10.1007%2F978-94-007-6863-5.pdf,0,2000-01-01 01:00:00,2016-04-03 02:51:08,http://link.springer.com/static-content/covers/books/454/9789400768635.jpg,,
14913845,The International Imperative in Higher Education,,Global Perspectives on Higher Education,,Philip G. Altbach (auth.),2013,,SensePublishers,,196,0,English,,,,978-84-6209-338-6,,,,,,,10.1007/978-84-6209-338-6,,,,0,,1,0,1,,,1,1232054,pdf,ecfd118526d847a18cd6ae69b90002a2,,,10.1007%2F978-84-6209-338-6.pdf,0,2000-01-01 01:00:00,2016-04-03 02:51:08,http://link.springer.com/static-content/covers/books/273/9788462093386.jpg,,
14913844,Non-Linear Feedback Neural Networks: VLSI Implementations and Applications,,Studies in Computational Intelligence 508,,Mohd. Samar Ansari (auth.),2014,,Springer India,,"XXII, 201 p. 79 illus.",0,English,,,,"978-81-322-1562-2,978-81-322-1563-9",,,,,,,10.1007/978-81-322-1563-9,,,,0,,1,0,1,,,1,3619606,pdf,adbc93db52be7a9d4a449588e91a7675,,,10.1007%2F978-81-322-1563-9.pdf,0,2000-01-01 01:00:00,2016-04-03 02:51:08,http://link.springer.com/static-content/covers/books/482/9788132215639.jpg,,
14913843,Metal–Molecular Assembly for Functional Materials,,SpringerBriefs in Molecular Science,,"Yutaka Matsuo (auth.), Yutaka Matsuo, Masayoshi Higuchi, Yuichi Negishi, Michito Yoshizawa, Takashi Uemura, Hikaru Takaya, Takafumi Ueno, Masayuki Takeuchi, Soichiro Yoshimoto (eds.)",2013,,Springer Japan,,94,0,English,,,,"978-4-431-54369-5,978-4-431-54370-1",,,,,,,10.1007/978-4-431-54370-1,,,,0,,1,0,1,,,1,6169384,pdf,60f52908c26ffc003050ba00b174d400,,,10.1007%2F978-4-431-54370-1.pdf,0,2000-01-01 01:00:00,2016-04-03 02:51:08,http://link.springer.com/static-content/covers/books/230/9784431543701.jpg,,
14913841,The Myc Gene: Methods and Protocols,,Methods in Molecular Biology 1012,,"Nicole M. Sodir, Laura Soucek (auth.), Laura Soucek, Nicole M. Sodir (eds.)",2013,,Humana Press,,289,0,English,,,,"978-1-62703-428-9,978-1-62703-429-6",,,,,,,10.1007/978-1-62703-429-6,,,,0,,1,0,1,,,1,4146230,pdf,99347152161bdf4f7a745b0123b66f8b,,,10.1007%2F978-1-62703-429-6.pdf,0,2000-01-01 01:00:00,2016-04-03 02:51:08,http://link.springer.com/static-content/covers/books/392/9781627034296.jpg,,
14913842,Fundamental Beta: Ermittlung des systematischen Risikos bei nicht börsennotierten Unternehmen,,,,Alexander Scheld (auth.),2013,,Springer Fachmedien Wiesbaden,,"XXVIII, 293 S. 34 Abb. 3 Abb. in Farbe.",0,German,,,,"978-3-8349-3189-4,978-3-8349-7154-8",,,,,,,10.1007/978-3-8349-7154-8,,,,0,,1,0,1,,,1,2777276,pdf,a4bb76f14e692ccebb5e32822ee54ecc,,,10.1007%2F978-3-8349-7154-8.pdf,0,2000-01-01 01:00:00,2016-04-03 02:51:08,http://link.springer.com/static-content/covers/books/300/9783834971548.jpg,,
14913840,"Unternehmerisches Preisänderungsverhalten: Dimensionen, Determinanten und Konsequenzen",,,,Thomas R. W. Schmidt (auth.),2013,,Springer Fachmedien Wiesbaden,,241,0,German,,,,"978-3-8349-4012-4,978-3-8349-4013-1",,,,,,,10.1007/978-3-8349-4013-1,,,,0,,1,0,1,,,1,1546855,pdf,46e7215d513e020cdfc9cdc85a46e9d9,,,10.1007%2F978-3-8349-4013-1.pdf,0,2000-01-01 01:00:00,2016-04-03 02:51:08,http://link.springer.com/static-content/covers/books/536/9783834940131.jpg,,
14913839,Beiträge zur Entwicklungsgeschichte der Kraniozerebralen Topographie des Menschen: Vorgelegt in der Sitzung am 17. Dezember 1942,,,,Ferdinand Hochstetter (auth.),1943,,Springer Vienna,,100,0,German,,,,"978-3-7091-9574-1,978-3-7091-9821-6",,,,,,,10.1007/978-3-7091-9821-6,,,,0,,1,0,1,,,1,7366886,pdf,d8f18dd5a67a1c69092fdc7f500c1234,,,10.1007%2F978-3-7091-9821-6.pdf,0,2000-01-01 01:00:00,2016-04-03 02:51:08,http://link.springer.com/static-content/covers/books/276/9783709198216.jpg,,
14913838,Topographische Diagnostik des Gehirns,,Verhandlungen der Deutschen Gesellschaft für Neurologie 9,,"H.-J. Freund (auth.), Univ.-Doz. Dr. Wilfried Lang, Univ.-Prof. Dr. Lüder Deecke, Univ.-Prof. Dr. Hanns Christian Hopf (eds.)",1995,,Springer Vienna,,841 S.,0,German,,,,"978-3-211-82707-9,978-3-7091-9415-7",,,,,,,10.1007/978-3-7091-9415-7,,,,0,,1,0,1,,,1,31491385,pdf,6a119ec93624190013368ef16cf023a7,,,10.1007%2F978-3-7091-9415-7.pdf,0,2000-01-01 01:00:00,2016-04-03 02:51:08,http://link.springer.com/static-content/covers/books/276/9783709194157.jpg,,
14913837,"The life of hsuan-tsang, the Tripitaka-master of the Great Tzu En Monastery.",,,,Huili; San Shih Buddhist Institute (Tr),1959,,Chinese Buddhist Association,Peking,288,0,,206,,0,,,,,,,,,,,,0,,1,,1,1,1,1,7659085,pdf,a4f6dce5013a01c3a54f9750fc0ada0a,,,Huili; Chinese Buddhist Association (Tr) - Life of Hsuan-Tsang (288p),0,2000-01-01 01:00:00,2016-04-03 02:51:08,1016000/a4f6dce5013a01c3a54f9750fc0ada0a-g.jpg,,
14913836,Psychotherapie und Tiefenpsychologie: Ein Kurzlehrbuch,,,,Prof. Dr. Hans Strotzka (auth.),1994,,Springer Vienna,,310,0,German,,,,"978-3-211-82572-3,978-3-7091-9359-4",,,,,,,10.1007/978-3-7091-9359-4,,,,0,,1,0,1,,,1,7874224,pdf,4b78ee62fb76d2002cf012bb8e091a07,,,10.1007%2F978-3-7091-9359-4.pdf,0,2000-01-01 01:00:00,2016-04-03 02:51:08,http://link.springer.com/static-content/covers/books/102/9783709193594.jpg,,
14913835,Organizational Psychology for Managers,,Management for Professionals,,Stephen R. Balzac (auth.),2014,,Springer New York,,"XVII, 266 p. 4 illus.",0,English,,,,"978-1-4614-8504-9,978-1-4614-8505-6",,,,,,,10.1007/978-1-4614-8505-6,,,,0,,1,0,1,,,1,1534784,pdf,f974259610bd25589d7d23acef446614,,,10.1007%2F978-1-4614-8505-6.pdf,0,2000-01-01 01:00:00,2016-04-03 02:51:08,http://link.springer.com/static-content/covers/books/962/9781461485056.jpg,,
14913834,Pflanzenernährung,,Handbuch der Pflanzenernährung und Düngung 1 / 1,,"K. Scharrer (auth.), D. I. Arnon, W. Baumeister, W. U. Behrens, E. v. Boguslawski, M. J. Bukovac, H. Burghardt, M. Erichsen, W. Flaig, W. H. Fuchs, F. Grossmann, F. Heilinger, G. P. Hill, J. Jung, H. Kick, J. G. Kisser, P. J. Kramer, H. Kühn, P. Limberg, H. Linser, H. H. Mayr, K. Mengel, K.-H. Neumann, K. Scharrer, G. Schmid, W. Schuster, H. B. Tukey, H. B. Tukey Jr., H. Walter, S. H. Wittwer (eds.)",1969,,Springer Vienna,,612,0,German,,,,"978-3-7091-8221-5,978-3-7091-8220-8",,,,,,,10.1007/978-3-7091-8220-8,,,,0,,1,0,1,,,1,28137470,pdf,39fb416f12f3c0c5549f96032a02dae6,,,10.1007%2F978-3-7091-8220-8.pdf,0,2000-01-01 01:00:00,2016-04-03 02:51:08,http://link.springer.com/static-content/covers/books/572/9783709182208.jpg,,
14913833,Handbuch der Virusforschung: 4. Band (III. Ergänzungsband),,,,"F. M. Burnet (auth.), Prof. Dr. C. Hallauer, Prof. Dr. K. F. Meyer (eds.)",1958,,Springer Vienna,,704,0,German,,,,"978-3-7091-7886-7,978-3-7091-7885-0",,,,,,,10.1007/978-3-7091-7885-0,,,,0,,1,0,1,,,1,28882212,pdf,45f2e4fa54b0499e10e4b7017527da01,,,10.1007%2F978-3-7091-7885-0.pdf,0,2000-01-01 01:00:00,2016-04-03 02:51:08,http://link.springer.com/static-content/covers/books/434/9783709178850.jpg,,
14913832,Die Grossglockner-Hochalpenstrasse: Die Geschichte ihres Baues,,,,Dipl.-Ing. F. Wallack (auth.),1949,,Springer Vienna,,230,0,German,,,,"978-3-211-80123-9,978-3-7091-7734-1",,,,,,,10.1007/978-3-7091-7734-1,,,,0,,1,0,1,,,1,13289353,pdf,e030c4d6a2be372172c6922f537e2431,,,10.1007%2F978-3-7091-7734-1.pdf,0,2000-01-01 01:00:00,2016-04-03 02:51:08,http://link.springer.com/static-content/covers/books/60/9783709177341.jpg,,
14913831,The Affordable Care Act as a National Experiment: Health Policy Innovations and Lessons,,,,"James Roosevelt Jr. J.D., Terence Burke, Paul Jean (auth.), Harry P. Selker, June S. Wasser (eds.)",2014,,Springer New York,,"XVI, 155 p. 37 illus. 29 illus. in color.",0,English,,,,"978-1-4614-8350-2,978-1-4614-8351-9",,,,,,,10.1007/978-1-4614-8351-9,,,,0,,1,0,1,,,1,2786894,pdf,890a27db55180728d0d19929c43905a3,,,10.1007%2F978-1-4614-8351-9.pdf,0,2000-01-01 01:00:00,2016-04-03 02:51:08,http://link.springer.com/static-content/covers/books/860/9781461483519.jpg,,
14913829,Muslamanon ke Qawaneen Barae Talaaq [Muslim laws on Divorce in Urdu],,,,AGHS Legal aid Centre Pakistan,0,,AGHS Legal aid Centre Pakistan,Lahore,10,0,Urdu,,,0,,,,,,,,,,,,0,,,0,,1,,1,1041296,pdf,9b61e7762195fada02983d5e07e83c36,,,Muslamanon.ke.Qawaneen.Barae.Talaaq.[Muslim.laws.on.Divorce.in.Urdu],0,2000-01-01 01:00:00,2016-04-03 02:51:08,1016000/9b61e7762195fada02983d5e07e83c36-g.jpg,,
14913830,"Fragen der Ethik in der Psychotherapie: Konfliktfelder, Machtmißbrauch, Berufspflichten",,,,"Alfred Simon (auth.), Dr. Renate Hutterer-Krisch (eds.)",2001,,Springer Vienna,,748,0,German,,,,"978-3-211-83594-4,978-3-7091-6750-2",,,,,,,10.1007/978-3-7091-6750-2,,,,0,,1,0,1,,,1,18615854,pdf,1052f691e427340b6fdbdabb75a6d236,,,10.1007%2F978-3-7091-6750-2.pdf,0,2000-01-01 01:00:00,2016-04-03 02:51:08,http://link.springer.com/static-content/covers/books/442/9783211835944.jpg,,
14913828,Moderne Algebraische Geometrie: Die Idealtheoretischen Grundlagen,,,,Dr. Wolfgang Gröbner (auth.),1949,,Springer Vienna,,224,0,English,,,,"978-3-211-80090-4,978-3-7091-5740-4",,,,,,,10.1007/978-3-7091-5740-4,,,,0,,1,0,1,,,1,10351741,pdf,61129d863f9ebb4120314a66675b64a4,,,10.1007%2F978-3-7091-5740-4.pdf,0,2000-01-01 01:00:00,2016-04-03 02:51:08,http://link.springer.com/static-content/covers/books/262/9783709157404.jpg,,
14913827,Wiener Neustadt 1970–1990: Strukturanalyse und Stadtentwicklungsplanung Studienarbeit 1969/70 durchgeführt von Studenten der Studienrichtung Architektur an der Technischen Hochschule Wien,,"Schriftenreihe des Institutes für Städtebau, Raumplanung und Raumordnung 14",,"Dipl.-Ing. Klaus R. Kunzmann (auth.), Dipl.-Ing. Klaus R. Kunzmann (eds.)",1970,,Springer Vienna,,114,0,German,,,,"978-3-211-81009-5,978-3-7091-5596-7",,,,,,,10.1007/978-3-7091-5596-7,,,,0,,1,0,1,,,1,4775796,pdf,88785070dc69ffa686f335ca146e915e,,,10.1007%2F978-3-7091-5596-7.pdf,0,2000-01-01 01:00:00,2016-04-03 02:51:08,http://link.springer.com/static-content/covers/books/850/9783709155967.jpg,,
14913826,Werkstoff-Prüfung im Bergbau,,"Wissenschaftliche Abhandlungen der Deutschen Materialprüfungsanstalten 1,3",,Dipl.-Ing. E. Klemke (auth.),1939,,Springer Vienna,,101,0,German,,,,"978-3-7091-5291-1,978-3-7091-5439-7",,,,,,,10.1007/978-3-7091-5439-7,,,,0,,1,0,1,,,1,12899626,pdf,c2b9db893bee4f1fc91c05174208df9e,,,10.1007%2F978-3-7091-5439-7.pdf,0,2000-01-01 01:00:00,2016-04-03 02:51:08,http://link.springer.com/static-content/covers/books/314/9783709154397.jpg,,
14913825,Zielsichere Betonbildung: Auf der Grundlage der Versuchsberichte des Unterausschusses für Zielsichere Beton-Bildung (UABb) im Österr. Eisenbetonausschusse,,,,"Ottokar Stern (auth.), Ottokar Stern (eds.)",1933,,Springer Vienna,,107,0,German,,,,"978-3-7091-5157-0,978-3-7091-5305-5",,,,,,,10.1007/978-3-7091-5305-5,,,,0,,1,0,1,,,1,3685070,pdf,b2eb62aea3e7c1bfdbb19bf9c13022ea,,,10.1007%2F978-3-7091-5305-5.pdf,0,2000-01-01 01:00:00,2016-04-03 02:51:08,http://link.springer.com/static-content/covers/books/114/9783709153055.jpg,,
14913824,Der Aufbau schnellaufender Verbrennungskraftmaschinen für Kraftfahrzeuge und Triebwagen,,Die Verbrennungskraftmaschine 11,,Obering. H. Kremser (auth.),1942,,Springer Vienna,,235,0,German,,,,"978-3-7091-9755-4,978-3-7091-5016-0",,,,,,,10.1007/978-3-7091-5016-0,,,,0,,1,0,1,,,1,17223431,pdf,e6707cfcd7c802a4570b7fdf5b72eb58,,,10.1007%2F978-3-7091-5016-0.pdf,0,2000-01-01 01:00:00,2016-04-03 02:51:08,http://link.springer.com/static-content/covers/books/500/9783709150160.jpg,,
14913823,Technische Mechanik: Aufgaben und Lösungen,,,,"Univ.-Doz. Dipl.-Ing. Dr. techn. Peter Lugner, O. Univ.-Prof. Mag. rer. nat. Dr. phil. Kurt Desoyer, Dipl.-Ing. Dr. techn. Anton Novak (auth.)",1988,VII,Springer Vienna,,224 S.Zeige nächste Auflage,0,German,,,,"978-3-211-82082-7,978-3-7091-4123-6",,,,,,,10.1007/978-3-7091-4123-6,,,,0,,1,0,1,,,1,6571523,pdf,f171053ad0b5f40a403fd55c5ed82652,,,10.1007%2F978-3-7091-4123-6.pdf,0,2000-01-01 01:00:00,2016-04-03 02:51:08,http://link.springer.com/static-content/covers/books/356/9783709141236.jpg,,
14913822,74.–75. Jahresbericht des Sonnblick-Vereines für die Jahre 1976–1977,,Jahresberichte des Sonnblick-Vereines 1976/77,,Prof. Dr. F. Steinhauser (auth.),1977,,Springer Vienna,,98 S.,0,German,,,,"978-3-211-81458-1,978-3-7091-3980-6",,,,,,,10.1007/978-3-7091-3980-6,,,,0,,1,0,1,,,1,7216309,pdf,2f28e9b6bcf1b3b257ed465d66a886a4,,,10.1007%2F978-3-7091-3980-6.pdf,0,2000-01-01 01:00:00,2016-04-03 02:51:08,http://link.springer.com/static-content/covers/books/876/9783709139806.jpg,,
14913821,A Dictionary Of Sindhi Literature,,,,Motilal Jotwani,1996,1st,Sampark Prakashan,New Delhi,200,0,English,102,,0,81-85190-11-3,,,,,,,,,,,0,,,0,1,1,1,1,9505393,pdf,55486bdb10951f020d2786ed9d6507d4,,,Dictionary.of.Sindhi.Literature ~~ Motilal.Jotwani.(1996).cs,0,2000-01-01 01:00:00,2016-04-03 02:51:08,1016000/55486bdb10951f020d2786ed9d6507d4-g.jpg,,
14913820,"Extreme Explosions: Supernovae, Hypernovae, Magnetars, and Other Unusual Cosmic Blasts",,Astronomers' Universe,,David S. Stevenson (auth.),2014,,Springer New York,,"XIII, 369 p. 75 illus. 61 illus. in color.",0,English,,,,"978-1-4614-8135-5,978-1-4614-8136-2",,,,,,,10.1007/978-1-4614-8136-2,,,,0,,1,0,1,,,1,3649115,pdf,940940574c96e84f07d3991a52a1b7d9,,,10.1007%2F978-1-4614-8136-2.pdf,0,2000-01-01 01:00:00,2016-04-03 02:51:08,http://link.springer.com/static-content/covers/books/216/9781461481362.jpg,,
14913819,70.–71. Jahresbericht des Sonnblick-Vereines für die Jahre 1972–1973,,Jahresberichte des Sonnblick-Vereines 1972/73,,Prof. Dr. F. Steinhauser (auth.),1974,,Springer Vienna,,111 S.,0,German,,,,"978-3-211-81286-0,978-3-7091-3979-0",,,,,,,10.1007/978-3-7091-3979-0,,,,0,,1,0,1,,,1,9475206,pdf,7a285505dae9f04d20f115ffd1288c56,,,10.1007%2F978-3-7091-3979-0.pdf,0,2000-01-01 01:00:00,2016-04-03 02:51:08,http://link.springer.com/static-content/covers/books/564/9783709139790.jpg,,
14913817,"NCA: The Hidden Jewel Of Its Potential, And The Dark Cloak Of Its System",,,,Ahmad Salim [aka Ahmed Saleem],1989,,Book Traders,Lahore,91,0,English,191,,0,,,,,,,,,,,"NCA = National College of Arts, Lahore",0,,,0,1,1,1,1,8638724,pdf,d3231e5142a31a770f23039bbe367649,,,"NCA~The.Hidden.Jewel.Of.Its.Potential,And.The.Dark.Cloak.Of.Its.System ~~ Ahmed.Saleem.(1989).cs",0,2000-01-01 01:00:00,2016-04-03 02:51:08,1016000/d3231e5142a31a770f23039bbe367649-g.jpg,,
14913818,Englisch-deutsches und deutsch-englisches Wörterbuch für die Eisen- und Stahl-Industrie / English-German and German-English Dictionary for the Iron and Steel Industry,,,,"Eduard L. Köhler, Priv.-Doz. Dr. mont. Alois Legat (auth.)",1955,,Springer Vienna,,342,0,German,,,,"978-3-7091-3882-3,978-3-7091-3881-6",,,,,,,10.1007/978-3-7091-3881-6,,,,0,,1,0,1,,,1,19408396,pdf,1547c5812661d814c926948097fd7771,,,10.1007%2F978-3-7091-3881-6.pdf,0,2000-01-01 01:00:00,2016-04-03 02:51:08,http://link.springer.com/static-content/covers/books/636/9783709138816.jpg,,
14913816,Die Schweissung von Torstählen,,,,"Dipl. Ing. Dr. techn. Stefan Soretz, Dipl. Ing. Rudolf Tinti (auth.)",1952,,Springer Vienna,,52,0,German,,,,"978-3-7091-3865-6,978-3-7091-3864-9",,,,,,,10.1007/978-3-7091-3864-9,,,,0,,1,0,1,,,1,2638989,pdf,97717bf567444c3779ee3d2d63e8f430,,,10.1007%2F978-3-7091-3864-9.pdf,0,2000-01-01 01:00:00,2016-04-03 02:51:08,http://link.springer.com/static-content/covers/books/462/9783709138649.jpg,,
14913815,Angiogenesis in Adipose Tissue,,,,"Yihai Cao M.D., Ph.D. (auth.), Yihai Cao (eds.)",2013,,Springer New York,,"VIII, 378 p. 73 illus. 53 illus. in color.",0,English,,,,"978-1-4614-8068-6,978-1-4614-8069-3",,,,,,,10.1007/978-1-4614-8069-3,,,,0,,1,0,1,,,1,9725333,pdf,20f16e4d45eb297e7db848f76d7768a4,,,10.1007%2F978-1-4614-8069-3.pdf,0,2000-01-01 01:00:00,2016-04-03 02:51:08,http://link.springer.com/static-content/covers/books/30/9781461480693.jpg,,
14913814,"Achtes Kolloquium über Metallkundliche Analyse mit Besonderer Berücksichtigung der Elektronenstrahl- und Ionenstrahl-Mikroanalyse Wien, 27. bis 29. Oktober 1976",,Mikrochimica Acta 7,,"Prof. Dr. Günther Tölg (auth.), M. K. Zacherl (eds.)",1977,,Springer Vienna,,596 S.,0,German,,,,"978-3-211-81433-8,978-3-7091-3724-6",,,,,,,10.1007/978-3-7091-3724-6,,,,0,,1,0,1,,,1,19047172,pdf,2c7a7882516552569d2310f083258f8a,,,10.1007%2F978-3-7091-3724-6.pdf,0,2000-01-01 01:00:00,2016-04-03 02:51:08,http://link.springer.com/static-content/covers/books/100/9783709137246.jpg,,
14913812,Physikalisch-chemisches Rechnen mit einer Einführung in die höhere Mathematik,,,,"Dr. techn. Ing. Walter Wittenberger, Dr. rer. nat. Werner Fritz (auth.)",1980,,Springer Vienna,,481,0,German,,,,"978-3-7091-3401-6,978-3-7091-3400-9",,,,,,,10.1007/978-3-7091-3400-9,,,,0,,1,0,1,,,1,15792726,pdf,4e759386a9b45302f2334da5f24e0919,,,10.1007%2F978-3-7091-3400-9.pdf,0,2000-01-01 01:00:00,2016-04-03 02:51:08,http://link.springer.com/static-content/covers/books/516/9783709134009.jpg,,
14913813,Atome und Strahlen,,,,Gustav Ortner (auth.),1947,,Springer Vienna,,91,0,German,,,,"978-3-7091-3559-4,978-3-7091-3558-7",,,,,,,10.1007/978-3-7091-3558-7,,,,0,,1,0,1,,,1,4060661,pdf,75dbd628417914c87f0cbce9dc54969e,,,10.1007%2F978-3-7091-3558-7.pdf,0,2000-01-01 01:00:00,2016-04-03 02:51:08,http://link.springer.com/static-content/covers/books/674/9783709135587.jpg,,
14913811,"Medizinische Physik: Physik für Mediziner, Pharmazeuten und Biologen",,,,O. Prof. Dr. techn. Adolf Friedrich Fercher (auth.),1992,,Springer Vienna,,919 S.Zeige nächste Auflage,0,German,,,,"978-3-211-82371-2,978-3-7091-3309-5",,,,,,,10.1007/978-3-7091-3309-5,,,,0,,1,0,1,,,1,22941305,pdf,1fe73000403a5381454f852ae40d172e,,,10.1007%2F978-3-7091-3309-5.pdf,0,2000-01-01 01:00:00,2016-04-03 02:51:08,http://link.springer.com/static-content/covers/books/32/9783709133095.jpg,,
14913810,Die Österreichische Kohle: Gesamtbericht des Ökw-Arbeitsausschusses „Inlandskohle“,,,,(auth.),1934,,Springer Vienna,,166,0,German,,,,"978-3-7091-3148-0,978-3-7091-3151-0",,,,,,,10.1007/978-3-7091-3151-0,,,,0,,1,0,1,,,1,7323837,pdf,c5911f39cfb50099a27a841a421edb68,,,10.1007%2F978-3-7091-3151-0.pdf,0,2000-01-01 01:00:00,2016-04-03 02:51:08,http://link.springer.com/static-content/covers/books/62/9783709131510.jpg,,
14913809,Allgemeine Baubetriebslehre,,,,Maximilian Soeser (auth.),1930,,Springer Vienna,,285,0,German,,,,"978-3-7091-3122-0,978-3-7091-3129-9",,,,,,,10.1007/978-3-7091-3129-9,,,,0,,1,0,1,,,1,16768943,pdf,b3a170f1796e28ae307565011fea8634,,,10.1007%2F978-3-7091-3129-9.pdf,0,2000-01-01 01:00:00,2016-04-03 02:51:08,http://link.springer.com/static-content/covers/books/688/9783709131299.jpg,,
14913808,Elektrische Maschinen: Eine Einführung in die Grundlagen,,,,"Professor, Dr.-Ing. Theodor Bödefeld, Professor, Dr. Techn., Dr.-Ing., Dr. Phil. Heinrich Sequenz (auth.)",1949,,Springer Vienna,,499,0,German,,,,"978-3-7091-2083-5,978-3-7091-2082-8",,,,,,,10.1007/978-3-7091-2082-8,,,,0,,1,0,1,,,1,39308721,pdf,80108c426d9b32a6eee044ad8bc21466,,,10.1007%2F978-3-7091-2082-8.pdf,0,2000-01-01 01:00:00,2016-04-03 02:51:08,http://link.springer.com/static-content/covers/books/452/9783709120828.jpg,,
14913807,"Kubjikā, Kālī, Tripurā, and Trika",,"Nepal Research Centre Publications, 22.",,Mark S G Dyczkowski,2000,,Franz Steiner Verlag,Stuttgart,73,0,English,,,0,3515077723 9783515077729,,,,,,,,,,,0,,1,,,1,,1,2922144,pdf,5e7975f2529929d29406e64830712e9d,,,"Dyczkowski, Mark - Kubjika Kali Tripura and Trika (73p)",0,2000-01-01 01:00:00,2016-04-03 02:51:08,1016000/5e7975f2529929d29406e64830712e9d-g.jpg,,
14913805,Wahrscheinlichkeit Statistik und Wahrheit: Einführung in die Neue Wahrscheinlichkeitslehre und Ihre Anwendung,,,,Richard von Mises (auth.),1951,,Springer Vienna,,288,0,German,,,,"978-3-7091-2068-2,978-3-7091-2067-5",,,,,,,10.1007/978-3-7091-2067-5,,,,0,,1,0,1,,,1,13964899,pdf,97728867ee7c0c2dc8db2b2dd606d9c0,,,10.1007%2F978-3-7091-2067-5.pdf,0,2000-01-01 01:00:00,2016-04-03 02:51:08,http://link.springer.com/static-content/covers/books/222/9783709120675.jpg,,
14913806,Einführung in die Festigkeitslehre für Studierende des Bauwesens,,,,"Dr. phil. Dr. techn. Fritz Chmelka, Dipl.-Ing. Dr. techn. Ernst Melan (auth.)",1947,,Springer Vienna,,313,0,German,,,,"978-3-7091-2077-4,978-3-7091-2076-7",,,,,,,10.1007/978-3-7091-2076-7,,,,0,,1,0,1,,,1,13918368,pdf,05a92afee75dfade2fcd7015613ca2db,,,10.1007%2F978-3-7091-2076-7.pdf,0,2000-01-01 01:00:00,2016-04-03 02:51:08,http://link.springer.com/static-content/covers/books/290/9783709120767.jpg,,
14913804,Gauss: Ein Umriss Seines Lebens und Wirkens,,,,F. A. T. Winnecke (auth.),1877,,Vieweg+Teubner Verlag,,36,0,German,,,,"978-3-663-16345-9,978-3-663-16370-1",,,,,,,10.1007/978-3-663-16370-1,,,,0,,1,0,1,,,1,1294444,pdf,1b45e12d4c3ac66ee2e2a2048f0f4cf1,,,10.1007%2F978-3-663-16370-1.pdf,0,2000-01-01 01:00:00,2016-04-03 02:51:08,http://link.springer.com/static-content/covers/books/886/9783663163701.jpg,,
14913803,"National Intellectual Capital and the Financial Crisis in Austria, Belgium, the Netherlands, and Switzerland",,SpringerBriefs in Economics 14,,"Carol Yeh-Yun Lin, Leif Edvinsson, Jeffrey Chen, Tord Beding (auth.)",2014,,Springer New York,,"XXXI, 109 p. 39 illus. 35 illus. in color.",0,English,,,,"978-1-4614-8020-4,978-1-4614-8021-1",,,,,,,10.1007/978-1-4614-8021-1,,,,0,,1,0,1,,,1,2718374,pdf,10bb085e1a614eb30e71eb400ad850ab,,,10.1007%2F978-1-4614-8021-1.pdf,0,2000-01-01 01:00:00,2016-04-03 02:51:08,http://link.springer.com/static-content/covers/books/124/9781461480211.jpg,,
14913802,Programmieren von Taschenrechnern: Lehr- und Übungsbuch für den TI-58 und TI-59,,Programmieren von Taschenrechnern 3,,Hans Heinrich Gloistehn (auth.),1981,,Vieweg+Teubner Verlag,,160,0,German,,,,"978-3-528-24095-0,978-3-663-16364-0",,,,,,,10.1007/978-3-663-16364-0,,,,0,,1,0,1,,,1,4655813,pdf,89403bb45906a452d9d5fa53a858bf7d,,,10.1007%2F978-3-663-16364-0.pdf,0,2000-01-01 01:00:00,2016-04-03 02:51:08,http://link.springer.com/static-content/covers/books/724/9783663163640.jpg,,
14913801,Büroautomation,,Schriften zur Unternehmensführung 42,,Dieter B. Preßmar (auth.),1990,,Gabler Verlag,,153,0,German,,,,"978-3-409-13129-2,978-3-663-16361-9",,,,,,,10.1007/978-3-663-16361-9,,,,0,,1,0,1,,,1,5581846,pdf,6a3d4e31425b483d3e5313e2dbeed502,,,10.1007%2F978-3-663-16361-9.pdf,0,2000-01-01 01:00:00,2016-04-03 02:51:08,http://link.springer.com/static-content/covers/books/808/9783663163619.jpg,,
14913800,Gabler Volkswirtschafts Lexikon,,,,"Prof. Dr. Karlernst Ringer, Dr. Heinz-Jürgen Telkamp (auth.), Diplom-Volkswirt Volker Häfner, Dr. Michael Hammes, Diplom-Volkswirt Klaus Hölzel, Diplom-Volkswirt Franz-Josef Lerdo, Diplom-Betriebswirt Marlene Maser (eds.)",1983,,Gabler Verlag,,718,0,English,,,,"978-3-409-99182-7,978-3-663-16353-4",,,,,,,10.1007/978-3-663-16353-4,,,,0,,1,0,1,,,1,28292052,pdf,e9733ac84b66f788d7d5712513512921,,,10.1007%2F978-3-663-16353-4.pdf,0,2000-01-01 01:00:00,2016-04-03 02:51:08,http://link.springer.com/static-content/covers/books/712/9783663163534.jpg,,
14913799,"Kabinett physikalischer Raritäten: Eine Anthologie zum Mit-, Nach- und Weiterdenken",,Facetten der Physik 1,,"Robert L. Weber, Eric Mendoza (auth.)",1984,,Vieweg+Teubner Verlag,,229,0,German,,,,"978-3-528-28404-6,978-3-663-16334-3",,,,,,,10.1007/978-3-663-16334-3,,,,0,,1,0,1,,,1,8237791,pdf,1e9be2524d0d9548a6766cf3f05e768c,,,10.1007%2F978-3-663-16334-3.pdf,0,2000-01-01 01:00:00,2016-04-03 02:51:08,http://link.springer.com/static-content/covers/books/604/9783663163343.jpg,,
14913798,Berlin — Hauptstadtanspruch und Westintegration,,Schriften des Instituts für Politische Wissenschaft,,"Jürgen Fijalkowski, Peter Hauck, Axel Holst, Gerd-Heinrich Kemper, Alf Mintzel (auth.)",1967,,VS Verlag für Sozialwissenschaften,,364,0,German,,,,"978-3-663-15709-0,978-3-663-16300-8",,,,,,,10.1007/978-3-663-16300-8,,,,0,,1,0,1,,,1,17974338,pdf,e2c426b5ce58c27de667e098d0b38dcc,,,10.1007%2F978-3-663-16300-8.pdf,0,2000-01-01 01:00:00,2016-04-03 02:51:08,http://link.springer.com/static-content/covers/books/606/9783663163008.jpg,,
14913797,Solar Based Hydrogen Production Systems,,SpringerBriefs in Energy,,"Ibrahim Dincer, Anand S. Joshi (auth.)",2013,,Springer New York,,"IX, 141 p. 72 illus. 27 illus. in color.",0,English,,,,"978-1-4614-7430-2,978-1-4614-7431-9",,,,,,,10.1007/978-1-4614-7431-9,,,,0,,1,0,1,,,1,4508939,pdf,d9b7b3749f8706cea3796a383f2d6351,,,10.1007%2F978-1-4614-7431-9.pdf,0,2000-01-01 01:00:00,2016-04-03 02:51:08,http://link.springer.com/static-content/covers/books/512/9781461474319.jpg,,
14913796,Deutschland und die NATO: Strategie und Politik im Spannungsfeld zwischen Ost und West,,,,James L. Richardson (auth.),1967,,VS Verlag für Sozialwissenschaften,,355,0,German,,,,"978-3-663-15704-5,978-3-663-16293-3",,,,,,,10.1007/978-3-663-16293-3,,,,0,,1,0,1,,,1,14617814,pdf,daa3875a89a1a616b9bb176e3d6f5395,,,10.1007%2F978-3-663-16293-3.pdf,0,2000-01-01 01:00:00,2016-04-03 02:51:08,http://link.springer.com/static-content/covers/books/660/9783663162933.jpg,,
14913795,Die Funktionen des Staatsoberhauptes in der parlamentarischen Demokratie,,Demokratie und Frieden,,Werner Kaltefleiter,1970,,VS Verlag für Sozialwissenschaften,,309,0,German,,,0,"978-3-663-15701-4,978-3-663-16289-6",,,,,,,10.1007/978-3-663-16289-6,,,,0,,1,0,1,,,1,10508022,pdf,873933c27ae8643c2dc30ceff93fd20a,,,10.1007%2F978-3-663-16289-6.pdf,0,2000-01-01 01:00:00,2016-04-03 02:51:08,1016000/873933c27ae8643c2dc30ceff93fd20a-d.jpg,,
14913793,Primzahltests für Einsteiger: Zahlentheorie - Algorithmik - Kryptographie,,,,Lasse Rempe,2009,2010,Vieweg+Teubner Verlag,,229,0,Deutsch,113,,0,"383480679X,9783834806796",,,,,,,,,,,0,,,,1,,1,1,3988678,pdf,e07c5dc0a0c175738684d642a31dd1b4,,,383480679X_Primza,0,2000-01-01 01:00:00,2016-04-03 02:51:08,1016000/e07c5dc0a0c175738684d642a31dd1b4-d.jpg,,
14913794,Sozialistische und kommunistische Parteien in Westeuropa. Band II: Nordländer,,Uni-Taschenbücher,,"Hans Rühle, Hans-Joachim Veen, Maria Eysell",1979,,VS Verlag für Sozialwissenschaften,,375,0,German,,,0,"978-3-8100-0241-9,978-3-663-16260-5",,,,,,,10.1007/978-3-663-16260-5,,,,0,,1,0,1,,,1,9195490,pdf,a549d522c31f0a274f3c8c9aa4890bff,,,10.1007%2F978-3-663-16260-5.pdf,0,2000-01-01 01:00:00,2016-04-03 02:51:08,1016000/a549d522c31f0a274f3c8c9aa4890bff-d.jpg,,
14913792,100 Rezepte für Borland Pascal: Programmiertips mit Pfiff für Einsteiger und Fortgeschrittene,,,,Norbert Hoffmann,1993,,Vieweg+Teubner Verlag,,139,0,German,,,0,"978-3-528-05359-8,978-3-663-16254-4",,,,,,,10.1007/978-3-663-16254-4,,,,0,,1,0,1,,,1,6368694,pdf,947487fdb3742da2fe42141991d79776,,,10.1007%2F978-3-663-16254-4.pdf,0,2000-01-01 01:00:00,2016-04-03 02:51:08,1016000/947487fdb3742da2fe42141991d79776-d.jpg,,
14913791,"Aufladung von Verbrennungsmotoren: Entwicklung, Regelung und Stand der Technik",,Fortschritte der Fahrzeugtechnik 6,,"K.-D. Emmenthal, R.-H. Strozyk, Manfred Rautenberg",1990,,Vieweg+Teubner Verlag,,241,0,German,,,0,"978-3-528-06404-4,978-3-663-16227-8",,,,,,,10.1007/978-3-663-16227-8,,,,0,,1,0,1,,,1,9520755,pdf,ff0dc254584343ce0bb4b9f90f1bf794,,,10.1007%2F978-3-663-16227-8.pdf,0,2000-01-01 01:00:00,2016-04-03 02:51:08,1016000/ff0dc254584343ce0bb4b9f90f1bf794-d.jpg,,
14913790,An Inquiry into Modes of Existence. An Anthropology of the Moderns,,,,Bruno Latour,2013,,Harvard University Press,,519,0,English,195,,0,,,,,,,,,,,,0,,,,,,,1,1960387,pdf,03cdc7e18d3017594a5a23cee675f047,,,Bruno Latour An Inquiry into Modes of Existence. An Anthropology of the Moderns,0,2000-01-01 01:00:00,2016-04-03 02:51:08,,,
14913789,Programme und Tools für Erddruck und Erdwiderstand mit gekrümmten und ebenen Gleitflächen: 6 Programme,,,,H. Günther,1993,,Vieweg+Teubner Verlag,,195,0,German,,,0,"978-3-528-08898-9,978-3-663-15844-8",,,,,,,10.1007/978-3-663-15844-8,,,,0,,1,0,1,,,1,3243319,pdf,a8e291f3b5a0e0b90363400015d5ff4c,,,10.1007%2F978-3-663-15844-8.pdf,0,2000-01-01 01:00:00,2016-04-03 02:51:08,1016000/a8e291f3b5a0e0b90363400015d5ff4c-d.jpg,,
14913787,Bankbetriebslehre: Bankgeschäfte und Bankmanagement,,,,Hans E. Büschgen,1991,,Gabler Verlag,,847,0,German,,,0,"978-3-409-42073-0,978-3-663-15730-4",,,,,,,10.1007/978-3-663-15730-4,,,,0,,1,0,1,,,1,20913501,pdf,ce4c37295bff5bfd0d67887d7af4ab55,,,10.1007%2F978-3-663-15730-4.pdf,0,2000-01-01 01:00:00,2016-04-03 02:51:08,1016000/ce4c37295bff5bfd0d67887d7af4ab55-d.jpg,,
14913788,Qualitative Sozialforschung,,Studienskripten zur Soziologie 133,,Walter Spöhring,1989,,Vieweg+Teubner Verlag,,406,0,German,,,0,"978-3-519-00133-1,978-3-663-15836-3",,,,,,,10.1007/978-3-663-15836-3,,,,0,,1,0,1,,,1,9659470,pdf,c256a1ed8d4d723c5db63feadc9db4e1,,,10.1007%2F978-3-663-15836-3.pdf,0,2000-01-01 01:00:00,2016-04-03 02:51:08,1016000/c256a1ed8d4d723c5db63feadc9db4e1-d.jpg,,
14913786,Studientechnik für Betriebswirte,,,,Herbert Alsheimer,1973,,Gabler Verlag,,139,0,German,,,0,"978-3-409-39245-7,978-3-663-15721-2",,,,,,,10.1007/978-3-663-15721-2,,,,0,,1,0,1,,,1,3853353,pdf,c7e9c9e490a3b7deea66707769649a13,,,10.1007%2F978-3-663-15721-2.pdf,0,2000-01-01 01:00:00,2016-04-03 02:51:08,1016000/c7e9c9e490a3b7deea66707769649a13-d.jpg,,
14913785,Szenario-Technik: Instrumente für die unternehmerische und persönliche Erfolgsplanung,,,,Ute von Reibnitz,1992,,Gabler Verlag,,279,0,German,,,0,"978-3-409-23431-3,978-3-663-15720-5",,,,,,,10.1007/978-3-663-15720-5,,,,0,,1,0,1,,,1,5345070,pdf,1ddedf4e1bf72d8ccd098833ac713adc,,,10.1007%2F978-3-663-15720-5.pdf,0,2000-01-01 01:00:00,2016-04-03 02:51:08,1016000/1ddedf4e1bf72d8ccd098833ac713adc-d.jpg,,
14913784,"Bat Evolution, Ecology, and Conservation",,,,"Lisa Noelle Cooper, Karen E. Sears (auth.), Rick A. Adams, Scott C. Pedersen (eds.)",2013,,Springer New York,,"XVI, 547 p. 127 illus. 70 illus. in color.",0,English,,,,"978-1-4614-7396-1,978-1-4614-7397-8",,,,,,,10.1007/978-1-4614-7397-8,,,,0,,1,0,1,,,1,13398441,pdf,7d3cb2fae828175378605672a0205a88,,,10.1007%2F978-1-4614-7397-8.pdf,0,2000-01-01 01:00:00,2016-04-03 02:51:08,http://link.springer.com/static-content/covers/books/352/9781461473978.jpg,,
14913782,Wertpapierbörsen,,,,"Hans-Heinrich Peters, Marianne Heidenreich, Rolf Schache, Wolfgang Kirn",1981,,Gabler Verlag,,124,0,German,,,0,"978-3-409-01725-1,978-3-663-14866-1",,,,,,,10.1007/978-3-663-14866-1,,,,0,,1,0,1,,,1,3540853,pdf,eb6ef2d5a55c992c4c9db1767fdaf324,,,10.1007%2F978-3-663-14866-1.pdf,0,2000-01-01 01:00:00,2016-04-03 02:51:08,1016000/eb6ef2d5a55c992c4c9db1767fdaf324-d.jpg,,
14913783,Sportsponsoring,,DUV: Wirtschaftswissenschaft,,Norbert Drees,1992,,Deutscher Universitätsverlag,,457,0,German,,,0,"978-3-8244-0118-5,978-3-663-14884-5",,,,,,,10.1007/978-3-663-14884-5,,,,0,,1,0,1,,,1,12586348,pdf,ae035bb3cfb25ebd73a377e4502974dc,,,10.1007%2F978-3-663-14884-5.pdf,0,2000-01-01 01:00:00,2016-04-03 02:51:08,1016000/ae035bb3cfb25ebd73a377e4502974dc-d.jpg,,
14913781,Aspekte des Dramas,,Grundstudium Literaturwissenschaft 7,,"Heinz Geiger, Hermann Haarmann",1978,,VS Verlag für Sozialwissenschaften,,184,0,German,,,0,"978-3-531-29277-9,978-3-663-14861-6",,,,,,,10.1007/978-3-663-14861-6,,,,0,,1,0,1,,,1,6528594,pdf,71b4736d1688b3c6d36783461c7efc09,,,10.1007%2F978-3-663-14861-6.pdf,0,2000-01-01 01:00:00,2016-04-03 02:51:08,1016000/71b4736d1688b3c6d36783461c7efc09-d.jpg,,
14913780,Aspekte erzählender Prosa,,Grundstudium Literaturwissenschaft 8,,Jochen Vogt,1976,,VS Verlag für Sozialwissenschaften,,96,0,German,,,0,"978-3-531-29278-6,978-3-663-14860-9",,,,,,,10.1007/978-3-663-14860-9,,,,0,,1,0,1,,,1,2111058,pdf,86386aaef88d5b2a22ef4f4ada82d1e8,,,10.1007%2F978-3-663-14860-9.pdf,0,2000-01-01 01:00:00,2016-04-03 02:51:08,1016000/86386aaef88d5b2a22ef4f4ada82d1e8-d.jpg,,
14913779,Grundbegriffe der Soziologie,,Uni-Taschenbücher,,Bernhard Schäfers,1995,,VS Verlag für Sozialwissenschaften,,435,0,German,,,0,"978-3-8100-1378-1,978-3-663-14855-5",,,,,,,10.1007/978-3-663-14855-5,,,,0,,1,0,1,,,1,9962214,pdf,1c20c1406d3e01ed4b6a6c2a9dad3777,,,10.1007%2F978-3-663-14855-5.pdf,0,2000-01-01 01:00:00,2016-04-03 02:51:08,1016000/1c20c1406d3e01ed4b6a6c2a9dad3777-d.jpg,,
14913778,"Kubjikā, Kālī, Tripurā, and Trika",,"Nepal Research Centre Publications, 22.",,Mark S G Dyczkowski,2000,,Franz Steiner Verlag,Stuttgart,73,0,English,,,0,3515077723 9783515077729,,,,,,,,,,,0,,1,,,1,,1,2922144,pdf,5e7975f2529929d29406e64830712e9d,,,"Dyczkowski, Mark - Kubjika Kali Tripura and Trika (73p)",0,2000-01-01 01:00:00,2016-04-03 02:51:08,,,
14913776,Lern- und Arbeitstechniken für pädagogische Studiengänge: mit zahlreichen Abbildungen sowie Informationen zu Auskunftsmitteln und (Internet-) Adressen,,Uni-Taschenbüher 1994,,Friedrich Rost,1997,,VS Verlag für Sozialwissenschaften,,330,0,German,,,0,"978-3-8252-1994-9,978-3-663-14852-4",,,,,,,10.1007/978-3-663-14852-4,,,,0,,1,0,1,,,1,8200784,pdf,ebec2929851f26d01b83cd6697d2a076,,,10.1007%2F978-3-663-14852-4.pdf,0,2000-01-01 01:00:00,2016-04-03 02:51:08,1016000/ebec2929851f26d01b83cd6697d2a076-d.jpg,,
14913777,Grundkurs Soziologie,,Uni-Taschenbücher 1323,,Hans Peter Henecka,1994,,VS Verlag für Sozialwissenschaften,,203,0,German,,,0,"978-3-8252-1323-7,978-3-663-14854-8",,,,,,,10.1007/978-3-663-14854-8,,,,0,,1,0,1,,,1,6760849,pdf,fd745e325cf71af8a1e3ce9992e305c4,,,10.1007%2F978-3-663-14854-8.pdf,0,2000-01-01 01:00:00,2016-04-03 02:51:08,1016000/fd745e325cf71af8a1e3ce9992e305c4-d.jpg,,
14913775,"Pädagogik der Vielfalt: Verschiedenheit und Gleichberechtigung in Interkultureller, Feministischer und Integrativer Pädagogik",,Reihe Schule und Gesellschaft,,Annedore Prengel,1993,,VS Verlag für Sozialwissenschaften,,246,0,German,,,0,"978-3-8100-1163-3,978-3-663-14850-0",,,,,,,10.1007/978-3-663-14850-0,,,,0,,1,0,1,,,1,8433485,pdf,66ec7ae33c350dcf23c8778a1315ba84,,,10.1007%2F978-3-663-14850-0.pdf,0,2000-01-01 01:00:00,2016-04-03 02:51:08,1016000/66ec7ae33c350dcf23c8778a1315ba84-d.jpg,,
14913774,Hegel and Global Justice,,Studies in Global Justice (Book 10),,Andrew Buchwalter,2012,,Springer,,244,0,English,,,0,940076846X,,,,,,,,,,,0,,,,,,,0,4366320,djvu,b5180a3f115f0f5f3527c56910c750ab,,,hegel_global justice,0,2000-01-01 01:00:00,2016-04-03 02:51:08,1016000/b5180a3f115f0f5f3527c56910c750ab-g.jpg,,
14913772,Banktechnik des Außenhandels,,,,Johannes Zahn,1962,,Gabler Verlag,,74,0,German,,,0,"978-3-663-14727-5,978-3-663-14828-9",,,,,,,10.1007/978-3-663-14828-9,,,,0,,1,0,1,,,1,4258612,pdf,114d9e28bd3dd3a2a07f395c78340ec5,,,10.1007%2F978-3-663-14828-9.pdf,0,2000-01-01 01:00:00,2016-04-03 02:51:08,1016000/114d9e28bd3dd3a2a07f395c78340ec5-d.jpg,,
14913773,Bankbetriebslehre: Bankgeschäfte und Bankmanagement,,,,Hans E. Büschgen,1993,,Gabler Verlag,,948,0,German,,,0,"978-3-409-42074-7,978-3-663-14832-6",,,,,,,10.1007/978-3-663-14832-6,,,,0,,1,0,1,,,1,23618526,pdf,7c5886a6e56f978b1d38f7632acf52d8,,,10.1007%2F978-3-663-14832-6.pdf,0,2000-01-01 01:00:00,2016-04-03 02:51:08,1016000/7c5886a6e56f978b1d38f7632acf52d8-d.jpg,,
14913770,Buchführungs-Regeln für gewerbliche Kleinbetriebe,,,,Wilhelm Kalveram,1949,,Gabler Verlag,,46,0,German,,,0,"978-3-663-14719-0,978-3-663-14816-6",,,,,,,10.1007/978-3-663-14816-6,,,,0,,1,0,1,,,1,2083273,pdf,211956ed1af2641c53cc2845bf5dc0f9,,,10.1007%2F978-3-663-14816-6.pdf,0,2000-01-01 01:00:00,2016-04-03 02:51:08,1016000/211956ed1af2641c53cc2845bf5dc0f9-d.jpg,,
14913771,Bewertung und Abschreibung von Anlagen: Neue Wege der Anlagenrechnung,,,,Herbert Gudehus,1959,,Gabler Verlag,,285,0,German,,,0,"978-3-663-14724-4,978-3-663-14823-4",,,,,,,10.1007/978-3-663-14823-4,,,,0,,1,0,1,,,1,7971389,pdf,73e0b0949a7dbc61d11468dc2cea1f6f,,,10.1007%2F978-3-663-14823-4.pdf,0,2000-01-01 01:00:00,2016-04-03 02:51:08,1016000/73e0b0949a7dbc61d11468dc2cea1f6f-d.jpg,,
14913769,,,,,,,,,,241,0,English,,,,,,,,,,,10.1007/978-3-663-14802-9,,,,0,,1,0,1,,,1,14776123,pdf,7265cedfdc0b6ed1e4ae18e328e8fead,,,10.1007%2F978-3-663-14802-9.pdf,0,2000-01-01 01:00:00,2016-04-03 02:51:08,http://link.springer.com/static-content/covers/books/.jpg,,
14913767,Marktforschung: Methodische Grundlagen und praktische Anwendung,,,,"Ludwig Berekoven, Werner Eckert, Peter Ellenrieder",1993,,Gabler Verlag,,408,0,German,,,0,"978-3-409-36987-9,978-3-663-14756-5",,,,,,,10.1007/978-3-663-14756-5,,,,0,,1,0,1,,,1,23829969,pdf,aa06a91875b98452f4954615e9c26e77,,,10.1007%2F978-3-663-14756-5.pdf,0,2000-01-01 01:00:00,2016-04-03 02:51:08,1016000/aa06a91875b98452f4954615e9c26e77-d.jpg,,
14913768,Einführung in die Rechtswissenschaft,,,,Friedrich Giese,1948,,Gabler Verlag,,104,0,German,,,0,"978-3-663-14698-8,978-3-663-14786-2",,,,,,,10.1007/978-3-663-14786-2,,,,0,,1,0,1,,,1,5599798,pdf,e85be0f1dbd92e62b83fd0d98a9481df,,,10.1007%2F978-3-663-14786-2.pdf,0,2000-01-01 01:00:00,2016-04-03 02:51:08,1016000/e85be0f1dbd92e62b83fd0d98a9481df-d.jpg,,
14913766,Personalentwicklung,,Gabler-Studientexte,,Gustav Klötzl,1996,,Gabler Verlag,,78,0,German,,,0,"978-3-409-92269-2,978-3-663-14749-7",,,,,,,10.1007/978-3-663-14749-7,,,,0,,1,0,1,,,1,3538350,pdf,22933db3065de6d282ea4a13d4daad14,,,10.1007%2F978-3-663-14749-7.pdf,0,2000-01-01 01:00:00,2016-04-03 02:51:08,1016000/22933db3065de6d282ea4a13d4daad14-d.jpg,,
14913765,Produktionspolitik,,,,Dietrich Adam,1976,3. Auflage,Gabler Verlag,,256,0,German,,,0,"978-3-409-69111-6,978-3-663-14747-3",,,,,,,10.1007/978-3-663-14747-3,,,,0,,1,0,1,,,1,11857028,pdf,7e3e1b61b8c7eee3ffe6e705ee88677a,,,10.1007%2F978-3-663-14747-3.pdf,0,2000-01-01 01:00:00,2016-04-03 02:51:08,1016000/7e3e1b61b8c7eee3ffe6e705ee88677a-d.jpg,,
14913764,Produktionspolitik,,,,Dietrich Adam,1988,5. Auflage,Gabler Verlag,,400,0,German,,,0,"978-3-409-69113-0,978-3-663-14745-9",,,,,,,10.1007/978-3-663-14745-9,,,,0,,1,0,1,,,1,7658282,pdf,d7022c68686153d7350632f2fc1e68a2,,,10.1007%2F978-3-663-14745-9.pdf,0,2000-01-01 01:00:00,2016-04-03 02:51:08,1016000/d7022c68686153d7350632f2fc1e68a2-d.jpg,,
14913762,Die berufliche Handlungsbereitschaft von ausländischen Beschäftigten: Eine Längsschnittuntersuchung,,DUV Sozialwissenschaft,,Wolfgang Bartsch,1990,,Deutscher Universitätsverlag,,307,0,German,,,0,"978-3-8244-4045-0,978-3-663-14644-5",,,,,,,10.1007/978-3-663-14644-5,,,,0,,1,0,1,,,1,8030971,pdf,99999da7d4210d4d4a931eb6eeea2862,,,10.1007%2F978-3-663-14644-5.pdf,0,2000-01-01 01:00:00,2016-04-03 02:51:08,1016000/99999da7d4210d4d4a931eb6eeea2862-d.jpg,,
14913763,Aktienindex-Terminkontrakte: Destabilisierende Instrumente des Portfoliomanagements?,,DUV: Wirtschaftswissenschaft,,Harald Wiebke,1992,,Deutscher Universitätsverlag,,197,0,German,,,0,"978-3-8244-0098-0,978-3-663-14669-8",,,,,,,10.1007/978-3-663-14669-8,,,,0,,1,0,1,,,1,6867083,pdf,3b025324a5a41f15f3a7674c6faa8ce8,,,10.1007%2F978-3-663-14669-8.pdf,0,2000-01-01 01:00:00,2016-04-03 02:51:08,1016000/3b025324a5a41f15f3a7674c6faa8ce8-d.jpg,,
14913761,Fundamentale Ideen der Informatik im Mathematikunterricht: Grundsätzliche Überlegungen und Beispiele für die Primarstufe,,,,"Petra Knöß, Erich Ch. Wittmann",1989,,Deutscher Universitätsverlag,,348,0,German,,,0,"978-3-8244-2004-9,978-3-663-14619-3",,,,,,,10.1007/978-3-663-14619-3,,,,0,,1,0,1,,,1,11800036,pdf,09f3a1fac031f4e72ca583d061020599,,,10.1007%2F978-3-663-14619-3.pdf,0,2000-01-01 01:00:00,2016-04-03 02:51:08,1016000/09f3a1fac031f4e72ca583d061020599-d.jpg,,
14913760,Kapitalwert und Ertragsteuern: Die Bedeutung der Finanzierungsprämisse für die Investitionsrechnung,,,,Verena Volpert,1989,,Deutscher Universitätsverlag,,233,0,German,,,0,"978-3-8244-0011-9,978-3-663-14608-7",,,,,,,10.1007/978-3-663-14608-7,,,,0,,1,0,1,,,1,5733175,pdf,b8d2b5275c4aef3daafdc4318c45d84f,,,10.1007%2F978-3-663-14608-7.pdf,0,2000-01-01 01:00:00,2016-04-03 02:51:08,1016000/b8d2b5275c4aef3daafdc4318c45d84f-d.jpg,,
14913758,Langlebige Gebrauchsgüter: Ökologische Optimierung der Nutzungsdauer,,DUV Wirtschaftswissenschaft,,Klaus Bellmann,1990,,Deutscher Universitätsverlag,,205,0,German,,,0,"978-3-8244-0051-5,978-3-663-14598-1",,,,,,,10.1007/978-3-663-14598-1,,,,0,,1,0,1,,,1,5553551,pdf,c0b95b7f32a6383f185435891a2fe851,,,10.1007%2F978-3-663-14598-1.pdf,0,2000-01-01 01:00:00,2016-04-03 02:51:08,1016000/c0b95b7f32a6383f185435891a2fe851-d.jpg,,
14913759,Revision ACL Reconstruction: Indications and Technique,,,,"Andrew R. Duffee MD, Timothy E. Hewett PhD (auth.), Robert G. Marx (eds.)",2014,,Springer New York,,"XXI, 273 p. 169 illus. 72 illus. in color.",0,English,,,,"978-1-4614-0765-2,978-1-4614-0766-9",,,,,,,10.1007/978-1-4614-0766-9,,,,0,,1,0,1,,,1,8931320,pdf,98fadbd6f2138af7d145c2ec9c00d911,,,10.1007%2F978-1-4614-0766-9.pdf,0,2000-01-01 01:00:00,2016-04-03 02:51:08,http://link.springer.com/static-content/covers/books/748/9781461407669.jpg,,
14913757,Verfahren zur Sicherheitsanalyse: Eine prospektive Methode zur Analyse und Bewertung von Gefährdungen,,,,Jörg Nohl,1989,,Deutscher Universitätsverlag,,252,0,German,,,0,"978-3-8244-2001-8,978-3-663-14537-0",,,,,,,10.1007/978-3-663-14537-0,,,,0,,1,0,1,,,1,5669281,pdf,f50937d10a8433fe3b32892a265e7b5c,,,10.1007%2F978-3-663-14537-0.pdf,0,2000-01-01 01:00:00,2016-04-03 02:51:08,1016000/f50937d10a8433fe3b32892a265e7b5c-d.jpg,,
14913756,Zählangaben — Maßangaben: Bedeutung und konzeptuelle Interpretation von Numeralia,,Studien zur Kognitionswissenschaft,,Carola Eschenbach,1995,,Deutscher Universitätsverlag,,299,0,German,,,0,"978-3-8244-4181-5,978-3-663-14525-7",,,,,,,10.1007/978-3-663-14525-7,,,,0,,1,0,1,,,1,5454382,pdf,32f8e36b86488d94a2f49109653c0829,,,10.1007%2F978-3-663-14525-7.pdf,0,2000-01-01 01:00:00,2016-04-03 02:51:08,1016000/32f8e36b86488d94a2f49109653c0829-d.jpg,,
14913755,Abrasax: Ausgewählte Papyri religiösen und magischen Inhalts. Band 2: Gebete (Fortsetzung),,Papyrologica Coloniensia 17/2,,"Reinhold Merkelbach, Maria Totti",1991,,VS Verlag für Sozialwissenschaften,,229,0,German,,,0,"978-3-531-09930-9,978-3-663-14518-9",,,,,,,10.1007/978-3-663-14518-9,,,,0,,1,0,1,,,1,9991512,pdf,27020fdd687bfcbd6f35e84405aa8d2d,,,10.1007%2F978-3-663-14518-9.pdf,0,2000-01-01 01:00:00,2016-04-03 02:51:08,1016000/27020fdd687bfcbd6f35e84405aa8d2d-d.jpg,,
14913754,"Alltagswissen, Interaktion und Gesellschaftliche Wirklichkeit: 1: Symbolischer Interaktionismus und Ethnomethodologie. 2: Ethnotheorie und Ethnographie des Sprechens",,WV studium 54/55,,,1980,,VS Verlag für Sozialwissenschaften,,540,0,German,,,0,"978-3-531-22054-3,978-3-663-14511-0",,,,,,,10.1007/978-3-663-14511-0,,,,0,,1,0,1,,,1,25175221,pdf,5181d7c10a4a79b30acb8e4b1fef6d06,,,10.1007%2F978-3-663-14511-0.pdf,0,2000-01-01 01:00:00,2016-04-03 02:51:08,1016000/5181d7c10a4a79b30acb8e4b1fef6d06-d.jpg,,
14913753,Attische Grabreliefs: 411. Sitzung am 17. Juni 1998 in Düsseldorf,,Nordrhein-Wesfälische Akademie der Wissenschaften 357,,Nikolaus Himmelmann,1999,,VS Verlag für Sozialwissenschaften,,149,0,German,,,0,"978-3-531-07357-6,978-3-663-14503-5",,,,,,,10.1007/978-3-663-14503-5,,,,0,,1,0,1,,,1,7943055,pdf,93fc4bd325f34e3789713e56f72120a9,,,10.1007%2F978-3-663-14503-5.pdf,0,2000-01-01 01:00:00,2016-04-03 02:51:08,1016000/93fc4bd325f34e3789713e56f72120a9-d.jpg,,
14913752,Basale Soziologie: Soziale Ungleichheit,,Studienreihe Gesellschaft,,"Walter Zingg, Gisela Zipp",1979,,VS Verlag für Sozialwissenschaften,,235,0,German,,,0,"978-3-531-11438-5,978-3-663-14497-7",,,,,,,10.1007/978-3-663-14497-7,,,,0,,1,0,1,,,1,11443819,pdf,903aab32d17ef9e60443ea2d3c08a659,,,10.1007%2F978-3-663-14497-7.pdf,0,2000-01-01 01:00:00,2016-04-03 02:51:08,1016000/903aab32d17ef9e60443ea2d3c08a659-d.jpg,,
14913751,Bestimmung des Faserabbaues bei Leinen unter besonderer Berücksichtigung der Leinengarnbleiche,,Forschungsberichte des Wirtschafts- und Verkehrsministeriums Nordrhein-Westfalen,,,1954,,VS Verlag für Sozialwissenschaften,,47,0,German,,,0,"978-3-663-12838-0,978-3-663-14492-2",,,,,,,10.1007/978-3-663-14492-2,,,,0,,1,0,1,,,1,2281431,pdf,33dc2ae0be6695df3d6d71c91108872a,,,10.1007%2F978-3-663-14492-2.pdf,0,2000-01-01 01:00:00,2016-04-03 02:51:08,1016000/33dc2ae0be6695df3d6d71c91108872a-d.jpg,,
14913750,Bronze und Silber: Papyrologische Beiträge zur Geschichte der Währung im ptolemäischen und römischen Ägypten bis zum 2. Jahrhundert n. Chr.,,Papyrologica Coloniensia 25,,Klaus Maresch,1996,,VS Verlag für Sozialwissenschaften,,253,0,German,,,0,"978-3-531-09939-2,978-3-663-14488-5",,,,,,,10.1007/978-3-663-14488-5,,,,0,,1,0,1,,,1,8289763,pdf,ccfcb64da9c94f683fc5a4504a11f520,,,10.1007%2F978-3-663-14488-5.pdf,0,2000-01-01 01:00:00,2016-04-03 02:51:08,1016000/ccfcb64da9c94f683fc5a4504a11f520-d.jpg,,
14913749,Demokratietheorien: Eine Einführung,,Uni-Taschenbücher 1887,,Manfred G. Schmidt,1995,,VS Verlag für Sozialwissenschaften,,407,0,German,,,0,"978-3-8252-1887-4,978-3-663-14476-2",,,,,,,10.1007/978-3-663-14476-2,,,,0,,1,0,1,,,1,32916154,pdf,a4d9d99bd80a9d6d05ac48782af8c264,,,10.1007%2F978-3-663-14476-2.pdf,0,2000-01-01 01:00:00,2016-04-03 02:51:08,1016000/a4d9d99bd80a9d6d05ac48782af8c264-d.jpg,,
14913747,Die Entstehung der deutschen Schriftsprache: Bisherige Erklärungsmodelle — neuester Forschungsstand,,Rheinisch-Westfälische Akademie der Wissenschaften 290,,Werner Besch,1987,,VS Verlag für Sozialwissenschaften,,64,0,German,,,0,"978-3-531-07290-6,978-3-663-14460-1",,,,,,,10.1007/978-3-663-14460-1,,,,0,,1,0,1,,,1,2394091,pdf,cc5f47203adba5da4ea457fcfcafc7b4,,,10.1007%2F978-3-663-14460-1.pdf,0,2000-01-01 01:00:00,2016-04-03 02:51:08,1016000/cc5f47203adba5da4ea457fcfcafc7b4-d.jpg,,
14913748,"Der Stand der Technik: Geschichte, Strukturelemente und Funktion der Verrechtlichung technischer Risiken am Beispiel des Immissionsschutzes",,Beiträge zur sozialwissenschaftlichen Forschung 75,,Rainer Wolf,1986,,VS Verlag für Sozialwissenschaften,,541,0,German,,,0,"978-3-531-11779-9,978-3-663-14470-0",,,,,,,10.1007/978-3-663-14470-0,,,,0,,1,0,1,,,1,16845524,pdf,698e831fe359ebc7177a2a80f2c578c6,,,10.1007%2F978-3-663-14470-0.pdf,0,2000-01-01 01:00:00,2016-04-03 02:51:08,1016000/698e831fe359ebc7177a2a80f2c578c6-d.jpg,,
14913746,Die Zeit des letzten mongolischen Großkhans Ligdan (1604–1634): 203. Sitzung am 16. April1975 in Düsseldorf,,Rheinisch-Westfälische Akademie der Wissenschaften 235,,Walther Heissig,1979,,VS Verlag für Sozialwissenschaften,,45,0,German,,,0,"978-3-531-07235-7,978-3-663-14446-5",,,,,,,10.1007/978-3-663-14446-5,,,,0,,1,0,1,,,1,1794292,pdf,173e9bc69659104563819db653cbe3ec,,,10.1007%2F978-3-663-14446-5.pdf,0,2000-01-01 01:00:00,2016-04-03 02:51:08,1016000/173e9bc69659104563819db653cbe3ec-d.jpg,,
14913745,Die Zeitschriften des Jungen Deutschland: Eine Untersuchung zur literarisch-publizistischen Öffentlichkeit im 19. Jahrhundert,,Kulturwissenschaftliche Studien zur deutschen Literatur,,Helga Brandes,1991,,VS Verlag für Sozialwissenschaften,,304,0,German,,,0,"978-3-531-12040-9,978-3-663-14445-8",,,,,,,10.1007/978-3-663-14445-8,,,,0,,1,0,1,,,1,11551381,pdf,a836931e4bce5c11073086bbd4f1461a,,,10.1007%2F978-3-663-14445-8.pdf,0,2000-01-01 01:00:00,2016-04-03 02:51:08,1016000/a836931e4bce5c11073086bbd4f1461a-d.jpg,,
14913744,"Entscheidungsspiele in Politik, Verwaltung und Wirtschaft",,Beiträge zur sozialwissenschaftlichen Forschung 50,,Astrid Wender,1983,,VS Verlag für Sozialwissenschaften,,256,0,German,,,0,"978-3-531-11669-3,978-3-663-14438-0",,,,,,,10.1007/978-3-663-14438-0,,,,0,,1,0,1,,,1,5304478,pdf,a320a8afaf0039c56b16e1d7d11bd970,,,10.1007%2F978-3-663-14438-0.pdf,0,2000-01-01 01:00:00,2016-04-03 02:51:08,1016000/a320a8afaf0039c56b16e1d7d11bd970-d.jpg,,
14913743,Gesammelte Gesundheitsstatistische Abhandlungen und Kurzberichte: Folge I (1936),,,,"R. Pohlen, Kurt Pohlen",1936,,Springer Berlin Heidelberg,,163,0,German,,,0,"978-3-662-27213-8,978-3-662-28696-8",,,,,,,10.1007/978-3-662-28696-8,,,,0,,1,0,1,,,1,9519287,pdf,5722f421ea014994186024534ee5940f,,,10.1007%2F978-3-662-28696-8.pdf,0,2000-01-01 01:00:00,2016-04-03 02:51:08,1016000/5722f421ea014994186024534ee5940f-d.jpg,,
14913742,Spike timing : mechanisms and function,,"Frontiers in neuroscience (Boca Raton, Fla.)",,"Patricia M. DiLorenzo, Jonathan D. Victor",2013,,Taylor & Francis/CRC Press,Boca Raton,410,0,English,,,0,"9781439838167,143983816X",,,,,,,,,,,0,,,,,,,1,44922758,pdf,fa209c66e4337f8b03bb3ed0dd60e626,,,Spike Timing Mechanisms and Function,0,2000-01-01 01:00:00,2016-04-03 02:51:08,1016000/fa209c66e4337f8b03bb3ed0dd60e626-d.jpg,,
14913741,"Distributions in the Physical and Engineering Sciences, Volume 2: Linear and Nonlinear Dynamics in Continuous Media",,Applied and Numerical Harmonic Analysis,,"Alexander I. Saichev, Wojbor A. Woyczynski (auth.)",2013,,Springer New York,,427,0,English,,,,"978-0-8176-3942-6,978-0-8176-4652-3",,,,,,,10.1007/978-0-8176-4652-3,,,,0,,1,0,1,,,1,4359626,pdf,233d47f6564f250e25c610a6c3a39efe,,,10.1007%2F978-0-8176-4652-3.pdf,0,2000-01-01 01:00:00,2016-04-03 02:51:08,http://link.springer.com/static-content/covers/books/620/9780817646523.jpg,,
14913740,Shale engineering : mechanics and mechanisms,,,,"Mohammad Asef, Mohsen Farrokhrouz.",2013 ,,CRC Press,,301,0,English,,,0,"9780415874199,041587419X",,,,,,,,,,,0,,,,,,,1,52537070,pdf,a1aa74d75e1f38c60b53287485efc7b7,,,Shale Engineering Mechanics and Mechanisms,0,2000-01-01 01:00:00,2016-04-03 02:51:08,1016000/a1aa74d75e1f38c60b53287485efc7b7-d.jpg,,
14913739,Quantifying morphology and physiology of the human body using MRI,,Series in medical physics and biomedical engineering.,,"L. Tugan Muftuler, Department of Neurosurgery, Medical College of Wisconsin",2013,,CRC Press/Taylor & Francis Group,"Boca Raton, FL",495,0,English,,,0,"9781439852651,1439852650",,,,,,,,,,,0,,,,,,,1,81043653,pdf,c1915caaf471386fb9a8acc510ea4227,,,Quantifying Morphology and Physiology of the Human Body Using MRI,0,2000-01-01 01:00:00,2016-04-03 02:51:08,1016000/c1915caaf471386fb9a8acc510ea4227-d.jpg,,
14913738,Precision agriculture ’13,,,,"J. Serrano, S. Shahidian, J. Marques da Silva (auth.), John V. Stafford (eds.)",2013,,Wageningen Academic Publishers,,770,0,English,,,,978-90-8686-778-3,,,,,,,10.3920/978-90-8686-778-3,,,,0,,1,0,1,,,1,30988053,pdf,521e30345f598710a5c836327168c976,,,10.3920%2F978-90-8686-778-3.pdf,0,2000-01-01 01:00:00,2016-04-03 02:51:08,http://link.springer.com/static-content/covers/books/770/9789086867783.jpg,,
14913736,Methods of statistical model estimation,,,,"Joseph M. Hilbe, Andrew P. Robinson",2013,,CRC Press,Boca Raton,243,0,English,,,0,"9781439858028,1439858020",,,,,,,,,,,0,,,,,,,1,4441659,pdf,11c58bedb64190b8248c98640e7712fc,,,Methods of Statistical Model Estimation,0,2000-01-01 01:00:00,2016-04-03 02:51:08,1016000/11c58bedb64190b8248c98640e7712fc-d.jpg,,
14913737,Principles of neural coding,,,,Rodrigo Quian Quiroga,2013.,,Taylor & Francis,Boca Raton,623,0,English,,,0,"9781439853306,1439853304",,,,,,,,,,,0,,,,,,,1,107095696,pdf,0b61e309f99932fcc3624ea3da05e5f5,,,Principles of Neural Coding,0,2000-01-01 01:00:00,2016-04-03 02:51:08,1016000/0b61e309f99932fcc3624ea3da05e5f5-d.jpg,,
14913735,"Linear electric machines, drives, and MAGLEVs handbook",,,,Ion Boldea,2013,,CRC Press,Boca Raton,635,0,English,,,0,9781439845158,,,,,,,,,,,0,,,,,,,1,58173195,pdf,212d6c208550b547a9b719fa7a8334f4,,,"Linear Electric Machines, Drives, and MAGLEVs Handbook",0,2000-01-01 01:00:00,2016-04-03 02:51:08,1016000/212d6c208550b547a9b719fa7a8334f4-d.jpg,,
14913733,Imaging in cellular and tissue engineering,,"Series in cellular and clinical imaging, 2.",,"Hanry Yu, Nur Aida Abdul Rahim",2013,,"CRC Press, Taylor & Francis Group",Boca Raton,280,0,English,,,0,"9781439848043,1439848041",,,,,,,,,,,0,,,,,,,1,36922779,pdf,468973422b78fe80bb03eda1fbbe86c4,,,Imaging in Cellular and Tissue Engineering,0,2000-01-01 01:00:00,2016-04-03 02:51:08,1016000/468973422b78fe80bb03eda1fbbe86c4-g.jpg,,
14913734,Laboratory experiments using microwave heating,,,,"Nicholas E. Leadbeater, Cynthia B. McGowan",2013,,"Taylor & Francis, CRC",Boca Raton,216,0,English,,,0,"9781439856093,1439856095",,,,,,,,,,,0,,,,,,,1,13959050,pdf,c0930cf6e9a581412c183564a51abb6e,,,Laboratory Experiments Using Microwave Heating,0,2000-01-01 01:00:00,2016-04-03 02:51:08,1016000/c0930cf6e9a581412c183564a51abb6e-d.jpg,,
14913732,Biomedical technology and devices,,Handbook Series for Mechanical Engineering.,,"James E. Moore, Jr., Duncan J. Maitland",2013,2nd,CRC Press,Hoboken,791,0,English,,,0,"9781439860618,1439860610",,,,,,,,,,,0,,,,,,,1,170091838,pdf,5504f196e0939fcf3e05aec0d3767023,,,"Biomedical Technology and Devices, Second Edition",0,2000-01-01 01:00:00,2016-04-03 02:51:08,1016000/5504f196e0939fcf3e05aec0d3767023-g.jpg,,
14913731,"Global Teachers, Australian Perspectives: Goodbye Mr Chips, Hello Ms Banerjee",,,,"Carol Reid, Jock Collins, Michael Singh (auth.)",2014,,Springer Singapore,,197,0,English,,,,"978-981-4451-35-2,978-981-4451-36-9",,,,,,,10.1007/978-981-4451-36-9,,,,0,,1,0,1,,,1,2223052,pdf,1d28375e44f1707afcc1d28dc7f178f6,,,10.1007%2F978-981-4451-36-9.pdf,0,2000-01-01 01:00:00,2016-04-03 02:51:08,http://link.springer.com/static-content/covers/books/152/9789814451369.jpg,,
14913730,"Behavioural adaptation and road safety : theory, evidence, and action",,,,"Christina Rudin-Brown, Samantha Jamson.",2013,,CRC Press,"Boca Raton, Florida",457,0,English,,,0,"9781439856673,1439856672,1439856680,9781439856680",,,,,,,,,,,0,,,,,,,1,45591326,pdf,9decf3d841646b2b2eb9b36771522ffc,,,"Behavioural Adaptation and Road Safety Theory, Evidence and Action",0,2000-01-01 01:00:00,2016-04-03 02:51:08,1016000/9decf3d841646b2b2eb9b36771522ffc-d.jpg,,
14913729,Мыслить социологически,,(Программа «Высшее образование»),,Зигмунт Бауман,1996,1st,Аспект Пресс,Москва,256,0,Russian,194,,0,5756700587,,,,,,,,,,,300,0,1,0,1,1,0,1,13256621,pdf,6057c527f19179076e6ffb04816a8f1e,,,Бауман - Мыслить социологически,0,2000-01-01 01:00:00,2016-04-03 02:51:08,1016000/6057c527f19179076e6ffb04816a8f1e-d.jpg,,
14913728,Biomimetics: Advancing Nanobiomaterials and Tissue Engineering,,,,"Murugan Ramalingam, Xiumei Wang, Guoping Chen, Peter Ma, Fu‐Zhai Cui",2013,,Wiley-Scrivener,,384,0,English,,,0,"9781118469620,9781118810408,1118469623",,,,,,,10.1002/9781118810408,,,,0,,1,0,1,,,1,6916927,pdf,398823d03337a371e65e366072d37bd8,,,10.1002%2F9781118810408.pdf,0,2000-01-01 01:00:00,2016-04-03 02:51:08,1016000/398823d03337a371e65e366072d37bd8-d.jpg,,
14913726,Nations: The Long History and Deep Roots of Political Ethnicity and Nationalism,,,,"Azar Gat, Alexander Yakobson",2013,,Cambridge University Press,,452,0,English,189,,0,"1107007852,9781107007857",,,,,,,,,,,0,,,,1,,1,1,3760382,pdf,e03ea495452e9b1ce390d82b3c851cce,,,1107007852Nations,0,2000-01-01 01:00:00,2016-04-03 02:51:08,1016000/e03ea495452e9b1ce390d82b3c851cce-d.jpg,,
14913727,"Biomaterials Science: Processing, Properties and Applications III: Ceramic Transactions, Vol. 242",,,,"Susmita Bose, Amit Bandyopadhyay, Roger Narayan",2013,,Wiley-American Ceramic Society,,160,0,English,,,0,"9781118751039,9781118751015,1118751035",,,,,,,10.1002/9781118751015,,,,0,,1,0,1,,,1,4796448,pdf,d7e57510e2b9bf14ca73dd3b3aeb9811,,,10.1002%2F9781118751015.pdf,0,2000-01-01 01:00:00,2016-04-03 02:51:08,1016000/d7e57510e2b9bf14ca73dd3b3aeb9811-d.jpg,,
14913725,Revolutions in Twentieth-Century Physics,,,,David J. Griffiths,2012,,Cambridge University Press,,188,0,English,264,,0,"1107602173,9781107602175",,,,,,,,,,,0,,,,,,,1,3711137,pdf,cccc04cc27becb69b16e90a605068ca3,,,1107602173R20CP,0,2000-01-01 01:00:00,2016-04-03 02:51:08,1016000/cccc04cc27becb69b16e90a605068ca3-d.jpg,,
14913724,Ein Leben in Briefen: Ergänzungsband I. Die Texte,,Abhandlungen der Rheinisch-Westfälischen Akademie der Wissenschaften 84/1,,Friedrich August Wolf,1990,,VS Verlag für Sozialwissenschaften,,197,0,German,,,0,"978-3-531-05101-7,978-3-663-14426-7",,,,,,,10.1007/978-3-663-14426-7,,,,0,,1,0,1,,,1,8389231,pdf,f3c2eb4360bdab331780ec0bba6639ef,,,10.1007%2F978-3-663-14426-7.pdf,0,2000-01-01 01:00:00,2016-04-03 02:51:08,1016000/f3c2eb4360bdab331780ec0bba6639ef-d.jpg,,
14913723,Ein Leben in Briefen: Ergänzungsband II. Die Erläuterungen,,Abhandlungen der Rheinisch-Westfälischen Akademie der Wissenschaften 84/2,,Friedrich August Wolf,1990,,VS Verlag für Sozialwissenschaften,,117,0,German,,,0,"978-3-531-05102-4,978-3-663-14425-0",,,,,,,10.1007/978-3-663-14425-0,,,,0,,1,0,1,,,1,2867758,pdf,2d8a1c70955481713b8f1432a57371ff,,,10.1007%2F978-3-663-14425-0.pdf,0,2000-01-01 01:00:00,2016-04-03 02:51:08,1016000/2d8a1c70955481713b8f1432a57371ff-d.jpg,,
14913722,Testovi iz hrvatskoga jezika za gimnazijalce: 442 pitanja i odgovora,,,,"Mirela Barbaroša-Šikić, Sanja Marija Sikirić, Jelena Vignjević, Marina Čubrić",1998,,Školska knjiga,Zagreb,37,0,Croatian,314,,0,,,,,,,,,XMTRNAAACAAJ,,,300,,,0,1,1,1,1,2219159,pdf,55d3babc5009aeb90e97c1afb9e0e21e,,,"Testovi iz hrvatskoga jezika za gimnazijalce - 442 pitanja i odgovora, Barbaroša-Šikić M. et al., 1998",0,2000-01-01 01:00:00,2016-04-03 02:51:08,1016000/55d3babc5009aeb90e97c1afb9e0e21e-g.jpg,,
14913721,Gewalt und Legitimität,,Analysen zum Terrorismus 4/1,,"Ulrich Matz, Gerhard Schmidtchen",1983,,VS Verlag für Sozialwissenschaften,,438,0,German,,,0,"978-3-531-11630-3,978-3-663-14413-7",,,,,,,10.1007/978-3-663-14413-7,,,,0,,1,0,1,,,1,9032516,pdf,f5c7e3831bfe2e3d1a0ea6c6f0c3ab0a,,,10.1007%2F978-3-663-14413-7.pdf,0,2000-01-01 01:00:00,2016-04-03 02:51:08,1016000/f5c7e3831bfe2e3d1a0ea6c6f0c3ab0a-d.jpg,,
14913719,Probleme der Kreditfinanzierung bei Klein- und Mittelbetrieben,,Abhandlungen zur Mittelstandsforschung 9,,Günter Schmölders,1964,,VS Verlag für Sozialwissenschaften,,174,0,German,,,0,"978-3-663-12812-0,978-3-663-14334-5",,,,,,,10.1007/978-3-663-14334-5,,,,0,,1,0,1,,,1,6571615,pdf,fd165637c6e726ddfdbf368f9e432393,,,10.1007%2F978-3-663-14334-5.pdf,0,2000-01-01 01:00:00,2016-04-03 02:51:08,1016000/fd165637c6e726ddfdbf368f9e432393-d.jpg,,
14913720,Gruppenprozesse,,Analysen zum Terrorismus 3,,"Wanda von Baeyer-Katte, Dieter Claessens, Hubert Feger, Friedhelm Neidhardt",1982,,VS Verlag für Sozialwissenschaften,,525,0,German,,,0,"978-3-531-11582-5,978-3-663-14409-0",,,,,,,10.1007/978-3-663-14409-0,,,,0,,1,0,1,,,1,15479980,pdf,42f108b7121ec87c5c7a8cd7abadf339,,,10.1007%2F978-3-663-14409-0.pdf,0,2000-01-01 01:00:00,2016-04-03 02:51:08,1016000/42f108b7121ec87c5c7a8cd7abadf339-d.jpg,,
14913718,Wie modern war das Kaiserreich? Das Beispiel der Schule,,Gerda-Henkel-Vorlesung,,Thomas Nipperdey,1986,,VS Verlag für Sozialwissenschaften,,17,0,German,,,0,"978-3-531-11958-8,978-3-663-14260-7",,,,,,,10.1007/978-3-663-14260-7,,,,0,,1,0,1,,,1,445922,pdf,a3b7aff4e8f747079a70b4b9805b19ec,,,10.1007%2F978-3-663-14260-7.pdf,0,2000-01-01 01:00:00,2016-04-03 02:51:08,1016000/a3b7aff4e8f747079a70b4b9805b19ec-d.jpg,,
14913717,„Das ist o. B. d. A. trivial!“ Eine Gebrauchsanleitung zur Formulierung mathematischer Gedanken mit vielen praktischen Tips für Studierende der Mathematik und Informatik,,vieweg studium,,Albrecht Beutelspacher,1992,,Vieweg+Teubner Verlag,,100,0,German,,,0,"978-3-528-16442-3,978-3-663-14252-2",,,,,,,10.1007/978-3-663-14252-2,,,,0,,1,0,1,,,1,3380099,pdf,8640798d644ce6d29dc7552595fa4f35,,,10.1007%2F978-3-663-14252-2.pdf,0,2000-01-01 01:00:00,2016-04-03 02:51:08,1016000/8640798d644ce6d29dc7552595fa4f35-d.jpg,,
14913716,ADA: Eine Einführung in die Programmiersprache der Softwaretechnik,,,,Manfred Nagl,1991,,Vieweg+Teubner Verlag,,353,0,German,,,0,"978-3-528-23347-1,978-3-663-14249-2",,,,,,,10.1007/978-3-663-14249-2,,,,0,,1,0,1,,,1,8995959,pdf,bcf12c71a1ddd3e142e0c1c2ba032516,,,10.1007%2F978-3-663-14249-2.pdf,0,2000-01-01 01:00:00,2016-04-03 02:51:08,1016000/bcf12c71a1ddd3e142e0c1c2ba032516-d.jpg,,
14913715,"Advances in Multi-Grid Methods: Proceedings of the conference held in Oberwolfach, December 8 to 13, 1984",,Notes on Numerical Fluid Mechanics 11,,"O. Axelsson, Dietrich Braess, Wolfgang Hackbusch, Ulrich Trottenberg",1985,,Vieweg+Teubner Verlag,,127,0,English,,,0,"978-3-528-08085-3,978-3-663-14245-4",,,,,,,10.1007/978-3-663-14245-4,,,,0,,1,0,1,,,1,3774044,pdf,8812e05b5143c3990659eb1330b62c80,,,10.1007%2F978-3-663-14245-4.pdf,0,2000-01-01 01:00:00,2016-04-03 02:51:08,1016000/8812e05b5143c3990659eb1330b62c80-d.jpg,,
14913714,Analysis of Laminar Flow over a Backward Facing Step: A GAMM Workshop,,Notes on Numerical Fluid Mechanics 9,,"O. Pironneau, Ken Morgan, Jacques Periaux, François Thomasset",1984,,Vieweg+Teubner Verlag,,427,0,English,,,0,"978-3-528-08083-9,978-3-663-14242-3",,,,,,,10.1007/978-3-663-14242-3,,,,0,,1,0,1,,,1,15784191,pdf,0e6a5f55db71fff2bf0d28d568dddef5,,,10.1007%2F978-3-663-14242-3.pdf,0,2000-01-01 01:00:00,2016-04-03 02:51:08,1016000/0e6a5f55db71fff2bf0d28d568dddef5-d.jpg,,
14913713,"Analysis 2: Differentialrechnung im Rn, Gewöhnliche Differentialgleichungen",,vieweg studium,,Otto Forster,1981,,Vieweg+Teubner Verlag,,171,0,German,,,0,"978-3-528-27231-9,978-3-663-14173-0",,,,,,,10.1007/978-3-663-14173-0,,,,0,,1,0,1,,,1,3517285,pdf,222e3ed5150caa20a47d00c50368fb37,,,10.1007%2F978-3-663-14173-0.pdf,0,2000-01-01 01:00:00,2016-04-03 02:51:08,1016000/222e3ed5150caa20a47d00c50368fb37-d.jpg,,
14913712,"EUROVAL — An European Initiative on Validation of CFD Codes: Results of the EC/BRITE-EURAM Project EUROVAL, 1990–1992",,Notes on Numerical Fluid Mechanics (NNFM) 42,,"Werner Haase, Frans Brandsma, Eberhard Elsholz, Michael Leschziner, Dieter Schwamborn",1993,,Vieweg+Teubner Verlag,,538,0,English,,,0,"978-3-528-07642-9,978-3-663-14131-0",,,,,,,10.1007/978-3-663-14131-0,,,,0,,1,0,1,,,1,28139224,pdf,5378fb89898bbcc1e99d9643ea970f3c,,,10.1007%2F978-3-663-14131-0.pdf,0,2000-01-01 01:00:00,2016-04-03 02:51:08,1016000/5378fb89898bbcc1e99d9643ea970f3c-d.jpg,,
14913710,"Fast Solvers for Flow Problems: Proceedings of the Tenth GAMM-Seminar Kiel, January 14–16, 1994",,Notes on Numerical Fluid Mechanics (NNFM),,"Randolph E. Bank, Jinchao Xu, Wolfgang Hackbusch, Gabriel Wittum",1995,,Vieweg+Teubner Verlag,,302,0,English,,,0,"978-3-528-07649-8,978-3-663-14125-9",,,,,,,10.1007/978-3-663-14125-9,,,,0,,1,0,1,,,1,12508288,pdf,b7f82aaad615828cd04bd6478393e2e4,,,10.1007%2F978-3-663-14125-9.pdf,0,2000-01-01 01:00:00,2016-04-03 02:51:08,1016000/b7f82aaad615828cd04bd6478393e2e4-d.jpg,,
14913711,Leaders in Gender and Education: Intellectual Self-Portraits,,Leaders in Educational Studies,,"Marcus B. Weaver-Hightower, Christine Skelton (auth.), Marcus B. Weaver-Hightower, Christine Skelton (eds.)",2013,,SensePublishers,,244,0,English,,,,978-94-6209-305-8,,,,,,,10.1007/978-94-6209-305-8,,,,0,,1,0,1,,,1,1702432,pdf,d99328c2a9cd8e7c86053c1ea5f193b4,,,10.1007%2F978-94-6209-305-8.pdf,0,2000-01-01 01:00:00,2016-04-03 02:51:08,http://link.springer.com/static-content/covers/books/576/9789462093058.jpg,,
14913709,Fuchsian Differential Equations: With Special Emphasis on the Gauss-Schwarz Theory,,Aspects of Mathematics / Aspekte der Mathematik E 11,,Masaaki Yoshida,1987,,Vieweg+Teubner Verlag,,230,0,English,,,0,"978-3-528-08971-9,978-3-663-14115-0",,,,,,,10.1007/978-3-663-14115-0,,,,0,,1,0,1,,,1,3792402,pdf,dd26e92161108f7c99f4508569239ff7,,,10.1007%2F978-3-663-14115-0.pdf,0,2000-01-01 01:00:00,2016-04-03 02:51:08,1016000/dd26e92161108f7c99f4508569239ff7-d.jpg,,
14913708,Analysis 3: Integralrechnung im IRn mit Anwendungen,,vieweg studium; Aufbaukurs Mathematik 52,,Otto Forster,1981,,Vieweg+Teubner Verlag,,296,0,German,,,0,"978-3-528-07252-0,978-3-663-14081-8",,,,,,,10.1007/978-3-663-14081-8,,,,0,,1,0,1,,,1,6795695,pdf,e01003a5996281b7f206182650196540,,,10.1007%2F978-3-663-14081-8.pdf,0,2000-01-01 01:00:00,2016-04-03 02:51:08,1016000/e01003a5996281b7f206182650196540-d.jpg,,
14913707,Око Роду. Книга друга,,,,Відун Рувит,2008,,ФОП Данилюк В.Г.,Вінниця,303,0,Ukrainian,,toloka.hurtom.com,0,978-966-2917-60-4,,,821.161.2-1,84.4УКР6-5,,,,,,,0,,,,,,,1,46971189,pdf,6dc4233544e813d71235efce62b07805,,,Відун Рувит - Око Роду - small,0,2000-01-01 01:00:00,2016-04-03 02:51:08,1016000/6dc4233544e813d71235efce62b07805-g.jpg,,
14913706,Proficiency and Beliefs in Learning and Teaching Mathematics: Learning from Alan Schoenfeld and Günter Törner,,Mathematics Teaching and Learning,,"Yeping Li, Judit N. Moschkovich (auth.), Yeping Li, Judit N. Moschkovich (eds.)",2013,,SensePublishers,,310,0,German,,,,978-94-6209-299-0,,,,,,,10.1007/978-94-6209-299-0,,,,0,,1,0,1,,,1,2447149,pdf,e039962f2d4cb7339fe9bfd8ae2c250f,,,10.1007%2F978-94-6209-299-0.pdf,0,2000-01-01 01:00:00,2016-04-03 02:51:08,http://link.springer.com/static-content/covers/books/602/9789462092990.jpg,,
14913704,"Konzentrationsmessungen von Pharmaka, Bedeutung für Klinik und Praxis",,,,"K. Hierholzer, N. Rietbrock",1980,,Vieweg+Teubner Verlag,,144,0,German,,,0,"978-3-528-07904-8,978-3-663-14065-8",,,,,,,10.1007/978-3-663-14065-8,,,,0,,1,0,1,,,1,8700885,pdf,25b09498761d50e898a4df5ae41474d2,,,10.1007%2F978-3-663-14065-8.pdf,0,2000-01-01 01:00:00,2016-04-03 02:51:08,1016000/25b09498761d50e898a4df5ae41474d2-d.jpg,,
14913705,Johannes Philoponos: De opificio mundi,,Beiträge zur Altertumskunde 135,,Ludwig Fladerer,1999,,Vieweg+Teubner Verlag,,421,0,German,,,0,"978-3-519-07684-1,978-3-663-14076-4",,,,,,,10.1007/978-3-663-14076-4,,,,0,,1,0,1,,,1,12490752,pdf,bbfcd0f2dc9846cb850e9a193af042c6,,,10.1007%2F978-3-663-14076-4.pdf,0,2000-01-01 01:00:00,2016-04-03 02:51:08,1016000/bbfcd0f2dc9846cb850e9a193af042c6-d.jpg,,
14913703,Lavrentivs Bonincontrivs Miniatensis: De Rebvs Natvralibvs et Divinis,,Beiträge zur Altertumskunde 129,,Stephan Heilen,1999,,Vieweg+Teubner Verlag,,682,0,English,,,0,"978-3-519-07678-0,978-3-663-14061-0",,,,,,,10.1007/978-3-663-14061-0,,,,0,,1,0,1,,,1,26457815,pdf,8c5425a2e2bc96a3048785ff996b5be1,,,10.1007%2F978-3-663-14061-0.pdf,0,2000-01-01 01:00:00,2016-04-03 02:51:08,1016000/8c5425a2e2bc96a3048785ff996b5be1-d.jpg,,
14913702,Manifolds and Modular Forms,,Aspects of Mathematics E 20,,"Friedrich Hirzebruch, Thomas Berger, Rainer Jung",1992,,Vieweg+Teubner Verlag,,216,0,English,,,0,"978-3-528-06414-3,978-3-663-14045-0",,,,,,,10.1007/978-3-663-14045-0,,,,0,,1,0,1,,,1,9342229,pdf,fba2335a29ab70a24d5acdd60c39a138,,,10.1007%2F978-3-663-14045-0.pdf,0,2000-01-01 01:00:00,2016-04-03 02:51:08,1016000/fba2335a29ab70a24d5acdd60c39a138-d.jpg,,
14913701,"Multidisciplinary Approach to Earthquake Prediction: Proceedings of the International Symposium on Earthquake Prediction in the North Anatolian Fault Zone held in Istanbul, March 31–April 5, 1980",,Progress in Earthquake Prediction Research 2,,"A. M. C. Şengör, Kevin Burke, John F. Dewey, A. Mete Işikara, Andreas Vogel",1982,,Vieweg+Teubner Verlag,,565,0,English,,,0,"978-3-528-08482-0,978-3-663-14015-3",,,,,,,10.1007/978-3-663-14015-3,,,,0,,1,0,1,,,1,22170892,pdf,6fbc085885a1b5cf1788c8f50fef83f9,,,10.1007%2F978-3-663-14015-3.pdf,0,2000-01-01 01:00:00,2016-04-03 02:51:08,1016000/6fbc085885a1b5cf1788c8f50fef83f9-d.jpg,,
14913700,Russian Painting,,Temporis Collection,,Peter Leek,2005,,Parkstone Press,,272,0,English,57,,0,"1859959393,9781859959398",,,,,,,,,,,0,,,,1,0,1,1,91757255,pdf,2e498f0c23bc7e9b06c50ac8f43984d4,,,1859959393RusPaint,0,2000-01-01 01:00:00,2016-04-03 02:51:08,http://ecx.images-amazon.com/images/I/51baJYWyv1L.jpg,,
14913699,Reflections on Naturalism,,,,"Alberto Cordero, José Ignacio Galparsoro (auth.), José Ignacio Galparsoro, Alberto Cordero (eds.)",2013,,SensePublishers,,174,0,English,,,,978-94-6209-296-9,,,,,,,10.1007/978-94-6209-296-9,,,,0,,1,0,1,,,1,1177533,pdf,2dc135eeec6094e808440a26c036d090,,,10.1007%2F978-94-6209-296-9.pdf,0,2000-01-01 01:00:00,2016-04-03 02:51:08,http://link.springer.com/static-content/covers/books/686/9789462092969.jpg,,
14913698,Normierung von Geschäftsgraphiken: 100 Diagramm-Formatvorlagen für MS-Chart,,,,"Heiner Abels, Horst Degen, B. Regina, Rolf B. Baumeister",1986,,Vieweg+Teubner Verlag,,345,0,German,,,0,"978-3-528-04469-5,978-3-663-14009-2",,,,,,,10.1007/978-3-663-14009-2,,,,0,,1,0,1,,,1,18494682,pdf,c15d72c0eb59d2cc0adf38629aecd262,,,10.1007%2F978-3-663-14009-2.pdf,0,2000-01-01 01:00:00,2016-04-03 02:51:08,1016000/c15d72c0eb59d2cc0adf38629aecd262-d.jpg,,
14913696,Purpose in Life: A Critical Component of Optimal Youth Development,,,,Kendall Cotton Bronk (auth.),2014,,Springer Netherlands,,"X, 175 p. 1 illus.",0,English,,,,"978-94-007-7490-2,978-94-007-7491-9",,,,,,,10.1007/978-94-007-7491-9,,,,0,,1,0,1,,,1,1806113,pdf,a4f89fbad080548d53493dfe1fb74845,,,10.1007%2F978-94-007-7491-9.pdf,0,2000-01-01 01:00:00,2016-04-03 02:51:08,http://link.springer.com/static-content/covers/books/272/9789400774919.jpg,,
14913697,Activity Theory in Formal and Informal Science Education,,Cultural and Historical Perspectives on Science Education,,"Katerina Plakitsi (auth.), Katerina Plakitsi (eds.)",2013,,SensePublishers,,254,0,English,,,,978-94-6091-317-4,,,,,,,10.1007/978-94-6091-317-4,,,,0,,1,0,1,,,1,6417257,pdf,45ef06fba4d167ccf69f200f6df37cac,,,10.1007%2F978-94-6091-317-4.pdf,0,2000-01-01 01:00:00,2016-04-03 02:51:08,http://link.springer.com/static-content/covers/books/728/9789460913174.jpg,,
14913695,Zwischenprüfungstraining Bankfachklasse: Programmierte Aufgaben mit Lösungen,,Prüfungstraining für Bankkaufleute,,"Wolfgang Grundmann, Rudolf Rathner (auth.)",2013,,Gabler Verlag,,"VIII, 309 S.",0,German,,,,"978-3-8349-4583-9,978-3-8349-4584-6",,,,,,,10.1007/978-3-8349-4584-6,,,,0,,1,0,1,,,1,52693103,pdf,7ab248b6e34bd882f561c001e3f15d75,,,10.1007%2F978-3-8349-4584-6.pdf,0,2000-01-01 01:00:00,2016-04-03 02:51:08,http://link.springer.com/static-content/covers/books/818/9783834945846.jpg,,
14913694,"Numerical Techniques for Boundary Element Methods: Proceedings of the Seventh GAMM-Seminar Kiel, January 25–27, 1991",,Notes on Numerical Fluid Mechanics (NNFM) 33 7,,"H. Antes, K. Volk, Wolfgang Hackbusch",1992,,Vieweg+Teubner Verlag,,202,0,English,,,0,"978-3-528-07633-7,978-3-663-14005-4",,,,,,,10.1007/978-3-663-14005-4,,,,0,,1,0,1,,,1,5747411,pdf,3f1db1ed0185f667e2c30c0f4f1ab0ef,,,10.1007%2F978-3-663-14005-4.pdf,0,2000-01-01 01:00:00,2016-04-03 02:51:08,1016000/3f1db1ed0185f667e2c30c0f4f1ab0ef-d.jpg,,
14913693,Містифікація тисячоліть. Книга третя,,,,Відун Рувит,2008,,ФОП Данилюк В.Г.,Вінниця,371,0,Ukrainian,,toloka.hurtom.com,0,978-966-2917-89-5,,,821.161.2-1,84.4УКР6-5,,,,,,,0,,,,,,,1,55995874,pdf,e7d1f8471e8cbc7a00ebe9a175996bbb,,,Відун Рувит - містифікація тисячоліть - small,0,2000-01-01 01:00:00,2016-04-03 02:51:08,1016000/e7d1f8471e8cbc7a00ebe9a175996bbb-g.jpg,,
14913692,"Numerical Treatment of the Navier-Stokes Equations: Proceedings of the Fifth GAMM-Seminar, Kiel, January 20–22, 1989",,Notes on Numerical Fluid Mechanics (NNFM) 30 5,,"Rainer Ansorge, Wolfgang Hackbusch, Rolf Rannacher",1990,,Vieweg+Teubner Verlag,,174,0,English,,,0,"978-3-528-07630-6,978-3-663-14004-7",,,,,,,10.1007/978-3-663-14004-7,,,,0,,1,0,1,,,1,7691516,pdf,294dc96bd66f4d99923e0c274d28c49b,,,10.1007%2F978-3-663-14004-7.pdf,0,2000-01-01 01:00:00,2016-04-03 02:51:08,1016000/294dc96bd66f4d99923e0c274d28c49b-d.jpg,,
14913691,WordPerfect von A‥Z: Das vollständige Nachschlagewerk für das Textverarbeitungssystem mit vielen Beispielen und Querverweisen für Version 5,,,,Frieder Middelhauve,1990,,Vieweg+Teubner Verlag,,288,0,German,,,0,"978-3-528-04739-9,978-3-663-13868-6",,,,,,,10.1007/978-3-663-13868-6,,,,0,,1,0,1,,,1,9197357,pdf,6c5c02b9845e5e6ff310a72085914597,,,10.1007%2F978-3-663-13868-6.pdf,0,2000-01-01 01:00:00,2016-04-03 02:51:08,1016000/6c5c02b9845e5e6ff310a72085914597-d.jpg,,
14913690,Absatzwerbung,,Betrieb und Markt 10,,Karl Christian Behrens,1976,,Gabler Verlag,,238,0,English,,,0,"978-3-409-36672-4,978-3-663-13857-0",,,,,,,10.1007/978-3-663-13857-0,,,,0,,1,0,1,,,1,10927318,pdf,0f4cbbcb60e66e322910381b6c63d5ba,,,10.1007%2F978-3-663-13857-0.pdf,0,2000-01-01 01:00:00,2016-04-03 02:51:08,1016000/0f4cbbcb60e66e322910381b6c63d5ba-d.jpg,,
14913689,"Allgemeine Betriebswirtschaftslehre: Aufbau, Ablauf, Führung, Leitung",,,,Wolfgang Korndörfer,1986,,Gabler Verlag,,408,0,German,,,0,"978-3-409-32053-5,978-3-663-13847-1",,,,,,,10.1007/978-3-663-13847-1,,,,0,,1,0,1,,,1,13617706,pdf,339935caacaccc34fc8e6a2d8e40e5da,,,10.1007%2F978-3-663-13847-1.pdf,0,2000-01-01 01:00:00,2016-04-03 02:51:08,1016000/339935caacaccc34fc8e6a2d8e40e5da-d.jpg,,
14913687,Bank-Lexikon: Handwörterbuch für das Bank- und Sparkassenwesen,,,,Gerhard Müller,1961,,Gabler Verlag,,736,0,German,,,0,"978-3-663-12766-6,978-3-663-13799-3",,,,,,,10.1007/978-3-663-13799-3,,,,0,,1,0,1,,,1,56906314,pdf,86b58bc5ae382637526532a606f53ef3,,,10.1007%2F978-3-663-13799-3.pdf,0,2000-01-01 01:00:00,2016-04-03 02:51:08,1016000/86b58bc5ae382637526532a606f53ef3-d.jpg,,
14913688,Allgemeine Betriebswirtschaftslehre: Allgemeine Theorie der Betriebswirtschaft,,Gabler-Studientexte,,M. R. Lehmann,1956,,Gabler Verlag,,343,0,German,,,0,"978-3-663-12780-2,978-3-663-13843-3",,,,,,,10.1007/978-3-663-13843-3,,,,0,,1,0,1,,,1,20538633,pdf,4779985e800f09d2e51e50d1f2862c50,,,10.1007%2F978-3-663-13843-3.pdf,0,2000-01-01 01:00:00,2016-04-03 02:51:08,1016000/4779985e800f09d2e51e50d1f2862c50-d.jpg,,
14913686,The battle of the St. Lawrence: the Second World War in Canada,,,,Nathan M. Greenfield,2004,,HarperCollins Publishers,,0,0,English,67,,0,"0002006642, 9780002006644, 0006394507, 9780006394501, 9781443401494",,,,,940.5435943,D779.C2G73 2004,,Ja2YZoRh5EQC,,,0,,,,,0,,,3316208,epub,ba36f8cde7d9082f6e907bc6e30a06d9,,,The Battle of the St. Lawrence,0,2000-01-01 01:00:00,2016-04-03 02:51:08,1016000/ba36f8cde7d9082f6e907bc6e30a06d9-d.jpg,,
14913685,Begleitheft zum 1. Semester für das Fernseminar zum Fachkaufmann für Organisation,,,,Horst Lindelaub,1983,,Gabler Verlag,,15,0,German,,,0,"978-3-663-12759-8,978-3-663-13786-3",,,,,,,10.1007/978-3-663-13786-3,,,,0,,1,0,1,,,1,512084,pdf,c75a8e6e37751ee2bafb51e7153077c2,,,10.1007%2F978-3-663-13786-3.pdf,0,2000-01-01 01:00:00,2016-04-03 02:51:08,1016000/c75a8e6e37751ee2bafb51e7153077c2-d.jpg,,
14913683,Betriebliches Personalwesen,,,,N. Arndt,1982,,Gabler Verlag,,62,0,German,,,0,"978-3-409-00133-5,978-3-663-13762-7",,,,,,,10.1007/978-3-663-13762-7,,,,0,,1,0,1,,,1,2037005,pdf,0dcf64ff898142c965759fa07159b921,,,10.1007%2F978-3-663-13762-7.pdf,0,2000-01-01 01:00:00,2016-04-03 02:51:08,1016000/0dcf64ff898142c965759fa07159b921-d.jpg,,
14913684,Berufsrecht und Berufsordnung der steuerberatenden Berufe,,Fachbücher für die Wirtschaft,,Peter Goetze,1957,,Gabler Verlag,,77,0,German,,,0,"978-3-663-12756-7,978-3-663-13780-1",,,,,,,10.1007/978-3-663-13780-1,,,,0,,1,0,1,,,1,2349442,pdf,188ae50f2b1299ab3fa907fa4a7f41d5,,,10.1007%2F978-3-663-13780-1.pdf,0,2000-01-01 01:00:00,2016-04-03 02:51:08,1016000/188ae50f2b1299ab3fa907fa4a7f41d5-d.jpg,,
14913682,Betriebswirtschaftliches Literatur-Lexikon: Bibliographie für die Jahre 1955 – 1958,,,,Eva Däbritz,1959,,Gabler Verlag,,280,0,German,,,0,"978-3-663-12747-5,978-3-663-13746-7",,,,,,,10.1007/978-3-663-13746-7,,,,0,,1,0,1,,,1,15520859,pdf,340e047ab408ae5fd3e1f4fafa3fb6f6,,,10.1007%2F978-3-663-13746-7.pdf,0,2000-01-01 01:00:00,2016-04-03 02:51:08,1016000/340e047ab408ae5fd3e1f4fafa3fb6f6-d.jpg,,
14913681,Raspberry Pi for secret agents,,,,Stefan Sjogelid,2013,,Packt Publishing,,152,0,English,,,0,"1849695784,9781849695787,1849695792,9781849695794",,,,,,,,bDQThQtYXKUC,,,0,,,,,0,,,6357363,epub,8cfa9e75c74e36ec63f6ee79ae5076d8,,,Raspberry Pi for secret agents,0,2000-01-01 01:00:00,2016-04-03 02:51:08,1016000/59dc1a4c39ebc92c8add16f0e599e6d2-d.jpg,,
14913679,Buchführung und Jahresabschluß,,,,"Gottfried Bähr, Wolf F. Fischer-Winkelmann",1990,,Gabler Verlag,,516,0,German,,,0,"978-3-409-31401-5,978-3-663-13688-0",,,,,,,10.1007/978-3-663-13688-0,,,,0,,1,0,1,,,1,13220819,pdf,ed848f598179c2223fada6a22747b4d9,,,10.1007%2F978-3-663-13688-0.pdf,0,2000-01-01 01:00:00,2016-04-03 02:51:08,1016000/ed848f598179c2223fada6a22747b4d9-d.jpg,,
14913680,Raspberry Pi for secret agents,,,,Stefan Sjogelid,2013,,Packt Publishing,,152,0,English,,,0,"1849695784,9781849695787,1849695792,9781849695794",,,,,,,,bDQThQtYXKUC,,,0,,,,,0,1,1,3375054,pdf,59dc1a4c39ebc92c8add16f0e599e6d2,,,Raspberry Pi for secret agents,0,2000-01-01 01:00:00,2016-04-03 02:51:08,1016000/59dc1a4c39ebc92c8add16f0e599e6d2-d.jpg,,
14913678,Pleasure in Ancient Greek Philosophy,,Key Themes in Ancient Philosophy,,David Wolfsdorf,2012,,Cambridge University Press,,322,0,English,195,,0,"0521149754,9780521149754",,,,,,,,,,,0,,,,,,,1,1409924,pdf,ff96a5b54ca12dc64f9ecf9c4c2bf74a,,,0521761301,0,2000-01-01 01:00:00,2016-04-03 02:51:08,1016000/ff96a5b54ca12dc64f9ecf9c4c2bf74a-d.jpg,,
14913677,Buchführung und Periodenrechnung im Versicherungsunternehmen,,Die Versicherung,,Dieter Farny,1985,,Gabler Verlag,,201,0,German,,,0,"978-3-409-82811-6,978-3-663-13685-9",,,,,,,10.1007/978-3-663-13685-9,,,,0,,1,0,1,,,1,6519016,pdf,25670e4698f7aa6b794db155ca0d7176,,,10.1007%2F978-3-663-13685-9.pdf,0,2000-01-01 01:00:00,2016-04-03 02:51:08,1016000/25670e4698f7aa6b794db155ca0d7176-d.jpg,,
14913675,jQuery game development essentials,,,,Selim Arsever,2013,,Packt Publishing,,244,0,English,,,0,"1849695067,9781849695060,1849695075, 9781849695077",,,,,,,,fE99CuIXP7gC,,,0,,,,,0,1,1,3221241,pdf,07bfa704e56f1d27dfd2e1ba59580d95,,,jQuery game development essentials,0,2000-01-01 01:00:00,2016-04-03 02:51:08,1016000/7d66632184130fbf91f62e87e7f01a36-d.jpg,,
14913676,Computer + Programmieren = Elektronische Datenverarbeitung,,,,Klaus Wilhelm Blutke,1979,,Gabler Verlag,,285,0,German,,,0,"978-3-409-96051-9,978-3-663-13670-5",,,,,,,10.1007/978-3-663-13670-5,,,,0,,1,0,1,,,1,10511026,pdf,f881af27398692077e772000e25b68ae,,,10.1007%2F978-3-663-13670-5.pdf,0,2000-01-01 01:00:00,2016-04-03 02:51:08,1016000/f881af27398692077e772000e25b68ae-d.jpg,,
14913674,jQuery game development essentials,,,,Selim Arsever,2013,,Packt Publishing,,244,0,English,,,0,"1849695067,9781849695060,1849695075, 9781849695077",,,,,,,,fE99CuIXP7gC,,,0,,,,,0,,,4448694,epub,7d66632184130fbf91f62e87e7f01a36,,,jQuery game development essentials,0,2000-01-01 01:00:00,2016-04-03 02:51:08,1016000/7d66632184130fbf91f62e87e7f01a36-d.jpg,,
14913673,Controlling heute: Eine Einführung in die Praxis mit Fallbeispielen,,,,Hellmut Bornemann,1986,,Gabler Verlag,,149,0,German,,,0,"978-3-409-23039-1,978-3-663-13666-8",,,,,,,10.1007/978-3-663-13666-8,,,,0,,1,0,1,,,1,2989116,pdf,5dfe770677d39f7b8a330addb88f987e,,,10.1007%2F978-3-663-13666-8.pdf,0,2000-01-01 01:00:00,2016-04-03 02:51:08,1016000/5dfe770677d39f7b8a330addb88f987e-d.jpg,,
14913672,Das deutsche Kaufmannsbuch: Gemeinverständliches Lehr- und Handbuch für Kaufmannswissen und Kaufmannspraxis,,,,Karl Bott,1953,,Gabler Verlag,,1162,0,German,,,0,"978-3-663-12719-2,978-3-663-13656-9",,,,,,,10.1007/978-3-663-13656-9,,,,0,,1,0,1,,,1,66671087,pdf,dbc52478e018362733d1808e618f9df5,,,10.1007%2F978-3-663-13656-9.pdf,0,2000-01-01 01:00:00,2016-04-03 02:51:08,1016000/dbc52478e018362733d1808e618f9df5-d.jpg,,
14913670,Der Bankbetrieb: Lehrbuch und Aufgabensammlung,,,,Gerhard Diepen,1977,8. Auflage,Gabler Verlag,,671,0,German,,,0,"978-3-409-42151-5,978-3-663-13610-1",,,,,,,10.1007/978-3-663-13610-1,,,,0,,1,0,1,,,1,31677701,pdf,dbcbcb4a7ee9a8a9b7e136d9f1562873,,,10.1007%2F978-3-663-13610-1.pdf,0,2000-01-01 01:00:00,2016-04-03 02:51:08,1016000/dbcbcb4a7ee9a8a9b7e136d9f1562873-d.jpg,,
14913671,Lessons from a lean consultant: avoiding lean implementation failures on the shop floor,,,,Chris A. Ortiz,2008,1,Prentice Hall,,208,0,English,,,0,"0131584634,9780131584631",,,,,658.5—dc22,TS155.O772 2008,,GZgsvukp4kAC,,,0,,,,,0,,,3346487,epub,0d01edbe798b7afaf9aa762421d9ef06,,,Lessons from a lean consultant,0,2000-01-01 01:00:00,2016-04-03 02:51:08,1016000/0d01edbe798b7afaf9aa762421d9ef06-d.JPG,,
14913669,Der Bankbetrieb: Lehrbuch und Aufgabensammlung,,,,Gerhard Diepen,1967,,Gabler Verlag,,598,0,German,,,0,"978-3-663-12708-6,978-3-663-13607-1",,,,,,,10.1007/978-3-663-13607-1,,,,0,,1,0,1,,,1,39692482,pdf,a03196a52cdb5c634975eb073b3550e9,,,10.1007%2F978-3-663-13607-1.pdf,0,2000-01-01 01:00:00,2016-04-03 02:51:08,1016000/a03196a52cdb5c634975eb073b3550e9-d.jpg,,
14913667,Die Finanzwirtschaft der Unternehmung,,,,Eberhard Witte,1976,,Gabler Verlag,,118,0,German,,,0,"978-3-409-37041-7,978-3-663-13541-8",,,,,,,10.1007/978-3-663-13541-8,,,,0,,1,0,1,,,1,3640920,pdf,f71fcf05120b54cbdd08a9fca3a850b2,,,10.1007%2F978-3-663-13541-8.pdf,0,2000-01-01 01:00:00,2016-04-03 02:51:08,1016000/f71fcf05120b54cbdd08a9fca3a850b2-d.jpg,,
14913668,"Deutsch-fremdsprachiges Fachwörterverzeichnis für das Geld-, Bank- und Börsenwesen",,,,,1969,,Gabler Verlag,,96,0,German,,,0,"978-3-663-12689-8,978-3-663-13573-9",,,,,,,10.1007/978-3-663-13573-9,,,,0,,1,0,1,,,1,2783598,pdf,f51b975b46f0ec2f88d9ea2072a9d537,,,10.1007%2F978-3-663-13573-9.pdf,0,2000-01-01 01:00:00,2016-04-03 02:51:08,1016000/f51b975b46f0ec2f88d9ea2072a9d537-d.jpg,,
14913666,Die Kommanditgesellschaft auf Aktien: Rechtliche Gestaltung und wirtschaftliche Bedeutung,,Fachbücher für Wirtschaft,,Manfred Elschenbroich,1959,,Gabler Verlag,,215,0,German,,,0,"978-3-663-12670-6,978-3-663-13535-7",,,,,,,10.1007/978-3-663-13535-7,,,,0,,1,0,1,,,1,10783183,pdf,f5076d5f3759931c87a7529fbd9f4a27,,,10.1007%2F978-3-663-13535-7.pdf,0,2000-01-01 01:00:00,2016-04-03 02:51:08,1016000/f5076d5f3759931c87a7529fbd9f4a27-d.jpg,,
14913665,Die Praxis des Seefrachtgeschäfts: Eine Kiste reist von Deutschland nach Kalkutta,,,,Hans-Joachim Leue,1964,,Gabler Verlag,,86,0,German,,,0,"978-3-663-12658-4,978-3-663-13515-9",,,,,,,10.1007/978-3-663-13515-9,,,,0,,1,0,1,,,1,4206463,pdf,92f615bc7e141bb7c098b16475f97cce,,,10.1007%2F978-3-663-13515-9.pdf,0,2000-01-01 01:00:00,2016-04-03 02:51:08,1016000/92f615bc7e141bb7c098b16475f97cce-d.jpg,,
14913664,Die Wertpapieranlage der Kreditbanken und ihre Bestimmungsfaktoren,,Schriftenreihe des Instituts für Kreditwesen der Westfälischen Wilhelms-Universität Münster 3,,Günter Willners,1966,,Gabler Verlag,,208,0,German,,,0,"978-3-663-12651-5,978-3-663-13501-2",,,,,,,10.1007/978-3-663-13501-2,,,,0,,1,0,1,,,1,13976542,pdf,3764f28d53e9712ee2e8e08a9db5d1b1,,,10.1007%2F978-3-663-13501-2.pdf,0,2000-01-01 01:00:00,2016-04-03 02:51:08,1016000/3764f28d53e9712ee2e8e08a9db5d1b1-d.jpg,,
14913662,,,,,,,,,,207,0,English,,,,,,,,,,,10.1007/978-3-662-16378-8,,,,0,,1,0,1,,,1,10196732,pdf,61022cf843bfecfacd76ab011ec1a146,,,10.1007%2F978-3-662-16378-8.pdf,0,2000-01-01 01:00:00,2016-04-03 02:51:08,http://link.springer.com/static-content/covers/books/.jpg,,
14913663,"Cohomologie Galoisienne: Cours au Collège de France, 1962–1963",,Lecture Notes in Mathematics 5,,Jean-Pierre Serre (auth.),1973,,Springer Berlin Heidelberg,,217 p.Show next edition,0,English,,,,"978-3-540-06084-0,978-3-662-21553-1",,,,,,,10.1007/978-3-662-21553-1,,,,0,,1,0,1,,,1,9684655,pdf,eef81e184454ed044b302d743adc42a7,,,10.1007%2F978-3-662-21553-1.pdf,0,2000-01-01 01:00:00,2016-04-03 02:51:08,http://link.springer.com/static-content/covers/books/268/9783662215531.jpg,,
14913661,Public Attitudes towards Family Policies in Europe: Linking Institutional Context and Public Opinion,,,,Monika Mischke (auth.),2014,,Springer Fachmedien Wiesbaden,,"X, 230 p. 10 illus.",0,English,,,,"978-3-658-03576-1,978-3-658-03577-8",,,,,,,10.1007/978-3-658-03577-8,,,,0,,1,0,1,,,1,1878931,pdf,f367002de3df648bac772dcc160f78f5,,,10.1007%2F978-3-658-03577-8.pdf,0,2000-01-01 01:00:00,2016-04-03 02:51:08,http://link.springer.com/static-content/covers/books/500/9783658035778.jpg,,
14913660,Seismic Design of Industrial Facilities: Proceedings of the International Conference on Seismic Design of Industrial Facilities (SeDIF-Conference),,,,"Mustafa Erdik, Eren Uckan (auth.), Sven Klinkel, Christoph Butenweg, Gao Lin, Britta Holtschoppen (eds.)",2014,,Springer Fachmedien Wiesbaden,,"XIII, 640 p. 341 illus.",0,English,,,,"978-3-658-02809-1,978-3-658-02810-7",,,,,,,10.1007/978-3-658-02810-7,,,,0,,1,0,1,,,1,26405882,pdf,c9b3fd72f3fe8258d1635f48adb4d3af,,,10.1007%2F978-3-658-02810-7.pdf,0,2000-01-01 01:00:00,2016-04-03 02:51:08,http://link.springer.com/static-content/covers/books/632/9783658028107.jpg,,
14913659,Agentenbasierte Schwarmintelligenz,,,,Tjorben Bogon (auth.),2013,,Springer Fachmedien Wiesbaden,,171,0,German,,,,"978-3-658-02291-4,978-3-658-02292-1",,,,,,,10.1007/978-3-658-02292-1,,,,0,,1,0,1,,,1,2277265,pdf,3c9dd8c2129ce28f68d42174def937e1,,,10.1007%2F978-3-658-02292-1.pdf,0,2000-01-01 01:00:00,2016-04-03 02:51:08,http://link.springer.com/static-content/covers/books/634/9783658022921.jpg,,
14913658,Betriebliches Gesundheitsmanagement für die Praxis: Ein Leitfaden zur systematischen Umsetzung der DIN SPEC 91020,,,,Martin Kaminski (auth.),2013,,Springer Fachmedien Wiesbaden,,"XII, 146 S. 42 Abb.",0,German,,,,"978-3-658-01273-1,978-3-658-01274-8",,,,,,,10.1007/978-3-658-01274-8,,,,0,,1,0,1,,,1,2282418,pdf,c8ca161d571d64377cdfa68c76194818,,,10.1007%2F978-3-658-01274-8.pdf,0,2000-01-01 01:00:00,2016-04-03 02:51:08,http://link.springer.com/static-content/covers/books/8/9783658012748.jpg,,
14913657,"Trustworthy Global Computing: 7th International Symposium, TGC 2012, Newcastle upon Tyne, UK, September 7-8, 2012, Revised Selected Papers",,Lecture Notes in Computer Science 8191,,"Antoine Amarilli, Fabrice Ben Hamouda, Florian Bourse (auth.), Catuscia Palamidessi, Mark D. Ryan (eds.)",2013,,Springer Berlin Heidelberg,,"X, 213 p. 37 illus.",0,English,,,,"978-3-642-41156-4,978-3-642-41157-1",,,,,,,10.1007/978-3-642-41157-1,,,,0,,1,0,1,,,1,3019287,pdf,b11ccf962a65f2c9f9708bd5c7832360,,,10.1007%2F978-3-642-41157-1.pdf,0,2000-01-01 01:00:00,2016-04-03 02:51:08,http://link.springer.com/static-content/covers/books/228/9783642411571.jpg,,
14913656,"Security and Trust Management: 9th International Workshop, STM 2013, Egham, UK, September 12-13, 2013. Proceedings",,Lecture Notes in Computer Science 8203,,"Costas Delakouridis, Christos Anagnostopoulos (auth.), Rafael Accorsi, Silvio Ranise (eds.)",2013,,Springer Berlin Heidelberg,,"X, 235 p. 53 illus.",0,English,,,,"978-3-642-41097-0,978-3-642-41098-7",,,,,,,10.1007/978-3-642-41098-7,,,,0,,1,0,1,,,1,3930936,pdf,3179adcd9112e61750f90c601de16a82,,,10.1007%2F978-3-642-41098-7.pdf,0,2000-01-01 01:00:00,2016-04-03 02:51:08,http://link.springer.com/static-content/covers/books/138/9783642410987.jpg,,
14913655,"Artificial Neural Networks and Machine Learning – ICANN 2013: 23rd International Conference on Artificial Neural Networks Sofia, Bulgaria, September 10-13, 2013. Proceedings",,Lecture Notes in Computer Science 8131,,"Botond Attila Bócsi, Lehel Csató (auth.), Valeri Mladenov, Petia Koprinkova-Hristova, Günther Palm, Alessandro E. P. Villa, Bruno Appollini, Nikola Kasabov (eds.)",2013,,Springer Berlin Heidelberg,,"XVIII, 643 p. 231 illus.",0,English,,,,"978-3-642-40727-7,978-3-642-40728-4",,,,,,,10.1007/978-3-642-40728-4,,,,0,,1,0,1,,,1,22043244,pdf,e4a99b25da26948bb00f356e80a4fd7f,,,10.1007%2F978-3-642-40728-4.pdf,0,2000-01-01 01:00:00,2016-04-03 02:51:08,http://link.springer.com/static-content/covers/books/852/9783642407284.jpg,,
14913654,Die beta-inside Galaxie,, ,,Gunter Dueck  (auth.),2013,,Springer Berlin Heidelberg,,176,0,German,,,,"978-3-642-34937-9,978-3-642-34938-6",,,,,,,10.1007/978-3-642-34938-6,,,,0,,1,1,1,,,1,1485928,pdf,fc41004800408099b2df03aa5cea5c88,,,A:\\compressed\\10.1007%2F978-3-642-34938-6.pdf,0,2000-01-01 01:00:00,2016-04-03 02:51:08,976000/fc41004800408099b2df03aa5cea5c88-d.jpg,,
14913653,"Progress in Artificial Intelligence: 16th Portuguese Conference on Artificial Intelligence, EPIA 2013, Angra do Heroísmo, Azores, Portugal, September 9-12, 2013. Proceedings",,Lecture Notes in Computer Science 8154,,"Davide Carneiro, Sérgio Gonçalves, Paulo Novais, José Neves (auth.), Luís Correia, Luís Paulo Reis, José Cascalho (eds.)",2013,,Springer Berlin Heidelberg,,"XXX, 542 p. 172 illus.",0,English,,,,"978-3-642-40668-3,978-3-642-40669-0",,,,,,,10.1007/978-3-642-40669-0,,,,0,,1,0,1,,,1,13833601,pdf,8050419882d65f9255bbbf01b9d73035,,,10.1007%2F978-3-642-40669-0.pdf,0,2000-01-01 01:00:00,2016-04-03 02:51:08,http://link.springer.com/static-content/covers/books/772/9783642406690.jpg,,
14913652,Die subjektive Seite der Stadt: Neue politische Herausforderungen und die Bedeutung von Eliten im lokalen Bereich,,,,"Prof. Dr. Frank Eckardt (auth.), Katrin Harm, Jens Aderhold (eds.)",2013,,Springer Fachmedien Wiesbaden,,396,0,German,,,,"978-3-531-18805-8,978-3-531-18806-5",,,,,,,10.1007/978-3-531-18806-5,,,,0,,1,0,1,,,1,3700432,pdf,3ea14150440c74e933681ee92699b600,,,10.1007%2F978-3-531-18806-5.pdf,0,2000-01-01 01:00:00,2016-04-03 02:51:08,http://link.springer.com/static-content/covers/books/562/9783531188065.jpg,,
14913651,Robustness in Statistical Forecasting,,,,Yuriy Kharin (auth.),2013,,Springer International Publishing,,"XVI, 356 p. 47 illus.",0,English,,,,"978-3-319-00839-4,978-3-319-00840-0",,,,,,,10.1007/978-3-319-00840-0,,,,0,,1,0,1,,,1,4003398,pdf,a41b629b6adc0714ea7eaed4721c23c5,,,10.1007%2F978-3-319-00840-0.pdf,0,2000-01-01 01:00:00,2016-04-03 02:51:08,http://link.springer.com/static-content/covers/books/884/9783319008400.jpg,,
14913650,Representations of Linear Operators Between Banach Spaces,,Operator Theory: Advances and Applications 238,,"David E. Edmunds, W. Desmond Evans (auth.)",2013,,Springer Basel,,164,0,English,,,,"978-3-0348-0641-1,978-3-0348-0642-8",,,,,,,10.1007/978-3-0348-0642-8,,,,0,,1,0,1,,,1,1718827,pdf,f69d042e6d32a0d2f273772a4eebf74d,,,10.1007%2F978-3-0348-0642-8.pdf,0,2000-01-01 01:00:00,2016-04-03 02:51:08,http://link.springer.com/static-content/covers/books/694/9783034806428.jpg,,
14913648,Web Services Foundations,,,,"Mohammed AbuJarour, Ahmed Awad (auth.), Athman Bouguettaya, Quan Z. Sheng, Florian Daniel (eds.)",2014,,Springer New York,,"XIX, 739 p. 205 illus.",0,English,,,,"978-1-4614-7517-0,978-1-4614-7518-7",,,,,,,10.1007/978-1-4614-7518-7,,,,0,,1,0,1,,,1,15852554,pdf,e125732cad8c1c2d6e5537d1a466b055,,,10.1007%2F978-1-4614-7518-7.pdf,0,2000-01-01 01:00:00,2016-04-03 02:51:08,http://link.springer.com/static-content/covers/books/428/9781461475187.jpg,,
14913649,"National Intellectual Capital and the Financial Crisis in Israel, Jordan, South Africa, and Turkey",,SpringerBriefs in Economics 16,,"Carol Yeh-Yun Lin, Leif Edvinsson, Jeffrey Chen, Tord Beding (auth.)",2014,,Springer New York,,"XXIX, 107 p. 39 illus. 37 illus. in color.",0,English,,,,"978-1-4614-7980-2,978-1-4614-7981-9",,,,,,,10.1007/978-1-4614-7981-9,,,,0,,1,0,1,,,1,2725737,pdf,5722ce1a22a00d8e6781b62a97954fb1,,,10.1007%2F978-1-4614-7981-9.pdf,0,2000-01-01 01:00:00,2016-04-03 02:51:08,http://link.springer.com/static-content/covers/books/752/9781461479819.jpg,,
14913647,Java Quick Syntax Reference,,,,Mikael Olsson (auth.),2013,,Apress,,80,0,English,,,,"978-1-4302-6286-2,978-1-4302-6287-9",,,,,,,10.1007/978-1-4302-6287-9,,,,0,,1,0,1,,,1,526114,pdf,ffbc0422473457c756c27c988a260c39,,,10.1007%2F978-1-4302-6287-9.pdf,0,2000-01-01 01:00:00,2016-04-03 02:51:08,http://link.springer.com/static-content/covers/books/940/9781430262879.jpg,,
14913645,Science Fiction and Speculative Fiction: Challenging Genres,,Critical Literacy Teaching Series,,"P. L. Thomas (auth.), P. L. Thomas (eds.)",2013,,SensePublishers,,219,0,English,,,,978-94-6209-380-5,,,,,,,10.1007/978-94-6209-380-5,,,,0,,1,0,1,,,1,1523487,pdf,feeca739f0b82aeeebf19987f4283eba,,,10.1007%2F978-94-6209-380-5.pdf,0,2000-01-01 01:00:00,2016-04-03 02:51:08,http://link.springer.com/static-content/covers/books/46/9789462093805.jpg,,
14913646,PHP Quick Scripting Reference,,,,Mikael Olsson (auth.),2013,,Apress,,120,0,English,,,,"978-1-4302-6283-1,978-1-4302-6284-8",,,,,,,10.1007/978-1-4302-6284-8,,,,0,,1,0,1,,,1,670523,pdf,5314420c8b0a778d44506b095e72a088,,,10.1007%2F978-1-4302-6284-8.pdf,0,2000-01-01 01:00:00,2016-04-03 02:51:08,http://link.springer.com/static-content/covers/books/34/9781430262848.jpg,,
14913644,Educating Health Professionals: Becoming a University Teacher,,"Practice, Education, Work and Society",,"Stephen Loftus PhD, Tania Gerzina PhD (auth.), Stephen Loftus, Tania Gerzina, Joy Higgs, Megan Smith, Elaine Duffy (eds.)",2013,,SensePublishers,,345,0,English,,,,978-94-6209-353-9,,,,,,,10.1007/978-94-6209-353-9,,,,0,,1,0,1,,,1,2641907,pdf,0cdd3a2b23c03dba575af9bc1a11cdfe,,,10.1007%2F978-94-6209-353-9.pdf,0,2000-01-01 01:00:00,2016-04-03 02:51:08,http://link.springer.com/static-content/covers/books/832/9789462093539.jpg,,
14913643,Capacity Building for School Improvement: Revisited,,Contemporary Approaches to Research in Learning Innovations,,Patricia Stringer (auth.),2013,,SensePublishers,,137,0,English,,,,978-94-6209-329-4,,,,,,,10.1007/978-94-6209-329-4,,,,0,,1,0,1,,,1,1666709,pdf,0192b2e2924f4398f724491c3209a233,,,10.1007%2F978-94-6209-329-4.pdf,0,2000-01-01 01:00:00,2016-04-03 02:51:08,http://link.springer.com/static-content/covers/books/534/9789462093294.jpg,,
14913642,The Creation of a Professional Learning Community for School Leaders: Insights on the Change Process from the Lens of the School Leader,,,,Amalia Humada-LudekeCarlos (auth.),2013,,SensePublishers,,157,0,English,,,,978-94-6209-320-1,,,,,,,10.1007/978-94-6209-320-1,,,,0,,1,0,1,,,1,621438,pdf,62b4eab6614e7881a42a1548867f5470,,,10.1007%2F978-94-6209-320-1.pdf,0,2000-01-01 01:00:00,2016-04-03 02:51:08,http://link.springer.com/static-content/covers/books/816/9789462093201.jpg,,
14913641,Zombie Seed and the Butterfly Blues: A Case of Social Justice,,Social Fictions Series,,"R. P. Clair (auth.), R. P. Clair (eds.)",2013,,SensePublishers,,354,0,English,,,,978-94-6209-308-9,,,,,,,10.1007/978-94-6209-308-9,,,,0,,1,0,1,,,1,1853328,pdf,d7647e6ecf8e6a470d7e7bdfaefc729b,,,10.1007%2F978-94-6209-308-9.pdf,0,2000-01-01 01:00:00,2016-04-03 02:51:08,http://link.springer.com/static-content/covers/books/482/9789462093089.jpg,,
14913639,Mathematics Classrooms: Students’ Activities and Teachers’ Practices,,,,"Fabrice Vandebrouck (auth.), Fabrice Vandebrouck (eds.)",2013,,SensePublishers,,257,0,English,,,,978-94-6209-281-5,,,,,,,10.1007/978-94-6209-281-5,,,,0,,1,0,1,,,1,2528089,pdf,0d1ab1c3ca267f505eb0e7e65ae99656,,,10.1007%2F978-94-6209-281-5.pdf,0,2000-01-01 01:00:00,2016-04-03 02:51:08,http://link.springer.com/static-content/covers/books/806/9789462092815.jpg,,
14913640,Engaged Scholarship: The Politics of Engagement and Disengagement,,Comparative and International Education,,"Tania Kajner, Lynette Shultz (auth.), Lynette Shultz, Tania Kajner (eds.)",2013,,SensePublishers,,193,0,English,,,,978-94-6209-290-7,,,,,,,10.1007/978-94-6209-290-7,,,,0,,1,0,1,,,1,775740,pdf,ffb6bab20cf2894bcc970a43ee729071,,,10.1007%2F978-94-6209-290-7.pdf,0,2000-01-01 01:00:00,2016-04-03 02:51:08,http://link.springer.com/static-content/covers/books/874/9789462092907.jpg,,
14913638,Counselling for Career Construction: Connecting life themes to construct life portraits: Turning pain into hope,,,,J. G. Maree (auth.),2013,,SensePublishers,,144,0,English,,,,978-94-6209-272-3,,,,,,,10.1007/978-94-6209-272-3,,,,0,,1,0,1,,,1,1244650,pdf,d802b2ee6f2f382050e36473575c8469,,,10.1007%2F978-94-6209-272-3.pdf,0,2000-01-01 01:00:00,2016-04-03 02:51:08,http://link.springer.com/static-content/covers/books/738/9789462092723.jpg,,
14913637,The Nature of Technology: Implications for Learning and Teaching,,,,"Michael P. Clough, Joanne K. Olson, Dale S. Niederhauser (auth.), Michael P. Clough, Joanne K. Olson, Dale S. Niederhauser (eds.)",2013,,SensePublishers,,449,0,English,,,,978-94-6209-269-3,,,,,,,10.1007/978-94-6209-269-3,,,,0,,1,0,1,,,1,2254409,pdf,bb28daed51d3b9666f551f087269c1e1,,,10.1007%2F978-94-6209-269-3.pdf,0,2000-01-01 01:00:00,2016-04-03 02:51:08,http://link.springer.com/static-content/covers/books/482/9789462092693.jpg,,
14913636,Multilingualism and Multimodality: Current Challenges for Educational Studies,,The Future of Education Research,,"Ingrid de Saint-Georges (auth.), Ingrid de Saint-Georges, Jean-Jacques Weber (eds.)",2013,,SensePublishers,,207,0,English,,,,978-94-6209-266-2,,,,,,,10.1007/978-94-6209-266-2,,,,0,,1,0,1,,,1,1168377,pdf,67bdfb9324496d5da39c08bfd57be469,,,10.1007%2F978-94-6209-266-2.pdf,0,2000-01-01 01:00:00,2016-04-03 02:51:08,http://link.springer.com/static-content/covers/books/576/9789462092662.jpg,,
14913635,Excellence in Scholarship: Transcending Transdisciplinarity in Teacher Education,,,,"Sivakumar Alagumalai, Stephanie Burley, John P. Keeves (auth.)",2013,,SensePublishers,,288,0,English,,,,978-94-6209-257-0,,,,,,,10.1007/978-94-6209-257-0,,,,0,,1,0,1,,,1,1820837,pdf,8127e6bbe5d2d0b812f5239ebe472559,,,10.1007%2F978-94-6209-257-0.pdf,0,2000-01-01 01:00:00,2016-04-03 02:51:08,http://link.springer.com/static-content/covers/books/508/9789462092570.jpg,,
14913634,The Creative University,,Creative Education,,"Michael A. Peters, Tina Besley (auth.), Michael A. Peters, Tina Besley (eds.)",2013,,SensePublishers,,190,0,English,,,,978-94-6209-245-7,,,,,,,10.1007/978-94-6209-245-7,,,,0,,1,0,1,,,1,1267628,pdf,b7f6a6729bbc87f083777a0b8c248668,,,10.1007%2F978-94-6209-245-7.pdf,0,2000-01-01 01:00:00,2016-04-03 02:51:08,http://link.springer.com/static-content/covers/books/524/9789462092457.jpg,,
14913633,Private Tutoring Across the Mediterranean: Power Dynamics and Implications for Learning and Equity,,Comparative and International Education,,"Mark Bray, André E. Mazawi, Ronald G. Sultana (auth.), Mark Bray, André E. Mazawi, Ronald G. Sultana (eds.)",2013,,SensePublishers,,221,0,English,,,,978-94-6209-237-2,,,,,,,10.1007/978-94-6209-237-2,,,,0,,1,0,1,,,1,1446793,pdf,77b8ceb92f6a83149b25c050befeaf28,,,10.1007%2F978-94-6209-237-2.pdf,0,2000-01-01 01:00:00,2016-04-03 02:51:08,http://link.springer.com/static-content/covers/books/428/9789462092372.jpg,,
14913631,"Hendrick Goltzius als Maler, 1600–1617",,Quellenstudien zur Holländischen Kunstgeschichte 9,,Dr. O. Hirschmann (auth.),1916,,Springer Netherlands,,121,0,German,,,,"978-94-017-0040-5,978-94-015-7584-3",,,,,,,10.1007/978-94-015-7584-3,,,,0,,1,0,1,,,1,5420210,pdf,98e568d29a17a66beb414a2938934e45,,,10.1007%2F978-94-015-7584-3.pdf,0,2000-01-01 01:00:00,2016-04-03 02:51:08,http://link.springer.com/static-content/covers/books/976/9789401575843.jpg,,
14913632,Political Sociology of Adult Education,,International Issues in adult Education,,Carlos Alberto Torres (auth.),2013,,SensePublishers,,110,0,English,,,,978-94-6209-227-3,,,,,,,10.1007/978-94-6209-227-3,,,,0,,1,0,1,,,1,452925,pdf,9d74791aea17694f46fb1cb89b037e6c,,,10.1007%2F978-94-6209-227-3.pdf,0,2000-01-01 01:00:00,2016-04-03 02:51:08,http://link.springer.com/static-content/covers/books/388/9789462092273.jpg,,
14913630,Die Urkunden über Rembrandt: 1575–1721,,Quellenstudien zur Holländischen Kunstgeschichte,,"Dr. C. Hofstede De Groot (auth.), Dr. C. Hofstede De Groot (eds.)",1906,,Springer Netherlands,,563,0,German,,,,"978-94-015-2047-8,978-94-015-3226-6",,,,,,,10.1007/978-94-015-3226-6,,,,0,,1,0,1,,,1,19318752,pdf,70a4804e629cb35c2e6744012a6582e7,,,10.1007%2F978-94-015-3226-6.pdf,0,2000-01-01 01:00:00,2016-04-03 02:51:08,http://link.springer.com/static-content/covers/books/134/9789401532266.jpg,,
14913628,Bibliographie der Sowjetischen Philosophie: Die ‘Voprosy Filosofii’ 1947–1956,,Sovietica 1,,"Prof. Dr. J. M. Bochenski (auth.), Prof. Dr. J. M. Bochenski (eds.)",1960,,Springer Netherlands,,85,0,German,,,,"978-94-010-3685-6,978-94-010-3684-9",,,,,,,10.1007/978-94-010-3684-9,,,,0,,1,0,1,,,1,5868049,pdf,f7913df379fc65ade500681c2b235017,,,10.1007%2F978-94-010-3684-9.pdf,0,2000-01-01 01:00:00,2016-04-03 02:51:08,http://link.springer.com/static-content/covers/books/18/9789401036849.jpg,,
14913629,Bibliographie der Sowjetischen Philosophie: Bücher 1947–1956; Bücher und Aufsätze 1957–1958; Namenverzeichnis 1946–1958,,Sovietica 2,,"Prof. Dr. J. M. Bochenski (auth.), Prof. Dr. J. M. Bochenski (eds.)",1960,,Springer Netherlands,,117,0,German,,,,"978-94-010-3687-0,978-94-010-3686-3",,,,,,,10.1007/978-94-010-3686-3,,,,0,,1,0,1,,,1,10389364,pdf,7ce7bc89b4861f8cc77ff5109424d2be,,,10.1007%2F978-94-010-3686-3.pdf,0,2000-01-01 01:00:00,2016-04-03 02:51:08,http://link.springer.com/static-content/covers/books/962/9789401036863.jpg,,
14913627,Bibliographie der Sowjetischen Philosophie: Bibliography of Soviet Philosophy V,,Sovietica 17,,"Prof. Dr. J. M. Bocheński (auth.), Prof. Dr. J. M. Bocheński (eds.)",1964,,Springer Netherlands,,150,0,English,,,,"978-94-010-3610-8,978-94-010-3609-2",,,,,,,10.1007/978-94-010-3609-2,,,,0,,1,0,1,,,1,6743109,pdf,9a7311d2727dfd4e6197e41b104433a0,,,10.1007%2F978-94-010-3609-2.pdf,0,2000-01-01 01:00:00,2016-04-03 02:51:08,http://link.springer.com/static-content/covers/books/558/9789401036092.jpg,,
14913626,Hadoop Operations,,,,Eric Sammer,2012,1,O'Reilly Media,,297,0,English,69,,0,978-1-4493-2704-0,,,,,,,,,,,0,,,,,,,1,5796462,pdf,c7deb0096ea18b93bdcb9f52bd0d69d7,,,Sammer E. - Hadoop Operations - 2012,0,2000-01-01 01:00:00,2016-04-03 02:51:08,,,
14913624,The Hamlyn Pictorial History of the 20th Century,,,,Neil Wenborn,1995,,Hamlyn,,592,0,,,,0,"0600587762,9780600587767",,,,,,,,,,,600,,1,,,1,1,1,72699231,djvu,bb01622c0a1d0001973acc377107b1ff,,,Hamlyn Pictoral History of the 20th Century [BSF 4] [v3],0,2000-01-01 01:00:00,2016-04-03 02:51:08,http://ecx.images-amazon.com/images/I/51waL-dHEpL.jpg,,
14913625,Briefe und Tagebücher,,Der Mensch und Sein Werk 1,,"Franz Rosenzweig (auth.), Rachel Rosenzweig, Edith Rosenzweig - Scheinmann (eds.)",1979,,Springer Netherlands,,1372,0,German,,,,"978-94-009-9264-1,978-94-009-9263-4",,,,,,,10.1007/978-94-009-9263-4,,,,0,,1,0,1,,,1,54275135,pdf,1ea987f97d91cea523531b0757a3deb2,,,10.1007%2F978-94-009-9263-4.pdf,0,2000-01-01 01:00:00,2016-04-03 02:51:08,http://link.springer.com/static-content/covers/books/336/9789400992634.jpg,,
14913623,Aesthetics and Business Ethics,,Issues in Business Ethics 41,,"John Dobson Ph.D. (auth.), Daryl Koehn, Dawn Elm (eds.)",2014,,Springer Netherlands,,"IX, 159 p. 9 illus. 8 illus. in color.",0,English,,,,"978-94-007-7069-0,978-94-007-7070-6",,,,,,,10.1007/978-94-007-7070-6,,,,0,,1,0,1,,,1,1434140,pdf,93a4829a08a009bc9081f7917a6a75c7,,,10.1007%2F978-94-007-7070-6.pdf,0,2000-01-01 01:00:00,2016-04-03 02:51:08,http://link.springer.com/static-content/covers/books/392/9789400770706.jpg,,
14913622,Virtual Reality Technology and Applications,,"Intelligent Systems, Control and Automation: Science and Engineering 68",,"Matjaž Mihelj, Domen Novak, Samo Beguš (auth.)",2014,,Springer Netherlands,,"X, 231 p. 169 illus. 35 illus. in color.",0,English,,,,"978-94-007-6909-0,978-94-007-6910-6",,,,,,,10.1007/978-94-007-6910-6,,,,0,,1,0,1,,,1,7243357,pdf,27e81e48ace382459bfbf1486caedebf,,,10.1007%2F978-94-007-6910-6.pdf,0,2000-01-01 01:00:00,2016-04-03 02:51:08,http://link.springer.com/static-content/covers/books/560/9789400769106.jpg,,
14913621,Group Theory Applied to Chemistry,,Theoretical Chemistry and Computational Modelling,,Arnout Jozef Ceulemans (auth.),2013,,Springer Netherlands,,"XIII, 269 p. 63 illus. 11 illus. in color.",0,English,,,,"978-94-007-6862-8,978-94-007-6863-5",,,,,,,10.1007/978-94-007-6863-5,,,,0,,1,0,1,,,1,3215275,pdf,3a317e0d297bba0cfb021c26bbc79215,,,10.1007%2F978-94-007-6863-5.pdf,0,2000-01-01 01:00:00,2016-04-03 02:51:08,http://link.springer.com/static-content/covers/books/454/9789400768635.jpg,,
14913620,The International Imperative in Higher Education,,Global Perspectives on Higher Education,,Philip G. Altbach (auth.),2013,,SensePublishers,,196,0,English,,,,978-84-6209-338-6,,,,,,,10.1007/978-84-6209-338-6,,,,0,,1,0,1,,,1,1232054,pdf,ecfd118526d847a18cd6ae69b90002a2,,,10.1007%2F978-84-6209-338-6.pdf,0,2000-01-01 01:00:00,2016-04-03 02:51:08,http://link.springer.com/static-content/covers/books/273/9788462093386.jpg,,
14913619,Non-Linear Feedback Neural Networks: VLSI Implementations and Applications,,Studies in Computational Intelligence 508,,Mohd. Samar Ansari (auth.),2014,,Springer India,,"XXII, 201 p. 79 illus.",0,English,,,,"978-81-322-1562-2,978-81-322-1563-9",,,,,,,10.1007/978-81-322-1563-9,,,,0,,1,0,1,,,1,3619606,pdf,adbc93db52be7a9d4a449588e91a7675,,,10.1007%2F978-81-322-1563-9.pdf,0,2000-01-01 01:00:00,2016-04-03 02:51:08,http://link.springer.com/static-content/covers/books/482/9788132215639.jpg,,
14913618,Metal–Molecular Assembly for Functional Materials,,SpringerBriefs in Molecular Science,,"Yutaka Matsuo (auth.), Yutaka Matsuo, Masayoshi Higuchi, Yuichi Negishi, Michito Yoshizawa, Takashi Uemura, Hikaru Takaya, Takafumi Ueno, Masayuki Takeuchi, Soichiro Yoshimoto (eds.)",2013,,Springer Japan,,94,0,English,,,,"978-4-431-54369-5,978-4-431-54370-1",,,,,,,10.1007/978-4-431-54370-1,,,,0,,1,0,1,,,1,6169384,pdf,60f52908c26ffc003050ba00b174d400,,,10.1007%2F978-4-431-54370-1.pdf,0,2000-01-01 01:00:00,2016-04-03 02:51:08,http://link.springer.com/static-content/covers/books/230/9784431543701.jpg,,
14913617,Fundamental Beta: Ermittlung des systematischen Risikos bei nicht börsennotierten Unternehmen,,,,Alexander Scheld (auth.),2013,,Springer Fachmedien Wiesbaden,,"XXVIII, 293 S. 34 Abb. 3 Abb. in Farbe.",0,German,,,,"978-3-8349-3189-4,978-3-8349-7154-8",,,,,,,10.1007/978-3-8349-7154-8,,,,0,,1,0,1,,,1,2777276,pdf,a4bb76f14e692ccebb5e32822ee54ecc,,,10.1007%2F978-3-8349-7154-8.pdf,0,2000-01-01 01:00:00,2016-04-03 02:51:08,http://link.springer.com/static-content/covers/books/300/9783834971548.jpg,,
14913615,Beiträge zur Entwicklungsgeschichte der Kraniozerebralen Topographie des Menschen: Vorgelegt in der Sitzung am 17. Dezember 1942,,,,Ferdinand Hochstetter (auth.),1943,,Springer Vienna,,100,0,German,,,,"978-3-7091-9574-1,978-3-7091-9821-6",,,,,,,10.1007/978-3-7091-9821-6,,,,0,,1,0,1,,,1,7366886,pdf,d8f18dd5a67a1c69092fdc7f500c1234,,,10.1007%2F978-3-7091-9821-6.pdf,0,2000-01-01 01:00:00,2016-04-03 02:51:08,http://link.springer.com/static-content/covers/books/276/9783709198216.jpg,,
14913616,"Unternehmerisches Preisänderungsverhalten: Dimensionen, Determinanten und Konsequenzen",,,,Thomas R. W. Schmidt (auth.),2013,,Springer Fachmedien Wiesbaden,,241,0,German,,,,"978-3-8349-4012-4,978-3-8349-4013-1",,,,,,,10.1007/978-3-8349-4013-1,,,,0,,1,0,1,,,1,1546855,pdf,46e7215d513e020cdfc9cdc85a46e9d9,,,10.1007%2F978-3-8349-4013-1.pdf,0,2000-01-01 01:00:00,2016-04-03 02:51:08,http://link.springer.com/static-content/covers/books/536/9783834940131.jpg,,
14913614,Topographische Diagnostik des Gehirns,,Verhandlungen der Deutschen Gesellschaft für Neurologie 9,,"H.-J. Freund (auth.), Univ.-Doz. Dr. Wilfried Lang, Univ.-Prof. Dr. Lüder Deecke, Univ.-Prof. Dr. Hanns Christian Hopf (eds.)",1995,,Springer Vienna,,841 S.,0,German,,,,"978-3-211-82707-9,978-3-7091-9415-7",,,,,,,10.1007/978-3-7091-9415-7,,,,0,,1,0,1,,,1,31491385,pdf,6a119ec93624190013368ef16cf023a7,,,10.1007%2F978-3-7091-9415-7.pdf,0,2000-01-01 01:00:00,2016-04-03 02:51:08,http://link.springer.com/static-content/covers/books/276/9783709194157.jpg,,
14913613,"The life of hsuan-tsang, the Tripitaka-master of the Great Tzu En Monastery.",,,,Huili; San Shih Buddhist Institute (Tr),1959,,Chinese Buddhist Association,Peking,288,0,,206,,0,,,,,,,,,,,,0,,1,,1,1,1,1,7659085,pdf,a4f6dce5013a01c3a54f9750fc0ada0a,,,Huili; Chinese Buddhist Association (Tr) - Life of Hsuan-Tsang (288p),0,2000-01-01 01:00:00,2016-04-03 02:51:08,,,
14913612,Psychotherapie und Tiefenpsychologie: Ein Kurzlehrbuch,,,,Prof. Dr. Hans Strotzka (auth.),1994,,Springer Vienna,,310,0,German,,,,"978-3-211-82572-3,978-3-7091-9359-4",,,,,,,10.1007/978-3-7091-9359-4,,,,0,,1,0,1,,,1,7874224,pdf,4b78ee62fb76d2002cf012bb8e091a07,,,10.1007%2F978-3-7091-9359-4.pdf,0,2000-01-01 01:00:00,2016-04-03 02:51:08,http://link.springer.com/static-content/covers/books/102/9783709193594.jpg,,
14913611,Pflanzenernährung,,Handbuch der Pflanzenernährung und Düngung 1 / 1,,"K. Scharrer (auth.), D. I. Arnon, W. Baumeister, W. U. Behrens, E. v. Boguslawski, M. J. Bukovac, H. Burghardt, M. Erichsen, W. Flaig, W. H. Fuchs, F. Grossmann, F. Heilinger, G. P. Hill, J. Jung, H. Kick, J. G. Kisser, P. J. Kramer, H. Kühn, P. Limberg, H. Linser, H. H. Mayr, K. Mengel, K.-H. Neumann, K. Scharrer, G. Schmid, W. Schuster, H. B. Tukey, H. B. Tukey Jr., H. Walter, S. H. Wittwer (eds.)",1969,,Springer Vienna,,612,0,German,,,,"978-3-7091-8221-5,978-3-7091-8220-8",,,,,,,10.1007/978-3-7091-8220-8,,,,0,,1,0,1,,,1,28137470,pdf,39fb416f12f3c0c5549f96032a02dae6,,,10.1007%2F978-3-7091-8220-8.pdf,0,2000-01-01 01:00:00,2016-04-03 02:51:08,http://link.springer.com/static-content/covers/books/572/9783709182208.jpg,,
14913610,Handbuch der Virusforschung: 4. Band (III. Ergänzungsband),,,,"F. M. Burnet (auth.), Prof. Dr. C. Hallauer, Prof. Dr. K. F. Meyer (eds.)",1958,,Springer Vienna,,704,0,German,,,,"978-3-7091-7886-7,978-3-7091-7885-0",,,,,,,10.1007/978-3-7091-7885-0,,,,0,,1,0,1,,,1,28882212,pdf,45f2e4fa54b0499e10e4b7017527da01,,,10.1007%2F978-3-7091-7885-0.pdf,0,2000-01-01 01:00:00,2016-04-03 02:51:08,http://link.springer.com/static-content/covers/books/434/9783709178850.jpg,,
14913609,"Bateman, Partial differential equations of mathematical physics",,,,,,,,,269,0,English,113,kolxoz,,,,,,,,,,,,,0,,,,,,,0,9013818,pdf,F513B11B0C73CB37072E41152EB7F3BB,,,"/Bateman, Partial differential equations of mathematical physics.pdf",0,2000-01-01 01:00:00,2016-04-03 02:51:08,215000/f513b11b0c73cb37072e41152eb7f3bb.jpg,,
14913608,Die Grossglockner-Hochalpenstrasse: Die Geschichte ihres Baues,,,,Dipl.-Ing. F. Wallack (auth.),1949,,Springer Vienna,,230,0,German,,,,"978-3-211-80123-9,978-3-7091-7734-1",,,,,,,10.1007/978-3-7091-7734-1,,,,0,,1,0,1,,,1,13289353,pdf,e030c4d6a2be372172c6922f537e2431,,,10.1007%2F978-3-7091-7734-1.pdf,0,2000-01-01 01:00:00,2016-04-03 02:51:08,http://link.springer.com/static-content/covers/books/60/9783709177341.jpg,,
14913607,"Fragen der Ethik in der Psychotherapie: Konfliktfelder, Machtmißbrauch, Berufspflichten",,,,"Alfred Simon (auth.), Dr. Renate Hutterer-Krisch (eds.)",2001,,Springer Vienna,,748,0,German,,,,"978-3-211-83594-4,978-3-7091-6750-2",,,,,,,10.1007/978-3-7091-6750-2,,,,0,,1,0,1,,,1,18615854,pdf,1052f691e427340b6fdbdabb75a6d236,,,10.1007%2F978-3-7091-6750-2.pdf,0,2000-01-01 01:00:00,2016-04-03 02:51:08,http://link.springer.com/static-content/covers/books/442/9783211835944.jpg,,
14913606,Muslamanon ke Qawaneen Barae Talaaq [Muslim laws on Divorce in Urdu],,,,AGHS Legal aid Centre Pakistan,0,,AGHS Legal aid Centre Pakistan,Lahore,10,0,Urdu,,,0,,,,,,,,,,,,0,,,0,,1,,1,1041296,pdf,9b61e7762195fada02983d5e07e83c36,,,Muslamanon.ke.Qawaneen.Barae.Talaaq.[Muslim.laws.on.Divorce.in.Urdu],0,2000-01-01 01:00:00,2016-04-03 02:51:08,,,
14913604,Moderne Algebraische Geometrie: Die Idealtheoretischen Grundlagen,,,,Dr. Wolfgang Gröbner (auth.),1949,,Springer Vienna,,224,0,English,,,,"978-3-211-80090-4,978-3-7091-5740-4",,,,,,,10.1007/978-3-7091-5740-4,,,,0,,1,0,1,,,1,10351741,pdf,61129d863f9ebb4120314a66675b64a4,,,10.1007%2F978-3-7091-5740-4.pdf,0,2000-01-01 01:00:00,2016-04-03 02:51:08,http://link.springer.com/static-content/covers/books/262/9783709157404.jpg,,
14913605,"Rotations, Quaternions, and Double Groups (Oxford Science Publications)",,,,Simon L. Altmann,1986,,,,300,0,English,183,,до 2011-01,"0198553722,9780198553724",,,,,530.1/2,QC174.17.R65 A48 1986,,,OL21375527M,,0,,,,,1,,1,2918707,djvu,88CC64F151C75DEA072926633FC644F6,,,D:\\!genesis\\library.nu\\88\\_27624.88cc64f151c75dea072926633fc644f6.djvu,0,2000-01-01 01:00:00,2016-04-03 02:51:08,538000/88cc64f151c75dea072926633fc644f6-g.jpg,,
14913602,Werkstoff-Prüfung im Bergbau,,"Wissenschaftliche Abhandlungen der Deutschen Materialprüfungsanstalten 1,3",,Dipl.-Ing. E. Klemke (auth.),1939,,Springer Vienna,,101,0,German,,,,"978-3-7091-5291-1,978-3-7091-5439-7",,,,,,,10.1007/978-3-7091-5439-7,,,,0,,1,0,1,,,1,12899626,pdf,c2b9db893bee4f1fc91c05174208df9e,,,10.1007%2F978-3-7091-5439-7.pdf,0,2000-01-01 01:00:00,2016-04-03 02:51:08,http://link.springer.com/static-content/covers/books/314/9783709154397.jpg,,
14913603,Wiener Neustadt 1970–1990: Strukturanalyse und Stadtentwicklungsplanung Studienarbeit 1969/70 durchgeführt von Studenten der Studienrichtung Architektur an der Technischen Hochschule Wien,,"Schriftenreihe des Institutes für Städtebau, Raumplanung und Raumordnung 14",,"Dipl.-Ing. Klaus R. Kunzmann (auth.), Dipl.-Ing. Klaus R. Kunzmann (eds.)",1970,,Springer Vienna,,114,0,German,,,,"978-3-211-81009-5,978-3-7091-5596-7",,,,,,,10.1007/978-3-7091-5596-7,,,,0,,1,0,1,,,1,4775796,pdf,88785070dc69ffa686f335ca146e915e,,,10.1007%2F978-3-7091-5596-7.pdf,0,2000-01-01 01:00:00,2016-04-03 02:51:08,http://link.springer.com/static-content/covers/books/850/9783709155967.jpg,,
14913601,Zielsichere Betonbildung: Auf der Grundlage der Versuchsberichte des Unterausschusses für Zielsichere Beton-Bildung (UABb) im Österr. Eisenbetonausschusse,,,,"Ottokar Stern (auth.), Ottokar Stern (eds.)",1933,,Springer Vienna,,107,0,German,,,,"978-3-7091-5157-0,978-3-7091-5305-5",,,,,,,10.1007/978-3-7091-5305-5,,,,0,,1,0,1,,,1,3685070,pdf,b2eb62aea3e7c1bfdbb19bf9c13022ea,,,10.1007%2F978-3-7091-5305-5.pdf,0,2000-01-01 01:00:00,2016-04-03 02:51:08,http://link.springer.com/static-content/covers/books/114/9783709153055.jpg,,
14913600,Der Aufbau schnellaufender Verbrennungskraftmaschinen für Kraftfahrzeuge und Triebwagen,,Die Verbrennungskraftmaschine 11,,Obering. H. Kremser (auth.),1942,,Springer Vienna,,235,0,German,,,,"978-3-7091-9755-4,978-3-7091-5016-0",,,,,,,10.1007/978-3-7091-5016-0,,,,0,,1,0,1,,,1,17223431,pdf,e6707cfcd7c802a4570b7fdf5b72eb58,,,10.1007%2F978-3-7091-5016-0.pdf,0,2000-01-01 01:00:00,2016-04-03 02:51:08,http://link.springer.com/static-content/covers/books/500/9783709150160.jpg,,
14913599,Technische Mechanik: Aufgaben und Lösungen,,,,"Univ.-Doz. Dipl.-Ing. Dr. techn. Peter Lugner, O. Univ.-Prof. Mag. rer. nat. Dr. phil. Kurt Desoyer, Dipl.-Ing. Dr. techn. Anton Novak (auth.)",1988,VII,Springer Vienna,,224 S.Zeige nächste Auflage,0,German,,,,"978-3-211-82082-7,978-3-7091-4123-6",,,,,,,10.1007/978-3-7091-4123-6,,,,0,,1,0,1,,,1,6571523,pdf,f171053ad0b5f40a403fd55c5ed82652,,,10.1007%2F978-3-7091-4123-6.pdf,0,2000-01-01 01:00:00,2016-04-03 02:51:08,http://link.springer.com/static-content/covers/books/356/9783709141236.jpg,,
14913598,A Dictionary Of Sindhi Literature,,,,Motilal Jotwani,1996,1st,Sampark Prakashan,New Delhi,200,0,English,,,0,81-85190-11-3,,,,,,,,,,,0,,,0,1,1,1,1,9505393,pdf,55486bdb10951f020d2786ed9d6507d4,,,Dictionary.of.Sindhi.Literature ~~ Motilal.Jotwani.(1996).cs,0,2000-01-01 01:00:00,2016-04-03 02:51:08,1016000/55486bdb10951f020d2786ed9d6507d4-g.jpg,,
14913597,74.–75. Jahresbericht des Sonnblick-Vereines für die Jahre 1976–1977,,Jahresberichte des Sonnblick-Vereines 1976/77,,Prof. Dr. F. Steinhauser (auth.),1977,,Springer Vienna,,98 S.,0,German,,,,"978-3-211-81458-1,978-3-7091-3980-6",,,,,,,10.1007/978-3-7091-3980-6,,,,0,,1,0,1,,,1,7216309,pdf,2f28e9b6bcf1b3b257ed465d66a886a4,,,10.1007%2F978-3-7091-3980-6.pdf,0,2000-01-01 01:00:00,2016-04-03 02:51:08,http://link.springer.com/static-content/covers/books/876/9783709139806.jpg,,
14913596,A Dictionary Of Sindhi Literature,,,,Motilal Jotwani,1996,1st,Sampark Prakashan,New Delhi,200,0,English,,,0,81-85190-11-3,,,,,,,,,,,0,,,0,1,1,1,1,9505393,pdf,55486bdb10951f020d2786ed9d6507d4,,,Dictionary.of.Sindhi.Literature ~~ Motilal.Jotwani.(1996).cs,0,2000-01-01 01:00:00,2016-04-03 02:51:08,,,
14913595,70.–71. Jahresbericht des Sonnblick-Vereines für die Jahre 1972–1973,,Jahresberichte des Sonnblick-Vereines 1972/73,,Prof. Dr. F. Steinhauser (auth.),1974,,Springer Vienna,,111 S.,0,German,,,,"978-3-211-81286-0,978-3-7091-3979-0",,,,,,,10.1007/978-3-7091-3979-0,,,,0,,1,0,1,,,1,9475206,pdf,7a285505dae9f04d20f115ffd1288c56,,,10.1007%2F978-3-7091-3979-0.pdf,0,2000-01-01 01:00:00,2016-04-03 02:51:08,http://link.springer.com/static-content/covers/books/564/9783709139790.jpg,,
14913593,Englisch-deutsches und deutsch-englisches Wörterbuch für die Eisen- und Stahl-Industrie / English-German and German-English Dictionary for the Iron and Steel Industry,,,,"Eduard L. Köhler, Priv.-Doz. Dr. mont. Alois Legat (auth.)",1955,,Springer Vienna,,342,0,German,,,,"978-3-7091-3882-3,978-3-7091-3881-6",,,,,,,10.1007/978-3-7091-3881-6,,,,0,,1,0,1,,,1,19408396,pdf,1547c5812661d814c926948097fd7771,,,10.1007%2F978-3-7091-3881-6.pdf,0,2000-01-01 01:00:00,2016-04-03 02:51:08,http://link.springer.com/static-content/covers/books/636/9783709138816.jpg,,
14913594,"NCA: The Hidden Jewel Of Its Potential, And The Dark Cloak Of Its System",,,,Ahmad Salim [aka Ahmed Saleem],1989,,Book Traders,Lahore,91,0,English,191,,0,,,,,,,,,,,,0,,,0,1,1,1,1,8638724,pdf,d3231e5142a31a770f23039bbe367649,,,"NCA~The.Hidden.Jewel.Of.Its.Potential,And.The.Dark.Cloak.Of.Its.System ~~ Ahmed.Saleem.(1989).cs",0,2000-01-01 01:00:00,2016-04-03 02:51:08,1016000/d3231e5142a31a770f23039bbe367649-g.jpg,,
14913592,"NCA: The Hidden Jewel Of Its Potential, And The Dark Cloak Of Its System",,,,Ahmad Salim [aka Ahmed Saleem],1989,,Book Traders,Lahore,91,0,English,191,,0,,,,,,,,,,,,0,,,0,1,1,1,1,8638724,pdf,d3231e5142a31a770f23039bbe367649,,,"NCA~The.Hidden.Jewel.Of.Its.Potential,And.The.Dark.Cloak.Of.Its.System ~~ Ahmed.Saleem.(1989).cs",0,2000-01-01 01:00:00,2016-04-03 02:51:08,,,
14913591,Die Schweissung von Torstählen,,,,"Dipl. Ing. Dr. techn. Stefan Soretz, Dipl. Ing. Rudolf Tinti (auth.)",1952,,Springer Vienna,,52,0,German,,,,"978-3-7091-3865-6,978-3-7091-3864-9",,,,,,,10.1007/978-3-7091-3864-9,,,,0,,1,0,1,,,1,2638989,pdf,97717bf567444c3779ee3d2d63e8f430,,,10.1007%2F978-3-7091-3864-9.pdf,0,2000-01-01 01:00:00,2016-04-03 02:51:08,http://link.springer.com/static-content/covers/books/462/9783709138649.jpg,,
14913590,"Achtes Kolloquium über Metallkundliche Analyse mit Besonderer Berücksichtigung der Elektronenstrahl- und Ionenstrahl-Mikroanalyse Wien, 27. bis 29. Oktober 1976",,Mikrochimica Acta 7,,"Prof. Dr. Günther Tölg (auth.), M. K. Zacherl (eds.)",1977,,Springer Vienna,,596 S.,0,German,,,,"978-3-211-81433-8,978-3-7091-3724-6",,,,,,,10.1007/978-3-7091-3724-6,,,,0,,1,0,1,,,1,19047172,pdf,2c7a7882516552569d2310f083258f8a,,,10.1007%2F978-3-7091-3724-6.pdf,0,2000-01-01 01:00:00,2016-04-03 02:51:08,http://link.springer.com/static-content/covers/books/100/9783709137246.jpg,,
14913589,Atome und Strahlen,,,,Gustav Ortner (auth.),1947,,Springer Vienna,,91,0,German,,,,"978-3-7091-3559-4,978-3-7091-3558-7",,,,,,,10.1007/978-3-7091-3558-7,,,,0,,1,0,1,,,1,4060661,pdf,75dbd628417914c87f0cbce9dc54969e,,,10.1007%2F978-3-7091-3558-7.pdf,0,2000-01-01 01:00:00,2016-04-03 02:51:08,http://link.springer.com/static-content/covers/books/674/9783709135587.jpg,,
14913588,Physikalisch-chemisches Rechnen mit einer Einführung in die höhere Mathematik,,,,"Dr. techn. Ing. Walter Wittenberger, Dr. rer. nat. Werner Fritz (auth.)",1980,,Springer Vienna,,481,0,German,,,,"978-3-7091-3401-6,978-3-7091-3400-9",,,,,,,10.1007/978-3-7091-3400-9,,,,0,,1,0,1,,,1,15792726,pdf,4e759386a9b45302f2334da5f24e0919,,,10.1007%2F978-3-7091-3400-9.pdf,0,2000-01-01 01:00:00,2016-04-03 02:51:08,http://link.springer.com/static-content/covers/books/516/9783709134009.jpg,,
14913586,Die Österreichische Kohle: Gesamtbericht des Ökw-Arbeitsausschusses „Inlandskohle“,,,,(auth.),1934,,Springer Vienna,,166,0,German,,,,"978-3-7091-3148-0,978-3-7091-3151-0",,,,,,,10.1007/978-3-7091-3151-0,,,,0,,1,0,1,,,1,7323837,pdf,c5911f39cfb50099a27a841a421edb68,,,10.1007%2F978-3-7091-3151-0.pdf,0,2000-01-01 01:00:00,2016-04-03 02:51:08,http://link.springer.com/static-content/covers/books/62/9783709131510.jpg,,
14913587,"Medizinische Physik: Physik für Mediziner, Pharmazeuten und Biologen",,,,O. Prof. Dr. techn. Adolf Friedrich Fercher (auth.),1992,,Springer Vienna,,919 S.Zeige nächste Auflage,0,German,,,,"978-3-211-82371-2,978-3-7091-3309-5",,,,,,,10.1007/978-3-7091-3309-5,,,,0,,1,0,1,,,1,22941305,pdf,1fe73000403a5381454f852ae40d172e,,,10.1007%2F978-3-7091-3309-5.pdf,0,2000-01-01 01:00:00,2016-04-03 02:51:08,http://link.springer.com/static-content/covers/books/32/9783709133095.jpg,,
14913585,Allgemeine Baubetriebslehre,,,,Maximilian Soeser (auth.),1930,,Springer Vienna,,285,0,German,,,,"978-3-7091-3122-0,978-3-7091-3129-9",,,,,,,10.1007/978-3-7091-3129-9,,,,0,,1,0,1,,,1,16768943,pdf,b3a170f1796e28ae307565011fea8634,,,10.1007%2F978-3-7091-3129-9.pdf,0,2000-01-01 01:00:00,2016-04-03 02:51:08,http://link.springer.com/static-content/covers/books/688/9783709131299.jpg,,
14913584,Elektrische Maschinen: Eine Einführung in die Grundlagen,,,,"Professor, Dr.-Ing. Theodor Bödefeld, Professor, Dr. Techn., Dr.-Ing., Dr. Phil. Heinrich Sequenz (auth.)",1949,,Springer Vienna,,499,0,German,,,,"978-3-7091-2083-5,978-3-7091-2082-8",,,,,,,10.1007/978-3-7091-2082-8,,,,0,,1,0,1,,,1,39308721,pdf,80108c426d9b32a6eee044ad8bc21466,,,10.1007%2F978-3-7091-2082-8.pdf,0,2000-01-01 01:00:00,2016-04-03 02:51:08,http://link.springer.com/static-content/covers/books/452/9783709120828.jpg,,
14913582,Wahrscheinlichkeit Statistik und Wahrheit: Einführung in die Neue Wahrscheinlichkeitslehre und Ihre Anwendung,,,,Richard von Mises (auth.),1951,,Springer Vienna,,288,0,German,,,,"978-3-7091-2068-2,978-3-7091-2067-5",,,,,,,10.1007/978-3-7091-2067-5,,,,0,,1,0,1,,,1,13964899,pdf,97728867ee7c0c2dc8db2b2dd606d9c0,,,10.1007%2F978-3-7091-2067-5.pdf,0,2000-01-01 01:00:00,2016-04-03 02:51:08,http://link.springer.com/static-content/covers/books/222/9783709120675.jpg,,
14913583,Einführung in die Festigkeitslehre für Studierende des Bauwesens,,,,"Dr. phil. Dr. techn. Fritz Chmelka, Dipl.-Ing. Dr. techn. Ernst Melan (auth.)",1947,,Springer Vienna,,313,0,German,,,,"978-3-7091-2077-4,978-3-7091-2076-7",,,,,,,10.1007/978-3-7091-2076-7,,,,0,,1,0,1,,,1,13918368,pdf,05a92afee75dfade2fcd7015613ca2db,,,10.1007%2F978-3-7091-2076-7.pdf,0,2000-01-01 01:00:00,2016-04-03 02:51:08,http://link.springer.com/static-content/covers/books/290/9783709120767.jpg,,
14913581,Gauss: Ein Umriss Seines Lebens und Wirkens,,,,F. A. T. Winnecke (auth.),1877,,Vieweg+Teubner Verlag,,36,0,German,,,,"978-3-663-16345-9,978-3-663-16370-1",,,,,,,10.1007/978-3-663-16370-1,,,,0,,1,0,1,,,1,1294444,pdf,1b45e12d4c3ac66ee2e2a2048f0f4cf1,,,10.1007%2F978-3-663-16370-1.pdf,0,2000-01-01 01:00:00,2016-04-03 02:51:08,http://link.springer.com/static-content/covers/books/886/9783663163701.jpg,,
14913580,Programmieren von Taschenrechnern: Lehr- und Übungsbuch für den TI-58 und TI-59,,Programmieren von Taschenrechnern 3,,Hans Heinrich Gloistehn (auth.),1981,,Vieweg+Teubner Verlag,,160,0,German,,,,"978-3-528-24095-0,978-3-663-16364-0",,,,,,,10.1007/978-3-663-16364-0,,,,0,,1,0,1,,,1,4655813,pdf,89403bb45906a452d9d5fa53a858bf7d,,,10.1007%2F978-3-663-16364-0.pdf,0,2000-01-01 01:00:00,2016-04-03 02:51:08,http://link.springer.com/static-content/covers/books/724/9783663163640.jpg,,
14913579,Büroautomation,,Schriften zur Unternehmensführung 42,,Dieter B. Preßmar (auth.),1990,,Gabler Verlag,,153,0,German,,,,"978-3-409-13129-2,978-3-663-16361-9",,,,,,,10.1007/978-3-663-16361-9,,,,0,,1,0,1,,,1,5581846,pdf,6a3d4e31425b483d3e5313e2dbeed502,,,10.1007%2F978-3-663-16361-9.pdf,0,2000-01-01 01:00:00,2016-04-03 02:51:08,http://link.springer.com/static-content/covers/books/808/9783663163619.jpg,,
14913578,Gabler Volkswirtschafts Lexikon,,,,"Prof. Dr. Karlernst Ringer, Dr. Heinz-Jürgen Telkamp (auth.), Diplom-Volkswirt Volker Häfner, Dr. Michael Hammes, Diplom-Volkswirt Klaus Hölzel, Diplom-Volkswirt Franz-Josef Lerdo, Diplom-Betriebswirt Marlene Maser (eds.)",1983,,Gabler Verlag,,718,0,English,,,,"978-3-409-99182-7,978-3-663-16353-4",,,,,,,10.1007/978-3-663-16353-4,,,,0,,1,0,1,,,1,28292052,pdf,e9733ac84b66f788d7d5712513512921,,,10.1007%2F978-3-663-16353-4.pdf,0,2000-01-01 01:00:00,2016-04-03 02:51:08,http://link.springer.com/static-content/covers/books/712/9783663163534.jpg,,
14913576,Berlin — Hauptstadtanspruch und Westintegration,,Schriften des Instituts für Politische Wissenschaft,,"Jürgen Fijalkowski, Peter Hauck, Axel Holst, Gerd-Heinrich Kemper, Alf Mintzel (auth.)",1967,,VS Verlag für Sozialwissenschaften,,364,0,German,,,,"978-3-663-15709-0,978-3-663-16300-8",,,,,,,10.1007/978-3-663-16300-8,,,,0,,1,0,1,,,1,17974338,pdf,e2c426b5ce58c27de667e098d0b38dcc,,,10.1007%2F978-3-663-16300-8.pdf,0,2000-01-01 01:00:00,2016-04-03 02:51:08,http://link.springer.com/static-content/covers/books/606/9783663163008.jpg,,
14913577,"Kabinett physikalischer Raritäten: Eine Anthologie zum Mit-, Nach- und Weiterdenken",,Facetten der Physik 1,,"Robert L. Weber, Eric Mendoza (auth.)",1984,,Vieweg+Teubner Verlag,,229,0,German,,,,"978-3-528-28404-6,978-3-663-16334-3",,,,,,,10.1007/978-3-663-16334-3,,,,0,,1,0,1,,,1,8237791,pdf,1e9be2524d0d9548a6766cf3f05e768c,,,10.1007%2F978-3-663-16334-3.pdf,0,2000-01-01 01:00:00,2016-04-03 02:51:08,http://link.springer.com/static-content/covers/books/604/9783663163343.jpg,,
14913575,Deutschland und die NATO: Strategie und Politik im Spannungsfeld zwischen Ost und West,,,,James L. Richardson (auth.),1967,,VS Verlag für Sozialwissenschaften,,355,0,German,,,,"978-3-663-15704-5,978-3-663-16293-3",,,,,,,10.1007/978-3-663-16293-3,,,,0,,1,0,1,,,1,14617814,pdf,daa3875a89a1a616b9bb176e3d6f5395,,,10.1007%2F978-3-663-16293-3.pdf,0,2000-01-01 01:00:00,2016-04-03 02:51:08,http://link.springer.com/static-content/covers/books/660/9783663162933.jpg,,
14913574,Die Funktionen des Staatsoberhauptes in der parlamentarischen Demokratie,,Demokratie und Frieden,,Werner Kaltefleiter,1970,,VS Verlag für Sozialwissenschaften,,309,0,German,,,0,"978-3-663-15701-4,978-3-663-16289-6",,,,,,,10.1007/978-3-663-16289-6,,,,0,,1,0,1,,,1,10508022,pdf,873933c27ae8643c2dc30ceff93fd20a,,,10.1007%2F978-3-663-16289-6.pdf,0,2000-01-01 01:00:00,2016-04-03 02:51:08,http://link.springer.com/static-content/covers/books/432/9783663162896.jpg,,
14913573,Die Funktionen des Staatsoberhauptes in der parlamentarischen Demokratie,,Demokratie und Frieden,,Werner Kaltefleiter (auth.),1970,,VS Verlag für Sozialwissenschaften,,309,0,German,,,,"978-3-663-15701-4,978-3-663-16289-6",,,,,,,10.1007/978-3-663-16289-6,,,,0,,1,0,1,,,1,10508022,pdf,873933c27ae8643c2dc30ceff93fd20a,,,10.1007%2F978-3-663-16289-6.pdf,0,2000-01-01 01:00:00,2016-04-03 02:51:08,http://link.springer.com/static-content/covers/books/432/9783663162896.jpg,,
14913572,"Biomaterials Science: Processing, Properties and Applications III: Ceramic Transactions, Vol. 242",,,,"Susmita Bose, Amit Bandyopadhyay, Roger Narayan",2013,,Wiley-American Ceramic Society,,160,0,English,,,0,"9781118751039,9781118751015,1118751035",,,,,,,10.1002/9781118751015,,,,0,,1,0,1,,,1,4796448,pdf,d7e57510e2b9bf14ca73dd3b3aeb9811,,,10.1002%2F9781118751015.pdf,0,2000-01-01 01:00:00,2016-04-03 02:51:08,http://media.wiley.com/product_data/coverImage300/35/11187510/1118751035.jpg,,
14913571,"Biomaterials Science: Processing, Properties and Applications III: Ceramic Transactions, Volume 242",,,,"Susmita Bose, Amit Bandyopadhyay, Roger Narayan(eds.)",2013,,Wiley-American Ceramic Society,,160,0,English,,,,"9781118751039,9781118751015,1118751035",,,,,,,10.1002/9781118751015,,,,0,,1,0,1,,,1,4796448,pdf,d7e57510e2b9bf14ca73dd3b3aeb9811,,,10.1002%2F9781118751015.pdf,0,2000-01-01 01:00:00,2016-04-03 02:51:08,http://media.wiley.com/product_data/coverImage300/35/11187510/1118751035.jpg,,
14913570,Biomimetics: Advancing Nanobiomaterials and Tissue Engineering,,,,"Murugan Ramalingam, Xiumei Wang, Guoping Chen, Peter Ma, Fu‐Zhai Cui",2013,,Wiley-Scrivener,,384,0,English,,,0,"9781118469620,9781118810408,1118469623",,,,,,,10.1002/9781118810408,,,,0,,1,0,1,,,1,6916927,pdf,398823d03337a371e65e366072d37bd8,,,10.1002%2F9781118810408.pdf,0,2000-01-01 01:00:00,2016-04-03 02:51:08,http://media.wiley.com/product_data/coverImage300/23/11184696/1118469623.jpg,,
14913569,Biomimetics: Advancing Nanobiomaterials and Tissue Engineering,,,,"Murugan Ramalingam, Xiumei Wang, Guoping Chen, Peter Ma, Fu‐Zhai Cui(eds.)",2013,,Wiley-Scrivener,,384,0,English,,,,"9781118469620,9781118810408,1118469623",,,,,,,10.1002/9781118810408,,,,0,,1,0,1,,,1,6916927,pdf,398823d03337a371e65e366072d37bd8,,,10.1002%2F9781118810408.pdf,0,2000-01-01 01:00:00,2016-04-03 02:51:08,http://media.wiley.com/product_data/coverImage300/23/11184696/1118469623.jpg,,
14913568,Analysis of Laminar Flow over a Backward Facing Step: A GAMM Workshop,,Notes on Numerical Fluid Mechanics 9,,"O. Pironneau, Ken Morgan, Jacques Periaux, François Thomasset",1984,,Vieweg+Teubner Verlag,,427,0,English,,,0,"978-3-528-08083-9,978-3-663-14242-3",,,,,,,10.1007/978-3-663-14242-3,,,,0,,1,0,1,,,1,15784191,pdf,0e6a5f55db71fff2bf0d28d568dddef5,,,10.1007%2F978-3-663-14242-3.pdf,0,2000-01-01 01:00:00,2016-04-03 02:51:08,http://link.springer.com/static-content/covers/books/538/9783663142423.jpg,,
14913567,Analysis of Laminar Flow over a Backward Facing Step: A GAMM Workshop,,Notes on Numerical Fluid Mechanics 9,,"O. Pironneau (auth.), Ken Morgan, Jacques Periaux, François Thomasset (eds.)",1984,,Vieweg+Teubner Verlag,,427,0,English,,,,"978-3-528-08083-9,978-3-663-14242-3",,,,,,,10.1007/978-3-663-14242-3,,,,0,,1,0,1,,,1,15784191,pdf,0e6a5f55db71fff2bf0d28d568dddef5,,,10.1007%2F978-3-663-14242-3.pdf,0,2000-01-01 01:00:00,2016-04-03 02:51:08,http://link.springer.com/static-content/covers/books/538/9783663142423.jpg,,
14913566,"Advances in Multi-Grid Methods: Proceedings of the conference held in Oberwolfach, December 8 to 13, 1984",,Notes on Numerical Fluid Mechanics 11,,"O. Axelsson, Dietrich Braess, Wolfgang Hackbusch, Ulrich Trottenberg",1985,,Vieweg+Teubner Verlag,,127,0,English,,,0,"978-3-528-08085-3,978-3-663-14245-4",,,,,,,10.1007/978-3-663-14245-4,,,,0,,1,0,1,,,1,3774044,pdf,8812e05b5143c3990659eb1330b62c80,,,10.1007%2F978-3-663-14245-4.pdf,0,2000-01-01 01:00:00,2016-04-03 02:51:08,http://link.springer.com/static-content/covers/books/444/9783663142454.jpg,,
14913565,"Advances in Multi-Grid Methods: Proceedings of the conference held in Oberwolfach, December 8 to 13, 1984",,Notes on Numerical Fluid Mechanics 11,,"O. Axelsson (auth.), Dietrich Braess, Wolfgang Hackbusch, Ulrich Trottenberg (eds.)",1985,,Vieweg+Teubner Verlag,,127,0,English,,,,"978-3-528-08085-3,978-3-663-14245-4",,,,,,,10.1007/978-3-663-14245-4,,,,0,,1,0,1,,,1,3774044,pdf,8812e05b5143c3990659eb1330b62c80,,,10.1007%2F978-3-663-14245-4.pdf,0,2000-01-01 01:00:00,2016-04-03 02:51:08,http://link.springer.com/static-content/covers/books/444/9783663142454.jpg,,
14913564,Die Funktionen des Staatsoberhauptes in der parlamentarischen Demokratie,,Demokratie und Frieden,,Werner Kaltefleiter (auth.),1970,,VS Verlag für Sozialwissenschaften,,309,0,German,,,,"978-3-663-15701-4,978-3-663-16289-6",,,,,,,10.1007/978-3-663-16289-6,,,,0,,1,0,1,,,1,10508022,pdf,873933c27ae8643c2dc30ceff93fd20a,,,10.1007%2F978-3-663-16289-6.pdf,0,2000-01-01 01:00:00,2016-04-03 02:51:08,http://link.springer.com/static-content/covers/books/432/9783663162896.jpg,,
14913563,"Behavioural adaptation and road safety : theory, evidence, and action",,,,"edited by Christina Rudin-Brown, Samantha Jamson.",2013.,English,CRC Press,"Boca Raton, Florida",457,0,Picture,,,0,"9781439856673,1439856672,1439856680,9781439856680",,,,,,,,,,,0,,,,,,,1,45591326,pdf,9decf3d841646b2b2eb9b36771522ffc,,,"Behavioural Adaptation and Road Safety Theory, Evidence and Action",0,2000-01-01 01:00:00,2016-04-03 02:51:08,1016000/9decf3d841646b2b2eb9b36771522ffc-d.jpg,,
14913561,Bankbetriebslehre: Bankgeschäfte und Bankmanagement,,,,Hans E. Büschgen,1991,,Gabler Verlag,,847,0,German,,,0,"978-3-409-42073-0,978-3-663-15730-4",,,,,,,10.1007/978-3-663-15730-4,,,,0,,1,0,1,,,1,20913501,pdf,ce4c37295bff5bfd0d67887d7af4ab55,,,10.1007%2F978-3-663-15730-4.pdf,0,2000-01-01 01:00:00,2016-04-03 02:51:08,http://link.springer.com/static-content/covers/books/84/9783663157304.jpg,,
14913562,Biomedical technology and devices,,Handbook Series for Mechanical Engineering.,,"edited by James E. Moore, Jr., Duncan J. Maitland.",2013.,2nd Edition,CRC Press,Hoboken,791,0,English,,,0,"9781439860618,1439860610",,,,,,,,,,,0,,,,,,,1,170091838,pdf,5504f196e0939fcf3e05aec0d3767023,,,"Biomedical Technology and Devices, Second Edition",0,2000-01-01 01:00:00,2016-04-03 02:51:08,1016000/5504f196e0939fcf3e05aec0d3767023-g.jpg,,
14913560,Bankbetriebslehre: Bankgeschäfte und Bankmanagement,,,,Hans E. Büschgen (auth.),1991,,Gabler Verlag,,847,0,German,,,,"978-3-409-42073-0,978-3-663-15730-4",,,,,,,10.1007/978-3-663-15730-4,,,,0,,1,0,1,,,1,20913501,pdf,ce4c37295bff5bfd0d67887d7af4ab55,,,10.1007%2F978-3-663-15730-4.pdf,0,2000-01-01 01:00:00,2016-04-03 02:51:08,http://link.springer.com/static-content/covers/books/84/9783663157304.jpg,,
14913559,Qualitative Sozialforschung,,Studienskripten zur Soziologie 133,,Walter Spöhring,1989,,Vieweg+Teubner Verlag,,406,0,German,,,0,"978-3-519-00133-1,978-3-663-15836-3",,,,,,,10.1007/978-3-663-15836-3,,,,0,,1,0,1,,,1,9659470,pdf,c256a1ed8d4d723c5db63feadc9db4e1,,,10.1007%2F978-3-663-15836-3.pdf,0,2000-01-01 01:00:00,2016-04-03 02:51:08,http://link.springer.com/static-content/covers/books/108/9783663158363.jpg,,
14913558,Qualitative Sozialforschung,,Studienskripten zur Soziologie 133,,Dr. disc. pol. Walter Spöhring (auth.),1989,,Vieweg+Teubner Verlag,,406,0,German,,,,"978-3-519-00133-1,978-3-663-15836-3",,,,,,,10.1007/978-3-663-15836-3,,,,0,,1,0,1,,,1,9659470,pdf,c256a1ed8d4d723c5db63feadc9db4e1,,,10.1007%2F978-3-663-15836-3.pdf,0,2000-01-01 01:00:00,2016-04-03 02:51:08,http://link.springer.com/static-content/covers/books/108/9783663158363.jpg,,
14913557,Programme und Tools für Erddruck und Erdwiderstand mit gekrümmten und ebenen Gleitflächen: 6 Programme,,,,H. Günther,1993,,Vieweg+Teubner Verlag,,195,0,German,,,0,"978-3-528-08898-9,978-3-663-15844-8",,,,,,,10.1007/978-3-663-15844-8,,,,0,,1,0,1,,,1,3243319,pdf,a8e291f3b5a0e0b90363400015d5ff4c,,,10.1007%2F978-3-663-15844-8.pdf,0,2000-01-01 01:00:00,2016-04-03 02:51:08,http://link.springer.com/static-content/covers/books/204/9783663158448.jpg,,
14913556,Programme und Tools für Erddruck und Erdwiderstand mit gekrümmten und ebenen Gleitflächen: 6 Programme,,,,H. Günther (auth.),1993,,Vieweg+Teubner Verlag,,195,0,German,,,,"978-3-528-08898-9,978-3-663-15844-8",,,,,,,10.1007/978-3-663-15844-8,,,,0,,1,0,1,,,1,3243319,pdf,a8e291f3b5a0e0b90363400015d5ff4c,,,10.1007%2F978-3-663-15844-8.pdf,0,2000-01-01 01:00:00,2016-04-03 02:51:08,http://link.springer.com/static-content/covers/books/204/9783663158448.jpg,,
14913555,"Aufladung von Verbrennungsmotoren: Entwicklung, Regelung und Stand der Technik",,Fortschritte der Fahrzeugtechnik 6,,"K.-D. Emmenthal, R.-H. Strozyk, Manfred Rautenberg",1990,,Vieweg+Teubner Verlag,,241,0,German,,,0,"978-3-528-06404-4,978-3-663-16227-8",,,,,,,10.1007/978-3-663-16227-8,,,,0,,1,0,1,,,1,9520755,pdf,ff0dc254584343ce0bb4b9f90f1bf794,,,10.1007%2F978-3-663-16227-8.pdf,0,2000-01-01 01:00:00,2016-04-03 02:51:08,http://link.springer.com/static-content/covers/books/258/9783663162278.jpg,,
14913553,100 Rezepte für Borland Pascal: Programmiertips mit Pfiff für Einsteiger und Fortgeschrittene,,,,Norbert Hoffmann,1993,,Vieweg+Teubner Verlag,,139,0,German,,,0,"978-3-528-05359-8,978-3-663-16254-4",,,,,,,10.1007/978-3-663-16254-4,,,,0,,1,0,1,,,1,6368694,pdf,947487fdb3742da2fe42141991d79776,,,10.1007%2F978-3-663-16254-4.pdf,0,2000-01-01 01:00:00,2016-04-03 02:51:08,http://link.springer.com/static-content/covers/books/472/9783663162544.jpg,,
14913554,"Aufladung von Verbrennungsmotoren: Entwicklung, Regelung und Stand der Technik",,Fortschritte der Fahrzeugtechnik 6,,"K.-D. Emmenthal, R.-H. Strozyk (auth.), Prof. Dr.-Ing. Manfred Rautenberg (eds.)",1990,,Vieweg+Teubner Verlag,,241,0,German,,,,"978-3-528-06404-4,978-3-663-16227-8",,,,,,,10.1007/978-3-663-16227-8,,,,0,,1,0,1,,,1,9520755,pdf,ff0dc254584343ce0bb4b9f90f1bf794,,,10.1007%2F978-3-663-16227-8.pdf,0,2000-01-01 01:00:00,2016-04-03 02:51:08,http://link.springer.com/static-content/covers/books/258/9783663162278.jpg,,
14913552,100 Rezepte für Borland Pascal: Programmiertips mit Pfiff für Einsteiger und Fortgeschrittene,,,,Norbert Hoffmann (auth.),1993,,Vieweg+Teubner Verlag,,139,0,German,,,,"978-3-528-05359-8,978-3-663-16254-4",,,,,,,10.1007/978-3-663-16254-4,,,,0,,1,0,1,,,1,6368694,pdf,947487fdb3742da2fe42141991d79776,,,10.1007%2F978-3-663-16254-4.pdf,0,2000-01-01 01:00:00,2016-04-03 02:51:08,http://link.springer.com/static-content/covers/books/472/9783663162544.jpg,,
14913551,Sozialistische und kommunistische Parteien in Westeuropa. Band II: Nordländer,,Uni-Taschenbücher,,"Hans Rühle, Hans-Joachim Veen, Maria Eysell",1979,,VS Verlag für Sozialwissenschaften,,375,0,German,,,0,"978-3-8100-0241-9,978-3-663-16260-5",,,,,,,10.1007/978-3-663-16260-5,,,,0,,1,0,1,,,1,9195490,pdf,a549d522c31f0a274f3c8c9aa4890bff,,,10.1007%2F978-3-663-16260-5.pdf,0,2000-01-01 01:00:00,2016-04-03 02:51:08,http://link.springer.com/static-content/covers/books/634/9783663162605.jpg,,
14913550,Sozialistische und kommunistische Parteien in Westeuropa. Band II: Nordländer,,Uni-Taschenbücher,,"Hans Rühle, Hans-Joachim Veen (auth.), Hans Rühle, Hans-Joachim Veen, Maria Eysell (eds.)",1979,,VS Verlag für Sozialwissenschaften,,375,0,German,,,,"978-3-8100-0241-9,978-3-663-16260-5",,,,,,,10.1007/978-3-663-16260-5,,,,0,,1,0,1,,,1,9195490,pdf,a549d522c31f0a274f3c8c9aa4890bff,,,10.1007%2F978-3-663-16260-5.pdf,0,2000-01-01 01:00:00,2016-04-03 02:51:08,http://link.springer.com/static-content/covers/books/634/9783663162605.jpg,,
14913549,Sozialistische und kommunistische Parteien in Westeuropa. Band II: Nordländer,,Uni-Taschenbücher,,"Hans Rühle, Hans-Joachim Veen (auth.), Hans Rühle, Hans-Joachim Veen, Maria Eysell (eds.)",1979,,VS Verlag für Sozialwissenschaften,,375,0,German,,,,"978-3-8100-0241-9,978-3-663-16260-5",,,,,,,10.1007/978-3-663-16260-5,,,,0,,1,0,1,,,1,9195490,pdf,a549d522c31f0a274f3c8c9aa4890bff,,,10.1007%2F978-3-663-16260-5.pdf,0,2000-01-01 01:00:00,2016-04-03 02:51:08,http://link.springer.com/static-content/covers/books/634/9783663162605.jpg,,
14913548,Spike timing : mechanisms and function,,"Frontiers in neuroscience (Boca Raton, Fla.)",,"Patricia M. DiLorenzo, Jonathan D. Victor",2013.,,Taylor & Francis/CRC Press,Boca Raton,410,0,English,,,0,"9781439838167,143983816X",,,,,,,,,,,0,,,,,,,1,44922758,pdf,fa209c66e4337f8b03bb3ed0dd60e626,,,Spike Timing Mechanisms and Function,0,2000-01-01 01:00:00,2016-04-03 02:51:08,1016000/fa209c66e4337f8b03bb3ed0dd60e626-d.jpg,,
14913547,Imaging in cellular and tissue engineering,,"Series in cellular and clinical imaging, 2.",,"editors, Hanry Yu, Nur Aida Abdul Rahim.",2013,,"CRC Press, Taylor & Francis Group",Boca Raton,280,0,English,,,0,"9781439848043,1439848041",,,,,,,,,,,0,,,,,,,1,36922779,pdf,468973422b78fe80bb03eda1fbbe86c4,,,Imaging in Cellular and Tissue Engineering,0,2000-01-01 01:00:00,2016-04-03 02:51:08,1016000/468973422b78fe80bb03eda1fbbe86c4-g.jpg,,
14913546,Laboratory experiments using microwave heating,,,,"authors, Nicholas E. Leadbeater, Cynthia B. McGowan.",2013.,,"Taylor & Francis, CRC",Boca Raton,"xv, 216 pages ; 23 cm",0,English,,,0,"9781439856093,1439856095",,,,,,,,,,,0,,,,,,,1,13959050,pdf,c0930cf6e9a581412c183564a51abb6e,,,Laboratory Experiments Using Microwave Heating,0,2000-01-01 01:00:00,2016-04-03 02:51:08,1016000/c0930cf6e9a581412c183564a51abb6e-d.jpg,,
14913544,Primzahltests für Einsteiger: Zahlentheorie - Algorithmik - Kryptographie,,,,Lasse Rempe,2009,2010,Vieweg+Teubner Verlag,,229,0,Deutsch,113,,0,"383480679X,9783834806796",,,,,,,,,,,0,,,,1,,1,1,3988678,pdf,e07c5dc0a0c175738684d642a31dd1b4,,,383480679X_Primza,0,2000-01-01 01:00:00,2016-04-03 02:51:08,http://ecx.images-amazon.com/images/I/41TKpVzH90L.jpg,,
14913545,"Linear electric machines, drives, and MAGLEVs handbook",,,,Ion Boldea.,2013.,,CRC Press,Boca Raton,"xiv, 635 p.",0,English,,,0,9781439845158,,,,,,,,,,,0,,,,,,,1,58173195,pdf,212d6c208550b547a9b719fa7a8334f4,,,"Linear Electric Machines, Drives, and MAGLEVs Handbook",0,2000-01-01 01:00:00,2016-04-03 02:51:08,1016000/212d6c208550b547a9b719fa7a8334f4-d.jpg,,
14913543,Methods of statistical model estimation,,,,"Joseph M. Hilbe,  Jet Propulsion Laboratory, California Institute of Technology, USA, and Arizona State Univeristy, USA, Andrew P. Robinson, ACERA & Department of Mathematics and Statistics, The University.",2013.,,CRC Press,Boca Raton,"xii, 243 pages : illustrations ; 25 cm",0,English,,,0,"9781439858028,1439858020",,,,,,,,,,,0,,,,,,,1,4441659,pdf,11c58bedb64190b8248c98640e7712fc,,,Methods of Statistical Model Estimation,0,2000-01-01 01:00:00,2016-04-03 02:51:08,1016000/11c58bedb64190b8248c98640e7712fc-d.jpg,,
14913542,Principles of neural coding,,,,"edited by Rodrigo Quian Quiroga, ... [et al.].",2013.,,Taylor & Francis,Boca Raton,623 S : Ill.,0,English,,,0,"9781439853306,1439853304",,,,,,,,,,,0,,,,,,,1,107095696,pdf,0b61e309f99932fcc3624ea3da05e5f5,,,Principles of Neural Coding,0,2000-01-01 01:00:00,2016-04-03 02:51:08,1016000/0b61e309f99932fcc3624ea3da05e5f5-d.jpg,,
14913541,Quantifying morphology and physiology of the human body using MRI,,Series in medical physics and biomedical engineering.,,"edited by L. Tugan Muftuler, Department of Neurosurgery, Medical College of Wisconsin.",2013,,CRC Press/Taylor & Francis Group,"Boca Raton, FL","xiv, 495 pages",0,English,,,0,"9781439852651,1439852650",,,,,,,,,,,0,,,,,,,1,81043653,pdf,c1915caaf471386fb9a8acc510ea4227,,,Quantifying Morphology and Physiology of the Human Body Using MRI,0,2000-01-01 01:00:00,2016-04-03 02:51:08,1016000/c1915caaf471386fb9a8acc510ea4227-d.jpg,,
14913540,100 Rezepte für Borland Pascal: Programmiertips mit Pfiff für Einsteiger und Fortgeschrittene,,,,Norbert Hoffmann (auth.),1993,,Vieweg+Teubner Verlag,,139,0,German,,,,"978-3-528-05359-8,978-3-663-16254-4",,,,,,,10.1007/978-3-663-16254-4,,,,0,,1,0,1,,,1,6368694,pdf,947487fdb3742da2fe42141991d79776,,,10.1007%2F978-3-663-16254-4.pdf,0,2000-01-01 01:00:00,2016-04-03 02:51:08,http://link.springer.com/static-content/covers/books/472/9783663162544.jpg,,
14913539,Shale engineering : mechanics and mechanisms,,,,Mohammad Asef and Mohsen Farrokhrouz.,2013 ,,CRC Press,,301,0,English,,,0,"9780415874199,041587419X",,,,,,,,,,,0,,,,,,,1,52537070,pdf,a1aa74d75e1f38c60b53287485efc7b7,,,Shale Engineering Mechanics and Mechanisms,0,2000-01-01 01:00:00,2016-04-03 02:51:08,1016000/a1aa74d75e1f38c60b53287485efc7b7-d.jpg,,
14913538,Spike timing : mechanisms and function,,"Frontiers in neuroscience (Boca Raton, Fla.)",,"editors, Patricia M. DiLorenzo, Jonathan D. Victor.",2013.,,Taylor & Francis/CRC Press,Boca Raton,410,0,English,,,0,"9781439838167,143983816X",,,,,,,,,,,0,,,,,,,1,44922758,pdf,fa209c66e4337f8b03bb3ed0dd60e626,,,Spike Timing Mechanisms and Function,0,2000-01-01 01:00:00,2016-04-03 02:51:08,1016000/fa209c66e4337f8b03bb3ed0dd60e626-d.jpg,,
14913537,Gesammelte Gesundheitsstatistische Abhandlungen und Kurzberichte: Folge I (1936),,,,"R. Pohlen, Kurt Pohlen",1936,,Springer Berlin Heidelberg,,163,0,German,,,0,"978-3-662-27213-8,978-3-662-28696-8",,,,,,,10.1007/978-3-662-28696-8,,,,0,,1,0,1,,,1,9519287,pdf,5722f421ea014994186024534ee5940f,,,10.1007%2F978-3-662-28696-8.pdf,0,2000-01-01 01:00:00,2016-04-03 02:51:08,http://link.springer.com/static-content/covers/books/886/9783662286968.jpg,,
14913536,"Aufladung von Verbrennungsmotoren: Entwicklung, Regelung und Stand der Technik",,Fortschritte der Fahrzeugtechnik 6,,"K.-D. Emmenthal, R.-H. Strozyk (auth.), Prof. Dr.-Ing. Manfred Rautenberg (eds.)",1990,,Vieweg+Teubner Verlag,,241,0,German,,,,"978-3-528-06404-4,978-3-663-16227-8",,,,,,,10.1007/978-3-663-16227-8,,,,0,,1,0,1,,,1,9520755,pdf,ff0dc254584343ce0bb4b9f90f1bf794,,,10.1007%2F978-3-663-16227-8.pdf,0,2000-01-01 01:00:00,2016-04-03 02:51:08,http://link.springer.com/static-content/covers/books/258/9783663162278.jpg,,
14913535,Gesammelte Gesundheitsstatistische Abhandlungen und Kurzberichte: Folge I (1936),,,,"R. Pohlen (auth.), Dr. Kurt Pohlen (eds.)",1936,,Springer Berlin Heidelberg,,163,0,German,,,,"978-3-662-27213-8,978-3-662-28696-8",,,,,,,10.1007/978-3-662-28696-8,,,,0,,1,0,1,,,1,9519287,pdf,5722f421ea014994186024534ee5940f,,,10.1007%2F978-3-662-28696-8.pdf,0,2000-01-01 01:00:00,2016-04-03 02:51:08,http://link.springer.com/static-content/covers/books/886/9783662286968.jpg,,
14913534,"Entscheidungsspiele in Politik, Verwaltung und Wirtschaft",,Beiträge zur sozialwissenschaftlichen Forschung 50,,Astrid Wender,1983,,VS Verlag für Sozialwissenschaften,,256,0,German,,,0,"978-3-531-11669-3,978-3-663-14438-0",,,,,,,10.1007/978-3-663-14438-0,,,,0,,1,0,1,,,1,5304478,pdf,a320a8afaf0039c56b16e1d7d11bd970,,,10.1007%2F978-3-663-14438-0.pdf,0,2000-01-01 01:00:00,2016-04-03 02:51:08,http://link.springer.com/static-content/covers/books/734/9783663144380.jpg,,
14913533,"Entscheidungsspiele in Politik, Verwaltung und Wirtschaft",,Beiträge zur sozialwissenschaftlichen Forschung 50,,Astrid Wender (auth.),1983,,VS Verlag für Sozialwissenschaften,,256,0,German,,,,"978-3-531-11669-3,978-3-663-14438-0",,,,,,,10.1007/978-3-663-14438-0,,,,0,,1,0,1,,,1,5304478,pdf,a320a8afaf0039c56b16e1d7d11bd970,,,10.1007%2F978-3-663-14438-0.pdf,0,2000-01-01 01:00:00,2016-04-03 02:51:08,http://link.springer.com/static-content/covers/books/734/9783663144380.jpg,,
14913532,Die Zeitschriften des Jungen Deutschland: Eine Untersuchung zur literarisch-publizistischen Öffentlichkeit im 19. Jahrhundert,,Kulturwissenschaftliche Studien zur deutschen Literatur,,Helga Brandes,1991,,VS Verlag für Sozialwissenschaften,,304,0,German,,,0,"978-3-531-12040-9,978-3-663-14445-8",,,,,,,10.1007/978-3-663-14445-8,,,,0,,1,0,1,,,1,11551381,pdf,a836931e4bce5c11073086bbd4f1461a,,,10.1007%2F978-3-663-14445-8.pdf,0,2000-01-01 01:00:00,2016-04-03 02:51:08,http://link.springer.com/static-content/covers/books/858/9783663144458.jpg,,
14913531,Die Zeitschriften des Jungen Deutschland: Eine Untersuchung zur literarisch-publizistischen Öffentlichkeit im 19. Jahrhundert,,Kulturwissenschaftliche Studien zur deutschen Literatur,,Helga Brandes (auth.),1991,,VS Verlag für Sozialwissenschaften,,304,0,German,,,,"978-3-531-12040-9,978-3-663-14445-8",,,,,,,10.1007/978-3-663-14445-8,,,,0,,1,0,1,,,1,11551381,pdf,a836931e4bce5c11073086bbd4f1461a,,,10.1007%2F978-3-663-14445-8.pdf,0,2000-01-01 01:00:00,2016-04-03 02:51:08,http://link.springer.com/static-content/covers/books/858/9783663144458.jpg,,
14913530,Die Zeit des letzten mongolischen Großkhans Ligdan (1604–1634): 203. Sitzung am 16. April1975 in Düsseldorf,,Rheinisch-Westfälische Akademie der Wissenschaften 235,,Walther Heissig,1979,,VS Verlag für Sozialwissenschaften,,45,0,German,,,0,"978-3-531-07235-7,978-3-663-14446-5",,,,,,,10.1007/978-3-663-14446-5,,,,0,,1,0,1,,,1,1794292,pdf,173e9bc69659104563819db653cbe3ec,,,10.1007%2F978-3-663-14446-5.pdf,0,2000-01-01 01:00:00,2016-04-03 02:51:08,http://link.springer.com/static-content/covers/books/830/9783663144465.jpg,,
14913529,Die Zeit des letzten mongolischen Großkhans Ligdan (1604–1634): 203. Sitzung am 16. April1975 in Düsseldorf,,Rheinisch-Westfälische Akademie der Wissenschaften 235,,Walther Heissig (auth.),1979,,VS Verlag für Sozialwissenschaften,,45,0,German,,,,"978-3-531-07235-7,978-3-663-14446-5",,,,,,,10.1007/978-3-663-14446-5,,,,0,,1,0,1,,,1,1794292,pdf,173e9bc69659104563819db653cbe3ec,,,10.1007%2F978-3-663-14446-5.pdf,0,2000-01-01 01:00:00,2016-04-03 02:51:08,http://link.springer.com/static-content/covers/books/830/9783663144465.jpg,,
14913528,Die Entstehung der deutschen Schriftsprache: Bisherige Erklärungsmodelle — neuester Forschungsstand,,Rheinisch-Westfälische Akademie der Wissenschaften 290,,Werner Besch,1987,,VS Verlag für Sozialwissenschaften,,64,0,German,,,0,"978-3-531-07290-6,978-3-663-14460-1",,,,,,,10.1007/978-3-663-14460-1,,,,0,,1,0,1,,,1,2394091,pdf,cc5f47203adba5da4ea457fcfcafc7b4,,,10.1007%2F978-3-663-14460-1.pdf,0,2000-01-01 01:00:00,2016-04-03 02:51:08,http://link.springer.com/static-content/covers/books/98/9783663144601.jpg,,
14913527,Die Entstehung der deutschen Schriftsprache: Bisherige Erklärungsmodelle — neuester Forschungsstand,,Rheinisch-Westfälische Akademie der Wissenschaften 290,,Professor Dr. phil. Werner Besch (auth.),1987,,VS Verlag für Sozialwissenschaften,,64,0,German,,,,"978-3-531-07290-6,978-3-663-14460-1",,,,,,,10.1007/978-3-663-14460-1,,,,0,,1,0,1,,,1,2394091,pdf,cc5f47203adba5da4ea457fcfcafc7b4,,,10.1007%2F978-3-663-14460-1.pdf,0,2000-01-01 01:00:00,2016-04-03 02:51:08,http://link.springer.com/static-content/covers/books/98/9783663144601.jpg,,
14913526,"Der Stand der Technik: Geschichte, Strukturelemente und Funktion der Verrechtlichung technischer Risiken am Beispiel des Immissionsschutzes",,Beiträge zur sozialwissenschaftlichen Forschung 75,,Rainer Wolf,1986,,VS Verlag für Sozialwissenschaften,,541,0,German,,,0,"978-3-531-11779-9,978-3-663-14470-0",,,,,,,10.1007/978-3-663-14470-0,,,,0,,1,0,1,,,1,16845524,pdf,698e831fe359ebc7177a2a80f2c578c6,,,10.1007%2F978-3-663-14470-0.pdf,0,2000-01-01 01:00:00,2016-04-03 02:51:08,http://link.springer.com/static-content/covers/books/138/9783663144700.jpg,,
14913525,"Der Stand der Technik: Geschichte, Strukturelemente und Funktion der Verrechtlichung technischer Risiken am Beispiel des Immissionsschutzes",,Beiträge zur sozialwissenschaftlichen Forschung 75,,Rainer Wolf (auth.),1986,,VS Verlag für Sozialwissenschaften,,541,0,German,,,,"978-3-531-11779-9,978-3-663-14470-0",,,,,,,10.1007/978-3-663-14470-0,,,,0,,1,0,1,,,1,16845524,pdf,698e831fe359ebc7177a2a80f2c578c6,,,10.1007%2F978-3-663-14470-0.pdf,0,2000-01-01 01:00:00,2016-04-03 02:51:08,http://link.springer.com/static-content/covers/books/138/9783663144700.jpg,,
14913524,Demokratietheorien: Eine Einführung,,Uni-Taschenbücher 1887,,Manfred G. Schmidt,1995,,VS Verlag für Sozialwissenschaften,,407,0,German,,,0,"978-3-8252-1887-4,978-3-663-14476-2",,,,,,,10.1007/978-3-663-14476-2,,,,0,,1,0,1,,,1,32916154,pdf,a4d9d99bd80a9d6d05ac48782af8c264,,,10.1007%2F978-3-663-14476-2.pdf,0,2000-01-01 01:00:00,2016-04-03 02:51:08,http://link.springer.com/static-content/covers/books/950/9783663144762.jpg,,
14913523,Demokratietheorien: Eine Einführung,,Uni-Taschenbücher 1887,,Dr. Manfred G. Schmidt (auth.),1995,,VS Verlag für Sozialwissenschaften,,407,0,German,,,,"978-3-8252-1887-4,978-3-663-14476-2",,,,,,,10.1007/978-3-663-14476-2,,,,0,,1,0,1,,,1,32916154,pdf,a4d9d99bd80a9d6d05ac48782af8c264,,,10.1007%2F978-3-663-14476-2.pdf,0,2000-01-01 01:00:00,2016-04-03 02:51:08,http://link.springer.com/static-content/covers/books/950/9783663144762.jpg,,
14913522,Programme und Tools für Erddruck und Erdwiderstand mit gekrümmten und ebenen Gleitflächen: 6 Programme,,,,H. Günther (auth.),1993,,Vieweg+Teubner Verlag,,195,0,German,,,,"978-3-528-08898-9,978-3-663-15844-8",,,,,,,10.1007/978-3-663-15844-8,,,,0,,1,0,1,,,1,3243319,pdf,a8e291f3b5a0e0b90363400015d5ff4c,,,10.1007%2F978-3-663-15844-8.pdf,0,2000-01-01 01:00:00,2016-04-03 02:51:08,http://link.springer.com/static-content/covers/books/204/9783663158448.jpg,,
14913521,Bronze und Silber: Papyrologische Beiträge zur Geschichte der Währung im ptolemäischen und römischen Ägypten bis zum 2. Jahrhundert n. Chr.,,Papyrologica Coloniensia 25,,Klaus Maresch,1996,,VS Verlag für Sozialwissenschaften,,253,0,German,,,0,"978-3-531-09939-2,978-3-663-14488-5",,,,,,,10.1007/978-3-663-14488-5,,,,0,,1,0,1,,,1,8289763,pdf,ccfcb64da9c94f683fc5a4504a11f520,,,10.1007%2F978-3-663-14488-5.pdf,0,2000-01-01 01:00:00,2016-04-03 02:51:08,http://link.springer.com/static-content/covers/books/924/9783663144885.jpg,,
14913520,Bronze und Silber: Papyrologische Beiträge zur Geschichte der Währung im ptolemäischen und römischen Ägypten bis zum 2. Jahrhundert n. Chr.,,Papyrologica Coloniensia 25,,Klaus Maresch (auth.),1996,,VS Verlag für Sozialwissenschaften,,253,0,German,,,,"978-3-531-09939-2,978-3-663-14488-5",,,,,,,10.1007/978-3-663-14488-5,,,,0,,1,0,1,,,1,8289763,pdf,ccfcb64da9c94f683fc5a4504a11f520,,,10.1007%2F978-3-663-14488-5.pdf,0,2000-01-01 01:00:00,2016-04-03 02:51:08,http://link.springer.com/static-content/covers/books/924/9783663144885.jpg,,
14913519,Bestimmung des Faserabbaues bei Leinen unter besonderer Berücksichtigung der Leinengarnbleiche,,Forschungsberichte des Wirtschafts- und Verkehrsministeriums Nordrhein-Westfalen,,,1954,,VS Verlag für Sozialwissenschaften,,47,0,German,,,0,"978-3-663-12838-0,978-3-663-14492-2",,,,,,,10.1007/978-3-663-14492-2,,,,0,,1,0,1,,,1,2281431,pdf,33dc2ae0be6695df3d6d71c91108872a,,,10.1007%2F978-3-663-14492-2.pdf,0,2000-01-01 01:00:00,2016-04-03 02:51:08,http://link.springer.com/static-content/covers/books/152/9783663144922.jpg,,
14913518,Bestimmung des Faserabbaues bei Leinen unter besonderer Berücksichtigung der Leinengarnbleiche,,Forschungsberichte des Wirtschafts- und Verkehrsministeriums Nordrhein-Westfalen,,(auth.),1954,,VS Verlag für Sozialwissenschaften,,47,0,German,,,,"978-3-663-12838-0,978-3-663-14492-2",,,,,,,10.1007/978-3-663-14492-2,,,,0,,1,0,1,,,1,2281431,pdf,33dc2ae0be6695df3d6d71c91108872a,,,10.1007%2F978-3-663-14492-2.pdf,0,2000-01-01 01:00:00,2016-04-03 02:51:08,http://link.springer.com/static-content/covers/books/152/9783663144922.jpg,,
14913517,Zählangaben — Maßangaben: Bedeutung und konzeptuelle Interpretation von Numeralia,,Studien zur Kognitionswissenschaft,,Carola Eschenbach,1995,,Deutscher Universitätsverlag,,299,0,German,,,0,"978-3-8244-4181-5,978-3-663-14525-7",,,,,,,10.1007/978-3-663-14525-7,,,,0,,1,0,1,,,1,5454382,pdf,32f8e36b86488d94a2f49109653c0829,,,10.1007%2F978-3-663-14525-7.pdf,0,2000-01-01 01:00:00,2016-04-03 02:51:08,http://link.springer.com/static-content/covers/books/990/9783663145257.jpg,,
14913516,Zählangaben — Maßangaben: Bedeutung und konzeptuelle Interpretation von Numeralia,,Studien zur Kognitionswissenschaft,,Carola Eschenbach (auth.),1995,,Deutscher Universitätsverlag,,299,0,German,,,,"978-3-8244-4181-5,978-3-663-14525-7",,,,,,,10.1007/978-3-663-14525-7,,,,0,,1,0,1,,,1,5454382,pdf,32f8e36b86488d94a2f49109653c0829,,,10.1007%2F978-3-663-14525-7.pdf,0,2000-01-01 01:00:00,2016-04-03 02:51:08,http://link.springer.com/static-content/covers/books/990/9783663145257.jpg,,
14913514,Basale Soziologie: Soziale Ungleichheit,,Studienreihe Gesellschaft,,"Walter Zingg, Gisela Zipp",1979,,VS Verlag für Sozialwissenschaften,,235,0,German,,,0,"978-3-531-11438-5,978-3-663-14497-7",,,,,,,10.1007/978-3-663-14497-7,,,,0,,1,0,1,,,1,11443819,pdf,903aab32d17ef9e60443ea2d3c08a659,,,10.1007%2F978-3-663-14497-7.pdf,0,2000-01-01 01:00:00,2016-04-03 02:51:08,http://link.springer.com/static-content/covers/books/992/9783663144977.jpg,,
14913515,Qualitative Sozialforschung,,Studienskripten zur Soziologie 133,,Dr. disc. pol. Walter Spöhring (auth.),1989,,Vieweg+Teubner Verlag,,406,0,German,,,,"978-3-519-00133-1,978-3-663-15836-3",,,,,,,10.1007/978-3-663-15836-3,,,,0,,1,0,1,,,1,9659470,pdf,c256a1ed8d4d723c5db63feadc9db4e1,,,10.1007%2F978-3-663-15836-3.pdf,0,2000-01-01 01:00:00,2016-04-03 02:51:08,http://link.springer.com/static-content/covers/books/108/9783663158363.jpg,,
14913513,Basale Soziologie: Soziale Ungleichheit,,Studienreihe Gesellschaft,,"Walter Zingg, Gisela Zipp (auth.)",1979,,VS Verlag für Sozialwissenschaften,,235,0,German,,,,"978-3-531-11438-5,978-3-663-14497-7",,,,,,,10.1007/978-3-663-14497-7,,,,0,,1,0,1,,,1,11443819,pdf,903aab32d17ef9e60443ea2d3c08a659,,,10.1007%2F978-3-663-14497-7.pdf,0,2000-01-01 01:00:00,2016-04-03 02:51:08,http://link.springer.com/static-content/covers/books/992/9783663144977.jpg,,
14913511,Attische Grabreliefs: 411. Sitzung am 17. Juni 1998 in Düsseldorf,,Nordrhein-Wesfälische Akademie der Wissenschaften 357,,Nikolaus Himmelmann (auth.),1999,,VS Verlag für Sozialwissenschaften,,149,0,German,,,,"978-3-531-07357-6,978-3-663-14503-5",,,,,,,10.1007/978-3-663-14503-5,,,,0,,1,0,1,,,1,7943055,pdf,93fc4bd325f34e3789713e56f72120a9,,,10.1007%2F978-3-663-14503-5.pdf,0,2000-01-01 01:00:00,2016-04-03 02:51:08,http://link.springer.com/static-content/covers/books/976/9783663145035.jpg,,
14913512,Attische Grabreliefs: 411. Sitzung am 17. Juni 1998 in Düsseldorf,,Nordrhein-Wesfälische Akademie der Wissenschaften 357,,Nikolaus Himmelmann,1999,,VS Verlag für Sozialwissenschaften,,149,0,German,,,0,"978-3-531-07357-6,978-3-663-14503-5",,,,,,,10.1007/978-3-663-14503-5,,,,0,,1,0,1,,,1,7943055,pdf,93fc4bd325f34e3789713e56f72120a9,,,10.1007%2F978-3-663-14503-5.pdf,0,2000-01-01 01:00:00,2016-04-03 02:51:08,http://link.springer.com/static-content/covers/books/976/9783663145035.jpg,,
14913510,"Alltagswissen, Interaktion und Gesellschaftliche Wirklichkeit: 1: Symbolischer Interaktionismus und Ethnomethodologie. 2: Ethnotheorie und Ethnographie des Sprechens",,WV studium 54/55,,,1980,,VS Verlag für Sozialwissenschaften,,540,0,German,,,0,"978-3-531-22054-3,978-3-663-14511-0",,,,,,,10.1007/978-3-663-14511-0,,,,0,,1,0,1,,,1,25175221,pdf,5181d7c10a4a79b30acb8e4b1fef6d06,,,10.1007%2F978-3-663-14511-0.pdf,0,2000-01-01 01:00:00,2016-04-03 02:51:08,http://link.springer.com/static-content/covers/books/82/9783663145110.jpg,,
14913508,Abrasax: Ausgewählte Papyri religiösen und magischen Inhalts. Band 2: Gebete (Fortsetzung),,Papyrologica Coloniensia 17/2,,"Reinhold Merkelbach, Maria Totti",1991,,VS Verlag für Sozialwissenschaften,,229,0,German,,,0,"978-3-531-09930-9,978-3-663-14518-9",,,,,,,10.1007/978-3-663-14518-9,,,,0,,1,0,1,,,1,9991512,pdf,27020fdd687bfcbd6f35e84405aa8d2d,,,10.1007%2F978-3-663-14518-9.pdf,0,2000-01-01 01:00:00,2016-04-03 02:51:08,http://link.springer.com/static-content/covers/books/856/9783663145189.jpg,,
14913509,"Alltagswissen, Interaktion und Gesellschaftliche Wirklichkeit: 1: Symbolischer Interaktionismus und Ethnomethodologie. 2: Ethnotheorie und Ethnographie des Sprechens",,WV studium 54/55,,(auth.),1980,,VS Verlag für Sozialwissenschaften,,540,0,German,,,,"978-3-531-22054-3,978-3-663-14511-0",,,,,,,10.1007/978-3-663-14511-0,,,,0,,1,0,1,,,1,25175221,pdf,5181d7c10a4a79b30acb8e4b1fef6d06,,,10.1007%2F978-3-663-14511-0.pdf,0,2000-01-01 01:00:00,2016-04-03 02:51:08,http://link.springer.com/static-content/covers/books/82/9783663145110.jpg,,
14913507,Abrasax: Ausgewählte Papyri religiösen und magischen Inhalts. Band 2: Gebete (Fortsetzung),,Papyrologica Coloniensia 17/2,,"Professor Dr. Reinhold Merkelbach, Maria Totti (auth.), Professor Dr. Reinhold Merkelbach, Maria Totti (eds.)",1991,,VS Verlag für Sozialwissenschaften,,229,0,German,,,,"978-3-531-09930-9,978-3-663-14518-9",,,,,,,10.1007/978-3-663-14518-9,,,,0,,1,0,1,,,1,9991512,pdf,27020fdd687bfcbd6f35e84405aa8d2d,,,10.1007%2F978-3-663-14518-9.pdf,0,2000-01-01 01:00:00,2016-04-03 02:51:08,http://link.springer.com/static-content/covers/books/856/9783663145189.jpg,,
14913506,Verfahren zur Sicherheitsanalyse: Eine prospektive Methode zur Analyse und Bewertung von Gefährdungen,,,,Jörg Nohl,1989,,Deutscher Universitätsverlag,,252,0,German,,,0,"978-3-8244-2001-8,978-3-663-14537-0",,,,,,,10.1007/978-3-663-14537-0,,,,0,,1,0,1,,,1,5669281,pdf,f50937d10a8433fe3b32892a265e7b5c,,,10.1007%2F978-3-663-14537-0.pdf,0,2000-01-01 01:00:00,2016-04-03 02:51:08,http://link.springer.com/static-content/covers/books/974/9783663145370.jpg,,
14913504,Langlebige Gebrauchsgüter: Ökologische Optimierung der Nutzungsdauer,,DUV Wirtschaftswissenschaft,,Klaus Bellmann,1990,,Deutscher Universitätsverlag,,205,0,German,,,0,"978-3-8244-0051-5,978-3-663-14598-1",,,,,,,10.1007/978-3-663-14598-1,,,,0,,1,0,1,,,1,5553551,pdf,c0b95b7f32a6383f185435891a2fe851,,,10.1007%2F978-3-663-14598-1.pdf,0,2000-01-01 01:00:00,2016-04-03 02:51:08,http://link.springer.com/static-content/covers/books/176/9783663145981.jpg,,
14913505,Verfahren zur Sicherheitsanalyse: Eine prospektive Methode zur Analyse und Bewertung von Gefährdungen,,,,Jörg Nohl (auth.),1989,,Deutscher Universitätsverlag,,252,0,German,,,,"978-3-8244-2001-8,978-3-663-14537-0",,,,,,,10.1007/978-3-663-14537-0,,,,0,,1,0,1,,,1,5669281,pdf,f50937d10a8433fe3b32892a265e7b5c,,,10.1007%2F978-3-663-14537-0.pdf,0,2000-01-01 01:00:00,2016-04-03 02:51:08,http://link.springer.com/static-content/covers/books/974/9783663145370.jpg,,
14913503,Langlebige Gebrauchsgüter: Ökologische Optimierung der Nutzungsdauer,,DUV Wirtschaftswissenschaft,,Klaus Bellmann (auth.),1990,,Deutscher Universitätsverlag,,205,0,German,,,,"978-3-8244-0051-5,978-3-663-14598-1",,,,,,,10.1007/978-3-663-14598-1,,,,0,,1,0,1,,,1,5553551,pdf,c0b95b7f32a6383f185435891a2fe851,,,10.1007%2F978-3-663-14598-1.pdf,0,2000-01-01 01:00:00,2016-04-03 02:51:08,http://link.springer.com/static-content/covers/books/176/9783663145981.jpg,,
14913502,Kapitalwert und Ertragsteuern: Die Bedeutung der Finanzierungsprämisse für die Investitionsrechnung,,,,Verena Volpert,1989,,Deutscher Universitätsverlag,,233,0,German,,,0,"978-3-8244-0011-9,978-3-663-14608-7",,,,,,,10.1007/978-3-663-14608-7,,,,0,,1,0,1,,,1,5733175,pdf,b8d2b5275c4aef3daafdc4318c45d84f,,,10.1007%2F978-3-663-14608-7.pdf,0,2000-01-01 01:00:00,2016-04-03 02:51:08,http://link.springer.com/static-content/covers/books/28/9783663146087.jpg,,
14913501,Kapitalwert und Ertragsteuern: Die Bedeutung der Finanzierungsprämisse für die Investitionsrechnung,,,,Verena Volpert (auth.),1989,,Deutscher Universitätsverlag,,233,0,German,,,,"978-3-8244-0011-9,978-3-663-14608-7",,,,,,,10.1007/978-3-663-14608-7,,,,0,,1,0,1,,,1,5733175,pdf,b8d2b5275c4aef3daafdc4318c45d84f,,,10.1007%2F978-3-663-14608-7.pdf,0,2000-01-01 01:00:00,2016-04-03 02:51:08,http://link.springer.com/static-content/covers/books/28/9783663146087.jpg,,
14913500,Bankbetriebslehre: Bankgeschäfte und Bankmanagement,,,,Hans E. Büschgen (auth.),1991,,Gabler Verlag,,847,0,German,,,,"978-3-409-42073-0,978-3-663-15730-4",,,,,,,10.1007/978-3-663-15730-4,,,,0,,1,0,1,,,1,20913501,pdf,ce4c37295bff5bfd0d67887d7af4ab55,,,10.1007%2F978-3-663-15730-4.pdf,0,2000-01-01 01:00:00,2016-04-03 02:51:08,http://link.springer.com/static-content/covers/books/84/9783663157304.jpg,,
14913499,Fundamentale Ideen der Informatik im Mathematikunterricht: Grundsätzliche Überlegungen und Beispiele für die Primarstufe,,,,"Petra Knöß, Erich Ch. Wittmann",1989,,Deutscher Universitätsverlag,,348,0,German,,,0,"978-3-8244-2004-9,978-3-663-14619-3",,,,,,,10.1007/978-3-663-14619-3,,,,0,,1,0,1,,,1,11800036,pdf,09f3a1fac031f4e72ca583d061020599,,,10.1007%2F978-3-663-14619-3.pdf,0,2000-01-01 01:00:00,2016-04-03 02:51:08,http://link.springer.com/static-content/covers/books/40/9783663146193.jpg,,
14913498,Fundamentale Ideen der Informatik im Mathematikunterricht: Grundsätzliche Überlegungen und Beispiele für die Primarstufe,,,,"Petra Knöß (auth.), Erich Ch. Wittmann (eds.)",1989,,Deutscher Universitätsverlag,,348,0,German,,,,"978-3-8244-2004-9,978-3-663-14619-3",,,,,,,10.1007/978-3-663-14619-3,,,,0,,1,0,1,,,1,11800036,pdf,09f3a1fac031f4e72ca583d061020599,,,10.1007%2F978-3-663-14619-3.pdf,0,2000-01-01 01:00:00,2016-04-03 02:51:08,http://link.springer.com/static-content/covers/books/40/9783663146193.jpg,,
14913497,Die berufliche Handlungsbereitschaft von ausländischen Beschäftigten: Eine Längsschnittuntersuchung,,DUV Sozialwissenschaft,,Wolfgang Bartsch,1990,,Deutscher Universitätsverlag,,307,0,German,,,0,"978-3-8244-4045-0,978-3-663-14644-5",,,,,,,10.1007/978-3-663-14644-5,,,,0,,1,0,1,,,1,8030971,pdf,99999da7d4210d4d4a931eb6eeea2862,,,10.1007%2F978-3-663-14644-5.pdf,0,2000-01-01 01:00:00,2016-04-03 02:51:08,http://link.springer.com/static-content/covers/books/310/9783663146445.jpg,,
14913496,Die berufliche Handlungsbereitschaft von ausländischen Beschäftigten: Eine Längsschnittuntersuchung,,DUV Sozialwissenschaft,,Wolfgang Bartsch (auth.),1990,,Deutscher Universitätsverlag,,307,0,German,,,,"978-3-8244-4045-0,978-3-663-14644-5",,,,,,,10.1007/978-3-663-14644-5,,,,0,,1,0,1,,,1,8030971,pdf,99999da7d4210d4d4a931eb6eeea2862,,,10.1007%2F978-3-663-14644-5.pdf,0,2000-01-01 01:00:00,2016-04-03 02:51:08,http://link.springer.com/static-content/covers/books/310/9783663146445.jpg,,
14913495,Aktienindex-Terminkontrakte: Destabilisierende Instrumente des Portfoliomanagements?,,DUV: Wirtschaftswissenschaft,,Harald Wiebke,1992,,Deutscher Universitätsverlag,,197,0,German,,,0,"978-3-8244-0098-0,978-3-663-14669-8",,,,,,,10.1007/978-3-663-14669-8,,,,0,,1,0,1,,,1,6867083,pdf,3b025324a5a41f15f3a7674c6faa8ce8,,,10.1007%2F978-3-663-14669-8.pdf,0,2000-01-01 01:00:00,2016-04-03 02:51:08,http://link.springer.com/static-content/covers/books/230/9783663146698.jpg,,
14913494,Aktienindex-Terminkontrakte: Destabilisierende Instrumente des Portfoliomanagements?,,DUV: Wirtschaftswissenschaft,,Harald Wiebke (auth.),1992,,Deutscher Universitätsverlag,,197,0,German,,,,"978-3-8244-0098-0,978-3-663-14669-8",,,,,,,10.1007/978-3-663-14669-8,,,,0,,1,0,1,,,1,6867083,pdf,3b025324a5a41f15f3a7674c6faa8ce8,,,10.1007%2F978-3-663-14669-8.pdf,0,2000-01-01 01:00:00,2016-04-03 02:51:08,http://link.springer.com/static-content/covers/books/230/9783663146698.jpg,,
14913493,Produktionspolitik,,,,Dietrich Adam,1988,,Gabler Verlag,,400,0,German,,,0,"978-3-409-69113-0,978-3-663-14745-9",,,,,,,10.1007/978-3-663-14745-9,,,,0,,1,0,1,,,1,7658282,pdf,d7022c68686153d7350632f2fc1e68a2,,,10.1007%2F978-3-663-14745-9.pdf,0,2000-01-01 01:00:00,2016-04-03 02:51:08,1016000/d7022c68686153d7350632f2fc1e68a2-d.jpg,,
14913491,Produktionspolitik,,,,Dietrich Adam,1988,,Gabler Verlag,,400,0,German,,,0,"978-3-409-69113-0,978-3-663-14745-9",,,,,,,10.1007/978-3-663-14745-9,,,,0,,1,0,1,,,1,7658282,pdf,d7022c68686153d7350632f2fc1e68a2,,,10.1007%2F978-3-663-14745-9.pdf,0,2000-01-01 01:00:00,2016-04-03 02:51:08,http://link.springer.com/static-content/covers/books/484/9783663147459.jpg,,
14913492,Produktionspolitik,,,,Dietrich Adam,1976,,Gabler Verlag,,256,0,German,,,0,"978-3-409-69111-6,978-3-663-14747-3",,,,,,,10.1007/978-3-663-14747-3,,,,0,,1,0,1,,,1,11857028,pdf,7e3e1b61b8c7eee3ffe6e705ee88677a,,,10.1007%2F978-3-663-14747-3.pdf,0,2000-01-01 01:00:00,2016-04-03 02:51:08,1016000/7e3e1b61b8c7eee3ffe6e705ee88677a-d.jpg,,
14913490,Produktionspolitik,,,,Dr. Dietrich Adam (auth.),1988,,Gabler Verlag,,400,0,German,,,,"978-3-409-69113-0,978-3-663-14745-9",,,,,,,10.1007/978-3-663-14745-9,,,,0,,1,0,1,,,1,7658282,pdf,d7022c68686153d7350632f2fc1e68a2,,,10.1007%2F978-3-663-14745-9.pdf,0,2000-01-01 01:00:00,2016-04-03 02:51:08,http://link.springer.com/static-content/covers/books/484/9783663147459.jpg,,
14913489,Produktionspolitik,,,,Dietrich Adam,1976,,Gabler Verlag,,256,0,German,,,0,"978-3-409-69111-6,978-3-663-14747-3",,,,,,,10.1007/978-3-663-14747-3,,,,0,,1,0,1,,,1,11857028,pdf,7e3e1b61b8c7eee3ffe6e705ee88677a,,,10.1007%2F978-3-663-14747-3.pdf,0,2000-01-01 01:00:00,2016-04-03 02:51:08,http://link.springer.com/static-content/covers/books/428/9783663147473.jpg,,
14913487,Marktforschung: Methodische Grundlagen und praktische Anwendung,,,,"Ludwig Berekoven, Werner Eckert, Peter Ellenrieder",1993,,Gabler Verlag,,408,0,German,,,0,"978-3-409-36987-9,978-3-663-14756-5",,,,,,,10.1007/978-3-663-14756-5,,,,0,,1,0,1,,,1,23829969,pdf,aa06a91875b98452f4954615e9c26e77,,,10.1007%2F978-3-663-14756-5.pdf,0,2000-01-01 01:00:00,2016-04-03 02:51:08,http://link.springer.com/static-content/covers/books/496/9783663147565.jpg,,
14913488,Produktionspolitik,,,,Prof. Dr. Dietrich Adam (auth.),1976,,Gabler Verlag,,256,0,German,,,,"978-3-409-69111-6,978-3-663-14747-3",,,,,,,10.1007/978-3-663-14747-3,,,,0,,1,0,1,,,1,11857028,pdf,7e3e1b61b8c7eee3ffe6e705ee88677a,,,10.1007%2F978-3-663-14747-3.pdf,0,2000-01-01 01:00:00,2016-04-03 02:51:08,http://link.springer.com/static-content/covers/books/428/9783663147473.jpg,,
14913486,Personalentwicklung,,Gabler-Studientexte,,Gustav Klötzl,1996,,Gabler Verlag,,78,0,German,,,0,"978-3-409-92269-2,978-3-663-14749-7",,,,,,,10.1007/978-3-663-14749-7,,,,0,,1,0,1,,,1,3538350,pdf,22933db3065de6d282ea4a13d4daad14,,,10.1007%2F978-3-663-14749-7.pdf,0,2000-01-01 01:00:00,2016-04-03 02:51:08,http://link.springer.com/static-content/covers/books/362/9783663147497.jpg,,
14913485,Personalentwicklung,,Gabler-Studientexte,,Gustav Klötzl (auth.),1996,,Gabler Verlag,,78,0,German,,,,"978-3-409-92269-2,978-3-663-14749-7",,,,,,,10.1007/978-3-663-14749-7,,,,0,,1,0,1,,,1,3538350,pdf,22933db3065de6d282ea4a13d4daad14,,,10.1007%2F978-3-663-14749-7.pdf,0,2000-01-01 01:00:00,2016-04-03 02:51:08,http://link.springer.com/static-content/covers/books/362/9783663147497.jpg,,
14913483,Einführung in die Rechtswissenschaft,,,,Friedrich Giese,1948,,Gabler Verlag,,104,0,German,,,0,"978-3-663-14698-8,978-3-663-14786-2",,,,,,,10.1007/978-3-663-14786-2,,,,0,,1,0,1,,,1,5599798,pdf,e85be0f1dbd92e62b83fd0d98a9481df,,,10.1007%2F978-3-663-14786-2.pdf,0,2000-01-01 01:00:00,2016-04-03 02:51:08,http://link.springer.com/static-content/covers/books/616/9783663147862.jpg,,
14913484,Marktforschung: Methodische Grundlagen und praktische Anwendung,,,,"Ludwig Berekoven, Werner Eckert, Peter Ellenrieder (auth.)",1993,,Gabler Verlag,,408,0,German,,,,"978-3-409-36987-9,978-3-663-14756-5",,,,,,,10.1007/978-3-663-14756-5,,,,0,,1,0,1,,,1,23829969,pdf,aa06a91875b98452f4954615e9c26e77,,,10.1007%2F978-3-663-14756-5.pdf,0,2000-01-01 01:00:00,2016-04-03 02:51:08,http://link.springer.com/static-content/covers/books/496/9783663147565.jpg,,
14913482,Einführung in die Rechtswissenschaft,,,,Dr. Friedrich Giese (auth.),1948,,Gabler Verlag,,104,0,German,,,,"978-3-663-14698-8,978-3-663-14786-2",,,,,,,10.1007/978-3-663-14786-2,,,,0,,1,0,1,,,1,5599798,pdf,e85be0f1dbd92e62b83fd0d98a9481df,,,10.1007%2F978-3-663-14786-2.pdf,0,2000-01-01 01:00:00,2016-04-03 02:51:08,http://link.springer.com/static-content/covers/books/616/9783663147862.jpg,,
14913481,Buchführungs-Regeln für gewerbliche Kleinbetriebe,,,,Wilhelm Kalveram,1949,,Gabler Verlag,,46,0,German,,,0,"978-3-663-14719-0,978-3-663-14816-6",,,,,,,10.1007/978-3-663-14816-6,,,,0,,1,0,1,,,1,2083273,pdf,211956ed1af2641c53cc2845bf5dc0f9,,,10.1007%2F978-3-663-14816-6.pdf,0,2000-01-01 01:00:00,2016-04-03 02:51:08,http://link.springer.com/static-content/covers/books/548/9783663148166.jpg,,
14913480,Buchführungs-Regeln für gewerbliche Kleinbetriebe,,,,"Professor Dr. W. Kalveram (auth.), Professor Dr. Wilhelm Kalveram (eds.)",1949,,Gabler Verlag,,46,0,German,,,,"978-3-663-14719-0,978-3-663-14816-6",,,,,,,10.1007/978-3-663-14816-6,,,,0,,1,0,1,,,1,2083273,pdf,211956ed1af2641c53cc2845bf5dc0f9,,,10.1007%2F978-3-663-14816-6.pdf,0,2000-01-01 01:00:00,2016-04-03 02:51:08,http://link.springer.com/static-content/covers/books/548/9783663148166.jpg,,
14913479,Bewertung und Abschreibung von Anlagen: Neue Wege der Anlagenrechnung,,,,Herbert Gudehus,1959,,Gabler Verlag,,285,0,German,,,0,"978-3-663-14724-4,978-3-663-14823-4",,,,,,,10.1007/978-3-663-14823-4,,,,0,,1,0,1,,,1,7971389,pdf,73e0b0949a7dbc61d11468dc2cea1f6f,,,10.1007%2F978-3-663-14823-4.pdf,0,2000-01-01 01:00:00,2016-04-03 02:51:08,http://link.springer.com/static-content/covers/books/682/9783663148234.jpg,,
14913477,Banktechnik des Außenhandels,,,,Johannes Zahn,1962,,Gabler Verlag,,74,0,German,,,0,"978-3-663-14727-5,978-3-663-14828-9",,,,,,,10.1007/978-3-663-14828-9,,,,0,,1,0,1,,,1,4258612,pdf,114d9e28bd3dd3a2a07f395c78340ec5,,,10.1007%2F978-3-663-14828-9.pdf,0,2000-01-01 01:00:00,2016-04-03 02:51:08,http://link.springer.com/static-content/covers/books/522/9783663148289.jpg,,
14913478,Bewertung und Abschreibung von Anlagen: Neue Wege der Anlagenrechnung,,,,Herbert Gudehus (auth.),1959,,Gabler Verlag,,285,0,German,,,,"978-3-663-14724-4,978-3-663-14823-4",,,,,,,10.1007/978-3-663-14823-4,,,,0,,1,0,1,,,1,7971389,pdf,73e0b0949a7dbc61d11468dc2cea1f6f,,,10.1007%2F978-3-663-14823-4.pdf,0,2000-01-01 01:00:00,2016-04-03 02:51:08,http://link.springer.com/static-content/covers/books/682/9783663148234.jpg,,
14913476,Banktechnik des Außenhandels,,,,Dr. Johannes Zahn (auth.),1962,,Gabler Verlag,,74,0,German,,,,"978-3-663-14727-5,978-3-663-14828-9",,,,,,,10.1007/978-3-663-14828-9,,,,0,,1,0,1,,,1,4258612,pdf,114d9e28bd3dd3a2a07f395c78340ec5,,,10.1007%2F978-3-663-14828-9.pdf,0,2000-01-01 01:00:00,2016-04-03 02:51:08,http://link.springer.com/static-content/covers/books/522/9783663148289.jpg,,
14913475,Bankbetriebslehre: Bankgeschäfte und Bankmanagement,,,,Hans E. Büschgen,1993,,Gabler Verlag,,948,0,German,,,0,"978-3-409-42074-7,978-3-663-14832-6",,,,,,,10.1007/978-3-663-14832-6,,,,0,,1,0,1,,,1,23618526,pdf,7c5886a6e56f978b1d38f7632acf52d8,,,10.1007%2F978-3-663-14832-6.pdf,0,2000-01-01 01:00:00,2016-04-03 02:51:08,http://link.springer.com/static-content/covers/books/750/9783663148326.jpg,,
14913474,Bankbetriebslehre: Bankgeschäfte und Bankmanagement,,,,Professor Dr. Hans E. Büschgen (auth.),1993,,Gabler Verlag,,948,0,German,,,,"978-3-409-42074-7,978-3-663-14832-6",,,,,,,10.1007/978-3-663-14832-6,,,,0,,1,0,1,,,1,23618526,pdf,7c5886a6e56f978b1d38f7632acf52d8,,,10.1007%2F978-3-663-14832-6.pdf,0,2000-01-01 01:00:00,2016-04-03 02:51:08,http://link.springer.com/static-content/covers/books/750/9783663148326.jpg,,
14913472,"Pädagogik der Vielfalt: Verschiedenheit und Gleichberechtigung in Interkultureller, Feministischer und Integrativer Pädagogik",,Reihe Schule und Gesellschaft,,Annedore Prengel,1993,,VS Verlag für Sozialwissenschaften,,246,0,German,,,0,"978-3-8100-1163-3,978-3-663-14850-0",,,,,,,10.1007/978-3-663-14850-0,,,,0,,1,0,1,,,1,8433485,pdf,66ec7ae33c350dcf23c8778a1315ba84,,,10.1007%2F978-3-663-14850-0.pdf,0,2000-01-01 01:00:00,2016-04-03 02:51:08,http://link.springer.com/static-content/covers/books/896/9783663148500.jpg,,
14913473,Hegel and Global Justice,,Studies in Global Justice (Book 10),,Andrew Buchwalter (Editor),2012,,Springer,,244,0,English,,,0,940076846X,,,,,,,,,,,0,,,,,,,0,4366320,djvu,b5180a3f115f0f5f3527c56910c750ab,,,hegel_global justice,0,2000-01-01 01:00:00,2016-04-03 02:51:08,1016000/b5180a3f115f0f5f3527c56910c750ab-g.jpg,,
14913471,"Pädagogik der Vielfalt: Verschiedenheit und Gleichberechtigung in Interkultureller, Feministischer und Integrativer Pädagogik",,Reihe Schule und Gesellschaft,,Annedore Prengel (auth.),1993,,VS Verlag für Sozialwissenschaften,,246,0,German,,,,"978-3-8100-1163-3,978-3-663-14850-0",,,,,,,10.1007/978-3-663-14850-0,,,,0,,1,0,1,,,1,8433485,pdf,66ec7ae33c350dcf23c8778a1315ba84,,,10.1007%2F978-3-663-14850-0.pdf,0,2000-01-01 01:00:00,2016-04-03 02:51:08,http://link.springer.com/static-content/covers/books/896/9783663148500.jpg,,
14913470,Lern- und Arbeitstechniken für pädagogische Studiengänge: mit zahlreichen Abbildungen sowie Informationen zu Auskunftsmitteln und (Internet-) Adressen,,Uni-Taschenbüher 1994,,Friedrich Rost,1997,,VS Verlag für Sozialwissenschaften,,330,0,German,,,0,"978-3-8252-1994-9,978-3-663-14852-4",,,,,,,10.1007/978-3-663-14852-4,,,,0,,1,0,1,,,1,8200784,pdf,ebec2929851f26d01b83cd6697d2a076,,,10.1007%2F978-3-663-14852-4.pdf,0,2000-01-01 01:00:00,2016-04-03 02:51:08,http://link.springer.com/static-content/covers/books/830/9783663148524.jpg,,
14913469,Lern- und Arbeitstechniken für pädagogische Studiengänge: mit zahlreichen Abbildungen sowie Informationen zu Auskunftsmitteln und (Internet-) Adressen,,Uni-Taschenbüher 1994,,Friedrich Rost (auth.),1997,,VS Verlag für Sozialwissenschaften,,330,0,German,,,,"978-3-8252-1994-9,978-3-663-14852-4",,,,,,,10.1007/978-3-663-14852-4,,,,0,,1,0,1,,,1,8200784,pdf,ebec2929851f26d01b83cd6697d2a076,,,10.1007%2F978-3-663-14852-4.pdf,0,2000-01-01 01:00:00,2016-04-03 02:51:08,http://link.springer.com/static-content/covers/books/830/9783663148524.jpg,,
14913468,Grundbegriffe der Soziologie,,Uni-Taschenbücher,,Bernhard Schäfers,1995,,VS Verlag für Sozialwissenschaften,,435,0,English,,,0,"978-3-8100-1378-1,978-3-663-14855-5",,,,,,,10.1007/978-3-663-14855-5,,,,0,,1,0,1,,,1,9962214,pdf,1c20c1406d3e01ed4b6a6c2a9dad3777,,,10.1007%2F978-3-663-14855-5.pdf,0,2000-01-01 01:00:00,2016-04-03 02:51:08,1016000/1c20c1406d3e01ed4b6a6c2a9dad3777-d.jpg,,
14913467,Grundkurs Soziologie,,Uni-Taschenbücher 1323,,Hans Peter Henecka,1994,,VS Verlag für Sozialwissenschaften,,203,0,German,,,0,"978-3-8252-1323-7,978-3-663-14854-8",,,,,,,10.1007/978-3-663-14854-8,,,,0,,1,0,1,,,1,6760849,pdf,fd745e325cf71af8a1e3ce9992e305c4,,,10.1007%2F978-3-663-14854-8.pdf,0,2000-01-01 01:00:00,2016-04-03 02:51:08,http://link.springer.com/static-content/covers/books/764/9783663148548.jpg,,
14913465,Grundbegriffe der Soziologie,,Uni-Taschenbücher,,Bernhard Schäfers,1995,,VS Verlag für Sozialwissenschaften,,435,0,English,,,0,"978-3-8100-1378-1,978-3-663-14855-5",,,,,,,10.1007/978-3-663-14855-5,,,,0,,1,0,1,,,1,9962214,pdf,1c20c1406d3e01ed4b6a6c2a9dad3777,,,10.1007%2F978-3-663-14855-5.pdf,0,2000-01-01 01:00:00,2016-04-03 02:51:08,http://link.springer.com/static-content/covers/books/736/9783663148555.jpg,,
14913466,Grundkurs Soziologie,,Uni-Taschenbücher 1323,,Prof. Dr. Hans Peter Henecka (auth.),1994,,VS Verlag für Sozialwissenschaften,,203,0,German,,,,"978-3-8252-1323-7,978-3-663-14854-8",,,,,,,10.1007/978-3-663-14854-8,,,,0,,1,0,1,,,1,6760849,pdf,fd745e325cf71af8a1e3ce9992e305c4,,,10.1007%2F978-3-663-14854-8.pdf,0,2000-01-01 01:00:00,2016-04-03 02:51:08,http://link.springer.com/static-content/covers/books/764/9783663148548.jpg,,
14913464,Grundbegriffe der Soziologie,,Uni-Taschenbücher,,"Prof. Dr. Bernhard Schäfers (auth.), Prof. Dr. Bernhard Schäfers (eds.)",1995,,VS Verlag für Sozialwissenschaften,,435,0,English,,,,"978-3-8100-1378-1,978-3-663-14855-5",,,,,,,10.1007/978-3-663-14855-5,,,,0,,1,0,1,,,1,9962214,pdf,1c20c1406d3e01ed4b6a6c2a9dad3777,,,10.1007%2F978-3-663-14855-5.pdf,0,2000-01-01 01:00:00,2016-04-03 02:51:08,http://link.springer.com/static-content/covers/books/736/9783663148555.jpg,,
14913463,Aspekte erzählender Prosa,,Grundstudium Literaturwissenschaft 8,,Jochen Vogt,1976,,VS Verlag für Sozialwissenschaften,,96,0,German,,,0,"978-3-531-29278-6,978-3-663-14860-9",,,,,,,10.1007/978-3-663-14860-9,,,,0,,1,0,1,,,1,2111058,pdf,86386aaef88d5b2a22ef4f4ada82d1e8,,,10.1007%2F978-3-663-14860-9.pdf,0,2000-01-01 01:00:00,2016-04-03 02:51:08,http://link.springer.com/static-content/covers/books/926/9783663148609.jpg,,
14913461,Aspekte des Dramas,,Grundstudium Literaturwissenschaft 7,,"Heinz Geiger, Hermann Haarmann",1978,,VS Verlag für Sozialwissenschaften,,184,0,German,,,0,"978-3-531-29277-9,978-3-663-14861-6",,,,,,,10.1007/978-3-663-14861-6,,,,0,,1,0,1,,,1,6528594,pdf,71b4736d1688b3c6d36783461c7efc09,,,10.1007%2F978-3-663-14861-6.pdf,0,2000-01-01 01:00:00,2016-04-03 02:51:08,http://link.springer.com/static-content/covers/books/898/9783663148616.jpg,,
14913462,Aspekte erzählender Prosa,,Grundstudium Literaturwissenschaft 8,,Jochen Vogt (auth.),1976,,VS Verlag für Sozialwissenschaften,,96,0,German,,,,"978-3-531-29278-6,978-3-663-14860-9",,,,,,,10.1007/978-3-663-14860-9,,,,0,,1,0,1,,,1,2111058,pdf,86386aaef88d5b2a22ef4f4ada82d1e8,,,10.1007%2F978-3-663-14860-9.pdf,0,2000-01-01 01:00:00,2016-04-03 02:51:08,http://link.springer.com/static-content/covers/books/926/9783663148609.jpg,,
14913460,Aspekte des Dramas,,Grundstudium Literaturwissenschaft 7,,"Heinz Geiger, Hermann Haarmann (auth.)",1978,,VS Verlag für Sozialwissenschaften,,184,0,German,,,,"978-3-531-29277-9,978-3-663-14861-6",,,,,,,10.1007/978-3-663-14861-6,,,,0,,1,0,1,,,1,6528594,pdf,71b4736d1688b3c6d36783461c7efc09,,,10.1007%2F978-3-663-14861-6.pdf,0,2000-01-01 01:00:00,2016-04-03 02:51:08,http://link.springer.com/static-content/covers/books/898/9783663148616.jpg,,
14913459,Wertpapierbörsen,,,,"Hans-Heinrich Peters, Marianne Heidenreich, Rolf Schache, Wolfgang Kirn",1981,,Gabler Verlag,,124,0,German,,,0,"978-3-409-01725-1,978-3-663-14866-1",,,,,,,10.1007/978-3-663-14866-1,,,,0,,1,0,1,,,1,3540853,pdf,eb6ef2d5a55c992c4c9db1767fdaf324,,,10.1007%2F978-3-663-14866-1.pdf,0,2000-01-01 01:00:00,2016-04-03 02:51:08,http://link.springer.com/static-content/covers/books/748/9783663148661.jpg,,
14913458,Wertpapierbörsen,,,,"Dr. Hans-Heinrich Peters, Marianne Heidenreich, Dipl.-Kfm. Rolf Schache, Dipl.-Volkswirt Wolfgang Kirn (auth.)",1981,,Gabler Verlag,,124,0,German,,,,"978-3-409-01725-1,978-3-663-14866-1",,,,,,,10.1007/978-3-663-14866-1,,,,0,,1,0,1,,,1,3540853,pdf,eb6ef2d5a55c992c4c9db1767fdaf324,,,10.1007%2F978-3-663-14866-1.pdf,0,2000-01-01 01:00:00,2016-04-03 02:51:08,http://link.springer.com/static-content/covers/books/748/9783663148661.jpg,,
14913456,Sportsponsoring,,DUV: Wirtschaftswissenschaft,,Norbert Drees (auth.),1992,,Deutscher Universitätsverlag,,457,0,German,,,,"978-3-8244-0118-5,978-3-663-14884-5",,,,,,,10.1007/978-3-663-14884-5,,,,0,,1,0,1,,,1,12586348,pdf,ae035bb3cfb25ebd73a377e4502974dc,,,10.1007%2F978-3-663-14884-5.pdf,0,2000-01-01 01:00:00,2016-04-03 02:51:08,http://link.springer.com/static-content/covers/books/884/9783663148845.jpg,,
14913457,Sportsponsoring,,DUV: Wirtschaftswissenschaft,,Norbert Drees,1992,,Deutscher Universitätsverlag,,457,0,German,,,0,"978-3-8244-0118-5,978-3-663-14884-5",,,,,,,10.1007/978-3-663-14884-5,,,,0,,1,0,1,,,1,12586348,pdf,ae035bb3cfb25ebd73a377e4502974dc,,,10.1007%2F978-3-663-14884-5.pdf,0,2000-01-01 01:00:00,2016-04-03 02:51:08,http://link.springer.com/static-content/covers/books/884/9783663148845.jpg,,
14913455,Szenario-Technik: Instrumente für die unternehmerische und persönliche Erfolgsplanung,,,,Ute von Reibnitz,1992,,Gabler Verlag,,279,0,German,,,0,"978-3-409-23431-3,978-3-663-15720-5",,,,,,,10.1007/978-3-663-15720-5,,,,0,,1,0,1,,,1,5345070,pdf,1ddedf4e1bf72d8ccd098833ac713adc,,,10.1007%2F978-3-663-15720-5.pdf,0,2000-01-01 01:00:00,2016-04-03 02:51:08,http://link.springer.com/static-content/covers/books/44/9783663157205.jpg,,
14913454,Szenario-Technik: Instrumente für die unternehmerische und persönliche Erfolgsplanung,,,,Ute von Reibnitz (auth.),1992,,Gabler Verlag,,279,0,German,,,,"978-3-409-23431-3,978-3-663-15720-5",,,,,,,10.1007/978-3-663-15720-5,,,,0,,1,0,1,,,1,5345070,pdf,1ddedf4e1bf72d8ccd098833ac713adc,,,10.1007%2F978-3-663-15720-5.pdf,0,2000-01-01 01:00:00,2016-04-03 02:51:08,http://link.springer.com/static-content/covers/books/44/9783663157205.jpg,,
14913453,Studientechnik für Betriebswirte,,,,Herbert Alsheimer,1973,,Gabler Verlag,,139,0,German,,,0,"978-3-409-39245-7,978-3-663-15721-2",,,,,,,10.1007/978-3-663-15721-2,,,,0,,1,0,1,,,1,3853353,pdf,c7e9c9e490a3b7deea66707769649a13,,,10.1007%2F978-3-663-15721-2.pdf,0,2000-01-01 01:00:00,2016-04-03 02:51:08,http://link.springer.com/static-content/covers/books/16/9783663157212.jpg,,
14913451,Studientechnik für Betriebswirte,,,,Dr. Herbert Alsheimer (auth.),1973,,Gabler Verlag,,139,0,German,,,,"978-3-409-39245-7,978-3-663-15721-2",,,,,,,10.1007/978-3-663-15721-2,,,,0,,1,0,1,,,1,3853353,pdf,c7e9c9e490a3b7deea66707769649a13,,,10.1007%2F978-3-663-15721-2.pdf,0,2000-01-01 01:00:00,2016-04-03 02:51:08,http://link.springer.com/static-content/covers/books/16/9783663157212.jpg,,
14913452,Studientechnik für Betriebswirte,,,,Dr. Herbert Alsheimer (auth.),1973,,Gabler Verlag,,139,0,German,,,,"978-3-409-39245-7,978-3-663-15721-2",,,,,,,10.1007/978-3-663-15721-2,,,,0,,1,0,1,,,1,3853353,pdf,c7e9c9e490a3b7deea66707769649a13,,,10.1007%2F978-3-663-15721-2.pdf,0,2000-01-01 01:00:00,2016-04-03 02:51:08,http://link.springer.com/static-content/covers/books/16/9783663157212.jpg,,
14913450,Szenario-Technik: Instrumente für die unternehmerische und persönliche Erfolgsplanung,,,,Ute von Reibnitz (auth.),1992,,Gabler Verlag,,279,0,German,,,,"978-3-409-23431-3,978-3-663-15720-5",,,,,,,10.1007/978-3-663-15720-5,,,,0,,1,0,1,,,1,5345070,pdf,1ddedf4e1bf72d8ccd098833ac713adc,,,10.1007%2F978-3-663-15720-5.pdf,0,2000-01-01 01:00:00,2016-04-03 02:51:08,http://link.springer.com/static-content/covers/books/44/9783663157205.jpg,,
14913449,Sportsponsoring,,DUV: Wirtschaftswissenschaft,,Norbert Drees (auth.),1992,,Deutscher Universitätsverlag,,457,0,German,,,,"978-3-8244-0118-5,978-3-663-14884-5",,,,,,,10.1007/978-3-663-14884-5,,,,0,,1,0,1,,,1,12586348,pdf,ae035bb3cfb25ebd73a377e4502974dc,,,10.1007%2F978-3-663-14884-5.pdf,0,2000-01-01 01:00:00,2016-04-03 02:51:08,http://link.springer.com/static-content/covers/books/884/9783663148845.jpg,,
14913447,Aspekte des Dramas,,Grundstudium Literaturwissenschaft 7,,"Heinz Geiger, Hermann Haarmann (auth.)",1978,,VS Verlag für Sozialwissenschaften,,184,0,German,,,,"978-3-531-29277-9,978-3-663-14861-6",,,,,,,10.1007/978-3-663-14861-6,,,,0,,1,0,1,,,1,6528594,pdf,71b4736d1688b3c6d36783461c7efc09,,,10.1007%2F978-3-663-14861-6.pdf,0,2000-01-01 01:00:00,2016-04-03 02:51:08,http://link.springer.com/static-content/covers/books/898/9783663148616.jpg,,
14913448,Wertpapierbörsen,,,,"Dr. Hans-Heinrich Peters, Marianne Heidenreich, Dipl.-Kfm. Rolf Schache, Dipl.-Volkswirt Wolfgang Kirn (auth.)",1981,,Gabler Verlag,,124,0,German,,,,"978-3-409-01725-1,978-3-663-14866-1",,,,,,,10.1007/978-3-663-14866-1,,,,0,,1,0,1,,,1,3540853,pdf,eb6ef2d5a55c992c4c9db1767fdaf324,,,10.1007%2F978-3-663-14866-1.pdf,0,2000-01-01 01:00:00,2016-04-03 02:51:08,http://link.springer.com/static-content/covers/books/748/9783663148661.jpg,,
14913446,Aspekte erzählender Prosa,,Grundstudium Literaturwissenschaft 8,,Jochen Vogt (auth.),1976,,VS Verlag für Sozialwissenschaften,,96,0,German,,,,"978-3-531-29278-6,978-3-663-14860-9",,,,,,,10.1007/978-3-663-14860-9,,,,0,,1,0,1,,,1,2111058,pdf,86386aaef88d5b2a22ef4f4ada82d1e8,,,10.1007%2F978-3-663-14860-9.pdf,0,2000-01-01 01:00:00,2016-04-03 02:51:08,http://link.springer.com/static-content/covers/books/926/9783663148609.jpg,,
14913445,Grundbegriffe der Soziologie,,Uni-Taschenbücher,,"Prof. Dr. Bernhard Schäfers (auth.), Prof. Dr. Bernhard Schäfers (eds.)",1995,,VS Verlag für Sozialwissenschaften,,435,0,English,,,,"978-3-8100-1378-1,978-3-663-14855-5",,,,,,,10.1007/978-3-663-14855-5,,,,0,,1,0,1,,,1,9962214,pdf,1c20c1406d3e01ed4b6a6c2a9dad3777,,,10.1007%2F978-3-663-14855-5.pdf,0,2000-01-01 01:00:00,2016-04-03 02:51:08,http://link.springer.com/static-content/covers/books/736/9783663148555.jpg,,
14913444,Grundkurs Soziologie,,Uni-Taschenbücher 1323,,Prof. Dr. Hans Peter Henecka (auth.),1994,,VS Verlag für Sozialwissenschaften,,203,0,German,,,,"978-3-8252-1323-7,978-3-663-14854-8",,,,,,,10.1007/978-3-663-14854-8,,,,0,,1,0,1,,,1,6760849,pdf,fd745e325cf71af8a1e3ce9992e305c4,,,10.1007%2F978-3-663-14854-8.pdf,0,2000-01-01 01:00:00,2016-04-03 02:51:08,http://link.springer.com/static-content/covers/books/764/9783663148548.jpg,,
14913443,Lern- und Arbeitstechniken für pädagogische Studiengänge: mit zahlreichen Abbildungen sowie Informationen zu Auskunftsmitteln und (Internet-) Adressen,,Uni-Taschenbüher 1994,,Friedrich Rost (auth.),1997,,VS Verlag für Sozialwissenschaften,,330,0,German,,,,"978-3-8252-1994-9,978-3-663-14852-4",,,,,,,10.1007/978-3-663-14852-4,,,,0,,1,0,1,,,1,8200784,pdf,ebec2929851f26d01b83cd6697d2a076,,,10.1007%2F978-3-663-14852-4.pdf,0,2000-01-01 01:00:00,2016-04-03 02:51:08,http://link.springer.com/static-content/covers/books/830/9783663148524.jpg,,
14913441,Hegel and Global Justice,,Studies in Global Justice (Book 10),,Andrew Buchwalter (Editor),2012,,Springer,,244,0,English,,,0,940076846X,,,,,,,,,,,0,,,,,,,0,4366320,djvu,b5180a3f115f0f5f3527c56910c750ab,,,hegel_global justice,0,2000-01-01 01:00:00,2016-04-03 02:51:08,,,
14913442,"Pädagogik der Vielfalt: Verschiedenheit und Gleichberechtigung in Interkultureller, Feministischer und Integrativer Pädagogik",,Reihe Schule und Gesellschaft,,Annedore Prengel (auth.),1993,,VS Verlag für Sozialwissenschaften,,246,0,German,,,,"978-3-8100-1163-3,978-3-663-14850-0",,,,,,,10.1007/978-3-663-14850-0,,,,0,,1,0,1,,,1,8433485,pdf,66ec7ae33c350dcf23c8778a1315ba84,,,10.1007%2F978-3-663-14850-0.pdf,0,2000-01-01 01:00:00,2016-04-03 02:51:08,http://link.springer.com/static-content/covers/books/896/9783663148500.jpg,,
14913440,Bankbetriebslehre: Bankgeschäfte und Bankmanagement,,,,Professor Dr. Hans E. Büschgen (auth.),1993,,Gabler Verlag,,948,0,German,,,,"978-3-409-42074-7,978-3-663-14832-6",,,,,,,10.1007/978-3-663-14832-6,,,,0,,1,0,1,,,1,23618526,pdf,7c5886a6e56f978b1d38f7632acf52d8,,,10.1007%2F978-3-663-14832-6.pdf,0,2000-01-01 01:00:00,2016-04-03 02:51:08,http://link.springer.com/static-content/covers/books/750/9783663148326.jpg,,
14913439,Banktechnik des Außenhandels,,,,Dr. Johannes Zahn (auth.),1962,,Gabler Verlag,,74,0,German,,,,"978-3-663-14727-5,978-3-663-14828-9",,,,,,,10.1007/978-3-663-14828-9,,,,0,,1,0,1,,,1,4258612,pdf,114d9e28bd3dd3a2a07f395c78340ec5,,,10.1007%2F978-3-663-14828-9.pdf,0,2000-01-01 01:00:00,2016-04-03 02:51:08,http://link.springer.com/static-content/covers/books/522/9783663148289.jpg,,
14913438,Bewertung und Abschreibung von Anlagen: Neue Wege der Anlagenrechnung,,,,Herbert Gudehus (auth.),1959,,Gabler Verlag,,285,0,German,,,,"978-3-663-14724-4,978-3-663-14823-4",,,,,,,10.1007/978-3-663-14823-4,,,,0,,1,0,1,,,1,7971389,pdf,73e0b0949a7dbc61d11468dc2cea1f6f,,,10.1007%2F978-3-663-14823-4.pdf,0,2000-01-01 01:00:00,2016-04-03 02:51:08,http://link.springer.com/static-content/covers/books/682/9783663148234.jpg,,
14913436,,,,,,,,,,241,0,English,,,,,,,,,,,10.1007/978-3-663-14802-9,,,,0,,1,0,1,,,1,14776123,pdf,7265cedfdc0b6ed1e4ae18e328e8fead,,,10.1007%2F978-3-663-14802-9.pdf,0,2000-01-01 01:00:00,2016-04-03 02:51:08,http://link.springer.com/static-content/covers/books/.jpg,,
14913437,Buchführungs-Regeln für gewerbliche Kleinbetriebe,,,,"Professor Dr. W. Kalveram (auth.), Professor Dr. Wilhelm Kalveram (eds.)",1949,,Gabler Verlag,,46,0,German,,,,"978-3-663-14719-0,978-3-663-14816-6",,,,,,,10.1007/978-3-663-14816-6,,,,0,,1,0,1,,,1,2083273,pdf,211956ed1af2641c53cc2845bf5dc0f9,,,10.1007%2F978-3-663-14816-6.pdf,0,2000-01-01 01:00:00,2016-04-03 02:51:08,http://link.springer.com/static-content/covers/books/548/9783663148166.jpg,,
14913435,Einführung in die Rechtswissenschaft,,,,Dr. Friedrich Giese (auth.),1948,,Gabler Verlag,,104,0,German,,,,"978-3-663-14698-8,978-3-663-14786-2",,,,,,,10.1007/978-3-663-14786-2,,,,0,,1,0,1,,,1,5599798,pdf,e85be0f1dbd92e62b83fd0d98a9481df,,,10.1007%2F978-3-663-14786-2.pdf,0,2000-01-01 01:00:00,2016-04-03 02:51:08,http://link.springer.com/static-content/covers/books/616/9783663147862.jpg,,
14913434,Marktforschung: Methodische Grundlagen und praktische Anwendung,,,,"Ludwig Berekoven, Werner Eckert, Peter Ellenrieder (auth.)",1993,,Gabler Verlag,,408,0,German,,,,"978-3-409-36987-9,978-3-663-14756-5",,,,,,,10.1007/978-3-663-14756-5,,,,0,,1,0,1,,,1,23829969,pdf,aa06a91875b98452f4954615e9c26e77,,,10.1007%2F978-3-663-14756-5.pdf,0,2000-01-01 01:00:00,2016-04-03 02:51:08,http://link.springer.com/static-content/covers/books/496/9783663147565.jpg,,
14913433,Algebra: An Approach Via Module Theory (Graduate Texts in Mathematics),,Graduate Texts in Mathematics,,"William A. Adkins, Steven H. Weintraub",1992,Corrected,Springer,,541,0,English,113,,0,"0387978399,9780387978390,3540978399,9783540978398",,,,,512/.4,QA154 .A33 1992,,,OL1710099M,,0,,,,,1,,1,10582034,pdf,2286978C3CEEFCD7B8E111DD0C0AF56A,,,"Adkins W.A. Algebra.. An Approach Via Module Theory (Springer, 1992)(ISBN 9783540978398)(541s).pdf",0,2000-01-01 01:00:00,2016-04-03 02:51:08,272000/2286978c3ceefcd7b8e111dd0c0af56a-d.jpg,,
14913431,Produktionspolitik,,,,Prof. Dr. Dietrich Adam (auth.),1976,,Gabler Verlag,,256,0,German,,,,"978-3-409-69111-6,978-3-663-14747-3",,,,,,,10.1007/978-3-663-14747-3,,,,0,,1,0,1,,,1,11857028,pdf,7e3e1b61b8c7eee3ffe6e705ee88677a,,,10.1007%2F978-3-663-14747-3.pdf,0,2000-01-01 01:00:00,2016-04-03 02:51:08,http://link.springer.com/static-content/covers/books/428/9783663147473.jpg,,
14913432,Personalentwicklung,,Gabler-Studientexte,,Gustav Klötzl (auth.),1996,,Gabler Verlag,,78,0,German,,,,"978-3-409-92269-2,978-3-663-14749-7",,,,,,,10.1007/978-3-663-14749-7,,,,0,,1,0,1,,,1,3538350,pdf,22933db3065de6d282ea4a13d4daad14,,,10.1007%2F978-3-663-14749-7.pdf,0,2000-01-01 01:00:00,2016-04-03 02:51:08,http://link.springer.com/static-content/covers/books/362/9783663147497.jpg,,
14913430,Produktionspolitik,,,,Dr. Dietrich Adam (auth.),1988,,Gabler Verlag,,400,0,German,,,,"978-3-409-69113-0,978-3-663-14745-9",,,,,,,10.1007/978-3-663-14745-9,,,,0,,1,0,1,,,1,7658282,pdf,d7022c68686153d7350632f2fc1e68a2,,,10.1007%2F978-3-663-14745-9.pdf,0,2000-01-01 01:00:00,2016-04-03 02:51:08,http://link.springer.com/static-content/covers/books/484/9783663147459.jpg,,
14913429,Aktienindex-Terminkontrakte: Destabilisierende Instrumente des Portfoliomanagements?,,DUV: Wirtschaftswissenschaft,,Harald Wiebke (auth.),1992,,Deutscher Universitätsverlag,,197,0,German,,,,"978-3-8244-0098-0,978-3-663-14669-8",,,,,,,10.1007/978-3-663-14669-8,,,,0,,1,0,1,,,1,6867083,pdf,3b025324a5a41f15f3a7674c6faa8ce8,,,10.1007%2F978-3-663-14669-8.pdf,0,2000-01-01 01:00:00,2016-04-03 02:51:08,http://link.springer.com/static-content/covers/books/230/9783663146698.jpg,,
14913428,Die berufliche Handlungsbereitschaft von ausländischen Beschäftigten: Eine Längsschnittuntersuchung,,DUV Sozialwissenschaft,,Wolfgang Bartsch (auth.),1990,,Deutscher Universitätsverlag,,307,0,German,,,,"978-3-8244-4045-0,978-3-663-14644-5",,,,,,,10.1007/978-3-663-14644-5,,,,0,,1,0,1,,,1,8030971,pdf,99999da7d4210d4d4a931eb6eeea2862,,,10.1007%2F978-3-663-14644-5.pdf,0,2000-01-01 01:00:00,2016-04-03 02:51:08,http://link.springer.com/static-content/covers/books/310/9783663146445.jpg,,
14913426,Kapitalwert und Ertragsteuern: Die Bedeutung der Finanzierungsprämisse für die Investitionsrechnung,,,,Verena Volpert (auth.),1989,,Deutscher Universitätsverlag,,233,0,German,,,,"978-3-8244-0011-9,978-3-663-14608-7",,,,,,,10.1007/978-3-663-14608-7,,,,0,,1,0,1,,,1,5733175,pdf,b8d2b5275c4aef3daafdc4318c45d84f,,,10.1007%2F978-3-663-14608-7.pdf,0,2000-01-01 01:00:00,2016-04-03 02:51:08,http://link.springer.com/static-content/covers/books/28/9783663146087.jpg,,
14913427,Fundamentale Ideen der Informatik im Mathematikunterricht: Grundsätzliche Überlegungen und Beispiele für die Primarstufe,,,,"Petra Knöß (auth.), Erich Ch. Wittmann (eds.)",1989,,Deutscher Universitätsverlag,,348,0,German,,,,"978-3-8244-2004-9,978-3-663-14619-3",,,,,,,10.1007/978-3-663-14619-3,,,,0,,1,0,1,,,1,11800036,pdf,09f3a1fac031f4e72ca583d061020599,,,10.1007%2F978-3-663-14619-3.pdf,0,2000-01-01 01:00:00,2016-04-03 02:51:08,http://link.springer.com/static-content/covers/books/40/9783663146193.jpg,,
14913425,Langlebige Gebrauchsgüter: Ökologische Optimierung der Nutzungsdauer,,DUV Wirtschaftswissenschaft,,Klaus Bellmann (auth.),1990,,Deutscher Universitätsverlag,,205,0,German,,,,"978-3-8244-0051-5,978-3-663-14598-1",,,,,,,10.1007/978-3-663-14598-1,,,,0,,1,0,1,,,1,5553551,pdf,c0b95b7f32a6383f185435891a2fe851,,,10.1007%2F978-3-663-14598-1.pdf,0,2000-01-01 01:00:00,2016-04-03 02:51:08,http://link.springer.com/static-content/covers/books/176/9783663145981.jpg,,
14913424,Verfahren zur Sicherheitsanalyse: Eine prospektive Methode zur Analyse und Bewertung von Gefährdungen,,,,Jörg Nohl (auth.),1989,,Deutscher Universitätsverlag,,252,0,German,,,,"978-3-8244-2001-8,978-3-663-14537-0",,,,,,,10.1007/978-3-663-14537-0,,,,0,,1,0,1,,,1,5669281,pdf,f50937d10a8433fe3b32892a265e7b5c,,,10.1007%2F978-3-663-14537-0.pdf,0,2000-01-01 01:00:00,2016-04-03 02:51:08,http://link.springer.com/static-content/covers/books/974/9783663145370.jpg,,
14913423,Zählangaben — Maßangaben: Bedeutung und konzeptuelle Interpretation von Numeralia,,Studien zur Kognitionswissenschaft,,Carola Eschenbach (auth.),1995,,Deutscher Universitätsverlag,,299,0,German,,,,"978-3-8244-4181-5,978-3-663-14525-7",,,,,,,10.1007/978-3-663-14525-7,,,,0,,1,0,1,,,1,5454382,pdf,32f8e36b86488d94a2f49109653c0829,,,10.1007%2F978-3-663-14525-7.pdf,0,2000-01-01 01:00:00,2016-04-03 02:51:08,http://link.springer.com/static-content/covers/books/990/9783663145257.jpg,,
14913422,Abrasax: Ausgewählte Papyri religiösen und magischen Inhalts. Band 2: Gebete (Fortsetzung),,Papyrologica Coloniensia 17/2,,"Professor Dr. Reinhold Merkelbach, Maria Totti (auth.), Professor Dr. Reinhold Merkelbach, Maria Totti (eds.)",1991,,VS Verlag für Sozialwissenschaften,,229,0,German,,,,"978-3-531-09930-9,978-3-663-14518-9",,,,,,,10.1007/978-3-663-14518-9,,,,0,,1,0,1,,,1,9991512,pdf,27020fdd687bfcbd6f35e84405aa8d2d,,,10.1007%2F978-3-663-14518-9.pdf,0,2000-01-01 01:00:00,2016-04-03 02:51:08,http://link.springer.com/static-content/covers/books/856/9783663145189.jpg,,
14913421,"Alltagswissen, Interaktion und Gesellschaftliche Wirklichkeit: 1: Symbolischer Interaktionismus und Ethnomethodologie. 2: Ethnotheorie und Ethnographie des Sprechens",,WV studium 54/55,,(auth.),1980,,VS Verlag für Sozialwissenschaften,,540,0,German,,,,"978-3-531-22054-3,978-3-663-14511-0",,,,,,,10.1007/978-3-663-14511-0,,,,0,,1,0,1,,,1,25175221,pdf,5181d7c10a4a79b30acb8e4b1fef6d06,,,10.1007%2F978-3-663-14511-0.pdf,0,2000-01-01 01:00:00,2016-04-03 02:51:08,http://link.springer.com/static-content/covers/books/82/9783663145110.jpg,,
14913420,Attische Grabreliefs: 411. Sitzung am 17. Juni 1998 in Düsseldorf,,Nordrhein-Wesfälische Akademie der Wissenschaften 357,,Nikolaus Himmelmann (auth.),1999,,VS Verlag für Sozialwissenschaften,,149,0,German,,,,"978-3-531-07357-6,978-3-663-14503-5",,,,,,,10.1007/978-3-663-14503-5,,,,0,,1,0,1,,,1,7943055,pdf,93fc4bd325f34e3789713e56f72120a9,,,10.1007%2F978-3-663-14503-5.pdf,0,2000-01-01 01:00:00,2016-04-03 02:51:08,http://link.springer.com/static-content/covers/books/976/9783663145035.jpg,,
14913419,Basale Soziologie: Soziale Ungleichheit,,Studienreihe Gesellschaft,,"Walter Zingg, Gisela Zipp (auth.)",1979,,VS Verlag für Sozialwissenschaften,,235,0,German,,,,"978-3-531-11438-5,978-3-663-14497-7",,,,,,,10.1007/978-3-663-14497-7,,,,0,,1,0,1,,,1,11443819,pdf,903aab32d17ef9e60443ea2d3c08a659,,,10.1007%2F978-3-663-14497-7.pdf,0,2000-01-01 01:00:00,2016-04-03 02:51:08,http://link.springer.com/static-content/covers/books/992/9783663144977.jpg,,
14913418,Bestimmung des Faserabbaues bei Leinen unter besonderer Berücksichtigung der Leinengarnbleiche,,Forschungsberichte des Wirtschafts- und Verkehrsministeriums Nordrhein-Westfalen,,(auth.),1954,,VS Verlag für Sozialwissenschaften,,47,0,German,,,,"978-3-663-12838-0,978-3-663-14492-2",,,,,,,10.1007/978-3-663-14492-2,,,,0,,1,0,1,,,1,2281431,pdf,33dc2ae0be6695df3d6d71c91108872a,,,10.1007%2F978-3-663-14492-2.pdf,0,2000-01-01 01:00:00,2016-04-03 02:51:08,http://link.springer.com/static-content/covers/books/152/9783663144922.jpg,,
14913416,Demokratietheorien: Eine Einführung,,Uni-Taschenbücher 1887,,Dr. Manfred G. Schmidt (auth.),1995,,VS Verlag für Sozialwissenschaften,,407,0,German,,,,"978-3-8252-1887-4,978-3-663-14476-2",,,,,,,10.1007/978-3-663-14476-2,,,,0,,1,0,1,,,1,32916154,pdf,a4d9d99bd80a9d6d05ac48782af8c264,,,10.1007%2F978-3-663-14476-2.pdf,0,2000-01-01 01:00:00,2016-04-03 02:51:08,http://link.springer.com/static-content/covers/books/950/9783663144762.jpg,,
14913417,Bronze und Silber: Papyrologische Beiträge zur Geschichte der Währung im ptolemäischen und römischen Ägypten bis zum 2. Jahrhundert n. Chr.,,Papyrologica Coloniensia 25,,Klaus Maresch (auth.),1996,,VS Verlag für Sozialwissenschaften,,253,0,German,,,,"978-3-531-09939-2,978-3-663-14488-5",,,,,,,10.1007/978-3-663-14488-5,,,,0,,1,0,1,,,1,8289763,pdf,ccfcb64da9c94f683fc5a4504a11f520,,,10.1007%2F978-3-663-14488-5.pdf,0,2000-01-01 01:00:00,2016-04-03 02:51:08,http://link.springer.com/static-content/covers/books/924/9783663144885.jpg,,
14913415,"Der Stand der Technik: Geschichte, Strukturelemente und Funktion der Verrechtlichung technischer Risiken am Beispiel des Immissionsschutzes",,Beiträge zur sozialwissenschaftlichen Forschung 75,,Rainer Wolf (auth.),1986,,VS Verlag für Sozialwissenschaften,,541,0,German,,,,"978-3-531-11779-9,978-3-663-14470-0",,,,,,,10.1007/978-3-663-14470-0,,,,0,,1,0,1,,,1,16845524,pdf,698e831fe359ebc7177a2a80f2c578c6,,,10.1007%2F978-3-663-14470-0.pdf,0,2000-01-01 01:00:00,2016-04-03 02:51:08,http://link.springer.com/static-content/covers/books/138/9783663144700.jpg,,
14913414,Die Entstehung der deutschen Schriftsprache: Bisherige Erklärungsmodelle — neuester Forschungsstand,,Rheinisch-Westfälische Akademie der Wissenschaften 290,,Professor Dr. phil. Werner Besch (auth.),1987,,VS Verlag für Sozialwissenschaften,,64,0,German,,,,"978-3-531-07290-6,978-3-663-14460-1",,,,,,,10.1007/978-3-663-14460-1,,,,0,,1,0,1,,,1,2394091,pdf,cc5f47203adba5da4ea457fcfcafc7b4,,,10.1007%2F978-3-663-14460-1.pdf,0,2000-01-01 01:00:00,2016-04-03 02:51:08,http://link.springer.com/static-content/covers/books/98/9783663144601.jpg,,
14913413,Die Zeit des letzten mongolischen Großkhans Ligdan (1604–1634): 203. Sitzung am 16. April1975 in Düsseldorf,,Rheinisch-Westfälische Akademie der Wissenschaften 235,,Walther Heissig (auth.),1979,,VS Verlag für Sozialwissenschaften,,45,0,German,,,,"978-3-531-07235-7,978-3-663-14446-5",,,,,,,10.1007/978-3-663-14446-5,,,,0,,1,0,1,,,1,1794292,pdf,173e9bc69659104563819db653cbe3ec,,,10.1007%2F978-3-663-14446-5.pdf,0,2000-01-01 01:00:00,2016-04-03 02:51:08,http://link.springer.com/static-content/covers/books/830/9783663144465.jpg,,
14913411,"Entscheidungsspiele in Politik, Verwaltung und Wirtschaft",,Beiträge zur sozialwissenschaftlichen Forschung 50,,Astrid Wender (auth.),1983,,VS Verlag für Sozialwissenschaften,,256,0,German,,,,"978-3-531-11669-3,978-3-663-14438-0",,,,,,,10.1007/978-3-663-14438-0,,,,0,,1,0,1,,,1,5304478,pdf,a320a8afaf0039c56b16e1d7d11bd970,,,10.1007%2F978-3-663-14438-0.pdf,0,2000-01-01 01:00:00,2016-04-03 02:51:08,http://link.springer.com/static-content/covers/books/734/9783663144380.jpg,,
14913412,Die Zeitschriften des Jungen Deutschland: Eine Untersuchung zur literarisch-publizistischen Öffentlichkeit im 19. Jahrhundert,,Kulturwissenschaftliche Studien zur deutschen Literatur,,Helga Brandes (auth.),1991,,VS Verlag für Sozialwissenschaften,,304,0,German,,,,"978-3-531-12040-9,978-3-663-14445-8",,,,,,,10.1007/978-3-663-14445-8,,,,0,,1,0,1,,,1,11551381,pdf,a836931e4bce5c11073086bbd4f1461a,,,10.1007%2F978-3-663-14445-8.pdf,0,2000-01-01 01:00:00,2016-04-03 02:51:08,http://link.springer.com/static-content/covers/books/858/9783663144458.jpg,,
14913410,Gesammelte Gesundheitsstatistische Abhandlungen und Kurzberichte: Folge I (1936),,,,"R. Pohlen (auth.), Dr. Kurt Pohlen (eds.)",1936,,Springer Berlin Heidelberg,,163,0,German,,,,"978-3-662-27213-8,978-3-662-28696-8",,,,,,,10.1007/978-3-662-28696-8,,,,0,,1,0,1,,,1,9519287,pdf,5722f421ea014994186024534ee5940f,,,10.1007%2F978-3-662-28696-8.pdf,0,2000-01-01 01:00:00,2016-04-03 02:51:08,http://link.springer.com/static-content/covers/books/886/9783662286968.jpg,,
14913409,Quantifying morphology and physiology of the human body using MRI,,Series in medical physics and biomedical engineering.,,"edited by L. Tugan Muftuler, Department of Neurosurgery, Medical College of Wisconsin.",2013,,CRC Press/Taylor & Francis Group,"Boca Raton, FL","xiv, 495 pages, 16 unnumbered pages of plates : illustrations (some color) ; 24 cm.",0,English,,,0,"9781439852651,1439852650",,,,,,,,,,,0,,,,,,,1,81043653,pdf,c1915caaf471386fb9a8acc510ea4227,,,Quantifying Morphology and Physiology of the Human Body Using MRI,0,2000-01-01 01:00:00,2016-04-03 02:51:08,1016000/c1915caaf471386fb9a8acc510ea4227-d.jpg,,
14913408,Spike timing : mechanisms and function,,"Frontiers in neuroscience (Boca Raton, Fla.)",,"editors, Patricia M. DiLorenzo, Jonathan D. Victor.",2013.,,Taylor & Francis/CRC Press,Boca Raton,410,0,English,,,0,"9781439838167,143983816X",,,,,,,,,,,0,,,,,,,1,44922758,pdf,fa209c66e4337f8b03bb3ed0dd60e626,,,Spike Timing Mechanisms and Function,0,2000-01-01 01:00:00,2016-04-03 02:51:08,http://coverart.oclc.org/ImageWebSvc/oclc/+-+767453693_140.jpg,,
14913407,Shale engineering : mechanics and mechanisms,,,,Mohammad Asef and Mohsen Farrokhrouz.,2013 ,,CRC Press,,301,0,English,,,0,"9780415874199,041587419X",,,,,,,,,,,0,,,,,,,1,52537070,pdf,a1aa74d75e1f38c60b53287485efc7b7,,,Shale Engineering Mechanics and Mechanisms,0,2000-01-01 01:00:00,2016-04-03 02:51:08,http://coverart.oclc.org/ImageWebSvc/oclc/+-+959585189_140.jpg,,
14913406,Quantifying morphology and physiology of the human body using MRI,,Series in medical physics and biomedical engineering.,,"edited by L. Tugan Muftuler, Department of Neurosurgery, Medical College of Wisconsin.",2013,,CRC Press/Taylor & Francis Group,"Boca Raton, FL","xiv, 495 pages, 16 unnumbered pages of plates : illustrations (some color) ; 24 cm.",0,English,,,0,"9781439852651,1439852650",,,,,,,,,,,0,,,,,,,1,81043653,pdf,c1915caaf471386fb9a8acc510ea4227,,,Quantifying Morphology and Physiology of the Human Body Using MRI,0,2000-01-01 01:00:00,2016-04-03 02:51:08,http://coverart.oclc.org/ImageWebSvc/oclc/+-+195280691_140.jpg,,
14913405,Principles of neural coding,,,,"edited by Rodrigo Quian Quiroga, ... [et al.].",2013.,,Taylor & Francis,Boca Raton,623 S : Ill.,0,English,,,0,"9781439853306,1439853304",,,,,,,,,,,0,,,,,,,1,107095696,pdf,0b61e309f99932fcc3624ea3da05e5f5,,,Principles of Neural Coding,0,2000-01-01 01:00:00,2016-04-03 02:51:08,http://coverart.oclc.org/ImageWebSvc/oclc/+-+565350293_140.jpg,,
14913403,"Linear electric machines, drives, and MAGLEVs handbook",,,,Ion Boldea.,2013.,,CRC Press,Boca Raton,"xiv, 635 p.",0,English,,,0,9781439845158,,,,,,,,,,,0,,,,,,,1,58173195,pdf,212d6c208550b547a9b719fa7a8334f4,,,"Linear Electric Machines, Drives, and MAGLEVs Handbook",0,2000-01-01 01:00:00,2016-04-03 02:51:08,http://coverart.oclc.org/ImageWebSvc/oclc/+-+243397993_140.jpg,,
14913404,Methods of statistical model estimation,,,,"Joseph M. Hilbe,  Jet Propulsion Laboratory, California Institute of Technology, USA, and Arizona State Univeristy, USA, Andrew P. Robinson, ACERA & Department of Mathematics and Statistics, The University.",2013.,,CRC Press,Boca Raton,"xii, 243 pages : illustrations ; 25 cm",0,English,,,0,"9781439858028,1439858020",,,,,,,,,,,0,,,,,,,1,4441659,pdf,11c58bedb64190b8248c98640e7712fc,,,Methods of Statistical Model Estimation,0,2000-01-01 01:00:00,2016-04-03 02:51:08,http://coverart.oclc.org/ImageWebSvc/oclc/+-+850502401_140.jpg,,
14913402,Laboratory experiments using microwave heating,,,,"authors, Nicholas E. Leadbeater, Cynthia B. McGowan.",2013.,,"Taylor & Francis, CRC",Boca Raton,"xv, 216 pages ; 23 cm",0,English,,,0,"9781439856093,1439856095",,,,,,,,,,,0,,,,,,,1,13959050,pdf,c0930cf6e9a581412c183564a51abb6e,,,Laboratory Experiments Using Microwave Heating,0,2000-01-01 01:00:00,2016-04-03 02:51:08,http://coverart.oclc.org/ImageWebSvc/oclc/+-+354513173_140.jpg,,
14913401,Imaging in cellular and tissue engineering,,"Series in cellular and clinical imaging, 2.",,"editors, Hanry Yu, Nur Aida Abdul Rahim.",2013,,"CRC Press, Taylor & Francis Group",Boca Raton,280,0,English,,,0,"9781439848043,1439848041",,,,,,,,,,,0,,,,,,,1,36922779,pdf,468973422b78fe80bb03eda1fbbe86c4,,,Imaging in Cellular and Tissue Engineering,0,2000-01-01 01:00:00,2016-04-03 02:51:08,,,
14913400,Biomedical technology and devices,,Handbook Series for Mechanical Engineering.,,"edited by James E. Moore, Jr., Duncan J. Maitland.",2013.,2nd Edition,CRC Press,Hoboken,791,0,English,,,0,"9781439860618,1439860610",,,,,,,,,,,0,,,,,,,1,170091838,pdf,5504f196e0939fcf3e05aec0d3767023,,,"Biomedical Technology and Devices, Second Edition",0,2000-01-01 01:00:00,2016-04-03 02:51:08,,,
14913399,"Behavioural adaptation and road safety : theory, evidence, and action",,,,"edited by Christina Rudin-Brown, Samantha Jamson.",2013.,English,CRC Press,"Boca Raton, Florida",457,0,Picture,,,0,"9781439856673,1439856672,1439856680,9781439856680",,,,,,,,,,,0,,,,,,,1,45591326,pdf,9decf3d841646b2b2eb9b36771522ffc,,,"Behavioural Adaptation and Road Safety Theory, Evidence and Action",0,2000-01-01 01:00:00,2016-04-03 02:51:08,http://coverart.oclc.org/ImageWebSvc/oclc/+-+042614473_140.jpg,,
14913397,Мыслить социологически,,(Программа «Высшее образование»),,Зигмунт Бауман,1996,1st,Аспект Пресс,Москва,256,0,Russian,194,,0,5756700587,,,,,,,,,,,300,0,1,0,1,1,0,1,13256621,pdf,6057c527f19179076e6ffb04816a8f1e,,,Бауман - Мыслить социологически,0,2000-01-01 01:00:00,2016-04-03 02:51:08,http://j.livelib.ru/boocover/1000661561/l/ba5b/Zigmunt_Bauman__Myslit_sotsiologicheski.jpg,,
14913398,Pleasure in Ancient Greek Philosophy,,Key Themes in Ancient Philosophy,,David Wolfsdorf,2012,,Cambridge University Press,,322,0,English,,,0,"0521149754,9780521149754",,,,,,,,,,,0,,,,,,,1,1409924,pdf,ff96a5b54ca12dc64f9ecf9c4c2bf74a,,,0521761301,0,2000-01-01 01:00:00,2016-04-03 02:51:08,1016000/ff96a5b54ca12dc64f9ecf9c4c2bf74a-d.jpg,,
14913396,ADA: Eine Einführung in die Programmiersprache der Softwaretechnik,,,,Manfred Nagl,1991,,Vieweg+Teubner Verlag,,353,0,German,,,0,"978-3-528-23347-1,978-3-663-14249-2",,,,,,,10.1007/978-3-663-14249-2,,,,0,,1,0,1,,,1,8995959,pdf,bcf12c71a1ddd3e142e0c1c2ba032516,,,10.1007%2F978-3-663-14249-2.pdf,0,2000-01-01 01:00:00,2016-04-03 02:51:08,http://link.springer.com/static-content/covers/books/322/9783663142492.jpg,,
14913395,ADA: Eine Einführung in die Programmiersprache der Softwaretechnik,,,,Manfred Nagl (auth.),1991,,Vieweg+Teubner Verlag,,353,0,German,,,,"978-3-528-23347-1,978-3-663-14249-2",,,,,,,10.1007/978-3-663-14249-2,,,,0,,1,0,1,,,1,8995959,pdf,bcf12c71a1ddd3e142e0c1c2ba032516,,,10.1007%2F978-3-663-14249-2.pdf,0,2000-01-01 01:00:00,2016-04-03 02:51:08,http://link.springer.com/static-content/covers/books/322/9783663142492.jpg,,
14913394,„Das ist o. B. d. A. trivial!“ Eine Gebrauchsanleitung zur Formulierung mathematischer Gedanken mit vielen praktischen Tips für Studierende der Mathematik und Informatik,,vieweg studium,,Albrecht Beutelspacher,1992,,Vieweg+Teubner Verlag,,100,0,German,,,0,"978-3-528-16442-3,978-3-663-14252-2",,,,,,,10.1007/978-3-663-14252-2,,,,0,,1,0,1,,,1,3380099,pdf,8640798d644ce6d29dc7552595fa4f35,,,10.1007%2F978-3-663-14252-2.pdf,0,2000-01-01 01:00:00,2016-04-03 02:51:08,http://link.springer.com/static-content/covers/books/578/9783663142522.jpg,,
14913393,„Das ist o. B. d. A. trivial!“: Eine Gebrauchsanleitung zur Formulierung mathematischer Gedanken mit vielen praktischen Tips für Studierende der Mathematik und Informatik,,vieweg studium,,Prof. Dr. Albrecht Beutelspacher (auth.),1992,,Vieweg+Teubner Verlag,,100,0,German,,,,"978-3-528-16442-3,978-3-663-14252-2",,,,,,,10.1007/978-3-663-14252-2,,,,0,,1,0,1,,,1,3380099,pdf,8640798d644ce6d29dc7552595fa4f35,,,10.1007%2F978-3-663-14252-2.pdf,0,2000-01-01 01:00:00,2016-04-03 02:51:08,http://link.springer.com/static-content/covers/books/578/9783663142522.jpg,,
14913392,Wie modern war das Kaiserreich? Das Beispiel der Schule,,Gerda-Henkel-Vorlesung,,Thomas Nipperdey,1986,,VS Verlag für Sozialwissenschaften,,17,0,German,,,0,"978-3-531-11958-8,978-3-663-14260-7",,,,,,,10.1007/978-3-663-14260-7,,,,0,,1,0,1,,,1,445922,pdf,a3b7aff4e8f747079a70b4b9805b19ec,,,10.1007%2F978-3-663-14260-7.pdf,0,2000-01-01 01:00:00,2016-04-03 02:51:08,http://link.springer.com/static-content/covers/books/674/9783663142607.jpg,,
14913391,Wie modern war das Kaiserreich?: Das Beispiel der Schule,,Gerda-Henkel-Vorlesung,,Thomas Nipperdey (auth.),1986,,VS Verlag für Sozialwissenschaften,,17,0,English,,,,"978-3-531-11958-8,978-3-663-14260-7",,,,,,,10.1007/978-3-663-14260-7,,,,0,,1,0,1,,,1,445922,pdf,a3b7aff4e8f747079a70b4b9805b19ec,,,10.1007%2F978-3-663-14260-7.pdf,0,2000-01-01 01:00:00,2016-04-03 02:51:08,http://link.springer.com/static-content/covers/books/674/9783663142607.jpg,,
14913390,Probleme der Kreditfinanzierung bei Klein- und Mittelbetrieben,,Abhandlungen zur Mittelstandsforschung 9,,Günter Schmölders,1964,,VS Verlag für Sozialwissenschaften,,174,0,German,,,0,"978-3-663-12812-0,978-3-663-14334-5",,,,,,,10.1007/978-3-663-14334-5,,,,0,,1,0,1,,,1,6571615,pdf,fd165637c6e726ddfdbf368f9e432393,,,10.1007%2F978-3-663-14334-5.pdf,0,2000-01-01 01:00:00,2016-04-03 02:51:08,http://link.springer.com/static-content/covers/books/644/9783663143345.jpg,,
14913389,Probleme der Kreditfinanzierung bei Klein- und Mittelbetrieben,,Abhandlungen zur Mittelstandsforschung 9,,Professor Dr. Günter Schmölders (auth.),1964,,VS Verlag für Sozialwissenschaften,,174,0,German,,,,"978-3-663-12812-0,978-3-663-14334-5",,,,,,,10.1007/978-3-663-14334-5,,,,0,,1,0,1,,,1,6571615,pdf,fd165637c6e726ddfdbf368f9e432393,,,10.1007%2F978-3-663-14334-5.pdf,0,2000-01-01 01:00:00,2016-04-03 02:51:08,http://link.springer.com/static-content/covers/books/644/9783663143345.jpg,,
14913388,Gruppenprozesse,,Analysen zum Terrorismus 3,,"Wanda von Baeyer-Katte, Dieter Claessens, Hubert Feger, Friedhelm Neidhardt",1982,,VS Verlag für Sozialwissenschaften,,525,0,German,,,0,"978-3-531-11582-5,978-3-663-14409-0",,,,,,,10.1007/978-3-663-14409-0,,,,0,,1,0,1,,,1,15479980,pdf,42f108b7121ec87c5c7a8cd7abadf339,,,10.1007%2F978-3-663-14409-0.pdf,0,2000-01-01 01:00:00,2016-04-03 02:51:08,http://link.springer.com/static-content/covers/books/586/9783663144090.jpg,,
14913387,Gruppenprozesse,,Analysen zum Terrorismus 3,,"Wanda von Baeyer-Katte, Dieter Claessens, Hubert Feger, Friedhelm Neidhardt (auth.)",1982,,VS Verlag für Sozialwissenschaften,,525,0,German,,,,"978-3-531-11582-5,978-3-663-14409-0",,,,,,,10.1007/978-3-663-14409-0,,,,0,,1,0,1,,,1,15479980,pdf,42f108b7121ec87c5c7a8cd7abadf339,,,10.1007%2F978-3-663-14409-0.pdf,0,2000-01-01 01:00:00,2016-04-03 02:51:08,http://link.springer.com/static-content/covers/books/586/9783663144090.jpg,,
14913386,Gewalt und Legitimität,,Analysen zum Terrorismus 4/1,,"Ulrich Matz, Gerhard Schmidtchen",1983,,VS Verlag für Sozialwissenschaften,,438,0,German,,,0,"978-3-531-11630-3,978-3-663-14413-7",,,,,,,10.1007/978-3-663-14413-7,,,,0,,1,0,1,,,1,9032516,pdf,f5c7e3831bfe2e3d1a0ea6c6f0c3ab0a,,,10.1007%2F978-3-663-14413-7.pdf,0,2000-01-01 01:00:00,2016-04-03 02:51:08,http://link.springer.com/static-content/covers/books/804/9783663144137.jpg,,
14913385,Gewalt und Legitimität,,Analysen zum Terrorismus 4/1,,"Ulrich Matz, Gerhard Schmidtchen (auth.)",1983,,VS Verlag für Sozialwissenschaften,,438,0,German,,,,"978-3-531-11630-3,978-3-663-14413-7",,,,,,,10.1007/978-3-663-14413-7,,,,0,,1,0,1,,,1,9032516,pdf,f5c7e3831bfe2e3d1a0ea6c6f0c3ab0a,,,10.1007%2F978-3-663-14413-7.pdf,0,2000-01-01 01:00:00,2016-04-03 02:51:08,http://link.springer.com/static-content/covers/books/804/9783663144137.jpg,,
14913384,Ein Leben in Briefen: Ergänzungsband II. Die Erläuterungen,,Abhandlungen der Rheinisch-Westfälischen Akademie der Wissenschaften 84/2,,Friedrich August Wolf,1990,,VS Verlag für Sozialwissenschaften,,117,0,German,,,0,"978-3-531-05102-4,978-3-663-14425-0",,,,,,,10.1007/978-3-663-14425-0,,,,0,,1,0,1,,,1,2867758,pdf,2d8a1c70955481713b8f1432a57371ff,,,10.1007%2F978-3-663-14425-0.pdf,0,2000-01-01 01:00:00,2016-04-03 02:51:08,http://link.springer.com/static-content/covers/books/788/9783663144250.jpg,,
14913383,Ein Leben in Briefen: Ergänzungsband II. Die Erläuterungen,,Abhandlungen der Rheinisch-Westfälischen Akademie der Wissenschaften 84/2,,Friedrich August Wolf (auth.),1990,,VS Verlag für Sozialwissenschaften,,117,0,German,,,,"978-3-531-05102-4,978-3-663-14425-0",,,,,,,10.1007/978-3-663-14425-0,,,,0,,1,0,1,,,1,2867758,pdf,2d8a1c70955481713b8f1432a57371ff,,,10.1007%2F978-3-663-14425-0.pdf,0,2000-01-01 01:00:00,2016-04-03 02:51:08,http://link.springer.com/static-content/covers/books/788/9783663144250.jpg,,
14913382,Ein Leben in Briefen: Ergänzungsband I. Die Texte,,Abhandlungen der Rheinisch-Westfälischen Akademie der Wissenschaften 84/1,,Friedrich August Wolf,1990,,VS Verlag für Sozialwissenschaften,,197,0,German,,,0,"978-3-531-05101-7,978-3-663-14426-7",,,,,,,10.1007/978-3-663-14426-7,,,,0,,1,0,1,,,1,8389231,pdf,f3c2eb4360bdab331780ec0bba6639ef,,,10.1007%2F978-3-663-14426-7.pdf,0,2000-01-01 01:00:00,2016-04-03 02:51:08,http://link.springer.com/static-content/covers/books/750/9783663144267.jpg,,
14913381,Ein Leben in Briefen: Ergänzungsband I. Die Texte,,Abhandlungen der Rheinisch-Westfälischen Akademie der Wissenschaften 84/1,,Friedrich August Wolf (auth.),1990,,VS Verlag für Sozialwissenschaften,,197,0,German,,,,"978-3-531-05101-7,978-3-663-14426-7",,,,,,,10.1007/978-3-663-14426-7,,,,0,,1,0,1,,,1,8389231,pdf,f3c2eb4360bdab331780ec0bba6639ef,,,10.1007%2F978-3-663-14426-7.pdf,0,2000-01-01 01:00:00,2016-04-03 02:51:08,http://link.springer.com/static-content/covers/books/750/9783663144267.jpg,,
14913380,Biomimetics: Advancing Nanobiomaterials and Tissue Engineering,,,,"Murugan Ramalingam, Xiumei Wang, Guoping Chen, Peter Ma, Fu‐Zhai Cui(eds.)",2013,,Wiley-Scrivener,,384,0,English,,,,"9781118469620,9781118810408,1118469623",,,,,,,10.1002/9781118810408,,,,0,,1,0,1,,,1,6916927,pdf,398823d03337a371e65e366072d37bd8,,,10.1002%2F9781118810408.pdf,0,2000-01-01 01:00:00,2016-04-03 02:51:08,http://media.wiley.com/product_data/coverImage300/23/11184696/1118469623.jpg,,
14913379,"Biomaterials Science: Processing, Properties and Applications III: Ceramic Transactions, Volume 242",,,,"Susmita Bose, Amit Bandyopadhyay, Roger Narayan(eds.)",2013,,Wiley-American Ceramic Society,,160,0,English,,,,"9781118751039,9781118751015,1118751035",,,,,,,10.1002/9781118751015,,,,0,,1,0,1,,,1,4796448,pdf,d7e57510e2b9bf14ca73dd3b3aeb9811,,,10.1002%2F9781118751015.pdf,0,2000-01-01 01:00:00,2016-04-03 02:51:08,http://media.wiley.com/product_data/coverImage300/35/11187510/1118751035.jpg,,
14913378,Nations: The Long History and Deep Roots of Political Ethnicity and Nationalism,,,,"Azar Gat, Alexander Yakobson",2013,,Cambridge University Press,,452,0,English,189,,0,"1107007852,9781107007857",,,,,,,,,,,0,,,,1,,1,1,3760382,pdf,e03ea495452e9b1ce390d82b3c851cce,,,1107007852Nations,0,2000-01-01 01:00:00,2016-04-03 02:51:08,http://ecx.images-amazon.com/images/I/51wr1Pkkq0L.jpg,,
14913376,Revolutions in Twentieth-Century Physics,,,,David J. Griffiths,2012,,Cambridge University Press,,188,0,English,264,,0,"1107602173,9781107602175",,,,,,,,,,,0,,,,,,,1,3711137,pdf,cccc04cc27becb69b16e90a605068ca3,,,1107602173R20CP,0,2000-01-01 01:00:00,2016-04-03 02:51:08,http://ecx.images-amazon.com/images/I/51gPQXqVa5L.jpg,,
14913377,"Calculus, solutions ",,,,"Narberg, Purcell, Rigdon",,8,,,1079,0,English,117,,,,,,,,,,,,,,0,,,,,,,0,27188343,pdf,D7A866A0BFE38707F6D09C7A82E05FA3,,,Calculus-Narberg-Purcell-Rigdon-8e-solutions.pdf,0,2000-01-01 01:00:00,2016-04-03 02:51:08,339000/d7a866a0bfe38707f6d09c7a82e05fa3-g.jpg,,
14913375,Ein Leben in Briefen: Ergänzungsband I. Die Texte,,Abhandlungen der Rheinisch-Westfälischen Akademie der Wissenschaften 84/1,,Friedrich August Wolf (auth.),1990,,VS Verlag für Sozialwissenschaften,,197,0,German,,,,"978-3-531-05101-7,978-3-663-14426-7",,,,,,,10.1007/978-3-663-14426-7,,,,0,,1,0,1,,,1,8389231,pdf,f3c2eb4360bdab331780ec0bba6639ef,,,10.1007%2F978-3-663-14426-7.pdf,0,2000-01-01 01:00:00,2016-04-03 02:51:08,http://link.springer.com/static-content/covers/books/750/9783663144267.jpg,,
14913374,Testovi iz hrvatskoga jezika za gimnazijalce: 442 pitanja i odgovora,,,,"Mirela Barbaroša-Šikić, Sanja Marija Sikirić, Jelena Vignjević, Marina Čubrić",Školska knjiga,,Školska knjiga,Zagreb,37,0,Croatian,314,,0,,,,,,,,,XMTRNAAACAAJ,,,300,,,0,1,1,1,1,2219159,pdf,55d3babc5009aeb90e97c1afb9e0e21e,,,"Testovi iz hrvatskoga jezika za gimnazijalce - 442 pitanja i odgovora, Barbaroša-Šikić M. et al., 1998",0,2000-01-01 01:00:00,2016-04-03 02:51:08,1016000/55d3babc5009aeb90e97c1afb9e0e21e-g.jpg,,
14913373,Ein Leben in Briefen: Ergänzungsband II. Die Erläuterungen,,Abhandlungen der Rheinisch-Westfälischen Akademie der Wissenschaften 84/2,,Friedrich August Wolf (auth.),1990,,VS Verlag für Sozialwissenschaften,,117,0,German,,,,"978-3-531-05102-4,978-3-663-14425-0",,,,,,,10.1007/978-3-663-14425-0,,,,0,,1,0,1,,,1,2867758,pdf,2d8a1c70955481713b8f1432a57371ff,,,10.1007%2F978-3-663-14425-0.pdf,0,2000-01-01 01:00:00,2016-04-03 02:51:08,http://link.springer.com/static-content/covers/books/788/9783663144250.jpg,,
14913372,Testovi iz hrvatskoga jezika za gimnazijalce: 442 pitanja i odgovora,,,,"Mirela Barbaroša-Šikić, Sanja Marija Sikirić, Jelena Vignjević, Marina Čubrić",Školska knjiga,,Školska knjiga,Zagreb,37,0,Croatian,314,,0,,,,,,,,,XMTRNAAACAAJ,,,300,,,0,1,1,1,1,2219159,pdf,55d3babc5009aeb90e97c1afb9e0e21e,,,"Testovi iz hrvatskoga jezika za gimnazijalce - 442 pitanja i odgovora, Barbaroša-Šikić M. et al., 1998",0,2000-01-01 01:00:00,2016-04-03 02:51:08,,,
14913371,Gewalt und Legitimität,,Analysen zum Terrorismus 4/1,,"Ulrich Matz, Gerhard Schmidtchen (auth.)",1983,,VS Verlag für Sozialwissenschaften,,438,0,German,,,,"978-3-531-11630-3,978-3-663-14413-7",,,,,,,10.1007/978-3-663-14413-7,,,,0,,1,0,1,,,1,9032516,pdf,f5c7e3831bfe2e3d1a0ea6c6f0c3ab0a,,,10.1007%2F978-3-663-14413-7.pdf,0,2000-01-01 01:00:00,2016-04-03 02:51:08,http://link.springer.com/static-content/covers/books/804/9783663144137.jpg,,
14913370,Gruppenprozesse,,Analysen zum Terrorismus 3,,"Wanda von Baeyer-Katte, Dieter Claessens, Hubert Feger, Friedhelm Neidhardt (auth.)",1982,,VS Verlag für Sozialwissenschaften,,525,0,German,,,,"978-3-531-11582-5,978-3-663-14409-0",,,,,,,10.1007/978-3-663-14409-0,,,,0,,1,0,1,,,1,15479980,pdf,42f108b7121ec87c5c7a8cd7abadf339,,,10.1007%2F978-3-663-14409-0.pdf,0,2000-01-01 01:00:00,2016-04-03 02:51:08,http://link.springer.com/static-content/covers/books/586/9783663144090.jpg,,
14913369,Probleme der Kreditfinanzierung bei Klein- und Mittelbetrieben,,Abhandlungen zur Mittelstandsforschung 9,,Professor Dr. Günter Schmölders (auth.),1964,,VS Verlag für Sozialwissenschaften,,174,0,German,,,,"978-3-663-12812-0,978-3-663-14334-5",,,,,,,10.1007/978-3-663-14334-5,,,,0,,1,0,1,,,1,6571615,pdf,fd165637c6e726ddfdbf368f9e432393,,,10.1007%2F978-3-663-14334-5.pdf,0,2000-01-01 01:00:00,2016-04-03 02:51:08,http://link.springer.com/static-content/covers/books/644/9783663143345.jpg,,
14913368,Кирило-Мефодiiвське Товариство. У трьох томах. Том 1,Том 1,,,"Глизь Іван Іванович, Бутич Марія Іванівна,",1990,,Наукова думка,Київ,273,0,Ukrainian,,toloka.hurtom.com,2005-2010,"5-12-001221-3, 5-12-001223-X",,,,63.3(2)47,,,,,,,0,,,,,,,1,13763154,djvu,52E2F46712587250B4AD74BA30E648E9,,,mnib119-KiriloMefodiiwskeTowaristwoTom1.djvu,0,2000-01-01 01:00:00,2016-04-03 02:51:08,311000/52e2f46712587250b4ad74ba30e648e9-d.gif,,
14913366,Wie modern war das Kaiserreich?: Das Beispiel der Schule,,Gerda-Henkel-Vorlesung,,Thomas Nipperdey (auth.),1986,,VS Verlag für Sozialwissenschaften,,17,0,English,,,,"978-3-531-11958-8,978-3-663-14260-7",,,,,,,10.1007/978-3-663-14260-7,,,,0,,1,0,1,,,1,445922,pdf,a3b7aff4e8f747079a70b4b9805b19ec,,,10.1007%2F978-3-663-14260-7.pdf,0,2000-01-01 01:00:00,2016-04-03 02:51:08,http://link.springer.com/static-content/covers/books/674/9783663142607.jpg,,
14913367,Кирило-Мефодiiвське Товариство,Том 3,,,,1990,,,Киев ,221,0,Russian,,http://mnib.malorus.org,2005-2010,1-59385-066-2,,,,,,,,,,,0,,,,,,,1,9630273,djvu,790A91F8ED56A7A566B7DA3407896013,,,mnib121-KiriloMefodiiwskeTowaristwoTom3.djvu,0,2000-01-01 01:00:00,2016-04-03 02:51:08,311000/790a91f8ed56a7a566b7da3407896013-d.gif,,
14913365,Кирило-Мефодiiвське Товариство,Том 2,,,,1990,,,Киев ,349,0,Russian,,http://mnib.malorus.org,2005-2010,3-540-43481-X,,,,,,,,,,,0,,,,,,,1,17017228,djvu,6F01AF8A7A9757C90FE5D2B3E2027505,,,mnib120-KiriloMefodiiwskeTowaristwoTom2.djvu,0,2000-01-01 01:00:00,2016-04-03 02:51:08,311000/6f01af8a7a9757c90fe5d2b3e2027505-d.gif,,
14913364,„Das ist o. B. d. A. trivial!“: Eine Gebrauchsanleitung zur Formulierung mathematischer Gedanken mit vielen praktischen Tips für Studierende der Mathematik und Informatik,,vieweg studium,,Prof. Dr. Albrecht Beutelspacher (auth.),1992,,Vieweg+Teubner Verlag,,100,0,German,,,,"978-3-528-16442-3,978-3-663-14252-2",,,,,,,10.1007/978-3-663-14252-2,,,,0,,1,0,1,,,1,3380099,pdf,8640798d644ce6d29dc7552595fa4f35,,,10.1007%2F978-3-663-14252-2.pdf,0,2000-01-01 01:00:00,2016-04-03 02:51:08,http://link.springer.com/static-content/covers/books/578/9783663142522.jpg,,
14913363,ADA: Eine Einführung in die Programmiersprache der Softwaretechnik,,,,Manfred Nagl (auth.),1991,,Vieweg+Teubner Verlag,,353,0,German,,,,"978-3-528-23347-1,978-3-663-14249-2",,,,,,,10.1007/978-3-663-14249-2,,,,0,,1,0,1,,,1,8995959,pdf,bcf12c71a1ddd3e142e0c1c2ba032516,,,10.1007%2F978-3-663-14249-2.pdf,0,2000-01-01 01:00:00,2016-04-03 02:51:08,http://link.springer.com/static-content/covers/books/322/9783663142492.jpg,,
14913362,Кирило-Мефодiiвське Товариство,Том 1,,,,1990,,,Киев ,273,0,Russian,,http://mnib.malorus.org,2005-2010,"0-8058-0248-7,0-8058-0249-5",,,,,,,,,,,0,,,,,,,1,13763154,djvu,52E2F46712587250B4AD74BA30E648E9,,,mnib119-KiriloMefodiiwskeTowaristwoTom1.djvu,0,2000-01-01 01:00:00,2016-04-03 02:51:08,311000/52e2f46712587250b4ad74ba30e648e9-d.gif,,
14913361,"Advances in Multi-Grid Methods: Proceedings of the conference held in Oberwolfach, December 8 to 13, 1984",,Notes on Numerical Fluid Mechanics 11,,"O. Axelsson (auth.), Dietrich Braess, Wolfgang Hackbusch, Ulrich Trottenberg (eds.)",1985,,Vieweg+Teubner Verlag,,127,0,English,,,,"978-3-528-08085-3,978-3-663-14245-4",,,,,,,10.1007/978-3-663-14245-4,,,,0,,1,0,1,,,1,3774044,pdf,8812e05b5143c3990659eb1330b62c80,,,10.1007%2F978-3-663-14245-4.pdf,0,2000-01-01 01:00:00,2016-04-03 02:51:08,http://link.springer.com/static-content/covers/books/444/9783663142454.jpg,,
14913360,The battle of the St. Lawrence: the Second World War in Canada,,,,Nathan M. Greenfield,2004,1,HarperCollins Publishers,,0,0,English,67,,0,"0002006642, 9780002006644, 0006394507, 9780006394501, 9781443401494",,,,,940.5435943,D779.C2G73 2004,,Ja2YZoRh5EQC,,,0,,,,,0,,,3316208,epub,ba36f8cde7d9082f6e907bc6e30a06d9,,,The Battle of the St. Lawrence,0,2000-01-01 01:00:00,2016-04-03 02:51:08,1016000/ba36f8cde7d9082f6e907bc6e30a06d9-d.jpg,,
14913359,Analysis of Laminar Flow over a Backward Facing Step: A GAMM Workshop,,Notes on Numerical Fluid Mechanics 9,,"O. Pironneau (auth.), Ken Morgan, Jacques Periaux, François Thomasset (eds.)",1984,,Vieweg+Teubner Verlag,,427,0,English,,,,"978-3-528-08083-9,978-3-663-14242-3",,,,,,,10.1007/978-3-663-14242-3,,,,0,,1,0,1,,,1,15784191,pdf,0e6a5f55db71fff2bf0d28d568dddef5,,,10.1007%2F978-3-663-14242-3.pdf,0,2000-01-01 01:00:00,2016-04-03 02:51:08,http://link.springer.com/static-content/covers/books/538/9783663142423.jpg,,
14913358,"Analysis 2: Differentialrechnung im Rn, Gewöhnliche Differentialgleichungen",,vieweg studium,,Otto Forster,1981,,Vieweg+Teubner Verlag,,171,0,German,,,0,"978-3-528-27231-9,978-3-663-14173-0",,,,,,,10.1007/978-3-663-14173-0,,,,0,,1,0,1,,,1,3517285,pdf,222e3ed5150caa20a47d00c50368fb37,,,10.1007%2F978-3-663-14173-0.pdf,0,2000-01-01 01:00:00,2016-04-03 02:51:08,http://link.springer.com/static-content/covers/books/418/9783663141730.jpg,,
14913357,"Analysis 2: Differentialrechnung im Rn, Gewöhnliche Differentialgleichungen",,vieweg studium,,Dr. rer. nat. Otto Forster (auth.),1981,,Vieweg+Teubner Verlag,,171,0,German,,,,"978-3-528-27231-9,978-3-663-14173-0",,,,,,,10.1007/978-3-663-14173-0,,,,0,,1,0,1,,,1,3517285,pdf,222e3ed5150caa20a47d00c50368fb37,,,10.1007%2F978-3-663-14173-0.pdf,0,2000-01-01 01:00:00,2016-04-03 02:51:08,http://link.springer.com/static-content/covers/books/418/9783663141730.jpg,,
14913356,"EUROVAL — An European Initiative on Validation of CFD Codes: Results of the EC/BRITE-EURAM Project EUROVAL, 1990–1992",,Notes on Numerical Fluid Mechanics (NNFM) 42,,"Werner Haase, Frans Brandsma, Eberhard Elsholz, Michael Leschziner, Dieter Schwamborn",1993,,Vieweg+Teubner Verlag,,538,0,English,,,0,"978-3-528-07642-9,978-3-663-14131-0",,,,,,,10.1007/978-3-663-14131-0,,,,0,,1,0,1,,,1,28139224,pdf,5378fb89898bbcc1e99d9643ea970f3c,,,10.1007%2F978-3-663-14131-0.pdf,0,2000-01-01 01:00:00,2016-04-03 02:51:08,http://link.springer.com/static-content/covers/books/324/9783663141310.jpg,,
14913355,"EUROVAL — An European Initiative on Validation of CFD Codes: Results of the EC/BRITE-EURAM Project EUROVAL, 1990–1992",,Notes on Numerical Fluid Mechanics (NNFM) 42,,"Werner Haase, Frans Brandsma (auth.), Werner Haase, Frans Brandsma, Eberhard Elsholz, Michael Leschziner, Dieter Schwamborn (eds.)",1993,,Vieweg+Teubner Verlag,,538,0,English,,,,"978-3-528-07642-9,978-3-663-14131-0",,,,,,,10.1007/978-3-663-14131-0,,,,0,,1,0,1,,,1,28139224,pdf,5378fb89898bbcc1e99d9643ea970f3c,,,10.1007%2F978-3-663-14131-0.pdf,0,2000-01-01 01:00:00,2016-04-03 02:51:08,http://link.springer.com/static-content/covers/books/324/9783663141310.jpg,,
14913354,"Fast Solvers for Flow Problems: Proceedings of the Tenth GAMM-Seminar Kiel, January 14–16, 1994",,Notes on Numerical Fluid Mechanics (NNFM),,"Randolph E. Bank, Jinchao Xu, Wolfgang Hackbusch, Gabriel Wittum",1995,,Vieweg+Teubner Verlag,,302,0,English,,,0,"978-3-528-07649-8,978-3-663-14125-9",,,,,,,10.1007/978-3-663-14125-9,,,,0,,1,0,1,,,1,12508288,pdf,b7f82aaad615828cd04bd6478393e2e4,,,10.1007%2F978-3-663-14125-9.pdf,0,2000-01-01 01:00:00,2016-04-03 02:51:08,http://link.springer.com/static-content/covers/books/152/9783663141259.jpg,,
14913353,"Fast Solvers for Flow Problems: Proceedings of the Tenth GAMM-Seminar Kiel, January 14–16, 1994",,Notes on Numerical Fluid Mechanics (NNFM),,"Randolph E. Bank, Jinchao Xu (auth.), Wolfgang Hackbusch, Gabriel Wittum (eds.)",1995,,Vieweg+Teubner Verlag,,302,0,English,,,,"978-3-528-07649-8,978-3-663-14125-9",,,,,,,10.1007/978-3-663-14125-9,,,,0,,1,0,1,,,1,12508288,pdf,b7f82aaad615828cd04bd6478393e2e4,,,10.1007%2F978-3-663-14125-9.pdf,0,2000-01-01 01:00:00,2016-04-03 02:51:08,http://link.springer.com/static-content/covers/books/152/9783663141259.jpg,,
14913352,Fuchsian Differential Equations: With Special Emphasis on the Gauss-Schwarz Theory,,Aspects of Mathematics / Aspekte der Mathematik E 11,,Masaaki Yoshida,1987,,Vieweg+Teubner Verlag,,230,0,English,,,0,"978-3-528-08971-9,978-3-663-14115-0",,,,,,,10.1007/978-3-663-14115-0,,,,0,,1,0,1,,,1,3792402,pdf,dd26e92161108f7c99f4508569239ff7,,,10.1007%2F978-3-663-14115-0.pdf,0,2000-01-01 01:00:00,2016-04-03 02:51:08,http://link.springer.com/static-content/covers/books/122/9783663141150.jpg,,
14913351,Fuchsian Differential Equations: With Special Emphasis on the Gauss-Schwarz Theory,,Aspects of Mathematics / Aspekte der Mathematik E 11,,Professor Masaaki Yoshida (auth.),1987,,Vieweg+Teubner Verlag,,230,0,English,,,,"978-3-528-08971-9,978-3-663-14115-0",,,,,,,10.1007/978-3-663-14115-0,,,,0,,1,0,1,,,1,3792402,pdf,dd26e92161108f7c99f4508569239ff7,,,10.1007%2F978-3-663-14115-0.pdf,0,2000-01-01 01:00:00,2016-04-03 02:51:08,http://link.springer.com/static-content/covers/books/122/9783663141150.jpg,,
14913350,"Analysis 2: Differentialrechnung im Rn, Gewöhnliche Differentialgleichungen",,vieweg studium,,Dr. rer. nat. Otto Forster (auth.),1981,,Vieweg+Teubner Verlag,,171,0,German,,,,"978-3-528-27231-9,978-3-663-14173-0",,,,,,,10.1007/978-3-663-14173-0,,,,0,,1,0,1,,,1,3517285,pdf,222e3ed5150caa20a47d00c50368fb37,,,10.1007%2F978-3-663-14173-0.pdf,0,2000-01-01 01:00:00,2016-04-03 02:51:08,http://link.springer.com/static-content/covers/books/418/9783663141730.jpg,,
14913349,"EUROVAL — An European Initiative on Validation of CFD Codes: Results of the EC/BRITE-EURAM Project EUROVAL, 1990–1992",,Notes on Numerical Fluid Mechanics (NNFM) 42,,"Werner Haase, Frans Brandsma (auth.), Werner Haase, Frans Brandsma, Eberhard Elsholz, Michael Leschziner, Dieter Schwamborn (eds.)",1993,,Vieweg+Teubner Verlag,,538,0,English,,,,"978-3-528-07642-9,978-3-663-14131-0",,,,,,,10.1007/978-3-663-14131-0,,,,0,,1,0,1,,,1,28139224,pdf,5378fb89898bbcc1e99d9643ea970f3c,,,10.1007%2F978-3-663-14131-0.pdf,0,2000-01-01 01:00:00,2016-04-03 02:51:08,http://link.springer.com/static-content/covers/books/324/9783663141310.jpg,,
14913348,"Fast Solvers for Flow Problems: Proceedings of the Tenth GAMM-Seminar Kiel, January 14–16, 1994",,Notes on Numerical Fluid Mechanics (NNFM),,"Randolph E. Bank, Jinchao Xu (auth.), Wolfgang Hackbusch, Gabriel Wittum (eds.)",1995,,Vieweg+Teubner Verlag,,302,0,English,,,,"978-3-528-07649-8,978-3-663-14125-9",,,,,,,10.1007/978-3-663-14125-9,,,,0,,1,0,1,,,1,12508288,pdf,b7f82aaad615828cd04bd6478393e2e4,,,10.1007%2F978-3-663-14125-9.pdf,0,2000-01-01 01:00:00,2016-04-03 02:51:08,http://link.springer.com/static-content/covers/books/152/9783663141259.jpg,,
14913346,Analysis 3: Integralrechnung im IRn mit Anwendungen,,vieweg studium; Aufbaukurs Mathematik 52,,Otto Forster,1981,,Vieweg+Teubner Verlag,,296,0,German,,,0,"978-3-528-07252-0,978-3-663-14081-8",,,,,,,10.1007/978-3-663-14081-8,,,,0,,1,0,1,,,1,6795695,pdf,e01003a5996281b7f206182650196540,,,10.1007%2F978-3-663-14081-8.pdf,0,2000-01-01 01:00:00,2016-04-03 02:51:08,http://link.springer.com/static-content/covers/books/302/9783663140818.jpg,,
14913347,Fuchsian Differential Equations: With Special Emphasis on the Gauss-Schwarz Theory,,Aspects of Mathematics / Aspekte der Mathematik E 11,,Professor Masaaki Yoshida (auth.),1987,,Vieweg+Teubner Verlag,,230,0,English,,,,"978-3-528-08971-9,978-3-663-14115-0",,,,,,,10.1007/978-3-663-14115-0,,,,0,,1,0,1,,,1,3792402,pdf,dd26e92161108f7c99f4508569239ff7,,,10.1007%2F978-3-663-14115-0.pdf,0,2000-01-01 01:00:00,2016-04-03 02:51:08,http://link.springer.com/static-content/covers/books/122/9783663141150.jpg,,
14913345,Analysis 3: Integralrechnung im IRn mit Anwendungen,,vieweg studium; Aufbaukurs Mathematik 52,,Otto Forster (auth.),1981,,Vieweg+Teubner Verlag,,296,0,German,,,,"978-3-528-07252-0,978-3-663-14081-8",,,,,,,10.1007/978-3-663-14081-8,,,,0,,1,0,1,,,1,6795695,pdf,e01003a5996281b7f206182650196540,,,10.1007%2F978-3-663-14081-8.pdf,0,2000-01-01 01:00:00,2016-04-03 02:51:08,http://link.springer.com/static-content/covers/books/302/9783663140818.jpg,,
14913344,Johannes Philoponos: De opificio mundi,,Beiträge zur Altertumskunde 135,,Ludwig Fladerer,1999,,Vieweg+Teubner Verlag,,421,0,German,,,0,"978-3-519-07684-1,978-3-663-14076-4",,,,,,,10.1007/978-3-663-14076-4,,,,0,,1,0,1,,,1,12490752,pdf,bbfcd0f2dc9846cb850e9a193af042c6,,,10.1007%2F978-3-663-14076-4.pdf,0,2000-01-01 01:00:00,2016-04-03 02:51:08,http://link.springer.com/static-content/covers/books/112/9783663140764.jpg,,
14913343,Johannes Philoponos: De opificio mundi,,Beiträge zur Altertumskunde 135,,Ludwig Fladerer (auth.),1999,,Vieweg+Teubner Verlag,,421,0,German,,,,"978-3-519-07684-1,978-3-663-14076-4",,,,,,,10.1007/978-3-663-14076-4,,,,0,,1,0,1,,,1,12490752,pdf,bbfcd0f2dc9846cb850e9a193af042c6,,,10.1007%2F978-3-663-14076-4.pdf,0,2000-01-01 01:00:00,2016-04-03 02:51:08,http://link.springer.com/static-content/covers/books/112/9783663140764.jpg,,
14913342,"Multidisciplinary Approach to Earthquake Prediction: Proceedings of the International Symposium on Earthquake Prediction in the North Anatolian Fault Zone held in Istanbul, March 31–April 5, 1980",,Progress in Earthquake Prediction Research 2,,"A. M. C. Şengör, Kevin Burke, John F. Dewey, A. Mete Işikara, Andreas Vogel",1982,,Vieweg+Teubner Verlag,,565,0,English,,,0,"978-3-528-08482-0,978-3-663-14015-3",,,,,,,10.1007/978-3-663-14015-3,,,,0,,1,0,1,,,1,22170892,pdf,6fbc085885a1b5cf1788c8f50fef83f9,,,10.1007%2F978-3-663-14015-3.pdf,0,2000-01-01 01:00:00,2016-04-03 02:51:08,http://link.springer.com/static-content/covers/books/910/9783663140153.jpg,,
14913341,"Multidisciplinary Approach to Earthquake Prediction: Proceedings of the International Symposium on Earthquake Prediction in the North Anatolian Fault Zone held in Istanbul, March 31–April 5, 1980",,Progress in Earthquake Prediction Research 2,,"A. M. C. Şengör, Kevin Burke, John F. Dewey (auth.), A. Mete Işikara, Andreas Vogel (eds.)",1982,,Vieweg+Teubner Verlag,,565,0,English,,,,"978-3-528-08482-0,978-3-663-14015-3",,,,,,,10.1007/978-3-663-14015-3,,,,0,,1,0,1,,,1,22170892,pdf,6fbc085885a1b5cf1788c8f50fef83f9,,,10.1007%2F978-3-663-14015-3.pdf,0,2000-01-01 01:00:00,2016-04-03 02:51:08,http://link.springer.com/static-content/covers/books/910/9783663140153.jpg,,
14913340,Manifolds and Modular Forms,,Aspects of Mathematics E 20,,"Friedrich Hirzebruch, Thomas Berger, Rainer Jung",1992,,Vieweg+Teubner Verlag,,216,0,English,,,0,"978-3-528-06414-3,978-3-663-14045-0",,,,,,,10.1007/978-3-663-14045-0,,,,0,,1,0,1,,,1,9342229,pdf,fba2335a29ab70a24d5acdd60c39a138,,,10.1007%2F978-3-663-14045-0.pdf,0,2000-01-01 01:00:00,2016-04-03 02:51:08,http://link.springer.com/static-content/covers/books/30/9783663140450.jpg,,
14913339,Manifolds and Modular Forms,,Aspects of Mathematics E 20,,"Professor Dr. Friedrich Hirzebruch, Thomas Berger, Rainer Jung (auth.)",1992,,Vieweg+Teubner Verlag,,216,0,English,,,,"978-3-528-06414-3,978-3-663-14045-0",,,,,,,10.1007/978-3-663-14045-0,,,,0,,1,0,1,,,1,9342229,pdf,fba2335a29ab70a24d5acdd60c39a138,,,10.1007%2F978-3-663-14045-0.pdf,0,2000-01-01 01:00:00,2016-04-03 02:51:08,http://link.springer.com/static-content/covers/books/30/9783663140450.jpg,,
14913337,Lavrentivs Bonincontrivs Miniatensis: De Rebvs Natvralibvs et Divinis,,Beiträge zur Altertumskunde 129,,Stephan Heilen,1999,,Vieweg+Teubner Verlag,,682,0,English,,,0,"978-3-519-07678-0,978-3-663-14061-0",,,,,,,10.1007/978-3-663-14061-0,,,,0,,1,0,1,,,1,26457815,pdf,8c5425a2e2bc96a3048785ff996b5be1,,,10.1007%2F978-3-663-14061-0.pdf,0,2000-01-01 01:00:00,2016-04-03 02:51:08,http://link.springer.com/static-content/covers/books/232/9783663140610.jpg,,
14913338,Analysis 3: Integralrechnung im IRn mit Anwendungen,,vieweg studium; Aufbaukurs Mathematik 52,,Otto Forster (auth.),1981,,Vieweg+Teubner Verlag,,296,0,German,,,,"978-3-528-07252-0,978-3-663-14081-8",,,,,,,10.1007/978-3-663-14081-8,,,,0,,1,0,1,,,1,6795695,pdf,e01003a5996281b7f206182650196540,,,10.1007%2F978-3-663-14081-8.pdf,0,2000-01-01 01:00:00,2016-04-03 02:51:08,http://link.springer.com/static-content/covers/books/302/9783663140818.jpg,,
14913336,Lavrentivs Bonincontrivs Miniatensis: De Rebvs Natvralibvs et Divinis,,Beiträge zur Altertumskunde 129,,Stephan Heilen (auth.),1999,,Vieweg+Teubner Verlag,,682,0,English,,,,"978-3-519-07678-0,978-3-663-14061-0",,,,,,,10.1007/978-3-663-14061-0,,,,0,,1,0,1,,,1,26457815,pdf,8c5425a2e2bc96a3048785ff996b5be1,,,10.1007%2F978-3-663-14061-0.pdf,0,2000-01-01 01:00:00,2016-04-03 02:51:08,http://link.springer.com/static-content/covers/books/232/9783663140610.jpg,,
14913335,"Konzentrationsmessungen von Pharmaka, Bedeutung für Klinik und Praxis",,,,"K. Hierholzer, N. Rietbrock",1980,,Vieweg+Teubner Verlag,,144,0,German,,,0,"978-3-528-07904-8,978-3-663-14065-8",,,,,,,10.1007/978-3-663-14065-8,,,,0,,1,0,1,,,1,8700885,pdf,25b09498761d50e898a4df5ae41474d2,,,10.1007%2F978-3-663-14065-8.pdf,0,2000-01-01 01:00:00,2016-04-03 02:51:08,http://link.springer.com/static-content/covers/books/100/9783663140658.jpg,,
14913333,Normierung von Geschäftsgraphiken: 100 Diagramm-Formatvorlagen für MS-Chart,,,,"Heiner Abels, Horst Degen, B. Regina, Rolf B. Baumeister",1986,,Vieweg+Teubner Verlag,,345,0,German,,,0,"978-3-528-04469-5,978-3-663-14009-2",,,,,,,10.1007/978-3-663-14009-2,,,,0,,1,0,1,,,1,18494682,pdf,c15d72c0eb59d2cc0adf38629aecd262,,,10.1007%2F978-3-663-14009-2.pdf,0,2000-01-01 01:00:00,2016-04-03 02:51:08,http://link.springer.com/static-content/covers/books/748/9783663140092.jpg,,
14913334,"Konzentrationsmessungen von Pharmaka, Bedeutung für Klinik und Praxis",,,,"K. Hierholzer (auth.), K. Hierholzer, N. Rietbrock (eds.)",1980,,Vieweg+Teubner Verlag,,144,0,German,,,,"978-3-528-07904-8,978-3-663-14065-8",,,,,,,10.1007/978-3-663-14065-8,,,,0,,1,0,1,,,1,8700885,pdf,25b09498761d50e898a4df5ae41474d2,,,10.1007%2F978-3-663-14065-8.pdf,0,2000-01-01 01:00:00,2016-04-03 02:51:08,http://link.springer.com/static-content/covers/books/100/9783663140658.jpg,,
14913332,Normierung von Geschäftsgraphiken: 100 Diagramm-Formatvorlagen für MS-Chart,,,,"Heiner Abels, Horst Degen (auth.), B. Regina, Rolf B. Baumeister (eds.)",1986,,Vieweg+Teubner Verlag,,345,0,German,,,,"978-3-528-04469-5,978-3-663-14009-2",,,,,,,10.1007/978-3-663-14009-2,,,,0,,1,0,1,,,1,18494682,pdf,c15d72c0eb59d2cc0adf38629aecd262,,,10.1007%2F978-3-663-14009-2.pdf,0,2000-01-01 01:00:00,2016-04-03 02:51:08,http://link.springer.com/static-content/covers/books/748/9783663140092.jpg,,
14913331,"Numerical Techniques for Boundary Element Methods: Proceedings of the Seventh GAMM-Seminar Kiel, January 25–27, 1991",,Notes on Numerical Fluid Mechanics (NNFM) 33 7,,"H. Antes, K. Volk, Wolfgang Hackbusch",1992,,Vieweg+Teubner Verlag,,202,0,English,,,0,"978-3-528-07633-7,978-3-663-14005-4",,,,,,,10.1007/978-3-663-14005-4,,,,0,,1,0,1,,,1,5747411,pdf,3f1db1ed0185f667e2c30c0f4f1ab0ef,,,10.1007%2F978-3-663-14005-4.pdf,0,2000-01-01 01:00:00,2016-04-03 02:51:08,http://link.springer.com/static-content/covers/books/870/9783663140054.jpg,,
14913330,"Numerical Techniques for Boundary Element Methods: Proceedings of the Seventh GAMM-Seminar Kiel, January 25–27, 1991",,Notes on Numerical Fluid Mechanics (NNFM) 33 7,,"H. Antes, K. Volk (auth.), Wolfgang Hackbusch (eds.)",1992,,Vieweg+Teubner Verlag,,202,0,English,,,,"978-3-528-07633-7,978-3-663-14005-4",,,,,,,10.1007/978-3-663-14005-4,,,,0,,1,0,1,,,1,5747411,pdf,3f1db1ed0185f667e2c30c0f4f1ab0ef,,,10.1007%2F978-3-663-14005-4.pdf,0,2000-01-01 01:00:00,2016-04-03 02:51:08,http://link.springer.com/static-content/covers/books/870/9783663140054.jpg,,
14913329,"Numerical Treatment of the Navier-Stokes Equations: Proceedings of the Fifth GAMM-Seminar, Kiel, January 20–22, 1989",,Notes on Numerical Fluid Mechanics (NNFM) 30 5,,"Rainer Ansorge, Wolfgang Hackbusch, Rolf Rannacher",1990,,Vieweg+Teubner Verlag,,174,0,English,,,0,"978-3-528-07630-6,978-3-663-14004-7",,,,,,,10.1007/978-3-663-14004-7,,,,0,,1,0,1,,,1,7691516,pdf,294dc96bd66f4d99923e0c274d28c49b,,,10.1007%2F978-3-663-14004-7.pdf,0,2000-01-01 01:00:00,2016-04-03 02:51:08,http://link.springer.com/static-content/covers/books/898/9783663140047.jpg,,
14913327,Око Роду. Книга друга,,,,Відун Рувит,2008,,ФОП Данилюк В.Г.,Вінниця,303,0,Ukrainian,,toloka.hurtom.com,0,978-966-2917-60-4,,,821.161.2-1,84.4УКР6-5,,,,,,,0,,,,,,,1,46971189,pdf,6dc4233544e813d71235efce62b07805,,,Відун Рувит - Око Роду - small,0,2000-01-01 01:00:00,2016-04-03 02:51:08,,,
14913328,"Numerical Treatment of the Navier-Stokes Equations: Proceedings of the Fifth GAMM-Seminar, Kiel, January 20–22, 1989",,Notes on Numerical Fluid Mechanics (NNFM) 30 5,,"Rainer Ansorge (auth.), Wolfgang Hackbusch, Rolf Rannacher (eds.)",1990,,Vieweg+Teubner Verlag,,174,0,English,,,,"978-3-528-07630-6,978-3-663-14004-7",,,,,,,10.1007/978-3-663-14004-7,,,,0,,1,0,1,,,1,7691516,pdf,294dc96bd66f4d99923e0c274d28c49b,,,10.1007%2F978-3-663-14004-7.pdf,0,2000-01-01 01:00:00,2016-04-03 02:51:08,http://link.springer.com/static-content/covers/books/898/9783663140047.jpg,,
14913326,Johannes Philoponos: De opificio mundi,,Beiträge zur Altertumskunde 135,,Ludwig Fladerer (auth.),1999,,Vieweg+Teubner Verlag,,421,0,German,,,,"978-3-519-07684-1,978-3-663-14076-4",,,,,,,10.1007/978-3-663-14076-4,,,,0,,1,0,1,,,1,12490752,pdf,bbfcd0f2dc9846cb850e9a193af042c6,,,10.1007%2F978-3-663-14076-4.pdf,0,2000-01-01 01:00:00,2016-04-03 02:51:08,http://link.springer.com/static-content/covers/books/112/9783663140764.jpg,,
14913325,WordPerfect von A‥Z: Das vollständige Nachschlagewerk für das Textverarbeitungssystem mit vielen Beispielen und Querverweisen für Version 5,,,,Frieder Middelhauve,1990,,Vieweg+Teubner Verlag,,288,0,German,,,0,"978-3-528-04739-9,978-3-663-13868-6",,,,,,,10.1007/978-3-663-13868-6,,,,0,,1,0,1,,,1,9197357,pdf,6c5c02b9845e5e6ff310a72085914597,,,10.1007%2F978-3-663-13868-6.pdf,0,2000-01-01 01:00:00,2016-04-03 02:51:08,http://link.springer.com/static-content/covers/books/202/9783663138686.jpg,,
14913324,WordPerfect von A‥Z: Das vollständige Nachschlagewerk für das Textverarbeitungssystem mit vielen Beispielen und Querverweisen für Version 5,,,,Frieder Middelhauve (auth.),1990,,Vieweg+Teubner Verlag,,288,0,German,,,,"978-3-528-04739-9,978-3-663-13868-6",,,,,,,10.1007/978-3-663-13868-6,,,,0,,1,0,1,,,1,9197357,pdf,6c5c02b9845e5e6ff310a72085914597,,,10.1007%2F978-3-663-13868-6.pdf,0,2000-01-01 01:00:00,2016-04-03 02:51:08,http://link.springer.com/static-content/covers/books/202/9783663138686.jpg,,
14913323,Absatzwerbung,,Betrieb und Markt 10,,Karl Christian Behrens,1976,,Gabler Verlag,,238,0,English,,,0,"978-3-409-36672-4,978-3-663-13857-0",,,,,,,10.1007/978-3-663-13857-0,,,,0,,1,0,1,,,1,10927318,pdf,0f4cbbcb60e66e322910381b6c63d5ba,,,10.1007%2F978-3-663-13857-0.pdf,0,2000-01-01 01:00:00,2016-04-03 02:51:08,http://link.springer.com/static-content/covers/books/200/9783663138570.jpg,,
14913322,Absatzwerbung,,Betrieb und Markt 10,,Dr. Karl Christian Behrens (auth.),1976,,Gabler Verlag,,238,0,English,,,,"978-3-409-36672-4,978-3-663-13857-0",,,,,,,10.1007/978-3-663-13857-0,,,,0,,1,0,1,,,1,10927318,pdf,0f4cbbcb60e66e322910381b6c63d5ba,,,10.1007%2F978-3-663-13857-0.pdf,0,2000-01-01 01:00:00,2016-04-03 02:51:08,http://link.springer.com/static-content/covers/books/200/9783663138570.jpg,,
14913321,"Allgemeine Betriebswirtschaftslehre: Aufbau, Ablauf, Führung, Leitung",,,,Wolfgang Korndörfer,1986,,Gabler Verlag,,408,0,German,,,0,"978-3-409-32053-5,978-3-663-13847-1",,,,,,,10.1007/978-3-663-13847-1,,,,0,,1,0,1,,,1,13617706,pdf,339935caacaccc34fc8e6a2d8e40e5da,,,10.1007%2F978-3-663-13847-1.pdf,0,2000-01-01 01:00:00,2016-04-03 02:51:08,http://link.springer.com/static-content/covers/books/160/9783663138471.jpg,,
14913319,Allgemeine Betriebswirtschaftslehre: Allgemeine Theorie der Betriebswirtschaft,,Gabler-Studientexte,,M. R. Lehmann,1956,,Gabler Verlag,,343,0,German,,,0,"978-3-663-12780-2,978-3-663-13843-3",,,,,,,10.1007/978-3-663-13843-3,,,,0,,1,0,1,,,1,20538633,pdf,4779985e800f09d2e51e50d1f2862c50,,,10.1007%2F978-3-663-13843-3.pdf,0,2000-01-01 01:00:00,2016-04-03 02:51:08,http://link.springer.com/static-content/covers/books/282/9783663138433.jpg,,
14913320,"Allgemeine Betriebswirtschaftslehre: Aufbau, Ablauf, Führung, Leitung",,,,Prof. Dr. Wolfgang Korndörfer (auth.),1986,,Gabler Verlag,,408,0,German,,,,"978-3-409-32053-5,978-3-663-13847-1",,,,,,,10.1007/978-3-663-13847-1,,,,0,,1,0,1,,,1,13617706,pdf,339935caacaccc34fc8e6a2d8e40e5da,,,10.1007%2F978-3-663-13847-1.pdf,0,2000-01-01 01:00:00,2016-04-03 02:51:08,http://link.springer.com/static-content/covers/books/160/9783663138471.jpg,,
14913318,Allgemeine Betriebswirtschaftslehre: Allgemeine Theorie der Betriebswirtschaft,,Gabler-Studientexte,,"Professor Dr.-Ing., Dr. rer. pol. M. R. Lehmann (auth.)",1956,,Gabler Verlag,,343,0,German,,,,"978-3-663-12780-2,978-3-663-13843-3",,,,,,,10.1007/978-3-663-13843-3,,,,0,,1,0,1,,,1,20538633,pdf,4779985e800f09d2e51e50d1f2862c50,,,10.1007%2F978-3-663-13843-3.pdf,0,2000-01-01 01:00:00,2016-04-03 02:51:08,http://link.springer.com/static-content/covers/books/282/9783663138433.jpg,,
14913317,Bank-Lexikon: Handwörterbuch für das Bank- und Sparkassenwesen,,,,Gerhard Müller,1961,,Gabler Verlag,,736,0,German,,,0,"978-3-663-12766-6,978-3-663-13799-3",,,,,,,10.1007/978-3-663-13799-3,,,,0,,1,0,1,,,1,56906314,pdf,86b58bc5ae382637526532a606f53ef3,,,10.1007%2F978-3-663-13799-3.pdf,0,2000-01-01 01:00:00,2016-04-03 02:51:08,http://link.springer.com/static-content/covers/books/82/9783663137993.jpg,,
14913316,Bank-Lexikon: Handwörterbuch für das Bank- und Sparkassenwesen,,,,"Dr. Gerhard Müller (auth.), Dr. Gerhard Müller (eds.)",1961,,Gabler Verlag,,736,0,German,,,,"978-3-663-12766-6,978-3-663-13799-3",,,,,,,10.1007/978-3-663-13799-3,,,,0,,1,0,1,,,1,56906314,pdf,86b58bc5ae382637526532a606f53ef3,,,10.1007%2F978-3-663-13799-3.pdf,0,2000-01-01 01:00:00,2016-04-03 02:51:08,http://link.springer.com/static-content/covers/books/82/9783663137993.jpg,,
14913315,"Konzentrationsmessungen von Pharmaka, Bedeutung für Klinik und Praxis",,,,"K. Hierholzer (auth.), K. Hierholzer, N. Rietbrock (eds.)",1980,,Vieweg+Teubner Verlag,,144,0,German,,,,"978-3-528-07904-8,978-3-663-14065-8",,,,,,,10.1007/978-3-663-14065-8,,,,0,,1,0,1,,,1,8700885,pdf,25b09498761d50e898a4df5ae41474d2,,,10.1007%2F978-3-663-14065-8.pdf,0,2000-01-01 01:00:00,2016-04-03 02:51:08,http://link.springer.com/static-content/covers/books/100/9783663140658.jpg,,
14913313,Manifolds and Modular Forms,,Aspects of Mathematics E 20,,"Professor Dr. Friedrich Hirzebruch, Thomas Berger, Rainer Jung (auth.)",1992,,Vieweg+Teubner Verlag,,216,0,English,,,,"978-3-528-06414-3,978-3-663-14045-0",,,,,,,10.1007/978-3-663-14045-0,,,,0,,1,0,1,,,1,9342229,pdf,fba2335a29ab70a24d5acdd60c39a138,,,10.1007%2F978-3-663-14045-0.pdf,0,2000-01-01 01:00:00,2016-04-03 02:51:08,http://link.springer.com/static-content/covers/books/30/9783663140450.jpg,,
14913314,Lavrentivs Bonincontrivs Miniatensis: De Rebvs Natvralibvs et Divinis,,Beiträge zur Altertumskunde 129,,Stephan Heilen (auth.),1999,,Vieweg+Teubner Verlag,,682,0,English,,,,"978-3-519-07678-0,978-3-663-14061-0",,,,,,,10.1007/978-3-663-14061-0,,,,0,,1,0,1,,,1,26457815,pdf,8c5425a2e2bc96a3048785ff996b5be1,,,10.1007%2F978-3-663-14061-0.pdf,0,2000-01-01 01:00:00,2016-04-03 02:51:08,http://link.springer.com/static-content/covers/books/232/9783663140610.jpg,,
14913312,"Multidisciplinary Approach to Earthquake Prediction: Proceedings of the International Symposium on Earthquake Prediction in the North Anatolian Fault Zone held in Istanbul, March 31–April 5, 1980",,Progress in Earthquake Prediction Research 2,,"A. M. C. Şengör, Kevin Burke, John F. Dewey (auth.), A. Mete Işikara, Andreas Vogel (eds.)",1982,,Vieweg+Teubner Verlag,,565,0,English,,,,"978-3-528-08482-0,978-3-663-14015-3",,,,,,,10.1007/978-3-663-14015-3,,,,0,,1,0,1,,,1,22170892,pdf,6fbc085885a1b5cf1788c8f50fef83f9,,,10.1007%2F978-3-663-14015-3.pdf,0,2000-01-01 01:00:00,2016-04-03 02:51:08,http://link.springer.com/static-content/covers/books/910/9783663140153.jpg,,
14913311,Normierung von Geschäftsgraphiken: 100 Diagramm-Formatvorlagen für MS-Chart,,,,"Heiner Abels, Horst Degen (auth.), B. Regina, Rolf B. Baumeister (eds.)",1986,,Vieweg+Teubner Verlag,,345,0,German,,,,"978-3-528-04469-5,978-3-663-14009-2",,,,,,,10.1007/978-3-663-14009-2,,,,0,,1,0,1,,,1,18494682,pdf,c15d72c0eb59d2cc0adf38629aecd262,,,10.1007%2F978-3-663-14009-2.pdf,0,2000-01-01 01:00:00,2016-04-03 02:51:08,http://link.springer.com/static-content/covers/books/748/9783663140092.jpg,,
14913309,Містифікація тисячоліть. Книга третя,,,,Відун Рувит,2008,,ФОП Данилюк В.Г.,Вінниця,371,0,Ukrainian,,toloka.hurtom.com,0,978-966-2917-89-5,,,821.161.2-1,84.4УКР6-5,,,,,,,0,,,,,,,1,55995874,pdf,e7d1f8471e8cbc7a00ebe9a175996bbb,,,Відун Рувит - містифікація тисячоліть - small,0,2000-01-01 01:00:00,2016-04-03 02:51:08,,,
14913310,"Numerical Techniques for Boundary Element Methods: Proceedings of the Seventh GAMM-Seminar Kiel, January 25–27, 1991",,Notes on Numerical Fluid Mechanics (NNFM) 33 7,,"H. Antes, K. Volk (auth.), Wolfgang Hackbusch (eds.)",1992,,Vieweg+Teubner Verlag,,202,0,English,,,,"978-3-528-07633-7,978-3-663-14005-4",,,,,,,10.1007/978-3-663-14005-4,,,,0,,1,0,1,,,1,5747411,pdf,3f1db1ed0185f667e2c30c0f4f1ab0ef,,,10.1007%2F978-3-663-14005-4.pdf,0,2000-01-01 01:00:00,2016-04-03 02:51:08,http://link.springer.com/static-content/covers/books/870/9783663140054.jpg,,
14913308,"Numerical Treatment of the Navier-Stokes Equations: Proceedings of the Fifth GAMM-Seminar, Kiel, January 20–22, 1989",,Notes on Numerical Fluid Mechanics (NNFM) 30 5,,"Rainer Ansorge (auth.), Wolfgang Hackbusch, Rolf Rannacher (eds.)",1990,,Vieweg+Teubner Verlag,,174,0,English,,,,"978-3-528-07630-6,978-3-663-14004-7",,,,,,,10.1007/978-3-663-14004-7,,,,0,,1,0,1,,,1,7691516,pdf,294dc96bd66f4d99923e0c274d28c49b,,,10.1007%2F978-3-663-14004-7.pdf,0,2000-01-01 01:00:00,2016-04-03 02:51:08,http://link.springer.com/static-content/covers/books/898/9783663140047.jpg,,
14913307,WordPerfect von A‥Z: Das vollständige Nachschlagewerk für das Textverarbeitungssystem mit vielen Beispielen und Querverweisen für Version 5,,,,Frieder Middelhauve (auth.),1990,,Vieweg+Teubner Verlag,,288,0,German,,,,"978-3-528-04739-9,978-3-663-13868-6",,,,,,,10.1007/978-3-663-13868-6,,,,0,,1,0,1,,,1,9197357,pdf,6c5c02b9845e5e6ff310a72085914597,,,10.1007%2F978-3-663-13868-6.pdf,0,2000-01-01 01:00:00,2016-04-03 02:51:08,http://link.springer.com/static-content/covers/books/202/9783663138686.jpg,,
14913306,Absatzwerbung,,Betrieb und Markt 10,,Dr. Karl Christian Behrens (auth.),1976,,Gabler Verlag,,238,0,English,,,,"978-3-409-36672-4,978-3-663-13857-0",,,,,,,10.1007/978-3-663-13857-0,,,,0,,1,0,1,,,1,10927318,pdf,0f4cbbcb60e66e322910381b6c63d5ba,,,10.1007%2F978-3-663-13857-0.pdf,0,2000-01-01 01:00:00,2016-04-03 02:51:08,http://link.springer.com/static-content/covers/books/200/9783663138570.jpg,,
14913304,Allgemeine Betriebswirtschaftslehre: Allgemeine Theorie der Betriebswirtschaft,,Gabler-Studientexte,,"Professor Dr.-Ing., Dr. rer. pol. M. R. Lehmann (auth.)",1956,,Gabler Verlag,,343,0,German,,,,"978-3-663-12780-2,978-3-663-13843-3",,,,,,,10.1007/978-3-663-13843-3,,,,0,,1,0,1,,,1,20538633,pdf,4779985e800f09d2e51e50d1f2862c50,,,10.1007%2F978-3-663-13843-3.pdf,0,2000-01-01 01:00:00,2016-04-03 02:51:08,http://link.springer.com/static-content/covers/books/282/9783663138433.jpg,,
14913305,"Allgemeine Betriebswirtschaftslehre: Aufbau, Ablauf, Führung, Leitung",,,,Prof. Dr. Wolfgang Korndörfer (auth.),1986,,Gabler Verlag,,408,0,German,,,,"978-3-409-32053-5,978-3-663-13847-1",,,,,,,10.1007/978-3-663-13847-1,,,,0,,1,0,1,,,1,13617706,pdf,339935caacaccc34fc8e6a2d8e40e5da,,,10.1007%2F978-3-663-13847-1.pdf,0,2000-01-01 01:00:00,2016-04-03 02:51:08,http://link.springer.com/static-content/covers/books/160/9783663138471.jpg,,
14913303,Bank-Lexikon: Handwörterbuch für das Bank- und Sparkassenwesen,,,,"Dr. Gerhard Müller (auth.), Dr. Gerhard Müller (eds.)",1961,,Gabler Verlag,,736,0,German,,,,"978-3-663-12766-6,978-3-663-13799-3",,,,,,,10.1007/978-3-663-13799-3,,,,0,,1,0,1,,,1,56906314,pdf,86b58bc5ae382637526532a606f53ef3,,,10.1007%2F978-3-663-13799-3.pdf,0,2000-01-01 01:00:00,2016-04-03 02:51:08,http://link.springer.com/static-content/covers/books/82/9783663137993.jpg,,
14913302,Statistik im Betrieb: Lehrbuch mit praktischen Beispielen,,,,Kurt Scharnbacher,1982,,Gabler Verlag,,320,0,German,,,0,"978-3-409-27028-1,978-3-663-13038-3",,,,,,,10.1007/978-3-663-13038-3,,,,0,,1,0,1,,,1,12538619,pdf,c4793bc72bbaf581eaebb3efccb23512,,,10.1007%2F978-3-663-13038-3.pdf,0,2000-01-01 01:00:00,2016-04-03 02:51:08,http://link.springer.com/static-content/covers/books/416/9783663130383.jpg,,
14913301,Statistik im Betrieb: Lehrbuch mit praktischen Beispielen,,,,Prof. Dr. Kurt Scharnbacher (auth.),1982,,Gabler Verlag,,320,0,German,,,,"978-3-409-27028-1,978-3-663-13038-3",,,,,,,10.1007/978-3-663-13038-3,,,,0,,1,0,1,,,1,12538619,pdf,c4793bc72bbaf581eaebb3efccb23512,,,10.1007%2F978-3-663-13038-3.pdf,0,2000-01-01 01:00:00,2016-04-03 02:51:08,http://link.springer.com/static-content/covers/books/416/9783663130383.jpg,,
14913300,"Rural Local Government And Rural Development In China, India Pakistan [1977]",,,,G. Shabbir Cheema,1977,1st,South Asian Institute,Lahore,50,0,English,192,,0,,,,,,,,,,,,0,,,0,,1,,1,1171031,pdf,3bae33d52e1899131756af252e362257,,,"Rural.Local.Government.And.Rural.Development.In.China,India.Pakistan ~~ G.Shabbir.Cheema.(1977).cs",0,2000-01-01 01:00:00,2016-04-03 02:51:08,1016000/3bae33d52e1899131756af252e362257-g.jpg,,
14913299,Projektmanagement mit System: Organisation Methoden Steuerung,,,,"Georg Kraus, Reinhold Westermann",1997,,Gabler Verlag,,201,0,German,,,0,"978-3-409-28758-6,978-3-663-13111-3",,,,,,,10.1007/978-3-663-13111-3,,,,0,,1,0,1,,,1,7109170,pdf,65f07d892d817ee7748aaf0b2323c249,,,10.1007%2F978-3-663-13111-3.pdf,0,2000-01-01 01:00:00,2016-04-03 02:51:08,http://link.springer.com/static-content/covers/books/764/9783663131113.jpg,,
14913298,Projektmanagement mit System: Organisation Methoden Steuerung,,,,"Dr. Georg Kraus, Reinhold Westermann (auth.)",1997,,Gabler Verlag,,201,0,German,,,,"978-3-409-28758-6,978-3-663-13111-3",,,,,,,10.1007/978-3-663-13111-3,,,,0,,1,0,1,,,1,7109170,pdf,65f07d892d817ee7748aaf0b2323c249,,,10.1007%2F978-3-663-13111-3.pdf,0,2000-01-01 01:00:00,2016-04-03 02:51:08,http://link.springer.com/static-content/covers/books/764/9783663131113.jpg,,
14913297,Produktionspolitik,,Betriebswirtschaftliches Grundstudium,,Dietrich Adam,1976,,Gabler Verlag,,258,0,German,,,0,"978-3-409-33094-7,978-3-663-13117-5",,,,,,,10.1007/978-3-663-13117-5,,,,0,,1,0,1,,,1,14446829,pdf,3c169af8fc3a21c449b47b32f3f206bc,,,10.1007%2F978-3-663-13117-5.pdf,0,2000-01-01 01:00:00,2016-04-03 02:51:08,http://link.springer.com/static-content/covers/books/576/9783663131175.jpg,,
14913296,Produktionspolitik,,Betriebswirtschaftliches Grundstudium,,Prof. Dr. Dietrich Adam (auth.),1976,,Gabler Verlag,,258,0,German,,,,"978-3-409-33094-7,978-3-663-13117-5",,,,,,,10.1007/978-3-663-13117-5,,,,0,,1,0,1,,,1,14446829,pdf,3c169af8fc3a21c449b47b32f3f206bc,,,10.1007%2F978-3-663-13117-5.pdf,0,2000-01-01 01:00:00,2016-04-03 02:51:08,http://link.springer.com/static-content/covers/books/576/9783663131175.jpg,,
14913295,"Plankosten, Deckungsbeiträge und Budgets: Managementhilfen für die Betriebsanalyse",,,,Adolph Matz,1975,,Gabler Verlag,,293,0,German,,,0,"978-3-663-12570-9,978-3-663-13136-6",,,,,,,10.1007/978-3-663-13136-6,,,,0,,1,0,1,,,1,12520153,pdf,6acf24ed9fafb32a2d1c39dc3eeddb1b,,,10.1007%2F978-3-663-13136-6.pdf,0,2000-01-01 01:00:00,2016-04-03 02:51:08,http://link.springer.com/static-content/covers/books/684/9783663131366.jpg,,
14913294,"Plankosten, Deckungsbeiträge und Budgets: Managementhilfen für die Betriebsanalyse",,,,Prof. Dr. Adolph Matz Ph. D. (auth.),1975,,Gabler Verlag,,293,0,German,,,,"978-3-663-12570-9,978-3-663-13136-6",,,,,,,10.1007/978-3-663-13136-6,,,,0,,1,0,1,,,1,12520153,pdf,6acf24ed9fafb32a2d1c39dc3eeddb1b,,,10.1007%2F978-3-663-13136-6.pdf,0,2000-01-01 01:00:00,2016-04-03 02:51:08,http://link.springer.com/static-content/covers/books/684/9783663131366.jpg,,
14913293,Personalbeschaffung und -freisetzung,,Gabler Studientexte,,"Wolfgang Weber, Rolf Storr",1982,,Gabler Verlag,,66,0,German,,,0,"978-3-409-00845-7,978-3-663-13150-2",,,,,,,10.1007/978-3-663-13150-2,,,,0,,1,0,1,,,1,2404639,pdf,094f023bd3349f6437ff4930e4d05fa3,,,10.1007%2F978-3-663-13150-2.pdf,0,2000-01-01 01:00:00,2016-04-03 02:51:08,http://link.springer.com/static-content/covers/books/952/9783663131502.jpg,,
14913292,Personalbeschaffung und -freisetzung,,Gabler Studientexte,,"Prof. Dr. Wolfgang Weber, Dipl.-Kaufmann, Ing. grad. Rolf Storr (auth.)",1982,,Gabler Verlag,,66,0,German,,,,"978-3-409-00845-7,978-3-663-13150-2",,,,,,,10.1007/978-3-663-13150-2,,,,0,,1,0,1,,,1,2404639,pdf,094f023bd3349f6437ff4930e4d05fa3,,,10.1007%2F978-3-663-13150-2.pdf,0,2000-01-01 01:00:00,2016-04-03 02:51:08,http://link.springer.com/static-content/covers/books/952/9783663131502.jpg,,
14913291,Personalbedarfsermittlung und Stellenbewertung,,,,Wilfried Lühmann,1981,,Gabler Verlag,,38,0,German,,,0,"978-3-409-01743-5,978-3-663-13152-6",,,,,,,10.1007/978-3-663-13152-6,,,,0,,1,0,1,,,1,777841,pdf,f8d432526d8b350a3b0f89d12a9644ca,,,10.1007%2F978-3-663-13152-6.pdf,0,2000-01-01 01:00:00,2016-04-03 02:51:08,http://link.springer.com/static-content/covers/books/886/9783663131526.jpg,,
14913289,Organisation des Industriebetriebes,,,,Hermann Böhrs,1963,,Gabler Verlag,,199,0,German,,,0,"978-3-663-12575-4,978-3-663-13159-5",,,,,,,10.1007/978-3-663-13159-5,,,,0,,1,0,1,,,1,9741360,pdf,d1e4dd046a6981ba0151a0b0aa309f90,,,10.1007%2F978-3-663-13159-5.pdf,0,2000-01-01 01:00:00,2016-04-03 02:51:08,http://link.springer.com/static-content/covers/books/670/9783663131595.jpg,,
14913290,Personalbedarfsermittlung und Stellenbewertung,,,,Dipl.-Kfm. Wilfried Lühmann (auth.),1981,,Gabler Verlag,,38,0,German,,,,"978-3-409-01743-5,978-3-663-13152-6",,,,,,,10.1007/978-3-663-13152-6,,,,0,,1,0,1,,,1,777841,pdf,f8d432526d8b350a3b0f89d12a9644ca,,,10.1007%2F978-3-663-13152-6.pdf,0,2000-01-01 01:00:00,2016-04-03 02:51:08,http://link.springer.com/static-content/covers/books/886/9783663131526.jpg,,
14913288,Organisation des Industriebetriebes,,,,Dr. Hermann Böhrs (auth.),1963,,Gabler Verlag,,199,0,German,,,,"978-3-663-12575-4,978-3-663-13159-5",,,,,,,10.1007/978-3-663-13159-5,,,,0,,1,0,1,,,1,9741360,pdf,d1e4dd046a6981ba0151a0b0aa309f90,,,10.1007%2F978-3-663-13159-5.pdf,0,2000-01-01 01:00:00,2016-04-03 02:51:08,http://link.springer.com/static-content/covers/books/670/9783663131595.jpg,,
14913287,Nationaler und internationaler Zahlungsverkehr,,Die Wirtschaftswissenschaften 28,,Helmut Lipfert,1960,,Gabler Verlag,,191,0,German,,,0,"978-3-663-12582-2,978-3-663-13174-8",,,,,,,10.1007/978-3-663-13174-8,,,,0,,1,0,1,,,1,11212149,pdf,21962dc2720849ce69a266006007efc4,,,10.1007%2F978-3-663-13174-8.pdf,0,2000-01-01 01:00:00,2016-04-03 02:51:08,http://link.springer.com/static-content/covers/books/900/9783663131748.jpg,,
14913286,Nationaler und internationaler Zahlungsverkehr,,Die Wirtschaftswissenschaften 28,,Dr. Helmut Lipfert (auth.),1960,,Gabler Verlag,,191,0,German,,,,"978-3-663-12582-2,978-3-663-13174-8",,,,,,,10.1007/978-3-663-13174-8,,,,0,,1,0,1,,,1,11212149,pdf,21962dc2720849ce69a266006007efc4,,,10.1007%2F978-3-663-13174-8.pdf,0,2000-01-01 01:00:00,2016-04-03 02:51:08,http://link.springer.com/static-content/covers/books/900/9783663131748.jpg,,
14913285,Kurzlehrbuch Bilanzpolitik: Mit Aufgaben und Lösungen,,GABLER Kurzlehrbücher,,Wolfgang Hilke,1983,,Gabler Verlag,,206,0,German,,,0,"978-3-409-16602-7,978-3-663-13218-9",,,,,,,10.1007/978-3-663-13218-9,,,,0,,1,0,1,,,1,4001602,pdf,2d2b992b6464c648b2cb8b795baaaa83,,,10.1007%2F978-3-663-13218-9.pdf,0,2000-01-01 01:00:00,2016-04-03 02:51:08,http://link.springer.com/static-content/covers/books/750/9783663132189.jpg,,
14913284,Kurzlehrbuch Bilanzpolitik: Mit Aufgaben und Lösungen,,GABLER Kurzlehrbücher,,Prof. Dr. Wolfgang Hilke (auth.),1983,,Gabler Verlag,,206,0,German,,,,"978-3-409-16602-7,978-3-663-13218-9",,,,,,,10.1007/978-3-663-13218-9,,,,0,,1,0,1,,,1,4001602,pdf,2d2b992b6464c648b2cb8b795baaaa83,,,10.1007%2F978-3-663-13218-9.pdf,0,2000-01-01 01:00:00,2016-04-03 02:51:08,http://link.springer.com/static-content/covers/books/750/9783663132189.jpg,,
14913283,Kosten- und Leistungsrechnung im Industriebetrieb,,Gabler-Studientexte,,Günter Ebert,1988,,Gabler Verlag,,76,0,German,,,0,"978-3-409-21031-7,978-3-663-13235-6",,,,,,,10.1007/978-3-663-13235-6,,,,0,,1,0,1,,,1,3184548,pdf,7f52c4d308cac5fc352aff946c4f2582,,,10.1007%2F978-3-663-13235-6.pdf,0,2000-01-01 01:00:00,2016-04-03 02:51:08,http://link.springer.com/static-content/covers/books/924/9783663132356.jpg,,
14913282,Kosten- und Leistungsrechnung im Industriebetrieb,,Gabler-Studientexte,,Prof. Dr. Günter Ebert (auth.),1988,,Gabler Verlag,,76,0,German,,,,"978-3-409-21031-7,978-3-663-13235-6",,,,,,,10.1007/978-3-663-13235-6,,,,0,,1,0,1,,,1,3184548,pdf,7f52c4d308cac5fc352aff946c4f2582,,,10.1007%2F978-3-663-13235-6.pdf,0,2000-01-01 01:00:00,2016-04-03 02:51:08,http://link.springer.com/static-content/covers/books/924/9783663132356.jpg,,
14913281,Körperschaftsteuer,,,,Herbert Ossendorf,1981,,Gabler Verlag,,49,0,German,,,0,"978-3-409-01758-9,978-3-663-13248-6",,,,,,,10.1007/978-3-663-13248-6,,,,0,,1,0,1,,,1,1539779,pdf,897df4d35a4bd93624b246e41913c517,,,10.1007%2F978-3-663-13248-6.pdf,0,2000-01-01 01:00:00,2016-04-03 02:51:08,http://link.springer.com/static-content/covers/books/870/9783663132486.jpg,,
14913280,Körperschaftsteuer,,,,Stbev. Herbert Ossendorf (auth.),1981,,Gabler Verlag,,49,0,German,,,,"978-3-409-01758-9,978-3-663-13248-6",,,,,,,10.1007/978-3-663-13248-6,,,,0,,1,0,1,,,1,1539779,pdf,897df4d35a4bd93624b246e41913c517,,,10.1007%2F978-3-663-13248-6.pdf,0,2000-01-01 01:00:00,2016-04-03 02:51:08,http://link.springer.com/static-content/covers/books/870/9783663132486.jpg,,
14913279,Klausuren Bürgerliches Recht: Übungen im BGB,,,,Wolfgang Freiherr von Stetten,1985,,Gabler Verlag,,183,0,German,,,0,"978-3-409-27730-3,978-3-663-13256-1",,,,,,,10.1007/978-3-663-13256-1,,,,0,,1,0,1,,,1,8776602,pdf,86c450794248e7684f1683bac331b17e,,,10.1007%2F978-3-663-13256-1.pdf,0,2000-01-01 01:00:00,2016-04-03 02:51:08,http://link.springer.com/static-content/covers/books/976/9783663132561.jpg,,
14913278,Klausuren Bürgerliches Recht: Übungen im BGB,,,,Prof. Dr. Wolfgang Freiherr von Stetten (auth.),1985,,Gabler Verlag,,183,0,German,,,,"978-3-409-27730-3,978-3-663-13256-1",,,,,,,10.1007/978-3-663-13256-1,,,,0,,1,0,1,,,1,8776602,pdf,86c450794248e7684f1683bac331b17e,,,10.1007%2F978-3-663-13256-1.pdf,0,2000-01-01 01:00:00,2016-04-03 02:51:08,http://link.springer.com/static-content/covers/books/976/9783663132561.jpg,,
14913277,Handwörterbuch Arbeitsbeziehungen in der EG,,,,"A. Düro, Y. Supernok, M. Kröll, S. Schilling, Thomas Breisig, Heinz-Dieter Hardes, Thomas Metz, Dietmar Scherer, Theo Stengelhofen",1993,,Gabler Verlag,,628,0,German,,,0,"978-3-409-19965-0,978-3-663-13305-6",,,,,,,10.1007/978-3-663-13305-6,,,,0,,1,0,1,,,1,26800178,pdf,94bc4cb6ee9f3a6ce225cfa98f2e785c,,,10.1007%2F978-3-663-13305-6.pdf,0,2000-01-01 01:00:00,2016-04-03 02:51:08,http://link.springer.com/static-content/covers/books/16/9783663133056.jpg,,
14913276,Handwörterbuch Arbeitsbeziehungen in der EG,,,,"A. Düro, Y. Supernok, M. Kröll, S. Schilling (auth.), Dr. Thomas Breisig, Prof. Heinz-Dieter Hardes, Dipl.-Kfm. Thomas Metz, Dipl.-Volksw. Dietmar Scherer, Dipl.-Kfm. Theo Stengelhofen (eds.)",1993,,Gabler Verlag,,628,0,German,,,,"978-3-409-19965-0,978-3-663-13305-6",,,,,,,10.1007/978-3-663-13305-6,,,,0,,1,0,1,,,1,26800178,pdf,94bc4cb6ee9f3a6ce225cfa98f2e785c,,,10.1007%2F978-3-663-13305-6.pdf,0,2000-01-01 01:00:00,2016-04-03 02:51:08,http://link.springer.com/static-content/covers/books/16/9783663133056.jpg,,
14913275,Handelsrecht für das Versicherungswesen,,,,Karl Sieg,1992,,Gabler Verlag,,61,0,German,,,0,"978-3-409-92725-3,978-3-663-13310-0",,,,,,,10.1007/978-3-663-13310-0,,,,0,,1,0,1,,,1,1942533,pdf,08ecb7f2f13b009c0d16fb9c90dfba10,,,10.1007%2F978-3-663-13310-0.pdf,0,2000-01-01 01:00:00,2016-04-03 02:51:08,http://link.springer.com/static-content/covers/books/216/9783663133100.jpg,,
14913274,Handelsrecht für das Versicherungswesen,,,,Prof. Dr. Karl Sieg (auth.),1992,,Gabler Verlag,,61,0,German,,,,"978-3-409-92725-3,978-3-663-13310-0",,,,,,,10.1007/978-3-663-13310-0,,,,0,,1,0,1,,,1,1942533,pdf,08ecb7f2f13b009c0d16fb9c90dfba10,,,10.1007%2F978-3-663-13310-0.pdf,0,2000-01-01 01:00:00,2016-04-03 02:51:08,http://link.springer.com/static-content/covers/books/216/9783663133100.jpg,,
14913272,Die Finanzwirtschaft der Unternehmung,,,,Eberhard Witte,1976,,Gabler Verlag,,118,0,German,,,0,"978-3-409-37041-7,978-3-663-13541-8",,,,,,,10.1007/978-3-663-13541-8,,,,0,,1,0,1,,,1,3640920,pdf,f71fcf05120b54cbdd08a9fca3a850b2,,,10.1007%2F978-3-663-13541-8.pdf,0,2000-01-01 01:00:00,2016-04-03 02:51:08,1016000/f71fcf05120b54cbdd08a9fca3a850b2-d.jpg,,
14913273,Die Finanzwirtschaft der Unternehmung,,,,Eberhard Witte,1976,,Gabler Verlag,,118,0,German,,,0,"978-3-409-37041-7,978-3-663-13541-8",,,,,,,10.1007/978-3-663-13541-8,,,,0,,1,0,1,,,1,3640920,pdf,f71fcf05120b54cbdd08a9fca3a850b2,,,10.1007%2F978-3-663-13541-8.pdf,0,2000-01-01 01:00:00,2016-04-03 02:51:08,http://link.springer.com/static-content/covers/books/712/9783663135418.jpg,,
14913271,Grundlagen der Betriebswirtschaftslehre,,Gabler-Studientexte,,Wolfgang Korndörfer,1993,,Gabler Verlag,,46,0,German,,,0,"978-3-409-92111-4,978-3-663-13359-9",,,,,,,10.1007/978-3-663-13359-9,,,,0,,1,0,1,,,1,1257871,pdf,2ee7c94326a903d8ce2bbf964e7f9c24,,,10.1007%2F978-3-663-13359-9.pdf,0,2000-01-01 01:00:00,2016-04-03 02:51:08,http://link.springer.com/static-content/covers/books/84/9783663133599.jpg,,
14913270,Grundlagen der Betriebswirtschaftslehre,,Gabler-Studientexte,,Prof. Dr. Wolfgang Korndörfer (auth.),1993,,Gabler Verlag,,46,0,German,,,,"978-3-409-92111-4,978-3-663-13359-9",,,,,,,10.1007/978-3-663-13359-9,,,,0,,1,0,1,,,1,1257871,pdf,2ee7c94326a903d8ce2bbf964e7f9c24,,,10.1007%2F978-3-663-13359-9.pdf,0,2000-01-01 01:00:00,2016-04-03 02:51:08,http://link.springer.com/static-content/covers/books/84/9783663133599.jpg,,
14913269,Finanzwissenschaft,,,,Richard Herzog,1952,,Gabler Verlag,,106,0,German,,,0,"978-3-663-12623-2,978-3-663-13403-9",,,,,,,10.1007/978-3-663-13403-9,,,,0,,1,0,1,,,1,6198099,pdf,17301bbf2b30f69a6707fd576c566a72,,,10.1007%2F978-3-663-13403-9.pdf,0,2000-01-01 01:00:00,2016-04-03 02:51:08,http://link.springer.com/static-content/covers/books/284/9783663134039.jpg,,
14913268,Finanzwissenschaft,,,,Prof. Dr. Richard Herzog (auth.),1952,,Gabler Verlag,,106,0,German,,,,"978-3-663-12623-2,978-3-663-13403-9",,,,,,,10.1007/978-3-663-13403-9,,,,0,,1,0,1,,,1,6198099,pdf,17301bbf2b30f69a6707fd576c566a72,,,10.1007%2F978-3-663-13403-9.pdf,0,2000-01-01 01:00:00,2016-04-03 02:51:08,http://link.springer.com/static-content/covers/books/284/9783663134039.jpg,,
14913267,Fachrechnen: Lehr- und Übungsbuch für den Bundesgrenzschutz,,,,Georg Michel,1969,,Gabler Verlag,,415,0,German,,,0,"978-3-663-12633-1,978-3-663-13428-2",,,,,,,10.1007/978-3-663-13428-2,,,,0,,1,0,1,,,1,12375599,pdf,3f786377e9cb9234ffe2a97740bc3cc4,,,10.1007%2F978-3-663-13428-2.pdf,0,2000-01-01 01:00:00,2016-04-03 02:51:08,http://link.springer.com/static-content/covers/books/214/9783663134282.jpg,,
14913266,Fachrechnen: Lehr- und Übungsbuch für den Bundesgrenzschutz,,,,Dr. Georg Michel (auth.),1969,,Gabler Verlag,,415,0,German,,,,"978-3-663-12633-1,978-3-663-13428-2",,,,,,,10.1007/978-3-663-13428-2,,,,0,,1,0,1,,,1,12375599,pdf,3f786377e9cb9234ffe2a97740bc3cc4,,,10.1007%2F978-3-663-13428-2.pdf,0,2000-01-01 01:00:00,2016-04-03 02:51:08,http://link.springer.com/static-content/covers/books/214/9783663134282.jpg,,
14913265,Die Wertpapieranlage der Kreditbanken und ihre Bestimmungsfaktoren,,Schriftenreihe des Instituts für Kreditwesen der Westfälischen Wilhelms-Universität Münster 3,,Günter Willners,1966,,Gabler Verlag,,208,0,German,,,0,"978-3-663-12651-5,978-3-663-13501-2",,,,,,,10.1007/978-3-663-13501-2,,,,0,,1,0,1,,,1,13976542,pdf,3764f28d53e9712ee2e8e08a9db5d1b1,,,10.1007%2F978-3-663-13501-2.pdf,0,2000-01-01 01:00:00,2016-04-03 02:51:08,http://link.springer.com/static-content/covers/books/562/9783663135012.jpg,,
14913264,Die Wertpapieranlage der Kreditbanken und ihre Bestimmungsfaktoren,,Schriftenreihe des Instituts für Kreditwesen der Westfälischen Wilhelms-Universität Münster 3,,Dr. Günter Willners (auth.),1966,,Gabler Verlag,,208,0,German,,,,"978-3-663-12651-5,978-3-663-13501-2",,,,,,,10.1007/978-3-663-13501-2,,,,0,,1,0,1,,,1,13976542,pdf,3764f28d53e9712ee2e8e08a9db5d1b1,,,10.1007%2F978-3-663-13501-2.pdf,0,2000-01-01 01:00:00,2016-04-03 02:51:08,http://link.springer.com/static-content/covers/books/562/9783663135012.jpg,,
14913263,Die Praxis des Seefrachtgeschäfts: Eine Kiste reist von Deutschland nach Kalkutta,,,,Hans-Joachim Leue,1964,,Gabler Verlag,,86,0,German,,,0,"978-3-663-12658-4,978-3-663-13515-9",,,,,,,10.1007/978-3-663-13515-9,,,,0,,1,0,1,,,1,4206463,pdf,92f615bc7e141bb7c098b16475f97cce,,,10.1007%2F978-3-663-13515-9.pdf,0,2000-01-01 01:00:00,2016-04-03 02:51:08,http://link.springer.com/static-content/covers/books/470/9783663135159.jpg,,
14913262,Die Praxis des Seefrachtgeschäfts: Eine Kiste reist von Deutschland nach Kalkutta,,,,Hans-Joachim Leue (auth.),1964,,Gabler Verlag,,86,0,German,,,,"978-3-663-12658-4,978-3-663-13515-9",,,,,,,10.1007/978-3-663-13515-9,,,,0,,1,0,1,,,1,4206463,pdf,92f615bc7e141bb7c098b16475f97cce,,,10.1007%2F978-3-663-13515-9.pdf,0,2000-01-01 01:00:00,2016-04-03 02:51:08,http://link.springer.com/static-content/covers/books/470/9783663135159.jpg,,
14913261,Die Kommanditgesellschaft auf Aktien: Rechtliche Gestaltung und wirtschaftliche Bedeutung,,Fachbücher für Wirtschaft,,Manfred Elschenbroich,1959,,Gabler Verlag,,215,0,German,,,0,"978-3-663-12670-6,978-3-663-13535-7",,,,,,,10.1007/978-3-663-13535-7,,,,0,,1,0,1,,,1,10783183,pdf,f5076d5f3759931c87a7529fbd9f4a27,,,10.1007%2F978-3-663-13535-7.pdf,0,2000-01-01 01:00:00,2016-04-03 02:51:08,http://link.springer.com/static-content/covers/books/550/9783663135357.jpg,,
14913259,Die Finanzwirtschaft der Unternehmung,,,,Eberhard Witte,1976,,Gabler Verlag,,118,0,German,,,0,"978-3-409-37041-7,978-3-663-13541-8",,,,,,,10.1007/978-3-663-13541-8,,,,0,,1,0,1,,,1,3640920,pdf,f71fcf05120b54cbdd08a9fca3a850b2,,,10.1007%2F978-3-663-13541-8.pdf,0,2000-01-01 01:00:00,2016-04-03 02:51:08,http://link.springer.com/static-content/covers/books/712/9783663135418.jpg,,
14913260,Die Kommanditgesellschaft auf Aktien: Rechtliche Gestaltung und wirtschaftliche Bedeutung,,Fachbücher für Wirtschaft,,Dr. Manfred Elschenbroich (auth.),1959,,Gabler Verlag,,215,0,German,,,,"978-3-663-12670-6,978-3-663-13535-7",,,,,,,10.1007/978-3-663-13535-7,,,,0,,1,0,1,,,1,10783183,pdf,f5076d5f3759931c87a7529fbd9f4a27,,,10.1007%2F978-3-663-13535-7.pdf,0,2000-01-01 01:00:00,2016-04-03 02:51:08,http://link.springer.com/static-content/covers/books/550/9783663135357.jpg,,
14913258,Die Finanzwirtschaft der Unternehmung,,,,Prof. Dr. Eberhard Witte (auth.),1976,,Gabler Verlag,,118,0,German,,,,"978-3-409-37041-7,978-3-663-13541-8",,,,,,,10.1007/978-3-663-13541-8,,,,0,,1,0,1,,,1,3640920,pdf,f71fcf05120b54cbdd08a9fca3a850b2,,,10.1007%2F978-3-663-13541-8.pdf,0,2000-01-01 01:00:00,2016-04-03 02:51:08,http://link.springer.com/static-content/covers/books/712/9783663135418.jpg,,
14913257,"Deutsch-fremdsprachiges Fachwörterverzeichnis für das Geld-, Bank- und Börsenwesen",,,,,1969,,Gabler Verlag,,96,0,German,,,0,"978-3-663-12689-8,978-3-663-13573-9",,,,,,,10.1007/978-3-663-13573-9,,,,0,,1,0,1,,,1,2783598,pdf,f51b975b46f0ec2f88d9ea2072a9d537,,,10.1007%2F978-3-663-13573-9.pdf,0,2000-01-01 01:00:00,2016-04-03 02:51:08,http://link.springer.com/static-content/covers/books/766/9783663135739.jpg,,
14913255,Der Bankbetrieb: Lehrbuch und Aufgabensammlung,,,,Gerhard Diepen,1967,,Gabler Verlag,,598,0,German,,,0,"978-3-663-12708-6,978-3-663-13607-1",,,,,,,10.1007/978-3-663-13607-1,,,,0,,1,0,1,,,1,39692482,pdf,a03196a52cdb5c634975eb073b3550e9,,,10.1007%2F978-3-663-13607-1.pdf,0,2000-01-01 01:00:00,2016-04-03 02:51:08,http://link.springer.com/static-content/covers/books/586/9783663136071.jpg,,
14913256,"Deutsch-fremdsprachiges Fachwörterverzeichnis für das Geld-, Bank- und Börsenwesen",,,,(auth.),1969,,Gabler Verlag,,96,0,German,,,,"978-3-663-12689-8,978-3-663-13573-9",,,,,,,10.1007/978-3-663-13573-9,,,,0,,1,0,1,,,1,2783598,pdf,f51b975b46f0ec2f88d9ea2072a9d537,,,10.1007%2F978-3-663-13573-9.pdf,0,2000-01-01 01:00:00,2016-04-03 02:51:08,http://link.springer.com/static-content/covers/books/766/9783663135739.jpg,,
14913254,Der Bankbetrieb: Lehrbuch und Aufgabensammlung,,,,"Dipl.-Hdl. Gerhard Diepen (auth.), Dipl.-Hdl. Gerhard Diepen (eds.)",1967,,Gabler Verlag,,598,0,German,,,,"978-3-663-12708-6,978-3-663-13607-1",,,,,,,10.1007/978-3-663-13607-1,,,,0,,1,0,1,,,1,39692482,pdf,a03196a52cdb5c634975eb073b3550e9,,,10.1007%2F978-3-663-13607-1.pdf,0,2000-01-01 01:00:00,2016-04-03 02:51:08,http://link.springer.com/static-content/covers/books/586/9783663136071.jpg,,
14913253,Der Bankbetrieb: Lehrbuch und Aufgabensammlung,,,,Gerhard Diepen,1977,,Gabler Verlag,,671,0,German,,,0,"978-3-409-42151-5,978-3-663-13610-1",,,,,,,10.1007/978-3-663-13610-1,,,,0,,1,0,1,,,1,31677701,pdf,dbcbcb4a7ee9a8a9b7e136d9f1562873,,,10.1007%2F978-3-663-13610-1.pdf,0,2000-01-01 01:00:00,2016-04-03 02:51:08,1016000/dbcbcb4a7ee9a8a9b7e136d9f1562873-d.jpg,,
14913251,Der Bankbetrieb: Lehrbuch und Aufgabensammlung,,,,Gerhard Diepen,1977,,Gabler Verlag,,671,0,German,,,0,"978-3-409-42151-5,978-3-663-13610-1",,,,,,,10.1007/978-3-663-13610-1,,,,0,,1,0,1,,,1,31677701,pdf,dbcbcb4a7ee9a8a9b7e136d9f1562873,,,10.1007%2F978-3-663-13610-1.pdf,0,2000-01-01 01:00:00,2016-04-03 02:51:08,http://link.springer.com/static-content/covers/books/842/9783663136101.jpg,,
14913252,The battle of the St. Lawrence: the Second World War in Canada,,,,Nathan M. Greenfield,2004,1,HarperCollins Publishers,,0,0,English,67,,0,"0002006642, 9780002006644, 0006394507, 9780006394501, 9781443401494",,,,,940.5435943,D779.C2G73 2004,,Ja2YZoRh5EQC,,,0,,,,,0,,,3316208,epub,ba36f8cde7d9082f6e907bc6e30a06d9,,,The Battle of the St. Lawrence,0,2000-01-01 01:00:00,2016-04-03 02:51:08,http://www.harpercollins.com/harperimages/isbn/large/4/9781443401494.jpg,,
14913250,Der Bankbetrieb: Lehrbuch und Aufgabensammlung,,,,"Dipl.-Hdl. Gerhard Diepen (auth.), Dipl.-Hdl. Gerhard Diepen (eds.)",1977,,Gabler Verlag,,671,0,German,,,,"978-3-409-42151-5,978-3-663-13610-1",,,,,,,10.1007/978-3-663-13610-1,,,,0,,1,0,1,,,1,31677701,pdf,dbcbcb4a7ee9a8a9b7e136d9f1562873,,,10.1007%2F978-3-663-13610-1.pdf,0,2000-01-01 01:00:00,2016-04-03 02:51:08,http://link.springer.com/static-content/covers/books/842/9783663136101.jpg,,
14913249,Das deutsche Kaufmannsbuch: Gemeinverständliches Lehr- und Handbuch für Kaufmannswissen und Kaufmannspraxis,,,,Karl Bott,1953,,Gabler Verlag,,1162,0,German,,,0,"978-3-663-12719-2,978-3-663-13656-9",,,,,,,10.1007/978-3-663-13656-9,,,,0,,1,0,1,,,1,66671087,pdf,dbc52478e018362733d1808e618f9df5,,,10.1007%2F978-3-663-13656-9.pdf,0,2000-01-01 01:00:00,2016-04-03 02:51:08,http://link.springer.com/static-content/covers/books/804/9783663136569.jpg,,
14913248,Das deutsche Kaufmannsbuch: Gemeinverständliches Lehr- und Handbuch für Kaufmannswissen und Kaufmannspraxis,,,,"Karl Bott (auth.), Karl Bott (eds.)",1953,,Gabler Verlag,,1162,0,German,,,,"978-3-663-12719-2,978-3-663-13656-9",,,,,,,10.1007/978-3-663-13656-9,,,,0,,1,0,1,,,1,66671087,pdf,dbc52478e018362733d1808e618f9df5,,,10.1007%2F978-3-663-13656-9.pdf,0,2000-01-01 01:00:00,2016-04-03 02:51:08,http://link.springer.com/static-content/covers/books/804/9783663136569.jpg,,
14913246,Controlling heute: Eine Einführung in die Praxis mit Fallbeispielen,,,,Hellmut Bornemann (auth.),1986,,Gabler Verlag,,149,0,German,,,,"978-3-409-23039-1,978-3-663-13666-8",,,,,,,10.1007/978-3-663-13666-8,,,,0,,1,0,1,,,1,2989116,pdf,5dfe770677d39f7b8a330addb88f987e,,,10.1007%2F978-3-663-13666-8.pdf,0,2000-01-01 01:00:00,2016-04-03 02:51:08,http://link.springer.com/static-content/covers/books/844/9783663136668.jpg,,
14913247,Controlling heute: Eine Einführung in die Praxis mit Fallbeispielen,,,,Hellmut Bornemann,1986,,Gabler Verlag,,149,0,German,,,0,"978-3-409-23039-1,978-3-663-13666-8",,,,,,,10.1007/978-3-663-13666-8,,,,0,,1,0,1,,,1,2989116,pdf,5dfe770677d39f7b8a330addb88f987e,,,10.1007%2F978-3-663-13666-8.pdf,0,2000-01-01 01:00:00,2016-04-03 02:51:08,http://link.springer.com/static-content/covers/books/844/9783663136668.jpg,,
14913245,Computer + Programmieren = Elektronische Datenverarbeitung,,,,Klaus Wilhelm Blutke,1979,,Gabler Verlag,,285,0,German,,,0,"978-3-409-96051-9,978-3-663-13670-5",,,,,,,10.1007/978-3-663-13670-5,,,,0,,1,0,1,,,1,10511026,pdf,f881af27398692077e772000e25b68ae,,,10.1007%2F978-3-663-13670-5.pdf,0,2000-01-01 01:00:00,2016-04-03 02:51:08,http://link.springer.com/static-content/covers/books/72/9783663136705.jpg,,
14913244,Computer + Programmieren = Elektronische Datenverarbeitung,,,,Klaus Wilhelm Blutke (auth.),1979,,Gabler Verlag,,285,0,German,,,,"978-3-409-96051-9,978-3-663-13670-5",,,,,,,10.1007/978-3-663-13670-5,,,,0,,1,0,1,,,1,10511026,pdf,f881af27398692077e772000e25b68ae,,,10.1007%2F978-3-663-13670-5.pdf,0,2000-01-01 01:00:00,2016-04-03 02:51:08,http://link.springer.com/static-content/covers/books/72/9783663136705.jpg,,
14913242,Buchführung und Periodenrechnung im Versicherungsunternehmen,,Die Versicherung,,Professor Dr. Dieter Farny (auth.),1985,,Gabler Verlag,,201,0,German,,,,"978-3-409-82811-6,978-3-663-13685-9",,,,,,,10.1007/978-3-663-13685-9,,,,0,,1,0,1,,,1,6519016,pdf,25670e4698f7aa6b794db155ca0d7176,,,10.1007%2F978-3-663-13685-9.pdf,0,2000-01-01 01:00:00,2016-04-03 02:51:08,http://link.springer.com/static-content/covers/books/952/9783663136859.jpg,,
14913243,Buchführung und Periodenrechnung im Versicherungsunternehmen,,Die Versicherung,,Dieter Farny,1985,,Gabler Verlag,,201,0,German,,,0,"978-3-409-82811-6,978-3-663-13685-9",,,,,,,10.1007/978-3-663-13685-9,,,,0,,1,0,1,,,1,6519016,pdf,25670e4698f7aa6b794db155ca0d7176,,,10.1007%2F978-3-663-13685-9.pdf,0,2000-01-01 01:00:00,2016-04-03 02:51:08,http://link.springer.com/static-content/covers/books/952/9783663136859.jpg,,
14913241,Buchführung und Jahresabschluß,,,,"Gottfried Bähr, Wolf F. Fischer-Winkelmann",1990,,Gabler Verlag,,516,0,German,,,0,"978-3-409-31401-5,978-3-663-13688-0",,,,,,,10.1007/978-3-663-13688-0,,,,0,,1,0,1,,,1,13220819,pdf,ed848f598179c2223fada6a22747b4d9,,,10.1007%2F978-3-663-13688-0.pdf,0,2000-01-01 01:00:00,2016-04-03 02:51:08,http://link.springer.com/static-content/covers/books/868/9783663136880.jpg,,
14913240,Buchführung und Jahresabschluß,,,,"Dr. Gottfried Bähr, Dr. Wolf F. Fischer-Winkelmann (auth.)",1990,,Gabler Verlag,,516,0,German,,,,"978-3-409-31401-5,978-3-663-13688-0",,,,,,,10.1007/978-3-663-13688-0,,,,0,,1,0,1,,,1,13220819,pdf,ed848f598179c2223fada6a22747b4d9,,,10.1007%2F978-3-663-13688-0.pdf,0,2000-01-01 01:00:00,2016-04-03 02:51:08,http://link.springer.com/static-content/covers/books/868/9783663136880.jpg,,
14913239,Betriebswirtschaftliches Literatur-Lexikon: Bibliographie für die Jahre 1955 – 1958,,,,Eva Däbritz,1959,,Gabler Verlag,,280,0,German,,,0,"978-3-663-12747-5,978-3-663-13746-7",,,,,,,10.1007/978-3-663-13746-7,,,,0,,1,0,1,,,1,15520859,pdf,340e047ab408ae5fd3e1f4fafa3fb6f6,,,10.1007%2F978-3-663-13746-7.pdf,0,2000-01-01 01:00:00,2016-04-03 02:51:08,http://link.springer.com/static-content/covers/books/976/9783663137467.jpg,,
14913237,Betriebliches Personalwesen,,,,N. Arndt,1982,,Gabler Verlag,,62,0,German,,,0,"978-3-409-00133-5,978-3-663-13762-7",,,,,,,10.1007/978-3-663-13762-7,,,,0,,1,0,1,,,1,2037005,pdf,0dcf64ff898142c965759fa07159b921,,,10.1007%2F978-3-663-13762-7.pdf,0,2000-01-01 01:00:00,2016-04-03 02:51:08,http://link.springer.com/static-content/covers/books/178/9783663137627.jpg,,
14913238,Betriebswirtschaftliches Literatur-Lexikon: Bibliographie für die Jahre 1955 – 1958,,,,Eva Däbritz (auth.),1959,,Gabler Verlag,,280,0,German,,,,"978-3-663-12747-5,978-3-663-13746-7",,,,,,,10.1007/978-3-663-13746-7,,,,0,,1,0,1,,,1,15520859,pdf,340e047ab408ae5fd3e1f4fafa3fb6f6,,,10.1007%2F978-3-663-13746-7.pdf,0,2000-01-01 01:00:00,2016-04-03 02:51:08,http://link.springer.com/static-content/covers/books/976/9783663137467.jpg,,
14913236,Betriebliches Personalwesen,,,,Dr. N. Arndt (auth.),1982,,Gabler Verlag,,62,0,German,,,,"978-3-409-00133-5,978-3-663-13762-7",,,,,,,10.1007/978-3-663-13762-7,,,,0,,1,0,1,,,1,2037005,pdf,0dcf64ff898142c965759fa07159b921,,,10.1007%2F978-3-663-13762-7.pdf,0,2000-01-01 01:00:00,2016-04-03 02:51:08,http://link.springer.com/static-content/covers/books/178/9783663137627.jpg,,
14913235,Berufsrecht und Berufsordnung der steuerberatenden Berufe,,Fachbücher für die Wirtschaft,,Peter Goetze,1957,,Gabler Verlag,,77,0,German,,,0,"978-3-663-12756-7,978-3-663-13780-1",,,,,,,10.1007/978-3-663-13780-1,,,,0,,1,0,1,,,1,2349442,pdf,188ae50f2b1299ab3fa907fa4a7f41d5,,,10.1007%2F978-3-663-13780-1.pdf,0,2000-01-01 01:00:00,2016-04-03 02:51:08,http://link.springer.com/static-content/covers/books/324/9783663137801.jpg,,
14913234,Berufsrecht und Berufsordnung der steuerberatenden Berufe,,Fachbücher für die Wirtschaft,,Wirtschaftsprüfer Dr. Peter Goetze (auth.),1957,,Gabler Verlag,,77,0,German,,,,"978-3-663-12756-7,978-3-663-13780-1",,,,,,,10.1007/978-3-663-13780-1,,,,0,,1,0,1,,,1,2349442,pdf,188ae50f2b1299ab3fa907fa4a7f41d5,,,10.1007%2F978-3-663-13780-1.pdf,0,2000-01-01 01:00:00,2016-04-03 02:51:08,http://link.springer.com/static-content/covers/books/324/9783663137801.jpg,,
14913232,Begleitheft zum 1. Semester für das Fernseminar zum Fachkaufmann für Organisation,,,,Horst Lindelaub (auth.),1983,,Gabler Verlag,,15,0,German,,,,"978-3-663-12759-8,978-3-663-13786-3",,,,,,,10.1007/978-3-663-13786-3,,,,0,,1,0,1,,,1,512084,pdf,c75a8e6e37751ee2bafb51e7153077c2,,,10.1007%2F978-3-663-13786-3.pdf,0,2000-01-01 01:00:00,2016-04-03 02:51:08,http://link.springer.com/static-content/covers/books/136/9783663137863.jpg,,
14913233,Begleitheft zum 1. Semester für das Fernseminar zum Fachkaufmann für Organisation,,,,Horst Lindelaub,1983,,Gabler Verlag,,15,0,German,,,0,"978-3-663-12759-8,978-3-663-13786-3",,,,,,,10.1007/978-3-663-13786-3,,,,0,,1,0,1,,,1,512084,pdf,c75a8e6e37751ee2bafb51e7153077c2,,,10.1007%2F978-3-663-13786-3.pdf,0,2000-01-01 01:00:00,2016-04-03 02:51:08,http://link.springer.com/static-content/covers/books/136/9783663137863.jpg,,
14913231,Tinderbox: The Past and Future of Pakistan,,,,M.J. Akbar,2011,,HarperCollins Publishers India,,358,0,English,,,0,978-93-5029-039-2,,,,,,,,,,"Clearscan version, better than any other versions available.",0,,1,0,1,1,1,1,8381541,pdf,7958fcc3575292eb5ecbe08d2f15a399,,,Tinderbox~The.Past.and.Future.of.Pakistan ~~ M.J.Akbar.(2011),0,2000-01-01 01:00:00,2016-04-03 02:51:08,1009000/7958fcc3575292eb5ecbe08d2f15a399-g.jpg,,
14913230,Plagues and Peoples,,,,William H. McNeill,1976,1st,Anchor,,368,0,English,,,0,"0385121229,9780385121224",,,,,,,,,,,0,,,,,,,,696437,mobi,8cff97c8ae8a105e91318961ae30c5d6,,,Plagues and Peoples - William H. McNeill,0,2000-01-01 01:00:00,2016-04-03 02:51:08,1016000/8cff97c8ae8a105e91318961ae30c5d6-d.jpg,,
14913229,Tinderbox: The Past and Future of Pakistan  ,,,,M. J. Akbar,2011,,HarperCollins India,,343,0,English ,,,2011 12 30,"9350290391,9789350290392",,,,,,,,,OL24595320M,,0,,,,1,1,1,1,16473422,pdf,99A75AD317EC16B260A79AC26FCD825F,,,_500792.99a75ad317ec16b260a79ac26fcd825f.pdf,0,2000-01-01 01:00:00,2016-04-03 02:51:08,760000/99a75ad317ec16b260a79ac26fcd825f-d.jpg,,
14913228,Psychoanalysis and Daseinanalysis,,,,Medard Boss,0,,,,162,0,,,,0,,,,,,,,,,,,0,,,,,,,1,3056255,pdf,12a9bcafa5ad94ee199688a9bbafb57e,,,Psychoanalysis and Daseinanalysis - Medard Boss(Lido OCR),0,2000-01-01 01:00:00,2016-04-03 02:51:08,1016000/12a9bcafa5ad94ee199688a9bbafb57e-g.jpg,,
14913227,Tinderbox: The Past and Future of Pakistan,,,,M. J. Akbar,2011,,HarperCollins India,,343,0,English,,,2011 12 30,"9350290391,9789350290392",,,,,,,,,,,0,,,,0,1,0,0,203475390,pdf,ADCAF0A396E62CFADD6D4F3DE24A8C8D,,,_492477.adcaf0a396e62cfadd6d4f3de24a8c8d.pdf,0,2000-01-01 01:00:00,2016-04-03 02:51:08,760000/99a75ad317ec16b260a79ac26fcd825f-d.jpg,,
14913226,Elemente der dritten Hauptgruppe Teil II und der dritten Nebengruppe: Gallium · Indium · Thallium · Scandium yttrium · Elemente der Seltenen Erden (Lanthan-Cassiopeium) · Actinium und Mesothor 2 Actinium und Isotope,,Handbuch der analytischen Chemie 3aß/3b,,"Günther Rienäcker, Hans-Georg Jerschkewitz, A. Brukl, O. Erbacher, A. Faessler, W. Herr",1956,,Springer Berlin Heidelberg,,466,0,German,,,0,"978-3-662-27307-4,978-3-662-28794-1",,,,,,,10.1007/978-3-662-28794-1,,,,0,,1,0,1,,,1,25144236,pdf,0ef4c5c24f31dfd08635ed0b65cd4464,,,10.1007%2F978-3-662-28794-1.pdf,0,2000-01-01 01:00:00,2016-04-03 02:51:08,http://link.springer.com/static-content/covers/books/164/9783662287941.jpg,,
14913225,Elemente der dritten Hauptgruppe Teil II und der dritten Nebengruppe: Gallium · Indium · Thallium · Scandium yttrium · Elemente der Seltenen Erden (Lanthan-Cassiopeium) · Actinium und Mesothor 2 Actinium und Isotope,,Handbuch der analytischen Chemie 3aß/3b,,"Günther Rienäcker, Hans-Georg Jerschkewitz (auth.), A. Brukl, O. Erbacher, A. Faessler, W. Herr, H.-G. Jerschkewitƶ, K. Lang, G. Rienäcker (eds.)",1956,,Springer Berlin Heidelberg,,466,0,German,,,,"978-3-662-27307-4,978-3-662-28794-1",,,,,,,10.1007/978-3-662-28794-1,,,,0,,1,0,1,,,1,25144236,pdf,0ef4c5c24f31dfd08635ed0b65cd4464,,,10.1007%2F978-3-662-28794-1.pdf,0,2000-01-01 01:00:00,2016-04-03 02:51:08,http://link.springer.com/static-content/covers/books/164/9783662287941.jpg,,
14913224,Begleitheft zum 1. Semester für das Fernseminar zum Fachkaufmann für Organisation,,,,Horst Lindelaub (auth.),1983,,Gabler Verlag,,15,0,German,,,,"978-3-663-12759-8,978-3-663-13786-3",,,,,,,10.1007/978-3-663-13786-3,,,,0,,1,0,1,,,1,512084,pdf,c75a8e6e37751ee2bafb51e7153077c2,,,10.1007%2F978-3-663-13786-3.pdf,0,2000-01-01 01:00:00,2016-04-03 02:51:08,http://link.springer.com/static-content/covers/books/136/9783663137863.jpg,,
14913223,Berufsrecht und Berufsordnung der steuerberatenden Berufe,,Fachbücher für die Wirtschaft,,Wirtschaftsprüfer Dr. Peter Goetze (auth.),1957,,Gabler Verlag,,77,0,German,,,,"978-3-663-12756-7,978-3-663-13780-1",,,,,,,10.1007/978-3-663-13780-1,,,,0,,1,0,1,,,1,2349442,pdf,188ae50f2b1299ab3fa907fa4a7f41d5,,,10.1007%2F978-3-663-13780-1.pdf,0,2000-01-01 01:00:00,2016-04-03 02:51:08,http://link.springer.com/static-content/covers/books/324/9783663137801.jpg,,
14913222,Elemente der Achten Nebengruppe: Platinmetalle Platin · Palladium · Rhodium · Iridium Ruthenium · Osmium,,Handbuch der Analytischen Chemie 8bß,,G. Bauer,1951,,Springer Berlin Heidelberg,,270,0,German,,,0,"978-3-662-27309-8,978-3-662-28796-5",,,,,,,10.1007/978-3-662-28796-5,,,,0,,1,0,1,,,1,16350996,pdf,a927c7c535b1993f683b964703a984e9,,,10.1007%2F978-3-662-28796-5.pdf,0,2000-01-01 01:00:00,2016-04-03 02:51:08,http://link.springer.com/static-content/covers/books/98/9783662287965.jpg,,
14913221,Elemente der Achten Nebengruppe: Platinmetalle Platin · Palladium · Rhodium · Iridium Ruthenium · Osmium,,Handbuch der Analytischen Chemie 8bß,,"G. Bauer (auth.), G. Bauer (eds.)",1951,,Springer Berlin Heidelberg,,270,0,English,,,,"978-3-662-27309-8,978-3-662-28796-5",,,,,,,10.1007/978-3-662-28796-5,,,,0,,1,0,1,,,1,16350996,pdf,a927c7c535b1993f683b964703a984e9,,,10.1007%2F978-3-662-28796-5.pdf,0,2000-01-01 01:00:00,2016-04-03 02:51:08,http://link.springer.com/static-content/covers/books/98/9783662287965.jpg,,
14913220,Elektromaschinenbau: Berechnung elektrischer Maschinen in Theorie und Praxis,,,,Arthur Linker,1925,,Springer Berlin Heidelberg,,316,0,German,,,0,"978-3-662-27312-8,978-3-662-28799-6",,,,,,,10.1007/978-3-662-28799-6,,,,0,,1,0,1,,,1,16512146,pdf,876cef0dbf82a94165010a130d2f5b5e,,,10.1007%2F978-3-662-28799-6.pdf,0,2000-01-01 01:00:00,2016-04-03 02:51:08,http://link.springer.com/static-content/covers/books/4/9783662287996.jpg,,
14913219,Elektromaschinenbau: Berechnung elektrischer Maschinen in Theorie und Praxis,,,,Arthur Linker,1925,,Springer Berlin Heidelberg,,316,0,German,,,0,"978-3-662-27312-8,978-3-662-28799-6",,,,,,,10.1007/978-3-662-28799-6,,,,0,,1,0,1,,,1,16512146,pdf,876cef0dbf82a94165010a130d2f5b5e,,,10.1007%2F978-3-662-28799-6.pdf,0,2000-01-01 01:00:00,2016-04-03 02:51:08,http://link.springer.com/static-content/covers/books/4/9783662287996.jpg,,
14913217,Betriebliches Personalwesen,,,,Dr. N. Arndt (auth.),1982,,Gabler Verlag,,62,0,German,,,,"978-3-409-00133-5,978-3-663-13762-7",,,,,,,10.1007/978-3-663-13762-7,,,,0,,1,0,1,,,1,2037005,pdf,0dcf64ff898142c965759fa07159b921,,,10.1007%2F978-3-663-13762-7.pdf,0,2000-01-01 01:00:00,2016-04-03 02:51:08,http://link.springer.com/static-content/covers/books/178/9783663137627.jpg,,
14913218,Elektromaschinenbau: Berechnung elektrischer Maschinen in Theorie und Praxis,,,,Dr.-Ing. P. B. Arthur Linker (auth.),1925,,Springer Berlin Heidelberg,,316,0,German,,,,"978-3-662-27312-8,978-3-662-28799-6",,,,,,,10.1007/978-3-662-28799-6,,,,0,,1,0,1,,,1,16512146,pdf,876cef0dbf82a94165010a130d2f5b5e,,,10.1007%2F978-3-662-28799-6.pdf,0,2000-01-01 01:00:00,2016-04-03 02:51:08,http://link.springer.com/static-content/covers/books/4/9783662287996.jpg,,
14913216,Einführung in die Theorie der Schwachstromtechnik,,,,Julius Wallot,1940,,Springer Berlin Heidelberg,,456,0,German,,,0,"978-3-662-27320-3,978-3-662-28807-8",,,,,,,10.1007/978-3-662-28807-8,,,,0,,1,0,1,,,1,51603970,pdf,7858e9a4698e8c9003de2c9f3760c1f3,,,10.1007%2F978-3-662-28807-8.pdf,0,2000-01-01 01:00:00,2016-04-03 02:51:08,http://link.springer.com/static-content/covers/books/922/9783662288078.jpg,,
14913215,Einführung in die Theorie der Schwachstromtechnik,,,,Dr. phil. Julius Wallot (auth.),1940,,Springer Berlin Heidelberg,,456,0,German,,,,"978-3-662-27320-3,978-3-662-28807-8",,,,,,,10.1007/978-3-662-28807-8,,,,0,,1,0,1,,,1,51603970,pdf,7858e9a4698e8c9003de2c9f3760c1f3,,,10.1007%2F978-3-662-28807-8.pdf,0,2000-01-01 01:00:00,2016-04-03 02:51:08,http://link.springer.com/static-content/covers/books/922/9783662288078.jpg,,
14913214,Einführung in die Mechanik und Akustik,,,,R. W. Pohl,1930,,Springer Berlin Heidelberg,,260,0,German,,,0,"978-3-662-27334-0,978-3-662-28821-4",,,,,,,10.1007/978-3-662-28821-4,,,,0,,1,0,1,,,1,15858242,pdf,2499ddc42a7908b9a6bdf01e0ec7d9b5,,,10.1007%2F978-3-662-28821-4.pdf,0,2000-01-01 01:00:00,2016-04-03 02:51:08,http://link.springer.com/static-content/covers/books/190/9783662288214.jpg,,
14913213,Einführung in die Mechanik und Akustik,,,,Dr. Ing. e. h. R. W. Pohl (auth.),1930,,Springer Berlin Heidelberg,,260,0,German,,,,"978-3-662-27334-0,978-3-662-28821-4",,,,,,,10.1007/978-3-662-28821-4,,,,0,,1,0,1,,,1,15858242,pdf,2499ddc42a7908b9a6bdf01e0ec7d9b5,,,10.1007%2F978-3-662-28821-4.pdf,0,2000-01-01 01:00:00,2016-04-03 02:51:08,http://link.springer.com/static-content/covers/books/190/9783662288214.jpg,,
14913212,Die Oberflächenspannung in Serum und Liquor: Habilitationsschrift,,,,Ottomar Künzel,1942,,Springer Berlin Heidelberg,,95,0,German,,,0,"978-3-662-27458-3,978-3-662-28945-7",,,,,,,10.1007/978-3-662-28945-7,,,,0,,1,0,1,,,1,6432749,pdf,85cae2be8cb4f0010ee7692f82d7cfe7,,,10.1007%2F978-3-662-28945-7.pdf,0,2000-01-01 01:00:00,2016-04-03 02:51:08,http://link.springer.com/static-content/covers/books/350/9783662289457.jpg,,
14913210,Betriebswirtschaftliches Literatur-Lexikon: Bibliographie für die Jahre 1955 – 1958,,,,Eva Däbritz (auth.),1959,,Gabler Verlag,,280,0,German,,,,"978-3-663-12747-5,978-3-663-13746-7",,,,,,,10.1007/978-3-663-13746-7,,,,0,,1,0,1,,,1,15520859,pdf,340e047ab408ae5fd3e1f4fafa3fb6f6,,,10.1007%2F978-3-663-13746-7.pdf,0,2000-01-01 01:00:00,2016-04-03 02:51:08,http://link.springer.com/static-content/covers/books/976/9783663137467.jpg,,
14913211,Die Oberflächenspannung in Serum und Liquor: Habilitationsschrift,,,,Dr. med. Ottomar Künzel (auth.),1942,,Springer Berlin Heidelberg,,95,0,German,,,,"978-3-662-27458-3,978-3-662-28945-7",,,,,,,10.1007/978-3-662-28945-7,,,,0,,1,0,1,,,1,6432749,pdf,85cae2be8cb4f0010ee7692f82d7cfe7,,,10.1007%2F978-3-662-28945-7.pdf,0,2000-01-01 01:00:00,2016-04-03 02:51:08,http://link.springer.com/static-content/covers/books/350/9783662289457.jpg,,
14913209,Die Neueren Synthetischen Verfahren der Fettindustrie,,Chemische Technologie in Einzeldarstellungen,,I. Klimont,1915,,Springer Berlin Heidelberg,,163,0,German,,,0,"978-3-662-27462-0,978-3-662-28949-5",,,,,,,10.1007/978-3-662-28949-5,,,,0,,1,0,1,,,1,10207043,pdf,24220297bd6cd2b8342433eb1d509840,,,10.1007%2F978-3-662-28949-5.pdf,0,2000-01-01 01:00:00,2016-04-03 02:51:08,http://link.springer.com/static-content/covers/books/228/9783662289495.jpg,,
14913208,Die Neueren Synthetischen Verfahren der Fettindustrie,,Chemische Technologie in Einzeldarstellungen,,Dr. I. Klimont (auth.),1915,,Springer Berlin Heidelberg,,163,0,German,,,,"978-3-662-27462-0,978-3-662-28949-5",,,,,,,10.1007/978-3-662-28949-5,,,,0,,1,0,1,,,1,10207043,pdf,24220297bd6cd2b8342433eb1d509840,,,10.1007%2F978-3-662-28949-5.pdf,0,2000-01-01 01:00:00,2016-04-03 02:51:08,http://link.springer.com/static-content/covers/books/228/9783662289495.jpg,,
14913207,"Die Kolbendampfmaschinen: Ein Lehr- und Handbuch für Studierende, Techniker und Ingenieure",,,,A. Pohlhausen,1925,,Springer Berlin Heidelberg,,539,0,German,,,0,"978-3-662-27499-6,978-3-662-28986-0",,,,,,,10.1007/978-3-662-28986-0,,,,0,,1,0,1,,,1,31200600,pdf,b9be7d84e4a8be1e9a5e1b9333444648,,,10.1007%2F978-3-662-28986-0.pdf,0,2000-01-01 01:00:00,2016-04-03 02:51:08,http://link.springer.com/static-content/covers/books/482/9783662289860.jpg,,
14913206,"Die Kolbendampfmaschinen: Ein Lehr- und Handbuch für Studierende, Techniker und Ingenieure",,,,"Dipl.-Ingenieur A. Pohlhausen (auth.), Dipl.-Ingenieur A. Pohlhausen (eds.)",1925,,Springer Berlin Heidelberg,,539,0,German,,,,"978-3-662-27499-6,978-3-662-28986-0",,,,,,,10.1007/978-3-662-28986-0,,,,0,,1,0,1,,,1,31200600,pdf,b9be7d84e4a8be1e9a5e1b9333444648,,,10.1007%2F978-3-662-28986-0.pdf,0,2000-01-01 01:00:00,2016-04-03 02:51:08,http://link.springer.com/static-content/covers/books/482/9783662289860.jpg,,
14913205,Die innere Struktur der Masse-Leuchtkraftfunktion und die chemische Zusammensetzung der Sterne der Hauptreihe,,Mitteilung der Bad. Landessternwarte Heidelberg-Königstuhl 55,,W. Lohmann,1948,,Springer Berlin Heidelberg,,17,0,German,,,0,"978-3-662-27507-8,978-3-662-28994-5",,,,,,,10.1007/978-3-662-28994-5,,,,0,,1,0,1,,,1,863486,pdf,3b583d24d9b29ec184ae048ea744f977,,,10.1007%2F978-3-662-28994-5.pdf,0,2000-01-01 01:00:00,2016-04-03 02:51:08,http://link.springer.com/static-content/covers/books/578/9783662289945.jpg,,
14913204,Die innere Struktur der Masse-Leuchtkraftfunktion und die chemische Zusammensetzung der Sterne der Hauptreihe,,Mitteilung der Bad. Landessternwarte Heidelberg-Königstuhl 55,,W. Lohmann (auth.),1948,,Springer Berlin Heidelberg,,17,0,German,,,,"978-3-662-27507-8,978-3-662-28994-5",,,,,,,10.1007/978-3-662-28994-5,,,,0,,1,0,1,,,1,863486,pdf,3b583d24d9b29ec184ae048ea744f977,,,10.1007%2F978-3-662-28994-5.pdf,0,2000-01-01 01:00:00,2016-04-03 02:51:08,http://link.springer.com/static-content/covers/books/578/9783662289945.jpg,,
14913203,Raspberry Pi for secret agents,,,,Stefan Sjogelid,2013,,Packt Publishing,,152,0,English,,,0,"1849695784,9781849695787,1849695792,9781849695794",,,,,,,,bDQThQtYXKUC,,,0,,,,,0,1,1,3375054,pdf,59dc1a4c39ebc92c8add16f0e599e6d2,,,Raspberry Pi for secret agents,0,2000-01-01 01:00:00,2016-04-03 02:51:08,http://akamaicovers.oreilly.com/images/9781849695787/lrg.jpg,,
14913202,Die elektrolytischen Metallniederschläge: Lehrbuch der Galvanotechnik mit Berücksichtigung der Behandlung der Metalle vor und nach dem Elektroplattieren,,,,W. Pfanhauser Jr.,1922,,Springer Berlin Heidelberg,,850,0,German,,,0,"978-3-662-27563-4,978-3-662-29050-7",,,,,,,10.1007/978-3-662-29050-7,,,,0,,1,0,1,,,1,87178112,pdf,16def107320cdd9c4d2b2dc4dd4541da,,,10.1007%2F978-3-662-29050-7.pdf,0,2000-01-01 01:00:00,2016-04-03 02:51:08,http://link.springer.com/static-content/covers/books/142/9783662290507.jpg,,
14913201,Die elektrolytischen Metallniederschläge: Lehrbuch der Galvanotechnik mit Berücksichtigung der Behandlung der Metalle vor und nach dem Elektroplattieren,,,,Dr. W. Pfanhauser Jr. (auth.),1922,,Springer Berlin Heidelberg,,850,0,German,,,,"978-3-662-27563-4,978-3-662-29050-7",,,,,,,10.1007/978-3-662-29050-7,,,,0,,1,0,1,,,1,87178112,pdf,16def107320cdd9c4d2b2dc4dd4541da,,,10.1007%2F978-3-662-29050-7.pdf,0,2000-01-01 01:00:00,2016-04-03 02:51:08,http://link.springer.com/static-content/covers/books/142/9783662290507.jpg,,
14913200,Buchführung und Jahresabschluß,,,,"Dr. Gottfried Bähr, Dr. Wolf F. Fischer-Winkelmann (auth.)",1990,,Gabler Verlag,,516,0,German,,,,"978-3-409-31401-5,978-3-663-13688-0",,,,,,,10.1007/978-3-663-13688-0,,,,0,,1,0,1,,,1,13220819,pdf,ed848f598179c2223fada6a22747b4d9,,,10.1007%2F978-3-663-13688-0.pdf,0,2000-01-01 01:00:00,2016-04-03 02:51:08,http://link.springer.com/static-content/covers/books/868/9783663136880.jpg,,
14913199,Die Dämpfungen zweier kapazitiv gekoppelter Schwingungskreise bei vorherrschender Kopplung und Über das Ziehen des Zwischenkreisröhrensenders bei kapazitiver Kopplung,,,,Walter Grösser,1922,,Springer Berlin Heidelberg,,47,0,German,,,0,"978-3-662-27582-5,978-3-662-29069-9",,,,,,,10.1007/978-3-662-29069-9,,,,0,,1,0,1,,,1,3424674,pdf,6c2a588e7999229cfd219721d614effe,,,10.1007%2F978-3-662-29069-9.pdf,0,2000-01-01 01:00:00,2016-04-03 02:51:08,http://link.springer.com/static-content/covers/books/900/9783662290699.jpg,,
14913198,Die Dämpfungen zweier kapazitiv gekoppelter Schwingungskreise bei vorherrschender Kopplung und Über das Ziehen des Zwischenkreisröhrensenders bei kapazitiver Kopplung,,,,Walter Grösser (auth.),1922,,Springer Berlin Heidelberg,,47,0,German,,,,"978-3-662-27582-5,978-3-662-29069-9",,,,,,,10.1007/978-3-662-29069-9,,,,0,,1,0,1,,,1,3424674,pdf,6c2a588e7999229cfd219721d614effe,,,10.1007%2F978-3-662-29069-9.pdf,0,2000-01-01 01:00:00,2016-04-03 02:51:08,http://link.springer.com/static-content/covers/books/900/9783662290699.jpg,,
14913197,Die Behandlung der Schultereckverrenkung mit Kopfwärtsverlagerung des Schlüsselbeins (Luxatio Claviculae Supraacromialis),,Ergebnisse der Chirurgie und Orthopädie 33,,G. Usadel,1941,,Springer Berlin Heidelberg,,93,0,German,,,0,"978-3-662-27606-8,978-3-662-29093-4",,,,,,,10.1007/978-3-662-29093-4,,,,0,,1,0,1,,,1,5666680,pdf,b666339a6e9a58bb3c623127277ddb86,,,10.1007%2F978-3-662-29093-4.pdf,0,2000-01-01 01:00:00,2016-04-03 02:51:08,http://link.springer.com/static-content/covers/books/208/9783662290934.jpg,,
14913196,Die Behandlung der Schultereckverrenkung mit Kopfwärtsverlagerung des Schlüsselbeins (Luxatio Claviculae Supraacromialis),,Ergebnisse der Chirurgie und Orthopädie 33,,G. Usadel (auth.),1941,,Springer Berlin Heidelberg,,93,0,German,,,,"978-3-662-27606-8,978-3-662-29093-4",,,,,,,10.1007/978-3-662-29093-4,,,,0,,1,0,1,,,1,5666680,pdf,b666339a6e9a58bb3c623127277ddb86,,,10.1007%2F978-3-662-29093-4.pdf,0,2000-01-01 01:00:00,2016-04-03 02:51:08,http://link.springer.com/static-content/covers/books/208/9783662290934.jpg,,
14913195,Diagnostik und Therapie der Lungen- und Kehlkopf-Tuberkulose: Ein Praktischer Kursus,,,,H. Ulrici,1924,,Springer Berlin Heidelberg,,273,0,German,,,0,"978-3-662-27631-0,978-3-662-29118-4",,,,,,,10.1007/978-3-662-29118-4,,,,0,,1,0,1,,,1,21834172,pdf,c4018dda36ad779f1bb2bcc3f1457ff2,,,10.1007%2F978-3-662-29118-4.pdf,0,2000-01-01 01:00:00,2016-04-03 02:51:08,http://link.springer.com/static-content/covers/books/950/9783662291184.jpg,,
14913194,Diagnostik und Therapie der Lungen- und Kehlkopf-Tuberkulose: Ein Praktischer Kursus,,,,Dr. H. Ulrici (auth.),1924,,Springer Berlin Heidelberg,,273,0,German,,,,"978-3-662-27631-0,978-3-662-29118-4",,,,,,,10.1007/978-3-662-29118-4,,,,0,,1,0,1,,,1,21834172,pdf,c4018dda36ad779f1bb2bcc3f1457ff2,,,10.1007%2F978-3-662-29118-4.pdf,0,2000-01-01 01:00:00,2016-04-03 02:51:08,http://link.springer.com/static-content/covers/books/950/9783662291184.jpg,,
14913193,Pleasure in Ancient Greek Philosophy,,Key Themes in Ancient Philosophy,,David Wolfsdorf,2012,,Cambridge University Press,,322,0,English,,,0,"0521149754,9780521149754",,,,,,,,,,,0,,,,,,,1,1409924,pdf,ff96a5b54ca12dc64f9ecf9c4c2bf74a,,,0521761301,0,2000-01-01 01:00:00,2016-04-03 02:51:08,http://ecx.images-amazon.com/images/I/416VXh6N0qL.jpg,,
14913192,Diagnostik der Kinderkrankheiten: Mit Besonderer Berücksichtigung des Säuglings,,Enzyklopaedie der klinischen Medizin,,E. Feer,1931,,Springer Berlin Heidelberg,,389,0,German,,,0,"978-3-662-27632-7,978-3-662-29119-1",,,,,,,10.1007/978-3-662-29119-1,,,,0,,1,0,1,,,1,31841628,pdf,ec233076938fc742de8818daf94b33b6,,,10.1007%2F978-3-662-29119-1.pdf,0,2000-01-01 01:00:00,2016-04-03 02:51:08,http://link.springer.com/static-content/covers/books/922/9783662291191.jpg,,
14913191,Diagnostik der Kinderkrankheiten: Mit Besonderer Berücksichtigung des Säuglings,,Enzyklopaedie der klinischen Medizin,,Professor Dr. E. Feer (auth.),1931,,Springer Berlin Heidelberg,,389,0,German,,,,"978-3-662-27632-7,978-3-662-29119-1",,,,,,,10.1007/978-3-662-29119-1,,,,0,,1,0,1,,,1,31841628,pdf,ec233076938fc742de8818daf94b33b6,,,10.1007%2F978-3-662-29119-1.pdf,0,2000-01-01 01:00:00,2016-04-03 02:51:08,http://link.springer.com/static-content/covers/books/922/9783662291191.jpg,,
14913190,Der traumatische Lungenkollaps,,,,"L. Zukschwerdt, W. Pickel",1940,,Springer Berlin Heidelberg,,9,0,German,,,0,"978-3-662-27642-6,978-3-662-29132-0",,,,,,,10.1007/978-3-662-29132-0,,,,0,,1,0,1,,,1,800132,pdf,659078bced2bbe8e2f74d27fa9f43934,,,10.1007%2F978-3-662-29132-0.pdf,0,2000-01-01 01:00:00,2016-04-03 02:51:08,http://link.springer.com/static-content/covers/books/218/9783662291320.jpg,,
14913189,Der traumatische Lungenkollaps,,,,"Prof. Dr. L. Zukschwerdt, W. Pickel (auth.)",1940,,Springer Berlin Heidelberg,,9,0,English,,,,"978-3-662-27642-6,978-3-662-29132-0",,,,,,,10.1007/978-3-662-29132-0,,,,0,,1,0,1,,,1,800132,pdf,659078bced2bbe8e2f74d27fa9f43934,,,10.1007%2F978-3-662-29132-0.pdf,0,2000-01-01 01:00:00,2016-04-03 02:51:08,http://link.springer.com/static-content/covers/books/218/9783662291320.jpg,,
14913188,Der Seehafen von Bangkok: Thailand,,Jahrbuch der Hafenbautechnischen Gesellschaft 18,,A. Agatz,1941,,Springer Berlin Heidelberg,,75,0,German,,,0,"978-3-662-27651-8,978-3-662-29141-2",,,,,,,10.1007/978-3-662-29141-2,,,,0,,1,0,1,,,1,5420953,pdf,cf2ab0c603d97d39c86c6cc661dcb76c,,,10.1007%2F978-3-662-29141-2.pdf,0,2000-01-01 01:00:00,2016-04-03 02:51:08,http://link.springer.com/static-content/covers/books/286/9783662291412.jpg,,
14913187,Der Seehafen von Bangkok: Thailand,,Jahrbuch der Hafenbautechnischen Gesellschaft 18,,Dr. Ing. A. Agatz (auth.),1941,,Springer Berlin Heidelberg,,75,0,German,,,,"978-3-662-27651-8,978-3-662-29141-2",,,,,,,10.1007/978-3-662-29141-2,,,,0,,1,0,1,,,1,5420953,pdf,cf2ab0c603d97d39c86c6cc661dcb76c,,,10.1007%2F978-3-662-29141-2.pdf,0,2000-01-01 01:00:00,2016-04-03 02:51:08,http://link.springer.com/static-content/covers/books/286/9783662291412.jpg,,
14913186,"Der Einfluß des Herstellungsverfahrens, der Bearbeitungsvorgänge und der Betriebsverhältnisse auf die Eigenschaften der Werkstoffe für den Dampfkesselbau",,,,Kurt Meerbach,1922,,Springer Berlin Heidelberg,,205,0,German,,,0,"978-3-662-27685-3,978-3-662-29175-7",,,,,,,10.1007/978-3-662-29175-7,,,,0,,1,0,1,,,1,12524064,pdf,4113d61cd502add9837f3bbb5d12bdf2,,,10.1007%2F978-3-662-29175-7.pdf,0,2000-01-01 01:00:00,2016-04-03 02:51:08,http://link.springer.com/static-content/covers/books/274/9783662291757.jpg,,
14913185,"Der Einfluß des Herstellungsverfahrens, der Bearbeitungsvorgänge und der Betriebsverhältnisse auf die Eigenschaften der Werkstoffe für den Dampfkesselbau",,,,Dipl.-Ing. Kurt Meerbach (auth.),1922,,Springer Berlin Heidelberg,,205,0,German,,,,"978-3-662-27685-3,978-3-662-29175-7",,,,,,,10.1007/978-3-662-29175-7,,,,0,,1,0,1,,,1,12524064,pdf,4113d61cd502add9837f3bbb5d12bdf2,,,10.1007%2F978-3-662-29175-7.pdf,0,2000-01-01 01:00:00,2016-04-03 02:51:08,http://link.springer.com/static-content/covers/books/274/9783662291757.jpg,,
14913184,Das Leben des Staatsrath Kunth,,,,"Friedrich, Paul Goldschmidt",1881,,Springer Berlin Heidelberg,,352,0,German,,,0,"978-3-662-27724-9,978-3-662-29214-3",,,,,,,10.1007/978-3-662-29214-3,,,,0,,1,0,1,,,1,18916611,pdf,cc058a312e8972be9c19674f44a15a16,,,10.1007%2F978-3-662-29214-3.pdf,0,2000-01-01 01:00:00,2016-04-03 02:51:08,http://link.springer.com/static-content/covers/books/284/9783662292143.jpg,,
14913182,Buchführung und Periodenrechnung im Versicherungsunternehmen,,Die Versicherung,,Professor Dr. Dieter Farny (auth.),1985,,Gabler Verlag,,201,0,German,,,,"978-3-409-82811-6,978-3-663-13685-9",,,,,,,10.1007/978-3-663-13685-9,,,,0,,1,0,1,,,1,6519016,pdf,25670e4698f7aa6b794db155ca0d7176,,,10.1007%2F978-3-663-13685-9.pdf,0,2000-01-01 01:00:00,2016-04-03 02:51:08,http://link.springer.com/static-content/covers/books/952/9783663136859.jpg,,
14913183,Das Leben des Staatsrath Kunth,,,,"Friedrich, Paul Goldschmidt (auth.)",1881,,Springer Berlin Heidelberg,,352,0,German,,,,"978-3-662-27724-9,978-3-662-29214-3",,,,,,,10.1007/978-3-662-29214-3,,,,0,,1,0,1,,,1,18916611,pdf,cc058a312e8972be9c19674f44a15a16,,,10.1007%2F978-3-662-29214-3.pdf,0,2000-01-01 01:00:00,2016-04-03 02:51:08,http://link.springer.com/static-content/covers/books/284/9783662292143.jpg,,
14913181,"Das 3-Monomethylxanthin, ein Mittel zur Bekämpfung der Mäuse und Ratten: Inaugural-Dissertation",,,,Carl Heemsoth,1925,,Springer Berlin Heidelberg,,20,0,German,,,0,"978-3-662-27742-3,978-3-662-29232-7",,,,,,,10.1007/978-3-662-29232-7,,,,0,,1,0,1,,,1,1048796,pdf,6fdf9a900d1d5723dff7d583a5e7d178,,,10.1007%2F978-3-662-29232-7.pdf,0,2000-01-01 01:00:00,2016-04-03 02:51:08,http://link.springer.com/static-content/covers/books/420/9783662292327.jpg,,
14913180,"Das 3-Monomethylxanthin, ein Mittel zur Bekämpfung der Mäuse und Ratten: Inaugural-Dissertation",,,,Carl Heemsoth (auth.),1925,,Springer Berlin Heidelberg,,20,0,German,,,,"978-3-662-27742-3,978-3-662-29232-7",,,,,,,10.1007/978-3-662-29232-7,,,,0,,1,0,1,,,1,1048796,pdf,6fdf9a900d1d5723dff7d583a5e7d178,,,10.1007%2F978-3-662-29232-7.pdf,0,2000-01-01 01:00:00,2016-04-03 02:51:08,http://link.springer.com/static-content/covers/books/420/9783662292327.jpg,,
14913179,"Betriebsrätegesetz: vom 4. Februar 1920. nebst Wahlordnung, Ausführungsverordnungen und Ergänzungsgetetzen (Betriebsbilanzgesetz, Aufsichtsratsgesetz und Wahlordng)",,,,Georg Flatow,1927,,Springer Berlin Heidelberg,,564,0,German,,,0,"978-3-662-27795-9,978-3-662-29295-2",,,,,,,10.1007/978-3-662-29295-2,,,,0,,1,0,1,,,1,39865262,pdf,566e552aa89c443026b2b4f372e79c5d,,,10.1007%2F978-3-662-29295-2.pdf,0,2000-01-01 01:00:00,2016-04-03 02:51:08,http://link.springer.com/static-content/covers/books/566/9783662292952.jpg,,
14913178,"Betriebsrätegesetz: vom 4. Februar 1920. nebst Wahlordnung, Ausführungsverordnungen und Ergänzungsgetetzen (Betriebsbilanzgesetz, Aufsichtsratsgesetz und Wahlordng)",,,,Dr. Georg Flatow (auth.),1927,,Springer Berlin Heidelberg,,564,0,German,,,,"978-3-662-27795-9,978-3-662-29295-2",,,,,,,10.1007/978-3-662-29295-2,,,,0,,1,0,1,,,1,39865262,pdf,566e552aa89c443026b2b4f372e79c5d,,,10.1007%2F978-3-662-29295-2.pdf,0,2000-01-01 01:00:00,2016-04-03 02:51:08,http://link.springer.com/static-content/covers/books/566/9783662292952.jpg,,
