15309039,My Story,,,,"Elizabeth Smart, Chris Stewart",2013,First Edition,St. Martin's Press,,320,0,English,,,0,"1250040159,9781250040152",,,,,,,,,,,0,,,,,,,,3479292,epub,a6ab3303b79e553c3b3c3abc45c5c3ce,,,a6ab3303b79e553c3b3c3abc45c5c3ce.epub,0,2000-01-01 01:00:00,2016-04-03 02:51:08,1047000/a6ab3303b79e553c3b3c3abc45c5c3ce-d.jpg,,
15309040,"The Digital Divide: Arguments for and Against Facebook, Google, Texting, and the Age of Social Networking",,,,Mark Bauerlein,2011,Original,Tarcher,,368,0,English,,,0,"1585428868,9781585428861",,,,,,,,,,,0,,,,,,,,525378,epub,bd7cd2b69e314afb78122a94fcb66e75,,,bd7cd2b69e314afb78122a94fcb66e75.epub,0,2000-01-01 01:00:00,2016-04-03 02:51:08,1047000/bd7cd2b69e314afb78122a94fcb66e75-d.jpg,,
15309041,Augustine: A Very Short Introduction,,,,Henry Chadwick,2001,,Oxford University Press,,144,0,English,,,0,"0192854526,9780192854520",,,,,,,,,,,0,,,,,,,0,3256023,pdf,9b16e97930665885b9d7cfbcb2a91f56,,,9b16e97930665885b9d7cfbcb2a91f56.pdf,0,2000-01-01 01:00:00,2016-04-03 02:51:08,1047000/9b16e97930665885b9d7cfbcb2a91f56-d.jpg,,
15309042,Tapestry 5: Building Web Applications: A step-by-step guide to Java Web development with the developer-friendly Apache Tapestry framework,,,,Alexander Kolesnikov,2008,,Packt Publishing,,280,0,English,,,0,"1847193072,9781847193070",,,,,,,,,,,0,,,,,,,0,6793503,pdf,b97b7bdc33123ccc81a689f7a0b079dd,,,b97b7bdc33123ccc81a689f7a0b079dd.pdf,0,2000-01-01 01:00:00,2016-04-03 02:51:08,1047000/b97b7bdc33123ccc81a689f7a0b079dd-d.jpg,,
15309043,Environmental Policy in the European Union,,European Union (Paperback Adult),,John McCormick,2001,,Palgrave Macmillan,,347,0,English,,,0,"0333772040,9780333772041",,,,,,,,,,,0,,,,,,,0,3283725,pdf,7a19c5659459a7ebfc326a434b52af4e,,,7a19c5659459a7ebfc326a434b52af4e.pdf,0,2000-01-01 01:00:00,2016-04-03 02:51:08,1047000/7a19c5659459a7ebfc326a434b52af4e-d.jpg,,
15309044,Takemusu Aikido Volume I: Background and basics,,,,Morihiro Saito,2000,,Aiki News,,266,0,English,,,0,"4900586161,9784900586161",,,,,,,,,,,0,,,,,,,0,148487659,pdf,8f2bb56204b08c3e165928f83edb8b9f,,,8f2bb56204b08c3e165928f83edb8b9f.pdf,0,2000-01-01 01:00:00,2016-04-03 02:51:08,1047000/8f2bb56204b08c3e165928f83edb8b9f-d.jpg,,
15309045,"Grain Brain: The Surprising Truth about Wheat, Carbs,  and Sugar--Your Brain's Silent Killers",,,,"David Perlmutter, Kristin Loberg",2013,1,"Little, Brown and Company",,336,0,English,,,0,"031623480X,9780316234801",,,,,,,,,,,0,,,,,,,,1289150,epub,3ebcb40a1a478915cb302e394365d27f,,,3ebcb40a1a478915cb302e394365d27f.epub,0,2000-01-01 01:00:00,2016-04-03 02:51:08,1047000/3ebcb40a1a478915cb302e394365d27f-d.jpg,,
15309046,And We Shall Shock Them: British Army in the Second World War,,,,Sir David Fraser,1988,,Sceptre,,448,0,English,,,0,"0340426373,9780340426371",,,,,,,,,,,0,,,,,,,0,177681794,pdf,a1f1ea6e2c2e5892f90b3eede09a331f,,,a1f1ea6e2c2e5892f90b3eede09a331f.pdf,0,2000-01-01 01:00:00,2016-04-03 02:51:08,1047000/a1f1ea6e2c2e5892f90b3eede09a331f-d.jpg,,
15309047,Inside Linux,,,,Michael Tobler,2000,,New Riders Pub,,0,0,English,,,0,"0735709165,9780735709164",,,,,,,,,,,0,,,,,,,0,5902016,pdf,6b2d3e4468c1646c41f6742103447a89,,,6b2d3e4468c1646c41f6742103447a89.pdf,0,2000-01-01 01:00:00,2016-04-03 02:51:08,1047000/6b2d3e4468c1646c41f6742103447a89-g.jpg,,
15309048,Public Records and Archives in Classical Athens,,Studies in the History of Greece and Rome,,James P. Sickinger,1999,,The University of North Carolina Press,,288,0,English,,,0,"0807824690,9780807824696",,,,,,,,,,,0,,,,,,,0,11096368,pdf,64e31311183cafdc77433b638476cbcb,,,64e31311183cafdc77433b638476cbcb.pdf,0,2000-01-01 01:00:00,2016-04-03 02:51:08,1047000/64e31311183cafdc77433b638476cbcb-d.jpg,,
15309049,The King's Gambit,,Grandmaster Guide,,John Shaw,2013,First,Quality Chess,,680,0,English,,,0,"1906552711,9781906552718",,,,,,,,,,,0,,,,,,,0,16154665,pdf,f8da4f44e15a2136252798db4ab1a1fe,,,f8da4f44e15a2136252798db4ab1a1fe.pdf,0,2000-01-01 01:00:00,2016-04-03 02:51:08,1047000/f8da4f44e15a2136252798db4ab1a1fe-d.jpg,,
15309050,Stripping Down Science: The naked scientist bares the facts,,,,Chris Smith,2010,,William Heinemann,,0,0,English,,,0,"1741666457,9781741666458",,,,,,,,,,,0,,,,,,,,2183348,epub,00198f4774f361ba0c350f143b964739,,,00198f4774f361ba0c350f143b964739.epub,0,2000-01-01 01:00:00,2016-04-03 02:51:08,,,
15309051,"Law, Religious Freedoms and Education in Europe",,Cultural Diversity and Law,,Myriam Hunter-Henin,2012,,Ashgate,,362,0,English,,,0,"1409427307,9781409427308",,,,,,,,,,,0,,,,,,,,18050279,epub,b47b4f6f9c10bafc086f6c1dd4c0f9b6,,,b47b4f6f9c10bafc086f6c1dd4c0f9b6.epub,0,2000-01-01 01:00:00,2016-04-03 02:51:08,1047000/b47b4f6f9c10bafc086f6c1dd4c0f9b6-d.jpg,,
15309052,Introducing Windows 8.1 For IT Professionals,,,,Ed Bott,2013,,Microsoft Press,,140,0,English,,,0,"0735684278,9780735684270",,,,,,,,,,,0,,,,,,,,22480425,epub,6db47804c7465279d3a499a599be4c96,,,6db47804c7465279d3a499a599be4c96.epub,0,2000-01-01 01:00:00,2016-04-03 02:51:08,1047000/6db47804c7465279d3a499a599be4c96-d.jpg,,
15309053,Advanced Adobe Photoshop CS6 Revealed,,,,Chris Botello,2012,1,Cengage Learning,,576,0,English,,,0,"1133693245,9781133693246",,,,,,,,,,,0,,,,,,,0,160355607,pdf,d8469d5e279f04d81011d57bcdac39f8,,,d8469d5e279f04d81011d57bcdac39f8.pdf,0,2000-01-01 01:00:00,2016-04-03 02:51:08,1047000/d8469d5e279f04d81011d57bcdac39f8-d.jpg,,
15309054,On Awareness: A Collection of Philosophical Dialogues,,,,Nicholas J. Pappas,2011,,Algora Publishing,,202,0,English,,,0,"087586841X,9780875868417",,,,,,,,,,,0,,,,,,,0,3277645,pdf,3c0807eeca0c974418a165fe3b6e6319,,,3c0807eeca0c974418a165fe3b6e6319.pdf,0,2000-01-01 01:00:00,2016-04-03 02:51:08,1047000/3c0807eeca0c974418a165fe3b6e6319-d.jpg,,
15309055,Marxism Unmasked: From Delusion to Destruction,,"Mises Seminar Lectures, Vol. 2",,"Ludwig von Mises, Bettina Bien Greaves, Richard M. Ebeling",2006,1st,Foundation for Economic Education,,110,0,English,,,0,"1572462108,9781572462106",,,,,,,,,,,0,,,,,,,0,3160842,pdf,69c7891e7959c396f75cdc96214424d1,,,69c7891e7959c396f75cdc96214424d1.pdf,0,2000-01-01 01:00:00,2016-04-03 02:51:08,1047000/69c7891e7959c396f75cdc96214424d1-d.jpg,,
15309056,VCAP5-DCD Official Cert Guide,,with DVD): VMware Certified Advanced Professional 5 - Data Center Design (VMware Press Certification,,Paul McSharry,2013,1,VMware Press,,208,0,English,,,0,"078975018X,9780789750181",,,,,,,,,,,0,,,,,,,0,2168013,pdf,6c0d5eafc818a3b1b1d76b4b8455285e,,,6c0d5eafc818a3b1b1d76b4b8455285e.pdf,0,2000-01-01 01:00:00,2016-04-03 02:51:08,1047000/6c0d5eafc818a3b1b1d76b4b8455285e-d.jpg,,
15309057,"Cracking the SAT Physics Subject Test, 2013-2014 Edition",,College Test Preparation,,Princeton Review,2013,,Princeton Review,,528,0,English,,,0,"0307945553,9780307945556",,,,,,,,,,,0,,,,,,,,5370505,epub,1419f5c258917a8c8c541347fcfc2d46,,,1419f5c258917a8c8c541347fcfc2d46.epub,0,2000-01-01 01:00:00,2016-04-03 02:51:08,1047000/1419f5c258917a8c8c541347fcfc2d46-d.jpg,,
15309058,The 100: Count ONLY Sugar Calories and Lose Up to 18 Lbs. in 2 Weeks,,,,Jorge Cruise,2013,1,William Morrow,,288,0,English,,,0,"0062227076,9780062227072",,,,,,,,,,,0,,,,,,,,785797,mobi,583b60579b26161fc5daf1531f40e052,,,583b60579b26161fc5daf1531f40e052.mobi,0,2000-01-01 01:00:00,2016-04-03 02:51:08,1047000/583b60579b26161fc5daf1531f40e052-d.jpg,,
15309059,Selected Works of A. N. Kolmogorov: Volume I: Mathematics and Mechanics,,Mathematics and its Applications,,Vladimir M. Tikhomirov,1991,1991,Springer,,551,0,English,,,0,"9027727961,9789027727961",,,,,,,,,,,0,,,,,,,0,81886914,pdf,66d8d73e6979f697f748dafa0eae37d0,,,66d8d73e6979f697f748dafa0eae37d0.pdf,0,2000-01-01 01:00:00,2016-04-03 02:51:08,1047000/66d8d73e6979f697f748dafa0eae37d0-d.jpg,,
15309060,How to Make Money Marketing Your Business on LinkedIn,,FT Press Delivers Marketing Shorts,,Jamie Turner,2010,1,FT Press,,16,0,English,,,0,",",,B004CCQYFC,,,,,,,,,0,,,,,,,,3444785,epub,ad81b862f8f6e32e70aaa8221f2d96e4,,,ad81b862f8f6e32e70aaa8221f2d96e4.epub,0,2000-01-01 01:00:00,2016-04-03 02:51:08,1047000/ad81b862f8f6e32e70aaa8221f2d96e4-d.jpg,,
15309061,The Art of Perspective: The Ultimate Guide for Artists in Every Medium,,,,Phil Metzger,2007,,North Light Bks,,206,0,English,,,0,"1581808550,9781581808551",,,,,,,,,,,0,,,,,,,0,108916341,pdf,3d1e75ebdfb2fa98b4268a99c3748e23,,,3d1e75ebdfb2fa98b4268a99c3748e23.pdf,0,2000-01-01 01:00:00,2016-04-03 02:51:08,1047000/3d1e75ebdfb2fa98b4268a99c3748e23-d.jpg,,
15309062,"Evidence-Based Practice of Critical Care: Expert Consult: Online and Print, 1e",,,,"Clifford S. Deutschman MD, Patrick J. Neligan MD",2010,Pap/Psc,Saunders,,704,0,English,,,0,"1416054766,9781416054764",,,,,,,,,,,0,,,,,,,0,9566705,pdf,1be7b51c956d6d5e9f96b0b23550675d,,,1be7b51c956d6d5e9f96b0b23550675d.pdf,0,2000-01-01 01:00:00,2016-04-03 02:51:08,1047000/1be7b51c956d6d5e9f96b0b23550675d-d.jpg,,
15309063,Code Generation with Templates,,Atlantis Studies in Computing,,"Jeroen Arnoldus, Mark van den Brand, A. Serebrenik, J.J. Brunekreef",2012,2012,Atlantis Press,,214,0,English,,,0,"9491216554,9789491216558",,,,,,,,,,,0,,,,,,,0,4664001,pdf,ec8b6cfac2353eba6434e7b4f03cfb48,,,ec8b6cfac2353eba6434e7b4f03cfb48.pdf,0,2000-01-01 01:00:00,2016-04-03 02:51:08,1047000/ec8b6cfac2353eba6434e7b4f03cfb48-d.jpg,,
15309064,Gonorrhea,,Deadly Diseases and Epidemics,,"Linda Kollar, Brian R. Shmaefsky",2005,,Chelsea House Pub (T),,114,0,English,,,0,"0791083772,9780791083772",,,,,,,,,,,0,,,,,,,0,3877562,pdf,cf3adcbafe49caa36bbc0349c8d95735,,,cf3adcbafe49caa36bbc0349c8d95735.pdf,0,2000-01-01 01:00:00,2016-04-03 02:51:08,1047000/cf3adcbafe49caa36bbc0349c8d95735-d.jpg,,
15309065,How to Fail at Almost Everything and Still Win Big: Kind of the Story of My Life,,,,,0,,Penguin Books Ltd,,0,0,English,,,0,"0241003709,9780241003701",,,,,,,,,,,0,,,,,,,,1148496,mobi,b110c16751b90083a401fb0d851340ec,,,b110c16751b90083a401fb0d851340ec.mobi,0,2000-01-01 01:00:00,2016-04-03 02:51:08,1047000/b110c16751b90083a401fb0d851340ec-d.jpg,,
15309066,Answer Set Programming for Continuous Domains: A Fuzzy Logic Approach,,Atlantis Computational Intelligence Systems,,"Jeroen Janssen, Steven Schockaert, Dirk Vermeir, Martine De Cock",2012,2012,Atlantis Press,,180,0,English,,,0,"9491216589,9789491216589",,,,,,,,,,,0,,,,,,,0,5345163,pdf,9d78930f7adb7d61a0ff73d6105a5229,,,9d78930f7adb7d61a0ff73d6105a5229.pdf,0,2000-01-01 01:00:00,2016-04-03 02:51:08,1047000/9d78930f7adb7d61a0ff73d6105a5229-d.jpg,,
15309067,Reflections On How We Live,,,,Annette Baier,2009,,"Oxford University Press, USA",,288,0,English,,,0,"0199570361,9780199570362",,,,,,,,,,,0,,,,,,,0,3278226,pdf,c9407d038eec472a059fe36ecbff9310,,,c9407d038eec472a059fe36ecbff9310.pdf,0,2000-01-01 01:00:00,2016-04-03 02:51:08,1047000/c9407d038eec472a059fe36ecbff9310-d.jpg,,
15309068,U.S. Camera '62,,,,Tom MALONEY,1961,First Edition,"U.S. Camera/Duell, Sloane & Pearce",,215,0,English,,,0,"1125145919,9781125145913",,,,,,,,,,,0,,,,,,,0,148920002,pdf,74b135d2719662b1c67ad34b52ec40d0,,,74b135d2719662b1c67ad34b52ec40d0.pdf,0,2000-01-01 01:00:00,2016-04-03 02:51:08,1047000/74b135d2719662b1c67ad34b52ec40d0-d.jpg,,
15309069,Advanced engineering design: An integrated approach,,Woodhead Publishing in Mechanical Engineering,,Efren M Benavides,2012,,Woodhead Publishing,,282,0,English,,,0,"0857090933,9780857090935",,,,,,,,,,,0,,,,,,,0,7692507,pdf,119d099d605c6db520e5ebdc10c4128a,,,119d099d605c6db520e5ebdc10c4128a.pdf,0,2000-01-01 01:00:00,2016-04-03 02:51:08,1047000/119d099d605c6db520e5ebdc10c4128a-d.jpg,,
15309070,"Jungle Capitalists: A Story of Globalisation, Greed and Revolution",,,,Peter Chapman,2007,,Canongate Books Ltd,,220,0,English,,,0,"184195909X,9781841959092",,,,,,,,,,,0,,,,,,,,482415,mobi,3d65d6f483e1e0b911d4f219be8e4689,,,3d65d6f483e1e0b911d4f219be8e4689.mobi,0,2000-01-01 01:00:00,2016-04-03 02:51:08,1047000/3d65d6f483e1e0b911d4f219be8e4689-d.jpg,,
15309071,Galileo: A Very Short Introduction,,,,Stillman Drake,2001,,Oxford University Press,,152,0,English,,,0,"0192854569,9780192854568",,,,,,,,,,,0,,,,,,,0,3195622,pdf,c8a20c899ab266664b81aeace3706b32,,,c8a20c899ab266664b81aeace3706b32.pdf,0,2000-01-01 01:00:00,2016-04-03 02:51:08,1047000/c8a20c899ab266664b81aeace3706b32-d.jpg,,
15309072,The Pragmatic MBA for Scientific and Technical Executives,,,,Bertrand C. Liang,2012,1,Academic Press,,176,0,English,,,0,"0123979323,9780123979322",,,,,,,,,,,0,,,,,,,0,3293039,pdf,29491517c3d3242f3096f02ae6690242,,,29491517c3d3242f3096f02ae6690242.pdf,0,2000-01-01 01:00:00,2016-04-03 02:51:08,1047000/29491517c3d3242f3096f02ae6690242-d.jpg,,
15309073,Progressive Guitar Method - Fingerpicking,,,,Gary Turner,1995,,Koala Music Publications,,72,0,English,,,0,"1864690712,9781864690712",,,,,,,,,,,0,,,,,,,,9455463,epub,ec18b3441a3223c1ea6fe6284b872063,,,ec18b3441a3223c1ea6fe6284b872063.epub,0,2000-01-01 01:00:00,2016-04-03 02:51:08,1047000/ec18b3441a3223c1ea6fe6284b872063-d.jpg,,
15309074,"The Pan-German League and Radical Nationalist Politics in Interwar Germany, 1918-39",,,,Barry A. Jackisch,2012,,Ashgate Pub Co,,212,0,English,,,0,"1409427617,9781409427612",,,,,,,,,,,0,,,,,,,,6889014,epub,6401456845515f49ac3c4d05328b3a16,,,6401456845515f49ac3c4d05328b3a16.epub,0,2000-01-01 01:00:00,2016-04-03 02:51:08,1047000/6401456845515f49ac3c4d05328b3a16-d.jpg,,
15309075,Pictorial Webster's Pocket Dictionary,,,,John M. Carrera,2012,,Chronicle Books,,208,0,English,,,0,"1452101647,9781452101644",,,,,,,,,,,0,,,,,,,,89106389,epub,6de5e4987728bf154e1088233e93341e,,,6de5e4987728bf154e1088233e93341e.epub,0,2000-01-01 01:00:00,2016-04-03 02:51:08,1047000/6de5e4987728bf154e1088233e93341e-d.jpg,,
15309076,Analisi Uno,,,,Gianni Gilardi,1995,,McGraw-Hill,,337,0,Italian,117,,0,8838606536,,,,,,,,,,,0,0,,1,,1,0,0,34276913,pdf,897e9bf9e221c23531ea49483efe6485,,,mcgraw-hill_-_analisi_uno_-_g._gilardi,0,2000-01-01 01:00:00,2016-04-03 02:51:08,1047000/897e9bf9e221c23531ea49483efe6485-g.jpg,,
15309077,"March's Advanced Organic Chemistry: Reactions, Mechanisms, and Structure",,,,Michael B. Smith,2013,7,Wiley,,2080,0,English,,,0,"0470462590,9780470462591",,,,,,,,,,,0,,,,,,,0,71685984,pdf,cc748ece7af1aeac4577d0d83ba2e028,,,cc748ece7af1aeac4577d0d83ba2e028.pdf,0,2000-01-01 01:00:00,2016-04-03 02:51:08,1047000/cc748ece7af1aeac4577d0d83ba2e028-d.jpg,,
15309078,Delmar's Dental Materials Guide,,,,"Donna J. Phinney, Judy H. Halstead",2008,1,Cengage Learning,,784,0,English,,,0,"1418051993,9781418051990",,,,,,,,,,,0,,,,,,,0,7635356,pdf,3d0263367b6bfa8b9d92e423f279a0af,,,3d0263367b6bfa8b9d92e423f279a0af.pdf,0,2000-01-01 01:00:00,2016-04-03 02:51:08,1047000/3d0263367b6bfa8b9d92e423f279a0af-d.jpg,,
15309079,Love and Math: The Heart of Hidden Reality,,,,Edward Frenkel,2013,,Basic Books,,304,0,English,,,0,"0465050743,9780465050741",,,,,,,,,,,0,,,,,,,,9472013,epub,1f4dd26fffc670f8c9b1a27629ff95ec,,,1f4dd26fffc670f8c9b1a27629ff95ec.epub,0,2000-01-01 01:00:00,2016-04-03 02:51:08,1047000/1f4dd26fffc670f8c9b1a27629ff95ec-d.jpg,,
15309080,Urban Villages and the Making of Communities,,,,"Peter Neal, HRH The Prince of Wales",2003,1,Taylor & Francis,,272,0,English,,,0,"0415262739,9780415262736",,,,,,,,,,,0,,,,,,,0,11895344,pdf,b12140fd0bb33eec2370b7f57d3a52bf,,,b12140fd0bb33eec2370b7f57d3a52bf.pdf,0,2000-01-01 01:00:00,2016-04-03 02:51:08,1047000/b12140fd0bb33eec2370b7f57d3a52bf-d.jpg,,
15309081,"The Everything Vegetarian Slow Cooker Cookbook: Includes Tofu Noodle Soup, Fajita Chili, Chipotle Black Bean Salad, Mediterranean Chickpeas, Hot Fudge Fondue ...and hundreds more!",,Everything Series,,"Amy Snyder, Justin Snyder",2012,,Adams Media,,304,0,English,,,0,"1440528586,9781440528583",,,,,,,,,,,0,,,,,,,,1107075,mobi,c61358291d976392c53983e0f5be618e,,,c61358291d976392c53983e0f5be618e.mobi,0,2000-01-01 01:00:00,2016-04-03 02:51:08,1047000/c61358291d976392c53983e0f5be618e-d.jpg,,
15309082,"Shakespeare Beyond Doubt: Evidence, Argument, Controversy",,,,"Paul Edmondson, Stanley Wells",2013,,Cambridge University Press,,298,0,English,,,0,"1107603285,9781107603288",,,,,,,,,,,0,,,,,,,,3271906,epub,5bb23771217cf5879b93642516bf6f2f,,,5bb23771217cf5879b93642516bf6f2f.epub,0,2000-01-01 01:00:00,2016-04-03 02:51:08,1047000/5bb23771217cf5879b93642516bf6f2f-d.jpg,,
15309083,Criminal History of Mankind,,,,Colin Wilson,1984,First Edition,HarperCollins Distribution Services,,702,0,English,,,0,"0246116366,9780246116369",,,,,,,,,,,0,,,,,,,0,3250228,pdf,8998158f4f5d3995cc94c0565e3a5435,,,8998158f4f5d3995cc94c0565e3a5435.pdf,0,2000-01-01 01:00:00,2016-04-03 02:51:08,1047000/8998158f4f5d3995cc94c0565e3a5435-d.jpg,,
15309084,"Life Application Study Bible KJV, Personal Size",,,,Tyndale,2007,,Tyndale House Publishers,,2176,0,English,,,0,"1414314191,9781414314198",,,,,,,,,,,0,,,,,,,,47850290,epub,e5c83dfa92d7e39dfd66142f137b9e86,,,e5c83dfa92d7e39dfd66142f137b9e86.epub,0,2000-01-01 01:00:00,2016-04-03 02:51:08,1047000/e5c83dfa92d7e39dfd66142f137b9e86-d.jpg,,
15309085,Women and Economic Activities in Late Medieval Ghent,,The New Middle Ages,,Shennan Hutton,2011,,Palgrave Macmillan,,256,0,English,,,0,"0230104959,9780230104952",,,,,,,,,,,0,,,,,,,0,3165438,pdf,3d9e844856581cb7cb68381791baed07,,,3d9e844856581cb7cb68381791baed07.pdf,0,2000-01-01 01:00:00,2016-04-03 02:51:08,1047000/3d9e844856581cb7cb68381791baed07-d.jpg,,
15309086,Soldier Dogs,,,,Maria Goodavage,2012,1,Dutton Adult,,293,0,English,,,0,"0525952780,9780525952787",,,,,,,,,,,0,,,,,,,,3392454,epub,b75388122ccfa3afcd814b34c31ab912,,,b75388122ccfa3afcd814b34c31ab912.epub,0,2000-01-01 01:00:00,2016-04-03 02:51:08,1047000/b75388122ccfa3afcd814b34c31ab912-d.jpg,,
15309087,Bill Hylton's Power-Tool Joinery,,Popular Woodworking,,Bill Hylton,2005,First,Popular Woodwkg,,128,0,English,,,0,"1558707387,9781558707382",,,,,,,,,,,0,,,,,,,0,112118007,pdf,3c3dcbd20d11681afae32f743f0550e7,,,3c3dcbd20d11681afae32f743f0550e7.pdf,0,2000-01-01 01:00:00,2016-04-03 02:51:08,1047000/3c3dcbd20d11681afae32f743f0550e7-d.jpg,,
15309088,A Developmental Model of Borderline Personality Disorder: Understanding Variations in Course and Outcome,,,,"Patricia Hoffman Judd, Thomas H. McGlashan",2002,1,Amer Psychiatric Pub,,249,0,English,,,0,"0880485159,9780880485159",,,,,,,,,,,0,,,,,,,0,3324990,pdf,e8739a3833690901b05353596374b357,,,e8739a3833690901b05353596374b357.pdf,0,2000-01-01 01:00:00,2016-04-03 02:51:08,1047000/e8739a3833690901b05353596374b357-d.jpg,,
15309089,Luftwaffe 2: Nightfighter Over Reich,,Luftwaffe at War,,Manfred Griehl,1997,,Greenhill Books,,72,0,English,,,0,"1853672718,9781853672712",,,,,,,,,,,0,,,,,,,0,103900026,pdf,a5ceb9c213156baab2140fe715fff705,,,a5ceb9c213156baab2140fe715fff705.pdf,0,2000-01-01 01:00:00,2016-04-03 02:51:08,1047000/a5ceb9c213156baab2140fe715fff705-d.jpg,,
15309090,Silversmithing,,Jewelry Crafts,,"Rupert Finegold, William Seitz",1983,,Krause Publ,,480,0,English,,,0,"0801972329,9780801972324",,,,,,,,,,,0,,,,,,,,13806938,epub,e428344e1ccc5dbd67a4e896538ed70c,,,e428344e1ccc5dbd67a4e896538ed70c.epub,0,2000-01-01 01:00:00,2016-04-03 02:51:08,1047000/e428344e1ccc5dbd67a4e896538ed70c-d.jpg,,
15309091,The Making of Star Wars: The Definitive Story Behind the Original Film,,,,"J.W. Rinzler, Peter Jackson",2007,1St Edition,LucasBooks,,372,0,English,,,0,"0345494768,9780345494764",,,,,,,,,,,0,,,,,,,,86719276,epub,1ef2705db733270d46d8d497f71bb427,,,1ef2705db733270d46d8d497f71bb427.epub,0,2000-01-01 01:00:00,2016-04-03 02:51:08,1047000/1ef2705db733270d46d8d497f71bb427-d.jpg,,
15309092,Why Does E=mc2?,,And Why Should We Care?,,"Brian Cox, Jeff Forshaw",2009,Advance Reader's Copy,Da Capo Press,,264,0,English,,,0,"0306817586,9780306817588",,,,,,,,,,,0,,,,,,,0,3791730,pdf,6e5132c693009cebf6fb8706d635dc6e,,,6e5132c693009cebf6fb8706d635dc6e.pdf,0,2000-01-01 01:00:00,2016-04-03 02:51:08,1047000/6e5132c693009cebf6fb8706d635dc6e-d.jpg,,
15309093,Excel VBA 24-Hour Trainer,,,,Tom Urtis,2011,1,Wrox,,432,0,English,,,0,"047089069X,9780470890691",,,,,,,,,,,0,,,,,,,,24693305,epub,1f544d1c14a8ce40eac6fc2f70beea7d,,,1f544d1c14a8ce40eac6fc2f70beea7d.epub,0,2000-01-01 01:00:00,2016-04-03 02:51:08,1047000/1f544d1c14a8ce40eac6fc2f70beea7d-d.jpg,,
15309094,Hepatitis,,Deadly Diseases and Epidemics,,Lyle W. Horn,2005,,Chelsea House Pub (T),,128,0,English,,,0,"0791083780,9780791083789",,,,,,,,,,,0,,,,,,,0,2729567,pdf,9ed5da76eb5afb589e473e491b1d6ce9,,,9ed5da76eb5afb589e473e491b1d6ce9.pdf,0,2000-01-01 01:00:00,2016-04-03 02:51:08,1047000/9ed5da76eb5afb589e473e491b1d6ce9-g.jpg,,
15309095,Universal Display Book for PIC Microcontrollers,,French Edition,,Richard Grodzik,2008,,Elektor Electronics Publishing,,192,0,English,,,0,"0905705734,9780905705736",,,,,,,,,,,0,,,,,,,0,5191151,pdf,5c6ddb226047baac9e1ca9ce3319a134,,,5c6ddb226047baac9e1ca9ce3319a134.pdf,0,2000-01-01 01:00:00,2016-04-03 02:51:08,1047000/5c6ddb226047baac9e1ca9ce3319a134-d.jpg,,
15309096,Agroecological Economics: Sustainability and Biodiversity,,,,Paul Wojtkowski,2008,1,Academic Press,,320,0,English,,,0,"0123741173,9780123741172",,,,,,,,,,,0,,,,,,,0,8037943,pdf,273607c6bdebddd40a72c0d393cf696c,,,273607c6bdebddd40a72c0d393cf696c.pdf,0,2000-01-01 01:00:00,2016-04-03 02:51:08,1047000/273607c6bdebddd40a72c0d393cf696c-d.jpg,,
15309097,Cisco Secure Internet Security Solutions,,Cisco Press Core Series,,"Andrew Mason, Mark J. Newcomb",2001,,Cisco Press,,528,0,English,,,0,"1587050161,9781587050169",,,,,,,,,,,0,,,,,,,0,6664937,pdf,38bbd52614f90f1e80b2b5b90e1de738,,,38bbd52614f90f1e80b2b5b90e1de738.pdf,0,2000-01-01 01:00:00,2016-04-03 02:51:08,1047000/38bbd52614f90f1e80b2b5b90e1de738-d.jpg,,
15309098,Life without Parole: America's New Death Penalty?,,Charles Hamilton Houston Institute Series on Race and Justice,,"Jr.  Charles J. Ogletree, Austin Sarat",2012,,NYU Press,,352,0,English,,,0,"0814762476,9780814762479",,,,,,,,,,,0,,,,,,,0,3293088,pdf,6621b92d823abdc134fa0b3c48e68dc6,,,6621b92d823abdc134fa0b3c48e68dc6.pdf,0,2000-01-01 01:00:00,2016-04-03 02:51:08,1047000/6621b92d823abdc134fa0b3c48e68dc6-d.jpg,,
15309099,"Pure Poultry: Living Well with Heritage Chickens, Turkeys and Ducks",,,,Victoria Redhed Miller,2013,,New Society Publishers,,240,0,English,,,0,"0865717532,9780865717534",,,,,,,,,,,0,,,,,,,0,5123385,pdf,1916a183998a90f3b8c51bab035c0e40,,,1916a183998a90f3b8c51bab035c0e40.pdf,0,2000-01-01 01:00:00,2016-04-03 02:51:08,1047000/1916a183998a90f3b8c51bab035c0e40-d.jpg,,
15309100,Oracle Essentials: Oracle Database 12c,,,,"Rick Greenwald, Robert Stackowiak, Jonathan Stern",2013,Fifth Edition,O'Reilly Media,,432,0,English,,,0,"1449343031,9781449343033",,,,,,,,,,,0,,,,,,,0,14658416,pdf,fbf284f1425939f454bcf82814d4dc86,,,fbf284f1425939f454bcf82814d4dc86.pdf,0,2000-01-01 01:00:00,2016-04-03 02:51:08,1047000/fbf284f1425939f454bcf82814d4dc86-d.jpg,,
15309101,The Art of Companion Planting with Fruits: A Little Book Full of All the Information You Need,,,,Atlantic Publishing Group Inc,2012,,Atlantic Publishing Group Inc,,113,0,English,,,0,",",,B0090O3Z9U,,,,,,,,,0,,,,,,,,1276830,epub,a7ef79cafd7a839bb4b4be045afcf4bf,,,a7ef79cafd7a839bb4b4be045afcf4bf.epub,0,2000-01-01 01:00:00,2016-04-03 02:51:08,1047000/a7ef79cafd7a839bb4b4be045afcf4bf-d.jpg,,
15309102,The Best of Brochure Design 11,,,,Kiki Eldridge,2010,1,Rockport Publishers,,224,0,English,,,0,"1592536344,9781592536344",,,,,,,,,,,0,,,,,,,0,110843085,pdf,b152551ac189224389c2ee7815dea7e0,,,b152551ac189224389c2ee7815dea7e0.pdf,0,2000-01-01 01:00:00,2016-04-03 02:51:08,1047000/b152551ac189224389c2ee7815dea7e0-d.jpg,,
15309103,Forensic Art Essentials: A Manual for Law Enforcement Artists,,,,Lois Gibson,2007,1,Academic Press,,432,0,English,,,0,"0123708982,9780123708984",,,,,,,,,,,0,,,,,,,0,20213719,pdf,dce318bfc63fef7956e065767dd6a47c,,,dce318bfc63fef7956e065767dd6a47c.pdf,0,2000-01-01 01:00:00,2016-04-03 02:51:08,1047000/dce318bfc63fef7956e065767dd6a47c-d.jpg,,
15309104,Numbers Rule Your World: The Hidden Influence of Probabilities and Statistics on Everything You Do,,,,Kaiser Fung,2010,1,McGraw-Hill,,224,0,English,,,0,"0071626530,9780071626538",,,,,,,,,,,0,,,,,,,,2483779,epub,b9dccddabad110c5cc2443b2d4374672,,,b9dccddabad110c5cc2443b2d4374672.epub,0,2000-01-01 01:00:00,2016-04-03 02:51:08,1047000/b9dccddabad110c5cc2443b2d4374672-d.jpg,,
15309105,"Britain, Germany and the Future of the European Union",,New Perspectives in German Studies,,Christian Schweiger,2007,First Edition,Palgrave Macmillan,,240,0,English,,,0,"0230008097,9780230008090",,,,,,,,,,,0,,,,,,,0,3265263,pdf,5c11ec6c79373de4c62ce9f3480de2dc,,,5c11ec6c79373de4c62ce9f3480de2dc.pdf,0,2000-01-01 01:00:00,2016-04-03 02:51:08,1047000/5c11ec6c79373de4c62ce9f3480de2dc-d.jpg,,
15309106,Beginner's Guide to Quilting: 16 Projects to Learn to Quilt,,,,Elizabeth Betts,2013,,David & Charles,,128,0,English,,,0,"1446302547,9781446302545",,,,,,,,,,,0,,,,,,,,11573865,mobi,625bf6222e9c4921d860f88d4531a203,,,625bf6222e9c4921d860f88d4531a203.mobi,0,2000-01-01 01:00:00,2016-04-03 02:51:08,1047000/625bf6222e9c4921d860f88d4531a203-d.jpg,,
15309107,Learn How to Draw Land Animals - For the Absolute Beginner,,Learn to Draw,,"John Davidson, Adrian Sanqui, Adrian Sanqui",2013,,JD-Biz Corp Publishing,,55,0,English,,,0,",",,B00GA8HQMQ,,,,,,,,,0,,,,,,,,1182614,epub,74c107b26c844b6ce0f5badc2c11dc73,,,74c107b26c844b6ce0f5badc2c11dc73.epub,0,2000-01-01 01:00:00,2016-04-03 02:51:08,1047000/74c107b26c844b6ce0f5badc2c11dc73-d.jpg,,
15309108,Disaster Recovery Planning for Communications and Critical Infrastructure,,Artech House Telecommunications Library,,"Leo A. Wrobel, Sharon M. Wrobel",2009,1,Artech House,,400,0,English,,,0,"1596934689,9781596934689",,,,,,,,,,,0,,,,,,,0,6628245,pdf,387c2fbc1ceb21a627d1f0b4cb93f645,,,387c2fbc1ceb21a627d1f0b4cb93f645.pdf,0,2000-01-01 01:00:00,2016-04-03 02:51:08,1047000/387c2fbc1ceb21a627d1f0b4cb93f645-d.jpg,,
15309109,China Rising: Will the West Be Able to Cope?: The Real Long-term Challenge to the Rise of China — and Asia in General,,World Scientific Series on 21st Century Business,,Jan Willem Blankert,2009,1,World Scientific Publishing Company,,176,0,English,,,0,"9812837957,9789812837950",,,,,,,,,,,0,,,,,,,0,3383689,pdf,bc1a6ad7e8d11c9674734833c0fd7963,,,bc1a6ad7e8d11c9674734833c0fd7963.pdf,0,2000-01-01 01:00:00,2016-04-03 02:51:08,1047000/bc1a6ad7e8d11c9674734833c0fd7963-d.jpg,,
15309110,"An Astronaut's Guide to Life on Earth: What Going to Space Taught Me About Ingenuity, Determination, and Being Prepared for Anything",,,,Chris Hadfield,2013,First Edition,"Little, Brown and Company",,304,0,English,,,0,"0316253014,9780316253017",,,,,,,,,,,0,,,,,,,,6911216,epub,1c81f92940290cfd7795eb5f9dfae5e0,,,1c81f92940290cfd7795eb5f9dfae5e0.epub,0,2000-01-01 01:00:00,2016-04-03 02:51:08,1047000/1c81f92940290cfd7795eb5f9dfae5e0-d.jpg,,
15309111,Lactoferrin and its Role in Wound Healing,,,,Yoshiharu Takayama,2011,2012,Springer,,120,0,English,,,0,"9400724667,9789400724662",,,,,,,,,,,0,,,,,,,0,3450443,pdf,5898382780c47de3e37610f37ead7675,,,5898382780c47de3e37610f37ead7675.pdf,0,2000-01-01 01:00:00,2016-04-03 02:51:08,1047000/5898382780c47de3e37610f37ead7675-d.jpg,,
15309112,Learn How to Draw Land Animals - For the Absolute Beginner,,Learn to Draw,,"John Davidson, Adrian Sanqui, Adrian Sanqui",2013,,JD-Biz Corp Publishing,,55,0,English,,,0,",",,B00GA8HQMQ,,,,,,,,,0,,,,,,,0,2510347,pdf,f0a6569ba15bfd64d3c4c32967f84223,,,f0a6569ba15bfd64d3c4c32967f84223.pdf,0,2000-01-01 01:00:00,2016-04-03 02:51:08,1047000/f0a6569ba15bfd64d3c4c32967f84223-d.jpg,,
15309113,Engineering Mechanics: Statics,,13th Edition,,Russell C. Hibbeler,2012,13,Prentice Hall,,672,0,English,,,0,"0132915545,9780132915540",,,,,,,,,,,0,,,,,,,0,76613535,pdf,2646801f198a7b222e664542f38ce44b,,,2646801f198a7b222e664542f38ce44b.pdf,0,2000-01-01 01:00:00,2016-04-03 02:51:08,1047000/2646801f198a7b222e664542f38ce44b-d.jpg,,
15309114,Programming Microsoft SQL Server 2012,,,,"Leonard Lobel, Andrew Brust",2012,,Microsoft Press,,816,0,English,,,0,"0735658226,9780735658226",,,,,,,,,,,0,,,,,,,0,19089692,pdf,869954e945bf1b2f851c232ba81d99f6,,,869954e945bf1b2f851c232ba81d99f6.pdf,0,2000-01-01 01:00:00,2016-04-03 02:51:08,1047000/869954e945bf1b2f851c232ba81d99f6-d.jpg,,
15309115,Getting Started in Consulting,,,,Alan Weiss,2009,3rd,Wiley,,320,0,English,,,0,"0470419806,9780470419809",,,,,,,,,,,0,,,,,,,0,3180803,pdf,8d4e88cfdf010a70d0d084548f528cad,,,8d4e88cfdf010a70d0d084548f528cad.pdf,0,2000-01-01 01:00:00,2016-04-03 02:51:08,1047000/8d4e88cfdf010a70d0d084548f528cad-d.jpg,,
15309116,Diagnosing Autism Spectrum Disorders: A Lifespan Perspective,,,,Donald P. Gallo,2010,1,Wiley,,198,0,English,,,0,"0470749245,9780470749241",,,,,,,,,,,0,,,,,,,0,3266445,pdf,f26c19c0c7b65439446e3fa850b2c990,,,f26c19c0c7b65439446e3fa850b2c990.pdf,0,2000-01-01 01:00:00,2016-04-03 02:51:08,1047000/f26c19c0c7b65439446e3fa850b2c990-d.jpg,,
15309117,"Ultrashort Laser Pulse Phenomena, Second Edition",,Optics and Photonics Series,,"Jean-Claude Diels, Wolfgang Rudolph",2006,2,Academic Press,,680,0,English,,,0,"0122154932,9780122154935",,,,,,,,,,,0,,,,,,,0,23411960,pdf,37f370c3b4e2591d3b15512649386308,,,37f370c3b4e2591d3b15512649386308.pdf,0,2000-01-01 01:00:00,2016-04-03 02:51:08,1047000/37f370c3b4e2591d3b15512649386308-d.jpg,,
15309118,Life in the United Kingdom: Handbook: A Guide for New Residents,,,,Great Britain: Home Office,2013,3rd Revised edition,TSO,,180,0,English,,,0,"0113413408,9780113413409",,,,,,,,,,,0,,,,,,,0,53137523,pdf,8ee234825984052186a190acee2fa91d,,,8ee234825984052186a190acee2fa91d.pdf,0,2000-01-01 01:00:00,2016-04-03 02:51:08,1047000/8ee234825984052186a190acee2fa91d-d.jpg,,
15309119,Worlds Apart: An Anthology of Russian Fantasy and Science Fiction: An Anthology of Russian Science Fiction and Fantasy,,,,Alexander Levitsky,2008,Reprint,Overlook TP,,576,0,English,,,0,"1585678201,9781585678204",,,,,,,,,,,0,,,,,,,0,24405416,pdf,139f6d769f97faaaec974567c5fb8d6f,,,139f6d769f97faaaec974567c5fb8d6f.pdf,0,2000-01-01 01:00:00,2016-04-03 02:51:08,1047000/139f6d769f97faaaec974567c5fb8d6f-d.jpg,,
15309120,Shareholder Value Demystified: An Explanation of Methodologies and Use,,Strategic Resource Management Series,,M Barbera,1999,,University of New South Wales Press,,68,0,English,,,0,"086840697X,9780868406978",,,,,,,,,,,0,,,,,,,0,3278442,pdf,87387608d1beac8f8c8fa31183261c94,,,87387608d1beac8f8c8fa31183261c94.pdf,0,2000-01-01 01:00:00,2016-04-03 02:51:08,1047000/87387608d1beac8f8c8fa31183261c94-d.jpg,,
15309121,Complex Abelian Varieties and Theta Functions,,Universitext,,George R. Kempf,1991,First Edition,Springer-Verlag,,0,0,English,,,0,"0387531688,9780387531687",,,,,,,,,,,0,,,,,,,0,3193859,pdf,eaf804a4f195886cdc59a0e0c83d7110,,,eaf804a4f195886cdc59a0e0c83d7110.pdf,0,2000-01-01 01:00:00,2016-04-03 02:51:08,1047000/eaf804a4f195886cdc59a0e0c83d7110-d.jpg,,
15309122,Insurrections Wars and the Eastern Crisis in the 1870s,,,,"Bela K. Kiraly, Gale Stokes",1986,0,East European Monographs,,421,0,English,,,0,"0880330902,9780880330909",,,,,,,,,,,0,,,,,,,0,174029948,pdf,e791e804e6a5cf33bea6db748c89bc0b,,,e791e804e6a5cf33bea6db748c89bc0b.pdf,0,2000-01-01 01:00:00,2016-04-03 02:51:08,1047000/e791e804e6a5cf33bea6db748c89bc0b-d.jpg,,
15309123,Takemusu Aikido -- Volume 4 -- Kokyunage,,,,"Morihiro Saito, Stanley A. Pranin and Sonoko Tanaka",1997,,Aiki News,,208,0,English,,,0,"4900586242,9784900586246",,,,,,,,,,,0,,,,,,,0,151653422,pdf,f054666a909304c2bdd36494f5cbb06b,,,f054666a909304c2bdd36494f5cbb06b.pdf,0,2000-01-01 01:00:00,2016-04-03 02:51:08,1047000/f054666a909304c2bdd36494f5cbb06b-d.jpg,,
15309124,Engineering for Sustainability: A Practical Guide for Sustainable Design,,,,"Gerald Jonker, Jan Harmsen",2012,1,Elsevier,,122,0,English,,,0,"0444538461,9780444538468",,,,,,,,,,,0,,,,,,,0,3317322,pdf,1fed052ddb528fb05353a7c6854d9fdf,,,1fed052ddb528fb05353a7c6854d9fdf.pdf,0,2000-01-01 01:00:00,2016-04-03 02:51:08,1047000/1fed052ddb528fb05353a7c6854d9fdf-d.jpg,,
15309125,Why Does E=mc2?,,And Why Should We Care?,,"Brian Cox, Jeff Forshaw",2009,Advance Reader's Copy,Da Capo Press,,264,0,English,,,0,"0306817586,9780306817588",,,,,,,,,,,0,,,,,,,,390603,epub,49adeb2abfce577dd3eb5a59f3335175,,,49adeb2abfce577dd3eb5a59f3335175.epub,0,2000-01-01 01:00:00,2016-04-03 02:51:08,1047000/49adeb2abfce577dd3eb5a59f3335175-d.jpg,,
15309126,Oracle Essentials: Oracle Database 12c,,,,"Rick Greenwald, Robert Stackowiak, Jonathan Stern",2013,Fifth Edition,O'Reilly Media,,432,0,English,,,0,"1449343031,9781449343033",,,,,,,,,,,0,,,,,,,,10872476,epub,9d286a14e5878a9a536f6bd78589df7a,,,9d286a14e5878a9a536f6bd78589df7a.epub,0,2000-01-01 01:00:00,2016-04-03 02:51:08,1047000/9d286a14e5878a9a536f6bd78589df7a-d.jpg,,
15309127,Oracle SOA Suite 11g Performance Tuning Cookbook,,,,"Matt Brasier, Nicholas Wright",2013,,Packt Publishing,,328,0,English,,,0,"1849688842,9781849688840",,,,,,,,,,,0,,,,,,,0,24970633,pdf,a096ce524d85f20bb8f9039033411a65,,,a096ce524d85f20bb8f9039033411a65.pdf,0,2000-01-01 01:00:00,2016-04-03 02:51:08,1047000/a096ce524d85f20bb8f9039033411a65-d.jpg,,
15309128,Microsoft AJAX Library Essentials: Client-side ASP.NET AJAX 1.0 Explained,,,,"Bogdan Brinzarea, Cristian Darie",2007,,Packt Publishing,,300,0,English,,,0,"1847190987,9781847190987",,,,,,,,,,,0,,,,,,,0,11682353,pdf,783c515c8f723c0ef933f24ea10ed683,,,783c515c8f723c0ef933f24ea10ed683.pdf,0,2000-01-01 01:00:00,2016-04-03 02:51:08,1047000/783c515c8f723c0ef933f24ea10ed683-d.jpg,,
15309129,"The Design Warrior's Guide to FPGAs: Devices, Tools and Flows",,Edn Series for Design Engineers,,Clive Maxfield,2004,PAP/CDR,Newnes,,542,0,English,,,0,"0750676043,9780750676045",,,,,,,,,,,0,,,,,,,0,4226395,pdf,928a0a10f29d649aa0713e484938d7ba,,,928a0a10f29d649aa0713e484938d7ba.pdf,0,2000-01-01 01:00:00,2016-04-03 02:51:08,1047000/928a0a10f29d649aa0713e484938d7ba-d.jpg,,
15309130,"The French Navy, Vols. 1 & 2",,Navies of the Second World War,,Henri Le Masson,1969,,Macdonald & Co.,,176,0,English,,,0,"0356023842,9780356023847",,,,,,,,,,,0,,,,,,,0,29466691,pdf,7126138085b18dc707207608d5d97c84,,,7126138085b18dc707207608d5d97c84.pdf,0,2000-01-01 01:00:00,2016-04-03 02:51:08,1047000/7126138085b18dc707207608d5d97c84-g.jpg,,
15309131,Reasoning and Thinking,,"Cognitive Psychology (Hove, England).",,K.I. Manktelow,1999,1,Psychology Press,,256,0,English,,,0,"0863777090,9780863777097",,,,,,,,,,,0,,,,,,,0,4131758,pdf,c3da5b84dfde3af381f2595537ef3e02,,,c3da5b84dfde3af381f2595537ef3e02.pdf,0,2000-01-01 01:00:00,2016-04-03 02:51:08,1047000/c3da5b84dfde3af381f2595537ef3e02-d.jpg,,
15309132,What Should Constitutions Do?,,Social Philosophy and Policy,,"Ellen Frankel Paul, Fred D. Miller  Jr, Jeffrey Paul",2011,,Cambridge University Press,,354,0,English,,,0,"0521175534,9780521175531",,,,,,,,,,,0,,,,,,,0,3235736,pdf,01242a23d4b576bb7efbffc8c29adfd6,,,01242a23d4b576bb7efbffc8c29adfd6.pdf,0,2000-01-01 01:00:00,2016-04-03 02:51:08,1047000/01242a23d4b576bb7efbffc8c29adfd6-d.jpg,,
15309133,Spanish Word Games For Dummies,,,,"Adam Cohen, Leslie Frates",2010,1,For Dummies,,288,0,English,,,0,"0470502002,9780470502006",,,,,,,,,,,0,,,,,,,0,17547582,pdf,5a9d9de2bdf5b4961dd487ccc0da88ab,,,5a9d9de2bdf5b4961dd487ccc0da88ab.pdf,0,2000-01-01 01:00:00,2016-04-03 02:51:08,1047000/5a9d9de2bdf5b4961dd487ccc0da88ab-d.jpg,,
15309134,"The Fashion Designer's Textile Directory: A Guide to Fabrics' Properties, Characteristics, and Garment-Design Potential",,,,Gail Baugh,2011,1,Barron's Educational Series,,320,0,English,,,0,"0764146289,9780764146282",,,,,,,,,,,0,,,,,,,0,176352273,pdf,d42d91efc03f48a952582e01dc7dc558,,,d42d91efc03f48a952582e01dc7dc558.pdf,0,2000-01-01 01:00:00,2016-04-03 02:51:08,1047000/d42d91efc03f48a952582e01dc7dc558-d.jpg,,
15309135,Nomads of the Eurasian Steppes in the Early Iron Age,,,,"Jeannine Davis-Kimball, Vladimir A. Bashilov, Leonid T. Yablonsky",1995,,Zinat Pr,,431,0,English,,,0,"1885979002,9781885979001",,,,,,,,,,,0,,,,,,,0,36493287,pdf,09f9a30fd59a83d0a681f57abe0c81fa,,,09f9a30fd59a83d0a681f57abe0c81fa.pdf,0,2000-01-01 01:00:00,2016-04-03 02:51:08,1047000/09f9a30fd59a83d0a681f57abe0c81fa-d.jpg,,
15309136,MySQL Stored Procedure Programming,,,,"Guy Harrison, Steven Feuerstein",2006,1,O'Reilly Media,,640,0,English,,,0,"0596100892,9780596100896",,,,,,,,,,,0,,,,,,,,15464906,mobi,aac3a68c9456fccf1a61381bab25c53d,,,aac3a68c9456fccf1a61381bab25c53d.mobi,0,2000-01-01 01:00:00,2016-04-03 02:51:08,1047000/aac3a68c9456fccf1a61381bab25c53d-d.jpg,,
15309137,Essentials of Investments,,,,"Zvi Bodie, Alex Kane, Alan J. Marcus",2013,Global ed of 9th revised ed,McGraw Hill Higher Education,,0,0,English,,,0,"007714824X,9780077148249",,,,,,,,,,,0,,,,,,,,16734719,epub,ef22206a6851a7b784f4296a19bb8483,,,ef22206a6851a7b784f4296a19bb8483.epub,0,2000-01-01 01:00:00,2016-04-03 02:51:08,1047000/ef22206a6851a7b784f4296a19bb8483-d.jpg,,
15309138,Black & Decker The Complete Photo Guide to Home Repair: with 350 Projects and 2000 Photos,,Black & Decker Complete Photo Guide,,Editors of Creative Publishing,2008,,Creative Publishing international,,560,0,English,,,0,"1589234170,9781589234178",,,,,,,,,,,0,,,,,,,0,134983547,pdf,373bea9e1bcb3f90cb84f090693131f6,,,373bea9e1bcb3f90cb84f090693131f6.pdf,0,2000-01-01 01:00:00,2016-04-03 02:51:08,1047000/373bea9e1bcb3f90cb84f090693131f6-d.jpg,,
15309139,The Parthenon Cookbook: Great Mediterranean Recipes from the Heart of Chicago's Greektown,,,,Camille Stagg,2008,,Agate Surrey,,120,0,English,,,0,"157284096X,9781572840966",,,,,,,,,,,0,,,,,,,,3334274,mobi,eebd1cae20818e35d53aef4b9036607e,,,eebd1cae20818e35d53aef4b9036607e.mobi,0,2000-01-01 01:00:00,2016-04-03 02:51:08,1047000/eebd1cae20818e35d53aef4b9036607e-d.jpg,,
15309140,Confessions of a Hypnotist: Everything you ever wanted to know about hypnosis but were afraid to ask...,,,,Jonathan Royle,2006,,Exposure Publishing,,516,0,English,,,0,"1846850525,9781846850523",,,,,,,,,,,0,,,,,,,0,3667642,pdf,f813bb50f5e0ebc3b71af4ae1be14cf6,,,f813bb50f5e0ebc3b71af4ae1be14cf6.pdf,0,2000-01-01 01:00:00,2016-04-03 02:51:08,1047000/f813bb50f5e0ebc3b71af4ae1be14cf6-d.jpg,,
15309141,The History of King Richard the Third,,,,"Thomas More Sir, George M Logan",2005,A reading ed,Indiana University Press,,141,0,English,,,0,"0253346576,9780253346575",,,,,,,,,,,0,,,,,,,0,11933028,pdf,b2f560cf670e0847716acf02a17f9a25,,,b2f560cf670e0847716acf02a17f9a25.pdf,0,2000-01-01 01:00:00,2016-04-03 02:51:08,1047000/b2f560cf670e0847716acf02a17f9a25-d.jpg,,
15309142,"Sex and Bacon: Why I Love Things That Are Very, Very Bad for Me",,,,Sarah Katherine Lewis,2008,,Seal Press,,256,0,English,,,0,"1580052282,9781580052283",,,,,,,,,,,0,,,,,,,,2545491,epub,dddba5aa52b32106414084016fc02aad,,,dddba5aa52b32106414084016fc02aad.epub,0,2000-01-01 01:00:00,2016-04-03 02:51:08,1047000/dddba5aa52b32106414084016fc02aad-d.jpg,,
15309143,"Quality Operations Procedures for Pharmaceutical, API, and Biotechnology",,,,"Syed Imtiaz Haider, Erfan Syed Asif",2012,1 Har/Cdr,CRC Press,,584,0,English,,,0,"1439886903,9781439886908",,,,,,,,,,,0,,,,,,,0,3391230,pdf,78fa4cdd6ba74ebf26f8bac8b221f357,,,78fa4cdd6ba74ebf26f8bac8b221f357.pdf,0,2000-01-01 01:00:00,2016-04-03 02:51:08,1047000/78fa4cdd6ba74ebf26f8bac8b221f357-d.jpg,,
15309144,Legends of the Fire Spirits,,,,Lebling,0,,,,0,0,English,,,0,"1845119932,9781845119935",,,,,,,,,,,0,,,,,,,0,3427022,pdf,048c0aee3dbad2727a58745d08594db9,,,048c0aee3dbad2727a58745d08594db9.pdf,0,2000-01-01 01:00:00,2016-04-03 02:51:08,1047000/048c0aee3dbad2727a58745d08594db9-d.jpg,,
15309145,Practical Color Management: Eddie Tapp on Digital Photography,,,,"Eddie Tapp, Rick Lucas",2006,1,O'Reilly Media,,168,0,English,,,0,"0596527683,9780596527686",,,,,,,,,,,0,,,,,,,,3452518,epub,5ccc242dcbf164c5c5c29f63d2e26654,,,5ccc242dcbf164c5c5c29f63d2e26654.epub,0,2000-01-01 01:00:00,2016-04-03 02:51:08,1047000/5ccc242dcbf164c5c5c29f63d2e26654-d.jpg,,
15309146,Electrophysiology of the Neuron: An Interactive Tutorial,,,,"John Huguenard, David McCormick, Gordon Shepherd",1994,Pap/Dis,"Oxford University Press, USA",,80,0,English,,,0,"0195091671,9780195091670",,,,,,,,,,,0,,,,,,,0,3251186,pdf,91bc1667127ca454dbed1fc73c5b76c2,,,91bc1667127ca454dbed1fc73c5b76c2.pdf,0,2000-01-01 01:00:00,2016-04-03 02:51:08,1047000/91bc1667127ca454dbed1fc73c5b76c2-d.jpg,,
15309147,Channel-Adaptive Technologies and Cross-Layer Designs for Wireless Systems with Multiple Antennas: Theory and Applications,,Wiley Series in Telecommunications and Signal Processing,,"Vincent K.N. Lau, Yu-Kwong Ricky Kwok",2006,1,Wiley-Interscience,,544,0,English,,,0,"0471648655,9780471648659",,,,,,,,,,,0,,,,,,,0,6502806,pdf,9354b323572e0e7abb36fb991afa8b9e,,,9354b323572e0e7abb36fb991afa8b9e.pdf,0,2000-01-01 01:00:00,2016-04-03 02:51:08,1047000/9354b323572e0e7abb36fb991afa8b9e-d.jpg,,
15309148,Lectures on Elliptic and Parabolic Equations in Sobolev Spaces,,Graduate Studies in Mathematics,,N. V. Krylov,2008,,American Mathematical Society,,357,0,English,,,0,"0821846841,9780821846841",,,,,,,,,,,0,,,,,,,0,49670951,pdf,944d66b6ce907f86c8ee22251bd6b66e,,,944d66b6ce907f86c8ee22251bd6b66e.pdf,0,2000-01-01 01:00:00,2016-04-03 02:51:08,1047000/944d66b6ce907f86c8ee22251bd6b66e-d.jpg,,
15309149,"Numbers: Computers, Philosophers, and the Search for Meaning",,History of Mathematics,,John Tabak,2004,,Facts on File (J),,224,0,English,,,0,"0816049556,9780816049554",,,,,,,,,,,0,,,,,,,0,4115251,pdf,94cd4ea9f8c2f741ac1775c98a91fbfe,,,94cd4ea9f8c2f741ac1775c98a91fbfe.pdf,0,2000-01-01 01:00:00,2016-04-03 02:51:08,1047000/94cd4ea9f8c2f741ac1775c98a91fbfe-d.jpg,,
15309150,Radio System Design for Telecommunication,,Wiley Series in Telecommunications and Signal Processing,,Roger L. Freeman,2007,3,Wiley-IEEE Press,,912,0,English,,,0,"0471757136,9780471757139",,,,,,,,,,,0,,,,,,,0,17222427,pdf,734021fba0169c3dc361e3e36242bd68,,,734021fba0169c3dc361e3e36242bd68.pdf,0,2000-01-01 01:00:00,2016-04-03 02:51:08,1047000/734021fba0169c3dc361e3e36242bd68-d.jpg,,
15309151,Radio Frequency Identification System Security:  RFIDsec'11 Asia Workshop Proceedings - Volume 6 Cryptology and Information Security Series,,,,"T. Li, C.-H. Chu, P. Wang, G. Wang",2011,,IOS Press,,172,0,English,,,0,"1607507218,9781607507215",,,,,,,,,,,0,,,,,,,0,2194895,pdf,24d433db879f637bf95a60f28697a733,,,24d433db879f637bf95a60f28697a733.pdf,0,2000-01-01 01:00:00,2016-04-03 02:51:08,1047000/24d433db879f637bf95a60f28697a733-d.jpg,,
15309152,The Thin Bone Vault: The Origin of Human Intelligence,,,,Fredric M Menger,2009,1,World Scientific Publishing Company,,312,0,English,,,0,"1848163363,9781848163362",,,,,,,,,,,0,,,,,,,0,4263414,pdf,1c33be069d4828eb637f25368e0a4c5c,,,1c33be069d4828eb637f25368e0a4c5c.pdf,0,2000-01-01 01:00:00,2016-04-03 02:51:08,1047000/1c33be069d4828eb637f25368e0a4c5c-d.jpg,,
15309153,"Handbook of membrane reactors: Volume 1: Fundamental materials science, design and optimisation",,Woodhead Publishing Series in Energy,,Angelo Basile,2013,,Woodhead Publishing,,704,0,English,,,0,"0857094149,9780857094148",,,,,,,,,,,0,,,,,,,0,19214783,pdf,fc60eaa5690b71abbdd04d6d36927961,,,fc60eaa5690b71abbdd04d6d36927961.pdf,0,2000-01-01 01:00:00,2016-04-03 02:51:08,1047000/fc60eaa5690b71abbdd04d6d36927961-d.jpg,,
15309154,The Genius of Dogs: How Dogs Are Smarter Than You Think,,,,"Brian Hare, Vanessa Woods",2013,1,Plume,,384,0,English,,,0,"0142180467,9780142180464",,,,,,,,,,,0,,,,,,,,10684308,epub,71cab58b63030e86ce109b4dbae0f0d5,,,71cab58b63030e86ce109b4dbae0f0d5.epub,0,2000-01-01 01:00:00,2016-04-03 02:51:08,1047000/71cab58b63030e86ce109b4dbae0f0d5-d.jpg,,
15309155,Urban Villages and the Making of Communities,,,,"Peter Neal, HRH The Prince of Wales",2003,1,Taylor & Francis,,272,0,English,,,0,"0415262739,9780415262736",,,,,,,,,,,0,,,,,,,0,11890943,pdf,c4137fa5080666ff2ee11d3086e08f94,,,c4137fa5080666ff2ee11d3086e08f94.pdf,0,2000-01-01 01:00:00,2016-04-03 02:51:08,1047000/c4137fa5080666ff2ee11d3086e08f94-d.jpg,,
15309156,"Social Movements: Identity, Culture, and the State",,,,"David S. Meyer, Nancy Whittier, Belinda Robnett",2002,,"Oxford University Press, USA",,384,0,English,,,0,"0195143558,9780195143553",,,,,,,,,,,0,,,,,,,0,3305084,pdf,5bc69a3067cd03e21929941c6c98e6cb,,,5bc69a3067cd03e21929941c6c98e6cb.pdf,0,2000-01-01 01:00:00,2016-04-03 02:51:08,1047000/5bc69a3067cd03e21929941c6c98e6cb-d.jpg,,
15309157,The International Theory of Leonard Woolf: A Study in Twentieth Century Idealism,,,,Peter Wilson,2003,1,Palgrave Macmillan,,284,0,English,,,0,"0312294735,9780312294731",,,,,,,,,,,0,,,,,,,0,3197441,pdf,eac38c08d3a1cadbc881c198acbb6a8a,,,eac38c08d3a1cadbc881c198acbb6a8a.pdf,0,2000-01-01 01:00:00,2016-04-03 02:51:08,1047000/eac38c08d3a1cadbc881c198acbb6a8a-d.jpg,,
15309158,Brief Principles of Macroeconomics,,,,N. Gregory Mankiw,2011,6,Cengage Learning,,472,0,English,,,0,"0538453079,9780538453073",,,,,,,,,,,0,,,,,,,0,16958094,pdf,5d4afdeaf416511021b5c7e6ce439a73,,,5d4afdeaf416511021b5c7e6ce439a73.pdf,0,2000-01-01 01:00:00,2016-04-03 02:51:08,1047000/5d4afdeaf416511021b5c7e6ce439a73-d.jpg,,
15309159,Certified Ethical Hacker Exam Prep,,,,Michael Gregg,2006,PAP/CDR,Pearson IT Certification,,696,0,English,,,0,"0789735318,9780789735317",,,,,,,,,,,0,,,,,,,,6064396,epub,be7d1797c712bf7241d81cb67324607f,,,be7d1797c712bf7241d81cb67324607f.epub,0,2000-01-01 01:00:00,2016-04-03 02:51:08,1047000/be7d1797c712bf7241d81cb67324607f-d.jpg,,
15309160,Peterson Reference Guide to Molt in North American Birds,,Peterson Reference Guides,,Steve N.G. Howell,2010,1,Houghton Mifflin Harcourt,,280,0,English,,,0,"0547152353,9780547152356",,,,,,,,,,,0,,,,,,,0,12872064,pdf,f725e7e5e41e08910f21e75305eb53df,,,f725e7e5e41e08910f21e75305eb53df.pdf,0,2000-01-01 01:00:00,2016-04-03 02:51:08,1047000/f725e7e5e41e08910f21e75305eb53df-d.jpg,,
15309161,General Principles of Quantum Mechanics,,,,"Wolfgang Pauli, P. Achuthan, K. Venkatesan",1980,1,Springer,,212,0,English,,,0,"3540098429,9783540098423",,,,,,,,,,,0,,,,,,,0,12098889,pdf,f2df09d6bc2f81f5838ba96924551e7d,,,f2df09d6bc2f81f5838ba96924551e7d.pdf,0,2000-01-01 01:00:00,2016-04-03 02:51:08,1047000/f2df09d6bc2f81f5838ba96924551e7d-d.jpg,,
15309162,"Transcultural History: Theories, Methods, Sources",,Transcultural Research - Heidelberg Studies on Asia and Europe in a Global Context,,"Madeleine Herren, Martin Rüesch, Christiane Sibille",2012,2012,Springer,,200,0,English,,,0,"3642191959,9783642191954",,,,,,,,,,,0,,,,,,,0,4726690,pdf,59b8e32596135cdd12c318fa05316e5d,,,59b8e32596135cdd12c318fa05316e5d.pdf,0,2000-01-01 01:00:00,2016-04-03 02:51:08,1047000/59b8e32596135cdd12c318fa05316e5d-d.jpg,,
15309163,"ASVAB For Dummies, Premier 3rd Edition",,,,Rod Powers,2010,Premier 3rd Edition,For Dummies,,408,0,English,,,0,"0470637617,9780470637616",,,,,,,,,,,0,,,,,,,0,4469000,pdf,6421b5d2f8c301c02887440969c0aa22,,,6421b5d2f8c301c02887440969c0aa22.pdf,0,2000-01-01 01:00:00,2016-04-03 02:51:08,1047000/6421b5d2f8c301c02887440969c0aa22-d.jpg,,
15309164,Kaizen in Logistics and Supply Chains,,,,Euclides Coimbra,2013,1,McGraw-Hill Professional,,384,0,English,,,0,"0071811044,9780071811040",,,,,,,,,,,0,,,,,,,,17742903,epub,f5a39421f9810b27b684a60e1602db98,,,f5a39421f9810b27b684a60e1602db98.epub,0,2000-01-01 01:00:00,2016-04-03 02:51:08,1047000/f5a39421f9810b27b684a60e1602db98-d.jpg,,
15309165,The Capitalist World-Economy,,Studies in Modern Capitalism,,Immanuel Wallerstein,1979,1,Cambridge University Press,,320,0,English,,,0,"0521220858,9780521220859",,,,,,,,,,,0,,,,,,,0,194632397,pdf,acb9e600392f59786fce896daa04044c,,,acb9e600392f59786fce896daa04044c.pdf,0,2000-01-01 01:00:00,2016-04-03 02:51:08,1047000/acb9e600392f59786fce896daa04044c-d.jpg,,
15309166,Rhythm and Will in Victorian Poetry,,Cambridge Studies in Nineteenth-Century Literature and Culture,,Matthew Campbell,1999,First Edition,Cambridge University Press,,290,0,English,,,0,"0521642957,9780521642958",,,,,,,,,,,0,,,,,,,0,3199272,pdf,b0aaa8c35c396e178a04d68bf16400be,,,b0aaa8c35c396e178a04d68bf16400be.pdf,0,2000-01-01 01:00:00,2016-04-03 02:51:08,1047000/b0aaa8c35c396e178a04d68bf16400be-d.jpg,,
15309167,The Palestine-Israel Conflict: A Basic Introduction,,,,"Gregory Harms, Todd Ferry",2008,2nd,Pluto Press,,288,0,English,,,0,"0745327354,9780745327358",,,,,,,,,,,0,,,,,,,0,3498931,pdf,0826140f7d32d072d5fe21490dc35013,,,0826140f7d32d072d5fe21490dc35013.pdf,0,2000-01-01 01:00:00,2016-04-03 02:51:08,1047000/0826140f7d32d072d5fe21490dc35013-d.jpg,,
15309168,China in the 21st Century: What Everyone Needs to Know,,,,Jeffrey N. Wasserstrom,2010,,"Oxford University Press, USA",,192,0,English,,,0,"019539447X,9780195394474",,,,,,,,,,,0,,,,,,,0,1176991,pdf,7baf3bd52d063bcaa196cddd1120f787,,,7baf3bd52d063bcaa196cddd1120f787.pdf,0,2000-01-01 01:00:00,2016-04-03 02:51:08,1047000/7baf3bd52d063bcaa196cddd1120f787-d.jpg,,
15309169,A Companion to Philosophy of Law and Legal Theory,,"Blackwell Companions to Philosophy, Vol. 8",,Dennis Patterson,2010,2nd,Wiley-Blackwell,,704,0,English,,,0,"1405170069,9781405170062",,,,,,,,,,,0,,,,,,,0,3101860,pdf,89bd984cf91b08ac329e5441fd244851,,,89bd984cf91b08ac329e5441fd244851.pdf,0,2000-01-01 01:00:00,2016-04-03 02:51:08,1047000/89bd984cf91b08ac329e5441fd244851-d.jpg,,
15309170,Decision Making Using Game Theory: An Introduction for Managers,,,,Professor Anthony Kelly,2003,,Cambridge University Press,,214,0,English,,,0,"0521814626,9780521814621",,,,,,,,,,,0,,,,,,,0,3994812,pdf,bf851cca43704837e967df1090a0b895,,,bf851cca43704837e967df1090a0b895.pdf,0,2000-01-01 01:00:00,2016-04-03 02:51:08,1047000/bf851cca43704837e967df1090a0b895-d.jpg,,
15309171,The Story of My Life,,,,Helen Keller,2003,The Restored Ed.,Random House Inc,,343,0,English,,,0,"0679642870,9780679642879",,,,,,,,,,,0,,,,,,,,4340745,epub,4e0dc7c4298626e1fd51b65caaea92c3,,,4e0dc7c4298626e1fd51b65caaea92c3.epub,0,2000-01-01 01:00:00,2016-04-03 02:51:08,1047000/4e0dc7c4298626e1fd51b65caaea92c3-d.jpg,,
15309172,Ethik,,,,Wolfgang Huber,2013,,Beck C. H.,,0,0,English,,,0,"3406655602,9783406655609",,,,,,,,,,,0,,,,,,,,3323961,epub,9d0bc6e2e584560d00c99ac961db471d,,,9d0bc6e2e584560d00c99ac961db471d.epub,0,2000-01-01 01:00:00,2016-04-03 02:51:08,1047000/9d0bc6e2e584560d00c99ac961db471d-d.jpg,,
15309173,The Metaphysics of Modern Existence,,,,"Vine Deloria Jr., David E. Wilkins, Daniel R. Wildcat",2012,Reprint,Fulcrum Publishing,,328,0,English,,,0,"1555917593,9781555917593",,,,,,,,,,,0,,,,,,,0,3928929,pdf,a474d3425504e007b9f1143a42429bd4,,,a474d3425504e007b9f1143a42429bd4.pdf,0,2000-01-01 01:00:00,2016-04-03 02:51:08,1047000/a474d3425504e007b9f1143a42429bd4-d.jpg,,
15309174,Crosswords for Seniors For Dummies,,,,Timothy E. Parker,2009,1,For Dummies,,384,0,English,,,0,"0470491574,9780470491577",,,,,,,,,,,0,,,,,,,0,19861359,pdf,6c019a7fd8cad823c412122ba40c9edb,,,6c019a7fd8cad823c412122ba40c9edb.pdf,0,2000-01-01 01:00:00,2016-04-03 02:51:08,1047000/6c019a7fd8cad823c412122ba40c9edb-d.jpg,,
15309175,The Truth About Getting the Best from People,,2nd Edition,,Martha I. Finney,2012,2,FT Press,,256,0,English,,,0,"0133095185,9780133095180",,,,,,,,,,,0,,,,,,,,3279291,epub,84cad575ce3634d63ea9cd8b63488e40,,,84cad575ce3634d63ea9cd8b63488e40.epub,0,2000-01-01 01:00:00,2016-04-03 02:51:08,1047000/84cad575ce3634d63ea9cd8b63488e40-d.jpg,,
15309176,Programming Erlang: Software for a Concurrent World,,Pragmatic Programmers,,Joe Armstrong,2013,Second Edition,Pragmatic Bookshelf,,530,0,English,,,0,"193778553X,9781937785536",,,,,,,,,,,0,,,,,,,0,11349522,pdf,194a5753cf20546c82af7e2e4abcc2bc,,,194a5753cf20546c82af7e2e4abcc2bc.pdf,0,2000-01-01 01:00:00,2016-04-03 02:51:08,1047000/194a5753cf20546c82af7e2e4abcc2bc-d.jpg,,
15309177,"Lead Magnet: 43 Foolproof Strategies To Get More Leads, Win A Ton of New Customers And Double Your Profits In Record Time...",,,,MR Charlie Hutton,2013,,CreateSpace Independent Publishing Platform,,146,0,English,,,0,"1484070771,9781484070772",,,,,,,,,,,0,,,,,,,,3485562,epub,7b58f8df4ffea8776ffa8c9426044717,,,7b58f8df4ffea8776ffa8c9426044717.epub,0,2000-01-01 01:00:00,2016-04-03 02:51:08,1047000/7b58f8df4ffea8776ffa8c9426044717-d.jpg,,
15309178,Speak English Like an American,,Book & Audio CD set,,Amy Gillett,2013,5th Updated,Language Success Press,,176,0,English,,,0,"0972530037,9780972530033",,,,,,,,,,,0,,,,,,,0,4398348,pdf,b3498144b10ccba5d8c5c97660b695bc,,,b3498144b10ccba5d8c5c97660b695bc.pdf,0,2000-01-01 01:00:00,2016-04-03 02:51:08,1047000/b3498144b10ccba5d8c5c97660b695bc-d.jpg,,
15309179,Programming Erlang: Software for a Concurrent World,,Pragmatic Programmers,,Joe Armstrong,2013,Second Edition,Pragmatic Bookshelf,,530,0,English,,,0,"193778553X,9781937785536",,,,,,,,,,,0,,,,,,,,3509914,epub,18c3d993882082f8a91df42181b4ccc6,,,18c3d993882082f8a91df42181b4ccc6.epub,0,2000-01-01 01:00:00,2016-04-03 02:51:08,1047000/18c3d993882082f8a91df42181b4ccc6-d.jpg,,
15309180,Madboy: My Journey from Adboy to Adman,,,,"Richard Kirshenbaum, Jerry Della Femina",2011,,Open Road E-riginal,,232,0,English,,,0,"1453211446,9781453211441",,,,,,,,,,,0,,,,,,,,3217964,epub,ce2cf8aafd4e2ac8da784e4dec2d1216,,,ce2cf8aafd4e2ac8da784e4dec2d1216.epub,0,2000-01-01 01:00:00,2016-04-03 02:51:08,1047000/ce2cf8aafd4e2ac8da784e4dec2d1216-d.jpg,,
15309181,Foliations II,,Graduate Studies in Mathematics Series Volume 60,,"Alberto Candel, Lawrence Conlon",2003,,Amer Mathematical Society,,560,0,English,,,0,"0821808818,9780821808818",,,,,,,,,,,0,,,,,,,0,100535749,pdf,1d4065c2ebeda5d22529520dae573466,,,1d4065c2ebeda5d22529520dae573466.pdf,0,2000-01-01 01:00:00,2016-04-03 02:51:08,1047000/1d4065c2ebeda5d22529520dae573466-d.jpg,,
15309182,Concert and Live Music Photography: Pro Tips from the Pit,,,,J. Dennis Thomas,2012,1,Focal Press,,264,0,English,,,0,"0240820649,9780240820644",,,,,,,,,,,0,,,,,,,,24630021,epub,186cb2b5d3de007315b3cad84a319e0f,,,186cb2b5d3de007315b3cad84a319e0f.epub,0,2000-01-01 01:00:00,2016-04-03 02:51:08,1047000/186cb2b5d3de007315b3cad84a319e0f-d.jpg,,
15309183,Improving Profitability Through Green Manufacturing: Creating a Profitable and Environmentally Compliant Manufacturing Facility,,,,"David R. Hillis, J. Barry DuVall",2012,1,Wiley,,248,0,English,,,0,"1118111257,9781118111253",,,,,,,,,,,0,,,,,,,0,3329294,pdf,b80dff981bccc39e191432554f9495e9,,,b80dff981bccc39e191432554f9495e9.pdf,0,2000-01-01 01:00:00,2016-04-03 02:51:08,1047000/b80dff981bccc39e191432554f9495e9-d.jpg,,
15309184,Sunny's Kitchen: Easy Food for Real Life,,,,Sunny Anderson,2013,,Clarkson Potter,,304,0,English,,,0,"0770436781,9780770436780",,,,,,,,,,,0,,,,,,,,21616608,epub,75b7628e4d98046bf5ae704173f05b10,,,75b7628e4d98046bf5ae704173f05b10.epub,0,2000-01-01 01:00:00,2016-04-03 02:51:08,1047000/75b7628e4d98046bf5ae704173f05b10-d.jpg,,
15309185,Spatial Data Management,,Synthesis Lectures on Data Management,,Nikos Mamoulis,2011,,Morgan & Claypool Publishers,,150,0,English,,,0,"1608458326,9781608458325",,,,,,,,,,,0,,,,,,,0,3300517,pdf,fde1c2956e9eb2179dab8ac83f856ac5,,,fde1c2956e9eb2179dab8ac83f856ac5.pdf,0,2000-01-01 01:00:00,2016-04-03 02:51:08,1047000/fde1c2956e9eb2179dab8ac83f856ac5-d.jpg,,
15309186,The Way of the World,,,,Ron Suskind,2009,Reprint,Harper Perennial,,448,0,English,,,0,"0061430633,9780061430633",,,,,,,,,,,0,,,,,,,,971542,mobi,91d029a041e0997bd7d73337dcd05db8,,,91d029a041e0997bd7d73337dcd05db8.mobi,0,2000-01-01 01:00:00,2016-04-03 02:51:08,1047000/91d029a041e0997bd7d73337dcd05db8-d.jpg,,
15309187,"Transfer of Learning: Cognition, Instruction, and Reasoning",,,,Robert E. Haskell,2000,,Academic Press,,268,0,English,,,0,"0123992273,9780123992277",,,,,,,,,,,0,,,,,,,0,4021392,pdf,1b034d6889d7142c8bbedfbf4e73b00d,,,1b034d6889d7142c8bbedfbf4e73b00d.pdf,0,2000-01-01 01:00:00,2016-04-03 02:51:08,1047000/1b034d6889d7142c8bbedfbf4e73b00d-d.jpg,,
15309188,Advanced Presentations by Design: Creating Communication that Drives Action,,,,Andrew Abela,2013,2,Pfeiffer,,224,0,English,,,0,"1118347919,9781118347911",,,,,,,,,,,0,,,,,,,0,10899986,pdf,edd8ab04ff2f449489ab310ec1c1e50a,,,edd8ab04ff2f449489ab310ec1c1e50a.pdf,0,2000-01-01 01:00:00,2016-04-03 02:51:08,1047000/edd8ab04ff2f449489ab310ec1c1e50a-d.jpg,,
15309189,Bioisosteres in Medicinal Chemistry,,Methods and Principles in Medicinal Chemistry,,"Nathan Brown, Raimund Mannhold, Hugo Kubinyi, Gerd Folkers",2012,1,Wiley-VCH,,256,0,English,,,0,"3527330151,9783527330157",,,,,,,,,,,0,,,,,,,0,3579526,pdf,47eed28b10460375079aa4cedfac3165,,,47eed28b10460375079aa4cedfac3165.pdf,0,2000-01-01 01:00:00,2016-04-03 02:51:08,1047000/47eed28b10460375079aa4cedfac3165-d.jpg,,
15309190,Pro HTML5 and CSS3 Design Patterns,,,,"Michael Bowers, Dionysios Synodinos, Victor Sumner",2011,1,Apress,,532,0,English,,,0,"1430237805,9781430237808",,,,,,,,,,,0,,,,,,,0,12251449,pdf,34e5f297b998de5f3cc63cbebda16314,,,34e5f297b998de5f3cc63cbebda16314.pdf,0,2000-01-01 01:00:00,2016-04-03 02:51:08,1047000/34e5f297b998de5f3cc63cbebda16314-d.jpg,,
15309191,Psych: Mind Over Magic,,,,William Rabkin,2009,Original,Signet,,288,0,English,,,0,"0451227441,9780451227447",,,,,,,,,,,0,,,,,,,,2818680,epub,da2c869b1ab39c22d823a7149d6be961,,,da2c869b1ab39c22d823a7149d6be961.epub,0,2000-01-01 01:00:00,2016-04-03 02:51:08,1047000/da2c869b1ab39c22d823a7149d6be961-d.jpg,,
15309192,C++ Database Development: Featuring Parody the Persistent Almost-Relational Object Database Management System,,,,Al Stevens,1992,,Mis Pr,,136,0,English,,,0,"1558282165,9781558282162",,,,,,,,,,,0,,,,,,,0,19090467,pdf,ffd1a15c2d90a191cc9de1fee0a3fce8,,,ffd1a15c2d90a191cc9de1fee0a3fce8.pdf,0,2000-01-01 01:00:00,2016-04-03 02:51:08,1047000/ffd1a15c2d90a191cc9de1fee0a3fce8-d.jpg,,
15309193,Android Programming: Pushing the Limits,,,,Erik Hellman,2013,1,Wiley,,432,0,English,,,0,"1118717376,9781118717370",,,,,,,,,,,0,,,,,,,0,36249255,pdf,b9b5228344f8b8c066b6c4851c3a2e0d,,,b9b5228344f8b8c066b6c4851c3a2e0d.pdf,0,2000-01-01 01:00:00,2016-04-03 02:51:08,1047000/b9b5228344f8b8c066b6c4851c3a2e0d-d.jpg,,
15309194,Dangerous and Severe Personality Disorder: Reactions and Role of the Psychiatric Team,,,,Len Bowers,2002,1,Routledge,,192,0,English,,,0,"0415282373,9780415282376",,,,,,,,,,,0,,,,,,,0,3202052,pdf,234c74d16d4c5a01b37e74736fc3017b,,,234c74d16d4c5a01b37e74736fc3017b.pdf,0,2000-01-01 01:00:00,2016-04-03 02:51:08,1047000/234c74d16d4c5a01b37e74736fc3017b-d.jpg,,
15309195,The Boozy Baker: 75 Recipes for Spirited Sweets,,,,Lucy Baker,2010,,Running Press,,176,0,English,,,0,"0762438029,9780762438020",,,,,,,,,,,0,,,,,,,0,178375296,pdf,02da3915fc88f7a7c42b586ceec6a3e1,,,02da3915fc88f7a7c42b586ceec6a3e1.pdf,0,2000-01-01 01:00:00,2016-04-03 02:51:08,1047000/02da3915fc88f7a7c42b586ceec6a3e1-d.jpg,,
15309196,Service Science: Design for Scaling and Transformation,,,,Cheng Hsu,2009,,World Scientific Publishing Company,,316,0,English,,,0,"9812836764,9789812836762",,,,,,,,,,,0,,,,,,,0,3301608,pdf,6b22683473b88378b51cbfa4b09c9a00,,,6b22683473b88378b51cbfa4b09c9a00.pdf,0,2000-01-01 01:00:00,2016-04-03 02:51:08,1047000/6b22683473b88378b51cbfa4b09c9a00-d.jpg,,
15309197,The Debate on Classes,,,,"Erik Olin Wright, et al",1989,,Verso Books,,368,0,English,,,0,"0860912515,9780860912514",,,,,,,,,,,0,,,,,,,0,27840433,pdf,e90cc5a014de6282b7ab846a287b0e26,,,e90cc5a014de6282b7ab846a287b0e26.pdf,0,2000-01-01 01:00:00,2016-04-03 02:51:08,1047000/e90cc5a014de6282b7ab846a287b0e26-d.jpg,,
15309198,What Is Your WHAT: Discover The One Amazing Thing You Were Born To Do,,,,Steve Olsher,2013,1,Wiley,,240,0,English,,,0,"1118644042,9781118644041",,,,,,,,,,,0,,,,,,,,3586816,epub,afd07755d3bd4ec6f05aebc8f0da6acc,,,afd07755d3bd4ec6f05aebc8f0da6acc.epub,0,2000-01-01 01:00:00,2016-04-03 02:51:08,1047000/afd07755d3bd4ec6f05aebc8f0da6acc-d.jpg,,
15309199,"JFK: The CIA, Vietnam, and the Plot to Assassinate John F. Kennedy",,,,"L. Fletcher Prouty, Oliver Stone, Jesse Ventura",2011,0,Skyhorse Publishing,,377,0,English,,,0,"1616082917,9781616082918",,,,,,,,,,,0,,,,,,,,4244763,epub,c9b99ad061f2b03cfe5d97e104310df5,,,c9b99ad061f2b03cfe5d97e104310df5.epub,0,2000-01-01 01:00:00,2016-04-03 02:51:08,1047000/c9b99ad061f2b03cfe5d97e104310df5-d.jpg,,
15309200,Ultrasound and Elastic Waves: Frequently Asked Questions,,,,Brian Michael Lempriere,2002,1,Academic Press,,350,0,English,,,0,"0124433456,9780124433458",,,,,,,,,,,0,,,,,,,0,3597847,pdf,ab93d7a429246c998adf3c88f134e46c,,,ab93d7a429246c998adf3c88f134e46c.pdf,0,2000-01-01 01:00:00,2016-04-03 02:51:08,1047000/ab93d7a429246c998adf3c88f134e46c-d.jpg,,
15309201,High Definition Cinematography,,,,Paul Wheeler,2009,3,Focal Press,,320,0,English,,,0,"0240521617,9780240521619",,,,,,,,,,,0,,,,,,,0,12015215,pdf,925aef1ae888fe2cf4006c598e8e64e3,,,925aef1ae888fe2cf4006c598e8e64e3.pdf,0,2000-01-01 01:00:00,2016-04-03 02:51:08,1047000/925aef1ae888fe2cf4006c598e8e64e3-d.jpg,,
15309202,The School Revolution: A New Answer for Our Broken Education System,,,,Ron Paul,2013,,Grand Central Publishing,,224,0,English,,,0,"1455577170,9781455577170",,,,,,,,,,,0,,,,,,,,2652181,epub,8a107532854bfd09da3d69284d5830fb,,,8a107532854bfd09da3d69284d5830fb.epub,0,2000-01-01 01:00:00,2016-04-03 02:51:08,1047000/8a107532854bfd09da3d69284d5830fb-d.jpg,,
15309203,Advanced Accounting,,11th Edition,,"Floyd A. Beams, Joseph H. Anthony, Bruce Bettinghaus, Kenneth Smith",2011,11,Prentice Hall,,840,0,English,,,0,"0132568969,9780132568968",,,,,,,,,,,0,,,,,,,0,4148551,pdf,af96904c90999d64382eb6cd240d3eea,,,af96904c90999d64382eb6cd240d3eea.pdf,0,2000-01-01 01:00:00,2016-04-03 02:51:08,1047000/af96904c90999d64382eb6cd240d3eea-d.jpg,,
15309204,A Companion to Paleopathology,,,,Anne L. Grauer,2011,1,Wiley-Blackwell,,626,0,English,,,0,"1444334255,9781444334258",,,,,,,,,,,0,,,,,,,0,4594762,pdf,fd3bec23feb0150c19f6cafd88c74c67,,,fd3bec23feb0150c19f6cafd88c74c67.pdf,0,2000-01-01 01:00:00,2016-04-03 02:51:08,1047000/fd3bec23feb0150c19f6cafd88c74c67-d.jpg,,
15309205,The War That Ended Peace: The Road to 1914,,,,Margaret MacMillan,2013,,Random House,,784,0,English,,,0,"140006855X,9781400068555",,,,,,,,,,,0,,,,,,,,10660465,epub,42b82b8ad017ef4567ccce142eaa7062,,,42b82b8ad017ef4567ccce142eaa7062.epub,0,2000-01-01 01:00:00,2016-04-03 02:51:08,1047000/42b82b8ad017ef4567ccce142eaa7062-d.jpg,,
15309206,Getting Started with ownCloud,,,,Aditya Patawari,2013,,Packt Publishing,,134,0,English,,,0,"1782168257,9781782168256",,,,,,,,,,,0,,,,,,,,9883257,epub,e04ed579ca9d690f6b4bc6fb1c41927d,,,e04ed579ca9d690f6b4bc6fb1c41927d.epub,0,2000-01-01 01:00:00,2016-04-03 02:51:08,1047000/e04ed579ca9d690f6b4bc6fb1c41927d-d.jpg,,
15309207,Vegetronic: Extreme Vegetable Cooking,,,,Alexis Gauthier,2013,,Clarkson Potter,,368,0,English,,,0,"0770435025,9780770435028",,,,,,,,,,,0,,,,,,,,46836098,epub,d7ade0325ad0f0be36c1bdc58d2d1971,,,d7ade0325ad0f0be36c1bdc58d2d1971.epub,0,2000-01-01 01:00:00,2016-04-03 02:51:08,1047000/d7ade0325ad0f0be36c1bdc58d2d1971-d.jpg,,
15309208,Mac & Cheese: More than 80 Classic and Creative Versions of the Ultimate Comfort Food,,,,Ellen Brown,2012,,Running Press,,192,0,English,,,0,"0762446595,9780762446599",,,,,,,,,,,0,,,,,,,,2656046,epub,aedb9db028cc793470370e1d8dc2274f,,,aedb9db028cc793470370e1d8dc2274f.epub,0,2000-01-01 01:00:00,2016-04-03 02:51:08,1047000/aedb9db028cc793470370e1d8dc2274f-d.jpg,,
15309209,"Textures of Light: Vision and Touch in Irigaray, Levinas and Merleau Ponty",,Warwick Studies in European Philosophy,,Cathryn Vasseleu,1998,,Routledge,,168,0,English,,,0,"0415142741,9780415142748",,,,,,,,,,,0,,,,,,,0,3176198,pdf,092b2c2eaef3a03edc5c84f36049fc41,,,092b2c2eaef3a03edc5c84f36049fc41.pdf,0,2000-01-01 01:00:00,2016-04-03 02:51:08,1047000/092b2c2eaef3a03edc5c84f36049fc41-d.jpg,,
15309210,Abnormal Returns: Winning Strategies from the Frontlines of the Investment Blogosphere,,,,Tadas Viskanta,2012,1,McGraw-Hill,,240,0,English,,,0,"0071787100,9780071787109",,,,,,,,,,,0,,,,,,,,3227966,epub,edf477e0f81edf8906db8039b765f6e0,,,edf477e0f81edf8906db8039b765f6e0.epub,0,2000-01-01 01:00:00,2016-04-03 02:51:08,1047000/edf477e0f81edf8906db8039b765f6e0-d.jpg,,
15309211,CCDA,,"R) Exam Certification Guide (CCDA Self-Study, 640-861) (2nd Edition",,"Anthony Bruno, Jacqueline Kim",2003,2,Cisco Press,,696,0,English,,,0,"1587200767,9781587200762",,,,,,,,,,,0,,,,,,,0,30291365,pdf,ddfa9607d121be454fe35a6e6072b392,,,ddfa9607d121be454fe35a6e6072b392.pdf,0,2000-01-01 01:00:00,2016-04-03 02:51:08,1047000/ddfa9607d121be454fe35a6e6072b392-d.jpg,,
15309212,Totally Frank: The Autobiography of Frank Lampard,,,,Frank Lampard,2006,,HarperCollins UK,,384,0,English,,,0,"0007214723,9780007214723",,,,,,,,,,,0,,,,,,,,6097936,epub,371d303af6e1c0fd1f895344d099da2c,,,371d303af6e1c0fd1f895344d099da2c.epub,0,2000-01-01 01:00:00,2016-04-03 02:51:08,1047000/371d303af6e1c0fd1f895344d099da2c-d.jpg,,
15309213,"Crystal Lace Necklace Patterns, Bead Weaving Technique",,,,Sandra D. Halpenny,2006,Reprint,Sandra D. Halpenny,,88,0,English,,,0,"0973797304,9780973797305",,,,,,,,,,,0,,,,,,,0,50703680,pdf,899e5b013680bb0d0857b2222bcda526,,,899e5b013680bb0d0857b2222bcda526.pdf,0,2000-01-01 01:00:00,2016-04-03 02:51:08,1047000/899e5b013680bb0d0857b2222bcda526-d.jpg,,
15309214,"XML Processing with Perl, Python, and PHP",,,,Martin C. Brown,2001,1st,Sybex Inc,,432,0,English,,,0,"0782140211,9780782140217",,,,,,,,,,,0,,,,,,,0,3996410,pdf,2a77bc8d30a7430988b554d312e0b0b6,,,2a77bc8d30a7430988b554d312e0b0b6.pdf,0,2000-01-01 01:00:00,2016-04-03 02:51:08,1047000/2a77bc8d30a7430988b554d312e0b0b6-d.jpg,,
15309215,Resilience and Mental Health: Challenges Across the Lifespan,,,,"Steven M. Southwick, Brett T. Litz, Dennis Charney, Matthew J. Friedman",2011,1,Cambridge University Press,,382,0,English,,,0,"0521898390,9780521898393",,,,,,,,,,,0,,,,,,,0,5536111,pdf,6b3a96d2a7293ac229dbe71fed4c2778,,,6b3a96d2a7293ac229dbe71fed4c2778.pdf,0,2000-01-01 01:00:00,2016-04-03 02:51:08,1047000/6b3a96d2a7293ac229dbe71fed4c2778-d.jpg,,
15309216,French Grammar,,SparkCharts,,SparkNotes,2002,First,SparkCharts,,6,0,English,,,0,"1586636413,9781586636418",,,,,,,,,,,0,,,,,,,0,3954071,pdf,2d46248700f82fe825f3e9d9661980f7,,,2d46248700f82fe825f3e9d9661980f7.pdf,0,2000-01-01 01:00:00,2016-04-03 02:51:08,1047000/2d46248700f82fe825f3e9d9661980f7-d.jpg,,
15309217,How to Think More About Sex,,The School of Life,,Alain de Botton,2012,Reprint,Picador,,192,0,English,,,0,"125003065X,9781250030658",,,,,,,,,,,0,,,,,,,,3344276,epub,75d490bbf2e9f5c83b14c78f8109ee98,,,75d490bbf2e9f5c83b14c78f8109ee98.epub,0,2000-01-01 01:00:00,2016-04-03 02:51:08,1047000/75d490bbf2e9f5c83b14c78f8109ee98-d.jpg,,
15309218,Practical Programming: An Introduction to Computer Science Using Python 3,,Pragmatic Programmers,,"Paul Gries, Jennifer Campbell, Jason Montojo",2013,Second Edition,Pragmatic Bookshelf,,350,0,English,,,0,"1937785459,9781937785451",,,,,,,,,,,0,,,,,,,,5927387,epub,544864df7c22ddd8398a9e8da54e7601,,,544864df7c22ddd8398a9e8da54e7601.epub,0,2000-01-01 01:00:00,2016-04-03 02:51:08,1047000/544864df7c22ddd8398a9e8da54e7601-d.jpg,,
15309219,Microstrip Patch Antennas: A Designer's Guide,,,,Rodney Waterhouse,2010,Softcover reprint of hardcover 1st ed. 2003,Springer,,421,0,English,,,0,"1441953388,9781441953384",,,,,,,,,,,0,,,,,,,0,23438075,pdf,e8c10127e0612bf3cc98618f3b7c74b7,,,e8c10127e0612bf3cc98618f3b7c74b7.pdf,0,2000-01-01 01:00:00,2016-04-03 02:51:08,1047000/e8c10127e0612bf3cc98618f3b7c74b7-d.jpg,,
15309220,"Jungle Capitalists: A Story of Globalisation, Greed and Revolution",,,,Peter Chapman,2007,,Canongate Books Ltd,,220,0,English,,,0,"184195909X,9781841959092",,,,,,,,,,,0,,,,,,,,2685530,epub,f5a5d02fa8ca50ff7743ab7182e131fa,,,f5a5d02fa8ca50ff7743ab7182e131fa.epub,0,2000-01-01 01:00:00,2016-04-03 02:51:08,1047000/f5a5d02fa8ca50ff7743ab7182e131fa-d.jpg,,
15309221,Frequency of Use and the Organization of Language,,,,Joan Bybee,2006,,"Oxford University Press, USA",,376,0,English,,,0,"0195301560,9780195301564",,,,,,,,,,,0,,,,,,,0,2029410,pdf,f1dee2928bd8bffd9913ddc3987a0747,,,f1dee2928bd8bffd9913ddc3987a0747.pdf,0,2000-01-01 01:00:00,2016-04-03 02:51:08,1047000/f1dee2928bd8bffd9913ddc3987a0747-d.jpg,,
15309222,The Perfume of the Teachings - Working with Krishnamurti: J. Krishnamurti in Dialogue with Trustees,,,,"Jiddu Krishnamurti, Mary Cadogan, Ray McCoy",2010,,Krishnamurti Foundation Trust,,0,0,English,,,0,"0900506008,9780900506000",,,,,,,,,,,0,,,,,,,0,3301813,pdf,30ce68509fd9a9783e48472c788606f5,,,30ce68509fd9a9783e48472c788606f5.pdf,0,2000-01-01 01:00:00,2016-04-03 02:51:08,1047000/30ce68509fd9a9783e48472c788606f5-d.jpg,,
15309223,"The World's Best Massage Techniques The Complete Illustrated Guide: Innovative Bodywork Practices From Around the Globe for Pleasure, Relaxation, and Pain Relief",,,,Victoria Stone,2010,1,Fair Winds Press,,256,0,English,,,0,"159233430X,9781592334308",,,,,,,,,,,0,,,,,,,,97496864,epub,cff47241b8937929a3331e77bf55b96a,,,cff47241b8937929a3331e77bf55b96a.epub,0,2000-01-01 01:00:00,2016-04-03 02:51:08,1047000/cff47241b8937929a3331e77bf55b96a-d.jpg,,
15309224,Own Your Kitchen: Recipes to Inspire & Empower,,,,"Anne Burrell, Suzanne Lenzer",2013,,Clarkson Potter,,256,0,English,,,0,"030788676X,9780307886767",,,,,,,,,,,0,,,,,,,,34887367,epub,f5ead2c7238e9d83fedc5b4dbae9c544,,,f5ead2c7238e9d83fedc5b4dbae9c544.epub,0,2000-01-01 01:00:00,2016-04-03 02:51:08,1047000/f5ead2c7238e9d83fedc5b4dbae9c544-d.jpg,,
15309225,The Making of Star Wars: The Definitive Story Behind the Original Film,,,,"J.W. Rinzler, Peter Jackson",2007,1St Edition,LucasBooks,,372,0,English,,,0,"0345494768,9780345494764",,,,,,,,,,,0,,,,,,,,102420356,mobi,a634fff979f4e62143b1d810d68844c6,,,a634fff979f4e62143b1d810d68844c6.mobi,0,2000-01-01 01:00:00,2016-04-03 02:51:08,1047000/a634fff979f4e62143b1d810d68844c6-d.jpg,,
15309226,"Dictionary of Mathematical Games, Puzzles, and Amusements",,,,Harry E. Eiss,1988,,Greenwood,,292,0,English,,,0,"0313247145,9780313247149",,,,,,,,,,,0,,,,,,,0,13877543,pdf,3b8a192f7b073ae416499c3c88917b63,,,3b8a192f7b073ae416499c3c88917b63.pdf,0,2000-01-01 01:00:00,2016-04-03 02:51:08,1047000/3b8a192f7b073ae416499c3c88917b63-d.jpg,,
15309227,ARM System Developer's Guide: Designing and Optimizing System Software,,The Morgan Kaufmann Series in Computer Architecture and Design,,"Andrew Sloss, Dominic Symes, Chris Wright",2004,1,Morgan Kaufmann,,689,0,English,,,0,"1558608745,9781558608740",,,,,,,,,,,0,,,,,,,0,3425005,pdf,48236ad05a2b284ed5b9f57d3518681c,,,48236ad05a2b284ed5b9f57d3518681c.pdf,0,2000-01-01 01:00:00,2016-04-03 02:51:08,1047000/48236ad05a2b284ed5b9f57d3518681c-d.jpg,,
15309228,Cardiovascular Disorders Sourcebook,,Health Reference Series,,Amy L. Sutton,2010,4,Omnigraphics Inc,,699,0,English,,,0,"0780810805,9780780810808",,,,,,,,,,,0,,,,,,,0,3297918,pdf,b81fe992102d4a72ef37682f1ee71672,,,b81fe992102d4a72ef37682f1ee71672.pdf,0,2000-01-01 01:00:00,2016-04-03 02:51:08,1047000/b81fe992102d4a72ef37682f1ee71672-d.jpg,,
15309229,Traditional Food Production and Rural Sustainable Development,,Ashgate Economic Geography Series,,"Teresa de Noronha Vaz, Peter Nijkamp and Jean-Louis Rastoin, Teresa de Noronha Vaz, Peter Nijkamp, Jean Louis Rastoin",2008,,Ashgate,,300,0,English,,,0,"0754674622,9780754674627",,,,,,,,,,,0,,,,,,,0,3414987,pdf,5e66cdb7c74de1aef19af1b540fb2016,,,5e66cdb7c74de1aef19af1b540fb2016.pdf,0,2000-01-01 01:00:00,2016-04-03 02:51:08,1047000/5e66cdb7c74de1aef19af1b540fb2016-d.jpg,,
15309230,Creating Lampwork Beads for Jewelry,,,,Karen J Leonardo,2007,,Krause Publ,,144,0,English,,,0,"0896895491,9780896895492",,,,,,,,,,,0,,,,,,,,10782711,epub,da2df197247636ea518be57aa22a7a62,,,da2df197247636ea518be57aa22a7a62.epub,0,2000-01-01 01:00:00,2016-04-03 02:51:08,1047000/da2df197247636ea518be57aa22a7a62-d.jpg,,
15309231,Transformative Classroom Management: Positive Strategies to Engage All Students and Promote a Psychology of Success,,,,John Shindler,2009,1,Jossey-Bass,,384,0,English,,,0,"0470448431,9780470448434",,,,,,,,,,,0,,,,,,,0,3287512,pdf,0b077d858c7d32e8a2800e45acde8dac,,,0b077d858c7d32e8a2800e45acde8dac.pdf,0,2000-01-01 01:00:00,2016-04-03 02:51:08,1047000/0b077d858c7d32e8a2800e45acde8dac-d.jpg,,
15309232,Node Web Development - Second Edition,,,,David Herron,2013,2,Packt Publishing,,248,0,English,,,0,"1782163301,9781782163305",,,,,,,,,,,0,,,,,,,,2476683,epub,b34eafbf46c7212148bb7da08a20d266,,,b34eafbf46c7212148bb7da08a20d266.epub,0,2000-01-01 01:00:00,2016-04-03 02:51:08,1047000/b34eafbf46c7212148bb7da08a20d266-d.jpg,,
15309233,Technical Analysis of Stock Trends Explained: An Easy-to-Understand System for Successful Trading,,,,Michael Thomsett,2013,,Ethan Hathaway,,194,0,English,,,0,",",,B00B8L2U4Y,,,,,,,,,0,,,,,,,,4654545,mobi,9f9bed5fa00a55d8fcf42c59417291a5,,,9f9bed5fa00a55d8fcf42c59417291a5.mobi,0,2000-01-01 01:00:00,2016-04-03 02:51:08,1047000/9f9bed5fa00a55d8fcf42c59417291a5-d.jpg,,
15309234,Maps and the Internet,,International Cartographic Association) (Vol 1,,M.P. Peterson,2003,,Pergamon,,470,0,English,,,0,"0080442013,9780080442013",,,,,,,,,,,0,,,,,,,0,20050766,pdf,de60872e43f66bc9246d576c92ec0c1b,,,de60872e43f66bc9246d576c92ec0c1b.pdf,0,2000-01-01 01:00:00,2016-04-03 02:51:08,1047000/de60872e43f66bc9246d576c92ec0c1b-d.jpg,,
15309235,Undue Influence: How the Wall Street Elite Puts the Financial System at Risk,,,,Charles R. Geisst,2004,1,Wiley,,330,0,English,,,0,"0471656631,9780471656630",,,,,,,,,,,0,,,,,,,0,5853112,pdf,a26732e34b72f16c4b72d924d3993249,,,a26732e34b72f16c4b72d924d3993249.pdf,0,2000-01-01 01:00:00,2016-04-03 02:51:08,1047000/a26732e34b72f16c4b72d924d3993249-d.jpg,,
15309236,Cesar Millan's Short Guide to a Happy Dog: 98 Essential Tips and Techniques,,,,Cesar Millan,2013,1,National Geographic,,208,0,English,,,0,"1426211902,9781426211904",,,,,,,,,,,0,,,,,,,,6559523,epub,7c0294a45707e79ae08e34c6238f55e5,,,7c0294a45707e79ae08e34c6238f55e5.epub,0,2000-01-01 01:00:00,2016-04-03 02:51:08,1047000/7c0294a45707e79ae08e34c6238f55e5-d.jpg,,
15309237,The Nobel Prize Winning Discoveries in Infectious Diseases,,,,"David Rifkind, Geraldine Freeman",2005,1,Academic Press,,160,0,English,,,0,"0123693535,9780123693532",,,,,,,,,,,0,,,,,,,0,3380355,pdf,9f0514781000a82bc622fc4ef7429a64,,,9f0514781000a82bc622fc4ef7429a64.pdf,0,2000-01-01 01:00:00,2016-04-03 02:51:08,1047000/9f0514781000a82bc622fc4ef7429a64-d.jpg,,
15309238,Perspectives on Vasopressin,,,,John Francis Laycock,2009,illustrated edition,World Scientific Publishing Company,,360,0,English,,,0,"1848162944,9781848162945",,,,,,,,,,,0,,,,,,,0,3533772,pdf,83594ed1810ded044cff869d4ebac5d4,,,83594ed1810ded044cff869d4ebac5d4.pdf,0,2000-01-01 01:00:00,2016-04-03 02:51:08,1047000/83594ed1810ded044cff869d4ebac5d4-d.jpg,,
15309239,Self-Coaching: How to Heal Anxiety and Depression,,,,Joseph J. Luciani Ph.D.,2001,1,Wiley,,272,0,English,,,0,"0471387371,9780471387374",,,,,,,,,,,0,,,,,,,0,3422975,pdf,2a650bdd8b74fb33cb570e02dc654492,,,2a650bdd8b74fb33cb570e02dc654492.pdf,0,2000-01-01 01:00:00,2016-04-03 02:51:08,1047000/2a650bdd8b74fb33cb570e02dc654492-d.jpg,,
15309240,Design by Nature: Using Universal Forms and Principles in Design,,Voices That Matter,,Maggie Macnab,2011,1,New Riders,,312,0,English,,,0,"0321747763,9780321747761",,,,,,,,,,,0,,,,,,,0,19767737,pdf,a9fde115b8c5030a8a643c0201bc7466,,,a9fde115b8c5030a8a643c0201bc7466.pdf,0,2000-01-01 01:00:00,2016-04-03 02:51:08,1047000/a9fde115b8c5030a8a643c0201bc7466-d.jpg,,
15309241,"Photoreading, 3rd Edition",,,,Paul R. Scheele,2000,3rd,Learning Strategies Corp,,164,0,English,,,0,"0925480533,9780925480538",,,,,,,,,,,0,,,,,,,0,7602577,pdf,6f698149106e1d1b0a8e3a136a70dfcb,,,6f698149106e1d1b0a8e3a136a70dfcb.pdf,0,2000-01-01 01:00:00,2016-04-03 02:51:08,1047000/6f698149106e1d1b0a8e3a136a70dfcb-d.jpg,,
15309242,The Search for Anne Perry,,,,Joanne Drayton,2012,,HarperCollins Publishers (New Zealand),,250,0,English,,,0,"1869508882,9781869508883",,,,,,,,,,,0,,,,,,,,5788287,epub,c9935abc22a019fc6c5dc8630e7f1253,,,c9935abc22a019fc6c5dc8630e7f1253.epub,0,2000-01-01 01:00:00,2016-04-03 02:51:08,1047000/c9935abc22a019fc6c5dc8630e7f1253-d.jpg,,
15309243,Introduction to Medical Imaging Management,,,,Bernard Rubenzer,2013,1,CRC Press,,200,0,English,,,0,"1439891834,9781439891834",,,,,,,,,,,0,,,,,,,0,3211411,pdf,143fe0d1cc524238046db838de96ef71,,,143fe0d1cc524238046db838de96ef71.pdf,0,2000-01-01 01:00:00,2016-04-03 02:51:08,1047000/143fe0d1cc524238046db838de96ef71-d.jpg,,
15309244,The Ashes Diary,,,,Michael Clarke,2013,,Macmillan Australia,,173,0,English,,,0,",",,B00BP45N66,,,,,,,,,0,,,,,,,,2687586,epub,b23cbaa8ddaa2b06605423b26a82dfa5,,,b23cbaa8ddaa2b06605423b26a82dfa5.epub,0,2000-01-01 01:00:00,2016-04-03 02:51:08,1047000/b23cbaa8ddaa2b06605423b26a82dfa5-d.jpg,,
15309245,Strange Attractors: Poems of Love and Mathematics,,,,"Sarah Glaz, Joanne Growney",2008,,A K Peters/CRC Press,,250,0,English,,,0,"1568813414,9781568813417",,,,,,,,,,,0,,,,,,,0,3404256,pdf,d5254ed4a91568fc0eb516d1b95ffbd1,,,d5254ed4a91568fc0eb516d1b95ffbd1.pdf,0,2000-01-01 01:00:00,2016-04-03 02:51:08,1047000/d5254ed4a91568fc0eb516d1b95ffbd1-d.jpg,,
15309246,"Server-Side Flash: Scripts, Databases, and Dynamic Development",,,,"William B. Sanders, Mark Winstanley",2001,,Wiley,,458,0,English,,,0,"0764535986,9780764535987",,,,,,,,,,,0,,,,,,,0,7806762,pdf,13f645c75fcef6c45c0ef28ffaaddea2,,,13f645c75fcef6c45c0ef28ffaaddea2.pdf,0,2000-01-01 01:00:00,2016-04-03 02:51:08,1047000/13f645c75fcef6c45c0ef28ffaaddea2-d.jpg,,
15309247,Great Animal Orchestra,,,,Bernard L. Krause,2012,,Profile Books(GB),,288,0,English,,,0,"1781250006,9781781250006",,,,,,,,,,,0,,,,,,,,8092901,epub,413f44c99ecb886b473ad21c8d95c6b1,,,413f44c99ecb886b473ad21c8d95c6b1.epub,0,2000-01-01 01:00:00,2016-04-03 02:51:08,1047000/413f44c99ecb886b473ad21c8d95c6b1-d.jpg,,
15309248,Alfresco 3 Enterprise Content Management Implementation,,,,"Munwar Shariff, Amita Bhandari, Vinita Choudhary, Pallika Majumdar",2009,2nd edition,Packt Publishing,,600,0,English,,,0,"1847197361,9781847197368",,,,,,,,,,,0,,,,,,,0,13666024,pdf,1b026778ef09f0fb4c8f8eb284afdee2,,,1b026778ef09f0fb4c8f8eb284afdee2.pdf,0,2000-01-01 01:00:00,2016-04-03 02:51:08,1047000/1b026778ef09f0fb4c8f8eb284afdee2-d.jpg,,
15309249,The Cambridge Introduction to Emily Dickinson,,Cambridge Introductions to Literature,,Wendy Martin,2007,1,Cambridge University Press,,160,0,English,,,0,"0521672708,9780521672702",,,,,,,,,,,0,,,,,,,0,3493507,pdf,22095f97e108f543ed396de693a224d9,,,22095f97e108f543ed396de693a224d9.pdf,0,2000-01-01 01:00:00,2016-04-03 02:51:08,1047000/22095f97e108f543ed396de693a224d9-d.jpg,,
15309250,Pattern Theory: The Stochastic Analysis of Real-World Signals,,Applying Mathematics,,"David Mumford, Agnès Desolneux",2010,,A K Peters/CRC Press,,375,0,English,,,0,"1568815794,9781568815794",,,,,,,,,,,0,,,,,,,0,6797776,pdf,432ba931e9c7a0971792b5c94c306ef8,,,432ba931e9c7a0971792b5c94c306ef8.pdf,0,2000-01-01 01:00:00,2016-04-03 02:51:08,1047000/432ba931e9c7a0971792b5c94c306ef8-d.jpg,,
15309251,Google SketchUp for Game Design: Beginner's Guide,,,,Robin de Jongh,2011,,Packt Publishing,,270,0,English,,,0,"1849691347,9781849691345",,,,,,,,,,,0,,,,,,,0,11865799,pdf,907e66add8e112775bf69ecf4d36e045,,,907e66add8e112775bf69ecf4d36e045.pdf,0,2000-01-01 01:00:00,2016-04-03 02:51:08,1047000/907e66add8e112775bf69ecf4d36e045-d.jpg,,
15309252,The Persistence of the Palestinian Question: Essays on Zionism and the Palestinians,,,,Joseph Massad,2006,1,Routledge,,232,0,English,,,0,"0415770092,9780415770095",,,,,,,,,,,0,,,,,,,0,3221094,pdf,d86a4c8c9a0c208824e3aaced6b22fc6,,,d86a4c8c9a0c208824e3aaced6b22fc6.pdf,0,2000-01-01 01:00:00,2016-04-03 02:51:08,1047000/d86a4c8c9a0c208824e3aaced6b22fc6-d.jpg,,
15309253,Pharmacovigilance Medical Writing: A Good Practice Guide,,,,Justina Orleans-Lindsay,2012,2,Wiley-Blackwell,,286,0,English,,,0,"1119967260,9781119967262",,,,,,,,,,,0,,,,,,,0,3342844,pdf,efc138965b22e1692a5217e17f503cf7,,,efc138965b22e1692a5217e17f503cf7.pdf,0,2000-01-01 01:00:00,2016-04-03 02:51:08,1047000/efc138965b22e1692a5217e17f503cf7-d.jpg,,
15309254,Psychiatric and Cognitive Disorders in Parkinson's Disease,,Psychiatry and Medicine,,"Sergio E. Starkstein, Marcelo Merello",2002,1,Cambridge University Press,,240,0,English,,,0,"0521663059,9780521663052",,,,,,,,,,,0,,,,,,,0,3183726,pdf,2034eac7e26b81c1a35c1a6ac7e1f002,,,2034eac7e26b81c1a35c1a6ac7e1f002.pdf,0,2000-01-01 01:00:00,2016-04-03 02:51:08,1047000/2034eac7e26b81c1a35c1a6ac7e1f002-d.jpg,,
15309255,You Don't LOOK Sick!: Living Well with Invisible Chronic Illness,,,,"Joy H. Selak, Steven S. Overman",2005,1,CRC Press,,145,0,English,,,0,"0789024497,9780789024497",,,,,,,,,,,0,,,,,,,0,3996561,pdf,8461788f32f1f1199b169300237e8eaa,,,8461788f32f1f1199b169300237e8eaa.pdf,0,2000-01-01 01:00:00,2016-04-03 02:51:08,1047000/8461788f32f1f1199b169300237e8eaa-d.jpg,,
15309256,"Souvenir Nation: Relics, Keepsakes, and Curios from the Smithsonian's National Museum of American History",,,,William L. Bird  Jr.,2013,1,Princeton Architectural Press,,176,0,English,,,0,"1616891351,9781616891350",,,,,,,,,,,0,,,,,,,0,5602455,pdf,1ce698da24c0470df82a4077e4c97189,,,1ce698da24c0470df82a4077e4c97189.pdf,0,2000-01-01 01:00:00,2016-04-03 02:51:08,1047000/1ce698da24c0470df82a4077e4c97189-d.jpg,,
15309257,"Pencil, Paper, Draw!®: Animals",,,,Steve Harpster,2006,,Sterling,,64,0,English,,,0,"1402729723,9781402729720",,,,,,,,,,,0,,,,,,,0,10886785,pdf,9b85697a3a64b67ac68395aa726a248b,,,9b85697a3a64b67ac68395aa726a248b.pdf,0,2000-01-01 01:00:00,2016-04-03 02:51:08,1047000/9b85697a3a64b67ac68395aa726a248b-d.jpg,,
15309258,The 100: Count ONLY Sugar Calories and Lose Up to 18 Lbs. in 2 Weeks,,,,Jorge Cruise,2013,1,William Morrow,,288,0,English,,,0,"0062227076,9780062227072",,,,,,,,,,,0,,,,,,,,2666587,epub,429577ae626cd4c21a3d4607b929dbbd,,,429577ae626cd4c21a3d4607b929dbbd.epub,0,2000-01-01 01:00:00,2016-04-03 02:51:08,1047000/429577ae626cd4c21a3d4607b929dbbd-d.jpg,,
15309259,Getting Started in Exchange Traded Funds,,ETFs,,Todd Lofton,2007,1,Wiley,,287,0,English,,,0,"047004358X,9780470043585",,,,,,,,,,,0,,,,,,,0,4013521,pdf,5402cf540cb1eddaa96fea2b5ca0b6a6,,,5402cf540cb1eddaa96fea2b5ca0b6a6.pdf,0,2000-01-01 01:00:00,2016-04-03 02:51:08,1047000/5402cf540cb1eddaa96fea2b5ca0b6a6-d.jpg,,
15309260,"Cancer-Associated Thrombosis: New Findings in Translational Science, Prevention, and Treatment",,,,"Alok A. Khorana, Charles W. Francis",2007,1,CRC Press,,296,0,English,,,0,"142004799X,9781420047998",,,,,,,,,,,0,,,,,,,0,3342582,pdf,a6c1b2c5eb64a5f2bd134e9935a4a623,,,a6c1b2c5eb64a5f2bd134e9935a4a623.pdf,0,2000-01-01 01:00:00,2016-04-03 02:51:08,1047000/a6c1b2c5eb64a5f2bd134e9935a4a623-d.jpg,,
15309261,QuickBooks 2009 All-in-One For Dummies,,,,Stephen L. Nelson,2009,5,For Dummies,,624,0,English,,,0,"0470396520,9780470396520",,,,,,,,,,,0,,,,,,,0,20751240,pdf,469d52036aac61f9da25d52f273f7873,,,469d52036aac61f9da25d52f273f7873.pdf,0,2000-01-01 01:00:00,2016-04-03 02:51:08,1047000/469d52036aac61f9da25d52f273f7873-d.jpg,,
15309262,WrestleCrap: The Very Worst of Pro Wrestling,,WrestleCrap series,,"R. D. Reynolds, Randy Baer",2003,,ECW Press,,160,0,English,,,0,"1550225847,9781550225846",,,,,,,,,,,0,,,,,,,,5522885,mobi,5daf6e1800a4b857c4ada65a788e9e83,,,5daf6e1800a4b857c4ada65a788e9e83.mobi,0,2000-01-01 01:00:00,2016-04-03 02:51:08,1047000/5daf6e1800a4b857c4ada65a788e9e83-d.jpg,,
15309263,Advances in Intelligence and Security Informatics,,Intelligent Systems,,"Wenji Mao, Fei-Yue Wang",2012,1,Academic Press,,116,0,English,,,0,"0123972000,9780123972002",,,,,,,,,,,0,,,,,,,0,3160455,pdf,cb3e518a3b7e54b754cfeed3ecd9a7af,,,cb3e518a3b7e54b754cfeed3ecd9a7af.pdf,0,2000-01-01 01:00:00,2016-04-03 02:51:08,1047000/cb3e518a3b7e54b754cfeed3ecd9a7af-d.jpg,,
15309264,Hyperactivity and Attention Disorders of Childhood,,Cambridge Child and Adolescent Psychiatry,,Seija Sandberg,2002,2,Cambridge University Press,,520,0,English,,,0,"0521789613,9780521789615",,,,,,,,,,,0,,,,,,,0,3191257,pdf,dd7ce2490108a66974c9ccd850fd3f95,,,dd7ce2490108a66974c9ccd850fd3f95.pdf,0,2000-01-01 01:00:00,2016-04-03 02:51:08,1047000/dd7ce2490108a66974c9ccd850fd3f95-d.jpg,,
15309265,Solid Fuels and Heavy Hydrocarbon Liquids: Thermal Characterisation,,,,"Rafael Kandiyoti, Alan Herod, Keith Bartle",2006,1,Elsevier Science,,364,0,English,,,0,"0080444865,9780080444864",,,,,,,,,,,0,,,,,,,0,4010517,pdf,6434cb0ac1a6acfdea0281cfc12b0d6e,,,6434cb0ac1a6acfdea0281cfc12b0d6e.pdf,0,2000-01-01 01:00:00,2016-04-03 02:51:08,1047000/6434cb0ac1a6acfdea0281cfc12b0d6e-d.jpg,,
15309266,Chemical Elements,,,,"David E., PH.D. Newton",2010,2,UXL,,688,0,English,,,0,"1414476086,9781414476087",,,,,,,,,,,0,,,,,,,0,28121189,pdf,3afc64cbf690aea833f00c6719a5a313,,,3afc64cbf690aea833f00c6719a5a313.pdf,0,2000-01-01 01:00:00,2016-04-03 02:51:08,1047000/3afc64cbf690aea833f00c6719a5a313-d.jpg,,
15309267,Becoming a Mathematician: An international perspective,,Mathematics Education Library,,"Leigh N Wood, Peter Petocz, Anna Reid",2012,2012,Springer,,200,0,English,,,0,"9400729839,9789400729834",,,,,,,,,,,0,,,,,,,0,3302041,pdf,fb58384d809ba1566b49117610364ea0,,,fb58384d809ba1566b49117610364ea0.pdf,0,2000-01-01 01:00:00,2016-04-03 02:51:08,1047000/fb58384d809ba1566b49117610364ea0-d.jpg,,
15309268,Medical Terminology for Health Professions,,with Studyware CD-ROM) (Flexible Solutions - Your Key to Success,,"Ann Ehrlich, Carol L. Schroeder",2012,7,Cengage Learning,,688,0,English,,,0,"1111543275,9781111543273",,,,,,,,,,,0,,,,,,,0,29497374,pdf,93e48d42594350531e2d44fca0ff6645,,,93e48d42594350531e2d44fca0ff6645.pdf,0,2000-01-01 01:00:00,2016-04-03 02:51:08,1047000/93e48d42594350531e2d44fca0ff6645-d.jpg,,
15309269,Central Banking in the Twentieth Century,,,,John Singleton,2010,,Cambridge University Press,,350,0,English,,,0,"0521899095,9780521899093",,,,,,,,,,,0,,,,,,,0,2369302,pdf,f6da03590597b6fd582c74a7227c4d50,,,f6da03590597b6fd582c74a7227c4d50.pdf,0,2000-01-01 01:00:00,2016-04-03 02:51:08,1047000/f6da03590597b6fd582c74a7227c4d50-d.jpg,,
15309270,Firearms Assembly 3: The NRA Guide to Rifles and Shotguns,,,,,1972,,National Rifle Association,,0,0,English,,,0,"0935998322,9780935998320",,,,,,,,,,,0,,,,,,,0,118247590,pdf,0227b83abb6a5ee5730cde8ae84b3314,,,0227b83abb6a5ee5730cde8ae84b3314.pdf,0,2000-01-01 01:00:00,2016-04-03 02:51:08,1047000/0227b83abb6a5ee5730cde8ae84b3314-d.jpg,,
15309271,"Six Degrees of Social Influence: Science, Application, and the Psychology of Robert Cialdini",,,,"Douglas T. Kenrick, Noah J. Goldstein, Sanford L. Braver",2012,1,"Oxford University Press, USA",,208,0,English,,,0,"0199743053,9780199743056",,,,,,,,,,,0,,,,,,,0,3400580,pdf,4d4d40ec80372aa9fc7d906366e3cf6f,,,4d4d40ec80372aa9fc7d906366e3cf6f.pdf,0,2000-01-01 01:00:00,2016-04-03 02:51:08,1047000/4d4d40ec80372aa9fc7d906366e3cf6f-d.jpg,,
15309272,"Design Elements, Typography Fundamentals: A Graphic Style Manual for Understanding How Typography Affects Design",,,,Kristin Cullen,2012,,Rockport Publishers,,160,0,English,,,0,"1592537677,9781592537679",,,,,,,,,,,0,,,,,,,0,11156551,pdf,aec24848008d92a0b5cca55806f202aa,,,aec24848008d92a0b5cca55806f202aa.pdf,0,2000-01-01 01:00:00,2016-04-03 02:51:08,1047000/aec24848008d92a0b5cca55806f202aa-d.jpg,,
15309273,Christian Identity,,Studies in Reformed Theology,,E. Van Der Borght,2008,,Brill Academic Pub,,514,0,English,,,0,"9004158065,9789004158061",,,,,,,,,,,0,,,,,,,0,3640989,pdf,1b4cf7e3cae13739a71027304eb4373e,,,1b4cf7e3cae13739a71027304eb4373e.pdf,0,2000-01-01 01:00:00,2016-04-03 02:51:08,1047000/1b4cf7e3cae13739a71027304eb4373e-d.jpg,,
15309274,"The Cambridge History of the Book in Britain, Vol. 6: 1830-1914",,Volume 6,,David McKitterick,2009,1,Cambridge University Press,,826,0,English,,,0,"0521866243,9780521866248",,,,,,,,,,,0,,,,,,,0,5563005,pdf,49a628cd79e48a8e4047fbb0f50dcb6c,,,49a628cd79e48a8e4047fbb0f50dcb6c.pdf,0,2000-01-01 01:00:00,2016-04-03 02:51:08,1047000/49a628cd79e48a8e4047fbb0f50dcb6c-d.jpg,,
15309275,Earth: An Alien Enterprise: The Shocking Truth Behind the Greatest Cover-Up in Human History,,,,Timothy Good,2013,1,Pegasus,,352,0,English,,,0,"1605984868,9781605984865",,,,,,,,,,,0,,,,,,,,4997450,epub,7cb7c653c9ac53b22c84caa5b17da8e2,,,7cb7c653c9ac53b22c84caa5b17da8e2.epub,0,2000-01-01 01:00:00,2016-04-03 02:51:08,1047000/7cb7c653c9ac53b22c84caa5b17da8e2-d.jpg,,
15309276,Fashion: A Very Short Introduction,,,,Rebecca Arnold,2009,1st,Oxford University Press,,144,0,English,,,0,"0199547904,9780199547906",,,,,,,,,,,0,,,,,,,0,3263171,pdf,e22626692520785800f70f1471167f32,,,e22626692520785800f70f1471167f32.pdf,0,2000-01-01 01:00:00,2016-04-03 02:51:08,1047000/e22626692520785800f70f1471167f32-d.jpg,,
15309277,"The Human Hippocampus: Functional Anatomy, Vascularization and Serial Sections with MRI",,,,"Henri M. Duvernoy, Francoise Cattin, Pierre-Yves Risold",2013,4th ed. 2013,Springer,,250,0,English,,,0,"3642336027,9783642336027",,,,,,,,,,,0,,,,,,,0,41915250,pdf,efb10b45e52e82a76d8a48683d8089e6,,,efb10b45e52e82a76d8a48683d8089e6.pdf,0,2000-01-01 01:00:00,2016-04-03 02:51:08,1047000/efb10b45e52e82a76d8a48683d8089e6-d.jpg,,
15309278,Nanotechnology and Global Sustainability,,Perspectives in Nanotechnology,,"Donald Maclurcan, Natalia Radywyl",2011,,CRC Press,,335,0,English,,,0,"1439855765,9781439855768",,,,,,,,,,,0,,,,,,,0,3726907,pdf,082e0d43ae3d53bca1197f1c70d485f3,,,082e0d43ae3d53bca1197f1c70d485f3.pdf,0,2000-01-01 01:00:00,2016-04-03 02:51:08,1047000/082e0d43ae3d53bca1197f1c70d485f3-d.jpg,,
15309279,"Climate, Affluence, and Culture",,Culture and Psychology,,Evert Van de Vliert,2008,,Cambridge University Press,,264,0,English,,,0,"0521517877,9780521517874",,,,,,,,,,,0,,,,,,,0,3207450,pdf,1003fe57096b2c0264afad65ec986f1f,,,1003fe57096b2c0264afad65ec986f1f.pdf,0,2000-01-01 01:00:00,2016-04-03 02:51:08,1047000/1003fe57096b2c0264afad65ec986f1f-d.jpg,,
15309280,Not For Tourists Guide to New York City 2013,,,,Not For Tourists,2012,1,Not For Tourist,,336,0,English,,,0,"1620870835,9781620870839",,,,,,,,,,,0,,,,,,,,12970505,epub,6a808b84c95512b9168364a29e3bbe70,,,6a808b84c95512b9168364a29e3bbe70.epub,0,2000-01-01 01:00:00,2016-04-03 02:51:08,1047000/6a808b84c95512b9168364a29e3bbe70-d.jpg,,
15309281,Telemorphosis: Theory in the Era of Climate Change,,Volume 1,,Tom Cohen,2012,,"MPublishing, University of Michigan Library",,312,0,English,,,0,"1607852373,9781607852377",,,,,,,,,,,0,,,,,,,0,3361289,pdf,d5607f548b469ff3785517864cfb99ef,,,d5607f548b469ff3785517864cfb99ef.pdf,0,2000-01-01 01:00:00,2016-04-03 02:51:08,1047000/d5607f548b469ff3785517864cfb99ef-d.jpg,,
15309282,"Akhenaten, the Heretic King",,,,Donald B. Redford,1984,First Edition,Princeton Univ Pr,,288,0,English,,,0,"0691035679,9780691035673",,,,,,,,,,,0,,,,,,,0,117820893,pdf,67410eb26f909f63a4465ad7f5b13db0,,,67410eb26f909f63a4465ad7f5b13db0.pdf,0,2000-01-01 01:00:00,2016-04-03 02:51:08,1047000/67410eb26f909f63a4465ad7f5b13db0-d.jpg,,
15309283,Learn Short Row Slip Stitch,,Annie's Crochet,,Nancy Nehring,2013,,Annie's,,20,0,English,,,0,"1596357606,9781596357600",,,,,,,,,,,0,,,,,,,0,3838591,pdf,89ad63272d4e1dda1d7b3e66cd1d974e,,,89ad63272d4e1dda1d7b3e66cd1d974e.pdf,0,2000-01-01 01:00:00,2016-04-03 02:51:08,1047000/89ad63272d4e1dda1d7b3e66cd1d974e-d.jpg,,
15309284,Inside Seka,,,,"Seka, Jim Norton, Kerry Zukus",2013,,BearManor Media,,352,0,English,,,0,"1593932723,9781593932725",,,,,,,,,,,0,,,,,,,,15318135,mobi,468f369a643af640554eda73d4b0b50d,,,468f369a643af640554eda73d4b0b50d.mobi,0,2000-01-01 01:00:00,2016-04-03 02:51:08,1047000/468f369a643af640554eda73d4b0b50d-d.jpg,,
15309285,"Seriously Simple Parties: Recipes, Menus & Advice for Effortless Entertaining",,,,"Diane Rossen Worthington, Yvonne Duivenvoorden",2012,,Chronicle Books,,224,0,English,,,0,"0811872572,9780811872577",,,,,,,,,,,0,,,,,,,,10475338,mobi,8e1a92a2ed534723d5855db01b9738c7,,,8e1a92a2ed534723d5855db01b9738c7.mobi,0,2000-01-01 01:00:00,2016-04-03 02:51:08,1047000/8e1a92a2ed534723d5855db01b9738c7-d.jpg,,
15309286,Phallic Frenzy: Ken Russell and His Films,,Cappella Books,,Joseph Lanza,2007,,Chicago Review Press,,384,0,English,,,0,"1556526695,9781556526695",,,,,,,,,,,0,,,,,,,0,5191076,pdf,7ceddc5d88f738ac28644c9a37527e16,,,7ceddc5d88f738ac28644c9a37527e16.pdf,0,2000-01-01 01:00:00,2016-04-03 02:51:08,1047000/7ceddc5d88f738ac28644c9a37527e16-d.jpg,,
15309287,Evangelicals and Israel: The Story of American Christian Zionism,,,,Stephen Spector,2008,,"Oxford University Press, USA",,352,0,English,,,0,"0195368029,9780195368024",,,,,,,,,,,0,,,,,,,0,4383530,pdf,db57fffed26c59949ef1e850fe023176,,,db57fffed26c59949ef1e850fe023176.pdf,0,2000-01-01 01:00:00,2016-04-03 02:51:08,1047000/db57fffed26c59949ef1e850fe023176-d.jpg,,
15309288,"Professioneller Börsenhandel: Zusammenhänge erkennen, Verluste verkraften, solide Gewinne machen",,,,Erdal Cene,2013,,FinanzBuch Verlag,,552,0,Deutsch,,,0,",",,,,,,,,,,,0,,,,,,,1,15849523,pdf,ef8b5e85591381fc0c1ef0f7aa7a8977,,,Professioneller Börsenhandel,0,2000-01-01 01:00:00,2016-04-03 02:51:08,1047000/ef8b5e85591381fc0c1ef0f7aa7a8977-d.jpg,,
15309289,Die Kunst des höflichen Reisens: Gebrauchsanleitung für den gepflegten Umgang unterwegs,,,,"Moritz Freiherr Knigge, Jörg Steinleitner",2013,,mvg Verlag,,224,0,Deutsch,,,0,"3868824634,9783868824636",,,,,,,,,,,0,,,,,,,1,1307897,pdf,1a32556618cb91882a3bc9a93e585c3a,,,Die Kunst des höflichen Reisens,0,2000-01-01 01:00:00,2016-04-03 02:51:08,1047000/1a32556618cb91882a3bc9a93e585c3a-d.jpg,,
15309290,Алгоритмы и рекурсивные функции,,,,Мальцев А. И.,1986,2,Наука,Москва,368,0,Russian,,,0,,,,,,,,,,,,600,,,,,,,1,6186633,djvu,8168b23df8b0c6464c50cc221aeb23f3,,,Мальцев А. И. - Алгоритмы и рекурсивные функции (1986),0,2000-01-01 01:00:00,2016-04-03 02:51:08,1047000/8168b23df8b0c6464c50cc221aeb23f3-g.jpg,,
15309291,Surgery on Compact Manifolds,,Mathematical Surveys and Monographs,,"C. T. C. Wall, A. A. Ranicki",1999,2,American Mathematical Society,,315,0,English,121,,0,"0821809423,9780821809426",,,,,,,,,,,0,,,,1,0,1,1,2321470,pdf,771864b1acd887732adbb8f13ff519d1,,,surgery-on-compact-manifolds-wall-2nd-ed,0,2000-01-01 01:00:00,2016-04-03 02:51:08,1047000/771864b1acd887732adbb8f13ff519d1-d.jpg,,
15309292,A New Grammar of Biblical Hebrew,,,,Frederic Clarke Putnam,2010,annotated edition,Sheffield Phoenix Press,,xx+306,0,English,314,,0,"1907534032, 9781907534034",,,,,,,,,,,0,1,1,0,1,0,1,,2001736,pdf,f13be3b7b12bfa59886f3ad2839dfe73,,,Putnam_A New Grammar of Biblical Hebrew,0,2000-01-01 01:00:00,2016-04-03 02:51:08,1047000/f13be3b7b12bfa59886f3ad2839dfe73-d.jpg,,
15309293,The King of Infinite Space: Euclid and His Elements,,,,David Berlinski,2013,,Basic Books,,192,0,English,113,,0,"046501481X,9780465014811",,,,,,,,,,,0,,,,,,,,591057,epub,37b3b1f73ee8f98b4b4e16cb5fd28d84,,,the_king_of_infinite_space_berlinski_david,0,2000-01-01 01:00:00,2016-04-03 02:51:08,1047000/37b3b1f73ee8f98b4b4e16cb5fd28d84-d.jpg,,
15309294,"0,001 % : L'expérience de la Réalité",,,,Marc Auburn,2013,,Les Editions Atlantes,,400,0,Français,209,,0,"2362770133,9782362770135",,,,,,,,,,,0,,,,,,,1,3363261,pdf,59df735a0e80acdc76b142cda4d44b1b,,,"0,001 % - Marc AUBURN",0,2000-01-01 01:00:00,2016-04-03 02:51:08,1047000/59df735a0e80acdc76b142cda4d44b1b-d.jpg,,
15309295,Μαρξισμός και ιστορία. Βάση και Εποικοδόμημα,,,,Chris Harman,2009,,Μαρξιστικό Βιβλιοπωλείο,,0,0,Greek,,,0,,,,,,,,,,,,600,,,0,,1,0,1,583358,djvu,a8ac56b6410be150488272b0108463a7,,,bash_kai_epoikodomhma,0,2000-01-01 01:00:00,2016-04-03 02:51:08,1047000/a8ac56b6410be150488272b0108463a7-g.jpg,,
15309296,Μαρξισμός και ιστορία. Βάση και Εποικοδόμημα,,,,Chris Harman,2009,,Μαρξιστικό Βιβλιοπωλείο,,74,0,Greek,,,0,,,,,,,,,,,,600,,,0,,1,0,1,1816854,pdf,f8286985e751f3ca402c8f46dbb11977,,,bash_kai_epoikodomhma,0,2000-01-01 01:00:00,2016-04-03 02:51:08,1047000/f8286985e751f3ca402c8f46dbb11977-g.jpg,,
15309297,Introduction to the Theory of Partial Differential Equations,,,,M. G. Smith,1967,,Van Nostrand Reinhold,,226,0,English,125,,0,,,,,,,,,,,,600,,,,,1,,1,6424465,djvu,f89d01ffc4ee515b15251b89f4b26352,,,Smith - PDE,0,2000-01-01 01:00:00,2016-04-03 02:51:08,1047000/f89d01ffc4ee515b15251b89f4b26352-g.jpg,,
15309298,Chaucer's Canterbury Tales Selected An Interlinear Translation,,,,Vincent F. Hopper,1963,19th,"Barron's Educational Series, Inc.",,448,0,English,,,0,",",,,,,,,,,,,600,,1,,,1,1,1,7974438,djvu,ddc6d9e4098f37c49da0430044ba1882,,,"Chaucer.Hopper trans.Canterbury Tales (selected, interlinear)",0,2000-01-01 01:00:00,2016-04-03 02:51:08,1047000/ddc6d9e4098f37c49da0430044ba1882-d.jpg,,
15309299,Історія України в народних думах та піснях,,,,Григор'єв-Наш,1993,,Веселка,Київ,0,0,Ukrainian,,toloka.hurtom.com,0,5-301-01294-0,,,,82.3Ук,,,,,,,0,,,,,,,0,15380965,djvu,ced8d307416501143bbd407a1b6d7b65,,,Історія України в народних думах та піснях,0,2000-01-01 01:00:00,2016-04-03 02:51:08,1047000/ced8d307416501143bbd407a1b6d7b65-g.jpg,,
15309300,Predavanja iz splošnega jezikoslovja,,,,Ferdinand de Saussure,1997,,ISH Fakulteta za podiplomski humanistični študij,Ljubljana,304,0,Slovene,314,,0,961-6192-14-0,,,,,,,,,,,0,,,,1,1,1,1,4058794,pdf,bc436c84f775c40e21ce73023f9320d9,,,"Saussure, Ferdinand de - Predavanja iz splošnega jezikoslovja",0,2000-01-01 01:00:00,2016-04-03 02:51:08,1047000/bc436c84f775c40e21ce73023f9320d9-g.jpg,,
15309301,Quasigroups and loops: Introduction,,"Sigma Serif's in Pure  Mathematics,  7",,Hala O. Pflugfelder,1990,,Heldermann Verlag,,0,0,English,114,,0,3-88538-007-2,,,,,,,,,,,0,,,,,,,1,2798838,djvu,ab85feaeb0604a845d83ba8838583dc0,,,Pflugfelder-Quasigroups_and_Loops,0,2000-01-01 01:00:00,2016-04-03 02:51:08,1047000/ab85feaeb0604a845d83ba8838583dc0-g.jpg,,
15309302,Ρατσισμός : Τι είναι και πως παλεύεται,,,,Alex Callinicos (Αλεξ Καλλίνικος),1999,,Εκδόσεις Εργατική Δημοκρατία (Μαρξιστικό Βιβλιοπωλείο),,80,0,Greek,,,0,,,,,,,,,,,,600,,,0,,1,0,1,3163507,pdf,977218dc4da2a8e1f09f0643ba9723e2,,,ratsismos,0,2000-01-01 01:00:00,2016-04-03 02:51:08,1047000/977218dc4da2a8e1f09f0643ba9723e2-g.jpg,,
15309303,Ρατσισμός : Τι είναι και πως παλεύεται,,,,Alex Callinicos (Αλεξ Καλλίνικος),1999,,Εκδόσεις Εργατική Δημοκρατία (Μαρξιστικό Βιβλιοπωλείο),,0,0,Greek,,,0,,,,,,,,,,,,600,,,0,,1,0,1,1040726,djvu,8d9152793370da2dd8e5a34a316b95c7,,,Race_and_Class,0,2000-01-01 01:00:00,2016-04-03 02:51:08,1047000/8d9152793370da2dd8e5a34a316b95c7-g.jpg,,
15309304,Have Your Cake and Vegan Too: 50 Dazzling and Delicious Cake Creations,,,,Kris Holechek Peters,2011,,Ulysses Press,,144,0,English,49,,0,"1569759200,9781569759202",,,,,,,,,,,0,,,,,,,,13912304,epub,e40c6a60f5023b0998afeca8bc1152af,,,have_your_cake_and_vegan_too_holechek_kris,0,2000-01-01 01:00:00,2016-04-03 02:51:08,1047000/e40c6a60f5023b0998afeca8bc1152af-d.jpg,,
15309305,Access 2010 Programmer's Reference,,,,"Teresa Hennig, Rob Cooper, Geoffrey L. Griffith, Jerry Dennison",2010,1,Wrox,,1272,0,English,,,0,"0470591668,9780470591666",,,,,,,,,,,0,,,,,,,0,26122979,pdf,fdaa5b6f89b9d5b2360fc381b38a5808,,,fdaa5b6f89b9d5b2360fc381b38a5808.pdf,0,2000-01-01 01:00:00,2016-04-03 02:51:08,1047000/fdaa5b6f89b9d5b2360fc381b38a5808-d.jpg,,
15309306,"John Ford, Revised and Enlarged edition",,Movie Paperbacks,,Peter Bogdanovich,1978,Expanded,University of California Press,,149,0,English,,,0,"0520034988,9780520034983",,,,,,,,,,,0,,,,,,,0,64117558,pdf,33596de5ce944cadf0379c62f78cefe4,,,33596de5ce944cadf0379c62f78cefe4.pdf,0,2000-01-01 01:00:00,2016-04-03 02:51:08,1047000/33596de5ce944cadf0379c62f78cefe4-d.jpg,,
15309307,Agile Web Development with Rails 4,,Facets of Ruby,,"Sam Ruby, Dave Thomas, David Heinemeier Hansson",2013,4th Revised edition,Pragmatic Bookshelf,,480,0,English,,,0,"1937785564,9781937785567",,,,,,,,,,,0,,,,,,,,5803431,epub,c8b415a406cb0fa44f4e14ceb4622adb,,,c8b415a406cb0fa44f4e14ceb4622adb.epub,0,2000-01-01 01:00:00,2016-04-03 02:51:08,1047000/c8b415a406cb0fa44f4e14ceb4622adb-d.jpg,,
15309308,FTTX Concepts and Applications,,Wiley Series in Telecommunications and Signal Processing,,Gerd Keiser,2006,1,Wiley-IEEE Press,,312,0,English,,,0,"0471704202,9780471704201",,,,,,,,,,,0,,,,,,,0,2261341,pdf,fe4f132985655e4221a85c0c51ca2703,,,fe4f132985655e4221a85c0c51ca2703.pdf,0,2000-01-01 01:00:00,2016-04-03 02:51:08,1047000/fe4f132985655e4221a85c0c51ca2703-d.jpg,,
15309309,Carlo Tresca: Portrait of a Rebel,,Italian and Italian American Studies (Palgrave Hardcover),,Nunzio Pernicone,2005,,Palgrave Macmillan,,384,0,English,,,0,"1403964785,9781403964786",,,,,,,,,,,0,,,,,,,0,3350072,pdf,1606095c743a94bf0aa194ba156e38e9,,,1606095c743a94bf0aa194ba156e38e9.pdf,0,2000-01-01 01:00:00,2016-04-03 02:51:08,1047000/1606095c743a94bf0aa194ba156e38e9-d.jpg,,
15309310,"Mathematical Methods in Survival Analysis, Reliability and Quality of Life",,ISTE,,"Catherine Huber, Nikolaos Limnios, Mounir Mesbah, Mikhail Nikulin",2008,1,Wiley-ISTE,,420,0,English,,,0,"1848210108,9781848210103",,,,,,,,,,,0,,,,,,,0,2650325,pdf,19b6028ecd763cf5ac43636042645267,,,19b6028ecd763cf5ac43636042645267.pdf,0,2000-01-01 01:00:00,2016-04-03 02:51:08,1047000/19b6028ecd763cf5ac43636042645267-d.jpg,,
15309311,On the Pulsar,,,,B. B. Kadomsev,2009,,World Scientific Publishing Company,,148,0,English,,,0,"9814289728,9789814289726",,,,,,,,,,,0,,,,,,,0,3373118,pdf,4d0f588a9d6fede553206bf0b373ee56,,,4d0f588a9d6fede553206bf0b373ee56.pdf,0,2000-01-01 01:00:00,2016-04-03 02:51:08,1047000/4d0f588a9d6fede553206bf0b373ee56-d.jpg,,
15309312,Medicinal Cannibalism in Early Modern English Literature and Culture,,Early Modern Cultural Studies,,Louise Noble,2011,,Palgrave Macmillan,,256,0,English,,,0,"0230110274,9780230110274",,,,,,,,,,,0,,,,,,,0,3632044,pdf,b1717131366b44545f55462700417446,,,b1717131366b44545f55462700417446.pdf,0,2000-01-01 01:00:00,2016-04-03 02:51:08,1047000/b1717131366b44545f55462700417446-d.jpg,,
15309313,A Concise Companion to American Studies,,Blackwell Companions in Cultural Studies,,John Carlos Rowe,2010,1st,Wiley-Blackwell,,480,0,English,,,0,"1405109246,9781405109246",,,,,,,,,,,0,,,,,,,0,1669552,pdf,2f02b036ae950f43e4c7bbee2ef73e80,,,2f02b036ae950f43e4c7bbee2ef73e80.pdf,0,2000-01-01 01:00:00,2016-04-03 02:51:08,1047000/2f02b036ae950f43e4c7bbee2ef73e80-d.jpg,,
15309314,A Covert Affair: Julia Child and Paul Child in the OSS,,,,Jennet Conant,2011,First Edition,Simon & Schuster,,395,0,English,,,0,"1439163529,9781439163528",,,,,,,,,,,0,,,,,,,,3333005,mobi,7dee83f5c552c1cb1eda4e0404d8462b,,,7dee83f5c552c1cb1eda4e0404d8462b.mobi,0,2000-01-01 01:00:00,2016-04-03 02:51:08,1047000/7dee83f5c552c1cb1eda4e0404d8462b-d.jpg,,
15309315,Functional Analysis for Probability and Stochastic Processes: An Introduction,,,,Adam Bobrowski,2005,,Cambridge University Press,,406,0,English,,,0,"0521539374,9780521539371",,,,,,,,,,,0,,,,,,,0,2390144,pdf,9fba919571e4dcfac22fab1d7d8648be,,,9fba919571e4dcfac22fab1d7d8648be.pdf,0,2000-01-01 01:00:00,2016-04-03 02:51:08,1047000/9fba919571e4dcfac22fab1d7d8648be-d.jpg,,
15309316,"Life Cycle Engineering of Plastics: Technology, Economy and Environment",,,,"L. Lundquist, Y. Leterrier, P. Sunderland, J.A.E. Månson",2001,1,Elsevier Science,,220,0,English,,,0,"0080438865,9780080438863",,,,,,,,,,,0,,,,,,,0,7490958,pdf,167282fb7be32f2b6d34a2d1ac16ae34,,,167282fb7be32f2b6d34a2d1ac16ae34.pdf,0,2000-01-01 01:00:00,2016-04-03 02:51:08,1047000/167282fb7be32f2b6d34a2d1ac16ae34-d.jpg,,
15309317,Netcat Power Tools,,,,"Jan Kanclirz, Brian Baskin, Thomas Wilhelm",2008,1,Syngress,,260,0,English,,,0,"1597492574,9781597492577",,,,,,,,,,,0,,,,,,,0,10846892,pdf,cb9fbc929277ec1452e35d293f127f07,,,cb9fbc929277ec1452e35d293f127f07.pdf,0,2000-01-01 01:00:00,2016-04-03 02:51:08,1047000/cb9fbc929277ec1452e35d293f127f07-d.jpg,,
15309318,PHP 6/MySQL Programming for the Absolute Beginner,,,,Andrew B. Harris,2008,1,Cengage Learning PTR,,512,0,English,,,0,"1598637983,9781598637984",,,,,,,,,,,0,,,,,,,0,6223816,pdf,c588dfa9e4a0fea384f87563b11d4e42,,,c588dfa9e4a0fea384f87563b11d4e42.pdf,0,2000-01-01 01:00:00,2016-04-03 02:51:08,1047000/c588dfa9e4a0fea384f87563b11d4e42-d.jpg,,
15309319,The Encyclopedia of Martial Arts Movies,,,,"Bill Palmer, Karen Palmer, Ric Meyers",1995,,Scarecrow Press,,485,0,English,,,0,"0810841606,9780810841604",,,,,,,,,,,0,,,,,,,0,45192221,pdf,1d52cd190f7c1ba826d7b225b58cba7a,,,1d52cd190f7c1ba826d7b225b58cba7a.pdf,0,2000-01-01 01:00:00,2016-04-03 02:51:08,1047000/1d52cd190f7c1ba826d7b225b58cba7a-d.jpg,,
15309320,"The Lands of Partitioned Poland, 1795-1918",,History of East Central Europe,,Piotr S. Wandycz,1975,,University of Washington Press,,472,0,English,,,0,"0295953586,9780295953588",,,,,,,,,,,0,,,,,,,0,185010669,pdf,2ce97edc7843121e0d649d18af018b2a,,,2ce97edc7843121e0d649d18af018b2a.pdf,0,2000-01-01 01:00:00,2016-04-03 02:51:08,1047000/2ce97edc7843121e0d649d18af018b2a-d.jpg,,
15309321,The Art of Dialectic between Dialogue and Rhetoric: The Aristotelian Tradition,,Controversies,,Marta Spranzi,2011,,John Benjamins Publishing Company,,252,0,English,,,0,"9027218897,9789027218896",,,,,,,,,,,0,,,,,,,0,3254299,pdf,d1c83e870d8f87c773afa376c2bdc229,,,d1c83e870d8f87c773afa376c2bdc229.pdf,0,2000-01-01 01:00:00,2016-04-03 02:51:08,1047000/d1c83e870d8f87c773afa376c2bdc229-d.jpg,,
15309322,The Politics of the Veil,,Public Square,,Joan Wallach Scott,2007,,Princeton University Press,,224,0,English,,,0,"0691125430,9780691125435",,,,,,,,,,,0,,,,,,,0,5917582,pdf,14b34b6767f1dca9ddece8260db80823,,,14b34b6767f1dca9ddece8260db80823.pdf,0,2000-01-01 01:00:00,2016-04-03 02:51:08,1047000/14b34b6767f1dca9ddece8260db80823-d.jpg,,
15309323,"Measure What Matters: Online Tools For Understanding Customers, Social Media, Engagement, and Key Relationships",,,,Katie Delahaye Paine,2011,1,Wiley,,272,0,English,,,0,"0470920106,9780470920107",,,,,,,,,,,0,,,,,,,0,3305860,pdf,5faf1e0da41508f39e658501f389b5f2,,,5faf1e0da41508f39e658501f389b5f2.pdf,0,2000-01-01 01:00:00,2016-04-03 02:51:08,1047000/5faf1e0da41508f39e658501f389b5f2-d.jpg,,
15309324,Chris & Nancy: The True Story of the Benoit Murder-Suicide and Pro Wrestling's Cocktail of Death,,,,Irvin Muchnick,2009,,ECW Press,,240,0,English,,,0,"1550229028,9781550229028",,,,,,,,,,,0,,,,,,,,4063686,epub,5ef650532affa2da4511930dc32d5f74,,,5ef650532affa2da4511930dc32d5f74.epub,0,2000-01-01 01:00:00,2016-04-03 02:51:08,1047000/5ef650532affa2da4511930dc32d5f74-d.jpg,,
15309325,The Bankers: How the Banks Brought Ireland to Its Knees,,,,Shane Ross,2010,,Penguin Books Ltd,,304,0,English,,,0,"0141044446,9780141044446",,,,,,,,,,,0,,,,,,,,20440863,epub,1f558dbca13e1c91c6e3edea9e4e1825,,,1f558dbca13e1c91c6e3edea9e4e1825.epub,0,2000-01-01 01:00:00,2016-04-03 02:51:08,1047000/1f558dbca13e1c91c6e3edea9e4e1825-d.jpg,,
15309326,The Landscape Urbanism Reader,,,,Charles Waldheim,2006,1st,Princeton Architectural Press,,288,0,English,,,0,"1568984391,9781568984391",,,,,,,,,,,0,,,,,,,0,32354171,pdf,fb76d93e1c12b618cd42dbbf85c01a68,,,fb76d93e1c12b618cd42dbbf85c01a68.pdf,0,2000-01-01 01:00:00,2016-04-03 02:51:08,1047000/fb76d93e1c12b618cd42dbbf85c01a68-d.jpg,,
15309327,Ο ρόλος της εργασίας στην εξανθρώπιση του πιθήκου. Ο Ένγκελς και η καταγωγή της ανθρώπινης κοινωνίας,,,,"Φρίντριχ Ένγκελς, Κρις Χάρμαν, Μετάφραση: Κώστας Πίττας",2011,,"Μαρξιστικό Βιβλιοπωλείο,",,164,0,Greek,,,0,,,,,,,,,,,,600,,,0,,1,1,1,3677992,pdf,a196658e0ae8073353d9d4d9c4a20126,,,O_rolos_ths_ergasias_sthn_eksanthrwpish_toy_pithhkoy,0,2000-01-01 01:00:00,2016-04-03 02:51:08,,,
15309328,"Feminism, Law, and Religion",,"Gender in Law, Culture, and Society",,"Marie A. Failinger, Elizabeth R. Schiltz, Susan J. Stabile",2013,New edition,Ashgate Pub Co,,412,0,English,,,0,"140944421X,9781409444213",,,,,,,,,,,0,,,,,,,,17880476,epub,955a68775c950bdf0966edb0583920ed,,,955a68775c950bdf0966edb0583920ed.epub,0,2000-01-01 01:00:00,2016-04-03 02:51:08,1047000/955a68775c950bdf0966edb0583920ed-d.jpg,,
15309329,Treatment of Recurrent Depression,,Review of Psychiatry,,"John F., M.D. Greden",2001,1st,Amer Psychiatric Pub,,189,0,English,,,0,"1585620254,9781585620258",,,,,,,,,,,0,,,,,,,0,3321001,pdf,00e7fa5ff258aaf2f2c08aeca4988a05,,,00e7fa5ff258aaf2f2c08aeca4988a05.pdf,0,2000-01-01 01:00:00,2016-04-03 02:51:08,1047000/00e7fa5ff258aaf2f2c08aeca4988a05-d.jpg,,
15309330,UNDERGROUND WARFARE 1914-1918,,,,Simon Jones,2010,,Pen and Sword,,288,0,English,,,0,"1844159620,9781844159628",,,,,,,,,,,0,,,,,,,0,71726678,pdf,d6014dd3ac1977233148cd1b412b3b22,,,d6014dd3ac1977233148cd1b412b3b22.pdf,0,2000-01-01 01:00:00,2016-04-03 02:51:08,1047000/d6014dd3ac1977233148cd1b412b3b22-d.jpg,,
15309331,Beneath Contempt & Happy To Be There: The Fighting Life of Porn King Al Goldstein,,,,Jack Stevenson,2011,,Headpress,,216,0,English,,,0,"1900486792,9781900486798",,,,,,,,,,,0,,,,,,,0,6451300,pdf,6fe7c5325e4ef5475f63bad602600178,,,6fe7c5325e4ef5475f63bad602600178.pdf,0,2000-01-01 01:00:00,2016-04-03 02:51:08,1047000/6fe7c5325e4ef5475f63bad602600178-d.jpg,,
15309332,Skeptics and True Believers: The Exhilarating Connection Between Science and Spirituality,,,,Chet Raymo,1998,,Walker & Company,,288,0,English,,,0,"0802713386,9781567316131",,,,,,,,,,,0,,,,,,,,4568215,mobi,ffc246393b8c5e4edf5bcd1b1bf6a48a,,,ffc246393b8c5e4edf5bcd1b1bf6a48a.mobi,0,2000-01-01 01:00:00,2016-04-03 02:51:08,1047000/ffc246393b8c5e4edf5bcd1b1bf6a48a-d.jpg,,
15309333,Love and Math: The Heart of Hidden Reality,,,,Edward Frenkel,2013,,Basic Books,,304,0,English,,,0,"0465050743,9780465050741",,,,,,,,,,,0,,,,,,,,10852215,mobi,94d68798a2fa02f42e86f4a0c9621ce0,,,94d68798a2fa02f42e86f4a0c9621ce0.mobi,0,2000-01-01 01:00:00,2016-04-03 02:51:08,1047000/94d68798a2fa02f42e86f4a0c9621ce0-d.jpg,,
15309334,"Building Web Services with Java: Making Sense of XML, SOAP, WSDL and UDDI",,,,"Steve Graham, Simeon Simeonov, Toufic Boubez, Glen Daniels, Doug Davis, Yuichi Nakamura, Ryo Neyama",2001,1st,Pearson Education,,450,0,English,,,0,"0672321815,9780672321818",,,,,,,,,,,0,,,,,,,0,4151823,pdf,4d438620640f85d27c74a5429c7042ae,,,4d438620640f85d27c74a5429c7042ae.pdf,0,2000-01-01 01:00:00,2016-04-03 02:51:08,1047000/4d438620640f85d27c74a5429c7042ae-d.jpg,,
15309335,"Cultural Marxism in Postwar Britain: History, the New Left, and the Origins of Cultural Studies",,Post-Contemporary Interventions,,Dennis Dworkin,1997,,Duke University Press Books,,336,0,English,,,0,"0822319144,9780822319146",,,,,,,,,,,0,,,,1,1,,1,9370067,pdf,85b75501bf22c35d47169a2f18deec85,,,"Cultural Marxism in Postwar Britain_ History, the New Left, and the Origins of Cultural Studies - Dennis Dworkin",0,2000-01-01 01:00:00,2016-04-03 02:51:08,1047000/85b75501bf22c35d47169a2f18deec85-d.jpg,,
15309336,Sorted Books,,,,"Nina Katchadourian, Brian Dillon",2013,,Chronicle Books,,176,0,English,,,0,"1452113297,9781452113296",,,,,,,,,,,0,,,,,,,,43768747,epub,ff0d94fd2044a3862cde8f78a7da5b86,,,ff0d94fd2044a3862cde8f78a7da5b86.epub,0,2000-01-01 01:00:00,2016-04-03 02:51:08,1047000/ff0d94fd2044a3862cde8f78a7da5b86-d.jpg,,
15309337,Ο ρόλος της εργασίας στην εξανθρώπιση του πιθήκου. Ο Ένγκελς και η καταγωγή της ανθρώπινης κοινωνίας,,,,"Φρίντριχ Ένγκελς, Κρις Χάρμαν - Mετάφραση: Κώστας Πίττας",2011,,"Μαρξιστικό Βιβλιοπωλείο,",,164,0,Greek,,,0,,,,,,,,,,,,0,,,,,,,1,3679118,pdf,8d933178bf02c99bd4a63f2cfcb31825,,,O_rolos_ths_ergasias_sthn_eksanthrwpish_toy_pithhkoy,0,2000-01-01 01:00:00,2016-04-03 02:51:08,1047000/8d933178bf02c99bd4a63f2cfcb31825-g.jpg,,
15309338,"Thinking: Psychological Perspectives on Reasoning, Judgment and Decision Making",,,,"David Hardman, Laura Macchi",2010,1,Wiley,,392,0,English,,,0,"0470025727,9780470025727",,,,,,,,,,,0,,,,,,,0,3455398,pdf,097c4b0d4d766170a5a4c2efbfd2de80,,,097c4b0d4d766170a5a4c2efbfd2de80.pdf,0,2000-01-01 01:00:00,2016-04-03 02:51:08,1047000/097c4b0d4d766170a5a4c2efbfd2de80-d.jpg,,
15309339,New Directions in African Architecture,,,,Udo Kultermann,1969,,Studio Vista,London,135,0,English,,,0,289.79674.1,,,,,,,,,,,0,,,,1,1,,1,4375243,pdf,392e04246eb92ec9ae6897374330a91b,,,New Directions in African Architecture Hardcover - Udo Kultermann,0,2000-01-01 01:00:00,2016-04-03 02:51:08,1047000/392e04246eb92ec9ae6897374330a91b-g.jpg,,
15309340,"About Science, Myself and Others",,,,"Ginzburg, V.L.",2004,,CRC Press,,553,0,English,,,,"978-1-4200-3474-5,978-0-7503-0992-9",,,,,,,10.1201/9781420034745,,,,0,,,,,,,1,7150082,pdf,29f247fb577503cdf999e4d76d2f54dc,,,"A:\\_for_add\\1\\CRC\\About Science, Myself and Others.pdf",0,2000-01-01 01:00:00,2016-04-03 02:51:08,,,
15309341,"Advanced Particle Physics Volume I: Particles, Fields, and Quantum Electrodynamics",,,,"Boyarkin, Oleg",2011,,CRC Press,,628,0,English,,,,"978-1-4398-0418-6,978-1-4398-0414-8,978-1-4398-0414-8",,,,,,,10.1201/b10606,,,,0,,,,,,,1,10588551,pdf,c9c5ea4e852c4376ac6316ed7bf75580,,,"A:\\_for_add\\1\\CRC\\Advanced Particle Physics, Volume I - Particles, Fields and Quantum Electrodynamics.pdf",0,2000-01-01 01:00:00,2016-04-03 02:51:08,,,
15309342,,,"Advances in Chromatography, Volume 50",,"Grushka, Eli",2012,,CRC Press,,463,0,English,,,,"978-1-4398-5845-5,978-1-4398-5844-8",,,,,,,10.1201/b11636,,,,0,,,,,,,1,21728559,pdf,f7c4c319cd941850503dabbf20c72a63,,,"A:\\_for_add\\1\\CRC\\Advances in Chromatography, Volume 50.pdf",0,2000-01-01 01:00:00,2016-04-03 02:51:08,,,
15309343,"Cause, Effect, and Control of Accidental Loss with Accident Investigation Kit",,,,"McKinnon, Ron Charles",2000,,CRC Press,,257,0,English,,,,"978-1-4200-3266-6,978-1-56670-523-3,1-56670-523-1",,,,,,,10.1201/9781420032666,,,,0,,,,,,,1,2966497,pdf,6a5939fd63232562bd74b4a06c424b23,,,"A:\\_for_add\\1\\CRC\\Cause, Effect, and Control of Accidental Loss with Accident Investigation Kit.pdf",0,2000-01-01 01:00:00,2016-04-03 02:51:08,,,
15309344,Clean Coal Technologies for Power Generation,,,,"Reddy, P. Jayarama",2013,,CRC Press,,315,0,English,,,,"978-0-203-76886-0,978-1-138-00020-9,978-1-138-00020-9,978-0-203-76886-0",,,,,,,10.1201/b15512,,,,0,,,,,,,1,3895997,pdf,30ba563985767286cc63a71bf1866f3e,,,A:\\_for_add\\1\\CRC\\Clean Coal Technologies for Power Generation.pdf,0,2000-01-01 01:00:00,2016-04-03 02:51:08,,,
15309345,CRC Handbook of Phase Equilibria and Thermodynamic Data of Copolymer Solutions,,,,"Wohlfarth, Christian",2010,,CRC Press,,550,0,English,,,,"978-1-4398-5039-8,978-1-4398-5038-1",,,,,,,10.1201/b10820,,,,0,,,,,,,1,2903296,pdf,c4506559dc640ec8687fda94fb47e57a,,,A:\\_for_add\\1\\CRC\\CRC Handbook of Phase Equilibria and Thermodynamic Data of Copolymer Solutions.pdf,0,2000-01-01 01:00:00,2016-04-03 02:51:08,,,
15309346,Dungeons and Desktops: The History of Computer Role-Playing Games,,,,"Barton , Matt",2008,,CRC Press,,436,0,English,,,,"978-1-4398-6524-8,978-1-56881-411-7,978-1-56881-411-7,0-631-23127-7",,,,,,,10.1201/b10638,,,,0,,,,,,,1,14879991,pdf,51d376b5565418acad6617f9a4c1fc38,,,A:\\_for_add\\1\\CRC\\Dungeons and Desktops - The History of Computer Role-Playing Games.pdf,0,2000-01-01 01:00:00,2016-04-03 02:51:08,,,
15309347,Dyes and Drugs: Uses and Implications,,,,"Trimm, Harold H.",2011,,CRC Press,,355,0,English,,,,"978-1-4665-6261-5,978-1-926692-62-3",,,,,,,10.1201/b13128,,,,0,,,,,,,1,8416110,pdf,ed5b3e35793277e83932611683f88462,,,A:\\_for_add\\1\\CRC\\Dyes and Drugs - Uses and Implications.pdf,0,2000-01-01 01:00:00,2016-04-03 02:51:08,,,
15309348,England's Leonardo: Robert Hooke and the Seventeenth-Century Scientific Revolution,,,,"Chapman, Allan",2004,,CRC Press,,359,0,English,,,,"978-1-4200-3437-0,978-0-7503-0987-5",,,,,,,10.1201/9781420034370,,,,0,,,,,,,1,6442559,pdf,27dcf9bbeea609bd764c5319104d19f2,,,A:\\_for_add\\1\\CRC\\England's Leonardo - Robert Hooke and the Seventeenth-Century Scientific Revolution.pdf,0,2000-01-01 01:00:00,2016-04-03 02:51:08,,,
15309349,Equine Pediatric Medicine,,,,"V. Bernard, William",2011,,CRC Press,,353,0,English,,,,"978-1-84076-607-3,978-1-84076-081-1,978-1-84076-081-1",,,,,,,10.1201/b15187,,,,0,,,,,,,1,18671299,pdf,4b2e13dec8568ede0b5d5e6d38fbf0f2,,,A:\\_for_add\\1\\CRC\\Equine Pediatric Medicine.pdf,0,2000-01-01 01:00:00,2016-04-03 02:51:08,,,
15309350,The Functional Fold: Amyloid Structures in Nature,,,,"Jarvis, Suzi",2012,,CRC Press,,192,0,English,,,,"978-981-4267-62-5,978-981-4267-40-3,978-981-4267-40-3,978-981-4267-62-5",,,,,,,10.1201/b12776,,,,0,,,,,,,1,12534810,pdf,d2c60660f00d480b19494a00ee8f58d1,,,A:\\_for_add\\1\\CRC\\Functional Fold - Amyloid Structures in Nature.pdf,0,2000-01-01 01:00:00,2016-04-03 02:51:08,,,
15309351,Game Physics Pearls,,,,"van den Bergen, Gino",2010,,CRC Press,,338,0,English,,,,"978-1-4398-6555-2,978-1-56881-474-2,978-1-56881-474-2",,,,,,,10.1201/b11324,,,,0,,,,,,,1,5779555,pdf,525601ba5587a25fc736c05fe9df9e30,,,A:\\_for_add\\1\\CRC\\Game Physics Pearls.pdf,0,2000-01-01 01:00:00,2016-04-03 02:51:08,,,
15309352,Heavy Flavour Physics Theory and Experimental Results in Heavy Quark Physics,,Scottish Graduate Series,,"Davies, C.T.H",2002,,CRC Press,,397,0,English,,,,"978-1-4200-3416-5,978-0-7503-0867-0",,,,,,,10.1201/9781420034165,,,,0,,,,,,,1,20975334,pdf,c3d2bad8f93be7247d0228fd55923693,,,A:\\_for_add\\1\\CRC\\Heavy Flavour Physics - Theory and Experimental Results in Heavy Quark Physics.pdf,0,2000-01-01 01:00:00,2016-04-03 02:51:08,,,
15309353,"Industrial Chemistry: New Applications, Processes and Systems",,,,"Trimm, Harold H.",2011,,CRC Press,,330,0,English,,,,"978-1-4665-6265-3,978-1-926692-83-8",,,,,,,10.1201/b13132,,,,0,,,,,,,1,9566027,pdf,f106d56cb8873666c382eb075100bbf6,,,"A:\\_for_add\\1\\CRC\\Industrial Chemistry - New Applications, Processes and Systems.pdf",0,2000-01-01 01:00:00,2016-04-03 02:51:08,,,
15309354,The Magic of Computer Graphics,,,,"Kurachi, Noriko",2011,,CRC Press,,404,0,English,,,,"978-1-4398-7357-1,978-1-56881-577-0,978-1-56881-577-0",,,,,,,10.1201/b10843,,,,0,,,,,,,1,12414937,pdf,17d2d1ca19842f002b6d3b8071c1604c,,,A:\\_for_add\\1\\CRC\\Magic of Computer Graphics - Landmarks in Rendering.pdf,0,2000-01-01 01:00:00,2016-04-03 02:51:08,,,
15309355,Methanol Fuel Cell Systems: Advancing Towards Commercialization,,,,"Edlund, Dave",2011,,CRC Press,,199,0,English,,,,"978-981-4303-14-9,978-981-4241-98-4,978-981-4241-98-4,978-981-4303-14-9",,,,,,,10.1201/b11063,,,,0,,,,,,,1,8970488,pdf,615318618501771f33676b454c7a367b,,,A:\\_for_add\\1\\CRC\\Methanol Fuel Cell Systems - Advancing Towards Commercialization.pdf,0,2000-01-01 01:00:00,2016-04-03 02:51:08,,,
15309356,Nuclear Renaissance: Technologies and Policies for the Future of Nuclear Power,,,,"Nuttall, William J.",2004,,CRC Press,,313,0,English,,,,"978-1-4200-3377-9,978-0-7503-0936-3",,,,,,,10.1201/9781420033779,,,,0,,,,,,,1,28740310,pdf,8c8a9ac74a4f8cd2ec936ce1b2801469,,,A:\\_for_add\\1\\CRC\\Nuclear Renaissance - Technologies and Policies for the Future of Nuclear Power.pdf,0,2000-01-01 01:00:00,2016-04-03 02:51:08,,,
15309357,"Polyimides and Other High Temperature Polymers: Synthesis, Characterization and Applications, Volume 3",,,,"Mittal, Kash L.",2005,,CRC Press,,582,0,English,,,,"978-90-474-1514-5,978-90-6764-422-8",,,,,,,10.1201/b12194,,,,0,,,,,,,1,38993664,pdf,396bbc4b87487fa2512c875c2fc6cf01,,,"A:\\_for_add\\1\\CRC\\Polyimides and Other High Temperature Polymers, Volume 3.pdf",0,2000-01-01 01:00:00,2016-04-03 02:51:08,,,
15309358,"Progress in Polymer Materials Science: Research, Development and Applications",,,,"Zaikov, Gennady E.",2013,,CRC Press,,278,0,English,,,,"978-1-4665-9162-2,978-1-926895-41-3,978-1-926895-41-3",,,,,,,10.1201/b14543,,,,0,,,,,,,1,4658247,pdf,1d33a9b72bfd1ed94142a7d812deeacc,,,"A:\\_for_add\\1\\CRC\\Progress in Polymer Materials Science - Research, Development and Applications.pdf",0,2000-01-01 01:00:00,2016-04-03 02:51:08,,,
15309359,Radiation Injury Prevention and Mitigation in Humans,,,,"Prasad, Kedar",2012,,CRC Press,,290,0,English,,,,"978-1-4398-7425-7,978-1-4398-7424-0",,,,,,,10.1201/b11719,,,,0,,,,,,,1,4857605,pdf,f3a1610c674feeb7f4d8f28e2866faf8,,,A:\\_for_add\\1\\CRC\\Radiation Injury Prevention and Mitigation in Humans.pdf,0,2000-01-01 01:00:00,2016-04-03 02:51:08,,,
15309360,Realistic Image Synthesis Using Photon Mapping,,,,"Jensen, Henrik Wann",2001,,CRC Press,,184,0,English,,,,"978-1-4398-6363-3,978-1-56881-147-5,1-56881-147-0",,,,,,,10.1201/b10685,,,,0,,,,,,,1,2956853,pdf,af3c604044b323d06f637c8d2ecf0db3,,,A:\\_for_add\\1\\CRC\\Realistic Image Synthesis Using Photon Mapping.pdf,0,2000-01-01 01:00:00,2016-04-03 02:51:08,,,
15309361,Recent Progress in Computational Sciences and Engineering (2 vols),,,,"Simos, Theodore",2006,,CRC Press,,783,0,English,,,,"978-1-4665-6451-0,978-90-04-15542-8",,,,,,,10.1201/b12066,,,,0,,,,,,,1,57765473,pdf,f8627ef29fcd24482eb658efc932548e,,,A:\\_for_add\\1\\CRC\\Recent Progress in Computational Sciences and Engineering (2 vols).pdf,0,2000-01-01 01:00:00,2016-04-03 02:51:08,,,
15309362,Spectroscopy: New Uses and Implications,,,,"Williams, Roy H.",2011,,CRC Press,,338,0,English,,,,"978-1-4665-6231-8,978-1-926692-82-1,978-1-926692-82-1",,,,,,,10.1201/b13129,,,,0,,,,,,,1,6494756,pdf,eb6466dae2d28c283a831a41432ea6e0,,,A:\\_for_add\\1\\CRC\\Spectroscopy - New Uses and Implications.pdf,0,2000-01-01 01:00:00,2016-04-03 02:51:08,,,
15309363,Veterinary Immunology: Principles and Practice,,,,"Day, Michael J.",2010,,CRC Press,,257,0,English,,,,"978-1-84076-638-7,978-1-84076-143-6,978-1-84076-143-6",,,,,,,10.1201/b15224,,,,0,,,,,,,1,8732305,pdf,c0a24544e868e8beb2f369acaa1c24af,,,A:\\_for_add\\1\\CRC\\Veterinary Immunology - Principles and Practice.pdf,0,2000-01-01 01:00:00,2016-04-03 02:51:08,,,
15309364,Video Games and Interactive Media: A Glimpse at New Digital Entertainment,,,,"Natkin, Stephane",2006,,CRC Press,,162,0,English,,,,"978-1-4398-7010-5,978-1-56881-297-7",,,,,,,10.1201/b10631,,,,0,,,,,,,1,2647388,pdf,060022a9dfd475b2e53a46cc3bccf1ab,,,A:\\_for_add\\1\\CRC\\Video Games and Interactive Media - A Glimpse at New Digital Entertainment.pdf,0,2000-01-01 01:00:00,2016-04-03 02:51:08,,,
15309365,Writing for Video Game Genres: From FPS to RPG,,,,"Despain, Wendy",2009,,CRC Press,,287,0,English,,,,"978-1-4398-7539-1,978-1-56881-417-9,978-1-56881-417-9",,,,,,,10.1201/b10641,,,,0,,,,,,,1,4968253,pdf,c71b39c6b84eba526ce19c3b1a244c5b,,,A:\\_for_add\\1\\CRC\\Writing for Video Game Genres - From FPS to RPG.pdf,0,2000-01-01 01:00:00,2016-04-03 02:51:08,,,
15309366,,,Advances in Quantum Chemistry 66,,John R. Sabin and Erkki J. BrГ¤ndas (Eds.),2013,,,,2-248,0,English,,,,"978-0-12-408099-7,978-0-12-408099-7",0065-3276,,,,,,10.1016/B978-0-12-408099-7.00001-5,,,,0,,,,,,,1,6596748,pdf,33dea35bf4bd185e60ffc6d90e95d240,,,A:\\_for_add\\1\\SD\\00653276-66 (9).pdf,0,2000-01-01 01:00:00,2016-04-03 02:51:08,http://ars.els-cdn.com/content/image/1-s2.0-C20120032280-cov150h.gif,,
15309367,,,Advances in Virus Research 10,,Kenneth M. Smith and Max A. Lauffer (Eds.),1964,,,,"iii-v, 1-277",0,English,,,,978-0-12-039810-2,0065-3527,,,,,,,,,,0,,,,,,,1,7219007,pdf,be216049022ad32ef64438f9b9f56aca,,,A:\\_for_add\\1\\SD\\00653527-10 (12).pdf,0,2000-01-01 01:00:00,2016-04-03 02:51:08,http://ars.els-cdn.com/content/image/1-s2.0-S0065352708X60579-cov150h.gif,,
15309368,,,Advances in Virus Research 12,,Kenneth M. Smith and Max A. Lauffer (Eds.),1967,,,,"ii-v, 1-394",0,English,,,,978-0-12-039812-6,0065-3527,,,,,,,,,,0,,,,,,,1,10670794,pdf,731c09b0f36f178dca8bf5797734c7b6,,,A:\\_for_add\\1\\SD\\00653527-12 (14).pdf,0,2000-01-01 01:00:00,2016-04-03 02:51:08,http://ars.els-cdn.com/content/image/1-s2.0-S0065352708X60695-cov150h.gif,,
15309369,,,Advances in Virus Research 13,,Kenneth M. Smith and Max A. Lauffer (Eds.),1968,,,,"iii-v, 1-321",0,English,,,,978-0-12-039813-3,0065-3527,,,,,,,,,,0,,,,,,,1,8619766,pdf,23811e3c670683a4f6831d7914e86908,,,A:\\_for_add\\1\\SD\\00653527-13 (11).pdf,0,2000-01-01 01:00:00,2016-04-03 02:51:08,http://ars.els-cdn.com/content/image/1-s2.0-S0065352708X6021X-cov150h.gif,,
15309370,,,Advances in Virus Research 14,,Kenneth M. Smith and Max A. Lauffer (Eds.),1969,,,,"iii-v, 1-350",0,English,,,,978-0-12-039814-0,0065-3527,,,,,,,,,,0,,,,,,,1,6784564,pdf,012c3249f3c8dd3a05d75c74d56ff079,,,A:\\_for_add\\1\\SD\\00653527-14 (12).pdf,0,2000-01-01 01:00:00,2016-04-03 02:51:08,http://ars.els-cdn.com/content/image/1-s2.0-S0065352708X60464-cov150h.gif,,
15309371,,,Advances in Virus Research 15,,"Kenneth M. Smith, Max A. Lauffer and Frederik B. Bang (Eds.)",1969,,,,"ii-v, 1-461",0,English,,,,978-0-12-039815-7,0065-3527,,,,,,,,,,0,,,,,,,1,13460505,pdf,d11a893b8f4707a9de44588663989263,,,A:\\_for_add\\1\\SD\\00653527-15 (14).pdf,0,2000-01-01 01:00:00,2016-04-03 02:51:08,http://ars.els-cdn.com/content/image/1-s2.0-S0065352708X60713-cov150h.gif,,
15309372,,,Advances in Virus Research 16,,"Kenneth M. Smith, Max A. Lauffer and Frederik B. Bang (Eds.)",1970,,,,"ii-ix, 1-478",0,English,,,,978-0-12-039816-4,0065-3527,,,,,,,,,,0,,,,,,,1,13766676,pdf,2551991e069a2dd08b8cb3aac67990c7,,,A:\\_for_add\\1\\SD\\00653527-16 (15).pdf,0,2000-01-01 01:00:00,2016-04-03 02:51:08,http://ars.els-cdn.com/content/image/1-s2.0-S0065352708X60026-cov150h.gif,,
15309373,,,Advances in Virus Research 17,,"Kenneth M. Smith, Max A. Lauffer and Frederik B. Bang (Eds.)",1972,,,,"iii-ix, 1-336",0,English,,,,978-0-12-039817-1,0065-3527,,,,,,,,,,0,,,,,,,1,11407718,pdf,2f59d5ff8fe42e341cdabfca002939de,,,A:\\_for_add\\1\\SD\\00653527-17 (14).pdf,0,2000-01-01 01:00:00,2016-04-03 02:51:08,http://ars.els-cdn.com/content/image/1-s2.0-S0065352708X60610-cov150h.gif,,
15309374,,,Advances in Virus Research 18,,"Max A. Lauffer, Frederik B. Bang, Karl Maramorosch and Kenneth M. Smith (Eds.)",1973,,,,"iii-vii, 1-407",0,English,,,,"978-0-12-039818-8,0065352718",0065-3527,,,,,,,,,,0,,,,,,,1,13019555,pdf,73d45d54c1b101c6e4e684def3fbb5cb,,,A:\\_for_add\\1\\SD\\00653527-18 (14).pdf,0,2000-01-01 01:00:00,2016-04-03 02:51:08,http://ars.els-cdn.com/content/image/1-s2.0-S0065352708X60671-cov150h.gif,,
15309375,,,Advances in Virus Research 19,,"Max A. Lauffer, Frederik B. Bang, Karl Maramorosch and Kenneth M. Smith (Eds.)",1974,,,,"iii-vii, 1-424",0,English,,,,978-0-12-039819-5,0065-3527,,,,,,,,,,0,,,,,,,1,9788523,pdf,064b0634ed0c63d9042f4c22e2164139,,,A:\\_for_add\\1\\SD\\00653527-19 (12).pdf,0,2000-01-01 01:00:00,2016-04-03 02:51:08,http://ars.els-cdn.com/content/image/1-s2.0-S0065352708X60543-cov150h.gif,,
15309376,,,Advances in Virus Research 20,,"Max A. Lauffer, Frederik B. Bang, Karl Maramorosch and Kenneth M. Smith (Eds.)",1976,,,,"ii-vii, 1-360",0,English,,,,978-0-12-039820-1,0065-3527,,,,,,,,,,0,,,,,,,1,10701544,pdf,087680ccd5c2b00ded2fac426050764d,,,A:\\_for_add\\1\\SD\\00653527-20 (15).pdf,0,2000-01-01 01:00:00,2016-04-03 02:51:08,http://ars.els-cdn.com/content/image/1-s2.0-S0065352708X60427-cov150h.gif,,
15309377,,,Advances in Virus Research 21,,"Max A. Lauffer, Frederik B. Bang, Karl Maramorosch and Kenneth M. Smith (Eds.)",1977,,,,"iii-vii, 1-409",0,English,,,,"978-0-12-039821-8,0-12-039821-4",0065-3527,,,,,,,,,,0,,,,,,,1,9838979,pdf,2f41aad09ca76d8ed1be483f0246e468,,,A:\\_for_add\\1\\SD\\00653527-21 (11).pdf,0,2000-01-01 01:00:00,2016-04-03 02:51:08,http://ars.els-cdn.com/content/image/1-s2.0-S0065352708X60622-cov150h.gif,,
15309378,,,Advances in Virus Research 22,,"Max A. Lauffer, Frederik B. Bang, Karl Maramorosch and Kenneth M. Smith (Eds.)",1978,,,,"iii-ix, 1-401",0,English,,,,"978-0-12-039822-5,0-12-039822-2",0065-3527,,,,,,,,,,0,,,,,,,1,9514557,pdf,d7ba6142254d14a93349ed16e323cedb,,,A:\\_for_add\\1\\SD\\00653527-22 (12).pdf,0,2000-01-01 01:00:00,2016-04-03 02:51:08,http://ars.els-cdn.com/content/image/1-s2.0-S0065352708X60634-cov150h.gif,,
15309379,,,Advances in Virus Research 23,,"Max A. Lauffer, Frederik B. Bang, Karl Maramorosch and Kenneth M. Smith (Eds.)",1978,,,,"ii-ix, 1-410",0,English,,,,"978-0-12-039823-2,0-12-039823-0",0065-3527,,,,,,,,,,0,,,,,,,1,8682559,pdf,43918fafbad2bdb7ede4b1ff8f517bb3,,,A:\\_for_add\\1\\SD\\00653527-23 (14).pdf,0,2000-01-01 01:00:00,2016-04-03 02:51:08,http://ars.els-cdn.com/content/image/1-s2.0-S0065352708X60087-cov150h.gif,,
15309380,,,Advances in Virus Research 24,,"Max A. Lauffer, Frederik B. Bang, Karl Maramorosch and Kenneth M. Smith (Eds.)",1979,,,,"iii-ix, 1-420",0,English,,,,"978-0-12-039824-9,0-12-039824-9",0065-3527,,,,,,,,,,0,,,,,,,1,10090026,pdf,da6406fff2de82196bbdf55ca04af82e,,,A:\\_for_add\\1\\SD\\00653527-24 (11).pdf,0,2000-01-01 01:00:00,2016-04-03 02:51:08,http://ars.els-cdn.com/content/image/1-s2.0-S0065352708X60312-cov150h.gif,,
15309381,,,Advances in Virus Research 25,,"Max A. Lauffer, Frederik B. Bang, Karl Maramorosch and Kenneth M. Smith (Eds.)",1979,,,,"iii-ix, 1-527",0,English,,,,"978-0-12-039825-6,0-12-039825-7",0065-3527,,,,,,,,,,0,,,,,,,1,9133980,pdf,d3177495adc8de236b55acc3f2486218,,,A:\\_for_add\\1\\SD\\00653527-25 (13).pdf,0,2000-01-01 01:00:00,2016-04-03 02:51:08,http://ars.els-cdn.com/content/image/1-s2.0-S0065352708X60476-cov150h.gif,,
15309382,,,Advances in Virus Research 26,,"Max A. Lauffer, Frederik B. Bang, Karl Maramorosch and Kenneth M. Smith (Eds.)",1981,,,,"ii-vii, 1-257",0,English,,,,"978-0-12-039826-3,0065352726,0-12-039826-5",0065-3527,,,,,,,,,,0,,,,,,,1,5314040,pdf,323ecd0a2ce77f120540ba879bdfe6cc,,,A:\\_for_add\\1\\SD\\00653527-26 (12).pdf,0,2000-01-01 01:00:00,2016-04-03 02:51:08,http://ars.els-cdn.com/content/image/1-s2.0-S0065352708X60336-cov150h.gif,,
15309383,,,Advances in Virus Research 27,,"Max A. Lauffer, Frederik B. Bang, Karl Maramorosch and Kenneth M. Smith (Eds.)",1982,,,,"ii-xiv, 1-374",0,English,,,,978-0-12-039827-0,0065-3527,,,,,,,,,,0,,,,,,,1,6521868,pdf,9d8e2bae2ae6aa849258b4f3b86c893c,,,A:\\_for_add\\1\\SD\\00653527-27 (14).pdf,0,2000-01-01 01:00:00,2016-04-03 02:51:08,http://ars.els-cdn.com/content/image/1-s2.0-S0065352708X60348-cov150h.gif,,
15309384,,,Advances in Virus Research 28,,Max A. Lauffer and Karl Maramorosch (Eds.),1983,,,,"iii-v, 1-473",0,English,,,,"978-0-12-039828-7,0-12-039828-1",0065-3527,,,,,,,,,,0,,,,,,,1,13228042,pdf,8c726eb39dcb1279317709e1d6a8b5f0,,,A:\\_for_add\\1\\SD\\00653527-28 (13).pdf,0,2000-01-01 01:00:00,2016-04-03 02:51:08,http://ars.els-cdn.com/content/image/1-s2.0-S0065352708X60592-cov150h.gif,,
15309385,,,Advances in Virus Research 30,,"Karl Maramorosch, Frederick A. Murphy and Aaron J. Shatkin (Eds.)",1985,,,,"ii-xv, 1-353",0,English,,,,"978-0-12-039830-0,0-12-039830-3",0065-3527,,,,,,,,,,0,,,,,,,1,8047229,pdf,478f21dccfe0934850ad9f0327562db9,,,A:\\_for_add\\1\\SD\\00653527-30 (16).pdf,0,2000-01-01 01:00:00,2016-04-03 02:51:08,http://ars.els-cdn.com/content/image/1-s2.0-S0065352708X6035X-cov150h.gif,,
15309386,,,Advances in Virus Research 31,,"Karl Maramorosch, Frederick A. Murphy and Aaron J. Shatkin (Eds.)",1986,,,,"ii-iv, 1-444",0,English,,,,"978-0-12-039831-7,0-12-039831-1",0065-3527,,,,,,,,,,0,,,,,,,1,7779914,pdf,951375ac278ddbc77ea7520a590e7e6b,,,A:\\_for_add\\1\\SD\\00653527-31 (14).pdf,0,2000-01-01 01:00:00,2016-04-03 02:51:08,http://ars.els-cdn.com/content/image/1-s2.0-S0065352708X60221-cov150h.gif,,
15309387,,,Advances in Virus Research 32,,"Karl Maramorosch, Frederick A. Murphy and Aaron J. Shatkin (Eds.)",1987,,,,"ii-iv, 1-315",0,English,,,,"978-0-12-039832-4,0-12-039832-X",0065-3527,,,,,,,,,,0,,,,,,,1,4827807,pdf,e0485ac2cfda08ae21e136a9ce99510d,,,A:\\_for_add\\1\\SD\\00653527-32 (11).pdf,0,2000-01-01 01:00:00,2016-04-03 02:51:08,http://ars.els-cdn.com/content/image/1-s2.0-S0065352708X60373-cov150h.gif,,
15309388,,,Advances in Virus Research 34,,"Karl Maramorosch, Frederick A. Murphy and Aaron J. Shatkin (Eds.)",1988,,,,"ii-iv, 1-327",0,English,,,,"978-0-12-039834-8,0065352734,0-12-039834-6",0065-3527,,,,,,,,,,0,,,,,,,1,5871004,pdf,b16db92ab40b8c1bc4e8b5d5d4e956bd,,,A:\\_for_add\\1\\SD\\00653527-34 (12).pdf,0,2000-01-01 01:00:00,2016-04-03 02:51:08,http://ars.els-cdn.com/content/image/1-s2.0-S0065352708X60439-cov150h.gif,,
15309389,,,Advances in Virus Research 35,,"Karl Maramorosch, Frederick A. Murphy and Aaron J. Shatkin (Eds.)",1988,,,,"ii-iv, 1-321",0,English,,,,"978-0-12-039835-5,0-12-039835-4",0065-3527,,,,,,,,,,0,,,,,,,1,6639802,pdf,c653cafe8131513f38ee2508bdabfbea,,,A:\\_for_add\\1\\SD\\00653527-35 (13).pdf,0,2000-01-01 01:00:00,2016-04-03 02:51:08,http://ars.els-cdn.com/content/image/1-s2.0-S0065352708X60580-cov150h.gif,,
15309390,,,Advances in Virus Research 36,,"Karl Maramorosch, Frederick A. Murphy and Aaron J. Shatkin (Eds.)",1989,,,,"ii-iv, 1-356",0,English,,,,"978-0-12-039836-2,0-12-039836-2",0065-3527,,,,,,,,,,0,,,,,,,1,6699286,pdf,abbdf436a210a311960cb31c4f212f51,,,A:\\_for_add\\1\\SD\\00653527-36 (13).pdf,0,2000-01-01 01:00:00,2016-04-03 02:51:08,http://ars.els-cdn.com/content/image/1-s2.0-S0065352708X60488-cov150h.gif,,
15309391,,,Advances in Virus Research 37,,"Karl Maramorosch, Frederick A. Murphy and Aaron J. Shatkin (Eds.)",1989,,,,"ii-iv, 1-349",0,English,,,,"978-0-12-039837-9,0-12-039837-0",0065-3527,,,,,,,,,,0,,,,,,,1,7542068,pdf,56eea208aa918e0fc26b22f7fb8dad48,,,A:\\_for_add\\1\\SD\\00653527-37 (13).pdf,0,2000-01-01 01:00:00,2016-04-03 02:51:08,http://ars.els-cdn.com/content/image/1-s2.0-S0065352708X60683-cov150h.gif,,
15309392,,,Advances in Virus Research 39,,"Karl Maramorosch, Frederick A. Murphy and Aaron J. Shatkin (Eds.)",1991,,,,"ii-iv, 1-355",0,English,,,,"978-0-12-039839-3,0-12-039839-7",0065-3527,,,,,,,,,,0,,,,,,,1,8373622,pdf,4ef12e8872aafe4e5fabcf08e10f859c,,,A:\\_for_add\\1\\SD\\00653527-39 (12).pdf,0,2000-01-01 01:00:00,2016-04-03 02:51:08,http://ars.els-cdn.com/content/image/1-s2.0-S0065352708X60658-cov150h.gif,,
15309393,,,Advances in Virus Research 41,,"Karl Maramorosch, Frederick A. Murphy and Aaron J. Shatkin (Eds.)",1992,,,,"ii-iv, 1-472",0,English,,,,978-0-12-039841-6,0065-3527,,,,,,,,,,0,,,,,,,1,8808377,pdf,2c3939e29e759404cc276d1d4f14ec08,,,A:\\_for_add\\1\\SD\\00653527-41 (12).pdf,0,2000-01-01 01:00:00,2016-04-03 02:51:08,http://ars.els-cdn.com/content/image/1-s2.0-S0065352708X60038-cov150h.gif,,
15309394,,,Advances in Virus Research 42,,"Karl Maramorosch, Frederick A. Murphy and Aaron J. Shatkin (Eds.)",1993,,,,"ii-iv, 1-421",0,English,,,,"978-0-12-039842-3,0065352742",0065-3527,,,,,,,,,,0,,,,,,,1,8231663,pdf,ae86fcac49d600d60a529d8524102638,,,A:\\_for_add\\1\\SD\\00653527-42 (13).pdf,0,2000-01-01 01:00:00,2016-04-03 02:51:08,http://ars.els-cdn.com/content/image/1-s2.0-S0065352708X60075-cov150h.gif,,
15309395,,,Advances in Virus Research 43,,"Karl Maramorosch, Frederick A. Murphy and Aaron J. Shatkin (Eds.)",1994,,,,"ii-iv, 1-398",0,English,,,,978-0-12-039843-0,0065-3527,,,,,,,,,,0,,,,,,,1,7490771,pdf,e481587174510164db4478b12743fca9,,,A:\\_for_add\\1\\SD\\00653527-43 (11).pdf,0,2000-01-01 01:00:00,2016-04-03 02:51:08,http://ars.els-cdn.com/content/image/1-s2.0-S0065352708X6004X-cov150h.gif,,
15309396,,,Advances in Virus Research 44,,"Karl Maramorosch, Frederick A. Murphy and Aaron J. Shatkin (Eds.)",1994,,,,"ii-iv, 1-473",0,English,,,,978-0-12-039844-7,0065-3527,,,,,,,,,,0,,,,,,,1,7702023,pdf,17e67f5df893879af6a825bdc83902c9,,,A:\\_for_add\\1\\SD\\00653527-44 (13).pdf,0,2000-01-01 01:00:00,2016-04-03 02:51:08,http://ars.els-cdn.com/content/image/1-s2.0-S0065352708X60270-cov150h.gif,,
15309397,,,Advances in Virus Research 45,,"Karl Maramorosch, Frederick A. Murphy and Aaron J. Shatkin (Eds.)",1995,,,,"ii-iv, 1-327",0,English,,,,"978-0-12-039845-4,0-12-039845-1",0065-3527,,,,,,,,,,0,,,,,,,1,6575870,pdf,eb0aa8d1c07f379eaf91fc4d82ba5789,,,A:\\_for_add\\1\\SD\\00653527-45 (12).pdf,0,2000-01-01 01:00:00,2016-04-03 02:51:08,http://ars.els-cdn.com/content/image/1-s2.0-S0065352708X60051-cov150h.gif,,
15309398,,,Advances in Virus Research 7,,Kenneth M. Smith and Max A. Lauffer (Eds.),1961,,,,"iii-v, 1-397",0,English,,,,978-0-12-039807-2,0065-3527,,,,,,,,,,0,,,,,,,1,11081091,pdf,fd5732cde2a9c870050085ec00ae4f42,,,A:\\_for_add\\1\\SD\\00653527-7 (15).pdf,0,2000-01-01 01:00:00,2016-04-03 02:51:08,http://ars.els-cdn.com/content/image/1-s2.0-S0065352708X60014-cov150h.gif,,
15309399,,,Advances in Virus Research 8,,Kenneth M. Smith and Max A. Lauffer (Eds.),1962,,,,"iii-v, 1-411",0,English,,,,978-0-12-039808-9,0065-3527,,,,,,,,,,0,,,,,,,1,9546325,pdf,0ffa860e2b4d57093dae99d6c705c79c,,,A:\\_for_add\\1\\SD\\00653527-8 (13).pdf,0,2000-01-01 01:00:00,2016-04-03 02:51:08,http://ars.els-cdn.com/content/image/1-s2.0-S0065352708X60567-cov150h.gif,,
15309400,,,Advances in Virus Research 9,,Kenneth M. Smith and Max A. Lauffer (Eds.),1963,,,,"iii-v, 1-312",0,English,,,,978-0-12-039809-6,0065-3527,,,,,,,,,,0,,,,,,,1,7123353,pdf,0a8d1bd0413c28c797d2d9e0d853efff,,,A:\\_for_add\\1\\SD\\00653527-9 (11).pdf,0,2000-01-01 01:00:00,2016-04-03 02:51:08,http://ars.els-cdn.com/content/image/1-s2.0-S0065352708X60300-cov150h.gif,,
15309401,International Review of Cytology,,International Review of Cytology 101,,"G.H. Bourne, J.F. Danielli and K.W. Jeon (Eds.)",1986,,,,"ii-x, 1-334",0,English,,,,978-0-12-364501-2,0074-7696,,,,,,,,,,0,,,,,,,1,9133448,pdf,f66a299c25497b1dc3af292b8045c4db,,,A:\\_for_add\\1\\SD\\00747696-101 (12).pdf,0,2000-01-01 01:00:00,2016-04-03 02:51:08,http://ars.els-cdn.com/content/image/1-s2.0-S0074769608X60231-cov150h.gif,,
15309402,,,International Review of Cytology 102,,G.H. Bourne and K.W. Jeon (Eds.),1986,,,,"ii-iv, 1-322",0,English,,,,"978-0-12-364502-9,0-12-364502-6",0074-7696,,,,,,,,,,0,,,,,,,1,9933107,pdf,4a181f0e52b27adea39dc649236e4eb3,,,A:\\_for_add\\1\\SD\\00747696-102 (11).pdf,0,2000-01-01 01:00:00,2016-04-03 02:51:08,http://ars.els-cdn.com/content/image/1-s2.0-S0074769608X61091-cov150h.gif,,
15309403,,,International Review of Cytology 103,,"G.H. Bourne, K.W. Jeon and M. Friedlander (Eds.)",1986,,,,"ii-iv, 1-396",0,English,,,,"978-0-12-364503-6,0-12-364503-4",0074-7696,,,,,,,,,,0,,,,,,,1,11259736,pdf,7c4f7d5e1668b52f1438afa752e89fbc,,,A:\\_for_add\\1\\SD\\00747696-103 (12).pdf,0,2000-01-01 01:00:00,2016-04-03 02:51:08,http://ars.els-cdn.com/content/image/1-s2.0-S0074769608X60747-cov150h.gif,,
15309404,Pollen: Cytology and Development,,International Review of Cytology 107,,"G.H. Bourne, K.W. Jeon and Martin Friedlander (Eds.)",1987,,,,"ii-ix, 1-455",0,English,,,,"978-0-12-364507-4,0-12-364507-7",0074-7696,,,,,,,,,,0,,,,,,,1,14517994,pdf,bf134d1094c8eec3b31821bb1805ad99,,,A:\\_for_add\\1\\SD\\00747696-107 (18).pdf,0,2000-01-01 01:00:00,2016-04-03 02:51:08,http://ars.els-cdn.com/content/image/1-s2.0-S0074769608X60954-cov150h.gif,,
15309405,,,International Review of Cytology 108,,"G.H. Bourne, K.W. Jeon and M. Friedlander (Eds.)",1987,,,,"ii-iv, 1-319",0,English,,,,978-0-12-364508-1,0074-7696,,,,,,,,,,0,,,,,,,1,7043645,pdf,a34114dbf73b5146aa20a71bfc9e7541,,,A:\\_for_add\\1\\SD\\00747696-108 (10).pdf,0,2000-01-01 01:00:00,2016-04-03 02:51:08,http://ars.els-cdn.com/content/image/1-s2.0-S0074769608X61224-cov150h.gif,,
15309406,,,International Review of Cytology 110,,"G.H. Bourne, K.W. Jeon and M. Friedlander (Eds.)",1988,,,,"ii-iv, 1-267",0,English,,,,978-0-12-364510-4,0074-7696,,,,,,,,,,0,,,,,,,1,6171316,pdf,a95a55fd85812c85f39396eb4b0abd8a,,,A:\\_for_add\\1\\SD\\00747696-110 (10).pdf,0,2000-01-01 01:00:00,2016-04-03 02:51:08,http://ars.els-cdn.com/content/image/1-s2.0-S0074769608X6156X-cov150h.gif,,
15309407,,,International Review of Cytology 115,,K.W. Jeon and M. Friedlander (Eds.),1989,,,,"ii-vii, 1-304",0,English,,,,"978-0-12-364515-9,0-12-364515-8",0074-7696,,,,,,,,,,0,,,,,,,1,6467737,pdf,1df0e59437783f3472204f7394830a4f,,,A:\\_for_add\\1\\SD\\00747696-115 (11).pdf,0,2000-01-01 01:00:00,2016-04-03 02:51:08,http://ars.els-cdn.com/content/image/1-s2.0-S0074769608X60516-cov150h.gif,,
15309408,,,International Review of Cytology 117,,"G.H. Bourne, K.W. Jeon and M. Friedlander (Eds.)",1989,,,,"ii-iv, 1-269",0,English,,,,978-0-12-364517-3,0074-7696,,,,,,,,,,0,,,,,,,1,7047241,pdf,b04e0187445ca04f3e2e3ffbe4f80dcc,,,A:\\_for_add\\1\\SD\\00747696-117 (10).pdf,0,2000-01-01 01:00:00,2016-04-03 02:51:08,http://ars.els-cdn.com/content/image/1-s2.0-S0074769608X61145-cov150h.gif,,
15309409,,,International Review of Cytology 12,,G.H. Bourne and J.F. Danielli (Eds.),1962,,,,"iii-v, 1-424",0,English,,,,978-0-12-364312-4,0074-7696,,,,,,,,,,0,,,,,,,1,16741691,pdf,bde51d136e03ec62d17f727ef5fe51af,,,A:\\_for_add\\1\\SD\\00747696-12 (13).pdf,0,2000-01-01 01:00:00,2016-04-03 02:51:08,http://ars.els-cdn.com/content/image/1-s2.0-S0074769608X60450-cov150h.gif,,
15309410,,,International Review of Cytology 120,,K.W. Jeon and M. Friedlander (Eds.),1990,,,,"ii-vii, 1-302",0,English,,,,"978-0-12-364520-3,0-12-364520-4",0074-7696,,,,,,,,,,0,,,,,,,1,6442923,pdf,7fbaf0d20ebd67fd4e160b19bcfb8e8c,,,A:\\_for_add\\1\\SD\\00747696-120 (10).pdf,0,2000-01-01 01:00:00,2016-04-03 02:51:08,http://ars.els-cdn.com/content/image/1-s2.0-S0074769608X61352-cov150h.gif,,
15309411,,,International Review of Cytology 121,,K.W. Jeon and M. Friedlander (Eds.),1990,,,,"ii-ix, 1-335",0,English,,,,"978-0-12-364521-0,0-12-364521-2",0074-7696,,,,,,,,,,0,,,,,,,1,8855814,pdf,e2a1d373d0db753240415ce9357f117d,,,A:\\_for_add\\1\\SD\\00747696-121 (11).pdf,0,2000-01-01 01:00:00,2016-04-03 02:51:08,http://ars.els-cdn.com/content/image/1-s2.0-S0074769608X60541-cov150h.gif,,
15309412,,,International Review of Cytology 122,,K.W. Jeon and M. Friedlander (Eds.),1990,,,,"ii-x, 1-271",0,English,,,,"978-0-12-364522-7,0-12-364522-0",0074-7696,,,,,,,,,,0,,,,,,,1,8028225,pdf,1435bda0fe7001c79254dd62cdf39067,,,A:\\_for_add\\1\\SD\\00747696-122 (10).pdf,0,2000-01-01 01:00:00,2016-04-03 02:51:08,http://ars.els-cdn.com/content/image/1-s2.0-S0074769608X61042-cov150h.gif,,
15309413,,,International Review of Cytology 123,,K.W. Jeon and M. Friedlander (Eds.),1990,,,,"ii-ix, 1-258",0,English,,,,"978-0-12-364523-4,0-12-364523-9",0074-7696,,,,,,,,,,0,,,,,,,1,8572988,pdf,2ee8e6c2a3eefcc09ede5c7a14fb5528,,,A:\\_for_add\\1\\SD\\00747696-123 (12).pdf,0,2000-01-01 01:00:00,2016-04-03 02:51:08,http://ars.els-cdn.com/content/image/1-s2.0-S0074769608X60553-cov150h.gif,,
15309414,,,International Review of Cytology 124,,K.W. Jeon and M. Friedlander (Eds.),1991,,,,"ii-ix, 1-288",0,English,,,,978-0-12-364524-1,0074-7696,,,,,,,,,,0,,,,,,,1,6566606,pdf,88d8c916b2c07fd3e0f0f728fe135fa4,,,A:\\_for_add\\1\\SD\\00747696-124 (11).pdf,0,2000-01-01 01:00:00,2016-04-03 02:51:08,http://ars.els-cdn.com/content/image/1-s2.0-S0074769608X61297-cov150h.gif,,
15309415,,,International Review of Cytology 125,,Kwang W. Jeon and Martin Friedlander (Eds.),1991,,,,"ii-ix, 1-259",0,English,,,,"978-0-12-364525-8,0-12-364525-5",0074-7696,,,,,,,,,,0,,,,,,,1,7088812,pdf,d7b83b2de292710f6ddea3f7f90d6e17,,,A:\\_for_add\\1\\SD\\00747696-125 (11).pdf,0,2000-01-01 01:00:00,2016-04-03 02:51:08,http://ars.els-cdn.com/content/image/1-s2.0-S0074769608X61054-cov150h.gif,,
15309416,,,International Review of Cytology 129,,Kwang W. Jeon and Martin Friedlander (Eds.),1991,,,,"ii-x, 1-343",0,English,,,,978-0-12-364529-6,0074-7696,,,,,,,,,,0,,,,,,,1,8269974,pdf,ada2c149f69ba27097712449277ef098,,,A:\\_for_add\\1\\SD\\00747696-129 (12).pdf,0,2000-01-01 01:00:00,2016-04-03 02:51:08,http://ars.els-cdn.com/content/image/1-s2.0-S0074769608X60437-cov150h.gif,,
15309417,Perspectives in Plant Cell and Tissue Culture,,International Review of Cytology 13,,G.H. Bourne and J.F. Danielli (Eds.),1962,,,,"iii-v, 1-393",0,English,,,,978-0-12-364313-1,0074-7696,,,,,,,,,,0,,,,,,,1,9203675,pdf,a1c3204896a97562a13dea6a4f51be47,,,A:\\_for_add\\1\\SD\\00747696-13 (14).pdf,0,2000-01-01 01:00:00,2016-04-03 02:51:08,http://ars.els-cdn.com/content/image/1-s2.0-S0074769608X60267-cov150h.gif,,
15309418,,,International Review of Cytology 133,,Kwang W. Jeon and Martin Friedlander (Eds.),1992,,,,"ii-ix, 1-319",0,English,,,,"978-0-12-364533-3,0-12-364533-6",0074-7696,,,,,,,,,,0,,,,,,,1,8452381,pdf,17ae069a5f0830e3b309623cd7926a87,,,A:\\_for_add\\1\\SD\\00747696-133 (11).pdf,0,2000-01-01 01:00:00,2016-04-03 02:51:08,http://ars.els-cdn.com/content/image/1-s2.0-S0074769608X61571-cov150h.gif,,
15309419,,,International Review of Cytology 138,,Kwang W. Jeon and Martin Friedlander (Eds.),1992,,,,"ii-x, 1-336",0,English,,,,"978-0-12-364541-8,0-12-364541-7",0074-7696,,,,,,,,,,0,,,,,,,1,7564573,pdf,ef6b5a704f9221b5e5d9c23226cb9ba9,,,A:\\_for_add\\1\\SD\\00747696-138 (12).pdf,0,2000-01-01 01:00:00,2016-04-03 02:51:08,http://ars.els-cdn.com/content/image/1-s2.0-S0074769608X61340-cov150h.gif,,
15309420,,,International Review of Cytology 14,,G.H. Bourne and J.F. Danielli (Eds.),1963,,,,"v, 1-414",0,English,,,,978-0-12-364314-8,0074-7696,,,,,,,,,,0,,,,,,,1,13815547,pdf,6d5621ab66be0cacb7fe6558d3ed6bdf,,,A:\\_for_add\\1\\SD\\00747696-14 (13).pdf,0,2000-01-01 01:00:00,2016-04-03 02:51:08,http://ars.els-cdn.com/content/image/S00747696.gif,,
15309421,,,International Review of Cytology 143,,"Kwang W. Jeon, Martin Friedlander and Jonathan Jarvik (Eds.)",1993,,,,"ii-x, 1-349",0,English,,,,"978-0-12-364546-3,0-12-364546-8",0074-7696,,,,,,,,,,0,,,,,,,1,7417181,pdf,509b8cccb62e6b368d0a2b5a147e4f55,,,A:\\_for_add\\1\\SD\\00747696-143 (11).pdf,0,2000-01-01 01:00:00,2016-04-03 02:51:08,http://ars.els-cdn.com/content/image/1-s2.0-S0074769608X61595-cov150h.gif,,
15309422,,,International Review of Cytology 147,,Kwang W. Jeon and Jonathan Jarvik (Eds.),1993,,,,"ii-ix, 1-352",0,English,,,,"978-0-12-364550-0,0-12-364550-6",0074-7696,,,,,,,,,,0,,,,,,,1,7093502,pdf,2d5d9031458cd8b53dbec766cff5da0a,,,A:\\_for_add\\1\\SD\\00747696-147 (12).pdf,0,2000-01-01 01:00:00,2016-04-03 02:51:08,http://ars.els-cdn.com/content/image/1-s2.0-S0074769608X60693-cov150h.gif,,
15309423,,,International Review of Cytology 148,,Kwang W. Jeon and Jonathan Jarvik (Eds.),1994,,,,"ii-ix, 1-319",0,English,,,,978-0-12-364551-7,0074-7696,,,,,,,,,,0,,,,,,,1,6807908,pdf,29d85812ae8099f3a94173ae1288d881,,,A:\\_for_add\\1\\SD\\00747696-148 (11).pdf,0,2000-01-01 01:00:00,2016-04-03 02:51:08,http://ars.els-cdn.com/content/image/1-s2.0-S0074769608X62059-cov150h.gif,,
15309424,,,International Review of Cytology 15,,G.H. Bourne and J.F. Danielli (Eds.),1963,,,,"iii-v, i-444",0,English,,,,978-0-12-364315-5,0074-7696,,,,,,,,,,0,,,,,,,1,11594719,pdf,7ef9774221b419b7d93e401b83490765,,,A:\\_for_add\\1\\SD\\00747696-15 (14).pdf,0,2000-01-01 01:00:00,2016-04-03 02:51:08,http://ars.els-cdn.com/content/image/1-s2.0-S0074769608X60978-cov150h.gif,,
15309425,,,International Review of Cytology 16,,G.H. Bourne and J.F. Danielli (Eds.),1964,,,,"iii-v, 1-345",0,English,,,,978-0-12-364316-2,0074-7696,,,,,,,,,,0,,,,,,,1,11909522,pdf,fdf6dbb0a10b0bfe2f1560af1dde3eb4,,,A:\\_for_add\\1\\SD\\00747696-16 (12).pdf,0,2000-01-01 01:00:00,2016-04-03 02:51:08,http://ars.els-cdn.com/content/image/1-s2.0-S0074769608X60279-cov150h.gif,,
15309426,,,International Review of Cytology 161,,Kwang W. Jeon and Jonathan Jarvik (Eds.),1995,,,,"ii-vii, 1-342",0,English,,,,978-0-12-364564-7,0074-7696,,,,,,,,,,0,,,,,,,1,6036423,pdf,24d34e95774de22d21e364504e9bd665,,,A:\\_for_add\\1\\SD\\00747696-161 (10).pdf,0,2000-01-01 01:00:00,2016-04-03 02:51:08,http://ars.els-cdn.com/content/image/1-s2.0-S0074769608X62138-cov150h.gif,,
15309427,,,International Review of Cytology 162,,Ronald Berezney and Kwang W. Jeon (Eds.),1996,,,,"ii-xx, 1-595",0,English,,,,978-0-12-364565-4,0074-7696,,,,,,,,,,0,,,,,,,1,14757600,pdf,721431d452d342925364f1a90ff42f0f,,,A:\\_for_add\\1\\SD\\00747696-162 (18).pdf,0,2000-01-01 01:00:00,2016-04-03 02:51:08,http://ars.els-cdn.com/content/image/1-s2.0-S0074769608X61066-cov150h.gif,,
15309428,,,International Review of Cytology 164,,Kwang W. Jeon and Jonathan Jarvik (Eds.),1996,,,,"ii-ix, 1-336",0,English,,,,978-0-12-364568-5,0074-7696,,,,,,,,,,0,,,,,,,1,5832913,pdf,be1b5d4df6fbde013272d62764a1ae82,,,A:\\_for_add\\1\\SD\\00747696-164 (11).pdf,0,2000-01-01 01:00:00,2016-04-03 02:51:08,http://ars.els-cdn.com/content/image/1-s2.0-S0074769608X62035-cov150h.gif,,
15309429,,,International Review of Cytology 166,,Kwang W. Jeon (Eds.),1996,,,,"ii-x, 1-289",0,English,,,,"978-0-12-364570-8,0-12-364570-0",0074-7696,,,,,,,,,,0,,,,,,,1,7761063,pdf,3c93a4fec0b033e8fcc9b8e62ba20fc3,,,A:\\_for_add\\1\\SD\\00747696-166 (11).pdf,0,2000-01-01 01:00:00,2016-04-03 02:51:08,http://ars.els-cdn.com/content/image/1-s2.0-S0074769608X6214X-cov150h.gif,,
15309430,,,International Review of Cytology 168,,Kwang W. Jeon (Eds.),1996,,,,"ii-x, 1-347",0,English,,,,978-0-12-364572-2,0074-7696,,,,,,,,,,0,,,,,,,1,7683026,pdf,10d6a6151d777f6feb9df54d1b1377fa,,,A:\\_for_add\\1\\SD\\00747696-168 (11).pdf,0,2000-01-01 01:00:00,2016-04-03 02:51:08,http://ars.els-cdn.com/content/image/1-s2.0-S0074769608X60784-cov150h.gif,,
15309431,,,International Review of Cytology 169,,Kwang W. Jeon (Eds.),1996,,,,"ii-ix, 1-325",0,English,,,,"978-0-12-364573-9,0-12-364573-5",0074-7696,,,,,,,,,,0,,,,,,,1,6985560,pdf,bce08ec8d802284fbac43c7749c1dd2e,,,A:\\_for_add\\1\\SD\\00747696-169 (11).pdf,0,2000-01-01 01:00:00,2016-04-03 02:51:08,http://ars.els-cdn.com/content/image/1-s2.0-S0074769608X61686-cov150h.gif,,
15309432,,,International Review of Cytology 17,,G.H. Bourne and J.F. Danielli (Eds.),1964,,,,"iii, 1-401",0,English,,,,978-0-12-364317-9,0074-7696,,,,,,,,,,0,,,,,,,1,15145145,pdf,25f9f2f59b0398b501d3d4ca7945a7b9,,,A:\\_for_add\\1\\SD\\00747696-17 (11).pdf,0,2000-01-01 01:00:00,2016-04-03 02:51:08,http://ars.els-cdn.com/content/image/1-s2.0-S0074769608X60358-cov150h.gif,,
15309433,,,International Review of Cytology 171,,Kwang W. Jeon (Eds.),1997,,,,"ii-ix, 1-319",0,English,,,,978-0-12-364575-3,0074-7696,,,,,,,,,,0,,,,,,,1,9369323,pdf,9b45e544916e39b08c291ff976221423,,,A:\\_for_add\\1\\SD\\00747696-171 (11).pdf,0,2000-01-01 01:00:00,2016-04-03 02:51:08,http://ars.els-cdn.com/content/image/1-s2.0-S0074769608X62199-cov150h.gif,,
15309434,,,International Review of Cytology 175,,Kwang W. Jeon (Eds.),1997,,,,"ii-vii, 1-319",0,English,,,,978-0-12-364579-1,0074-7696,,,,,,,,,,0,,,,,,,1,9044461,pdf,75d2c48aa3947fc6acf9e7a5ae5f1ad2,,,A:\\_for_add\\1\\SD\\00747696-175 (10).pdf,0,2000-01-01 01:00:00,2016-04-03 02:51:08,http://ars.els-cdn.com/content/image/1-s2.0-S0074769608X61819-cov150h.gif,,
15309435,Cumulative Subject Index,,International Review of Cytology 179,,Kwang W. Jeon (Eds.),1997,,,,"ii-iv, 1-419",0,English,,,,978-0-12-364583-8,0074-7696,,,,,,,,,,0,,,,,,,1,7041638,pdf,ea808b9412bd153c41c877251a39562c,,,A:\\_for_add\\1\\SD\\00747696-179 (5).pdf,0,2000-01-01 01:00:00,2016-04-03 02:51:08,http://ars.els-cdn.com/content/image/1-s2.0-S0074769608X61583-cov150h.gif,,
15309436,,,International Review of Cytology 183,,Kwang W. Jeon (Eds.),1998,,,,"ii-vii, 1-279",0,English,,,,"978-0-12-364587-6,0074769618,0-12-364587-5",0074-7696,,,,,,,,,,0,,,,,,,1,5483035,pdf,74df619c914e22108f36fc51a741f0d4,,,A:\\_for_add\\1\\SD\\00747696-183 (9).pdf,0,2000-01-01 01:00:00,2016-04-03 02:51:08,http://ars.els-cdn.com/content/image/1-s2.0-S0074769608X60139-cov150h.gif,,
15309437,,,International Review of Cytology 184,,Kwang W. Jeon (Eds.),1998,,,,"ii-vii, 1-297",0,English,,,,"978-0-12-364588-3,0074769618",0074-7696,,,,,,,,,,0,,,,,,,1,7091154,pdf,91ce4d0feba076b7baf90d74e9ade32c,,,A:\\_for_add\\1\\SD\\00747696-184 (10).pdf,0,2000-01-01 01:00:00,2016-04-03 02:51:08,http://ars.els-cdn.com/content/image/1-s2.0-S0074769608X61868-cov150h.gif,,
15309438,Mlcrocompartmentatlon and Phase Separation in Cytoplasm,,International Review of Cytology 192,,"Harry Walter, Donald E. Brooks and Paul A. Srere (Eds.)",1999,,,,"ii-xvi, 3-352",0,English,,,,"978-0-12-364596-8,0-12-364596-4",0074-7696,,,,,,,,,,0,,,,,,,1,8282527,pdf,a0eac83126abc9ab0ee866df2c76ac5e,,,A:\\_for_add\\1\\SD\\00747696-192 (20).pdf,0,2000-01-01 01:00:00,2016-04-03 02:51:08,http://ars.els-cdn.com/content/image/1-s2.0-S0074769608X60449-cov150h.gif,,
15309439,,,International Review of Cytology 2,,G.H. Bourne and J.F. Danielli (Eds.),1953,,,,"iii-vii, 1-545",0,English,,,,978-0-12-364302-5,0074-7696,,,,,,,,,,0,,,,,,,1,15886116,pdf,09fa5106f7f2635566ec706e57e077af,,,A:\\_for_add\\1\\SD\\00747696-2 (22).pdf,0,2000-01-01 01:00:00,2016-04-03 02:51:08,http://ars.els-cdn.com/content/image/1-s2.0-S0074769608X60929-cov150h.gif,,
15309440,,,International Review of Cytology 20,,G.H. Bourne and J.F. Danielli (Eds.),1966,,,,"ii-v, 1-380",0,English,,,,978-0-12-364320-9,0074-7696,,,,,,,,,,0,,,,,,,1,13655876,pdf,56470fcacb264cd79b4b588a73c54a39,,,A:\\_for_add\\1\\SD\\00747696-20 (14).pdf,0,2000-01-01 01:00:00,2016-04-03 02:51:08,http://ars.els-cdn.com/content/image/1-s2.0-S0074769608X60711-cov150h.gif,,
15309441,,,International Review of Cytology 21,,G.H. Bourne and J.F. Danielli (Eds.),1967,,,,"ii-v, 1-382",0,English,,,,978-0-12-364321-6,0074-7696,,,,,,,,,,0,,,,,,,1,14252673,pdf,62cd0bd8a8865547dce8576901e3c0e1,,,A:\\_for_add\\1\\SD\\00747696-21 (13).pdf,0,2000-01-01 01:00:00,2016-04-03 02:51:08,http://ars.els-cdn.com/content/image/1-s2.0-S0074769608X60723-cov150h.gif,,
15309442,,,International Review of Cytology 22,,"G.H. Bourne, J.F. Danielli and Kwang Jeon (Eds.)",1967,,,,"ii-v, 1-420",0,English,,,,978-0-12-364322-3,0074-7696,,,,,,,,,,0,,,,,,,1,10851516,pdf,638448565717cca970de100df9efc062,,,A:\\_for_add\\1\\SD\\00747696-22 (15).pdf,0,2000-01-01 01:00:00,2016-04-03 02:51:08,http://ars.els-cdn.com/content/image/1-s2.0-S0074769608X61558-cov150h.gif,,
15309443,International Review of Cytology,,International Review of Cytology 23,,"G.H. Bourne, J.F. Danielli and K.W. Jeon (Eds.)",1968,,,,"iii-xv, 1-398",0,English,,,,978-0-12-364323-0,0074-7696,,,,,,,,,,0,,,,,,,1,11310807,pdf,8e974c6329bbbc584f6acb71beb79e6d,,,A:\\_for_add\\1\\SD\\00747696-23 (13).pdf,0,2000-01-01 01:00:00,2016-04-03 02:51:08,http://ars.els-cdn.com/content/image/1-s2.0-S0074769608X60255-cov150h.gif,,
15309444,,,International Review of Cytology 24,,"G.H. Bourne, J.F. Danielli and K.W. Jeon (Eds.)",1968,,,,"iii-xvii, 1-398",0,English,,,,978-0-12-364324-7,0074-7696,,,,,,,,,,0,,,,,,,1,12506586,pdf,26a473a5e6a4e0907a75a089470d07c7,,,A:\\_for_add\\1\\SD\\00747696-24 (14).pdf,0,2000-01-01 01:00:00,2016-04-03 02:51:08,http://ars.els-cdn.com/content/image/1-s2.0-S0074769608X61194-cov150h.gif,,
15309445,,,International Review of Cytology 25,,"G.H. Bourne, J.F. Danielli and K.W. Jeon (Eds.)",1969,,,,"iii-xvii, 1-441",0,English,,,,978-0-12-364325-4,0074-7696,,,,,,,,,,0,,,,,,,1,12277119,pdf,ca53df996f986cb3a38212e76577fb9b,,,A:\\_for_add\\1\\SD\\00747696-25 (17).pdf,0,2000-01-01 01:00:00,2016-04-03 02:51:08,http://ars.els-cdn.com/content/image/1-s2.0-S0074769608X6019X-cov150h.gif,,
15309446,,,International Review of Cytology 27,,"G.H. Bourne, J.F. Danlelli and K.W. Jeon (Eds.)",1970,,,,"iii-xviii, 1-407",0,English,,,,978-0-12-364327-8,0074-7696,,,,,,,,,,0,,,,,,,1,15975756,pdf,9e780f48e17d15d5126fb638af677c49,,,A:\\_for_add\\1\\SD\\00747696-27 (13).pdf,0,2000-01-01 01:00:00,2016-04-03 02:51:08,http://ars.els-cdn.com/content/image/1-s2.0-S0074769608X61078-cov150h.gif,,
15309447,,,International Review of Cytology 30,,"G.H. Bourne, J.F. Danielli and K.W. Jeon (Eds.)",1971,,,,"vii, 1-414",0,English,,,,978-0-12-364330-8,0074-7696,,,,,,,,,,0,,,,,,,1,12240082,pdf,7e4a1a390ffe20ebb1d16c9b7c8eec56,,,A:\\_for_add\\1\\SD\\00747696-30 (13).pdf,0,2000-01-01 01:00:00,2016-04-03 02:51:08,http://ars.els-cdn.com/content/image/1-s2.0-S0074769608X60048-cov150h.gif,,
15309448,,,International Review of Cytology 31,,"G.H. Bourne, J.F. Danielli and K.W. Jeon (Eds.)",1971,,,,"ix, 1-409",0,English,,,,978-0-12-364331-5,0074-7696,,,,,,,,,,0,,,,,,,1,11769833,pdf,ea55ea06524412673eba2d386147c42c,,,A:\\_for_add\\1\\SD\\00747696-31 (15).pdf,0,2000-01-01 01:00:00,2016-04-03 02:51:08,http://ars.els-cdn.com/content/image/1-s2.0-S0074769608X6005X-cov150h.gif,,
15309449,,,International Review of Cytology 32,,"G.H. Bourne, J.F. Danielli and K.W. Jeon (Eds.)",1972,,,,"ii-ix, 1-382",0,English,,,,978-0-12-364332-2,0074-7696,,,,,,,,,,0,,,,,,,1,10889208,pdf,7e363441fd21c15dcb58f39839314bfc,,,A:\\_for_add\\1\\SD\\00747696-32 (15).pdf,0,2000-01-01 01:00:00,2016-04-03 02:51:08,http://ars.els-cdn.com/content/image/1-s2.0-S0074769608X60309-cov150h.gif,,
15309450,,,International Review of Cytology 33,,"G.H. Bourne, J.F. Danielli and K.W. Jeon (Eds.)",1972,,,,"ii-ix, 1-369",0,English,,,,978-0-12-364333-9,0074-7696,,,,,,,,,,0,,,,,,,1,12718667,pdf,bb550fe2c5b2474df77ba16178425cb5,,,A:\\_for_add\\1\\SD\\00747696-33 (15).pdf,0,2000-01-01 01:00:00,2016-04-03 02:51:08,http://ars.els-cdn.com/content/image/1-s2.0-S0074769608X61236-cov150h.gif,,
15309451,,,International Review of Cytology 34,,G.H. Bourne and J.F. Danielli (Eds.),1973,,,,"ii-vii, 1-382",0,English,,,,"978-0-12-364334-6,0074769634",0074-7696,,,,,,,,,,0,,,,,,,1,11729466,pdf,752c9e7606dfb07debecacf58024e22b,,,A:\\_for_add\\1\\SD\\00747696-34 (13).pdf,0,2000-01-01 01:00:00,2016-04-03 02:51:08,http://ars.els-cdn.com/content/image/1-s2.0-S0074769608X61649-cov150h.gif,,
15309452,,,International Review of Cytology 37,,"G.H. Bourne, J.F. Danielli and K.W. Jeon (Eds.)",1974,,,,"ii-ix, 1-401",0,English,,,,978-0-12-364337-7,0074-7696,,,,,,,,,,0,,,,,,,1,12963467,pdf,e94eaf31c16468f9f621e51ca80e2288,,,A:\\_for_add\\1\\SD\\00747696-37 (14).pdf,0,2000-01-01 01:00:00,2016-04-03 02:51:08,http://ars.els-cdn.com/content/image/1-s2.0-S0074769608X61169-cov150h.gif,,
15309453,,,International Review of Cytology 38,,"G.H. Bourne, J.F. Danielli and K.W. Jeon (Eds.)",1974,,,,"ii-ix, 1-420",0,English,,,,978-0-12-364338-4,0074-7696,,,,,,,,,,0,,,,,,,1,13403656,pdf,12b49ea2e8681475e6ee77d33fea6c60,,,A:\\_for_add\\1\\SD\\00747696-38 (15).pdf,0,2000-01-01 01:00:00,2016-04-03 02:51:08,http://ars.els-cdn.com/content/image/1-s2.0-S0074769608X6084X-cov150h.gif,,
15309454,,,International Review of Cytology 39,,"G.H. Bourne, J.F. Danielli and K.W. Jeon (Eds.)",1974,,,,"ii-ix, 1-495",0,English,,,,"978-0-12-364339-1,0-12-364339-2",0074-7696,,,,,,,,,,0,,,,,,,1,17478174,pdf,cf165849ed75934d168db0febcd4b8d9,,,A:\\_for_add\\1\\SD\\00747696-39 (14).pdf,0,2000-01-01 01:00:00,2016-04-03 02:51:08,http://ars.els-cdn.com/content/image/1-s2.0-S0074769608X60851-cov150h.gif,,
15309455,,,International Review of Cytology 4,,G.H. Bourne and J.F. Danielli (Eds.),1955,,,,"iii-vii, 1-419",0,English,,,,978-0-12-364304-9,0074-7696,,,,,,,,,,0,,,,,,,1,11777695,pdf,f1195bce435cf06efa2620de0735c857,,,A:\\_for_add\\1\\SD\\00747696-4 (18).pdf,0,2000-01-01 01:00:00,2016-04-03 02:51:08,http://ars.els-cdn.com/content/image/1-s2.0-S0074769608X60395-cov150h.gif,,
15309456,,,International Review of Cytology 40,,"G.H. Bourne, J.F. Danielli and K.W. Jeon (Eds.)",1975,,,,"ii-vii, 1-456",0,English,,,,"978-0-12-364340-7,0-12-364340-6",0074-7696,,,,,,,,,,0,,,,,,,1,15608931,pdf,1bb760a3b2644d334514806b5136489e,,,A:\\_for_add\\1\\SD\\00747696-40 (13).pdf,0,2000-01-01 01:00:00,2016-04-03 02:51:08,http://ars.els-cdn.com/content/image/1-s2.0-S0074769608X60863-cov150h.gif,,
15309457,,,International Review of Cytology 44,,"G.H. Bourne, J.F. Danielli and K.W. Jeon (Eds.)",1976,,,,"ii-ix, 1-426",0,English,,,,"978-0-12-364344-5,0-12-364344-9",0074-7696,,,,,,,,,,0,,,,,,,1,10829198,pdf,5f57049fb0515c85a7440e4d2317ed68,,,A:\\_for_add\\1\\SD\\00747696-44 (14).pdf,0,2000-01-01 01:00:00,2016-04-03 02:51:08,http://ars.els-cdn.com/content/image/S00747696.gif,,
15309458,,,International Review of Cytology 45,,"G.H. Bourne, J.F. Danielli and K.W. Jeon (Eds.)",1976,,,,"ix-x, 1-423",0,English,,,,"978-0-12-364345-2,0-12-364345-7",0074-7696,,,,,,,,,,0,,,,,,,1,9368773,pdf,9ed9950197d2fd9e3d1174f105dc6199,,,A:\\_for_add\\1\\SD\\00747696-45 (13).pdf,0,2000-01-01 01:00:00,2016-04-03 02:51:08,http://ars.els-cdn.com/content/image/1-s2.0-S0074769608X60073-cov150h.gif,,
15309459,,,International Review of Cytology 46,,"G.H. Bourne, J.F. Danielli and K.W. Jeon (Eds.)",1976,,,,"ii-vii, 1-410",0,English,,,,"978-0-12-364346-9,0-12-364346-5",0074-7696,,,,,,,,,,0,,,,,,,1,11840342,pdf,1cad83cddd32304e161fd561c1e5f663,,,A:\\_for_add\\1\\SD\\00747696-46 (11).pdf,0,2000-01-01 01:00:00,2016-04-03 02:51:08,http://ars.els-cdn.com/content/image/1-s2.0-S0074769608X60899-cov150h.gif,,
15309460,,,International Review of Cytology 47,,"G.H. Bourne, J.F. Danielli and K.W. Jeon (Eds.)",1976,,,,"ix, 1-377",0,English,,,,"978-0-12-364347-6,0-12-364347-3",0074-7696,,,,,,,,,,0,,,,,,,1,11841231,pdf,484e1e581fca66cecf65545cebba69f0,,,A:\\_for_add\\1\\SD\\00747696-47 (13).pdf,0,2000-01-01 01:00:00,2016-04-03 02:51:08,http://ars.els-cdn.com/content/image/1-s2.0-S0074769608X60085-cov150h.gif,,
15309461,,,International Review of Cytology 50,,"G.H. Bourne, J.F. Danielli and K.W. Jeon (Eds.)",1977,,,,"ii-ix, 1-413",0,English,,,,"978-0-12-364350-6,0074769650,0-12-364350-3",0074-7696,,,,,,,,,,0,,,,,,,1,13583822,pdf,51178ccc30caaa2fa398142b786137e6,,,A:\\_for_add\\1\\SD\\00747696-50 (12).pdf,0,2000-01-01 01:00:00,2016-04-03 02:51:08,http://ars.els-cdn.com/content/image/1-s2.0-S0074769608X60097-cov150h.gif,,
15309462,,,International Review of Cytology 51,,"G.H. Bourne, J.F. Danielli and K.W. Jeon (Eds.)",1977,,,,"ii-ix, 1-358",0,English,,,,978-0-12-364351-3,0074-7696,,,,,,,,,,0,,,,,,,1,11553213,pdf,660224279b849784f0f1df7f46784a71,,,A:\\_for_add\\1\\SD\\00747696-51 (13).pdf,0,2000-01-01 01:00:00,2016-04-03 02:51:08,http://ars.els-cdn.com/content/image/1-s2.0-S0074769608X60218-cov150h.gif,,
15309463,,,International Review of Cytology 53,,G.H. Bourne and J.F. Danielli (Eds.),1978,,,,"ii-vii, 1-400",0,English,,,,"978-0-12-364353-7,0-12-364353-8",0074-7696,,,,,,,,,,0,,,,,,,1,11614634,pdf,581318a5db7fb81af0d3873d38019412,,,A:\\_for_add\\1\\SD\\00747696-53 (11).pdf,0,2000-01-01 01:00:00,2016-04-03 02:51:08,http://ars.els-cdn.com/content/image/1-s2.0-S0074769608X61923-cov150h.gif,,
15309464,,,International Review of Cytology 54,,"G.H. Bourne, J.F. Danielli and K.W. Jeon (Eds.)",1978,,,,"ii-ix, 1-377",0,English,,,,"978-0-12-364354-4,0-12-364354-6",0074-7696,,,,,,,,,,0,,,,,,,1,9725433,pdf,bb852caea1f369fa051cd16e305077fd,,,A:\\_for_add\\1\\SD\\00747696-54 (15).pdf,0,2000-01-01 01:00:00,2016-04-03 02:51:08,http://ars.els-cdn.com/content/image/1-s2.0-S0074769608X60164-cov150h.gif,,
15309465,,,International Review of Cytology 6,,G.H. Bourne and J.F. Danielli (Eds.),1957,,,,"iii-v, 1-562",0,English,,,,978-0-12-364306-3,0074-7696,,,,,,,,,,0,,,,,,,1,15155396,pdf,e29c9df881740bb987ca620947f34546,,,A:\\_for_add\\1\\SD\\00747696-6 (18).pdf,0,2000-01-01 01:00:00,2016-04-03 02:51:08,http://ars.els-cdn.com/content/image/1-s2.0-S0074769608X61534-cov150h.gif,,
15309466,,,International Review of Cytology 63,,"G.H. Bourne, J.F. Danielli and K.W. Jeon (Eds.)",1980,,,,"ii-vii, 1-410",0,English,,,,"978-0-12-364463-3,0-12-364463-1",0074-7696,,,,,,,,,,0,,,,,,,1,11769688,pdf,335a242bd1ac05b9eba55646ce72177f,,,A:\\_for_add\\1\\SD\\00747696-63 (12).pdf,0,2000-01-01 01:00:00,2016-04-03 02:51:08,http://ars.els-cdn.com/content/image/1-s2.0-S0074769608X61492-cov150h.gif,,
15309467,,,International Review of Cytology 66,,"G.H. Bourne, J.F. Danielli and K.W. Jeon (Eds.)",1980,,,,"ii-x, 1-357",0,English,,,,"978-0-12-364466-4,0-12-364466-6",0074-7696,,,,,,,,,,0,,,,,,,1,11198964,pdf,d1752d0682afc8437304ceea57b69967,,,A:\\_for_add\\1\\SD\\00747696-66 (13).pdf,0,2000-01-01 01:00:00,2016-04-03 02:51:08,http://ars.els-cdn.com/content/image/1-s2.0-S0074769608X61674-cov150h.gif,,
15309468,,,International Review of Cytology 67,,G.H. Bourne and J.F. Danielli (Eds.),1980,,,,"ii-vii, 1-320",0,English,,,,978-0-12-364467-1,0074-7696,,,,,,,,,,0,,,,,,,1,9950276,pdf,6a670198f23fec49e0958571e31a7a33,,,A:\\_for_add\\1\\SD\\00747696-67 (12).pdf,0,2000-01-01 01:00:00,2016-04-03 02:51:08,http://ars.els-cdn.com/content/image/1-s2.0-S0074769608X62072-cov150h.gif,,
15309469,,,International Review of Cytology 68,,"G.H. Bourne, J.F. Danielli and K.W. Jeon (Eds.)",1980,,,,"ii-ix, 1-327",0,English,,,,"978-0-12-364468-8,0-12-364468-2",0074-7696,,,,,,,,,,0,,,,,,,1,10727578,pdf,8b6bb6021b421e1eb9761910f281bcca,,,A:\\_for_add\\1\\SD\\00747696-68 (13).pdf,0,2000-01-01 01:00:00,2016-04-03 02:51:08,http://ars.els-cdn.com/content/image/1-s2.0-S0074769608X61972-cov150h.gif,,
15309470,,,International Review of Cytology 69,,"G.H. Bourne, J.F. Danielli and K.W. Jeon (Eds.)",1981,,,,"ii-ix, 1-339",0,English,,,,"978-0-12-364469-5,0074769669,0-12-364469-0",0074-7696,,,,,,,,,,0,,,,,,,1,7837161,pdf,398d32d0aa9b0927ebe74ed0a70b864e,,,A:\\_for_add\\1\\SD\\00747696-69 (13).pdf,0,2000-01-01 01:00:00,2016-04-03 02:51:08,http://ars.els-cdn.com/content/image/1-s2.0-S0074769608X61984-cov150h.gif,,
15309471,,,International Review of Cytology 7,,G.H. Bourne and J.F. Danielli (Eds.),1958,,,,"iii-vi, 1-684",0,English,,,,978-0-12-364307-0,0074-7696,,,,,,,,,,0,,,,,,,1,18290139,pdf,e6cb4d3ae274e1c08e42124e1615e3a4,,,A:\\_for_add\\1\\SD\\00747696-7 (18).pdf,0,2000-01-01 01:00:00,2016-04-03 02:51:08,http://ars.els-cdn.com/content/image/1-s2.0-S0074769608X62266-cov150h.gif,,
15309472,,,International Review of Cytology 70,,"G.H. Bourne, J.F. Danielli and K.W. Jeon (Eds.)",1981,,,,"ii-ix, 1-351",0,English,,,,"978-0-12-364470-1,0-12-364470-4",0074-7696,,,,,,,,,,0,,,,,,,1,13021097,pdf,af91a272164ac1166a9f49d2373baf67,,,A:\\_for_add\\1\\SD\\00747696-70 (12).pdf,0,2000-01-01 01:00:00,2016-04-03 02:51:08,http://ars.els-cdn.com/content/image/1-s2.0-S0074769608X6098X-cov150h.gif,,
15309473,,,International Review of Cytology 71,,"G.H. Bourne, J.F. Danielli and K.W. Jeon (Eds.)",1981,,,,"ii-vii, 1-389",0,English,,,,"978-0-12-364471-8,0-12-364471-2",0074-7696,,,,,,,,,,0,,,,,,,1,9577320,pdf,b66ac98fea2f073856468a9ba36efcdf,,,A:\\_for_add\\1\\SD\\00747696-71 (13).pdf,0,2000-01-01 01:00:00,2016-04-03 02:51:08,http://ars.els-cdn.com/content/image/1-s2.0-S0074769608X61029-cov150h.gif,,
15309474,,,International Review of Cytology 72,,"G.H. Bourne, J.F. Danielli and K.W. Jeon (Eds.)",1981,,,,"ii-vii, 1-329",0,English,,,,978-0-12-364472-5,0074-7696,,,,,,,,,,0,,,,,,,1,10365208,pdf,80e0fc296693e17a1ce0f7c889d2b1fa,,,A:\\_for_add\\1\\SD\\00747696-72 (12).pdf,0,2000-01-01 01:00:00,2016-04-03 02:51:08,http://ars.els-cdn.com/content/image/1-s2.0-S0074769608X61030-cov150h.gif,,
15309475,,,International Review of Cytology 74,,"G.H. Bourne, J.F. Danielli and K.W. Jeon (Eds.)",1982,,,,"ii-vii, 1-296",0,English,,,,978-0-12-364474-9,0074-7696,,,,,,,,,,0,,,,,,,1,8565453,pdf,ae1e7e5a7ff446e37da2e6c3072130d1,,,A:\\_for_add\\1\\SD\\00747696-74 (12).pdf,0,2000-01-01 01:00:00,2016-04-03 02:51:08,http://ars.els-cdn.com/content/image/1-s2.0-S0074769608X61017-cov150h.gif,,
15309476,,,International Review of Cytology 75,,"G.H. Bourne, J.F. Danielli and K.W. Jeon (Eds.)",1982,,,,"ii-x, 1-296",0,English,,,,"978-0-12-364475-6,0-12-364475-5",0074-7696,,,,,,,,,,0,,,,,,,1,8937004,pdf,ed8dd32df1c02a65747a80bd446c5fcc,,,A:\\_for_add\\1\\SD\\00747696-75 (13).pdf,0,2000-01-01 01:00:00,2016-04-03 02:51:08,http://ars.els-cdn.com/content/image/1-s2.0-S0074769608X60905-cov150h.gif,,
15309477,,,International Review of Cytology 82,,"G.H. Bourne, J.F. Danielli and K.W. Jeon (Eds.)",1983,,,,"ii-vii, 1-345",0,English,,,,"978-0-12-364482-4,0-12-364482-8",0074-7696,,,,,,,,,,0,,,,,,,1,10802560,pdf,b662c7a7f984d0fea3b09924d0a026d7,,,A:\\_for_add\\1\\SD\\00747696-82 (11).pdf,0,2000-01-01 01:00:00,2016-04-03 02:51:08,http://ars.els-cdn.com/content/image/1-s2.0-S0074769608X60735-cov150h.gif,,
15309478,,,International Review of Cytology 84,,"G.H. Bourne, J.F. Danielli and K.W. Jeon (Eds.)",1983,,,,"ii-x, 1-364",0,English,,,,"978-0-12-364484-8,0-12-364484-4",0074-7696,,,,,,,,,,0,,,,,,,1,8493546,pdf,da528c706b094ff0cc3e428fa689db0f,,,A:\\_for_add\\1\\SD\\00747696-84 (14).pdf,0,2000-01-01 01:00:00,2016-04-03 02:51:08,http://ars.els-cdn.com/content/image/1-s2.0-S0074769608X60917-cov150h.gif,,
15309479,,,International Review of Cytology 86,,"G.H. Bourne, J.F. Danielli and K.W. Jeon (Eds.)",1984,,,,"ii-vii, 1-331",0,English,,,,"978-0-12-364486-2,0-12-364486-0",0074-7696,,,,,,,,,,0,,,,,,,1,9721050,pdf,5cbfcf927439b35ae5e9efb47dd4ea96,,,A:\\_for_add\\1\\SD\\00747696-86 (12).pdf,0,2000-01-01 01:00:00,2016-04-03 02:51:08,http://ars.els-cdn.com/content/image/1-s2.0-S0074769608X60176-cov150h.gif,,
15309480,,,International Review of Cytology 89,,"G.H. Bourne, J.F. Danielli and K.W. Jeon (Eds.)",1984,,,,"ii-x, 1-359",0,English,,,,"978-0-12-364489-3,0-12-364489-5",0074-7696,,,,,,,,,,0,,,,,,,1,12346835,pdf,ab7531a2cf5336b45463bacbabeb5edd,,,A:\\_for_add\\1\\SD\\00747696-89 (15).pdf,0,2000-01-01 01:00:00,2016-04-03 02:51:08,http://ars.els-cdn.com/content/image/1-s2.0-S0074769608X6111X-cov150h.gif,,
15309481,,,International Review of Cytology 9,,G.H. Bourne and J.F. Danielli (Eds.),1960,,,,"iii-v, 1-424",0,English,,,,978-0-12-364309-4,0074-7696,,,,,,,,,,0,,,,,,,1,10068977,pdf,b86e0037025ed4fd74bed2fc3ad8d879,,,A:\\_for_add\\1\\SD\\00747696-9 (14).pdf,0,2000-01-01 01:00:00,2016-04-03 02:51:08,http://ars.els-cdn.com/content/image/1-s2.0-S0074769608X60796-cov150h.gif,,
15309482,,,International Review of Cytology 93,,"G.H. Bourne, J.F. Danielli and K.W. Jeon (Eds.)",1985,,,,"ii-xii, 3-368",0,English,,,,"978-0-12-364493-0,0074769693,0-12-364493-3",0074-7696,,,,,,,,,,0,,,,,,,1,5923535,pdf,3e2511c0f9400f20a655c225e9321f85,,,A:\\_for_add\\1\\SD\\00747696-93 (15).pdf,0,2000-01-01 01:00:00,2016-04-03 02:51:08,http://ars.els-cdn.com/content/image/1-s2.0-S0074769608X61170-cov150h.gif,,
15309483,,,International Review of Cytology 94,,"G.H. Bourne, J.F. Danielli and K.W. Jeon (Eds.)",1985,,,,"iii-x, 1-306",0,English,,,,"978-0-12-364494-7,0-12-364494-1",0074-7696,,,,,,,,,,0,,,,,,,1,10506795,pdf,a7a2f8e9b75a602597f773890809f9fa,,,A:\\_for_add\\1\\SD\\00747696-94 (16).pdf,0,2000-01-01 01:00:00,2016-04-03 02:51:08,http://ars.els-cdn.com/content/image/1-s2.0-S0074769608X60346-cov150h.gif,,
15309484,,,International Review of Cytology 97,,G.H. Bourne (Eds.),1985,,,,"ii-viii, 1-354",0,English,,,,"978-0-12-364497-8,0-12-364497-6",0074-7696,,,,,,,,,,0,,,,,,,1,7754005,pdf,637c953d30217f95e2501bbcd6060451,,,A:\\_for_add\\1\\SD\\00747696-97 (10).pdf,0,2000-01-01 01:00:00,2016-04-03 02:51:08,http://ars.els-cdn.com/content/image/1-s2.0-S0074769608X6200X-cov150h.gif,,
15309485,Cytophysiology of the Adrenal Cortex,,International Review of Cytology 98,,G.H. Bourne and J.F. Danielli (Eds.),1986,,,,"ii-xii, 1-405",0,English,,,,978-0-12-364498-5,0074-7696,,,,,,,,,,0,,,,,,,1,12511515,pdf,f0c825e63e33d548c388e9e6371e93a6,,,A:\\_for_add\\1\\SD\\00747696-98 (13).pdf,0,2000-01-01 01:00:00,2016-04-03 02:51:08,http://ars.els-cdn.com/content/image/1-s2.0-S0074769608X61625-cov150h.gif,,
15309486,Polymers: Physical Properties,,"Methods in Experimental Physics 16, Part C",,R.A. Fava (Eds.),1980,,,,"iii-xxiv, 1-528",0,English,,,,978-0-12-475958-9,0076-695X,,,,,,,,,,0,,,,,,,1,10001639,pdf,d98a719ff38f9655bbfdc49ce6595bcc,,,A:\\_for_add\\1\\SD\\0076695X-16-part-PC (16).pdf,0,2000-01-01 01:00:00,2016-04-03 02:51:08,http://ars.els-cdn.com/content/image/1-s2.0-S0076695X08X60302-cov150h.gif,,
15309487,The Cholinergic Synapse,,Progress in Brain Research 49,,Stanislav Tuček (Eds.),1979,,,,"iii-xvi, 3-511",0,English,,,,978-0-444-80105-0,0079-6123,,,,,,,,,,0,,,,,,,1,24056433,pdf,f46f9e9b9a477376e863e0399a123a37,,,A:\\_for_add\\1\\SD\\00796123-49 (92).pdf,0,2000-01-01 01:00:00,2016-04-03 02:51:08,http://ars.els-cdn.com/content/image/1-s2.0-S0079612308X61345-cov150h.gif,,
15309488,,,Progress in Brain Research 68,,"T. Hökfelt, K. Fuxe and B. Pernow (Eds.)",1986,,,,"iii-xiv, 3-411",0,English,,,,"978-0-444-80762-5,0-444-80762-4,0-444-80104-9",0079-6123,,,,,,,,,,0,,,,,,,1,17550443,pdf,0a1d830db3e9158cc8e86db1df2f98a8,,,A:\\_for_add\\1\\SD\\00796123-68 (33).pdf,0,2000-01-01 01:00:00,2016-04-03 02:51:08,http://ars.els-cdn.com/content/image/1-s2.0-S0079612308X6011X-cov150h.gif,,
15309489,Understanding the Brain Through the Hippocampus the Hippocampal Region as a Model for Studying Brain Structure and Function,,Progress in Brain Research 83,,"J. Storm-Mathisen, J. Zimmer and O.P. Ottersen (Eds.)",1990,,,,"III-XV, 1-466",0,English,,,,"978-0-444-81149-3,0-444-81149-4,0-444-80104-9",0079-6123,,,,,,,,,,0,,,,,,,1,22833147,pdf,0ddaadbd4208d597b34e4362af5b6e96,,,A:\\_for_add\\1\\SD\\00796123-83 (38).pdf,0,2000-01-01 01:00:00,2016-04-03 02:51:08,http://ars.els-cdn.com/content/image/1-s2.0-S0079612308X60431-cov150h.gif,,
15309490,The Peptidergic Neuron,,Progress in Brain Research 92,,"J. Joosse, R.M. Buijs and F.J.H. Tilders (Eds.)",1992,,,,"iii-xiii, 1-408",0,English,,,,"978-0-444-81457-9,0-444-81457-4,0-444-80104-9",0079-6123,,,,,,,,,,0,,,,,,,1,16631923,pdf,5b1229335d2c6ab7e20a0affd36e7453,,,A:\\_for_add\\1\\SD\\00796123-92 (38).pdf,0,2000-01-01 01:00:00,2016-04-03 02:51:08,http://ars.els-cdn.com/content/image/1-s2.0-S0079612308X60418-cov150h.gif,,
15309491,,,Pure and Applied Mathematics 118,,Albert E. Hurd and Peter A. Loeb (Eds.),1985,,,,"iii-xii, 1-232",0,English,,,,"978-0-12-362440-6,0-12-362440-1",0079-8169,,,,,,,,,,0,,,,,,,1,4613900,pdf,b099165d73aa5a48d5d05503d2258afe,,,A:\\_for_add\\1\\SD\\00798169-118 (11).pdf,0,2000-01-01 01:00:00,2016-04-03 02:51:08,http://ars.els-cdn.com/content/image/1-s2.0-S0079816908X6074X-cov150h.gif,,
15309492,,,Pure and Applied Mathematics 28,,Maurice Heins (Eds.),1968,,,,"v-ix, 3-416",0,English,,,,978-0-12-337950-4,0079-8169,,,,,,,,,,0,,,,,,,1,8884801,pdf,d33a57f9b9ddcbd08dcb2bdb28a7dc83,,,A:\\_for_add\\1\\SD\\00798169-28 (25).pdf,0,2000-01-01 01:00:00,2016-04-03 02:51:08,http://ars.els-cdn.com/content/image/1-s2.0-S0079816908X61112-cov150h.gif,,
15309493,,,"Pure and Applied Mathematics 36, Part 2",,László Fuchs (Eds.),1973,,,,"iii-vi, 1-363",0,English,,,,978-0-12-269602-2,0079-8169,,,,,,,,,,0,,,,,,,1,7558845,pdf,2d354eb14100663f03a41d6361ef4e10,,,A:\\_for_add\\1\\SD\\00798169-36-part-P2 (15).pdf,0,2000-01-01 01:00:00,2016-04-03 02:51:08,http://ars.els-cdn.com/content/image/1-s2.0-S0079816908X61604-cov150h.gif,,
15309494,,,Pure and Applied Mathematics 6,,Herbert Busemann (Eds.),1955,,,,"iii-vii, 1-422",0,English,,,,978-0-12-374555-2,0079-8169,,,,,,,,,,0,,,,,,,1,6858812,pdf,efa6d2717b7e4c4cb8fb1c1d46fc7137,,,A:\\_for_add\\1\\SD\\00798169-6 (13).pdf,0,2000-01-01 01:00:00,2016-04-03 02:51:08,http://ars.els-cdn.com/content/image/1-s2.0-S0079816908X61276-cov150h.gif,,
15309495,,,Pure and Applied Mathematics 76,,Charalambos D. Allprantls and Owen Burkinshaw (Eds.),1978,,,,"iii-xii, 1-198",0,English,,,,"978-0-12-050250-9,0-12-050250-X",0079-8169,,,,,,,,,,0,,,,,,,1,4862437,pdf,f16f0dc1f232877621302f1edbf2fa9f,,,A:\\_for_add\\1\\SD\\00798169-76 (13).pdf,0,2000-01-01 01:00:00,2016-04-03 02:51:08,http://ars.els-cdn.com/content/image/1-s2.0-S0079816908X6088X-cov150h.gif,,
15309496,,,Pure and Applied Mathematics 93,,Robert M. Young (Eds.),1980,,,,"iii-x, 1-246",0,English,,,,978-0-12-772850-6,0079-8169,,,,,,,,,,0,,,,,,,1,3996124,pdf,ee4b6be71efc86afc8741e4a3ce12c57,,,A:\\_for_add\\1\\SD\\00798169-93 (13).pdf,0,2000-01-01 01:00:00,2016-04-03 02:51:08,http://ars.els-cdn.com/content/image/1-s2.0-S0079816908X6132X-cov150h.gif,,
15309497,Ground Freezing,,Developments in Geotechnical Engineering 26,,HANS L. JESSBERGER (Eds.),1979,,,,1-550,0,English,,,,"978-0-444-41782-4,0-444-41782-6,0-444-41662-5",0165-1250,,,,,,,,,,0,,,,,,,1,14077767,pdf,b8ebc634c2fd73515445f540e96fa2e5,,,A:\\_for_add\\1\\SD\\01651250-26 (48).pdf,0,2000-01-01 01:00:00,2016-04-03 02:51:08,http://ars.els-cdn.com/content/image/1-s2.0-B9780444417824X50015-cov150h.gif,,
15309498,Strata Mechanics,,Developments in Geotechnical Engineering 32,,I.W. FARMER (Eds.),1981,,,,1-289,0,English,,,,"978-0-444-42086-2,0-444-42086-X,0-444-41515-7",0165-1250,,,,,,,,,,0,,,,,,,1,12865206,pdf,bba7101158fd34798289ed28b98d3a9d,,,A:\\_for_add\\1\\SD\\01651250-32 (57).pdf,0,2000-01-01 01:00:00,2016-04-03 02:51:08,http://ars.els-cdn.com/content/image/1-s2.0-C20090073644-cov150h.gif,,
15309499,"Receptor Chemistry towards the Third Millennium, Proceedings of the 12th Camerino-Noordwijkerhout Symposium",,Pharmacochemistry Library 31,,"Ugo Gulini, Mario Gianella, Wilma Quaglia and Gabriella Marucci (Eds.)",2000,,,,79-349,0,English,,,,978-0-444-50424-1,0165-7208,,,,,,,,,,0,,,,,,,1,11862056,pdf,3601edb130de12f23eb00d761b3ceab4,,,A:\\_for_add\\1\\SD\\01657208-31 (41).pdf,0,2000-01-01 01:00:00,2016-04-03 02:51:08,http://ars.els-cdn.com/content/image/1-s2.0-S0165720800X80014-cov150h.gif,,
15309500,Principles Of Environmental Science and Technology,,Studies in Environmental Science 14,,S.E. Jørgensen and I. Johnsen (Eds.),1981,,,,"ii-v, 1-516",0,English,,,,978-0-444-99721-0,0166-1116,,,,,,,,,,0,,,,,,,1,7680816,pdf,0d3cec33cd50a87e795f2972d1582e00,,,A:\\_for_add\\1\\SD\\01661116-14 (18).pdf,0,2000-01-01 01:00:00,2016-04-03 02:51:08,http://ars.els-cdn.com/content/image/1-s2.0-S0166111608X70372-cov150h.gif,,
15309501,"Mesoporous Crystals and Related Nano-Structured Materials, Proceedings of the Meeting on Mesoporous Crystals and Related Nano-Structured Materials",,Studies in Surface Science and Catalysis 148,,Osamu Terasaki (Eds.),2004,,,,1-297,0,English,,,,978-0-444-51720-3,0167-2991,,,,,,,,,,0,,,,,,,1,12202944,pdf,2ada3e2948409a08b85e99372d730d8f,,,A:\\_for_add\\1\\SD\\01672991-148 (14).pdf,0,2000-01-01 01:00:00,2016-04-03 02:51:08,http://ars.els-cdn.com/content/image/1-s2.0-S0167299104X81611-cov150h.gif,,
15309502,"Nanoporous Materials IV, Proceedings of the 4 International Symposium on Nanoporous Materials",,Studies in Surface Science and Catalysis 156,,Abdelhamid Sayari and Mietek Jaroniec (Eds.),2005,,,,1-984,0,English,,,,"978-0-444-51748-7,0167299115",0167-2991,,,,,,,,,,0,,,,,,,1,25829712,pdf,fe855301792317b57022aae4584ce152,,,A:\\_for_add\\1\\SD\\01672991-156 (100).pdf,0,2000-01-01 01:00:00,2016-04-03 02:51:08,http://ars.els-cdn.com/content/image/1-s2.0-S0167299105X80028-cov150h.gif,,
15309503,"Methane Conversion, Proceedings of a Symposium on the Production of Fuels and Chemicals from Natural Gas",,Studies in Surface Science and Catalysis 36,,"D.M. Bibby, C.D. Chang, R.F. Howe and S. Yurchak (Eds.)",1988,,,,"iii-iv, xi-xiii, 1-",0,English,,,,"978-0-444-42935-3,0-444-42935-2",0167-2991,,,,,,,,,,0,,,,,,,1,35951554,pdf,a69e8d318c08b2f179b7aa1f434b093f,,,A:\\_for_add\\1\\SD\\01672991-36 (78).pdf,0,2000-01-01 01:00:00,2016-04-03 02:51:08,http://ars.els-cdn.com/content/image/1-s2.0-S0167299109X6012X-cov150h.gif,,
15309504,Angle-Resolved Photoemission: Theory and Current Applications,,Studies in Surface Science and Catalysis 74,,S.D. Kevan (Eds.),1992,,,,"iii-x, 1-610",0,English,,,,"978-0-444-88183-0,0167299174",0167-2991,,,,,,,,,,0,,,,,,,1,12707195,pdf,975c1a795f2f75c608fb3ebe94a5d851,,,A:\\_for_add\\1\\SD\\01672991-74 (21).pdf,0,2000-01-01 01:00:00,2016-04-03 02:51:08,http://ars.els-cdn.com/content/image/1-s2.0-S0167299108X60446-cov150h.gif,,
15309505,"Zeolites and Microporous Crystals, Proceedings of the International Symposium on Zeolites and Microporous Crystals",,Studies in Surface Science and Catalysis 83,,Tadashi Hattori and Tatsuaki Yashima (Eds.),1994,,,,"iii-xxi, 3-504",0,English,,,,"978-0-444-98657-3,0-444-98657-X,4-06-206909-1",0167-2991,,,,,,,,,,0,,,,,,,1,14543772,pdf,0d1092e389c783608bc96c1278d9f2f8,,,A:\\_for_add\\1\\SD\\01672991-83 (63).pdf,0,2000-01-01 01:00:00,2016-04-03 02:51:08,http://ars.els-cdn.com/content/image/1-s2.0-S0167299108X6063X-cov150h.gif,,
15309506,Seepage and Groundwater,,Developments in Water Science 13,,Miguel A. Mariño and James N. Luthin (Eds.),1982,,,,"iii-vii, 1-489",0,English,,,,"978-0-444-41975-0,0-444-41975-6",0167-5648,,,,,,,,,,0,,,,,,,1,6237834,pdf,87f965000466ee85b817870e9b7dfdea,,,A:\\_for_add\\1\\SD\\01675648-13 (18).pdf,0,2000-01-01 01:00:00,2016-04-03 02:51:08,http://ars.els-cdn.com/content/image/1-s2.0-S0167564808X70212-cov150h.gif,,
15309507,Human Papilloma viruses,,Perspectives in Medical Virology 8,,Dennis J. McCance (Eds.),2002,,,,1-194,0,English,,,,978-0-444-50626-9,0168-7069,,,,,,,,,,0,,,,,,,1,4167843,pdf,0e2029c8e2057f92437e0911e285a07f,,,A:\\_for_add\\1\\SD\\01687069-8 (12).pdf,0,2000-01-01 01:00:00,2016-04-03 02:51:08,http://ars.els-cdn.com/content/image/S01687069.gif,,
15309508,Viral Gastroenteritis,,Perspectives in Medical Virology 9,,"Ulrich Desselberger, Jim Gray (Eds.)",2003,,,,1-707,0,English,,,,978-0-444-51444-8,0168-7069,,,,,,,,,,0,,,,,,,1,40634888,pdf,fdc0a6a0e88c8b121809b76dca9c2d24,,,A:\\_for_add\\1\\SD\\01687069-9 (44).pdf,0,2000-01-01 01:00:00,2016-04-03 02:51:08,http://ars.els-cdn.com/content/image/S01687069.gif,,
15309509,"microbial enhancement of oil recovery—recent advances, Proceedings of the 1990 international conference on microbial enhancement of oil recovery",,Developments in Petroleum Science 31,,Erle C. Donaldson (Eds.),1991,,,,"ii-v, 1-530",0,English,,,,"978-0-444-88633-0,0-444-88633-8",0376-7361,,,,,,,,,,0,,,,,,,1,10210383,pdf,a1c195281ed0cbde69c7c3257d9684ec,,,A:\\_for_add\\1\\SD\\03767361-31 (44).pdf,0,2000-01-01 01:00:00,2016-04-03 02:51:08,http://ars.els-cdn.com/content/image/1-s2.0-S0376736109X7007X-cov150h.gif,,
15309510,Principles and Methods,,Physical Acoustics 8,,WARREN P. MASON and R.N. THURSTON (Eds.),1971,,,,1-393,0,English,,,,978-0-12-395668-2,0893-388X,,,,,,,,,,0,,,,,,,1,9557971,pdf,69a8a02d2483138f18898ac87e019500,,,A:\\_for_add\\1\\SD\\0893388X-8 (15).pdf,0,2000-01-01 01:00:00,2016-04-03 02:51:08,http://ars.els-cdn.com/content/image/1-s2.0-B9780123956682X50017-cov150h.gif,,
15309511,"Pectins and Pectinases, Proceedings of an International Symposium",,Progress in Biotechnology 14,,J Visser and A.G.J. Voragen (Eds.),1996,,,,3-990,0,English,,,,978-0-444-82330-4,0921-0423,,,,,,,,,,0,,,,,,,1,26269506,pdf,5cac3f201b9b2ddd8263389d44e47d32,,,A:\\_for_add\\1\\SD\\09210423-14 (100).pdf,0,2000-01-01 01:00:00,2016-04-03 02:51:08,http://ars.els-cdn.com/content/image/1-s2.0-S0921042396X81322-cov150h.gif,,
15309512,Rare Earth Element Geochemistry,,Developments in Geochemistry 2,,P. Henderson (Eds.),1984,,,,1-510,0,English,,,,978-0-444-42148-7,0921-3198,,,,,,,,,,0,,,,,,,1,8573766,pdf,437282300e7519104ddc2e59a497a6b9,,,A:\\_for_add\\1\\SD\\09213198-2 (19).pdf,0,2000-01-01 01:00:00,2016-04-03 02:51:08,http://ars.els-cdn.com/content/image/1-s2.0-C20090145403-cov150h.gif,,
15309513,Store-Operated Calcium Channels,,Current Topics in Membranes 71,,Murali Prakriya (Eds.),2013,,,,2-281,0,English,,,,"978-0-12-407870-3,978-0-12-407870-3",1063-5823,,,,,,,,,,0,,,,,,,1,21662748,pdf,0a25508c524eaec1b9238fdc809766f7,,,A:\\_for_add\\1\\SD\\10635823 (16).pdf,0,2000-01-01 01:00:00,2016-04-03 02:51:08,http://ars.els-cdn.com/content/image/1-s2.0-C20120036265-cov150h.gif,,
15309514,Nanocomposite Structures and Dispersions: Science and Nanotechnology - Fundamental Principles and Colloidal Particles,,Studies in Interface Science 23,,I. Capek (Eds.),2006,,,,1-301,0,English,,,,978-0-444-52716-5,1383-7303,,,,,,,,,,0,,,,,,,1,5456524,pdf,029adcff1aaba60ab5156be4708ccda2,,,A:\\_for_add\\1\\SD\\13837303-23 (6).pdf,0,2000-01-01 01:00:00,2016-04-03 02:51:08,http://ars.els-cdn.com/content/image/1-s2.0-S1383730306X80018-cov150h.gif,,
15309515,"Nanophotonics: Integrating Photochemistry, Optics and Nano/Bio Materials Studies, Proceedings of the 1 International Nanophotonics Symposium Handai",,Handai Nanophotonics 1,,Hiroshi Masuhara and Satoshi Kawata (Eds.),2004,,,,3-473,0,English,,,,978-0-444-51765-4,1574-0641,,,,,,,,,,0,,,,,,,1,56551030,pdf,f324cf8abba8597b449d6007523e5cfc,,,A:\\_for_add\\1\\SD\\15740641-1 (35).pdf,0,2000-01-01 01:00:00,2016-04-03 02:51:08,,,
15309516,"Volcanism in the Campania Plain: Vesuvius, Campi Flegrei and Ignimbrites",,Developments in Volcanology 9,,B. De Vivo (Eds.),2006,,,,1-324,0,English,,,,978-0-444-52175-0,1871-644X,,,,,,,,,,0,,,,,,,1,29328367,pdf,143225ef4caeeaab120699b630feba2a,,,A:\\_for_add\\1\\SD\\1871644X-9 (17).pdf,0,2000-01-01 01:00:00,2016-04-03 02:51:08,http://ars.els-cdn.com/content/image/1-s2.0-S1871644X06X80142-cov150h.gif,,
15309517,Structure and Assembly,,The Cytoskeleton: A Multi-Volume Treatise 1,,John E. Hesketh and Ian F. Pryme (Eds.),1995,,,,1-307,0,English,,,,"978-1-55938-687-6,1-55938-687-8",1874-6020,,,,,,,,,,0,,,,,,,1,7068656,pdf,6a6f5f2c87bde2d364a5720e6a88cb5d,,,A:\\_for_add\\1\\SD\\18746020-1 (11).pdf,0,2000-01-01 01:00:00,2016-04-03 02:51:08,http://ars.els-cdn.com/content/image/1-s2.0-S1874602006X80011-cov150h.gif,,
15309518,Chemical Methods of Rock Analysis,,,,D. Hutchison and P.G. Jeffrey (Auth.),1981,,,,384,0,English,,,,"978-0-08-023806-7,9780080238067,0-08-023806-8",,,,,,,,,,,0,,,,,,,1,24052661,pdf,10c99f1d7322f4d8f7d5b22b24245dda,,,A:\\_for_add\\1\\SD\\9780080238067 (55).pdf,0,2000-01-01 01:00:00,2016-04-03 02:51:08,http://ars.els-cdn.com/content/image/3-s2.0-C20090229199-cov150h.gif,,
15309519,Crop Breeding: a Contemporary Basis,,,,P. B. Vose and S. G. Blixt (Eds.),1983,,,,446,0,English,,,,"978-0-08-025505-7,9780080255057,0-08-025505-1",,,,,,,,,,,0,,,,,,,1,67788614,pdf,733a5f628ad6467d435a6d9193e6b7af,,,A:\\_for_add\\1\\SD\\9780080255057 (19).pdf,0,2000-01-01 01:00:00,2016-04-03 02:51:08,http://ars.els-cdn.com/content/image/3-s2.0-C20090005558-cov150h.gif,,
15309520,Energy from the Waves,,,,D. Ross (Auth.),1981,,,,162,0,English,,,,"978-0-08-026716-6,9780080267166,0-08-026715-7,0-08-026716-5",,,,,,,,,,,0,,,,,,,1,14370617,pdf,bcfd1ba4e7e0d301200deeb684bf9a65,,,A:\\_for_add\\1\\SD\\9780080267166 (22).pdf,0,2000-01-01 01:00:00,2016-04-03 02:51:08,http://ars.els-cdn.com/content/image/3-s2.0-C20090109935-cov150h.gif,,
15309521,Introduction to Crop Husbandry. Including Grassland,,,,J. A. R. Lockhart and A. J. L. Wiseman (Auth.),1988,,,,326,0,English,,,,"978-0-08-034200-9,9780080342009",,,,,,,,,,,0,,,,,,,1,22681898,pdf,0f288b851c83dbad73486e986972ddf8,,,A:\\_for_add\\1\\SD\\9780080342009 (39).pdf,0,2000-01-01 01:00:00,2016-04-03 02:51:08,http://ars.els-cdn.com/content/image/3-s2.0-C20090003511-cov150h.gif,,
15309522,An Introduction to Farm Organisation & Management,,,,M. Buckett (Auth.),1988,,,,343,0,English,,,,"978-0-08-034202-3,9780080342023",,,,,,,,,,,0,,,,,,,1,45243727,pdf,f4b05a46956717aa578e976a2341a01d,,,A:\\_for_add\\1\\SD\\9780080342023 (23).pdf,0,2000-01-01 01:00:00,2016-04-03 02:51:08,http://ars.els-cdn.com/content/image/3-s2.0-C2009000782X-cov150h.gif,,
15309523,Concise Encyclopedia of Advanced Ceramic Materials,,,,R.J. Brook (Eds.),1991,,,,691,0,English,,,,"978-0-08-034720-2,9780080347202,0-08-034720-7",,,,,,,,,,,0,,,,,,,1,145622862,pdf,0a92e56fc4af9cc026025dc252c90c86,,,A:\\_for_add\\1\\SD\\9780080347202 (148).pdf,0,2000-01-01 01:00:00,2016-04-03 02:51:08,http://ars.els-cdn.com/content/image/3-s2.0-C20091282943-cov150h.gif,,
15309524,Alkali Metal Orthophosphates,,,,J. Eysseltova and T.P. Dirkse (Eds.),1988,,,,365,0,English,,,,"978-0-08-035937-3,9780080359373",,,,,,,,,,,0,,,,,,,1,21445871,pdf,573e7d1bbb46503ab4900cb497e734dd,,,A:\\_for_add\\1\\SD\\9780080359373 (22).pdf,0,2000-01-01 01:00:00,2016-04-03 02:51:08,http://ars.els-cdn.com/content/image/3-s2.0-C20090007958-cov150h.gif,,
15309525,Practical Biochemistry for Colleges,,,,E. J. Wood (Eds.),1989,,,,185,0,English,,,,"978-0-08-036140-6,9780080361406,0-08-036140-4",,,,,,,,,,,0,,,,,,,1,26619112,pdf,adeab7da2e631b8e0028d04043998b4a,,,A:\\_for_add\\1\\SD\\9780080361406 (82).pdf,0,2000-01-01 01:00:00,2016-04-03 02:51:08,http://ars.els-cdn.com/content/image/3-s2.0-C20090007983-cov150h.gif,,
15309526,Perspectives in Theoretical Physics. The Collected Papers of E. M. Lifshitz,,,,"J. B. Sykes, D. ter Haar and L. P. Pitaevskii (Auth.)",1992,,,,731,0,English,,,,"978-0-08-036364-6,9780080363646",,,,,,,,,,,0,,,,,,,1,44755716,pdf,9581617a496dd17cec2c7565ba81ceb5,,,A:\\_for_add\\1\\SD\\9780080363646 (53).pdf,0,2000-01-01 01:00:00,2016-04-03 02:51:08,http://ars.els-cdn.com/content/image/3-s2.0-C2009014730X-cov150h.gif,,
15309527,Solar Optical Materials. Applications & Performance of Coatings & Materials in Buildings & Solar Energy Systems,,,,M. G. Hutchins (Eds.),1988,,,,178,0,English,,,,"978-0-08-036613-5,9780080366135,0-08-036613-9",,,,,,,,,,,0,,,,,,,1,22376928,pdf,d82673ff61d94d33b4518c89d58db87a,,,A:\\_for_add\\1\\SD\\9780080366135 (22).pdf,0,2000-01-01 01:00:00,2016-04-03 02:51:08,http://ars.els-cdn.com/content/image/3-s2.0-C20090147414-cov150h.gif,,
15309528,Femtophysics. A Short Course on Particle Physics,,,,M. G. Bowler (Auth.),1990,,,,206,0,English,,,,"978-0-08-036942-6,9780080369426",,,,,,,,,,,0,,,,,,,1,9155623,pdf,ab7face3b703c3bff701953748242181,,,A:\\_for_add\\1\\SD\\9780080369426 (26).pdf,0,2000-01-01 01:00:00,2016-04-03 02:51:08,http://ars.els-cdn.com/content/image/3-s2.0-C20090111224-cov150h.gif,,
15309529,Radioactivity Measurements. Principles and Practice,,,,"W. B. Mann, A. Rytz and A. Spernol (Eds.)",1991,,,,208,0,English,,,,"978-0-08-037037-8,9780080370378,0-08-037037-3",,,,,,,,,,,0,,,,,,,1,42687910,pdf,06495ce1ea36f74737d43876ef3b249b,,,A:\\_for_add\\1\\SD\\9780080370378 (14).pdf,0,2000-01-01 01:00:00,2016-04-03 02:51:08,http://ars.els-cdn.com/content/image/3-s2.0-C20090147700-cov150h.gif,,
15309530,Clean and Safe Energy Forever,,,,"T. Horigome, K. Kimura, T. Takakura, T. Nishino and I. Fujii (Eds.)",1990,,,,888,0,English,,,,"978-0-08-037193-1,9780080371931,0-08-037193-0",,,,,,,,,,,0,,,,,,,1,68761036,pdf,8177ee1b73557bc13ccbdd4224d67017,,,A:\\_for_add\\1\\SD\\9780080371931 (180).pdf,0,2000-01-01 01:00:00,2016-04-03 02:51:08,http://ars.els-cdn.com/content/image/3-s2.0-C20090111339-cov150h.gif,,
15309531,Energy Conservation in Buildings. The Achievement of 50% Energy Saving: An Environmental Challenge?,,,,A. A. M. Sayigh (Eds.),1991,,,,485,0,English,,,,"978-0-08-037215-0,9780080372150",,,,,,,,,,,0,,,,,,,1,47391175,pdf,ec842ddfc86d6fd3b891fcf788f74125,,,A:\\_for_add\\1\\SD\\9780080372150 (88).pdf,0,2000-01-01 01:00:00,2016-04-03 02:51:08,http://ars.els-cdn.com/content/image/3-s2.0-C20090147712-cov150h.gif,,
15309532,Energy and the Environment. Into the 1990s,,,,A. A. M. Sayigh (Auth.),1990,,,,603,0,English,,,,"978-0-08-037539-7,9780080375397",,,,,,,,,,,0,,,,,,,1,141720198,pdf,1d2f1177259e8b363314952c692a5e59,,,A:\\_for_add\\1\\SD\\9780080375397 (101).pdf,0,2000-01-01 01:00:00,2016-04-03 02:51:08,http://ars.els-cdn.com/content/image/3-s2.0-C20090147761-cov150h.gif,,
15309533,Hydrogen Energy Progress VIII,,,,T. N. Veziroglu and P. Takahashi (Auth.),1990,,,,484,0,English,,,,"978-0-08-040408-0,9780080404080",,,,,,,,,,,0,,,,,,,1,40118774,pdf,f7c1f18677ec4a9e118287afa6cc64b4,,,A:\\_for_add\\1\\SD\\9780080404080 (44).pdf,0,2000-01-01 01:00:00,2016-04-03 02:51:08,http://ars.els-cdn.com/content/image/3-s2.0-C20090079537-cov150h.gif,,
15309534,"Analysis of Engineering Cycles. Power, Refrigerating and Gas Liquefaction Plant",,,,R. W. Haywood (Auth.),1991,,,,352,0,English,,,,"978-0-08-040738-8,9780080407388,0-08-040739-0,0-08-040738-2",,,,,,,,,,,0,,,,,,,1,22728196,pdf,15b217f37672c4271b96997840ec5b0e,,,A:\\_for_add\\1\\SD\\9780080407388 (26).pdf,0,2000-01-01 01:00:00,2016-04-03 02:51:08,http://ars.els-cdn.com/content/image/3-s2.0-C20090079628-cov150h.gif,,
15309535,Solar Air Conditioning and Refrigeration,,,,J.C. McVeigh and A. A. M. Sayigh (Eds.),1992,,,,293,0,English,,,,"978-0-08-040750-0,9780080407500",,,,,,,,,,,0,,,,,,,1,12713724,pdf,462b05c759d8278af7f1604d6ebad6ef,,,A:\\_for_add\\1\\SD\\9780080407500 (15).pdf,0,2000-01-01 01:00:00,2016-04-03 02:51:08,http://ars.els-cdn.com/content/image/3-s2.0-C20090148122-cov150h.gif,,
15309536,Genetic Improvement of Vegetable Crops,,,,G. Kalloo and B.O. Bergh (Eds.),1993,,,,792,0,English,,,,"978-0-08-040826-2,9780080408262",,,,,,,,,,,0,,,,,,,1,52429050,pdf,2bf43fde1b67e4c8cd52b0e8e4ec8fb8,,,A:\\_for_add\\1\\SD\\9780080408262 (59).pdf,0,2000-01-01 01:00:00,2016-04-03 02:51:08,http://ars.els-cdn.com/content/image/3-s2.0-C20090008319-cov150h.gif,,
15309537,"Energy Technology. Sources, Systems and Frontier Conversion",,,,Tokio Ohta (Auth.),1994,,,,237,0,English,,,,"978-0-08-042132-2,9780080421322",,,,,,,,,,,0,,,,,,,1,8767876,pdf,e2737a820bb85ed31bc9c82d397a9355,,,A:\\_for_add\\1\\SD\\9780080421322 (12).pdf,0,2000-01-01 01:00:00,2016-04-03 02:51:08,http://ars.els-cdn.com/content/image/3-s2.0-C20090068792-cov150h.gif,,
15309538,"Biomass for Energy, Environment, Agriculture and Industry",,,,"P. Chartier, A.A.C-M. Beenackers and G. Grassi (Auth.)",1995,,,,779,0,English,,,,"978-0-08-042135-3,9780080421353,0-444-40209-8",,,,,,,,,,,0,,,,,,,1,126945207,pdf,ade0510dee8c92194bf2a1bdae2723cd,,,A:\\_for_add\\1\\SD\\9780080421353 (14).pdf,0,2000-01-01 01:00:00,2016-04-03 02:51:08,http://ars.els-cdn.com/content/image/3-s2.0-C20090148924-cov150h.gif,,
15309539,Advances in Fracture Resistance and Structural Integrity,,,,"V.V. Panasyuk, M.C. Pandey, O.Ye. Andreykiv, J.F. Knott, P. Rama Rao, R. O. Ritchie and D.M.R. Taplin (Eds.)",1994,,,,727,0,English,,,,"978-0-08-042256-5,9780080422565",,,,,,,,,,,0,,,,,,,1,37701991,pdf,252a0e5d038256aedceb292762f24565,,,A:\\_for_add\\1\\SD\\9780080422565 (81).pdf,0,2000-01-01 01:00:00,2016-04-03 02:51:08,http://ars.els-cdn.com/content/image/3-s2.0-C20090112400-cov150h.gif,,
15309540,Prokaryotes,,,,K. Singh (Eds.),1996,,,,329,0,English,,,,"978-0-08-042510-8,9780080425108",,,,,,,,,,,0,,,,,,,1,36477590,pdf,324ad4330ac8343371579c21e8187d91,,,A:\\_for_add\\1\\SD\\9780080425108 (22).pdf,0,2000-01-01 01:00:00,2016-04-03 02:51:08,http://ars.els-cdn.com/content/image/3-s2.0-C20090014603-cov150h.gif,,
15309541,"Advances in Fracture Research. Failure Analysis, Remaining Life Assessment, Life Extension and Repair",,,,"B.L. Karihaloo, Y.-W. Mai, M.I. Ripley and R. O. Ritchie (Auth.)",1997,,,,616,0,English,,,,"978-0-08-042820-8,9780080428208",,,,,,,,,,,0,,,,,,,1,117999996,pdf,bb0d52ceb4d30534b8df70adf792d2d6,,,A:\\_for_add\\1\\SD\\9780080428208 (75).pdf,0,2000-01-01 01:00:00,2016-04-03 02:51:08,http://ars.els-cdn.com/content/image/3-s2.0-C20090104221-cov150h.gif,,
15309542,Advances in Engineering Plasticity and its Applications (AEPA 1996),,,,T. Abe and T. Tsuruta (Auth.),1996,,,,883,0,English,,,,"978-0-08-042824-6,9780080428246",,,,,,,,,,,0,,,,,,,1,79144322,pdf,653de10d513030da4deded3e662f32f2,,,A:\\_for_add\\1\\SD\\9780080428246 (150).pdf,0,2000-01-01 01:00:00,2016-04-03 02:51:08,http://ars.els-cdn.com/content/image/3-s2.0-C20090132609-cov150h.gif,,
15309543,Monitoring of Water Quality. The Contribution of Advanced Technologies,,,,F. Colin and P. Quevauviller (Eds.),1998,,,,260,0,English,,,,"978-0-08-043340-0,9780080433400",,,,,,,,,,,0,,,,,,,1,68424342,pdf,3df6459aee6c7fc5f3130af37f3d5bd2,,,A:\\_for_add\\1\\SD\\9780080433400 (24).pdf,0,2000-01-01 01:00:00,2016-04-03 02:51:08,http://ars.els-cdn.com/content/image/3-s2.0-B9780080433400X50000-cov150h.gif,,
15309544,"EPMESC VII. International Conference on Enhancement and Promotion of Computational Methods in Engineering and Science, 2–5 August 1999, Macao",,,,"E. Arantes e Oliveira, J. Bento and E. Pereira (Eds.)",1999,,,,732,0,English,,,,"978-0-08-043570-1,9780080435701",,,,,,,,,,,0,,,,,,,1,42648747,pdf,f96e2abcde1f344ecd255ae0cb90861c,,,A:\\_for_add\\1\\SD\\9780080435701 (82).pdf,0,2000-01-01 01:00:00,2016-04-03 02:51:08,http://ars.els-cdn.com/content/image/3-s2.0-C20090105974-cov150h.gif,,
15309545,Seasonality in Tourism,,,,Tom Baum and Svend Lundtorp (Eds.),2001,,,,194,0,English,,,,"978-0-08-043674-6,9780080436746,0-08-043674-9",,,,,,,,,,,0,,,,,,,1,16075735,pdf,2c2aac14a39cdd432f658d2d550bf448,,,A:\\_for_add\\1\\SD\\9780080436746 (16).pdf,0,2000-01-01 01:00:00,2016-04-03 02:51:08,http://ars.els-cdn.com/content/image/3-s2.0-C20090049472-cov150h.gif,,
15309546,The Tourist-Historic City. Retrospect and Prospect of Managing the Heritage City,,,,G.J. Ashworth and J.E. Tunbridge (Auth.),2000,,,,334,0,English,,,,"978-0-08-043675-3,9780080436753,0-08-043675-7",,,,,,,,,,,0,,,,,,,1,41057837,pdf,660ba324473108b5ab4f1a42182dae33,,,A:\\_for_add\\1\\SD\\9780080436753 (18).pdf,0,2000-01-01 01:00:00,2016-04-03 02:51:08,http://ars.els-cdn.com/content/image/3-s2.0-C20090093568-cov150h.gif,,
15309547,"Modeling and Control of Economic Systems 2001. A Proceedings volume from the 10th IFAC Symposium, Klagenfurt, Austria, 6 – 8 September 2001",,,,R. Neck (Eds.),2003,,,,419,0,English,,,,"978-0-08-043858-0,9780080438580",,,,,,,,,,,0,,,,,,,1,38276981,pdf,fa98bc5cee408cfcf2bf72a57c223874,,,A:\\_for_add\\1\\SD\\9780080438580 (74).pdf,0,2000-01-01 01:00:00,2016-04-03 02:51:08,http://ars.els-cdn.com/content/image/3-s2.0-B9780080438580X50001-cov150h.gif,,
15309548,Energy Systems. Adaptive Complexity,,,,T. Ohta (Auth.),2000,,,,224,0,English,,,,"978-0-08-043877-1,9780080438771",,,,,,,,,,,0,,,,,,,1,25928699,pdf,fb9499aee63f5e2850597a94a5a9eef4,,,A:\\_for_add\\1\\SD\\9780080438771 (15).pdf,0,2000-01-01 01:00:00,2016-04-03 02:51:08,http://ars.els-cdn.com/content/image/3-s2.0-C20090135778-cov150h.gif,,
15309549,Computational Mechanics–New Frontiers for the New Millennium,,,,P. Valliappan and N. Khalili (Auth.),2001,,,,914,0,English,,,,"978-0-08-043981-5,9780080439815,0-08-043981-0",,,,,,,,,,,0,,,,,,,1,51185470,pdf,4fc1eb88afa1b65ea0569168c885991a,,,A:\\_for_add\\1\\SD\\9780080439815 (138).pdf,0,2000-01-01 01:00:00,2016-04-03 02:51:08,http://ars.els-cdn.com/content/image/3-s2.0-C20090108279-cov150h.gif,,
15309550,"Greenhouse Gas Control Technologies - 6th International Conference. Proceedings of the 6th International Conference on Greenhouse Gas Control Technologies 1 – 4 October 2002, Kyoto, Japan",,,,J. Gale and Y. Kaya (Eds.),2003,,,,1748,0,English,,,,"978-0-08-044276-1,9780080442761",,,,,,,,,,,0,,,,,,,1,157847815,pdf,daf05f395a22bb690d4bb62e5107e999,,,A:\\_for_add\\1\\SD\\9780080442761 (320).pdf,0,2000-01-01 01:00:00,2016-04-03 02:51:08,http://ars.els-cdn.com/content/image/3-s2.0-B9780080442761X50004-cov150h.gif,,
15309551,Indigenous Tourism. The Commodification and Management of Culture,,,,Chris Ryan and Michelle Aicken (Eds.),2005,,,,310,0,English,,,,"978-0-08-044620-2,9780080446202,978-0-08-044620-2,0-08-044620-5",,,,,,,,,,,0,,,,,,,1,35569607,pdf,b53d2aaf8833e0b5cc16b19fdafc69a2,,,A:\\_for_add\\1\\SD\\9780080446202 (27).pdf,0,2000-01-01 01:00:00,2016-04-03 02:51:08,http://ars.els-cdn.com/content/image/3-s2.0-C20090052106-cov150h.gif,,
15309552,"Taking Tourism to the Limits. Issues, Concepts and Managerial Perspectives",,,,"Chris Ryan, Stephen J. Page and Michelle Aicken (Eds.)",2005,,,,290,0,English,,,,"978-0-08-044644-8,9780080446448,0-08-044644-2,978-0-08-044644-8",,,,,,,,,,,0,,,,,,,1,5671825,pdf,23364de842e1e5e642e0969402995657,,,A:\\_for_add\\1\\SD\\9780080446448 (29).pdf,0,2000-01-01 01:00:00,2016-04-03 02:51:08,http://ars.els-cdn.com/content/image/3-s2.0-C20090059820-cov150h.gif,,
15309553,Benchmarking National Tourism Organisations and Agencies. Understanding Best Practice,,,,"J. John Lennon, Hugh Smith, Nancy Cockerell and Jill Trew (Auth.)",2006,,,,248,0,English,,,,"978-0-08-044657-8,9780080446578,0-08-044657-4,978-0-08-044657-8",,,,,,,,,,,0,,,,,,,1,1437694,pdf,cf0d47b10bd89bd1f53dd8708f2ba830,,,A:\\_for_add\\1\\SD\\9780080446578 (22).pdf,0,2000-01-01 01:00:00,2016-04-03 02:51:08,http://ars.els-cdn.com/content/image/3-s2.0-C20090058036-cov150h.gif,,
15309554,Ormen Lange–an Integrated Study for Safe Field Development in the Storegga Submarine Area,,,,"A. Solheim, P. Bryn, K. Berg, H.P. Sejrup and J. Mienert (Eds.)",2005,,,,312,0,English,,,,"978-0-08-044694-3,9780080446943",,,,,,,10.1016/j.marpetgeo.2004.10.001,,,,0,,,,,,,1,49159992,pdf,dace6be4ffeb1bfd08517527e9d78d58,,,A:\\_for_add\\1\\SD\\9780080446943 (31).pdf,0,2000-01-01 01:00:00,2016-04-03 02:51:08,http://ars.els-cdn.com/content/image/3-s2.0-C20090063259-cov150h.gif,,
15309555,Obsessive-Compulsive Disorder. Subtypes and Spectrum Conditions,,,,"Jonathan S. Abramowitz, Dean McKay and Steven Taylor (Eds.)",2007,,,,316,0,English,,,,"978-0-08-044701-8,9780080447018",,,,,,,,,,,0,,,,,,,1,22145554,pdf,1924cae5a808e46237a4863267e15db3,,,A:\\_for_add\\1\\SD\\9780080447018 (20).pdf,0,2000-01-01 01:00:00,2016-04-03 02:51:08,http://ars.els-cdn.com/content/image/3-s2.0-B9780080447018X50001-cov150h.gif,,
15309556,"Polymerid Trilobites from the Cambrian of Northwestern Hunan, China",,,,"Peng Shanchi, Loren E. Babcock and Lin Huanling (Auth.)",2006,,,,691,0,English,,,,"978-0-08-045041-4,9780080450414",,,,,,,,,,,0,,,,,,,1,269158643,pdf,d48093b7e10e6bb89af9441c6346bc7a,,,A:\\_for_add\\1\\SD\\9780080450414 (157).pdf,0,2000-01-01 01:00:00,2016-04-03 02:51:08,http://ars.els-cdn.com/content/image/3-s2.0-B9780080450414X50160-cov150h.gif,,
15309557,The Critical Turn in Tourism Studies. Innovative Research Methods,,,,"Irena Ateljevic, Annette Pritchard and Nigel Morgan (Eds.)",2007,,,,401,0,English,,,,"978-0-08-045098-8,9780080450988,978-0-08-045098-8",,,,,,,,,,,0,,,,,,,1,3952885,pdf,d325c10cd1d7ee31a99310c1c5a1859f,,,A:\\_for_add\\1\\SD\\9780080450988 (29).pdf,0,2000-01-01 01:00:00,2016-04-03 02:51:08,http://ars.els-cdn.com/content/image/3-s2.0-C20090167843-cov150h.gif,,
15309558,"New Frontiers in Marine Tourism. Diving Experiences, Sustainability, Management",,,,Brian Garrod and Stefan Gössling (Eds.),2008,,,,220,0,English,,,,"978-0-08-045357-6,9780080453576,978-0-08-045357-6",,,,,,,,,,,0,,,,,,,1,5874389,pdf,9d1e5ee654ab4e9669bedca73607ce1b,,,A:\\_for_add\\1\\SD\\9780080453576 (15).pdf,0,2000-01-01 01:00:00,2016-04-03 02:51:08,http://ars.els-cdn.com/content/image/3-s2.0-C20090171842-cov150h.gif,,
15309559,Change Management Revised Edition,,,,Elearn (Auth.),2007,,,,123,0,English,,,,"978-0-08-048990-2,9780080489902,978-0-08-048990-2",,,,,,,,,,,0,,,,,,,1,47568058,pdf,dcb9da6322e51b019cd26e3b51005c2f,,,A:\\_for_add\\1\\SD\\9780080489902 (9).pdf,0,2000-01-01 01:00:00,2016-04-03 02:51:08,http://ars.els-cdn.com/content/image/3-s2.0-C20090183885-cov150h.gif,,
15309560,Condensed Encyclopedia of Polymer Engineering Terms,,,,Nicholas P Cheremisinoff (Auth.),2001,,,,378,0,English,,,,"978-0-08-050282-3,9780080502823,0-7506-7210-2",,,,,,,,,,,0,,,,,,,1,43996807,pdf,2917ffe858d9d9709080f634a3060bc7,,,A:\\_for_add\\1\\SD\\9780080502823 (31).pdf,0,2000-01-01 01:00:00,2016-04-03 02:51:08,http://ars.els-cdn.com/content/image/3-s2.0-C2009025687X-cov150h.gif,,
15309561,Experimental Methods in Polymer Science. Modern Methods in Polymer Research and Technology,,,,Toyoichi Tanaka (Auth.),2000,,,,611,0,English,,,,"978-0-08-050612-8,9780080506128,978-0-12-683265-5,0-12-683265-X",,,,,,,,,,,0,,,,,,,1,67239716,pdf,7056153e10e263bf895f37e5ada2837d,,,A:\\_for_add\\1\\SD\\9780080506128 (13).pdf,0,2000-01-01 01:00:00,2016-04-03 02:51:08,http://ars.els-cdn.com/content/image/3-s2.0-C20090224603-cov150h.gif,,
15309562,Multiphase Flow and Fluidization,,,,,1994,,,,474,0,English,,,,"978-0-08-051226-6,9780080512266,0-12-282470-9",,,,,,,,,,,0,,,,,,,1,40380100,pdf,5ccad0ef05050a782c1bd3f130cf02f2,,,A:\\_for_add\\1\\SD\\9780080512266 (26).pdf,0,2000-01-01 01:00:00,2016-04-03 02:51:08,http://ars.els-cdn.com/content/image/3-s2.0-C2009021244X-cov150h.gif,,
15309563,Organic Chemistry of Enzyme-Catalyzed Reactions,,,,,2002,,,,718,0,English,,,,"978-0-08-051336-2,9780080513362,0-12-643731-9",,,,,,,,,,,0,,,,,,,1,6624298,pdf,863d4d502ff2de8b1f6e3d3bf8e3954b,,,A:\\_for_add\\1\\SD\\9780080513362 (21).pdf,0,2000-01-01 01:00:00,2016-04-03 02:51:08,http://ars.els-cdn.com/content/image/3-s2.0-C20090228376-cov150h.gif,,
15309564,Transformers and Motors,,,,George Shultz (Auth.),1997,,,,314,0,English,,,,"978-0-08-051958-6,9780080519586,978-0-7506-9948-8,0-7506-9948-5",,,,,,,,,,,0,,,,,,,1,51991991,pdf,ce25aa42a11f80aa2ad940bfa1e736ba,,,A:\\_for_add\\1\\SD\\9780080519586 (19).pdf,0,2000-01-01 01:00:00,2016-04-03 02:51:08,http://ars.els-cdn.com/content/image/3-s2.0-C20090267869-cov150h.gif,,
15309565,The Combustion of Solid Fuels and Wastes,,,,David Tillman (Auth.),1991,,,,381,0,English,,,,"978-0-08-057112-6,9780080571126,0-12-691255-6",,,,,,,,,,,0,,,,,,,1,31133518,pdf,0ee3b8917a039fac0faecd5a43110820,,,A:\\_for_add\\1\\SD\\9780080571126 (12).pdf,0,2000-01-01 01:00:00,2016-04-03 02:51:08,http://ars.els-cdn.com/content/image/3-s2.0-C2009021587X-cov150h.gif,,
15309566,Materials Fundamentals of Molecular Beam Epitaxy,,,,Jeffrey Y. Tsao (Auth.),1993,,,,305,0,English,,,,"978-0-08-057135-5,9780080571355,0-12-701625-2",,,,,,,,,,,0,,,,,,,1,20137977,pdf,4f95767a50fc936215293b461035c1ff,,,A:\\_for_add\\1\\SD\\9780080571355 (17).pdf,0,2000-01-01 01:00:00,2016-04-03 02:51:08,http://ars.els-cdn.com/content/image/3-s2.0-C20090224263-cov150h.gif,,
15309567,Basic Electric Circuit Theory. A One-Semester Text,,,,Isaak D. Mayergoyz and W. Lawson (Auth.),1996,,,,454,0,English,,,,"978-0-08-057228-4,9780080572284,978-0-12-480865-2,0-12-480865-4",,,,,,,,,,,0,,,,,,,1,39685244,pdf,6fcbfad52ea4d920b7c06524ba3711aa,,,A:\\_for_add\\1\\SD\\9780080572284 (18).pdf,0,2000-01-01 01:00:00,2016-04-03 02:51:08,http://ars.els-cdn.com/content/image/3-s2.0-C20091285455-cov150h.gif,,
15309568,Radiological Imaging,,,,,1996,,,,697,0,English,,,,"978-0-08-057230-7,9780080572307,0-12-079603-1",,,,,,,,,,,0,,,,,,,1,63782315,pdf,ea9ca6eeb20e8b1abcfb27a115d36abc,,,A:\\_for_add\\1\\SD\\9780080572307 (25).pdf,0,2000-01-01 01:00:00,2016-04-03 02:51:08,http://ars.els-cdn.com/content/image/3-s2.0-C20090023769-cov150h.gif,,
15309569,Transgenic Animal Technology,,,,,2003,,,,619,0,English,,,,"978-0-08-057480-6,9780080574806,0-12-557166-6",,,,,,,,,,,0,,,,,,,1,65556744,pdf,09cce26bb06d53ec56b55eafa7fdf116,,,A:\\_for_add\\1\\SD\\9780080574806 (33).pdf,0,2000-01-01 01:00:00,2016-04-03 02:51:08,http://ars.els-cdn.com/content/image/3-s2.0-C20090035119-cov150h.gif,,
15309570,Ethylene in Plant Biology,,,,"Frederick B. Abeles, Page W. Morgan and Mikal E. Saltveit, Jr. (Auth.)",1992,,,,422,0,English,,,,"978-0-08-091628-6,9780080916286,0-12-041451-1",,,,,,,,,,,0,,,,,,,1,32941557,pdf,f2761c607eefb505e82ed314922e30e1,,,A:\\_for_add\\1\\SD\\9780080916286 (17).pdf,0,2000-01-01 01:00:00,2016-04-03 02:51:08,http://ars.els-cdn.com/content/image/3-s2.0-C20090032267-cov150h.gif,,
15309571,Parasites and Pathogens of Insects. Parasites,,,,"Nancy E. Beckage, Stephen A. Thompson and B. A. Federici (Eds.)",1993,,,,368,0,English,,,,"978-0-08-091649-1,9780080916491",,,,,,,,,,,0,,,,,,,1,27424301,pdf,82efec6c842879fa3884a2fa6a63a053,,,A:\\_for_add\\1\\SD\\9780080916491 (20).pdf,0,2000-01-01 01:00:00,2016-04-03 02:51:08,http://ars.els-cdn.com/content/image/3-s2.0-C20090023770-cov150h.gif,,
15309572,Guide to Electroporation and Electrofusion,,,,"Donald C. Chang, Bruce M. Chassy, James A. Saunders and Arthur E. Sowers (Eds.)",1991,,,,559,0,English,,,,"978-0-08-091727-6,9780080917276,0-12-168040-1,0-12-168041-X",,,,,,,,,,,0,,,,,,,1,28410925,pdf,55f5d6099d76964c992c5d04454e9e48,,,A:\\_for_add\\1\\SD\\9780080917276 (40).pdf,0,2000-01-01 01:00:00,2016-04-03 02:51:08,http://ars.els-cdn.com/content/image/3-s2.0-C20090215649-cov150h.gif,,
15309573,Integrins. Molecular and Biological Responses to the Extracellular Matrix,,,,David A. Cheresh and Robert P. Mecham (Eds.),1994,,,,282,0,English,,,,"978-0-08-091729-0,9780080917290,0-12-171160-9",,,,,,,,,,,0,,,,,,,1,42214731,pdf,e83924925c3bbc3440832397ee53ccee,,,A:\\_for_add\\1\\SD\\9780080917290 (15).pdf,0,2000-01-01 01:00:00,2016-04-03 02:51:08,http://ars.els-cdn.com/content/image/3-s2.0-C20090035211-cov150h.gif,,
15309574,Horse Feeding and Nutrition,,,,Tony J. Cunha (Auth.),1990,,,,451,0,English,,,,"978-0-08-091752-8,9780080917528,0-12-196561-9",,,,,,,,,,,0,,,,,,,1,46022418,pdf,cb62926cce224621efffb829de576fd3,,,A:\\_for_add\\1\\SD\\9780080917528 (31).pdf,0,2000-01-01 01:00:00,2016-04-03 02:51:08,http://ars.els-cdn.com/content/image/3-s2.0-C20090027147-cov150h.gif,,
15309575,Plant Molecular Biology Labfax,,,,B. D. Hames (Eds.),1993,,,,387,0,English,,,,"978-0-08-091753-5,9780080917535",,,,,,,,,,,0,,,,,,,1,15504596,pdf,3c0c0f91c508624307c5620585b35988,,,A:\\_for_add\\1\\SD\\9780080917535 (17).pdf,0,2000-01-01 01:00:00,2016-04-03 02:51:08,http://ars.els-cdn.com/content/image/3-s2.0-C20090033297-cov150h.gif,,
15309576,Epidemiologic Field Methods in Psychiatry. The NIMH Epidemiologic Catchment Area Program,,,,William W. Eaton and Larry G. Kessler (Eds.),1985,,,,377,0,English,,,,"978-0-08-091798-6,9780080917986,0-12-228250-7",,,,,,,,,,,0,,,,,,,1,19273133,pdf,dcddb9918331d4c2432315caecdd4dac,,,A:\\_for_add\\1\\SD\\9780080917986 (23).pdf,0,2000-01-01 01:00:00,2016-04-03 02:51:08,http://ars.els-cdn.com/content/image/3-s2.0-C20090029511-cov150h.gif,,
15309577,Principles of Plant Disease Management,,,,William E. Fry (Auth.),1982,,,,375,0,English,,,,"978-0-08-091830-3,9780080918303,0-12-269180-6",,,,,,,,,,,0,,,,,,,1,61365522,pdf,7ab3813d695a456e6d1976aae3ddad23,,,A:\\_for_add\\1\\SD\\9780080918303 (20).pdf,0,2000-01-01 01:00:00,2016-04-03 02:51:08,http://ars.els-cdn.com/content/image/3-s2.0-C20090030451-cov150h.gif,,
15309578,Phosphorous-31 NMR. Principles and Applications,,,,David G. Gorenstein (Eds.),1984,,,,593,0,English,,,,"978-0-08-091841-9,9780080918419,0-12-291750-2",,,,,,,,,,,0,,,,,,,1,28982949,pdf,f74b906a9d344f6496c0de3b0c427bd8,,,A:\\_for_add\\1\\SD\\9780080918419 (24).pdf,0,2000-01-01 01:00:00,2016-04-03 02:51:08,http://ars.els-cdn.com/content/image/3-s2.0-C20090029869-cov150h.gif,,
15309579,Handbook of Visual Communications,,,,Hseuh-Ming Hang and John W. Woods (Eds.),1995,,,,520,0,English,,,,"978-0-08-091854-9,9780080918549,0-12-323050-0",,,,,,,,,,,0,,,,,,,1,66669728,pdf,4af9ecb2b895226e4d8e94e88a14fc78,,,A:\\_for_add\\1\\SD\\9780080918549 (21).pdf,0,2000-01-01 01:00:00,2016-04-03 02:51:08,http://ars.els-cdn.com/content/image/3-s2.0-C20090212542-cov150h.gif,,
15309580,Electrical Spectrum & Network Analyzers. A Practical Approach,,,,Albert D. Helfrick (Auth.),1991,,,,215,0,English,,,,"978-0-08-091867-9,9780080918679,0-12-338250-5",,,,,,,,,,,0,,,,,,,1,10394113,pdf,57efbce4d697f22adb6db26a067cedc9,,,A:\\_for_add\\1\\SD\\9780080918679 (14).pdf,0,2000-01-01 01:00:00,2016-04-03 02:51:08,http://ars.els-cdn.com/content/image/3-s2.0-C20090215893-cov150h.gif,,
15309581,The Porphyrin Handbook. Bioinorganic and Bioorganic Chemistry,,,,"Roger Guilard, Karl Kadish and Kevin M. Smith (Eds.)",2003,,,,310,0,English,,,,"978-0-08-092385-7,9780080923857,0-12-393220-3",,,,,,,,,,,0,,,,,,,1,22421003,pdf,d1ef10f5b36dd1c7e6fe9bbc9888d9a4,,,A:\\_for_add\\1\\SD\\9780080923857 (14).pdf,0,2000-01-01 01:00:00,2016-04-03 02:51:08,http://ars.els-cdn.com/content/image/3-s2.0-C20090227140-cov150h.gif,,
15309582,"The Porphyrin Handbook. The Iron and Cobalt Pigments: Biosynthesis, Structure and Degradation",,,,"Karl Kadish, Kevin M. Smith and Roger Guilard (Eds.)",2003,,,,263,0,English,,,,"978-0-08-092386-4,9780080923864,0-12-393220-3",,,,,,,,,,,0,,,,,,,1,29881801,pdf,9c9c9285790ce03b22b87d598cbe37c3,,,A:\\_for_add\\1\\SD\\9780080923864 (15).pdf,0,2000-01-01 01:00:00,2016-04-03 02:51:08,http://ars.els-cdn.com/content/image/3-s2.0-C20090227152-cov150h.gif,,
15309583,"The Porphyrin Handbook. Chlorophylls and Bilins: Biosynthesis, Synthesis and Degradation",,,,"Karl Kadish, Kevin M. Smith and Roger Guilard (Eds.)",2003,,,,307,0,English,,,,"978-0-08-092387-1,9780080923871,0-12-393220-3",,,,,,,,,,,0,,,,,,,1,54665784,pdf,c69a9449017844fc9e097349939298f4,,,A:\\_for_add\\1\\SD\\9780080923871 (15).pdf,0,2000-01-01 01:00:00,2016-04-03 02:51:08,http://ars.els-cdn.com/content/image/3-s2.0-C20090227164-cov150h.gif,,
15309584,The Porphyrin Handbook. Medical Aspects of Porphyrins,,,,"Karl Kadish, Roger Guilard and Kevin M. Smith (Eds.)",2003,,,,371,0,English,,,,"978-0-08-092388-8,9780080923888,0-12-393220-3",,,,,,,,,,,0,,,,,,,1,37456261,pdf,9b483ebb6682daf5d65b9d235066c134,,,A:\\_for_add\\1\\SD\\9780080923888 (19).pdf,0,2000-01-01 01:00:00,2016-04-03 02:51:08,http://ars.els-cdn.com/content/image/3-s2.0-C20090227176-cov150h.gif,,
15309585,The Porphyrin Handbook. Phthalocyanines: Synthesis,,,,"Karl Kadish, Roger Guilard and Kevin M. Smith (Eds.)",2003,,,,399,0,English,,,,"978-0-08-092389-5,9780080923895,0-12-393220-3",,,,,,,,,,,0,,,,,,,1,46435663,pdf,a6a6a0abc926611c5c2bab02ee9c4e6c,,,A:\\_for_add\\1\\SD\\9780080923895 (12).pdf,0,2000-01-01 01:00:00,2016-04-03 02:51:08,http://ars.els-cdn.com/content/image/3-s2.0-C20090227188-cov150h.gif,,
15309586,The Porphyrin Handbook. Phthalocyanines: Spectroscopic and Electrochemical Characterization,,,,"Karl Kadish, Roger Guilard and Kevin M. Smith (Eds.)",2003,,,,316,0,English,,,,"978-0-08-092390-1,9780080923901,0-12-393220-3,0-12-393222-X",,,,,,,,,,,0,,,,,,,1,123110744,pdf,f331c582c1ad7daccdb65c5adebbed28,,,A:\\_for_add\\1\\SD\\9780080923901 (12).pdf,0,2000-01-01 01:00:00,2016-04-03 02:51:08,http://ars.els-cdn.com/content/image/3-s2.0-C2009022719X-cov150h.gif,,
15309587,The Porphyrin Handbook. Phthalocyanines: Properties and Materials,,,,"Karl Kadish, Roger Guilard and Kevin M. Smith (Eds.)",2003,,,,317,0,English,,,,"978-0-08-092391-8,9780080923918,0-12-393220-3",,,,,,,,,,,0,,,,,,,1,43072818,pdf,2264a66e16b00f047774bcffe854384d,,,A:\\_for_add\\1\\SD\\9780080923918 (12).pdf,0,2000-01-01 01:00:00,2016-04-03 02:51:08,http://ars.els-cdn.com/content/image/3-s2.0-C20090227206-cov150h.gif,,
15309588,"The Porphyrin Handbook. Multporphyrins, Multiphthalocyanines and Arrays",,,,"Karl Kadish, Roger Guilard and Kevin M. Smith (Eds.)",2003,,,,381,0,English,,,,"978-0-08-092392-5,9780080923925,0-12-393220-3",,,,,,,,,,,0,,,,,,,1,47542036,pdf,b7018cbd95a9ac330c0ea77dd5fd2224,,,A:\\_for_add\\1\\SD\\9780080923925 (12).pdf,0,2000-01-01 01:00:00,2016-04-03 02:51:08,http://ars.els-cdn.com/content/image/3-s2.0-C20090227218-cov150h.gif,,
15309589,The Porphyrin Handbook. Applications of Phthalocyanines,,,,"Karl Kadish, Roger Guilard and Kevin M. Smith (Eds.)",2003,,,,220,0,English,,,,"978-0-08-092393-2,9780080923932,0-12-393220-3",,,,,,,,,,,0,,,,,,,1,45715832,pdf,28f8dc6c20aa4b48151c451e7c02a769,,,A:\\_for_add\\1\\SD\\9780080923932 (12).pdf,0,2000-01-01 01:00:00,2016-04-03 02:51:08,http://ars.els-cdn.com/content/image/3-s2.0-C2009022722X-cov150h.gif,,
15309590,The Porphyrin Handbook. Phthalocyanines: Structural Characterization,,,,"Karl Kadish, Roger Guilard and Kevin M. Smith (Eds.)",2003,,,,330,0,English,,,,"978-0-08-092394-9,9780080923949,0-12-393220-3",,,,,,,,,,,0,,,,,,,1,49585072,pdf,7b919d88dbd847920c0367281ba19134,,,A:\\_for_add\\1\\SD\\9780080923949 (9).pdf,0,2000-01-01 01:00:00,2016-04-03 02:51:08,http://ars.els-cdn.com/content/image/3-s2.0-C20090227231-cov150h.gif,,
15309591,Energy Conservation in the Process Industries,,,,W. F. Kenney (Auth.),1984,,,,335,0,English,,,,"978-0-08-092401-4,9780080924014,0-12-404220-1",,,,,,,,,,,0,,,,,,,1,19903296,pdf,d4fa53bbe69fc7e3e44bf2e72f7a5efd,,,A:\\_for_add\\1\\SD\\9780080924014 (19).pdf,0,2000-01-01 01:00:00,2016-04-03 02:51:08,http://ars.els-cdn.com/content/image/3-s2.0-C20090218654-cov150h.gif,,
15309592,"Free Atoms, Clusters, and Nanoscale Particles",,,,,1994,,,,315,0,English,,,,"978-0-08-092406-9,9780080924069,0-12-410760-5",,,,,,,,,,,0,,,,,,,1,36250050,pdf,fc692aba3d4cf7f658531821dd2d40d1,,,A:\\_for_add\\1\\SD\\9780080924069 (15).pdf,0,2000-01-01 01:00:00,2016-04-03 02:51:08,http://ars.els-cdn.com/content/image/3-s2.0-C2009021275X-cov150h.gif,,
15309593,Introduction to Relativity. For Physicists and Astronomers,,,,John B. Kogut (Auth.),2001,,,,185,0,English,,,,"978-0-08-092408-3,9780080924083,0-12-417561-9",,,,,,,,,,,0,,,,,,,1,8544604,pdf,d9b0cf062aabd6160930f180a2aa3ed1,,,A:\\_for_add\\1\\SD\\9780080924083 (17).pdf,0,2000-01-01 01:00:00,2016-04-03 02:51:08,http://ars.els-cdn.com/content/image/3-s2.0-C20090226845-cov150h.gif,,
15309594,Response of Plants to Multiple Stresses,,,,"William E. Winner, Eva J. Pell and Jacques Roy (Eds.)",1991,,,,416,0,English,,,,"978-0-08-092483-0,9780080924830,0-12-505355-X",,,,,,,,,,,0,,,,,,,1,14163144,pdf,f91c584c9e9ae94a62baf5ac3f220f46,,,A:\\_for_add\\1\\SD\\9780080924830 (25).pdf,0,2000-01-01 01:00:00,2016-04-03 02:51:08,http://ars.els-cdn.com/content/image/3-s2.0-C20090026646-cov150h.gif,,
15309595,Asymmetric Synthesis,,,,James D. Morrison (Eds.),1985,,,,393,0,English,,,,"978-0-08-092493-9,9780080924939,0-12-507705-X",,,,,,,,,,,0,,,,,,,1,38870409,pdf,cb55f9443f2371d8b19e67764377104f,,,A:\\_for_add\\1\\SD\\9780080924939 (16).pdf,0,2000-01-01 01:00:00,2016-04-03 02:51:08,http://ars.els-cdn.com/content/image/3-s2.0-C20090218204-cov150h.gif,,
15309596,Herbivores: Their Interactions with Secondary Plant Metabolites. Volume II: Ecological and Evolutionary Processes,,,,Gerald A. Rosenthal and May R. Berenbaum (Eds.),1992,,,,495,0,English,,,,"978-0-08-092545-5,9780080925455,0-12-597184-2",,,,,,,,,,,0,,,,,,,1,27399333,pdf,c5c7b95528d1f56d50425219684d1f32,,,A:\\_for_add\\1\\SD\\9780080925455 (18).pdf,0,2000-01-01 01:00:00,2016-04-03 02:51:08,http://ars.els-cdn.com/content/image/3-s2.0-C20090032103-cov150h.gif,,
15309597,Sourcebook of Advanced Organic Laboratory Preparations,,,,Stanley R. Sandler and Wolf Karo (Auth.),1992,,,,335,0,English,,,,"978-0-08-092553-0,9780080925530,0-12-618506-9",,,,,,,,,,,0,,,,,,,1,15178594,pdf,e2f51c77e035db5b2eb79737f0ac1e54,,,A:\\_for_add\\1\\SD\\9780080925530 (52).pdf,0,2000-01-01 01:00:00,2016-04-03 02:51:08,http://ars.els-cdn.com/content/image/3-s2.0-C20090223853-cov150h.gif,,
15309598,Multidimensional Solid-State NMR and Polymers,,,,,1994,,,,486,0,English,,,,"978-0-08-092562-2,9780080925622,0-12-626630-1",,,,,,,,,,,0,,,,,,,1,67835922,pdf,d31918c2357e087235523911bdc16850,,,A:\\_for_add\\1\\SD\\9780080925622 (20).pdf,0,2000-01-01 01:00:00,2016-04-03 02:51:08,http://ars.els-cdn.com/content/image/3-s2.0-C20090213353-cov150h.gif,,
15309599,Chemotherapy-Induced Neuropathic Pain,,,,"Robert B. Raffa, Richard Langford, Joseph V. Pergolizzi  Jr., Frank Porreca, Ronald J. Tallarida",2012,1,CRC Press,,233,0,English,,,0,"1439862184,9781439862186",,,,,,,,,,,0,,,,,,,0,5221410,pdf,942e90e473e9a277fb5e702215dc5be3,,,942e90e473e9a277fb5e702215dc5be3.pdf,0,2000-01-01 01:00:00,2016-04-03 02:51:08,1048000/942e90e473e9a277fb5e702215dc5be3-d.jpg,,
15309600,Nitrogen and Energy Nutrition of Ruminants,,,,Ray L. Shirley and Tony J. Cunha (Eds.),1986,,,,351,0,English,,,,"978-0-08-092579-0,9780080925790",,,,,,,,,,,0,,,,,,,1,19185231,pdf,96250201ce42906fe447ffba8031f377,,,A:\\_for_add\\1\\SD\\9780080925790 (25).pdf,0,2000-01-01 01:00:00,2016-04-03 02:51:08,http://ars.els-cdn.com/content/image/3-s2.0-C20090029213-cov150h.gif,,
15309601,The Biochemistry of Plants. Carbohydrates,,,,"Jack Preiss, Walter Stumpf and P. Michael Conn (Eds.)",1988,,,,534,0,English,,,,"978-0-08-092615-5,9780080926155,0-12-675414-4",,,,,,,,,,,0,,,,,,,1,33651049,pdf,a5510bd32fb02a535b457041e4f29dc5,,,A:\\_for_add\\1\\SD\\9780080926155 (19).pdf,0,2000-01-01 01:00:00,2016-04-03 02:51:08,http://ars.els-cdn.com/content/image/3-s2.0-C20090028207-cov150h.gif,,
15309602,Intermediary Nitrogen Metabolism,,,,"P. Michael Conn, B. J. Miflin, Walter Stumpf and Peter J. Lea (Eds.)",1990,,,,406,0,English,,,,"978-0-08-092616-2,9780080926162,0-12-675416-0",,,,,,,,,,,0,,,,,,,1,28431596,pdf,fc504db766a05f9cc398db23e83a246e,,,A:\\_for_add\\1\\SD\\9780080926162 (16).pdf,0,2000-01-01 01:00:00,2016-04-03 02:51:08,http://ars.els-cdn.com/content/image/3-s2.0-C20090027111-cov150h.gif,,
15309603,Calmodulin and Signal Transduction,,,,,1998,,,,487,0,English,,,,"978-0-08-092636-0,9780080926360,978-0-1271-3860-2",,,,,,,,,,,0,,,,,,,1,33764323,pdf,53d94f4968381a1f00bb34317e4ad670,,,A:\\_for_add\\1\\SD\\9780080926360 (13).pdf,0,2000-01-01 01:00:00,2016-04-03 02:51:08,http://ars.els-cdn.com/content/image/3-s2.0-C20090021254-cov150h.gif,,
15309604,Automated DNA Sequencing and Analysis,,,,,1994,,,,366,0,English,,,,"978-0-08-092639-1,9780080926391,0-12-717010-3",,,,,,,,,,,0,,,,,,,1,37417307,pdf,d9ef5ebb9bce7bd3319efe1335fb1f5d,,,A:\\_for_add\\1\\SD\\9780080926391 (53).pdf,0,2000-01-01 01:00:00,2016-04-03 02:51:08,http://ars.els-cdn.com/content/image/3-s2.0-C20090023605-cov150h.gif,,
15309605,Investigating Biological Systems Using Modeling,,,,,1999,,,,368,0,English,,,,"978-0-08-092645-2,9780080926452,0-12-736740-3",,,,,,,,,,,0,,,,,,,1,32861688,pdf,8a1d30798f236218f370fc9508a818dd,,,A:\\_for_add\\1\\SD\\9780080926452 (30).pdf,0,2000-01-01 01:00:00,2016-04-03 02:51:08,http://ars.els-cdn.com/content/image/3-s2.0-C20090020601-cov150h.gif,,
15309606,Science for Motor Vehicle Engineers,,,,,1995,,,,298,0,English,,,,"978-0-08-092868-5,9780080928685",,,,,,,,,,,0,,,,,,,1,26243617,pdf,da4b97a8f0b8789daf9613d37f1bef6e,,,A:\\_for_add\\1\\SD\\9780080928685 (14).pdf,0,2000-01-01 01:00:00,2016-04-03 02:51:08,http://ars.els-cdn.com/content/image/3-s2.0-C20090239572-cov150h.gif,,
15309607,Engineering Drawing from First Principles. Using Auto: Cad,,,,,1998,,,,274,0,English,,,,"978-0-08-092878-4,9780080928784,0340691980",,,,,,,,,,,0,,,,,,,1,23737186,pdf,8a84d951f5a4d9ffcb60c4fd5f497db7,,,A:\\_for_add\\1\\SD\\9780080928784 (15).pdf,0,2000-01-01 01:00:00,2016-04-03 02:51:08,http://ars.els-cdn.com/content/image/3-s2.0-C20090238554-cov150h.gif,,
15309608,ATM and Internet Protocol. A Convergence of Technologies,,,,,1998,,,,168,0,English,,,,"978-0-08-092882-1,9780080928821",,,,,,,,,,,0,,,,,,,1,29401452,pdf,7e70d9ad8a50ff75d632e3e26d8be2ae,,,A:\\_for_add\\1\\SD\\9780080928821 (14).pdf,0,2000-01-01 01:00:00,2016-04-03 02:51:08,http://ars.els-cdn.com/content/image/3-s2.0-C20090238694-cov150h.gif,,
15309609,Quality and Standards in Electronics,,,,,1997,,,,244,0,English,,,,"978-0-08-093843-1,9780080938431",,,,,,,,,,,0,,,,,,,1,27792037,pdf,98040acb29720158f4d16c10fe36249e,,,A:\\_for_add\\1\\SD\\9780080938431 (17).pdf,0,2000-01-01 01:00:00,2016-04-03 02:51:08,http://ars.els-cdn.com/content/image/3-s2.0-C20090253116-cov150h.gif,,
15309610,"Rural Safety: Machinery, Stock and General Hazards",,,,,1997,,,,140,0,English,,,,"978-0-08-094331-2,9780080943312",,,,,,,,,,,0,,,,,,,1,29807734,pdf,8b66174c367c32418422dd96ff5c37f7,,,A:\\_for_add\\1\\SD\\9780080943312 (21).pdf,0,2000-01-01 01:00:00,2016-04-03 02:51:08,http://ars.els-cdn.com/content/image/3-s2.0-C20090267377-cov150h.gif,,
15309611,Engineering Materials 2,,,,,2013,,,,545,0,English,,,,"978-0-08-096668-7,9780080966687,978-0-08-096668-7",,,,,,,,,,,0,,,,,,,1,15043231,pdf,d9b3919598346e68c1dd77b8ea4428a3,,,A:\\_for_add\\1\\SD\\9780080966687 (38).pdf,0,2000-01-01 01:00:00,2016-04-03 02:51:08,http://ars.els-cdn.com/content/image/3-s2.0-C20090642896-cov150h.gif,,
15309612,Pic Projects and Applications Using C. A Project-based Approach,,,,David W. Smith (Auth.),2013,,,,183,0,English,,,,"978-0-08-097151-3,9780080971513,978-0-08-097151-3",,,,,,,,,,,0,,,,,,,1,21351227,pdf,c33f3ce4faba8c4c27b8e3985e68ab9a,,,A:\\_for_add\\1\\SD\\9780080971513 (21).pdf,0,2000-01-01 01:00:00,2016-04-03 02:51:08,http://ars.els-cdn.com/content/image/3-s2.0-C20130005245-cov150h.gif,,
15309613,"Multiphase Flow Analysis Using Population Balance Modeling. Bubbles, Drops and Particles",,,,"Guan Heng Yeoh, Dr Chi Pok Cheung and Jiyuan Tu (Auth.)",2014,,,,368,0,English,,,,"978-0-08-098229-8,9780080982298,978-0-08-098229-8",,,,,,,10.1016/B978-0-08-098229-8.00001-2,,,,0,,,,,,,1,8429263,pdf,dbc92f707355e6035372ab09b543ca2e,,,A:\\_for_add\\1\\SD\\9780080982298 (16).pdf,0,2000-01-01 01:00:00,2016-04-03 02:51:08,http://ars.els-cdn.com/content/image/3-s2.0-C20110055680-cov150h.gif,,
15309614,Multi-criteria Decision Analysis for Supporting the Selection of Engineering Materials in Product Design,,,,Ali Jahan and Kevin L. Edwards (Auth.),2013,,,,116,0,English,,,,"978-0-08-099386-7,9780080993867,978-0-08-099386-7",,,,,,,,,,,0,,,,,,,1,4074308,pdf,d8548d58ddcc8c912bef27e5621e8382,,,A:\\_for_add\\1\\SD\\9780080993867 (11).pdf,0,2000-01-01 01:00:00,2016-04-03 02:51:08,http://ars.els-cdn.com/content/image/3-s2.0-C20120028347-cov150h.gif,,
15309615,"Perfume Engineering. Design, Performance & Classification",,,,"Miguel A. Teixeira, Oscar Rodriguez, Paula Gomes, Vera Mata and Alirio Rodrigues (Auth.)",2013,,,,164,0,English,,,,"978-0-08-099399-7,9780080993997,978-0-08-099399-7",,,,,,,,,,,0,,,,,,,1,9721264,pdf,09bc6a0e7a6db6a48f2bf9fd78a22ecb,,,A:\\_for_add\\1\\SD\\9780080993997 (8).pdf,0,2000-01-01 01:00:00,2016-04-03 02:51:08,http://ars.els-cdn.com/content/image/3-s2.0-C20120036241-cov150h.gif,,
15309616,Advances in Aquatic Microbiology,,,,M.R. Droop (Eds.),1977,,,,385,0,English,,,,"978-0-12-003001-9,9780120030019,0-12-003001-2",,,,,,,,,,,0,,,,,,,1,6146308,pdf,0443d6941ce9990587e11d8783a39339,,,A:\\_for_add\\1\\SD\\9780120030019 (13).pdf,0,2000-01-01 01:00:00,2016-04-03 02:51:08,http://ars.els-cdn.com/content/image/3-s2.0-B9780120030019X5001X-cov150h.gif,,
15309617,High Resolution NMR in Solids Selective Averaging. Supplement to Advances in Magnetic Resonance,,,,Ulrich Haeberlen (Auth.),1976,,,,195,0,English,,,,"978-0-12-025561-0,9780120255610",,,,,,,,,,,0,,,,,,,1,20869009,pdf,31a1175363e2efeadb71ef0663683a79,,,A:\\_for_add\\1\\SD\\9780120255610 (17).pdf,0,2000-01-01 01:00:00,2016-04-03 02:51:08,http://ars.els-cdn.com/content/image/3-s2.0-B9780120255610X50011-cov150h.gif,,
15309618,Advances in Radiation Biology. Relative Radiation Sensitivities of Human Organ Systems. Part II,,,,John Lett (Eds.),1990,,,,326,0,English,,,,"978-0-12-035414-6,9780120354146,0-12-035414-4",,,,,,,,,,,0,,,,,,,1,9147372,pdf,0339987d5e4b9473ae7e26e433074898,,,A:\\_for_add\\1\\SD\\9780120354146 (14).pdf,0,2000-01-01 01:00:00,2016-04-03 02:51:08,http://ars.els-cdn.com/content/image/3-s2.0-B9780120354146X50019-cov150h.gif,,
15309619,Applied Biochemistry and Bioengineering. Enzyme Technology,,,,Lemuel Wingard (Eds.),1979,,,,306,0,English,,,,"978-0-12-041102-3,9780120411023,0-12-041102-4",,,,,,,,,,,0,,,,,,,1,4809880,pdf,dbc7e1ca8abadb681e867da7d5f3a35e,,,A:\\_for_add\\1\\SD\\9780120411023 (17).pdf,0,2000-01-01 01:00:00,2016-04-03 02:51:08,http://ars.els-cdn.com/content/image/3-s2.0-B9780120411023X50019-cov150h.gif,,
15309620,"Reliability Theory and Models. Stochastic Failure Models, Optimal Maintenance Policies, Life Testing, and Structures",,,,Mohamed Abdel-Hameed (Eds.),1984,,,,294,0,English,,,,"978-0-12-041420-8,9780120414208,0-12-041420-1",,,,,,,,,,,0,,,,,,,1,3972774,pdf,f324a60ae47f6796ba7b5a393551d4f2,,,A:\\_for_add\\1\\SD\\9780120414208 (27).pdf,0,2000-01-01 01:00:00,2016-04-03 02:51:08,http://ars.els-cdn.com/content/image/3-s2.0-B9780120414208X50012-cov150h.gif,,
15309621,Ethylene in Plant Biology,,,,Frederick Abeles (Auth.),1973,,,,307,0,English,,,,"978-0-12-041450-5,9780120414505",,,,,,,,,,,0,,,,,,,1,9612939,pdf,ecc4ff26d618a944d7bf207a7b02ff33,,,A:\\_for_add\\1\\SD\\9780120414505 (17).pdf,0,2000-01-01 01:00:00,2016-04-03 02:51:08,http://ars.els-cdn.com/content/image/3-s2.0-B9780120414505X50020-cov150h.gif,,
15309622,Blood Vessels and Lymphatics in Organ Systems,,,,David Abramson (Eds.),1984,,,,775,0,English,,,,"978-0-12-042520-4,9780120425204",,,,,,,,,,,0,,,,,,,1,19066951,pdf,7e4e6a0816ca7933a1b464d1896b23d5,,,A:\\_for_add\\1\\SD\\9780120425204 (27).pdf,0,2000-01-01 01:00:00,2016-04-03 02:51:08,http://ars.els-cdn.com/content/image/3-s2.0-B9780120425204X50015-cov150h.gif,,
15309623,Thermodynamic Properties of Nonelectrolyte Solutions,,,,William Acree (Auth.),1984,,,,312,0,English,,,,"978-0-12-043020-8,9780120430208,0-12-043020-7",,,,,,,,,,,0,,,,,,,1,10115682,pdf,1c4bd095555df894a58add6b9d8686fa,,,A:\\_for_add\\1\\SD\\9780120430208 (21).pdf,0,2000-01-01 01:00:00,2016-04-03 02:51:08,http://ars.els-cdn.com/content/image/3-s2.0-B9780120430208X50013-cov150h.gif,,
15309624,Cell Culture and its Application,,,,Ronald Acton (Eds.),1977,,,,724,0,English,,,,"978-0-12-043050-5,9780120430505,0-12-043050-9",,,,,,,,,,,0,,,,,,,1,19947094,pdf,f8ccd6581ac6de3a6777ca46a42751eb,,,A:\\_for_add\\1\\SD\\9780120430505 (50).pdf,0,2000-01-01 01:00:00,2016-04-03 02:51:08,http://ars.els-cdn.com/content/image/3-s2.0-B9780120430505X5001X-cov150h.gif,,
15309625,Biomolecular Structure and Function,,,,Paul Agris (Eds.),1978,,,,590,0,English,,,,"978-0-12-043950-8,9780120439508,0-12-043950-6",,,,,,,,,,,0,,,,,,,1,14769035,pdf,12a9eb455b846e4e3e7e6e0d991dc7ce,,,A:\\_for_add\\1\\SD\\9780120439508 (69).pdf,0,2000-01-01 01:00:00,2016-04-03 02:51:08,http://ars.els-cdn.com/content/image/3-s2.0-B9780120439508X50013-cov150h.gif,,
15309626,Microwaves and Thermoregulation,,,,Eleanor Adair (Eds.),1983,,,,485,0,English,,,,"978-0-12-044020-7,9780120440207,0-12-044020-2",,,,,,,,,,,0,,,,,,,1,10031145,pdf,7387e5642e9318c6108c21aa516b0acf,,,A:\\_for_add\\1\\SD\\9780120440207 (29).pdf,0,2000-01-01 01:00:00,2016-04-03 02:51:08,http://ars.els-cdn.com/content/image/3-s2.0-B9780120440207X50016-cov150h.gif,,
15309627,Organization and Assembly of Plant and Animal Extracellular Matrix,,,,W. Steven Adair (Eds.),1990,,,,364,0,English,,,,"978-0-12-044060-3,9780120440603,0-12-044060-1",,,,,,,,,,,0,,,,,,,1,12396231,pdf,19da567eec7740e09d3126c2f97a1c20,,,A:\\_for_add\\1\\SD\\9780120440603 (15).pdf,0,2000-01-01 01:00:00,2016-04-03 02:51:08,http://ars.els-cdn.com/content/image/3-s2.0-B9780120440603X50018-cov150h.gif,,
15309628,Chemical and Biological Generation of Excited States,,,,Waldermar Adam (Eds.),1982,,,,387,0,English,,,,"978-0-12-044080-1,9780120440801,0-12-044080-6",,,,,,,,,,,0,,,,,,,1,6752413,pdf,fbc67ea2682c3083cbd05f6d245890b5,,,A:\\_for_add\\1\\SD\\9780120440801 (17).pdf,0,2000-01-01 01:00:00,2016-04-03 02:51:08,http://ars.els-cdn.com/content/image/3-s2.0-B9780120440801X50019-cov150h.gif,,
15309629,Conservation of Plant Genes. DNA Banking and in Vitro Biotechnology,,,,Robert P. Adams and Janice E. Adams (Auth.),1991,,,,342,0,English,,,,"978-0-12-044140-2,9780120441402,0-12-044140-3",,,,,,,,,,,0,,,,,,,1,35011960,pdf,cd63e92771b6cf1389db243d5c6b0230,,,A:\\_for_add\\1\\SD\\9780120441402 (29).pdf,0,2000-01-01 01:00:00,2016-04-03 02:51:08,http://ars.els-cdn.com/content/image/3-s2.0-C20090026294-cov150h.gif,,
15309630,Methods for Studying Mononuclear Phagocytes,,,,Dolph Adams (Eds.),1981,,,,991,0,English,,,,"978-0-12-044220-1,9780120442201,0-12-044220-5",,,,,,,,,,,0,,,,,,,1,18961403,pdf,0f258a046a381e0128502cfc69a9bcda,,,A:\\_for_add\\1\\SD\\9780120442201 (100).pdf,0,2000-01-01 01:00:00,2016-04-03 02:51:08,http://ars.els-cdn.com/content/image/3-s2.0-B9780120442201X50016-cov150h.gif,,
15309631,A Textbook of Physical Chemistry,,,,Arther Adamson (Auth.),1979,,,,974,0,English,,,,"978-0-12-044260-7,9780120442607,0-12-044260-4",,,,,,,,,,,0,,,,,,,1,28798791,pdf,0cf7a1e6a336b548e3eb1076e4e49e12,,,A:\\_for_add\\1\\SD\\9780120442607 (28).pdf,0,2000-01-01 01:00:00,2016-04-03 02:51:08,http://ars.els-cdn.com/content/image/3-s2.0-B9780120442607X50012-cov150h.gif,,
15309632,A Textbook of Physical Chemistry,,,,Arthur Adamson (Auth.),1973,,,,974,0,English,,,,"978-0-12-044262-1,9780120442621,0-12-044262-0",,,,,,,,,,,0,,,,,,,1,17785148,pdf,feb32c0497ad5c1da55a5d3986bc9016,,,A:\\_for_add\\1\\SD\\9780120442621 (29).pdf,0,2000-01-01 01:00:00,2016-04-03 02:51:08,http://ars.els-cdn.com/content/image/3-s2.0-B9780120442621X50014-cov150h.gif,,
15309633,Dynamical Collision Theory and its Applications,,,,Sadhan Adhikari (Auth.),1991,,,,495,0,English,,,,"978-0-12-044273-7,9780120442737,0-12-044273-6",,,,,,,,,,,0,,,,,,,1,29787244,pdf,6d75686a0fd22fe53f5bf3faff2176bc,,,A:\\_for_add\\1\\SD\\9780120442737 (15).pdf,0,2000-01-01 01:00:00,2016-04-03 02:51:08,http://ars.els-cdn.com/content/image/3-s2.0-B9780120442737X50015-cov150h.gif,,
15309634,The Retina: A Model for Cell Biology Studies,,,,Ruben Adler (Eds.),1986,,,,369,0,English,,,,"978-0-12-044275-1,9780120442751",,,,,,,,,,,0,,,,,,,1,27448410,pdf,014b3caba88e0a2a9fdd8b545c2e61c1,,,A:\\_for_add\\1\\SD\\9780120442751 (15).pdf,0,2000-01-01 01:00:00,2016-04-03 02:51:08,http://ars.els-cdn.com/content/image/3-s2.0-B9780120442751X50017-cov150h.gif,,
15309635,The Retina: A Model for Cell Biology Studies,,,,Ruben Adler (Eds.),1986,,,,355,0,English,,,,"978-0-12-044276-8,9780120442768",,,,,,,,,,,0,,,,,,,1,9105474,pdf,427fd6ba69ef735267b8765d21c9ac9d,,,A:\\_for_add\\1\\SD\\9780120442768 (14).pdf,0,2000-01-01 01:00:00,2016-04-03 02:51:08,http://ars.els-cdn.com/content/image/3-s2.0-B9780120442768X50012-cov150h.gif,,
15309636,Heavy Quark Effective Theory,,Springer Tracts in Modern Physics,,Andrey G. Grozin,2004,2004,Springer,,213,0,English,,,0,"3540206922,9783540206927",,,,,,,,,,,0,,,,,,,0,3262430,pdf,51b7d417acb445dbbcff685e5adf5759,,,51b7d417acb445dbbcff685e5adf5759.pdf,0,2000-01-01 01:00:00,2016-04-03 02:51:08,1048000/51b7d417acb445dbbcff685e5adf5759-d.jpg,,
15309637,Skinny Bitch Bakery,,,,Kim Barnouin,2013,,HarperOne,,272,0,English,,,0,"0062105132,9780062105134",,,,,,,,,,,0,,,,,,,,6629155,epub,5ae081b23675cb3bdeffbbb392259f57,,,5ae081b23675cb3bdeffbbb392259f57.epub,0,2000-01-01 01:00:00,2016-04-03 02:51:08,1048000/5ae081b23675cb3bdeffbbb392259f57-d.jpg,,
15309638,Ο ρόλος της εργασίας στην εξανθρώπιση του πιθήκου. Ο Ένγκελς και η καταγωγή της ανθρώπινης κοινωνίας,,,,"Φρίντριχ Ένγκελς, Κρις Χάρμαν - Mετάφραση: Κώστας Πίττας",2011,,Μαρξιστικό Βιβλιοπωλείο,,0,0,Greek,,,0,,,,,,,,,,,,600,,,0,,1,1,1,1152798,djvu,cb71b3c81a385a7616c2e41820803b1f,,,O_rolos_ths_ergasias_sthn_eksanthrwpish_toy_pithhkoy,0,2000-01-01 01:00:00,2016-04-03 02:51:08,1048000/cb71b3c81a385a7616c2e41820803b1f-g.jpg,,
15309639,Intracellular Parasitic Protozoa,,,,Masamichi Aikawa (Auth.),1974,,,,81,0,English,,,,"978-0-12-045350-4,9780120453504",,,,,,,,,,,0,,,,,,,1,9791969,pdf,15f867772de6162dc1b7238f665a7a4a,,,A:\\_for_add\\1\\SD\\9780120453504 (10).pdf,0,2000-01-01 01:00:00,2016-04-03 02:51:08,http://ars.els-cdn.com/content/image/3-s2.0-B9780120453504X5001X-cov150h.gif,,
15309640,Differentiation and Development,,,,Fazal Ahmad (Eds.),1978,,,,529,0,English,,,,"978-0-12-045450-1,9780120454501,0-12-045450-5",,,,,,,,,,,0,,,,,,,1,13795431,pdf,21786d460111894123181888f8252489,,,A:\\_for_add\\1\\SD\\9780120454501 (99).pdf,0,2000-01-01 01:00:00,2016-04-03 02:51:08,http://ars.els-cdn.com/content/image/3-s2.0-B9780120454501X5001X-cov150h.gif,,
15309641,From Gene to Protein: Translation Into Biotechnology,,,,Fazal Ahmad (Eds.),1982,,,,567,0,English,,,,"978-0-12-045560-7,9780120455607,0-12-045560-9",,,,,,,,,,,0,,,,,,,1,15618075,pdf,a546c2c8cc37ac03f861fb18d2418955,,,A:\\_for_add\\1\\SD\\9780120455607 (107).pdf,0,2000-01-01 01:00:00,2016-04-03 02:51:08,http://ars.els-cdn.com/content/image/3-s2.0-B9780120455607X5001X-cov150h.gif,,
15309642,Herbivorous Insects. Host-seeking Behavior and mechanisms,,,,Sami Ahmad (Eds.),1983,,,,253,0,English,,,,"978-0-12-045580-5,9780120455805,0-12-045580-3",,,,,,,,,,,0,,,,,,,1,6459142,pdf,c5f58d0aad294fa38cfc45ad63311c86,,,A:\\_for_add\\1\\SD\\9780120455805 (14).pdf,0,2000-01-01 01:00:00,2016-04-03 02:51:08,http://ars.els-cdn.com/content/image/3-s2.0-B9780120455805X50010-cov150h.gif,,
15309643,Metabolic Maps of Pesticides,,,,Hiroyasu Aizawa (Auth.),1982,,,,249,0,English,,,,"978-0-12-046480-7,9780120464807",,,,,,,,,,,0,,,,,,,1,3260561,pdf,8118b8e652bae38cff067946d4f8f03d,,,A:\\_for_add\\1\\SD\\9780120464807 (37).pdf,0,2000-01-01 01:00:00,2016-04-03 02:51:08,http://ars.els-cdn.com/content/image/3-s2.0-B9780120464807X50013-cov150h.gif,,
15309644,Metabolic Maps of Pesticides,,,,Hiroyasu Aizawa (Auth.),1989,,,,277,0,English,,,,"978-0-12-046481-4,9780120464814,0-12-046480-2,0-12-046481-0",,,,,,,,,,,0,,,,,,,1,15611919,pdf,226e8a121688e9e89fc10454185202a9,,,A:\\_for_add\\1\\SD\\9780120464814 (34).pdf,0,2000-01-01 01:00:00,2016-04-03 02:51:08,http://ars.els-cdn.com/content/image/3-s2.0-B9780120464814X50014-cov150h.gif,,
15309645,Mathematical Methods in Nuclear Reactor Dynamics,,,,Ziya Akcasuh (Auth.),1971,,,,465,0,English,,,,"978-0-12-047150-8,9780120471508",,,,,,,,,,,0,,,,,,,1,5775018,pdf,ab4348945edd6969603787003f254f26,,,A:\\_for_add\\1\\SD\\9780120471508 (13).pdf,0,2000-01-01 01:00:00,2016-04-03 02:51:08,http://ars.els-cdn.com/content/image/3-s2.0-B9780120471508X50015-cov150h.gif,,
15309646,Mechanistic Studies of DNA Replication and Genetic Recombination,,,,Bruce Alberts (Eds.),1980,,,,983,0,English,,,,"978-0-12-048850-6,9780120488506,0-12-048850-7",,,,,,,,,,,0,,,,,,,1,23647947,pdf,eed1b68264e04cc77eca8e8f7fe0892e,,,A:\\_for_add\\1\\SD\\9780120488506 (90).pdf,0,2000-01-01 01:00:00,2016-04-03 02:51:08,http://ars.els-cdn.com/content/image/3-s2.0-B9780120488506X50017-cov150h.gif,,
15309647,"Cell Biology of Physarum and Didymium. Organisms, Nucleus, and Cell Cycle",,,,Henery Aldrich (Eds.),1982,,,,436,0,English,,,,"978-0-12-049601-3,9780120496013,0-12-049601-1",,,,,,,,,,,0,,,,,,,1,10639085,pdf,a646f6783824d60063059c035549c546,,,A:\\_for_add\\1\\SD\\9780120496013 (19).pdf,0,2000-01-01 01:00:00,2016-04-03 02:51:08,http://ars.els-cdn.com/content/image/3-s2.0-B9780120496013X50019-cov150h.gif,,
15309648,"Cell Biology of Physarum and Didymium. Differentiation, Metabolism, and Methodology",,,,Henery Aldrich (Eds.),1982,,,,372,0,English,,,,"978-0-12-049602-0,9780120496020,0-12-049602-X",,,,,,,,,,,0,,,,,,,1,9706511,pdf,d7b1e123a2d740acdff0f3743c31b10e,,,A:\\_for_add\\1\\SD\\9780120496020 (35).pdf,0,2000-01-01 01:00:00,2016-04-03 02:51:08,http://ars.els-cdn.com/content/image/3-s2.0-B9780120496020X5001X-cov150h.gif,,
15309649,Introduction to Interval Computation,,,,Gotz Alefeld and Jurgen Herzberger (Auth.),1983,,,,345,0,English,,,,"978-0-12-049820-8,9780120498208",,,,,,,,,,,0,,,,,,,1,5744857,pdf,3f20823cdedfce6181b90978860c0b8a,,,A:\\_for_add\\1\\SD\\9780120498208 (34).pdf,0,2000-01-01 01:00:00,2016-04-03 02:51:08,http://ars.els-cdn.com/content/image/3-s2.0-C20090218988-cov150h.gif,,
15309650,Semiconductors Probed by Ultrafast Laser Spectroscopy,,,,R. R. Alfano (Eds.),1984,,,,458,0,English,,,,"978-0-12-049901-4,9780120499014,0-12-049901-0",,,,,,,,,,,0,,,,,,,1,35366729,pdf,3b2496ecd2dec0a19fcf4bad0a57c48f,,,A:\\_for_add\\1\\SD\\9780120499014 (19).pdf,0,2000-01-01 01:00:00,2016-04-03 02:51:08,http://ars.els-cdn.com/content/image/3-s2.0-B9780120499014X50013-cov150h.gif,,
15309651,Semiconductors Probed by Ultrafast Laser Spectroscopy,,,,R. R. Alfano (Eds.),1984,,,,544,0,English,,,,"978-0-12-049902-1,9780120499021,0-12-049902-9",,,,,,,,,,,0,,,,,,,1,9526786,pdf,ed38818a9483f1897dab36a4e15ace48,,,A:\\_for_add\\1\\SD\\9780120499021 (23).pdf,0,2000-01-01 01:00:00,2016-04-03 02:51:08,http://ars.els-cdn.com/content/image/3-s2.0-B9780120499021X50014-cov150h.gif,,
15309652,Biological Events Probed by Ultrafast Laser Spectroscopy,,,,R. R. Alfano (Eds.),1982,,,,426,0,English,,,,"978-0-12-049950-2,9780120499502,0-12-049950-9",,,,,,,,,,,0,,,,,,,1,7136184,pdf,143aad1635449e6eebf83801ed5edfee,,,A:\\_for_add\\1\\SD\\9780120499502 (24).pdf,0,2000-01-01 01:00:00,2016-04-03 02:51:08,http://ars.els-cdn.com/content/image/3-s2.0-B9780120499502X5001X-cov150h.gif,,
15309653,"Phosphorus-nitrogen Compounds. Cyclic, Linear, and High Polymeric Systems",,,,H. Allcock (Auth.),1972,,,,493,0,English,,,,"978-0-12-050560-9,9780120505609",,,,,,,,,,,0,,,,,,,1,7809207,pdf,98cf2501e880da71c1f796a63a5ed766,,,A:\\_for_add\\1\\SD\\9780120505609 (24).pdf,0,2000-01-01 01:00:00,2016-04-03 02:51:08,http://ars.els-cdn.com/content/image/3-s2.0-B9780120505609X50013-cov150h.gif,,
15309654,Early Brain Damage. Volume 1: Research Orientations and Clinical Observations,,,,C.R. Almli (Eds.),1984,,,,361,0,English,,,,"978-0-12-052901-8,9780120529018,0-12-052901-7,0-12-052902-5",,,,,,,,,,,0,,,,,,,1,9281742,pdf,31737f0ebab333f182cfb90bcbcb23e0,,,A:\\_for_add\\1\\SD\\9780120529018 (25).pdf,0,2000-01-01 01:00:00,2016-04-03 02:51:08,http://ars.els-cdn.com/content/image/3-s2.0-B9780120529018X50011-cov150h.gif,,
15309655,Early Brain Damage. Volume 2: Neurobiology and Behavior,,,,Stanley Finger (Eds.),1984,,,,381,0,English,,,,"978-0-12-052902-5,9780120529025,0-12-052901-7,0-12-052902-5",,,,,,,,,,,0,,,,,,,1,10734582,pdf,787d273692ee45313509cc01ab4a946e,,,A:\\_for_add\\1\\SD\\9780120529025 (26).pdf,0,2000-01-01 01:00:00,2016-04-03 02:51:08,http://ars.els-cdn.com/content/image/3-s2.0-B9780120529025X50012-cov150h.gif,,
15309656,Concepts of Membrane Structure,,,,Ronald Aloia (Eds.),1983,,,,329,0,English,,,,"978-0-12-053001-4,9780120530014,0-12-053001-5",,,,,,,,,,,0,,,,,,,1,8596896,pdf,12c8a04bb3aa55c931aca2fbd2a97352,,,A:\\_for_add\\1\\SD\\9780120530014 (13).pdf,0,2000-01-01 01:00:00,2016-04-03 02:51:08,http://ars.els-cdn.com/content/image/3-s2.0-B9780120530014X50010-cov150h.gif,,
15309657,General Principles,,,,Ronald Aloia (Eds.),1983,,,,277,0,English,,,,"978-0-12-053002-1,9780120530021,0-12-053002-3",,,,,,,,,,,0,,,,,,,1,4392668,pdf,1eb1252819372c798d334713160a7904,,,A:\\_for_add\\1\\SD\\9780120530021 (15).pdf,0,2000-01-01 01:00:00,2016-04-03 02:51:08,http://ars.els-cdn.com/content/image/3-s2.0-B9780120530021X50011-cov150h.gif,,
15309658,Molecular Biology of B Cells,,,,"Tasuku Honjo, Frederick W. Alt and Michael S. Neuberger (Eds.)",2003,,,,577,0,English,,,,"978-0-12-053641-2,9780120536412",,,,,,,,,,,0,,,,,,,1,27423395,pdf,ee1d0bbfd22fbfd87aa6305725f28dcb,,,A:\\_for_add\\1\\SD\\9780120536412 (37).pdf,0,2000-01-01 01:00:00,2016-04-03 02:51:08,http://ars.els-cdn.com/content/image/3-s2.0-B9780120536412X5000X-cov150h.gif,,
15309659,Tissues and Body Fluids,,,,Kurt Altman (Auth.),1970,,,,405,0,English,,,,"978-0-12-054502-5,9780120545025",,,,,,,,,,,0,,,,,,,1,5993461,pdf,311cfc66db5bef4dd7698f6a615a7993,,,A:\\_for_add\\1\\SD\\9780120545025 (17).pdf,0,2000-01-01 01:00:00,2016-04-03 02:51:08,http://ars.els-cdn.com/content/image/3-s2.0-B9780120545025X50013-cov150h.gif,,
15309660,Gasdynamic Lasers: an Introduction,,,,"John D. Anderson, Jr. (Auth.)",1976,,,,187,0,English,,,,"978-0-12-056950-2,9780120569502",,,,,,,,,,,0,,,,,,,1,5299942,pdf,04875fa47cb0d5f9fa964be90f3736b2,,,A:\\_for_add\\1\\SD\\9780120569502 (22).pdf,0,2000-01-01 01:00:00,2016-04-03 02:51:08,http://ars.els-cdn.com/content/image/3-s2.0-B9780120569502X50019-cov150h.gif,,
15309661,Solvent Effects on Chemical Phenomena,,,,Edward Amis (Auth.),1973,,,,479,0,English,,,,"978-0-12-057301-1,9780120573011",,,,,,,,,,,0,,,,,,,1,6354716,pdf,84b72912321256c4a9eff070b28306f2,,,A:\\_for_add\\1\\SD\\9780120573011 (12).pdf,0,2000-01-01 01:00:00,2016-04-03 02:51:08,http://ars.els-cdn.com/content/image/3-s2.0-B9780120573011X50016-cov150h.gif,,
15309662,Chemisorption and Reactions on Metallic Films,,,,J. Anderson (Eds.),1971,,,,559,0,English,,,,"978-0-12-058001-9,9780120580019",,,,,,,,,,,0,,,,,,,1,8527148,pdf,2f3299b60b4dba78dc38f93cb6cbffe7,,,A:\\_for_add\\1\\SD\\9780120580019 (13).pdf,0,2000-01-01 01:00:00,2016-04-03 02:51:08,http://ars.els-cdn.com/content/image/3-s2.0-B9780120580019X50019-cov150h.gif,,
15309663,Current Topics in Biochemistry 1973,,,,C.B. Anfinsen (Eds.),1974,,,,269,0,English,,,,"978-0-12-058751-3,9780120587513",,,,,,,,,,,0,,,,,,,1,4756195,pdf,4dc7dd707baf4f4070390ea001d1ac0b,,,A:\\_for_add\\1\\SD\\9780120587513 (12).pdf,0,2000-01-01 01:00:00,2016-04-03 02:51:08,http://ars.els-cdn.com/content/image/3-s2.0-B9780120587513X50015-cov150h.gif,,
15309664,Pattern Recognition & Machine Learning,,,,Y. Anzai (Auth.),1992,,,,412,0,English,,,,"978-0-12-058830-5,9780120588305,0-12-058830-7",,,,,,,,,,,0,,,,,,,1,25691815,pdf,03ba0583201dccfa60119f798b980f06,,,A:\\_for_add\\1\\SD\\9780120588305 (18).pdf,0,2000-01-01 01:00:00,2016-04-03 02:51:08,http://ars.els-cdn.com/content/image/3-s2.0-C20090224093-cov150h.gif,,
15309665,Biology of the Tapeworm Hymenolepis Diminuta,,,,Hisao Arai (Eds.),1980,,,,733,0,English,,,,"978-0-12-058980-7,9780120589807,0-12-058980-X",,,,,,,,,,,0,,,,,,,1,16102773,pdf,a3d249aa59b4371288f28c0be818239c,,,A:\\_for_add\\1\\SD\\9780120589807 (18).pdf,0,2000-01-01 01:00:00,2016-04-03 02:51:08,http://ars.els-cdn.com/content/image/3-s2.0-B9780120589807X50015-cov150h.gif,,
15309666,Applied Groundwater Modeling,,,,,1991,,,,388,0,English,,,,"978-0-12-059485-6,9780120594856,0-12-059485-4,978-0-12-059485-6",,,,,,,,,,,0,,,,,,,1,69386931,pdf,7a9979b771afa0111f5d8597ca5e3378,,,A:\\_for_add\\1\\SD\\9780120594856 (19).pdf,0,2000-01-01 01:00:00,2016-04-03 02:51:08,http://ars.els-cdn.com/content/image/3-s2.0-C20090215625-cov150h.gif,,
15309667,Neural Models of Language Processes,,,,Michael Arbib (Eds.),1982,,,,561,0,English,,,,"978-0-12-059780-2,9780120597802,0-12-059780-2",,,,,,,,,,,0,,,,,,,1,75354253,pdf,87e16d19c320b5ab0bbd8b45c9e73f45,,,A:\\_for_add\\1\\SD\\9780120597802 (36).pdf,0,2000-01-01 01:00:00,2016-04-03 02:51:08,http://ars.els-cdn.com/content/image/3-s2.0-B9780120597802X50013-cov150h.gif,,
15309668,Internal Combustion Engines,,,,Constantine Arcoumanis (Eds.),1988,,,,401,0,English,,,,"978-0-12-059790-1,9780120597901,0-12-059790-X",,,,,,,,,,,0,,,,,,,1,6390484,pdf,9a0cefed7e33ff3078fb257a472951cd,,,A:\\_for_add\\1\\SD\\9780120597901 (14).pdf,0,2000-01-01 01:00:00,2016-04-03 02:51:08,http://ars.els-cdn.com/content/image/3-s2.0-B9780120597901X50019-cov150h.gif,,
15309669,University Physics,,,,George Arfken (Auth.),1984,,,,886,0,English,,,,"978-0-12-059860-1,9780120598601,0-12-059860-4",,,,,,,,,,,0,,,,,,,1,729343933,pdf,84dfb4ecee84a49d4a800954d573611a,,,A:\\_for_add\\1\\SD\\9780120598601 (55).pdf,0,2000-01-01 01:00:00,2016-04-03 02:51:08,http://ars.els-cdn.com/content/image/3-s2.0-B9780120598601X50012-cov150h.gif,,
15309670,Visual Psychophysics and Physiology. A Volume Dedicated to Lorrin Riggs,,,,John Armington (Eds.),1978,,,,471,0,English,,,,"978-0-12-062260-3,9780120622603,0-12-062260-2",,,,,,,,,,,0,,,,,,,1,19228800,pdf,a11ea6426d396d0ba8525942653e4143,,,A:\\_for_add\\1\\SD\\9780120622603 (45).pdf,0,2000-01-01 01:00:00,2016-04-03 02:51:08,http://ars.els-cdn.com/content/image/3-s2.0-B9780120622603X50011-cov150h.gif,,
15309671,Investigations in General Biology,,,,Kenneth Armitage (Auth.),1970,,,,199,0,English,,,,"978-0-12-062460-7,9780120624607",,,,,,,,,,,0,,,,,,,1,3834259,pdf,9378c0168d40e7d1a6fb2a2548a0883a,,,A:\\_for_add\\1\\SD\\9780120624607 (23).pdf,0,2000-01-01 01:00:00,2016-04-03 02:51:08,http://ars.els-cdn.com/content/image/3-s2.0-B9780120624607X50016-cov150h.gif,,
15309672,Beam and Fiber Optics,,,,J.A. Arnaud (Auth.),1976,,,,459,0,English,,,,"978-0-12-063250-3,9780120632503,0-12-063250-0",,,,,,,,,,,0,,,,,,,1,10618086,pdf,0c860001b7ee896d91584b9c0dc6fdc6,,,A:\\_for_add\\1\\SD\\9780120632503 (13).pdf,0,2000-01-01 01:00:00,2016-04-03 02:51:08,http://ars.els-cdn.com/content/image/3-s2.0-B9780120632503X50019-cov150h.gif,,
15309673,Optical Processing and Computing,,,,Henri Arsenault (Eds.),1989,,,,492,0,English,,,,"978-0-12-064470-4,9780120644704,0-12-064470-3",,,,,,,,,,,0,,,,,,,1,11279616,pdf,35afa61f49c04d41ff5a2ed4e151ca5f,,,A:\\_for_add\\1\\SD\\9780120644704 (20).pdf,0,2000-01-01 01:00:00,2016-04-03 02:51:08,http://ars.els-cdn.com/content/image/3-s2.0-B9780120644704X50017-cov150h.gif,,
15309674,"Development of Perception: Psychobiological Perspectives. Audition, Somatic Perception, and the Chemical Senses",,,,Richard Aslin (Eds.),1981,,,,464,0,English,,,,"978-0-12-065301-0,9780120653010,0-12-065301-X",,,,,,,,,,,0,,,,,,,1,9026759,pdf,564cd40663f905434b4d02892cb93b20,,,A:\\_for_add\\1\\SD\\9780120653010 (27).pdf,0,2000-01-01 01:00:00,2016-04-03 02:51:08,http://ars.els-cdn.com/content/image/3-s2.0-B9780120653010X50018-cov150h.gif,,
15309675,Development of Perception: Psychobiological Perspectives. The Visual System,,,,Richard Aslin (Eds.),1981,,,,392,0,English,,,,"978-0-12-065302-7,9780120653027,0-12-065302-8",,,,,,,,,,,0,,,,,,,1,9687998,pdf,9e7737f2f04b45f83c7b8232c899e0ab,,,A:\\_for_add\\1\\SD\\9780120653027 (23).pdf,0,2000-01-01 01:00:00,2016-04-03 02:51:08,http://ars.els-cdn.com/content/image/3-s2.0-B9780120653027X50013-cov150h.gif,,
15309676,Cellular Energy Metabolism and its Regulation,,,,Daniel E. Atkinson (Auth.),1977,,,,294,0,English,,,,"978-0-12-066150-3,9780120661503",,,,,,,,,,,0,,,,,,,1,24856669,pdf,ca963eb3b292b6092fa87fa0379c0372,,,A:\\_for_add\\1\\SD\\9780120661503 (17).pdf,0,2000-01-01 01:00:00,2016-04-03 02:51:08,http://ars.els-cdn.com/content/image/3-s2.0-C20090031365-cov150h.gif,,
15309677,Modulation of Protein Function,,,,Daniel Atkinson (Eds.),1979,,,,463,0,English,,,,"978-0-12-066250-0,9780120662500,0-12-066250-7",,,,,,,,,,,0,,,,,,,1,19336017,pdf,c325ff006287c1fb81f151fe55293331,,,A:\\_for_add\\1\\SD\\9780120662500 (32).pdf,0,2000-01-01 01:00:00,2016-04-03 02:51:08,http://ars.els-cdn.com/content/image/3-s2.0-B9780120662500X50017-cov150h.gif,,
15309678,Changes in Eukaryotic Gene Expression in Response to Environmental Stress,,,,Burr Atkinson (Eds.),1985,,,,377,0,English,,,,"978-0-12-066290-6,9780120662906,0-12-066290-6",,,,,,,,,,,0,,,,,,,1,13108516,pdf,6121f913adacfa5e059bf192b057f3f5,,,A:\\_for_add\\1\\SD\\9780120662906 (24).pdf,0,2000-01-01 01:00:00,2016-04-03 02:51:08,http://ars.els-cdn.com/content/image/3-s2.0-B9780120662906X50013-cov150h.gif,,
15309679,Eucaryotic Gene Regulation,,,,Richard Axel (Eds.),1979,,,,650,0,English,,,,"978-0-12-068350-5,9780120683505",,,,,,,,,,,0,,,,,,,1,18394745,pdf,26675a8e214cee88b7f42bd6600fd111,,,A:\\_for_add\\1\\SD\\9780120683505 (57).pdf,0,2000-01-01 01:00:00,2016-04-03 02:51:08,http://ars.els-cdn.com/content/image/3-s2.0-B9780120683505X50017-cov150h.gif,,
15309680,The Knot Bible: The complete guide to knots and their uses,,Sailing,,.,2013,,Adlard Coles Nautical,,288,0,English,,,0,"1408154765,9781408154762",,,,,,,,,,,0,,,,,,,0,105918055,pdf,d94df1da04d9ed6d2c26e6ac1000c396,,,d94df1da04d9ed6d2c26e6ac1000c396.pdf,0,2000-01-01 01:00:00,2016-04-03 02:51:08,1048000/d94df1da04d9ed6d2c26e6ac1000c396-d.jpg,,
15309681,Dynamical Systems and Microphysics. Geometry and Mechanics,,,,Andre Avez (Auth.),1982,,,,446,0,English,,,,"978-0-12-068720-6,9780120687206",,,,,,,,,,,0,,,,,,,1,7711763,pdf,cd048abaa7b008f90073f51726c65ab6,,,A:\\_for_add\\1\\SD\\9780120687206 (35).pdf,0,2000-01-01 01:00:00,2016-04-03 02:51:08,http://ars.els-cdn.com/content/image/3-s2.0-C20120014329-cov150h.gif,,
15309682,Biochemical Mechanisms of Paraquat Toxicity,,,,Anne Pomeroy Autor (Eds.),1977,,,,239,0,English,,,,"978-0-12-068850-0,9780120688500,0-12-068850-6",,,,,,,,,,,0,,,,,,,1,5130793,pdf,9cb9b78a233c0987dac3340d47900ab7,,,A:\\_for_add\\1\\SD\\9780120688500 (20).pdf,0,2000-01-01 01:00:00,2016-04-03 02:51:08,http://ars.els-cdn.com/content/image/3-s2.0-B9780120688500X50011-cov150h.gif,,
15309683,The Control of Eye Movements,,,,Paul Bach-y-Rita (Eds.),1971,,,,553,0,English,,,,"978-0-12-071050-8,9780120710508",,,,,,,,,,,0,,,,,,,1,20312006,pdf,0d259e88aad7cef64af20aa5f1faa1e1,,,A:\\_for_add\\1\\SD\\9780120710508 (27).pdf,0,2000-01-01 01:00:00,2016-04-03 02:51:08,http://ars.els-cdn.com/content/image/3-s2.0-B9780120710508X50010-cov150h.gif,,
15309684,Biochemistry and Genetics of Yeast. Pure and Applied Aspect,,,,Metry Bacila (Eds.),1978,,,,593,0,English,,,,"978-0-12-071250-2,9780120712502,0-12-071250-4",,,,,,,,,,,0,,,,,,,1,14654459,pdf,c9a801639768dc760f72db95d650d1f7,,,A:\\_for_add\\1\\SD\\9780120712502 (38).pdf,0,2000-01-01 01:00:00,2016-04-03 02:51:08,http://ars.els-cdn.com/content/image/3-s2.0-B9780120712502X50010-cov150h.gif,,
15309685,The Natural History of Rabies,,,,George M. Baer (Auth.),1975,,,,450,0,English,,,,"978-0-12-072401-7,9780120724017",,,,,,,,,,,0,,,,,,,1,28725080,pdf,fce680a39cb83c3bdada63b674eac92b,,,A:\\_for_add\\1\\SD\\9780120724017 (29).pdf,0,2000-01-01 01:00:00,2016-04-03 02:51:08,http://ars.els-cdn.com/content/image/3-s2.0-C20120014330-cov150h.gif,,
15309686,Aotus: the Owl Monkey,,,,"Janet F. Baer, Richard E. Weller and Ibulaimu Kakoma (Eds.)",1994,,,,384,0,English,,,,"978-0-12-072405-5,9780120724055,0-12-072405-7",,,,,,,,,,,0,,,,,,,1,12619151,pdf,626024ff4ffe89e55b86006906238c41,,,A:\\_for_add\\1\\SD\\9780120724055 (19).pdf,0,2000-01-01 01:00:00,2016-04-03 02:51:08,http://ars.els-cdn.com/content/image/3-s2.0-C20090023733-cov150h.gif,,
15309687,Ozonation in Organic Chemistry,,,,Philip S. Bailey (Auth.),1978,,,,276,0,English,,,,"978-0-12-073101-5,9780120731015,0-12-073101-0",,,,,,,,,,,0,,,,,,,1,4269930,pdf,272937be814bdb553067a444ed22b148,,,A:\\_for_add\\1\\SD\\9780120731015 (22).pdf,0,2000-01-01 01:00:00,2016-04-03 02:51:08,http://ars.els-cdn.com/content/image/3-s2.0-B9780120731015X5001X-cov150h.gif,,
15309688,Ozonation in Organic Chemistry. Nonolefinic Compounds,,,,Philip S. Bailey (Auth.),1982,,,,507,0,English,,,,"978-0-12-073102-2,9780120731022,0-12-073102-9",,,,,,,,,,,0,,,,,,,1,12285004,pdf,96720824a48db259576a86209a399ed8,,,A:\\_for_add\\1\\SD\\9780120731022 (23).pdf,0,2000-01-01 01:00:00,2016-04-03 02:51:08,http://ars.els-cdn.com/content/image/3-s2.0-B9780120731022X50010-cov150h.gif,,
15309689,Controlled Release of Bioactive Materials,,,,Richard Baker (Eds.),1980,,,,467,0,English,,,,"978-0-12-074450-3,9780120744503,0-12-074450-3",,,,,,,,,,,0,,,,,,,1,6721453,pdf,cbaf7b170e4ac0294784a83645ba72cf,,,A:\\_for_add\\1\\SD\\9780120744503 (32).pdf,0,2000-01-01 01:00:00,2016-04-03 02:51:08,http://ars.els-cdn.com/content/image/3-s2.0-B9780120744503X50013-cov150h.gif,,
15309690,Quantitative Theory of Critical Phenomena,,,,"George A. Baker, Jr. (Auth.)",1990,,,,367,0,English,,,,"978-0-12-075120-4,9780120751204,0-12-075120-8",,,,,,,,,,,0,,,,,,,1,7203565,pdf,70f630c1c6d6fd94b390a00ddb9d2410,,,A:\\_for_add\\1\\SD\\9780120751204 (28).pdf,0,2000-01-01 01:00:00,2016-04-03 02:51:08,http://ars.els-cdn.com/content/image/3-s2.0-B9780120751204X50015-cov150h.gif,,
15309691,Epitaxial Silicon Technology,,,,B. Baliga (Eds.),1986,,,,329,0,English,,,,"978-0-12-077120-2,9780120771202",,,,,,,,,,,0,,,,,,,1,8501629,pdf,fd2c3e70f1bdd1cd9003fca9ae8071c3,,,A:\\_for_add\\1\\SD\\9780120771202 (9).pdf,0,2000-01-01 01:00:00,2016-04-03 02:51:08,http://ars.els-cdn.com/content/image/3-s2.0-B9780120771202X50010-cov150h.gif,,
15309692,Introduction to Forest and Shade Tree Insects,,,,Michael R. Wagner (Auth.),1989,,,,634,0,English,,,,"978-0-12-078146-1,9780120781461,0-12-078146-8",,,,,,,,,,,0,,,,,,,1,21052052,pdf,e15e684d76ff5e818e4e4c86291c2a9e,,,A:\\_for_add\\1\\SD\\9780120781461 (30).pdf,0,2000-01-01 01:00:00,2016-04-03 02:51:08,http://ars.els-cdn.com/content/image/3-s2.0-C20090027810-cov150h.gif,,
15309693,The Mycoplasmas. Cell Biology,,,,M.F. Barile (Eds.),1979,,,,546,0,English,,,,"978-0-12-078401-1,9780120784011",,,,,,,,,,,0,,,,,,,1,12316891,pdf,3bf8e14d3ec374ffe945baaa3fd2f09f,,,A:\\_for_add\\1\\SD\\9780120784011 (26).pdf,0,2000-01-01 01:00:00,2016-04-03 02:51:08,http://ars.els-cdn.com/content/image/3-s2.0-B9780120784011X50018-cov150h.gif,,
15309694,The Mycoplasmas. Human and Animal Mycoplasmas,,,,J. Tully (Eds.),1979,,,,514,0,English,,,,"978-0-12-078402-8,9780120784028,0-12-078401-7",,,,,,,,,,,0,,,,,,,1,8104559,pdf,2df0aa3284edc609ae0c150d58178885,,,A:\\_for_add\\1\\SD\\9780120784028 (21).pdf,0,2000-01-01 01:00:00,2016-04-03 02:51:08,http://ars.els-cdn.com/content/image/3-s2.0-B9780120784028X50013-cov150h.gif,,
15309695,The Mycoplasmas. Plant and Insect Mycoplasmas,,,,R.F. Whitcomb (Eds.),1979,,,,358,0,English,,,,"978-0-12-078403-5,9780120784035",,,,,,,,,,,0,,,,,,,1,6686907,pdf,12c123e09728dbc5a4fcef8c47a24d06,,,A:\\_for_add\\1\\SD\\9780120784035 (17).pdf,0,2000-01-01 01:00:00,2016-04-03 02:51:08,http://ars.els-cdn.com/content/image/3-s2.0-B9780120784035X50014-cov150h.gif,,
15309696,"The Mycoplasmas. Spiroplasmas, Acholeplasmas, and Mycoplasmas of Plants and Arthropods",,,,R. Whitcomb (Eds.),1989,,,,668,0,English,,,,"978-0-12-078405-9,9780120784059,0-12-078401-7,0-12-078405-X",,,,,,,,,,,0,,,,,,,1,11001608,pdf,a89bfccac059e2c65b963a62792c417d,,,A:\\_for_add\\1\\SD\\9780120784059 (20).pdf,0,2000-01-01 01:00:00,2016-04-03 02:51:08,http://ars.els-cdn.com/content/image/3-s2.0-B9780120784059X50010-cov150h.gif,,
15309697,Spore Research 1976. Volume 1,,,,A.N. Barker (Eds.),1977,,,,436,0,English,,,,"978-0-12-078701-2,9780120787012,0-12-078701-6",,,,,,,,,,,0,,,,,,,1,9714828,pdf,b62c186bb015c7243ece5591a180827e,,,A:\\_for_add\\1\\SD\\9780120787012 (31).pdf,0,2000-01-01 01:00:00,2016-04-03 02:51:08,http://ars.els-cdn.com/content/image/3-s2.0-B9780120787012X50012-cov150h.gif,,
15309698,Spore Research 1976. Volume 2,,,,A.N. Barker (Eds.),1977,,,,505,0,English,,,,"978-0-12-078702-9,9780120787029,0-12-078702-4",,,,,,,,,,,0,,,,,,,1,11716627,pdf,02198f21881e70c2c65af22332d846cf,,,A:\\_for_add\\1\\SD\\9780120787029 (37).pdf,0,2000-01-01 01:00:00,2016-04-03 02:51:08,http://ars.els-cdn.com/content/image/3-s2.0-B9780120787029X50018-cov150h.gif,,
15309699,Brainstem Control of Spinal Cord Function,,,,Charles Barnes (Eds.),1984,,,,295,0,English,,,,"978-0-12-079040-1,9780120790401,0-12-079040-8",,,,,,,,,,,0,,,,,,,1,5645969,pdf,321fab3a5f674f359914efeefb4f14ef,,,A:\\_for_add\\1\\SD\\9780120790401 (12).pdf,0,2000-01-01 01:00:00,2016-04-03 02:51:08,http://ars.els-cdn.com/content/image/3-s2.0-B9780120790401X50017-cov150h.gif,,
15309700,Fundamentals of Optical Fiber Communications,,,,Michael Barnoski (Eds.),1981,,,,352,0,English,,,,"978-0-12-079151-4,9780120791514",,,,,,,,,,,0,,,,,,,1,3548930,pdf,48789f4a8bf151de8ad16587467fdeb7,,,A:\\_for_add\\1\\SD\\9780120791514 (11).pdf,0,2000-01-01 01:00:00,2016-04-03 02:51:08,http://ars.els-cdn.com/content/image/3-s2.0-B9780120791514X50018-cov150h.gif,,
15309701,Molecular Basis of Lysosomal Storage Disorders,,,,John Barranger (Eds.),1984,,,,489,0,English,,,,"978-0-12-079280-1,9780120792801,0-12-079280-X",,,,,,,,,,,0,,,,,,,1,16042481,pdf,c8df95f5a984a12b188aebf67e015fec,,,A:\\_for_add\\1\\SD\\9780120792801 (35).pdf,0,2000-01-01 01:00:00,2016-04-03 02:51:08,http://ars.els-cdn.com/content/image/3-s2.0-B9780120792801X50013-cov150h.gif,,
15309702,Handbook of Proteolytic Enzymes. Aspartic and Metallo Peptidases,,,,"Alan J. Barrett, J. Fred Woessner and Neil D. Rawlings (Eds.)",2004,,,,1361,0,English,,,,978-0-12-079611-3,,,,,,,,,,,0,,,,,,,1,59905718,pdf,4d1f123b2c3c6637a55a911ebd3f23f8,,,A:\\_for_add\\1\\SD\\9780120796113 (341).pdf,0,2000-01-01 01:00:00,2016-04-03 02:51:08,http://ars.els-cdn.com/content/image/3-s2.0-C20090036289-cov150h.gif,,
15309703,Iron Chelation in Plants and Soil Microorganisms,,,,Larry Barton (Eds.),1993,,,,476,0,English,,,,"978-0-12-079870-4,9780120798704,0-12-079870-0",,,,,,,,,,,0,,,,,,,1,8644219,pdf,c12e4e8e20d3530d7b55d26e5092f6f8,,,A:\\_for_add\\1\\SD\\9780120798704 (28).pdf,0,2000-01-01 01:00:00,2016-04-03 02:51:08,http://ars.els-cdn.com/content/image/3-s2.0-B9780120798704X50017-cov150h.gif,,
15309704,A Statistical Manual for Chemists,,,,Edward Bauer (Auth.),1971,,,,197,0,English,,,,"978-0-12-082756-5,9780120827565",,,,,,,,,,,0,,,,,,,1,4644239,pdf,6068b2ad6c6bdc6bf7406a3b8fa008f9,,,A:\\_for_add\\1\\SD\\9780120827565 (16).pdf,0,2000-01-01 01:00:00,2016-04-03 02:51:08,http://ars.els-cdn.com/content/image/3-s2.0-B9780120827565X50014-cov150h.gif,,
15309705,"The Beta Equilibrium, Stability, and Transport Codes. Applications of the Design of Stellarators",,,,Frances Bauer (Eds.),1987,,,,196,0,English,,,,"978-0-12-082815-9,9780120828159,0-12-082815-4",,,,,,,,,,,0,,,,,,,1,1821341,pdf,8330b54a16c64a69078f275751215021,,,A:\\_for_add\\1\\SD\\9780120828159 (10).pdf,0,2000-01-01 01:00:00,2016-04-03 02:51:08,http://ars.els-cdn.com/content/image/3-s2.0-B9780120828159X50011-cov150h.gif,,
15309706,In Vivo Perfusion and Release of Neroactive Substances. Methods and Strategies,,,,Alejandro Bayon (Eds.),1985,,,,317,0,English,,,,"978-0-12-083350-4,9780120833504,0-12-083350-6",,,,,,,,,,,0,,,,,,,1,6070132,pdf,36dcd379f9a1bfc36e3546dd568e7a5f,,,A:\\_for_add\\1\\SD\\9780120833504 (23).pdf,0,2000-01-01 01:00:00,2016-04-03 02:51:08,http://ars.els-cdn.com/content/image/3-s2.0-B9780120833504X50018-cov150h.gif,,
15309707,Analysis of Noble Metals. Overview and Selected Methods,,,,F.E. Beamish (Eds.),1977,,,,332,0,English,,,,"978-0-12-083950-6,9780120839506",,,,,,,,,,,0,,,,,,,1,5242341,pdf,962eacbf62ca55f93b1be1731d6ea3f1,,,A:\\_for_add\\1\\SD\\9780120839506 (14).pdf,0,2000-01-01 01:00:00,2016-04-03 02:51:08,http://ars.els-cdn.com/content/image/3-s2.0-B9780120839506X50017-cov150h.gif,,
15309708,Flow and Contaminant Transport in Fractured Rock,,,,"Jacob Bear, C-F. Tsang and Ghislain De Marsily (Auth.)",1993,,,,559,0,English,,,,"978-0-12-083980-3,9780120839803,0-12-083980-6",,,,,,,,,,,0,,,,,,,1,12930419,pdf,e4a1aed7907742d94f1ca69fdfa81c1b,,,A:\\_for_add\\1\\SD\\9780120839803 (14).pdf,0,2000-01-01 01:00:00,2016-04-03 02:51:08,http://ars.els-cdn.com/content/image/3-s2.0-C20090291276-cov150h.gif,,
15309709,Insect Photoperiodism,,,,Stanley D. Beck (Eds.),1980,,,,391,0,English,,,,"978-0-12-084380-0,9780120843800",,,,,,,,,,,0,,,,,,,1,5722988,pdf,50a429f5e7e956d3e41ddb56512fb874,,,A:\\_for_add\\1\\SD\\9780120843800 (17).pdf,0,2000-01-01 01:00:00,2016-04-03 02:51:08,http://ars.els-cdn.com/content/image/3-s2.0-B9780120843800X50017-cov150h.gif,,
15309710,Control of Messenger RNA Stability,,,,Joel G. Belasco and George Brawerman (Eds.),1993,,,,511,0,English,,,,"978-0-12-084782-2,9780120847822,0-12-084782-5",,,,,,,,,,,0,,,,,,,1,9679308,pdf,5aee52044f4effce59de96970d51691d,,,A:\\_for_add\\1\\SD\\9780120847822 (23).pdf,0,2000-01-01 01:00:00,2016-04-03 02:51:08,http://ars.els-cdn.com/content/image/3-s2.0-C20090032693-cov150h.gif,,
15309711,Introductory Fourier Transform Spectroscopy,,,,Robert Bell (Auth.),1972,,,,388,0,English,,,,"978-0-12-085150-8,9780120851508",,,,,,,,,,,0,,,,,,,1,9223095,pdf,736d14086d71b57af75a565dfc2f2ea4,,,A:\\_for_add\\1\\SD\\9780120851508 (32).pdf,0,2000-01-01 01:00:00,2016-04-03 02:51:08,http://ars.els-cdn.com/content/image/3-s2.0-B9780120851508X50013-cov150h.gif,,
15309712,Molecular Mechanisms in Cellular Growth and Differentiation,,,,A.R. Bellve (Eds.),1991,,,,354,0,English,,,,"978-0-12-085360-1,9780120853601,0-12-085360-4",,,,,,,,,,,0,,,,,,,1,11140376,pdf,cf6eb82c855d283423f73149cc047888,,,A:\\_for_add\\1\\SD\\9780120853601 (29).pdf,0,2000-01-01 01:00:00,2016-04-03 02:51:08,http://ars.els-cdn.com/content/image/3-s2.0-B9780120853601X50019-cov150h.gif,,
15309713,Synthetic Membrane Process. Fundamentals and Water Applications,,,,Georges Belfort (Eds.),1984,,,,552,0,English,,,,"978-0-12-085480-6,9780120854806,0-12-085480-5",,,,,,,,,,,0,,,,,,,1,10271611,pdf,8dad2d2af1e9b008e730d177e10cc791,,,A:\\_for_add\\1\\SD\\9780120854806 (20).pdf,0,2000-01-01 01:00:00,2016-04-03 02:51:08,http://ars.els-cdn.com/content/image/3-s2.0-B9780120854806X50014-cov150h.gif,,
15309714,Mindfulness-Based Treatment Approaches. Clinician's Guide to Evidence Base and Applications,,,,Ruth A. Baer (Eds.),2006,,,,413,0,English,,,,"978-0-12-088519-0,9780120885190",,,,,,,,,,,0,,,,,,,1,2847269,pdf,90b40ba60184bededd6091f7246d7cec,,,A:\\_for_add\\1\\SD\\9780120885190 (24).pdf,0,2000-01-01 01:00:00,2016-04-03 02:51:08,http://ars.els-cdn.com/content/image/3-s2.0-B9780120885190X5000X-cov150h.gif,,
15309715,Gene Manipulations in Fungi,,,,J.W. Bennett (Eds.),1985,,,,544,0,English,,,,"978-0-12-088640-1,9780120886401",,,,,,,,,,,0,,,,,,,1,9304909,pdf,968d1555879fbc7050208e3ed62e67aa,,,A:\\_for_add\\1\\SD\\9780120886401 (30).pdf,0,2000-01-01 01:00:00,2016-04-03 02:51:08,http://ars.els-cdn.com/content/image/3-s2.0-B9780120886401X50010-cov150h.gif,,
15309716,More Gene Manipulations in Fungi,,,,J. W. Bennette (Eds.),1991,,,,466,0,English,,,,"978-0-12-088642-5,9780120886425,0-12-088642-1",,,,,,,,,,,0,,,,,,,1,11883435,pdf,e53f4317632319172609ae6492de4faf,,,A:\\_for_add\\1\\SD\\9780120886425 (29).pdf,0,2000-01-01 01:00:00,2016-04-03 02:51:08,http://ars.els-cdn.com/content/image/3-s2.0-C20090026555-cov150h.gif,,
15309717,Sex Selection of Children,,,,Neil G. Bennett (Auth.),1983,,,,262,0,English,,,,"978-0-12-088860-3,9780120888603,0-12-088860-2",,,,,,,,,,,0,,,,,,,1,4280291,pdf,edc0bf6245bf69533c39a8b8c49e0ed1,,,A:\\_for_add\\1\\SD\\9780120888603 (17).pdf,0,2000-01-01 01:00:00,2016-04-03 02:51:08,http://ars.els-cdn.com/content/image/3-s2.0-B9780120888603X50016-cov150h.gif,,
15309718,Motor Disturbances II. A Selection of Papers Delivered at The 2nd Congress of the International Medical Society of Motor Disturbances Held at Rome (No. 2),,,,A. Berardelli (Auth.),1990,,,,434,0,English,,,,"978-0-12-089445-1,9780120894451,0-12-089445-9",,,,,,,,,,,0,,,,,,,1,10093767,pdf,1de2de4a2fec0a75d12fdebeaedfcfd1,,,A:\\_for_add\\1\\SD\\9780120894451 (42).pdf,0,2000-01-01 01:00:00,2016-04-03 02:51:08,http://ars.els-cdn.com/content/image/3-s2.0-C2012001438X-cov150h.gif,,
15309719,"Photoabsorption, Photoionization, and Photoelectron Spectroscopy",,,,Joseph Berkowitz (Auth.),1979,,,,478,0,English,,,,"978-0-12-091650-4,9780120916504",,,,,,,,,,,0,,,,,,,1,7820544,pdf,0db9f205dc56e4747cbaab8e13359259,,,A:\\_for_add\\1\\SD\\9780120916504 (15).pdf,0,2000-01-01 01:00:00,2016-04-03 02:51:08,http://ars.els-cdn.com/content/image/3-s2.0-B9780120916504X50014-cov150h.gif,,
15309720,An Introduction to Coal Technology,,,,N. Berkowitz (Auth.),1979,,,,348,0,English,,,,"978-0-12-091950-5,9780120919505",,,,,,,,,,,0,,,,,,,1,7657870,pdf,1f3ace0d3e7b40ae9cb660cda8e69dbe,,,A:\\_for_add\\1\\SD\\9780120919505 (22).pdf,0,2000-01-01 01:00:00,2016-04-03 02:51:08,http://ars.els-cdn.com/content/image/3-s2.0-C20120014408-cov150h.gif,,
15309721,Molecular Basis of Biological Degradative Processes,,,,Richard Berlin (Eds.),1978,,,,333,0,English,,,,"978-0-12-092150-8,9780120921508,0-12-092150-2",,,,,,,,,,,0,,,,,,,1,14946303,pdf,e68a4dce39486650040da16d075e574f,,,A:\\_for_add\\1\\SD\\9780120921508 (16).pdf,0,2000-01-01 01:00:00,2016-04-03 02:51:08,http://ars.els-cdn.com/content/image/3-s2.0-B9780120921508X50012-cov150h.gif,,
15309722,"Vacuum Engineering Calculations, Formulas, and Solved Exercises",,,,Armand Berman (Auth.),1992,,,,271,0,English,,,,"978-0-12-092455-4,9780120924554,0-12-092455-2",,,,,,,,,,,0,,,,,,,1,5342621,pdf,df00d25e2b2912d994bf92166474edb8,,,A:\\_for_add\\1\\SD\\9780120924554 (19).pdf,0,2000-01-01 01:00:00,2016-04-03 02:51:08,http://ars.els-cdn.com/content/image/3-s2.0-C20090223737-cov150h.gif,,
15309723,Lipoprotein Kinetics and Modeling,,,,Mones Berman (Eds.),1982,,,,469,0,English,,,,"978-0-12-092480-6,9780120924806,0-12-092480-3",,,,,,,,,,,0,,,,,,,1,19954882,pdf,23455dde7bb2faec451dd2e40b0522b2,,,A:\\_for_add\\1\\SD\\9780120924806 (45).pdf,0,2000-01-01 01:00:00,2016-04-03 02:51:08,http://ars.els-cdn.com/content/image/3-s2.0-B9780120924806X50013-cov150h.gif,,
15309724,Energy Transfer Parameters of Aromatic Compounds,,,,Isadore Berlman (Auth.),1973,,,,382,0,English,,,,"978-0-12-092640-4,9780120926404",,,,,,,,,,,0,,,,,,,1,9787877,pdf,288435c7bdbeecb337037a7390f74f38,,,A:\\_for_add\\1\\SD\\9780120926404 (15).pdf,0,2000-01-01 01:00:00,2016-04-03 02:51:08,http://ars.els-cdn.com/content/image/3-s2.0-B9780120926404X50011-cov150h.gif,,
15309725,Handbook of Florescence Spectra of Aromatic Molecules,,,,Isadore Berlman (Auth.),1971,,,,478,0,English,,,,"978-0-12-092656-5,9780120926565",,,,,,,,,,,0,,,,,,,1,8428067,pdf,52ac535456706bf7db3db606dcce8214,,,A:\\_for_add\\1\\SD\\9780120926565 (14).pdf,0,2000-01-01 01:00:00,2016-04-03 02:51:08,http://ars.els-cdn.com/content/image/3-s2.0-B9780120926565X50011-cov150h.gif,,
15309726,"Aging, Sex, and DNA Repair",,,,Carol Bernstein (Auth.),1991,,,,386,0,English,,,,"978-0-12-092860-6,9780120928606,0-12-092860-4",,,,,,,,,,,0,,,,,,,1,5232953,pdf,ba29e07c781a6ce8300b4f80f23d63ce,,,A:\\_for_add\\1\\SD\\9780120928606 (21).pdf,0,2000-01-01 01:00:00,2016-04-03 02:51:08,http://ars.els-cdn.com/content/image/3-s2.0-C20090026701-cov150h.gif,,
15309727,Viral and Mycoplasmal of Laboratory Rodents. Effects on Biomedical Research,,,,Pravin Bhatt (Eds.),1986,,,,829,0,English,,,,"978-0-12-095785-9,9780120957859",,,,,,,,,,,0,,,,,,,1,11876770,pdf,c255b40f572bf3ab10f70964cb8054ad,,,A:\\_for_add\\1\\SD\\9780120957859 (49).pdf,0,2000-01-01 01:00:00,2016-04-03 02:51:08,http://ars.els-cdn.com/content/image/3-s2.0-B9780120957859X5001X-cov150h.gif,,
15309728,Bird Census Techniques,,,,"Colin J. Bibby, Neil D. Burgess and David A. Hill (Auth.)",1992,,,,263,0,English,,,,"978-0-12-095830-6,9780120958306,0-12-095830-9",,,,,,,,,,,0,,,,,,,1,9594017,pdf,1fcf8d78eee2014fb8622360c14b972a,,,A:\\_for_add\\1\\SD\\9780120958306 (19).pdf,0,2000-01-01 01:00:00,2016-04-03 02:51:08,http://ars.els-cdn.com/content/image/3-s2.0-C20090035314-cov150h.gif,,
15309729,Lithium and the Cell. Pharmacology and Biochemistry,,,,Nicholas J. Birch (Eds.),1991,,,,351,0,English,,,,"978-0-12-099300-0,9780120993000,0-12-099300-7",,,,,,,,,,,0,,,,,,,1,7259369,pdf,f904dfacaee2b2f8004bacf6a6a1b491,,,A:\\_for_add\\1\\SD\\9780120993000 (23).pdf,0,2000-01-01 01:00:00,2016-04-03 02:51:08,http://ars.els-cdn.com/content/image/3-s2.0-C20090026713-cov150h.gif,,
15309730,Creativity in Organic Synthesis,,,,Jasjit Bindra (Auth.),1975,,,,329,0,English,,,,"978-0-12-099450-2,9780120994502,0-12-099450-X",,,,,,,,,,,0,,,,,,,1,27295242,pdf,e8c35c9914030e3b6580721881e44781,,,A:\\_for_add\\1\\SD\\9780120994502 (75).pdf,0,2000-01-01 01:00:00,2016-04-03 02:51:08,http://ars.els-cdn.com/content/image/3-s2.0-B9780120994502X50016-cov150h.gif,,
15309731,Prostaglandin Synthesis,,,,Jasjit Bindra (Auth.),1977,,,,528,0,English,,,,"978-0-12-099460-1,9780120994601,0-12-099460-7",,,,,,,,,,,0,,,,,,,1,5108591,pdf,5c5ddc36643d12dc5cffe5f0263debdc,,,A:\\_for_add\\1\\SD\\9780120994601 (29).pdf,0,2000-01-01 01:00:00,2016-04-03 02:51:08,http://ars.els-cdn.com/content/image/3-s2.0-B9780120994601X50011-cov150h.gif,,
15309732,The Structure of Nematodes,,,,Alan Bird (Auth.),1971,,,,323,0,English,,,,"978-0-12-099650-6,9780120996506",,,,,,,,,,,0,,,,,,,1,9178474,pdf,fa5960b2a62952689f2c5545f8f15faf,,,A:\\_for_add\\1\\SD\\9780120996506 (18).pdf,0,2000-01-01 01:00:00,2016-04-03 02:51:08,http://ars.els-cdn.com/content/image/3-s2.0-B9780120996506X50010-cov150h.gif,,
15309733,The Structure of Nematodes,,,,Alan F. Bird and Jean Bird (Auth.),1991,,,,325,0,English,,,,"978-0-12-099651-3,9780120996513,0-12-099651-0",,,,,,,,,,,0,,,,,,,1,9014304,pdf,bf4971f9c9c1402ca49a2982cf2c63b8,,,A:\\_for_add\\1\\SD\\9780120996513 (19).pdf,0,2000-01-01 01:00:00,2016-04-03 02:51:08,http://ars.els-cdn.com/content/image/3-s2.0-C20090026592-cov150h.gif,,
15309734,Ion Beams for Materials Analysis,,,,R. Curtis Bird and J. S. Williams (Eds.),1989,,,,718,0,English,,,,"978-0-12-099740-4,9780120997404",,,,,,,,,,,0,,,,,,,1,11773308,pdf,234385d734138e3e7be2363a016e7c22,,,A:\\_for_add\\1\\SD\\9780120997404 (21).pdf,0,2000-01-01 01:00:00,2016-04-03 02:51:08,http://ars.els-cdn.com/content/image/3-s2.0-C20090216631-cov150h.gif,,
15309735,Pulsed Field Gel Electrophoresis. A Practical Guide,,,,Bruce Birren and Eric Lai (Auth.),1993,,,,254,0,English,,,,"978-0-12-101290-8,9780121012908,0-12-101290-5",,,,,,,,,,,0,,,,,,,1,6119750,pdf,783d332a21a9c1cfbede2290b1f93ddf,,,A:\\_for_add\\1\\SD\\9780121012908 (20).pdf,0,2000-01-01 01:00:00,2016-04-03 02:51:08,http://ars.els-cdn.com/content/image/3-s2.0-C2009003325X-cov150h.gif,,
15309736,Nonsegmented Negative Strand Viruses. Paramyxoviruses and Rhabdoviruses,,,,David H.L. Bishop (Eds.),1984,,,,553,0,English,,,,"978-0-12-102480-2,9780121024802,0-12-102480-6",,,,,,,,,,,0,,,,,,,1,16871180,pdf,9d4f6521c70929ad262e09e5f3df0172,,,A:\\_for_add\\1\\SD\\9780121024802 (81).pdf,0,2000-01-01 01:00:00,2016-04-03 02:51:08,http://ars.els-cdn.com/content/image/3-s2.0-B9780121024802X50016-cov150h.gif,,
15309737,Physiological Correlates of Emotion,,,,Perry Black (Eds.),1970,,,,299,0,English,,,,"978-0-12-102850-3,9780121028503",,,,,,,,,,,0,,,,,,,1,7685041,pdf,33c37e28be9f2e3bd18560e13612f33a,,,A:\\_for_add\\1\\SD\\9780121028503 (21).pdf,0,2000-01-01 01:00:00,2016-04-03 02:51:08,http://ars.els-cdn.com/content/image/3-s2.0-B9780121028503X50014-cov150h.gif,,
15309738,"Quantitative Coherent Imaging. Theory, Methods and Some Applications",,,,J.M. Blackledge (Auth.),1989,,,,362,0,English,,,,"978-0-12-103300-2,9780121033002,0-12-103300-7",,,,,,,,,,,0,,,,,,,1,6804518,pdf,b8e8ae46e6a3e98fef9d404eb7e12331,,,A:\\_for_add\\1\\SD\\9780121033002 (19).pdf,0,2000-01-01 01:00:00,2016-04-03 02:51:08,http://ars.els-cdn.com/content/image/3-s2.0-B9780121033002X50010-cov150h.gif,,
15309739,Field and Laboratory Guide to Tree Pathology,,,,Robert Blanchard (Auth.),1981,,,,286,0,English,,,,"978-0-12-103980-6,9780121039806",,,,,,,,,,,0,,,,,,,1,27007937,pdf,e4ac6486e22968be84eec5cf710de7c7,,,A:\\_for_add\\1\\SD\\9780121039806 (47).pdf,0,2000-01-01 01:00:00,2016-04-03 02:51:08,http://ars.els-cdn.com/content/image/3-s2.0-B9780121039806X50018-cov150h.gif,,
15309740,Nonlinear System Analysis,,,,Austin Blaquiere (Auth.),1966,,,,400,0,English,,,,"978-0-12-104350-6,9780121043506",,,,,,,,,,,0,,,,,,,1,6326554,pdf,fdfa513d74ca81ac1d153f50312a6346,,,A:\\_for_add\\1\\SD\\9780121043506 (17).pdf,0,2000-01-01 01:00:00,2016-04-03 02:51:08,http://ars.els-cdn.com/content/image/3-s2.0-B9780121043506X50015-cov150h.gif,,
15309741,Dynamical Systems and Microphysics. Control Theory and Mechanics,,,,Austin Blaquiere (Eds.),1984,,,,402,0,English,,,,"978-0-12-104365-0,9780121043650,0-12-104365-7",,,,,,,,,,,0,,,,,,,1,5618184,pdf,9447dacd7ef3658f867c77d46938b91a,,,A:\\_for_add\\1\\SD\\9780121043650 (20).pdf,0,2000-01-01 01:00:00,2016-04-03 02:51:08,http://ars.els-cdn.com/content/image/3-s2.0-B9780121043650X5001X-cov150h.gif,,
15309742,Deconvolution of Absorption Spectra,,,,William Blass (Auth.),1981,,,,150,0,English,,,,"978-0-12-104650-7,9780121046507,0-12-104650-8",,,,,,,,,,,0,,,,,,,1,2347958,pdf,8ef60506df501f0f6e84280802662d2e,,,A:\\_for_add\\1\\SD\\9780121046507 (24).pdf,0,2000-01-01 01:00:00,2016-04-03 02:51:08,http://ars.els-cdn.com/content/image/3-s2.0-B9780121046507X5001X-cov150h.gif,,
15309743,Field-Effect and Bipolar Power Transistor Physics,,,,Adolph Blicher (Auth.),1981,,,,318,0,English,,,,"978-0-12-105850-0,9780121058500,0-12-105850-6",,,,,,,,,,,0,,,,,,,1,31310402,pdf,ad05c5697f6739feeafa432a5c51e8ae,,,A:\\_for_add\\1\\SD\\9780121058500 (20).pdf,0,2000-01-01 01:00:00,2016-04-03 02:51:08,http://ars.els-cdn.com/content/image/3-s2.0-B9780121058500X50012-cov150h.gif,,
15309744,Antitumor Steroids,,,,R. T. Blickenstaff (Auth.),1992,,,,349,0,English,,,,"978-0-12-105952-1,9780121059521,0-12-105952-9",,,,,,,,,,,0,,,,,,,1,5979395,pdf,117cda3304714b35907950221af2a935,,,A:\\_for_add\\1\\SD\\9780121059521 (17).pdf,0,2000-01-01 01:00:00,2016-04-03 02:51:08,http://ars.els-cdn.com/content/image/3-s2.0-C20120014470-cov150h.gif,,
15309745,International Perspectives on Municipal Solid Wastes and Sanitary Landfilling,,,,"Carra, Joseph S. (Auth.)",1990,,,,245,0,English,,,,"978-0-12-106355-9,9780121063559,0-12-106355-0",,,,,,,,,,,0,,,,,,,1,5927464,pdf,e47d739576adac0f8f4b4354daa0d7fb,,,A:\\_for_add\\1\\SD\\9780121063559 (23).pdf,0,2000-01-01 01:00:00,2016-04-03 02:51:08,http://ars.els-cdn.com/content/image/3-s2.0-C20090027317-cov150h.gif,,
15309746,"The Biology of Crustacea. Neurobiology, Structure and Function",,,,Dorothy E. Bliss (Auth.),1982,,,,490,0,English,,,,"978-0-12-106403-7,9780121064037,0-12-106403-4",,,,,,,,,,,0,,,,,,,1,9895769,pdf,3fbd3c7a0e61454ea3995c136e9a992f,,,A:\\_for_add\\1\\SD\\9780121064037 (20).pdf,0,2000-01-01 01:00:00,2016-04-03 02:51:08,http://ars.els-cdn.com/content/image/3-s2.0-C20090030463-cov150h.gif,,
15309747,Internal Anatomy and Physiological Regulation,,,,Linda Mantel (Eds.),1983,,,,483,0,English,,,,"978-0-12-106405-1,9780121064051,0-12-106405-0",,,,,,,,,,,0,,,,,,,1,9318073,pdf,b62a46d38f88c8ba7b70cae83cf0db90,,,A:\\_for_add\\1\\SD\\9780121064051 (21).pdf,0,2000-01-01 01:00:00,2016-04-03 02:51:08,http://ars.els-cdn.com/content/image/3-s2.0-B9780121064051X50012-cov150h.gif,,
15309748,The Biology of Crustacea. Pathobiology,,,,"Anthony Provenzano, Jr. (Eds.)",1983,,,,305,0,English,,,,"978-0-12-106406-8,9780121064068,0-12-106406-9",,,,,,,,,,,0,,,,,,,1,7572770,pdf,3fa62ac8565c7d12ca1e7b9bb9a82fcf,,,A:\\_for_add\\1\\SD\\9780121064068 (19).pdf,0,2000-01-01 01:00:00,2016-04-03 02:51:08,http://ars.els-cdn.com/content/image/3-s2.0-B9780121064068X50018-cov150h.gif,,
15309749,"Integument, Pigments, and Hormonal Processes. Integument, Pigments and Hormonal Processes",,,,Linda H. Mantel and Dorothy E. Bliss (Eds.),1985,,,,566,0,English,,,,"978-0-12-106409-9,9780121064099,0-12-106409-3",,,,,,,,,,,0,,,,,,,1,10440056,pdf,fb5ea6d3c6bfa90155eb04dcc2736336,,,A:\\_for_add\\1\\SD\\9780121064099 (20).pdf,0,2000-01-01 01:00:00,2016-04-03 02:51:08,http://ars.els-cdn.com/content/image/3-s2.0-C20090029559-cov150h.gif,,
15309750,Economic Aspects: Fisheries and Culture,,,,"Anthony Provenzano, Jr. (Eds.)",1985,,,,347,0,English,,,,"978-0-12-106410-5,9780121064105,0-12-106410-7",,,,,,,,,,,0,,,,,,,1,7037500,pdf,24c07503a29ca641ea56d810d206bf0c,,,A:\\_for_add\\1\\SD\\9780121064105 (17).pdf,0,2000-01-01 01:00:00,2016-04-03 02:51:08,http://ars.els-cdn.com/content/image/3-s2.0-B9780121064105X50019-cov150h.gif,,
15309751,Chemical Defenses of Arthropods,,,,Murray Blum (Auth.),1981,,,,561,0,English,,,,"978-0-12-108380-9,9780121083809,0-12-108380-2",,,,,,,,,,,0,,,,,,,1,8954722,pdf,87412d3731ac3621eb2de429ee96d16f,,,A:\\_for_add\\1\\SD\\9780121083809 (28).pdf,0,2000-01-01 01:00:00,2016-04-03 02:51:08,http://ars.els-cdn.com/content/image/3-s2.0-B9780121083809X50017-cov150h.gif,,
15309752,Alcohol and Opiates. Neurochemical and Behavioral Mechanisms,,,,Kenneth Blum (Eds.),1977,,,,402,0,English,,,,"978-0-12-108450-9,9780121084509",,,,,,,,,,,0,,,,,,,1,13537651,pdf,75685afaf337f873cb50f4cb0de42901,,,A:\\_for_add\\1\\SD\\9780121084509 (30).pdf,0,2000-01-01 01:00:00,2016-04-03 02:51:08,http://ars.els-cdn.com/content/image/3-s2.0-B9780121084509X50010-cov150h.gif,,
15309753,Sexual Selection and Reproductive Competition in Insects,,,,Murray Blum (Eds.),1979,,,,469,0,English,,,,"978-0-12-108750-0,9780121087500,0-12-108750-6",,,,,,,,,,,0,,,,,,,1,7960363,pdf,109817e5a263133f9be3b826e6646697,,,A:\\_for_add\\1\\SD\\9780121087500 (21).pdf,0,2000-01-01 01:00:00,2016-04-03 02:51:08,http://ars.els-cdn.com/content/image/3-s2.0-B9780121087500X50010-cov150h.gif,,
15309754,Biochemistry of Human Cancer,,,,Oscar Bodansky (Auth.),1975,,,,662,0,English,,,,"978-0-12-109850-6,9780121098506",,,,,,,,,,,0,,,,,,,1,8484538,pdf,527685112c7de91c0544dcc3748a87ca,,,A:\\_for_add\\1\\SD\\9780121098506 (23).pdf,0,2000-01-01 01:00:00,2016-04-03 02:51:08,http://ars.els-cdn.com/content/image/3-s2.0-B9780121098506X50018-cov150h.gif,,
15309755,Nuclear Acoustic Resonance,,,,Dan Bolef (Auth.),1993,,,,435,0,English,,,,"978-0-12-111250-9,9780121112509,0-12-111250-0",,,,,,,,,,,0,,,,,,,1,43197110,pdf,a13e203e6fb153d373bd4fd4a27e950d,,,A:\\_for_add\\1\\SD\\9780121112509 (20).pdf,0,2000-01-01 01:00:00,2016-04-03 02:51:08,http://ars.els-cdn.com/content/image/3-s2.0-B9780121112509X50014-cov150h.gif,,
15309756,Seismic Strong Motion Synthetics,,,,Bruce Bolt (Eds.),1987,,,,330,0,English,,,,"978-0-12-112251-5,9780121122515",,,,,,,,,,,0,,,,,,,1,8059315,pdf,e07c18c3744ec5ef813606516ea7b9ff,,,A:\\_for_add\\1\\SD\\9780121122515 (11).pdf,0,2000-01-01 01:00:00,2016-04-03 02:51:08,http://ars.els-cdn.com/content/image/3-s2.0-B9780121122515X50018-cov150h.gif,,
15309757,Solar Power and Fuels,,,,James R. Bolton (Eds.),1977,,,,258,0,English,,,,"978-0-12-112350-5,9780121123505,0-12-112350-2",,,,,,,,,,,0,,,,,,,1,3359254,pdf,69f239564159ff05a4b7b54f4b62f845,,,A:\\_for_add\\1\\SD\\9780121123505 (16).pdf,0,2000-01-01 01:00:00,2016-04-03 02:51:08,http://ars.els-cdn.com/content/image/3-s2.0-B9780121123505X50017-cov150h.gif,,
15309758,Idiotypes and Lymphocytes,,,,Constantin Bona (Auth.),1981,,,,218,0,English,,,,"978-0-12-112950-7,9780121129507",,,,,,,,,,,0,,,,,,,1,4568594,pdf,905fcd249e74f17c1933a7d2135951da,,,A:\\_for_add\\1\\SD\\9780121129507 (15).pdf,0,2000-01-01 01:00:00,2016-04-03 02:51:08,http://ars.els-cdn.com/content/image/3-s2.0-B9780121129507X50016-cov150h.gif,,
15309759,Plant Biochemistry,,,,James Bonner and Joseph E. Varner (Eds.),1976,,,,915,0,English,,,,"978-0-12-114860-7,9780121148607",,,,,,,,,,,0,,,,,,,1,16592951,pdf,16ebd50a54fcd8c607dcf409b1cfcfa7,,,A:\\_for_add\\1\\SD\\9780121148607 (32).pdf,0,2000-01-01 01:00:00,2016-04-03 02:51:08,http://ars.els-cdn.com/content/image/3-s2.0-C20090031419-cov150h.gif,,
15309760,Biology and Radiobiology of Anucleate Systems. Plant Cells,,,,Silvano Bonotto (Eds.),1972,,,,355,0,English,,,,"978-0-12-115002-0,9780121150020",,,,,,,,,,,0,,,,,,,1,11064351,pdf,2d35252b55db86e1d53263bf280370fa,,,A:\\_for_add\\1\\SD\\9780121150020 (21).pdf,0,2000-01-01 01:00:00,2016-04-03 02:51:08,http://ars.els-cdn.com/content/image/3-s2.0-B9780121150020X50015-cov150h.gif,,
15309761,Ziegler–Natta Catalysts Polymerizations,,,,"John Boor, Jr. (Auth.)",1979,,,,676,0,English,,,,"978-0-12-115550-6,9780121155506",,,,,,,,,,,0,,,,,,,1,12317729,pdf,1fc0a8246fee08ef21ccf724aa5b4451,,,A:\\_for_add\\1\\SD\\9780121155506 (32).pdf,0,2000-01-01 01:00:00,2016-04-03 02:51:08,http://ars.els-cdn.com/content/image/3-s2.0-B9780121155506X5001X-cov150h.gif,,
15309762,The Genetics of Altruism,,,,Scott Boorman (Auth.),1980,,,,459,0,English,,,,"978-0-12-115650-3,9780121156503",,,,,,,,,,,0,,,,,,,1,7478702,pdf,94caf09d56d000c21c5fa50ad7a12208,,,A:\\_for_add\\1\\SD\\9780121156503 (24).pdf,0,2000-01-01 01:00:00,2016-04-03 02:51:08,http://ars.els-cdn.com/content/image/3-s2.0-B9780121156503X5001X-cov150h.gif,,
15309763,An Introduction to Solid State Diffusion,,,,Richard J. Borg and G. J. Dienes (Auth.),1988,,,,355,0,English,,,,"978-0-12-118425-4,9780121184254,0-12-118425-0",,,,,,,,,,,0,,,,,,,1,28679261,pdf,23c8d90f87a29957a848f9ade7e3b2bc,,,A:\\_for_add\\1\\SD\\9780121184254 (26).pdf,0,2000-01-01 01:00:00,2016-04-03 02:51:08,http://ars.els-cdn.com/content/image/3-s2.0-C20090221763-cov150h.gif,,
15309764,The Biology and Physiology of Bone. Volume I: Structure,,,,Geoffrey Bourne (Eds.),1972,,,,381,0,English,,,,"978-0-12-119201-3,9780121192013",,,,,,,,,,,0,,,,,,,1,9899878,pdf,0b449fee4a9b19e77c0e2ed4d9b69966,,,A:\\_for_add\\1\\SD\\9780121192013 (18).pdf,0,2000-01-01 01:00:00,2016-04-03 02:51:08,http://ars.els-cdn.com/content/image/3-s2.0-B9780121192013X5001X-cov150h.gif,,
15309765,Physiology and Pathology,,,,Geoffrey Bourne (Eds.),1972,,,,412,0,English,,,,"978-0-12-119202-0,9780121192020",,,,,,,,,,,0,,,,,,,1,11967891,pdf,929a1ec834f0857541490208a19f8f24,,,A:\\_for_add\\1\\SD\\9780121192020 (18).pdf,0,2000-01-01 01:00:00,2016-04-03 02:51:08,http://ars.els-cdn.com/content/image/3-s2.0-B9780121192020X50010-cov150h.gif,,
15309766,Calcification and Physiology,,,,Geoffrey Bourne (Eds.),1976,,,,585,0,English,,,,"978-0-12-119204-4,9780121192044",,,,,,,,,,,0,,,,,,,1,16038374,pdf,6b335e0dd090f3cc9e3230bdaeaf7fb0,,,A:\\_for_add\\1\\SD\\9780121192044 (20).pdf,0,2000-01-01 01:00:00,2016-04-03 02:51:08,http://ars.els-cdn.com/content/image/3-s2.0-B9780121192044X50017-cov150h.gif,,
15309767,Cytology and Cell Physiology,,,,Geoffrey Bourne (Eds.),1964,,,,783,0,English,,,,"978-0-12-119254-9,9780121192549",,,,,,,,,,,0,,,,,,,1,20749712,pdf,de1dfa91093afcc9828f16705bf002ed,,,A:\\_for_add\\1\\SD\\9780121192549 (23).pdf,0,2000-01-01 01:00:00,2016-04-03 02:51:08,http://ars.els-cdn.com/content/image/3-s2.0-B9780121192549X50019-cov150h.gif,,
15309768,The Structure and Function of Nervous Tissue. Structure I,,,,Geoffrey Bourne (Eds.),1972,,,,551,0,English,,,,"978-0-12-119284-6,9780121192846",,,,,,,,,,,0,,,,,,,1,12706343,pdf,9dbd99340190eb56986b09a83990dd71,,,A:\\_for_add\\1\\SD\\9780121192846 (18).pdf,0,2000-01-01 01:00:00,2016-04-03 02:51:08,http://ars.els-cdn.com/content/image/3-s2.0-B9780121192846X50015-cov150h.gif,,
15309769,The Structure and Function of Nervous Tissue. Structure III and Physiology III,,,,Geoffrey Bourne (Eds.),1972,,,,589,0,English,,,,"978-0-12-119285-3,9780121192853",,,,,,,,,,,0,,,,,,,1,18687016,pdf,8ee8be627d21bc4c73881cbcd17b5cf9,,,A:\\_for_add\\1\\SD\\9780121192853 (17).pdf,0,2000-01-01 01:00:00,2016-04-03 02:51:08,http://ars.els-cdn.com/content/image/3-s2.0-B9780121192853X50016-cov150h.gif,,
15309770,The Structure and Function of Nervous Tissue. Structure IV and Physiology IV,,,,Geoffrey Bourne (Eds.),1972,,,,505,0,English,,,,"978-0-12-119286-0,9780121192860",,,,,,,,,,,0,,,,,,,1,11141238,pdf,75ec751c5a992c490305fed71bee8ee8,,,A:\\_for_add\\1\\SD\\9780121192860 (18).pdf,0,2000-01-01 01:00:00,2016-04-03 02:51:08,http://ars.els-cdn.com/content/image/3-s2.0-B9780121192860X50017-cov150h.gif,,
15309771,Anatomy and Physiology,,,,Geoffrey Bourne (Eds.),1975,,,,420,0,English,,,,"978-0-12-119301-0,9780121193010",,,,,,,,,,,0,,,,,,,1,13045309,pdf,260e7ee48ec60b808231b3a404f9bb06,,,A:\\_for_add\\1\\SD\\9780121193010 (18).pdf,0,2000-01-01 01:00:00,2016-04-03 02:51:08,http://ars.els-cdn.com/content/image/3-s2.0-B9780121193010X5001X-cov150h.gif,,
15309772,Progress in Ape Research,,,,Geoffrey Bourne (Eds.),1977,,,,300,0,English,,,,"978-0-12-119350-8,9780121193508,0-12-119350-0",,,,,,,,,,,0,,,,,,,1,6097416,pdf,77dbc804045475075bd0e9e114c90e03,,,A:\\_for_add\\1\\SD\\9780121193508 (34).pdf,0,2000-01-01 01:00:00,2016-04-03 02:51:08,http://ars.els-cdn.com/content/image/3-s2.0-B9780121193508X50010-cov150h.gif,,
15309773,The Psychology and Physiology of Stress,,,,Peter Bourne (Eds.),1969,,,,262,0,English,,,,"978-0-12-119550-2,9780121195502",,,,,,,,,,,0,,,,,,,1,4285685,pdf,de694c261b2b6b24e85f7484d938ef53,,,A:\\_for_add\\1\\SD\\9780121195502 (17).pdf,0,2000-01-01 01:00:00,2016-04-03 02:51:08,http://ars.els-cdn.com/content/image/3-s2.0-B9780121195502X50010-cov150h.gif,,
15309774,High Resolution NMR of Macromolecules,,,,Frank A. Bovey (Auth.),1972,,,,466,0,English,,,,"978-0-12-119740-7,9780121197407",,,,,,,,,,,0,,,,,,,1,9516644,pdf,a4261ef52bf93bb3c28d8f05046c3847,,,A:\\_for_add\\1\\SD\\9780121197407 (21).pdf,0,2000-01-01 01:00:00,2016-04-03 02:51:08,http://ars.els-cdn.com/content/image/3-s2.0-B9780121197407X5001X-cov150h.gif,,
15309775,Macromolecules. An Introduction to Polymer Science,,,,Frank A. Bovey (Eds.),1979,,,,551,0,English,,,,"978-0-12-119755-1,9780121197551,0-12-119755-7,0-12-119756-5",,,,,,,,,,,0,,,,,,,1,42524338,pdf,902d288123394791b3585a5ddb483664,,,A:\\_for_add\\1\\SD\\9780121197551 (15).pdf,0,2000-01-01 01:00:00,2016-04-03 02:51:08,http://ars.els-cdn.com/content/image/3-s2.0-B9780121197551X50014-cov150h.gif,,
15309776,Chain Structure and Conformation of Macromolecules,,,,Frank A. Bovey (Auth.),1982,,,,258,0,English,,,,"978-0-12-119780-3,9780121197803",,,,,,,,,,,0,,,,,,,1,4466295,pdf,8567916df35a12094224b13def07784b,,,A:\\_for_add\\1\\SD\\9780121197803 (12).pdf,0,2000-01-01 01:00:00,2016-04-03 02:51:08,http://ars.els-cdn.com/content/image/3-s2.0-B9780121197803X50011-cov150h.gif,,
15309777,Bacterial Immunoglobulin-binding Proteins,,,,Michael D.P. Boyle (Auth.),1989,,,,407,0,English,,,,"978-0-12-123011-1,9780121230111,0-12-123011-2",,,,,,,,,,,0,,,,,,,1,17155716,pdf,0a69da2c9781b2db254ee132190c75ae,,,A:\\_for_add\\1\\SD\\9780121230111 (36).pdf,0,2000-01-01 01:00:00,2016-04-03 02:51:08,http://ars.els-cdn.com/content/image/3-s2.0-C20120014482-cov150h.gif,,
15309778,Biology of Acetabularia,,,,Jean Brachet (Eds.),1970,,,,292,0,English,,,,"978-0-12-123360-0,9780121233600",,,,,,,,,,,0,,,,,,,1,13737472,pdf,495c86829da6ad40a0833f0cac95567e,,,A:\\_for_add\\1\\SD\\9780121233600 (21).pdf,0,2000-01-01 01:00:00,2016-04-03 02:51:08,http://ars.els-cdn.com/content/image/3-s2.0-B9780121233600X50012-cov150h.gif,,
15309779,Molecular Cytology. Volume 1: The Cell Cycle,,,,Jean Brachet (Auth.),1985,,,,430,0,English,,,,"978-0-12-123370-9,9780121233709",,,,,,,,,,,0,,,,,,,1,11184999,pdf,8cc48873749e5a6c673259037cf06de8,,,A:\\_for_add\\1\\SD\\9780121233709 (11).pdf,0,2000-01-01 01:00:00,2016-04-03 02:51:08,http://ars.els-cdn.com/content/image/3-s2.0-B9780121233709X50012-cov150h.gif,,
15309780,Molecular Cytology. Volume 2: Cell Interactions,,,,Jean Brachet (Auth.),1985,,,,518,0,English,,,,"978-0-12-123371-6,9780121233716",,,,,,,,,,,0,,,,,,,1,14598955,pdf,fcbddc3d112e6c7835e02eeded2a2c6a,,,A:\\_for_add\\1\\SD\\9780121233716 (10).pdf,0,2000-01-01 01:00:00,2016-04-03 02:51:08,http://ars.els-cdn.com/content/image/3-s2.0-B9780121233716X50013-cov150h.gif,,
15309781,New Technologies in Animal Breeding,,,,B.G. Brackett (Auth.),1982,,,,258,0,English,,,,"978-0-12-123450-8,9780121234508,0-12-123450-9",,,,,,,,,,,0,,,,,,,1,5469569,pdf,4898d4ebd0bfe05aec719f7ce9353ba0,,,A:\\_for_add\\1\\SD\\9780121234508 (20).pdf,0,2000-01-01 01:00:00,2016-04-03 02:51:08,http://ars.els-cdn.com/content/image/3-s2.0-C20120014494-cov150h.gif,,
15309782,Molecular Architecture of Proteins and Enzymes,,,,Ralph Bradshaw (Eds.),1985,,,,316,0,English,,,,"978-0-12-124570-2,9780121245702,0-12-124570-5,0-12-124571-3",,,,,,,,,,,0,,,,,,,1,32712212,pdf,12e16ad75c7550de753afd11df2a70e5,,,A:\\_for_add\\1\\SD\\9780121245702 (24).pdf,0,2000-01-01 01:00:00,2016-04-03 02:51:08,http://ars.els-cdn.com/content/image/3-s2.0-B9780121245702X50015-cov150h.gif,,
15309783,Proteins in Biology and Medicine,,,,Ralph Bradshaw (Eds.),1982,,,,413,0,English,,,,"978-0-12-124580-1,9780121245801,0-12-124580-2",,,,,,,,,,,0,,,,,,,1,45022317,pdf,d567b323df20d5aaf67e5dedb619cc7b,,,A:\\_for_add\\1\\SD\\9780121245801 (29).pdf,0,2000-01-01 01:00:00,2016-04-03 02:51:08,http://ars.els-cdn.com/content/image/3-s2.0-B9780121245801X50010-cov150h.gif,,
15309784,Applications of Polymer Spectroscopy,,,,E.G. Brame (Auth.),1978,,,,283,0,English,,,,"978-0-12-125450-6,9780121254506,0-12-125450-X",,,,,,,,,,,0,,,,,,,1,33006573,pdf,a70c28e70e27767a06cf823035056b6a,,,A:\\_for_add\\1\\SD\\9780121254506 (23).pdf,0,2000-01-01 01:00:00,2016-04-03 02:51:08,http://ars.els-cdn.com/content/image/3-s2.0-C20120014512-cov150h.gif,,
15309785,Male Accessory Sex Organs. Structure and Function in Mammals,,,,David Brandes (Eds.),1974,,,,515,0,English,,,,"978-0-12-125650-0,9780121256500",,,,,,,,,,,0,,,,,,,1,32033704,pdf,203d573c46a225dafb2608838b39a360,,,A:\\_for_add\\1\\SD\\9780121256500 (26).pdf,0,2000-01-01 01:00:00,2016-04-03 02:51:08,http://ars.els-cdn.com/content/image/3-s2.0-B9780121256500X50017-cov150h.gif,,
15309786,Neurological Disorders. Course and Treatment,,,,"Thomas Brandt, Louis R. Caplan, Johannes Dichgans, H. Christoph Diener and Christopher Kennard (Eds.)",2003,,,,1526,0,English,,,,"978-0-12-125831-3,9780121258313",,,,,,,,,,,0,,,,,,,1,45492991,pdf,53ca83ad7454557c31b96993180d28f7,,,A:\\_for_add\\1\\SD\\9780121258313 (111).pdf,0,2000-01-01 01:00:00,2016-04-03 02:51:08,http://ars.els-cdn.com/content/image/3-s2.0-B9780121258313X51934-cov150h.gif,,
15309787,Molecular Biology. A Selection of Papers,,,,Sydney Brenner (Eds.),1990,,,,627,0,English,,,,"978-0-12-131200-8,9780121312008,0-12-131200-3",,,,,,,,,,,0,,,,,,,1,36411640,pdf,a9dd558ade8823acaf0329031d4e9104,,,A:\\_for_add\\1\\SD\\9780121312008 (41).pdf,0,2000-01-01 01:00:00,2016-04-03 02:51:08,http://ars.els-cdn.com/content/image/3-s2.0-C20090027524-cov150h.gif,,
15309788,Fundamentals of Chemistry: a Modern Introduction,,,,Frank Brescia (Auth.),1975,,,,631,0,English,,,,"978-0-12-132332-5,9780121323325",,,,,,,,,,,0,,,,,,,1,349985712,pdf,8df3423fd876c1d6a7f748913114bc79,,,A:\\_for_add\\1\\SD\\9780121323325 (39).pdf,0,2000-01-01 01:00:00,2016-04-03 02:51:08,http://ars.els-cdn.com/content/image/3-s2.0-B9780121323325X50017-cov150h.gif,,
15309789,Fundamentals of Chemistry: Laboratory Studies,,,,Frank Brescia (Auth.),1975,,,,265,0,English,,,,"978-0-12-132387-5,9780121323875,0-12-132387-0",,,,,,,,,,,0,,,,,,,1,4797543,pdf,a0625749b9f86a97ceb6250d8de7b62f,,,A:\\_for_add\\1\\SD\\9780121323875 (50).pdf,0,2000-01-01 01:00:00,2016-04-03 02:51:08,http://ars.els-cdn.com/content/image/3-s2.0-B9780121323875X50018-cov150h.gif,,
15309790,Introduction to Molecular Biology,,,,S. Bresler (Auth.),1971,,,,565,0,English,,,,"978-0-12-132550-3,9780121325503",,,,,,,,,,,0,,,,,,,1,12354409,pdf,7919bd81d69e3c580f5fcfbb8bcb45b1,,,A:\\_for_add\\1\\SD\\9780121325503 (11).pdf,0,2000-01-01 01:00:00,2016-04-03 02:51:08,http://ars.els-cdn.com/content/image/3-s2.0-B9780121325503X50016-cov150h.gif,,
15309791,Physical Chemistry and its Biological Applications,,,,Wallace Brey (Auth.),1978,,,,591,0,English,,,,"978-0-12-133150-4,9780121331504",,,,,,,,,,,0,,,,,,,1,9748140,pdf,11b47a648d4acecf2e654f64fb832c89,,,A:\\_for_add\\1\\SD\\9780121331504 (19).pdf,0,2000-01-01 01:00:00,2016-04-03 02:51:08,http://ars.els-cdn.com/content/image/3-s2.0-B9780121331504X50014-cov150h.gif,,
15309792,Pulse Methods in 1D & 2D Liquid-Phase NMR,,,,Wallace S. Brey (Eds.),1988,,,,559,0,English,,,,"978-0-12-133155-9,9780121331559,0-12-133155-5",,,,,,,,,,,0,,,,,,,1,58527127,pdf,5a017f22c314aa005fa9a7013ebe0efe,,,A:\\_for_add\\1\\SD\\9780121331559 (13).pdf,0,2000-01-01 01:00:00,2016-04-03 02:51:08,http://ars.els-cdn.com/content/image/3-s2.0-C20090217156-cov150h.gif,,
15309793,Electron-Beam Technology in Microelectronic Fabrication,,,,George Brewer (Eds.),1980,,,,367,0,English,,,,"978-0-12-133550-2,9780121335502,0-12-133550-X",,,,,,,,,,,0,,,,,,,1,39442501,pdf,8ef5d9d5c455c6dc9a88a97e8b9d84ac,,,A:\\_for_add\\1\\SD\\9780121335502 (12).pdf,0,2000-01-01 01:00:00,2016-04-03 02:51:08,http://ars.els-cdn.com/content/image/3-s2.0-B9780121335502X50019-cov150h.gif,,
15309794,Turbulence in Mixing Operations. Theory and Application to Mixing and Reaction,,,,Robert Brodkey (Eds.),1975,,,,327,0,English,,,,"978-0-12-134450-4,9780121344504,0-12-134450-9",,,,,,,,,,,0,,,,,,,1,6798684,pdf,a0e769755c769aca158a638fc0881208,,,A:\\_for_add\\1\\SD\\9780121344504 (15).pdf,0,2000-01-01 01:00:00,2016-04-03 02:51:08,http://ars.els-cdn.com/content/image/3-s2.0-B9780121344504X50011-cov150h.gif,,
15309795,Lipolytic Enzymes,,,,Hans Brockerhoff (Auth.),1974,,,,335,0,English,,,,"978-0-12-134550-1,9780121345501",,,,,,,,,,,0,,,,,,,1,8616329,pdf,097f23f5b4a2deca0b59c461e62979e6,,,A:\\_for_add\\1\\SD\\9780121345501 (14).pdf,0,2000-01-01 01:00:00,2016-04-03 02:51:08,http://ars.els-cdn.com/content/image/3-s2.0-B9780121345501X50011-cov150h.gif,,
15309796,"Practical Programmable Circuits. A Guide to PLDs, State Machines, and Microcontrollers",,,,James D. Broesch (Auth.),1991,,,,292,0,English,,,,"978-0-12-134885-4,9780121348854,0-12-134885-7",,,,,,,,,,,0,,,,,,,1,3924361,pdf,b46c3ec5430f9b1b3e0c1b2dd5530a57,,,A:\\_for_add\\1\\SD\\9780121348854 (24).pdf,0,2000-01-01 01:00:00,2016-04-03 02:51:08,http://ars.els-cdn.com/content/image/3-s2.0-C20090215777-cov150h.gif,,
15309797,Relativity Reexamined,,,,Leon Brillouin (Auth.),1970,,,,112,0,English,,,,"978-0-12-134945-5,9780121349455",,,,,,,,,,,0,,,,,,,1,1490247,pdf,e6680d83a002cb1dada0bf93162ea3ba,,,A:\\_for_add\\1\\SD\\9780121349455 (15).pdf,0,2000-01-01 01:00:00,2016-04-03 02:51:08,http://ars.els-cdn.com/content/image/3-s2.0-B9780121349455X50014-cov150h.gif,,
15309798,Calcium and Phosphate Transport Across Biomembranes,,,,Felix Bronner (Eds.),1981,,,,279,0,English,,,,"978-0-12-135280-6,9780121352806",,,,,,,,,,,0,,,,,,,1,7394871,pdf,068a59749e473d6bfffffc018d43522b,,,A:\\_for_add\\1\\SD\\9780121352806 (59).pdf,0,2000-01-01 01:00:00,2016-04-03 02:51:08,http://ars.els-cdn.com/content/image/3-s2.0-B9780121352806X50010-cov150h.gif,,
15309799,Chemistry of the Cell Interface,,,,Harry Brown (Eds.),1971,,,,343,0,English,,,,"978-0-12-136101-3,9780121361013",,,,,,,,,,,0,,,,,,,1,6420309,pdf,1b2ac248ba4dec87a99626d66e0f61c0,,,A:\\_for_add\\1\\SD\\9780121361013 (13).pdf,0,2000-01-01 01:00:00,2016-04-03 02:51:08,http://ars.els-cdn.com/content/image/3-s2.0-B9780121361013X50016-cov150h.gif,,
15309800,Chemistry of the Cell Interface,,,,Harry Brown (Eds.),1971,,,,333,0,English,,,,"978-0-12-136102-0,9780121361020",,,,,,,,,,,0,,,,,,,1,42420373,pdf,84b8fa13fe5e7003ee195fa6c8a581ec,,,A:\\_for_add\\1\\SD\\9780121361020 (11).pdf,0,2000-01-01 01:00:00,2016-04-03 02:51:08,http://ars.els-cdn.com/content/image/3-s2.0-B9780121361020X50017-cov150h.gif,,
15309801,Liquid Crystals and Biological Structures,,,,Glenn Brown (Eds.),1979,,,,184,0,English,,,,"978-0-12-136850-0,9780121368500",,,,,,,,,,,0,,,,,,,1,9513327,pdf,8604fdc02a0f0b5c6bb3a25ece8348fb,,,A:\\_for_add\\1\\SD\\9780121368500 (19).pdf,0,2000-01-01 01:00:00,2016-04-03 02:51:08,http://ars.els-cdn.com/content/image/3-s2.0-B9780121368500X50011-cov150h.gif,,
15309802,High Pressure Liquid Chromatography. Biochemical and Biomedical Applications,,,,Phyllis Brown (Auth.),1973,,,,208,0,English,,,,"978-0-12-136950-7,9780121369507",,,,,,,,,,,0,,,,,,,1,3641023,pdf,ea4891a18e113c82c8d7d41c1b96d59a,,,A:\\_for_add\\1\\SD\\9780121369507 (14).pdf,0,2000-01-01 01:00:00,2016-04-03 02:51:08,http://ars.els-cdn.com/content/image/3-s2.0-B9780121369507X50016-cov150h.gif,,
15309803,A Guide to Analog Asics,,,,"Paul M. Brown, Jr. (Auth.)",1992,,,,336,0,English,,,,"978-0-12-136970-5,9780121369705,0-12-136970-6",,,,,,,,,,,0,,,,,,,1,24815417,pdf,91287a8323b9bc8c65cb07418a6268c2,,,A:\\_for_add\\1\\SD\\9780121369705 (14).pdf,0,2000-01-01 01:00:00,2016-04-03 02:51:08,http://ars.els-cdn.com/content/image/3-s2.0-B9780121369705X50017-cov150h.gif,,
15309804,Developmental Biology Using Purified Genes,,,,Donald D. Brown (Auth.),1981,,,,695,0,English,,,,"978-0-12-137420-4,9780121374204,0-12-137420-3",,,,,,,,,,,0,,,,,,,1,18344718,pdf,c8c8e9e525efa1fc1b9d4ed7cb2b02ba,,,A:\\_for_add\\1\\SD\\9780121374204 (60).pdf,0,2000-01-01 01:00:00,2016-04-03 02:51:08,http://ars.els-cdn.com/content/image/3-s2.0-C20120014536-cov150h.gif,,
15309805,Laterality Functional Asymmetry in the Intact Brain,,,,M. Bryden (Auth.),1982,,,,318,0,English,,,,"978-0-12-138180-6,9780121381806,0-12-138180-3",,,,,,,,,,,0,,,,,,,1,41480061,pdf,2690c6bce4c5a468d3b1acc113113c3b,,,A:\\_for_add\\1\\SD\\9780121381806 (25).pdf,0,2000-01-01 01:00:00,2016-04-03 02:51:08,http://ars.els-cdn.com/content/image/3-s2.0-B9780121381806X50019-cov150h.gif,,
15309806,Electrons in Solids. An Introductory Survey,,,,Richard Bube (Auth.),1981,,,,322,0,English,,,,"978-0-12-138552-1,9780121385521,0-12-138552-3",,,,,,,,,,,0,,,,,,,1,11898866,pdf,25b3f28e875374aee71f9c048a9fa4e6,,,A:\\_for_add\\1\\SD\\9780121385521 (25).pdf,0,2000-01-01 01:00:00,2016-04-03 02:51:08,http://ars.els-cdn.com/content/image/3-s2.0-B9780121385521X50019-cov150h.gif,,
15309807,Electrons in Solids,,,,,1992,,,,336,0,English,,,,"978-0-12-138553-8,9780121385538,978-0-12-138553-8,0-12-138553-1",,,,,,,,,,,0,,,,,,,1,36694408,pdf,baec7e94760d08c5beb309602213e05c,,,A:\\_for_add\\1\\SD\\9780121385538 (26).pdf,0,2000-01-01 01:00:00,2016-04-03 02:51:08,http://ars.els-cdn.com/content/image/3-s2.0-C20090222392-cov150h.gif,,
15309808,Electrons in Solids. An Introductory Survey,,,,Richard Bube (Auth.),1981,,,,234,0,English,,,,"978-0-12-138650-4,9780121386504,0-12-138650-3",,,,,,,,,,,0,,,,,,,1,3963656,pdf,ed1122b06f4ec05251304947906e662f,,,A:\\_for_add\\1\\SD\\9780121386504 (20).pdf,0,2000-01-01 01:00:00,2016-04-03 02:51:08,http://ars.els-cdn.com/content/image/3-s2.0-B9780121386504X50017-cov150h.gif,,
15309809,Physiology,,,,Dennis E. Buetow (Eds.),1982,,,,368,0,English,,,,"978-0-12-139903-0,9780121399030,0-12-139903-6",,,,,,,,,,,0,,,,,,,1,12300109,pdf,87efbb6c97657df4f250dd73dede3efc,,,A:\\_for_add\\1\\SD\\9780121399030 (16).pdf,0,2000-01-01 01:00:00,2016-04-03 02:51:08,http://ars.els-cdn.com/content/image/3-s2.0-B9780121399030X5001X-cov150h.gif,,
15309810,Techniques in Immunocytochemistry,,,,Gillian R. Bullock and Peter Petrusz (Eds.),1989,,,,289,0,English,,,,"978-0-12-140407-9,9780121404079,0-12-140407-2",,,,,,,,,,,0,,,,,,,1,8349953,pdf,9f0d87a0174420b9a21964dbbf57408b,,,A:\\_for_add\\1\\SD\\9780121404079 (16).pdf,0,2000-01-01 01:00:00,2016-04-03 02:51:08,http://ars.els-cdn.com/content/image/3-s2.0-C20090028074-cov150h.gif,,
15309811,Contemporary Nonlinear Optics,,,,Robert Boyd (Auth.),1992,,,,482,0,English,,,,"978-0-12-145135-6,9780121451356,0-12-045135-2",,,,,,,,,,,0,,,,,,,1,7129845,pdf,684810b0ae6584ae895d93c9c8149193,,,A:\\_for_add\\1\\SD\\9780121451356 (17).pdf,0,2000-01-01 01:00:00,2016-04-03 02:51:08,http://ars.els-cdn.com/content/image/3-s2.0-B9780121451356X5001X-cov150h.gif,,
15309812,Biology of Hydra,,,,Allson Burnett (Eds.),1973,,,,456,0,English,,,,"978-0-12-145950-5,9780121459505",,,,,,,,,,,0,,,,,,,1,19289644,pdf,91c2ccd4d3c2125698e416b1c17466d0,,,A:\\_for_add\\1\\SD\\9780121459505 (32).pdf,0,2000-01-01 01:00:00,2016-04-03 02:51:08,http://ars.els-cdn.com/content/image/3-s2.0-B9780121459505X50010-cov150h.gif,,
15309813,Optical Fiber Rotation Sensing,,,,"William K. Burns, Paul F. Liao and Paul Kelley (Eds.)",1994,,,,390,0,English,,,,"978-0-12-146075-4,9780121460754,0-12-146075-4",,,,,,,,,,,0,,,,,,,1,45732347,pdf,10c94b058cc021ae4d2a3b9ac9002ba3,,,A:\\_for_add\\1\\SD\\9780121460754 (19).pdf,0,2000-01-01 01:00:00,2016-04-03 02:51:08,http://ars.els-cdn.com/content/image/3-s2.0-C20090224123-cov150h.gif,,
15309814,Clematographic Techniques in Biology and Medicine,,,,Alexis Burton (Eds.),1971,,,,376,0,English,,,,"978-0-12-147250-4,9780121472504",,,,,,,,,,,0,,,,,,,1,14415010,pdf,9885767d72b77819f50edb69d0869866,,,A:\\_for_add\\1\\SD\\9780121472504 (34).pdf,0,2000-01-01 01:00:00,2016-04-03 02:51:08,http://ars.els-cdn.com/content/image/3-s2.0-B9780121472504X50017-cov150h.gif,,
15309815,The Cell Nucleus. Volume 1,,,,Harris Busch (Eds.),1974,,,,668,0,English,,,,"978-0-12-147601-4,9780121476014",,,,,,,,,,,0,,,,,,,1,20399072,pdf,845130d25e9ae493ffb1a38055511905,,,A:\\_for_add\\1\\SD\\9780121476014 (22).pdf,0,2000-01-01 01:00:00,2016-04-03 02:51:08,http://ars.els-cdn.com/content/image/3-s2.0-B9780121476014X50015-cov150h.gif,,
15309816,The Cell Nucleus. Volume 2,,,,Harris Busch (Eds.),1974,,,,572,0,English,,,,"978-0-12-147602-1,9780121476021",,,,,,,,,,,0,,,,,,,1,16216468,pdf,28b0e4f6d6e8b8720b6094fec31d1ed0,,,A:\\_for_add\\1\\SD\\9780121476021 (24).pdf,0,2000-01-01 01:00:00,2016-04-03 02:51:08,http://ars.els-cdn.com/content/image/3-s2.0-B9780121476021X50016-cov150h.gif,,
15309817,The Cell Nucleus. Volume 3,,,,Harris Busch (Eds.),1974,,,,589,0,English,,,,"978-0-12-147603-8,9780121476038",,,,,,,,,,,0,,,,,,,1,15189274,pdf,0e703624b7994f702cac0c01f049dd59,,,A:\\_for_add\\1\\SD\\9780121476038 (23).pdf,0,2000-01-01 01:00:00,2016-04-03 02:51:08,http://ars.els-cdn.com/content/image/3-s2.0-B9780121476038X50011-cov150h.gif,,
15309818,"Activation, Deactivation, and Poisoning of Catalysts",,,,John Butt (Auth.),1988,,,,497,0,English,,,,"978-0-12-147695-3,9780121476953,0-12-147695-2",,,,,,,,,,,0,,,,,,,1,54659707,pdf,6df62f87f387262190898085fdebbf9a,,,A:\\_for_add\\1\\SD\\9780121476953 (20).pdf,0,2000-01-01 01:00:00,2016-04-03 02:51:08,http://ars.els-cdn.com/content/image/3-s2.0-B9780121476953X50017-cov150h.gif,,
15309819,Topics in Millimeter Wave Technology,,,,Kenneth Button (Eds.),1988,,,,377,0,English,,,,"978-0-12-147699-1,9780121476991,0-12-147699-5,0-12-147700-2",,,,,,,,,,,0,,,,,,,1,29720866,pdf,3208822db92c17689450962c3368fe94,,,A:\\_for_add\\1\\SD\\9780121476991 (9).pdf,0,2000-01-01 01:00:00,2016-04-03 02:51:08,http://ars.els-cdn.com/content/image/3-s2.0-B9780121476991X50015-cov150h.gif,,
15309820,Infrared and Millimeter Waves,,,,Kenneth Button (Eds.),1979,,,,345,0,English,,,,"978-0-12-147701-1,9780121477011,0-12-147701-0",,,,,,,,,,,0,,,,,,,1,9862586,pdf,ee9386573fb53521865e7abb919868c6,,,A:\\_for_add\\1\\SD\\9780121477011 (14).pdf,0,2000-01-01 01:00:00,2016-04-03 02:51:08,http://ars.els-cdn.com/content/image/3-s2.0-B9780121477011X50015-cov150h.gif,,
15309821,Cholinergic–Monoaminergic Interactions in the Brain,,,,Larry Butcher (Eds.),1978,,,,391,0,English,,,,"978-0-12-147850-6,9780121478506,0-12-147850-5",,,,,,,,,,,0,,,,,,,1,51743133,pdf,e2815c692c15e121ce4bba6b9ef541bc,,,A:\\_for_add\\1\\SD\\9780121478506 (24).pdf,0,2000-01-01 01:00:00,2016-04-03 02:51:08,http://ars.els-cdn.com/content/image/3-s2.0-B9780121478506X50016-cov150h.gif,,
15309822,An Introduction to Air Chemistry,,,,Samuel Butcher (Auth.),1972,,,,248,0,English,,,,"978-0-12-148250-3,9780121482503",,,,,,,,,,,0,,,,,,,1,4695826,pdf,da3a55bf2fa181cc2b9fe85a258b6e1f,,,A:\\_for_add\\1\\SD\\9780121482503 (20).pdf,0,2000-01-01 01:00:00,2016-04-03 02:51:08,http://ars.els-cdn.com/content/image/3-s2.0-B9780121482503X5001X-cov150h.gif,,
15309823,"Differential Equations and Applications in Ecology, Epidemics, and Population Problems",,,,Stavros Busenberg (Eds.),1981,,,,355,0,English,,,,"978-0-12-148360-9,9780121483609,0-12-148360-6",,,,,,,,,,,0,,,,,,,1,7168690,pdf,5b8b647eb7ef68e8689cd904202bd701,,,A:\\_for_add\\1\\SD\\9780121483609 (30).pdf,0,2000-01-01 01:00:00,2016-04-03 02:51:08,http://ars.els-cdn.com/content/image/3-s2.0-B9780121483609X5001X-cov150h.gif,,
15309824,Design Automation. Automated Full-Custom VLSI Layout Using the ULYSSES Design Environment,,,,Michael Bushnell (Auth.),1988,,,,466,0,English,,,,"978-0-12-148400-2,9780121484002,0-12-148400-9",,,,,,,,,,,0,,,,,,,1,5321935,pdf,1d0a5aabc635b5dea7206a0c4978e260,,,A:\\_for_add\\1\\SD\\9780121484002 (28).pdf,0,2000-01-01 01:00:00,2016-04-03 02:51:08,http://ars.els-cdn.com/content/image/3-s2.0-B9780121484002X50012-cov150h.gif,,
15309825,"The Cereal Rusts. Origins, Specificity, Structure, and Physiology",,,,William Bushnell (Eds.),1984,,,,544,0,English,,,,"978-0-12-148401-9,9780121484019,0-12-148401-7",,,,,,,,,,,0,,,,,,,1,9714489,pdf,1b319e7f1817f7cb7213ed1964907ebd,,,A:\\_for_add\\1\\SD\\9780121484019 (23).pdf,0,2000-01-01 01:00:00,2016-04-03 02:51:08,http://ars.els-cdn.com/content/image/3-s2.0-B9780121484019X50018-cov150h.gif,,
15309826,Fungal Pathogenicity and the Plant's Response,,,,R.J.W. Byrde (Eds.),1973,,,,492,0,English,,,,"978-0-12-148850-5,9780121488505,0-12-148850-0",,,,,,,,,,,0,,,,,,,1,14153283,pdf,76a79787356fdd655f5f41bcecb0d1e3,,,A:\\_for_add\\1\\SD\\9780121488505 (26).pdf,0,2000-01-01 01:00:00,2016-04-03 02:51:08,http://ars.els-cdn.com/content/image/3-s2.0-B9780121488505X50019-cov150h.gif,,
15309827,Neural Models of Plasticity. Experimental and Theoretical Approaches,,,,John H. Byrne (Eds.),1989,,,,446,0,English,,,,"978-0-12-148955-7,9780121489557,0-12-148955-8,0-12-148956-6",,,,,,,,,,,0,,,,,,,1,13685746,pdf,1ca8017a8982791308e6d5082df92a1c,,,A:\\_for_add\\1\\SD\\9780121489557 (24).pdf,0,2000-01-01 01:00:00,2016-04-03 02:51:08,http://ars.els-cdn.com/content/image/3-s2.0-B9780121489557X50012-cov150h.gif,,
15309828,Computer Programs for Chemistry,,,,DeLos DeTar (Eds.),1972,,,,293,0,English,,,,"978-0-12-151504-1,9780121515041",,,,,,,,,,,0,,,,,,,1,6313630,pdf,549818855a13e878d02803854105878d,,,A:\\_for_add\\1\\SD\\9780121515041 (20).pdf,0,2000-01-01 01:00:00,2016-04-03 02:51:08,http://ars.els-cdn.com/content/image/3-s2.0-B9780121515041X50019-cov150h.gif,,
15309829,Current Topics in Bioenergetics,,,,C.P. Lee (Eds.),1991,,,,408,0,English,,,,"978-0-12-152516-3,9780121525163,0-12-152516-3",,,,,,,,,,,0,,,,,,,1,8456239,pdf,b5502809f0dcfbcb07ad540ddcd31fe5,,,A:\\_for_add\\1\\SD\\9780121525163 (13).pdf,0,2000-01-01 01:00:00,2016-04-03 02:51:08,http://ars.els-cdn.com/content/image/3-s2.0-B9780121525163X50013-cov150h.gif,,
15309830,Stem Cells of Renewing Cell Populations,,,,A.B. Cairnie (Eds.),1976,,,,372,0,English,,,,"978-0-12-155050-9,9780121550509",,,,,,,,,,,0,,,,,,,1,9765155,pdf,41ff84338d7a37ed89ebda9acf09f988,,,A:\\_for_add\\1\\SD\\9780121550509 (41).pdf,0,2000-01-01 01:00:00,2016-04-03 02:51:08,http://ars.els-cdn.com/content/image/3-s2.0-B9780121550509X50421-cov150h.gif,,
15309831,Biological Basis of Detoxication,,,,John Caldwell (Eds.),1983,,,,429,0,English,,,,"978-0-12-155060-8,9780121550608,0-12-155060-5",,,,,,,,,,,0,,,,,,,1,10507800,pdf,fe09a0ee236de7f764a170f9120f9fd0,,,A:\\_for_add\\1\\SD\\9780121550608 (20).pdf,0,2000-01-01 01:00:00,2016-04-03 02:51:08,http://ars.els-cdn.com/content/image/3-s2.0-B9780121550608X50014-cov150h.gif,,
15309832,Exploitation of Environmental Heterogeneity by Plants. Ecophysiological Processes Above- and Below-ground,,,,"Jacques Roy, Martyn M. Caldwell and Robert P. Pearce (Eds.)",1994,,,,433,0,English,,,,"978-0-12-155070-7,9780121550707,0-12-155070-2",,,,,,,,,,,0,,,,,,,1,7697138,pdf,cde510a5c89cd767e23e83d023f098f0,,,A:\\_for_add\\1\\SD\\9780121550707 (21).pdf,0,2000-01-01 01:00:00,2016-04-03 02:51:08,http://ars.els-cdn.com/content/image/3-s2.0-C20090023939-cov150h.gif,,
15309833,Cytokines and B Lymphocytes,,,,Robin E. Callard (Eds.),1990,,,,273,0,English,,,,"978-0-12-155145-2,9780121551452,0-12-155145-8",,,,,,,,,,,0,,,,,,,1,4408138,pdf,2c511cfed0528d8c6d2db5819f83c33e,,,A:\\_for_add\\1\\SD\\9780121551452 (14).pdf,0,2000-01-01 01:00:00,2016-04-03 02:51:08,http://ars.els-cdn.com/content/image/3-s2.0-C20090027536-cov150h.gif,,
15309834,Event-Related Brain Potentials in Man,,,,Enoch Callaway (Eds.),1978,,,,633,0,English,,,,"978-0-12-155150-6,9780121551506,0-12-155150-4",,,,,,,,,,,0,,,,,,,1,13649920,pdf,83e232b759b6638c9389890eeba8f669,,,A:\\_for_add\\1\\SD\\9780121551506 (34).pdf,0,2000-01-01 01:00:00,2016-04-03 02:51:08,http://ars.els-cdn.com/content/image/3-s2.0-B9780121551506X50019-cov150h.gif,,
15309835,Quantum Theory of the Solid State. Student Edition,,,,Joseph Callaway (Auth.),1976,,,,833,0,English,,,,"978-0-12-155256-5,9780121552565,0-12-155256-X",,,,,,,,,,,0,,,,,,,1,11493600,pdf,ace7f50ae813509a4c862fc333ea6dce,,,A:\\_for_add\\1\\SD\\9780121552565 (20).pdf,0,2000-01-01 01:00:00,2016-04-03 02:51:08,http://ars.els-cdn.com/content/image/3-s2.0-B9780121552565X50013-cov150h.gif,,
15309836,Acidic Proteins of the Nucleus,,,,Ivan Cameron (Eds.),1974,,,,348,0,English,,,,"978-0-12-156930-3,9780121569303",,,,,,,,,,,0,,,,,,,1,7579935,pdf,9bf21426daf265a7d3838413237eefaa,,,A:\\_for_add\\1\\SD\\9780121569303 (18).pdf,0,2000-01-01 01:00:00,2016-04-03 02:51:08,http://ars.els-cdn.com/content/image/3-s2.0-B9780121569303X5001X-cov150h.gif,,
15309837,Principles of Physiological Measurement,,,,James Cameron (Auth.),1986,,,,272,0,English,,,,"978-0-12-156955-6,9780121569556",,,,,,,,,,,0,,,,,,,1,5334590,pdf,f63529f51e2d956b96b25a5996fee8ce,,,A:\\_for_add\\1\\SD\\9780121569556 (27).pdf,0,2000-01-01 01:00:00,2016-04-03 02:51:08,http://ars.els-cdn.com/content/image/3-s2.0-B9780121569556X50014-cov150h.gif,,
15309838,Developmental Aspects of the Cell Cycle,,,,Ivan Cameron (Eds.),1971,,,,385,0,English,,,,"978-0-12-156960-0,9780121569600",,,,,,,,,,,0,,,,,,,1,7711670,pdf,8d2dc011caa01107f8de167831ec17d0,,,A:\\_for_add\\1\\SD\\9780121569600 (20).pdf,0,2000-01-01 01:00:00,2016-04-03 02:51:08,http://ars.els-cdn.com/content/image/3-s2.0-B9780121569600X50016-cov150h.gif,,
15309839,"Interacting Macromolecules. The Theory and Practice of Their Electrophoresis, Ultracentrifugation, and Chromatography",,,,John Cann (Auth.),1970,,,,254,0,English,,,,"978-0-12-158550-1,9780121585501",,,,,,,,,,,0,,,,,,,1,4233209,pdf,d5df587d1e82e258e7f8d122b137fc4f,,,A:\\_for_add\\1\\SD\\9780121585501 (13).pdf,0,2000-01-01 01:00:00,2016-04-03 02:51:08,http://ars.els-cdn.com/content/image/3-s2.0-B9780121585501X50011-cov150h.gif,,
15309840,Handbook on Plasma Instabilities,,,,Ferdinand Cap (Auth.),1976,,,,467,0,English,,,,"978-0-12-159101-4,9780121591014,0-12-159101-8",,,,,,,,,,,0,,,,,,,1,6571700,pdf,d7004a1aaf322fedce58acfdfa94ab1c,,,A:\\_for_add\\1\\SD\\9780121591014 (21).pdf,0,2000-01-01 01:00:00,2016-04-03 02:51:08,http://ars.els-cdn.com/content/image/3-s2.0-B9780121591014X50013-cov150h.gif,,
15309841,GPI Membrane Anchors,,,,M. Almeida (Eds.),1992,,,,315,0,English,,,,"978-0-12-159390-2,9780121593902,0-12-159390-8",,,,,,,,,,,0,,,,,,,1,42562974,pdf,e51c723f354171957483f342cdd6984b,,,A:\\_for_add\\1\\SD\\9780121593902 (24).pdf,0,2000-01-01 01:00:00,2016-04-03 02:51:08,http://ars.els-cdn.com/content/image/3-s2.0-B9780121593902X50016-cov150h.gif,,
15309842,Biochemical Applications of Raman and Resonance Raman Spectroscopes,,,,P. Carey (Auth.),1982,,,,269,0,English,,,,"978-0-12-159650-7,9780121596507,0-12-159650-8",,,,,,,,,,,0,,,,,,,1,4299066,pdf,8878ed3ac734dcee1b86339851fc8f24,,,A:\\_for_add\\1\\SD\\9780121596507 (15).pdf,0,2000-01-01 01:00:00,2016-04-03 02:51:08,http://ars.els-cdn.com/content/image/3-s2.0-B9780121596507X50019-cov150h.gif,,
15309843,Introduction to Applied Optics for Engineers,,,,F. Paul Carlson (Auth.),1977,,,,283,0,English,,,,"978-0-12-160050-1,9780121600501",,,,,,,,,,,0,,,,,,,1,4282514,pdf,cd38b5bad2700b96c0d7aea706ccba35,,,A:\\_for_add\\1\\SD\\9780121600501 (17).pdf,0,2000-01-01 01:00:00,2016-04-03 02:51:08,http://ars.els-cdn.com/content/image/3-s2.0-B9780121600501X50018-cov150h.gif,,
15309844,Biological Effects of Electric and Magnetic Fields. Sources and Mechanisms,,,,David O. Carpenter and Sinerik Ayrapetyan (Eds.),1994,,,,371,0,English,,,,"978-0-12-160261-1,9780121602611,0-12-160261-3,0-12-160262-1",,,,,,,,,,,0,,,,,,,1,29074821,pdf,e632a6c12245511e7c45e387ea514110,,,A:\\_for_add\\1\\SD\\9780121602611 (20).pdf,0,2000-01-01 01:00:00,2016-04-03 02:51:08,http://ars.els-cdn.com/content/image/3-s2.0-C20090023976-cov150h.gif,,
15309845,Biological Effects of Electric and Magnetic Fields. Beneficial and Harmful Effects,,,,David O. Carpenter and Sinerik Ayrapetyan (Eds.),1994,,,,352,0,English,,,,"978-0-12-160262-8,9780121602628,0-12-160261-3,0-12-160262-1",,,,,,,,,,,0,,,,,,,1,35217551,pdf,810f23cf6b9042556eb132def4785425,,,A:\\_for_add\\1\\SD\\9780121602628 (21).pdf,0,2000-01-01 01:00:00,2016-04-03 02:51:08,http://ars.els-cdn.com/content/image/3-s2.0-C20090023988-cov150h.gif,,
15309846,Designer's Handbook of Instrumentation and Control Circuits,,,,Joseph J. Carr (Auth.),1991,,,,630,0,English,,,,"978-0-12-160640-4,9780121606404",,,,,,,,,,,0,,,,,,,1,11487187,pdf,616aa3fd50b0a845c79a2a3aa0596069,,,A:\\_for_add\\1\\SD\\9780121606404 (29).pdf,0,2000-01-01 01:00:00,2016-04-03 02:51:08,http://ars.els-cdn.com/content/image/3-s2.0-C20090215881-cov150h.gif,,
15309847,Organometallic Polymers,,,,"Charles E. Carraher, Jr. (Eds.)",1978,,,,347,0,English,,,,"978-0-12-160850-7,9780121608507,0-12-160850-6",,,,,,,,,,,0,,,,,,,1,14525864,pdf,ec0c223aa0038f5b9084b55206eae522,,,A:\\_for_add\\1\\SD\\9780121608507 (39).pdf,0,2000-01-01 01:00:00,2016-04-03 02:51:08,http://ars.els-cdn.com/content/image/3-s2.0-B9780121608507X50011-cov150h.gif,,
15309848,Diagnostic Procedure in Veterinary Bacteriology and Mycology,,,,"Grace R. Carter and John R. Cole, Jr. (Eds.)",1990,,,,609,0,English,,,,"978-0-12-161775-2,9780121617752,0-12-161775-0",,,,,,,,,,,0,,,,,,,1,19520361,pdf,871c1fa35b541422f78b923e1454c6b8,,,A:\\_for_add\\1\\SD\\9780121617752 (48).pdf,0,2000-01-01 01:00:00,2016-04-03 02:51:08,http://ars.els-cdn.com/content/image/3-s2.0-C20090027251-cov150h.gif,,
15309849,Psychophysical Judgment and Measurement,,,,Edward Carterette (Eds.),1974,,,,557,0,English,,,,"978-0-12-161902-2,9780121619022,0-12-161902-8",,,,,,,,,,,0,,,,,,,1,14617265,pdf,e5f91ba47cd921a1eb59e24610e62a6e,,,A:\\_for_add\\1\\SD\\9780121619022 (23).pdf,0,2000-01-01 01:00:00,2016-04-03 02:51:08,http://ars.els-cdn.com/content/image/3-s2.0-B9780121619022X50019-cov150h.gif,,
15309850,Biology of Perceptual Systems,,,,Edward Carterette (Eds.),1973,,,,524,0,English,,,,"978-0-12-161903-9,9780121619039",,,,,,,,,,,0,,,,,,,1,7820016,pdf,bc8b64838690e93341c22dfde97e4406,,,A:\\_for_add\\1\\SD\\9780121619039 (29).pdf,0,2000-01-01 01:00:00,2016-04-03 02:51:08,http://ars.els-cdn.com/content/image/3-s2.0-B9780121619039X50014-cov150h.gif,,
15309851,Hearing,,,,Edward Carterette (Eds.),1978,,,,719,0,English,,,,"978-0-12-161904-6,9780121619046",,,,,,,,,,,0,,,,,,,1,20503751,pdf,a1b04bf60dd0c4f9cbed96eaa64f83a7,,,A:\\_for_add\\1\\SD\\9780121619046 (27).pdf,0,2000-01-01 01:00:00,2016-04-03 02:51:08,http://ars.els-cdn.com/content/image/3-s2.0-B9780121619046X50015-cov150h.gif,,
15309852,Polymer Stress Reactions. Introduction,,,,Antonio Casale (Auth.),1978,,,,280,0,English,,,,"978-0-12-162801-7,9780121628017,0-12-162801-9",,,,,,,,,,,0,,,,,,,1,32836256,pdf,99e4c2c4a303c06df6240e0c98b4914c,,,A:\\_for_add\\1\\SD\\9780121628017 (14).pdf,0,2000-01-01 01:00:00,2016-04-03 02:51:08,http://ars.els-cdn.com/content/image/3-s2.0-B9780121628017X50010-cov150h.gif,,
15309853,Pyrethrum. The Natural Insecticide,,,,John Casida (Eds.),1973,,,,322,0,English,,,,"978-0-12-162950-2,9780121629502",,,,,,,,,,,0,,,,,,,1,6861100,pdf,34daf71158be2f10f5931c11387f11df,,,A:\\_for_add\\1\\SD\\9780121629502 (26).pdf,0,2000-01-01 01:00:00,2016-04-03 02:51:08,http://ars.els-cdn.com/content/image/3-s2.0-B9780121629502X50017-cov150h.gif,,
15309854,Heterostructure Lasers,,,,"H.C. Casey, Jr. (Auth.)",1978,,,,278,0,English,,,,"978-0-12-163101-7,9780121631017,0-12-163101-X",,,,,,,,,,,0,,,,,,,1,4077773,pdf,60e54414e46cdddb4a3823926db7fbd9,,,A:\\_for_add\\1\\SD\\9780121631017 (13).pdf,0,2000-01-01 01:00:00,2016-04-03 02:51:08,http://ars.els-cdn.com/content/image/3-s2.0-B9780121631017X50014-cov150h.gif,,
15309855,Heterostructure Lasers,,,,"H.C. Casey, Jr. (Auth.)",1978,,,,336,0,English,,,,"978-0-12-163102-4,9780121631024,0-12-163102-8",,,,,,,,,,,0,,,,,,,1,7289556,pdf,c611c47b8585df65922e1faea97f9360,,,A:\\_for_add\\1\\SD\\9780121631024 (13).pdf,0,2000-01-01 01:00:00,2016-04-03 02:51:08,http://ars.els-cdn.com/content/image/3-s2.0-B9780121631024X50015-cov150h.gif,,
15309856,Extreme Value Theory in Engineering,,,,Enrique Castillo (Auth.),1988,,,,380,0,English,,,,"978-0-12-163475-9,9780121634759,0-12-163475-2",,,,,,,,,,,0,,,,,,,1,29915884,pdf,9c6d19deb06b3ac27346a731c24bab46,,,A:\\_for_add\\1\\SD\\9780121634759 (19).pdf,0,2000-01-01 01:00:00,2016-04-03 02:51:08,http://ars.els-cdn.com/content/image/3-s2.0-C20090221696-cov150h.gif,,
15309857,Biochemical and Clinical Aspects of Hemoglobin Abnormalities,,,,Winslow Caughey (Eds.),1978,,,,705,0,English,,,,"978-0-12-164350-8,9780121643508,0-12-164350-6",,,,,,,,,,,0,,,,,,,1,16868210,pdf,5e2e40287c52b32e7a3a62e1b017a3e7,,,A:\\_for_add\\1\\SD\\9780121643508 (57).pdf,0,2000-01-01 01:00:00,2016-04-03 02:51:08,http://ars.els-cdn.com/content/image/3-s2.0-B9780121643508X50018-cov150h.gif,,
15309858,Biochemical and Clinical Aspects of Oxygen,,,,Winslow Caughey (Eds.),1979,,,,854,0,English,,,,"978-0-12-164380-5,9780121643805,0-12-164380-8",,,,,,,,,,,0,,,,,,,1,22387012,pdf,d7f751c0aba7f7edc6f0e48bd2ff57c5,,,A:\\_for_add\\1\\SD\\9780121643805 (56).pdf,0,2000-01-01 01:00:00,2016-04-03 02:51:08,http://ars.els-cdn.com/content/image/3-s2.0-B9780121643805X50014-cov150h.gif,,
15309859,Two-dimensional Gel Electrophoresis of Proteins. Methods and Applications,,,,Julio Celis (Eds.),1984,,,,493,0,English,,,,"978-0-12-164720-9,9780121647209,0-12-164720-X",,,,,,,,,,,0,,,,,,,1,19386293,pdf,8ce593c447eeed7f2179e5b1a2f319c8,,,A:\\_for_add\\1\\SD\\9780121647209 (19).pdf,0,2000-01-01 01:00:00,2016-04-03 02:51:08,http://ars.els-cdn.com/content/image/3-s2.0-B9780121647209X50016-cov150h.gif,,
15309860,Handbook of Optical Holography,,,,H. J. Caulfield (Auth.),1979,,,,627,0,English,,,,"978-0-12-165350-7,9780121653507,0-12-165350-1",,,,,,,,,,,0,,,,,,,1,9770252,pdf,8709acbb8300793a4a37970d9a3c8bfe,,,A:\\_for_add\\1\\SD\\9780121653507 (17).pdf,0,2000-01-01 01:00:00,2016-04-03 02:51:08,http://ars.els-cdn.com/content/image/3-s2.0-C20090220496-cov150h.gif,,
15309861,The Rewiring of America the Fiber Optics Revolution,,,,C. Chaffee (Auth.),1988,,,,244,0,English,,,,"978-0-12-166360-5,9780121663605,0-12-166360-4",,,,,,,,,,,0,,,,,,,1,5749740,pdf,a43d212cf75f7e4960fbfeaaee6e41e3,,,A:\\_for_add\\1\\SD\\9780121663605 (19).pdf,0,2000-01-01 01:00:00,2016-04-03 02:51:08,http://ars.els-cdn.com/content/image/3-s2.0-B9780121663605X50019-cov150h.gif,,
15309862,The Leukotrienes. Chemistry and Biology,,,,Lawrence Chakrin (Eds.),1984,,,,307,0,English,,,,"978-0-12-166750-4,9780121667504,0-12-166750-2",,,,,,,,,,,0,,,,,,,1,5797678,pdf,fdc895a542685c052d76e4cf02749b48,,,A:\\_for_add\\1\\SD\\9780121667504 (16).pdf,0,2000-01-01 01:00:00,2016-04-03 02:51:08,http://ars.els-cdn.com/content/image/3-s2.0-B9780121667504X50018-cov150h.gif,,
15309863,Immunoassay Automation. A Practical Guide,,,,Daniel W. Chan (Eds.),1992,,,,353,0,English,,,,"978-0-12-167632-2,9780121676322,0-12-167632-3",,,,,,,,,,,0,,,,,,,1,8925582,pdf,3f68840540e5a8f39a8d4a4b2e4737e4,,,A:\\_for_add\\1\\SD\\9780121676322 (30).pdf,0,2000-01-01 01:00:00,2016-04-03 02:51:08,http://ars.els-cdn.com/content/image/3-s2.0-C20090031870-cov150h.gif,,
15309864,Arctic Ecosystems in a Changing Climate. An Ecophysiological Perspective,,,,"F. Stuart Chapin III, Robert L. Jefferies, James F. Reynolds, Gaius R. Shaver, Josef Svoboda and Ellen W. Chu (Eds.)",1991,,,,459,0,English,,,,"978-0-12-168250-7,9780121682507,0-12-168250-1",,,,,,,,,,,0,,,,,,,1,12613805,pdf,b712fa480a03b76ae3f08fb7621ad7d2,,,A:\\_for_add\\1\\SD\\9780121682507 (29).pdf,0,2000-01-01 01:00:00,2016-04-03 02:51:08,http://ars.els-cdn.com/content/image/3-s2.0-C20090026348-cov150h.gif,,
15309865,"Nocturnal Malagasy Primates. Ecology, Physiology, and Behavior",,,,P. Charles-Dominique (Auth.),1980,,,,211,0,English,,,,"978-0-12-169350-3,9780121693503,0-12-169350-3",,,,,,,,,,,0,,,,,,,1,5366595,pdf,c856d6b8effca25ea55db11fd7e63b89,,,A:\\_for_add\\1\\SD\\9780121693503 (17).pdf,0,2000-01-01 01:00:00,2016-04-03 02:51:08,http://ars.els-cdn.com/content/image/3-s2.0-B9780121693503X50011-cov150h.gif,,
15309866,The Theory of Auger Transitions,,,,D Chattarji (Eds.),1976,,,,271,0,English,,,,"978-0-12-169850-8,9780121698508,0-12-169850-5",,,,,,,,,,,0,,,,,,,1,8049994,pdf,47812ea94246a804918bab630589f96b,,,A:\\_for_add\\1\\SD\\9780121698508 (14).pdf,0,2000-01-01 01:00:00,2016-04-03 02:51:08,http://ars.els-cdn.com/content/image/3-s2.0-B9780121698508X50010-cov150h.gif,,
15309867,Nonlinear Optical Properties of Organic Molecules and Crystals. Volume 1,,,,D.S. Chemla (Eds.),1987,,,,481,0,English,,,,"978-0-12-170611-1,9780121706111",,,,,,,,,,,0,,,,,,,1,8613642,pdf,643f1e0f1cfa3bf1c97a615ca70dc6c1,,,A:\\_for_add\\1\\SD\\9780121706111 (13).pdf,0,2000-01-01 01:00:00,2016-04-03 02:51:08,http://ars.els-cdn.com/content/image/3-s2.0-B9780121706111X50013-cov150h.gif,,
15309868,Nonlinear Optical Properties of Organic Molecules and Crystals. Volume 2,,,,D.S. Chemla (Eds.),1987,,,,270,0,English,,,,"978-0-12-170612-8,9780121706128",,,,,,,,,,,0,,,,,,,1,4295519,pdf,7804aab9685c7e15509bb29497d41484,,,A:\\_for_add\\1\\SD\\9780121706128 (12).pdf,0,2000-01-01 01:00:00,2016-04-03 02:51:08,http://ars.els-cdn.com/content/image/3-s2.0-B9780121706128X50019-cov150h.gif,,
15309869,General Parasitology,,,,Thomas C. Cheng (Auth.),1986,,,,844,0,English,,,,"978-0-12-170755-2,9780121707552,0-12-170755-5",,,,,,,,,,,0,,,,,,,1,35498404,pdf,c6c1750a96c91ea37b43e8bad6d82703,,,A:\\_for_add\\1\\SD\\9780121707552 (26).pdf,0,2000-01-01 01:00:00,2016-04-03 02:51:08,http://ars.els-cdn.com/content/image/3-s2.0-C20090029201-cov150h.gif,,
15309870,Coordination Polymerization. A Memorial to Karl Ziegler,,,,James C.W. Chien (Eds.),1975,,,,352,0,English,,,,"978-0-12-172450-4,9780121724504",,,,,,,,,,,0,,,,,,,1,6002641,pdf,1c932b698b26ee5bf8cd153fff01514e,,,A:\\_for_add\\1\\SD\\9780121724504 (20).pdf,0,2000-01-01 01:00:00,2016-04-03 02:51:08,http://ars.els-cdn.com/content/image/3-s2.0-B9780121724504X5001X-cov150h.gif,,
15309871,"Polyacetylene. Chemistry, Physics, and Material science",,,,James C.W. Chien (Auth.),1984,,,,641,0,English,,,,"978-0-12-172460-3,9780121724603",,,,,,,,,,,0,,,,,,,1,21096158,pdf,d410b43172e423d9dbaeaea2ced7fe73,,,A:\\_for_add\\1\\SD\\9780121724603 (18).pdf,0,2000-01-01 01:00:00,2016-04-03 02:51:08,http://ars.els-cdn.com/content/image/3-s2.0-B9780121724603X50015-cov150h.gif,,
15309872,Multiphoton Lonization of Atoms,,,,S.L. Chin (Eds.),1984,,,,276,0,English,,,,"978-0-12-172780-2,9780121727802,0-12-172780-7",,,,,,,,,,,0,,,,,,,1,4652447,pdf,be2d648cd4ecd404c742e3afb9e5448c,,,A:\\_for_add\\1\\SD\\9780121727802 (16).pdf,0,2000-01-01 01:00:00,2016-04-03 02:51:08,http://ars.els-cdn.com/content/image/3-s2.0-B9780121727802X50010-cov150h.gif,,
15309873,Backscattering Spectrometry,,,,Wei-Kan Chu (Auth.),1978,,,,389,0,English,,,,"978-0-12-173850-1,9780121738501",,,,,,,,,,,0,,,,,,,1,8035278,pdf,24724c76fbe94767d6556aa458ec08c4,,,A:\\_for_add\\1\\SD\\9780121738501 (23).pdf,0,2000-01-01 01:00:00,2016-04-03 02:51:08,http://ars.els-cdn.com/content/image/3-s2.0-B9780121738501X50017-cov150h.gif,,
15309874,Theory of Viscoelasticity. An Introduction,,,,R. Christensen (Auth.),1982,,,,369,0,English,,,,"978-0-12-174252-2,9780121742522",,,,,,,,,,,0,,,,,,,1,6072330,pdf,fec6d68c6a479eb4637884b95aa5075e,,,A:\\_for_add\\1\\SD\\9780121742522 (15).pdf,0,2000-01-01 01:00:00,2016-04-03 02:51:08,http://ars.els-cdn.com/content/image/3-s2.0-B9780121742522X50017-cov150h.gif,,
15309875,"Sanitary Landfilling: Process, Technology and Environmental Impact",,,,Thomas Christensen (Eds.),1989,,,,561,0,English,,,,"978-0-12-174255-3,9780121742553,0-12-174255-5",,,,,,,,,,,0,,,,,,,1,9980779,pdf,11048201c5fe23e43b96e82ef1bd2466,,,A:\\_for_add\\1\\SD\\9780121742553 (39).pdf,0,2000-01-01 01:00:00,2016-04-03 02:51:08,http://ars.els-cdn.com/content/image/3-s2.0-B9780121742553X50014-cov150h.gif,,
15309876,Electron–Molecule Interactions and their Applications,,,,L. Christophorou (Eds.),1984,,,,699,0,English,,,,"978-0-12-174401-4,9780121744014,0-12-174401-9",,,,,,,,,,,0,,,,,,,1,14655860,pdf,d16fb42cde6b76140beabcbce053a074,,,A:\\_for_add\\1\\SD\\9780121744014 (13).pdf,0,2000-01-01 01:00:00,2016-04-03 02:51:08,http://ars.els-cdn.com/content/image/3-s2.0-B9780121744014X50019-cov150h.gif,,
15309877,Laser Light Scattering. Basic Principles and Practice,,,,Benjamin Chu (Auth.),1991,,,,342,0,English,,,,"978-0-12-174551-6,9780121745516,0-12-174551-1",,,,,,,,,,,0,,,,,,,1,5374007,pdf,9735fcf4cb2ef7836fff09322bd84549,,,A:\\_for_add\\1\\SD\\9780121745516 (14).pdf,0,2000-01-01 01:00:00,2016-04-03 02:51:08,http://ars.els-cdn.com/content/image/3-s2.0-B9780121745516X50010-cov150h.gif,,
15309878,Wavelets. A Tutorial in Theory and Applications,,,,Charles K. Chui (Auth.),1992,,,,708,0,English,,,,"978-0-12-174590-5,9780121745905,0-12-174590-2",,,,,,,,,,,0,,,,,,,1,11953855,pdf,3add1b19d61046eadba25214716a52a0,,,A:\\_for_add\\1\\SD\\9780121745905 (29).pdf,0,2000-01-01 01:00:00,2016-04-03 02:51:08,http://ars.els-cdn.com/content/image/3-s2.0-C20090222069-cov150h.gif,,
15309879,Nucleophilic Aromatic Substitution of Hydrogen,,,,"Oleg N. Chupakhin, Valery N. Charushin and Henk C. van der Plas (Auth.)",1994,,,,372,0,English,,,,"978-0-12-174640-7,9780121746407,0-12-174640-2",,,,,,,,,,,0,,,,,,,1,5505589,pdf,f5f44b2300724bc2aa7e3161ae07e35c,,,A:\\_for_add\\1\\SD\\9780121746407 (10).pdf,0,2000-01-01 01:00:00,2016-04-03 02:51:08,http://ars.els-cdn.com/content/image/3-s2.0-C20090212141-cov150h.gif,,
15309880,Polymer Liquid Crystals,,,,A. Ciferri (Eds.),1982,,,,383,0,English,,,,"978-0-12-174680-3,9780121746803,0-12-174680-1",,,,,,,,,,,0,,,,,,,1,10708555,pdf,02dd53d7a62bd687d88a528e4fc60b6a,,,A:\\_for_add\\1\\SD\\9780121746803 (19).pdf,0,2000-01-01 01:00:00,2016-04-03 02:51:08,http://ars.els-cdn.com/content/image/3-s2.0-B9780121746803X50016-cov150h.gif,,
15309881,AC Power Conditioners. Design and Application,,,,James Clark (Auth.),1990,,,,207,0,English,,,,"978-0-12-175460-0,9780121754600,0-12-175460-X",,,,,,,,,,,0,,,,,,,1,5528552,pdf,528b06b464c10df76ea5cb8ea00b376e,,,A:\\_for_add\\1\\SD\\9780121754600 (21).pdf,0,2000-01-01 01:00:00,2016-04-03 02:51:08,http://ars.els-cdn.com/content/image/3-s2.0-B9780121754600X50013-cov150h.gif,,
15309882,Solid Lubricants and Self-Lubricating Solids,,,,Francis J. Clauss (Eds.),1972,,,,268,0,English,,,,"978-0-12-176150-9,9780121761509",,,,,,,,,,,0,,,,,,,1,7640129,pdf,9d04490b994bcf901644eeaf4fb9eeb6,,,A:\\_for_add\\1\\SD\\9780121761509 (16).pdf,0,2000-01-01 01:00:00,2016-04-03 02:51:08,http://ars.els-cdn.com/content/image/3-s2.0-B9780121761509X50010-cov150h.gif,,
15309883,Sleep and the Maturing Nervous System,,,,Carmine D. Clemente (Eds.),1972,,,,463,0,English,,,,"978-0-12-176250-6,9780121762506",,,,,,,,,,,0,,,,,,,1,11776112,pdf,d1372ff602940e44667f9496a5aeeeda,,,A:\\_for_add\\1\\SD\\9780121762506 (26).pdf,0,2000-01-01 01:00:00,2016-04-03 02:51:08,http://ars.els-cdn.com/content/image/3-s2.0-B9780121762506X50010-cov150h.gif,,
15309884,Neurotransmitter Release the Neuromuscular Junction,,,,Francesco Clementi (Eds.),1990,,,,235,0,English,,,,"978-0-12-176460-9,9780121764609,0-12-176460-5",,,,,,,,,,,0,,,,,,,1,6420500,pdf,0bd3fe122c40e9af9ec2f9b9f4ad3b5a,,,A:\\_for_add\\1\\SD\\9780121764609 (27).pdf,0,2000-01-01 01:00:00,2016-04-03 02:51:08,http://ars.els-cdn.com/content/image/3-s2.0-B9780121764609X50010-cov150h.gif,,
15309885,"Primate Ecology: Studies of Feeding and Ranging Behavior in Lemurs, Monkey and Apes",,,,T.H. Clutton-Brock (Eds.),1977,,,,627,0,English,,,,"978-0-12-176850-8,9780121768508,0-12-176850-3",,,,,,,,,,,0,,,,,,,1,13767347,pdf,6afea821bc8e67c47bd4b1aa1955e3e7,,,A:\\_for_add\\1\\SD\\9780121768508 (29).pdf,0,2000-01-01 01:00:00,2016-04-03 02:51:08,http://ars.els-cdn.com/content/image/3-s2.0-B9780121768508X5001X-cov150h.gif,,
15309886,The Biology and Management of Lobsters. Volume I: Physiology and Behavior,,,,J. Stanley Cobb and Bruce F. Phillips (Eds.),1980,,,,462,0,English,,,,"978-0-12-177401-1,9780121774011,0-12-177401-5",,,,,,,,,,,0,,,,,,,1,8491296,pdf,4f1709106432ee7d446db7d268607b36,,,A:\\_for_add\\1\\SD\\9780121774011 (17).pdf,0,2000-01-01 01:00:00,2016-04-03 02:51:08,http://ars.els-cdn.com/content/image/3-s2.0-C20090031067-cov150h.gif,,
15309887,Fluid Mechanics,,,,Pijush K. Kundu and Ira M. Cohen (Auth.),2002,,,,742,0,English,,,,"978-0-12-178251-1,9780121782511,0-12-178251-4",,,,,,,,,,,0,,,,,,,1,12062663,pdf,106119a4ebf0a4f0c36a97c217f137d0,,,A:\\_for_add\\1\\SD\\9780121782511 (28).pdf,0,2000-01-01 01:00:00,2016-04-03 02:51:08,http://ars.els-cdn.com/content/image/3-s2.0-C20090207161-cov150h.gif,,
15309888,Applications of Mössbauer Spectroscopy,,,,Richard L. Cohen (Eds.),1976,,,,340,0,English,,,,"978-0-12-178401-0,9780121784010",,,,,,,,,,,0,,,,,,,1,18696983,pdf,d8c41daca901d074f9386e0b4d75e76c,,,A:\\_for_add\\1\\SD\\9780121784010 (16).pdf,0,2000-01-01 01:00:00,2016-04-03 02:51:08,http://ars.els-cdn.com/content/image/3-s2.0-B9780121784010X5001X-cov150h.gif,,
15309889,Dynamics of Snow and Ice Masses,,,,Samuel C. Colbeck (Eds.),1980,,,,469,0,English,,,,"978-0-12-179450-7,9780121794507,0-12-179450-4",,,,,,,,,,,0,,,,,,,1,7079880,pdf,b3028421edd044a33cc9ad1fbf4873cf,,,A:\\_for_add\\1\\SD\\9780121794507 (13).pdf,0,2000-01-01 01:00:00,2016-04-03 02:51:08,http://ars.els-cdn.com/content/image/3-s2.0-B9780121794507X50013-cov150h.gif,,
15309890,Biology of Conidial Fungi. Volume 1,,,,Garry T. Cole (Auth.),1981,,,,484,0,English,,,,"978-0-12-179501-6,9780121795016,0-12-179501-2",,,,,,,,,,,0,,,,,,,1,10702994,pdf,fb67648a8d90e03e82a8eb312b060d20,,,A:\\_for_add\\1\\SD\\9780121795016 (23).pdf,0,2000-01-01 01:00:00,2016-04-03 02:51:08,http://ars.els-cdn.com/content/image/3-s2.0-C2012001472X-cov150h.gif,,
15309891,Biology of Conidial Fungi. Volume 2,,,,Garry T. Cole (Eds.),1981,,,,653,0,English,,,,"978-0-12-179502-3,9780121795023,0-12-179502-0",,,,,,,,,,,0,,,,,,,1,18287626,pdf,a2d290f05702b7a0bda89e8324df847e,,,A:\\_for_add\\1\\SD\\9780121795023 (26).pdf,0,2000-01-01 01:00:00,2016-04-03 02:51:08,http://ars.els-cdn.com/content/image/3-s2.0-B9780121795023X50018-cov150h.gif,,
15309892,The Conservation of Insects and their Habitats,,,,N.M. Collins (Eds.),1991,,,,453,0,English,,,,"978-0-12-181370-3,9780121813703",,,,,,,,,,,0,,,,,,,1,6458435,pdf,8d6503475eb99725a5cc5b33d7652098,,,A:\\_for_add\\1\\SD\\9780121813703 (23).pdf,0,2000-01-01 01:00:00,2016-04-03 02:51:08,http://ars.els-cdn.com/content/image/3-s2.0-B9780121813703X50015-cov150h.gif,,
15309893,Particle Accelerator Design: Computer Programs,,,,John Colonias (Auth.),1974,,,,309,0,English,,,,"978-0-12-181550-9,9780121815509",,,,,,,,,,,0,,,,,,,1,7850982,pdf,31db3f67c13e2b001cdb207b25717b73,,,A:\\_for_add\\1\\SD\\9780121815509 (20).pdf,0,2000-01-01 01:00:00,2016-04-03 02:51:08,http://ars.els-cdn.com/content/image/3-s2.0-B9780121815509X50019-cov150h.gif,,
15309894,Introduction to Infrared and Raman Spectroscopy,,,,Norman Colthup (Auth.),1975,,,,527,0,English,,,,"978-0-12-182552-2,9780121825522",,,,,,,,,,,0,,,,,,,1,8695959,pdf,a17c9c8c2c45b726aa3b71cf4ade7233,,,A:\\_for_add\\1\\SD\\9780121825522 (18).pdf,0,2000-01-01 01:00:00,2016-04-03 02:51:08,http://ars.els-cdn.com/content/image/3-s2.0-B9780121825522X50013-cov150h.gif,,
15309895,Introduction to Infrared and Raman Spectroscopy,,,,"Norman B. Colthup, Lawrence H. Daly and Stephen E. Wiberley (Auth.)",1990,,,,542,0,English,,,,"978-0-12-182554-6,9780121825546,0-12-182554-X",,,,,,,,,,,0,,,,,,,1,51878982,pdf,9a539c305f9215f11b5dcc0f4c6e8a13,,,A:\\_for_add\\1\\SD\\9780121825546 (18).pdf,0,2000-01-01 01:00:00,2016-04-03 02:51:08,http://ars.els-cdn.com/content/image/3-s2.0-C2009021628X-cov150h.gif,,
15309896,Neuroendocrine Peptide Methodology,,,,Michael Conn (Eds.),1989,,,,929,0,English,,,,"978-0-12-185150-7,9780121851507,0-12-185150-8",,,,,,,,,,,0,,,,,,,1,36891097,pdf,44c3e8bb9b254cd9d8f51011953482e7,,,A:\\_for_add\\1\\SD\\9780121851507 (64).pdf,0,2000-01-01 01:00:00,2016-04-03 02:51:08,http://ars.els-cdn.com/content/image/3-s2.0-B9780121851507X50015-cov150h.gif,,
15309897,Minimalist Mobile Robotics,,,,Jonathan H. Connell (Auth.),1990,,,,187,0,English,,,,"978-0-12-185230-6,9780121852306",,,,,,,,,,,0,,,,,,,1,2928861,pdf,3e274a80ee3a435b6720ea303baf09e3,,,A:\\_for_add\\1\\SD\\9780121852306 (15).pdf,0,2000-01-01 01:00:00,2016-04-03 02:51:08,http://ars.els-cdn.com/content/image/3-s2.0-C20090278731-cov150h.gif,,
15309898,Evolution of Particle Physics. A Volume Dedicated to Eduardo Amaldi on his Sixtieth Birthday,,,,M. Conversi (Eds.),1970,,,,361,0,English,,,,"978-0-12-186150-6,9780121861506",,,,,,,,,,,0,,,,,,,1,8228368,pdf,84cad1957e1fbf542de5b41b83c3c35a,,,A:\\_for_add\\1\\SD\\9780121861506 (33).pdf,0,2000-01-01 01:00:00,2016-04-03 02:51:08,http://ars.els-cdn.com/content/image/3-s2.0-B9780121861506X50018-cov150h.gif,,
15309899,Radar Signals. An Introduction to Theory and Application,,,,Charles Cook (Auth.),1967,,,,542,0,English,,,,"978-0-12-186750-8,9780121867508",,,,,,,,,,,0,,,,,,,1,11792928,pdf,d1858bd62c242652b53cb98cb6387559,,,A:\\_for_add\\1\\SD\\9780121867508 (24).pdf,0,2000-01-01 01:00:00,2016-04-03 02:51:08,http://ars.els-cdn.com/content/image/3-s2.0-B9780121867508X50017-cov150h.gif,,
15309900,"Microsomes, Drug Oxidations and Chemical Carcinogenesis",,,,Minor Coon (Eds.),1980,,,,615,0,English,,,,"978-0-12-187701-9,9780121877019,0-12-187701-9",,,,,,,,,,,0,,,,,,,1,35181377,pdf,f9ad62bf26964cc1154276b21ef1530e,,,A:\\_for_add\\1\\SD\\9780121877019 (123).pdf,0,2000-01-01 01:00:00,2016-04-03 02:51:08,http://ars.els-cdn.com/content/image/3-s2.0-B9780121877019X50013-cov150h.gif,,
15309901,"Microsomes, Drug Oxidations and Chemical Carcinogenesis",,,,Minor Coon (Eds.),1980,,,,633,0,English,,,,"978-0-12-187702-6,9780121877026,0-12-187702-7",,,,,,,,,,,0,,,,,,,1,63706973,pdf,b32a71c0232a9d338f9ff1eb7d8462ec,,,A:\\_for_add\\1\\SD\\9780121877026 (125).pdf,0,2000-01-01 01:00:00,2016-04-03 02:51:08,http://ars.els-cdn.com/content/image/3-s2.0-B9780121877026X50014-cov150h.gif,,
15309902,The Direct Detection of Microorganisms in Clinical Samples,,,,J. Donald Coonrod (Eds.),1983,,,,362,0,English,,,,"978-0-12-187780-4,9780121877804,0-12-187780-9",,,,,,,,,,,0,,,,,,,1,7133929,pdf,040ceee3d5e37d4645ee3d603a7d99f5,,,A:\\_for_add\\1\\SD\\9780121877804 (35).pdf,0,2000-01-01 01:00:00,2016-04-03 02:51:08,http://ars.els-cdn.com/content/image/3-s2.0-B9780121877804X50016-cov150h.gif,,
15309903,"The Islets of Langerhans. Biochemistry, Physiology, and Pathology",,,,S.J. Cooperstein (Eds.),1981,,,,492,0,English,,,,"978-0-12-187820-7,9780121878207,0-12-187820-1",,,,,,,,,,,0,,,,,,,1,9944488,pdf,880d76010ebd519fb88dcbd66a70cd0f,,,A:\\_for_add\\1\\SD\\9780121878207 (25).pdf,0,2000-01-01 01:00:00,2016-04-03 02:51:08,http://ars.els-cdn.com/content/image/3-s2.0-B9780121878207X50013-cov150h.gif,,
15309904,Bacterial Growth and Division. Biochemistry and Regulation of Prokaryotic and Eukaryotic Division Cycles,,,,Stephen Cooper (Auth.),1991,,,,509,0,English,,,,"978-0-12-187905-1,9780121879051,0-12-187905-4",,,,,,,,,,,0,,,,,,,1,12073402,pdf,6534f16f363ca6efb4e71c8cb36981ff,,,A:\\_for_add\\1\\SD\\9780121879051 (27).pdf,0,2000-01-01 01:00:00,2016-04-03 02:51:08,http://ars.els-cdn.com/content/image/3-s2.0-C20090026774-cov150h.gif,,
15309905,An Introduction to Animal Law,,,,"Cooper, Margaret E. (Auth.)",1988,,,,232,0,English,,,,"978-0-12-188030-9,9780121880309",,,,,,,,,,,0,,,,,,,1,3210877,pdf,627f8e29412679972159193db07302d9,,,A:\\_for_add\\1\\SD\\9780121880309 (24).pdf,0,2000-01-01 01:00:00,2016-04-03 02:51:08,http://ars.els-cdn.com/content/image/3-s2.0-C20090028335-cov150h.gif,,
15309906,Human Laterality,,,,Michael Corballis (Auth.),1983,,,,259,0,English,,,,"978-0-12-188180-1,9780121881801",,,,,,,,,,,0,,,,,,,1,6585205,pdf,fd7dde84856d53d7066e2f7a762ac886,,,A:\\_for_add\\1\\SD\\9780121881801 (17).pdf,0,2000-01-01 01:00:00,2016-04-03 02:51:08,http://ars.els-cdn.com/content/image/3-s2.0-B9780121881801X5001X-cov150h.gif,,
15309907,"ZZAAP!: Training ESD, FRI, and EMI",,,,M. Bruce Corp (Auth.),1990,,,,232,0,English,,,,"978-0-12-189930-1,9780121899301,0-12-189930-6",,,,,,,,,,,0,,,,,,,1,3303469,pdf,389141569e705ede15dca0cc3ff3a735,,,A:\\_for_add\\1\\SD\\9780121899301 (20).pdf,0,2000-01-01 01:00:00,2016-04-03 02:51:08,http://ars.els-cdn.com/content/image/3-s2.0-C20090291240-cov150h.gif,,
15309908,Ultrastructure of Rat Adenohypophysis. Correlation with Function,,,,Allen Costoff (Auth.),1973,,,,226,0,English,,,,"978-0-12-191550-6,9780121915506",,,,,,,,,,,0,,,,,,,1,15060073,pdf,758fdc49ff2b09d8bbf639a993ba7967,,,A:\\_for_add\\1\\SD\\9780121915506 (19).pdf,0,2000-01-01 01:00:00,2016-04-03 02:51:08,http://ars.els-cdn.com/content/image/3-s2.0-B9780121915506X50016-cov150h.gif,,
15309909,The Genus Coelomomyces,,,,John Couch (Eds.),1985,,,,408,0,English,,,,"978-0-12-192650-2,9780121926502",,,,,,,,,,,0,,,,,,,1,19429468,pdf,c4f467f8e81f0417860e2396c90c12aa,,,A:\\_for_add\\1\\SD\\9780121926502 (16).pdf,0,2000-01-01 01:00:00,2016-04-03 02:51:08,http://ars.els-cdn.com/content/image/3-s2.0-B9780121926502X50019-cov150h.gif,,
15309910,Solar and Terrestrial Radiation. Methods and Measurements,,,,Kinsell Coulson (Auth.),1975,,,,326,0,English,,,,"978-0-12-192950-3,9780121929503",,,,,,,,,,,0,,,,,,,1,10346881,pdf,3aa62425a0b6b6e9babcb5fb7fa65a5b,,,A:\\_for_add\\1\\SD\\9780121929503 (19).pdf,0,2000-01-01 01:00:00,2016-04-03 02:51:08,http://ars.els-cdn.com/content/image/3-s2.0-B9780121929503X50013-cov150h.gif,,
15309911,Developmental Regulation. Aspects of Cell Differentiation,,,,Stuart Coward (Eds.),1973,,,,268,0,English,,,,"978-0-12-194050-8,9780121940508",,,,,,,,,,,0,,,,,,,1,10318211,pdf,e19c95054930bfbb75d8e8326b0a48b1,,,A:\\_for_add\\1\\SD\\9780121940508 (16).pdf,0,2000-01-01 01:00:00,2016-04-03 02:51:08,http://ars.els-cdn.com/content/image/3-s2.0-B9780121940508X5001X-cov150h.gif,,
15309912,Treatment and Prevention of Alcohol Problems. A Resource Manual,,,,W. Miles Cox (Eds.),1986,,,,357,0,English,,,,"978-0-12-194470-4,9780121944704",,,,,,,,,,,0,,,,,,,1,5011951,pdf,d44f7fe41b6f1895a9b311ab4ebd40b0,,,A:\\_for_add\\1\\SD\\9780121944704 (20).pdf,0,2000-01-01 01:00:00,2016-04-03 02:51:08,http://ars.els-cdn.com/content/image/3-s2.0-C20090029055-cov150h.gif,,
15309913,ORD and CD in Chemistry and Biochemistry,,,,Pierre Crabbe (Auth.),1972,,,,231,0,English,,,,"978-0-12-194650-0,9780121946500",,,,,,,,,,,0,,,,,,,1,4016118,pdf,5a64c5067ad2401da5f7f56748c5f3d1,,,A:\\_for_add\\1\\SD\\9780121946500 (16).pdf,0,2000-01-01 01:00:00,2016-04-03 02:51:08,http://ars.els-cdn.com/content/image/3-s2.0-B9780121946500X50014-cov150h.gif,,
15309914,"Vascular Smooth Muscle: Metabolic, Ionic, and Contractile Mechanisms",,,,M.F. Crass (Eds.),1982,,,,208,0,English,,,,"978-0-12-195220-4,9780121952204,0-12-195220-7",,,,,,,,,,,0,,,,,,,1,4576948,pdf,72a8e9220a9d791438dab2d14f009ae6,,,A:\\_for_add\\1\\SD\\9780121952204 (12).pdf,0,2000-01-01 01:00:00,2016-04-03 02:51:08,http://ars.els-cdn.com/content/image/3-s2.0-B9780121952204X50016-cov150h.gif,,
15309915,Microcomputer Busses,,,,R. Cram (Auth.),1991,,,,242,0,English,,,,"978-0-12-196155-8,9780121961558,0-12-196155-9",,,,,,,,,,,0,,,,,,,1,7672211,pdf,85c133adc0c31da1ae4ef7bebe08e833,,,A:\\_for_add\\1\\SD\\9780121961558 (17).pdf,0,2000-01-01 01:00:00,2016-04-03 02:51:08,http://ars.els-cdn.com/content/image/3-s2.0-B9780121961558X50019-cov150h.gif,,
15309916,Horse Feeding and Nutrition,,,,Tony Cunha (Auth.),1980,,,,299,0,English,,,,"978-0-12-196560-0,9780121965600",,,,,,,,,,,0,,,,,,,1,12605747,pdf,b1532579ba34551537f53856fcf6afec,,,A:\\_for_add\\1\\SD\\9780121965600 (27).pdf,0,2000-01-01 01:00:00,2016-04-03 02:51:08,http://ars.els-cdn.com/content/image/3-s2.0-B9780121965600X50015-cov150h.gif,,
15309917,Reproduction in Domestic Animals,,,,Perry T. Cupps (Eds.),1990,,,,667,0,English,,,,"978-0-12-196575-4,9780121965754,0-12-196575-9",,,,,,,,,,,0,,,,,,,1,22623506,pdf,bdf5d05f59adf2e9437c237973f85b3c,,,A:\\_for_add\\1\\SD\\9780121965754 (26).pdf,0,2000-01-01 01:00:00,2016-04-03 02:51:08,http://ars.els-cdn.com/content/image/3-s2.0-C20090027056-cov150h.gif,,
15309918,Atomic Inner-Shell Processes,,,,Bernd Crasemann (Eds.),1975,,,,469,0,English,,,,"978-0-12-196901-1,9780121969011",,,,,,,,,,,0,,,,,,,1,18032789,pdf,44f378a308976cea5baac419770ce2dd,,,A:\\_for_add\\1\\SD\\9780121969011 (19).pdf,0,2000-01-01 01:00:00,2016-04-03 02:51:08,http://ars.els-cdn.com/content/image/3-s2.0-B9780121969011X50018-cov150h.gif,,
15309919,Fluid Environment of the Brain,,,,Helen Cserr (Eds.),1975,,,,283,0,English,,,,"978-0-12-197450-3,9780121974503",,,,,,,,,,,0,,,,,,,1,6220821,pdf,b87dee7b9d5ebd2e9e5031a54979c5e2,,,A:\\_for_add\\1\\SD\\9780121974503 (23).pdf,0,2000-01-01 01:00:00,2016-04-03 02:51:08,http://ars.els-cdn.com/content/image/3-s2.0-B9780121974503X50012-cov150h.gif,,
15309920,Lipoxygenases and their Products,,,,Stanley Crooke (Eds.),1991,,,,302,0,English,,,,"978-0-12-197800-6,9780121978006,0-12-197800-1",,,,,,,,,,,0,,,,,,,1,5473244,pdf,b838a87219a7e5c611580e5412dc08c0,,,A:\\_for_add\\1\\SD\\9780121978006 (16).pdf,0,2000-01-01 01:00:00,2016-04-03 02:51:08,http://ars.els-cdn.com/content/image/3-s2.0-B9780121978006X5001X-cov150h.gif,,
15309921,Dry Biological Systems,,,,John Crowe (Eds.),1978,,,,346,0,English,,,,"978-0-12-198080-1,9780121980801,0-12-198080-4",,,,,,,,,,,0,,,,,,,1,10971188,pdf,e2fec51ed6c2700ee1c8f6feb5899496,,,A:\\_for_add\\1\\SD\\9780121980801 (21).pdf,0,2000-01-01 01:00:00,2016-04-03 02:51:08,http://ars.els-cdn.com/content/image/3-s2.0-B9780121980801X50017-cov150h.gif,,
15309922,Laboratory Exercises in Developmental Biology,,,,Yolanda P. Cruz (Auth.),1993,,,,245,0,English,,,,"978-0-12-198390-1,9780121983901,0-12-198390-0",,,,,,,,,,,0,,,,,,,1,4283191,pdf,6aeb7097aacd1fc3433c235a08888b90,,,A:\\_for_add\\1\\SD\\9780121983901 (22).pdf,0,2000-01-01 01:00:00,2016-04-03 02:51:08,http://ars.els-cdn.com/content/image/3-s2.0-C20090035247-cov150h.gif,,
15309923,Extrachromosomal DNA,,,,Donald Cummings (Eds.),1979,,,,559,0,English,,,,"978-0-12-198780-0,9780121987800,0-12-198780-9",,,,,,,,,,,0,,,,,,,1,14830532,pdf,0ba8a0f6c1c395566af978f1e259c290,,,A:\\_for_add\\1\\SD\\9780121987800 (40).pdf,0,2000-01-01 01:00:00,2016-04-03 02:51:08,http://ars.els-cdn.com/content/image/3-s2.0-B9780121987800X50016-cov150h.gif,,
15309924,"Natural Resistance Systems Against Foreign Cells, Tumors, and Microbes",,,,Gustavo Cudkowicz (Eds.),1978,,,,291,0,English,,,,"978-0-12-199735-9,9780121997359,0-12-199735-9",,,,,,,,,,,0,,,,,,,1,5265877,pdf,902467af0b3e34b624193f49b4542d85,,,A:\\_for_add\\1\\SD\\9780121997359 (21).pdf,0,2000-01-01 01:00:00,2016-04-03 02:51:08,http://ars.els-cdn.com/content/image/3-s2.0-B9780121997359X50015-cov150h.gif,,
15309925,Catalysis in Coal Conversion,,,,James Cusumano (Auth.),1978,,,,270,0,English,,,,"978-0-12-199935-3,9780121999353",,,,,,,,,,,0,,,,,,,1,31977474,pdf,f90743b6e15c0618015f15f09a74ccf2,,,A:\\_for_add\\1\\SD\\9780121999353 (24).pdf,0,2000-01-01 01:00:00,2016-04-03 02:51:08,http://ars.els-cdn.com/content/image/3-s2.0-B9780121999353X50015-cov150h.gif,,
15309926,"Plasma Deposition, Treatment, and Etching of Polymers. The Treatment and Etching of Polymers",,,,"Riccardo d'Agostino, Daniel L. Flamm and Orlando Auciello (Eds.)",1990,,,,534,0,English,,,,"978-0-12-200430-8,9780122004308,0-12-200430-2",,,,,,,,,,,0,,,,,,,1,59938753,pdf,915c3bc4d64da06ff7f38f0fab456f0d,,,A:\\_for_add\\1\\SD\\9780122004308 (15).pdf,0,2000-01-01 01:00:00,2016-04-03 02:51:08,http://ars.els-cdn.com/content/image/3-s2.0-C20090222835-cov150h.gif,,
15309927,Introduction to Electron and Ion Optics,,,,Poul Dahl (Auth.),1973,,,,150,0,English,,,,"978-0-12-200650-0,9780122006500,0-12-200650-X",,,,,,,,,,,0,,,,,,,1,5651559,pdf,3917ef087a1254461ce1a85af5237ff8,,,A:\\_for_add\\1\\SD\\9780122006500 (13).pdf,0,2000-01-01 01:00:00,2016-04-03 02:51:08,http://ars.els-cdn.com/content/image/3-s2.0-B9780122006500X50016-cov150h.gif,,
15309928,The Auditory Periphery Biophysics and Physiology,,,,Peter Dallos (Auth.),1973,,,,553,0,English,,,,"978-0-12-200750-7,9780122007507",,,,,,,,,,,0,,,,,,,1,9725851,pdf,2a959a5fa6a3faad918e211e209c66df,,,A:\\_for_add\\1\\SD\\9780122007507 (14).pdf,0,2000-01-01 01:00:00,2016-04-03 02:51:08,http://ars.els-cdn.com/content/image/3-s2.0-B9780122007507X50010-cov150h.gif,,
15309929,External Senses,,,,A.C. Damask (Auth.),1981,,,,280,0,English,,,,"978-0-12-201202-0,9780122012020",,,,,,,,,,,0,,,,,,,1,5404506,pdf,e68a704eb3e22a895a533eaa231411a8,,,A:\\_for_add\\1\\SD\\9780122012020 (14).pdf,0,2000-01-01 01:00:00,2016-04-03 02:51:08,http://ars.els-cdn.com/content/image/3-s2.0-B9780122012020X50019-cov150h.gif,,
15309930,"Synapse, Neuron, Brain",,,,A.C. Damask (Auth.),1984,,,,342,0,English,,,,"978-0-12-201203-7,9780122012037,0-12-201203-8",,,,,,,,,,,0,,,,,,,1,6264041,pdf,a83076e84615a6c9f9739eb761686a64,,,A:\\_for_add\\1\\SD\\9780122012037 (25).pdf,0,2000-01-01 01:00:00,2016-04-03 02:51:08,http://ars.els-cdn.com/content/image/3-s2.0-B9780122012037X50014-cov150h.gif,,
15309931,Methods in Mammalian Reproduction,,,,"Joseph C. Daniel, Jr. (Eds.)",1978,,,,554,0,English,,,,"978-0-12-201850-3,9780122018503",,,,,,,,,,,0,,,,,,,1,20027924,pdf,3b85f8a921e02136c0aa51d06ce710e4,,,A:\\_for_add\\1\\SD\\9780122018503 (31).pdf,0,2000-01-01 01:00:00,2016-04-03 02:51:08,http://ars.els-cdn.com/content/image/3-s2.0-B9780122018503X50013-cov150h.gif,,
15309932,Films on Solid Surfaces. The Physics and Chemistry of Physical Adsorption,,,,J.G. Dash (Auth.),1975,,,,274,0,English,,,,"978-0-12-203350-6,9780122033506",,,,,,,,,,,0,,,,,,,1,3957699,pdf,41c9bc22f3baad5720f0a67328f46707,,,A:\\_for_add\\1\\SD\\9780122033506 (16).pdf,0,2000-01-01 01:00:00,2016-04-03 02:51:08,http://ars.els-cdn.com/content/image/3-s2.0-B9780122033506X50014-cov150h.gif,,
15309933,Molecular Biology of the Skin. The Keratinocyte,,,,Michael Darmon and Miroslav Blumenberg (Eds.),1993,,,,297,0,English,,,,"978-0-12-203455-8,9780122034558,0-12-203455-4",,,,,,,,,,,0,,,,,,,1,6704339,pdf,4f0e560facb478612bc2fb9b166201d1,,,A:\\_for_add\\1\\SD\\9780122034558 (15).pdf,0,2000-01-01 01:00:00,2016-04-03 02:51:08,http://ars.els-cdn.com/content/image/3-s2.0-C20090033625-cov150h.gif,,
15309934,Protein Transfer and Organelle Biogenesis,,,,Rathindra C. Das (Eds.),1988,,,,837,0,English,,,,"978-0-12-203460-2,9780122034602,0-12-203460-0",,,,,,,,,,,0,,,,,,,1,15119169,pdf,a589c9093ae86a0bb6793d3e388a788a,,,A:\\_for_add\\1\\SD\\9780122034602 (24).pdf,0,2000-01-01 01:00:00,2016-04-03 02:51:08,http://ars.els-cdn.com/content/image/3-s2.0-B9780122034602X5001X-cov150h.gif,,
15309935,Plant Geography. With Special Reference to North America,,,,Rexford Daubenmire (Auth.),1978,,,,338,0,English,,,,"978-0-12-204150-1,9780122041501,0-12-204150-X",,,,,,,,,,,0,,,,,,,1,10918863,pdf,cb10a868ccc2990aa26dadcdad23f414,,,A:\\_for_add\\1\\SD\\9780122041501 (9).pdf,0,2000-01-01 01:00:00,2016-04-03 02:51:08,http://ars.els-cdn.com/content/image/3-s2.0-B9780122041501X50012-cov150h.gif,,
15309936,"Alkali Halide Vapors. Structure, Spectra, and Reaction Dynamic",,,,P. Davidovits (Eds.),1979,,,,540,0,English,,,,"978-0-12-204250-8,9780122042508,0-12-204250-6",,,,,,,,,,,0,,,,,,,1,9126123,pdf,a34edca95ae3641e36dca84ecf4b2831,,,A:\\_for_add\\1\\SD\\9780122042508 (22).pdf,0,2000-01-01 01:00:00,2016-04-03 02:51:08,http://ars.els-cdn.com/content/image/3-s2.0-B9780122042508X50017-cov150h.gif,,
15309937,Regulation of Ventilation and Gas Exchange,,,,Donald Davies (Eds.),1978,,,,312,0,English,,,,"978-0-12-204650-6,9780122046506,0-12-204650-1",,,,,,,,,,,0,,,,,,,1,5479997,pdf,9e5f909e8aa46a925f3cdd6d345505d8,,,A:\\_for_add\\1\\SD\\9780122046506 (15).pdf,0,2000-01-01 01:00:00,2016-04-03 02:51:08,http://ars.els-cdn.com/content/image/3-s2.0-B9780122046506X50011-cov150h.gif,,
15309938,Differences in Visual Perception. The Individual Eye,,,,Jules Davidoff (Auth.),1975,,,,239,0,English,,,,"978-0-12-204850-0,9780122048500,0-12-204850-4",,,,,,,,,,,0,,,,,,,1,7512489,pdf,67098ca59f3bc6670bebcfd09fb377fc,,,A:\\_for_add\\1\\SD\\9780122048500 (11).pdf,0,2000-01-01 01:00:00,2016-04-03 02:51:08,http://ars.els-cdn.com/content/image/3-s2.0-B9780122048500X50011-cov150h.gif,,
15309939,Gene Activity in Early Development,,,,Eric H. Davidson (Auth.),1976,,,,451,0,English,,,,"978-0-12-205160-9,9780122051609",,,,,,,,,,,0,,,,,,,1,12375554,pdf,61e69acbd5393759f1ebc5f088040081,,,A:\\_for_add\\1\\SD\\9780122051609 (14).pdf,0,2000-01-01 01:00:00,2016-04-03 02:51:08,http://ars.els-cdn.com/content/image/3-s2.0-B9780122051609X50015-cov150h.gif,,
15309940,Gene Activity in Early Development,,,,Arnold I. Davidson (Auth.),1986,,,,677,0,English,,,,"978-0-12-205161-6,9780122051616",,,,,,,,,,,0,,,,,,,1,20746285,pdf,c4f69b6f7b7e616e20a23131a41768bc,,,A:\\_for_add\\1\\SD\\9780122051616 (16).pdf,0,2000-01-01 01:00:00,2016-04-03 02:51:08,http://ars.els-cdn.com/content/image/3-s2.0-C20090029080-cov150h.gif,,
15309941,Interfacial Phenomena,,,,J.T. Davies (Auth.),1961,,,,494,0,English,,,,"978-0-12-206056-4,9780122060564",,,,,,,,,,,0,,,,,,,1,8562873,pdf,81018dbf5b9a79b2148a698d641ad293,,,A:\\_for_add\\1\\SD\\9780122060564 (15).pdf,0,2000-01-01 01:00:00,2016-04-03 02:51:08,http://ars.els-cdn.com/content/image/3-s2.0-B9780122060564X50012-cov150h.gif,,
15309942,"Turbulence Phenomena. An Introduction to the Eddy Transfer of Momentum, Mass, and Heat, Particularly at Interfaces",,,,J.T. Davies (Auth.),1972,,,,417,0,English,,,,"978-0-12-206070-0,9780122060700",,,,,,,,,,,0,,,,,,,1,6867703,pdf,47661367e04d521e0831e295f095eea7,,,A:\\_for_add\\1\\SD\\9780122060700 (26).pdf,0,2000-01-01 01:00:00,2016-04-03 02:51:08,http://ars.els-cdn.com/content/image/3-s2.0-B9780122060700X50019-cov150h.gif,,
15309943,Biotransformations in Preparative Organic Chemistry. The Use of Isolated Enzymes and Whole Cell Systems in Synthesis,,,,"H. G. Davies, Ralph Green, D. R. Kelly and Stanley M. Roberts (Auth.)",1989,,,,271,0,English,,,,"978-0-12-206230-8,9780122062308,0-12-206230-2",,,,,,,,,,,0,,,,,,,1,4368663,pdf,a9d7afabf0fc95e5a7b47fdfe7f4cd86,,,A:\\_for_add\\1\\SD\\9780122062308 (11).pdf,0,2000-01-01 01:00:00,2016-04-03 02:51:08,http://ars.els-cdn.com/content/image/3-s2.0-C20090216953-cov150h.gif,,
15309944,Computer Programming in Quantitative Biology,,,,R.G. Davies (Auth.),1971,,,,496,0,English,,,,"978-0-12-206250-6,9780122062506,0-12-206250-7",,,,,,,,,,,0,,,,,,,1,6629380,pdf,7769837791e83e3c4acf1781aa0b9c85,,,A:\\_for_add\\1\\SD\\9780122062506 (21).pdf,0,2000-01-01 01:00:00,2016-04-03 02:51:08,http://ars.els-cdn.com/content/image/3-s2.0-B9780122062506X50012-cov150h.gif,,
15309945,Biochemical Correlates of Brain Structure and Function,,,,A.N. Davison (Eds.),1977,,,,344,0,English,,,,"978-0-12-206650-4,9780122066504",,,,,,,,,,,0,,,,,,,1,7810249,pdf,33295691646e80338ca7ad0fa89dfd4f,,,A:\\_for_add\\1\\SD\\9780122066504 (14).pdf,0,2000-01-01 01:00:00,2016-04-03 02:51:08,http://ars.els-cdn.com/content/image/3-s2.0-B9780122066504X50017-cov150h.gif,,
15309946,"Light Transducing Membranes. Structure, Function, and Evolution",,,,David Deamer (Eds.),1978,,,,354,0,English,,,,"978-0-12-207650-3,9780122076503,0-12-207650-8",,,,,,,,,,,0,,,,,,,1,9351943,pdf,ece1071cf5766d364e7bc06409965a85,,,A:\\_for_add\\1\\SD\\9780122076503 (25).pdf,0,2000-01-01 01:00:00,2016-04-03 02:51:08,http://ars.els-cdn.com/content/image/3-s2.0-B9780122076503X5001X-cov150h.gif,,
15309947,"Environmental Control of Cell Synthesis and Function. The 5th International symposium on the Continuous Culture of Micro-Organisms, Held at St. Catherine's College, University of Oxford, July 1971",,,,A. Dean (Eds.),1972,,,,311,0,English,,,,"978-0-12-208050-0,9780122080500,0-12-208050-5",,,,,,,,,,,0,,,,,,,1,6147077,pdf,92589f05a60851b014b60d9538819943,,,A:\\_for_add\\1\\SD\\9780122080500 (22).pdf,0,2000-01-01 01:00:00,2016-04-03 02:51:08,http://ars.els-cdn.com/content/image/3-s2.0-B9780122080500X50013-cov150h.gif,,
15309948,Inversion Methods in Atmospheric Remote Sounding,,,,Adarsh Deepak (Eds.),1977,,,,617,0,English,,,,"978-0-12-208450-8,9780122084508,0-12-208450-0",,,,,,,,,,,0,,,,,,,1,7092659,pdf,cb143049789e14745f434f1b651ddb70,,,A:\\_for_add\\1\\SD\\9780122084508 (29).pdf,0,2000-01-01 01:00:00,2016-04-03 02:51:08,http://ars.els-cdn.com/content/image/3-s2.0-B9780122084508X50012-cov150h.gif,,
15309949,Remote Sensing of Atmospheres and Oceans,,,,Adarsh Deepak (Eds.),1980,,,,634,0,English,,,,"978-0-12-208460-7,9780122084607,0-12-208460-8",,,,,,,,,,,0,,,,,,,1,10199097,pdf,0dd9f7b822fa5d4998e5988880d1153d,,,A:\\_for_add\\1\\SD\\9780122084607 (31).pdf,0,2000-01-01 01:00:00,2016-04-03 02:51:08,http://ars.els-cdn.com/content/image/3-s2.0-B9780122084607X50018-cov150h.gif,,
15309950,Central Cholinergic Systems and Behaviour,,,,F. DeFeudis (Auth.),1974,,,,225,0,English,,,,"978-0-12-208750-9,9780122087509",,,,,,,,,,,0,,,,,,,1,7115088,pdf,b0b7147ff88ac827540cd6ff6dd843dd,,,A:\\_for_add\\1\\SD\\9780122087509 (15).pdf,0,2000-01-01 01:00:00,2016-04-03 02:51:08,http://ars.els-cdn.com/content/image/3-s2.0-B9780122087509X50017-cov150h.gif,,
15309951,Pediatric Disorders of Regulation in Affect and Behavior. A Therapist's Guide to Assessment and Treatment,,,,"Georgia DeGangi, PhD (Auth.)",2000,,,,370,0,English,,,,"978-0-12-208770-7,9780122087707",,,,,,,,,,,0,,,,,,,1,9813626,pdf,9353ee191198107d3aa189f18690c44e,,,A:\\_for_add\\1\\SD\\9780122087707 (14).pdf,0,2000-01-01 01:00:00,2016-04-03 02:51:08,http://ars.els-cdn.com/content/image/3-s2.0-B9780122087707X50006-cov150h.gif,,
15309952,Excited State Lifetime Measurements,,,,J. Demas (Auth.),1983,,,,276,0,English,,,,"978-0-12-208920-6,9780122089206",,,,,,,,,,,0,,,,,,,1,3728813,pdf,74c6fdd326c6f1348e22a59ed2472c07,,,A:\\_for_add\\1\\SD\\9780122089206 (22).pdf,0,2000-01-01 01:00:00,2016-04-03 02:51:08,http://ars.els-cdn.com/content/image/3-s2.0-B9780122089206X50010-cov150h.gif,,
15309953,Molecular Biology of the Male Reproductive System,,,,David de Kretser (Eds.),1993,,,,484,0,English,,,,"978-0-12-209030-1,9780122090301,0-12-209030-6",,,,,,,,,,,0,,,,,,,1,9495117,pdf,0510ab2d7fd97d3fb4b9d5770ca15a6e,,,A:\\_for_add\\1\\SD\\9780122090301 (18).pdf,0,2000-01-01 01:00:00,2016-04-03 02:51:08,http://ars.els-cdn.com/content/image/3-s2.0-C20090033649-cov150h.gif,,
15309954,Variable Plants and Herbivores in Natural and Managed Systems,,,,Robert Denno (Eds.),1983,,,,716,0,English,,,,"978-0-12-209160-5,9780122091605,0-12-209160-4",,,,,,,,,,,0,,,,,,,1,11797374,pdf,f30ce7396f7d678fb7073e547ede320f,,,A:\\_for_add\\1\\SD\\9780122091605 (29).pdf,0,2000-01-01 01:00:00,2016-04-03 02:51:08,http://ars.els-cdn.com/content/image/3-s2.0-B9780122091605X50016-cov150h.gif,,
15309955,Ethylenimine and Other Aziridines. Chemistry and Applications,,,,O. Dermer (Auth.),1969,,,,598,0,English,,,,"978-0-12-209650-1,9780122096501",,,,,,,,,,,0,,,,,,,1,7171498,pdf,f31f4bc626faa46291b739e8c29e118a,,,A:\\_for_add\\1\\SD\\9780122096501 (15).pdf,0,2000-01-01 01:00:00,2016-04-03 02:51:08,http://ars.els-cdn.com/content/image/3-s2.0-B9780122096501X50015-cov150h.gif,,
15309956,Olfaction and Taste: 5th Symposium,,,,Derek Denton (Eds.),1975,,,,406,0,English,,,,"978-0-12-209750-8,9780122097508",,,,,,,,,,,0,,,,,,,1,12473663,pdf,3d9fcf1b3eab9f3a42764f739981cac4,,,A:\\_for_add\\1\\SD\\9780122097508 (83).pdf,0,2000-01-01 01:00:00,2016-04-03 02:51:08,http://ars.els-cdn.com/content/image/3-s2.0-B9780122097508X5001X-cov150h.gif,,
15309957,Sample Size Methodology,,,,M. M. Desu (Auth.),1990,,,,135,0,English,,,,"978-0-12-212165-4,9780122121654,0-12-212165-1",,,,,,,,,,,0,,,,,,,1,1837814,pdf,e61cc513080edd94d3605b10140b2b0b,,,A:\\_for_add\\1\\SD\\9780122121654 (17).pdf,0,2000-01-01 01:00:00,2016-04-03 02:51:08,http://ars.els-cdn.com/content/image/3-s2.0-C20090222987-cov150h.gif,,
15309958,The Physiological Basis of Memory,,,,J. Anthony Deutsch (Eds.),1983,,,,434,0,English,,,,"978-0-12-213460-9,9780122134609,0-12-213460-5",,,,,,,,,,,0,,,,,,,1,87022668,pdf,ad25ff4903748f084b63f8fd5e7d5faf,,,A:\\_for_add\\1\\SD\\9780122134609 (17).pdf,0,2000-01-01 01:00:00,2016-04-03 02:51:08,http://ars.els-cdn.com/content/image/3-s2.0-B9780122134609X50011-cov150h.gif,,
15309959,"Handbook of Naturally Occurring Compounds. Volume 1: Acetogenins, Shikimates, and Carbohydrates",,,,T.K. Devon (Auth.),1975,,,,636,0,English,,,,"978-0-12-213601-6,9780122136016",,,,,,,,,,,0,,,,,,,1,12405701,pdf,58a53924437ee0f56b585af14209b2ff,,,A:\\_for_add\\1\\SD\\9780122136016 (17).pdf,0,2000-01-01 01:00:00,2016-04-03 02:51:08,http://ars.els-cdn.com/content/image/3-s2.0-B9780122136016X5001X-cov150h.gif,,
15309960,Handbook of Naturally Occurring Compounds. Volume 2: Terpenes,,,,T.K. Devon (Auth.),1972,,,,579,0,English,,,,"978-0-12-213602-3,9780122136023",,,,,,,,,,,0,,,,,,,1,8979233,pdf,d3e5ea7fce78ec36f99ae6609e0c2a9a,,,A:\\_for_add\\1\\SD\\9780122136023 (19).pdf,0,2000-01-01 01:00:00,2016-04-03 02:51:08,http://ars.els-cdn.com/content/image/3-s2.0-B9780122136023X50010-cov150h.gif,,
15309961,Biology of Plant Litter Decomposition. Volume 1,,,,C.H. Dickinson (Eds.),1974,,,,321,0,English,,,,"978-0-12-215001-2,9780122150012,0-12-215001-5",,,,,,,,,,,0,,,,,,,1,6349646,pdf,8fb02ebeb26202febc028dfe15f1c512,,,A:\\_for_add\\1\\SD\\9780122150012 (15).pdf,0,2000-01-01 01:00:00,2016-04-03 02:51:08,http://ars.els-cdn.com/content/image/3-s2.0-B9780122150012X50016-cov150h.gif,,
15309962,Biology of Plant Litter Decomposition. Volume 2,,,,C.H. Dickinson (Eds.),1974,,,,605,0,English,,,,"978-0-12-215002-9,9780122150029,0-12-215002-3",,,,,,,,,,,0,,,,,,,1,17649273,pdf,c1e844687280f161e01e2573c6d2f247,,,A:\\_for_add\\1\\SD\\9780122150029 (25).pdf,0,2000-01-01 01:00:00,2016-04-03 02:51:08,http://ars.els-cdn.com/content/image/3-s2.0-B9780122150029X50011-cov150h.gif,,
15309963,Microbiology of Aerial Plant Surfaces,,,,C.H. Dickinson (Eds.),1976,,,,658,0,English,,,,"978-0-12-215050-0,9780122150500",,,,,,,,,,,0,,,,,,,1,13471939,pdf,58e0c20620da2f7fbc084af96c2a2eb8,,,A:\\_for_add\\1\\SD\\9780122150500 (35).pdf,0,2000-01-01 01:00:00,2016-04-03 02:51:08,http://ars.els-cdn.com/content/image/3-s2.0-B9780122150500X50012-cov150h.gif,,
15309964,The Role of Insectivorous Birds in Forest Ecosystems,,,,James G. Dickson (Eds.),1979,,,,378,0,English,,,,"978-0-12-215350-1,9780122153501,0-12-215350-2",,,,,,,,,,,0,,,,,,,1,6372041,pdf,1eba63e5651364641c39a7aa23131778,,,A:\\_for_add\\1\\SD\\9780122153501 (25).pdf,0,2000-01-01 01:00:00,2016-04-03 02:51:08,http://ars.els-cdn.com/content/image/3-s2.0-B9780122153501X50017-cov150h.gif,,
15309965,Cell Reproduction. In honor of Daniel Mazia,,,,Ellen Dirksen (Eds.),1978,,,,696,0,English,,,,"978-0-12-217850-4,9780122178504,0-12-217850-5",,,,,,,,,,,0,,,,,,,1,23124110,pdf,722de723cff7d57c3447fef801547d82,,,A:\\_for_add\\1\\SD\\9780122178504 (69).pdf,0,2000-01-01 01:00:00,2016-04-03 02:51:08,http://ars.els-cdn.com/content/image/3-s2.0-B9780122178504X50011-cov150h.gif,,
15309966,Conformal Invariance and String Theory,,,,Petre Dita (Eds.),1989,,,,553,0,English,,,,"978-0-12-218100-9,9780122181009,0-12-218100-X",,,,,,,,,,,0,,,,,,,1,9837807,pdf,a583cc30877e9b836cc071d047b9404b,,,A:\\_for_add\\1\\SD\\9780122181009 (25).pdf,0,2000-01-01 01:00:00,2016-04-03 02:51:08,http://ars.els-cdn.com/content/image/3-s2.0-B9780122181009X50018-cov150h.gif,,
15309967,The Fine Structure of Algal Cells,,,,John D. Dodge (Auth.),1973,,,,259,0,English,,,,"978-0-12-219150-3,9780122191503",,,,,,,,,,,0,,,,,,,1,13388106,pdf,8d3f141cad21ede2737ceaadf5f537c8,,,A:\\_for_add\\1\\SD\\9780122191503 (22).pdf,0,2000-01-01 01:00:00,2016-04-03 02:51:08,http://ars.els-cdn.com/content/image/3-s2.0-B9780122191503X50018-cov150h.gif,,
15309968,The Radiation Chemistry of Macromolecules,,,,Malcolm Dole (Eds.),1972,,,,367,0,English,,,,"978-0-12-219801-4,9780122198014",,,,,,,,,,,0,,,,,,,1,7499016,pdf,a8335eae21c7299594ce653a9c2b2a8c,,,A:\\_for_add\\1\\SD\\9780122198014 (22).pdf,0,2000-01-01 01:00:00,2016-04-03 02:51:08,http://ars.els-cdn.com/content/image/3-s2.0-B9780122198014X50010-cov150h.gif,,
15309969,"The Porphyrins. Structure and Synthesis, Part A",,,,David Dolphin (Eds.),1978,,,,648,0,English,,,,"978-0-12-220101-1,9780122201011,0-12-220101-9",,,,,,,,,,,0,,,,,,,1,10575369,pdf,b04ab11600de375b6e1ba9dc52876f6b,,,A:\\_for_add\\1\\SD\\9780122201011 (22).pdf,0,2000-01-01 01:00:00,2016-04-03 02:51:08,http://ars.els-cdn.com/content/image/3-s2.0-B9780122201011X5001X-cov150h.gif,,
15309970,"The Porphyrins. Structure and Synthesis, Part B",,,,David Dolphin (Eds.),1978,,,,443,0,English,,,,"978-0-12-220102-8,9780122201028",,,,,,,,,,,0,,,,,,,1,6216828,pdf,bff86a071db74a97db1033bc930928a6,,,A:\\_for_add\\1\\SD\\9780122201028 (19).pdf,0,2000-01-01 01:00:00,2016-04-03 02:51:08,http://ars.els-cdn.com/content/image/3-s2.0-B9780122201028X50015-cov150h.gif,,
15309971,"The Porphyrins. Physical Chemistry, Part A",,,,David Dolphin (Eds.),1978,,,,640,0,English,,,,"978-0-12-220103-5,9780122201035",,,,,,,,,,,0,,,,,,,1,10665715,pdf,1e35c4e4814bfaf8ccd1582dd7d4a113,,,A:\\_for_add\\1\\SD\\9780122201035 (21).pdf,0,2000-01-01 01:00:00,2016-04-03 02:51:08,http://ars.els-cdn.com/content/image/3-s2.0-B9780122201035X50016-cov150h.gif,,
15309972,"The Porphyrins. Physical Chemistry, Part B",,,,David Dolphin (Eds.),1979,,,,534,0,English,,,,"978-0-12-220104-2,9780122201042",,,,,,,,,,,0,,,,,,,1,8481682,pdf,8ee8f368ddb7515154cc700858ad0b53,,,A:\\_for_add\\1\\SD\\9780122201042 (18).pdf,0,2000-01-01 01:00:00,2016-04-03 02:51:08,http://ars.els-cdn.com/content/image/3-s2.0-B9780122201042X50017-cov150h.gif,,
15309973,"The Porphyrins. Physical Chemistry, Part C",,,,David Dolphin (Eds.),1978,,,,553,0,English,,,,"978-0-12-220105-9,9780122201059",,,,,,,,,,,0,,,,,,,1,8901596,pdf,84982a88ee1e8b5313cff86c335d6765,,,A:\\_for_add\\1\\SD\\9780122201059 (20).pdf,0,2000-01-01 01:00:00,2016-04-03 02:51:08,http://ars.els-cdn.com/content/image/3-s2.0-B9780122201059X50012-cov150h.gif,,
15309974,"The Porphyrins. Biochemistry, Part A",,,,David Dolphin (Eds.),1979,,,,942,0,English,,,,"978-0-12-220106-6,9780122201066",,,,,,,,,,,0,,,,,,,1,14223989,pdf,a1df2638a98c290e1d5cae8712dfb7a4,,,A:\\_for_add\\1\\SD\\9780122201066 (21).pdf,0,2000-01-01 01:00:00,2016-04-03 02:51:08,http://ars.els-cdn.com/content/image/3-s2.0-B9780122201066X50013-cov150h.gif,,
15309975,"The Porphyrins. Biochemistry, Part B",,,,David Dolphin (Eds.),1979,,,,561,0,English,,,,"978-0-12-220107-3,9780122201073",,,,,,,,,,,0,,,,,,,1,8649368,pdf,890213b60c967344f673a22a15f7682e,,,A:\\_for_add\\1\\SD\\9780122201073 (20).pdf,0,2000-01-01 01:00:00,2016-04-03 02:51:08,http://ars.els-cdn.com/content/image/3-s2.0-B9780122201073X50014-cov150h.gif,,
15309976,"Mammalian Olfaction, Reproductive Processes, and Behavior",,,,Richard Doty (Eds.),1976,,,,342,0,English,,,,"978-0-12-221250-5,9780122212505",,,,,,,,,,,0,,,,,,,1,8249475,pdf,c7326607ea53866b62d8851b0e2511ae,,,A:\\_for_add\\1\\SD\\9780122212505 (22).pdf,0,2000-01-01 01:00:00,2016-04-03 02:51:08,http://ars.els-cdn.com/content/image/3-s2.0-B9780122212505X50013-cov150h.gif,,
15309977,"Mitochondria in Higher Plants. Structure, Function, and Biogenesis",,,,Roland Douce (Auth.),1985,,,,334,0,English,,,,"978-0-12-221280-2,9780122212802",,,,,,,,,,,0,,,,,,,1,10428689,pdf,008f2432d9acde14d76db9c8b5eb8b8b,,,A:\\_for_add\\1\\SD\\9780122212802 (14).pdf,0,2000-01-01 01:00:00,2016-04-03 02:51:08,http://ars.els-cdn.com/content/image/3-s2.0-B9780122212802X5001X-cov150h.gif,,
15309978,Symmetry in Bonding and Spectra. An Introduction,,,,Bodie E. Douglas and Charles A. Hollingsworth (Auth.),1985,,,,459,0,English,,,,"978-0-12-221340-3,9780122213403,0-12-221340-8",,,,,,,,,,,0,,,,,,,1,7660251,pdf,2024a01390edc5cbcc8e535a13619500,,,A:\\_for_add\\1\\SD\\9780122213403 (19).pdf,0,2000-01-01 01:00:00,2016-04-03 02:51:08,http://ars.els-cdn.com/content/image/3-s2.0-C20090218319-cov150h.gif,,
15309979,Environment and the Experimental Control of Plant Growth,,,,R.J. Downs (Auth.),1975,,,,147,0,English,,,,"978-0-12-221450-9,9780122214509",,,,,,,,,,,0,,,,,,,1,4557127,pdf,cedf806c9db52b835a212ba77cc9eda3,,,A:\\_for_add\\1\\SD\\9780122214509 (13).pdf,0,2000-01-01 01:00:00,2016-04-03 02:51:08,http://ars.els-cdn.com/content/image/3-s2.0-B9780122214509X50018-cov150h.gif,,
15309980,Underwater Research,,,,E.A. Drew (Eds.),1976,,,,421,0,English,,,,"978-0-12-221950-4,9780122219504",,,,,,,,,,,0,,,,,,,1,9422125,pdf,52e5b380ac07e6eb73c881b9013caa5c,,,A:\\_for_add\\1\\SD\\9780122219504 (29).pdf,0,2000-01-01 01:00:00,2016-04-03 02:51:08,http://ars.els-cdn.com/content/image/3-s2.0-B9780122219504X50012-cov150h.gif,,
15309981,The Study of Prosimian Behavior,,,,G.A. Doyle (Eds.),1979,,,,698,0,English,,,,"978-0-12-222150-7,9780122221507,0-12-222150-8",,,,,,,,,,,0,,,,,,,1,14415774,pdf,c64652734fa95687089abdd0ea2ffa2e,,,A:\\_for_add\\1\\SD\\9780122221507 (21).pdf,0,2000-01-01 01:00:00,2016-04-03 02:51:08,http://ars.els-cdn.com/content/image/3-s2.0-B9780122221507X50016-cov150h.gif,,
15309982,The Functions of Sleep,,,,Rene Drucker-Colin (Eds.),1979,,,,298,0,English,,,,"978-0-12-222340-2,9780122223402,0-12-222340-3",,,,,,,,,,,0,,,,,,,1,5145756,pdf,2af609177eeaff9db87a1ac0d230d28e,,,A:\\_for_add\\1\\SD\\9780122223402 (18).pdf,0,2000-01-01 01:00:00,2016-04-03 02:51:08,http://ars.els-cdn.com/content/image/3-s2.0-B9780122223402X50010-cov150h.gif,,
15309983,Neurobiology of Sleep and Memory,,,,James McGaugh (Eds.),1977,,,,456,0,English,,,,"978-0-12-222350-1,9780122223501",,,,,,,,,,,0,,,,,,,1,7572638,pdf,64983d8b728603b3aeb925fe47bbce76,,,A:\\_for_add\\1\\SD\\9780122223501 (30).pdf,0,2000-01-01 01:00:00,2016-04-03 02:51:08,http://ars.els-cdn.com/content/image/3-s2.0-B9780122223501X50016-cov150h.gif,,
15309984,Biological Electrochemistry,,,,Glenn Dryhurst (Auth.),1982,,,,551,0,English,,,,"978-0-12-222401-0,9780122224010",,,,,,,,,,,0,,,,,,,1,8302579,pdf,cfe9b67ffa1fe14a7c014465e5eb197c,,,A:\\_for_add\\1\\SD\\9780122224010 (12).pdf,0,2000-01-01 01:00:00,2016-04-03 02:51:08,http://ars.els-cdn.com/content/image/3-s2.0-B9780122224010X5001X-cov150h.gif,,
15309985,Electrochemistry of Biological Molecules,,,,Glenn Dryhurst (Auth.),1977,,,,605,0,English,,,,"978-0-12-222650-2,9780122226502",,,,,,,,,,,0,,,,,,,1,8697145,pdf,29fa505ab520929fe8b2e1ab165be437,,,A:\\_for_add\\1\\SD\\9780122226502 (14).pdf,0,2000-01-01 01:00:00,2016-04-03 02:51:08,http://ars.els-cdn.com/content/image/3-s2.0-B9780122226502X50010-cov150h.gif,,
15309986,Dye Laser Principles. With Applications,,,,"Frank J. Duarte, Lloyd W. Hillman, Peter F. Liao and Paul Kelley (Eds.)",1990,,,,455,0,English,,,,"978-0-12-222700-4,9780122227004,0-12-222700-X",,,,,,,,,,,0,,,,,,,1,6759802,pdf,a142594990cf5362b2900d353438c586,,,A:\\_for_add\\1\\SD\\9780122227004 (18).pdf,0,2000-01-01 01:00:00,2016-04-03 02:51:08,http://ars.els-cdn.com/content/image/3-s2.0-C20090222847-cov150h.gif,,
15309987,Bacillus Subtilis,,,,David Dubnau (Eds.),1982,,,,378,0,English,,,,"978-0-12-222701-1,9780122227011,0-12-222701-8",,,,,,,,,,,0,,,,,,,1,5763201,pdf,d97b99a62f01742496e529d3b3061699,,,A:\\_for_add\\1\\SD\\9780122227011 (17).pdf,0,2000-01-01 01:00:00,2016-04-03 02:51:08,http://ars.els-cdn.com/content/image/3-s2.0-B9780122227011X50014-cov150h.gif,,
15309988,The Molecular Biology of the Bacilli,,,,David Dubnau (Eds.),1985,,,,265,0,English,,,,"978-0-12-222702-8,9780122227028,0-12-222702-6",,,,,,,,,,,0,,,,,,,1,3744373,pdf,f42a6f6917b637ef6f115d9e66426626,,,A:\\_for_add\\1\\SD\\9780122227028 (16).pdf,0,2000-01-01 01:00:00,2016-04-03 02:51:08,http://ars.els-cdn.com/content/image/3-s2.0-B9780122227028X5001X-cov150h.gif,,
15309989,"Electrical, Optical and Magnetic Properties of Nucleic Acid and Components",,,,J. Duchesne (Eds.),1973,,,,323,0,English,,,,"978-0-12-222901-5,9780122229015,0-12-222901-0",,,,,,,,,,,0,,,,,,,1,5175313,pdf,d257e577db99f695054cdc930081107e,,,A:\\_for_add\\1\\SD\\9780122229015 (18).pdf,0,2000-01-01 01:00:00,2016-04-03 02:51:08,http://ars.els-cdn.com/content/image/3-s2.0-B9780122229015X50019-cov150h.gif,,
15309990,Structural Studies on Nucleic Acids and Other Biopolymers,,,,J. Duchesne (Eds.),1973,,,,379,0,English,,,,"978-0-12-222902-2,9780122229022",,,,,,,,,,,0,,,,,,,1,5859131,pdf,b8b9d74b9ec6f9452dac8e9e3e3d7b69,,,A:\\_for_add\\1\\SD\\9780122229022 (16).pdf,0,2000-01-01 01:00:00,2016-04-03 02:51:08,http://ars.els-cdn.com/content/image/3-s2.0-B9780122229022X5001X-cov150h.gif,,
15309991,"Intra- and Intermolecular Interactions, Radiation Effects in DNA Cells, and Repair Mechanisms",,,,J. Duchesne (Eds.),1973,,,,224,0,English,,,,"978-0-12-222903-9,9780122229039,0-12-222903-7",,,,,,,,,,,0,,,,,,,1,3801550,pdf,238de7c73e23ab69c5110cbf71875682,,,A:\\_for_add\\1\\SD\\9780122229039 (15).pdf,0,2000-01-01 01:00:00,2016-04-03 02:51:08,http://ars.els-cdn.com/content/image/3-s2.0-B9780122229039X50015-cov150h.gif,,
15309992,"Water Relations of Foods. Proceedings of an International Symposium held in Glasgow, September 1974",,,,R. Duckworth (Eds.),1975,,,,694,0,English,,,,"978-0-12-223150-6,9780122231506,0-12-223150-3",,,,,,,,,,,0,,,,,,,1,14935731,pdf,e2c0a6ec0a4955e3a0309b0d6f1cdc15,,,A:\\_for_add\\1\\SD\\9780122231506 (43).pdf,0,2000-01-01 01:00:00,2016-04-03 02:51:08,http://ars.els-cdn.com/content/image/3-s2.0-B9780122231506X50019-cov150h.gif,,
15309993,Co2 Lasers Effects and Applications,,,,W. Duley (Auth.),1976,,,,433,0,English,,,,"978-0-12-223350-0,9780122233500",,,,,,,,,,,0,,,,,,,1,8699338,pdf,451e80d26b5a4ffcc018fd933f97fa36,,,A:\\_for_add\\1\\SD\\9780122233500 (21).pdf,0,2000-01-01 01:00:00,2016-04-03 02:51:08,http://ars.els-cdn.com/content/image/3-s2.0-B9780122233500X50019-cov150h.gif,,
15309994,Rydberg Series in Atoms and Molecules,,,,A. Duncan (Auth.),1971,,,,151,0,English,,,,"978-0-12-223950-2,9780122239502",,,,,,,,,,,0,,,,,,,1,2685827,pdf,518ee42551d050f4e699a917a85e5d65,,,A:\\_for_add\\1\\SD\\9780122239502 (11).pdf,0,2000-01-01 01:00:00,2016-04-03 02:51:08,http://ars.els-cdn.com/content/image/3-s2.0-B9780122239502X50018-cov150h.gif,,
15309995,Models of Particles and Moving Media,,,,Donald Dunn (Auth.),1971,,,,279,0,English,,,,"978-0-12-224250-2,9780122242502",,,,,,,,,,,0,,,,,,,1,7009869,pdf,caaef9c2f113d62c7a9c4e6bf65cc2bf,,,A:\\_for_add\\1\\SD\\9780122242502 (13).pdf,0,2000-01-01 01:00:00,2016-04-03 02:51:08,http://ars.els-cdn.com/content/image/3-s2.0-B9780122242502X50011-cov150h.gif,,
15309996,Output Hardcopy Devices,,,,Robert Durbeck (Eds.),1988,,,,528,0,English,,,,"978-0-12-225040-8,9780122250408,0-12-225040-0",,,,,,,,,,,0,,,,,,,1,12502753,pdf,98ea7ea56ec05d3b95d3edd247d540d5,,,A:\\_for_add\\1\\SD\\9780122250408 (26).pdf,0,2000-01-01 01:00:00,2016-04-03 02:51:08,http://ars.els-cdn.com/content/image/3-s2.0-B9780122250408X50019-cov150h.gif,,
15309997,Electrons to Tissues,,,,P. Dutton (Eds.),1978,,,,822,0,English,,,,"978-0-12-225401-7,9780122254017,0-12-225401-5,0-12-225402-3",,,,,,,,,,,0,,,,,,,1,21757223,pdf,0186b54477905436bd97845274725872,,,A:\\_for_add\\1\\SD\\9780122254017 (97).pdf,0,2000-01-01 01:00:00,2016-04-03 02:51:08,http://ars.els-cdn.com/content/image/3-s2.0-B9780122254017X50012-cov150h.gif,,
15309998,Frontiers of Biological Energetics. Electrons to Tissues,,,,P. Dutton (Eds.),1978,,,,755,0,English,,,,"978-0-12-225402-4,9780122254024",,,,,,,,,,,0,,,,,,,1,29758038,pdf,8416cb3b5b22f9ffa264dba3786da1be,,,A:\\_for_add\\1\\SD\\9780122254024 (94).pdf,0,2000-01-01 01:00:00,2016-04-03 02:51:08,http://ars.els-cdn.com/content/image/3-s2.0-B9780122254024X50013-cov150h.gif,,
15309999,Enzyme Nomenclature 1978,,,,Hans Ulrich Bergmeyer (Auth.),1979,,,,609,0,English,,,,"978-0-12-227160-1,9780122271601",,,,,,,,,,,0,,,,,,,1,6139175,pdf,9705a357ae742f756af13f0661ac0a05,,,A:\\_for_add\\1\\SD\\9780122271601 (10).pdf,0,2000-01-01 01:00:00,2016-04-03 02:51:08,http://ars.els-cdn.com/content/image/3-s2.0-B9780122271601X50015-cov150h.gif,,
15310000,Excited States,,,,Edward Lim (Eds.),1977,,,,351,0,English,,,,"978-0-12-227203-5,9780122272035,0-12-227203-X",,,,,,,,,,,0,,,,,,,1,7023859,pdf,7e1fd13edfdf281e32b4fc0296124df4,,,A:\\_for_add\\1\\SD\\9780122272035 (12).pdf,0,2000-01-01 01:00:00,2016-04-03 02:51:08,http://ars.els-cdn.com/content/image/3-s2.0-B9780122272035X5001X-cov150h.gif,,
15310001,Excited States,,,,Edward Lim (Eds.),1982,,,,209,0,English,,,,"978-0-12-227205-9,9780122272059,0-12-227205-6",,,,,,,,,,,0,,,,,,,1,4877862,pdf,55e357c78e074d5815d8ebd3f78165e6,,,A:\\_for_add\\1\\SD\\9780122272059 (9).pdf,0,2000-01-01 01:00:00,2016-04-03 02:51:08,http://ars.els-cdn.com/content/image/3-s2.0-B9780122272059X50016-cov150h.gif,,
15310002,The Principles and Practice of Human Physiology,,,,O.G. Edholm (Eds.),1981,,,,669,0,English,,,,"978-0-12-231650-0,9780122316500,0-12-231650-9",,,,,,,,,,,0,,,,,,,1,14896524,pdf,3fd5747736d865774a6f62a5c1183c7f,,,A:\\_for_add\\1\\SD\\9780122316500 (21).pdf,0,2000-01-01 01:00:00,2016-04-03 02:51:08,http://ars.els-cdn.com/content/image/3-s2.0-B9780122316500X50015-cov150h.gif,,
15310003,Vascular Innervation and Receptor Mechanisms. New Perspectives,,,,Rolf Uddman (Eds.),1993,,,,459,0,English,,,,"978-0-12-232350-8,9780122323508,0-12-232350-5",,,,,,,,,,,0,,,,,,,1,12010086,pdf,9be0e81d10cbbbaa9f27c5ddceaffa36,,,A:\\_for_add\\1\\SD\\9780122323508 (27).pdf,0,2000-01-01 01:00:00,2016-04-03 02:51:08,http://ars.els-cdn.com/content/image/3-s2.0-B9780122323508X50018-cov150h.gif,,
15310004,"Microcirculation. Current Physiologic, Medical, and Surgical Concepts",,,,Richard Effros (Eds.),1981,,,,310,0,English,,,,"978-0-12-232560-1,9780122325601,0-12-232560-5",,,,,,,,,,,0,,,,,,,1,8425623,pdf,840cad303caf5ed35349f091e674d6d8,,,A:\\_for_add\\1\\SD\\9780122325601 (23).pdf,0,2000-01-01 01:00:00,2016-04-03 02:51:08,http://ars.els-cdn.com/content/image/3-s2.0-B9780122325601X50013-cov150h.gif,,
15310005,"Optical Properties of Inhomogeneous Materials. Applications to geology, astronomy chemistry, and engineering",,,,Walter Egan (Auth.),1979,,,,231,0,English,,,,"978-0-12-232650-9,9780122326509",,,,,,,,,,,0,,,,,,,1,8282171,pdf,c929f7b93c4cc7da7c29b463edd009da,,,A:\\_for_add\\1\\SD\\9780122326509 (19).pdf,0,2000-01-01 01:00:00,2016-04-03 02:51:08,http://ars.els-cdn.com/content/image/3-s2.0-B9780122326509X50012-cov150h.gif,,
15310006,Stable Isotopes and Plant Carbon-water Relations,,,,"Bernard Saugier, James R. Ehleringer, Anthony E. Hall and Graham D. Farquhar (Eds.)",1993,,,,547,0,English,,,,"978-0-12-233380-4,9780122333804,0-12-233380-2",,,,,,,,,,,0,,,,,,,1,69156193,pdf,d18acff206c61a01721e46f2dcedb662,,,A:\\_for_add\\1\\SD\\9780122333804 (44).pdf,0,2000-01-01 01:00:00,2016-04-03 02:51:08,http://ars.els-cdn.com/content/image/3-s2.0-C20090033121-cov150h.gif,,
15310007,Laser Microfabrication. Thin Film Processes and Lithography,,,,Daniel J. Ehrlich and Jeffrey Y. Tsao (Eds.),1989,,,,584,0,English,,,,"978-0-12-233430-6,9780122334306,0-12-233430-2",,,,,,,,,,,0,,,,,,,1,12016916,pdf,1a9b0e918f32fc3d68ae1d6a3d5bd45f,,,A:\\_for_add\\1\\SD\\9780122334306 (15).pdf,0,2000-01-01 01:00:00,2016-04-03 02:51:08,http://ars.els-cdn.com/content/image/3-s2.0-C2009022188X-cov150h.gif,,
15310008,Scaling Physiological Processes. Leaf to Globe,,,,"Jacques Roy, James R. Ehleringer and Christopher B. Field (Eds.)",1993,,,,388,0,English,,,,"978-0-12-233440-5,9780122334405,0-12-233440-X",,,,,,,,,,,0,,,,,,,1,8344398,pdf,36c59c7630e47ce081e4a61f5068c428,,,A:\\_for_add\\1\\SD\\9780122334405 (30).pdf,0,2000-01-01 01:00:00,2016-04-03 02:51:08,http://ars.els-cdn.com/content/image/3-s2.0-C20090033194-cov150h.gif,,
15310009,Leukocyte Membrane Determinants Regulating Immune Reactivity,,,,Vincent P. Eijsvoogel (Eds.),1976,,,,655,0,English,,,,"978-0-12-233750-5,9780122337505",,,,,,,,,,,0,,,,,,,1,14899901,pdf,d1eec495bb9caefc8007c7607c578a6a,,,A:\\_for_add\\1\\SD\\9780122337505 (154).pdf,0,2000-01-01 01:00:00,2016-04-03 02:51:08,http://ars.els-cdn.com/content/image/3-s2.0-B9780122337505X50015-cov150h.gif,,
15310010,Application Specific Integrated Circuit (ASIC) Technology,,,,Norman Einspruch (Eds.),1991,,,,364,0,English,,,,"978-0-12-234123-6,9780122341236,0-12-234123-6",,,,,,,,,,,0,,,,,,,1,9014462,pdf,f61d1697f3860549974d09d62c5fdba0,,,A:\\_for_add\\1\\SD\\9780122341236 (18).pdf,0,2000-01-01 01:00:00,2016-04-03 02:51:08,http://ars.els-cdn.com/content/image/3-s2.0-B9780122341236X5001X-cov150h.gif,,
15310011,Organometallic Syntheses. Nontransition-Metal Compounds,,,,John Eisch (Eds.),1981,,,,197,0,English,,,,"978-0-12-234950-8,9780122349508,0-12-234950-4",,,,,,,,,,,0,,,,,,,1,4473878,pdf,fb9289f177bb1269ad80d5a71872706a,,,A:\\_for_add\\1\\SD\\9780122349508 (22).pdf,0,2000-01-01 01:00:00,2016-04-03 02:51:08,http://ars.els-cdn.com/content/image/3-s2.0-B9780122349508X50012-cov150h.gif,,
15310012,Ion-Containing Polymers. Physical Properties and Structure,,,,A. Eisenberg (Eds.),1977,,,,298,0,English,,,,"978-0-12-235050-4,9780122350504",,,,,,,,,,,0,,,,,,,1,6164114,pdf,1ac38312c8672b2a3e272b1d08ab50ac,,,A:\\_for_add\\1\\SD\\9780122350504 (13).pdf,0,2000-01-01 01:00:00,2016-04-03 02:51:08,http://ars.els-cdn.com/content/image/3-s2.0-B9780122350504X50011-cov150h.gif,,
15310013,Silicate Structures and Dispersion System,,,,Wilhelm Eitel (Auth.),1975,,,,825,0,English,,,,"978-0-12-236306-1,9780122363061",,,,,,,,,,,0,,,,,,,1,12955000,pdf,2879b570c6efcfe42e406537ebf84ed2,,,A:\\_for_add\\1\\SD\\9780122363061 (14).pdf,0,2000-01-01 01:00:00,2016-04-03 02:51:08,http://ars.els-cdn.com/content/image/3-s2.0-B9780122363061X50011-cov150h.gif,,
15310014,Glass Science,,,,Wilhelm Eitel (Auth.),1976,,,,619,0,English,,,,"978-0-12-236307-8,9780122363078",,,,,,,,,,,0,,,,,,,1,15459651,pdf,d4fb18b9bb95e7682a06097894f5bd6f,,,A:\\_for_add\\1\\SD\\9780122363078 (17).pdf,0,2000-01-01 01:00:00,2016-04-03 02:51:08,http://ars.els-cdn.com/content/image/3-s2.0-B9780122363078X50017-cov150h.gif,,
15310015,Industrial Glass: Glazes and Enamels,,,,Wilhelm Eitel (Auth.),1976,,,,401,0,English,,,,"978-0-12-236308-5,9780122363085",,,,,,,,,,,0,,,,,,,1,48573182,pdf,80fa8c2ca11fb270ccd93303205a16ad,,,A:\\_for_add\\1\\SD\\9780122363085 (17).pdf,0,2000-01-01 01:00:00,2016-04-03 02:51:08,http://ars.els-cdn.com/content/image/3-s2.0-B9780122363085X50018-cov150h.gif,,
15310016,Control System Design Guide. Using your Computer to Develop and Diagnose Feedback Controllers,,,,George Ellis (Auth.),1991,,,,250,0,English,,,,"978-0-12-237470-8,9780122374708",,,,,,,,,,,0,,,,,,,1,3584379,pdf,c7e2d1258df59f2614d8c59820852fa3,,,A:\\_for_add\\1\\SD\\9780122374708 (22).pdf,0,2000-01-01 01:00:00,2016-04-03 02:51:08,http://ars.els-cdn.com/content/image/3-s2.0-C20090215820-cov150h.gif,,
15310017,"Electron Beams, Lenses, and Optics",,,,A. El-Kareh (Eds.),1970,,,,418,0,English,,,,"978-0-12-238001-3,9780122380013",,,,,,,,,,,0,,,,,,,1,5117470,pdf,37a529f159cd902a8044cd0b92af2917,,,A:\\_for_add\\1\\SD\\9780122380013 (14).pdf,0,2000-01-01 01:00:00,2016-04-03 02:51:08,http://ars.els-cdn.com/content/image/3-s2.0-B9780122380013X50013-cov150h.gif,,
15310018,X-Ray Lasers,,,,Raymond C. Elton (Auth.),1990,,,,292,0,English,,,,"978-0-12-238080-8,9780122380808,0-12-238080-0",,,,,,,,,,,0,,,,,,,1,8739868,pdf,25cfce2675350b0cbd6b212bb983e551,,,A:\\_for_add\\1\\SD\\9780122380808 (13).pdf,0,2000-01-01 01:00:00,2016-04-03 02:51:08,http://ars.els-cdn.com/content/image/3-s2.0-C20090222665-cov150h.gif,,
15310019,The Perception of Odors,,,,Trygg Engen (Auth.),1982,,,,204,0,English,,,,"978-0-12-239350-1,9780122393501,0-12-239350-3",,,,,,,,,,,0,,,,,,,1,4749099,pdf,84f2005fb3df4a3454ce9fb63e053d5a,,,A:\\_for_add\\1\\SD\\9780122393501 (19).pdf,0,2000-01-01 01:00:00,2016-04-03 02:51:08,http://ars.els-cdn.com/content/image/3-s2.0-B9780122393501X50017-cov150h.gif,,
15310020,Continuum Physics. Mixtures and EM Field Theories,,,,A. Eringen (Eds.),1976,,,,323,0,English,,,,"978-0-12-240803-8,9780122408038",,,,,,,,,,,0,,,,,,,1,5648748,pdf,08166992c7d63ff2403779375fa4c247,,,A:\\_for_add\\1\\SD\\9780122408038 (10).pdf,0,2000-01-01 01:00:00,2016-04-03 02:51:08,http://ars.els-cdn.com/content/image/3-s2.0-B9780122408038X50014-cov150h.gif,,
15310021,Holographic Nondestructive Testing,,,,Robert Erf (Eds.),1974,,,,440,0,English,,,,"978-0-12-241350-6,9780122413506",,,,,,,,,,,0,,,,,,,1,20729783,pdf,021be17182e1fe5af058d2f25ee9239c,,,A:\\_for_add\\1\\SD\\9780122413506 (29).pdf,0,2000-01-01 01:00:00,2016-04-03 02:51:08,http://ars.els-cdn.com/content/image/3-s2.0-B9780122413506X50012-cov150h.gif,,
15310022,Regulation of Parasite Populations,,,,Gerald Esch (Eds.),1977,,,,254,0,English,,,,"978-0-12-241750-4,9780122417504,0-12-241750-X",,,,,,,,,,,0,,,,,,,1,3162453,pdf,4aab44ffe99f6ce016a6e9853c65aa56,,,A:\\_for_add\\1\\SD\\9780122417504 (12).pdf,0,2000-01-01 01:00:00,2016-04-03 02:51:08,http://ars.els-cdn.com/content/image/3-s2.0-B9780122417504X50017-cov150h.gif,,
15310023,Lipids and Biomembranes of Eukaryotic Microorganisms,,,,Joseph Erwin (Eds.),1973,,,,360,0,English,,,,"978-0-12-242050-4,9780122420504",,,,,,,,,,,0,,,,,,,1,6112224,pdf,d026bce3793763268498dc0c5c46954d,,,A:\\_for_add\\1\\SD\\9780122420504 (14).pdf,0,2000-01-01 01:00:00,2016-04-03 02:51:08,http://ars.els-cdn.com/content/image/3-s2.0-B9780122420504X50010-cov150h.gif,,
15310024,Fluid Mechanics and Thermodynamics of our Environment,,,,S. Eskinazi (Auth.),1975,,,,427,0,English,,,,"978-0-12-242540-0,9780122425400",,,,,,,,,,,0,,,,,,,1,6545439,pdf,52ef25c208a31fdd6a17a6952754c622,,,A:\\_for_add\\1\\SD\\9780122425400 (18).pdf,0,2000-01-01 01:00:00,2016-04-03 02:51:08,http://ars.els-cdn.com/content/image/3-s2.0-B9780122425400X5001X-cov150h.gif,,
15310025,Perspectives in Membrane Biology,,,,Sergio Estrada-O (Auth.),1974,,,,644,0,English,,,,"978-0-12-243650-5,9780122436505",,,,,,,,,,,0,,,,,,,1,7775181,pdf,5d3564342003d7554707098d8ccc450e,,,A:\\_for_add\\1\\SD\\9780122436505 (34).pdf,0,2000-01-01 01:00:00,2016-04-03 02:51:08,http://ars.els-cdn.com/content/image/3-s2.0-B9780122436505X50012-cov150h.gif,,
15310026,Environmental Control of Plant Growth,,,,L.T. Evans (Eds.),1963,,,,447,0,English,,,,"978-0-12-244350-3,9780122443503",,,,,,,,,,,0,,,,,,,1,8821956,pdf,79ba1f5b7d0f92d8b7e67e403d512b7d,,,A:\\_for_add\\1\\SD\\9780122443503 (29).pdf,0,2000-01-01 01:00:00,2016-04-03 02:51:08,http://ars.els-cdn.com/content/image/3-s2.0-B9780122443503X50010-cov150h.gif,,
15310027,The Pyridine Nucleotide Coenzymes,,,,Johannes Everse (Eds.),1982,,,,411,0,English,,,,"978-0-12-244750-1,9780122447501,0-12-244750-6",,,,,,,,,,,0,,,,,,,1,8018267,pdf,f60785b56ee048ee3c88f6f7152a8ea2,,,A:\\_for_add\\1\\SD\\9780122447501 (20).pdf,0,2000-01-01 01:00:00,2016-04-03 02:51:08,http://ars.els-cdn.com/content/image/3-s2.0-B9780122447501X50015-cov150h.gif,,
15310028,Environmental Analysis,,,,Galen Ewing (Eds.),1977,,,,339,0,English,,,,"978-0-12-245250-5,9780122452505,0-12-245250-X",,,,,,,,,,,0,,,,,,,1,6073191,pdf,b89bf468c7d055d53d7ffd5186cf65c4,,,A:\\_for_add\\1\\SD\\9780122452505 (29).pdf,0,2000-01-01 01:00:00,2016-04-03 02:51:08,http://ars.els-cdn.com/content/image/3-s2.0-B9780122452505X50013-cov150h.gif,,
15310029,Liquid State,,,,Douglas Henderson (Eds.),1971,,,,437,0,English,,,,"978-0-12-245608-4,9780122456084",,,,,,,,,,,0,,,,,,,1,7981225,pdf,bbccfeaf26b6c458d037a94ea17cf714,,,A:\\_for_add\\1\\SD\\9780122456084 (15).pdf,0,2000-01-01 01:00:00,2016-04-03 02:51:08,http://ars.els-cdn.com/content/image/3-s2.0-B9780122456084X50017-cov150h.gif,,
15310030,Liquid State,,,,Douglas Henderson (Eds.),1971,,,,492,0,English,,,,"978-0-12-245658-9,9780122456589",,,,,,,,,,,0,,,,,,,1,6499528,pdf,e9e4c78c8a16845f48a5926f14e97d88,,,A:\\_for_add\\1\\SD\\9780122456589 (14).pdf,0,2000-01-01 01:00:00,2016-04-03 02:51:08,http://ars.els-cdn.com/content/image/3-s2.0-B9780122456589X50019-cov150h.gif,,
15310031,Symmetry in Coordination Chemistry,,,,"John P. Fackler, Jr. (Auth.)",1971,,,,143,0,English,,,,"978-0-12-247540-5,9780122475405",,,,,,,,,,,0,,,,,,,1,4389479,pdf,56ccda491a7e83aab99e78c32ee42975,,,A:\\_for_add\\1\\SD\\9780122475405 (13).pdf,0,2000-01-01 01:00:00,2016-04-03 02:51:08,http://ars.els-cdn.com/content/image/3-s2.0-B9780122475405X50018-cov150h.gif,,
15310032,Rapid Thermal Processing. Science and Technology,,,,Richard B. Fair (Eds.),1993,,,,428,0,English,,,,"978-0-12-247690-7,9780122476907,0-12-247690-5",,,,,,,,,,,0,,,,,,,1,8327520,pdf,2bbc6006c9592aef51ea6aef0fa04792,,,A:\\_for_add\\1\\SD\\9780122476907 (13).pdf,0,2000-01-01 01:00:00,2016-04-03 02:51:08,http://ars.els-cdn.com/content/image/3-s2.0-C20090223932-cov150h.gif,,
15310033,Auditory Analysis and Perception of Speech,,,,G. Fant (Eds.),1975,,,,554,0,English,,,,"978-0-12-248550-3,9780122485503,0-12-248550-5",,,,,,,,,,,0,,,,,,,1,8287109,pdf,c6cdde02b4f83a7e6a551193d9142c28,,,A:\\_for_add\\1\\SD\\9780122485503 (43).pdf,0,2000-01-01 01:00:00,2016-04-03 02:51:08,http://ars.els-cdn.com/content/image/3-s2.0-B9780122485503X50016-cov150h.gif,,
15310034,The Molecular Aspects of Autoimmunity,,,,Nadir Farid (Eds.),1990,,,,300,0,English,,,,"978-0-12-249040-8,9780122490408,0-12-249040-1",,,,,,,,,,,0,,,,,,,1,6423694,pdf,d6630f9752bdc61d76d62fcc32370ab4,,,A:\\_for_add\\1\\SD\\9780122490408 (25).pdf,0,2000-01-01 01:00:00,2016-04-03 02:51:08,http://ars.els-cdn.com/content/image/3-s2.0-B9780122490408X50019-cov150h.gif,,
15310035,Molecular Biology and Pathology. A Guidebook for Quality Control,,,,Daniel H. Farkas (Eds.),1993,,,,327,0,English,,,,"978-0-12-249100-9,9780122491009,0-12-249100-9",,,,,,,,,,,0,,,,,,,1,6092379,pdf,ccb1e8ddbae5a669c51e88fcafdec11a,,,A:\\_for_add\\1\\SD\\9780122491009 (19).pdf,0,2000-01-01 01:00:00,2016-04-03 02:51:08,http://ars.els-cdn.com/content/image/3-s2.0-C20090031717-cov150h.gif,,
15310036,Nuclear Reactor Safety,,,,F. Farmer (Eds.),1977,,,,218,0,English,,,,"978-0-12-249350-8,9780122493508",,,,,,,,,,,0,,,,,,,1,5649217,pdf,a4455d2d5a1cf229bd26893705e35158,,,A:\\_for_add\\1\\SD\\9780122493508 (15).pdf,0,2000-01-01 01:00:00,2016-04-03 02:51:08,http://ars.els-cdn.com/content/image/3-s2.0-B9780122493508X50019-cov150h.gif,,
15310037,Avian Biology. Volume 7,,,,"Donald S. Farner, James R. King and Kenneth C. Parkes (Eds.)",1983,,,,555,0,English,,,,"978-0-12-249407-9,9780122494079,0-12-249407-5",,,,,,,,,,,0,,,,,,,1,8669193,pdf,fc47037cc9a8cfbad5fc4606ab52c352,,,A:\\_for_add\\1\\SD\\9780122494079 (18).pdf,0,2000-01-01 01:00:00,2016-04-03 02:51:08,http://ars.els-cdn.com/content/image/3-s2.0-C20090030177-cov150h.gif,,
15310038,Avian Biology. Volume 8,,,,Donald Farner (Eds.),1985,,,,273,0,English,,,,"978-0-12-249408-6,9780122494086,0-12-249408-3",,,,,,,,,,,0,,,,,,,1,6099354,pdf,d173076d6c3dc0d6febacd6299f698a8,,,A:\\_for_add\\1\\SD\\9780122494086 (13).pdf,0,2000-01-01 01:00:00,2016-04-03 02:51:08,http://ars.els-cdn.com/content/image/3-s2.0-B9780122494086X50018-cov150h.gif,,
