18412217,"Development of Muslim Theology, Jurisprudence and Constitutional Theory. (Semitic)",,,,Duncan Black MacDonald,2008,,"The Lawbook Exchange, Ltd.",,414,0,English,,,,"158477858X,9781584778585",,,,,,,,,,1423,0,,,,,,,1,22037636,pdf,b9aa446503b5696943ed0424cb256409,,,"G:\\!genesis\\1\\14.139.43.151\\Development of Muslim Theology, Jurisprudence and Constitutional Theory. (Semitic) - Duncan Black MacDonald_1423.pdf",0,2000-01-01 01:00:00,2016-04-03 02:51:08,,,
18412218,Dewey decimal classification and relative index,,,,"Dewey, Melvil, 1851-1931",,,,,976,0,English,,,,,,,,,,,,,,747,0,,,,,,,1,54528005,pdf,802418d275426d39f4b463b117d477ca,,,"G:\\!genesis\\1\\14.139.43.151\\Dewey decimal classification and relative index - Dewey, Melvil, 1851-1931_747.pdf",0,2000-01-01 01:00:00,2016-04-03 02:51:08,,,
18412219,"Diaspora and Transnationalism: Concepts, Theories and Methods",,,,Rainer Baub√∂ck & Thomas Faist,2010,,Amsterdam University Press,,358,0,English,,,,"9089642382,9789089642387",,,,,,,,WWBuLV9L8WoC,,1504,0,,,,,,,1,4029725,pdf,114a1b24d552a904b13e0de7fad809c9,,,"G:\\!genesis\\1\\14.139.43.151\\Diaspora and Transnationalism_ Concepts, Theories and Methods - Rainer Baubock &amp; Thomas Faist_1504.pdf",0,2000-01-01 01:00:00,2016-04-03 02:51:08,,,
18412220,Dictatorship vs. Democracy: Terrorism and Communism (1922),,,,Leon Trotsky,2010,,Kessinger Publishing,,101,0,English,,,,"1477693742,9781166513245",,,,,,,,UDD9YQEACAAJ,,1881,0,,,,,,,1,547637,pdf,0afa62e0d6a9e7506f41061d1741c3a0,,,G:\\!genesis\\1\\14.139.43.151\\Dictatorship vs. Democracy_ Terrorism and Communism (1922) - Leon Trotsky_1881.pdf,0,2000-01-01 01:00:00,2016-04-03 02:51:08,,,
18412221,"Dictatorship, Disorder and Decline in Myanmar",,,,Monique Skidmore & Trevor Wilson,2010,,ANU E Press,,240,0,English,,,,"1921536322,9781921536328",,,,,,,,,,1761,0,,,,,,,1,1123827,pdf,9f40564433e8b65c1f55c698112f44d5,,,"G:\\!genesis\\1\\14.139.43.151\\Dictatorship, Disorder and Decline in Myanmar - Monique Skidmore &amp; Trevor Wilson_1761.pdf",0,2000-01-01 01:00:00,2016-04-03 02:51:08,,,
18412222,Dictionary of World Biography,,,,Barry Jones,1998,,ANU E Press,,934,0,English,,,,"1863502416,9781863502412",,,,,,,,g22QAAAACAAJ,,1766,0,,,,,,,1,7348461,pdf,5e8d43b31c89ffb5292a71944dee1767,,,G:\\!genesis\\1\\14.139.43.151\\Dictionary of World Biography - Barry Jones_1766.pdf,0,2000-01-01 01:00:00,2016-04-03 02:51:08,,,
18412223,Diet and Health: With Key to the Calories,,,,Bibliobazaar & Lulu Hunt 1873 Peters,2010,,BiblioBazaar,,,0,English,,,,9781173250812,,,,,,,,SW4LTwEACAAJ,,610,0,,,,,,,0,418581,epub,6d7022d6c4f7d133cdea76a3179ffa96,,,G:\\!genesis\\1\\14.139.43.151\\Diet and Health_ With Key to the Calories - Bibliobazaar &amp; Lulu Hunt 1873 Peters_610.epub,0,2000-01-01 01:00:00,2016-04-03 02:51:08,,,
18412224,Directions for the Librarian of a Small Library,,,,Zaidee M. (zaidee Mabel) Brown -1875 League Of Library Commissions,1921,,Library of Congress,,78,0,English,,,,,,B003TWOW78,,,,,,,,611,0,,,,,,,1,3452081,pdf,b1d68c83e63da289ad0d2211a6b1b9b4,,,G:\\!genesis\\1\\14.139.43.151\\Directions for the Librarian of a Small Library - Zaidee M. (zaidee Mabel) Brown -1875 League Of Library Commissions_611.pdf,0,2000-01-01 01:00:00,2016-04-03 02:51:08,,,
18412225,Disability and New Media,,,,Katie Ellis & Mike Kent,,,,,185,0,English,,,,,,,,,,,,,,618,0,,,,,,,1,2017707,pdf,ee631201968ec8d6d413a149c6bc87ab,,,G:\\!genesis\\1\\14.139.43.151\\Disability and New Media - Katie Ellis &amp; Mike Kent_618.pdf,0,2000-01-01 01:00:00,2016-04-03 02:51:08,,,
18412226,Disaffection from School,,,,Ken Reid,,,,,281,0,English,,,,,,,,,,,,,,623,0,,,,,,,1,5615368,pdf,9ef3bf9cdf5d4d61516a68cd32b9f2ae,,,G:\\!genesis\\1\\14.139.43.151\\Disaffection from School - Ken Reid_623.pdf,0,2000-01-01 01:00:00,2016-04-03 02:51:08,,,
18412227,Discourse of Twitter and Social Media: How We Use Language to Create Affiliation on the Web,,,,Michele Zappavigna,2012,,Continuum,,195,0,English,,,,9781441138712,,B00GOVXGN2,,,,,,rwdv3pNGPRgC,,2204,0,,,,,,,0,9369284,pdf,84bb15c4b24a51a5b41dde979677df1b,,,G:\\!genesis\\1\\14.139.43.151\\Discourse of Twitter and Social Media_ How We Use Language to Create Affiliation on the Web - Michele Zappavigna_2204.pdf,0,2000-01-01 01:00:00,2016-04-03 02:51:08,,,
18412228,Discourses on Social Software (Amsterdam University Press - Texts in Logic and Games),,,,Jan van Eijck & Rineke Verbrugge,2010,,Amsterdam University Press,,270,0,English,,,,"9089641238,9789089641236",,,,,,,,,,1424,0,,,,,,,1,3040762,pdf,e3454140dd45d88cc852ad558436d333,,,G:\\!genesis\\1\\14.139.43.151\\Discourses on Social Software (Amsterdam University Press - Texts in Logic and Games) - Jan van Eijck &amp; Rineke Verbrugge_1424.pdf,0,2000-01-01 01:00:00,2016-04-03 02:51:08,,,
18412229,Discourses on Social Software,,,,Jan van Eijck & Jan Eijck & Rineke Verbrugge,2009,,Amsterdam University Press,,249,0,English,,,,"9089641238,9789089641236",,,,,,,,jgNhPWvtO70C,,1564,0,,,,,,,1,3983314,pdf,fac8854216e93c84b27708fbe751feb2,,,G:\\!genesis\\1\\14.139.43.151\\Discourses on Social Software - Jan van Eijck &amp; Jan Eijck &amp; Rineke Verbrugge_1564.pdf,0,2000-01-01 01:00:00,2016-04-03 02:51:08,,,
18412230,"Distributing Silent Film Serials: Local Practices, Changing Forms, Cultural Transformation",,,,Rudmer Canjels,,,,,284,0,English,,,,,,,,,,,,,,632,0,,,,,,,1,4783717,pdf,bf2b9572c81c6a9bd039f70c5ae43fd6,,,"G:\\!genesis\\1\\14.139.43.151\\Distributing Silent Film Serials_ Local Practices, Changing Forms, Cultural Transformation - Rudmer Canjels_632.pdf",0,2000-01-01 01:00:00,2016-04-03 02:51:08,,,
18412231,Doing Good or Doing Better: Development Policies in a Globalizing World,,,,Monique Kremer & Peter van Lieshout & Robert Went,2009,,Amsterdam University Press,,380,0,English,,,,"9089641076,9789089641076",,,,,,,,LPRhITTNZxEC,,1517,0,,,,,,,1,2241362,pdf,43f228a14e720321bfbb495451987dc6,,,G:\\!genesis\\1\\14.139.43.151\\Doing Good or Doing Better_ Development Policies in a Globalizing World - Monique Kremer &amp; Peter van Lieshout &amp; Robert Went_1517.pdf,0,2000-01-01 01:00:00,2016-04-03 02:51:08,,,
18412232,Domestic Problems,,,,Abby Morton Diaz,2011,,Nabu Press,,36,0,English,,,,"1173862471,9781173862473",,,,,,,,,,633,0,,,,,,,1,322582,pdf,dfbff79a4432239695135a4bf024421b,,,G:\\!genesis\\1\\14.139.43.151\\Domestic Problems - Abby Morton Diaz_633.pdf,0,2000-01-01 01:00:00,2016-04-03 02:51:08,,,
18412233,Dream Psychology: Psychoanalysis for Beginners,,,,Sigmund Freud,2009,,Digireads.com,,75,0,English,,,,"1479154504,9781420934120",,,,,,,,,,1883,0,,,,,,,1,526698,pdf,9a7b708c4070fa1212f4271e121fbb08,,,G:\\!genesis\\1\\14.139.43.151\\Dream Psychology_ Psychoanalysis for Beginners - Sigmund Freud_1883.pdf,0,2000-01-01 01:00:00,2016-04-03 02:51:08,,,
18412234,DREAMS,,,,Gustavus Hindman Miller,,,obooko.com,,420,0,English,,,,,,,,,,,,,,634,0,,,,,,,1,1097073,pdf,1814d88acc6c26f536fbcd6b906bfb97,,,G:\\!genesis\\1\\14.139.43.151\\DREAMS - Gustavus Hindman Miller_634.pdf,0,2000-01-01 01:00:00,2016-04-03 02:51:08,,,
18412235,Dynamism in Islamic Activism: Reference Points for Democratization and Human Rights,,,,The Netherlands Scientific Council For Government Policy,2006,,Amsterdam University Press,,239,0,English,,,,"9053569189,9789053569184",,,,,,,,iKEchuIgNPIC,,1668,0,,,,,,,1,1508615,pdf,f85149da383bd67e36a24510327f8b8d,,,G:\\!genesis\\1\\14.139.43.151\\Dynamism in Islamic Activism_ Reference Points for Democratization and Human Rights - The Netherlands Scientific Council For Government Policy_1668.pdf,0,2000-01-01 01:00:00,2016-04-03 02:51:08,,,
18412236,E-books and e-publishing,,,,Sam Vaknin,,,United Press International (UPI),,87,0,English,,,,,,,,,,,,,,1886,0,,,,,,,1,481997,pdf,aaf952d94a2f8e0a6773e7f0e0d29b7f,,,G:\\!genesis\\1\\14.139.43.151\\E-books and e-publishing - Sam Vaknin_1886.pdf,0,2000-01-01 01:00:00,2016-04-03 02:51:08,,,
18412237,Early European History,,,,Hutton Webster,1924,,Library of Alexandria,,428,0,English,,,,9781465533784,,B00B0XKLWS,,,,,,STCermpQSaMC,,1885,0,,,,,,,1,1162932,pdf,c072d0c415dad4ac640b8b4380a4fcc6,,,G:\\!genesis\\1\\14.139.43.151\\Early European History - Hutton Webster_1885.pdf,0,2000-01-01 01:00:00,2016-04-03 02:51:08,,,
18412238,Economic Choices in a Warming World,,,,Christian de Perthuis,2011,,Cambridge University Press,,275,0,English,,,,"0521175682,9780521175685",,,,,,,,5ub_LgEACAAJ,,644,0,,,,,,,1,2142819,pdf,a9310061f30c352bedbc4600a480c8c6,,,G:\\!genesis\\1\\14.139.43.151\\Economic Choices in a Warming World - Christian de Perthuis_644.pdf,0,2000-01-01 01:00:00,2016-04-03 02:51:08,,,
18412239,Economic Development,,,,E. Wayne Nafziger,2005,,Cambridge University Press,,889,0,English,,,,"052176548X,9780521765480",,,,,,,,,,652,0,,,,,,,1,8037054,pdf,b4c25071cdcbad81253b69126f8083d1,,,G:\\!genesis\\1\\14.139.43.151\\Economic Development - E. Wayne Nafziger_652.pdf,0,2000-01-01 01:00:00,2016-04-03 02:51:08,,,
18412240,Economic Policy: Thoughts for Today and Tomorrow,,,,Ludwig von Mises,2007,,Liberty Fund,,122,0,English,,,,"1933550015,9781933550015",,,,,,,,VLY9ngEACAAJ,,659,0,,,,,,,1,7585526,pdf,984b0bd7b071a4fa71f17e493eed4e4d,,,G:\\!genesis\\1\\14.139.43.151\\Economic Policy_ Thoughts for Today and Tomorrow - Ludwig von Mises_659.pdf,0,2000-01-01 01:00:00,2016-04-03 02:51:08,,,
18412241,Economics and the Challenge of Global Warming Paperback,,,,Charles S. Pearson,2011,,Cambridge University Press,,254,0,English,,,,"1107649072,9781107649071",,,,,,,,,,667,0,,,,,,,1,1176285,pdf,7e652bf10f1bca7f3a7aa6fd0f830d84,,,G:\\!genesis\\1\\14.139.43.151\\Economics and the Challenge of Global Warming Paperback - Charles S. Pearson_667.pdf,0,2000-01-01 01:00:00,2016-04-03 02:51:08,,,
18412242,Economics for Real People: An Introduction to the Austrian School,,,,Gene Callahan,2002,,Ludwig von Mises Institute,,354,0,English,,,,"1479220809,9780945466352",,,,,,,,apUwngEACAAJ,,668,0,,,,,,,1,1363796,pdf,b84e1765472882d52ce7d6b21135ae8c,,,G:\\!genesis\\1\\14.139.43.151\\Economics for Real People_ An Introduction to the Austrian School - Gene Callahan_668.pdf,0,2000-01-01 01:00:00,2016-04-03 02:51:08,,,
18412243,Economics in One Lesson: The Shortest and Surest Way to Understand Basic Economics,,,,Henry Hazlitt,1988,,Random House LLC,,205,0,English,,,,"0517548232,9780307760623",,,,,,,,c2j494_m84IC,,674,0,,,,,,,1,1434117,pdf,e85ac8e2d995a28b6eaf52fabf97f7fe,,,G:\\!genesis\\1\\14.139.43.151\\Economics in One Lesson_ The Shortest and Surest Way to Understand Basic Economics - Henry Hazlitt_674.pdf,0,2000-01-01 01:00:00,2016-04-03 02:51:08,,,
18412244,Economics of Liberty,,,,Llewellyn H. Rockwell,1990,,Ludwig Von Mises Inst,,394,0,English,,,,"0945466080,9780945466086",,,,,,,,BGuAVDLx5AkC,,704,0,,,,,,,1,15157478,pdf,f5c880f77874b0ac1050337208a32890,,,G:\\!genesis\\1\\14.139.43.151\\Economics of Liberty - Llewellyn H. Rockwell_704.pdf,0,2000-01-01 01:00:00,2016-04-03 02:51:08,,,
18412245,Education and the Higher Life. --,,,,Spalding John Lancaster,2013,,HardPress,,74,0,English,,,,"1313973912,9781313973915",,,,,,,,UhFznQEACAAJ,,706,0,,,,,,,1,469232,pdf,e8263f57413778b940e0044d12fc6aaa,,,G:\\!genesis\\1\\14.139.43.151\\Education and the Higher Life. -- - Spalding John Lancaster_706.pdf,0,2000-01-01 01:00:00,2016-04-03 02:51:08,,,
18412246,Education as Service,,,,J. Krishnamurti,2009,,BiblioBazaar,,25,0,English,,,,9781110444557,,,,,,,,EDt6Y93rNLkC,,707,0,,,,,,,1,319245,pdf,dad6008745dd1b04f317c062be000921,,,G:\\!genesis\\1\\14.139.43.151\\Education as Service - J. Krishnamurti_707.pdf,0,2000-01-01 01:00:00,2016-04-03 02:51:08,,,
18412247,Education for Peace,,,,Herbert Read,2011,,Routledge,,145,0,English,,,,"0415697972,9781136490408",,,,,,,,L20_V9TkEzIC,,708,0,,,,,,,1,4097091,pdf,be8cba77036583630901c69ec23efd10,,,G:\\!genesis\\1\\14.139.43.151\\Education for Peace - Herbert Read_708.pdf,0,2000-01-01 01:00:00,2016-04-03 02:51:08,,,
18412248,Education How Old the New,,,,James J Walsh,2009,,BiblioBazaar,,143,0,English,,,,"1117088758,9781117088754",,,,,,,,,,751,0,,,,,,,1,663155,pdf,3399b83d0c48499f8aba2f6a96583efb,,,G:\\!genesis\\1\\14.139.43.151\\Education How Old the New - James J Walsh_751.pdf,0,2000-01-01 01:00:00,2016-04-03 02:51:08,,,
18412249,"Education in the Home, the Kindergarten, and the Primary School",,,,Hardpress & Peabody Elizabeth Palmer 1804-1894,2013,,HardPress,,103,0,English,,,,"1313082368,9781313082365",,,,,,,,z1fangEACAAJ,,709,0,,,,,,,1,543983,pdf,430fa9005f39325627d9725e24cbed68,,,"G:\\!genesis\\1\\14.139.43.151\\Education in the Home, the Kindergarten, and the Primary School - Hardpress &amp; Peabody Elizabeth Palmer 1804-1894_709.pdf",0,2000-01-01 01:00:00,2016-04-03 02:51:08,,,
18412250,Education in the Soviet Union: Policies and Institutions Since Stalin,,,,Mervyn Matthews,2012,,Routledge,,241,0,English,,,,"1138008400,9781138008403",,,,,,,,,,710,0,,,,,,,1,8575191,pdf,c6001996cfefcda8455163988bebf1ec,,,G:\\!genesis\\1\\14.139.43.151\\Education in the Soviet Union_ Policies and Institutions Since Stalin - Mervyn Matthews_710.pdf,0,2000-01-01 01:00:00,2016-04-03 02:51:08,,,
18412251,Education of the Negro,,,,Charles Dudley Warner,2009,,"Icon Group International, Incorporated",,8,0,English,,,,9780546406320,,,,,,,,EufBRNaB2JMC,,739,0,,,,,,,1,167589,pdf,4a59c481584b78ae63713e5c962143b8,,,G:\\!genesis\\1\\14.139.43.151\\Education of the Negro - Charles Dudley Warner_739.pdf,0,2000-01-01 01:00:00,2016-04-03 02:51:08,,,
18412252,"Education, Society and Human Nature",,,,Anthony O'Hear,2011,,Routledge,,193,0,English,,,,"0415698227,9780415698221",,,,,,,,,,749,0,,,,,,,1,6809911,pdf,7584127db91811f0f124f7010ae025ca,,,"G:\\!genesis\\1\\14.139.43.151\\Education, Society and Human Nature - Anthony O&#39;Hear_749.pdf",0,2000-01-01 01:00:00,2016-04-03 02:51:08,,,
18412253,Educational Theory,,,,Terence W Moore,2014,,Routledge,,121,0,English,,,,"0415751357,9780415751353",,,,,,,,,,752,0,,,,,,,1,3506764,pdf,1d0e47f3dc1dd4a00bd2aaac03ebdd32,,,G:\\!genesis\\1\\14.139.43.151\\Educational Theory - Terence W Moore_752.pdf,0,2000-01-01 01:00:00,2016-04-03 02:51:08,,,
18412254,Educational Work of the Boy Scouts,,,,Lorne W. Barclay,2013,,CreateSpace Independent Publishing Platform,,13,0,English,,,,"1491208341,9781491208342",,,,,,,,4zOlngEACAAJ,,769,0,,,,,,,1,301858,pdf,7d05ad1fc5b63f33300ef1f7e241e105,,,G:\\!genesis\\1\\14.139.43.151\\Educational Work of the Boy Scouts - Lorne W. Barclay_769.pdf,0,2000-01-01 01:00:00,2016-04-03 02:51:08,,,
18412255,Educational Work of the Girl Scouts,,,,Louise Stevens Bryant,2013,,CreateSpace Independent Publishing Platform,,15,0,English,,,,"1492114146,9781492114147",,,,,,,,HRBrmwEACAAJ,,770,0,,,,,,,1,321983,pdf,c88374ef23412b9262cc8ecaab3fc0ab,,,G:\\!genesis\\1\\14.139.43.151\\Educational Work of the Girl Scouts - Louise Stevens Bryant_770.pdf,0,2000-01-01 01:00:00,2016-04-03 02:51:08,,,
18412256,"Educations in Ethnic Violence: Identity, Educational Bubbles, and Resource Mobilization",,,,Matthew Lange,2011,,Cambridge University Press,,263,0,English,,,,"1107602378,9781107602373",,,,,,,,,,771,0,,,,,,,1,1753016,pdf,913a9b00598ba1c91f84dc5305107ba0,,,"G:\\!genesis\\1\\14.139.43.151\\Educations in Ethnic Violence_ Identity, Educational Bubbles, and Resource Mobilization - Matthew Lange_771.pdf",0,2000-01-01 01:00:00,2016-04-03 02:51:08,,,
18412257,Education: Free &amp; Compulsory,,,,Murray N. Rothbard,1999,,Ludwig von Mises Institute,,66,0,English,,,,"1479265047,9780945466222",,,,,,,,N1j2ngEACAAJ,,750,0,,,,,,,1,740955,pdf,4131b23b185d407bbd6445991f74b6fc,,,G:\\!genesis\\1\\14.139.43.151\\Education_ Free &amp; Compulsory - Murray N. Rothbard_750.pdf,0,2000-01-01 01:00:00,2016-04-03 02:51:08,,,
18412258,Effective Communication Skills,,,,Bookboon.com,,,,,55,0,English,,,,,,,,,,,,,,2083,0,,,,,,,0,2425057,pdf,b4f2357ae470650527c23debf3790d31,,,G:\\!genesis\\1\\14.139.43.151\\Effective Communication Skills - Bookboon.com_2083.pdf,0,2000-01-01 01:00:00,2016-04-03 02:51:08,,,
18412259,Effective Management Decision Making,,,,Bookboon.com,,,,,236,0,English,,,,,,,,,,,,,,2087,0,,,,,,,0,5053294,pdf,849b78ed3cc5f9ac824036aa62a7e51e,,,G:\\!genesis\\1\\14.139.43.151\\Effective Management Decision Making - Bookboon.com_2087.pdf,0,2000-01-01 01:00:00,2016-04-03 02:51:08,,,
18412260,Egerton Ryerson and Education in Upper Canada (1912),,,,J Harold Putman,2010,,Kessinger Publishing,,90,0,English,,,,9781164023234,,,,,,,,5njHYgEACAAJ,,772,0,,,,,,,1,482000,pdf,595283044b1a16cd6e78978e3e510453,,,G:\\!genesis\\1\\14.139.43.151\\Egerton Ryerson and Education in Upper Canada (1912) - J Harold Putman_772.pdf,0,2000-01-01 01:00:00,2016-04-03 02:51:08,,,
18412261,Electoral Systems in Divided Societies: The Fiji Constitution,,,,Brij V. Lal & Peter Larmour,2013,,ANU E Press,,167,0,English,,,,"1922144509,9781922144508",,,,,,,,,,1746,0,,,,,,,1,8370009,pdf,fe525de6f13ec0ffdfd66b9e3d208cc8,,,G:\\!genesis\\1\\14.139.43.151\\Electoral Systems in Divided Societies_ The Fiji Constitution - Brij V. Lal &amp; Peter Larmour_1746.pdf,0,2000-01-01 01:00:00,2016-04-03 02:51:08,,,
18412262,Electronic Iran: The Cultural Politics of an Online Evolution,,,,Niki Akhavan,2013,,Rutgers University Press,,160,0,English,,,,"0813561922,9780813561929",,,,,,,,35KZlwEACAAJ,,1676,0,,,,,,,1,996868,pdf,64abfb176c948c8ecb2b290031987caf,,,G:\\!genesis\\1\\14.139.43.151\\Electronic Iran_ The Cultural Politics of an Online Evolution - Niki Akhavan_1676.pdf,0,2000-01-01 01:00:00,2016-04-03 02:51:08,,,
18412263,Elementary Algebra and Calculus,,,,Bookboon.com,,,,,261,0,English,,,,,,,,,,,,,,2096,0,,,,,,,0,12502460,pdf,992fa3cb32b777cd48260676dbd9bb91,,,G:\\!genesis\\1\\14.139.43.151\\Elementary Algebra and Calculus - Bookboon.com_2096.pdf,0,2000-01-01 01:00:00,2016-04-03 02:51:08,,,
18412264,Elementary Algebra Exercise Book I,,,,Bookboon.com,,,,,107,0,English,,,,,,,,,,,,,,1938,0,,,,,,,0,3417073,pdf,c1a9af6cba636b59c5cba1a9f5be1def,,,G:\\!genesis\\1\\14.139.43.151\\Elementary Algebra Exercise Book I - Bookboon.com_1938.pdf,0,2000-01-01 01:00:00,2016-04-03 02:51:08,,,
18412265,Elementary Analytic Functions,,,,Bookboon.com,,,,,145,0,English,,,,,,,,,,,,,,1940,0,,,,,,,0,3298222,pdf,2074c82b498429b1dbbb16dc817af9ea,,,G:\\!genesis\\1\\14.139.43.151\\Elementary Analytic Functions - Bookboon.com_1940.pdf,0,2000-01-01 01:00:00,2016-04-03 02:51:08,,,
18412266,ELEMENTARY FUZZY MATRIX THEORY AND FUZZY MODELS FOR SOCIAL SCIENTISTS,,,,W. B. Vasantha Kandasamy & Florentin Smarandache & K. Ilanthenral,2007,,Automation,,352,0,English,,,,,,,,,,,,,,1426,0,,,,,,,1,3346889,pdf,d994f87285ba86eaf9f314701ca342b1,,,G:\\!genesis\\1\\14.139.43.151\\ELEMENTARY FUZZY MATRIX THEORY AND FUZZY MODELS FOR SOCIAL SCIENTISTS - W. B. Vasantha Kandasamy &amp; Florentin Smarandache &amp; K. Ilanthenral_1426.pdf,0,2000-01-01 01:00:00,2016-04-03 02:51:08,,,
18412267,Elementary Linear Algebra,,,,Bookboon.com,,,,,549,0,English,,,,,,,,,,,,,,1948,0,,,,,,,0,7095132,pdf,5c8013ec7e6769629e87435945021724,,,G:\\!genesis\\1\\14.139.43.151\\Elementary Linear Algebra - Bookboon.com_1948.pdf,0,2000-01-01 01:00:00,2016-04-03 02:51:08,,,
18412268,Emigration and Political Development,,,,Jonathon W. Moses,2011,,Cambridge University Press,,322,0,English,,,,9781139501965,,,,,,,,tOrLV8NhUNkC,,774,0,,,,,,,1,2319336,pdf,82793b80d2a190fb80167f37a4f3eac5,,,G:\\!genesis\\1\\14.139.43.151\\Emigration and Political Development - Jonathon W. Moses_774.pdf,0,2000-01-01 01:00:00,2016-04-03 02:51:08,,,
18412269,Emotional Intelligence,,,,Bookboon.com,,,,,56,0,English,,,,,,,,,,,,,,1964,0,,,,,,,0,2116674,pdf,52469a02f1d9bae223b80f8e974d43ca,,,G:\\!genesis\\1\\14.139.43.151\\Emotional Intelligence - Bookboon.com_1964.pdf,0,2000-01-01 01:00:00,2016-04-03 02:51:08,,,
18412270,Encyclopedia of Body Image and Human Appearance,,,,Thomas F. Cash,2012,,Academic,,897,0,English,,,,9780123849250,,,,,,,,ElFxmAEACAAJ,,775,0,,,,,,,1,33005583,pdf,b2ef81b89bfe336ffb8a220bd9402d62,,,G:\\!genesis\\1\\14.139.43.151\\Encyclopedia of Body Image and Human Appearance - Thomas F. Cash_775.pdf,0,2000-01-01 01:00:00,2016-04-03 02:51:08,,,
18412271,Ending Dirty Energy Policy: Prelude to Climate Change,,,,Joseph P. Tomain,2011,,Cambridge University Press,,330,0,English,,,,"0521127858,9780521127851",,,,,,,,,,1241,0,,,,,,,1,2456619,pdf,d4e7e6433fe32f4c49e7f3f50b75a814,,,G:\\!genesis\\1\\14.139.43.151\\Ending Dirty Energy Policy_ Prelude to Climate Change - Joseph P. Tomain_1241.pdf,0,2000-01-01 01:00:00,2016-04-03 02:51:08,,,
18412272,English for English Speakers - Beginner: Level 1,,,,Bookboon.com,,,,,188,0,English,,,,,,,,,,,,,,1983,0,,,,,,,0,9070562,pdf,3ea4cbe12d40044410c8ff84548cd887,,,G:\\!genesis\\1\\14.139.43.151\\English for English Speakers - Beginner_ Level 1 - Bookboon.com_1983.pdf,0,2000-01-01 01:00:00,2016-04-03 02:51:08,,,
18412273,English for English Speakers - Elementary: Level 2,,,,Bookboon.com,,,,,187,0,English,,,,,,,,,,,,,,1972,0,,,,,,,0,9092127,pdf,db5cb35b7915445da33c45ba93be051b,,,G:\\!genesis\\1\\14.139.43.151\\English for English Speakers - Elementary_ Level 2 - Bookboon.com_1972.pdf,0,2000-01-01 01:00:00,2016-04-03 02:51:08,,,
18412274,English Grammar For Economics And Business,,,,Bookboon.com,,,,,189,0,English,,,,,,,,,,,,,,1975,0,,,,,,,0,2695342,pdf,ed8c2831e2df034b75cc3c424236cb4e,,,G:\\!genesis\\1\\14.139.43.151\\English Grammar For Economics And Business - Bookboon.com_1975.pdf,0,2000-01-01 01:00:00,2016-04-03 02:51:08,,,
18412275,"English Synonyms and Antonyms, With Notes on the Correct Use of Prepositions",,,,James Champlin Fernald,2011,,Nabu Press,,678,0,English,,,,9781175139689,,B009T2IX18,,,,,,,,1887,0,,,,,,,1,1320722,pdf,8d2c1951608bf7dcaf7856f052b18fc5,,,"G:\\!genesis\\1\\14.139.43.151\\English Synonyms and Antonyms, With Notes on the Correct Use of Prepositions - James Champlin Fernald_1887.pdf",0,2000-01-01 01:00:00,2016-04-03 02:51:08,,,
18412276,"Enhancing the quality of learning: dispositions, instruction, and learning processes",,,,JOHN R. KIRBY & MICHAEL J. LAWSON,2013,,Cambridge University Press,,,0,English,,,,,,,,,,,,,,1248,0,,,,,,,0,1129273,mobi,b4b955c60dd384499e527c4eb8c66ef0,,,"G:\\!genesis\\1\\14.139.43.151\\Enhancing the quality of learning_ dispositions, instruction, and learning processes - JOHN R. KIRBY &amp; MICHAEL J. LAWSON_1248.mobi",0,2000-01-01 01:00:00,2016-04-03 02:51:08,,,
18412277,"Enhancing the quality of learning: dispositions, instruction, and learning processes",,,,JOHN R. KIRBY & MICHAEL J. LAWSON,2013,,Cambridge University Press,,461,0,English,,,,,,,,,,,,,,1312,0,,,,,,,1,4523769,pdf,e84f169dc01dd237718940c78552df76,,,"G:\\!genesis\\1\\14.139.43.151\\Enhancing the quality of learning_ dispositions, instruction, and learning processes - JOHN R. KIRBY &amp; MICHAEL J. LAWSON_1312.pdf",0,2000-01-01 01:00:00,2016-04-03 02:51:08,,,
18412278,Enterprise Risk Management,,,,Bookboon.com,,,,,36,0,English,,,,,,,,,,,,,,1993,0,,,,,,,0,1594980,pdf,fe9a9de05ae7b789cd5936bc9b18c1e5,,,G:\\!genesis\\1\\14.139.43.151\\Enterprise Risk Management - Bookboon.com_1993.pdf,0,2000-01-01 01:00:00,2016-04-03 02:51:08,,,
18412279,Entrepreneurship in the Global Economy: Engine for Economic Growth Hardcover,,,,Henry Kressel,2012,,Cambridge University Press,,286,0,English,,,,"1107019761,9781107019768",,,,,,,,,,1311,0,,,,,,,1,2915350,pdf,473435712f2ac721e1b14ecf945f6b4f,,,G:\\!genesis\\1\\14.139.43.151\\Entrepreneurship in the Global Economy_ Engine for Economic Growth Hardcover - Henry Kressel_1311.pdf,0,2000-01-01 01:00:00,2016-04-03 02:51:08,,,
18412280,Environmental Discourses in Public and International Law,,,,Brad Jessup & Kim Rubenstein,2012,,Cambridge University Press,,581,0,English,,,,"1107019427,9781107019423",,,,,,,,,,1310,0,,,,,,,1,4727183,pdf,0306fa24d84664c64cc59769f7e2799c,,,G:\\!genesis\\1\\14.139.43.151\\Environmental Discourses in Public and International Law - Brad Jessup &amp; Kim Rubenstein_1310.pdf,0,2000-01-01 01:00:00,2016-04-03 02:51:08,,,
18412281,Environmental Dispute Resolution in Indonesia,,,,David Nicholson,2009,,BRILL,,353,0,English,,,,"9067183261,9789004253865",,,,,,,,8fFjAAAAQBAJ,,1609,0,,,,,,,1,5200843,pdf,4ad4458efe35e6e9604de9900f7f5b6a,,,G:\\!genesis\\1\\14.139.43.151\\Environmental Dispute Resolution in Indonesia - David Nicholson_1609.pdf,0,2000-01-01 01:00:00,2016-04-03 02:51:08,,,
18412282,Environmental Protection and Human Rights,,,,Donald K. Anton & Dinah L. Shelton,2011,,Cambridge University Press,,1035,0,English,,,,"0521747104,9780521747103",,,,,,,,F_dFYq4oFeYC,,1254,0,,,,,,,1,5904259,pdf,55d1e7c0e2ab7bd4aac76aff8d5dfc9b,,,G:\\!genesis\\1\\14.139.43.151\\Environmental Protection and Human Rights - Donald K. Anton &amp; Dinah L. Shelton_1254.pdf,0,2000-01-01 01:00:00,2016-04-03 02:51:08,,,
18412283,Equity Market: An Introduction,,,,Bookboon.com,,,,,150,0,English,,,,,,,,,,,,,,2006,0,,,,,,,0,4520764,pdf,93cf90b20e380090f53b34a88261185c,,,G:\\!genesis\\1\\14.139.43.151\\Equity Market_ An Introduction - Bookboon.com_2006.pdf,0,2000-01-01 01:00:00,2016-04-03 02:51:08,,,
18412284,Essays on Education and Kindred Subjects,,,,Herbert Spencer,1911,,The Floating Press,,,0,English,,,,"0548806403,9781775414858",,,,,,,,RouxKpTEcuAC,,1258,0,,,,,,,0,413330,epub,9ce693a8b2436a37686c64b8e48e06a4,,,G:\\!genesis\\1\\14.139.43.151\\Essays on Education and Kindred Subjects - Herbert Spencer_1258.epub,0,2000-01-01 01:00:00,2016-04-03 02:51:08,,,
18412285,Essays on Political Economy,,,,M. Frederic Bastiat,2008,,Editorium,,91,0,English,,,,"1406958506,9781600966132",,,,,,,,pBKGOgAACAAJ,,1888,0,,,,,,,1,438098,pdf,2bf5a09cb58e0bd10cdaf624f46a9109,,,G:\\!genesis\\1\\14.139.43.151\\Essays on Political Economy - M. Frederic Bastiat_1888.pdf,0,2000-01-01 01:00:00,2016-04-03 02:51:08,,,
18412286,Essential Group Theory,,,,Bookboon.com,,,,,97,0,English,,,,,,,,,,,,,,2016,0,,,,,,,0,2620458,pdf,2aeb2b8380f460041b4cde202fbb1b36,,,G:\\!genesis\\1\\14.139.43.151\\Essential Group Theory - Bookboon.com_2016.pdf,0,2000-01-01 01:00:00,2016-04-03 02:51:08,,,
18412287,Essentials in Library Administration,,,,Stearns Lutie Eugenia,2013,,HardPress Publishing,,92,0,English,,,,"1313155446,9781313155441",,,,,,,,,,1259,0,,,,,,,1,5936797,pdf,1ced624dce92633178c5017c593359f4,,,G:\\!genesis\\1\\14.139.43.151\\Essentials in Library Administration - Stearns Lutie Eugenia_1259.pdf,0,2000-01-01 01:00:00,2016-04-03 02:51:08,,,
18412288,"Essentials of Economic Theory, as Applied to Modern Problems of Industry and Public Policy",,,,John Bates Clark,2011,,BiblioBazaar,,585,0,English,,,,"1149959827,9781178573862",,,,,,,,7muLpwAACAAJ,,1260,0,,,,,,,1,19311198,pdf,b4bc19a7c5c1e0359855ce801c6c247b,,,"G:\\!genesis\\1\\14.139.43.151\\Essentials of Economic Theory, as Applied to Modern Problems of Industry and Public Policy - John Bates Clark_1260.pdf",0,2000-01-01 01:00:00,2016-04-03 02:51:08,,,
18412289,Essentials of Economics: A Brief Survey of Principles and Policies,,,,Faustino Ballve,1994,,Foundation for Economic Education,,128,0,English,,,,"0910614989,9780910614986",,,,,,,,,,1263,0,,,,,,,1,1477248,pdf,9233f0e6f8899c37edba446d09f625fe,,,G:\\!genesis\\1\\14.139.43.151\\Essentials of Economics_ A Brief Survey of Principles and Policies - Faustino Ballve_1263.pdf,0,2000-01-01 01:00:00,2016-04-03 02:51:08,,,
18412290,Essentials of Microeconomics,,,,Bookboon.com,,,,,155,0,English,,,,,,,,,,,,,,2131,0,,,,,,,0,2948466,pdf,3eda9e9d6e3bd913993c1899b91db43d,,,G:\\!genesis\\1\\14.139.43.151\\Essentials of Microeconomics - Bookboon.com_2131.pdf,0,2000-01-01 01:00:00,2016-04-03 02:51:08,,,
18412291,Essentials of Statistics,,,,Bookboon.com,,,,,103,0,English,,,,,,,,,,,,,,2118,0,,,,,,,0,2569524,pdf,9eb32ef4acaf919635fb0b22220fad47,,,G:\\!genesis\\1\\14.139.43.151\\Essentials of Statistics - Bookboon.com_2118.pdf,0,2000-01-01 01:00:00,2016-04-03 02:51:08,,,
18412292,Essentials of Statistics: Exercises,,,,Bookboon.com,,,,,58,0,English,,,,,,,,,,,,,,2122,0,,,,,,,0,2198749,pdf,4de50b4ee34d8eeec209f9755ef78554,,,G:\\!genesis\\1\\14.139.43.151\\Essentials of Statistics_ Exercises - Bookboon.com_2122.pdf,0,2000-01-01 01:00:00,2016-04-03 02:51:08,,,
18412293,Ethics for Graduate Researchers: A Cross-disciplinary Approach,,,,Cathriona Russell & Linda Hogan & Maureen Junker-Kenny,,,Elsevier,,262,0,English,,,,9780124160491,,,,,,,,,,1267,0,,,,,,,1,2238254,pdf,4c08bf2f2ce41cbe5805db9041d68fcd,,,G:\\!genesis\\1\\14.139.43.151\\Ethics for Graduate Researchers_ A Cross-disciplinary Approach - Cathriona Russell &amp; Linda Hogan &amp; Maureen Junker-Kenny_1267.pdf,0,2000-01-01 01:00:00,2016-04-03 02:51:08,,,
18412294,Europe - Space for Transcultural Existence?,,,,Martin Tamcke & Janny de Jong & Lars Klein & Margriet van der Waal,,,Universit√§tsverlag G√∂ttingen,,294,0,English,,,,,,,,,,,,,,1716,0,,,,,,,1,2433987,pdf,b36f8bad21bfd615cdd1fc29a8f70343,,,G:\\!genesis\\1\\14.139.43.151\\Europe - Space for Transcultural Existence_ - Martin Tamcke &amp; Janny de Jong &amp; Lars Klein &amp; Margriet van der Waal_1716.pdf,0,2000-01-01 01:00:00,2016-04-03 02:51:08,,,
18412295,European Cinema: Face to Face With Hollywood,,,,Thomas Elsaesser,2005,,Amsterdam University Press,,567,0,English,,,,"9053565949,9789053565940",,,,,,,,,,1537,0,,,,,,,1,5307005,pdf,72d0aeadba56147eaddc9d03a87ad41a,,,G:\\!genesis\\1\\14.139.43.151\\European Cinema_ Face to Face With Hollywood - Thomas Elsaesser_1537.pdf,0,2000-01-01 01:00:00,2016-04-03 02:51:08,,,
18412296,"European Immigrations: Trends, Structures and Policy Implications",,,,Marek Ok√≥lski,2012,,Amsterdam University Press,,290,0,English,,,,"9089644571,9789089644572",,,,,,,,yjYFCIeqfKMC,,1599,0,,,,,,,1,4086266,pdf,8ab90552f69c8da3cf52c5c7e5c2dc82,,,"G:\\!genesis\\1\\14.139.43.151\\European Immigrations_ Trends, Structures and Policy Implications - Marek Okolski_1599.pdf",0,2000-01-01 01:00:00,2016-04-03 02:51:08,,,
18412297,"Europese Unie, Turkije en De Islam",,,,The Netherlands Scientific Council For Government Policy,2004,,Amsterdam University Press,,176,0,English,,,,"9053567127,9789053567128",,,,,,,,TD13u1p0DK4C,,1515,0,,,,,,,1,4178631,pdf,c9bfc710339b6957f0e1ad9a180dfc06,,,"G:\\!genesis\\1\\14.139.43.151\\Europese Unie, Turkije en De Islam - The Netherlands Scientific Council For Government Policy_1515.pdf",0,2000-01-01 01:00:00,2016-04-03 02:51:08,,,
18412298,Every Boy's Book: A Complete Encyclop√¶dia of Sports and Amusements. Edited by E. Routledge. With ... Illustrations.,,,,Edmund Routledge,1889,,London,,,0,English,,,,,,,,,,,,mEjhnQEACAAJ,,1273,0,,,,,,,0,19050457,epub,f4a948313f7d685d8d998a6008ba7566,,,G:\\!genesis\\1\\14.139.43.151\\Every Boy&#39;s Book_ A Complete Encyclopaedia of Sports and Amusements. Edited by E. Routledge. With _. Illustrations_ - Edmund Routledge_1273.epub,0,2000-01-01 01:00:00,2016-04-03 02:51:08,,,
18412299,Everyday Imagining and Education,,,,Margaret B. Sutherland,1971,,Routledge and K. Paul,,230,0,English,,,,"0710069952,9780710069955",,,,,,,,aOMLAQAAIAAJ,,1275,0,,,,,,,1,6196491,pdf,1b87cf932fad509080bf10acb3dfaa49,,,G:\\!genesis\\1\\14.139.43.151\\Everyday Imagining and Education - Margaret B. Sutherland_1275.pdf,0,2000-01-01 01:00:00,2016-04-03 02:51:08,,,
18412300,EXAMINING CRITICAL PERSPECTIVES ON HUMAN RIGHTS,,,,ROB DICKINSON; ELENA KATSELLI; COLIN MURRAY & OLE W. PEDERSEN,2012,,Cambridge University Press,,316,0,English,,,,,,,,,,,,,,1308,0,,,,,,,1,2169871,pdf,a8ccac94c466e50f0dfda8684eed676e,,,G:\\!genesis\\1\\14.139.43.151\\EXAMINING CRITICAL PERSPECTIVES ON HUMAN RIGHTS - ROB DICKINSON; ELENA KATSELLI; COLIN MURRAY &amp; OLE W. PEDERSEN_1308.pdf,0,2000-01-01 01:00:00,2016-04-03 02:51:08,,,
18412301,Expansive classification,,,,"Cutter, Charles A. (Charles Ammi), 1837-1903",,,,,252,0,English,,,,,,,,,,,,,,1279,0,,,,,,,1,9091346,pdf,56c14745993246cd8e6a88ca9c238ab2,,,"G:\\!genesis\\1\\14.139.43.151\\Expansive classification - Cutter, Charles A. (Charles Ammi), 1837-1903_1279.pdf",0,2000-01-01 01:00:00,2016-04-03 02:51:08,,,
18412302,Explaining Criminal Careers: Implications for Justice Policy,,,,John F. MacLeod & Peter Grove & David Farrington,2012,,Oxford University Press,,273,0,English,,,,"0199697248,9780191645259",,,,,,,,Lion2ofpU2kC,,1781,0,,,,,,,1,3541256,pdf,c09ce8c0e63067801f168fa35cbe84ee,,,G:\\!genesis\\1\\14.139.43.151\\Explaining Criminal Careers_ Implications for Justice Policy - John F. MacLeod &amp; Peter Grove &amp; David Farrington_1781.pdf,0,2000-01-01 01:00:00,2016-04-03 02:51:08,,,
18412303,"Explaining the Iraq War: Counterfactual Theory, Logic and Evidence Paperback",,,,Frank P. Harvey,2011,,Cambridge University Press,,370,0,English,,,,"1107676584,9781107676589",,,,,,,,,,1280,0,,,,,,,1,3616201,pdf,668abb5c1927bc21cdc613bb9d548ac7,,,"G:\\!genesis\\1\\14.139.43.151\\Explaining the Iraq War_ Counterfactual Theory, Logic and Evidence Paperback - Frank P. Harvey_1280.pdf",0,2000-01-01 01:00:00,2016-04-03 02:51:08,,,
18412304,Exploring 'Unseen' Social Capital in Community Participation: Everyday Lives of Poor Mainland Chinese Migrants in Hong Kong,,,,Sam Wong,2007,,Amsterdam University Press,,220,0,English,,,,"9053560343,9789053560341",,,,,,,,rvXKdV4mZOgC,,1605,0,,,,,,,1,3802782,pdf,0ad1ef1245a955ee92099ed61db262a9,,,G:\\!genesis\\1\\14.139.43.151\\Exploring &#39;Unseen&#39; Social Capital in Community Participation_ Everyday Lives of Poor Mainland Chinese Migrants in Hong Kong - Sam Wong_1605.pdf,0,2000-01-01 01:00:00,2016-04-03 02:51:08,,,
18412305,FACES OF EUROPE SEARCHING FOR LEADERSHIP IN A NEW POLITICAL STYLE,,,,D. Pels,,,"Scientific Council for Government Policy, Hague",,44,0,English,,,,,,,,,,,,,,1653,0,,,,,,,1,217267,pdf,b550d1f505c62d2d757343fc783680bf,,,G:\\!genesis\\1\\14.139.43.151\\FACES OF EUROPE SEARCHING FOR LEADERSHIP IN A NEW POLITICAL STYLE - D. Pels_1653.pdf,0,2000-01-01 01:00:00,2016-04-03 02:51:08,,,
18412306,"Fashioning Intellectual Property: Exhibition, Advertising and the Press, 1789-1918",,,,Megan Richardson & Professor Julian Thomas,2012,,Cambridge University Press,,,0,English,,,,"0521767563,9780521767569",,,,,,,,,,1286,0,,,,,,,0,2933418,mobi,09bedce735ce61cf04541230c15a6e88,,,"G:\\!genesis\\1\\14.139.43.151\\Fashioning Intellectual Property_ Exhibition, Advertising and the Press, 1789-1918 - Megan Richardson &amp; Professor Julian Thomas_1286.mobi",0,2000-01-01 01:00:00,2016-04-03 02:51:08,,,
18412307,"Fashioning Intellectual Property: Exhibition, Advertising and the Press, 1789-1918",,,,Megan Richardson & Professor Julian Thomas,2012,,Cambridge University Press,,225,0,English,,,,"0521767563,9780521767569",,,,,,,,,,1307,0,,,,,,,1,4902629,pdf,73c39f76a7432ba5c943b3612d6e1e13,,,"G:\\!genesis\\1\\14.139.43.151\\Fashioning Intellectual Property_ Exhibition, Advertising and the Press, 1789-1918 - Megan Richardson &amp; Professor Julian Thomas_1307.pdf",0,2000-01-01 01:00:00,2016-04-03 02:51:08,,,
18412308,Female Imperialism and National Identity: Imperial Order Daughters of the Empire,,,,Katie Pickles,2003,,Manchester University Press,,221,0,English,,,,"0719063914,9780719063916",,,,,,,,ManKngEACAAJ,,1575,0,,,,,,,1,2434606,pdf,7b9fb6ac0f6c559e4fd700fb980eb30a,,,G:\\!genesis\\1\\14.139.43.151\\Female Imperialism and National Identity_ Imperial Order Daughters of the Empire - Katie Pickles_1575.pdf,0,2000-01-01 01:00:00,2016-04-03 02:51:08,,,
18412309,Feminist Constitutionalism: global perspectives,,,,BEVERLEY BAINES & DAPHNE BARAK-EREZ & TSVI KAHANA,2012,,Cambridge University Press,,517,0,English,,,,,,,,,,,,,,1289,0,,,,,,,1,3870918,pdf,48e40d2c626b5a512e456cca25a8c728,,,G:\\!genesis\\1\\14.139.43.151\\Feminist Constitutionalism_ global perspectives - BEVERLEY BAINES &amp; DAPHNE BARAK-EREZ &amp; TSVI KAHANA_1289.pdf,0,2000-01-01 01:00:00,2016-04-03 02:51:08,,,
18412310,Fiji Before the Storm: Elections and the Politics of Development,,,,Brij V. Lal,2013,,ANU E Press,,217,0,English,,,,"1922144622,9781922144621",,,,,,,,,,1733,0,,,,,,,1,13133324,pdf,5e6531dc93fb9f155c34de5045baf0d7,,,G:\\!genesis\\1\\14.139.43.151\\Fiji Before the Storm_ Elections and the Politics of Development - Brij V. Lal_1733.pdf,0,2000-01-01 01:00:00,2016-04-03 02:51:08,,,
18412311,Film Architecture and the Transnational Imagination: Set Design in 1930s European Cinema,,,,Tim Bergfelder & Sue Harris & Sarah Street,2007,,Amsterdam University Press,,320,0,English,,,,"9053569847,9789053569801",,,,,,,,Vv4Wnd3ptU4C,,1624,0,,,,,,,1,5418068,pdf,0aca961c552749c4d727448c5fb0494b,,,G:\\!genesis\\1\\14.139.43.151\\Film Architecture and the Transnational Imagination_ Set Design in 1930s European Cinema - Tim Bergfelder &amp; Sue Harris &amp; Sarah Street_1624.pdf,0,2000-01-01 01:00:00,2016-04-03 02:51:08,,,
18412312,Film Remakes as Ritual and Disguise: From Carmen to Ripley,,,,Anat Zanger,2006,,Amsterdam University Press,,169,0,English,,,,"9053567844,9789053567845",,,,,,,,eDm0NWZujrgC,,1495,0,,,,,,,1,9653969,pdf,f62d257a8cf00fbbcb6dc30dc0ff555a,,,G:\\!genesis\\1\\14.139.43.151\\Film Remakes as Ritual and Disguise_ From Carmen to Ripley - Anat Zanger_1495.pdf,0,2000-01-01 01:00:00,2016-04-03 02:51:08,,,
18412313,Films That Work: Industrial Film and the Productivity of Media,,,,Vinzenz Hediger & Patrick Vonderau,2009,,Amsterdam University Press,,496,0,English,,,,"9089640134,9789089640130",,,,,,,,,,1506,0,,,,,,,1,4496502,pdf,c7daeb8fb7f49ce1327e886fdb8adf7d,,,G:\\!genesis\\1\\14.139.43.151\\Films That Work_ Industrial Film and the Productivity of Media - Vinzenz Hediger &amp; Patrick Vonderau_1506.pdf,0,2000-01-01 01:00:00,2016-04-03 02:51:08,,,
18412314,FINAL Declaration and background paper Women's health in Prison for in-house approval _2_,,,,CBY,,,,,67,0,English,,,,,,,,,,,,,,2067,0,,,,,,,1,492132,pdf,bb60a51133dc1f35d5dd93167e2923d6,,,G:\\!genesis\\1\\14.139.43.151\\FINAL Declaration and background paper Women&#39;s health in Prison for in-house approval _2_ - CBY_2067.pdf,0,2000-01-01 01:00:00,2016-04-03 02:51:08,,,
18412315,"Financial Assets, Debt and Liquidity Crises: A Keynesian Approach",,,,Matthieu Charpe & Carl Chiarella & Peter Flaschel & Willi Semmler,2011,,Cambridge University Press,,,0,English,,,,"1107004934,9781107004931",,,,,,,,,,1290,0,,,,,,,0,1499908,mobi,ec6f87102b89cd85fa43b2403f163f09,,,"G:\\!genesis\\1\\14.139.43.151\\Financial Assets, Debt and Liquidity Crises_ A Keynesian Approach - Matthieu Charpe &amp; Carl Chiarella &amp; Peter Flaschel &amp; Willi Semmler_1290.mobi",0,2000-01-01 01:00:00,2016-04-03 02:51:08,,,
18412316,"Financial Assets, Debt and Liquidity Crises: A Keynesian Approach",,,,Matthieu Charpe & Carl Chiarella & Peter Flaschel & Willi Semmler,2011,,Cambridge University Press,,470,0,English,,,,"1107004934,9781107004931",,,,,,,,,,1305,0,,,,,,,1,6952215,pdf,51965e4f18a9fe1732b9d2e967e332f1,,,"G:\\!genesis\\1\\14.139.43.151\\Financial Assets, Debt and Liquidity Crises_ A Keynesian Approach - Matthieu Charpe &amp; Carl Chiarella &amp; Peter Flaschel &amp; Willi Semmler_1305.pdf",0,2000-01-01 01:00:00,2016-04-03 02:51:08,,,
18412317,Financial Crime and Corruption,,,,Sam Vaknin & Lidija Rangelovska,2013,,Narcissus Publications,,690,0,English,,,,,,B0054JJ0YO,,,,,,,,1291,0,,,,,,,1,2561117,pdf,a0d549f3aeb391221faf427cac90c570,,,G:\\!genesis\\1\\14.139.43.151\\Financial Crime and Corruption - Sam Vaknin &amp; Lidija Rangelovska_1291.pdf,0,2000-01-01 01:00:00,2016-04-03 02:51:08,,,
18412318,Financial Econometrics,,,,Bookboon.com,,,,,119,0,English,,,,,,,,,,,,,,2034,0,,,,,,,0,3399720,pdf,46a212b7fb28d25b3c29071806e7483e,,,G:\\!genesis\\1\\14.139.43.151\\Financial Econometrics - Bookboon.com_2034.pdf,0,2000-01-01 01:00:00,2016-04-03 02:51:08,,,
18412319,Finding Success in Forex Trading,,,,Rick Wright,,,,,54,0,English,,,,,,,,,,,,,,1292,0,,,,,,,0,768361,pdf,6c63cece805ea031461c34e52d26b8e5,,,G:\\!genesis\\1\\14.139.43.151\\Finding Success in Forex Trading - Rick Wright_1292.pdf,0,2000-01-01 01:00:00,2016-04-03 02:51:08,,,
18412320,Fish for Life: Interactive Governance for Fisheries,,,,Jan Kooiman & Svein Jentoft & Roger Pullin & Maarten Bavinck,2005,,Amsterdam University Press,,428,0,English,,,,"9053566864,9789053566862",,,,,,,,SRwnq8lPnLAC,,1519,0,,,,,,,1,2730390,pdf,f39d853c2c6a3bc5bc8c2624ef811e0c,,,G:\\!genesis\\1\\14.139.43.151\\Fish for Life_ Interactive Governance for Fisheries - Jan Kooiman &amp; Svein Jentoft &amp; Roger Pullin &amp; Maarten Bavinck_1519.pdf,0,2000-01-01 01:00:00,2016-04-03 02:51:08,,,
18412321,FIT Document(F:\\Ê≥ïËΩÆÂäüÁ≥ªÂàó\\Ê≥ïËΩÆÂäüÂ¶Ç‰ΩïÂØπÂæÖ‰∫∫ÊùÉ\\‰∫∫ÊùÉËã±Êñá.FIT),,,,Administrator,,,,,76,0,English,,,,,,,,,,,,,,2030,0,,,,,,,1,2733548,pdf,dc861d7b654e2f0b5647a1a6ae56cacb,,,G:\\!genesis\\1\\14.139.43.151\\FIT Document(F__Fa Lun Gong Xi Lie _Fa Lun Gong Ru He Dui Dai Ren Quan _Ren Quan Ying Wen .FIT) - Administrator_2030.pdf,0,2000-01-01 01:00:00,2016-04-03 02:51:08,,,
18412322,"Fitting In, Standing Out: Navigating the Social Challenges of High School to Get an Education",,,,Robert Crosnoe,2011,,Cambridge University Press,,289,0,English,,,,"0521182034,9780521182034",,,,,,,,KpyeMgEACAAJ,,1294,0,,,,,,,1,3582991,pdf,2fc13bc339b3ed58b66dc848510eec6e,,,"G:\\!genesis\\1\\14.139.43.151\\Fitting In, Standing Out_ Navigating the Social Challenges of High School to Get an Education - Robert Crosnoe_1294.pdf",0,2000-01-01 01:00:00,2016-04-03 02:51:08,,,
18412323,"Five Hundred Mistakes of Daily Occurrence in Speaking: Pronouncing, and Writing the English Language, Corrected",,,,Walton Burgess,2010,,Nabu Press,,48,0,English,,,,"1141699427,9781141699421",,,,,,,,lzdRRAAACAAJ,,1889,0,,,,,,,1,412685,pdf,7feca21487b725ff6324b8a21556205e,,,"G:\\!genesis\\1\\14.139.43.151\\Five Hundred Mistakes of Daily Occurrence in Speaking_ Pronouncing, and Writing the English Language, Corrected - Walton Burgess_1889.pdf",0,2000-01-01 01:00:00,2016-04-03 02:51:08,,,
18412324,"Foggy Social Structures: Irregular Migration, European Labour Markets and the Welfare State",,,,Michael Bommes & Giuseppe Sciortino,2011,,Amsterdam University Press,,237,0,English,,,,"9089643419,9789089643414",,,,,,,,xoLinQEACAAJ,,1706,0,,,,,,,1,1517179,pdf,97c8e16b253f617469f7417e1e99c29e,,,"G:\\!genesis\\1\\14.139.43.151\\Foggy Social Structures_ Irregular Migration, European Labour Markets and the Welfare State - Michael Bommes &amp; Giuseppe Sciortino_1706.pdf",0,2000-01-01 01:00:00,2016-04-03 02:51:08,,,
18412325,Food and Health,,,,Lydia E. Pinkham Medicine Company,2005,,,,,0,English,,,,,,,,,,,,,,1295,0,,,,,,,0,728630,epub,361226d0b29b6748448781054edd0053,,,G:\\!genesis\\1\\14.139.43.151\\Food and Health - Lydia E. Pinkham Medicine Company_1295.epub,0,2000-01-01 01:00:00,2016-04-03 02:51:08,,,
18412326,Foreign Exchange Market: An Introduction,,,,Bookboon.com,,,,,132,0,English,,,,,,,,,,,,,,2041,0,,,,,,,0,2807133,pdf,7a10914284e6e76f0c3f4d5103bec502,,,G:\\!genesis\\1\\14.139.43.151\\Foreign Exchange Market_ An Introduction - Bookboon.com_2041.pdf,0,2000-01-01 01:00:00,2016-04-03 02:51:08,,,
18412327,Foundations of the Market Price System,,,,Milton M. Shapiro,2012,,Ludwig von Mises Institute,,424,0,English,,,,,,B00772ZPCC,,,,,,,,1297,0,,,,,,,1,16837809,pdf,2edfc9aa6f2ab0a4d8b322590d03f19e,,,G:\\!genesis\\1\\14.139.43.151\\Foundations of the Market Price System - Milton M. Shapiro_1297.pdf,0,2000-01-01 01:00:00,2016-04-03 02:51:08,,,
18412328,Framing Immigrant Integration: Dutch Research-Policy Dialogues in Comparative Perspective,,,,Peter Scholten,2011,,Amsterdam University Press,,321,0,English,,,,"9089642846,9789089642844",,,,,,,,zgN7BIx5zBwC,,1670,0,,,,,,,1,1826572,pdf,c941655c6fb1339d13ad80566d3ca9ae,,,G:\\!genesis\\1\\14.139.43.151\\Framing Immigrant Integration_ Dutch Research-Policy Dialogues in Comparative Perspective - Peter Scholten_1670.pdf,0,2000-01-01 01:00:00,2016-04-03 02:51:08,,,
18412329,Freedom and Discipline,,,,Richard Smith,2011,,Routledge,,145,0,English,,,,"1138007552,9780415697682",,,,,,,,oYixngEACAAJ,,1300,0,,,,,,,1,4461250,pdf,96fb95c4621f40649300590b1ac6c4dd,,,G:\\!genesis\\1\\14.139.43.151\\Freedom and Discipline - Richard Smith_1300.pdf,0,2000-01-01 01:00:00,2016-04-03 02:51:08,,,
18412330,From Behind the Curtain: A Study of Girls' Madrasa in India,,,,Mareike Jule Winkelmann,2005,,Amsterdam University Press,,177,0,English,,,,9789053569078,,,,,,,,59utvng7uqkC,,1685,0,,,,,,,1,1419589,pdf,64e12fe5cf1846eb8debb149dce44bd8,,,G:\\!genesis\\1\\14.139.43.151\\From Behind the Curtain_ A Study of Girls&#39; Madrasa in India - Mareike Jule Winkelmann_1685.pdf,0,2000-01-01 01:00:00,2016-04-03 02:51:08,,,
18412331,From Indus Valley civilization to My Home : A story of Rehabilitation,,,,Deepak Ramchandani,,,,,116,0,English,,,,,,,,,,,,,,1165,0,,,,,,,1,3310460,pdf,c81f0cd57f8dd006c951a8c28b8547de,,,G:\\!genesis\\1\\14.139.43.151\\From Indus Valley civilization to My Home _ A story of Rehabilitation - Deepak Ramchandani_1165.pdf,0,2000-01-01 01:00:00,2016-04-03 02:51:08,,,
18412332,From the Manpower Revolution to the Activation Paradigm: Explaining Institutional Continuity and Change in an Integrating Europe,,,,J. Timo Weishaupt,2011,,Amsterdam University Press,,398,0,English,,,,"9089642528,9789089642523",,,,,,,,1ePDKhmzsEIC,,1790,0,,,,,,,1,1955281,pdf,87244ce3e9210083c7d8b2b258ba0d8a,,,G:\\!genesis\\1\\14.139.43.151\\From the Manpower Revolution to the Activation Paradigm_ Explaining Institutional Continuity and Change in an Integrating Europe - J. Timo Weishaupt_1790.pdf,0,2000-01-01 01:00:00,2016-04-03 02:51:08,,,
18412333,From the Print Media to the Internet,,,,Marie-France Lebert,1999,,Z√©ro Heure,,,0,English,,,,9782745402110,,,,,,,,zUf3mgEACAAJ,,1166,0,,,,,,,0,223370,epub,82bb6f082496b78c3b71044566f09605,,,G:\\!genesis\\1\\14.139.43.151\\From the Print Media to the Internet - Marie-France Lebert_1166.epub,0,2000-01-01 01:00:00,2016-04-03 02:51:08,,,
18412334,Fundamental Questions About the Future of Health Care,,,,L. J. Gunning-Schepers & G. J. Kronjee & R. A. Spasoff,1996,,WRR,,268,0,English,,,,,,,,,,,,Nf-BnQEACAAJ,,1639,0,,,,,,,1,4644560,pdf,2d42a97ebbd955a55f2d4684207ae054,,,G:\\!genesis\\1\\14.139.43.151\\Fundamental Questions About the Future of Health Care - L. J. Gunning-Schepers &amp; G. J. Kronjee &amp; R. A. Spasoff_1639.pdf,0,2000-01-01 01:00:00,2016-04-03 02:51:08,,,
18412335,Fundamental Questions in Cross-Cultural Psychology,,,,Fons J. R. van de Vijver & ATHANASIOS CHASIOTIS; SEGER M. BREUGELMANS,2011,,Cambridge University Press,,624,0,English,,,,,,,,,,,,,,1171,0,,,,,,,1,6665064,pdf,8abc471770d77f999804ef25011d2f44,,,G:\\!genesis\\1\\14.139.43.151\\Fundamental Questions in Cross-Cultural Psychology - Fons J. R. van de Vijver &amp; ATHANASIOS CHASIOTIS; SEGER M. BREUGELMANS_1171.pdf,0,2000-01-01 01:00:00,2016-04-03 02:51:08,,,
18412336,Fundamentals of Supply Chain Management,,,,Bookboon.com,,,,,112,0,English,,,,,,,,,,,,,,2053,0,,,,,,,0,6374095,pdf,0cce3d5dc039df15957c4d5472357a83,,,G:\\!genesis\\1\\14.139.43.151\\Fundamentals of Supply Chain Management - Bookboon.com_2053.pdf,0,2000-01-01 01:00:00,2016-04-03 02:51:08,,,
18412337,Game Theory: Interactive Strategies in Economics and Management,,,,Aviad Heifetz,2012,,Cambridge University Press,,484,0,English,,,,"0521176042,9780521176040",,,,,,,,jjZ7hPJG7qsC,,1178,0,,,,,,,1,59273337,pdf,e7d883113a4f27fd944eaabb0c961cb5,,,G:\\!genesis\\1\\14.139.43.151\\Game Theory_ Interactive Strategies in Economics and Management - Aviad Heifetz_1178.pdf,0,2000-01-01 01:00:00,2016-04-03 02:51:08,,,
18412338,Gandhi and Communal Problems,,,,"Irene Cottage, 2nd floor, 4th Road",,,,,91,0,English,,,,,,,,,,,,,,2082,0,,,,,,,1,527000,pdf,546dcba6a412ca3d6142acce6e5fb27c,,,"G:\\!genesis\\1\\14.139.43.151\\Gandhi and Communal Problems - Irene Cottage, 2nd floor, 4th Road_2082.pdf",0,2000-01-01 01:00:00,2016-04-03 02:51:08,,,
18412339,Gandhi and His Ashrams,,,,Rajesh,,,,,318,0,English,,,,,,,,,,,,,,2074,0,,,,,,,1,1650738,pdf,bfb3f7d4ee64d535efca45209284fad3,,,G:\\!genesis\\1\\14.139.43.151\\Gandhi and His Ashrams - Rajesh_2074.pdf,0,2000-01-01 01:00:00,2016-04-03 02:51:08,,,
18412340,Gandhi and Marx,,,,SARVODAYA1,,,,,96,0,English,,,,,,,,,,,,,,2076,0,,,,,,,1,522307,pdf,c2e70ff996efa39683360298db98ea40,,,G:\\!genesis\\1\\14.139.43.151\\Gandhi and Marx - SARVODAYA1_2076.pdf,0,2000-01-01 01:00:00,2016-04-03 02:51:08,,,
18412341,Gandhi Marg April June2012,,,,my,,,,,133,0,English,,,,,,,,,,,,,,2058,0,,,,,,,1,503034,pdf,6422e3cdc6bb40139a9ce44a9520a98a,,,G:\\!genesis\\1\\14.139.43.151\\Gandhi Marg April June2012 - my_2058.pdf,0,2000-01-01 01:00:00,2016-04-03 02:51:08,,,
18412342,Gender and Culture in Psychology: Theories and Practices,,,,Eva Magnusson & Jeanne Marecek,2012,,Cambridge University Press,,254,0,English,,,,9781107018037,,,,,,,,rfr0n40W3BMC,,1180,0,,,,,,,1,1772004,pdf,28ebd2b2e1d3c9b0cf225104d3feca82,,,G:\\!genesis\\1\\14.139.43.151\\Gender and Culture in Psychology_ Theories and Practices - Eva Magnusson &amp; Jeanne Marecek_1180.pdf,0,2000-01-01 01:00:00,2016-04-03 02:51:08,,,
18412343,"Gender Equality and the Labor Market: Cambodia, Kazakhstan, and the Philippines",,,,Asian Development Bank,2013,,Asian Development Bank,,143,0,English,,,,,,,,,,,,,,1917,0,,,,,,,1,2632581,pdf,179ae0f7e1b5bb4f8c2803a4804a6ef9,,,"G:\\!genesis\\1\\14.139.43.151\\Gender Equality and the Labor Market_ Cambodia, Kazakhstan, and the Philippines - Asian Development Bank_1917.pdf",0,2000-01-01 01:00:00,2016-04-03 02:51:08,,,
18412344,Gender in Science and Technology: Interdisciplinary Approaches,,,,Waltraud Ernst & Ilona Horwath,2013,,Transcript-Verlag,,244,0,English,,,,"383762434X,9783837624342",,,,,,,,iyBJmwEACAAJ,,1772,0,,,,,,,1,1750421,pdf,41f9272f01e5ca8a4bb6579802fb444f,,,G:\\!genesis\\1\\14.139.43.151\\Gender in Science and Technology_ Interdisciplinary Approaches - Waltraud Ernst &amp; Ilona Horwath_1772.pdf,0,2000-01-01 01:00:00,2016-04-03 02:51:08,,,
18412345,"Gender, Generations and the Family in International Migration",,,,Albert Kraler & Eleonore Kofman & Martin Kohli & Camille Schmoll,2011,,Amsterdam University Press,,402,0,English,,,,"9089642854,9789089642851",,,,,,,,22WnngEACAAJ,,1530,0,,,,,,,1,3230190,pdf,d310d58cb17f912893d09968dd63785f,,,"G:\\!genesis\\1\\14.139.43.151\\Gender, Generations and the Family in International Migration - Albert Kraler &amp; Eleonore Kofman &amp; Martin Kohli &amp; Camille Schmoll_1530.pdf",0,2000-01-01 01:00:00,2016-04-03 02:51:08,,,
18412346,"Gender, Law and Justice in a Global Market (Law in Context) Paperback",,,,Ann Stewart,2011,,Cambridge University Press,,388,0,English,,,,"0521746531,9780521746533",,,,,,,,,,1181,0,,,,,,,1,2993413,pdf,13cdfda6fb1a6f594d3f4e356c688230,,,"G:\\!genesis\\1\\14.139.43.151\\Gender, Law and Justice in a Global Market (Law in Context) Paperback - Ann Stewart_1181.pdf",0,2000-01-01 01:00:00,2016-04-03 02:51:08,,,
18412347,"Gender, Migration and Categorisation: Making Distinctions Between Migrants in Western Countries, 1945-2010",,,,Marlou Schrover & Deirdre M. Moloney,2013,,Amsterdam University Press,,273,0,English,,,,"908964573X,9789089645739",,,,,,,,JC-LnAEACAAJ,,1718,0,,,,,,,1,1618874,pdf,53ecf1738bdc0d083d634c2ab9f691d5,,,"G:\\!genesis\\1\\14.139.43.151\\Gender, Migration and Categorisation_ Making Distinctions Between Migrants in Western Countries, 1945-2010 - Marlou Schrover &amp; Deirdre M. Moloney_1718.pdf",0,2000-01-01 01:00:00,2016-04-03 02:51:08,,,
18412348,"Gender, Nationalism, and War: Conflict on the Movie Screen",,,,Matthew Evangelista,2011,,Cambridge University Press,,310,0,English,,,,"052117354X,9781139501071",,,,,,,,JwqsGq5YZXAC,,1189,0,,,,,,,1,8858557,pdf,64f98134f84a185c08a2da62e98bfeca,,,"G:\\!genesis\\1\\14.139.43.151\\Gender, Nationalism, and War_ Conflict on the Movie Screen - Matthew Evangelista_1189.pdf",0,2000-01-01 01:00:00,2016-04-03 02:51:08,,,
18412349,General Equilibrium Theory: An Introduction,,,,Ross M. Starr,1997,,Cambridge University Press,,368,0,English,,,,"0521533864,9780521533867",,,,,,,,,,1190,0,,,,,,,1,3044191,pdf,7c210a55cb298c1ed0c9f22f0768f97b,,,G:\\!genesis\\1\\14.139.43.151\\General Equilibrium Theory_ An Introduction - Ross M. Starr_1190.pdf,0,2000-01-01 01:00:00,2016-04-03 02:51:08,,,
18412350,Genesis of Symbolic Thought,,,,Alan Barnard,2012,,Cambridge University Press,,219,0,English,,,,9781107025691,,,,,,,,5kIw2yAXBcsC,,1197,0,,,,,,,1,1817201,pdf,551add08e1cc62622a19eef049098da6,,,G:\\!genesis\\1\\14.139.43.151\\Genesis of Symbolic Thought - Alan Barnard_1197.pdf,0,2000-01-01 01:00:00,2016-04-03 02:51:08,,,
18412351,Genocide and the Europeans,,,,Karen E. Smith,2010,,Cambridge University Press,,299,0,English,,,,"0521133297,9780521133296",,,,,,,,n3Y-LwEACAAJ,,1198,0,,,,,,,1,2466458,pdf,bd2f63a79d311595c82e48020deb1bca,,,G:\\!genesis\\1\\14.139.43.151\\Genocide and the Europeans - Karen E. Smith_1198.pdf,0,2000-01-01 01:00:00,2016-04-03 02:51:08,,,
18412352,Geoeconomics,,,,Bookboon.com,,,,,302,0,English,,,,,,,,,,,,,,2110,0,,,,,,,0,4270797,pdf,e2d4862dbb16064a8166cf220359d5c9,,,G:\\!genesis\\1\\14.139.43.151\\Geoeconomics - Bookboon.com_2110.pdf,0,2000-01-01 01:00:00,2016-04-03 02:51:08,,,
18412353,Geopolitics: From the Cold War to the 21st Century,,,,Francis P. Sempa,2007,,Transaction Publishers,,127,0,English,,,,"1412807263,9781412807265",,,,,,,,,,1922,0,,,,,,,1,4906392,pdf,f00cfd1a13b08865937fa21da3906a8f,,,G:\\!genesis\\1\\14.139.43.151\\Geopolitics_ From the Cold War to the 21st Century - Francis P. Sempa_1922.pdf,0,2000-01-01 01:00:00,2016-04-03 02:51:08,,,
18412354,"Getting by in Europe's Urban Labour Markets: Senegambian Migrants' Strategies for Survival, Documentation and Mobility",,,,Inge van Nieuwenhuyze,2008,,Amsterdam University Press,,242,0,English,,,,"9089640509,9789089640505",,,,,,,,J-j-6rYBYGwC,,1548,0,,,,,,,1,1136431,pdf,0dfa8b8b5920cd5a4c0e72c4d086e875,,,"G:\\!genesis\\1\\14.139.43.151\\Getting by in Europe&#39;s Urban Labour Markets_ Senegambian Migrants&#39; Strategies for Survival, Documentation and Mobility - Inge van Nieuwenhuyze_1548.pdf",0,2000-01-01 01:00:00,2016-04-03 02:51:08,,,
18412355,Give Me Liberty Or Give Me Death,,,,Patrick Henry,1775,,Feedbooks,,,0,English,,,,,,,,,,,,,,1210,0,,,,,,,0,717796,epub,87952ef1b2ecb5246bc32c884921f38a,,,G:\\!genesis\\1\\14.139.43.151\\Give Me Liberty Or Give Me Death - Patrick Henry_1210.epub,0,2000-01-01 01:00:00,2016-04-03 02:51:08,,,
18412356,Give Me Liberty Or Give Me Death,,,,Patrick Henry,1775,,Feedbooks,,24,0,English,,,,,,,,,,,,,,1319,0,,,,,,,1,358824,pdf,1c110c2b300e792f54a0411fcbc9735c,,,G:\\!genesis\\1\\14.139.43.151\\Give Me Liberty Or Give Me Death - Patrick Henry_1319.pdf,0,2000-01-01 01:00:00,2016-04-03 02:51:08,,,
18412357,Global Analysis,,,,Bookboon.com,,,,,78,0,English,,,,,,,,,,,,,,1941,0,,,,,,,0,2841898,pdf,877d5476593c97f0677c4c84b20f1412,,,G:\\!genesis\\1\\14.139.43.151\\Global Analysis - Bookboon.com_1941.pdf,0,2000-01-01 01:00:00,2016-04-03 02:51:08,,,
18412358,Global Democracy: Normative and Empirical Perspectives,,,,Daniele Archibugi & Mathias Koenig-Archibugi & Raffaele Marchetti,2011,,Cambridge University Press,,330,0,English,,,,,,,,,,,,,,1217,0,,,,,,,1,2345250,pdf,7dfc32b29b9f77b51c095290c7853836,,,G:\\!genesis\\1\\14.139.43.151\\Global Democracy_ Normative and Empirical Perspectives - Daniele Archibugi &amp; Mathias Koenig-Archibugi &amp; Raffaele Marchetti_1217.pdf,0,2000-01-01 01:00:00,2016-04-03 02:51:08,,,
18412359,Global Distributive Justice: An Introduction,,,,Chris Armstrong,2012,,Cambridge University Press,,286,0,English,,,,9781107008922,,,,,,,,zO--rCHRi9UC,,1218,0,,,,,,,1,21526776,pdf,bc189d759c27786675fac33f3f5fe4f9,,,G:\\!genesis\\1\\14.139.43.151\\Global Distributive Justice_ An Introduction - Chris Armstrong_1218.pdf,0,2000-01-01 01:00:00,2016-04-03 02:51:08,,,
18412360,"Global Flows, Local Appropriations (ISIM Dissertations)",,,,Sindre Bangstad,2007,,Amsterdam University Press,,357,0,English,,,,"9053560157,9789053560150",,,,,,,,EkpXVZs_iioC,,1539,0,,,,,,,1,2735047,pdf,55d02cd19f21b473aadd74f6125e3e7c,,,"G:\\!genesis\\1\\14.139.43.151\\Global Flows, Local Appropriations (ISIM Dissertations) - Sindre Bangstad_1539.pdf",0,2000-01-01 01:00:00,2016-04-03 02:51:08,,,
18412361,Global Health : A Challenge for Interdisciplinary Research,,,,Martin Kappas & Uwe Gro√ü & Dermot Kelleher,2012,,Universit√§tsverlag G√∂ttingen,,407,0,English,,,,,,,,,,,,,,1696,0,,,,,,,1,7841679,pdf,e40836c148d52dedeabdbeea129935c8,,,G:\\!genesis\\1\\14.139.43.151\\Global Health _ A Challenge for Interdisciplinary Research - Martin Kappas &amp; Uwe Gross &amp; Dermot Kelleher_1696.pdf,0,2000-01-01 01:00:00,2016-04-03 02:51:08,,,
18412362,Global Indian Diasporas: Exploring Trajectories of Migration and Theory,,,,Gijsbert Oonk,2007,,Amsterdam University Press,,295,0,English,,,,"9053560351,9789053560358",,,,,,,,BkwsMTyShi8C,,1607,0,,,,,,,1,2430858,pdf,6d40d19d0125a736466bddf482796d93,,,G:\\!genesis\\1\\14.139.43.151\\Global Indian Diasporas_ Exploring Trajectories of Migration and Theory - Gijsbert Oonk_1607.pdf,0,2000-01-01 01:00:00,2016-04-03 02:51:08,,,
18412363,Global Justice and International Economic Law: Opportunities and Prospects,,,,CHIOS CARMODY & FRANK J. GARCIA & JOHN LINARELLI,2012,,Cambridge University Press,,,0,English,,,,,,,,,,,,,,1221,0,,,,,,,0,1162800,mobi,03688ea1bfb9089c68bf47923799319f,,,G:\\!genesis\\1\\14.139.43.151\\Global Justice and International Economic Law_ Opportunities and Prospects - CHIOS CARMODY &amp; FRANK J. GARCIA &amp; JOHN LINARELLI_1221.mobi,0,2000-01-01 01:00:00,2016-04-03 02:51:08,,,
18412364,Global Justice and International Economic Law: Opportunities and Prospects,,,,CHIOS CARMODY & FRANK J. GARCIA & JOHN LINARELLI,2012,,Cambridge University Press,,313,0,English,,,,,,,,,,,,,,1316,0,,,,,,,1,2231156,pdf,1b81725565fc6d2e145f09bfae391e02,,,G:\\!genesis\\1\\14.139.43.151\\Global Justice and International Economic Law_ Opportunities and Prospects - CHIOS CARMODY &amp; FRANK J. GARCIA &amp; JOHN LINARELLI_1316.pdf,0,2000-01-01 01:00:00,2016-04-03 02:51:08,,,
18412365,"Global Project Finance, Human Rights and Sustainable Development",,,,Sheldon Leader & David Ong,2011,,Cambridge University Press,,,0,English,,,,"052176260X,9780521762601",,,,,,,,,,1222,0,,,,,,,0,1226549,mobi,08fa47eef3da0bbc64a086108a3cb7a4,,,"G:\\!genesis\\1\\14.139.43.151\\Global Project Finance, Human Rights and Sustainable Development - Sheldon Leader &amp; David Ong_1222.mobi",0,2000-01-01 01:00:00,2016-04-03 02:51:08,,,
18412366,"Global Project Finance, Human Rights and Sustainable Development",,,,Sheldon Leader & David Ong,2011,,Cambridge University Press,,549,0,English,,,,"052176260X,9780521762601",,,,,,,,,,1315,0,,,,,,,1,4295615,pdf,71f839260e958ff7f72c8cc3cf8ea597,,,"G:\\!genesis\\1\\14.139.43.151\\Global Project Finance, Human Rights and Sustainable Development - Sheldon Leader &amp; David Ong_1315.pdf",0,2000-01-01 01:00:00,2016-04-03 02:51:08,,,
18412367,Global Warming Gridlock: Creating More Effective Strategies for Protecting the Planet,,,,David G. Victor,2011,,Cambridge University Press,,405,0,English,,,,"0521865018,9781139496827",,,,,,,,pfuSar62i8wC,,1229,0,,,,,,,1,3573729,pdf,0099593929078c23972fca7f8e8dd117,,,G:\\!genesis\\1\\14.139.43.151\\Global Warming Gridlock_ Creating More Effective Strategies for Protecting the Planet - David G. Victor_1229.pdf,0,2000-01-01 01:00:00,2016-04-03 02:51:08,,,
18412368,Global Women‚Äôs Issues: Women in the World Today,,,,"United states, department of state bureau of international information programs",,,"United states, department of state bureau of international information programs",,185,0,English,,,,,,,,,,,,,,2220,0,,,,,,,1,8589372,pdf,e89d6038f1955751a5729eb55beaa77e,,,"G:\\!genesis\\1\\14.139.43.151\\Global Women's Issues_ Women in the World Today - United states, department of state bureau of international information programs_2220.pdf",0,2000-01-01 01:00:00,2016-04-03 02:51:08,,,
18412369,Globalisation Contested: An International Political Economy of Work,,,,Louise Amoore,2011,,Manchester University Press,,206,0,English,,,,"0719085705,9780719085703",,,,,,,,k46auQAACAAJ,,1576,0,,,,,,,1,1279365,pdf,4f244f5a9db91fc343441d10c01a6083,,,G:\\!genesis\\1\\14.139.43.151\\Globalisation Contested_ An International Political Economy of Work - Louise Amoore_1576.pdf,0,2000-01-01 01:00:00,2016-04-03 02:51:08,,,
18412370,"Globalisation, Migration and Socio-Economic Change in Contemporary Greece: Processes of Social Incorporation of Balkan Immigrants in Thessaloniki",,,,Panos Arion Hatziprokopiou,2006,,Amsterdam University Press,,340,0,English,,,,9789053568736,,,,,,,,v6itRdhjTZwC,,1671,0,,,,,,,1,3410532,pdf,b119dbae39fbf4e38879c88a56f56078,,,"G:\\!genesis\\1\\14.139.43.151\\Globalisation, Migration and Socio-Economic Change in Contemporary Greece_ Processes of Social Incorporation of Balkan Immigrants in Thessaloniki - Panos Arion Hatziprokopiou_1671.pdf",0,2000-01-01 01:00:00,2016-04-03 02:51:08,,,
18412371,God's Rule: Government and Islam,,,,Patricia Crone,2005,,Columbia University Press,,236,0,English,,,,"0231132913,9780231132916",,,,,,,,cgEkngEACAAJ,,1805,0,,,,,,,1,24897630,pdf,fb3f30e24d3863f060e56d01134f19d3,,,G:\\!genesis\\1\\14.139.43.151\\God&#39;s Rule_ Government and Islam - Patricia Crone_1805.pdf,0,2000-01-01 01:00:00,2016-04-03 02:51:08,,,
18412372,Going Europe or Going Dutch (Clingendael Dissertations),,,,Mendeltje van Keulen,2006,,Amsterdam University Press,,265,0,English,,,,"9053568743,9789053568743",,,,,,,,1D6MngEACAAJ,,1675,0,,,,,,,1,4907538,pdf,3aad7e6e6349366066a8fed97fae5c5b,,,G:\\!genesis\\1\\14.139.43.151\\Going Europe or Going Dutch (Clingendael Dissertations) - Mendeltje van Keulen_1675.pdf,0,2000-01-01 01:00:00,2016-04-03 02:51:08,,,
18412373,Gossip in a Library,,,,Edmund Gosse,2010,,pubOne.Info,,,0,English,,,,9782819900634,,,,,,,,RJOp8mw6FJsC,,1233,0,,,,,,,0,227585,epub,9db4ac33461c7b25a7ac91eedf1f01d4,,,G:\\!genesis\\1\\14.139.43.151\\Gossip in a Library - Edmund Gosse_1233.epub,0,2000-01-01 01:00:00,2016-04-03 02:51:08,,,
18412374,"Governance of Global Financial Markets: The Law, the Economics, the Politics",,,,Professor Emilios Avgouleas,2010,,Cambridge University Press,,,0,English,,,,"0521762669,9780521762663",,,,,,,,,,1234,0,,,,,,,0,1231708,mobi,b89e250d5074d5b15a4831e5085d5d8e,,,"G:\\!genesis\\1\\14.139.43.151\\Governance of Global Financial Markets_ The Law, the Economics, the Politics - Professor Emilios Avgouleas_1234.mobi",0,2000-01-01 01:00:00,2016-04-03 02:51:08,,,
18412375,"Governance of Global Financial Markets: The Law, the Economics, the Politics",,,,Professor Emilios Avgouleas,2010,,Cambridge University Press,,508,0,English,,,,"0521762669,9780521762663",,,,,,,,,,1313,0,,,,,,,1,6076334,pdf,3d9dc904af9c5dfbda35fb7f62ffe5f8,,,"G:\\!genesis\\1\\14.139.43.151\\Governance of Global Financial Markets_ The Law, the Economics, the Politics - Professor Emilios Avgouleas_1313.pdf",0,2000-01-01 01:00:00,2016-04-03 02:51:08,,,
18412376,Great Powers and Geopolitical Change,,,,Jakub J. Grygiel,2006,,JHU Press,,277,0,English,,,,"142140415X,9780801884801",,,,,,,,oZjpcHnxH2QC,,1918,0,,,,,,,1,1786702,pdf,eb7bee4f0a9a81d1be84637ac2694ee3,,,G:\\!genesis\\1\\14.139.43.151\\Great Powers and Geopolitical Change - Jakub J. Grygiel_1918.pdf,0,2000-01-01 01:00:00,2016-04-03 02:51:08,,,
18412377,GREEN BOOK: The Solution of the ECONOMIC PROBLEM 'Socialism' PART 2,,,,MU'AMMAR AL-QADHAFI,,,,,18,0,English,,,,,,,,,,,,,,2230,0,,,,,,,1,48396,pdf,bb5230ac11d7a697b1cf00b1fd7c959d,,,G:\\!genesis\\1\\14.139.43.151\\GREEN BOOK_ The Solution of the ECONOMIC PROBLEM &#39;Socialism&#39; PART 2 - MU&#39;AMMAR AL-QADHAFI_2230.pdf,0,2000-01-01 01:00:00,2016-04-03 02:51:08,,,
18412378,Green Book: The Solution of the Problem of DEMOCRACY 'The Authority of the People' Part 1,,,,MU'AMMAR AL-QADHAFI,,,,,22,0,English,,,,,,,,,,,,,,2231,0,,,,,,,1,54714,pdf,06f59dba218a2665d07235d48f9cf7b9,,,G:\\!genesis\\1\\14.139.43.151\\Green Book_ The Solution of the Problem of DEMOCRACY  &#39;The Authority of the People&#39; Part 1 - MU&#39;AMMAR AL-QADHAFI_2231.pdf,0,2000-01-01 01:00:00,2016-04-03 02:51:08,,,
18412379,Group Psychology and the Analysis of the Ego,,,,Sigmund Freud,2013,,CreateSpace Independent Publishing Platform,,54,0,English,,,,"1482042703,9781482042702",,,,,,,,,,1891,0,,,,,,,1,395664,pdf,b840a855458ae32951a9b7daaf784704,,,G:\\!genesis\\1\\14.139.43.151\\Group Psychology and the Analysis of the Ego - Sigmund Freud_1891.pdf,0,2000-01-01 01:00:00,2016-04-03 02:51:08,,,
18412380,Guidelines for Counselling About HIV Infection and Disease,,,,World Health Organization,1990,,World Health OrganizationSeries: WHO AIDS Series [8],,54,0,English,,,,"9241210087,9789241210089",,,,,,,,TKgSAQAAMAAJ,,1489,0,,,,,,,0,1981223,pdf,a552f51c56173c1fa5c3e0adee191ce0,,,G:\\!genesis\\1\\14.139.43.151\\Guidelines for Counselling About HIV Infection and Disease - World Health Organization_1489.pdf,0,2000-01-01 01:00:00,2016-04-03 02:51:08,,,
18412381,Guidelines on Sterilization and Disinfection Methods Effective Against Human Immunodeficiency Virus,,,,World Health Organization,1990,,World Health OrganizationSeries: WHO AIDS Series [2],,15,0,English,,,,"9241212020,9789241212021",,,,,,,,,,1488,0,,,,,,,0,457851,pdf,41ca5de74fb66ee0c7f711ee9e451a72,,,G:\\!genesis\\1\\14.139.43.151\\Guidelines on Sterilization and Disinfection Methods Effective Against Human Immunodeficiency Virus - World Health Organization_1488.pdf,0,2000-01-01 01:00:00,2016-04-03 02:51:08,,,
18412382,Guts and Brains: An Integrative Approach to the Hominin Record,,,,Wil Roebroek,2007,,Leiden University Press,,278,0,English,,,,"9087280149,9789087280147",,,,,,,,,,1528,0,,,,,,,1,8944861,pdf,e37fcb9b5490c44af56a53cfac65d5f9,,,G:\\!genesis\\1\\14.139.43.151\\Guts and Brains_ An Integrative Approach to the Hominin Record - Wil Roebroek_1528.pdf,0,2000-01-01 01:00:00,2016-04-03 02:51:08,,,
18412383,Handbook of Independent Journalism,,,,Deborah Potter,2009,,Orange Grove Books,,68,0,English,,,,"1616100389,9781616100384",,,,,,,,nPWxRAAACAAJ,,1429,0,,,,,,,1,834489,pdf,d32e44b34ed56bd7806b6afb64243808,,,G:\\!genesis\\1\\14.139.43.151\\Handbook of Independent Journalism - Deborah Potter_1429.pdf,0,2000-01-01 01:00:00,2016-04-03 02:51:08,,,
18412384,Handbook of the New York Public Library,,,,New York Public Library,2010,,Nabu Press,,,0,English,,,,"1177886901,9781177886901",,,,,,,,aD-LcgAACAAJ,,1246,0,,,,,,,0,1737468,epub,c8c4a936662119182d6c1ca99a2fa899,,,G:\\!genesis\\1\\14.139.43.151\\Handbook of the New York Public Library - New York Public Library_1246.epub,0,2000-01-01 01:00:00,2016-04-03 02:51:08,,,
18412385,Haqqaniat e Islam,,,,Shah Hakeem Mohammad Akhtar,,,Kutub Khana E Mazhari,,22,0,Urdu,,,,,,,,,,,,,,1247,0,,,,,,,1,1133437,pdf,4409e5df0838616ae6512a8b97f7a7c6,,,G:\\!genesis\\1\\14.139.43.151\\Haqqaniat e Islam - Shah Hakeem Mohammad Akhtar_1247.pdf,0,2000-01-01 01:00:00,2016-04-03 02:51:08,,,
18412386,Hazrat Mohammed or Islam,,,,Vishambharnath,,,,,244,0,Hindi,,,,,,,,,,,,,,1251,0,,,,,,,0,6462551,pdf,9cf229475c23d79ef4f2f7de670a78b5,,,G:\\!genesis\\1\\14.139.43.151\\Hazrat Mohammed or Islam - Vishambharnath_1251.pdf,0,2000-01-01 01:00:00,2016-04-03 02:51:08,,,
18412387,Heal the Abuse - Recover Your Life,,,,Jason Goodwin,,,obooko.com,,190,0,English,,,,,,,,,,,,,,1252,0,,,,,,,1,693512,pdf,8cb315dfb4edde727e0760a68275f97b,,,G:\\!genesis\\1\\14.139.43.151\\Heal the Abuse - Recover Your Life - Jason Goodwin_1252.pdf,0,2000-01-01 01:00:00,2016-04-03 02:51:08,,,
18412388,Health and Education - Charles Kingsley,,,,Charles Kingsley,2009,,CreateSpace Independent Publishing Platform,,,0,English,,,,9781449923624,,,,,,,,say1QwAACAAJ,,1255,0,,,,,,,0,326582,epub,25775a555316b007fa2614ba14ec05dc,,,G:\\!genesis\\1\\14.139.43.151\\Health and Education - Charles Kingsley - Charles Kingsley_1255.epub,0,2000-01-01 01:00:00,2016-04-03 02:51:08,,,
18412389,Health and Education,,,,Hardpress & Kingsley Charles 1819-1875,2013,,HardPress,,125,0,English,,,,"1313797030,9781314044836",,,,,,,,H0sonQEACAAJ,,1256,0,,,,,,,1,639283,pdf,76dd6f4545bce2760c1d78796fcf0377,,,G:\\!genesis\\1\\14.139.43.151\\Health and Education - Hardpress &amp; Kingsley Charles 1819-1875_1256.pdf,0,2000-01-01 01:00:00,2016-04-03 02:51:08,,,
18412390,Health Through Will Power,,,,James J. Walsh,1919,,"Little, Brown, and Company",,,0,English,,,,0766170586,,,,,,,,,,1257,0,,,,,,,0,168280,epub,9510c23328afc2e94afffb1b798ff860,,,G:\\!genesis\\1\\14.139.43.151\\Health Through Will Power - James J. Walsh_1257.epub,0,2000-01-01 01:00:00,2016-04-03 02:51:08,,,
18412391,"Health, Happiness, and Longevity: Health Without Medicine: Happiness Without Money: The Result, Longevity...",,,,Louis Philippe McCarty,2011,,Nabu Press,,,0,English,,,,"1272304612,9781272304614",,,,,,,,SYctuAAACAAJ,,1261,0,,,,,,,0,1106636,epub,9ce0353098d29b082ea82f9da92b6324,,,"G:\\!genesis\\1\\14.139.43.151\\Health, Happiness, and Longevity_ Health Without Medicine_ Happiness Without Money_ The Result, Longevity__ - Louis Philippe McCarty_1261.epub",0,2000-01-01 01:00:00,2016-04-03 02:51:08,,,
18412392,Healthful Sports for Boys,,,,Alfred Rochefort,2010,,Echo Library,,,0,English,,,,"1406839566,9781406839562",,,,,,,,,,1265,0,,,,,,,0,154353,epub,c17e22a3dd2a2926a81ce6ea9502c3b6,,,G:\\!genesis\\1\\14.139.43.151\\Healthful Sports for Boys - Alfred Rochefort_1265.epub,0,2000-01-01 01:00:00,2016-04-03 02:51:08,,,
18412393,Healthier Happier You,,,,Anonymous,,,,,115,0,English,,,,,,,,,,,,,,1266,0,,,,,,,1,718734,pdf,36d166ee370162e5f3b2ef810f073cf0,,,G:\\!genesis\\1\\14.139.43.151\\Healthier Happier You - Anonymous_1266.pdf,0,2000-01-01 01:00:00,2016-04-03 02:51:08,,,
18412394,Health: Five Lay Sermons to Working People (1862),,,,John Brown,2010,,"Kessinger Publishing, LLC",,,0,English,,,,"1164666320,9781164666325",,,,,,,,,,1262,0,,,,,,,0,1319659,epub,418904c3118ba181ce7416e9611edc56,,,G:\\!genesis\\1\\14.139.43.151\\Health_ Five Lay Sermons to Working People (1862) - John Brown_1262.epub,0,2000-01-01 01:00:00,2016-04-03 02:51:08,,,
18412395,Heritage Regimes and the State,,,,"Regina F. Bendix, Arnika Peselmann, Aditya Eggert",,,Universit√§tsverlag G√∂ttingen,,422,0,English,,,,,,,,,,,,,,1702,0,,,,,,,1,6553881,pdf,4461e5e81040a3427c2c3155ccd2f6e6,,,"G:\\!genesis\\1\\14.139.43.151\\Heritage Regimes and the State - Regina F. Bendix, Arnika Peselmann, Aditya Eggert_1702.pdf",0,2000-01-01 01:00:00,2016-04-03 02:51:08,,,
18412396,"Heroines of the Rebellion: Or, Woman's Work in the Civil War",,,,Linus Pierpont Brockett & Mary C. Vaughan,2011,,Nabu Press,,359,0,English,,,,"1174717823,9781174717826",,,,,,,,hFZPXwAACAAJ,,827,0,,,,,,,1,1308994,pdf,08d2f89dde20b878a711bb07df2f65c8,,,"G:\\!genesis\\1\\14.139.43.151\\Heroines of the Rebellion_ Or, Woman&#39;s Work in the Civil War - Linus Pierpont Brockett &amp; Mary C. Vaughan_827.pdf",0,2000-01-01 01:00:00,2016-04-03 02:51:08,,,
18412397,Herself - Talks With Women Concerning Themselves,,,,E. B. Lowry,1911,,CHICAGO FORBES & COMPANY,,77,0,English,,,,9781605973678,,,,,,,,8VBOnwEACAAJ,,1269,0,,,,,,,1,441917,pdf,0d1aa5e12e3c08395c3aced7d1e41566,,,G:\\!genesis\\1\\14.139.43.151\\Herself - Talks With Women Concerning Themselves - E. B. Lowry_1269.pdf,0,2000-01-01 01:00:00,2016-04-03 02:51:08,,,
18412398,Hierarchy and Precedence,,,,James J. Fox,1990,,"Department of anthropology, Research School of Pacific Studies, Australian National University",,286,0,English,,,,,,,,,,,,u1LntgAACAAJ,,1680,0,,,,,,,1,2829736,pdf,373d3c24ffb89cf81ee985361a3b3c83,,,G:\\!genesis\\1\\14.139.43.151\\Hierarchy and Precedence - James J. Fox_1680.pdf,0,2000-01-01 01:00:00,2016-04-03 02:51:08,,,
18412399,Higher Education and Business Standards,,,,Willard Eugene Hotchkiss,2009,,Ulan Press,,24,0,English,,,,9781110674732,,B009PCCUFW,,,,,,o3nZF0CDw7IC,,1271,0,,,,,,,1,721557,pdf,4c682f135f73ec4ff1d6ecf7a51a091c,,,G:\\!genesis\\1\\14.139.43.151\\Higher Education and Business Standards - Willard Eugene Hotchkiss_1271.pdf,0,2000-01-01 01:00:00,2016-04-03 02:51:08,,,
18412400,"Hinduism and Buddhism, Volume 1: An Historical Sketch",,,,Sir Charles Eliot,2007,,Dodo Press,,243,0,English,,,,"1406517933,9781406517934",,,,,,,,qRSkPwAACAAJ,,1892,0,,,,,,,1,876845,pdf,efd78b1b615370902e82814ad97f06e2,,,"G:\\!genesis\\1\\14.139.43.151\\Hinduism and Buddhism, Volume 1_ An Historical Sketch - Sir Charles Eliot_1892.pdf",0,2000-01-01 01:00:00,2016-04-03 02:51:08,,,
18412401,Hindustan ki Qadimi Islami Darsgahen,,,,Abulhasanat Nadvi,,,"Wakil Book Depot, Amritsar",,133,0,Urdu,,,,,,,,,,,,,,1272,0,,,,,,,0,42295134,pdf,40ffda6aa57959623646598b2d5d7c38,,,G:\\!genesis\\1\\14.139.43.151\\Hindustan ki Qadimi Islami Darsgahen - Abulhasanat Nadvi_1272.pdf,0,2000-01-01 01:00:00,2016-04-03 02:51:08,,,
18412402,Historical Materialism and the Economics of Karl Marx,,,,Benedetto Croce,1914,,Transaction Publishers,,83,0,English,,,,9780878556953,,,,,,,,uKbQVpRxOeMC,,1893,0,,,,,,,1,530749,pdf,a3a13a37beb12d44f8d71494c8a33ef1,,,G:\\!genesis\\1\\14.139.43.151\\Historical Materialism and the Economics of Karl Marx - Benedetto Croce_1893.pdf,0,2000-01-01 01:00:00,2016-04-03 02:51:08,,,
18412403,History Makers Elizabeth I,,,,Jacob Abbott,,,,,149,0,English,,,,,,,,,,,,,,1274,0,,,,,,,1,955927,pdf,281a36a11707e15f4a5b4093319fe40f,,,G:\\!genesis\\1\\14.139.43.151\\History Makers Elizabeth I - Jacob Abbott_1274.pdf,0,2000-01-01 01:00:00,2016-04-03 02:51:08,,,
18412404,History Makers Henry VIII,,,,A. F. Pollard,,,,,440,0,English,,,,,,,,,,,,,,1277,0,,,,,,,1,4151203,pdf,c26b1bc3fd8d87468b5e1d2f1f0e0816,,,G:\\!genesis\\1\\14.139.43.151\\History Makers Henry VIII - A. F. Pollard_1277.pdf,0,2000-01-01 01:00:00,2016-04-03 02:51:08,,,
18412405,History Makers Mary Queen of Scots,,,,Jacob Abbott,,,,,156,0,English,,,,,,,,,,,,,,1278,0,,,,,,,1,903516,pdf,ab9756c35345b325a007e039a9a5ebbf,,,G:\\!genesis\\1\\14.139.43.151\\History Makers Mary Queen of Scots - Jacob Abbott_1278.pdf,0,2000-01-01 01:00:00,2016-04-03 02:51:08,,,
18412406,History Makers Richard II,,,,Jacob Abbott,,,,,202,0,English,,,,,,,,,,,,,,1085,0,,,,,,,1,1263049,pdf,7f618ecdfbadf66bbb1e044940e52f0c,,,G:\\!genesis\\1\\14.139.43.151\\History Makers Richard II - Jacob Abbott_1085.pdf,0,2000-01-01 01:00:00,2016-04-03 02:51:08,,,
18412407,History Makers Richard III,,,,Jacob Abbott,,,,,179,0,English,,,,,,,,,,,,,,1086,0,,,,,,,1,1047746,pdf,c2704fe3aedd566861cb53962d07854b,,,G:\\!genesis\\1\\14.139.43.151\\History Makers Richard III - Jacob Abbott_1086.pdf,0,2000-01-01 01:00:00,2016-04-03 02:51:08,,,
18412408,History Makers Richard I: The Lion Heart,,,,Jacob Abbott,,,,,187,0,English,,,,,,,,,,,,,,1281,0,,,,,,,1,1392411,pdf,12e609ba60438972abf384b4d99c6e6a,,,G:\\!genesis\\1\\14.139.43.151\\History Makers Richard I_ The Lion Heart - Jacob Abbott_1281.pdf,0,2000-01-01 01:00:00,2016-04-03 02:51:08,,,
18412409,History Makers William I: The Conqueror,,,,Jacob Abbott,,,,,167,0,English,,,,,,,,,,,,,,1087,0,,,,,,,1,1190983,pdf,eb2e3d7b26a9c25febaea6b10ee59188,,,G:\\!genesis\\1\\14.139.43.151\\History Makers William I_ The Conqueror - Jacob Abbott_1087.pdf,0,2000-01-01 01:00:00,2016-04-03 02:51:08,,,
18412410,History of Education,,,,Levi Seeley,2012,,Tredition Classics,,213,0,English,,,,9783847225249,,B003YMOB2O,,,,,,U6dqmwEACAAJ,,1093,0,,,,,,,1,702709,pdf,08cd4981ba6390b5f888c5d44642df45,,,G:\\!genesis\\1\\14.139.43.151\\History of Education - Levi Seeley_1093.pdf,0,2000-01-01 01:00:00,2016-04-03 02:51:08,,,
18412411,"History of the World War (An Authentic Narrative of the World's Greatest War, Volume III)",,,,Francis A. March & Richard J. Beamish,2005,,INDY PUB,,451,0,English,,,,"1421958562,9781421958569",,,,,,,,qghmngEACAAJ,,1894,0,,,,,,,1,1226694,pdf,5b45357e91d386fc975792b3412281a9,,,"G:\\!genesis\\1\\14.139.43.151\\History of the World War (An Authentic Narrative of the World&#39;s Greatest War, Volume III) - Francis A. March &amp; Richard J. Beamish_1894.pdf",0,2000-01-01 01:00:00,2016-04-03 02:51:08,,,
18412412,History of Woman Suffrage,,,,Elizabeth Cady Stanton,2013,,TheClassics.us,,788,0,English,,,,"1230263985,9781230263984",,,,,,,,OPzPngEACAAJ,,1101,0,,,,,,,1,2421054,pdf,eb237cfd6cb82df729039dafafc363d2,,,G:\\!genesis\\1\\14.139.43.151\\History of Woman Suffrage - Elizabeth Cady Stanton_1101.pdf,0,2000-01-01 01:00:00,2016-04-03 02:51:08,,,
18412413,"History of Woman Suffrage, Volume 6",,,,Matilda Joslyn Gage & Elizabeth Cady Stanton & Ida Husted Harper,2010,,Nabu Press,,528,0,English,,,,"1174533552,9781174533556",,,,,,,,,,1116,0,,,,,,,1,1590117,pdf,957bd0e0138c60604dbec3037b1a27ea,,,"G:\\!genesis\\1\\14.139.43.151\\History of Woman Suffrage, Volume 6 - Matilda Joslyn Gage &amp; Elizabeth Cady Stanton &amp; Ida Husted Harper_1116.pdf",0,2000-01-01 01:00:00,2016-04-03 02:51:08,,,
18412414,"History of Woman Suffrage, Volume I",,,,Susan B. (susan Brownell) Anthony & Elizabeth Cady Stanton & Matilda Joslyn Gage,,,,,652,0,English,,,,,,B004UJL5SS,,,,,,,,1097,0,,,,,,,1,2125224,pdf,fb2ecaa89c2bd80fb156ffb68bbfdcbc,,,"G:\\!genesis\\1\\14.139.43.151\\History of Woman Suffrage, Volume I - Susan B. (susan Brownell) Anthony &amp; Elizabeth Cady Stanton &amp; Matilda Joslyn Gage_1097.pdf",0,2000-01-01 01:00:00,2016-04-03 02:51:08,,,
18412415,"History of Woman Suffrage, Volume III",,,,Elizabeth Cady Stanton & Susan B. (susan Brownell) Anthony & Matilda Joslyn Gage,,,,,888,0,English,,,,,,B004UJU5M0,,,,,,,,1105,0,,,,,,,1,2538456,pdf,b02163296a2b64c6e8ea03547e882b0d,,,"G:\\!genesis\\1\\14.139.43.151\\History of Woman Suffrage, Volume III - Elizabeth Cady Stanton &amp; Susan B. (susan Brownell) Anthony &amp; Matilda Joslyn Gage_1105.pdf",0,2000-01-01 01:00:00,2016-04-03 02:51:08,,,
18412416,HISTORY TIMELINE : WORLD HISTORY TIMELINE FROM ANCIENT HISTORY TO 21ST CENTURY,,,,Anonymous,,,www.ithappened.info,,92,0,English,,,,,,,,,,,,,,1120,0,,,,,,,1,369139,pdf,ab11bfcc198994907fb211f323cf7550,,,G:\\!genesis\\1\\14.139.43.151\\HISTORY TIMELINE _ WORLD HISTORY TIMELINE FROM ANCIENT HISTORY TO 21ST CENTURY - Anonymous_1120.pdf,0,2000-01-01 01:00:00,2016-04-03 02:51:08,,,
18412417,Holy Vedas and Islam,,,,Q. S. Khan,,,Q.S. Khan's Books,,108,0,English,,,,9789380778112,,,,,,,,eyF-E1nHFFYC,,1127,0,,,,,,,1,15366746,pdf,e1ce00a7cb678d48fbd0f0c047eb7e67,,,G:\\!genesis\\1\\14.139.43.151\\Holy Vedas and Islam - Q. S. Khan_1127.pdf,0,2000-01-01 01:00:00,2016-04-03 02:51:08,,,
18412418,Hong Kong's Housing Policy: A Case Study in Social Justice,,,,Betty Yung,2008,,Hong Kong University Press,,240,0,English,,,,"9622099041,9789622099043",,,,,,,,AkwoAQAAIAAJ,,1546,0,,,,,,,1,20136123,pdf,195a62ff620b47767739f9fbf343a64a,,,G:\\!genesis\\1\\14.139.43.151\\Hong Kong&#39;s Housing Policy_ A Case Study in Social Justice - Betty Yung_1546.pdf,0,2000-01-01 01:00:00,2016-04-03 02:51:08,,,
18412419,Horror to the Extreme: Changing Boundaries in Asian Cinema,,,,Jinhee Choi,2009,,Hong Kong University Press,,284,0,English,,,,"9622099734,9789622099739",,,,,,,,,,1722,0,,,,,,,1,2518764,pdf,70d1d79f2f846a5a100e7bce1f32f601,,,G:\\!genesis\\1\\14.139.43.151\\Horror to the Extreme_ Changing Boundaries in Asian Cinema - Jinhee Choi_1722.pdf,0,2000-01-01 01:00:00,2016-04-03 02:51:08,,,
18412420,Hostage Survival in Africa,,,,Jacobus Kotze,,,,,89,0,English,,,,,,,,,,,,,,1128,0,,,,,,,1,1589404,pdf,2c51005c202572a31cc0db6e3ad8fb9a,,,G:\\!genesis\\1\\14.139.43.151\\Hostage Survival in Africa - Jacobus Kotze_1128.pdf,0,2000-01-01 01:00:00,2016-04-03 02:51:08,,,
18412421,How to Catalogue a Library Volume 1889,,,,Henry Benjamin Wheatley,2012,,RareBooksClub.com,,,0,English,,,,"1236562569,9781236562562",,,,,,,,,,1139,0,,,,,,,0,196603,epub,fde8956681cafd6a2580540f17d32083,,,G:\\!genesis\\1\\14.139.43.151\\How to Catalogue a Library Volume 1889 - Henry Benjamin Wheatley_1139.epub,0,2000-01-01 01:00:00,2016-04-03 02:51:08,,,
18412422,"How to Form a Library, 2nd Ed",,,,Henry Benjamin Wheatley,2010,,FQ Books,,,0,English,,,,9783847217541,,B003YMNLSY,,,,,,zqYHkgEACAAJ,,1140,0,,,,,,,0,946737,epub,e1b97b2facb6da37c68ea0d3503499fa,,,"G:\\!genesis\\1\\14.139.43.151\\How to Form a Library, 2nd Ed - Henry Benjamin Wheatley_1140.epub",0,2000-01-01 01:00:00,2016-04-03 02:51:08,,,
18412423,How to Invest Money,,,,George Garr Henry,2009,,BiblioLife,,36,0,English,,,,"1113941820,9781113941824",,,,,,,,,,1897,0,,,,,,,1,760734,pdf,3f6845af2c82636ef01aa94a9bca624c,,,G:\\!genesis\\1\\14.139.43.151\\How to Invest Money - George Garr Henry_1897.pdf,0,2000-01-01 01:00:00,2016-04-03 02:51:08,,,
18412424,How to Motivate Creative People (Including Yourself),,,,Mark McGuinness,,,,,58,0,English,,,,,,,,,,,,,,1141,0,,,,,,,1,779924,pdf,a481988df6248bd53faaba6b4d944edb,,,G:\\!genesis\\1\\14.139.43.151\\How to Motivate Creative People (Including Yourself) - Mark McGuinness_1141.pdf,0,2000-01-01 01:00:00,2016-04-03 02:51:08,,,
18412425,How to Observe: Morals and Manners,,,,Harriet Martineau,2009,,BiblioLife,,91,0,English,,,,"1103207377,9781103207374",,,,,,,,b-aHp-UGLecC,,1898,0,,,,,,,1,516055,pdf,8c0e38c208481506ad8accca379b2e56,,,G:\\!genesis\\1\\14.139.43.151\\How to Observe_ Morals and Manners - Harriet Martineau_1898.pdf,0,2000-01-01 01:00:00,2016-04-03 02:51:08,,,
18412426,How to Stop Worrying and Start Living,,,,Dale Carnegie,1990,,Pocket Books,,203,0,English,,,,"0671733354,9788186775622",,,,,,,,JLozQwAACAAJ,,1929,0,,,,,,,1,627046,pdf,c97312d30420de33f408c81525ff9e7b,,,G:\\!genesis\\1\\14.139.43.151\\How to Stop Worrying and Start Living - Dale Carnegie_1929.pdf,0,2000-01-01 01:00:00,2016-04-03 02:51:08,,,
18412427,How to Succeed in Your Work : a tool kit,,,,Bryan Walker,,,,,69,0,English,,,,,,,,,,,,,,1148,0,,,,,,,1,981121,pdf,30229795247d93550886bacf6b8cc4dd,,,G:\\!genesis\\1\\14.139.43.151\\How to Succeed in Your Work _ a tool kit - Bryan Walker_1148.pdf,0,2000-01-01 01:00:00,2016-04-03 02:51:08,,,
18412428,"How to Succeed; Or, Stepping-Stones to Fame and Fortune",,,,Orison Swett Marden,2008,,Arc Manor LLC,,130,0,English,,,,"1497519748,9781604505719",,,,,,,,qKzZupWV7cYC,,1895,0,,,,,,,1,576858,pdf,c618f4fd675974ecc10972987819f7f2,,,"G:\\!genesis\\1\\14.139.43.151\\How to Succeed; Or, Stepping-Stones to Fame and Fortune - Orison Swett Marden_1895.pdf",0,2000-01-01 01:00:00,2016-04-03 02:51:08,,,
18412429,Human Action: A Treatise on Economics,,,,Ludwig von Mises,2012,,Martino Publishing,,952,0,English,,,,"1614273545,9781614273547",,,,,,,,nNj5nQEACAAJ,,1149,0,,,,,,,1,56394380,pdf,c0a14419e5d2a98213946a573bd6d119,,,G:\\!genesis\\1\\14.139.43.151\\Human Action_ A Treatise on Economics - Ludwig von Mises_1149.pdf,0,2000-01-01 01:00:00,2016-04-03 02:51:08,,,
18412430,Human Development in the Muslim World,,,,Hady Amr,2008,,Massachusetts :The Brookings Institution,,42,0,English,,,,,,,,,,,,,,2123,0,,,,,,,1,4011863,pdf,5d64a83e08c17fe23d0c2cc0a8e1003a,,,G:\\!genesis\\1\\14.139.43.151\\Human Development in the Muslim World - Hady Amr_2123.pdf,0,2000-01-01 01:00:00,2016-04-03 02:51:08,,,
18412431,Human Learning and Memory,,,,David A. Lieberman,2012,,Cambridge University Press,,618,0,English,,,,"0521701392,9780521701396",,,,,,,,,,1156,0,,,,,,,1,6044582,pdf,dd850847fa34ea5f18e090152771fed0,,,G:\\!genesis\\1\\14.139.43.151\\Human Learning and Memory - David A. Lieberman_1156.pdf,0,2000-01-01 01:00:00,2016-04-03 02:51:08,,,
18412432,Human Resource Management,,,,Bookboon.com,,,,,88,0,English,,,,,,,,,,,,,,1976,0,,,,,,,0,2521374,pdf,5723aada38ca6ed55d18e57c167ac9d5,,,G:\\!genesis\\1\\14.139.43.151\\Human Resource Management - Bookboon.com_1976.pdf,0,2000-01-01 01:00:00,2016-04-03 02:51:08,,,
18412433,Human Resources Management,,,,www.atg-edu.com,,,,,87,0,English,,,,,,,,,,,,,,1973,0,,,,,,,0,4182093,pdf,a3ad647984d319d7751d06ec3c76ae5f,,,G:\\!genesis\\1\\14.139.43.151\\Human Resources Management - www.atg-edu.com_1973.pdf,0,2000-01-01 01:00:00,2016-04-03 02:51:08,,,
18412434,Human Rights and Intellectual Property: Mapping the Global Interface,,,,Laurence R. Helfer & Graeme W. Austin,2011,,Cambridge University Press,,577,0,English,,,,"0521711258,9780521711258",,,,,,,,,,1157,0,,,,,,,1,3953552,pdf,e9717a9888b097c6e7586464b2710b73,,,G:\\!genesis\\1\\14.139.43.151\\Human Rights and Intellectual Property_ Mapping the Global Interface - Laurence R. Helfer &amp; Graeme W. Austin_1157.pdf,0,2000-01-01 01:00:00,2016-04-03 02:51:08,,,
18412435,Human Rights as Social Construction,,,,Benjamin Gregg,2012,,Cambridge University Press,,,0,English,,,,9781139505413,,,,,,,,zw97Rccw7mMC,,1158,0,,,,,,,0,708547,mobi,b0c71702639b6600ab0de75d1f47aa90,,,G:\\!genesis\\1\\14.139.43.151\\Human Rights as Social Construction - Benjamin Gregg_1158.mobi,0,2000-01-01 01:00:00,2016-04-03 02:51:08,,,
18412436,Human Rights as Social Construction,,,,Benjamin Gregg,2012,,Cambridge University Press,,281,0,English,,,,9781139505413,,,,,,,,zw97Rccw7mMC,,1324,0,,,,,,,1,1735141,pdf,06742905bdc4d730c9ee2934de0c3c32,,,G:\\!genesis\\1\\14.139.43.151\\Human Rights as Social Construction - Benjamin Gregg_1324.pdf,0,2000-01-01 01:00:00,2016-04-03 02:51:08,,,
18412437,Human Rights in International Relations,,,,David P. Forsythe,2000,,Cambridge University Press,,381,0,English,,,,"1107629845,9781107629844",,,,,,,,,,1161,0,,,,,,,1,2450102,pdf,1e7035a8964f5421975f4019f9ca3b28,,,G:\\!genesis\\1\\14.139.43.151\\Human Rights in International Relations - David P. Forsythe_1161.pdf,0,2000-01-01 01:00:00,2016-04-03 02:51:08,,,
18412438,Human Rights in the United States: beyond exceptionalism,,,,Shareen Hertel & Kathryn Libal,2011,,Cambridge University Press,,409,0,English,,,,,,,,,,,,,,1164,0,,,,,,,1,2216341,pdf,1004332835cee4b654d3d797cff28156,,,G:\\!genesis\\1\\14.139.43.151\\Human Rights in the United States_ beyond exceptionalism - Shareen Hertel &amp; Kathryn Libal_1164.pdf,0,2000-01-01 01:00:00,2016-04-03 02:51:08,,,
18412439,"Human rights, state compliance, and social change: assessing national human rights institutions",,,,RYAN GOODMAN & THOMAS PEGRAM,2012,,Cambridge University Press,,348,0,English,,,,,,,,,,,,,,1176,0,,,,,,,1,1859127,pdf,a365ac889eb103de1b617c482161e3f1,,,"G:\\!genesis\\1\\14.139.43.151\\Human rights, state compliance, and social change_ assessing national human rights institutions - RYAN GOODMAN &amp; THOMAS PEGRAM_1176.pdf",0,2000-01-01 01:00:00,2016-04-03 02:51:08,,,
18412440,Hundred Great Muslims,,,,Khwaja Jamil Ahmad,1984,,Ferozsons,,573,0,English,,,,,,,,,,,,UR4JAQAAIAAJ,,1177,0,,,,,,,1,22562851,pdf,f0d1e14484cb3c07838f5e54078c65a9,,,G:\\!genesis\\1\\14.139.43.151\\Hundred Great Muslims - Khwaja Jamil Ahmad_1177.pdf,0,2000-01-01 01:00:00,2016-04-03 02:51:08,,,
18412441,I Am Malala: The Story of the Girl Who Stood Up for Education and Was Shot by the Taliban,,,,Malala Yousafzai & Christina Lamb,2013,,Weidenfeld & Nicolson,,195,0,English,,,,,,B00E6X4GAW,,,,,,,,1931,0,,,,,,,1,3186806,pdf,9679311a2840c4f3f7a8f4addaae687c,,,G:\\!genesis\\1\\14.139.43.151\\I Am Malala_ The Story of the Girl Who Stood Up for Education and Was Shot by the Taliban - Malala Yousafzai &amp; Christina Lamb_1931.pdf,0,2000-01-01 01:00:00,2016-04-03 02:51:08,,,
18412442,I Still Can‚Äôt Speak English,,,,Bookboon.com,,,,,71,0,English,,,,,,,,,,,,,,2021,0,,,,,,,0,5414918,pdf,456704219507a7ff346c46175be8a6c1,,,G:\\!genesis\\1\\14.139.43.151\\I Still Can't Speak English - Bookboon.com_2021.pdf,0,2000-01-01 01:00:00,2016-04-03 02:51:08,,,
18412443,Ibadaat mein Bidaat,,,,Umar bin Abdul Munam bin Saleem,,,Maktab e Qudusia,,321,0,Urdu,,,,,,,,,,,,,,1186,0,,,,,,,0,5722878,pdf,68ff59369c2864d5b08a042bb2faa056,,,G:\\!genesis\\1\\14.139.43.151\\Ibadaat mein Bidaat - Umar bin Abdul Munam bin Saleem_1186.pdf,0,2000-01-01 01:00:00,2016-04-03 02:51:08,,,
18412444,"Identity in Crossroad Civilisations: Ethnicity, Nationalism and Globalism in Asia",,,,Erich Kolig & Vivienne Sm. Angeles & Sam Wong,2010,,Amsterdam University Press,,263,0,English,,,,"9089641270,9789089641274",,,,,,,,,,1532,0,,,,,,,1,4551712,pdf,8376a0c532655b0ba1ee62f9362df207,,,"G:\\!genesis\\1\\14.139.43.151\\Identity in Crossroad Civilisations_ Ethnicity, Nationalism and Globalism in Asia - Erich Kolig &amp; Vivienne Sm. Angeles &amp; Sam Wong_1532.pdf",0,2000-01-01 01:00:00,2016-04-03 02:51:08,,,
18412445,IGovernment,,,,D. Broeders & H. Griffioen & A. -G. Keizer & E. Keymolen,2011,,Amsterdam University Press,,264,0,English,,,,"908964394X,9789089643940",,,,,,,,BLrXngEACAAJ,,1701,0,,,,,,,1,2640928,pdf,dfcc9b1252fdeb33ad28fa79342ee3f6,,,G:\\!genesis\\1\\14.139.43.151\\IGovernment - D. Broeders &amp; H. Griffioen &amp; A. -G. Keizer &amp; E. Keymolen_1701.pdf,0,2000-01-01 01:00:00,2016-04-03 02:51:08,,,
18412446,Illegal Migration and Gender in a Global and Historical Perspective,,,,Marlou Schrover & Joanne van Der Leun & Leo Lucassen & Chris Quispel,2009,,Amsterdam University Press,,196,0,English,,,,"9089640479,9789089640475",,,,,,,,,,1572,0,,,,,,,1,982897,pdf,d21e41929dbdf72582be1101ac678cb7,,,G:\\!genesis\\1\\14.139.43.151\\Illegal Migration and Gender in a Global and Historical Perspective - Marlou Schrover &amp; Joanne van Der Leun &amp; Leo Lucassen &amp; Chris Quispel_1572.pdf,0,2000-01-01 01:00:00,2016-04-03 02:51:08,,,
18412447,Imaamat Ke Ahel Kaun,,,,Syed Abu Mohammad Badiuddin Shah Rashidi,,,Tauheed Publications,,82,0,Urdu,,,,,,,,,,,,,,1187,0,,,,,,,0,7762521,pdf,a5a0b89280734104d419f7a76c595a20,,,G:\\!genesis\\1\\14.139.43.151\\Imaamat Ke Ahel Kaun - Syed Abu Mohammad Badiuddin Shah Rashidi_1187.pdf,0,2000-01-01 01:00:00,2016-04-03 02:51:08,,,
18412448,Immigrant Performance in the Labour Market: Bonding and Bridging Social Capital,,,,Bram Lancee,2012,,Amsterdam University Press,,191,0,English,,,,"9089643575,9789089643575",,,,,,,,ddQ_nwEACAAJ,,1527,0,,,,,,,1,1374865,pdf,4a7cd4d4884757bd62560cafd1711388,,,G:\\!genesis\\1\\14.139.43.151\\Immigrant Performance in the Labour Market_ Bonding and Bridging Social Capital - Bram Lancee_1527.pdf,0,2000-01-01 01:00:00,2016-04-03 02:51:08,,,
18412449,Immigration and Social Systems: Collected Essays of Michael Bommes,,,,Christina Boswell & Gianni D'Amato,2012,,Amsterdam University Press,,243,0,English,,,,"9089644539,9789089644534",,,,,,,,xVR4fKonDrYC,,1604,0,,,,,,,1,2191580,pdf,815f6f9603365d972c4e5844c0f5347a,,,G:\\!genesis\\1\\14.139.43.151\\Immigration and Social Systems_ Collected Essays of Michael Bommes - Christina Boswell &amp; Gianni D&#39;Amato_1604.pdf,0,2000-01-01 01:00:00,2016-04-03 02:51:08,,,
18412450,Imperialism and Social Classes,,,,Joseph Alois Schumpeter,1951,,Porcupine Pr,,191,0,English,,,,"0879912561,9781610164306",,,,,,,,dN4NH9HU6jAC,,1188,0,,,,,,,1,14345958,pdf,3d5844cc8b699d8c674c9e3119f70243,,,G:\\!genesis\\1\\14.139.43.151\\Imperialism and Social Classes - Joseph Alois Schumpeter_1188.pdf,0,2000-01-01 01:00:00,2016-04-03 02:51:08,,,
18412451,Implementing Open Access Mandates in Europe,,,,Birgit Schmidt & Iryna Kuchma,2012,,Universit√§tsverlag G√∂ttingen,,179,0,English,,,,,,,,,,,,,,1615,0,,,,,,,1,1834646,pdf,c741c87c30243941151458e8abf627c9,,,G:\\!genesis\\1\\14.139.43.151\\Implementing Open Access Mandates in Europe - Birgit Schmidt &amp; Iryna Kuchma_1615.pdf,0,2000-01-01 01:00:00,2016-04-03 02:51:08,,,
18412452,In Death's Waiting Room: Living and Dying With Dementia in a Multicultural Society,,,,Anne-Mei The,2008,,Amsterdam University Press,,204,0,English,,,,"9053560777,9789053560778",,,,,,,,,,1598,0,,,,,,,1,988391,pdf,db8f7102965470b67dd53ff9abfcd252,,,G:\\!genesis\\1\\14.139.43.151\\In Death&#39;s Waiting Room_ Living and Dying With Dementia in a Multicultural Society - Anne-Mei The_1598.pdf,0,2000-01-01 01:00:00,2016-04-03 02:51:08,,,
18412453,In Defense of Women,,,,H. L. Mencken,2012,,Dover Publications,,56,0,English,,,,1470056879,,B00A45EATS,,,,,,,,1196,0,,,,,,,1,418684,pdf,acd14d8d9a52fc689fc29e14cd4417cc,,,G:\\!genesis\\1\\14.139.43.151\\In Defense of Women - H. L. Mencken_1196.pdf,0,2000-01-01 01:00:00,2016-04-03 02:51:08,,,
18412454,In Search of Effective Disability Policy: Comparing the Developments and Outcomes of Dutch and Danish Disability Policies,,,,Jan H√∏gelund,2003,,Amsterdam University Press,,209,0,English,,,,9789053566442,,,,,,,,l4u0T6m-uiIC,,1529,0,,,,,,,1,1874861,pdf,86cd961d86328b3a7be83f443ed74cd6,,,G:\\!genesis\\1\\14.139.43.151\\In Search of Effective Disability Policy_ Comparing the Developments and Outcomes of Dutch and Danish Disability Policies - Jan Hogelund_1529.pdf,0,2000-01-01 01:00:00,2016-04-03 02:51:08,,,
18412455,In the School-Room: Chapters in the Philosophy of Education,,,,John Seely Hart,1868,,Ulan Press,,105,0,English,,,,9781425526191,,B009HSM6VC,,,,,,R3NNGQAACAAJ,,1206,0,,,,,,,1,545184,pdf,2808a3b802a28e7f12f3907eda360de3,,,G:\\!genesis\\1\\14.139.43.151\\In the School-Room_ Chapters in the Philosophy of Education - John Seely Hart_1206.pdf,0,2000-01-01 01:00:00,2016-04-03 02:51:08,,,
18412456,"Incentives for Women to Work: A Comparison Between the Netherlands, Sweden, and West Germany",,,,Siv Gustafsson & Marga Bruyn-Hundt,1991,,Netherlands Scientific Council for Government Policy,,58,0,English,,,,"9034625923,9789034625922",,,,,,,,ngSvAAAACAAJ,,1628,0,,,,,,,1,695465,pdf,35f1616d17abd1e43867c4b7e56dfb7a,,,"G:\\!genesis\\1\\14.139.43.151\\Incentives for Women to Work_ A Comparison Between the Netherlands, Sweden, and West Germany - Siv Gustafsson &amp; Marga Bruyn-Hundt_1628.pdf",0,2000-01-01 01:00:00,2016-04-03 02:51:08,,,
18412457,Inclined to Liberty : The Futile Attempt to Supress the Human Spirit,,,,Louis E. Carabini,2008,,Ludwig von Mises Institute,,114,0,English,,,,"1933550295,9781933550299",,,,,,,,,,1207,0,,,,,,,1,919523,pdf,8707ba8caecce233d3f1a04fc5b768b2,,,G:\\!genesis\\1\\14.139.43.151\\Inclined to Liberty _ The Futile Attempt to Supress the Human Spirit - Louis E. Carabini_1207.pdf,0,2000-01-01 01:00:00,2016-04-03 02:51:08,,,
18412458,Increasing Human Efficiency in Business,,,,Walter Dill Scott,2005,,"Cosimo, Inc.",,99,0,English,,,,"1419126288,9781596050723",,,,,,,,QRJJTXjlJGwC,,1848,0,,,,,,,1,563836,pdf,dfe6f3e65d39ad78751cc4af94406d92,,,G:\\!genesis\\1\\14.139.43.151\\Increasing Human Efficiency in Business - Walter Dill Scott_1848.pdf,0,2000-01-01 01:00:00,2016-04-03 02:51:08,,,
18412459,India Since 1980,,,,Sumit Ganguly & Rahul Mukherji,2011,,Cambridge University Press,,223,0,English,,,,9781139498661,,,,,,,,UpK7oyb0kvkC,,1208,0,,,,,,,1,1735169,pdf,66b14e1aa25bdf42addaf9b7edf254a0,,,G:\\!genesis\\1\\14.139.43.151\\India Since 1980 - Sumit Ganguly &amp; Rahul Mukherji_1208.pdf,0,2000-01-01 01:00:00,2016-04-03 02:51:08,,,
18412460,India's Nation Builders,,,,Bannerjea Devendra Nath 1888-,2013,,HardPress Publishing,,246,0,English,,,,"1313438790,9781313438797",,,,,,,,,,1216,0,,,,,,,1,12027621,pdf,b4260d7681594aaea593dfda2fd049fe,,,G:\\!genesis\\1\\14.139.43.151\\India&#39;s Nation Builders - Bannerjea Devendra Nath 1888-_1216.pdf,0,2000-01-01 01:00:00,2016-04-03 02:51:08,,,
18412461,"Indigenous Peoples, Poverty and Human Development in Latin America Hardcover",,,,Harry Anthony Patrinos,2006,,Palgrave Macmillan,,,0,English,,,,"1403999384,9781403999382",,,,,,,,,,1220,0,,,,,,,0,961049,mobi,b7b300f33982b3995ff0781dd75987f8,,,"G:\\!genesis\\1\\14.139.43.151\\Indigenous Peoples, Poverty and Human Development in Latin America Hardcover - Harry Anthony Patrinos_1220.mobi",0,2000-01-01 01:00:00,2016-04-03 02:51:08,,,
18412462,"Indigenous Peoples, Poverty and Human Development in Latin America Hardcover",,,,Harry Anthony Patrinos,2006,,Palgrave Macmillan,,388,0,English,,,,"1403999384,9781403999382",,,,,,,,,,1317,0,,,,,,,1,4069883,pdf,e37c16ec434382ce8bb0e44b916b138d,,,"G:\\!genesis\\1\\14.139.43.151\\Indigenous Peoples, Poverty and Human Development in Latin America Hardcover - Harry Anthony Patrinos_1317.pdf",0,2000-01-01 01:00:00,2016-04-03 02:51:08,,,
18412463,Individualism and Economic Order,,,,F. A. Hayek,2012,,University Of Chicago Press,,282,0,English,,,,0226320936,,B00GRS0ZY0,,,,,,,,1226,0,,,,,,,1,15528797,pdf,ee0016146540ad5ab76050c123524d54,,,G:\\!genesis\\1\\14.139.43.151\\Individualism and Economic Order - F. A. Hayek_1226.pdf,0,2000-01-01 01:00:00,2016-04-03 02:51:08,,,
18412464,Individuals and Identity in Economics,,,,John B. Davis,2010,,Cambridge University Press,,280,0,English,,,,"1107001927,9780521173537",,,,,,,,UfEMLwEACAAJ,,1227,0,,,,,,,1,2634717,pdf,77b159b47527c6af09f05b2bb8fe8cb8,,,G:\\!genesis\\1\\14.139.43.151\\Individuals and Identity in Economics - John B. Davis_1227.pdf,0,2000-01-01 01:00:00,2016-04-03 02:51:08,,,
18412465,Industrial Revolution,,,,Poul William Anderson,2010,,FQ Books,,39,0,English,,,,"1606645056,9781153830409",,,,,,,,D62YSQAACAAJ,,1899,0,,,,,,,1,714207,pdf,6cf46bb2ffab44d8d0413d53e0d7a87a,,,G:\\!genesis\\1\\14.139.43.151\\Industrial Revolution - Poul William Anderson_1899.pdf,0,2000-01-01 01:00:00,2016-04-03 02:51:08,,,
18412466,Innovation and Small Business - Volume 2,,,,Bookboon.com,,,,,113,0,English,,,,,,,,,,,,,,1995,0,,,,,,,0,2470374,pdf,660a254119a7bf887920aead86e6a81a,,,G:\\!genesis\\1\\14.139.43.151\\Innovation and Small Business - Volume 2 - Bookboon.com_1995.pdf,0,2000-01-01 01:00:00,2016-04-03 02:51:08,,,
18412467,Innovative Concepts for Alternative Migration Policies : Ten Innovative Approaches to the Challenges of Migration in the 21st Century,,,,Michael Jandl,2011,,Amsterdam University Press,,156,0,English,,,,,,B005SQFC22,,,,,,,,1493,0,,,,,,,1,613426,pdf,6d0147002e2e212afaca584f7ba0fc56,,,G:\\!genesis\\1\\14.139.43.151\\Innovative Concepts for Alternative Migration Policies _ Ten Innovative Approaches to the Challenges of Migration in the 21st Century - Michael Jandl_1493.pdf,0,2000-01-01 01:00:00,2016-04-03 02:51:08,,,
18412468,Innovative Service Design Workbook,,,,Bookboon.com,,,,,87,0,English,,,,,,,,,,,,,,1999,0,,,,,,,0,3606316,pdf,9365d4aaebb0e6cdfe8d18e0dd2dc319,,,G:\\!genesis\\1\\14.139.43.151\\Innovative Service Design Workbook - Bookboon.com_1999.pdf,0,2000-01-01 01:00:00,2016-04-03 02:51:08,,,
18412469,Inside the Canberra Press Gallery: Life in the Wedding Cake of Old Parliament House,,,,Rob Chalmers & Sam Vincent & John Wanna,2011,,ANU E Press,,266,0,English,,,,"192186236X,9781921862366",,,,,,,,EcN9uAAACAAJ,,1778,0,,,,,,,1,1208281,pdf,de1f3176ae58afeb4a0aefa0eaca8615,,,G:\\!genesis\\1\\14.139.43.151\\Inside the Canberra Press Gallery_ Life in the Wedding Cake of Old Parliament House - Rob Chalmers &amp; Sam Vincent &amp; John Wanna_1778.pdf,0,2000-01-01 01:00:00,2016-04-03 02:51:08,,,
18412470,Insights for Teachers and Students,,,,Brent Muirhead,2005,,International Journal of Instructional Technology and Distance Learning,,145,0,English,,,,,,,,,,,,,,1454,0,,,,,,,1,1000238,pdf,57ed4229752ce6cfb6d600826489ba09,,,G:\\!genesis\\1\\14.139.43.151\\Insights for Teachers and Students - Brent Muirhead_1454.pdf,0,2000-01-01 01:00:00,2016-04-03 02:51:08,,,
18412471,Integral Operators,,,,Bookboon.com,,,,,66,0,English,,,,,,,,,,,,,,2002,0,,,,,,,0,2354999,pdf,71b7d10cc0380838120427c8c588af90,,,G:\\!genesis\\1\\14.139.43.151\\Integral Operators - Bookboon.com_2002.pdf,0,2000-01-01 01:00:00,2016-04-03 02:51:08,,,
18412472,International Economic Disintegration,,,,Wilhelm Ropke,,,,,299,0,English,,,,,,,,,,,,,,1237,0,,,,,,,1,16135721,pdf,f4678d79f9582ff81b4d35aa1fbedbdf,,,G:\\!genesis\\1\\14.139.43.151\\International Economic Disintegration - Wilhelm Ropke_1237.pdf,0,2000-01-01 01:00:00,2016-04-03 02:51:08,,,
18412473,International Education and the Chinese Learner,,,,Janette Ryan,2010,,Hong Kong University Press,,214,0,English,,,,"9888028448,9789888028450",,,,,,,,,,1732,0,,,,,,,1,2670654,pdf,dd564b6e4497fb927588538cfc2c7cba,,,G:\\!genesis\\1\\14.139.43.151\\International Education and the Chinese Learner - Janette Ryan_1732.pdf,0,2000-01-01 01:00:00,2016-04-03 02:51:08,,,
18412474,International Law,,,,George Grafton Wilson,2012,,Nabu Press,,480,0,English,,,,9781248480571,,,,,,,,dOP_LQEACAAJ,,1243,0,,,,,,,1,2079944,pdf,69ad5f7ba2c650e15dd544f3065ec9b1,,,G:\\!genesis\\1\\14.139.43.151\\International Law - George Grafton Wilson_1243.pdf,0,2000-01-01 01:00:00,2016-04-03 02:51:08,,,
18412475,International Law and International Relations,,,,David Armstrong & Theo Farrell & H√©l√®ne Lambert,2007,,Cambridge University Press,,374,0,English,,,,"1107648246,9781107648241",,,,,,,,,,1060,0,,,,,,,1,2414267,pdf,45ba8909a5514e9e134ce7d30bd33e55,,,G:\\!genesis\\1\\14.139.43.151\\International Law and International Relations - David Armstrong &amp; Theo Farrell &amp; Helene Lambert_1060.pdf,0,2000-01-01 01:00:00,2016-04-03 02:51:08,,,
18412476,"International Law, US Power: The United States' Quest for Legal Security",,,,Shirley V. Scott,2012,,Cambridge University Press,,300,0,English,,,,9781107016729,,,,,,,,jlhVgq8d6JIC,,1070,0,,,,,,,1,2471871,pdf,4c1275b928daa23dc899b53e85ab90e6,,,"G:\\!genesis\\1\\14.139.43.151\\International Law, US Power_ The United States&#39; Quest for Legal Security - Shirley V. Scott_1070.pdf",0,2000-01-01 01:00:00,2016-04-03 02:51:08,,,
18412477,"International Management Ethics: A Critical, Cross-Cultural Perspective",,,,Terence Jackson,2011,,Cambridge University Press,,318,0,English,,,,"0521618657,9780521618656",,,,,,,,,,1071,0,,,,,,,1,2784822,pdf,177f9871db120f02d863b430ab03996a,,,"G:\\!genesis\\1\\14.139.43.151\\International Management Ethics_ A Critical, Cross-Cultural Perspective - Terence Jackson_1071.pdf",0,2000-01-01 01:00:00,2016-04-03 02:51:08,,,
18412478,International Order and Economic Integration,,,,Wilhelm R√∂pke,2012,,Ludwig von Mises Institute,,286,0,English,,,,,,B0075F4GZI,,,,,,,,1076,0,,,,,,,1,16735267,pdf,8df6748ac03ee396bf0bcbc882c7ba4f,,,G:\\!genesis\\1\\14.139.43.151\\International Order and Economic Integration - Wilhelm Ropke_1076.pdf,0,2000-01-01 01:00:00,2016-04-03 02:51:08,,,
18412479,International Practices,,,,Emanuel Adler & Vincent Pouliot,2011,,Cambridge University Press,,393,0,English,,,,,,,,,,,,,,1077,0,,,,,,,1,2741755,pdf,f57e6237d3a3a46851a4519f6cfca213,,,G:\\!genesis\\1\\14.139.43.151\\International Practices - Emanuel Adler &amp; Vincent Pouliot_1077.pdf,0,2000-01-01 01:00:00,2016-04-03 02:51:08,,,
18412480,International Relations Theory and Regional Transformation Paperback,,,,T. V. Paul,2012,,Cambridge University Press,,322,0,English,,,,"1107604559,9781107604551",,,,,,,,,,1078,0,,,,,,,1,3571194,pdf,63e6eceb80a518de3c1d8dcc7a52fbf9,,,G:\\!genesis\\1\\14.139.43.151\\International Relations Theory and Regional Transformation Paperback - T. V. Paul_1078.pdf,0,2000-01-01 01:00:00,2016-04-03 02:51:08,,,
18412481,International Relations Theory and the Consequences of Unipolarity,,,,G. John Iikenberry & Michael Mastanduno & William C. Wohlforth,2011,,Cambridge University Press,,403,0,English,,,,,,,,,,,,,,1079,0,,,,,,,1,2270308,pdf,cd70285a6bcbf9d73d0bb8edf4028433,,,G:\\!genesis\\1\\14.139.43.151\\International Relations Theory and the Consequences of Unipolarity - G. John Iikenberry &amp; Michael Mastanduno &amp; William C. Wohlforth_1079.pdf,0,2000-01-01 01:00:00,2016-04-03 02:51:08,,,
18412482,"Interpreting Ancient Figurines: Context, Comparison, and Prehistoric Art",,,,Richard G. Lesure,2011,,Cambridge University Press,,,0,English,,,,"0521197457,9780521197458",,,,,,,,,,1088,0,,,,,,,0,12882117,mobi,17bb331684398b8cc67fcf1f4c2d2d33,,,"G:\\!genesis\\1\\14.139.43.151\\Interpreting Ancient Figurines_ Context, Comparison, and Prehistoric Art - Richard G. Lesure_1088.mobi",0,2000-01-01 01:00:00,2016-04-03 02:51:08,,,
18412483,"Interpreting Ancient Figurines: Context, Comparison, and Prehistoric Art",,,,Richard G. Lesure,2011,,Cambridge University Press,,232,0,English,,,,"0521197457,9780521197458",,,,,,,,,,1331,0,,,,,,,1,12473545,pdf,b44b9db7b203c0b211b6a54a66115424,,,"G:\\!genesis\\1\\14.139.43.151\\Interpreting Ancient Figurines_ Context, Comparison, and Prehistoric Art - Richard G. Lesure_1331.pdf",0,2000-01-01 01:00:00,2016-04-03 02:51:08,,,
18412484,Interpreting Figurative Meaning,,,,Raymond W. Gibbs & Herbert L. Colston,2012,,Cambridge University Press,,398,0,English,,,,9781107024359,,,,,,,,7zIkM2RyyNYC,,1095,0,,,,,,,1,2482256,pdf,3ae4436857999f077525edb0c961394f,,,G:\\!genesis\\1\\14.139.43.151\\Interpreting Figurative Meaning - Raymond W. Gibbs &amp; Herbert L. Colston_1095.pdf,0,2000-01-01 01:00:00,2016-04-03 02:51:08,,,
18412485,Interpreting the Labour Party: Approaches to Labour Politics and History,,,,John Callaghan & Steve Fielding & Steve Ludlam,2004,,Manchester University Press,,221,0,English,,,,0719067197,,B0078XYLNY,,,,,,,,1578,0,,,,,,,1,1236979,pdf,79ff45d02c6e83d32554d13694228b62,,,G:\\!genesis\\1\\14.139.43.151\\Interpreting the Labour Party_ Approaches to Labour Politics and History - John Callaghan &amp; Steve Fielding &amp; Steve Ludlam_1578.pdf,0,2000-01-01 01:00:00,2016-04-03 02:51:08,,,
18412486,Introduction to Comparative Politics: The State and its Challenges,,,,Robert Hislope & Anthony Mughan,2012,,Cambridge University Press,,355,0,English,,,,0521765161,,,,,,,,,,1098,0,,,,,,,1,2363387,pdf,a4837333b0b5e8a03030bf795dcbf203,,,G:\\!genesis\\1\\14.139.43.151\\Introduction to Comparative Politics_ The State and its Challenges - Robert Hislope &amp; Anthony Mughan_1098.pdf,0,2000-01-01 01:00:00,2016-04-03 02:51:08,,,
18412487,Introduction to Game Theory,,,,Bookboon.com,,,,,67,0,English,,,,,,,,,,,,,,2009,0,,,,,,,0,2454271,pdf,50dbbd3a2c03b7ba2b90d5291b99f4e8,,,G:\\!genesis\\1\\14.139.43.151\\Introduction to Game Theory - Bookboon.com_2009.pdf,0,2000-01-01 01:00:00,2016-04-03 02:51:08,,,
18412488,Introduction to Probability,,,,Bookboon.com,,,,,61,0,English,,,,,,,,,,,,,,2012,0,,,,,,,0,2165079,pdf,3bdc0e4d79734ca4d8dd3eba4cd3b4c7,,,G:\\!genesis\\1\\14.139.43.151\\Introduction to Probability - Bookboon.com_2012.pdf,0,2000-01-01 01:00:00,2016-04-03 02:51:08,,,
18412489,Introduction to Statistics,,,,Md. Mortuza Ahmmed,,,,,47,0,English,,,,,,,,,,,,,,1108,0,,,,,,,1,1032456,pdf,e580aed90613efb9eda20583282c6280,,,G:\\!genesis\\1\\14.139.43.151\\Introduction to Statistics - Md. Mortuza Ahmmed_1108.pdf,0,2000-01-01 01:00:00,2016-04-03 02:51:08,,,
18412490,Introduction to the Theory of Value,,,,William Smart,1966,,Augustus M. Kelley,,118,0,English,,,,"067800174X,9780678001745",,,,,,,,yX40mgEACAAJ,,1117,0,,,,,,,1,4485648,pdf,3700be05d53609436bfecde91b604aa2,,,G:\\!genesis\\1\\14.139.43.151\\Introduction to the Theory of Value - William Smart_1117.pdf,0,2000-01-01 01:00:00,2016-04-03 02:51:08,,,
18412491,Investigating Pristine Inner Experience: Moments of Truth Paperback,,,,Russell T. Hurlburt,2011,,Cambridge University Press,,495,0,English,,,,"0521279127,9780521279123",,,,,,,,,,1121,0,,,,,,,1,5041049,pdf,11175d823c22ab5c71adbdc3142d8fec,,,G:\\!genesis\\1\\14.139.43.151\\Investigating Pristine Inner Experience_ Moments of Truth Paperback - Russell T. Hurlburt_1121.pdf,0,2000-01-01 01:00:00,2016-04-03 02:51:08,,,
18412492,"Invisible Hands, Russian Experience, and Social Science: Approaches to Understanding Systemic Failure Hardcover",,,,Stefan Hedlund,2011,,Cambridge University Press,,,0,English,,,,"0521768101,9780521768108",,,,,,,,,,1122,0,,,,,,,0,1145761,mobi,7e67cc864b3105a0c78a4fa91d8dd07c,,,"G:\\!genesis\\1\\14.139.43.151\\Invisible Hands, Russian Experience, and Social Science_ Approaches to Understanding Systemic Failure Hardcover - Stefan Hedlund_1122.mobi",0,2000-01-01 01:00:00,2016-04-03 02:51:08,,,
18412493,"Invisible Hands, Russian Experience, and Social Science: Approaches to Understanding Systemic Failure Hardcover",,,,Stefan Hedlund,2011,,Cambridge University Press,,324,0,English,,,,"0521768101,9780521768108",,,,,,,,,,1329,0,,,,,,,1,2303922,pdf,da439772ba0fd98bb698125edf3f8772,,,"G:\\!genesis\\1\\14.139.43.151\\Invisible Hands, Russian Experience, and Social Science_ Approaches to Understanding Systemic Failure Hardcover - Stefan Hedlund_1329.pdf",0,2000-01-01 01:00:00,2016-04-03 02:51:08,,,
18412494,"iPolitics: Citizens, Elections, and Governing in the New Media Era",,,,RICHARD L. FOX & JENNIFER M. RAMOS,2012,,Cambridge University Press,,339,0,English,,,,,,,,,,,,,,1130,0,,,,,,,1,2337825,pdf,49624953912910b3924c52a122ac640b,,,"G:\\!genesis\\1\\14.139.43.151\\iPolitics_ Citizens, Elections, and Governing in the New Media Era - RICHARD L. FOX &amp; JENNIFER M. RAMOS_1130.pdf",0,2000-01-01 01:00:00,2016-04-03 02:51:08,,,
18412495,IS 12940 (1990):Indian Standard: Documentation - Library statistics - Guide,,,,Bureau of Indian Standards India,,,Bureau of Indian Standards,,12,0,English,,,,,,,,,,,,,,1142,0,,,,,,,1,1323582,pdf,d232b2613b7582a230f19afc1953dfea,,,G:\\!genesis\\1\\14.139.43.151\\IS 12940 (1990)_Indian Standard_ Documentation - Library statistics - Guide - Bureau of Indian Standards India_1142.pdf,0,2000-01-01 01:00:00,2016-04-03 02:51:08,,,
18412496,IS 15339 (2003): Indian Standard: Public Library - Guidelines,,,,Bureau of Indian Standards India,,,Bureau of Indian Standards,,32,0,English,,,,,,,,,,,,,,1143,0,,,,,,,1,2930923,pdf,d4d55a302b69b89604ee72a9c8e305f0,,,G:\\!genesis\\1\\14.139.43.151\\IS 15339 (2003)_ Indian Standard_ Public Library - Guidelines - Bureau of Indian Standards India_1143.pdf,0,2000-01-01 01:00:00,2016-04-03 02:51:08,,,
18412497,IS 2661 (1978): Indian Standards: mobile library van,,,,Bureau of Indian Standards India,,,Bureau of Indian Standards,,15,0,English,,,,,,,,,,,,,,1131,0,,,,,,,1,1621487,pdf,2c1f1971403734399a17b8cf30554a68,,,G:\\!genesis\\1\\14.139.43.151\\IS 2661 (1978)_ Indian Standards_ mobile library van - Bureau of Indian Standards India_1131.pdf,0,2000-01-01 01:00:00,2016-04-03 02:51:08,,,
18412498,IS 7150 (1974): Indian Standards: library catalogue and abstract card,,,,Bureau of Indian Standards India,,,Bureau of Indian Standards,,18,0,English,,,,,,,,,,,,,,1132,0,,,,,,,1,1348015,pdf,7107e715b5f90d112f2d13ae1cc8ef5d,,,G:\\!genesis\\1\\14.139.43.151\\IS 7150 (1974)_ Indian Standards_ library catalogue and abstract card - Bureau of Indian Standards India_1132.pdf,0,2000-01-01 01:00:00,2016-04-03 02:51:08,,,
18412499,Islam and Modernism in Egypt,,,,Charles C. Adams,1968,,Russell and Russell,,293,0,English,,,,,,B0055PL8QA,,,,,,,,1150,0,,,,,,,1,16166470,pdf,deb1661ac4a2c1e7f274f5e2e4d9e1d7,,,G:\\!genesis\\1\\14.139.43.151\\Islam and Modernism in Egypt - Charles C. Adams_1150.pdf,0,2000-01-01 01:00:00,2016-04-03 02:51:08,,,
18412500,Islam Aur Jadeed Iqtisadi Masail,,,,Mohammad Taqi Usmani,,,,,41,0,Urdu,,,,,,,,,,,,,,1151,0,,,,,,,1,655802,pdf,465023dce06897681d27b3243760b7f9,,,G:\\!genesis\\1\\14.139.43.151\\Islam Aur Jadeed Iqtisadi Masail - Mohammad Taqi Usmani_1151.pdf,0,2000-01-01 01:00:00,2016-04-03 02:51:08,,,
18412501,Islam Aur Jadeed Muashi Masail-1,,,,Mohammad Taqi Usmani,,,Idara e Islamiaat,,281,0,Urdu,,,,,,,,,,,,,,1152,0,,,,,,,0,32233927,pdf,1261cd2f9713c45d1df16a51504bc48d,,,G:\\!genesis\\1\\14.139.43.151\\Islam Aur Jadeed Muashi Masail-1 - Mohammad Taqi Usmani_1152.pdf,0,2000-01-01 01:00:00,2016-04-03 02:51:08,,,
18412502,Islam Hi Insaniyat ka Hal,,,,Wasiullah Mohammad Abbas,,,,,103,0,English,,,,,,,,,,,,,,1162,0,,,,,,,1,2768292,pdf,41dcfb62577cf452b4bfe8440d7f2922,,,G:\\!genesis\\1\\14.139.43.151\\Islam Hi Insaniyat ka Hal - Wasiullah Mohammad Abbas_1162.pdf,0,2000-01-01 01:00:00,2016-04-03 02:51:08,,,
18412503,Islam Ka Iqtisadi Nizam,,,,Hifzur Rehman Seoharwi,,,,,735,0,Urdu,,,,,,,,,,,,,,1167,0,,,,,,,0,11633038,pdf,001fa53efc590ce0f8a1b444c93b7b6b,,,G:\\!genesis\\1\\14.139.43.151\\Islam Ka Iqtisadi Nizam - Hifzur Rehman Seoharwi_1167.pdf,0,2000-01-01 01:00:00,2016-04-03 02:51:08,,,
18412504,Islam Ka Qanoone Warasat,,,,Salahuddin Bin HaiderAli Lakhwi,,,,,203,0,Urdu,,,,,,,,,,,,,,1170,0,,,,,,,1,3446111,pdf,ec768e681ad237eca6777479ca0f2d33,,,G:\\!genesis\\1\\14.139.43.151\\Islam Ka Qanoone Warasat - Salahuddin Bin HaiderAli Lakhwi_1170.pdf,0,2000-01-01 01:00:00,2016-04-03 02:51:08,,,
18412505,Islam Me Aurat Ka Kirdar,,,,Mohammad Shoebullah Khan,,,,,108,0,Urdu,,,,,,,,,,,,,,1173,0,,,,,,,1,9358181,pdf,1cfe6b131d0b355959e346a20614e5fe,,,G:\\!genesis\\1\\14.139.43.151\\Islam Me Aurat Ka Kirdar - Mohammad Shoebullah Khan_1173.pdf,0,2000-01-01 01:00:00,2016-04-03 02:51:08,,,
18412506,Islam Me Bunyadi Haqooq,,,,Mohammad bin Saleh Asemin,,,,,79,0,Urdu,,,,,,,,,,,,,,1182,0,,,,,,,1,1691820,pdf,0841788497875ffd8656f70f4de0c661,,,G:\\!genesis\\1\\14.139.43.151\\Islam Me Bunyadi Haqooq - Mohammad bin Saleh Asemin_1182.pdf,0,2000-01-01 01:00:00,2016-04-03 02:51:08,,,
18412507,Islam Me Sila Rehmi Ki Ahmiayat,,,,Mohammad Ali Janbaaz,,,Maktaba e Qudussia,,221,0,Urdu,,,,,,,,,,,,,,1183,0,,,,,,,1,4113647,pdf,85f1e5a612595144493da6e4d81b765e,,,G:\\!genesis\\1\\14.139.43.151\\Islam Me Sila Rehmi Ki Ahmiayat - Mohammad Ali Janbaaz_1183.pdf,0,2000-01-01 01:00:00,2016-04-03 02:51:08,,,
18412508,Islam Me Zaujain K Haqooq,,,,Mahmood Ahmad Yasin,,,,,50,0,Urdu,,,,,,,,,,,,,,1191,0,,,,,,,1,1468910,pdf,14360350aedeb092e3dbeb11a13ec599,,,G:\\!genesis\\1\\14.139.43.151\\Islam Me Zaujain K Haqooq - Mahmood Ahmad Yasin_1191.pdf,0,2000-01-01 01:00:00,2016-04-03 02:51:08,,,
18412509,Islam men Haiwanaat ke Haqooq,,,,Mohammad Yusuf Khan,,,Bait ul Uloom,,210,0,Urdu,,,,,,,,,,,,,,1192,0,,,,,,,1,6391066,pdf,48d1c805beed7b78e8400ec851b723d9,,,G:\\!genesis\\1\\14.139.43.151\\Islam men Haiwanaat ke Haqooq - Mohammad Yusuf Khan_1192.pdf,0,2000-01-01 01:00:00,2016-04-03 02:51:08,,,
18412510,Islam Men Ikhtalaf K Usool o Aadab,,,,Taha Jabir Fayyaz Alwani,,,,,232,0,English,,,,,,,,,,,,,,1193,0,,,,,,,1,4310116,pdf,917ea45807a76a207718e81133c147a5,,,G:\\!genesis\\1\\14.139.43.151\\Islam Men Ikhtalaf K Usool o Aadab - Taha Jabir Fayyaz Alwani_1193.pdf,0,2000-01-01 01:00:00,2016-04-03 02:51:08,,,
18412511,Islam on the Move: The Tablighi Jama'at in Southeast Asia,,,,Farish A. Noor,2012,,Amsterdam University Press,,257,0,English,,,,"9089644393,9789089644398",,,,,,,,axwAwWsxYOUC,,1796,0,,,,,,,1,1073223,pdf,589343f9c2de2d9224cc9523f5033144,,,G:\\!genesis\\1\\14.139.43.151\\Islam on the Move_ The Tablighi Jama&#39;at in Southeast Asia - Farish A. Noor_1796.pdf,0,2000-01-01 01:00:00,2016-04-03 02:51:08,,,
18412512,"Islam, Civil Society and Social Work: Muslim Voluntary Welfare Associations in Jordan Between Patronage and Empowerment",,,,Egbert Harmsen,2008,,ISIM,,501,0,English,,,,"9053569952,9789053569955",,,,,,,,6QXZnQEACAAJ,,1614,0,,,,,,,1,5989975,pdf,25e10e078dd33b32a27a9438a41d4220,,,"G:\\!genesis\\1\\14.139.43.151\\Islam, Civil Society and Social Work_ Muslim Voluntary Welfare Associations in Jordan Between Patronage and Empowerment - Egbert Harmsen_1614.pdf",0,2000-01-01 01:00:00,2016-04-03 02:51:08,,,
18412513,"Islamic Education, Diversity and National Identity: Dini Madaris in India Post 9/11",,,,Jan-Peter Hartung & Helmut Reifeld,2006,,SAGE Publications Pvt. Ltd,,332,0,English,,,,"0761934332,9780761934332",,,,,,,,,,1803,0,,,,,,,1,1396838,pdf,49989603f78a00e227c0fc24c838afdf,,,"G:\\!genesis\\1\\14.139.43.151\\Islamic Education, Diversity and National Identity_ Dini Madaris in India Post 9_11 - Jan-Peter Hartung &amp; Helmut Reifeld_1803.pdf",0,2000-01-01 01:00:00,2016-04-03 02:51:08,,,
18412514,Issues in Ethics,,,,Sam Vaknin & Lidija Rangelovska,2011,,Narcissus Publications,,227,0,English,,,,,,B0054SLK4S,,,,,,,,1201,0,,,,,,,1,627342,pdf,eb8827f6675cb9fc82df1133d6a8d911,,,G:\\!genesis\\1\\14.139.43.151\\Issues in Ethics - Sam Vaknin &amp; Lidija Rangelovska_1201.pdf,0,2000-01-01 01:00:00,2016-04-03 02:51:08,,,
18412515,Jahez JodeKiRasam,,,,K. Rafeeq Ahmad,,,,,65,0,English,,,,,,,,,,,,,,1202,0,,,,,,,0,2490612,pdf,13dec6e934c9d0c06ba35b7cf7ecac00,,,G:\\!genesis\\1\\14.139.43.151\\Jahez JodeKiRasam - K. Rafeeq Ahmad_1202.pdf,0,2000-01-01 01:00:00,2016-04-03 02:51:08,,,
18412516,Japanese Girls and Women,,,,Bacon Alice Mabel,2009,,BiblioLife,,143,0,English,,,,"1110768974,9781110768974",,,,,,,,ikOZCfKttV4C,,1211,0,,,,,,,1,1037761,pdf,16487d98a8ebdfbfe95f4f73c1ca6c55,,,G:\\!genesis\\1\\14.139.43.151\\Japanese Girls and Women - Bacon Alice Mabel_1211.pdf,0,2000-01-01 01:00:00,2016-04-03 02:51:08,,,
18412517,Jihad Beyond Islam,,,,The Author Of This Book Is Gabriele Marranci,2006,,Bloomsbury Academic,,193,0,English,,,,"1845201582,9781845201586",,,,,,,,2vR3psAXfEQC,,1633,0,,,,,,,1,1010024,pdf,ca7e3a922f1c675bd3bc0a7197ce3cfb,,,G:\\!genesis\\1\\14.139.43.151\\Jihad Beyond Islam - The Author Of This Book Is Gabriele Marranci_1633.pdf,0,2000-01-01 01:00:00,2016-04-03 02:51:08,,,
18412518,Jokes for All Occasions,,,,Anonymous,2008,,BiblioLife,,220,0,English,,,,"0554381990,9780554381992",,,,,,,,EG0CRQAACAAJ,,1900,0,,,,,,,1,606295,pdf,db64df5b3b39a4cacd2ee765768fda57,,,G:\\!genesis\\1\\14.139.43.151\\Jokes for All Occasions - Anonymous_1900.pdf,0,2000-01-01 01:00:00,2016-04-03 02:51:08,,,
18412519,"Journalism Education, Training and Employment",,,,Bob Franklin & Donica Mensing (edt),,,,,249,0,English,,,,,,,,,,,,,,1212,0,,,,,,,1,2358173,pdf,1ec96e3e7ac7df25fa22f1b850fb2519,,,"G:\\!genesis\\1\\14.139.43.151\\Journalism Education, Training and Employment - Bob Franklin &amp; Donica Mensing (edt)_1212.pdf",0,2000-01-01 01:00:00,2016-04-03 02:51:08,,,
18412520,"Journalism for Women, a Practical Guide (1898)",,,,E. A. Bennett,2013,,CreateSpace Independent Publishing Platform,,33,0,English,,,,"1483991660,9781483991665",,,,,,,,,,1219,0,,,,,,,1,386028,pdf,72e0e9c16a0d9b1fc9afea4808ff68ee,,,"G:\\!genesis\\1\\14.139.43.151\\Journalism for Women, a Practical Guide (1898) - E. A. Bennett_1219.pdf",0,2000-01-01 01:00:00,2016-04-03 02:51:08,,,
18412521,"Journalists, Sources, and Credibility: New Perspectives",,,,Bob Franklin & Matt Carlson,2011,,Routledge,,216,0,English,,,,,,B004QM9VKS,,,,,,,,1224,0,,,,,,,1,2150554,pdf,8f89165383d9345c250825ad3ce15911,,,"G:\\!genesis\\1\\14.139.43.151\\Journalists, Sources, and Credibility_ New Perspectives - Bob Franklin &amp; Matt Carlson_1224.pdf",0,2000-01-01 01:00:00,2016-04-03 02:51:08,,,
18412522,Journey to Working Social,,,,Yammer,,,Yammer,,56,0,English,,,,,,,,,,,,,,1479,0,,,,,,,1,6844214,pdf,7870d3bcd82cb5e958941c99652d4cb0,,,G:\\!genesis\\1\\14.139.43.151\\Journey to Working Social - Yammer_1479.pdf,0,2000-01-01 01:00:00,2016-04-03 02:51:08,,,
18412523,"Judging State-Sponsored Violence, Imagining Political Change",,,,Bronwyn Leebaw,2005,,Cambridge University Press,,230,0,English,,,,9781107000582,,,,,,,,s9hHmQEACAAJ,,1225,0,,,,,,,1,1881713,pdf,650c1bd8c42bb8ce6e931f59d58a8408,,,"G:\\!genesis\\1\\14.139.43.151\\Judging State-Sponsored Violence, Imagining Political Change - Bronwyn Leebaw_1225.pdf",0,2000-01-01 01:00:00,2016-04-03 02:51:08,,,
18412524,Just Because We Are The 99%,,,,Miss Mary,,,,,157,0,English,,,,,,,,,,,,,,1230,0,,,,,,,1,3118137,pdf,8b88b3b101d5021d7831cb001c227d91,,,G:\\!genesis\\1\\14.139.43.151\\Just Because We Are The 99% - Miss Mary_1230.pdf,0,2000-01-01 01:00:00,2016-04-03 02:51:08,,,
18412525,Kashmir,,,,Sir Francis Edward Younghusband,2012,,BookNet,,128,0,English,,,,9781290462167,,B0086VVDW4,,,,,,zRIXnwEACAAJ,,1901,0,,,,,,,1,509921,pdf,efacf1306ca3130524313202519dd18f,,,G:\\!genesis\\1\\14.139.43.151\\Kashmir - Sir Francis Edward Younghusband_1901.pdf,0,2000-01-01 01:00:00,2016-04-03 02:51:08,,,
18412526,Keeping Fit All the Way,,,,Walter Camp,2005,,1st World Publishing,,,0,English,,,,"1421811944,9781421811949",,,,,,,,5LA2QMb9m9UC,,1231,0,,,,,,,0,1251038,epub,84e5abc68361a3164729ed5a2bf68fb9,,,G:\\!genesis\\1\\14.139.43.151\\Keeping Fit All the Way - Walter Camp_1231.epub,0,2000-01-01 01:00:00,2016-04-03 02:51:08,,,
18412527,Khatoon e Islam,,,,Abu Bakr Al Jazairi,,,,,228,0,Urdu,,,,,,,,,,,,,,1235,0,,,,,,,1,2948575,pdf,60e8c509e2e04c7440a2e4004f402d12,,,G:\\!genesis\\1\\14.139.43.151\\Khatoon e Islam - Abu Bakr Al Jazairi_1235.pdf,0,2000-01-01 01:00:00,2016-04-03 02:51:08,,,
18412528,"ÿÆŸÑŸÅÿßÿ¶€í ÿ±ÿßÿ¥ÿØ€åŸÜ ÿ±ÿ∂€å ÿßŸÑŸÑ€Å ÿπŸÜ€ÅŸÖ, Khulfa e Rashideen",,,,Moin ud din Nadvi,,,Nashiraan Quran Ltd. Lahore,,297,0,Urdu,,,,,,,,,,,,,,1303,0,,,,,,,1,13298276,pdf,ea9f50438de2457b59476d675396cbb7,,,"G:\\!genesis\\1\\14.139.43.151\\khlfy'y rshdyn rDy llh `nhm, Khulfa e Rashideen - Moin ud din Nadvi_1303.pdf",0,2000-01-01 01:00:00,2016-04-03 02:51:08,,,
18412529,"⁄©ŸÑŸÖ€Å ⁄ØŸà ŸÖÿ¥ÿ±⁄©, Kalmago Mushrik",,,,ÿßÿ®Ÿà ÿßŸÑÿ≠ÿ≥ŸÜ ŸÖÿ®ÿ¥ÿ± ÿßÿ≠ŸÖÿØ ÿ±ÿ®ÿßŸÜ€å & Abulhasan Mubasshir Ahmad Rabbani,,,,,175,0,English,,,,,,,,,,,,,,1051,0,,,,,,,1,4182673,pdf,0d7dd972bc3562b44ae9d0a380575341,,,"G:\\!genesis\\1\\14.139.43.151\\khlmh gw mshrkh, Kalmago Mushrik - bw lHsn mbshr Hmd rbny &amp; Abulhasan Mubasshir Ahmad Rabbani_1051.pdf",0,2000-01-01 01:00:00,2016-04-03 02:51:08,,,
18412530,Khwateen-e-Islam ki Behtreen Masjid,,,,Maulana Habib-ur-Rehman Qasmi,,,,,39,0,English,,,,,,,,,,,,,,1052,0,,,,,,,0,2446340,pdf,10a855749ad994706e109bf64a15e11b,,,G:\\!genesis\\1\\14.139.43.151\\Khwateen-e-Islam ki Behtreen Masjid - Maulana Habib-ur-Rehman Qasmi_1052.pdf,0,2000-01-01 01:00:00,2016-04-03 02:51:08,,,
18412531,Kia Eisa K Walid Thay?,,,,Abul Qasim Mohibbullah Shah Rashdi,,,,,75,0,Urdu,,,,,,,,,,,,,,1054,0,,,,,,,1,1565618,pdf,17dfaf7189922b813f48d9f15131ef38,,,G:\\!genesis\\1\\14.139.43.151\\Kia Eisa K Walid Thay_ - Abul Qasim Mohibbullah Shah Rashdi_1054.pdf,0,2000-01-01 01:00:00,2016-04-03 02:51:08,,,
18412532,Kitab Al-Kafi,,,,Muhammad Sarwar (Translator),,,,,763,0,English,,,,,,,,,,,,,,1053,0,,,,,,,1,1883311,pdf,2627dff3477a3888119f5465180cc2eb,,,G:\\!genesis\\1\\14.139.43.151\\Kitab Al-Kafi - Muhammad Sarwar (Translator)_1053.pdf,0,2000-01-01 01:00:00,2016-04-03 02:51:08,,,
18412533,"Kittyhawk Pilot: Wing Commander J. F. (Stocky) Edwards, Canadian Fighter Pilot",,,,J. P. A. Michel; J. F. (stocky) Edwards Lavigne,1983,,"Turner-Warwick Publications, Inc.",,213,0,English,,,,"0919899102,9780919899100",,,,,,,,,,1062,0,,,,,,,1,1213124,pdf,40519b504c1be723866af9f871ae7f73,,,"G:\\!genesis\\1\\14.139.43.151\\Kittyhawk Pilot_ Wing Commander J. F. (Stocky) Edwards, Canadian Fighter Pilot - J. P. A. Michel; J. F. (stocky) Edwards Lavigne_1062.pdf",0,2000-01-01 01:00:00,2016-04-03 02:51:08,,,
18412534,ŸÉŸäÿß ŸÖÿ±ÿØ€í ÿ≥ŸÜÿ™€í €Å€å⁄∫ÿü; Kia Murde Sunte hain,,,,Ÿæÿ±ŸàŸÅ€åÿ≥ÿ± ÿ≠ÿßŸÅÿ∏ ÿπÿ®ÿØ ÿßŸÑŸÑ€Å ÿ®€ÅÿßŸàŸÑŸæŸàÿ±Ÿâ; Mohammad Abdullah Bhawalpuri,,,,,32,0,Urdu,,,,,,,,,,,,,,1064,0,,,,,,,0,1215304,pdf,30b06ba741691abaadea160687be2542,,,G:\\!genesis\\1\\14.139.43.151\\ky mrdy snty hyN_; Kia Murde Sunte hain - prwfysr HfZ `bd llh bhwlpwr~; Mohammad Abdullah Bhawalpuri_1064.pdf,0,2000-01-01 01:00:00,2016-04-03 02:51:08,,,
18412535,"Labour Migration in Malaysia and Spain: Markets, Citizenship and Rights",,,,Blanca Garces-Mascarenas,2012,,Amsterdam University Press,,258,0,English,,,,"9089642862,9789089642868",,,,,,,,Imnjd-zL-aIC,,1520,0,,,,,,,1,2918003,pdf,23a48b898d8c0a1665fa29d184c54cd0,,,"G:\\!genesis\\1\\14.139.43.151\\Labour Migration in Malaysia and Spain_ Markets, Citizenship and Rights - Blanca Garces-Mascarenas_1520.pdf",0,2000-01-01 01:00:00,2016-04-03 02:51:08,,,
18412536,LABOUR PARTICIPATION AND UNEMP,,,,Uwe Blien & Frank den Butter 1646,,,,,152,0,English,,,,,,,,,,,,,,2052,0,,,,,,,1,3817781,pdf,fd9733d270fb441e1fdf28ec7f2b19cd,,,G:\\!genesis\\1\\14.139.43.151\\LABOUR PARTICIPATION AND UNEMP - Uwe Blien &amp; Frank den Butter 1646_2052.pdf,0,2000-01-01 01:00:00,2016-04-03 02:51:08,,,
18412537,Ladies in the Field: Sketches of Sport,,,,Lady Violet Greville,2009,,BiblioBazaar,,,0,English,,,,"1115641425,9781115641425",,,,,,,,,,1080,0,,,,,,,0,268017,epub,54e354f0bb56c36df88985ad68b9ced3,,,G:\\!genesis\\1\\14.139.43.151\\Ladies in the Field_ Sketches of Sport - Lady Violet Greville_1080.epub,0,2000-01-01 01:00:00,2016-04-03 02:51:08,,,
18412538,Lean Six Sigma: Research and Practice,,,,Bookboon.com,,,,,208,0,English,,,,,,,,,,,,,,2056,0,,,,,,,0,6625725,pdf,5127d1f4942da802f60de76a9eda9fa8,,,G:\\!genesis\\1\\14.139.43.151\\Lean Six Sigma_ Research and Practice - Bookboon.com_2056.pdf,0,2000-01-01 01:00:00,2016-04-03 02:51:08,,,
18412539,LEARNING ABOUT LEARNING DISABILITIES,,,,BERNICE WONG & DEBORAH BUTLER,,,Elsevier,,449,0,English,,,,9780123884091,,,,,,,,,,1082,0,,,,,,,1,9020574,pdf,2fd5a893392b9e41dac625d8ac6ae8c3,,,G:\\!genesis\\1\\14.139.43.151\\LEARNING ABOUT LEARNING DISABILITIES - BERNICE WONG &amp; DEBORAH BUTLER_1082.pdf,0,2000-01-01 01:00:00,2016-04-03 02:51:08,,,
18412540,Lessons for the Young Economist,,,,Robert P. Murphy,2010,,Ludwig von Mises Institute,,422,0,English,,,,"1933550880,9781933550886",,,,,,,,0hs-8dPDlyEC,,1090,0,,,,,,,1,2404174,pdf,223a823ec0dd0a18ccd22d170dfc8ce0,,,G:\\!genesis\\1\\14.139.43.151\\Lessons for the Young Economist - Robert P. Murphy_1090.pdf,0,2000-01-01 01:00:00,2016-04-03 02:51:08,,,
18412541,Liberate Your Psychic Abilities,,,,Denise Freeman,,,,,47,0,English,,,,,,,,,,,,,,1096,0,,,,,,,1,143411,pdf,3c777d682ca5c388900774e11a71636d,,,G:\\!genesis\\1\\14.139.43.151\\Liberate Your Psychic Abilities - Denise Freeman_1096.pdf,0,2000-01-01 01:00:00,2016-04-03 02:51:08,,,
18412542,"Libraries in the Medieval and Renaissance Periods: The Rede Lecture Delivered June 13, 1894, by J. W. Clark [ 1894 ]",,,,John Willis Clark,2009,,Cornell University Library,,,0,English,,,,"1112344365,9781112344367",,,,,,,,,,1103,0,,,,,,,0,403270,epub,591e3d7ce337f6cb94ae4877ce68ccf8,,,"G:\\!genesis\\1\\14.139.43.151\\Libraries in the Medieval and Renaissance Periods_ The Rede Lecture Delivered June 13, 1894, by J. W. Clark [ 1894 ] - John Willis Clark_1103.epub",0,2000-01-01 01:00:00,2016-04-03 02:51:08,,,
18412543,Library Administration,,,,John MacFarlane,2009,,BiblioBazaar,,264,0,English,,,,9781103219209,,,,,,,,4BosnrlC4MgC,,1110,0,,,,,,,1,8787945,pdf,28acd2e51819f803af4468add193961f,,,G:\\!genesis\\1\\14.139.43.151\\Library Administration - John MacFarlane_1110.pdf,0,2000-01-01 01:00:00,2016-04-03 02:51:08,,,
18412544,Library binding manual,,,,"Feipel, Louis Nicholas, 1883-",,,American Library Association,,92,0,English,,,,,,,,,,,,,,1123,0,,,,,,,1,6894351,pdf,6133a97910891f6772c2c903f2a85459,,,"G:\\!genesis\\1\\14.139.43.151\\Library binding manual - Feipel, Louis Nicholas, 1883-_1123.pdf",0,2000-01-01 01:00:00,2016-04-03 02:51:08,,,
18412545,Library Bookbinding,,,,Bailey Arthur Low 1867- & Hardpress,2013,,HardPress,,,0,English,,,,"131364515X,9781313645157",,,,,,,,iClimQEACAAJ,,1124,0,,,,,,,0,545277,epub,830b85d39785d4cefb1eb8690b152a56,,,G:\\!genesis\\1\\14.139.43.151\\Library Bookbinding - Bailey Arthur Low 1867- &amp; Hardpress_1124.epub,0,2000-01-01 01:00:00,2016-04-03 02:51:08,,,
18412546,Library Bookbinding,,,,Bailey Arthur Low 1867- & Hardpress,2013,,HardPress,,264,0,English,,,,"131364515X,9781313645157",,,,,,,,iClimQEACAAJ,,1328,0,,,,,,,1,4525622,pdf,467eda282da725640a878fc51d3792de,,,G:\\!genesis\\1\\14.139.43.151\\Library Bookbinding - Bailey Arthur Low 1867- &amp; Hardpress_1328.pdf,0,2000-01-01 01:00:00,2016-04-03 02:51:08,,,
18412547,Library Buildings,,,,Eastman William Reed 1835-1925,2013,,HardPress Publishing,,16,0,English,,,,"1313680575,9781313680578",,,,,,,,,,1133,0,,,,,,,1,661275,pdf,5a982062850c186a8770c2f21000d860,,,G:\\!genesis\\1\\14.139.43.151\\Library Buildings - Eastman William Reed 1835-1925_1133.pdf,0,2000-01-01 01:00:00,2016-04-03 02:51:08,,,
18412548,Library Cataloguing,,,,John Henry Quinn,2013,,HardPress,,270,0,English,,,,"1313546577,9781313546577",,,,,,,,kJvpmQEACAAJ,,1134,0,,,,,,,1,6115326,pdf,1c26ce56fcde88bf717e581b5b31071d,,,G:\\!genesis\\1\\14.139.43.151\\Library Cataloguing - John Henry Quinn_1134.pdf,0,2000-01-01 01:00:00,2016-04-03 02:51:08,,,
18412549,Library Classification and Numbering System,,,,Parker Henry William,2013,,HardPress Publishing,,216,0,English,,,,"1313680605,9781313680608",,,,,,,,,,1135,0,,,,,,,1,13503567,pdf,acb2e15379f81e11b691185644ead2a1,,,G:\\!genesis\\1\\14.139.43.151\\Library Classification and Numbering System - Parker Henry William_1135.pdf,0,2000-01-01 01:00:00,2016-04-03 02:51:08,,,
18412550,Library Notes,,,,Russell Addison Peale 1826-1912,2013,,HardPress Publishing,,,0,English,,,,"1313680834,9781313680837",,,,,,,,,,1144,0,,,,,,,0,414821,epub,2026187339e138c58f2bb1c59720bb7c,,,G:\\!genesis\\1\\14.139.43.151\\Library Notes - Russell Addison Peale 1826-1912_1144.epub,0,2000-01-01 01:00:00,2016-04-03 02:51:08,,,
18412551,Library of Congress Classification Schedule: Class P,,,,Library of Congress,1968,,Library of Congress,,33,0,English,,,,,,,,,,,,,,1476,0,,,,,,,1,385210,pdf,d4429f4ce7c1940868912d705aafe704,,,G:\\!genesis\\1\\14.139.43.151\\Library of Congress Classification Schedule_ Class P - Library of Congress_1476.pdf,0,2000-01-01 01:00:00,2016-04-03 02:51:08,,,
18412552,Library rooms and buildings,,,,"Soule, Charles C. (Charles Carroll), 1842-1913",,,American Library Association,,32,0,English,,,,,,,,,,,,,,1153,0,,,,,,,1,1119503,pdf,92651c3bd09f47f76d39889674a7b795,,,"G:\\!genesis\\1\\14.139.43.151\\Library rooms and buildings - Soule, Charles C. (Charles Carroll), 1842-1913_1153.pdf",0,2000-01-01 01:00:00,2016-04-03 02:51:08,,,
18412553,Library Service for Children,,,,Effie L.power,2012,,Ulan Press,,338,0,English,,,,,,B00B70M8E8,,,,,,,,1154,0,,,,,,,1,11167747,pdf,5ebc0a6212de4d4a7868553c69b1b6a4,,,G:\\!genesis\\1\\14.139.43.151\\Library Service for Children - Effie L.power_1154.pdf,0,2000-01-01 01:00:00,2016-04-03 02:51:08,,,
18412554,Library Work With Children;,,,,Alice Isabel Hazeltine,2010,,Nabu Press,,,0,English,,,,"1177315491,9781177315494",,,,,,,,,,1155,0,,,,,,,0,351665,epub,5e7191ec866d17a8c3d3a8a7fe7de9f6,,,G:\\!genesis\\1\\14.139.43.151\\Library Work With Children; - Alice Isabel Hazeltine_1155.epub,0,2000-01-01 01:00:00,2016-04-03 02:51:08,,,
18412555,Life On The Mississippi,,,,Mark Twain,1883,,Feedbooks,,,0,English,,,,,,,,,,,,,,1168,0,,,,,,,0,1429493,epub,d563c46c7d198f3cc091471c3b13fa0d,,,G:\\!genesis\\1\\14.139.43.151\\Life On The Mississippi - Mark Twain_1168.epub,0,2000-01-01 01:00:00,2016-04-03 02:51:08,,,
18412556,Life On The Mississippi,,,,Mark Twain,1883,,Feedbooks,,1287,0,English,,,,,,,,,,,,,,1323,0,,,,,,,1,2499322,pdf,164396c912f9b9da5ed796246e7ed5c2,,,G:\\!genesis\\1\\14.139.43.151\\Life On The Mississippi - Mark Twain_1323.pdf,0,2000-01-01 01:00:00,2016-04-03 02:51:08,,,
18412557,Lighted to Lighten the Hope of India; A Study of Conditions Among Women in Indi,,,,Alice Boucher van Doren,2012,,HardPress,,,0,English,,,,"1103872915,9781290472685",,,,,,,,fYNzMgEACAAJ,,1174,0,,,,,,,0,150583,epub,d328170f44abd729f3cbb362da69eb7a,,,G:\\!genesis\\1\\14.139.43.151\\Lighted to Lighten the Hope of India; A Study of Conditions Among Women in Indi - Alice Boucher van Doren_1174.epub,0,2000-01-01 01:00:00,2016-04-03 02:51:08,,,
18412558,Lighted to Lighten: The Hope of India,,,,Alice Boucher van Doren,2009,,BiblioBazaar,,,0,English,,,,"1103872915,9781103872916",,,,,,,,,,1175,0,,,,,,,0,140740,epub,ef9cd9b51c20226ad4f1059407d443fc,,,G:\\!genesis\\1\\14.139.43.151\\Lighted to Lighten_ The Hope of India - Alice Boucher van Doren_1175.epub,0,2000-01-01 01:00:00,2016-04-03 02:51:08,,,
18412559,Linear algebra c-1,,,,Bookboon.com,,,,,113,0,English,,,,,,,,,,,,,,2061,0,,,,,,,0,2316375,pdf,4e2728dc2e884cd68d30d209f7649aa3,,,G:\\!genesis\\1\\14.139.43.151\\Linear algebra c-1 - Bookboon.com_2061.pdf,0,2000-01-01 01:00:00,2016-04-03 02:51:08,,,
18412560,Linear algebra c-2,,,,Bookboon.com,,,,,126,0,English,,,,,,,,,,,,,,2065,0,,,,,,,0,2314719,pdf,1387b246f796cf669572e0eb12d200a7,,,G:\\!genesis\\1\\14.139.43.151\\Linear algebra c-2 - Bookboon.com_2065.pdf,0,2000-01-01 01:00:00,2016-04-03 02:51:08,,,
18412561,Linear algebra c-3,,,,Bookboon.com,,,,,136,0,English,,,,,,,,,,,,,,2069,0,,,,,,,0,2398070,pdf,01486480f31d7eb41c04a20e099c193a,,,G:\\!genesis\\1\\14.139.43.151\\Linear algebra c-3 - Bookboon.com_2069.pdf,0,2000-01-01 01:00:00,2016-04-03 02:51:08,,,
18412562,Linear algebra c-4,,,,Bookboon.com,,,,,74,0,English,,,,,,,,,,,,,,2072,0,,,,,,,0,2181491,pdf,6a9ab3f56a954ecf89fa305644204044,,,G:\\!genesis\\1\\14.139.43.151\\Linear algebra c-4 - Bookboon.com_2072.pdf,0,2000-01-01 01:00:00,2016-04-03 02:51:08,,,
18412563,Linear Algebra I,,,,Bookboon.com,,,,,208,0,English,,,,,,,,,,,,,,2093,0,,,,,,,0,3876972,pdf,785905eb136585c72408451e893da20f,,,G:\\!genesis\\1\\14.139.43.151\\Linear Algebra I - Bookboon.com_2093.pdf,0,2000-01-01 01:00:00,2016-04-03 02:51:08,,,
18412564,Linear Algebra II,,,,Bookboon.com,,,,,208,0,English,,,,,,,,,,,,,,2085,0,,,,,,,0,3966017,pdf,4957aa1e65cd7067f46d4c0e43512018,,,G:\\!genesis\\1\\14.139.43.151\\Linear Algebra II - Bookboon.com_2085.pdf,0,2000-01-01 01:00:00,2016-04-03 02:51:08,,,
18412565,Linear Algebra III,,,,Bookboon.com,,,,,259,0,English,,,,,,,,,,,,,,2077,0,,,,,,,0,4366100,pdf,87d31b928eda8bd9bc6543cac196ab5f,,,G:\\!genesis\\1\\14.139.43.151\\Linear Algebra III - Bookboon.com_2077.pdf,0,2000-01-01 01:00:00,2016-04-03 02:51:08,,,
18412566,Lives of Girls Who Became Famous,,,,Sarah Knowles Bolton,2010,,Echo Library,,125,0,English,,,,"1484943066,9781484943069",,,,,,,,_W6sd_tLQacC,,1185,0,,,,,,,1,608265,pdf,7bcee55b5a5e4f4f1c3c7a47e2c5cd13,,,G:\\!genesis\\1\\14.139.43.151\\Lives of Girls Who Became Famous - Sarah Knowles Bolton_1185.pdf,0,2000-01-01 01:00:00,2016-04-03 02:51:08,,,
18412567,Localization Strategies for Global E-Business Hardcover,,,,Nitish Singh,2012,,Cambridge University Press,,357,0,English,,,,"1107008891,9781107008892",,,,,,,,,,1204,0,,,,,,,1,9186109,pdf,ab96fb97fb016cee342f60806517efec,,,G:\\!genesis\\1\\14.139.43.151\\Localization Strategies for Global E-Business Hardcover - Nitish Singh_1204.pdf,0,2000-01-01 01:00:00,2016-04-03 02:51:08,,,
18412568,Love It or Leave It: The End of Government as the Problem,,,,Mark Manney,2011,,CreateSpace,,76,0,English,,,,"1456424386,9781456424381",,,,,,,,lmPxtgAACAAJ,,1205,0,,,,,,,1,654599,pdf,e0acd8ee3ed9ada47a7dd41dfac6c6e5,,,G:\\!genesis\\1\\14.139.43.151\\Love It or Leave It_ The End of Government as the Problem - Mark Manney_1205.pdf,0,2000-01-01 01:00:00,2016-04-03 02:51:08,,,
18412569,"Loving v. Virginia in a Post-Racial World: Rethinking Race, Sex, and Marriage",,,,KEVIN NOBLE MAILLARD & ROSE CUISON VILLAZOR,2012,,Cambridge University Press,,263,0,English,,,,,,,,,,,,,,1213,0,,,,,,,1,1701390,pdf,61b9975b5b97a73f2ba98496e000ff3d,,,"G:\\!genesis\\1\\14.139.43.151\\Loving v. Virginia in a Post-Racial World_ Rethinking Race, Sex, and Marriage - KEVIN NOBLE MAILLARD &amp; ROSE CUISON VILLAZOR_1213.pdf",0,2000-01-01 01:00:00,2016-04-03 02:51:08,,,
18412570,Macroeconomic Performance in a Globalising Economy,,,,Robert Anderton & Geoff Kenny,2011,,Cambridge University Press,,344,0,English,,,,,,,,,,,,,,1318,0,,,,,,,1,3899958,pdf,3fe9b1a32ae2fea74b8d5d9260f53535,,,G:\\!genesis\\1\\14.139.43.151\\Macroeconomic Performance in a Globalising Economy - Robert Anderton &amp; Geoff Kenny_1318.pdf,0,2000-01-01 01:00:00,2016-04-03 02:51:08,,,
18412571,Macroeconomics in Emerging Markets,,,,Peter J. Montiel,2003,,Cambridge University Press,,807,0,English,,,,"0521733049,9780521733045",,,,,,,,,,1022,0,,,,,,,1,7136938,pdf,4a4e22d859f96a2fbfa8111f82487d90,,,G:\\!genesis\\1\\14.139.43.151\\Macroeconomics in Emerging Markets - Peter J. Montiel_1022.pdf,0,2000-01-01 01:00:00,2016-04-03 02:51:08,,,
18412572,Madrasa in Asia: Political Activism and Transnational Linkages,,,,Noor & Farish. & Farish A. & Sikand & Yoginder & Bruinessen & Martin van,2008,,Amsterdam University Press,,305,0,English,,,,"9053567100,9788173048371",,,,,,,,dh6XKXPSYIkC,,1579,0,,,,,,,1,1549420,pdf,e46222843bb4568fd374935a3d65f89e,,,G:\\!genesis\\1\\14.139.43.151\\Madrasa in Asia_ Political Activism and Transnational Linkages - Noor &amp; Farish. &amp; Farish A. &amp; Sikand &amp; Yoginder &amp; Bruinessen &amp; Martin van_1579.pdf,0,2000-01-01 01:00:00,2016-04-03 02:51:08,,,
18412573,Madrasa Reforms and Perspectives : Islamic Tertiary Education in Pakistan,,,,Mumtaz Ahmad,,,national bureau of asian research,,28,0,English,,,,,,,,,,,,,,1810,0,,,,,,,1,262952,pdf,de77bf60077367a63e02d45ff06e51be,,,G:\\!genesis\\1\\14.139.43.151\\Madrasa Reforms and Perspectives _ Islamic Tertiary Education in Pakistan - Mumtaz Ahmad_1810.pdf,0,2000-01-01 01:00:00,2016-04-03 02:51:08,,,
18412574,Magic of the Middle Ages,,,,Viktor Rydberg & August Hjalmar Edgren,2010,,"Kessinger Publishing, LLC",,66,0,English,,,,"1162624558,9781162624556",,,,,,,,rVGKngEACAAJ,,1868,0,,,,,,,1,453375,pdf,0164d12836f223bffc0b173bcfeedba5,,,G:\\!genesis\\1\\14.139.43.151\\Magic of the Middle Ages - Viktor Rydberg &amp; August Hjalmar Edgren_1868.pdf,0,2000-01-01 01:00:00,2016-04-03 02:51:08,,,
18412575,Mahatma Gandhi and Leo Tolstoy Letters,,,,B. Srinivasa Murthy,,,Long Beach Publications,,81,0,English,,,,,,,,,,,,,,2232,0,,,,,,,1,187178,pdf,43f27f2c75a21d285817a53b91f9f9cb,,,G:\\!genesis\\1\\14.139.43.151\\Mahatma Gandhi and Leo Tolstoy Letters - B. Srinivasa Murthy_2232.pdf,0,2000-01-01 01:00:00,2016-04-03 02:51:08,,,
18412576,Mahomet - Founder of Islam,,,,G. M. DRAYCOTT,,,,,104,0,English,,,,,,,,,,,,,,1023,0,,,,,,,1,489081,pdf,4a7f6ff4ed9537efcda4b2f2b88c12c9,,,G:\\!genesis\\1\\14.139.43.151\\Mahomet - Founder of Islam - G. M. DRAYCOTT_1023.pdf,0,2000-01-01 01:00:00,2016-04-03 02:51:08,,,
18412577,Making Migration Work: The Future of Labour Migration in the European Union,,,,Jan Willem Holtslag & Monique Kremer & Erik Schrijvers,2013,,Amsterdam University Press,,127,0,English,,,,"9089645578,9789089645579",,,,,,,,uEgfmwEACAAJ,,1712,0,,,,,,,1,1708336,pdf,c14a1214d7a7e76f1f5c2b88530356dc,,,G:\\!genesis\\1\\14.139.43.151\\Making Migration Work_ The Future of Labour Migration in the European Union - Jan Willem Holtslag &amp; Monique Kremer &amp; Erik Schrijvers_1712.pdf,0,2000-01-01 01:00:00,2016-04-03 02:51:08,,,
18412578,Making the Most of Big Data,,,,Bookboon.com,,,,,61,0,English,,,,,,,,,,,,,,2098,0,,,,,,,0,3000129,pdf,ec133cce54aa14a53992645e9c31bf95,,,G:\\!genesis\\1\\14.139.43.151\\Making the Most of Big Data - Bookboon.com_2098.pdf,0,2000-01-01 01:00:00,2016-04-03 02:51:08,,,
18412579,Maladjusted Boys,,,,Otto Shaw,2011,,Routledge,,169,0,English,,,,"0415753155,9780415753159",,,,,,,,F4wANpAInJUC,,1026,0,,,,,,,1,31618729,pdf,fd839b7a5d501d7342edc473a333d3dd,,,G:\\!genesis\\1\\14.139.43.151\\Maladjusted Boys - Otto Shaw_1026.pdf,0,2000-01-01 01:00:00,2016-04-03 02:51:08,,,
18412580,Malignant Self Love - Narcissism Revisited,,,,"Sam Vaknin, Ph.D.",,,,,167,0,English,,,,,,,,,,,,,,2146,0,,,,,,,1,763351,pdf,ee6423a2fc340f04ab2bf6ea1eb700ce,,,"G:\\!genesis\\1\\14.139.43.151\\Malignant Self Love - Narcissism Revisited - Sam Vaknin, Ph.D__2146.pdf",0,2000-01-01 01:00:00,2016-04-03 02:51:08,,,
18412581,Malignant Self Love - Narcissism Revisited EXCERPTS,,,,Sam Vaknin,,,,,152,0,English,,,,,,,,,,,,,,1027,0,,,,,,,1,654915,pdf,bd4c479d943b0ab0574161bac5531a45,,,G:\\!genesis\\1\\14.139.43.151\\Malignant Self Love - Narcissism Revisited EXCERPTS - Sam Vaknin_1027.pdf,0,2000-01-01 01:00:00,2016-04-03 02:51:08,,,
18412582,"Man, Economy, and Liberty: Essays in Honor of Murray N. Rothbard",,,,Walter & Rockwell Jr. Llewelly Block,2012,,Nabu Press,,450,0,English,,,,"1286211239,9781286211236",,,,,,,,j45NLgEACAAJ,,1038,0,,,,,,,1,26231984,pdf,bc79738710cb7b482ba9298f8cb42f62,,,"G:\\!genesis\\1\\14.139.43.151\\Man, Economy, and Liberty_ Essays in Honor of Murray N. Rothbard - Walter &amp; Rockwell Jr. Llewelly Block_1038.pdf",0,2000-01-01 01:00:00,2016-04-03 02:51:08,,,
18412583,"Man, Economy, and State: With Power and Market - Scholar's Edition",,,,Murray N. Rothbard,2009,,Ludwig von Mises Institute,,1506,0,English,,,,"1933550279,9781933550275",,,,,,,,YGi5EbO32hgC,,1039,0,,,,,,,1,5484249,pdf,e9be371372165ec192e37438b09eeb13,,,"G:\\!genesis\\1\\14.139.43.151\\Man, Economy, and State_ With Power and Market - Scholar&#39;s Edition - Murray N. Rothbard_1039.pdf",0,2000-01-01 01:00:00,2016-04-03 02:51:08,,,
18412584,Management Basics,,,,Bookboon.com,,,,,75,0,English,,,,,,,,,,,,,,2105,0,,,,,,,0,3502291,pdf,6b071da320abe1e6b658c806cd703bd6,,,G:\\!genesis\\1\\14.139.43.151\\Management Basics - Bookboon.com_2105.pdf,0,2000-01-01 01:00:00,2016-04-03 02:51:08,,,
18412585,Management Briefs,,,,Bookboon.com,,,,,72,0,English,,,,,,,,,,,,,,2108,0,,,,,,,0,2095120,pdf,580dae1334ba734dcc78292211115f92,,,G:\\!genesis\\1\\14.139.43.151\\Management Briefs - Bookboon.com_2108.pdf,0,2000-01-01 01:00:00,2016-04-03 02:51:08,,,
18412586,Managing for Quality in Higher Education,,,,Bookboon.com,,,,,181,0,English,,,,,,,,,,,,,,2111,0,,,,,,,0,2778315,pdf,40948ace307f104d2ee09287ca944bea,,,G:\\!genesis\\1\\14.139.43.151\\Managing for Quality in Higher Education - Bookboon.com_2111.pdf,0,2000-01-01 01:00:00,2016-04-03 02:51:08,,,
18412587,Managing the Human Resource in the 21st century,,,,Bookboon.com,,,,,77,0,English,,,,,,,,,,,,,,1969,0,,,,,,,0,2389535,pdf,a6a58d98df0e5196ba401b4d648b2886,,,G:\\!genesis\\1\\14.139.43.151\\Managing the Human Resource in the 21st century - Bookboon.com_1969.pdf,0,2000-01-01 01:00:00,2016-04-03 02:51:08,,,
18412588,Manifesto of the Communist Party,,,,Karl Marx,1848,,Feedbooks,,193,0,English,,,,,,,,,,,,,,1340,0,,,,,,,1,560465,pdf,768ac1cb5d6a5fb4c51df8503b76f61e,,,G:\\!genesis\\1\\14.139.43.151\\Manifesto of the Communist Party - Karl Marx_1340.pdf,0,2000-01-01 01:00:00,2016-04-03 02:51:08,,,
18412589,Manual of descriptive annotation for library catalogues,,,,"Savage, Ernest Albert, 1877-1966",1906,,LIBRARY SUPPLY,,188,0,English,,,,,,,,,,,,,,1480,0,,,,,,,1,6458325,pdf,328ef076a0c23c0a4c863ef45ac3bae9,,,"G:\\!genesis\\1\\14.139.43.151\\Manual of descriptive annotation for library catalogues - Savage, Ernest Albert, 1877-1966_1480.pdf",0,2000-01-01 01:00:00,2016-04-03 02:51:08,,,
18412590,Manual of Library Classification and Shelf Arrangement,,,,Brown James Duff 1862-1914,2013,,HardPress,,172,0,English,,,,"1313546720,9781313546720",,,,,,,,hFDZmQEACAAJ,,1336,0,,,,,,,1,3354358,pdf,9b943091d9371458726f94753bbef206,,,G:\\!genesis\\1\\14.139.43.151\\Manual of Library Classification and Shelf Arrangement - Brown James Duff 1862-1914_1336.pdf,0,2000-01-01 01:00:00,2016-04-03 02:51:08,,,
18412591,Mapping European Security After Kosovo,,,,Peter van Ham & Sergei Medvedev,2002,,Manchester University Press,,208,0,English,,,,"0719062403,9780719062407",,,,,,,,,,1583,0,,,,,,,1,892885,pdf,19e9d0eef9eb6073e2c32b4c72fdcd57,,,G:\\!genesis\\1\\14.139.43.151\\Mapping European Security After Kosovo - Peter van Ham &amp; Sergei Medvedev_1583.pdf,0,2000-01-01 01:00:00,2016-04-03 02:51:08,,,
18412592,Marriage and Love,,,,Emma Goldman,2000,,The Floating Press,,17,0,English,,,,9781775457183,,B003VRZE8M,,,,,,H2yJcIKE7kUC,,1047,0,,,,,,,1,631562,pdf,1bd6246bcda898f55c460c59e145f3c0,,,G:\\!genesis\\1\\14.139.43.151\\Marriage and Love - Emma Goldman_1047.pdf,0,2000-01-01 01:00:00,2016-04-03 02:51:08,,,
18412593,Marriage as a Trade,,,,Cicely Hamilton,,,,,58,0,English,,,,,,,,,,,,,,1055,0,,,,,,,1,393850,pdf,118d26ae3b531d0b3a9f21dc9ce815d1,,,G:\\!genesis\\1\\14.139.43.151\\Marriage as a Trade - Cicely Hamilton_1055.pdf,0,2000-01-01 01:00:00,2016-04-03 02:51:08,,,
18412594,"Marriage, Divorce, and Remarriage: Professional Practice in the Hong Kong Cultural Context",,,,Katherine P. H. Young & Anita Y. L. Fok,2010,,Hong Kong University Press,,319,0,English,,,,,,B003NUQO86,,,,,,,,1550,0,,,,,,,1,5370810,pdf,e041908eb878e4cbedd1a3077165d6bd,,,"G:\\!genesis\\1\\14.139.43.151\\Marriage, Divorce, and Remarriage_ Professional Practice in the Hong Kong Cultural Context - Katherine P. H. Young &amp; Anita Y. L. Fok_1550.pdf",0,2000-01-01 01:00:00,2016-04-03 02:51:08,,,
18412595,Maternal-Child Health: Interdisciplinary Aspects Within the Perspective of Global Health,,,,Uwe Gro√ü & Kerstin Wydra,2013,,Universit√§tsverlag G√∂ttingen,,553,0,English,,,,,,,,,,,,,,1768,0,,,,,,,1,6171698,pdf,a2895f7c583bdfe1f598476251ea05ad,,,G:\\!genesis\\1\\14.139.43.151\\Maternal-Child Health_ Interdisciplinary Aspects Within the Perspective of Global Health - Uwe Gross &amp; Kerstin Wydra_1768.pdf,0,2000-01-01 01:00:00,2016-04-03 02:51:08,,,
18412596,Matrix Methods and Differential Equations,,,,Bookboon.com,,,,,168,0,English,,,,,,,,,,,,,,2137,0,,,,,,,0,5263082,pdf,cb1371d21d6dc79cd0cf4b6c5acb9c52,,,G:\\!genesis\\1\\14.139.43.151\\Matrix Methods and Differential Equations - Bookboon.com_2137.pdf,0,2000-01-01 01:00:00,2016-04-03 02:51:08,,,
18412597,Max Weber: Collected Methodological Writings,,,,Hans Henrik Bruun & Sam Whimster,2013,,Routledge,,601,0,English,,,,"0415478987,9781138019676",,,,,,,,,,1056,0,,,,,,,1,5210491,pdf,2a8181b9a297a762a03c9fb26e7eb39d,,,G:\\!genesis\\1\\14.139.43.151\\Max Weber_ Collected Methodological Writings - Hans Henrik Bruun &amp; Sam Whimster_1056.pdf,0,2000-01-01 01:00:00,2016-04-03 02:51:08,,,
18412598,Maximizing People Potential,,,,Bookboon.com,,,,,86,0,English,,,,,,,,,,,,,,2117,0,,,,,,,0,4215471,pdf,2826e8562e6729cce24636f01abb0b5b,,,G:\\!genesis\\1\\14.139.43.151\\Maximizing People Potential - Bookboon.com_2117.pdf,0,2000-01-01 01:00:00,2016-04-03 02:51:08,,,
18412599,MAXIMIZING THE IMPACTS OF YOUR RESEARCH: A HANDBOOK FOR SOCIAL SCIENTISTS,,,,LSE Public Policy Group,,,,,298,0,English,,,,,,,,,,,,,,1433,0,,,,,,,1,2522664,pdf,bea7b6e15d8600086137e7acf9bc6d59,,,G:\\!genesis\\1\\14.139.43.151\\MAXIMIZING THE IMPACTS OF YOUR RESEARCH_ A HANDBOOK FOR SOCIAL SCIENTISTS - LSE Public Policy Group_1433.pdf,0,2000-01-01 01:00:00,2016-04-03 02:51:08,,,
18412600,Means and Ends of Education,,,,John Lancaster Spalding,2008,,Read Books,,73,0,English,,,,"1103618679,9781408686461",,,,,,,,Sm4JqjqmnzsC,,1057,0,,,,,,,1,1012270,pdf,19a79153cfc362ea3ca756051d55b516,,,G:\\!genesis\\1\\14.139.43.151\\Means and Ends of Education - John Lancaster Spalding_1057.pdf,0,2000-01-01 01:00:00,2016-04-03 02:51:08,,,
18412601,Media Law,,,,Jane Kirtley,,,,,74,0,English,,,,,,,,,,,,,,1434,0,,,,,,,1,2725572,pdf,0734813b452955342608c72b89fe77e9,,,G:\\!genesis\\1\\14.139.43.151\\Media Law - Jane Kirtley_1434.pdf,0,2000-01-01 01:00:00,2016-04-03 02:51:08,,,
18412602,"Media, Knowledge &amp; Education: Exploring new Spaces, Relations and Dynamics in Digital Media Ecologies",,,,Theo Hug,,,,,329,0,English,,,,,,,,,,,,,,1735,0,,,,,,,1,6355116,pdf,d05b868632f9aa4fa4ed7fea9406f56d,,,"G:\\!genesis\\1\\14.139.43.151\\Media, Knowledge &amp; Education_ Exploring new Spaces, Relations and Dynamics in Digital Media Ecologies - Theo Hug_1735.pdf",0,2000-01-01 01:00:00,2016-04-03 02:51:08,,,
18412603,Memory Detection: Theory and Application of the Concealed Information Test,,,,Bruno Verschuere & Gershon Ben-Shakhar & Ewout Meijer,2011,,Cambridge University Press,,355,0,English,,,,"0521136156,9780521769525",,,,,,,,,,1058,0,,,,,,,1,6383264,pdf,56924919e21400d5a7148894c51364c0,,,G:\\!genesis\\1\\14.139.43.151\\Memory Detection_ Theory and Application of the Concealed Information Test - Bruno Verschuere &amp; Gershon Ben-Shakhar &amp; Ewout Meijer_1058.pdf,0,2000-01-01 01:00:00,2016-04-03 02:51:08,,,
18412604,Mental Health and recovery from Abuse,,,,Teresa Joyce,,,,,24,0,English,,,,,,,,,,,,,,1059,0,,,,,,,1,485123,pdf,68515a06e4324b4587b0102b6c3d9494,,,G:\\!genesis\\1\\14.139.43.151\\Mental Health and recovery from Abuse - Teresa Joyce_1059.pdf,0,2000-01-01 01:00:00,2016-04-03 02:51:08,,,
18412605,"Merchants' Daughters: Women, Commerce, and Regional Culture in South China",,,,Helen Siu,2010,,Hong Kong University Press,,389,0,English,,,,"9888083481,9789888083480",,,,,,,,gM9cMIxjoVcC,,1731,0,,,,,,,1,2160541,pdf,b830bf92187c0c2bc17699c158a7f5be,,,"G:\\!genesis\\1\\14.139.43.151\\Merchants&#39; Daughters_ Women, Commerce, and Regional Culture in South China - Helen Siu_1731.pdf",0,2000-01-01 01:00:00,2016-04-03 02:51:08,,,
18412606,Metadata for semantic and social applications,,,,jane Greenberg,,,,,235,0,English,,,,,,,,,,,,,,1518,0,,,,,,,1,6832469,pdf,003f4de7ce704f92703e9ee48313072b,,,G:\\!genesis\\1\\14.139.43.151\\Metadata for semantic and social applications - jane Greenberg_1518.pdf,0,2000-01-01 01:00:00,2016-04-03 02:51:08,,,
18412607,Methods for finding Zeros in Polynomials,,,,Bookboon.com,,,,,122,0,English,,,,,,,,,,,,,,2127,0,,,,,,,0,3352988,pdf,f712ba8da5580bcbe2fd46d247297e41,,,G:\\!genesis\\1\\14.139.43.151\\Methods for finding Zeros in Polynomials - Bookboon.com_2127.pdf,0,2000-01-01 01:00:00,2016-04-03 02:51:08,,,
18412608,"Migration and Citizenship: Legal Status, Rights and Political Participation",,,,Rainer Baub√∂ck,2006,,Amsterdam University Press,,129,0,English,,,,9789053568880,,,,,,,,GVxH7fqSkSEC,,1681,0,,,,,,,1,578330,pdf,cbf118025972b8522d9707bafcbd2ae2,,,"G:\\!genesis\\1\\14.139.43.151\\Migration and Citizenship_ Legal Status, Rights and Political Participation - Rainer Baubock_1681.pdf",0,2000-01-01 01:00:00,2016-04-03 02:51:08,,,
18412609,Migration in a Globalised World: New Research Issues and Prospects,,,,C√©dric Audebert & Mohamed Kamel Dora√Ø,2010,,Amsterdam University Press,,222,0,English,,,,"9089641572,9789089641571",,,,,,,,,,1611,0,,,,,,,1,2300656,pdf,7003bcc0aaf37572d6ea74ff60047572,,,G:\\!genesis\\1\\14.139.43.151\\Migration in a Globalised World_ New Research Issues and Prospects - Cedric Audebert &amp; Mohamed Kamel Dorai_1611.pdf,0,2000-01-01 01:00:00,2016-04-03 02:51:08,,,
18412610,Migration Policymaking in Europe: The Dynamics of Actors and Contexts in Past and Present,,,,Giovanna Zincone & Rinus Penninx & Maren Borkert,2011,,Amsterdam University Press,,453,0,English,,,,"9089643702,9789089643704",,,,,,,,ZYWKyo9OPr8C,,1704,0,,,,,,,1,3016319,pdf,c4e9d0d62a386b8c36ba26f835579835,,,G:\\!genesis\\1\\14.139.43.151\\Migration Policymaking in Europe_ The Dynamics of Actors and Contexts in Past and Present - Giovanna Zincone &amp; Rinus Penninx &amp; Maren Borkert_1704.pdf,0,2000-01-01 01:00:00,2016-04-03 02:51:08,,,
18412611,Mises on Money,,,,Gary North,2012,,CreateSpace Independent Publishing Platform,,144,0,English,,,,"161016248X,9781479371594",,,,,,,,,,1068,0,,,,,,,1,346326,pdf,53c794cdd4b9c3edbab5bea1cbb8e79d,,,G:\\!genesis\\1\\14.139.43.151\\Mises on Money - Gary North_1068.pdf,0,2000-01-01 01:00:00,2016-04-03 02:51:08,,,
18412612,Mobile Pastoralism and the Formation of Near Eastern Civilizations Weaving Together Society,,,,Anne Porter,2012,,Cambridge University Press,,407,0,English,,,,9780511895012,,,,,,,,,,1334,0,,,,,,,1,5699476,pdf,f53c6faea83051828397c53761dc9873,,,G:\\!genesis\\1\\14.139.43.151\\Mobile Pastoralism and the Formation of Near Eastern Civilizations Weaving Together Society - Anne Porter_1334.pdf,0,2000-01-01 01:00:00,2016-04-03 02:51:08,,,
18412613,Mobile Screens: The Visual Regime of Navigation,,,,Nanna Verhoeff,2012,,Amsterdam University Press,,213,0,English,,,,"9089643796,9789089643797",,,,,,,,2KOsAJlf01IC,,1509,0,,,,,,,1,2832035,pdf,103f0e1bc7978573442a17896f083375,,,G:\\!genesis\\1\\14.139.43.151\\Mobile Screens_ The Visual Regime of Navigation - Nanna Verhoeff_1509.pdf,0,2000-01-01 01:00:00,2016-04-03 02:51:08,,,
18412614,Mobility in Transition: Migration Patterns After EU Enlargement,,,,Birgit Glorius & Izabela Grabowska-Lusinska & Aimee Kuvik,2012,,Amsterdam University Press,,333,0,English,,,,"9089643923,9789089643926",,,,,,,,ofhknAEACAAJ,,1734,0,,,,,,,1,2485279,pdf,53cfc5b5b10df0e4c39bde5283349e20,,,G:\\!genesis\\1\\14.139.43.151\\Mobility in Transition_ Migration Patterns After EU Enlargement - Birgit Glorius &amp; Izabela Grabowska-Lusinska &amp; Aimee Kuvik_1734.pdf,0,2000-01-01 01:00:00,2016-04-03 02:51:08,,,
18412615,Mobilizing Woman-Power,,,,Harriot Stanton Blatch,2012,,HardPress,,65,0,English,,,,9781290956611,,B004UJJWTC,,,,,,6ei0ngEACAAJ,,1074,0,,,,,,,1,482726,pdf,7d8ca6b13854d8e026c4780c69bdaf73,,,G:\\!genesis\\1\\14.139.43.151\\Mobilizing Woman-Power - Harriot Stanton Blatch_1074.pdf,0,2000-01-01 01:00:00,2016-04-03 02:51:08,,,
18412616,Modeling Monetary Economies,,,,Bruce Champ & Scott Freeman & Joseph Haslag,2011,,Cambridge University Press,,376,0,English,,,,9781139499101,,,,,,,,TLq8z0oQg2sC,,1075,0,,,,,,,1,4960984,pdf,d7fe3aa473ccf30432d0df37eac4823b,,,G:\\!genesis\\1\\14.139.43.151\\Modeling Monetary Economies - Bruce Champ &amp; Scott Freeman &amp; Joseph Haslag_1075.pdf,0,2000-01-01 01:00:00,2016-04-03 02:51:08,,,
18412617,Modern Pluralism: Anglo-American Debates Since 1880 Hardcover,,,,Mark Bevir,2012,,Cambridge University Press,,,0,English,,,,"110701767X,9781107017672",,,,,,,,,,1083,0,,,,,,,0,777499,mobi,7f81e91e871e74482a32d53f5fcbe7c8,,,G:\\!genesis\\1\\14.139.43.151\\Modern Pluralism_ Anglo-American Debates Since 1880 Hardcover - Mark Bevir_1083.mobi,0,2000-01-01 01:00:00,2016-04-03 02:51:08,,,
18412618,Modern Pluralism: Anglo-American Debates Since 1880 Hardcover,,,,Mark Bevir,2012,,Cambridge University Press,,277,0,English,,,,"110701767X,9781107017672",,,,,,,,,,1332,0,,,,,,,1,3223326,pdf,76e10eff3009204062e33d103370554c,,,G:\\!genesis\\1\\14.139.43.151\\Modern Pluralism_ Anglo-American Debates Since 1880 Hardcover - Mark Bevir_1332.pdf,0,2000-01-01 01:00:00,2016-04-03 02:51:08,,,
18412619,Modern Women and What is Said of Them,,,,Anonymous,,,,,119,0,English,,,,,,,,,,,,,,1091,0,,,,,,,1,600523,pdf,3341855fbbc95e077267a1b7be5f3b71,,,G:\\!genesis\\1\\14.139.43.151\\Modern Women and What is Said of Them - Anonymous_1091.pdf,0,2000-01-01 01:00:00,2016-04-03 02:51:08,,,
18412620,"Mohammed, the Prophet of Islam",,,,H. E. E. (herbert Edward Elton) Hayes,2006,,Hard Press,,,0,English,,,,"1406910643,9781406910643",,,,,,,,,,1092,0,,,,,,,0,89723,epub,c8511987cc8218ec435928ed7e08a7c9,,,"G:\\!genesis\\1\\14.139.43.151\\Mohammed, the Prophet of Islam - H. E. E. (herbert Edward Elton) Hayes_1092.epub",0,2000-01-01 01:00:00,2016-04-03 02:51:08,,,
18412621,"Mohammed, the Prophet of Islam",,,,H. E. E. (herbert Edward Elton) Hayes,2006,,Hard Press,,21,0,English,,,,"1406910643,9781406910643",,,,,,,,,,1330,0,,,,,,,1,320495,pdf,69c210dc3ea8aa5ead0e06c0e02a9473,,,"G:\\!genesis\\1\\14.139.43.151\\Mohammed, the Prophet of Islam - H. E. E. (herbert Edward Elton) Hayes_1330.pdf",0,2000-01-01 01:00:00,2016-04-03 02:51:08,,,
18412622,"Mohammedanism Lectures on Its Origin, Its Religious and Political Growth, and Its Present State",,,,C. Snouck Hurgronje,2003,,,,,0,English,,,,1406903388,,B004UJUOKI,,,,,,,,1100,0,,,,,,,0,143382,epub,3249086334b1d2b5e30710c1d0b5069f,,,"G:\\!genesis\\1\\14.139.43.151\\Mohammedanism Lectures on Its Origin, Its Religious and Political Growth, and Its Present State - C. Snouck Hurgronje_1100.epub",0,2000-01-01 01:00:00,2016-04-03 02:51:08,,,
18412623,"Mohammedanism: Lectures on Its Origin, Its Religious and Political Growth, and Its Present State",,,,C. Snouck Hurgronje,2006,,INDY PUB,,,0,English,,,,"1421973472,9781421973470",,,,,,,,KB3yPQAACAAJ,,1104,0,,,,,,,0,349162,epub,d2eb00af1984aadfea0e6a47765f51a1,,,"G:\\!genesis\\1\\14.139.43.151\\Mohammedanism_ Lectures on Its Origin, Its Religious and Political Growth, and Its Present State - C. Snouck Hurgronje_1104.epub",0,2000-01-01 01:00:00,2016-04-03 02:51:08,,,
18412624,Monetizing Online Forums: a practical guide to generating revenue forums - the right way,,,,Patrick O‚ÄôKeefe,,,,,96,0,English,,,,,,,,,,,,,,1112,0,,,,,,,1,1614788,pdf,a0be4ace56a3ce79b52f62f593404b04,,,G:\\!genesis\\1\\14.139.43.151\\Monetizing Online Forums_ a practical guide to generating revenue forums - the right way - Patrick O'Keefe_1112.pdf,0,2000-01-01 01:00:00,2016-04-03 02:51:08,,,
18412625,Money Creation: An Introduction,,,,Bookboon.com,,,,,194,0,English,,,,,,,,,,,,,,2141,0,,,,,,,0,7050436,pdf,b69daecaa5fcc4a566963db236b6f6e2,,,G:\\!genesis\\1\\14.139.43.151\\Money Creation_ An Introduction - Bookboon.com_2141.pdf,0,2000-01-01 01:00:00,2016-04-03 02:51:08,,,
18412626,"Money, Method and the Market Process",,,,Ludwig von Mises,,,,,354,0,English,,,,,,,,,,,,,,1113,0,,,,,,,1,25029667,pdf,dc6da1da7faba7a1de7e9bd9bf52bc0d,,,"G:\\!genesis\\1\\14.139.43.151\\Money, Method and the Market Process - Ludwig von Mises_1113.pdf",0,2000-01-01 01:00:00,2016-04-03 02:51:08,,,
18412627,Mooted Questions of History,,,,"Humphrey J. (humphrey Joseph), 1858-1932 ***note: This Is A \print On Demand\"" Version From The Original Book*** Desmond""",1902,,"Boston, Marlier & co.",,344,0,English,,,,,,B004FTRO88,,,,,,,,1903,0,,,,,,,1,15907877,pdf,b019cece11173e19e3601efd3d716d9e,,,"G:\\!genesis\\1\\14.139.43.151\\Mooted Questions of History - Humphrey J. (humphrey Joseph), 1858-1932 ___note_ This Is A &quot;print On Demand&quot; Version From The Original Book___ Desmond_1903.pdf",0,2000-01-01 01:00:00,2016-04-03 02:51:08,,,
18412628,Moral Principles in Education,,,,John Dewey,1909,,Wildside Press LLC,,21,0,English,,,,"1492975761,9781434470218",,,,,,,,hQcQtAw8kHsC,,1119,0,,,,,,,1,319953,pdf,602118e58de39452c5d9f731bef754c8,,,G:\\!genesis\\1\\14.139.43.151\\Moral Principles in Education - John Dewey_1119.pdf,0,2000-01-01 01:00:00,2016-04-03 02:51:08,,,
18412629,Motives in children‚Äôs development: cultural-historical approaches,,,,Mariane Hedegaard; Anne Edwards; Marilyn Fleer,2012,,Cambridge University Press,,,0,English,,,,,,,,,,,,,,1126,0,,,,,,,0,603501,mobi,5089daca1b74372e680514c0667747b2,,,G:\\!genesis\\1\\14.139.43.151\\Motives in children's development_ cultural-historical approaches - Mariane Hedegaard; Anne Edwards; Marilyn Fleer_1126.mobi,0,2000-01-01 01:00:00,2016-04-03 02:51:08,,,
18412630,Motives in children‚Äôs development: cultural-historical approaches,,,,Mariane Hedegaard; Anne Edwards; Marilyn Fleer,2012,,Cambridge University Press,,242,0,English,,,,,,,,,,,,,,1327,0,,,,,,,1,2673118,pdf,1988ede3bb1286cbe9773adff486c13c,,,G:\\!genesis\\1\\14.139.43.151\\Motives in children's development_ cultural-historical approaches - Mariane Hedegaard; Anne Edwards; Marilyn Fleer_1327.pdf,0,2000-01-01 01:00:00,2016-04-03 02:51:08,,,
18412631,"Movement, Knowledge, Emotion: Gay Activism and HIV/AIDS in Australia",,,,Jennifer Power,2011,,ANU E Press,,214,0,English,,,,"1921862386,9781921862380",,,,,,,,,,1660,0,,,,,,,1,903097,pdf,c4d1fc5cb4aa2c058287b8312f5843b0,,,"G:\\!genesis\\1\\14.139.43.151\\Movement, Knowledge, Emotion_ Gay Activism and HIV_AIDS in Australia - Jennifer Power_1660.pdf",0,2000-01-01 01:00:00,2016-04-03 02:51:08,,,
18412632,"Moving Forward, Looking Back: The European Avant-Garde and the Invention of Film Culture, 1919-1939",,,,Malte Hagener,2007,,Amsterdam University Press,,374,0,English,,,,"905356960X,9789053569610",,,,,,,,cXKXgUa3I6gC,,1618,0,,,,,,,1,2270876,pdf,76ddcafcf18aa283093964dbbcef1c49,,,"G:\\!genesis\\1\\14.139.43.151\\Moving Forward, Looking Back_ The European Avant-Garde and the Invention of Film Culture, 1919-1939 - Malte Hagener_1618.pdf",0,2000-01-01 01:00:00,2016-04-03 02:51:08,,,
18412633,ŸÖÿ≥ŸÑŸÖÿßŸÜ ÿπŸàÿ±ÿ™ ⁄©ÿß Ÿæÿ±ÿØ€Å ÿßŸàÿ± ŸÑÿ®ÿßÿ≥,,,,ÿ¥ŸäÿÆ ÿßŸÑÿßÿ≥ŸÑÿßŸÖ ÿßÿ®ŸÜ ÿ™ŸäŸÖŸäÿ©,,,,,69,0,English,,,,,,,,,,,,,,1137,0,,,,,,,1,1012901,pdf,01d2a577e994c22814507dba67b88369,,,G:\\!genesis\\1\\14.139.43.151\\mslmn `wrt kh prdh wr lbs - shykh lslm bn tymy@_1137.pdf,0,2000-01-01 01:00:00,2016-04-03 02:51:08,,,
18412634,Murat,,,,Alexandre Dumas,2013,,CreateSpace Independent Publishing Platform,,,0,English,,,,"1410104966,9781482393668",,,,,,,,,,1138,0,,,,,,,0,57454,epub,b2521071e1905428d64f01535601a91b,,,G:\\!genesis\\1\\14.139.43.151\\Murat - Alexandre Dumas_1138.epub,0,2000-01-01 01:00:00,2016-04-03 02:51:08,,,
18412635,Murat,,,,Alexandre Dumas,2013,,CreateSpace Independent Publishing Platform,,138,0,English,,,,"1410104966,9781482393668",,,,,,,,,,1326,0,,,,,,,1,470087,pdf,112a0e2f8c6ef7f2bf2913459ed81bfd,,,G:\\!genesis\\1\\14.139.43.151\\Murat - Alexandre Dumas_1326.pdf,0,2000-01-01 01:00:00,2016-04-03 02:51:08,,,
18412636,Music of the Twentieth Century,,,,Ton de Leeuw,2005,,Amsterdam University Press,,225,0,English,,,,"9053567658,9789053567654",,,,,,,,HeGNvNCN1twC,,1505,0,,,,,,,1,9516271,pdf,c0d23cc6bd3779f7177652da0289901f,,,G:\\!genesis\\1\\14.139.43.151\\Music of the Twentieth Century - Ton de Leeuw_1505.pdf,0,2000-01-01 01:00:00,2016-04-03 02:51:08,,,
18412637,Mystics and Saints of Islam,,,,Claud Field,2011,,"Cosimo, Inc.",,,0,English,,,,9781616405304,,,,,,,,hbjaFan5r_kC,,1146,0,,,,,,,0,207219,epub,e16c655c0e24c53730203977495a66ee,,,G:\\!genesis\\1\\14.139.43.151\\Mystics and Saints of Islam - Claud Field_1146.epub,0,2000-01-01 01:00:00,2016-04-03 02:51:08,,,
18412638,Mystics and Saints of Islam,,,,Claud Field,2011,,"Cosimo, Inc.",,95,0,English,,,,9781616405304,,,,,,,,hbjaFan5r_kC,,1325,0,,,,,,,1,496967,pdf,dfb744f17e1faaf0662e0be25c972e95,,,G:\\!genesis\\1\\14.139.43.151\\Mystics and Saints of Islam - Claud Field_1325.pdf,0,2000-01-01 01:00:00,2016-04-03 02:51:08,,,
18412639,Narcissism Book of Quotes,,,,Sam Vaknin,,,,,200,0,English,,,,,,,,,,,,,,1147,0,,,,,,,1,836098,pdf,bd4aeec4a54acee3d1c8f75f624b5a5e,,,G:\\!genesis\\1\\14.139.43.151\\Narcissism Book of Quotes - Sam Vaknin_1147.pdf,0,2000-01-01 01:00:00,2016-04-03 02:51:08,,,
18412640,Naye muslim ke liye rehnuma kitab,,,,Research Division Darussalam,,,,,53,0,English,,,,,,,,,,,,,,898,0,,,,,,,1,13155882,pdf,8a4ddcad60b07761cb9e0c4183b1c8a6,,,G:\\!genesis\\1\\14.139.43.151\\Naye muslim ke liye rehnuma kitab - Research Division Darussalam_898.pdf,0,2000-01-01 01:00:00,2016-04-03 02:51:08,,,
18412641,Nazi Soundscapes,,,,Carolyn Birdsall,2012,,Amsterdam University Press,,274,0,English,,,,"9089644261,9789048516322",,,,,,,,IRUhAwAAQBAJ,,1588,0,,,,,,,1,2763526,pdf,ab7c84454dcabb0d68f6b2e52960f477,,,G:\\!genesis\\1\\14.139.43.151\\Nazi Soundscapes - Carolyn Birdsall_1588.pdf,0,2000-01-01 01:00:00,2016-04-03 02:51:08,,,
18412642,Negotiating Tradition,,,,Stefan Groth,,,,,213,0,English,,,,,,,,,,,,,,1708,0,,,,,,,1,3166056,pdf,8e98baa9cc4b86a70a597fcf2061ed99,,,G:\\!genesis\\1\\14.139.43.151\\Negotiating Tradition - Stefan Groth_1708.pdf,0,2000-01-01 01:00:00,2016-04-03 02:51:08,,,
18412643,Neuropsychological Rehabilitation: Principles and Applications,,,,Jamuna Rajeswaran,,,Elsevier,,192,0,English,,,,9780124160460,,,,,,,,,,899,0,,,,,,,1,5163456,pdf,3f4e27b744d758d4e1780f41d395ed05,,,G:\\!genesis\\1\\14.139.43.151\\Neuropsychological Rehabilitation_ Principles and Applications - Jamuna Rajeswaran_899.pdf,0,2000-01-01 01:00:00,2016-04-03 02:51:08,,,
18412644,NGOs and Post-Conflict Recovery,,,,Helen Hakena & Peter Ninnes & Bert Jenkins,2011,,ANU E Press,,190,0,English,,,,"0731537459,9780731537457",,,,,,,,,,1672,0,,,,,,,1,1656213,pdf,8f54573455323beac5d3d28d591e9f0a,,,G:\\!genesis\\1\\14.139.43.151\\NGOs and Post-Conflict Recovery - Helen Hakena &amp; Peter Ninnes &amp; Bert Jenkins_1672.pdf,0,2000-01-01 01:00:00,2016-04-03 02:51:08,,,
18412645,ŸÜŸÖÿßÿ≤Ÿê Ÿàÿ™ÿ± Ÿà ÿ™€Åÿ¨ŸëÿØ (ŸÇÿ±ÿ¢ŸÜ Ÿà ÿ≠ÿØ€åÿ´ ÿßŸàÿ± ÿßŸÇŸàÿßŸÑŸê ÿßÿ¶ŸÖ€Å ⁄©€å ÿ±Ÿàÿ¥ŸÜ€å ŸÖ€å⁄∫),,,,ÿßÿ®Ÿà ÿπÿØŸÜÿßŸÜ ŸÖÿ≠ŸÖÿØ ŸÖŸÜ€åÿ± ŸÇŸÖÿ±,,,Tauheed Publications,,57,0,Urdu,,,,,,,,,,,,,,921,0,,,,,,,1,1382131,pdf,1a62115b4358a925d0cac9dff7a5a4f2,,,G:\\!genesis\\1\\14.139.43.151\\nmzi wtr w thjWd (qran w Hdyth wr qwli y'mh khy rwshny myN) - bw `dnn mHmd mnyr qmr_921.pdf,0,2000-01-01 01:00:00,2016-04-03 02:51:08,,,
18412646,No News Is Bad News! The Role of the Media and News Framing in Embedding Europe - 20,,,,C. H. de Vreese,2007,,WRR,,44,0,English,,,,,,,,,,,,ZHC_nQEACAAJ,,1655,0,,,,,,,1,208857,pdf,4c0eb83383891394188c6a0fc744b67c,,,G:\\!genesis\\1\\14.139.43.151\\No News Is Bad News! The Role of the Media and News Framing in Embedding Europe - 20 - C. H. de Vreese_1655.pdf,0,2000-01-01 01:00:00,2016-04-03 02:51:08,,,
18412647,‡§®‡•ã‡§¨‡§≤ ‡§ï‡•Å‡§∞‡§æ‡§® ‡§π‡§ø‡§®‡•ç‡§¶‡•Ä ‡§Ö‡§®‡•Å‡§µ‡§æ‡§¶ ‡§ï‡•á ‡§∏‡§æ‡§•,,,,‡§®‡•ã‡§¨‡§≤ ‡§ï‡•Å‡§∞‡§æ‡§® ‡§π‡§ø‡§®‡•ç‡§¶‡•Ä ‡§Ö‡§®‡•Å‡§µ‡§æ‡§¶ ‡§ï‡•á ‡§∏‡§æ‡§•,,,,,1320,0,Hindi,,,,,,,,,,,,,,925,0,,,,,,,0,171040149,pdf,cb260642c8004bd8797b72dd94cf73fa,,,G:\\!genesis\\1\\14.139.43.151\\nobl kuraan hindii anuvaad ke saath - nobl kuraan hindii anuvaad ke saath_925.pdf,0,2000-01-01 01:00:00,2016-04-03 02:51:08,,,
18412648,Noble Deeds of the World's Heroines,,,,Henry Charles Moore,2010,,FQ Books,,84,0,English,,,,9783849508876,,B003YMMN5G,,,,,,y0n1nQEACAAJ,,930,0,,,,,,,1,1120050,pdf,d7ba9077aa1a449cdebd516adfe417f5,,,G:\\!genesis\\1\\14.139.43.151\\Noble Deeds of the World&#39;s Heroines - Henry Charles Moore_930.pdf,0,2000-01-01 01:00:00,2016-04-03 02:51:08,,,
18412649,"Noblewomen, Aristocracy and Power in the Twelfth-Century Anglo-Norman Realm",,,,Susan M. Johns,2003,,Manchester University Press,,289,0,English,,,,"0719063051,9780719063053",,,,,,,,jEv7cAYkPGUC,,1589,0,,,,,,,1,3055014,pdf,4d675e962c350b96d1eccf7e311b3e26,,,"G:\\!genesis\\1\\14.139.43.151\\Noblewomen, Aristocracy and Power in the Twelfth-Century Anglo-Norman Realm - Susan M. Johns_1589.pdf",0,2000-01-01 01:00:00,2016-04-03 02:51:08,,,
18412650,"Northeast Migrants in Delhi: Race, Refuge and Retail",,,,Duncan McDuie-Ra,2012,,Amsterdam University Press,,209,0,English,,,,"9089644229,9789089644220",,,,,,,,QZfg00heCDwC,,1792,0,,,,,,,1,3577878,pdf,c8bb3796d81173ef925a8f4c6dbea20b,,,"G:\\!genesis\\1\\14.139.43.151\\Northeast Migrants in Delhi_ Race, Refuge and Retail - Duncan McDuie-Ra_1792.pdf",0,2000-01-01 01:00:00,2016-04-03 02:51:08,,,
18412651,Notable Women of Olden Time,,,,Anonymous,2012,,Library of Alexandria,,64,0,English,,,,9781465526472,,B00B0XJICM,,,,,,D4lpngEACAAJ,,931,0,,,,,,,1,441967,pdf,9eb03558ab1701ed15ee2b985949fca5,,,G:\\!genesis\\1\\14.139.43.151\\Notable Women of Olden Time - Anonymous_931.pdf,0,2000-01-01 01:00:00,2016-04-03 02:51:08,,,
18412652,Notes on Islam (1922),,,,Ahmed Hussain,2010,,Kessinger Publishing,,43,0,English,,,,"1409909727,9781169067851",,,,,,,,qs-rcQAACAAJ,,939,0,,,,,,,1,403236,pdf,5f712240255b406de36cbf8e397baafe,,,G:\\!genesis\\1\\14.139.43.151\\Notes on Islam (1922) - Ahmed Hussain_939.pdf,0,2000-01-01 01:00:00,2016-04-03 02:51:08,,,
18412653,Notes on Islam,,,,Ahmed Hussain,2009,,BiblioBazaar,,,0,English,,,,"1409909727,9781116989830",,,,,,,,2JHsQwAACAAJ,,935,0,,,,,,,0,108243,epub,8d067d6f353ee0517899bd3b07cd8d44,,,G:\\!genesis\\1\\14.139.43.151\\Notes on Islam - Ahmed Hussain_935.epub,0,2000-01-01 01:00:00,2016-04-03 02:51:08,,,
18412654,Odd Couples: A History of Gay Marriage in Scandinavia,,,,Jens Rydstr√∂m,2011,,Aksant Academic Publishers,,247,0,English,,,,9789048514854,,,,,,,,_zhrdSW1PMwC,,1627,0,,,,,,,1,5319027,pdf,c50d8bfeeffd6bfca35d9ef4fbdbdd26,,,G:\\!genesis\\1\\14.139.43.151\\Odd Couples_ A History of Gay Marriage in Scandinavia - Jens Rydstrom_1627.pdf,0,2000-01-01 01:00:00,2016-04-03 02:51:08,,,
18412655,"Of Money, and Other Economic Essays",,,,David Hume,1777,,Feedbooks,,279,0,English,,,,,,,,,,,,,,1353,0,,,,,,,1,746500,pdf,012b567234b0197ad239422a14e0a1fd,,,"G:\\!genesis\\1\\14.139.43.151\\Of Money, and Other Economic Essays - David Hume_1353.pdf",0,2000-01-01 01:00:00,2016-04-03 02:51:08,,,
18412656,"Of Money, and Other Economic Essays",,,,David Hume,1777,,Feedbooks,,,0,English,,,,,,,,,,,,,,949,0,,,,,,,0,840605,epub,77b40d2e96faba1a5314ceb0aa877bc2,,,"G:\\!genesis\\1\\14.139.43.151\\Of Money, and Other Economic Essays - David Hume_949.epub",0,2000-01-01 01:00:00,2016-04-03 02:51:08,,,
18412657,Of Six Mediaeval Women; To Which Is Added a Note on Mediaeval Gardens,,,,Alice Kemp-Welch,2010,,Nabu Press,,74,0,English,,,,"1178020738,9781178020731",,,,,,,,y_N_cgAACAAJ,,950,0,,,,,,,1,467939,pdf,210a39fedbe8c89da937df921d42887e,,,G:\\!genesis\\1\\14.139.43.151\\Of Six Mediaeval Women; To Which Is Added a Note on Mediaeval Gardens - Alice Kemp-Welch_950.pdf,0,2000-01-01 01:00:00,2016-04-03 02:51:08,,,
18412658,"Old English Libraries: The Making, Collection and Use of Books During the Middle Ages (1912)",,,,Ernest Albert Savage,2009,,Cornell University Library,,,0,English,,,,"1406804444,9781112181450",,,,,,,,,,954,0,,,,,,,0,232108,epub,9741f9b9085b71c34e5b45bc41c4a134,,,"G:\\!genesis\\1\\14.139.43.151\\Old English Libraries_ The Making, Collection and Use of Books During the Middle Ages (1912) - Ernest Albert Savage_954.epub",0,2000-01-01 01:00:00,2016-04-03 02:51:08,,,
18412659,On Behavior,,,,Keith Trimm,,,,,216,0,English,,,,,,,,,,,,,,961,0,,,,,,,1,866134,pdf,5922760f5d3917e32f85432ba985f37f,,,G:\\!genesis\\1\\14.139.43.151\\On Behavior - Keith Trimm_961.pdf,0,2000-01-01 01:00:00,2016-04-03 02:51:08,,,
18412660,On Books and the Housing of Them,,,,Gladstone William Ewart,1901,,Book on Demand,,,0,English,,,,,,B005G1LF16,,,,,,,,962,0,,,,,,,0,26730,epub,f7ff376b40b34536fbad6e4ca54a17e0,,,G:\\!genesis\\1\\14.139.43.151\\On Books and the Housing of Them - Gladstone William Ewart_962.epub,0,2000-01-01 01:00:00,2016-04-03 02:51:08,,,
18412661,On Helping the Dyslexic Child,,,,T R Miles,2011,,Routledge,,89,0,English,,,,"0415508452,9780415508452",,,,,,,,,,963,0,,,,,,,1,5192148,pdf,c7c99bedbeba4982aa4d5534a5d66021,,,G:\\!genesis\\1\\14.139.43.151\\On Helping the Dyslexic Child - T R Miles_963.pdf,0,2000-01-01 01:00:00,2016-04-03 02:51:08,,,
18412662,On the Duty of Civil Disobedience,,,,Henry David Thoreau,1849,,Feedbooks,,92,0,English,,,,,,,,,,,,,,1350,0,,,,,,,1,446203,pdf,e656247d380c29e2438c1eb5071c8dea,,,G:\\!genesis\\1\\14.139.43.151\\On the Duty of Civil Disobedience - Henry David Thoreau_1350.pdf,0,2000-01-01 01:00:00,2016-04-03 02:51:08,,,
18412663,On the Duty of Civil Disobedience,,,,Henry David Thoreau,1849,,Feedbooks,,,0,English,,,,,,,,,,,,,,971,0,,,,,,,0,274380,epub,48a9f04714f2d2a00a0edf1fdf071955,,,G:\\!genesis\\1\\14.139.43.151\\On the Duty of Civil Disobedience - Henry David Thoreau_971.epub,0,2000-01-01 01:00:00,2016-04-03 02:51:08,,,
18412664,On the Economy of Machinery and Manufactures,,,,Charles Babbage,2012,,HardPress,,147,0,English,,,,9781290306553,,B004TS7610,,,,,,DeHCngEACAAJ,,1825,0,,,,,,,1,592337,pdf,07f0d234d91113096ec789ff1e16eb8a,,,G:\\!genesis\\1\\14.139.43.151\\On the Economy of Machinery and Manufactures - Charles Babbage_1825.pdf,0,2000-01-01 01:00:00,2016-04-03 02:51:08,,,
18412665,"On the Origin of Species, 6th Edition",,,,Charles Darwin,1872,,Feedbooks,,1862,0,English,,,,,,,,,,,,,,1349,0,,,,,,,1,3162768,pdf,2c570b7c361f0e6d493199208158762e,,,"G:\\!genesis\\1\\14.139.43.151\\On the Origin of Species, 6th Edition - Charles Darwin_1349.pdf",0,2000-01-01 01:00:00,2016-04-03 02:51:08,,,
18412666,"On the Origin of Species, 6th Edition",,,,Charles Darwin,1872,,Feedbooks,,,0,English,,,,,,,,,,,,,,972,0,,,,,,,0,791349,epub,d02eabdbe7c317f3a07088d4d13100c9,,,"G:\\!genesis\\1\\14.139.43.151\\On the Origin of Species, 6th Edition - Charles Darwin_972.epub",0,2000-01-01 01:00:00,2016-04-03 02:51:08,,,
18412667,One in Five,,,,Paul Croll & Diana Moses,2011,,Routledge,,185,0,English,,,,"1138008311,9780415507622",,,,,,,,I2bOnQEACAAJ,,976,0,,,,,,,1,3567816,pdf,d6d68ba5fa23bac9cedb90ec8d9aa8e6,,,G:\\!genesis\\1\\14.139.43.151\\One in Five - Paul Croll &amp; Diana Moses_976.pdf,0,2000-01-01 01:00:00,2016-04-03 02:51:08,,,
18412668,Open Content Licensing: From Theory to Practice,,,,Lucie Guibault & Christina Angelopoulos,2011,,Amsterdam University Press,,296,0,English,,,,"9089643079,9789089643070",,,,,,,,RW1P5XOp_NoC,,1630,0,,,,,,,1,3075495,pdf,2801f0d518ebcb664ebe866394eb8b2f,,,G:\\!genesis\\1\\14.139.43.151\\Open Content Licensing_ From Theory to Practice - Lucie Guibault &amp; Christina Angelopoulos_1630.pdf,0,2000-01-01 01:00:00,2016-04-03 02:51:08,,,
18412669,Operations Management,,,,Bookboon.com,,,,,62,0,English,,,,,,,,,,,,,,2155,0,,,,,,,0,2035650,pdf,4613695a1eaf827dc0c09dba2fe0c0df,,,G:\\!genesis\\1\\14.139.43.151\\Operations Management - Bookboon.com_2155.pdf,0,2000-01-01 01:00:00,2016-04-03 02:51:08,,,
18412670,Operations Strategy,,,,Bookboon.com,,,,,70,0,English,,,,,,,,,,,,,,2158,0,,,,,,,0,2095517,pdf,9b8777fcee834d9224c6e1b0c654fc27,,,G:\\!genesis\\1\\14.139.43.151\\Operations Strategy - Bookboon.com_2158.pdf,0,2000-01-01 01:00:00,2016-04-03 02:51:08,,,
18412671,Organizational Design: A Step-By-Step Approach,,,,Richard M. Burton & B√∏rge Obel & Gerardine Desanctis,2006,,Cambridge University Press,,292,0,English,,,,"0521180236,9780521180238",,,,,,,,,,1001,0,,,,,,,1,2235019,pdf,fa6228f6611dcb77fc72032da3117073,,,G:\\!genesis\\1\\14.139.43.151\\Organizational Design_ A Step-By-Step Approach - Richard M. Burton &amp; Borge Obel &amp; Gerardine Desanctis_1001.pdf,0,2000-01-01 01:00:00,2016-04-03 02:51:08,,,
18412672,Organizational Theory,,,,Bookboon.com,,,,,123,0,English,,,,,,,,,,,,,,2161,0,,,,,,,0,2441378,pdf,77516f550dabaa4ef9493256015c317e,,,G:\\!genesis\\1\\14.139.43.151\\Organizational Theory - Bookboon.com_2161.pdf,0,2000-01-01 01:00:00,2016-04-03 02:51:08,,,
18412673,Oriental Women,,,,Edward B. Pollard,2004,,Lightning Source Incorporated,,139,0,English,,,,"1410216586,9781410216588",,,,,,,,x3cEAAAACAAJ,,1002,0,,,,,,,1,670987,pdf,dba5965589d7fcd0c20f29cce897b25d,,,G:\\!genesis\\1\\14.139.43.151\\Oriental Women - Edward B. Pollard_1002.pdf,0,2000-01-01 01:00:00,2016-04-03 02:51:08,,,
18412674,Origins of Political Extremism: Mass Violence in the Twentieth Century and Beyond,,,,Manus I. Midlarsky,2011,,Cambridge University Press,,460,0,English,,,,9781139500777,,,,,,,,N1WwvQYawZEC,,1004,0,,,,,,,1,3732933,pdf,822e0ac7e842e37216e5c78f0320c7f5,,,G:\\!genesis\\1\\14.139.43.151\\Origins of Political Extremism_ Mass Violence in the Twentieth Century and Beyond - Manus I. Midlarsky_1004.pdf,0,2000-01-01 01:00:00,2016-04-03 02:51:08,,,
18412675,Our Moslem Sisters: A Cry of Need From Lands of Darkness Interpreted by Those Who Heard It,,,,Annie van Sommer,2010,,General Books LLC,,103,0,English,,,,9781153824521,,,,,,,,soz3RAAACAAJ,,1005,0,,,,,,,1,923364,pdf,40c1629a61fce072eb9077189f59001a,,,G:\\!genesis\\1\\14.139.43.151\\Our Moslem Sisters_ A Cry of Need From Lands of Darkness Interpreted by Those Who Heard It - Annie van Sommer_1005.pdf,0,2000-01-01 01:00:00,2016-04-03 02:51:08,,,
18412676,Outdoor Sports and Games,,,,Claude H. Miller,2008,,BiblioBazaar,,,0,English,,,,9780554259024,,,,,,,,TC4BAD-MoccC,,1011,0,,,,,,,0,1384847,epub,79fd20410331cec1c9a467303dc2cc83,,,G:\\!genesis\\1\\14.139.43.151\\Outdoor Sports and Games - Claude H. Miller_1011.epub,0,2000-01-01 01:00:00,2016-04-03 02:51:08,,,
18412677,Overcoming learning disabilities: a Vygotskian-Lurian neuropsychological approach,,,,Tatiana V. Akhutina & Natalia M. Pylaeva,2012,,Cambridge University Press,,,0,English,,,,,,,,,,,,,,1013,0,,,,,,,0,6707548,mobi,3fd9410b1d4d897792aa515592c777f2,,,G:\\!genesis\\1\\14.139.43.151\\Overcoming learning disabilities_ a Vygotskian-Lurian neuropsychological approach - Tatiana V. Akhutina &amp; Natalia M. Pylaeva_1013.mobi,0,2000-01-01 01:00:00,2016-04-03 02:51:08,,,
18412678,Overcoming learning disabilities: a Vygotskian-Lurian neuropsychological approach,,,,Tatiana V. Akhutina & Natalia M. Pylaeva,2012,,Cambridge University Press,,338,0,English,,,,,,,,,,,,,,1342,0,,,,,,,1,8501027,pdf,10f0f277f90d8799b03317593ea7ab3d,,,G:\\!genesis\\1\\14.139.43.151\\Overcoming learning disabilities_ a Vygotskian-Lurian neuropsychological approach - Tatiana V. Akhutina &amp; Natalia M. Pylaeva_1342.pdf,0,2000-01-01 01:00:00,2016-04-03 02:51:08,,,
18412679,"Pakistan and the War on Terror: Conflicted Goals, Compromised Performance",,,,Ashley J. Tellis,2008,,Carnegie Endowment,,64,0,English,,,,,,B003DIDAGW,,,,,,,,2228,0,,,,,,,1,3212116,pdf,80672e6dbbf721eb0e17ff09db48b376,,,"G:\\!genesis\\1\\14.139.43.151\\Pakistan and the War on Terror_ Conflicted Goals, Compromised Performance - Ashley J. Tellis_2228.pdf",0,2000-01-01 01:00:00,2016-04-03 02:51:08,,,
18412680,Pan-Islam [Microform],,,,G. Wyman (george Wyman) Bury,2012,,HardPress Publishing,,,0,English,,,,"1290880298,9781290880299",,,,,,,,,,1029,0,,,,,,,0,206201,epub,0fd15ef13a3dc575712f506bee2d7e04,,,G:\\!genesis\\1\\14.139.43.151\\Pan-Islam [Microform] - G. Wyman (george Wyman) Bury_1029.epub,0,2000-01-01 01:00:00,2016-04-03 02:51:08,,,
18412681,Papers on Health,,,,John Kirk,1877,,Thomas D. Morison,,,0,English,,,,,,B003YH9V56,,,,,,HQMFAAAAQAAJ,,1030,0,,,,,,,0,2120991,epub,9831270c137176ebc6be014e344badff,,,G:\\!genesis\\1\\14.139.43.151\\Papers on Health - John Kirk_1030.epub,0,2000-01-01 01:00:00,2016-04-03 02:51:08,,,
18412682,Parenting after Divorce: a complete guide,,,,Anonymous,,,,,52,0,English,,,,,,,,,,,,,,1031,0,,,,,,,1,619707,pdf,b7d7171ec788017c63498c30fda338e6,,,G:\\!genesis\\1\\14.139.43.151\\Parenting after Divorce_ a complete guide - Anonymous_1031.pdf,0,2000-01-01 01:00:00,2016-04-03 02:51:08,,,
18412683,Parliamentary Sovereignty: Contemporary Debates,,,,Jeffrey Goldsworthy,2010,,Cambridge University Press,,,0,English,,,,"0511781490,9780511781490",,,,,,,,,,1041,0,,,,,,,0,1114365,mobi,ef57b9b707306bc73ed177b5ccd849ce,,,G:\\!genesis\\1\\14.139.43.151\\Parliamentary Sovereignty_ Contemporary Debates - Jeffrey Goldsworthy_1041.mobi,0,2000-01-01 01:00:00,2016-04-03 02:51:08,,,
18412684,Parliamentary Sovereignty: Contemporary Debates,,,,Jeffrey Goldsworthy,2010,,Cambridge University Press,,354,0,English,,,,"0511781490,9780511781490",,,,,,,,,,1339,0,,,,,,,1,2793555,pdf,3d112296e83c2d5417daf674d30b080e,,,G:\\!genesis\\1\\14.139.43.151\\Parliamentary Sovereignty_ Contemporary Debates - Jeffrey Goldsworthy_1339.pdf,0,2000-01-01 01:00:00,2016-04-03 02:51:08,,,
18412685,Partial differential equations and operators,,,,Bookboon.com,,,,,198,0,English,,,,,,,,,,,,,,2163,0,,,,,,,0,7185203,pdf,0bed9ac1001646c804c9321f87fbf2bd,,,G:\\!genesis\\1\\14.139.43.151\\Partial differential equations and operators - Bookboon.com_2163.pdf,0,2000-01-01 01:00:00,2016-04-03 02:51:08,,,
18412686,"Past, present and future of historical information science",,,,Onno Boonstra & Leen Breure & Peter Doorn,2004,,niwi-knaw,,129,0,English,,,,,,,,,,,,,,1511,0,,,,,,,1,4789678,pdf,a63afe565cb583a6a6f8a0e585db1c02,,,"G:\\!genesis\\1\\14.139.43.151\\Past, present and future of historical information science - Onno Boonstra &amp; Leen Breure &amp; Peter Doorn_1511.pdf",0,2000-01-01 01:00:00,2016-04-03 02:51:08,,,
18412687,Pavitra Ved Aur Islam Dharm,,,,Q.S. Khan,,,,,74,0,Hindi,,,,,,,,,,,,,,1042,0,,,,,,,1,6068771,pdf,cab6156b1e749a30a3308cdc3fbb385a,,,G:\\!genesis\\1\\14.139.43.151\\Pavitra Ved Aur Islam Dharm - Q.S. Khan_1042.pdf,0,2000-01-01 01:00:00,2016-04-03 02:51:08,,,
18412688,Peace Education: How We Come to Love and Hate War,,,,Nel Noddings,2011,,Cambridge University Press,,,0,English,,,,"1107658721,9780521193825",,,,,,,,,,1043,0,,,,,,,0,551567,mobi,7cae8ac1c177301d793252fed56d7f03,,,G:\\!genesis\\1\\14.139.43.151\\Peace Education_ How We Come to Love and Hate War - Nel Noddings_1043.mobi,0,2000-01-01 01:00:00,2016-04-03 02:51:08,,,
18412689,Peace Education: How We Come to Love and Hate War,,,,Nel Noddings,2011,,Cambridge University Press,,224,0,English,,,,"1107658721,9780521193825",,,,,,,,,,1338,0,,,,,,,1,2007544,pdf,1a420ba72e1314a0c02f65b8f4ec5d6b,,,G:\\!genesis\\1\\14.139.43.151\\Peace Education_ How We Come to Love and Hate War - Nel Noddings_1338.pdf,0,2000-01-01 01:00:00,2016-04-03 02:51:08,,,
18412690,Perceptions of future developments in the European Union : Conference report,,,,A. Brouwrs & M. Kwast van Duursen & H. Ruyg,,,"Scientific Council for Government Policy, Hague",,82,0,English,,,,,,,,,,,,,,1635,0,,,,,,,1,1206298,pdf,48f59b46227d3de8630db3c4a3025048,,,G:\\!genesis\\1\\14.139.43.151\\Perceptions of future developments in the European Union _ Conference report - A. Brouwrs &amp; M. Kwast van Duursen &amp; H. Ruyg_1635.pdf,0,2000-01-01 01:00:00,2016-04-03 02:51:08,,,
18412691,Perfect Behavior (A Guide for Ladies and Gentlemen in All Social Crises),,,,Donald Ogden Stewart,2002,,IndyPublish,,,0,English,,,,"1409982432,9781404324275",,,,,,,,,,1048,0,,,,,,,0,1613720,epub,a94b6078893eda2aa621aa4f3d708775,,,G:\\!genesis\\1\\14.139.43.151\\Perfect Behavior (A Guide for Ladies and Gentlemen in All Social Crises) - Donald Ogden Stewart_1048.epub,0,2000-01-01 01:00:00,2016-04-03 02:51:08,,,
18412692,Permanent Pixels: Building Blocks for the Longevity of Digital Surrogates of Historical Photographs,,,,Ren√© van Horik,2005,,Data Archiving and Networked Services (DANS),,221,0,English,,,,9789069844626,,,,,,,,ylOlSgAACAAJ,,1508,0,,,,,,,1,1176203,pdf,ce8b79374c5cbe495b9ed484cf552bd6,,,G:\\!genesis\\1\\14.139.43.151\\Permanent Pixels_ Building Blocks for the Longevity of Digital Surrogates of Historical Photographs - Rene van Horik_1508.pdf,0,2000-01-01 01:00:00,2016-04-03 02:51:08,,,
18412693,Personal Narrative of a Pilgrimage to Al-Madinah and Meccah: Volume 1,,,,Sir Richard Francis Burton,2000,,Adamant Media Corporation,,,0,English,,,,"1402185413,9781402185410",,,,,,,,,,1049,0,,,,,,,0,476396,epub,1ab67aad41006c9195cdd994ec8c4ac5,,,G:\\!genesis\\1\\14.139.43.151\\Personal Narrative of a Pilgrimage to Al-Madinah and Meccah_ Volume 1 - Sir Richard Francis Burton_1049.epub,0,2000-01-01 01:00:00,2016-04-03 02:51:08,,,
18412694,Personal Narrative of a Pilgrimage to Al-Madinah and Meccah: Volume 2,,,,Sir Richard Francis Burton,2000,,Adamant Media Corporation,,,0,English,,,,"0486212181,9781402185427",,,,,,,,,,1050,0,,,,,,,0,498151,epub,4752baa49e57b86350418b742e32ddad,,,G:\\!genesis\\1\\14.139.43.151\\Personal Narrative of a Pilgrimage to Al-Madinah and Meccah_ Volume 2 - Sir Richard Francis Burton_1050.epub,0,2000-01-01 01:00:00,2016-04-03 02:51:08,,,
18412695,Persuasive Discipline,,,,Carmen Y. Reyes,,,,,55,0,English,,,,,,,,,,,,,,875,0,,,,,,,1,805712,pdf,220377d64e8de7ea2d5388aa8ff3fa3a,,,G:\\!genesis\\1\\14.139.43.151\\Persuasive Discipline - Carmen Y. Reyes_875.pdf,0,2000-01-01 01:00:00,2016-04-03 02:51:08,,,
18412696,PhD Musings,,,,Rod Pitcher,,,,,38,0,English,,,,,,,,,,,,,,876,0,,,,,,,1,314244,pdf,e6e45daca33d2c75d4ecf87e39db6a0a,,,G:\\!genesis\\1\\14.139.43.151\\PhD Musings - Rod Pitcher_876.pdf,0,2000-01-01 01:00:00,2016-04-03 02:51:08,,,
18412697,PhD Musings 2,,,,Rod Pitcher,,,,,37,0,English,,,,,,,,,,,,,,877,0,,,,,,,1,408763,pdf,117bbb75b44438baddae941b170cbf4a,,,G:\\!genesis\\1\\14.139.43.151\\PhD Musings 2 - Rod Pitcher_877.pdf,0,2000-01-01 01:00:00,2016-04-03 02:51:08,,,
18412698,Philosophy of the Teachings of Islam,,,,Mirza Ghulam Ahmad,1987,,Islam International,,271,0,English,,,,"185372193X,9781853721939",,,,,,,,XQvDsVDtHuYC,,886,0,,,,,,,1,2299453,pdf,1626196c8d74bbb5b867e2fd4bdc6aa8,,,G:\\!genesis\\1\\14.139.43.151\\Philosophy of the Teachings of Islam - Mirza Ghulam Ahmad_886.pdf,0,2000-01-01 01:00:00,2016-04-03 02:51:08,,,
18412699,Physical Safety: A Matter of Balancing Responsibilities,,,,Marjolein B.A. van Asselt & Peter de Goede & V.C. Karin Ammerlaan & Jelle van Aanholt Amsterdam,2013,,Amsterdam University Press,,94,0,English,,,,"9089645136,9789089645135",,,,,,,,dyFJnwEACAAJ,,1621,0,,,,,,,1,1173862,pdf,67b8873db236b8843f08c117634f4261,,,G:\\!genesis\\1\\14.139.43.151\\Physical Safety_ A Matter of Balancing Responsibilities - Marjolein B.A. van Asselt &amp; Peter de Goede &amp; V.C. Karin Ammerlaan &amp; Jelle van Aanholt Amsterdam_1621.pdf,0,2000-01-01 01:00:00,2016-04-03 02:51:08,,,
18412700,"Policy, People, and the New Professional: De-Professionalisation and Re-Professionalisation in Care and Welfare",,,,Jan Willem Duyvendak & Trudie Knijn & Monique Kremer,2006,,Amsterdam University Press,,222,0,English,,,,"9053568859,9789053568859",,,,,,,,OlhHAAAAMAAJ,,1678,0,,,,,,,1,2559499,pdf,e5d85979cd36a3e16d96ca7db5ea72b2,,,"G:\\!genesis\\1\\14.139.43.151\\Policy, People, and the New Professional_ De-Professionalisation and Re-Professionalisation in Care and Welfare - Jan Willem Duyvendak &amp; Trudie Knijn &amp; Monique Kremer_1678.pdf",0,2000-01-01 01:00:00,2016-04-03 02:51:08,,,
18412701,Political Concepts,,,,Richard Bellamy & Andrew Mason,2003,,Manchester University Press,,254,0,English,,,,"0719059097,9780719059087",,,,,,,,n6MUAQAAIAAJ,,1590,0,,,,,,,1,2065753,pdf,aded92c3b49a69bc8d79e83396d33661,,,G:\\!genesis\\1\\14.139.43.151\\Political Concepts - Richard Bellamy &amp; Andrew Mason_1590.pdf,0,2000-01-01 01:00:00,2016-04-03 02:51:08,,,
18412702,"Political Development in Hong Kong: State, Political Society, and Civil Society",,,,Ngok Ma,2007,,Hong Kong University Press,,319,0,English,,,,"9622098096,9789622098107",,,,,,,,,,1558,0,,,,,,,1,1783703,pdf,1dca27a40ae73a2ee09e74ba7d002e88,,,"G:\\!genesis\\1\\14.139.43.151\\Political Development in Hong Kong_ State, Political Society, and Civil Society - Ngok Ma_1558.pdf",0,2000-01-01 01:00:00,2016-04-03 02:51:08,,,
18412703,Political Ideals,,,,Bertrand Russell,1917,,Feedbooks,,214,0,English,,,,,,,,,,,,,,1361,0,,,,,,,1,619382,pdf,0b894c443da62b1937db106ed1973be0,,,G:\\!genesis\\1\\14.139.43.151\\Political Ideals - Bertrand Russell_1361.pdf,0,2000-01-01 01:00:00,2016-04-03 02:51:08,,,
18412704,Political Ideals,,,,Bertrand Russell,1917,,Feedbooks,,,0,English,,,,,,,,,,,,,,910,0,,,,,,,0,437504,epub,16136bc0db3a67f778b22b5ee53db134,,,G:\\!genesis\\1\\14.139.43.151\\Political Ideals - Bertrand Russell_910.epub,0,2000-01-01 01:00:00,2016-04-03 02:51:08,,,
18412705,"Political Power and Economic Policy: Theory, Analysis, and Empirical Applications",,,,Gordon C. Rausser & Johan Swinnen & Pinhas Zusman,2011,,Cambridge University Press,,561,0,English,,,,"0521148006,9780521148009",,,,,,,,tXq8uQAACAAJ,,919,0,,,,,,,1,4903584,pdf,b0fc148b33c455cb57fbc3872616e90a,,,"G:\\!genesis\\1\\14.139.43.151\\Political Power and Economic Policy_ Theory, Analysis, and Empirical Applications - Gordon C. Rausser &amp; Johan Swinnen &amp; Pinhas Zusman_919.pdf",0,2000-01-01 01:00:00,2016-04-03 02:51:08,,,
18412706,Political Women,,,,Sutherland Menzies,2003,,Lightning Source Incorporated,,139,0,English,,,,"1410210316,9781410210319",,,,,,,,qVEanwEACAAJ,,927,0,,,,,,,1,632927,pdf,bae9edd5eb9abce599057992e13eb0a0,,,G:\\!genesis\\1\\14.139.43.151\\Political Women - Sutherland Menzies_927.pdf,0,2000-01-01 01:00:00,2016-04-03 02:51:08,,,
18412707,"Political Women, Vol. 2",,,,Sutherland Menzies,,,,,142,0,English,,,,1456411004,,B004TQADV2,,,,,,,,928,0,,,,,,,1,639614,pdf,ae2e5ab28476c3e8d6ae24a7d7fa0bd8,,,"G:\\!genesis\\1\\14.139.43.151\\Political Women, Vol. 2 - Sutherland Menzies_928.pdf",0,2000-01-01 01:00:00,2016-04-03 02:51:08,,,
18412708,Politics and State Building in Solomon Islands,,,,Sinclair Dinnen & Stewart Firth,2011,,ANU E Press,,310,0,English,,,,"0731538188,9780731538188",,,,,,,,,,1677,0,,,,,,,1,3662830,pdf,09e745448857222cc178860b4e8786c2,,,G:\\!genesis\\1\\14.139.43.151\\Politics and State Building in Solomon Islands - Sinclair Dinnen &amp; Stewart Firth_1677.pdf,0,2000-01-01 01:00:00,2016-04-03 02:51:08,,,
18412709,"Politics, Identity, and Mexico's Indigenous Rights Movements",,,,Todd A. Eisenstadt,2011,,Cambridge University Press,,235,0,English,,,,9781139498944,,,,,,,,wMJU9Nq9w2cC,,1354,0,,,,,,,1,2874485,pdf,d1408bdca0178efc40562032792bad82,,,"G:\\!genesis\\1\\14.139.43.151\\Politics, Identity, and Mexico&#39;s Indigenous Rights Movements - Todd A. Eisenstadt_1354.pdf",0,2000-01-01 01:00:00,2016-04-03 02:51:08,,,
18412710,"Politics, Identity, and Mexico's Indigenous Rights Movements",,,,Todd A. Eisenstadt,2011,,Cambridge University Press,,,0,English,,,,9781139498944,,,,,,,,wMJU9Nq9w2cC,,946,0,,,,,,,0,1570658,mobi,3a823fa72179662bc6784ca7a478ca05,,,"G:\\!genesis\\1\\14.139.43.151\\Politics, Identity, and Mexico&#39;s Indigenous Rights Movements - Todd A. Eisenstadt_946.mobi",0,2000-01-01 01:00:00,2016-04-03 02:51:08,,,
18412711,Portfolio Theory &amp; Financial Analyses,,,,Bookboon.com,,,,,120,0,English,,,,,,,,,,,,,,2168,0,,,,,,,0,2607686,pdf,1050e26626e1c726421b9e1aa7d44dad,,,G:\\!genesis\\1\\14.139.43.151\\Portfolio Theory &amp; Financial Analyses - Bookboon.com_2168.pdf,0,2000-01-01 01:00:00,2016-04-03 02:51:08,,,
18412712,Portfolio Theory &amp; Financial Analyses: Exercises,,,,Bookboon.com,,,,,73,0,English,,,,,,,,,,,,,,2169,0,,,,,,,0,2448213,pdf,6cd947a2a1626cba778f675c885c2ecd,,,G:\\!genesis\\1\\14.139.43.151\\Portfolio Theory &amp; Financial Analyses_ Exercises - Bookboon.com_2169.pdf,0,2000-01-01 01:00:00,2016-04-03 02:51:08,,,
18412713,Power and Market,,,,"Rothbard, Murray N.",,,Ludwig von Mises Institute,,348,0,English,,,,9781610163637,,,,,,,,VS5gIb1S8ewC,,953,0,,,,,,,1,1614710,pdf,3694acccf38510117bd3db84aedd31ad,,,"G:\\!genesis\\1\\14.139.43.151\\Power and Market - Rothbard, Murray N__953.pdf",0,2000-01-01 01:00:00,2016-04-03 02:51:08,,,
18412714,Power and Responsibility in Chinese Foreign Policy,,,,Yongjin Zhang & Greg Austin,2001,,ANU Press,,321,0,English,,,,"1925021416,9781925021417",,,,,,,,NidxAAAAMAAJ,,1661,0,,,,,,,1,41269656,pdf,c1178886ef4ddd22d710d7f663e0e09d,,,G:\\!genesis\\1\\14.139.43.151\\Power and Responsibility in Chinese Foreign Policy - Yongjin Zhang &amp; Greg Austin_1661.pdf,0,2000-01-01 01:00:00,2016-04-03 02:51:08,,,
18412715,Power in Movement: Social Movements and Contentious Politics,,,,Sidney Tarrow,1994,,Cambridge University Press,,369,0,English,,,,,,B001463YWK,,,,,,,,957,0,,,,,,,1,2779064,pdf,d7d0fa4ee2c31beb169505e9d4f863f1,,,G:\\!genesis\\1\\14.139.43.151\\Power in Movement_ Social Movements and Contentious Politics - Sidney Tarrow_957.pdf,0,2000-01-01 01:00:00,2016-04-03 02:51:08,,,
18412716,Practical Body Language,,,,obooko,,,obooko.com,,50,0,English,,,,,,,,,,,,,,958,0,,,,,,,1,408668,pdf,85d5250e4679035748bc38bf9f02240d,,,G:\\!genesis\\1\\14.139.43.151\\Practical Body Language - obooko_958.pdf,0,2000-01-01 01:00:00,2016-04-03 02:51:08,,,
18412717,Prehistory of the Indo-Malaysian Archipelago,,,,Peter S. Bellwood,1997,,University of Hawaii Press,,445,0,English,,,,"1921313110,9780824819071",,,,,,,,,,1686,0,,,,,,,1,7324202,pdf,d537ccc813fd429c5cd8622338970bba,,,G:\\!genesis\\1\\14.139.43.151\\Prehistory of the Indo-Malaysian Archipelago - Peter S. Bellwood_1686.pdf,0,2000-01-01 01:00:00,2016-04-03 02:51:08,,,
18412718,Pretty Dukkys: The Love Letters of Henry VIII to Anne Boleyn,,,,J. O. Halliwell-Phillips,,,,,36,0,English,,,,,,,,,,,,,,966,0,,,,,,,1,480617,pdf,d919247666e9a39f85db1c42f3d6225c,,,G:\\!genesis\\1\\14.139.43.151\\Pretty Dukkys_ The Love Letters of Henry VIII to Anne Boleyn - J. O. Halliwell-Phillips_966.pdf,0,2000-01-01 01:00:00,2016-04-03 02:51:08,,,
18412719,Prices and Production and Other Works,,,,"Hayek, F. A.",,,Ludwig von Mises Institute,,174,0,English,,,,9781610163613,,,,,,,,IRtplzojOyUC,,967,0,,,,,,,1,9998672,pdf,a3bc12dff334fa7b6c172cdd9d195041,,,"G:\\!genesis\\1\\14.139.43.151\\Prices and Production and Other Works - Hayek, F. A__967.pdf",0,2000-01-01 01:00:00,2016-04-03 02:51:08,,,
18412720,Principles of International Environmental Law,,,,Philippe Sands & Jacqueline Peel & Adriana Fabra & Ruth MacKenzie,1995,,Cambridge University Press,,1017,0,English,,,,"0521140935,9780521521062",,,,,,,,,,996,0,,,,,,,1,8097655,pdf,7e27ea1e1022f543422f15149416f920,,,G:\\!genesis\\1\\14.139.43.151\\Principles of International Environmental Law - Philippe Sands &amp; Jacqueline Peel &amp; Adriana Fabra &amp; Ruth MacKenzie_996.pdf,0,2000-01-01 01:00:00,2016-04-03 02:51:08,,,
18412721,Principles of Political Economy,,,,John Stuart Mill,2004,,Prometheus Books,,365,0,English,,,,"1172560447,9781591021513",,,,,,,,,,1902,0,,,,,,,1,1139775,pdf,6cc9628ef579164e4ac4556367b84d67,,,G:\\!genesis\\1\\14.139.43.151\\Principles of Political Economy - John Stuart Mill_1902.pdf,0,2000-01-01 01:00:00,2016-04-03 02:51:08,,,
18412722,Principles of Politics: A Rational Choice Theory Guide to Politics and Social Justice,,,,Joe Oppenheimer,2012,,Cambridge University Press,,327,0,English,,,,9781107014886,,,,,,,,wrrCawCyIcQC,,997,0,,,,,,,1,2428109,pdf,2055b4369571d3ec9d3f7442578046ca,,,G:\\!genesis\\1\\14.139.43.151\\Principles of Politics_ A Rational Choice Theory Guide to Politics and Social Justice - Joe Oppenheimer_997.pdf,0,2000-01-01 01:00:00,2016-04-03 02:51:08,,,
18412723,Prisoners of Poverty,,,,Helen Campbell,1887,,Echo Library,,121,0,English,,,,"1406869155,9781406869156",,,,,,,,9UxRM4zIJ1cC,,998,0,,,,,,,1,890779,pdf,04f40ff60b613e05e6e6ac0c250664c8,,,G:\\!genesis\\1\\14.139.43.151\\Prisoners of Poverty - Helen Campbell_998.pdf,0,2000-01-01 01:00:00,2016-04-03 02:51:08,,,
18412724,Proceedings of the 1963 Clinic on Library Applications of Data Processing,,,,Herbert Edited By Goldhor,1964,,University of Illinois,,132,0,English,,,,,,B000MAZGAW,,,,,,,,1000,0,,,,,,,1,5099972,pdf,f43b5d133d3a38737c446445b291043a,,,G:\\!genesis\\1\\14.139.43.151\\Proceedings of the 1963 Clinic on Library Applications of Data Processing - Herbert Edited By Goldhor_1000.pdf,0,2000-01-01 01:00:00,2016-04-03 02:51:08,,,
18412725,"Proceedings of the International Conference on Dublin Core and Metadata for E-Communities, 2002: October 13-17, 2002, Florence, Italy",,,,Associazione Italiana Biblioteche,2002,,Firenze University Press,,273,0,English,,,,9788884530431,,,,,,,,nZEVAQAAIAAJ,,1651,0,,,,,,,1,5669847,pdf,2e158d257f6348c7f6a821e774055b12,,,"G:\\!genesis\\1\\14.139.43.151\\Proceedings of the International Conference on Dublin Core and Metadata for E-Communities, 2002_ October 13-17, 2002, Florence, Italy - Associazione Italiana Biblioteche_1651.pdf",0,2000-01-01 01:00:00,2016-04-03 02:51:08,,,
18412726,Project Leadership - Step by Step,,,,Bookboon.com,,,,,112,0,English,,,,,,,,,,,,,,2172,0,,,,,,,0,3159150,pdf,b4f546494413c373438c300b0a6498ea,,,G:\\!genesis\\1\\14.139.43.151\\Project Leadership - Step by Step - Bookboon.com_2172.pdf,0,2000-01-01 01:00:00,2016-04-03 02:51:08,,,
18412727,"Project Leadership - Step by Step, Part 2",,,,Svein-Arne Jessen,,,Bookboon,,120,0,English,,,,,,,,,,,,,,2226,0,,,,,,,0,3191643,pdf,02c46de88c5267875cc8992c6c453199,,,"G:\\!genesis\\1\\14.139.43.151\\Project Leadership - Step by Step, Part 2 - Svein-Arne Jessen_2226.pdf",0,2000-01-01 01:00:00,2016-04-03 02:51:08,,,
18412728,Project Management,,,,Bookboon.com,,,,,126,0,English,,,,,,,,,,,,,,2174,0,,,,,,,0,2456005,pdf,dfffa14daa3b914076b55c52b172cddc,,,G:\\!genesis\\1\\14.139.43.151\\Project Management - Bookboon.com_2174.pdf,0,2000-01-01 01:00:00,2016-04-03 02:51:08,,,
18412729,Promoting Compliance in an Evolving Climate Regime,,,,Jutta Brunn√©e & Meinhard Doelle & Lavanya Rajamani,2012,,Cambridge University Press,,,0,English,,,,"052113613X,9780511979286",,,,,,,,,,1008,0,,,,,,,0,1307899,mobi,d7da32c12fab10cb62738451d486d221,,,G:\\!genesis\\1\\14.139.43.151\\Promoting Compliance in an Evolving Climate Regime - Jutta Brunnee &amp; Meinhard Doelle &amp; Lavanya Rajamani_1008.mobi,0,2000-01-01 01:00:00,2016-04-03 02:51:08,,,
18412730,Promoting Compliance in an Evolving Climate Regime,,,,Jutta Brunn√©e & Meinhard Doelle & Lavanya Rajamani,2012,,Cambridge University Press,,529,0,English,,,,"052113613X,9780511979286",,,,,,,,,,1344,0,,,,,,,1,6402002,pdf,f7bc669dd1613d272b32595cb99f303d,,,G:\\!genesis\\1\\14.139.43.151\\Promoting Compliance in an Evolving Climate Regime - Jutta Brunnee &amp; Meinhard Doelle &amp; Lavanya Rajamani_1344.pdf,0,2000-01-01 01:00:00,2016-04-03 02:51:08,,,
18412731,Proportionality: Constitutional Rights and Their Limitations (Cambridge Studies in Constitutional Law) Paperback,,,,Aharon Barak,2012,,Cambridge University Press,,666,0,English,,,,"1107401194,9781107401198",,,,,,,,,,1009,0,,,,,,,1,8107983,pdf,63d7839627174bd975c7f51a19e47188,,,G:\\!genesis\\1\\14.139.43.151\\Proportionality_ Constitutional Rights and Their Limitations (Cambridge Studies in Constitutional Law) Paperback - Aharon Barak_1009.pdf,0,2000-01-01 01:00:00,2016-04-03 02:51:08,,,
18412732,Proposed Roads to Freedom,,,,Bertrand Russell,1918,,Feedbooks,,,0,English,,,,,,,,,,,,,,1010,0,,,,,,,0,474718,epub,26fa49be09caebcb7a662225263743e6,,,G:\\!genesis\\1\\14.139.43.151\\Proposed Roads to Freedom - Bertrand Russell_1010.epub,0,2000-01-01 01:00:00,2016-04-03 02:51:08,,,
18412733,Proposed Roads to Freedom,,,,Bertrand Russell,1918,,Feedbooks,,489,0,English,,,,,,,,,,,,,,1343,0,,,,,,,1,1045524,pdf,53d0708193be361ea65b4a732f898f81,,,G:\\!genesis\\1\\14.139.43.151\\Proposed Roads to Freedom - Bertrand Russell_1343.pdf,0,2000-01-01 01:00:00,2016-04-03 02:51:08,,,
18412734,Psychology and Achievement,,,,Warren Hilton,2009,,Lushena Books,,35,0,English,,,,"1631821423,9781775413226",,,,,,,,Nha7rakuokcC,,1833,0,,,,,,,1,412031,pdf,17dd18efc20e59be1d6644e7c931ccd1,,,G:\\!genesis\\1\\14.139.43.151\\Psychology and Achievement - Warren Hilton_1833.pdf,0,2000-01-01 01:00:00,2016-04-03 02:51:08,,,
18412735,Psychology student Survival Guide,,,,David Webb,2010,,,,83,0,English,,,,,,,,,,,,,,1020,0,,,,,,,1,1668966,pdf,5f2bac7b2a788bf0198dfb4171dc9e90,,,G:\\!genesis\\1\\14.139.43.151\\Psychology student Survival Guide - David Webb_1020.pdf,0,2000-01-01 01:00:00,2016-04-03 02:51:08,,,
18412736,psychology-student-survival-guide,,,,David Webb,,,,,83,0,English,,,,,,,,,,,,,,2177,0,,,,,,,1,1692592,pdf,fd4e3a6808f02eedf59044d7c323bd91,,,G:\\!genesis\\1\\14.139.43.151\\psychology-student-survival-guide - David Webb_2177.pdf,0,2000-01-01 01:00:00,2016-04-03 02:51:08,,,
18412737,Psychology: A Study of Mental Life,,,,Robert S. Woodworth,1921,,HENRY HOLT AND COMPANY,,311,0,English,,,,"1497857112,9781428641266",,,,,,,,DAaFDYh9uJUC,,1837,0,,,,,,,1,968337,pdf,7dcfee811fb731bfeb85dbdc8224ce15,,,G:\\!genesis\\1\\14.139.43.151\\Psychology_ A Study of Mental Life - Robert S. Woodworth_1837.pdf,0,2000-01-01 01:00:00,2016-04-03 02:51:08,,,
18412738,Public Leadership: Perspectives and Practices,,,,Paul 't Hart & John Uhr,2011,,ANU E Press,,302,0,English,,,,"1921536306,9781921536304",,,,,,,,,,1688,0,,,,,,,1,1099701,pdf,10107dbd350a9c4668561855824551a8,,,G:\\!genesis\\1\\14.139.43.151\\Public Leadership_ Perspectives and Practices - Paul &#39;t Hart &amp; John Uhr_1688.pdf,0,2000-01-01 01:00:00,2016-04-03 02:51:08,,,
18412739,Public Library Handbook,,,,Denver Public Library,1895,,BiblioBazaar,,198,0,English,,,,"1103804200,9781103804207",,,,,,,,HH1HAAAAIAAJ,,1035,0,,,,,,,1,7174634,pdf,86c5041e743e0c1a6d8d1d00f842bb3c,,,G:\\!genesis\\1\\14.139.43.151\\Public Library Handbook - Denver Public Library_1035.pdf,0,2000-01-01 01:00:00,2016-04-03 02:51:08,,,
18412740,Public Sector Employment in the Twenty-First Century,,,,Marilyn Pittard & Phillipa Weeks,2011,,ANU E Press,,348,0,English,,,,"1920942602,9781920942601",,,,,,,,,,1690,0,,,,,,,1,2256822,pdf,e47d557f8e9944359997f0b17bb49561,,,G:\\!genesis\\1\\14.139.43.151\\Public Sector Employment in the Twenty-First Century - Marilyn Pittard &amp; Phillipa Weeks_1690.pdf,0,2000-01-01 01:00:00,2016-04-03 02:51:08,,,
18412741,Public Sector Governance in Australia,,,,Meredith Edwards & John Halligan & Bryan Horrigan & Geoffrey Nicoll,2012,,ANU E Press,,302,0,English,,,,"1921862890,9780521128643",,,,,,,,ejXpkQEACAAJ,,1736,0,,,,,,,1,1606871,pdf,22eb385575bd38b51a6c186cc59cf7d0,,,G:\\!genesis\\1\\14.139.43.151\\Public Sector Governance in Australia - Meredith Edwards &amp; John Halligan &amp; Bryan Horrigan &amp; Geoffrey Nicoll_1736.pdf,0,2000-01-01 01:00:00,2016-04-03 02:51:08,,,
18412742,Public-Private Partnership Projects in Infrastructure: An Essential Guide for Policy Makers,,,,Jeffrey Delmon,2010,,Cambridge University Press,,267,0,English,,,,"0521763967,9780521152280",,,,,,,,,,1037,0,,,,,,,1,1452492,pdf,3debf3d5b4a814db3aaa95a43c8cec83,,,G:\\!genesis\\1\\14.139.43.151\\Public-Private Partnership Projects in Infrastructure_ An Essential Guide for Policy Makers - Jeffrey Delmon_1037.pdf,0,2000-01-01 01:00:00,2016-04-03 02:51:08,,,
18412743,Purified by Blood: Honour Killings Amongst Turks in the Netherlands,,,,Clementine van Eck,2003,,Amsterdam University Press,,304,0,English,,,,"9053564918,9789053564912",,,,,,,,aXgmslYKw0IC,,1544,0,,,,,,,1,4081960,pdf,31e392cd1e0320ff1ee11813c73e5ec4,,,G:\\!genesis\\1\\14.139.43.151\\Purified by Blood_ Honour Killings Amongst Turks in the Netherlands - Clementine van Eck_1544.pdf,0,2000-01-01 01:00:00,2016-04-03 02:51:08,,,
18412744,Putting Citizens First: Engagement in Policy and Service Delivery for the 21st Century,,,,Evert A. Lindquist & Sam Vincent & John Wanna,2013,,ANU E Press,,220,0,English,,,,"1922144339,9781922144331",,,,,,,,,,1762,0,,,,,,,1,3195770,pdf,4f33e31d16ee6f47a40b3f8a3201a7f7,,,G:\\!genesis\\1\\14.139.43.151\\Putting Citizens First_ Engagement in Policy and Service Delivery for the 21st Century - Evert A. Lindquist &amp; Sam Vincent &amp; John Wanna_1762.pdf,0,2000-01-01 01:00:00,2016-04-03 02:51:08,,,
18412745,Quality Management,,,,Bookboon.com,,,,,192,0,English,,,,,,,,,,,,,,2178,0,,,,,,,0,7265002,pdf,0db8193efd28613aac5dae8dccc78f6d,,,G:\\!genesis\\1\\14.139.43.151\\Quality Management - Bookboon.com_2178.pdf,0,2000-01-01 01:00:00,2016-04-03 02:51:08,,,
18412746,Quantitative Analysis,,,,Bookboon.com,,,,,303,0,English,,,,,,,,,,,,,,2180,0,,,,,,,0,5774577,pdf,7ace31dd6b8e14f5cea8c61f21748e24,,,G:\\!genesis\\1\\14.139.43.151\\Quantitative Analysis - Bookboon.com_2180.pdf,0,2000-01-01 01:00:00,2016-04-03 02:51:08,,,
18412747,Questions And Answers About Islam,,,,WAEL EL-MANZALAWY,,,,,47,0,English,,,,,,,,,,,,,,1044,0,,,,,,,1,58601,pdf,807849d4cefae5ad6e674aff3ef9c963,,,G:\\!genesis\\1\\14.139.43.151\\Questions And Answers About Islam - WAEL EL-MANZALAWY_1044.pdf,0,2000-01-01 01:00:00,2016-04-03 02:51:08,,,
18412748,"Racism, Education and the State",,,,Barry Troyna & Jenny Williams,2012,,Routledge,,147,0,English,,,,"0415751144,9780415751148",,,,,,,,SvmWVq85AFkC,,871,0,,,,,,,1,3848686,pdf,3bcf24facad5535728b3daf0b6ca3f42,,,"G:\\!genesis\\1\\14.139.43.151\\Racism, Education and the State - Barry Troyna &amp; Jenny Williams_871.pdf",0,2000-01-01 01:00:00,2016-04-03 02:51:08,,,
18412749,Rambles in Womanland,,,,Max O'Rell,2010,,General Books LLC,,156,0,English,,,,"1477660690,9781151807670",,,,,,,,yg3OQwAACAAJ,,872,0,,,,,,,1,1109535,pdf,9c09683445455e62c49433fcc5f1f752,,,G:\\!genesis\\1\\14.139.43.151\\Rambles in Womanland - Max O&#39;Rell_872.pdf,0,2000-01-01 01:00:00,2016-04-03 02:51:08,,,
18412750,Rampur Raza Library Catalogue Persian Manuscripts Vol. 1,,,,Rampur Raza Library India,,,,,399,0,Persian,,,,,,,,,,,,,,873,0,,,,,,,0,26186392,pdf,b9346a0b7070035cb5f1fdfcd9870ab2,,,G:\\!genesis\\1\\14.139.43.151\\Rampur Raza Library Catalogue Persian Manuscripts Vol. 1 - Rampur Raza Library India_873.pdf,0,2000-01-01 01:00:00,2016-04-03 02:51:08,,,
18412751,Rampur Raza Library Catalogue Persian Manuscripts Vol. 2,,,,Rampur Raza Library India,,,,,311,0,English,,,,,,,,,,,,,,874,0,,,,,,,0,14647891,pdf,7fea305d8eda452768331a91545d2669,,,G:\\!genesis\\1\\14.139.43.151\\Rampur Raza Library Catalogue Persian Manuscripts Vol. 2 - Rampur Raza Library India_874.pdf,0,2000-01-01 01:00:00,2016-04-03 02:51:08,,,
18412752,"Rampur Raza Library Catalogue Persian Manuscripts, Vol. 3",,,,Rampur Raza Library India,,,,,112,0,Persian,,,,,,,,,,,,,,883,0,,,,,,,0,6919004,pdf,c624d082fa00fc3b2b8e6f2a37bd3466,,,"G:\\!genesis\\1\\14.139.43.151\\Rampur Raza Library Catalogue Persian Manuscripts, Vol. 3 - Rampur Raza Library India_883.pdf",0,2000-01-01 01:00:00,2016-04-03 02:51:08,,,
18412753,Random variables I,,,,Bookboon.com,,,,,159,0,English,,,,,,,,,,,,,,2187,0,,,,,,,0,3102428,pdf,36f9c03878bf29fc5db587a49d545138,,,G:\\!genesis\\1\\14.139.43.151\\Random variables I - Bookboon.com_2187.pdf,0,2000-01-01 01:00:00,2016-04-03 02:51:08,,,
18412754,Random variables II,,,,Bookboon.com,,,,,116,0,English,,,,,,,,,,,,,,2191,0,,,,,,,0,2873599,pdf,2201f1e06876ed557e5c9bd8e2abd92c,,,G:\\!genesis\\1\\14.139.43.151\\Random variables II - Bookboon.com_2191.pdf,0,2000-01-01 01:00:00,2016-04-03 02:51:08,,,
18412755,Random variables III,,,,Bookboon.com,,,,,113,0,English,,,,,,,,,,,,,,2193,0,,,,,,,0,2403860,pdf,e9ebc2d980c8a90d1dacfeb2da439807,,,G:\\!genesis\\1\\14.139.43.151\\Random variables III - Bookboon.com_2193.pdf,0,2000-01-01 01:00:00,2016-04-03 02:51:08,,,
18412756,Reaching for Health: The Australian Women's Health Movement and Public Policy,,,,Gwendolyn Gray Jamieson,2012,,ANU E Press,,410,0,English,,,,"192186267X,9781921862670",,,,,,,,MxGNngEACAAJ,,1694,0,,,,,,,1,3602337,pdf,117414dd36e56f38a1d195c15c648992,,,G:\\!genesis\\1\\14.139.43.151\\Reaching for Health_ The Australian Women&#39;s Health Movement and Public Policy - Gwendolyn Gray Jamieson_1694.pdf,0,2000-01-01 01:00:00,2016-04-03 02:51:08,,,
18412757,"Reading Contemporary Indonesian Muslim Women Writers: Representation, Identity and Religion of Muslim Women in Indonesian Fiction",,,,Diah Ariani Arimbi,2009,,Amsterdam University Press,,237,0,English,,,,"9089640894,9789089640895",,,,,,,,rrhGD6ztEgoC,,1526,0,,,,,,,1,3710982,pdf,ce1d5b90d39a112c3782bdd4a8c64382,,,"G:\\!genesis\\1\\14.139.43.151\\Reading Contemporary Indonesian Muslim Women Writers_ Representation, Identity and Religion of Muslim Women in Indonesian Fiction - Diah Ariani Arimbi_1526.pdf",0,2000-01-01 01:00:00,2016-04-03 02:51:08,,,
18412758,Real Social Science: Applied Phronesis Paperback,,,,Bent Flyvbjerg & Sanford Schram,2012,,Cambridge University Press,,306,0,English,,,,"0521168201,9780521168205",,,,,,,,,,885,0,,,,,,,1,2157927,pdf,930e258a5115a0b492e0913860fbe591,,,G:\\!genesis\\1\\14.139.43.151\\Real Social Science_ Applied Phronesis Paperback - Bent Flyvbjerg &amp; Sanford Schram_885.pdf,0,2000-01-01 01:00:00,2016-04-03 02:51:08,,,
18412759,Recasting anthropological knowledge Inspiration and Social Science,,,,Edited by Jeanette Edwards & Maja Petrovic-Steger,2011,,Cambridge University Press,,226,0,English,,,,,,,,,,,,,,1364,0,,,,,,,1,1767497,pdf,7e80ddffdf59ff6ffd9dc3e71e57dce2,,,G:\\!genesis\\1\\14.139.43.151\\Recasting anthropological knowledge Inspiration and Social Science - Edited by Jeanette Edwards &amp; Maja Petrovic-Steger_1364.pdf,0,2000-01-01 01:00:00,2016-04-03 02:51:08,,,
18412760,Recasting anthropological knowledge Inspiration and Social Science,,,,Edited by Jeanette Edwards & Maja Petrovic-Steger,2011,,Cambridge University Press,,,0,English,,,,,,,,,,,,,,892,0,,,,,,,0,641959,mobi,fac3f153bf7492a2033dc417c180a343,,,G:\\!genesis\\1\\14.139.43.151\\Recasting anthropological knowledge Inspiration and Social Science - Edited by Jeanette Edwards &amp; Maja Petrovic-Steger_892.mobi,0,2000-01-01 01:00:00,2016-04-03 02:51:08,,,
18412761,"Recollections of Abraham Lincoln, 1847-1865",,,,Ward Hill Lamon,1994,,University of Nebraska Press,,159,0,English,,,,"1150966505,9780803279506",,,,,,,,,,1841,0,,,,,,,1,641911,pdf,4ce575a8e0ac758fb70c904ee2ad10d8,,,"G:\\!genesis\\1\\14.139.43.151\\Recollections of Abraham Lincoln, 1847-1865 - Ward Hill Lamon_1841.pdf",0,2000-01-01 01:00:00,2016-04-03 02:51:08,,,
18412762,Reconstructing Teacher Education,,,,John Elliott,1993,,Falmer Press,,278,0,English,,,,"0750701285,9780750701280",,,,,,,,,,893,0,,,,,,,1,16030405,pdf,5dfb84ef691f56804e7bd135eca06e24,,,G:\\!genesis\\1\\14.139.43.151\\Reconstructing Teacher Education - John Elliott_893.pdf,0,2000-01-01 01:00:00,2016-04-03 02:51:08,,,
18412763,Recruitment and Selection,,,,Bookboon.com,,,,,52,0,English,,,,,,,,,,,,,,2195,0,,,,,,,0,2085672,pdf,f75398de1387d7580fa068e1170b92fa,,,G:\\!genesis\\1\\14.139.43.151\\Recruitment and Selection - Bookboon.com_2195.pdf,0,2000-01-01 01:00:00,2016-04-03 02:51:08,,,
18412764,Reformation of Islamic Thought: A Critical Historical Analysis,,,,Nasr Abu Zayd,2006,,Amsterdam University Press,,113,0,English,,,,"905356828X,9789053568286",,,,,,,,0UZc_Yvle_AC,,1687,0,,,,,,,1,2178968,pdf,6f3bedfcddfe3d6808eec2f761628e7d,,,G:\\!genesis\\1\\14.139.43.151\\Reformation of Islamic Thought_ A Critical Historical Analysis - Nasr Abu Zayd_1687.pdf,0,2000-01-01 01:00:00,2016-04-03 02:51:08,,,
18412765,Regime Change and Ethnic Politics in Indonesia: Dayak Politics of West Kalimantan,,,,Taufiq Tanasaldy,2014,,KITLV Press Leiden,,417,0,English,,,,"900426373X,9789004263734",,,,,,,,,,1797,0,,,,,,,1,1926268,pdf,62cc0eed5db85d2995d68e97719491d4,,,G:\\!genesis\\1\\14.139.43.151\\Regime Change and Ethnic Politics in Indonesia_ Dayak Politics of West Kalimantan - Taufiq Tanasaldy_1797.pdf,0,2000-01-01 01:00:00,2016-04-03 02:51:08,,,
18412766,"Regulating Trade in Services in the EU and the WTO: Trust, Distrust and Economic Integration",,,,Ioannis Lianos & Okeoghene Odudu,2012,,Cambridge University Press,,528,0,English,,,,"1107008646,9781107008649",,,,,,,,,,1363,0,,,,,,,1,4223587,pdf,2f04524081cae604e0833d83e7c634db,,,"G:\\!genesis\\1\\14.139.43.151\\Regulating Trade in Services in the EU and the WTO_ Trust, Distrust and Economic Integration - Ioannis Lianos &amp; Okeoghene Odudu_1363.pdf",0,2000-01-01 01:00:00,2016-04-03 02:51:08,,,
18412767,"Regulating Trade in Services in the EU and the WTO: Trust, Distrust and Economic Integration",,,,Ioannis Lianos & Okeoghene Odudu,2012,,Cambridge University Press,,,0,English,,,,"1107008646,9781107008649",,,,,,,,,,907,0,,,,,,,0,1206479,mobi,46977803f2b6ddcb03d062e5822a5c68,,,"G:\\!genesis\\1\\14.139.43.151\\Regulating Trade in Services in the EU and the WTO_ Trust, Distrust and Economic Integration - Ioannis Lianos &amp; Okeoghene Odudu_907.mobi",0,2000-01-01 01:00:00,2016-04-03 02:51:08,,,
18412768,"Religion and Modern Society: Citizenship, Secularisation and the State Paperback",,,,Bryan S. Turner,2011,,Cambridge University Press,,388,0,English,,,,"0521675324,9780521675321",,,,,,,,,,908,0,,,,,,,1,2116635,pdf,02a1dbe138ebd90d34ab954682cbdd71,,,"G:\\!genesis\\1\\14.139.43.151\\Religion and Modern Society_ Citizenship, Secularisation and the State Paperback - Bryan S. Turner_908.pdf",0,2000-01-01 01:00:00,2016-04-03 02:51:08,,,
18412769,Religion and Ritual in Ancient Egypt,,,,Emily Teeter,2011,,Cambridge University Press,,285,0,English,,,,"0521848555,9780521613002",,,,,,,,uK7bc6QPbwAC,,918,0,,,,,,,1,40323012,pdf,087312621f37810d53eddfcfa56d2f33,,,G:\\!genesis\\1\\14.139.43.151\\Religion and Ritual in Ancient Egypt - Emily Teeter_918.pdf,0,2000-01-01 01:00:00,2016-04-03 02:51:08,,,
18412770,Religious Confluence,,,,Eddie Field,,,,,169,0,English,,,,,,,,,,,,,,926,0,,,,,,,1,1036279,pdf,c85a445b81ddb156d724ccadd7cc236f,,,G:\\!genesis\\1\\14.139.43.151\\Religious Confluence - Eddie Field_926.pdf,0,2000-01-01 01:00:00,2016-04-03 02:51:08,,,
18412771,Representative Government,,,,John Stuart Mill,2001,,Hayes Barton Press,,288,0,English,,,,"1162681861,9781162681863",,,,,,,,6wZxuvKpqlkC,,2223,0,,,,,,,1,489969,pdf,1335943aa9f6a1e8f122f7aab359875c,,,G:\\!genesis\\1\\14.139.43.151\\Representative Government - John Stuart Mill_2223.pdf,0,2000-01-01 01:00:00,2016-04-03 02:51:08,,,
18412772,Reproduction of Copyrighted Works by Educators and Librarians,,,,Library Of Congress. Copyright Office,1991,,"Copyright Office, Library of Congress",,,0,English,,,,,,,,,,,,6__XAAAAMAAJ,,932,0,,,,,,,0,339313,epub,98c6f76525c6c130403032dcd2d5b3ca,,,G:\\!genesis\\1\\14.139.43.151\\Reproduction of Copyrighted Works by Educators and Librarians - Library Of Congress. Copyright Office_932.epub,0,2000-01-01 01:00:00,2016-04-03 02:51:08,,,
18412773,Republic of women: rethinking the republic of letters in the seventeenth century,,,,CAROL PAL,2012,,Cambridge University Press,,347,0,English,,,,9781107018211,,,,,,,,,,1356,0,,,,,,,1,2263503,pdf,c0490a9a675bd27498f8985cad248448,,,G:\\!genesis\\1\\14.139.43.151\\Republic of women_ rethinking the republic of letters in the seventeenth century - CAROL PAL_1356.pdf,0,2000-01-01 01:00:00,2016-04-03 02:51:08,,,
18412774,Republic of women: rethinking the republic of letters in the seventeenth century,,,,CAROL PAL,2012,,Cambridge University Press,,,0,English,,,,9781107018211,,,,,,,,,,936,0,,,,,,,0,904805,mobi,9d73d0c2e08a3682f47ba60700d97a42,,,G:\\!genesis\\1\\14.139.43.151\\Republic of women_ rethinking the republic of letters in the seventeenth century - CAROL PAL_936.mobi,0,2000-01-01 01:00:00,2016-04-03 02:51:08,,,
18412775,RESERVE BANK OF INDIA ANNUAL REPORT 2012-13,,,,Reserve Bank of India,,,Reserve Bank of India,,222,0,English,,,,,,,,,,,,,,1809,0,,,,,,,1,6539233,pdf,9bcd95e88156e5a04fc96db9af67cdb2,,,G:\\!genesis\\1\\14.139.43.151\\RESERVE BANK OF INDIA ANNUAL REPORT 2012-13 - Reserve Bank of India_1809.pdf,0,2000-01-01 01:00:00,2016-04-03 02:51:08,,,
18412776,Rethinking Autism: Variation and Complexity,,,,Lynn Waterhouse,2012,,Academic Press,,469,0,English,,,,"0124159613,9780124159617",,,,,,,,,,1459,0,,,,,,,1,12986395,pdf,800f9a6900d387d7afc0ab68d8406c60,,,G:\\!genesis\\1\\14.139.43.151\\Rethinking Autism_ Variation and Complexity - Lynn Waterhouse_1459.pdf,0,2000-01-01 01:00:00,2016-04-03 02:51:08,,,
18412777,RETHINKING AUTISM: Variation and Complexity,,,,Lynn Waterhouse,,,Elsevier,,469,0,English,,,,9780124159617,,,,,,,,,,944,0,,,,,,,1,13677658,pdf,924b723fe115836c5653770000e73bf7,,,G:\\!genesis\\1\\14.139.43.151\\RETHINKING AUTISM_ Variation and Complexity - Lynn Waterhouse_944.pdf,0,2000-01-01 01:00:00,2016-04-03 02:51:08,,,
18412778,Rethinking European Union Foreign Policy,,,,Ben Tonra & Thomas Christiansen,2004,,Manchester University Press,,187,0,English,,,,"071906001X,9780719060014",,,,,,,,m-UWAQAAIAAJ,,1594,0,,,,,,,1,1062687,pdf,f3f6d4acf2a556e52852e1018a768ec8,,,G:\\!genesis\\1\\14.139.43.151\\Rethinking European Union Foreign Policy - Ben Tonra &amp; Thomas Christiansen_1594.pdf,0,2000-01-01 01:00:00,2016-04-03 02:51:08,,,
18412779,Rethinking Teacher Education,,,,David Hopkins & Ken Reid,2011,,Routledge,,281,0,English,,,,"041569888X,9781138007598",,,,,,,,GCcbngEACAAJ,,945,0,,,,,,,1,8525072,pdf,a70ebeb797cdd7562d1bf7a765b2d355,,,G:\\!genesis\\1\\14.139.43.151\\Rethinking Teacher Education - David Hopkins &amp; Ken Reid_945.pdf,0,2000-01-01 01:00:00,2016-04-03 02:51:08,,,
18412780,Rising Global Interest in Farmland,,,,Klaus Deininger & Derek Byerlee & Jonathan Lindsay & Andrew Norton & Harris Selod & Mercedes Stickler,2011,,World Bank,,264,0,English,,,,"0821385917,9780821385913",,,,,,,,POQQnwEACAAJ,,1812,0,,,,,,,1,3691295,pdf,f7c228b27ccca68cbcd0807f31b9b49c,,,G:\\!genesis\\1\\14.139.43.151\\Rising Global Interest in Farmland - Klaus Deininger &amp; Derek Byerlee &amp; Jonathan Lindsay &amp; Andrew Norton &amp; Harris Selod &amp; Mercedes Stickler_1812.pdf,0,2000-01-01 01:00:00,2016-04-03 02:51:08,,,
18412781,Roget's Thesaurus of English Words and Phrases,,,,Dr. Peter Mark Roget,2012,,CreateSpace Independent Publishing Platform,,519,0,English,,,,"1478376163,9781478376163",,,,,,,,q56HMAEACAAJ,,1846,0,,,,,,,1,1135565,pdf,7e94c5c066384a172a571ab884a57ac5,,,G:\\!genesis\\1\\14.139.43.151\\Roget&#39;s Thesaurus of English Words and Phrases - Dr. Peter Mark Roget_1846.pdf,0,2000-01-01 01:00:00,2016-04-03 02:51:08,,,
18412782,Role Conflict and the Teacher,,,,Gerald Grace,2011,,Routledge,,159,0,English,,,,"1138006505,9780415689489",,,,,,,,O5uZngEACAAJ,,956,0,,,,,,,1,8252508,pdf,4838fd32eaf0ef996b3fc15d78b71d0a,,,G:\\!genesis\\1\\14.139.43.151\\Role Conflict and the Teacher - Gerald Grace_956.pdf,0,2000-01-01 01:00:00,2016-04-03 02:51:08,,,
18412783,Roman Women,,,,Alfred Brittain,2004,,General Books LLC,,144,0,English,,,,"1410216470,9781153650304",,,,,,,,5friTgEACAAJ,,964,0,,,,,,,1,677591,pdf,95dfdfff7a3b071f79035488ff853c65,,,G:\\!genesis\\1\\14.139.43.151\\Roman Women - Alfred Brittain_964.pdf,0,2000-01-01 01:00:00,2016-04-03 02:51:08,,,
18412784,Rural Hygiene,,,,Hardpress & Ogden Henry N.,2013,,HardPress,,,0,English,,,,"1313101915,9781313101912",,,,,,,,0naxmQEACAAJ,,973,0,,,,,,,0,3104228,epub,3247d27eb9af7eec2ae4a9ee89178ab4,,,G:\\!genesis\\1\\14.139.43.151\\Rural Hygiene - Hardpress &amp; Ogden Henry N__973.epub,0,2000-01-01 01:00:00,2016-04-03 02:51:08,,,
18412785,"Rural Livelihoods, Resources, and Coping With Crisis in Indonesia: A Comparative Study",,,,Milan J. Titus & Paul P. M. Burgers,2008,,Amsterdam University Press,,308,0,English,,,,"908964055X,9789089640550",,,,,,,,6ppCwUX1ufoC,,1577,0,,,,,,,1,2336714,pdf,d3f29200fe30c111ae83e85c48347c93,,,"G:\\!genesis\\1\\14.139.43.151\\Rural Livelihoods, Resources, and Coping With Crisis in Indonesia_ A Comparative Study - Milan J. Titus &amp; Paul P. M. Burgers_1577.pdf",0,2000-01-01 01:00:00,2016-04-03 02:51:08,,,
18412786,Russian Roulette Russia's Economy In Putin's Era,,,,Sam Vaknin,,,,,168,0,English,,,,,,,,,,,,,,977,0,,,,,,,1,499780,pdf,ece079e67ce04e932df733a473a4cb60,,,G:\\!genesis\\1\\14.139.43.151\\Russian Roulette Russia&#39;s Economy In Putin&#39;s Era - Sam Vaknin_977.pdf,0,2000-01-01 01:00:00,2016-04-03 02:51:08,,,
18412787,Sach kya Hai,,,,S.S. Husain,2014,,Imamiya Youth Organization,,96,0,Hindi,,,,,,,,,,,,,,1798,0,,,,,,,1,5694049,pdf,dc54b6def5d810a2919561fb9a5a7a9e,,,G:\\!genesis\\1\\14.139.43.151\\Sach kya Hai - S.S. Husain_1798.pdf,0,2000-01-01 01:00:00,2016-04-03 02:51:08,,,
18412788,Sacred and Secular: Religion and Politics Worldwide,,,,Pippa Norris & Ronald Inglehart,2004,,Cambridge University Press,,409,0,English,,,,"1107648378,9781107648371",,,,,,,,,,989,0,,,,,,,1,4107375,pdf,87c165af8a9bf4cfb088d2facd509594,,,G:\\!genesis\\1\\14.139.43.151\\Sacred and Secular_ Religion and Politics Worldwide - Pippa Norris &amp; Ronald Inglehart_989.pdf,0,2000-01-01 01:00:00,2016-04-03 02:51:08,,,
18412789,Safe to be open: Study on the protection of research data and recommendations for access and usage,,,,Lucie Guibault & AndreasWiebe,2013,,Universit√§tsverlag G√∂ttingen,,168,0,English,,,,,,,,,,,,,,1779,0,,,,,,,1,1781761,pdf,e77d2bb231559367218f647b02582861,,,G:\\!genesis\\1\\14.139.43.151\\Safe to be open_ Study on the protection of research data and recommendations for access and usage - Lucie Guibault &amp; AndreasWiebe_1779.pdf,0,2000-01-01 01:00:00,2016-04-03 02:51:08,,,
18412790,Salt Production and Social Hierarchy in Ancient China: An Archaeological Investigation of Specialization in China's Three Gorges Hardcover,,,,Rowan K. Flad,2011,,Cambridge University Press,,307,0,English,,,,"1107009413,9781107009417",,,,,,,,,,1346,0,,,,,,,1,5745981,pdf,3117924b83280de2cf27650036f7465a,,,G:\\!genesis\\1\\14.139.43.151\\Salt Production and Social Hierarchy in Ancient China_ An Archaeological Investigation of Specialization in China&#39;s Three Gorges Hardcover - Rowan K. Flad_1346.pdf,0,2000-01-01 01:00:00,2016-04-03 02:51:08,,,
18412791,Salt Production and Social Hierarchy in Ancient China: An Archaeological Investigation of Specialization in China's Three Gorges Hardcover,,,,Rowan K. Flad,2011,,Cambridge University Press,,,0,English,,,,"1107009413,9781107009417",,,,,,,,,,993,0,,,,,,,0,7251616,mobi,e45c44e3768bc970b8541914e26383b2,,,G:\\!genesis\\1\\14.139.43.151\\Salt Production and Social Hierarchy in Ancient China_ An Archaeological Investigation of Specialization in China&#39;s Three Gorges Hardcover - Rowan K. Flad_993.mobi,0,2000-01-01 01:00:00,2016-04-03 02:51:08,,,
18412792,"Schaum's Outline to Theory and Problems of Introduction to Mathematical Economics, Third Edition",,,,Edward T. Dowling,2004,,Tata McGraw-Hill,,532,0,English,,,,"0070588880,9780070588882",,,,,,,,,,1814,0,,,,,,,0,42112606,pdf,b37fde4f27608a889b32180d4186afc1,,,"G:\\!genesis\\1\\14.139.43.151\\Schaum&#39;s Outline to Theory and Problems of Introduction to Mathematical Economics, Third Edition - Edward T. Dowling_1814.pdf",0,2000-01-01 01:00:00,2016-04-03 02:51:08,,,
18412793,"Scholarly Communication and Academic Presses: proceedings of the international conference, 22 March, 2001, University of Florence, Italy",,,,Anna Maria Tammaro,2002,,Firenze University PressSeries: Conference Proceeding [2],,119,0,English,,,,,,,,,,,,,,1492,0,,,,,,,1,729616,pdf,87faa2c1dab1a8013abab1a710b6dd80,,,"G:\\!genesis\\1\\14.139.43.151\\Scholarly Communication and Academic Presses_ proceedings of the international conference, 22 March, 2001, University of Florence, Italy - Anna Maria Tammaro_1492.pdf",0,2000-01-01 01:00:00,2016-04-03 02:51:08,,,
18412794,"Scholars at War: Australasian Social Scientists, 1939-1945",,,,Geoffrey Gray & Doug Munro & Christine Winter,2012,,ANU E Press,,300,0,English,,,,"1921862491,9781921862496",,,,,,,,g0fAngEACAAJ,,1705,0,,,,,,,1,1231530,pdf,7f916e01681cce0003360eab28984917,,,"G:\\!genesis\\1\\14.139.43.151\\Scholars at War_ Australasian Social Scientists, 1939-1945 - Geoffrey Gray &amp; Doug Munro &amp; Christine Winter_1705.pdf",0,2000-01-01 01:00:00,2016-04-03 02:51:08,,,
18412795,School Library Management,,,,Wilson Martha,2013,,HardPress Publishing,,144,0,English,,,,"1314422324,9781314422320",,,,,,,,,,994,0,,,,,,,1,6341762,pdf,857d7ee1454f17339148265acdf5193b,,,G:\\!genesis\\1\\14.139.43.151\\School Library Management - Wilson Martha_994.pdf,0,2000-01-01 01:00:00,2016-04-03 02:51:08,,,
18412796,School library management,,,,"Wilson, Martha",,,,,158,0,English,,,,,,,,,,,,,,1345,0,,,,,,,1,6984550,pdf,8bc0161ec93e1427458722833ffeb34a,,,"G:\\!genesis\\1\\14.139.43.151\\School library management - Wilson, Martha_1345.pdf",0,2000-01-01 01:00:00,2016-04-03 02:51:08,,,
18412797,science aur Islam,,,,Shams ul Haq Afghani,,,"Maktab e Hasan, Lahore",,390,0,Urdu,,,,,,,,,,,,,,995,0,,,,,,,0,31323683,pdf,7a8abb924cdbdabe0d734ef0a78af9f7,,,G:\\!genesis\\1\\14.139.43.151\\science aur Islam - Shams ul Haq Afghani_995.pdf,0,2000-01-01 01:00:00,2016-04-03 02:51:08,,,
18412798,Secrets of State: The State Department and the Struggle Over U.S. Foreign Policy,,,,Barry Rubin,1985,,"Oxford University Press, USA",,205,0,English,,,,"0195033973,9780195033977",,,,,,,,,,1440,0,,,,,,,1,1090978,pdf,2de5d383b8639db38fa892766af0320b,,,G:\\!genesis\\1\\14.139.43.151\\Secrets of State_ The State Department and the Struggle Over U.S. Foreign Policy - Barry Rubin_1440.pdf,0,2000-01-01 01:00:00,2016-04-03 02:51:08,,,
18412799,Secularism or Democracy?: Associational Governance of Religious Diversity,,,,Veit Bader,2007,,Amsterdam University Press,,387,0,English,,,,"9053569995,9789053569993",,,,,,,,mUcWH0oT3cIC,,1650,0,,,,,,,1,1551194,pdf,a282e5ebcc0cc20d4e5d7a54fb3d833d,,,G:\\!genesis\\1\\14.139.43.151\\Secularism or Democracy__ Associational Governance of Religious Diversity - Veit Bader_1650.pdf,0,2000-01-01 01:00:00,2016-04-03 02:51:08,,,
18412800,"Secularism, Assimilation and the Crisis of Multiculturalism: French Modernist Legacies (Amsterdam University Press - IMISCOE Research)",,,,Yolande Jansen,2014,,Amsterdam University Press,,345,0,English,,,,"9089645969,9789089645968",,,,,,,,,,1770,0,,,,,,,1,4560870,pdf,d77e6cd157996df0b26e9f032c96b1bc,,,"G:\\!genesis\\1\\14.139.43.151\\Secularism, Assimilation and the Crisis of Multiculturalism_ French Modernist Legacies (Amsterdam University Press - IMISCOE Research) - Yolande Jansen_1770.pdf",0,2000-01-01 01:00:00,2016-04-03 02:51:08,,,
18412801,Security and Privacy: Global Standards for Ethical Identity Management in Contemporary Liberal Democratic States,,,,John Kleinig & Peter Mameli & Seumas Miller & Douglas Salane & Adina Schwartz,2011,,ANU E Press,,304,0,English,,,,"1921862572,9781921862571",,,,,,,,dNlBtwAACAAJ,,1707,0,,,,,,,1,1438324,pdf,632ce37720411755d992baf6b651cc52,,,G:\\!genesis\\1\\14.139.43.151\\Security and Privacy_ Global Standards for Ethical Identity Management in Contemporary Liberal Democratic States - John Kleinig &amp; Peter Mameli &amp; Seumas Miller &amp; Douglas Salane &amp; Adina Schwartz_1707.pdf,0,2000-01-01 01:00:00,2016-04-03 02:51:08,,,
18412802,Selected Writings of MAHATMA GANDHI,,,,", London",,,,,256,0,English,,,,,,,,,,,,,,2160,0,,,,,,,1,1629899,pdf,94b10d24865f3b0cf5fdc023097c1367,,,"G:\\!genesis\\1\\14.139.43.151\\Selected Writings of MAHATMA GANDHI - , London_2160.pdf",0,2000-01-01 01:00:00,2016-04-03 02:51:08,,,
18412803,Selections From Gandhi,,,,Nirmal Kumar Bose.,2011,,Nabu Press,,377,0,English,,,,"1245670239,9781245670234",,,,,,,,f2NtMAEACAAJ,,2208,0,,,,,,,1,2025303,pdf,fb6114feeca36080e1173c9d2507b25f,,,G:\\!genesis\\1\\14.139.43.151\\Selections From Gandhi - Nirmal Kumar Bose__2208.pdf,0,2000-01-01 01:00:00,2016-04-03 02:51:08,,,
18412804,Sense and Sensibility,,,,Jane Austen,2014,,CreateSpace Independent Publishing Platform,,201,0,English,,,,"1495966828,9781495966828",,,,,,,,NHa5uQAACAAJ,,1849,0,,,,,,,1,817126,pdf,e1459c15df6d686ced8609916ac9dcb7,,,G:\\!genesis\\1\\14.139.43.151\\Sense and Sensibility - Jane Austen_1849.pdf,0,2000-01-01 01:00:00,2016-04-03 02:51:08,,,
18412805,Sentence of Marriage,,,,Shayne Parkinson,2012,,CreateSpace Independent Publishing Platform,,449,0,English,,,,9781478288893,,B004XWPWPE,,,,,,_Hm3ngEACAAJ,,1933,0,,,,,,,1,1538223,pdf,27524896c9c1c13657840d76dfd96e00,,,G:\\!genesis\\1\\14.139.43.151\\Sentence of Marriage - Shayne Parkinson_1933.pdf,0,2000-01-01 01:00:00,2016-04-03 02:51:08,,,
18412806,Sex and Gender in Biomedicine,,,,Klinge,,,,,131,0,English,,,,,,,,,,,,,,1610,0,,,,,,,1,1732170,pdf,c714e9f2a22a1145d6655a3f14581588,,,G:\\!genesis\\1\\14.139.43.151\\Sex and Gender in Biomedicine - Klinge_1610.pdf,0,2000-01-01 01:00:00,2016-04-03 02:51:08,,,
18412807,Sex and Society,,,,William I. Thomas,1974,,Hard Press,,,0,English,,,,"1409956911,9781406913316",,,,,,,,,,1016,0,,,,,,,0,231209,epub,b70d6754be4afd09f8bdeccc6f0e94bd,,,G:\\!genesis\\1\\14.139.43.151\\Sex and Society - William I. Thomas_1016.epub,0,2000-01-01 01:00:00,2016-04-03 02:51:08,,,
18412808,Sex and Society: Studies in the Social Psychology of Sex (Large Print Edition),,,,William I Thomas,2011,,Kessinger Publishing,,,0,English,,,,"1428622497,9781169903470",,,,,,,,l-CkuAAACAAJ,,1017,0,,,,,,,0,433548,epub,f0f0a5fe3a95c10f68e0e2c91134139c,,,G:\\!genesis\\1\\14.139.43.151\\Sex and Society_ Studies in the Social Psychology of Sex (Large Print Edition) - William I Thomas_1017.epub,0,2000-01-01 01:00:00,2016-04-03 02:51:08,,,
18412809,Sex Discrimination in Uncertain Times,,,,Margaret Thornton,2011,,ANU E Press,,406,0,English,,,,"1921666765,9781921666766",,,,,,,,,,1710,0,,,,,,,1,4738133,pdf,c7f39f0182df6007e240c196fc101a53,,,G:\\!genesis\\1\\14.139.43.151\\Sex Discrimination in Uncertain Times - Margaret Thornton_1710.pdf,0,2000-01-01 01:00:00,2016-04-03 02:51:08,,,
18412810,Sex Discrimination in Uncertain Times,,,,Margaret Thornton,2011,,ANU E Press,,405,0,English,,,,"1921666765,9781921666766",,,,,,,,,,2211,0,,,,,,,1,4958211,pdf,fae854cecea6acf9ddb4f1e969367015,,,G:\\!genesis\\1\\14.139.43.151\\Sex Discrimination in Uncertain Times - Margaret Thornton_2211.pdf,0,2000-01-01 01:00:00,2016-04-03 02:51:08,,,
18412811,Sex in Education: Or: A Fair Chance for Girls,,,,Edward Hammond Clarke,2007,,BiblioBazaar,,,0,English,,,,"0554093383,9780554093383",,,,,,,,,,1032,0,,,,,,,0,110495,epub,b547dccb05ca72641228fdf3ff3e4013,,,G:\\!genesis\\1\\14.139.43.151\\Sex in Education_ Or_ A Fair Chance for Girls - Edward Hammond Clarke_1032.epub,0,2000-01-01 01:00:00,2016-04-03 02:51:08,,,
18412812,"Sharing the Earth, Dividing the Land: Territorial Categories and Institutions in the Austronesian World",,,,Thomas Reuter,,,,,389,0,English,,,,,,,,,,,,,,1711,0,,,,,,,1,8425201,pdf,a5a2260127ed72b228b3321b68de2a74,,,"G:\\!genesis\\1\\14.139.43.151\\Sharing the Earth, Dividing the Land_ Territorial Categories and Institutions in the Austronesian World - Thomas Reuter_1711.pdf",0,2000-01-01 01:00:00,2016-04-03 02:51:08,,,
18412813,Short Introduction to Accounting Dollar Edition,,,,Richard Barker,2011,,Cambridge University Press,,181,0,English,,,,"1107610117,9781107610118",,,,,,,,,,1034,0,,,,,,,1,1077801,pdf,c595635cdd3c1e2b32514e9a24ec71b4,,,G:\\!genesis\\1\\14.139.43.151\\Short Introduction to Accounting Dollar Edition - Richard Barker_1034.pdf,0,2000-01-01 01:00:00,2016-04-03 02:51:08,,,
18412814,Shrines and Pilgrimage in the Modern World: New Itineraries Into the Sacred,,,,Peter Jan Margry,2008,,Amsterdam University Press,,364,0,English,,,,"9089640118,9789089640116",,,,,,,,43lei1xKIDkC,,1791,0,,,,,,,1,3622590,pdf,fffb43f5f8f5720d7a6a08a25d091dac,,,G:\\!genesis\\1\\14.139.43.151\\Shrines and Pilgrimage in the Modern World_ New Itineraries Into the Sacred - Peter Jan Margry_1791.pdf,0,2000-01-01 01:00:00,2016-04-03 02:51:08,,,
18412815,Singapore in Global History,,,,Derek Heng & Syed Muhd Khairudin Aljunied,2011,,Amsterdam University Press,,322,0,English,,,,"9089643249,9789089643247",,,,,,,,FaBingEACAAJ,,1617,0,,,,,,,1,3162371,pdf,9b22f7bc33acc16ba54ab484f4595189,,,G:\\!genesis\\1\\14.139.43.151\\Singapore in Global History - Derek Heng &amp; Syed Muhd Khairudin Aljunied_1617.pdf,0,2000-01-01 01:00:00,2016-04-03 02:51:08,,,
18412816,Situating Women: Gender Politics and Circumstance in Fiji,,,,Nicole George,2012,,ANU E Press,,278,0,English,,,,"1922144142,9781922144157",,,,,,,,iJo4sFlOap0C,,1744,0,,,,,,,1,5823278,pdf,7fee3bb1d0ccb60463cd3f41b8479e29,,,G:\\!genesis\\1\\14.139.43.151\\Situating Women_ Gender Politics and Circumstance in Fiji - Nicole George_1744.pdf,0,2000-01-01 01:00:00,2016-04-03 02:51:08,,,
18412817,Six Sigma,,,,Graeme Knowles,,,Bookboon,,179,0,English,,,,9788776818524,,,,,,,,wAfNEhmy-dcC,,2213,0,,,,,,,0,17753470,pdf,f59fdffbaccaeee721bda3631a82bd4e,,,G:\\!genesis\\1\\14.139.43.151\\Six Sigma - Graeme Knowles_2213.pdf,0,2000-01-01 01:00:00,2016-04-03 02:51:08,,,
18412818,SLEEP AND BRAIN ACTIVITY,,,,Marcos Gabriel Frank,,,Elsevier,,277,0,English,,,,9780123849953,,,,,,,,,,865,0,,,,,,,1,10787900,pdf,405d658c29f424845949d40c5e8889eb,,,G:\\!genesis\\1\\14.139.43.151\\SLEEP AND BRAIN ACTIVITY - Marcos Gabriel Frank_865.pdf,0,2000-01-01 01:00:00,2016-04-03 02:51:08,,,
18412819,Sleepsex: Uncovered,,,,Michael Mangan Ph.d.,2001,,"Xlibris, Corp.",,109,0,English,,,,"1401037666,9781401037666",,,,,,,,,,2214,0,,,,,,,0,495871,pdf,22840d1f3e7645082f4e58d0a3a53de7,,,G:\\!genesis\\1\\14.139.43.151\\Sleepsex_ Uncovered - Michael Mangan Ph.d__2214.pdf,0,2000-01-01 01:00:00,2016-04-03 02:51:08,,,
18412820,Small Business Manual,,,,Sam Vaknin,,,,,140,0,English,,,,,,,,,,,,,,866,0,,,,,,,1,386077,pdf,175d3c0fd247306efa668221b5d55f16,,,G:\\!genesis\\1\\14.139.43.151\\Small Business Manual - Sam Vaknin_866.pdf,0,2000-01-01 01:00:00,2016-04-03 02:51:08,,,
18412821,Social Action in Europe: Sustainable Social Development and Economic Challenges: Conference Book,,,,Conference: Brussels 10-13 April 2011,,,,,305,0,English,,,,,,,,,,,,,,1475,0,,,,,,,1,5610675,pdf,fa41cec6ae72336d7ee2ac1bcaa734f3,,,G:\\!genesis\\1\\14.139.43.151\\Social Action in Europe_ Sustainable Social Development and Economic Challenges_ Conference Book - Conference_ Brussels 10-13 April 2011_1475.pdf,0,2000-01-01 01:00:00,2016-04-03 02:51:08,,,
18412822,Social Anthropology and Human Origins,,,,Alan Barnard,2011,,Cambridge University Press,,208,0,English,,,,"0521749298,9781139500449,0521749298",,,,,,,,c_cOhvI8btgC,,867,0,,,,,,,1,1550297,pdf,791331d54de94a6657c716d44bdd6460,,,G:\\!genesis\\1\\14.139.43.151\\Social Anthropology and Human Origins - Alan Barnard_867.pdf,0,2000-01-01 01:00:00,2016-04-03 02:51:08,,,
18412823,"Social Anxiety, Second Edition: Clinical, Developmental, and Social Perspectives",,,,Stefan G Hofmann & Patricia M Dibartolo,2010,,Academic Press,,607,0,English,,,,"0123750962,9780123750969",,,,,,,,,,1458,0,,,,,,,1,17143857,pdf,48addd26cc0f152356264c4ee6502649,,,"G:\\!genesis\\1\\14.139.43.151\\Social Anxiety, Second Edition_ Clinical, Developmental, and Social Perspectives - Stefan G Hofmann &amp; Patricia M Dibartolo_1458.pdf",0,2000-01-01 01:00:00,2016-04-03 02:51:08,,,
18412824,Social Concertation in Times of Austerity,,,,Alexandre Afonso,2013,,Amsterdam University Press,,261,0,English,,,,"9089643958,9789048512997",,,,,,,,0AAXAwAAQBAJ,,1713,0,,,,,,,1,1534671,pdf,85f53be9f130f706d862fc4b0f1ac538,,,G:\\!genesis\\1\\14.139.43.151\\Social Concertation in Times of Austerity - Alexandre Afonso_1713.pdf,0,2000-01-01 01:00:00,2016-04-03 02:51:08,,,
18412825,"Social Indicators for Aboriginal Governance: Insights from the Thamarrurr Region, Northern Territory",,,,John Taylor,,,,,130,0,English,,,,,,,,,,,,,,1715,0,,,,,,,1,3766518,pdf,b19700c889233e28f63c7711adeaee1d,,,"G:\\!genesis\\1\\14.139.43.151\\Social Indicators for Aboriginal Governance_ Insights from the Thamarrurr Region, Northern Territory - John Taylor_1715.pdf",0,2000-01-01 01:00:00,2016-04-03 02:51:08,,,
18412826,Social Laws: An Outline of Sociology,,,,G. Tarde,2010,,Hicks Press,,55,0,English,,,,"1103164201,9781445507842",,,,,,,,,,2055,0,,,,,,,1,157306,pdf,3dc3b61cb9be33a86bc44a71b3c8fac7,,,G:\\!genesis\\1\\14.139.43.151\\Social Laws_ An Outline of Sociology - G. Tarde_2055.pdf,0,2000-01-01 01:00:00,2016-04-03 02:51:08,,,
18412827,Social Life and Economics,,,,Sumeet Kumar,,,,,311,0,English,,,,,,,,,,,,,,868,0,,,,,,,1,2517496,pdf,d9f34c37708e8c78ed90ab5a63ed8df3,,,G:\\!genesis\\1\\14.139.43.151\\Social Life and Economics - Sumeet Kumar_868.pdf,0,2000-01-01 01:00:00,2016-04-03 02:51:08,,,
18412828,Social Movements in China and Hong Kong: The Expansion of Protest Space,,,,Gilles Guiheux & Khun Eng Kuah-Pearce,2009,,Amsterdam University Press,,315,0,English,,,,"9089641319,9789089641311",,,,,,,,jDDjngEACAAJ,,1513,0,,,,,,,1,4113072,pdf,e7c39f402bd34c102213a6cc5ccb7043,,,G:\\!genesis\\1\\14.139.43.151\\Social Movements in China and Hong Kong_ The Expansion of Protest Space - Gilles Guiheux &amp; Khun Eng Kuah-Pearce_1513.pdf,0,2000-01-01 01:00:00,2016-04-03 02:51:08,,,
18412829,McMafia: A Journey Through the Global Criminal Underworld,,,,Misha Glenny,2008,,Knopf,,,0,English,311,,–¥–æ 2011-01,"9780307268624,0307268624",,,,,,,,,OL24247849M,,0,,,,,,,1,3874825,epub,49C1147552AC8AF229C3DAB673C0CDA1,,,D:\\!genesis\\library.nu\\_301393.49c1147552ac8af229c3dab673c0cda1.epub,0,2000-01-01 01:00:00,2016-04-03 02:51:08,,,
18412830,"Social Networking, the Third Place and the Evolution of Communication",,,,Anonymous,,,,,11,0,English,,,,,,,,,,,,,,869,0,,,,,,,1,1222174,pdf,9fcc55d694c8cc1117250356a553db5d,,,"G:\\!genesis\\1\\14.139.43.151\\Social Networking, the Third Place and the Evolution of Communication - Anonymous_869.pdf",0,2000-01-01 01:00:00,2016-04-03 02:51:08,,,
18412831,Social Science Methodology: A Unified Framework,,,,John Gerring,2012,,Cambridge University Press,,539,0,English,,,,"0521132770,9780521132770",,,,,,,,,,878,0,,,,,,,1,3845854,pdf,d906fe91c5aaf65508565196551935e6,,,G:\\!genesis\\1\\14.139.43.151\\Social Science Methodology_ A Unified Framework - John Gerring_878.pdf,0,2000-01-01 01:00:00,2016-04-03 02:51:08,,,
18412832,McMafia: a journey through the global criminal underworld,,,,Misha Glenny,2009,,Vintage Books,,416,0,English,311,,–¥–æ 2011-01,"1400095123, 9781400095124, 0307268624, 9780307268624",,,,,364.1'06‚Äîdc22,HV6441.G54 2008,,fN7noidk2KsC,,,0,,,,,0,,1,3874825,epub,49C1147552AC8AF229C3DAB673C0CDA1,,,D:/!genesis/library.nu/_301393.49c1147552ac8af229c3dab673c0cda1.epub,0,2000-01-01 01:00:00,2016-04-03 02:51:08,http://images.randomhouse.com/cover/9781400095124?height=450&.jpg,,
18412833,"Social Science Research: Principles, Methods, and Practices",,,,Anol Bhattacherjee,2012,,CreateSpace Independent Publishing Platform,,159,0,English,,,,"1475146124,9781475146127",,,,,,,,,,1441,0,,,,,,,1,2123931,pdf,8bff18652f6fbdd683258e8da23fdeb4,,,"G:\\!genesis\\1\\14.139.43.151\\Social Science Research_ Principles, Methods, and Practices - Anol Bhattacherjee_1441.pdf",0,2000-01-01 01:00:00,2016-04-03 02:51:08,,,
18412834,"Social Theory of Fear: Terror, Torture, and Death in a Post-Capitalist World",,,,Geoffrey R. Skoll,2010,,Palgrave Macmillan,,247,0,English,,,,"0230103499,9780230103498",,,,,,,,4API2GNhINQC,,1689,0,,,,,,,1,2341132,pdf,97baf2a2864b85bb0e6b743a33f3c6a5,,,"G:\\!genesis\\1\\14.139.43.151\\Social Theory of Fear_ Terror, Torture, and Death in a Post-Capitalist World - Geoffrey R. Skoll_1689.pdf",0,2000-01-01 01:00:00,2016-04-03 02:51:08,,,
18412835,"Social Theory, Social Change and Social Work",,,,Nigel Parton,1996,,Routledge,,249,0,English,,,,"0415126975,9780415126984",,,,,,,,,,1474,0,,,,,,,1,1157177,pdf,d6fad17346277f50c7932ec6baa37352,,,"G:\\!genesis\\1\\14.139.43.151\\Social Theory, Social Change and Social Work - Nigel Parton_1474.pdf",0,2000-01-01 01:00:00,2016-04-03 02:51:08,,,
18412836,Social Web,,,,Anonymous,2013,,Wikibooks.org,,122,0,English,,,,,,,,,,,,,,1851,0,,,,,,,1,2769453,pdf,e4df958fe59b2bd7c2a6445992062897,,,G:\\!genesis\\1\\14.139.43.151\\Social Web - Anonymous_1851.pdf,0,2000-01-01 01:00:00,2016-04-03 02:51:08,,,
18412837,Social Zooarchaeology: Humans and Animals in Prehistory Paperback,,,,Nerissa Russell,2011,,Cambridge University Press,,571,0,English,,,,"052114311X,9780521143110",,,,,,,,,,879,0,,,,,,,1,2989299,pdf,2dbb95c6f2478ae1760c7e8240f5fe16,,,G:\\!genesis\\1\\14.139.43.151\\Social Zooarchaeology_ Humans and Animals in Prehistory Paperback - Nerissa Russell_879.pdf,0,2000-01-01 01:00:00,2016-04-03 02:51:08,,,
18412838,Socialism and International Economic Order,,,,Elisabeth Tamedly,2012,,Ludwig von Mises Institute,,318,0,English,,,,,,B0075B7V90,,,,,,,,880,0,,,,,,,1,18152781,pdf,44e22d0256b12eb1f6b8c1e89565585a,,,G:\\!genesis\\1\\14.139.43.151\\Socialism and International Economic Order - Elisabeth Tamedly_880.pdf,0,2000-01-01 01:00:00,2016-04-03 02:51:08,,,
18412839,Socialism: Utopian and Scientific,,,,Frederick Engels,2008,,Pathfinder Press,,40,0,English,,,,"0873489772,9780873489775",,,,,,,,coTonQEACAAJ,,1852,0,,,,,,,1,359334,pdf,c9fdd8b29c36364002f316c6a5c141d4,,,G:\\!genesis\\1\\14.139.43.151\\Socialism_ Utopian and Scientific - Frederick Engels_1852.pdf,0,2000-01-01 01:00:00,2016-04-03 02:51:08,,,
18412840,Socially Speaking Course for Juvenile Inmates,,,,Val Hamann,,,,,48,0,English,,,,,,,,,,,,,,882,0,,,,,,,1,1138718,pdf,bfce5c082296d1a2a04fcf54e9f6fe8b,,,G:\\!genesis\\1\\14.139.43.151\\Socially Speaking Course for Juvenile Inmates - Val Hamann_882.pdf,0,2000-01-01 01:00:00,2016-04-03 02:51:08,,,
18412841,Society and the Teacher's Role,,,,Frank Musgrove & Philip H Taylor,2012,,Routledge,,115,0,English,,,,"1138007609,9781138007604",,,,,,,,,,889,0,,,,,,,1,3289522,pdf,a88f98404a57e97dfa55a7d9b5644edc,,,G:\\!genesis\\1\\14.139.43.151\\Society and the Teacher&#39;s Role - Frank Musgrove &amp; Philip H Taylor_889.pdf,0,2000-01-01 01:00:00,2016-04-03 02:51:08,,,
18412842,Solid and Hazardous Waste Services: An Examination of U.S. and Foreign Markets,,,,"Washington, United States International Trade Commission",2004,,"Washington, United States International Trade Commission",,186,0,English,,,,,,,,,,,,,,2037,0,,,,,,,1,4180515,pdf,214411136eac3c4fc6bbe831d6abc0cd,,,"G:\\!genesis\\1\\14.139.43.151\\Solid and Hazardous Waste Services_ An Examination of U.S. and Foreign Markets - Washington, United States International Trade Commission_2037.pdf",0,2000-01-01 01:00:00,2016-04-03 02:51:08,,,
18412843,McMafia: A Journey Through the Global Criminal Underworld  ,,,,Misha Glenny,,,,,475,0,English ,,,2011 12 30,,,,,,,,,,,,0,,,,,1,,1,4258088,pdf,C64D067D06CC89CDD201AC5C51E0892D,,,_506910.c64d067d06cc89cdd201ac5c51e0892d.pdf,0,2000-01-01 01:00:00,2016-04-03 02:51:08,771000/c64d067d06cc89cdd201ac5c51e0892d-g.jpg,,
18412844,Source Book on Digital Libraries,,,,Edward A. Fox,1993,,"Department of Computer Science, Virginia Polytechnic Institute and State University",,439,0,English,,,,,,,,,,,,PESVRAAACAAJ,,1478,0,,,,,,,1,1508527,pdf,8fd033e05e0888b1578c7a95542357af,,,G:\\!genesis\\1\\14.139.43.151\\Source Book on Digital Libraries - Edward A. Fox_1478.pdf,0,2000-01-01 01:00:00,2016-04-03 02:51:08,,,
18412845,Special Education and Social Interests,,,,Len Barton & Sally Tomlinson,2011,,Routledge,,281,0,English,,,,"0415506913,9780415506915",,,,,,,,,,896,0,,,,,,,1,7915799,pdf,5a9ac947a7e970bfc8e53ad889d0d86c,,,G:\\!genesis\\1\\14.139.43.151\\Special Education and Social Interests - Len Barton &amp; Sally Tomlinson_896.pdf,0,2000-01-01 01:00:00,2016-04-03 02:51:08,,,
18412846,Special Fuzzy Matrices for Social Scientists,,,,W. B. Vasantha Kandasamy & Florentin Smarandache & K. Ilanthenral,2007,,InfoLearnQuest,,302,0,English,,,,"1599730308,9781599730301",,,,,,,,hXjzAAAAQBAJ,,1442,0,,,,,,,1,2090598,pdf,70e5e5edc7f904e93fc4d2ed85f70c89,,,G:\\!genesis\\1\\14.139.43.151\\Special Fuzzy Matrices for Social Scientists - W. B. Vasantha Kandasamy &amp; Florentin Smarandache &amp; K. Ilanthenral_1442.pdf,0,2000-01-01 01:00:00,2016-04-03 02:51:08,,,
18412847,Special Relationships: Anglo-American Affinities and Antagonisms 1854-1936,,,,Janet Beer & Bridget Bennett,2003,,Manchester University Press,,279,0,English,,,,"071905818X,9780719058189",,,,,,,,,,1597,0,,,,,,,1,1516215,pdf,7a5603805d8466c7e7fd263df74f988b,,,G:\\!genesis\\1\\14.139.43.151\\Special Relationships_ Anglo-American Affinities and Antagonisms 1854-1936 - Janet Beer &amp; Bridget Bennett_1597.pdf,0,2000-01-01 01:00:00,2016-04-03 02:51:08,,,
18412848,Specialized Cataloging and Classification Theory and Technique,,,,Harry Dewey,1956,,"COLLEGE TYPING COMPANY, Madison",,323,0,English,,,,"1179431960,9781179431963",,,,,,,,mBphywAACAAJ,,1484,0,,,,,,,1,16151948,pdf,632308f407f849e4791f91ade9db2802,,,G:\\!genesis\\1\\14.139.43.151\\Specialized Cataloging and Classification Theory and Technique - Harry Dewey_1484.pdf,0,2000-01-01 01:00:00,2016-04-03 02:51:08,,,
18412849,Spitting at the Sun,,,,Chunibhai Vaidya,,,Gujarat Loksamiti,,49,0,English,,,,,,,,,,,,,,2216,0,,,,,,,1,352782,pdf,f1cbe0e58216f471485a55d23e58bdca,,,G:\\!genesis\\1\\14.139.43.151\\Spitting at the Sun - Chunibhai Vaidya_2216.pdf,0,2000-01-01 01:00:00,2016-04-03 02:51:08,,,
18412850,Sport Management,,,,E. Eksteen,,,Bookboon,,86,0,English,,,,,,,,,,,,,,2218,0,,,,,,,0,2313519,pdf,3db1829c9d817d14f42bd39e396fc67a,,,G:\\!genesis\\1\\14.139.43.151\\Sport Management - E. Eksteen_2218.pdf,0,2000-01-01 01:00:00,2016-04-03 02:51:08,,,
18412851,Sport Organisation and Administration,,,,Bookboon.com,,,,,117,0,English,,,,,,,,,,,,,,2114,0,,,,,,,0,2710964,pdf,9cedbb61146e60305ff51c08d2beb463,,,G:\\!genesis\\1\\14.139.43.151\\Sport Organisation and Administration - Bookboon.com_2114.pdf,0,2000-01-01 01:00:00,2016-04-03 02:51:08,,,
18412852,"Sporting Society, Vol. II (of 2) / or, Sporting Chat and Sporting Memories",,,,Fox Russell,2012,,,,,0,English,,,,,,,,,,,,,,903,0,,,,,,,0,371510,epub,6209b1d0484afc6e4f7b57008072936c,,,"G:\\!genesis\\1\\14.139.43.151\\Sporting Society, Vol. II (of 2) _ or, Sporting Chat and Sporting Memories - Fox Russell_903.epub",0,2000-01-01 01:00:00,2016-04-03 02:51:08,,,
18412853,"Sports Development, Law And Commercialization",,,,Bookboon.com,,,,,76,0,English,,,,,,,,,,,,,,2116,0,,,,,,,0,2431097,pdf,2e3e8ad20f0b07d8fb6de4cdb931551d,,,"G:\\!genesis\\1\\14.139.43.151\\Sports Development, Law And Commercialization - Bookboon.com_2116.pdf",0,2000-01-01 01:00:00,2016-04-03 02:51:08,,,
18412854,Sports Economics,,,,Roger D. Blair,2011,,Cambridge University Press,,587,0,English,,,,"0521876613,9780521876612",,,,,,,,,,904,0,,,,,,,1,4828888,pdf,39b74a8ce9bd91a5dfd95f81e276f8a8,,,G:\\!genesis\\1\\14.139.43.151\\Sports Economics - Roger D. Blair_904.pdf,0,2000-01-01 01:00:00,2016-04-03 02:51:08,,,
18412855,SPSS: Stats Practically Short and Simple,,,,Bookboon.com,,,,,87,0,English,,,,,,,,,,,,,,2129,0,,,,,,,0,4982058,pdf,6dcd90fbe0d609cf6e9e73b1de198c71,,,G:\\!genesis\\1\\14.139.43.151\\SPSS_ Stats Practically Short and Simple - Bookboon.com_2129.pdf,0,2000-01-01 01:00:00,2016-04-03 02:51:08,,,
18412856,Sri Lankan Housemaids in Lebanon: A Case of 'Symbolic Violence' and 'Everyday Forms of Resistance',,,,Nayla Moukarbel,2009,,Amsterdam University Press,,250,0,English,,,,"9089640517,9789089640512",,,,,,,,lZ9AHxsjdF0C,,1642,0,,,,,,,1,1061817,pdf,7a5bbd18a9140f92f66018b543844fc9,,,G:\\!genesis\\1\\14.139.43.151\\Sri Lankan Housemaids in Lebanon_ A Case of &#39;Symbolic Violence&#39; and &#39;Everyday Forms of Resistance&#39; - Nayla Moukarbel_1642.pdf,0,2000-01-01 01:00:00,2016-04-03 02:51:08,,,
18412857,Staff Recruitment: Survival Guide,,,,Suzanne Fleming,,,,,131,0,English,,,,,,,,,,,,,,905,0,,,,,,,1,1218127,pdf,6ee1f63622016a2ea3ba2e0b0ac663c6,,,G:\\!genesis\\1\\14.139.43.151\\Staff Recruitment_ Survival Guide - Suzanne Fleming_905.pdf,0,2000-01-01 01:00:00,2016-04-03 02:51:08,,,
18412858,Statistics and Reality: Concepts and Measurements of Migration in Europe,,,,Heinz Fassmann & Ursula Reeger & Wiebke Sievers,2009,,Amsterdam University Press,,319,0,English,,,,"9089640525,9789089640529",,,,,,,,,,1536,0,,,,,,,1,7900382,pdf,3d8bf30dfb81a3854ec3b7e224583d0b,,,G:\\!genesis\\1\\14.139.43.151\\Statistics and Reality_ Concepts and Measurements of Migration in Europe - Heinz Fassmann &amp; Ursula Reeger &amp; Wiebke Sievers_1536.pdf,0,2000-01-01 01:00:00,2016-04-03 02:51:08,,,
18412859,Statistics for Business and Economics,,,,Bookboon.com,,,,,150,0,English,,,,,,,,,,,,,,2124,0,,,,,,,0,3804534,pdf,53165c26c435d8a766ed40a820a82802,,,G:\\!genesis\\1\\14.139.43.151\\Statistics for Business and Economics - Bookboon.com_2124.pdf,0,2000-01-01 01:00:00,2016-04-03 02:51:08,,,
18412860,"Statistics for Health, Life and Social Sciences",,,,Bookboon.com,,,,,292,0,English,,,,,,,,,,,,,,2128,0,,,,,,,0,7157666,pdf,a1de3139139b13976dcce07d5b3c380a,,,"G:\\!genesis\\1\\14.139.43.151\\Statistics for Health, Life and Social Sciences - Bookboon.com_2128.pdf",0,2000-01-01 01:00:00,2016-04-03 02:51:08,,,
18412861,Statistics for the Humanities,,,,John Canning,,,,,258,0,English,,,,,,,,,,,,,,1842,0,,,,,,,1,7711004,pdf,d152a21e4347af5b501cfa51fb935b48,,,G:\\!genesis\\1\\14.139.43.151\\Statistics for the Humanities - John Canning_1842.pdf,0,2000-01-01 01:00:00,2016-04-03 02:51:08,,,
18412862,Stone Tools and Fossil Bones Debates in the Archaeology of Human Origins,,,,manuel dom¬¥ƒ±nguez-rodrigo,2012,,Cambridge University Press,,391,0,English,,,,,,,,,,,,,,1360,0,,,,,,,1,5082619,pdf,5cbd76453c5242c43ea643c716ddf9ad,,,G:\\!genesis\\1\\14.139.43.151\\Stone Tools and Fossil Bones Debates in the Archaeology of Human Origins - manuel dom inguez-rodrigo_1360.pdf,0,2000-01-01 01:00:00,2016-04-03 02:51:08,,,
18412863,Stone Tools and Fossil Bones Debates in the Archaeology of Human Origins,,,,manuel dom¬¥ƒ±nguez-rodrigo,2012,,Cambridge University Press,,,0,English,,,,,,,,,,,,,,913,0,,,,,,,0,3622268,mobi,16349e7cb7848c60f161af48372930bb,,,G:\\!genesis\\1\\14.139.43.151\\Stone Tools and Fossil Bones Debates in the Archaeology of Human Origins - manuel dom inguez-rodrigo_913.mobi,0,2000-01-01 01:00:00,2016-04-03 02:51:08,,,
18412864,Strangers at the Gates: Movements and States in Contentious Politics,,,,Sidney Tarrow,2012,,Cambridge University Press,,287,0,English,,,,9781107009387,,,,,,,,sdeL8C2qOKUC,,914,0,,,,,,,1,1770635,pdf,58315c5493521f330f8ef09dc73b3d1f,,,G:\\!genesis\\1\\14.139.43.151\\Strangers at the Gates_ Movements and States in Contentious Politics - Sidney Tarrow_914.pdf,0,2000-01-01 01:00:00,2016-04-03 02:51:08,,,
18412865,Strategic Financial Management,,,,Bookboon.com,,,,,114,0,English,,,,,,,,,,,,,,2135,0,,,,,,,0,2600206,pdf,72be52c06257c02baf9bee9c5bfb4219,,,G:\\!genesis\\1\\14.139.43.151\\Strategic Financial Management - Bookboon.com_2135.pdf,0,2000-01-01 01:00:00,2016-04-03 02:51:08,,,
18412866,Strategic Financial Management: Exercises,,,,Bookboon.com,,,,,111,0,English,,,,,,,,,,,,,,2138,0,,,,,,,0,2530503,pdf,a41c558103b93a0035c77c633735d1f1,,,G:\\!genesis\\1\\14.139.43.151\\Strategic Financial Management_ Exercises - Bookboon.com_2138.pdf,0,2000-01-01 01:00:00,2016-04-03 02:51:08,,,
18412867,Strategic Management,,,,Bookboon.com,,,,,117,0,English,,,,,,,,,,,,,,2140,0,,,,,,,0,3294126,pdf,06733df81bda36f5982b792c6a504e7f,,,G:\\!genesis\\1\\14.139.43.151\\Strategic Management - Bookboon.com_2140.pdf,0,2000-01-01 01:00:00,2016-04-03 02:51:08,,,
18412868,Strategic Marketing,,,,Bookboon.com,,,,,116,0,English,,,,,,,,,,,,,,2144,0,,,,,,,0,6596304,pdf,01b3b0ee5e01164024614c757cca925b,,,G:\\!genesis\\1\\14.139.43.151\\Strategic Marketing - Bookboon.com_2144.pdf,0,2000-01-01 01:00:00,2016-04-03 02:51:08,,,
18412869,Stress measurement in less than one minute,,,,Bookboon.com,,,,,97,0,English,,,,,,,,,,,,,,2152,0,,,,,,,0,6581179,pdf,39b4c0c6e30778132e45a19fa3f3bddb,,,G:\\!genesis\\1\\14.139.43.151\\Stress measurement in less than one minute - Bookboon.com_2152.pdf,0,2000-01-01 01:00:00,2016-04-03 02:51:08,,,
18412870,"Stripping, Sex, and Popular Culture",,,,Catherine M Roach,2011,,Berg Publishers,,199,0,English,,,,,,B005GZL95Y,,,,,,,,1643,0,,,,,,,1,827501,pdf,64f9ecb012afa82472e0c3919c9187a2,,,"G:\\!genesis\\1\\14.139.43.151\\Stripping, Sex, and Popular Culture - Catherine M Roach_1643.pdf",0,2000-01-01 01:00:00,2016-04-03 02:51:08,,,
18412871,Structural Dynamics and Economic Growth,,,,Richard Arena & Pier Luigi Porta,2012,,Cambridge University Press,,293,0,English,,,,,,,,,,,,,,1357,0,,,,,,,1,2177491,pdf,d38fd011c3bdb2e6a0b24a242dccc6f2,,,G:\\!genesis\\1\\14.139.43.151\\Structural Dynamics and Economic Growth - Richard Arena &amp; Pier Luigi Porta_1357.pdf,0,2000-01-01 01:00:00,2016-04-03 02:51:08,,,
18412872,Structural Dynamics and Economic Growth,,,,Richard Arena & Pier Luigi Porta,2012,,Cambridge University Press,,,0,English,,,,,,,,,,,,,,920,0,,,,,,,0,775659,mobi,3cd741712078fdf8bfa4deb2ba4142ad,,,G:\\!genesis\\1\\14.139.43.151\\Structural Dynamics and Economic Growth - Richard Arena &amp; Pier Luigi Porta_920.mobi,0,2000-01-01 01:00:00,2016-04-03 02:51:08,,,
18412873,Structure and Improvisation in Creative Teaching Paperback,,,,R. Keith Sawyer,2011,,Cambridge University Press,,329,0,English,,,,"0521746329,9780521746328",,,,,,,,,,924,0,,,,,,,1,3152445,pdf,74aadbed862e3ba67eaec5292eb5a8a0,,,G:\\!genesis\\1\\14.139.43.151\\Structure and Improvisation in Creative Teaching Paperback - R. Keith Sawyer_924.pdf,0,2000-01-01 01:00:00,2016-04-03 02:51:08,,,
18412874,"Studies in the Psychology of Sex, Volume 3 Analysis of the Sexual Impulse, Love and Pain, the Sexual Impulse in Women (TREDITION CLASSICS)",,,,Havelock Ellis,2011,,tredition,,,0,English,,,,"3842473788,9783842473782",,,,,,,,,,934,0,,,,,,,0,544871,epub,fdcd5604ef4c472dfce3b95daf41106a,,,"G:\\!genesis\\1\\14.139.43.151\\Studies in the Psychology of Sex, Volume 3 Analysis of the Sexual Impulse, Love and Pain, the Sexual Impulse in Women (TREDITION CLASSICS) - Havelock Ellis_934.epub",0,2000-01-01 01:00:00,2016-04-03 02:51:08,,,
18412875,"Studies in the Psychology of Sex, Volume 3 Analysis of the Sexual Impulse, Love and Pain, the Sexual Impulse in Women",,,,Havelock Ellis,2012,,tredition,,,0,English,,,,9783842498440,,,,,,,,DqrJUp1_bEwC,,929,0,,,,,,,0,436819,epub,1c0124ab49d5a60d6b7a59b063608aa4,,,"G:\\!genesis\\1\\14.139.43.151\\Studies in the Psychology of Sex, Volume 3 Analysis of the Sexual Impulse, Love and Pain, the Sexual Impulse in Women - Havelock Ellis_929.epub",0,2000-01-01 01:00:00,2016-04-03 02:51:08,,,
18412876,Study Guide to the Theory of Money and Credit,,,,Robert P. Murphy,2011,,Ludwig von Mises Institute,,264,0,English,,,,,,B005NC04JC,,,,,,,,938,0,,,,,,,1,1272363,pdf,a55b42567c23116f87153ce59bc65751,,,G:\\!genesis\\1\\14.139.43.151\\Study Guide to the Theory of Money and Credit - Robert P. Murphy_938.pdf,0,2000-01-01 01:00:00,2016-04-03 02:51:08,,,
18412877,Studying Strategy,,,,Bookboon.com,,,,,167,0,English,,,,,,,,,,,,,,2156,0,,,,,,,0,2565907,pdf,0996922f2accde1c6229f195e0055d1d,,,G:\\!genesis\\1\\14.139.43.151\\Studying Strategy - Bookboon.com_2156.pdf,0,2000-01-01 01:00:00,2016-04-03 02:51:08,,,
18412878,Successful Stock Trading - a Guide to Profitability,,,,Nick Radge,2012,,Radge Publishing,,64,0,English,,,,,,B008D5E6J0,,,,,,,,947,0,,,,,,,1,2651299,pdf,75512354901a299903bb4e7fe97e2cb3,,,G:\\!genesis\\1\\14.139.43.151\\Successful Stock Trading - a Guide to Profitability - Nick Radge_947.pdf,0,2000-01-01 01:00:00,2016-04-03 02:51:08,,,
18412879,Suggestions for the Organization of Libraries in India,,,,S R Ranganathan M A,2011,,Nabu Press,,185,0,English,,,,"1245099205,9781245099202",,,,,,,,,,948,0,,,,,,,1,6053311,pdf,47b418acf9948ea45f50301f0b33c7c6,,,G:\\!genesis\\1\\14.139.43.151\\Suggestions for the Organization of Libraries in India - S R Ranganathan M A_948.pdf,0,2000-01-01 01:00:00,2016-04-03 02:51:08,,,
18412880,Suggestions for the Organization of Libraries in India,,,,S R Ranganathan,2007,,Read BooksSeries: Teaching in India Series [1],,182,0,English,,,,"1406772704,9781406772708",,,,,,,,aEf8IPQX0dcC,,1352,0,,,,,,,1,2799179,pdf,4dfc8e4ca691cb9b21580aa4b4890b92,,,G:\\!genesis\\1\\14.139.43.151\\Suggestions for the Organization of Libraries in India - S R Ranganathan_1352.pdf,0,2000-01-01 01:00:00,2016-04-03 02:51:08,,,
18412881,Super Fuzzy Matrices and Super Fuzzy Models for Social Scientists,,,,W. B. Vasantha Kandasamy & Florentin Smarandache & K. Amal,2008,,Infinite Study,,281,0,English,,,,9781599730271,,,,,,,,Ne-2D6oJUUoC,,1444,0,,,,,,,1,913365,pdf,5fc976c2d8f4b3d78bd88655b16906fc,,,G:\\!genesis\\1\\14.139.43.151\\Super Fuzzy Matrices and Super Fuzzy Models for Social Scientists - W. B. Vasantha Kandasamy &amp; Florentin Smarandache &amp; K. Amal_1444.pdf,0,2000-01-01 01:00:00,2016-04-03 02:51:08,,,
18412882,Surveying Ethnic Minorities and Immigrant Populations: Methodological Challenges and Research Strategies,,,,Joan Font & M√≥nica M√©ndez,2013,,Amsterdam University Press,,296,0,English,,,,"9089645438,9789089645432",,,,,,,,di3knAEACAAJ,,1738,0,,,,,,,1,2753808,pdf,8d168a6c3bdb62cfae34a3c7e51225cc,,,G:\\!genesis\\1\\14.139.43.151\\Surveying Ethnic Minorities and Immigrant Populations_ Methodological Challenges and Research Strategies - Joan Font &amp; Monica Mendez_1738.pdf,0,2000-01-01 01:00:00,2016-04-03 02:51:08,,,
18412883,"Susan B. Anthony Rebel, Crusader, Humanitarian",,,,Alma Lutz,2014,,CreateSpace Independent Publishing Platform,,206,0,English,,,,"1497485703,9781497485709",,,,,,,,,,959,0,,,,,,,1,754122,pdf,b90bb62c742e7c22606d41e149b0e25f,,,"G:\\!genesis\\1\\14.139.43.151\\Susan B. Anthony Rebel, Crusader, Humanitarian - Alma Lutz_959.pdf",0,2000-01-01 01:00:00,2016-04-03 02:51:08,,,
18412884,Syphilis and Public Health,,,,"Edward B. (edward Bright), B. 1878 Vedder",1918,,LEA & FEBIGER,,316,0,English,,,,,,B004D5NENI,,,,,,,,1486,0,,,,,,,1,16820802,pdf,afb225ea9379e29e9d634c1b4fac2c0a,,,"G:\\!genesis\\1\\14.139.43.151\\Syphilis and Public Health - Edward B. (edward Bright), B. 1878 Vedder_1486.pdf",0,2000-01-01 01:00:00,2016-04-03 02:51:08,,,
18412885,Tabligi Jamaat,,,,Sheikh Mohammad Bin Nasir Al Arini,,,,,29,0,Hindi,,,,,,,,,,,,,,969,0,,,,,,,1,15979696,pdf,63bfd261eb26d3b62291ca8c10cd3e03,,,G:\\!genesis\\1\\14.139.43.151\\Tabligi Jamaat - Sheikh Mohammad Bin Nasir Al Arini_969.pdf,0,2000-01-01 01:00:00,2016-04-03 02:51:08,,,
18412886,Tajdeed e Emaan,,,,Syed Shafeeq ur Rehman,,,,,137,0,English,,,,,,,,,,,,,,970,0,,,,,,,1,2698832,pdf,64921204a4e747b009fa4e6cd3177cc1,,,G:\\!genesis\\1\\14.139.43.151\\Tajdeed e Emaan - Syed Shafeeq ur Rehman_970.pdf,0,2000-01-01 01:00:00,2016-04-03 02:51:08,,,
18412887,Tantalisingly Close: An Archaeology of Communication Desires in Discourses of Mobile Wireless Media,,,,Imar de Vries,2012,,Amsterdam University Press,,217,0,English,,,,"9089643540,9789089643544",,,,,,,,-YiTue7BOMoC,,1498,0,,,,,,,1,1610693,pdf,a3e7fa0529640ba46f5a88c1a63ce4e7,,,G:\\!genesis\\1\\14.139.43.151\\Tantalisingly Close_ An Archaeology of Communication Desires in Discourses of Mobile Wireless Media - Imar de Vries_1498.pdf,0,2000-01-01 01:00:00,2016-04-03 02:51:08,,,
18412888,Tareekh Babylon w Nainawa,,,,Mohammad Ali Khan,,,"Zahoor Al Hasan Moosvi, Delhi",,191,0,Urdu,,,,,,,,,,,,,,975,0,,,,,,,0,73572687,pdf,08b7c0e230e3777db736fcf637ac6db0,,,G:\\!genesis\\1\\14.139.43.151\\Tareekh Babylon w Nainawa - Mohammad Ali Khan_975.pdf,0,2000-01-01 01:00:00,2016-04-03 02:51:08,,,
18412889,Tareekh Islam Ki 400 Bakamal Khawateen,,,,Talib Al Hashmi,,,,,715,0,English,,,,,,,,,,,,,,978,0,,,,,,,1,154232501,pdf,f34377a694ec6d4b26e7ab847e3f0c31,,,G:\\!genesis\\1\\14.139.43.151\\Tareekh Islam Ki 400 Bakamal Khawateen - Talib Al Hashmi_978.pdf,0,2000-01-01 01:00:00,2016-04-03 02:51:08,,,
18412890,Tareekh Islam Ki 400 Bakamal Khawateen Vol. 1,,,,Talib Al Hashmi,,,,,105,0,Urdu,,,,,,,,,,,,,,979,0,,,,,,,1,21765395,pdf,b619b58980a78cd2e3e50d8b06aba477,,,G:\\!genesis\\1\\14.139.43.151\\Tareekh Islam Ki 400 Bakamal Khawateen Vol. 1 - Talib Al Hashmi_979.pdf,0,2000-01-01 01:00:00,2016-04-03 02:51:08,,,
18412891,Tareekh Islam Ki 400 Bakamal Khawateen Vol. 2,,,,Talib Al Hashmi,,,,,105,0,Urdu,,,,,,,,,,,,,,980,0,,,,,,,1,22041900,pdf,49c0d2a7dee3c59e2af89af57c83a11d,,,G:\\!genesis\\1\\14.139.43.151\\Tareekh Islam Ki 400 Bakamal Khawateen Vol. 2 - Talib Al Hashmi_980.pdf,0,2000-01-01 01:00:00,2016-04-03 02:51:08,,,
18412892,Tareekh Islam Ki 400 Bakamal Khawateen Vol. 3,,,,Talib Al Hashmi,,,,,105,0,Urdu,,,,,,,,,,,,,,981,0,,,,,,,1,22088388,pdf,6eaec57b2dc13e21365cacbabf4a7046,,,G:\\!genesis\\1\\14.139.43.151\\Tareekh Islam Ki 400 Bakamal Khawateen Vol. 3 - Talib Al Hashmi_981.pdf,0,2000-01-01 01:00:00,2016-04-03 02:51:08,,,
18412893,Tareekh Islam Ki 400 Bakamal Khawateen Vol. 4,,,,Talib Al Hashmi,,,,,105,0,Urdu,,,,,,,,,,,,,,982,0,,,,,,,1,23051783,pdf,21ed25761ddb2a7f5fd23b72a635ab72,,,G:\\!genesis\\1\\14.139.43.151\\Tareekh Islam Ki 400 Bakamal Khawateen Vol. 4 - Talib Al Hashmi_982.pdf,0,2000-01-01 01:00:00,2016-04-03 02:51:08,,,
18412894,Tareekh Islam Ki 400 Bakamal Khawateen Vol. 5,,,,Talib Al Hashmi,,,,,105,0,Urdu,,,,,,,,,,,,,,983,0,,,,,,,1,23385434,pdf,89c84769910e01d90f7e94df67190a27,,,G:\\!genesis\\1\\14.139.43.151\\Tareekh Islam Ki 400 Bakamal Khawateen Vol. 5 - Talib Al Hashmi_983.pdf,0,2000-01-01 01:00:00,2016-04-03 02:51:08,,,
18412895,Tareekh Islam Ki 400 Bakamal Khawateen Vol. 6,,,,Talib Al Hashmi,,,,,105,0,Urdu,,,,,,,,,,,,,,984,0,,,,,,,1,22558127,pdf,9862f250d18076b8196654fd27ba10ad,,,G:\\!genesis\\1\\14.139.43.151\\Tareekh Islam Ki 400 Bakamal Khawateen Vol. 6 - Talib Al Hashmi_984.pdf,0,2000-01-01 01:00:00,2016-04-03 02:51:08,,,
18412896,Tauheed Aur Hum,,,,Basheer Ahmad Lodhi,,,,,83,0,Urdu,,,,,,,,,,,,,,985,0,,,,,,,0,7447515,pdf,ba2fc6945f5f8dc482562a8ca2237655,,,G:\\!genesis\\1\\14.139.43.151\\Tauheed Aur Hum - Basheer Ahmad Lodhi_985.pdf,0,2000-01-01 01:00:00,2016-04-03 02:51:08,,,
18412897,Tea and Tea Products,,,,Chi-Tang Ho,,,,,322,0,English,,,,,,,,,,,,,,1987,0,,,,,,,1,8031644,pdf,c4b41680a75dc0f7e7352aedcc77be4d,,,G:\\!genesis\\1\\14.139.43.151\\Tea and Tea Products - Chi-Tang Ho_1987.pdf,0,2000-01-01 01:00:00,2016-04-03 02:51:08,,,
18412898,Teachers: The Culture and Politics of Work,,,,Martin Lawn & Gerald Grace,1987,,Falmer Press,,246,0,English,,,,"1850002177,9781850002178",,,,,,,,,,986,0,,,,,,,1,6090711,pdf,400ac985c2b912f9e6364ad77b44b0fc,,,G:\\!genesis\\1\\14.139.43.151\\Teachers_ The Culture and Politics of Work - Martin Lawn &amp; Gerald Grace_986.pdf,0,2000-01-01 01:00:00,2016-04-03 02:51:08,,,
18412899,Teaching Gender in Social Work,,,,Vesna Lesko≈°ek,2009,,ATHENA,,196,0,English,,,,,,,,,,,,,,1487,0,,,,,,,1,2471738,pdf,4a6d083fe10df18312db3380b5c771b3,,,G:\\!genesis\\1\\14.139.43.151\\Teaching Gender in Social Work - Vesna Leskosek_1487.pdf,0,2000-01-01 01:00:00,2016-04-03 02:51:08,,,
18412900,Technology-Based Entrepreneurship,,,,Bookboon.com,,,,,168,0,English,,,,,,,,,,,,,,2165,0,,,,,,,0,3025998,pdf,b65da9ee307edea44ea0743afd517415,,,G:\\!genesis\\1\\14.139.43.151\\Technology-Based Entrepreneurship - Bookboon.com_2165.pdf,0,2000-01-01 01:00:00,2016-04-03 02:51:08,,,
18412901,"Telemental Health: Clinical, Technical, and Administrative Foundations for Evidence-Based Practice",,,,Kathleen Myers & Carolyn L. Turvey,,,Elsevier,,416,0,English,,,,9780124160484,,,,,,,,,,987,0,,,,,,,1,5679283,pdf,f48e3c36541a040176351c81fffbcaf7,,,"G:\\!genesis\\1\\14.139.43.151\\Telemental Health_ Clinical, Technical, and Administrative Foundations for Evidence-Based Practice - Kathleen Myers &amp; Carolyn L. Turvey_987.pdf",0,2000-01-01 01:00:00,2016-04-03 02:51:08,,,
18412902,"Telepathy, Genuine and Fraudulent",,,,Baggally W. W. (william Wortley),2013,,HardPress,,33,0,English,,,,"1314502085,9781314502084",,,,,,,,CClbngEACAAJ,,1853,0,,,,,,,1,433671,pdf,ad8b1f1ec3bf2d046681cca3b27707a3,,,"G:\\!genesis\\1\\14.139.43.151\\Telepathy, Genuine and Fraudulent - Baggally W. W. (william Wortley)_1853.pdf",0,2000-01-01 01:00:00,2016-04-03 02:51:08,,,
18412903,"Ten Great Religions; An Essay in Comparative Theology; A Comparison of All Religions, by James Freeman Clarke ..",,,,James Freeman Clarke,2004,,"Scholarly Publishing Office, University of Michigan Library",,,0,English,,,,9781418150099,,,,,,,,0bDpAAAACAAJ,,988,0,,,,,,,0,508179,epub,1ee521d54c92d6c40f7351ad8032915b,,,"G:\\!genesis\\1\\14.139.43.151\\Ten Great Religions; An Essay in Comparative Theology; A Comparison of All Religions, by James Freeman Clarke ._ - James Freeman Clarke_988.epub",0,2000-01-01 01:00:00,2016-04-03 02:51:08,,,
18412904,"Ten Thousand Dreams Interpreted, or What's in a Dream: A Scientific and Practical Exposition",,,,Gustavus Hindman Miller,1997,,Many Books.net,,402,0,English,,,,1406944076,,B004UJCE0G,,,,,,,,1818,0,,,,,,,1,1037826,pdf,a261c781115f91ea2bde47c1311bbdc2,,,"G:\\!genesis\\1\\14.139.43.151\\Ten Thousand Dreams Interpreted, or What&#39;s in a Dream_ A Scientific and Practical Exposition - Gustavus Hindman Miller_1818.pdf",0,2000-01-01 01:00:00,2016-04-03 02:51:08,,,
18412905,Terrorists and Freedom Fighters,,,,Sam Vaknin & Lidija Rangelovska,2011,,Narcissus Publications,,237,0,English,,,,,,B0054SLKPW,,,,,,,,2227,0,,,,,,,1,698269,pdf,9c28cb6423f771411d96ef7a6f377d2b,,,G:\\!genesis\\1\\14.139.43.151\\Terrorists and Freedom Fighters - Sam Vaknin &amp; Lidija Rangelovska_2227.pdf,0,2000-01-01 01:00:00,2016-04-03 02:51:08,,,
18412906,Terrorists and Freedom Fighters,,,,Sam Vaknin & Lidija Rangelovska,2011,,Narcissus Publications,,237,0,English,,,,,,B0054SLKPW,,,,,,,,795,0,,,,,,,1,695736,pdf,202df2c5c1cee15f40bc8474ec527ec6,,,G:\\!genesis\\1\\14.139.43.151\\Terrorists and Freedom Fighters - Sam Vaknin &amp; Lidija Rangelovska_795.pdf,0,2000-01-01 01:00:00,2016-04-03 02:51:08,,,
18412907,The Age of Innocence,,,,Edith Wharton,2008,,ReadHowYouWant.com,,167,0,English,,,,"1499172680,9781442948631",,,,,,,,6vR-7i_PQFUC,,1854,0,,,,,,,1,652976,pdf,efd02051f1849461e21e7bebaee67183,,,G:\\!genesis\\1\\14.139.43.151\\The Age of Innocence - Edith Wharton_1854.pdf,0,2000-01-01 01:00:00,2016-04-03 02:51:08,,,
18412908,The American Country Girl,,,,Martha Foote Crow,2010,,General Books LLC,,183,0,English,,,,9781153654074,,,,,,,,VxMVkgAACAAJ,,626,0,,,,,,,1,677835,pdf,e52e82f82cc850ba2babdf0b88c29dfd,,,G:\\!genesis\\1\\14.139.43.151\\The American Country Girl - Martha Foote Crow_626.pdf,0,2000-01-01 01:00:00,2016-04-03 02:51:08,,,
18412909,The American Crisis,,,,Thomas Paine,1776,,Feedbooks,,676,0,English,,,,,,,,,,,,,,1392,0,,,,,,,1,1355707,pdf,df1531b17c95333be055b287532d4b93,,,G:\\!genesis\\1\\14.139.43.151\\The American Crisis - Thomas Paine_1392.pdf,0,2000-01-01 01:00:00,2016-04-03 02:51:08,,,
18412910,The Analysis of Mind,,,,Bertrand Russell,2013,,Start Classics,,117,0,English,,,,"1499173792,9781627936439",,,,,,,,_htEAwAAQBAJ,,1847,0,,,,,,,1,567929,pdf,c0ee24e18b9c743ab9adfe76fa404d53,,,G:\\!genesis\\1\\14.139.43.151\\The Analysis of Mind - Bertrand Russell_1847.pdf,0,2000-01-01 01:00:00,2016-04-03 02:51:08,,,
18412911,The Archaeology of Colonialism: Intimate Encounters and Sexual Effects,,,,Barbara L. Voss & Eleanor Conlin Casella,2012,,Cambridge University Press,,386,0,English,,,,,,,,,,,,,,684,0,,,,,,,1,11324767,pdf,6795d5cc44ac879cca11e5de4dc51ec2,,,G:\\!genesis\\1\\14.139.43.151\\The Archaeology of Colonialism_ Intimate Encounters and Sexual Effects - Barbara L. Voss &amp; Eleanor Conlin Casella_684.pdf,0,2000-01-01 01:00:00,2016-04-03 02:51:08,,,
18412912,The Architecture of Security in the Asia-Pacific,,,,Ron Huisken,2011,,ANU E Press,,145,0,English,,,,"1921666021,9781921666025",,,,,,,,,,1749,0,,,,,,,1,495832,pdf,b35954d0e507bff9bcf4633cd54efac4,,,G:\\!genesis\\1\\14.139.43.151\\The Architecture of Security in the Asia-Pacific - Ron Huisken_1749.pdf,0,2000-01-01 01:00:00,2016-04-03 02:51:08,,,
18412913,The Art of Interior Decoration,,,,Grace Wood,2012,,Ulan Press,,133,0,English,,,,,,B009AVVOAA,,,,,,,,1855,0,,,,,,,1,522721,pdf,8d63fce56d3081b600cbbb697a398052,,,G:\\!genesis\\1\\14.139.43.151\\The Art of Interior Decoration - Grace Wood_1855.pdf,0,2000-01-01 01:00:00,2016-04-03 02:51:08,,,
18412914,"The Art of Money Getting, or Golden Rules for Making Money",,,,P. T. Barnum,1880,,Feedbooks,,155,0,English,,,,,,,,,,,,,,1388,0,,,,,,,1,586839,pdf,faeb8b54580aac00ac45480d6db3bf57,,,"G:\\!genesis\\1\\14.139.43.151\\The Art of Money Getting, or Golden Rules for Making Money - P. T. Barnum_1388.pdf",0,2000-01-01 01:00:00,2016-04-03 02:51:08,,,
18412915,The Art of Public Speaking,,,,Dale Breckenridge Carnegie,1905,,Feedbooks,,1519,0,English,,,,,,,,,,,,,,1387,0,,,,,,,1,2658276,pdf,46ef43eab080f1394301d84fca3e59f7,,,G:\\!genesis\\1\\14.139.43.151\\The Art of Public Speaking - Dale Breckenridge Carnegie_1387.pdf,0,2000-01-01 01:00:00,2016-04-03 02:51:08,,,
18412916,The Art of Public Speaking,,,,J Berg Esenwein & Dale Carnagey,2013,,Createspace Independent Pub,,299,0,English,,,,"1494852071,9781494852078",,,,,,,,-JcqngEACAAJ,,1935,0,,,,,,,1,698530,pdf,1bfebbca1a0962fe32ca6f3f1d371dce,,,G:\\!genesis\\1\\14.139.43.151\\The Art of Public Speaking - J Berg Esenwein &amp; Dale Carnagey_1935.pdf,0,2000-01-01 01:00:00,2016-04-03 02:51:08,,,
18412917,The Art of Public Speaking,,,,J. Berg Esenwein,2008,,Read Books,,279,0,English,,,,9781409783589,,,,,,,,9cqingEACAAJ,,1906,0,,,,,,,1,892576,pdf,60768b97c45cff6300daeeba730bede8,,,G:\\!genesis\\1\\14.139.43.151\\The Art of Public Speaking - J. Berg Esenwein_1906.pdf,0,2000-01-01 01:00:00,2016-04-03 02:51:08,,,
18412918,The Art of War,,,,Sun Tzu,,,Feedbooks,,144,0,English,,,,,,,,,,,,,,1383,0,,,,,,,1,513250,pdf,99ba8cdac49fd29aeb340e0881bf65f9,,,G:\\!genesis\\1\\14.139.43.151\\The Art of War - Sun Tzu_1383.pdf,0,2000-01-01 01:00:00,2016-04-03 02:51:08,,,
18412919,The Art of Writing and Speaking the English Language: Word-Study and Composition &amp; Rhetoric,,,,Sherwin Cody,2012,,Oxford City Press,,131,0,English,,,,"1781391858,9781781391853",,,,,,,,,,1856,0,,,,,,,1,674109,pdf,5fc8fff43428124247dfec15607a9651,,,G:\\!genesis\\1\\14.139.43.151\\The Art of Writing and Speaking the English Language_ Word-Study and Composition &amp; Rhetoric - Sherwin Cody_1856.pdf,0,2000-01-01 01:00:00,2016-04-03 02:51:08,,,
18412920,The Articles of Confederation,,,,Benjamin Franklin,1781,,Feedbooks,,168,0,English,,,,,,,,,,,,,,1381,0,,,,,,,1,678030,pdf,2c1e2730d16aef2569912b8ff23f0f7b,,,G:\\!genesis\\1\\14.139.43.151\\The Articles of Confederation - Benjamin Franklin_1381.pdf,0,2000-01-01 01:00:00,2016-04-03 02:51:08,,,
18412921,The Asia-Europe Meeting: Contributing to a New Global Governance Architecture: The Eighth ASEM Summit in Brussels (2010),,,,Sebastian Bersick & Paul van Der Velde,2011,,Amsterdam University Press,,265,0,English,,,,"9089643435,9789089643438",,,,,,,,lhEBjUILQl4C,,1709,0,,,,,,,1,3797810,pdf,e0e46f43ccb1da7c732c3f9a8309f4bd,,,G:\\!genesis\\1\\14.139.43.151\\The Asia-Europe Meeting_ Contributing to a New Global Governance Architecture_ The Eighth ASEM Summit in Brussels (2010) - Sebastian Bersick &amp; Paul van Der Velde_1709.pdf,0,2000-01-01 01:00:00,2016-04-03 02:51:08,,,
18412922,The Basics of Business Models,,,,Bookboon.com,,,,,138,0,English,,,,,,,,,,,,,,2181,0,,,,,,,0,5344149,pdf,fa5fdee9b4375e832c1dc8d40ae224dc,,,G:\\!genesis\\1\\14.139.43.151\\The Basics of Business Models - Bookboon.com_2181.pdf,0,2000-01-01 01:00:00,2016-04-03 02:51:08,,,
18412923,The Behavioral and Social Sciences: Achievements and Opportunities,,,,Dean R. Gerstein & R. Duncan Luce & Neil J. Smelser & Sonja Sperlich,,,The Indian National Academics,,301,0,English,,,,,,,,,,,,,,591,0,,,,,,,1,3767045,pdf,353cc63b67f96e41bc99253e4fa755c8,,,G:\\!genesis\\1\\14.139.43.151\\The Behavioral and Social Sciences_ Achievements and Opportunities - Dean R. Gerstein &amp; R. Duncan Luce &amp; Neil J. Smelser &amp; Sonja Sperlich_591.pdf,0,2000-01-01 01:00:00,2016-04-03 02:51:08,,,
18412924,The Belgian Curtain - Europe after Communism,,,,Sam Vaknin,,,,,143,0,English,,,,,,,,,,,,,,2028,0,,,,,,,1,411470,pdf,0c92d4ec1d3047d8b56542335e7bf154,,,G:\\!genesis\\1\\14.139.43.151\\The Belgian Curtain - Europe after Communism - Sam Vaknin_2028.pdf,0,2000-01-01 01:00:00,2016-04-03 02:51:08,,,
18412925,The Big Book of Nursery Rhymes (1920),,,,Walter Jerrold & Charles Robinson,2010,,"Kessinger Publishing, LLC",,54,0,English,,,,"1164129937,9781164129936",,,,,,,,,,1858,0,,,,,,,1,462007,pdf,4ef6e21dd32266d36ceff13bd40bca34,,,G:\\!genesis\\1\\14.139.43.151\\The Big Book of Nursery Rhymes (1920) - Walter Jerrold &amp; Charles Robinson_1858.pdf,0,2000-01-01 01:00:00,2016-04-03 02:51:08,,,
18412926,"The Book of Sports: Containing Out-Door Sports, Amusements and Recreations, Including Gymnastics, Gardening &amp; Carpentering (TREDITION CLASSICS)",,,,William Martin,2012,,tredition,,,0,English,,,,"3849168654,9783849168650",,,,,,,,,,627,0,,,,,,,0,1318199,epub,0bfc41821c1cb171b5279789a8f25a8a,,,"G:\\!genesis\\1\\14.139.43.151\\The Book of Sports_ Containing Out-Door Sports, Amusements and Recreations, Including Gymnastics, Gardening &amp; Carpentering (TREDITION CLASSICS) - William Martin_627.epub",0,2000-01-01 01:00:00,2016-04-03 02:51:08,,,
18412927,The Booklover and His Books,,,,Lyman Harry Koopman,2008,,IndyPublish,,,0,English,,,,"1435392868,9781435392861",,,,,,,,,,629,0,,,,,,,0,384077,epub,b8268be60c737d4672d82508c2199de3,,,G:\\!genesis\\1\\14.139.43.151\\The Booklover and His Books - Lyman Harry Koopman_629.epub,0,2000-01-01 01:00:00,2016-04-03 02:51:08,,,
18412928,The Borgias,,,,Alexandre Dumas,1840,,Feedbooks,,727,0,English,,,,,,,,,,,,,,1391,0,,,,,,,1,1482691,pdf,8b11e5f7902ac5ba97044ed5c435644a,,,G:\\!genesis\\1\\14.139.43.151\\The Borgias - Alexandre Dumas_1391.pdf,0,2000-01-01 01:00:00,2016-04-03 02:51:08,,,
18412929,The Business Career in Its Public Relations,,,,Albert Shaw,2012,,Nabu Press,,20,0,English,,,,9781286094068,,B004TQGC6W,,,,,,TtHnlAEACAAJ,,1850,0,,,,,,,1,520220,pdf,d0f257f1604e6c48c827b27d23633012,,,G:\\!genesis\\1\\14.139.43.151\\The Business Career in Its Public Relations - Albert Shaw_1850.pdf,0,2000-01-01 01:00:00,2016-04-03 02:51:08,,,
18412930,The Business of Being a Woman (1912),,,,Ida M Tarbell,2010,,Kessinger Publishing,,53,0,English,,,,9781164299646,,,,,,,,K4MmkgAACAAJ,,663,0,,,,,,,1,433796,pdf,2107a9449caaa2ebc9e66c2a75e218a3,,,G:\\!genesis\\1\\14.139.43.151\\The Business of Being a Woman (1912) - Ida M Tarbell_663.pdf,0,2000-01-01 01:00:00,2016-04-03 02:51:08,,,
18412931,"The Capital Asset Pricing Model in the 21st Century: Analytical, Empirical, and Behavioral Perspectives",,,,Haim Levy,2012,,Cambridge University Press,,469,0,English,,,,"1139017454,9781139017459",,,,,,,,,,682,0,,,,,,,1,4432204,pdf,b846ed249b18e82df853c78a1a9dda3e,,,"G:\\!genesis\\1\\14.139.43.151\\The Capital Asset Pricing Model in the 21st Century_ Analytical, Empirical, and Behavioral Perspectives - Haim Levy_682.pdf",0,2000-01-01 01:00:00,2016-04-03 02:51:08,,,
18412932,The Capture of a Slaver,,,,John Taylor Wood,1900,,Feedbooks,,92,0,English,,,,,,,,,,,,,,1386,0,,,,,,,1,486586,pdf,d4e0ec4eccc8e86290fedbb21d24537a,,,G:\\!genesis\\1\\14.139.43.151\\The Capture of a Slaver - John Taylor Wood_1386.pdf,0,2000-01-01 01:00:00,2016-04-03 02:51:08,,,
18412933,The Care of Books,,,,John Willis Clark,2008,,,,,0,English,,,,1449130240,,B004UJRYBA,,,,,,,,690,0,,,,,,,0,6000751,epub,fa54ba12430d4b1186aa065fb70c12ae,,,G:\\!genesis\\1\\14.139.43.151\\The Care of Books - John Willis Clark_690.epub,0,2000-01-01 01:00:00,2016-04-03 02:51:08,,,
18412934,McMafia: A Journey Through the Global Criminal Underworld,,,,Misha Glenny,2009,Reprint,Vintage,,416,0,English,,,0,"1400095123,9781400095124",,,,,,,,,,,0,,,,,,,,5260710,mobi,53b439b64d6d1c46741b2f92d247cf82,,,53b439b64d6d1c46741b2f92d247cf82.mobi,0,2000-01-01 01:00:00,2016-04-03 02:51:08,1054000/53b439b64d6d1c46741b2f92d247cf82-d.jpg,,
18412935,The Changing Political Economies of Small West European Countries,,,,Uwe Becker,2011,,Amsterdam University Press,,241,0,English,,,,"9089643311,9789089643315",,,,,,,,gegxvJR7xhQC,,1667,0,,,,,,,1,1499325,pdf,fb00b7c829d354da8ec373708fa8124d,,,G:\\!genesis\\1\\14.139.43.151\\The Changing Political Economies of Small West European Countries - Uwe Becker_1667.pdf,0,2000-01-01 01:00:00,2016-04-03 02:51:08,,,
18412936,The Changing South Pacific: Identities and Transformations,,,,Serge Tcherk√©zoff & Fran√ßoise Douaire-Marsaudon,2011,,ANU E Press,,348,0,English,,,,"1921536144,9781921536144",,,,,,,,,,1753,0,,,,,,,1,1232877,pdf,e164a7362b23de248d60b2eae5a45098,,,G:\\!genesis\\1\\14.139.43.151\\The Changing South Pacific_ Identities and Transformations - Serge Tcherkezoff &amp; Francoise Douaire-Marsaudon_1753.pdf,0,2000-01-01 01:00:00,2016-04-03 02:51:08,,,
18412937,The Children: Some Educational Problems,,,,Alexander Darroch,,,,,71,0,English,,,,,,,,,,,,,,695,0,,,,,,,1,451880,pdf,ab9bd0122bd449df90f05ef7df65ff7b,,,G:\\!genesis\\1\\14.139.43.151\\The Children_ Some Educational Problems - Alexander Darroch_695.pdf,0,2000-01-01 01:00:00,2016-04-03 02:51:08,,,
18412938,The Chinese Exotic: Modern Diasporic Femininity,,,,Olivia Khoo,2007,,Hong Kong University Press,,227,0,English,,,,"9622098894,9789622098794",,,,,,,,0SLQkqcdPp4C,,1725,0,,,,,,,1,2448177,pdf,c995e252546519c124291196fff674f9,,,G:\\!genesis\\1\\14.139.43.151\\The Chinese Exotic_ Modern Diasporic Femininity - Olivia Khoo_1725.pdf,0,2000-01-01 01:00:00,2016-04-03 02:51:08,,,
18412939,The Code of Hammurabi,,,,Hammurabi,1790,,Feedbooks,,109,0,English,,,,,,,,,,,,,,1398,0,,,,,,,1,455461,pdf,f1e65ef5835ebc465761cc3e917d4026,,,G:\\!genesis\\1\\14.139.43.151\\The Code of Hammurabi - Hammurabi_1398.pdf,0,2000-01-01 01:00:00,2016-04-03 02:51:08,,,
18412940,The Communist Manifesto,,,,Karl Marx & Friedrich Engels,2010,,CreateSpace Independent Publishing Platform,,25,0,English,,,,"1629100048,9781453704424",,,,,,,,,,1857,0,,,,,,,1,368098,pdf,388d974e3a67cfdd8c8b100e8a3875f3,,,G:\\!genesis\\1\\14.139.43.151\\The Communist Manifesto - Karl Marx &amp; Friedrich Engels_1857.pdf,0,2000-01-01 01:00:00,2016-04-03 02:51:08,,,
18412941,THE COMPARATIVE ARCHAEOLOGY OF COMPLEX SOCIETIES,,,,Michael E. Smith,2011,,Cambridge University Press,,370,0,English,,,,,,,,,,,,,,599,0,,,,,,,1,4739910,pdf,253280dfa68ed2cbe6752394d1c316cf,,,G:\\!genesis\\1\\14.139.43.151\\THE COMPARATIVE ARCHAEOLOGY OF COMPLEX SOCIETIES - Michael E. Smith_599.pdf,0,2000-01-01 01:00:00,2016-04-03 02:51:08,,,
18412942,The Complete Aristotle,,,,Aristotle,,,Feedbooks,,9537,0,English,,,,,,,,,,,,,,1394,0,,,,,,,1,14903945,pdf,afb147309800717d6c707645ed03a9d7,,,G:\\!genesis\\1\\14.139.43.151\\The Complete Aristotle - Aristotle_1394.pdf,0,2000-01-01 01:00:00,2016-04-03 02:51:08,,,
18412943,The Complete Plato,,,,Plato,,,Feedbooks,,5791,0,English,,,,,,,,,,,,,,1393,0,,,,,,,1,9010336,pdf,1a5f7008a7af6e34704c01188b7a5cd0,,,G:\\!genesis\\1\\14.139.43.151\\The Complete Plato - Plato_1393.pdf,0,2000-01-01 01:00:00,2016-04-03 02:51:08,,,
18412944,The Condition and Tendencies of Technical Education in Germany,,,,Arthur Henry Chamberlain,,,,,32,0,English,,,,,,,,,,,,,,641,0,,,,,,,1,361044,pdf,c6ae0cf7b182ed3597d2646443d94276,,,G:\\!genesis\\1\\14.139.43.151\\The Condition and Tendencies of Technical Education in Germany - Arthur Henry Chamberlain_641.pdf,0,2000-01-01 01:00:00,2016-04-03 02:51:08,,,
18412945,The Conquest of Poverty,,,,Henry Hazlitt,2012,,Ludwig von Mises Institute,,242,0,English,,,,,,B0076DGJ7M,,,,,,,,650,0,,,,,,,1,10920659,pdf,1dccda3dadb307a1794ea84c58a79a51,,,G:\\!genesis\\1\\14.139.43.151\\The Conquest of Poverty - Henry Hazlitt_650.pdf,0,2000-01-01 01:00:00,2016-04-03 02:51:08,,,
18412946,The Consequences of the Global Financial Crisis: The Rhetoric of Reform and Regulation,,,,Wyn Grant & Graham K. Wilson,2012,,"Oxford University Press, USA",,287,0,English,,,,"0199641986,9780199641987",,,,,,,,,,1741,0,,,,,,,1,2118595,pdf,b5a643b3ea0ef3685687713df77fdd33,,,G:\\!genesis\\1\\14.139.43.151\\The Consequences of the Global Financial Crisis_ The Rhetoric of Reform and Regulation - Wyn Grant &amp; Graham K. Wilson_1741.pdf,0,2000-01-01 01:00:00,2016-04-03 02:51:08,,,
18412947,The Constitution of India,,,,India,,,,,479,0,English,,,,,,,,,,,,,,651,0,,,,,,,0,235243125,pdf,8ce36b3c38153a7f94a6913f80710ded,,,G:\\!genesis\\1\\14.139.43.151\\The Constitution of India - India_651.pdf,0,2000-01-01 01:00:00,2016-04-03 02:51:08,,,
18412948,„Åä„Çä„Åå„Åø„Å≠„Åò„ÇäÊäò„Çä /</div>Origami nejiriori,,"Origami koÃÑboÃÑ, Fujimoto shuÃÑzoÃÑ waÃÑrudo.",,Shuzo Fujimoto / Ëó§Êú¨ ‰øÆ‰∏â,2012.,,SeibundoÃÑshinkoÃÑsha,"Ë™†ÊñáÂ†ÇÊñ∞ÂÖâÁ§æ, ToÃÑkyoÃÑ",93 p. ; 23 cm.,0,Japanese,,,0,"9784416312001,4416312008",,,,,,,,,,,0,1,,0,,1,0,0,14162269,pdf,c865a86da3e0dd85a183833ef70c9fd9,,,Fujimoto - Twisted Folding.pdf,0,2000-01-01 01:00:00,2016-04-03 02:51:08,http://thumbnail.image.rakuten.co.jp/@0_mall/book/cabinet/2001/9784416312001.jpg,,
18412949,The Conundrums of Psychology,,,,Sam Vaknin,,,Narcissus Publications,,153,0,English,,,,,,,,,,,,,,2225,0,,,,,,,1,456301,pdf,37dd211ac8fa72bd5330edbd491289f1,,,G:\\!genesis\\1\\14.139.43.151\\The Conundrums of Psychology - Sam Vaknin_2225.pdf,0,2000-01-01 01:00:00,2016-04-03 02:51:08,,,
18412950,The Conundrums of Psychology,,,,Sam Vaknin,,,,,153,0,English,,,,,,,,,,,,,,657,0,,,,,,,1,454618,pdf,5c6b107a2e39cbdf1b9f531500f9b148,,,G:\\!genesis\\1\\14.139.43.151\\The Conundrums of Psychology - Sam Vaknin_657.pdf,0,2000-01-01 01:00:00,2016-04-03 02:51:08,,,
18412951,The Counter Revolution of Science: Studies on the Abuse of Reason,,,,F. A. Hayek,1979,,The Free Press of Glencoe,,265,0,English,,,,,,B000UG9IDE,,,,,,,,1445,0,,,,,,,1,11832169,pdf,81d51137b07ca66d34035a7b5f29b3df,,,G:\\!genesis\\1\\14.139.43.151\\The Counter Revolution of Science_ Studies on the Abuse of Reason - F. A. Hayek_1445.pdf,0,2000-01-01 01:00:00,2016-04-03 02:51:08,,,
18412952,The Credibility of Transnational NGOs: When Virtue Is Not Enough,,,,Peter A. Gourevitch & David A. Lake & Janice Gross Stein,2012,,Cambridge University Press,,255,0,English,,,,,,,,,,,,,,696,0,,,,,,,1,2719034,pdf,516780c35896359c5e4a14e0a1fc48fd,,,G:\\!genesis\\1\\14.139.43.151\\The Credibility of Transnational NGOs_ When Virtue Is Not Enough - Peter A. Gourevitch &amp; David A. Lake &amp; Janice Gross Stein_696.pdf,0,2000-01-01 01:00:00,2016-04-03 02:51:08,,,
18412953,The Curse of Education,,,,Gorst Harold Edward 1868- & Hardpress,2013,,HardPress,,66,0,English,,,,"1313854174,9781313854177",,,,,,,,ANBmmwEACAAJ,,733,0,,,,,,,1,420140,pdf,6dd93f8c0e9185175cf328e88202697e,,,G:\\!genesis\\1\\14.139.43.151\\The Curse of Education - Gorst Harold Edward 1868- &amp; Hardpress_733.pdf,0,2000-01-01 01:00:00,2016-04-03 02:51:08,,,
18412954,The Curving Mirror of Time: approaches to culture theory 2,,,,Halliki Harro-Loit & Katrin Kello,,,University of Tartu Press,,192,0,English,,,,,,,,,,,,,,1714,0,,,,,,,1,9100447,pdf,6479f482eb48983661b582b22499c23b,,,G:\\!genesis\\1\\14.139.43.151\\The Curving Mirror of Time_ approaches to culture theory 2 - Halliki Harro-Loit &amp; Katrin Kello_1714.pdf,0,2000-01-01 01:00:00,2016-04-03 02:51:08,,,
18412955,THE DEAF: THEIR POSITION IN SOCIETY AND THE PROVISION FOR THEIR EDUCATION in the UNITED STATES,,,,Harry Best,,,,,168,0,English,,,,,,,,,,,,,,735,0,,,,,,,1,644698,pdf,3c490324c6665ede43485815f138e8c3,,,G:\\!genesis\\1\\14.139.43.151\\THE DEAF_ THEIR POSITION IN SOCIETY AND THE PROVISION FOR THEIR EDUCATION IN THE UNITED STATES - Harry Best_735.pdf,0,2000-01-01 01:00:00,2016-04-03 02:51:08,,,
18412956,The Development of Economics,,,,William Amasa Scott,,,Appleton-Century,,550,0,English,,,,,,,,,,,,dzFQnQEACAAJ,,745,0,,,,,,,1,26605325,pdf,4223fbdc41945ee3c35d1aa8e618d1f0,,,G:\\!genesis\\1\\14.139.43.151\\The Development of Economics - William Amasa Scott_745.pdf,0,2000-01-01 01:00:00,2016-04-03 02:51:08,,,
18412957,The Developmental Psychology of Psychopathology,,,,Sam Vaknin & Lidija Rangelovska,2013,,Narcissus Publications,,184,0,English,,,,,,B0054JIQIK,,,,,,,,746,0,,,,,,,1,536027,pdf,c789b002bb1e04eb70425ff732d1d3af,,,G:\\!genesis\\1\\14.139.43.151\\The Developmental Psychology of Psychopathology - Sam Vaknin &amp; Lidija Rangelovska_746.pdf,0,2000-01-01 01:00:00,2016-04-03 02:51:08,,,
18412958,The Developmental Psychology of Psychopathology,,,,Sam Vaknin,,,,,184,0,English,,,,,,,,,,,,,,2233,0,,,,,,,1,537885,pdf,73fd01ee13a0c4eea66eb2383a64248a,,,G:\\!genesis\\1\\14.139.43.151\\The Developmental Psychology of Psychopathology - Sam Vaknin_2233.pdf,0,2000-01-01 01:00:00,2016-04-03 02:51:08,,,
18412959,The Diary of a U-boat Commander,,,,Sir William Stephen Richard King-Hall,1918,,Feedbooks,,430,0,English,,,,,,,,,,,,,,1396,0,,,,,,,1,1102034,pdf,64a1836f81317f66fcc46b598fc3730f,,,G:\\!genesis\\1\\14.139.43.151\\The Diary of a U-boat Commander - Sir William Stephen Richard King-Hall_1396.pdf,0,2000-01-01 01:00:00,2016-04-03 02:51:08,,,
18412960,The Diary of a U-boat Commander,,,,Sir William Stephen Richard King-Hall,1918,,Feedbooks,,,0,English,,,,,,,,,,,,,,601,0,,,,,,,0,1249769,epub,4dafc703ae59df1a72d8f742ec779b4f,,,G:\\!genesis\\1\\14.139.43.151\\The Diary of a U-boat Commander - Sir William Stephen Richard King-Hall_601.epub,0,2000-01-01 01:00:00,2016-04-03 02:51:08,,,
18412961,The Dynamics of Beijing-Hong Kong Relations: A Model for Taiwan?,,,,Sonny Shiu-Hing Lo,2010,,Hong Kong University Press,,345,0,English,,,,,,B003NSBS9I,,,,,,,,1562,0,,,,,,,1,1440427,pdf,b49110c0e61a57924718bf2fbe9e6495,,,G:\\!genesis\\1\\14.139.43.151\\The Dynamics of Beijing-Hong Kong Relations_ A Model for Taiwan_ - Sonny Shiu-Hing Lo_1562.pdf,0,2000-01-01 01:00:00,2016-04-03 02:51:08,,,
18412962,THE DYSREGULATED ADULT: Integrated Treatment Approaches,,,,Georgia A. DeGangi,,,Elsevier,,498,0,English,,,,9780123850119,,,,,,,,,,643,0,,,,,,,1,11280240,pdf,2a1a209af6f629eee37388b6db4f3b91,,,G:\\!genesis\\1\\14.139.43.151\\THE DYSREGULATED ADULT_ Integrated Treatment Approaches - Georgia A. DeGangi_643.pdf,0,2000-01-01 01:00:00,2016-04-03 02:51:08,,,
18412963,The Economic Point of View.,,,,Israel M. Kirzner,2009,,Liberty Fund,,250,0,English,,,,"086597733X,9780865977334",,,,,,,,x5QlnwEACAAJ,,658,0,,,,,,,1,20524635,pdf,22e4b04b386d82487eaeec8e86d83830,,,G:\\!genesis\\1\\14.139.43.151\\The Economic Point of View_ - Israel M. Kirzner_658.pdf,0,2000-01-01 01:00:00,2016-04-03 02:51:08,,,
18412964,"The Economics of Freedom Theory, Measurement, and Policy Implications",,,,"SEBASTIANO BAVETTA, PIETRO NAVARRA",2012,,Cambridge University Press,,231,0,English,,,,,,,,,,,,,,1389,0,,,,,,,1,1338662,pdf,7a6755f047c428c570233b73d7bbc31d,,,"G:\\!genesis\\1\\14.139.43.151\\The Economics of Freedom Theory, Measurement, and Policy Implications - SEBASTIANO BAVETTA, PIETRO NAVARRA_1389.pdf",0,2000-01-01 01:00:00,2016-04-03 02:51:08,,,
18412965,"The Economics of Freedom Theory, Measurement, and Policy Implications",,,,"SEBASTIANO BAVETTA, PIETRO NAVARRA",2012,,Cambridge University Press,,,0,English,,,,,,,,,,,,,,678,0,,,,,,,0,733857,mobi,76c0fdccc72a51617bfdbaefc9e4779b,,,"G:\\!genesis\\1\\14.139.43.151\\The Economics of Freedom Theory, Measurement, and Policy Implications - SEBASTIANO BAVETTA, PIETRO NAVARRA_678.mobi",0,2000-01-01 01:00:00,2016-04-03 02:51:08,,,
18412966,The Economics of Illusion: A Critical Analysis of Contemporary Economic Theory and Policy,,,,Lucien Albert Hahn,2007,,Ludwig von Mises Institute,,282,0,English,,,,,,B000XG6RK8,,,,,,tAgrnwEACAAJ,,679,0,,,,,,,1,13146439,pdf,ab662057279daa7ccc71131887b99b35,,,G:\\!genesis\\1\\14.139.43.151\\The Economics of Illusion_ A Critical Analysis of Contemporary Economic Theory and Policy - Lucien Albert Hahn_679.pdf,0,2000-01-01 01:00:00,2016-04-03 02:51:08,,,
18412967,"The Economics of John Kenneth Galbraith: Introduction, Persuasion, and Rehabilitation",,,,Stephen P. Dunn,2010,,Cambridge University Press,,471,0,English,,,,"0521518768,9780521518765",,,,,,,,,,1384,0,,,,,,,1,4509315,pdf,7ff0fef9922ed4a404dba44b81926381,,,"G:\\!genesis\\1\\14.139.43.151\\The Economics of John Kenneth Galbraith_ Introduction, Persuasion, and Rehabilitation - Stephen P. Dunn_1384.pdf",0,2000-01-01 01:00:00,2016-04-03 02:51:08,,,
18412968,"The Economics of John Kenneth Galbraith: Introduction, Persuasion, and Rehabilitation",,,,Stephen P. Dunn,2010,,Cambridge University Press,,,0,English,,,,"0521518768,9780521518765",,,,,,,,,,703,0,,,,,,,0,2524432,mobi,f0c0d1cd30a997f448268d5863b8387d,,,"G:\\!genesis\\1\\14.139.43.151\\The Economics of John Kenneth Galbraith_ Introduction, Persuasion, and Rehabilitation - Stephen P. Dunn_703.mobi",0,2000-01-01 01:00:00,2016-04-03 02:51:08,,,
18412969,The Economics of Prohibition,,,,Mark Thornton & Doug Bandow,2012,,Ludwig von Mises Institute,,190,0,English,,,,,,B0075BPMRS,,,,,,,,705,0,,,,,,,1,9673315,pdf,8046f4e88112f74f611757349e69f84c,,,G:\\!genesis\\1\\14.139.43.151\\The Economics of Prohibition - Mark Thornton &amp; Doug Bandow_705.pdf,0,2000-01-01 01:00:00,2016-04-03 02:51:08,,,
18412970,The Education of American Girls,,,,Anna Callender Brackett & Callender Anna Brackett,2008,,IndyPublish,,158,0,English,,,,"1437802230,9781437802238",,,,,,,,CCUbngEACAAJ,,711,0,,,,,,,1,684786,pdf,7c6ff191bafbe78832a461961cdc37dc,,,G:\\!genesis\\1\\14.139.43.151\\The Education of American Girls - Anna Callender Brackett &amp; Callender Anna Brackett_711.pdf,0,2000-01-01 01:00:00,2016-04-03 02:51:08,,,
18412971,The Education of Catholic Girls,,,,Janet Erskine Stuart,2012,,tredition,,93,0,English,,,,9783847204305,,,,,,,,mkEi1nqHjE8C,,721,0,,,,,,,1,475747,pdf,b6a278e9bd1f785a190db9043389aa9e,,,G:\\!genesis\\1\\14.139.43.151\\The Education of Catholic Girls - Janet Erskine Stuart_721.pdf,0,2000-01-01 01:00:00,2016-04-03 02:51:08,,,
18412972,The Education of Children,,,,Desiderius Erasmus,2012,,Tredition Classics,,33,0,English,,,,"3847213040,9783847213048",,,,,,,,0VuakgEACAAJ,,722,0,,,,,,,1,375165,pdf,ca4f07ac28a2385362d7ca045085cc05,,,G:\\!genesis\\1\\14.139.43.151\\The Education of Children - Desiderius Erasmus_722.pdf,0,2000-01-01 01:00:00,2016-04-03 02:51:08,,,
18412973,The Education of Eric Lane,,,,Stephen McKenna,2012,,BiblioBazaar,,162,0,English,,,,9781286764480,,,,,,,,oWIvMAEACAAJ,,723,0,,,,,,,1,641618,pdf,75c7090078a9009274802a29728bf191,,,G:\\!genesis\\1\\14.139.43.151\\The Education of Eric Lane - Stephen McKenna_723.pdf,0,2000-01-01 01:00:00,2016-04-03 02:51:08,,,
18412974,The Education of Henry Adams,,,,Henry Adams,,,,,219,0,English,,,,,,,,,,,,,,724,0,,,,,,,1,1003176,pdf,9dc1e340a2d4a09d4545db0d7a99ad3d,,,G:\\!genesis\\1\\14.139.43.151\\The Education of Henry Adams - Henry Adams_724.pdf,0,2000-01-01 01:00:00,2016-04-03 02:51:08,,,
18412975,The Education of King Peter,,,,Edgar Wallace,2013,,Peril Press,,12,0,English,,,,,,B00FVXQ3WK,,,,,,,,725,0,,,,,,,1,234411,pdf,f1346ba8e7e478e2be4e373109f10477,,,G:\\!genesis\\1\\14.139.43.151\\The Education of King Peter - Edgar Wallace_725.pdf,0,2000-01-01 01:00:00,2016-04-03 02:51:08,,,
18412976,The Education of the Child,,,,Ellen Key,2006,,ReadHowYouWant.com,,28,0,English,,,,1451009895,,B0083ZY7SU,,,,,,sztpXRq-kYwC,,738,0,,,,,,,1,383132,pdf,f25cad951fd8063abfb8ff8ec16ba467,,,G:\\!genesis\\1\\14.139.43.151\\The Education of the Child - Ellen Key_738.pdf,0,2000-01-01 01:00:00,2016-04-03 02:51:08,,,
18412977,The Education of the Negro Prior to 1861: A History of the Education of the Colored People of the United States From the Beginning of Slavery to the Civil War,,,,Carter Godwin Woodson,1915,,BiblioBazaar,,191,0,English,,,,"1886433380,9781434630223",,,,,,,,2HiC1ZlgEO0C,,748,0,,,,,,,1,674573,pdf,f4fd22b25b8be8c6605a306767ba35e2,,,G:\\!genesis\\1\\14.139.43.151\\The Education of the Negro Prior to 1861_ A History of the Education of the Colored People of the United States From the Beginning of Slavery to the Civil War - Carter Godwin Woodson_748.pdf,0,2000-01-01 01:00:00,2016-04-03 02:51:08,,,
18412978,The Egg Breakers Counter Terrorism in Sub Saharan Africa,,,,Jacobus Kotze,,,obooko.com,,236,0,English,,,,,,,,,,,,,,773,0,,,,,,,1,1164771,pdf,93e418adcf45e8752a86eff7868b2328,,,G:\\!genesis\\1\\14.139.43.151\\The Egg Breakers Counter Terrorism in Sub Saharan Africa - Jacobus Kotze_773.pdf,0,2000-01-01 01:00:00,2016-04-03 02:51:08,,,
18412979,The End of Texas,,,,Juan Batista,,,,,140,0,English,,,,,,B005QRPHB4,,,,,,,,1240,0,,,,,,,1,521040,pdf,fabbbd280995a057b32c35c1422da501,,,G:\\!genesis\\1\\14.139.43.151\\The End of Texas - Juan Batista_1240.pdf,0,2000-01-01 01:00:00,2016-04-03 02:51:08,,,
18412980,The Englishwoman in America,,,,Isabella Lucy Bird,2007,,Applewood Books,,177,0,English,,,,9781429003377,,,,,,,,woysoMJU8PAC,,1242,0,,,,,,,1,806807,pdf,37fac2e4e794ca892a7e3df6c81fb2d4,,,G:\\!genesis\\1\\14.139.43.151\\The Englishwoman in America - Isabella Lucy Bird_1242.pdf,0,2000-01-01 01:00:00,2016-04-03 02:51:08,,,
18412981,The Enquiring Classroom,,,,Stephen Rowland,2014,,Routledge,,177,0,English,,,,"0415750970,9780415750974",,,,,,,,,,1249,0,,,,,,,1,11740382,pdf,18da6569456bc4643018d5046a7ad81e,,,G:\\!genesis\\1\\14.139.43.151\\The Enquiring Classroom - Stephen Rowland_1249.pdf,0,2000-01-01 01:00:00,2016-04-03 02:51:08,,,
18412982,The Ethnic Crucible: Harmony &amp; Hostility in MultiSHEthnic Schools,,,,Gajendra K. Verma & Paul Zec & George Skinner,1994,,Routledge,,186,0,English,,,,"0750703784,9780750703376",,,,,,,,aB0-ngEACAAJ,,1268,0,,,,,,,1,4034876,pdf,35b46f2a1b683de9f4c49a8059150a64,,,G:\\!genesis\\1\\14.139.43.151\\The Ethnic Crucible_ Harmony &amp; Hostility in MultiSHEthnic Schools - Gajendra K. Verma &amp; Paul Zec &amp; George Skinner_1268.pdf,0,2000-01-01 01:00:00,2016-04-03 02:51:08,,,
18412983,The Europe of Elites: A Study Into the Europeanness of Europe's Political and Economic Elites,,,,Heinrich Best & Gy√∂rgy Lengyel & Luca Verzichelli,2012,,Oxford University Press,,314,0,English,,,,"019960231X,9780199602315",,,,,,,,grEI3cVw_AYC,,1742,0,,,,,,,1,2102508,pdf,e9636d139a2264b5c9307730fb3e4130,,,G:\\!genesis\\1\\14.139.43.151\\The Europe of Elites_ A Study Into the Europeanness of Europe&#39;s Political and Economic Elites - Heinrich Best &amp; Gyorgy Lengyel &amp; Luca Verzichelli_1742.pdf,0,2000-01-01 01:00:00,2016-04-03 02:51:08,,,
18412984,The European Union's Fight Against Corruption: The Evolving Policy Towards Member States and Candidate Countries,,,,Patrycja Szarek-Mason,2010,,Cambridge University Press,,330,0,English,,,,"0521113571,9780521113571",,,,,,,,,,1309,0,,,,,,,1,2919808,pdf,ab68d780dc7abb7d914f03cddd1e90ca,,,G:\\!genesis\\1\\14.139.43.151\\The European Union&#39;s Fight Against Corruption_ The Evolving Policy Towards Member States and Candidate Countries - Patrycja Szarek-Mason_1309.pdf,0,2000-01-01 01:00:00,2016-04-03 02:51:08,,,
18412985,The Exporter's Handbook,,,,Sam Vaknin,,,,,55,0,English,,,,,,,,,,,,,,1282,0,,,,,,,1,272919,pdf,8ecd22f7ed4cc869ca453274eb68a712,,,G:\\!genesis\\1\\14.139.43.151\\The Exporter&#39;s Handbook - Sam Vaknin_1282.pdf,0,2000-01-01 01:00:00,2016-04-03 02:51:08,,,
18412986,The Facts and Fictions of the Securities Industry,,,,Sam Vaknin & Lidija Rangelovska,2013,,Narcissus Publications,,289,0,English,,,,,,B0054JJ08U,,,,,,,,1283,0,,,,,,,1,864839,pdf,91b6f16ca474d5815121582de3352aff,,,G:\\!genesis\\1\\14.139.43.151\\The Facts and Fictions of the Securities Industry - Sam Vaknin &amp; Lidija Rangelovska_1283.pdf,0,2000-01-01 01:00:00,2016-04-03 02:51:08,,,
18412987,The Faith of Isl√°m,,,,Edward Sell,2002,,Adegi Graphics LLC,,149,0,English,,,,"0543969630,9780543969637",,,,,,,,66vVU9DrneMC,,1284,0,,,,,,,1,664389,pdf,940254fec3d8d153d175819a05128e8e,,,G:\\!genesis\\1\\14.139.43.151\\The Faith of Islam - Edward Sell_1284.pdf,0,2000-01-01 01:00:00,2016-04-03 02:51:08,,,
18412988,The Faith of Islam,,,,Sell Edward 1839-,2013,,HardPress Publishing,,,0,English,,,,"1314512404,9781314512403",,,,,,,,,,1285,0,,,,,,,0,277734,epub,7b4695baa9f72a882bf6e42676904307,,,G:\\!genesis\\1\\14.139.43.151\\The Faith of Islam - Sell Edward 1839-_1285.epub,0,2000-01-01 01:00:00,2016-04-03 02:51:08,,,
18412989,The Family in Question: Immigrant and Ethnic Minorities in Multicultural Europe,,,,Ralph Grillo,2008,,Amsterdam University Press,,321,0,English,,,,"9053568697,9789053568699",,,,,,,,Lj7_sVE6MlUC,,1580,0,,,,,,,1,1580871,pdf,585e0ab2a5aecfd4907b495b28043f81,,,G:\\!genesis\\1\\14.139.43.151\\The Family in Question_ Immigrant and Ethnic Minorities in Multicultural Europe - Ralph Grillo_1580.pdf,0,2000-01-01 01:00:00,2016-04-03 02:51:08,,,
18412990,The Federalist Papers,,,,Publius,1787,,Feedbooks,,,0,English,,,,,,,,,,,,,,1288,0,,,,,,,0,831859,epub,ec184d7f6b02909f70897f765cb53113,,,G:\\!genesis\\1\\14.139.43.151\\The Federalist Papers - Publius_1288.epub,0,2000-01-01 01:00:00,2016-04-03 02:51:08,,,
18412991,The Federalist Papers,,,,Publius,1787,,Feedbooks,,1776,0,English,,,,,,,,,,,,,,1306,0,,,,,,,1,3086953,pdf,1ce517ae1801e1aade815160790523a3,,,G:\\!genesis\\1\\14.139.43.151\\The Federalist Papers - Publius_1306.pdf,0,2000-01-01 01:00:00,2016-04-03 02:51:08,,,
18412992,The Foundations of Personality,,,,Abraham Myerson,2005,,"Cosimo, Inc.",,253,0,English,,,,"1596050667,9781499242188",,,,,,,,eo7flVflnpAC,,2136,0,,,,,,,1,732254,pdf,e47eecb68364b5d7b538f6416d39d501,,,G:\\!genesis\\1\\14.139.43.151\\The Foundations of Personality - Abraham Myerson_2136.pdf,0,2000-01-01 01:00:00,2016-04-03 02:51:08,,,
18412993,The Four Epochs of Woman's Life,,,,Anna M. Galbraith,2004,,Kessinger Publishing,,81,0,English,,,,"1419162888,9781419162886",,,,,,,,OuDgjLU6dVEC,,1298,0,,,,,,,1,403519,pdf,43605fa37260031d7f3d5e256cada997,,,G:\\!genesis\\1\\14.139.43.151\\The Four Epochs of Woman&#39;s Life - Anna M. Galbraith_1298.pdf,0,2000-01-01 01:00:00,2016-04-03 02:51:08,,,
18412994,The Four Epochs of Woman's Life; A Study in Hygiene,,,,Anna M B 1859 Galbraith,2010,,BiblioBazaar,,,0,English,,,,9781176623088,,,,,,,,mAGKcgAACAAJ,,1299,0,,,,,,,0,179393,epub,9e95f72845f287ed7776364e0b937f88,,,G:\\!genesis\\1\\14.139.43.151\\The Four Epochs of Woman&#39;s Life; A Study in Hygiene - Anna M B 1859 Galbraith_1299.epub,0,2000-01-01 01:00:00,2016-04-03 02:51:08,,,
18412995,The Four Epochs of Woman's Life; A Study in Hygiene,,,,Anna M. (anna Mary) Galbraith,2012,,HardPress Publishing,,,0,English,,,,"1290661014,9781290661010",,,,,,,,,,1304,0,,,,,,,0,174273,epub,55c85c19ab702dcd56bece2dc184ae79,,,G:\\!genesis\\1\\14.139.43.151\\The Four Epochs of Woman&#39;s Life; A Study in Hygiene - Anna M. (anna Mary) Galbraith_1304.epub,0,2000-01-01 01:00:00,2016-04-03 02:51:08,,,
18412996,The French Party System,,,,Jocelyn Evans,2003,,Manchester University Press,,233,0,English,,,,"0719061202,9780719061202",,,,,,,,,,1602,0,,,,,,,1,1874111,pdf,9e7c01c66873af54f30671d0098b7f98,,,G:\\!genesis\\1\\14.139.43.151\\The French Party System - Jocelyn Evans_1602.pdf,0,2000-01-01 01:00:00,2016-04-03 02:51:08,,,
18412997,The Freud Files: An Inquiry Into the History of Psychoanalysis,,,,Sonu Shamdasani & Mikkel Borch-Jacobsen,2011,,Cambridge University Press,,425,0,English,,,,"0521729785,9780521729789",,,,,,,,,,1301,0,,,,,,,1,2380614,pdf,19a6d5fa6916c05a1686b5d1645594ff,,,G:\\!genesis\\1\\14.139.43.151\\The Freud Files_ An Inquiry Into the History of Psychoanalysis - Sonu Shamdasani &amp; Mikkel Borch-Jacobsen_1301.pdf,0,2000-01-01 01:00:00,2016-04-03 02:51:08,,,
18412998,The Future of Industrial Relations in Europe: Proceedings of a Conference in Honour of Prof. W. Albeda,,,,Willem Dercksen & W. Albeda & Wetenschappelijke Raad Voor Het Regeringsbeleid (netherlands),1990,,SDU uitgeverij,,130,0,English,,,,9789012075237,,,,,,,,MzjxAAAAMAAJ,,1626,0,,,,,,,1,3374728,pdf,0d449916bef1b456065bf73c637e3d3a,,,G:\\!genesis\\1\\14.139.43.151\\The Future of Industrial Relations in Europe_ Proceedings of a Conference in Honour of Prof. W. Albeda - Willem Dercksen &amp; W. Albeda &amp; Wetenschappelijke Raad Voor Het Regeringsbeleid (netherlands)_1626.pdf,0,2000-01-01 01:00:00,2016-04-03 02:51:08,,,
18412999,The Future of International Law,,,,Hardpress & Oppenheim L 1858-1919,2013,,HardPress,,40,0,English,,,,"1313016195,9781313016193",,,,,,,,N2dAmQEACAAJ,,1860,0,,,,,,,1,367066,pdf,52ce459c26dc9abf2bfb1c34a6da9447,,,G:\\!genesis\\1\\14.139.43.151\\The Future of International Law - Hardpress &amp; Oppenheim L 1858-1919_1860.pdf,0,2000-01-01 01:00:00,2016-04-03 02:51:08,,,
18413000,The Future of Islam,,,,Wilfred Scawen Blunt,2012,,tredition,,,0,English,,,,9783847208204,,B0084AOF22,,,,,,QZu5c6j3bLUC,,1172,0,,,,,,,0,163682,epub,6ae686a74a2cfa9d54a267a98f0cf592,,,G:\\!genesis\\1\\14.139.43.151\\The Future of Islam - Wilfred Scawen Blunt_1172.epub,0,2000-01-01 01:00:00,2016-04-03 02:51:08,,,
18413001,The Future of Islam,,,,Wilfred Scawen Blunt,2012,,tredition,,65,0,English,,,,9783847208204,,B0084AOF22,,,,,,QZu5c6j3bLUC,,1321,0,,,,,,,1,482141,pdf,ef37f49238e848e0545c8cc2c06a4d49,,,G:\\!genesis\\1\\14.139.43.151\\The Future of Islam - Wilfred Scawen Blunt_1321.pdf,0,2000-01-01 01:00:00,2016-04-03 02:51:08,,,
18413002,The Game,,,,"London, Jack",2012,,Classics Reborn Publishing,,,0,English,,,,9781102830276,,,,,,,,R0907L1d2i8C,,1179,0,,,,,,,0,78446,epub,60727f4557ef8bfbdb9a29f9f22901c0,,,"G:\\!genesis\\1\\14.139.43.151\\The Game - London, Jack_1179.epub",0,2000-01-01 01:00:00,2016-04-03 02:51:08,,,
18413003,"The Gentlemen's Book of Etiquette, and Manual of Politeness; Being a Complete Guide for a Gentleman's Conduct in All His Relations Towards Society... F",,,,Cecil B. Hartley,2013,,Many Books.net,,152,0,English,,,,"123027538X,9781230275383",,,,,,,,cjJnngEACAAJ,,1862,0,,,,,,,1,599722,pdf,b91d0ccd90a08c30bd8684d78edc36bd,,,"G:\\!genesis\\1\\14.139.43.151\\The Gentlemen&#39;s Book of Etiquette, and Manual of Politeness; Being a Complete Guide for a Gentleman&#39;s Conduct in All His Relations Towards Society_. F - Cecil B. Hartley_1862.pdf",0,2000-01-01 01:00:00,2016-04-03 02:51:08,,,
18413004,The Girl and Her Religion,,,,Margaret Slattery,2008,,BiblioBazaar,,58,0,English,,,,9780554332987,,,,,,,,PGGujzhYEKwC,,1209,0,,,,,,,1,362958,pdf,25e720fb6018870aa5300bc5d5718fc0,,,G:\\!genesis\\1\\14.139.43.151\\The Girl and Her Religion - Margaret Slattery_1209.pdf,0,2000-01-01 01:00:00,2016-04-03 02:51:08,,,
18413005,The Gita according to GANDHI,,,,ABHAY,,,,,222,0,English,,,,,,,,,,,,,,1939,0,,,,,,,1,1068050,pdf,10fccbba58d5769f48decdd632555424,,,G:\\!genesis\\1\\14.139.43.151\\The Gita according to GANDHI - ABHAY_1939.pdf,0,2000-01-01 01:00:00,2016-04-03 02:51:08,,,
18413006,The Global AIDS Strategy,,,,World Health Organization,1992,,World Health OrganizationSeries: WHO AIDS Series [11],,30,0,English,,,,,,,,,,,,,,1491,0,,,,,,,0,1261526,pdf,a3cc5df4c0645e94bb331b7ae03c3c61,,,G:\\!genesis\\1\\14.139.43.151\\The Global AIDS Strategy - World Health Organization_1491.pdf,0,2000-01-01 01:00:00,2016-04-03 02:51:08,,,
18413007,The Global Right Wing and the Clash of World Politics (Cambridge Studies in Contentious Politics) Paperback,,,,Clifford Bob,2012,,Cambridge University Press,,249,0,English,,,,"0521145449,9780521145442",,,,,,,,,,1223,0,,,,,,,1,1397924,pdf,3f66ce3a6b5d3f49d1a4b0fe2dd036cd,,,G:\\!genesis\\1\\14.139.43.151\\The Global Right Wing and the Clash of World Politics (Cambridge Studies in Contentious Politics) Paperback - Clifford Bob_1223.pdf,0,2000-01-01 01:00:00,2016-04-03 02:51:08,,,
18413008,The Great Recession: Market Failure or Policy Failure? (Studies in Macroeconomic History) Hardcover,,,,Robert L. Hetzel,2012,,Cambridge University Press,,420,0,English,,,,"1107011884,9781107011885",,,,,,,,,,1238,0,,,,,,,1,4964950,pdf,53bf66a94cf6721f0992fa4c043230d3,,,G:\\!genesis\\1\\14.139.43.151\\The Great Recession_ Market Failure or Policy Failure_ (Studies in Macroeconomic History) Hardcover - Robert L. Hetzel_1238.pdf,0,2000-01-01 01:00:00,2016-04-03 02:51:08,,,
18413009,The Grimk√© Sisters,,,,Catherine H. Birney,2007,,BiblioBazaar,,157,0,English,,,,"0554135124,9780554135120",,,,,,,,,,1239,0,,,,,,,1,685179,pdf,ae8c73303d26010d60866bf16ab51e04,,,G:\\!genesis\\1\\14.139.43.151\\The Grimke Sisters - Catherine H. Birney_1239.pdf,0,2000-01-01 01:00:00,2016-04-03 02:51:08,,,
18413010,The Hidden Histories of War Crimes Trials,,,,Kevin Jon Heller & Gerry Simpson,2013,,"Oxford University Press, USA",,493,0,English,,,,"0199671141,9780199671144",,,,,,,,,,1767,0,,,,,,,1,3230753,pdf,df9dbbf56492721a1040c405459e6ee6,,,G:\\!genesis\\1\\14.139.43.151\\The Hidden Histories of War Crimes Trials - Kevin Jon Heller &amp; Gerry Simpson_1767.pdf,0,2000-01-01 01:00:00,2016-04-03 02:51:08,,,
18413011,The History Of Education,,,,ELLWOOD P. CUBBERLEY,,,,,495,0,English,,,,,,,,,,,,,,1094,0,,,,,,,1,1503748,pdf,f357d85103936198a4fb37de77c65e7b,,,G:\\!genesis\\1\\14.139.43.151\\The History Of Education - ELLWOOD P. CUBBERLEY_1094.pdf,0,2000-01-01 01:00:00,2016-04-03 02:51:08,,,
18413012,"The History of Woman Suffrage, Volume IV",,,,Ida Husted Harper & Susan B. (susan Brownell) Anthony,,,,,886,0,English,,,,,,B004TQJ9PI,,,,,,,,1114,0,,,,,,,1,2296704,pdf,f7495b4a00c1065bc5bdd8f9feb512e0,,,"G:\\!genesis\\1\\14.139.43.151\\The History of Woman Suffrage, Volume IV - Ida Husted Harper &amp; Susan B. (susan Brownell) Anthony_1114.pdf",0,2000-01-01 01:00:00,2016-04-03 02:51:08,,,
18413013,"The History of Woman Suffrage, Volume V",,,,Ida Husted Harper,,,,,546,0,English,,,,,,B004TQJFH0,,,,,,,,1115,0,,,,,,,1,1637356,pdf,2dd9869c92071884d8c6acd1d7feb982,,,"G:\\!genesis\\1\\14.139.43.151\\The History of Woman Suffrage, Volume V - Ida Husted Harper_1115.pdf",0,2000-01-01 01:00:00,2016-04-03 02:51:08,,,
18413014,The Human Rights Treaty Obligations of Peacekeepers,,,,Kjetil Mujezinovi¬¥c Larsen,2012,,Cambridge University Press,,,0,English,,,,,,,,,,,,,,1169,0,,,,,,,0,1205249,mobi,a8c967ea4f33a71a8edecbe547b1abcc,,,G:\\!genesis\\1\\14.139.43.151\\The Human Rights Treaty Obligations of Peacekeepers - Kjetil Mujezinovi c Larsen_1169.mobi,0,2000-01-01 01:00:00,2016-04-03 02:51:08,,,
18413015,The Human Rights Treaty Obligations of Peacekeepers,,,,Kjetil Mujezinovi¬¥c Larsen,2012,,Cambridge University Press,,528,0,English,,,,,,,,,,,,,,1322,0,,,,,,,1,2460299,pdf,8267516729d1fccbfb37fa9f929037a4,,,G:\\!genesis\\1\\14.139.43.151\\The Human Rights Treaty Obligations of Peacekeepers - Kjetil Mujezinovi c Larsen_1322.pdf,0,2000-01-01 01:00:00,2016-04-03 02:51:08,,,
18413016,The Ideology of the Extreme Right,,,,Cas Mudde,2002,,Manchester University Press,,225,0,English,,,,"1847790119,9780719064463",,,,,,,,spT-NgRm3f8C,,1603,0,,,,,,,1,933342,pdf,d2e3c2f36b89cea65f0444fc4981a911,,,G:\\!genesis\\1\\14.139.43.151\\The Ideology of the Extreme Right - Cas Mudde_1603.pdf,0,2000-01-01 01:00:00,2016-04-03 02:51:08,,,
18413017,„Åä„Çä„Åå„Åø„Å≠„Åò„ÇäÊäò„Çä /</div>Origami nejiriori,,"Origami koÃÑboÃÑ, Fujimoto shuÃÑzoÃÑ waÃÑrudo.",,Shuzo Fujimoto / Ëó§Êú¨ ‰øÆ‰∏â,2012.,,SeibundoÃÑshinkoÃÑsha,"Ë™†ÊñáÂ†ÇÊñ∞ÂÖâÁ§æ, ToÃÑkyoÃÑ",93 p. ; 23 cm.,0,Japanese,,,0,"9784416312001,4416312008",,,,,,,,,,,0,1,,0,,1,0,0,14162269,pdf,c865a86da3e0dd85a183833ef70c9fd9,,,Fujimoto - Twisted Folding.pdf,0,2000-01-01 01:00:00,2016-04-03 02:51:08,1204000/c865a86da3e0dd85a183833ef70c9fd9-d.jpg,,
18413018,The Improvement of Human Reason: Exhibited in the Life of Hai Ebn Yokdhan,,,,Muhammad ibn 'Abd al-Malik Ibn Tufayl,2005,,,,,0,English,,,,,,,,,,,,,,1195,0,,,,,,,0,111330,epub,c20f05351030ab76aefa5b2ad85656a7,,,G:\\!genesis\\1\\14.139.43.151\\The Improvement of Human Reason_ Exhibited in the Life of Hai Ebn Yokdhan - Muhammad ibn &#39;Abd al-Malik Ibn Tufayl_1195.epub,0,2000-01-01 01:00:00,2016-04-03 02:51:08,,,
18413019,The Intelligence of Woman,,,,Walter Lionel George,,,,,75,0,English,,,,1117645029,,B004TS2IPY,,,,,,,,1236,0,,,,,,,1,461397,pdf,d4327cda3405c654daef57439046bc40,,,G:\\!genesis\\1\\14.139.43.151\\The Intelligence of Woman - Walter Lionel George_1236.pdf,0,2000-01-01 01:00:00,2016-04-03 02:51:08,,,
18413020,The International Law of the Sea,,,,Yoshifumi Tanaka,2012,,Cambridge University Press,,518,0,English,,,,"0521279526,9780521279529",,,,,,,,z8SrrWcKPLsC,,1061,0,,,,,,,1,7486911,pdf,a601ddd81ff544c07f2fd18bbb274476,,,G:\\!genesis\\1\\14.139.43.151\\The International Law of the Sea - Yoshifumi Tanaka_1061.pdf,0,2000-01-01 01:00:00,2016-04-03 02:51:08,,,
18413021,The International Politics of the Middle East,,,,Raymond Hinnebusch,2003,,Manchester University Press,,273,0,English,,,,"0719053463,9780719053467",,,,,,,,DcEg3zHm7-wC,,1606,0,,,,,,,1,1539780,pdf,5ea8d42165f9645b34f98c60adc968d6,,,G:\\!genesis\\1\\14.139.43.151\\The International Politics of the Middle East - Raymond Hinnebusch_1606.pdf,0,2000-01-01 01:00:00,2016-04-03 02:51:08,,,
18413022,The Islamic Egypt,,,,WAEL EL-MANZALAWY,,,,,12,0,English,,,,,,,,,,,,,,1200,0,,,,,,,1,92549,pdf,01444c342961bbbd899d4548cb53ae3a,,,G:\\!genesis\\1\\14.139.43.151\\The Islamic Egypt - WAEL EL-MANZALAWY_1200.pdf,0,2000-01-01 01:00:00,2016-04-03 02:51:08,,,
18413023,The Israeli Response to Jewish Extremism and Violence: Defending Democracy,,,,Ami Pedahzur,2002,,Manchester University Press,,209,0,English,,,,"0719063728,9780719063725",,,,,,,,2m-AmD2TbaEC,,1608,0,,,,,,,1,2152679,pdf,bf59a90a8b45416cf43cdd07f5f56335,,,G:\\!genesis\\1\\14.139.43.151\\The Israeli Response to Jewish Extremism and Violence_ Defending Democracy - Ami Pedahzur_1608.pdf,0,2000-01-01 01:00:00,2016-04-03 02:51:08,,,
18413024,The Labor Divide,,,,Sam Vaknin & Lidija Rangelovska,2014,,Narcissus Publications,,87,0,English,,,,,,B0054JIXYM,,,,,,,,2206,0,,,,,,,1,247965,pdf,f2ba7eb16f02a9570be07c5010755181,,,G:\\!genesis\\1\\14.139.43.151\\The Labor Divide - Sam Vaknin &amp; Lidija Rangelovska_2206.pdf,0,2000-01-01 01:00:00,2016-04-03 02:51:08,,,
18413025,The Labor Divide,,,,Sam Vaknin,,,,,171,0,English,,,,,,,,,,,,,,1065,0,,,,,,,1,663767,pdf,539bb039621d2bce8567b73e4f782957,,,G:\\!genesis\\1\\14.139.43.151\\The Labor Divide - Sam Vaknin_1065.pdf,0,2000-01-01 01:00:00,2016-04-03 02:51:08,,,
18413026,The Labor Divide,,,,Sam Vaknin,,,,,171,0,English,,,,,,,,,,,,,,2236,0,,,,,,,1,665404,pdf,f547cfcbc566661cdef4fc10de69a585,,,G:\\!genesis\\1\\14.139.43.151\\The Labor Divide - Sam Vaknin_2236.pdf,0,2000-01-01 01:00:00,2016-04-03 02:51:08,,,
18413027,The Labor Policy of the Free Society,,,,Sylvester Petro,2012,,Ludwig von Mises Institute,,352,0,English,,,,,,B0075F4UMC,,,,,,,,1072,0,,,,,,,1,17758420,pdf,c04f5211354bc160fa6ce86aca691f66,,,G:\\!genesis\\1\\14.139.43.151\\The Labor Policy of the Free Society - Sylvester Petro_1072.pdf,0,2000-01-01 01:00:00,2016-04-03 02:51:08,,,
18413028,"The Labour Governments 1964-1970: Labour and Cultural Change, Volume 1, Second Edition",,,,Steven Fielding,2009,,Manchester University Press,,270,0,English,,,,9780719080609,,,,,,,,Q8__ngEACAAJ,,1616,0,,,,,,,1,1007285,pdf,b5fe5e59cc21c1a0b1e261d207564627,,,"G:\\!genesis\\1\\14.139.43.151\\The Labour Governments 1964-1970_ Labour and Cultural Change, Volume 1, Second Edition - Steven Fielding_1616.pdf",0,2000-01-01 01:00:00,2016-04-03 02:51:08,,,
18413029,The Ladies Book of Useful Information,,,,Anonymous,2010,,General Books LLC,,164,0,English,,,,9781153797245,,,,,,,,8JkeRQAACAAJ,,1073,0,,,,,,,1,608516,pdf,528a9500ad79b4bd7bd0e303a6c8109d,,,G:\\!genesis\\1\\14.139.43.151\\The Ladies Book of Useful Information - Anonymous_1073.pdf,0,2000-01-01 01:00:00,2016-04-03 02:51:08,,,
18413030,"The Ladies' Book of Etiquette, and Manual of Politeness; A Complete Hand Book for the Use of the Lady in Polite Society - Primary Source Edition",,,,Florence Hartley,2014,,Nabu Press,,172,0,English,,,,"1294834207,9781294834205",,,,,,,,,,1866,0,,,,,,,1,677395,pdf,8e69614e79fd09ccdc601cc5c925f0cf,,,"G:\\!genesis\\1\\14.139.43.151\\The Ladies&#39; Book of Etiquette, and Manual of Politeness; A Complete Hand Book for the Use of the Lady in Polite Society - Primary Source Edition - Florence Hartley_1866.pdf",0,2000-01-01 01:00:00,2016-04-03 02:51:08,,,
18413031,The Land Is a Map: Placenames of Indigenous Origin in Australia,,,,Luise Hercus & Flavia Hodges & Jane Simpson,2012,,ANU E Press,,336,0,English,,,,"192153656X,9781921536564",,,,,,,,,,1785,0,,,,,,,1,18910848,pdf,4fa2f325b0e55c0e7b9bed379befe4d2,,,G:\\!genesis\\1\\14.139.43.151\\The Land Is a Map_ Placenames of Indigenous Origin in Australia - Luise Hercus &amp; Flavia Hodges &amp; Jane Simpson_1785.pdf,0,2000-01-01 01:00:00,2016-04-03 02:51:08,,,
18413032,The Law,,,,Fr√©d√©ric Bastiat,1849,,Feedbooks,,163,0,English,,,,,,,,,,,,,,1333,0,,,,,,,1,447728,pdf,df4c7036a3ec71f7ef1033a119d0ef61,,,G:\\!genesis\\1\\14.139.43.151\\The Law - Frederic Bastiat_1333.pdf,0,2000-01-01 01:00:00,2016-04-03 02:51:08,,,
18413033,The Learning Sciences in Educational Assessment: The Role of Cognitive Models,,,,Jacqueline P. Leighton & Mark J. Gierl,2011,,Cambridge University Press,,283,0,English,,,,9781139498135,,,,,,,,5bJ5TlwTqRUC,,1089,0,,,,,,,1,1942632,pdf,0aee80da9f98a681deddc6e37caae2bb,,,G:\\!genesis\\1\\14.139.43.151\\The Learning Sciences in Educational Assessment_ The Role of Cognitive Models - Jacqueline P. Leighton &amp; Mark J. Gierl_1089.pdf,0,2000-01-01 01:00:00,2016-04-03 02:51:08,,,
18413034,The Library,,,,Andrew Lang,2010,,pubOne.Info,,,0,English,,,,9782819912422,,,,,,,,_B2IC_PQRYQC,,1160,0,,,,,,,0,203103,epub,02f4dc7c0187b7b9323d30a7ade51237,,,G:\\!genesis\\1\\14.139.43.151\\The Library - Andrew Lang_1160.epub,0,2000-01-01 01:00:00,2016-04-03 02:51:08,,,
18413035,The Library and Society Reprints of Papers and Addresses,,,,Arthur E. Bostwick,2012,,Ulan Press,,,0,English,,,,1436543533,,,,,,,,,,1111,0,,,,,,,0,477400,epub,8eb2c457606b90be80bfd9b894a2b616,,,G:\\!genesis\\1\\14.139.43.151\\The Library and Society Reprints of Papers and Addresses - Arthur E. Bostwick_1111.epub,0,2000-01-01 01:00:00,2016-04-03 02:51:08,,,
18413036,The library assistant's manual,,,,"Koch, Theodore Wesley, 1871-1941",,,"LANSING, MICHIGAN",,88,0,English,,,,,,,,,,,,,,1118,0,,,,,,,1,4426391,pdf,71e1264030574cfe2dc00d7f6a31bd92,,,"G:\\!genesis\\1\\14.139.43.151\\The library assistant&#39;s manual - Koch, Theodore Wesley, 1871-1941_1118.pdf",0,2000-01-01 01:00:00,2016-04-03 02:51:08,,,
18413037,"The Life and Work of Syed Ahmed Khan, C.S.I. [FACSIMILE]",,,,"G. F. I. (george Farquhar Irving), 1840- Graham",1885,,Facsimile Originally Published in,,436,0,English,,,,,,B004D6Y1ZC,,,,,,,,1163,0,,,,,,,1,17215565,pdf,477bb1f19bea6f6de4c8dd195d93ab12,,,"G:\\!genesis\\1\\14.139.43.151\\The Life and Work of Syed Ahmed Khan, C.S.I. [FACSIMILE] - G. F. I. (george Farquhar Irving), 1840- Graham_1163.pdf",0,2000-01-01 01:00:00,2016-04-03 02:51:08,,,
18413038,"The Little Guide To Beating Procrastination, Perfectionism and Blocks: A Manual for Artists, Activists, Entrepreneurs, Academics and Other Ambitious Dreamers",,,,Hillary Rettig,,,ebook,,87,0,English,,,,,,,,,,,,,,1184,0,,,,,,,1,811948,pdf,51c3717f2df08f4b089d31f7835c077d,,,"G:\\!genesis\\1\\14.139.43.151\\The Little Guide To Beating Procrastination, Perfectionism and Blocks_ A Manual for Artists, Activists, Entrepreneurs, Academics and Other Ambitious Dreamers - Hillary Rettig_1184.pdf",0,2000-01-01 01:00:00,2016-04-03 02:51:08,,,
18413039,The Living Present,,,,Gertrude Franklin Horn Atherton,2008,,BiblioBazaar,,113,0,English,,,,"0559297947,9780559297960",,,,,,,,bYVp9vRSMxMC,,1194,0,,,,,,,1,590900,pdf,f8206307c1972868a70caf101d54f6ba,,,G:\\!genesis\\1\\14.139.43.151\\The Living Present - Gertrude Franklin Horn Atherton_1194.pdf,0,2000-01-01 01:00:00,2016-04-03 02:51:08,,,
18413040,The Local Dimension of Migration Policymaking,,,,Tiziana Caponio & Maren Borkert,2010,,Amsterdam University Press,,204,0,English,,,,"9089642323,9789089642325",,,,,,,,wiO-5YsffjoC,,1507,0,,,,,,,1,1042089,pdf,fd4b10c2c58d6c75d00323c6d3d89e0b,,,G:\\!genesis\\1\\14.139.43.151\\The Local Dimension of Migration Policymaking - Tiziana Caponio &amp; Maren Borkert_1507.pdf,0,2000-01-01 01:00:00,2016-04-03 02:51:08,,,
18413041,The Local Relevance of Human Rights,,,,Koen de Feyter & Stephan Parmentier & Christiane Timmerman & George Ulrich,2011,,Cambridge University Press,,421,0,English,,,,"1107009561,9781107009561",,,,,,,,,,1320,0,,,,,,,1,2807278,pdf,52aa340a4c7922437f28efa5970b41df,,,G:\\!genesis\\1\\14.139.43.151\\The Local Relevance of Human Rights - Koen de Feyter &amp; Stephan Parmentier &amp; Christiane Timmerman &amp; George Ulrich_1320.pdf,0,2000-01-01 01:00:00,2016-04-03 02:51:08,,,
18413042,The Makers of Canada: George Brown,,,,John Lewis,1906,,Feedbooks,,555,0,English,,,,,,,,,,,,,,1341,0,,,,,,,1,1079135,pdf,c1637c4a12e92a6b0b32ad8810660d9b,,,G:\\!genesis\\1\\14.139.43.151\\The Makers of Canada_ George Brown - John Lewis_1341.pdf,0,2000-01-01 01:00:00,2016-04-03 02:51:08,,,
18413043,The Making of the Humanities: From Early Modern to Modern Disciplines,,,,Rens Bod & Jaap Maat & Thijs Weststeijn,2012,,Amsterdam University Press,,429,0,English,,,,"9089644555,9789089644558",,,,,,,,1KpTLwEACAAJ,,1788,0,,,,,,,1,4811110,pdf,7bbf5681a5db52ba985744b1c54e719a,,,G:\\!genesis\\1\\14.139.43.151\\The Making of the Humanities_ From Early Modern to Modern Disciplines - Rens Bod &amp; Jaap Maat &amp; Thijs Weststeijn_1788.pdf,0,2000-01-01 01:00:00,2016-04-03 02:51:08,,,
18413044,The Making of the Humanities: Volume I: Early Modern Europe,,,,Rens Bod & Jaap Maat & Thijs Weststeijn,2011,,Amsterdam University Press,,401,0,English,,,,"9089642692,9789089642691",,,,,,,,,,1789,0,,,,,,,1,5752952,pdf,9d48d6c70185e6faea22122e3b1aaee4,,,G:\\!genesis\\1\\14.139.43.151\\The Making of the Humanities_ Volume I_ Early Modern Europe - Rens Bod &amp; Jaap Maat &amp; Thijs Weststeijn_1789.pdf,0,2000-01-01 01:00:00,2016-04-03 02:51:08,,,
18413045,"The Man-Made World; or, Our Androcentric Culture",,,,Charlotte Perkins Gilman,1911,,Feedbooks,,426,0,English,,,,,,,,,,,,,,1337,0,,,,,,,1,1054494,pdf,ab790d99df615ff939a35c93a6aad122,,,"G:\\!genesis\\1\\14.139.43.151\\The Man-Made World; or, Our Androcentric Culture - Charlotte Perkins Gilman_1337.pdf",0,2000-01-01 01:00:00,2016-04-03 02:51:08,,,
18413046,The Mind and Its Education,,,,George Herbert,,,,,155,0,English,,,,,,,,,,,,,,1066,0,,,,,,,1,739358,pdf,b9e73ac0746310acbdad01d3ab663be9,,,G:\\!genesis\\1\\14.139.43.151\\The Mind and Its Education - George Herbert_1066.pdf,0,2000-01-01 01:00:00,2016-04-03 02:51:08,,,
18413047,The Mind of the Criminal: The Role of Developmental Social Cognition in Criminal Defense Law Hardcover,,,,Reid Griffith Fontaine,2012,,Cambridge University Press,,293,0,English,,,,"0521513766,9780521513760",,,,,,,,,,1335,0,,,,,,,1,3510556,pdf,463c0a2bd1c1a7c2c6a91ba5c8c01553,,,G:\\!genesis\\1\\14.139.43.151\\The Mind of the Criminal_ The Role of Developmental Social Cognition in Criminal Defense Law Hardcover - Reid Griffith Fontaine_1335.pdf,0,2000-01-01 01:00:00,2016-04-03 02:51:08,,,
18413048,The Modern Woman's Rights Movement,,,,Kaethe Schirmacher & Carl Conrad Eckhardt,2010,,Echo Library,,122,0,English,,,,"1406896160,9781406896169",,,,,,,,uBJUngEACAAJ,,1084,0,,,,,,,1,538269,pdf,8bc2e68309548442810f2a3bd6dbf65f,,,G:\\!genesis\\1\\14.139.43.151\\The Modern Woman&#39;s Rights Movement - Kaethe Schirmacher &amp; Carl Conrad Eckhardt_1084.pdf,0,2000-01-01 01:00:00,2016-04-03 02:51:08,,,
18413049,The Mother and Her Child,,,,Lena K. Sadler & William S. Sadler,2008,,Dodo Press,,,0,English,,,,"1406589217,9781406589214",,,,,,,,8HSeMAAACAAJ,,1125,0,,,,,,,0,1484709,epub,4ffa511cddf0d0a67156cb3bda38a960,,,G:\\!genesis\\1\\14.139.43.151\\The Mother and Her Child - Lena K. Sadler &amp; William S. Sadler_1125.epub,0,2000-01-01 01:00:00,2016-04-03 02:51:08,,,
18413050,The Mysterious Island: Dropped From the Clouds (1875),,,,Jules Verne,2009,,Kessinger Publishing,,375,0,English,,,,9781104583422,,,,,,,,KOlRPwAACAAJ,,1869,0,,,,,,,1,1362589,pdf,b01b3020729584dddc88444fe3867409,,,G:\\!genesis\\1\\14.139.43.151\\The Mysterious Island_ Dropped From the Clouds (1875) - Jules Verne_1869.pdf,0,2000-01-01 01:00:00,2016-04-03 02:51:08,,,
18413051,The New Education - a Review of Progressive Educational Movements of the Day,,,,Scott Nearing,2007,,Read Books,,140,0,English,,,,"1610338049,9781406740660",,,,,,,,rBjvEMicH-IC,,906,0,,,,,,,1,566583,pdf,85efc0ed31e831763c411b7bf90135b5,,,G:\\!genesis\\1\\14.139.43.151\\The New Education - a Review of Progressive Educational Movements of the Day - Scott Nearing_906.pdf,0,2000-01-01 01:00:00,2016-04-03 02:51:08,,,
18413052,The New ICT Ecosystem: Implications for Policy and Regulation,,,,Martin Fransman,2010,,Cambridge University Press,,298,0,English,,,,"0521171202,9780521171205",,,,,,,,,,1359,0,,,,,,,1,2280331,pdf,94de4c32a39b908482ea5ff4657ece37,,,G:\\!genesis\\1\\14.139.43.151\\The New ICT Ecosystem_ Implications for Policy and Regulation - Martin Fransman_1359.pdf,0,2000-01-01 01:00:00,2016-04-03 02:51:08,,,
18413053,The New ICT Ecosystem: Implications for Policy and Regulation,,,,Martin Fransman,2010,,Cambridge University Press,,,0,English,,,,"0521171202,9780521171205",,,,,,,,,,915,0,,,,,,,0,1283011,mobi,f21a1d2858232b97829987c2d8064341,,,G:\\!genesis\\1\\14.139.43.151\\The New ICT Ecosystem_ Implications for Policy and Regulation - Martin Fransman_915.mobi,0,2000-01-01 01:00:00,2016-04-03 02:51:08,,,
18413054,The New Presence of China in Africa,,,,Meine Pieter van Dijk,2009,,Amsterdam University Press,,225,0,English,,,,"908964136X,9789089641366",,,,,,,,2mJ4tv9NVU8C,,1510,0,,,,,,,1,3731212,pdf,cff04a2a45a04e8afb459c97f2b52d1c,,,G:\\!genesis\\1\\14.139.43.151\\The New Presence of China in Africa - Meine Pieter van Dijk_1510.pdf,0,2000-01-01 01:00:00,2016-04-03 02:51:08,,,
18413055,The New World of Islam,,,,Lothrop Stoddard,2009,,BiblioBazaar,,155,0,English,,,,1604444452,,B0082R9C98,,,,,,-Mvbb0XoCSYC,,1358,0,,,,,,,1,681391,pdf,5aeadbcaf4ec928a845cb7fdfd6dc14e,,,G:\\!genesis\\1\\14.139.43.151\\The New World of Islam - Lothrop Stoddard_1358.pdf,0,2000-01-01 01:00:00,2016-04-03 02:51:08,,,
18413056,THE NGO HANDBOOK,,,,Hilary Binder-Aviles,2012,,Bureau of International Information Programs United States Department of State,,80,0,English,,,,,,,,,,,,,,1413,0,,,,,,,1,14790698,pdf,2c05ca2b422c00d6661a2ebe3b7e51fa,,,G:\\!genesis\\1\\14.139.43.151\\THE NGO HANDBOOK - Hilary Binder-Aviles_1413.pdf,0,2000-01-01 01:00:00,2016-04-03 02:51:08,,,
18413057,The Origins of Health and Disease,,,,Michael E. Hyland,2011,,Cambridge University Press,,369,0,English,,,,9780521719704,,,,,,,,d4EYLwEACAAJ,,1003,0,,,,,,,1,3504571,pdf,8ac7e78c1ca7fbffc25f0f6e3011bf8f,,,G:\\!genesis\\1\\14.139.43.151\\The Origins of Health and Disease - Michael E. Hyland_1003.pdf,0,2000-01-01 01:00:00,2016-04-03 02:51:08,,,
18413058,The Panic of 1819: Reactions and Policies,,,,Murray N. Rothbard,1962,,WWW.Bnpublishing.com,,297,0,English,,,,"1607964775,9781492902942",,,,,,,,WUDanQEACAAJ,,1028,0,,,,,,,1,4193911,pdf,282c780f1710824dfa01800ba9bf8ba4,,,G:\\!genesis\\1\\14.139.43.151\\The Panic of 1819_ Reactions and Policies - Murray N. Rothbard_1028.pdf,0,2000-01-01 01:00:00,2016-04-03 02:51:08,,,
18413059,The Philosopy of Ownership,,,,Robert Lefevre,,,,,94,0,English,,,,,,B00CRJ977E,,,,,,,,887,0,,,,,,,1,7883724,pdf,8702ab3539ce08915083578fb54a8957,,,G:\\!genesis\\1\\14.139.43.151\\The Philosopy of Ownership - Robert Lefevre_887.pdf,0,2000-01-01 01:00:00,2016-04-03 02:51:08,,,
18413060,The Physical Life of Woman,,,,George H. Napheys,2009,,BCR,,180,0,English,,,,"1437534414,9781406852172",,,,,,,,Q5NalORb8kgC,,894,0,,,,,,,1,716903,pdf,23a8810c87ac53cbaacccac6ad2bb580,,,G:\\!genesis\\1\\14.139.43.151\\The Physical Life of Woman - George H. Napheys_894.pdf,0,2000-01-01 01:00:00,2016-04-03 02:51:08,,,
18413061,"The Physical Life of Woman: Advice to the Maiden, Wife and Mother",,,,George H. (george Henry) Napheys,2007,,,,,0,English,,,,0554213206,,B0082Q87SG,,,,,,,,888,0,,,,,,,0,332196,epub,afba6510b5902255cb5a1af0c132c4b9,,,"G:\\!genesis\\1\\14.139.43.151\\The Physical Life of Woman_ Advice to the Maiden, Wife and Mother - George H. (george Henry) Napheys_888.epub",0,2000-01-01 01:00:00,2016-04-03 02:51:08,,,
18413062,The Pivot of Civilization,,,,Margaret Sanger,2008,,Book Jungle,,75,0,English,,,,"1605976938,9781605976938",,,,,,,,EPVRnAEACAAJ,,895,0,,,,,,,1,465504,pdf,33bd28ba872c48475fda57dbaf0316c4,,,G:\\!genesis\\1\\14.139.43.151\\The Pivot of Civilization - Margaret Sanger_895.pdf,0,2000-01-01 01:00:00,2016-04-03 02:51:08,,,
18413063,The Political Economy of Public Sector Governance,,,,Anthony Michael Bertelli,2012,,Cambridge University Press,,231,0,English,,,,0521517826,,,,,,,,,,902,0,,,,,,,1,1362896,pdf,a07ecbe48017303e09524c839ca835e4,,,G:\\!genesis\\1\\14.139.43.151\\The Political Economy of Public Sector Governance - Anthony Michael Bertelli_902.pdf,0,2000-01-01 01:00:00,2016-04-03 02:51:08,,,
18413064,The Political Geography of Inequality: Regions and Redistribution,,,,Pablo Beramendi,2012,,Cambridge University Press,,324,0,English,,,,"1107008131,9781107008137",,,,,,,,,,1362,0,,,,,,,1,2363037,pdf,c780c23a429d8f78ee57a9fe2978dd97,,,G:\\!genesis\\1\\14.139.43.151\\The Political Geography of Inequality_ Regions and Redistribution - Pablo Beramendi_1362.pdf,0,2000-01-01 01:00:00,2016-04-03 02:51:08,,,
18413065,The Political Geography of Inequality: Regions and Redistribution,,,,Pablo Beramendi,2012,,Cambridge University Press,,,0,English,,,,"1107008131,9781107008137",,,,,,,,,,909,0,,,,,,,0,958798,mobi,fecf37f2e6436e9214b78272240dfe43,,,G:\\!genesis\\1\\14.139.43.151\\The Political Geography of Inequality_ Regions and Redistribution - Pablo Beramendi_909.mobi,0,2000-01-01 01:00:00,2016-04-03 02:51:08,,,
18413066,The Politics of Human Rights: The Quest for Dignity,,,,Sabine C. Carey & Mark Gibney & Steven C. Poe,2010,,Cambridge University Press,,265,0,English,,,,"0521614058,9780521614054",,,,,,,,,,933,0,,,,,,,1,10437291,pdf,bf8cd9b4f67e828df7630169f5e76056,,,G:\\!genesis\\1\\14.139.43.151\\The Politics of Human Rights_ The Quest for Dignity - Sabine C. Carey &amp; Mark Gibney &amp; Steven C. Poe_933.pdf,0,2000-01-01 01:00:00,2016-04-03 02:51:08,,,
18413067,The Politics of Inequality in Russia Paperback,,,,Thomas F. Remington,2011,,Cambridge University Press,,243,0,English,,,,"1107422248,9781107422247",,,,,,,,,,937,0,,,,,,,1,2723633,pdf,3ced634bf270a7f9a6fa6b4e325c1390,,,G:\\!genesis\\1\\14.139.43.151\\The Politics of Inequality in Russia Paperback - Thomas F. Remington_937.pdf,0,2000-01-01 01:00:00,2016-04-03 02:51:08,,,
18413068,The Politics of Justification: Party Competition and Welfare-State Retrenchment in Denmark and the Netherlands From 1982 to 1998,,,,Christoffer Green-Pedersen,2002,,Amsterdam University Press,,209,0,English,,,,"9053565906,9789053565902",,,,,,,,YIwnQKgVZ4UC,,1540,0,,,,,,,1,2542497,pdf,bdb7e914aeb9a993c65b619d0286b20c,,,G:\\!genesis\\1\\14.139.43.151\\The Politics of Justification_ Party Competition and Welfare-State Retrenchment in Denmark and the Netherlands From 1982 to 1998 - Christoffer Green-Pedersen_1540.pdf,0,2000-01-01 01:00:00,2016-04-03 02:51:08,,,
18413069,The Politics of Obedience the Discourse of Voluntary Servitude,,,,Etienne de La Boetie,2010,,"Kessinger Publishing, LLC",,80,0,English,,,,"1162705175,9781162705170",,,,,,,,,,941,0,,,,,,,1,256800,pdf,0684a5030248df93aba9c14a90bcbf7d,,,G:\\!genesis\\1\\14.139.43.151\\The Politics of Obedience the Discourse of Voluntary Servitude - Etienne de La Boetie_941.pdf,0,2000-01-01 01:00:00,2016-04-03 02:51:08,,,
18413070,The Politics Today Companion to West European Politics,,,,Geoffrey K. Roberts & Patricia Hogwood,2003,,Manchester University Press,,209,0,English,,,,"0719054214,9780719054211",,,,,,,,,,1622,0,,,,,,,1,2145244,pdf,1b73a0f8c7abfad0258020fd8057b56d,,,G:\\!genesis\\1\\14.139.43.151\\The Politics Today Companion to West European Politics - Geoffrey K. Roberts &amp; Patricia Hogwood_1622.pdf,0,2000-01-01 01:00:00,2016-04-03 02:51:08,,,
18413071,The Position of the Turkish and Moroccan Second Generation in Amsterdam and Rotterdam: The TIES Study in the Netherlands,,,,Maurice Crul & Liesbeth Heering,2008,,Amsterdam University Press,,194,0,English,,,,"9089640614,9789089640611",,,,,,,,WpHTPP86WFAC,,1571,0,,,,,,,1,1184046,pdf,25a64db91d9bdca0491a23ad940846c3,,,G:\\!genesis\\1\\14.139.43.151\\The Position of the Turkish and Moroccan Second Generation in Amsterdam and Rotterdam_ The TIES Study in the Netherlands - Maurice Crul &amp; Liesbeth Heering_1571.pdf,0,2000-01-01 01:00:00,2016-04-03 02:51:08,,,
18413072,The Position of Woman in Primitive Society,,,,C. Gasquoine Hartley,2010,,Echo Library,,115,0,English,,,,9781406856378,,,,,,,,9PdU7atfgDcC,,952,0,,,,,,,1,546400,pdf,49c7c193e15bd7cc0c01f21a7442d881,,,G:\\!genesis\\1\\14.139.43.151\\The Position of Woman in Primitive Society - C. Gasquoine Hartley_952.pdf,0,2000-01-01 01:00:00,2016-04-03 02:51:08,,,
18413073,The Prince,,,,Niccol√≤ Machiavelli,1513,,Feedbooks,,313,0,English,,,,,,,,,,,,,,1348,0,,,,,,,1,792966,pdf,83eb5fbfad846a85e1f12715ad60c6c4,,,G:\\!genesis\\1\\14.139.43.151\\The Prince - Niccolo Machiavelli_1348.pdf,0,2000-01-01 01:00:00,2016-04-03 02:51:08,,,
18413074,The Prince,,,,Niccol√≤ Machiavelli,1513,,Feedbooks,,,0,English,,,,,,,,,,,,,,974,0,,,,,,,0,871029,epub,2a62e154f039d72b1c5dd3af4de87e8f,,,G:\\!genesis\\1\\14.139.43.151\\The Prince - Niccolo Machiavelli_974.epub,0,2000-01-01 01:00:00,2016-04-03 02:51:08,,,
18413075,The Principles and Practice of International Commercial Arbitration,,,,Margaret L. Moses,2008,,Cambridge University Press,,415,0,English,,,,"110740133X,9780521685627",,,,,,,,,,990,0,,,,,,,1,2737155,pdf,e681401e1c80a51aa9fe0ba72c5391c9,,,G:\\!genesis\\1\\14.139.43.151\\The Principles and Practice of International Commercial Arbitration - Margaret L. Moses_990.pdf,0,2000-01-01 01:00:00,2016-04-03 02:51:08,,,
18413076,The Principles of Scientific Management,,,,Frederick Winslow Taylor,2009,,Digireads.com,,55,0,English,,,,1460969987,,B0030F2SB6,,,,,,,,1831,0,,,,,,,1,345705,pdf,dfa4a747f7fbb233d91805c6c232da9c,,,G:\\!genesis\\1\\14.139.43.151\\The Principles of Scientific Management - Frederick Winslow Taylor_1831.pdf,0,2000-01-01 01:00:00,2016-04-03 02:51:08,,,
18413077,"The Private Library: What We Do Know, What We Don't Know, What We Ought to Know About Our Books",,,,Humphreys Arthur Lee 1865-1946,2013,,HardPress Publishing,,,0,English,,,,"1313547905,9781313547901",,,,,,,,,,999,0,,,,,,,0,333166,epub,a687acc734ef5ad18b664c2dc9b727a8,,,"G:\\!genesis\\1\\14.139.43.151\\The Private Library_ What We Do Know, What We Don&#39;t Know, What We Ought to Know About Our Books - Humphreys Arthur Lee 1865-1946_999.epub",0,2000-01-01 01:00:00,2016-04-03 02:51:08,,,
18413078,"The Prospective Mother, a Handbook for Women During Pregnancy",,,,J. Morris (josiah Morris) Slemons,,,,,121,0,English,,,,1419179276,,B0084AP9MC,,,,,,,,1018,0,,,,,,,1,537215,pdf,da06e85cac5c7099c54965c1d6a3081e,,,"G:\\!genesis\\1\\14.139.43.151\\The Prospective Mother, a Handbook for Women During Pregnancy - J. Morris (josiah Morris) Slemons_1018.pdf",0,2000-01-01 01:00:00,2016-04-03 02:51:08,,,
18413079,The Psychologist's Companion: A Guide to Writing Scientific Papers for Students and Researchers,,,,Robert J. Sternberg & Karin Sternberg,2010,,Cambridge University Press,,304,0,English,,,,"0521195713,9780521144827",,,,,,,,,,1019,0,,,,,,,1,1912367,pdf,34650f2c85fbeefe8586e04fb2a2d7f8,,,G:\\!genesis\\1\\14.139.43.151\\The Psychologist&#39;s Companion_ A Guide to Writing Scientific Papers for Students and Researchers - Robert J. Sternberg &amp; Karin Sternberg_1019.pdf,0,2000-01-01 01:00:00,2016-04-03 02:51:08,,,
18413080,The Psychology of Beauty,,,,Ethel D. Puffer,2013,,CreateSpace Independent Publishing Platform,,88,0,English,,,,"1409921905,9781482506747",,,,,,,,,,1839,0,,,,,,,1,579544,pdf,e33d3dc45f1874a94f7953303a964a5a,,,G:\\!genesis\\1\\14.139.43.151\\The Psychology of Beauty - Ethel D. Puffer_1839.pdf,0,2000-01-01 01:00:00,2016-04-03 02:51:08,,,
18413081,"The Psychology of Music, Third Edition",,,,Diana Deutsch,2012,,Academic Press,,766,0,English,,,,"012381460X,9780123814609",,,,,,,,,,1456,0,,,,,,,1,19910445,pdf,cc3c6c2747ed7589a8bcf88c0a1c424c,,,"G:\\!genesis\\1\\14.139.43.151\\The Psychology of Music, Third Edition - Diana Deutsch_1456.pdf",0,2000-01-01 01:00:00,2016-04-03 02:51:08,,,
18413082,The Public Domain: Enclosing the Commons of the Mind,,,,James Boyle,2008,,Yale University Press,,,0,English,,,,"0300158343,9780300137408",,,,,,,,,,1021,0,,,,,,,0,349539,epub,94587ac0018aab89478f5b9841a1fb07,,,G:\\!genesis\\1\\14.139.43.151\\The Public Domain_ Enclosing the Commons of the Mind - James Boyle_1021.epub,0,2000-01-01 01:00:00,2016-04-03 02:51:08,,,
18413083,The public library,,,,"Baker, Ernest Albert, 1869-1941",,,,,290,0,English,,,,,,,,,,,,,,1036,0,,,,,,,1,14434788,pdf,39ecb136f4c6280a9595e1d16393c125,,,"G:\\!genesis\\1\\14.139.43.151\\The public library - Baker, Ernest Albert, 1869-1941_1036.pdf",0,2000-01-01 01:00:00,2016-04-03 02:51:08,,,
18413084,The Public Sector in Hong Kong,,,,Ian Scott,2010,,Hong Kong University Press,,410,0,English,,,,"9622091725,9789622091726",,,,,,,,qKncPimVVIgC,,1560,0,,,,,,,1,3818046,pdf,0e5b08d2d1192efadc158d6902d6deb1,,,G:\\!genesis\\1\\14.139.43.151\\The Public Sector in Hong Kong - Ian Scott_1560.pdf,0,2000-01-01 01:00:00,2016-04-03 02:51:08,,,
18413085,The Rationality of Feeling,,,,David Best,2014,,Routledge,,233,0,English,,,,"1138007560,9781138007567",,,,,,,,,,884,0,,,,,,,1,8571703,pdf,2bb60ae0a73f7219c75a3785ac744260,,,G:\\!genesis\\1\\14.139.43.151\\The Rationality of Feeling - David Best_884.pdf,0,2000-01-01 01:00:00,2016-04-03 02:51:08,,,
18413086,The Red Cross Girls With the Russian Army,,,,Margaret Vandercook,2010,,pubOne.Info,,87,0,English,,,,"1491266716,9781491266717",,,,,,,,5JLYnQEACAAJ,,900,0,,,,,,,1,866527,pdf,22a2a3f6a6e298ed937bb3f2672061f8,,,G:\\!genesis\\1\\14.139.43.151\\The Red Cross Girls With the Russian Army - Margaret Vandercook_900.pdf,0,2000-01-01 01:00:00,2016-04-03 02:51:08,,,
18413087,The Reformed Librarie-Keeper (1650),,,,John Dury,2006,,Hard Press,,,0,English,,,,"1148205721,9781406913910",,,,,,,,,,901,0,,,,,,,0,41139,epub,064d4adf74172826ab6a8a15fcdb1d58,,,G:\\!genesis\\1\\14.139.43.151\\The Reformed Librarie-Keeper (1650) - John Dury_901.epub,0,2000-01-01 01:00:00,2016-04-03 02:51:08,,,
18413088,"The Religion of Islam: A Comprehensive Discussion of the Sources, Principles and Practices of Islam",,,,Maulana Muhammad Ali,2011,,"Literary Licensing, LLC",,805,0,English,,,,"091332132X,9781258154813",,,,,,,,,,922,0,,,,,,,1,46655082,pdf,b2a8dfbd2e4b1e4b98443326fe3541cb,,,"G:\\!genesis\\1\\14.139.43.151\\The Religion of Islam_ A Comprehensive Discussion of the Sources, Principles and Practices of Islam - Maulana Muhammad Ali_922.pdf",0,2000-01-01 01:00:00,2016-04-03 02:51:08,,,
18413089,The Representation of Islam and Muslims in the Media: (The Age and Herald Sun Newspapers),,,,Shahram Akbarzadeh & Bianca Smith,2005,,"School of Political and Social Inquiry, Monash University",,41,0,English,,,,,,,,,,,,ElPGngEACAAJ,,1811,0,,,,,,,1,140312,pdf,49afed5fa472b735cf98f5a840391533,,,G:\\!genesis\\1\\14.139.43.151\\The Representation of Islam and Muslims in the Media_ (The Age and Herald Sun Newspapers) - Shahram Akbarzadeh &amp; Bianca Smith_1811.pdf,0,2000-01-01 01:00:00,2016-04-03 02:51:08,,,
18413090,The Republic,,,,Plato,,,Feedbooks,,1871,0,English,,,,,,,,,,,,,,1355,0,,,,,,,1,3181411,pdf,fc0f8339a3fd9802f69e56f5fbb7b555,,,G:\\!genesis\\1\\14.139.43.151\\The Republic - Plato_1355.pdf,0,2000-01-01 01:00:00,2016-04-03 02:51:08,,,
18413091,The Republic,,,,Plato,,,Feedbooks,,,0,English,,,,,,,,,,,,,,940,0,,,,,,,0,945804,epub,6b78ede2bf3cb2d3ff9ab70503ece022,,,G:\\!genesis\\1\\14.139.43.151\\The Republic - Plato_940.epub,0,2000-01-01 01:00:00,2016-04-03 02:51:08,,,
18413092,The Republic in Danger: Drusus Libo and the Succession of Tiberius,,,,Andrew Pettinger,2012,,Oxford University Press,,276,0,English,,,,"0199601747,9780199601745",,,,,,,,-ynivDfkESQC,,1743,0,,,,,,,1,1972194,pdf,53f661ee31b6773203761b953b01f85c,,,G:\\!genesis\\1\\14.139.43.151\\The Republic in Danger_ Drusus Libo and the Succession of Tiberius - Andrew Pettinger_1743.pdf,0,2000-01-01 01:00:00,2016-04-03 02:51:08,,,
18413093,The Rights of Husband,,,,Mohammad Akhtar,,,"Kutub Khana Mazhari, Karachi",,49,0,English,,,,,,,,,,,,,,2224,0,,,,,,,1,1664395,pdf,d51d192622807cfc9415b7eb93d6c17b,,,G:\\!genesis\\1\\14.139.43.151\\The Rights of Husband - Mohammad Akhtar_2224.pdf,0,2000-01-01 01:00:00,2016-04-03 02:51:08,,,
18413094,The Rise of the Insane State: What Is Happening to the U.S. Economy?,,,,Dr. Kenneth R. Szulczyk,2009,,CreateSpace,,214,0,English,,,,"1449584438,9781449584436",,,,,,,,3xImQwAACAAJ,,955,0,,,,,,,1,1304118,pdf,5b9c7c6c20a7bbd5ab9c4c3d12ce67b8,,,G:\\!genesis\\1\\14.139.43.151\\The Rise of the Insane State_ What Is Happening to the U.S. Economy_ - Dr. Kenneth R. Szulczyk_955.pdf,0,2000-01-01 01:00:00,2016-04-03 02:51:08,,,
18413095,The Role of Community-Mindedness in the Self-Regulation of Drug Cultures: A Case Study From the Shetland Islands,,,,Anke Stallwitz,2012,,Springer,,388,0,English,,,,"9400738609,9789400738614",,,,,,,,toIzMM13TjAC,,1524,0,,,,,,,1,2324101,pdf,1861302e79a8476aaf182e7197d5a6b2,,,G:\\!genesis\\1\\14.139.43.151\\The Role of Community-Mindedness in the Self-Regulation of Drug Cultures_ A Case Study From the Shetland Islands - Anke Stallwitz_1524.pdf,0,2000-01-01 01:00:00,2016-04-03 02:51:08,,,
18413096,The Role of Departmental Secretaries: Personal Reflections on the Breadth of Responsibilities Today,,,,Andrew Podger,2009,,ANU E Press,,212,0,English,,,,"1921536810,9781921536809",,,,,,,,1zZvc7bcHRwC,,1703,0,,,,,,,1,2383621,pdf,be8fff9dd6bc8fc1b2b1554d45efa62f,,,G:\\!genesis\\1\\14.139.43.151\\The Role of Departmental Secretaries_ Personal Reflections on the Breadth of Responsibilities Today - Andrew Podger_1703.pdf,0,2000-01-01 01:00:00,2016-04-03 02:51:08,,,
18413097,"The Saddam Tapes: The Inner Workings of a Tyrant's Regime, 1978-2001",,,,Kevin M. Woods & David D. Palkki & Mark E Stout,2011,,Cambridge University Press,,413,0,English,,,,"1107693489,9781107693487",,,,,,,,,,992,0,,,,,,,1,3231290,pdf,4d8d5610bea87909a10f8e64bf51c440,,,"G:\\!genesis\\1\\14.139.43.151\\The Saddam Tapes_ The Inner Workings of a Tyrant&#39;s Regime, 1978-2001 - Kevin M. Woods &amp; David D. Palkki &amp; Mark E Stout_992.pdf",0,2000-01-01 01:00:00,2016-04-03 02:51:08,,,
18413098,The Science of Getting Rich,,,,Wallace D. Wattles,2007,,Arc Manor LLC,,78,0,English,,,,"1604598875,9780984064625",,,,,,,,rhiBZsGAkMcC,,1006,0,,,,,,,1,764413,pdf,eeb674c2775e56f2ccb41d5924f75721,,,G:\\!genesis\\1\\14.139.43.151\\The Science of Getting Rich - Wallace D. Wattles_1006.pdf,0,2000-01-01 01:00:00,2016-04-03 02:51:08,,,
18413099,The Second American Revolution - the Building of an Empire,,,,Kenneth R. Szulczyk,,,,,323,0,English,,,,,,B002ZCY9YY,,,,,,,,1014,0,,,,,,,1,1678410,pdf,7f2f135658377f3910fa61029fb946d2,,,G:\\!genesis\\1\\14.139.43.151\\The Second American Revolution - the Building of an Empire - Kenneth R. Szulczyk_1014.pdf,0,2000-01-01 01:00:00,2016-04-03 02:51:08,,,
18413100,The Secrets of Successful Language Learning,,,,David Bolton,,,,,70,0,English,,,,,,,,,,,,,,1015,0,,,,,,,1,1009193,pdf,f3d9df7c1f43e8888589016566cfcc1d,,,G:\\!genesis\\1\\14.139.43.151\\The Secrets of Successful Language Learning - David Bolton_1015.pdf,0,2000-01-01 01:00:00,2016-04-03 02:51:08,,,
18413101,The Social Cancer (Large Print),,,,Jos√© Rizal,2013,,CreateSpace Independent Publishing Platform,,319,0,English,,,,9781482059960,,,,,,,,vDlUlwEACAAJ,,1843,0,,,,,,,1,1439839,pdf,e22369f7e2eb1ded65a3d715da760b21,,,G:\\!genesis\\1\\14.139.43.151\\The Social Cancer (Large Print) - Jose Rizal_1843.pdf,0,2000-01-01 01:00:00,2016-04-03 02:51:08,,,
18413102,The Social Contract,,,,"Rousseau, Jean-Jacques",,,The University of Adelaide Library,,,0,English,,,,,,,,,,,,,,1438,0,,,,,,,0,150969,epub,4a6602fa380d8d42f0f75cb33196b6e7,,,"G:\\!genesis\\1\\14.139.43.151\\The Social Contract - Rousseau, Jean-Jacques_1438.epub",0,2000-01-01 01:00:00,2016-04-03 02:51:08,,,
18413103,The Social Control of Venereal Disease; Report of a National Inquiry of Professional Opinion,,,,Yale University. School Of Medicine. Dep & Howard Ennes,1948,,New Haven,,348,0,English,,,,9781171846499,,,,,,,,AJNZcgAACAAJ,,1482,0,,,,,,,1,21354822,pdf,8354a5a6f9f292a50e33bd461f80115f,,,G:\\!genesis\\1\\14.139.43.151\\The Social Control of Venereal Disease; Report of a National Inquiry of Professional Opinion - Yale University. School Of Medicine. Dep &amp; Howard Ennes_1482.pdf,0,2000-01-01 01:00:00,2016-04-03 02:51:08,,,
18413104,"The Social Diseases: Tuberculosis, Syphilis, Alcoholism, Sterility",,,,J. Hericourt,1920,,GEORGE ROUTLEDGE,,264,0,English,,,,"0548842868,9781290369831",,,,,,,,DX4EuAAACAAJ,,1483,0,,,,,,,1,16476672,pdf,3b93137a2214768b3106395305be029a,,,"G:\\!genesis\\1\\14.139.43.151\\The Social Diseases_ Tuberculosis, Syphilis, Alcoholism, Sterility - J. Hericourt_1483.pdf",0,2000-01-01 01:00:00,2016-04-03 02:51:08,,,
18413105,The Socialization of Teachers (RLE Edu N),,,,Colin Lacey,2012,,Routledge,,169,0,English,,,,9781136453540,,,,,,,,pgNulRW1TbkC,,881,0,,,,,,,1,4693106,pdf,3b12a879e89fac8e7489d88281cea2bb,,,G:\\!genesis\\1\\14.139.43.151\\The Socialization of Teachers (RLE Edu N) - Colin Lacey_881.pdf,0,2000-01-01 01:00:00,2016-04-03 02:51:08,,,
18413106,The Space of Culture: the Place of Nature in Estonia and Beyond,,,,TIINA PEIL,,,Tartu University Press,,192,0,English,,,,,,,,,,,,,,1593,0,,,,,,,1,1865999,pdf,61a1dc25ce34fc575898e39d65c59afa,,,G:\\!genesis\\1\\14.139.43.151\\The Space of Culture_ the Place of Nature in Estonia and Beyond - TIINA PEIL_1593.pdf,0,2000-01-01 01:00:00,2016-04-03 02:51:08,,,
18413107,"The Stock Market, Credit, and Capital Formation",,,,Fritz Machlup,2007,,Ludwig von Mises Institute,,430,0,English,,,,9781610163354,,B000XGAFS8,,,,,,LjeLzbc9GiYC,,912,0,,,,,,,1,17655354,pdf,dbfca9e8dd214e2248fb1b9cf5c60968,,,"G:\\!genesis\\1\\14.139.43.151\\The Stock Market, Credit, and Capital Formation - Fritz Machlup_912.pdf",0,2000-01-01 01:00:00,2016-04-03 02:51:08,,,
18413108,The Story of Libraries and Book-Collecting,,,,Ernest Albert 1877-1966 Savage,1923,,GEORGE ROUTLEDGE,,246,0,English,,,,"1171966237,9781171966234",,,,,,,,,,1485,0,,,,,,,1,8765665,pdf,20f1c5c04fceb5a6a6ebfa1cffc60a63,,,G:\\!genesis\\1\\14.139.43.151\\The Story of Libraries and Book-Collecting - Ernest Albert 1877-1966 Savage_1485.pdf,0,2000-01-01 01:00:00,2016-04-03 02:51:08,,,
18413109,The Structure of Psychological Well-Being,,,,Norman M. Bradburn,,,,,332,0,English,,,,,,,,,,,,,,1992,0,,,,,,,1,3817426,pdf,979c34a0722ffe52a4af61e71136baa7,,,G:\\!genesis\\1\\14.139.43.151\\The Structure of Psychological Well-Being - Norman M. Bradburn_1992.pdf,0,2000-01-01 01:00:00,2016-04-03 02:51:08,,,
18413110,The Subjection of Women,,,,John Stuart Mill,2014,,CreateSpace Independent Publishing Platform,,57,0,English,,,,"1495487474,9781495487477",,,,,,,,,,942,0,,,,,,,1,459481,pdf,c73f45abb54c25b232d195370012abab,,,G:\\!genesis\\1\\14.139.43.151\\The Subjection of Women - John Stuart Mill_942.pdf,0,2000-01-01 01:00:00,2016-04-03 02:51:08,,,
18413111,The Sword of Deborah: First-Hand Impressions of the British Women's Army in France...,,,,Fryniwyd Tennyson Jesse,1919,,Nabu Press,,50,0,English,,,,"1494973251,9781276709989",,,,,,,,2yWquQAACAAJ,,960,0,,,,,,,1,1155226,pdf,c4f82d1405e145fbf6dfbb71fac74931,,,G:\\!genesis\\1\\14.139.43.151\\The Sword of Deborah_ First-Hand Impressions of the British Women&#39;s Army in France__ - Fryniwyd Tennyson Jesse_960.pdf,0,2000-01-01 01:00:00,2016-04-03 02:51:08,,,
18413112,The Sword of Islam,,,,"Arthur Naylor, Sir, 1842-1922 Wollaston",1905,,Facsimile Originally Published in,,578,0,English,,,,,,B008KVN8M8,,,,,,,,968,0,,,,,,,1,27518334,pdf,915fc441e54a7fc9dc403340ee1f7a7c,,,"G:\\!genesis\\1\\14.139.43.151\\The Sword of Islam - Arthur Naylor, Sir, 1842-1922 Wollaston_968.pdf",0,2000-01-01 01:00:00,2016-04-03 02:51:08,,,
18413113,The Teacher,,,,Jacob Abbott,2013,,CreateSpace Independent Publishing Platform,,181,0,English,,,,"1406503630,9781492211785",,,,,,,,,,1870,0,,,,,,,1,725071,pdf,f3665ac7ce52ca662fad6c15d414a7a9,,,G:\\!genesis\\1\\14.139.43.151\\The Teacher - Jacob Abbott_1870.pdf,0,2000-01-01 01:00:00,2016-04-03 02:51:08,,,
18413114,"The Theory of Collective Bargaining, 1930-1975: A Critique of the Argument That Trade Unions Neutralise Labour's &quot;Disadvantage&quot; in Bargaining and Enh",,,,William Harold Hutt,1976,,Transatlantic Arts,,154,0,English,,,,"025536072X,9780255360722",,,,,,,,,,796,0,,,,,,,1,4690750,pdf,048326d2cce7b0f0bde5173c7252cccb,,,"G:\\!genesis\\1\\14.139.43.151\\The Theory of Collective Bargaining, 1930-1975_ A Critique of the Argument That Trade Unions Neutralise Labour&#39;s &quot;Disadvantage&quot; in Bargaining and Enh - William Harold Hutt_796.pdf",0,2000-01-01 01:00:00,2016-04-03 02:51:08,,,
18413115,"The Theory of the Theatre, and Other Principles of Dramatic Criticism",,,,Clayton Hamilton,2010,,Read Books Design,,274,0,English,,,,"141424892X,9781445554808",,,,,,,,4ojOnQEACAAJ,,1877,0,,,,,,,1,10079437,pdf,96a5cb2bf408da25a06bf129131ccf6a,,,"G:\\!genesis\\1\\14.139.43.151\\The Theory of the Theatre, and Other Principles of Dramatic Criticism - Clayton Hamilton_1877.pdf",0,2000-01-01 01:00:00,2016-04-03 02:51:08,,,
18413116,The thinking State?,,,,Kees Schuyt,,,"Scientific Council for Government Policy, Hague",,128,0,English,,,,,,,,,,,,,,1691,0,,,,,,,1,2126900,pdf,3dde35aeaf9c573824679a9b0dc406dd,,,G:\\!genesis\\1\\14.139.43.151\\The thinking State_ - Kees Schuyt_1691.pdf,0,2000-01-01 01:00:00,2016-04-03 02:51:08,,,
18413117,The Thought Remolding Campaign of the Chinese Communist Party-State,,,,Hu Ping & Philip F. Williams & Yenna Wu,2012,,Amsterdam University Press,,318,0,English,,,,"9089644105,9789089644107",,,,,,,,GBMdQnYziiUC,,1592,0,,,,,,,1,2883298,pdf,3969697188c5b6d58848fd180a7426d6,,,G:\\!genesis\\1\\14.139.43.151\\The Thought Remolding Campaign of the Chinese Communist Party-State - Hu Ping &amp; Philip F. Williams &amp; Yenna Wu_1592.pdf,0,2000-01-01 01:00:00,2016-04-03 02:51:08,,,
18413118,The Three R's: Government that works!,,,,Anthony Horn,,,,,51,0,English,,,,,,,,,,,,,,797,0,,,,,,,1,456101,pdf,e3debb379d6b961783bd5ae5d0c0f616,,,G:\\!genesis\\1\\14.139.43.151\\The Three R&#39;s_ Government that works! - Anthony Horn_797.pdf,0,2000-01-01 01:00:00,2016-04-03 02:51:08,,,
18413119,"The Torch Bearer: A Look Forward and Back at the Woman's Journal, the Organ of the Woman's Movement",,,,Agnes E. Ryan & E Agnes Ryan,2008,,IndyPublish,,27,0,English,,,,"1437807364,9781437807363",,,,,,,,ghcfngEACAAJ,,801,0,,,,,,,1,272257,pdf,69b89203ebba67a2dc786e1f25d410a2,,,"G:\\!genesis\\1\\14.139.43.151\\The Torch Bearer_ A Look Forward and Back at the Woman&#39;s Journal, the Organ of the Woman&#39;s Movement - Agnes E. Ryan &amp; E Agnes Ryan_801.pdf",0,2000-01-01 01:00:00,2016-04-03 02:51:08,,,
18413120,The Trade Union Woman,,,,Alice Henry,2008,,BiblioBazaar,,141,0,English,,,,9780554235769,,,,,,,,wH_x7H_IzB4C,,803,0,,,,,,,1,574390,pdf,9396f14f5bf30012357ccd5cf4c878d0,,,G:\\!genesis\\1\\14.139.43.151\\The Trade Union Woman - Alice Henry_803.pdf,0,2000-01-01 01:00:00,2016-04-03 02:51:08,,,
18413121,The Treasure,,,,Selma Lagerl√∂f,,,,,50,0,English,,,,1406934879,,B008470BV4,,,,,,,,806,0,,,,,,,1,365785,pdf,8d373490c0d0d291f2836755ba1477c3,,,G:\\!genesis\\1\\14.139.43.151\\The Treasure - Selma Lagerlof_806.pdf,0,2000-01-01 01:00:00,2016-04-03 02:51:08,,,
18413122,The True Woman : A Series of Discourses : To Which Is Added Woman vs. Ballot,,,,Justin D. Fulton,2009,,Qontro Historical Reprints,,64,0,English,,,,,,B002N8B7HM,,,,,,,,810,0,,,,,,,1,387247,pdf,70e591d8d092218d07bbdb7890b190d3,,,G:\\!genesis\\1\\14.139.43.151\\The True Woman _ A Series of Discourses _ To Which Is Added Woman vs. Ballot - Justin D. Fulton_810.pdf,0,2000-01-01 01:00:00,2016-04-03 02:51:08,,,
18413123,"The Truest Form of Patriotism: Pacifist Feminism in Britain, 1870-1902",,,,Heloise Brown,2003,,Manchester University Press,,208,0,English,,,,"0719065305,9780719065316",,,,,,,,OAWv3HGUrc0C,,1625,0,,,,,,,1,4472313,pdf,ea7d15b9777db5643779bf3a667ab686,,,"G:\\!genesis\\1\\14.139.43.151\\The Truest Form of Patriotism_ Pacifist Feminism in Britain, 1870-1902 - Heloise Brown_1625.pdf",0,2000-01-01 01:00:00,2016-04-03 02:51:08,,,
18413124,The Truth About Woman,,,,C. Gasquoine (catherine Gasquoine) Hartley,2012,,Tredition Classics,,181,0,English,,,,9783847224600,,B0082V47WG,,,,,,06k5nwEACAAJ,,811,0,,,,,,,1,708873,pdf,34a81e94076053d665f5534dab70e0dd,,,G:\\!genesis\\1\\14.139.43.151\\The Truth About Woman - C. Gasquoine (catherine Gasquoine) Hartley_811.pdf,0,2000-01-01 01:00:00,2016-04-03 02:51:08,,,
18413125,The Ultimate Guide to Fast Fitness &amp; Mind Blowing Weight Loss,,,,Susan Jones,,,,,34,0,English,,,,,,,,,,,,,,1287,0,,,,,,,0,271730,pdf,d48e43bf09c9a2b850f35734dac81ac8,,,G:\\!genesis\\1\\14.139.43.151\\The Ultimate Guide to Fast Fitness &amp; Mind Blowing Weight Loss - Susan Jones_1287.pdf,0,2000-01-01 01:00:00,2016-04-03 02:51:08,,,
18413126,The UN and Human Rights: Who Guards the Guardians?,,,,Professor Guglielmo Verdirame,2010,,Cambridge University Press,,487,0,English,,,,"0521841909,9780521841900",,,,,,,,,,1373,0,,,,,,,1,5131786,pdf,3fc58948c40420596e79ac8cca30ef51,,,G:\\!genesis\\1\\14.139.43.151\\The UN and Human Rights_ Who Guards the Guardians_ - Professor Guglielmo Verdirame_1373.pdf,0,2000-01-01 01:00:00,2016-04-03 02:51:08,,,
18413127,The UN and Human Rights: Who Guards the Guardians?,,,,Professor Guglielmo Verdirame,2010,,Cambridge University Press,,,0,English,,,,"0521841909,9780521841900",,,,,,,,,,814,0,,,,,,,0,1180175,mobi,65a2f5579b7878ecde7b97c8f87116d6,,,G:\\!genesis\\1\\14.139.43.151\\The UN and Human Rights_ Who Guards the Guardians_ - Professor Guglielmo Verdirame_814.mobi,0,2000-01-01 01:00:00,2016-04-03 02:51:08,,,
18413128,The Unexpurgated Case Against Women Suffrage,,,,Almroth Edward Wright,2010,,Gibb Press,,52,0,English,,,,"1446033856,9781446033852",,,,,,,,50vgnQEACAAJ,,846,0,,,,,,,1,427478,pdf,29b4b22f808233fec66d629d3af9ed87,,,G:\\!genesis\\1\\14.139.43.151\\The Unexpurgated Case Against Women Suffrage - Almroth Edward Wright_846.pdf,0,2000-01-01 01:00:00,2016-04-03 02:51:08,,,
18413129,The United States Constitution,,,,James Madison,1787,,Feedbooks,,118,0,English,,,,,,,,,,,,,,1370,0,,,,,,,1,507737,pdf,f390edff00a03dac640cce908328f863,,,G:\\!genesis\\1\\14.139.43.151\\The United States Constitution - James Madison_1370.pdf,0,2000-01-01 01:00:00,2016-04-03 02:51:08,,,
18413130,The Value of Culture: On the Relationship Between Economics and Arts,,,,Arjo Klamer,1997,,Amsterdam University Press,,244,0,English,,,,"9053562192,9789053562185",,,,,,,,,,1565,0,,,,,,,1,1962298,pdf,30f0b66f11da8ddc6fbe43d6bedcb1d6,,,G:\\!genesis\\1\\14.139.43.151\\The Value of Culture_ On the Relationship Between Economics and Arts - Arjo Klamer_1565.pdf,0,2000-01-01 01:00:00,2016-04-03 02:51:08,,,
18413131,The Value of Money,,,,Anderson Benjamin M 1886-1949 & Hardpress,2013,,HardPress,,646,0,English,,,,"1290968675,9781290968676",,,,,,,,Cb81mAEACAAJ,,848,0,,,,,,,1,27528789,pdf,278f71fb313dc1878798cc5d4e6ed272,,,G:\\!genesis\\1\\14.139.43.151\\The Value of Money - Anderson Benjamin M 1886-1949 &amp; Hardpress_848.pdf,0,2000-01-01 01:00:00,2016-04-03 02:51:08,,,
18413132,The Viability of Human Security,,,,Monica Den Boer & Jaap de Wilde,2008,,Amsterdam University Press,,273,0,English,,,,"9053567968,9789053567968",,,,,,,,,,1582,0,,,,,,,1,1516453,pdf,aaa0e51199c568e999592bd28d054e6a,,,G:\\!genesis\\1\\14.139.43.151\\The Viability of Human Security - Monica Den Boer &amp; Jaap de Wilde_1582.pdf,0,2000-01-01 01:00:00,2016-04-03 02:51:08,,,
18413133,The War of the Worlds,,,,H. G. (herbert George) Wells,,,,,106,0,English,,,,1450523617,,B0084BKZYS,,,,,,,,1871,0,,,,,,,1,587066,pdf,2f0f401f59d9addb6933d6a7709c7df2,,,G:\\!genesis\\1\\14.139.43.151\\The War of the Worlds - H. G. (herbert George) Wells_1871.pdf,0,2000-01-01 01:00:00,2016-04-03 02:51:08,,,
18413134,The War-Workers,,,,E. M. Delafield,2011,,CreateSpace Independent Publishing Platform,,162,0,English,,,,"1104509202,9781466269088",,,,,,,,,,858,0,,,,,,,1,517089,pdf,1a35eebfa92fb805557c5beae59ca5ea,,,G:\\!genesis\\1\\14.139.43.151\\The War-Workers - E. M. Delafield_858.pdf,0,2000-01-01 01:00:00,2016-04-03 02:51:08,,,
18413135,The Wife of Sir Isaac Harman,,,,H. G. (herbert George) Wells,1914,,The Macmillan Company 1914,,220,0,English,,,,0766171469,,B004TS4U8W,,,,,,,,778,0,,,,,,,1,762816,pdf,98b559ca809f65f75d4a252312d0160b,,,G:\\!genesis\\1\\14.139.43.151\\The Wife of Sir Isaac Harman - H. G. (herbert George) Wells_778.pdf,0,2000-01-01 01:00:00,2016-04-03 02:51:08,,,
18413136,The Wit of Women Fourth Edition,,,,Kate Sanborn,2012,,Tredition Classics,,111,0,English,,,,9783847219965,,,,,,,,Nn-guAAACAAJ,,781,0,,,,,,,1,500744,pdf,a23ae34216bf75ecfea1276f12bc8c94,,,G:\\!genesis\\1\\14.139.43.151\\The Wit of Women Fourth Edition - Kate Sanborn_781.pdf,0,2000-01-01 01:00:00,2016-04-03 02:51:08,,,
18413137,The Wives of Henry the Eighth and the Parts They Played in History,,,,Hume Martin Andrew Sharp 1847-1910,2013,,Hard Press,,191,0,English,,,,"1313397547,9781313397544",,,,,,,,xr-zmQEACAAJ,,782,0,,,,,,,1,805921,pdf,d8ca22d47071d291d62d311031eced04,,,G:\\!genesis\\1\\14.139.43.151\\The Wives of Henry the Eighth and the Parts They Played in History - Hume Martin Andrew Sharp 1847-1910_782.pdf,0,2000-01-01 01:00:00,2016-04-03 02:51:08,,,
18413138,The Woman and the Right to Vote,,,,Rafael Palma,2010,,General Books LLC,,31,0,English,,,,9781153799676,,B0082PRGPW,,,,,,kEGRSQAACAAJ,,787,0,,,,,,,1,382159,pdf,8f8a821af96a627aabc34ee69fa85f54,,,G:\\!genesis\\1\\14.139.43.151\\The Woman and the Right to Vote - Rafael Palma_787.pdf,0,2000-01-01 01:00:00,2016-04-03 02:51:08,,,
18413139,The Woman Who Toils,,,,Mrs. John van Vorst & Marie van Vorst,2014,,CreateSpace Independent Publishing Platform,,119,0,English,,,,"1495357198,9781495357190",,,,,,,,,,818,0,,,,,,,1,556253,pdf,141e20a3d5f50b1b91fed6b1b579904c,,,G:\\!genesis\\1\\14.139.43.151\\The Woman Who Toils - Mrs. John van Vorst &amp; Marie van Vorst_818.pdf,0,2000-01-01 01:00:00,2016-04-03 02:51:08,,,
18413140,The Women of the Arabs,,,,Henry Harris Jessup,2010,,Library of Alexandria,,142,0,English,,,,"1146858140,9781465526618",,,,,,,,HiqtlMRxInwC,,841,0,,,,,,,1,656031,pdf,e529d7812028d5d7901128f374d69d72,,,G:\\!genesis\\1\\14.139.43.151\\The Women of the Arabs - Henry Harris Jessup_841.pdf,0,2000-01-01 01:00:00,2016-04-03 02:51:08,,,
18413141,The Women of the French Salons: [1891],,,,Amelia Ruth Gere Mason,2009,,Cornell University Library,,117,0,English,,,,"1112076255,9781112076251",,,,,,,,,,842,0,,,,,,,1,649130,pdf,d423f295841dfac8ef16ae7df20940a8,,,G:\\!genesis\\1\\14.139.43.151\\The Women of the French Salons_ [1891] - Amelia Ruth Gere Mason_842.pdf,0,2000-01-01 01:00:00,2016-04-03 02:51:08,,,
18413142,The Women of Tomorrow...,,,,William Hard,2012,,Nabu Press,,68,0,English,,,,9781277323771,,B005GVY56S,,,,,,X0QSLwEACAAJ,,845,0,,,,,,,1,429651,pdf,e4cd04487ef0bcd5b4f56acf136770c1,,,G:\\!genesis\\1\\14.139.43.151\\The Women of Tomorrow__ - William Hard_845.pdf,0,2000-01-01 01:00:00,2016-04-03 02:51:08,,,
18413143,The Women Who Came in the Mayflower,,,,Marble Annie Russell 1864-1936,2013,,HardPress,,27,0,English,,,,"1313615846,9781313615846",,,,,,,,I3z8ngEACAAJ,,757,0,,,,,,,1,284237,pdf,75de8cdf37f2adb4d00ce158840d7eed,,,G:\\!genesis\\1\\14.139.43.151\\The Women Who Came in the Mayflower - Marble Annie Russell 1864-1936_757.pdf,0,2000-01-01 01:00:00,2016-04-03 02:51:08,,,
18413144,"The Young Derrida and French Philosophy, 1945-1968 (Ideas in Context) Hardcover",,,,Edward Baring,2011,,Cambridge University Press,,355,0,English,,,,"1107009677,9781107009677",,,,,,,,,,1377,0,,,,,,,1,2693633,pdf,aa235b84feee994c5406c81b55df3dbf,,,"G:\\!genesis\\1\\14.139.43.151\\The Young Derrida and French Philosophy, 1945-1968 (Ideas in Context) Hardcover - Edward Baring_1377.pdf",0,2000-01-01 01:00:00,2016-04-03 02:51:08,,,
18413145,"The Young Derrida and French Philosophy, 1945-1968 (Ideas in Context) Hardcover",,,,Edward Baring,2011,,Cambridge University Press,,,0,English,,,,"1107009677,9781107009677",,,,,,,,,,765,0,,,,,,,0,977548,mobi,227eacc6f7f6144b336afebe192da09f,,,"G:\\!genesis\\1\\14.139.43.151\\The Young Derrida and French Philosophy, 1945-1968 (Ideas in Context) Hardcover - Edward Baring_765.mobi",0,2000-01-01 01:00:00,2016-04-03 02:51:08,,,
18413146,The Young Maiden,,,,A. B. (artemas Bowers) Muzzey,2010,,FQ Books,,103,0,English,,,,,,B003YMMSK6,,,,,,,,766,0,,,,,,,1,526336,pdf,94062d3cd4b2396a4733ca62056e46d2,,,G:\\!genesis\\1\\14.139.43.151\\The Young Maiden - A. B. (artemas Bowers) Muzzey_766.pdf,0,2000-01-01 01:00:00,2016-04-03 02:51:08,,,
18413147,The Young Woman's Guide,,,,William A. Alcott,2010,,Kessinger Publishing,,116,0,English,,,,"1419189263,9781161482027",,,,,,,,8uc0SwAACAAJ,,767,0,,,,,,,1,762430,pdf,9c0cfa3a2d85e44dff113170664e64d3,,,G:\\!genesis\\1\\14.139.43.151\\The Young Woman&#39;s Guide - William A. Alcott_767.pdf,0,2000-01-01 01:00:00,2016-04-03 02:51:08,,,
18413148,Theory and Reform in the European Union,,,,Dimitris N. Chryssochoou & Michael J. Tsinisizelis & Stelios Stavridis & Kostas Ifantis,1999,,Manchester University Press,,265,0,English,,,,"0719049911,9780719049910",,,,,,,,,,1631,0,,,,,,,1,1928907,pdf,36b0f69917e1e502a1dbf25e1b20594e,,,G:\\!genesis\\1\\14.139.43.151\\Theory and Reform in the European Union - Dimitris N. Chryssochoou &amp; Michael J. Tsinisizelis &amp; Stelios Stavridis &amp; Kostas Ifantis_1631.pdf,0,2000-01-01 01:00:00,2016-04-03 02:51:08,,,
18413149,"Things in Culture, Culture in Things",,,,Anu Kannike & Patrick Laviolette,,,University of Tartu Press,,311,0,English,,,,,,,,,,,,,,1777,0,,,,,,,1,26919678,pdf,387bacff61272d254849f7455d75ffee,,,"G:\\!genesis\\1\\14.139.43.151\\Things in Culture, Culture in Things - Anu Kannike &amp; Patrick Laviolette_1777.pdf",0,2000-01-01 01:00:00,2016-04-03 02:51:08,,,
18413150,This morning I picked up a women‚Äôs magazine (I won‚Äôt say which because I‚Äôm about to be a little uncomplimentary and it‚Äôs my life‚Äôs ambition to remain un-sued for as long as possible),,,,Eve,,,,,80,0,English,,,,,,,,,,,,,,2175,0,,,,,,,1,1315283,pdf,9365e538d83879e490ab64d8285fba7c,,,G:\\!genesis\\1\\14.139.43.151\\This morning I picked up a women's magazine (I won't say which because I'm about to be a little uncomplimentary and it's my life's ambition to remain un-sued for as long as possible) - Eve_2175.pdf,0,2000-01-01 01:00:00,2016-04-03 02:51:08,,,
18413151,Thus Spake Zarathustra,,,,Friedrich Wilhelm Nietzsche,1885,,Feedbooks,,962,0,English,,,,,,,,,,,,,,1375,0,,,,,,,1,1706063,pdf,c1ecaaaa536716f0d7ba06d212230cad,,,G:\\!genesis\\1\\14.139.43.151\\Thus Spake Zarathustra - Friedrich Wilhelm Nietzsche_1375.pdf,0,2000-01-01 01:00:00,2016-04-03 02:51:08,,,
18413152,Time Management for Creative People,,,,Mark McGuinness,,,,,32,0,English,,,,,,,,,,,,,,799,0,,,,,,,1,1712941,pdf,f9164ede5648bbec3937ea3463176206,,,G:\\!genesis\\1\\14.139.43.151\\Time Management for Creative People - Mark McGuinness_799.pdf,0,2000-01-01 01:00:00,2016-04-03 02:51:08,,,
18413153,Tocqueville: The Ancien Regime and the French Revolution,,,,Jon Elster & Arthur Goldhammer,2007,,Cambridge University Press,,342,0,English,,,,,,B0058B8ZH6,,,,,,,,800,0,,,,,,,1,2494922,pdf,fa7f7dfef89895b8babcc04518b43679,,,G:\\!genesis\\1\\14.139.43.151\\Tocqueville_ The Ancien Regime and the French Revolution - Jon Elster &amp; Arthur Goldhammer_800.pdf,0,2000-01-01 01:00:00,2016-04-03 02:51:08,,,
18413154,Towards A New Welfare State,,,,Saskia Sassen & G√∏sta Esping-Andersen,,,"Scientific Council for Government Policy, Hague",,73,0,English,,,,,,,,,,,,,,1649,0,,,,,,,1,463818,pdf,6c14c3198b22b819e8e20b281f507946,,,G:\\!genesis\\1\\14.139.43.151\\Towards A New Welfare State - Saskia Sassen &amp; Gosta Esping-Andersen_1649.pdf,0,2000-01-01 01:00:00,2016-04-03 02:51:08,,,
18413155,Towards a theory of classification,,,,George A. Elliott,,,,,26,0,English,,,,,,,,,,,,,,802,0,,,,,,,1,193461,pdf,6de1015c08d84aa5d5586b58dc3ec109,,,G:\\!genesis\\1\\14.139.43.151\\Towards a theory of classification - George A. Elliott_802.pdf,0,2000-01-01 01:00:00,2016-04-03 02:51:08,,,
18413156,Training Manual on International Environmental Law,,,,Lal Kurukulasuriya & Nicholas A. Robinson,,,,,393,0,English,,,,,,,,,,,,,,1815,0,,,,,,,1,2642121,pdf,ad21bab37dc14b1d5c11bc0277c62025,,,G:\\!genesis\\1\\14.139.43.151\\Training Manual on International Environmental Law - Lal Kurukulasuriya &amp; Nicholas A. Robinson_1815.pdf,0,2000-01-01 01:00:00,2016-04-03 02:51:08,,,
18413157,"Transmedia Television: Audiences, New Media, and Daily Life",,,,Elizabeth Evans,2011,,Routledge,,221,0,English,,,,"041571236X,9780415882927",,,,,,,,fXisAgAAQBAJ,,804,0,,,,,,,1,1722553,pdf,16f931629f1f4c1f8b9cff006fbc4481,,,"G:\\!genesis\\1\\14.139.43.151\\Transmedia Television_ Audiences, New Media, and Daily Life - Elizabeth Evans_804.pdf",0,2000-01-01 01:00:00,2016-04-03 02:51:08,,,
18413158,Travels in Arabia; Comprehending an Account of Those Territories in Hedjaz Which the Mohammedans Regard as Sacred,,,,John Lewis Burckhardt,2005,,,,,0,English,,,,1414285191,,B008491Z76,,,,,,,,805,0,,,,,,,0,486502,epub,4cfcd237143260a7b4a7352284aefeca,,,G:\\!genesis\\1\\14.139.43.151\\Travels in Arabia; Comprehending an Account of Those Territories in Hedjaz Which the Mohammedans Regard as Sacred - John Lewis Burckhardt_805.epub,0,2000-01-01 01:00:00,2016-04-03 02:51:08,,,
18413159,Treasures in the Sunnah : A Scientific Approch,,,,Zaghlul El-Naggar,2005,,Al - Falah for Translation Publishing Distribution,,154,0,Arabic,,,,9789773630447,,,,,,,,OGSDQgAACAAJ,,807,0,,,,,,,0,4848789,pdf,c169ddbbee378d24d529124291d041b0,,,G:\\!genesis\\1\\14.139.43.151\\Treasures in The Sunnah _ A Scientific Approch - Zaghlul El-Naggar_807.pdf,0,2000-01-01 01:00:00,2016-04-03 02:51:08,,,
18413160,Treatise on the Diseases of Women,,,,Lydia Estes Pinkham,2012,,Tredition Classics,,,0,English,,,,9783847218227,,B004TQGGZO,,,,,,O1RyuQAACAAJ,,1374,0,,,,,,,0,1166555,epub,27d8fe60748f00267677ad1ae8549ec5,,,G:\\!genesis\\1\\14.139.43.151\\Treatise on the Diseases of Women - Lydia Estes Pinkham_1374.epub,0,2000-01-01 01:00:00,2016-04-03 02:51:08,,,
18413161,Treatise on the Diseases of Women,,,,Lydia Estes Pinkham,2012,,Tredition Classics,,82,0,English,,,,9783847218227,,B004TQGGZO,,,,,,Yg2VngEACAAJ,,809,0,,,,,,,1,498897,pdf,3ce38af7ae506a0035254348083ed915,,,G:\\!genesis\\1\\14.139.43.151\\Treatise on the Diseases of Women - Lydia Estes Pinkham_809.pdf,0,2000-01-01 01:00:00,2016-04-03 02:51:08,,,
18413162,Tribes of India: The Struggle for Survival,,,,Christoph von F√ºrer-Haimendorf,1982,,University of California Press,,178,0,English,,,,"0520043154,9780520043152",,,,,,,,bq6VDF9gB4gC,,1921,0,,,,,,,1,6794589,pdf,1bbac8a07af9384c8d1586a340611775,,,G:\\!genesis\\1\\14.139.43.151\\Tribes of India_ The Struggle for Survival - Christoph von Furer-Haimendorf_1921.pdf,0,2000-01-01 01:00:00,2016-04-03 02:51:08,,,
18413163,Turning Over a New Leaf: Change and Development in the Medieval Manuscript,,,,Erik Kwakkel & Rosamond McKitterick & Rodney Thomson,2012,,Leiden University Press,,225,0,English,,,,"9087281552,9789087281557",,,,,,,,BaD0ngEACAAJ,,1516,0,,,,,,,1,5978593,pdf,959f8e53b454e6bce366a9ef504c8729,,,G:\\!genesis\\1\\14.139.43.151\\Turning Over a New Leaf_ Change and Development in the Medieval Manuscript - Erik Kwakkel &amp; Rosamond McKitterick &amp; Rodney Thomson_1516.pdf,0,2000-01-01 01:00:00,2016-04-03 02:51:08,,,
18413164,Two Old Faiths: Essays on the Religions of the Hindus and the Mohammedans,,,,J. Murray Mitchell Ma & Sir Willilam Muir Lld,2013,,CreateSpace Independent Publishing Platform,,,0,English,,,,"1417920009,9781493662364",,,,,,,,,,812,0,,,,,,,0,161132,epub,26e618572d695f4457e8644c10f45553,,,G:\\!genesis\\1\\14.139.43.151\\Two Old Faiths_ Essays on the Religions of the Hindus and the Mohammedans - J. Murray Mitchell Ma &amp; Sir Willilam Muir Lld_812.epub,0,2000-01-01 01:00:00,2016-04-03 02:51:08,,,
18413165,Two Treatises of Government,,,,John Locke,1988,,Cambridge University Press,,64,0,English,,,,"9562915514,9780521357302",,,,,,,,gRNDLAK4kPUC,,1884,0,,,,,,,1,499139,pdf,c79db604860f169fe1716bf9f13bf10c,,,G:\\!genesis\\1\\14.139.43.151\\Two Treatises of Government - John Locke_1884.pdf,0,2000-01-01 01:00:00,2016-04-03 02:51:08,,,
18413166,Types of Childrens Literature,,,,Walter Barnes,2006,,Hard Press,,,0,English,,,,"143784748X,9781406928952",,,,,,,,,,813,0,,,,,,,0,421698,epub,d0285193f5461bdfbc670f1b670f209e,,,G:\\!genesis\\1\\14.139.43.151\\Types of Childrens Literature - Walter Barnes_813.epub,0,2000-01-01 01:00:00,2016-04-03 02:51:08,,,
18413167,"Uma Politics: An Ethnography of Democratization in West Sumba, Indonesia, 1986-2006",,,,Jacqueline A. C. Vel,2008,,BRILL,,297,0,English,,,,"9067183245,9789004253926",,,,,,,,VfJjAAAAQBAJ,,1695,0,,,,,,,1,9234160,pdf,c03607795e93294e2e2515720c915723,,,"G:\\!genesis\\1\\14.139.43.151\\Uma Politics_ An Ethnography of Democratization in West Sumba, Indonesia, 1986-2006 - Jacqueline A. C. Vel_1695.pdf",0,2000-01-01 01:00:00,2016-04-03 02:51:08,,,
18413168,Understanding Islam - Quick Grasp of Faith,,,,Harun Yahya & Adnan Oktar,2011,,Global Publishing,,116,0,English,,,,,,B004KAA8XK,,,,,,,,1449,0,,,,,,,1,806873,pdf,39b9dd3f4fdfb56ed54b52a98ce8baa5,,,G:\\!genesis\\1\\14.139.43.151\\Understanding Islam - Quick Grasp of Faith - Harun Yahya &amp; Adnan Oktar_1449.pdf,0,2000-01-01 01:00:00,2016-04-03 02:51:08,,,
18413169,Understanding Organisations: Part I,,,,Bookboon.com,,,,,92,0,English,,,,,,,,,,,,,,2196,0,,,,,,,0,2329214,pdf,d7ebe335ec40cb3665f7775a79b48067,,,G:\\!genesis\\1\\14.139.43.151\\Understanding Organisations_ Part I - Bookboon.com_2196.pdf,0,2000-01-01 01:00:00,2016-04-03 02:51:08,,,
18413170,Understanding Organisations: Part II,,,,Bookboon.com,,,,,125,0,English,,,,,,,,,,,,,,2197,0,,,,,,,0,2537981,pdf,a16472d0f262440cf2c84bb230a27fa3,,,G:\\!genesis\\1\\14.139.43.151\\Understanding Organisations_ Part II - Bookboon.com_2197.pdf,0,2000-01-01 01:00:00,2016-04-03 02:51:08,,,
18413171,Understanding Political Ideas and Movements,,,,Kevin Harrison & Tony Boyd,2003,,Manchester University Press,,368,0,English,,,,"0719061512,9780719061516",,,,,,,,,,1637,0,,,,,,,1,1685874,pdf,001fa215d4bcc974886d84c83640e8f5,,,G:\\!genesis\\1\\14.139.43.151\\Understanding Political Ideas and Movements - Kevin Harrison &amp; Tony Boyd_1637.pdf,0,2000-01-01 01:00:00,2016-04-03 02:51:08,,,
18413172,Understanding Processes of Ethnic Concentration and Dispersal (IMISCOE Dissertations),,,,Jennifer Leigh McGarrigle,2010,,Amsterdam University Press,,257,0,English,,,,"9053565663,9789053566718",,,,,,,,X24bDPbK2gQC,,1648,0,,,,,,,1,3596230,pdf,dc1cca76a88d9d7845f7d901ee4264f1,,,G:\\!genesis\\1\\14.139.43.151\\Understanding Processes of Ethnic Concentration and Dispersal (IMISCOE Dissertations) - Jennifer Leigh McGarrigle_1648.pdf,0,2000-01-01 01:00:00,2016-04-03 02:51:08,,,
18413173,Understanding the Archaeological Record Paperback,,,,Gavin Lucas,2012,,Cambridge University Press,,328,0,English,,,,"0521279690,9780521279697",,,,,,,,,,815,0,,,,,,,1,2808151,pdf,94b73534e2d08bec7c34da60b431b3e6,,,G:\\!genesis\\1\\14.139.43.151\\Understanding the Archaeological Record Paperback - Gavin Lucas_815.pdf,0,2000-01-01 01:00:00,2016-04-03 02:51:08,,,
18413174,Understanding the Dollar Crisis,,,,Percy L. Greaves Jr. & Ludwig von Mises,2011,,Ludwig von Mises Institute,,332,0,English,,,,9781610163125,,B006BG83LK,,,,,,1DvBr0cq9iEC,,816,0,,,,,,,1,23042175,pdf,47773693514972e9f87fead6d94e4427,,,G:\\!genesis\\1\\14.139.43.151\\Understanding the Dollar Crisis - Percy L. Greaves Jr. &amp; Ludwig von Mises_816.pdf,0,2000-01-01 01:00:00,2016-04-03 02:51:08,,,
18413175,united states human expedition,,,,Timothy Rodgers,,,,,28,0,English,,,,,,,,,,,,,,1450,0,,,,,,,1,193223,pdf,a135a087ee9c5bc7880be0e2d9c9ed26,,,G:\\!genesis\\1\\14.139.43.151\\united states human expedition - Timothy Rodgers_1450.pdf,0,2000-01-01 01:00:00,2016-04-03 02:51:08,,,
18413176,Vanished Arizona: Recollections of the Army Life of a New England Woman,,,,Martha Summerhayes,2013,,CreateSpace Independent Publishing Platform,,113,0,English,,,,"1492225177,9781492225171",,,,,,,,,,849,0,,,,,,,1,527134,pdf,5a64af51617e9042955c50ba5074816d,,,G:\\!genesis\\1\\14.139.43.151\\Vanished Arizona_ Recollections of the Army Life of a New England Woman - Martha Summerhayes_849.pdf,0,2000-01-01 01:00:00,2016-04-03 02:51:08,,,
18413177,Verb Tenses in Urdu Language,,,,Sajid Hussain,,,,,34,0,English-Urdu,,,,,,,,,,,,,,850,0,,,,,,,1,1889622,pdf,845f431836a9969a0abe50434551835d,,,G:\\!genesis\\1\\14.139.43.151\\Verb Tenses in Urdu Language - Sajid Hussain_850.pdf,0,2000-01-01 01:00:00,2016-04-03 02:51:08,,,
18413178,Violence Against Women Under International Human Rights Law,,,,Alice Edwards,2010,,Cambridge University Press,,419,0,English,,,,"052176713X,9781139494854",,,,,,,,C0L-hSYyFkQC,,1368,0,,,,,,,1,3203287,pdf,af65d50b0984ab58b432886d7daf9f9c,,,G:\\!genesis\\1\\14.139.43.151\\Violence Against Women Under International Human Rights Law - Alice Edwards_1368.pdf,0,2000-01-01 01:00:00,2016-04-03 02:51:08,,,
18413179,Vocational Guidance for Girls,,,,Marguerite Stockman Dickson,2012,,Library of Alexandria,,96,0,English,,,,9781465571878,,B00AR1AINQ,,,,,,WqOcngEACAAJ,,854,0,,,,,,,1,494994,pdf,b2c20b1eb119b9eb2f136dd8f941a781,,,G:\\!genesis\\1\\14.139.43.151\\Vocational Guidance for Girls - Marguerite Stockman Dickson_854.pdf,0,2000-01-01 01:00:00,2016-04-03 02:51:08,,,
18413180,"Wage Setting, Social Pacts and the Euro: A New Role for the State",,,,Anke Hassel,2006,,Amsterdam University Press,,335,0,English,,,,"9053569197,9789053569191",,,,,,,,sdpF1zun8TsC,,1666,0,,,,,,,1,3026592,pdf,ad13072707bb811d5d901eff7a108b17,,,"G:\\!genesis\\1\\14.139.43.151\\Wage Setting, Social Pacts and the Euro_ A New Role for the State - Anke Hassel_1666.pdf",0,2000-01-01 01:00:00,2016-04-03 02:51:08,,,
18413181,"Wall Street, Banks, and American Foreign Policy (Large Print Edition)",,,,Murray N. Rothbard,2011,,CreateSpace Independent Publishing Platform,,107,0,English,,,,"1610161920,9781479396825",,,,,,,,0M93iTZW6uQC,,855,0,,,,,,,1,19105831,pdf,d953e9aeac21868f0ae6359f9094e818,,,"G:\\!genesis\\1\\14.139.43.151\\Wall Street, Banks, and American Foreign Policy (Large Print Edition) - Murray N. Rothbard_855.pdf",0,2000-01-01 01:00:00,2016-04-03 02:51:08,,,
18413182,Physics and politics,,,,Walter Bagehot,,,,,111,0,English,,,,,,,,,,,,,,2201,0,,,,,,,1,393797,pdf,7c241bb6bf7aef1e7584f185969bf473,,,G:\\!genesis\\1\\14.139.43.151\\Walter Bagehot--Physics and politics - Unknown_2201.pdf,0,2000-01-01 01:00:00,2016-04-03 02:51:08,,,
18413183,The english constitution,,,,Walter Bagehot,,,,,192,0,English,,,,,,,,,,,,,,2202,0,,,,,,,1,682140,pdf,e2895001bf1668ad0e29c077f7c86b44,,,G:\\!genesis\\1\\14.139.43.151\\Walter Bagehot--The english constitution - Unknown_2202.pdf,0,2000-01-01 01:00:00,2016-04-03 02:51:08,,,
18413184,War and Peace,,,,Lev Nikolayevich Tolstoy,1869,,Feedbooks,,5234,0,English,,,,,,,,,,,,,,1367,0,,,,,,,1,8419523,pdf,79693e0c66eeedf4be3745504905c028,,,G:\\!genesis\\1\\14.139.43.151\\War and Peace - Lev Nikolayevich Tolstoy_1367.pdf,0,2000-01-01 01:00:00,2016-04-03 02:51:08,,,
18413185,"War, Aggression and Self-Defence",,,,Yoram Dinstein,1988,,Cambridge University Press,,421,0,English,,,,"1107401453,9780521850803",,,,,,,,,,857,0,,,,,,,1,3078818,pdf,fb4c2d0caaef7f7b9f59cc2e7258e70f,,,"G:\\!genesis\\1\\14.139.43.151\\War, Aggression and Self-Defence - Yoram Dinstein_857.pdf",0,2000-01-01 01:00:00,2016-04-03 02:51:08,,,
18413186,Water on Tap: Rights and Regulation in the Transnational Governance of Urban Water Services (Cambridge Studies in Law and Society) Paperback,,,,Bronwen Morgan,2012,,Cambridge University Press,,227,0,English,,,,"1107411831,9781107411838",,,,,,,,,,1366,0,,,,,,,1,2000874,pdf,2fff2e0d144fa0b52f12a1d2d661b221,,,G:\\!genesis\\1\\14.139.43.151\\Water on Tap_ Rights and Regulation in the Transnational Governance of Urban Water Services (Cambridge Studies in Law and Society) Paperback - Bronwen Morgan_1366.pdf,0,2000-01-01 01:00:00,2016-04-03 02:51:08,,,
18413187,Water on Tap: Rights and Regulation in the Transnational Governance of Urban Water Services (Cambridge Studies in Law and Society) Paperback,,,,Bronwen Morgan,2012,,Cambridge University Press,,,0,English,,,,"1107411831,9781107411838",,,,,,,,,,859,0,,,,,,,0,786959,mobi,ddd5be52eb6593840aa292b7ac1a9956,,,G:\\!genesis\\1\\14.139.43.151\\Water on Tap_ Rights and Regulation in the Transnational Governance of Urban Water Services (Cambridge Studies in Law and Society) Paperback - Bronwen Morgan_859.mobi,0,2000-01-01 01:00:00,2016-04-03 02:51:08,,,
18413188,We Need Two Worlds: Chinese Immigrant Associations in a Western Society,,,,Minghuan Li,1999,,Amsterdam University Press,,302,0,English,,,,"9053564020,9789053564028",,,,,,,,SG6JrjLSKc8C,,1561,0,,,,,,,1,3439746,pdf,3ee970e36d6e4320613b6180cac94a70,,,G:\\!genesis\\1\\14.139.43.151\\We Need Two Worlds_ Chinese Immigrant Associations in a Western Society - Minghuan Li_1561.pdf,0,2000-01-01 01:00:00,2016-04-03 02:51:08,,,
18413189,West Indian Intellectuals in Britain,,,,Bill Schwarz,2003,,Manchester University Press,,273,0,English,,,,"0719064759,9780719064746",,,,,,,,9p7rAAAAMAAJ,,1640,0,,,,,,,1,1465097,pdf,a75d48614dba3bcb913ef37e6a24cae3,,,G:\\!genesis\\1\\14.139.43.151\\West Indian Intellectuals in Britain - Bill Schwarz_1640.pdf,0,2000-01-01 01:00:00,2016-04-03 02:51:08,,,
18413190,Western Intervention in the Balkans: the Strategic Use of Emotion in Conflict,,,,ROGER D. PETERSEN,2011,,Cambridge University Press,,365,0,English,,,,,,,,,,,,,,860,0,,,,,,,1,3163724,pdf,22f0a89215164cdbaf35bedc45fcda21,,,G:\\!genesis\\1\\14.139.43.151\\Western Intervention in the Balkans_ the Strategic Use of Emotion in Conflict - ROGER D. PETERSEN_860.pdf,0,2000-01-01 01:00:00,2016-04-03 02:51:08,,,
18413191,What About Asia?: Revisiting Asian Studies,,,,Josine Stremmelaar & Paul van Der Velde,2006,,Amsterdam University Press,,109,0,English,,,,"9053569596,9789053569597",,,,,,,,IbZPnwEACAAJ,,1654,0,,,,,,,1,2535054,pdf,78bacc71298f85e73ed3db927fef15c6,,,G:\\!genesis\\1\\14.139.43.151\\What About Asia__ Revisiting Asian Studies - Josine Stremmelaar &amp; Paul van Der Velde_1654.pdf,0,2000-01-01 01:00:00,2016-04-03 02:51:08,,,
18413192,What Eight Million Women Want,,,,Rheta Childe Dorr,1971,,Library of Alexandria,,88,0,English,,,,9781465526557,,B0084BWJU6,,,,,,CttY9Me2pOEC,,861,0,,,,,,,1,431635,pdf,233ffbe5c9f1599f0b01839325c0dbfa,,,G:\\!genesis\\1\\14.139.43.151\\What Eight Million Women Want - Rheta Childe Dorr_861.pdf,0,2000-01-01 01:00:00,2016-04-03 02:51:08,,,
18413193,What Future for Political Islam,,,,G. Fuller & M. Kurpershoek,2004,,WRR,,46,0,English,,,,9789080899735,,,,,,,,8LCCnQEACAAJ,,1647,0,,,,,,,1,309237,pdf,c8ea81e7e505a283d4ffe88a088710cd,,,G:\\!genesis\\1\\14.139.43.151\\What Future for Political Islam - G. Fuller &amp; M. Kurpershoek_1647.pdf,0,2000-01-01 01:00:00,2016-04-03 02:51:08,,,
18413194,What Has the Government Done to Our Money? [Reprint of First Edition],,,,Murray Newton Rothbard,2011,,Martino Fine Books,,130,0,English,,,,"1614271348,9781614271345",,,,,,,,aoq_ngEACAAJ,,862,0,,,,,,,1,2915037,pdf,ea0ff98e639b541698ca545b2a56f402,,,G:\\!genesis\\1\\14.139.43.151\\What Has the Government Done to Our Money_ [Reprint of First Edition] - Murray Newton Rothbard_862.pdf,0,2000-01-01 01:00:00,2016-04-03 02:51:08,,,
18413195,What You Should Know About Inflation,,,,Henry Hazlitt,2013,,"Literary Licensing, LLC",,160,0,English,,,,"1169829848,9781258970888",,,,,,,,d1jZnQEACAAJ,,863,0,,,,,,,1,5485695,pdf,f14812da7a81ea37bb3defeab887e9cd,,,G:\\!genesis\\1\\14.139.43.151\\What You Should Know About Inflation - Henry Hazlitt_863.pdf,0,2000-01-01 01:00:00,2016-04-03 02:51:08,,,
18413196,Whatever Happened to Frank and Fearless?: The Impact of New Public Management on the Australian Public Service,,,,Kathy MacDermott,2008,,ANU E Press,,176,0,English,,,,"1921313919,9781921313912",,,,,,,,AbIELhokw1sC,,1729,0,,,,,,,1,2718538,pdf,6ca9a46fef28b82a33dc7b62b12911cb,,,G:\\!genesis\\1\\14.139.43.151\\Whatever Happened to Frank and Fearless__ The Impact of New Public Management on the Australian Public Service - Kathy MacDermott_1729.pdf,0,2000-01-01 01:00:00,2016-04-03 02:51:08,,,
18413197,When Life Begins,,,,Abu Yahya & Bashir Nazir,2012,,Smashwords,,152,0,English,,,,,,B009WB7AOC,,,,,,,,1401,0,,,,,,,1,770239,pdf,873fdd3ae09141e6dbf83afcca315bca,,,G:\\!genesis\\1\\14.139.43.151\\When Life Begins - Abu Yahya &amp; Bashir Nazir_1401.pdf,0,2000-01-01 01:00:00,2016-04-03 02:51:08,,,
18413198,Whistling While They Work: A Good-Practice Guide for Managing Internal Reporting of Wrongdoing in Public Sector Organisations,,,,Peter Roberts & A. J. Brown & Jane Olsen,2012,,ANU E Press,,126,0,English,,,,"1921862300,9781921862304",,,,,,,,,,1728,0,,,,,,,1,2208650,pdf,4ead8d305ea4fae7624e93f242957317,,,G:\\!genesis\\1\\14.139.43.151\\Whistling While They Work_ A Good-Practice Guide for Managing Internal Reporting of Wrongdoing in Public Sector Organisations - Peter Roberts &amp; A. J. Brown &amp; Jane Olsen_1728.pdf,0,2000-01-01 01:00:00,2016-04-03 02:51:08,,,
18413199,Who Speaks for the Climate?: Making Sense of Media Reporting on Climate Change Paperback,,,,Maxwell T. Boykoff,2011,,Cambridge University Press,,249,0,English,,,,"052113305X,9780521133050",,,,,,,,,,864,0,,,,,,,1,2698192,pdf,a4712f1b40b45e3f58d55c56f2ef78a8,,,G:\\!genesis\\1\\14.139.43.151\\Who Speaks for the Climate__ Making Sense of Media Reporting on Climate Change Paperback - Maxwell T. Boykoff_864.pdf,0,2000-01-01 01:00:00,2016-04-03 02:51:08,,,
18413200,Why Are Artists Poor?: The Exceptional Economy of the Arts,,,,Hans Abbing,2004,,Amsterdam University Press,,369,0,English,,,,"9053565655,9789053565650",,,,,,,,,,1554,0,,,,,,,1,2420448,pdf,45b0e407b4519bdccdabdfb6b60bf52a,,,G:\\!genesis\\1\\14.139.43.151\\Why Are Artists Poor__ The Exceptional Economy of the Arts - Hans Abbing_1554.pdf,0,2000-01-01 01:00:00,2016-04-03 02:51:08,,,
18413201,Why Do We Need a Public Library? - Material for a Library Campaign,,,,,2010,,FQ Books,,,0,English,,,,,,B003YMO2CS,,,,,,,,776,0,,,,,,,0,86698,epub,af63da24d3b0108beb80bcbb4ab7e400,,,G:\\!genesis\\1\\14.139.43.151\\Why Do We Need a Public Library_ - Material for a Library Campaign - Various_776.epub,0,2000-01-01 01:00:00,2016-04-03 02:51:08,,,
18413202,"Why Things Matter to People: Social Science, Values and Ethical Life by Sayer, Andrew (2011)",,,,Andrew Sayer,,,Cambridge University Press,,304,0,English,,,,,,B00DO98G50,,,,,,,,777,0,,,,,,,1,1717813,pdf,10ddb1037974459aab2fe6bb6de66639,,,"G:\\!genesis\\1\\14.139.43.151\\Why Things Matter to People_ Social Science, Values and Ethical Life by Sayer, Andrew (2011) - Andrew Sayer_777.pdf",0,2000-01-01 01:00:00,2016-04-03 02:51:08,,,
18413203,Wild Justice,,,,Ruth M. Sprague,1993,,T'wanda Books,,139,0,English,,,,"1883889057,9781883889050",,,,,,,,CIU9AQAACAAJ,,779,0,,,,,,,1,521703,pdf,84ce3aa61d2133729449f3f56ebf7719,,,G:\\!genesis\\1\\14.139.43.151\\Wild Justice - Ruth M. Sprague_779.pdf,0,2000-01-01 01:00:00,2016-04-03 02:51:08,,,
18413204,Will Dollars Save the World? (1947),,,,Henry Hazlitt,2010,,"Kessinger Publishing, LLC",,94,0,English,,,,"1162557443,9781162557441",,,,,,,,,,780,0,,,,,,,1,4482189,pdf,14c2e03ea560f78ae2b10dfa7470f210,,,G:\\!genesis\\1\\14.139.43.151\\Will Dollars Save the World_ (1947) - Henry Hazlitt_780.pdf,0,2000-01-01 01:00:00,2016-04-03 02:51:08,,,
18413205,Woman,,,,Magdeleine Marx,2008,,BiblioBazaar,,99,0,English,,,,9780559662409,,,,,,,,nfyZ4nRPpjwC,,783,0,,,,,,,1,470999,pdf,ca5eed97c02d775c3d7a65bd7b519b33,,,G:\\!genesis\\1\\14.139.43.151\\Woman - Magdeleine Marx_783.pdf,0,2000-01-01 01:00:00,2016-04-03 02:51:08,,,
18413206,Woman,,,,William J. Robinson,2010,,hard Press (MA),,153,0,English,,,,"1492275425,9781492275428",,,,,,,,1nPWRgAACAAJ,,1376,0,,,,,,,1,607913,pdf,a1ee8477137cfbd558bbc4c972630c4e,,,G:\\!genesis\\1\\14.139.43.151\\Woman - William J. Robinson_1376.pdf,0,2000-01-01 01:00:00,2016-04-03 02:51:08,,,
18413207,Woman and Labour,,,,Olive Schreiner,2010,,JPM Ediciones,,73,0,English,,,,9788493796020,,B0082SY0GW,,,,,,RdFNe5u5hhMC,,784,0,,,,,,,1,373763,pdf,728cf50ef1100c16e9d7a17078bd7dda,,,G:\\!genesis\\1\\14.139.43.151\\Woman and Labour - Olive Schreiner_784.pdf,0,2000-01-01 01:00:00,2016-04-03 02:51:08,,,
18413208,Woman and the New Race,,,,Margaret Sanger,2005,,"Cosimo, Inc.",,86,0,English,,,,9781596055193,,,,,,,,CRtOK629necC,,2222,0,,,,,,,1,536943,pdf,52aa8bc97de6a7af9f370b170370ae84,,,G:\\!genesis\\1\\14.139.43.151\\Woman and the New Race - Margaret Sanger_2222.pdf,0,2000-01-01 01:00:00,2016-04-03 02:51:08,,,
18413209,Woman and the New Race,,,,Margaret Sanger,2005,,"Cosimo, Inc.",,69,0,English,,,,"1178388506,9781596055193",,,,,,,,CRtOK629necC,,785,0,,,,,,,1,382609,pdf,6381943e07c08d9e6c26da0f2653d3ec,,,G:\\!genesis\\1\\14.139.43.151\\Woman and the New Race - Margaret Sanger_785.pdf,0,2000-01-01 01:00:00,2016-04-03 02:51:08,,,
18413210,Woman and the Republic,,,,Helen Kendrick Johnson,2004,,Kessinger Publishing,,120,0,English,,,,"1419194755,9781419294754",,,,,,,,AmdIngEACAAJ,,786,0,,,,,,,1,566140,pdf,10546b092e619041b9bb5e5dc2ea885e,,,G:\\!genesis\\1\\14.139.43.151\\Woman and the Republic - Helen Kendrick Johnson_786.pdf,0,2000-01-01 01:00:00,2016-04-03 02:51:08,,,
18413211,Woman in Modern Society,,,,Earl Barnes,2012,,tredition,,68,0,English,,,,9783847203674,,,,,,,,1ekUQZ-7mqcC,,789,0,,,,,,,1,477658,pdf,c66255f3a93a7d5481e0367928d31792,,,G:\\!genesis\\1\\14.139.43.151\\Woman in Modern Society - Earl Barnes_789.pdf,0,2000-01-01 01:00:00,2016-04-03 02:51:08,,,
18413212,Woman in Science,,,,John Augustine Zahm,2012,,Nabu Press,,263,0,English,,,,9781248554135,,B00AWJRZ0C,,,,,,WbYdLgEACAAJ,,790,0,,,,,,,1,866419,pdf,9c63bc1c01a7caa8588628bb11a17bc0,,,G:\\!genesis\\1\\14.139.43.151\\Woman in Science - John Augustine Zahm_790.pdf,0,2000-01-01 01:00:00,2016-04-03 02:51:08,,,
18413213,Woman in the Nineteenth Century,,,,Margaret Fuller Ossoli,2009,,BCR,,162,0,English,,,,"1409933016,9781115417655",,,,,,,,c_rRQgAACAAJ,,791,0,,,,,,,1,624887,pdf,1b7b7c3214ada14325cd642289a96ba8,,,G:\\!genesis\\1\\14.139.43.151\\Woman in the Nineteenth Century - Margaret Fuller Ossoli_791.pdf,0,2000-01-01 01:00:00,2016-04-03 02:51:08,,,
18413214,Woman on the American Frontier,,,,William Worthington Fowler,2004,,"Kessinger Publishing, LLC",,203,0,English,,,,"1596056754,9781419194771",,,,,,,,,,792,0,,,,,,,1,754257,pdf,0f05819c1138a1a4d7a2e29d53eaebba,,,G:\\!genesis\\1\\14.139.43.151\\Woman on the American Frontier - William Worthington Fowler_792.pdf,0,2000-01-01 01:00:00,2016-04-03 02:51:08,,,
18413215,Woman Suffrage by Federal Constitutional Amendment,,,,Carrie Chapman Catt,2010,,Qontro Classic Books,,35,0,English,,,,,,B003VS0PY4,,,,,,,,793,0,,,,,,,1,294274,pdf,73ad2362fb16221769181273dc3acef2,,,G:\\!genesis\\1\\14.139.43.151\\Woman Suffrage by Federal Constitutional Amendment - Carrie Chapman Catt_793.pdf,0,2000-01-01 01:00:00,2016-04-03 02:51:08,,,
18413216,Woman Under Socialism,,,,August Bebel,2012,,HardPress,,251,0,English,,,,9781290277921,,,,,,,,8g0RuAAACAAJ,,794,0,,,,,,,1,1604255,pdf,53348dd1c46362bd0ec707951d539eb0,,,G:\\!genesis\\1\\14.139.43.151\\Woman Under Socialism - August Bebel_794.pdf,0,2000-01-01 01:00:00,2016-04-03 02:51:08,,,
