19282222,Linux Application Development Using Websphere Studio 5,,,,"IBM Redbooks, Osamu Takagiwa",2003,,IBM.Com/Redbooks,,222,0,English,100,avaxhome.ws,,"9780738427911,0738427918",,,,,,,,,OL10606890M,19190,0,,,,,,,1,3356344,pdf,88F7C0F0EFF8122FC71C8C318EA660BF,,,Y. dl_avaxhome 19190  _=sg246431.pdf,0,2000-01-01 01:00:00,2016-04-03 02:51:08,261000/88f7c0f0eff8122fc71c8c318ea660bf-g.jpg,,
19282223,U.S. Trade Strategy: Free Versus Fair,,,,Daniel W. Drezner,2006,,Council on Foreign Relations Press,,146,0,English,189,avaxhome.ws,,"9780876093498,0876093497",,,,,,,,,OL8091378M,19195,0,,,,,,,1,5629221,pdf,CA0C5EF32FF1B1280D5A45774A61BBFB,,,Y. dl_avaxhome 19195  _=CPCTrade.pdf,0,2000-01-01 01:00:00,2016-04-03 02:51:08,261000/ca0c5ef32ff1b1280d5a45774a61bbfb-d.jpg,,
19282224,Practice Makes Perfect: Complete Spanish Grammar,,,,Gilda Nissenberg,2004,1,McGraw-Hill,,386,0,English,314,avaxhome.ws,,"9780071422703,0071422706",,,,,428.2/421,PC4112 .N57 2004,,,OL3314200M,19221,0,,,,,,,0,5321991,pdf,C0F075317EAA49778FE6FD642C028BE9,,,Y. dl_avaxhome 19221  _=PraSpanGra.pdf,0,2000-01-01 01:00:00,2016-04-03 02:51:08,261000/c0f075317eaa49778fe6fd642c028be9-d.jpg,,
19282225,Ajax Patterns and Best Practices,,Expert's Voice,,Christian Gross,2006,1,Apress,,408,0,English,92,avaxhome.ws,,"9781590596166,1590596161",,,,,"006.76,005.713",QA76.73.J39 G76 2006,,,OL24744627M,19261,0,,,,,,,1,17766297,pdf,E1F9E6D7E032FDFB24BADEED508441C9,,,Y. dl_avaxhome 19261  _=ebook.Ajax_Patterns_and_Best_Practices_Experts_Voice.1590596161.pdf,0,2000-01-01 01:00:00,2016-04-03 02:51:08,261000/e1f9e6d7e032fdfb24badeed508441c9-d.jpg,,
19282226,Analogue and Numerical Modelling of Sedimentary Systems: From Understanding to Prediction,,Special Publication 40 of the IAS) (International Association Of Sedimentologists Series,,"Poppe de Boer, George Postma, Kees van der Zwan, Peter Burgess, Peter Kukla",2008,1,Wiley-Blackwell,,321,0,English,120,avaxhome.ws,,"9781405189309,1405189304",,,,,552/.5,QE615.5.I8 A53 2008,,,OL23157920M,19288,0,,,,,,,1,36426748,pdf,63D79EBF1DE37519539B4EA3F0DF1B5A,,,Y. dl_avaxhome 19288  _=1405189304.pdf,0,2000-01-01 01:00:00,2016-04-03 02:51:08,261000/63d79ebf1de37519539b4ea3f0df1b5a-d.jpg,,
19282227,Pick'n up the Pace -- Microcontroller Application Guide,,for intermediate users,,David Benson,1999,1.1,Square 1 Electronics,,271,0,English,254,avaxhome.ws,,"9780965416214,0965416216",,,,,,,,,OL8529779M,19291,0,,,,,,,0,11823627,pdf,DAD51F4BDA8C7B470DB5415EFF29F00B,,,Y. dl_avaxhome 19291  _=0964516216_3.pdf,0,2000-01-01 01:00:00,2016-04-03 02:51:08,261000/dad51f4bda8c7b470db5415eff29f00b-d.jpg,,
19282228,3G Handset and Network Design,,,,"Geoff Varrall, Roger Belcher",2003,,Wiley,,561,0,English,99,avaxhome.ws,,"0471229369,9780471229360,9780471455264",,,,,384.5/35,TK6570.M6 V35 2003,,,OL24272727M,19292,0,,,,,,1,1,7710606,pdf,A255C5AB6A4E254C75CC261E768E1D02,,,Y. dl_avaxhome 19292  _=3g_handset_and_network_design.pdf,0,2000-01-01 01:00:00,2016-04-03 02:51:08,261000/a255c5ab6a4e254c75cc261e768e1d02-d.jpg,,
19282229,3ds max 7 Bible,,,,Kelly L. Murdock,2005,,Wiley,,1297,0,English,97,avaxhome.ws,,"9780764579714,0764579711",,,,,,,,,OL8051753M,19295,0,,,,,,,1,27422694,pdf,B2CEF88C23F35F2D7C99AC39DE668747,,,Y. dl_avaxhome 19295  _=3ds_max_7_bible_-_isbn_0764579711_-_1297s_-_lotb.pdf,0,2000-01-01 01:00:00,2016-04-03 02:51:08,261000/b2cef88c23f35f2d7c99ac39de668747-d.jpg,,
19282230,The Art of Recording: Understanding and Crafting the Mix,,,,William Moylan,2002,1,Focal Press,,361,0,English,210,avaxhome.ws,,"9780240804835,024080483X",,,,,,,,,OL9510291M,19306,0,,,,,,,1,4126193,pdf,0F6DFCA9D6AFB548CC3FCFB710FDBCC2,,,Y. dl_avaxhome 19306  _=Art_Of_Rec.pdf,0,2000-01-01 01:00:00,2016-04-03 02:51:08,261000/0f6dfca9d6afb548cc3fcfb710fdbcc2-g.jpg,,
19282231,The Future of Geological Modelling in Hydrocarbon Development - Special Publication no 309,,Geological Society Special Publication 309,,"A. Robinson, J. Hegre, S. Price",2009,,Geological Society of London,,225,0,English,38,avaxhome.ws,,"9781862392663,1862392668",,,,,553.79,QE43 .F88 2008,10.1144/SP309.1,,OL23632508M,19337,0,,,,,,1,1,9606794,pdf,4B88E0CA2973148441A520A6F867B6FD,,,Y. dl_avaxhome 19337  _=fturesoeinlogeli.pdf,0,2000-01-01 01:00:00,2016-04-03 02:51:08,261000/4b88e0ca2973148441a520a6f867b6fd-d.jpg,,
19282232,Fluid Motions in Volcanic Conduits: A Source of Seismic and Acoustic Signals,,Special Publication 307,,"S. J. Lane, J. S. Gilbert",2008,,Geological Society of London,,249,0,English,272,avaxhome.ws,,"9781862392625,1862392625",,,,,551.2,QC809.F5 .F589 2008,10.1144/SP307.1,,OL23838082M,19339,0,,,,,,1,1,12662996,pdf,77B995AD77D222324AE4118010768333,,,Y. dl_avaxhome 19339  _=luifdmotioncnefuits.pdf,0,2000-01-01 01:00:00,2016-04-03 02:51:08,261000/77b995ad77d222324ae4118010768333-d.jpg,,
19282233,Religion And Technology in the 21st Century: Faith in the E-world,,,,Susan George,2006,,Information Science Publishing,,295,0,English,205,avaxhome.ws,,"9781591407140,1591407141",,,,,,,,,OL8854978M,19346,0,,,,,,,1,132341622,pdf,B3C1C3426608DFB531163B59FCF914ED,,,Y. dl_avaxhome 19346  _=f27.pdf,0,2000-01-01 01:00:00,2016-04-03 02:51:08,261000/b3c1c3426608dfb531163b59fcf914ed-d.jpg,,
19282234,The Search for Antarctic Dinosaurs,,On My Own Science,,"Sally M. Walker, John Bindon",2007,,Millbrook Press,,50,0,English,,avaxhome.ws,,"9780822567493,0822567490",,,,,,,,,OL11425717M,19355,0,,,,,,,1,7256657,pdf,B1B20E1A6EFBB47711D99A61614E9AC6,,,Y. dl_avaxhome 19355  _=f20.pdf,0,2000-01-01 01:00:00,2016-04-03 02:51:08,261000/b1b20e1a6efbb47711d99a61614e9ac6-d.jpg,,
19282235,7 Steps to Raising a Bilingual Child,,,,"Naomi Steiner MD, Susan L. Hayes, Steven Parker M.D.",2008,,AMACOM,,225,0,English,314,avaxhome.ws,,"9780814400463,0814400469",,,,,404/.2083,P115.2 .S74 2008,,,OL16871473M,19357,0,,,,,,,1,6534976,pdf,D40A9B9E17ED53493B8DE73D0CB105F5,,,Y. dl_avaxhome 19357  _=f19.pdf,0,2000-01-01 01:00:00,2016-04-03 02:51:08,261000/d40a9b9e17ed53493b8de73d0cb105f5-d.jpg,,
19282236,Aviation Instructor's Handbook: FAA-H-8083-9A,,FAA Handbooks,,Federal Aviation Administration,2009,,"Aviation Supplies & Academics, Inc.",,228,0,English,,avaxhome.ws,,"9781560277491,1560277491",,,,,,,,,,19359,0,,,,,,,1,18173336,pdf,7C2AAE225A36ACD175933DE4A09F99E9,,,Y. dl_avaxhome 19359  _=f16.pdf,0,2000-01-01 01:00:00,2016-04-03 02:51:08,261000/7c2aae225a36acd175933de4a09f99e9-d.jpg,,
19282237,Living Outside Mental Illness: Qualitative Studies of Recovery in Schizophrenia,,Qualitative Studies in Psychology Series,,Larry Davidson,2003,1,NYU Press,,241,0,English,147,avaxhome.ws,,"9780814719428,0814719422",,,,,,,,,OL17087740M,19361,0,,,,,,,1,6206559,pdf,BCD6B8EAFF327194298DEB7B357BF130,,,Y. dl_avaxhome 19361  _=f14.pdf,0,2000-01-01 01:00:00,2016-04-03 02:51:08,261000/bcd6b8eaff327194298deb7b357bf130-d.jpg,,
19282238,English Teaching in the Secondary School 2/e: Linking Theory and Practice,,,,"Mike Fleming, David Stevens",2004,2,David Fulton Publishers,,273,0,English,183,avaxhome.ws,,"9781843121282,184312128X",,,,,,,,,OL9506083M,19364,0,,,,,,,1,6783767,pdf,7C8DB794EE3AE342D15CB42584400222,,,Y. dl_avaxhome 19364  _=f12.pdf,0,2000-01-01 01:00:00,2016-04-03 02:51:08,261000/7c8db794ee3ae342d15cb42584400222-d.jpg,,
19282239,Christmas Is Coming,,Carolrhoda Picture Books,,"Anne Bowen, Tomek Bogacki",2007,,Carolrhoda Books,,36,0,English,183,avaxhome.ws,,"9781575059341,1575059347",,,,,,,,,OL12233501M,19367,0,,,,,,,1,10354768,pdf,CB2C9DCCFAA5769CD42F73887F58A511,,,Y. dl_avaxhome 19367  _=f09.pdf,0,2000-01-01 01:00:00,2016-04-03 02:51:08,261000/cb2c9dccfaa5769cd42f73887f58a511-d.jpg,,
19282240,Contemporary American Federalism: The Growth of National Power,,,,Joseph F. Zimmerman,2008,2,State University of New York Press,,268,0,English,189,avaxhome.ws,,"9780791475959,0791475956",,,,,320.473/049,JK325 .Z56 2008,,,OL22678339M,19369,0,,,,,,,1,5190292,pdf,AEF1A9BCA5F385F76578F73B791CCCE2,,,Y. dl_avaxhome 19369  _=f07.pdf,0,2000-01-01 01:00:00,2016-04-03 02:51:08,261000/aef1a9bca5f385f76578f73b791ccce2-d.jpg,,
19282241,UNCTAD Handbook of Statistics 2008,,Unctad Handbook of Statistics/Manuel De Statistiques De La Cnuced,,United Nations,2008,,United Nations,,513,0,English,131,avaxhome.ws,,"9789211020694,9211020697",,,,,,,,,,19372,0,,,,,,,1,29021271,pdf,704F67B8842B0D475878ED1B0F74DC9B,,,Y. dl_avaxhome 19372  _=f04.pdf,0,2000-01-01 01:00:00,2016-04-03 02:51:08,261000/704f67b8842b0d475878ed1b0f74dc9b-d.jpg,,
19282242,Real-Life Sea Monsters,,On My Own Science,,"Judith Jango-Cohen, Ryan Durney",2007,,Millbrook Press,,50,0,English,183,avaxhome.ws,,"9780822567479,0822567474",,,,,,,,,OL11425715M,19373,0,,,,,,,1,10475246,pdf,C828F63082A8E993DC3696195FBAF1C6,,,Y. dl_avaxhome 19373  _=f03.pdf,0,2000-01-01 01:00:00,2016-04-03 02:51:08,261000/c828f63082a8e993dc3696195fbaf1c6-d.jpg,,
19282243,What Has Government Done to Our Money? and The Case for a 100 Percent Gold Dollar,,,,Murray N. Rothbard,2005,,Ludwig von Mises Institute,,112,0,English,305,avaxhome.ws,,"9780945466444,0945466447",,,,,,,,,OL8449040M,19379,0,,,,,,1,1,280360,pdf,A15B50CEB91A6D756137B5D43C575750,,,19379 =789.pdf,0,2000-01-01 01:00:00,2016-04-03 02:51:08,261000/a15b50ceb91a6d756137b5d43c575750-d.jpg,,
19282244,Persuasion,,Signet Classics,,"Jane Austen, Margaret Drabble",1996,,Signet Classics,,221,0,English,110,avaxhome.ws,,"9780451526380,0451526384",,,,,,,,,OL7577249M,19389,0,,,,,,,1,532787,pdf,9A69D873CB6C3A1FB071F00C1736BEA5,,,19389 =787.pdf,0,2000-01-01 01:00:00,2016-04-03 02:51:08,261000/9a69d873cb6c3a1fb071f00c1736bea5-d.jpg,,
19282245,Lady Susan,,,,"Jane Austen, R. W. Chapman",2005,,Dover Publications,,71,0,English,110,avaxhome.ws,,"9780486444079,0486444074",,,,,823/.7,PR4034 .L3 2005,,,OL21134910M,19401,0,,,,,,,1,260399,pdf,E891648418CC8E1CCF31DE664CF14FC2,,,19401 =778.pdf,0,2000-01-01 01:00:00,2016-04-03 02:51:08,261000/e891648418cc8e1ccf31de664cf14fc2-d.jpg,,
19282246,Pension Mathematics with Numerical Illustrations,,Pension Research Council Publications,,Howard E. Winklevoss,1993,2nd,University of Pennsylvania Press,,310,0,English,113,avaxhome.ws,,"9780812231960,0812231961",,,,,331.25/2,HD7105 .W55 1993,,,OL1739305M,19418,0,,,,,,,,18042736,rar,D0885801378076CDFCB34BE252B873DD,,,19418 =pension.rar,0,2000-01-01 01:00:00,2016-04-03 02:51:08,261000/d0885801378076cdfcb34be252b873dd-d.jpg,,
19282247,"Algorithms and Theory in Filtering and Control: Proceedings of the Workshop on Numerical Techniques for Systems Engineering Problems, Part L",Pt. 1,"Mathematical Programming Study, 18",,"Danny C. Sorensen, Danny C. Sorensen, Roger J. B. Wets",1982,,Elsevier Science Ltd,,169,0,English,120,avaxhome.ws,,"9780444863997,0444863990",,,,,629.8/312,QA402.3 .A15 1982,,,OL22452424M,19424,0,,,,,,,1,6877351,pdf,E61A555670A3430E320316CB4A31A46B,,,Y. dl_avaxhome 19424  _=0444863990.pdf,0,2000-01-01 01:00:00,2016-04-03 02:51:08,261000/e61a555670a3430e320316cb4a31a46b-g.jpg,,
19282248,International Cuisine,,,,The International Culinary Schools at The Art Institutes,2008,,Wiley,,865,0,English,49,avaxhome.ws,,"9780470052402,9780470280065,0470052406,0470410760,9780470410769",,,,,641.59,TX725.A1 N46 2009,,,OL16638559M,19425,0,,,,,,1,1,26844252,pdf,33CE91CA7F23EC62CD091E7E975A73A8,,,Y. dl_avaxhome 19425  _=IntCuisine.pdf,0,2000-01-01 01:00:00,2016-04-03 02:51:08,261000/33ce91ca7f23ec62cd091e7e975a73a8-d.jpg,,
19282249,"Black and White in Photoshop CS3 and Photoshop Lightroom: Create stunning monochromatic images in Photoshop CS3, Photoshop Lightroom, and beyond",,,,Leslie Alsheimer,2007,,Focal Press,,266,0,English,63,avaxhome.ws,,"9780240520841,024052084X",,,,,,,,,OL10200914M,19447,0,,,,,,,1,22534012,pdf,0D986F3767C1579A247172D1B1D16C3C,,,Y. dl_avaxhome 19447  _=BlacWhitPh.pdf,0,2000-01-01 01:00:00,2016-04-03 02:51:08,261000/0d986f3767c1579a247172d1b1d16c3c-d.jpg,,
19282250,Echocardiography in Congenital Heart Disease Made Simple,,Cardiopulmonary Medicine from Imperial College Press,,"Siew Yen Ho, Michael L. Rigby, Robert Henry Anderson",2005,1,World Scientific Publishing Company,,259,0,English,151,avaxhome.ws,,"9781860941245,1860941249",,,,,616.1/20437543,RC687 .H6 2005,,,OL3312199M,19455,0,,,,,,,1,21134491,pdf,65826797D857FAD9FFB7D22993A7D075,,,Y. dl_avaxhome 19455  _=1860941249.pdf,0,2000-01-01 01:00:00,2016-04-03 02:51:08,261000/65826797d857fad9ffb7d22993a7d075-d.jpg,,
19282251,Photography: The Art of Composition,,,,Bert Krages,2005,,Allworth Press,,257,0,English,63,avaxhome.ws,,"1581154097,9781581154092,9781581155839",,,,,,,,,OL8782554M,19466,0,,,,,1,,1,14541674,pdf,290C5D718D54F6F42B527E8D1401055D,,,Y. dl_avaxhome 19466  _=1581154097.pdf,0,2000-01-01 01:00:00,2016-04-03 02:51:08,261000/290c5d718d54f6f42b527e8d1401055d-d.jpg,,
19282252,Making Pure Corn Whiskey: A Professional Guide For Amateur And Micro Distillers,,,,Ian Smiley,2003,2,Ian Smiley,,114,0,English,49,avaxhome.ws,,"0968629210,9780968629215",,,,,,,,,OL8558906M,19480,0,,,,,1,1,1,898532,pdf,333EB6D8B74EC5210358B1EFA93CAC8C,,,Y. dl_avaxhome 19480  _=Making_Pure_Corn_Whiskey.pdf,0,2000-01-01 01:00:00,2016-04-03 02:51:08,261000/333eb6d8b74ec5210358b1efa93cac8c-d.jpg,,
19282253,Knowledge Management: Organizational and Technological Dimensions,,,,"Joseph Davis, Eswaran Subrahmanian, Art Westerberg",2005,1,Physica-Verlag HD,,203,0,English,6,avaxhome.ws,,"9783790800814,3790800813",,,,,,,,,OL22623136M,19498,0,,,,,,,1,12787011,pdf,05E1D8787CD58C425BE43D68AC023F5B,,,Y. dl_avaxhome 19498  _=3790800813.pdf,0,2000-01-01 01:00:00,2016-04-03 02:51:08,261000/05e1d8787cd58c425be43d68ac023f5b-d.jpg,,
19282254,How the Mind Works,,,,Steven Pinker,1997,First Edition,W. W. Norton & Company,,672,0,English,195,avaxhome.ws,,"9780393045352,0393045358",,,,,153,QP360.5 .P56 1997,,,OL24747142M,19501,0,,,,,,,1,5650623,pdf,1797D7512B12CF932C4D402B9F44CE78,,,Y. dl_avaxhome 19501  _=How_the_Mind_Works.pdf,0,2000-01-01 01:00:00,2016-04-03 02:51:08,261000/1797d7512b12cf932c4d402b9f44ce78-d.jpg,,
19282255,Roots of Chinese Culture and Medicine,,Academy of Chinese Culture and Health Sciences Series,,Wei Tsuei,1990,,Chinese Culture Books,,135,0,English,147,avaxhome.ws,,"9780962515606,0962515604",,,,,610.951,MLCS 92/17688 (D),,,OL2222057M,19507,0,,,,,,,1,755693,pdf,59FC3F36636D86B2BDFDC7F2006AB724,,,Y. dl_avaxhome 19507  _=ROOTS_OF_CHINESE_CULTURE_AND_MEDICINE_-_Wei_Tsuei.pdf,0,2000-01-01 01:00:00,2016-04-03 02:51:08,261000/59fc3f36636d86b2bdfdc7f2006ab724-d.jpg,,
19282256,A Companion to the Roman Republic,,Blackwell Companions to the Ancient World,,"Nathan Rosenstein, Robert Morstein-Marx",2006,,Wiley-Blackwell,,756,0,English,,avaxhome.ws,,"1405102179,9781405102179",,,,,937/.02,DG235 .C65 2006,,,OL22743781M,19524,0,,,,,,,1,7848719,pdf,DAFBE6315472B91117755BEA534541D8,,,Y. dl_avaxhome 19524  _=RomanRepublicCompanion.pdf,0,2000-01-01 01:00:00,2016-04-03 02:51:08,261000/dafbe6315472b91117755bea534541d8-d.jpg,,
19282257,The Antioxidant Vitamins C and E,,,,Lester Packer,2002,1,AOCS Publishing,,298,0,English,147,avaxhome.ws,,"9781893997295,1893997294",,,,,,,,,OL12219551M,19539,0,,,,,,,,7776864,rar,7F3BE7D3BBF189EA152534FFCE36971B,,,19539 =AntioxidantVitamins.rar,0,2000-01-01 01:00:00,2016-04-03 02:51:08,261000/7f3be7d3bbf189ea152534ffce36971b-d.jpg,,
19282258,State of the World's Cities: Globalization and Urban Culture,,,,UN-HABITAT,2004,,Earthscan,,214,0,English,58,avaxhome.ws,,"9781844071609,184407160X",,,,,307.76,HT151 .S644 2004,,,OL20023555M,19558,0,,,,,,,1,7076438,pdf,F7BF37FDE8AAAC309E123C1078446EFB,,,Y. dl_avaxhome 19558  _=184407160X_The_State_of_the_World_4.pdf,0,2000-01-01 01:00:00,2016-04-03 02:51:08,261000/f7bf37fde8aaac309e123c1078446efb-d.jpg,,
19282259,Sex in the Parish,,,,"Karen Lebacqz, Ronald Barton",1991,1st,Westminster John Knox Press,,284,0,English,198,avaxhome.ws,,"9780664250874,0664250874",,,,,253/.2,BV4011.5 .L44 1991,,,OL2028384M,19566,0,,,,,,,,474008,chm,6705B84D8415895D561F7A56475D3581,,,Y. dl_avaxhome 19566  _=Sex in the Parish.CHM,0,2000-01-01 01:00:00,2016-04-03 02:51:08,261000/6705b84d8415895d561f7a56475d3581-d.jpg,,
19282260,Neuropsychological Evaluation of the Child,,"Baron, Neuropsychological Evaluation of the Child",,Ida Sue Baron,2003,1,"Oxford University Press, USA",,451,0,English,198,avaxhome.ws,,"9780195147575,019514757X",,,,,,,,,OL17100277M,19580,0,,,,,,1,1,2854185,pdf,9952BDCC63A0D22360F9967BB9DF531F,,,Y. dl_avaxhome 19580  _=Neuropsychological_Evaluation_Child.pdf,0,2000-01-01 01:00:00,2016-04-03 02:51:08,261000/9952bdcc63a0d22360f9967bb9df531f-d.jpg,,
19282261,Conservation Laws,,"Introductory Physics Textbooks series, volume 2",,Benjamin Crowell,1998,,lightandmatter,,171,0,English,313,avaxhome.ws,,"9780970467027,0970467028",,,,,,,,,,19581,0,,,,,,,1,8726559,pdf,915678CA797B023F356CAF8EB2DF5EA2,,,Y. dl_avaxhome 19581  _=ConsLaws.pdf,0,2000-01-01 01:00:00,2016-04-03 02:51:08,261000/915678ca797b023f356caf8eb2df5ea2-g.jpg,,
19282262,"Product Reliability, Maintainability, and Supportability Handbook, ",,,,Michael Pecht,2009,2,CRC Press,,480,0,English,,avaxhome.ws,,"9780849398797,0849398797",,,,,658.5/75,TK7870 .P748 2009,,,OL11560721M,19582,0,,,,,,,,4571452,rar,9E74BE32A87E5D906320BBC8DF657EE8,,,19582 =0849398797.rar,0,2000-01-01 01:00:00,2016-04-03 02:51:08,261000/9e74be32a87e5d906320bbc8df657ee8-d.jpg,,
19282263,Natural Food Antimicrobial Systems,,,,A.S. Naidu,2000,1,CRC Press,,818,0,English,229,avaxhome.ws,,"9780849320477,084932047X",,,,,664/.001/579,QR115 .N33 2000,,,OL6784330M,19587,0,,,,,,,,7963651,rar,63FDBCE020BE7D00D2D0F699C9DBCA10,,,19587 =FoodAntimicrobialSystems.rar,0,2000-01-01 01:00:00,2016-04-03 02:51:08,261000/63fdbce020be7d00d2d0f699c9dbca10-d.jpg,,
19282264,Discrete-Event Modeling and Simulation: A Practitioner's Approach,,"Computational Analysis, Synthesis, and Design of Dynamic Systems",,Gabriel A. Wainer,2009,1,CRC Press,,486,0,English,,avaxhome.ws,,"9781420053364,1420053361",,,,,003/.3,QA76.9.C65 W35 2009,,,OL11816633M,19593,0,,,,,,1,1,14168923,pdf,7CAF3440C72DABA25F7F0EC185DB4F26,,,Y. dl_avaxhome 19593  _=14200_53361.pdf,0,2000-01-01 01:00:00,2016-04-03 02:51:08,261000/7caf3440c72daba25f7f0ec185db4f26-d.jpg,,
19282265,Security in Mexico: Implications for U.S. Policy Options,,,,Agnes Schaefer,2009,,RAND Corporation,,107,0,English,64,avaxhome.ws,,"9780833047199,0833047191",,,,,355/.033072,JZ1520.A57 M6 2009,,,OL23203338M,19614,0,,,,,,1,1,1149102,pdf,D112A8E0750695D7B9EAB0A19582D36E,,,Y. dl_avaxhome 19614  _=Security_in_Mexico.pdf,0,2000-01-01 01:00:00,2016-04-03 02:51:08,261000/d112a8e0750695d7b9eab0a19582d36e-d.jpg,,
19282266,Wind Energy: Renewable Energy and the Environment,,,,Vaughn C. Nelson,2009,1,CRC Press,,308,0,English,262,avaxhome.ws,,"9781420075687,1420075683",,,,,621.31/2136,TJ820 .N44 2009,,,OL11817418M,19631,0,,,,,,,1,7412128,pdf,7AE24DB07715A079752E9BB5ACA4FBD4,,,Y. dl_avaxhome 19631  _=WE_14200_75683.pdf,0,2000-01-01 01:00:00,2016-04-03 02:51:08,261000/7ae24db07715a079752e9bb5aca4fbd4-d.jpg,,
19282267,The Top Ten Algorithms in Data Mining,,Chapman & Hall/CRC Data Mining and Knowledge Discovery Series,,"Xindong Wu, Vipin Kumar",2009,,Chapman and Hall/CRC,,232,0,English,71,avaxhome.ws,,"9781420089646,1420089641",,,,,005.74,QA76.9.D343 T66 2009,,,OL23192795M,19665,0,,,,,,,,5535148,rar,CF2BF848CAA2953F5D108DAF5E204E43,,,19665 =1420089641.rar,0,2000-01-01 01:00:00,2016-04-03 02:51:08,261000/cf2bf848caa2953f5d108daf5e204e43-d.jpg,,
19282268,Long Term Evolution: 3GPP LTE Radio and Cellular Technology,,Internet and Communications,,"Borko Furht, Syed A. Ahson",2009,1,Auerbach Publications,,488,0,English,256,avaxhome.ws,,"9781420072105,1420072102",,,,,621.3845,TK5103.4883 .L66 2009,,,OL11817275M,19669,0,,,,,,,,26266244,rar,8F4662D357498723D5459C48F2B64334,,,19669 =1420072102.rar,0,2000-01-01 01:00:00,2016-04-03 02:51:08,261000/8f4662d357498723d5459c48f2b64334-d.jpg,,
19282269,A Survey of Lie Groups and Lie Algebra with Applications and Computational Methods,,Classics in Applied Mathematics,,B. Kolman,1987,,Society for Industrial  Mathematics,,175,0,English,120,avaxhome.ws,,"9780898712438,0898712432",,,,,512/.55,QA387 .B43 1989,,,OL2198929M,19685,0,,,,,,1,1,1286258,djvu,458AEE2E8A8863E0834B3CF222707B10,,,Y. dl_avaxhome 19685  _=survey_of_lie_groups_and_lie_algebras_with_applications_and_computational_methods.djvu.djvu,0,2000-01-01 01:00:00,2016-04-03 02:51:08,261000/458aee2e8a8863e0834b3cf222707b10-d.jpg,,
19282270,Applied Latent Class Analysis,,,,"Jacques A. Hagenaars, Allan L. McCutcheon",2002,1,Cambridge University Press,,478,0,English,113,avaxhome.ws,,"0521594510,9780521594516,9780511065941",,,,,519.5/35,QA278.6 .A67 2002,,,OL21086873M,19687,0,,,,,1,1,1,2306553,pdf,579F053B9137AC9FCB422916E99EF9FA,,,Y. dl_avaxhome 19687  _=applied_latent_class_analysis-0521594510.pdf,0,2000-01-01 01:00:00,2016-04-03 02:51:08,261000/579f053b9137ac9fcb422916e99ef9fa-d.jpg,,
19282271,Mastering Microsoft Exchange Server 2007 SP1,,,,Jim McBee,2009,2nd Ed,Sybex,,1033,0,English,87,avaxhome.ws,,"9780470417331,0470417331",,,,,004.692,QA76.9.C55 M26387 2009,,,OL22672343M,19727,0,,,,,,,1,23898826,pdf,71F861639D0B3FAEF4575F2AE7E69B24,,,Y. dl_avaxhome 19727  _=0470417331.pdf,0,2000-01-01 01:00:00,2016-04-03 02:51:08,261000/71f861639d0b3faef4575f2ae7e69b24-d.jpg,,
19282272,Omiyage : Handmade Gifts from Fabric in the Japanese Tradition,,,,Kumiko Sudo,2000,1,Contemporary Books,,160,0,English,41,avaxhome.ws,,"9780809229093,0809229099",,,,,,,,,OL22371379M,19731,0,,,,,,,,18380570,rar,EB130FCD72EE77B089284004D67F6640,,,19731 =omiyage.rar,0,2000-01-01 01:00:00,2016-04-03 02:51:08,261000/eb130fcd72ee77b089284004d67f6640-d.jpg,,
19282273,The Experience of Freedom,,Meridian: Crossing Aesthetics,,Jean-Luc Nancy,1994,1,Stanford University Press,,243,0,English,195,avaxhome.ws,,"9780804721905,0804721904",,,,,123/.5,B105.L45 N3613 1993,,,OL1407873M,19735,0,,,,,,1,1,12677322,pdf,63CE7F4D1A4BB5310047E23F41525BD6,,,Y. dl_avaxhome 19735  _=0804721904.pdf,0,2000-01-01 01:00:00,2016-04-03 02:51:08,261000/63ce7f4d1a4bb5310047e23f41525bd6-d.gif,,
19282274,Europe For Dummies,,,,"Donald Olson, Liz Albertson, Cheryl A. Pientka, George McDonald, Darwin Porter, Danforth Prince, Hana Mastrini, Bruce Murphy, Alessandra de Rosa, Neil Edward Schlecht, Tania Kollias",2009,5,For Dummies,,652,0,English,32,avaxhome.ws,,"9780470345450,0470345454",,,,,,,,,,19765,0,,,,,,,1,12849732,pdf,1A8F93CDB166D5A5AEB17F195BCD7527,,,Y. dl_avaxhome 19765  _=0470345454.pdf,0,2000-01-01 01:00:00,2016-04-03 02:51:08,261000/1a8f93cdb166d5a5aeb17f195bcd7527-d.jpg,,
19282275,Frommer's Europe,,Frommer's Complete,,"Darwin Porter, Danforth Prince, George McDonald, Sherry Marker",2008,10,Frommers,,1091,0,English,32,avaxhome.ws,,"9780470345436,0470345438",,,,,,,,,,19767,0,,,,,,,1,24466098,pdf,477CC73C69C1A77E8C21E662A346A79D,,,Y. dl_avaxhome 19767  _=0470345438.pdf,0,2000-01-01 01:00:00,2016-04-03 02:51:08,261000/477cc73c69c1a77e8c21e662a346a79d-d.jpg,,
19282276,Keith Parkinson.,,,,Lydia L. Dewiel,2004,,Infinity Verlag,,138,0,German,57,avaxhome.ws,,"9783931670580,3931670589",,,,,,,,,,19768,0,,,,,,1,0,13145748,pdf,1910CF3EE1A129C4E7D8DDAB5BF969A7,,,Y. dl_avaxhome 19768  _=kghptens8fnatisaryr.pdf,0,2000-01-01 01:00:00,2016-04-03 02:51:08,261000/1910cf3ee1a129c4e7d8ddab5bf969a7-d.jpg,,
19282277,WiMAX Network Planning and Optimization,,Wireless Networks and Mobile Communications,,Yan Zhang,2009,1,Auerbach Publications,,451,0,English,99,avaxhome.ws,,"9781420066623,1420066625",,,,,621.382,TK5103.2 .Z55 2009,,,OL11817019M,19769,0,,,,,,,,8081194,rar,A6E4E7A3D70106918875E3E9D8A76BF8,,,19769 =1420066625.rar,0,2000-01-01 01:00:00,2016-04-03 02:51:08,261000/a6e4e7a3d70106918875e3e9d8a76bf8-d.jpg,,
19282278,The Art of JosГ© del Nido,,,,Geoffrey Lewis,2004,,Modern Graphics,,110,0,German,57,avaxhome.ws,,"9783931670573,3931670570",,,,,,,,,,19770,0,,,,,,1,0,8724142,pdf,6D7BB8920B710DBDD98E061B5EB76F08,,,Y. dl_avaxhome 19770  _=jslednid7foatrtnsix.pdf,0,2000-01-01 01:00:00,2016-04-03 02:51:08,261000/6d7bb8920b710dbdd98e061b5eb76f08-d.jpg,,
19282279,Ergonomics for Rehabilitation Professionals,,,,Shrawan Kumar,2009,1,CRC Press,,640,0,English,147,avaxhome.ws,,"9780849381461,0849381460",,,,,617/.03,RM930 .E74 2009,,,OL11560383M,19778,0,,,,,,,,7081889,rar,3B9FBB2D9F4AEA528817AB7FEF98B9E1,,,19778 =Ergonomics_Rehabilitation_Professionals.rar,0,2000-01-01 01:00:00,2016-04-03 02:51:08,261000/3b9fbb2d9f4aea528817ab7fef98b9e1-d.jpg,,
19282280,Advances in Numerical Heat Transfer,Volume 3,Computational and Physical Processes in Mechanics and Thermal Science,,W. J. Minkowycz,2009,1,CRC Press,,400,0,English,120,avaxhome.ws,,"9781420095210,1420095218",,,,,,,,,,19779,0,,,,,,,,22216548,rar,2A5297F506FDB2E8098FE5132623E922,,,19779 =Numerical_Heat_Transfer.rar,0,2000-01-01 01:00:00,2016-04-03 02:51:08,261000/2a5297f506fdb2e8098fe5132623e922-d.jpg,,
19282281,The Art of Jon Hul,,,,Katy Gardner,2004,,Infinity Verlag,,94,0,English,57,avaxhome.ws,,"9783931670429,3931670422",,,,,,,,,,19785,0,,,,,,,0,16659236,pdf,23DD6FE344DF8E6CBCB16EEE703ED48C,,,Y. dl_avaxhome 19785  _=jh1pnutex2itrta.pdf,0,2000-01-01 01:00:00,2016-04-03 02:51:08,261000/23dd6fe344df8e6cbcb16eee703ed48c-g.jpg,,
19282282,An Atlas and Manual of Coronary Intravascular Ultrasound Imaging,,,,"Paul Schoenhagen, Steven E. Nissen",2003,1,Informa Healthcare,,162,0,English,147,avaxhome.ws,,"1842142747,9781842142745,0203479394,9780203479391,9780203690314",,,,,616.1/23/0707543,RC685.C6 A85 2004,,,OL22710966M,19827,0,,,,,1,1,0,19026106,pdf,EFC4DDAC4C5D60C948E2630B84B38091,,,Y. dl_avaxhome 19827  _=AtlCoronImag.pdf,0,2000-01-01 01:00:00,2016-04-03 02:51:08,261000/efc4ddac4c5d60c948e2630b84b38091-d.jpg,,
19282283,Forensic Analysis on the Cutting Edge: New Methods for Trace Evidence Analysis,,,,Robert D. Blackledge,2007,1,Wiley-Interscience,,478,0,English,171,avaxhome.ws,,"9780471716440,0471716448",,,,,363.25/62,HV8073 .F557 2007,,,OL17565840M,19829,0,,,,,,,1,40828657,pdf,B759BDB47A1FBA7184328FAAAD69F0DF,,,Y. dl_avaxhome 19829  _=ForAnalys.pdf,0,2000-01-01 01:00:00,2016-04-03 02:51:08,261000/b759bdb47a1fba7184328faaad69f0df-d.jpg,,
19282284,A Companion to 20th-Century America,,Blackwell Companions to American History,,Stephen J. Whitfield,2004,,Wiley-Blackwell,,581,0,English,,avaxhome.ws,,"9780631211006,0631211004",,,,,973.91,E178.6 .C65 2004,,,OL22566846M,19830,0,,,,,,,1,4513314,pdf,2C0C9ED8D55A90FA4D121643EA25EFA7,,,Y. dl_avaxhome 19830  _=Companion20thCenturyAmerica.pdf,0,2000-01-01 01:00:00,2016-04-03 02:51:08,261000/2c0c9ed8d55a90fa4d121643ea25efa7-d.jpg,,
19282285,A Companion to Europe 1900-1945,,Blackwell Companions to European History,,Gordon Martel,2006,,Wiley-Blackwell,,586,0,English,,avaxhome.ws,,"1405106646,9781405106641,9781405150392",,,,,940.5,D424 .C66 2005,,,OL22717701M,19833,0,,,,,1,1,1,4363223,pdf,FD67D912F3A8020FDB088F3BDACB0D4C,,,Y. dl_avaxhome 19833  _=Companion_to_Europe.pdf,0,2000-01-01 01:00:00,2016-04-03 02:51:08,261000/fd67d912f3a8020fdb088f3bdacb0d4c-d.jpg,,
19282286,Handbook of Vibrational Spectroscopy,5 Volume Set,,,"John Chalmers, Peter Griffiths",2002,1,Wiley,,4595,0,English,272,avaxhome.ws,,"9780471988472,0471988472",,,,,,,,,OL9874371M,19840,0,,,,,,1,1,71206393,pdf,8B5D074B9B246BEB1D151B1CE9858E4B,,,Y. dl_avaxhome 19840  _=Vibrational_spectroscopy.pdf,0,2000-01-01 01:00:00,2016-04-03 02:51:08,261000/8b5d074b9b246beb1d151b1ce9858e4b-d.jpg,,
19282287,"Excuse Me, Your Life Is Waiting: The Astonishing Power of Feelings",,,,Lynn Grabhorn,2003,1st Trade Paper Ed,Hampton Roads Publishing,,312,0,English,201,avaxhome.ws,,"9781571743817,1571743812,0340834463,9780340834466,1571741941,9781571741943,9780585382357",,,,,158.1,BF698.35.O57 G73 2003,,,OL10676970M,19844,0,,,,,1,,0,34267145,pdf,1F30D26A7B24B161A8FC775A7B8DB242,,,Y. dl_avaxhome 19844  _=Excuse_me_yl_is_waiting.pdf,0,2000-01-01 01:00:00,2016-04-03 02:51:08,261000/1f30d26a7b24b161a8fc775a7b8db242-d.jpg,,
19282288,Cardiovascular Emergencies,,Cardiovascular medicine,,"Crispin Davies, Yaver Bashir",2001,1,BMJ Books,,401,0,English,147,avaxhome.ws,,"9780727914842,0727914847",,,,,,,,,OL7868392M,19847,0,,,,,,,1,4342705,pdf,908E35A83045B5E6817E39D466EF79B9,,,Y. dl_avaxhome 19847  _=CardiovascularEmergencies.pdf,0,2000-01-01 01:00:00,2016-04-03 02:51:08,261000/908e35a83045b5e6817e39d466ef79b9-d.jpg,,
19282289,The Complete Guide to Flipping Properties,,,,Steve Berges,2003,,Wiley,,238,0,English,1,avaxhome.ws,,"9780471463313,0471463310",,,,,333.33,HD1375 .B429 2004,,,OL23063297M,19861,0,,,,,,,1,2346893,pdf,D1F6E60CF92FC7EAFF59D90472C359FA,,,Y. dl_avaxhome 19861  _=0471463310.pdf,0,2000-01-01 01:00:00,2016-04-03 02:51:08,261000/d1f6e60cf92fc7eaff59d90472c359fa-d.jpg,,
19282290,A Primer in Game Theory,,,,Robert Gibbons,1992,,Pearson Academic,,140,0,English,141,avaxhome.ws,,"9780745011592,0745011594",,,,,,,,,OL20745329M,19868,180,,,,,1,,1,7809692,pdf,4DC53E7CCAD53B6356429F6CE80F442B,,,Y. dl_avaxhome 19868  _=PrimGamT.pdf,0,2000-01-01 01:00:00,2016-04-03 02:51:08,261000/4dc53e7ccad53b6356429f6ce80f442b-d.jpg,,
19282291,Game Theory: A Critical Introduction,,,,"Shaun Hargreaves-Heap, Yanis Varoufakis",2004,2,Routledge,,755,0,English,181,avaxhome.ws,,"9780415250955,0415250951",,,,,519.3,H61.25 .H4 2004,,,OL3690043M,19871,0,,,,,,1,1,7949110,pdf,81A62E003D420B4DE5C585D9F3584B36,,,Y. dl_avaxhome 19871  _=GamThCrit.pdf,0,2000-01-01 01:00:00,2016-04-03 02:51:08,261000/81a62e003d420b4de5c585d9f3584b36-d.jpg,,
19282292,Nature Within Walls: The Chinese Garden Court at The Metropolitan Museum of Art: A Resource for Educators,,Metropolitan Museum of Art Series,,Elizabeth Hammer,2003,Pap/Cdr/Ps,Metropolitan Museum of Art,,30,0,English,,avaxhome.ws,,"9780300103441,0300103441",,,,,,,,,OL10318989M,19874,0,,,,,,,1,933045,pdf,7637CDDB7C9219050D90406E1F800D84,,,Y. dl_avaxhome 19874  _=Nature_Within_Walls.pdf,0,2000-01-01 01:00:00,2016-04-03 02:51:08,261000/7637cddb7c9219050d90406e1f800d84-d.jpg,,
19282293,A Guide to the Project Management Body of Knowledge:,,Pmbok Guide,,Project Management Institute,2008,4,Project Management Institute,,496,0,English,7,avaxhome.ws,,"9781933890517,1933890517",,,,,,,,,OL25202748M,19877,0,,,,,,,1,36252509,pdf,74EE0C7B53854FEEF2968CCF4371C1C0,,,19877 =pmb4ed.pdf,0,2000-01-01 01:00:00,2016-04-03 02:51:08,261000/74ee0c7b53854feef2968ccf4371c1c0-d.jpg,,
19282294,Derrida and the Political,,Thinking the Political,,Richard Beardsworth,1996,1,Routledge,,189,0,English,195,avaxhome.ws,,"9780415109666,0415109663",,,,,320,JC261.D44 B43 1996,,,OL793978M,19878,0,,,,,,1,1,12558148,pdf,21619CD0577ABAC0F2D640CB207B8F0A,,,Y. dl_avaxhome 19878  _=0415109663.pdf,0,2000-01-01 01:00:00,2016-04-03 02:51:08,261000/21619cd0577abac0f2d640cb207b8f0a-d.jpg,,
19282295,Art of Ancient Egypt A Resource for Educators,,,,"Edith W. Watts, Edith A. Watts",1998,,Metropolitan Museum of Art,,184,0,English,64,avaxhome.ws,,"9780300086737,0300086733",,,,,,,,,OL10318619M,19881,0,,,,,,,1,2019409,pdf,7EB133C0647BB1176A3D64CE24064DC3,,,Y. dl_avaxhome 19881  _=The_Art_of_Ancient_Egypt.pdf,0,2000-01-01 01:00:00,2016-04-03 02:51:08,261000/7eb133c0647bb1176a3d64ce24064dc3-d.jpg,,
19282296,Thai Restaurant Cookbook,,,,Chapman,1999,,Hodder & Stoughton,,193,0,English,49,avaxhome.ws,,"9780340680360,0340680369",,,,,641.59593,,,,OL10627235M,19882,0,,,,,,,1,9952138,pdf,BCF10FA81A67F0B11CBAEBC842503DC2,,,Y. dl_avaxhome 19882  _=Thai_Restaurant_Cookbook.pdf,0,2000-01-01 01:00:00,2016-04-03 02:51:08,261000/bcf10fa81a67f0b11cbaebc842503dc2-d.jpg,,
19282297,The Art of Renaissance Europe: A Resource for Educators,,,,"Bosiljka Raditsa, Rebecca Arkenberg, Rika Burnham, Deborah L. Krohn, Kent Lydecker, Teresa Russo",2001,Package,Metropolitan Museum of Art,,224,0,English,181,avaxhome.ws,,"9780300088953,0300088957",,,,,,,,,OL10318672M,19883,0,,,,,,,1,11484238,pdf,9E7B37B562F96AC7B4B36E47525CF68E,,,Y. dl_avaxhome 19883  _=The_Art_of_Renaissance_Europe.pdf,0,2000-01-01 01:00:00,2016-04-03 02:51:08,261000/9e7b37b562f96ac7b4b36e47525cf68e-d.jpg,,
19282298,U.S. News Ultimate College Guide 2009,,Us News Ultimate College Guide,,Staff of U.S.News & World Report,2008,6,"Sourcebooks, Inc.",,1778,0,English,,avaxhome.ws,,"9781402210815,1402210817",,,,,,,,,,19885,0,,,,,,,1,14953810,pdf,AC0135C5157FE039540AAB3E07E23B5E,,,Y. dl_avaxhome 19885  _=UltimateCollegeGuide.pdf,0,2000-01-01 01:00:00,2016-04-03 02:51:08,261000/ac0135c5157fe039540aab3e07e23b5e-d.jpg,,
19282299,Forensic Dental Evidence: An Investigator's Handbook,,,,"C. Michael Bowers D.D.S.  J.D., C. Michael Bowers D.D.S.  J.D.",2004,1,Academic Press,,228,0,English,,avaxhome.ws,,"9780121210427,0121210421",,,,,614/.18,RA1062 .B69 2004,,,OL3693518M,19886,0,,,,,,,1,6486179,pdf,E4454E9F5D5F0C874707AC9D4FF7BA15,,,Y. dl_avaxhome 19886  _=ForDentHb.pdf,0,2000-01-01 01:00:00,2016-04-03 02:51:08,261000/e4454e9f5d5f0c874707ac9d4ff7ba15-d.jpg,,
19282300,The Arts of Korea: A Resource for Educators,,,,"Elizabeth Hammer, Ms. Judith E. Smith",2002,,Metropolitan Museum of Art,,118,0,English,57,avaxhome.ws,,"9780300093759,0300093756",,,,,,,,,OL10318768M,19889,0,,,,,,,1,8118029,pdf,82CCA31CCC59A4C786EBB2F7B1C3CD38,,,Y. dl_avaxhome 19889  _=The_Arts_of_Korea.pdf,0,2000-01-01 01:00:00,2016-04-03 02:51:08,261000/82cca31ccc59a4c786ebb2f7b1c3cd38-d.jpg,,
19282301,Emancipation (s) (Radical Thinkers),,s Radical Thinkers,,Ernesto Laclau,2007,,Verso,,135,0,English,195,avaxhome.ws,,"1844675769,9781844675760",,,,,,,,,OL8956283M,19890,0,,,,,,1,1,7268879,pdf,01B3838F0EC93322A1CCB39829243A5B,,,Y. dl_avaxhome 19890  _=9781844675760_-_Ernesto_Laclau_-_Emancipation.pdf,0,2000-01-01 01:00:00,2016-04-03 02:51:08,261000/01b3838f0ec93322a1ccb39829243a5b-d.jpg,,
19282302,Grundlagen und technologien des ottomotors,,,,Helmut List,2008,,Springer-Verlag,Wien,278,0,German,,usenet,to 2012-06,,,,,,,,,,,,0,,,,,,,1,4837748,pdf,7a28e0aff2f8d691ef0eb0e37afcb369,,,I:\\usenet_ger\\Grundlagen.und.Technologien.des.Ottomotors.[Springer].[2008].[k815h7].pdf,0,2000-01-01 01:00:00,2016-04-03 02:51:08,883000/7a28e0aff2f8d691ef0eb0e37afcb369-g.jpg,,
19282303,Microcomputer Quantum Mechanics,,,,J P Killingbeck,1983,,Institute of Physics Publishing,,186,0,English,269,avaxhome.ws,,"9780852744550,0852744552",,,,,,,,,OL13587087M,19895,0,,,,,,,1,5905191,pdf,C7C97C5FF1AE48EFDDB28F52503CE83C,,,Y. dl_avaxhome 19895  _=microcomputer_quantum_mechanics.9780852744550.33972.pdf,0,2000-01-01 01:00:00,2016-04-03 02:51:08,261000/c7c97c5ff1ae48efddb28f52503ce83c-g.jpg,,
19282304,Neurology in Clinical Practice,2 vol. set,,,"Walter G. Bradley DM  FRCP, Robert B. Daroff MD, Gerald M Fenichel MD, Joseph Jankovic MD",2003,4,Butterworth-Heinemann,,2570,0,English,161,avaxhome.ws,,"9780750674690,0750674695",,,,,616.8,RC346 .N4535 2004,,,OL14757126M,19901,0,,,,,,,1,60050769,pdf,66C4034AA33A3C87461E1C0D884A48AD,,,Y. dl_avaxhome 19901  _=Neurology_in_Clinical_Practice.pdf,0,2000-01-01 01:00:00,2016-04-03 02:51:08,261000/66c4034aa33a3c87461e1c0d884a48ad-d.jpg,,
19282305,China: A Global Studies Handbook,,,,Robert Andre LaFleur,2003,annotated edition,ABC-CLIO,,318,0,English,,avaxhome.ws,,"9781576072844,1576072843",,,,,,,,,OL15542747M,19902,0,,,,,,,1,5452681,pdf,56569387D8D643C6106A2F632CEC8113,,,Y. dl_avaxhome 19902  _=yy30.pdf,0,2000-01-01 01:00:00,2016-04-03 02:51:08,261000/56569387d8d643c6106a2f632cec8113-d.jpg,,
19282306,"God, Chance and Purpose: Can God Have It Both Ways?",,,,David J. Bartholomew,2008,1,Cambridge University Press,,274,0,English,195,avaxhome.ws,,"9780521880855,0521880858",,,,,,,,,OL10438338M,19904,0,,,,,,1,1,5695460,pdf,6C6632209E3F235C957362AC4E468175,,,Y. dl_avaxhome 19904  _=yy29.pdf,0,2000-01-01 01:00:00,2016-04-03 02:51:08,261000/6c6632209e3f235c957362ac4e468175-d.jpg,,
19282307,Solutions Manual for Elements of Design Analysis in Rock Mechanics,,,,W. G. Pariseau,2007,,A A Balkema,,369,0,English,264,avaxhome.ws,,"9780203932506,0203932501",,,,,624.1/5132076,TA712 .P29 2007,,,OL16395234M,19905,0,,,,,,1,1,6861014,pdf,26BFEE88990D95EFA4919DBCB2AEDC11,,,Y. dl_avaxhome 19905  _=yy28.pdf,0,2000-01-01 01:00:00,2016-04-03 02:51:08,261000/26bfee88990d95efa4919dbcb2aedc11-g.jpg,,
19282308,Jerusalem: Idea and Reality,,,,"Tamar Mayer, Suleiman A. Mourad",2008,1,Routledge,,351,0,English,314,avaxhome.ws,,"0415421284,9780415421287,9780203929773",,,,,956.94/42,DS109.95 .J476 2008,,,OL10205736M,19906,0,,,,,1,1,1,4980237,pdf,EFCB32F619718E3AEE8FD1AFB204BE7F,,,Y. dl_avaxhome 19906  _=yy27.pdf,0,2000-01-01 01:00:00,2016-04-03 02:51:08,261000/efcb32f619718e3aee8fd1afb204be7f-d.jpg,,
19282309,Statistical Multisource-Multitarget Information Fusion,,,,Ronald P. S. Mahler,2007,,Artech House Publishers,,882,0,English,119,avaxhome.ws,,"9781596930926,1596930926",,,,,,,,,OL8892437M,19907,0,,,,,,1,1,7417189,pdf,4E0ED14141CC19D016FB1214C349F6D0,,,Y. dl_avaxhome 19907  _=yy26.pdf,0,2000-01-01 01:00:00,2016-04-03 02:51:08,261000/4e0ed14141cc19d016fb1214c349f6d0-d.jpg,,
19282310,My First Book of Time,,My First Books (Board Books Dorling Kindersley),,DK Publishing,2007,,DK Preschool,,14,0,English,183,avaxhome.ws,,"9780756629380,0756629381",,,,,,,,,,19908,0,,,,,,,1,17681336,pdf,330307AE9111B7A0872E60EE677AF032,,,Y. dl_avaxhome 19908  _=yy25.pdf,0,2000-01-01 01:00:00,2016-04-03 02:51:08,261000/330307ae9111b7a0872e60ee677af032-d.jpg,,
19282311,Color and Money: How Rich White Kids Are Winning the War over College Affirmative Action,,,,Peter G. Schmidt,2007,,Palgrave Macmillan,,273,0,English,181,avaxhome.ws,,"9781403976017,1403976015",,,,,379.2/6,LC213.52 .S35 2007,,,OL22525461M,19909,0,,,,,,1,1,5724558,pdf,2383AFA3C862D2C264791C62D4788EE8,,,Y. dl_avaxhome 19909  _=yy24.pdf,0,2000-01-01 01:00:00,2016-04-03 02:51:08,261000/2383afa3c862d2c264791c62d4788ee8-d.jpg,,
19282312,News and the Net,,,,Barrie Gunter,2003,,Routledge,,230,0,English,,avaxhome.ws,,"9780805844993,0805844996",,,,,070.1/72,PN4833 .G86 2003,,,OL3563324M,19911,0,,,,,,,1,5937361,pdf,E1297E976167601BC6A136A5EA383ADA,,,Y. dl_avaxhome 19911  _=yy22.pdf,0,2000-01-01 01:00:00,2016-04-03 02:51:08,261000/e1297e976167601bc6a136a5ea383ada-d.jpg,,
19282313,Handbook on the South Asian Economies,,,,"Anis Chowdhury, Wahiduddin Mahmud",2008,,Edward Elgar Pub,,257,0,English,305,avaxhome.ws,,"9781843769880,1843769883",,,,,330.954,HC430.6 .H36 2008,,,OL24585245M,19912,0,,,,,,1,1,5339291,pdf,2ACEAE55B783FB8A189CDC341EA4CD4D,,,Y. dl_avaxhome 19912  _=yy21.pdf,0,2000-01-01 01:00:00,2016-04-03 02:51:08,261000/2aceae55b783fb8a189cdc341ea4cd4d-d.jpg,,
19282314,What's the Good of Counselling & Psychotherapy?: The Benefits Explained,,Ethics in Practice,,Mr Colin Feltham,2002,1,Sage Publications Ltd,,297,0,English,198,avaxhome.ws,,"9780761969556,0761969551",,,,,,,,,OL8030590M,19913,0,,,,,,1,1,5479434,pdf,0684D7FDF8003647E9323CE4C73F0188,,,Y. dl_avaxhome 19913  _=yy20.pdf,0,2000-01-01 01:00:00,2016-04-03 02:51:08,261000/0684d7fdf8003647e9323ce4c73f0188-d.jpg,,
19282315,"Knowledge, Organizational Evolution and Market Creation: The Globalization of Indian Firms from Steel to Software",,,,Gita Sud De Surie,2008,,Edward Elgar Publishing,,229,0,English,87,avaxhome.ws,,"9781847204561,1847204562",,,,,,,,,OL22649334M,19915,0,,,,,,1,1,5445268,pdf,46DA043676F27CA2E46A3FC0FA1B3E1E,,,Y. dl_avaxhome 19915  _=yy19.pdf,0,2000-01-01 01:00:00,2016-04-03 02:51:08,261000/46da043676f27ca2e46a3fc0fa1b3e1e-d.jpg,,
19282316,The Science Glass Ceiling: Academic Women Scientist and the Struggle to Succeed,,,,Sue V. Rosser,2004,1,Routledge,,192,0,English,181,avaxhome.ws,,"9780415945134,0415945135",,,,,,,,,OL7497167M,19916,0,,,,,,,1,6421603,pdf,DFDFB11B0C6833D1CCB89E525E6238DB,,,Y. dl_avaxhome 19916  _=yy18.pdf,0,2000-01-01 01:00:00,2016-04-03 02:51:08,261000/dfdfb11b0c6833d1ccb89e525e6238db-d.jpg,,
19282317,Using Thinking Skills in the Primary Classroom,,,,Dr Peter Kelly,2005,1,Sage Publications Ltd,,114,0,English,183,avaxhome.ws,,"9781412900164,1412900166",,,,,,,,,OL15586637M,19917,0,,,,,,,1,5614860,pdf,47CBFAD89C3FBDBEC71C63CE0BD9CF94,,,Y. dl_avaxhome 19917  _=yy17.pdf,0,2000-01-01 01:00:00,2016-04-03 02:51:08,261000/47cbfad89c3fbdbec71c63ce0bd9cf94-d.jpg,,
19282318,Pig,,See How They Grow,,DK Publishing,2007,,DK Preschool,,28,0,English,183,avaxhome.ws,,"9780756630188,0756630185",,,,,,,,,OL7995743M,19919,0,,,,,,,1,7041884,pdf,4CE4FD9F654F2C1B48F0ACE9E2900C4B,,,Y. dl_avaxhome 19919  _=yy16.pdf,0,2000-01-01 01:00:00,2016-04-03 02:51:08,261000/4ce4fd9f654f2c1b48f0ace9e2900c4b-d.jpg,,
19282319,Understanding Democratic Politics: An Introduction,,,,Dr Roland Axtmann,2003,,Sage Publications Ltd,,354,0,English,189,avaxhome.ws,,"9780761971832,0761971831",,,,,321.8,JC423 .U486 2003,,,OL3573498M,19920,0,,,,,,1,1,6039070,pdf,D209BDA2E5D9C3E0A336C9D1124105B4,,,Y. dl_avaxhome 19920  _=yy15.pdf,0,2000-01-01 01:00:00,2016-04-03 02:51:08,261000/d209bda2e5d9c3e0a336c9d1124105b4-d.jpg,,
19282320,Ethics and Criminal Justice: An Introduction,,Cambridge Applied Ethics,,John Kleinig,2008,1,Cambridge University Press,,296,0,English,311,avaxhome.ws,,"9780521864206,0521864208",,,,,,,,,OL10437633M,19924,0,,,,,,,1,5637900,pdf,62591492CAC80C300ED3FC011FE45B9E,,,Y. dl_avaxhome 19924  _=yy11.pdf,0,2000-01-01 01:00:00,2016-04-03 02:51:08,261000/62591492cac80c300ed3fc011fe45b9e-d.jpg,,
19282321,Movement and Learning in the Early Years: Supporting Dyspraxia (DCD) and Other Difficulties,,,,"Dr Christine Macintyre, Kim McVitty",2004,1,Sage Publications Ltd,,162,0,English,183,avaxhome.ws,,"9781412902373,1412902371",,,,,796.86/8,GV452 .M33 2004,,,OL11716302M,19925,0,,,,,,,1,5496742,pdf,5984000BC4CA3B610D58E3B1062C2AF5,,,Y. dl_avaxhome 19925  _=yy10.pdf,0,2000-01-01 01:00:00,2016-04-03 02:51:08,261000/5984000bc4ca3b610d58e3b1062c2af5-d.jpg,,
19282322,Go Scuba Dive,,GO SERIES,,Monty Halls,2007,Pap/DVD,DK ADULT,,161,0,English,289,avaxhome.ws,,"9780756626273,0756626277",,,,,,,,,OL7995565M,19930,0,,,,,,1,1,21113856,pdf,32AF468DE3CB333CC0E07E66C0ED6790,,,Y. dl_avaxhome 19930  _=yy09.pdf,0,2000-01-01 01:00:00,2016-04-03 02:51:08,261000/32af468de3cb333cc0e07e66c0ed6790-d.jpg,,
19282323,The SAGE Dictionary of Cultural Studies,v. 1,,,Dr Chris Barker,2004,1,Sage Publications Ltd,,242,0,English,322,avaxhome.ws,,"9780761973409,0761973400",,,,,,,,,OL8030709M,19931,0,,,,,,1,1,5807329,pdf,34D97507B861598973DD2274738DC74E,,,Y. dl_avaxhome 19931  _=yy08.pdf,0,2000-01-01 01:00:00,2016-04-03 02:51:08,261000/34d97507b861598973dd2274738dc74e-d.jpg,,
19282324,STRATEGIC TEACHER: Selecting the Right Research-Based Strategy for Every Lesson,,,,"Harvey F. Silver, Richard W. Strong, Matthew J. Perini",2007,,ASCD,,291,0,English,183,avaxhome.ws,,"9781416606093,1416606092",,,,,371.102,LB1025.3 .S548 2007,,,OL11758774M,19932,0,,,,,,1,1,7178896,pdf,BD2A09B7C8892BBCAC70C8B4B3D1820D,,,Y. dl_avaxhome 19932  _=yy07.pdf,0,2000-01-01 01:00:00,2016-04-03 02:51:08,261000/bd2a09b7c8892bbcac70c8b4b3d1820d-d.jpg,,
19282325,Gifted and Talented Children 4-11: Understanding and Supporting their Development,,David Fulton Books,,Christine MacIntyre,2008,1,Routledge,,106,0,English,198,avaxhome.ws,,"9780415464925,0415464927",,,,,371.95/72,LC3997.G7 M33 2008,,,OL22549644M,19944,0,,,,,,,1,6342679,pdf,78259112B4B2ADD262E74F5E3A580B2C,,,Y. dl_avaxhome 19944  _=yy05.pdf,0,2000-01-01 01:00:00,2016-04-03 02:51:08,261000/78259112b4b2add262e74f5e3a580b2c-d.jpg,,
19282326,Thomas Hardy's Shorter Fiction: A Critical Study,,,,"Sophie Gilmartin, Rod Mengham",2007,,Edinburgh University Press,,162,0,English,314,avaxhome.ws,,"9780748632657,0748632654",,,,,,,,,OL10760729M,19946,0,,,,,,,1,5657640,pdf,57254C01D3EBD2EEAF0DF46114F59EEF,,,Y. dl_avaxhome 19946  _=yy03.pdf,0,2000-01-01 01:00:00,2016-04-03 02:51:08,261000/57254c01d3ebd2eeaf0df46114f59eef-d.jpg,,
19282327,The Gambling Debate,,Historical Guides to Controversial Issues in America,,Richard A. McGowan,2007,,Greenwood,,189,0,English,87,avaxhome.ws,,"9780313340680,0313340684",,,,,363.4/20973,HV6715 .M394 2008,,,OL10420780M,19948,0,,,,,,1,1,6002633,pdf,8220DD13D013D47641EC2C50AC15AF3C,,,Y. dl_avaxhome 19948  _=yy01.pdf,0,2000-01-01 01:00:00,2016-04-03 02:51:08,261000/8220dd13d013d47641ec2c50ac15af3c-d.jpg,,
19282328,Russia and NATO since 1991: From Cold War Through Cold Peace to Partnership?,,Routledge Advances in International Relations and Global Politics,,Martin A. Smith,2006,1,Routledge,,177,0,English,37,avaxhome.ws,,"0415363004,9780415363006,9784020301323",,,,,355/.031/0918210947,JZ6005 .S65 2006,,,OL22717793M,19981,0,,,,,1,1,1,768464,pdf,090C4476272840007AEA10B276563715,,,Y. dl_avaxhome 19981  _=0415363004.pdf,0,2000-01-01 01:00:00,2016-04-03 02:51:08,261000/090c4476272840007aea10b276563715-d.jpg,,
19282329,Creating a World Without Poverty: Social Business and the Future of Capitalism,,,,Muhammad Yunus,2008,First Edition,PublicAffairs,,297,0,English,1,avaxhome.ws,,"1586484931,9781586484934",,,,,,,,,OL17249547M,19984,0,,,,,,1,1,4863813,pdf,1AC69F63CACEA8E073F89653873C1832,,,Y. dl_avaxhome 19984  _=Yunus-cawwp.pdf,0,2000-01-01 01:00:00,2016-04-03 02:51:08,261000/1ac69f63cacea8e073f89653873c1832-d.jpg,,
19282330,The Democratic Paradox,,,,Chantal Mouffe,2000,,Verso,,154,0,English,195,avaxhome.ws,,"1859847587,9781859847589",,,,,,,,,OL8624416M,19988,0,,,,,,,1,6679442,pdf,C7E056B200957CEEC7F7DEAD0374881D,,,Y. dl_avaxhome 19988  _=1859842798.pdf,0,2000-01-01 01:00:00,2016-04-03 02:51:08,261000/c7e056b200957ceec7f7dead0374881d-d.jpg,,
19282331,Introductory Guide to Post-Structuralism and Postmodernism,,,,Madan. An Sarup,1993,Second edition,"Longman / Pearson Education,",,110,0,English,314,avaxhome.ws,,"9780745013602,0745013600",,,,,190,,,,OL22823034M,19997,0,,,,,1,,0,18671308,pdf,BCC6EC2E2BC6A2FCBDEF4DBD8D306B6C,,,Y. dl_avaxhome 19997  _=IntGuPoststr.pdf,0,2000-01-01 01:00:00,2016-04-03 02:51:08,261000/bcc6ec2e2bc6a2fcbdef4dbd8d306b6c-d.jpg,,
19282332,The Right Stock at the Right Time: Prospering in the Coming Good Years,,,,Larry Williams,2003,1st,Wiley,,256,0,English,1,avaxhome.ws,,"9780471430513,047143051X",,,,,,,,,OL18188423M,20014,0,,,,,,,,8117082,rar,76FFD54258111FBB01934923CB1605FC,,,20014 =047143051X.rar,0,2000-01-01 01:00:00,2016-04-03 02:51:08,261000/76ffd54258111fbb01934923cb1605fc-d.jpg,,
19282333,Second Language Pedagogy,,,,N. S. Prabhu,1987,,Oxford Univ Pr (Sd),,160,0,English,183,avaxhome.ws,,"9780194370844,0194370844",,,,,,,,,OL2104591M,20032,0,,,,,,,,581433,rar,FCB4610116DF16414CAEFDBD1F5F61CD,,,20032 =758.rar,0,2000-01-01 01:00:00,2016-04-03 02:51:08,261000/FCB4610116DF16414CAEFDBD1F5F61CD-g.jpg,,
19282334,Hello World: Travels In Virtuality,,,,Sue Thomas,2004,,Raw Nerve Books,,272,0,English,32,avaxhome.ws,,"9780953658565,0953658562",,,,,,,,,OL8478480M,20056,0,,,,,,,,3614013,rar,88E4EF93AFC174DF2C68C72C7370F6A4,,,20056 =750.rar,0,2000-01-01 01:00:00,2016-04-03 02:51:08,261000/88e4ef93afc174df2c68c72c7370f6a4-d.jpg,,
19282335,The First Global Financial Crisis of the 21st Century: A VoxEU.Org Publication,,,,"Andrew Felton, Carmen M. Reinhart",2008,,Centre for Economic Policy Research,,390,0,English,305,avaxhome.ws,,"9780955700934,0955700930",,,,,,,,,,20081,0,,,,,,,1,2269791,pdf,7E59C0C981A11F92B31F3620062CB13E,,,20081 =742.pdf,0,2000-01-01 01:00:00,2016-04-03 02:51:08,261000/7e59c0c981a11f92b31f3620062cb13e-g.jpg,,
19282336,Commodity Investing: Maximizing Returns Through Fundamental Analysis,,Wiley Finance,,"Adam Dunsby, John Eckstein, Jess Gaspar, Sarah Mulholland",2008,illustrated edition,Wiley,,305,0,English,305,avaxhome.ws,,"0470223103,9780470223109,9780470262641",,,,,332.63/28,HG6046 .C636 2008,,,OL10295069M,20093,0,,,,,,,1,6434256,pdf,5808BCFD6FA81DA6184A65B92C625F81,,,Y. dl_avaxhome 20093  _=Com.Inv.pdf,0,2000-01-01 01:00:00,2016-04-03 02:51:08,261000/5808bcfd6fa81da6184a65b92c625f81-d.jpg,,
19282337,Force: Character Design from Life Drawing,,,,Mike Mattesi,2008,,Focal Press,,256,0,English,59,avaxhome.ws,,"9780240809939,0240809939",,,,,,,,,,20098,0,,,,,,,1,27562636,pdf,F54185BFD9782A365C353C4D2819059F,,,Y. dl_avaxhome 20098  _=ChDesDraw.pdf,0,2000-01-01 01:00:00,2016-04-03 02:51:08,261000/f54185bfd9782a365c353c4d2819059f-d.jpg,,
19282338,Underdog Advertising,,,,Paul W. Flowers,2006,1st,Brown Books Publishing Group,,224,0,English,5,avaxhome.ws,,"1933285222,9781933285221,9781605570396",,,,,,,,,OL12337474M,20099,0,,,,,1,,1,1543093,pdf,4A083ACF3CB2A3B88248A2B4A32469D7,,,Y. dl_avaxhome 20099  _=UndogAdv.pdf,0,2000-01-01 01:00:00,2016-04-03 02:51:08,261000/4a083acf3cb2a3b88248a2b4a32469d7-d.jpg,,
19282339,"Antioch as a Centre of Hellenic Culture, as Observed by Libanius",,Liverpool University Press - Translated Texts for Historians,,A.F. Norman,2000,,Liverpool University Press,,225,0,English,64,avaxhome.ws,,"9780853235958,0853235953",,,,,939/.27,DS156.A556 L53213 2000,,,OL3988814M,20120,0,,,,,,1,1,2274203,pdf,724657966242BB8B7134A0F69243C3FA,,,Y. dl_avaxhome 20120  _=0853235953_Antioch_as_a_Centre_1.pdf,0,2000-01-01 01:00:00,2016-04-03 02:51:08,261000/724657966242bb8b7134a0f69243c3fa-g.jpg,,
19282340,Correlation and Causality,,,,David A. Kenny,1979,1St Edition,John Wiley & Sons Inc,,80,0,English,264,avaxhome.ws,,"9780471024392,0471024392",,,,,300/.1/82,HA29 .K429,,,OL4403389M,20126,0,,,,,,,1,747452,pdf,1CD86B20B2CA5952A66F89F7B8D83B7C,,,20126 =737.pdf,0,2000-01-01 01:00:00,2016-04-03 02:51:08,261000/1cd86b20b2ca5952a66f89f7b8d83b7c-g.jpg,,
19282341,the deliberate dumbing down of america - A Chronological Paper Trail: A Chronological Paper Trail,,,,"Charlotte Thomson Iserbyt, Charlotte Iserbyt-Thomson, cynthia weatherly, joel pett",1999,third,3D Research,,738,0,English,130,avaxhome.ws,,"9780966707106,0966707109",,,,,370/.973/0945,LA217.2 .T485 1999,,,OL399467M,20127,0,,,,,,,0,7381668,pdf,72DC62041898214E1FEB297453F2B528,,,Y. dl_avaxhome 20127  _=DDDoA.sml.pdf,0,2000-01-01 01:00:00,2016-04-03 02:51:08,261000/72dc62041898214e1feb297453f2b528-d.jpg,,
19282342,Ending The Sex Wars: A Woman's Guide to Understanding Men,,,,Morley David Glicken,2005,0,"iUniverse, Inc.",,162,0,English,201,avaxhome.ws,,"9780595360079,0595360076",,,,,,,,,OL24293457M,20131,0,,,,,,1,1,1414659,pdf,460FF483955393EDA0D94F7C42BFDCDF,,,Y. dl_avaxhome 20131  _=0595360076.pdf,0,2000-01-01 01:00:00,2016-04-03 02:51:08,261000/460ff483955393eda0d94f7c42bfdcdf-d.jpg,,
19282343,Handbook of Retinal Screening in Diabetes,,,,Roy Taylor,2006,1,Wiley,,188,0,English,155,avaxhome.ws,,"9780470028827,0470028823",,,,,,,,,OL7594863M,20132,0,,,,,,,,13935420,rar,197A9CEC0D2C469C466DED3F163838EF,,,20132 =ScrDiabet.rar,0,2000-01-01 01:00:00,2016-04-03 02:51:08,261000/197a9cec0d2c469c466ded3f163838ef-d.jpg,,
19282344,Advanced 3D Game Programming with DirectX 9,,Wordware Game Developer's Library,,Peter Walsh,2003,600,"Wordware Publishing, Inc.",,706,0,English,84,avaxhome.ws,,"9781556229688,1556229682",,,,,,,,,OL8594399M,20136,0,,,,,,,1,2649220,pdf,CD8B7A2DCEAE4BA5FD40720639F46E68,,,Y. dl_avaxhome 20136  _=Advanced 3D Game Programming with DirectX 9.0.pdf,0,2000-01-01 01:00:00,2016-04-03 02:51:08,261000/cd8b7a2dceae4ba5fd40720639f46e68-d.jpg,,
19282345,FOBA: Buildings,,,,"Katsu Umebayashi, Thomas Daniell, Michael Webb",2005,1,Princeton Architectural Press,,212,0,English,58,avaxhome.ws,,"1568985274,9781568985275",,,,,720/.92/2,NA1559.F63 A4 2005,,,OL17178019M,20141,0,,,,,,1,1,15528471,pdf,AF5D193B2B0687A3F59376C9714C2AF1,,,Y. dl_avaxhome 20141  _=1568985274.pdf,0,2000-01-01 01:00:00,2016-04-03 02:51:08,261000/af5d193b2b0687a3f59376c9714c2af1-d.jpg,,
19282346,Escaping Toxic Guilt: Five Proven Steps to Free Yourself from Guilt for Good!,,,,Susan Carrell,2007,,McGraw-Hill,,274,0,English,198,,,"9780071497350,0071497358",,,,,152.4/4,BF575.G8 C36 2008,10.1036/0071497358,,OL18007846M,20147,0,,,,,,1,1,2086950,pdf,4538F712CE3D4476A9A228D3E130D196,,,"Carrell S. Escaping toxic guilt five proven steps to free yourself from guilt for good- (MGH, 2010)(ISBN 9780071595889)(O)(274s).pdf",0,2000-01-01 01:00:00,2016-04-03 02:51:08,261000/4538f712ce3d4476a9a228d3e130d196-d.jpg,,
19282347,The Green House: New Directions in Sustainable Architecture,,,,"Alanna Stang, Christopher Hawthorne",2005,1,Princeton Architectural Press,,197,0,English,58,avaxhome.ws,,"9781568984810,1568984812",,,,,,,,,OL8691449M,20152,0,,,,,,1,1,19283295,pdf,1482D96B5B0E55B50E7C1715E03F01E9,,,Y. dl_avaxhome 20152  _=GreenHouse.pdf,0,2000-01-01 01:00:00,2016-04-03 02:51:08,261000/1482d96b5b0e55b50e7c1715e03f01e9-d.jpg,,
19282348,"Building Outrigger Sailing Canoes: Modern Construction Methods for Three Fast, Beautiful Boats",,,,Gary Dierking,2007,1,International Marine/Ragged Mountain Press,,185,0,English,248,avaxhome.ws,,"0071487913,9780071594561,9780071487917",,B0010Q2K60,,,623.822/3,VM353 .D53 2007,10.1036/0071487913,,OL17990513M,20155,0,,,,,,,1,11905766,pdf,1B602822F534139CF9D3A1C4510921D4,,,Y. dl_avaxhome 20155  _=BuildingCanoes.pdf,0,2000-01-01 01:00:00,2016-04-03 02:51:08,261000/1b602822f534139cf9d3a1c4510921d4-d.jpg,,
19282349,Approximate Dynamic Programming: Solving the Curses of Dimensionality,,Wiley Series in Probability and Statistics,,Warren B. Powell,2007,1,Wiley-Interscience,,487,0,English,87,avaxhome.ws,,"0470171553,9780470171554,9780470182956",,,,,519.7/03,T57.83 .P76 2007,,,OL17884589M,20160,0,,,,,,1,1,25819648,pdf,E9C3716F4B0158D59454C43D0D79003F,,,Y. dl_avaxhome 20160  _=ApDynProgr2.pdf,0,2000-01-01 01:00:00,2016-04-03 02:51:08,261000/e9c3716f4b0158d59454c43d0d79003f-d.jpg,,
19282350,"Pleasures of Pi,e and Other Interesting Numbers",,,,Y. E. O. Adrian,2006,,World Scientific Publishing Company,,268,0,English,143,avaxhome.ws,,"9812700781,9789812700780",,,,,,,,,OL9198026M,20169,0,,,,1,1,1,1,23037039,pdf,8D9DD001AA0B5F5313A53378667BABF2,,,Y. dl_avaxhome 20169  _=PleasNumb.pdf,0,2000-01-01 01:00:00,2016-04-03 02:51:08,261000/8d9dd001aa0b5f5313a53378667babf2-d.jpg,,
19282351,Low-Power NoC for High-Performance SoC Design,,System-on-Chip Design and Technologies,,"Hoi-Jun Yoo, Kangmin Lee, Jun Kyong Kim",2008,1,CRC Press,,304,0,English,210,avaxhome.ws,,"9781420051728,1420051725",,,,,621.3815,TK7895.E42 Y66 2008,,,OL11816575M,20173,0,,,,,,,,16696344,rar,2D27514E5194C12B193517C5C2D296FB,,,20173 =LoPowDes.rar,0,2000-01-01 01:00:00,2016-04-03 02:51:08,261000/2d27514e5194c12b193517c5c2d296fb-d.jpg,,
19282352,The Insulin-Resistance Diet--Revised and Updated: How to Turn Off Your Body's Fat-Making Machine,,,,"Cheryle Hart, Mary Kay Grossman",2007,2,McGraw-Hill,,258,0,English,210,avaxhome.ws,,"9780071499842,0071499849",,,,,615.8/54,RM222.2 .H256 2008,10.1036/0071499849,,OL18420060M,20174,0,,,,,,1,1,1468449,pdf,FF1E4B2DA407D4EE18E21E61AF7A0AC9,,,Y. dl_avaxhome 20174  _=InsulinResistanceDiet.pdf,0,2000-01-01 01:00:00,2016-04-03 02:51:08,261000/ff1e4b2da407d4ee18e21e61af7a0ac9-d.jpg,,
19282353,The Pastry Chef's Companion: A Comprehensive Resource Guide for the Baking and Pastry Professional,,,,"Glenn Rinsky, Laura Halpin Rinsky",2008,,Wiley,,385,0,English,,avaxhome.ws,,"9780470009550,9780470227299,0470009551",,,,,641.3/003,TX349 .R484 2008,,,OL10278112M,20190,0,,,,,,1,1,20088700,pdf,CBE799D1888C86F818390A729B053CE7,,,Y. dl_avaxhome 20190  _=qq28.pdf,0,2000-01-01 01:00:00,2016-04-03 02:51:08,261000/cbe799d1888c86f818390a729b053ce7-d.jpg,,
19282354,Climate Change and Terrestrial Carbon Sequestration in Central Asia,,,,"Rattan Lal, M. Suleimenov, B.A. Stewart, D.O. Hansen, Paul Doraiswamy",2007,1,Taylor & Francis,,512,0,English,36,avaxhome.ws,,"9780415422352,0415422353",,,,,363.700958,SD387.C37 C58 2007,,,OL10205772M,20193,0,,,,,,1,1,10132577,pdf,37730778DE96083840365D777FE117F4,,,Y. dl_avaxhome 20193  _=qq26.pdf,0,2000-01-01 01:00:00,2016-04-03 02:51:08,261000/37730778de96083840365d777fe117f4-d.jpg,,
19282355,Magico-Religious Groups and Ritualistic Activities: A Guide for First Responders,,,,Tony M. Kail,2008,1,CRC Press,,170,0,English,205,avaxhome.ws,,"9781420051865,1420051865",,,,,203,BL65.M2 K35 2008,,,OL11816582M,20207,0,,,,,,,1,5805964,pdf,ED318C40B41B7E5B58174B60E343677E,,,Y. dl_avaxhome 20207  _=qq13.pdf,0,2000-01-01 01:00:00,2016-04-03 02:51:08,261000/ed318c40b41b7e5b58174b60e343677e-d.jpg,,
19282356,Brand Hollywood: Selling Entertainment in a Global Media Age,,,,Paul Grainge,2007,1,Routledge,,225,0,English,305,avaxhome.ws,,"9780415354042,0415354048,9780203000526",,,,,384/.830973,PN1995.9.M29 G73 2008,,,OL10203864M,20213,0,,,,,1,,1,5742883,pdf,5D767AF54E033BF870FCB97C579E8D5A,,,Y. dl_avaxhome 20213  _=qq07.pdf,0,2000-01-01 01:00:00,2016-04-03 02:51:08,261000/5d767af54e033bf870fcb97c579e8d5a-d.jpg,,
19282357,Advanced Techniques in Diagnostic Cellular Pathology,,,,"Mary Hannon-Fletcher, Perry Maxwell",2009,1,Wiley,,209,0,English,147,avaxhome.ws,,"047051597X,9780470515976",,,,,611/.01815,RB43 .A38 2009,,,OL22853405M,20226,0,,,,,,,1,29628157,pdf,DD27206169005C20D580F95696673763,,,Y. dl_avaxhome 20226  _=047051597X.pdf,0,2000-01-01 01:00:00,2016-04-03 02:51:08,261000/dd27206169005c20d580f95696673763-d.jpg,,
19282358,Nakajima Ki-43 Hayabusa Oscar,,pod lupa,,Przemyslaw Skulski,1999,,ace publications,,52,0,English,64,avaxhome.ws,,"9788386153985,8386153989",,,,,,,,,,20255,0,,,,,,1,0,11969208,pdf,BD9F2283105F2625CEF4B813CC13D5B5,,,Y. dl_avaxhome 20255  _=ACE_Publication___Pod_Lupa_11___Nakajima_Ki_43_Hayabusa__Oscar_.pdf,0,2000-01-01 01:00:00,2016-04-03 02:51:08,261000/bd9f2283105f2625cef4b813cc13d5b5-g.jpg,,
19282359,The Treatment of Epilepsy,,,,"Simon D. Shorvon, Emilio Perucca, David Fish, W E Dodson",2004,2,Wiley-Blackwell,,936,0,English,147,avaxhome.ws,,"9780632060467,0632060468",,,,,616.8/5306,RC372 .T67 2004,,,OL18902170M,20256,0,,,,,,1,1,108945161,pdf,6D398AA68C309A1CEE5D66E71C1725EE,,,Y. dl_avaxhome 20256  _=Treatment_of_epilepsy.pdf,0,2000-01-01 01:00:00,2016-04-03 02:51:08,261000/6d398aa68c309a1cee5d66e71c1725ee-d.jpg,,
19282360,Biology of the Spotted Seatrout,,Marine Biology,,Stephen A. Bortone,2002,1,CRC Press,,329,0,English,12,avaxhome.ws,,"0849311292,9780849311291,9781420040791",,,,,,,,,OL18136615M,20271,0,,,,,,1,1,5508482,pdf,4CD84C18AED477B3AC5201CEDB1E7D13,,,Y. dl_avaxhome 20271  _=0849311292.pdf,0,2000-01-01 01:00:00,2016-04-03 02:51:08,261000/4cd84c18aed477b3ac5201cedb1e7d13-d.jpg,,
19282361,"Dynamics of High-Speed Railway Bridges: Selected and revised papers from the Advanced Course on Dynamics of High-Speed Railway Bridges, Porto, Portugal, 20-23 September 2005",,,,"Raimundo Delgado, Rui Calcada, Jose Maria Goicolea, Felipe Gabaldon",2008,1,Taylor & Francis,,176,0,English,181,avaxhome.ws,,"9780415467674,0415467675",,,,,625.1,TF1460 .D96 2008,,,OL16444976M,20273,0,,,,,,,,38103097,rar,E86E6D9597F74FD79A45C43E71F3F1C0,,,20273 =High_Speed_Railway_Bridges.rar,0,2000-01-01 01:00:00,2016-04-03 02:51:08,261000/e86e6d9597f74fd79a45c43e71f3f1c0-d.jpg,,
19282362,"Advances in Marine Biology, Vol. 43",,,,"Alan J. Southward, Craig M. Young, Lee A. Fuiman",2002,1st,Academic Press,,1-337,0,English,,avaxhome.ws,0,978-0-12-026143-7,0065-2881,,,,,,,,,20282,0,,,,,,1,1,20816158,pdf,84BDF6502F3C7BCC8F216CEBFF626D3C,,,Y. dl_avaxhome 20282  _=135928___bio_43.pdf,0,2000-01-01 01:00:00,2016-04-03 02:51:08,261000/84bdf6502f3c7bcc8f216cebff626d3c-d.jpg,,
19282363,Laser-Plasma Interactions,,Scottish Graduate Series,,"Dino A. Jaroszynski, R.A. Bingham, R.A Cairns",2009,1,Taylor & Francis,,450,0,English,264,avaxhome.ws,,"9781584887782,1584887788",,,,,539.7/3,QC718.5.L3 S38 2005,,,OL22843315M,20322,0,,,,,,,,12285362,rar,F0E7E6407E4E748094F57DE4F5E7E8E7,,,20322 =1584887788.rar,0,2000-01-01 01:00:00,2016-04-03 02:51:08,261000/f0e7e6407e4e748094f57de4f5e7e8e7-d.jpg,,
19282364,The Art of Africa. A Resource for Educators,,Metropolitan Museum of Art Publications,,Christa Clarke,2007,,Metropolitan Museum of Art,,217,0,English,64,avaxhome.ws,,"9780300123128,0-30012-312-4",,,,,,,,,OL10319485M,20333,0,,,,,,,1,19480499,pdf,BC51133E33CF4DD5F95D52AE07A5C71C,,,Y. dl_avaxhome 20333  _=The_20Art_20of_20Africa.pdf,0,2000-01-01 01:00:00,2016-04-03 02:51:08,261000/bc51133e33cf4dd5f95d52ae07a5c71c-d.jpg,,
19282365,Molecular Bases of Anesthesia,,Handbooks in Pharmacology and Toxicology,,"Eric Moody, Phil Skolnick",2000,1,CRC Press,,346,0,English,149,avaxhome.ws,,"9780849385551,0849385555",,,,,,,,,OL11560447M,20338,0,,,,,,,1,5133333,pdf,08FAEFF309AA4D20DEA42322B4A2E264,,,Y. dl_avaxhome 20338  _=MoleBasAnest.pdf,0,2000-01-01 01:00:00,2016-04-03 02:51:08,261000/08faeff309aa4d20dea42322b4a2e264-d.jpg,,
19282366,The Case-Book Of Sherlock Holmes,,,,Arthur Conan Doyle,2008,,House of Stratus,,294,0,English,110,avaxhome.ws,,"9780755106479,0755106474",,,,,,,,,OL7992505M,20341,0,,,,,,,,417064,chm,43A3C91C4CA4122CD2E506BC9BE76DB2,,,20341 =710.CHM,0,2000-01-01 01:00:00,2016-04-03 02:51:08,261000/43a3c91c4ca4122cd2e506bc9be76db2-d.jpg,,
19282367,How to Start Your Own Gardening Business: An insider guide to setting yourself up as a professional gardener,,,,Paul Power,2007,2nd,How To Books,,273,0,English,183,avaxhome.ws,,"9781845281755,1845281756",,,,,,,,,OL8958636M,20359,0,,,,,,1,1,13825538,pdf,9C059B19B5D0258E76A210E89D2EBC2E,,,Y. dl_avaxhome 20359  _=How_to_Start_Your_Own_Gardening_Business.pdf,0,2000-01-01 01:00:00,2016-04-03 02:51:08,261000/9c059b19b5d0258e76a210e89d2ebc2e-d.jpg,,
19282368,Living and Working in America,,How to,,Steve Mills,2004,6th,How to Books,,319,0,English,,avaxhome.ws,,"9781857039139,1857039130",,,,,,,,,OL8998197M,20363,0,,,,,,1,1,15456658,pdf,6516253F9B9BBEEF83A0C2A6054877ED,,,Y. dl_avaxhome 20363  _=Living_and_Working_in_America.pdf,0,2000-01-01 01:00:00,2016-04-03 02:51:08,261000/6516253f9b9bbeef83a0c2a6054877ed-d.jpg,,
19282369,Inventive Strategies for Teaching Mathematics: Implementing Standards for Reform,,Psychology in the Classroom,,"James A. Middleton, Polly Goepfert",1996,1,American Psychological Association (APA),,164,0,English,113,avaxhome.ws,,"9781557983688,1557983682",,,,,510/.71,QA11 .M4964 1996,,,OL976352M,20378,0,,,,,,1,1,6651671,pdf,9420E792AFD20103FF9A0D66CB0AFCA8,,,Y. dl_avaxhome 20378  _=InventiveStrategies_TeachingMathematics.pdf,0,2000-01-01 01:00:00,2016-04-03 02:51:08,261000/9420e792afd20103ff9a0d66cb0afca8-g.jpg,,
19282370,"The Early Earth: Physical, Chemical and Biological Development",,"Geological Society Special Publication, No. 199",,"C M R Fowler, C Ebinger and C J Hawkesworth, Connie May Fowler, C. J. Ebinger, C. J. Hawkesworth",2003,,Geological Society of London,,369,0,English,296,avaxhome.ws,,"9781862391093,1862391092",,,,,551.7/12,QE653.3 .E27 2002,,,OL3754850M,20381,0,,,,,,,1,44478826,pdf,4A42F80826DD6FB6703F438FF79FF55F,,,Y. dl_avaxhome 20381  _=EarlyEarth.pdf,0,2000-01-01 01:00:00,2016-04-03 02:51:08,261000/4a42f80826dd6fb6703f438ff79ff55f-g.jpg,,
19282371,Ancient Greece: From Prehistoric to Hellenistic Times,,Yale Nota Bene,,Thomas R. Martin,2000,Updated,Yale University Press,,300,0,English,64,avaxhome.ws,,"9780300084931,9780300129953,0300084935,0300067674,9780300067675",,,,,938,DF77 .M3 2000,,,OL3970197M,20396,0,,,,,1,,1,3594512,pdf,AA5A363AF563FBA8E554269F77B2C60F,,,Y. dl_avaxhome 20396  _=thomas_r._martin__author__-_ancient_greece__from_prehistoric_to_hellenistic_times__0300067674__1996_.pdf,0,2000-01-01 01:00:00,2016-04-03 02:51:08,261000/aa5a363af563fba8e554269f77b2c60f-d.jpg,,
19282372,Evolutionary biology of ostracoda: its fundamentals and applications: Proceedings of the Ninth International Symposium on Ostracoda,,Developments in Palaeontology and Stratigraphy 11,,"Tetsuro Hanai, Noriyuki Ikeya and Kunihiro Ishizaki (Eds.)",1988,,Elsevier Science,,"iii-xvi, 3-1356",0,English,12,avaxhome.ws,,"0444989218,9780444989215,9780080868523",0920-5446,,,,565/.33,QE817.O8 I57 1985,,,OL2031522M,20403,0,,,,,1,,1,33530255,pdf,EFB0F8D03C9317D36E200C31E5378411,,,Y. dl_avaxhome 20403  _=27.pdf,0,2000-01-01 01:00:00,2016-04-03 02:51:08,261000/efb0f8d03c9317d36e200c31e5378411-d.jpg,,
19282373,Comparative Studies in the Archaeology of Colonialism,,British Archaeological Reports (BAR),,Stephen L. Dyson,1985,,British Archaeological Reports,,187,0,English,64,avaxhome.ws,,"9780860543022,0860543021",,,,,970.01,CC77.H5 C65 1985,,,OL2650840M,20407,0,,,,,,,0,22434060,pdf,15EC79F10B7D5DC9C833F044A3F32987,,,Y. dl_avaxhome 20407  _=comp0860543021.pdf,0,2000-01-01 01:00:00,2016-04-03 02:51:08,261000/15ec79f10b7d5dc9c833f044a3f32987-g.jpg,,
19282374,"STEP Project Management: Guide for Science, Technology, and Engineering Projects",,Industrial Innovation,,Adedeji B. Badiru,2009,1,CRC Press,,421,0,English,210,avaxhome.ws,,"9781420072358,1420072358",,,,,658.4/04,T56.8 .B334 2009,,,OL11817288M,20416,0,,,,,,,,5703048,rar,F595200ACC4505F72327EF0D68CA0E86,,,20416 =1420072358.rar,0,2000-01-01 01:00:00,2016-04-03 02:51:08,261000/f595200acc4505f72327ef0d68ca0e86-d.jpg,,
19282375,Handbook of Optical Sensing of Glucose in Biological Fluids and Tissues,,Series in Medical Physics and Biomedical Engineering,,Valery V. Tuchin,2008,1,Taylor & Francis,,744,0,English,,avaxhome.ws,,"9781584889748,1584889748",,,,,572/.565,RC660 .H363 2008,,,OL12313889M,20428,0,,,,,,,,15172081,rar,693CACFB3BCE61DF35C79B5CFE67FFD5,,,20428 =1584889748.rar,0,2000-01-01 01:00:00,2016-04-03 02:51:08,261000/693cacfb3bce61df35c79b5cfe67ffd5-d.jpg,,
19282376,The Clitoral Truth: The Secret World at Your Fingertips,,,,Rebecca Chalker,2003,,Seven Stories Press,,167,0,English,201,avaxhome.ws,0,"9781583224731,1583224734",,,,,,,,,,20430,0,,,,,,1,1,4024341,pdf,E8C75377988C5E835C5D26A22B935119,eaf80dc3967b71db46093429fc0d238b,no,Y. dl_avaxhome 20430  _=Oral_Sex_Technique_-_Lover_s_Guide_-_Rebecca_Chalker_-_The_Clitoral_Truth.pdf,0,2000-01-01 01:00:00,2016-04-03 02:51:08,261000/e8c75377988c5e835c5d26a22b935119-d.jpg,,
19282377,Principles of Molecular Oncology,,,,"Miguel H. Bronchud, MaryAnn Foote, Giuseppe Giaccone, Olufunmilayo I. Olopade, Paul Workman",2008,3rd,Humana Press,,429,0,English,147,avaxhome.ws,,"9781597454704,9781603275057,9781934115251,1603275053,1934115258",,,,,,,,,OL16442883M,20437,0,,,,,1,,1,23585603,pdf,E6C3B0E71E2EA795FC4F534461883F2E,,,Y. dl_avaxhome 20437  _=PrincMolOncol.pdf,0,2000-01-01 01:00:00,2016-04-03 02:51:08,261000/e6c3b0e71e2ea795fc4f534461883f2e-d.jpg,,
19282378,The Neanderthal Legacy,,,,Paul Mellars,1995,,Princeton University Press,,494,0,English,64,avaxhome.ws,,"9780691034935,0691034931",,,,,936,GN285 .M45 1996,,,OL1272955M,20444,0,,,,,,,0,75947646,pdf,8D2D0258F7D40BEED5DDD7EDCE2B7BEF,,,Y. dl_avaxhome 20444  _=b0691034931.pdf,0,2000-01-01 01:00:00,2016-04-03 02:51:08,261000/8d2d0258f7d40beed5ddd7edce2b7bef-d.gif,,
19282379,Discovering Islam: Making Sense of Muslim History and Society,,,,"Akbar Ahmed, Lawrence Rosen",2002,Revised,Routledge,,261,0,English,205,avaxhome.ws,,"9780415285247,0415285240",,,,,,,,,OL7490038M,20454,0,,,,,,1,1,1979877,pdf,D0E515B2E538C75EB3D343F3AF5834D1,,,Y. dl_avaxhome 20454  _=DiscoIslam.pdf,0,2000-01-01 01:00:00,2016-04-03 02:51:08,261000/d0e515b2e538c75eb3d343f3af5834d1-d.jpg,,
19282380,The Art of Medieval Technology: Images of Noah the Shipbuilder,,American Women Writers,,Richard W. Unger,1991,,Rutgers Univ Pr,,237,0,English,64,avaxhome.ws,,"9780813517278,0813517273",,,,,704.9/484,N8180 .U54 1991,,,OL2026438M,20456,0,,,,,,,0,125153904,pdf,D6E27659A88F47B830674FD49380862D,,,Y. dl_avaxhome 20456  _=unger0813517273.pdf,0,2000-01-01 01:00:00,2016-04-03 02:51:08,261000/d6e27659a88f47b830674fd49380862d-g.jpg,,
19282381,"The Frontal Lobes: Development, Function and Pathology",,Series for the International Neuropsychological Society,,"Jarl Risberg, Jordan Grafman",2006,1,Cambridge University Press,,249,0,English,147,avaxhome.ws,,"9780521672252,0521672252",,,,,612.8/2,QP382.F7 F758 2006,,,OL17156468M,20484,0,,,,,,,1,5388407,pdf,CB2A45F74FE1B8F8D06A7E0D836EFE22,,,Y. dl_avaxhome 20484  _=0521672252.pdf,0,2000-01-01 01:00:00,2016-04-03 02:51:08,261000/cb2a45f74fe1b8f8d06a7e0d836efe22-d.jpg,,
19282382,Stop Clutter From Stealing Your Life: Discover Why You Clutter and How You Can Stop,,,,Mike Nelson,2008,Revised,New Page Books,,257,0,English,198,avaxhome.ws,,"9781601630087,1601630085",,,,,648/.5,TX324 .N45 2008,,,OL12553742M,20491,0,,,,,,,1,1482276,pdf,D28222A82E15CD217C0D49E0F153FB82,,,Y. dl_avaxhome 20491  _=StopClutter.pdf,0,2000-01-01 01:00:00,2016-04-03 02:51:08,261000/d28222a82e15cd217c0d49e0f153fb82-g.jpg,,
19282383,Crisis in the Kindergarten: Why Children Need to Play in School,,,,"Edward Miller, Joan Almon",2009,,Alliance for Childhood,,72,0,English,198,avaxhome.ws,,"9780982375105,0982375107",,,,,,,,,,20494,0,,,,,,1,1,2082808,pdf,A482849ACD4D1A3749EC0388CE44C22F,,,Y. dl_avaxhome 20494  _=_0982375107.PDF,0,2000-01-01 01:00:00,2016-04-03 02:51:08,261000/a482849acd4d1a3749ec0388ce44c22f-d.jpg,,
19282384,"Early Medieval Europe, 300-1000, ",,Palgrave History of Europe,,Roger Collins,1999,2nd,Palgrave Macmillan,,241,0,English,64,avaxhome.ws,,"9780312218867,0312218869",,,,,940.1,D121 .C65 1999,,,OL376194M,20513,0,,,,,,1,0,23303993,pdf,448E98ABF0BDDE4DA726EC97223F59BC,,,Y. dl_avaxhome 20513  _=0312218869.pdf,0,2000-01-01 01:00:00,2016-04-03 02:51:08,261000/448e98abf0bdde4da726ec97223f59bc-d.jpg,,
19282385,International Mathematical Olympiads 1959-2000,,,,,2001,1st,Academic Distribution Center,,190,0,English,113,avaxhome.ws,,"9780964095915,0964095912",,,,,,,,,OL11706498M,20517,0,,,,,,,0,42962864,pdf,2012BA6542AF985D35FA77BD9C16DF9F,,,Y. dl_avaxhome 20517  _=International_Mathematical_Olympiads_1959-2000.pdf,0,2000-01-01 01:00:00,2016-04-03 02:51:08,261000/2012ba6542af985d35fa77bd9c16df9f-d.jpg,,
19282386,"Sleep Solutions for Your Baby, Toddler and Preschooler: The Ultimate No-Worry Approach for Each Age and Stage",,Mother of All Solutions,,Ann Douglas,2006,,Wiley,,320,0,English,41,avaxhome.ws,,"0470836334,9780470836330,9780470156513",,,,,,,,,OL24301906M,20524,0,,,,,,1,1,1936501,pdf,3BF9A01D6F45F33FD301C6E7F7C22B0B,,,Y. dl_avaxhome 20524  _=ww26.pdf,0,2000-01-01 01:00:00,2016-04-03 02:51:08,261000/3bf9a01d6f45f33fd301c6e7f7c22b0b-d.jpg,,
19282387,Media Technology: Critical Perspectives,,Issues in Cultural and Media Studies,,Joost Van Loon,2007,1,Open University Press,,188,0,English,189,avaxhome.ws,,"0335214460,9780335214464,9780335235315",,,,,,,,,OL10561914M,20526,0,,,,,1,,1,8363037,pdf,A12B0CF90AD36F8EC31CF2B6C314BE16,,,Y. dl_avaxhome 20526  _=ww24.pdf,0,2000-01-01 01:00:00,2016-04-03 02:51:08,261000/a12b0cf90ad36f8ec31cf2b6c314be16-d.jpg ,,
19282388,"Soil Carbon Management: Economic, Environmental and Societal Benefits",,,,"John M. Kimble, Charles W. Rice, Debbie Reed, Sian Mooney, Ronald F. Follett, Rattan Lal",2007,,CRC Press,,284,0,English,305,avaxhome.ws,,"1420044079,9781420044072",,,,,,,,,OL17229688M,20529,0,,,,,,,1,6168934,pdf,E805FAFD1671B473886C4CC420474972,,,Y. dl_avaxhome 20529  _=ww21.pdf,0,2000-01-01 01:00:00,2016-04-03 02:51:08,261000/e805fafd1671b473886c4cc420474972-d.jpg,,
19282389,Helping Children to be Strong,,From Birth to Three Series,,"Ann Roberts, Avril Harpley",2007,1,David Fulton Publishers,,96,0,English,41,avaxhome.ws,,"1843124513,9781843124511,9780203931738",,,,,305.2/31,LB1117 .R59 2007,,,OL11903141M,20544,0,,,,,1,,1,5899473,pdf,8E95D5F31903099613732C580F2B5CD4,,,Y. dl_avaxhome 20544  _=ww04.pdf,0,2000-01-01 01:00:00,2016-04-03 02:51:08,261000/8e95d5f31903099613732c580f2b5cd4-d.jpg,,
19282390,Life Care Planning and Case Management Handbook,,,,Roger O. Weed,2004,2,CRC Press,,873,0,English,,avaxhome.ws,,"9780849315114,0849315115",,,,,,,,,OL18214305M,20566,0,,,,,,1,1,11150861,pdf,207D10D4B6556290F248F45919840872,,,Y. dl_avaxhome 20566  _=LifeCarPlan.pdf,0,2000-01-01 01:00:00,2016-04-03 02:51:08,261000/207d10d4b6556290f248f45919840872-d.jpg,,
19282391,Jagdpanther,,Wydawnictwo Militaria 083,,Janusz Ledwoch,1999,,Wydawnictwo Militaria,,52,0,German,64,avaxhome.ws,,"9788372190406,8372190402",,,,,,,,,,20576,0,,,,,,1,0,5668100,pdf,7E33F07E9EB7DC119B50BE4909628351,,,20576 =Wydawnictwo_Militaria__083__-_Jagdpanther.pdf,0,2000-01-01 01:00:00,2016-04-03 02:51:08,261000/7e33f07e9eb7dc119b50be4909628351-g.jpg,,
19282392,Fiat BR-20,,Wydawnictwo Militaria 081,,Pawel Babinski,1999,,Wydawnictwo Militaria,,48,0,English,64,avaxhome.ws,,8372190356,,,,,,,,,,20581,0,,,,,,,0,11366625,pdf,6CCE25C02BDD6C53040F07270A4A5154,,,20581 =Wydawnictwo_Militaria__081__-_Fiat_Br20.pdf,0,2000-01-01 01:00:00,2016-04-03 02:51:08,261000/6cce25c02bdd6c53040f07270a4a5154-g.jpg,,
19282393,Simple Reading Activities,,Oxford Basics,,"Jill Hadfield, Charles Hadfield",2000,,"Oxford University Press, USA",,72,0,English,,avaxhome.ws,,"9780194421737,0194421732",,,,,,,,,OL7385642M,20601,0,,,,,,,1,5470366,pdf,7014438202FD7CA5D6CA1193EE0ADC70,,,Y. dl_avaxhome 20601  _=Oxford.Basics-Simple.Reading.Activities.pdf,0,2000-01-01 01:00:00,2016-04-03 02:51:08,261000/7014438202fd7ca5d6ca1193ee0adc70-d.jpg,,
19282394,Chemical Engineering: Visions of the World,,,,"R. C. Darton, D. G. Wood, R. G. H. Prince",2003,1,Elsevier Science,,132,0,English,296,avaxhome.ws,,"0444513094,9780444513090,9780080472218",,,,,660,TP155 .W67 2001,,,OL18187596M,20602,0,,,,,1,1,1,2142394,pdf,7DB789463FD3DC29BD2F49DA8BDA96DD,,,Y. dl_avaxhome 20602  _=chemical_engineering_-_visions_of_the_world.pdf,0,2000-01-01 01:00:00,2016-04-03 02:51:08,261000/7db789463fd3dc29bd2f49da8bda96dd-d.jpg ,,
19282395,Quantitative Forecasting of Problems in Industrial Water Systems,,Chemical Engineering,,A. G. D. Emerson,2004,,World Scientific Publishing Company,,500,0,English,181,avaxhome.ws,,"9789812381842,9812381848",,,,,,,,,OL13169174M,20609,0,,,,,,,,1338157,rar,2D3F6EB1C79A2DBCA2965F6A023CFE30,,,20609 =45575___qfpiws_tqn.rar,0,2000-01-01 01:00:00,2016-04-03 02:51:08,261000/2d3f6eb1c79a2dbca2965f6a023cfe30-d.jpg,,
19282396,"Current Topics in Developmental Biology, Vol. 71",,,,Gerald P. Schatten (Ed.),2005,1st,Academic Press,,1-348,0,English,,avaxhome.ws,0,"0121531716,9780121531713",0070-2153,,,,,,10.1016/S0070-2153,,,20614,0,,,,,1,1,1,4020936,pdf,0034C581E7AC3E7CAD0756D755E988DF,,,Y. dl_avaxhome 20614  _=CurTopDevBiol71.pdf,0,2000-01-01 01:00:00,2016-04-03 02:51:08,261000/0034c581e7ac3e7cad0756d755e988df-d.jpg,,
19282397,iCon Steve Jobs: The Greatest Second Act in the History of Business,,,,"Jeffrey S. Young, William L. Simon",2005,1,Wiley,,368,0,English,1,avaxhome.ws,,"9780471720836,0471720836",,,,,,,,,OL7620592M,20615,0,,,,,,,,26242458,rar,0103F5E94CD02F2E9E61D19B3239BB60,,,20615 =Ste.Jo.rar,0,2000-01-01 01:00:00,2016-04-03 02:51:08,261000/0103f5e94cd02f2e9e61d19b3239bb60-d.jpg,,
19282398,"Active Infective Aortic Valve Endocarditis with Infection Extension: Clinical Features, Perioperative Echocardiographic Findings and Results of Surgical ... in der Herz-, Thorax- und GefГ¤Гџchirurgie)",,,,Henryk Siniawski,2006,1,Steinkopff,,70,0,English,161,avaxhome.ws,,"9783798515215,9783798516298,3798515212",,,,,,,,,OL8936602M,20626,0,,,,,1,1,1,2981362,pdf,1CAE84E89D7FCB52A13F4A9EF5086CCA,,,Y. dl_avaxhome 20626  _=Endocarditis.pdf,0,2000-01-01 01:00:00,2016-04-03 02:51:08,261000/1cae84e89d7fcb52a13f4a9ef5086cca-d.jpg,,
19282399,On the Name,,Meridian: Crossing Aesthetics,,Jacques Derrida,1995,1,Stanford University Press,,164,0,English,205,avaxhome.ws,,"9780804725545,0804725543",,,,,194,B2430.D482 E5 1995,,,OL1116136M,20633,0,,,,,,1,1,8223019,pdf,DB279021D399C29ECE3A2F0E0D348DAD,,,Y. dl_avaxhome 20633  _=0804725551.pdf,0,2000-01-01 01:00:00,2016-04-03 02:51:08,261000/db279021d399c29ece3a2f0e0d348dad-g.jpg,,
19282400,Breaking the Cycle of Educational Alienation,,,,"Richard Williams, Colin Pritchard",2006,1,Open University Press,,228,0,English,183,avaxhome.ws,,"9780335219179,9780335219186,0335219179,0335219187",,,,,371.295,,,,OL10562156M,20646,0,,,,,1,,1,2414638,pdf,A13D6A5594AA8AC497ECB7AA8DB3DCC7,,,Y. dl_avaxhome 20646  _=0335219179.pdf,0,2000-01-01 01:00:00,2016-04-03 02:51:08,261000/a13d6a5594aa8ac497ecb7aa8db3dcc7-d.jpg,,
19282401,Amphibian Metamorphosis: From Morphology to Molecular Biology,,,,Yun-Bo Shi,1999,1,Wiley-Liss,,288,0,English,12,avaxhome.ws,,"9780471244752,0471244759",,,,,,,,,OL7613974M,20652,0,,,,,,,,2777373,rar,B5B31D4E69082E037F250D4211628B3C,,,20652 =0471244759.rar,0,2000-01-01 01:00:00,2016-04-03 02:51:08,261000/b5b31d4e69082e037f250d4211628b3c-d.jpg,,
19282402,"Thinking Orientals: Migration, Contact, and Exoticism in Modern America",,,,Henry Yu,2002,,"Oxford University Press, USA",,279,0,English,64,avaxhome.ws,,"0195151275,9780195151275,9780195185294",,,,,,,,,OL7390011M,20659,0,,,,,,1,1,1827947,pdf,7F49E60FF3120A36BE3B3183572C3A0F,,,Y. dl_avaxhome 20659  _=0195151275.pdf,0,2000-01-01 01:00:00,2016-04-03 02:51:08,261000/7f49e60ff3120a36be3b3183572c3a0f-d.jpg,,
19282403,Getting Horses Fit: A Guide to Improving Performance,,,,"Sarah Pilliner, Zoe Davies",2000,3 Sub,Wiley-Blackwell,,288,0,English,12,avaxhome.ws,,"9780632048113,0632048115",,,,,,,,,OL9864819M,20740,0,,,,,,,,1776638,rar,209217E415402F4BE2F2FBB13EE13915,,,20740 =19.rar,0,2000-01-01 01:00:00,2016-04-03 02:51:08,261000/209217e415402f4be2f2fbb13ee13915-d.jpg,,
19282404,Navy SEAL Physical Fitness Guide,,,,Patricia Duester,2002,,William s Konecky Assoc,,301,0,English,264,avaxhome.ws,,"9781568523743,1568523742",,,,,,,,,OL8689762M,20762,0,,,,,,1,1,16835715,pdf,73DB526D9ED68C4A972AD25F5B0A865A,,,Y. dl_avaxhome 20762  _=NavFitness.pdf,0,2000-01-01 01:00:00,2016-04-03 02:51:08,261000/73db526d9ed68c4a972ad25f5b0a865a-d.jpg,,
19282405,Dynamics of Pelagic Fish Distribution and Behaviour: Effects on Fisheries and Stock Assessment,,''Fishing News'' Books,,"Pierre Freon, Ole Arve Misund",1998,,Wiley-Blackwell,,360,0,English,12,avaxhome.ws,,"9780852382417,0852382413",,,,,,,,,OL22373029M,20776,0,,,,,,,,2391206,rar,EC729A501AAD96B363B778DA40160E2C,,,20776 =12.rar,0,2000-01-01 01:00:00,2016-04-03 02:51:08,261000/ec729a501aad96b363b778da40160e2c-d.jpg,,
19282406,Handbook of optical metrology: principles and applications,,,,Toru Yoshizawa (editor),2009,1,CRC Press,,744,0,English,279,avaxhome.ws,0,"0849337607,9780849337604,9781420019513",,,,,681’.25-dc22,QC367.H36 2008,10.1201/9781420019513,DdzBQsqPbzcC,,20786,0,,,,,0,1,,20594460,rar,88A9283CC2A87F1921FDC212316CEC51,,,20786 =0849337607.rar,0,2000-01-01 01:00:00,2016-04-03 02:51:08,165000/f81861a7f5a7f9bc822148c23d169f8f-d.jpg,,
19282407,The Condemnation of Little B.,,,,Elaine Brown,2003,,Beacon Press,,401,0,English,,avaxhome.ws,,"9780807009758,080700975X",,,,,,,,,OL7944505M,20804,0,,,,,,1,1,4304752,pdf,5F4E0C0893E220270B8939E71D50028D,,,Y. dl_avaxhome 20804  _=080700975x.pdf,0,2000-01-01 01:00:00,2016-04-03 02:51:08,261000/5f4e0c0893e220270b8939e71d50028d-d.jpg,,
19282408,The Passionate Learner: How Teachers and Parents Can Help Children Reclaim the Joy of Discovery,,,,Robert L. Fried,2002,,Beacon Press,,313,0,English,183,avaxhome.ws,,"9780807031490,0807031496",,,,,,,,,OL7944702M,20806,0,,,,,,,1,1384351,pdf,CA8DB4BA0E3ABB44DF485DDB71CEEDC5,,,Y. dl_avaxhome 20806  _=0807031496.pdf,0,2000-01-01 01:00:00,2016-04-03 02:51:08,261000/ca8db4ba0e3abb44df485ddb71ceedc5-d.jpg,,
19282409,I'll Be Short: Essentials for a Decent Working Society,,,,Robert B. Reich,2003,,Beacon Press,,131,0,English,,avaxhome.ws,,"0807043419,9780807043417,0807043400,9780807043400,9780807043424",,"B0027MPQ9O,B0027MOTP6",,,,,,,OL7944790M,20809,0,,,,,,,1,4627164,pdf,540DAD1F1D3EDCBB05DA604568B84D17,,,Y. dl_avaxhome 20809  _=0807043419.pdf,0,2000-01-01 01:00:00,2016-04-03 02:51:08,261000/540dad1f1d3edcbb05da604568b84d17-d.jpg,,
19282410,Friendship,,Meridian: Crossing Aesthetics,,"Maurice Blanchot, Elizabeth Rottenberg",1997,,Stanford University Press,,164,0,French,195,avaxhome.ws,,"9780804727587,0804727589",,,,,700/.1/01,NX180.S6 B55813 1997,,,OL999359M,20812,0,,,,,,,0,43691899,pdf,B419FEC35BD67B213FDA0D98D4FCEA86,,,Y. dl_avaxhome 20812  _=Blanchot.Friendship.pdf,0,2000-01-01 01:00:00,2016-04-03 02:51:08,261000/b419fec35bd67b213fda0d98d4fcea86-d.jpg,,
19282411,"Making Babies, Making Families: What Matters Most in an Age of Reproductive Technologies, Surrogacy, Adoption, and Same-Sex and Unwed Parents' RIghts",,,,Mary L. Shanley,2002,1,Beacon Press,,219,0,English,41,avaxhome.ws,,"9780807044094,0807044091",,,,,,,,,OL7944801M,20829,0,,,,,,,1,2179516,pdf,1F0CE8199A6EB6ED8811D0F46F49F1C4,,,Y. dl_avaxhome 20829  _=MakingBabies_MakingFamilies.pdf,0,2000-01-01 01:00:00,2016-04-03 02:51:08,261000/1f0ce8199a6eb6ed8811d0f46f49f1c4-d.jpg,,
19282412,Illuminations: Essays and Reflections,,,,"Walter Benjamin, Hannah Arendt, Hannah Arendt, Harry Zohn",1999,first Schocken paperback edition,Schocken,,288,0,English,195,avaxhome.ws,,"9780805202410,0805202412",,,,,809,PN37 .B4413 1986,,,OL21155050M,20837,0,,,,,,,1,16123449,pdf,912B97F19DDFE0F52D26FA819440B240,,,Y. dl_avaxhome 20837  _=ben.pdf,0,2000-01-01 01:00:00,2016-04-03 02:51:08,261000/912b97f19ddfe0f52d26fa819440b240-d.jpg,,
19282413,"Carrier Battle in the Philippine Sea: The Marianas Turkey Shoot, June 19-20, 1944",,,,Barrett Tillman,1994,,Phalanx Publishing,,51,0,English,64,avaxhome.ws,,"9781883809041,1883809045",,,,,940.54/4973,D790 .T618 1994,,,OL850435M,20892,0,,,,,,1,0,13843564,pdf,C5324ED6B86ABDF5BC29E9240C235422,,,Y. dl_avaxhome 20892  _=Carrier_Battle_in_the_Philippine_Sea.pdf,0,2000-01-01 01:00:00,2016-04-03 02:51:08,261000/c5324ed6b86abdf5bc29e9240c235422-g.jpg,,
19282414,The Return of Sherlock Holmes,,,,Sir Arthur Conan Doyle,2007,,Headline Book Publishing,,230,0,English,110,avaxhome.ws,,"0755334418,9780755334414",,,,,,,,,OL7993388M,20897,0,,,,,1,,0,1369868,pdf,9F5A2F1A7B09F7A2C879655F6C3943E4,,,Y. dl_avaxhome 20897  _=thereturnofsherlockholmes.pdf,0,2000-01-01 01:00:00,2016-04-03 02:51:08,261000/9f5a2f1a7b09f7a2c879655f6c3943e4-d.jpg,,
19282415,Guerrilla Travel Tactics: Hundreds of Simple Strategies Guaranteed to Save Road Warriors Time and Money,,,,"Jay Conrad Levinson, Theo Brandt-Sarif",2004,,AMACOM,,288,0,English,1,avaxhome.ws,,"9780814471708,0814471706",,,,,,,,,OL8043250M,20900,0,,,,,,,1,3870061,pdf,9A2F1B69EF3F23EB6ABB3FF062C8F559,,,Y. dl_avaxhome 20900  _=0814471706.pdf,0,2000-01-01 01:00:00,2016-04-03 02:51:08,261000/9a2f1b69ef3f23eb6abb3ff062c8f559-d.jpg,,
19282416,"Handbook of Chemical Reactor Design, Optimization, and Scaleup",,,,Bruce Nauman,2001,1,McGraw-Hill Professional,,600,0,English,296,avaxhome.ws,,"9780071377539,0071377530",,,,,,,,,OL18166207M,20918,0,,,,,,,,4918861,rar,4B7615147D2433C0F2598F1F06B99CD1,,,20918 =crdos.rar,0,2000-01-01 01:00:00,2016-04-03 02:51:08,261000/4b7615147d2433c0f2598f1f06b99cd1-d.jpg,,
19282417,Chemical Reactor Design,,Chemical Industries,,Peter Harriott,2003,1,CRC Press,,429,0,English,296,avaxhome.ws,,"9780824708818,0824708814",,,,,,,,,OL18181287M,20920,0,,,,,,,1,3078462,pdf,E28E42D93C444605C62979C57C21F29A,,,Y. dl_avaxhome 20920  _=24127___chemica_reactor_design_harriot.pdf,0,2000-01-01 01:00:00,2016-04-03 02:51:08,261000/e28e42d93c444605c62979c57c21f29a-d.jpg,,
19282418,The New Cambridge English Course 4 Student's book,Bk. 4,Bk. 4,,"Michael Swan, Catherine Walter, Desmond O'Sullivan",1993,,Cambridge University Press,,116,0,English,314,avaxhome.ws,,"0521376408,9780521376402",,,,,,,,,OL7738592M,20921,0,,,,,1,,1,90220826,pdf,8D2B3609E2987E353CB2C9DE48592632,,,Y. dl_avaxhome 20921  _=0521376408.PDF,0,2000-01-01 01:00:00,2016-04-03 02:51:08,261000/8d2b3609e2987e353cb2c9de48592632-d.jpg,,
19282419,"Chemical Reactor Design, Optimization, and Scaleup",,,,E. Bruce Nauman,2008,2,Wiley-AIChE,,643,0,English,296,avaxhome.ws,,"0470105259,9780470105252,9780470282069",,,,,660/.2832,TP157 .N393 2008,,,OL10279389M,20937,0,,,,,,1,1,3035799,pdf,92F8A93A2298E6A5413346EE314C1FC0,,,Y. dl_avaxhome 20937  _=0470105259.pdf,0,2000-01-01 01:00:00,2016-04-03 02:51:08,261000/92f8a93a2298e6a5413346ee314c1fc0-d.jpg,,
19282420,Trading Secrets of the Inner Circle,,,,Andrew Goodwin,1997,,Traders Press,,96,0,English,305,avaxhome.ws,,"9780934380409,0934380406",,,,,,,,,,20941,0,,,,,,,1,6355713,pdf,934A27E5113FC0E8BDB328A4F45DC633,,,Y. dl_avaxhome 20941  _=TradingSecrets.pdf,0,2000-01-01 01:00:00,2016-04-03 02:51:08,261000/934a27e5113fc0e8bdb328a4f45dc633-d.jpg,,
19282421,Computational Flow Modeling for Chemical Reactor Engineering,,Process Systems Engineering 5,,Vivek V. Ranade (Eds.),2002,1st,Academic Press,,3-452,0,English,120,avaxhome.ws,,"9780125769600,0125769601",1874-5970,,,,,,,,OL18166210M,20950,0,,,,,,1,1,9708114,pdf,1CDB39804119BA931B10F631095ACFFD,,,Y. dl_avaxhome 20950  _=academic.press_-_computational.flow.modeling.for.chemical.reactor.engineering.pdf,0,2000-01-01 01:00:00,2016-04-03 02:51:08,261000/1cdb39804119ba931b10f631095acffd-d.jpg,,
19282422,Paper and Paperboard Packaging Technology,,,,Mark J. Kirwan,2005,,Wiley-Blackwell,,453,0,English,210,avaxhome.ws,,"1405125039,9781405125031",,,,,676/.3,TS198.3.P3 P37 2005,,,OL3395336M,20969,0,,,,,,,1,4380408,pdf,CE3369A1C7BE953025C1CDB82D5DA352,,,Y. dl_avaxhome 20969  _=PaanPaPaTewed1405125039.pdf,0,2000-01-01 01:00:00,2016-04-03 02:51:08,261000/ce3369a1c7be953025c1cdb82d5da352-d.jpg,,
19282423,The Modern Bodyguard,,,,,,,,,352,0,English,,avaxhome.ws,,"9780953763856,0953763854",,,,,,,,,,20973,0,,,,,,1,1,6374712,pdf,6675D2BE3E3A351E0E5BA96EB32A0FA4,,,Y. dl_avaxhome 20973  _=The_Modern_Bodyguard.pdf,0,2000-01-01 01:00:00,2016-04-03 02:51:08,261000/6675d2be3e3a351e0e5ba96eb32a0fa4-d.jpg,,
19282424,"Improving the Economy, Efficiency, and Effectiveness of Not-for-Profits: Conducting Operational Reviews",,,,Rob Reider,2001,1,Wiley,,342,0,English,,avaxhome.ws,,"9780471395737,0471395730",,,,,,,,,OL7616550M,20976,0,,,,,,1,1,10108128,pdf,0D9DB1E2E33AE19D22839085D130CEA8,,,Y. dl_avaxhome 20976  _=Improving_20the_20Economy_20Efficiency_20and_20Effectiveness.pdf,0,2000-01-01 01:00:00,2016-04-03 02:51:08,261000/0d9db1e2e33ae19d22839085d130cea8-d.jpg,,
19282425,Linux+ Study Guide: Exam XKO 001,,,,Roderick W. Smith,2001,,Sybex Inc,,768,0,English,85,avaxhome.ws,,"9780782129397,0782129390",,,,,,,,,OL8096424M,20982,0,,,,,,,,4177948,chm,20758BBD1B29CD01F18D785909744424,,,Y. dl_avaxhome 20982  _=Security+_Study_Guide_Exam_SY0-101.CHM,0,2000-01-01 01:00:00,2016-04-03 02:51:08,261000/20758bbd1b29cd01f18d785909744424-d.jpg,,
19282426,QuickBooks 2007 QuickSteps,,,,Cindy Fox,2007,1,McGraw-Hill Osborne Media,,242,0,English,,avaxhome.ws,,"9780071487672,0071487670",,,,,657/.9042/0285536,HF5679 .F69 2007,10.1036/0071487670,,OL23109638M,20989,0,,,,,,1,1,14602229,pdf,8D0784C0C1FDE0163979A804E671E025,,,Y. dl_avaxhome 20989  _=QuickBooks_202007_20QuickSteps.pdf,0,2000-01-01 01:00:00,2016-04-03 02:51:08,261000/8d0784c0c1fde0163979a804e671e025-d.jpg,,
19282427,Building Financial Models,,,,John Tjia,2003,1,McGraw-Hill,,353,0,English,305,avaxhome.ws,,"9780071442824,9780071402101,0071402101",,,,,,,,,OL17114163M,20992,0,,,,,1,,0,4595566,pdf,AD066D040403669A42BE37E1AE57BAF6,,,Y. dl_avaxhome 20992  _=Building Financial Models A Guide To Creating And Interpreting Financial Statements.pdf,0,2000-01-01 01:00:00,2016-04-03 02:51:08,261000/ad066d040403669a42be37e1ae57baf6-d.jpg,,
19282428,Way to Go!: Finding Your Way with a Compass,,Reader's Digest Explorer Guides,,"Sharon Sharth, David Wenzel",2000,Bk&Acces,Reader's Digest,,49,0,English,,avaxhome.ws,,"9781575844275,1575844273",,,,,,,,,OL12236670M,20993,0,,,,,,1,1,7030758,pdf,01F1B85F6BA6FE6E62713CE0BD80150B,,,Y. dl_avaxhome 20993  _=Finding_20Way_20with_20Compas.pdf,0,2000-01-01 01:00:00,2016-04-03 02:51:08,261000/01f1b85f6ba6fe6e62713ce0bd80150b-d.jpg,,
19282429,Holiday and Travel Security Handbook,,,,Des Conway,2007,,How To Books,,256,0,English,,avaxhome.ws,,"9781845280994,1845280997",,,,,,,,,OL11911716M,20996,0,,,,,,1,1,12947105,pdf,6487F149FB68357C0F931216D69361ED,,,Y. dl_avaxhome 20996  _=Holiday_20and_20Travel_20Security_20Handbook.pdf,0,2000-01-01 01:00:00,2016-04-03 02:51:08,261000/6487f149fb68357c0f931216d69361ed-d.jpg,,
19282430,Risk Management and Capital Adequacy,,,,Reto Gallati,2003,1,McGraw-Hill,,576,0,English,6,avaxhome.ws,,"9780071407632,0071407634",,,,,658.155,HD61 .G35 2003,10.1036/0071425586,,OL3707852M,20997,0,,,,,,,1,8026138,pdf,0AB2C3E5F17BCF0E03345C0372D732E3,,,Y. dl_avaxhome 20997  _=Risk Management and Capital Adequacy.pdf,0,2000-01-01 01:00:00,2016-04-03 02:51:08,261000/0ab2c3e5f17bcf0e03345c0372d732e3-d.jpg,,
19282431,"Out in Psychology: Lesbian, Gay, Bisexual, Trans and Queer Perspectives",,,,"Victoria Clarke, Elizabeth Peel",2007,1,Wiley,,496,0,English,198,avaxhome.ws,,"9780470012871,0470012870",,,,,,,,,OL17227609M,21000,0,,,,,,,1,14419938,pdf,97C36FFD26FE96246A215994526423B5,,,Y. dl_avaxhome 21000  _=OutPsychol.pdf,0,2000-01-01 01:00:00,2016-04-03 02:51:08,261000/97c36ffd26fe96246a215994526423b5-d.jpg,,
19282432,Mexico,,Modern World Nations,,Charles F. Gritzner,2005,Updated,Chelsea House Publications,,135,0,English,314,avaxhome.ws,,"9780791086537,0791086534",,,,,972,F1208.5 .G75 2005,,,OL3421081M,21002,0,,,,,,,1,13678056,pdf,9BBBBEDEB319A850BCCBB23BF523B916,,,Y. dl_avaxhome 21002  _=Mex.pdf,0,2000-01-01 01:00:00,2016-04-03 02:51:08,261000/9bbbbedeb319a850bccbb23bf523b916-d.jpg,,
19282433,The Personal Finance Calculator : How to Calculate the Most Important Financial Decisions in Your Life,,,,Esme Faerber,2003,1,McGraw-Hill,,305,0,English,183,avaxhome.ws,,"9780071393904,0071393900",,,,,,,10.1036/0071429069,,OL7299277M,21015,0,,,,,,,1,16505258,pdf,E8D964DB07BE0D4B05395575DDAD5582,,,Y. dl_avaxhome 21015  _=The Personal Finance Calculator - How to Calculate the Most Important Financial Decisions in Your Life.pdf,0,2000-01-01 01:00:00,2016-04-03 02:51:08,261000/e8d964db07be0d4b05395575ddad5582-d.jpg,,
19282434,Systems Analysis and Design (,,,,"Donald Yeates, Tony Wakefield",2004,2,Prentice Hall,,518,0,English,117,avaxhome.ws,,"9780273655367,0273655361",,,,,,,,,OL9575331M,21023,0,,,,,,,1,9318076,pdf,1504200243F038B4C057878FD321B579,,,Y. dl_avaxhome 21023  _=Sy.Ana.pdf,0,2000-01-01 01:00:00,2016-04-03 02:51:08,261000/1504200243f038b4c057878fd321b579-d.jpg,,
19282435,"Neoplasms of the Colon, Rectum, and Anus, ",,,,"Philip H. Gordon, Santhat Nivatvongs",2007,2,Informa Healthcare,,412,0,English,147,avaxhome.ws,,"0824729595,9780824729592",,,,,616.99/4347,RC280.C6 G67 2007,,,OL21896130M,21028,0,,,,,,,1,16740431,pdf,95B74224C815F36324A1C77A54A827F0,,,Y. dl_avaxhome 21028  _=NeoplasmCol.pdf,0,2000-01-01 01:00:00,2016-04-03 02:51:08,261000/95b74224c815f36324a1c77a54a827f0-d.jpg,,
19282436,Tour De France For Dummies,,,,"Phil Liggett, James Raia, Sammarye Lewis",2005,1,For Dummies,,293,0,English,183,avaxhome.ws,,"9780764584497,0764584499",,,,,,,,,OL8051827M,21040,0,,,,,,,1,12322601,pdf,B231243DC5A24713077E9752211221C3,,,Y. dl_avaxhome 21040  _=Tou.pdf,0,2000-01-01 01:00:00,2016-04-03 02:51:08,261000/b231243dc5a24713077e9752211221c3-d.jpg,,
19282437,Probably Not: Future Prediction Using Probability and Statistical Inference,,,,Lawrence N. Dworsky,2008,,Wiley-Interscience,,328,0,English,119,avaxhome.ws,,"9780470184011,0470184019",,,,,519.5/4,QA279.2 .D96 2008,,,OL10294546M,21041,0,,,,,,1,1,1776633,pdf,B43A11D52693667EB2992DAE8C394F96,,,Y. dl_avaxhome 21041  _=ProbabNot.pdf,0,2000-01-01 01:00:00,2016-04-03 02:51:08,261000/b43a11d52693667eb2992dae8c394f96-d.jpg,,
19282438,Foundations of Combinatorics with Applications,,,,"Edward A. Bender, S. Gill Williamson",2006,,Dover Publications,,480,0,English,126,avaxhome.ws,,"9780486446035,0486446034",,,,,511/.6,QA164 .B464 2006,,,OL3428996M,21042,0,,,,,,,,4102106,rar,4D30341011B8ABEDCCEC666F4AC6374B,,,21042 =FoCombin.rar,0,2000-01-01 01:00:00,2016-04-03 02:51:08,261000/4d30341011b8abedccec666f4ac6374b-d.jpg,,
19282439,Writers United: The WUFC Story. A Swedish Graffiti Crew,,,,"Malcolm Jacobson, Martha Cooper",2005,,Dokument Forlag,,168,0,English,,avaxhome.ws,,"9789197398138,9197398136",,,,,751.730922485,,,,OL20193921M,21050,0,,,,,,,0,41684853,pdf,DDCCC2AB58694DFE80F9F5F570BE5CFF,,,Y. dl_avaxhome 21050  _=Writers.United.2005.pdf,0,2000-01-01 01:00:00,2016-04-03 02:51:08,261000/ddccc2ab58694dfe80f9f5f570be5cff-d.jpg,,
19282440,Street Logos,,,,Tristan Manco,2004,,Thames & Hudson,,132,0,English,41,avaxhome.ws,,"0500284695,9780500284698",,,,,751.7/3,NC1002.L63 M36 2004,,,OL22586192M,21061,0,,,,,1,1,0,46466550,pdf,6C978AAB3E1AF7E246252ECC762921B5,,,Y. dl_avaxhome 21061  _=Street_Logos_150dpi.pdf,0,2000-01-01 01:00:00,2016-04-03 02:51:08,261000/6c978aab3e1af7e246252ecc762921b5-d.jpg,,
19282441,Lightness,,,,Adriaan Beukers,2005,4th,010 publishers,,196,0,English,210,avaxhome.ws,,"9789064505607,9064505608",,,,,,,,,OL9109031M,21076,0,,,,,,,0,21844604,pdf,EE4FE720E91A3E5BFBA32CE8FAAB3D83,,,Y. dl_avaxhome 21076  _=cBML479VZsEC.pdf,0,2000-01-01 01:00:00,2016-04-03 02:51:08,261000/ee4fe720e91a3e5bfba32ce8faab3d83-d.jpg,,
19282442,Beading with Brick Stitch,,Beadwork How-To,,Diane Fitzgerald,2001,,Interweave Press,,128,0,English,41,avaxhome.ws,,"9781883010720,1883010721",,,,,,,,,OL8684779M,21078,0,,,,,,,,27396409,rar,73E3DD77650A4E08FF321A74636B626C,,,21078 =BeadingBrick.rar,0,2000-01-01 01:00:00,2016-04-03 02:51:08,261000/73e3dd77650a4e08ff321a74636b626c-d.jpg,,
19282443,The New Beadweaving: Great Projects with Innovative Materials,,,,Ann Benson,2005,,Sterling/Chapelle,,128,0,English,41,avaxhome.ws,,"9781402727818,140272781X",,,,,,,,,OL8393973M,21080,0,,,,,,,,7972830,rar,4EA79375EF2FBC1825952FA1BAAA6CF4,,,21080 =Beadwe.rar,0,2000-01-01 01:00:00,2016-04-03 02:51:08,261000/4ea79375ef2fbc1825952fa1baaa6cf4-d.jpg,,
19282444,More Self-Working Card Tricks: 88 Foolproof Card Miracles for the Amateur Magician,,,,Karl Fulves,1984,,Dover Publications,,145,0,English,183,,,"0486245802,9780486245805",,,,,793.8/5,GV1549 .F83 1984,,,OL3165230M,21096,300,,,,0,1,,1,1059272,djvu,B10BC0134EE8CC4D802B7FBD238B06EA,,,"Fulves K. More Self-Working Card Tricks.. 88 Foolproof Card Miracles for the Amateur Magician (Dover, 1984)(ISBN 9780486245805)(T)(145s).djvu",0,2000-01-01 01:00:00,2016-04-03 02:51:08,261000/b10bc0134ee8cc4d802b7fbd238b06ea-d.jpg,,
19282445,Hormone Deception,,,,"Lindsey Berkson, D. Lindsey Berkson, John R. Lee",2000,,Contemporary Books,,464,0,English,180,avaxhome.ws,,"9780809225385,0809225387",,,,,618.1,RA1224.2 .B47 2000,10.1036/0071391975,,OL21170962M,21103,0,,,,,,,1,3527750,pdf,D8CEDFED9F5BB2D58689B976A6719D16,,,Y. dl_avaxhome 21103  _=0809225387.pdf,0,2000-01-01 01:00:00,2016-04-03 02:51:08,261000/d8cedfed9f5bb2d58689b976a6719d16-d.jpg,,
19282446,Alternate Energy: Assessment and Implementation Reference Book,,,,James J. Winebrake,2003,,Fairmont Press,,257,0,English,,avaxhome.ws,,"9780881734379,0881734373",,,,,,,,,OL9699977M,21106,0,,,,,,,1,3776442,pdf,8FA10C169C2714ED2871DBFEEBE7BFF4,,,Y. dl_avaxhome 21106  _=AlteEner.pdf,0,2000-01-01 01:00:00,2016-04-03 02:51:08,261000/8fa10c169c2714ed2871dbfeebe7bff4-g.jpg,,
19282447,Renaissance and Reformations: An Introduction to Early Modern English Literature,,Blackwell Introductions to Literature,,Michael Hattaway,2007,,Wiley-Blackwell,,264,0,English,314,avaxhome.ws,,"9781405100458,1405100451",,,,,820.9/003,PR421 .H27 2005,,,OL3395129M,21108,0,,,,,,1,1,1657899,pdf,59F84CE18FA3D3454E9BEB36D1B69DFB,,,Y. dl_avaxhome 21108  _=RenaisRef.pdf,0,2000-01-01 01:00:00,2016-04-03 02:51:08,261000/59f84ce18fa3d3454e9beb36d1b69dfb-d.jpg,,
19282448,Ancient Greek Democracy: Readings and Sources,,Interpreting Ancient History,,Eric W. Robinson,2004,illustrated edition,Wiley-Blackwell,,342,0,English,64,avaxhome.ws,,"0631233938,9780631233930,9780470752197",,,,,320.938/5/09014,JC75.D36 A43 2004,,,OL18889074M,21115,0,,,,,,1,1,24622374,pdf,17E5D38CD971954410A7F6F5DA22DE3F,,,Y. dl_avaxhome 21115  _=AnGreekDem.pdf,0,2000-01-01 01:00:00,2016-04-03 02:51:08,261000/17e5d38cd971954410a7f6f5da22de3f-d.jpg,,
19282449,The Dark Tower Boxed Set,Books 1-4,,,Stephen King,2003,,Signet,,1338,0,English,57,avaxhome.ws,,"9780451211248,0451211243",,,,,,,,,OL7574528M,21122,0,,,,,,1,1,9979702,pdf,106F0B6CE611DB4DFB65E907298C7CF8,,,Y. dl_avaxhome 21122  _=Stephen_King_-_The_Dark_Tower_Books_1-5.pdf,0,2000-01-01 01:00:00,2016-04-03 02:51:08,261000/106f0b6ce611db4dfb65e907298c7cf8-d.jpg,,
19282450,VW Kubelwagen Schwimmwagen,,Wydawnictwo Militaria 076,,Robert Sawicki,1999,,Wydawnictwo Militaria,,68,0,German,64,avaxhome.ws,,"9788372190284,8372190283",,,,,,,,,,21124,0,,,,,,1,0,36295474,pdf,1240742ABABC3FA8D6B5152706D94C66,,,21124 =Wydawnictwo_Militaria__076__-_VW_Kubelwagen_Schwimmwagen.pdf,0,2000-01-01 01:00:00,2016-04-03 02:51:08,261000/1240742ababc3fa8d6b5152706d94c66-g.jpg,,
19282451,The Most Dreadful Visitation: Male Madness in Victorian Fiction,,Liverpool University Press - Liverpool English Texts & Studies,,Valerie Pedlar,2007,annotated edition,Liverpool University Press,,193,0,English,110,avaxhome.ws,,"9780853238393,0853238391",,,,,,,,,OL11607236M,21138,0,,,,,,1,1,3706335,pdf,8D7BE21DE6C8D78A275DF85CFFB73B89,,,Y. dl_avaxhome 21138  _=0853238391_Most_Dreadful.pdf,0,2000-01-01 01:00:00,2016-04-03 02:51:08,261000/8d7be21de6c8d78a275df85cffb73b89-d.jpg,,
19282452,A Village Stradivarius,,Dodo Press,,Kate Douglas Wiggin,2007,,Dodo Press,,48,0,English,110,avaxhome.ws,,"9781406577808,1406577804",,,,,,,,,OL11678668M,21140,0,,,,,,,,204083,lit,81CBCD7F3874177A6527FD40D692AB94,,,Y. dl_avaxhome 21140  _=Kate Douglas Wiggin - A Village Stradivarius 1406577804.lit,0,2000-01-01 01:00:00,2016-04-03 02:51:08,261000/81cbcd7f3874177a6527fd40d692ab94-d.jpg,,
19282453,The Development of Arithmetic Concepts and Skills: Constructive Adaptive Expertise,,Studies in Mathematical Thinking and Learning Series,,"Arthur J. Baroody, Ann Dowker",2003,illustrated edition,Routledge,,516,0,English,113,avaxhome.ws,,"080583155X,9780805831559,9781410607218",,,,,,,,,OL17101484M,21142,0,,,,,1,1,1,3910381,pdf,A0484F79049842C3E76F35E4E8B3C13B,,,Y. dl_avaxhome 21142  _=Development_of_Arithmetic_Skills.pdf,0,2000-01-01 01:00:00,2016-04-03 02:51:08,261000/a0484f79049842c3e76f35e4e8b3c13b-d.jpg,,
19282454,The Reassess Your Chess Workbook,,,,Jeremy Silman,2001,1st,Siles Press,,221,0,English,46,avaxhome.ws,,"9781890085056,1890085057",,,,,794.1,GV1449.5 .S56 2001,,,OL3941983M,21156,0,,,,,,,0,18303683,pdf,4E9682DDCCF04DCAC5DB797F5632D65F,,,Y. dl_avaxhome 21156  _=ReasChesWo.pdf,0,2000-01-01 01:00:00,2016-04-03 02:51:08,261000/4e9682ddccf04dcac5db797f5632d65f-d.jpg,,
19282455,"The Dictionary of Mythology: An A-Z of Themes, Legends and Heroes",,,,J. A. Coleman,2007,,CAPELLA,,1136,0,English,322,avaxhome.ws,,"9781841934242,1841934240",,,,,,,,,,21160,0,,,,,,1,1,12593446,pdf,A8220B57B3A473BAB684736E2FAA9F9C,,,Y. dl_avaxhome 21160  _=Dictionary_of_Mythology.pdf,0,2000-01-01 01:00:00,2016-04-03 02:51:08,261000/a8220b57b3a473bab684736e2faa9f9c-d.jpg,,
19282456,Nero,,Blackwell Ancient Lives,,Jurgen Malitz,2005,,Wiley-Blackwell,,186,0,English,64,avaxhome.ws,,"1405121777,9781405121774,9781405144742,1405121785,9781405121781,9781405144759",,,,,,,,,OL22630222M,21161,0,,,,,1,1,1,4808334,pdf,7FC24C0F78327BBB729E10C13B5F6BE4,,,Y. dl_avaxhome 21161  _=MalitzNero.pdf,0,2000-01-01 01:00:00,2016-04-03 02:51:08,261000/7fc24c0f78327bbb729e10c13b5f6be4-d.jpg,,
19282457,200 Perplexing Chess Puzzles,,,,Martin Greif,1997,,Sterling Pub Co Inc,,72,0,English,46,avaxhome.ws,,"9780806997278,0806997273",,,,,794.1,GV1451 .A168 1997,,,OL672058M,21166,0,,,,,,1,0,7123609,pdf,276FF61AB3E50FFEAE9FDAE8C6EBC186,,,Y. dl_avaxhome 21166  _=ChessPuzz.pdf,0,2000-01-01 01:00:00,2016-04-03 02:51:08,261000/276ff61ab3e50ffeae9fdae8c6ebc186-d.jpg,,
19282458,Vocabulary Puzzles: The Fun Way to Ace Standardized Tests,,,,"John T. Molloy, Rich Norris",2007,,Wiley,,314,0,English,322,avaxhome.ws,,"0470135107,9780470135105,9780470170991",,,,,,,,,OL24252872M,21169,0,,,,,,1,1,2148677,pdf,5F01CE3B418C8B24DE6AFA99865CAACD,,,Y. dl_avaxhome 21169  _=VocabPuzzl.pdf,0,2000-01-01 01:00:00,2016-04-03 02:51:08,261000/5f01ce3b418c8b24de6afa99865caacd-d.jpg,,
19282459,Bridge Engineering: Construction and Maintenance,,Principles and Applications in Engineering,,"W.F. Chen, Lian Duan",2003,1,CRC Press,,256,0,English,210,avaxhome.ws,,"9780849316845,0849316847",,,,,624/.2,TG300 .B752 2003,,,OL3566209M,21173,0,,,,,,,,12983146,rar,D9E9AE02E4B69C9A66C270452A3981F1,,,21173 =Bridge_Engineering_Construction_and_Maintenance_0849316847.rar,0,2000-01-01 01:00:00,2016-04-03 02:51:08,261000/d9e9ae02e4b69c9a66c270452a3981f1-d.jpg,,
19282460,Advanced Unsaturated Soil Mechanics and Engineering,,,,"Charles W. W. Ng, Bruce Menzies",2007,,Spon Press,,710,0,English,210,avaxhome.ws,,"9780415436793,0415436796",,,,,624.1/5136,TA710 .N475 2007,,,OL10206550M,21178,0,,,,,,,1,8157502,pdf,D9A2A99790FA26D3A249EBE7045D3F9F,,,Y. dl_avaxhome 21178  _=rr35.pdf,0,2000-01-01 01:00:00,2016-04-03 02:51:08,261000/d9a2a99790fa26d3a249ebe7045d3f9f-d.jpg,,
19282461,15 Minute Everyday Pilates (Book and DVD,,Book and DVD,,Alycea Ungaro,2007,Pap/DVD,DK ADULT,,130,0,English,164,avaxhome.ws,,"9780756633578,0756633575,1405326581,9781405326582",,,,,,,,,OL10855592M,21186,0,,,,,,,1,8872033,pdf,455F74A50CE5483B2DBCDF286CBA2623,,,Y. dl_avaxhome 21186  _=rr27.pdf,0,2000-01-01 01:00:00,2016-04-03 02:51:08,261000/455f74a50ce5483b2dbcdf286cba2623-d.jpg,,
19282462,Integrated Pest Management for Crops and Pastures,,Landlinks Press,,"Paul A. Horne, Jessica Page",2008,,CSIRO Publishing,,134,0,English,6,avaxhome.ws,,"0643092579,9780643092570,9780643095625",,,,,,,,,OL23158822M,21188,0,,,,,,,1,5413696,pdf,8FA2E62DDBBEF61972E0131A4DC851EE,,,Y. dl_avaxhome 21188  _=rr22.pdf,0,2000-01-01 01:00:00,2016-04-03 02:51:08,261000/8fa2e62ddbbef61972e0131a4dc851ee-d.jpg,,
19282463,Structural Design Optimization Considering Uncertainties,Vol.1,Structures and Infrastructures,,"Yannis Tsompanakis, Nikos D. Lagaros, Manolis Papadrakakis",2008,1,Taylor & Francis,,669,0,English,136,avaxhome.ws,,"9780415452601,0415452600",,,,,624.1/7713,TA658.8 .S73 2008,,,OL23604921M,21203,0,,,,,,,1,10762980,pdf,79FCD2507B7FC64BE36077505483D8AD,,,Y. dl_avaxhome 21203  _=rr08.pdf,0,2000-01-01 01:00:00,2016-04-03 02:51:08,261000/79fcd2507b7fc64be36077505483d8ad-d.jpg,,
19282464,Modeling and Design Techniques for RF Power Amplifiers,,,,"Arvind Raghavan, Nuttapong Srirattana, Joy Laskar",2008,,Wiley-IEEE Press,,220,0,English,210,avaxhome.ws,,"9780471717461,0471717460",,,,,,,,,OL10334889M,21204,0,,,,,,1,1,9111809,pdf,AEB01AC4E30AA281FBF067E3031B0A65,,,Y. dl_avaxhome 21204  _=rr07.pdf,0,2000-01-01 01:00:00,2016-04-03 02:51:08,261000/aeb01ac4e30aa281fbf067e3031b0a65-d.jpg,,
19282465,"Technology, Outsourcing & Transforming HR",,Advanced HR Practitioner,,"Graeme Martin, Martin Reddington, Heather Alexander",2008,,Butterworth-Heinemann,,493,0,English,1,avaxhome.ws,,"0750686456,9780750686457,9780080560984",,,,,,,,,OL10809658M,21208,0,,,,,,,1,6150155,pdf,C7F3A9FCE86E362C1E23395D58CFB456,,,Y. dl_avaxhome 21208  _=rr04.pdf,0,2000-01-01 01:00:00,2016-04-03 02:51:08,261000/c7f3a9fce86e362c1e23395d58cfb456-d.jpg,,
19282466,Computational Algebra,,Lecture Notes in Pure and Applied Mathematics,,"Klaus G. Fischer, Philippe Loustaunau, Jay Shapiro, Edward Green, David Farkas",1993,1,CRC Press,,252,0,English,120,avaxhome.ws,,"9780824790707,0824790707",,,,,512/.00285,QA155.7.E4 C64 1994,,,OL1423489M,21252,0,,,,,,,0,7287438,djvu,7CE77AC071194C7BD1D84E2E3922AEAA,9255a7a321643712cef619fdaa5b8609,no,Y. dl_avaxhome 21252  _=fischer---computational_algebra.djvu,0,2000-01-01 01:00:00,2016-04-03 02:51:08,261000/7ce77ac071194c7bd1d84e2e3922aeaa-d.jpg,,
19282467,Algebraic Geometry,,Lecture Notes in Pure and Applied Mathematics,,Peter E. Newstead,1998,1,CRC Press,,391,0,English,121,avaxhome.ws,,"9780824702342,0824702344",,,,,516.3/5,QA564 .A375 1998,,,OL365291M,21258,0,,,,,,,0,12051077,djvu,9F46F2458628B662E6DD1B114C7F0E8D,824867207aab8b70da0885349d0b310f,no,Y. dl_avaxhome 21258  _=newstead---algebraic_geometry.djvu,0,2000-01-01 01:00:00,2016-04-03 02:51:08,261000/9f46f2458628b662e6dd1b114c7f0e8d-d.jpg,,
19282468,Fourier Analysis,,Lecture Notes in Pure and Applied Mathematics,,"William O. Bray, P. Milojevic, C.V. Stanojevic",1994,1,CRC Press,,444,0,English,117,avaxhome.ws,,"9780824792084,0824792084",,,,,515/.2433,QA403.5 .F67 1994,,,OL1078523M,21265,0,,,,,,,0,11800791,djvu,37EA4D3A7923ADBD890348926FA1B0F5,4e5e78a8aabb3505bb3276eb0352e9f5,no,Y. dl_avaxhome 21265  _=bray-milojevic-stanojevic---fourier_analysis.djvu,0,2000-01-01 01:00:00,2016-04-03 02:51:08,261000/37ea4d3a7923adbd890348926fa1b0f5-d.jpg,,
19282469,The Theory of Money and Credit,,Lib Works Ludwig Von Mises PB,,"Ludwig von Mises, H.E. Batson",1981,,Liberty Fund Inc.,,302,0,English,1,avaxhome.ws,,"9780913966716,0913966711",,,,,332.4/01,HG221 .V652 1980,,,OL4421373M,21267,0,,,,,,1,1,1542308,pdf,92E67CA99E5796F2C48AB937D540FD59,,,Y. dl_avaxhome 21267  _=thetheoryofmoneyandcredit.pdf,0,2000-01-01 01:00:00,2016-04-03 02:51:08,261000/92e67ca99e5796f2c48ab937d540fd59-d.jpg,,
19282470,Moduli of Vector Bundles,,Lecture Notes in Pure and Applied Mathematics,,Masaki Maruyama,1996,1,CRC Press,,298,0,English,113,avaxhome.ws,,"9780824797386,0824797388",,,,,516.3/5,QA612.63 .M63 1996,,,OL964395M,21271,0,,,,,,,0,10256848,djvu,9C7FC4ADABF56F5D942F687F30AA2205,03f3f059034719a31aef0de712a2638b,no,Y. dl_avaxhome 21271  _=Maruyama---moduli_of_vector_bundles.djvu,0,2000-01-01 01:00:00,2016-04-03 02:51:08,261000/9c7fc4adabf56f5d942f687f30aa2205-d.jpg,,
19282471,The Puzzle Instinct: The Meaning of Puzzles in Human Life,,,,Marcel Danesi,2002,,Indiana University Press,,282,0,English,198,avaxhome.ws,,"9780253340948,0253340942",,,,,,,,,OL9567729M,21293,0,,,,,,,0,19136342,pdf,8BF9648631718C184225C50137D62825,,,Y. dl_avaxhome 21293  _=PuzzlIns.pdf,0,2000-01-01 01:00:00,2016-04-03 02:51:08,261000/8bf9648631718c184225c50137d62825-d.jpg,,
19282472,Risk Transfer: Derivatives in Theory and Practice,,Wiley Finance,,Christopher L. Culp,2004,1,Wiley,,481,0,English,305,avaxhome.ws,,"9780471464983,0471464988",,,,,,,,,OL7617653M,21312,0,,,,,,,1,5257991,pdf,D20FAD9F29F35E4FB3520FCB2CB46682,,,Y. dl_avaxhome 21312  _=RiTra.pdf,0,2000-01-01 01:00:00,2016-04-03 02:51:08,261000/d20fad9f29f35e4fb3520fcb2cb46682-d.jpg,,
19282473,Nanoparticle Engineering for Chemical-Mechanical Planarization: Fabrication of Next-Generation Nanodevices,,,,"Ungyu Paik, Jea-Gun Park",2009,,CRC Press,,196,0,English,296,avaxhome.ws,,"1420059114,9781420059113",,,,,621.3815/2,TK7874.84 .P35 2009,,,OL11816712M,21319,0,,,,,,1,1,11180141,pdf,E800654CF5D9CF3B9F4DA5A5E30076B5,,,Y. dl_avaxhome 21319  _=NanoparticleEngineering.pdf,0,2000-01-01 01:00:00,2016-04-03 02:51:08,261000/e800654cf5d9cf3b9f4da5a5e30076b5-d.jpg,,
19282474,Finite Element Analysis: Thermomechanics of Solids,,,,David W. Nicholson,2008,2,CRC Press,,480,0,English,264,avaxhome.ws,,"9781420050950,1420050958",,,,,620.1/121,TA418.58 .N53 2008,,,OL18586694M,21320,0,,,,,,,,3458182,rar,C1BD37973212E23BFA7913606D897740,,,21320 =FiniteElementAnalysis.rar,0,2000-01-01 01:00:00,2016-04-03 02:51:08,261000/c1bd37973212e23bfa7913606d897740-d.jpg,,
19282475,Equations of State And Pvt Analysis,,,,Tarek Ahmed,2007,,Gulf Publishing Company,,562,0,English,113,avaxhome.ws,,"1933762039,9781933762036",,,,,,,,,OL8815167M,21327,0,,,,,1,,1,12821157,pdf,1B3B8B1AF8B2CC96702913EBE118A2D8,,,Y. dl_avaxhome 21327  _=EqStatPvtAn.pdf,0,2000-01-01 01:00:00,2016-04-03 02:51:08,261000/1b3b8b1af8b2cc96702913ebe118a2d8-d.jpg,,
19282476,The Economics of Crime: An Introduction to Rational Crime Analysis,,,,Harold Winter,2008,1,Routledge,,142,0,English,305,avaxhome.ws,,"0415771730,9780415771733,9780203927465",,,,,,,,,OL10207798M,21343,0,,,,,1,1,1,1221163,pdf,4C1F1C94AEB9A116B9D99F7396DAFE89,,,Y. dl_avaxhome 21343  _=0415771730.Routledge.The.Economics.of.Crime.Winter.Jun.2008.pdf,0,2000-01-01 01:00:00,2016-04-03 02:51:08,261000/4c1f1c94aeb9a116b9d99f7396dafe89-d.jpg,,
19282477,Multimedia Data Mining: A Systematic Introduction to Concepts and Theory,,Chapman & Hall/CRC Data Mining and Knowledge Discovery Series,,"Zhongfei Zhang, Ruofei Zhang",2008,1,Chapman & Hall,,320,0,English,86,avaxhome.ws,,"9781584889663,1584889667",,,,,006.7,QA76.575 .Z53 2008,,,OL12313886M,21345,0,,,,,,,,5028524,rar,D5F59EB2A2DF3210DD5F3BDB194A493E,,,21345 =MultimediaDataMining.rar,0,2000-01-01 01:00:00,2016-04-03 02:51:08,261000/d5f59eb2a2df3210dd5f3bdb194a493e-d.jpg,,
19282478,New English File: MultiPACK A Upper-intermediate level,,,,"Clive Oxenden, Christina Latham-Koenig",2008,,Oxford University Press,,172,0,English,314,avaxhome.ws,,"9780194519298,0194519295",,,,,,,,,,21350,0,,,,,,,0,16616044,pdf,81B7CB59C7979EF442C6F22C92678464,,,Y. dl_avaxhome 21350  _=Upper-intermediate_Student_s_Book.pdf,0,2000-01-01 01:00:00,2016-04-03 02:51:08,261000/81b7cb59c7979ef442c6f22c92678464-d.jpg,,
19282479,Practical Guide to the Packaging of Electronics: Thermal and Mechanical Design and Analysis,,Dekker Mechanical Engineering,,Ali Jamnia,2008,2,CRC Press,,306,0,English,264,avaxhome.ws,,"9781420065312,1420065319",,,,,621.381/046,TK7870.15 .J36 2008,,,OL11816964M,21353,0,,,,,,1,1,5752423,pdf,024DF7F9CA72B7C0A4CFEC93CFF8913C,,,Y. dl_avaxhome 21353  _=1420065319.pdf,0,2000-01-01 01:00:00,2016-04-03 02:51:08,261000/024df7f9ca72b7c0a4cfec93cff8913c-d.jpg,,
19282480,Waffles,,Quick & Easy,,Kristiane Muller Urban,2007,,"Silverback Books, Inc.",,72,0,English,49,avaxhome.ws,,"1596372362,9781596372368",,,,,,,,,OL12441963M,21360,0,,,,,,,0,6632075,pdf,81689488BEC72B53C9885E6CE7CF1FA8,,,Y. dl_avaxhome 21360  _=1596372362.pdf,0,2000-01-01 01:00:00,2016-04-03 02:51:08,261000/81689488bec72b53c9885e6ce7cf1fa8-d.jpg,,
19282481,Kolymsky Heights: Simplified Edition,,Longman Fiction,,Lionel Davidson,1997,,Longman,,124,0,English,110,avaxhome.ws,,"9780582278479,0582278473",,,,,,,,,OL17381028M,21373,0,,,,,,,1,1968594,pdf,BA6D8A55792227213A5624641018700B,,,Y. dl_avaxhome 21373  _=Lionel_Davidson_-_Kolymsky_Heights__Longman_Fiction.pdf,0,2000-01-01 01:00:00,2016-04-03 02:51:08,261000/ba6d8a55792227213a5624641018700b-g.jpg,,
19282482,Deep Ecology and World Religions: New Essays on Sacred Grounds,,S U N Y Series in Radical Social and Political Theory,,"David Landis Barnhill, Roger S. Gottlieb, American Academy of Religion",2001,,State University of New York Press,,291,0,English,205,avaxhome.ws,,"9780791448830,0791448835",,,,,,,,,OL9896050M,21375,0,,,,,,,,12079046,rar,93538A0865957A107B6CCDDEF0E9A920,,,21375 =74.rar,0,2000-01-01 01:00:00,2016-04-03 02:51:08,261000/93538a0865957a107b6ccddef0e9a920-d.jpg,,
19282483,Treatise on Analysis,Volume V,,,Vyacheslav L. Girko,1977,1st,Academic Press,,257,0,French,113,avaxhome.ws,,"9780122155055,9780080873220,012215505X",,,,,,,,,OL10071348M,21376,0,,,,0,0,,1,11867350,pdf,A28294702D291706AD8FF28E0C988D43,,,Y. dl_avaxhome 21376  _=012215505x.pdf,0,2000-01-01 01:00:00,2016-04-03 02:51:08,261000/a28294702d291706ad8ff28e0c988d43-d.jpg,,
19282484,"Electric Power Distribution Reliability, ",,Power Engineering (Willis),,Richard E. Brown,2008,2,CRC Press,,504,0,English,210,avaxhome.ws,,"9780849375675,0849375673",,,,,,,,,OL23175648M,21377,0,,,,,,,,7197765,rar,1835B3ED0890AFF59EB16B64D4681D42,,,21377 =ElectricPowerDistribution.rar,0,2000-01-01 01:00:00,2016-04-03 02:51:08,261000/1835b3ed0890aff59eb16b64d4681d42-d.jpg,,
19282485,The Theory of the Properties of Metals and Alloys,,The International Series of Monographs on Physics,,"Neville F. Mott, H. Jones",1945,,Dover Publications,,341,0,English,113,avaxhome.ws,,"9780486604565,048660456X",,,,,,,,,OL15055880M,21379,0,,,,,,,1,9159722,djvu,A2D4E9DB3625892F3D5C480750159ED7,,,Y. dl_avaxhome 21379  _=mott1.djvu,0,2000-01-01 01:00:00,2016-04-03 02:51:08,261000/a2d4e9db3625892f3d5c480750159ed7-d.jpg,,
19282486,Epilepsy and Sleep: Physiological and Clinical Relationships,,,,"Dudley S. Dinner, Hans O. Luders",2001,1st,Academic Press,,295,0,English,161,avaxhome.ws,,"9780122167706,0122167708",,,,,,,,,OL7326515M,21392,0,,,,,,,1,17421609,pdf,3AB61176CA03CD981887EEC6981CBF93,,,Y. dl_avaxhome 21392  _=EpilepsSle.pdf,0,2000-01-01 01:00:00,2016-04-03 02:51:08,261000/3ab61176ca03cd981887eec6981cbf93-d.jpg,,
19282487,Musical Work: Reality or Invention?,,Liverpool University Press - Liverpool Music Symposium,,Michael Talbot,2000,,Liverpool University Press,,268,0,English,62,avaxhome.ws,,"9780853238256,0853238251",,,,,,,,,OL11607233M,21399,0,,,,,,,0,2510416,pdf,A5AB7372D2278B9348D9AE44E413A969,,,Y. dl_avaxhome 21399  _=MusicalWork.pdf,0,2000-01-01 01:00:00,2016-04-03 02:51:08,261000/a5ab7372d2278b9348d9ae44e413a969-d.jpg,,
19282488,Imperium Romanum: Politics and Administration,,,,Andrew Lintott,1993,illustrated edition,Routledge,,138,0,English,101,avaxhome.ws,,"0415093759,9780415093750",,,,,930/.0971237,DG241 .L56 1993,,,OL1722529M,21401,0,,,,,1,,0,26873307,pdf,79A1B3A132E42365D3DBA25DE6FD5549,,,Y. dl_avaxhome 21401  _=ImperiumRomanum.pdf,0,2000-01-01 01:00:00,2016-04-03 02:51:08,261000/79a1b3a132e42365d3dba25de6fd5549-d.jpg,,
19282489,"The Best of 2600, Collector's Edition: A Hacker Odyssey",,,,Emmanuel Goldstein,2009,Har/Cdr Co,Wiley,,913,0,English,77,avaxhome.ws,,"9780470458532,0470458534",,,,,,,,,,21408,0,,,,,,1,1,11704827,pdf,0F1EA53B758BCE9F6D5C65FCC05F1B0F,,,Y. dl_avaxhome 21408  _=Wiley.The.Best.of.2600.A.Hacker.Odyssey.Feb.2009.eBook-DDU.pdf,0,2000-01-01 01:00:00,2016-04-03 02:51:08,261000/0f1ea53b758bce9f6d5c65fcc05f1b0f-d.jpg,,
19282490,One Two Three . . . Infinity: Facts and Speculations of Science,,,,George Gamow,1988,1,Dover Publications,,368,0,English,181,avaxhome.ws,,"9780486256641,0486256642",,,,,500,Q162 .G23 1988,,,OL2042206M,21418,0,,,,,1,,1,31825071,pdf,9C23FAC201067EAF6B85AC54845A5AC6,,,Y. dl_avaxhome 21418  _=onetwothreeinfin000923mbp.pdf,0,2000-01-01 01:00:00,2016-04-03 02:51:08,261000/9c23fac201067eaf6b85ac54845a5ac6-d.gif,,
19282491,"Manual Therapy: NAGS, SNAGS, MWMS, etc.",,,,Brian R. Mulligan,2004,5th,OPTP,,150,0,English,147,avaxhome.ws,,"9780476011540,047601154X",,,,,,,,,OL10342467M,21444,0,,,,,,1,0,80216360,pdf,4466221B04E906F0941D7D2B663781BA,,,Y. dl_avaxhome 21444  _=MWM.pdf,0,2000-01-01 01:00:00,2016-04-03 02:51:08,261000/4466221b04e906f0941d7d2b663781ba-d.jpg,,
19282492,Resorts: Management and Operation,,,,Robert Christie Mill,2007,2,Wiley,,499,0,English,6,avaxhome.ws,,"047174722X,9780471747222,9780470139561",,,,,647.94068,TX911.3.M27 M538 2008,,,OL18337422M,21454,0,,,,,,,1,6321547,pdf,7449A4EDB629A27151B1FC48F40CC081,,,Y. dl_avaxhome 21454  _=hh38.pdf,0,2000-01-01 01:00:00,2016-04-03 02:51:08,261000/7449a4edb629a27151b1fc48f40cc081-d.jpg,,
19282493,Purchasing: Selection and Procurement for the Hospitality Industry,,,,"Andrew H. Feinstein, John M. Stefanelli",2007,7,Wiley,,802,0,English,1,avaxhome.ws,,"9780471730088,0471730084",,,,,647.95068/7,TX911.3.P8 F45 2008,,,OL17932910M,21457,0,,,,,,,1,13834466,pdf,58BE80812835DCC02C3CB9FA61DF5DC7,,,Y. dl_avaxhome 21457  _=hh35.pdf,0,2000-01-01 01:00:00,2016-04-03 02:51:08,261000/58be80812835dcc02c3cb9fa61df5dc7-d.jpg,,
19282494,Chromatic Monitoring of Complex Conditions,,Series in Sensors,,"Gordon Rees Jones, Anthony G. Deakin, Joseph W. Spencer",2008,,Taylor & Francis,,314,0,English,210,avaxhome.ws,,"9781584889885,1584889888",,,,,681/.25,QC793.3.Q35 C57 2008,,,OL12313895M,21473,0,,,,,,,1,18730150,pdf,3A9E7BE24087FBE99B855209BAA74EC4,,,Y. dl_avaxhome 21473  _=hh19.pdf,0,2000-01-01 01:00:00,2016-04-03 02:51:08,261000/3a9e7be24087fbe99b855209baa74ec4-d.jpg,,
19282495,Leaving America: The New Expatriate Generation,,,,John R. Wennersten,2007,,Praeger,,200,0,English,189,avaxhome.ws,,"9780313345067,0313345066",,,,,,,,,OL10420799M,21476,0,,,,,,1,1,1623363,pdf,D8D96046D6132C5B9644D1EA0B2B9D8C,,,Y. dl_avaxhome 21476  _=hh16.pdf,0,2000-01-01 01:00:00,2016-04-03 02:51:08,261000/d8d96046d6132c5b9644d1ea0b2b9d8c-d.jpg,,
19282496,Introduction to Global Politics,,,,"Richard Mansbach, Kirsten Rafferty",2007,annotated edition,Routledge,,873,0,English,189,avaxhome.ws,,"0415773830,9780415773836,9780203946114",,,,,327,JZ1242 .M36 2007,,,OL17848158M,21478,0,,,,1,0,1,1,20300174,pdf,133303AE58F3BE47771E26E136C6D472,,,Y. dl_avaxhome 21478  _=hh14.pdf,0,2000-01-01 01:00:00,2016-04-03 02:51:08,261000/133303ae58f3be47771e26e136c6d472-d.jpg,,
19282497,"Traumatic Stress: The Effects of Overwhelming Experience on Mind, Body, and Society",,,,"Bessel A. van der Kolk MD, Alexander C. McFarlane, Lars Weisaeth",1996,1,The Guilford Press,,611,0,English,198,avaxhome.ws,,"1572300884,9781572300880,9781593859503",,,,,616.85/21,RC552.P67 T758 1996,,,OL8733976M,21485,0,,,,,1,1,1,6067210,djvu,A7CEB6DA5E6FD24AAE4FF6A8FDD08E88,,,Y. dl_avaxhome 21485  _=hh06.djvu,0,2000-01-01 01:00:00,2016-04-03 02:51:08,261000/a7ceb6da5e6fd24aae4ff6a8fdd08e88-d.jpg,,
19282498,Culture and Everyday Life,,,,Andy Bennett,2005,,Sage Publications Ltd,,216,0,English,189,avaxhome.ws,,"9780761963905,0761963901",,,,,306.01,,,,OL22631654M,21486,0,,,,,,1,1,8351421,pdf,1F4915B334DAE3DB678381BB0F93A1A4,,,Y. dl_avaxhome 21486  _=hh05.pdf,0,2000-01-01 01:00:00,2016-04-03 02:51:08,261000/1f4915b334dae3db678381bb0f93a1a4-d.jpg,,
19282499,Encyclopedia of Italian Literary Studies,,,,"Gaetana Marrone, Paolo Puppa",2006,1,Routledge,,2258,0,English,188,avaxhome.ws,,"1579583903,9781579583903,9780203943540",,,,,,,,,OL17211237M,21487,0,,,,,1,,1,12264401,pdf,36290FF2CDCE3F73BCFB5ECB36E78B39,,,Y. dl_avaxhome 21487  _=hh04.pdf,0,2000-01-01 01:00:00,2016-04-03 02:51:08,261000/36290ff2cdce3f73bcfb5ecb36e78b39-d.jpg,,
19282500,Great Sex Guide,,,,Anne Hooper,1999,,Dorling Kindersley Publishers Ltd,,122,0,English,201,avaxhome.ws,,"9780751307047,0751307041",,,,,,,,,OL9472991M,21503,0,,,,,,1,0,27597166,pdf,247F896B8E6E88A6CFF19C9F076AADDC,,,Y. dl_avaxhome 21503  _=Great_Sex_Guide.pdf,0,2000-01-01 01:00:00,2016-04-03 02:51:08,261000/247f896b8e6e88a6cff19c9f076aaddc-d.jpg,,
19282501,The Scandinavian Defense,,,,Michael Melts,2001,,Russell Enterprises,,217,0,English,41,avaxhome.ws,,"9781888690118,1888690119",,,,,,,,,OL8711073M,21514,0,,,,,,1,0,14668149,pdf,D92DEAB54EAFD86AA39EFFF941E9FEBD,,,Y. dl_avaxhome 21514  _=1888690119.pdf,0,2000-01-01 01:00:00,2016-04-03 02:51:08,261000/d92deab54eafd86aa39efff941e9febd-d.jpg,,
19282502,Kama Sutra for 21st Century Lovers,,,,Anne Hooper,2007,1,DK ADULT,,362,0,English,201,avaxhome.ws,,"9780756631666,0756631661",,,,,,,,,OL7995777M,21520,0,,,,,,1,1,27401883,pdf,09D51CB45F3ECEFDEC3887CBB89F78F5,,,Y. dl_avaxhome 21520  _=Kama_Sutra_SEX_Positions_Complete_Guide_2nd_Eddition.pdf,0,2000-01-01 01:00:00,2016-04-03 02:51:08,261000/09d51cb45f3ecefdec3887cbb89f78f5-d.jpg,,
19282503,That Complex Whole: Culture And The Evolution Of Human Behavior,,,,Lee Cronk,1999,,Westview Press,,176,0,English,12,avaxhome.ws,,"9780813337050,0813337054",,,,,304.5,GN365.9 .C76 1999,,,OL39130M,21528,0,,,,,,,,25201655,rar,27DC39C5E7C15F4C65115E108EC25EFE,,,21528 =65.rar,0,2000-01-01 01:00:00,2016-04-03 02:51:08,261000/27dc39c5e7c15f4c65115e108ec25efe-d.jpg,,
19282504,Anne Hooper's Kama Sutra,,,,Anne Hooper,1998,1,DK ADULT,,123,0,English,41,avaxhome.ws,,"9781564586490,1564586499",,,,,306.7,HQ31 .H744 1994,,,OL1097233M,21537,0,,,,,,1,0,13449108,pdf,26A5D8EAEE428A3CF8A7F754C9C6F23D,,,Y. dl_avaxhome 21537  _=KaSu.pdf,0,2000-01-01 01:00:00,2016-04-03 02:51:08,261000/26a5d8eaee428a3cf8a7f754c9c6f23d-d.gif,,
19282505,Red Stars in the Sky: Soviet Air Force in World War Two,Volume 2,Neuvostoliiton Ilmavoimat Ii Maailmansodassa,,Carl Fredrik Geust,1981,,Tietoteos,,52,0,English,64,avaxhome.ws,,"9789519035598,9519035591",,,,,,,,,,21548,0,,,,,,,0,8682968,pdf,87E64851426820B1F0C6F5D3C665F5B1,,,Y. dl_avaxhome 21548  _=Red_Stars_2.pdf,0,2000-01-01 01:00:00,2016-04-03 02:51:08,261000/87e64851426820b1f0c6f5d3c665f5b1-g.jpg,,
19282506,Fashion as Photograph: Viewing and Reviewing Images of Fashion,,,,Eugenie Shinkle,2008,,I. B. Tauris,,257,0,English,63,avaxhome.ws,,"9781845115173,1845115171",,,,,778.9/974692,TR679 .F374 2008,,,OL11911326M,21549,0,,,,,,1,1,2756700,pdf,32A26B91F5B09BB6F2E2B4E58E9F2403,,,Y. dl_avaxhome 21549  _=1845115171_Fashion_As_Photograph.pdf,0,2000-01-01 01:00:00,2016-04-03 02:51:08,261000/32a26b91f5b09bb6f2e2b4e58e9f2403-d.jpg,,
19282507,Great Sex Tips,,,,"Anne Hooper, Lynne Brown",2002,,DK ADULT,,122,0,English,181,avaxhome.ws,,"9780789471437,0789471434",,,,,613.9/6,HQ31 .H7423 2001,,,OL3581205M,21577,0,,,,,,,0,30667855,pdf,2D300995CFC8014C81E8CCA402C2DD33,,,Y. dl_avaxhome 21577  _=Great_Sex_Tips.pdf,0,2000-01-01 01:00:00,2016-04-03 02:51:08,261000/2d300995cfc8014c81e8cca402c2dd33-d.jpg,,
19282508,"Advances in Ecological Research, Vol. 9",,,,A. MacFadyen (Ed.),1975,1st,Academic Press,,"iii-viii, 1-385",0,English,,avaxhome.ws,0,978-0-12-013909-5,0065-2504,,,,,,,,,21592,0,,,,,1,,1,19836731,pdf,090336B863401F420CD2F526BC9597D9,,,Y. dl_avaxhome 21592  _=57.pdf,0,2000-01-01 01:00:00,2016-04-03 02:51:08,261000/090336b863401f420cd2f526bc9597d9-d.jpg,,
19282509,Money for Minors: A Student's Guide to Economics,,,,Marie Bussing-Burks,2008,,Greenwood,,203,0,English,305,avaxhome.ws,,"9780313347573,0313347573",,,,,330,HB171.5 .B974 2008,,,OL16488830M,21595,0,,,,,,,1,3391314,pdf,27F462F8B6383D1804058905CD5F548E,,,Y. dl_avaxhome 21595  _=money_for_minors.pdf,0,2000-01-01 01:00:00,2016-04-03 02:51:08,261000/27f462f8b6383d1804058905cd5f548e-d.jpg,,
19282510,"Steels: Processing, Structure, And Performance",,,,George Krauss,2005,,ASM International,,583,0,English,210,avaxhome.ws,,"9780871708175,0871708175",,,,,,,10.1361/spsap2005p001,,OL8349540M,21596,0,,,,,,,1,13700621,pdf,19AD1D50404978711C2F8ABDC9917B92,,,Y. dl_avaxhome 21596  _=Steels_Processing_Structure_and_Performance.pdf,0,2000-01-01 01:00:00,2016-04-03 02:51:08,261000/19ad1d50404978711c2f8abdc9917b92-d.jpg,,
19282511,Carole Maggio Facercise: The Dynamic Muscle-Toning Program for Renewed Vitality and a More Youthful Appearance,,"Revised, Updated",,Carole Maggio,2002,Rev Upd,Perigee Trade,,128,0,English,198,avaxhome.ws,,"9780399527838,0399527834",,,,,646.7/26,RA778 .M26 2002,,,OL3670766M,21609,0,,,,,,1,0,10485829,pdf,463CA121EB8BC2ED0BFB57E7813EE450,,,Y. dl_avaxhome 21609  _=Carole_Maggio-Facercise.pdf,0,2000-01-01 01:00:00,2016-04-03 02:51:08,261000/463ca121eb8bc2ed0bfb57e7813ee450-d.jpg,,
19282512,The Heidegger Controversy: A Critical Reader,,,,Richard Wolin,1992,1st MIT Press Ed,The MIT Press,,325,0,English,195,avaxhome.ws,,"9780262731010,0262731010",,,,,193,B3279.H49 H3515 1993,,,OL1725984M,21622,0,,,,,,1,0,17332859,pdf,BE819BF2C55B02D5FF63B409A07A395E,,,Y. dl_avaxhome 21622  _=0262731010.pdf,0,2000-01-01 01:00:00,2016-04-03 02:51:08,261000/be819bf2c55b02d5ff63b409a07a395e-d.jpg,,
19282513,The Green Building Revolution,,,,"Jerry Yudelson, S. Richard Fedrizzi",2007,,Island Press,,270,0,English,236,avaxhome.ws,,"1597261793,9781597261791,9781435699830",,,,,,,,,OL12493178M,21630,0,,,,,,1,1,3378161,pdf,29F25B4C5E6C97D1CE93AF200ED58EA5,,,Y. dl_avaxhome 21630  _=Green_Building.pdf,0,2000-01-01 01:00:00,2016-04-03 02:51:08,261000/29f25b4c5e6c97d1ce93af200ed58ea5-d.jpg,,
19282514,Immunobiology of Transfusion Medicine,,,,George Garratty,1994,1st,CRC Press,,712,0,English,147,avaxhome.ws,,"9780824791223,0824791223",,,,,615/.39,RM171 .I457 1994,,,OL1417912M,21637,0,,,,,,,,58981016,rar,1ED31DEE3ABFB1812ACE1F9E9D2F9263,,,21637 =0824791223.rar,0,2000-01-01 01:00:00,2016-04-03 02:51:08,261000/1ed31dee3abfb1812ace1f9e9d2f9263-d.jpg,,
19282515,"Clinical Skills for OSCEs, ",,,,"Neel Burton, Kuldip Birdi",2007,2,Informa Healthcare,,352,0,English,161,avaxhome.ws,,"9781841846163,1841846163",,,,,,,,,OL8923232M,21639,0,,,,,,1,1,35232612,pdf,77581839D681F7AA2665034A1F87471B,,,Y. dl_avaxhome 21639  _=Clinical.Skills.for.OSCEs.2006.Burton.Birdi.OCR.pdf,0,2000-01-01 01:00:00,2016-04-03 02:51:08,261000/77581839d681f7aa2665034a1f87471b-d.jpg,,
19282516,Status Epilepticus: Mechanisms and Management,,,,"Claude G. Wasterlain, David M. Treiman",2006,1,The MIT Press,,649,0,English,6,avaxhome.ws,,"9780262232456,0262232456",,,,,616.8/53,RC372 .S769 2006,,,OL10237761M,21645,0,,,,,,,0,29608231,pdf,AA47DFE246632590FA24C554E3219A62,,,Y. dl_avaxhome 21645  _=Status_Epilepticus.pdf,0,2000-01-01 01:00:00,2016-04-03 02:51:08,261000/aa47dfe246632590fa24c554e3219a62-d.jpg,,
19282517,Internetworking Technology: An Engineering Perspective,,,,Rahul Banerjee,2004,,Prentice-Hall of India Pvt.Ltd,,221,0,English,210,avaxhome.ws,,"8120321855,9788120321854",,,,,,,,,OL9069370M,21646,0,,,,,1,,0,752090,pdf,EFE02ED9F63E987906BB070844DF3C6F,,,Y. dl_avaxhome 21646  _=585.pdf,0,2000-01-01 01:00:00,2016-04-03 02:51:08,261000/efe02ed9f63e987906bb070844df3c6f-g.jpg,,
19282518,Understanding Osi,,,,John Larmouth,1995,,Prentice Hall,,250,0,English,210,avaxhome.ws,,"9780139277658,013927765X",,,,,,,,,OL10095058M,21648,0,,,,,,,,2491851,chm,FA56D73D8F8C9D0923BDEC89E530448C,,,21648 =584.CHM,0,2000-01-01 01:00:00,2016-04-03 02:51:08,261000/FA56D73D8F8C9D0923BDEC89E530448C-g.jpg,,
19282519,"Basic Introduction to Bioelectromagnetics, ",,,,"Cynthia Furse, Douglas A. Christensen, Carl H. Durney",2009,2,CRC Press,,273,0,English,287,avaxhome.ws,,"9781420055429,1420055429",,,,,612/.01442,QP82.2.E43 D87 2008,,,OL11816690M,21668,0,,,,,,,1,12937130,pdf,F19B273DE28453AB9A414D70236350B5,,,Y. dl_avaxhome 21668  _=Bioelectromagnetics.pdf,0,2000-01-01 01:00:00,2016-04-03 02:51:08,261000/f19b273de28453ab9a414d70236350b5-d.jpg,,
19282520,Contractual Correspondence for Architects and Project Managers,,,,David Chappell,2006,4,Wiley-Blackwell,,296,0,English,58,avaxhome.ws,,"140513514X,9781405172080,9781405135146",,,,,344.41/0176172,KD1641.A65 C45 2006,,,OL3408928M,21687,0,,,,1,1,1,1,796617,pdf,ACC02F7164DBF98C6AD9442A2038FFA1,,,Y. dl_avaxhome 21687  _=Contractual Correspondence for Architects and Project Managers.pdf,0,2000-01-01 01:00:00,2016-04-03 02:51:08,261000/acc02f7164dbf98c6ad9442a2038ffa1-d.jpg,,
19282521,"Expansive Discourses: Urban Sprawl in Calgary, 1945-1978",,Au Press,,Max Foran,2009,,Au Press,,284,0,English,58,avaxhome.ws,,"1897425139,9781897425138",,,,,307.1/41609712338,HT384.C32 C35 2009,,,OL23616600M,21716,0,,,,,1,,1,5067138,pdf,EA15400EB15BDDE8C61FFB3EFA0983E1,,,21716 =555.pdf,0,2000-01-01 01:00:00,2016-04-03 02:51:08,261000/ea15400eb15bdde8c61ffb3efa0983e1-d.jpg,,
19282522,Be Prepared! Pass That Job Interview,,,,Julie-Ann Amos,2008,3rd,How To Books Ltd,,97,0,English,1,avaxhome.ws,,"1845282671,9781845282677,9781848033009",,,,,,,,,,21749,0,,,,,1,1,1,397629,pdf,6F9E61366054AC261DC0EA29CAB01B34,,,Y. dl_avaxhome 21749  _=Be Prepared Pass That Job Interview.pdf,0,2000-01-01 01:00:00,2016-04-03 02:51:08,261000/6f9e61366054ac261dc0ea29cab01b34-d.jpg,,
19282523,Rethinking Architecture: A Reader in Cultural Theory,,,,Neil Leach,1997,1,Routledge,,413,0,English,58,avaxhome.ws,,"0415128250,9780415128254,9780203975251",,,,,720/.1,NA2500 .R46 1997,,,OL7483544M,21768,0,,,,,1,1,1,2599568,pdf,F6261A0B650C6279C99096DAD751B38A,,,Y. dl_avaxhome 21768  _=0415128250.pdf,0,2000-01-01 01:00:00,2016-04-03 02:51:08,261000/f6261a0b650c6279c99096dad751b38a-d.jpg,,
19282524,Numerical Solution of Boundary Value Problems for Ordinary Differential Equations,,Classics in Applied Mathematics,,"Uri M. Ascher, Robert M. M. Mattheij, Robert D. Russell",1987,,Society for Industrial  Mathematics,,623,0,English,113,avaxhome.ws,,"9780898713541,0898713544",,,,,515/.352,QA379 .A83 1995,,,OL797378M,21769,0,,,,,,,1,4086301,djvu,EB8517113FB4D7C9EEFD3189EF340727,,,Y. dl_avaxhome 21769  _=Ascher_U.M._Mattheij_R.M.M._Russell_R.D.DJVU,0,2000-01-01 01:00:00,2016-04-03 02:51:08,261000/eb8517113fb4d7c9eefd3189ef340727-d.jpg,,
19282525,Man-Eaters of Kumaon,,Oxford India Paperbacks,,Jim Corbett,1993,,"Oxford University Press, USA",,253,0,English,32,avaxhome.ws,,"9780195622553,0195622553",,,,,,,,,OL7394143M,21771,0,,,,,,,1,13710002,pdf,BEC785F99376CC165BB5585E8FD239C5,,,21771 =533.pdf,0,2000-01-01 01:00:00,2016-04-03 02:51:08,261000/bec785f99376cc165bb5585e8fd239c5-d.jpg,,
19282526,Evolution Equations and Their Applications in Physical and Life Sciences,,Lecture Notes in Pure and Applied Mathematics,,G Lumer,2000,1,CRC Press,,511,0,English,113,avaxhome.ws,,"0824790103,9780824790103,9780585422237",,,,,515/.353,QA377 .E958 2001,,,OL21504047M,21772,0,,,,,1,1,1,21458604,pdf,04507A58275B5BB37602CE1BB55E29B2,,,Y. dl_avaxhome 21772  _=lumer.pdf,0,2000-01-01 01:00:00,2016-04-03 02:51:08,261000/04507a58275b5bb37602ce1bb55e29b2-d.jpg,,
19282527,Reinforced Concrete Design,,Civil Engineering Series,,"W. H. Mosley, J. H. Bungey",1991,4,"Scholium International, Inc.",,202,0,English,236,avaxhome.ws,,"9780333537183,0333537181",,,,,,,,,OL10550059M,21790,0,,,,,,,1,44070828,pdf,0DDA1CC1A7212199F1DD716C61B798B8,,,Y. dl_avaxhome 21790  _=ReinforcedConcreteDesign.pdf,0,2000-01-01 01:00:00,2016-04-03 02:51:08,261000/0dda1cc1a7212199f1dd716c61b798b8-d.jpg,,
19282528,The Accidental Startup: How to Realize Your True Potential by Becoming Your Own Boss,,,,"Ph.D., MBA, Danielle Babb",2009,,Alpha,,369,0,English,183,avaxhome.ws,,"1592578861,9781592578863",,,,,,,,,,21794,0,,,,,,,1,5771226,pdf,A949FF3E4D4C72A4479AE27881F58F0D,,,Y. dl_avaxhome 21794  _=AcStatup.pdf,0,2000-01-01 01:00:00,2016-04-03 02:51:08,261000/a949ff3e4d4c72a4479ae27881f58f0d-d.jpg,,
19282529,Douglas DC-9,,"Airline Markings, Vol. 9",,Arthur Pearcy,1994,1st ed,Swan Hill Press,,72,0,English,64,avaxhome.ws,,"9781853103599,1853103594",,,,,,,,,OL11959834M,21804,0,,,,,,1,0,17778255,pdf,AE5DE679D96FFAB726D29B7750E4DA36,,,Y. dl_avaxhome 21804  _=Douglas_DC_9.pdf,0,2000-01-01 01:00:00,2016-04-03 02:51:08,261000/ae5de679d96ffab726d29b7750e4da36-g.jpg,,
19282530,The Creation of the World or Globalization,,SUNY Series in Contemporary French Thought,,"Jean-Luc Nancy, Raffoul Francois, David Pettigrew",2007,,State University of New York Press,,126,0,English,195,avaxhome.ws,,"9780791470251,0791470253",,,,,,,,,OL7803739M,21807,0,,,,,,1,1,7694522,pdf,06B152C65653C9FC75B19E04191796F7,,,Y. dl_avaxhome 21807  _=0791470253.pdf,0,2000-01-01 01:00:00,2016-04-03 02:51:08,261000/06b152c65653c9fc75b19e04191796f7-d.jpg,,
19282531,Ricoeur: A Guide for the Perplexed,,Guides for the Perplexed,,David Pellauer,2007,,Continuum,,161,0,English,195,avaxhome.ws,,"0826485146,9780826485144",,,,,194,B2430.R554 P45 2007,,,OL11454788M,21808,0,,,,,1,1,1,10472187,pdf,DC789C223EBE4ADFC5D42C63E2505F00,,,Y. dl_avaxhome 21808  _=0826485146.pdf,0,2000-01-01 01:00:00,2016-04-03 02:51:08,261000/dc789c223ebe4adfc5d42c63e2505f00-d.jpg,,
19282532,The Everyday Language of White Racism,,,,Jane H. Hill,2008,,Wiley-Blackwell,,234,0,English,314,avaxhome.ws,0,"1405184531,9781405184533",,,,,,,,,,21829,0,,,,,,,1,9318117,pdf,6F9762233C38F223CA42CB5BDCD6EFAC,,,Y. dl_avaxhome 21829  _=Rac.pdf,0,2000-01-01 01:00:00,2016-04-03 02:51:08,261000/6f9762233c38f223ca42cb5bdcd6efac-d.jpg,,
19282533,Tiger,Vol. 1,Wydawnictwo Militaria 074,,Janusz Ledwoch,1998,,Wydawnictwo Militaria,,108,0,English,64,avaxhome.ws,,"9788372190277,8372190275",,,,,,,,,,21850,0,,,,,,1,0,12824327,pdf,4D00F32A508358ABE7A0D893150A08EE,,,21850 =Wydawnictwo_Militaria__074__-_Tiger_vol._1.pdf,0,2000-01-01 01:00:00,2016-04-03 02:51:08,261000/4d00f32a508358abe7a0d893150a08ee-g.jpg,,
19282534,Samochody Wehrmachtu,,Wydawnictwo Militaria 072,,Robert Sawicki,1998,,Wydawnictwo Militaria,,68,0,English,64,avaxhome.ws,,"9788372190239,8372190232",,,,,,,,,,21854,0,,,,,,1,0,25351464,pdf,6B49D98EE6F97232795632AB7FB64712,,,21854 =Wydawnictwo_Militaria__072__-_Samochody_Wehrmachtu.pdf,0,2000-01-01 01:00:00,2016-04-03 02:51:08,261000/6b49d98ee6f97232795632ab7fb64712-g.jpg,,
19282535,Bf-110,Vol. 1,Wydawnictwo Militaria 071,,Janusz Ledwoch,1998,,Wydawnictwo Militaria,,83,0,English,64,avaxhome.ws,,"9788372190246,8372190240",,,,,,,,,,21855,0,,,,,,,0,57374386,pdf,EB263D415EAEF26904B18D2E10B2BBBC,,,21855 =Wydawnictwo_Militaria__071__-_Bf_110_vol.1.pdf,0,2000-01-01 01:00:00,2016-04-03 02:51:08,261000/eb263d415eaef26904b18d2e10b2bbbc-g.jpg,,
19282536,Best Answers To The 201 Most Frequently Asked Questions About Getting Into College,,,,"Mary Kay Shanley, Julia Johnston",2004,1,McGraw-Hill,,257,0,English,183,avaxhome.ws,,"9780071432115,0071432116",,,,,,,10.1036/0071458654,,OL24320257M,21869,0,,,,,,,1,1948895,pdf,E71ADC69849916685E94A882C206808F,,,Y. dl_avaxhome 21869  _=best_answers_college_qs-0071432116.pdf,0,2000-01-01 01:00:00,2016-04-03 02:51:08,261000/e71adc69849916685e94a882c206808f-d.jpg,,
19282537,"Hack Attacks Revealed: A Complete Reference for UNIX, Windows, and Linux with Custom Security Toolkit, ",,,,John Chirillo,2002,2,Wiley,,836,0,English,77,avaxhome.ws,,"9780471232827,0471232823",,,,,005.8,QA76.9.A25 C475 2002,,,OL3658457M,21883,0,,,,,,,1,8455904,pdf,BA85BB40C695C02ADAE8CBD6666F2E0C,,,Y. dl_avaxhome 21883  _=Hack_Attacks_Revealed.pdf,0,2000-01-01 01:00:00,2016-04-03 02:51:08,261000/ba85bb40c695c02adae8cbd6666f2e0c-d.jpg,,
19282538,A Companion to Latin Literature,,Blackwell Companions to the Ancient World,,Stephen Harrison,2005,annotated edition,Wiley-Blackwell,,470,0,English,,avaxhome.ws,,"0631235299,9780631235293,9781405137379",,,,,870.9/001,PA6004 .C66 2005,,,OL22608905M,21884,0,,,,1,1,1,1,2836112,pdf,157320D6924F3DE475D2E837A87AA264,,,Y. dl_avaxhome 21884  _=CLatiLiter.pdf,0,2000-01-01 01:00:00,2016-04-03 02:51:08,261000/157320d6924f3de475d2e837a87aa264-d.jpg,,
19282539,"A History of the Classical Greek World, 478 - 323 BC",,Blackwell History of the Ancient World,,P. J. Rhodes,2005,,Wiley-Blackwell,,423,0,English,64,avaxhome.ws,,"0631225641,9780631225645",,,,,,,,,OL9655717M,21887,0,,,,,,1,1,3686925,pdf,0D00D4DA605AA233E3FB7361CAF2D739,,,Y. dl_avaxhome 21887  _=HistGreWorld.PDF,0,2000-01-01 01:00:00,2016-04-03 02:51:08,261000/0d00d4da605aa233e3fb7361caf2d739-d.jpg,,
19282540,Analysis of Time Series Structure: SSA and Related Techniques,,,,"Nina Golyandina, Vladimir Nekrutkin, Anatoly A Zhigljavsky",2001,1,Chapman and Hall/CRC,,310,0,English,131,avaxhome.ws,,"9781584881940,1584881941",,,,,,,,,OL8795236M,21895,0,,,,,,1,1,5399840,pdf,2E7E547D7CEE32554C126CD3D069CBBD,,,Y. dl_avaxhome 21895  _=1584881941.pdf,0,2000-01-01 01:00:00,2016-04-03 02:51:08,261000/2e7e547d7cee32554c126cd3d069cbbd-d.jpg,,
19282541,M3 Infantry Half-Track 1940-73,,New Vanguard,,"Steven Zaloga, Peter Sarson",1995,illustrated edition,Osprey Publishing,,50,0,English,64,avaxhome.ws,,"1855324679,9781855324671",,,,,,,,,OL8992900M,21898,0,,,,,1,,0,17598518,pdf,B78D3F4F0E657DD4266EAD48307D6C84,,,Y. dl_avaxhome 21898  _=v0011_44.pdf,0,2000-01-01 01:00:00,2016-04-03 02:51:08,261000/b78d3f4f0e657dd4266ead48307d6c84-d.jpg,,
19282542,Ning For Dummies,,,,Manny Hernandez,2009,,For Dummies,,363,0,English,183,avaxhome.ws,,"0470453176,9780470453179,9780470504512",,,,,,,,,OL24307796M,21916,0,,,,,,,1,12544344,pdf,4476CF015553E2A4FD339F410EA02103,,,Y. dl_avaxhome 21916  _=Ning_For_Dummies.pdf,0,2000-01-01 01:00:00,2016-04-03 02:51:08,261000/4476cf015553e2a4fd339f410ea02103-d.jpg,,
19282543,"100 Winning Resumes For $100,000 + Jobs: Resumes That Can Change Your Life",,,,Wendy S. Enelow,1997,2nd,Impact Publications,,221,0,English,305,avaxhome.ws,,"1570230706,9781570230707,9780585313931",,,,,808/.06665,HF5383 .E476 1997,,,OL662428M,21920,0,,,,,1,1,1,13961507,pdf,8056A9A720B99C1A3F4F43C31E43E098,,,Y. dl_avaxhome 21920  _=100_Resumes.pdf,0,2000-01-01 01:00:00,2016-04-03 02:51:08,261000/8056a9a720b99c1a3f4f43c31e43e098-d.jpg,,
19282544,The Culture of Terrorism,,,,Noam Chomsky,1987,,Pluto Press,,269,0,English,189,avaxhome.ws,,"9780745302690,0745302696",,,,,327.73,E876 C45 1988b,,,OL18346365M,21921,0,,,,,,,,1877811,rar,4C1AD8B2EEC1C16A9D24B054A6D5F49A,,,21921 =The_Culture_of_Terrorism.rar,0,2000-01-01 01:00:00,2016-04-03 02:51:08,261000/4C1AD8B2EEC1C16A9D24B054A6D5F49A-g.jpg,,
19282545,Social Struggles in Archaic Rome: New Perspectives on the Conflict of the Orders,,,,Kurt A. Raaflaub,2006,2,Wiley-Blackwell,,449,0,English,64,avaxhome.ws,,"9781405100601,1405100605",,,,,937/.02,DG83.3 .S59 2005,,,OL3394888M,21937,0,,,,,,1,1,3339275,pdf,79CE64653DE85E11A2FEF583EB45B91A,,,Y. dl_avaxhome 21937  _=SocStrugrRom.pdf,0,2000-01-01 01:00:00,2016-04-03 02:51:08,261000/79ce64653de85e11a2fef583eb45b91a-d.jpg,,
19282546,Sign Here!: Handwriting in the Age of New Media,,Transformations in Art and Culture,,"Sonja Neef, Jose van Dijck, Eric Ketelaar",2006,,Amsterdam University Press,,249,0,English,,avaxhome.ws,,"9053568166,9789053568163,9781429454537",,,,,,,,,OL12808325M,21955,0,,,,,,1,1,2366841,pdf,3AC333A96F5BDA6260359C6D4C4CD691,,,Y. dl_avaxhome 21955  _=9053568166_Sign_Here.pdf,0,2000-01-01 01:00:00,2016-04-03 02:51:08,261000/3ac333a96f5bda6260359c6d4c4cd691-d.jpg,,
19282547,Practical Hematopoietic Stem Cell Transplantation,,,,"Andrew J. Cant, Angela Galloway, Graham Jackson",2007,1,Wiley-Blackwell,,219,0,English,147,avaxhome.ws,,"1405134011,9781405134019,9781405173148",,,,,617.4/410592,RD123.5 .P73 2007,,,OL22760563M,21975,0,,,,,1,1,1,1781165,pdf,A298B7E5612462F7F0BE9B4A23B8E820,,,Y. dl_avaxhome 21975  _=StemCeTrans.pdf,0,2000-01-01 01:00:00,2016-04-03 02:51:08,261000/a298b7e5612462f7f0be9b4a23b8e820-d.jpg,,
19282548,Java Certification JumpStart,,,,Todd Greanier,2003,1,Sybex,,384,0,English,92,avaxhome.ws,,"9780782142273,0782142273",,,,,005.13/3,QA76.3 .G7525 2003,,,OL3696415M,21977,0,,,,,,,,1250942,chm,534C97275F382299CE2DA4109EDCDBDF,,,Y. dl_avaxhome 21977  _=Java_Certification_JumpStart.CHM,0,2000-01-01 01:00:00,2016-04-03 02:51:08,261000/534c97275f382299ce2da4109edcdbdf-d.jpg,,
19282549,The Onet Dictionary of Occupational Titles 2001,,O'net Dictionary of Occupational Titles,,"J. Michael Farr, Laverne Ludden, Laurence Shatkin",2001,2nd,JIST Works,,705,0,English,322,avaxhome.ws,,"9781563708459,1563708450",,,,,,,,,OL8644747M,21998,0,,,,,,1,1,13290545,pdf,9E60FE5D393934D02B0DB9A1FA1134A6,,,Y. dl_avaxhome 21998  _=The_Onet_Dictionary_of_Occupational_Titles_2001_1563708450.pdf,0,2000-01-01 01:00:00,2016-04-03 02:51:08,261000/9e60fe5d393934d02b0db9a1fa1134a6-d.jpg,,
19282550,Greek and Roman Artillery 399 BC-AD 363,,New Vanguard,,"Duncan Campbell, Brian Delf",2003,illustrated edition,Osprey Publishing,,51,0,English,64,avaxhome.ws,,"9781841766348,1841766348",,,,,,,,,OL8922563M,22003,0,,,,,,,0,13339765,pdf,F0DA378924EB2B463E2A414FD979E990,,,Y. dl_avaxhome 22003  _=v0021_9.pdf,0,2000-01-01 01:00:00,2016-04-03 02:51:08,261000/f0da378924eb2b463e2a414fd979e990-d.jpg,,
19282551,"Nurse's Pocket Guide: Diagnoses, Interventions, and Rationales",,"Nurse's Pocket Guide: Diagnoses, Interventions & Rationales",,"Marilynn E. Doenges, Mary Frances Moorhouse, Alice C. Murr",2004,9th,F. A. Davis Company,,788,0,English,,avaxhome.ws,,"9780803611795,080361179X",,,,,,,,,OL9620479M,22004,0,,,,,,,1,4320679,pdf,8ECCEC55DC36A10FF3C3B8A817D5EB33,,,Y. dl_avaxhome 22004  _=080361179X_Nurse_s_Pocket_Guide9.pdf,0,2000-01-01 01:00:00,2016-04-03 02:51:08,261000/8eccec55dc36a10ff3c3b8a817d5eb33-d.jpg,,
19282552,Belly Dancing Basics,,,,"Laura Cooper, Sarah Skinner",2004,,Sterling,,128,0,English,289,avaxhome.ws,,"9781402710780,140271078X",,,,,,,,,OL8393192M,22029,0,,,,,,1,0,26981396,pdf,48B0CB736AD7604797B512DAD1EAE2F4,,,Y. dl_avaxhome 22029  _=Belly_Dancing.pdf,0,2000-01-01 01:00:00,2016-04-03 02:51:08,261000/48b0cb736ad7604797b512dad1eae2f4-d.jpg,,
19282553,Butterscotch 2,,,,Milo Manara,1994,,Nantier Beall Minoustchine Publishing,,48,0,English,164,avaxhome.ws,,"9781561631582,1561631582",,,,,,,,,OL8637202M,22049,0,,,,,,,,18448761,rar,A94C44BB6DFDCD6261B4AA51051CA404,,,22049 =ManaraButterscotch2.rar,0,2000-01-01 01:00:00,2016-04-03 02:51:08,261000/A94C44BB6DFDCD6261B4AA51051CA404-g.jpg,,
19282554,Acupressure & Reflexology For Dummies,,,,"Bobbi Dempsey, Synthia Andrews",2007,1,For Dummies,,362,0,English,183,avaxhome.ws,,"9780470139424,0470139420",,,,,,,,,OL17250457M,22056,0,,,,,,,1,6345456,pdf,B6D26486DE9664F0CB14A77BAD63FCAC,,,Y. dl_avaxhome 22056  _=Acupressure___Reflexology.pdf,0,2000-01-01 01:00:00,2016-04-03 02:51:08,261000/b6d26486de9664f0cb14a77bad63fcac-d.jpg,,
19282555,Pronunciation Activities: Elementary - Intermediate,,Timesaver,,Bill Bowler,2005,,Mary Glasgow Magazines,,90,0,English,314,avaxhome.ws,,"9781904720140,1904720145",,,,,,,,,OL12291690M,22101,0,,,,,,,0,2301268,pdf,E50CEA432F85C1428C591B494D9DA929,,,Y. dl_avaxhome 22101  _=timesaver_pronunciation_activities.pdf,0,2000-01-01 01:00:00,2016-04-03 02:51:08,261000/e50cea432f85c1428c591b494d9da929-d.jpg,,
19282556,Advanced Techniques of Clandestine Psychedelic & Amphetamine Manufacture,,,,Uncle Fester,1998,,Loompanics Unlimited,,201,0,English,147,avaxhome.ws,,"9781559501743,155950174X",,,,,,,,,OL391875M,22104,0,,,,,,,1,63629299,pdf,5BD4A85CE7F047C3D9C1BC27445A15AC,,,Y. dl_avaxhome 22104  _=155950174X.Loompanics.Unlimited.Advanced.Techniques.of.Clandestine.Psychedelic.&.Amphetamine.Manufacture.Sep.1998.pdf,0,2000-01-01 01:00:00,2016-04-03 02:51:08,261000/5bd4a85ce7f047c3d9c1bc27445a15ac-d.jpg,,
19282557,Exercise and Cognitive Function,,,,"Terry McMorris, Phillip Tomporowski, Michel Audiffren",2009,1,Wiley,,376,0,English,180,avaxhome.ws,,"0470516607,9780470516607",,,,,612.8/233,BF311 .E877 2009,,,OL22684709M,22106,0,,,,,1,,1,2891484,pdf,13449B8646B7272B2AC0C3487089D2F3,,,Y. dl_avaxhome 22106  _=mcmorris.pdf,0,2000-01-01 01:00:00,2016-04-03 02:51:08,261000/13449b8646b7272b2ac0c3487089d2f3-d.jpg,,
19282558,The Modern Survival Retreat: A New and Vital Approach to Retreat Theory and Practice,,,,Ragnar Benson,1998,,Paladin Press,,59,0,English,64,avaxhome.ws,0,"9780873649803,087364980X",,,,,,,,,,22111,0,,,,,1,,0,8613841,pdf,7B08A48586AC506FBD6612FA7584311F,,,Y. dl_avaxhome 22111  _=Sur.pdf,0,2000-01-01 01:00:00,2016-04-03 02:51:08,261000/7b08a48586ac506fbd6612fa7584311f-d.jpg,,
19282559,Improvised Home-Built Recoilless Launchers,,Exotic Weapons,,F. DeMarco,1995,,Paladin Press,,32,0,English,225,avaxhome.ws,0,"9780873648301,0873648307",,,,,623.4/2,TS534.5 .D46 1995,,,,22115,0,,,,,1,0,0,11937730,pdf,4E8BFA4666D3E5D1BAA402CA2252BD2A,,,Y. dl_avaxhome 22115  _=Wea.pdf,0,2000-01-01 01:00:00,2016-04-03 02:51:08,261000/4e8bfa4666d3e5d1baa402ca2252bd2a-d.jpg,,
19282560,"Healthcare Investing: Profiting from the New World of Pharma, Biotech, and Health Care Services",,McGraw-Hill Finance & Investing,,Les Funtleyder,2008,1,McGraw-Hill,,289,0,English,305,avaxhome.ws,,"0071597484,9780071597487",,,,,332.6722,RA410 .F86 2009,,,OL23945650M,22121,0,,,,,,,1,1816979,pdf,B1EF29486D6FE7FA117C9B67F1CE8EA6,,,Y. dl_avaxhome 22121  _=Healthcare_Investing.pdf,0,2000-01-01 01:00:00,2016-04-03 02:51:08,261000/b1ef29486d6fe7fa117c9b67f1ce8ea6-d.jpg,,
19282561,"The Historical Imagination of G.K. Chesterton: Locality, Patriotism, and Nationalism",,Studies in Major Literary Authors,,Joseph R. McCleary,2009,1,Routledge,,173,0,English,64,avaxhome.ws,,"9780415991759,0415991757",,,,,828/.912,PR4453.C4 Z723 2009,,,OL22514144M,22124,0,,,,,,1,1,1846206,pdf,51174FE7C9E115BDFF89E13E3F32C332,,,Y. dl_avaxhome 22124  _=The Historical Imagination of G.K. Chesterton.pdf,0,2000-01-01 01:00:00,2016-04-03 02:51:08,261000/51174fe7c9e115bdff89e13e3f32c332-d.jpg,,
19282562,"The Chimpanzees of the Budongo Forest: Ecology, Behaviour, and Conservation",,Oxford Biology,,Vernon Reynolds,2005,,"Oxford University Press, USA",,314,0,English,12,avaxhome.ws,,"0198515456,9780198515456,0198515464,9780198515463,9781435620735",,,,,,,,,OL22626375M,22138,0,,,,,1,1,1,4824139,pdf,B866F4D4DF06C038878635A807DF0BFF,,,Y. dl_avaxhome 22138  _=47.pdf,0,2000-01-01 01:00:00,2016-04-03 02:51:08,261000/b866f4d4df06c038878635a807df0bff-d.jpg,,
19282563,The Official Patient's Sourcebook on Osteoarthritis: A Revised and Updated Directory for the Internet Age,,,,Health Publica Icon Health Publications,2003,Rev Upd,ICON Health Publications,,392,0,English,100,avaxhome.ws,,"9780597835438,0597835438",,,,,,,,,OL7582084M,22149,0,,,,,,,,31563937,rar,1411AF18CBDE2BDB3057EFD6CF6BD01E,,,22149 =The_Official_Patient_s_Sourcebook_on_Osteoarthritis.rar,0,2000-01-01 01:00:00,2016-04-03 02:51:08,261000/1411af18cbde2bdb3057efd6cf6bd01e-d.jpg,,
19282564,Character Animation with Poser Pro,,Graphics Series,,Larry (Larry Mitchell) Mitchell,2008,1,Charles River Media,,369,0,English,84,avaxhome.ws,,"1584505176,9781584505174,9781584506171",,,,,006.696,TR897.7 .M58 2009,,,OL23859495M,22150,0,,,,,,,1,15501416,pdf,84FE47EC61B9343C51D6213A500F8E82,,,Y. dl_avaxhome 22150  _=Character_Animation_with_Poser_Pro.1584505176.pdf,0,2000-01-01 01:00:00,2016-04-03 02:51:08,261000/84fe47ec61b9343c51d6213a500f8e82-d.jpg,,
19282565,Maya Plug-In Power,,,,Mark Jennings(Mark Smith) Smith,2008,1,Charles River Media,,368,0,English,69,avaxhome.ws,,"1584505303,9781584505303,9781584506133",,,,,,,,,OL12312607M,22151,0,,,,,,,1,19974264,pdf,748CD8EB982599E896A541E9E9B52792,,,Y. dl_avaxhome 22151  _=Maya_Plug-In_Power.1584505303.pdf,0,2000-01-01 01:00:00,2016-04-03 02:51:08,261000/748cd8eb982599e896a541e9e9b52792-d.jpg,,
19282566,Destination Europe: The Political and Economic Growth of a Continent,,,,Kjell M. Torbiorn,2004,,Manchester University Press,,327,0,English,305,avaxhome.ws,,"9780719065729,0719065720",,,,,940.55,JN12 .T58 2003,,,OL3692530M,22170,0,,,,,,1,1,1474545,pdf,44D5EE86CC3D3869DDC77240F6D6F673,,,Y. dl_avaxhome 22170  _=0719065720_Destination_Europe.pdf,0,2000-01-01 01:00:00,2016-04-03 02:51:08,261000/44d5ee86cc3d3869ddc77240f6d6f673-d.jpg,,
19282567,Ethics: An Essay on the Understanding of Evil,,Wo es war,,"Alain Badiou, Peter Hallward",2002,,Verso,,211,0,French,195,avaxhome.ws,,"1859844359,9781859844359",,,,,,,,,OL8624271M,22175,0,,,,,1,,1,5624667,djvu,3897B3F1D432809B9C800B19A7626792,,,Y. dl_avaxhome 22175  _=1859844359.djvu,0,2000-01-01 01:00:00,2016-04-03 02:51:08,261000/3897b3f1d432809b9c800b19a7626792-d.jpg,,
19282568,I've Got a Domain Name--Now What???: A Practical Guide to Building a Website and Web Presence,,,,Jean Bedord,2008,,Happy About,,115,0,English,100,avaxhome.ws,,"9781600051098,160005109X",,,,,,,,,,22178,0,,,,,,1,1,1702446,pdf,59F09CDE2E54827F3BAA3CAC76F3AC16,,,Y. dl_avaxhome 22178  _=aa41.pdf,0,2000-01-01 01:00:00,2016-04-03 02:51:08,261000/59f09cde2e54827f3baa3cac76f3ac16-d.jpg,,
19282569,India And South Asia: Economic Developments in the Age of Globalization,,,,"Anjum Siddiqui, Anjum Siddiqui",2007,,Sharpe Reference,,449,0,English,305,avaxhome.ws,,"9780765614520,0765614529",,,,,,,,,OL8055002M,22184,0,,,,,,1,1,5569484,pdf,E10EA104D27BC48805BB2F8E792F4B23,,,Y. dl_avaxhome 22184  _=aa39.pdf,0,2000-01-01 01:00:00,2016-04-03 02:51:08,261000/e10ea104d27bc48805bb2f8e792f4b23-d.jpg,,
19282570,"White Saris and Sweet Mangoes: Aging, Gender, and Body in North India",,,,Sarah Lamb,2000,1,University of California Press,,328,0,English,314,avaxhome.ws,,"9780520220003,0520220005",,,,,,,,,OL7710723M,22185,0,,,,,,1,1,5251934,pdf,5AF24B9E95614C3813C62519E539CBD3,,,Y. dl_avaxhome 22185  _=aa38.pdf,0,2000-01-01 01:00:00,2016-04-03 02:51:08,261000/5af24b9e95614c3813c62519e539cbd3-d.jpg,,
19282571,India as an Emerging Power,,,,Sumit Ganguly,2003,1,Routledge,,235,0,English,189,avaxhome.ws,,"9780714683218,0714683213",,,,,,,,,OL7800876M,22186,0,,,,,,1,1,5180341,pdf,299BE6C31E921A6F26F784BEE2CC042C,,,Y. dl_avaxhome 22186  _=aa37.pdf,0,2000-01-01 01:00:00,2016-04-03 02:51:08,261000/299be6c31e921a6f26f784bee2cc042c-d.jpg,,
19282572,Liberal Democracy 3.0: Civil Society in an Age of Experts,,"Published in association with Theory, Culture & Society",,Professor Stephen Turner,2003,1,Sage Publications Ltd,,166,0,English,189,avaxhome.ws,,"9780761954699,0761954694",,,,,300.1,JC423 .T775 2003,,,OL22523107M,22187,0,,,,,,1,1,1446881,pdf,C83CF19061A0B4FEAA9F99BF0B7ED54B,,,Y. dl_avaxhome 22187  _=aa36.pdf,0,2000-01-01 01:00:00,2016-04-03 02:51:08,261000/c83cf19061a0b4feaa9f99bf0b7ed54b-d.jpg,,
19282573,Great Women Mystery Writers,,,,Elizabeth Blakesley Lindsay,2006,2,Greenwood,,352,0,English,188,avaxhome.ws,,"0313334285,9780313334283,9780313049064",,,,,,,,,OL10420571M,22188,0,,,,,,1,1,4427895,pdf,3656B117C755E830A71CB92A4647FE2B,,,Y. dl_avaxhome 22188  _=aa35.pdf,0,2000-01-01 01:00:00,2016-04-03 02:51:08,261000/3656b117c755e830a71cb92a4647fe2b-d.jpg,,
19282574,Public Executions: The Death Penalty and the Media,,"Crime, Media, and Popular Culture",,Christopher S. Kudlac,2007,1,Praeger,,201,0,English,189,avaxhome.ws,,"9780275993078,0275993078",,,,,364.660973,HV8699.U6 K83 2007,,,OL10289841M,22189,0,,,,,,,1,1800721,pdf,023B6D29DF26526C214FEC6B04E21794,,,Y. dl_avaxhome 22189  _=aa33.pdf,0,2000-01-01 01:00:00,2016-04-03 02:51:08,261000/023b6d29df26526c214fec6b04e21794-d.jpg,,
19282575,Operations Management in Context,,,,"Frank Rowbotham, Masoud Azhashemi, Les Galloway",2007,2,Butterworth-Heinemann,,453,0,English,6,avaxhome.ws,,"9780750681988,0750681985",,,,,,,,,OL17910867M,22190,0,,,,,,1,1,2477354,pdf,9D7F9CE6EBA830469C6699F81DB17D64,,,Y. dl_avaxhome 22190  _=aa32.pdf,0,2000-01-01 01:00:00,2016-04-03 02:51:08,261000/9d7f9ce6eba830469c6699f81db17d64-d.jpg,,
19282576,The Really Useful Literacy Book: Being Creative with Literacy in the Primary Classroom,,The Really Useful Series,,"Tony Martin, Chira Lovat, Glynis Purnell",2008,2,Routledge,,301,0,English,183,avaxhome.ws,,"0415431654,9780415431651,9780203932704",,,,,372.6,LB1576 .M3795 2008,,,OL10206272M,22191,0,,,,,1,1,1,9984696,pdf,96BF0339075485DFE7971DE42E023714,,,Y. dl_avaxhome 22191  _=aa31.pdf,0,2000-01-01 01:00:00,2016-04-03 02:51:08,261000/96bf0339075485dfe7971de42e023714-d.jpg,,
19282577,The Borderlands: An Encyclopedia of Culture and Politics on the U.S.-Mexico Divide,,,,Andrew Grant Wood,2008,,Greenwood,,344,0,English,188,avaxhome.ws,,"9780313339967,0313339961",,,,,972/.1003,F786 .B74 2008,,,OL10420769M,22192,0,,,,,,1,1,3423572,pdf,B2403C7BDCEAABB31C5396BCA0070418,,,Y. dl_avaxhome 22192  _=aa30.pdf,0,2000-01-01 01:00:00,2016-04-03 02:51:08,261000/b2403c7bdceaabb31c5396bca0070418-d.jpg,,
19282578,Constructive Psychotherapy: A Practical Guide,,,,Michael J. Mahoney PhD,2003,First Edition,The Guilford Press,,322,0,English,198,avaxhome.ws,,"1572309024,9781572309029",,,,,,,,,OL8734449M,22193,0,,,,,,1,1,1339813,pdf,315316A307109F2FF1ECAF6B93BEBA1D,,,Y. dl_avaxhome 22193  _=aa29.pdf,0,2000-01-01 01:00:00,2016-04-03 02:51:08,261000/315316a307109f2ff1ecaf6b93beba1d-d.jpg,,
19282579,Enhancing Self-esteem in the Classroom,,,,Dr Denis Lawrence,2006,3rd,Sage Publications Ltd,,225,0,English,198,avaxhome.ws,,"9781412921114,1412921112",,,,,,,,,OL17879731M,22195,0,,,,,,,1,1053067,pdf,B26BD747A51A1E674405E4701EEEE324,,,Y. dl_avaxhome 22195  _=aa27.pdf,0,2000-01-01 01:00:00,2016-04-03 02:51:08,261000/b26bd747a51a1e674405e4701eeee324-d.jpg,,
19282580,Timber Designers' Manual,,,,"E. C. Ozelton, J. A. Baird",2002,3,Wiley-Blackwell,,554,0,English,210,avaxhome.ws,,"9780632039784,0632039787",,,,,694,TA666 .O93 2002,,,OL3433060M,22196,0,,,,,,1,1,4170478,pdf,DF9910A1129C0EA0BF9D0B9B05C41E39,,,Y. dl_avaxhome 22196  _=aa26.pdf,0,2000-01-01 01:00:00,2016-04-03 02:51:08,261000/df9910a1129c0ea0bf9d0b9b05c41e39-d.jpg,,
19282581,Whistle-Blowing in Organizations,,Lea's Organization and Management,,"Marcia P. Miceli, Janet Pollex Near, Terry M. Dworkin",2008,1,Psychology Press,,248,0,English,1,avaxhome.ws,0,"0805859896,9780805859898",,,,,302.3/5,HD60 .M54 2008,,,,22197,0,,,,,1,,1,3969901,pdf,71BB0A67321BCE31B338BD97E25F8B73,,,Y. dl_avaxhome 22197  _=aa25.pdf,0,2000-01-01 01:00:00,2016-04-03 02:51:08,261000/71bb0a67321bce31b338bd97e25f8b73-d.jpg,,
19282582,World Intellectual Property Organization (WIPO): Resurgence and the Development Agenda (Global Institutions),,,,Christopher May,2007,1,Routledge,,154,0,English,99,avaxhome.ws,,"9780415358019,0415358019",,,,,,,,,OL10203952M,22199,0,,,,,,1,1,1784751,pdf,7B101EE1BF157FF4F7029F6A62E5583B,,,Y. dl_avaxhome 22199  _=aa23.pdf,0,2000-01-01 01:00:00,2016-04-03 02:51:08,261000/7b101ee1bf157ff4f7029f6a62e5583b-d.jpg,,
19282583,"Communalism, Caste and Hindu Nationalism: The Violence in Gujarat",,,,Ornit Shani,2007,1,Cambridge University Press,,232,0,English,189,avaxhome.ws,,"9780521727532,0521683696",,,,,,,,,OL22755493M,22200,0,,,,,,1,1,5217024,pdf,CF9771F6A727059D324161F1D0783EBB,,,Y. dl_avaxhome 22200  _=aa21.pdf,0,2000-01-01 01:00:00,2016-04-03 02:51:08,261000/cf9771f6a727059d324161f1d0783ebb-d.jpg,,
19282584,"Taking Charge of ADHD, Revised Edition: The Complete, Authoritative Guide for Parents",,,,Russell A. Barkley PhD  ABPP  ABCN,2000,Revised,The Guilford Press,,348,0,English,41,avaxhome.ws,,"9781572306004,1572306009",,,,,,,,,OL23245600M,22201,0,,,,,,,1,1511332,pdf,EAE28B5D468F9A47AE89EB6AA3D24DF2,,,Y. dl_avaxhome 22201  _=aa20.pdf,0,2000-01-01 01:00:00,2016-04-03 02:51:08,261000/eae28b5d468f9a47ae89eb6aa3d24df2-d.jpg,,
19282585,Early Years Foundations: Meeting the Challenge,,,,Janet Moyles,2007,1,Open University Press,,309,0,English,183,avaxhome.ws,,"0335223494,9780335223497,9780335234950",,,,,,,,,,22203,0,,,,,1,,1,5227914,pdf,E3B6FF8FAA2554E1A88E632A415B0DA0,,,Y. dl_avaxhome 22203  _=aa17.pdf,0,2000-01-01 01:00:00,2016-04-03 02:51:08,261000/e3b6ff8faa2554e1a88e632a415b0da0-d.jpg,,
19282586,Counseling Troubled Boys: A Guidebook for Professionals,,The Routledge Series on Counseling and Psychotherapy with Boys and Men,,"Mark S. Kiselica, Matt Englar-Carlson, Arthur M. Horne",2007,1,Routledge,,336,0,English,198,avaxhome.ws,,"0415955475,9780415955478,9781435616967",,,,,362.74/86,HV1423 .C68 2008,,,OL10208639M,22204,0,,,,,1,1,1,2803844,pdf,A6234D351E7048251ACBF645C2567031,,,Y. dl_avaxhome 22204  _=aa16.pdf,0,2000-01-01 01:00:00,2016-04-03 02:51:08,261000/a6234d351e7048251acbf645c2567031-d.jpg,,
19282587,Teaching and Training in Post-compulsory Education,,,,"Andy Armitage, Robin Bryant, Richard Dunnill, Karen Flanagan, Dennis Hayes, Alan Hudson, Janis Kent, Shirley Lawes, Mandy Renwick",2007,3,Open University Press,,306,0,English,183,avaxhome.ws,,"0335222676,9780335222674,9780335235049",,,,,,,,,,22205,0,,,,,1,1,1,1952208,pdf,1A28F2A673A68274FBE85162F76D72A1,,,Y. dl_avaxhome 22205  _=aa15.pdf,0,2000-01-01 01:00:00,2016-04-03 02:51:08,261000/1a28f2a673a68274fbe85162f76d72a1-d.jpg,,
19282588,Bodies at Work,,,,Dr Carol Wolkowitz,2006,,Sage Publications Ltd,,224,0,English,189,avaxhome.ws,,"9780761960645,0761960643",,,,,,,,,OL22734029M,22206,0,,,,,,,1,1709664,pdf,29BA5BB33961F4D5BC366998AF87558B,,,Y. dl_avaxhome 22206  _=aa14.pdf,0,2000-01-01 01:00:00,2016-04-03 02:51:08,261000/29ba5bb33961f4d5bc366998af87558b-d.jpg,,
19282589,Globalization,,Greenwood Guides to Business and Economics,,Donald J. Boudreaux,2007,1,Greenwood,,178,0,English,305,avaxhome.ws,,"9780313342134,031334213X",,,,,337.1,HF1379 .B677 2008,,,OL10420792M,22207,0,,,,,,1,1,1625362,pdf,DC12AD2966934F8F149186892FA57857,,,Y. dl_avaxhome 22207  _=aa13.pdf,0,2000-01-01 01:00:00,2016-04-03 02:51:08,261000/dc12ad2966934f8f149186892fa57857-d.jpg,,
19282590,A Lecturer's Guide to Further Education,,,,"Dennis Hayes, Toby Marshall, Alec Turner",2007,1,Open University Press,,246,0,English,183,avaxhome.ws,,"0335220185,9780335220182,9780335234899",,,,,,,,,OL10562210M,22208,0,,,,,1,,1,2810298,pdf,11234719B35810F59B2A4BA5E9C985DB,,,Y. dl_avaxhome 22208  _=aa12.pdf,0,2000-01-01 01:00:00,2016-04-03 02:51:08,261000/11234719b35810f59b2a4ba5e9c985db-d.jpg,,
19282591,"Helping Bereaved Children, : A Handbook for Practitioners",,,,Nancy Boyd Webb DSW  BCD  RPT-S,2002,Second Edition,The Guilford Press,,432,0,English,,avaxhome.ws,,"9781572306325,1572306327",,,,,,,,,OL18171922M,22209,0,,,,,,,1,2253121,pdf,881620BC4142DF84F90751C8BACD594B,,,Y. dl_avaxhome 22209  _=aa11.pdf,0,2000-01-01 01:00:00,2016-04-03 02:51:08,261000/881620bc4142df84f90751c8bacd594b-d.jpg,,
19282592,Spelling Steps 3,,Spelling Steps,,Laurel and Associates,2006,,"Saddleback Educational Publishing, Inc.",,173,0,English,183,avaxhome.ws,,"1562541463,9781562541460",,,,,,,,,OL8640389M,22210,0,,,,,,1,1,1298927,pdf,8EA2474730811E90321142653E928331,,,Y. dl_avaxhome 22210  _=aa10.pdf,0,2000-01-01 01:00:00,2016-04-03 02:51:08,261000/8ea2474730811e90321142653e928331-g.jpg,,
19282593,Environmental Sampling and Analysis for Metals,,,,"Maria Csuros, Csaba Csuros",2002,,CRC Press,,404,0,English,31,avaxhome.ws,,"156670572X,9781566705721,9781420032345",,,,,628.5/2,TD196.M4 C78 2002,,,OL21485369M,22211,0,,,,1,1,1,1,3683571,pdf,D4A03517E3C7DF049969D74C44117942,,,Y. dl_avaxhome 22211  _=aa09.pdf,0,2000-01-01 01:00:00,2016-04-03 02:51:08,261000/d4a03517e3c7df049969d74c44117942-d.jpg,,
19282594,Practical Controls: A Guide to Mechanical Systems,,,,Steve Calabrese,2003,,Fairmont Press,,481,0,English,264,avaxhome.ws,,"9780881734478,0881734470",,,,,,,,,OL9334760M,22212,0,,,,,,,1,2386675,pdf,43239FAC408FAB04C116022F64554AE4,,,Y. dl_avaxhome 22212  _=aa08.pdf,0,2000-01-01 01:00:00,2016-04-03 02:51:08,261000/43239fac408fab04c116022f64554ae4-g.jpg,,
19282595,The New Basics: Education and the Future of Work in the Telematic Age,,,,David D. Thornburg,2002,,Association for Supervision & Curriculum Deve,,130,0,English,183,avaxhome.ws,,"9780871206565,0871206560,9780585415314",,,,,,,,,OL8346943M,22213,0,,,,,1,1,1,1081122,pdf,C3ECD2E43D5028C54F97C03AB892AD96,,,Y. dl_avaxhome 22213  _=aa07.pdf,0,2000-01-01 01:00:00,2016-04-03 02:51:08,261000/c3ecd2e43d5028c54f97c03ab892ad96-d.jpg,,
19282596,Chronic Obstructive Pulmonary Disease: Cellular and Molecular Mechanisms,,Lung Biology in Health and Disease,,Peter J. Barnes,2005,1,Informa Healthcare,,552,0,English,151,avaxhome.ws,,"9780824723118,0824723112",,,,,616.2/4,RC776.O3 C4782 2005,,,OL3435243M,22214,0,,,,,,1,1,6902135,pdf,7F29D5C8ABCF5FC8608ED9AC495CFFF1,,,Y. dl_avaxhome 22214  _=aa06.pdf,0,2000-01-01 01:00:00,2016-04-03 02:51:08,261000/7f29d5c8abcf5fc8608ed9ac495cfff1-d.jpg,,
19282597,"Cyanide in Water and Soil: Chemistry, Risk, and Management",,,,"David A. Dzombak, Rajat S. Ghosh, George M. Wong-Chong",2005,1,CRC Press,,602,0,English,213,avaxhome.ws,,"9781566706667,1566706661",,,,,628.5/2,TD427.C9 D97 2005,,,OL3425816M,22215,0,,,,,,1,1,10557686,pdf,8CF9501859C84AD6732C6EF1CD82DD58,,,Y. dl_avaxhome 22215  _=aa05.pdf,0,2000-01-01 01:00:00,2016-04-03 02:51:08,261000/8cf9501859c84ad6732c6ef1cd82dd58-d.jpg,,
19282598,Women and the U.S. Budget: Where the Money Goes and What You Can Do About It,,,,Jane Midgley,2005,Softcover Ed,New Society Publishers,,225,0,English,305,avaxhome.ws,,"0865715254,9780865715257",,,,,,,,,OL8326627M,22216,0,,,,,1,,1,1154281,pdf,3F350E3209FB81AA1DC56FA5B3FEF427,,,Y. dl_avaxhome 22216  _=aa04.pdf,0,2000-01-01 01:00:00,2016-04-03 02:51:08,261000/3f350e3209fb81aa1dc56fa5b3fef427-d.jpg,,
19282599,Approaches to Design and Synthesis of Antiparasitic Drugs,,Pharmacochemistry Library 25,,"N. Anand, S. Sharma?",1997,1,Elsevier Science,,525,0,English,302,avaxhome.ws,,"9780444894762,0444894764",0165-7208,,,,616.9/6061,RM412 .A53 1997,,,OL670134M,22221,0,,,,,,,1,22417164,pdf,691B29C89A74DF2F07215BC7E31CF102,,,Y. dl_avaxhome 22221  _=ApproDesig.pdf,0,2000-01-01 01:00:00,2016-04-03 02:51:08,261000/691b29c89a74df2f07215bc7e31cf102-d.jpg,,
19282600,Software Architect Bootcamp,,,,"Raphael Malveau, Raphael C. Malveau, Thomas Mowbray",2000,,Prentice Hall PTR,,293,0,English,87,avaxhome.ws,,"0130274070,9780130274076",,,,,,,,,OL18141928M,22222,0,,,,,,,1,3668799,pdf,A20C2CB4020BE99C6A9CF728252C7E83,,,Y. dl_avaxhome 22222  _=SofArcBoo.pdf,0,2000-01-01 01:00:00,2016-04-03 02:51:08,261000/a20c2cb4020be99c6a9cf728252c7e83-d.jpg,,
19282601,CIA Explosives For Sabotage Manual,,,,CIA,1987,illustrated edition,Paladin Press,,70,0,English,301,avaxhome.ws,,"9780873640367,0873640365",,,,,,,,,OL11117146M,22223,0,,,,,,,0,3419516,pdf,205E041EE2566469648BE599A57B88E6,,,Y. dl_avaxhome 22223  _=CIA Explosives for Sabotage Manual.pdf,0,2000-01-01 01:00:00,2016-04-03 02:51:08,261000/205e041ee2566469648be599a57b88e6-d.jpg,,
19282602,"Advances in Chemical Physics, Reduced-Density-Matrix Mechanics: With Application to Many-Electron Atoms and Molecules (Volume 134",,,,David A. Mazziotti,2007,1,Wiley-Interscience,,597,0,English,296,avaxhome.ws,,"9780471790563,0471790567",,,,,530.122,QD453 .A27 vol. 134,,,OL10336154M,22235,0,,,,,,1,1,3386603,pdf,3B97633C9C4B9532F8892E88054BC30C,,,Y. dl_avaxhome 22235  _=reduced-density_matrix_mechanics.pdf,0,2000-01-01 01:00:00,2016-04-03 02:51:08,261000/3b97633c9c4b9532f8892e88054bc30c-d.jpg,,
19282603,Indians And Emigrants: Encounters on the Overland Trails,,,,Michael L. Tate,2006,,University of Oklahoma Press,,353,0,English,64,avaxhome.ws,,"080613710X,9780806137100,9780806182049",,,,,978/.02,E78.W5 T38 2006,,,OL22734836M,22238,0,,,,,1,,1,3370582,pdf,C5588AE24E9B6BE65AA5AE73EA6B30B6,,,Y. dl_avaxhome 22238  _=080613710x.pdf,0,2000-01-01 01:00:00,2016-04-03 02:51:08,261000/c5588ae24e9b6be65aa5ae73ea6b30b6-d.jpg,,
19282604,Clinical Care of the Aged Person: An Interdisciplinary Perspective,,,,"David G. Satin, Barbara A. Blakeney, Jennifer M. Bottomley, Margot C. Howe, Helen D. Smith",1994,1,"Oxford University Press, USA",,512,0,English,161,avaxhome.ws,,"9780195052909,0195052900",,,,,362.1/9897,RC952 .C534 1994,,,OL1427161M,22241,0,,,,,,1,1,33728072,pdf,70DDA2FB29D4CF90B86E45A6351F470C,,,Y. dl_avaxhome 22241  _=0195052900.pdf,0,2000-01-01 01:00:00,2016-04-03 02:51:08,261000/70dda2fb29d4cf90b86e45a6351f470c-d.jpg,,
19282605,Reinventing the Retirement Paradigm,,,,"Robert L. Clark, Olivia S. Mitchell",2005,illustrated edition,"Oxford University Press, USA",,312,0,English,305,avaxhome.ws,,"9780199284603,0199284601",,,,,331.25/2,HQ1062 .C53 2005,,,OL22632837M,22248,0,,,,,,,,8733637,rar,0D013251EFA443D545492C94C1DC32F3,,,22248 =Reinventing_the_Retirement_Paradigm.rar,0,2000-01-01 01:00:00,2016-04-03 02:51:08,261000/0d013251efa443d545492c94c1dc32f3-d.jpg,,
19282606,Really Learn 100 Phrasal Verbs P,,Oxford Dictionaries,,None,2004,,Oxford University Press,,128,0,English,183,avaxhome.ws,,"9780194315838,0194315835",,,,,,,,,OL10129581M,22249,0,,,,,,,0,7341389,pdf,CC4C5CAA47FDA832F9CA22D2D9E8FEFD,,,Y. dl_avaxhome 22249  _=Phras.pdf,0,2000-01-01 01:00:00,2016-04-03 02:51:08,261000/cc4c5caa47fda832f9ca22d2d9e8fefd-d.jpg,,
19282607,Essential Practice Guidelines in Primary Care,,Current Clinical Practice,,Neil S. Skolnik,2006,1,Humana Press,,249,0,English,147,avaxhome.ws,,"9781588295088,1588295087",,,,,616,R729.G4 E77 2007,,,OL17170575M,22260,0,,,,,,,,9619967,rar,4531612645F4F4EE9A0559818F3AB914,,,22260 =Essential_Practice_Guidelines_in_Primary_Care.rar,0,2000-01-01 01:00:00,2016-04-03 02:51:08,261000/4531612645f4f4ee9a0559818f3ab914-d.jpg,,
19282608,Organizational Knowledge and Technology: An Action-Oriented Perspective on Organization and Information Systems,,,,Rodrigo Magalhaes,2004,illustrated edition,Edward Elgar Publishing,,267,0,English,1,avaxhome.ws,,"9781843762829,184376282X,9781845420703",,,,,658.4/038/011,HD30.2 .M347 2004,,,OL11906684M,22275,0,,,,,1,1,1,1484111,pdf,155DED79E7A2198B810005DBFAE2DD8B,,,Y. dl_avaxhome 22275  _=organizational_knowledge_and_technologyan_actionoriented_perspective_on_organization_and_information_systems.pdf,0,2000-01-01 01:00:00,2016-04-03 02:51:08,261000/155ded79e7a2198b810005dbfae2dd8b-d.jpg,,
19282609,Working for Full Employment,,,,John Philpott,1997,1,Routledge,,271,0,English,1,avaxhome.ws,,"9780415143479,0415143470",,,,,331.12/042,HD5765.A6 W675 1997,,,OL969101M,22289,0,,,,,,1,1,2341267,pdf,06232E24A5490008D3999A76A8D76EBC,,,Y. dl_avaxhome 22289  _=0415143470.pdf,0,2000-01-01 01:00:00,2016-04-03 02:51:08,261000/06232e24a5490008d3999a76a8d76ebc-d.jpg,,
19282610,Enhancing Participation And Governance in Water Resources Management: Conventional Approaches And Information Technology,,,,"Libor Jansky, Juha I. Uitto",2006,,United Nations University Press,,235,0,English,213,avaxhome.ws,,"9280811207,9789280811209,9781423765936",,,,,333.91,TD345 .E54 2005,,,OL3409343M,22293,0,,,,,,1,1,2138925,pdf,75198715A467234A266262CDC4CA4BAA,,,Y. dl_avaxhome 22293  _=9280811207.pdf,0,2000-01-01 01:00:00,2016-04-03 02:51:08,261000/75198715a467234a266262cdc4ca4baa-d.jpg,,
19282611,Historiography in the Middle Ages,,,,Deborah Mauskopf Deliyannis,2003,,Brill Academic Publishers,,473,0,English,64,avaxhome.ws,,"9004118810,9789004118812",,,,,909.07/07/2,D116 .H575 2003,,,OL22532395M,22295,0,,,,,,1,1,1808383,pdf,7F4B6EE5DB42A71B0267582BE8442C3D,,,Y. dl_avaxhome 22295  _=9004118810.pdf,0,2000-01-01 01:00:00,2016-04-03 02:51:08,261000/7f4b6ee5db42a71b0267582be8442c3d-d.jpg,,
19282612,Jane Austen: The World of Her Novels,,,,Deirdre Le Faye,2002,,Harry N. Abrams,,324,0,English,64,avaxhome.ws,0,"9780810932852,0810932857",,,,,,,,,OL15376055M,22302,0,,,,,1,1,1,13905669,pdf,89ECEF5221C41DE0C96049FAD8DB072A,,,Y. dl_avaxhome 22302  _=LeFaye-jatwohn.pdf,0,2000-01-01 01:00:00,2016-04-03 02:51:08,261000/89ecef5221c41de0c96049fad8db072a-d.jpg,,
19282613,Eschatology in the Old Testament,,,,Donald Gowan,1998,2,Continuum International Publishing,,175,0,English,205,avaxhome.ws,,"9780567086556,0567086550",,,,,,,,,OL7854305M,22306,0,,,,,,1,1,10869166,pdf,64D9564EE394696B917795BB91C62B2A,,,Y. dl_avaxhome 22306  _=Eschatology_in_the_Old_Testament.pdf,0,2000-01-01 01:00:00,2016-04-03 02:51:08,261000/64d9564ee394696b917795bb91c62b2a-d.jpg,,
19282614,Making Sense of Japanese: What the Textbooks Don't Tell You,,Power Japanese Series - Kodansha's Children's Classics,,Jay Rubin,2002,,Kodansha International,,68,0,English,314,avaxhome.ws,,"4770028024,9784770028020",,,,,,,,,OL9037441M,22350,0,,,,,1,,0,5599845,pdf,25D6F2A8112C6DD029C40F4F4D5182B7,,,Y. dl_avaxhome 22350  _=MakingSenseJapanese.pdf,0,2000-01-01 01:00:00,2016-04-03 02:51:08,261000/25d6f2a8112c6dd029c40f4f4d5182b7-d.jpg,,
19282615,The New Teacher's Guide to Success,,,,"Matthew Haldeman, M.Ed.",2008,,Shell Education Pub,,107,0,English,183,avaxhome.ws,,"9781425803193,1425803199",,,,,,,,,,22360,0,,,,,,,1,2557992,pdf,F2DF85B306AAD61CD14A98040F597422,,,Y. dl_avaxhome 22360  _=1425803199_New_Teacher_s_Guide.pdf,0,2000-01-01 01:00:00,2016-04-03 02:51:08,261000/f2df85b306aad61cd14a98040f597422-d.jpg,,
19282616,Instructional Coaches and Classroom Teachers: Sharing the Road to Success,,,,"Cheryl Jones, M.Ed., Mary Vreeman",2008,,Shell Education Pub,,211,0,English,183,avaxhome.ws,,"9781425803322,1425803326",,,,,,,,,OL11871835M,22361,0,,,,,,1,1,3522851,pdf,863AAB53F93648AE9597CE9AA2ACA224,,,Y. dl_avaxhome 22361  _=1425803326_Instructional_Coaches.pdf,0,2000-01-01 01:00:00,2016-04-03 02:51:08,261000/863aab53f93648ae9597ce9aa2aca224-d.jpg,,
19282617,The World Economy: A Millennial Perspective/ Historical Statistics,,Development Centre Studies,,Angus Maddison,2007,,O E C D,,656,0,English,131,avaxhome.ws,,"9789264022614,9264022619",,,,,,,,,OL21631019M,22376,0,,,,,,,1,3105387,pdf,CE94521BA265BBE75BEA11F56287A896,,,Y. dl_avaxhome 22376  _=9264022619.pdf,0,2000-01-01 01:00:00,2016-04-03 02:51:08,261000/ce94521ba265bbe75bea11f56287a896-d.jpg,,
19282618,The Edgier Waters: Five Years of 3am,,,,A. Stevens,2006,UK open market ed,Snowbooks Ltd,,384,0,English,109,avaxhome.ws,,"1905005202,9781905005208,9781429419529",,,,,,,,,OL24291677M,22392,0,,,,,,1,1,1393063,pdf,24523DA2E540A53AB547785BA3507A23,,,Y. dl_avaxhome 22392  _=1905005202.pdf,0,2000-01-01 01:00:00,2016-04-03 02:51:08,261000/24523da2e540a53ab547785ba3507a23-d.jpg,,
19282619,Plundering Paradise: The Hand of Man on the Galapagos Islands,,,,Michael D'orso,2003,,Harper Perennial,,373,0,English,12,avaxhome.ws,,"9780060955762,0060955767",,,,,,,,,OL7285542M,22400,0,,,,,,,1,1264377,pdf,05B8B1DB3255697F5B74E79F841666BF,,,Y. dl_avaxhome 22400  _=Galapagos_Islands.pdf,0,2000-01-01 01:00:00,2016-04-03 02:51:08,261000/05b8b1db3255697f5b74e79f841666bf-d.jpg,,
19282620,Negotiating The Curriculum: Educating For The 21st Century,,,,"Garth Boomer, Cynthia Onore, Nancy Lester, Jonathan Cook",1992,1,Routledge,,310,0,English,180,avaxhome.ws,,"1850009376,9781850009375,1850009317,9781850009313,9780203975381",,,,,375/.001,LB2806.15 .N44 1992,,,OL1710457M,22408,0,,,,,1,,1,1916708,pdf,6B6B81A0760AFB740C4DAA3F20C980FA,,,Y. dl_avaxhome 22408  _=1850009376.pdf,0,2000-01-01 01:00:00,2016-04-03 02:51:08,261000/6b6b81a0760afb740c4daa3f20c980fa-d.jpg,,
19282621,The Big Tech Score: A Top Wall Street Analyst Reveals 10 Secrets to Investing Success,,,,"Michael Kwatinetz, Danielle Kwatinetz Wood",2000,1,John Wiley & Sons,,234,0,English,1,avaxhome.ws,,"9780471395928,0471395927",,,,,,,,,OL7616554M,22410,0,,,,,,,,1353414,chm,D032EC68CB2B436231E01458FD932359,,,Y. dl_avaxhome 22410  _=The_Big_Tech_Score.CHM,0,2000-01-01 01:00:00,2016-04-03 02:51:08,261000/d032ec68cb2b436231e01458fd932359-d.jpg,,
19282622,Physical Chemistry For The Biomedical Sciences,,,,S. R Logan,1998,,Taylor & Francis,,,0,English,264,avaxhome.ws,,"9780203484067,0203484061",,,,,,,,,,22434,0,,,,,,,,2365506,rar,ED5F6B4F4DF1687BF7E8D452449997D2,,,22434 =31.rar,0,2000-01-01 01:00:00,2016-04-03 02:51:08,,,
19282623,Principles of Fourier Analysis,,Studies in Advanced Mathematics,,Kenneth B. Howell,2001,1,CRC Press,,774,0,English,117,Kolxo3,,"0849382750,9780849382758,9781420036909",,,,,,,,,OL8261292M,22435,0,,,,,1,,1,5351011,djvu,00F69D5724D839D0AC77785E0DF9D63D,,,"M_Mathematics/MC_Calculus/MCet_Elementary calculus textbooks/Howell K.B. Principles of Fourier analysis (bad navigation)(CRC, 2001)(ISBN 0849382750)(600dpi)(T)(O)(774s)_MCet_.djvu",0,2000-01-01 01:00:00,2016-04-03 02:51:08,261000/00f69d5724d839d0ac77785e0df9d63d-d.jpg,,
19282624,Aphrodite,Bk.1,,,"Pierre Louys, Milo Manara, Georges Bess, Claire Wendling, Milo Manara",1999,Volume I,Humanoids Inc,,56,0,French,164,avaxhome.ws,,"9780967240107,0967240107",,,,,,,,,OL8556148M,22439,0,,,,,,,,16447899,rar,92ECC56E2730DA40A582564379D0A17A,,,22439 =ManarAphrodit.rar,0,2000-01-01 01:00:00,2016-04-03 02:51:08,261000/92ECC56E2730DA40A582564379D0A17A-g.jpg,,
19282625,Multimedia Security Handbook,,Internet and Communications,,"Borko Furht, Darko Kirovski",2004,1,CRC Press,,812,0,English,,avaxhome.ws,,"9780849327735,0849327733",,,,,,,,,OL17150169M,22440,0,,,,,,,1,47118934,pdf,35A5F835C88422EA8F386E99904C3182,,,Y. dl_avaxhome 22440  _=fotech_-_multimedia_security_handbook.pdf,0,2000-01-01 01:00:00,2016-04-03 02:51:08,261000/35a5f835c88422ea8f386e99904c3182-d.jpg,,
19282626,Web Copy That Sells: The Revolutionary Formula for Creating Killer Copy Every Time,,,,Maria Veloso,2004,1st,AMACOM,,240,0,English,100,avaxhome.ws,,"0814472494,9780814472491,9780814428108",,,,,,,,,OL8043312M,22442,0,,,,,1,1,1,1862428,pdf,7BA14BD8D2992F937FC1370B3E398D3C,,,Y. dl_avaxhome 22442  _=0814472494.pdf,0,2000-01-01 01:00:00,2016-04-03 02:51:08,261000/7ba14bd8d2992f937fc1370b3e398d3c-d.jpg,,
19282627,Blackwell Handbook of Adolescence,,Blackwell Handbooks of Developmental Psychology,,"Gerald R. Adams, Michael Berzonsky",2003,1,Wiley-Blackwell,,677,0,English,,avaxhome.ws,,"9780631219194,0631219196",,,,,,,,,OL17082069M,22448,0,,,,,,1,1,7153685,pdf,33910F20F9F4B7008ED359AE4C0B0C05,,,Y. dl_avaxhome 22448  _=HbAdoles.pdf,0,2000-01-01 01:00:00,2016-04-03 02:51:08,261000/33910f20f9f4b7008ed359ae4c0b0c05-d.jpg,,
19282628,A Term at the Fed: An Insider's View,,,,Laurence H. Meyer,2006,,Harper Paperbacks,,284,0,English,305,avaxhome.ws,,"0060542713,9780060542719,9780061370403",,,,,,,,,OL24272699M,22456,0,,,,,1,,1,1087258,pdf,E78E6C0B7BAE9DB05B8AF93265DBB50C,,,Y. dl_avaxhome 22456  _=A_Term_at_the_Fed.pdf,0,2000-01-01 01:00:00,2016-04-03 02:51:08,261000/e78e6c0b7bae9db05b8af93265dbb50c-d.jpg,,
19282629,Restoration and Eighteenth-Century Comedy,,Norton Critical Editions,,Scott McMillin,1997,Second Edition,W. W. Norton & Company,,646,0,English,110,avaxhome.ws,,"0393963349,9780393963342",,,,,822/.0523,PR1248 .M3 1997,,,OL808207M,22466,0,,,,,,,1,10111230,pdf,192CD6F3A9CA20F45E9B5F545DE13287,,,Y. dl_avaxhome 22466  _=McMillin-raeccnce.pdf,0,2000-01-01 01:00:00,2016-04-03 02:51:08,261000/192cd6f3a9ca20f45e9b5f545de13287-d.jpg,,
19282630,Pride and Prejudice,,Norton Critical Editions,,"Jane Austen, Donald J. Gray",2000,3rd,W. W. Norton & Company,,423,0,English,110,avaxhome.ws,,"0393976041,9780393976045",,,,,823/.7,PR4034 .P7 2001,,,OL6783437M,22468,0,,,,,,,1,6725449,pdf,40BE3A456A7CD425D9B877B605E734FC,,,Y. dl_avaxhome 22468  _=Austen-ppnce.pdf,0,2000-01-01 01:00:00,2016-04-03 02:51:08,261000/40be3a456a7cd425d9b877b605e734fc-d.jpg,,
19282631,India and the WTO,,World Bank Trade and Development Series,,"Aaditya Mattoo, Robert M. Stern",2003,,A World Bank Publication,,402,0,English,305,avaxhome.ws,,"9780821354100,0821354108",,,,,382/.92/0954,HF3784 .I53 2003,,,OL3705157M,22469,0,,,,,,1,1,5255694,pdf,B4291C4924AC364CCB4303DB737027A9,,,Y. dl_avaxhome 22469  _=nn39.pdf,0,2000-01-01 01:00:00,2016-04-03 02:51:08,261000/b4291c4924ac364ccb4303db737027a9-d.jpg,,
19282632,India and the IT Revolution,,,,Anna Greenspan,2006,1,Palgrave Macmillan,,248,0,English,189,avaxhome.ws,0,"1403939438,9781403939432",,,,,303.48/33/0954,T58.5 .G73 2004,,,,22470,0,,,,,,1,1,5410551,pdf,66BC2D332A302CB518DABE3D6522DE2C,,,Y. dl_avaxhome 22470  _=nn38.pdf,0,2000-01-01 01:00:00,2016-04-03 02:51:08,261000/66bc2d332a302cb518dabe3d6522de2c-d.jpg,,
19282633,The Surgical Examination of Children,,,,"John M. Hutson, Spencer W. Beasley (auth.)",2013,19882nd ed. 2013,Springer Berlin Heidelberg,,XVI 310 p. 376 illus.,0,English,,,,"978-3-642-29813-4,978-3-642-29814-1",,,,,,,10.1007/978-3-642-29814-1,,,,0,,1,0,1,,,1,15546950,pdf,3faa0cc9accd4b6ccbfd4a1b80f70355,,,10.1007%2F978-3-642-29814-1.pdf,0,2000-01-01 01:00:00,2016-04-03 02:51:08,1033000/3faa0cc9accd4b6ccbfd4a1b80f70355-d.jpg,,
19282634,India and the IT Revolution: Networks of Global Culture,,,,Anna Greenspan,2005,,Palgrave Macmillan,,214,0,English,99,avaxhome.ws,0,"9781403939432,1403939438",,,,,303.48/33/0954,T58.5 .G73 2004,,,,22471,0,,,,,,1,1,5458245,pdf,CE52FDAE967A535B3ADA561F98419BAF,fa9a6fc5e3495462b2e5427ad0566bf5,no,Y. dl_avaxhome 22471  _=nn37.pdf,0,2000-01-01 01:00:00,2016-04-03 02:51:08,261000/ce52fdae967a535b3ada561f98419baf-d.jpg,,
19282635,IN SPITE OF THE GODS: THE STRANGE RISE OF MODERN INDIA,,,,EDWARD LUCE,2006,,"LITTLE, BROWN",,414,0,English,314,avaxhome.ws,,"9780316729819,0316729817",,,,,330.954053,,,,OL20189920M,22472,0,,,,,,,1,5844469,pdf,73876EAAA64E13790BD0B723F5A358DF,,,Y. dl_avaxhome 22472  _=nn36.pdf,0,2000-01-01 01:00:00,2016-04-03 02:51:08,261000/73876eaaa64e13790bd0b723f5a358df-d.jpg,,
19282636,"Kashmir in Conflict: India, Pakistan And the Unending War",,,,Victoria Schofield,2003,,Diane Pub Co,,314,0,English,189,avaxhome.ws,,"9780756791094,075679109X",,,,,,,,,OL9499361M,22473,0,,,,,,,1,9639945,pdf,94236126CEBC3B75BF9ADFCD6D4541D2,,,Y. dl_avaxhome 22473  _=nn35.pdf,0,2000-01-01 01:00:00,2016-04-03 02:51:08,261000/94236126cebc3b75bf9adfcd6d4541d2-g.jpg,,
19282637,Speaking of India: Bridging the Communication Gap When Working With Indians,,,,Craig Storti,2007,illustrated edition,Intercultural Press,,221,0,English,260,avaxhome.ws,,"9781931930345,1931930341",,,,,,,,,OL12329721M,22474,0,,,,,,1,1,6073034,pdf,9BFFA39A7D419D509ECA48EA00922845,,,Y. dl_avaxhome 22474  _=nn34.pdf,0,2000-01-01 01:00:00,2016-04-03 02:51:08,261000/9bffa39a7d419d509eca48ea00922845-d.jpg,,
19282638,The Saffron Wave,,,,Thomas Blom Hansen,1999,,Princeton University Press,,300,0,English,189,avaxhome.ws,,"0691006709,9780691006703",,,,,294.5/5/0954,BL1215.P65 H36 1999,,,OL371759M,22475,0,,,,,,,1,5468427,pdf,4938901A55C5D7B2940A60ECF9F5F3E0,,,Y. dl_avaxhome 22475  _=nn33.pdf,0,2000-01-01 01:00:00,2016-04-03 02:51:08,261000/4938901a55c5d7b2940a60ecf9f5f3e0-d.jpg,,
19282639,India: The Emerging Giant,,,,Arvind Panagariya,2008,,"Oxford University Press, USA",,546,0,English,189,avaxhome.ws,,"9780195315035,0195315030",,,,,,,,,OL10135076M,22476,0,,,,,,,1,5847074,pdf,D698FAA2B67F195A2A7D4C58137C1F1A,,,Y. dl_avaxhome 22476  _=nn32.pdf,0,2000-01-01 01:00:00,2016-04-03 02:51:08,261000/d698faa2b67f195a2a7d4c58137c1f1a-d.jpg,,
19282640,India: Emerging Power,,,,Stephen P. Cohen,2001,,Brookings Institution Press,,400,0,English,189,avaxhome.ws,,0195660358,,,,,,,,,,22477,0,,,,,,,1,11276668,pdf,CFCCDF2CAC8DBBDF5A0D219BEA7078A8,,,Y. dl_avaxhome 22477  _=nn31.pdf,0,2000-01-01 01:00:00,2016-04-03 02:51:08,261000/cfccdf2cac8dbbdf5a0d219bea7078a8-d.jpg,,
19282641,Focus on Fathering,,,,Robin Sullivan,2004,,Acer Press,,246,0,English,41,avaxhome.ws,,"9780864314659,0864314655",,,,,,,,,,22478,0,,,,,,1,1,5796747,pdf,22F1ECEBCC7AECB3408D02B098C23072,,,Y. dl_avaxhome 22478  _=nn30.pdf,0,2000-01-01 01:00:00,2016-04-03 02:51:08,261000/22f1ecebcc7aecb3408d02b098c23072-d.jpg,,
19282642,Aboriginal Suicide Is Different: A Portrait of Life And Self Destruction,,,,Colin Tatz,2005,2,Aboriginal Studies Press,,221,0,English,198,avaxhome.ws,,"9780855754983,0855754982",,,,,,,,,OL8301095M,22479,0,,,,,,1,1,5483719,pdf,15B8C7A795DEFF5A2F6C83F13255B427,,,Y. dl_avaxhome 22479  _=nn29.pdf,0,2000-01-01 01:00:00,2016-04-03 02:51:08,261000/15b8c7a795deff5a2f6c83f13255b427-d.jpg,,
19282643,Cycad Classification:,,,,"Terrence Walters, Roy Osborne",2004,First,CABI,,276,0,English,12,avaxhome.ws,,"9780851997414,0851997414",,,,,585/.9/012,QK494 .C93 2004,,,OL22574486M,22480,0,,,,,,1,1,7782368,pdf,616C3B09320234331CF2EFBB10AE5F33,,,Y. dl_avaxhome 22480  _=nn28.pdf,0,2000-01-01 01:00:00,2016-04-03 02:51:08,261000/616c3b09320234331cf2efbb10ae5f33-d.jpg,,
19282644,Reading Comprehension Skills & Strategies Level 4,,Highinterest Reading Comprehension Skills & Strategies,,Edge,2002,,"Saddleback Educational Publishing, Inc.",,146,0,English,183,avaxhome.ws,,"1562540319,9781562540319",,,,,,,,,OL23120153M,22481,0,,,,,,1,1,4794181,pdf,312E63E83475FAFD0F162B3587736BF6,,,Y. dl_avaxhome 22481  _=nn27.pdf,0,2000-01-01 01:00:00,2016-04-03 02:51:08,261000/312e63e83475fafd0f162b3587736bf6-d.jpg,,
19282645,Understanding And Treating Adults With Attention Deficit Hyperactivity Disorder,,,,Brian B. Doyle,2006,1,American Psychiatric Publishing,,356,0,English,147,avaxhome.ws,,"9781585622214,1585622214",,,,,,,,,OL8817518M,22482,0,,,,,,1,1,5897379,pdf,9E3A9D25D344A74AC2A8D850C0A6264B,,,Y. dl_avaxhome 22482  _=nn26.pdf,0,2000-01-01 01:00:00,2016-04-03 02:51:08,261000/9e3a9d25d344a74ac2a8d850c0a6264b-d.jpg,,
19282646,Life-span Communication,,Lea's Communication Series) (Routledge Communication Series,,Loretta L. Pecchioni,2005,2,Lawrence Erlbaum Associates,,324,0,English,260,avaxhome.ws,,"9780805841114,0805841113",,,,,153.6,BF637.C45 L53 2005,,,OL3395474M,22483,0,,,,,,1,1,5407264,pdf,E87A8858EB6B157817B3EA3E60174E8D,,,Y. dl_avaxhome 22483  _=nn25.pdf,0,2000-01-01 01:00:00,2016-04-03 02:51:08,261000/e87a8858eb6b157817b3ea3e60174e8d-d.jpg,,
19282647,Women in Prison: A Reference Handbook,,Contemporary World Issues,,Cyndi Banks,2003,,ABC-CLIO,,241,0,English,,avaxhome.ws,,"9781576079294,1576079295",,,,,,,,,OL12237540M,22484,0,,,,,,1,1,5499639,pdf,365A7A334AEAAD55C8DF527E5ED43E5C,,,Y. dl_avaxhome 22484  _=nn24.pdf,0,2000-01-01 01:00:00,2016-04-03 02:51:08,261000/365a7a334aeaad55c8df527e5ed43e5c-d.jpg,,
19282648,"The Masterful Coaching Fieldbook: Grow Your Business, Multiply Your Profits, Win the Talent War!",,Essential Knowledge Resource,,Robert Hargrove,2007,2,Pfeiffer,,363,0,English,1,avaxhome.ws,,"9780787986025,078798602X",,,,,,,,,OL8149681M,22485,0,,,,,,1,1,6340998,pdf,1D1735094A67DC53F3E4144A1A0BE3D9,,,Y. dl_avaxhome 22485  _=nn23.pdf,0,2000-01-01 01:00:00,2016-04-03 02:51:08,261000/1d1735094a67dc53f3e4144a1a0be3d9-d.jpg,,
19282649,Clinical Manual to Psychosomatic Medicine: A Guide to Consultation-Liaison Psychiatry,,Concise Guides,,"Michael G. Wise, James R. Rundell",2005,1,"American Psychiatric Publishing, Inc.",,352,0,English,147,avaxhome.ws,,"9781585622016,158562201X",,,,,,,,,OL8817507M,22486,0,,,,,,1,1,5624604,pdf,ED4441B15C15DA2AEBA1E552E8DFCFDB,,,Y. dl_avaxhome 22486  _=nn22.pdf,0,2000-01-01 01:00:00,2016-04-03 02:51:08,261000/ed4441b15c15da2aeba1e552e8dfcfdb-d.jpg,,
19282650,Quality Control and Production of Biological Control Agents,,Cabi,,J C van Lenteren,2003,First,CABI,,341,0,English,12,avaxhome.ws,,"9780851996882,0851996884",,,,,632/.96,SB975 .Q35 2003,,,OL3576536M,22487,0,,,,,,1,1,5384549,pdf,DF36BD9692A3FFF833A698F7F64BDC05,,,Y. dl_avaxhome 22487  _=nn21.pdf,0,2000-01-01 01:00:00,2016-04-03 02:51:08,261000/df36bd9692a3fff833a698f7f64bdc05-d.jpg,,
19282651,The Hidden Power of Photoshop CS,,,,Richard Lynch,2004,,Sybex,,368,0,English,63,avaxhome.ws,,"0782142559,9780782142556,9780470113844",,,,,,,,,OL24264771M,22488,0,,,,,,,1,17152617,pdf,E3DEDB00F14495956777BC71EA14AC15,,,Y. dl_avaxhome 22488  _=nn20.pdf,0,2000-01-01 01:00:00,2016-04-03 02:51:08,261000/e3dedb00f14495956777bc71ea14ac15-d.jpg,,
19282652,Palgrave Advances in the Crusades,,Palgrave Advances Hardback,,Helen J. Nicholson,2005,,Palgrave Macmillan,,330,0,English,64,avaxhome.ws,,"9781403912367,140391236X",,,,,909.07,D156.58 .P35 2005,,,OL3422069M,22489,0,,,,,,1,1,5455178,pdf,2F48E8135A8A86665CC4AAF61D604B1F,,,Y. dl_avaxhome 22489  _=nn19.pdf,0,2000-01-01 01:00:00,2016-04-03 02:51:08,261000/2f48e8135a8a86665cc4aaf61d604b1f-d.jpg,,
19282653,"Owning Up: Poverty, Assets and the American Dream",,,,Michelle Miller-Adams,2002,,Brookings Institution Press,,238,0,English,189,avaxhome.ws,,"9780815706205,0815706200",,,,,,,,,OL9775152M,22490,0,,,,,,1,1,7387809,pdf,2AE7C971CCC4AD6893BE767E5FFD3CC2,,,Y. dl_avaxhome 22490  _=nn18.pdf,0,2000-01-01 01:00:00,2016-04-03 02:51:08,261000/2ae7c971ccc4ad6893be767e5ffd3cc2-d.jpg,,
19282654,Potential der Goodwill-Bilanzierung nach IFRS für eine Konvergenz im wertorientierten Rechnungswesen : eine messtheoretische Analyse,,Gabler Edition Wissenschaft,,Andreas Haaker,2008,,Gabler,Wiesbaden,630,0,German,,usenet,to 2012-06,"9783834909534,383490953X",,,,,,,,,,,0,,,,,,,1,2881675,pdf,17fe6691fef1ddbc8dfa4dab3a576b14,,,I:\\usenet_ger\\Potential.der.Goodwill-Bilanzierung.nach.IFRS.fuer.eine.Konvergenz.im.wertorientierten.Rechnungswesen.[Springer].[2008].[q04775].pdf,0,2000-01-01 01:00:00,2016-04-03 02:51:08,884000/17fe6691fef1ddbc8dfa4dab3a576b14-d.jpg,,
19282655,Certified Lotus Professional: Application Development Study Guide,,,,Cate McCoy,2001,,Sybex Inc,,732,0,English,76,avaxhome.ws,,"0782126685,9780782126686,9780585477411",,,,,,,,,OL8096301M,22491,0,,,,,,,1,6298611,pdf,426C2098969EB0F85B30143C6FECF28C,,,Y. dl_avaxhome 22491  _=nn17.pdf,0,2000-01-01 01:00:00,2016-04-03 02:51:08,261000/426c2098969eb0f85b30143c6fecf28c-d.jpg,,
19282656,Clinical Manual of Anxiety Disorders,,,,Dan J. Stein,2004,1,"American Psychiatric Publishing, Inc.",,201,0,English,161,avaxhome.ws,,"9781585620760,1585620769",,,,,,,,,OL18156791M,22492,0,,,,,,1,1,6497301,pdf,6AA105F356DC41D52BB093CBB8ED3C97,,,Y. dl_avaxhome 22492  _=nn16.pdf,0,2000-01-01 01:00:00,2016-04-03 02:51:08,261000/6aa105f356dc41d52bb093cbb8ed3c97-g.jpg,,
19282657,Connecting With Students,,,,Allen N. Mendler,2001,,Association for Supervision & Curriculum Deve,,105,0,English,201,avaxhome.ws,,"9780871205735,0871205734",,,,,,,,,OL8346936M,22497,0,,,,,,1,1,5769199,pdf,1F30CBF8B49A40FA16784216503FF11D,,,Y. dl_avaxhome 22497  _=nn12.pdf,0,2000-01-01 01:00:00,2016-04-03 02:51:08,261000/1f30cbf8b49a40fa16784216503ff11d-d.jpg,,
19282658,British Fascism and the Labour Movement,,,,"Nigel Copsey, Dave Renton",2005,,Palgrave Macmillan,,219,0,English,64,avaxhome.ws,,"9781403939166,1403939160",,,,,335.6/0941/0904,DA566.7 .B665 2005,,,OL22622804M,22498,0,,,,,,1,1,5610051,pdf,295D0913397AE7AD23421AB4E52EAB3F,,,Y. dl_avaxhome 22498  _=nn11.pdf,0,2000-01-01 01:00:00,2016-04-03 02:51:08,261000/295d0913397ae7ad23421ab4e52eab3f-d.jpg,,
19282659,Mansfield Park,,Norton Critical Editions,,"Jane Austen, Claudia L. Johnson",1998,,W. W. Norton & Company,,542,0,English,110,avaxhome.ws,,"0393967913,9780393967913",,,,,823/.7,PR4034 .M3 1998,,,OL1009432M,22509,0,,,,,,,1,8520105,pdf,62306F81D282215E853B3E32271EF1BC,,,Y. dl_avaxhome 22509  _=Austen-mpnce.pdf,0,2000-01-01 01:00:00,2016-04-03 02:51:08,261000/62306f81d282215e853b3e32271ef1bc-d.jpg,,
19282660,Emma,,Norton Critical Editions,,"Jane Austen, Stephen M. Parrish",1999,3rd,W. W. Norton & Company,,465,0,English,110,avaxhome.ws,,"0393972844,9780393972849",,,,,823/.7,PR4034 .E5 2000,,,OL48004M,22519,0,,,,,,,1,7220265,pdf,1F0D083B94E972D012BBBAFF2B978A7A,,,Y. dl_avaxhome 22519  _=Austen-ence.pdf,0,2000-01-01 01:00:00,2016-04-03 02:51:08,261000/1f0d083b94e972d012bbbaff2b978a7a-d.jpg,,
19282661,"Rockets: Sulfur, Sputnik and Scramjets",,,,Peter Macinnis,2004,,Allen & Unwin,,288,0,English,64,avaxhome.ws,,"1865087947,9781865087948,9781741151947",,,,,,,,,OL18511754M,22544,0,,,,,,1,1,1872209,pdf,7FFBE1FFE679DEA4F90215C20ED9092E,,,Y. dl_avaxhome 22544  _=1865087947.pdf,0,2000-01-01 01:00:00,2016-04-03 02:51:08,261000/7ffbe1ffe679dea4f90215c20ed9092e-d.jpg,,
19282662,Elements of Modern X-ray Physics,,,,"Jens Als-Nielsen, Des McMorrow",2001,1,John Wiley & Sons,,337,0,English,264,avaxhome.ws,,"0471498572,9780471498575",,,,,,,,,OL9837520M,22546,0,,,,,,,0,13462910,djvu,DF98518C927B4E64505AA64DA7AF5371,3162c85c043b3043f92573aff4dba82e,no,Y. dl_avaxhome 22546  _=Elements_of_modern_XRay_physics-0471498580.djvu,0,2000-01-01 01:00:00,2016-04-03 02:51:08,261000/df98518c927b4e64505aa64da7af5371-d.jpg,,
19282663,Thinking Through Things: Theorising Artefacts Ethnographically,,UCL,,"Amiria Henare, Martin Holbraad, Sari Wastell",2006,,Routledge,,248,0,English,314,avaxhome.ws,,"1844720721,9781844720729,9780203088791",,,,,306,GN406 .T53 2006,,,OL17211130M,22548,0,,,,,,1,1,1571685,pdf,3023A7BE04A3CF3C4AE63413695C78D3,,,Y. dl_avaxhome 22548  _=1844720721.pdf,0,2000-01-01 01:00:00,2016-04-03 02:51:08,261000/3023a7be04a3cf3c4ae63413695c78d3-d.jpg,,
19282664,Topology from the Differentiable Viewpoint,,,,John Willard Milnor,1988,,University of Virginia Press,,76,0,English,121,avaxhome.ws,,"0813901812,9780813901817",,,,,,,,,OL16754690M,22555,0,,,,0,0,,1,1654184,pdf,22E289C3FD1879FF0869418614E5CE86,,,Y. dl_avaxhome 22555  _=milnor_topology_from_the_differentiable_viewpoint.pdf,0,2000-01-01 01:00:00,2016-04-03 02:51:08,261000/22e289c3fd1879ff0869418614e5ce86-g.jpg,,
19282665,Understanding Unjust Enrichment,,,,"Jason Neyers, Mitchell McInnes, Stephen Pitel",2004,,Hart Publishing,,430,0,English,189,avaxhome.ws,,"1841134236,9781841134239,9781847310972",,,,,346.02/9,K920 .U53 2004,,,OL3382602M,22588,0,,,,,,1,1,1421900,pdf,DACC37214FA445BFA06484BFAB10DB20,,,Y. dl_avaxhome 22588  _=1841134236.pdf,0,2000-01-01 01:00:00,2016-04-03 02:51:08,261000/dacc37214fa445bfa06484bfab10db20-d.jpg,,
19282666,To the Boy in Berlin,,,,"Elizabeth Honey, Heike Brandt",2007,,Allen & Unwin,,288,0,English,41,avaxhome.ws,,"9781741750041,1741750040",,,,,,,,,,22590,0,,,,,,,1,5418609,pdf,90A7ADB6CD06E03B5B8D71F4C4A9F483,,,Y. dl_avaxhome 22590  _=1741750040.pdf,0,2000-01-01 01:00:00,2016-04-03 02:51:08,261000/90a7adb6cd06e03b5b8d71f4c4a9f483-d.jpg,,
19282667,"Therapy of Moderate-to-Severe-Psoriasis, ",,,,"Gerald Weinstein, Alice Gottlieb",2003,2,Informa Healthcare,,384,0,English,147,avaxhome.ws,,"9780824741167,0824741161",,,,,,,,,OL3705659M,22595,0,,,,,,,,16852433,rar,1F0C8D45DF5BC4353E08D75E2054603D,,,22595 =Therapy_of_Moderate-to-Severe-Psoriasis.rar,0,2000-01-01 01:00:00,2016-04-03 02:51:08,261000/1f0c8d45df5bc4353e08d75e2054603d-d.jpg,,
19282668,Endgame in Chess,,,,Fred Reinfeld,,,Dover Publications Inc. boo,,93,0,English,46,avaxhome.ws,,"0486204170,9780486204178",,,,,,,,,,22596,0,,,,,1,,1,4005990,pdf,0F46BD2787EE42248E6BBBDF12298AEC,,,Y. dl_avaxhome 22596  _=reinfeld252c_fred_-_reinfeld_on_the_end-game_of_chess.pdf,0,2000-01-01 01:00:00,2016-04-03 02:51:08,261000/0f46bd2787ee42248e6bbbdf12298aec-g.jpg,,
19282669,Medical Management of Infectious Disease,,Clinical Guides to Medical Management,,Christopher Grace,2003,1,Informa Healthcare,,896,0,English,147,avaxhome.ws,,"9780824708504,0824708504",,,,,,,,,OL8124909M,22601,0,,,,,,,,37383272,rar,F308397B1802F41764BADCF8483151BA,,,22601 =Medical_Management_of_Infectious_Disease.rar,0,2000-01-01 01:00:00,2016-04-03 02:51:08,261000/f308397b1802f41764badcf8483151ba-d.jpg,,
19282670,"Change Your Handwriting, Change Your Life Workbook",,Ages 13+,,Bart A. Baggett,2000,2000,Empresse Publishing,,70,0,English,198,avaxhome.ws,,"9781882929108,1882929101",,,,,,,,,OL12148147M,22610,0,,,,,,,1,7273014,pdf,4FF1ABCE5BA56F391AA0C7C8D8E40770,,,Y. dl_avaxhome 22610  _=Baggett-Change.Your.Handwriting.Change.Your.Life-1882929101.pdf,0,2000-01-01 01:00:00,2016-04-03 02:51:08,261000/4ff1abce5ba56f391aa0c7c8d8e40770-d.jpg,,
19282671,Small Business Survival Book: 12 Surefire Ways for Your Business to Survive and Thrive,,,,"Barbara Weltman, Jerry Silberman",2006,,Wiley,,254,0,German,1,avaxhome.ws,,"9780471753681,0471753688",,,,,658.02/2,HD62.7 .W46 2006,,,OL3413238M,22624,0,,,,,,1,1,2341431,pdf,A99283E7D65E2A0C7E5879ABC507BDC3,,,Y. dl_avaxhome 22624  _=SmBusSurv.pdf,0,2000-01-01 01:00:00,2016-04-03 02:51:08,261000/a99283e7d65e2a0c7e5879abc507bdc3-d.jpg,,
19282672,An Introductory Treatise On Dynamical Astronomy,,,,H. C Plummer,1960,,Dover Publications,,365,0,English,264,avaxhome.ws,,"9780548549766,0548549761",,B0006AWUQ6,,,,,,,,22630,0,,,,,1,,1,8304492,djvu,BD644B90D7D26518C0AC425FB0EA2EF7,,,Y. dl_avaxhome 22630  _=90007.090505084945.djvu,0,2000-01-01 01:00:00,2016-04-03 02:51:08,261000/bd644b90d7d26518c0ac425fb0ea2ef7-d.jpg,,
19282673,Gitanjali,,,,Rabindranath Tagore,2004,,Full Circle Publishing Ltd,,42,0,English,109,avaxhome.ws,,"9788176211123,8176211125",,,,,,,,,OL20320231M,22634,0,,,,,,,1,134449,pdf,7838728BC0E7327536119C8A93957F08,,,Y. dl_avaxhome 22634  _=Gitanjali_by_RabindranathTagore.pdf,0,2000-01-01 01:00:00,2016-04-03 02:51:08,261000/7838728bc0e7327536119c8a93957f08-g.jpg,,
19282674,The Secret Door To Success,,,,Florence Scovel Shinn,2009,,Wilder Publications,,46,0,English,41,avaxhome.ws,,"9781604591507,1604591501",,,,,,,,,,22643,0,,,,,,,1,226273,pdf,793722A36D623F89B42B5CE0DBA1FA3B,,,22643 =477.pdf,0,2000-01-01 01:00:00,2016-04-03 02:51:08,261000/793722a36d623f89b42b5ce0dba1fa3b-d.jpg,,
19282675,Insects,,,,R. E Snodgrass,1967,1,Constable,,431,0,English,12,avaxhome.ws,,"9781557095305,1557095302",,B0000COD12,,,,,,,OL8597903M,22666,0,,,,,1,,0,25181703,pdf,5FB71BE4FC4EB9CB4AAE73196E953745,,,Y. dl_avaxhome 22666  _=39088001578236.pdf,0,2000-01-01 01:00:00,2016-04-03 02:51:08,261000/5fb71be4fc4eb9cb4aae73196e953745-d.jpg,,
19282676,"Fitness Made Simple: The Power to Change Your Body, The Power to Change Your Life",,,,John Basedow,2007,1,McGraw-Hill,,287,0,English,164,avaxhome.ws,,"9780071497084,0071497080",,,,,613.7,GV481 .B275 2008,10.1036/0071497080,,OL21095622M,22705,0,,,,,,,1,9148390,pdf,5E3EE56FB6E91E4518DF82F92D1E76F5,,,Y. dl_avaxhome 22705  _=Fitness_Made_Simple.pdf,0,2000-01-01 01:00:00,2016-04-03 02:51:08,261000/5e3ee56fb6e91e4518df82f92d1e76f5-d.jpg,,
19282677,Olive Processing Waste Management,Volume 5,Literature Review and Patent Survey,,"M. Niaounakis, C.P. Halvadakis",2006,2,Pergamon,,517,0,English,6,avaxhome.ws,,"9780080448510,0080448518",,,,,,,,,OL18257907M,22709,0,,,,,,,1,3207138,pdf,DA8841DDA54866FEA3B8992813FFBACC,,,Y. dl_avaxhome 22709  _=OliveProces.pdf,0,2000-01-01 01:00:00,2016-04-03 02:51:08,261000/da8841dda54866fea3b8992813ffbacc-d.jpg,,
19282678,Formal Issues in Lexical-Functional Grammar,,Center for the Study of Language and Information - CSLI Lecture Notes 47,,"John Maxwell III, Ronald M. Kaplan, Mary Dalrymple, Annie Zaenen",1994,,CSLI Publications,,469,0,English,314,avaxhome.ws,0,"9781881526377,1881526372",,,,,415,P158.25 .F67 1995,,,,22711,0,,,,,,,1,8163698,pdf,74A7D7E24D1EA3C4DB99FF2DCE4058DD,,,Y. dl_avaxhome 22711  _=Lex.pdf,0,2000-01-01 01:00:00,2016-04-03 02:51:08,261000/74a7d7e24d1ea3c4db99ff2dce4058dd-g.jpg,,
19282679,The Unofficial Guide to Real Estate Investing,,,,"Spencer Strauss, Martin Stone",2003,2,Wiley,,506,0,English,1,avaxhome.ws,,"9780764537097,0764537091",,,,,,,,,OL3708077M,22712,0,,,,,,,1,2041895,pdf,F8A1FCC557FF6B528DC5B4F24A6910DB,,,Y. dl_avaxhome 22712  _=The_Unofficial_Guide_to_Real_Estate_Investing.pdf,0,2000-01-01 01:00:00,2016-04-03 02:51:08,261000/f8a1fcc557ff6b528dc5b4f24a6910db-d.jpg,,
19282680,This Is PK Mind Over Matter,,,,Gita Sudarshanananda,2008,,Shakti Karma Bhakti Yoga International Society,,10,0,English,198,avaxhome.ws,,"9780615237374,0615237371",,,,,,,,,,22718,0,,,,,,,1,55767,pdf,3F42DF561404C927C5D8FF75D54873D0,,,22718 =471.pdf,0,2000-01-01 01:00:00,2016-04-03 02:51:08,261000/3f42df561404c927c5d8ff75d54873d0-d.jpg,,
19282681,Dreamweaver CS4 For Dummies,,,,Janine Warner,2008,illustrated edition,For Dummies,,460,0,English,183,avaxhome.ws,,"9780470345023,9780470434970,0470345020",,,,,"006.7/86,006.7",TK5105.8885.D74 W363 2008,,,OL23110400M,22730,0,,,,,,,1,11490800,pdf,C0CBD82E4BD7AFC0F514960F877D41DA,,,Y. dl_avaxhome 22730  _=DreamwDu.pdf,0,2000-01-01 01:00:00,2016-04-03 02:51:08,261000/c0cbd82e4bd7afc0f514960f877d41da-d.jpg,,
19282682,Microbiological Contamination Control in Pharmaceutical Clean Rooms,,,,Nigel Halls,2004,1,CRC Press,,200,0,English,302,avaxhome.ws,,"9780849323003,0849323002",,,,,,,,,OL18226935M,22735,0,,,,,,,,3463044,rar,9F89F5B0EC95A8A47419A14BEC35AF4D,,,22735 =Micro_Conta_Cont_Pharma_Cle_Ro.rar,0,2000-01-01 01:00:00,2016-04-03 02:51:08,261000/9f89f5b0ec95a8a47419a14bec35af4d-d.jpg,,
19282683,Technique in Chess,,,,Gerald Abrahams,1973,2,Dover Publications,,110,0,English,46,avaxhome.ws,,"9780486229539,048622953X",,,,,794.1/2,GV1445 .A18 1973,,,OL21478010M,22759,0,,,,,,1,0,8949676,pdf,BAC851770D73BA4DA475CB8894EDEAFF,,,Y. dl_avaxhome 22759  _=geraldabrahams-techniqueinchess_axis.pdf,0,2000-01-01 01:00:00,2016-04-03 02:51:08,261000/bac851770d73ba4da475cb8894edeaff-d.jpg,,
19282684,MCTS Self-Paced Training Kit (Exam 70-503): Microsoft .NET Framework 3.5-Windows Communication Foundation: Microsoft .Net Framework 3.5 Windows Communication Foundation (PRO-Certification),,,,"Bruce Johnson, Peter Madziak, Sara Morgan",2008,1,Microsoft Press,,635,0,English,87,avaxhome.ws,,"9780735625655,0735625654",,,,,006.7/882,QA76.3 .J6393 2009,,,OL24022167M,22773,0,,,,,,,0,14064127,pdf,DCA6BCE8128D0D975CA7F7E07667FCB8,,,Y. dl_avaxhome 22773  _=625655eBook.pdf,0,2000-01-01 01:00:00,2016-04-03 02:51:08,261000/dca6bce8128d0d975ca7f7e07667fcb8-d.jpg,,
19282685,From Where You Dream: The Process of Writing Fiction,,,,"Robert Olen Butler, Janet Burroway",2006,,Grove Press,,281,0,English,,avaxhome.ws,,"9780802142573,0802142575",,,,,,,,,OL7875138M,22789,0,,,,,,,0,6709516,pdf,E39C7C8F6A41632BAA7DE5583AD0863B,,,Y. dl_avaxhome 22789  _=Dream.pdf,0,2000-01-01 01:00:00,2016-04-03 02:51:08,261000/e39c7c8f6a41632baa7de5583ad0863b-d.jpg,,
19282686,Blackwell Handbook of Childhood Social Development,,Blackwell Handbooks of Developmental Psychology,,"Peter K. Smith, Craig H. Hart",2002,First,Wiley-Blackwell,,682,0,English,,avaxhome.ws,,"0631217525,9780631217527,9780585468174",,,,,,,,,OL17056142M,22793,0,,,,,1,1,1,4692878,pdf,802B29DDFED399B4FFE0BF9B9EB018DE,,,Y. dl_avaxhome 22793  _=ChildhSoDev.pdf,0,2000-01-01 01:00:00,2016-04-03 02:51:08,261000/802b29ddfed399b4ffe0bf9b9eb018de-d.jpg,,
19282687,Practice and Principles of Pharmaceutical Medicine,,,,"Andrew J. Fletcher, Lionel D. Edwards, Anthony W. Fox, Peter D. Stonier",2002,,Wiley,,530,0,English,302,avaxhome.ws,,"0471986550,0470846291",,,,,615/.19,RM301.25 .P75 2002,,,OL10296420M,22801,0,,,,,,,1,4853307,pdf,EE12F8B7585F272074F3B3A593FCFA6F,,,Y. dl_avaxhome 22801  _=Principles_and_Practice_of_Pharmaceutical_Medicine_(Wiley).pdf,0,2000-01-01 01:00:00,2016-04-03 02:51:08,261000/ee12f8b7585f272074f3b3a593fcfa6f-d.jpg,,
19282688,The Memory Program,,,,D. P. Devanand,2001,1,Wiley,,263,0,English,198,avaxhome.ws,,"9780471398332,0471398330",,,,,,,,,OL9755841M,22866,0,,,,,,,1,5238891,pdf,86CD0C6CF612531B6EFDAB40342A4BBD,,,Y. dl_avaxhome 22866  _=oo01.pdf,0,2000-01-01 01:00:00,2016-04-03 02:51:08,261000/86cd0c6cf612531b6efdab40342a4bbd-d.jpg,,
19282689,Wireless Communications Research Trends,,,,Tong S. Lee,2008,,Nova Science Publishers,,394,0,English,260,avaxhome.ws,,"9781600216749,1600216749,9781606926932",,,,,621.384,TK5103.2 .W5725 2007,,,OL12503740M,22951,0,,,,,,1,1,4040530,pdf,CA123C93F3FEDD7AD6A073E34D353F59,,,Y. dl_avaxhome 22951  _=WirelessCommunicationsResearchTrends_6.pdf,0,2000-01-01 01:00:00,2016-04-03 02:51:08,261000/ca123c93f3fedd7ad6a073e34d353f59-d.jpg,,
19282690,Calculus in Context,,,,"James Callahan, David A. Cox, Kenneth R. Hoffman, Donal O'Shea, Harriet Pollatsek, Lester Senechal",1995,,W. H. Freeman,,816,0,English,117,avaxhome.ws,,"9780716726302,0716726300",,,,,515/.35,QA303 .C1757 1995,,,OL1119584M,22958,0,,,,,,,,8460010,rar,6C255B802A6CB589A1A2D7E8A6D04B7E,,,22958 =0716726300.rar,0,2000-01-01 01:00:00,2016-04-03 02:51:08,261000/6C255B802A6CB589A1A2D7E8A6D04B7E-g.jpg,,
19282691,Cambridge Practice Tests for PET 1 Student's book,,,,"Louise Hashemi, Barbara Thomas",1996,,Cambridge University Press,,66,0,English,188,avaxhome.ws,,"9780521499385,0521499380",,,,,,,,,OL7742799M,22963,0,,,,,,,0,12071599,pdf,B16FF02AA1C31770FA6CB7F306764C73,,,Y. dl_avaxhome 22963  _=Cambridge_Practice_Tests_for_PET_1-book.pdf,0,2000-01-01 01:00:00,2016-04-03 02:51:08,261000/b16ff02aa1c31770fa6cb7f306764c73-d.jpg,,
19282692,Invest in Your-SELF: Six Secrets to a Rich Life,,,,"Marc Eisenson, Gerri Detweiler, Nancy Castleman",2001,1,Wiley,,336,0,English,1,avaxhome.ws,,"9780471399971,0471399973",,,,,,,,,OL7616653M,22978,0,,,,,,,,1307190,chm,BFACC2D3D34037A60C6A079A67C82EDE,,,Y. dl_avaxhome 22978  _=Invest_in_Your-SELF.CHM,0,2000-01-01 01:00:00,2016-04-03 02:51:08,261000/bfacc2d3d34037a60c6a079a67c82ede-d.jpg,,
19282693,Careers for Film Buffs & Other Hollywood Types,,,,Jaq Greenspon,2003,2,McGraw-Hill,,169,0,English,1,avaxhome.ws,,"9780071405744,0071405747",,,,,791.43/02/93,PN1995.9.P75 G68 2003,10.1036/0071426280,,OL3578884M,22989,0,,,,,,1,1,735134,pdf,168ABB0043821FA0F07E9991D6C59F6F,,,Y. dl_avaxhome 22989  _=0071405747.pdf,0,2000-01-01 01:00:00,2016-04-03 02:51:08,261000/168abb0043821fa0f07e9991d6c59f6f-d.jpg,,
19282694,"Air Pollution: Measurement, Modelling and Mitigation",,Clay's Library of Health and the Environment,,Jeremy Colls,2002,2,Routledge,,592,0,English,31,avaxhome.ws,,"9780415255653,0415255651",,,,,363.739/2,TD883 .A4713 2002,,,OL3571136M,23019,0,,,,,,,,15692698,rar,1E2A0ACCFE568CFA28FC4671BE8F38DD,,,23019 =AiPoll.rar,0,2000-01-01 01:00:00,2016-04-03 02:51:08,261000/1e2a0accfe568cfa28fc4671be8f38dd-d.jpg,,
19282695,A History of Political Thought: From the Middle Ages to the Renaissance,,,,Janet Coleman,2000,,Wiley-Blackwell,,317,0,English,64,avaxhome.ws,,"0631186522,9780631186526",,,,,,,,,OL22400008M,23051,0,,,,,1,,0,32711381,pdf,3EE972F0D2AEF5AA356D1B0A56BF88F8,,,Y. dl_avaxhome 23051  _=History_of_Political_Thought_2.pdf,0,2000-01-01 01:00:00,2016-04-03 02:51:08,261000/3ee972f0d2aef5aa356d1b0a56bf88f8-d.jpg,,
19282696,Counterexamples in Topology,,,,"Lynn Arthur Steen, J. Arthur Seebach Jr.",1995,,Dover Publications,,112,0,English,121,avaxhome.ws,,"048668735X,9780486687353",,,,,514/.3,QA611.3 .S74 1995,,,OL780878M,23071,0,,,,,1,,0,3447500,djvu,995FC65FD577F2C7E6472B96C6B16989,,,Y. dl_avaxhome 23071  _=ss1970ctopology.djvu,0,2000-01-01 01:00:00,2016-04-03 02:51:08,261000/995fc65fd577f2c7e6472b96c6b16989-d.jpg,,
19282697,Contemptible: A Soldier's Tale of the Great War,,WW1 series,,"Casualty, Arnold Gyde",2008,,Diggory Press,,90,0,English,64,avaxhome.ws,,"9781847780539,1847780539",,,,,,,,,,23105,0,,,,,,,1,479185,pdf,9C14E9F4B63642EB37E24B9C02FC6C0D,,,23105 =393.pdf,0,2000-01-01 01:00:00,2016-04-03 02:51:08,261000/9c14e9f4b63642eb37e24b9c02fc6c0d-d.jpg,,
19282698,Price of Passion,,Harlequin Presents: Pregnant Mistresses,,Susan Napier,2008,,Harlequin,,196,0,English,110,avaxhome.ws,,"9780373820610,0373820615",,,,,,,,,OL10749988M,23117,0,,,,,,,1,1809095,pdf,7DB8D728453B61905F474AE78BEECB77,,,Y. dl_avaxhome 23117  _=387.pdf,0,2000-01-01 01:00:00,2016-04-03 02:51:08,261000/7db8d728453b61905f474ae78beecb77-d.jpg,,
19282699,Designing Indoor Solar Products,,,,Julian Randall,2005,,Wiley,,198,0,English,210,avaxhome.ws,,"9780470016619,0470016612",,,,,,,,,OL22636420M,23141,0,,,,,,,,3270179,rar,A3A3F58AA022780D5C1B20F9E38FEC82,,,23141 =DeSolProd.rar,0,2000-01-01 01:00:00,2016-04-03 02:51:08,261000/a3a3f58aa022780d5c1b20f9e38fec82-d.jpg,,
19282700,HOW TO FOSSILISE YOUR HAMSTER: AND OTHER AMAZING EXPERIMENTS FOR THE ARMCHAIR SCIENTIST,,,,Mick O'Hare,2007,,Profile,,225,0,English,180,avaxhome.ws,,"1846680441,9781846680441",,,,,,,,,,23146,0,,,,,1,,1,3658582,pdf,F0F2325C2D37ABB556C2E1F032EA6505,,,Y. dl_avaxhome 23146  _=1846680441.pdf,0,2000-01-01 01:00:00,2016-04-03 02:51:08,261000/f0f2325c2d37abb556c2e1f032ea6505-d.jpg,,
19282701,The Blackwell Handbook of Strategic Management,,Blackwell Handbooks in Management,,John McGee,2006,2,Wiley-Blackwell,,739,0,English,,avaxhome.ws,,"1405118288,9781405118286",,,,,"658/.003 s,658.4/012/03","HD30.15 .B455 2005 vol. 12,HD30.28 .B455 2005",10.1111/b.9780631218616.2006.X,,OL17903646M,23148,0,,,,,1,,1,6486315,pdf,DDCAC110236ADC425A7C85B4248B6719,,,Y. dl_avaxhome 23148  _=HandbookStrategicManagement.pdf,0,2000-01-01 01:00:00,2016-04-03 02:51:08,261000/ddcac110236adc425a7c85b4248b6719-d.jpg,,
19282702,"Development, Trade, and the Wto: A Handbook",,World Bank Trade and Development Series,,"Bernard M. Hoekman, Aaditya Mattoo, Philip English",2002,,World Bank Publications,,700,0,English,,avaxhome.ws,,"082134997X,9780821349977",,,,,382,HF1385 .D48 2002,,,OL14437735M,23149,0,,,,,,1,1,4503246,pdf,F2FD49129103C8D56257A8F8A8C0A79B,,,Y. dl_avaxhome 23149  _=development_trade_and_the_wto.pdf,0,2000-01-01 01:00:00,2016-04-03 02:51:08,261000/f2fd49129103c8d56257a8f8a8c0a79b-d.jpg,,
19282703,Ready to Write: A First Composition Text ,,,,"Karen Lourie Blanchard, Christine Baker Root",1994,2nd,Longman Publishing Group,,116,0,English,314,avaxhome.ws,,"0201859998,9780201859997",,,,,428.2/4,PE1128,,,OL19133967M,23156,0,,,,,1,1,0,15240227,pdf,CC64521BB0AF2607F304B2C3154915A9,,,Y. dl_avaxhome 23156  _=ReWritText.PDF,0,2000-01-01 01:00:00,2016-04-03 02:51:08,261000/cc64521bb0af2607f304b2c3154915a9-d.jpg,,
19282704,After Dark,,,,Wilkie Collins,2004,,Wildside Press,,381,0,English,110,avaxhome.ws,,"0809599082,9780809599080",,,,,,,,,OL7978872M,23157,0,,,,,1,,1,1286681,pdf,65E91D90974B062CC538A3C52587483F,,,Y. dl_avaxhome 23157  _=After_Dark.pdf,0,2000-01-01 01:00:00,2016-04-03 02:51:08,261000/65e91d90974b062cc538a3c52587483f-d.jpg,,
19282705,Variation in Working Memory,,,,"Christopher Jarrold, Andrew R.A. Conway, Michael J Kane, Akira Miyake, John N Towse",2007,1,"Oxford University Press, USA",,343,0,English,198,avaxhome.ws,,"9780195168631,0195168631",,,,,,,,,OL17229647M,23158,0,,,,,,,1,6009586,pdf,F73EE40DAB0D3A60B99BE17640B5C6CA,,,Y. dl_avaxhome 23158  _=oo10.pdf,0,2000-01-01 01:00:00,2016-04-03 02:51:08,261000/f73ee40dab0d3a60b99be17640b5c6ca-d.jpg,,
19282706,Handbook of Episodic Memory,,Handbook of Behavioral Neuroscience Volume 18,,"Ekrem Dere, Alexander Easton, Lynn Nadel, Joe P Huston",2008,1,Elsevier Science,,612,0,English,,avaxhome.ws,,"9780444531742,0444531742",,,,,,,10.1016/S1569-7339,,,23160,0,,,,,,1,1,17325786,pdf,54C0A8C8F1CF11959D46FA545293488C,,,Y. dl_avaxhome 23160  _=oo08.pdf,0,2000-01-01 01:00:00,2016-04-03 02:51:08,261000/54c0a8c8f1cf11959d46fa545293488c-d.jpg,,
19282707,Atlas of Transvaginal Endoscopy,,,,"Stephen Gordts, Hugo C. Verhoeven, Rudi Campo, Ivo Brosens",2007,1,Informa Healthcare,,124,0,English,147,avaxhome.ws,,"1842143204,9781842143209,9780203014301",,,,,618.107545,QM421 .A87 2007,,,OL22744046M,23165,0,,,,,1,,1,6218685,pdf,F6CF8380632E6C82191C3C75AE33451E,,,Y. dl_avaxhome 23165  _=1842143204.pdf,0,2000-01-01 01:00:00,2016-04-03 02:51:08,261000/f6cf8380632e6c82191c3c75ae33451e-d.jpg,,
19282708,Japanese Verbs and Essentials of Grammar,,,,Rita Lampkin,2004,2,McGraw-Hill,,143,0,English,314,avaxhome.ws,,"007143514X,9780071435147",,,,,496/.56,PL585 .L26 2004,,,OL18396698M,23210,0,,,,,,,0,16061784,pdf,0DAF37DF4C70D687A1AD4485F9AB518C,,,Y. dl_avaxhome 23210  _=Japanese_Verbs_Grammar.pdf,0,2000-01-01 01:00:00,2016-04-03 02:51:08,261000/0daf37df4c70d687a1ad4485f9ab518c-d.jpg,,
19282709,Optimization Theory with Applications,,,,Donald A. Pierre,1986,,Dover Publications,,637,0,English,136,avaxhome.ws,,"9780486652054,048665205X",,,,,519,QA402.5 .P5 1986,,,OL2713398M,23218,0,,,,,,,0,15643637,pdf,E48CE8475F61846D8D53FD1AABD5A31B,,,Y. dl_avaxhome 23218  _=pierre.pdf,0,2000-01-01 01:00:00,2016-04-03 02:51:08,261000/e48ce8475f61846d8d53fd1aabd5a31b-d.jpg,,
19282710,Mathematical Foundations of Quantum Statistics,,Dover Books on Physics,,A. Y. Khinchin,1998,,Dover Publications,,122,0,English,113,avaxhome.ws,,"9780486400259,0486400255",,,,,530.13/3/0151,QC174.4 .K413 1998,,,OL699378M,23226,0,,,,,,,1,4068003,djvu,119F1F491F74F096496FF97789EC6434,,,Y. dl_avaxhome 23226  _=40860.090503092008.djvu,0,2000-01-01 01:00:00,2016-04-03 02:51:08,261000/119f1f491f74f096496ff97789ec6434-d.jpg,,
19282711,Mathematical Foundations of Information Theory,,,,A. Ya. Khinchin,1957,,Dover Publications,,142,0,English,113,avaxhome.ws,,"9780486604343,0486604349",,,,,,,,,,23229,0,,,,,,,1,10050210,djvu,94A89EB675E29A434121677A00617F0C,,,Y. dl_avaxhome 23229  _=84202.090503121939.djvu,0,2000-01-01 01:00:00,2016-04-03 02:51:08,261000/94a89eb675e29a434121677a00617f0c-d.jpg,,
19282712,The Black Robe,,Pocket Classics,,Wilkie Collins,1994,,Sutton Publishing,,340,0,English,110,avaxhome.ws,,"0750906545,9780750906548",,,,,823.8,,,,OL18195685M,23238,0,,,,,1,,1,754078,pdf,E4A62412662B8174E0AE25FDF921C9A2,,,Y. dl_avaxhome 23238  _=The_Black_Robe.pdf,0,2000-01-01 01:00:00,2016-04-03 02:51:08,261000/e4a62412662b8174e0ae25fdf921c9a2-d.jpg,,
19282713,The Haunted Hotel,,,,Wilkie Collins,1982,,Dover Publications,,199,0,English,110,avaxhome.ws,,"9780486243337,0486243338",,,,,823/.8,PR4494 .H38 1982,,,OL24946483M,23249,0,,,,,,,1,913145,pdf,D957FA9535B95F2C0D8377075597E381,,,Y. dl_avaxhome 23249  _=The_Haunted_Hotel.pdf,0,2000-01-01 01:00:00,2016-04-03 02:51:08,261000/d957fa9535b95f2c0d8377075597e381-d.jpg,,
19282714,"Quantum Computing Devices: Principles, Designs, and Analysis",,Chapman & Hall/CRC Applied Mathematics & Nonlinear Science,,"Goong Chen, David A. Church, Berthold-Georg Englert, Carsten Henkel, Bernd Rohwedder, Marlan O. Scully, M. Suhail Zubairy",2006,1,Chapman and Hall/CRC,,565,0,English,86,avaxhome.ws,,"9781584886815,1584886811",,,,,004.1,QA76.889 .Q832 2007,,,OL17881607M,23269,0,,,,,,,1,8885201,pdf,FE38CCCA519BD0B783F71D8AA1883843,,,Y. dl_avaxhome 23269  _=QuCompDev.pdf,0,2000-01-01 01:00:00,2016-04-03 02:51:08,261000/fe38ccca519bd0b783f71d8aa1883843-d.jpg,,
19282715,Designing Performance Assessment Systems for Urban Teacher Preparation,,,,Francine P. Peterman,2005,1,Routledge,,207,0,English,,avaxhome.ws,,"9780805853841,0805853847",,,,,,,,,OL11281151M,23317,0,,,,,,,1,11875156,pdf,EDBAEB37E2F0DF2319B2CD9597A54FC6,,,Y. dl_avaxhome 23317  _=0805853847.pdf,0,2000-01-01 01:00:00,2016-04-03 02:51:08,261000/edbaeb37e2f0df2319b2cd9597a54fc6-d.jpg,,
19282716,Statistical Methods in e-Commerce Research,,Statistics in Practice,,"Wolfgang Jank, Galit Shmueli",2008,First Edition,Wiley-Interscience,,431,0,English,11,avaxhome.ws,,"0470120126,9780470120125,9780470323182",,,,,381/.142015195,HF5548.32 .J368 2008,,,OL16419833M,23329,0,,,,0,0,,1,24148868,pdf,E5700271257A2E054624D74C6F562486,,,Y. dl_avaxhome 23329  _=EcomRes.pdf,0,2000-01-01 01:00:00,2016-04-03 02:51:08,261000/e5700271257a2e054624d74c6f562486-d.jpg,,
19282717,Unmasking Buddhism,,,,Bernard Faure,2009,1,Wiley-Blackwell,,162,0,English,205,avaxhome.ws,,"140518065X,9781405180658",,,,,294.3,BQ4022 .F38 2009,,,OL22685542M,23341,0,,,,0,0,,1,803388,pdf,E334DA9F0DD3608BB9A0AC59BE776B81,,,Y. dl_avaxhome 23341  _=Bernard Faure - Unmasking Buddhism.pdf,0,2000-01-01 01:00:00,2016-04-03 02:51:08,261000/e334da9f0dd3608bb9a0ac59be776b81-d.jpg,,
19282718,Microsoft Exchange Server 2007 For Dummies,,,,John Paul Mueller,2008,illustrated edition,For Dummies,,386,0,English,183,avaxhome.ws,,"9780470398661,0470398663",,,,,,,,,,23356,0,,,,,,,1,11379455,pdf,7DC4237D4673BE77733BB533B7176A22,,,Y. dl_avaxhome 23356  _=MicExServDum.pdf,0,2000-01-01 01:00:00,2016-04-03 02:51:08,261000/7dc4237d4673be77733bb533b7176a22-d.jpg,,
19282719,"Neurobiology of Learning and Memory, ",,,,"Raymond P. Kesner, Joe L. Martinez  Jr.",2007,2,Academic Press,,624,0,English,183,avaxhome.ws,,"9780123725400,0123725402",,,,,612.8/2,QP408 .N492 2007,,,OL10071939M,23372,0,,,,,,,,36686766,rar,DE87D96345147F4D82D3DFF5CF03AAFE,,,23372 =0123725402.rar,0,2000-01-01 01:00:00,2016-04-03 02:51:08,261000/de87d96345147f4d82d3dff5cf03aafe-d.jpg,,
19282720,"Eicosanoids, Aspirin, and Asthma",,Lung Biology in Health & Disease,,Andrew Szczeklik,1998,1,Informa Healthcare,,648,0,English,,avaxhome.ws,,"9780824701468,0824701461",,,,,616.2/3807,RC591 .E36 1998,,,OL346261M,23385,0,,,,,,,,17843749,rar,FB81D84393157FB400AA1A4D42645233,,,23385 =0824701461.rar,0,2000-01-01 01:00:00,2016-04-03 02:51:08,261000/fb81d84393157fb400aa1a4d42645233-d.jpg,,
19282721,Coping With Methuselah: The Impact of Molecular Biology on Medicine and Society,,,,"Henry J. Aaron, William B. Schwartz, Brookings Institution",2004,,Brookings Institution Press,,264,0,English,147,avaxhome.ws,,"9780815700401,0815700407",,,,,,,,,OL18211068M,23389,0,,,,,,,,11963698,rar,EF878FBFD2B5A99448A040334C2A2AA9,,,23389 =0815700407.rar,0,2000-01-01 01:00:00,2016-04-03 02:51:08,261000/ef878fbfd2b5a99448a040334c2a2aa9-d.jpg,,
19282722,The Philosophy of Mathematics: Translated from Cours de Philosophie Positive by W. M. Gillespie,,Dover Phoenix Editions,,Auguste Comte,2005,,Dover Publications,,284,0,English,113,avaxhome.ws,,"9780486442495,0486442497",,,,,,,,,OL7639718M,23390,0,,,,,,,1,20591133,pdf,6C81974F77A83B4A97D7F865B7383236,,,Y. dl_avaxhome 23390  _=the_philosophy_of_mathematics.pdf,0,2000-01-01 01:00:00,2016-04-03 02:51:08,261000/6c81974f77a83b4a97d7f865b7383236-d.jpg,,
19282723,Philosophy as a Way of Life: Spiritual Exercises from Socrates to Foucault,,,,"Pierre Hadot, Arnold Davidson",1995,,Wiley-Blackwell,,162,0,English,195,avaxhome.ws,,"0631180338,9780631180333",,,,,100,B105.S66 H3313 1995,,,OL1103753M,23393,0,,,,,1,,1,45456000,pdf,07339648A6174463DB39B0BFEFFCC184,,,Y. dl_avaxhome 23393  _=PhilosophyWayLife.pdf,0,2000-01-01 01:00:00,2016-04-03 02:51:08,261000/07339648a6174463db39b0bfeffcc184-d.jpg,,
19282724,Structural Hearing: Tonal Coherence in Music,,Two Volumes Bound As One,,Felix Salzer,1962,,Dover Publications,,157,0,English,62,avaxhome.ws,,"9780486222752,0486222756",,,,,,,,,OL16583009M,23400,0,,,,,,,1,17479315,djvu,D89A15349FF840768DAC9ACA6BB4E3E8,,,Y. dl_avaxhome 23400  _=12481.090502150541.djvu,0,2000-01-01 01:00:00,2016-04-03 02:51:08,261000/d89a15349ff840768dac9aca6bb4e3e8-d.jpg,,
19282725,Viral Hepatitis,,,,"Howard C. Thomas, Stanley Lemon, Arie J. Zuckerman",2005,3,Wiley-Blackwell,,913,0,English,147,avaxhome.ws,,"1405130059,9781405130059",,,,,,,,,OL9477079M,23425,0,,,,,,1,1,11292584,pdf,FAAA4B9A745F2E678BA9D3E50069641F,,,Y. dl_avaxhome 23425  _=1405130059.pdf,0,2000-01-01 01:00:00,2016-04-03 02:51:08,261000/faaa4b9a745f2e678ba9d3e50069641f-d.jpg,,
19282726,Biological Warfare Against Crops,,Global Issues,,Simon M. Whitby,2002,,Palgrave Macmillan,,289,0,English,215,avaxhome.ws,,"9780333920855,0333920856",,,,,,,,,OL9450252M,23433,0,,,,,,,1,5578267,pdf,F20ECD9FCBA441EA26AE0F02E4B215C8,,,Y. dl_avaxhome 23433  _=ll30.pdf,0,2000-01-01 01:00:00,2016-04-03 02:51:08,261000/f20ecd9fcba441ea26ae0f02e4b215c8-d.jpg,,
19282727,"Global Information Warfare: How Businesses, Governments, and Others Achieve Objectives and Attain Competitive Advantages",,,,"Andy Jones, Gerald L. Kovacich, Perry G. Luzwick",2002,1,Auerbach Publications,,686,0,English,215,avaxhome.ws,,"0849311144,9780849311147,9780203972984",,,,,,,,,OL8258913M,23434,0,,,,,,,1,8343536,pdf,A5085754172A70C6C592313B13F8A18F,,,Y. dl_avaxhome 23434  _=ll29.pdf,0,2000-01-01 01:00:00,2016-04-03 02:51:08,261000/a5085754172a70c6c592313b13f8a18f-d.jpg,,
19282728,Angels & Demons,,,,Dan Brown,2001,,Pocket Star,,248,0,English,110,avaxhome.ws,,"9780671027360,0671027360",,,,,813/.54,PS3552.R685434 A82 2000,,,OL15444035M,23461,0,,,,,,,1,1676328,pdf,CDFA713F56B499DCE55E82134F3775F1,,,Y. dl_avaxhome 23461  _=Angels and Demons.pdf,0,2000-01-01 01:00:00,2016-04-03 02:51:08,261000/cdfa713f56b499dce55e82134f3775f1-d.jpg,,
19282729,Soviet Wheeled Armored Vehicles,,Concord 1013,,Steven J. Zaloga,1992,,Concord,,64,0,English,244,avaxhome.ws,,"9789623610131,9623610130",,,,,,,,,OL9160387M,23468,0,,,,,,1,0,25904611,pdf,64E234762493BA33FBC2CB59794EABD1,,,Y. dl_avaxhome 23468  _=Concord_1013_-_Soviet_Wheeled_armored_vehicles.pdf,0,2000-01-01 01:00:00,2016-04-03 02:51:08,261000/64e234762493ba33fbc2cb59794eabd1-g.jpg,,
19282730,"Information Communication Technologies: Concepts, Methodologies, Tools, and Applications",,,,"Craig Van Slyke, Craig Van Slyke",2008,illustrated edition,Information Science Reference,,3937,0,English,260,avaxhome.ws,,"9781599049496,159904949X",,,,,303.48/33,HM851 .I5315 2008,,,OL18017936M,23490,0,,,,,,,1,33654519,pdf,20807ECD1ED1DB3D29F3569CC76795A7,,,Y. dl_avaxhome 23490  _=InCoTe.pdf,0,2000-01-01 01:00:00,2016-04-03 02:51:08,261000/20807ecd1ed1db3d29f3569cc76795a7-d.jpg,,
19282731,"Opere retoriche. De oratore, Brutus, Orator",Vol. I,Classici latini,,"Marco Tullio Cicerone, a cura di Giuseppe Norcio",1970,,UTET,,987,0,Italian,,,0,,,,,,,,,,,,0,,,,,,,1,24984044,pdf,b502e4109a1c0e1dcaa7535e8a9ca115,,,125080588-Marco-Tullio-Cicerone-Opere-retoriche-Vol-1-Utet,0,2000-01-01 01:00:00,2016-04-03 02:51:08,880000/b502e4109a1c0e1dcaa7535e8a9ca115-g.jpg,,
19282732,Introduction To the Theory of Numbers,,,,Leonard Eug Dickson,1929,,DOVER PUBLICATIONS,,193,0,English,143,avaxhome.ws,,"9780486603421,0486603423",,,,,,,,,,23500,0,,,,,,,0,17518069,djvu,9A9EAB838ED89CBCDB0E753637624243,,,Y. dl_avaxhome 23500  _=53700.090502140754.djvu,0,2000-01-01 01:00:00,2016-04-03 02:51:08,261000/9a9eab838ed89cbcdb0e753637624243-g.jpg,,
19282733,Art of Oral Sex: Bring Your Partner to New Heights of Pleasure,,,,"Ian Denchasy, Alicia Denchasy",2007,illustrated edition,Quiver,,28,0,English,201,avaxhome.ws,,"9781592332908,1592332900",,,,,306.77/4,HQ31 .D427 2007,,,OL12377119M,23505,0,,,,,,,1,183383,pdf,3996FD0DDE343E5953B8B2DADF6D5866,,,Y. dl_avaxhome 23505  _=The_Art_of_Oral_Sex.pdf,0,2000-01-01 01:00:00,2016-04-03 02:51:08,261000/3996fd0dde343e5953b8b2dadf6d5866-d.jpg,,
19282734,Evil Eyes,,,,Corey Mitchell,2006,,Pinnacle,,429,0,English,110,avaxhome.ws,,"9780786016761,0786016760",,,,,,,,,OL8104788M,23508,0,,,,,,,1,758041,pdf,0DB63D05CB0B061AC17D6A342F8415E1,,,Y. dl_avaxhome 23508 Corey_Mitchell_-_Evil_Eyes  _=Corey Mitchell - Evil Eyes.pdf,0,2000-01-01 01:00:00,2016-04-03 02:51:08,261000/0db63d05cb0b061ac17d6a342f8415e1-d.jpg,,
19282735,Youth Employment in Sierra Leone: Sustainable Livelihood Opportunities in a Post-conflict Setting,,,,"Pia Peeters, Wendy Cunningham, Gayatri Acharya, Arvil Van Adams",2009,,World Bank Publications,,202,0,English,1,avaxhome.ws,,"0821378228,9780821378229,9780821379080",,,,,331.3/4709664,HD6276.S48 Y68 2009,10.1596/978-0-8213-7822-9,,OL23054304M,23510,0,,,,,,1,1,1734020,pdf,A3BED6BA0463F0A50B8CA026C3517EC1,,,Y. dl_avaxhome 23510 Youth_Employment_in_Sierra  _=0821378228 Youth_Employment_in_Sierra.pdf,0,2000-01-01 01:00:00,2016-04-03 02:51:08,261000/a3bed6ba0463f0a50b8ca026c3517ec1-d.jpg,,
19282736,An Assessment of the Investment Climate in Nigeria,,Directions in Development,,"Giuseppe Iarossi, Peter Mousley, Ismail Radwan",2009,,World Bank Publications,,146,0,English,36,avaxhome.ws,,"0821377973,9780821377970,9780821378113",,,,,330.9669,HG5881.A3 .I27 2009,10.1596/978-0-8213-7797-0,,OL22696226M,23514,0,,,,0,0,,1,958261,pdf,48BA127054CEE81459D6DB5E0AFB74EB,,,Y. dl_avaxhome 23514 Assessment_of_the_Investment  _=0821377973 Assessment_of_the_Investment.pdf,0,2000-01-01 01:00:00,2016-04-03 02:51:08,261000/48ba127054cee81459d6db5e0afb74eb-d.jpg,,
19282737,"Foreign Exchange and Money Markets: Theory, Practice and Risk Management",,Securities Institute Global Capital Markets,,Bob Steiner,2002,1st,Butterworth-Heinemann,,344,0,English,6,avaxhome.ws,,"9780750650250,0750650257",,,,,332.45,HG3851 .S745 2002,,,OL3732032M,23517,0,,,,,,,1,2212662,pdf,E982BDB6FDA731D2CF93E452B5CC4253,,,Y. dl_avaxhome 23517  _=MoneyMarkets.pdf,0,2000-01-01 01:00:00,2016-04-03 02:51:08,261000/e982bdb6fda731d2cf93e452b5cc4253-d.jpg,,
19282738,Not in Our Classrooms: Why Intelligent Design Is Wrong for Our Schools,,,,"Eugenie C. Scott, Glenn Branch",2006,1,Beacon Press,,185,0,English,12,avaxhome.ws,,"9780807032787,0807032786",,,,,231.7/652,BL263 .N68 2006,,,OL24765233M,23529,0,,,,,,1,1,672233,pdf,FBEFE1DD38405BCCEBB37D08EB315273,,,Y. dl_avaxhome 23529  _=0807032786-not_in_our_classrooms.pdf,0,2000-01-01 01:00:00,2016-04-03 02:51:08,261000/fbefe1dd38405bccebb37d08eb315273-d.jpg,,
19282739,Discovering Creative Solutions to Everyday Challenges,,Leading from the Center,,Duke Corporate Education,2006,,Kaplan Business,,113,0,English,1,avaxhome.ws,,"9781419515088,141951508X",,,,,658.4/03,HD53 .D57 2005,,,OL3406667M,23540,0,,,,,,1,1,1012472,pdf,435ADDD1EF1954A9BE43E5504EB8DCC7,,,Y. dl_avaxhome 23540  _=DiscovSolutions.pdf,0,2000-01-01 01:00:00,2016-04-03 02:51:08,261000/435addd1ef1954a9be43e5504eb8dcc7-d.jpg,,
19282740,Eros: The Myth Of Ancient Greek Sexuality,,,,Bruce S Thornton,1998,,Westview Press,,304,0,English,64,avaxhome.ws,,"9780813332260,0813332265",,,,,,,,,OL8023776M,23543,0,,,,,,,,44803028,rar,C03EC949F0C050065BAA7360B7CFC007,,,23543 =0813332265.rar,0,2000-01-01 01:00:00,2016-04-03 02:51:08,261000/c03ec949f0c050065baa7360b7cfc007-d.jpg,,
19282741,Entrepreneurship in Africa: A Study of Successes,,,,David S. Fick,2002,,Praeger,,298,0,English,1,avaxhome.ws,,"9781567205367,1567205364",,,,,,,,,OL8673173M,23547,0,,,,,,,,1358930,chm,5CFA4C253E6C4C41039DF44EB3769870,,,Y. dl_avaxhome 23547  _=Entrepreneurship_in_Africa.CHM,0,2000-01-01 01:00:00,2016-04-03 02:51:08,261000/5cfa4c253e6c4c41039df44eb3769870-d.jpg,,
19282742,Bridge For Dummies,,,,Eddie Kantar,2006,2,For Dummies,,410,0,English,183,avaxhome.ws,,"0471924261,9780471924265,9780470107003",,,,,,,,,OL18001956M,23557,0,,,,1,0,,1,7940018,pdf,0E973C825BB8960B6D5628CCD438E3E9,,,Y. dl_avaxhome 23557  _=Bri.Dum.pdf,0,2000-01-01 01:00:00,2016-04-03 02:51:08,261000/0e973c825bb8960b6d5628ccd438e3e9-d.jpg,,
19282743,Six Sigma Best Practices: A Guide to Business Process Excellence for Diverse Industries,,,,Dhirendra Kumar,2006,1,J. Ross Publishing,,464,0,English,1,avaxhome.ws,,"9781932159585,1932159584",,,,,,,,,OL9318136M,23593,0,,,,,,,,49550831,rar,15C1D2DF265A710E95BB20444FD58D45,,,23593 =Six_Sigma_Best_Practices.rar,0,2000-01-01 01:00:00,2016-04-03 02:51:08,261000/15c1d2df265a710e95bb20444fd58d45-d.jpg,,
19282744,English Grammar In Use with Answers and CD ROM: A Self-study Reference and Practice Book for Intermediate Students of English,,,,Raymond Murphy,2004,3,Cambridge University Press,,392,0,English,,avaxhome.ws,,"9780521537629,0521537622",,,,,,,,,OL7745288M,23598,0,,,,,,,0,76347488,pdf,4B5F3AB4CFFEDCC19841EA350655E8DC,,,Y. dl_avaxhome 23598  _=English_Grammar_In_Use_3rd_Edition_Book.pdf,0,2000-01-01 01:00:00,2016-04-03 02:51:08,261000/4b5f3ab4cffedcc19841ea350655e8dc-d.jpg,,
19282745,Trial by Fire,,The Hundred Years War II,,Jonathan Sumption,2001,2nd,Faber and Faber,,347,0,English,64,avaxhome.ws,,"9780571207374,0571207375",,,,,,,,,OL7857684M,23617,0,,,,,,1,0,25990733,pdf,EEA1A9E9F0D06B4D73A70C7DDD6AEF04,,,Y. dl_avaxhome 23617  _=Hundred_Years_War_Trial_by_Fire.pdf,0,2000-01-01 01:00:00,2016-04-03 02:51:08,261000/eea1a9e9f0d06b4d73a70c7ddd6aef04-d.jpg,,
19282746,Beginning ASP.NET E-Commerce in C#: From Novice to Professional,,Expert's Voice in .Net,,"Cristian Darie, Karli Watson",2009,1,Apress,,716,0,English,183,avaxhome.ws,,"9781430210740,1430210745",,,,,,,,,,23631,0,,,,,,,1,17820053,pdf,DC330CD521B8327EFA51C9D791346A4B,,,Y. dl_avaxhome 23631  _=1430210745.pdf,0,2000-01-01 01:00:00,2016-04-03 02:51:08,261000/dc330cd521b8327efa51c9d791346a4b-d.jpg,,
19282747,After the Storm: Iraqi Wrecks and Fortifications,,FIREPOWER PICTORIAL 1024,,Eric Micheletti,1990,,Concord Publications,,66,0,English,64,avaxhome.ws,,"9623610246,9789623610247",,,,,,,,,OL9160396M,23642,0,,,,,1,,0,11922183,pdf,63C8B835E344ABC005EB08730CC96275,,,Y. dl_avaxhome 23642  _=Concord_Publication_1024_-_After_The_Storm_-_Iraqi_Wrecks_And_Fortifications.pdf,0,2000-01-01 01:00:00,2016-04-03 02:51:08,261000/63c8b835e344abc005eb08730cc96275-g.jpg,,
19282748,Dictionary of Symbols,,,,J. C. Cirlot,1990,New ed of 2 Revised ed,Routledge,,507,0,English,322,avaxhome.ws,,"0415036496,9780415036498,9780203133750,0203133757,0203189280",,,,,,,,,OL22010372M,23645,0,,,,,1,1,1,6287752,pdf,278D6EC6D122B0BB38625C5FBF9A6368,,,Y. dl_avaxhome 23645  _=Sym.pdf,0,2000-01-01 01:00:00,2016-04-03 02:51:08,261000/278d6ec6d122b0bb38625c5fbf9a6368-d.jpg,,
19282749,European Weapons and Armour,,,,Ewart Oakeshott,2000,,Boydell Press,,155,0,English,64,avaxhome.ws,,0851157890,,,,,,,,,,23647,0,,,,,,,0,21102241,pdf,9601490CBE017685B968F0E06BB7EE2D,,,Y. dl_avaxhome 23647  _=European_Weapons_Armour.pdf,0,2000-01-01 01:00:00,2016-04-03 02:51:08,261000/9601490cbe017685b968f0e06bb7ee2d-d.jpg,,
19282750,Bulletproof Your Job: 4 Simple Strategies to Ride Out the Rough Times and Come Out On Top at Work,,,,Stephen Viscusi,2008,1,HarperBusiness,,185,0,English,1,avaxhome.ws,,"0061713600,9780061713606",,,,,650.1,HD5708.4 .V57 2008,,,OL22502279M,23661,0,,,,,,,1,737151,pdf,A311D5799439B5C77A045C75044738BC,,,23661 =Bulletproof_Your_Job.pdf,0,2000-01-01 01:00:00,2016-04-03 02:51:08,261000/a311d5799439b5c77a045c75044738bc-d.jpg,,
19282751,"Start It, Sell It & Make a Mint: 20 Wealth-Creating Secrets for Business Owners",,,,Joe John Duran,2004,,Wiley,,244,0,English,1,avaxhome.ws,,"0471479616,9780471479611",,,,,,,,,OL3321739M,23667,0,,,,,,,,1209194,chm,EF7F0041B0394DAB3542419876DCC9D1,,,"Y. dl_avaxhome 23667  _=Start_It,_Sell_It__amp.CHM",0,2000-01-01 01:00:00,2016-04-03 02:51:08,261000/ef7f0041b0394dab3542419876dcc9d1-d.jpg,,
19282752,Typographie: A Manual of Design,,,,Emil Ruder,2002,4th,A. Niggli,,274,0,German,59,avaxhome.ws,,"9783721200430,3721200438",,,,,686.2/24,Z246 .R79 1982,,,OL15505004M,23678,0,,,,,,1,1,409371862,pdf,66027C3537E4A9998806241E940C0F9F,,,Y. dl_avaxhome 23678  _=Typ.pdf,0,2000-01-01 01:00:00,2016-04-03 02:51:08,261000/66027c3537e4a9998806241e940c0f9f-d.jpg,,
19282753,Across China on Foot - One Man's Incredible Quest,,,,"Edwin John Dingle, Ding Le Mei",2007,,Arc Manor,,160,0,English,32,avaxhome.ws,,"9780979415456,0979415454",,,,,"915.104/35092,B",DS710 .D62 2007,,,OL11840517M,23691,0,,,,,,,1,640289,pdf,EDA04F835F3D9A97C8BB31492D6E55F2,,,23691 =368.pdf,0,2000-01-01 01:00:00,2016-04-03 02:51:08,261000/eda04f835f3d9a97c8bb31492d6e55f2-d.jpg,,
19282754,Mechanisms and mechanical devices sourcebook,,,,"Neil Sclater, Nicholas Chironis",2006,4,McGraw-Hill Professional,,512,0,English,220,avaxhome.ws,0,"9780071467612,0071467610",,,,,621.8,TJ181 .S28 2007,,,,23694,0,,,,,,,,23103133,rar,140E91505C2C42ABFC20D3F665A54962,B8EE867BF94612BCEFB42DA65E4C5564,no,23694 =0071467610.rar,0,2000-01-01 01:00:00,2016-04-03 02:51:08,261000/140e91505c2c42abfc20d3f665a54962-d.jpg,,
19282755,The Art & Elegance of Beadweaving,,,,Carol Wilcox Wells,2003,1,Lark Books,,139,0,English,41,avaxhome.ws,,"9781579905330,1579905331",,,,,,,,,OL8759583M,23700,0,,,,,,,0,31627757,pdf,8ED750FFF58F00DD3B0544AA53E6D11F,,,Y. dl_avaxhome 23700  _=ArtBeadw.pdf,0,2000-01-01 01:00:00,2016-04-03 02:51:08,261000/8ed750fff58f00dd3b0544aa53e6d11f-d.jpg,,
19282756,A Theologico-Political Treatise,Part III,Chapters XI to XV,,"Benedict de Spinoza, Baruch Spinoza",2008,,Arc Manor,,32,0,English,195,avaxhome.ws,0,"9781604502152,1604502150",,,,,,,,,,23717,0,,,,,,,1,117712,pdf,7A6EA6E0D45218F871051BDF6D7907D7,,,23717 =358.pdf,0,2000-01-01 01:00:00,2016-04-03 02:51:08,261000/7a6ea6e0d45218f871051bdf6d7907d7-d.jpg,,
19282757,The Model,,,,Milo Manara,2002,First Edition,Eurotica,,105,0,English,107,avaxhome.ws,,"9781561633395,1561633399",,,,,,,,,OL8637313M,23720,0,,,,,,1,0,38954281,pdf,73491890FAA44EC4FEC3B04DDA2EF099,,,Y. dl_avaxhome 23720  _=Manara_The_Model_pdf.pdf,0,2000-01-01 01:00:00,2016-04-03 02:51:08,261000/73491890faa44ec4fec3b04dda2ef099-d.jpg,,
19282758,30 Minutes to Master the Internet,,,,Steven Armstrong,1997,,Kogan Page,,65,0,English,100,avaxhome.ws,,"0749435186,9780749435189",,,,,,,,,OL10768681M,23722,0,,,,,1,1,1,503392,pdf,5FE0B7FF7E86DE5DE0BEE0F1F7291611,,,Y. dl_avaxhome 23722 30_minutes_to_master_the_internet_30_minutes  _=30_minutes_to_master_the_internet_30_minutes.pdf,0,2000-01-01 01:00:00,2016-04-03 02:51:08,261000/5fe0b7ff7e86de5de0bee0f1f7291611-d.jpg,,
19282759,Fraud Casebook: Lessons from the Bad Side of Business,,,,Joseph T. Wells,2007,,Wiley,,625,0,English,1,avaxhome.ws,,"9780470134689,0470134682",,,,,363.25/963,HV6691 .F737 2007,,,OL17178839M,23748,0,,,,,,,1,5743611,pdf,95585771AC43487D569A6B8DEA5EB28E,,,Y. dl_avaxhome 23748  _=W9780.pdf,0,2000-01-01 01:00:00,2016-04-03 02:51:08,261000/95585771ac43487d569a6b8dea5eb28e-d.jpg,,
19282760,Classical Literature: A Concise History,,Blackwell Introductions to the Classical World,,Richard Rutherford,2004,,Wiley-Blackwell,,371,0,English,64,avaxhome.ws,,"9780631231325,0631231323",,,,,,,,,OL7610704M,23780,0,,,,,,1,1,5387139,pdf,E08B725462572F87D6A2815982F8EC66,,,Y. dl_avaxhome 23780  _=jj27.pdf,0,2000-01-01 01:00:00,2016-04-03 02:51:08,261000/e08b725462572f87d6a2815982f8ec66-d.jpg,,
19282761,"Dynamics of Cancer: Incidence, Inheritance, and Evolution",,Princeton Series in Evolutionary Biology,,Steven A. Frank,2007,1,Princeton University Press,,396,0,English,12,avaxhome.ws,,"9780691133669,0691133662",,,,,616.99/4071,RC268.5 .F63 2007,,,OL11182994M,23789,0,,,,,,1,1,5800279,pdf,7D71851A62F9BC4215F56F2E4921C090,,,Y. dl_avaxhome 23789  _=jj21.pdf,0,2000-01-01 01:00:00,2016-04-03 02:51:08,261000/7d71851a62f9bc4215f56f2e4921c090-d.jpg,,
19282762,Many Miles to Go: A Modern Parable for Business,,,,"Brian Tracy, Hrvey Mackay",2003,1,Entrepreneur Press,,325,0,English,1,avaxhome.ws,,"9781891984990,1891984993",,,,,,,,,OL8718161M,23791,0,,,,,,,1,5340885,pdf,15A3F0DA05657EFF62C945B033AFB3CD,,,Y. dl_avaxhome 23791  _=jj20.pdf,0,2000-01-01 01:00:00,2016-04-03 02:51:08,261000/15a3f0da05657eff62c945b033afb3cd-d.jpg,,
19282763,"International Accounting Standards: from UK standards to IAS, an accelerated route to understanding the key principles of international accounting rules",,,,Paul Rodgers,2007,,CIMA Publishing,,290,0,English,2,avaxhome.ws,,"9780750682039,0750682035",,,,,,,,,OL10809513M,23806,0,,,,,,,1,6619601,pdf,AF3448D533A4477D808770CA9E930F18,,,Y. dl_avaxhome 23806  _=jj08.pdf,0,2000-01-01 01:00:00,2016-04-03 02:51:08,261000/af3448d533a4477d808770ca9e930f18-d.jpg,,
19282764,Catolicismo Para Dummies,,,,"Rev. John Trigilio Jr., Rev. Kenneth Brighenti, Rev. Luis Rafael Rodriguez-Hernandez, Jose H. Gomez",2007,,For Dummies,,459,0,Spanish,183,avaxhome.ws,,"9780470170496,9780470225448,0470170492",,,,,282,BX1754 .T7518 2008,,,OL23552907M,23809,0,,,,,,1,1,5264775,pdf,85A843EB650BC4B0F50529B03412454B,,,Y. dl_avaxhome 23809  _=jj05.pdf,0,2000-01-01 01:00:00,2016-04-03 02:51:08,261000/85a843eb650bc4b0f50529b03412454b-d.jpg,,
19282765,Keep Your Donors: The Guide to Better Communications & Stronger Relationships,,The AFP/Wiley Fund Development Series,,"Tom Ahern, Simone P. Joyaux",2007,,Wiley,,482,0,English,260,avaxhome.ws,,"9780470080399,0470080396",,,,,658.15224,HG177 .A34 2008,,,OL18406539M,23811,0,,,,,,,1,5906482,pdf,B0F41A03EDBB2EC718AE6AA086C89E67,,,Y. dl_avaxhome 23811  _=jj03.pdf,0,2000-01-01 01:00:00,2016-04-03 02:51:08,261000/b0f41a03edbb2ec718ae6aa086c89e67-d.jpg,,
19282766,Primary Inversion,,The Saga of the Skolian Empire,,Catherine Asaro,1996,,Tor Books,,384,0,English,110,avaxhome.ws,,"9780812550238,0812550234",,,,,,,,,OL21988938M,23822,0,,,,,,,,559824,chm,4D4AF9F42CAE372102B99EF153D8A363,,,23822 =344.CHM,0,2000-01-01 01:00:00,2016-04-03 02:51:08,261000/4d4af9f42cae372102b99ef153d8a363-d.jpg,,
19282767,"The New Heat Theorem,: Its Foundations in Theory and Experiment",,,,Walther Nernst,1969,,Dover Publications,,311,0,English,296,avaxhome.ws,,"9780486622521,0486622525",,,,,536/.71,QC311 .N4513 1969,,,OL5683757M,23831,0,,,,,,,1,7788074,djvu,8E03C07033FF6EC912F1A0186B076104,,,Y. dl_avaxhome 23831  _=25162.090501141044.djvu,0,2000-01-01 01:00:00,2016-04-03 02:51:08,261000/8e03c07033ff6ec912f1a0186b076104-g.jpg,,
19282768,The Thermodynamics of Electrical Phenomena in Metals and a Condensed Collection of Thermodynamic Formulas,,,,Percy Williams Bridgman,1979,,Peter Smith Pub Inc,,263,0,English,282,avaxhome.ws,0,"9780844617374,0844617377",,,,,,,,,,23832,0,,,,,,,1,17781160,djvu,04E7E9A503918928869B25509C99E805,,,Y. dl_avaxhome 23832  _=98405.090501141056.djvu,0,2000-01-01 01:00:00,2016-04-03 02:51:08,261000/04e7e9a503918928869b25509c99e805-g.jpg,,
19282769,Global Sport Sponsorship,,Sport Commerce and Culture,,"John M. Amis, T. Bettina Cornwell",2005,,Berg Publishers,,291,0,English,1,avaxhome.ws,,"9781845200800,1845200802",,,,,,,,,OL17190686M,23852,0,,,,,,,1,2446015,pdf,D3B7B0A54D1DB51EC33E14B9F1C9A31A,,,Y. dl_avaxhome 23852 Global Sport Sponsorship (Sport Commerce and Culture)  _=1845200802.pdf,0,2000-01-01 01:00:00,2016-04-03 02:51:08,261000/d3b7b0a54d1db51ec33e14b9f1c9a31a-d.jpg,,
19282770,Opportunities in Library and Information Science,,,,Kathleen McCook,2009,3,McGraw-Hill,,206,0,English,181,avaxhome.ws,,"9780071545310,007154531X",,,,,020.23/73,Z682.35.V62 M35 2008,10.1036/007154531X,,OL16909541M,23859,0,,,,,,1,1,900021,pdf,570D64FD6E2C6B953CC7019FF603554C,,,"Y. dl_avaxhome 23859 Opportunities in Library and Information Science, Rev Edition  _=007154531X.pdf",0,2000-01-01 01:00:00,2016-04-03 02:51:08,261000/570d64fd6e2c6b953cc7019ff603554c-d.jpg,,
19282771,"Infertility in Practice, ",,Reproductive Medicine and Asst. Reproduction,,Adam Balen,2008,3,Informa Healthcare,,479,0,English,147,avaxhome.ws,,"9780415450676,0415450675",,,,,,,,,,23860,0,,,,,,,1,63185247,pdf,5B57528C0206447239B94D507D01A289,,,Y. dl_avaxhome 23860  _=balen.pdf,0,2000-01-01 01:00:00,2016-04-03 02:51:08,261000/5b57528c0206447239b94d507d01a289-d.jpg,,
19282772,Asymptomatic Carotid Artery Stenosis: A Primer on Risk Stratification and Management,,,,"Issam D. Moussa, Tatjana Rundek, JP Mohr",2007,1,Informa Healthcare,,246,0,English,6,avaxhome.ws,,"1841846139,9781841846132,9780203089859",,,,,,,,,OL8923231M,23871,0,,,,,1,,1,9015782,pdf,E8EC93BC32B29FD12A3BC0C7B482DFD3,,,Y. dl_avaxhome 23871  _=1841846139.pdf,0,2000-01-01 01:00:00,2016-04-03 02:51:08,261000/e8ec93bc32b29fd12a3bc0c7b482dfd3-d.jpg,,
19282773,"Advocate: Webster's Timeline History, 2001 - 2007",,,,Icon Group International,2009,,"ICON Group International, Inc.",,401,0,English,100,avaxhome.ws,,"9781114167568,1114167568",,,,,,,,,,23874,0,,,,,,,1,5501642,djvu,A7F136F81D26B0188FCB6645FF49CDED,,,Y. dl_avaxhome 23874  _=41369.090501114611.djvu,0,2000-01-01 01:00:00,2016-04-03 02:51:08,261000/a7f136f81d26b0188fcb6645ff49cded-d.jpg,,
19282774,Dictionary of Conformal Representations,,,,H. Kober,1957,2nd Edition,Dover Publications,,223,0,English,322,avaxhome.ws,,"9780486601601,0486601609",,B0006DLW80,,,,,,,OL19312676M,23895,0,,,,,1,,0,2438151,djvu,FBF8477099ED74147B913355F46E5BEB,,,Y. dl_avaxhome 23895  _=kober_h_-_dictionary_of_conformal_representations.djvu,0,2000-01-01 01:00:00,2016-04-03 02:51:08,261000/fbf8477099ed74147b913355f46e5beb-g.jpg,,
19282775,The Dynamic Synapse: Molecular Methods in Ionotropic Receptor Biology,,Frontiers in Neuroscience,,"Josef T. Kittler, Stephen J. Moss",2006,1,CRC Press,,336,0,English,165,avaxhome.ws,,"9780849318917,0849318912",,,,,612.8,QP364 .D96 2006,,,OL22728977M,23898,0,,,,,,,,14390288,rar,4D8923B22F1298C16B0DE67959D10ED5,,,23898 =0849318912.rar,0,2000-01-01 01:00:00,2016-04-03 02:51:08,261000/4d8923b22f1298c16b0de67959d10ed5-d.jpg,,
19282776,The Wealth of Networks: How Social Production Transforms Markets and Freedom,,,,Yochai Benkler,2006,,Yale University Press,,527,0,English,99,avaxhome.ws,,"0300110561,9780300110562,9780300127232",,,,,303.48/33,HM851 .B457 2006,,,OL3412222M,23928,0,,,,,1,,1,3721537,pdf,FCEB0ED43B1C4A45E4109F31EC561980,,,Y. dl_avaxhome 23928  _=benkler_wealth_of_networks.pdf,0,2000-01-01 01:00:00,2016-04-03 02:51:08,261000/fceb0ed43b1c4a45e4109f31ec561980-d.jpg,,
19282777,From Religion to Philosophy: A Study in the Origins of Western Speculation,,,,F. M. Cornford,2004,,Dover Publications,,147,0,English,205,avaxhome.ws,,"0486433722,9780486433721",,,,,180,B188 .C6 2004,,,OL3301956M,23935,0,,,,,1,1,0,21220173,pdf,F50F14E2B0489BD140BB70AC91E7086F,,,Y. dl_avaxhome 23935  _=f._m._cornford_from_religion_to_philosophy_a_study_of_the_origins_of_western_speculation.pdf,0,2000-01-01 01:00:00,2016-04-03 02:51:08,261000/f50f14e2b0489bd140bb70ac91e7086f-d.jpg,,
19282778,A Theologico-Political Treatise,Part I,Chapters I to V,,"Benedict de Spinoza, Baruch Spinoza",2008,,Arc Manor,,55,0,English,195,avaxhome.ws,0,"9781604502138,1604502134",,,,,,,,,,23963,0,,,,,,,1,204466,pdf,7202C0DC134E100C599DED71C0DCCB99,,,23963 =331.pdf,0,2000-01-01 01:00:00,2016-04-03 02:51:08,261000/7202c0dc134e100c599ded71c0dccb99-d.jpg,,
19282779,Innate Immunity,,Methods in Molecular Biology 415,,"Jonathan Ewbank, Eric Vivier",2007,1,Humana Press,,452,0,English,12,avaxhome.ws,,"9781588297464,1588297462",,,,,,,,,OL12325720M,23996,0,,,,,,1,1,9087645,pdf,E4FDF1D0A58CCE6A15B0E94A1DD1CD2E,,,Y. dl_avaxhome 23996  _=1588297462.pdf,0,2000-01-01 01:00:00,2016-04-03 02:51:08,261000/e4fdf1d0a58cce6a15b0e94a1dd1cd2e-d.jpg,,
19282780,MySpace Marketing: The Promotional Revolution,,,,Nick Jag,2008,2,BookSurge Publishing,,6,0,English,212,avaxhome.ws,,"9781419680342,141968034X",,,,,,,,,,24025,0,,,,,,,1,108235,pdf,E2940E52C9467690B19E5C93126C1840,,,24025 =315.pdf,0,2000-01-01 01:00:00,2016-04-03 02:51:08,261000/e2940e52c9467690b19e5c93126c1840-d.jpg,,
19282781,Recent Topics in Non-Linear Partial Differential Equations,v 1,Lecture Notes in Numerical and Applied Analysis,,"M. Mimura, T. Nishida",1985,,Elsevier Science Publishing Company,,249,0,English,113,avaxhome.ws,,"9780444875440,0444875441",,,,,,,,,OL10261128M,24034,0,,,,,,,1,3734979,djvu,D1F9DD4C9D6B181A18D15B474739AB47,,,Y. dl_avaxhome 24034  _=non-linear_pde.djvu,0,2000-01-01 01:00:00,2016-04-03 02:51:08,261000/d1f9dd4c9d6b181a18d15b474739ab47-d.jpg,,
19282782,International Encyclopedia of Ergonomics and Human Factors,3 Volume Set,,,Waldemar Karwowski,2001,1,CRC Press,,1980,0,English,188,avaxhome.ws,,"9780748408474,0748408479",,,,,,,,,OL20674399M,24036,0,,,,,,1,1,27842879,pdf,12757C59B71698DEE682C09065E18AB0,,,Y. dl_avaxhome 24036  _=Ergo.pdf,0,2000-01-01 01:00:00,2016-04-03 02:51:08,261000/12757c59b71698dee682c09065e18ab0-d.jpg,,
19282783,How to Write and Speak Correctly,,,,Joseph Devlin,2007,,Wildside Press,,7,0,English,183,avaxhome.ws,,"9781557429179,1557429170",,,,,,,,,OL8599574M,24050,0,,,,,,,1,124865,pdf,06102772B92EC5EB4D6F935166F4D78C,,,24050 =307.pdf,0,2000-01-01 01:00:00,2016-04-03 02:51:08,261000/06102772b92ec5eb4d6f935166f4d78c-d.jpg,,
19282784,Marketing Made Easy,,,,Kevin Epstein,2006,1,Entrepreneur Press,,24,0,English,1,avaxhome.ws,,"9781599180175,1599180170",,,,,658.8,HF5415 .E678 2006,,,OL24929618M,24060,0,,,,,,,1,109487,pdf,428561BF8828559F039B2F7C70904FAA,,,24060 =302.pdf,0,2000-01-01 01:00:00,2016-04-03 02:51:08,261000/428561bf8828559f039b2f7c70904faa-d.jpg,,
19282785,United States Senate Catalogue of Fine Art,,Senate Document,,"William Kloss, Diane K. Skvarla, Jane R. McGoldrick",2003,,US Government Printing Office,,512,0,English,64,avaxhome.ws,,"9780160511721,0-16051-172-0",,,,,,,,,OL17122391M,24099,0,,,,,,1,1,48896921,pdf,F60A0EC90D7A3B9E02F874231FA96E92,,,Y. dl_avaxhome 24099  _=0160511720.pdf,0,2000-01-01 01:00:00,2016-04-03 02:51:08,261000/f60a0ec90d7a3b9e02f874231fa96e92-d.jpg,,
19282786,"Careers in Computers, ",,,,"Lila Stair, Leslie Stair",2002,1,McGraw-Hill,,192,0,English,69,avaxhome.ws,,"9780658016509,0658016504",,,,,004/.023,QA76.25 .S67 2002,,,OL3951826M,24149,0,,,,,,,,4683752,rar,1BCB496FC56636849CC576FF8B8A0200,,,24149 =0658016504.rar,0,2000-01-01 01:00:00,2016-04-03 02:51:08,261000/1bcb496fc56636849cc576ff8b8a0200-d.jpg,,
19282787,A Tally of Types: With Additions by Several Hands ; And With a New Introduction by Mike Parker,,,,Stanley Morison; Brooke Crutchley (editor); Mike Parker (introduction),1999,,David R Godine,,137,0,English,,avaxhome.ws,,"9781567920048,1567920047",,,,,686.2/24,Z250.A2 M856 1999,,,OL799092M,24182,0,,,,,,,1,1476459,djvu,CD447F70D7746314F8258BFF46ABF546,,,Y. dl_avaxhome 24182 A.Tally.Of.Types  _=A.Tally.Of.Types_Morison_0521200431.djvu,0,2000-01-01 01:00:00,2016-04-03 02:51:08,261000/cd447f70d7746314f8258bff46abf546-d.gif,,
19282788,Pocket Supersex,,,,Tracey Cox,2002,1st,DK ADULT,,194,0,English,201,avaxhome.ws,,"0789489597,9780789489593",,,,,306.7,HQ31 .C926 2002,,,OL3567860M,24199,0,,,,,1,1,0,22685927,pdf,CE9B8EE33694E53210F3684F40CC469C,,,Y. dl_avaxhome 24199  _=Supersex.pdf,0,2000-01-01 01:00:00,2016-04-03 02:51:08,261000/ce9b8ee33694e53210f3684f40cc469c-d.jpg,,
19282789,Hidden: The Conceptual Photography of Misha Gordin,,,,Misha Gordin,2008,Limited Edition,Earth Aware Editions,,111,0,English,63,avaxhome.ws,,"1933784202,9781933784205",,,,,,,,,OL12339460M,24203,0,,,,,1,1,0,13887582,pdf,610192404BD19672F97B04E5C87A7646,,,Y. dl_avaxhome 24203  _=Conceptual.photography.pdf,0,2000-01-01 01:00:00,2016-04-03 02:51:08,261000/610192404bd19672f97b04e5c87a7646-d.jpg,,
19282790,My Secret Garden,,,,Nancy Friday,2008,,Pocket,,359,0,English,201,avaxhome.ws,,"9781416567011,1416567011",,,,,306.77082,HQ29 .F74 2008,,,OL11758368M,24216,0,,,,,,,1,855414,pdf,19FC1CBD031410DE4EA4701285B55B87,,,Y. dl_avaxhome 24216  _=Nancy Friday - My Secret Garden (WomenS Sexual Fantasies).pdf,0,2000-01-01 01:00:00,2016-04-03 02:51:08,261000/19fc1cbd031410de4ea4701285b55b87-d.jpg,,
19282791,Principles of Modeling and Simulation: A Multidisciplinary Approach,,,,"John A. Sokolowski, Catherine M. Banks",2009,,Wiley,,260,0,English,180,avaxhome.ws,,"0470289430,9780470289433",,,,,3,QA401 .S648 2009,,,OL16865345M,24243,0,,,,,,,1,3669456,pdf,DD6009943599FC760545738C34726AA0,,,Y. dl_avaxhome 24243  _=sokolowski.pdf,0,2000-01-01 01:00:00,2016-04-03 02:51:08,261000/dd6009943599fc760545738c34726aa0-d.jpg,,
19282792,Book of Numbers,,,,Tim Glynne-Jones,2009,,"Chartwell Books, Inc.",,193,0,English,143,avaxhome.ws,,"9780785824473,0785824472",,,,,,,,,,24254,0,,,,,,,1,5640076,pdf,A0E821B7AC45C303AD361DA20DE62837,,,Y. dl_avaxhome 24254  _=BookNumb.pdf,0,2000-01-01 01:00:00,2016-04-03 02:51:08,261000/a0e821b7ac45c303ad361da20de62837-d.jpg,,
19282793,"A Course in Love: Powerful Teachings on Love, Sex, and Personal Fulfillment",,,,Joan M. Gattuso,1997,Abridged,HarperOne,,235,0,English,183,avaxhome.ws,,"0062513028,9780062513021,9780061573422",,,,,646.7/7,HQ801 .G37 1996,,,OL24274488M,24256,0,,,,,1,,1,925821,pdf,FBE156084D48CBF76460B93311F8414A,,,Y. dl_avaxhome 24256  _=A_Course_in_Love.pdf,0,2000-01-01 01:00:00,2016-04-03 02:51:08,261000/fbe156084d48cbf76460b93311f8414a-d.jpg,,
19282794,AS Maths,,Instant Revision,,"Jenny Sharp, Stewart Townend",2004,2nd,Collins,,128,0,English,183,avaxhome.ws,,"9780007172696,0007172699",,,,,,,,,OL9923309M,24265,0,,,,,,,1,1850306,pdf,1132DC60DA3F5A131BEBF8046B4958FA,,,Y. dl_avaxhome 24265  _=ASMaths.pdf,0,2000-01-01 01:00:00,2016-04-03 02:51:08,261000/1132dc60da3f5a131bebf8046b4958fa-d.jpg,,
19282795,GCSE Mathematics,,Instant Revision,,Paul Metcalf,2001,,Collins,,125,0,English,113,avaxhome.ws,,"9780007109722,0007109725",,,,,,,,,OL9922019M,24266,0,,,,,,,1,30891144,pdf,7E99BA60534C1988B8C4E1A538E17DF9,,,Y. dl_avaxhome 24266  _=GCSEMath.pdf,0,2000-01-01 01:00:00,2016-04-03 02:51:08,261000/7e99ba60534c1988b8c4e1a538e17df9-d.jpg,,
19282796,Nova's SAT Prep Course,,,,Jeff Kolby,2005,,Nova Press,,631,0,English,183,avaxhome.ws,,"9781889057286,1889057282",,,,,,,,,OL8711879M,24268,0,,,,,,,1,8030340,pdf,469FF08F7F681C63F81042D6A1DE4237,,,Y. dl_avaxhome 24268  _=NovSATPrep.pdf,0,2000-01-01 01:00:00,2016-04-03 02:51:08,261000/469ff08f7f681c63f81042d6a1de4237-d.jpg,,
19282797,Dead Space: Prima Official Game Guide,,Prima Official Game Guides,,Fernando Bueno,2008,,Prima Games,,146,0,English,212,avaxhome.ws,,"9780761559870,0761559876",,,,,,,,,,24282,0,,,,,,,1,30880457,pdf,851F1F5E339B73C788FA43A1F4B53503,,,Y. dl_avaxhome 24282  _=Dead_Space_Official_Game_Guide.pdf,0,2000-01-01 01:00:00,2016-04-03 02:51:08,261000/851f1f5e339b73c788fa43a1f4b53503-d.jpg,,
19282798,Fieseler Fi-156 Storch Morane Saulnier Ms-500 / 506 Criquet,Vol. 1,Wydawnictwo Militaria 068,,"Dariusz and Przymusiala, Pawel Karnas",1998,,Wydawnictwo Militaria,,76,0,English,64,avaxhome.ws,,"9788372190192,8372190194",,,,,,,,,,24289,0,,,,,,,0,40516576,pdf,C54CD1A30E29EDE628BB67E45AFABA01,,,24289 =Wydawnictwo_Militaria__068__-_Fieseler_Fi-156_Storch_cz_1.pdf,0,2000-01-01 01:00:00,2016-04-03 02:51:08,261000/c54cd1a30e29ede628bb67e45afaba01-g.jpg,,
19282799,Mitsubishi G4M Betty,,Wydawnictwo Militaria 067,,Jacek Nowicki,1998,,Wydawnictwo militaria,,67,0,English,64,avaxhome.ws,,"9788372190208,8372190208",,,,,,,,,,24295,0,,,,,,,0,17688652,pdf,BF4C8C4B3437532F949E75953BAEAB57,,,24295 =Wydawnictwo_Militaria__067__-_Mitsubishi_G4M_Betty.pdf,0,2000-01-01 01:00:00,2016-04-03 02:51:08,261000/bf4c8c4b3437532f949e75953baeab57-g.jpg,,
19282800,Luftwaffe We Wloszech 1944,,Wydawnictwo Militaria 063,,"Nick & D'Amico, Ferninando & Valentini, Gabriele Beale",1998,,Wydawnictwo Militaria,,92,0,German,64,avaxhome.ws,,"9788372190147,8372190143",,,,,,,,,,24306,0,,,,,,1,0,13275124,pdf,F3262752475E3D814185EE8DF1F656D8,,,24306 =Wydawnictwo_Militaria__063__-_Luftwaffe_we_Wloszech_1944.pdf,0,2000-01-01 01:00:00,2016-04-03 02:51:08,261000/f3262752475e3d814185ee8df1f656d8-g.jpg,,
19282801,Niemieckie Lotnictwo Morskie 1939 - 1945,,Wydawnictwo Militaria 061,,Janusz Ledwoch,1998,,Wydawnictwo Militaria,,75,0,English,64,avaxhome.ws,,"9788372190116,8372190119",,,,,,,,,,24309,0,,,,,,1,0,55141923,pdf,C977A4F8D72362F8DC602020EC13D329,,,24309 =Wydawnictwo_Militaria__061__-_Niemieckie_lotnictwo_morskie_1939-1945.pdf,0,2000-01-01 01:00:00,2016-04-03 02:51:08,261000/c977a4f8d72362f8dc602020ec13d329-g.jpg,,
19282802,The World Is Flat 3.0: A Brief History of the Twenty-first Century,,,,Thomas L. Friedman,2007,,Picador,,674,0,English,64,avaxhome.ws,,"9780312425074,0312425074",,,,,,,,,OL9818252M,24333,0,,,,,,1,1,9527631,pdf,945C287348881D93A7D3F2C212577438,,,Y. dl_avaxhome 24333  _=Friedman-twif3.pdf,0,2000-01-01 01:00:00,2016-04-03 02:51:08,261000/945c287348881d93a7d3f2c212577438-d.jpg,,
19282803,"Building on Knowledge: Developing Expertise, Creativity and Intellectual Capital in the Construction Professions",,,,David Bartholomew,2008,,Wiley-Blackwell,,315,0,English,236,avaxhome.ws,,"9781405147095,1405147091",,,,,690.071,TH165 .B36 2008,,,OL11650278M,24337,0,,,,,,,1,3294809,pdf,745727629B132CFED7A5DCA509A0CC73,,,Y. dl_avaxhome 24337  _=Wiley.Building.On.Knowledge.Oct.2008.eBook-ELOHiM.pdf,0,2000-01-01 01:00:00,2016-04-03 02:51:08,261000/745727629b132cfed7a5dca509a0cc73-d.jpg,,
19282804,Analysing Gene Expression: A Handbook of Methods Possibilities and Pitfalls,2-Volume Set,,,"Stefan Lorkowski, Paul M. Cullen",2003,,Wiley-VCH,,976,0,English,,avaxhome.ws,,"9783527304882,3527304886",,,,,,,,,OL17078008M,24344,0,,,,,,1,1,14931615,pdf,CB89E25D88496148E677DB9195299DA6,,,Y. dl_avaxhome 24344  _=loranal.pdf,0,2000-01-01 01:00:00,2016-04-03 02:51:08,261000/cb89e25d88496148e677db9195299da6-d.jpg,,
19282805,Develop Your Leadership Skills,,Creating Success,,John Adair,2007,illustrated edition,Kogan Page,,102,0,English,1,avaxhome.ws,,"9780749449193,0749449195",,,,,,,,,OL7967703M,24345,0,,,,,,1,1,5408885,pdf,9B5AD6FC437899AE2D397B3392BE3052,,,Y. dl_avaxhome 24345  _=gg25.pdf,0,2000-01-01 01:00:00,2016-04-03 02:51:08,261000/9b5ad6fc437899ae2d397b3392be3052-d.jpg,,
19282806,Job Sharing: Two Heads Are Better than One,,Making It Happen series,,"Mary O'Hanlon, Angela Morella",2004,,Allen & Unwin,,127,0,English,1,avaxhome.ws,,"9781865089645,1865089648",,,,,,,,,OL12065352M,24353,0,,,,,,,1,5038369,pdf,E2C8E54E983D09EF64AEBFE4CC304880,,,Y. dl_avaxhome 24353  _=gg07.pdf,0,2000-01-01 01:00:00,2016-04-03 02:51:08,261000/e2c8e54e983d09ef64aebfe4cc304880-d.jpg,,
19282807,Public Relations Techniques That Work,,Business Action Pocketbooks,,Jim Dunn,2001,,Thorogood Publishing,,155,0,English,5,avaxhome.ws,,"9781854181879,1854181874",,,,,,,,,OL8988929M,24358,0,,,,,,1,1,5008912,pdf,FCF52483D918021D70BF42EBC3F72986,,,Y. dl_avaxhome 24358  _=gg02.pdf,0,2000-01-01 01:00:00,2016-04-03 02:51:08,261000/fcf52483d918021d70bf42ebc3f72986-d.jpg,,
19282808,The Insanity Defense the World Over,,,,Heather Ahn-Redding,2008,1,Lexington Books,,256,0,English,189,avaxhome.ws,,"9780739115923,0739115928",,,,,,,,,,24365,0,,,,,,1,1,6042670,pdf,EA1D477317013DDCED471961E709F93D,,,Y. dl_avaxhome 24365  _=gg15.pdf,0,2000-01-01 01:00:00,2016-04-03 02:51:08,261000/ea1d477317013ddced471961e709f93d-d.jpg,,
19282809,"Whales, Candlelight, and Stuff Like That: General Extenders in English Discourse",,Oxford Studies in Sociolinguistics,,Maryann Overstreet,2000,,"Oxford University Press, USA",,184,0,English,314,avaxhome.ws,,"0195125746,9780195125740,9781423738015",,,,,420.1/41,PE1422 .O94 1999,,,OL383059M,24367,0,,,,,1,1,1,9493860,pdf,E54DAE3B575055167C485B7F552411D9,,,Y. dl_avaxhome 24367  _=gg13.pdf,0,2000-01-01 01:00:00,2016-04-03 02:51:08,261000/e54dae3b575055167c485b7f552411d9-d.jpg,,
19282810,Late Victorian Gothic Tales,,Oxford World's Classics,,Roger Luckhurst,2005,,"Oxford University Press, USA",,328,0,English,110,avaxhome.ws,,"9780192804808,0192804804",,,,,823/.087290808,PR1309.H6 L38 2005,,,OL22624383M,24369,0,,,,,,1,1,5739225,pdf,138051DCDB816FEB44B63228BBE75948,,,Y. dl_avaxhome 24369  _=gg11.pdf,0,2000-01-01 01:00:00,2016-04-03 02:51:08,261000/138051dcdb816feb44b63228bbe75948-d.jpg,,
19282811,The Wearing of the Green: A History of St Patrick's Day,,,,"Mike Cronin, Daryl Adair",2001,1,Routledge,,347,0,English,64,avaxhome.ws,,"9780415180047,041518004X",,,,,,,,,OL15507111M,24372,0,,,,,,1,1,5796018,pdf,8E456F35C5B673E71BBF9601578766A0,,,Y. dl_avaxhome 24372  _=gg28.pdf,0,2000-01-01 01:00:00,2016-04-03 02:51:08,261000/8e456f35c5b673e71bbf9601578766a0-d.jpg,,
19282812,Windows Server 2008 Inside Out,,,,William R. Stanek,2008,,Microsoft Press,,1517,0,English,101,avaxhome.ws,,"9780735624382,0735624380",,,,,004/.36,QA76.76.O63 S734555 2008,,,OL10599410M,24411,0,,,,,,,0,30276867,pdf,B3209CAD747DCC8EEF75F41AB61A5C9A,,,Y. dl_avaxhome 24411  _=Ins.pdf,0,2000-01-01 01:00:00,2016-04-03 02:51:08,261000/b3209cad747dcc8eef75f41ab61a5c9a-d.jpg,,
19282813,Pacific Skies: American Flyers in World War II,,,,Jerome Klinkowitz,2004,,University Press of Mississippi,,308,0,English,64,avaxhome.ws,,"9781578066520,1578066522",,,,,940.54/25,D790 .K563 2004,,,OL3680804M,24426,0,,,,,,,1,2271585,djvu,DA02E9DA5590330B52B74A12D1B49346,,,Y. dl_avaxhome 24426  _=pacific_skies-american_fliers_in_WW2.djvu,0,2000-01-01 01:00:00,2016-04-03 02:51:08,261000/da02e9da5590330b52b74a12d1b49346-d.jpg,,
19282814,The Topology of Chaos: Alice in Stretch and Squeezeland,,,,"Robert Gilmore, Marc Lefranc",2002,1st,Wiley-VCH,,511,0,English,121,avaxhome.ws,,"9780471408161,0471408166",,,,,,,,,OL7616782M,24453,0,,,,,,,1,25846191,pdf,BBADA3A53198CBC023B46FA783B648E8,,,Y. dl_avaxhome 24453  _=TopologCha.pdf,0,2000-01-01 01:00:00,2016-04-03 02:51:08,261000/bbada3a53198cbc023b46fa783b648e8-d.jpg,,
19282815,Killer Investment Banking Resumes! The WetFeet Insider Guide,,,,WetFeet,2003,,Wetfeet.Com,,48,0,English,1,avaxhome.ws,,"9781582073125,1582073120",,,,,,,,,OL22065117M,24466,0,,,,,,,1,2170268,pdf,B80B97502240E9F48C9BC381833F3A52,,,Y. dl_avaxhome 24466  _=Killer_Investment_Banking_Resumes.PDF,0,2000-01-01 01:00:00,2016-04-03 02:51:08,261000/b80b97502240e9f48c9bc381833f3a52-d.jpg,,
19282816,"101 Workouts: Build Muscle, Lose Fat & Reach Your Fitness Goals Faster",,,,Muscle & Fitness Magazine,2008,,Triumph Books,,147,0,English,289,avaxhome.ws,,"9781600780240,1600780245",,,,,,,,,OL12505258M,24501,0,,,,,,,1,13632402,pdf,260045CEC287C87E1750DE8B029176C0,,,Y. dl_avaxhome 24501  _=Muscle._.Fitness.101.Workouts.pdf,0,2000-01-01 01:00:00,2016-04-03 02:51:08,261000/260045cec287c87e1750de8b029176c0-d.jpg,,
19282817,LINPACK Users' Guide,,,,"J.J Dongarra, G.W. Stewart",1987,,Society for Industrial  Mathematics,,371,0,English,113,avaxhome.ws,,"9780898711721,089871172X",,,,,,,,,OL8271710M,24523,0,,,,,1,1,1,22576359,pdf,058B78F1BB3226529366C3053B525481,,,Y. dl_avaxhome 24523  _=linguide.pdf,0,2000-01-01 01:00:00,2016-04-03 02:51:08,261000/058b78f1bb3226529366c3053b525481-g.jpg,,
19282818,Mathematical Physics: Applied Mathematics for Scientists and Engineers,,Physics Textbook,,"Bruce R. Kusse, Erik A. Westwig",2006,2,Wiley-VCH,,699,0,English,113,avaxhome.ws,,"9783527406722,3527406727",,,,,,,,,OL9052987M,24549,0,,,,,,1,1,10171295,pdf,9C66FC7212C204D8358C3D3ED55F69CE,,,Y. dl_avaxhome 24549  _=MathPhy.pdf,0,2000-01-01 01:00:00,2016-04-03 02:51:08,261000/9c66fc7212c204d8358c3d3ed55f69ce-d.jpg,,
19282819,"Newnes Radio and RF Engineering Pocket Book, ",,Newnes Pocket Books,,"Steve Winder, Joseph Carr",2002,3,Newnes,,355,0,English,210,avaxhome.ws,,"9780750656085,0750656085",,,,,,,,,OL7972395M,24563,0,,,,,,1,1,2253587,pdf,23C9F3707F41120D6162BBB7064669DD,,,Y. dl_avaxhome 24563  _=E.pdf,0,2000-01-01 01:00:00,2016-04-03 02:51:08,261000/23c9f3707f41120d6162bbb7064669dd-d.jpg,,
19282820,Atlas of African-American History,,Facts on File,,James Ciment,2007,Revised,Facts on File,,257,0,English,64,avaxhome.ws,,"0816067139,978-0-8160-6713-8",,,,,973/.0496073,E185 .C55 2007,,,OL17906445M,24572,0,,,,,,1,1,14622635,pdf,B14AF7EA62E8CCBCF87D3AAF51A588CA,,,Y. dl_avaxhome 24572  _=0816067139.pdf,0,2000-01-01 01:00:00,2016-04-03 02:51:08,261000/b14af7ea62e8ccbcf87d3aaf51a588ca-d.jpg,,
19282821,Flash CS4 For Dummies,,,,"Ellen Finkelstein, Gurdy Leete",2008,illustrated edition,For Dummies,,402,0,English,183,avaxhome.ws,,"9780470381199,0470381191",,,,,"006.7 $2 22,006.696 $2 22",,,,OL23110401M,24578,0,,,,,,,1,15438237,pdf,EF9ABB96A89D05C8F4D9BA060B147D80,,,Y. dl_avaxhome 24578  _=FlaDum.pdf,0,2000-01-01 01:00:00,2016-04-03 02:51:08,261000/ef9abb96a89d05c8f4d9ba060b147d80-d.jpg,,
19282822,Internal Medicine Essentials for Clerkship Students 2,,,,"American College of Physicians, American College of Physicians, Clerkship Directors in Internal Medicine",2008,2,Clerkship Directors in Internal Medicine,,369,0,English,264,avaxhome.ws,,"9781934465134,1934465135",,,,,,,,,,24580,0,,,,,,,1,8298003,pdf,D4A65E997F2DEA46DA3CC011D19F99C0,,,Y. dl_avaxhome 24580  _=Internal_Medicine_Essentials_for_Clerkship_Students_2.pdf,0,2000-01-01 01:00:00,2016-04-03 02:51:08,261000/d4a65e997f2dea46da3cc011d19f99c0-d.jpg,,
19282823,Magic in Ancient Egypt,,,,Geraldine Pinch,1994,2nd,British Museum Press,,189,0,English,64,avaxhome.ws,,"9780714119366,0714119369",,,,,,,,,,24594,0,,,,,,,1,5676615,pdf,181D357038C7A0302EBE2308D68C29A1,,,Y. dl_avaxhome 24594  _=MagAnEg.pdf,0,2000-01-01 01:00:00,2016-04-03 02:51:08,261000/181d357038c7a0302ebe2308d68c29a1-d.jpg,,
19282824,Roman Monarchy and the Renaissance Prince,,Ideas in Context,,Peter Stacey,2007,,Cambridge University Press,,361,0,English,195,avaxhome.ws,,"0521869897,9780521869898,9780511275562",,,,,,,,,OL22744335M,24598,0,,,,1,0,1,1,2588370,pdf,CEA04F9840B7B6BE326A3561D30A0635,,,Y. dl_avaxhome 24598  _=0020.pdf,0,2000-01-01 01:00:00,2016-04-03 02:51:08,261000/cea04f9840b7b6be326a3561d30a0635-d.jpg,,
19282825,Professional Cooking,,,,Wayne Gisslen,2006,6,Wiley,,1025,0,English,49,avaxhome.ws,0,"9780471663768,047166376X",,,,,641.5/7,TX820 .G54 2006,,,,24605,0,,,,,,,1,41874261,pdf,4D91D59C036ADD1C338A0035858989CE,5EC93F64B8CCD7F5E1C995B14351A875,no,Y. dl_avaxhome 24605  _=ProfCook.pdf,0,2000-01-01 01:00:00,2016-04-03 02:51:08,261000/4d91d59c036add1c338a0035858989ce-d.jpg,,
19282826,Expert Card Technique: Close-Up Table Magic,,,,"Jean Hugard, Frederick Braue",1974,1st,Dover Publications,,336,0,English,87,avaxhome.ws,,"9780486217550,0486217558",,,,,,,,,OL7635067M,24606,0,,,,,,,0,6988775,pdf,9F29D5A3C54E06C32EE3C6E3B6B64FAC,,,Y. dl_avaxhome 24606  _=ExpCardTech.pdf,0,2000-01-01 01:00:00,2016-04-03 02:51:08,261000/9f29d5a3c54e06c32ee3c6e3b6b64fac-d.jpg,,
19282827,Home Emergency Guide,,Reference,,Dr. Vivien Armstrong,2003,,Dorling Kindersley Publishers Ltd,,260,0,English,198,avaxhome.ws,,"9780751337310,0751337315",,,,,,,,,,24610,0,,,,,,,1,7656598,pdf,98756CAC65BD9AB8CE1DADA47BEA9B56,,,Y. dl_avaxhome 24610  _=HomEmerg.pdf,0,2000-01-01 01:00:00,2016-04-03 02:51:08,261000/98756cac65bd9ab8ce1dada47bea9b56-d.jpg,,
19282828,The Encyclopedia of Suicide,,Facts on File Library of Health and Living,,"Glen Evans, Norman L. Farberow",2003,2,Facts on File,,369,0,English,188,avaxhome.ws,,"9780816045259,0816045259",,,,,,,,,OL23272333M,24611,0,,,,,,1,1,1310494,pdf,555587CC98A9B6FF7511EB53308E9E90,,,Y. dl_avaxhome 24611  _=0816045259_Encyclopedia_of_Suicide.pdf,0,2000-01-01 01:00:00,2016-04-03 02:51:08,261000/555587cc98a9b6ff7511eb53308e9e90-d.jpg,,
19282829,The philosophy of Marx,,,,William Leon McBride,1977,,Hutchinson,,173,0,English,195,avaxhome.ws,,"0091279801,9780091279806",,,,,193,B3305.M74 M26,,3s-sQgAACAAJ,OL4601873M,24616,0,,,,0,1,1,1,14670255,pdf,B9AB0A6051C5573ACF382B2796FD7821,,,Y. dl_avaxhome 24616  _=0091279801_-_William_Leon_McBride_-_The_philosophy_of_Marx.pdf,0,2000-01-01 01:00:00,2016-04-03 02:51:08,261000/b9ab0a6051c5573acf382b2796fd7821-g.jpg,,
19282830,Authenticity: Clearing the Junk: A Buddhist Perspective,,,,Venerable Yifa,2007,,Lantern Books,,130,0,English,205,avaxhome.ws,,"9781590561096,1590561090",,,,,294.3/444,BQ5405 .Y55 2007,,,OL12369425M,24623,0,,,,,,1,1,5097223,pdf,59FF7229ADAD22E1659FAC6E218E5AB3,,,Y. dl_avaxhome 24623  _=dd30.pdf,0,2000-01-01 01:00:00,2016-04-03 02:51:08,261000/59ff7229adad22e1659fac6e218e5ab3-d.jpg,,
19282831,Everybody Knows: Cynicism in America,,,,William Chaloupka,1999,1st,University of Minnesota Press,,261,0,English,189,avaxhome.ws,,"9780816633104,081663310X",,,,,,,,,OL8070342M,24624,0,,,,,,1,1,5930190,pdf,8D2DE0263198897123A24E60E4A8AECA,,,Y. dl_avaxhome 24624  _=dd29.pdf,0,2000-01-01 01:00:00,2016-04-03 02:51:08,261000/8d2de0263198897123a24e60e4a8aeca-d.jpg,,
19282832,"Mothering Without a Compass: White Mother's Love, Black Son's Courage",,,,Becky Thompson,2000,,University of Minnesota Press,,179,0,English,189,avaxhome.ws,,"9780816636358,0816636354",,,,,306.874/3,HQ75.53 .T48 2000,,,OL6776329M,24625,0,,,,,,1,1,5164898,pdf,3D8EF36EFD2B4ED9B51CCB96BD09D4FC,,,Y. dl_avaxhome 24625  _=dd28.pdf,0,2000-01-01 01:00:00,2016-04-03 02:51:08,261000/3d8ef36efd2b4ed9b51ccb96bd09d4fc-d.jpg,,
19282833,The Meaning of Wilderness: Essential Articles and Speeches,,Outdoor Essays & Reflections,,"Sigurd F. Olson, David Backes",2001,,University of Minnesota Press,,225,0,English,314,avaxhome.ws,,"9780816637089,0816637083",,,,,508.7,QH102 .O386 2001,,,OL6777407M,24626,0,,,,,,1,1,5607214,pdf,D3D8E8F4116FA4010E862C5A3022F257,,,Y. dl_avaxhome 24626  _=dd27.pdf,0,2000-01-01 01:00:00,2016-04-03 02:51:08,261000/d3d8e8f4116fa4010e862c5a3022f257-d.jpg,,
19282834,There's No Place Like Home Video,,,,James M. Moran,2002,,University of Minnesota Press,,253,0,English,314,avaxhome.ws,,"9780816638000,0816638004",,,,,384.55/8,PN1992.945 .M67 2002,,,OL3551591M,24627,0,,,,,,1,1,6062730,pdf,37FE01C1E8E623A8D814D2C39E837AC0,,,Y. dl_avaxhome 24627  _=dd26.pdf,0,2000-01-01 01:00:00,2016-04-03 02:51:08,261000/37fe01c1e8e623a8d814d2c39e837ac0-d.jpg,,
19282835,Masking and Power: Carnival and Popular Culture in the Caribbean,,,,Gerard Aching,2002,,University of Minnesota Press,,191,0,English,314,avaxhome.ws,,"9780816640171,0816640173",,,,,,,,,OL8070656M,24628,0,,,,,,1,1,6124286,pdf,19D02F77A068CBF87C3103E0543C35B0,,,Y. dl_avaxhome 24628  _=dd25.pdf,0,2000-01-01 01:00:00,2016-04-03 02:51:08,261000/19d02f77a068cbf87c3103e0543c35b0-d.jpg,,
19282836,Forensic Science Glossary,,,,John C. Brenner,1999,1,CRC Press,,185,0,English,181,avaxhome.ws,,"9780849311963,0849311969",,,,,363.25/03,HV8073 .B677 2000,,,OL6891151M,24630,0,,,,,,1,1,5370794,pdf,7177282AB0961AC350D361D1A7FA8068,,,Y. dl_avaxhome 24630  _=dd23.pdf,0,2000-01-01 01:00:00,2016-04-03 02:51:08,261000/7177282ab0961ac350d361d1a7fa8068-d.jpg,,
19282837,Stepping Stones: A Guide for Mature-Aged Students at University,,,,"Jill Scevak, Robert Cantwell",2007,,Acer Press,,151,0,English,1,avaxhome.ws,,"9780864314147,0864314140",,,,,,,,,,24631,0,,,,,,1,1,5855923,pdf,2A4EFF31649AC330B3AC84C9C984BBC5,,,Y. dl_avaxhome 24631  _=dd22.pdf,0,2000-01-01 01:00:00,2016-04-03 02:51:08,261000/2a4eff31649ac330b3ac84c9c984bbc5-d.jpg,,
19282838,Everyday Writing Center: A Community of Practice,,,,"Anne Ellen Geller, Michele Eodice, Frankie Condon, Meg Carroll, Elizabeth Boquet",2006,1,Utah State University Press,,154,0,English,183,avaxhome.ws,,"9780874216561,0874216567",,,,,,,,,OL22752391M,24633,0,,,,,,1,1,5282001,pdf,81F304FAB32D32C68132FAF6803D75C1,,,Y. dl_avaxhome 24633  _=dd20.pdf,0,2000-01-01 01:00:00,2016-04-03 02:51:08,261000/81f304fab32d32c68132faf6803d75c1-d.jpg,,
19282839,Hunting and Gathering in the Corporate Tribe: Archetypes of the Corporate Culture,,,,Keith Wilcock,2008,,Algora Publishing,,231,0,English,1,avaxhome.ws,,"9780875862507,0875862500",,,,,302.3/5,GN450.8 .W55 2003,,,OL3678148M,24634,0,,,,,,,1,5194935,pdf,C291B767614DFA8083DCCBE4798E3B2A,,,Y. dl_avaxhome 24634  _=dd19.pdf,0,2000-01-01 01:00:00,2016-04-03 02:51:08,261000/c291b767614dfa8083dccbe4798e3b2a-d.jpg,,
19282840,"Ecce Homo, and the Antichrist: How One Becomes What One is/a curse on Christianity",,,,Friedrich Wilhelm Nietzsche,2004,,Algora Publishing,,183,0,English,195,avaxhome.ws,,"9780875862811,0875862810",,,,,193,B3316.N54 A3413 2004,,,OL3291024M,24635,0,,,,,,1,1,5407029,pdf,6CF7214B912D9C4AAC5CE627A85DCFAA,,,Y. dl_avaxhome 24635  _=dd18.pdf,0,2000-01-01 01:00:00,2016-04-03 02:51:08,261000/6cf7214b912d9c4aac5ce627a85dcfaa-d.jpg,,
19282841,Grundlagen und Modelle des Information Lifecycle Management,,Xpert.press,,Günter Thome; Wolfgang Sollbach,2007,,Springer,Berlin ; New York,404,0,German,,usenet,to 2012-06,"9783540690818,3540690816",,,,,,,,,,,0,,,,,,,1,9184137,pdf,0ade41a7fef1f50fda1f69ce6e9aed9e,,,I:\\usenet_ger\\Grundlagen.und.Modelle.des.Information.Lifecycle.Management.-.Springer.-.2007.-.x2673n.pdf,0,2000-01-01 01:00:00,2016-04-03 02:51:08,883000/0ade41a7fef1f50fda1f69ce6e9aed9e-g.jpg,,
19282842,American Narcissism: The Myth of National Superiority,,,,Wilber W. Caldwell,2006,,Algora Publishing,,194,0,English,64,avaxhome.ws,,"9780875864679,0875864678",,,,,,,,,OL8090112M,24636,0,,,,,,,1,6202726,pdf,4F3BB53CB22A33032B43969DDFC5D6B2,,,Y. dl_avaxhome 24636  _=dd17.pdf,0,2000-01-01 01:00:00,2016-04-03 02:51:08,261000/4f3bb53cb22a33032b43969ddfc5d6b2-d.jpg,,
19282843,Adversarial Justice: America's Court System on Trial,,,,Theodore L. Kubicek,2006,,Algora Publishing,,223,0,English,189,avaxhome.ws,,"9780875865270,0875865275",,,,,,,,,OL8090131M,24637,0,,,,,,,1,5897253,pdf,2D0EEE944B9FC265278DF91D5C6DB247,,,Y. dl_avaxhome 24637  _=dd16.pdf,0,2000-01-01 01:00:00,2016-04-03 02:51:08,261000/2d0eee944b9fc265278df91d5c6db247-d.jpg,,
19282844,25 Doctrines of Law You Should Know,,,,Philip Chase Tobin,2007,,Algora Publishing,,237,0,English,313,avaxhome.ws,,"9780875865362,0875865364",,,,,349.73,KF380 .C48 2007,,,OL11164383M,24638,0,,,,,,,1,5750768,pdf,80651783978B3814D815EC489432B0D6,,,Y. dl_avaxhome 24638  _=dd15.pdf,0,2000-01-01 01:00:00,2016-04-03 02:51:08,261000/80651783978b3814d815ec489432b0d6-d.jpg,,
19282845,Crimes of Punishment: America's Culture of Violence,,,,Theodore L. Dorpat,2007,,Algora Publishing,,307,0,English,311,avaxhome.ws,,"9780875865638,0875865631",,,,,364.973,HV6080 .D64 2007,,,OL11164393M,24639,0,,,,,,,1,5467892,pdf,63A228E85E89B9183B19B995ABBC60D8,,,Y. dl_avaxhome 24639  _=dd14.pdf,0,2000-01-01 01:00:00,2016-04-03 02:51:08,261000/63a228e85e89b9183b19b995abbc60d8-d.jpg,,
19282846,The Overactive Bladder: Evaluation and Management,,,,"Kreder Karl, Roger Dmochowski",2007,1,Informa Healthcare,,456,0,English,6,avaxhome.ws,,"9781841846309,1841846309",,,,,,,,,OL9777911M,24657,0,,,,,,,1,9885532,pdf,C4C69B0F2DC55E080E30DDE230C2E6E0,,,Y. dl_avaxhome 24657  _=1841846309.pdf,0,2000-01-01 01:00:00,2016-04-03 02:51:08,261000/c4c69b0f2dc55e080e30dde230c2e6e0-d.jpg,,
19282847,Ocular Therapeutics: Eye on New Discoveries,,,,"Thomas Yorio, Abbott Clark, Martin B Wax",2008,1,Academic Press,,537,0,English,147,avaxhome.ws,,"9780123705853,0123705851",,,,,,,,,OL10071904M,24671,0,,,,,,,1,7959590,pdf,2A247EA388FE8FFCA456E93149BFF5A4,,,Y. dl_avaxhome 24671  _=0123705851.pdf,0,2000-01-01 01:00:00,2016-04-03 02:51:08,261000/2a247ea388fe8ffca456e93149bff5a4-d.jpg,,
19282848,Dictionary of Distances,,,,"Michel Marie Deza, Elena Deza",2006,1,Elsevier Science,,412,0,English,322,avaxhome.ws,,"9780444520876,0444520872",,,,,,,,,OL22743363M,24672,0,,,,,,,,13462585,rar,E5FED0852F31EF1FF31498E8C29EF693,,,24672 =0444520872.rar,0,2000-01-01 01:00:00,2016-04-03 02:51:08,261000/e5fed0852f31ef1ff31498e8c29ef693-d.jpg,,
19282849,FIRST COLD WAR: THE LEGACY OF WOODROW WILSON IN U.S. - SOVIET RELATIONS,,,,"Donald E. Davis, Eugene P. Trani",2002,1,University of Missouri,,356,0,English,64,avaxhome.ws,,"9780826213884,082621388X",,,,,327.73047/09/041,E183.8.S65 D386 2002,,,OL3560569M,24708,0,,,,,,,1,8594310,pdf,3B0A5F9B3E35DFF8DC84AA95D9C9A48F,,,Y. dl_avaxhome 24708  _=The_First_Cold_War.PDF,0,2000-01-01 01:00:00,2016-04-03 02:51:08,261000/3b0a5f9b3e35dff8dc84aa95d9c9a48f-d.jpg,,
19282850,"Closing the Gate: Race, Politics, and the Chinese Exclusion Act",,,,Andrew Gyory,1998,,University of North Carolina Press,,354,0,English,64,avaxhome.ws,,"9780807824320,0807824321",,,,,325.73/089/951,E184.C5 G9 1998,,,OL699945M,24711,0,,,,,,,,1864706,chm,1D6221D7592AE1AD7BCC1B0399085E83,,,Y. dl_avaxhome 24711  _=Closing_the_Gate.CHM,0,2000-01-01 01:00:00,2016-04-03 02:51:08,261000/1d6221d7592ae1ad7bcc1b0399085e83-d.jpg,,
19282851,Surpassing Realism: The Politics of European Integration since 1945,,Governance in Europe,,Mark F. Gilbert,2003,,"Rowman & Littlefield Publishers, Inc.",,299,0,English,64,avaxhome.ws,,"9780742519145,0742519147",,,,,,,,,OL22538762M,24727,0,,,,,,,1,21483646,pdf,939F99855575D896268A87F16D29706E,,,Y. dl_avaxhome 24727  _=Surpassing_Realism.pdf,0,2000-01-01 01:00:00,2016-04-03 02:51:08,261000/939f99855575d896268a87f16d29706e-d.jpg,,
19282852,Tattooing A to Z: A Guide to Successful Tattooing/Guide to Sterile Tattooing Techniques,,,,Huck Spaulding,1988,Bk&Guide,Spaulding & Rogers Manufacturing,,128,0,English,41,avaxhome.ws,,"9780929719009,092971900X",,,,,,,,,OL8358579M,24734,0,,,,,,1,1,25403546,pdf,C1CE81FE363AEF16BA9783D090DE35EF,,,Y. dl_avaxhome 24734  _=TattAZ.pdf,0,2000-01-01 01:00:00,2016-04-03 02:51:08,261000/c1ce81fe363aef16ba9783d090de35ef-g.jpg,,
19282853,A Vindication of the Rights of Woman,,Dover Thrift Editions,,Mary Wollstonecraft,1996,2,Dover Publications,,487,0,English,189,avaxhome.ws,,0486290360,,,,,,,,,,24742,0,,,,,1,,1,16248658,pdf,EF683D8DB9068C139186A1A3F1E6A17C,,,Y. dl_avaxhome 24742  _=233196___a_vindication_of_the_rights_of_woman.pdf,0,2000-01-01 01:00:00,2016-04-03 02:51:08,261000/ef683d8db9068c139186a1a3f1e6a17c-d.jpg,,
19282854,The Post Card: From Socrates to Freud and Beyond,,,,Jacques Derrida,1987,illustrated edition,Univ of Chicago Pr (Tx),,549,0,French,195,avaxhome.ws,,"9780226143200,0226143201",,,,,194,B2430.D484,,,OL22630112M,24768,0,,,,,,1,0,30168889,pdf,D34581A0619021B26F0B0E79DDED1889,,,Y. dl_avaxhome 24768  _=postcard.pdf,0,2000-01-01 01:00:00,2016-04-03 02:51:08,261000/d34581a0619021b26f0b0e79dded1889-g.jpg,,
19282855,Air Pollution and Health in Rapidly Developing Countries,,,,"Gordon McGranahan, Frank Murray",2003,illustrated edition,Earthscan Publications Ltd.,,255,0,English,164,avaxhome.ws,,"185383985X,9781853839856",,,,,,,,,OL15543108M,24772,0,,,,,1,,1,2447222,pdf,EA799EE68ECCE3902DC1FD21A83BD4AC,,,Y. dl_avaxhome 24772  _=McGranahan_Air_Pollution_and_Health_in_Rapidly_Developing_Countries_185383985X.pdf,0,2000-01-01 01:00:00,2016-04-03 02:51:08,261000/ea799ee68ecce3902dc1fd21a83bd4ac-d.jpg,,
19282856,The Culture of Slander in Early Modern England,,Cambridge Studies in Renaissance Literature and Culture,,M. Lindsay Kaplan,1997,,Cambridge University Press,,164,0,English,64,avaxhome.ws,,"9780521584081,0521584086",,,,,820.9/355,PR428.L53 K37 1997,,,OL1005739M,24785,0,,,,,,,,1083212,chm,94CB65D473938F8E3E1BA17BF2A8C8B3,,,Y. dl_avaxhome 24785  _=The_Culture_of_Slander.CHM,0,2000-01-01 01:00:00,2016-04-03 02:51:08,261000/94cb65d473938f8e3e1ba17bf2a8c8b3-d.jpg,,
19282857,"Creative Suite 3 Integration: Photoshop, Illustrator, InDesign, Dreamweaver, Flash Pro, Acrobat, Bridge and Version Cue",,,,Keith Martin,2007,,Focal Press,,351,0,English,181,avaxhome.ws,,"9780240520599,0240520599",,,,,,,,,OL17241800M,24786,0,,,,,,,1,85117433,pdf,C769E16EA30C9291121EAF322BBE5DC4,,,Y. dl_avaxhome 24786  _=0240520599.pdf,0,2000-01-01 01:00:00,2016-04-03 02:51:08,261000/c769e16ea30c9291121eaf322bbe5dc4-d.jpg,,
19282858,Flash Journalism: How to Create Multimedia News Packages,,,,Mindy McAdams,2005,,Focal Press,,519,0,English,,avaxhome.ws,,"9780240806976,0240806972",,,,,070.4,PN4784.O62 M38 2005,,,OL3296738M,24789,0,,,,,,1,1,18893626,pdf,8F0C43B963BA104F1508B590FD190FEF,,,Y. dl_avaxhome 24789 big06972  _=Flash Journalism - How to Create Multimedia News Packages.pdf,0,2000-01-01 01:00:00,2016-04-03 02:51:08,261000/8f0c43b963ba104f1508b590fd190fef-d.jpg,,
19282859,Arithmetic Moduli of Elliptic Curves.,,Annals of Mathematics Studies 108,,"Nicholas M. Katz, Barry Mazur",1985,,Princeton University Press,,526,0,English,113,avaxhome.ws,,"9780691083520,0691083525",,,,,516.3/5,QA567 .K3 1985,,,OL3185773M,24801,0,,,,,,,1,8370212,djvu,332A8B824CFC23FB548A7F28CD655D1B,,,Y. dl_avaxhome 24801  _=Katz_Mazur-arithmetic_moduli_of_elliptic_curves.djvu,0,2000-01-01 01:00:00,2016-04-03 02:51:08,261000/332a8b824cfc23fb548a7f28cd655d1b-d.jpg,,
19282860,High Throughput Screening: Methods and Protocols,,"Methods in Molecular Biology, 190",,William P. Janzen,2002,1st,Humana Press,,280,0,English,12,avaxhome.ws,,"9780896038899,0896038890",,,,,,,,,OL18136318M,24810,0,,,,,,,,2793621,rar,E70613EDFFBCFB0EBF43E4234731699D,,,24810 =0896038890.rar,0,2000-01-01 01:00:00,2016-04-03 02:51:08,261000/e70613edffbcfb0ebf43e4234731699d-d.jpg,,
19282861,Animating with Flash 8: Creative Animation Techniques,,,,Alex Michael,2006,,Focal Press,,456,0,English,84,avaxhome.ws,,"0240519663,9780240519661,9780080470856",,,,,,,,,OL9680729M,24811,0,,,,,0,,1,20480309,pdf,9C4053A369836C6D322C7618C90A3434,,,Y. dl_avaxhome 24811  _=0240519663.pdf,0,2000-01-01 01:00:00,2016-04-03 02:51:08,261000/9c4053a369836c6d322c7618c90a3434-d.jpg,,
19282862,Sex Tips from a Dominatrix,,,,Patricia Payne,2009,Reprint,It Books,,226,0,English,201,avaxhome.ws,,"9780061547331,0061547336,006072191X,0060392878,9780060392871,9780060721916",,,,,306.77/5,HQ79 .P35 1999,,,OL23389421M,24825,0,,,,,1,1,1,1116916,pdf,31E4B30B7CD4865D2F581CC0AF18D507,,,Y. dl_avaxhome 24825  _=Sex_Tips_From_a_Dominatrix_0061547336.pdf,0,2000-01-01 01:00:00,2016-04-03 02:51:08,261000/31e4b30b7cd4865d2f581cc0af18d507-d.jpg,,
19282863,Satellite Systems Engineering in an IPv6 Environment,,,,Daniel Minoli,2009,1,Auerbach Publications,,360,0,English,210,avaxhome.ws,,"9781420078688,1420078682",,,,,621.382/5,TK5104 .M54 2009,,,OL11817475M,24827,0,,,,,,,,17916332,rar,CA9A1AA8E2F812B86F28DADA07AAA424,,,24827 =satsist.rar,0,2000-01-01 01:00:00,2016-04-03 02:51:08,261000/ca9a1aa8e2f812b86f28dada07aaa424-d.jpg,,
19282864,"The Post-Colonial Critic: Interviews, Strategies, Dialogues",,,,"Gayatri Chakravorty Spivak, Sarah Harasym",1990,,Routledge,,175,0,English,195,avaxhome.ws,,"9780415901703,0415901707",,,,,306/.09/04,HN27 .S66 1990,,,OL2191731M,24916,0,,,,,,1,1,6684822,pdf,459375A546D3747802C3864A49D44CEB,,,Y. dl_avaxhome 24916  _=postcolonial_critic.pdf,0,2000-01-01 01:00:00,2016-04-03 02:51:08,261000/459375a546d3747802c3864a49d44ceb-d.jpg,,
19282865,Jethro Tull - Flute Solos: As Performed by Ian Anderson,,,,"Jethro Tull, Ian Anderson",2006,1,Hal Leonard Corporation,,48,0,English,62,avaxhome.ws,,"1423409779,9781423409779",,,,,,,,,OL8495201M,24918,0,,,,,1,,0,13410189,pdf,0B41ADFB62EA683E2C46A80903B071BC,,,Y. dl_avaxhome 24918  _=Jethro_Tull_Flute_Solos_Songbook.pdf,0,2000-01-01 01:00:00,2016-04-03 02:51:08,261000/0b41adfb62ea683e2c46a80903b071bc-d.jpg,,
19282866,"Real-Resumes for Restaurant, Food Service & Hotel Jobs: Including Real Resumes Used to Change Careers and Transfer Skills to Other Industries",,Real-Resumes Series,,Anne McKinney,2002,,Prep Publishing,,193,0,English,229,avaxhome.ws,,"9781885288288,188528828X",,,,,650.14/2,HF5383 .R39589 2002,,,OL3561523M,24932,0,,,,,,1,1,5414909,pdf,4A38630F52F85B6A51EDE559A8C12D36,,,Y. dl_avaxhome 24932  _=ee18.pdf,0,2000-01-01 01:00:00,2016-04-03 02:51:08,261000/4a38630f52f85b6a51ede559a8c12d36-d.jpg,,
19282867,Real Resumes for Social Work and Counseling Jobs: Including Real Resumes Used to Change Careers and Transfer Skills to Other Industries,,Real-Resumes Series,,Anne McKinney,2002,,Prep Publishing,,193,0,English,1,avaxhome.ws,,"9781885288264,1885288263",,,,,650.14/2,HF5383 .R3962 2002,,,OL24922374M,24933,0,,,,,,1,1,5416333,pdf,FDCCF33D53982F842C77435BB4C95791,,,Y. dl_avaxhome 24933  _=ee17.pdf,0,2000-01-01 01:00:00,2016-04-03 02:51:08,261000/fdccf33d53982f842c77435bb4c95791-d.jpg,,
19282868,"Real Resumes for Police, Law Enforcement and Security Jobs: Including Real Resumes Used to Change Careers and Transfer Skills to Other Industries)",,Real-Resumes Series,,Anne McKinney,2002,,Prep Publishing,,193,0,English,313,avaxhome.ws,,"9781885288257,1885288255",,,,,650.14/2,HF5383 .R39588 2002,,,OL24922373M,24934,0,,,,,,1,1,5542713,pdf,64442591565C255FA656E50662084712,,,Y. dl_avaxhome 24934  _=ee16.pdf,0,2000-01-01 01:00:00,2016-04-03 02:51:08,261000/64442591565c255fa656e50662084712-d.jpg,,
19282869,Real-Resumes for Aviation & Travel Jobs: Including Real Resumes Used to Change Careers and Transfer Skills to Other Industries,,Real-Resumes Series,,Anne McKinney,2002,,Prep Publishing,,193,0,English,1,avaxhome.ws,,"9781885288240,1885288247",,,,,650.14/2,HF5383 .R3954 2002,,,OL24922369M,24935,0,,,,,,1,1,5609848,pdf,FFBB3EE2820A686A0D01EAD1832257CC,,,Y. dl_avaxhome 24935  _=ee15.pdf,0,2000-01-01 01:00:00,2016-04-03 02:51:08,261000/ffbb3ee2820a686a0d01ead1832257cc-d.jpg,,
19282870,Real-Resumes for Manufacturing Jobs: Including Real Resumes Used to Change Careers and Transfer Skills to Other Industries,,Real-Resumes Series,,Anne McKinney,2002,,Prep Publishing,,193,0,English,1,avaxhome.ws,,"9781885288233,1885288239",,,,,650.14/2,HF5383 .R39587 2002,,,OL24922372M,24936,0,,,,,,1,1,5453618,pdf,6FAF2920AB4333C6AF14BCD48C2DDBC4,,,Y. dl_avaxhome 24936  _=ee14.pdf,0,2000-01-01 01:00:00,2016-04-03 02:51:08,261000/6faf2920ab4333c6af14bcd48c2ddbc4-d.jpg,,
19282871,Real Essays for College and Grad School,,Real-Resumes Series,,Anne McKinney,2000,,Prep Publishing,,193,0,English,1,avaxhome.ws,,"9781885288202,1885288204",,,,,378.1/616,LB2351.52.U6 R42 2000,,,OL22856916M,24937,0,,,,,,1,1,5693344,pdf,FBC2F42A452CBA7D337B09B602B29D79,,,Y. dl_avaxhome 24937  _=ee13.pdf,0,2000-01-01 01:00:00,2016-04-03 02:51:08,261000/fbc2f42a452cba7d337b09b602b29d79-d.jpg,,
19282872,Real-Resumes for Students,,Real-Resumes Series,,Anne McKinney,2000,1,Prep Publishing,,193,0,English,1,avaxhome.ws,,"9781885288189,1885288182",,,,,"650.14/2,808/.06665",HF5383 .R3963 2000,,,OL24927659M,24938,0,,,,,,1,1,5604501,pdf,2AF2BF67C133AD37C3E98A216C67839F,,,Y. dl_avaxhome 24938  _=ee12.pdf,0,2000-01-01 01:00:00,2016-04-03 02:51:08,261000/2af2bf67c133ad37c3e98a216c67839f-d.jpg,,
19282873,Real-Resumes for Sales,,Real-Resumes Series,,Anne McKinney,2000,,Prep Publishing,,193,0,English,1,avaxhome.ws,,"9781885288165,1885288166",,,,,,,,,OL8703531M,24939,0,,,,,,1,1,5584175,pdf,CE8F104CF834FDE7F85A9154BCABAEA3,,,Y. dl_avaxhome 24939  _=ee11.pdf,0,2000-01-01 01:00:00,2016-04-03 02:51:08,261000/ce8f104cf834fde7f85a9154bcabaea3-d.jpg,,
19282874,Real-Resumes for Financial Jobs,,Real-Resumes Series,,Anne McKinney,2001,,Prep Publishing,,193,0,English,305,avaxhome.ws,,"9781885288158,1885288158",,,,,,,,,OL8703530M,24940,0,,,,,,1,1,5504583,pdf,50521EFAF79660C798F93E5E33448648,,,Y. dl_avaxhome 24940  _=ee10.pdf,0,2000-01-01 01:00:00,2016-04-03 02:51:08,261000/50521efaf79660c798f93e5e33448648-d.jpg,,
19282875,Real-Resumes for Medical Jobs,,Real-Resumes Series,,Anne McKinney,2001,1,Prep Publishing,,193,0,English,147,avaxhome.ws,,"9781885288141,188528814X",,,,,,,,,OL8703529M,24941,0,,,,,,1,1,5834981,pdf,13F3A0A88FA5C5B4455EBBF6FF57EBB9,,,Y. dl_avaxhome 24941  _=ee09.pdf,0,2000-01-01 01:00:00,2016-04-03 02:51:08,261000/13f3a0a88fa5c5b4455ebbf6ff57ebb9-d.jpg,,
19282876,Real-Resumes for Computer Jobs,,Real-Resumes Series,,Anne McKinney,2001,,Prep Publishing,,193,0,English,69,avaxhome.ws,,"9781885288080,1885288085",,,,,808/.06665,HF5383 .R3958 2001,,,OL22997628M,24942,0,,,,,,1,1,5849828,pdf,838724DB78EDE2CCAD6BEA4AC63FA97F,,,Y. dl_avaxhome 24942  _=ee08.pdf,0,2000-01-01 01:00:00,2016-04-03 02:51:08,261000/838724db78ede2ccad6bea4ac63fa97f-d.jpg,,
19282877,Just Tell Them I Survived: Women in Antarctica,,,,Dr Robin Burns,2008,,Allen & Unwin Pty LTD,,249,0,English,41,avaxhome.ws,,"9781865083827,1865083828",,,,,919.8/9/0082,G872.A7 .B87 2001,,,OL3627670M,24944,0,,,,,,1,1,5293175,pdf,9690BBDD68B52453904C29D3ABC2597D,,,Y. dl_avaxhome 24944  _=ee06.pdf,0,2000-01-01 01:00:00,2016-04-03 02:51:08,261000/9690bbdd68b52453904c29d3abc2597d-d.jpg,,
19282878,Mind Wars: The battle for your brain,,,,Ian McFadyen,2000,,Allen & Unwin Pty LTD,,233,0,English,189,avaxhome.ws,,"9781865083162,186508316X",,,,,155.7,BF701 .M38 2000,,,OL3653476M,not,0,,,,,,,1,6835198,pdf,70DCBF0F14F3E12786682D96F83DDF07,,,Y. dl_avaxhome 24945  _=ee05.pdf,0,2000-01-01 01:00:00,2016-04-03 02:51:08,261000/70dcbf0f14f3e12786682d96f83ddf07-d.jpg,,
19282879,Rethinking Youth,,Studies in Society Series,,"Johanna Wyn, Rob White",1997,,Allen & Unwin,,179,0,English,198,avaxhome.ws,,"9781864481624,1864481625",,,,,305.235,HQ796 .W95 1997,,,OL742964M,24946,0,,,,,,1,1,5551398,pdf,9F5E54EE336361B82DAA4441477031C9,,,Y. dl_avaxhome 24946  _=ee04.pdf,0,2000-01-01 01:00:00,2016-04-03 02:51:08,261000/9f5e54ee336361b82daa4441477031c9-d.jpg,,
19282880,Gurus on Business Strategy,,,,Tony Grundy,2005,,Thorogood,,235,0,English,1,avaxhome.ws,,"9781854182623,1854182625",,,,,,,,,OL8988964M,24947,0,,,,,,1,1,5165745,pdf,2C6C8F9EEA9A076CC88B1ED099F67BFE,,,Y. dl_avaxhome 24947  _=ee03.pdf,0,2000-01-01 01:00:00,2016-04-03 02:51:08,261000/2c6c8f9eea9a076cc88b1ed099f67bfe-d.jpg,,
19282881,Third or Additional Language Acquisition,,Second Language Acquisition,,Gessica De Angelis,2007,,Multilingual Matters,,161,0,English,314,avaxhome.ws,,"9781847690043,1847690041",,,,,418.007,P115 .D39 2007,,,OL11917840M,24948,0,,,,,,,1,5407633,pdf,A70B62BD33A4C303F6F2A0DEFA0AD014,,,Y. dl_avaxhome 24948  _=ee02.pdf,0,2000-01-01 01:00:00,2016-04-03 02:51:08,261000/a70b62bd33a4c303f6f2a0defa0ad014-d.jpg,,
19282882,American Bomber Crewman 1941-45,,Warrior,,"Gregory Fremont-Barnes, Sean O'Brogain",2008,First Edition,Osprey Publishing,,68,0,English,64,avaxhome.ws,,"1846031257,9781846031250",,,,,,,,,OL11913742M,24951,0,,,,,1,1,1,25207981,pdf,8C4D71C6C6E682521B25A02889E36076,,,Y. dl_avaxhome 24951  _=CPY_American_Bomber_Crewman_1941-45.pdf,0,2000-01-01 01:00:00,2016-04-03 02:51:08,262000/8c4d71c6c6e682521b25a02889e36076-d.jpg,,
19282883,Structuring an Energy Technology Revolution,,,,"Charles Weiss, William B. Bonvillian",2009,1,The MIT Press,,331,0,English,78,avaxhome.ws,,"9780262012942,0262012944",,,,,333.790973,TJ807.9.U6 W45 2009,,,OL22652926M,24960,0,,,,,,1,1,2291902,pdf,697921051C6D4C60A6873BB799772028,,,Y. dl_avaxhome 24960  _=0262012944Structuring_an_Energy.pdf,0,2000-01-01 01:00:00,2016-04-03 02:51:08,262000/697921051c6d4c60a6873bb799772028-d.jpg,,
19282884,Superheroes!: Capes and Crusaders in Comics and Films,,,,Roz Kaveney,2008,,I. B. Tauris,,289,0,English,57,avaxhome.ws,,"1845115694,9781845115692,9781441605757",,,,,741.5,PN6714 .K38 2008,,,OL21893852M,24971,0,,,,,1,1,1,6389291,pdf,CC98D294A61CFDE58EB9B67566BF0A36,,,Y. dl_avaxhome 24971  _=1845115694_Superheroes_Capes.pdf,0,2000-01-01 01:00:00,2016-04-03 02:51:08,262000/cc98d294a61cfde58eb9b67566bf0a36-d.jpg,,
19282885,Assaulted by Joy: The Redemption of a Cynic,,,,Stephen W. Simpson,2008,,Zondervan,,242,0,English,205,avaxhome.ws,,"0310283779,9780310283775,9780310300380",,,,,"268.092,B",BR1725.S4677 A3 2008,,,OL10360553M,24974,0,,,,,1,,1,1811365,pdf,06B7288364C4A95F1BEFC549B4E4144F,,,Y. dl_avaxhome 24974  _=0310283779_Assaulted_By_Joy.pdf,0,2000-01-01 01:00:00,2016-04-03 02:51:08,262000/06b7288364c4a95f1befc549b4e4144f-d.jpg,,
19282886,"Bullying; The Bullies, the Victims, the Bystanders",,,,Sandra Harris,2003,,ScarecrowEducation,,129,0,English,,avaxhome.ws,,"9780810847057,0810847051",,,,,,,,,OL17091063M,24991,0,,,,,,1,1,6417710,pdf,030FBD3ED180FFE9BD00A80153F5537E,,,Y. dl_avaxhome 24991  _=Bullying.The.Bullies.the.Victims._the.Bystanders.0810847051.pdf,0,2000-01-01 01:00:00,2016-04-03 02:51:08,262000/030fbd3ed180ffe9bd00a80153f5537e-d.jpg,,
19282887,Habits of Mind: Fostering Access and Excellence in Higher Education,,,,"Carol Allen, William Allen",2003,,Transaction Publishers,,264,0,English,183,avaxhome.ws,,"9780765801845,0765801841",,,,,,,,,OL10936658M,24992,0,,,,,,1,1,14713160,pdf,F8CDDB5F6C3439877A3D928A7A968FC0,,,Y. dl_avaxhome 24992  _=Habits_of_Mind_0765801841.pdf,0,2000-01-01 01:00:00,2016-04-03 02:51:08,262000/f8cddb5f6c3439877a3d928a7a968fc0-d.jpg,,
19282888,Maximizing Intelligence,,,,David Armor,2003,illustrated edition,Transaction Publishers,,240,0,English,,avaxhome.ws,,"9780765801852,076580185X",,,,,,,,,OL8055696M,24993,0,,,,,,1,1,14687874,pdf,B6141F874865E2284758DC1C9EE3C341,,,Y. dl_avaxhome 24993  _=Maximizing_Intelligence_076580185X.pdf,0,2000-01-01 01:00:00,2016-04-03 02:51:08,262000/b6141f874865e2284758dc1c9ee3c341-d.jpg,,
19282889,"How to Feed Your Whole Family a Healthy, Balanced Diet: Simple, Wholesome and Nutritious Recipes for Family Meals",,,,Gill Holcombe,2008,,How to Books Ltd,,273,0,English,49,avaxhome.ws,,"9781905862153,1905862156",,,,,,,,,,25004,0,,,,,,1,1,1461098,pdf,8ACF050C36B6003AF6C9CFA19B251A6D,,,Y. dl_avaxhome 25004  _=FamHealthDi.pdf,0,2000-01-01 01:00:00,2016-04-03 02:51:08,262000/8acf050c36b6003af6c9cfa19b251a6d-d.jpg,,
19282890,Good Green Homes,,,,Jennifer Roberts,2003,1,Gibbs Smith,,135,0,English,58,avaxhome.ws,,"9781586851798,1586851799",,,,,,,,,OL8821924M,25005,0,,,,,,,1,28812967,pdf,0DFE941159E1817241564FA8B1938FF2,,,Y. dl_avaxhome 25005  _=GoGreHom.pdf,0,2000-01-01 01:00:00,2016-04-03 02:51:08,262000/0dfe941159e1817241564fa8b1938ff2-d.jpg,,
19282891,China in the World Economy,,Routledge Studies on the Chinese Economy,,Zhongmin Wu,2009,1,Routledge,,345,0,English,305,avaxhome.ws,,"9780415470025,0415470021",,,,,330.951,HC427.92 .C4644482 2009,,,OL22560035M,25014,0,,,,,,1,1,3328216,pdf,4A41EFE46B86C4F3D8CFEED44D7F0544,,,Y. dl_avaxhome 25014  _=0415470021_4.pdf,0,2000-01-01 01:00:00,2016-04-03 02:51:08,262000/4a41efe46b86c4f3d8cfeed44d7f0544-d.jpg,,
19282892,The Soviet Union: Socialist or Social-Imperialist? : Essays Toward the Debate on the Nature of Soviet Society,,,,"David Laibman, Albert Szymanski, Patrick L. Clawson, Santosh K. Mehrotra",1983,,Rcp Pubns,,114,0,English,181,avaxhome.ws,0,"9780898510621,0898510627",,,,,335.43/0947,HX313 .S64 1983,,,,25035,0,,,,,,,0,13396484,pdf,CE525CC8BAD8A6F29C816CB7FBC16CCD,E0ABB0FEBDF8220FBA1D8DF844A4B9EB,no,Y. dl_avaxhome 25035  _=the_soviet_union_socialist_or_social-imperialist.pdf,0,2000-01-01 01:00:00,2016-04-03 02:51:08,262000/ce525cc8bad8a6f29c816cb7fbc16ccd-g.jpg,,
19282893,Living and Working in Hong Kong: The Complete Practical Guide to Expatriate Life in China's Gateway,,,,Rachel Wright,2008,2,How to Books Ltd,,337,0,English,1,avaxhome.ws,,"9781845281953,1845281950",,,,,915.125046,,,,OL23125407M,25044,0,,,,,,1,1,12201893,pdf,3EE5D20056E56CDAC38D15DF66D8C77A,,,Y. dl_avaxhome 25044  _=1845281950.pdf,0,2000-01-01 01:00:00,2016-04-03 02:51:08,262000/3ee5d20056e56cdac38d15df66d8c77a-d.jpg,,
19282894,Talent Is Overrated: What Really Separates World-Class Performers from Everybody Else,,,,Geoff Colvin,2008,1,Portfolio Hardcover,,208,0,English,201,avaxhome.ws,,"9781591842248,1591842247",,,,,153.9,BF481 .C625 2008,,,OL16925524M,25046,0,,,,,,,0,23861337,pdf,6BA01697ECF33E16518248054E7B3CE2,,,Y. dl_avaxhome 25046  _=1591842247.pdf,0,2000-01-01 01:00:00,2016-04-03 02:51:08,262000/6ba01697ecf33e16518248054e7b3ce2-d.jpg,,
19282895,Approximationsalgorithmen : eine Einführung,,Leitfäden der Informatik,,Rolf Wanka,,,B.G. Teubner Verlag / GWV Fachverlage,Wiesbaden,209,0,German,,usenet,to 2012-06,"9783835190672,3835190679",,,,,,,,,,,0,,,,,,,1,8428901,pdf,8820a4f3d97efa2fc128bbe1cdbf6bff,,,I:\\usenet_ger\\Approximationsalgorithmen.-.Springer.-.2006.-.w8x33r.pdf,0,2000-01-01 01:00:00,2016-04-03 02:51:08,882000/8820a4f3d97efa2fc128bbe1cdbf6bff-g.jpg,,
19282896,"Live & Work in Brazil: Comprehensive, Up-to-date, Practical Information About Everyday Life",,,,Romasa Storey,2009,,How to Books,,160,0,English,1,avaxhome.ws,,"9781845283100,1845283104",,,,,,,,,,25048,0,,,,,,1,1,3290157,pdf,31BEEBF103FF4CAE6857B3BAE51F2E90,,,Y. dl_avaxhome 25048  _=LivWoBrazil.pdf,0,2000-01-01 01:00:00,2016-04-03 02:51:08,262000/31beebf103ff4cae6857b3bae51f2e90-d.jpg,,
19282897,The Five Minute Writer: Exercise and Inspiration in Creative Writing in Five Minutes a Day,,,,Margret Geraghty,2009,2nd,How to Books,,193,0,English,1,avaxhome.ws,,"9781845283391,1845283392",,,,,,,,,,25057,0,,,,,,1,1,653475,pdf,1C5792DE648F0BF71EC09CD81D9BECD8,,,Y. dl_avaxhome 25057  _=Five_minute_Writer.pdf,0,2000-01-01 01:00:00,2016-04-03 02:51:08,262000/1c5792de648f0bf71ec09cd81d9becd8-d.jpg,,
19282898,Context-Aware Mobile and Ubiquitous Computing for Enhanced Usability: Adaptive Technologies and Applications,,Premier Reference Source,,"Dragan Stojanovic, Dragan Stojanovic",2009,1,Information Science Reference,,463,0,English,86,avaxhome.ws,,"9781605662909,1605662909",,,,,004.6/5,QA76.5915 .C65 2009,,,OL22560417M,25059,0,,,,,,1,1,8911463,pdf,82E4BB6EC81019EEEB9EE03E76BB8695,,,Y. dl_avaxhome 25059  _=1605662909_Context-aware_Mobile.pdf,0,2000-01-01 01:00:00,2016-04-03 02:51:08,262000/82e4bb6ec81019eeeb9ee03e76bb8695-d.jpg,,
19282899,The Cultures of Globalization,,Post-Contemporary Interventions,,"Fredric Jameson, Masao Miyoshi, Stanley Fish, Enrique Dussel",1998,,Duke University Press,,206,0,English,189,avaxhome.ws,,"9780822321699,0822321696",,,,,303.48/2,HM621 .C868 1998,,,OL696855M,25067,0,,,,,,,0,26256967,pdf,A841927B47E2300E3CC67824B75C9AA6,,,Y. dl_avaxhome 25067  _=The_Cultures.pdf,0,2000-01-01 01:00:00,2016-04-03 02:51:08,262000/a841927b47e2300e3cc67824b75c9aa6-d.jpg,,
19282900,"Eukaryotic Transcription Factors, ",,,,David S. Latchman,2003,4,Academic Press,,373,0,English,181,avaxhome.ws,,"0124371787,9780124371781,9780080531267",,,,,,,,,OL18209830M,25071,0,,,,,1,,1,8621735,pdf,81EA61056DEF549BB2EED32C98ECCE3B,,,Y. dl_avaxhome 25071  _=kk31.pdf,0,2000-01-01 01:00:00,2016-04-03 02:51:08,262000/81ea61056def549bb2eed32c98ecce3b-d.jpg,,
19282901,The Economist Style Guide,,,,The Economist,2005,9th,Bloomberg Press,,258,0,English,,avaxhome.ws,,"9781861979162,1861979169",,,,,808.027,PE1421 .S75 2005,,,OL17905841M,25076,0,,,,,,1,1,5905765,pdf,3A425DC919C4732335D0ABD14B7BF111,,,Y. dl_avaxhome 25076  _=kk26.pdf,0,2000-01-01 01:00:00,2016-04-03 02:51:08,262000/3a425dc919c4732335d0abd14b7bf111-d.jpg,,
19282902,The Art of the Middle Game,,,,"Paul Keres, Alexander Kotov",1989,,Dover Publications,,122,0,English,41,avaxhome.ws,,"9780486261546,0486261549",,,,,794.1/23,GV1450.3 .K413 1989,,,OL2215998M,25079,0,,,,,,1,0,8672466,pdf,EE312E95C456C90FCA2B6DCD56DB9EC1,,,Y. dl_avaxhome 25079  _=kk23.pdf,0,2000-01-01 01:00:00,2016-04-03 02:51:08,262000/ee312e95c456c90fca2b6dcd56db9ec1-d.jpg,,
19282903,Category Theory,,Oxford Logic Guides,,Steve Awodey,2006,,"Oxford University Press, USA",,269,0,English,113,avaxhome.ws,,"9780198568612,0198568614",,,,,512/.62,QA169 .A96 2006,,,OL22730750M,25080,0,,,,,,,1,5465281,pdf,69A176C77E3F7128560F8DECB3AD1B71,,,Y. dl_avaxhome 25080  _=kk22.pdf,0,2000-01-01 01:00:00,2016-04-03 02:51:08,262000/69a176c77e3f7128560f8decb3ad1b71-d.jpg,,
19282904,Traditional Medicines for Modern Times: Antidiabetic Plants,,Traditional Herbal Medicines for Modern Times,6,Amala Soumyanath,2005,1,CRC Press,,331,0,English,29,avaxhome.ws,0,"9780415334648,0415334640",,,,,616.4/62061,RC661.H4 T73 2006,,,,25081,0,,,,,,,1,5560969,pdf,E50B7E5B637C3B11D664135464DD4FF9,,,Y. dl_avaxhome 25081  _=kk21.pdf,0,2000-01-01 01:00:00,2016-04-03 02:51:08,262000/e50b7e5b637c3b11d664135464dd4ff9-d.jpg,,
19282905,Analytical Techniques In DNA Sequencing,,,,Brian K. Nunnally,2005,1,CRC Press,,251,0,English,22,avaxhome.ws,,"9780824753429,0824753429",,,,,,,,,OL18243408M,25083,0,,,,,,,1,5572732,pdf,BF0D262CBD03B3FC1C643FB0A1F0C8BE,,,Y. dl_avaxhome 25083  _=kk19.pdf,0,2000-01-01 01:00:00,2016-04-03 02:51:08,262000/bf0d262cbd03b3fc1c643fb0a1f0c8be-d.jpg,,
19282906,On Translation,,Thinking in Action,,Paul Ricoeur,2006,New,Routledge,,72,0,English,195,avaxhome.ws,,"9780415357784,0415357780",,,,,418/.02,P306 .R53713 2006,,,OL24051992M,25084,0,,,,,,,1,5271243,pdf,9AA2122252D25D6275A60791CA3960E3,,,Y. dl_avaxhome 25084  _=kk18.pdf,0,2000-01-01 01:00:00,2016-04-03 02:51:08,262000/9aa2122252d25d6275a60791ca3960e3-d.jpg,,
19282907,The Elephants of Style : A Trunkload of Tips on the Big Issues and Gray Areas of Contemporary American English,,,,Bill Walsh,2004,1,McGraw-Hill,,250,0,English,314,avaxhome.ws,,"9780071422680,0071422684",,,,,428/.00973,PE2827 .W35 2004,,,OL3677523M,25085,0,,,,,,,1,5294491,pdf,CFC98EF0ABF8DDDC9EDDF2A2A60D199A,,,Y. dl_avaxhome 25085  _=kk17.pdf,0,2000-01-01 01:00:00,2016-04-03 02:51:08,262000/cfc98ef0abf8dddc9eddf2a2a60d199a-d.jpg,,
19282908,Language and Mind,,,,Noam Chomsky,2006,3,Cambridge University Press,,211,0,English,314,avaxhome.ws,,"9780521674935,052167493X",,,,,,,,,OL22717272M,25087,0,,,,,,1,1,5121167,pdf,D6136DC6ECC52815DB432A60430F38FA,,,Y. dl_avaxhome 25087  _=kk15.pdf,0,2000-01-01 01:00:00,2016-04-03 02:51:08,262000/d6136dc6ecc52815db432a60430f38fa-d.jpg,,
19282909,Essential Words for the TOEFL,,,,Steven J. Matthiesen,2007,3,Barron's Educational Series,,185,0,English,316,avaxhome.ws,,"9780764120251,0764120255",,,,,428/.0076,PE1128 .M3544 2004,,,OL3691615M,25088,0,,,,,,1,1,5699899,pdf,F77B518972C89062557AA319E78C80CE,,,Y. dl_avaxhome 25088  _=kk14.pdf,0,2000-01-01 01:00:00,2016-04-03 02:51:08,262000/f77b518972c89062557aa319e78c80ce-d.jpg,,
19282910,Write Rite Right:,,An imperative sentence,,Bill Moore,2005,0,"iUniverse, Inc.",,102,0,English,314,avaxhome.ws,,"9780595363070,0595363075",,,,,,,,,OL7557918M,25089,0,,,,,,,1,6018247,pdf,10D4CE0B115F00E78E35BE5A906713D6,,,Y. dl_avaxhome 25089  _=kk13.pdf,0,2000-01-01 01:00:00,2016-04-03 02:51:08,262000/10d4ce0b115f00e78e35be5a906713d6-d.jpg,,
19282911,"EATS, SHOOTS & LEAVES: WHY, COMMAS REALLY DO MAKE A DIFFERENCE!",,,,LYNNE TRUSS,2006,,PROFILE BOOKS LTD,,34,0,English,314,avaxhome.ws,,1861978162,,,,,,,,,,25091,0,,,,,,,1,11086604,pdf,9B1D0D6204C8718782759D24F98FA9A2,,,Y. dl_avaxhome 25091  _=kk11.pdf,0,2000-01-01 01:00:00,2016-04-03 02:51:08,262000/9b1d0d6204c8718782759d24f98fa9a2-d.jpg,,
19282912,CDMA RF System Engineering,,Artech House Mobile Communications Library,,Samuel c. Yang,1998,,Artech House Publishers,,289,0,English,210,avaxhome.ws,,"9780890069912,0890069913",,,,,621.3845,TK5103.2 .Y36 1998,,,OL351051M,25092,0,,,,,,1,1,5597078,pdf,0A4166C7BE3E957063E754E4656A95AF,,,Y. dl_avaxhome 25092  _=kk10.pdf,0,2000-01-01 01:00:00,2016-04-03 02:51:08,262000/0a4166c7be3e957063e754e4656a95af-d.jpg,,
19282913,Microbiologically Safe Foods,,,,"Jose Santos Garcia, Norma L. Heredia, Irene V. Wesley",2009,1,Wiley,,673,0,English,229,avaxhome.ws,,"047005333X,9780470053331",,,,,664/.028,TP371.2 M53 2009,,,OL22665700M,25102,0,,,,,,,1,11393179,pdf,518E6963973D56DA2852D8202EE09468,,,Y. dl_avaxhome 25102  _=047005333X.pdf,0,2000-01-01 01:00:00,2016-04-03 02:51:08,262000/518e6963973d56da2852d8202ee09468-d.jpg,,
19282914,"Brilliant Food Tips and Cooking Tricks: 5,000 Ingenious Kitchen Hints, Secrets, Shortcuts, and Solutions",,,,David Joachim,2001,illustrated edition,Rodale Books,,617,0,English,49,avaxhome.ws,,"9781579543013,1579543014",,,,,,,,,OL8757960M,25147,0,,,,,,,0,67453329,pdf,D866A26214209E35060866D4F85CA0A3,,,Y. dl_avaxhome 25147  _=BrilliantFoodTips.pdf,0,2000-01-01 01:00:00,2016-04-03 02:51:08,262000/d866a26214209e35060866d4f85ca0a3-d.jpg,,
19282915,Bobbsey Twins 09: The Bobbsey Twins' Search in the Great City,,,,Laura Lee Hope,2004,,Grosset & Dunlap,,198,0,English,110,avaxhome.ws,,"9780448437606,0448437600",,,,,,,,,OL7562741M,25150,0,,,,,,1,0,7226212,pdf,8983B1575072EEE3D4DC7E45BBBE4BFD,,,Y. dl_avaxhome 25150  _=Laura_Lee_Hope_-_09_The_Bobbsey_Twins__Search_in_the_Great_City.pdf,0,2000-01-01 01:00:00,2016-04-03 02:51:08,262000/8983b1575072eee3d4dc7e45bbbe4bfd-d.jpg,,
19282916,Deliberating in the Real World: Problems of Legitimacy in Deliberative Democracy,,,,John Parkinson,2006,,"Oxford University Press, USA",,220,0,English,189,avaxhome.ws,,"019929111X,9780199291113,9781435630444",,,,,,,,,OL22731505M,25159,0,,,,,1,1,1,1777960,pdf,6CE664E1F4EB194A04F1EEDFCF6B948F,,,Y. dl_avaxhome 25159  _=298324___019929111x_deliberating_in_the_real_world_9.pdf,0,2000-01-01 01:00:00,2016-04-03 02:51:08,262000/6ce664e1f4eb194a04f1eedfcf6b948f-d.jpg,,
19282917,Embedded Hardware: Know It All,,Newnes Know It All,,"Jack Ganssle, Tammy Noergaard, Fred Eady, Lewin Edwards Lewin Edwards is an embedded engineer with over 15 years experience designing embedded systems hardware  firmware  and control software., David J. Katz, Rick Gentile, Ken Arnold, Kamal Hyder, Bob Perrin",2007,,Newnes,,537,0,English,250,avaxhome.ws,,"9780750685849,0750685840",,,,,004.16,TK7895.E42 E43 2008,,,OL10809634M,25160,0,,,,,,1,1,10801728,pdf,54290A1D25648380120D300675B71A7A,,,Y. dl_avaxhome 25160  _=Hadg_EmbeddedHardware.pdf,0,2000-01-01 01:00:00,2016-04-03 02:51:08,262000/54290a1d25648380120d300675b71a7a-d.jpg,,
19282918,Chiral Separation Techniques: A Practical Approach,,,,Ganapathy Subramanian,2007,3,Wiley-VCH,,641,0,English,304,avaxhome.ws,,"9783527315093,3527315098",,,,,,,,,OL18278618M,25172,0,,,,,,,,6675817,rar,C58DFA96769349DD006B889A6F54B793,,,25172 =ChiraSep.rar,0,2000-01-01 01:00:00,2016-04-03 02:51:08,262000/c58dfa96769349dd006b889a6f54b793-d.jpg,,
19282919,Europe: A Cultural History,,,,Peter Rietbergen,1998,1,Routledge,,514,0,English,64,avaxhome.ws,,"0415172306,9780415172301,0415172292,9780415172295,9780203983157",,,,,940,D20 .R42 1998,,,OL362065M,25178,0,,,,,1,1,1,5245038,pdf,D0668661FC19BA96FE5757E50201C88B,,,Y. dl_avaxhome 25178  _=Europe.pdf,0,2000-01-01 01:00:00,2016-04-03 02:51:08,262000/d0668661fc19ba96fe5757e50201c88b-d.jpg,,
19282920,The Oxford Handbook of Biblical Studies,,Oxford Handbooks,,"J. W. Rogerson, Judith M. Lieu",2008,,"Oxford University Press, USA",,920,0,English,183,avaxhome.ws,,"9780199237777,0199237778",,,,,220.6,BS511.3 .O94 2008,,,OL18688151M,25188,0,,,,,,,1,6523228,pdf,AF2AB052D5127CC35841C1CCE9A96C1A,,,Y. dl_avaxhome 25188  _=Rogerson_Lieu__eds__-_Oxford_Handbook_of_Biblical_Studies.pdf,0,2000-01-01 01:00:00,2016-04-03 02:51:08,262000/af2ab052d5127cc35841c1cce9a96c1a-d.jpg,,
19282921,Czechy 1945,,Wydawnictwo Militaria 051,,Tomas Jakl,1997,,Wydawnictwo Militaria,,54,0,English,64,avaxhome.ws,,"9788386209859,8386209852",,,,,,,,,,25197,0,,,,,,1,0,6280018,pdf,B175CD64763F3B369BBAC1488EA1CAA0,,,25197 =Wydawnictwo_Militaria__051__-_Czechy_1945.pdf,0,2000-01-01 01:00:00,2016-04-03 02:51:08,262000/b175cd64763f3b369bbac1488ea1caa0-g.jpg,,
19282922,365 Steps to Self-Confidence: A Program for Personal Transformation,,,,David Lawrence Prestor,2005,2nd,How to Books,,225,0,English,,avaxhome.ws,,"9781857039900,1857039904",,,,,,,,,OL12007862M,25212,0,,,,,,,1,9351113,pdf,5B04F499FCED10CF7C0D67DCA3FCF16D,,,Y. dl_avaxhome 25212  _=365_Steps_to_Self-Confidence_-_A_Programme_for_Personal_Transformation_-_In_Just_a_Few_Minutes_a_Day.pdf,0,2000-01-01 01:00:00,2016-04-03 02:51:08,262000/5b04f499fced10cf7c0d67dca3fcf16d-d.jpg,,
19282923,Radioisotope Gauges for Industrial Process Measurements,,Measurement Science and Technology,,"Geir Anton Johansen, Peter Jackson",2004,1,Wiley,,334,0,English,256,avaxhome.ws,,"9780471489993,0471489999",,,,,,,,,OL7618125M,25220,0,,,,,,,,10399205,rar,3E86AEE67DE0561E169B7BE43C97E89F,,,25220 =RadioisotGauges.rar,0,2000-01-01 01:00:00,2016-04-03 02:51:08,262000/3e86aee67de0561e169b7be43c97e89f-d.jpg,,
19282924,New Perspectives on Games and Interaction,,Amsterdam University Press - Texts in Logic and Games,,"Krzysztof Apt, Robert van Rooij",2009,,Amsterdam University Press,,329,0,English,113,avaxhome.ws,0,"9789089640574,9089640576",,,,,,,,,,25222,0,,,,,,1,1,13032416,pdf,0E843D718BA4C7FE6026FB96341B4F39,DFC03A4331A1E251AF424CE4D7174373,no,Y. dl_avaxhome 25222  _=PerspGamInt.pdf,0,2000-01-01 01:00:00,2016-04-03 02:51:08,262000/0e843d718ba4c7fe6026fb96341b4f39-d.jpg,,
19282925,Hugo Language Course: Japanese In Three Months,,with Cassettes,,John Breen,1997,2nd,Dorling Kindersley Publishers Ltd,,272,0,English,314,avaxhome.ws,,"0852853149,9780852853146",,,,,,,,,OL8282435M,25225,0,,,,,,,1,46750843,pdf,E815ED551BA3A01476E3075FDE83E476,,,Y. dl_avaxhome 25225  _=Jap_ThrMon.pdf,0,2000-01-01 01:00:00,2016-04-03 02:51:08,262000/e815ed551ba3a01476e3075fde83e476-d.jpg,,
19282926,Modern Theory of Critical Phenomena,,,,Shang-keng Ma,2000,,Westview Press,,588,0,English,264,avaxhome.ws,,"9780738203010,0738203017",,,,,530.4/74,QC173.4.C74 M3 2000,,,OL6798237M,25232,0,,,,,,1,1,23008151,pdf,FC664A5D59BCB0883B4D377B7680A39C,,,"Y. dl_avaxhome 25232  _=Modern Theory of Critical Phenomena (Westview Press, 2000)(ISBN 0738203017), Shang-keng Ma.pdf",0,2000-01-01 01:00:00,2016-04-03 02:51:08,262000/fc664a5d59bcb0883b4d377b7680a39c-d.jpg,,
19282927,Riemannian Geometry: A Modern Introduction,,Cambridge Studies in Advanced Mathematics,,Isaac Chavel,2006,2,Cambridge University Press,,490,0,English,121,avaxhome.ws,,"9780521619547,0521619548",,,,,516.3/73,QA649 .C45 2006,,,OL22731567M,25234,0,,,,,,1,1,5469092,pdf,09FDEA4F59D1F9321698852BB0B5482E,,,Y. dl_avaxhome 25234  _=ww39.pdf,0,2000-01-01 01:00:00,2016-04-03 02:51:08,262000/09fdea4f59d1f9321698852bb0b5482e-d.jpg,,
19282928,Orbifolds and Stringy Topology,,Cambridge Tracts in Mathematics,,"Alejandro Adem, Johann Leida, Yongbin Ruan",2007,,Cambridge University Press,,164,0,English,121,avaxhome.ws,,"9780521870047,0521870046",,,,,,,,,OL7767512M,25236,0,,,,,,1,1,5062802,pdf,D0EA0BB485E97271CB829AE7249D65D7,,,Y. dl_avaxhome 25236  _=ww41.pdf,0,2000-01-01 01:00:00,2016-04-03 02:51:08,262000/d0ea0bb485e97271cb829ae7249d65d7-d.jpg,,
19282929,Cluster and Classification Techniques for the Biosciences,,,,Alan H. Fielding,2007,1,Cambridge University Press,,259,0,English,12,avaxhome.ws,,"9780521618007,0521618002",,,,,,,,,OL22742466M,25247,0,,,,,,,1,7215343,pdf,A9E3D9805368EE91BBB2B28E058E5887,,,Y. dl_avaxhome 25247  _=ww51.pdf,0,2000-01-01 01:00:00,2016-04-03 02:51:08,262000/a9e3d9805368ee91bbb2b28e058e5887-d.jpg,,
19282930,Handbook of Knot Theory,,,,"William Menasco, Morwen Thistlethwaite",2005,,Elsevier Science,,504,0,English,,avaxhome.ws,,"9780444514523,044451452X",,,,,,,,,OL7530732M,25249,0,,,,,,,1,5420491,pdf,B62FE27D0FE872D52E82B553B6360335,,,Y. dl_avaxhome 25249  _=ww37.pdf,0,2000-01-01 01:00:00,2016-04-03 02:51:08,262000/b62fe27d0fe872d52e82b553b6360335-d.jpg,,
19282931,100 Masters of Mystery and Detective Fiction,,Magill's Choice,,Salem Press,2001,,Salem Press,,784,0,English,314,avaxhome.ws,,"9780893569587,0893569585",,,,,809.3/872,PN3448.D4 A16 2001,,,OL3946645M,25265,0,,,,,,,1,8731487,pdf,CBF09BBA4ED892EADE9FE5A81B48F4E6,,,Y. dl_avaxhome 25265  _=ww22.pdf,0,2000-01-01 01:00:00,2016-04-03 02:51:08,262000/cbf09bba4ed892eade9fe5a81b48f4e6-d.jpg,,
19282932,Islamic Philosophy A-Z,,,,Peter S. Groff,2007,,Edinburgh University Press,,257,0,English,195,avaxhome.ws,,"9780748620890,0748620893",,,,,,,,,OL22753446M,25266,0,,,,,,,1,5751860,pdf,8FC0BB4873AFD5C4BF5511ED747B6D70,,,Y. dl_avaxhome 25266  _=ww21.pdf,0,2000-01-01 01:00:00,2016-04-03 02:51:08,262000/8fc0bb4873afd5c4bf5511ed747b6d70-d.jpg,,
19282933,Strategic Foundations of General Equilibrium: Dynamic Matching and Bargaining Games,,Churchill Lectures in Economics,,Douglas Gale,2000,1,Cambridge University Press,,188,0,English,305,avaxhome.ws,,"9780521644105,0521644100",,,,,,,,,OL7749897M,25267,0,,,,,,1,1,5701526,pdf,9C6B34A664A80DD41212F49B4DBFE2B9,,,Y. dl_avaxhome 25267  _=ww20.pdf,0,2000-01-01 01:00:00,2016-04-03 02:51:08,262000/9c6b34a664a80dd41212f49b4dbfe2b9-d.jpg,,
19282934,"The Sentinel CEO: Perspectives on Security, Risk, and Leadership in a Post-9/11 World",,,,William G. Parrett,2007,,Wiley,,210,0,English,1,avaxhome.ws,,"9780470125410,0470125411",,,,,658.4/7,HD49 .P368 2007,,,OL10279665M,25269,0,,,,,,1,1,4984833,pdf,20E2D77AE48B6BA96A9D2ED53F6A3686,,,Y. dl_avaxhome 25269  _=ww18.pdf,0,2000-01-01 01:00:00,2016-04-03 02:51:08,262000/20e2d77ae48b6ba96a9d2ed53f6a3686-d.jpg,,
19282935,Managing Successful IT Outsourcing Relationships,,,,"Petter Gottschalk, Hans Solli-saether",2005,,IRM Press,,316,0,English,7,avaxhome.ws,,"9781591407607,1591407605",,,,,658.4/058,HD30.2 .G676 2006,,,OL3399784M,25270,0,,,,,,,1,5903369,pdf,38F9BE767887E76228E8ECB90977E1FD,,,Y. dl_avaxhome 25270  _=ww17.pdf,0,2000-01-01 01:00:00,2016-04-03 02:51:08,262000/38f9be767887e76228e8ecb90977e1fd-d.jpg,,
19282936,Be in Charge: A Leadership Manual: How to Stay on Top,,,,Alexander R. Margulis,2002,1,Academic Press,,110,0,English,183,avaxhome.ws,,"9780124713512,0124713513",,,,,,,,,OL7328082M,25271,0,,,,,,,1,5197994,pdf,EEC59A38FDDD49AF473A98EB77831A86,,,Y. dl_avaxhome 25271  _=ww16.pdf,0,2000-01-01 01:00:00,2016-04-03 02:51:08,262000/eec59a38fddd49af473a98eb77831a86-d.jpg,,
19282937,Leading to Choices: A Leadership Training Handbook for Women,,,,"Mahnaz Afkhami, Ann Eisenberg, Haleh Vaziri",2003,,Syracuse University Press,,154,0,English,,avaxhome.ws,,"9780971092204,0971092206",,,,,,,,,OL3705480M,25272,0,,,,,,,1,5711977,pdf,808DB011A39A59D642E8A08AF58ED47E,,,Y. dl_avaxhome 25272  _=ww15.pdf,0,2000-01-01 01:00:00,2016-04-03 02:51:08,262000/808db011a39a59d642e8a08af58ed47e-g.jpg,,
19282938,Dream Yoga and the Practice of Natural Light,,,,"Namkhai Norbu, Michael Katz",1992,,Snow Lion Publications,,66,0,English,164,avaxhome.ws,,"9781559390071,1559390077",,,,,294.3/4446,BQ7662.4 .N335 1992,,,OL1713933M,25273,0,,,,,,1,1,5565238,pdf,E4E2F6A1BD2DA64F4139A19480FAD90F,,,Y. dl_avaxhome 25273  _=ww14.pdf,0,2000-01-01 01:00:00,2016-04-03 02:51:08,262000/e4e2f6a1bd2da64f4139a19480fad90f-d.jpg,,
19282939,The Handbook of Good English,,,,Edward D. Johnson,1991,Rev Upd Su,Facts on File,,447,0,English,,avaxhome.ws,,"9780816027118,0816027110",,,,,428.2,PE1112 .J54 1991b,,,OL1542972M,25274,0,,,,,,1,1,7664660,pdf,EC5613CA1D22AF52B953FE116C7E1CE8,,,Y. dl_avaxhome 25274  _=ww13.pdf,0,2000-01-01 01:00:00,2016-04-03 02:51:08,262000/ec5613ca1d22af52b953fe116c7e1ce8-d.jpg,,
19282940,Outcome Mapping: Building Learning and Reflection into Development Programs,,,,"Sarah Earl, Fred Carden, Terry Smutylo, Michael Quinn Patten",2002,,IDRC Books,,111,0,English,183,avaxhome.ws,,"9780889369597,0889369593",,,,,338.91,HD75.9 .E25 2001,,,OL3645784M,25275,0,,,,,,,1,5226160,pdf,E2BBEC7D2D4598547F4A17119B1B0B24,,,Y. dl_avaxhome 25275  _=ww12.pdf,0,2000-01-01 01:00:00,2016-04-03 02:51:08,262000/e2bbec7d2d4598547f4a17119b1b0b24-d.jpg,,
19282941,"Risky Business: Corruption, Fraud, Terrorism and Other Threats to Global Business",,,,"Stuart Poole-Robb, Alan Bailey, John Wheeler LLM, Dan C Pinck",2002,,Kogan Page,,316,0,English,1,avaxhome.ws,,"9780749438173,0749438177",,,,,658.049,HG4538 .P567 2002,,,OL3747195M,25276,0,,,,,,1,1,5723405,pdf,B844A98AABA96A4137063C8A11C651B6,,,Y. dl_avaxhome 25276  _=ww11.pdf,0,2000-01-01 01:00:00,2016-04-03 02:51:08,262000/b844a98aaba96a4137063c8a11c651b6-d.jpg,,
19282942,Social Capital: A Theory of Social Structure and Action,,Structural Analysis in the Social Sciences,,Nan Lin,2002,1st,Cambridge University Press,,181,0,English,189,avaxhome.ws,,"9780521521673,052152167X",,,,,,,,,OL7744157M,25298,0,,,,,,,0,21227272,pdf,2A07D5F4F5E0D5011731A94DEA0D3AA0,,,Y. dl_avaxhome 25298  _=Social_Capital.pdf,0,2000-01-01 01:00:00,2016-04-03 02:51:08,262000/2a07d5f4f5e0d5011731a94dea0d3aa0-d.jpg,,
19282943,"The Evolution of Human Language: Scenarios, Principles, and Cultural Dynamics",,Advances in Consciousness Research 57,,Wolfgang Wildgen,2004,,John Benjamins Publishing Co,,253,0,English,198,avaxhome.ws,0,"9781588115188,1588115186,9027251932,9789027251930",,,,,401,P116 .W55 2004,,,,25324,0,,,,,1,,1,1903713,pdf,4B0984754F088E9435A925A512658606,,,Y. dl_avaxhome 25324  _=023.pdf,0,2000-01-01 01:00:00,2016-04-03 02:51:08,262000/4b0984754f088e9435a925a512658606-d.jpg,,
19282944,Forensic Mental Health Assessment: A Casebook,,,,"Kirk Heilbrun, Geoffrey Marczyk, David DeMatteo",2002,,"Oxford University Press, USA",,552,0,English,171,avaxhome.ws,,"9780195145687,0195145682",,,,,614/.1,RA1148 .F553 2002,,,OL18485366M,25325,0,,,,,,,,1427114,chm,EEB262DBEA1730F1FB906ECCA167A352,,,Y. dl_avaxhome 25325  _=FMHASS.CHM,0,2000-01-01 01:00:00,2016-04-03 02:51:08,262000/eeb262dbea1730f1fb906ecca167a352-d.jpg,,
19282945,Introducing Reason 4,,,,Cliff Truesdell,2008,,Sybex,,459,0,English,210,avaxhome.ws,,"9780470249949,0470249943",,,,,781.3/4536,ML74.4.R43 T78 2008,,,OL10295405M,25329,0,,,,,,,1,11070663,pdf,DE974C3178F86AF483C16F7241ABE385,,,Y. dl_avaxhome 25329  _=IntrodReas.pdf,0,2000-01-01 01:00:00,2016-04-03 02:51:08,262000/de974c3178f86af483c16f7241abe385-d.jpg,,
19282946,The Sacred Bones: A Novel,,,,Michael Byrnes,2007,1°,William Morrow,,311,0,English,110,avaxhome.ws,,"9780061146077,0061146072",,B002RI9E1E,,,,,,,OL7288769M,25342,0,,,,,1,,1,1368621,pdf,A5A63CED4E3B72195A044033EDB60CC8,,,Y. dl_avaxhome 25342  _=0061146072.pdf,0,2000-01-01 01:00:00,2016-04-03 02:51:08,262000/a5a63ced4e3b72195a044033edb60cc8-d.jpg,,
19282947,Luminal Darkness: Imaginal Gleanings from Zoharic Literature,,,,Elliot Wolfson,2006,,Oneworld Publications,,328,0,English,64,avaxhome.ws,,"9781851684755,1851684751",,,,,,,,,OL17227451M,25350,0,,,,,,1,1,1810576,pdf,F3A1E7C0C355EED0D4A2FF210B4CFDFA,,,Y. dl_avaxhome 25350  _=287373___1851684751_luminal_darkness_11.pdf,0,2000-01-01 01:00:00,2016-04-03 02:51:08,262000/f3a1e7c0c355eed0d4a2ff210b4cfdfa-d.jpg,,
19282948,Explaining the Breakdown of Ethnic Relations,,Social Issues and Interventions,,"Victoria M. Esses, Richard A. Vernon",2008,,Wiley-Blackwell,,281,0,English,189,avaxhome.ws,,"140517059X,9781405170598,1405170581,9781405170581,9781444303063",,,,,305.8001/9,HM1121 .E96 2008,,,OL16471766M,25352,0,,,,,1,,1,1481353,pdf,281977AD52878670C90C29FB96FFB927,,,Y. dl_avaxhome 25352  _=140517059X.pdf,0,2000-01-01 01:00:00,2016-04-03 02:51:08,262000/281977ad52878670c90c29fb96ffb927-d.jpg,,
19282949,Pershing: A History of the Medium Tank T20 Series,,,,"R. P. Hunnicutt, D. P. Dyer, Robert J. Icks, Uwe Feist",2009,,Ryton Publishing,,235,0,English,64,avaxhome.ws,,"9780982190708,0982190700",,,,,,,,,,25359,0,,,,,,1,0,31674374,pdf,00EAB6B639E9600B5C4CF42547803268,,,Y. dl_avaxhome 25359  _=PresidioPershing.pdf,0,2000-01-01 01:00:00,2016-04-03 02:51:08,262000/00eab6b639e9600b5c4cf42547803268-d.jpg,,
19282950,The Food System: A Guide,,,,"Geoff Tansey, Tony Worsley",1995,,Earthscan Publications Ltd.,,272,0,English,49,avaxhome.ws,,"9781853832772,1853832774",,,,,,,,,OL16835897M,25380,0,,,,,,,,37049044,rar,4A96B6F810EF769B585C6F12DACC0772,,,25380 =FoSystGuid.rar,0,2000-01-01 01:00:00,2016-04-03 02:51:08,262000/4a96b6f810ef769b585c6f12dacc0772-d.jpg,,
19282951,Priorities in Space Science Enabled by Nuclear Power and Propulsion,,,,"Committee on Priorities for Space Science Enabled by Nuclear Power and Propulsion, National Research Council",2006,,National Academies Press,,159,0,English,181,avaxhome.ws,,"0309100119,9780309100113,9780309653374",,,,,,,,,OL10359093M,25383,0,,,,,,1,1,5656729,pdf,B23F6BD77F8E73CE3C3B59EA1999A867,,,Y. dl_avaxhome 25383  _=288908___0309100119_6.pdf,0,2000-01-01 01:00:00,2016-04-03 02:51:08,262000/b23f6bd77f8e73ce3c3b59ea1999a867-d.jpg,,
19282952,Physics on All Fours,,,,Nick Herbert,2000,,Sea Creature Press,,47,0,English,264,avaxhome.ws,,"0615113613,9780615113616",,,,,,,,,OL7602704M,25393,0,,,,,1,,1,272344,pdf,996E75DD3C2D41277D142B20055C0963,,,Y. dl_avaxhome 25393  _=QUANTUM_TANTRA.pdf,0,2000-01-01 01:00:00,2016-04-03 02:51:08,262000/996e75dd3c2d41277d142b20055c0963-d.jpg,,
19282953,"Portuguese Style and Luso-African Identity: Precolonial Senegambia, Sixteenth - Nineteenth Centuries",,,,Peter A. Mark,2002,,Indiana University Press,,222,0,English,58,avaxhome.ws,,"0253215528,9780253215529",,,,,,,,,OL9762409M,25396,0,,,,,1,1,1,1927084,pdf,56516BBDD38DD3F64730B2C0F9D2C062,,,Y. dl_avaxhome 25396  _=0253215528_5.pdf,0,2000-01-01 01:00:00,2016-04-03 02:51:08,262000/56516bbdd38dd3f64730b2c0f9d2c062-d.jpg,,
19282954,Modern Biology and Natural Theology,,,,Alan Olding,1990,,Routledge,,208,0,English,12,avaxhome.ws,,"9780415049719,0415049717",,,,,215,BL225 .O43 1990,,,OL1873248M,25401,0,,,,,,,,442543,rar,C4A0A00387E65CB2918FE8680B793094,,,25401 =0415049717.rar,0,2000-01-01 01:00:00,2016-04-03 02:51:08,262000/c4a0a00387e65cb2918fe8680b793094-d.jpg,,
19282955,The Art of Revitalization: Improving Conditions in Distressed Inner-City Neighborhoods,,Contemporary Urban Affairs,,Sean Zielenbach,2000,1,Routledge,,323,0,English,58,avaxhome.ws,,"0815335970,9780815335979",,,,,,,,,OL16978654M,25403,0,,,,,1,1,1,1648120,pdf,A989A1D97E2A9967416C0D1F0CFF439D,,,Y. dl_avaxhome 25403  _=0815335970_4.pdf,0,2000-01-01 01:00:00,2016-04-03 02:51:08,262000/a989a1d97e2a9967416c0d1f0cff439d-d.jpg,,
19282956,Land and the City: Patterns and Processes of Urban Change,,Geography and Environment Series,,Philip Kivell,1993,1,Routledge,,238,0,English,58,avaxhome.ws,,"0415087821,9780415087827,9780203307113",,,,,333.77/13,HD1391 .K57 1993,,,OL1716809M,25404,0,,,,,1,1,1,4169244,pdf,D3054E6CB056C13F4146192EF43B9D64,,,Y. dl_avaxhome 25404  _=0415087821_3.pdf,0,2000-01-01 01:00:00,2016-04-03 02:51:08,262000/d3054e6cb056c13f4146192ef43b9d64-d.jpg,,
19282957,Security in RFID and Sensor Networks,,Wireless Networks and Mobile Communications,,"Yan Zhang, Paris Kitsos",2009,1,Auerbach Publications,,556,0,English,256,avaxhome.ws,,1420068393,,,,,,,,,OL11817105M,25421,0,,,,,,,0,37669008,pdf,20C1D315D696CCFB48DA70BD7504F873,,,Y. dl_avaxhome 25421  _=Security_RFID.pdf,0,2000-01-01 01:00:00,2016-04-03 02:51:08,262000/20c1d315d696ccfb48da70bd7504f873-d.jpg,,
19282958,Your Comprehensive Guide to the Duckworth/Lewis Method for Resetting Targets in One-day Cricket,,,,Frank Duckworth,1999,,University of the West of England,,8,0,English,87,avaxhome.ws,,1860431895,,,,,,,,,OL12053445M,25445,0,,,,,,,1,66595,pdf,1CE7FA540A55E1EF04EBFB5F1EA529DE,,,Y. dl_avaxhome 25445  _=873d-l_method.pdf,0,2000-01-01 01:00:00,2016-04-03 02:51:08,262000/1ce7fa540a55e1ef04ebfb5f1ea529de-d.gif,,
19282959,"Book Lust: Recommended Reading for Every Mood, Moment, and Reason",,,,Nancy Pearl,2003,annotated edition,Sasquatch Books,,306,0,English,183,avaxhome.ws,,1570613818,,,,,011/.73,Z1035.9 .P38 2003,,,OL3684447M,25449,0,,,,,,1,1,4320340,pdf,CF09A3823765201716F91ABC0C833927,,,Y. dl_avaxhome 25449  _=pearl_nancy_-_book_lust_recommended_reading_for_every_mood._moment._and_reason_1570613818.pdf,0,2000-01-01 01:00:00,2016-04-03 02:51:08,262000/cf09a3823765201716f91abc0c833927-d.jpg,,
19282960,"Disaster Movies: A Loud, Long, Explosive, Star-Studded Guide to Avalanches, Earthquakes, Floods, Meteors, Sinking Ships, Twisters, Viruses, Killer Bees, ... Fallout, and Alien Attacks in the Cinema!!!!",,,,"Glenn Kay, Michael Rose, Mike Nelson",2006,,Chicago Review Press,,433,0,English,60,avaxhome.ws,,"1556526121,9781556526121,9781556526930",,,,,791.43/6556,PN1995.9.D55 K39 2006,,,OL3414031M,25456,0,,,,,1,1,1,6706465,pdf,E072B795EF3CC5725879B201686D0E3C,,,Y. dl_avaxhome 25456  _=DisastMovies.pdf,0,2000-01-01 01:00:00,2016-04-03 02:51:08,262000/e072b795ef3cc5725879b201686d0e3c-d.jpg,,
19282961,Shih Tzu For Dummies,,,,Eve Adamson,2007,,For Dummies,,298,0,English,183,avaxhome.ws,,"0470089458,9780470089453,9780470168547",,,,,,,,,OL24248876M,25466,0,,,,,,,1,4977404,pdf,A7D130176BA4D8680524BD6B5F923A57,,,Y. dl_avaxhome 25466  _=ShihTzu.pdf,0,2000-01-01 01:00:00,2016-04-03 02:51:08,262000/a7d130176ba4d8680524bd6b5f923a57-d.jpg,,
19282962,"The Meat Buyers Guide : Meat, Lamb, Veal, Pork and Poultry",,,,North American Meat Processors Assoc,2006,,Wiley,,339,0,English,49,avaxhome.ws,,0471747211,,,,,,,,,,25472,0,,,,,,1,1,28563315,pdf,ADCCD540DCCF828183828049312E150E,,,Y. dl_avaxhome 25472  _=MeatGuid.pdf,0,2000-01-01 01:00:00,2016-04-03 02:51:08,262000/adccd540dccf828183828049312e150e-d.jpg,,
19282963,Elementary Differential Equations and Boundary Value Problems,,,,William E. Boyce,2000,7th,Wiley,,768,0,English,113,avaxhome.ws,,0471319996,,,,,,,,,,25475,0,,,,,,,,5246950,rar,A5E359955C754305F74AB695CE36EA3F,,,25475 =ElemDifEqProb.rar,0,2000-01-01 01:00:00,2016-04-03 02:51:08,262000/a5e359955c754305f74ab695ce36ea3f-d.jpg,,
19282964,Embattled Avant-Gardes: Modernism's Resistance to Commodity Culture in Europe,,,,Walter L. Adamson,2007,1,University of California Press,,449,0,English,1,avaxhome.ws,,0520252705,,,,,,,,,,25487,0,,,,,,1,1,1543150,pdf,088A377E4BF7F9C90C91F9FF82EA8387,,,Y. dl_avaxhome 25487  _=0520252705.pdf,0,2000-01-01 01:00:00,2016-04-03 02:51:08,262000/088a377e4bf7f9c90c91f9ff82ea8387-d.jpg,,
19282965,Pride and Prejudice and Zombies: The Classic Regency Romance - Now with Ultraviolent Zombie Mayhem!,,,,"Jane Austen, Seth Grahame-Smith",2009,Later Printing,Quirk Books,,201,0,English,110,avaxhome.ws,,"9781594743344,1594743347,9781594744495",,,,,,2008937609,,,OL23857454M,missing front material,0,,,,0,0,,1,1039813,pdf,439D487477F43543A936953CE0196F82,,,Y. dl_avaxhome 25488  _=Jane_Austen___Seth_Grahame-Smith_-_Pride_and_Prejudice_and_Zombies.pdf,0,2000-01-01 01:00:00,2016-04-03 02:51:08,262000/439d487477f43543a936953ce0196f82-d.jpg,,
19282966,"Blue-Chip Black: Race, Class, and Status in the New Black Middle Class",,George Gund Foundation Imprint in African American Studies,,Karyn R. Lacy,2007,1,University of California Press,,303,0,English,189,avaxhome.ws,,0520251164,,,,,,,,,,25494,0,,,,,,1,1,1351659,pdf,37963A7DA1AB0B701C33FFD408A4B09A,,,Y. dl_avaxhome 25494  _=0520251164.pdf,0,2000-01-01 01:00:00,2016-04-03 02:51:08,262000/37963a7da1ab0b701c33ffd408a4b09a-d.jpg,,
19282967,The Syntax of Welsh,,Cambridge Syntax Guides,,"Robert D. Borsley, Maggie Tallerman, David Willis",2007,1,Cambridge University Press,,410,0,English,314,avaxhome.ws,,"9780511366154,0511366159,0521836301,9780521836302",,,,,,,,,OL10437391M,25496,0,,,,,,1,1,1722172,pdf,065CC57D937E1A9F65C15CC98AB59355,,,Y. dl_avaxhome 25496  _=0521836301.pdf,0,2000-01-01 01:00:00,2016-04-03 02:51:08,262000/065cc57d937e1a9f65c15cc98ab59355-d.jpg,,
19282968,Dangerous Encounters--Avoiding Perilous Situations with Autism,,,,Bill Davis,2002,1,Jessica Kingsley Publishers,,177,0,English,147,avaxhome.ws,,1843107325,,,,,,,,,OL17048650M,25497,0,,,,,,,1,11229028,pdf,0433D81CD2FCB0ADA4EDAE0FAB02AADC,,,Y. dl_avaxhome 25497  _=ww10.pdf,0,2000-01-01 01:00:00,2016-04-03 02:51:08,262000/0433d81cd2fcb0ada4edae0fab02aadc-d.jpg,,
19282969,"World without secrets: business, crime, and privacy in the age of ubiquitous computing",,,,Richard Hunter,2002,1,Wiley,,306,0,English,,avaxhome.ws,0,"0471218162, 9780471218166, 0471256781, 9780471256786",,,,,303.48'33-dc21,HM851 .H86 2002,,qPuTtRKe0ooC,,25498,0,,,,1,0,0,1,5671195,pdf,E54D5116D837C88B0841EC50405D7E7F,B0F1C07C7956141C11E6F62FADDF7648,no,Y. dl_avaxhome 25498  _=ww09.pdf,0,2000-01-01 01:00:00,2016-04-03 02:51:08,262000/E54D5116D837C88B0841EC50405D7E7F-d.jpg,,
19282970,Covering Violence: A Guide to Ethical Reporting About Victims & Trauma,,,,Roger Simpson,2006,2nd,Columbia University Press,,261,0,English,189,avaxhome.ws,,0231133928,,,,,,,,,,25501,0,,,,,,1,1,5489725,pdf,381395F9C6C411CD552D777DC8E1F710,,,Y. dl_avaxhome 25501  _=ww06.pdf,0,2000-01-01 01:00:00,2016-04-03 02:51:08,262000/381395f9c6c411cd552d777dc8e1f710-d.jpg,,
19282971,"Women and Politics in Iran: Veiling, Unveiling, and Reveiling",,,,Hamideh Sedghi,2007,,Cambridge University Press,,359,0,English,64,avaxhome.ws,,"052183581X,9780521835817",,,,,305.0955,HQ1735.2 .S43 2007,,,OL22761343M,25502,0,,,,,1,1,1,2311519,pdf,E1CA290E7CF6F3918231B52E669A27D4,,,Y. dl_avaxhome 25502  _=052183581X.pdf,0,2000-01-01 01:00:00,2016-04-03 02:51:08,262000/e1ca290e7cf6f3918231b52e669a27d4-d.jpg,,
19282972,"Effective Interviewing: A Handbook of Skills, Techniques and Applications",,,,Robert Edenborough,2002,2nd,Kogan Page,,192,0,English,,avaxhome.ws,,0749437553,,,,,,,,,,25503,0,,,,,,1,1,5207904,pdf,339A59779286ACC3B7A907D399077586,,,Y. dl_avaxhome 25503  _=ww05.pdf,0,2000-01-01 01:00:00,2016-04-03 02:51:08,262000/339a59779286acc3b7a907d399077586-d.jpg,,
19282973,"Training Needs Assessment: Methods, Tools, and Techniques",,Skilled Trainer,,Jean Barbazette,2006,,Pfeiffer,,189,0,English,1,avaxhome.ws,,0787975257,,,,,,,,,,25504,0,,,,,,1,1,5710675,pdf,8FE5E6AA37273071FE081A66E1094E75,,,Y. dl_avaxhome 25504  _=ww04.pdf,0,2000-01-01 01:00:00,2016-04-03 02:51:08,262000/8fe5e6aa37273071fe081a66e1094e75-d.jpg,,
19282974,"Spies, Inc.: Business Innovation from Israel's Masters of Espionage",,,,Stacy Perman,2004,1,FT Press,,256,0,English,1,avaxhome.ws,,0131420232,,,,,,,,,,25505,0,,,,,,1,1,5564917,pdf,EA179A0E16EBABCFCB96B14290701106,,,Y. dl_avaxhome 25505  _=ww03.pdf,0,2000-01-01 01:00:00,2016-04-03 02:51:08,262000/ea179a0e16ebabcfcb96b14290701106-d.jpg,,
19282975,Make Your Business Survive and Thrive!: 100+ Proven Marketing Methods to Help You Beat the Odds and Build a Successful Small or Home-Based Enterprise,,,,Priscilla Y. Huff,2006,1,Wiley,,369,0,English,79,avaxhome.ws,,0470051426,,,,,,,,,,25507,0,,,,,,1,1,5585907,pdf,77B3E28E7867F90D7CF7A11A47C9A751,,,Y. dl_avaxhome 25507  _=ww01.pdf,0,2000-01-01 01:00:00,2016-04-03 02:51:08,262000/77b3e28e7867f90d7cf7a11a47c9a751-d.jpg,,
19282976,"American Women Authors and Literary Property, 1822-1869",,,,Melissa J. Homestead,2005,,Cambridge University Press,,286,0,English,64,avaxhome.ws,,"0521853826,9780521853828,9780511345333",,,,,,,,,OL22717871M,25516,0,,,,,1,,1,1948668,pdf,4F1602D4A46DA5B6DF2688AAF309E8F0,,,Y. dl_avaxhome 25516  _=0521853826.pdf,0,2000-01-01 01:00:00,2016-04-03 02:51:08,262000/4f1602d4a46da5b6df2688aaf309e8f0-d.jpg,,
19282977,Succeeding with Difficult Clients: Applications of Cognitive Appraisal Therapy,,Practical Resources for the Mental Health Professional,,"Richard L. Wessler, Sheenah Hankin, Jonathan Stern",2001,1st,Academic Press,,351,0,English,198,avaxhome.ws,,"012744470X,9780127444703,9780585492193",,,,,,,,,OL7329401M,25548,0,,,,,1,,1,1165971,pdf,8980B949D857A2D501B639E2A9AA3D50,,,Y. dl_avaxhome 25548  _=012744470X.pdf,0,2000-01-01 01:00:00,2016-04-03 02:51:08,262000/8980b949d857a2d501b639e2a9aa3d50-d.jpg,,
19282978,Satire and Romanticism,,,,Steven E. Jones,2000,1st,Palgrave Macmillan,,273,0,English,64,avaxhome.ws,,"0312228791,9780312228798,9780312299866",,,,,827/.709,PR936 .J66 2000,,,OL46519M,25587,0,,,,1,0,,1,1200259,pdf,704CCF2FB5315D0961D09CE3E3E64B88,,,Y. dl_avaxhome 25587  _=0312228791.pdf,0,2000-01-01 01:00:00,2016-04-03 02:51:08,262000/704ccf2fb5315d0961d09ce3e3e64b88-d.jpg,,
19282979,The International Theory of Leonard Woolf: A Study in Twentieth Century Idealism,,,,Peter Wilson,2003,1,Palgrave Macmillan,,284,0,English,189,avaxhome.ws,,"0312294735,9780312294731,9781403973733",,,,,327.1/092,JZ1305 .W55 2003,,,OL3683565M,25589,0,,,,1,0,,1,1106160,pdf,E57BB39F8FD8D00F1345FC7AEE3628C7,,,Y. dl_avaxhome 25589  _=0312294735.pdf,0,2000-01-01 01:00:00,2016-04-03 02:51:08,262000/e57bb39f8fd8d00f1345fc7aee3628c7-d.jpg,,
19282980,Helping Your Child Learn to Read: With Activities for Children from Infancy Through Age 10,,,,Bernice Cullinan,1993,,Diane Books Publishing Company,,63,0,English,183,avaxhome.ws,,0788100076,,,,,,,,,,25598,0,,,,,,,0,4174584,pdf,C46E7B0312366551FB319AA3BE65C0E0,,,Y. dl_avaxhome 25598  _=HelpingChildRead.pdf,0,2000-01-01 01:00:00,2016-04-03 02:51:08,262000/c46e7b0312366551fb319aa3be65c0e0-g.jpg,,
19282981,Sourcebook in Expressive Arts Therapy,,,,"Sally Atkins, Lesley Duggins Williams, Marianne Stevens Suggs",2007,1,Parkway Publishers,,161,0,English,198,avaxhome.ws,,"1933251379,9781933251370,9781435660410",,,,,,,,,OL8813098M,25608,0,,,,,1,,1,5706818,pdf,284097728E95A8E14306B1EB4BAE33DE,,,Y. dl_avaxhome 25608  _=sourcebook_in_expressive_arts_therapy.pdf,0,2000-01-01 01:00:00,2016-04-03 02:51:08,262000/284097728e95a8e14306b1eb4bae33de-d.jpg,,
19282982,"Early Experience, the Brain, and Consciousness: An Historical and Interdisciplinary Synthesis",,,,Thomas C. Dalton,2007,1,Psychology Press,,280,0,English,64,avaxhome.ws,,0805840850,,,,,155.4’13--dc22,,,,,25616,0,,,,,,,1,1994145,pdf,D65BEEBBD1DE0ADB16766F157899D74B,,,Y. dl_avaxhome 25616  _=016.pdf,0,2000-01-01 01:00:00,2016-04-03 02:51:08,262000/d65beebbd1de0adb16766f157899d74b-d.jpg,,
19282983,Catalysis of Organic Reactions,,Chemical Industries,,,2005,1,CRC Press,,592,0,English,296,avaxhome.ws,,0824727290,,,,,,,,,,25625,0,,,,,,,1,11690840,pdf,12B5DAD366F0100875FB91989D034B73,,,Y. dl_avaxhome 25625  _=CatalyOrg.pdf,0,2000-01-01 01:00:00,2016-04-03 02:51:08,262000/12b5dad366f0100875fb91989d034b73-d.jpg,,
19282984,Social Perception: 21st Century Issues and Challenges,,,,Jenifer B. Teiford,2008,,Nova Science Publishers,,165,0,English,198,avaxhome.ws,,"1600216323,9781600216329,9781606927595",,,,,155.9/2,BF323.S63 S64 2008,,,OL16717260M,25637,0,,,,,,1,1,8701155,pdf,992F7ED2B348FB396D5B465F9022F859,,,Y. dl_avaxhome 25637  _=Social_Perception.pdf,0,2000-01-01 01:00:00,2016-04-03 02:51:08,262000/992f7ed2b348fb396d5b465f9022f859-d.jpg,,
19282985,What's the Good of Counselling & Psychotherapy?: The Benefits Explained,,Ethics in Practice,,,2002,1,Sage Publications Ltd,,296,0,English,198,avaxhome.ws,,0761969543,,,,,,,,,,25645,0,,,,,,1,1,1120789,pdf,48BDCFAFE5547E7B3E01C78F904FA03F,,,Y. dl_avaxhome 25645  _=What_s_the_Good_of_Counselling___Psychotherapy.pdf,0,2000-01-01 01:00:00,2016-04-03 02:51:08,262000/48bdcfafe5547e7b3e01c78f904fa03f-d.jpg,,
19282986,The Little Book of Failure,,,,Marc Blake,2006,,Crombie Jardine Publishing Lim,,128,0,English,41,avaxhome.ws,,"1905102763,9781905102761",,,,,,,,,OL8775154M,25647,0,,,,,,1,1,615892,pdf,50365B9830E6FFF7EAC6033A02FC5097,,,Y. dl_avaxhome 25647  _=1905102763.pdf,0,2000-01-01 01:00:00,2016-04-03 02:51:08,262000/50365b9830e6fff7eac6033a02fc5097-d.jpg,,
19282987,"Adolescent Problem Behaviors: Delinquency, Aggression, and Drug Use",,Criminal Justice: Recent Scholarship,,Ricardo M. Marte,2008,,LFB Scholarly Publishing,,267,0,English,198,avaxhome.ws,,1593322690,,,,,,,,,,25656,0,,,,,,1,1,1579156,pdf,3D7994301E63FC38B91ED9762FB0E1E0,,,Y. dl_avaxhome 25656  _=Adolescent_Problem_Behaviors.pdf,0,2000-01-01 01:00:00,2016-04-03 02:51:08,262000/3d7994301e63fc38b91ed9762fb0e1e0-d.jpg,,
19282988,Foundational Issues in Artificial Intelligence and Cognitive Science: Impasse and Solution,,Advances in Psychology 109,,Mark H. Bickhard and Loren Terveen (Eds.),1995,,North Holland,,"ii-xii, 1-384",0,English,198,avaxhome.ws,,978-0-444-82048-8,0166-4115,,,,,,,,,25658,0,,,,,,,1,5646667,pdf,7D22F42E8161FCEDE6789BAD106B8D3B,,,Y. dl_avaxhome 25658  _=Foundational_Issues_in_Artificial_Intelligence.pdf,0,2000-01-01 01:00:00,2016-04-03 02:51:08,262000/7d22f42e8161fcede6789bad106b8d3b-d.jpg,,
19282989,Rape and Ravishment in the Literature of Medieval England,,,,Corinne Saunders,2001,,D.S.Brewer,,352,0,English,64,avaxhome.ws,,"0859916103,9780859916103,9780585443577",,,,,820.9/355,PR275.R37 S28 2001,,,OL6792813M,25662,0,,,,,1,,1,1197174,pdf,67F7DF49CE95ACB26499186B1C33CD15,,,Y. dl_avaxhome 25662  _=0859916103.pdf,0,2000-01-01 01:00:00,2016-04-03 02:51:08,262000/67f7df49ce95acb26499186b1c33cd15-d.jpg,,
19282990,"Spinal Reconstruction: Clinical Examples of Applied Basic Science, Biomechanics and Engineering",,,,"Kai-Uwe Lewandrowski, Michael J. Yaszemski, Iain Kalfas, Paul Park, Robert F. McLain, Debra J. Trant",2007,1,Informa Healthcare,,496,0,English,210,avaxhome.ws,,0849398150,,,,,,,,,,25668,0,,,,,,,1,8558690,pdf,DF34C997E7DAC49FB84419AF14CF119E,,,Y. dl_avaxhome 25668  _=SpinRecons.pdf,0,2000-01-01 01:00:00,2016-04-03 02:51:08,262000/df34c997e7dac49fb84419af14cf119e-d.jpg,,
19282991,Virtual Globalization: Virtual Spaces/Tourist Spaces,,Routledge Advances in Sociology,,David Holmes,2001,1,Routledge,,280,0,English,113,avaxhome.ws,,0415236738,,,,,,,,,,25671,0,,,,,,1,1,1368692,pdf,443AC51245665808077BC042047CC89A,,,Y. dl_avaxhome 25671  _=0415236738.pdf,0,2000-01-01 01:00:00,2016-04-03 02:51:08,262000/443ac51245665808077bc042047cc89a-d.jpg,,
19282992,Family Fantasies and Community Space,,,,Stuart Aitken,1998,,Rutgers University Press,,256,0,English,212,avaxhome.ws,,0813524628,,,,,,,,,,25676,0,,,,,,,,1119968,chm,CA4C5109BBE22711C2F1FFEC7627C02E,,,Y. dl_avaxhome 25676  _=Family_Fantasies_and_Community_Space.CHM,0,2000-01-01 01:00:00,2016-04-03 02:51:08,262000/ca4c5109bbe22711c2f1ffec7627c02e-d.jpg,,
19282993,CliffsNotes Setting Up a Windows 98 Home Network,,,,Sue Plumley,1999,illustrated edition,Cliffs Notes,,130,0,English,85,avaxhome.ws,,076458541X,,,,,,,,,OL8051867M,25694,0,,,,,,1,1,1672747,pdf,17CB3F99D9D3637083DAA11AACD09D68,,,Y. dl_avaxhome 25694  _=076458541x.pdf,0,2000-01-01 01:00:00,2016-04-03 02:51:08,262000/17cb3f99d9d3637083daa11aacd09d68-d.jpg,,
19282994,Japanese Working Class Lives: An Ethnographic Study of Factory Workers,,,,James Roberson,1998,1,Routledge,,240,0,English,189,avaxhome.ws,,"9780415172127,0415172128,0203173694,9780203173695,9780203286012",,,,,305.9/671/095222,HD8039.M52 J36 1998,,,OL680605M,25698,0,,,,,1,1,1,928346,pdf,1F29D18280267AE5831955E5B090C30E,,,Y. dl_avaxhome 25698  _=Japanese Working Class Lives An Ethnographic Study of Factory Workers.pdf,0,2000-01-01 01:00:00,2016-04-03 02:51:08,262000/1f29d18280267ae5831955e5b090c30e-d.jpg,,
19282995,Lunar Outpost: The Challenges of Establishing a Human Settlement on the Moon,,Springer Praxis Books / Space Exploration,,Erik Seedhouse,2008,1,Praxis,,324,0,English,266,avaxhome.ws,,"0387097465,9780387097466",,,,,629.47,TL799.M6 S34 2009,,,OL23553847M,25700,0,,,,1,0,1,1,5256319,pdf,4F83BF38F4C531EC1E1BD785D8127662,,,Y. dl_avaxhome 25700  _=LunOutp.pdf,0,2000-01-01 01:00:00,2016-04-03 02:51:08,262000/4f83bf38f4c531ec1e1bd785d8127662-d.jpg,,
19282996,Spray Simulation: Modeling and Numerical Simulation of Sprayforming metals,,,,Udo Fritsching,2004,,Cambridge University Press,,288,0,English,120,avaxhome.ws,,"0521820987,9780521820981,9780511184659",,,,,,,,,OL17122577M,25717,0,,,,,1,1,1,9146763,pdf,0526CE80791A210E27B2971A5A43AA7E,,,Y. dl_avaxhome 25717  _=0521820987.pdf,0,2000-01-01 01:00:00,2016-04-03 02:51:08,262000/0526ce80791a210e27b2971a5a43aa7e-d.jpg,,
19282997,Hilbert-Courant,,,,Constance Reid,1986,1,Springer,,610,0,English,113,avaxhome.ws,,"9780387962566,0387962565,3540962565",,,,,"510/.92/2,B",QA29.H5 R42 1986,,,OL2710985M,25720,600,,,,0,1,,1,19161664,djvu,14085FFE158AC4F4BEA2BC4531DD66A4,,,Y. dl_avaxhome 25720  _=hilbert.courant_reid_0387962565.djvu,0,2000-01-01 01:00:00,2016-04-03 02:51:08,262000/14085ffe158ac4f4bea2bc4531dd66a4-d.jpg,,
19282998,"Methods of Behavior Analysis in Neuroscience, ",,Frontiers in Neuroscience,,,2008,2,CRC Press,,360,0,English,165,avaxhome.ws,,1420052349,,,,,,,,,OL11816595M,25740,0,,,,,,,,7333543,rar,E0595296E6EA2E87BE3677E43BA3BF24,,,25740 =MethBehavAna.rar,0,2000-01-01 01:00:00,2016-04-03 02:51:08,262000/e0595296e6ea2e87be3677e43ba3bf24-d.jpg,,
19282999,Pediatric Headaches in Clinical Practice,,,,"Andrew D. Hershey, Scott W. Powers, Paul Winner, Marielle A. Kabbouche",2009,1,Wiley,,224,0,English,161,avaxhome.ws,,"0470512733,9780470512739",,,,,618.92/8491,RJ496.H3 P33 2009,,,OL22843178M,25741,0,,,,,,,1,1220267,pdf,55339BAD524CF16B37C239489C08CDE1,,,Y. dl_avaxhome 25741  _=PediHeadach.pdf,0,2000-01-01 01:00:00,2016-04-03 02:51:08,262000/55339bad524cf16b37c239489c08cde1-d.jpg,,
19283000,Alexander the Great at War: His army - His battles - His Enemies,,General Military,,Ruth Sheppard,2008,illustrated edition,Osprey Publishing,,261,0,English,64,avaxhome.ws,,1846033284,,,,,,,,,OL17011273M,25747,0,,,,,,1,1,99845790,pdf,9ABEA3ADD7A7A225BD12055612A174DE,,,Y. dl_avaxhome 25747  _=AlexGreWar.pdf,0,2000-01-01 01:00:00,2016-04-03 02:51:08,262000/9abea3add7a7a225bd12055612a174de-d.jpg,,
19283001,Plato Complete Works,,,,Plato,1997,,Hackett Pub Co,,1837,0,English,195,avaxhome.ws,0,0872203492,,,,,,,,,,25758,0,,,,,,1,0,23630788,pdf,95B293E768CE78B8AA5EA932E89FF0AB,B670E9AEA7C9F52B2D40D63FF84F5600,no,Y. dl_avaxhome 25758  _=Plato_Complete_Works2.pdf,0,2000-01-01 01:00:00,2016-04-03 02:51:08,262000/95b293e768ce78b8aa5ea932e89ff0ab-d.jpg,,
19283002,Speculative Management: Stock Market Power and Corporate Change,,Suny Series in the Sociology of Work and Organizations,,Dan Krier,2005,,State University of New York Press,,330,0,English,6,avaxhome.ws,,0791463508,,,,,,,,,,25760,0,,,,,,1,1,6153955,pdf,E80A7873E4B018FD2675A7653EBF5D1E,,,Y. dl_avaxhome 25760  _=oo30.pdf,0,2000-01-01 01:00:00,2016-04-03 02:51:08,262000/e80a7873e4b018fd2675a7653ebf5d1e-d.jpg,,
19283003,"101 Ways to Improve Customer Service: Training, Tools, Tips, and Techniques",,Pfeiffer Essential Resources for Training and HR Professionals,,Lorraine L. Ukens,2007,,Pfeiffer,,399,0,English,1,avaxhome.ws,,0787982008,,,,,,,,,,25761,0,,,,,,,1,5731380,pdf,460A6D7DE25120F26DEBB9F44E02B200,,,Y. dl_avaxhome 25761  _=oo29.pdf,0,2000-01-01 01:00:00,2016-04-03 02:51:08,262000/460a6d7de25120f26debb9f44e02b200-d.jpg,,
19283004,"International Trade, Growth, and Development",,,,Pranab Bardhan,2003,,Wiley-Blackwell,,292,0,English,1,avaxhome.ws,,1405101415,,,,,,,,,OL17072636M,25762,0,,,,,,1,1,5233747,pdf,2E72AFFF715023EB098F6F13863BF457,,,Y. dl_avaxhome 25762  _=oo28.pdf,0,2000-01-01 01:00:00,2016-04-03 02:51:08,262000/2e72afff715023eb098f6f13863bf457-d.jpg,,
19283005,Writing a Resume,,"Schwartz, Stuart, Looking at Work.",,Stuart Schwartz,1999,,Capstone Press,,34,0,English,1,avaxhome.ws,,0736801812,,,,,,,,,,25763,0,,,,,,,0,5141764,pdf,A09044E689A8B16E405B5D290D8D7721,,,Y. dl_avaxhome 25763  _=oo27.pdf,0,2000-01-01 01:00:00,2016-04-03 02:51:08,262000/a09044e689a8b16e405b5d290d8d7721-g.jpg,,
19283006,Property Valuation: In an Economic Context,,,,Peter Wyatt,2007,,Wiley-Blackwell,,423,0,English,305,avaxhome.ws,,1405130458,,,,,333.33/8720941,HD1393.58.G7 W93 2007,,,OL11650108M,25765,0,,,,,,1,1,5555543,pdf,2DE79B9934039C822B2BCEC21297A40A,,,Y. dl_avaxhome 25765  _=oo26.pdf,0,2000-01-01 01:00:00,2016-04-03 02:51:08,262000/2de79b9934039c822b2bcec21297a40a-d.jpg,,
19283007,150 Contractual Problems and Their Solutions,,,,Roger Knowles,2005,2,Wiley-Blackwell,,319,0,English,1,avaxhome.ws,,1405120703,,,,,346.4102,KD1554.Z9,,,OL22147733M,25767,0,,,,,,1,1,5306962,pdf,2717EE68EA1486DC3E4383EFA93A86E0,,,Y. dl_avaxhome 25767  _=oo24.pdf,0,2000-01-01 01:00:00,2016-04-03 02:51:08,262000/2717ee68ea1486dc3e4383efa93a86e0-d.jpg,,
19283008,"RAPID Value Management for the Business Cost of Ownership: Readiness, Architecture, Process, Integration, Deployment",,HP Technologies,,Andrew S. Wigosky,2004,1,Elsevier Digital Press,,323,0,English,6,avaxhome.ws,,1555582893,,,,,,,,,OL8574264M,25769,0,,,,,,,1,5340676,pdf,B45C33E8216EDAD7242886240FA9C9AF,,,Y. dl_avaxhome 25769  _=oo22.pdf,0,2000-01-01 01:00:00,2016-04-03 02:51:08,262000/b45c33e8216edad7242886240fa9c9af-g.jpg,,
19283009,"Migration, Ethnic Relations and Chinese Business",,Chinese Worlds,,Kwok-bun Chan,2005,annotated edition,Routledge,,210,0,English,1,avaxhome.ws,,0415369274,,,,,,,,,,25770,0,,,,,,1,1,4982947,pdf,99683D90BF2CB009B54756F8C36E23C9,,,Y. dl_avaxhome 25770  _=oo21.pdf,0,2000-01-01 01:00:00,2016-04-03 02:51:08,262000/99683d90bf2cb009b54756f8c36e23c9-d.jpg,,
19283010,"Full Frontal PR: Building Buzz About Your Business, Your Product, or You",,,,Richard Laermer,2004,1st Paperback Ed,Bloomberg Press,,256,0,English,1,avaxhome.ws,,1576601811,,,,,,,,,OL8748016M,25771,0,,,,,,1,1,5374277,pdf,72AD34CD0C0D69087FBE1CDAFA71F038,,,Y. dl_avaxhome 25771  _=oo20.pdf,0,2000-01-01 01:00:00,2016-04-03 02:51:08,262000/72ad34cd0c0d69087fbe1cdafa71f038-d.jpg,,
19283011,Handbook of Human Resources Management in Government,,,,,2004,2,Jossey-Bass,,843,0,English,,avaxhome.ws,,0787972584,,,,,,,,,,25772,0,,,,,,,1,6020980,pdf,DCF4F021B067E43A68F7513F946DCE64,,,Y. dl_avaxhome 25772  _=oo19.pdf,0,2000-01-01 01:00:00,2016-04-03 02:51:08,262000/dcf4f021b067e43a68f7513f946dce64-d.jpg,,
19283012,International Business and Information Technology: Interaction and Transformation in the Global Economy,,,,,2004,1,Routledge,,217,0,English,1,avaxhome.ws,,0415325420,,,,,,,,,,25773,0,,,,,,1,1,5707088,pdf,48926816EA247A660F3F01D86AC9BD7B,,,Y. dl_avaxhome 25773  _=oo18.pdf,0,2000-01-01 01:00:00,2016-04-03 02:51:08,262000/48926816ea247a660f3f01d86ac9bd7b-d.jpg,,
19283013,The Cost of Land Use Decisions: Applying Transaction Cost Economics to Planning and Development,,Real Estate Issues,,Edwin Buitelaar,2007,1,Wiley-Blackwell,,207,0,English,305,avaxhome.ws,,1405151234,,,,,333.73/15,HD156 .B85 2007,,,OL11650309M,25774,0,,,,,,1,1,5277451,pdf,8BD94318EF3C481B902C9164930076FC,,,Y. dl_avaxhome 25774  _=oo17.pdf,0,2000-01-01 01:00:00,2016-04-03 02:51:08,262000/8bd94318ef3c481b902c9164930076fc-d.jpg,,
19283014,Economics and Land Use Planning,,Real Estate Issues,,Alan Evans,2004,,Wiley-Blackwell,,214,0,English,305,avaxhome.ws,,140511861X,,,,,,,,,OL22600777M,25775,0,,,,,,1,1,5821182,pdf,BF61E2BD1136A9F28B08E1DEDADFC186,,,Y. dl_avaxhome 25775  _=oo16.pdf,0,2000-01-01 01:00:00,2016-04-03 02:51:08,262000/bf61e2bd1136a9f28b08e1dedadfc186-d.jpg,,
19283015,Developing Strategies for International Business: The Wrap Process,,,,J. Angus Gillon,2004,illustrated edition,Palgrave Macmillan,,194,0,English,1,avaxhome.ws,,1403934142,,,,,,,,,OL8399522M,25777,0,,,,,,,1,5294532,pdf,7039DC56D9DA918BEA090CDC1C22C37F,,,Y. dl_avaxhome 25777  _=oo14.pdf,0,2000-01-01 01:00:00,2016-04-03 02:51:08,262000/7039dc56d9da918bea090cdc1c22c37f-d.jpg,,
19283016,Thylacine: The Tragic Tale of the Tasmanian Tiger,,,,David Owen,2003,,Allen & Unwin Academic,,241,0,English,23,avaxhome.ws,,1865087580,,,,,599.2/7,QL737.M336 O83 2003,,,OL3760977M,25778,0,,,,,,1,1,5190034,pdf,897D6AC6CE815C24F881E5ED12610D36,,,Y. dl_avaxhome 25778  _=oo13.pdf,0,2000-01-01 01:00:00,2016-04-03 02:51:08,262000/897d6ac6ce815c24f881e5ed12610d36-d.jpg,,
19283017,Clay Swelling and Colloid Stability,,,,Martin V. Smalley,2006,1,CRC Press,,273,0,English,296,avaxhome.ws,,0849380790,,,,,,,,,,25779,0,,,,,,,1,6304644,pdf,D2B05202EB3536E53064AA5CDDE14ECF,,,Y. dl_avaxhome 25779  _=oo12.pdf,0,2000-01-01 01:00:00,2016-04-03 02:51:08,262000/d2b05202eb3536e53064aa5cdde14ecf-d.jpg,,
19283018,Management of Morbid Obesity,,,,,2005,1,Informa Healthcare,,260,0,English,6,avaxhome.ws,,0824758560,,,,,,,,,,25782,0,,,,,,1,1,7217498,pdf,D35BE6EB82629C90C4CC8A2441F34D0C,,,Y. dl_avaxhome 25782  _=oo09.pdf,0,2000-01-01 01:00:00,2016-04-03 02:51:08,262000/d35be6eb82629c90c4cc8a2441f34d0c-d.jpg,,
19283019,"Tropical Lung Disease, ",,Lung Biology in Health and Disease,,,2005,2,Informa Healthcare,,575,0,English,151,avaxhome.ws,,0824726871,,,,,,,,,,25784,0,,,,,,1,1,6878936,pdf,D43767B894E5B15C9BCF27EB5DC3CA25,,,Y. dl_avaxhome 25784  _=oo07.pdf,0,2000-01-01 01:00:00,2016-04-03 02:51:08,262000/d43767b894e5b15c9bcf27eb5dc3ca25-d.jpg,,
19283020,Economics of the Mortgage Market: Perspectives on Household Decision Making,,Real Estate Issues,,David Leece,2004,illustrated edition,Wiley-Blackwell,,270,0,English,305,avaxhome.ws,,1405114614,,,,,,,,,OL22587637M,25789,0,,,,,,,1,5074785,pdf,508F20C84549941CA4B6028118AF5332,,,Y. dl_avaxhome 25789  _=oo03.pdf,0,2000-01-01 01:00:00,2016-04-03 02:51:08,262000/508f20c84549941ca4b6028118af5332-d.jpg,,
19283021,Asian Migrants and European Labour Markets: Patterns and Processes of Immigrant Labour Market Insertion in Europe,,Routledge Research in Population and Migration,,"Ernst Spaan, Felicitas Hillmann, Ton van Naerssen",2005,1,Routledge,,359,0,English,305,avaxhome.ws,,"0415365023,9780415365024,9780203016053",,,,,331.6/2504,HD8378.5.A77 A85 2005,,,OL22711069M,25804,0,,,,,1,1,1,1460168,pdf,EAAAD22CFAE94D24E3ED1D73752CDE87,,,Y. dl_avaxhome 25804  _=0415365023.pdf,0,2000-01-01 01:00:00,2016-04-03 02:51:08,262000/eaaad22cfae94d24e3ed1d73752cde87-d.jpg,,
19283022,"Russia, NATO and Cooperative Security: Bridging the Gap",,Contemporary Security Studies,,Lionel Ponsard,2006,annotated edition,Routledge,,224,0,English,37,avaxhome.ws,,"0415407230,9780415407236,9780203969243",,,,,,,,,OL17215829M,25809,0,,,,,1,1,1,1106003,pdf,F577BDB125697726CBB0D61B7E00C261,,,Y. dl_avaxhome 25809  _=0415407230.pdf,0,2000-01-01 01:00:00,2016-04-03 02:51:08,262000/f577bdb125697726cbb0d61b7e00c261-d.jpg,,
19283023,Reconsidering Open and Distance Learning in the Developing World: Meeting Students' Learning Needs,,The Open and Flexible Learning Series,,David Kember,2007,1,Routledge,,221,0,English,181,avaxhome.ws,,"0415401399,9780415401395,9780203966549",,,,,,,,,OL10204964M,25810,0,,,,,1,,1,1209935,pdf,FBD9C7C2C292DA3B2EC3B34C4A09E1CF,,,Y. dl_avaxhome 25810  _=0415401399.pdf,0,2000-01-01 01:00:00,2016-04-03 02:51:08,262000/fbd9c7c2c292da3b2ec3b34c4a09e1cf-d.jpg,,
19283024,Annual Review of Neuroscience 2008,,,,,2008,1st,Annual Reviews,,579,0,English,,avaxhome.ws,0,0824324315,,,,,,,10.1146/annurev.neur0.30.051606.094225,,,25819,0,,,,,,1,1,15436667,pdf,1215D84C8D7791746D7C83F81FA5183B,,,Y. dl_avaxhome 25819  _=arn2008.pdf_3.pdf,0,2000-01-01 01:00:00,2016-04-03 02:51:08,262000/1215d84c8d7791746d7c83f81fa5183b-g.jpg,,
19283025,Textbook of Interventional Cardiovascular Pharmacology,,,,"Nicholas Kipshidze, Jawad Fareed, Patrick W. Serruys, Jeff Moses",2007,1,Informa Healthcare,,680,0,English,302,avaxhome.ws,,1841844381,,,,,,,,,OL12571188M,25825,0,,,,,,,1,12487679,pdf,AC9F22AAD5A200B5162909CE6D287091,,,Y. dl_avaxhome 25825  _=1841844381.pdf,0,2000-01-01 01:00:00,2016-04-03 02:51:08,262000/ac9f22aad5a200b5162909ce6d287091-d.jpg,,
19283026,"The Political Road to War with Iraq: Bush, 9/11 and the Drive to Overthrow Saddam",,Contemporary Security Studies,,"Nick Ritchie, Paul Rogers",2006,1,Routledge,,241,0,English,189,avaxhome.ws,,"0415397324,9780415397322,9780203964545",,,,,,,,,OL22739432M,25826,0,,,,,1,1,1,1205825,pdf,2BB0FA012AB619FD42B28BB806879A1C,,,Y. dl_avaxhome 25826  _=0415397324.pdf,0,2000-01-01 01:00:00,2016-04-03 02:51:08,262000/2bb0fa012ab619fd42b28bb806879a1c-d.jpg,,
19283027,Heinkel He 162 Volksjager,,"Militaria Aviation, 49",,Janusz Ledwoch,1997,,Militaria (of Warsaw Poland),,40,0,Polish,64,avaxhome.ws,,8386209682,,,,,,,,,OL13184871M,25835,0,,,,,,1,0,10925056,pdf,C8E662729C693E1B2872C4629E460567,,,25835 =Wydawnictwo_Militaria__049__-_He_162_Volksjager.pdf,0,2000-01-01 01:00:00,2016-04-03 02:51:08,262000/c8e662729c693e1b2872c4629e460567-g.jpg,,
19283028,The Special School's Handbook: Key Issues for All,,David Fulton / Nasen,,Michael Farrell,2007,1,Routledge,,180,0,English,,avaxhome.ws,,"041541685X,0203945778,9780415416863,9780415416856,9780203945773,0415416868",,,,,371.90941,LC4036.G7 F373 2007,,,OL10205545M,25838,0,,,,,1,,1,1237282,pdf,FB2421573ED821CB460D3BB08155D805,,,Y. dl_avaxhome 25838  _=041541685X.pdf,0,2000-01-01 01:00:00,2016-04-03 02:51:08,262000/fb2421573ed821cb460d3bb08155d805-d.jpg,,
19283029,Physics and Chemistry of Nano-structured Materials,,,,Shihe Yang,1999,1,CRC Press,,221,0,English,264,avaxhome.ws,,0748408738,,,,,,,,,,25840,0,,,,,,1,1,9490357,pdf,375B6EA84E916850C18E8A420EB6FE5F,,,Y. dl_avaxhome 25840  _=Physics_and_Chemistry_of_Nano-structured_Materials.pdf,0,2000-01-01 01:00:00,2016-04-03 02:51:08,262000/375b6ea84e916850c18e8a420eb6fe5f-d.jpg,,
19283030,Everyday Islam in Post-Soviet Central Asia,,Central Asian Studies,,Maria Elisabeth Louw,2007,1,Routledge,,219,0,English,209,avaxhome.ws,,"0415413168,9780415413169,9780203961773",,,,,,,,,OL10205385M,25845,0,,,,,1,1,1,1198537,pdf,DB56CF1933736105563464A019906117,,,Y. dl_avaxhome 25845  _=0415413168.pdf,0,2000-01-01 01:00:00,2016-04-03 02:51:08,262000/db56cf1933736105563464a019906117-d.jpg,,
19283031,Zeldovich: Reminiscences,,,,,2004,1,CRC Press,,394,0,English,264,avaxhome.ws,,0415287901,,,,,,,,,,25846,0,,,,,,1,1,4206441,pdf,E8CA72C075FAE236339793B59D15E153,,,Y. dl_avaxhome 25846  _=Zeldovich_Reminiscences.pdf,0,2000-01-01 01:00:00,2016-04-03 02:51:08,262000/e8ca72c075fae236339793b59d15e153-d.jpg,,
19283032,The Great Turning: From Empire to Earth Community,,BK Currents,,David C Korten,2006,"First Edition, First Printing",Berrett-Koehler Publishers,,425,0,English,38,avaxhome.ws,,"1887208070,9781887208079",,,,,302/.14,JZ1318 .K67 2005,,,OL3430573M,25872,0,,,,,,1,1,2663920,pdf,93AB1BE0559CE277E3BDB2F81C96749D,,,Y. dl_avaxhome 25872  _=1887208070.pdf,0,2000-01-01 01:00:00,2016-04-03 02:51:08,262000/93ab1be0559ce277e3bdb2f81c96749d-d.jpg,,
19283033,"The Global Positioning System and GIS, ",,,,Michael Kennedy,2002,2,CRC Press,,384,0,English,264,avaxhome.ws,,"0415286085,0203345517,0203301064",,,,,623.893,,,,OL21087018M,25881,0,,,,,,1,1,15778598,pdf,B2BB0A215E02F1BEF624565583627ABB,,,Y. dl_avaxhome 25881  _=The_Global_Positioning_System.pdf,0,2000-01-01 01:00:00,2016-04-03 02:51:08,262000/b2bb0a215e02f1bef624565583627abb-d.jpg,,
19283034,Work Life: Manage Your Time,,Essential Managers,,James N. Manktelow,2006,,Dorling Kindersley Publishers Ltd,,121,0,English,1,avaxhome.ws,,1405312882,,,,,,,,,,25924,0,,,,,,,0,9449168,pdf,A50EDEEE1450D31BF61D0BB92333136B,,,Y. dl_avaxhome 25924  _=WorkLife.pdf,0,2000-01-01 01:00:00,2016-04-03 02:51:08,262000/a50edeee1450d31bf61d0bb92333136b-d.jpg,,
19283035,Motivate People: Get the Best from Yourself and Others,,WorkLife,,Gavin Ingham,2007,,Dorling Kindersley,,122,0,English,1,avaxhome.ws,,"1405317515,9781405317511",,,,,,,,,,25925,0,,,,,,,1,13751941,pdf,634B5B7A7132C3D8C8CAB65846B08EC6,,,Y. dl_avaxhome 25925  _=MotivPeopl.pdf,0,2000-01-01 01:00:00,2016-04-03 02:51:08,262000/634b5b7a7132c3d8c8cab65846b08ec6-d.jpg,,
19283036,Hybrid and Incompatible Finite Element Methods,,Modern Mechanics and Mathematics,,"Theodore H.H. Pian, Chang-Chun Wu",2005,1,Chapman and Hall/CRC,,395,0,English,264,avaxhome.ws,,"158488276X,9781584882763",,,,,620/.001/51825,TA347.F5 P53 2005,,,OL3311645M,25939,0,,,,,,1,1,15194122,pdf,442A840D5DBC4091B1572E0980F29F95,,,Y. dl_avaxhome 25939  _=Hybrid_and_Incompatible_Finite_Element_Methods.pdf,0,2000-01-01 01:00:00,2016-04-03 02:51:08,262000/442a840d5dbc4091b1572e0980f29f95-d.jpg,,
19283037,The Pedagogy of Lifelong Learning: Understanding Effective Teaching and Learning in Diverse Contexts,,,,"Michael Osborne, Muir Houston, Nuala Toman",2007,,Routledge,,247,0,English,183,avaxhome.ws,,"0415424941,9780415424943,9780203945292",,,,,374,LC5215 .P424 2007,,,OL10205928M,25967,0,,,,,1,,1,1120744,pdf,0A052625D151979A628C91A4F2B880E2,,,Y. dl_avaxhome 25967  _=0415424941.pdf,0,2000-01-01 01:00:00,2016-04-03 02:51:08,262000/0a052625d151979a628c91a4f2b880e2-d.jpg,,
19283038,God's Secretaries: The Making of the King James Bible,,,,Adam Nicolson,2003,First Edition,HarperCollins,,303,0,English,64,avaxhome.ws,,0060185163,,,,,,,,,,25969,0,,,,,,1,1,5330054,pdf,073C8AAF251DB6633F039D63901D73CB,,,Y. dl_avaxhome 25969  _=GodsSecretariesgPG.pdf,0,2000-01-01 01:00:00,2016-04-03 02:51:08,262000/073c8aaf251db6633f039d63901d73cb-d.jpg,,
19283039,Basic Electricity and Electronics for Control: Fundamentals and Applications,,,,Lawrence (Larry) M. Thompson,2006,3,ISA,,396,0,English,250,avaxhome.ws,,155617988X,,,,,,,,,OL12029541M,25970,0,,,,,,,1,11409385,pdf,07753334BB0982C52D85799DE676FBD7,,,Y. dl_avaxhome 25970  _=BE-15_56179884.pdf,0,2000-01-01 01:00:00,2016-04-03 02:51:08,262000/07753334bb0982c52d85799de676fbd7-d.jpg,,
19283040,Diaspora Conversions: Black Carib Religion and the Recovery of Africa,,,,Paul Christopher Johnson,2007,1,University of California Press,,344,0,English,205,avaxhome.ws,,0520249704,,,,,,,,,,25994,0,,,,,,1,1,1315436,pdf,241F7D90DB0BDADEE30968CEF4BA3139,,,Y. dl_avaxhome 25994  _=0520249704.pdf,0,2000-01-01 01:00:00,2016-04-03 02:51:08,262000/241f7d90db0bdadee30968cef4ba3139-d.jpg,,
19283041,The Interpretation Of Dreams,,,,Sigmund Freud,2009,,IAP,,328,0,English,198,avaxhome.ws,,8562022489,,,,,,,,,,25995,0,,,,,,,1,1070392,pdf,CBCEDB04526E27704C38783E10390547,,,Y. dl_avaxhome 25995  _=Interpretation%20Of%20Dreams%20326%20Pages.pdf,0,2000-01-01 01:00:00,2016-04-03 02:51:08,262000/cbcedb04526e27704c38783e10390547-d.jpg,,
19283042,Helping Your Child Learn Responsible Behavior,,,,,1993,,Diane Pub Co,,52,0,English,183,avaxhome.ws,,0788102540,,,,,,,,,,26009,0,,,,,,,0,4069512,pdf,58CE7197279FB30DBC10AD005BBBDEE7,,,Y. dl_avaxhome 26009  _=ResponsBehavior.pdf,0,2000-01-01 01:00:00,2016-04-03 02:51:08,262000/58ce7197279fb30dbc10ad005bbbdee7-g.jpg,,
19283043,"Geometry of Non-Linear Differential Equations, Backlund Transformations, and Solitons",Part A,Interdisciplinary Mathematics Series No. 12,,Robert Hermann,1976,,Math Science Pr,,318,0,English,113,avaxhome.ws,,"0915692163,9780915692163",,,,,515/.35,QA371 .H47,,,OL20632270M,26010,0,,,,,1,1,1,1422946,djvu,5C3E64CF45B95BDF28EB19FDCF536514,,,Y. dl_avaxhome 26010  _=hermann-geometry_of_non-linear_differential_equations_backlund_transformations_and_solitons_part_a-9.DJVU,0,2000-01-01 01:00:00,2016-04-03 02:51:08,262000/5c3e64cf45b95bdf28eb19fdcf536514-g.jpg,,
19283044,Reference and Consciousness,,Oxford Cognitive Science Series,,John Campbell,2002,,"Oxford University Press, USA",,271,0,English,,avaxhome.ws,,"0199243816,9780199243815,0199243808,9780199243808,9780191529474",,,,,,,,,OL7403515M,26013,0,,,,0,1,,1,19517713,pdf,281B6577E06A2D01263176C793F35E2A,,,Y. dl_avaxhome 26013  _=ReferConscious.pdf,0,2000-01-01 01:00:00,2016-04-03 02:51:08,262000/281b6577e06a2d01263176c793f35e2a-d.jpg,,
19283045,Big Daddy: Jesse Unruh and the Art of Power Politics,,,,Bill Boyarsky,2007,1,University of California Press,,295,0,English,189,avaxhome.ws,,0520219678,,,,,,,,,,26015,0,,,,,,1,1,1155837,pdf,BD43A0D76A6ADB2BCC815FFEAD7B0AC1,,,Y. dl_avaxhome 26015  _=0520219678.pdf,0,2000-01-01 01:00:00,2016-04-03 02:51:08,262000/bd43a0d76a6adb2bcc815ffead7b0ac1-d.jpg,,
19283046,"Spinors, Clifford, and Cayley Algebras",,Interdisciplinary Mathematics Series Vol 7,,Robert Hermann,1975,,Math Science Pr,,276,0,English,114,avaxhome.ws,,0915692066,,,,,,,,,,26023,0,,,,,,,0,7508174,pdf,6983D3B9A6CC687F175A78DBA6C0D102,,,Y. dl_avaxhome 26023  _=hermann_r._-_im_07.pdf,0,2000-01-01 01:00:00,2016-04-03 02:51:08,262000/6983d3b9a6cc687f175a78dba6c0d102-g.jpg,,
19283047,Elements of Aerodynamics of Supersonic Flows,,Dover Phoenix Editions,,Antonio Ferri,2005,,Dover Publications,,210,0,English,210,avaxhome.ws,,0486442802,,,,,,,,,,26029,0,,,,,,,0,15662499,pdf,B0BAF7A51668D348A49FBFF26DB1432C,,,Y. dl_avaxhome 26029  _=147808___elements_aerodynamics_supersonic_flows.pdf,0,2000-01-01 01:00:00,2016-04-03 02:51:08,262000/b0baf7a51668d348a49fbff26db1432c-d.jpg,,
19283048,Aerodynamics of Wings and Bodies,,Dover Books on Engineering,,Holt Ashley,1985,,Dover Publications,,144,0,English,210,avaxhome.ws,,0486648990,,,,,,,,,,26030,0,,,,,,,1,10209153,pdf,49BEFEC73B61058E512C2FFBE084F053,,,Y. dl_avaxhome 26030  _=_ashley__aerodynamics_of_wings_and_bodies.pdf,0,2000-01-01 01:00:00,2016-04-03 02:51:08,262000/49befec73b61058e512c2ffbe084f053-d.gif,,
19283049,Psychopharmakologie: Anwendung und Wirkungsweisen von Psychopharmaka und Drogen,,,,Thomas Elbert,1993,"2., uberarbeitete und erg. Aufl",Hogrefe,,358,0,German,302,avaxhome.ws,,3801706877,,,,,615/.78,RM315 .E43 1993,,,OL1151895M,26047,0,,,,,,,,1716097,rar,387B1D361354A286B8AAA72E6FDF9208,,,26047 =006.rar,0,2000-01-01 01:00:00,2016-04-03 02:51:08,262000/387b1d361354a286b8aaa72e6fdf9208-d.gif,,
19283050,The New Transnational Activism,,Cambridge Studies in Contentious Politics,,Sidney Tarrow,2005,,Cambridge University Press,,278,0,English,189,avaxhome.ws,,"0521851300,9780521851305",,,,,,,,,OL7766675M,26054,0,,,,,1,1,1,1337651,pdf,36BBD475287DBF26EF422A550C5B613D,,,Y. dl_avaxhome 26054  _=0521851300.pdf,0,2000-01-01 01:00:00,2016-04-03 02:51:08,262000/36bbd475287dbf26ef422a550c5b613d-d.jpg,,
19283051,The Potala Palace of Tibet,,,,Deng Ruiling,,[3rd print,,,10,0,English,,usenet,to 2012-06,,,,,,,,,,,,0,,,,,,,0,3855895,pdf,79490f8aeb2e345176b0cf2951f3b2e8,,,I:\\usenet_ger\\Potala Palast .pdf,0,2000-01-01 01:00:00,2016-04-03 02:51:08,884000/79490f8aeb2e345176b0cf2951f3b2e8-g.jpg,,
19283052,Terrorism and the Politics of Fear,,,,David L. Altheide,2006,,AltaMira Press,,262,0,English,189,avaxhome.ws,,"0759109184,9780759109186,9780759112513",,,,,302.230973/090511,HN90.M3 A47 2006,,,OL3412776M,26065,0,,,,,,1,1,11428947,pdf,CCA49D854678835C6BE5F821C7A6E59D,,,Y. dl_avaxhome 26065  _=0759109184_Terrorism_fear.pdf,0,2000-01-01 01:00:00,2016-04-03 02:51:08,262000/cca49d854678835c6be5f821c7a6e59d-d.jpg,,
19283053,Nutrition and Metabolism: Underlying Mechanisms and Clinical Consequences,,Nutrition and Health,,,2009,1,Humana Press,,419,0,English,161,avaxhome.ws,,1603274529,,,,,,,10.1007/978-1-60327-453-1,,,26092,0,,,,,,,1,4919916,pdf,B2EDDC0EC0F8EC4C00C86FB8FDDBAD2F,,,Y. dl_avaxhome 26092  _=1603274529.pdf,0,2000-01-01 01:00:00,2016-04-03 02:51:08,262000/b2eddc0ec0f8ec4c00c86fb8fddbad2f-d.jpg,,
19283054,"Germany and the Americas: Culture, Politics, and History",,Transatlantic Relations,,,2005,,ABC-CLIO,,1366,0,English,64,avaxhome.ws,,1851096280,,,,,303.48/27043,E18.75 .G48 2005,,,OL3405496M,26101,0,,,,,,1,1,6949312,pdf,BAF2CF18904B820803E7ECFDFD6D4114,,,Y. dl_avaxhome 26101  _=1851096280.pdf,0,2000-01-01 01:00:00,2016-04-03 02:51:08,262000/baf2cf18904b820803e7ecfdfd6d4114-d.jpg,,
19283055,Outsourcing Sovereignty: Why Privatization of Government Functions Threatens Democracy and What We Can Do about It,,,,Paul R. Verkuil,2007,1,Cambridge University Press,,248,0,English,181,avaxhome.ws,,"0521867045,9780521867047,9780511350139",,,,,338.973/05,HD3861.U6 .x V4 7 2007,,,OL10437728M,26118,0,,,,,1,1,1,1848305,pdf,7AD34C894CCDA77097C28FA6C47C3DEC,,,Y. dl_avaxhome 26118  _=0521867045.pdf,0,2000-01-01 01:00:00,2016-04-03 02:51:08,262000/7ad34c894ccda77097c28fa6c47c3dec-d.jpg,,
19283056,"Advances in Mergers and Acquisitions, Vol. 6",,,,,2007,illustrated edition,JAI Press,,199,0,English,,avaxhome.ws,0,0762313811,,,,,,,,,,26149,0,,,,,,,1,1420895,pdf,12A56B696D5ED60825E8D723A2398B8E,,,Y. dl_avaxhome 26149  _=0762313811.pdf,0,2000-01-01 01:00:00,2016-04-03 02:51:08,262000/12a56b696d5ed60825e8d723a2398b8e-d.jpg,,
19283057,"Theory and Practice of Excise Taxation: Smoking, Drinking, Gambling, Polluting, and Driving",,,,Sijbren Cnossen,2005,,"Oxford University Press, USA",,270,0,English,305,avaxhome.ws,,"0199278598,9780199278596,9781435623750",,,,,336.271,HJ5703 .T48 2005,,,OL22615411M,26152,0,,,,,1,1,1,2087740,pdf,E1077BDA148C59AEE3B1EEE1CBFFBBE2,,,Y. dl_avaxhome 26152  _=297994___0199278598_theory_and_practice_3.pdf,0,2000-01-01 01:00:00,2016-04-03 02:51:08,262000/e1077bda148c59aee3b1eee1cbffbbe2-d.jpg,,
19283058,CIM Revision Cards: Marketing Environment 04/05,,,,Marketing Knowledge,2005,,Butterworth-Heinemann,,124,0,English,305,avaxhome.ws,,"0750662832,9780750662833,9780080546681",,,,,,,,,OL9534527M,26155,0,,,,,,1,1,1058505,pdf,6A3DB83C1BC03E7763219DE2AAC7286F,,,Y. dl_avaxhome 26155  _=0750662832.pdf,0,2000-01-01 01:00:00,2016-04-03 02:51:08,262000/6a3db83c1bc03e7763219de2aac7286f-d.jpg,,
19283059,Key Concepts in Politics,,Macmillan study guides,,Andrew Heywood,2000,,Palgrave Macmillan,,304,0,English,189,avaxhome.ws,,0333770951,,,,,,,,,,26160,0,,,,,,,,1086438,chm,42169DD38FF3528C39DF922EAFB3D4CC,,,Y. dl_avaxhome 26160  _=Key_Concepts_in_Politics.CHM,0,2000-01-01 01:00:00,2016-04-03 02:51:08,262000/42169dd38ff3528c39df922eafb3d4cc-d.jpg,,
19283060,"Magic With Science: Scientific Tricks, Demonstrations, and Experiments for Home, Classes, Science Clubs, and Magic Shows",,,,Walter Brown Gibson,1975,,Grosset & Dunlap,,120,0,English,181,avaxhome.ws,,"0448115646,9780448115641",,,,,793.8,,,,OL24371124M,26175,0,,,,0,1,,0,1983646,pdf,4663EC291231112CA0879660D38B6073,,,Y. dl_avaxhome 26175  _=MagScience.pdf,0,2000-01-01 01:00:00,2016-04-03 02:51:08,262000/4663ec291231112ca0879660d38b6073-g.jpg,,
19283061,"Corporate Media Production, ",,,,Ray DiZazzo,2003,2,Focal Press,,279,0,English,,avaxhome.ws,,"0240805143,9780240805146,9780080569338",,,,,384.55/8,PN1992.94 .D57 2003,,,OL17094878M,26194,0,,,,,0,,1,17238555,pdf,1B996CBC74ABC7622DEE1402C334E733,,,Y. dl_avaxhome 26194  _=0240805143.pdf,0,2000-01-01 01:00:00,2016-04-03 02:51:08,262000/1b996cbc74abc7622dee1402c334e733-d.jpg,,
19283062,Animals at Home,,DK READERS,,David Lock,2007,,DK CHILDREN,,36,0,English,23,avaxhome.ws,,0756631416,,,,,,,,,,26211,0,,,,,,,1,8946725,pdf,75B97148CFD1768DBE69EA7F87487423,,,Y. dl_avaxhome 26211  _=0756631416.pdf,0,2000-01-01 01:00:00,2016-04-03 02:51:08,262000/75b97148cfd1768dbe69ea7f87487423-d.jpg,,
19283063,Duckpond Dip,,DK READERS,,DK Publishing,2006,,DK CHILDREN,,36,0,English,314,avaxhome.ws,,0756619580,,,,,,,,,,26223,0,,,,,,1,1,11231965,pdf,BA40970F520AF43C9BD2273FA7686B19,,,Y. dl_avaxhome 26223  _=0756619580.pdf,0,2000-01-01 01:00:00,2016-04-03 02:51:08,262000/ba40970f520af43c9bd2273fa7686b19-d.jpg,,
19283064,Postharvest Diseases of Fruits and Vegetables: Development and Control,,,,R. Barkai-Golan,2001,1,Elsevier Science,,431,0,English,151,avaxhome.ws,,"0444505849,9780444505842,9780080539294",,,,,,,,,OL10260221M,26224,0,,,,,1,1,1,26124676,pdf,67341E6C7F48E6FFA75C15490413A56F,,,Y. dl_avaxhome 26224  _=0444505849.pdf,0,2000-01-01 01:00:00,2016-04-03 02:51:08,262000/67341e6c7f48e6ffa75c15490413a56f-d.jpg,,
19283065,A Poor Wise Man,,,,Mary Roberts Rinehart,2008,,BiblioBazaar,,350,0,English,195,avaxhome.ws,,055952966X,,,,,,,,,,26237,0,,,,,,,1,841566,pdf,E9C0600B8A292EC93968494ABB845688,,,Y. dl_avaxhome 26237  _=APoorWiseManbyM.R.Rinehart.pdf,0,2000-01-01 01:00:00,2016-04-03 02:51:08,262000/e9c0600b8a292ec93968494abb845688-d.jpg,,
19283066,Handbook of Cerebrovascular Disease and Neurointerventional Technique,,Contemporary Medical Imaging,,Mark R. Harrigan,2009,1,Humana Press,,746,0,English,,avaxhome.ws,,1588297551,,,,,,,10.1007/978-1-60327-125-7,,OL12325722M,26242,0,,,,,,1,1,11540081,pdf,C674CB5AA7AF04EED3B7197F6853A8AA,,,Y. dl_avaxhome 26242  _=CerebrDiseas.pdf,0,2000-01-01 01:00:00,2016-04-03 02:51:08,262000/c674cb5aa7af04eed3b7197f6853a8aa-d.jpg,,
19283067,A Treatise of Human Nature,,,,David Hume,2008,,NuVision Publications,,365,0,English,181,avaxhome.ws,,1595477276,,,,,,,,,,26248,0,,,,,,1,1,1417816,pdf,06341624B6A44B1299B6FA9A57AB414D,,,Y. dl_avaxhome 26248  _=ATreatiseofHumanNature.pdf,0,2000-01-01 01:00:00,2016-04-03 02:51:08,262000/06341624b6a44b1299b6fa9a57ab414d-d.jpg,,
19283068,Green Chemistry and Engineering,,,,Mukesh Doble,2007,1,Academic Press,,343,0,English,210,avaxhome.ws,,0123725321,,,,,,,,,,26260,0,,,,,,1,1,1685831,pdf,EA4DAE1EABC68B14E8BEF4B7BC303F2D,,,Y. dl_avaxhome 26260  _=GreeChem.pdf,0,2000-01-01 01:00:00,2016-04-03 02:51:08,262000/ea4dae1eabc68b14e8bef4b7bc303f2d-d.jpg,,
19283069,Conceptual Analysis and Philosophical Naturalism,,Bradford Books,,"David Braddon-Mitchell, Robert Nola",2009,,The MIT Press,,381,0,English,195,avaxhome.ws,,"0262512289,9780262512282,0262012561,9780262012560,9780262255202",,,,,146/.4,B808.5 .C557 2009,,,OL16943716M,26266,0,,,,0,0,,1,5363964,pdf,00CBD92038BE68F72988E7968995F74D,,,Y. dl_avaxhome 26266  _=ConcAnPhilos.pdf,0,2000-01-01 01:00:00,2016-04-03 02:51:08,262000/00cbd92038be68f72988e7968995f74d-d.jpg,,
19283070,The Right to Vote: Rights and Liberties under the Law,,America's Freedoms,,Donald Stephenson,2004,Library edition,ABC-CLIO,,488,0,English,313,avaxhome.ws,,1851096485,,,,,,,,,OL8970005M,26269,0,,,,,,1,1,1698876,pdf,2491C0ACF387E8323FF55F1137282E6D,,,Y. dl_avaxhome 26269  _=1851096485.pdf,0,2000-01-01 01:00:00,2016-04-03 02:51:08,262000/2491c0acf387e8323ff55f1137282e6d-d.jpg,,
19283071,Human Rights and Comparative Foreign Policy,,,,"United Nations, David Forsythe",2000,,Un University,,376,0,English,305,avaxhome.ws,,"9280810332,9789280810332,9780585439426",,,,,,,,,OL16972020M,26273,0,,,,,,1,1,1830551,pdf,EAE80913AE309B76497D5F5F41D432DF,,,Y. dl_avaxhome 26273  _=9280810332.pdf,0,2000-01-01 01:00:00,2016-04-03 02:51:08,262000/eae80913ae309b76497d5f5f41d432df-d.jpg,,
19283072,To See the Unseen: A History of Planetary Radar Astronomy,,New Series in N a S a History,,Andrew J. Butrica,1996,,United States Government Printing,,330,0,English,264,avaxhome.ws,,"0160485789,9780160485787",,,,,523.2/028,QB602.9 .B87 1996,,,OL7118734M,26274,0,,,,,,,1,33786941,pdf,57BF8968BF7E37B732058044641E2323,,,Y. dl_avaxhome 26274  _=HistRadAstron.pdf,0,2000-01-01 01:00:00,2016-04-03 02:51:08,262000/57bf8968bf7e37b732058044641e2323-g.jpg,,
19283073,Trends in Stem Cell Biology and Technology,,,,,2009,1,Humana Press,,420,0,English,12,avaxhome.ws,,1603279040,,,,,,,10.1007/978-1-60327-905-5,,,26282,0,,,,,,,1,6585785,pdf,D4D2A5A4D3477E246F24186228A7DD0C,,,Y. dl_avaxhome 26282  _=TrendsStCBiol.pdf,0,2000-01-01 01:00:00,2016-04-03 02:51:08,262000/d4d2a5a4d3477e246f24186228a7dd0c-d.jpg,,
19283074,The Future of Chinese Capitalism,,,,"Gordon Redding, Michael A. Witt",2008,,"Oxford University Press, USA",,270,0,English,189,avaxhome.ws,,"0199218137,9780199218134,9780191527296",,,,,,,,,OL10145830M,26291,0,,,,,1,,1,11991210,pdf,8E689A133D50902A03B8A7E15F123147,,,Y. dl_avaxhome 26291  _=The_Future_of_Chinese_Capitalism.pdf,0,2000-01-01 01:00:00,2016-04-03 02:51:08,262000/8e689a133d50902a03b8a7e15f123147-d.jpg,,
19283075,Geometric Structures in Nonlinear Physics,,"Hermann, Robert//Interdisciplinary Mathematics",,Robert Hermann,1992,,Math Science Pr,,374,0,English,121,avaxhome.ws,,0915692422,,,,,,,,,,26292,0,,,,,,,0,13495119,pdf,EEBF5BB4F03BA9A9182824B2D23298FC,,,Y. dl_avaxhome 26292  _=im26.pdf,0,2000-01-01 01:00:00,2016-04-03 02:51:08,262000/eebf5bb4f03ba9a9182824b2d23298fc-g.jpg,,
19283076,The Hellenistic Philosophers: Greek and Latin Texts with Notes and Bibliography,Volume 2,,,A. A. Long,1989,,Cambridge University Press,,261,0,English,195,avaxhome.ws,,0521275571,,,,,,,,,,26299,0,,,,,,,0,23018228,pdf,CD10C1F4FA8017C59A974C7B978688E4,,,Y. dl_avaxhome 26299  _=HellenPhilosoph_2.pdf,0,2000-01-01 01:00:00,2016-04-03 02:51:08,262000/cd10c1f4fa8017c59a974c7b978688e4-d.jpg,,
19283077,Biennial Review of Infertility,Volume 1,,,"Douglas T. Carrell, Catherine Racowsky, Peter N. Schlegel, Bradley J. van Voorhis",2009,1,Humana Press,,311,0,English,147,avaxhome.ws,,"1603273913,9781603273916",,,,,,,10.1007/978-1-60327-392-3,,,26301,0,,,,,,,1,4245940,pdf,C37713A5A073B73168549F0354CDC74E,,,Y. dl_avaxhome 26301  _=Infertilit1.pdf,0,2000-01-01 01:00:00,2016-04-03 02:51:08,262000/c37713a5a073b73168549f0354cdc74e-d.jpg,,
19283078,Beginning Database-Driven Application Development in Java EE: Using GlassFish,,From Novice to Professional,,Yuli Vasiliev,2008,1,Apress,,418,0,English,86,avaxhome.ws,,"1430209631,9781430209638,9781430209645",,,,,005.133 22 22 22,QA76.73.J38 V37 2008,,,OL23688491M,26308,0,,,,0,0,,1,3756157,pdf,898D1A0664F6B34F91FA9813192616B7,,,Y. dl_avaxhome 26308  _=DatabDrivApplic.pdf,0,2000-01-01 01:00:00,2016-04-03 02:51:08,262000/898d1a0664f6b34f91fa9813192616b7-d.jpg,,
19283079,Online Business All-in-one for Dummies,,,,Dan Matthews,2007,,John Wiley & Sons Inc,,706,0,English,183,avaxhome.ws,,0470516461,,,,,,,,,,26310,0,,,,,,,1,11565422,pdf,6B65ADA8D33992FB87AA41A892DD0677,,,Y. dl_avaxhome 26310  _=bb30.pdf,0,2000-01-01 01:00:00,2016-04-03 02:51:08,262000/6b65ada8d33992fb87aa41a892dd0677-d.jpg,,
19283080,Managing Human Resources: Personnel Management in Transition,,,,,2005,4,Wiley-Blackwell,,497,0,English,7,avaxhome.ws,,1405118504,,,,,,,,,OL8405399M,26312,0,,,,,,1,1,5778080,pdf,7F2574270731F66EB5082557E63C0BC2,,,Y. dl_avaxhome 26312  _=bb28.pdf,0,2000-01-01 01:00:00,2016-04-03 02:51:08,262000/7f2574270731f66eb5082557e63c0bc2-d.jpg,,
19283081,High Performance Business Strategy: Inspiring Success Through Effective Human Resource Management,,,,Ap Eigenhuis,2007,,Kogan Page,,225,0,English,6,avaxhome.ws,,0749450134,,,,,,,,,,26313,0,,,,,,1,1,5209148,pdf,CEB80E6F7A03B2381CADEBE42859AEF0,,,Y. dl_avaxhome 26313  _=bb27.pdf,0,2000-01-01 01:00:00,2016-04-03 02:51:08,262000/ceb80e6f7a03b2381cadebe42859aef0-d.jpg,,
19283082,Economic Thought Since Keynes: A History and Dictionary of Major Economists,,,,Michel Beaud,1997,New edition,Routledge,,511,0,English,305,avaxhome.ws,,0415164540,,,,,,,,,,26314,0,,,,,,1,1,5497271,pdf,14C974A53859441924FABC7C07AE24D1,,,Y. dl_avaxhome 26314  _=bb26.pdf,0,2000-01-01 01:00:00,2016-04-03 02:51:08,262000/14c974a53859441924fabc7c07ae24d1-d.jpg,,
19283083,Economic Policy in the Age of Globalisation,,,,"Nicola Acocella, Brendan Jones",2005,,Cambridge University Press,,509,0,Italian,305,avaxhome.ws,,"0521832829,9780521832823",,,,,,,,,OL7765668M,26315,0,,,,,,1,1,5671438,pdf,B3534A457E9F205F15C9896B7CD230E2,,,Y. dl_avaxhome 26315  _=bb25.pdf,0,2000-01-01 01:00:00,2016-04-03 02:51:08,262000/b3534a457e9f205f15c9896b7cd230e2-d.jpg,,
19283084,"Age in the Welfare State: The Origins of Social Spending on Pensioners, Workers, and Children",,Cambridge Studies in Comparative Politics,,Julia Lynch,2006,illustrated edition,Cambridge University Press,,248,0,English,189,avaxhome.ws,,0521849985,,,,,,,,,,26316,0,,,,,,1,1,5088366,pdf,2CAAC1BC423E3B233C46235E7103E16C,,,Y. dl_avaxhome 26316  _=bb24.pdf,0,2000-01-01 01:00:00,2016-04-03 02:51:08,262000/2caac1bc423e3b233c46235e7103e16c-d.jpg,,
19283085,Consumer Culture: A Reference Handbook,,Contemporary World Issues,,Douglas Goodman,2003,annotated edition,ABC-CLIO,,269,0,English,,avaxhome.ws,,1576079759,,,,,,,,,OL8746922M,26317,0,,,,,,1,1,5563460,pdf,141FCD18335DE6BA4E127563C1B315BA,,,Y. dl_avaxhome 26317  _=bb23.pdf,0,2000-01-01 01:00:00,2016-04-03 02:51:08,262000/141fcd18335de6ba4e127563c1b315ba-d.jpg,,
19283086,Critical Corporate Communications: A Best Practice Blueprint,,CBI Fast Track,,Naomi Langford-Wood,2003,,Wiley,,195,0,English,260,avaxhome.ws,,0470847638,,,,,,,,,,26318,0,,,,,,1,1,5598012,pdf,77DC8B1E2ED858ED0BF6A817D6A649A6,,,Y. dl_avaxhome 26318  _=bb22.PDF,0,2000-01-01 01:00:00,2016-04-03 02:51:08,262000/77dc8b1e2ed858ed0bf6a817d6a649a6-d.jpg,,
19283087,Small Business Financial Management Kit For Dummies,,For dummies,,"Tage C. Tracy CPA, John A. Tracy CPA",2007,,Wiley Pub,"Hoboken, N.J",386,0,English,183,avaxhome.ws,,"047012508X,9780470125083,9780470196458",,,,,,,,,OL10279662M,26319,0,,,,,,,1,5240561,pdf,93E4998EF0FCE8C7A481BA48D02AB744,,,Y. dl_avaxhome 26319  _=bb21.pdf,0,2000-01-01 01:00:00,2016-04-03 02:51:08,262000/93e4998ef0fce8c7a481ba48d02ab744-d.jpg,,
19283088,The Right Tools for the Job: Selecting and Implementing the Most Appropriate Management Tools for Specific Business Purposes,,,,Andrew Cox,2005,,Palgrave Macmillan,,347,0,English,6,avaxhome.ws,,1403918813,,,,,658,HD31 .R525 2005,,,OL22614316M,26320,0,,,,,,,1,5318127,pdf,DF8D302F0987433AA2854C75A838B5D4,,,Y. dl_avaxhome 26320  _=bb20.pdf,0,2000-01-01 01:00:00,2016-04-03 02:51:08,262000/df8d302f0987433aa2854c75a838b5d4-d.jpg,,
19283089,The People Business: Psychological Reflections of Management,,,,Prof. Adrian Furnham,2005,,Palgrave Macmillan,,222,0,English,6,avaxhome.ws,,1403992223,,,,,,,,,OL8401194M,26321,0,,,,,,1,1,5359290,pdf,0D5C47D2D998CCD84DDD67B9DE76EA01,,,Y. dl_avaxhome 26321  _=bb19.pdf,0,2000-01-01 01:00:00,2016-04-03 02:51:08,262000/0d5c47d2d998ccd84ddd67b9de76ea01-d.jpg,,
19283090,The Patron Saint of Business Management: A new management style from a wise monk,,,,Anna Farago,2002,,Insomniac Press,,179,0,English,6,avaxhome.ws,,1894663306,,,,,,,,,OL8723654M,26322,0,,,,,,1,1,5857382,pdf,993E5AAC4EFAE75BDB8E63351B9F1ECD,,,Y. dl_avaxhome 26322  _=bb18.pdf,0,2000-01-01 01:00:00,2016-04-03 02:51:08,262000/993e5aac4efae75bdb8e63351b9f1ecd-d.jpg,,
19283091,Corporate Truth: The Limits To Transparency,,,,Adrian Henriques,2007,illustrated edition,Earthscan Publications Ltd.,,194,0,English,1,avaxhome.ws,,1844073904,,,,,,,,,OL8952563M,26323,0,,,,,,,1,5177315,pdf,7E48596D441619F15AA67D9C07764E17,,,Y. dl_avaxhome 26323  _=bb17.pdf,0,2000-01-01 01:00:00,2016-04-03 02:51:08,262000/7e48596d441619f15aa67d9c07764e17-d.jpg,,
19283092,The Blackwell Companion to Organizations,,,,Joel Baum,2005,,Wiley-Blackwell,,946,0,English,,avaxhome.ws,,"0631216952,9780631216957",,,,,,,10.1111/b.9780631216940.2005.X,,OL7610062M,26324,0,,,,0,1,,1,10171377,pdf,14D80B3981176539B465E1C312DC3B4E,,,Y. dl_avaxhome 26324  _=bb16.pdf,0,2000-01-01 01:00:00,2016-04-03 02:51:08,262000/14d80b3981176539b465e1c312dc3b4e-d.jpg,,
19283093,"The SMS Blackwell Handbook of Organizational Capabilities: Emergence, Development, and Change",,Strategic Management Society,,,2003,,Wiley-Blackwell,,431,0,English,,avaxhome.ws,,1405103043,,,,,658.4,,10.1111/b.9781405103046.2006.X,,OL22036945M,26326,0,,,,,,,1,5809839,pdf,6C35925E2AD56C289CB65E4A58260AFF,,,Y. dl_avaxhome 26326  _=bb14.pdf,0,2000-01-01 01:00:00,2016-04-03 02:51:08,262000/6c35925e2ad56c289cb65e4a58260aff-d.jpg,,
19283094,"Sustainable Business Development: Inventing the Future Through Strategy, Innovation, and Leadership",,,,David L. Rainey,2006,1,Cambridge University Press,,763,0,English,1,avaxhome.ws,,"0521862787,9780521862783",,,,,,,,,OL7767213M,26327,0,,,,,1,1,1,5609087,pdf,68D0399459B603A69ECB62E83BF418CE,,,Y. dl_avaxhome 26327  _=bb13.pdf,0,2000-01-01 01:00:00,2016-04-03 02:51:08,262000/68d0399459b603a69ecb62e83bf418ce-d.jpg,,
19283095,Strategic Entrepreneurship: Creating a New Mindset,,Strategic Management Society,,,2002,,Wiley-Blackwell,,345,0,English,1,avaxhome.ws,,0631234101,,,,,,,10.1111/b.9780631234104.2002.00001.X,,,26328,0,,,,,,,1,5523306,pdf,6C7B0E897DAC4CE7D27BCA027B1AB256,,,Y. dl_avaxhome 26328  _=bb12.pdf,0,2000-01-01 01:00:00,2016-04-03 02:51:08,262000/6c7b0e897dac4ce7d27bca027b1ab256-d.jpg,,
19283096,The Blackwell Guide to Business Ethics,,Blackwell philosophy guides,,,2002,,Blackwell,"Malden, Mass",349,0,English,1,avaxhome.ws,,"0631221239,0631221220",,,,,,,10.1111/b.9780631221234.2001.X,,,26329,0,,,,,,,1,5347918,pdf,E8EB473014149BC1B71CDA0C888B9F0A,,,Y. dl_avaxhome 26329  _=bb11.pdf,0,2000-01-01 01:00:00,2016-04-03 02:51:08,262000/e8eb473014149bc1b71cda0c888b9f0a-d.jpg,,
19283097,The Blackwell Handbook of Cross-Cultural Management,,Handbooks in management,,"Martin J. Gannon, Karen Newman",2002,,Blackwell Business,"Oxford, UK; Malden, MA",492,0,English,,avaxhome.ws,,"0631214305,9780631214304",,,,,,,10.1111/b.9780631214304.2002.00001.X,,OL17084030M,26330,0,,,,,1,,1,7170622,pdf,92497EA7F7341437705C165E828D6432,,,Y. dl_avaxhome 26330  _=bb10.pdf,0,2000-01-01 01:00:00,2016-04-03 02:51:08,262000/92497ea7f7341437705c165e828d6432-d.jpg,,
19283098,Handbook of Research Methods in Industrial and Organizational Psychology,,Blackwell Handbooks of Research Methods in Psychology,,Steven G. Rogelberg,2005,,Wiley-Blackwell,,531,0,English,,avaxhome.ws,,"1405127007,9781405127004",,,,,,,10.1111/b.9781405127004.2004.X,,OL8405664M,26332,0,,,,,1,,1,4968045,pdf,8065CFF1538E654B6095D4BC13692E91,,,Y. dl_avaxhome 26332  _=bb08.pdf,0,2000-01-01 01:00:00,2016-04-03 02:51:08,262000/8065cff1538e654b6095d4bc13692e91-d.jpg,,
19283099,Strategy Process: Shaping the Contours of the Field,,Strategic Management Society,,,2003,,Wiley-Blackwell,,260,0,English,1,avaxhome.ws,,1405100672,,,,,,,10.1111/b.9781405100670.2003.X,,OL22586493M,26333,0,,,,,,,1,5730644,pdf,174193278B27FDFAFC984F1AAF095435,,,Y. dl_avaxhome 26333  _=bb07.pdf,0,2000-01-01 01:00:00,2016-04-03 02:51:08,262000/174193278b27fdfafc984f1aaf095435-d.jpg,,
19283100,Business Feel: From the Science of Management to the Philosophy of Leadership,,,,Steven Segal,2005,,Palgrave Macmillan,,218,0,English,181,avaxhome.ws,,1403935920,,,,,,,,,OL22602332M,26334,0,,,,,,1,1,5383824,pdf,EA81F0D259BD8D8C5BC0201EFB93E88F,,,Y. dl_avaxhome 26334  _=bb06.PDF,0,2000-01-01 01:00:00,2016-04-03 02:51:08,262000/ea81f0d259bd8d8c5bc0201efb93e88f-d.jpg,,
19283101,The Laws of Simplicity,,"Simplicity: Design, Technology, Business, Life",,John Maeda,2006,,MIT Press,"Cambridge, Mass",120,0,English,313,avaxhome.ws,,"0262134721,9780262134729",,,,,,,,,,26335,0,,,,,,1,1,5797453,pdf,C7598D3D9DB0DEA41EA45BB581DDA27C,,,Y. dl_avaxhome 26335  _=bb05.pdf,0,2000-01-01 01:00:00,2016-04-03 02:51:08,262000/c7598d3d9db0dea41ea45bb581dda27c-g.jpg,,
19283102,Sales Therapy: Effective Selling for the Small Business Owner,,,,Grant Leboff,2007,,Capstone,,208,0,English,1,avaxhome.ws,,1841127787,,,,,,,,,OL12566957M,26336,0,,,,,,1,1,5539163,pdf,4537203EFA224764531901EF21C6AC56,,,Y. dl_avaxhome 26336  _=bb04.pdf,0,2000-01-01 01:00:00,2016-04-03 02:51:08,262000/4537203efa224764531901ef21c6ac56-d.jpg,,
19283103,"Inequality, Consumer Credit And The Saving Puzzle",,New directions in modern economics,,Christopher Brown,2008,,Edward Elgar,"Cheltenham, UK; Northampton, MA",199,0,English,305,avaxhome.ws,,"1847205097,9781847205094",,,,,,,,,,26339,0,,,,,,1,1,5492148,pdf,4C2DBFB08FDFB717DD3F6C0E71F1E8FB,,,Y. dl_avaxhome 26339  _=bb01.pdf,0,2000-01-01 01:00:00,2016-04-03 02:51:08,262000/4c2dbfb08fdfb717dd3f6c0e71f1e8fb-d.jpg,,
19283104,"Handbook of Infant, Toddler, and Preschool Mental Health Assessment",,,,"Rebecca DelCarmen-Wiggins, Alice Carter",2004,1,Oxford University Press,Oxford; New York,560,0,English,,avaxhome.ws,,0195144384,,,,,,,,,,26351,0,,,,,,,1,3467896,chm,BF0B431748C52BC434EBCD5463985BA2,,,Y. dl_avaxhome 26351  _=HITCA.CHM,0,2000-01-01 01:00:00,2016-04-03 02:51:08,262000/bf0b431748c52bc434ebcd5463985ba2-d.jpg,,
19283105,Mild Cognitive Impairment: Aging to Alzheimer's Disease,,Medicine,,Ronald C. Petersen,2003,1,"Oxford University Press, USA",,288,0,English,151,avaxhome.ws,,"0195123425,9780195123425,9781423775669",,,,,,,,,OL7388566M,26357,0,,,,,,,,4062532,chm,145A19AF45AAF451FFD71B446DF4454D,,,Y. dl_avaxhome 26357  _=MCI.CHM,0,2000-01-01 01:00:00,2016-04-03 02:51:08,262000/145a19af45aaf451ffd71b446df4454d-d.jpg,,
19283106,Modern Management of Endometriosis,,,,,2005,1,Informa Healthcare,,445,0,English,6,avaxhome.ws,,1842142763,,,,,618.1059,RG483.E53 M63 2006,,,OL12572361M,26358,0,,,,,,,1,8959553,pdf,8320036F9B5419DE1E835FF55CE1F27F,,,Y. dl_avaxhome 26358  _=1842142763.pdf,0,2000-01-01 01:00:00,2016-04-03 02:51:08,262000/8320036f9b5419de1e835ff55ce1f27f-d.jpg,,
19283107,Facial Skin Disorders,,Series in Dermatological Treatment,,Marks Ronald,2007,1,Informa Healthcare,,190,0,English,147,avaxhome.ws,,"1841842109,9781841842103",,,,,,,,,OL8923102M,26359,0,,,,,,,1,7955462,pdf,89B1855631EB5F489D10658C6B758EEE,,,Y. dl_avaxhome 26359  _=1841842109.pdf,0,2000-01-01 01:00:00,2016-04-03 02:51:08,262000/89b1855631eb5f489d10658c6b758eee-d.jpg,,
19283108,Science Fiction and Empire,,Liverpool University Press - Liverpool Science Fiction Texts & Studies,,Patricia Kerslake,2011,,Liverpool University Press,,225,0,English,181,avaxhome.ws,,1846310245,,,,,,,,,OL22755583M,26361,0,,,,,,1,1,4725743,pdf,B27C74C0BD9BDD0D6BBB9DA07D802AC0,,,Y. dl_avaxhome 26361  _=Science_Fiction_and_Empire__Liverpool_University_Press_-_Liverpool_Science_Fiction_Texts___Studies_.PDF,0,2000-01-01 01:00:00,2016-04-03 02:51:08,262000/b27c74c0bd9bdd0d6bbb9da07d802ac0-d.jpg,,
19283109,Contemporary Debates in Philosophy of Science,,Contemporary debates in philosophy 2,,Christopher Hitchcock,2004,,Blackwell Pub,"Malden, MA",362,0,English,181,avaxhome.ws,,"1405101512,9781405101516,1405101520",,,,,,,,,OL15984037M,26373,0,,,,,,1,1,1522678,pdf,7DA027ABF83122CC69917F0F5619DC58,,,Y. dl_avaxhome 26373  _=Contemporary_Debates_in_Philosophy_of_Science_1405101512.pdf,0,2000-01-01 01:00:00,2016-04-03 02:51:08,262000/7da027abf83122cc69917f0f5619dc58-d.jpg,,
19283110,Theory and Truth: Philosophical Critique within Foundational Science,,,,Lawrence Sklar,2002,,"Oxford University Press, USA",,97,0,English,181,avaxhome.ws,,"0199251576,9780199251575,9780191519444",,,,,,,,,OL7403862M,26376,0,,,,,1,1,1,431303,pdf,B38C9473B6AB82A96F3907B25856FEF3,,,Y. dl_avaxhome 26376  _=Theory_and_Truth.pdf,0,2000-01-01 01:00:00,2016-04-03 02:51:08,262000/b38c9473b6ab82a96f3907b25856fef3-d.jpg,,
19283111,Ethics Management for Public Administrators: Building Organizations of Integrity,,,,Donald C. Menzel,2006,,M.E. Sharpe,,232,0,English,6,avaxhome.ws,,0765618141,,,,,,,,,,26378,0,,,,,,1,1,1226750,pdf,DA436BBF6268A1AAAEE32AA5BCF9197E,,,Y. dl_avaxhome 26378  _=0765618133.pdf,0,2000-01-01 01:00:00,2016-04-03 02:51:08,262000/da436bbf6268a1aaaee32aa5bcf9197e-d.jpg,,
19283112,Women at the Edge of Discovery: 40 True Science Adventures,,,,Kendall Haven,2003,,Libraries Unlimited,,296,0,English,181,avaxhome.ws,,1591580153,,,,,,,,,OL8855884M,26383,0,,,,,,,1,2039619,pdf,CF61CAFF35518E3B9B5439C9227FEEDA,,,Y. dl_avaxhome 26383  _=Women_at_the_Edge_of_Discovery_40_True_Science_Adventures.pdf,0,2000-01-01 01:00:00,2016-04-03 02:51:08,262000/cf61caff35518e3b9b5439c9227feeda-d.jpg,,
19283113,New Product Forecasting: An Applied Approach,,,,Kenneth B. Kahn,2006,,M.E.Sharpe,,176,0,English,305,avaxhome.ws,,"0765616092,9780765616098,9780765620194",,,,,,,,,OL8055078M,26384,0,,,,,,1,1,1353925,pdf,D4F8460DD7799D68D774F5A12064B86E,,,Y. dl_avaxhome 26384  _=0765616092.pdf,0,2000-01-01 01:00:00,2016-04-03 02:51:08,262000/d4f8460dd7799d68d774f5a12064b86e-d.jpg,,
19283114,Urologic Robotic Surgery,,Current Clinical Urology,,Jeffrey A. Stock,2008,1,Humana Press,,236,0,English,257,avaxhome.ws,,1588296156,,,,,,,,,OL12325662M,26389,0,,,,,,1,1,46870615,pdf,A8B1F330B3E39DE15D344ACF0F8A061C,,,Y. dl_avaxhome 26389  _=1588296156.pdf,0,2000-01-01 01:00:00,2016-04-03 02:51:08,262000/a8b1f330b3e39de15d344acf0f8a061c-d.jpg,,
19283115,Neem: The Divine Tree Azadirachta indica,,Medicinal and Aromatic Plants - Industrial Profiles,,H.S. Puri,1999,1,CRC Press,,166,0,English,147,avaxhome.ws,,9057023482,,,,,583/.78,QK495.M52 P87 1999,,,OL3629760M,26402,0,,,,,,,,4150539,rar,C91E1EEB9FC0798608F937730C029E06,,,"26402 =Neem_The_Divine_Tree,_Azadirachta_Indica.rar",0,2000-01-01 01:00:00,2016-04-03 02:51:08,262000/c91e1eeb9fc0798608f937730c029e06-d.jpg,,
19283116,Orthodontic Treatment of Impacted Teeth,,,,"A. Becker, Adrian Becker",1998,1st,Thieme Medical Publishers,,237,0,English,147,avaxhome.ws,,"9781853173288,1853173282",,,,,,,,,OL11960939M,26412,0,,,,,1,1,1,39922458,pdf,1C4EF8F832032773BB93D1857E6C5D11,,,Y. dl_avaxhome 26412  _=1841844756.pdf,0,2000-01-01 01:00:00,2016-04-03 02:51:08,262000/1c4ef8f832032773bb93d1857e6c5d11-d.jpg,,
19283117,The Glutamate Receptors,,The receptors,,Robert W. Gereau IV,2008,1,Humana Press,"Totowa, N.J",609,0,English,147,avaxhome.ws,,"1588297926,9781588297921",,,,,,,,,OL12325740M,26416,0,,,,,,,1,16579006,pdf,DE4D1FF4EC3B5ADBC8F5FAD3C0E1425A,,,Y. dl_avaxhome 26416  _=1588297926.pdf,0,2000-01-01 01:00:00,2016-04-03 02:51:08,262000/de4d1ff4ec3b5adbc8f5fad3c0e1425a-d.jpg,,
19283118,"Money, Financial Instability And Stabilization Policy",,,,L. Randall Wray,2006,,Edward Elgar,Cheltenham,279,0,English,305,avaxhome.ws,,"1845424743,9781845424749,9781847201898",,,,,,,,,OL8959591M,26418,0,,,,,,1,1,1156520,pdf,2CBF6CA9D4EA927738CD6B89E267C410,,,Y. dl_avaxhome 26418  _=1845424743.pdf,0,2000-01-01 01:00:00,2016-04-03 02:51:08,262000/2cbf6ca9d4ea927738cd6b89e267c410-g.jpg,,
19283119,Child Abuse and Family Law: Understanding the Issues facing human service and legal professionals,,,,"Thea Brown, Renata Alexander",2007,,Allen & Unwin Pty LTD,,216,0,English,313,avaxhome.ws,,"1865087319,9781865087313,9781741762112",,,,,344.9403276,KU4190 .B76 2007,,,OL16304583M,26427,0,,,,,,1,1,822742,pdf,D0A42F89934E584C548BCC649630F7D3,,,Y. dl_avaxhome 26427  _=1865087319.pdf,0,2000-01-01 01:00:00,2016-04-03 02:51:08,262000/d0a42f89934e584c548bcc649630f7d3-d.jpg,,
19283120,Substance Use Disorders: Assessment and Treatment,,Practical Resources for the Mental Health Professional,,Charles E. Dodgen,2000,1,Academic Press,,193,0,English,198,avaxhome.ws,,0122191609,,,,,,,,,,26435,0,,,,,,1,1,996180,pdf,73A8012931D5E507592B81D4C1FE57E4,,,Y. dl_avaxhome 26435  _=0122191609.pdf,0,2000-01-01 01:00:00,2016-04-03 02:51:08,262000/73a8012931d5e507592b81d4c1fe57e4-d.jpg,,
19283121,Critical Perspectives in Politics and Socio-Economic Development in Ghana,,African social studies series 6,,"Wisdom Tettey, Korbla P. Puplampu, Bruce J. Berman",2003,,Brill,Leiden; Boston,475,0,English,305,avaxhome.ws,,"9004130136,9789004130135",1568-1203,,,,,,,,OL15573065M,26437,0,,,,,,,1,1979901,pdf,BE59E3E89E4BEF8D2161A021E6626CA2,,,Y. dl_avaxhome 26437  _=9004130136.pdf,0,2000-01-01 01:00:00,2016-04-03 02:51:08,262000/be59e3e89e4bef8d2161a021e6626ca2-d.jpg,,
19283122,Music for the Common Man: Aaron Copland during the Depression and War,,,,Elizabeth Bergman Crist,2009,,"Oxford University Press, USA",,266,0,English,62,avaxhome.ws,,0195383591,,,,,,,,,,26457,0,,,,,,,1,2568944,pdf,448C0C8A426298650027B2F17A3C2A5C,,,Y. dl_avaxhome 26457  _=0195383591_5.pdf,0,2000-01-01 01:00:00,2016-04-03 02:51:08,262000/448c0c8a426298650027b2f17a3c2a5c-d.jpg,,
19283123,Practical Fourier Analysis for Multigrid Methods,,Numerical insights 4,,Roman Wienands,2005,,Chapman & Hall/CRC,"Boca Raton, FL",240,0,English,117,avaxhome.ws,,1584884924,,,,,515/.2433,QA403.5 .W54 2005,,,OL22610265M,26464,0,,,,,,,,6204770,rar,DB57B3204853276A1F68DC26ACD205D5,,,26464 =1584884924.rar,0,2000-01-01 01:00:00,2016-04-03 02:51:08,262000/db57b3204853276a1f68dc26acd205d5-d.jpg,,
19283124,Reflective Cracking in Pavements: Design and performance of overlay systems,,RILEM Proceedings,,,1996,1,Spon Press,,576,0,English,210,avaxhome.ws,,041922260X,,,,,,,,,OL18112225M,26465,0,,,,,,,,10492641,rar,894D9D59411A51BA65208A3742DC3C0D,,,26465 =041922260X.rar,0,2000-01-01 01:00:00,2016-04-03 02:51:08,262000/894d9d59411a51ba65208a3742dc3c0d-d.jpg,,
19283125,"Funding Extended Conflicts: Korea, Vietnam, and the War on Terror",,Praeger Security International,,Richard M. Miller Jr.,2007,,Praeger,,201,0,English,64,avaxhome.ws,,0275998967,,,,,,,,,,26471,0,,,,,,1,1,4905402,pdf,FA8D039B8DEF3BD50DC8B4AF61C67E79,,,Y. dl_avaxhome 26471  _=0275998967_4.pdf,0,2000-01-01 01:00:00,2016-04-03 02:51:08,262000/fa8d039b8def3bd50dc8b4af61c67e79-d.jpg,,
19283126,Now for the Contest: Coastal and Oceanic Naval Operations in the Civil War,,Great Campaigns of the Civil War,,William H. Roberts,2004,,University of Nebraska Press,,252,0,English,64,avaxhome.ws,,0803238614,,,,,,,,,,26483,0,,,,,,1,1,2042249,pdf,365BA385380B9BA12C970974C82D3383,,,Y. dl_avaxhome 26483  _=0803238614_2.pdf,0,2000-01-01 01:00:00,2016-04-03 02:51:08,262000/365ba385380b9ba12c970974c82d3383-d.jpg,,
19283127,Central Government Debt: Statistical Yearbook 1996-2005,,,,OECD. Published by : OECD Publishing,2006,Bilingual,Org. for Economic Cooperation & Development,,361,0,English,305,avaxhome.ws,,9264023828,,,,,,,,,OL12900881M,26494,0,,,,,,1,1,2347514,pdf,2FA5919CBFB454C9755FAC07EAD66A1A,,,Y. dl_avaxhome 26494  _=9264023828.pdf,0,2000-01-01 01:00:00,2016-04-03 02:51:08,262000/2fa5919cbfb454c9755fac07ead66a1a-d.jpg,,
19283128,Handbook of Pediatric Autopsy Pathology,,,,"Enid Gilbert-Barness, Diane E. Debich-Spicer",2004,1,Humana Press,,547,0,English,,avaxhome.ws,,"9781588292247,9781592596737,158829224X",,,,,618.92/007,RJ49 .G535 2005,,,OL21802108M,26500,0,,,,,,,1,77930429,pdf,6F0B15C38F91DF92827A32CC59EE858A,,,Y. dl_avaxhome 26500  _=158829224X.pdf,0,2000-01-01 01:00:00,2016-04-03 02:51:08,262000/6f0b15c38f91df92827a32cc59ee858a-d.jpg,,
19283129,Pathology and Genetics of Tumours of Endocrine Organs,,World Health Organization classification of tumours 8,,"The International Agency for Research on Cancer, R. DeLellis, R. Lloyd, P. Heitz, C. Eng",2004,1,IARC Press,Lyon,322,0,English,22,avaxhome.ws,,"9283224167,9789283224167",,,,,,,,,OL9736757M,26501,0,,,,,,,0,49509064,pdf,99F4F0174F6835468469ED520283E389,,,Y. dl_avaxhome 26501  _=9283224167.pdf,0,2000-01-01 01:00:00,2016-04-03 02:51:08,262000/99f4f0174f6835468469ed520283e389-d.jpg,,
19283130,Molecular Nutrition,,,,H Daniel,2003,First,CABI Pub,"Wallingford, Oxon, UK; Cambridge, MA",422,0,English,12,avaxhome.ws,,"0851996795,9780851996790",,,,,,,,,,26502,0,,,,,,,1,7655581,pdf,43B857F7EC1317ECCE9C8228EDE8A39A,,,Y. dl_avaxhome 26502  _=0851996795.pdf,0,2000-01-01 01:00:00,2016-04-03 02:51:08,262000/43b857f7ec1317ecce9c8228ede8a39a-d.jpg,,
19283131,China: Friend or Foe,,,,Hugo De Burgh,2003,,Totem Books,,289,0,English,189,avaxhome.ws,,"1840467339,9781840467338,9781840468205",,,,,,,,,OL17220343M,26516,0,,,,,1,1,1,1072789,pdf,B407D51C7A4D46F46044815A9BA0FB79,,,Y. dl_avaxhome 26516  _=1840467339.pdf,0,2000-01-01 01:00:00,2016-04-03 02:51:08,262000/b407d51c7a4d46f46044815a9ba0fb79-d.jpg,,
19283132,SMEs in Mexico: Issues and Policies,,,,oecd publishing,2007,,oecd publishing,,147,0,Italian,1,avaxhome.ws,,9264031782,,,,,,,,,OL17633339M,26552,0,,,,,,1,1,1020119,pdf,6CF7E5FFD58AB9B2DA10A9C41840017A,,,Y. dl_avaxhome 26552  _=9264031782.pdf,0,2000-01-01 01:00:00,2016-04-03 02:51:08,262000/6cf7e5ffd58ab9b2da10a9c41840017a-d.jpg,,
19283133,Tupolev Tu-22M,,Russian Aircraft in Action,,Yefim Gordon,2005,,Polygon Press,,82,0,English,64,avaxhome.ws,,1932525033,,,,,,,,,OL8809540M,26564,0,,,,,,1,1,41743402,pdf,A09A4A639A9AC8558306F71C4ABC0F0A,,,Y. dl_avaxhome 26564  _=Tupolev_Tu-22M__Polygon_Press_.pdf,0,2000-01-01 01:00:00,2016-04-03 02:51:08,262000/a09a4a639a9ac8558306f71c4abc0f0a-d.jpg,,
19283134,"The Rise of Oriental Travel: English Visitors to the Ottoman Empire, 1580-1720",,,,Gerald Maclean,2004,,Palgrave Macmillan,,290,0,English,314,avaxhome.ws,,033397364X,,,,,915.604/15,DR429.4 .M333 2004,,,OL10559868M,26566,0,,,,1,0,1,1,1428236,pdf,063F53B4970A7D9341873E68F9BF6ACE,,,Y. dl_avaxhome 26566  _=115.pdf,0,2000-01-01 01:00:00,2016-04-03 02:51:08,262000/063f53b4970a7d9341873e68f9bf6ace-d.jpg,,
19283135,"The Theatre of Death: The Ritual Management of Royal Funerals in Renaissance England, 1570-1625",,,,Jennifer Woodward,1997,,Boydell Press,,280,0,English,64,avaxhome.ws,,0851157041,,,,,,,,,,26567,0,,,,,,,,1746280,chm,CE4C01214D6BA2F2CA99C8485F9BA931,,,Y. dl_avaxhome 26567  _=The_Theatre_of_Death.CHM,0,2000-01-01 01:00:00,2016-04-03 02:51:08,262000/ce4c01214d6ba2f2ca99c8485f9ba931-d.jpg,,
19283136,Business Ethics: Facing Up To the Issues,,,,Chris Moon,2001,,Bloomberg Press,,218,0,English,1,avaxhome.ws,,1861972814,,,,,174.4,HF5387 .B867 2001,,,OL22461882M,26574,0,,,,,,,1,850511,pdf,BB82ECB21842022FB5B110DD73A9CE73,,,Y. dl_avaxhome 26574  _=Business Ethics.pdf,0,2000-01-01 01:00:00,2016-04-03 02:51:08,262000/bb82ecb21842022fb5b110dd73a9ce73-d.jpg,,
19283137,The 15 Best Things About Being the New Kid: Fifteen Best Things About Being the New Kid,,Silly Millies,,Cynthia L. Copeland,2006,,Millbrook Press,,34,0,English,41,avaxhome.ws,,0761328890,,,,,,,,,,26586,0,,,,,,1,1,6728724,pdf,F0556E21BB2569245C90148EB5424691,,,Y. dl_avaxhome 26586  _=0761328890.pdf,0,2000-01-01 01:00:00,2016-04-03 02:51:08,262000/f0556e21bb2569245c90148eb5424691-d.jpg,,
19283138,Supply Chain Management: Issues in the New Era of Collaboration and Competition,,,,"William Y. C. Wang, William Y. C. Wang; Michael S. H. Heng; Patrick Y. K. Chau",2006,,IGI Global,,445,0,English,6,avaxhome.ws,,"1599042312,9781599042312,1599042320,9781599042329,9781599042336",,,,,,,,,OL8900934M,26595,0,,,,,,,1,6543961,pdf,082D0A714F84262D8BDF6C8D3C6E2B45,,,Y. dl_avaxhome 26595  _=SuChainMan.pdf,0,2000-01-01 01:00:00,2016-04-03 02:51:08,262000/082d0a714f84262d8bdf6c8d3c6e2b45-d.jpg,,
19283139,Advances in Computer-Supported Learning,,,,Francisco Milton Mendes Neto,2007,1,Information Science Pub,"Hershey, PA",393,0,English,183,avaxhome.ws,,"1599043556,9781599043555,1599043564,9781599043562,1599043572,9781599043579",,,,,,,,,OL8900980M,26596,0,,,,,,,1,5551665,pdf,DF2777837AE102915397CA0AA2BB2DF3,,,Y. dl_avaxhome 26596  _=1599043556.pdf,0,2000-01-01 01:00:00,2016-04-03 02:51:08,262000/df2777837ae102915397ca0aa2bb2df3-d.jpg,,
19283140,Regression Analysis of Count Data,,Econometric society monographs 30,,A. Colin Cameron,1998,1st,Cambridge University Press,"Cambridge, UK; New York, NY, USA",434,0,English,86,avaxhome.ws,,"0521632013,0521635675",,,,,,,,,,26627,0,,,,,,1,1,6649530,pdf,028EABBDE3FF20B9CB1D543F630322D7,,,Y. dl_avaxhome 26627  _=RegressionAnalysisOfCountData0521632013.pdf,0,2000-01-01 01:00:00,2016-04-03 02:51:08,262000/028eabbde3ff20b9cb1d543f630322d7-d.jpg,,
19283141,The Invention of Peace and the Reinvention of War: Reflections on War and International Order,,,,Michael Howard,2002,2nd,Profile Books Ltd,,140,0,English,189,avaxhome.ws,,1861974094,,,,,,,,,OL8631631M,26641,0,,,,,,,1,437367,pdf,D6D457E444ABECBD40629BB7918A640E,,,Y. dl_avaxhome 26641  _=The Invention of Peace and the Reinvention of War.pdf,0,2000-01-01 01:00:00,2016-04-03 02:51:08,262000/d6d457e444abecbd40629bb7918a640e-d.jpg,,
19283142,Handbook of New Product Development Management,,,,,2007,,Butterworth-Heinemann,,559,0,English,,avaxhome.ws,,0750685522,,,,,,,,,,26694,0,,,,,,,1,3257593,pdf,DC68DD8105235398AFBD38E17C5CAC4E,,,Y. dl_avaxhome 26694  _=0750685522.pdf,0,2000-01-01 01:00:00,2016-04-03 02:51:08,262000/dc68dd8105235398afbd38e17c5cac4e-d.jpg,,
19283143,The Craft of Strategy Formation: Translating Business Issues into Actionable Sstrategies,,,,"Eric Wiebs, Marc Baaij, Bas Keibek, Pieter Witteveen",2007,,Wiley,,299,0,English,1,avaxhome.ws,,"0470518596,9780470518595,9780470723814",,,,,658.4/012,HD30.28 .C699 2007,,,OL10295974M,26733,0,,,,,,,1,2101344,pdf,4DC8B161FD753258D6211B388F055C77,,,Y. dl_avaxhome 26733  _=CraStrat.pdf,0,2000-01-01 01:00:00,2016-04-03 02:51:08,262000/4dc8b161fd753258d6211b388f055c77-d.jpg,,
19283144,Saving the Deal: How to Avoid Financing Fiascoes and Other Real Estate Deal Killers,,,,Tracey Rumsey,2008,,AMACOM,,208,0,English,183,avaxhome.ws,,"0814400302,9780814400302,9780814401866",,,,,333.33/80688,HG2040.5.U5 R86 2008,,,OL11353391M,26739,0,,,,,1,,1,657233,pdf,B2BCD9DC4C78E8066045455C96C04ABB,,,Y. dl_avaxhome 26739  _=SavDe.pdf,0,2000-01-01 01:00:00,2016-04-03 02:51:08,262000/b2bcd9dc4c78e8066045455c96c04abb-d.jpg,,
19283145,Sell Your Home in Any Market: 50 Surprisingly Simple Strategies for Getting Top Dollar Fast,,,,Jim Remley,2008,,AMACOM,,240,0,English,1,avaxhome.ws,,"0814400280,9780814400289,9780814401941",,,,,,,,,OL11353389M,26741,0,,,,,1,1,1,2435158,pdf,C74A3A0F23B9766A031A98D46084753F,,,Y. dl_avaxhome 26741  _=SelYoHome.pdf,0,2000-01-01 01:00:00,2016-04-03 02:51:08,262000/c74a3a0f23b9766a031a98d46084753f-d.jpg,,
19283146,The AbSmart Fitness Plan: The Proven Workout to Lose Inches and Strengthen Your Core Without Straining Your Back,,,,Adam Weiss,2008,1,McGraw-Hill,,257,0,English,164,avaxhome.ws,,0071598057,,,,,,,,,,26750,0,,,,,,,1,4438513,pdf,41FFC878F19176455C8D2879521405C0,,,Y. dl_avaxhome 26750  _=AbSmFit.pdf,0,2000-01-01 01:00:00,2016-04-03 02:51:08,262000/41ffc878f19176455c8d2879521405c0-d.jpg,,
19283147,A Wittgenstein Dictionary,,The Blackwell philosopher dictionaries,,Hans-Johann Glock,1996,annotated edition,Blackwell Reference,"Oxford, OX, UK; Cambridge, Mass., USA",193,0,English,322,avaxhome.ws,,"0631185372,0631181121",,,,,,,,,,26755,0,,,,,,,1,12492279,djvu,C6D9164CDF65B77854C571FECBC55741,,,Y. dl_avaxhome 26755  _=9780631185376_-_Hans-Johann_Glock_-_A_Wittgenstein_Dictionary.djvu,0,2000-01-01 01:00:00,2016-04-03 02:51:08,262000/c6d9164cdf65b77854c571fecbc55741-d.jpg,,
19283148,Cervical and Thoracic Spine: Mechanical Diagnosis and Therapy,,,,Robin McKenzie,1990,1st,Spinal Publications (N.Z.) LTD,,333,0,English,264,avaxhome.ws,,095977467X,,,,,617.5/6,RD771.B217 M43 1990,,,OL1503760M,26845,0,,,,,,,1,20313428,pdf,2265AA6E715EF330927036523D09FC5C,,,Y. dl_avaxhome 26845  _=THE_CERVICAL_AND_THORACIC_SPINE_--_Mecahnical_Diagnosis_and_Therapy.pdf,0,2000-01-01 01:00:00,2016-04-03 02:51:08,262000/2265aa6e715ef330927036523d09fc5c-d.jpg,,
19283149,McGraw-Hill Specialty Board Review Clinical Neuroimaging: Cases and Key Points,,,,David Anschel,2007,1,McGraw-Hill Professional,,187,0,English,161,avaxhome.ws,,0071479384,,,,,,,10.1036/0071479384,,,26847,0,,,,,,1,1,15222692,pdf,57001C4D632458EDFE78F9EE6D11A515,,,Y. dl_avaxhome 26847  _=0071479384.pdf,0,2000-01-01 01:00:00,2016-04-03 02:51:08,262000/57001c4d632458edfe78f9ee6d11a515-g.jpg,,
19283150,"Camp life in the woods and the tricks of trapping and trap making: containing comprehensive hunts on camp shelter, log huts, bark shanties, woodland beds, and bedding, boat, and canoe building, and valuable suggestions on trappers' food, etc.",,Camp Life in the Woods & the Tricks of Trapping & Trap Making,,W. Hamilton Gibson,2002,1st Lyons Press ed,Lyons Press,"Guilford, Conn",240,0,English,,avaxhome.ws,,1585744824,,,,,,,,,OL8818660M,26851,0,,,,,,,1,13163713,pdf,43D87EFDCA99B2997EC32437D756D060,,,Y. dl_avaxhome 26851  _=Hadg_CampLifeinheWoods.pdf,0,2000-01-01 01:00:00,2016-04-03 02:51:08,262000/43d87efdca99b2997ec32437d756d060-d.jpg,,
19283151,"Problematics of Sociology: The Georg Simmel Lectures, 1995",,,,Neil J. Smelser,1997,1,University of California Press,,61,0,English,194,avaxhome.ws,,0520206754,,,,,,,,,,26861,0,,,,,,,0,10792505,pdf,A7409C405B83D8E3377B65E976D291E4,,,Y. dl_avaxhome 26861  _=Problematics_of_Sociology.pdf,0,2000-01-01 01:00:00,2016-04-03 02:51:08,262000/a7409c405b83d8e3377b65e976d291e4-d.jpg,,
19283152,Diagnosis and Management of Pituitary Disorders,,Contemporary endocrinology,,,2008,1,Humana Press,"Totowa, N.J",482,0,English,6,avaxhome.ws,,"1588299228,9781588299222,9781597452649,1597452645",,,,,616.99/447,RC280.P5 D48 2008,,,OL22568785M,26864,0,,,,,,,1,42738376,pdf,FD5C2D2790D5BBBE2A011D696FB29747,,,Y. dl_avaxhome 26864  _=1588299228.pdf,0,2000-01-01 01:00:00,2016-04-03 02:51:08,262000/FD5C2D2790D5BBBE2A011D696FB29747-g.jpg,,
19283153,"Shakespeare Made Easy, Julius Caesar",,,,Saddleback Educational Publishing,2006,,Saddleback Educational Publishing,,65,0,English,198,avaxhome.ws,,"159905132X,9781599051321",,,,,,,,,OL12498978M,26871,0,,,,,,,1,2198491,pdf,30F51F2EB712FB84831F66800E1937A4,,,Y. dl_avaxhome 26871  _=159905132X.pdf,0,2000-01-01 01:00:00,2016-04-03 02:51:08,262000/30f51f2eb712fb84831f66800e1937a4-d.jpg,,
19283154,Stochastic Networks: Theory and Applications,,"Royal Statistical Society Lecture Note Series, 4",,F. P. Kelly,1996,,"Oxford University Press, USA",,380,0,English,119,avaxhome.ws,,0198523998,,,,,,,,,,26875,0,,,,,,,0,18597281,pdf,16E98F2E1B47929314E94F00228DB16A,,,Y. dl_avaxhome 26875  _=0198523998.pdf,0,2000-01-01 01:00:00,2016-04-03 02:51:08,262000/16e98f2e1b47929314e94f00228db16a-d.jpg,,
19283155,Implant Restorations: A Step-by-Step Guide,,,,Carl Drago,2007,2,Wiley-Blackwell,,244,0,English,147,avaxhome.ws,,081382883X,,,,,617.6/92,RK667.I45 D73 2007,,,OL17897184M,26879,0,,,,,,,,8535480,rar,9B12F64112F3879D6455F4FB1004C669,,,26879 =081382883X.rar,0,2000-01-01 01:00:00,2016-04-03 02:51:08,262000/9b12f64112f3879d6455f4fb1004c669-d.jpg,,
19283156,Cardiovascular Magnetic Resonance Imaging,,Contemporary Cardiology,,"Raymond Y. Kwong, P. Libby",2007,1,Humana Press,,750,0,English,287,avaxhome.ws,,"1588296733,9781588296733,9781597453066",,,,,,,,,OL8828614M,26880,0,,,,,,1,1,40685692,pdf,5AD223975FF6FD6F95640087AEDFC1B2,,,Y. dl_avaxhome 26880  _=1588296733.pdf,0,2000-01-01 01:00:00,2016-04-03 02:51:08,262000/5ad223975ff6fd6f95640087aedfc1b2-d.jpg,,
19283157,Leading WIth NLP : Essential Leadership Skills for Influencing and Managing People,,,,Joseph O'Connor,2001,,Thorsons,,246,0,English,7,avaxhome.ws,,0722537670,,,,,,,,,,26881,0,,,,,,,1,5788407,pdf,4BF66097F9A8B296BD278FA17271227C,,,Y. dl_avaxhome 26881  _=Leading_WIth_NLP.PDF,0,2000-01-01 01:00:00,2016-04-03 02:51:08,262000/4bf66097f9a8b296bd278fa17271227c-d.jpg,,
19283158,Statistical Language Models for Information Retrieval,,Synthesis Lectures on Human Language Technologies,,ChengXiang Zhai,2008,,Morgan and Claypool Publishers,,142,0,English,119,avaxhome.ws,,159829590X,,,,,,,10.2200/S00158ED1V01Y200811HLT001,,OL12496568M,26886,0,,,,,,1,1,725295,pdf,0FB4087124F3264A08A334111833B01F,,,Y. dl_avaxhome 26886  _=Morgan.Claypool.Statistical.Language.Models.For.Information.Retrieval.Dec.2008.eBook-ELOHiM.pdf,0,2000-01-01 01:00:00,2016-04-03 02:51:08,262000/0fb4087124f3264a08a334111833b01f-d.jpg,,
19283159,Diabetes in Clinical Practice: Questions and Answers from Case Studies,,Practical Diabetes,,Nicholas Katsilambros,2007,1,Wiley,,464,0,English,155,avaxhome.ws,,0470035226,,,,,,,,,,26893,0,,,,,,,1,10953384,pdf,7FA69258180D2C21EE42EB104483AA65,,,Y. dl_avaxhome 26893  _=0470035226.pdf,0,2000-01-01 01:00:00,2016-04-03 02:51:08,262000/7fa69258180d2c21ee42eb104483aa65-d.jpg,,
19283160,"Handbook of Meningococcal Disease: Infection Biology, Vaccination, Clinical Management",,,,,2006,1,Wiley-VCH,,592,0,English,,avaxhome.ws,,3527312609,,,,,,,,,OL9052705M,26904,0,,,,,,,,6103818,rar,1297F45BA1E95B1EA3EAE5A531F372DD,,,26904 =3527312609.rar,0,2000-01-01 01:00:00,2016-04-03 02:51:08,262000/1297f45ba1e95b1ea3eae5a531f372dd-d.jpg,,
19283161,Mollison's Blood Transfusion in Clinical Medicine,,"Klein, Mollison's Blood Transfusion in Clinical Medicine",,,2005,11th ed,Blackwell Pub,"Malden, Mass.; Oxford",922,0,English,147,avaxhome.ws,,"0632064544,9780632064540",,,,,,,,,,26916,0,,,,,,1,1,6377549,pdf,79961232DB7A714CD4016198EC8E1794,,,Y. dl_avaxhome 26916  _=0632064544.pdf,0,2000-01-01 01:00:00,2016-04-03 02:51:08,262000/79961232db7a714cd4016198ec8e1794-d.jpg,,
19283162,Complementary Therapies and the Management of Diabetes and Vascular Disease: A Matter of Balance,,Practical Diabetes,,,2006,1,Wiley,,420,0,English,155,avaxhome.ws,,047001458X,,,,,616.4/62,RC661.A47 C66 2006,,,OL17880338M,26918,0,,,,,,,,6920045,rar,779C966CC563077AB2C40A9562E95D98,,,26918 =047001458X.rar,0,2000-01-01 01:00:00,2016-04-03 02:51:08,262000/779c966cc563077ab2c40a9562e95d98-d.jpg,,
19283163,"Textbook of uncommon cancer / editors, Derek Raghavan ... [et al.]",,,,"Derek Raghavan, Martin L. Brecher, David H. Johnson, Neal J. Meropol, Paul L. Moots, Peter G. Rose,",2006,3rd ed,Wiley,"Chichester, West Sussex, England; Hoboken, NJ",867,0,English,166,avaxhome.ws,,"0470012021,9780470012024",,,,,,,,,,26936,0,,,,,,1,1,29388892,pdf,ED2A926AEBC27BA3408A3576BE800955,,,Y. dl_avaxhome 26936  _=0470012021.pdf,0,2000-01-01 01:00:00,2016-04-03 02:51:08,262000/ed2a926aebc27ba3408a3576be800955-d.jpg,,
19283164,The Knowing-Doing Gap: How Smart Companies Turn Knowledge into Action,,,,Jeffrey Pfeffer,2000,1,Harvard Business School Press,,314,0,English,1,avaxhome.ws,,1578511240,,,,,658.4/038,HD30.2 .P486 2000,,,OL24937202M,26937,0,,,,,,,,1216192,chm,55B5865FD3BD60C0B9FD06EFBFC99498,,,Y. dl_avaxhome 26937  _=The_Knowing-Doing_Gap.CHM,0,2000-01-01 01:00:00,2016-04-03 02:51:08,262000/55b5865fd3bd60c0b9fd06efbfc99498-d.jpg,,
19283165,Elements of Numerical Methods for Compressible Flows,,Cambridge aerospace series,,Doyle D. Knight,2006,1,Cambridge University Press,Cambridge; New York,74,0,English,120,avaxhome.ws,,"0521554748,9780521554749",,,,,,,,,,26946,0,,,,,,,1,2023070,pdf,73092A1693C1E7266373A3A33EC90D58,,,Y. dl_avaxhome 26946  _=sod01.pdf,0,2000-01-01 01:00:00,2016-04-03 02:51:08,262000/73092a1693c1e7266373a3a33ec90d58-d.jpg,,
19283166,Photoaging,,Basic and clinical dermatology 28,,,2004,1,Marcel Dekker,New York,415,0,English,147,avaxhome.ws,,0824754506,,,,,,,,,,26949,0,,,,,,,1,16810238,pdf,940BA0BF88F4104B4C1F0CD78D588791,,,Y. dl_avaxhome 26949  _=photoaging.pdf,0,2000-01-01 01:00:00,2016-04-03 02:51:08,262000/940ba0bf88f4104b4c1f0cd78d588791-d.jpg,,
19283167,What is property?: an inquiry into the principle of right and of government,,The Dover anarchy library,,"Pierre-Joseph Proudhon, Benj. R. Tucker, George Woodcock",1970,,"Dover Publications, Inc",New York,260,0,English,305,avaxhome.ws,,"0486224864,9780486224862",,,,,335/.83,"HB701 .P78 1970,HB701 .P775 1966",,,OL19937875M,26950,0,,,,,1,1,1,1571238,pdf,76F7B2C121AD9E204EF57ACFB41B1D89,,,Y. dl_avaxhome 26950  _=proudhon_-_1840_-_what_is_property.pdf,0,2000-01-01 01:00:00,2016-04-03 02:51:08,262000/76f7b2c121ad9e204ef57acfb41b1d89-d.jpg,,
19283168,HCI Remixed: Reflections on Works That Have Influenced the HCI Community,,,,"Thomas Erickson, David W. McDonald",2008,,The MIT Press,,357,0,English,87,avaxhome.ws,,"0262050889,9780262050883,9781435619814",,,,,004/.019,QA76.9.H85 H4125 2008,,,OL10236943M,26953,0,,,,,1,1,1,1393814,pdf,1D7FA02BA52D3E7EAA998AC6224F96F2,,,Y. dl_avaxhome 26953  _=0262050889_HCI_Remixed.pdf,0,2000-01-01 01:00:00,2016-04-03 02:51:08,262000/1d7fa02ba52d3e7eaa998ac6224f96f2-d.jpg,,
19283169,Rewards That Drive High Performance: Success Stories From Leading Organizations,,,,Thomas B. Wilson,1999,,AMACOM,,322,0,English,1,avaxhome.ws,,0814404286,,,,,,,,,,26957,0,,,,,,,,1266470,chm,4F64D92E1F3A44205B2E9996F683C765,,,Y. dl_avaxhome 26957  _=Rewards_That_Drive_High_Performance.CHM,0,2000-01-01 01:00:00,2016-04-03 02:51:08,262000/4f64d92e1f3a44205b2e9996f683c765-d.jpg,,
19283170,GCSE Business Studies,,Instant Revision,,Carolyn Lawder,2002,,Collins,,128,0,English,1,avaxhome.ws,,0007124287,,,,,,,,,,26959,0,,,,,,,1,5482874,pdf,532081567B478447734F88FC6937ADA4,,,Y. dl_avaxhome 26959  _=GCSE_Business_Studies.PDF,0,2000-01-01 01:00:00,2016-04-03 02:51:08,262000/532081567b478447734f88fc6937ada4-d.jpg,,
19283171,Modelling Longevity Dynamics for Pensions and Annuity Business,,Mathematics Texts,,"Ermanno Pitacco, Michel Denuit, Steven Haberman, Annamaria Olivieri",2009,,Oxford University Press,Oxford; New York,416,0,English,1,avaxhome.ws,,"0199547270,9780199547272,9780191563157",,,,,368.32015118,HG8781 .M625 2009,,,OL23838098M,26966,0,,,,,1,1,1,3194572,pdf,418B60404599B2029E4834BF68D89509,,,Y. dl_avaxhome 26966  _=Modelling_Business.pdf,0,2000-01-01 01:00:00,2016-04-03 02:51:08,262000/418b60404599b2029e4834bf68d89509-d.jpg,,
19283172,Fundamentals of Electric Waves,,,,Hugh Hildreth Skilling,1948,2nd,"John Wiley & Sons, Inc",,254,0,English,264,avaxhome.ws,,8180520560,,B000GK45MS,,,,,,,OL13174535M,26978,0,,,,,1,,0,2554744,djvu,577C6370F7317D2445FF36B92709FF1B,65885e3d9e0842d5923c71ddd5e5419b,no,Y. dl_avaxhome 26978  _=skilling_h.h_-_fundamentals_of_electric_waves.djvu,0,2000-01-01 01:00:00,2016-04-03 02:51:08,262000/577c6370f7317d2445ff36b92709ff1b-d.jpg,,
19283173,Inside MNM: Minimalist Interiors,,,,Jaume Nasple,2004,,Collins Design,,70,0,English,58,avaxhome.ws,,006053611X,,,,,747,NA682.M55 M578 2003,,,OL17115082M,26980,0,,,,,,1,0,3969147,pdf,EFF06EF75452640D60BD411E5BF1E141,,,Y. dl_avaxhome 26980  _=148594___inside_mnm_-_minimalist_interiors__optimised_pdf_www_1_.softarchive.net_1.pdf,0,2000-01-01 01:00:00,2016-04-03 02:51:08,262000/eff06ef75452640d60bd411e5bf1e141-d.jpg,,
19283174,Proteases and Cancer: Methods and Protocols,,Methods in Molecular Biology 539,,"Toni M. Antalis, Thomas H. Bugge",2009,1,Humana Press,,225,0,English,166,avaxhome.ws,,"9781603270021,1603270027",,,,,,,10.1007/978-1-60327-003-8,,,27003,0,,,,,,,1,3229023,pdf,D10F2CE78C021C6C2FC79AB70E44D733,,,Y. dl_avaxhome 27003  _=539_Proteases_and_Cancer-Methods_and_Protocols.pdf,0,2000-01-01 01:00:00,2016-04-03 02:51:08,262000/d10f2ce78c021c6c2fc79ab70e44d733-d.jpg,,
19283175,"Flight Dynamics Principles, : A Linear Systems Approach to Aircraft Stability and Control",,Elsevier Aerospace Engineering,,Michael V. Cook,2007,2,Butterworth-Heinemann,,491,0,English,123,avaxhome.ws,,0750669276,,,,,,,,,,27019,0,,,,,,1,1,3532188,pdf,75659AF6BEE4344050B097BC4D0508D7,,,Y. dl_avaxhome 27019  _=0750669276.pdf,0,2000-01-01 01:00:00,2016-04-03 02:51:08,262000/75659af6bee4344050b097bc4d0508d7-d.jpg,,
19283176,The Theory and Applications of Harmonic Integrals,,Cambridge mathematical library,,W. V. D. Hodge,1989,,Cambridge University Press,Cambridge; New York,289,0,English,113,avaxhome.ws,,0521358817,,,,,,,,,,27022,0,,,,,,,1,6272276,djvu,FF058F8B0EB4E83F6697551AA3B725A0,,,Y. dl_avaxhome 27022  _=64273.090421043653.djvu,0,2000-01-01 01:00:00,2016-04-03 02:51:08,262000/ff058f8b0eb4e83f6697551aa3b725a0-d.jpg,,
19283177,Modelling Methods for Energy in Buildings,,,,Chris Underwood,2004,,Blackwell Science,"Oxford; Malden, MA",308,0,English,236,avaxhome.ws,,0632059362,,,,,,,,,,27028,0,,,,,,1,1,2334039,pdf,6E560588BB26180687AF0C4A10D23FB4,,,Y. dl_avaxhome 27028  _=0632059362.pdf,0,2000-01-01 01:00:00,2016-04-03 02:51:08,262000/6e560588bb26180687af0c4a10d23fb4-d.jpg,,
19283178,Photosynthesis Research Protocols,,"Methods in molecular biology, 274",,Robert Carpentier,2004,1,Humana Press,"Totowa, N.J",359,0,English,12,avaxhome.ws,,"9781588292322,1588292320",1064-3745,,,,,,,,OL17129992M,27034,0,,,,,,,1,6473454,pdf,527E86E8EAB5CC3B2D9FAA24B052FCA1,,,Y. dl_avaxhome 27034  _=carp1588292320_4.pdf,0,2000-01-01 01:00:00,2016-04-03 02:51:08,262000/527e86e8eab5cc3b2d9faa24b052fca1-d.jpg,,
19283179,Nitric Oxide Protocols,,Methods in molecular biology 279,,,2004,2nd ed. / edited by Aviv Hassid,Humana Press,"Totowa, N.J",259,0,English,12,avaxhome.ws,,1588292371,,,,,,,,,OL17129982M,27036,0,,,,,,,1,9044958,pdf,8C912E5E372C2C2967CB5849D19B4551,,,Y. dl_avaxhome 27036  _=1588292371_3.pdf,0,2000-01-01 01:00:00,2016-04-03 02:51:08,262000/8c912e5e372c2c2967cb5849d19b4551-d.jpg,,
19283180,"Encyclopedia of Library and Information Science, ",,Encyclopedia of Library & Information Science,,,2003,2,CRC Press,,3740,0,English,188,avaxhome.ws,,082472075X,,,,,,,10.1081/E-ELIS,,OL8125190M,27046,0,,,,,,1,1,151902320,pdf,29B0A3C49EE37738AF3422E979663C12,,,Y. dl_avaxhome 27046  _=EncInfS.pdf,0,2000-01-01 01:00:00,2016-04-03 02:51:08,262000/29b0a3c49ee37738af3422e979663c12-g.jpg,,
19283181,Maintenance Systems and Documentation,,,,Anthony Kelly,2006,1st ed,Butterworth-Heinemann,Amsterdam; Boston; London,255,0,English,210,avaxhome.ws,,"0750669942,9780750669948",,,,,,,,,,27047,0,,,,,,,1,2845848,pdf,A98AFC463FC676C035993EE4FF60EF49,,,Y. dl_avaxhome 27047  _=maintenance_systems_and_doc.pdf,0,2000-01-01 01:00:00,2016-04-03 02:51:08,262000/a98afc463fc676c035993ee4ff60ef49-d.jpg,,
19283182,The Necessity of Theater: The Art of Watching and Being Watched,,,,Paul Woodruff,2008,,"Oxford University Press, USA",,273,0,English,57,avaxhome.ws,,0195332008,,,,,,,,,,27084,0,,,,,,1,1,5826267,pdf,B0122496A28B45338C3A5E9D3744BADD,,,Y. dl_avaxhome 27084  _=t30.pdf,0,2000-01-01 01:00:00,2016-04-03 02:51:08,262000/b0122496a28b45338c3a5e9d3744badd-d.jpg,,
19283183,Linguistic Universals and Language Change,,,,,2008,,"Oxford University Press, USA",,357,0,English,314,avaxhome.ws,,0199298491,,,,,,,,,,27085,0,,,,,,1,1,5432644,pdf,4D74763F01339B5E7315830381DA91DD,,,Y. dl_avaxhome 27085  _=t29.pdf,0,2000-01-01 01:00:00,2016-04-03 02:51:08,262000/4d74763f01339b5e7315830381da91dd-d.jpg,,
19283184,Doing Case Study Research: A Practical Guide for Beginning Researchers,,,,Dawson R. Hancock,2006,,Teachers College Press,,122,0,English,183,avaxhome.ws,,0807747076,,,,,,,,,,27086,0,,,,,,1,1,5353521,pdf,278F964814C6EF50AB485EB18B76B508,,,Y. dl_avaxhome 27086  _=t28.pdf,0,2000-01-01 01:00:00,2016-04-03 02:51:08,262000/278f964814c6ef50ab485eb18b76b508-d.jpg,,
19283185,Charging Ahead: An Itroduction to Electromagnetism (PB155X),,,,Larry E. Schafer,2001,,National Science Teachers Association,,83,0,English,287,avaxhome.ws,,0873551885,,,,,,,,,,27087,0,,,,,,1,1,5708855,pdf,563B59B00046328BD820888FE63C06D1,,,Y. dl_avaxhome 27087  _=t27.pdf,0,2000-01-01 01:00:00,2016-04-03 02:51:08,262000/563b59b00046328bd820888fe63c06d1-d.jpg,,
19283186,Science educator's guide to laboratory assessment,,,,Fred Chan,2002,2nd enlarged ed,National Science Teachers Association,"Arlington, Va",288,0,English,181,avaxhome.ws,,0873552105,,,,,,,,,,27089,0,,,,,,1,1,5374780,pdf,839C6B13B4AAE0B4480476B526FB52C7,,,Y. dl_avaxhome 27089  _=t26.pdf,0,2000-01-01 01:00:00,2016-04-03 02:51:08,262000/839c6b13b4aae0b4480476b526fb52c7-d.jpg,,
19283187,Help! I'm Teaching Middle School Science,,,,C. Jill Swango,2002,,NSTApress,"Arlington, Va",145,0,English,183,avaxhome.ws,,0873552253,,,,,,,,,,27090,0,,,,,,,1,5343696,pdf,2316DB172FF231154B5DFBEDF00D00C6,,,Y. dl_avaxhome 27090  _=t25.pdf,0,2000-01-01 01:00:00,2016-04-03 02:51:08,262000/2316db172ff231154b5dfbedf00d00c6-d.jpg,,
19283188,Remaking Management: Between Global and Local,,,,,2008,1,Cambridge University Press,,489,0,English,6,avaxhome.ws,,0521861519,,,,,,,,,,27091,0,,,,,,1,1,5613586,pdf,80E334A2BFA4A3981833A2DF1F0027ED,,,Y. dl_avaxhome 27091  _=t24.pdf,0,2000-01-01 01:00:00,2016-04-03 02:51:08,262000/80e334a2bfa4a3981833a2df1f0027ed-d.jpg,,
19283189,The Poetry of Praise,,Cambridge studies in medieval literature 69,,J. A. Burrow,2008,1,Cambridge University Press,"Cambridge, UK; New York",210,0,English,64,avaxhome.ws,,"0521886937,9780521886932",,,,,,,,,,27092,0,,,,,,1,1,5786181,pdf,8257B0A82DCD75E734BDCC3B80EDCA02,,,Y. dl_avaxhome 27092  _=t23.pdf,0,2000-01-01 01:00:00,2016-04-03 02:51:08,262000/8257b0a82dcd75e734bdcc3b80edca02-d.jpg,,
19283190,Iraq Between the Two World Wars: The Militarist Origins of Tyranny,,,,Reeva Spector Simon,2004,Revised,Columbia University Press,,258,0,English,67,avaxhome.ws,,023113214X,,,,,,,,,OL9411100M,27093,0,,,,,,1,1,5423213,pdf,1ADFD3E0BA3E7187FA16939DE66B7F84,,,Y. dl_avaxhome 27093  _=t22.pdf,0,2000-01-01 01:00:00,2016-04-03 02:51:08,262000/1adfd3e0ba3e7187fa16939de66b7f84-d.jpg,,
19283191,The Connection: How al Qaeda's Collaboration with Saddam Hussein Has Endangered America,,,,Stephen F. Hayes,2004,,HarperCollins,,224,0,English,189,avaxhome.ws,,0060746734,,,,,,,,,,27096,0,,,,,,,1,5758031,pdf,9498C630AA46FB1193B747D83531CF0D,,,Y. dl_avaxhome 27096  _=t20.pdf,0,2000-01-01 01:00:00,2016-04-03 02:51:08,262000/9498c630aa46fb1193b747d83531cf0d-d.jpg,,
19283192,The God Strategy: How Religion Became a Political Weapon in America,,,,David Domke,2007,,"Oxford University Press, USA",,239,0,English,205,avaxhome.ws,,0195326415,,,,,,,,,,27097,0,,,,,,1,1,5491518,pdf,15A31326B3DF77E83D00433EF485524F,,,Y. dl_avaxhome 27097  _=t19.pdf,0,2000-01-01 01:00:00,2016-04-03 02:51:08,262000/15a31326b3df77e83d00433ef485524f-d.jpg,,
19283193,The War in Iraq and Why the Media Failed Us,,,,David Dadge,2006,,Praeger Publishers,"Westport, Conn",214,0,English,189,avaxhome.ws,,"0275987663,9780275987664",,,,,,,,,,27098,0,,,,,,1,1,5470845,pdf,0721BA65F6533BA653A64EE06D4C167D,,,Y. dl_avaxhome 27098  _=t18.pdf,0,2000-01-01 01:00:00,2016-04-03 02:51:08,262000/0721ba65f6533ba653a64ee06d4c167d-d.jpg,,
19283194,Fighting for Fallujah: A New Dawn for Iraq,,Praeger Security International,,John R. Ballard,2006,,Praeger,,186,0,English,64,avaxhome.ws,,0275990559,,,,,,,,,,27099,0,,,,,,1,1,5637737,pdf,57279024C53B135BA1FD446CC710CDE2,,,Y. dl_avaxhome 27099  _=t17.pdf,0,2000-01-01 01:00:00,2016-04-03 02:51:08,262000/57279024c53b135ba1fd446cc710cde2-d.jpg,,
19283195,Losing Iraq: Insurgency and Politics,,Praeger Security International,,Stephen C. Pelletiere,2007,,Praeger,,170,0,English,64,avaxhome.ws,,0275992136,,,,,,,,,,27100,0,,,,,,,1,5429479,pdf,F854166CE0073C596F2B5F163C57CF83,,,Y. dl_avaxhome 27100  _=t16.pdf,0,2000-01-01 01:00:00,2016-04-03 02:51:08,262000/f854166ce0073c596f2b5f163c57cf83-d.jpg,,
19283196,Hope Is Not a Plan: The War in Iraq from Inside the Green Zone,,Praeger Security International,,Thomas Mowle,2007,,Praeger,,194,0,English,64,avaxhome.ws,,0275994457,,,,,,,,,,27101,0,,,,,,1,1,5870344,pdf,32739AE914394994A75597900FA0617F,,,Y. dl_avaxhome 27101  _=t15.pdf,0,2000-01-01 01:00:00,2016-04-03 02:51:08,262000/32739ae914394994a75597900fa0617f-d.jpg,,
19283197,Double Trouble: Iran and North Korea as Challenges to International Security,,Praeger Security International,,,2007,,Praeger,,268,0,English,189,avaxhome.ws,,0275999602,,,,,,,,,,27102,0,,,,,,1,1,5136568,pdf,8C3DC7F28BC64D32A3E52F4425DBA006,,,Y. dl_avaxhome 27102  _=t14.pdf,0,2000-01-01 01:00:00,2016-04-03 02:51:08,262000/8c3dc7f28bc64d32a3e52f4425dba006-d.jpg,,
19283198,Winning the War of Words: Selling the War on Terror from Afghanistan to Iraq,,,,Wojtek Mackiewicz Wolfe,2008,,Praeger,,154,0,English,189,avaxhome.ws,,0313349673,,,,,,,,,,27103,0,,,,,,1,1,5629544,pdf,6E5AB874E76D76B41B72080E942BDF11,,,Y. dl_avaxhome 27103  _=t13.pdf,0,2000-01-01 01:00:00,2016-04-03 02:51:08,262000/6e5ab874e76d76b41b72080e942bdf11-d.jpg,,
19283199,Health Science Research: A Handbook of Quantitative Methods,,,,Jennifer Peat,2002,1st,Sage Publications Ltd,,329,0,English,181,avaxhome.ws,,0761974032,,,,,,,,,,27107,0,,,,,,1,1,4971054,pdf,98B6FDD9AF8F7C4ED9ECA895C6E8DC16,,,Y. dl_avaxhome 27107  _=t10.pdf,0,2000-01-01 01:00:00,2016-04-03 02:51:08,262000/98b6fdd9af8f7c4ed9eca895c6e8dc16-d.jpg,,
19283200,Iraq War,,America at war,,Rodney P. Carlisle,2004,illustrated edition,Facts On File,New York,209,0,English,64,avaxhome.ws,,0816056277,,,,,,,,,,27108,0,,,,,,,1,6710905,pdf,20F2597D3508ED867933175B03E43D5D,,,Y. dl_avaxhome 27108  _=t09.pdf,0,2000-01-01 01:00:00,2016-04-03 02:51:08,262000/20f2597d3508ed867933175b03e43d5d-d.jpg,,
19283201,The Architecture of the Visible,,Technologies,,Graham Macphee,2002,,Continuum,London; New York,241,0,English,189,avaxhome.ws,,"0826459250,0826459269",,,,,,,,,,27109,0,,,,,,,1,12172582,pdf,6F4C674A15AA5E2F91142C98EDD1BF5B,,,Y. dl_avaxhome 27109  _=t08.pdf,0,2000-01-01 01:00:00,2016-04-03 02:51:08,262000/6f4c674a15aa5e2f91142c98edd1bf5b-d.jpg,,
19283202,The United States and Persian Gulf Security: The Foundations of the War on Terror,,Durham Middle East Monographs,,Steven M. Wright,2007,,Ithaca Press (GB),,250,0,English,64,avaxhome.ws,,0863723217,,,,,,,,,,27110,0,,,,,,1,1,5400622,pdf,7FDEA5D5AD014947102C558FBFEFD7AD,,,Y. dl_avaxhome 27110  _=t07.pdf,0,2000-01-01 01:00:00,2016-04-03 02:51:08,262000/7fdea5d5ad014947102c558fbfefd7ad-d.jpg,,
19283203,"The Exception to the Rulers: Exposing Oily Politicians, War Profiteers, and the Media That Love Them",,,,Amy Goodman,2004,1,Hyperion,,354,0,English,225,avaxhome.ws,,1401301312,,,,,973.931,E902 .G66 2004,,,OL3301533M,27111,0,,,,,,1,1,5394947,pdf,7A095921F2A870CEBD6EC5BC1AC66D88,,,Y. dl_avaxhome 27111  _=t06.pdf,0,2000-01-01 01:00:00,2016-04-03 02:51:08,262000/7a095921f2a870cebd6ec5bc1ac66d88-d.jpg,,
19283204,"Fractured states and U.S. foreign policy: Iraq, Ethiopia, and Bosnia in the 1990's",,,,Evelyn Farkas,2003,1st ed,Palgrave Macmillan,New York,195,0,English,64,avaxhome.ws,,1403963738,,,,,327.73/009/049,E881 .F365 2003,,,OL3686418M,27113,0,,,,,,,1,5596191,pdf,DCF7F259FBDC3A0BE98B39887DC48DA8,,,Y. dl_avaxhome 27113  _=t05.pdf,0,2000-01-01 01:00:00,2016-04-03 02:51:08,262000/dcf7f259fbdc3a0be98b39887dc48da8-d.jpg,,
19283205,A Special Relationship: Anglo American Relations from the Cold War to Iraq,,,,John Dumbrell,2006,2,Palgrave Macmillan,,330,0,English,189,avaxhome.ws,,1403987742,,,,,,,,,OL9391410M,27114,0,,,,,,1,1,5473606,pdf,E5E6F0EAB99C4FB1CCA03A1C0871268A,,,Y. dl_avaxhome 27114  _=t04.pdf,0,2000-01-01 01:00:00,2016-04-03 02:51:08,262000/e5e6f0eab99c4fb1cca03a1c0871268a-d.jpg,,
19283206,The Hundred Years War: A Wider Focus,,"History of Warfare, Vol. 25",,,2004,illustrated edition,Brill Academic Publishers,,578,0,English,64,avaxhome.ws,,9004139699,,,,,944/.025,DC96 .H86 2005,,,OL22624262M,27116,0,,,,,,1,1,5767968,pdf,92C0475BA3F4A047273283198F6F6E9B,,,Y. dl_avaxhome 27116  _=t03.pdf,0,2000-01-01 01:00:00,2016-04-03 02:51:08,262000/92c0475ba3f4a047273283198f6f6e9b-d.jpg,,
19283207,Fixed Effects Regression Methods for Longitudinal Data Using SAS,,,,Paul D. Allison,2005,,SAS Institute,"Cary, N.C",161,0,English,86,avaxhome.ws,,1590475682,,,,,519.536,QA278.2 .A43475 2005,,,OL3440137M,27117,0,,,,,,,1,5353523,pdf,4AA903BF7DB53A90BBFD3B47349E6B62,,,Y. dl_avaxhome 27117  _=t02.pdf,0,2000-01-01 01:00:00,2016-04-03 02:51:08,262000/4aa903bf7db53a90bbfd3b47349e6b62-d.jpg,,
19283208,Jobs Aren't Enough: Toward a New Economic Mobility for Low-Income Families,,,,Roberta Rehner Iversen,2006,,Temple University Press,,298,0,English,305,avaxhome.ws,,159213355X,,,,,,,,,OL8859881M,27118,0,,,,,,1,1,5249305,pdf,10A32F055019DE66094D8DBCBFE0BE83,,,Y. dl_avaxhome 27118  _=t01.pdf,0,2000-01-01 01:00:00,2016-04-03 02:51:08,262000/10a32f055019de66094d8dbcbfe0be83-d.jpg,,
19283209,Sulphate-Reducing Bacteria: Environmental and Engineered Systems,,,,"Larry L. Barton, W. Allan Hamilton",2007,1,Cambridge University Press,,558,0,English,12,avaxhome.ws,,"0521854857,9780521854856,9780511290282",,,,,,,,,OL10437483M,27142,0,,,,,1,1,1,6587960,pdf,A1EC2B952D76663F6D923503DB68563A,,,Y. dl_avaxhome 27142  _=0521854857.pdf,0,2000-01-01 01:00:00,2016-04-03 02:51:08,262000/a1ec2b952d76663f6d923503db68563a-d.jpg,,
19283210,"Environmental Health Sciences Decision Making: Risk Management, Evidence, and Ethics: Workshop Summary",,,,"Research, and Medicine Roundtable on Environmental Health Sciences",2009,,National Academies Press,,92,0,English,185,avaxhome.ws,,0309124549,,,,,,,,,,27143,0,,,,,,,1,1759148,pdf,25CC7A93BD701292136A20B17123F9A6,,,Y. dl_avaxhome 27143  _=Risk_Management__Evidence__and_Ethics_Workshop_Summary.pdf,0,2000-01-01 01:00:00,2016-04-03 02:51:08,262000/25cc7a93bd701292136a20b17123f9a6-d.jpg,,
19283211,Unternehmertum und Ausgründung : wissenschaftliche Konzepte und praktische Erfahrungen,,Gabler Edition Wissenschaft,,Harald Pechlaner; et al,2007,,Deutscher Universitäts-Verlag,Wiesbaden,332,0,German,,usenet,to 2012-06,"9783835095410,3835095412",,,,,,,,,,,0,,,,,,,1,2186475,pdf,2550cdd1e72ccfc785122a3aba0b32d4,,,I:\\usenet_ger\\Unternehmertum.und.Ausgruendung.[Springer].[2007].[m6035h].pdf,0,2000-01-01 01:00:00,2016-04-03 02:51:08,884000/2550cdd1e72ccfc785122a3aba0b32d4-g.jpg,,
19283212,"Handbook of Personality Disorders: Theory, Research, and Treatment",,,,,2001,1,The Guilford Press,,641,0,English,,avaxhome.ws,,1572306297,,,,,616.858,,,,OL21504496M,27158,0,,,,,,,1,14094968,pdf,27509B0318AB81EF8A44AF628BF3F731,,,Y. dl_avaxhome 27158  _=1572306297.pdf,0,2000-01-01 01:00:00,2016-04-03 02:51:08,262000/27509b0318ab81ef8a44af628bf3f731-d.jpg,,
19283213,Attack and Defence: The Fifth and Final Session from the World-Famous Chess School,,,,Mark Dvoretsky,2003,,Batsford,,146,0,English,46,avaxhome.ws,,0713482141,,,,,,,,,,27172,0,,,,,,,0,14193632,pdf,A385D7B634084B1C8A8F98F6F765CBE7,,,Y. dl_avaxhome 27172  _=Attack_and_Defence.pdf,0,2000-01-01 01:00:00,2016-04-03 02:51:08,262000/a385d7b634084b1c8a8f98f6f765cbe7-d.jpg,,
19283214,Practical Periodontal Plastic Surgery,,,,,2006,1,Wiley-Blackwell,,108,0,English,147,avaxhome.ws,,0813822688,,,,,,,,,,27176,0,,,,,,,,9469251,rar,462D4E0F48E784A3CFEAB78924D40248,,,27176 =0813822688.rar,0,2000-01-01 01:00:00,2016-04-03 02:51:08,262000/462d4e0f48e784a3cfeab78924d40248-d.jpg,,
19283215,Privatization of Roads and Highways,,,,Walter Block,2009,,Ludwig von Mises Institute,,494,0,English,305,avaxhome.ws,,"193355004X,9781933550046",,,,,,,,,,27198,0,,,,1,0,1,1,1114111,pdf,2D9FE0D825F553B3ED6A4CC02359F460,,,Y. dl_avaxhome 27198  _=privatization_of_roads_and_highways_2009.pdf,0,2000-01-01 01:00:00,2016-04-03 02:51:08,262000/2d9fe0d825f553b3ed6a4cc02359f460-d.jpg,,
19283216,Radiowaves and Polaritons in Anisotropic Media: Uniaxial Semiconductors,,,,Roland Tarkhanyan,2006,,Wiley-VCH,,227,0,English,264,avaxhome.ws,,3527406158,,,,,,,,,OL18272029M,27202,0,,,,,,1,1,1258628,pdf,7C46164CE61E8DD864381385FF0D7120,,,Y. dl_avaxhome 27202  _=3527406158.pdf,0,2000-01-01 01:00:00,2016-04-03 02:51:08,262000/7c46164ce61e8dd864381385ff0d7120-d.jpg,,
19283217,A Pig Don't Get Fatter the More You Weigh It: Classroom Assessments that Work,,,,Phyllis Jones,2007,illustrated edition,Teachers College Press,,161,0,English,198,avaxhome.ws,,0807747548,,,,,,,,,,27221,0,,,,,,1,1,1168736,pdf,2F5456AF0BD20304B82B267AA6553AC9,,,Y. dl_avaxhome 27221  _=0807747548.pdf,0,2000-01-01 01:00:00,2016-04-03 02:51:08,262000/2f5456af0bd20304b82b267aa6553ac9-d.jpg,,
19283218,When Critical Thinking Met English Literature: A Resource Book for Teachers and Their Students,,,,Belinda Hakes,2009,,How to Books,,161,0,English,314,avaxhome.ws,,1845283171,,,,,,,,,,27222,0,,,,,,1,1,1080001,pdf,8C0C412E089AFE5F9EF3D18EBAABDDC3,,,Y. dl_avaxhome 27222  _=1845283171.pdf,0,2000-01-01 01:00:00,2016-04-03 02:51:08,262000/8c0c412e089afe5f9ef3d18ebaabddc3-d.jpg,,
19283219,Handbook of Obesity Treatment,,,,,2004,Updated,The Guilford Press,,628,0,English,,avaxhome.ws,,1593850948,,,,,,,,,OL8874505M,27227,0,,,,,,,0,5792591,djvu,A5C6AA20A264F2F408A6965C357AF51E,38831635db5a84e98c5c9405ab6a84d4,no,Y. dl_avaxhome 27227  _=1593850948.djvu,0,2000-01-01 01:00:00,2016-04-03 02:51:08,262000/a5c6aa20a264f2f408a6965c357af51e-d.jpg,,
19283220,Cysts of the Oral and Maxillofacial Regions,,,,Mervyn Shear,2007,4,Wiley-Blackwell,,240,0,English,147,avaxhome.ws,,140514937X,,,,,617.5/22,RC815 .S46 2007,,,OL21896455M,27228,0,,,,,,,,8006171,rar,1DAF7141C3050B840E28B58C66A49B0F,,,27228 =140514937X.rar,0,2000-01-01 01:00:00,2016-04-03 02:51:08,262000/1daf7141c3050b840e28b58c66a49b0f-d.jpg,,
19283221,An Introduction to the Study of Stellar Structure,,,,S. Chandrasekhar,2010,,Dover Publications,,508,0,English,266,avaxhome.ws,,0486604136,,,,,,,,,,27232,0,,,,,,,1,9346173,djvu,CC00A12FDF2EE2E753C17F891FF9E58F,,,Y. dl_avaxhome 27232  _=chandrasekhar_an_introduction_to_the_study_of_stellar_structure_isbn_0486604136.djvu,0,2000-01-01 01:00:00,2016-04-03 02:51:08,262000/cc00a12fdf2ee2e753c17f891ff9e58f-d.jpg,,
