19408222,The Anthropology of Development and Globalization: From Classical Political Economy to Contemporary Neoliberalism ,,Blackwell Anthologies in Social and Cultural Anthropology,,"Marc Edelman, Angelique Haugerud",2005,illustrated edition,Wiley-Blackwell,,416,0,English,14,,,"0631228799,9780631228790,9781405137195",,,,,306.2,GN492 .A5925 2004,,,OL3293446M,,0,,,,1,0,1,1,2289211,pdf,48994EFDD3093D3A93204F2DB1B21E73,,,"48994efdd3093d3a93204f2db1b21e73~0631228799,9780631228790,9781405137195.pdf",0,2000-01-01 01:00:00,2016-04-03 02:51:08,389000/48994efdd3093d3a93204f2db1b21e73-d.jpg,,
19408223,Ethnic Americans,,,,"Professor Leonard Dinnerstein, Professor David Reimers",1999,4 Sub,Columbia University Press,,330,0,English,,,,"9780231111881,9780231111898,9780231504102,0231111886,0231111894",,,,,305.8/00973,E184.A1 D48 1999,,,OL380440M,,0,,,,,1,,1,1122741,pdf,49554EC84FED362209B5B911246D7FF0,,,"49554ec84fed362209b5b911246d7ff0~9780231111881,9780231111898,9780231504102,0231111886,0231111894.pdf",0,2000-01-01 01:00:00,2016-04-03 02:51:08,389000/49554ec84fed362209b5b911246d7ff0-d.jpg,,
19408224,Nietzsche and the Vicious Circle,,,,"Pierre Klossowski, Daniel W. Smith",1998,1,University Of Chicago Press,,302,0,English,,,,"0226443876,9780226443874",,,,,193,B3317 .K6213 1997,,,OL668580M,,0,,,,,,1,1,3730941,pdf,50753AA7819B4817C5B52C1B6830B659,,,"50753aa7819b4817c5b52c1b6830b659~0226443876,9780226443874.pdf",0,2000-01-01 01:00:00,2016-04-03 02:51:08,389000/50753aa7819b4817c5b52c1b6830b659-d.jpg,,
19408225,First Aid for the USMLE Step 2 CS ,,Clinical Skills Exam,,"Vikas Bhushan, Tao Le, L. David Martin, Fadi Abu Shahin, Mae Sheikh-Ali",2004,1,McGraw-Hill Medical,,269,0,English,161,,,"007142184X,9780071421843",,,,,610/.76,RC66 .L4 2004,,,OL17841113M,,0,,,,0,0,,1,3818172,pdf,51478BF445CF755F1DE2A5F560BFD568,,,"51478bf445cf755f1de2a5f560bfd568~007142184X,9780071421843.pdf",0,2000-01-01 01:00:00,2016-04-03 02:51:08,389000/51478bf445cf755f1de2a5f560bfd568-d.jpg,,
19408226,The Clash of Group Interests and Other Essays,,,,Ludwig von Mises,1978,,Center for Libertarian Studies,,28,0,English,138,,,,,B0006XF722,,,,,,,,,0,,,,,1,1,1,2189482,pdf,56208A801D67CA74FE5CB28DC2A9632D,,,56208a801d67ca74fe5cb28dc2a9632d~B0006XF722.pdf,0,2000-01-01 01:00:00,2016-04-03 02:51:08,389000/56208a801d67ca74fe5cb28dc2a9632d-g.jpg,,
19408227,A Companion to Media Studies ,,Blackwell Companions in Cultural Studies,,Angharad Valdivia,2003,,Wiley-Blackwell,,608,0,English,,,,"063122601X,9780631226017,9781405128919",,,,,302.23,P91.25 .V35 2003,,,OL22538076M,,0,,,,,1,1,1,2752471,pdf,61002DCA79BF6D61EB24CE4243C8070A,,,"61002dca79bf6d61eb24ce4243c8070a~063122601X,9780631226017,9781405128919.pdf",0,2000-01-01 01:00:00,2016-04-03 02:51:08,389000/61002dca79bf6d61eb24ce4243c8070a-d.jpg,,
19408228,Anesthesia and Uncommon Diseases,,,,Lee A. Fleisher MD,2005,5,Saunders,,672,0,English,151,,,"1416022120,9781416022121",,,,,617.9/6,RD87 .A54 2006,,,OL19151681M,,0,,,,,1,,,16084790,chm,61264B270A374B44135AB55ECACC4750,,,"61264b270a374b44135ab55ecacc4750~1416022120,9781416022121.chm",0,2000-01-01 01:00:00,2016-04-03 02:51:08,389000/61264b270a374b44135ab55ecacc4750-d.jpg,,
19408229,Helen of Troy: From Homer to Hollywood,,,,Laurie Maguire,2009,,Wiley-Blackwell,,280,0,English,183,,,"1405126345,9781405126342,9781444308631",,,,,809/.93351,PN57.H4 M34 2009,,,OL22672166M,,0,,,,,,,1,1402407,pdf,62728F76CDCAE620A3F6A016CB8B6ACE,,,"62728f76cdcae620a3f6a016cb8b6ace~1405126345,9781405126342,9781444308631.pdf",0,2000-01-01 01:00:00,2016-04-03 02:51:08,389000/62728f76cdcae620a3f6a016cb8b6ace-d.jpg,,
19408230,The Anxiety of Influence: A Theory of Poetry,,,,Harold Bloom,1997,2,"Oxford University Press, USA",,208,0,English,64,,,"9780195112214,0195112210",,,,,809.1,PN1031 .B53 1996,,,OL982342M,,0,,,,,1,1,1,5848727,pdf,66785A0F77D1B0380068BB31C5A503E5,,,"66785a0f77d1b0380068bb31c5a503e5~9780195112214,0195112210.pdf",0,2000-01-01 01:00:00,2016-04-03 02:51:08,389000/66785a0f77d1b0380068bb31c5a503e5-d.jpg,,
19408231,Banging Your Head Against a Brick Wall,,,,Banksy,2003,First Edition,Weapons of Mass Distraction,,54,0,English,215,,,"0954170407,9780954170400",,,,,,,,,OL8479062M,,0,,,,,,1,0,60587845,pdf,70981F4403681F6137D496D122241684,,,"70981f4403681f6137d496d122241684~0954170407,9780954170400.pdf",0,2000-01-01 01:00:00,2016-04-03 02:51:08,389000/70981f4403681f6137d496d122241684-d.jpg,,
19408232,Temple Magic: Building the Personal Temple: Gateway to Inner Worlds ,,Llewellyn's High Magick Series,,William G. Gray,1995,1st,Llewellyn Publications,,288,0,English,236,,,"0875422748,9780875422749",,,,,133.4/3,BF1621 .G7 1988,,,OL2061923M,,0,,,,,1,,1,1186116,pdf,71399ED60EA85A8F5D54B4946CC2357A,,,"71399ed60ea85a8f5d54b4946cc2357a~0875422748,9780875422749.pdf",0,2000-01-01 01:00:00,2016-04-03 02:51:08,389000/71399ed60ea85a8f5d54b4946cc2357a-g.jpg,,
19408233,The Constitution of Markets: Essays in Political Economy ,,Routledge Foundations of the Market Economy,,Viktor J Vanberg,2001,1,Routledge,,224,0,English,,,,"0415154715,9780415154710,9780203276655",,,,,,,,,OL9809246M,,0,,,,,1,1,1,1958295,pdf,72203A32B75DE65EF6E5FFE717E5B25E,,,"72203a32b75de65ef6e5ffe717e5b25e~0415154715,9780415154710,9780203276655.pdf",0,2000-01-01 01:00:00,2016-04-03 02:51:08,389000/72203a32b75de65ef6e5ffe717e5b25e-d.jpg,,
19408234,The Satanic Verses: A Novel ,,Bestselling Backlist,,Salman Rushdie,2000,1st Picador USA Ed,Picador,,576,0,English,,,,"9780312270827,9780812976717,0312270828,0812976711,0670825379",,,,,823/.914,PR6068.U757 S27 2008,,,OL11348746M,,0,,,,0,0,,1,4654818,pdf,81349BC9529CE0D13C7761519FDF376A,,,"81349bc9529ce0d13c7761519fdf376a~9780312270827,9780812976717,0312270828,0812976711,0670825379.pdf",0,2000-01-01 01:00:00,2016-04-03 02:51:08,389000/81349bc9529ce0d13c7761519fdf376a-d.jpg,,
19408235,German Jets Versus the U.S. Army Air Force: Battle for the Skies over Europe,,,,William Hess,1996,,Specialty Press,,192,0,English,67,,,0933424639,,,,,,,,,,,0,,,,,,,0,26165094,pdf,84055C9497C91E15521B2D1ED8E92AED,,,84055c9497c91e15521b2d1ed8e92aed~0933424639.pdf,0,2000-01-01 01:00:00,2016-04-03 02:51:08,389000/84055c9497c91e15521b2d1ed8e92aed-d.jpg,,
19408236,Perspective: A New System for Designers,,,,Jay Doblin,1950,1St Edition,Watson-Guptill,,68,0,English,,,,"0823074196,9780823074198",,,,,,,,,,,0,,,,,,1,0,64267819,pdf,90850DBC1B46C0472BC17BA488FFC012,,,"90850dbc1b46c0472bc17ba488ffc012~0823074196,9780823074198.pdf",0,2000-01-01 01:00:00,2016-04-03 02:51:08,389000/90850dbc1b46c0472bc17ba488ffc012-g.jpg,,
19408237,"The State and the Subaltern: Modernization, Society and the State in Turkey and Iran ",,Library of Modern Middle East Studies,,Touraj Atabaki,2007,,I. B. Tauris,,256,0,English,,,,"184511339X,9781845113391",,,,,,,,,OL22752975M,,0,,,,,,1,1,1783185,pdf,188403FC764AED294214C1ED539C9D7D,,,"188403fc764aed294214c1ed539c9d7d~184511339X,9781845113391.pdf",0,2000-01-01 01:00:00,2016-04-03 02:51:08,389000/188403fc764aed294214c1ed539c9d7d-d.jpg,,
19408238,On the Psychotheology of Everyday Life: Reflections on Freud and Rosenzweig,,,,Eric L. Santner,2001,1,University Of Chicago Press,,168,0,English,64,,,"9780226734880,0226734889,0226734870,9780226734873,9780226734897",,,,,,,,,OL9649485M,,0,,,,,1,1,1,747148,pdf,191817E8E2BCFDB2471E836C96C9C0B0,,,"191817e8e2bcfdb2471e836c96c9c0b0~9780226734880,0226734889,0226734870,9780226734873,9780226734897.pdf",0,2000-01-01 01:00:00,2016-04-03 02:51:08,389000/191817e8e2bcfdb2471e836c96c9c0b0-d.jpg,,
19408239,"Combat abs: 50 fat-burning exercises that build lean, powerful and punch-proof abs",,,,Matt Furey,2001,,Matt Furey Enterprises,,144,0,English,290,,,,,B0006RTUVM,,,,,,,,,0,,,,,1,,0,16133390,pdf,195022BC0443CCB39FCFFB9C09C1D0D8,,,195022bc0443ccb39fcffb9c09c1d0d8~B0006RTUVM.pdf,0,2000-01-01 01:00:00,2016-04-03 02:51:08,389000/195022bc0443ccb39fcffb9c09c1d0d8-d.jpg,,
19408240,Hints and Tips for Plastic Modeling,,,,Burr Angle,1980,,Kalmbach Pub Co,,48,0,English,,,,"0890245460,9780890245460",,,,,629.04/6/0228,TT154 .I57 1980,,,OL4142474M,,0,,,,,1,,0,45360412,pdf,336527C85E3B4058D4527DBF12AD109C,,,"336527c85e3b4058d4527dbf12ad109c~0890245460,9780890245460.pdf",0,2000-01-01 01:00:00,2016-04-03 02:51:08,389000/336527c85e3b4058d4527dbf12ad109c-g.jpg,,
19408241,Improvised Shape Charges,,,,Desert,1982,,Desert Pubns,,28,0,English,41,,,"0879472502,9780879472504",,,,,,,,,OL11177593M,,0,,,,,1,,0,1076350,pdf,478646F1B0585157C2F10C6785DF86BE,,,"478646f1b0585157c2f10c6785df86be~0879472502,9780879472504.pdf",0,2000-01-01 01:00:00,2016-04-03 02:51:08,389000/478646f1b0585157c2f10c6785df86be-d.jpg,,
19408242,Is Art History Global? ,,The Art Seminar,,James Elkins,2006,1,Routledge,,472,0,English,64,,,"0415977851,9780415977852,9781429460408",,,,,,,,,OL17211046M,,0,,,,,1,1,1,6373813,pdf,550890E3DD0E164D40A2EDC50444E6D3,,,"550890e3dd0e164d40a2edc50444e6d3~0415977851,9780415977852,9781429460408.pdf",0,2000-01-01 01:00:00,2016-04-03 02:51:08,389000/550890e3dd0e164d40a2edc50444e6d3-d.jpg,,
19408243,Abstract Phonology in a Concrete Model: Cognitive Linguistics and the Morphology-Phonology Interface ,,Cognitive Linguistic Research,,"Nesset, Tore",2008,1,Walter de Gruyter,,270,0,English,314,,,"3110203618,9783110203615",,,,,415,P217 .N47 2008,,,OL16799339M,,0,,,,,,,1,1263916,pdf,814575E0D84EBAF01FACD2EEE1071F86,,,"814575e0d84ebaf01facd2eee1071f86~3110203618,9783110203615.pdf",0,2000-01-01 01:00:00,2016-04-03 02:51:08,389000/814575e0d84ebaf01facd2eee1071f86-d.jpg,,
19408244,On the Strange Place of Religion in Contemporary Art,,,,James Elkins,2004,1,Routledge,,152,0,English,205,,,"0415969891,9780415969895",,,,,704.9/48/09045,N72.R4 E44 2004,,,OL3293952M,,0,,,,,1,1,1,15154248,pdf,882825AA1229C87C2F613E65D591A5BF,,,"882825aa1229c87c2f613e65d591a5bf~0415969891,9780415969895.pdf",0,2000-01-01 01:00:00,2016-04-03 02:51:08,389000/882825aa1229c87c2f613e65d591a5bf-d.jpg,,
19408245,Mark: Smyth & Helwys Bible Commentary,,Smyth & Helwys Bible Commentary,,R. Alan Culpepper,2007,,Smyth & Helwys Publishing,,650,0,English,,,,"1573120774,9781573120777",,,,,226.3/07,BS2585.53 .C85 2007,,,OL12228122M,,0,,,,,,,1,29958438,pdf,0909205CF9D597E6A0439E449C26E974,,,"0909205cf9d597e6a0439e449c26e974~1573120774,9781573120777.pdf",0,2000-01-01 01:00:00,2016-04-03 02:51:08,389000/0909205cf9d597e6a0439e449c26e974-d.jpg,,
19408246,Microeconomics: Private and Public Choice,,,,"James D. Gwartney, Richard L. Stroup, Russell S. Sobel, David Macpherson",2005,11,South-Western College Pub,,528,0,English,305,,,"0324320361,9780324320367",,,,,,,,,OL17922810M,,0,,,,,1,,0,58136008,pdf,963045A84695AFAFB072DD7A91634B90,,,"963045a84695afafb072dd7a91634b90~0324320361,9780324320367.pdf",0,2000-01-01 01:00:00,2016-04-03 02:51:08,389000/963045a84695afafb072dd7a91634b90-d.jpg,,
19408247,Movies as Politics,,,,Jonathan Rosenbaum,1997,1,University of California Press,,350,0,English,,,,"0520206150,9780520206151,9780585285382",,,,,791.43/658,PN1995.9.P6 R67 1997,,,OL973029M,,0,,,,,1,,1,1397831,pdf,1506207CF61FAB9DB89F792F5BCD9510,,,"1506207cf61fab9db89f792f5bcd9510~0520206150,9780520206151,9780585285382.pdf",0,2000-01-01 01:00:00,2016-04-03 02:51:08,389000/1506207cf61fab9db89f792f5bcd9510-d.jpg,,
19408248,A Sister for Sam ,,Tale from the Care Bears,,"Evelyn Mason, Tom Cooke",1983,,Parker Brothers,,43,0,English,,,,"0910313032,9780910313032",,,,,,,,,OL3160522M,,0,,,,,,,0,5590087,pdf,1586001E131A77462350461C2E841CC2,,,"1586001e131a77462350461c2e841cc2~0910313032,9780910313032.pdf",0,2000-01-01 01:00:00,2016-04-03 02:51:08,389000/1586001e131a77462350461c2e841cc2-d.jpg,,
19408249,Edges of Empire: Orientalism and Visual Culture ,,New Interventions in Art History,,"Jocelyn Hackforth-Jones, Mary Roberts",2005,,Wiley-Blackwell,,240,0,English,,,,"1405116889,9781405116886,9781405153065",,,,,,,,,OL8405348M,,0,,,,,,1,1,2490883,pdf,2623185AAFB1845703D2195A1816CF98,,,"2623185aafb1845703d2195a1816cf98~1405116889,9781405116886,9781405153065.pdf",0,2000-01-01 01:00:00,2016-04-03 02:51:08,389000/2623185aafb1845703d2195a1816cf98-d.jpg,,
19408250,"Conflict, Power, Persuasion: Negotiating Effectively",,,,Ben Hoffman,1993,2nd,Captus Press,,70,0,English,,,,"0921801564,9780921801566",,B0015E4JMK,,,,,,,OL20038739M,,0,,,,,,,1,286789,pdf,3187689B70A16CCE661DD4310701F93D,,,"3187689b70a16cce661dd4310701f93d~0921801564,9780921801566,B0015E4JMK.pdf",0,2000-01-01 01:00:00,2016-04-03 02:51:08,389000/3187689b70a16cce661dd4310701f93d-g.jpg,,
19408251,"Programming Interactivity: A Designer's Guide to Processing, Arduino, and Openframeworks",,,,Joshua Noble,2009,1,O'Reilly Media,,736,0,English,87,,,"0596154143,9780596154141",,,,,006.6,QA76.76.I59 N63 2009,,,OL24527902M,,0,,,,,1,,1,10361107,pdf,3515962B97863DED7F784AE99A92222E,,,"3515962b97863ded7f784ae99a92222e~0596154143,9780596154141.pdf",0,2000-01-01 01:00:00,2016-04-03 02:51:08,389000/3515962b97863ded7f784ae99a92222e-d.jpg,,
19408252,Tracy - Treatise on Political Economy,,,,Destutt de Tracy,2008,,Ludwig Von Mises Institute,,379,0,English,,,,,,B001QMFHFY,,,,,,,,,0,,,,,1,1,1,16789765,pdf,4986081FA6F409FB86849B1B0AD156C5,,,4986081fa6f409fb86849b1b0ad156c5~B001QMFHFY.pdf,0,2000-01-01 01:00:00,2016-04-03 02:51:08,389000/4986081fa6f409fb86849b1b0ad156c5-d.jpg,,
19408253,"Pocket Guide to the Popes, The",,,,Richard P. Mcbrien,2006,,HarperOne,,352,0,English,,,,"0061137731,9780061137730,9780061247392",,,,,"282.092/2,B",BX955.3 .M33 2006,,,OL23102513M,,0,,,,,1,,1,2632703,pdf,5117031FB5BC64D5BDF274A959AA6D24,,,"5117031fb5bc64d5bdf274a959aa6d24~0061137731,9780061137730,9780061247392.pdf",0,2000-01-01 01:00:00,2016-04-03 02:51:08,389000/5117031fb5bc64d5bdf274a959aa6d24-d.jpg,,
19408254,The Aesthetics of Cultural Studies,,,,Michael Bérubé,2004,,Wiley-Blackwell,,216,0,English,,,,"0631223053,9780631223054,9780470777329",,,,,,,,,OL7610368M,,0,,,,,1,1,1,879726,pdf,5764027B20D7F9CD032047B1C8ACE080,,,"5764027b20d7f9cd032047b1c8ace080~0631223053,9780631223054,9780470777329.pdf",0,2000-01-01 01:00:00,2016-04-03 02:51:08,389000/5764027b20d7f9cd032047b1c8ace080-d.jpg,,
19408255,Historic Cities of the Islamic World,,,,Clifford Edmund Bosworth,2008,,Brill Academic Publishers,,583,0,English,64,,,"9004153888,9789004153882,9789047423836",,,,,307.760917/67,HT147.5 .H57 2008,,,OL16428049M,,0,,,,,1,1,1,7488271,pdf,5970032EEE83956B8B52E1322A24E5FA,,,"5970032eee83956b8b52e1322a24e5fa~9004153888,9789004153882,9789047423836.pdf",0,2000-01-01 01:00:00,2016-04-03 02:51:08,389000/5970032eee83956b8b52e1322a24e5fa-d.jpg,,
19408256,Wall Street & the Rise of Hitler,,,,Antony C. Sutton,1976,,G S G & Associates Pub,,148,0,English,64,,,"0945001533,9780945001539",,,,,,,,,OL8448215M,,0,,,,,1,,1,635275,pdf,6018136E4999A6A585FEF1978D9E2A1D,,,"6018136e4999a6a585fef1978d9e2a1d~0945001533,9780945001539.pdf",0,2000-01-01 01:00:00,2016-04-03 02:51:08,389000/6018136e4999a6a585fef1978d9e2a1d-d.jpg,,
19408257,Cthulhu Cult,,,,Venger Satanis,2007,,Lulu.com,,168,0,English,,,,"1430306319,9781430306313",,,,,,,,,OL8544303M,,0,,,,,,,1,4336583,pdf,6378999E134F38D07A145259838D099A,,,"6378999e134f38d07a145259838d099a~1430306319,9781430306313.pdf",0,2000-01-01 01:00:00,2016-04-03 02:51:08,389000/6378999e134f38d07a145259838d099a-d.jpg,,
19408258,Red Barcelona: Social Protest and Labour Mobilization in the Twentieth Century ,,Routledge/Canada Blanch Studies on Contemporary Spain,,Angel Smith,2002,,Routledge,,272,0,English,,,,"0415279054,9780415279055,0203219376,9780203219379,9780203295403",,,,,331.8/0946/720904,HD8590.B342 R43 2002,,,OL22440793M,,0,,,,,1,1,1,1842511,pdf,6923218A6594AD8D68937EA3E346B9BD,,,"6923218a6594ad8d68937ea3e346b9bd~0415279054,9780415279055,0203219376,9780203219379,9780203295403.pdf",0,2000-01-01 01:00:00,2016-04-03 02:51:08,389000/6923218a6594ad8d68937ea3e346b9bd-d.jpg,,
19408259,A Companion to Postcolonial Studies ,,Blackwell Companions in Cultural Studies,,"Henry Schwarz, Sangeeta Ray",2000,,Wiley-Blackwell,,624,0,English,,,,"9780470998335,9780631206620,9780631206637,9781405142939,0631206620,0631206639",,,,,325.3,JV51 .C75 2000,,,OL22632604M,,0,,,,,1,,1,3102013,pdf,7571498F959A59D584E3A8202AA28CB2,,,"7571498f959a59d584e3a8202aa28cb2~9780470998335,9780631206620,9780631206637,9781405142939,0631206620,0631206639.pdf",0,2000-01-01 01:00:00,2016-04-03 02:51:08,389000/7571498f959a59d584e3a8202aa28cb2-d.jpg,,
19408260,PRACTICAL SIGIL MAGIC Creating Personal Symbols for Success,,,,U.D. Frater,1991,,Llewellyn,,73,0,English,,,,"087542774X,9780875427744",,B000JVGP4A,,,133.4/3,BF1623.S5 U32 1990,,,OL2228146M,,0,,,,,1,,0,2111741,pdf,7728555BACE3CCDC1E62A54F062175BE,,,"7728555bace3ccdc1e62a54f062175be~B000JVGP4A,087542774X,9780875427744.pdf",0,2000-01-01 01:00:00,2016-04-03 02:51:08,389000/7728555bace3ccdc1e62a54f062175be-g.jpg,,
19408261,Why Mrs Blake Cried: William Blake and the Sexual Basis of Spiritual Vision,,,,Marsha Keith Schuchard,2006,First Edition,Century,,41,0,English,201,,,"0712620168,9780712620161",,,,,821.7,PR4146 .S44 2006,,,OL22722077M,,0,,,,,,,1,792787,pdf,7924741EB7C01C790DC9EC702551054C,,,"7924741eb7c01c790dc9ec702551054c~0712620168,9780712620161.pdf",0,2000-01-01 01:00:00,2016-04-03 02:51:08,389000/7924741eb7c01c790dc9ec702551054c-d.jpg,,
19408262,"A Companion to Shakespeare's Works, The Poems, Problem Comedies, Late Plays ",,Blackwell Companions to Literature and Culture Volume IV,,"Richard Dutton, Jean E. Howard",2003,,Wiley-Blackwell,,496,0,English,,,,"9780631226352,9781417536382,0631226354,1405136081",,,,,,,,,OL8405940M,,0,,,,,1,1,1,2523957,pdf,8083668DEEEDFDD271086741952E4C49,,,"8083668deeedfdd271086741952e4c49~9780631226352,9781417536382,0631226354,1405136081.pdf",0,2000-01-01 01:00:00,2016-04-03 02:51:08,389000/8083668deeedfdd271086741952e4c49-d.jpg,,
19408263,The Buddhist Theory of Self-Cognition,,,,Zhihua Yao,2009,1,Routledge,,204,0,English,205,,,"0415544386,9780415544382",,,,,,,,,,,0,,,,,,1,0,16850284,pdf,8355810E2E376BC767BB081035BEF7CC,,,"8355810e2e376bc767bb081035bef7cc~0415544386,9780415544382.pdf",0,2000-01-01 01:00:00,2016-04-03 02:51:08,389000/8355810e2e376bc767bb081035bef7cc-d.jpg,,
19408264,Targeted Cancer Therapy ,,Current Clinical Oncology,,"Razelle Kurzrock, Razelle Kurzrock, Maurie Markman",2008,1,Humana Press,,550,0,English,166,,,"9781603274234,9781603274241,1603274235",,,,,616.99/406,RC270.8 .T33 2008,,,OL17029154M,,0,,,,,1,1,1,6607610,pdf,8608193A7D2F43AD19D567218F61BD2D,,,"8608193a7d2f43ad19d567218f61bd2d~9781603274234,9781603274241,1603274235.pdf",0,2000-01-01 01:00:00,2016-04-03 02:51:08,389000/8608193a7d2f43ad19d567218f61bd2d-d.jpg,,
19408265,Your Best Wishes Can Come True ,,Tale from the Care Bears,,"Phyllis Fair Cowell, Joe Ewers",1984,,Parker Brothers,,44,0,English,,,,"0910313180,9780910313186",,,,,,,,,OL3181084M,,0,,,,,,,0,7560818,pdf,8769445A198AD1EAE6B5CD88538EC2AF,,,"8769445a198ad1eae6b5cd88538ec2af~0910313180,9780910313186.pdf",0,2000-01-01 01:00:00,2016-04-03 02:51:08,389000/8769445a198ad1eae6b5cd88538ec2af-d.jpg,,
19408266,A Companion to Nineteenth-Century Europe: 1789-1914 ,,Blackwell Companions to European History,,Stefan Berger,2006,,Wiley-Blackwell,,556,0,English,,,,"9781405113205,1405113200,9781405152327",,,,,940.2/8,D299 .C623 2006,,TwfCX0MitqkC,OL22722079M,,0,,,,0,0,,1,5159071,pdf,8815877AF8412AD2B731E483DB0736B3,,,"8815877af8412ad2b731e483db0736b3~9781405113205,1405113200,9781405152327.pdf",0,2000-01-01 01:00:00,2016-04-03 02:51:08,389000/8815877af8412ad2b731e483db0736b3-d.jpg,,
19408267,"Mastering the Chess Openings: Unlocking the Mysteries of the Modern Chess Openings,",volume 1,,,John Watson,2006,,Gambit Publications,,337,0,English,46,,,"1904600603,9781904600602",,,,,,,,,OL8772529M,,0,,,,0,1,,0,4634572,djvu,9217961D6B52471FD51E3E867AE8B035,fca3d2dbb6ee43795c2e7380bb035312,no,"9217961d6b52471fd51e3e867ae8b035~1904600603,9781904600602.djvu",0,2000-01-01 01:00:00,2016-04-03 02:51:08,389000/9217961d6b52471fd51e3e867ae8b035-d.jpg,,
19408268,Profit With Options: Essential Methods for Investing Success,,,,"Lawrence G. McMillan, Marketplace Books",2002,1st,Wiley,,276,0,English,305,,,"0471225312,9780471225317,9780471274827",,,,,,,,,OL7613644M,,0,,,,,1,,1,2545135,pdf,16446800D52E0DF6F416CE3F77683494,,,"16446800d52e0df6f416ce3f77683494~0471225312,9780471225317,9780471274827.pdf",0,2000-01-01 01:00:00,2016-04-03 02:51:08,389000/16446800d52e0df6f416ce3f77683494-d.jpg,,
19408269,My Book of Mazes: Animals ,,Kumon Workbooks,,"Shinobu Akaishi, Shinobu Akaishi, Eno Sarris",2006,,Kumon Publishing North America,,80,0,English,23,,,"193324125X,9781933241258",,,,,,,,,OL8813065M,,0,,,,,1,1,0,10256385,pdf,18250303F811B15157882D6BF1E8C9ED,,,"18250303f811b15157882d6bf1e8c9ed~193324125X,9781933241258.pdf",0,2000-01-01 01:00:00,2016-04-03 02:51:08,389000/18250303f811b15157882d6bf1e8c9ed-d.jpg,,
19408270,Expressionism in Philosophy: Spinoza,,,,"Gilles Deleuze, Martin Joughin",1992,,Zone Books,,445,0,English,195,,,"0942299515,9780942299519",,,,,199/.492,B3999.E9 D4513 1990,,,OL2043740M,,0,,,,,1,,0,49858041,pdf,22472124DC22CCA2EC375E61966DCCD7,,,"22472124dc22cca2ec375e61966dccd7~0942299515,9780942299519.pdf",0,2000-01-01 01:00:00,2016-04-03 02:51:08,389000/22472124dc22cca2ec375e61966dccd7-d.jpg,,
19408271,Glimpsing Reality: Ideas in Physics and the Link to Biology,,,,"Paul Buckley, F. David Peat",1996,Revised,University of Toronto Press,,199,0,English,264,,,"0802005756,9780802005755",,,,,530,QC15 .G55 1996,,,OL555385M,,0,,,,,,,0,1179135,djvu,25177952D3A93459089234E83D230DB9,,,"25177952d3a93459089234e83d230db9~0802005756,9780802005755.djvu",0,2000-01-01 01:00:00,2016-04-03 02:51:08,389000/25177952d3a93459089234e83d230db9-g.jpg,,
19408272,A New Companion to English Renaissance Literature and Culture ,,Blackwell Companions to Literature and Culture 2 Volume Set,,Michael Hattaway,2010,3,Wiley-Blackwell,,1264,0,English,,,,"140518762X,9781405187626,1444319027,9781444319026",,,,,820.9/003,PR411 .C663 2010,,,OL23687761M,,0,,,,,1,1,1,5544461,pdf,26452931E75118EA076B20EC671EF3E8,,,"26452931e75118ea076b20ec671ef3e8~140518762X,9781405187626,1444319027,9781444319026.pdf",0,2000-01-01 01:00:00,2016-04-03 02:51:08,389000/26452931e75118ea076b20ec671ef3e8-d.jpg,,
19408273,It's True! You Eat Poison Every Day,,It's True!,,Peter Macinnis      ,2006,,ALLEN & UNWIN (RAGG),,96,0,English,,,,"1741146267,9781741146264",,,,,,,,,OL8907784M,,0,,,,1,0,1,1,4519152,pdf,29735225FBE053A5254EF1B95996326D,,,"29735225fbe053a5254ef1b95996326d~1741146267,9781741146264.pdf",0,2000-01-01 01:00:00,2016-04-03 02:51:08,389000/29735225fbe053a5254ef1b95996326d-d.jpg,,
19408274,Vault Guide to the Top 50 Banking Employers,,,,Derek Loosevelt,2004,7th,"Vault, Inc.",,576,0,English,,,,"1581312946,9781581312942",,,,,,,,,OL12280394M,,0,,,,,1,1,1,3179059,pdf,38979856D1F103ECA9E738C8A9FDFB94,,,"38979856d1f103eca9e738c8a9fdfb94~1581312946,9781581312942.pdf",0,2000-01-01 01:00:00,2016-04-03 02:51:08,389000/38979856d1f103eca9e738c8a9fdfb94-d.jpg,,
19408275,Egyptian Myth and Legend,,,,Donald A. MacKenzie,1913,1st,The Gresham Publishing Co.,,179,0,English,,,0,,,B000LSO97G,,,,,,,,,0,,,,,1,1,1,465975,pdf,48901021C60F21A2EF267BEF4260B14C,,,48901021c60f21a2ef267bef4260b14c~B000LSO97G.pdf,0,2000-01-01 01:00:00,2016-04-03 02:51:08,389000/48901021c60f21a2ef267bef4260b14c-g.jpg,,
19408276,Key Debates in Anthropology,,,,Tim Ingold,1996,1,Routledge,,320,0,English,14,,,"0415150191,9780415150194",,,,,306/.01,GN345 .K49 1996,,,OL970744M,,0,,,,,1,1,1,1754437,pdf,59130669BC19CE8494E1EA7B0AFFFF5F,,,"59130669bc19ce8494e1ea7b0affff5f~0415150191,9780415150194.pdf",0,2000-01-01 01:00:00,2016-04-03 02:51:08,389000/59130669bc19ce8494e1ea7b0affff5f-d.jpg,,
19408277,Giordano Bruno and the Hermetic Tradition,,,,Frances A. Yates,1964,,University Of Chicago Press,,466,0,English,,,,"9780226950075,9780415278492,0203220056,0226950077,041527849X",,,,,,,,,OL18362333M,,0,,,,0,0,,1,10725302,pdf,79126976B8811A3C908DCD09167E5544,,,"79126976b8811a3c908dcd09167e5544~9780226950075,9780415278492,0203220056,0226950077,041527849X.pdf",0,2000-01-01 01:00:00,2016-04-03 02:51:08,389000/79126976b8811a3c908dcd09167e5544-d.jpg,,
19408278,"Writing Back to Modern Art: After Greenberg, Fried and Clark",,,,Jonathan Harris,2005,,Routledge,,288,0,English,64,,,"0415324289,9780415324281,9780203087039",,,,,701/.18/097309045,N7485.U6 H37 2005,,,OL3297901M,,0,,,,,1,,1,1420781,pdf,81644528DC52CCA6639B479EC9D9EFFF,,,"81644528dc52cca6639b479ec9d9efff~0415324289,9780415324281,9780203087039.pdf",0,2000-01-01 01:00:00,2016-04-03 02:51:08,389000/81644528dc52cca6639b479ec9d9efff-d.jpg,,
19408279,Methods of Logic,,,,Willard Van Orman Quine,1961,Revised Edition,"Holt, Rinehart and Winston",,147,0,English,130,,,,,B000UTM266,,,,,,,,,0,,,,,1,,0,11622972,pdf,92311322FE67ED49FBF44545C5D079AD,,,92311322fe67ed49fbf44545c5d079ad~B000UTM266.pdf,0,2000-01-01 01:00:00,2016-04-03 02:51:08,389000/92311322fe67ed49fbf44545c5d079ad-g.jpg,,
19408280,Philosophy in the Bedroom,,,,Marquise de Sade,1993,2nd/Russ,Mip Co,,196,0,English,195,,,"0916201147,9780916201142",,,,,843/.6,PQ2063.S3 A7617 1993,,,OL1414800M,,0,,,,,1,,0,714201,pdf,615261184F194BF52D045E2018D4EAAD,,,"615261184f194bf52d045e2018d4eaad~0916201147,9780916201142.pdf",0,2000-01-01 01:00:00,2016-04-03 02:51:08,389000/615261184f194bf52d045e2018d4eaad-g.jpg,,
19408281,"Einführung in die digitale Bildverarbeitung : Grundlagen, Systeme und Anwendungen ; mit 35 Beispielen und 44 Aufgaben",,Studium,,Angelika Erhardt,2008,1. Aufl,Vieweg + Teubner,Wiesbaden,257,0,German,,usenet,to 2012-06,"9783519004783,351900478X,9783834895189,3834895180",,,,,,,,,,,0,,,,,,,1,4706496,pdf,c87cd8157d4dbbf1c6ee376b45080551,,,I:\\usenet_ger\\Einfuehrung.in.die.Digitale.Bildverarbeitung.[Springer].[2008].[r7g541].pdf,0,2000-01-01 01:00:00,2016-04-03 02:51:08,883000/c87cd8157d4dbbf1c6ee376b45080551-d.jpg,,
19408282,"Zurich International Chess Tournament, 1953",,,,David Bronstein,1979,,Dover Publications,,384,0,English,46,,,"0486238008,9780486238005",,,,,794.1/57,GV1455,,,OL21478373M,,0,,,,,,,0,3819760,djvu,678125840D4190BA6C9A3AD82F0A83C3,01a002fd1696dce8c45f6977a497c7fc,no,"678125840d4190ba6c9a3ad82f0a83c3~0486238008,9780486238005.djvu",0,2000-01-01 01:00:00,2016-04-03 02:51:08,389000/678125840d4190ba6c9a3ad82f0a83c3-d.jpg,,
19408283,Andrews' Diseases of the Skin: Clinical Dermatology ,,"James, Andrew's Disease of the Skin",,"William D. James MD, Timothy Berger MD, Dirk Elston MD",2005,10,Saunders,,1210,0,English,154,,,"0721629210,9780721629216",,,,,616.5,RL71 .A5 2006,,,OL3431765M,,0,,,,,,1,1,256351349,pdf,936301277D51557FE7057FFA15EC1594,,,"936301277d51557fe7057ffa15ec1594~0721629210,9780721629216.pdf",0,2000-01-01 01:00:00,2016-04-03 02:51:08,389000/936301277d51557fe7057ffa15ec1594-d.jpg,,
19408284,Battlecruiser HMS Hood: An Illustrated Biography 1916-1941,,,,"Bruce Taylor, Thomas Schmid",2008,,Naval Institute Press,,256,0,English,215,,,"186176216X,9781861762160",,,,,,,,,OL22614236M,,0,,,,,,1,0,198870332,pdf,2820281343AE68EEB69A254F34EA52DD,,,"2820281343ae68eeb69a254f34ea52dd~186176216X,9781861762160.pdf",0,2000-01-01 01:00:00,2016-04-03 02:51:08,389000/2820281343ae68eeb69a254f34ea52dd-d.jpg,,
19408285,Golden Age Spain: ,,Studies in European History,,Henry Kamen,2005,2,Palgrave Macmillan,,128,0,English,64,,,"1403933375,9781403933379,9780230802469",,,,,946/.03/072,DP162 .K35 2004,,,OL22605954M,,0,,,,1,0,1,1,450364,pdf,5603232357DD65C7203021DEAF493E6D,,,"5603232357dd65c7203021deaf493e6d~1403933375,9781403933379,9780230802469.pdf",0,2000-01-01 01:00:00,2016-04-03 02:51:08,389000/5603232357dd65c7203021deaf493e6d-d.jpg,,
19408286,Vault Guide to the Case Interview,,,,Mark Asher,2005,6,Vault,,192,0,English,,,,"1581313055,9781581313055",,,,,,,,,OL8782809M,,0,,,,,1,,1,3294862,pdf,39532793763E018D513C7A18490496EB,,,"39532793763e018d513c7a18490496eb~1581313055,9781581313055.pdf",0,2000-01-01 01:00:00,2016-04-03 02:51:08,389000/39532793763e018d513c7a18490496eb-d.jpg,,
19408287,A Companion to Crime Fiction ,,Blackwell Companions to Literature and Culture,,"Charles J. Rzepka, Lee Horsley",2010,1,Wiley-Blackwell,,648,0,English,,,,"1405167653,9781405167659",,,,,809.3/872,PN3448.D4 C557 2010,,,OL23980997M,,0,,,,,1,1,1,3870942,pdf,206104525306F6355276515CC6534BC7,,,"206104525306f6355276515cc6534bc7~1405167653,9781405167659.pdf",0,2000-01-01 01:00:00,2016-04-03 02:51:08,389000/206104525306f6355276515cc6534bc7-d.jpg,,
19408288,A Companion to American Environmental History ,,Blackwell Companions to American History,,Douglas Cazaux Sackman,2010,,Wiley-Blackwell,,696,0,English,,,,"1405156651,9781405156653",,,,,333.720973,GE195 .C655 2010,,,OL23862224M,,0,,,,,1,1,1,2847524,pdf,1568645534245F507DC7AD612BF10D06,,,"1568645534245f507dc7ad612bf10d06~1405156651,9781405156653.pdf",0,2000-01-01 01:00:00,2016-04-03 02:51:08,389000/1568645534245f507dc7ad612bf10d06-d.jpg,,
19408289,Creedence Clearwater Revival: Easy Guitar,,,,Creedence Clearwater Revival,1999,,Alfred Publishing Company,,44,0,English,62,,,"0769204902,9780769204901",,,,,,,,,OL10961049M,,0,,,,,1,,0,4391414,pdf,A0B9CFC68FE3C54AB42E53B9E731BD0B,,,"a0b9cfc68fe3c54ab42e53b9e731bd0b~0769204902,9780769204901.pdf",0,2000-01-01 01:00:00,2016-04-03 02:51:08,389000/a0b9cfc68fe3c54ab42e53b9e731bd0b-d.jpg,,
19408290,Mirror of Light,,,,Rodney Collin,1985,1st Shambhala ed,Shambhala,,89,0,English,,,,"0877733147,9780877733140",,,,,299,BF1999 .C6778 1984,,,OL2859420M,,0,,,,,1,,1,453237,pdf,A1F2E5163738AD12EAAFD01A1D29C22E,,,"a1f2e5163738ad12eaafd01a1d29c22e~0877733147,9780877733140.pdf",0,2000-01-01 01:00:00,2016-04-03 02:51:08,389000/a1f2e5163738ad12eaafd01a1d29c22e-g.jpg,,
19408291,Open Secret,,,,Wei Wu Wei,1991,,Hong Kong University Press,,206,0,English,,,,"9622090303,9789622090309",,,,,,,,,OL9349658M,,0,,,,,1,1,1,1604697,pdf,A3DA1C738B7C8A247F5B1F063D895195,,,"a3da1c738b7c8a247f5b1f063d895195~9622090303,9789622090309.pdf",0,2000-01-01 01:00:00,2016-04-03 02:51:08,389000/a3da1c738b7c8a247f5b1f063d895195-g.jpg,,
19408292,A Portrait of the Artist: The Plays of Tennessee Williams ,,Literary Criticism Series,,Foster Hirsch,1979,,Kennikat Press,,121,0,English,,,,"9780804692304,0804692300",,,,,812/.5/4,PS3545.I5365 Z68,,,OL4736384M,,0,,,,,1,1,0,4545219,pdf,A3F85702C1145648410C9CC0EE56BC3C,,,"a3f85702c1145648410c9cc0ee56bc3c~9780804692304,0804692300.pdf",0,2000-01-01 01:00:00,2016-04-03 02:51:08,389000/a3f85702c1145648410c9cc0ee56bc3c-g.jpg,,
19408293,Kittens ,,Beginner's Activity Book Series,,Cathy Beylon,1998,,Dover Publications,,32,0,English,,,,"0486400204,9780486400204",,,,,,,,,OL7637575M,,0,,,,,,1,0,2910514,pdf,A4AB531849EBA5BF9082E6FBEDECF17E,,,"a4ab531849eba5bf9082e6fbedecf17e~0486400204,9780486400204.pdf",0,2000-01-01 01:00:00,2016-04-03 02:51:08,389000/a4ab531849eba5bf9082e6fbedecf17e-d.jpg,,
19408294,A Companion to Shakespeare and Performance ,,Blackwell Companions to Literature and Culture,,"Barbara Hodgdon, W. B. Worthen",2007,,Wiley-Blackwell,,704,0,English,,,,"1405111046,9781405150231,9781405111041,1405188219,9781405188210",,,,,822.3/3,PR3091 .C64 2005,,,OL22721763M,,0,,,,,1,1,1,4171025,pdf,A4B9ED9690188AE3C3FAC68D6DFBE348,,,"a4b9ed9690188ae3c3fac68d6dfbe348~1405111046,9781405150231,9781405111041,1405188219,9781405188210.pdf",0,2000-01-01 01:00:00,2016-04-03 02:51:08,389000/a4b9ed9690188ae3c3fac68d6dfbe348-d.jpg,,
19408295,The Mystical Chorus: Jung and the Religious Dimension,,,,"Donald Broadribb, Marilyn Holly, Norma Lyons",1995,,Millennium Books (Au),,276,0,English,205,,,"1864290196,9781864290196",,,,,200,BL48 .B72 1995,,,OL901478M,,0,,,,,1,1,1,1394393,pdf,A4B672CEDA3C8FDB92A285B9D9BD1C9D,,,"a4b672ceda3c8fdb92a285b9d9bd1c9d~1864290196,9781864290196.pdf",0,2000-01-01 01:00:00,2016-04-03 02:51:08,389000/a4b672ceda3c8fdb92a285b9d9bd1c9d-g.jpg,,
19408296,Messy Spirituality,,,,Mike Yaconelli,2007,,Zondervan,,187,0,English,,,,"0310277302,9780310277309",,,,,,,,,OL9483598M,,0,,,,,1,1,1,1943120,pdf,A4D7D80B727DBE911944091322581311,,,"a4d7d80b727dbe911944091322581311~0310277302,9780310277309.pdf",0,2000-01-01 01:00:00,2016-04-03 02:51:08,389000/a4d7d80b727dbe911944091322581311-d.jpg,,
19408297,Stoelting's Anesthesia and Co-Existing Disease: Expert Consult: Online and Print ,,Expert Consult Title: Online + Print,,"Roberta L. Hines MD, Katherine Marschall MD",2008,5,Saunders,,688,0,English,151,,,"9781416039983,1416039988",,,,,617.9/6041,RD82.5 .A53 2008,,,OL11757184M,,0,,,,,1,,1,14992546,chm,A4EA24C22433CB215F3D1F5FB42B4C3C,,,"a4ea24c22433cb215f3d1f5fb42b4c3c~9781416039983,1416039988.chm",0,2000-01-01 01:00:00,2016-04-03 02:51:08,389000/a4ea24c22433cb215f3d1f5fb42b4c3c-d.jpg,,
19408298,On LISP: Advanced Techniques for Common LISP,,,,Paul Graham,1993,1st,Prentice Hall,,423,0,English,77,,,"0130305529,9780130305527",,,,,,,,,OL7331030M,,0,,,,,,1,1,1112310,pdf,A6A62A83D9CC8CE83652212140A1E9DD,,,"a6a62a83d9cc8ce83652212140a1e9dd~0130305529,9780130305527.pdf",0,2000-01-01 01:00:00,2016-04-03 02:51:08,389000/a6a62a83d9cc8ce83652212140a1e9dd-d.jpg,,
19408299,Collectivist Economic Planning: Critical Studies,,,,Friedrick Hayek,1983,New issue of 1935 ed,Augustus M Kelley Pubs,,294,0,English,305,,,"0678007659,9780678007655",,,,,,,,,OL11128276M,,0,,,,,1,1,1,45938136,pdf,A7C47768CB49160102AA3F51301F40C7,,,"a7c47768cb49160102aa3f51301f40c7~0678007659,9780678007655.pdf",0,2000-01-01 01:00:00,2016-04-03 02:51:08,389000/a7c47768cb49160102aa3f51301f40c7-g.jpg,,
19408300,Scripture and Metaphysics: Aquinas and the Renewal of Trinitarian Theology ,,Challenges in Contemporary Theology,,Matthew Levering,2004,,Wiley-Blackwell,,264,0,English,264,,,"9781405117340,1405117346,1405117338978,1405117338,9781405117333,9781405143677",,,,,,,,,OL22582756M,,0,,,,,1,,1,836091,pdf,A8BCE181F8F42FD143BA51261E8B505D,,,"a8bce181f8f42fd143ba51261e8b505d~9781405117340,1405117346,1405117338978,1405117338,9781405117333,9781405143677.pdf",0,2000-01-01 01:00:00,2016-04-03 02:51:08,389000/a8bce181f8f42fd143ba51261e8b505d-d.jpg,,
19408301,Emergency Department Analgesia: An Evidence-Based Guide ,,Cambridge Pocket Clinicians,,Stephen H. Thomas MD MPH,2008,1,Cambridge University Press,,432,0,English,161,,,"0521696011,9780521696012,9780511429705",,,,,,,,NcnZUZNLldIC,OL10436662M,,0,,,,1,0,1,1,1896667,pdf,A8D22261FA37C07E7DE8A5E76742001A,,,"a8d22261fa37c07e7de8a5e76742001a~0521696011,9780521696012,9780511429705.pdf",0,2000-01-01 01:00:00,2016-04-03 02:51:08,389000/a8d22261fa37c07e7de8a5e76742001a-d.jpg,,
19408302,A Companion to Ovid ,,Blackwell Companions to the Ancient World,,Peter E. Knox,2009,,Wiley-Blackwell,,545,0,English,,,,"1405141832,9781405141833",,,,,871/.01,PA6537 .C57 2009,,,OL22560420M,,0,,,,,,,1,3275432,pdf,A9A7874ED4D94D4B1FBE863D75E7F094,,,"a9a7874ed4d94d4b1fbe863d75e7f094~1405141832,9781405141833.pdf",0,2000-01-01 01:00:00,2016-04-03 02:51:08,389000/a9a7874ed4d94d4b1fbe863d75e7f094-d.jpg,,
19408303,50 Awesome Auto Projects for the Evil Genius,,,,Gavin Harper,2005,1,McGraw-Hill/TAB Electronics,,206,0,English,181,,,"0071458239,9780071458238",,,,,629.2/7,TK9965 .H285 2005,,,OL3430837M,,0,,,,,,,0,19489666,pdf,A9CAD69992687F939EB959621A5DB882,,,"a9cad69992687f939eb959621a5db882~0071458239,9780071458238.pdf",0,2000-01-01 01:00:00,2016-04-03 02:51:08,389000/a9cad69992687f939eb959621a5db882-d.jpg,,
19408304,Dx/Rx Coronary Thrombosis ,,Dx/Rx Cardiology Series,,"Richard C. Becker, Frederick A. Spencer",2004,1,Jones & Bartlett Learning,,148,0,English,,,,"9780763724801,0763724807",,,,,616.1/2306,RC685.C6 B427 2005,,,OL22728514M,,0,,,,,1,,,3415944,chm,A9DB7A5BE18E6F5496C27662F43A5910,,,"a9db7a5be18e6f5496c27662f43a5910~9780763724801,0763724807.chm",0,2000-01-01 01:00:00,2016-04-03 02:51:08,389000/a9db7a5be18e6f5496c27662f43a5910-d.jpg,,
19408305,Epicureanism at the Origins of Modernity,,,,Catherine Wilson,2008,,"Oxford University Press, USA",,320,0,English,195,,,"0199238812,9780199238811,9780191553523",,,,,187,B512 .W55 2008,,,OL16796474M,,0,,,,,1,1,1,1578345,pdf,A9E9FEFAE9AC5DAB1BE2F679AFD77B8C,,,"a9e9fefae9ac5dab1be2f679afd77b8c~0199238812,9780199238811,9780191553523.pdf",0,2000-01-01 01:00:00,2016-04-03 02:51:08,389000/a9e9fefae9ac5dab1be2f679afd77b8c-d.jpg,,
19408306,The Early Germans ,,The Peoples of Europe,,Malcolm Todd,2004,2,Wiley-Blackwell,,288,0,English,,,,"1405117141,9781405117142,9781405137560",,,,,,,,,OL22603691M,,0,,,,,1,1,1,20751784,pdf,A9FDC972C780E524A22F372B2258CD83,,,"a9fdc972c780e524a22f372b2258cd83~1405117141,9781405117142,9781405137560.pdf",0,2000-01-01 01:00:00,2016-04-03 02:51:08,389000/a9fdc972c780e524a22f372b2258cd83-d.jpg,,
19408307,Ceremonial Magic: A Guide to the Mechanisms of Ritual,,,,Israel Regardie,1980,First Edition,Aquarian Press,,128,0,English,183,,0,"0850302374,9780850302370",,,,,133.4/3,BF1623.R6 R43,,,,,0,,,,,1,,0,9019736,pdf,A28A96471D212EA080B77620627A4C8D,,,"a28a96471d212ea080b77620627a4c8d~0850302374,9780850302370.pdf",0,2000-01-01 01:00:00,2016-04-03 02:51:08,389000/a28a96471d212ea080b77620627a4c8d-g.jpg,,
19408308,Theory Consc Harmony,,,,Rodney Collin,1984,,Shambhala,,211,0,English,,,,"087773285X,9780877732853",,,,,128,BF1999 .C679 1984,,,OL2843524M,,0,,,,,1,,1,1546627,pdf,A39AE03EE321235C0F08B99CC759D1B6,,,"a39ae03ee321235c0f08b99cc759d1b6~087773285X,9780877732853.pdf",0,2000-01-01 01:00:00,2016-04-03 02:51:08,389000/a39ae03ee321235c0f08b99cc759d1b6-g.jpg,,
19408309,The Road to War: Revised Edition,,,,"Richard Overy, Andrew Wheatcroft",2000,Rev Upd,Penguin (Non-Classics),,464,0,English,,,,"014028530X,9780140285307",,,,,940.53/11,D741 .O85 1999,,,OL6806473M,,0,,,,,1,1,1,7035360,pdf,A066EA64B301C4A9544419ED26895CED,,,"a066ea64b301c4a9544419ed26895ced~014028530X,9780140285307.pdf",0,2000-01-01 01:00:00,2016-04-03 02:51:08,389000/a066ea64b301c4a9544419ed26895ced-d.jpg,,
19408310,"The Perfect Way Or, The Finding of Christ",,,,"Anna Bonus Kingsford, Edward Maitland",2007,,Cosimo Classics,,456,0,English,,,,"1602063214,9781602063211",,,,,,,,,OL8905084M,,0,,,,,1,,1,660480,pdf,A90C4658AA465EE8D0F7101749539E3C,,,"a90c4658aa465ee8d0f7101749539e3c~1602063214,9781602063211.pdf",0,2000-01-01 01:00:00,2016-04-03 02:51:08,390000/a90c4658aa465ee8d0f7101749539e3c-d.jpg,,
19408311,Frommer's Budapest & the Best of Hungary ,,Frommer's Complete,,"Andrew Princz, Carolyn Býýnfalvi, Anna Kutor, Nýýra Lakos",2006,6th,Frommer's,,278,0,English,32,,,"0471778192,9780471778196",,,,,,,,,OL7621415M,,0,,,,,,,1,4611832,pdf,A0098DF345D4272CC5CE13B6C755FB60,,,"a0098df345d4272cc5ce13b6c755fb60~0471778192,9780471778196.pdf",0,2000-01-01 01:00:00,2016-04-03 02:51:08,390000/a0098df345d4272cc5ce13b6c755fb60-d.jpg,,
19408312,Manual of Clinical Problems in Pediatrics: With Annotated Key References ,,Spiral Manual Series,,Kenneth B. Roberts,2003,5th,Lippincott Williams & Wilkins,,336,0,English,,,,"9780781728935,0781728932,9780781730532,0781730538",,,,,,,,,OL11006127M,,0,,,,,1,,1,1802891,chm,A434A96014F41F4545F3621F491508A7,,,"a434a96014f41f4545f3621f491508a7~9780781728935,0781728932,9780781730532,0781730538.chm",0,2000-01-01 01:00:00,2016-04-03 02:51:08,390000/a434a96014f41f4545f3621f491508a7-d.jpg,,
19408313,Kabbalah of the Golden Dawn,,,,Pat Zalewski,2000,,Book Sales,,223,0,English,205,,,"0785811966,9780785811961",,,,,,,,,OL8103201M,,0,,,,,1,,1,9818948,pdf,A914B1531A5BEBA0202B8A3C9618FD97,,,"a914b1531a5beba0202b8a3c9618fd97~0785811966,9780785811961.pdf",0,2000-01-01 01:00:00,2016-04-03 02:51:08,390000/a914b1531a5beba0202b8a3c9618fd97-d.jpg,,
19408314,Millennial Dreams and Apocalyptic Nightmares: The Cold War Origins of Political Evangelicalism,,,,Angela M. Lahr,2007,,"Oxford University Press, USA",,296,0,English,,,,"0195314484,9780195314489,9781435620186",,,,,277.3/0825,BR1642.U5 L34 2007,,,OL10135066M,,0,,,,,1,1,1,1977473,pdf,A949ADF8C9A526FF0CFBCF28F83BEA35,,,"a949adf8c9a526ff0cfbcf28f83bea35~0195314484,9780195314489,9781435620186.pdf",0,2000-01-01 01:00:00,2016-04-03 02:51:08,390000/a949adf8c9a526ff0cfbcf28f83bea35-d.jpg,,
19408315,A Guide to Ancient Greek Drama ,,Blackwell Guides to Classical Literature,,"Ian C. Storey, Arlene Allan",2005,,Wiley-Blackwell,,325,0,English,64,,,"9781405102148,9781405137638,1405102144",,,,,882/.0109,PA3131 .S83 2005,,,OL3291859M,,0,,,,0,1,,1,5005451,pdf,A1328CE68DDA5C491E612CC306DD82C3,,,"a1328ce68dda5c491e612cc306dd82c3~9781405102148,9781405137638,1405102144.pdf",0,2000-01-01 01:00:00,2016-04-03 02:51:08,390000/a1328ce68dda5c491e612cc306dd82c3-d.jpg,,
19408316,Ladies of the Lair ,,"Dragon Knights, Books 1 & 2",,Bianca D'Arc,2006,,Samhain Publishing,,237,0,English,,,,"159998251X,9781599982519",,,,,,,,,OL8902538M,,0,,,,,1,,1,336848,pdf,A3259A03DB2576FE06A49A3F8B957B51,,,"a3259a03db2576fe06a49a3f8b957b51~159998251X,9781599982519.pdf",0,2000-01-01 01:00:00,2016-04-03 02:51:08,390000/a3259a03db2576fe06a49a3f8b957b51-d.jpg,,
19408317,Pathophysiology of Disease: An Introduction to Clinical Medicine,,LANGE Basic Science,,"Stephen J. McPhee, Vishwanath Lingappa, William Ganong",2005,5,McGraw-Hill Medical,,784,0,English,147,,,"007144159X,9780071441599,9780071502061",,,,,616.07,,,,OL19151811M,,0,,,,,1,,,36713526,chm,A74339A573D9E3FA6A3DF8B29E77E73D,,,"a74339a573d9e3fa6a3df8b29e77e73d~007144159X,9780071441599,9780071502061.chm",0,2000-01-01 01:00:00,2016-04-03 02:51:08,390000/a74339a573d9e3fa6a3df8b29e77e73d-d.jpg,,
19408318,Uses of Literature ,,Blackwell Manifestos,,Rita Felski,2008,,Wiley-Blackwell,,161,0,English,,,,"1405147245,9781405147248",,,,,801,PN49 .F453 2008,,,OL16364366M,,0,,,,,,,1,857682,pdf,A594621DCD857EFF59F10424E46EFA15,,,"a594621dcd857eff59f10424e46efa15~1405147245,9781405147248.pdf",0,2000-01-01 01:00:00,2016-04-03 02:51:08,390000/a594621dcd857eff59f10424e46efa15-d.jpg,,
19408319,Improvised Munitions,,,,Department of Defense,2004,,Pentagon Publishing,,256,0,English,67,,,"0975900900,9780975900901",,,,,,,,,OL8586043M,,0,,,,,1,1,0,84778905,pdf,A926200AA266808A61B6AABE193A59B6,,,"a926200aa266808a61b6aabe193a59b6~0975900900,9780975900901.pdf",0,2000-01-01 01:00:00,2016-04-03 02:51:08,390000/a926200aa266808a61b6aabe193a59b6-d.jpg,,
19408320,Handbook of 19th Century Naval Warfare,,,,Spencer C. Tucker,2000,,US Naval Institute Press,,282,0,English,215,,,"9781557503220,1557503222,0750919728,9780750919722",,,,,,,,,OL8600072M,,0,,,,,1,1,0,44851964,pdf,A85254187DF572427075ADD858E0708E,,,"a85254187df572427075add858e0708e~9781557503220,1557503222,0750919728,9780750919722.pdf",0,2000-01-01 01:00:00,2016-04-03 02:51:08,390000/a85254187df572427075add858e0708e-d.jpg,,
19408321,The Cambridge Companion to Arabic Philosophy ,,Cambridge Companions to Philosophy,,"Peter Adamson, Richard C. Taylor",2005,,Cambridge University Press,,462,0,English,,,,"0521817439,9780521817431",,,,,181/.92,B741 .C36 2005,,,OL22611110M,,0,,,,,,,1,1962647,pdf,A68919768767D4E1974955FDDA4BCB76,,,"a68919768767d4e1974955fdda4bcb76~0521817439,9780521817431.pdf",0,2000-01-01 01:00:00,2016-04-03 02:51:08,390000/a68919768767d4e1974955fdda4bcb76-d.jpg,,
19408322,Masters of the Sacred Page: Manuscripts of Theology in the Latin West to 1274 ,,"The Medieval Book, V. 2",,Lesley Smith,2001,,University of Notre Dame Press,,190,0,English,22,,,"0268042136,9780268042134",,,,,,,,,OL10283781M,,0,,,,,,,0,97434805,pdf,A8595098936102EB9259335CD4924F74,,,"a8595098936102eb9259335cd4924f74~0268042136,9780268042134.pdf",0,2000-01-01 01:00:00,2016-04-03 02:51:08,390000/a8595098936102eb9259335cd4924f74-d.jpg,,
19408323,New Documents Illustrating Early Christianity: Review of the Greek Inscriptions and Papyri Published in 1977 v. 2,,,,G.H.R. Horsley,1982,,Liverpool University Press,,224,0,English,,,,"0858375087,9780858375086",,,,,,,,,OL18441012M,,0,,,,,,,0,12785879,pdf,AA075BD75075AF993CD753642E184EE1,,,"aa075bd75075af993cd753642e184ee1~0858375087,9780858375086.pdf",0,2000-01-01 01:00:00,2016-04-03 02:51:08,390000/aa075bd75075af993cd753642e184ee1-g.jpg,,
19408324,The Human Condition: ,,,,"Hannah Arendt, Margaret Canovan",1998,2,University Of Chicago Press,,370,0,English,,,,"0226025993,9780226025995",,,,,301,HM211,,,OL22088232M,,0,,,,,,,1,1822732,pdf,AA34279413692BD2BF14537A2824F2C6,,,"aa34279413692bd2bf14537a2824f2c6~0226025993,9780226025995.pdf",0,2000-01-01 01:00:00,2016-04-03 02:51:08,390000/aa34279413692bd2bf14537a2824f2c6-d.jpg,,
19408325,The Kabbalah Unveiled,,,,S. L. Macgrefor Mathers,1968,[New ed.].,Routledge & Kegan Paul Ltd.,,360,0,English,205,,,,,B000ESALOI,,,,,,,,,0,,,,,1,1,1,457404,pdf,AAB1A07728B723E7F2EBFDF39DBBBA97,,,aab1a07728b723e7f2ebfdf39dbbba97~B000ESALOI.pdf,0,2000-01-01 01:00:00,2016-04-03 02:51:08,390000/aab1a07728b723e7f2ebfdf39dbbba97-g.jpg,,
19408326,Thomas Kuhn's Revolution ,,Continuum Studies In American Philosophy,,James A. Marcum,2005,,Continuum,,192,0,English,195,,,"082648591X,9781847141941,9780826485915,0826434460,9780826434463",,,,,,,,fYDEFhMfSfEC,OL22710940M,,0,,,,,1,1,1,726841,pdf,AADC6F995F59A918ACC4B51685044562,,,"aadc6f995f59a918acc4b51685044562~082648591X,9781847141941,9780826485915,0826434460,9780826434463.pdf",0,2000-01-01 01:00:00,2016-04-03 02:51:08,390000/aadc6f995f59a918acc4b51685044562-d.jpg,,
19408327,Developing Business Ethics in China,,,,"Xiaohe Lu, Georges Enderle",2006,First Edition,Palgrave Macmillan,,304,0,English,1,,,"9781403972538,9781403984623,1403972532",,,,,174/.4/0951,HF5387.5.C6 I58 2002,,,OL22764926M,,0,,,,1,0,1,1,1183208,pdf,AB05CABFDA1F17870865D4AB448C767C,,,"ab05cabfda1f17870865d4ab448c767c~9781403972538,9781403984623,1403972532.pdf",0,2000-01-01 01:00:00,2016-04-03 02:51:08,390000/ab05cabfda1f17870865d4ab448c767c-d.jpg,,
19408328,"The Cruiser \Belfast\"" """,,Anatomy of the Ship,,Ross Watton,1985,,Naval Inst Pr,,120,0,English,64,,,"0870211382,9780870211386",,,,,623.8/253/0973,VA458.B43 W38 1985,,,OL2554516M,,0,,,,,,1,0,185161231,pdf,AB8A283C45440C972947D242258643FF,,,"ab8a283c45440c972947d242258643ff~0870211382,9780870211386.pdf",0,2000-01-01 01:00:00,2016-04-03 02:51:08,390000/ab8a283c45440c972947d242258643ff-g.jpg,,
19408329,Margins of Philosophy,,,,"Jacques Derrida, Alan Bass",1982,,University Of Chicago Press,,181,0,English,195,,,"9780226143262,0226143260,0710804547,9780710804549",,,,,194,BD22,,,OL18448936M,,0,,,,0,1,,0,60507250,pdf,AB41F744D334C21B622B808613A7A955,,,"ab41f744d334c21b622b808613a7a955~9780226143262,0226143260,0710804547,9780710804549.pdf",0,2000-01-01 01:00:00,2016-04-03 02:51:08,390000/ab41f744d334c21b622b808613a7a955-d.jpg,,
19408330,Essentials of Anatomic Pathology,,,,"Liang Cheng, David G. Bostwick",2005,2nd,Humana Press,,1467,0,English,,,,"1588294609,9781588294616,9781588294609,1588294617",,,,,616.07,RB25 .E775 2006,,,OL21802404M,,300,,,,1,1,1,1,213243705,pdf,ABB6EC34E6EDBE3360B752FDF3AAB9FA,,,"abb6ec34e6edbe3360b752fdf3aab9fa~1588294609,9781588294616,9781588294609,1588294617.pdf",0,2000-01-01 01:00:00,2016-04-03 02:51:08,390000/abb6ec34e6edbe3360b752fdf3aab9fa-d.jpg,,
19408331,Pocket Emergency Paediatric Care: A Practical Guide to the Diagnosis and Management of Pedeatric Emergencies in Hospitals and Other Healthcare Facilities,,,,"Shafique Ahmad, David Southall, Child Advocacy International",2002,1,BMJ Books,,217,0,English,6,,,"9780585431536,9780727917010,0727917013",51682129,,,,,,,,OL10593078M,,0,,,,0,0,,0,6614657,pdf,ABC3372D3C5704C224055B943C0A1B82,,,"abc3372d3c5704c224055b943c0a1b82~9780585431536,9780727917010,0727917013.pdf",0,2000-01-01 01:00:00,2016-04-03 02:51:08,390000/abc3372d3c5704c224055b943c0a1b82-d.jpg,,
19408332,Training Design Basics ,,ASTD Training Basics,,Saul Carliner,2003,,ASTD Press,,204,0,English,,,,"1562863487,9781562863487",,,,,658.3/12404,HF5549.5.T7 C2983 2003,,,OL3698416M,,0,,,,,1,,,1329366,chm,AC6BCE6DBC59089D6BB17201D84CADA1,,,"ac6bce6dbc59089d6bb17201d84cada1~1562863487,9781562863487.chm",0,2000-01-01 01:00:00,2016-04-03 02:51:08,390000/ac6bce6dbc59089d6bb17201d84cada1-d.jpg,,
19408333,A Companion to Los Angeles ,,Blackwell Companions to American History,,"William Deverell, Greg Hise",2010,,Wiley,,536,0,English,,,,"1405171278,9781405171274,9781444390940",,,,,979.4/94,F869.L857 C66 2010,,,OL23980977M,,0,,,,,,1,1,8540430,pdf,AC8CAB4551C7A27183D228ABE01D48F2,,,"ac8cab4551c7a27183d228abe01d48f2~1405171278,9781405171274,9781444390940.pdf",0,2000-01-01 01:00:00,2016-04-03 02:51:08,390000/ac8cab4551c7a27183d228abe01d48f2-d.jpg,,
19408334,"Artful Persuasion: How to Command Attention, Change Minds, and Influence People",,,,Harry Mills,2000,1 Ed,AMACOM,,337,0,English,183,,,"0814470637,9780814470633",,,,,153.8/52,BF637.P4 M52 2000,,,OL51357M,,0,,,,,,,1,4499777,pdf,AC8CC07E4A8B39D5C72BEF716095D0A3,,,"ac8cc07e4a8b39d5c72bef716095d0a3~0814470637,9780814470633.pdf",0,2000-01-01 01:00:00,2016-04-03 02:51:08,390000/ac8cc07e4a8b39d5c72bef716095d0a3-d.jpg,,
19408335,Toward a History of American Linguistics ,,Routledge Studies in the History of Linguistics,,E.F.K. Koerner,2002,1,Routledge,,328,0,English,64,,,"9780415300605,0415300606,0203361857,9780203361856,9780203378632",,,,,410/.973,P81.U5 K64 2002,,,OL22521420M,,0,,,,,1,1,1,4655835,pdf,AEAED3993BC164115B44D88ADCC63DED,,,"aeaed3993bc164115b44d88adcc63ded~9780415300605,0415300606,0203361857,9780203361856,9780203378632.pdf",0,2000-01-01 01:00:00,2016-04-03 02:51:08,390000/aeaed3993bc164115b44d88adcc63ded-d.jpg,,
19408336,A Companion to World War I ,,Blackwell Companions to History,,John Horne,2010,,Wiley-Blackwell,,728,0,English,,,,"1405123869,9781405123860",,,,,940.3,D521 .C5835 2010,,,OL23861814M,,0,,,,,1,1,1,5007156,pdf,AEB684DD5C0A916D82891C984F23708E,,,"aeb684dd5c0a916d82891c984f23708e~1405123869,9781405123860.pdf",0,2000-01-01 01:00:00,2016-04-03 02:51:08,390000/aeb684dd5c0a916d82891c984f23708e-d.jpg,,
19408337,The Heavy Cruiser Takao ,,Anatomy of the Ship,,Janusz Skulski,2004,,Conway Maritime Press,,256,0,English,64,,,"0851779743,9780851779744",,,,,,,,,OL8279564M,,0,,,,,,1,0,68765316,pdf,AEC6F8C1BF532BCE7D311DD44DC72D8B,,,"aec6f8c1bf532bce7d311dd44dc72d8b~0851779743,9780851779744.pdf",0,2000-01-01 01:00:00,2016-04-03 02:51:08,390000/aec6f8c1bf532bce7d311dd44dc72d8b-d.jpg,,
19408338,The Metaphysics of Meaning,,,,Jerrold J. Katz,1992,,The MIT Press,,372,0,English,264,,,"9780262610827,0262610825,9780262111515,0262111519,9780585020426",,,,,149/.94,P106 .K2995 1990,,,OL14975342M,,0,,,,,1,1,1,55361755,pdf,AEF275E8D376D330801E7A03CFCDA8A2,,,"aef275e8d376d330801e7a03cfcda8a2~9780262610827,0262610825,9780262111515,0262111519,9780585020426.pdf",0,2000-01-01 01:00:00,2016-04-03 02:51:08,390000/aef275e8d376d330801e7a03cfcda8a2-d.jpg,,
19408339,The Anabolic Diet,,,,Mauro DiPasquale,1995,,Optimum Training Systems,,106,0,English,289,,,,,B0006F61XE,,,,,,,,,0,,,,,1,,1,1111472,pdf,AF8F63CD08D4DD11E23FDB67437626E0,,,af8f63cd08d4dd11e23fdb67437626e0~B0006F61XE.pdf,0,2000-01-01 01:00:00,2016-04-03 02:51:08,390000/af8f63cd08d4dd11e23fdb67437626e0-g.jpg,,
19408340,Circuit-Bending: Build Your Own Alien Instruments ,,ExtremeTech,,Reed Ghazala,2005,,Wiley,,433,0,English,,,,"0764588877,9780764588877",,,,,786.7/192,ML1092 .G5 2005,,,OL3397423M,,0,,,,,,1,1,10812986,pdf,AF94C3039763B3BE71A9B7E22959C50E,,,"af94c3039763b3be71a9b7e22959c50e~0764588877,9780764588877.pdf",0,2000-01-01 01:00:00,2016-04-03 02:51:08,390000/af94c3039763b3be71a9b7e22959c50e-d.jpg,,
19408341,"A Student's Guide to Textual Criticism of the Bible: Its History, Methods and Results",,,,Paul D. Wegner,2006,,IVP Academic,,334,0,English,64,,,"0830827315,9780830827312",,,,,220.4/046,BS471 .W44 2004,,,OL3291650M,,0,,,,,,,1,7815498,chm,AFBE27BE34F58E4B753D5B2E998D05E9,,,"afbe27be34f58e4b753d5b2e998d05e9~0830827315,9780830827312.chm",0,2000-01-01 01:00:00,2016-04-03 02:51:08,390000/afbe27be34f58e4b753d5b2e998d05e9-d.jpg,,
19408342,My Book of Addition,,,,"Shinobu Akaishi, Eno Sarris",2005,,Kumon Publishing North America,,80,0,English,,,,"9781933241012,1933241012",,,,,,,,,OL8813047M,,0,,,,,1,1,0,7197162,pdf,AFCED4C3869440E71C9E19CBD0D86F65,,,"afced4c3869440e71c9e19cbd0d86f65~9781933241012,1933241012.pdf",0,2000-01-01 01:00:00,2016-04-03 02:51:08,390000/afced4c3869440e71c9e19cbd0d86f65-d.jpg,,
19408343,Streetsmart Guide to Valuing a Stock,,,,"Gary Gray, Patrick Cusatis, J. Woolridge",2003,2,McGraw-Hill,,288,0,English,305,,,"0071416668,9780071416665,0071345272,9780071345279",,,,,332.63/221,HG4028.V3 G696 1999,10.1036/0071436235,,OL24930123M,,0,,,,,1,1,1,3153773,pdf,B0C5B175A27363EEE4D7070C93B9DF23,,,"b0c5b175a27363eee4d7070c93b9df23~0071416668,9780071416665,0071345272,9780071345279.pdf",0,2000-01-01 01:00:00,2016-04-03 02:51:08,390000/b0c5b175a27363eee4d7070c93b9df23-d.jpg,,
19408344,COUNTERPOINT for Beginners,,,,H. C Colles,1942,9th.Impress.,Oxford at the Clarendon Press,,57,0,English,183,,,,,B000MFDAAK,,,,,,,,,0,,,,,1,,0,19898673,pdf,B0C5F8D5FFB6154687A7B631018390A6,,,b0c5f8d5ffb6154687a7b631018390a6~B000MFDAAK.pdf,0,2000-01-01 01:00:00,2016-04-03 02:51:08,390000/b0c5f8d5ffb6154687a7b631018390a6-g.jpg,,
19408345,Wage-Labor and Capital ,,Dodo Press,,"Karl Marx, Friedrich Engels",2009,,Dodo Press,,56,0,English,195,,,"1409961656,9781409961659",,,,,,,,,,,0,,,,,1,1,1,195370,pdf,B0FBAE16D7BBE44AD22A4BD551BE96AC,,,"b0fbae16d7bbe44ad22a4bd551be96ac~1409961656,9781409961659.pdf",0,2000-01-01 01:00:00,2016-04-03 02:51:08,390000/b0fbae16d7bbe44ad22a4bd551be96ac-d.jpg,,
19408346,"Seth, God of Confusion: A Study of His Role in Egyptian Mythology and Religion ",,Ancient Near East,,H. Te Velde,1967,,Brill Academic Pub,,190,0,English,64,,,"9789004054028,9004054022",,B0007IZ0N2,,,299/.3/1,BL2450.S4 V44 1977,,,OL4686440M,,0,,,,0,1,1,0,39973904,pdf,B1BB4BDBD6666D5F14A24085F8C90E0C,,,"b1bb4bdbd6666d5f14a24085f8c90e0c~9789004054028,9004054022,B0007IZ0N2.pdf",0,2000-01-01 01:00:00,2016-04-03 02:51:08,390000/b1bb4bdbd6666d5f14a24085f8c90e0c-g.jpg,,
19408347,Numerical Methods,,,,"J. Douglas Faires, Richard L. Burden",2002,3rd,Brooks Cole,,802,0,English,120,,0,"9780534407612,0534407617",,,,,518,QA297 .F35 2003,,,,,0,,,,,1,,1,8748802,pdf,B1EED5654172E40F0D00ABDB04C6270C,,,"b1eed5654172e40f0d00abdb04c6270c~9780534407612,0534407617.pdf",0,2000-01-01 01:00:00,2016-04-03 02:51:08,390000/b1eed5654172e40f0d00abdb04c6270c-d.jpg,,
19408348,American Folk Art for Kids: With 21 Activities ,,For Kids series,,Richard Panchyk,2004,,Chicago Review Press,,128,0,English,64,,,"1556524994,9781556524998",,,,,,,,,OL8596215M,,0,,,,,1,1,1,80575716,pdf,B2D2749A0728408D01A7C2D6FF483F14,,,"b2d2749a0728408d01a7c2d6ff483f14~1556524994,9781556524998.pdf",0,2000-01-01 01:00:00,2016-04-03 02:51:08,390000/b2d2749a0728408d01a7c2d6ff483f14-d.jpg,,
19408349,"The Enterprise of Knowledge: An Essay on Knowledge, Credal Probability, and Chance",,,,Isaac Levi,1983,,The MIT Press,,479,0,English,119,,,"026262043X,9780262620437",,,,,,,,,OL9326298M,,0,,,,,,,1,4668990,djvu,B3B57D6D31F75C81E1C22844EB6CB384,,,"b3b57d6d31f75c81e1c22844eb6cb384~026262043X,9780262620437.djvu",0,2000-01-01 01:00:00,2016-04-03 02:51:08,390000/b3b57d6d31f75c81e1c22844eb6cb384-d.jpg,,
19408350,British Empire and the Second World War,,,,Ashley Jackson,2006,,Hambledon Continuum,,624,0,English,64,,,"1852854170,9781852854171",,,,,940.541241,D760.A1 J33 2006,,,OL20025213M,,0,,,,,1,1,1,44859647,pdf,B3BCF5E4B31179E00AF977F462241549,,,"b3bcf5e4b31179e00af977f462241549~1852854170,9781852854171.pdf",0,2000-01-01 01:00:00,2016-04-03 02:51:08,390000/b3bcf5e4b31179e00af977f462241549-d.jpg,,
19408351,Hotel on the Roof of the World ,,Summersdale Travel,,Alec Le Sueur,2001,2nd,Summersdale,,352,0,English,,,,"1840241993,9781840241990,9781423754947",,,,,,,,,OL24319648M,,0,,,,,1,1,1,2080864,pdf,B3BEABFCBEB7C3BC7691727007DCA6D3,,,"b3beabfcbeb7c3bc7691727007dca6d3~1840241993,9781840241990,9781423754947.pdf",0,2000-01-01 01:00:00,2016-04-03 02:51:08,390000/b3beabfcbeb7c3bc7691727007dca6d3-d.jpg,,
19408352,"Army Air Force and U.S. Air Force Decorations Decorations, Medals, Ribbons, Badges and Insignia of the United States Air Force: World War II to Present",,,,Anthony Aldebol,1999,2nd,Moa Press,,124,0,English,64,,,"1884452051,9781884452055",,,,,,,,,OL9455725M,,0,,,,,,1,1,89228341,pdf,B04CB8C709BE9383A8917C435668C481,,,"b04cb8c709be9383a8917c435668c481~1884452051,9781884452055.pdf",0,2000-01-01 01:00:00,2016-04-03 02:51:08,390000/b04cb8c709be9383a8917c435668c481-d.jpg,,
19408353,"Social History of Art, Boxed Set: The Social History of Art: Rococo, Classicism and Romanticism",Vol. 3,,,"Arnold Hauser, Jonathan Harris",1999,3,Routledge,,288,0,English,64,,,"9780203981245,9780415199476,0415199476",,,,,,,,,OL7486182M,,0,,,,,1,1,1,4287550,pdf,B4EDB2AFDF00359F1E90E701C974083C,,,"b4edb2afdf00359f1e90e701c974083c~9780203981245,9780415199476,0415199476.pdf",0,2000-01-01 01:00:00,2016-04-03 02:51:08,390000/b4edb2afdf00359f1e90e701c974083c-d.jpg,,
19408354,A Companion to Applied Ethics ,,Blackwell Companions to Philosophy,,"R. G. Frey, Christopher Heath Wellman",2005,,Wiley-Blackwell,,720,0,English,,,,"1405133457,9781405133456",,,,,,,,,OL8405853M,,0,,,,,,,1,45164259,pdf,B4F19616FEAC9D65328674604F560850,,,"b4f19616feac9d65328674604f560850~1405133457,9781405133456.pdf",0,2000-01-01 01:00:00,2016-04-03 02:51:08,390000/b4f19616feac9d65328674604f560850-d.jpg,,
19408355,Marx: A Beginner's Guide ,,Beginners Guide Oneworld,,Andrew Collier,2008,Reprint,Oneworld,,198,0,English,183,,,"1851685340,9781851685349",,,,,,,,,,,0,,,,,,,1,1810673,pdf,B5BD84EFCAE5ED49D9893CC65B950538,,,"b5bd84efcae5ed49d9893cc65b950538~1851685340,9781851685349.pdf",0,2000-01-01 01:00:00,2016-04-03 02:51:08,390000/b5bd84efcae5ed49d9893cc65b950538-d.jpg,,
19408356,The Work of Mourning,,,,"Jacques Derrida, Pascale-Anne Brault, Pascale-Anne Brault, Michael Naas",2003,1,University Of Chicago Press,,272,0,English,195,,,"9780226142814,0226142817",,,,,,,,,OL9359291M,,0,,,,,1,,0,34727247,pdf,B6E7894196B4AF76CC7C97A2F0F8EDE7,,,"b6e7894196b4af76cc7c97a2f0f8ede7~9780226142814,0226142817.pdf",0,2000-01-01 01:00:00,2016-04-03 02:51:08,390000/b6e7894196b4af76cc7c97a2f0f8ede7-d.jpg,,
19408357,The Puritan Gift: Reclaiming the American Dream Amidst Global Financial Chaos,,,,"Ken Hopper, Will Hopper",2009,,I. B. Tauris,,351,0,English,305,,,"184511986X,9781845119867,1850434190,9781850434191,9781435615991",,,,,658.00973,HD70.U5 H66 2009,,,OL22748158M,,0,,,,,,1,1,9638220,pdf,B6F00BC26BA2E1285D4172BB3D3FF9A7,,,"b6f00bc26ba2e1285d4172bb3d3ff9a7~184511986X,9781845119867,1850434190,9781850434191,9781435615991.pdf",0,2000-01-01 01:00:00,2016-04-03 02:51:08,390000/b6f00bc26ba2e1285d4172bb3d3ff9a7-d.jpg,,
19408358,Encyclopedia of Birds ,6-Volume Set ,,,Facts on File,2007,,Facts on File,,1152,0,English,188,,,"0816059047,9780816059041",,,,,598.03,QL672.2 .E534 2007,,,OL23104787M,,0,,,,,1,1,1,260084768,pdf,B7DD379C10ECF5B76AA39ED6BDCDEFEB,,,"b7dd379c10ecf5b76aa39ed6bdcdefeb~0816059047,9780816059041.pdf",0,2000-01-01 01:00:00,2016-04-03 02:51:08,390000/b7dd379c10ecf5b76aa39ed6bdcdefeb-d.jpg,,
19408359,"Praxishandbuch Strategischer Einkauf : Methoden, Verfahren, Arbeitsblätter für professionelles Beschaffungsmanagement",,,,Mario Büsch,2008,"1. Aufl., Nachdr",Gabler,Wiesbaden,310,0,German,,usenet,to 2012-06,"9783834904225,3834904228",,,,,,,,,,,0,,,,,,,1,4749969,pdf,d2e8532a64938ce8443bc90d372146a6,,,I:\\usenet_ger\\Praxishandbuch.Strategischer.Einkauf.[Springer].[2007].[l08450].pdf,0,2000-01-01 01:00:00,2016-04-03 02:51:08,884000/d2e8532a64938ce8443bc90d372146a6-d.jpg,,
19408360,Apollo's Lyre: Greek Music and Music Theory in Antiquity and the Middle Ages ,,Publications of the Center for the History of Music Theory and Literature,,Thomas J. Mathiesen,2000,,University of Nebraska Press,,806,0,English,64,,,"0803230796,9780803230798",,,,,780/.938,ML169 .M39 2000,,,OL42372M,,0,,,,,,,0,89395932,pdf,B8F93E443D874C70BBFF4F4823F2E354,,,"b8f93e443d874c70bbff4f4823f2e354~0803230796,9780803230798.pdf",0,2000-01-01 01:00:00,2016-04-03 02:51:08,390000/b8f93e443d874c70bbff4f4823f2e354-d.jpg,,
19408361,"Historiography: Ancient, Medieval, and Modern",,,,Ernst Breisach,1995,1,University Of Chicago Press,,495,0,English,64,,,"0226072789,9780226072784",,,,,907/.2,D13 .B686 1994,,,OL1088765M,,0,,,,1,1,1,1,28461163,pdf,B28DA57A537AF166BA2C6484C3D5DBFF,,,"b28da57a537af166ba2c6484c3d5dbff~0226072789,9780226072784.pdf",0,2000-01-01 01:00:00,2016-04-03 02:51:08,390000/b28da57a537af166ba2c6484c3d5dbff-d.jpg,,
19408362,The Blackwell Companion to Major Contemporary Social Theorists ,,Blackwell Companions to Sociology,,George Ritzer,2003,,Wiley-Blackwell,,379,0,English,,,,"9781405105958,140510595X",,,,,301/.01,HM478. B53 2003,,,OL22141078M,,0,,,,,,1,1,1673837,pdf,B31F1ABF36A18F09440E97E60E33E1F3,,,"b31f1abf36a18f09440e97e60e33e1f3~9781405105958,140510595X.pdf",0,2000-01-01 01:00:00,2016-04-03 02:51:08,390000/b31f1abf36a18f09440e97e60e33e1f3-d.jpg,,
19408363,The Sociology of Youth and Adolescence: Adolescence: Its Social Psychology ,,International Library of Sociology,,C.M. Fleming,2003,Reprint,Routledge,,272,0,English,194,,,"0415176581,9780415176583,9780203976968",,,,,,,,,OL7485297M,,0,,,,,1,,1,1280006,pdf,B33BB621F37D203A1191C2C21886EF76,,,"b33bb621f37d203a1191c2c21886ef76~0415176581,9780415176583,9780203976968.pdf",0,2000-01-01 01:00:00,2016-04-03 02:51:08,390000/b33bb621f37d203a1191c2c21886ef76-d.jpg,,
19408364,The Positive Psychology of Buddhism and Yoga: Paths to A Mature Happiness,,,,Marvin Levine,2000,,Psychology Press,,255,0,English,205,,,"0805833498,9780805833492,9780585321035",,,,,294.3/01/9,BQ4570.P76 L48 2000,,,OL6779027M,,0,,,,1,0,1,1,1574533,pdf,B36E145C78862CE3B47DD3992DE59045,,,"b36e145c78862ce3b47dd3992de59045~0805833498,9780805833492,9780585321035.pdf",0,2000-01-01 01:00:00,2016-04-03 02:51:08,390000/b36e145c78862ce3b47dd3992de59045-d.jpg,,
19408365,Psychic Self-Defense,,,,Dion Fortune,2001,Revised,Weiser Books,,224,0,English,102,,,"9781578631513,1578631513",,,,,,,,,OL8754899M,,0,,,,,1,,1,989500,pdf,B42B1ED38F2CF80C0B694DD09FDE56EF,,,"b42b1ed38f2cf80c0b694dd09fde56ef~9781578631513,1578631513.pdf",0,2000-01-01 01:00:00,2016-04-03 02:51:08,390000/b42b1ed38f2cf80c0b694dd09fde56ef-d.jpg,,
19408366,Rosicrucian Manual,,,,H. Spencer Lewis,2003,,"Kessinger Publishing, LLC",,196,0,English,,,,"0766128008,9780766128002",,,,,,,,,OL8057568M,,0,,,,,1,,1,3165149,pdf,B87C32AB6C0D816BA8D608BC8628DD5A,,,"b87c32ab6c0d816ba8d608bc8628dd5a~0766128008,9780766128002.pdf",0,2000-01-01 01:00:00,2016-04-03 02:51:08,390000/b87c32ab6c0d816ba8d608bc8628dd5a-d.jpg,,
19408367,Winning the Merger Endgame: A Playbook for Profiting From Industry Consolidation,,,,"Graeme Deans, Fritz Kroeger, Stefan Zeisel",2002,1,McGraw-Hill,,320,0,English,,,,"9780071409988,9780071428613,007140998X",,,,,658.16,HD2746.5 .D435 2003,,,OL24291219M,,0,,,,,1,,,2956339,chm,B92D391789D25BB7FF2DDC0A12A48D08,,,"b92d391789d25bb7ff2ddc0a12a48d08~9780071409988,9780071428613,007140998X.chm",0,2000-01-01 01:00:00,2016-04-03 02:51:08,390000/b92d391789d25bb7ff2ddc0a12a48d08-d.jpg,,
19408368,Kundalini : The Energy of the Depths : A Comprehensive Study Based on the Scriptures of Nondualistic Kasmir Saivism ,,Suny Series in the Shaiva Traditions of Kashmir,,Lilian Silburn,1988,,State University of New York Press,,223,0,English,,,,"0887068014,9780887068010,9780585067599",,,,,294.5/43,BL1238.56.K86 S5513 1988,,,OL2396964M,,0,,,,,1,,1,1350866,pdf,B98FDB916E10860DDE1CCE4E70E4ABCF,,,"b98fdb916e10860dde1cce4e70e4abcf~0887068014,9780887068010,9780585067599.pdf",0,2000-01-01 01:00:00,2016-04-03 02:51:08,390000/b98fdb916e10860dde1cce4e70e4abcf-d.jpg,,
19408369,The Sociology of Religion: Religious Behaviour ,,The International Library of Sociology: The Sociology of Religion,,Michael Argyle,2003,1,Routledge,,164,0,English,205,,,"0415175895,9780415175890,9780203001271",,,,,,,,,OL22553237M,,0,,,,1,0,1,1,1284196,pdf,B99BB3E262CD55CF9BDFF83665BBC7F8,,,"b99bb3e262cd55cf9bdff83665bbc7f8~0415175895,9780415175890,9780203001271.pdf",0,2000-01-01 01:00:00,2016-04-03 02:51:08,390000/b99bb3e262cd55cf9bdff83665bbc7f8-d.jpg,,
19408370,Social Democracy Inside Out: Partisanship and Labor Market Policy in Advanced Industrialized Democracies,,,,David Rueda,2008,,"Oxford University Press, USA",,264,0,English,,,,"0199216355,9780199216352,0199234051,9780199234059,9781435633865",,,,,331.1,HD5713 .R84 2007,,,OL10145787M,,0,,,,,1,1,1,1191345,pdf,B482B611780AB476D88284B5A1908935,,,"b482b611780ab476d88284b5a1908935~0199216355,9780199216352,0199234051,9780199234059,9781435633865.pdf",0,2000-01-01 01:00:00,2016-04-03 02:51:08,390000/b482b611780ab476d88284b5a1908935-d.jpg,,
19408371,Dictionary of Borges,,,,"Evelyn Fishburn, Psiche Hughes",1989,,Gerald Duckworth & Company,,279,0,English,322,,,"0715621548,9780715621547",,,,,868,PQ7797.B635 Z459 1990,,,OL1919447M,,0,,,,,,1,1,1763395,pdf,B666DDBBB8B331755C4E652500CECD69,,,"b666ddbbb8b331755c4e652500cecd69~0715621548,9780715621547.pdf",0,2000-01-01 01:00:00,2016-04-03 02:51:08,390000/b666ddbbb8b331755c4e652500cecd69-g.jpg,,
19408372,Gymnocalycium: A Collector's Guide,,,,"John Pilbeam, Bill Weightman",1995,,Aa Balkema,,230,0,English,,,,"905410192X,9789054101925",,,,,,,,,OL12808674M,,0,,,,,,,0,49242924,pdf,B6280E0997672DBA6DC1013924E9F3B7,,,"b6280e0997672dba6dc1013924e9f3b7~905410192X,9789054101925.pdf",0,2000-01-01 01:00:00,2016-04-03 02:51:08,390000/b6280e0997672dba6dc1013924e9f3b7-g.jpg,,
19408373,Evidence-Based Emergency Medicine ,,Evidence-Based Medicine,,"Brian Rowe, Eddy S. Lang, Michael D. Brown, Debra Houry, David H. Newman, Peter C. Wyer",2008,1,BMJ Books,,680,0,English,147,,,"1405161434,9781444303681,9781405161435",,,,,616.02/5,RC86.7 .E95 2008,,,OL16680116M,,0,,,,,1,,1,10061440,pdf,B06445CA742E7DA610F5EE85724AAD2B,,,"b06445ca742e7da610f5ee85724aad2b~1405161434,9781444303681,9781405161435.pdf",0,2000-01-01 01:00:00,2016-04-03 02:51:08,390000/b06445ca742e7da610f5ee85724aad2b-d.jpg,,
19408374,Combined Arms Breaching Operations ,,"U.S. Army Field Manual, FM 3-34.2",,U.S. Army,2002,,WVNavy LLC,,150,0,English,,,,,,B000WOVHBA,,,,,,,,,0,,,,,1,1,1,1831734,pdf,B6521C40CED5CDD429635C5722C86C6F,,,b6521c40ced5cdd429635c5722c86c6f~B000WOVHBA.pdf,0,2000-01-01 01:00:00,2016-04-03 02:51:08,390000/b6521c40ced5cdd429635c5722c86c6f-d.jpg,,
19408375,Trigger Points and Muscle Chains in Osteopathy ,,Complementary Medicine Thieme Hardcover,,"Philipp Richter, Eric Hebgen",2008,1,Thieme,,240,0,English,147,,,"3131450517,9783131450517",,,,,615.5/33,RZ341 .R5213 2008,,,OL17008461M,,0,,,,,1,1,0,32768732,pdf,B8581D2C077055BC51E88D3E702D85BF,,,"b8581d2c077055bc51e88d3e702d85bf~3131450517,9783131450517.pdf",0,2000-01-01 01:00:00,2016-04-03 02:51:08,390000/b8581d2c077055bc51e88d3e702d85bf-d.jpg,,
19408376,Avions de papier ,,,,Didier Boursin,2004,,DESSAIN & TOLRA,,64,0,French,245,,,"204720142X,9782047201428",,,,,,,,,,,0,,,,,1,,0,24069758,pdf,B24963ED6DBC50E3CC30A4FAAA5B22D3,,,"b24963ed6dbc50e3cc30a4faaa5b22d3~204720142X,9782047201428.pdf",0,2000-01-01 01:00:00,2016-04-03 02:51:08,390000/b24963ed6dbc50e3cc30a4faaa5b22d3-d.jpg,,
19408377,Portfolio Selection: Efficient Diversification of Investments ,,Cowles Foundation Monograph: No. 16,,Harry M. Markowitz,1968,,Yale University Press,,368,0,English,306,,,"0300013728,9780300013726",,,,,,,,,OL9403289M,,0,,,,,1,,0,7505250,pdf,BA9F07D3A6B88034394BD196045D2B8F,,,"ba9f07d3a6b88034394bd196045d2b8f~0300013728,9780300013726.pdf",0,2000-01-01 01:00:00,2016-04-03 02:51:08,390000/ba9f07d3a6b88034394bd196045d2b8f-d.jpg,,
19408378,How to Make and Use Magic Mirrors,,,,Nigel R. Clough,1977,,"Samuel Weiser, Inc.",,64,0,English,183,,,"9780850301298,0850301297,0875428312,9780875428314",,,,,133.4/3,BF1623.M57 T97 1990,,,OL1873742M,,0,,,,,,,0,3144214,pdf,BACAE6530762EB89C553BF36109713B5,,,"bacae6530762eb89c553bf36109713b5~9780850301298,0850301297,0875428312,9780875428314.pdf",0,2000-01-01 01:00:00,2016-04-03 02:51:08,390000/bacae6530762eb89c553bf36109713b5-g.jpg,,
19408379,"Science Without Bounds: A Synthesis of Science, Religion and Mysticism",,,,Arthur D'Adamo,2004,,AuthorHouse,,448,0,English,181,,,"1414054726,9781414054728",,,,,,,,,OL8454017M,,0,,,,,1,,1,1382235,pdf,BAE1D3D503DE1997D61D45DACB9173C8,,,"bae1d3d503de1997d61d45dacb9173c8~1414054726,9781414054728.pdf",0,2000-01-01 01:00:00,2016-04-03 02:51:08,390000/bae1d3d503de1997d61d45dacb9173c8-d.jpg,,
19408380,The Curry Secret: Indian Restaurant Cookery at Home ,,Right Way S.,,Kris Dhillon,2000,3rd,Elliot Right Way Books,,128,0,English,,,,"0716020548,9780716020547",,,,,,,,,OL22640680M,,0,,,,,1,1,1,1091093,pdf,BB1BBE4612094F34499F883E9798160D,,,"bb1bbe4612094f34499f883e9798160d~0716020548,9780716020547.pdf",0,2000-01-01 01:00:00,2016-04-03 02:51:08,390000/bb1bbe4612094f34499f883e9798160d-d.jpg,,
19408381,"Resurrection of the Body in Western Christianity, 200-1336",,,,Caroline Walker Bynum,1995,0,Columbia University Press,,384,0,English,64,,,"0231081278,9780231081276",,,,,,,,,,,0,,,,,1,,0,59557604,pdf,BB9BFFA16372B0FF19A0160082A72AC0,,,"bb9bffa16372b0ff19a0160082a72ac0~0231081278,9780231081276.pdf",0,2000-01-01 01:00:00,2016-04-03 02:51:08,390000/bb9bffa16372b0ff19a0160082a72ac0-d.jpg,,
19408382,A Companion to Roman Religion ,,Blackwell Companions to the Ancient World,,Jörg Rüpke,2007,,Wiley-Blackwell,,562,0,English,,,,"1405129433,9781405129435",,,,,,,,,OL22761144M,,0,,,,,,,1,5477056,pdf,BB57B3E169DD5BE6D47ABA23F5B10D88,,,"bb57b3e169dd5be6d47aba23f5b10d88~1405129433,9781405129435.pdf",0,2000-01-01 01:00:00,2016-04-03 02:51:08,390000/bb57b3e169dd5be6d47aba23f5b10d88-d.jpg,,
19408383,Suicide: A Study in Sociology ,,Routledge Classics,,Emile Durkheim,2005,2,Routledge,,427,0,English,194,,,"0415278317,9780415278317,9780203994320",,,,,,,,,OL7489728M,,0,,,,1,0,1,1,1936601,pdf,BB78B4A450C8C1FEFFA7BF5EE6056114,,,"bb78b4a450c8c1feffa7bf5ee6056114~0415278317,9780415278317,9780203994320.pdf",0,2000-01-01 01:00:00,2016-04-03 02:51:08,390000/bb78b4a450c8c1feffa7bf5ee6056114-d.jpg,,
19408384,"God and the Creative Imagination: Metaphor, Symbol and Myth in Religion and Theology",,,,Paul Avis,1999,,Routledge,,208,0,English,205,,,"0415215021,041521503X,0203165039,0203279379",,,,,,,,,OL7486875M,,0,,,,,1,1,1,1823616,pdf,BB435854028EA6E697B7BAED30571759,,,"bb435854028ea6e697b7baed30571759~0415215021,041521503X,0203165039,0203279379.pdf",0,2000-01-01 01:00:00,2016-04-03 02:51:08,390000/bb435854028ea6e697b7baed30571759-d.jpg,,
19408385,Cents Recettes De Saison: Yaourts ,,French Text,,Murielle Khamouguinoff,2008,,,,130,0,French,,,,"9782845673793,9782298008241,2845673795,2298008248",,,,,,,,,,,0,,,,,1,1,0,14626655,pdf,BBA652D39A514CA968304C3A1B1047AF,,,"bba652d39a514ca968304c3a1b1047af~9782845673793,9782298008241,2845673795,2298008248.pdf",0,2000-01-01 01:00:00,2016-04-03 02:51:08,390000/bba652d39a514ca968304c3a1b1047af-d.jpg,,
19408386,Contributions to Philosophy ,,From Enowning Studies in Continental Thought,,"Martin Heidegger, Parvis Emad Emad, Kenneth Maly",2000,First Edition,Indiana University Press,,209,0,English,195,,,"0253336066,9780253336064",,,,,,,,,OL15471879M,,0,,,,0,1,,1,68575885,pdf,BC2EC5257DB44E24DFDBA9EE7DF4B28C,,,"bc2ec5257db44e24dfdba9ee7df4b28c~0253336066,9780253336064.pdf",0,2000-01-01 01:00:00,2016-04-03 02:51:08,390000/bc2ec5257db44e24dfdba9ee7df4b28c-d.jpg,,
19408387,Architects Sketches: Dialogue and Design,,,,Kendra Schank Smith PhD in History  Theory  Criticism  and Representation,2008,,Architectural Press,,152,0,English,64,,,"0750682264,9780750682268,9780080878775",,,,,,,,,,,0,,,,,1,1,1,9021179,pdf,BC003DA89E10428EA103692DBF594978,,,"bc003da89e10428ea103692dbf594978~0750682264,9780750682268,9780080878775.pdf",0,2000-01-01 01:00:00,2016-04-03 02:51:08,390000/bc003da89e10428ea103692dbf594978-d.jpg,,
19408388,Her Secret Weapon. A Year of Loving Dangerously ,,Silhouette Intimate Moments 1034,,Beverly Barton,2000,,Silhouette,,256,0,English,215,,,"0373271042,9780373271047",,,,,,,,,OL9505216M,,0,,,,,1,,,324090,lit,BC8EA699DCEC6CB6AEB34C46E57076DE,,,"bc8ea699dcec6cb6aeb34c46e57076de~0373271042,9780373271047.lit",0,2000-01-01 01:00:00,2016-04-03 02:51:08,390000/bc8ea699dcec6cb6aeb34c46e57076de-d.jpg,,
19408389,"Remember, Be Here Now",,,,Ram Dass,1978,,Hanuman Foundation,,416,0,English,,,,"0517543052,9780517543054",,,,,,,,,OL22971785M,,0,,,,,1,1,0,41153354,pdf,BC34CD8F0F19197B9AC025C222685AB0,,,"bc34cd8f0f19197b9ac025c222685ab0~0517543052,9780517543054.pdf",0,2000-01-01 01:00:00,2016-04-03 02:51:08,390000/bc34cd8f0f19197b9ac025c222685ab0-d.jpg,,
19408390,Writing Systems: An Introduction to Their Linguistic Analysis ,,Cambridge Textbooks in Linguistics,,Florian Coulmas,2002,,Cambridge University Press,,290,0,English,314,,,"0521782171,9780521782173,9780511077777",,,,,411,P211 .C669 2003,,,OL3702247M,,0,,,,0,0,1,1,6171594,pdf,BC03255262292BC9CEEA84A8A23D4DCC,,,"bc03255262292bc9ceea84a8a23d4dcc~0521782171,9780521782173,9780511077777.pdf",0,2000-01-01 01:00:00,2016-04-03 02:51:08,390000/bc03255262292bc9ceea84a8a23d4dcc-d.jpg,,
19408391,Transforming Technology: A Critical Theory Revisited,,,,Andrew Feenberg,2002,2,"Oxford University Press, USA",,232,0,English,,,,"0195146158,9780195146158,9780198033400",,,,,,,,,OL7389735M,,0,,,,,1,1,1,3792161,pdf,BCAFBFB3A9C31260127996AB4D772047,,,"bcafbfb3a9c31260127996ab4d772047~0195146158,9780195146158,9780198033400.pdf",0,2000-01-01 01:00:00,2016-04-03 02:51:08,390000/bcafbfb3a9c31260127996ab4d772047-d.jpg,,
19408392,Lancaster - A Bombing Legend ,,Osprey classic aircraft,,"Nick Radell, Mike Vines",1994,,Reed Mitchel Beazley,,128,0,English,,,,1851529691,,,,,,,,,OL11950560M,,0,,,,,,,0,9521223,pdf,BCC015993B6A7DE0B74E1BC0DCF06ACE,,,bcc015993b6a7de0b74e1bc0dcf06ace~1851529691.pdf,0,2000-01-01 01:00:00,2016-04-03 02:51:08,390000/bcc015993b6a7de0b74e1bc0dcf06ace-d.jpg,,
19408393,Orthopaedic Physical Therapy,,,,"Robert A. Donatelli PhD  PT  OCS, Michael J. Wooden MS  PT  OCS",2009,4,Churchill Livingstone,,744,0,English,264,,,"0443069425,9780443069420",,,,,,,,,,,0,,,,,1,,1,98024804,pdf,BCD895891FFD9DA150D81C6C63F45FC4,,,"bcd895891ffd9da150d81c6c63f45fc4~0443069425,9780443069420.pdf",0,2000-01-01 01:00:00,2016-04-03 02:51:08,390000/bcd895891ffd9da150d81c6c63f45fc4-d.jpg,,
19408394,Trainer Basics ,,ASTD Training Basics Series,,George M. Piskurich,2003,,ASTD Press,,132,0,English,,,,"1562863509,9781562863500",,,,,,,,,OL8641198M,,0,,,,,,,,412620,chm,BCFF5AE69AE2AB28F5E55F6B5A8F8FA2,,,"bcff5ae69ae2ab28f5e55f6b5a8f8fa2~1562863509,9781562863500.chm",0,2000-01-01 01:00:00,2016-04-03 02:51:08,390000/bcff5ae69ae2ab28f5e55f6b5a8f8fa2-d.jpg,,
19408395,GURPS Age of Napoleon,,,,Nicholas Caldwell,2003,,Steve Jackson Games,,128,0,English,,,,"1556344511,9781556344510",,,,,,,,,OL8594941M,,0,,,,,1,,1,632080,pdf,BD079FDCD63BA77C6EBB2B97B47F6DCC,,,"bd079fdcd63ba77c6ebb2b97b47f6dcc~1556344511,9781556344510.pdf",0,2000-01-01 01:00:00,2016-04-03 02:51:08,390000/bd079fdcd63ba77c6ebb2b97b47f6dcc-d.jpg,,
19408396,Essential Anesthesia: From Science to Practice ,,Essential Medical Texts for Students and Trainees,,"T. Y. Euliano, J. S. Gravenstein",2005,1,Cambridge University Press,,264,0,English,181,,,"0521536006,9780521536004",,,,,617.9/6,RD81 .E83 2004,,Cn1_2UwilycC,OL18640829M,,0,,,,1,0,1,1,3310054,pdf,BD74397940E0F671A704C32E6090B668,,,"bd74397940e0f671a704c32e6090b668~0521536006,9780521536004.pdf",0,2000-01-01 01:00:00,2016-04-03 02:51:08,390000/bd74397940e0f671a704c32e6090b668-d.jpg,,
19408397,"Value, Capital and Rent ",,Reprints of Economic Classics,,Knut Wicksell,1970,Facsimile of 1954 ed,A. M. Kelley,,180,0,English,,,,"0678006520,9780678006528",,,,,330.1,HB201 .W6313 1970,,,OL5632540M,,0,,,,,,1,1,8465650,pdf,BDBB5EB30B5D62DACC34FDDFA0F2EDE5,,,"bdbb5eb30b5d62dacc34fddfa0f2ede5~0678006520,9780678006528.pdf",0,2000-01-01 01:00:00,2016-04-03 02:51:08,390000/bdbb5eb30b5d62dacc34fddfa0f2ede5-g.jpg,,
19408398,H. M. S. Surprise ,Vol. Book 3,Aubrey/Maturin Novels,,Patrick O'Brian,1994,,W. W. Norton & Company,,384,0,English,,,,"0393037037,9780393037036",,,,,,,,,OL7451409M,,0,,,,,1,,1,1322983,pdf,BDC67F2E1E355E12E908EE8973CD2355,,,"bdc67f2e1e355e12e908ee8973cd2355~0393037037,9780393037036.pdf",0,2000-01-01 01:00:00,2016-04-03 02:51:08,390000/bdc67f2e1e355e12e908ee8973cd2355-d.jpg,,
19408399,Jason the Rescuer: Infinity City,Book 2,,,Douglas Kendall,2001,,IUniverse,,248,0,English,212,,,0595169821,,,,,,,,,,,0,,,,,,,1,351585,pdf,BE9B424FBE11CD1EB413207704CADB70,,,be9b424fbe11cd1eb413207704cadb70~0595169821.pdf,0,2000-01-01 01:00:00,2016-04-03 02:51:08,390000/be9b424fbe11cd1eb413207704cadb70-d.jpg,,
19408400,"Nietzsche, Psychology, and First Philosophy",,,,Robert B. Pippin,2010,,The University of Chicago Press,,153,0,English,,,0,"0226669750, 9780226669755",,,,,,,,,,,0,,,,,,,1,9824568,pdf,ff56f5dbe2d19c995872ff394cc1c881,,,"Nietzsche, Psychology, and First Philosophy",0,2000-01-01 01:00:00,2016-04-03 02:51:08,882000/ff56f5dbe2d19c995872ff394cc1c881-d.jpg,,
19408401,Practical Bishop Endings,,,,Mednis,1990,,Chess Enterprises,,102,0,English,,,,"0945470045,9780945470045",,,,,,,,,OL11567610M,,0,,,,,,,1,4649073,pdf,BE78F504706969D37ED43499D1034672,,,"be78f504706969d37ed43499d1034672~0945470045,9780945470045.pdf",0,2000-01-01 01:00:00,2016-04-03 02:51:08,390000/be78f504706969d37ed43499d1034672-g.jpg,,
19408402,"Guide to Analysis of DNA Microarray Data, ",,,,Steen Knudsen,2004,2,Wiley-Liss,,192,0,English,86,,,0471656046,,,,,,,,,,,0,,,,,,1,1,9294181,pdf,BE991455A1C8985AB29DF4062DD8CEBD,,,be991455a1c8985ab29df4062dd8cebd~0471656046.pdf,0,2000-01-01 01:00:00,2016-04-03 02:51:08,390000/be991455a1c8985ab29df4062dd8cebd-d.jpg,,
19408403,The Dalai Lamas on Tantra,,,,"Glenn H. Mulliny Hopkins, Glenn H. Mulliny Hopkins",2007,,Snow Lion Publications,,352,0,English,,,,"155939269X,9781559392693",,,,,,,,,OL15986187M,,0,,,,,1,,1,2261921,pdf,BEA97E0619F2C127090B38D2FC847B4A,,,"bea97e0619f2c127090b38d2fc847b4a~155939269X,9781559392693.pdf",0,2000-01-01 01:00:00,2016-04-03 02:51:08,390000/bea97e0619f2c127090b38d2fc847b4a-d.jpg,,
19408404,Sociology of Art: A Reader,,,,Jeremy Tanner,2003,1,Routledge,,288,0,English,194,,,"0415308836,9780415308830,0203633644,9780203633649,9780203638019",,,,,306.47,,,,OL22143541M,,0,,,,,1,1,1,5142658,pdf,BEE34F7BFB95AD9D00F633A76AEFF1ED,,,"bee34f7bfb95ad9d00f633a76aeff1ed~0415308836,9780415308830,0203633644,9780203633649,9780203638019.pdf",0,2000-01-01 01:00:00,2016-04-03 02:51:08,390000/bee34f7bfb95ad9d00f633a76aeff1ed-d.jpg,,
19408405,"Post-Marxism Versus Cultural Studies: Theory, Politics and Intervention ",,Taking on the Political,,Paul Bowman,2007,,Edinburgh University Press,,248,0,English,,,,"0748617620,9780748617623,9780748628797",,,,,,,,,OL22752748M,,0,,,,,1,1,1,949701,pdf,BF9D1815D7A3420A0284F01E935305B9,,,"bf9d1815d7a3420a0284f01e935305b9~0748617620,9780748617623,9780748628797.pdf",0,2000-01-01 01:00:00,2016-04-03 02:51:08,390000/bf9d1815d7a3420a0284f01e935305b9-d.jpg,,
19408406,Zen Miracles: Finding Peace in an Insane World,,,,Brenda Shoshanna,2002,1st,Wiley,,256,0,English,,,,"0471414816,9780471414810,9780471263401",,,,,,,,,OL24267704M,,0,,,,,1,1,1,691944,pdf,BFC94C41F1EE0C9F15EC2AE454337DA3,,,"bfc94c41f1ee0c9f15ec2ae454337da3~0471414816,9780471414810,9780471263401.pdf",0,2000-01-01 01:00:00,2016-04-03 02:51:08,390000/bfc94c41f1ee0c9f15ec2ae454337da3-d.jpg,,
19408407,Alice-Story of Samson ,,Alice in Bibleland Storybooks,,Davidson,1997,,C.R. Gibson Company,,34,0,English,264,,,"0766717321,9780766717329",,,,,222.3209,,,,OL10938418M,,0,,,,,1,,0,4228516,pdf,BFD9B46CF5AADE2B65AC208DF80B1415,,,"bfd9b46cf5aade2b65ac208df80b1415~0766717321,9780766717329.pdf",0,2000-01-01 01:00:00,2016-04-03 02:51:08,390000/bfd9b46cf5aade2b65ac208df80b1415-d.jpg,,
19408408,Copula Methods in Finance ,,The Wiley Finance Series,,"Umberto Cherubini, Elisa Luciano, Walter Vecchiato",2004,1,Wiley,,310,0,English,305,,,"0470863447,9780470863459,9780470863442",,,,,,,,,OL24281148M,,0,,,,,1,,1,4832521,pdf,C1DCF3CEF24D994B5B1865A522D4CF80,,,"c1dcf3cef24d994b5b1865a522d4cf80~0470863447,9780470863459,9780470863442.pdf",0,2000-01-01 01:00:00,2016-04-03 02:51:08,390000/c1dcf3cef24d994b5b1865a522d4cf80-d.jpg,,
19408409,The Study of Religion Under the Impact of Fascism ,,Numen Book,,Horst Junginger,2007,,Brill Academic Publishers,,663,0,English,205,,,"9004163263,9789004163263",,,,,200.71/04,BL41 .S83 2008,,,OL12799376M,,0,,,,,,,1,7852265,pdf,C2C22729A71AAAFE896A26BBCFF9EDC9,,,"c2c22729a71aaafe896a26bbcff9edc9~9004163263,9789004163263.pdf",0,2000-01-01 01:00:00,2016-04-03 02:51:08,390000/c2c22729a71aaafe896a26bbcff9edc9-d.jpg,,
19408410,"The Founding of the Dutch Republic: War, Finance, and Politics in Holland, 1572-1588",,,,James Tracy,2008,,"Oxford University Press, USA",,320,0,English,305,,,"0199209111,9780199209118,9781435631038",,,,,949.2/03,DH186.5 .T73 2008,,,OL16692597M,,0,,,,,,1,1,4076159,pdf,C4C0D6042F884C222CDE2717E1397402,,,"c4c0d6042f884c222cde2717e1397402~0199209111,9780199209118,9781435631038.pdf",0,2000-01-01 01:00:00,2016-04-03 02:51:08,390000/c4c0d6042f884c222cde2717e1397402-d.jpg,,
19408411,A Primer on Wavelets and Their Scientific Applications ,,Studies in Advanced Mathematics,,James S. Walker,1999,1,CRC Press,,168,0,English,118,,,"0849382769,9780849382765",,,,,,,,,OL8261293M,,0,,,,,1,1,1,3904630,pdf,C5B5758A9F22D94C11EF9F01933B0FBA,,,"c5b5758a9f22d94c11ef9f01933b0fba~0849382769,9780849382765.pdf",0,2000-01-01 01:00:00,2016-04-03 02:51:08,390000/c5b5758a9f22d94c11ef9f01933b0fba-d.jpg,,
19408412,"The Middle Sort of People in Provincial England, 1600-1750",,,,H. R. French,2007,,"Oxford University Press, USA",,320,0,English,,,,"0199296383,9780199296385,9781435622968",,,,,305.5/5094209032,HT690.G7 F74 2007,,,OL10146576M,,0,,,,,1,1,1,2443501,pdf,C5C5FC97B63EB399F45604F51181232A,,,"c5c5fc97b63eb399f45604f51181232a~0199296383,9780199296385,9781435622968.pdf",0,2000-01-01 01:00:00,2016-04-03 02:51:08,390000/c5c5fc97b63eb399f45604f51181232a-d.jpg,,
19408413,Jane's Battles with the Luftwaffe: The Bomber Campaign Against Germany 1942-45,,,,"Theo Boiten, Martin W. Bowman",2002,First Edition,Collins Reference,,240,0,English,67,,,"0007113633,9780007113637",,,,,940.54/4941,D786 .B57 2001,,,OL3579619M,,0,,,,,,,0,70879958,pdf,C6B77A77560291594A4942FC3CFD29DA,,,"c6b77a77560291594a4942fc3cfd29da~0007113633,9780007113637.pdf",0,2000-01-01 01:00:00,2016-04-03 02:51:08,390000/c6b77a77560291594a4942fc3cfd29da-d.jpg,,
19408414,Macleod's Clinical Examination: With STUDENT CONSULT Access,,,,"Graham Douglas BSc(Hons)  FRCP, Fiona Nicol BSc(Hons)  MB  BS  FRCGP  FRCPE, Colin Robertson BA(Hons)  MB  ChB  FRCPE  FRCS(Ed)",2009,12,Churchill Livingstone,,488,0,English,161,,,"0443068488,9780443068485,0443068453,9780443068454",,,,,616.07/54,RC76 .M215 2009,,,OL22515231M,,0,,,,,,,,175544729,chm,C7A69AA6AC5F917D877C0C981C58EB1C,,,"c7a69aa6ac5f917d877c0c981c58eb1c~0443068488,9780443068485,0443068453,9780443068454.chm",0,2000-01-01 01:00:00,2016-04-03 02:51:08,390000/c7a69aa6ac5f917d877c0c981c58eb1c-d.jpg,,
19408415,The Jewish State,,,,Theodor Herzl,1989,,Dover Publications,,160,0,English,,,,"0486258491,9780486258492",,,,,956.94/001,DS149 .H514 1988,,,OL2043528M,,0,,,,,1,,1,296231,pdf,C8CA87132920F80054C58DEB38F49370,,,"c8ca87132920f80054c58deb38f49370~0486258491,9780486258492.pdf",0,2000-01-01 01:00:00,2016-04-03 02:51:08,390000/c8ca87132920f80054c58deb38f49370-d.jpg,,
19408416,Cinema 1: The Movement-Image,,,,Gilles Deleuze,1986,1,Univ Of Minnesota Press,,264,0,English,60,,0,"0816614008,9780816614004",,,,,791.43/01,PN1995 .D39313 1986,,,,,0,,,,,1,,0,43389893,pdf,C8D91282872EA422E1E0D6E5C404558E,b1123bb45d263bfdc60c40ccfc4e6f62,no,"c8d91282872ea422e1e0d6e5c404558e~0816614008,9780816614004.pdf",0,2000-01-01 01:00:00,2016-04-03 02:51:08,390000/c8d91282872ea422e1e0d6e5c404558e-d.jpg,,
19408417,Mind Control in the U. S.,,,,Steven Jacobson,1985,,Critique Pub,,71,0,English,,,,"0911485007,9780911485004",,,,,133,BF1999 .J275 1985,,,OL2557113M,,0,,,,,1,,1,615017,pdf,C9DD7EAF2F342B03040CA41E416BFD5A,,,"c9dd7eaf2f342b03040ca41e416bfd5a~0911485007,9780911485004.pdf",0,2000-01-01 01:00:00,2016-04-03 02:51:08,390000/c9dd7eaf2f342b03040ca41e416bfd5a-g.jpg,,
19408418,Witch Down the Street Carebears No. 3 ,,Tale from the Care Bears,,"Stephanie Morgan, Tom Cooke",1983,,Parker Brothers,,43,0,English,,,,"0910313024,9780910313025",,,,,,,,,OL3502028M,,0,,,,,,,0,4680200,pdf,C98ED18EF7EB5F13F7BD638C77F669A6,,,"c98ed18ef7eb5f13f7bd638c77f669a6~0910313024,9780910313025.pdf",0,2000-01-01 01:00:00,2016-04-03 02:51:08,390000/c98ed18ef7eb5f13f7bd638c77f669a6-d.jpg,,
19408419,A Companion to American Military History,2 volume Set ,Blackwell Companions to American History,,James C. Bradford,2009,1,Wiley-Blackwell,,1136,0,English,,,,"1405161493,9781405161497",,,,,355.00973,E181 .C735 2010,,,OL23180750M,,0,,,,,1,,1,5018994,pdf,C439B4CF5C00C26DF4A7F3D8A5A3B70A,,,"c439b4cf5c00c26df4a7f3d8a5a3b70a~1405161493,9781405161497.pdf",0,2000-01-01 01:00:00,2016-04-03 02:51:08,390000/c439b4cf5c00c26df4a7f3d8a5a3b70a-d.jpg,,
19408420,"The Harriet Lane Handbook: Mobile Medicine Series, Expert Consult: Online and Print",,,,"Johns Hopkins Hospital, Jason W. Custer, Rachel E. Rau, Carlton K. Lee PharmD  MPH",2008,18,Mosby,,1184,0,English,,,,"9780323053037,0323053033",,,,,618.92,RJ48 .H35 2009,,,OL10462930M,,0,,,,,1,,1,35800789,chm,C489EA4C362AC1A2C45B3B05E7D10609,,,"c489ea4c362ac1a2c45b3b05e7d10609~9780323053037,0323053033.chm",0,2000-01-01 01:00:00,2016-04-03 02:51:08,390000/c489ea4c362ac1a2c45b3b05e7d10609-d.jpg,,
19408421,Aircraft Modelling Step By Step: 1/48 & 1/72 Models,,,,J. M. Villalba,2000,,T+1 Publications,,48,0,English,64,,,8460703207,,,,,,,,,OL13274313M,,0,,,,,1,,0,20306824,pdf,C552F4DCEBD287CDDF7C627AFE277BF6,,,c552f4dcebd287cddf7c627afe277bf6~8460703207.pdf,0,2000-01-01 01:00:00,2016-04-03 02:51:08,390000/c552f4dcebd287cddf7c627afe277bf6-g.jpg,,
19408422,The Blackwell Companion to the Economics of Housing: The Housing Wealth of Nations ,,Blackwell Companions to Contemporary Economics,,"Susan J. Smith, Beverley A. Searle",2010,,Wiley-Blackwell,,649,0,English,,,,"1405192151,9781405192156,1444317989,9781444317985",,,,,333.33/8,HD7287 .B54 2010,,,OL24054529M,,0,,,,0,0,,1,2635458,pdf,C607A9E32FCBFEE2B9364E3F51EC95EF,,,"c607a9e32fcbfee2b9364e3f51ec95ef~1405192151,9781405192156,1444317989,9781444317985.pdf",0,2000-01-01 01:00:00,2016-04-03 02:51:08,390000/c607a9e32fcbfee2b9364e3f51ec95ef-d.jpg,,
19408423,A Companion to Contemporary Political Philosophy,2 volume Set ,Blackwell Companions to Philosophy,,"Robert E. Goodin, Philip Pettit, Thomas W. Pogge",2007,2,Wiley-Blackwell,,953,0,English,,,,"1405136537,9781405136532,9780470766071",,,,,320.01,JA71 .C565 2007,,,OL17850554M,,0,,,,1,0,,1,3782311,pdf,C618E92DB260C0AF4F4963A236C2B7C2,,,"c618e92db260c0af4f4963a236c2b7c2~1405136537,9781405136532,9780470766071.pdf",0,2000-01-01 01:00:00,2016-04-03 02:51:08,390000/c618e92db260c0af4f4963a236c2b7c2-d.jpg,,
19408424,Reoperative Plastic Surgery of the Breast,,,,Kenneth C. Shestak,2005,1,Lippincott Williams & Wilkins,,566,0,English,175,,,"9780781722377,0781722373",,,,,618.1/9059,RD539.8 .S342 2006,,,OL3408058M,,0,,,,,1,,,63389328,chm,C1973B9B9247489F6324DCC85F65B5F0,,,"c1973b9b9247489f6324dcc85f65b5f0~9780781722377,0781722373.chm",0,2000-01-01 01:00:00,2016-04-03 02:51:08,390000/c1973b9b9247489f6324dcc85f65b5f0-d.jpg,,
19408425,A History of Horrors: The Rise and Fall of the House of Hammer,,,,Denis Meikle,2008,Revised,"The Scarecrow Press, Inc.",,312,0,English,64,,,"0810863545,9780810863545",,,,,791.43/6164,PN1999.H3 M45 2009,,,OL17010504M,,0,,,,,,,1,9756877,pdf,C6004D06A1BA0BB942088C6A412FF67A,,,"c6004d06a1ba0bb942088c6a412ff67a~0810863545,9780810863545.pdf",0,2000-01-01 01:00:00,2016-04-03 02:51:08,390000/c6004d06a1ba0bb942088c6a412ff67a-d.jpg,,
19408426,The Dynamics of Language Use: Functional And Contrastive Perspectives ,,Pragmatics and Beyond. New Series,,"Maria A. Gomez-gonzalez, Susana Ma Doval Suarez, International Contrastive Linguistics Co., Christopher S. Butler",2005,,John Benjamins Publishing Co,,413,0,English,314,,,"9027253838,9789027253835,9789027294180",,,,,410,P134 .I514 2005,,,OL3426329M,,0,,,,,1,,1,40701328,pdf,C7254E8C5EC60AE7B32CA2F261E176A2,,,"c7254e8c5ec60ae7b32ca2f261e176a2~9027253838,9789027253835,9789027294180.pdf",0,2000-01-01 01:00:00,2016-04-03 02:51:08,390000/c7254e8c5ec60ae7b32ca2f261e176a2-d.jpg,,
19408427,Cosmic Trigger I: Final Secret of the Illuminati,,,,"Robert Anton Wilson, Timothy Leary, David Cherubim",2000,,New Falcon Publications,,306,0,English,,,0,"1561840033,9781561840038",,,,,,,,,,,0,,,,,1,,0,53006582,pdf,C20275D67B4F0D36724E87C03927A13D,,,"c20275d67b4f0d36724e87c03927a13d~9780671816698,0671816691.pdf",0,2000-01-01 01:00:00,2016-04-03 02:51:08,390000/c20275d67b4f0d36724e87c03927a13d-d.jpg,,
19408428,"Careers in Investment Banking,2005 Edition: WetFeet Insider Guide",,,,WetFeet,2005,,"WetFeet, Inc.",,136,0,English,305,,,"1582074321,9781582074320",,,,,,,,,OL18216738M,,0,,,,,1,,1,673166,pdf,C21451B9B2A32CA4D5500CA280A2900F,,,"c21451b9b2a32ca4d5500ca280a2900f~1582074321,9781582074320.pdf",0,2000-01-01 01:00:00,2016-04-03 02:51:08,390000/c21451b9b2a32ca4d5500ca280a2900f-d.jpg,,
19408429,Tantric Treasures: Three Collections of Mystical Verse from Buddhist India,,,,Roger R. Jackson,2004,,"Oxford University Press, USA",,182,0,English,205,,,"0195166418,9780195166415,019516640X,9780195166408,9781423720294",,,,,,,,,OL3679840M,,0,,,,0,0,1,1,1972139,pdf,C89671AA4C0FCAAA095D8415D1BE61C6,,,"c89671aa4c0fcaaa095d8415d1be61c6~0195166418,9780195166415,019516640X,9780195166408,9781423720294.pdf",0,2000-01-01 01:00:00,2016-04-03 02:51:08,390000/c89671aa4c0fcaaa095d8415d1be61c6-d.jpg,,
19408430,The New Art History: A Critical Introduction,,,,Jonathan Harris,2001,1,Routledge,,320,0,English,64,,,"9780415230070,0415230071,041523008X,9780415230087,9780203466780",,,,,,,,,OL7487522M,,0,,,,,1,1,1,1735457,pdf,C217976F4B5EAF0B91008F2967C70D38,,,"c217976f4b5eaf0b91008f2967c70d38~9780415230070,0415230071,041523008X,9780415230087,9780203466780.pdf",0,2000-01-01 01:00:00,2016-04-03 02:51:08,390000/c217976f4b5eaf0b91008f2967c70d38-d.jpg,,
19408431,U-boat War Patrol: The Hidden Photographic Diary of U-564,,,,Lawrence Paterson,2006,,US Naval Institute Press,,206,0,English,63,,,"1591148901,9781591148906",,,,,,,,,OL8852442M,,0,,,,,,1,0,103435018,pdf,C604266C99D030191EE45F2A5329CD16,,,"c604266c99d030191ee45f2a5329cd16~1591148901,9781591148906.pdf",0,2000-01-01 01:00:00,2016-04-03 02:51:08,390000/c604266c99d030191ee45f2a5329cd16-d.jpg,,
19408432,Mikoyan-Gurevich MiG-15: The Soviet Union's Long-Lived Korean War Fighter ,,Aerofax,,Yefim Gordon,2001,1st,Aerofax / Midland Counties Publications Ltd.,,160,0,English,215,,,"1857801059,9781857801057",,,,,,,,,OL18731467M,,0,,,,,1,1,1,144007405,pdf,C658708ABA862B7D886165F63803D5CE,,,"c658708aba862b7d886165f63803d5ce~1857801059,9781857801057.pdf",0,2000-01-01 01:00:00,2016-04-03 02:51:08,390000/c658708aba862b7d886165f63803d5ce-d.jpg,,
19408433,Globalization and National Security,,,,Jonathan Kirshner,2006,1,Routledge,,368,0,English,,,,"0415955114,9780415955119,9780203943762",,,,,,,,,OL24266958M,,0,,,,,1,,1,6248593,pdf,C863001F7D3FE267346C41DAA6E057FF,,,"c863001f7d3fe267346c41daa6e057ff~0415955114,9780415955119,9780203943762.pdf",0,2000-01-01 01:00:00,2016-04-03 02:51:08,390000/c863001f7d3fe267346c41daa6e057ff-d.jpg,,
19408434,Ace Your Case! Consulting Interviews ,,WetFeet Insider Guide,,WetFeet,2005,2nd,"WetFeet, Inc.",,118,0,English,305,,,"1582072477,9781582072470,9781582072760",,,,,,,,,OL22066124M,,0,,,,,1,,1,881916,pdf,C898811BF774BDE010D745674EEBB30B,,,"c898811bf774bde010d745674eebb30b~1582072477,9781582072470,9781582072760.pdf",0,2000-01-01 01:00:00,2016-04-03 02:51:08,390000/c898811bf774bde010d745674eebb30b-d.jpg,,
19408435,No Limit Hold 'em: Theory and Practice,,,,"David Sklansky, Ed Miller",2006,,Two Plus Two Publishing LLC,,310,0,English,,,,"188068537X,9781880685372",,,,,,,,,OL8679851M,,0,,,,,1,,0,22573960,pdf,CA1C9329158157A279C63E2709E1C67F,,,"ca1c9329158157a279c63e2709e1c67f~188068537X,9781880685372.pdf",0,2000-01-01 01:00:00,2016-04-03 02:51:08,390000/ca1c9329158157a279c63e2709e1c67f-d.jpg,,
19408436,A Glossary of Historical Linguistics ,,Glossaries in Linguistics,,"Lyle Campbell, Mauricio J. Mixco",2007,,Edinburgh University Press,,160,0,English,64,,,"9780748623785,9780748623792,9780748630196,0748623787,0748623795",,,,,417.703,P140 .C359 2007,,,OL21353267M,,0,,,,,1,1,1,851876,pdf,CA12B2A2B7031808E19C6B4DC6872F53,,,"ca12b2a2b7031808e19c6b4dc6872f53~9780748623785,9780748623792,9780748630196,0748623787,0748623795.pdf",0,2000-01-01 01:00:00,2016-04-03 02:51:08,390000/ca12b2a2b7031808e19c6b4dc6872f53-d.jpg,,
19408437,Wisdom Nectar: Dudjom Rinpoche's Heart Advice ,,Tsadra Foundation,,Ron Garry,2005,,Snow Lion Publications,,352,0,English,,,,"155939224X,9781559392242",,,,,,,,,OL15985489M,,0,,,,,1,1,1,3426218,pdf,CA17B32D9AA94A213F481C4B80A3982C,,,"ca17b32d9aa94a213f481c4b80a3982c~155939224X,9781559392242.pdf",0,2000-01-01 01:00:00,2016-04-03 02:51:08,390000/ca17b32d9aa94a213f481c4b80a3982c-d.jpg,,
19408438,"Denying Existence: The Logic, Epistemology and Pragmatics of Negative Existentials and Fictional Discourse ",,Synthese Library,,A. Chakrabarti,1997,1,Springer,,258,0,English,130,,,"0792343883,9780792343882",,,,,165,BC199.N4 C43 1997,,,OL1012102M,,300,,,,0,1,,1,2875871,djvu,CAE207ED38F05EC7A93ABDD1B0EB50B7,,,"cae207ed38f05ec7a93abdd1b0eb50b7~0792343883,9780792343882.djvu",0,2000-01-01 01:00:00,2016-04-03 02:51:08,390000/cae207ed38f05ec7a93abdd1b0eb50b7-d.jpg,,
19408439,The Complete Poems: Anne Sexton,,,,"Anne Sexton, Maxine Kumin",1999,,Mariner Books,,656,0,English,201,,,"0395957761,9780395957769",,,,,821 S518c,,,,OL22595778M,,0,,,,,1,1,1,6081892,pdf,CBAA482B11679424812F203E031BC943,,,"cbaa482b11679424812f203e031bc943~0395957761,9780395957769.pdf",0,2000-01-01 01:00:00,2016-04-03 02:51:08,390000/cbaa482b11679424812f203e031bc943-d.jpg,,
19408440,"Android Tipps, Tricks, Apps & Hacks ; so holen Sie mehr aus Ihrem Smartphone heraus",,,,,,,Hannover eMedia GmbH,,178,0,German,,usenet,to 2012-06,,,,,,,,,,,,0,,,,,,,1,31966006,pdf,2551ece7c1b56324845bed1e92178e68,,,"I:\\usenet_ger\\Android-Tipps, Tricks, Apps & Hacks 2012 - DarKneSS.pdf",0,2000-01-01 01:00:00,2016-04-03 02:51:08,882000/2551ece7c1b56324845bed1e92178e68-g.jpg,,
19408441,Burial and Ancient Society: The Rise of the Greek City-State ,,New Studies in Archaeology,,Ian Morris,1990,,Cambridge University Press,,276,0,English,64,,,"0521387388,9780521387385",,,,,,,,,OL7739008M,,0,,,,,1,,0,16594719,pdf,CC40CA8CD56F95F1439D874FFD4D3139,,,"cc40ca8cd56f95f1439d874ffd4d3139~0521387388,9780521387385.pdf",0,2000-01-01 01:00:00,2016-04-03 02:51:08,390000/cc40ca8cd56f95f1439d874ffd4d3139-d.jpg,,
19408442,Contemporary Political Philosophy: An Anthology ,,Blackwell Philosophy Anthologies,,"Philip Pettit, Robert E. Goodin",1997,,Wiley,,672,0,English,195,,,"9781557868411,1557868417",,,,,320,JA71 .C578 1997,,,OL8602530M,,0,,,,,1,,0,51610678,pdf,CCACDD422415B7DD9FC72FB49F22CF4A,,,"ccacdd422415b7dd9fc72fb49f22cf4a~9781557868411,1557868417.pdf",0,2000-01-01 01:00:00,2016-04-03 02:51:08,390000/ccacdd422415b7dd9fc72fb49f22cf4a-g.jpg,,
19408443,Inside and Outside the Law ,,European Association of Social Anthropologists,,Olivia Harris,1996,1,Routledge,,240,0,English,313,,,"0415129281,9780415129282",,,,,340/.115,K487.A57 I57 1996,,,OL7483569M,,0,,,,,1,1,1,1158947,pdf,CD69755CAE09B2C29D3DD0D645DDF0C6,,,"cd69755cae09b2c29d3dd0d645ddf0c6~0415129281,9780415129282.pdf",0,2000-01-01 01:00:00,2016-04-03 02:51:08,390000/cd69755cae09b2c29d3dd0d645ddf0c6-d.jpg,,
19408444,Pan Am: An Airline and Its Aircraft,,,,R.E.G. Davies,1987,1st,Crown,,96,0,English,64,,,"0517566397,9780517566398",,,,,387.7/065/73,HE9803.P36 D38 1987,,,OL2377208M,,0,,,,1,1,1,1,77510821,pdf,CDC8C2DE3E38A152AA4C874BE6D11A55,,,"cdc8c2de3e38a152aa4c874be6d11a55~0517566397,9780517566398.pdf",0,2000-01-01 01:00:00,2016-04-03 02:51:08,390000/cdc8c2de3e38a152aa4c874be6d11a55-g.jpg,,
19408445,Finance: A Fine Art,,,,Michel Fleuriet,2003,,Wiley,,299,0,English,305,,,"0470847670,9780470847671",,,,,330,HG4521 .F61424 2003,,,OL3703339M,,0,,,,,,1,1,1085578,pdf,CDEADE71EEA3C2FA81DF04DBEDD5A852,,,"cdeade71eea3c2fa81df04dbedd5a852~0470847670,9780470847671.pdf",0,2000-01-01 01:00:00,2016-04-03 02:51:08,390000/cdeade71eea3c2fa81df04dbedd5a852-d.jpg,,
19408446,Master and Man,,,,"Leo Tolstoy, George Gibian, S. Rapoport, John C. Kenworthy",1995,,Penguin (Non-Classics),,96,0,English,,,,"9780146000898,9781406952919,0146000897,1406952915",,,,,,,,,OL11685915M,,0,,,,,1,,,222193,lit,CE9A141E6C4588219D50975ECA26B110,,,"ce9a141e6c4588219d50975eca26b110~9780146000898,9781406952919,0146000897,1406952915.lit",0,2000-01-01 01:00:00,2016-04-03 02:51:08,390000/CE9A141E6C4588219D50975ECA26B110-g.jpg,,
19408447,Deutsche Uniformen 1939 - 1945 in Farbe.,,,,"Jean de Lagarde, Karl Veltze",1998,,Pietsch-Verlag Paul Pietsch Verlage GmbH + Co.,,127,0,German,,,,"3613018691,9783613018693",,,,,,,,,OL12824894M,,0,,,,,1,,0,30944986,pdf,CE95E4C329743C63A78E5C98D82F441B,,,"ce95e4c329743c63a78e5c98d82f441b~3613018691,9783613018693.pdf",0,2000-01-01 01:00:00,2016-04-03 02:51:08,390000/ce95e4c329743c63a78e5c98d82f441b-d.jpg,,
19408448,Enterprise Systems Backup and Recovery: A Corporate Insurance Policy,,,,Preston de Guise,2008,1,Auerbach Publications,,308,0,English,79,,,"9781420076394,9781420076400,1420076396",,,,,005.8/6,QA76.9.B32 D45 2008,,,OL16911768M,,0,,,,,,,1,3922278,pdf,CECB7497FA4FAAC4F3B627525C78F3FA,,,"cecb7497fa4faac4f3b627525c78f3fa~9781420076394,9781420076400,1420076396.pdf",0,2000-01-01 01:00:00,2016-04-03 02:51:08,390000/cecb7497fa4faac4f3b627525c78f3fa-d.jpg,,
19408449,Guidebook To Constructing Inexpensive Science Teaching Equipment Chemistry,volume II,,,None Stated,1972,,Science Teacher Center,,913,0,English,183,,,,,B000TFCWTS,,,,,,,,,0,,,,,1,,1,56581977,pdf,CEE057680FE88262B2185C3EFE89D54A,,,cee057680fe88262b2185c3efe89d54a~B000TFCWTS.pdf,0,2000-01-01 01:00:00,2016-04-03 02:51:08,390000/cee057680fe88262b2185c3efe89d54a-g.jpg,,
19408450,For the New Intellectual: The Philosophy of Ayn Rand ,,,,Ayn Rand,1963,50th Anniversary Edition Signet ,Signet,,224,0,English,195,,,"9780451163080,0451163087",,,,,,,,,OL741463M,,0,,,,,,,1,628036,pdf,CEFCFF6706343C750FE6DB78B8D02A8E,,,"cefcff6706343c750fe6db78b8d02a8e~9780451163080,0451163087.pdf",0,2000-01-01 01:00:00,2016-04-03 02:51:08,390000/cefcff6706343c750fe6db78b8d02a8e-d.jpg,,
19408451,Modern Poetry after Modernism,,,,James Longenbach,1997,1ST,"Oxford University Press, USA",,224,0,English,109,,,"0195101782,9780195101782,9780585368375",,,,,811/.509113,PS325 .L66 1997,,,OL1005502M,,0,,,,,1,1,1,12240354,pdf,CF3D97A001754CBB5BCAAE5DA7A03473,,,"cf3d97a001754cbb5bcaae5da7a03473~0195101782,9780195101782,9780585368375.pdf",0,2000-01-01 01:00:00,2016-04-03 02:51:08,390000/cf3d97a001754cbb5bcaae5da7a03473-d.jpg,,
19408452,Prehistoric Figurines,,,,Douglass Bailey,2005,,,,256,0,English,64,,,"9780203392454,9780415331517,041533151X,9780415331524,0415331528",,,,,949.6,GN776.22.B33 B35 2005,,,OL22622748M,,0,,,,,1,1,1,4082708,pdf,CF28FEC22F9D2FB9C39D402FBAB79FB3,,,"cf28fec22f9d2fb9c39d402fbab79fb3~9780203392454,9780415331517,041533151X,9780415331524,0415331528.pdf",0,2000-01-01 01:00:00,2016-04-03 02:51:08,390000/cf28fec22f9d2fb9c39d402fbab79fb3-g.jpg,,
19408453,The Philosophy of Spiritual Activity,,,,Rudolf Steiner,1986,,Anthroposophic Press,,276,0,English,195,,,"0880101563,9780880101561",,,,,299/.935,BP595.S894 P4613 1986,,,OL2708670M,,0,,,,,1,,1,471770,pdf,CF64F178631F3C8A36D25AD7E1BBE9E5,,,"cf64f178631f3c8a36d25ad7e1bbe9e5~0880101563,9780880101561.pdf",0,2000-01-01 01:00:00,2016-04-03 02:51:08,390000/cf64f178631f3c8a36d25ad7e1bbe9e5-d.jpg,,
19408454,Propaganda,,,,Edward Bernays,1928,First Edition,Liveright,,159,0,English,,,,,,B000NR8354,,,,,,,,,0,,,,,,,1,363390,pdf,CF4223A2A2BF894B12A0CD510B30818D,,,cf4223a2a2bf894b12a0cd510b30818d~B000NR8354.pdf,0,2000-01-01 01:00:00,2016-04-03 02:51:08,390000/cf4223a2a2bf894b12a0cd510b30818d-g.jpg,,
19408455,Little Black Book of Emergency Medicine ,,Jones and Bartlett's Little Black Book,,Steven E. Diaz,2005,2,Jones & Bartlett Pub,,507,0,English,147,,,"076373456X,9780763734565",,,,,616.02/5,RC86.8 .D52 2006,,,OL3404065M,,0,,,,,1,,,2313317,chm,CFC31F6D695841AB21E641A7AA13DD14,,,"cfc31f6d695841ab21e641a7aa13dd14~076373456X,9780763734565.chm",0,2000-01-01 01:00:00,2016-04-03 02:51:08,390000/cfc31f6d695841ab21e641a7aa13dd14-d.jpg,,
19408456,The Story of Daniel and the Lions: Alice in Bibleland Storybooks,,,,"Alice Joyce Davidson, Victoria Marshall",1986,,C.R. Gibson Company,,32,0,English,,,,"0837850797,9780837850795",,,,,224/.509505,BS580.D2 D38 1986,,,OL2418576M,,0,,,,,1,,0,4094682,pdf,D1BFCF9A0FE3AD0C47E770F0DD3D4154,,,"d1bfcf9a0fe3ad0c47e770f0dd3d4154~0837850797,9780837850795.pdf",0,2000-01-01 01:00:00,2016-04-03 02:51:08,390000/d1bfcf9a0fe3ad0c47e770f0dd3d4154-d.jpg,,
19408457,Safari Origami,,,,Lionel Albertino,2002,,Blechschachtel Verlag die,,157,0,German,,,,"3980752690,9783980752695",,,,,,,,,,,0,,,,,1,,1,10219612,pdf,D4CB6BE833E0E7F3A5D94792BAE3A48F,,,"d4cb6be833e0e7f3a5d94792bae3a48f~3980752690,9783980752695.pdf",0,2000-01-01 01:00:00,2016-04-03 02:51:08,390000/d4cb6be833e0e7f3a5d94792bae3a48f-d.jpg,,
19408458,"Calvin, Participation, and the Gift: The Activity of Believers in Union with Christ ",,Changing Paradigms in Historical and Systematic Theology,,J. Todd Billings,2008,1,"Oxford University Press, USA",,230,0,English,,,,"0199211876,9780199211876,9781435621497",,,,,230.42092,BX9418 .B56 2007,,,OL16888869M,,0,,,,,1,1,1,1786070,pdf,D5E9D6D9C01F361460A8D89D0ADD954F,,,"d5e9d6d9c01f361460a8d89d0add954f~0199211876,9780199211876,9781435621497.pdf",0,2000-01-01 01:00:00,2016-04-03 02:51:08,390000/d5e9d6d9c01f361460a8d89d0add954f-d.jpg,,
19408459,Money and its Use in Medieval Europe,,,,Peter Spufford,1988,1,Cambridge University Press,,481,0,English,64,,,"0521303842,0511583540,0521375908,9780511583544,9780521303842,9780521375900",,,,,332.4/94,HG923 .S68 1988,,,OL15058517M,,0,,,,,1,,0,59221176,pdf,D8E7AE38A3CE51BD2AA9ABC2D075C5B2,,,"d8e7ae38a3ce51bd2aa9abc2d075c5b2~0521303842,0511583540,0521375908,9780511583544,9780521303842,9780521375900.pdf",0,2000-01-01 01:00:00,2016-04-03 02:51:08,390000/d8e7ae38a3ce51bd2aa9abc2d075c5b2-d.jpg,,
19408460,Tantric Techniques,,,,Jeffrey Hopkins,2009,,Snow Lion Publications,,464,0,English,,,,"1559393203,9781559393201",,,,,294.3/4436,BQ8938 .H67 2009,,,OL22666452M,,0,,,,,1,1,1,1395239,pdf,D9DD6CAEBB1D6853B7B3177BFA61D9A2,,,"d9dd6caebb1d6853b7b3177bfa61d9a2~1559393203,9781559393201.pdf",0,2000-01-01 01:00:00,2016-04-03 02:51:08,390000/d9dd6caebb1d6853b7b3177bfa61d9a2-d.jpg,,
19408461,Tuscany ,,DK Eyewitness Top 10 Travel Guide,,Reid Bramblett,2005,3rd,Dorling Kindersley Publishers Ltd,,174,0,English,183,,,"0751348201,9780751348200",,,,,,,,,,,0,,,,,,1,1,8113171,pdf,D61C4B7FCED509FD97BE53570CDF4831,,,"d61c4b7fced509fd97be53570cdf4831~0751348201,9780751348200.pdf",0,2000-01-01 01:00:00,2016-04-03 02:51:08,390000/d61c4b7fced509fd97be53570cdf4831-d.jpg,,
19408462,The Gurdjieff Teachings: a Practical System of Instruction for Attaining Higher Consciousness Through Self-Awareness,,,,"Bruce S. Fisher, Well-illustrated",1996,1ST,Clarity Works / Subru,,147,0,English,183,,,,,B000Q6MS5I,,,,,,,,,0,,,,,,,0,22750038,pdf,D72BFACBD93622A4E08A66F882A67602,,,d72bfacbd93622a4e08a66f882a67602~B000Q6MS5I.pdf,0,2000-01-01 01:00:00,2016-04-03 02:51:08,390000/d72bfacbd93622a4e08a66f882a67602-g.jpg,,
19408463,Essays Critical and Clinical,,,,"Gilles Deleuze, Daniel W. Smith, Michael A. Greco",1998,,Verso Books,,248,0,English,161,,,"9780860914648,086091464X,9780816625697,0816625697",,,,,809,PN203 .D46 1997,,,OL667565M,,0,,,,,1,,0,42302305,pdf,D73F3B0B511633CAE11EBF6908025E91,,,"d73f3b0b511633cae11ebf6908025e91~9780860914648,086091464X,9780816625697,0816625697.pdf",0,2000-01-01 01:00:00,2016-04-03 02:51:08,390000/d73f3b0b511633cae11ebf6908025e91-g.jpg,,
19408464,Oink! Moo! How Do You Do?: A Book of Animal Sounds ,,Story Corner,,"Grace MacCarone, Hans Wilhelm",1994,,Cartwheel Books,,13,0,English,23,,,"0590206559,9780590206556",,,,,,,,,,,0,,,,,,1,0,1414262,pdf,D280C14FF536DE568010F37400A0613A,,,"d280c14ff536de568010f37400a0613a~0590206559,9780590206556.pdf",0,2000-01-01 01:00:00,2016-04-03 02:51:08,390000/d280c14ff536de568010f37400a0613a-d.jpg,,
19408465,Angels and Angelology in the Middle Ages,,,,David Keck,1998,,"Oxford University Press, USA",,280,0,English,,,,"0195110978,9780195110975,9780585182766",,,,,235/.3/0902,BT966.2 .K43 1998,,,OL1012522M,,0,,,,,1,1,1,19538186,pdf,D323C8E182900E3F965668B37C2EC094,,,"d323c8e182900e3f965668b37c2ec094~0195110978,9780195110975,9780585182766.pdf",0,2000-01-01 01:00:00,2016-04-03 02:51:08,390000/d323c8e182900e3f965668b37c2ec094-d.jpg,,
19408466,"Reproductive Biology and Phylogeny of Birds, Part B: Sexual Selection, Behavior, Conservation, Embryology and Genetics ",,Reprductive Biology and Phylogeny,,Barrie G M Jamieson,2007,,Science Publishers,,516,0,English,201,,,"157808444X,9781578084449,9781578085910",,,,,,,,,OL17212841M,,0,,,,,,,1,10670827,pdf,D415E673C9690BFFA129B205692FFA4E,,,"d415e673c9690bffa129b205692ffa4e~157808444X,9781578084449,9781578085910.pdf",0,2000-01-01 01:00:00,2016-04-03 02:51:08,390000/d415e673c9690bffa129b205692ffa4e-d.jpg,,
19408467,The Family in the Western World from the Black Death to the Industrial Age,,,,Beatrice Gottlieb,1994,,"Oxford University Press, USA",,352,0,English,,,,"019509056X,9780195090567",,,,,306.85094,,,,OL14959151M,,0,,,,,1,1,1,27815102,pdf,D835D21B68263F57BA1D0A22399AC07E,,,"d835d21b68263f57ba1d0a22399ac07e~019509056X,9780195090567.pdf",0,2000-01-01 01:00:00,2016-04-03 02:51:08,390000/d835d21b68263f57ba1d0a22399ac07e-d.jpg,,
19408468,Aliens Technical Manual,,,,"Dave Hughes, Lee Brimmicombe-Wood",1995,,Boxtree Ltd,,159,0,English,,,,"0752208446,9780752208442",,,,,,,,,OL7981066M,,0,,,,,,,0,54277918,pdf,D838D0FD3F3629E669B5BC77880A2365,,,"d838d0fd3f3629e669b5bc77880a2365~0752208446,9780752208442.pdf",0,2000-01-01 01:00:00,2016-04-03 02:51:08,390000/d838d0fd3f3629e669b5bc77880a2365-d.jpg,,
19408469,Sorcerer's Apprentice ,,Cadogan Chess Books,,"Tom Furstenberg, David Bronstein",1995,1st,Everyman Chess,,304,0,English,,,,"1857441516,9781857441512",,,,,794.1,,,,OL21706032M,,0,,,,,,,0,4076689,djvu,D847FC9AE8DA061688E5FC00CC684FBA,58714d6a5750e30dcb94c3019f2dc624,no,"d847fc9ae8da061688e5fc00cc684fba~1857441516,9781857441512.djvu",0,2000-01-01 01:00:00,2016-04-03 02:51:08,390000/d847fc9ae8da061688e5fc00cc684fba-d.gif,,
19408470,The Story of Esther ,,Alice in Bibleland Storybooks,,"Alice Joyce Davidson, Victoria Marshall",1990,,C.R. Gibson Company,,36,0,English,,,,"0837818516,9780837818511",,,,,,,,,OL8221848M,,0,,,,,1,,0,4269094,pdf,D1978F5CC430533C39FD81434714DA20,,,"d1978f5cc430533c39fd81434714da20~0837818516,9780837818511.pdf",0,2000-01-01 01:00:00,2016-04-03 02:51:08,390000/d1978f5cc430533c39fd81434714da20-g.jpg,,
19408471,Conservation of Ruins ,,Butterworth-Heinemann Series in Conservation and Museology,,John Ashurst,2006,,Butterworth-Heinemann,,352,0,English,,,,"0750664290,9780750664295,9780080466910",,,,,,,,,,,0,,,,,,,1,35454770,pdf,D2429D12DB01388A091921D1BBD106A4,,,"d2429d12db01388a091921d1bbd106a4~0750664290,9780750664295,9780080466910.pdf",0,2000-01-01 01:00:00,2016-04-03 02:51:08,390000/d2429d12db01388a091921d1bbd106a4-d.jpg,,
19408472,"Social History of Art, Boxed Set: The Social History of Art: From Prehistoric Times to the Middle Ages",Vol. 1,,,Arnold Hauser,1999,3,Routledge,,328,0,English,64,,,"9780203984840,9780415199452,041519945X",,,,,,,,,OL7486180M,,0,,,,,1,1,1,2823956,pdf,D17959D7B56C24C268CCAB0609BF00B0,,,"d17959d7b56c24c268ccab0609bf00b0~9780203984840,9780415199452,041519945X.pdf",0,2000-01-01 01:00:00,2016-04-03 02:51:08,390000/d17959d7b56c24c268ccab0609bf00b0-d.jpg,,
19408473,The Hellenistic World from Alexander to the Roman Conquest: A Selection of Ancient Sources in Translation,,,,M. M. Austin,2006,Updated,Cambridge University Press,,656,0,English,64,,,"0521828600,9780521828604,9780511226090",,,,,938/.08,DF235.A1 H44 2006,,,OL18587310M,,0,,,,,1,,1,4242460,pdf,D30537BC4D90A31A6C72BD5C9C04CA08,,,"d30537bc4d90a31a6c72bd5c9c04ca08~0521828600,9780521828604,9780511226090.pdf",0,2000-01-01 01:00:00,2016-04-03 02:51:08,390000/d30537bc4d90a31a6c72bd5c9c04ca08-d.jpg,,
19408474,Sexual ,,"Dis Orientation: Gender, Sex, Desire and Self-Fashioning",,Tamsin Wilton,2004,,Palgrave Macmillan,,240,0,English,201,,,"140390572X,9781403905727,9780230506213",,,,,305.3,HQ29 .W55 2004,,,OL3303054M,,0,,,,1,0,1,1,765645,pdf,D35659EABEB6426E1F19ABD006C9BBFE,,,"d35659eabeb6426e1f19abd006c9bbfe~140390572X,9781403905727,9780230506213.pdf",0,2000-01-01 01:00:00,2016-04-03 02:51:08,390000/d35659eabeb6426e1f19abd006c9bbfe-d.jpg,,
19408475,Metals Handbook: Machining,,,,"Joseph R. Davis, American Society for Metals",1989,9th,ASM International,,944,0,English,210,,,"0871700220,9780871700223",,,,,620.16,TA459.M43 1990,,,OL18361021M,,0,,,,,1,1,0,215979880,pdf,D42916E0D952BC50EBF861A9BF88257F,,,"d42916e0d952bc50ebf861a9bf88257f~0871700220,9780871700223.pdf",0,2000-01-01 01:00:00,2016-04-03 02:51:08,390000/d42916e0d952bc50ebf861a9bf88257f-d.jpg,,
19408476,Zen in the Art of Archery,,,,"Eugen Herrigel, Daisetz T. Suzuki",1999,,Vintage,,96,0,English,,,,"0375705090,9780375705090",,,,,,,,,OL7426315M,,0,,,,,1,1,1,564682,pdf,D79395BBA9E0AE62896A954FCF3C8408,,,"d79395bba9e0ae62896a954fcf3c8408~0375705090,9780375705090.pdf",0,2000-01-01 01:00:00,2016-04-03 02:51:08,390000/d79395bba9e0ae62896a954fcf3c8408-d.jpg,,
19408477,Financial Valuation Workbook: Step by Step Exercises and Tests to Help You Master Financial Valuation,,,,"James Hitchner, Michael J. Mard",2003,1st,Wiley,,240,0,English,305,,,"0471220833,9780471220831",,,,,658.15,HG4028.V3 H585 2003,,,OL3707650M,,0,,,,,,,1,2119658,pdf,D88047FEEFCB06A019DDFC6EAD5F8979,,,"d88047feefcb06a019ddfc6ead5f8979~0471220833,9780471220831.pdf",0,2000-01-01 01:00:00,2016-04-03 02:51:08,390000/d88047feefcb06a019ddfc6ead5f8979-d.jpg,,
19408478,Adobe Photoshop for VFX Artists,,,,Lopsie (Lopsie Schwartz) Schwartz,2004,1,Course Technology PTR,,304,0,English,95,,,"1592004873,9781592004874,9781598630404",,,,,,,,,OL3315066M,,0,,,,,1,,1,28403030,pdf,D7793071E8F9D641E1436CF66630120C,,,"d7793071e8f9d641e1436cf66630120c~1592004873,9781592004874,9781598630404.pdf",0,2000-01-01 01:00:00,2016-04-03 02:51:08,390000/d7793071e8f9d641e1436cf66630120c-d.jpg,,
19408479,Global Tyranny...Step by Step: The United Nations and the Emerging New World Order,,,,William F. Jasper,1992,1st,Western Islands,,350,0,English,,,,"0882791354,9780882791357",,,,,,,,,OL8178610M,,0,,,,,1,,1,834698,pdf,D151174534DAFC93F35B4375A64CD163,,,"d151174534dafc93f35b4375a64cd163~0882791354,9780882791357.pdf",0,2000-01-01 01:00:00,2016-04-03 02:51:08,390000/d151174534dafc93f35b4375a64cd163-d.jpg,,
19408480,On Histories and Stories: Selected Essays ,,The Richard Ellmann Lectures in Modern Literature,,A. S. Byatt,2002,,Harvard University Press,,208,0,English,64,,,"0674008332,9780674008335,0674004515",,,,,809/.93358,PN3343 .B93 2000,,,OL6792133M,,0,,,,,,1,1,1755235,pdf,D99839870669B03A75474B7D7FB07F37,,,"d99839870669b03a75474b7d7fb07f37~0674008332,9780674008335,0674004515.pdf",0,2000-01-01 01:00:00,2016-04-03 02:51:08,390000/d99839870669b03a75474b7d7fb07f37-d.jpg,,
19408481,A Companion to the Philosophy of Action ,,Blackwell Companions to Philosophy,,"Timothy O'Connor, Constantine Sandis",2010,,Wiley-Blackwell,,664,0,English,,,,"1405187352,9781405187350",,,,,128/.4,B105.A35 C65 2010,,,OL23994632M,,0,,,,,,1,1,3632930,pdf,DA72626478D3E90668F5B3A8E7B65E4D,,,"da72626478d3e90668f5b3a8e7b65e4d~1405187352,9781405187350.pdf",0,2000-01-01 01:00:00,2016-04-03 02:51:08,390000/da72626478d3e90668f5b3a8e7b65e4d-d.jpg,,
19408482,"Political Psychology: Situations, Individuals, and Cases",,,,David P. Houghton,2008,1,Routledge,,296,0,English,198,,,"0415990130,9780415990134,9780203889114",,,,,320.01/9,JA74.5 .H68 2008,,,OL16841395M,,0,,,,,1,,1,1730517,pdf,DB1AD8B58DBC67ED9830041281B29DE8,,,"db1ad8b58dbc67ed9830041281b29de8~0415990130,9780415990134,9780203889114.pdf",0,2000-01-01 01:00:00,2016-04-03 02:51:08,390000/db1ad8b58dbc67ed9830041281b29de8-d.jpg,,
19408483,Crafting Tradition: The Making and Marketing of Oaxacan Wood Carvings Joe R. and Teresa Lozano,,Long Series in Latin American and Latino Art and Culture,,Michael Chibnik,2003,1,University of Texas Press,,304,0,English,,,,"0292712480,9780292712485,0292712472,9780292712478,9780292797758",,,,,,,,,OL9442206M,,0,,,,,1,1,1,5317498,pdf,DB7600B141CCA43FB0385AED7DE60E6A,,,"db7600b141cca43fb0385aed7de60e6a~0292712480,9780292712485,0292712472,9780292712478,9780292797758.pdf",0,2000-01-01 01:00:00,2016-04-03 02:51:08,390000/db7600b141cca43fb0385aed7de60e6a-d.jpg,,
19408484,"Gramatica De La Lengua Castellana Por La Real Academia Espanola, Nueva Edicion",,,,La Real Academia Espanola,1883,,"Gregorio Hernando, Madrid",,225,0,Spanish,,,,,,B000EX2B78,,,,,,,,,0,,,,0,0,,1,579900,pdf,DBA17DC4E6016C2FD688FB2445399D68,,,dba17dc4e6016c2fd688fb2445399d68~B000EX2B78.pdf,0,2000-01-01 01:00:00,2016-04-03 02:51:08,390000/dba17dc4e6016c2fd688fb2445399d68-d.jpg,,
19408485,Manual of Neonatal Care ,,Lippincott Manual Series Formerly known as the Spiral Manual Series,,"John P. Cloherty MD, Eric C. Eichenwald, Ann R. Stark",2007,"Sixth, North American Edition",Lippincott Williams & Wilkins,,800,0,English,,,,"9780781769846,0781769841",,,,,618.92/.01,RJ251 .M26 2008,,,OL18003472M,,0,,,,,1,,,13682795,chm,DBB909CBFF91651AF41E7CABE2AF40F6,,,"dbb909cbff91651af41e7cabe2af40f6~9780781769846,0781769841.chm",0,2000-01-01 01:00:00,2016-04-03 02:51:08,390000/dbb909cbff91651af41e7cabe2af40f6-d.jpg,,
19408486,Kant: Metaphysical Foundations of Natural Science ,,Cambridge Texts in the History of Philosophy,,"Kant, Michael Friedman",2004,,Cambridge University Press,,160,0,English,181,,,"0521836166,9780521836166",,,,,113,B2786.E5 F75 2004,,,OL21100870M,,0,,,,,1,1,1,786898,pdf,DBEEBE3E4029C89699123351AE719037,,,"dbeebe3e4029c89699123351ae719037~0521836166,9780521836166.pdf",0,2000-01-01 01:00:00,2016-04-03 02:51:08,390000/dbeebe3e4029c89699123351ae719037-d.jpg,,
19408487,My Book of Subtraction ,,Kumon Workbooks,,Kumon Publishing,2005,First,Kumon Publishing North America,,80,0,English,,,,"1933241071,9781933241074",,,,,,,,,OL8813052M,,0,,,,,,1,0,7336483,pdf,DC9BC2D4A76FE2D0662541ABF534EB57,,,"dc9bc2d4a76fe2d0662541abf534eb57~1933241071,9781933241074.pdf",0,2000-01-01 01:00:00,2016-04-03 02:51:08,390000/dc9bc2d4a76fe2d0662541abf534eb57-d.jpg,,
19408488,"The Theory of Celestial Influence: Man, the Universe, and Cosmic Mystery",,,,Rodney Collin,1971,,Samuel Weiser Inc.,,392,0,English,,,,"0877280436,9780877280439",,,,,,,,,OL8111171M,,0,,,,,,,1,8132812,pdf,DCA8A8C5973B7ADFADE66EC98102255F,,,"dca8a8c5973b7adfade66ec98102255f~0877280436,9780877280439.pdf",0,2000-01-01 01:00:00,2016-04-03 02:51:08,390000/dca8a8c5973b7adfade66ec98102255f-d.jpg,,
19408489,From Polysemy to Semantic Change: Towards a typology of lexical semantic associations ,,Studies in Language Companion Series,,Martine Vanhove,2008,,John Benjamins Publishing Company,,404,0,English,,,,"9027205736,9789027205735,9789027290328",,,,,401/.43,P325.5.H57 F76 2008,,,OL17008741M,,0,,,,,1,1,1,6753003,pdf,DCC19C7DF24E91CB1A9C6AE191EC3B9D,,,"dcc19c7df24e91cb1a9c6ae191ec3b9d~9027205736,9789027205735,9789027290328.pdf",0,2000-01-01 01:00:00,2016-04-03 02:51:08,390000/dcc19c7df24e91cb1a9c6ae191ec3b9d-d.jpg,,
19408490,Bates' Guide to Physical Examination and History Taking,,,,"Lynn S. Bickley, Peter G., M.D. Szilagyi",2008,10 Har/Cdr,Lippincott Williams & Wilkins,,964,0,English,264,,,"1605478032,0781780586,160547617X,9781605478036,9781605476179,9780781780582,1605476161,9781605476162",,,,,616.07/54,RC76 .B38 2009,,,OL16990892M,,0,,,,,,,,142322805,chm,DD34D6853CF0939EDE506731FB4ADBBF,,,"dd34d6853cf0939ede506731fb4adbbf~1605478032,0781780586,160547617X,9781605478036,9781605476179,9780781780582,1605476161,9781605476162.chm",0,2000-01-01 01:00:00,2016-04-03 02:51:08,390000/dd34d6853cf0939ede506731fb4adbbf-d.jpg,,
19408491,"Learning from Six Philosophers: Descartes, Spinoza, Leibniz, Locke, Berkeley, Hume,",volume 2,,,Jonathan Bennett,2003,,Oxford University Press,,375,0,English,183,,,"9780199266296,0199266298,0198250924,9780198250920,9780191520303",,,,,,,,,OL21587642M,,0,,,,,1,,1,1420917,pdf,DD1796BCB7B41426F71EDD0EA16A755B,,,"dd1796bcb7b41426f71edd0ea16a755b~9780199266296,0199266298,0198250924,9780198250920,9780191520303.pdf",0,2000-01-01 01:00:00,2016-04-03 02:51:08,390000/dd1796bcb7b41426f71edd0ea16a755b-d.jpg,,
19408492,"The Left Periphery: The Interaction of Syntax, Pragmatics and Prosody in Czech ",,Linguistik Aktuell/Linguistics Today,,Anne Sturgeon,2008,,John Benjamins Publishing Company,,143,0,English,314,,,"9027255121,9789027255129,9789027289841",,,,,491.8/65,PG4361 .S78 2008,,,OL21096785M,,0,,,,,1,1,1,2474560,pdf,DD14970FE1B1FB4AC5EC5C3AAA7A3E04,,,"dd14970fe1b1fb4ac5ec5c3aaa7a3e04~9027255121,9789027255129,9789027289841.pdf",0,2000-01-01 01:00:00,2016-04-03 02:51:08,390000/dd14970fe1b1fb4ac5ec5c3aaa7a3e04-d.jpg,,
19408493,Golden Dawn Enochian Magic ,,Llewellyn's High Magick Series,,Pat Zalewski,1990,1st. Llewellyn Ed,Llewellyn Publications,,272,0,English,205,,,0875428983,,,,,,,,,,,0,,,,,1,,1,8365703,pdf,DE2EDCB2F123BE59E21E3B18263AB738,,,de2edcb2f123be59e21e3b18263ab738~0875428983.pdf,0,2000-01-01 01:00:00,2016-04-03 02:51:08,390000/de2edcb2f123be59e21e3b18263ab738-d.jpg,,
19408494,Mastercases in Shoulder & Elbow Surgery,,,,"Larry Field, Felix Savoie",2002,1,Thieme,,448,0,English,175,,,"9780865778733,9781435600263,0865778736",,,,,617.5/72059,RD557.5 .F53 2003,,,OL3686686M,,0,,,,,1,1,0,73136601,pdf,DE69E1971DD3DC45427176FFB9BEA183,,,"de69e1971dd3dc45427176ffb9bea183~9780865778733,9781435600263,0865778736.pdf",0,2000-01-01 01:00:00,2016-04-03 02:51:08,390000/de69e1971dd3dc45427176ffb9bea183-d.jpg,,
19408495,My Book of Mazes: Things That Go! ,,Kumon Workbooks,,"Shinobu Akaishi, Eno Sarris",2006,,Kumon Publishing North America,,80,0,English,,,,"1933241314,9781933241319",,,,,,,,,OL9838506M,,0,,,,,1,,0,10750894,pdf,DECD02E1FF6E27404F87E86E0ACC0324,,,"decd02e1ff6e27404f87e86e0acc0324~1933241314,9781933241319.pdf",0,2000-01-01 01:00:00,2016-04-03 02:51:08,390000/decd02e1ff6e27404f87e86e0acc0324-d.jpg,,
19408496,Frommer's Sicily ,,Frommer's Complete,,"Darwin Porter, Danforth Prince",2007,3rd,Frommer's,,352,0,English,32,,,"9780470100561,9780470148020,0470100567",,,,,,,,,OL24307875M,,0,,,,,,,1,4563992,pdf,DF255E15437656275250F806F8A08378,,,"df255e15437656275250f806f8a08378~9780470100561,9780470148020,0470100567.pdf",0,2000-01-01 01:00:00,2016-04-03 02:51:08,390000/df255e15437656275250f806f8a08378-d.jpg,,
19408497,Dissecting the Social: On the Principles of Analytical Sociology,,,,Peter Hedstrom,2005,,Cambridge University Press,,188,0,English,194,,,"0521792290,9780521792295,9780511136917",,,,,,,,,OL17189620M,,0,,,,,1,1,1,1382407,pdf,DFC79D3F14C5317CDDE281E3E61DAB42,,,"dfc79d3f14c5317cdde281e3e61dab42~0521792290,9780521792295,9780511136917.pdf",0,2000-01-01 01:00:00,2016-04-03 02:51:08,390000/dfc79d3f14c5317cdde281e3e61dab42-d.jpg,,
19408498,Mysteries of the Seed,,,,Rodney Collin,1988,,Holmes Pub Grou Llc,,45,0,English,,,,"1558181008,9781558181007",,,,,,,,,OL9687083M,,0,,,,,1,,1,843543,pdf,E4D087C68F1EE36AA8B785C6DF9A7380,,,"e4d087c68f1ee36aa8b785c6df9a7380~1558181008,9781558181007.pdf",0,2000-01-01 01:00:00,2016-04-03 02:51:08,390000/e4d087c68f1ee36aa8b785c6df9a7380-g.jpg,,
19408499,The Wages of Destruction: The Making and Breaking of the Nazi Economy,,,,"Adam Tooze, J. Adam Tooze",2006,,Allen Lane,,799,0,English,,,,"0713995661,9780713995664",,,,,320.94309043,HC286.3 .T66 2006,,,OL22732822M,,0,,,,,1,,1,8050290,pdf,E5F933133EE97652A5B73B19D7476BDC,,,"e5f933133ee97652a5b73b19d7476bdc~0713995661,9780713995664.pdf",0,2000-01-01 01:00:00,2016-04-03 02:51:08,390000/e5f933133ee97652a5b73b19d7476bdc-d.jpg,,
19408500,Enochian Magic for Beginners: The Original System of Angel Magic ,,For Beginners Llewellyn's,,Donald Tyson,2002,1st,Llewellyn Publications,,416,0,English,183,,,"1567187471,9781567187472",,,,,133.4/3,BF1623.E55 T97 1997,,,OL694712M,,0,,,,,,1,0,56182801,pdf,E7C9DC1C4C2E108F5EA010898EB7AD79,,,"e7c9dc1c4c2e108f5ea010898eb7ad79~1567187471,9781567187472.pdf",0,2000-01-01 01:00:00,2016-04-03 02:51:08,390000/e7c9dc1c4c2e108f5ea010898eb7ad79-d.jpg,,
19408501,"German Idealism and the Problem of Knowledge: Kant, Fichte, Schelling, and Hegel ",,Studies in German Idealism,,Nectarios G. Limnatis,2008,1,Springer,,428,0,English,,,,"9781402087998,1402087993",,,,,,,,,,,0,,,,,1,,1,1912596,pdf,E7FB47093AD672BBD1F609B392BD5C63,,,"e7fb47093ad672bbd1f609b392bd5c63~9781402087998,1402087993.pdf",0,2000-01-01 01:00:00,2016-04-03 02:51:08,390000/e7fb47093ad672bbd1f609b392bd5c63-d.jpg,,
19408502,Obsidian Butterfly ,,"An Anita Blake, Vampire Hunter, Book 9",,Laurell K. Hamilton,2002,,Jove,,608,0,English,,,,"0515134503,9780515134506",,,,,,,,,OL7657773M,,0,,,,,,,,584121,lit,E8B47BD5902C324F5C4C8A786296209C,,,"e8b47bd5902c324f5c4c8a786296209c~0515134503,9780515134506.lit",0,2000-01-01 01:00:00,2016-04-03 02:51:08,390000/e8b47bd5902c324f5c4c8a786296209c-d.jpg,,
19408503,Religious Authority in the Spanish Renaissance ,,The Johns Hopkins University Studies in Historical and Political Science,,Professor Lu Ann Homza,2000,aFirst Edition First Printing,The Johns Hopkins University Press,,344,0,English,205,,,"0801862434,9780801862434,9780801875953",,,,,274.6/06,BX1584 .H66 2000,,,OL41190M,,0,,,,,,,1,2231494,pdf,E9EDB2C799679B3596048C333B833E91,,,"e9edb2c799679b3596048c333b833e91~0801862434,9780801862434,9780801875953.pdf",0,2000-01-01 01:00:00,2016-04-03 02:51:08,390000/e9edb2c799679b3596048c333b833e91-d.jpg,,
19408504,Corpora in Cognitive Linguistics: Corpus-Based Approaches to Syntax and Lexis ,,Mouton Select Trends in Linguistics: Studies & Monographs,,"Anatol Stefanowitsch, Stefan Th. Gries",2007,,Mouton de Gruyter,,352,0,English,314,,,"9783110198263,3110198266,3110186055,9783110186055",,,,,,,,,OL9017691M,,0,,,,,1,1,1,2454703,pdf,E9F81D75652686E77CAA0886B41ADCBB,,,"e9f81d75652686e77caa0886b41adcbb~9783110198263,3110198266,3110186055,9783110186055.pdf",0,2000-01-01 01:00:00,2016-04-03 02:51:08,390000/e9f81d75652686e77caa0886b41adcbb-d.jpg,,
19408505,A Companion to Charles Dickens ,,Blackwell Companions to Literature and Culture,,David Paroissien,2008,,Wiley-Blackwell,,536,0,English,,,,"1405130970,9781405130974",,,,,823/.8,PR4588 .C636 2007,,,OL17932562M,,0,,,,,,,1,5122396,pdf,E43E75D996FCBA5063DCFE418460456D,,,"e43e75d996fcba5063dcfe418460456d~1405130970,9781405130974.pdf",0,2000-01-01 01:00:00,2016-04-03 02:51:08,390000/e43e75d996fcba5063dcfe418460456d-d.jpg,,
19408506,Encyclopedia of the World's Coastal Landforms,,,,Eric Bird,2010,1st Edition.,Springer,,1498,0,English,188,,,"1402086385,9781402086380",,,,,551.45/703,GB450.4 .E58 2210,10.1007/978-1-4020-8640-3,,OL25242921M,,0,,,,,,,1,183688788,pdf,E60E7D2ED94F32D87DDD1FA04174D208,,,"e60e7d2ed94f32d87ddd1fa04174d208~1402086385,9781402086380.pdf",0,2000-01-01 01:00:00,2016-04-03 02:51:08,390000/e60e7d2ed94f32d87ddd1fa04174d208-d.jpg,,
19408507,To krypho scholeio: Chroniko henos mythou ,,,,Alkes Angelou,1997,1. ekd,"Vivliopoleion tes \Hestias\"""," I.D. Kollarou & Sias A.E""",,81,0,Greek,,,,"9600507708,9789600507706",,,,,,,,,OL138073M,,0,,,,,1,,0,3180707,pdf,E63F89D410E88929E4BF2A5EAB0B1781,,,"e63f89d410e88929e4bf2a5eab0b1781~9600507708,9789600507706.pdf",0,2000-01-01 01:00:00,2016-04-03 02:51:08,390000/e63f89d410e88929e4bf2a5eab0b1781-g.jpg,
19408508,Modern Art: A Very Short Introduction ,,Very Short Introductions,,David Cottington,2005,,"Oxford University Press, USA",,168,0,English,183,,,"0192803646,9780192803641",,,,,,,,,OL7383313M,,0,,,,,,,1,3755997,pdf,E088B7B78B0BB3904F7506311E6B3E77,,,"e088b7b78b0bb3904f7506311e6b3e77~0192803646,9780192803641.pdf",0,2000-01-01 01:00:00,2016-04-03 02:51:08,390000/e088b7b78b0bb3904f7506311e6b3e77-d.jpg,,
19408509,Marriage on the Edge,,,,Sandra Marton,1999,New Ed,Harlequin Books,,184,0,English,,,,"9780263816648,0263816648",,,,,,,,,OL21864386M,,0,,,,,1,,,1100145,lit,E231E4AF00B0983FBF97A4B85BEB6B60,,,"e231e4af00b0983fbf97a4b85beb6b60~9780263816648,0263816648.lit",0,2000-01-01 01:00:00,2016-04-03 02:51:08,390000/E231E4AF00B0983FBF97A4B85BEB6B60-g.jpg,,
19408510,Abnormal Psychology,,,,Ronald J Comer,2009,7th Revised edition,W H Freeman,,750,0,English,198,,,"9781429224079,142922407X",,,,,,,,,,,0,,,,,,1,1,81586225,pdf,E305ABABDB7EAF7A32AC2878C5A51D76,,,"e305ababdb7eaf7a32ac2878c5a51d76~9781429224079,142922407X.pdf",0,2000-01-01 01:00:00,2016-04-03 02:51:08,390000/e305ababdb7eaf7a32ac2878c5a51d76-d.jpg,,
19408511,"Ферганская долина: этничность, этнические процессы, этнические конфликты",,,,"Абашин С.Н. (ред.), Бушков В.И. (ред.)",2004,,Наука,,224,0,Russian,,,0,"5020098094,9785020098091",,,,,,,,,,,0,,,,,,,1,24389266,pdf,E323BDA27455310CE9F93F2ACCC68E56,,,"e323bda27455310ce9f93f2accc68e56~5020098094,9785020098091.pdf",0,2000-01-01 01:00:00,2016-04-03 02:51:08,390000/e323bda27455310ce9f93f2accc68e56-d.jpg,,
19408512,The Five Rules for Successful Stock Investing: Morningstar's Guide to Building Wealth and Winning in the Market,,,,"Pat Dorsey, Joe Mansueto",2003,1,Wiley,,387,0,English,236,,,"0471269654,9780471269656",,,,,332.63/22,HG4521 .D646 2004,,,OL23040746M,,0,,,,,,,0,83268698,pdf,E0891A584638435D0F60B76D65C31349,,,"e0891a584638435d0f60b76d65c31349~0471269654,9780471269656.pdf",0,2000-01-01 01:00:00,2016-04-03 02:51:08,390000/e0891a584638435d0f60b76d65c31349-d.jpg,,
19408513,Excelling at Chess Calculation: Capitalizing on Tactical Chances,,,,Jacob Aagaard,2004,1st,Everyman Chess,,192,0,English,94,,,"1857443608,9781857443608",,,,,,,,,OL8999935M,,0,,,,,,,1,5991849,djvu,E980FA73DE9D2A1B1108981A9CC8BB3B,,,"e980fa73de9d2a1b1108981a9cc8bb3b~1857443608,9781857443608.djvu",0,2000-01-01 01:00:00,2016-04-03 02:51:08,390000/e980fa73de9d2a1b1108981a9cc8bb3b-d.jpg,,
19408514,Frommer's Portable Florence,,,,John Moretti,2006,3rd,Frommer's,,178,0,English,32,,,"9780470042052,9780471773429,0471773425",,,,,,,,,OL24270583M,,0,,,,,,,1,4332081,pdf,E2401C1BDB2357B9EFC55922E9191EFC,,,"e2401c1bdb2357b9efc55922e9191efc~9780470042052,9780471773429,0471773425.pdf",0,2000-01-01 01:00:00,2016-04-03 02:51:08,390000/e2401c1bdb2357b9efc55922e9191efc-d.jpg,,
19408515,Robert Lacoste's The Darker Side: Practical Applications for Electronic Design Concepts from Circuit Cellar,,,,Robert Lacoste,2009,,Newnes,,368,0,English,250,,,"1856177629,9781856177627,9780080962054",,,,,,,,,,,0,,,,,,,1,11046814,pdf,E4314B874538DA01402098162B99BE03,,,"e4314b874538da01402098162b99be03~1856177629,9781856177627,9780080962054.pdf",0,2000-01-01 01:00:00,2016-04-03 02:51:08,390000/e4314b874538da01402098162b99be03-d.jpg,,
19408516,Uniforms of Eighteen Twelve: Napoleon's Retreat from Moscow ,,Blandford Colour Series,,Philip J. Haythornthwaite,1982,First Edition,Blandford,,203,0,English,64,,,"9780713712834,071371283X",,,,,,,,,OL11250731M,,0,,,,,1,,0,54774989,pdf,E5872A30E701FC666C96469F6FEB55EA,,,"e5872a30e701fc666c96469f6feb55ea~9780713712834,071371283X.pdf",0,2000-01-01 01:00:00,2016-04-03 02:51:08,390000/e5872a30e701fc666c96469f6feb55ea-g.jpg,,
19408517,The Sociology of Gender and the Family: Middle Class Families ,,The International Library of Sociology: The Sociology of Gender & the Family,,Colin Bell,2003,1,Routledge,,208,0,English,194,,,"0415176549,9780415176545,9780203001462",,,,,,,,,OL22363808M,,0,,,,,1,1,1,6890305,pdf,E39688E17AF4A19960F4C183C781F24C,,,"e39688e17af4a19960f4c183c781f24c~0415176549,9780415176545,9780203001462.pdf",0,2000-01-01 01:00:00,2016-04-03 02:51:08,390000/e39688e17af4a19960f4c183c781f24c-d.jpg,,
19408518,Industrial ecology erfolgreiche Wege zu nachhaltigen industriellen Systemen,,Studium; Praxis,,Arnim von Gleich,2008,1. Aufl,Wiesbaden Vieweg + Teubner,,380,0,German,31,usenet,to 2012-06,"9783835101852,3835101854",,,,,,,,,,,0,,,,,,,1,5887252,pdf,4e0f1cc93043a87c37c96dd39a53cb18,,,I:\\usenet_ger\\Industrial.Ecology.[Springer].[2008].[t1l420].pdf,0,2000-01-01 01:00:00,2016-04-03 02:51:08,883000/4e0f1cc93043a87c37c96dd39a53cb18-d.jpg,,
19408519,Timeless Rapture: Inspired Verse from the Shangpa Masters,,,,"Jamgon Kongtrul, Ngawang Zangpo, Ngawang Zangpo",2003,,Snow Lion Publications,,416,0,English,,,,"1559392045,9781559392044",,,,,,,,,OL15561021M,,0,,,,,1,1,1,3005189,pdf,E311883DE01E73C352D25E54B6EA89EE,,,"e311883de01e73c352d25e54b6ea89ee~1559392045,9781559392044.pdf",0,2000-01-01 01:00:00,2016-04-03 02:51:08,390000/e311883de01e73c352d25e54b6ea89ee-d.jpg,,
19408520,How to Free Your Mind: Tara the Liberator,,,,Thubten Chodron,2005,,Snow Lion Publications,,224,0,English,183,,,"1559392266,9781559392266",,,,,,,,,OL8610663M,,0,,,,,1,1,1,1665707,pdf,E504124F1F7B1BC1F8DF053A2A4DF923,,,"e504124f1f7b1bc1f8df053a2a4df923~1559392266,9781559392266.pdf",0,2000-01-01 01:00:00,2016-04-03 02:51:08,390000/e504124f1f7b1bc1f8df053a2a4df923-d.jpg,,
19408521,The Cambridge Companion to the Jesuits ,,Cambridge Companions to Religion,,Thomas Worcester,2008,1,Cambridge University Press,,374,0,English,,,,"0521857317,9780521673969,9780521857314",,,,,,,,,OL10437507M,,0,,,,,,1,1,22759477,pdf,E3084645698017B2562D2B9A89964BFC,,,"e3084645698017b2562d2b9a89964bfc~0521857317,9780521673969,9780521857314.pdf",0,2000-01-01 01:00:00,2016-04-03 02:51:08,390000/e3084645698017b2562d2b9a89964bfc-d.jpg,,
19408522,Adhesion Molecules: Function and Inhibition ,,Progress in Inflammation Research,,"Klaus Ley, Klaus Ley",2007,1,BirkhÃ¤user Basel,,309,0,English,,,,"376437974X,9783764379742",,,,,571.9/6,QP552.C42 A344 2007,,,OL12867076M,,0,,,,,,,1,2700174,pdf,EA3E5D59BB868C9EC29202C095A90DFD,,,"ea3e5d59bb868c9ec29202c095a90dfd~376437974X,9783764379742.pdf",0,2000-01-01 01:00:00,2016-04-03 02:51:08,390000/ea3e5d59bb868c9ec29202c095a90dfd-d.jpg,,
19408523,Big Book of Knitting,,,,Katharina Buss,2001,1st Pbk. Ed,Sterling,,240,0,English,,,,"0806963174,9780806963174",,,,,,,,,OL7943752M,,0,,,,,1,,0,50879268,djvu,EA5FBFB0164931E49D691CCA6A7A4F92,534cacc9dd2fe8be461d0f0744f35672,no,"ea5fbfb0164931e49d691cca6a7a4f92~0806963174,9780806963174.djvu",0,2000-01-01 01:00:00,2016-04-03 02:51:08,390000/ea5fbfb0164931e49d691cca6a7a4f92-d.jpg,,
19408524,Language Change: Progress or Decay? ,,Cambridge Approaches to Linguistics,,Jean Aitchison,2001,3,Cambridge University Press,,326,0,English,314,,,"0521791553,9780521791557,9780511041174,0521795354,9780521795357",,,,,417/.7,P142 .A37 2001,,KjcYC0qp2PgC,OL6782308M,,0,,,,1,0,1,1,934019,pdf,EA89131950B0855C665A66FC77160579,,,"ea89131950b0855c665a66fc77160579~0521791553,9780521791557,9780511041174,0521795354,9780521795357.pdf",0,2000-01-01 01:00:00,2016-04-03 02:51:08,390000/ea89131950b0855c665a66fc77160579-g.jpg,,
19408525,The Elusive God: Reorienting Religious Epistemology,,,,Paul K. Moser,2008,1,Cambridge University Press,,308,0,English,205,,,"0521889030,9780521889032",,,,,212/.6,BL51 .M743 2008,,,OL16867723M,,0,,,,,,,1,1427285,pdf,EB05DCF8C20100D55A6AC5E0B3170C23,,,"eb05dcf8c20100d55a6ac5e0b3170c23~0521889030,9780521889032.pdf",0,2000-01-01 01:00:00,2016-04-03 02:51:08,390000/eb05dcf8c20100d55a6ac5e0b3170c23-d.jpg,,
19408526,A Companion to Museum Studies ,,Blackwell Companions in Cultural Studies,,Sharon Macdonald,2006,,Wiley-Blackwell,,592,0,English,,,,"1405108398,9781405108393",,,,,69,AM7 .C59 2006,,,OL22726354M,,0,,,,,,1,1,5215692,pdf,EBA6FA22036CC9883116A46415ABBE89,,,"eba6fa22036cc9883116a46415abbe89~1405108398,9781405108393.pdf",0,2000-01-01 01:00:00,2016-04-03 02:51:08,390000/eba6fa22036cc9883116a46415abbe89-d.jpg,,
19408527,Greek Religion ,,New Surveys in the Classics No. 24,,Jan N. Bremmer,2006,1,Oxford University Press,,132,0,English,205,,,"0199220735,9780199220731",,,,,,,,,OL16811209M,,0,,,,,1,,0,68091653,pdf,EC4C46A2B0934BB98EEBBB4AC3B94964,,,"ec4c46a2b0934bb98eebbb4ac3b94964~0199220735,9780199220731.pdf",0,2000-01-01 01:00:00,2016-04-03 02:51:08,390000/ec4c46a2b0934bb98eebbb4ac3b94964-d.jpg,,
19408528,A Concise Companion to Shakespeare and the Text ,,Concise Companions to Literature and Culture,,Andrew R. Murphy,2007,,Wiley-Blackwell,,280,0,English,,,,"9781405135283,9781405181488,140513528X",,,,,,,,,OL17228219M,,0,,,,,,1,1,1472638,pdf,EC4CDDAADB765BDD4BA47030FD161734,,,"ec4cddaadb765bdd4ba47030fd161734~9781405135283,9781405181488,140513528X.pdf",0,2000-01-01 01:00:00,2016-04-03 02:51:08,390000/ec4cddaadb765bdd4ba47030fd161734-d.jpg,,
19408529,The Lord of the Rings ,,"The Lord of the Rings'',",,J.R.R. Tolkien,1974,Collectors,Houghton Mifflin Harcourt,,1347,0,English,,,,"9780395193952,9780618345847,0395193958,0618345841",,,,,823/.9/12,"PZ3.T576 Lo10,PR6039.O32 Lo10",,,OL5237526M,missing front material,0,,,,0,0,,0,13674248,pdf,ECD8C602C7C884EFA24EB64A32C85E8D,,,"ecd8c602c7c884efa24eb64a32c85e8d~9780395193952,9780618345847,0395193958,0618345841.pdf",0,2000-01-01 01:00:00,2016-04-03 02:51:08,390000/ecd8c602c7c884efa24eb64a32c85e8d-d.jpg,,
19408530,Complete PCB Design Using OrCAD Capture and PCB Editor,,,,Kraig Mitzner,2009,Pap/Cdr,Newnes,,488,0,English,97,,,"0750689714,9780750689717",,,,,621.3815/31,TK7868.P7 .M562 2009,,,OL23020586M,,0,,,,,,1,1,56339448,pdf,ED4B685EA8688367F0C078814C0261F3,,,"ed4b685ea8688367f0c078814c0261f3~0750689714,9780750689717.pdf",0,2000-01-01 01:00:00,2016-04-03 02:51:08,390000/ed4b685ea8688367f0c078814c0261f3-d.jpg,,
19408531,"Social History of Art, Boxed Set: The Social History of Art: Naturalism, Impressionism, the Film Age",Vol. 4,,,Arnold Hauser,1999,3,Routledge,,320,0,English,64,,,"9780203981825,9780415199483,0415199484",,,,,,,,,OL7486183M,,0,,,,,1,1,1,2101244,pdf,ED9D666AC518DF29A90B16E87D36FE99,,,"ed9d666ac518df29a90b16e87d36fe99~9780203981825,9780415199483,0415199484.pdf",0,2000-01-01 01:00:00,2016-04-03 02:51:08,390000/ed9d666ac518df29a90b16e87d36fe99-d.jpg,,
19408532,The Uses of Cultural Studies: A Textbook,,,,Dr Angela McRobbie,2005,1,Sage Publications Ltd,,224,0,English,,,,"1412908442,9781412908443",,,,,306.071/1,HM623 .M39 2005,,,OL3937107M,,0,,,,,,,1,1198002,pdf,ED219E8AD35268F2B08F8916F73FF0B6,,,"ed219e8ad35268f2b08f8916f73ff0b6~1412908442,9781412908443.pdf",0,2000-01-01 01:00:00,2016-04-03 02:51:08,390000/ed219e8ad35268f2b08f8916f73ff0b6-d.jpg,,
19408533,Jewish Mysticism and Magic: An Anthropological Perspective ,,Routledge Jewish Studies Series,,Maureen Bloom,2007,,Routledge,,256,0,English,14,,,"0415421128,9780415421126,9780203962015",,,,,,,,,OL22757013M,,0,,,,,1,1,1,1402349,pdf,EDEA5DB4CE0B57246597E596BEBE1C60,,,"edea5db4ce0b57246597e596bebe1c60~0415421128,9780415421126,9780203962015.pdf",0,2000-01-01 01:00:00,2016-04-03 02:51:08,390000/edea5db4ce0b57246597e596bebe1c60-d.jpg,,
19408534,The Victorian Eighteenth Century: An Intellectual History,,,,B.W. Young,2007,,"Oxford University Press, USA",,200,0,English,64,,,"0199256225,9780199256228,9781435622555",,,,,941.081,DA550 .Y57 2007,,,OL10146244M,,0,,,,,1,1,1,1182187,pdf,EE10068C295F95CD691114D04E8641A3,,,"ee10068c295f95cd691114d04e8641a3~0199256225,9780199256228,9781435622555.pdf",0,2000-01-01 01:00:00,2016-04-03 02:51:08,390000/ee10068c295f95cd691114d04e8641a3-d.jpg,,
19408535,Essential Blues Guitar,,,,Dave Celentano,1998,,Centerstream Publications,,80,0,English,62,,,"1574240609,9781574240603",,,,,,,,,OL8740666M,,0,,,,,1,,0,4990470,pdf,EEC4EC246C8341D0854D5C4CF109D264,,,"eec4ec246c8341d0854d5c4cf109d264~1574240609,9781574240603.pdf",0,2000-01-01 01:00:00,2016-04-03 02:51:08,390000/eec4ec246c8341d0854d5c4cf109d264-d.jpg,,
19408536,"Symbol and the Symbolic: Ancient Egypt, Science, and the Evolution of Consciousness",,,,R. A. Schwaller de Lubicz,1981,,Inner Traditions,,96,0,English,64,,,"089281022X,9780892810222",,,,,110,BF1623.S9 S3813 1981,,,OL4267375M,,0,,,,,1,,1,1069731,pdf,EEFE4A86A39F66C6FF5B0A6CEC7BCAAF,,,"eefe4a86a39f66c6ff5b0a6cec7bcaaf~089281022X,9780892810222.pdf",0,2000-01-01 01:00:00,2016-04-03 02:51:08,390000/eefe4a86a39f66c6ff5b0a6cec7bcaaf-d.jpg,,
19408537,Concise Companion to Postwar American Literature and Culture ,,Concise Companions to Literature and Culture,,Josephine G. Hendin,2004,,Wiley-Blackwell,,444,0,English,,,,"0631207090,9780631207092",,,,,810.9/0054,PS225 .C66 2004,,,OL3679077M,,0,,,,,,1,1,1941262,pdf,EF4E021451B5F7788A837A444600A4C4,,,"ef4e021451b5f7788a837a444600a4c4~0631207090,9780631207092.pdf",0,2000-01-01 01:00:00,2016-04-03 02:51:08,390000/ef4e021451b5f7788a837a444600a4c4-d.jpg,,
19408538,Tibetan Ritual,,,,Jose Ignacio Cabezon,2009,,"Oxford University Press, USA",,320,0,English,,,,"0195392825,9780195392821",,,,,294.3/438,BL1945.T5 T54 2010,,,OL23192781M,,0,,,,,1,1,1,2641700,pdf,EF880B916B4A86D47C327F27DF6B7742,,,"ef880b916b4a86d47c327f27df6b7742~0195392825,9780195392821.pdf",0,2000-01-01 01:00:00,2016-04-03 02:51:08,390000/ef880b916b4a86d47c327f27df6b7742-d.jpg,,
19408539,Deja Review Emergency Medicine,,,,David Jang,2007,1,McGraw-Hill Medical,,385,0,English,147,,,"0071476253,9780071476256,9780071593717",,,,,616.02/5,RC86.9 .J36 2008,10.1036/0071476253,,OL18495742M,,0,,,,0,0,1,1,2184449,pdf,EF83096CCBBF0AE04EA2155A26ADDFA1,,,"ef83096ccbbf0ae04ea2155a26addfa1~0071476253,9780071476256,9780071593717.pdf",0,2000-01-01 01:00:00,2016-04-03 02:51:08,390000/ef83096ccbbf0ae04ea2155a26addfa1-d.jpg,,
19408540,Bailey and Love's Short Practice of Surgery ,,A Hodder Arnold Publication,,"Norman S Williams, Christopher J.K. Bulstrode, P Ronan O'Connell",2008,25th,"Oxford University Press, USA",,1536,0,English,175,,,"9780340939321,034093932X",,,,,,,,,OL10680661M,,0,,,,,,1,1,86799951,pdf,EFC63409B44DEED467478DB2A65E4A99,,,"efc63409b44deed467478db2a65e4a99~9780340939321,034093932X.pdf",0,2000-01-01 01:00:00,2016-04-03 02:51:08,390000/efc63409b44deed467478db2a65e4a99-d.jpg,,
19408541,Naturalism: A Critical Analysis ,,Routledge Studies in Twentieth Century Philosophy,,"William Craig, J.P. Moreland",2000,,Routledge,,304,0,English,117,,,"9780415235242,0415235243",,,,,,,,,OL7487732M,,0,,,,,1,1,1,2128442,pdf,F0FDD849B040D06459643973A4D80792,,,"f0fdd849b040d06459643973a4d80792~9780415235242,0415235243.pdf",0,2000-01-01 01:00:00,2016-04-03 02:51:08,390000/f0fdd849b040d06459643973a4d80792-d.jpg,,
19408542,Lectures on the History of Moral Philosophy,,,,"John Rawls, Barbara Herman (edt)",2000,,Harvard University Press,Cambridge and London,408,0,English,195,,0,"0674004426,9780674004429",,,,,170/.9/03,BJ301 .R39 2000,,,OL6782617M,,0,,,,,,1,1,1888266,pdf,F1B73AA80CFAAFEB06A4EE225A5699E5,611689711D4F10A40E0A83F92E1689B7,no,"f1b73aa80cfaafeb06a4ee225a5699e5~0674004426,9780674004429.pdf",0,2000-01-01 01:00:00,2016-04-03 02:51:08,390000/f1b73aa80cfaafeb06a4ee225a5699e5-d.jpg,,
19408543,A Companion to Philosophy of Law and Legal Theory ,,Blackwell Companions to Philosophy,,Dennis Patterson,2010,2,Wiley-Blackwell,,704,0,English,,,,"1405170069,9781405170062",,,,,340/.1,KF379 .C66 2010,,,OL23713372M,,0,,,,,1,1,1,3292289,pdf,F1F4A1231C52C94A66169366ABB671C0,,,"f1f4a1231c52c94a66169366abb671c0~1405170069,9781405170062.pdf",0,2000-01-01 01:00:00,2016-04-03 02:51:08,390000/f1f4a1231c52c94a66169366abb671c0-d.jpg,,
19408544,"Sword of Wisdom: MacGregor Mathers and \The Golden Dawn\""""",,,,Ithell Colquhoun,1975,First American Edition,G. P. Putnam's Sons,,320,0,English,,,,"039911534X,9780399115349",,,,,,,,,,,0,,,,,,,1,22736626,pdf,F2A045E662683C7AE09B9D3A53995304,,,"f2a045e662683c7ae09b9d3a53995304~039911534X,9780399115349.pdf",0,2000-01-01 01:00:00,2016-04-03 02:51:08,390000/f2a045e662683c7ae09b9d3a53995304-g.jpg,,
19408545,My Chess Career,,,,Jose Raul Capablanca,1966,,Dover Publications,,194,0,English,46,,,"0486215482,9780486215488",,,,,,,,,OL15055642M,,0,,,,,,,0,5939685,pdf,F3AA1B6A7F2323284C250ABB74A3AE2B,,,"f3aa1b6a7f2323284c250abb74a3ae2b~0486215482,9780486215488.pdf",0,2000-01-01 01:00:00,2016-04-03 02:51:08,390000/f3aa1b6a7f2323284c250abb74a3ae2b-d.jpg,,
19408546,Soviet Marxism,,,,Herbert Marcuse,1985,,Columbia University Press,,271,0,English,117,,,"0231083793,9780231083799",,,,,,,,,OL9898779M,,0,,,,,1,,1,9672813,pdf,F3B24D6ACE566DA80B2158D44332776A,,,"f3b24d6ace566da80b2158d44332776a~0231083793,9780231083799.pdf",0,2000-01-01 01:00:00,2016-04-03 02:51:08,390000/f3b24d6ace566da80b2158d44332776a-d.jpg,,
19408547,How To Make A Silencer For A Mini-14,,,,Anonymous,1997,,Paladin Press,,40,0,English,183,,,"0873649133,9780873649131",,,,,683.4/22,TS535.2.S5 H694 1997,,,OL746863M,,0,,,,,1,,0,2258401,pdf,F3D75A942687C073A12BB9316E8EB974,,,"f3d75a942687c073a12bb9316e8eb974~0873649133,9780873649131.pdf",0,2000-01-01 01:00:00,2016-04-03 02:51:08,390000/f3d75a942687c073a12bb9316e8eb974-d.jpg,,
19408548,Qutub: The Point,,,,Andrew D. Chumbley,1995,0,Xoanon Publishers,,90,0,English,,,0,"9780951926420,095192642X",,,,,,,,,,,0,,,,,1,,1,838058,pdf,F3D80AEE03E39C7D6E55464C82E110A4,,,"f3d80aee03e39c7d6e55464c82e110a4~9780951926420,095192642X.pdf",0,2000-01-01 01:00:00,2016-04-03 02:51:08,390000/f3d80aee03e39c7d6e55464c82e110a4-d.jpg,,
19408549,Letter to a Christian Nation,,,,Sam Harris,2006,1ST,Knopf,,96,0,English,205,,,"0307265773,9780307265777",,,,,277.3/083,BR516 .H255 2006,,,OL23240748M,,0,,,,,1,,1,296738,pdf,F4C2FF11C787139B8CD1DFDED5F8148D,,,"f4c2ff11c787139b8cd1dfded5f8148d~0307265773,9780307265777.pdf",0,2000-01-01 01:00:00,2016-04-03 02:51:08,390000/f4c2ff11c787139b8cd1dfded5f8148d-d.jpg,,
19408550,Homo academicus ,,"Collection \Le Sens commun\""""",,Pierre Bourdieu,1984,,Editions de Minuit,,302,0,French,195,,,"9782707306968,2707306967",,,,,378/.12/0944,LB2331.74.F8 B68 1984,,,OL16817305M,,0,,,,,1,,0,13574390,pdf,F4E567B5232FF475D376861E188D3925,,,"f4e567b5232ff475d376861e188d3925~9782707306968,2707306967.pdf",0,2000-01-01 01:00:00,2016-04-03 02:51:08,390000/f4e567b5232ff475d376861e188d3925-g.jpg,,
19408551,"Blueprint for Corporate Governance, A: Strategy, Accountability, and the Preservation of Shareholder Value",,,,Fred R. Kaen,2003,1st,AMACOM,,256,0,English,305,,,"081440586X,9780814405864,9780814426982",,,,,,,,,OL15529020M,,0,,,,,1,1,1,1049635,pdf,F6C6506016D6BCA41718DB2395590514,,,"f6c6506016d6bca41718db2395590514~081440586X,9780814405864,9780814426982.pdf",0,2000-01-01 01:00:00,2016-04-03 02:51:08,390000/f6c6506016d6bca41718db2395590514-d.jpg,,
19408552,Mahayana Buddhism: The Doctrinal Foundations ,,The Library of Religious Beliefs and Practices,,Paul Williams,2008,2,Routledge,,456,0,English,205,,,"0415356520,9780415356527,9780203428474",,,,,294.3/92,BQ7405 .W55 2008,,,OL18299053M,,0,,,,1,0,1,1,3350333,pdf,F8CE5C698BA392C814BF72EA012C421C,,,"f8ce5c698ba392c814bf72ea012c421c~0415356520,9780415356527,9780203428474.pdf",0,2000-01-01 01:00:00,2016-04-03 02:51:08,390000/f8ce5c698ba392c814bf72ea012c421c-d.jpg,,
19408553,Abroad,,,,Thomas B. Crane,2009,,Books LLC,,56,0,English,,,,"0981213723,9780981213729",,,,,,,,,,,0,,,,,1,,1,11190208,pdf,F8D6F4B90E197DD9540895B787175DB1,,,"f8d6f4b90e197dd9540895b787175db1~0981213723,9780981213729.pdf",0,2000-01-01 01:00:00,2016-04-03 02:51:08,390000/f8d6f4b90e197dd9540895b787175db1-d.jpg,,
19408554,Cultural Memory Studies: An International and Interdisciplinary Handbook ,,Media and Cultural Memory/ Medien Und Kulturelle Erinnerung,,"Erll, Astrid, Astrid Erll",2008,1,Walter de Gruyter,,441,0,English,,,,"3110188600,9783110188608,9783110207262",,,,,306.01,HM621 .C8534 2008,,,OL16839328M,,0,,,,,,1,1,1535924,pdf,F8D9B55E1A11E37CC317A67EEA36BC02,,,"f8d9b55e1a11e37cc317a67eea36bc02~3110188600,9783110188608,9783110207262.pdf",0,2000-01-01 01:00:00,2016-04-03 02:51:08,390000/f8d9b55e1a11e37cc317a67eea36bc02-d.jpg,,
19408555,Introduction to Emptiness: As Taught in Tsong-kha-pa's Great Treatise on the Stages of the Path,,,,Guy Newland,2009,New,Snow Lion Publications,,144,0,English,,,,"1559393327,9781559393324",,,,,294.3/422,BQ7950.T754 L344436 2009,,,OL23535552M,,0,,,,,1,1,1,1793111,pdf,F10CB141ECA8825E6DD4C3B4C9E8431B,,,"f10cb141eca8825e6dd4c3b4c9e8431b~1559393327,9781559393324.pdf",0,2000-01-01 01:00:00,2016-04-03 02:51:08,390000/f10cb141eca8825e6dd4c3b4c9e8431b-d.jpg,,
19408556,A Companion to Asian American Studies ,,Blackwell Companions in Cultural Studies,,Kent A. Ono,2004,,Wiley-Blackwell,,400,0,English,,,,"1405115947,9781405115940,9781405137096",,,,,305.895/073,E184.A75 C66 2005,,,OL3295060M,,0,,,,,1,1,1,1780726,pdf,F22F0D8B8904BBA3927620363EEF3E61,,,"f22f0d8b8904bba3927620363eef3e61~1405115947,9781405115940,9781405137096.pdf",0,2000-01-01 01:00:00,2016-04-03 02:51:08,390000/f22f0d8b8904bba3927620363eef3e61-d.jpg,,
19408557,"Functional Operators, The Geometry of Orthogonal Spaces. ",volume 2,AM-22 Annals of Mathematics Studies,,John von Neumann,1950,,Princeton University Press,,116,0,English,113,,,"0691095795,9780691095790",,,,,,,,,OL7758301M,,0,,,,,1,,0,5627632,pdf,F49F2F730C0E858E0881FCC3C78A70BF,,,"f49f2f730c0e858e0881fcc3c78a70bf~0691095795,9780691095790.pdf",0,2000-01-01 01:00:00,2016-04-03 02:51:08,390000/f49f2f730c0e858e0881fcc3c78a70bf-d.jpg,,
19408558,Globalization and Conflict: National Security in a 'New' Strategic Era ,,Contemporary Security Studies,,Robert G. Patman,2006,1,Routledge,,288,0,English,,,,"0415359872,9780415359870",,,,,355/.033,JZ5588 .G59 2006,,,OL22736605M,,0,,,,,1,1,1,1314140,pdf,F62E652C0D787DA3B21937BBAFCF6877,,,"f62e652c0d787da3b21937bbafcf6877~0415359872,9780415359870.pdf",0,2000-01-01 01:00:00,2016-04-03 02:51:08,390000/f62e652c0d787da3b21937bbafcf6877-d.jpg,,
19408559,Blackwell Guide to Aesthetics ,,Blackwell Philosophy Guides,,Peter Kivy,2004,,Wiley-Blackwell,,365,0,English,195,,,"9780631221302,9781405143059,0631221301,063122131X,9780631221319,9781405143066",,,,,,,,,OL15593255M,,0,,,,1,0,,1,1031548,pdf,F70B5E2365DFD0D9783AB70B7412EC0A,,,"f70b5e2365dfd0d9783ab70b7412ec0a~9780631221302,9781405143059,0631221301,063122131X,9780631221319,9781405143066.pdf",0,2000-01-01 01:00:00,2016-04-03 02:51:08,390000/f70b5e2365dfd0d9783ab70b7412ec0a-d.jpg,,
19408560,"Einführung in die Constraint-Programmierung : Grundlagen, Methoden, Sprachen, Anwendungen",,EXamen.press,,Petra Hofstedt; Armin Wolf,2007,,Springer,Berlin,389,0,German,,usenet,to 2012-06,"9783540681946,3540681949",,,,,,,,,,,0,,,,,,,1,5712858,pdf,e6b7035eb5d9a270e55be70364202cd0,,,I:\\usenet_ger\\Einfuehrung.in.die.Constraint-Programmierung.-.Springer.-.2007.-.p78260.pdf,0,2000-01-01 01:00:00,2016-04-03 02:51:08,883000/e6b7035eb5d9a270e55be70364202cd0-g.jpg,,
19408561,The Legacy of Nuremberg: Civilising Influence or Institutionalised Vengeance? ,,International Humanitarian Law,,"David A. Blumenthal, Timothy L. H. McCormack",2007,,Martinus Nijhoff Publishers / Brill Academic,,338,0,English,,,,"9004156917,9789004156913,9789047423362",,,,,341.6/90268,KZ1176.5 .L44 2008,,,OL12799165M,,0,,,,,1,,1,2964327,pdf,F85F4D42B234E4A8A947B281A00B7B52,,,"f85f4d42b234e4a8a947b281a00b7b52~9004156917,9789004156913,9789047423362.pdf",0,2000-01-01 01:00:00,2016-04-03 02:51:08,390000/f85f4d42b234e4a8a947b281a00b7b52-d.jpg,,
19408562,"Technology, War and Fascism: Collected Papers of Herbert Marcuse,",volume 1 ,Herbert Marcuse: Collected Papers,,"Herbert Marcuse, Douglas Kellner",1998,1,Routledge,,296,0,English,195,,,"0415137802,9780415137805",,,,,191,"B945 .M298 1998 vol. 1,T14 .M298 1998 vol. 1",,,OL669062M,,0,,,,,1,1,1,14456032,pdf,F196DA745D13406F3AAD7C5A5B8D197F,,,"f196da745d13406f3aad7c5a5b8d197f~0415137802,9780415137805.pdf",0,2000-01-01 01:00:00,2016-04-03 02:51:08,390000/f196da745d13406f3aad7c5a5b8d197f-d.jpg,,
19408563,The Complete Idiot's Guide to Finance and Accounting,,,,Michael Muckian,1998,,Alpha,,320,0,English,183,,,"0028617525,9780028617527",,,,,658.15,HF5635 .M896 1998,,,OL708472M,,0,,,,,,,1,33116673,pdf,F0280C13EF944ABAC0FA3AC8954DA466,,,"f0280c13ef944abac0fa3ac8954da466~0028617525,9780028617527.pdf",0,2000-01-01 01:00:00,2016-04-03 02:51:08,390000/f0280c13ef944abac0fa3ac8954da466-d.jpg,,
19408564,Going the Distance: Why Some Companies Dominate and Others Fail,,,,"Kevin Kennedy, Mary Moore",2003,,FT Press,,289,0,English,,,,"0130461202,9780130461209",,,,,658.4,HD57.7 .K465 2003,,,OL22731445M,,0,,,,,,1,1,2754690,pdf,F465BFB7650FB313495FCABCC18F5346,,,"f465bfb7650fb313495fcabcc18f5346~0130461202,9780130461209.pdf",0,2000-01-01 01:00:00,2016-04-03 02:51:08,390000/f465bfb7650fb313495fcabcc18f5346-d.jpg,,
19408565,Calculo,Tomo 1 / 6b,,,Roland E. Larson,2000,,McGraw-Hill Interamericana,,897,0,Spanish,,,,"9789701027554,9701027558,8448122291,9788448122294",,,,,,,,,OL13149886M,,0,,,,,1,1,0,86396863,pdf,F58327FEDCFB43A50B88789141467579,,,"f58327fedcfb43a50b88789141467579~9789701027554,9701027558,8448122291,9788448122294.pdf",0,2000-01-01 01:00:00,2016-04-03 02:51:08,390000/f58327fedcfb43a50b88789141467579-g.jpg,,
19408566,Zigbee Wireless Networking,,,,Drew Gislason,2008,Pap/Psc,Newnes,,427,0,English,99,,,"0750685972,9780750685979",,,,,,,,,OL9757720M,,0,,,,,,,1,6180709,pdf,F92345DE58C9776DEE7FACD90078E8EE,,,"f92345de58c9776dee7facd90078e8ee~0750685972,9780750685979.pdf",0,2000-01-01 01:00:00,2016-04-03 02:51:08,390000/f92345de58c9776dee7facd90078e8ee-g.jpg,,
19408567,Awareness: The Perils and Opportunities of Reality,,,,Anthony De Mello,1990,,Image,,184,0,English,,,,"0385249373,9780385249379",,,,,248.4/82,BX2350.2 .D446 1992,,,OL24957989M,,0,,,,,1,,1,449053,pdf,F3476703CA8461E7FB8E1ACD2A02ACBF,,,"f3476703ca8461e7fb8e1acd2a02acbf~0385249373,9780385249379.pdf",0,2000-01-01 01:00:00,2016-04-03 02:51:08,390000/f3476703ca8461e7fb8e1acd2a02acbf-d.jpg,,
19408568,The Kingdom of Christ: The New Evangelical Perspective,,,,Russell D. Moore,2004,,Crossway Books,,320,0,English,,,,"1581346271,9781581346275",,,,,,,,,OL8783144M,,0,,,,,,,1,1157944,pdf,F8280707712C7C63B4D116AF5E5A3E58,,,"f8280707712c7c63b4d116af5e5a3e58~1581346271,9781581346275.pdf",0,2000-01-01 01:00:00,2016-04-03 02:51:08,390000/f8280707712c7c63b4d116af5e5a3e58-d.jpg,,
19408569,Strange Life of Ivan Osokin,,,,P.D. Ouspensky,1983,,Law Book Co of Australasia,,168,0,English,,,,"0710094191,9780710094193",,,,,891.73/3,PR6041.S72 S77 1983,,,OL2285263M,,0,,,,,1,,1,1101756,pdf,FA8C59CB3724D345F1761C1900B18B1E,,,"fa8c59cb3724d345f1761c1900b18b1e~0710094191,9780710094193.pdf",0,2000-01-01 01:00:00,2016-04-03 02:51:08,390000/fa8c59cb3724d345f1761c1900b18b1e-g.jpg,,
19408570,"Demonstratives: Form, Function, and Grammaticalization",,Typological Studies in Language 42,,Holger Diessel,1999,1st,John Benjamins Publishing Company,,218,0,English,314,,0,"9781556196560,1556196563,9027229430,9789027229434,1556196571,9781556196577,9027298572,9789027298577,9027229422,9789027229427",,,,,415,P299.D46 D54 1999,,,,,0,,,,0,0,1,1,2050027,pdf,FA70DA8CF465C9C067E31990808F7DDB,,,"fa70da8cf465c9c067e31990808f7ddb~9781556196560,1556196563,9027229430,9789027229434,1556196571,9781556196577,9027298572,9789027298577,9027229422,9789027229427.pdf",0,2000-01-01 01:00:00,2016-04-03 02:51:08,390000/fa70da8cf465c9c067e31990808f7ddb-g.jpg,,
19408571,Essential History: Jacques Derrida and the Development of Deconstruction,,SPEP,,Joshua Kates,2005,,Northwestern University Press,,352,0,English,64,,0,"0810123274,9780810123274,0810123266,9780810123267,9780810162365",,,,,194,B2430.D484 K38 2005,,,,,0,,,,,1,1,1,1273861,pdf,FAA074CA78200EBC49E6B4B71713C298,,,"faa074ca78200ebc49e6b4b71713c298~0810123274,9780810123274,0810123266,9780810123267,9780810162365.pdf",0,2000-01-01 01:00:00,2016-04-03 02:51:08,390000/faa074ca78200ebc49e6b4b71713c298-d.jpg,,
19408572,Make: Technology on Your Time,volume 04,,,Mark Frauenfelder Ed.,2005,,O'Reilly Media,,192,0,English,210,,,"0596100817,9780596100810",,,,,,,,,OL7581295M,,0,,,,,,,0,46355153,pdf,FAC2EAA8BD075F93AD11939F97E4C915,,,"fac2eaa8bd075f93ad11939f97e4c915~0596100817,9780596100810.pdf",0,2000-01-01 01:00:00,2016-04-03 02:51:08,390000/fac2eaa8bd075f93ad11939f97e4c915-d.jpg,,
19408573,Basic Engineering Circuit Analysis,,,,"J. David Irwin, R. Mark Nelms",2008,9,Wiley,,855,0,English,210,,,"0470128690,9780470128695",,,,,,,,,OL10279696M,end of index after letter  S,0,,,,,,,1,167297841,pdf,FAC839B9D1B1ADED71BA8247ECCCFFD7,,,"fac839b9d1b1aded71ba8247ecccffd7~0470128690,9780470128695.pdf",0,2000-01-01 01:00:00,2016-04-03 02:51:08,390000/fac839b9d1b1aded71ba8247ecccffd7-d.jpg,,
19408574,Can God Intervene?: How Religion Explains Natural Disasters,,,,Gary Stern,2007,,Praeger,,245,0,English,205,,,"0275989585,9780275989583",,,,,202/.118,BL65.N33 S74 2007,,,OL10289690M,,0,,,,,,,1,1890713,pdf,FAEDD2E080D1994BA1AD3B5540EA2A11,,,"faedd2e080d1994ba1ad3b5540ea2a11~0275989585,9780275989583.pdf",0,2000-01-01 01:00:00,2016-04-03 02:51:08,390000/faedd2e080d1994ba1ad3b5540ea2a11-d.jpg,,
19408575,Ärger im Bellona - Club. 'The Unpleasantness at the Bellona Club',,,,Dorothy L. Sayers,1983,,Rowohlt Tb.,,295,0,German,,,,"3499151790,9783499151798",,,,,,,,,OL12743397M,,0,,,,,,1,1,962562,pdf,FB00DA9DD2299691DCFAB707BFCF3A6E,,,"fb00da9dd2299691dcfab707bfcf3a6e~3499151790,9783499151798.pdf",0,2000-01-01 01:00:00,2016-04-03 02:51:08,390000/fb00da9dd2299691dcfab707bfcf3a6e-d.jpg,,
19408576,Signs in Ophthalmology: Causes and Differential Diagnosis: Expert Consult - Online and Print,,,,Jack J. Kanski MD  MS  FRCS  FRCOphth,2010,Har/Psc,Mosby,,440,0,English,161,,,"0723435480,9780723435488",,,,,,,,,,,0,,,,,,,,158175651,chm,FB8357A590643CBC43E003D1E70D135D,,,"fb8357a590643cbc43e003d1e70d135d~0723435480,9780723435488.chm",0,2000-01-01 01:00:00,2016-04-03 02:51:08,390000/fb8357a590643cbc43e003d1e70d135d-d.jpg,,
19408577,Ethnicity and Nationalism ,,"Anthropology, Culture and Society Series",,Thomas Hylland Eriksen,1993,,Pluto Press,,140,0,English,14,,,"0745307000,9780745307008",,,,,305.8,GN495.6 .E75 1993,,,OL1397018M,,0,,,,,,,0,37565722,pdf,FBB7C57DE84FC0B95D68F5F98BBB0172,,,"fbb7c57de84fc0b95d68f5f98bbb0172~0745307000,9780745307008.pdf",0,2000-01-01 01:00:00,2016-04-03 02:51:08,390000/fbb7c57de84fc0b95d68f5f98bbb0172-g.jpg,,
19408578,An Introduction to Credit Risk Modeling ,,Chapman & Hall/Crc Financial Mathematics Series,,"Christian Bluhm, Ludger Overbeck, Christoph Wagner",2002,1,Chapman and Hall/CRC,,297,0,English,,,,"158488326X,9781584883265",,,,,,,,,OL8795329M,,0,,,,,1,,1,5221396,pdf,FCAE3727360661263FEB574C2363C187,,,"fcae3727360661263feb574c2363c187~158488326X,9781584883265.pdf",0,2000-01-01 01:00:00,2016-04-03 02:51:08,390000/fcae3727360661263feb574c2363c187-d.jpg,,
19408579,On Suicide Bombing ,,The Wellek Library Lectures,,Talal Asad,2007,,Columbia University Press,,138,0,English,,,,"0231141521,9780231141529,9780231511971",,,,,,,,TygcrZZTX1EC,OL22753737M,,0,,,,1,0,1,1,1050708,pdf,FD0F519A10502C70531DA664FDA3CD68,,,"fd0f519a10502c70531da664fda3cd68~0231141521,9780231141529,9780231511971.pdf",0,2000-01-01 01:00:00,2016-04-03 02:51:08,390000/fd0f519a10502c70531da664fda3cd68-d.jpg,,
19408580,The Sociology of Gender and the Family: Families and their Relatives ,,International Library of Sociology,,"Hubert Firth, Forge Firth",2003,1,Routledge,,492,0,English,281,,,"0415176433,9780415176439,9780203001783",,,,,,,,,OL22363774M,,0,,,,,1,1,1,2789201,pdf,FD34BCB4A1BA74FAE8568B38A54894E0,,,"fd34bcb4a1ba74fae8568b38a54894e0~0415176433,9780415176439,9780203001783.pdf",0,2000-01-01 01:00:00,2016-04-03 02:51:08,390000/fd34bcb4a1ba74fae8568b38a54894e0-d.jpg,,
19408581,Contexts And Dialogue: Yogacara Buddhism And Modern Psychology on the Subliminal Mind ,,Society for Asian and Comparative Philosophy Monographs,,Tao Jiang,2006,,University of Hawaii Press,,198,0,English,205,,,"0824831063,9780824831066,9781435666443",,,,,,,,,OL8162028M,,0,,,,,1,,1,1193514,pdf,FD298C67D4D0693F2CCF23F9BE73088A,,,"fd298c67d4d0693f2ccf23f9be73088a~0824831063,9780824831066,9781435666443.pdf",0,2000-01-01 01:00:00,2016-04-03 02:51:08,390000/fd298c67d4d0693f2ccf23f9be73088a-d.jpg,,
19408582,Politics in the Ancient World ,,Cambridge Paperback Library,,M. I. Finley,1983,,Cambridge University Press,,162,0,English,64,,,"0521275709,9780521275705",,,,,320.938,JC51 .F55 1983,,,OL3160071M,,0,,,,,1,,0,9135210,pdf,FDC6E2C2C27F2B9E79BF4800B3ED5CAF,,,"fdc6e2c2c27f2b9e79bf4800b3ed5caf~0521275709,9780521275705.pdf",0,2000-01-01 01:00:00,2016-04-03 02:51:08,390000/fdc6e2c2c27f2b9e79bf4800b3ed5caf-d.jpg,,
19408583,Mythologies,,,,"Roland Barthes, Annette Lavers",1972,,"Farrar, Straus and Giroux",,160,0,English,111,,,"0374521506,9780374521509",,,,,81,AC25 .B3132 1972b,,,OL20498221M,,0,,,,,1,,1,2386947,pdf,FDFDF765DC151B05499E8789C37D6FBC,,,"fdfdf765dc151b05499e8789c37d6fbc~0374521506,9780374521509.pdf",0,2000-01-01 01:00:00,2016-04-03 02:51:08,390000/fdfdf765dc151b05499e8789c37d6fbc-d.jpg,,
19408584,The Blackwell Companion to Natural Theology,,,,"William Lane Craig, J. P. Moreland",2009,,Wiley-Blackwell,,704,0,English,,,,"1405176571,9781405176576,9781444308341",,,,,212/.1,BL175 .B53 2009,,,OL23158943M,,0,,,,,,,1,5180967,pdf,FE62B89D225C81C95ED61D965A6FF014,,,"fe62b89d225c81c95ed61d965a6ff014~1405176571,9781405176576,9781444308341.pdf",0,2000-01-01 01:00:00,2016-04-03 02:51:08,390000/fe62b89d225c81c95ed61d965a6ff014-d.jpg,,
19408585,The Big Boasting Battle,,,,Hans Wilhelm,1995,1st,Scholastic,,28,0,English,,,,"0590222112,9780590222112",,,,,,,,,OL7885219M,,0,,,,,,1,0,1271381,pdf,FE388C5D1131C83A4AE15EFD26E41B12,,,"fe388c5d1131c83a4ae15efd26e41b12~0590222112,9780590222112.pdf",0,2000-01-01 01:00:00,2016-04-03 02:51:08,390000/fe388c5d1131c83a4ae15efd26e41b12-d.jpg,,
19408586,Terms in Context,,Studies in Corpus Linguistics,,Jennifer Pearson,1998,,John Benjamins Publishing Co,,242,0,English,314,,0,"9781556193422,1556193424,9027298920,9789027298928,902722269X,9789027222695",,,,,401/.4,P305.18.D38 P4 1998,,,OL355376M,,0,,,,,1,1,1,2146076,pdf,FEB7F06106338B21EF8767637CD5A391,,,"feb7f06106338b21ef8767637cd5a391~9781556193422,1556193424,9027298920,9789027298928,902722269X,9789027222695.pdf",0,2000-01-01 01:00:00,2016-04-03 02:51:08,390000/feb7f06106338b21ef8767637cd5a391-d.jpg,,
19408587,Heiress For Hire,,,,Erin McCarthy,2006,First Edition,Berkley Trade,,300,0,English,,,,"0425207617,9780425207611",,,,,813/.6,PS3613.C34575 H45 2006,,,OL3410915M,,0,,,,,1,,,403264,lit,FED5A09C175AFB59C097669E67CD0927,,,"fed5a09c175afb59c097669e67cd0927~0425207617,9780425207611.lit",0,2000-01-01 01:00:00,2016-04-03 02:51:08,390000/fed5a09c175afb59c097669e67cd0927-d.jpg,,
19408588,A Companion to Shakespeare's Works: The Tragedies ,,Blackwell Companions to Literature and Culture Volume I,,"Richard Dutton, Jean E. Howard",2005,,Wiley-Blackwell,,504,0,English,,,,"9781405136051,063122632X,1405136057",,,,,,,,,OL9759952M,,0,,,,,1,1,1,2429587,pdf,FF1A699FA583071DD4986DD11A2F9D29,,,"ff1a699fa583071dd4986dd11a2f9d29~9781405136051,063122632X,1405136057.pdf",0,2000-01-01 01:00:00,2016-04-03 02:51:08,390000/ff1a699fa583071dd4986dd11a2f9d29-d.jpg,,
19408589,Elite Cultures: Anthropological Perspectives ,,ASA Monographs v. 38,,"Stephen Nugent, Cris Shore",2002,,Routledge,,272,0,English,14,,,"0415277957,9780415277952",,,,,305.5/2,GN492.25 .E34 2002,,,OL21086871M,,0,,,,,1,1,1,8523528,pdf,FF2FAD38C846C813D966941778A78434,,,"ff2fad38c846c813d966941778a78434~0415277957,9780415277952.pdf",0,2000-01-01 01:00:00,2016-04-03 02:51:08,390000/ff2fad38c846c813d966941778a78434-d.jpg,,
19408590,The Blackwell Companion to Jesus ,,Blackwell Companions to Religion,,Delbert Burkett,2010,1,Wiley-Blackwell,,576,0,English,,,,"140519362X,9781405193627,9781444327953",,,,,,,,,,,0,,,,,,1,1,5207748,pdf,FFDC8F79B8BB9E0C159F8A11ACBE626C,,,"ffdc8f79b8bb9e0c159f8a11acbe626c~140519362X,9781405193627,9781444327953.pdf",0,2000-01-01 01:00:00,2016-04-03 02:51:08,390000/ffdc8f79b8bb9e0c159f8a11acbe626c-d.jpg,,
19408591,Обыкновенное шютте сосны: Лекции,,,,"Аминев П.И., Минкевич И.И.",1986,,ЛТА,Л,60,0,Russian,183,,0,,,,,,,,,,,,0,,,,,,,0,477259,djvu,832F4C706217CDE0786EF02A0ABF3AD6,8a47391dc9eeba38126ae1590cc61912,no,"Аминев, Минкевич. Обыкновенное шутте сосны. Лекции",0,2000-01-01 01:00:00,2016-04-03 02:51:08,390000/832f4c706217cde0786ef02a0abf3ad6-g.jpg,,
19408592,Болезни сосны и дуба и борьба с ними в питомниках и культурах,,,,"Власов, А. А., Шафранская, В. Н., Анкудинов",1951,,Гослесбумиздат,М.-Л.,134,0,Russian,191,,0,,,,,,,,,,,,0,,,,,,,0,2271488,djvu,6412E67E86AE43EB14E237E762C6D277,ab4c035095edc23bc01258199654b3f9,no,"Анкудинов, Власов, Шафранская. Болезни сосны и дуба и борба с ними в питомниках и културах",0,2000-01-01 01:00:00,2016-04-03 02:51:08,390000/6412e67e86ae43eb14e237e762c6d277-g.jpg,,
19408593,Missbrauchsverhinderungsnormen und Standortwahl : eine rechtsvergleichende und modelltheoretische Analyse des Einflusses von CFC-Regeln und Unterkapitalisierungsregeln,,Gabler Edition Wissenschaft,,Alexander Linn,2007,,Deutscher Universitäts-Verlag,Wiesbaden,373,0,German,,usenet,to 2012-06,"9783835096110,3835096117",,,,,,,,,,,0,,,,,,,1,1987122,pdf,65a3554c3852ca0efef4d64abbe21ae1,,,I:\\usenet_ger\\Missbrauchsverhinderungsnormen.und.Standortwahl.[Springer].[2007].[p561lv].pdf,0,2000-01-01 01:00:00,2016-04-03 02:51:08,884000/65a3554c3852ca0efef4d64abbe21ae1-g.jpg,,
19408594,Химические методы и средства защиты растений в Лесном Хозяйстве и озеленении,,,,Белов Д.А.,2003,,МГУЛ,М,131,0,Russian,29,,0,,,,,,,,,,,,0,,,,,,,0,2695311,djvu,F21E8A8F6A05B3CA9BAD79BA42BCA25F,0d2099bef4ec81c4a89228b11803554f,no,Белов. Химические методы и средства засчиты растены в ЛХ и озеленении,0,2000-01-01 01:00:00,2016-04-03 02:51:08,390000/f21e8a8f6a05b3ca9bad79ba42bca25f-g.jpg,,
19408595,Патология леса,,,,А.И. Воронцов,1978,,Лесная промышленность,М,272,0,Russian,,,0,,,,,,,,,,,,0,,,,,,,0,3428298,djvu,BC69D6F81AB9A036E09F4535E39B6038,a4cf7736c3d66b15b4ac636fe08ace69,no,Воронцов. Патология леса,0,2000-01-01 01:00:00,2016-04-03 02:51:08,390000/bc69d6f81ab9a036e09f4535e39b6038-g.jpg,,
19408596,Лесная кладовая,,,,"Т. Иванова, Л. Путинцева",1993,,Приокское книжное издательство,,352 стр.,0,Russian,48,,0,5-7639-0532-6,,,,,,,,,,,0,,,,,,,0,5820864,djvu,8D7D969ACC7C38A81D32B47484BE04A8,a8f11710ab94826513c34c4e042790fb,no,"Иванова, Путинцева. Лесная кладовая",0,2000-01-01 01:00:00,2016-04-03 02:51:08,390000/8d7d969acc7c38a81d32b47484be04a8-g.jpg,,
19408597,Лесные культуры,,,,"Кальной Н.Г., Гордиенко М.И., Корецкий Г.С.",1986,,Вища школа,Киев,254,0,Russian,191,,0,,,,,,,,,,,,0,,,,,,,0,3710947,djvu,F2F9C6B88D36E3CA352C01DDE784974E,7d91207df100b46c57ff5274717ec0d2,no,"Калноы, гордиенко, корецкы. лесные културы",0,2000-01-01 01:00:00,2016-04-03 02:51:08,390000/f2f9c6b88d36e3ca352c01dde784974e-g.jpg,,
19408598,Сельскохозяйственная фитовирусология: Учебное пособие,,,,И.А. Карташева,2007,,Колос,,168,0,Russian,183,,0,978-5-10-003954-2,,,,,,,,,,,0,,,,,,,0,3577844,djvu,516B7D41F9ABC044C931CC5ACB9F5977,68590a7f1fcf6c3def8fa6d13aace559,no,kartasheva2007_selskohoz_fitovirusol.djvu,0,2000-01-01 01:00:00,2016-04-03 02:51:08,390000/516b7d41f9abc044c931cc5acb9f5977-g.jpg,,
19408599,Инфекционные болезни городских насаждений и меры борьбы с ними: учебное пособие,,,,"Кузьмичев Е.П., Соколова Э.С., Куликова Е.Г., Под ред. Е.Г. Мозолевской",2002,,МГУЛ,М,87,0,Russian,183,,0,,,,,,,,,,,,0,,,,,,,0,1623648,djvu,069E3A9F1452241D0B78DB8823B3F7E6,8e4fdde643c521fa586b5aba9c76188e,no,"Кузмичев, Соколова, Куликова. Инфекционные болезни городских насаждены",0,2000-01-01 01:00:00,2016-04-03 02:51:08,390000/069e3a9f1452241d0b78db8823b3f7e6-g.jpg,,
19408600,Таблицы и модели хода роста и продуктивности насаждений основных лесообразующих пород Северной Евразии (нормативно-справочные материалы),,,,"Швиденко А.З., Щепащенко Д.Г., Нильссон С., Булуй Ю.И.",2008,2,М: Федеральное агентство лесного хозяйства,,886,0,Russian,,,0,,,,,,,,,,,,0,,,,,,,0,5186320,djvu,610DBBC10DC5F3B6D26BED388373076B,3e752fac5035a7e2dbc3043655165922,no,Таблицы и моделы хода роста и продуктивности насаждены основных лесообразуусчих пород северноы евразии,0,2000-01-01 01:00:00,2016-04-03 02:51:08,390000/610dbbc10dc5f3b6d26bed388373076b-g.jpg,,
19408601,Комплексное использование недревесной продукции леса в народном хозяйстве и медицине. Учебное пособие,,,,"О.М. Шапкин, О.В. Никитина, С.П. Погиба, С.П. Зуихина, С.Л. Шкаринов, Б.Н. Владимиров",19999,,МГУл,Москва,336,0,Russian,183,,0,,,,,,,,,,,,0,,,,,,,0,6232005,djvu,C9AA6E628626250C40AC5FD5406D74F1,826ab386078020f5c4f9ac0d597f4cd8,no,Шапкин и др. Комплексное исползование недревесноы продукции леса в народном хозяыстве и медицине,0,2000-01-01 01:00:00,2016-04-03 02:51:08,390000/c9aa6e628626250c40ac5fd5406d74f1-g.jpg,,
19408602,Mastering Enterprise JavaBeans 3.0,,,,"Rima Patel Sriganesh, Gerald Brose, Micah Silverman",2006,4,Wiley,,685,0,English,79,,0,"0471785415,9780471785415",,,,,,,,,OL7621528M,,0,,,,,,,0,10383816,pdf,1FCAA493AFBA2DF00113F927D356AE5E,,,Wiley.MasteringEJB.3.0.4thEd,0,2000-01-01 01:00:00,2016-04-03 02:51:08,390000/1fcaa493afba2df00113f927d356ae5e-d.jpg,,
19408603,Путешествие в Страну Линейного Программирования,,В мире науки и техники,,Гасс С.,1973,,Мир,,176,0,Russian,87,,0,,,,,,,,,,,,0,,,,,,,0,2892952,djvu,50B4928E6C7778B6E2861746BB33908D,f9daeec67304264dd3fe22f1c6ccc27b,no,"Гасс С. - Путешествие в Страну Линейного Программирования [Мир, 1973]",0,2000-01-01 01:00:00,2016-04-03 02:51:08,390000/50b4928e6c7778b6e2861746bb33908d-g.jpg,,
19408604,Технология разреженных матриц,,,,Писсанецки С.,1988,,Мир,,410,0,Russian,232,,0,,,,,,,,,,,,0,,,,,,,0,5548763,djvu,11401BC1A157C2C7DF9CC4DE17CFEBF6,581f9eaa9caa383a03460bf59cd140bc,no,"Писсанецки С. - Технология разреженных матриц [Мир, 1988]",0,2000-01-01 01:00:00,2016-04-03 02:51:08,390000/11401bc1a157c2c7df9cc4de17cfebf6-g.jpg,,
19408605,Численные методы для симметричных линейных систем,,,,Икрамов Х. Д.,1988,,Наука,,160,0,Russian,120,,0,,,,,,,,,,,,0,,,,,,,0,2090792,djvu,929EACCD75F4D6DD7CB398A3C74958FC,651c724192b6fbdd1454e48aa58c2449,no,"Икрамов Х. Д. - Численные методы для симметричных линейных систем [Наука, 1988]",0,2000-01-01 01:00:00,2016-04-03 02:51:08,390000/929eaccd75f4d6dd7cb398a3c74958fc-g.jpg,,
19408606,Прикладные итерационные методы,,,,"Хейгеман Л., Янг Д.",1986,,Мир,,448,0,Russian,,,0,,,,,,,,,,,,0,,,,,,,0,6780798,djvu,5C077F19003EE0BA66C6E85F55B62214,4bb3a4f5c1fe99b8b792eaec7cf95dda,no,"Хейгеман Л. Янг Д. - Прикладные итерационные методы [Мир, 1986]",0,2000-01-01 01:00:00,2016-04-03 02:51:08,390000/5c077f19003ee0ba66c6e85f55b62214-g.jpg,,
19408607,Нильс Хенрик Абель - замечательный математик,,,,Оре О.,1961,,ГИФМЛ,,344,0,Russian,113,,0,,,,,,,,,,,,0,,,,,,,0,20610503,djvu,6366AB24523C9222821ECFA6B03A3871,e38954b7d3a793206d99db6711aeaa1b,no,"Оре О. - Нильс Хенрик Абель - замечательный математик [ГИФМЛ, 1961] (версия 1.1)",0,2000-01-01 01:00:00,2016-04-03 02:51:08,390000/6366ab24523c9222821ecfa6b03a3871-g.jpg,,
19408608,pfSense - The Definitive Guide,,,,"Christopher M. Buechler, Jim Pingle",2009,"1st edition (November 1, 2009)",Reed Media Services,,516,0,English,69,,0,0979034280,,,,,,,,,,,0,,,,,,1,1,4844184,pdf,4D447762ED918E169C60D38DF3D5D894,,,pfSense - The Definitive Guide,0,2000-01-01 01:00:00,2016-04-03 02:51:08,390000/4d447762ed918e169c60d38df3d5d894-d.jpg,,
19408609,Pattern Recognition with Neural Networks in C++,,,,"Abhijit S. Pandya, Robert B. Macy",1995,1,CRC-Press,,432,0,English,74,,0,"0849394627,9780849394621",,,,22.186,006.4,QA76.87 .P36 1996,,,OL1273162M,,0,,,,,,,,13298958,chm,A56403A7D37B3FE35C5A9AC963D4B92E,,,Pattern_Recognition_with_Neural_Networks_in_C  ,0,2000-01-01 01:00:00,2016-04-03 02:51:08,390000/a56403a7d37b3fe35c5a9ac963d4b92e-d.jpg,,
19408610,Logic-Based Knowledge Representation,,,,Baader F,1999,,Springer,,29,0,English,130,,0,,,,,,,,,,,,0,,,,,,,1,1816682,pdf,AF80B5FA9280DF0C7887A59AE4CE532C,,,Logic - -Based Knowledge Representation,0,2000-01-01 01:00:00,2016-04-03 02:51:08,390000/af80b5fa9280df0c7887a59ae4ce532c-g.jpg,,
19408611,Pattern Recognition and Neural Networks,,,,"Yann LeCun , Yoshua Bengio",1995,,,,22,0,English,74,,0,,,,,,,,,,,,0,,,,,,,1,99532,djvu,0B94AE2F045D1888D6C81B1EFB4B4DEB,,,lecun-bengio-95b_pattern_recognition,0,2000-01-01 01:00:00,2016-04-03 02:51:08,390000/0b94ae2f045d1888d6c81b1efb4b4deb-g.jpg,,
19408612,"Fuzzy decision making through trade-off analysis between criteria - Lee, Kuo",,,,"Lee J , Kuo J",1997,,,,20,0,English,134,,0,,,,,,,,,,,,300,,,,,,,0,238651,djvu,559234A1F958FD69B0EA3B9A0549D9DB,f9d8fde0138685b68c38e1dd4b40347a,no,"Fuzzy decision making through trade-off analysis between criteria - Lee, Kuo",0,2000-01-01 01:00:00,2016-04-03 02:51:08,390000/559234a1f958fd69b0ea3b9a0549d9db-g.jpg,,
19408613,Auditing Information Systems,,,,Mario Piattini,1999,,Idea Group Publishing,,246,0,English,86,,0,"1878289756,9781878289759",,,,,,,,,OL8673996M,,0,,,,,,,,1417524,chm,3F40918791E26BE90A88EB2BB3356B00,,,Idea Group - Auditing Information Systems - 2000,0,2000-01-01 01:00:00,2016-04-03 02:51:08,390000/3f40918791e26be90a88eb2bb3356b00-d.jpg,,
19408614,Making Process Improvement Work: A Concise Action Guide for Software Managers and Practitioners,,,,"Neil S. Potter, Mary E. Sakry",2002,,Addison-Wesley Professional,,192,0,English,87,,0,"0201775778,9780201775778",,,,,,,,,OL18172872M,,0,,,,,,,,1199309,chm,B984D1B5A36A6B5712E46DCCA90339B3,,,Business Process - Making Process Improvement Work-Fly,0,2000-01-01 01:00:00,2016-04-03 02:51:08,390000/b984d1b5a36a6b5712e46dcca90339b3-d.jpg,,
19408615,"Приборы и системы для измерения вибрации, шума и удара",Том 1,,,Клюев В.В. (ред),1978,,Машиностроение,Москва,448,0,Russian,220,,0,,,,621.002.56:534.647 + 534.3223 + 531.66(031),34.9,,,,,,,600,0,1,,,,,0,9930597,djvu,AC00E25004A94D15AB1673335DD7D35F,ac5045a57fc4d0233cf7f622e1d0c81a,no,Клюев Приборы и системы для измерения. Том 1,0,2000-01-01 01:00:00,2016-04-03 02:51:08,390000/ac00e25004a94d15ab1673335dd7d35f-g.jpg,,
19408616,"Приборы и системы для измерения вибрации, шума и удара",Том 2,,,Клюев В.В. (ред),1978,,Машиностроение,Москва,440,0,Russian,220,,0,,,,621.002.56: 534.647 + 534.3223 + 531.66(031),34.9,,,,,,,600,0,1,,,,,0,12050697,djvu,2E59E4530E5C9E1A703093A137C04C2A,799ae59b5dda6af0fbd08965bfa6f6ae,no,353418_38B36_klyuev_v_v_red_pribory_i_sistemy_dlya_izmereniya_vibracii_sh,0,2000-01-01 01:00:00,2016-04-03 02:51:08,390000/2e59e4530e5c9e1a703093a137c04c2a-g.jpg,,
19408617,Rings and properties of lattices of I-radicals,,Buletinul Academiei de Stiinte a Republicii Moldova 1 (38),,"Horbachuk O.L., Maturin Yu.P.",2002,,,Chisinau,10,0,English,113,,0,,,,,,,,,,,,0,,,,,,,0,439573,pdf,B609AB4CCA2AA8C0B269AD52D81FE616,,,12,0,2000-01-01 01:00:00,2016-04-03 02:51:08,390000/b609ab4cca2aa8c0b269ad52d81fe616-g.jpg,,
19408618,"Professional JavaScript Frameworks: Prototype,YUI, ExtJS, Dojo and MooTools (Wrox Programmer to Programmer)",,Programmer to Programmer,,"Leslie M. Orchard, Ara Pehlivanian, Scott Koon, Harley Jones",2009,,Wrox,,888,0,English,92,,0,"047038459X,9780470384596",,,,,,,,,,,0,,,,,,,1,11517221,pdf,061F4A9D44FAC3AB112816C94D4B9D15,,,Wrox.Professional.JavaScript.Frameworks.Prototype.YUI.ExtJS.Dojo.and.MooTools.Aug.2009,0,2000-01-01 01:00:00,2016-04-03 02:51:08,390000/061f4a9d44fac3ab112816c94d4b9d15-d.jpg,,
19408619,Classical Electromagnetism,,,,Alexander L. Fetter,1994,,Stanford University,,312,0,English,287,,0,,,,,,,,,,,,0,,,,,,,0,18252333,pdf,59A511DDCEE765E539951AB81E2A3B94,04ebcff635ef5e76f888d28d4af2a4da,no,Fetter_Classical_Electromagnetism,0,2000-01-01 01:00:00,2016-04-03 02:51:08,390000/59a511ddcee765e539951ab81e2a3b94-g.jpg,,
19408620,Модернизация в России и конфликт ценностей,,,,"Ахиезер А.С., Козлова Н.Н., Матвеева С.Я.",1994,,ИФ РАН,,250,0,Russian,37,,0,5201018521,,,,,,,,,OL841046M,,0,,,,,,,1,1768048,pdf,560BBDC9CBB84BBBD60EED116F8E312E,,,ahiezer,0,2000-01-01 01:00:00,2016-04-03 02:51:08,390000/560bbdc9cbb84bbbd60eed116f8e312e-g.jpg,,
19408621,Социальные и духовные ценности на рубеже II и III тысячелетий,,,,Бессонов Б.Н.,2006,,Норма,,320,0,Russian,,,0,5468000288,,,,,,,,,,,0,,,,,,,1,2033392,pdf,BAF5BDC79414A39C188259C5E29EA01C,,,bessonov,0,2000-01-01 01:00:00,2016-04-03 02:51:08,390000/baf5bdc79414a39c188259c5e29ea01c-g.jpg,,
19408622,Ценности и символы массовой коммуникации,,,,Костенко Н.В.,1993,,Наукова думка,,132,0,Russian,194,,0,5120039219,,,,,,,,,OL1211854M,,0,,,,,,,1,53403028,pdf,8E52769413D7D368064FFF5FB6CFDB4A,,,costenco,0,2000-01-01 01:00:00,2016-04-03 02:51:08,390000/8e52769413d7d368064fff5fb6cfdb4a-g.jpg,,
19408623,Seminar on Combinatorial Topology,,,,E. C. Zeeman,1966,"bookmarks, searchable",IHES / University of Warwick,,306,0,English,121,,0,,,,,,,,,,,,300,,,0,,,,1,18680132,pdf,8B5ED4E02EC1AB9787A1943F4594FB92,,,zeeman,0,2000-01-01 01:00:00,2016-04-03 02:51:08,390000/8b5ed4e02ec1ab9787a1943f4594fb92-g.jpg,,
19408624,Piecewise Linear Topology,,,,J. F. P Hudson,1969,"bookmarks, searchable",W. A. Benjamin,,289,0,English,121,,0,,,B0006C4AWQ,,,,,,,,,300,0,,0,,,1,1,11922851,pdf,7F78B5CB1FD4DF563988F6BC24C2A1BC,,,Hudson,0,2000-01-01 01:00:00,2016-04-03 02:51:08,390000/7f78b5cb1fd4df563988f6bc24c2a1bc-g.jpg,,
19408625,Ценности глобализирующегося мира,,,,Делокаров К.Х.,2002,,Scientific Press Ltd,,189,0,Russian,194,,0,,,,,,,,,,,,0,,,,,,,1,1233170,pdf,8DE4AFD3FE4F3F42B5EEF95F0C182E22,,,delocarov,0,2000-01-01 01:00:00,2016-04-03 02:51:08,390000/8de4afd3fe4f3f42b5eef95f0c182e22-g.jpg,,
19408626,Ценности и символы национального самосознания в условиях изменяющегося общества,,,,Дробижева Л.М.,1994,,Институт этнологии и антропологии РАН,,236,0,Russian,194,,0,,,,,,,,,,,,0,,,,,,,1,1745728,pdf,A85980211F5D143883A3087C72A2151F,,,drobijeva,0,2000-01-01 01:00:00,2016-04-03 02:51:08,390000/a85980211f5d143883a3087c72a2151f-g.jpg,,
19408627,Философия ценностей и ранняя аксиологическая мысль,,,,Шохин В.К.,2006,,Изд-во РУДН,,457,0,Russian,194,,0,5209019713,,,,,,,,,,,0,,,,,,,1,3280913,pdf,AED0EDBBA34CD3F4B5591680AE4904F9,,,filosofiachennoct,0,2000-01-01 01:00:00,2016-04-03 02:51:08,390000/aed0edbba34cd3f4b5591680ae4904f9-g.jpg,,
19408628,Химические источники тока : Справочник,,,,"Коровин, Николай Васильевич (ред.) , Скундин А.М. (ред.)",2003,,МЭИ,Москва,42,0,Russian,,,0,5-7046-0899-X,,,621.351,,,,,,,только первые две главы,600,0,,,,,,0,639733,djvu,A2FABDFD64703C3CE9AD2FE0F04A0246,fe67e8778c415301e5fb573376a9f2c2,no,ВНИМАНИЕ,0,2000-01-01 01:00:00,2016-04-03 02:51:08,390000/a2fabdfd64703c3ce9ad2fe0f04a0246-d.jpg,,
19408629,Динамические системы и модели биологии,,,,"Братусь А.С., Новожилов А.С., Платонов А.П.",2010,1,Физматлит,Москва,436,0,Russian,123,,0,978-5-9221-1192-8,,,,,,,,,OL24499248M,,0,,,0,,,,1,5633422,pdf,D17CCF33EFCD659472CDF93205DD4E5B,,,2010_Dynamical_systems_and_models_in_biology,0,2000-01-01 01:00:00,2016-04-03 02:51:08,390000/d17ccf33efcd659472cdf93205dd4e5b-d.jpg,,
19408630,Компактные модели МОП-транзисторов для SPICE в микро- и наноэлектронике,,,,Денисенко В. В.,2010,,ФИЗМАТЛИТ,М.,408,0,Russian,250,lib.aldebarans.ru,0,978-5-9221-1200-0,,,621.382,32.844.1,,,,,,,0,0,1,,,,1,1,4124354,djvu,50919BDE20089B57E39AA02903FFE0C1,,,Компактные модели МОП-транзисторов для SPICE в микро- и наноэлектронике,0,2000-01-01 01:00:00,2016-04-03 02:51:08,390000/50919bde20089b57e39aa02903ffe0c1-g.jpg,,
19408631,Основи медичного законодавства України,,,,"Хміль І.Ю., Михайличенко Б.В., Артеменко О.І.",2010,,ВЦ «R&К»,Київ,234,0,Ukrainian,147,,0,,,,34,67,,,,,,,0,0,0,1,,,,1,17793069,pdf,DE5A8FBC6C175B83A96843E3B53D27B0,,,%D5%EC%B3%EB%FC%20%EC%E5%E4.%EF%F0%E0%E2%EE,0,2000-01-01 01:00:00,2016-04-03 02:51:08,390000/de5a8fbc6c175b83a96843e3b53d27b0-g.jpg,,
19408632,Interior-Point Algorithm: Theory and Analysis,,,,Yinyu Ye,1996,,Univ. Iova,Iowa City,338,0,English,71,,0,,,,,,,,,,,,0,,,,,,,1,1498999,pdf,DF75CE0E92E69EF38177B3C9D59FBAD6,,,Yinyu Ye - Interior-Point Algorithm: Theory and Analysis 1996 ,0,2000-01-01 01:00:00,2016-04-03 02:51:08,390000/df75ce0e92e69ef38177b3c9d59fbad6-g.jpg,,
19408633,Комментарий к роману А. С. Пушкина Евгений Онегин,,,,Набоков В.,1998,,"Искусство-СПБ, Набоковский фонд",Санкт-Петербург,928,0,Russian,102,,0,5-210-01490-8,,,,,,,,,,,600,0,1,0,,,1,1,17262847,djvu,8CA1C89C7413BD95B3E09B80B3BACC13,,,Nabokov V. Kommentarij k EO (1998)(ru)(T)(K)(600dpi),0,2000-01-01 01:00:00,2016-04-03 02:51:08,390000/8ca1c89c7413bd95b3e09b80b3bacc13-d.jpg,,
19408634,Guide to Horror Videos,,Video Today,,,1986,,Argus Specialist,,36,0,English,,,0,,,,,,,,,,,,0,,,,,,,,30987595,cbr,803F15EB1A83831409306D16F2D7CB54,,,803f15eb1a83831409306d16f2d7cb54Guide to horror video,0,2000-01-01 01:00:00,2016-04-03 02:51:08,390000/803f15eb1a83831409306d16f2d7cb54-d.jpg,,
19408635,Lehrbuch Sozialpsychologie. Aus dem Programm Huber : Psychologie-Lehrbuch,,,,"Herkner, Werner",1991,Bis 4. Aufl. u.d.T.,Huber,"Bern , Stuttgart , Toronto",560,0,German,198,,0,"3456819897,9783456819891,978-3456819891",,,,,,,,,,,0,,,,,,,,3021679,ace,80E40427F83277F3A82A9084CCCC639F,,,39._Lehrbuch_Sozialpsychologie  3-456-81989-7,0,2000-01-01 01:00:00,2016-04-03 02:51:08,,,
19408636,I and Tao: Martin Buber's Encounter With Chuang Tzu,,,,"Jonathan R. Herman, Martin Buber",1996,,State Univ of New York Pr,,278,0,English,195,,,"0791429237,9780791429235",,,,,299/.51482,BL1900.C576 B8334 1996,,,OL788438M,,0,,,,,1,,,650376,chm,C738C0EBD32B08FCBF6FD90E3A594796,,,"F:\\lib\\0791429237,9780791429235,.chm",0,2000-01-01 01:00:00,2016-04-03 02:51:08,,,
19408637,The Martin Buber-Carl Rogers Dialogue : A New Transcript With Commentary,,,,"Rob Anderson, Kenneth  N. Cissna",1997,annotated edition,State University of New York Press,,152,0,English,195,,,"0791434389,9780791434383",,,,,150/.92/2,B3213.B83 M37 1997,,,OL1004391M,,0,,,,,1,,,299495,chm,8173E9A4031DB78B8FBC3080992B0C23,,,"F:\\lib\\0791434389,9780791434383,.chm",0,2000-01-01 01:00:00,2016-04-03 02:51:08,390000/8173e9a4031db78b8fbc3080992b0c23-d.jpg,,
19408638,The Philosophy Of Al Farabi And Its Influence On Medieval Thought,,,,Robert Hammond,2007,,"Kessinger Publishing, LLC",,76,0,English,64,,,"1432628585,9781432628581",,,,,,,,,OL11938724M,,0,,,,,,,1,181627,chm,35EA5448A48D4E0AB7EBA744EAAC2B53,,,"F:\\lib\\1432628585,9781432628581,.chm",0,2000-01-01 01:00:00,2016-04-03 02:51:08,390000/35ea5448a48d4e0ab7eba744eaac2b53-d.jpg,,
19408639,I Am That: Talks with Sri Nisargadatta Maharaj,,,,"Maurice Frydman, Sri Nisargadatta Maharaj",1999,Revised,Chetana Private Ltd,,550,0,English,195,,,"8185300534,9788185300535",,,,,,,,,OL9083213M,,0,,,,,1,,,373326,chm,A591338D91EC0B42ECE0DB644FE1A169,,,"F:\\lib\\8185300534,9788185300535,.chm",0,2000-01-01 01:00:00,2016-04-03 02:51:08,390000/a591338d91ec0b42ece0db644fe1a169-d.jpg,,
19408640,The Marx-Engels Reader ,,,,"Karl Marx, Friedrich Engels, Robert C. Tucker",1978,2nd Revised & enlarged,W. W. Norton & Company,,788,0,English,195,,,"039309040X,9780393090406",,,,,335.4,HX39.5 .M374 1978,,,OL23254203M,,0,,,,,1,,1,24036311,djvu,6FA1461489EA860833CCBF9D1B49AD7E,,,"F:\\lib1\\039309040X,9780393090406,.djvu",0,2000-01-01 01:00:00,2016-04-03 02:51:08,390000/6fa1461489ea860833ccbf9d1b49ad7e-d.jpg,,
19408641,Philosophical Essays on Freud,,,,"Richard Wollheim, James Hopkins",1983,1,Cambridge University Press,,328,0,English,195,,,"052124076X,9780521240765",,,,,150.19/52,BF173.F85 P45 1982,,,OL3481764M,,0,,,,,1,,1,1813043,djvu,E88EB869F36BE5D197D0D93A3200A07E,,,"F:\\lib1\\052124076X,9780521240765,.djvu",0,2000-01-01 01:00:00,2016-04-03 02:51:08,390000/e88eb869f36be5d197d0d93a3200a07e-g.jpg,,
19408642,Auguste Comte: An Intellectual Biography ,Volume 1,Auguste Comte Intellectual Biography,,Mary Pickering,1993,,Cambridge University Press,,790,0,English,195,,,"052143405X,9780521434058",,,,,"194,B",B2247 .P53 1993,,,OL1739178M,,300,,,,,1,,1,4580421,djvu,351F33297FFA7EFA78EFE3F2AC082CDB,,,"F:\\lib1\\052143405X,9780521434058,.djvu",0,2000-01-01 01:00:00,2016-04-03 02:51:08,390000/351f33297ffa7efa78efe3f2ac082cdb-d.jpg,,
19408643,Belief Policies ,,Cambridge Studies in Philosophy,,Paul Helm,1994,,Cambridge University Press,,244,0,English,195,,,"052146028X,9780521460286",,,,,121/.6,BD215 .H439 1994,,,OL1422150M,,0,,,,,1,,1,1116167,djvu,F3C51BBB36C2B606E223D71FE508D4AC,,,"F:\\lib1\\052146028X,9780521460286,.djvu",0,2000-01-01 01:00:00,2016-04-03 02:51:08,390000/f3c51bbb36c2b606e223d71fe508d4ac-d.jpg,,
19408644,Kierkegaard as Religious Thinker,,,,David J. Gouwens,1996,,Cambridge University Press,,268,0,English,205,,,"052146031X,9780521460316",,,,,230/.044/092,B4378.R44 G68 1996,,,OL1279639M,,0,,,,,1,,1,1604081,djvu,CBBDB7B32F6CCE03A120BD8926B981DE,,,"F:\\lib1\\052146031X,9780521460316,.djvu",0,2000-01-01 01:00:00,2016-04-03 02:51:08,390000/cbbdb7b32f6cce03a120bd8926b981de-d.jpg,,
19408645,"The Margins of Orthodoxy: Heterodox Writing and Cultural Response, 1660-1750",,,,Roger D. Lund,1996,,Cambridge University Press,,312,0,English,195,,,"052147177X,9780521471770",,,,,273/.7/0942,BL2765.G7 M37 1995,,,OL1118541M,,0,,,,,1,,1,1609757,djvu,E63437582C90F714771B1A409FCF20E8,,,"F:\\lib1\\052147177X,9780521471770,.djvu",0,2000-01-01 01:00:00,2016-04-03 02:51:08,390000/e63437582c90f714771b1a409fcf20e8-d.jpg,,
19408646,Bentham and Bureaucracy ,,Cambridge Studies in the History and Theory of Politics,,L. J. Hume,2004,,Cambridge University Press,,334,0,English,195,,,"052152606X,9780521526067",,,,,,,,,OL7744540M,,300,,,,,1,,1,1686392,djvu,6996FCDE131C62D38D4516C64C2C6817,,,"F:\\lib1\\052152606X,9780521526067,.djvu",0,2000-01-01 01:00:00,2016-04-03 02:51:08,390000/6996fcde131c62d38d4516c64c2c6817-d.jpg,,
19408647,"Hegel, Haiti, and Universal History ",,Pitt Illuminations,,Susan Buck-Morss,2009,1st,University of Pittsburgh Press,,160,0,English,64,,,"082295978X,9780822959786",,,,,193,B2948 .B845 2009,,,OL22685130M,,0,,,,,1,,0,14671687,djvu,1CFD7C798AD633F9E84019EC4DDCFAF0,b5145e3d5314cbf66d6b0d75a0f4eef0,no,"F:\\lib1\\082295978X,9780822959786,.djvu",0,2000-01-01 01:00:00,2016-04-03 02:51:08,390000/1cfd7c798ad633f9e84019ec4ddcfaf0-d.jpg,,
19408648,System of Ethical Life and First Philosophy of Spirit,,,,Georg Wilhelm Friedrich Hegel,1979,,State Univ of New York Pr,,288,0,English,195,,,"087395386X,9780873953863",,,,,170,B2944.S952 E5 1979,,,OL21222496M,,0,,,,,1,,0,6226936,djvu,205BA269D4DE39C641962AC705EB0810,44c9b76706b928bdd3400bf7b12e0f23,no,"F:\\lib1\\087395386X,9780873953863,.djvu",0,2000-01-01 01:00:00,2016-04-03 02:51:08,390000/205ba269d4de39c641962ac705eb0810-g.jpg,,
19408649,Capital: A Critique of Political Economy,Volume 1,Penguin Classics,,"Karl Marx, Ben Fowkes, Ernest Mandel",1976,,Penguin Classics,,1141,0,English,195,,0,"0140445684,9780140445688",,,,,335.4/1,HB501 .M36 1981,,48TVeM0hFiUC,,,0,,,,0,1,1,1,24092386,djvu,7860BFC4BC220A7FB8D149AF78FCA608,13BED871B55EAF2BB4D95C7B8F23FB50,no,"F:/lib1/0140445684,9780140445688,.djvu",0,2000-01-01 01:00:00,2016-04-03 02:51:08,390000/7860bfc4bc220a7fb8d149af78fca608-d.jpg,,
19408650,Einführung in die allgemeine Betriebswirtschaftslehre : mit Beispielen und Fallstudien,,Lehrbuch,,Joachim Paul,2007,1. Aufl,Gabler,Wiesbaden,640,0,German,,usenet,to 2012-06,"9783834903365,3834903361",,,,,,,,,,,0,,,,,,,1,4486626,pdf,fbc2e5c39d4dbe06a7e7fe1abbdc2df9,,,I:\\usenet_ger\\Einfuehrung.in.die.Allgemeine.Betriebswirtschaftslehre.[Springer].[2006].[np37rv].pdf,0,2000-01-01 01:00:00,2016-04-03 02:51:08,883000/fbc2e5c39d4dbe06a7e7fe1abbdc2df9-d.jpg,,
19408651,On Violence ,,Harvest Book,,Hannah Arendt,1970,1,Mariner Books,,120,0,English,195,,,"0156695006,9780156695008",,,,,303.6,HM886 .A74 1970,,,OL21529658M,,0,,,,,1,,1,969185,djvu,776C378C6F100D486388F93E3AD1B376,,,"F:\\lib1\\0156695006,9780156695008,.djvu",0,2000-01-01 01:00:00,2016-04-03 02:51:08,390000/776c378c6f100d486388f93e3ad1b376-d.jpg,,
19408652,The Essential Davidson,,,,"Donald Davidson, Ernie Lepore, Kirk Ludwig",2006,,"Oxford University Press, USA",,290,0,English,195,,,"0199288852,9780199288854",,,,,191,B945.D381 L47 2006,,,OL3405068M,,0,,,,,1,,0,1487016,djvu,B5B26DF705F494F8A6CFF85427CE043E,ee88b181330bdc029d80b1261d761716,no,"F:\\lib1\\0199288852,9780199288854,.djvu",0,2000-01-01 01:00:00,2016-04-03 02:51:08,390000/b5b26df705f494f8a6cff85427ce043e-d.jpg,,
19408653,Sartre's Second Critique,,,,Ronald Aronson,1987,,Univ of Chicago Pr (Tx),,264,0,English,195,,,"0226028054,9780226028057",,,,,142/.78,B2430.S33 C723 1987,,,OL2736266M,,0,,,,,1,,0,4687903,djvu,C99C07418F566D9FBA9B608D14A5AFFC,ed604f86db767a0bc97c8e0b2dd9a0d4,no,"F:\\lib1\\0226028054,9780226028057,.djvu",0,2000-01-01 01:00:00,2016-04-03 02:51:08,390000/c99c07418f566d9fba9b608d14a5affc-g.jpg,,
19408654,A Commentary on Kant's Critique of Practical Reason ,,Midway Reprint Series,,Lewis White Beck,1984,,Univ of Chicago Pr (Tx),,320,0,English,195,,,"0226040763,9780226040769",,,,,170.92,,,,OL21192738M,,0,,,,,1,,0,8780593,djvu,EAC6C01FC8BDDAAC6C52F9935D7FA2E1,a0b1a4c938e95ebdbb3e926cda10833b,no,"F:\\lib1\\0226040763,9780226040769,.djvu",0,2000-01-01 01:00:00,2016-04-03 02:51:08,390000/eac6c01fc8bddaac6c52f9935d7fa2e1-g.jpg,,
19408655,Images of Science: Essays on Realism and Empiricism ,,Science and Its Conceptual Foundations series,,"Paul M. Churchland, Clifford A. Hooker",1985,,University Of Chicago Press,,314,0,English,195,,,"0226106543,9780226106540",,,,,501,Q175 .I46 1985,,,OL3020969M,,800,,,,,1,,1,4261612,djvu,A3A7D21FF662EF495E1C785394E910EA,,,"F:\\lib1\\0226106543,9780226106540,.djvu",0,2000-01-01 01:00:00,2016-04-03 02:51:08,390000/a3a7d21ff662ef495e1c785394e910ea-d.jpg,,
19408656,The Structural Transformation of the Public Sphere,,Studies in Contemporary German Social Thought,,"Jürgen Habermas, Thomas Burger",1989,,The MIT Press,,323,0,English,195,,0,"0262081806,9780262081801",,,,,305,HM24 .H2713 1989,,,,,0,,,,,1,,1,10147482,djvu,6E9A88D677ED3FBE4DC3323F8A22B1EE,,,"F:/lib1/0262081806,9780262081801,.djvu",0,2000-01-01 01:00:00,2016-04-03 02:51:08,390000/6e9a88d677ed3fbe4dc3323f8a22b1ee-g.jpg,,
19408657,Hegel's Ontology and the Theory of Historicity ,,Studies in Contemporary German Social Thought,,"Herbert Marcuse, Seyla Benhabib",1987,,The MIT Press,,406,0,English,64,,,"0262132214,9780262132213",,,,,111/.092/4,B2949.O5 M313 1987,,,OL21372056M,,0,,,,,1,,0,5600217,djvu,10C69A957B28CCE1AB685172D2629397,c00fcf9dcb60543550057f90eb9ba5a1,no,"F:\\lib1\\0262132214,9780262132213,.djvu",0,2000-01-01 01:00:00,2016-04-03 02:51:08,390000/10c69a957b28cce1ab685172d2629397-g.jpg,,
19408658,How to Read Marx ,,How to Read,,"Peter Osborne, Simon Critchley",2006,1,W. W. Norton & Company,,144,0,English,183,,,"0393328783,9780393328783",,,,,335.4,HX39.5 .O77 2006,,,OL23241521M,,0,,,,,1,,1,1434178,djvu,63E68506A741BCCD6C963B71F7227353,,,"F:\\lib1\\0393328783,9780393328783,.djvu",0,2000-01-01 01:00:00,2016-04-03 02:51:08,390000/63e68506a741bccd6c963b71f7227353-d.jpg,,
19408659,Crit Assess Immanuel Kant,V 2 ,The Routledge critical assessments of leading philosophers,,CHADWICK R,1991,,Routledge,,192,0,English,195,,,"0415074118,9780415074117",,,,,"193 s,121","B2798 .I425 1992 vol. 2,B2779 .I425 1992 vol.",,,OL1704050M,,0,,,,,1,,1,13445664,djvu,FD5C754C845A118365B45D23CF15F4CB,,,"F:\\lib1\\0415074118,9780415074117,.djvu",0,2000-01-01 01:00:00,2016-04-03 02:51:08,390000/fd5c754c845a118365b45d23cf15f4cb-g.jpg,,
19408660,Testing Quantum Mechanics on New Ground,,,,Partha Ghose,2006,1,Cambridge University Press,,224,0,English,269,,,"0521026598,9780521026598",,,,,,,,,OL7714323M,,0,,,,,1,,1,1477460,djvu,8CD90DED397D9C378C72BE4D88265609,,,"F:\\lib1\\0521026598,9780521026598,.djvu",0,2000-01-01 01:00:00,2016-04-03 02:51:08,390000/8cd90ded397d9c378c72be4d88265609-d.jpg,,
19408661,"The Reception of Kant's Critical Philosophy: Fichte, Schelling, and Hegel",,,,Sally Sedgwick,2007,Reissue,Cambridge University Press,,352,0,English,195,,,"0521039096,9780521039093",,,,,,,,,OL9776487M,,0,,,,,1,,1,2027474,djvu,FD2BCBAC081ED6EFCA34115AE5B13BEC,,,"F:\\lib1\\0521039096,9780521039093,.djvu",0,2000-01-01 01:00:00,2016-04-03 02:51:08,390000/fd2bcbac081ed6efca34115ae5b13bec-d.jpg,,
19408662,Ethical Patterns in Early Christian Thought,,,,Eric Osborn,1976,1St Edition,Cambridge University Press,,261,0,English,195,,,"0521208351,9780521208352",,,,,241,BJ1212 .O8,,,OL5189928M,,0,,,,,1,,1,1821990,djvu,D91F51388ABE968875B0DAC0F5508C1D,,,"F:\\lib1\\0521208351,9780521208352,.djvu",0,2000-01-01 01:00:00,2016-04-03 02:51:08,390000/d91f51388abe968875b0dac0f5508c1d-g.jpg,,
19408663,"Philosophers of Peace and War: Kant, Clausewitz, Marx, Engles and Tolstoy ",,The Wiles lectures,,W. B. Gallie,1978,,Cambridge University Press,,160,0,English,195,,,"0521217792,9780521217798",,,,,327/.172,JX1963 .G23,,,OL4553962M,,0,,,,,1,,1,918922,djvu,3EBF487510139F05FB71A9EFDED5E1D0,,,"F:\\lib1\\0521217792,9780521217798,.djvu",0,2000-01-01 01:00:00,2016-04-03 02:51:08,390000/3ebf487510139f05fb71a9efded5e1d0-g.jpg,,
19408664,Political Obligation in its Historical Context: Essays in Political Theory,,,,John Dunn,1980,,Cambridge University Press,,368,0,English,64,,,"0521228905,9780521228909",,,,,323.6/5,JC328 .D84,,,OL4115283M,,0,,,,,1,,1,2250147,djvu,F0FA469682B361F19E9676E0C5B9C753,,,"F:\\lib1\\0521228905,9780521228909,.djvu",0,2000-01-01 01:00:00,2016-04-03 02:51:08,390000/f0fa469682b361f19e9676e0c5b9c753-d.jpg,,
19408665,Conscience in Medieval Philosophy,,,,Timothy C. Potts,1980,,Cambridge University Press,,167,0,English,64,,,"0521232872,9780521232876",,,,,170,B738.C65 C66,,,OL4115542M,,0,,,,,1,,1,900506,djvu,230DF48019C49C0806BC0DBF0145CE57,,,"F:\\lib1\\0521232872,9780521232876,.djvu",0,2000-01-01 01:00:00,2016-04-03 02:51:08,390000/230df48019c49c0806bc0dbf0145ce57-d.jpg,,
19408666,Language and Logos: Studies in Ancient Greek Philosophy Presented to G E L Owen,,,,"Malcolm Schofield, Martha Craven Nussbaum",1982,,Cambridge University Press,,384,0,English,64,,,"0521236401,9780521236409",,,,,180,B171 .L35 1982,,,OL4266278M,,0,,,,,1,,1,2069969,djvu,EFA668380FD7BCEEB4101AFC363A2BE7,,,"F:\\lib1\\0521236401,9780521236409,.djvu",0,2000-01-01 01:00:00,2016-04-03 02:51:08,390000/efa668380fd7bceeb4101afc363a2be7-d.jpg,,
19408667,Nietzsche on Truth and Philosophy ,,Modern European Philosophy,,Maudemarie Clark,1991,,Cambridge University Press,,316,0,English,195,,,"0521343682,9780521343688",,,,,121/.092,B3318.T78 C55 1990,,,OL1876045M,,0,,,,,1,,1,1456847,djvu,89010D4E8C78F5F18B1B15AFF870208B,,,"F:\\lib1\\0521343682,9780521343688,.djvu",0,2000-01-01 01:00:00,2016-04-03 02:51:08,390000/89010d4e8c78f5f18b1b15aff870208b-d.jpg,,
19408668,Einführung in das internationale Management : eine institutionenökonomische Perspektive,,Lehrbuch,,Albrecht Söllner,2008,1. Aufl,Gabler,Wiesbaden,99,0,German,,usenet,to 2012-06,"9783834904041,383490404X",,,,,,,,,,,0,,,,,,,1,1248964,pdf,a9c05f6775634a20bcc1d2b55d5c991c,,,I:\\usenet_ger\\Einfuehrung.in.das.Internationale.Management.[Springer].[2008].[km2875].pdf,0,2000-01-01 01:00:00,2016-04-03 02:51:08,883000/a9c05f6775634a20bcc1d2b55d5c991c-d.jpg,,
19408669,Politics and Process: New Essays in Democratic Thought,,,,"H. G. Brennan, Loren E. Lomasky",1989,,Cambridge University Press,,246,0,English,195,,,"0521350433,9780521350433",,,,,321.8,JC423 .P566 1989,,,OL2182792M,,300,,,,,1,,1,1597548,djvu,33D1353B63D5E9BC6AF4E53AEC53D190,,,"F:\\lib1\\0521350433,9780521350433,.djvu",0,2000-01-01 01:00:00,2016-04-03 02:51:08,390000/33d1353b63d5e9bc6af4e53aec53d190-d.jpg,,
19408670,The Ethics of Romanticism,,,,Laurence S. Lockridge,1989,,Cambridge University Press,,509,0,English,195,,,"0521352568,9780521352567",,,,,,,,,,,300,,,,,1,,1,3273297,djvu,97CE59C4D079100ACCF1742DF78677DB,,,"F:\\lib1\\0521352568,9780521352567,.djvu",0,2000-01-01 01:00:00,2016-04-03 02:51:08,390000/97ce59c4d079100accf1742df78677db-d.jpg,,
19408671,Knowledge in Perspective: Selected Essays in Epistemology ,,Cambridge Studies in Philosophy,,Ernest Sosa,1991,1St Edition,Cambridge University Press,,312,0,English,195,,,"0521356288,9780521356282",,,,,121,BD161 .S647 1991,,,OL1883834M,,0,,,,,1,,1,1554684,djvu,D503872B5FCB88DD17C2E9A929DA770B,,,"F:\\lib1\\0521356288,9780521356282,.djvu",0,2000-01-01 01:00:00,2016-04-03 02:51:08,390000/d503872b5fcb88dd17c2e9a929da770b-d.jpg,,
19408672,"Objectivity, Relativism, and Truth: Philosophical Papers, Volume 1",,,,Richard Rorty,1990,,Cambridge University Press,,236,0,English,281,,0,"0521358779,9780521358774",,,,,"191 s,191","B945 .R52 1991 vol. 1,B945.R523 .R52 1991 vol",,,,,0,,,,,1,1,1,1934690,djvu,111EE3F2FEBBB4CB5857A1324457FF71,,,"F:/lib1/0521358779,9780521358774,.djvu",0,2000-01-01 01:00:00,2016-04-03 02:51:08,390000/111ee3f2febbb4cb5857a1324457ff71-d.jpg,,
19408673,"Double Cross: The Explosive, Inside Story of the Mobster Who Controlled America",,,,"Chuck Giancana, Sam Giancana",2010,,Skyhorse Publishing,,480,0,English,,,0,"1602397783,9781602397781",,,,,,,,,,,0,,,,,,,,895953,mobi,6b501847551f3c3f752989b84ab04dd8,,,1602397783_Double.mobi,0,2000-01-01 01:00:00,2016-04-03 02:51:08,1166000/6b501847551f3c3f752989b84ab04dd8-d.jpg,,
19408674,Rationality and the Analysis of International Conflict ,,Cambridge Studies in International Relations,,Michael Nicholson,1992,1,Cambridge University Press,,276,0,English,117,,,"0521391253,9780521391252",,,,,327.1/6/019,JX1391 .N5 1992,10.1017/CB09780511598739.016,,OL2027717M,,0,,,,,1,,1,1244271,djvu,BB9A3FB55FD54BA66FB9BD1BDBC2B66C,,,"F:\\lib1\\0521391253,9780521391252,.djvu",0,2000-01-01 01:00:00,2016-04-03 02:51:08,390000/bb9a3fb55fd54ba66fb9bd1bdbc2b66c-g.jpg,,
19408675,Probabilistic Causality ,,"Cambridge Studies in Probability, Induction and Decision Theory",,Ellery Eells,1991,,Cambridge University Press,,428,0,English,119,,,"0521392446,9780521392440",,,,,519.5/42,QA279.4 .E34 1991,,,OL1878872M,,0,,,,,1,,1,1787137,djvu,EA7D248E0B1A5A797D1CBFBB106C96E3,,,"F:\\lib1\\0521392446,9780521392440,.djvu",0,2000-01-01 01:00:00,2016-04-03 02:51:08,390000/ea7d248e0b1a5a797d1cbfbb106c96e3-d.jpg,,
19408676,Archaeological Typology and Practical Reality: A Dialectical Approach to Artifact Classification and Sorting,,,,"William Y. Adams, Ernest W. Adams",1991,,Cambridge University Press,,451,0,English,130,,,"0521393345,9780521393348",,,,,930.1/012,CC72.7 .A33 1991,,,OL1880968M,,0,,,,,1,,1,2167349,djvu,ABE6AE36ADEBD2E70159CA43A68D611A,,,"F:\\lib1\\0521393345,9780521393348,.djvu",0,2000-01-01 01:00:00,2016-04-03 02:51:08,390000/abe6ae36adebd2e70159ca43a68d611a-d.jpg,,
19408677,Mind and Common Sense: Philosophical Essays on Common Sense Psychology,,,,Radu J. Bogdan,1991,,Cambridge University Press,,220,0,English,195,,,"0521402018,9780521402019",,,,,150,BF38 .M55 1991,,,OL1887079M,,0,,,,,1,,1,1109038,djvu,5B00AB476441C3208762F95BAA4D0A1F,,,"F:\\lib1\\0521402018,9780521402019,.djvu",0,2000-01-01 01:00:00,2016-04-03 02:51:08,390000/5b00ab476441c3208762f95baa4d0a1f-d.jpg,,
19408678,Passions and Perceptions: Studies in Hellenistic Philosophy of Mind,,,,"Jacques Brunschwig, Martha C. Nussbaum",1993,,Cambridge University Press,,380,0,English,195,,,"0521402026,9780521402026",,,,,128/.2/0938,BF91 .P37 1993,,,OL1561195M,,0,,,,,1,,1,2110723,djvu,62084490594F147D934D7F9DB61F901B,,,"F:\\lib1\\0521402026,9780521402026,.djvu",0,2000-01-01 01:00:00,2016-04-03 02:51:08,390000/62084490594f147d934d7f9db61f901b-d.jpg,,
19408679,The Discourse of Enlightenment in Eighteenth-Century France: Diderot and the Art of Philosophizing ,,Cambridge Studies in French,,Daniel Brewer,1993,,Cambridge University Press,,316,0,English,195,,,"0521414830,9780521414838",,,,,194,B2017 .B75 1993,,,OL1721880M,,0,,,,,1,,1,1675720,djvu,0DDF397979DED37FE8BA701FDF00A26A,,,"F:\\lib1\\0521414830,9780521414838,.djvu",0,2000-01-01 01:00:00,2016-04-03 02:51:08,390000/0ddf397979ded37fe8ba701fdf00a26a-d.jpg,,
19408680,Misunderstanding Science?: The Public Reconstruction of Science and Technology,,,,"Alan Irwin, Brian Wynne",1996,,Cambridge University Press,,240,0,English,181,,,"0521432685,9780521432689",,,,,306.4/5,Q175.5 .M58 1996,,,OL7740651M,,300,,,,,1,,1,1541575,djvu,6DBBBE8BF12FA38173DAD63380AE6739,,,"F:\\lib1\\0521432685,9780521432689,.djvu",0,2000-01-01 01:00:00,2016-04-03 02:51:08,390000/6dbbbe8bf12fa38173dad63380ae6739-d.jpg,,
19408681,An Approach to Political Philosophy: Locke in Contexts ,,Ideas in Context,,"James Tully, Quentin Skinner",1993,First Edition,Cambridge University Press,,352,0,English,195,,,"0521436389,9780521436380",,,,,320/.01,JC153.L87 T837 1993,,,OL1714428M,,0,,,,,1,,1,1851618,djvu,D60BD50CC19F15610AEE28AAA35DC154,,,"F:\\lib1\\0521436389,9780521436380,.djvu",0,2000-01-01 01:00:00,2016-04-03 02:51:08,390000/d60bd50cc19f15610aee28aaa35dc154-d.jpg,,
19408682,Socratic Studies,,,,"Gregory Vlastos, Myles Burnyeat",1994,,Cambridge University Press,,166,0,English,195,,,"0521442133,9780521442138",,,,,183/.2,B317 .V57 1994,,,OL1741284M,,0,,,,,1,,1,830812,djvu,546A1F4826656AAEB5806F6D1119405F,,,"F:\\lib1\\0521442133,9780521442138,.djvu",0,2000-01-01 01:00:00,2016-04-03 02:51:08,390000/546a1f4826656aaeb5806f6d1119405f-d.jpg,,
19408683,Otto Neurath: Philosophy between Science and Politics ,,Ideas in Context,,"Nancy Cartwright, Jordi Cat, Lola Fleck, Thomas E. Uebel",1996,,Cambridge University Press,,308,0,English,181,,,"0521451744,9780521451741",,,,,193,B3309.N394 O88 1996,,,OL1276854M,,0,,,,,1,,1,2113284,djvu,1AC4920DE886F80C780B988EFCBA372D,,,"F:\\lib1\\0521451744,9780521451741,.djvu",0,2000-01-01 01:00:00,2016-04-03 02:51:08,390000/1ac4920de886f80c780b988efcba372d-d.jpg,,
19408684,"Image and Mind: Film, Philosophy and Cognitive Science",,,,Gregory Currie,1995,First Edition,Cambridge University Press,,332,0,English,181,,,"0521453569,9780521453561",,,,,791.43/01,PN1995 .C795 1995,,,OL1270193M,,0,,,,,1,,1,1483825,djvu,0EFC02B0D145693F9E31CA269E9F18AB,,,"F:\\lib1\\0521453569,9780521453561,.djvu",0,2000-01-01 01:00:00,2016-04-03 02:51:08,390000/0efc02b0d145693f9e31ca269e9f18ab-d.jpg,,
19408685,Arabic Historical Thought in the Classical Period ,,Cambridge Studies in Islamic Civilization,,Tarif Khalidi,1995,,Cambridge University Press,,268,0,English,64,,,"0521465540,9780521465540",,,,,909/.097671/0072,DS38.16 .K445 1994,,,OL1437961M,,0,,,,,1,,1,2351232,djvu,8334B09F691EAB588E285AFCB217B884,,,"F:\\lib1\\0521465540,9780521465540,.djvu",0,2000-01-01 01:00:00,2016-04-03 02:51:08,390000/8334b09f691eab588e285afcb217b884-d.jpg,,
19408686,Reclaiming the History of Ethics: Essays for John Rawls,,,,"Andrews Reath, Barbara Herman, Christine M. Korsgaard",1997,,Cambridge University Press,,428,0,English,64,,,"0521472407,9780521472401",,,,,170/.9,BJ71 .R43 1996,,,OL7742115M,,0,,,,,1,,1,2256203,djvu,B971BE9798DE6317D05E5DD10F204F16,,,"F:\\lib1\\0521472407,9780521472401,.djvu",0,2000-01-01 01:00:00,2016-04-03 02:51:08,390000/b971be9798de6317d05e5dd10f204f16-d.jpg,,
19408687,Liberation from Self: A Theory of Personal Autonomy,,,,Bernard Berofsky,1995,,Cambridge University Press,,288,0,English,195,,,"0521480450,9780521480451",,,,,128,BD450 .B438 1995,,,OL1279638M,,0,,,,,1,,1,1646391,djvu,70415030AF059849B8DE9BEEC056D2AB,,,"F:\\lib1\\0521480450,9780521480451,.djvu",0,2000-01-01 01:00:00,2016-04-03 02:51:08,390000/70415030af059849b8de9beec056d2ab-d.jpg,,
19408688,Social Practices: A Wittgensteinian Approach to Human Activity and the Social,,,,Theodore R. Schatzki,1996,,Cambridge University Press,,260,0,English,195,,,"0521560225,9780511527470",,,,,301/.01,HM51 .S3455 1996,,,OL805704M,,0,,,,,1,,1,1428663,djvu,668EB4EA6739CF7F71DDFFF4C2567E72,,,"F:\\lib1\\0521560225,9780511527470,.djvu",0,2000-01-01 01:00:00,2016-04-03 02:51:08,390000/668eb4ea6739cf7f71ddfff4c2567e72-d.jpg,,
19408689,Making a Necessity of Virtue: Aristotle and Kant on Virtue,,,,Nancy Sherman,1997,,Cambridge University Press,,408,0,English,195,,,"0521564875,9780521564878",,,,,179/.9,B491.E7 S44 1997,,,OL988155M,,0,,,,,1,,1,2235409,djvu,568973767DC07E64A8EEE410B16E22F7,,,"F:\\lib1\\0521564875,9780521564878,.djvu",0,2000-01-01 01:00:00,2016-04-03 02:51:08,390000/568973767dc07e64a8eee410b16e22f7-d.jpg,,
19408690,The Order of Nature in Aristotle's Physics: Place and the Elements,,,,Helen S. Lang,1998,,Cambridge University Press,,336,0,English,181,,,"0521624533,9780521624534",,,,,509/.38,Q151 .L36 1998,,,OL702331M,,0,,,,,1,,1,2024803,djvu,39BBD1CB2F1F46D7805C1FAA66B89524,,,"F:\\lib1\\0521624533,9780521624534,.djvu",0,2000-01-01 01:00:00,2016-04-03 02:51:08,390000/39bbd1cb2f1f46d7805c1faa66b89524-d.jpg,,
19408691,Adam Smith and the Virtues of Enlightenment ,,Modern European Philosophy,,Charles L. Griswold,1998,,Cambridge University Press,,426,0,English,195,,,"0521628911,9780521628914",,,,,192,B1545.Z7 G74 1999,,,OL353190M,,0,,,,,1,,1,2561124,djvu,D4791FB67DF2D6696E1CB7905E2C5DDC,,,"F:\\lib1\\0521628911,9780521628914,.djvu",0,2000-01-01 01:00:00,2016-04-03 02:51:08,390000/d4791fb67df2d6696e1cb7905e2c5ddc-d.jpg,,
19408692,Einführung in das betriebliche Rechnungswesen : Buchführung für Industrie- und Handelsbetriebe,,PhysicaLehrbuch,,Mirja Schüler,2006,,Physica-Verlag Heidelberg,Heidelberg,222,0,German,,usenet,to 2012-06,"9783790816785,3790816787",,,,,,,,,,,0,,,,,,,1,1452844,pdf,28d9c997d90a3b25012e3b07022b79b1,,,I:\\usenet_ger\\Einfuehrung.in.das.betriebliche.Rechnungswesen.[Springer].[2006].[j07638].pdf,0,2000-01-01 01:00:00,2016-04-03 02:51:08,883000/28d9c997d90a3b25012e3b07022b79b1-g.jpg,,
19408693,Plato and his Predecessors: The Dramatisation of Reason W B,,Stanford Memorial Lectures,,Mary Margaret McCabe,2000,,Cambridge University Press,,326,0,English,195,,,"0521653061,9780521653060",,,,,,,,,OL7750301M,,0,,,,,1,,1,1720865,djvu,9BE73128AD8232431CE577F5A8A06BCD,,,"F:\\lib1\\0521653061,9780521653060,.djvu",0,2000-01-01 01:00:00,2016-04-03 02:51:08,390000/9be73128ad8232431ce577f5a8a06bcd-d.jpg,,
19408694,Carl Schmitt's Critique of Liberalism: Against Politics as Technology ,,Modern European Philosophy,,John P. McCormick,1999,1st pb ed,Cambridge University Press,,368,0,English,195,,,"0521664578,9780521664578",,,,,,,,,OL7750898M,,0,,,,,1,,1,2221767,djvu,87A5131131CFB2ECC680142716B06E4F,,,"F:\\lib1\\0521664578,9780521664578,.djvu",0,2000-01-01 01:00:00,2016-04-03 02:51:08,390000/87a5131131cfb2ecc680142716b06e4f-d.jpg,,
19408695,Consciousness and the Mind of God,,,,Charles Taliaferro,2005,,Cambridge University Press,,357,0,English,195,,,"0521673461,9780521673464",,,,,,,,,OL7751342M,,300,,,,,1,,1,1784077,djvu,1C3D7F91FF48DE4795FD1884E421FCC6,,,"F:\\lib1\\0521673461,9780521673464,.djvu",0,2000-01-01 01:00:00,2016-04-03 02:51:08,390000/1c3d7f91ff48de4795fd1884e421fcc6-d.jpg,,
19408696,Aristotle's Theory of Language and Meaning,,,,Deborah K. W. Modrak,2000,,Cambridge University Press,,316,0,English,195,,,"0521772664,9780521772662",,,,,,,,,OL7752981M,,0,,,,,1,,1,1858886,djvu,969AD406BC8BE9D58A5BA3B9047AA495,,,"F:\\lib1\\0521772664,9780521772662,.djvu",0,2000-01-01 01:00:00,2016-04-03 02:51:08,390000/969ad406bc8be9d58a5ba3b9047aa495-d.jpg,,
19408697,"Hegel's Philosophy of Reality, Freedom, and God ",,Modern European Philosophy,,Robert M. Wallace,2005,,Cambridge University Press,,380,0,English,195,,,"0521844843,9780521844840",,,,,,,,,OL22624424M,,0,,,,,1,,0,7462227,djvu,4E8224D7CC978268BFAED60E4A4464FF,3b7dd425673eac3b67ddc7be45a82eec,no,"F:\\lib1\\0521844843,9780521844840,.djvu",0,2000-01-01 01:00:00,2016-04-03 02:51:08,390000/4e8224d7cc978268bfaed60e4a4464ff-d.jpg,,
19408698,Nietzsche's Dangerous Game: Philosophy in the Twilight of the Idols ,,Modern European Philosophy,,Daniel W. Conway,2002,,Cambridge University Press,,284,0,English,195,,,"0521892872,9780521892872",,,,,,,,,OL7767921M,,0,,,,,1,,1,2052232,djvu,B4F18ADBB03F4563DE86BDC57AF6EF67,,,"F:\\lib1\\0521892872,9780521892872,.djvu",0,2000-01-01 01:00:00,2016-04-03 02:51:08,390000/b4f18adbb03f4563de86bdc57af6ef67-d.jpg,,
19408699,The Limits to Capital,,,,"David Harvey, DAVID",1982,illustrated edition,Blackwell Publishers,,496,0,English,195,,,"0631129685,9780631129684",,,,,335.4,HB501 .H3597 1982b,,,OL3037041M,,0,,,,,1,,1,13014911,djvu,69B97E9D9D3B41F4DE5DD91456DC24BA,,,"F:\\lib1\\0631129685,9780631129684,.djvu",0,2000-01-01 01:00:00,2016-04-03 02:51:08,390000/69b97e9d9d3b41f4de5dd91456dc24ba-g.jpg,,
19408700,Quintessence: Basic Readings from the Philosophy of W  V Quine,,,,"W. V. Quine, Roger F. Gibson Jr.",2004,,Belknap Press of Harvard University Press,,432,0,English,195,,,"0674010485,9780674010482",,,,,,,,,OL7670882M,,0,,,,,1,,0,2586511,djvu,18D392850B1E27E53404246CF7230BDD,9ddaac5381e833be6f12e076e978ca51,no,"F:\\lib1\\0674010485,9780674010482,.djvu",0,2000-01-01 01:00:00,2016-04-03 02:51:08,390000/18d392850b1e27e53404246cf7230bdd-d.jpg,,
19408701,"From Frege to Godel: A Source Book in Mathematical Logic, 1879-1931 ",,Source Books in History of Sciences,,Jean van Heijenoort,2002,,Harvard University Press,,680,0,English,113,,,"0674324498,9780674324497",,,,,,,,,OL7692565M,,0,,,,,1,,1,9870408,djvu,C4F99E573364BE064DC1826FEA5C6283,,,"F:\\lib1\\0674324498,9780674324497,.djvu",0,2000-01-01 01:00:00,2016-04-03 02:51:08,390000/c4f99e573364be064dc1826fea5c6283-d.jpg,,
19408702,Sources of the Self: The Making of the Modern Identity,,,,Charles Taylor,1992,,Harvard University Press,,624,0,English,195,,,"0674824261,9780674824263",,,,,126,BD450 .T266 1989,,,OL17778295M,,0,,,,,1,,1,4474167,djvu,33686A15530D7A14506F0F8DE5EAF2EB,,,"F:\\lib1\\0674824261,9780674824263,.djvu",0,2000-01-01 01:00:00,2016-04-03 02:51:08,390000/33686a15530d7a14506f0f8de5eaf2eb-d.jpg,,
19408703,Infinity and the Mind: The Science and Philosophy of the Infinite ,,Princeton Science Library,,Rudy Rucker,2004,,Princeton University Press,,362,0,English,181,,,"0691121273,9780691121277",,,,,111.6,QA9.R79 2005,,,OL18398325M,,0,,,,0,1,,1,5991141,djvu,8D230B31B2165866222B6AD080F51D97,,,"F:\\lib1\\0691121273,9780691121277,.djvu",0,2000-01-01 01:00:00,2016-04-03 02:51:08,390000/8d230b31b2165866222b6ad080f51d97-d.jpg,,
19408704,Models of Democracy,,,,"David Held, Gareth Schott",2007,3,Polity Press,,408,0,English,195,,,"0745631460,9780745631462",,,,,,,,,OL7956600M,,0,,,,,1,,1,3062658,djvu,CCBC25EDC87EFA7CE3D8FFFE62860FD0,,,"F:\\lib1\\0745631460,9780745631462,.djvu",0,2000-01-01 01:00:00,2016-04-03 02:51:08,390000/ccbc25edc87efa7ce3d8fffe62860fd0-d.jpg,,
19408705,Dictionary of Literary Biography 252: British Philosophers 1500-1799,,,,Philip B. Dematteis,2001,,Gale,,456,0,English,195,,0,"0787646695,9780787646691",,,,,,,,,OL8146304M,,0,,,,,1,,1,16747307,djvu,FEB295F489D6659E031B12F9E2488941,,,"F:lib1\0787646695,9780787646691,.djvu",0,2000-01-01 01:00:00,2016-04-03 02:51:08,390000/feb295f489d6659e031b12f9e2488941-g.jpg,,
19408706,Kant and Contemporary Epistemology,,The Western Ontario Series in Philosophy of Science,,P. Parrini,1994,1,Kluwer,,384,0,English,195,,0,"0792326814,9780792326816",,,,,121/.092,B2799.K7 K36 1994,,,OL1436590M,,0,,,,,1,,1,3734111,djvu,300BB9B2D73732E54FE25E7C74C784F0,,,"F:lib1\0792326814,9780792326816,.djvu",0,2000-01-01 01:00:00,2016-04-03 02:51:08,390000/300bb9b2d73732e54fe25e7c74c784f0-d.jpg,,
19408707,Nietzsche's Thought of Eternal Return,,,,Professor Joan Stambaugh,1972,,The Johns Hopkins University Press,,157,0,English,195,,,"0801812887,9780801812880",,,,,116,B3318.E88 S73,,,OL5222951M,,0,,,,,1,,0,5755870,djvu,E5728EF31B85D443B73D912D12EB034C,cc65d5899019f31b5a639455122d0e28,no,"F:\\lib1\\0801812887,9780801812880,.djvu",0,2000-01-01 01:00:00,2016-04-03 02:51:08,390000/e5728ef31b85d443b73d912d12eb034c-g.jpg,,
19408708,Einführung in Business Intelligence mit SAP NetWeaver 7.0,,,,Jorge Marx Gómez; Claus Rautenstrauch; Peter Cissek,2009,,Springer Berlin,Berlin,506,0,German,,usenet,to 2012-06,"9783540795377,3540795375,9783540795360,3540795367",,,,,,,10.1007/978-3-540-79537-7,,,,0,,,,,,,1,33752248,pdf,97be17d3f37774046a4c32ae689a3928,,,I:\\usenet_ger\\Einfuehrung.in.Business.Intelligence.mit.SAP.NetWeaver.7.0.[Springer].[2009].[u32067].pdf,0,2000-01-01 01:00:00,2016-04-03 02:51:08,883000/97be17d3f37774046a4c32ae689a3928-g.jpg,,
19408709,Problems of Moral Philosophy,,,,"Theodor W. Adorno, Thomas Schroder, Thomas Schroder, Rodney Livingstone",2000,,Stanford University Press,,224,0,English,195,,,"0804739366,9780804739368",,,,,,,,,OL22129877M,,0,,,,,1,,1,2277149,djvu,8974F05359B436BF58C62C835B432B06,,,"F:\\lib1\\0804739366,9780804739368,.djvu",0,2000-01-01 01:00:00,2016-04-03 02:51:08,390000/8974f05359b436bf58c62c835b432b06-d.jpg,,
19408710,Metaphysics: Concept and Problems,,,,"Theodor Adorno, Rolf Tiedemann, Edmund Jephcott",2002,1,Stanford University Press,,224,0,English,264,,,"0804745285,9780804745284",,,,,,,,,OL7929640M,,0,,,,,1,,1,2110330,djvu,AC5AFC9AEA889694CEA2CFD9CE14D7FF,,,"F:\\lib1\\0804745285,9780804745284,.djvu",0,2000-01-01 01:00:00,2016-04-03 02:51:08,390000/ac5afc9aea889694cea2cfd9ce14d7ff-d.jpg,,
19408711,Hegel's Phenomenology: Analysis and commentary ,part I,Studies in the humanities : Philosophy ; 12,,Howard P Kainz,1976,,University of Alabama Press,,218,0,English,117,,,"0817366172,9780817366179",,,,,193,B2929 .K28,,,OL22785259M,,0,,,,,1,,0,5128638,djvu,835E3EA2E43D081885AB792D08E70314,c9bbd1c0c0218ff168108222acb406d9,no,"F:\\lib1\\0817366172,9780817366179,.djvu",0,2000-01-01 01:00:00,2016-04-03 02:51:08,390000/835e3ea2e43d081885ab792d08e70314-g.jpg,,
19408712,Heidegger: Through Phenomenology to Thought,,Perspectives in Continental Philosophy 30,,William J. Richardson,2003,4,Fordham University Press,,825,0,English,195,,0,"0823222551,9780823222551",,,,,,,,,OL8119068M,,0,,,,,1,,0,32576853,djvu,C8168A782659510221FAFC8EB03E725A,c4393fe6622b65f00eeb158bfc970137,no,"F:lib1�823222551,9780823222551,.djvu",0,2000-01-01 01:00:00,2016-04-03 02:51:08,390000/c8168a782659510221fafc8eb03e725a-d.jpg,,
19408713,Classical Indian Philosophy: An Introductory Text,,,,J. N. Mohanty,2000,,"Rowman & Littlefield Publishers, Inc.",,192,0,English,195,,,"0847689336,9780847689330",,,,,181/.4,B131.M54 M64 2000,,,OL43028M,,0,,,,,1,,1,4018238,djvu,D939EF3216BDBEEFD552B26DB0EAFEB0,,,"F:\\lib1\\0847689336,9780847689330,.djvu",0,2000-01-01 01:00:00,2016-04-03 02:51:08,390000/d939ef3216bdbeefd552b26db0eafeb0-d.jpg,,
19408714,"Knowledge, Mind, and the Given : Reading Wilfrid Sellars's \Empiricism and the Philosophy of Mind","\"" Including the Complete Text of Sellars's Essay""",,,,"Willem A. Devries, Timm Triplett, Wilfrid Sellars",2000,,Hackett Pub Co Inc,,320,0,English,195,,,"0872205509,9780872205505",,,,,,,,,OL8374310M,,0,,,,,1,,0,2257478,djvu,FE614AF92124C979FC87E3F13639F6E7,50e812c09ec6a7a2625c31405840e2d1,no,"F:\\lib1\\0872205509,9780872205505,.djvu",0,2000-01-01 01:00:00,2016-04-03 02:51:08,390000/fe614af92124c979fc87e3f13639f6e7-d.jpg,
19408715,The New Spirit of Capitalism,,,,"Luc Boltanski, Eve Chiapello, Gregory Elliott",2007,,Verso,,601,0,English,195,,,"1844671658,9781844671656",,,,,,,,,OL16098983M,,0,,,,,1,,1,19760128,djvu,A4A561DBA224E10B20048DDE127E2861,,,"F:\\lib1\\1844671658,9781844671656,.djvu",0,2000-01-01 01:00:00,2016-04-03 02:51:08,390000/a4a561dba224e10b20048dde127e2861-d.jpg,,
19408716,Between Existentialism and Marxism ,,Radical Thinkers,,"Jean-Paul Sartre, John Matthews",2008,,Verso,,302,0,English,195,,,"1844672077,9781844672073",,,,,,,,,OL9617837M,,0,,,,,1,,1,5209450,djvu,4A8ADB91D34E4C2FAF46D98490B4ACE2,,,"F:\\lib1\\1844672077,9781844672073,.djvu",0,2000-01-01 01:00:00,2016-04-03 02:51:08,390000/4a8adb91d34e4c2faf46d98490b4ace2-d.jpg,,
19408717,Romantik,,Eine deutsche Affäre,,Rüdiger Safranski,2007,,"Hanser, Carl GmbH + Co.",,416,0,German,195,,,"3446209441,9783446209442",,,,,,,,,OL16121647M,,0,,,,,1,,0,10620275,djvu,209A454CA5FF44098E34DD7BB91482AF,a4fbb81cb1fbc30b108724b364bd78fe,no,"F:\\lib1\\3446209441,9783446209442,.djvu",0,2000-01-01 01:00:00,2016-04-03 02:51:08,390000/209a454ca5ff44098e34dd7bb91482af-d.jpg,,
19408718,Philosophy and Politics: A Commentary on the Preface to Hegel's `Philosophy of Right' ,,International Archives of the History of Ideas   Archives internationales d'histoire des idées,,A. Peperzak,1987,1,Springer,,150,0,English,195,,,"9024733375,9789024733378",,,,,340/.1,K230.H432 P47 1987,,,OL2715672M,,0,,,,,1,,0,3527026,djvu,FABA9F18974365E97AD72435EE28A0F7,39a8e89aef63a8cb9401f6a181879614,no,"F:\\lib1\\9024733375,9789024733378,.djvu",0,2000-01-01 01:00:00,2016-04-03 02:51:08,390000/faba9f18974365e97ad72435ee28a0f7-d.jpg,,
19408719,Practical Logic: with the Appendix on Deontic Logic,,,,"Zygmunt Ziebiński (author), Zdisław Ziemba (appendix)",1976,1,Springer,,456,0,English,130,,0,9027705577,,,,,,,,,,,600,,,,,1,,1,6641173,djvu,55AD36261E920089DB0BF5E1092372A9,,,"F:/lib1/9027705577,.djvu",0,2000-01-01 01:00:00,2016-04-03 02:51:08,390000/55ad36261e920089db0bf5e1092372a9-d.jpg,,
19408720,"The Communists and Peace with A Reply to Claude Lefort by Jean-Paul Sartre (Hardcover) 1968, George Braziller 1st US edition",,,,Jean-Paul Sartre,1968,1st US,George Braziller,,307,0,English,195,,,,,B000NW11ZS,,,,,,,,,0,,,,,1,,1,3806929,djvu,56726FBE1D3A675427D2DCD14F3083FF,,,"F:\\lib1\\B000NW11ZS,.djvu",0,2000-01-01 01:00:00,2016-04-03 02:51:08,390000/56726fbe1d3a675427d2dcd14f3083ff-d.jpg,,
19408721,Philosophical Writings : A Selection,,,,William of Ockham (translated By Philotheus Boehner),1964,,"Bobbs-Merrill Company, Inc. The Library of  Liberal Arts",,226,0,English,195,,,,,B000P1C5AW,,,,,,,,,0,,,,,1,,1,1737283,djvu,54433E145B7BDDF99AFDEDFB8A2CB247,,,"F:\\lib1\\B000P1C5AW,.djvu",0,2000-01-01 01:00:00,2016-04-03 02:51:08,390000/54433e145b7bddf99afdedfb8a2cb247-g.jpg,,
19408722,Philosophic Problems of Nuclear Science,,,,Werner Heisenberg,1966,,Fawcett,,144,0,English,181,,,,,B0007EKIHY,,,,,,,,,0,,,,,1,,0,3970045,djvu,70A0F077ACD276782797E66FB6863469,7c1388822655e30c030f41e9c8012ca0,no,"F:\\lib1\\B0007EKIHY,.djvu",0,2000-01-01 01:00:00,2016-04-03 02:51:08,390000/70a0f077acd276782797e66fb6863469-g.jpg,,
19408723,The foundations of mathematics: A study in the philosophy of science ,,Harper torchbooks,,Evert Willem Beth,1966,,Harper and Row,,741,0,English,113,,,,,B0007ES27W,,,,,,,,,0,,,,,,,0,3533727,djvu,272B7BAF81CDEB191CBF61DEE6482DD9,,,"F:\\lib1\\B0007ES27W,.djvu",0,2000-01-01 01:00:00,2016-04-03 02:51:08,390000/272b7baf81cdeb191cbf61dee6482dd9-g.jpg,,
19408724,A study of Hegel's logic,,,,G. R. G Mure,1950,,Clarendon Press,,375,0,English,130,,,,,B0007ISHPU,,,,,,,,,0,,,,,1,,0,16977446,djvu,F05C3DC55C530527757EE3CFD84C9E22,a2d8c1ea154342bba1d07f5d6425665d,no,"F:\\lib1\\B0007ISHPU,.djvu",0,2000-01-01 01:00:00,2016-04-03 02:51:08,390000/f05c3dc55c530527757ee3cfd84c9e22-g.jpg,,
19408725,"Avicenna, his life and works",,,,Soheil Muhsin Afnan,1958,1St Edition,George Allen and Unwin,,298,0,English,195,,,,,B0007K973E,,,,,,,,,0,,,,,1,,0,3554066,djvu,CF96F7A3702380DF5D8129834DDCFAAE,4737495a80fbc18a0d3c0dcbd8016f62,no,"F:\\lib1\\B0007K973E,.djvu",0,2000-01-01 01:00:00,2016-04-03 02:51:08,390000/cf96f7a3702380df5d8129834ddcfaae-d.jpg,,
19408726,Probability and Induction,,,,Matthew Kneale,1949,2nd Printing,Oxford at the Clarendon Press,,272,0,English,119,,,,,B0014O6P14,,,,,,,,,0,,,,,1,,0,3685730,djvu,23BCE90DC5D223A1237E5AA867F5475B,7bba515c46788a409367a21203ff18a5,no,"F:\\lib1\\B0014O6P14,.djvu",0,2000-01-01 01:00:00,2016-04-03 02:51:08,390000/23bce90dc5d223a1237e5aa867f5475b-g.jpg,,
19408727,"A commentary on Plato's Timaeus,",,,,A. E Taylor,1928,First edition.,Clarendon Press,,700,0,English,195,,,,,B0008585DG,,,,,,,,,0,,,,,1,,0,28088009,djvu,5A493352F337DDB6254B98ED78A888AA,e0ea994c05151d0786fdd81c993ccbab,no,"F:\\lib1\\B0008585DG,.djvu",0,2000-01-01 01:00:00,2016-04-03 02:51:08,390000/5a493352f337ddb6254b98ed78a888aa-g.jpg,,
19408728,Appearance versus Reality: New Essays on Bradley's Metaphysics ,,Mind Association Occasional Series,,Guy Stock,1998,,"Oxford University Press, USA",,248,0,English,264,,,"019823659X,9780198236597",,,,,192,B1618.B74 A67 1998,,,OL689627M,,0,,,,,1,,1,2261395,djvu,D281F14C47A0B78555908AFB69AC09DB,,,"F:\\lib\\019823659X,9780198236597,.djvu",0,2000-01-01 01:00:00,2016-04-03 02:51:08,390000/d281f14c47a0b78555908afb69ac09db-d.jpg,,
19408729,Symbolic Logic,,,,Irving M. Copi,1973,4th Revised edition,Collier Macmillan Ltd,,384,0,English,130,,,"0023249900,9780023249907",,B000TKHR1Q,,,,,,,,,0,,,,,1,,1,3967942,djvu,F6B6ECE291019B0AB8F4F4B64E896139,,,"F:\\lib\\0023249900,9780023249907,.djvu",0,2000-01-01 01:00:00,2016-04-03 02:51:08,390000/f6b6ece291019b0ab8f4f4b64e896139-g.jpg,,
19408730,Kant's Theory of Freedom,,,,Henry E. Allison,1990,,Cambridge University Press,,318,0,English,195,,,"052138270X,9780521382700",,,,,123/.5/092,B2799.F8 A44 1990,,,OL2227439M,,0,,,,,1,,1,3184290,djvu,30C00F2F2F2DDF7132360CB439B63B17,,,"F:\\lib\\052138270X,9780521382700,.djvu",0,2000-01-01 01:00:00,2016-04-03 02:51:08,390000/30c00f2f2f2ddf7132360cb439b63b17-d.jpg,,
19408731,Einflussfaktoren des Internationalisierungserfolgs von Mobilfunknetzbetreibern,,Gabler Edition Wissenschaft,,Nejc Martin Jakopin,2006,,Dt. Univ.-Verl,Wiesbaden,358,0,German,,usenet,to 2012-06,"3835005979,9783835005976",,,,,,,,,,,0,,,,,,,1,33060347,pdf,738a813c8761a7d1b41d84f39ab5587e,,,I:\\usenet_ger\\Einflussfaktoren.des.Internationalisierungserfolgs.von.Mobilfunknetzbetreibern.[Springer].[2006].[kg5146].pdf,0,2000-01-01 01:00:00,2016-04-03 02:51:08,883000/738a813c8761a7d1b41d84f39ab5587e-d.jpg,,
19408732,Engineering Ethics ,,,,Charles B. Fleddermann,2007,3,Prentice Hall,,168,0,English,210,,,"0132306417,9780132306416",,,,,,,,,OL18288334M,,0,,,,,1,,0,1425539,djvu,8095B4FC9B6C63FDDD1CF0A838D31669,9412365ac9d2d632126d9966066b02e8,no,"F:\\lib\\0132306417,9780132306416,.djvu",0,2000-01-01 01:00:00,2016-04-03 02:51:08,390000/8095b4fc9b6c63fddd1cf0a838d31669-d.jpg,,
19408733,Mathematics and the Search for Knowledge,,,,Morris Kline,1986,,"Oxford University Press, USA",,272,0,English,113,,,"0195042301,9780195042306",,,,,530.1/5,QC7,,,OL14959093M,,0,,,,,1,,1,6959856,djvu,4C1B0CB970B9424EB5E6FC7C89D5B51C,,,"F:\\lib\\0195042301,9780195042306,.djvu",0,2000-01-01 01:00:00,2016-04-03 02:51:08,390000/4c1b0cb970b9424eb5e6fc7c89d5b51c-d.jpg,,
19408734,"There's No Such Thing As Free Speech: And It's a Good Thing, Too",,,,Stanley Fish,1994,,"Oxford University Press, USA",,352,0,English,195,,,"0195093836,9780195093834",,,,,323.4430973,,,,OL14959154M,,0,,,,,1,,0,1416569,djvu,9837F1924817B6D83E0708F120F4C7F3,5893f903120dbf20aec8203a7a9d4f0b,no,"F:\\lib\\0195093836,9780195093834,.djvu",0,2000-01-01 01:00:00,2016-04-03 02:51:08,390000/9837f1924817b6d83e0708f120f4c7f3-d.jpg,,
19408735,Philosophy of Mathematics ,,Readings in Philosophy,,Jaakko Hintikka,1969,,Oxford University Press,,192,0,English,113,,,"0198750110,9780198750116",,,,,510/.01,QA9 .H53,,,OL5768584M,,0,,,,,1,,1,2307207,djvu,FFA4CABCB624521618728129EDB88983,,,"F:\\lib\\0198750110,9780198750116,.djvu",0,2000-01-01 01:00:00,2016-04-03 02:51:08,390000/ffa4cabcb624521618728129edb88983-g.jpg,,
19408736,Vicious Circles and Infinity: A Panoply of Paradoxes,,,,"Patrick Hughes, George Brecht",1976,,Jonathan Cape Ltd,,112,0,English,195,,,"0224011863,9780224011860",,,,,,,,,,,0,,,,,1,,1,2138636,djvu,209A515E2146C579C050F775BD1B1C52,,,"F:\\lib\\0224011863,9780224011860,.djvu",0,2000-01-01 01:00:00,2016-04-03 02:51:08,390000/209a515e2146c579c050f775bd1b1c52-g.jpg,,
19408737,The Structure of Scientific Revolutions,,,,Thomas S. Kuhn,1996,3rd,University Of Chicago Press,,225,0,English,195,,,"0226458083,9780226458083",,,,,501,Q175 .K95 1996,,,OL976099M,,0,,,,,,1,1,5051832,djvu,1CD1622CB2255219DAB401A5B952001D,,,"F:\\lib\\0226458083,9780226458083,.djvu",0,2000-01-01 01:00:00,2016-04-03 02:51:08,390000/1cd1622cb2255219dab401a5b952001d-d.jpg,,
19408738,Meaning,,,,"Michael Polanyi, Harry Prosch",1976,,University of Chicago Press,,262,0,English,195,,,"0226672948,9780226672946",,,,,111.8/3,B105.M4 P64,,,OL22099114M,,0,,,,,1,,0,1351005,djvu,AD9EA26D86F52E068B7E240C5675E88A,adb877319c26995c04254c361741b415,no,"F:\\lib\\0226672948,9780226672946,.djvu",0,2000-01-01 01:00:00,2016-04-03 02:51:08,390000/ad9ea26d86f52e068b7e240c5675e88a-d.jpg,,
19408739,Parmenides ,,Studies in Continental Thought,,"Martin Heidegger, Andre Schuwer, Richard Rojcewicz",1998,,Indiana University Press,,180,0,English,195,,,"0253212146,9780253212146",,,,,,,,,OL9871637M,,300,,,,0,1,,1,1363451,djvu,E1172DC12038BEF8C8487474756A7CC4,,,"F:\\lib\\0253212146,9780253212146,.djvu",0,2000-01-01 01:00:00,2016-04-03 02:51:08,390000/e1172dc12038bef8c8487474756a7cc4-d.jpg,,
19408740,Logic of Humanities,,,,"Ernst Cassirer, C.S. Howe",1966,New impression,Yale University Press,,237,0,English,130,,,"0300000359,9780300000351",,,,,,,,,,,0,,,,,1,,1,9208243,djvu,8910538F4CF7C4682BE1EF7F32913043,,,"F:\\lib\\0300000359,9780300000351,.djvu",0,2000-01-01 01:00:00,2016-04-03 02:51:08,,,
19408741,"A History of Philosophy, Volume 3: Late Medieval and Renaissance Philosophy: Ockham, Francis Bacon, and the Beginning of the Modern World",,,,Frederick Copleston,1993,New edition,Image,,496,0,English,64,,,"0385468458,9780385468459",,,,,,,,,OL7439951M,,0,,,,,1,,1,5132491,djvu,1A6BAB33C2FBFAF6A9446566DF837F6B,,,"F:\\lib\\0385468458,9780385468459,.djvu",0,2000-01-01 01:00:00,2016-04-03 02:51:08,390000/1a6bab33c2fbfaf6a9446566df837f6b-d.jpg,,
19408742,Unfolding Social Constructionism ,,History and Philosophy of Psychology,,Fiona J. Hibberd,2005,1,Springer,,207,0,English,236,,,"0387229744,9780387229744",,,,,,,,,OL7444461M,,0,,,,,1,,1,1642263,djvu,9F18B288208F3505BF7E119E5671BAD8,,,"F:\\lib\\0387229744,9780387229744,.djvu",0,2000-01-01 01:00:00,2016-04-03 02:51:08,390000/9f18b288208f3505bf7e119e5671bad8-d.jpg,,
19408743,Ecrits: The First Complete Edition in English,,,,"Jacques Lacan, Bruce Fink",2005,,W. W. Norton,,895,0,English,314,,,"0393061159,9780393061154",,,,,150.19/5,BF173 .L14213 2006,,3LLPB94zclMC,OL22236346M,,200,,,,0,1,,0,9293511,djvu,8B3236E1B51E07B8B745D164B4FAA375,20d99b1df93db6e3d5946ba90bb586d2,no,"F:\\lib\\0393061159,9780393061154,.djvu",0,2000-01-01 01:00:00,2016-04-03 02:51:08,390000/8b3236e1b51e07b8b745d164b4faa375-d.jpg,,
19408744,An Introduction to Philosophy of Education,,,,"Ronald Woods, Robin Barrow",1989,3,Routledge,,224,0,English,183,,,"0415012856,9780415012850",,,,,370/.1,LB880 .B34 1988,,,OL2033348M,,0,,,,,1,,1,3612214,djvu,A55CC617D035AEC0BCAAA77BF503849B,,,"F:\\lib\\0415012856,9780415012850,.djvu",0,2000-01-01 01:00:00,2016-04-03 02:51:08,390000/a55cc617d035aec0bcaaa77bf503849b-d.jpg,,
19408745,Mathematics and the Image of Reason ,,Philosophical Issues in Science,,Mary Tiles,1991,1,Routledge,,200,0,English,113,,,"0415033187,9780415033183",,,,,510/.1,QA8.4 .T538 1991,,,OL1856967M,,0,,,,,1,,1,1715563,djvu,8B3E3AECDA37EC35702A594B9DAB0557,,,"F:\\lib\\0415033187,9780415033183,.djvu",0,2000-01-01 01:00:00,2016-04-03 02:51:08,390000/8b3e3aecda37ec35702a594b9dab0557-d.jpg,,
19408746,Maps of Time: An Introduction to Big History ,,California World History Library,,"David Christian, William H. McNeill",2005,1,University of California Press,,664,0,English,64,,,"0520244761,9780520244764",,,,,,,,,OL7712047M,,0,,,,,1,,1,10895402,djvu,1DB58C8B3040CB15D19147FEA7BDB4B4,,,"F:\\lib\\0520244761,9780520244764,.djvu",0,2000-01-01 01:00:00,2016-04-03 02:51:08,390000/1db58c8b3040cb15d19147fea7bdb4b4-d.jpg,,
19408747,The Social and Political Thought of Karl Marx ,,Cambridge Studies in the History and Theory of Politics,,Shlomo Avineri,1970,,Cambridge University Press,,280,0,English,195,,,"0521096197,9780521096195",,,,,,,,,,,0,,,,,1,,0,7962800,djvu,BFBF0225A52A12DBA7879D51BFBE4A69,43b27684db644ebc0d37662398dc1e1e,no,"F:\\lib\\0521096197,9780521096195,.djvu",0,2000-01-01 01:00:00,2016-04-03 02:51:08,390000/bfbf0225a52a12dba7879d51bfbe4a69-d.jpg,,
19408748,The Cambridge Companion to Aristotle ,,Cambridge Companions to Philosophy,,Jonathan Barnes,1995,1st,Cambridge University Press,,434,0,English,,,,"0521422949,9780521422949",,,,,185,B485 .C35 1995,,,OL1077319M,,0,,,,,1,1,1,2572721,djvu,12A51ADA8802AB6B80A64E333F6D887F,,,"F:\\lib\\0521422949,9780521422949,.djvu",0,2000-01-01 01:00:00,2016-04-03 02:51:08,390000/12a51ada8802ab6b80a64e333f6d887f-d.jpg,,
19408749,Physics and Chance: Philosophical Issues in the Foundations of Statistical Mechanics,,,,Lawrence Sklar,1993,,Cambridge University Press,,453,0,English,264,,,"0521440556,9780521440554",,,,,530.1/3,QC174.8 .S55 1993,,,OL1740413M,,0,,,,,1,,0,2121832,djvu,A122F8998B875F2B605DCEA4D98D3F30,,,"F:\\lib\\0521440556,9780521440554,.djvu",0,2000-01-01 01:00:00,2016-04-03 02:51:08,390000/a122f8998b875f2b605dcea4d98d3f30-d.jpg,,
19408750,Lore and Science in Ancient Pythagoreanism,,,,"Walter Burkert, Edwin L. Minar Jr.",1972,,Harvard University Press,,272,0,English,64,,,"0674539184,9780674539181",,,,,182/.2,B243 .B813,,,OL5706700M,,300,,,,0,1,,0,16241202,djvu,E420FF4B4F58251F3B1309F47045BD1D,470f90401c84f48aee7d74f6642b7717,no,"F:\\lib\\0674539184,9780674539181,.djvu",0,2000-01-01 01:00:00,2016-04-03 02:51:08,390000/e420ff4b4f58251f3b1309f47045bd1d-d.jpg,,
19408751,Edmund Burke and the Natural Law ,,Library of Conservative Thought,,"Peter Stanlis, V. Lewis",2003,,Transaction Publishers,,311,0,English,313,,,"0765809907,9780765809902",,,,,,,,,OL8056163M,,0,,,,,1,,1,28486878,djvu,13DD2CC15C4F67DFCA6A1763ECFA49B3,,,"F:\\lib\\0765809907,9780765809902,.djvu",0,2000-01-01 01:00:00,2016-04-03 02:51:08,390000/13dd2cc15c4f67dfca6a1763ecfa49b3-d.jpg,,
19408752,Human Nature: The Marxian View,,,,"V. Venable, Vernon Venable",1984,,Peter Smith Publisher Inc,,126,0,English,195,,,"0844631124,9780844631127",,B000M1J9ZY,,,,,,,OL8244627M,,0,,,,,1,,0,5887805,djvu,270AB96AC665B461BE88D146CB75A64F,0e373e82d611c89caf4bae0ed7c304bf,no,"F:\\lib\\0844631124,9780844631127,.djvu",0,2000-01-01 01:00:00,2016-04-03 02:51:08,390000/270ab96ac665b461be88d146cb75a64f-g.jpg,,
19408753,"Studies on the History of Logic and Semantics, 12Th-17th Centuries ",,"Collected Studies Series, 560",,"Gabriel Nuchelmans, Egbert P. Bos, Egbert P. Bos",1996,,Variorum,,334,0,English,64,,,"0860786188,9780860786184",,,,,160/.9,BC34 .N83 1996,,,OL972442M,,0,,,,,1,,0,11235198,djvu,DD10A1A670212438A304FE1A0819F923,9fe8b190bacf42645bdcdb54f637cecc,no,"F:\\lib\\0860786188,9780860786184,.djvu",0,2000-01-01 01:00:00,2016-04-03 02:51:08,390000/dd10a1a670212438a304fe1a0819f923-g.jpg,,
19408754,Plato Complete Works,,,,"Plato, John M. Cooper, D. S. Hutchinson, John M. Cooper, D. S. Hutchinson",1997,,Hackett Pub Co,,1837,0,English,195,,,"0872203492,9780872203495",,,,,184,B358 .C3 1997,,eSKTvJDrr5kC,OL1012626M,,300,,,,0,1,1,1,14696836,djvu,D9487A988DB5E47D99C721516BA7C1FD,,,"F:\\lib\\0872203492,9780872203495,.djvu",0,2000-01-01 01:00:00,2016-04-03 02:51:08,390000/d9487a988db5e47d99c721516ba7c1fd-d.jpg,,
19408755,Pythagoras and the Pythagoreans: A Brief History,,,,Charles H. Kahn,2001,,Hackett Pub Co,,195,0,English,64,,,"0872205754,9780872205758",,,,,,,,,OL8374319M,,0,,,,,1,,0,720715,djvu,81CD88573A58BCA5FD22E94F1C5A24C7,9e5b66a0d89e6a048b2c90a6fcca97fc,no,"F:\\lib\\0872205754,9780872205758,.djvu",0,2000-01-01 01:00:00,2016-04-03 02:51:08,390000/81cd88573a58bca5fd22e94f1c5a24c7-d.jpg,,
19408756,Spinoza: Complete Works,,,,"Benedictus de Spinoza, Michael L. Morgan, Samuel Shirley",2002,,Hackett Pub Co Inc,,989,0,English,195,,,"0872206203,9780872206205",,,,,199'.492--dc21,B3958.S5 2002,,Xg8V-Q7Slh4C,OL8374346M,,0,,,,0,1,,0,4307285,djvu,F7FB81E2A32B9DF025FAD31DE0B0A1B6,e6cfad094c2bfabbb76f09dd49e1e0d2,no,"F:\\lib\\0872206203,9780872206205,.djvu",0,2000-01-01 01:00:00,2016-04-03 02:51:08,390000/f7fb81e2a32b9df025fad31de0b0a1b6-d.jpg,,
19408757,Philosophy of Ernst Cassirer ,,Library of Living Philosophers,,Paul Arthur Schilpp,1979,,Open Court Publishing Company,,954,0,English,195,,,"0875481310,9780875481319",,,,,,,,,OL11162806M,,0,,,,,1,,1,28656152,djvu,96F5E6325BD7926B881E5A868A6015E2,,,"F:\\lib\\0875481310,9780875481319,.djvu",0,2000-01-01 01:00:00,2016-04-03 02:51:08,,,
19408758,Human Action Scholars Edition,,,,Ludwig Von Mises,1998,1,Ludwig Von Mises Institute,,912,0,English,195,,,"0945466242,9780945466246",,,,,330,HB171 .V63 1998,,,OL3704055M,,0,,,,,1,,1,12204745,djvu,5E7787008023EC88EC8D7C43811EC016,,,"F:\\lib\\0945466242,9780945466246,.djvu",0,2000-01-01 01:00:00,2016-04-03 02:51:08,390000/5e7787008023ec88ec8d7c43811ec016-d.jpg,,
19408759,Unpopular Essays,,,,Bertrand Russell,2007,,Tomlin Press,,184,0,English,195,,,"1406774332,9781406774337",,,,,,,,,OL11680451M,,0,,,,,1,1,1,5431717,djvu,A759FF1BDD17E3354D4E0D5EE8ADB5A0,,,"F:\\lib\\1406774332,9781406774337,.djvu",0,2000-01-01 01:00:00,2016-04-03 02:51:08,390000/a759ff1bdd17e3354d4e0d5ee8adb5a0-d.jpg,,
19408760,Aquinas And Kant - The Foundations Of The Modern Sciences,,,,Gavin Ardley,2008,,Ardley Press,,276,0,English,195,,,"1443727822,9781443727822",,,,,,,,,,,0,,,,,1,,1,8582010,djvu,98F8B6AEC478A6A96CB386EDE794855B,,,"F:\\lib\\1443727822,9781443727822,.djvu",0,2000-01-01 01:00:00,2016-04-03 02:51:08,390000/98f8b6aec478a6a96cb386ede794855b-d.jpg,,
19408761,In Defense of Lost Causes,,,,Slavoj Zizek,2008,,Verso,,504,0,English,195,,0,"1844671089,9781844671083",,,,,199.4973,B831.2 .Z59 2008,,,,,0,,,,,1,,1,5331461,djvu,7E970BE205FEEB47845B2FFF5907E9C1,,,"F:/lib/1844671089,9781844671083,.djvu",0,2000-01-01 01:00:00,2016-04-03 02:51:08,390000/7e970be205feeb47845b2fff5907e9c1-d.jpg,,
19408762,Einfluss der Besteuerung auf die Wahl der Organisationsform : eine institutionenokonomische Analyse der Auswirkungen auf Integration und Konzernierung,,Gabler Edition Wissenschaft,,Sven Alexander Petersen,2006,,Dt. Univ.-Verl,Wiesbaden,303,0,German,,usenet,to 2012-06,"9783835057166,3835057162",,,,,,,,,,,0,,,,,,,1,2291929,pdf,981eb7ff18dfb1a9b7c11fdb95a27543,,,I:\\usenet_ger\\Einfluss.der.Besteuerung.auf.die.Wahl.der.Organisationsform.[Springer].[2006].[h67366].pdf,0,2000-01-01 01:00:00,2016-04-03 02:51:08,883000/981eb7ff18dfb1a9b7c11fdb95a27543-g.jpg,,
19408763,Early German Philosophy: Kant and His Predecessors,,,,Lewis White Beck,1996,69,Thoemmes Continuum,,567,0,English,195,,,1855064480,,,,,,,,,OL9861059M,,0,,,,,1,,1,8538742,djvu,08F5F8CEDAFB938A76BE809001161D89,,,"F:\\lib\\1855064480,.djvu",0,2000-01-01 01:00:00,2016-04-03 02:51:08,390000/08f5f8cedafb938a76be809001161d89-d.jpg,,
19408764,Interpreting Plato's Dialogues,,,,J. Angelo Corlett,2005,,Parmenides Publishing,,152,0,English,195,,,"1930972024,9781930972025",,,,,184,B395 .C66 2005,,,OL3409045M,,0,,,,,1,,0,842914,djvu,B2566185A5F6A5E13FA6F020B6D7BF51,1192a253ef3753386a80e0a17973982a,no,"F:\\lib\\1930972024,9781930972025,.djvu",0,2000-01-01 01:00:00,2016-04-03 02:51:08,390000/b2566185a5f6a5e13fa6f020b6d7bf51-d.jpg,,
19408765,The Legacy of Parmenides: Eleatic Monism and Later Presocratic Thought,,,,Patricia Curd,2004,1,Parmenides Publishing,,309,0,English,195,,,"1930972156,9781930972155",,,,,,,,,OL8801279M,,0,,,,,1,,0,1696966,djvu,E713D395AF5A601121735EDEB7039EA3,fc9e57c4eab533fde8f438b8146275e6,no,"F:\\lib\\1930972156,9781930972155,.djvu",0,2000-01-01 01:00:00,2016-04-03 02:51:08,390000/e713d395af5a601121735edeb7039ea3-d.jpg,,
19408766,L'Homme Revolte ,,Folio Essais Series : No 15,,Albert Camus,1951,French language,Gallimard,,372,0,French,195,,,2070323021,,,,,,,,,OL18434841M,,300,,,,,1,,1,4025241,djvu,14E9AAEE9531B3E913139A172211F981,,,"F:\\lib\\2070323021,.djvu",0,2000-01-01 01:00:00,2016-04-03 02:51:08,390000/14e9aaee9531b3e913139a172211f981-d.jpg,,
19408767,Hypothetical Syllogistic and Stoic Logic ,,Philosophia Antiqua,,Anthony N. Speca,2001,,Brill Academic Publishers,,180,0,English,130,,,"9004120734,9789004120730",,,,,,,,,OL9084276M,,0,,,,,1,,0,791315,djvu,2E0F7F875E239FC639904B6EEAE31081,ad8b13b23beb0c76409b59608e48f8b1,no,"F:\\lib\\9004120734,9789004120730,.djvu",0,2000-01-01 01:00:00,2016-04-03 02:51:08,390000/2e0f7f875e239fc639904b6eeae31081-d.jpg,,
19408768,Arithmetic and Ontology: A Non-Realist Philosophy of Arithmetic,,Poznan Studies in Philosophy of the Sciences and the Humanities 90,,"Philip Hugley, Charles Sayward",2006,,Editions Rodopi BV.,,393,0,English,195,,,"9042020474,9789042020474",,,,,,,,,OL20928889M,,0,,,,,1,,0,1272816,djvu,8D78979AC1EE7AB6C5660A1242C0A1C6,8154a5cdec4125f9ad1580d415b5e0e3,no,"F:\\lib\\9042020474,9789042020474,.djvu",0,2000-01-01 01:00:00,2016-04-03 02:51:08,390000/8d78979ac1ee7ab6c5660a1242c0a1c6-d.jpg,,
19408769,Plato the Myth Maker,,,,"Luc Brisson, Gerard Naddaf",2000,,University Of Chicago Press,,244,0,English,195,,,"9780226075198,0226075192",,,,,,,,,,,0,,,,,1,1,1,1725152,djvu,1E751EAE66881AA72ABC96EE3BFB6A24,,,"F:\\lib\\9780226075198,0226075192,.djvu",0,2000-01-01 01:00:00,2016-04-03 02:51:08,390000/1e751eae66881aa72abc96ee3bfb6a24-d.jpg,,
19408770,Principium Sapientiae: The Origins of Greek Philosophical Thought,,,,F.M. Cornford,1952,First Edition,see notes for publisher info,,271,0,English,195,,,,,B0000CIEQO,,,,,,,,,0,,,,,1,1,1,3492069,djvu,1BC2D4EC906F7841A70BBAD486DAB953,,,"F:\\lib\\B0000CIEQO,.djvu",0,2000-01-01 01:00:00,2016-04-03 02:51:08,390000/1bc2d4ec906f7841a70bbad486dab953-g.jpg,,
19408771,"Logic, Methodology and Philosophy of Science: Proceedings of the 1960 International Congress",,Studies in Logic and the Foundations of Mathematics 44,,"Ernest Nagel, Patrick Suppes, Alfred Tarski ",1962,,Stanford University Press,,672,0,English,185,,,0804700966,0049-237X,B000GX31ES,,,,,,,,,0,,,,,,,0,21303636,djvu,E92B495306791DF8C680B2F5C0A8F33E,69198a31df2e7fe77780b1c8041e5afe,no,F:\\lib\\B000GX31ES0804700966.djvu,0,2000-01-01 01:00:00,2016-04-03 02:51:08,390000/e92b495306791df8c680b2f5c0a8f33e-g.jpg,,
19408772,Quanta and Reality: a Symposium for the Non Scientist on the Physical and Philosophical Implications of Quantum Mechanics,,,,David; N.R.Hanson; Mary Hesse; Nicholas Kemmer; A.B.Pippard & Maurice Price Bohm,1964,,Meridian Books,,97,0,English,185,,,,,B000M1O75G,,,,,,,,,0,,,,,1,,1,3289656,djvu,E393F70FBA1E16A52F70D6DC9ACB2BDE,,,"F:\\lib\\B000M1O75G,.djvu",0,2000-01-01 01:00:00,2016-04-03 02:51:08,390000/e393f70fba1e16a52f70d6dc9acb2bde-g.jpg,,
19408773,THOMAS AQUINAS,,,,M. C. D\\'ARCY,1930,,ERNEST BENN,,301,0,English,195,,,,,B000SDFFJA,,,,,,,,,0,,,,,1,,1,10726258,djvu,0D6525F3FBC0336954CACF5EE2B4DF68,,,"F:\\lib\\B000SDFFJA,.djvu",0,2000-01-01 01:00:00,2016-04-03 02:51:08,390000/0d6525f3fbc0336954cacf5ee2b4df68-g.jpg,,
19408774,"Historical materialism and the economics of Karl Marx,",,,,Benedetto Croce,1914,,The Macmillan company,,188,0,English,305,,,,,B0006AH0UW,,,,,,,,,0,,,,,1,,1,5670721,djvu,00835A3A689C96111BAA0D3D9057F5E3,,,"F:\\lib\\B0006AH0UW,.djvu",0,2000-01-01 01:00:00,2016-04-03 02:51:08,390000/00835a3a689c96111baa0d3d9057f5e3-g.jpg,,
19408775,Foundations of Physics ,,"Springer Tracts in Natural Philosophy, v( 10",,Mario Augusto Bunge,1967,,Springer-Verlag,,311,0,English,264,,,,,B0006BQBY2,,,,,,,,,0,,,,,1,,1,5092604,djvu,C869B0B6E9F59F911F7FC5D7196C2EB5,,,"F:\\lib\\B0006BQBY2,.djvu",0,2000-01-01 01:00:00,2016-04-03 02:51:08,390000/c869b0b6e9f59f911f7fc5d7196c2eb5-g.jpg,,
19408776,"Saint Thomas Aquinas, of the order of preachers (1225-1274): A biographical study of the Angelic doctor",,The friar saints series,,John Placid Conway,1911,,"Longmans, Green",,119,0,English,195,,,,,B00085IV2Q,,,,,,,,,0,,,,,1,,1,3013739,djvu,2561A57E1611ED6C56D8818467E4C148,,,"F:\\lib\\B00085IV2Q,.djvu",0,2000-01-01 01:00:00,2016-04-03 02:51:08,390000/2561a57e1611ed6c56d8818467e4c148-g.jpg,,
19408777,Oriental religions and their relation to universal religion: Persia,,,,Samuel Johnson,1890,,"Houghton, Mifflin and Co",,782,0,English,205,,,,,B000863R6U,,,,,,,,,0,,,,,1,,1,26094587,djvu,CE742ACFE4C585BE9F4F8C58B9647EC0,,,"F:\\lib\\B000863R6U,.djvu",0,2000-01-01 01:00:00,2016-04-03 02:51:08,390000/ce742acfe4c585be9f4f8c58b9647ec0-g.jpg,,
19408778,City of God ,,Penguin Classics,,"Augustine of Hippo, Henry Bettenson",2004,,Penguin Classics,,1184,0,English,195,,,"0140448942,9780140448948",,,,,,,,,OL19084366M,,0,,,,,1,,,1188189,lit,DE86B9C21EFBE0131ECDF1C55FC87C48,,,"F:\\lib\\0140448942,9780140448948,.lit",0,2000-01-01 01:00:00,2016-04-03 02:51:08,390000/de86b9c21efbe0131ecdf1c55fc87c48-d.jpg,,
19408779,The Varieties of Scientific Experience: A Personal View of the Search for God,,,,"Carl Sagan, Ann Druyan",2007,First Edition,Penguin (Non-Classics),,304,0,English,195,,,"0143112627,9780143112624",,,,,215,BL240.2 .S24 2007,,,OL24957680M,,0,,,,,1,,,4004224,lit,658E8D75A95968AB9DC4DEAEAC3483EE,,,"F:\\lib\\0143112627,9780143112624,.lit",0,2000-01-01 01:00:00,2016-04-03 02:51:08,390000/658e8d75a95968ab9dc4deaeac3483ee-d.jpg,,
19408780,Curious?: Discover the Missing Ingredient to a Fulfilling Life,,,,Todd Kashdan,2009,1,William Morrow,,352,0,English,195,,,"006166118X,9780061661181",,,,,158.1,BF637.S4 K333 2009,,,OL22849828M,,0,,,,,1,1,1,3085915,pdf,81B4BA41F150A36891A21D1D865ABC27,,,"F:\\lib1\\006166118X,9780061661181,.pdf",0,2000-01-01 01:00:00,2016-04-03 02:51:08,390000/81b4ba41f150a36891a21d1d865abc27-d.jpg,,
19408781,Regulating Toxic Substances: A Philosophy of Science and the Law ,,Environmental Ethics and Science Policy,,Carl F. Cranor,1993,,"Oxford University Press, USA",,272,0,English,313,,,"019507436X,9780195074369",,,,,"344.73/04622,347.30446.22",KF3958 .C73 1993,,,OL1565263M,,0,,,,,1,1,1,19707413,pdf,05A9136E8BCFB1C4F8CBB939012F1778,,,"F:\\lib1\\019507436X,9780195074369,.pdf",0,2000-01-01 01:00:00,2016-04-03 02:51:08,390000/05a9136e8bcfb1c4f8cbb939012f1778-d.jpg,,
19408782,Philosophy of Mind: Classical and Contemporary Readings,,,,David J. Chalmers,2002,,"Oxford University Press, USA",,688,0,English,195,,,"019514581X,9780195145816",,,,,,,,,OL7389710M,,0,,,,,1,1,1,15321112,pdf,D736BB97325719C79CE12E0EDC1E0651,,,"F:\\lib1\\019514581X,9780195145816,.pdf",0,2000-01-01 01:00:00,2016-04-03 02:51:08,390000/d736bb97325719c79ce12e0edc1e0651-d.jpg,,
19408783,Consciousness: An Introduction,,,,Susan Blackmore,2003,1,"Oxford University Press, USA",,480,0,English,195,,,"019515343X,9780195153439",,,,,,,,,OL17099480M,,0,,,,,1,1,0,28396221,pdf,D850A2CADB353B7FB5B4DFA60B9ED148,,,"F:\\lib1\\019515343X,9780195153439,.pdf",0,2000-01-01 01:00:00,2016-04-03 02:51:08,390000/d850a2cadb353b7fb5b4dfa60b9ed148-d.jpg,,
19408784,Motivation and Agency,,,,Alfred R. Mele,2003,,"Oxford University Press, USA",,280,0,English,195,,,"019515617X,9780195156171",,,,,,,,,OL15554688M,,0,,,,,1,1,1,1610497,pdf,F84826948AF938B996E999B261EA1150,,,"F:\\lib1\\019515617X,9780195156171,.pdf",0,2000-01-01 01:00:00,2016-04-03 02:51:08,390000/f84826948af938b996e999b261ea1150-d.jpg,,
19408785,Multicultural Questions,,,,"Christian Joppke, Steven Lukes",1999,,"Oxford University Press, USA",,280,0,English,195,,,"019829610X,9780198296102",,,,,,,,,OL16956097M,,0,,,,,1,1,1,16769879,pdf,9D90021E4E2A42A08EB7BDDE59C3E055,,,"F:\\lib1\\019829610X,9780198296102,.pdf",0,2000-01-01 01:00:00,2016-04-03 02:51:08,390000/9d90021e4e2a42a08eb7bdde59c3e055-d.jpg,,
19408786,The Metaphysics of Theism: Aquinas's Natural Theology in Summa Contra Gentiles I Vol 1,,,,Norman Kretzmann,2002,,"Oxford University Press, USA",,320,0,English,264,,,"019924653X,9780199246533",,,,,,,,,OL7403638M,,0,,,,,1,1,1,1447503,pdf,20E5933736187F8D88DEBA65CFAC9250,,,"F:\\lib1\\019924653X,9780199246533,.pdf",0,2000-01-01 01:00:00,2016-04-03 02:51:08,390000/20e5933736187f8d88deba65cfac9250-d.jpg,,
19408787,Descriptions and Beyond,,,,"Marga Reimer, Anne Bezuidenhout",2004,,"Oxford University Press, USA",,668,0,English,195,,,"019927052X,9780199270521",,,,,401,P107 .D47 2004,,,OL22593643M,,0,,,,,1,1,1,2758135,pdf,84E78AF0FF8672CAD3F87B2818DBA8D5,,,"F:\\lib1\\019927052X,9780199270521,.pdf",0,2000-01-01 01:00:00,2016-04-03 02:51:08,390000/84e78af0ff8672cad3f87b2818dba8d5-d.jpg,,
19408788,Ein Cockpit für den Aufsichtsrat : Entwurf eines systemisch-prozessorientierten Modells zur aufgabenspezifischen Informationsversorgung des Aufsichtsrats,,"Gabler Edition Wissenschaft. Internationalisierung und Management; Gabler Edition Wissenschaft., Internationalisierung und Management",,Olaf B Mäder,2006,,Deutscher Universitäts-Verlag,Wiesbaden,282,0,German,,usenet,to 2012-06,"9783835090606,3835090607",,,,,,,,,,,0,,,,,,,1,16006916,pdf,e351d9daf7114c33ca045ae8149dd54f,,,I:\\usenet_ger\\Ein.Cockpit.fuer.den.Aufsichtsrat.[Springer].[2006].[q77701].pdf,0,2000-01-01 01:00:00,2016-04-03 02:51:08,883000/e351d9daf7114c33ca045ae8149dd54f-g.jpg,,
19408789,In Defence of Christianity,,,,Brian Hebblethwaite,2005,,"Oxford University Press, USA",,200,0,English,195,,,"019927679X,9780199276790",,,,,,,,,OL22630016M,,0,,,,,1,1,1,1430961,pdf,D3AC1766D1B9AC6FA31A9E9125D914AE,,,"F:\\lib1\\019927679X,9780199276790,.pdf",0,2000-01-01 01:00:00,2016-04-03 02:51:08,390000/d3ac1766d1b9ac6fa31a9e9125d914ae-d.jpg,,
19408790,Deliberating in the Real World: Problems of Legitimacy in Deliberative Democracy,,,,John Parkinson,2006,,"Oxford University Press, USA",,224,0,English,195,,,"019929111X,9780199291113",,,,,,,,,OL22731505M,,0,,,,,1,1,1,1782923,pdf,53420DE159A1E166DBBE5BDD54B80FA6,,,"F:\\lib1\\019929111X,9780199291113,.pdf",0,2000-01-01 01:00:00,2016-04-03 02:51:08,390000/53420de159a1e166dbbe5bdd54b80fa6-d.jpg,,
19408791,New Waves in Philosophy of Mathematics,,,,"Otavio Bueno, Oystein Linnebo",2009,,Palgrave Macmillan,,338,0,English,113,,,"023021942X,9780230219427",,,,,510.1,QA8.4 .N49 2009,,,OL24581332M,,0,,,,,0,1,1,1588387,pdf,4E582A495379F096D93E758514F9DE3F,,,"F:\\lib1\\023021942X,9780230219427,.pdf",0,2000-01-01 01:00:00,2016-04-03 02:51:08,390000/4e582a495379f096d93e758514f9de3f-d.jpg,,
19408792,"Levinas, Judaism, and the Feminine: The Silent Footsteps of Rebecca ",,Indiana Series in the Philosophy of Religion,,Claire Elise Katz,2003,,Indiana University Press,,224,0,English,205,,,"025334302X,9780253343024",,,,,,,,,OL9830720M,,0,,,,,1,1,1,876137,pdf,FBB40093880CD27E82AE25D46131DC69,,,"F:\\lib1\\025334302X,9780253343024,.pdf",0,2000-01-01 01:00:00,2016-04-03 02:51:08,390000/fbb40093880cd27e82ae25d46131dc69-d.jpg,,
19408793,Earthtalk: Communication Empowerment for Environmental Action ,,Praeger Studies in Political Communication,,Star Muir,1996,,Praeger,,256,0,English,260,,,"027595370X,9780275953706",,,,,363.7/0014,GE25 .E27 1996,,,OL798228M,,0,,,,,1,1,1,8470374,pdf,6CAAA75D69013CB8EEFE9CDE7651533D,,,"F:\\lib1\\027595370X,9780275953706,.pdf",0,2000-01-01 01:00:00,2016-04-03 02:51:08,390000/6caaa75d69013cb8eefe9cde7651533d-d.jpg,,
19408794,Alien Constructions: Science Fiction and Feminist Thought,,,,Patricia Melzer,2006,,University of Texas Press,,336,0,English,181,,,"029271307X,9780292713079",,,,,813/.08762099287,PS374.S35 A79 2006,,,OL22735450M,,0,,,,,1,1,1,1923689,pdf,AD4C5802C211C34D17D9FA229803564F,,,"F:\\lib1\\029271307X,9780292713079,.pdf",0,2000-01-01 01:00:00,2016-04-03 02:51:08,390000/ad4c5802c211c34d17d9fa229803564f-d.jpg,,
19408795,Twentieth-Century Philosophy: The Analytic Tradition ,,Readings in the History of Philosophy,,"Morris Weitz, Paul Edwards, Richard H. Popkin",1966,,Free Press,,400,0,English,195,,,"0029349907,9780029349908",,,,,,,,,,,0,,,,,1,,0,20274469,pdf,92D4F48216B27025FA878699DF70181A,,,"F:\\lib1\\0029349907,9780029349908,.pdf",0,2000-01-01 01:00:00,2016-04-03 02:51:08,390000/92d4f48216b27025fa878699df70181a-d.jpg,,
19408796,For Mao Essays In Historical Materialism,,,,Philip Corrigan,,,Humanity Press/prometheus Bk,,114,0,English,64,,,"039101014X,9780391010147",,,,,,,,,OL10156362M,,0,,,,,1,,0,10512837,pdf,80D79CFD5ABACC0811828CE59BD009E2,,,"F:\\lib1\\039101014X,9780391010147,.pdf",0,2000-01-01 01:00:00,2016-04-03 02:51:08,390000/80d79cfd5abacc0811828ce59bd009e2-g.jpg,,
19408797,Economics and Hermeneutics,,,,Don Lavoie,1991,1,Routledge,,336,0,English,305,,,"041505950X,9780415059503",,,,,330/.01,HB72 .E268 1991,,,OL1856825M,,0,,,,,1,1,1,1702894,pdf,F3E6CB579F63549E10FF959A586D6BEA,,,"F:\\lib1\\041505950X,9780415059503,.pdf",0,2000-01-01 01:00:00,2016-04-03 02:51:08,390000/f3e6cb579f63549e10ff959a586d6bea-d.jpg,,
19408798,"Postmodernism, Reason and Religion",,,,Ernest Gellner,1992,1,Routledge,,119,0,English,205,,,"041508024X,9780415080248",,,,,291.2,BL65.P73 G45 1992,,,OL1561792M,,0,,,,1,1,1,1,357511,pdf,882B8DA3FAFBFF8A3C5385180CC49404,,,"F:\\lib1\\041508024X,9780415080248,.pdf",0,2000-01-01 01:00:00,2016-04-03 02:51:08,390000/882b8da3fafbff8a3c5385180cc49404-d.jpg,,
19408799,Imperialism and Biblical Prophecy: 750-500 BCE,,,,David Aberbach,1993,,Routledge,,144,0,English,195,,,"041509500X,9780415095006",,,,,221.1/5,BS1198 .A24 1993,,,OL1741153M,,0,,,,,1,1,1,1550997,pdf,EAB9541F24E862ADF36552D3198B9C41,,,"F:\\lib1\\041509500X,9780415095006,.pdf",0,2000-01-01 01:00:00,2016-04-03 02:51:08,390000/eab9541f24e862adf36552d3198b9c41-d.jpg,,
19408800,"Feminism, Objectivity and Economics ",,Economics as Social Theory,,Julie Nelson,1995,1,Routledge,,192,0,English,305,,,"041513336X,9780415133364",,,,,330.01,,,,OL22491353M,,0,,,,,1,1,1,1586663,pdf,38058F81681611F12044F6AB6178117B,,,"F:\\lib1\\041513336X,9780415133364,.pdf",0,2000-01-01 01:00:00,2016-04-03 02:51:08,390000/38058f81681611f12044f6ab6178117b-d.jpg,,
19408801,Explaining Society: An Introduction to Critical Realism in the Social Sciences ,,Critical Realism: Interventions,,"Berth Danermark, Mats Ekstrom, Liselotte Jakobsen, Jan ch. Karlsson",2001,1,Routledge,,240,0,English,195,,,"041522182X,9780415221825",,,,,,,,,OL15513694M,,0,,,,,1,1,1,1217829,pdf,0F8197FE9A3143D7E35FAE58B6A5BA31,,,"F:\\lib1\\041522182X,9780415221825,.pdf",0,2000-01-01 01:00:00,2016-04-03 02:51:08,390000/0f8197fe9a3143d7e35fae58b6a5ba31-g.jpg,,
19408802,Democracy After Liberalism: Pragmatism and Deliberative Politics,,,,Robert Talisse,2004,1,Routledge,,176,0,English,195,,,"041595018X,9780415950183",,,,,,,,,OL7497469M,,0,,,,,1,1,1,703705,pdf,F08C0A01525A265FBC0F7D73AE1A2032,,,"F:\\lib1\\041595018X,9780415950183,.pdf",0,2000-01-01 01:00:00,2016-04-03 02:51:08,390000/f08c0a01525a265fbc0f7d73ae1a2032-d.jpg,,
19408803,Studies on Marx & Hegel,,,,jean hyppolite,1969,1st Eng,Basic Books NY,,202,0,English,195,,,"046508284X,9780465082841",,,,,,,,,OL15052239M,,0,,,,,1,,1,5736757,pdf,DA4A99984942E3CB20C6768745D35B5F,,,"F:\\lib1\\046508284X,9780465082841,.pdf",0,2000-01-01 01:00:00,2016-04-03 02:51:08,390000/da4a99984942e3cb20c6768745d35b5f-g.jpg,,
19408804,An Introduction to Karl Marx,,,,Jon Elster,1986,,Cambridge University Press,,212,0,English,195,,,"052133831X,9780521338318",,,,,335.4,HX39.5 .E43 1986,,,OL2711469M,,0,,,,,1,,1,12403792,pdf,7C8DB41F56A39CFE5AFE8916763C8693,,,"F:\\lib1\\052133831X,9780521338318,.pdf",0,2000-01-01 01:00:00,2016-04-03 02:51:08,390000/7c8db41f56a39cfe5afe8916763c8693-d.jpg,,
19408805,Hegel's Phenomenology: The Sociality of Reason,,,,Terry Pinkard,1994,,Cambridge University Press,,230,0,English,195,,,"052156834X,9780521568340",,,,,,,,o5nRTNak4HcC,OL7746655M,,0,,,,0,1,,0,28377650,pdf,8A8E76525AA4DFEF06198EC04D9FBF3D,,,"F:\\lib1\\052156834X,9780521568340,.pdf",0,2000-01-01 01:00:00,2016-04-03 02:51:08,390000/8a8e76525aa4dfef06198ec04d9fbf3d-d.jpg,,
19408806,Globalizing Democracy and Human Rights,,,,Carol C. Gould,2004,,Cambridge University Press,,292,0,English,195,,,"052183354X,9780521833547",,,,,,,,,OL7765710M,,0,,,,,1,1,1,1853246,pdf,19AC1C89518D71EBFF4A0408C1076A8B,,,"F:\\lib1\\052183354X,9780521833547,.pdf",0,2000-01-01 01:00:00,2016-04-03 02:51:08,390000/19ac1c89518d71ebff4a0408c1076a8b-d.jpg,,
19408807,"The Conservative Soul: How We Lost It, How to Get It Back",,,,Andrew Sullivan,2006,,HarperCollins,,304,0,English,183,,,"0060188774,9780060188771",,,,,320.520973,JC573.2.U6 S85 2006,,,OL24968300M,,0,,,,,1,,1,1067795,pdf,0959B3189CA81748AFC5B412231C2185,,,"F:\\lib1\\0060188774,9780060188771,.pdf",0,2000-01-01 01:00:00,2016-04-03 02:51:08,390000/0959b3189ca81748afc5b412231c2185-d.jpg,,
19408808,The Problem of Pain,,,,C. S. Lewis,2001,,HarperOne,,176,0,English,195,,,"0060652969,9780060652968",,,,,231/.8,BT732.7 .L48 2001,,,OL24548649M,,0,,,,,1,,1,1327209,pdf,B8AE896AA10370EAE40C5B2A195F29E5,,,"F:\\lib1\\0060652969,9780060652968,.pdf",0,2000-01-01 01:00:00,2016-04-03 02:51:08,390000/b8ae896aa10370eae40c5b2a195f29e5-d.jpg,,
19408809,Hua Hu Ching: The Unknown Teachings of Lao Tzu,,,,Brian Walker,1995,,HarperOne,,128,0,English,183,,,"0060692456,9780060692452",,,,,299/.51482,BL1900.L42 E5 1994,,,OL1420904M,,0,,,,,1,,1,200004,pdf,EE4072F87D1E34E5D3402A1A3B58AE73,,,"F:\\lib1\\0060692456,9780060692452,.pdf",0,2000-01-01 01:00:00,2016-04-03 02:51:08,390000/ee4072f87d1e34e5d3402a1a3b58ae73-d.jpg,,
19408810,The Essential Tao : An Initiation into the Heart of Taoism Through the Authentic Tao Te Ching and the Inner Teachings of Chuang-Tzu,,,,Thomas Cleary,1993,,HarperOne,,176,0,English,183,,,"0062502166,9780062502162",,,,,,,,,OL17441591M,,0,,,,,1,1,1,245738,pdf,B1494D9B8E767A3C4A027EA39C64ECD5,,,"F:\\lib1\\0062502166,9780062502162,.pdf",0,2000-01-01 01:00:00,2016-04-03 02:51:08,390000/b1494d9b8e767a3c4a027ea39c64ecd5-d.jpg,,
19408811,Self-Consciousness,,,,Sebastian Rödl,2007,1,Harvard University Press,,222,0,English,195,,0,"067402494X,9780674024946",,,,,,,,,,,0,,,,,1,,0,39181156,pdf,EE41B97DB8115407E4E802C10A2F34C1,,,"F:/lib1/067402494X,9780674024946,.pdf",0,2000-01-01 01:00:00,2016-04-03 02:51:08,390000/ee41b97db8115407e4e802c10a2f34c1-d.jpg,,
19408812,Worrying about China: The Language of Chinese Critical Inquiry,,,,Gloria Davies,2009,,Harvard University Press,,324,0,English,195,,,"067403225X,9780674032255",,,,,,,,,,,0,,,,,1,1,1,1218195,pdf,F7B54B7AA93BA9753220FD13E2A2C21A,,,"F:\\lib1\\067403225X,9780674032255,.pdf",0,2000-01-01 01:00:00,2016-04-03 02:51:08,390000/f7b54b7aa93ba9753220fd13e2a2c21a-d.jpg,,
19408813,Making Meaning: Inference and Rhetoric in the Interpretation of Cinema ,,Harvard Film Studies,,David Bordwell,1991,,Harvard University Press,,352,0,English,60,,,"067454336X,9780674543362",,,,,791.43015,PN1995,,,OL21999720M,,0,,,,,1,1,1,19526991,pdf,1D8594DDE8782EE3C0C48D773A1F492C,,,"F:\\lib1\\067454336X,9780674543362,.pdf",0,2000-01-01 01:00:00,2016-04-03 02:51:08,390000/1d8594dde8782ee3c0c48d773a1f492c-d.jpg,,
19408814,Pandora's Hope: Essays on the Reality of Science Studies,,,,Bruno Latour,2000,1,Harvard University Press,,335,0,English,181,,,"067465336X,9780674653368",,,,,501,Q175.32.R42 L38 1999,,,OL387231M,,0,,,,0,1,,0,44081747,pdf,C8650027D4E3667820826434AB05CC9A,,,"F:\\lib1\\067465336X,9780674653368,.pdf",0,2000-01-01 01:00:00,2016-04-03 02:51:08,390000/c8650027d4e3667820826434ab05cc9a-d.jpg,,
19408815,Marxism and Form,,,,Fredric Jameson,1974,,Princeton University Press,,432,0,English,195,,,"069101311X,9780691013114",,,,,,,,,OL21621191M,,0,,,,,1,,0,44529813,pdf,8BD8842896EE826631356F4B15BEE8FD,,,"F:\\lib1\\069101311X,9780691013114,.pdf",0,2000-01-01 01:00:00,2016-04-03 02:51:08,390000/8bd8842896ee826631356f4b15bee8fd-d.jpg,,
19408816,"Ein Ansatz zur Erfassung des Leapfrogging-Phänomens : Grundkonzept, modelltheoretische Basis und empirische Befunde",,"Gabler Edition Wissenschaft., Marken- und Produktmanagement",,Silke-Annette Kaulfuss,2007,,Deutscher Universitäts-Verlag,Wiesbaden,205,0,German,,usenet,to 2012-06,"9783835090330,383509033X",,,,,,,,,,,0,,,,,,,1,1284878,pdf,53559ac5a696e34b4db4237ec0ba4989,,,I:\\usenet_ger\\Ein.Ansatz.zur.Erfassung.des.Leapfrogging-Phaenomens.[Springer].[2007].[ql1262].pdf,0,2000-01-01 01:00:00,2016-04-03 02:51:08,883000/53559ac5a696e34b4db4237ec0ba4989-g.jpg,,
19408817,The Good in the Right: A Theory of Intuition and Intrinsic Value,,,,Robert Audi,2004,,Princeton University Press,,256,0,English,195,,,"069111434X,9780691114347",,,,,171/.2,BJ1472 .A83 2004,,,OL22577089M,,0,,,,,1,,1,723388,pdf,990B7AD0AF83B8933C42537224C6E3DD,,,"F:\\lib1\\069111434X,9780691114347,.pdf",0,2000-01-01 01:00:00,2016-04-03 02:51:08,390000/990b7ad0af83b8933c42537224c6e3dd-d.jpg,,
19408818,"On Adam Smith's \Wealth of Nations\"": A Philosophical Companion""",,,,Samuel Fleischacker,2005,,Princeton University Press,,352,0,English,,,,"069112390X,9780691123905",,,,,,,,,OL7759087M,,0,,,,,1,1,1,1001974,pdf,61A5A9CA782BEDDBDB68CD5C16EAA8E6,,,"F:\\lib1\\069112390X,9780691123905,.pdf",0,2000-01-01 01:00:00,2016-04-03 02:51:08,390000/61a5a9ca782beddbdb68cd5c16eaa8e6-d.jpg,,
19408819,The Handbook of Chicana/o Psychology and Mental Health,,,,"Roberto J. Velasquez, Leticia M. Arellano, Brian W. McNeill",2004,,Routledge,,544,0,English,,,,"080584158X,9780805841589",,,,,,,,,OL17128611M,,0,,,,,1,1,1,2485483,pdf,5143AB75FE9C7109E4EC236339FDE50D,,,"F:\\lib1\\080584158X,9780805841589,.pdf",0,2000-01-01 01:00:00,2016-04-03 02:51:08,390000/5143ab75fe9c7109e4ec236339fde50d-d.jpg,,
19408820,Sartre Explained: From Bad Faith to Authenticity ,,Ideas Explained,,David Detmer,2008,,Open Court,,224,0,English,195,,,"081269631X,9780812696318",,,,,194,B2430.S34 D46 2008,,,OL11348264M,,0,,,,,1,,1,3498813,pdf,26BBE3BAF65CA7F7E15B8A3639B5BB6F,,,"F:\\lib1\\081269631X,9780812696318,.pdf",0,2000-01-01 01:00:00,2016-04-03 02:51:08,390000/26bbe3baf65ca7f7e15b8a3639b5bb6f-d.jpg,,
19408821,Mental & the Material: Thought Economy & Society,,,,"Maurice Godelier, Martin Thom",1986,,Verso,,130,0,English,195,,,"086091903X,9780860919032",,,,,306.3/09,GN448 .G6313 1988,,,OL2405499M,,0,,,,0,1,,1,8079505,pdf,20448A4BF1FF94F6C0C81B34D3A180BD,,,"F:\\lib1\\086091903X,9780860919032,.pdf",0,2000-01-01 01:00:00,2016-04-03 02:51:08,390000/20448a4bf1ff94f6c0c81b34d3a180bd-d.jpg,,
19408822,The Economic and Philosophic Manuscripts of 1844 and the Communist Manifesto ,,Great Books in Philosophy,,"Karl Marx, Fredrick Engels, Martin Milligan",1988,1st,Prometheus Books,,243,0,English,305,,,"087975446X,9780879754464",,,,,,,,,OL8130836M,,0,,,,,1,,1,18982165,pdf,0899EE6A3C0A56175F2667E0CFCD1606,,,"F:\\lib1\\087975446X,9780879754464,.pdf",0,2000-01-01 01:00:00,2016-04-03 02:51:08,390000/0899ee6a3c0a56175f2667e0cfcd1606-d.jpg,,
19408823,Teaching about Technology: An Introduction to the Philosophy of Technology for Non-philosophers ,,Contemporary Trends and Issues in Science Education,,Marc J. de Vries,2006,1,Springer,,179,0,English,183,,,"140205274X,9781402052743",,,,,,,,,OL9859371M,,0,,,,,1,,1,2061920,pdf,3572F37B9CBE2EA62FDF5A27D5166EB9,,,"F:\\lib1\\140205274X,9781402052743,.pdf",0,2000-01-01 01:00:00,2016-04-03 02:51:08,390000/3572f37b9cbe2ea62fdf5a27d5166eb9-d.jpg,,
19408824,The Bioethics of Regenerative Medicine ,,Philosophy and Medicine,,King-Tak IP,2009,1,Springer,,188,0,English,147,,,"140208966X,9781402089664",,,,,,,,,,,0,,,,,1,,1,1658990,pdf,ECC3E3F5A1158303160D67C64D84AFBD,,,"F:\\lib1\\140208966X,9781402089664,.pdf",0,2000-01-01 01:00:00,2016-04-03 02:51:08,390000/ecc3e3f5a1158303160d67c64d84afbd-d.jpg,,
19408825,NGOs and the Millennium Development Goals: Citizen Action to Reduce Poverty,,,,"Jennifer Brinkerhoff, Stephen C. Smith, Hildy Teegen",2007,1st,Palgrave Macmillan,,240,0,English,195,,,"140397974X,9781403979742",,,,,,,,,OL17228705M,,0,,,,,1,1,1,866823,pdf,10B2BD28C6CC5E3C4FF31DEA4414A7EA,,,"F:\\lib1\\140397974X,9781403979742,.pdf",0,2000-01-01 01:00:00,2016-04-03 02:51:08,390000/10b2bd28c6cc5e3c4ff31dea4414a7ea-d.jpg,,
19408826,Zoos: A Philosophical Tour,,,,Keekok Lee,2006,,Palgrave Macmillan,,224,0,English,195,,,"140398624X,9781403986245",,,,,590.73,QL76 .L44 2005,,,OL22714698M,,0,,,,,1,1,1,390082,pdf,79A1E153D483C36A9151856D556EEB76,,,"F:\\lib1\\140398624X,9781403986245,.pdf",0,2000-01-01 01:00:00,2016-04-03 02:51:08,390000/79a1e153d483c36a9151856d556eeb76-d.jpg,,
19408827,"Foucault on Politics, Security and War",,,,"Michael Dillon, Andrew Neal",2008,First Edition,Palgrave Macmillan,,256,0,English,195,,,"140399904X,9781403999047",,,,,320.092,JA71 .F598 2008,,,OL11643179M,,0,,,,,1,1,1,1076328,pdf,8CBC83C418294349161D100F3758CE52,,,"F:\\lib1\\140399904X,9781403999047,.pdf",0,2000-01-01 01:00:00,2016-04-03 02:51:08,390000/8cbc83c418294349161d100f3758ce52-d.jpg,,
19408828,Foucault and Queer Theory ,,Postmodern Encounters,,Tasmin Spargo,1995,,Totem Books,,80,0,English,195,,,"184046092X,9781840460926",,,,,,,,,,,0,,,,,1,1,1,1117156,pdf,BB9D10201C0851FAC0497A55DEFA4DE7,,,"F:\\lib1\\184046092X,9781840460926,.pdf",0,2000-01-01 01:00:00,2016-04-03 02:51:08,390000/bb9d10201c0851fac0497a55defa4de7-d.jpg,,
19408829,An Introduction to Critical Legal Theory,,,,Ian Ward,1998,1,Gaunt,,224,0,English,195,,,"185941348X,9781859413487",,,,,,,,,OL20911181M,,0,,,,,1,1,1,767484,pdf,8935A3CD6434DD779C0750CDBEB36E69,,,"F:\\lib1\\185941348X,9781859413487,.pdf",0,2000-01-01 01:00:00,2016-04-03 02:51:08,390000/8935a3cd6434dd779c0750cdbeb36e69-d.jpg,,
19408830,The Law and Ethics of Medical Research: International Bioethics and Human Rights,,,,Aurora Plomer,2005,1,Routledge-Cavendish,,158,0,English,313,,,"185941687X,9781859416877",,,,,,,,,OL8621835M,,0,,,,,1,1,1,2068332,pdf,F851BF5AEEC6D6E60E10B545D2F0AA4A,,,"F:\\lib1\\185941687X,9781859416877,.pdf",0,2000-01-01 01:00:00,2016-04-03 02:51:08,390000/f851bf5aeec6d6e60e10b545d2f0aa4a-d.jpg,,
19408831,Reader's Guide to Women's Studies,,,,Eleanor Amico,1997,1,Routledge,,762,0,English,195,,,"188496477X,9781884964770",,,,,016.3054/07,"Z7961 .R43 1998,HQ1180 .R43 1998",,,OL431372M,,0,,,,,1,1,1,7943979,pdf,AD6C578B677AA0DD8E06828CC1D4C3DF,,,"F:\\lib1\\188496477X,9781884964770,.pdf",0,2000-01-01 01:00:00,2016-04-03 02:51:08,390000/ad6c578b677aa0dd8e06828cc1d4c3df-d.jpg,,
19408832,Ein allzu schönes Mädchen : Roman,,,,Jan Seghers,2004,,Wunderlich,[Reinbek bei Hamburg],691,0,German,,usenet,to 2012-06,"3805207794,9783805207799",,,,,,,,,,,0,,,,,,,1,2630395,pdf,4ed16f4a65095fc3b539b313af2a7189,,,I:\\usenet_ger\\Ein allzu schones Madchen - Seghers_ Jan.pdf,0,2000-01-01 01:00:00,2016-04-03 02:51:08,883000/4ed16f4a65095fc3b539b313af2a7189-d.jpg,,
19408833,Atheism: A Very Short Introduction ,,Very Short Introductions,,Julian Baggini,2003,,"Oxford University Press, USA",,136,0,English,195,,,"0192804243,9780192804242",,,,,211.8,BL2747.3 .B245 2003,,,OL22590497M,,0,,,,0,0,,1,2597819,pdf,0AC1754A0921DFA3FF2A3FBE3B70C92F,,,"F:\\lib1\\0192804243,9780192804242,.pdf",0,2000-01-01 01:00:00,2016-04-03 02:51:08,390000/0ac1754a0921dfa3ff2a3fbe3b70c92f-d.jpg,,
19408834,Socialism: A Very Short Introduction ,,Very Short Introductions,,Michael Newman,2005,,"Oxford University Press, USA",,144,0,English,195,,,"0192804316,9780192804310",,,,,,,,,OL7383346M,,0,,,,,1,1,1,3191909,pdf,C46454DA8BDB630F8077A65615151A07,,,"F:\\lib1\\0192804316,9780192804310,.pdf",0,2000-01-01 01:00:00,2016-04-03 02:51:08,390000/c46454da8bdb630f8077a65615151a07-d.jpg,,
19408835,Anarchism: A Very Short Introduction ,,Very Short Introductions,,Colin Ward,2004,,"Oxford University Press, USA",,126,0,English,195,,,"0192804774,9780192804778",,,,,,,,,OL7383365M,,0,,,,,1,1,1,2245859,pdf,507B6755F76CEE9CA78A1856F5FCB2C2,,,"F:\\lib1\\0192804774,9780192804778,.pdf",0,2000-01-01 01:00:00,2016-04-03 02:51:08,390000/507b6755f76cee9ca78a1856f5fcb2c2-d.jpg,,
19408836,Outlines of the Philosophy of Right ,,Oxford World's Classics,,"G. W. F. Hegel, Stephen Houlgate, T. M. Knox",2008,Revised,"Oxford University Press, USA",,432,0,English,195,,,"0192806106,9780192806109",,,,,340/.11,K230.H43 G7813 2008,,,OL16413544M,,0,,,,,1,1,1,2278861,pdf,27C04C719F308774E9EF1EE0E1006F56,,,"F:\\lib1\\0192806106,9780192806109,.pdf",0,2000-01-01 01:00:00,2016-04-03 02:51:08,390000/27c04c719f308774e9ef1ee0e1006f56-d.jpg,,
19408837,Dialogues and Essays ,,Oxford World's Classics,,"Seneca, Tobias Reinhardt, John Davie",2008,,"Oxford University Press, USA",,320,0,English,195,,,"0192807145,9780192807144",,,,,878/.0109,PA6661.A7 S46 2007,,,OL10127593M,,0,,,,,1,1,1,1012614,pdf,2AF7E2DBE6EF1081724B43259B01EBA8,,,"F:\\lib1\\0192807145,9780192807144,.pdf",0,2000-01-01 01:00:00,2016-04-03 02:51:08,390000/2af7e2dbe6ef1081724b43259b01eba8-d.jpg,,
19408838,Habermas: A Very Short Introduction ,,Very Short Introductions,,Gordon Finlayson,2005,,"Oxford University Press, USA",,184,0,English,195,,,"0192840959,9780192840950",,,,,193,B3258.H324 F583 2005,,,OL3436425M,,0,,,,,1,,1,2038821,pdf,4BE9451D49B8DA3E24D707F74BC40608,,,"F:\\lib1\\0192840959,9780192840950,.pdf",0,2000-01-01 01:00:00,2016-04-03 02:51:08,390000/4be9451d49b8da3e24d707f74bc40608-d.jpg,,
19408839,Ancient Philosophy: A Very Short Introduction ,,Very Short Introductions,,Julia Annas,2001,,"Oxford University Press, USA",,144,0,English,64,,,"0192853570,9780192853578",,,,,180,B111 .A56 2000,,,OL6792931M,,0,,,,,1,1,1,1739840,pdf,88B22759D185A7FC3C860B0CED0B10CB,,,"F:\\lib1\\0192853570,9780192853578,.pdf",0,2000-01-01 01:00:00,2016-04-03 02:51:08,390000/88b22759d185a7fc3c860b0ced0b10cb-d.jpg,,
19408840,Chaos: A Very Short Introduction ,,Very Short Introductions,,"Lenny Smith, Leonard Smith",2007,,"Oxford University Press, USA",,176,0,English,275,,,"0192853783,9780192853783",,,,,,,,,OL7384531M,,0,,,,,1,1,1,4594678,pdf,3998A624461E4B98A9467977AD8B75B9,,,"F:\\lib1\\0192853783,9780192853783,.pdf",0,2000-01-01 01:00:00,2016-04-03 02:51:08,390000/3998a624461e4b98a9467977ad8b75b9-d.jpg,,
19408841,Aristotle: A Very Short Introduction ,,Very Short Introductions,,Jonathan Barnes,2001,,"Oxford University Press, USA",,176,0,English,195,,,"0192854089,9780192854087",,,,,185,B485 .B35 2000,,,OL3963820M,,0,,,,,1,1,1,3054481,pdf,7BA9B29558AC846892284F91811FE49E,,,"F:\\lib1\\0192854089,9780192854087,.pdf",0,2000-01-01 01:00:00,2016-04-03 02:51:08,390000/7ba9b29558ac846892284f91811fe49e-d.jpg,,
19408842,"The Molecular Vision of Life: Caltech, the Rockefeller Foundation, and the Rise of the New Biology ",,Monographs on the History and Philosophy of Biol,,Lily E. Kay,1992,,"Oxford University Press, USA",,320,0,English,12,,,"0195058127,9780195058123",,,,,574.8/8/09,QH506 .K39 1993,,,OL1702487M,,0,,,,,1,1,1,24936741,pdf,4C40325A7E5060B64C7749969B1234AE,,,"F:\\lib1\\0195058127,9780195058123,.pdf",0,2000-01-01 01:00:00,2016-04-03 02:51:08,390000/4c40325a7e5060b64c7749969b1234ae-d.jpg,,
19408843,The Philosophy and Economics of Market Socialism: A Critical Study,,,,N. Scott Arnold,1994,,"Oxford University Press, USA",,320,0,English,305,,,"0195088271,9780195088274",,,,,335,HB90 .A77 1994,,,OL1421516M,,0,,,,,1,1,1,23391372,pdf,0EC63F8596088BC410AAA5FB473BFF20,,,"F:\\lib1\\0195088271,9780195088274,.pdf",0,2000-01-01 01:00:00,2016-04-03 02:51:08,390000/0ec63f8596088bc410aaa5fb473bff20-d.jpg,,
19408844,On Evil,,,,"Thomas Aquinas, Brian Davies, Richard Regan",2003,,"Oxford University Press, USA",,560,0,English,195,,,"0195091833,9780195091830",,,,,,,,,OL17073608M,,0,,,,,1,,1,1859956,pdf,BA087CD7A3CD68734DEFD18777E6B491,,,"F:\\lib1\\0195091833,9780195091830,.pdf",0,2000-01-01 01:00:00,2016-04-03 02:51:08,390000/ba087cd7a3cd68734defd18777e6b491-d.jpg,,
19408845,Greek Comedy and Ideology,,,,David Konstan,1995,,"Oxford University Press, USA",,256,0,English,195,,,"0195092945,9780195092943",,,,,882/.05230901,PA3166 .K66 1995,,,OL1083090M,,0,,,,,1,1,1,16211661,pdf,D092752863CCD1841C5C64DF1066C709,,,"F:\\lib1\\0195092945,9780195092943,.pdf",0,2000-01-01 01:00:00,2016-04-03 02:51:08,390000/d092752863ccd1841c5c64df1066c709-d.jpg,,
19408846,From Morality to Virtue,,,,Michael Slote,1995,,"Oxford University Press, USA",,296,0,English,195,,,"0195093925,9780195093926",,,,,,,,,OL7387579M,,0,,,,,1,1,1,15893039,pdf,1E49FD711775725E220A71A16BAF9BC7,,,"F:\\lib1\\0195093925,9780195093926,.pdf",0,2000-01-01 01:00:00,2016-04-03 02:51:08,390000/1e49fd711775725e220a71a16baf9bc7-d.jpg,,
19408847,The Monkey Wars,,,,Deborah Blum,1994,1ST,"Oxford University Press, USA",,328,0,English,195,,,"0195094123,9780195094121",,,,,179/.4,HV4915 .B58 1994,,,OL1088393M,,0,,,,,1,1,1,5023436,pdf,0539B846FDD814EB07C946A298ADDC14,,,"F:\\lib1\\0195094123,9780195094121,.pdf",0,2000-01-01 01:00:00,2016-04-03 02:51:08,390000/0539b846fdd814eb07c946a298addc14-d.jpg,,
19408848,Character,,,,Joel J. Kupperman,1995,,"Oxford University Press, USA",,208,0,English,195,,,"0195096541,9780195096545",,,,,170,,,,OL21165364M,,0,,,,,1,1,1,11421531,pdf,2531D5147FB46C64E8885AB3EEC01B56,,,"F:\\lib1\\0195096541,9780195096545,.pdf",0,2000-01-01 01:00:00,2016-04-03 02:51:08,390000/2531d5147fb46c64e8885ab3eec01b56-d.jpg,,
19408849,Law and Objectivity,,,,Kent Greenawalt,1995,,"Oxford University Press, USA",,304,0,English,313,,,"0195098331,9780195098334",,,,,,,,,OL7387701M,,0,,,,,1,1,1,15938406,pdf,9360D33560097290D27260DB6B59442A,,,"F:\\lib1\\0195098331,9780195098334,.pdf",0,2000-01-01 01:00:00,2016-04-03 02:51:08,390000/9360d33560097290d27260db6b59442a-d.jpg,,
19408850,Organizational Ethics and the Good Life ,,The Ruffin Series in Business Ethics,,Edwin Hartman,1996,,"Oxford University Press, USA",,232,0,English,195,,,"0195100778,9780195100778",,,,,302.3/5,HF5387 .H374 1996,,,OL1274000M,,0,,,,,1,1,1,13599680,pdf,6D05BD3DA494E5D94106A268D2F8AB53,,,"F:\\lib1\\0195100778,9780195100778,.pdf",0,2000-01-01 01:00:00,2016-04-03 02:51:08,390000/6d05bd3da494e5d94106a268d2f8ab53-d.jpg,,
19408851,"Karl Marx: His Life and Environment, Fourth Edition",,,,"Sir Isaiah Berlin, Alan Ryan",1996,4,"Oxford University Press, USA",,256,0,English,195,,,"0195103262,9780195103267",,,,,"335.4/092,B",HX39.5 .B4 1996,,,OL796024M,,0,,,,,1,,1,14248296,pdf,1BFCA439D9C7661D0BB9C279B5BB7DC7,,,"F:\\lib1\\0195103262,9780195103267,.pdf",0,2000-01-01 01:00:00,2016-04-03 02:51:08,390000/1bfca439d9c7661d0bb9c279b5bb7dc7-d.jpg,,
19408852,"Sex, Power, Conflict: Evolutionary and Feminist Perspectives",,,,"David M. Buss, Neil Malamuth",1996,,"Oxford University Press, USA",,352,0,English,195,,,"0195103572,9780195103571",,,,,306.7,HQ801.83 .S49 1996,,,OL7387834M,,0,,,,,1,1,1,22577138,pdf,3293414B84A0C6E4632E532EA23D5BBE,,,"F:\\lib1\\0195103572,9780195103571,.pdf",0,2000-01-01 01:00:00,2016-04-03 02:51:08,390000/3293414b84a0c6e4632e532ea23d5bbe-d.jpg,,
19408853,Uncovering Lives: The Uneasy Alliance of Biography and Psychology,,,,Alan C. Elms,1997,,"Oxford University Press, USA",,328,0,English,198,,,"0195113799,9780195113792",,,,,,,,,OL7388182M,,0,,,,,1,1,1,19337799,pdf,F7EFD0A8EAF85FC5FF28C6CC6A13A908,,,"F:\\lib1\\0195113799,9780195113792,.pdf",0,2000-01-01 01:00:00,2016-04-03 02:51:08,390000/f7efd0a8eaf85fc5ff28c6cc6a13a908-d.jpg,,
19408854,Redefining Equality,,,,"Neal Devins, Davison M. Douglas",1998,,"Oxford University Press, USA",,256,0,English,195,,,"0195116658,9780195116656",,,,,323.42/0973,JC575 .R43 1998,,,OL656791M,,0,,,,,1,1,1,17239484,pdf,DA65DA041F5531EB8BC8FAB74DC95A7D,,,"F:\\lib1\\0195116658,9780195116656,.pdf",0,2000-01-01 01:00:00,2016-04-03 02:51:08,390000/da65da041f5531eb8bc8fab74dc95a7d-d.jpg,,
19408855,"Eigenkapitalkosten ausgewählter Unternehmen auf Basis der modernen Kapitalmarkttheorie : eine empirische Anwendung des CAPM für die Holz verarbeitende Industrie, Druckmaschinen- und Papierindustrie",,DUV Wirtschaftswissenschaft,,Gabriel Webel,2006,,Deutscher Universitäts-Verlag,Wiesbaden,217,0,German,,usenet,to 2012-06,"9783835090965,3835090968",,,,,,,,,,,0,,,,,,,1,12145133,pdf,2d5465a73401503fd3f0dc601da9aa54,,,I:\\usenet_ger\\Eigenkapitalkosten.ausgewaehlter.Unternehmen.auf.Basis.der.modernen.Kapitalmarkttheorie.[Springer].[2006].[n5655u].pdf,0,2000-01-01 01:00:00,2016-04-03 02:51:08,883000/2d5465a73401503fd3f0dc601da9aa54-g.jpg,,
19408856,"Emotion, Character, and Responsibility",,,,"John Sabini, Maury Silver",1998,1St Edition,"Oxford University Press, USA",,192,0,English,195,,,"0195121678,9780195121674",,,,,152.4,BF531 .S23 1998,,,OL359111M,,0,,,,,1,1,1,7740170,pdf,2378A519AE791A7C3FF2B7468B7AAC7C,,,"F:\\lib1\\0195121678,9780195121674,.pdf",0,2000-01-01 01:00:00,2016-04-03 02:51:08,390000/2378a519ae791a7c3ff2b7468b7aac7c-d.jpg,,
19408857,The Oxford Handbook of Cognitive Linguistics ,,Oxford Handbooks,,"Dirk Geeraerts, Hubert Cuyckens",2007,,"Oxford University Press, USA",,1365,0,English,183,,,"0195143787,9780195143782",,,,,,,,,OL17246836M,,0,,,,0,0,1,1,9931027,pdf,7CD318D14EC5D8FC02A82312CA6B7DAC,,,"F:\\lib1\\0195143787,9780195143782,.pdf",0,2000-01-01 01:00:00,2016-04-03 02:51:08,390000/7cd318d14ec5d8fc02a82312ca6b7dac-d.jpg,,
19408858,Lessing's Philosophy of Religion and the German Enlightenment ,,Reflection and Theory in the Study of Religion,,Toshimasa Yasukata,2002,,An American Academy of Religion Book,,224,0,English,205,,,"0195144945,9780195144949",,,,,832/.6,PT2418.R4 Y37 2002,,,OL17038687M,,0,,,,,1,1,1,1319364,pdf,EC938C000BAA2B51C91BEDBE9F90FC06,,,"F:\\lib1\\0195144945,9780195144949,.pdf",0,2000-01-01 01:00:00,2016-04-03 02:51:08,390000/ec938c000baa2b51c91bedbe9f90fc06-d.jpg,,
19408859,Empty Words: Buddhist Philosophy and Cross-Cultural Interpretation,,,,Jay L. Garfield,2001,,"Oxford University Press, USA",,320,0,English,195,,,"0195145518,9780195145519",,,,,181/.043,BQ7457 . G37 2002,,,OL6796512M,,0,,,,,1,1,1,5004692,pdf,E5043B44CB3176BE1382D674D7BEF647,,,"F:\\lib1\\0195145518,9780195145519,.pdf",0,2000-01-01 01:00:00,2016-04-03 02:51:08,390000/e5043b44cb3176be1382d674d7bef647-d.jpg,,
19408860,Aesthetics in a Multicultural Age,,,,"Emory Elliott, Lou Freitas Caton, Jeffrey Rhyne",2002,,"Oxford University Press, USA",,320,0,English,195,,,"0195146328,9780195146325",,,,,11/.85,BH221.U53 A33 2002,,,OL17929511M,,0,,,,,1,1,1,20935375,pdf,5EC87D97680D4A8CCC7B18DA89AF3344,,,"F:\\lib1\\0195146328,9780195146325,.pdf",0,2000-01-01 01:00:00,2016-04-03 02:51:08,390000/5ec87d97680d4a8ccc7b18da89af3344-d.jpg,,
19408861,Tending the Heart of Virtue: How Classic Stories Awaken a Child's Moral Imagination,,,,Vigen Guroian,2002,,"Oxford University Press, USA",,208,0,English,195,,,"0195152646,9780195152647",,,,,,,,,OL7390098M,,0,,,,,1,1,1,9017658,pdf,5A9390FA2EDB91740524B855DBDCAF8B,,,"F:\\lib1\\0195152646,9780195152647,.pdf",0,2000-01-01 01:00:00,2016-04-03 02:51:08,390000/5a9390fa2edb91740524b855dbdcaf8b-d.jpg,,
19408862,Philosophical Papers: Volume One,,,,Peter Unger,2006,,"Oxford University Press, USA",,338,0,English,195,,,"0195155521,9780195155525",,,,,191,B945.U543 P48 2006,,,OL22726710M,,0,,,,0,1,1,0,12748325,pdf,51DDD22A9712FB8C3840AE04511DB24C,,,"F:\\lib1\\0195155521,9780195155525,.pdf",0,2000-01-01 01:00:00,2016-04-03 02:51:08,390000/51ddd22a9712fb8c3840ae04511db24c-d.jpg,,
19408863,"On Female Body Experience: \Throwing Like a Girl\"" and Other Essays """,,Studies in Feminist Philosophy,,Iris Marion Young,2005,,"Oxford University Press, USA",,192,0,English,195,,,"0195161939,9780195161939",,,,,305.42/01,HQ1190 .Y679 2005,,,OL3303562M,,0,,,,,1,1,1,1032649,pdf,B78BBA18B12B083DAA91768EE1861400,,,"F:\\lib1\\0195161939,9780195161939,.pdf",0,2000-01-01 01:00:00,2016-04-03 02:51:08,390000/b78bba18b12b083daa91768ee1861400-d.jpg,,
19408864,Truth: A Guide,,,,Simon Blackburn,2005,First Edition,"Oxford University Press, USA",,260,0,English,195,,,"0195168240,9780195168242",,,,,,,,,OL7390832M,,0,,,,0,0,1,1,766335,pdf,B64CA86FD46FDA6BFBD374C3D124041D,,,"F:\\lib1\\0195168240,9780195168242,.pdf",0,2000-01-01 01:00:00,2016-04-03 02:51:08,390000/b64ca86fd46fda6bfbd374c3d124041d-d.jpg,,
19408865,Perceptual Coherence: Hearing and Seeing ,,Oxford Psychology Series,,Stephen Handel,2006,1,"Oxford University Press, USA",,492,0,English,195,,,"0195169646,9780195169645",,,,,152.1,QP447 .H36 2005,,,OL3399736M,,0,,,,,1,1,1,7258729,pdf,07C7438C2F501B41ED9A304EF31FA0C0,,,"F:\\lib1\\0195169646,9780195169645,.pdf",0,2000-01-01 01:00:00,2016-04-03 02:51:08,390000/07c7438c2f501b41ed9a304ef31fa0c0-d.jpg,,
19408866,What Are We?: A Study in Personal Ontology ,,Philosophy of Mind Series,,Eric T. Olson,2007,,"Oxford University Press, USA",,264,0,English,195,,,"0195176421,9780195176421",,,,,,,,,OL22762396M,,0,,,,,1,1,1,1457245,pdf,F2D2C8F5D36CA2A3329254F3BEB53229,,,"F:\\lib1\\0195176421,9780195176421,.pdf",0,2000-01-01 01:00:00,2016-04-03 02:51:08,390000/f2d2c8f5d36ca2a3329254f3beb53229-d.jpg,,
19408867,Philosophical Papers: Volume Two,,,,Peter Unger,2006,,"Oxford University Press, USA",,388,0,English,195,,,"0195301587,9780195301588",,,,,191,B945.U543 P48 2006,,,OL3425448M,,0,,,,0,1,1,0,14775667,pdf,6A74CA7794612A1226CD425DE6C076A4,,,"F:\\lib1\\0195301587,9780195301588,.pdf",0,2000-01-01 01:00:00,2016-04-03 02:51:08,390000/6a74ca7794612a1226cd425de6c076a4-d.jpg,,
19408868,Value-Free Science?: Ideals and Illusion,,,,"Harold Kincaid, John Dupré, Alison Wylie",2007,,"Oxford University Press, USA",,256,0,English,195,,,"0195308964,9780195308969",,,,,501,Q175.5 .V35 2007,,,OL17243600M,,0,,,,,1,1,1,894355,pdf,BE46B0AD38FD9F4B8BB5DD2385176847,,,"F:\\lib1\\0195308964,9780195308969,.pdf",0,2000-01-01 01:00:00,2016-04-03 02:51:08,390000/be46b0ad38fd9f4b8bb5dd2385176847-d.jpg,,
19408869,Rationality and the Good: Critical Essays on the Ethics and Epistemology of Robert Audi,,,,"Mark Timmons, John Greco, Alfred R. Mele",2007,,"Oxford University Press, USA",,288,0,English,195,,,"0195311957,9780195311952",,,,,190,B804 .S88 2005,,,OL10135036M,,0,,,,,1,1,1,1821372,pdf,35018D858E220B18A4E9EB70D7BF5439,,,"F:\\lib1\\0195311957,9780195311952,.pdf",0,2000-01-01 01:00:00,2016-04-03 02:51:08,390000/35018d858e220b18a4e9eb70d7bf5439-d.jpg,,
19408870,Beyond Reduction: Philosophy of Mind and Post-Reductionist Philosophy of Science,,Philosophy of Mind,,Steven Horst,2007,1,"Oxford University Press, USA",,240,0,English,181,,0,"0195317114,9780195317114",,,,,128/.3,BD418.3 .H669 2007,,,,,0,,,,,1,1,1,2118201,pdf,5BCA00739120FA9954578F546E6D96EB,,,"F:/lib1/0195317114,9780195317114,.pdf",0,2000-01-01 01:00:00,2016-04-03 02:51:08,390000/5bca00739120fa9954578f546e6d96eb-d.jpg,,
19408871,Al-Ghazali's Philosophical Theology,,,,Frank Griffel,2009,,"Oxford University Press, USA",,424,0,English,195,,,"0195331621,9780195331622",,,,,181/.5,B753.G34 G75 2009,,,OL16991457M,,0,,,,,1,1,1,4772943,pdf,D022937727BFC1F2384A898645359038,,,"F:\\lib1\\0195331621,9780195331622,.pdf",0,2000-01-01 01:00:00,2016-04-03 02:51:08,390000/d022937727bfc1f2384a898645359038-d.jpg,,
19408872,Enlightenment in Dispute: The Reinvention of Chan Buddhism in Seventeenth-Century China,,,,Jiang Wu,2008,,"Oxford University Press, USA",,457,0,English,205,,,"0195333578,9780195333572",,,,,,,,,OL10135312M,,0,,,,,1,,1,4965132,pdf,743EF79FE365A09690C4E7BC04D63AC0,,,"F:\\lib1\\0195333578,9780195333572,.pdf",0,2000-01-01 01:00:00,2016-04-03 02:51:08,390000/743ef79fe365a09690c4e7bc04d63ac0-d.jpg,,
19408873,Hugh of Saint Victor ,,Great Medieval Thinkers,,Paul Rorem,2009,,"Oxford University Press, USA",,256,0,English,64,,,"0195384369,9780195384369",,,,,230/.2092,BX4705.H786 R674 2009,,,OL22684804M,,0,,,,,1,1,1,961924,pdf,28EB81F80E4268B9CA7EB88DD9AA27F5,,,"F:\\lib1\\0195384369,9780195384369,.pdf",0,2000-01-01 01:00:00,2016-04-03 02:51:08,390000/28eb81f80e4268b9ca7eb88dd9aa27f5-d.jpg,,
19408874,Hume's Skeptical Crisis: A Textual Study,,,,Robert J. Fogelin,2009,,"Oxford University Press, USA",,192,0,English,195,,,"0195387392,9780195387391",,,,,128,B1489 .F638 2009,,,OL22685394M,,0,,,,,1,1,1,684864,pdf,6D2DD6EC00D2C27195E8F91F1E16C047,,,"F:\\lib1\\0195387392,9780195387391,.pdf",0,2000-01-01 01:00:00,2016-04-03 02:51:08,390000/6d2dd6ec00d2c27195e8f91f1e16c047-d.jpg,,
19408875,Eigenkapital von Banken als Regulierungsgegenstand : Auswirkungen von Eigenkapitalanforderungen auf das Investitionsverhalten bankfinanzierter Unternehmen,,Gabler Edition Wissenschaft,,Achim Hauck,2008,,Gabler,Wiesbaden,175,0,German,,usenet,to 2012-06,"9783834998958,3834998958,9783834911810,383491181X",,,,,,,,,,,0,,,,,,,1,1963889,pdf,d849a02a9a1fdf854b9697f9e8d535a3,,,I:\\usenet_ger\\Eigenkapital.von.Banken.als.Regulierungsgegenstand.[Springer].[2008].[h2705x].pdf,0,2000-01-01 01:00:00,2016-04-03 02:51:08,883000/d849a02a9a1fdf854b9697f9e8d535a3-g.jpg,,
19408876,Who Knew?: Responsibility Without Awareness,,,,George Sher,2009,,"Oxford University Press, USA",,168,0,English,195,,,"0195389190,9780195389197",,,,,170/.42,BJ1451 .S52 2009,,,OL22852965M,,0,,,,,1,1,1,648918,pdf,DCFDB9D11FA801023FBFD52A2DB4E30A,,,"F:\\lib1\\0195389190,9780195389197,.pdf",0,2000-01-01 01:00:00,2016-04-03 02:51:08,390000/dcfdb9d11fa801023fbfd52a2db4e30a-d.jpg,,
19408877,Justice and Health Care: Selected Essays,,,,Allen Buchanan,2009,1,"Oxford University Press, USA",,272,0,English,195,,,"0195394062,9780195394061",,,,,344.7303/21,KF3821 .B83 2009,,,OL23397492M,,0,,,,,1,1,1,1347670,pdf,7C0A0DD51C956809758D2199769B4D6F,,,"F:\\lib1\\0195394062,9780195394061,.pdf",0,2000-01-01 01:00:00,2016-04-03 02:51:08,390000/7c0a0dd51c956809758d2199769b4d6f-d.jpg,,
19408878,The Christology of Theodoret of Cyrus: Antiochene Christology from the Council of Ephesus (431) to the Council of Chalcedon (451),,Oxford Early Christian Studies,,Paul B. Clayton Jr.,2007,,"Oxford University Press, USA",,400,0,English,195,,,"0198143982,9780198143987",,,,,,,,,OL10138201M,,0,,,,,1,1,1,2536783,pdf,A5FB38C2A7172D93478DB0998326C12A,,,"F:\\lib1\\0198143982,9780198143987,.pdf",0,2000-01-01 01:00:00,2016-04-03 02:51:08,390000/a5fb38c2a7172d93478db0998326c12a-d.jpg,,
19408879,The Rejection of Consequentialism: A Philosophical Investigation of the Considerations Underlying Rival Moral Conceptions ,,Clarendon Paperbacks,,Samuel Scheffler,1994,Revised,"Oxford University Press, USA",,208,0,English,195,,,"0198235119,9780198235118",,,,,,,,,,,0,,,,,1,1,1,1712627,pdf,B7E6C4C59788AF3777D839AAB0A733EB,,,"F:\\lib1\\0198235119,9780198235118,.pdf",0,2000-01-01 01:00:00,2016-04-03 02:51:08,390000/b7e6c4c59788af3777d839aab0a733eb-d.jpg,,
19408880,Plato on Parts and Wholes: The Metaphysics of Structure,,,,Verity Harte,2002,,"Oxford University Press, USA",,200,0,English,264,,,"0198236751,9780198236757",,,,,184,B398.W42 H37 2002,,,OL3699836M,,0,,,,,1,1,1,1425317,pdf,845E3E4A24F881A123F45B0B8C432D3E,,,"F:\\lib1\\0198236751,9780198236757,.pdf",0,2000-01-01 01:00:00,2016-04-03 02:51:08,390000/845e3e4a24f881a123f45b0b8c432d3e-d.jpg,,
19408881,The Evolution of the Soul,,,,Richard Swinburne,1997,Revised,"Oxford University Press, USA",,376,0,English,195,,,"0198236980,9780198236986",,B000VDM608,,,128/.1,BL290 .S95 1997,,,OL762607M,,0,,,,,1,1,1,1428383,pdf,7EFFDEF9F4CBDEEF935DE227E1470173,,,"F:\\lib1\\0198236980,9780198236986,.pdf",0,2000-01-01 01:00:00,2016-04-03 02:51:08,390000/7effdef9f4cbdeef935de227e1470173-d.jpg,,
19408882,Epistemic Injustice: Power and the Ethics of Knowing,,,,Miranda Fricker,2007,1,"Oxford University Press, USA",,199,0,English,195,,,"0198237901,9780198237907",,,,,121,BD176 .F75 2007,,4DO3jU4ARU4C,OL10138414M,,0,,,,0,0,1,1,1060967,pdf,DA0D9ACED23D485C749E2C392CD02375,,,"F:\\lib1\\0198237901,9780198237907,.pdf",0,2000-01-01 01:00:00,2016-04-03 02:51:08,390000/da0d9aced23d485c749e2c392cd02375-d.jpg,,
19408883,"The Measure of Things: Humanism, Humility, and Mystery",,,,David Cooper,2002,,"Oxford University Press, USA",,380,0,English,195,,,"0198238274,9780198238270",,,,,,,,,OL7398017M,,0,,,,,1,1,1,5868346,pdf,A14D340FF2F04EC48C38FA1F438F80AF,,,"F:\\lib1\\0198238274,9780198238270,.pdf",0,2000-01-01 01:00:00,2016-04-03 02:51:08,390000/a14d340ff2f04ec48c38fa1f438f80af-d.jpg,,
19408884,The Limits of Morality ,,Oxford Ethics Series,,Shelly Kagan,1991,,"Oxford University Press, USA",,432,0,English,195,,,"0198239165,9780198239161",,,,,,,,,OL20046245M,,0,,,,,1,1,1,2006616,pdf,09CC06CA88CEAF788ECC870BC4DBC363,,,"F:\\lib1\\0198239165,9780198239161,.pdf",0,2000-01-01 01:00:00,2016-04-03 02:51:08,390000/09cc06ca88ceaf788ecc870bc4dbc363-d.jpg,,
19408885,Aristotle's First Principles ,,Clarendon Aristotle Series Cas,,Terence Irwin,1990,,"Oxford University Press, USA",,702,0,English,195,,,"0198242905,9780198242901",,,,,,,,,OL22813439M,,0,,,,1,1,1,1,4659969,pdf,0CE8AAC7D40F428C2FDF7B05620CD5B5,,,"F:\\lib1\\0198242905,9780198242901,.pdf",0,2000-01-01 01:00:00,2016-04-03 02:51:08,390000/0ce8aac7d40f428c2fdf7b05620cd5b5-d.jpg,,
19408886,The Scientific Image ,,Clarendon Library of Logic and Philosophy,,Bas. C. van Fraassen,1980,,"Oxford University Press, USA",,248,0,English,195,,,"0198244274,9780198244271",,,,,501,Q175 .V335 1980,,,OL21182810M,,0,,,,,1,1,1,1208982,pdf,084A615A8C4EEA9CE841F711C95FC79E,,,"F:\\lib1\\0198244274,9780198244271,.pdf",0,2000-01-01 01:00:00,2016-04-03 02:51:08,390000/084a615a8c4eea9ce841f711c95fc79e-d.jpg,,
19408887,"Gramsci's Political Thought: Hegemony, Consciousness, and the Revolutionary Process",,,,Joseph V. Femia,1987,,"Oxford University Press, USA",,318,0,English,195,,,"0198275439,9780198275435",,,,,320.5/32/0924,HX289.7.G73 F46 1987,,,OL2736753M,,0,,,,,1,,1,9817492,pdf,8879202B7459DEAC3C56F1B7CCE744C3,,,"F:\\lib1\\0198275439,9780198275435,.pdf",0,2000-01-01 01:00:00,2016-04-03 02:51:08,390000/8879202b7459deac3c56f1b7cce744c3-g.jpg,,
19408888,Self Interest and Public Interest in Western Politics ,,Comparative European Politics,,"Leif Lewin, Donald Lavery",1991,,"Oxford University Press, USA",,160,0,English,195,,,"0198277261,9780198277262",,,,,320/.01/1,JC330.15 .L4913 1991,,,OL1863670M,,0,,,,,1,1,1,1129313,pdf,80CB7AF7923F2AB1FED0F6A85296EF3B,,,"F:\\lib1\\0198277261,9780198277262,.pdf",0,2000-01-01 01:00:00,2016-04-03 02:51:08,390000/80cb7af7923f2ab1fed0f6a85296ef3b-d.jpg,,
19408889,Powers: A Study in Metaphysics,,,,"the late George Molnar, Stephen Mumford, D. M. Armstrong",2007,,"Oxford University Press, USA",,254,0,English,264,,,"0199204179,9780199204175",,,,,,,,,OL7402949M,,0,,,,0,0,1,1,1101298,pdf,5026D833C64657058EC806E91640FF1F,,,"F:\\lib1\\0199204179,9780199204175,.pdf",0,2000-01-01 01:00:00,2016-04-03 02:51:08,390000/5026d833c64657058ec806e91640ff1f-d.jpg,,
19408890,The Metaphysics of Knowledge,,,,Keith Hossack,2007,,"Oxford University Press, USA",,256,0,English,264,,,"0199206724,9780199206728",,,,,121,BD161 .H625 2007,,,OL10145584M,,0,,,,,1,1,1,1724153,pdf,387C7B206D9BAB15D49DE9A8D63D7339,,,"F:\\lib1\\0199206724,9780199206728,.pdf",0,2000-01-01 01:00:00,2016-04-03 02:51:08,390000/387c7b206d9bab15d49de9a8d63d7339-d.jpg,,
19408891,The Measure of Mind: Propositional Attitudes and Their Attribution,,,,Robert J. Matthews,2007,,"Oxford University Press, USA",,278,0,English,195,,,"0199211256,9780199211258",,,,,128/.2,BC181 .M38 2007,,,OL10145651M,,0,,,,,0,1,1,1254778,pdf,1964C03F2C2C41BD3EC260FE79AD98A2,,,"F:\\lib1\\0199211256,9780199211258,.pdf",0,2000-01-01 01:00:00,2016-04-03 02:51:08,390000/1964c03f2c2c41bd3ec260fe79ad98a2-d.jpg,,
19408892,"Being Reduced: New Essays on Reduction, Explanation, and Causation",,,,"Jakob Hohwy, Jesper Kallestrup",2008,First Edition,"Oxford University Press, USA",,323,0,English,195,,,"0199211531,9780199211531",,,,,110,BD418.3 .B45 2008,,,OL16818556M,,0,,,,1,0,1,1,1775581,pdf,B32988676A38D55DBE973BA919F900E1,,,"F:\\lib1\\0199211531,9780199211531,.pdf",0,2000-01-01 01:00:00,2016-04-03 02:51:08,390000/b32988676a38d55dbe973ba919f900e1-d.jpg,,
19408893,Effizienzanalyse im Marketing : ein produktionstheoretisch fundierter Ansatz auf Basis von Frontier Functions,,"Gabler Edition Wissenschaft : Schriftenreihe des Instituts fur Marktorientierte Unternehmensfuhrung (IMU), Universitat Mannheim",,Maik Hammerschmidt,2006,,Dt. Univ.-Verl,Wiesbaden,362,0,German,,usenet,to 2012-06,,,,,,,,,,,,0,,,,,,,1,4209999,pdf,96854adf3ccd2d6f33796a5d135d38b1,,,I:\\usenet_ger\\Effizienzanalyse.im.Marketing.[Springer].[2006].[k48317].pdf,0,2000-01-01 01:00:00,2016-04-03 02:51:08,883000/96854adf3ccd2d6f33796a5d135d38b1-g.jpg,,
19408894,The Genealogy of the Romantic Symbol,,,,Nicholas Halmi,2008,,"Oxford University Press, USA",,222,0,English,195,,,"0199212414,9780199212415",,,,,820.9145,,,,OL10145699M,,0,,,,,1,1,1,1584231,pdf,C8798738418A31ED1410610750D559A2,,,"F:\\lib1\\0199212414,9780199212415,.pdf",0,2000-01-01 01:00:00,2016-04-03 02:51:08,390000/c8798738418a31ed1410610750d559a2-d.jpg,,
19408895,"Christ as Mediator: A Study of the Theologies of Eusebius of Caesarea, Marcellus of Ancyra, and Athanasius of Alexandria ",,Oxford Theological Monographs,,Jon M. Robertson,2007,,"Oxford University Press, USA",,256,0,English,195,,,"0199212600,9780199212606",,,,,,,,,OL10145704M,,0,,,,,1,1,1,1363576,pdf,BAD0806DBA3D2C6F7190795B5909D0B8,,,"F:\\lib1\\0199212600,9780199212606,.pdf",0,2000-01-01 01:00:00,2016-04-03 02:51:08,390000/bad0806dba3d2c6f7190795b5909d0b8-d.jpg,,
19408896,Wittgenstein and Analytic Philosophy: Essays for P  M S Hacker,,,,"Hans-Johann Glock, John Hyman",2009,,"Oxford University Press, USA",,296,0,English,77,,,"0199213232,9780199213238",,,,,192,B3376.W564 .W55366 2009,,,OL22679156M,,0,,,,,1,1,1,1431961,pdf,A9E832751B4EF87676EDC0829F9D30E0,,,"F:\\lib1\\0199213232,9780199213238,.pdf",0,2000-01-01 01:00:00,2016-04-03 02:51:08,390000/a9e832751b4ef87676edc0829f9d30e0-d.jpg,,
19408897,The Nicomachean Ethics ,,Oxford World's Classics,,"Aristotle, Lesley Brown, David Ross",2009,Revised,"Oxford University Press, USA",,322,0,English,195,,,"0199213615,9780199213610",,,,,171/.3,B430.A5 R67 2009,,,OL23059262M,,0,,,,,1,1,1,1493722,pdf,9CADAC5FA562A6A1814FA4358142EA84,,,"F:\\lib1\\0199213615,9780199213610,.pdf",0,2000-01-01 01:00:00,2016-04-03 02:51:08,390000/9cadac5fa562a6a1814fa4358142ea84-d.jpg,,
19408898,The Normative Web: An Argument for Moral Realism,,,,Terence Cuneo,2007,,"Oxford University Press, USA",,260,0,English,100,,,"0199218838,9780199218837",,,,,170,BJ1012 .C84 2007,,,OL10145837M,,0,,,,,1,,1,1298408,pdf,6B7A1B2C8C66BF0CB51F72A5300701BA,,,"F:\\lib1\\0199218838,9780199218837,.pdf",0,2000-01-01 01:00:00,2016-04-03 02:51:08,390000/6b7a1b2c8c66bf0cb51f72a5300701ba-d.jpg,,
19408899,Mental Actions,,,,"Lucy O'Brien, Matthew Soteriou",2009,,"Oxford University Press, USA",,296,0,English,195,,,"0199225982,9780199225989",,,,,128/.4,B105.A35 M47 2009,,,OL23057935M,,0,,,,,1,1,1,1445733,pdf,E9F90F1024B73C67E62F8E110649DBAE,,,"F:\\lib1\\0199225982,9780199225989,.pdf",0,2000-01-01 01:00:00,2016-04-03 02:51:08,390000/e9f90f1024b73c67e62f8e110649dbae-d.jpg,,
19408900,Truth in Virtue of Meaning: A Defence of the Analytic/Synthetic Distinction,,,,Gillian Russell,2008,,"Oxford University Press, USA",,256,0,English,195,,,"0199232199,9780199232192",,,,,121.68,BD171 .R8175 2008,,,OL16960880M,,0,,,,,1,1,1,1264098,pdf,9F3867B14BBC8931040F30EC20998A9E,,,"F:\\lib1\\0199232199,9780199232192,.pdf",0,2000-01-01 01:00:00,2016-04-03 02:51:08,390000/9f3867b14bbc8931040f30ec20998a9e-d.jpg,,
19408901,Describing Ourselves: Wittgenstein and Autobiographical Consciousness,,,,Garry Hagberg,2008,,"Oxford University Press, USA",,288,0,English,195,,,"0199234221,9780199234226",,,,,126.092,B3376.W564 H26 2008,,,OL18284330M,,0,,,,,1,1,1,1064108,pdf,268D6845E015F68B44D2C7187CC3CA14,,,"F:\\lib1\\0199234221,9780199234226,.pdf",0,2000-01-01 01:00:00,2016-04-03 02:51:08,390000/268d6845e015f68b44d2c7187cc3ca14-d.jpg,,
19408902,"God, the Best, and Evil",,,,Bruce Langtry,2008,First Edition,"Oxford University Press, USA",,256,0,English,195,,,"0199238790,9780199238798",,,,,214,BT135 .L37 2008,,,OL16413784M,,0,,,,,1,1,1,875210,pdf,BBF6DE182C7122C7C7088E37392432DC,,,"F:\\lib1\\0199238790,9780199238798,.pdf",0,2000-01-01 01:00:00,2016-04-03 02:51:08,390000/bbf6de182c7122c7c7088e37392432dc-d.jpg,,
19408903,Political Parties: Old Concepts and New Challenges ,,Comparative Politics,,"Richard Gunther, José Ramón Montero, Juan Linz",2002,,"Oxford University Press, USA",,384,0,English,195,,,"0199246742,9780199246748",,,,,,,,,OL17043412M,,0,,,,,1,1,1,2829389,pdf,896F8238BDE9FF1376D6C5A910FE0F7B,,,"F:\\lib1\\0199246742,9780199246748,.pdf",0,2000-01-01 01:00:00,2016-04-03 02:51:08,390000/896f8238bde9ff1376d6c5a910fe0f7b-d.jpg,,
19408904,The Quality of Freedom,,,,Matthew H. Kramer,2003,,"Oxford University Press, USA",,496,0,English,195,,,"0199247560,9780199247561",,,,,,,,,OL22531193M,,0,,,,,1,1,1,30764031,pdf,4652611AEA9A4675AE607DB4C9B2FF55,,,"F:\\lib1\\0199247560,9780199247561,.pdf",0,2000-01-01 01:00:00,2016-04-03 02:51:08,390000/4652611aea9a4675ae607db4c9b2ff55-d.jpg,,
19408905,"Cicero, Rhetoric, and Empire ",,Oxford Classical Monographs,,C. E. W. Steel,2002,,"Oxford University Press, USA",,264,0,English,195,,,"0199248478,9780199248476",,,,,875/.01,PA6285 .S74 2001,,,OL3585235M,,0,,,,,1,1,1,1166126,pdf,6ECCD9C65D2286CA046BC8D558196FFF,,,"F:\\lib1\\0199248478,9780199248476,.pdf",0,2000-01-01 01:00:00,2016-04-03 02:51:08,390000/6eccd9c65d2286ca046bc8d558196fff-d.jpg,,
19408906,Shakespeare and Marx ,,Oxford Shakespeare Topics,,Gabriel Egan,2004,,"Oxford University Press, USA",,176,0,English,195,,,"0199249938,9780199249930",,,,,822.3/3,PR2970 .E34 2004,,,OL3296197M,,0,,,,,1,1,1,1092793,pdf,2956DE7E72FCAC667D512AD378B84F2D,,,"F:\\lib1\\0199249938,9780199249930,.pdf",0,2000-01-01 01:00:00,2016-04-03 02:51:08,390000/2956de7e72fcac667d512ad378b84f2d-d.jpg,,
19408907,Reading Seneca: Stoic Philosophy at Rome,,,,Brad Inwood,2005,,"Oxford University Press, USA",,392,0,English,195,,,"0199250898,9780199250899",,,,,188,,,,OL22628595M,,0,,,,,1,1,1,2054078,pdf,13E150911BE5D228931A0357A7A873F5,,,"F:\\lib1\\0199250898,9780199250899,.pdf",0,2000-01-01 01:00:00,2016-04-03 02:51:08,390000/13e150911be5d228931a0357a7a873f5-d.jpg,,
19408908,The Nature of Normativity,,,,Ralph Wedgwood,2007,,"Oxford University Press, USA",,296,0,English,181,,,"0199251312,9780199251315",,,,,170/.42,BJ1458.3 .W43 2007,,,OL17900689M,,0,,,,,1,1,1,1629155,pdf,36B7049630C69F785034A59D76862D5D,,,"F:\\lib1\\0199251312,9780199251315,.pdf",0,2000-01-01 01:00:00,2016-04-03 02:51:08,390000/36b7049630c69f785034a59d76862d5d-d.jpg,,
19408909,Understanding People: Normativity and Rationalizing Explanation,,,,Alan Millar,2004,,"Oxford University Press, USA",,278,0,English,195,,,"0199254400,9780199254408",,,,,128,,,,OL22593663M,,0,,,,,1,1,1,1140632,pdf,E00F0EDCC63F38328F8BBFBDA0327464,,,"F:\\lib1\\0199254400,9780199254408,.pdf",0,2000-01-01 01:00:00,2016-04-03 02:51:08,390000/e00f0edcc63f38328f8bbfbda0327464-d.jpg,,
19408910,The Moral Demands of Affluence,,,,Garrett Cullity,2004,,"Oxford University Press, USA",,296,0,English,195,,,"0199258112,9780199258116",,,,,178,HB835 .C85 2004,,,OL22599449M,,0,,,,,1,1,1,1537048,pdf,1CE0ABBB158091AE7958FB43FC72BE6C,,,"F:\\lib1\\0199258112,9780199258116,.pdf",0,2000-01-01 01:00:00,2016-04-03 02:51:08,390000/1ce0abbb158091ae7958fb43fc72be6c-d.jpg,,
19408911,Effizienz der Führungsorganisation deutscher Konzerne,,Gabler Edition Wissenschaft; Strategische Unternehmensführung,,Norbert Bach,2009,,Gabler Verlag / GWV Fachverlage GmbH,Wiesbaden,240,0,German,,usenet,to 2012-06,"9783834913074,3834913073,9783834980038,383498003X",,,,,,,,,,,0,,,,,,,1,1718459,pdf,35158f383f54ba2f13f2430d6e669756,,,I:\\usenet_ger\\Effizienz.der.Fuehrungsorganisation.deutscher.Konzerne.[Springer].[2009].[r08072].pdf,0,2000-01-01 01:00:00,2016-04-03 02:51:08,883000/35158f383f54ba2f13f2430d6e669756-d.jpg,,
19408912,Oxford Readings in Lucretius ,,Oxford Readings in Classical Studies,,Monica R. Gale,2007,,"Oxford University Press, USA",,400,0,English,183,,,"0199260354,9780199260355",,,,,187,PA6484 .L85 2007,,,OL10146270M,,0,,,,,1,1,1,2255051,pdf,C2B8EF64B44DC58805749FB8ABA492CF,,,"F:\\lib1\\0199260354,9780199260355,.pdf",0,2000-01-01 01:00:00,2016-04-03 02:51:08,390000/c2b8ef64b44dc58805749fb8aba492cf-d.jpg,,
19408913,Aesthetic Creation,,,,Nick Zangwill,2007,First Edition,"Oxford University Press, USA",,192,0,English,195,,,"0199261873,9780199261871",,,,,,,,,OL10146280M,,0,,,,,1,1,1,1111690,pdf,D50E42637F668365CAE031C164333912,,,"F:\\lib1\\0199261873,9780199261871,.pdf",0,2000-01-01 01:00:00,2016-04-03 02:51:08,390000/d50e42637f668365cae031c164333912-d.jpg,,
19408914,"Thoughts: Papers on Mind, Meaning, and Modality ",,Philosophical Papers,,Stephen Yablo,2009,,"Oxford University Press, USA",,336,0,English,195,,,"0199266476,9780199266470",,,,,128/.2,BD418.3 .Y33 2008,,,OL17101668M,,0,,,,,1,1,1,1687604,pdf,0200CE842CD7A1C4CB800D3ACC999181,,,"F:\\lib1\\0199266476,9780199266470,.pdf",0,2000-01-01 01:00:00,2016-04-03 02:51:08,390000/0200ce842cd7a1c4cb800d3acc999181-d.jpg,,
19408915,Mild Contraction: Evaluating Loss of Information Due to Loss of Belief,,,,Isaac Levi,2004,,"Oxford University Press, USA",,264,0,English,195,,,"0199270708,9780199270705",,,,,121/.6,BD215 .L46 2004,,,OL22588960M,,0,,,,,1,1,1,950512,pdf,031D7268A4FB621102F90533F9D27971,,,"F:\\lib1\\0199270708,9780199270705,.pdf",0,2000-01-01 01:00:00,2016-04-03 02:51:08,390000/031d7268a4fb621102f90533f9d27971-d.jpg,,
19408916,The Family in Christian Social and Political Thought ,,Oxford Studies in Theological Ethics,,Brent Waters,2007,,"Oxford University Press, USA",,320,0,English,195,,,"0199271968,9780199271962",,,,,261.8/3585,BT707.7 .W38 2007,,,OL10146370M,,0,,,,,1,1,1,1761190,pdf,A41FB2F86F3EEABB060E5851A9EF3DE4,,,"F:\\lib1\\0199271968,9780199271962,.pdf",0,2000-01-01 01:00:00,2016-04-03 02:51:08,390000/a41fb2f86f3eeabb060e5851a9ef3de4-d.jpg,,
19408917,Hegel and Christian Theology: A Reading of the Lectures on the Philosophy of Religion,,,,Peter C. Hodgson,2005,,"Oxford University Press, USA",,318,0,English,205,,,"0199273618,9780199273614",,,,,210.92,B2949.R3 H63 2005,,,OL22617051M,,0,,,,,1,1,1,1898252,pdf,12E7EBC7F6B2B608B801CAE34E104B9B,,,"F:\\lib1\\0199273618,9780199273614,.pdf",0,2000-01-01 01:00:00,2016-04-03 02:51:08,390000/12e7ebc7f6b2b608b801cae34e104b9b-d.jpg,,
19408918,Attitude Problems: An Essay on Linguistic Intensionality,,,,Graeme Forbes,2006,,"Oxford University Press, USA",,206,0,English,195,,,"0199274940,9780199274949",,,,,,,,,OL22733960M,,0,,,,,1,,1,1113687,pdf,7C742D7B125DA1E6DC4E85973098571E,,,"F:\\lib1\\0199274940,9780199274949,.pdf",0,2000-01-01 01:00:00,2016-04-03 02:51:08,390000/7c742d7b125da1e6dc4e85973098571e-d.jpg,,
19408919,Every Thing Must Go: Metaphysics Naturalized,,,,"James Ladyman, Don Ross, David Spurrett, John Collier",2007,1,"Oxford University Press, USA",,359,0,English,264,,,"0199276196,9780199276196",,,,,110,BD111 .L225 2007,,,OL10146402M,,0,,,,0,0,1,1,2043221,pdf,4C2B97DF2361A682612E3F4594170BB1,,,"F:\\lib1\\0199276196,9780199276196,.pdf",0,2000-01-01 01:00:00,2016-04-03 02:51:08,390000/4c2b97df2361a682612e3f4594170bb1-d.jpg,,
19408920,Belief in God: An Introduction to the Philosophy of Religion,,,,T. J. Mawson,2005,,"Oxford University Press, USA",,288,0,English,205,,,"0199276315,9780199276318",,,,,210,BT130 .M39 2005,,,OL3404738M,,0,,,,,1,1,1,1301410,pdf,7AB8EB04A26D3B27EB6718F089467BE5,,,"F:\\lib1\\0199276315,9780199276318,.pdf",0,2000-01-01 01:00:00,2016-04-03 02:51:08,390000/7ab8eb04a26d3b27eb6718f089467be5-d.jpg,,
19408921,Asceticism and Christological Controversy in Fifth-Century Palestine: The Career of Peter the Iberian,,Oxford Early Christian Studies,,Cornelia B. Horn,2006,,"Oxford University Press, USA",,544,0,English,205,,0,"0199277532,9780199277537",,,,,"270.2092,B",BR1720.P43 H67 2006,,,OL22723616M,,0,,,,,1,1,1,5586598,pdf,5D6EF8FDE62F7DA04AA0A427F8CED655,,,"F:/lib1/0199277532,9780199277537,.pdf",0,2000-01-01 01:00:00,2016-04-03 02:51:08,390000/5d6ef8fde62f7da04aa0a427f8ced655-d.jpg,,
19408922,Language Origins: Perspectives on Evolution ,,Studies in the Evolution of Language,,Maggie Tallerman,2005,,"Oxford University Press, USA",,446,0,English,195,,,"0199279047,9780199279043",,,,,401,P116 .L36 2005,,,OL22764100M,,0,,,,,1,1,1,2863692,pdf,2A9CBA4930F30BAB0C02CC59DD370CF3,,,"F:\\lib1\\0199279047,9780199279043,.pdf",0,2000-01-01 01:00:00,2016-04-03 02:51:08,390000/2a9cba4930f30bab0c02cc59dd370cf3-d.jpg,,
19408923,Faith and Reason,,,,Richard Swinburne,2005,2,"Oxford University Press, USA",,287,0,English,195,,,"0199283923,9780199283927",,,,,231/.042,BT50 .S96 2005,,,OL3404739M,,0,,,,0,0,1,1,1356140,pdf,33D7F92BA3A37782680EE741DCF87258,,,"F:\\lib1\\0199283923,9780199283927,.pdf",0,2000-01-01 01:00:00,2016-04-03 02:51:08,390000/33d7f92ba3a37782680ee741dcf87258-d.jpg,,
19408924,New Essays on the Knowability Paradox,,,,Joe Salerno,2009,,"Oxford University Press, USA",,368,0,English,195,,,"0199285497,9780199285495",,,,,165,BC199.P2 N49 2008,,,OL16426389M,,0,,,,,1,1,1,1857268,pdf,E32421024B0369D85608D82AD9F48474,,,"F:\\lib1\\0199285497,9780199285495,.pdf",0,2000-01-01 01:00:00,2016-04-03 02:51:08,390000/e32421024b0369d85608d82ad9f48474-d.jpg,,
19408925,Rationality and Commitment,,,,"Fabienne Peter, Hans Bernhard Schmid",2008,,"Oxford University Press, USA",,314,0,English,195,,,"0199287260,9780199287260",,,,,301.01,HM495 .R38 2007,,,OL10146505M,,0,,,,,1,,1,5936001,pdf,36E40EA3E1F86BC3116547F1A65DF97E,,,"F:\\lib1\\0199287260,9780199287260,.pdf",0,2000-01-01 01:00:00,2016-04-03 02:51:08,390000/36e40ea3e1f86bc3116547f1a65df97e-d.jpg,,
19408926,Coleridge and Scepticism ,,Oxford English Monographs,,Ben Brice,2007,,"Oxford University Press, USA",,224,0,English,195,,,"0199290253,9780199290253",,,,,,,,,OL10146537M,,0,,,,,1,,1,1319155,pdf,E963715EFC619B7CE646288F05135F64,,,"F:\\lib1\\0199290253,9780199290253,.pdf",0,2000-01-01 01:00:00,2016-04-03 02:51:08,390000/e963715efc619b7ce646288f05135f64-d.jpg,,
19408927,The Nature of Political Theory,,,,Andrew Vincent,2007,,"Oxford University Press, USA",,364,0,English,181,,,"0199297959,9780199297955",,,,,,,,,OL7405602M,,0,,,,,1,1,1,2729293,pdf,26C2D8A352F7047AF0DA9137F57A787B,,,"F:\\lib1\\0199297959,9780199297955,.pdf",0,2000-01-01 01:00:00,2016-04-03 02:51:08,390000/26c2d8a352f7047af0da9137f57a787b-d.jpg,,
19408928,Fiction and the Weave of Life,,,,John Gibson,2008,,"Oxford University Press, USA",,234,0,English,195,,,"0199299528,9780199299522",,,,,809.3,PN3491 .G53 2007,,,OL10146619M,,0,,,,,1,1,1,966896,pdf,8A1B945D1C8AADEC9CF4E04B96DFE651,,,"F:\\lib1\\0199299528,9780199299522,.pdf",0,2000-01-01 01:00:00,2016-04-03 02:51:08,390000/8a1b945d1c8aadec9cf4e04b96dfe651-d.jpg,,
19408929,"Oxford Studies in Philosophy of Religion, Vol. 1",,,,Jonathan Kvanvig,2008,,Oxford University Press,,272,0,English,205,,0,"0199542651,9780199542659",,,,,,,,,,,0,,,,,1,1,1,1649585,pdf,84651B06E66DA657265532E7DAF45445,,,F:/lib1/01995426519780199542659.pdf,0,2000-01-01 01:00:00,2016-04-03 02:51:08,390000/84651b06e66da657265532e7daf45445-d.jpg,,
19408930,Metaphysics and the Good: Themes from the Philosophy of Robert Merrihew Adams,,,,"Samuel Newlands, Larry M. Jorgensen",2009,,"Oxford University Press, USA",,360,0,English,264,,,"0199542686,9780199542680",,,,,191,B791 .M454 2009,,,OL22685191M,,0,,,,,1,1,1,1677542,pdf,EE4C27825D6DDD7ACE5AD530F7FAEED1,,,"F:\\lib1\\0199542686,9780199542680,.pdf",0,2000-01-01 01:00:00,2016-04-03 02:51:08,390000/ee4c27825d6ddd7ace5ad530f7faeed1-d.jpg,,
19408931,"Oxford Studies in Ancient Philosophy, Vol. XXXIV",,,,David Sedley,2008,,Oxford University Press,,448,0,English,64,,0,"0199544875,9780199544875",,,,,,,,,,,0,,,,,1,1,1,3533618,pdf,0B4FB6620025D354B457C75A3ABF1A9F,,,"F:/lib1/0199544875,9780199544875,.pdf",0,2000-01-01 01:00:00,2016-04-03 02:51:08,390000/0b4fb6620025d354b457c75a3abf1a9f-d.jpg,,
19408932,Decision Theory and Rationality,,,,José Luis Bermúdez,2009,,"Oxford University Press, USA",,176,0,English,195,,,"0199548021,9780199548026",,,,,153.8/3,BF448 .B465 2009,,,OL22541663M,,0,,,,,1,1,1,927533,pdf,93396A628027EA227DBF141C1AA039B7,,,"F:\\lib1\\0199548021,9780199548026,.pdf",0,2000-01-01 01:00:00,2016-04-03 02:51:08,390000/93396a628027ea227dbf141c1aa039b7-d.jpg,,
19408933,Effiziente Vielfalt : die dritte Revolution der Automobilindustrie,,,,Mathias Hüttenrauch; Markus Baum,2008,,Springer,Berlin,295,0,German,,usenet,to 2012-06,"9783540721154,3540721150,9783540721161,3540721169",,,,,,,10.1007/978-3-540-72116-1,,,,0,,,,,,,1,3455398,pdf,b5e545bfc21444ea5d299d4ea0999857,,,I:\\usenet_ger\\Effiziente.Vielfalt.[Springer].[2008].[m8w321].pdf,0,2000-01-01 01:00:00,2016-04-03 02:51:08,883000/b5e545bfc21444ea5d299d4ea0999857-d.jpg,,
19408934,The Red and the Real: An Essay on Color Ontology,,,,Jonathan Cohen,2009,2,"Oxford University Press, USA",,272,0,English,195,,,"0199556164,9780199556168",,,,,111,B105.C455 C64 2009,,,OL24790815M,,0,,,,,1,1,1,1472178,pdf,A69FC8B3C0430B6E2FEEF920BA73ECD2,,,"F:\\lib1\\0199556164,9780199556168,.pdf",0,2000-01-01 01:00:00,2016-04-03 02:51:08,390000/a69fc8b3c0430b6e2feef920ba73ecd2-d.jpg,,
19408935,Relativism and Monadic Truth,,,,"Herman Cappelen, John Hawthorne",2009,,"Oxford University Press, USA",,170,0,English,281,,,"0199560552,9780199560554",,,,,121,BD221 .C27 2008,,,OL22541660M,,0,,,,,1,1,1,631082,pdf,2F505CEA49F46FBF37F165132E45BA40,,,"F:\\lib1\\0199560552,9780199560554,.pdf",0,2000-01-01 01:00:00,2016-04-03 02:51:08,390000/2f505cea49f46fbf37f165132e45ba40-d.jpg,,
19408936,"The Case for Contextualism: Knowledge, Skepticism, and Context",Vol 1,,,Keith DeRose,2009,,"Oxford University Press, USA",,303,0,English,195,,,"0199564469,9780199564460",,,,,121,B809.14 .D47 2009,,,OL23150029M,,0,,,,,1,1,1,1232805,pdf,A54AA42C908B0314F46E0E7020361171,,,"F:\\lib1\\0199564469,9780199564460,.pdf",0,2000-01-01 01:00:00,2016-04-03 02:51:08,390000/a54aa42c908b0314f46e0e7020361171-d.jpg,,
19408937,Michel Foucault: Beyond Structuralism and Hermeneutics,,,,"Hubert L. Dreyfus, Paul Rabinow, Michael Foucault",1983,2nd,University of Chicago Press,,271,0,English,195,,,"0226163121,9780226163123",,,,,194,B2430.F724 D73 1983,,,OL23241302M,,0,,,,,1,,0,16906817,pdf,2153C8FA31DA83E930FAA6E0AA25B40C,,,"F:\\lib1\\0226163121,9780226163123,.pdf",0,2000-01-01 01:00:00,2016-04-03 02:51:08,390000/2153c8fa31da83e930faa6e0aa25b40c-d.jpg,,
19408938,Putting on Virtue: The Legacy of the Splendid Vices,,,,Jennifer A. Herdt,2008,,University Of Chicago Press,,472,0,English,195,,,"0226327248,9780226327242",,,,,179/.9,BV4633 .H47 2008,,,OL16679263M,,0,,,,,1,1,1,2588515,pdf,A4A63B18FC1B53D0A98DF68754E89824,,,"F:\\lib1\\0226327248,9780226327242,.pdf",0,2000-01-01 01:00:00,2016-04-03 02:51:08,390000/a4a63b18fc1b53d0a98df68754e89824-d.jpg,,
19408939,The Death of the Child Valerio Marcello,,,,Margaret L. King,1994,,University Of Chicago Press,,502,0,English,195,,,"0226436209,9780226436203",,,,,"945/.3105/0922,B",DG677.99.M37 K56 1994,,,OL1433089M,,0,,,,,1,1,1,10743144,pdf,A38331365600F097F641AB08B3E310B1,,,"F:\\lib1\\0226436209,9780226436203,.pdf",0,2000-01-01 01:00:00,2016-04-03 02:51:08,390000/a38331365600f097f641ab08b3e310b1-d.jpg,,
19408940,"Iconology: Image, Text, Ideology",,,,W. J. T. Mitchell,1987,,University Of Chicago Press,,236,0,English,195,,,"0226532291,9780226532295",,,,,,,,,OL9776979M,,0,,,,,1,,1,11203115,pdf,687B6B8BC35DA5DC5DD183A552F10741,,,"F:\\lib1\\0226532291,9780226532295,.pdf",0,2000-01-01 01:00:00,2016-04-03 02:51:08,390000/687b6b8bc35da5dc5dd183a552f10741-d.jpg,,
19408941,The Attack of the Blob: Hannah Arendt's Concept of the Social,,,,Hanna Fenichel Pitkin,2000,,University Of Chicago Press,,374,0,English,195,,,"0226669912,9780226669915",,,,,,,,,OL9835366M,,0,,,,,1,,1,11912399,pdf,DF4DA31B0A64E7BFAC84E9B1AF19D25C,,,"F:\\lib1\\0226669912,9780226669915,.pdf",0,2000-01-01 01:00:00,2016-04-03 02:51:08,390000/df4da31b0a64e7bfac84e9b1af19d25c-d.jpg,,
19408942,"The Being of the Beautiful: Plato's Theaetetus, Sophist, and Statesman",,,,"Plato, Seth Benardete",1984,,University Of Chicago Press,,539,0,English,195,,,"0226670384,9780226670386",,,,,,,,,OL10192778M,,0,,,,1,1,1,1,25186584,pdf,C4F6B9755FE05A9686EB963C5D77BCAA,,,"F:\\lib1\\0226670384,9780226670386,.pdf",0,2000-01-01 01:00:00,2016-04-03 02:51:08,390000/c4f6b9755fe05a9686eb963c5d77bcaa-d.jpg,,
19408943,The Just,,,,"Paul Ricoeur, David Pellauer",2003,1,University Of Chicago Press,,192,0,English,195,,,"0226713407,9780226713403",,,,,,,,,OL9569962M,,0,,,,,1,,1,4428039,pdf,AFCFF7FACD25EAB13DA462C654BAE689,,,"F:\\lib1\\0226713407,9780226713403,.pdf",0,2000-01-01 01:00:00,2016-04-03 02:51:08,390000/afcff7facd25eab13da462c654bae689-d.jpg,,
19408944,Art Without Borders: A Philosophical Exploration of Art and Humanity,,,,Ben-Ami Scharfstein,2009,1,University Of Chicago Press,,558,0,English,195,,,"0226736091,9780226736099",,,,,700.1,N7428.5 .S336 2009,,,OL16945009M,,0,,,,,1,1,1,1992501,pdf,D1C6A41FA9C2F181FFE80A6F6F6DEF8E,,,"F:\\lib1\\0226736091,9780226736099,.pdf",0,2000-01-01 01:00:00,2016-04-03 02:51:08,390000/d1c6a41fa9c2f181ffe80a6f6f6def8e-d.jpg,,
19408945,The Political Philosophy of Hobbes: Its Basis and Its Genesis ,,Phoenix Books,,"Leo Strauss, Elsa M. Sinclair",1996,1,University Of Chicago Press,,186,0,English,195,,,"0226776964,9780226776965",,,,,,,,,OL9699973M,,0,,,,,1,,1,7165591,pdf,1CFCEA6D9456E24A42B28523DEEA2F37,,,"F:\\lib1\\0226776964,9780226776965,.pdf",0,2000-01-01 01:00:00,2016-04-03 02:51:08,390000/1cfcea6d9456e24a42b28523deea2f37-d.jpg,,
19408946,The Argument and the Action of Plato's Laws,,,,Leo Strauss,1975,,University Of Chicago Press,,192,0,English,313,,,"0226776980,9780226776989",,,,,,,,,OL9866526M,,0,,,,,1,,1,9851838,pdf,9CFABD8271359640726E01E53A7011A9,,,"F:\\lib1\\0226776980,9780226776989,.pdf",0,2000-01-01 01:00:00,2016-04-03 02:51:08,390000/9cfabd8271359640726e01e53a7011a9-d.gif,,
19408947,The City and Man,,,,Leo Strauss,1978,,University Of Chicago Press,,254,0,English,195,,,"0226777014,9780226777016",,,,,,,,,OL9668533M,,0,,,,,1,,0,5586274,pdf,E2C01CC057A41779DE3FDAAD125A78DE,,,"F:\\lib1\\0226777014,9780226777016,.pdf",0,2000-01-01 01:00:00,2016-04-03 02:51:08,390000/e2c01cc057a41779de3fdaad125a78de-d.jpg,,
19408948,Effiziente Softwareentwicklung mit Referenzmodellen,,,,Jörg Becker; Patrick Delfmann; Tobias Rieke,2007,,Physica-Verl,Heidelberg,135,0,German,,usenet,to 2012-06,"9783790819946,3790819948",,,,,,,,,,,0,,,,,,,1,5150776,pdf,55bfbd2fbe85696e0ee4fe43f34d7d37,,,I:\\usenet_ger\\Effiziente.Softwareentwicklung.mit.Referenzmodellen.[Springer].[2007].[l53tnx].pdf,0,2000-01-01 01:00:00,2016-04-03 02:51:08,883000/55bfbd2fbe85696e0ee4fe43f34d7d37-g.jpg,,
19408949,"Rhetoric, Modality, Modernity",,,,Nancy S. Struever,2009,1,University Of Chicago Press,,170,0,English,195,,,"0226777480,9780226777481",,,,,190,B791 .S86 2009,,,OL23186850M,,0,,,,0,0,,1,1021689,pdf,34CF4A2A60A5FBF056A6ADF190FFAA9C,,,"F:\\lib1\\0226777480,9780226777481,.pdf",0,2000-01-01 01:00:00,2016-04-03 02:51:08,390000/34cf4a2a60a5fbf056a6adf190ffaa9c-d.jpg,,
19408950,The New Science of Politics,,,,book,1987,,University of Chicago Press,,102,0,English,181,,,"0226861104,9780226861104",,,,,,,,,,,0,,,,,1,,1,2541039,pdf,6067F60933895F60E2BA19B1672CC340,,,"F:\\lib1\\0226861104,9780226861104,.pdf",0,2000-01-01 01:00:00,2016-04-03 02:51:08,390000/6067f60933895f60e2ba19b1672cc340-g.jpg,,
19408951,Knowing the Structure of Nature: Essays on Realism and Explanation,,,,Stathis Psillos,2009,First Edition,Palgrave Macmillan,,256,0,English,195,,,"0230007112,9780230007116",,,,,,,,,OL10193953M,,0,,,,,1,1,1,1091156,pdf,6572D9306F94380617D96F014BF85CA9,,,"F:\\lib1\\0230007112,9780230007116,.pdf",0,2000-01-01 01:00:00,2016-04-03 02:51:08,390000/6572d9306f94380617d96f014bf85ca9-d.jpg,,
19408952,Carnap's Logical Syntax of Language ,,History of Analytic Philosophy,,Pierre Wagner,2009,,Palgrave Macmillan,,304,0,English,130,,,"0230201512,9780230201514",,,,,193,B945.C163 L6338 2009,,,OL22852962M,,0,,,,,1,1,1,1189802,pdf,660A2909E36605674F45CD22B30AF5D7,,,"F:\\lib1\\0230201512,9780230201514,.pdf",0,2000-01-01 01:00:00,2016-04-03 02:51:08,390000/660a2909e36605674f45cd22b30af5d7-d.jpg,,
19408953,Karl Marx on Technology and Alienation,,,,Amy Wendling,2009,,Palgrave Macmillan,,272,0,English,195,,,"0230224407,9780230224407",,,,,335.4/1,B3305.M74 W45 2009,,,OL22671734M,,0,,,,,1,1,1,1060308,pdf,CDABC6544A03BD84DCA65F8BA66D2485,,,"F:\\lib1\\0230224407,9780230224407,.pdf",0,2000-01-01 01:00:00,2016-04-03 02:51:08,390000/cdabc6544a03bd84dca65f8ba66d2485-d.jpg,,
19408954,"Kierkegaard's Mirrors: Interest, Self and Moral Vision",,,,Patrick Stokes,2009,,Palgrave Macmillan,,236,0,English,195,,,"0230240003,9780230240001",,,,,198/.9,B4378.E8 S86 2009,,,OL23862547M,,0,,,,,1,1,1,1145729,pdf,92923C9275A14207EDD04906EB1F485D,,,"F:\\lib1\\0230240003,9780230240001,.pdf",0,2000-01-01 01:00:00,2016-04-03 02:51:08,390000/92923c9275a14207edd04906eb1f485d-d.jpg,,
19408955,Late Antique Epistemology: Other Ways to Truth,,,,"Panayiota Vassilopoulou, Stephen Clark",2009,First Edition,Palgrave Macmillan,,354,0,English,195,,,"0230527426,9780230527423",,,,,121.09015,BD161 .L33 2009,,,OL10194508M,,0,,,,1,0,1,1,1444397,pdf,55A8FC5DD5FAB85CE6A029721A4C7BF1,,,"F:\\lib1\\0230527426,9780230527423,.pdf",0,2000-01-01 01:00:00,2016-04-03 02:51:08,390000/55a8fc5dd5fab85ce6a029721a4c7bf1-d.jpg,,
19408956,"Art and Life in Aestheticism: De-Humanizing or Re-Humanizing Art, the Artist and the Artistic Receptor",,,,Kelly Comfort,2008,1st,Palgrave Macmillan,,248,0,English,195,,,"0230551165,9780230551169",,,,,700.1,PR468.A33 A76 2007,,,OL10194621M,,0,,,,,1,,1,10061435,pdf,6DE868B30969300904596B4C1E6854AA,,,"F:\\lib1\\0230551165,9780230551169,.pdf",0,2000-01-01 01:00:00,2016-04-03 02:51:08,390000/6de868b30969300904596b4c1e6854aa-d.jpg,,
19408957,"Leibniz, Whitehead and the Metaphysics of Causation",,,,Pierfrancesco Basile,2009,,Palgrave Macmillan,,256,0,English,264,,,"0230580610,9780230580619",,,,,110,B1674.W354 B38 2009,,,OL23994863M,,0,,,,,1,1,1,1271281,pdf,87FBEE215C49B1F0DA20323688832088,,,"F:\\lib1\\0230580610,9780230580619,.pdf",0,2000-01-01 01:00:00,2016-04-03 02:51:08,390000/87fbee215c49b1f0da20323688832088-d.jpg,,
19408958,European Cinema after 1989: Cultural Identity and Transnational Production,,,,Luisa Rivi,2007,First Edition,Palgrave Macmillan,,208,0,English,60,,,"0230600247,9780230600249",,,,,,,,,OL10194693M,,0,,,,,1,1,1,1070303,pdf,09621CC8DEB3598CD5EFE51818021774,,,"F:\\lib1\\0230600247,9780230600249,.pdf",0,2000-01-01 01:00:00,2016-04-03 02:51:08,390000/09621cc8deb3598cd5efe51818021774-d.jpg,,
19408959,The Politics of Being: The Political Thought of Martin Heidegger,,,,Richard Wolin,1990,,Columbia University Press,,221,0,English,195,,,"0231073143,9780231073141",,,,,193,B3279.H49 W64 1990,,,OL1876962M,,0,,,,,1,,1,2835036,pdf,4DD76CA00D7163FDD630DE41A6444974,,,"F:\\lib1\\0231073143,9780231073141,.pdf",0,2000-01-01 01:00:00,2016-04-03 02:51:08,390000/4dd76ca00d7163fdd630de41a6444974-d.jpg,,
19408960,Negotiations: 1972-1990 ,,European Perspectives,,"Gilles Deleuze, Martin Joughin",1995,,Columbia University Press,,221,0,English,195,,,"0231075804,9780231075800",,,,,194,B2430.D453 P6813 1995,,,OL781525M,,0,,,,,1,,1,9077519,pdf,6E2D0C0FE1F249804C2FE35BBB128E60,,,"F:\\lib1\\0231075804,9780231075800,.pdf",0,2000-01-01 01:00:00,2016-04-03 02:51:08,390000/6e2d0c0fe1f249804c2fe35bbb128e60-d.jpg,,
19408961,Dance of the Dialectic: STEPS IN MARX'S METHOD,,,,Bertell Ollman,2003,,University of Illinois Press,,248,0,English,195,,,"0252028325,9780252028328",,,,,,,,,OL9606283M,,0,,,,,1,1,1,12680374,pdf,BEFA8D2D7A6FFB1F4DA704B01C4176A7,,,"F:\\lib1\\0252028325,9780252028328,.pdf",0,2000-01-01 01:00:00,2016-04-03 02:51:08,390000/befa8d2d7a6ffb1f4da704b01c4176a7-d.jpg,,
19408962,We Make a Life by What We Give ,,Philanthropic and Nonprofit Studies,,Richard B. Gunderman,2009,,Indiana University Press,,216,0,English,195,,,"0253200296,9780253200297",,,,,,,,,,,0,,,,,1,1,1,1601572,pdf,B3A040F5D2411EC01357907702B89FCD,,,"F:\\lib1\\0253200296,9780253200297,.pdf",0,2000-01-01 01:00:00,2016-04-03 02:51:08,390000/b3a040f5d2411ec01357907702b89fcd-d.jpg,,
19408963,The God Who May Be: A Hermeneutics of Religion ,,Indiana Series in the Philosophy of Religion,,Richard Kearney,2001,First Edition,Indiana University Press,,192,0,English,205,,,"0253214890,9780253214898",,,,,,,,,OL9390644M,,0,,,,,1,1,1,725677,pdf,89617FFBB3D7C3A7FBEA26CDB8B1E216,,,"F:\\lib1\\0253214890,9780253214898,.pdf",0,2000-01-01 01:00:00,2016-04-03 02:51:08,390000/89617ffbb3d7c3a7fbea26cdb8b1e216-d.jpg,,
19408964,Heidegger's Contributions to Philosophy: An Introduction ,,Studies in Continental Thought,,Daniela Vallega-Neu,2003,,Indiana University Press,,136,0,English,195,,,"0253215994,9780253215994",,,,,,,,,OL9609446M,,0,,,,,1,1,1,1210953,pdf,7360BD50E0F2F7F68F71FFA7F144D082,,,"F:\\lib1\\0253215994,9780253215994,.pdf",0,2000-01-01 01:00:00,2016-04-03 02:51:08,390000/7360bd50e0f2f7f68f71ffa7f144d082-d.jpg,,
19408965,Muscle food : optimale Performance und effektiver Muskelaufbau durch den richtigen Einsatz von Sportlernahrung,,,,Michael Hamm; Andreas Scholz,2002,,Midena,München,6,0,German,,usenet,to 2012-06,"3310007936,9783310007938",,,,,,,,,,,0,,,,,,,1,460158,pdf,e4661ec64b460be7c0a2ce71117f3cdf,,,I:\\usenet_ger\\Effektiver Muskelaufbau .pdf,0,2000-01-01 01:00:00,2016-04-03 02:51:08,883000/e4661ec64b460be7c0a2ce71117f3cdf-d.jpg,,
19408966,Truth and Genesis: Philosophy as Differential Ontology ,,Studies in Continental Thought,,Miguel de Beistegui,2004,,Indiana University Press,,416,0,English,195,,,"0253216710,9780253216717",,,,,,,,,OL9331577M,,0,,,,,1,1,1,6851717,pdf,841733B7D1C1912971EF11D7F9CF305C,,,"F:\\lib1\\0253216710,9780253216717,.pdf",0,2000-01-01 01:00:00,2016-04-03 02:51:08,390000/841733b7d1c1912971ef11d7f9cf305c-d.jpg,,
19408967,"Ethics, Love, and Faith in Kierkegaard: Philosophical Engagements ",,Indiana Series in the Philosophy of Religion,,Edward F. Mooney,2008,,Indiana University Press,,304,0,English,205,,,"0253219957,9780253219954",,,,,198/.9,B4377 .E84 2008,,,OL10228451M,,0,,,,,1,1,1,3736761,pdf,002F618C299F25A0ED85F3E59F8E78E3,,,"F:\\lib1\\0253219957,9780253219954,.pdf",0,2000-01-01 01:00:00,2016-04-03 02:51:08,390000/002f618c299f25a0ed85f3e59f8e78e3-d.jpg,,
19408968,Charles S,,Peirce's Philosophy of Signs: Essays in Comparative Semiotics (Advances in Semiotics,,Gerard Deledalle,2001,,Indiana University Press,,216,0,English,195,,,"0253337364,9780253337368",,,,,,,,,OL17011084M,,0,,,,,1,1,1,1578954,pdf,0B4B5D1BF6D23F1BF75D3D85741204C3,,,"F:\\lib1\\0253337364,9780253337368,.pdf",0,2000-01-01 01:00:00,2016-04-03 02:51:08,390000/0b4b5d1bf6d23f1bf75d3d85741204c3-d.jpg,,
19408969,"Philosophy, Feminism, and Faith ",,Indiana Series in the Philosophy of Religion,,"Ruth E. Groenhout, Marya Bower",2003,,Indiana UniversityPress,,312,0,English,205,,,"0253341779,9780253341778",,,,,,,,,OL17068915M,,0,,,,,1,1,1,1057991,pdf,47A02B4BDCF0EC8AF057E38FA95CCC43,,,"F:\\lib1\\0253341779,9780253341778,.pdf",0,2000-01-01 01:00:00,2016-04-03 02:51:08,390000/47a02b4bdcf0ec8af057e38fa95ccc43-d.jpg,,
19408970,Introduction to Phenomenological Research ,,Studies in Continental Thought,,Martin Heidegger,2005,,Indiana University Press,,272,0,English,130,,,"0253345707,9780253345707",,,,,142/.7,B3279.H48 E3613 2005,,,OL22622964M,,0,,,,,1,,1,13124257,pdf,7DEC8FA53B6B7E5D034E72400A44C160,,,"F:\\lib1\\0253345707,9780253345707,.pdf",0,2000-01-01 01:00:00,2016-04-03 02:51:08,390000/7dec8fa53b6b7e5d034e72400a44c160-d.jpg,,
19408971,Living with Indifference ,,Studies in Continental Thought,,Charles E. Scott,2007,,Indiana University Press,,184,0,English,195,,,"0253348560,9780253348562",,,,,,,,,OL10228842M,,0,,,,,1,1,1,1172220,pdf,E1DD99AF7959BFAD3C9453EAD8F00BA3,,,"F:\\lib1\\0253348560,9780253348562,.pdf",0,2000-01-01 01:00:00,2016-04-03 02:51:08,390000/e1dd99af7959bfad3c9453ead8f00ba3-d.jpg,,
19408972,Ideal Embodiment: Kant's Theory of Sensibility ,,Studies in Continental Thought,,Angelica Nuzzo,2008,,Indiana University Press,,432,0,English,195,,,"0253352290,9780253352293",,B001XPD52G,,,193,B2798 .N89 2008,,,OL18534231M,,0,,,,,1,1,1,7855398,pdf,08A8BF2CD81629B7D335CDBAB2BAB8C2,,,"F:\\lib1\\0253352290,9780253352293,.pdf",0,2000-01-01 01:00:00,2016-04-03 02:51:08,390000/08a8bf2cd81629b7d335cdbab2bab8c2-d.jpg,,
19408973,Racism and Sexual Oppression in Anglo-America: A Genealogy,,,,Ladelle McWhorter,2009,,Indiana University Press,,440,0,English,201,,,"0253352967,9780253352965",,,,,305.800973,E184.A1 M357 2009,,,OL22679560M,,0,,,,,1,1,1,6911267,pdf,32C0C8F85AEB1DEBDDF5D8666CFF4BF1,,,"F:\\lib1\\0253352967,9780253352965,.pdf",0,2000-01-01 01:00:00,2016-04-03 02:51:08,390000/32c0c8f85aeb1debddf5d8666cff4bf1-g.jpg,,
19408974,Isaac Newton on Mathematical Certainty and Method ,,Transformations: Studies in the History of Science and Technology,,Niccolò Guicciardini,2009,,The MIT Press,,448,0,English,113,,,"0262013177,9780262013178",,,,,510,QA29. N4 G85 2009,,,OL22796740M,,0,,,,,1,1,1,3643531,pdf,1123A3C1AD121FC554AEB99D696F9271,,,"F:\\lib1\\0262013177,9780262013178,.pdf",0,2000-01-01 01:00:00,2016-04-03 02:51:08,390000/1123a3c1ad121fc554aeb99d696f9271-d.jpg,,
19408975,Lacan at the Scene ,,Short Circuits,,"Henry Bond, Slavoj Zizek",2009,1,The MIT Press,,256,0,English,195,,,"0262013428,9780262013420",,,,,363.25022/2,TR822 .B66 2009,,,OL23149968M,,0,,,,,1,1,1,8838070,pdf,72785744C280AFA4901989BB5B187273,,,"F:\\lib1\\0262013428,9780262013420,.pdf",0,2000-01-01 01:00:00,2016-04-03 02:51:08,390000/72785744c280afa4901989bb5b187273-d.jpg,,
19408976,Free Will as an Open Scientific Problem ,,Bradford Books,,Mark Balaguer,2009,,The MIT Press,,208,0,English,195,,,"0262013541,9780262013543",,,,,123/.5,BJ1461 .B25 2009,,,OL23197447M,,0,,,,,1,1,1,623035,pdf,71FACC506F973BFDCF81EBC6F5D73ECE,,,"F:\\lib1\\0262013541,9780262013543,.pdf",0,2000-01-01 01:00:00,2016-04-03 02:51:08,390000/71facc506f973bfdcf81ebc6f5d73ece-d.jpg,,
19408977,The Logic of Political Survival,,,,"Bruce Bueno de Mesquita, Alastair Smith, Randolph M. Siverson, James D. Morrow",2003,,The MIT Press,,550,0,English,130,,,"0262025469,9780262025461",,,,,,,,,OL17092521M,,0,,,,,1,1,1,2090280,pdf,6B27F34A26E50F71A578BEB3FB869CE8,,,"F:\\lib1\\0262025469,9780262025461,.pdf",0,2000-01-01 01:00:00,2016-04-03 02:51:08,390000/6b27f34a26e50f71a578beb3fb869ce8-d.jpg,,
19408978,Anti-Individualism and Knowledge ,,Contemporary Philosophical Monographs,,Jessica Brown,2004,,The MIT Press,,355,0,English,195,,,"0262025582,9780262025584",,,,,,,,,OL9674175M,,0,,,,1,0,1,1,1284297,pdf,22A3B0C182B5B120B059BE7D3E1B0040,,,"F:\\lib1\\0262025582,9780262025584,.pdf",0,2000-01-01 01:00:00,2016-04-03 02:51:08,390000/22a3b0c182b5b120b059be7d3e1b0040-d.jpg,,
19408979,Solidarity: From Civic Friendship to a Global Legal Community ,,Studies in Contemporary German Social Thought,,"Hauke Brunkhorst, Jeffrey Flynn",2005,,The MIT Press,,288,0,English,195,,,"0262025825,9780262025829",,,,,302/.14,HM717 .B7813 2005,,,OL3312090M,,0,,,,,1,1,1,1108849,pdf,46ADC367652C8F0599BD4C2C05C08C78,,,"F:\\lib1\\0262025825,9780262025829,.pdf",0,2000-01-01 01:00:00,2016-04-03 02:51:08,390000/46adc367652c8f0599bd4c2c05c08c78-d.jpg,,
19408980,"Suspensions of Perception: Attention, Spectacle, and Modern Culture ",,October Books,,Jonathan Crary,2000,,The MIT Press,,409,0,English,195,,,"0262032651,9780262032650",,,,,153.7,BF378.S45 C73 1999,,,OL38223M,,0,,,,,1,1,1,8304343,pdf,CD759F53FD7A6C04FDA39C451CE3EC5A,,,"F:\\lib1\\0262032651,9780262032650,.pdf",0,2000-01-01 01:00:00,2016-04-03 02:51:08,390000/cd759f53fd7a6c04fda39c451ce3ec5a-d.jpg,,
19408981,Acting in an Uncertain World: An Essay on Technical Democracy ,,Inside Technology,,"Michel Callon, Pierre Lascoumes, Yannick Barthe, Graham Burchell",2009,,The MIT Press,,298,0,English,195,,,"0262033828,9780262033824",,,,,321.8,JC423 .C2453 2009,,,OL16885502M,,0,,,,,1,1,1,1024813,pdf,82E9CBDC0921F30750B9C5C6AD452C95,,,"F:\\lib1\\0262033828,9780262033824,.pdf",0,2000-01-01 01:00:00,2016-04-03 02:51:08,390000/82e9cbdc0921f30750b9c5c6ad452c95-d.jpg,,
19408982,Between Philosophy and Social Science: Selected Early Writings ,,Studies in Contemporary German Social Thought,,"Max Horkheimer, G.Frederick Hunter, Matthew S. Kramer, John Torpey",1993,,The MIT Press,,440,0,English,195,,,"0262082217,9780262082211",,,,,193,B3279.H8473 E5 1993,,,OL1410023M,,0,,,,,1,,1,1018176,pdf,9097530D7C440F0E7E57D215B00B4F32,,,"F:\\lib1\\0262082217,9780262082211,.pdf",0,2000-01-01 01:00:00,2016-04-03 02:51:08,390000/9097530d7c440f0e7e57d215b00b4f32-d.jpg,,
19408983,Educating entrepreneurship : didaktische Ansätze und europäische Perspektiven,,Wirtschaftswissenschaft,,Günther Seeber,2007,1. Aufl,Dt. Univ.-Verl,Wiesbaden,197,0,German,,usenet,to 2012-06,"9783835009011,383500901X",,,,,,,,,,,0,,,,,,,1,1657641,pdf,fc47cc8647d83e50143b5c05be5fae54,,,I:\\usenet_ger\\Educating.Entrepreneurship.[Springer].[2008].[vmv253].pdf,0,2000-01-01 01:00:00,2016-04-03 02:51:08,883000/fc47cc8647d83e50143b5c05be5fae54-d.jpg,,
19408984,Austere Realism: Contextual Semantics Meets Minimal Ontology ,,Representation and Mind,,"Terence Horgan, MatjaÂ PotrÄ",2008,,The MIT Press,,222,0,English,195,,,"0262083760,9780262083768",,,,,149/.2,BD311 .H67 2008,,,OL10237135M,,0,,,,,1,1,1,1160004,pdf,18D288F67967385190EC6A30596FF2FC,,,"F:\\lib1\\0262083760,9780262083768,.pdf",0,2000-01-01 01:00:00,2016-04-03 02:51:08,390000/18d288f67967385190ec6a30596ff2fc-d.jpg,,
19408985,Jakobson: Six Lectures Sound & Meaning,,,,Roman Jakobson,1978,1st MIT Press ed,MIT Press,,116,0,English,195,,,"0262100193,9780262100199",,,,,412,P217 .J3213 1978,,,OL4721612M,,0,,,,,1,,1,5667260,pdf,320A3621E481A127EF9F6D05C261B392,,,"F:\\lib1\\0262100193,9780262100199,.pdf",0,2000-01-01 01:00:00,2016-04-03 02:51:08,390000/320a3621e481a127ef9f6d05c261b392-g.jpg,,
19408986,Tigersprung: Fashion in Modernity,,,,Ulrich Lehmann,2000,,The MIT Press,,554,0,English,195,,,"0262122316,9780262122313",,,,,,,,,OL9749473M,,0,,,,,1,1,1,4924755,pdf,B2FEF4F6BCD128920CB73FB55CC4261C,,,"F:\\lib1\\0262122316,9780262122313,.pdf",0,2000-01-01 01:00:00,2016-04-03 02:51:08,390000/b2fef4f6bcd128920cb73fb55cc4261c-d.jpg,,
19408987,Adorno's Negative Dialectic: Philosophy and the Possibility of Critical Rationality ,,Studies in Contemporary German Social Thought,,Brian O'Connor,2004,,The MIT Press,,222,0,English,195,,,"0262151103,9780262151108",,,,,,,,,OL9311623M,,0,,,,,1,1,1,838505,pdf,EFC67F209FF7D1D310C45F71E2B5C46D,,,"F:\\lib1\\0262151103,9780262151108,.pdf",0,2000-01-01 01:00:00,2016-04-03 02:51:08,390000/efc67f209ff7d1d310c45f71e2b5c46d-d.jpg,,
19408988,Metaphor in Context ,,Bradford Books,,Josef Stern,2000,First Edition,The MIT Press,,405,0,English,195,,,"0262194392,9780262194396",,,,,401/.43,P325.5.M47 S74 2000,,,OL6785921M,,0,,,,,1,,1,4293415,pdf,89CB7671E34658C682BBB437A6F577BD,,,"F:\\lib1\\0262194392,9780262194396,.pdf",0,2000-01-01 01:00:00,2016-04-03 02:51:08,390000/89cb7671e34658c682bbb437a6f577bd-d.jpg,,
19408989,Heidegger's Hut,,,,Adam Sharr,2006,,The MIT Press,,112,0,English,195,,,"0262195518,9780262195515",,,,,,,,,OL9534078M,,0,,,,,1,1,1,7886635,pdf,148FB28FFFA6CDD958B95377FA2F1B6D,,,"F:\\lib1\\0262195518,9780262195515,.pdf",0,2000-01-01 01:00:00,2016-04-03 02:51:08,390000/148fb28fffa6cdd958b95377fa2f1b6d-d.jpg,,
19408990,"Without Criteria: Kant, Whitehead, Deleuze, and Aesthetics ",,Technologies of Lived Abstraction,,Steven Shaviro,2009,,The MIT Press,,192,0,English,195,,,"0262195763,9780262195768",,,,,192,B1674.W354 S44 2009,,,OL22560288M,,0,,,,,1,1,1,766006,pdf,BEEA29AD45D099BC9733C0E6C301B75A,,,"F:\\lib1\\0262195763,9780262195768,.pdf",0,2000-01-01 01:00:00,2016-04-03 02:51:08,390000/beea29ad45d099bc9733c0e6c301b75a-d.jpg,,
19408991,Cinematic Mythmaking: Philosophy in Film ,,Irving Singer Library,,Irving Singer,2008,,The MIT Press,,256,0,English,195,,,"0262195895,9780262195898",,,,,791.43/615,PN1995.9.M96 S56 2008,,,OL16818713M,,0,,,,,1,,1,2012928,pdf,D42BF4802A0E7DA2FC7092FA1AE11BE8,,,"F:\\lib1\\0262195895,9780262195898,.pdf",0,2000-01-01 01:00:00,2016-04-03 02:51:08,390000/d42bf4802a0e7da2fc7092fa1ae11be8-d.jpg,,
19408992,Consciousness and Persons: Unity and Identity ,,Representation and Mind,,Michael Tye,2005,,The MIT Press,,219,0,English,195,,,"0262701138,9780262701136",,,,,,,,,OL9392531M,,0,,,,,1,1,1,779484,pdf,F40512649B8491556072465E60BF00E5,,,"F:\\lib1\\0262701138,9780262701136,.pdf",0,2000-01-01 01:00:00,2016-04-03 02:51:08,390000/f40512649b8491556072465e60bf00e5-d.jpg,,
19408993,Zimmer 13 : Kriminalroman,,Rote Krimi,,Edgar Wallace,19??,,Wilhelm Goldmann,München,193,0,German,,usenet,to 2012-06,"3442000440,9783442000449",,,,,,,,,,,0,,,,,,,1,463807,pdf,7c1fc532a58a6fabc892d32cb6be2ab3,,,I:\\usenet_ger\\Edgar Wallace - Zimmer 13 - DarKneSS.pdf,0,2000-01-01 01:00:00,2016-04-03 02:51:08,883000/7c1fc532a58a6fabc892d32cb6be2ab3-d.jpg,,
19408994,The Odd One In: On Comedy ,,Short Circuits,,Alenka Zupancic,2008,,The MIT Press,,240,0,English,195,,,"0262740311,9780262740319",,,,,700/.417,BH301.C7 Z87 2007,,,OL10238714M,,0,,,,,,1,1,2504745,pdf,E023BADAB303D970D23212BCA5CD45F3,,,"F:\\lib1\\0262740311,9780262740319,.pdf",0,2000-01-01 01:00:00,2016-04-03 02:51:08,390000/e023badab303d970d23212bca5cd45f3-d.jpg,,
19408995,"The Primal Roots of American Philosophy:  Pragmatism, Phenomenology, and Native American Thought",,,,Bruce Wilshire,2000,,Pennsylvania State Univ Pr (Txt),,241,0,English,195,,,"0271020253,9780271020259",,,,,,,,,OL9740466M,,0,,,,,1,,1,1754416,pdf,EFD4CCA888E77429D436D5661E499456,,,"F:\\lib1\\0271020253,9780271020259,.pdf",0,2000-01-01 01:00:00,2016-04-03 02:51:08,390000/efd4cca888e77429d436d5661e499456-d.jpg,,
19408996,Celluloid Vampires: Life After Death in the Modern World,,,,Stacey Abbott,2007,,University of Texas Press,,278,0,English,195,,,"0292716958,9780292716957",,,,,791.43/675,PN1995.9.V3 A23 2007,,,OL10293602M,,0,,,,,1,,1,1431555,pdf,27B7585C6DAC187044C345B8557772BC,,,"F:\\lib1\\0292716958,9780292716957,.pdf",0,2000-01-01 01:00:00,2016-04-03 02:51:08,390000/27b7585c6dac187044c345b8557772bc-g.jpg,,
19408997,When the Center Is on Fire: Passionate Social Theory for Our Times,,,,"Diane Harriford, Becky Thompson",2008,,University of Texas Press,,272,0,English,195,,,"0292717768,9780292717763",,,,,301.0973,HM585 .H37 2008,,,OL10293664M,,0,,,,,1,,1,2461972,pdf,2AE77153AFC8657BE7B5D2BA94244ADE,,,"F:\\lib1\\0292717768,9780292717763,.pdf",0,2000-01-01 01:00:00,2016-04-03 02:51:08,390000/2ae77153afc8657be7b5d2ba94244ade-d.jpg,,
19408998,Why the Humanities Matter: A Commonsense Approach,,,,Frederick Luis Aldama,2008,,University of Texas Press,,400,0,English,195,,,"0292717989,9780292717985",,,,,001.3,B831.2 .A43 2008,,,OL10293678M,,0,,,,,1,,1,4283187,pdf,5F15C1BAC962A21469ADA1502F4867CE,,,"F:\\lib1\\0292717989,9780292717985,.pdf",0,2000-01-01 01:00:00,2016-04-03 02:51:08,390000/5f15c1bac962a21469ada1502f4867ce-d.jpg,,
19408999,Nihilism a Philosophical Essay,,,,Stanley Rosen,1969,,Yale Univ Pr,,261,0,English,195,,,"0300011407,9780300011401",,,,,,,,,,,0,,,,1,1,1,1,9498097,pdf,FC93190486377850E574C234D51D5074,,,"F:\\lib1\\0300011407,9780300011401,.pdf",0,2000-01-01 01:00:00,2016-04-03 02:51:08,390000/fc93190486377850e574c234d51d5074-g.jpg,,
19409000,The Social and Spatial Ecology of Work: The Case of a Survey Research Organization ,,Springer Studies in Work and Industry,,Rita Gorawara-Bhat,2000,1,Springer,,185,0,English,31,,,"0306462257,9780306462252",,,,,,,,,OL16975705M,,0,,,,1,0,1,1,1226083,pdf,967CE05EDFB7F722F10C92F8976C2442,,,"F:\\lib1\\0306462257,9780306462252,.pdf",0,2000-01-01 01:00:00,2016-04-03 02:51:08,390000/967ce05edfb7f722f10c92f8976c2442-d.jpg,,
19409001,Interpreting Modern Political Philosophy: From Machiavelli to Marx,,,,"Alistair Edwards, Jules Townshend",2002,,Palgrave Macmillan,,256,0,English,195,,,"0333772415,9780333772416",,,,,,,,,OL17053904M,,0,,,,,1,,1,10500168,pdf,929BE39B2A20E0FA32284815377BD11A,,,"F:\\lib1\\0333772415,9780333772416,.pdf",0,2000-01-01 01:00:00,2016-04-03 02:51:08,390000/929be39b2a20e0fa32284815377bd11a-d.jpg,,
19409002,T  H Green's Moral and Political Philosophy: A Phenomenological Perspective,,,,Maria Dimova-Cookson,2001,,Palgrave Macmillan,,192,0,English,195,,,"0333914457,9780333914458",,,,,128/.4/092,JC223.G8 T5 2001,,,OL6796985M,,0,,,,,1,1,1,1368373,pdf,0213B8B0D858F1019E87797C800CBEAF,,,"F:\\lib1\\0333914457,9780333914458,.pdf",0,2000-01-01 01:00:00,2016-04-03 02:51:08,390000/0213b8b0d858f1019e87797c800cbeaf-d.jpg,,
19409003,"The Moral Foundations of Educational Research: Knowledge, Inquiry and Values",,,,"Pat Sikes, John Nixon, William Carr",2003,1,Open University Press,,160,0,English,183,,,"0335210465,9780335210466",,,,,370/.7/2,LB1028 .M6433 2003,,,OL3570805M,,0,,,,,1,,1,719695,pdf,0216A92BD55AE95D58BABB0C8678A9D9,,,"F:\\lib1\\0335210465,9780335210466,.pdf",0,2000-01-01 01:00:00,2016-04-03 02:51:08,390000/0216a92bd55ae95d58babb0c8678a9d9-d.jpg,,
19409004,The Art of Worldly Wisdom,,,,"Baltasar Gracian, Christopher Maurer",1992,1,A Currency Book,,208,0,English,195,,,"0385421311,9780385421317",,,,,868/.302,PQ6398.G3 O7 1991,,,OL1559661M,,0,,,,,1,,0,6160322,pdf,65E807AEC8643F49D89185A710807830,,,"F:\\lib1\\0385421311,9780385421317,.pdf",0,2000-01-01 01:00:00,2016-04-03 02:51:08,390000/65e807aec8643f49d89185a710807830-d.jpg,,
19409005,Future of an Illusion,,,,Sigmund Freud,1975,1st Am. ed.,WW Norton & Co,,63,0,English,195,,,"0393011208,9780393011203",,,,,200/.1/9,"BL53 .F67 1975,BL53 F67 1961",,,OL21189898M,,0,,,,,1,,1,2723796,pdf,D724D780AC4E9DEA2284D64C1D7AD0F4,,,"F:\\lib1\\0393011208,9780393011203,.pdf",0,2000-01-01 01:00:00,2016-04-03 02:51:08,390000/d724d780ac4e9dea2284d64c1d7ad0f4-g.jpg,,
19409006,"The Ego in Freud's Theory and in the Technique of Psychoanalysis, 1954-1955 Book II",,The Seminar of Jacques Lacan,,"Jacques Lacan, Jacques-Alain Miller, Sylvana Tomaselli",1991,,W.W. Norton & Co.,,300,0,English,117,,,"0393307093,9780393307092",,,,,,,,,OL22131972M,,0,,,,,1,,1,6098095,pdf,C26EEC24E12D3C42A3933582395E9D3B,,,"F:\\lib1\\0393307093,9780393307092,.pdf",0,2000-01-01 01:00:00,2016-04-03 02:51:08,390000/c26eec24e12d3c42a3933582395e9d3b-d.jpg,,
19409007,Fundamentals of Psychoanalytic Technique: A Lacanian Approach for Practitioners ,,Norton Professional Books,,Bruce Fink,2007,1,W. W. Norton & Company,,304,0,English,195,,,"0393705080,9780393705089",,,,,,,,,OL7454643M,,0,,,,,1,,1,4161505,pdf,B03AD8F52FB3694C4A4051435322FF08,,,"F:\\lib1\\0393705080,9780393705089,.pdf",0,2000-01-01 01:00:00,2016-04-03 02:51:08,390000/b03ad8f52fb3694c4a4051435322ff08-d.jpg,,
19409008,The Value of Human Life in Soviet Warfare,,,,Amnon Sella,1992,1,Routledge,,224,0,English,215,,,"0415024676,9780415024679",,,,,355.1/29/0947,UA770 .S46 1992,,,OL1539534M,,0,,,,,1,,1,1268927,pdf,F474327EB7621521728645A888D732D0,,,"F:\\lib1\\0415024676,9780415024679,.pdf",0,2000-01-01 01:00:00,2016-04-03 02:51:08,390000/f474327eb7621521728645a888d732d0-d.jpg,,
19409009,Derrida and Deconstruction ,,Continental Philosophy,,Hugh J. Silverman,1989,,Routledge,,240,0,English,236,,,"0415030943,9780415030946",,,,,194,B2430.D484 D478 1989,,,OL2049072M,,0,,,,,1,1,1,1022564,pdf,AC55D67A4CA469D61C0651FC79A9CFE7,,,"F:\\lib1\\0415030943,9780415030946,.pdf",0,2000-01-01 01:00:00,2016-04-03 02:51:08,390000/ac55d67a4ca469d61c0651fc79a9cfe7-d.jpg,,
19409010,"Private and Public: Individuals, Households and Body Politic in Locke and Hutcheson",,,,D. Gobetti,1992,1,Routledge,,224,0,English,195,,,"0415031745,9780415031745",,,,,320/.01/1,JC153.L87 G63 1992,,,OL1553722M,,0,,,,,1,1,1,2911084,pdf,69BA3F26B5B13D64F6625AF693ACDB33,,,"F:\\lib1\\0415031745,9780415031745,.pdf",0,2000-01-01 01:00:00,2016-04-03 02:51:08,390000/69ba3f26b5b13d64f6625af693acdb33-d.jpg,,
19409011,"ECOMath. / 1, Mathematik für Wirtschaftswissenschaftler",,Springer-Lehrbuch,,Hans Michael Dietz,2009,,Springer-Verlag,Berlin ; Heidelberg,537,0,German,,usenet,to 2012-06,"9783540890522,3540890521",,,,,,,10.1007/978-3-540-89052-2,,,,0,,,,,,,1,11921320,pdf,ada2777dccca2ef4a042bf8e0de70a7b,,,I:\\usenet_ger\\ECOMath1.Mathematik.fuer.Wirtschaftswissenschaftler.[Springer].[2009].[m31u03].pdf,0,2000-01-01 01:00:00,2016-04-03 02:51:08,883000/ada2777dccca2ef4a042bf8e0de70a7b-g.jpg,,
19409012,"The Pluralist Theory of the State: Selected Writings of GDH Cole, JN Figgis and HJ",,,,Paul Q. Hirst,1994,New edition,Routledge,,256,0,English,195,,,"0415033713,9780415033718",,,,,321.80942,,,,OL21393708M,,0,,,,,1,,1,1506335,pdf,A62881FD15578CD9ED6DA5A3F9EE538E,,,"F:\\lib1\\0415033713,9780415033718,.pdf",0,2000-01-01 01:00:00,2016-04-03 02:51:08,390000/a62881fd15578cd9ed6da5a3f9ee538e-d.jpg,,
19409013,Plato's Invisible Cities: Discourse and Power in the Republic,,,,Adi Ophir,1991,1,Routledge,,224,0,English,195,,,"0415035961,9780415035965",,,,,321.07,JC71.P6,,,OL18351813M,,0,,,,,1,1,1,760045,pdf,9E772A38E092ABBADCF011C00A304C9A,,,"F:\\lib1\\0415035961,9780415035965,.pdf",0,2000-01-01 01:00:00,2016-04-03 02:51:08,390000/9e772a38e092abbadcf011c00a304c9a-d.jpg,,
19409014,Mental Conflict ,,Issues in Ancient Philosophy,,A. W. Price,1994,1,Routledge,,232,0,English,64,,,"0415041511,9780415041515",,,,,128/.2/0938,B105.M55 P75 1995,,,OL1080445M,,0,,,,,1,1,1,1173852,pdf,27CD903F447F7D3A8867D532729BAE30,,,"F:\\lib1\\0415041511,9780415041515,.pdf",0,2000-01-01 01:00:00,2016-04-03 02:51:08,390000/27cd903f447f7d3a8867d532729bae30-d.jpg,,
19409015,Public Enterprise at the Crossroads,,,,John Heath,1990,1,Routledge,,320,0,English,79,,,"0415044723,9780415044721",,,,,,,,,OL16694299M,,0,,,,,1,1,1,1552717,pdf,537D00AF670688AE1E556ECC617FB26A,,,"F:\\lib1\\0415044723,9780415044721,.pdf",0,2000-01-01 01:00:00,2016-04-03 02:51:08,390000/537d00af670688ae1e556ecc617fb26a-d.jpg,,
19409016,On Interpreting Keynes: A Study in Reconciliation,,,,Bruce Littleboy,1991,1,Routledge,,352,0,English,195,,,"0415044758,9780415044752",,,,,330.15/6,HB99.7 .L58 1990,,,OL1856441M,,0,,,,,1,1,1,1161623,pdf,F14B59FC523F9EFC19F87A016F2179A9,,,"F:\\lib1\\0415044758,9780415044752,.pdf",0,2000-01-01 01:00:00,2016-04-03 02:51:08,390000/f14b59fc523f9efc19f87a016f2179a9-d.jpg,,
19409017,Economic and Social Development in Pacific Asia ,,Growth Economies of Asia Series,,"Chris Dixon, David W. Smith",1993,1,Routledge,,248,0,English,305,,,"0415056837,9780415056830",,,,,361.6/1/0959,HC441 .E26 1993,,,OL1701628M,,0,,,,,1,1,1,3327589,pdf,7EB02451B2B0CC45C10C9C9A98FD148D,,,"F:\\lib1\\0415056837,9780415056830,.pdf",0,2000-01-01 01:00:00,2016-04-03 02:51:08,390000/7eb02451b2b0cc45c10c9c9a98fd148d-d.jpg,,
19409018,From Class Struggle to the Politics of Pleasure: The Effects of Gramscianism on Cultural Studies,,,,David Harris,1992,1,Routledge,,209,0,English,195,,,"0415062233,9780415062237",,,,,306,HM101 .H288 1992,,twT1R8ege-IC,OL1703730M,,0,,,,1,0,1,1,1957177,pdf,929EB3AB423E92DC4DE6E4B3F91E7D36,,,"F:\\lib1\\0415062233,9780415062237,.pdf",0,2000-01-01 01:00:00,2016-04-03 02:51:08,390000/929eb3ab423e92dc4de6e4b3f91e7d36-d.jpg,,
19409019,Science as Salvation: A Modern Myth and its Meaning ,,Gifford Lectures ; 1990,,Mary Midgley,1992,1,Routledge,,256,0,English,181,,,"0415062713,9780415062718",,,,,501,Q175 .M613 1992,,,OL1551201M,,0,,,,,1,1,1,1985644,pdf,47D49513EFED0B91B910D8203B7B6B78,,,"F:\\lib1\\0415062713,9780415062718,.pdf",0,2000-01-01 01:00:00,2016-04-03 02:51:08,390000/47d49513efed0b91b910d8203b7b6b78-d.jpg,,
19409020,Postmodernism and Islam: Predicament and Promise,,,,Akbar S. Ahmed,1992,1,Routledge,,294,0,English,195,,,"0415062926,9780415062923",,,,,297/.09/049,BP163 .A354 1992,,,OL1558645M,,0,,,,1,1,1,1,1160248,pdf,2448A900576B2382EC42A8D7FB5C70E8,,,"F:\\lib1\\0415062926,9780415062923,.pdf",0,2000-01-01 01:00:00,2016-04-03 02:51:08,390000/2448a900576b2382ec42a8d7fb5c70e8-g.jpg,,
19409021,Regulating Bodies: Essays in Medical Sociology,,,,Bryan S. Turner,1992,,Routledge,,288,0,English,147,,0,"0415069637,9780415069632",,,,,306.4/61,HM110 .T87 1992,,,,,0,,,,,1,1,1,1070947,pdf,746F6A908B74A5052A8EFB8408F00B09,,,"F:/lib1/0415069637,9780415069632,.pdf",0,2000-01-01 01:00:00,2016-04-03 02:51:08,390000/746f6a908b74a5052a8efb8408f00b09-d.jpg,,
19409022,On Paul Ricoeur: Narrative and Interpretation ,,Warwick Studies in Philosophy and Literature,,David Wood,1992,annotated edition,Routledge,,224,0,English,195,,,"0415074061,9780415074063",,,,,194,B2430.R554 O6 1991,,,OL1549101M,,0,,,,,1,1,1,988704,pdf,BA4BBC2B782FD7D3363E0803A54EE028,,,"F:\\lib1\\0415074061,9780415074063,.pdf",0,2000-01-01 01:00:00,2016-04-03 02:51:08,390000/ba4bbc2b782fd7d3363e0803a54ee028-d.jpg,,
19409023,"Reassessing Foucault: Power, Medicine and the Body ",,Routledge Studies in the Social History of Medicine,,"Colin Jones, Roy Porter",1994,,Routledge,,240,0,English,147,,,"0415075424,9780415075428",,,,,303.3,HM22.F82 F697 1994,,,OL1420729M,,0,,,,,1,1,1,750084,pdf,893AD6122F085959736EDEDB7D3AC1F9,,,"F:\\lib1\\0415075424,9780415075428,.pdf",0,2000-01-01 01:00:00,2016-04-03 02:51:08,390000/893ad6122f085959736ededb7d3ac1f9-d.jpg,,
19409024,"Speculations After Freud: Psychoanalysis, Philosophy and Culture",,,,"Michael Munchow, Sonu Shamdasani",1994,1,Routledge,,248,0,English,195,,,"0415076560,9780415076562",,,,,150.19/5,BF175 .S615 1994,,,OL1417344M,,0,,,,,1,1,1,908497,pdf,D6CBE8DA0CF01E88672BF8CBD56839B3,,,"F:\\lib1\\0415076560,9780415076562,.pdf",0,2000-01-01 01:00:00,2016-04-03 02:51:08,390000/d6cbe8da0cf01e88672bf8cbd56839b3-d.jpg,,
19409025,Microfoundations: A Critical Inquiry,,,,Maarten Janssen,1993,1,Routledge,,224,0,English,195,,,"0415086310,9780415086318",,,,,338.5,HB172 .J35 1993,,,OL1727827M,,0,,,,,1,1,1,1999165,pdf,2972749A25753C007AF108057D9E5323,,,"F:\\lib1\\0415086310,9780415086318,.pdf",0,2000-01-01 01:00:00,2016-04-03 02:51:08,390000/2972749a25753c007af108057d9e5323-d.jpg,,
19409026,"Reconstructing Nature: Alienation, Emancipation and the Division of Labour ",,International Library of Sociology,,Peter Dickens,1996,1,Routledge,,240,0,English,195,,,"0415089212,9780415089210",,,,,304.2/01,GF21 .D49 1996,,,OL794104M,,0,,,,,1,1,1,2619097,pdf,E514902E67F1670C2B2607002B59F169,,,"F:\\lib1\\0415089212,9780415089210,.pdf",0,2000-01-01 01:00:00,2016-04-03 02:51:08,390000/e514902e67f1670c2b2607002b59f169-g.jpg,,
19409027,"Post-Modernism, Economics and Knowledge ",,Economics as Social Theory,,"Jack Amariglio, Stephen E Cullenberg, David F Ruccio",2001,1,Routledge,,512,0,English,305,,,"0415110254,9780415110259",,,,,,,,,OL15504796M,,0,,,,,1,1,1,3021429,pdf,34F85A1BB1302A488AAFDD488E1536C2,,,"F:\\lib1\\0415110254,9780415110259,.pdf",0,2000-01-01 01:00:00,2016-04-03 02:51:08,390000/34f85a1bb1302a488aafdd488e1536c2-d.jpg,,
19409028,The Sociology of Nationalism: Tomorrow's Ancestors ,,International Library of Sociology,,David McCrone,1998,1,Routledge,,224,0,English,194,,,"0415114594,9780415114592",,,,,320.54,JC311 .M392 1998,,,OL350182M,,0,,,,,1,1,1,862245,pdf,FBC13C7871050925621B2944A4E8716D,,,"F:\\lib1\\0415114594,9780415114592,.pdf",0,2000-01-01 01:00:00,2016-04-03 02:51:08,390000/fbc13c7871050925621b2944a4e8716d-d.jpg,,
19409029,Ricardo - The New View: Collected Essays I,,,,Samuel Hollander,1995,1,Routledge,,384,0,English,195,,,"0415115825,9780415115827",,,,,,,,,OL7483193M,,0,,,,,1,1,1,1325175,pdf,7EC67A75983DC400B8F977B2F9B3FFED,,,"F:\\lib1\\0415115825,9780415115827,.pdf",0,2000-01-01 01:00:00,2016-04-03 02:51:08,390000/7ec67a75983dc400b8f977b2f9b3ffed-d.jpg,,
19409030,Privatization and Equity,,,,V.  V. Ramanadham,1995,1,Routledge,,296,0,English,195,,,"0415118980,9780415118989",,,,,338.9/009172/4,HD4420.8 .P753 1995,,,OL1103112M,,0,,,,,1,1,1,2257309,pdf,FF6A17B0882334ACF1CA29E56C27EBC0,,,"F:\\lib1\\0415118980,9780415118989,.pdf",0,2000-01-01 01:00:00,2016-04-03 02:51:08,390000/ff6a17b0882334acf1ca29e56c27ebc0-d.jpg,,
19409031,Echtzeitsysteme : Grundlagen der Planung,,EXamen.press,,Dieter Zöbel,2008,,Springer,Berlin ; Heidelberg,327,0,German,,usenet,to 2012-06,"9783540763963,3540763961,9783540763956,3540763953",,,,,,,10.1007/978-3-540-76396-3,,,,0,,,,,,,1,4889168,pdf,caca5e07fe92f96c5cc189f9eeeedfad,,,I:\\usenet_ger\\Echtzeitsysteme.-.Springer.-.2008.-.g83p81.pdf,0,2000-01-01 01:00:00,2016-04-03 02:51:08,883000/caca5e07fe92f96c5cc189f9eeeedfad-g.jpg,,
19409032,Risk and Blame: Essays in Cultural Theory,,,,Mary Douglas,1994,New edition,Routledge,,336,0,English,195,,,"0415119995,9780415119993",,,,,,,,,OL7483322M,,0,,,,,1,1,1,1304170,pdf,EDE4803753F0A660021EA70D2D9A437E,,,"F:\\lib1\\0415119995,9780415119993,.pdf",0,2000-01-01 01:00:00,2016-04-03 02:51:08,390000/ede4803753f0a660021ea70d2d9a437e-d.jpg,,
19409033,"Corporealities: Dancing Knowledge, Culture and Power",,,,Susan Foster,1995,,Routledge,,288,0,English,195,,,"0415121388,9780415121385",,,,,306.4/84,GN298 .C67 1996,,,OL1115387M,,0,,,,,1,1,1,2302597,pdf,7458CA384063C5B820C732EA6C428FC0,,,"F:\\lib1\\0415121388,9780415121385,.pdf",0,2000-01-01 01:00:00,2016-04-03 02:51:08,390000/7458ca384063c5b820c732ea6c428fc0-d.jpg,,
19409034,The Discipline of History and the History of Thought,,,,M.C. Lemon,1995,1,Routledge,,288,0,English,64,,,"0415123461,9780415123464",,,,,901,D16 .L54 1995,,,OL1115262M,,0,,,,,1,1,1,876097,pdf,39302B9F2C4EDD9509AD5183C98EA4B7,,,"F:\\lib1\\0415123461,9780415123464,.pdf",0,2000-01-01 01:00:00,2016-04-03 02:51:08,390000/39302b9f2c4edd9509ad5183c98ea4b7-d.jpg,,
19409035,Food Ethics ,,Professional Ethics,,Ben Mepham,1996,,Routledge,,192,0,English,229,,,"0415124514,9780415124515",,,,,178,HD9000.5 .F5948 1996,,,OL966132M,,0,,,,,1,1,1,636237,pdf,D49195DAFF54EF94EB50563C79AB7482,,,"F:\\lib1\\0415124514,9780415124515,.pdf",0,2000-01-01 01:00:00,2016-04-03 02:51:08,390000/d49195daff54ef94eb50563c79ab7482-d.jpg,,
19409036,The Sociology Of Taste,,,,Jukka Gronow,1997,,Routledge,,216,0,English,194,,,"0415132940,9780415132947",,,,,306,HM299 .G75 1997,,,OL987569M,,0,,,,,1,1,1,1154088,pdf,B7DA11605BA99D9A41EB45BB8D44FAC3,,,"F:\\lib1\\0415132940,9780415132947,.pdf",0,2000-01-01 01:00:00,2016-04-03 02:51:08,390000/b7da11605ba99d9a41eb45bb8d44fac3-d.jpg,,
19409037,The End of Economics ,,Routledge Frontiers of Political Economy,,Michael Perelman,1996,1,Routledge,,216,0,English,305,,,"0415137373,9780415137379",,,,,330,HB87 .P347 1996,,,OL809433M,,0,,,,,1,1,1,1468050,pdf,7184A2953DD48B3EB7821C8D9E6AE712,,,"F:\\lib1\\0415137373,9780415137379,.pdf",0,2000-01-01 01:00:00,2016-04-03 02:51:08,390000/7184a2953dd48b3eb7821c8d9e6ae712-d.jpg,,
19409038,A Good Death: Conversations with East Londoners,,,,"Lesley Cullen, Michael Young",1996,,Routledge,,272,0,English,195,,,"0415137969,9780415137966",,,,,362.1/75/09421,R726.8 .Y675 1996,,,OL793357M,,0,,,,,1,,1,1409538,pdf,4A8649718D5693F823F1BA6B86B3C5C8,,,"F:\\lib1\\0415137969,9780415137966,.pdf",0,2000-01-01 01:00:00,2016-04-03 02:51:08,390000/4a8649718d5693f823f1ba6b86b3c5c8-g.jpg,,
19409039,Metaphysics: A Contemporary Introduction ,,Routledge Contemporary Introductions to Philosophy,,Michael J. Loux,1997,1,Routledge,,256,0,English,264,,,"0415140331,9780415140331",,,,,110,BD131 .L83 1998,,,OL665410M,,0,,,,,1,1,1,1464010,pdf,A250150B840C28C85B7AF4A67D157D17,,,"F:\\lib1\\0415140331,9780415140331,.pdf",0,2000-01-01 01:00:00,2016-04-03 02:51:08,390000/a250150b840c28c85b7af4a67d157d17-d.gif,,
19409040,"Textures of Light: Vision and Touch in Irigaray, Levinas and Merleau Ponty ",,Warwick Studies in European Philosophy,,Cathryn Vasseleu,1998,1,Routledge,,168,0,English,195,,,"0415142733,9780415142731",,,,,121/.35,B2424.P45 V37 1998,,,OL671438M,,0,,,,,1,1,1,599069,pdf,B038F1CB894E0D60140222ACBFA38925,,,"F:\\lib1\\0415142733,9780415142731,.pdf",0,2000-01-01 01:00:00,2016-04-03 02:51:08,390000/b038f1cb894e0d60140222acbfa38925-d.jpg,,
19409041,The Eight Technologies of Otherness,,,,"Dr Sue Golding, Sue Golding",1997,1,Routledge,,384,0,English,195,,,"0415145791,9780415145794",,,,,306,HM73 .E55 1997,,,OL1008856M,,0,,,,,1,1,1,7138586,pdf,24D71A634C3C32E1297FFE5F0ACBDD09,,,"F:\\lib1\\0415145791,9780415145794,.pdf",0,2000-01-01 01:00:00,2016-04-03 02:51:08,390000/24d71a634c3c32e1297ffe5f0acbdd09-d.jpg,,
19409042,Capital in Disequilibrium: The Role of Capital in a Changing World ,,Routledge Foundations of the Market Economy,,Peter Lewin,1999,,Routledge,,272,0,English,195,,,"0415147069,9780415147064",,,,,332/.041,HB501 .L399 1999,,,OL18279311M,,0,,,,,1,1,1,1946771,pdf,EC1CC16A3735C8198E3B6AC4CB752856,,,"F:\\lib1\\0415147069,9780415147064,.pdf",0,2000-01-01 01:00:00,2016-04-03 02:51:08,390000/ec1cc16a3735c8198e3b6ac4cb752856-d.jpg,,
19409043,Complaints and Grievances in Psychotherapy: A Handbook of Ethical Practice,,,,"Fiona Palmer Barnes, Fiona Palmer Barnes",1998,1,Routledge,,208,0,English,,,,"0415152518,9780415152518",,,,,616.89/14,RC455.2.E8 P34 1998,,,OL358143M,,0,,,,,1,,1,1285951,pdf,DF27884DB993F0732B55FDD39417ED07,,,"F:\\lib1\\0415152518,9780415152518,.pdf",0,2000-01-01 01:00:00,2016-04-03 02:51:08,390000/df27884db993f0732b55fdd39417ed07-d.jpg,,
19409044,From Acting to Performance: Essays in Modernism and Postmodernism,,,,Philip Auslander,1997,,Routledge,,192,0,English,195,,,"0415157862,9780415157865",,,,,,,,,OL770766M,,0,,,,,1,1,1,637413,pdf,5BBEE29A89FD2A772795BAAFB30A6C50,,,"F:\\lib1\\0415157862,9780415157865,.pdf",0,2000-01-01 01:00:00,2016-04-03 02:51:08,390000/5bbee29a89fd2a772795baafb30a6c50-d.jpg,,
19409045,Feminism and Ecological Communities,,,,Christine Cuomo,1998,1,Routledge,,192,0,English,31,,,"0415158052,9780415158053",,,,,305.42/01,HQ1233 .C86 1998,,,OL665411M,,0,,,,,1,1,1,1859598,pdf,0958C50B4B27FEB97F733035203F0A1E,,,"F:\\lib1\\0415158052,9780415158053,.pdf",0,2000-01-01 01:00:00,2016-04-03 02:51:08,390000/0958c50b4b27feb97f733035203f0a1e-d.jpg,,
19409046,Thinking Space ,,Critical Geographies,,"Mike Crang, Nigel Thrift",2000,1,Routledge,,400,0,English,212,,,"0415160162,9780415160162",,,,,,,,,OL7484692M,,0,,,,,1,1,1,1554205,pdf,679566272B6690C957EF0F3209A39E97,,,"F:\\lib1\\0415160162,9780415160162,.pdf",0,2000-01-01 01:00:00,2016-04-03 02:51:08,390000/679566272b6690c957ef0f3209a39e97-d.jpg,,
19409047,"Collective Imaginings: Spinoza, Past and Present",,,,"Moira Gatens, Genevieve Lloyd",1999,1,Routledge,,184,0,English,195,,,"0415165709,9780415165709",,,,,,,,,OL7484883M,,0,,,,,1,1,1,2261305,pdf,E465F8CE716A1EA1A240837E48581118,,,"F:\\lib1\\0415165709,9780415165709,.pdf",0,2000-01-01 01:00:00,2016-04-03 02:51:08,390000/e465f8ce716a1ea1a240837e48581118-d.jpg,,
19409048,"Citizenship and the Ethics of Care: Feminist Considerations on Justice, Morality and Politics",,,,Selma Sevenhuijsen,1998,,Routledge,,208,0,English,195,,,"0415170818,9780415170819",,,,,362/.0425,HV41 .S38813 1998,,,OL695504M,,0,,,,,1,1,1,1402468,pdf,C834CCF138C5D18F000A598E0AEF404E,,,"F:\\lib1\\0415170818,9780415170819,.pdf",0,2000-01-01 01:00:00,2016-04-03 02:51:08,390000/c834ccf138c5d18f000a598e0aef404e-d.jpg,,
19409049,Philosophy of Language: A Contemporary Introduction ,,Routledge Contemporary Introductions to Philosophy,,William G. Lycan,1999,annotated edition,Routledge,,264,0,English,195,,,"0415171156,9780415171151",,,,,,,,,OL16973792M,,0,,,,,1,1,1,1994926,pdf,20B742012309658DFE4BA9C687928117,,,"F:\\lib1\\0415171156,9780415171151,.pdf",0,2000-01-01 01:00:00,2016-04-03 02:51:08,390000/20b742012309658dfe4ba9c687928117-d.jpg,,
19409050,A Short History of Ethics: A History of Moral Philosophy from the Homeric Age to the Twentieth Century,,,,Alasdair MacIntyre,1997,2Rev Ed,Routledge,,304,0,English,195,,,"0415173973,9780415173971",,,,,,,,,,,0,,,,,1,1,1,16131351,pdf,CDEBF44FC4AC9ADCF0DD08088ABC4959,,,"F:\\lib1\\0415173973,9780415173971,.pdf",0,2000-01-01 01:00:00,2016-04-03 02:51:08,390000/cdebf44fc4ac9adcf0dd08088abc4959-g.jpg,,
19409051,Asian Children at Home and at School: An Ethnographic Study,,,,Ghazala Bhatti,1999,,Routledge,,304,0,English,195,,,"0415174988,9780415174985",,,,,306.43/0941,LC3485.G7 B53 1999,,,OL382891M,,0,,,,,1,1,1,2666843,pdf,955C619CD428CBEC72F6DE7668D8CC52,,,"F:\\lib1\\0415174988,9780415174985,.pdf",0,2000-01-01 01:00:00,2016-04-03 02:51:08,390000/955c619cd428cbec72f6de7668d8cc52-d.jpg,,
19409052,Integrity in the Public and Private Domains,,,,"Alan Montefiore, David Vines",1999,,Routledge,,356,0,English,195,,,"0415180317,9780415180313",,,,,179/.9,BJ1533.I58 I59 1999,,,OL350070M,,0,,,,,1,1,1,1741646,pdf,159C98EBCD6E07CD28BED858798CDC23,,,"F:\\lib1\\0415180317,9780415180313,.pdf",0,2000-01-01 01:00:00,2016-04-03 02:51:08,390000/159c98ebcd6e07cd28bed858798cdc23-d.jpg,,
19409053,eBusiness & eCommerce : Management der digitalen Wertschöpfungskette,,,,Andreas Meier; Henrik Stormer,2012,"3., Aufl. 2012",Springer Berlin,Berlin,285,0,German,,usenet,to 2012-06,"9783642298011,364229801X,9783540850168,3540850163,9783540850175,3540850171,9783642298028,3642298028",,,,,,,10.1007/978-3-540-85017-5,,,,0,,,,,,,1,6325392,pdf,10c136a4cb8d605c3b8a4c14887af75b,,,I:\\usenet_ger\\eBusiness.&.eCommerce.[Springer].[2008].[l14281].pdf,0,2000-01-01 01:00:00,2016-04-03 02:51:08,883000/10c136a4cb8d605c3b8a4c14887af75b-d.jpg,,
19409054,The Internet: A Philosophical Inquiry,,,,Gordon Graham,1999,,Routledge,,184,0,English,195,,,"0415197481,9780415197489",,,,,004.67/8,TK5105.875.I57 G72 1999,,,OL36485M,,0,,,,,1,1,1,704786,pdf,2A1851D68AE071FB79F54A5E048B806B,,,"F:\\lib1\\0415197481,9780415197489,.pdf",0,2000-01-01 01:00:00,2016-04-03 02:51:08,390000/2a1851d68ae071fb79f54a5e048b806b-d.jpg,,
19409055,"Orientalism and Religion: Post-Colonial Theory, India and \The Mystic East\""""",,,,Richard King,2001,,Routledge,,296,0,English,205,,,"0415202582,9780415202589",,,,,200/.7,BL2203 .K56 1999,,,OL383830M,,0,,,,1,0,1,1,966775,pdf,4B85C1734F77E0F4E9E9A90029165BD1,,,"F:\\lib1\\0415202582,9780415202589,.pdf",0,2000-01-01 01:00:00,2016-04-03 02:51:08,390000/4b85c1734f77e0f4e9e9a90029165bd1-d.jpg,,
19409056,"Knowledge, Institutions and Evolution in Economics ",,The Graz Schumpeter Lectures,,Brian Loasby,1999,1,Routledge,,192,0,English,305,,,"0415205379,9780415205375",,,,,330/.01,HB133 .L6 1999,,,OL372305M,,0,,,,,1,1,1,1668261,pdf,5F27CE8147DD95E170E6681CD1C93CFD,,,"F:\\lib1\\0415205379,9780415205375,.pdf",0,2000-01-01 01:00:00,2016-04-03 02:51:08,390000/5f27ce8147dd95e170e6681cd1c93cfd-d.jpg,,
19409057,Routledge Philosophy GuideBook to Hegel and the Phenomenology of Spirit ,,Routledge Philosophy GuideBooks,,Robert Stern,2001,1,Routledge,,256,0,English,195,,,"0415217881,9780415217880",,,,,,,,,OL7486994M,,0,,,,,1,1,1,830475,pdf,0AF3A812933F128365529427E6F30517,,,"F:\\lib1\\0415217881,9780415217880,.pdf",0,2000-01-01 01:00:00,2016-04-03 02:51:08,390000/0af3a812933f128365529427e6f30517-d.jpg,,
19409058,Difference ,,The New Critical Idiom,,Mark Currie,2004,1,Routledge,,160,0,English,195,,,"0415222214,9780415222211",,,,,400,P121 .C87 2004,,,OL3678901M,,0,,,,,1,1,1,754347,pdf,A31E537BE769D9C14A47826A4036D90E,,,"F:\\lib1\\0415222214,9780415222211,.pdf",0,2000-01-01 01:00:00,2016-04-03 02:51:08,390000/a31e537be769d9c14a47826a4036d90e-d.jpg,,
19409059,Hobbes and History ,,Routledge Studies in Seventeenth Century Philosophy,,"G.A. John Rogers, Thomas Sorell",2000,1,Routledge,,208,0,English,64,,,"0415224446,9780415224444",,,,,901,B1248.H5 H64 2000,,,OL3963120M,,0,,,,,1,1,1,981576,pdf,756AEC88A24F607CC8BA77C58027EC9C,,,"F:\\lib1\\0415224446,9780415224444,.pdf",0,2000-01-01 01:00:00,2016-04-03 02:51:08,390000/756aec88a24f607cc8ba77c58027ec9c-d.jpg,,
19409060,Shakespeare and Feminist Performance: Ideology on Stage ,,Accents on Shakespeare,,Sarah Werner,2001,1,Routledge,,144,0,English,195,,,"0415227291,9780415227292",,,,,822.3/3,PR3106 .W47 2001,,,OL3941106M,,0,,,,,1,1,1,535781,pdf,6C52663696C6CD94AC6372D56673D02B,,,"F:\\lib1\\0415227291,9780415227292,.pdf",0,2000-01-01 01:00:00,2016-04-03 02:51:08,390000/6c52663696c6cd94ac6372d56673d02b-d.jpg,,
19409061,Truth in Aquinas ,,Routledge Radical Orthodoxy,,"John Milbank, Catherine Pickstock",2000,1,Routledge,,144,0,English,195,,,"0415233356,9780415233354",,,,,,,,,OL7487652M,,0,,,,,1,1,1,1122286,pdf,7D34828220E514EADAE628A741EE4F04,,,"F:\\lib1\\0415233356,9780415233354,.pdf",0,2000-01-01 01:00:00,2016-04-03 02:51:08,390000/7d34828220e514eadae628a741ee4f04-d.jpg,,
19409062,Marxism and Realism: A Materialistic Application of Realism in the Social Sciences ,,Routledge Studies in Critical Realism,,Sean Creaven,2001,1,Routledge,,336,0,English,195,,,"0415236223,9780415236225",,,,,,,,,OL15513678M,,0,,,,,1,1,1,1158507,pdf,BBF6F8E97942568FD57337588407EA5B,,,"F:\\lib1\\0415236223,9780415236225,.pdf",0,2000-01-01 01:00:00,2016-04-03 02:51:08,390000/bbf6f8e97942568fd57337588407ea5b-d.jpg,,
19409063,"Philosophy, Literature and the Human Good",,,,Michael Weston,2001,,Routledge,,224,0,English,195,,,"0415243378,9780415243377",,,,,174/.98,PN49 .W44 2001,,,OL6790238M,,0,,,,,1,1,1,1031602,pdf,F37BEB794B3908F36FC8839BB042B22F,,,"F:\\lib1\\0415243378,9780415243377,.pdf",0,2000-01-01 01:00:00,2016-04-03 02:51:08,390000/f37beb794b3908f36fc8839bb042b22f-d.jpg,,
19409064,Cultural Studies: A Critical Introduction,,,,Simon During,2005,,Routledge,,256,0,English,195,,,"0415246563,9780415246569",,,,,306/.071,HM623 .D87 2005,,,OL3294669M,,0,,,,,1,1,1,1292491,pdf,601AB0A215E5E13E07E460BA5BCA59BE,,,"F:\\lib1\\0415246563,9780415246569,.pdf",0,2000-01-01 01:00:00,2016-04-03 02:51:08,390000/601ab0a215e5e13e07e460ba5bca59be-d.jpg,,
19409065,On Film ,,Thinking in Action,,Stephen Mulhall,2001,1,Routledge,,160,0,English,195,,,"0415247950,9780415247955",,,,,791.43/72,PN1997.A32253 M85 2002,,,OL22464520M,,0,,,,,1,1,1,515613,pdf,2D42DF8290232C48A19990398755B3AD,,,"F:\\lib1\\0415247950,9780415247955,.pdf",0,2000-01-01 01:00:00,2016-04-03 02:51:08,390000/2d42df8290232c48a19990398755b3ad-d.jpg,,
19409066,The Stars Down to Earth ,,Routledge Classics,,"Theodor Adorno, Stephen Crook",2001,2,Routledge,,248,0,English,38,,,"0415270995,9780415270991",,,,,,,,,OL7489401M,,0,,,,,1,1,1,916576,pdf,F5D85496335599DA86FB6ED48099CA89,,,"F:\\lib1\\0415270995,9780415270991,.pdf",0,2000-01-01 01:00:00,2016-04-03 02:51:08,390000/f5d85496335599da86fb6ed48099ca89-d.jpg,,
19409067,The Myths We Live By,,,,Mary Midgley,2003,1,Routledge,,208,0,English,195,,,"0415309069,9780415309066",,,,,191,BL304 .M53 2003,,,OL22530009M,,0,,,,,1,1,1,2326939,pdf,8B8FA5ACF91620B85235E594C331F493,,,"F:\\lib1\\0415309069,9780415309066,.pdf",0,2000-01-01 01:00:00,2016-04-03 02:51:08,390000/8b8fa5acf91620b85235e594c331f493-d.jpg,,
19409068,"E-Procurement : Grundlagen, Standards und Situation am Markt",,IT-Professional,,Patrick P Stoll,2007,1. Aufl,Vieweg,Wiesbaden,166,0,German,,usenet,to 2012-06,"3834802697,9783834802699",,,,,,,,,,,0,,,,,,,1,2903797,pdf,df727afebaeb5e7aeaf6a7f452bfebce,,,I:\\usenet_ger\\E-Procurement.[Springer].[2007].[l610u3].pdf,0,2000-01-01 01:00:00,2016-04-03 02:51:08,883000/df727afebaeb5e7aeaf6a7f452bfebce-d.jpg,,
19409069,Emmanuel Levinas Critical Assessments V1: Critical Assessments of Leading Philosophers,,,,Claire Elise Katz,2004,1,Routledge,,456,0,English,195,,,"0415310512,9780415310512",,,,,,,,,,,0,,,,,1,,0,64407277,pdf,73D94777FDB9F4592B1941301FEEABFE,,,"F:\\lib1\\0415310512,9780415310512,.pdf",0,2000-01-01 01:00:00,2016-04-03 02:51:08,390000/73d94777fdb9f4592b1941301feeabfe-g.jpg,,
19409070,White Mythologies,,,,Robert J.C. Young,2004,2,Routledge,,304,0,English,195,,,"0415311810,9780415311816",,,,,901,D16.8 . Y67 2004,,,OL22588271M,,0,,,,,1,1,1,2070280,pdf,8B96654AB2AEE22FCC78E7D48C35DA20,,,"F:\\lib1\\0415311810,9780415311816,.pdf",0,2000-01-01 01:00:00,2016-04-03 02:51:08,390000/8b96654ab2aee22fcc78e7d48c35da20-d.jpg,,
19409071,"The Obesity Epidemic: Science, Morality and Ideology",,,,"Michael Gard, Jan Wright",2005,New Ed,Routledge,,232,0,English,195,,,"0415318963,9780415318969",,,,,614.5/9398,RA645.O23 G37 2004,,,OL22622745M,,0,,,,,1,1,1,2400651,pdf,1E52471F77C20A6AA51F936917D53F64,,,"F:\\lib1\\0415318963,9780415318969,.pdf",0,2000-01-01 01:00:00,2016-04-03 02:51:08,390000/1e52471f77c20a6aa51f936917d53f64-d.jpg,,
19409072,Aristotle,,,,Sir David Ross,2004,6th,Routledge,,336,0,English,195,,,"0415328578,9780415328579",,,,,,,,,OL7491771M,,0,,,,,1,1,1,1606220,pdf,3D4D13DFEBCE4624AE20079BC6609292,,,"F:\\lib1\\0415328578,9780415328579,.pdf",0,2000-01-01 01:00:00,2016-04-03 02:51:08,390000/3d4d13dfebce4624ae20079bc6609292-d.jpg,,
19409073,Writing and Responsibility,,,,Carl Tighe,2005,New edition,Routledge,,177,0,English,195,,,"0415345634,9780415345637",,,,,801/.3,PN49 .T47 2005,,,OL22610594M,,0,,,,1,0,1,1,928487,pdf,8C895FE9093E99FFCC704D92D132B120,,,"F:\\lib1\\0415345634,9780415345637,.pdf",0,2000-01-01 01:00:00,2016-04-03 02:51:08,390000/8c895fe9093e99ffcc704d92d132b120-d.jpg,,
19409074,"Philosophy, God and Motion ",,Routledge Radical Orthodoxy,,Simon Oliver,2005,1,Routledge,,264,0,English,195,,,"0415360455,9780415360456",,,,,,,,,OL22717277M,,0,,,,,1,1,1,1130863,pdf,77ADFBE6B024A4ABBCF5A58CF0879D80,,,"F:\\lib1\\0415360455,9780415360456,.pdf",0,2000-01-01 01:00:00,2016-04-03 02:51:08,390000/77adfbe6b024a4abbcf5a58cf0879d80-d.jpg,,
19409075,Nietzsche and Islam ,,Routledge Advances in Middle East and Islamic Studies,,Roy Jackson,2007,1,Routledge,,208,0,English,195,,,"0415368553,9780415368551",,,,,,,,,OL22746435M,,0,,,,,1,1,1,1417391,pdf,383AE1C5DF3278DD09752FE63F95C3FE,,,"F:\\lib1\\0415368553,9780415368551,.pdf",0,2000-01-01 01:00:00,2016-04-03 02:51:08,390000/383ae1c5df3278dd09752fe63f95c3fe-d.jpg,,
19409076,Sufis in Western Society: Global networking and locality ,,Routledge Sufi Series,,"Markus Dressler, Ron Geaves, Gritt Klinkhammer",2009,1,Routledge,,224,0,English,99,,,"0415457114,9780415457118",,,,,297.409182/1,BP188.8.E9 S83 2008,,,OL10207461M,,0,,,,,1,1,1,2258470,pdf,61BC3DCD3FAFF7D5C252F3CB2147295E,,,"F:\\lib1\\0415457114,9780415457118,.pdf",0,2000-01-01 01:00:00,2016-04-03 02:51:08,390000/61bc3dcd3faff7d5c252f3cb2147295e-d.jpg,,
19409077,Suicide and Justice: A Chinese Perspective ,,Routledge Contemporary China Series,,Fei Wu,2009,1,Routledge,,240,0,English,195,,,"0415551714,9780415551717",,,,,362.280951,HV6548.C5 W77 2009,,,OL23203116M,,0,,,,,1,,1,1231346,pdf,EFC35CF930E7F2FC56ECED0BA65E36CB,,,"F:\\lib1\\0415551714,9780415551717,.pdf",0,2000-01-01 01:00:00,2016-04-03 02:51:08,390000/efc35cf930e7f2fc56eced0ba65e36cb-d.jpg,,
19409078,"Foucault, Levinas and the ethical embodied subject",,,,"Lok, Wing-Kai",2011,,Vrije Universiteit,Amsterdam,23,0,German,,usenet,to 2012-06,,,,,,,,,,,,0,,,,,,,0,2644212,pdf,fd81c505f7d6997f56ee4cc2c514b061,,,I:\\usenet_ger\\E-Lok .pdf,0,2000-01-01 01:00:00,2016-04-03 02:51:08,883000/fd81c505f7d6997f56ee4cc2c514b061-g.jpg,,
19409079,The Ethics of Aesthetics in Japanese Cinema and Literature: Polygraphic Desire ,,Routledge Contemporary Japan Series,,Nina Cornyetz,2007,1,Routledge,,240,0,English,60,,,"0415770874,9780415770873",,,,,,,,,OL22742470M,,0,,,,,1,1,1,1675946,pdf,15183BC0E1CEB19E92F88B42614967C2,,,"F:\\lib1\\0415770874,9780415770873,.pdf",0,2000-01-01 01:00:00,2016-04-03 02:51:08,390000/15183bc0e1ceb19e92f88b42614967c2-d.jpg,,
19409080,"Politics, Philosophy, Culture: Interviews and Other Writings, 1977-1984",,,,"Michel Foucault, Lawrence Kritzman",1990,Reprint,Routledge,,360,0,English,195,,,"0415901499,9780415901499",,,,,,,,,OL7495356M,,0,,,,,1,1,1,5611251,pdf,7F6F71160BA58DBFC50ECECA604B7197,,,"F:\\lib1\\0415901499,9780415901499,.pdf",0,2000-01-01 01:00:00,2016-04-03 02:51:08,390000/7f6f71160ba58dbfc50ececa604b7197-d.jpg,,
19409081,Excitable Speech: A Politics of the Performative,,,,Judith Butler,1997,1,Routledge,,200,0,English,195,,,"0415915880,9780415915885",,,,,302.2/242,P95.54 .B88 1997,,,OL21200483M,,0,,,,,,,1,5562035,pdf,F9AB9924AED2613683C04DAF199217EE,,,"F:\\lib1\\0415915880,9780415915885,.pdf",0,2000-01-01 01:00:00,2016-04-03 02:51:08,390000/f9ab9924aed2613683c04daf199217ee-d.jpg,,
19409082,Acts of Religion,,,,"Jacques Derrida, Gil Anidjar",2001,,Routledge,,416,0,English,205,,,"0415924014,9780415924016",,,,,210,,,,OL18179664M,,0,,,,,1,,1,6968222,pdf,38C55A75C23EBC360492A1710237C1A2,,,"F:\\lib1\\0415924014,9780415924016,.pdf",0,2000-01-01 01:00:00,2016-04-03 02:51:08,390000/38c55a75c23ebc360492a1710237c1a2-d.jpg,,
19409083,Existentia Africana: Understanding Africana Existential Thought ,,Africana Thought,,Lewis R. Gordon,2000,1,Routledge,,256,0,English,195,,,"0415926432,9780415926430",,,,,,,,,OL7496217M,,0,,,,,1,1,1,1026696,pdf,E9167AEB35392C7FA0A161A558616910,,,"F:\\lib1\\0415926432,9780415926430,.pdf",0,2000-01-01 01:00:00,2016-04-03 02:51:08,390000/e9167aeb35392c7fa0a161a558616910-d.jpg,,
19409084,"Pragmatism, Feminism, and Democracy: Rethinking the Politics of American History",,,,James Livingston,2001,1,Routledge,,224,0,English,64,,,"0415930294,9780415930291",,,,,973/.07/2,E661 .L78 2001,,,OL6796214M,,0,,,,,1,1,1,878186,pdf,3E85917188D688471020459A3C616FB7,,,"F:\\lib1\\0415930294,9780415930291,.pdf",0,2000-01-01 01:00:00,2016-04-03 02:51:08,390000/3e85917188d688471020459a3c616fb7-d.jpg,,
19409085,Simple Formal Logic: With Common-Sense Symbolic Techniques,,,,Arnold vander Nat,2009,1,Routledge,,358,0,English,130,,,"0415997453,9780415997454",,,,,160,BC71 .V36 2009,,,OL23015341M,,0,,,,1,0,1,1,2195791,pdf,F0599DF1AC5D45C08E0ADA91B66A87C9,,,"F:\\lib1\\0415997453,9780415997454,.pdf",0,2000-01-01 01:00:00,2016-04-03 02:51:08,390000/f0599df1ac5d45c08e0ada91b66a87c9-d.jpg,,
19409086,"The Ancient City: A Study of the Religion, Laws, and Institutions of Greece and Rome ",,"Dover Books on History, Political and Social Science",,"Numa Denis Fustel de Coulanges, Willard Small",2006,,Dover Publications,,400,0,English,313,,,"0486447308,9780486447308",,,,,938,JC51 .F89 2006,,,OL3429026M,,0,,,,,1,,1,1055449,pdf,3AB25CFE9B8AF2CDD1636ECFD9E380EA,,,"F:\\lib1\\0486447308,9780486447308,.pdf",0,2000-01-01 01:00:00,2016-04-03 02:51:08,390000/3ab25cfe9b8af2cdd1636ecfd9e380ea-d.jpg,,
19409087,Dao De Jing: The Book of the Way,,,,"Laozi, Laozi, Moss Roberts",2001,1,University of California Press,,149,0,English,195,,,"0520205553,9780520205550",,,,,,,,,OL17031186M,,0,,,,,1,1,1,1278829,pdf,DF5BA7E4E8F8C44C3A8DA8AB41FAFCE9,,,"F:\\lib1\\0520205553,9780520205550,.pdf",0,2000-01-01 01:00:00,2016-04-03 02:51:08,390000/df5ba7e4e8f8c44c3a8da8ab41fafce9-d.jpg,,
19409088,The Poethical Wager,,,,Joan Retallack,2003,1,University of California Press,,304,0,English,195,,,"0520218396,9780520218390",,,,,,,,,OL7710655M,,0,,,,,1,1,1,1963692,pdf,D4F46DFA04DDE025A608A3043A1A28C3,,,"F:\\lib1\\0520218396,9780520218390,.pdf",0,2000-01-01 01:00:00,2016-04-03 02:51:08,390000/d4f46dfa04dde025a608a3043a1a28c3-g.jpg,,
19409089,Branching Streams Flow in the Darkness: Zen Talks on the Sandokai,,,,"Shunryu Suzuki, Mel Weitsman, Michael Wenger",1999,1,University of California Press,,199,0,English,195,,,"0520219821,9780520219823",,,,,294.3/420427,BQ9268.S563 S89 1999,,,OL41598M,,0,,,,,1,1,1,3633204,pdf,22914A73502B39C8454748CC5F956F11,,,"F:\\lib1\\0520219821,9780520219823,.pdf",0,2000-01-01 01:00:00,2016-04-03 02:51:08,390000/22914a73502b39c8454748cc5f956f11-d.jpg,,
19409090,The Myth of the Noble Savage,,,,Ter Ellingson,2001,1,University of California Press,,504,0,English,195,,,"0520222687,9780520222687",,,,,,,,,OL9815203M,,0,,,,,1,1,1,3388184,pdf,FE65846D048FFD9C182FF3BD6AADEA1F,,,"F:\\lib1\\0520222687,9780520222687,.pdf",0,2000-01-01 01:00:00,2016-04-03 02:51:08,390000/fe65846d048ffd9c182ff3bd6aadea1f-g.jpg,,
19409091,Starting at Home: Caring and Social Policy,,,,Nel Noddings,2002,,University of California Press,,366,0,English,195,,,"0520225562,9780520225565",,,,,,,,,OL9813584M,,0,,,,,1,1,1,2335696,pdf,1E5E61D32BB10268BCC89229F2E51529,,,"F:\\lib1\\0520225562,9780520225565,.pdf",0,2000-01-01 01:00:00,2016-04-03 02:51:08,390000/1e5e61d32bb10268bcc89229f2e51529-g.jpg,,
19409092,Prematurity  in Scientific Discovery: On Resistance and Neglect,,,,Ernest B. Hook (ed.),2002,,University of California Press,,408,0,English,195,,0,"0520231066,9780520231061",,,,,,,,,,,0,,,,,1,,1,1958500,pdf,F4E53EAF5C2A3DF3A99CE7D3358412DE,,,"F:/lib1/0520231066,9780520231061,.pdf",0,2000-01-01 01:00:00,2016-04-03 02:51:08,390000/f4e53eaf5c2a3df3a99ce7d3358412de-d.jpg,,
19409093,Plato's Natural Philosophy: A Study of the Timaeus-Critias,,,,Thomas Kjeller Johansen,2008,1,Cambridge University Press,,228,0,English,195,,,"0521067480,9780521067485",,,,,,,,,,,0,,,,,1,,1,701381,pdf,DB77590743CDF89B4386492F0776379E,,,"F:\\lib1\\0521067480,9780521067485,.pdf",0,2000-01-01 01:00:00,2016-04-03 02:51:08,390000/db77590743cdf89b4386492f0776379e-d.jpg,,
19409094,Socrates,,,,W. K. C. Guthrie,1972,,Cambridge University Press,,212,0,English,195,,,"0521096677,9780521096676",,,,,183/.2,B317 .G779,,,OL17134881M,,0,,,,,1,,0,10973873,pdf,91F3A6B869A8E09440D63BFED06C1F65,,,"F:\\lib1\\0521096677,9780521096676,.pdf",0,2000-01-01 01:00:00,2016-04-03 02:51:08,390000/91f3a6b869a8e09440d63bfed06c1f65-d.jpg,,
19409095,Hegel's Theory of the Modern State ,,Cambridge Studies in the History and Theory of Politics,,Shlomo Avineri,1974,,Cambridge University Press,,268,0,English,195,,,"0521098327,9780521098328",,,,,,,,,OL18378081M,,0,,,,,1,,1,6108119,pdf,DA5BF3D3598368CE9F0D8B7855638F71,,,"F:\\lib1\\0521098327,9780521098328,.pdf",0,2000-01-01 01:00:00,2016-04-03 02:51:08,390000/da5bf3d3598368ce9f0d8b7855638f71-d.jpg,,
19409096,Socrates: Ironist and Moral Philosopher,,,,Gregory Vlastos,1991,,Cambridge University Press,,346,0,English,195,,,"0521307333,9780521307338",,,,,183.2,B316,,,OL16222526M,,0,,,,,1,1,0,8334393,pdf,2D09F2477960EC71FC5CA320EAC9CFF1,,,"F:\\lib1\\0521307333,9780521307338,.pdf",0,2000-01-01 01:00:00,2016-04-03 02:51:08,390000/2d09f2477960ec71fc5ca320eac9cff1-g.jpg,,
19409097,E-Commerce-Geschäftsmodelle im deutschen Tourismusmarkt,,Gabler Edition Wissenschaft : Schriften zum europäischen Management,,Philipp Wohland,2008,,Gabler,Wiesbaden,463,0,German,,usenet,to 2012-06,"9783834910394,3834910392",,,,,,,,,,,0,,,,,,,1,3416832,pdf,1cf5fa589582d7e16d7cce8c5ed0e5fb,,,I:\\usenet_ger\\E-Commerce-Geschaeftsmodelle.im.deutschen.Tourismusmarkt.[Springer].[2008].[gv0325].pdf,0,2000-01-01 01:00:00,2016-04-03 02:51:08,883000/1cf5fa589582d7e16d7cce8c5ed0e5fb-d.jpg,,
19409098,Kant and the Claims of Knowledge,,,,Paul Guyer,1987,,Cambridge University Press,,500,0,English,195,,,"0521337720,9780521337724",,,,,121/.092/4,B2799.K7 G88 1987,,,OL2372843M,,0,,,,,1,1,0,29511201,pdf,A234CA0379F175D224E327ED8EF076E4,,,"F:\\lib1\\0521337720,9780521337724,.pdf",0,2000-01-01 01:00:00,2016-04-03 02:51:08,390000/a234ca0379f175d224e327ed8ef076e4-d.jpg,,
19409099,Hegel: Elements of the Philosophy of Right ,,Cambridge Texts in the History of Political Thought,,"Georg Wilhelm Fredrich Hegel, Allen W. Wood, H. B. Nisbet",1991,,Cambridge University Press,,566,0,English,195,,,"0521348889,9780521348881",,,,,,,,,OL21500548M,,0,,,,,1,,1,12473877,pdf,EBDE11F19AE509AE47257F3895F85E4E,,,"F:\\lib1\\0521348889,9780521348881,.pdf",0,2000-01-01 01:00:00,2016-04-03 02:51:08,390000/ebde11f19ae509ae47257f3895f85e4e-d.jpg,,
19409100,Moral Realism and the Foundations of Ethics ,,Cambridge Studies in Philosophy,,David Owen Brink,1989,,Cambridge University Press,,353,0,English,195,,,"0521350808,9780521350808",,,,,170,BJ1012 .B676 1989,,,OL2039665M,,0,,,,0,1,,1,17585101,pdf,A7AD5FD563287BEBA018449D82576F92,,,"F:\\lib1\\0521350808,9780521350808,.pdf",0,2000-01-01 01:00:00,2016-04-03 02:51:08,390000/a7ad5fd563287beba018449d82576f92-d.jpg,,
19409101,Public Philosophy in a New Key: Imperialism and Civic Freedom ,Volume 2,Ideas in Context,,James Tully,2009,1,Cambridge University Press,,382,0,English,195,,,"0521449669,9780521449663",,,,,323.601,JF801 .T85 2008,,,OL23393046M,,0,,,,,1,1,1,2132128,pdf,6BACD926A0C889D6D114F6F46322C40F,,,"F:\\lib1\\0521449669,9780521449663,.pdf",0,2000-01-01 01:00:00,2016-04-03 02:51:08,390000/6bacd926a0c889d6d114f6f46322c40f-d.jpg,,
19409102,Performance and Authenticity in the Arts ,,Cambridge Studies in Philosophy and the Arts,,"Salim Kemal, Ivan Gaskell",2000,,Cambridge University Press,,284,0,English,195,,,"0521454190,9780521454193",,,,,700/.1,NX212 .P45 1999,,,OL23241205M,,0,,,,,1,,1,1162893,pdf,23948599707751D406F7A783BB433BF4,,,"F:\\lib1\\0521454190,9780521454193,.pdf",0,2000-01-01 01:00:00,2016-04-03 02:51:08,390000/23948599707751d406f7a783bb433bf4-d.jpg,,
19409103,Kant and the Mind,,,,Andrew Brook,1997,,Cambridge University Press,,344,0,English,195,,,"0521574412,9780521574419",,,,,,,,,OL7746904M,,0,,,,,1,1,1,15538814,pdf,57F3D15527F0E22FED52A1D5E842B30D,,,"F:\\lib1\\0521574412,9780521574419,.pdf",0,2000-01-01 01:00:00,2016-04-03 02:51:08,390000/57f3d15527f0e22fed52a1d5e842b30d-d.gif,,
19409104,The Development of Durkheim's Social Realism,,Ideas in Context,,Robert Alun Jones,1999,1st,Cambridge University Press,,340,0,English,195,,0,"0521650453,9780521650458",,,,,,,,,,,0,,,,,1,1,1,1337969,pdf,B037F6FE5E2981D71279B800A3FB09FF,,,"F:/lib1/0521650453,9780521650458,.pdf",0,2000-01-01 01:00:00,2016-04-03 02:51:08,390000/b037f6fe5e2981d71279b800a3fb09ff-d.jpg,,
19409105,The Cambridge Introduction to Jacques Derrida ,,Cambridge Introductions to Literature,,Leslie Hill,2007,1,Cambridge University Press,,154,0,English,195,,,"0521682819,9780521682817",,,,,,,,,OL10436333M,,0,,,,,1,,1,528986,pdf,DA37D09132189390A0B78628F347F2EF,,,"F:\\lib1\\0521682819,9780521682817,.pdf",0,2000-01-01 01:00:00,2016-04-03 02:51:08,390000/da37d09132189390a0b78628f347f2ef-d.jpg,,
19409106,The Mechanical Hypothesis in Ancient Greek Natural Philosophy,,,,Sylvia Berryman,2009,1,Cambridge University Press,,296,0,English,64,,,"0521763762,9780521763769",,,,,180,B185 .B47 2009,,,OL23862900M,,0,,,,,1,,1,1838242,pdf,69B814653BBAE74D05A96FB0EAACC149,,,"F:\\lib1\\0521763762,9780521763769,.pdf",0,2000-01-01 01:00:00,2016-04-03 02:51:08,390000/69b814653bbae74d05a96fb0eaacc149-d.jpg,,
19409107,"Confucian Ethics: A Comparative Study of Self, Autonomy, and Community",,,,"Kwong-Loi Shun, David B. Wong",2004,,Cambridge University Press,,238,0,English,195,,,"0521792177,9780521792172",,,,,170/.951,BL1853 .C66 2004,,,OL3301486M,,0,,,,,0,,1,948100,pdf,AAE78D8990FBF550B6259AF3253254E8,,,"F:\\lib1\\0521792177,9780521792172,.pdf",0,2000-01-01 01:00:00,2016-04-03 02:51:08,390000/aae78d8990fbf550b6259af3253254e8-d.jpg,,
19409108,Life's Solution: Inevitable Humans in a Lonely Universe,,,,Simon Conway Morris,2003,First Edition,Cambridge University Press,,464,0,English,195,,,"0521827043,9780521827041",,,,,576.8/01,QH360.5 .C66 2003,,,OL17722813M,,0,,,,1,0,1,1,7801159,pdf,1EA5B84ADD500A7F20EBE41909A77495,,,"F:\\lib1\\0521827043,9780521827041,.pdf",0,2000-01-01 01:00:00,2016-04-03 02:51:08,390000/1ea5b84add500a7f20ebe41909a77495-d.jpg,,
19409109,Leibniz and China: A Commerce of Light,,,,Franklin Perkins,2004,,Cambridge University Press,,242,0,English,195,,,"0521830249,9780521830249",,,,,,,,,OL22576609M,,0,,,,,1,,1,1213957,pdf,714C21EB77B595EF583F926FC64E083A,,,"F:\\lib1\\0521830249,9780521830249,.pdf",0,2000-01-01 01:00:00,2016-04-03 02:51:08,390000/714c21eb77b595ef583f926fc64e083a-d.jpg,,
19409110,Dynamisches Benchmarking : ein Verfahren auf Basis der Data-envelopment-Analysis,,Gabler Edition Wissenschaft,,Robert Wilken,2007,,Dt. Univ.-Verl,Wiesbaden,246,0,German,,usenet,to 2012-06,"9783835007468,3835007467",,,,,,,,,,,0,,,,,,,1,2112902,pdf,f807082543c23fba4ee9e0caa96f1ec3,,,I:\\usenet_ger\\Dynamisches.Benchmarking.[Springer].[2007].[m077k4].pdf,0,2000-01-01 01:00:00,2016-04-03 02:51:08,883000/f807082543c23fba4ee9e0caa96f1ec3-d.jpg,,
19409111,"Archytas of Tarentum: Pythagorean, Philosopher and Mathematician King",,,,Carl Huffman,2005,,Cambridge University Press,,682,0,English,113,,,"0521837464,9780521837460",,,,,,,,,OL22623919M,,0,,,,,1,1,1,2726139,pdf,0844354D77AB3C2DC1FFFA993EA52721,,,"F:\\lib1\\0521837464,9780521837460,.pdf",0,2000-01-01 01:00:00,2016-04-03 02:51:08,390000/0844354d77ab3c2dc1fffa993ea52721-d.jpg,,
19409112,Foucault on Freedom ,,Modern European Philosophy,,Johanna Oksala,2005,,Cambridge University Press,,238,0,English,195,,,"0521847796,9780521847797",,,,,123/.5/092,B2430.F724 O435 2005,,,OL22625383M,,0,,,,,1,,1,575009,pdf,69EE42275A4E4E1B71E3BCB817C78AEF,,,"F:\\lib1\\0521847796,9780521847797,.pdf",0,2000-01-01 01:00:00,2016-04-03 02:51:08,390000/69ee42275a4e4e1b71e3bcb817c78aef-d.jpg,,
19409113,Newton as Philosopher,,,,Andrew Janiak,2008,1,Cambridge University Press,,208,0,English,195,,,"0521862868,9780521862868",,,,,192,B1299.N34 J36 2008,,,OL10437584M,,0,,,,,1,1,1,1065067,pdf,1CF1311EBC6108BDA2444E39A14FE61C,,,"F:\\lib1\\0521862868,9780521862868,.pdf",0,2000-01-01 01:00:00,2016-04-03 02:51:08,390000/1cf1311ebc6108bda2444e39a14fe61c-d.jpg,,
19409114,"John Searle's Philosophy of Language: Force, Meaning and Mind",,,,Savas L. Tsohatzidis,2007,1,Cambridge University Press,,312,0,English,195,,,"0521866278,9780521866279",,,,,,,,,OL10437701M,,0,,,,,1,,1,1996864,pdf,A93DDD2E3106C46F9DD7C5A5B2C3693C,,,"F:\\lib1\\0521866278,9780521866279,.pdf",0,2000-01-01 01:00:00,2016-04-03 02:51:08,390000/a93ddd2e3106c46f9dd7c5a5b2c3693c-d.jpg,,
19409115,The OECD Convention on Bribery: A Commentary,,,,"Mark Pieth, Lucinda A. Low, Peter J. Cullen",2007,,Cambridge University Press,,652,0,English,195,,,"0521868173,9780521868174",,,,,,,,,OL22750734M,,0,,,,,1,,1,4590902,pdf,385DED89030C80D7272A8DFC7D5EFA1F,,,"F:\\lib1\\0521868173,9780521868174,.pdf",0,2000-01-01 01:00:00,2016-04-03 02:51:08,390000/385ded89030c80d7272a8dfc7d5efa1f-d.jpg,,
19409116,"Democracy and the Politics of the Extraordinary: Max Weber, Carl Schmitt, and Hannah Arendt",,,,Andreas Kalyvas,2008,,Cambridge University Press,,336,0,English,100,,,"0521877687,9780521877688",,,,,321.8,JC421 .K35 2008,,,OL23156347M,,0,,,,,1,1,1,2121675,pdf,C21C70C8F4B1E7656C865F8B2CA0D850,,,"F:\\lib1\\0521877687,9780521877688,.pdf",0,2000-01-01 01:00:00,2016-04-03 02:51:08,390000/c21c70c8f4b1e7656c865f8b2ca0d850-d.jpg,,
19409117,The Feminine Matrix of Sex and Gender in Classical Athens,,,,Kate Gilhuly,2008,1,Cambridge University Press,,220,0,English,115,,,"0521899982,9780521899987",,,,,880.9/3522,PA3015.W65 G54 2009,,,OL16443438M,,0,,,,,1,1,1,1023387,pdf,F2DCC200FFC337338514005757283D76,,,"F:\\lib1\\0521899982,9780521899987,.pdf",0,2000-01-01 01:00:00,2016-04-03 02:51:08,390000/f2dcc200ffc337338514005757283d76-d.jpg,,
19409118,On Mill ,,Wadsworth Philosophers Series,,Susan Leigh(Susan Leigh Anderson) Anderson,1999,1,Wadsworth Publishing,,96,0,English,195,,,"0534576001,9780534576004",,,,,192,B1607 .A53 2000,,,OL6805318M,,0,,,,,1,,1,1181094,pdf,D130A8324B6949307429FFC03BA87E20,,,"F:\\lib1\\0534576001,9780534576004,.pdf",0,2000-01-01 01:00:00,2016-04-03 02:51:08,390000/d130a8324b6949307429ffc03ba87e20-d.jpg,,
19409119,On Ethics and Economics,,,,Amartya Sen,1991,,Wiley-Blackwell,,148,0,English,305,,,"0631164014,9780631164012",,,,,174.4,,,,OL19143473M,,0,,,,,1,,1,16113576,pdf,D9BD333BAD7CC313A0F284348EFBD8F3,,,"F:\\lib1\\0631164014,9780631164012,.pdf",0,2000-01-01 01:00:00,2016-04-03 02:51:08,390000/d9bd333bad7cc313a0f284348efbd8f3-d.jpg,,
19409120,The Hegel Reader ,,Blackwell Readers,,Stephen Houlgate,1998,,Wiley-Blackwell,,568,0,English,195,,,"0631203478,9780631203476",,,,,193,B2908 .H68 1998,,,OL693977M,,0,,,,,1,,1,9537266,pdf,A3DF48D7258EB2F771DD7E2E8E288A70,,,"F:\\lib1\\0631203478,9780631203476,.pdf",0,2000-01-01 01:00:00,2016-04-03 02:51:08,390000/a3df48d7258eb2f771dd7e2e8e288a70-d.jpg,,
19409121,Continental Philosophy of Science ,,Blackwell Readings in Continental Philosophy,,Gary Gutting,2005,,Wiley-Blackwell,,344,0,English,181,,,"0631236104,9780631236108",,,,,501,Q175 .C6936 2005,,,OL3295059M,,0,,,,,1,1,1,1406349,pdf,DD7E3165D2249E73DB129415039A7E8C,,,"F:\\lib1\\0631236104,9780631236108,.pdf",0,2000-01-01 01:00:00,2016-04-03 02:51:08,390000/dd7e3165d2249e73db129415039a7e8c-d.jpg,,
19409122,Frantz Fanon ,,Modern Masters,,David Caute,1970,,Penguin (Non-Classics),,116,0,English,195,,,"0670019046,9780670019045",,,,,"818/.603,B",BF575.A5 Z35 2010,,,OL24080467M,,0,,,,,1,,0,8503225,pdf,A833E1D0A90280BEEF33336053C5141A,,,"F:\\lib1\\0670019046,9780670019045,.pdf",0,2000-01-01 01:00:00,2016-04-03 02:51:08,390000/a833e1d0a90280beef33336053c5141a-g.jpg,,
19409123,The Mystery of Courage,,,,William Ian Miller,2000,,Harvard University Press,,384,0,English,195,,,"0674003071,9780674003071",,,,,179/.6,BF575.C8 M55 2000,,,OL6781695M,,0,,,,1,0,1,1,1171728,pdf,6578A4C63758A2E46B580AB7235A09D5,,,"F:\\lib1\\0674003071,9780674003071,.pdf",0,2000-01-01 01:00:00,2016-04-03 02:51:08,390000/6578a4c63758a2e46b580ab7235a09d5-d.jpg,,
19409124,Hierarchy in the Forest: The Evolution of Egalitarian Behavior,,,,Christopher Boehm,2001,,Harvard University Press,,304,0,English,195,,,"0674006917,9780674006911",,,,,,,,,OL7670624M,,0,,,,1,0,1,1,1020009,pdf,95F48B9EFEF92D20F20090BBD3E670CB,,,"F:\\lib1\\0674006917,9780674006911,.pdf",0,2000-01-01 01:00:00,2016-04-03 02:51:08,390000/95f48b9efef92d20f20090bbd3e670cb-d.jpg,,
19409125,J  J Rousseau: An Afterlife of Words,,,,Eli Friedlander,2004,,Harvard University Press,,176,0,English,195,,,"0674015142,9780674015142",,,,,848/.509,PQ2040.R53 F75 2004,,,OL22609098M,,0,,,,1,0,1,1,588147,pdf,F7F8BF3FA15A31F1B367C96053C6471A,,,"F:\\lib1\\0674015142,9780674015142,.pdf",0,2000-01-01 01:00:00,2016-04-03 02:51:08,390000/f7f8bf3fa15a31f1b367c96053c6471a-d.jpg,,
19409126,Truth & Predication,,,,"Donald Davidson, Kevin Sharpe",2005,,Belknap Press,,192,0,English,195,,,"0674015258,9780674015258",,,,,,,,,OL18224976M,,0,,,,1,0,1,1,595680,pdf,6387A59ACAD664495C5E59B9766B76AD,,,"F:\\lib1\\0674015258,9780674015258,.pdf",0,2000-01-01 01:00:00,2016-04-03 02:51:08,390000/6387a59acad664495c5e59b9766b76ad-d.jpg,,
19409127,The Anatomy of Disgust,,,,William Ian Miller,1998,,Harvard University Press,,336,0,English,148,,,"0674031555,9780674031555",,,,,,,,,,,0,,,,,1,1,1,5028488,pdf,27F7A13CA0367EB826AB9E5805961A6F,,,"F:\\lib1\\0674031555,9780674031555,.pdf",0,2000-01-01 01:00:00,2016-04-03 02:51:08,390000/27f7a13ca0367eb826ab9e5805961a6f-d.jpg,,
19409128,Commonwealth,,,,"Michael Hardt, Antonio Negri",2009,1,Belknap Press of Harvard University Press,,226,0,English,195,,,"0674035119,9780674035119",,,,,321.02,JZ1318 .H368 2009,,,OL23207424M,"Missing pp. 132-133, 350-351.",0,,,,,1,,1,7597463,pdf,57DA9044690CFC4CE5C9A913423634C0,,,"F:\\lib1\\0674035119,9780674035119,.pdf",0,2000-01-01 01:00:00,2016-04-03 02:51:08,390000/57da9044690cfc4ce5c9a913423634c0-d.jpg,,
19409129,Dynamisches Automobilmanagement : Strategien für Hersteller und Zulieferer im internationalen Wettbewerb,,,,Heike Proff; Harald Victor Proff,2008,,Gabler,Wiesbaden,288,0,German,,usenet,to 2012-06,"9783834981530,3834981532,9783834906434,3834906433",,,,,,,,,,,0,,,,,,,1,4479803,pdf,8218639d2b61e35fa282894cb70599c1,,,I:\\usenet_ger\\Dynamisches.Automobilmanagement.[Springer].[2008].[k70868].pdf,0,2000-01-01 01:00:00,2016-04-03 02:51:08,883000/8218639d2b61e35fa282894cb70599c1-g.jpg,,
19409130,The Ethics of Authenticity,,,,Charles Taylor,1991,1,Harvard University Press,,154,0,English,195,,,"0674268636,9780674268630",,,,,320/.01,BF637.S4 T39 1992,,f11Q-RNvmSEC,OL1707673M,,0,,,,0,0,,1,4868547,pdf,7C31067F2CA96B8CB3F8661CA680B656,,,"F:\\lib1\\0674268636,9780674268630,.pdf",0,2000-01-01 01:00:00,2016-04-03 02:51:08,390000/7c31067f2ca96b8cb3f8661ca680b656-d.jpg,,
19409131,Free to Lose: An Introduction to Marxist Economic Philosophy,,,,John E. Roemer,1988,,Harvard University Press,,216,0,English,305,,,"0674318765,9780674318762",,,,,335.4/12,HB97.5,,,OL22301364M,,0,,,,,1,1,1,11906605,pdf,316F9E8595DE0BCC984D49F25084B2CA,,,"F:\\lib1\\0674318765,9780674318762,.pdf",0,2000-01-01 01:00:00,2016-04-03 02:51:08,390000/316f9e8595de0bcc984d49f25084b2ca-d.jpg,,
19409132,From Stimulus to Science,,,,W. V. Quine,1998,,Harvard University Press,,124,0,English,181,,,"0674326369,9780674326361",,,,,,,,,OL7692577M,,0,,,,1,0,1,1,386408,pdf,CD0355BBD883623955E1A974C41FCE3A,,,"F:\\lib1\\0674326369,9780674326361,.pdf",0,2000-01-01 01:00:00,2016-04-03 02:51:08,390000/cd0355bbd883623955e1a974c41fce3a-d.jpg,,
19409133,Mesmerism and the End of the Enlightenment in France,,,,Robert Darnton,1986,,Harvard University Press,,232,0,English,195,,,"0674569512,9780674569515",,,,,,,,,OL7693058M,,0,,,,,1,1,1,9697190,pdf,177A066D01C118E7A4869CAE18E5E455,,,"F:\\lib1\\0674569512,9780674569515,.pdf",0,2000-01-01 01:00:00,2016-04-03 02:51:08,390000/177a066d01c118e7a4869cae18e5e455-d.jpg,,
19409134,A Progress of Sentiments: Reflections on Hume's Treatise,,,,Annette C. Baier,1991,,Harvard University Press,,352,0,English,195,,,"0674713869,9780674713864",,,,,,,,,,,0,,,,,1,1,1,18040591,pdf,00D6DE4BE107AB5804AEB992F4CD3C9C,,,"F:\\lib1\\0674713869,9780674713864,.pdf",0,2000-01-01 01:00:00,2016-04-03 02:51:08,390000/00d6de4be107ab5804aeb992f4cd3c9c-d.jpg,,
19409135,Utopian Thought in the Western World ,,Belknap Press,,"Frank E. Manuel, Fritzie P. Manuel",1979,,Belknap Press of Harvard University Press,,912,0,English,195,,,"0674931858,9780674931855",,,,,335/.02,HX806 .M33,,,OL21310150M,,0,,,,,1,1,1,20817090,pdf,CCC3C3B3AEDEA86F49097318889A4BDE,,,"F:\\lib1\\0674931858,9780674931855,.pdf",0,2000-01-01 01:00:00,2016-04-03 02:51:08,390000/ccc3c3b3aedea86f49097318889a4bde-d.jpg,,
19409136,You Can Soar Like an Eagle,,,,Nell W. Mohney,2004,,Dimensions for Living,,134,0,English,195,,,"0687044693,9780687044696",,,,,,,,,OL11141865M,,0,,,,,1,1,1,405791,pdf,02B57238E57027B7DE0FA64CB0753753,,,"F:\\lib1\\0687044693,9780687044696,.pdf",0,2000-01-01 01:00:00,2016-04-03 02:51:08,390000/02b57238e57027b7de0fa64cb0753753-d.jpg,,
19409137,"Kant and the Capacity to Judge: Sensibility and Discursivity in the Transcendental Analytic of the \Critique of Pure Reason\""""",,,,Beatrice Longuenesse,2001,,Princeton University Press,,440,0,English,195,,0,"0691074518,9780691074511",,,,,,,,,OL18917792M,,0,,,,,1,,1,25020749,pdf,3A3ECEDD61ECA3EB22992809A5648794,,,"F:/lib1/0691074518,9780691074511,.pdf",0,2000-01-01 01:00:00,2016-04-03 02:51:08,390000/3a3ecedd61eca3eb22992809a5648794-d.jpg,,
19409138,The Lockean Theory of Rights,,,,A. John Simmons,1992,,Princeton University Press,,400,0,English,195,,,"0691086303,9780691086309",,,,,323/.01,JC153.L87 S56 1992,,,OL1556344M,,0,,,,,1,,0,15412833,pdf,52532D2D2A00EBEA15BFFC0FA20F5BD4,,,"F:\\lib1\\0691086303,9780691086309,.pdf",0,2000-01-01 01:00:00,2016-04-03 02:51:08,390000/52532d2d2a00ebea15bffc0fa20f5bd4-d.gif,,
19409139,The Cultural Contradictions of Democracy: Political Thought since September 11,,,,John Brenkman,2007,,Princeton University Press,,218,0,English,195,,,"0691116644,9780691116648",,,,,,,,,OL22758202M,,0,,,,,1,1,1,763158,pdf,4930662A37E7E7E424C34B552B3A98E7,,,"F:\\lib1\\0691116644,9780691116648,.pdf",0,2000-01-01 01:00:00,2016-04-03 02:51:08,390000/4930662a37e7e7e424c34b552b3a98e7-d.jpg,,
19409140,A Philosophy of Culture: The Scope of Holistic Pragmatism,,,,Morton White,2005,,Princeton University Press,,216,0,English,195,,,"0691123985,9780691123981",,,,,144/.3,B945.W453 P48 2002,,,OL20024819M,,0,,,,,1,1,1,652773,pdf,D8F04E928FB0908F57691B5BD10F34AE,,,"F:\\lib1\\0691123985,9780691123981,.pdf",0,2000-01-01 01:00:00,2016-04-03 02:51:08,390000/d8f04e928fb0908f57691b5bd10f34ae-d.jpg,,
19409141,"Law, Politics, and Morality in Judaism ",,Ethikon Series in Comparative Ethics,,Michael Walzer,2006,,Princeton University Press,,224,0,English,313,,,"0691125082,9780691125084",,,,,296.3/6,KBM524.14 .L39 2006,,,OL22731726M,,0,,,,,1,1,1,909267,pdf,35EC570E7CACC42FFBD0A5B4F5CB2D2D,,,"F:\\lib1\\0691125082,9780691125084,.pdf",0,2000-01-01 01:00:00,2016-04-03 02:51:08,390000/35ec570e7cacc42ffbd0a5b4f5cb2d2d-d.jpg,,
19409142,Double Vision: Moral Philosophy and Shakespearean Drama,,,,Tzachi Zamir,2007,,Princeton University Press,,251,0,English,195,,,"0691125635,9780691125633",,,,,822.3´3,PR3001.Z36 2007,,T2kDG3DVk0EC,OL17209505M,,0,,,,1,0,1,1,813791,pdf,89904897499EC4B532FD85A252A60984,,,"F:\\lib1\\0691125635,9780691125633,.pdf",0,2000-01-01 01:00:00,2016-04-03 02:51:08,390000/89904897499ec4b532fd85a252a60984-d.jpg,,
19409143,Dynamische Strategien : Vorsprung im internationalen Wettbewerbsprozess,,Lehrbuch,,Heike Proff,2007,1. Aufl,Gabler,Wiesbaden,256,0,German,,usenet,to 2012-06,"9783834905178,3834905178",,,,,,,,,,,0,,,,,,,1,5997529,pdf,989926da83d87b8cfb5fbbaaea28a66a,,,I:\\usenet_ger\\Dynamische.Strategien.[Springer].[2007].[r4n792].pdf,0,2000-01-01 01:00:00,2016-04-03 02:51:08,883000/989926da83d87b8cfb5fbbaaea28a66a-d.jpg,,
19409144,Concealment and Revelation: Esotericism in Jewish Thought and its Philosophical Implications,,,,"Moshe Halbertal, Jackie Feldman",2007,,Princeton University Press,,215,0,English,195,,,"0691125716,9780691125718",,,,,296.7/12,BM526 .H34513 2007,,,OL17564655M,,0,,,,1,1,1,1,589010,pdf,EE530848572998625DF6FBF398C4D77F,,,"F:\\lib1\\0691125716,9780691125718,.pdf",0,2000-01-01 01:00:00,2016-04-03 02:51:08,390000/ee530848572998625df6fbf398c4d77f-d.jpg,,
19409145,The Reasons of Love,,,,Harry G. Frankfurt,2006,,Princeton University Press,,112,0,English,195,,,"0691126240,9780691126241",,,,,,,,,OL7759185M,,0,,,,,1,,1,2534212,pdf,0546F41C200A25B69FE8FEB45A462CD3,,,"F:\\lib1\\0691126240,9780691126241,.pdf",0,2000-01-01 01:00:00,2016-04-03 02:51:08,390000/0546f41c200a25b69fe8feb45a462cd3-d.jpg,,
19409146,"Happy Lives and the Highest Good: An Essay on Aristotle's \Nicomachean Ethics\""""",,,,Gabriel Richardson Lear,2005,,Princeton University Press,,256,0,English,195,,,"0691126267,9780691126265",,,,,,,,,OL7759187M,,0,,,,,1,1,1,951885,pdf,48A3E589BA6161092CDD564451C6C589,,,"F:\\lib1\\0691126267,9780691126265,.pdf",0,2000-01-01 01:00:00,2016-04-03 02:51:08,390000/48a3e589ba6161092cdd564451c6c589-d.jpg,,
19409147,Politics and Vision: Continuity and Innovation in Western Political Thought,,,,Sheldon S. Wolin,2006,Expanded,Princeton University Press,,784,0,English,195,,,"0691126275,9780691126272",,,,,,,,,OL7759188M,,0,,,,,1,1,1,4864519,pdf,E1739FEAAD6C6EFA454C174E8FD42041,,,"F:\\lib1\\0691126275,9780691126272,.pdf",0,2000-01-01 01:00:00,2016-04-03 02:51:08,390000/e1739feaad6c6efa454c174e8fd42041-d.jpg,,
19409148,"Political Hypocrisy: The Mask of Power, from Hobbes to Orwell and Beyond",,,,David Runciman,2008,,Princeton University Press,,287,0,English,41,,,"0691129312,9780691129310",,,,,,,,,OL11182901M,,0,,,,1,0,1,1,935865,pdf,FECBD3D4B8857259024C0BAE04591CE9,,,"F:\\lib1\\0691129312,9780691129310,.pdf",0,2000-01-01 01:00:00,2016-04-03 02:51:08,390000/fecbd3d4b8857259024c0bae04591ce9-d.jpg,,
19409149,Do Economists Make Markets?: On the Performativity of Economics,,,,"Donald MacKenzie, Fabian Muniesa, Lucia Siu",2007,,Princeton University Press,,392,0,English,305,,,"0691130167,9780691130163",,,,,,,,,OL17246489M,,0,,,,,1,,1,21163779,pdf,BD9E950EAB0D4D9A71915D3983F5C002,,,"F:\\lib1\\0691130167,9780691130163,.pdf",0,2000-01-01 01:00:00,2016-04-03 02:51:08,390000/bd9e950eab0d4d9a71915d3983f5c002-d.jpg,,
19409150,Cunning,,,,Don Herzog,2008,,Princeton University Press,,208,0,English,195,,,"0691136343,9780691136349",,,,,,,,,,,0,,,,,1,1,1,977439,pdf,C9119AD8BAEB998348CBFD607DF07823,,,"F:\\lib1\\0691136343,9780691136349,.pdf",0,2000-01-01 01:00:00,2016-04-03 02:51:08,390000/c9119ad8baeb998348cbfd607df07823-d.jpg,,
19409151,Freedom and Its Betrayal,,,,Isaiah Berlin,2002,,Chatto Bodley Head & Cape,,208,0,English,195,,,"0701172975,9780701172978",,,,,,,,,OL7764588M,,0,,,,,1,,1,28285199,pdf,481313B21BF68F1F8638717B16F0A54E,,,"F:\\lib1\\0701172975,9780701172978,.pdf",0,2000-01-01 01:00:00,2016-04-03 02:51:08,390000/481313b21bf68f1f8638717b16f0a54e-d.jpg,,
19409152,Deleuze and Guattari: Aesthetics and Politics ,,University of Wales Press - Political Philosophy Now,,Robert Porter,2009,,University of Wales Press,,148,0,English,195,,,"0708321593,9780708321591",,,,,,,,uFldPgAACAAJ,,,0,,,,1,1,1,1,708894,pdf,D496B7560853BC3CBB12A0895E0ACE8F,,,"F:\\lib1\\0708321593,9780708321591,.pdf",0,2000-01-01 01:00:00,2016-04-03 02:51:08,390000/d496b7560853bc3cbb12a0895e0ace8f-d.jpg,,
19409153,Blue of Noon,,,,Georges Bataille,2000,,Marion Boyars Publishers Ltd,,162,0,English,195,,,"0714526835,9780714526836",,,,,843/.912,PQ2603.A695 B5513 1986,,,OL22899688M,,0,,,,,1,,1,1587213,pdf,86D489C29783191E1F361E9A4E4874A7,,,"F:\\lib1\\0714526835,9780714526836,.pdf",0,2000-01-01 01:00:00,2016-04-03 02:51:08,390000/86d489c29783191e1f361e9a4e4874a7-d.jpg,,
19409154,From Bakunin to Lacan: Anti-authoritarianism and the Dislocation of Power,,,,"Saul Newman, Ernesto Laclau",2001,,Lexington Books,,208,0,English,195,,,"0739102400,9780739102404",,,,,,,,,OL17016834M,,0,,,,,1,,1,1067086,pdf,1E1F0ECBC58C386208B9415201127EA5,,,"F:\\lib1\\0739102400,9780739102404,.pdf",0,2000-01-01 01:00:00,2016-04-03 02:51:08,390000/1e1f0ecbc58c386208b9415201127ea5-d.jpg,,
19409155,Inhuman Thoughts: Philosophical Explorations of Posthumanity,,,,Asher Seidel,2008,,Lexington Books,,140,0,English,195,,,"0739123289,9780739123287",,,,,128,BD450 .S3854 2008,,,OL16383441M,,0,,,,,1,,1,672844,pdf,CC8EBF52E44E3BF3557CAB93CAD1532A,,,"F:\\lib1\\0739123289,9780739123287,.pdf",0,2000-01-01 01:00:00,2016-04-03 02:51:08,390000/cc8ebf52e44e3bf3557cab93cad1532a-d.jpg,,
19409156,Situational Traits of Character: Dispositional Foundations and Implications for Moral Psychology and Friendship,,,,Candace L. Upton,2009,,Lexington Books,,120,0,English,198,,,"0739132849,9780739132845",,,,,179/.9,BJ1531 .U68 2009,,,OL23218401M,,0,,,,,1,,1,452278,pdf,509061DF92EFACF1E960C4015A7E7FB9,,,"F:\\lib1\\0739132849,9780739132845,.pdf",0,2000-01-01 01:00:00,2016-04-03 02:51:08,390000/509061df92efacf1e960c4015a7e7fb9-d.jpg,,
19409157,Speculative Philosophy,,,,Donald Phillip Verene,2009,,Lexington Books,,190,0,English,195,,,"0739136593,9780739136591",,,,,100,BD41 .V47 2009,,,OL23002255M,,0,,,,,1,,1,535696,pdf,9BAFC0FF08DA3541424638672E2FBBB5,,,"F:\\lib1\\0739136593,9780739136591,.pdf",0,2000-01-01 01:00:00,2016-04-03 02:51:08,390000/9bafc0ff08da3541424638672e2fbbb5-d.jpg,,
19409158,Democracy and Political Theory,,,,"Claude Lefort, David Macey",1991,,Polity,,100,0,English,195,,,"0745604374,9780745604374",,,,,,,,,OL1794759M,,0,,,,,1,,1,2693547,pdf,699AA7A8AA1FF2CC2C9B6C113C619F35,,,"F:\\lib1\\0745604374,9780745604374,.pdf",0,2000-01-01 01:00:00,2016-04-03 02:51:08,390000/699aa7a8aa1ff2cc2c9b6c113c619f35-g.jpg,,
19409159,Dynamische Steuerung von Portfoliorisiken,,Gabler Edition Wissenschaft,,Timo Reinschmidt,2006,,Deutscher UniversitSts-Verlag/GWV Fachverlage,Wiesbaden,262,0,German,,usenet,to 2012-06,"9783835090712,3835090712",,,,,,,,,,,0,,,,,,,1,16470651,pdf,27c52f1d00c0e6f124d3624d59322a45,,,I:\\usenet_ger\\Dynamische.Steuerung.von.Portfoliorisiken.[Springer].[2006].[q80582].pdf,0,2000-01-01 01:00:00,2016-04-03 02:51:08,883000/27c52f1d00c0e6f124d3624d59322a45-g.jpg,,
19409160,The Philosophical Discourse of Modernity,,,,"Jurgen Habermas, Thomas McCarthy, Frederick Lawrence",1990,New Ed,Polity Press,,456,0,English,195,,,"0745608302,9780745608303",,,,,190,,,,OL22128924M,,0,,,,,1,,0,22003961,pdf,5E191089B5CE9E11FDC40689CC9D2A47,,,"F:\\lib1\\0745608302,9780745608303,.pdf",0,2000-01-01 01:00:00,2016-04-03 02:51:08,390000/5e191089b5ce9e11fdc40689cc9d2a47-d.jpg,,
19409161,Masculine Domination,,,,Pierre Bourdieu,2001,,Stanford UnvPr,,144,0,English,195,,,"0745622658,9780745622651",,,,,,,,,OL22026598M,,0,,,,,1,1,1,7135229,pdf,A01CFF92ED97A0D0E6297CBB134A0EA8,,,"F:\\lib1\\0745622658,9780745622651,.pdf",0,2000-01-01 01:00:00,2016-04-03 02:51:08,390000/a01cff92ed97a0d0e6297cbb134a0ea8-d.jpg,,
19409162,Philosophy in the Present,,,,"Alain Badiou, Slavoj Zizek",2009,,Polity,,80,0,English,195,,,"0745640974,9780745640976",,,,,110,B805 .B3313 2009,,,OL24495684M,,0,,,,,1,1,1,340895,pdf,CB78E994CEBC267504EE87FA9561E8B4,,,"F:\\lib1\\0745640974,9780745640976,.pdf",0,2000-01-01 01:00:00,2016-04-03 02:51:08,390000/cb78e994cebc267504ee87fa9561e8b4-d.jpg,,
19409163,"Derrida, an Egyptian",,,,Peter Sloterdijk,2009,,Polity,,80,0,English,195,,,"0745646387,9780745646381",,,,,,,,,,,0,,,,,1,,1,564949,pdf,1554FF44CDB5DAD894E9EC442B7133AF,,,"F:\\lib1\\0745646387,9780745646381,.pdf",0,2000-01-01 01:00:00,2016-04-03 02:51:08,390000/1554ff44cdb5dad894e9ec442b7133af-d.jpg,,
19409164,Key Ideas in Linguistics and the Philosophy of Language,,,,"Siobhan Chapman, Christopher Routledge",2009,,Edinburgh University Press,,304,0,English,195,,,"0748626190,9780748626199",,,,,401,P107 .K485 2009,,,OL23731570M,,0,,,,,1,1,1,1629179,pdf,C78AC03040514C3BCCB105E58A146749,,,"F:\\lib1\\0748626190,9780748626199,.pdf",0,2000-01-01 01:00:00,2016-04-03 02:51:08,390000/c78ac03040514c3bccb105e58a146749-d.jpg,,
19409165,In Memory of Jacques Derrida,,,,Nicholas Royle,2009,1,Edinburgh University Press,,224,0,English,195,,,"0748632956,9780748632954",,,,,"801/.95/092,100",B2430.D484 R685 2009,,,OL23874872M,,0,,,,,1,1,1,941519,pdf,5260956DF3098B8AF8E9F0C1AE0273D2,,,"F:\\lib1\\0748632956,9780748632954,.pdf",0,2000-01-01 01:00:00,2016-04-03 02:51:08,390000/5260956df3098b8af8e9f0c1ae0273d2-d.jpg,,
19409166,Evagrius and Gregory ,,Ashgate Studies in Philosophy & Theology in Late Antiquity,,Kevin Corrigan,2009,,Ashgate,,256,0,English,64,,,"0754616851,9780754616856",,,,,270.2092/2,BR65.E926 C67 2009,,,OL10827175M,,0,,,,,1,1,1,4528538,pdf,C86E7141B9568B0B11BE07B3398204B4,,,"F:\\lib1\\0754616851,9780754616856,.pdf",0,2000-01-01 01:00:00,2016-04-03 02:51:08,390000/c86e7141b9568b0b11be07b3398204b4-d.jpg,,
19409167,Slavoj Zizek: A Little Piece of the Real ,,Ashgate New Critical Thinking in Philosophy,,Matthew Sharpe,2004,,Ashgate Publishing,,281,0,English,195,,,"0754639185,9780754639183",,,,,,,,,OL22604248M,,600,,,,,1,,1,4228938,pdf,8DF244EC713111CA4CD7D694C0ECDE29,,,"F:\\lib1\\0754639185,9780754639183,.pdf",0,2000-01-01 01:00:00,2016-04-03 02:51:08,390000/8df244ec713111ca4cd7d694c0ecde29-d.jpg,,
19409168,Disciplining the Divine,,,,"Paul Fletcher, Paul Fletcher",2009,,Ashgate,,208,0,English,195,,,"0754667227,9780754667223",,,,,231/.044,BT111.3 .F54 2008,,,OL22501423M,,0,,,,,1,1,1,2969086,pdf,FCAC941A047ABF05AE5D06166A1316AA,,,"F:\\lib1\\0754667227,9780754667223,.pdf",0,2000-01-01 01:00:00,2016-04-03 02:51:08,390000/fcac941a047abf05ae5d06166a1316aa-d.jpg,,
19409169,The Ashgate Research Companion to Ethics and International Relations,,,,"Patrick Hayden, Patrick Hayden",2009,Har/Ele,Ashgate,,439,0,English,,,,"0754671011,9780754671015",,,,,172/.4,JZ1306 .H39 2009,,,OL23059265M,,0,,,,,1,1,1,4784676,pdf,213D97A5DE47D82446211D07926B977C,,,"F:\\lib1\\0754671011,9780754671015,.pdf",0,2000-01-01 01:00:00,2016-04-03 02:51:08,390000/213d97a5de47d82446211d07926b977c-d.jpg,,
19409170,Ethnicities and Values in a Changing World,,,,Gargi Bhattacharyya,2009,,Ashgate,,192,0,English,195,,,"0754674835,9780754674832",,,,,305.8009/051,HM753 .B43 2009,,,OL23217883M,,0,,,,,1,1,1,2819862,pdf,2D80B7088B3C7B5FDFBEE68EF444539D,,,"F:\\lib1\\0754674835,9780754674832,.pdf",0,2000-01-01 01:00:00,2016-04-03 02:51:08,390000/2d80b7088b3c7b5fdfbee68ef444539d-d.jpg,,
19409171,Philosophy 101: A Primer for the Apathetic or Struggling Student,,,,Max Malikow,2009,,University Press of America,,60,0,English,195,,,"0761844163,9780761844167",,,,,,,,,,,0,,,,,1,,1,297086,pdf,E7F18C13F7B8A86C0C74A96F1F69C926,,,"F:\\lib1\\0761844163,9780761844167,.pdf",0,2000-01-01 01:00:00,2016-04-03 02:51:08,390000/e7f18c13f7b8a86c0c74a96f1f69c926-d.jpg,,
19409172,Film Consciousness: From Phenomenology to Deleuze,,,,Spencer Shaw,2008,,McFarland,,227,0,English,195,,,"0786433345,9780786433346",,,,,791.4301,B2430.D454 S53 2008,,,OL16745226M,,0,,,,,1,,1,4575485,pdf,506B8F447FC83691A7FB4BD56E9F6A73,,,"F:\\lib1\\0786433345,9780786433346,.pdf",0,2000-01-01 01:00:00,2016-04-03 02:51:08,390000/506b8f447fc83691a7fb4bd56e9f6a73-d.jpg,,
19409173,"Organizational Ethics in Health Care: Principles, Cases, and Practical Solutions",,,,"Philip J. Boyle, Edwin R. DuBose, Stephen J. Ellingson, David E. Guinn, David B. McCurdy",2001,1,Jossey-Bass,,448,0,English,195,,,"0787955582,9780787955588",,,,,174/.2,RA427.25 .O74 2001,,,OL17919382M,,0,,,,,1,1,1,1298842,pdf,E144A82A5116E29B90B6B0BD582E17FB,,,"F:\\lib1\\0787955582,9780787955588,.pdf",0,2000-01-01 01:00:00,2016-04-03 02:51:08,390000/e144a82a5116e29b90b6b0bd582e17fb-d.jpg,,
19409174,Elisabeth Kubler-ross: Encountering Death And Dying ,,Women in Medicine,,Richard Worth,2004,,Chelsea House Publications,,116,0,English,195,,,"0791080277,9780791080276",,,,,,,,,OL8159818M,,0,,,,,1,,1,3524615,pdf,D6FDF24A3E9B6E04D518732F813607FD,,,"F:\\lib1\\0791080277,9780791080276,.pdf",0,2000-01-01 01:00:00,2016-04-03 02:51:08,390000/d6fdf24a3e9b6e04d518732f813607fd-d.jpg,,
19409175,"Dynamische Aspekte im Kaufverhalten : Die Determinanten von Kaufzeitpunkt, Marken- und Mengenwahl",,Gabler Edition Wissenschaft,,Christine Ebling,2009,,Gabler Verlag / GWV Fachverlage GmbH,Wiesbaden,188,0,German,,usenet,to 2012-06,"9783834913579,383491357X,9783834980366,3834980366",,,,,,,,,,,0,,,,,,,1,1802436,pdf,774eb712f3923ae0750e865f18d2ee8f,,,I:\\usenet_ger\\Dynamische.Aspekte.im.Kaufverhalten.[Springer].[2009].[k31605].pdf,0,2000-01-01 01:00:00,2016-04-03 02:51:08,883000/774eb712f3923ae0750e865f18d2ee8f-d.jpg,,
19409176,Essayists And Prophets ,,Bloom's Literary Criticism 20th Anniversary Collection,,Harold Bloom,2005,,Chelsea House Publications,,221,0,English,195,,,"0791085236,9780791085233",,,,,,,,,OL8159942M,,0,,,,,1,1,1,1435143,pdf,F6F6298567B5B6CC6081EEAC4B13C797,,,"F:\\lib1\\0791085236,9780791085233,.pdf",0,2000-01-01 01:00:00,2016-04-03 02:51:08,390000/f6f6298567b5b6cc6081eeac4b13c797-d.jpg,,
19409177,Fetal Rights ,,Point/Counterpoint,,Alan Marzilli,2005,,Facts on File,,112,0,English,195,,,"0791086437,9780791086438",,,,,342.7308/5,KF481 .M37 2005,,,OL3395094M,,0,,,,,1,1,1,2494531,pdf,9F3447B0618A42F81B880362D415B655,,,"F:\\lib1\\0791086437,9780791086438,.pdf",0,2000-01-01 01:00:00,2016-04-03 02:51:08,390000/9f3447b0618a42f81b880362d415b655-d.jpg,,
19409178,Contemporary Thought ,,Understanding Philosophy,,Joan A. Price,2008,1,Chelsea House Publications,,160,0,English,195,,,"0791087921,9780791087923",,,,,,,,,OL11149282M,,0,,,,,1,,1,2579101,pdf,DB25FD05E2350405258359F4B225CE2E,,,"F:\\lib1\\0791087921,9780791087923,.pdf",0,2000-01-01 01:00:00,2016-04-03 02:51:08,390000/db25fd05e2350405258359f4b225ce2e-d.jpg,,
19409179,Heidegger and the Essence of Man ,,Suny Series in Contemporary Continental Philosophy,,"Michel Haar, William McNeill",1993,,State University of New York Press,,195,0,English,195,,,"0791415562,9780791415566",,,,,128/.092,B3279.H49 H2313 1993,,,OL1409445M,,0,,,,,1,,1,10008888,pdf,6CC2B8416C4A7C9877ECF56AEBDB6458,,,"F:\\lib1\\0791415562,9780791415566,.pdf",0,2000-01-01 01:00:00,2016-04-03 02:51:08,390000/6cc2b8416c4a7c9877ecf56aebdb6458-d.jpg,,
19409180,Wittgenstein's Account of Truth ,,Suny Series in Philosophy,,Sara Ellenbogen,2003,,State University of New York Press,,176,0,English,195,,,"0791456250,9780791456255",,,,,,,,,OL7802912M,,0,,,,,1,,1,612559,pdf,6B5E117572BBF7803609BC6C06A4F3D0,,,"F:\\lib1\\0791456250,9780791456255,.pdf",0,2000-01-01 01:00:00,2016-04-03 02:51:08,390000/6b5e117572bbf7803609bc6c06a4f3d0-d.jpg,,
19409181,First Outline of a System of the Philosophy of Nature ,,SUNY Series in Contemporary Continental Philosophy,,"F. W.J. Schelling, Keith R. Peterson",2004,,State University of New York Press,,306,0,English,181,,,"0791460045,9780791460047",,,,,,,,,OL7803150M,,0,,,,1,0,1,1,1168032,pdf,9EE7FA4E5785A1980BEACA6E35210016,,,"F:\\lib1\\0791460045,9780791460047,.pdf",0,2000-01-01 01:00:00,2016-04-03 02:51:08,390000/9ee7fa4e5785a1980beaca6e35210016-d.jpg,,
19409182,Questioning Platonism: Continental Interpretations of Plato ,,S U N Y Series in Contemporary Continental Philosophy,,Drew A. Hyland,2004,,State University of New York Press,,202,0,English,195,,,"0791461955,9780791461952",,,,,,,,,OL7803263M,,0,,,,,,,1,848552,pdf,327DBDEBAB1167DA2825D7E437F1722A,,,"F:\\lib1\\0791461955,9780791461952,.pdf",0,2000-01-01 01:00:00,2016-04-03 02:51:08,390000/327dbdebab1167da2825d7e437f1722a-d.jpg,,
19409183,John Dewey And Our Educational Prospect: A Critical Engagement With Dewey's Democracy And Education,,,,David T. Hansen,2006,,State University of New York Press,,195,0,English,183,,,"0791469212,9780791469217",,,,,,,,,OL9782550M,,0,,,,1,0,1,1,648648,pdf,E15C3632363097666629B06DBC52B4F1,,,"F:\\lib1\\0791469212,9780791469217,.pdf",0,2000-01-01 01:00:00,2016-04-03 02:51:08,390000/e15c3632363097666629b06dbc52b4f1-d.jpg,,
19409184,"The Future of Invention: Rhetoric, Postmodernism, and the Problem of Change",,,,John Muckelbauer,2008,,State Univ of New York Pr,,198,0,English,195,,,"0791474194,9780791474198",,,,,808,PN175 .M83 2008,,,OL11150493M,,0,,,,1,0,1,1,735038,pdf,61BAD06C5D500C870631FC488172715D,,,"F:\\lib1\\0791474194,9780791474198,.pdf",0,2000-01-01 01:00:00,2016-04-03 02:51:08,390000/61bad06c5d500c870631fc488172715d-d.jpg,,
19409185,The Philosopher as Witness: Fackenheim and Responses to the Holocaust ,,S U N Y Series in Contemporary Jewish Thought,,"Michael L. Morgan, Benjamin Pollock",2008,,State University of New York Press,,238,0,English,195,,,"0791474550,9780791474556",,,,,940.53/18,D804.3 .P523 2008,,,OL18734203M,,0,,,,1,0,1,1,6985986,pdf,5CDF7C004127B2600538D56B4931DCDD,,,"F:\\lib1\\0791474550,9780791474556,.pdf",0,2000-01-01 01:00:00,2016-04-03 02:51:08,390000/5cdf7c004127b2600538d56b4931dcdd-d.jpg,,
19409186,"Heidegger, Dilthey, and the Crisis of Historicism: History and Metaphysics in Heidegger, Dilthey, and the Neo-Kantians",,,,Charles R. Bambach,1995,,Cornell University Press,,304,0,English,264,,,"0801482607,9780801482601",,,,,,,,,,,0,,,,,1,,1,2018991,pdf,C8747EDA1FAEBF30BBDD89CDFF1A95DF,,,"F:\\lib1\\0801482607,9780801482601,.pdf",0,2000-01-01 01:00:00,2016-04-03 02:51:08,390000/c8747eda1faebf30bbdd89cdff1a95df-d.jpg,,
19409187,On Deconstruction: Theory and Criticism after Structuralism,,,,Jonathan D. Culler,1983,,Cornell University Press,,312,0,English,236,,,"0801492017,9780801492013",,,,,801/.95,PN98.D43 C8 1982,,,OL3487786M,,0,,,,,1,1,0,15353482,pdf,E368BC748A61D37483E23CA7E21B8E9E,,,"F:\\lib1\\0801492017,9780801492013,.pdf",0,2000-01-01 01:00:00,2016-04-03 02:51:08,390000/e368bc748a61d37483e23ca7e21b8e9e-d.jpg,,
19409188,Chairman Mao: Education of the Proletariat,,,,Don-Chean Chu,1980,,Philosophical Library,,478,0,English,183,,,"0802222366,9780802222367",,,,,370/.951,DS778.M3 C53762,,,OL4745360M,,0,,,,,1,,0,23421618,pdf,A1D4217940D551CD259C226CC86ABE3C,,,"F:\\lib1\\0802222366,9780802222367,.pdf",0,2000-01-01 01:00:00,2016-04-03 02:51:08,390000/a1d4217940d551cd259c226cc86abe3c-g.jpg,,
19409189,Aminadab ,,French Modernist Library,,"Maurice Blanchot, Jeff Fort, Jeff Fort",2002,,University of Nebraska Press,,200,0,English,195,,,"0803213131,9780803213135",,,,,,PQ2603·L3343 A713 2002,,,OL7904908M,,0,,,,,1,,1,2242707,pdf,ADEFDA7F2D6049677A8E28887AB4C4B5,,,"F:\\lib1\\0803213131,9780803213135,.pdf",0,2000-01-01 01:00:00,2016-04-03 02:51:08,390000/adefda7f2d6049677a8e28887ab4c4b5-d.jpg,,
19409190,"Edmund Husserl's \Origin of Geometry\"": An Introduction""",,,,"Jacques Derrida, John P. Leavey Jr.",1989,,University of Nebraska Press,,205,0,English,121,,,"0803265808,9780803265806",,,,,142/.7,QA447 .D4713 1989,,,OL2059369M,,0,,,,,1,,1,3581751,pdf,04311188FBF801F46A234E3D93B2C6C9,,,"F:\\lib1\\0803265808,9780803265806,.pdf",0,2000-01-01 01:00:00,2016-04-03 02:51:08,390000/04311188fbf801f46a234e3d93b2c6c9-d.jpg,,
19409191,Teaching Yourself Social Theory,,,,David E Harris,2002,1,Sage Publications Ltd,,256,0,English,183,,,"0803976887,9780803976887",,,,,300.1,,,,OL22489931M,,0,,,,,1,1,1,5637023,pdf,58E87A61DCBB708153A464E7CB35D0FD,,,"F:\\lib1\\0803976887,9780803976887,.pdf",0,2000-01-01 01:00:00,2016-04-03 02:51:08,390000/58e87a61dcbb708153a464e7cb35d0fd-d.jpg,,
19409192,Modern Governance: New Government-Society Interactions,,,,Professor Jan Kooiman,1993,,Sage Publications Ltd,,288,0,English,195,,,"0803988907,9780803988903",,,,,351/.00094,JF1411 .M62 1993,,,OL1743754M,,0,,,,,1,1,1,7075790,pdf,9DE249A4CF08E84DA088C87499E8D696,,,"F:\\lib1\\0803988907,9780803988903,.pdf",0,2000-01-01 01:00:00,2016-04-03 02:51:08,390000/9de249a4cf08e84da088c87499e8d696-d.jpg,,
19409193,The Logic of Practice,,,,"Pierre Bourdieu et al., Richard Nice",1992,1,Stanford University Press,,340,0,English,130,,,"0804720118,9780804720113",,,,,,,,,,,0,,,,,1,1,1,4871351,pdf,2C5E8D73A7E258A3000A5F759F88CAC7,,,"F:\\lib1\\0804720118,9780804720113,.pdf",0,2000-01-01 01:00:00,2016-04-03 02:51:08,390000/2c5e8d73a7e258a3000a5f759f88cac7-d.jpg,,
19409194,"Ethical Know-How: Action, Wisdom, and Cognition ",,Writing Science,,francisco Varela,1999,1,Stanford University Press,,96,0,English,22,,,"0804730334,9780804730334",,,,,,,,,OL7929042M,,0,,,,,1,,0,9981013,pdf,901EB5E0A5AEC95CBBB448A0F6BE09CE,,,"F:\\lib1\\0804730334,9780804730334,.pdf",0,2000-01-01 01:00:00,2016-04-03 02:51:08,390000/901eb5e0a5aec95cbbb448a0f6be09ce-d.jpg,,
19409195,Adieu to Emmanuel Levinas ,,Meridian: Crossing Aesthetics,,"Jacques Derrida, Pascale-Anne Brault, Michael Naas",1999,1,Stanford University Press,,168,0,English,195,,,"0804732671,9780804732673",,,,,194,B2430.L484 D4513 1999,,,OL36047M,,0,,,,,1,,0,17596729,pdf,9872416554A44E692DF383CFDEEBE6D9,,,"F:\\lib1\\0804732671,9780804732673,.pdf",0,2000-01-01 01:00:00,2016-04-03 02:51:08,390000/9872416554a44e692df383cfdeebe6d9-d.jpg,,
19409196,Religion ,,Cultural Memory in the Present,,"Jacques Derrida, Gianni Vattimo, David Webb",2002,1,Stanford University Press,,221,0,English,205,,,"0804734879,9780804734875",,,,,200,BL21 .R39513 1998,,,OL390782M,,0,,,,0,1,,0,9596157,pdf,F90EE847D6C8ADD786EB292004D61224,,,"F:\\lib1\\0804734879,9780804734875,.pdf",0,2000-01-01 01:00:00,2016-04-03 02:51:08,390000/f90ee847d6c8add786eb292004d61224-d.jpg,,
19409197,Exemplarity and Chosenness: Rosenzweig and Derrida on the Nation of Philosophy ,,Cultural Memory in the Present,,Dana Hollander,2008,,Stanford University Press,,296,0,English,195,,,"0804755213,9780804755214",,,,,194,B3327.R64 H65 2008,,,OL11275238M,,0,,,,,1,1,1,2539994,pdf,F20FB39E4453FC47F09CAB966461C691,,,"F:\\lib1\\0804755213,9780804755214,.pdf",0,2000-01-01 01:00:00,2016-04-03 02:51:08,390000/f20fb39e4453fc47f09cab966461c691-d.jpg,,
19409198,The Unfolding of Language: An Evolutionary Tour of Mankind's Greatest Invention,,,,Guy Deutscher,2006,,Holt Paperbacks,,368,0,English,195,,,"0805080120,9780805080124",,,,,,,,,OL7933197M,,0,,,,,1,,1,4363385,pdf,7DA64711A6C246040270E90255901602,,,"F:\\lib1\\0805080120,9780805080124,.pdf",0,2000-01-01 01:00:00,2016-04-03 02:51:08,390000/7da64711a6c246040270e90255901602-d.jpg,,
19409199,"Dynamic Capabilities im Strategischen Electronic Business-Management : Bestimmungsgrössen, Ausprägungen und Erfolgsfaktoren",,,,Hiltrud Witt,2008,,Gabler / GWV Fachverlage,Wiesbaden,374,0,German,,usenet,to 2012-06,"9783834998460,383499846X",,,,,,,,,,,0,,,,,,,1,2263236,pdf,d0f751094f8fa4ea9926c50f114abcd3,,,I:\\usenet_ger\\Dynamic.Capabilities.im.Strategischen.Electronic.Business-Management.[Springer].[2008].[r72n33].pdf,0,2000-01-01 01:00:00,2016-04-03 02:51:08,883000/d0f751094f8fa4ea9926c50f114abcd3-g.jpg,,
19409200,"Argumentation: Analysis, Evaluation",,,,"Frans H. van Eemeren, Rob Grootendorst, A. Francisca Sn Henkemans",2002,,Routledge,,216,0,English,117,,,"0805839526,9780805839524",,,,,808,P301.5.P47 E327 2002,,,OL3949459M,,0,,,,,1,1,1,1010244,pdf,6990ABF8610A87A25EA24E897EBCDB44,,,"F:\\lib1\\0805839526,9780805839524,.pdf",0,2000-01-01 01:00:00,2016-04-03 02:51:08,390000/6990abf8610a87a25ea24e897ebcdb44-d.jpg,,
19409201,"Conflict, Contradiction, and Contrarian Elements in Moral Development and Education",,,,Larry Nucci,2004,1,Psychology Press,,318,0,English,183,,,"0805848487,9780805848489",,,,,370.114,LC311.C49 2005,,,OL15595092M,,0,,,,,1,1,1,1780236,pdf,8A2D726E8921BC8EB887676610B93212,,,"F:\\lib1\\0805848487,9780805848489,.pdf",0,2000-01-01 01:00:00,2016-04-03 02:51:08,390000/8a2d726e8921bc8eb887676610b93212-d.jpg,,
19409202,"Seduction, Sophistry, and the Woman with the Rhetorical Figure ",,Rhetorical Philosophy and Theory,,Associate Professor Michelle Ballif PhD,2000,1st,Southern Illinois University Press,,264,0,English,195,,,"0809323338,9780809323333",,,,,809/.93352042,PN56.5.W64 B28 2001,,,OL58914M,,0,,,,1,0,1,1,1910854,pdf,80F6213EB733DE9DBCC80182EAA710D6,,,"F:\\lib1\\0809323338,9780809323333,.pdf",0,2000-01-01 01:00:00,2016-04-03 02:51:08,390000/80f6213eb733de9dbcc80182eaa710d6-d.jpg,,
19409203,Person and Object: A Metaphysical Study ,,Muirhead Library of Philosophy,,Roderick M. Chisholm,1979,,Open Court Publishing Company,,232,0,English,264,,,"0812694287,9780812694284",,,,,,,,,OL8019049M,,0,,,,,1,1,1,8934344,pdf,68CA55E066BFCCBFA8B4EA9AAE851ABF,,,"F:\\lib1\\0812694287,9780812694284,.pdf",0,2000-01-01 01:00:00,2016-04-03 02:51:08,390000/68ca55e066bfccbfa8b4ea9aae851abf-d.jpg,,
19409204,Atheism Explained: From Folly to Philosophy ,,Ideas Explained,,David Ramsay Steele,2008,,Open Court,,331,0,English,195,,,"0812696379,9780812696370",,,,,211/.8,BL2747.3 .S7255 2008,,,OL11348268M,,0,,,,,0,,1,7149978,pdf,BEA845087097E719E481EE19A713CA43,,,"F:\\lib1\\0812696379,9780812696370,.pdf",0,2000-01-01 01:00:00,2016-04-03 02:51:08,390000/bea845087097e719e481ee19a713ca43-d.jpg,,
19409205,Sartre Alive,,,,"Ronald Aronson, Adrian Van Den Hoven",1991,,Wayne State University Press,,389,0,English,195,,,"0814321763,9780814321768",,,,,848/.91409,PQ2637.A82 Z834188 1991,,,OL1859347M,,0,,,,,1,,1,6322048,pdf,8E5AAE20CA8B352CB52C537EEA5A3B8A,,,"F:\\lib1\\0814321763,9780814321768,.pdf",0,2000-01-01 01:00:00,2016-04-03 02:51:08,390000/8e5aae20ca8b352cb52c537eea5a3b8a-g.jpg,,
19409206,Encyclopedia of the Scientific Revolution: From Copernicus to Newton ,,Garland Reference Library of the Humanities,,Wilbur Applebaum,2000,Subsequent,Routledge,,800,0,English,188,,,"0815315031,9780815315032",,,,,,,,,OL8047430M,,0,,,,1,0,1,1,11291318,pdf,30E312A8BAB4F2AE56CA3E0F3E5DAD77,,,"F:\\lib1\\0815315031,9780815315032,.pdf",0,2000-01-01 01:00:00,2016-04-03 02:51:08,390000/30e312a8bab4f2ae56ca3e0f3e5dad77-d.jpg,,
19409207,What Is Neostructuralism? ,,Theory and History of Literature,,"Manfred Frank, Sabine Wilke, Richard Gray",1989,,Univ of Minnesota Pr,,480,0,English,195,,,"0816616027,9780816616022",,,,,149/.96,B841.4,,,OL22350365M,,0,,,,,1,,1,29718813,pdf,8A40B7962B54962A104DB44BE25975C7,,,"F:\\lib1\\0816616027,9780816616022,.pdf",0,2000-01-01 01:00:00,2016-04-03 02:51:08,390000/8a40b7962b54962a104db44be25975c7-g.jpg,,
19409208,Kierkegaard And The Ends Of Language,,,,Geoffrey A. Hale,2002,1,Univ Of Minnesota Press,,232,0,English,195,,,"0816637466,9780816637461",,,,,,,,,OL8070527M,,0,,,,,1,1,1,1476333,pdf,2FFAB49D30A1A6CC878958FC6043D04D,,,"F:\\lib1\\0816637466,9780816637461,.pdf",0,2000-01-01 01:00:00,2016-04-03 02:51:08,390000/2ffab49d30a1a6cc878958fc6043d04d-d.jpg,,
19409209,Heidegger Memorial Lectures ,,Duquesne Studies: Language and Literature Series,,Warner Marx,1982,,Duquesne Univ Pr,,108,0,English,195,,,"0820701548,9780820701547",,,,,193,B3279.H49 G24513 1982,,,OL3485576M,,0,,,,,1,,0,1223905,pdf,54F143C53952CCFD022C0A590EE2F90C,,,"F:\\lib1\\0820701548,9780820701547,.pdf",0,2000-01-01 01:00:00,2016-04-03 02:51:08,390000/54f143c53952ccfd022c0a590ee2f90c-g.jpg,,
19409210,"Mute Dreams, Blind Owls, and Dispersed Knowledges: Persian Poesis in the Transnational Circuitry",,,,Michael M. J. Fischer,2004,,Duke University Press Books,,488,0,English,195,,,"0822332981,9780822332985",,,,,791.43/0955,PN1993.5.I846 F57 2004,,,OL3290740M,,0,,,,,1,1,1,20416711,pdf,2BD143550F805918C0A0FE3805937769,,,"F:\\lib1\\0822332981,9780822332985,.pdf",0,2000-01-01 01:00:00,2016-04-03 02:51:08,390000/2bd143550f805918c0a0fe3805937769-d.jpg,,
19409211,Die wirtschaftliche Zukunft der Zahnärzte,,,,Goetzke,,,,,114,0,German,,usenet,to 2012-06,,,,,,,,,,,,0,,,,,,,1,979295,pdf,1144c07cab4af38824753646a6a1c0ab,,,I:\\usenet_ger\\DWZdZ.pdf,0,2000-01-01 01:00:00,2016-04-03 02:51:08,883000/1144c07cab4af38824753646a6a1c0ab-g.jpg,,
19409212,The Agamben Effect ,,South Atlantic Quarterly,,Alison Ross,2008,,Duke University Press Books,,220,0,English,195,,,"0822366843,9780822366843",,,,,,,,,,,0,,,,,1,,0,21975893,pdf,7562AFDEFAF41DEBF876FBF1BCF5CEE3,,,"F:\\lib1\\0822366843,9780822366843,.pdf",0,2000-01-01 01:00:00,2016-04-03 02:51:08,390000/7562afdefaf41debf876fbf1bcf5cee3-d.jpg,,
19409213,Beginning of Knowledge,,,,Hans-Georg Gadamer,2001,,Continuum,,128,0,English,195,,,"0826411959,9780826411952",,,,,,,,PiZoLuse9ywC,OL8167665M,,0,,,,,1,,1,7780360,pdf,9D18B2D5C87562B2E28CC9B5CE5FCE00,,,"F:\\lib1\\0826411959,9780826411952,.pdf",0,2000-01-01 01:00:00,2016-04-03 02:51:08,390000/9d18b2d5c87562b2e28cc9b5ce5fce00-d.jpg,,
19409214,Heidegger's Later Writings: A Reader's Guide,,,,Lee Braver,2009,,Continuum,,176,0,English,195,,,"0826439675,9780826439673",,,,,193,B3279.H49 B785 2009,,,OL16925973M,,0,,,,,1,1,1,4611593,pdf,1B1C1EFA7BDBE5CC5B15CAF2170691FD,,,"F:\\lib1\\0826439675,9780826439673,.pdf",0,2000-01-01 01:00:00,2016-04-03 02:51:08,390000/1b1c1efa7bdbe5cc5b15caf2170691fd-d.jpg,,
19409215,French Feminist Theory: An Introduction,,,,Dani Cavallaro,2004,,Continuum,,240,0,English,195,,,"0826458858,9780826458858",,,,,,,,,OL9388587M,,0,,,,,1,,1,954125,pdf,96168D15A94E4783DFDD91B3F74960ED,,,"F:\\lib1\\0826458858,9780826458858,.pdf",0,2000-01-01 01:00:00,2016-04-03 02:51:08,390000/96168d15a94e4783dfdd91b3f74960ed-d.jpg,,
19409216,Deleuze: A Guide for the Perplexed ,,Guides For The Perplexed,,Claire Colebrook,2006,,Continuum,,188,0,English,195,,,"0826478301,9780826478306",,,,,194,B2430.D454 C64 2006,,,OL22725353M,,0,,,,,1,1,1,9955740,pdf,FDFB787AF9DC251DD44CD0191D70F9FE,,,"F:\\lib1\\0826478301,9780826478306,.pdf",0,2000-01-01 01:00:00,2016-04-03 02:51:08,390000/fdfb787af9dc251dd44cd0191d70f9fe-d.jpg,,
19409217,Heidegger and the Place of Ethics,,,,Michael Lewis,2005,,Continuum,,232,0,English,195,,,"0826484972,9780826484970",,,,,,,,,OL22625419M,,0,,,,,1,,1,14018030,pdf,D7E08CAE2003C040DB7ACD1F8C8D447D,,,"F:\\lib1\\0826484972,9780826484970,.pdf",0,2000-01-01 01:00:00,2016-04-03 02:51:08,390000/d7e08cae2003c040db7acd1f8c8d447d-d.jpg,,
19409218,Aesthetics and Film ,,Continuum Aesthetics,,Katherine Thomson-Jones,2008,,Continuum,,160,0,English,195,,,"0826485235,9780826485236",,,,,,,,,,,0,,,,,1,1,1,3215487,pdf,593683F7F3AE92ADF36FD5B6899A7482,,,"F:\\lib1\\0826485235,9780826485236,.pdf",0,2000-01-01 01:00:00,2016-04-03 02:51:08,390000/593683f7f3ae92adf36fd5b6899a7482-d.jpg,,
19409219,Berkeley and Irish Philosophy ,,Continuum Studies In British Philosophy,,David Berman,2005,,Continuum,,248,0,English,195,,,"0826485901,9780826485908",,,,,,,,,OL22635987M,,0,,,,,1,1,1,11846858,pdf,F81BAEA661D6A40D45F85D3ECD121D8D,,,"F:\\lib1\\0826485901,9780826485908,.pdf",0,2000-01-01 01:00:00,2016-04-03 02:51:08,390000/f81baea661d6a40d45f85d3ecd121d8d-d.jpg,,
19409220,"Deleuze, Guattari and the Production of the New ",,Continuum Studies In Continental Philosophy,,"Simon O'Sullivan, Stephen Zepke",2009,,Continuum,,256,0,English,195,,,"0826499538,9780826499530",,,,,194,B2430.D454 D49 2008,,,OL16698642M,,0,,,,,1,,1,11842781,pdf,DF37A498AEB26BC9BA246202FFDFD672,,,"F:\\lib1\\0826499538,9780826499530,.pdf",0,2000-01-01 01:00:00,2016-04-03 02:51:08,390000/df37a498aeb26bc9ba246202ffdfd672-d.jpg,,
19409221,Self-Made Men: Identity and Embodiment among Transsexual Men,,,,Henry Rubin,2003,1,Vanderbilt University Press,,224,0,English,195,,,"0826514340,9780826514349",,,,,,,,,OL8169844M,,0,,,,,1,,1,669221,pdf,9F26499B289686932C9FEF9A5B0BA3AC,,,"F:\\lib1\\0826514340,9780826514349,.pdf",0,2000-01-01 01:00:00,2016-04-03 02:51:08,390000/9f26499b289686932c9fef9a5b0ba3ac-d.jpg,,
