19523222,"Haptic and Audio Interaction Design: 5th International Workshop, HAID 2010, Copenhagen, Denmark, September 16-17, 2010, Proceedings (Lecture Notes in ... Applications, incl. Internet Web, and HCI)",,Lecture Notes in Computer Science 6306,,"Rolf Nordahl, Stefania Serafin, Federico Fontana, Stephen Brewster",2010,1st Edition.,Springer,,217,0,English,137,,до 2011-01,"3642158404,9783642158407",,,,,004.019,QA76.9.H85 H34 2010,,,OL25170014M,,0,,,,,,1,1,5268728,pdf,B1C081EE0E754EE30F3C125E1FCEC13F,,,D:\\!genesis\\library.nu\\b1\\_313723.b1c081ee0e754ee30f3c125e1fcec13f.pdf,0,2000-01-01 01:00:00,2016-04-03 02:51:08,504000/b1c081ee0e754ee30f3c125e1fcec13f-d.jpg,,
19523223,"The Austrian School of Economics A History of Its Ideas, Ambassadors, and Institutions",,,,Eugen Maria Schulak and Herbert Unterkofler,,,Ludwig von Mises Institute,,262,0,English,64,,до 2011-01,978-1-61016-134-3,,,,,,,,,,,0,,,,,,1,1,1751013,pdf,B191CCB3E38B63A238F1D91E74E16C30,,,D:\\!genesis\\library.nu\\b1\\_312340.b191ccb3e38b63a238f1d91e74e16c30.pdf,0,2000-01-01 01:00:00,2016-04-03 02:51:08,504000/b191ccb3e38b63a238f1d91e74e16c30-g.jpg,,
19523224,"Little India: Diaspora, Time, and Ethnolinguistic Belonging in Hindu Mauritius",,,,Patrick Eisenlohr,2007,1,University of California Press,,341,0,English,,,до 2011-01,"0520248791,9780520248793",,,,,,,,,OL17208986M,,0,,,,,,,1,2123070,pdf,B132F85E0828B4CE61864BF93BD43226,,,D:\\!genesis\\library.nu\\b1\\_312253.b132f85e0828b4ce61864bf93bd43226.pdf,0,2000-01-01 01:00:00,2016-04-03 02:51:08,504000/b132f85e0828b4ce61864bf93bd43226-d.jpg,,
19523225,Shame,,,,Salman Rushdie,2000,,Picador USA,,1625,0,English,,,до 2011-01,"0312270933,9780312270933",,,,,,,,,OL9380673M,,0,,,,,,,,311043,lit,B1BA28C0215759A95E189D84489C6114,,,D:\\!genesis\\library.nu\\b1\\_312110.b1ba28c0215759a95e189d84489c6114.lit,0,2000-01-01 01:00:00,2016-04-03 02:51:08,504000/b1ba28c0215759a95e189d84489c6114-d.jpg,,
19523226,Der europaische Gesundheitsbericht 2002,,,,WHO-Regionalburo fur Europa.,,,,,165,0,German,,,до 2011-01,9289033657,,,,,,,,,,,0,,,,,1,,1,2351474,pdf,B1AA882E68AAD35834F976492E7200DB,,,D:\\!genesis\\library.nu\\b1\\_31163.b1aa882e68aad35834f976492e7200db.pdf,0,2000-01-01 01:00:00,2016-04-03 02:51:08,504000/b1aa882e68aad35834f976492e7200db-g.jpg,,
19523227,"Business, Economics, and Finance with Matlab, GIS, and Simulation Models",,,,Patrick  L. Anderson,2004,1,Chapman and Hall\\/CRC,,504,0,English,305,,до 2011-01,"1584883480,9781584883487",,,,,,,,,OL18213184M,,0,,,,,,1,1,14877204,pdf,B139AE41EA9E232E7FB47759A86460A3,,,D:\\!genesis\\library.nu\\b1\\_311598.b139ae41ea9e232e7fb47759a86460a3.pdf,0,2000-01-01 01:00:00,2016-04-03 02:51:08,504000/b139ae41ea9e232e7fb47759a86460a3-d.jpg,,
19523228,"Geocoding Health Data: The Use of Geographic Codes in Cancer Prevention and Control, Research and Practice",,,,"Gerard Rushton, Marc P. Armstrong, Josephine Gittler, Barry R. Greene, Claire E. Pavlik, Michele M. West, Dale L. Zimmerman",2007,1,CRC Press,,256,0,English,116,,до 2011-01,"0849384192,9780849384196",,,,,614.5/999,RA645.C3 G46 2008,,,OL11560429M,,0,,,,,,,1,5212220,pdf,B1DF5365BC55C5B68300B7704A90C20B,,,D:\\!genesis\\library.nu\\b1\\_311588.b1df5365bc55c5b68300b7704a90c20b.pdf,0,2000-01-01 01:00:00,2016-04-03 02:51:08,504000/b1df5365bc55c5b68300b7704a90c20b-d.jpg,,
19523229,A Widow's Story: A Memoir,,,,Joyce Carol Oates,2011,First Edition,Ecco,,432,0,English,,,до 2011-01,"0062015532,9780062015532",,,,,,,,,OL24606823M,,0,,,,,,,,506743,epub,B1B8A5EE7CDA6FD2051F5BB5FF0A0A41,,,D:\\!genesis\\library.nu\\b1\\_311404.b1b8a5ee7cda6fd2051f5bb5ff0a0a41.epub,0,2000-01-01 01:00:00,2016-04-03 02:51:08,504000/b1b8a5ee7cda6fd2051f5bb5ff0a0a41-d.jpg,,
19523230,"Ninth futures forum on health systems governance and public participation  Amsterdam, The Netherlands, 10–11 October 2005",,,,Written by Elke Jakubowski and Graham Lister with contributions from Regina Skavron,,,,,40,0,English,164,,до 2011-01,9289021896,,,,,,,,,,,0,,,,,1,,1,930524,pdf,B105C0CEFC364343CC94B52A0EB15F01,,,D:\\!genesis\\library.nu\\b1\\_31140.b105c0cefc364343cc94b52a0eb15f01.pdf,0,2000-01-01 01:00:00,2016-04-03 02:51:08,504000/b105c0cefc364343cc94b52a0eb15f01-g.jpg,,
19523231,The Development of Professional Associations: Environmental Health Services in Europe 6 (WHO Regional Publications European Series) (v. 6),,,,M. Fitzpatrick,2002,,,,94,0,English,31,,до 2011-01,"9289013613,9789289013611",,,,,,,,,OL12948945M,,0,,,,0,0,1,1,331279,pdf,B1B3442B52CD2B57F3342980AD3C117A,,,D:\\!genesis\\library.nu\\b1\\_31116.b1b3442b52cd2b57f3342980ad3c117a.pdf,0,2000-01-01 01:00:00,2016-04-03 02:51:08,504000/b1b3442b52cd2b57f3342980ad3c117a-g.jpg,,
19523232,ПЕРЕПИСКА МЕЖДУ ЦК КПК И ЦК КПСС,,,,ИЗДАТЕЛЬСТВО ЛИТЕРАТУРЫ НА ИНОСТРАННЫХ ЯЗЫКАХ ПЕКИН 1964,,,,,52,0,Russian,,,до 2011-01,,,,,,,,,,,,0,,,,,,,0,24263238,pdf,B106F2906A8FB02941BF90C9FBF5663F,,,D:\\!genesis\\library.nu\\b1\\_311156.b106f2906a8fb02941bf90c9fbf5663f.pdf,0,2000-01-01 01:00:00,2016-04-03 02:51:08,504000/b106f2906a8fb02941bf90c9fbf5663f-g.jpg,,
19523233,Beyond Bias and Barriers: Fulfilling the Potential of Women in Academic Science and Engineering,,,,"Committee on Maximizing the Potential of Women in Academic Science and Engineering, National Academy of Sciences, National Academy of Engineering, Institute of Medicine",2007,1,National Academies Press,,346,0,English,210,,до 2011-01,"0309100429,9780309100427",,,,,,,,,OL10359110M,,0,,,,,,,1,10914657,pdf,B156D68E13557DC75113E9DB4AEFD6DD,,,D:\\!genesis\\library.nu\\b1\\_311142.b156d68e13557dc75113e9db4aefd6dd.pdf,0,2000-01-01 01:00:00,2016-04-03 02:51:08,504000/b156d68e13557dc75113e9db4aefd6dd-d.jpg,,
19523234,"Fluid Flow Measurement: A Practical Guide to Accurate Flow Measurement, 2nd Edition",,,,"E. Loy Upp, Paul J. LaNasa",2002,2,Gulf Professional Publishing,,296,0,English,274,,до 2011-01,"088415758X,9780884157588",,,,,681/.28,TA357.5.M43 U66 2002,,,OL3949548M,,0,,,,,,,1,19487445,pdf,B14D30D44A971E82DE6E24AE1D2AC757,,,D:\\!genesis\\library.nu\\b1\\_310662.b14d30d44a971e82de6e24ae1d2ac757.pdf,0,2000-01-01 01:00:00,2016-04-03 02:51:08,504000/b14d30d44a971e82de6e24ae1d2ac757-d.jpg,,
19523235,Totenmahl,,,,Linda Fairstein,2009,,Blanvalet,,352,0,German,,,до 2011-01,9783641023751,,,,,,,,,,,0,,,,,,,1,377811,epub,B173F1A2E663EB9D3A31BF89250021A0,,,D:\\!genesis\\library.nu\\b1\\_310599.b173f1a2e663eb9d3a31bf89250021a0.epub,0,2000-01-01 01:00:00,2016-04-03 02:51:08,504000/B173F1A2E663EB9D3A31BF89250021A0-g.jpg,,
19523236,"Teaching pilates for postural faults, illness and injury: a practical guide",,,,Jane Paterson RGN Adult Education Teacher  Pilates Teacher and Teacher Trainer  trained classical dancer,2008,1,Butterworth-Heinemann,,277,0,English,203,,до 2011-01,"0750656476,9780750656474",,,,,,,,,OL10809132M,,0,,,,,,,1,7598586,pdf,B17A1CD1039FA5A3C892717C384705D0,,,D:\\!genesis\\library.nu\\b1\\_310167.b17a1cd1039fa5a3c892717c384705d0.pdf,0,2000-01-01 01:00:00,2016-04-03 02:51:08,504000/b17a1cd1039fa5a3c892717c384705d0-d.jpg,,
19523237,Photoshop Elements 7 για Windows και Μac,,,,"Nick Vandome, Παναγιώτης Ηλιόπουλος (μετάφραση)",2010,,ΕΘΝΟΣ Α.Ε.,,194,0,Greek,85,,до 2011-01,,,,,,,,,,,,0,,,,,,1,1,68435098,pdf,B1B48BBD4E51F539D59870E687EB3396,,,D:\\!genesis\\library.nu\\b1\\_310081.b1b48bbd4e51f539d59870e687eb3396.pdf,0,2000-01-01 01:00:00,2016-04-03 02:51:08,504000/b1b48bbd4e51f539d59870e687eb3396-g.jpg,,
19523238,Palpation and Assessment Skills,,,,"Leon Chaitow, Graeme Chambers, Viola M. Frymann",2003,2,Churchill Livingstone,,400,0,English,,,до 2011-01,"0443072183,9780443072185",,,,,,,,,OL9669284M,,0,,,,,,,1,5633635,pdf,B15FD25EF6BEB9173E65A8A037D833A2,,,D:\\!genesis\\library.nu\\b1\\_310051.b15fd25ef6beb9173e65a8a037d833a2.pdf,0,2000-01-01 01:00:00,2016-04-03 02:51:08,504000/b15fd25ef6beb9173e65a8a037d833a2-d.jpg,,
19523239,"Digital Human Modeling: Second International Conference, ICDHM 2009, Held as Part of HCI International 2009 San Diego, CA, USA, July 19-24, 2009 ... Applications, incl. Internet Web, and HCI)",,Lecture Notes in Computer Science 5620,,Vincent G. Duffy,2009,1,Springer,,767,0,English,137,,до 2011-01,"364202808X,9783642028083",,,,,,,,,,,0,,,,,,1,1,31968269,pdf,B13D6DE64650A5AB4F1BE710E4C5641E,,,D:\\!genesis\\library.nu\\b1\\_310016.b13d6de64650a5ab4f1be710e4c5641e.pdf,0,2000-01-01 01:00:00,2016-04-03 02:51:08,504000/b13d6de64650a5ab4f1be710e4c5641e-d.jpg,,
19523240,"Logic Programming and Nonmonotonic Reasoning: 10th International Conference, LPNMR 2009, Potsdam, Germany, September 14-18, 2009, Proceedings (Lecture ...   Lecture Notes in Artificial Intelligence)",,Lecture Notes in Computer Science 5753,,"Esra Erdem, Fangzhen Lin, Torsten Schaub",2009,1,Springer,,669,0,English,87,,до 2011-01,"3642042376,9783642042379",,,,,,,,,,,0,,,,,,1,1,7522496,pdf,B1468C6FC3EFD520F73C47A11988B152,,,D:\\!genesis\\library.nu\\b1\\_309413.b1468c6fc3efd520f73c47a11988b152.pdf,0,2000-01-01 01:00:00,2016-04-03 02:51:08,504000/b1468c6fc3efd520f73c47a11988b152-d.jpg,,
19523241,"Implementation and Application of Automata: 14th International Conference, CIAA 2009, Sydney, Australia, July 14-17, 2009, Proceedings (Lecture Notes ... Computer Science and General Issues)",,Lecture Notes in Computer Science 5642,,Sebastian Maneth,2009,1,Springer,,271,0,English,69,,до 2011-01,"3642029787,9783642029783",,,,,,,,,,,0,,,,,,1,1,4795669,pdf,B1E2ED2E3685ABD07BF177FEF4BE1DC8,,,D:\\!genesis\\library.nu\\b1\\_309210.b1e2ed2e3685abd07bf177fef4be1dc8.pdf,0,2000-01-01 01:00:00,2016-04-03 02:51:08,504000/b1e2ed2e3685abd07bf177fef4be1dc8-d.jpg,,
19523242,"Tomorrow's Table: Organic Farming, Genetics, and the Future of Food",,,,"Pamela C. Ronald, R. W. Adamchak",2008,,"Oxford University Press, USA",,227,0,English,300,,до 2011-01,"0195301757,9780195301755",,,,,664,TP248.65.F66 R66 2007,,,OL10134929M,,0,,,,,,1,1,2033399,pdf,B1EC29453696113C6CFE6D5D8B67A3A5,,,D:\\!genesis\\library.nu\\b1\\_308805.b1ec29453696113c6cfe6d5d8b67a3a5.pdf,0,2000-01-01 01:00:00,2016-04-03 02:51:08,504000/b1ec29453696113c6cfe6d5d8b67a3a5-d.jpg,,
19523243,Encyclopedia of Geobiology (Encyclopedia of Earth Sciences Series),,Encyclopedia of Earth Sciences Series,,"Joachim Reitner, Volker Thiel",2011,1st Edition.,Springer,,956,0,English,18,,до 2011-01,"1402092113,9781402092114",,,,,,,,,,,0,,,,,,1,1,41672675,pdf,B15229F4542F6C26ADA4C0320ECC0DC3,,,D:\\!genesis\\library.nu\\b1\\_308639.b15229f4542f6c26ada4c0320ecc0dc3.pdf,0,2000-01-01 01:00:00,2016-04-03 02:51:08,504000/b15229f4542f6c26ada4c0320ecc0dc3-d.jpg,,
19523244,Introduction to Statistical Mechanics,,,,G. S Rushbrooke,1949,,Clarendon Press,,347,0,English,271,,до 2011-01,,,,,,,,,,,,0,,,,,,,0,3726310,djvu,B11DCD83F1E06052949E1ACC07AB7FE7,765df0b4d303bde1f188258e45ec05f0,no,D:\\!genesis\\library.nu\\b1\\_308449.b11dcd83f1e06052949e1acc07ab7fe7.djvu,0,2000-01-01 01:00:00,2016-04-03 02:51:08,504000/b11dcd83f1e06052949e1acc07ab7fe7-g.jpg,,
19523245,Snowshoeing,,,,"Gene Prater, Dave Felkley",1997,4th,Mountaineers Books,,189,0,English,,,до 2011-01,"0898864976,9780898864977",,,,,796.92,GV853 .P72 1997,,,OL683215M,,0,,,,,,,,3115775,chm,B12261634806C6AFFC049E4EDF0C4C3D,,,D:\\!genesis\\library.nu\\b1\\_308126.b12261634806c6affc049e4edf0c4c3d.chm,0,2000-01-01 01:00:00,2016-04-03 02:51:08,504000/b12261634806c6affc049e4edf0c4c3d-d.jpg,,
19523246,Еклисиолошке теме,,6,,Јован Зизјулас,2001,Савремено богословље,"Беседа, Нови Сад",,171,0,Serbian,,,до 2011-01,,,,,,,,,,,,0,,,,,,,1,1287613,pdf,B17AF9016250D5C8CAEA4785CC765FD5,,,D:\\!genesis\\library.nu\\b1\\_307480.b17af9016250d5c8caea4785cc765fd5.pdf,0,2000-01-01 01:00:00,2016-04-03 02:51:08,504000/b17af9016250d5c8caea4785cc765fd5-g.jpg,,
19523247,The Mirror of the Sea,,,,Joseph Conrad,,,,,,0,English,,,до 2011-01,,,,,,,,,,,,0,,,,,,,,160627,epub,B13D7FCAC7194B9F8F5AE1B6B84B3810,,,D:\\!genesis\\library.nu\\b1\\_307319.b13d7fcac7194b9f8f5ae1b6b84b3810.epub,0,2000-01-01 01:00:00,2016-04-03 02:51:08,504000/B13D7FCAC7194B9F8F5AE1B6B84B3810-g.jpg,,
19523248,Play Dead,,Andy Carpenter 6,,David Rosenfelt,2009,,Grand Central Publishing,,,0,English,,,до 2011-01,9780446544283,,,,,,,,,OL24299901M,,0,,,,,,,1,376010,epub,B181205DCE5052503FBF6734F7E9C03C,,,D:\\!genesis\\library.nu\\b1\\_306419.b181205dce5052503fbf6734f7e9c03c.epub,0,2000-01-01 01:00:00,2016-04-03 02:51:08,504000/B181205DCE5052503FBF6734F7E9C03C-g.jpg,,
19523249,Managing Public Debt: From Diagnostics to Reform Implementation,,,,World Bank,2007,,World Bank Publications,,140,0,English,7,,до 2011-01,"0821368729,9780821368725",,,,,,,10.1596/978-0-8213-6872-5,,OL15613679M,,0,,,,,,1,1,607282,pdf,B103D9E87C9FEC008C47E89D7310A50A,,,D:\\!genesis\\library.nu\\b1\\_306414.b103d9e87c9fec008c47e89d7310a50a.pdf,0,2000-01-01 01:00:00,2016-04-03 02:51:08,504000/b103d9e87c9fec008c47e89d7310a50a-d.jpg,,
19523250,"Duden. Briefe gut und richtig schreiben!: Ratgeber fur richtiges und modernes Schreiben. Musterbriefe und Korrekturzeichen nach DIN; Hinweise fur das ... mit rund 47.000 Stichwortern, Register",,,,Dudenredaktion,2006,,"Bibliographisches Institut, Mannheim",,949,0,German,,,до 2011-01,"3411055642,9783411055647",,,,,,,,,,,0,,,,,,,1,8723689,pdf,B14D768BD68C384A2D7FD34E2DE78C8D,,,D:\\!genesis\\library.nu\\b1\\_305608.b14d768bd68c384a2d7fd34e2de78c8d.pdf,0,2000-01-01 01:00:00,2016-04-03 02:51:08,504000/b14d768bd68c384a2d7fd34e2de78c8d-g.jpg,,
19523251,"Publication Manual of the American Psychological Association, Sixth Edition",,,,American Psychological Association,2009,6th,American Psychological Association (APA),,289,0,English,198,,до 2011-01,"1433805618,9781433805615",,,,,808/.06615,BF76.7 .P83 2010,,,OL23186506M,,600,,,,,,,1,16058104,pdf,B19D4DF85E586A854EC3DE8022148799,,,D:\\!genesis\\library.nu\\b1\\_305534.b19d4df85e586a854ec3de8022148799.pdf,0,2000-01-01 01:00:00,2016-04-03 02:51:08,504000/b19d4df85e586a854ec3de8022148799-d.jpg,,
19523252,Address terms in the service of other actions: The case of news interview talk,4,,,Steven E. Clayman,2010,,SAGE (Discourse & Communication),,23,0,English,,,до 2011-01,,,,,,,,10.1177/1750481310364330,,,,0,,,,,,,1,336302,pdf,B13D46A33806DAE777022C5CF9F5C9EA,,,D:\\!genesis\\library.nu\\b1\\_305474.b13d46a33806dae777022c5cf9f5c9ea.pdf,0,2000-01-01 01:00:00,2016-04-03 02:51:08,504000/b13d46a33806dae777022c5cf9f5c9ea-g.jpg,,
19523253,Teologija ranih grckih filozofa : Gifordova predavanja 1936.,,,,Verner Jeger (Werner Jaeger),2007,,Službeni glasnik,,221,0,Serbian,,,до 2011-01,,,,,,,,,,,,0,,,,,,,0,19954946,pdf,B1C28866ECF2AC77DA27E1B6EF04721A,,,D:\\!genesis\\library.nu\\b1\\_305002.b1c28866ecf2ac77da27e1b6ef04721a.pdf,0,2000-01-01 01:00:00,2016-04-03 02:51:08,504000/b1c28866ecf2ac77da27e1b6ef04721a-g.jpg,,
19523254,"Learning Matlab 6, Release 12, Matlab Student Version",,,,The MathWorks,2001,2nd Printing,The MathWorks,,296,0,English,183,,до 2011-01,"0967219531,9780967219530",,,,,,,,,OL8556078M,,0,,,,,,1,1,2260288,pdf,B11D3E799714BD2ADB08F7989C7292B2,,,D:\\!genesis\\library.nu\\b1\\_304251.b11d3e799714bd2adb08f7989c7292b2.pdf,0,2000-01-01 01:00:00,2016-04-03 02:51:08,504000/b11d3e799714bd2adb08f7989c7292b2-d.jpg,,
19523255,Formation en maintenance informatique TP2,,,,www.dreamlive.fr,,,,,125,0,French,,,до 2011-01,,,,,,,,,,,,0,,,,,,,1,2802911,pdf,B13D5201E6B4898E19FFF1C4B5EBE864,,,D:\\!genesis\\library.nu\\b1\\_304094.b13d5201e6b4898e19fff1c4b5ebe864.pdf,0,2000-01-01 01:00:00,2016-04-03 02:51:08,504000/b13d5201e6b4898e19fff1c4b5ebe864-g.jpg,,
19523256,Challenges for Agricultural Research,,,,OECD,2011,,OECD Publishing,,305,0,English,,,до 2011-01,"9264090096,9789264090095,9789264090101",,,,,,,10.1787/9789264090101-en,,,,0,,,,,,1,1,5402533,pdf,B188DCAAAE39AC1C90F314087712E39F,,,D:\\!genesis\\library.nu\\b1\\_303268.b188dcaaae39ac1c90f314087712e39f.pdf,0,2000-01-01 01:00:00,2016-04-03 02:51:08,504000/b188dcaaae39ac1c90f314087712e39f-d.jpg,,
19523257,"Character Education: A Book Guide for Teachers, Librarians, and Parents",,,,Sharron L. McElmeel,2002,,Libraries Unlimited,,257,0,English,183,,до 2011-01,"1563088843,9781563088841",,,,,,,,,OL8642052M,,0,,,,,,1,1,767321,pdf,B1CD7D7368296C3946E72C0066AB8B05,,,D:\\!genesis\\library.nu\\b1\\_302979.b1cd7d7368296c3946e72c0066ab8b05.pdf,0,2000-01-01 01:00:00,2016-04-03 02:51:08,504000/b1cd7d7368296c3946e72c0066ab8b05-d.jpg,,
19523258,Harvard Business Review (November 2010 - Leadership Lessons from the Military),,,,"Harvard Business Review, HBR, Soumitra Dutta, Bhaskar Chakravorti, Robert Simons",2010,,Harvard Business Review,,156,0,English,67,,до 2011-01,,,,,,,,,,,,0,,,,,,1,1,64001544,pdf,B19E4EF9984304773A4C09962ECEEAC3,,,D:\\!genesis\\library.nu\\b1\\_302784.b19e4ef9984304773a4c09962eceeac3.pdf,0,2000-01-01 01:00:00,2016-04-03 02:51:08,504000/b19e4ef9984304773a4c09962eceeac3-g.jpg,,
19523259,Chi Kung: Health and Martial Arts,,,,Yang Jwing-Ming,1996,2nd,YMAA Publication Center,,121,0,English,57,,до 2011-01,"0940871009,9780940871007",,,,,613.7,,,,OL23765219M,,0,,,,,,,0,13606382,pdf,B19B82FC291C70A9FE490EDC6E35C537,,,D:\\!genesis\\library.nu\\b1\\_302352.b19b82fc291c70a9fe490edc6e35c537.pdf,0,2000-01-01 01:00:00,2016-04-03 02:51:08,504000/b19b82fc291c70a9fe490edc6e35c537-d.jpg,,
19523260,Critical Play: Radical Game Design,,,,Mary Flanagan,2009,,The MIT Press,,363,0,English,196,,до 2011-01,"0262062682,9780262062688",,,,,794.8/1536,GV1230 .F53 2009,,,OL22552202M,,0,,,,,,1,1,5224231,pdf,B1F8F6A38CCA5919FB32611C9E33311B,,,D:\\!genesis\\library.nu\\b1\\_302349.b1f8f6a38cca5919fb32611c9e33311b.pdf,0,2000-01-01 01:00:00,2016-04-03 02:51:08,504000/b1f8f6a38cca5919fb32611c9e33311b-d.jpg,,
19523261,Broken Angels,,Takeshi Kovacs 2,,Richard Morgan,2003,,Gollancz,,400,0,English,,,до 2011-01,"0575073233,0575073241",,,,,,,,,OL7878667M,,0,,,,,,,1,477940,epub,B1E2097CA3ACC5F3A06D0379C1C8D258,,,D:\\!genesis\\library.nu\\b1\\_302027.b1e2097ca3acc5f3a06d0379c1c8d258.epub,0,2000-01-01 01:00:00,2016-04-03 02:51:08,504000/b1e2097ca3acc5f3a06d0379c1c8d258-d.jpg,,
19523262,"New Moon (The Twilight Saga, Book 2)",,,,Stephenie Meyer,2006,1St Edition,"Little, Brown Books for Young Readers",,608,0,English,,,до 2011-01,"0316160199,9780316160193",,,,,,,,,OL19708070M,,0,,,,,,,1,1133109,pdf,B1737EA5362DEC6E55C00F297CEE511B,,,D:\\!genesis\\library.nu\\b1\\_301711.b1737ea5362dec6e55c00f297cee511b.pdf,0,2000-01-01 01:00:00,2016-04-03 02:51:08,504000/b1737ea5362dec6e55c00f297cee511b-d.jpg,,
19523263,Mapping Intermediality in Performance (Amsterdam University Press - MediaMatters),,,,"Sarah Bay-Cheng, Chiel Kattenbelt, Andy Lavender, Robin Nelson",2011,,Amsterdam University Press,,304,0,English,,,до 2011-01,"9089642552,9789089642554",,,,,,,,,OL25097370M,,0,,,,,,1,1,3832980,pdf,B15FCBED9B4FE0EF1433D316B87A35AC,,,D:\\!genesis\\library.nu\\b1\\_301291.b15fcbed9b4fe0ef1433d316b87a35ac.pdf,0,2000-01-01 01:00:00,2016-04-03 02:51:08,504000/b15fcbed9b4fe0ef1433d316b87a35ac-d.jpg,,
19523264,New Directions in Web Data Management 1,,Studies in Computational Intelligence 331,,"Athena Vakali, Lakhmi C Jain",2011,1st Edition.,Springer,,364,0,English,116,,до 2011-01,"3642175503,9783642175503",,,,,,,10.1007/978-3-642-17551-0,,,,0,,,,,,1,1,4844355,pdf,B12875411AF9B6C8FC86C6257851CC7A,,,D:\\!genesis\\library.nu\\b1\\_301272.b12875411af9b6c8fc86c6257851cc7a.pdf,0,2000-01-01 01:00:00,2016-04-03 02:51:08,504000/b12875411af9b6c8fc86c6257851cc7a-d.jpg,,
19523265,Principles of Thermodynamics (Undergraduate Chemistry: A Series of Textbooks),,,,Myron Kaufman,2002,1,CRC Press,,408,0,English,296,,до 2011-01,"0824706927,9780824706920",,,,,,,,,OL18137423M,,0,,,,,,,1,2715853,pdf,B1948335D3BD1632BB4AE225F32B2E5F,,,D:\\!genesis\\library.nu\\b1\\_300941.b1948335d3bd1632bb4ae225f32b2e5f.pdf,0,2000-01-01 01:00:00,2016-04-03 02:51:08,504000/b1948335d3bd1632bb4ae225f32b2e5f-d.jpg,,
19523266,Intrapartum Care: Care of Healthy Women and Their Babies During Childbirth,,,,dimaa,2007,,RCOG Press,,308,0,English,,,до 2011-01,"1904752365,9781904752363",,,,,,,,,,,0,,,,,,,1,3238840,pdf,B12733203C2B13120143F5E79BFAA39B,,,D:\\!genesis\\library.nu\\b1\\_300576.b12733203c2b13120143f5e79bfaa39b.pdf,0,2000-01-01 01:00:00,2016-04-03 02:51:08,504000/b12733203c2b13120143f5e79bfaa39b-d.jpg,,
19523267,"Les Mille et une nuits, tome 3",,,,Antoine Galland,2004,,Flammarion,,431,0,French,,,до 2011-01,,,,,,,,,,,,0,,,,,,1,1,1477176,pdf,B1D3AC5819F8F0F77A83B03677161D70,,,D:\\!genesis\\library.nu\\b1\\_300281.b1d3ac5819f8f0f77a83b03677161d70.pdf,0,2000-01-01 01:00:00,2016-04-03 02:51:08,504000/b1d3ac5819f8f0f77a83b03677161d70-g.jpg,,
19523268,"Computational Intelligence, Theory and Applications: International Conference 8th Fuzzy Days in Dortmund, Germany, Sept. 29-Oct. 01, 2004 Proceedings (Advances in Soft Computing)",,Advances in Soft Computing,,Bernd Reusch,2005,1,Springer,,810,0,English,120,,до 2011-01,"3540228071,9783540228073",,,,,,,,,OL9697991M,,0,,,,,,1,1,12699862,pdf,B1CF12DAA086AD17249D134905FC8BC1,,,D:\\!genesis\\library.nu\\b1\\_299992.b1cf12daa086ad17249d134905fc8bc1.pdf,0,2000-01-01 01:00:00,2016-04-03 02:51:08,504000/b1cf12daa086ad17249d134905fc8bc1-d.jpg,,
19523269,Greek Poetry 2000-700 B. C.,"Vol. 23, No. 2",,,M. L. West,1973,,The Classical Association,,15,0,English,,,до 2011-01,,,,,,,,,,,,0,,,,,,,1,465916,pdf,B18D80459298AEA97468B0406081EB81,,,D:\\!genesis\\library.nu\\b1\\_299980.b18d80459298aea97468b0406081eb81.pdf,0,2000-01-01 01:00:00,2016-04-03 02:51:08,504000/b18d80459298aea97468b0406081eb81-g.jpg,,
19523270,Twilight of Atlantis (d20 3.0 Fantasy Roleplaying),,,,"Jim Lai, Jason Donovan, John R. Phythyon Jr.",2001,,Avalanche Press,,50,0,English,,,до 2011-01,"0970796145,9780970796141",,,,,,,,,OL8562385M,,0,,,,,,,1,25762098,pdf,B14184B41129BF416879457547A5A039,,,D:\\!genesis\\library.nu\\b1\\_299781.b14184b41129bf416879457547a5a039.pdf,0,2000-01-01 01:00:00,2016-04-03 02:51:08,504000/b14184b41129bf416879457547a5a039-d.jpg,,
19523271,Nicolas Malebranche: Freedom in an Occasionalist World (Continuum Studies in Philosophy),,,,Susan Peppers-Bates,2009,,,,160,0,English,183,,до 2011-01,1847061893,,,,,194,B1897 .P47 2009,,,OL23016274M,,0,,,,,,1,1,748160,pdf,B13B68A8B514BD919BB19FDCEC04853A,,,D:\\!genesis\\library.nu\\b1\\_299650.b13b68a8b514bd919bb19fdcec04853a.pdf,0,2000-01-01 01:00:00,2016-04-03 02:51:08,504000/b13b68a8b514bd919bb19fdcec04853a-d.jpg,,
19523272,Real Writing 3 with Answers ( Cambridge English Skills ),,,,Roger Gower,2008,1 Pap/Com,,,112,0,English,314,,до 2011-01,0521705924,,,,,,,,,,,0,,,,,,1,0,56844797,pdf,B1D8D37634F3FFA931F24726E3520019,,,D:\\!genesis\\library.nu\\b1\\_299563.b1d8d37634f3ffa931f24726e3520019.pdf,0,2000-01-01 01:00:00,2016-04-03 02:51:08,504000/b1d8d37634f3ffa931f24726e3520019-d.jpg,,
19523273,Bright Eyes (Coulter Family Series),,,,Catherine Anderson,2004,Signet,Signet,,419,0,English,41,,до 2011-01,"0451212169,9780451212160",,,,,,,,,OL3388850M,,0,,,,,,,1,569894,pdf,B1E46AA132CF22B4D21E847935E7B650,,,D:\\!genesis\\library.nu\\b1\\_299478.b1e46aa132cf22b4d21e847935e7b650.pdf,0,2000-01-01 01:00:00,2016-04-03 02:51:08,504000/b1e46aa132cf22b4d21e847935e7b650-d.jpg,,
19523274,"Exploring the Thalamus and Its Role in Cortical Function, Second Edition",,,,"S. Murray Sherman, R. W. Guillery",2005,2,The MIT Press,,497,0,English,305,,до 2011-01,"0262195321,9780262195324",,,,,612.8/262,QP383.5 .S53 2006,,,OL3427859M,,0,,,,,,,1,2769740,pdf,B12D38349398C3000E93FEF824970455,,,D:\\!genesis\\library.nu\\b1\\_299115.b12d38349398c3000e93fef824970455.pdf,0,2000-01-01 01:00:00,2016-04-03 02:51:08,504000/b12d38349398c3000e93fef824970455-d.jpg,,
19523275,"Master nach Plan: Erfolgreich ins Masterstudium: Auswahl, Bewerbung, Finanzierung, Ausland. Mit Musterdokumenten. 2. Auflage",,,,Sebastian Horndasch,2010,Mit Arbeitsmaterialien im Web,"Springer, Berlin",,195,0,German,183,,до 2011-01,"3642130194,9783642130199",,,,,,,,,,,0,,,,,,1,1,1151080,pdf,B10A4BC5D126584D63798F7D9602C7DD,,,D:\\!genesis\\library.nu\\b1\\_298995.b10a4bc5d126584d63798f7d9602c7dd.pdf,0,2000-01-01 01:00:00,2016-04-03 02:51:08,504000/b10a4bc5d126584d63798f7d9602c7dd-d.jpg,,
19523276,Transactions on Rough Sets XIII,,Lecture Notes in Computer Science 6499,,"James F. Peters, Andrzej Skowron, Chien-Chung Chan, Jerzy W. Grzymala-Busse, Wojciech P. Ziarko",2011,1st Edition.,Springer,,287,0,English,,,до 2011-01,"3642183018,9783642183010",,,,,,,10.1007/978-3-642-18302-7,,,,0,,,,,,1,1,4811276,pdf,B16233345F7904022BF97404A0ECE598,,,D:\\!genesis\\library.nu\\b1\\_298924.b16233345f7904022bf97404a0ece598.pdf,0,2000-01-01 01:00:00,2016-04-03 02:51:08,504000/b16233345f7904022bf97404a0ece598-d.jpg,,
19523277,Developing Decisionmaking Skills for Business,,,,Julian Lincoln Simon,2000,,M.E. Sharpe,,229,0,English,1,,до 2011-01,"0765606763,9780765606761",,,,,,,,,OL8054617M,,0,,,,,,,1,1294188,pdf,B1C224F2AFBE2AFDC052AD7589E55975,,,D:\\!genesis\\library.nu\\b1\\_298551.b1c224f2afbe2afdc052ad7589e55975.pdf,0,2000-01-01 01:00:00,2016-04-03 02:51:08,504000/b1c224f2afbe2afdc052ad7589e55975-d.jpg,,
19523278,"Is There a Temperature?: Conceptual Challenges at High Energy, Acceleration and Complexity",,Fundamental Theories of Physics 1014,,Tamas Sandor Biro,2011,1st Edition.,Springer,,325,0,English,137,,до 2011-01,"1441980407,9781441980403",,,,,,,10.1007/978-1-4419-8041-0,,OL24868954M,,0,,,,,,,1,2775805,pdf,B1632F9FAAAD9CD3BEA08330ABEEDDC2,,,D:\\!genesis\\library.nu\\b1\\_298392.b1632f9faaad9cd3bea08330abeeddc2.pdf,0,2000-01-01 01:00:00,2016-04-03 02:51:08,504000/b1632f9faaad9cd3bea08330abeeddc2-d.jpg,,
19523279,Java-Intensivkurs: In 14 Tagen lernen Projekte erfolgreich zu realisieren (Xpert.Press),,,,Marco Block,2010,2. Aufl.,"Springer, Berlin",,291,0,German,92,,до 2011-01,"3642039545,9783642039546,9783642039553",,,,,,,,,,,0,,,,,,1,1,3825669,pdf,B1E532D5F12E298A6298E3DDBDD8128E,,,D:\\!genesis\\library.nu\\b1\\_298220.b1e532d5f12e298a6298e3ddbdd8128e.pdf,0,2000-01-01 01:00:00,2016-04-03 02:51:08,504000/b1e532d5f12e298a6298e3ddbdd8128e-d.jpg,,
19523280,Rollo at Play,,Rollo Series,,Jacob Abbott,2009,,Yesterday's Classics,,148,0,English,,,до 2011-01,"1599153432,9781599153438",,,,,,,,,,,0,,,,,,,1,1827856,epub,B110ACC079F7F64C3807887C934CE897,,,D:\\!genesis\\library.nu\\b1\\_298030.b110acc079f7f64c3807887c934ce897.epub,0,2000-01-01 01:00:00,2016-04-03 02:51:08,504000/b110acc079f7f64c3807887c934ce897-d.jpg,,
19523281,Dialogos com Nietzsche,,,,Gianni Vattimo,2010,,Martins Fontes,,384,0,Portuguese,,,до 2011-01,9788578272869,,,,,,,,,,,0,,,,,,,0,10520302,pdf,B1E430385CE5E6065C91780D1070DEE2,,,D:\\!genesis\\library.nu\\b1\\_297580.b1e430385ce5e6065c91780d1070dee2.pdf,0,2000-01-01 01:00:00,2016-04-03 02:51:08,504000/b1e430385ce5e6065c91780d1070dee2-g.jpg,,
19523282,Semi-Field Methods for the Environmental Risk Assessment of Pesticides in Soil,,,,"Andreas Schaeffer, Paul J. van den Brink, Fred Heimbach, Simon P. Hoy, Frank M.W. de Jong, Jorg Rombke, Martina Ro?-Nickoll, Jose P. Sousa",2010,1,CRC Press,,146,0,English,31,,до 2011-01,"143982858X,9781439828588",,,,,,,,,,,0,,,,,,,1,3626689,pdf,B1A5C68CF39B5CD262F969AF0E38A983,,,D:\\!genesis\\library.nu\\b1\\_297073.b1a5c68cf39b5cd262f969af0e38a983.pdf,0,2000-01-01 01:00:00,2016-04-03 02:51:08,504000/b1a5c68cf39b5cd262f969af0e38a983-d.jpg,,
19523283,The Language of Female Leadership,,,,Judith Baxter,2010,,Palgrave Macmillan,,256,0,English,314,,до 2011-01,"1403997888,9781403997883",,,,,658.4/092014,HD6054.3 .B39 2010,,,OL23919009M,,0,,,,,,,,722103,epub,B12C053A122989AF168053CCE84E4FC1,,,D:\\!genesis\\library.nu\\b1\\_296184.b12c053a122989af168053cce84e4fc1.epub,0,2000-01-01 01:00:00,2016-04-03 02:51:08,504000/b12c053a122989af168053cce84e4fc1-d.jpg,,
19523284,Write Your Own Biography (Write Your Own Series),,,,Natalie M. Rosinsky,2008,1st,Compass Point Books,,64,0,English,18,,до 2011-01,"075653366X,9780756533663",,,,,,,,,OL7994428M,,0,,,,,,,0,6644378,djvu,B1061271ECA0499BF0209E6CB421DF9F,,,D:\\!genesis\\library.nu\\b1\\_296159.b1061271eca0499bf0209e6cb421df9f.djvu,0,2000-01-01 01:00:00,2016-04-03 02:51:08,504000/b1061271eca0499bf0209e6cb421df9f-d.jpg,,
19523285,"Strike in the West,: The complete story of the Cuban crisis,",,,,James Daniel,1963,1st,"Holt, Rinehart and Winston",,188,0,English,137,,до 2011-01,,,B0006AYN66,,,,,,,,,0,,,,,,,1,8179849,pdf,B1E5428A2719B9D26815274E86BE2B84,,,D:\\!genesis\\library.nu\\b1\\_295989.b1e5428a2719b9d26815274e86be2b84.pdf,0,2000-01-01 01:00:00,2016-04-03 02:51:08,504000/b1e5428a2719b9d26815274e86be2b84-d.jpg,,
19523286,Introducing Research and Data in Psychology: A Guide to Methods and Analysis (Routledge Modular Psychology),,,,Ann Searle,1999,1,,,288,0,English,116,,до 2011-01,041518875X,,,,,150//.7/2,BF76.5 .S38 1999,,,OL372307M,,0,,,,,1,,1,1143902,pdf,B1324E07BE0DBDD7FA8413C18C9B8289,,,D:\\!genesis\\library.nu\\b1\\_29572.b1324e07be0dbdd7fa8413c18c9b8289.pdf,0,2000-01-01 01:00:00,2016-04-03 02:51:08,504000/b1324e07be0dbdd7fa8413c18c9b8289-d.jpg,,
19523287,"The Jarrods, Wedding His Takeover Target   ",,"The Jarrods, Silhouette Desire",,Emilie Rose,2010,,Silhouette,,,0,English,,,до 2011-01,"9781426874741,142687474X",,,,,,,,,,,0,,,,,,,1,589090,epub,B1651CBAB818F4F4DB1066D741B2D489,,,D:\\!genesis\\library.nu\\b1\\_295266.b1651cbab818f4f4db1066d741b2d489.epub,0,2000-01-01 01:00:00,2016-04-03 02:51:08,504000/B1651CBAB818F4F4DB1066D741B2D489-g.jpg,,
19523288,Starting Something: An Entrepreneur's Tale of Corporate Culture,,,,Wayne McVicker,2006,,"Ravel Media, LLC",,409,0,English,,,до 2011-01,"1932881026,9781932881028",,,,,,,,,OL8811561M,,0,,,,,,,,1955194,epub,B1DAC72FC43DB83CA16246E3BEBF7AC2,,,D:\\!genesis\\library.nu\\b1\\_295057.b1dac72fc43db83ca16246e3bebf7ac2.epub,0,2000-01-01 01:00:00,2016-04-03 02:51:08,504000/b1dac72fc43db83ca16246e3bebf7ac2-d.jpg,,
19523289,Fundamentos practicos en anestesiologia y reanimacion. Cardiovascular y respiratorio,,,,"A. Criado Jimenez, S. Garcia De Valle , J. Navia Roque",,,,,401,0,Spanish,159,,до 2011-01,978-84-8473-685-1,,,,,,,,,,,0,,,,,,,1,3112110,pdf,B18956552780CB48C5404FD292F261F1,,,D:\\!genesis\\library.nu\\b1\\_294911.b18956552780cb48c5404fd292f261f1.pdf,0,2000-01-01 01:00:00,2016-04-03 02:51:08,504000/b18956552780cb48c5404fd292f261f1-g.jpg,,
19523290,"Safety Assessment of Transgenic Organisms, Volume 3: OECD Consensus Documents",,,,OECD Publishing,2010,,Org. for Economic Cooperation & Development,,327,0,English,,,до 2011-01,"926409542X,9789264095427",,,,,,,10.1787/9789264095434-en,,,,0,,,,,,1,1,2745789,pdf,B1E4D2DCD9B389FD85457A1B7F505100,,,D:\\!genesis\\library.nu\\b1\\_294885.b1e4d2dcd9b389fd85457a1b7f505100.pdf,0,2000-01-01 01:00:00,2016-04-03 02:51:08,504000/b1e4d2dcd9b389fd85457a1b7f505100-d.jpg,,
19523291,BASICS Biochemie,,,,"Hanni Kirchner, Julia Muhlhau?er",2009,,Urban & Fischer Verlag\\/Elsevier,,159,0,German,296,,до 2011-01,,,,,,,,,,,,0,,,,,,,1,34859335,pdf,B1A552FF00E274F330383EF96E8DF7E0,,,D:\\!genesis\\library.nu\\b1\\_294819.b1a552ff00e274f330383ef96e8df7e0.pdf,0,2000-01-01 01:00:00,2016-04-03 02:51:08,504000/b1a552ff00e274f330383ef96e8df7e0-g.jpg,,
19523292,The Legal and Moral Aspects of International Trade: Freedom and Trade: Volume Three (Routledge Studies in the Modern World Economy),,,,"Geraint Parry, Geraint B Parry, Asif Qureshi, Hillel Steiner",1998,,Routledge,,240,0,English,183,,до 2011-01,"0415155266,9780415155267",,,,,382/.71,HF1703 .F745 1998,,,OL20164745M,,0,,,,,,1,1,818870,pdf,B1A0E07E6D0BD08CE96F45142600D484,,,D:\\!genesis\\library.nu\\b1\\_293946.b1a0e07e6d0bd08ce96f45142600d484.pdf,0,2000-01-01 01:00:00,2016-04-03 02:51:08,504000/b1a0e07e6d0bd08ce96f45142600d484-d.jpg,,
19523293,Methods of Nonlinear Analysis - Volume 1 (Mathematics in Science & Engineering),,,,Richard Bellman,1970,,Elsevier Science,,365,0,English,210,,до 2011-01,"0120849011,9780120849017",,,,,,,,,,,0,,,,,,1,1,11809385,pdf,B15F2834B3450839975415BF464985D5,,,D:\\!genesis\\library.nu\\b1\\_293473.b15f2834b3450839975415bf464985d5.pdf,0,2000-01-01 01:00:00,2016-04-03 02:51:08,504000/b15f2834b3450839975415bf464985d5-d.jpg,,
19523294,Religia Slowian (Mala Biblioteka Religii),,,,Andrzej Szyjewski,2003,,Wydawn. Wam,,268,0,Polish,205,,до 2011-01,"8373182055,9788373182059",,,,,,,,,OL13184338M,,0,,,,,,1,1,1150504,pdf,B1B55930A39A8987F1CAFA64138105E3,,,D:\\!genesis\\library.nu\\b1\\_293458.b1b55930a39a8987f1cafa64138105e3.pdf,0,2000-01-01 01:00:00,2016-04-03 02:51:08,504000/b1b55930a39a8987f1cafa64138105e3-g.jpg,,
19523295,Historia De Mayta,,,,Mario Vargas Llosa,2000,1st.,"Ediciones Alfaguara SA, Grupo Santillana",,376,0,Spanish,64,,до 2011-01,"8420484156,9788420484150",,,,,,,,,OL9116687M,,0,,,,,,,1,1065225,pdf,B17545CECE0CA7AE0EA08AD740EC383E,,,D:\\!genesis\\library.nu\\b1\\_292486.b17545cece0ca7ae0ea08ad740ec383e.pdf,0,2000-01-01 01:00:00,2016-04-03 02:51:08,504000/b17545cece0ca7ae0ea08ad740ec383e-d.jpg,,
19523296,La Verdad de Las Mentiras,,,,Mario Vargas Llosa,2002,1st.,Alfaguara,,219,0,Spanish,,,до 2011-01,"9505117922,9789505117925",,,,,,,,,,,0,,,,,,,1,421941,pdf,B126FC3ED35B38BDDD1523516425D2AE,,,D:\\!genesis\\library.nu\\b1\\_292468.b126fc3ed35b38bddd1523516425d2ae.pdf,0,2000-01-01 01:00:00,2016-04-03 02:51:08,504000/b126fc3ed35b38bddd1523516425d2ae-d.jpg,,
19523297,Introduction to Multivariate Statistical Analysis in Chemometrics,,,,"Kurt Varmuza, Peter Filzmoser",2009,1,CRC Press,,336,0,English,296,,до 2011-01,"1420059475,9781420059472",,,,,543.01/519535,QD75.4.C45 V37 2008,,,OL11816724M,,0,,,,,,1,1,8099607,pdf,B1130BCF8C394C47956A89127034974A,,,D:\\!genesis\\library.nu\\b1\\_292255.b1130bcf8c394c47956a89127034974a.pdf,0,2000-01-01 01:00:00,2016-04-03 02:51:08,504000/b1130bcf8c394c47956a89127034974a-d.jpg,,
19523298,Chemometric Techniques for Quantitative Analysis,,,,Richard Kramer,1998,1,CRC Press,,220,0,English,296,,до 2011-01,"0824701984,9780824701987",,,,,543/.0072,QD101.2 .K73 1998,,,OL345227M,,600,,,,,,,0,2429367,pdf,B174CA6C46A3C8ED836DBFB963DFF262,,,D:\\!genesis\\library.nu\\b1\\_292232.b174ca6c46a3c8ed836dbfb963dff262.pdf,0,2000-01-01 01:00:00,2016-04-03 02:51:08,504000/b174ca6c46a3c8ed836dbfb963dff262-d.jpg,,
19523299,A Vote of Confidence,,The Sisters of Bethlehem Springs 1,,Robin Lee Hatcher,2009,,Zondervan,,272,0,English,,,до 2011-01,"9780310564980,0310564980,9780310258056,0310258057",,,,,813/.54,PS3558.A73574 V68 2009,,,OL22843539M,,0,,,,,,,1,677489,epub,B1DB32FBF47A8898AB9BA119C0536DC3,,,D:\\!genesis\\library.nu\\b1\\_292095.b1db32fbf47a8898ab9ba119c0536dc3.epub,0,2000-01-01 01:00:00,2016-04-03 02:51:08,504000/b1db32fbf47a8898ab9ba119c0536dc3-d.jpg,,
19523300,The Political Ideology of Hamas: A Grassroots Perspective (Library of Modern Middle East Studies),,,,Michael Irving Jensen,2009,1,I. B. Tauris,,217,0,English,183,,до 2011-01,"1845110595,9781845110598",,,,,322.42095694,HV6433.P25 H3713 2009,,,OL11911232M,,0,,,,,,1,1,2626374,pdf,B124675E8256804C917C849AF622FFA8,,,D:\\!genesis\\library.nu\\b1\\_291973.b124675e8256804c917c849af622ffa8.pdf,0,2000-01-01 01:00:00,2016-04-03 02:51:08,504000/b124675e8256804c917c849af622ffa8-d.jpg,,
19523301,Katharsiskonzeptionen vor Aristoteles: Zum Kulturellen Hintergrund des Tragodiensatzes,,,,"Bernd Seidensticker, Martin Vohler",2007,1,De Gruyter,,284,0,German,,,до 2011-01,"3110184338,9783110184334",,,,,,,,,OL12664737M,,0,,,,,,1,1,1241622,pdf,B13415E13B10EDBFC278A59A2C4B49A0,,,D:\\!genesis\\library.nu\\b1\\_291159.b13415e13b10edbfc278a59a2c4b49a0.pdf,0,2000-01-01 01:00:00,2016-04-03 02:51:08,504000/b13415e13b10edbfc278a59a2c4b49a0-d.jpg,,
19523302,Worth Dying For,,Jack Reacher 15,,Lee Child,2011,,Bantam,,,0,English,,,до 2011-01,"0553825488,9780553825480",,,,,,,,,,,0,,,,,,,,717971,epub,B1F6C700B869F53968B8DCBF1B8450B4,,,D:\\!genesis\\library.nu\\b1\\_290919.b1f6c700b869f53968b8dcbf1b8450b4.epub,0,2000-01-01 01:00:00,2016-04-03 02:51:08,504000/B1F6C700B869F53968B8DCBF1B8450B4-g.jpg,,
19523303,iPhone Programming: The Big Nerd Ranch Guide (Big Nerd Ranch Guides),,The Big Nerd Ranch Guide,,"Joe Conway, Aaron Hillegass",2010,1,Addison-Wesley Professional,,432,0,English,87,,до 2011-01,"0321706242,9780321706249",,,,,005.265,QA76.8.I64 C66 2010,,,OL25010559M,,0,,,,,,1,1,9962133,pdf,B1A1304E816B65A2C28F0E220B4C9F94,,,D:\\!genesis\\library.nu\\b1\\_290273.b1a1304e816b65a2c28f0e220b4c9f94.pdf,0,2000-01-01 01:00:00,2016-04-03 02:51:08,504000/b1a1304e816b65a2c28f0e220b4c9f94-d.jpg,,
19523304,Innovative Assessment in Higher Education,,,,"Cordelia Bryan, Karen Clegg",2006,1,,,256,0,English,183,,до 2011-01,"0415356423,9780415356428,9780203969670",,,,,378.1/662,LB2367.G7 I56 2006,,,OL3405220M,,0,,,,,1,1,1,989936,pdf,B17E7F5EC3FBB8BC5AFF84DDCFF4AD1C,,,D:\\!genesis\\library.nu\\b1\\_29015.b17e7f5ec3fbb8bc5aff84ddcff4ad1c.pdf,0,2000-01-01 01:00:00,2016-04-03 02:51:08,504000/b17e7f5ec3fbb8bc5aff84ddcff4ad1c-d.jpg,,
19523305,"L'Eau, Volume 2: Flux, souffles & vibrations (Sciences du Vivant)",,Sciences du Vivant 2,,"Popp, F.A , Ansaloni A , Ciccolo E , Luu C , Roussea J , Vecchi P",1991,,Societe Editrice Arys,,167,0,French,,,до 2011-01,,,,,,,,,,,,0,,,,,,,0,38601683,pdf,B1F309D7BAA3EC58D5225C6AD094F4F7,,,D:\\!genesis\\library.nu\\b1\\_289621.b1f309d7baa3ec58d5225c6ad094f4f7.pdf,0,2000-01-01 01:00:00,2016-04-03 02:51:08,504000/b1f309d7baa3ec58d5225c6ad094f4f7-g.jpg,,
19523306,Metaphor: A Practical Introduction,,,,Zoltan Kovecses,2002,1St Edition,"Oxford University Press, USA",,304,0,English,,,до 2011-01,"0195145119,9780195145113",,,,,808,PN228.M4 K68 2002,,,OL3948045M,,0,,,,,,1,1,1188753,pdf,B1C3CE39EA5C571D5F751AB3C60CD982,,,D:\\!genesis\\library.nu\\b1\\_289589.b1c3ce39ea5c571d5f751ab3c60cd982.pdf,0,2000-01-01 01:00:00,2016-04-03 02:51:08,504000/b1c3ce39ea5c571d5f751ab3c60cd982-d.jpg,,
19523307,Communist China's Policy of Oppression in East Turkestan,,,,Harun Yahya,2003,,Islamic Book Service Inc.,,242,0,English,192,,до 2011-01,81-7231-479-5,,,,,,,,,,,0,,,,,,,1,6880328,pdf,B1D19D9EF53E93F115B49027F893B64F,,,D:\\!genesis\\library.nu\\b1\\_288893.b1d19d9ef53e93f115b49027f893b64f.pdf,0,2000-01-01 01:00:00,2016-04-03 02:51:08,504000/b1d19d9ef53e93f115b49027f893b64f-g.jpg,,
19523308,The Jews under Roman rule: From Pompey to Diocletian (Studies in Judaism in Late Antiquity),,Studies in Judaism in Late Antiquity 20,,E. Mary Smallwood,1976,,Brill,,613,0,English,183,,до 2011-01,"9004044914,9789004044913",,,,,,,,,OL4943522M,,600,,,,,,1,1,13270623,pdf,B1C13E260D2A109F2AC341469223F4CE,,,D:\\!genesis\\library.nu\\b1\\_288552.b1c13e260d2a109f2ac341469223f4ce.pdf,0,2000-01-01 01:00:00,2016-04-03 02:51:08,504000/b1c13e260d2a109f2ac341469223f4ce-g.jpg,,
19523309,Last Minute Term Papers,,,,Ron Fry,2002,1,Delmar Cengage Learning,,130,0,English,,,до 2011-01,"1564146057,9781564146052",,,,,,,,,OL8646964M,,0,,,,,,,1,1219484,pdf,B1018DB391828058A82D0BA9D489B9F3,,,D:\\!genesis\\library.nu\\b1\\_288005.b1018db391828058a82d0ba9d489b9f3.pdf,0,2000-01-01 01:00:00,2016-04-03 02:51:08,504000/b1018db391828058a82d0ba9d489b9f3-d.jpg,,
19523310,Dusus,,,,Albert Camus,,,Can Yayınları,,100,0,Turkish,,,до 2011-01,9755107878,,,,,,,,,OL17487355M,,0,,,,,,,1,1545693,pdf,B11243385705102AFF92F1C0D21CDD51,,,D:\\!genesis\\library.nu\\b1\\_287813.b11243385705102aff92f1c0d21cdd51.pdf,0,2000-01-01 01:00:00,2016-04-03 02:51:08,504000/b11243385705102aff92f1c0d21cdd51-g.jpg,,
19523311,The Garden of the Sphinx: 150 Challenging and Instructive Puzzles,,,,Pierre Berloquin,1996,,Barnes & Noble Books,,200,0,English,,,до 2011-01,"0760701164,9780760701164",,,,,,,,,OL8011996M,,0,,,,,,1,1,2333150,pdf,B1197F78379C58B78F9E6DCFCB0904E3,,,D:\\!genesis\\library.nu\\b1\\_287230.b1197f78379c58b78f9e6dcfcb0904e3.pdf,0,2000-01-01 01:00:00,2016-04-03 02:51:08,504000/b1197f78379c58b78f9e6dcfcb0904e3-g.jpg,,
19523312,The Twitter Book,,,,"Tim O'Reilly, Sarah Milstein",2009,1,O'Reilly Media,,240,0,English,,,до 2011-01,"0596802811,9780596802813",,,,,006.76,HM742 .O74 2009,,,OL23877827M,,0,,,,,,1,1,15752026,pdf,B15A5D74DF0C459E2E7B6490F09D6283,,,D:\\!genesis\\library.nu\\b1\\_286826.b15a5d74df0c459e2e7b6490f09d6283.pdf,0,2000-01-01 01:00:00,2016-04-03 02:51:08,504000/b15a5d74df0c459e2e7b6490f09d6283-d.jpg,,
19523313,Who Is Rational?: Studies of individual Differences in Reasoning,,,,Keith E. Stanovich,1999,1,Lawrence Erlbaum,,312,0,English,183,,до 2011-01,"0805824723,0805824731,9780805824728,9780585176734,9780805824735",,,,,153.4/3,BF442 .S73 1999,,,OL367229M,,0,,,,,,,,879568,chm,B14438315AA23EF0996F12A4DA51E47F,,,D:\\!genesis\\library.nu\\b1\\_285927.b14438315aa23ef0996f12a4da51e47f.chm,0,2000-01-01 01:00:00,2016-04-03 02:51:08,,,
19523314,Die letzten Monate der DDR - Die Regierung de Maiziere und ihr Weg zur deutschen Einheit,,,,Ed Stuhler,2010,,Ch. Links Verlag,,247,0,German,,,до 2011-01,"386153570X,9783861535706",,,,,,,,,,,0,,,,,,1,1,1826007,pdf,B11CF73BB2A7DAA7484FD6E77977BA77,,,D:\\!genesis\\library.nu\\b1\\_285850.b11cf73bb2a7daa7484fd6e77977ba77.pdf,0,2000-01-01 01:00:00,2016-04-03 02:51:08,504000/b11cf73bb2a7daa7484fd6e77977ba77-g.jpg,,
19523315,First Aid for the® Medicine Clerkship: Second Edition (First Aid Series),,,,"Latha Stead, S. Matthew Stead, Matthew Kaufman, Samy McFarlane",2005,2,McGraw-Hill Medical,,416,0,English,305,,до 2011-01,"0071448756,9780071448758",,,,,610/.71/1,R839 .F57 2005,,,OL24446420M,,0,,,,,,1,1,19769059,pdf,B1FB6C8A2E312E80B19A757428411496,,,D:\\!genesis\\library.nu\\b1\\_285807.b1fb6c8a2e312e80b19a757428411496.pdf,0,2000-01-01 01:00:00,2016-04-03 02:51:08,504000/b1fb6c8a2e312e80b19a757428411496-d.jpg,,
19523316,The Romantic Manifesto,,,,Ayn Rand,1971,,Signet,,,0,English,,,до 2011-01,9781101348215,,,,,,,,,,,0,,,,,,,,229597,epub,B1CE05815A1A6C4B04E3F0ACAFD2FA4B,,,D:\\!genesis\\library.nu\\b1\\_284924.b1ce05815a1a6c4b04e3f0acafd2fa4b.epub,0,2000-01-01 01:00:00,2016-04-03 02:51:08,504000/B1CE05815A1A6C4B04E3F0ACAFD2FA4B-g.jpg,,
19523317,The Bachman Books,,,,Stephen King,1985,Book Club (BCE/BOMC),New American Library,,692,0,English,,,до 2011-01,,,B000NS86NW,,,,,,,,,0,,,,,,,1,1466753,pdf,B1822B5B1F62F1BACC3DF8A98D41E23D,,,D:\\!genesis\\library.nu\\b1\\_284856.b1822b5b1f62f1bacc3df8a98d41e23d.pdf,0,2000-01-01 01:00:00,2016-04-03 02:51:08,504000/b1822b5b1f62f1bacc3df8a98d41e23d-d.jpg,,
19523318,Die Schriften des Johannes Von Damaskos: Band 6 2: Historia animae utilis de Barlaam et Ioasaph (spuria) II (Patristische Texte & Studien 60),,,,Johannes Von Damaskos,2006,,Walter de Gruyter,,460,0,German,64,,до 2011-01,"3110181347,9783110181340",,,,,,,,,OL12664672M,,0,,,,,,1,1,4320726,pdf,B1B2784624151394A993A68D676F6139,,,D:\\!genesis\\library.nu\\b1\\_284670.b1b2784624151394a993a68d676f6139.pdf,0,2000-01-01 01:00:00,2016-04-03 02:51:08,504000/b1b2784624151394a993a68d676f6139-d.jpg,,
19523319,Martingales and Markov Chains: Solved Exercises and Elements of Theory,,,,"Paolo Baldi, Laurent Mazliak, Pierre Priouret",2002,1,CRC Press,,98,0,English,131,,до 2011-01,"1584883294,9781584883296",,,,,,,,,OL8795332M,"missing pages: 48-49, 138-141",0,,,,,1,,0,2032205,djvu,B1106D194821DA4F340931D5B7831372,8f2f8301d663576fcb0f14a73f8c8c1e,no,D:\\!genesis\\library.nu\\b1\\_28397.b1106d194821da4f340931d5b7831372.djvu,0,2000-01-01 01:00:00,2016-04-03 02:51:08,504000/b1106d194821da4f340931d5b7831372-d.jpg,,
19523320,Distributed Computing and Networking,,Lecture Notes in Computer Science 6522,,"Marcos K. Aguilera, Haifeng Yu, Nitin H. Vaidya, Vikram Srinivasan, Romit Roy Choudhury",2011,1st Edition.,Springer,,439,0,English,137,,до 2011-01,"364217678X,9783642176784",,,,,,,,,,,0,,,,,,1,1,7008316,pdf,B1527F1983E800842172206062F17F1E,,,D:\\!genesis\\library.nu\\b1\\_283859.b1527f1983e800842172206062f17f1e.pdf,0,2000-01-01 01:00:00,2016-04-03 02:51:08,504000/b1527f1983e800842172206062f17f1e-d.jpg,,
19523321,"Nathan’s Prophecy in II Sam 7 and in I Chr 17: Text, Context, and Meaning",116,,,Michael Avioz,2004,,Walter de Gruyter,,13,0,English,,,до 2011-01,,,,,,,,,,,,0,,,,,,,1,62555,pdf,B1345FDFADA74DFAAB3F336EDD6B09EE,,,D:\\!genesis\\library.nu\\b1\\_283587.b1345fdfada74dfaab3f336edd6b09ee.pdf,0,2000-01-01 01:00:00,2016-04-03 02:51:08,504000/b1345fdfada74dfaab3f336edd6b09ee-g.jpg,,
19523322,Jews or Christians? : The Followers of Jesus in Search of Their Own Identity (Wissenschaftliche Untersuchungen zum Neuen Testament),,Wissenschaftliche Untersuchungen zum Neuen Testament 202,,Giorgio Jossa,2006,,Mohr Siebeck,,184,0,English,205,,до 2011-01,"3161491920,9783161491924",,,,,,,,,OL12674195M,,600,,,,,,,1,3282827,pdf,B1E3627E528B86C4A1C185F405013850,,,D:\\!genesis\\library.nu\\b1\\_283569.b1e3627e528b86c4a1c185f405013850.pdf,0,2000-01-01 01:00:00,2016-04-03 02:51:08,504000/b1e3627e528b86c4a1c185f405013850-d.jpg,,
19523323,Das Scarlatti - Erbe,,,,Robert Ludlum,1982,,Heyne Verlag,,403,0,German,,,до 2011-01,"3453016513,9783453016514",,,,,,,,,,,0,,,,,,1,1,1102286,pdf,B172D4A1CC83844BAC36D8EF7BD41F8B,,,D:\\!genesis\\library.nu\\b1\\_283266.b172d4a1cc83844bac36d8ef7bd41f8b.pdf,0,2000-01-01 01:00:00,2016-04-03 02:51:08,504000/b172d4a1cc83844bac36d8ef7bd41f8b-g.jpg,,
19523324,Mathematical Methods in Physics,,,,Samuel D. Lindenbaum,1996,,World Scientific Pub Co Inc,,464,0,English,137,,до 2011-01,"9810227604,9789810227609",,,,,530.1/5,QC20 .L498 1996,,,OL993103M,,0,,,,,,,0,16157915,pdf,B1DE326958F1413E91708CE527C76D05,,,D:\\!genesis\\library.nu\\b1\\_283039.b1de326958f1413e91708ce527c76d05.pdf,0,2000-01-01 01:00:00,2016-04-03 02:51:08,504000/b1de326958f1413e91708ce527c76d05-d.jpg,,
19523325,Retelling the Torah: The Deuternonmistic Historian's Use of Tetrateuchal Narratives (JSOT Supplement Series),,Journal for the Study of the Old Testament Supplement Series 403,,John E. Harvey,2004,,T & T Clark International,,135,0,English,64,,до 2011-01,"0567080951,9780567080950",,,,,221.6/6,BS1182.3 .H37 2004,,,OL3327115M,,300,,,,,,,1,7393014,pdf,B15D2DDD661E3E744646FC1E388F3946,,,D:\\!genesis\\library.nu\\b1\\_282511.b15d2ddd661e3e744646fc1e388f3946.pdf,0,2000-01-01 01:00:00,2016-04-03 02:51:08,504000/b15d2ddd661e3e744646fc1e388f3946-g.jpg,,
19523326,Античная мифография: Мифы и единство действия,,,,Д.О. Торшилов,1999,,Алетейя,,426,0,Russian,,,до 2011-01,5-89329-142-5,,,,,,,,,,,0,,,,,,1,1,9677025,pdf,B1B5525113809679AE947BBC75458544,,,D:\\!genesis\\library.nu\\b1\\_282447.b1b5525113809679ae947bbc75458544.pdf,0,2000-01-01 01:00:00,2016-04-03 02:51:08,504000/b1b5525113809679ae947bbc75458544-g.jpg,,
19523327,"Practical Subversion, 2nd Edition (Expert's Voice in Open Source)",,,,"Garrett Rooney, Daniel Berlin",2006,2nd ed.,Apress,,301,0,English,,,до 2011-01,"1590597532,9781590597538",,,,,,,,,OL8848960M,,0,,,,,,,1,1669239,pdf,B18399A3EA2BCF5AF53B5E8CBC0D4717,,,D:\\!genesis\\library.nu\\b1\\_282328.b18399a3ea2bcf5af53b5e8cbc0d4717.pdf,0,2000-01-01 01:00:00,2016-04-03 02:51:08,504000/b18399a3ea2bcf5af53b5e8cbc0d4717-d.jpg,,
19523328,Habitos y Tecnicas de Estudio para Posgrado en Derecho,,,,Instituto de Estudios Superiores en Derecho Penal,2005,,Instituto de Estudios Superiores en Derecho Penal,,321,0,Spanish,183,,до 2011-01,,,,,,,,,,,,0,,,,,,1,1,3806274,pdf,B126109739B518ED75C516C5C80A4ADC,,,D:\\!genesis\\library.nu\\b1\\_282282.b126109739b518ed75c516c5c80a4adc.pdf,0,2000-01-01 01:00:00,2016-04-03 02:51:08,504000/b126109739b518ed75c516c5c80a4adc-g.jpg,,
19523329,The House at Pooh Corner (Pooh Original Edition),,,,A. A. Milne,1929,,Puffin,,180,0,English,,,до 2011-01,"0140361227,9780140361223",,,,,,,,,OL1703628M,,0,,,,,,,,86745,epub,B106C649ECF081B50BF7DBB0D5080753,,,D:\\!genesis\\library.nu\\b1\\_281502.b106c649ecf081b50bf7dbb0d5080753.epub,0,2000-01-01 01:00:00,2016-04-03 02:51:08,504000/b106c649ecf081b50bf7dbb0d5080753-d.jpg,,
19523330,Heart-Shaped Box: A Novel,,,,Joe Hill,2010,1 Reprint,Harper Paperbacks,,400,0,English,,,до 2011-01,"0061944890,9780061944895",,,,,,,,,OL24089788M,,0,,,,,,,1,1125260,pdf,B1F3BB0C268850FAEBE76DC6072CE330,,,D:\\!genesis\\library.nu\\b1\\_281200.b1f3bb0c268850faebe76dc6072ce330.pdf,0,2000-01-01 01:00:00,2016-04-03 02:51:08,504000/b1f3bb0c268850faebe76dc6072ce330-d.jpg,,
19523331,Introduction to Topological Groups,,,,Taqdir Husain,1966,,,,218,0,English,121,,до 2011-01,"072164855X,9780721648552",,,,,,,,,,,0,,,,,1,,0,3546566,djvu,B1004A8EE91D52B708208F3C8EEC9ED1,d62d87ffe73b7669ca69eedd65cc929a,no,D:\\!genesis\\library.nu\\b1\\_28092.b1004a8ee91d52b708208f3c8eec9ed1.djvu,0,2000-01-01 01:00:00,2016-04-03 02:51:08,504000/b1004a8ee91d52b708208f3c8eec9ed1-g.jpg,,
19523332,Make: Technology on Your Time Volume 24 October 2010,24,,,"FOUNDER & GM, MAKER MEDIA Dale Dougherty",2010,,"O’REILLY MEDIA, INC. Tim O’Reilly, CEO Laura Baldwin, COO",,186,0,English,,,до 2011-01,,,,,,,,,,,,0,,,,,,,1,51104747,pdf,B1556F2C48E9CCA90B2FBE9B0C1E8CE2,,,D:\\!genesis\\library.nu\\b1\\_280883.b1556f2c48e9cca90b2fbe9b0c1e8ce2.pdf,0,2000-01-01 01:00:00,2016-04-03 02:51:08,504000/b1556f2c48e9cca90b2fbe9b0c1e8ce2-g.jpg,,
19523333,Airpower in Three Wars,,,,William W. Momyer,2003,,,,401,0,English,,,до 2011-01,"1585661163,9781585661169",,,,,"358.4/009/04,358.4/009/04",UG625 .M65 2003,,,OL3703293M,,0,,,,,1,,1,2727347,pdf,B1B6864DB4C92010EAA30506124D954F,,,D:\\!genesis\\library.nu\\b1\\_28083.b1b6864db4c92010eaa30506124d954f.pdf,0,2000-01-01 01:00:00,2016-04-03 02:51:08,504000/b1b6864db4c92010eaa30506124d954f-g.jpg,,
19523334,Make: Technology on Your Time Volume 08,,,,Mark Frauenfelder Ed.,2006,,O'Reilly Media,,192,0,English,,,до 2011-01,"0596527195,9780596527198",,,,,,,,,OL7581454M,,0,,,,,,,0,24498746,pdf,B1EC1E6FD38B65AF87F7AC38EDE402A8,,,D:\\!genesis\\library.nu\\b1\\_280805.b1ec1e6fd38b65af87f7ac38ede402a8.pdf,0,2000-01-01 01:00:00,2016-04-03 02:51:08,504000/b1ec1e6fd38b65af87f7ac38ede402a8-d.jpg,,
19523335,The Self-Organizing Economy,,,,Paul R. Krugman,1996,,,,122,0,English,,,до 2011-01,1557866996,,,,,338.9,HB199 .K75 1996,,,OL795735M,,0,,,,,,,1,12329402,pdf,B1D96543E1E081190D2FE33332BD1149,,,D:\\!genesis\\library.nu\\b1\\_280009.b1d96543e1e081190d2fe33332bd1149.pdf,0,2000-01-01 01:00:00,2016-04-03 02:51:08,504000/b1d96543e1e081190d2fe33332bd1149-d.jpg,,
19523336,Time Factors in the Stock Market,,,,George Bayer,1937,,Lambert Gann Pub,,140,0,English,,,до 2011-01,"0939093243,9780939093243",,,,,,,,,OL11533674M,,0,,,,,,,1,539721,pdf,B17F13EA4587F749C44CD7241A76B0D3,,,D:\\!genesis\\library.nu\\b1\\_279844.b17f13ea4587f749c44cd7241a76b0d3.pdf,0,2000-01-01 01:00:00,2016-04-03 02:51:08,504000/b17f13ea4587f749c44cd7241a76b0d3-g.jpg,,
19523337,War in Heaven,,A Requiem for Homo Sapiens 3,,David Zindell,1998,,,,652,0,English,67,,до 2011-01,0553762222,,,,,,,,,,,0,,,,,,,1,1125552,pdf,B12BD29FB0B50B09EA92666676B55BAB,,,D:\\!genesis\\library.nu\\b1\\_278731.b12bd29fb0b50b09ea92666676b55bab.pdf,0,2000-01-01 01:00:00,2016-04-03 02:51:08,504000/b12bd29fb0b50b09ea92666676b55bab-d.jpg,,
19523338,Plasmonics: Fundamentals and Applications,,,,Stefan Alexander Maier,2007,1,Springer,,234,0,English,137,,до 2011-01,"0387331506,9780387331508",,,,,,,,,OL7445471M,,0,,,,,,,1,11410632,pdf,B1A8462528414CC92581F205589E69EA,,,D:\\!genesis\\library.nu\\b1\\_278203.b1a8462528414cc92581f205589e69ea.pdf,0,2000-01-01 01:00:00,2016-04-03 02:51:08,504000/b1a8462528414cc92581f205589e69ea-d.jpg,,
19523339,The Emergence of Yehud in the Persian Period: A Social and Demographic Study (JSOT Supplement Series),,Journal for the Study of the Old Testament Supplement Series 294,,Charles E. Carter,1999,,Sheffield Academic Press,,386,0,English,183,,до 2011-01,"1841270121,9781841270128",,,,,956.94/8,DS121 .C33 1999,,,OL123662M,,300,,,,,,,1,20773454,pdf,B11B462B34AC3720B09A2C05546BDBAE,,,D:\\!genesis\\library.nu\\b1\\_278181.b11b462b34ac3720b09a2c05546bdbae.pdf,0,2000-01-01 01:00:00,2016-04-03 02:51:08,504000/b11b462b34ac3720b09a2c05546bdbae-d.jpg,,
19523340,The House of Tomorrow,,,,Peter Bognanni,2010,,Amy Einhorn Books,,,0,English,,,до 2011-01,"1101184523,9781101184523",,,,,,,,,OL24255279M,,0,,,,,,,1,356567,epub,B1FB8C371E23CB8D5255218A89208B58,,,D:\\!genesis\\library.nu\\b1\\_277944.b1fb8c371e23cb8d5255218a89208b58.epub,0,2000-01-01 01:00:00,2016-04-03 02:51:08,504000/B1FB8C371E23CB8D5255218A89208B58-g.jpg,,
19523341,Mathematics: Form and Function,,,,Saunders Mac Lane,1985,1,Springer,,487,0,English,113,,до 2011-01,"0387962174,9780387962177,3540962174",,,,,510,QA39.2 .M29 1986,,,OL2540876M,,0,,,,,,1,1,5113339,pdf,B10D8AC5BEE5B9C8621FCAB213F3903D,,,D:\\!genesis\\library.nu\\b1\\_277834.b10d8ac5bee5b9c8621fcab213f3903d.pdf,0,2000-01-01 01:00:00,2016-04-03 02:51:08,504000/b10d8ac5bee5b9c8621fcab213f3903d-d.jpg,,
19523342,DeSForM 2006 Design & Semantics of Form & Movement Proceedings,,,,DeSForM,,,,,164,0,English,,,до 2011-01,,,,,,,,,,,,0,,,,,,,1,6232763,pdf,B1713775D31C47DF7BE0EC6AE3B6CCA1,,,D:\\!genesis\\library.nu\\b1\\_277448.b1713775d31c47df7be0ec6ae3b6cca1.pdf,0,2000-01-01 01:00:00,2016-04-03 02:51:08,504000/b1713775d31c47df7be0ec6ae3b6cca1-g.jpg,,
19523343,"Entrantes y Entremeses, Mini Guia a la Carta  Spanish",,,,Palla M..,,,,,32,0,Spanish,,,до 2011-01,8431534578,,,,,,,,,,,0,,,,,1,1,0,25730268,pdf,B18BB61F00C8A87DBAF287D36D208835,,,D:\\!genesis\\library.nu\\b1\\_27737.b18bb61f00c8a87dbaf287d36d208835.pdf,0,2000-01-01 01:00:00,2016-04-03 02:51:08,504000/b18bb61f00c8a87dbaf287d36d208835-g.jpg,,
19523344,What Have You Changed Your Mind About?: Today's Leading Minds Rethink Everything,,,,John Brockman,2009,First Edition,Harper Perennial,,416,0,English,,,до 2011-01,"0061686549,9780061686542",,,,,001.2,HM901 .W45 2009,,,OL24089577M,,0,,,,,,,1,11435577,pdf,B1B8A7A6147A40FF64F21C20E73917AD,,,D:\\!genesis\\library.nu\\b1\\_277099.b1b8a7a6147a40ff64f21c20e73917ad.pdf,0,2000-01-01 01:00:00,2016-04-03 02:51:08,504000/b1b8a7a6147a40ff64f21c20e73917ad-d.jpg,,
19523345,The Tangled Ways of Zeus: And Other Studies In and Around Greek Tragedy,,,,Alan H. Sommerstein,2010,,"Oxford University Press, USA",,353,0,English,183,,до 2011-01,"0199568316,9780199568314",,,,,882.0109,PA3133 .S66 2010,,,OL24525047M,,0,,,,,,1,1,2474334,pdf,B1FECC8212AD59A821CBBD0A2A424EC2,,,D:\\!genesis\\library.nu\\b1\\_276368.b1fecc8212ad59a821cbbd0a2a424ec2.pdf,0,2000-01-01 01:00:00,2016-04-03 02:51:08,504000/b1fecc8212ad59a821cbbd0a2a424ec2-d.jpg,,
19523346,Sir Robert Peel: The Life and Legacy (Library of Victorian Studies),,Library of Victorian Studies,,Richard A. Gaunt,2010,,I. B. Tauris,,241,0,English,64,,до 2011-01,"1848850352,9781848850354",,,,,,,,,,,0,,,,,1,1,1,3655536,pdf,B1624D15BE699702F8733664E73598EA,,,D:/!genesis/library.nu/b1/_275849.b1624d15be699702f8733664e73598ea.pdf,0,2000-01-01 01:00:00,2016-04-03 02:51:08,504000/b1624d15be699702f8733664e73598ea-d.jpg,,
19523347,Dragon Death,,Dragonsword 3,,Gael Baudino,1992,,Roc,,383,0,English,,,до 2011-01,"0451451473,9780451451477",,,,,,,,,OL7575850M,,0,,,,,,,1,1835505,pdf,B18548BCEC473E5197C26ED110E8737B,,,D:\\!genesis\\library.nu\\b1\\_275317.b18548bcec473e5197c26ed110e8737b.pdf,0,2000-01-01 01:00:00,2016-04-03 02:51:08,504000/b18548bcec473e5197c26ed110e8737b-d.jpg,,
19523348,Black Faces in White Places: 10 Game-Changing Strategies to Achieve Success and Find Greatness,,,,"Randal Pinkett, Jeffrey Robinson, Philana Patterson",2010,,AMACOM,,289,0,English,,,до 2011-01,"0814416802,9780814416808",,,,,,,,,,,0,,,,,,1,1,1998655,pdf,B1231466B77B1B57D0F19C2D524DF3F4,,,D:\\!genesis\\library.nu\\b1\\_274856.b1231466b77b1b57d0f19c2d524df3f4.pdf,0,2000-01-01 01:00:00,2016-04-03 02:51:08,504000/b1231466b77b1b57d0f19c2d524df3f4-d.jpg,,
19523349,Greek Popular Morality in the Time of Plato and Aristotle,,,,K. J. Dover,1974,,Basil Blackwell,,340,0,English,,,до 2011-01,"0872202453,9780872202450",,,,,170/.938,BJ182 .D68 1994,,,OL1431380M,,0,,,,0,1,1,0,15185391,pdf,B13503AB920EFC0080ABD81FF1828320,,,D:\\!genesis\\library.nu\\b1\\_27467.b13503ab920efc0080abd81ff1828320.pdf,0,2000-01-01 01:00:00,2016-04-03 02:51:08,504000/b13503ab920efc0080abd81ff1828320-d.jpg,,
19523350,Body Intelligence: Creating and New Environment,,,,Ged Sumner,2009,2,Singing Dragon,,222,0,English,,,до 2011-01,"1848190263,9781848190269",,,,,,,,,,,0,,,,,,1,1,6174814,pdf,B111C161214C89323924C6455DEA8A58,,,D:\\!genesis\\library.nu\\b1\\_274220.b111c161214c89323924c6455dea8a58.pdf,0,2000-01-01 01:00:00,2016-04-03 02:51:08,504000/b111c161214c89323924c6455dea8a58-d.jpg,,
19523351,"Die Bildtafel des Kebes. Allegorie des Lebens, Griechisch und deutsch (SAPERE 8)",,Scripta Antiquitatis Posterioris ad Ethicam REligionemque pertinentia 8,,"Rainer Hirsch-Luipold, Reinhard Feldmeier, Barbara Hirsch, Lutz Koch, Heinz-Gu?nther Nesselrath",2005,,Wissenschaftliche Buchgesellschaft,,253,0,German,,,до 2011-01,"3534155742,9783534155743",,,,,,,,,OL19147918M,,400,,,,,,1,1,12539697,pdf,B161AB7AD3DE19214864CF86553417C5,,,D:\\!genesis\\library.nu\\b1\\_274056.b161ab7ad3de19214864cf86553417c5.pdf,0,2000-01-01 01:00:00,2016-04-03 02:51:08,504000/b161ab7ad3de19214864cf86553417c5-d.jpg,,
19523352,Salute & equilibrio nutrizionale,,,,"M. Giovannini, C. Maffeis, E. Molinari, S. Scaglioni",2006,1,,,168,0,Italian,,,до 2011-01,"8847004497,9788847004504,9788847004498",,,,,,,,,OL13430697M,,0,,,,,1,1,1,2765833,pdf,B1DEAE513389E1DC5AC5FFE1F2E0F6A6,,,D:\\!genesis\\library.nu\\b1\\_27349.b1deae513389e1dc5ac5ffe1f2e0f6a6.pdf,0,2000-01-01 01:00:00,2016-04-03 02:51:08,504000/b1deae513389e1dc5ac5ffe1f2e0f6a6-d.jpg,,
19523353,The Oldest Kind of Magic (Magic series),,,,Ann Macela,2005,,Medallion Press,,379,0,English,,,до 2011-01,"1932815430,9781932815436",,,,,813/.6,PS3613.A2718 O43 2005,,,OL3404417M,,0,,,,,,,1,2075777,pdf,B1B1ECF6C35A7673A6C17A89972A7301,,,D:\\!genesis\\library.nu\\b1\\_273486.b1b1ecf6c35a7673a6c17a89972a7301.pdf,0,2000-01-01 01:00:00,2016-04-03 02:51:08,504000/b1b1ecf6c35a7673a6c17a89972a7301-d.jpg,,
19523354,Three Days to Never,,,,Tim Powers,2007,,Harper,,416,0,English,,,до 2011-01,"0380798379,9780380798377",,,,,,,,,OL23275157M,,0,,,,,,,1,914085,pdf,B14FFB295F2133934A02745CAD49290C,,,D:\\!genesis\\library.nu\\b1\\_273476.b14ffb295f2133934a02745cad49290c.pdf,0,2000-01-01 01:00:00,2016-04-03 02:51:08,504000/b14ffb295f2133934a02745cad49290c-d.jpg,,
19523355,Performance By Design (Hpt in Action),,,,Ryan Watkins,2007,illustrated edition,,,192,0,English,,,до 2011-01,"0874259495,9780874259490",,,,,658.3/14,HD58.9 .W3765 2007,,,OL11120122M,,0,,,,,1,,1,811063,pdf,B13CB16AAB0FD1C843FF935E6EC91CC0,,,D:\\!genesis\\library.nu\\b1\\_27339.b13cb16aab0fd1c843ff935e6ec91cc0.pdf,0,2000-01-01 01:00:00,2016-04-03 02:51:08,504000/b13cb16aab0fd1c843ff935e6ec91cc0-d.jpg,,
19523356,Circuit Cellar May 2010,,,,Steve Ciarcia Editor,2010,,,,84,0,English,181,,до 2011-01,,,,,,,,,,,,0,,,,,,,1,10082331,pdf,B1CDDA1D5393DA2B3B9A7712066529C7,,,D:\\!genesis\\library.nu\\b1\\_273314.b1cdda1d5393da2b3b9a7712066529c7.pdf,0,2000-01-01 01:00:00,2016-04-03 02:51:08,504000/b1cdda1d5393da2b3b9a7712066529c7-g.jpg,,
19523357,"The Monster That Is History: History, Violence, and Fictional Writing in Twentieth-Century China",,,,David Der-Wei Wang,2004,1,University of California Press,,412,0,English,64,,до 2011-01,"0520231406,9780520231405",,,,,,,,,OL15568742M,,0,,,,,,,1,2733966,pdf,B162F33F4BF3E634A9A0CB5F068B4C3E,,,D:\\!genesis\\library.nu\\b1\\_273293.b162f33f4bf3e634a9a0cb5f068b4c3e.pdf,0,2000-01-01 01:00:00,2016-04-03 02:51:08,504000/b162f33f4bf3e634a9a0cb5f068b4c3e-g.jpg,,
19523358,"To Go Upon Discovery: James Cook and Canada, from 1758 to 1779",,,,Victor Suthren,2000,,Dundurn,,225,0,English,,,до 2011-01,"1550023276,9781550023275",,,,,971.6/01/092,F1038 .S93 2000,,,OL6853990M,,0,,,,,,,1,11071701,pdf,B1F4BABCF7ECD2B54CA298C6E452C805,,,D:\\!genesis\\library.nu\\b1\\_273221.b1f4babcf7ecd2b54ca298c6e452c805.pdf,0,2000-01-01 01:00:00,2016-04-03 02:51:08,504000/b1f4babcf7ecd2b54ca298c6e452c805-d.jpg,,
19523359,A Room Swept White,,,,Sophie Hannah,2011,,PENGUIN GROUP (CANADA),,448,0,English,,,до 2011-01,9780143177333,,,,,,,,,,,0,,,,,,,1,424334,epub,B1F9123CF76CC376B3DF63E0E4AB2173,,,D:\\!genesis\\library.nu\\b1\\_272717.b1f9123cf76cc376b3df63e0e4ab2173.epub,0,2000-01-01 01:00:00,2016-04-03 02:51:08,504000/b1f9123cf76cc376b3df63e0e4ab2173-d.jpg,,
19523360,Shades of Milk and Honey,,,,Mary Robinette Kowal,2010,First Edition,Tor Books,,304,0,English,,,до 2011-01,9780765325563,,,,,813/.6,PS3611.O74948 S53 2010,,,OL24090500M,,0,,,,,,,1,248296,epub,B14A4B8111CE122C7321405AA2C05A7D,,,D:\\!genesis\\library.nu\\b1\\_272061.b14a4b8111ce122c7321405aa2c05a7d.epub,0,2000-01-01 01:00:00,2016-04-03 02:51:08,504000/b14a4b8111ce122c7321405aa2c05a7d-d.jpg,,
19523361,Multipliers: How the Best Leaders Make Everyone Smarter,,,,Liz Wiseman,2010,1,HarperCollins,,288,0,English,,,до 2011-01,"9780061999482,0061999482,9780061964398,0061964395",,,,,658.4/092,HD57.7 .W57 2010,,,OL24040314M,,0,,,,,,,1,563843,epub,B1AA8215935FCEE57C075F0C480E2F9B,,,D:\\!genesis\\library.nu\\b1\\_271611.b1aa8215935fcee57c075f0c480e2f9b.epub,0,2000-01-01 01:00:00,2016-04-03 02:51:08,504000/b1aa8215935fcee57c075f0c480e2f9b-d.jpg,,
19523362,Memoires d'Hadrien,,,,Marguerite Yourcenar,1977,,Gallimard,,354,0,French,,,до 2011-01,"2070369218,9782070369218",,,,,848 Y81m,,,,OL22219589M,,0,,,,,,,1,1551986,pdf,B1CA19919186DF276B5E2686D7A7D661,,,D:\\!genesis\\library.nu\\b1\\_271514.b1ca19919186df276b5e2686d7a7d661.pdf,0,2000-01-01 01:00:00,2016-04-03 02:51:08,504000/b1ca19919186df276b5e2686d7a7d661-d.jpg,,
19523363,Nature Biotechnology 02 2010 (magazine journal; February 2010),28,,,Andrew Marshall,2010,,,,89,0,English,17,,до 2011-01,,,,,,,,10.1038/scibX.2009.1231,,,periodic,0,,,,,,,1,12889926,pdf,B178E42B7E961D84FDACA9CEF0BFE8E0,,ban,D:\\!genesis\\library.nu\\b1\\_271236.b178e42b7e961d84fdaca9cef0bfe8e0.pdf,0,2000-01-01 01:00:00,2016-04-03 02:51:08,504000/b178e42b7e961d84fdaca9cef0bfe8e0-g.jpg,,
19523364,Internal Parasites of Dogs & Cats: Diagnostic Manual,,,,Byron Blagburn,,,"Novartis Animal Health US, Inc.",,74,0,English,,,до 2011-01,,,,,,,,,,,,0,,,,,,,1,5019672,pdf,B123503BC8BF7ED86187FA49A08AF2F2,,,D:\\!genesis\\library.nu\\b1\\_271025.b123503bc8bf7ed86187fa49a08af2f2.pdf,0,2000-01-01 01:00:00,2016-04-03 02:51:08,504000/b123503bc8bf7ed86187fa49a08af2f2-g.jpg,,
19523365,Iron Eyes: The Life And Teachings of Obaku Zen Master Tetsugen Doko,,,,Helen Josephine Baroni,2006,annotated edition,State University of New York Press,,240,0,English,203,,до 2011-01,"0791468917,9780791468913",,,,,"294.3/927092,B",BQ990.E88 B37 2006,,,OL3419751M,,0,,,,,,1,1,1059572,pdf,B1C241F0DE87DDC29C879034FCCB53DC,,,D:\\!genesis\\library.nu\\b1\\_270533.b1c241f0de87ddc29c879034fccb53dc.pdf,0,2000-01-01 01:00:00,2016-04-03 02:51:08,504000/b1c241f0de87ddc29c879034fccb53dc-d.jpg,,
19523366,The Gingerbread Doll,,,,Susan Tews,2001,,Sandpiper,,27,0,English,,,до 2011-01,"0618130594,9780618130597",,,,,,,,,OL7603889M,,0,,,,,,,0,10604205,pdf,B1774B279F2003F2E0A42434FA023EA2,,,D:\\!genesis\\library.nu\\b1\\_270349.b1774b279f2003f2e0a42434fa023ea2.pdf,0,2000-01-01 01:00:00,2016-04-03 02:51:08,504000/b1774b279f2003f2e0a42434fa023ea2-d.jpg,,
19523367,Βαμμένα κόκκινα μαλλιά,,,,Κώστας Μουρσελάς,1989,30η Έκδοση,Κέδρος,,492,0,Greek,,,до 2011-01,"960040254X,9789600402544",,,,,,,,,OL1998335M,,0,,,,,,,0,33838669,pdf,B1AE6B604CA3BD5693C379C0775D3D67,,,D:\\!genesis\\library.nu\\b1\\_270297.b1ae6b604ca3bd5693c379c0775d3d67.pdf,0,2000-01-01 01:00:00,2016-04-03 02:51:08,504000/b1ae6b604ca3bd5693c379c0775d3d67-g.jpg,,
19523368,Why We Talk: The Evolutionary Origins of Language (Studies in the Evolution of Language),,,,Jean-Louis Dessalles,2007,,"Oxford University Press, USA",,397,0,English,314,,до 2011-01,"0199276234,9780199276233",,,,,,,,,OL22764108M,,0,,,,,,,1,3913499,pdf,B17E998378E84DE4E045D0C9EA815D56,,,D:\\!genesis\\library.nu\\b1\\_269622.b17e998378e84de4e045d0c9ea815d56.pdf,0,2000-01-01 01:00:00,2016-04-03 02:51:08,504000/b17e998378e84de4e045d0c9ea815d56-d.jpg,,
19523369,Symbols and Sentiments: Cross-cultural Studies in Symbolism,,,,"I.M. Lewis, editor",1977,,"Academic Press, Inc. (London) Ltd.",,300,0,English,183,,до 2011-01,"0124466508,9780124466500",,,,,301.2/1,GN452.5 .S96,,,OL4886485M,,0,,,,,,,0,92636742,pdf,B19FEF7B9E072E419355CDBCEEBCA939,,,D:\\!genesis\\library.nu\\b1\\_269236.b19fef7b9e072e419355cdbceebca939.pdf,0,2000-01-01 01:00:00,2016-04-03 02:51:08,504000/b19fef7b9e072e419355cdbceebca939-g.jpg,,
19523370,Regional Guide To International Conflict and Management From 1945 To 2003,,,,"Bercovitch J., Judith Fretter",2004,1,CQ Press,,400,0,English,,,до 2011-01,"1568028253,9781568028255",,,,,,,,,OL8688279M,,0,,,,,,1,1,7555050,pdf,B1C29591A7F364FEA8CB18781D7C3ED2,,,D:\\!genesis\\library.nu\\b1\\_268739.b1c29591a7f364fea8cb18781d7c3ed2.pdf,0,2000-01-01 01:00:00,2016-04-03 02:51:08,504000/b1c29591a7f364fea8cb18781d7c3ed2-d.jpg,,
19523371,Unit Operations in Food Engineering (Food Preservation Technology),,,,"Albert Ibarz, Gustavo V. Barbosa-Canovas",2002,1,CRC Press,,884,0,English,210,,до 2011-01,"1566769299,9781566769297",,,,,,,,,OL8670939M,,0,,,,,,1,1,19843035,pdf,B132B39D6E1372DFE8BF432E7AF21EDF,,,D:\\!genesis\\library.nu\\b1\\_268047.b132b39d6e1372dfe8bf432e7af21edf.pdf,0,2000-01-01 01:00:00,2016-04-03 02:51:08,504000/b132b39d6e1372dfe8bf432e7af21edf-d.jpg,,
19523372,Mania: A Short History of Bipolar Disorder (Johns Hopkins Biographies of Disease),,,,David Healy,2008,1,The Johns Hopkins University Press,,320,0,English,64,,до 2011-01,"0801888220,9780801888229",,,,,616.89/5,RC516 .H43 2008,,,OL16955041M,,0,,,,,,,1,1705978,pdf,B10203D783D19A14C8F675ABB241B1A1,,,D:\\!genesis\\library.nu\\b1\\_267573.b10203d783d19a14c8f675abb241b1a1.pdf,0,2000-01-01 01:00:00,2016-04-03 02:51:08,504000/b10203d783d19a14c8f675abb241b1a1-d.jpg,,
19523373,Physikalische Chemie: Eine Einfuhrung nach neuem Konzept mit zahlreichen Experimenten,,,,"Georg Job, Regina Ruffler",2010,,Vieweg+Teubner,,579,0,German,296,,до 2011-01,"3835100408,9783835100404",,,,,,,,,,,0,,,,,,1,1,7537932,pdf,B106B61394497125B425BE356FE0627A,,,D:\\!genesis\\library.nu\\b1\\_267444.b106b61394497125b425be356fe0627a.pdf,0,2000-01-01 01:00:00,2016-04-03 02:51:08,504000/b106b61394497125b425be356fe0627a-g.jpg,,
19523374,"Karl Marx and the Classics: An Essay on Value, Crises and the Capitalist Mode of Production",,,,"John Milios, Dimitri Dimoulis, George Economakis",2002,,Ashgate Publishing,,228,0,English,,,до 2011-01,"075461798X,9780754617983",,,,,,,,,OL3958795M,,0,,,,,,,1,1089135,pdf,B1B22515005A46E2B3BBA399A63EC2FD,,,D:\\!genesis\\library.nu\\b1\\_267337.b1b22515005a46e2b3bba399a63ec2fd.pdf,0,2000-01-01 01:00:00,2016-04-03 02:51:08,504000/b1b22515005a46e2b3bba399a63ec2fd-d.jpg,,
19523375,Ancient Mesopotamia (Greenhaven Encyclopedia),,,,Don Nardo,2006,,Greenhaven,,386,0,English,188,,до 2011-01,"0737734418,9780737734416",,,,,935,DS70.62 .N37 2007,,,OL17930701M,,0,,,,,,,1,10536916,pdf,B15492B85AB0A90A489CD7B2E1DF4DFA,,,D:\\!genesis\\library.nu\\b1\\_267125.b15492b85ab0a90a489cd7b2e1df4dfa.pdf,0,2000-01-01 01:00:00,2016-04-03 02:51:08,504000/b15492b85ab0a90a489cd7b2e1df4dfa-d.jpg,,
19523376,A Distributed Pi-Calculus,,,,Matthew Hennessy,2007,1,Cambridge University Press,,278,0,English,117,,до 2011-01,"0521873304,9780521873307,9780511275647,0511275641",,,,,,,,,OL7767611M,,0,,,,,,1,1,2970117,pdf,B106B93892799D96F92AADF69FB13838,,,D:\\!genesis\\library.nu\\b1\\_267020.b106b93892799d96f92aadf69fb13838.pdf,0,2000-01-01 01:00:00,2016-04-03 02:51:08,504000/b106b93892799d96f92aadf69fb13838-d.jpg,,
19523377,中国法制通史（第三卷）,,,,乔伟,,,1999,,620,0,Chinese(PRC),,,до 2011-01,,,,,,,,,,,,0,,,,,,,0,12022811,pdf,B18E89EBF6F82D928DD20B06B3B34F8D,,,D:\\!genesis\\library.nu\\b1\\_266959.b18e89ebf6f82d928dd20b06b3b34f8d.pdf,0,2000-01-01 01:00:00,2016-04-03 02:51:08,504000/b18e89ebf6f82d928dd20b06b3b34f8d-g.jpg,,
19523378,3rd Degree,,Women's Murder Club 3,,"James Patterson, Andrew Gross",2004,,,,,0,English,,,до 2011-01,,,,,,,,,,,,0,,,,,,,,474117,lit,B12670A6EA3C5F5799D0C9E4136BC208,,,D:\\!genesis\\library.nu\\b1\\_266635.b12670a6ea3c5f5799d0c9e4136bc208.lit,0,2000-01-01 01:00:00,2016-04-03 02:51:08,504000/B12670A6EA3C5F5799D0C9E4136BC208-g.jpg,,
19523379,The A to Z of Fantasy Literature,,,,Brian Stableford,2009,,"The Scarecrow Press, Inc.",,569,0,English,108,,до 2011-01,"0810868296,9780810868298",,,,,,,,,,,0,,,,,,1,1,1859234,pdf,B101241068DBF9277820A3A0C696E3D9,,,D:\\!genesis\\library.nu\\b1\\_266314.b101241068dbf9277820a3a0c696e3d9.pdf,0,2000-01-01 01:00:00,2016-04-03 02:51:08,504000/b101241068dbf9277820a3a0c696e3d9-d.jpg,,
19523380,Metaphor and Thought,,,,Andrew Ortony,1993,2,Cambridge University Press,,350,0,English,,,до 2011-01,"0521405610,9780521405614",,,,,169,BF455 .M47 1993,,,,,0,,,,,,1,1,60610672,pdf,B1B49F54FF08208281F9B82E59990990,be1d5d993c18a5cf75be42c9db0073e6,no,D:/!genesis/library.nu/b1/_265066.b1b49f54ff08208281f9b82e59990990.pdf,0,2000-01-01 01:00:00,2016-04-03 02:51:08,504000/b1b49f54ff08208281f9b82e59990990-d.jpg,,
19523381,清朝法制史,,,,张晋藩,1998,,中华书局,,732,0,Chinese(PRC),,,до 2011-01,,,,,,,,,,,,0,,,,,,1,0,35061950,pdf,B16F4919E49A7427F79BCBCA2D1798C9,,,D:\\!genesis\\library.nu\\b1\\_264520.b16f4919e49a7427f79bcbca2d1798c9.pdf,0,2000-01-01 01:00:00,2016-04-03 02:51:08,504000/b16f4919e49a7427f79bcbca2d1798c9-g.jpg,,
19523382,Info-Psychology: A Revision of Exo-Psychology (Future History Series) (Furure History Series),,,,Timothy Leary,2009,2,,,180,0,English,64,,до 2011-01,"1561841056,9781561841059",,,,,,,,,OL8638591M,,0,,,,,1,,1,13192981,pdf,B1C87D8AB690F5505D7F5C0EF3982600,,,D:\\!genesis\\library.nu\\b1\\_26416.b1c87d8ab690f5505d7f5c0ef3982600.pdf,0,2000-01-01 01:00:00,2016-04-03 02:51:08,504000/b1c87d8ab690f5505d7f5c0ef3982600-d.jpg,,
19523383,A Thematic Guide to Optimality Theory,,Research Surveys in Linguistics,,John J. McCarthy,2001,1St Edition,Cambridge University Press,,332,0,English,,,до 2011-01,"0521791944,9780521791946,052179644X",,,,,410/.1,P158.42 .M43 2001,,,OL6797050M,,0,,,,,,1,1,8831030,pdf,B173AB86ACC7E3BC2B30299C625F25F5,,,D:\\!genesis\\library.nu\\b1\\_263695.b173ab86acc7e3bc2b30299c625f25f5.pdf,0,2000-01-01 01:00:00,2016-04-03 02:51:08,504000/b173ab86acc7e3bc2b30299c625f25f5-d.jpg,,
19523384,Make Mine Midnight,,,,Annmarie McKenna,2009,,"Samhain Publishing, Ltd.",,60,0,English,,,до 2011-01,978-1-60504-853-6,,B002XOTPYI,,,,,,,,,0,,,,,,,1,483980,pdf,B114B034D12B45FCACA6DC5B52726887,,,D:\\!genesis\\library.nu\\b1\\_263193.b114b034d12b45fcaca6dc5b52726887.pdf,0,2000-01-01 01:00:00,2016-04-03 02:51:08,504000/b114b034d12b45fcaca6dc5b52726887-d.jpg,,
19523385,Nutrient-Gene Interactions in Health and Disease (Modern Nutrition),,,,"Naima Moustaid-Moussa, Carolyn D. Berdanier",2001,2,CRC Press,,493,0,English,150,,до 2011-01,"0849322162,9780849322167",,,,,,,,,OL17017745M,,0,,,,,,,1,8260208,pdf,B10EDD4CFF7537C11EEF39ECCB9829DA,,,D:\\!genesis\\library.nu\\b1\\_263177.b10edd4cff7537c11eef39eccb9829da.pdf,0,2000-01-01 01:00:00,2016-04-03 02:51:08,504000/b10edd4cff7537c11eef39eccb9829da-d.jpg,,
19523386,"Contemporary Peacemaking: Conflict, Peace Processes and Post-war Reconstruction",,,,"John Darby, Roger Mac Ginty",2008,2nd,Palgrave Macmillan,,424,0,English,236,,до 2011-01,"023021021X,9780230210219",,,,,,,,,,,0,,,,,,,0,131716478,pdf,B150557471DAA5B1655A0D6728B2A615,,,D:\\!genesis\\library.nu\\b1\\_263070.b150557471daa5b1655a0d6728b2a615.pdf,0,2000-01-01 01:00:00,2016-04-03 02:51:08,504000/b150557471daa5b1655a0d6728b2a615-d.jpg,,
19523387,Continuing Your Professional Development in Lifelong Learning,,,,Angela Steward,2009,,Continuum,,268,0,English,183,,до 2011-01,"082642516X,9780826425164,082644587X,9780826445872",,,,,370.71/5,LB1715 .S7183 2009,,,OL23165629M,,0,,,,,,1,1,1241822,pdf,B155EEF0AE6B634190519DF3CF7DA3B6,,,D:\\!genesis\\library.nu\\b1\\_262835.b155eef0ae6b634190519df3cf7da3b6.pdf,0,2000-01-01 01:00:00,2016-04-03 02:51:08,504000/b155eef0ae6b634190519df3cf7da3b6-d.jpg,,
19523388,Bodily Arts: Rhetoric and Athletics in Ancient Greece,,,,Debra Hawhee,2004,,University of Texas Press,,240,0,English,57,,до 2011-01,"0292705840,9780292705845",,,,,,,,,OL17144534M,,0,,,,,,,1,3600482,pdf,B11A20A2CC63EAC4726ECA3B83A1137F,,,D:\\!genesis\\library.nu\\b1\\_262111.b11a20a2cc63eac4726eca3b83a1137f.pdf,0,2000-01-01 01:00:00,2016-04-03 02:51:08,504000/b11a20a2cc63eac4726eca3b83a1137f-d.jpg,,
19523389,"Computer Organization and Design, Fourth Edition: The Hardware Software Interface (The Morgan Kaufmann Series in Computer Architecture and Design)",,,,"David A. Patterson, John L. Hennessy",2008,4,Morgan Kaufmann,,457,0,English,69,,до 2011-01,"0123744938,9780123744937",,,,,004.6,QA76.9.C643 P37 2008,,,OL21812803M,,0,,,,,,,0,264716488,pdf,B12E48681172908C6C5A9015D7B4DD78,,,D:\\!genesis\\library.nu\\b1\\_262080.b12e48681172908c6c5a9015d7b4dd78.pdf,0,2000-01-01 01:00:00,2016-04-03 02:51:08,504000/b12e48681172908c6c5a9015d7b4dd78-d.jpg,,
19523390,El Sacerdocio en la Biblia,,Cuadernos Bíblicos,,Joseph Auneau; Nicolas Darrical (tr.),1990,,Verbo Divino,,59,0,Spanish,,,до 2011-01,,,,,,,,,,,,0,,,,,,1,1,4197660,pdf,B16B6B11BF3A3E393B579EBDD5001FF1,,,D:\\!genesis\\library.nu\\b1\\_261996.b16b6b11bf3a3e393b579ebdd5001ff1.pdf,0,2000-01-01 01:00:00,2016-04-03 02:51:08,504000/b16b6b11bf3a3e393b579ebdd5001ff1-g.jpg,,
19523391,"Digital Broadcasting: Policy And Practice in the Americas, Europe And Japan",,,,"Martin Cave, Kiyoshi Nakamura",2002,,,,290,0,English,192,,до 2011-01,"1845423712,9781845423711,9781847201607",,,,,384.55,HE8689.4 .D54 2006,,,OL22738060M,,0,,,,,1,1,1,1203393,pdf,B1BC5B0CF7C45F4FFDAEB81165F43621,,,D:\\!genesis\\library.nu\\b1\\_2614.b1bc5b0cf7c45f4ffdaeb81165f43621.pdf,0,2000-01-01 01:00:00,2016-04-03 02:51:08,504000/b1bc5b0cf7c45f4ffdaeb81165f43621-d.jpg,,
19523392,Access to Knowledge: A Guide for Everyone,,,,"Frederick Noronha, Jeremy Malcolm",1990,,,,144,0,English,94,,до 2011-01,978-0-9566117-4-1,,,,,,,,,,,0,,,,,,,1,2266171,pdf,B1358F37B7073A3C7ABDDB762A297038,,,D:\\!genesis\\library.nu\\b1\\_260454.b1358f37b7073a3c7abddb762a297038.pdf,0,2000-01-01 01:00:00,2016-04-03 02:51:08,504000/b1358f37b7073a3c7abddb762a297038-g.jpg,,
19523393,Descriptive Set Theory,,Studies in Logic and the Foundations of Mathematics 100,,Y. N. Moschovakis,1987,,"Elsevier, Academic Press",,648,0,English,183,,до 2011-01,"0444701990,0444853057,9780444701992",0049-237X,,,,511/.3,QA248 .M66,,,OL4408500M,,600,,,,,1,,1,6331074,djvu,B15AC718C500114789F3E888D3A8C6F1,,,D:\\!genesis\\library.nu\\b1\\_260.b15ac718c500114789f3e888d3a8c6f1.djvu,0,2000-01-01 01:00:00,2016-04-03 02:51:08,504000/b15ac718c500114789f3e888d3a8c6f1-d.jpg,,
19523394,Pragmatic Thinking and Learning: Refactor Your Wetware (Pragmatic Programmers),,,,Andy Hunt,2008,1,Pragmatic Bookshelf,,280,0,English,183,,до 2011-01,"1934356050,9781934356050",,,,,153.4,BF442 .H86 2008,,,OL23135651M,,0,,,,,,,1,7829722,pdf,B14F409907A43BC2C2FAB8D9FFC55160,,,D:\\!genesis\\library.nu\\b1\\_259781.b14f409907a43bc2c2fab8d9ffc55160.pdf,0,2000-01-01 01:00:00,2016-04-03 02:51:08,504000/b14f409907a43bc2c2fab8d9ffc55160-d.jpg,,
19523395,Paul of Dune,,,,"Brian Herbert, Kevin J. Anderson",2008,1st,Tor Books,,512,0,English,,,до 2011-01,"0765312948,9780765312945",,,,,813/.54,PS3558.E617 P38 2008,,,OL16975234M,,0,,,,,,,1,616278,epub,B10681F4D570EFB594BAE8EBD87302B5,,,D:\\!genesis\\library.nu\\b1\\_259261.b10681f4d570efb594bae8ebd87302b5.epub,0,2000-01-01 01:00:00,2016-04-03 02:51:08,504000/b10681f4d570efb594bae8ebd87302b5-d.jpg,,
19523396,Theorien in der biologiedidaktischen Forschung: Ein Handbuch fur Lehramtsstudenten und Doktoranden,,,,"Helmut Vogt, Dirk Kruger",2007,1,"Springer, Berlin",,278,0,German,18,,до 2011-01,"3540681655,9783540681656",,,,,,,,,OL12810168M,,0,,,,,,1,1,2799425,pdf,B1CCB7A00F185AC6DAEC04C581C59B2C,,,D:\\!genesis\\library.nu\\b1\\_259067.b1ccb7a00f185ac6daec04c581c59b2c.pdf,0,2000-01-01 01:00:00,2016-04-03 02:51:08,504000/b1ccb7a00f185ac6daec04c581c59b2c-d.jpg,,
19523397,Historische Diskursanalyse (Historische Einfuhrungen),,,,Achim Landwehr,2008,,Campus Verlag,,191,0,German,64,,до 2011-01,"3593384515,9783593384511",,,,,,,,,,,0,,,,,,,1,5300209,pdf,B17BC0F16FAA61FBFFFD0BF3985FDB2C,,,D:\\!genesis\\library.nu\\b1\\_258911.b17bc0f16faa61fbfffd0bf3985fdb2c.pdf,0,2000-01-01 01:00:00,2016-04-03 02:51:08,504000/b17bc0f16faa61fbfffd0bf3985fdb2c-d.jpg,,
19523398,Zerstort,,,,Karin Slaughter,2009,,Blanvalet Verlag,,700,0,German,,,до 2011-01,"3764502657,9783764502652",,,,,,,,,,,0,,,,,,,1,1536902,pdf,B1045C1B7CB9850938A3EA96778FF250,,,D:\\!genesis\\library.nu\\b1\\_258524.b1045c1b7cb9850938a3ea96778ff250.pdf,0,2000-01-01 01:00:00,2016-04-03 02:51:08,504000/b1045c1b7cb9850938a3ea96778ff250-d.jpg,,
19523399,Securitizations of Citizenship,,Routledge Advances in International Relations and Global Politics,,Peter Nyers,2009,1,Routledge,,224,0,English,,,до 2011-01,"0415485290,9780415485296",,,,,323.6,JF801 .S38 2009,,,OL22665371M,,0,,,,,,,1,632956,chm,B13DFAAA32C78F32C91E2B35332CE478,,,D:\\!genesis\\library.nu\\b1\\_258483.b13dfaaa32c78f32c91e2b35332ce478.chm,0,2000-01-01 01:00:00,2016-04-03 02:51:08,504000/b13dfaaa32c78f32c91e2b35332ce478-d.jpg,,
19523400,Suffering and Moral Responsibility (Oxford Ethics Series),,,,Jamie Mayerfeld,2002,,"Oxford University Press, USA",,252,0,English,183,,до 2011-01,"0195154959,9780195154955,0195115996,9780195115994",,,,,179,BJ1409 .M28 1999,,,OL359793M,,0,,,,,,,1,15774245,pdf,B17636CF0398105F3C10FFBBAA24DA88,,,D:\\!genesis\\library.nu\\b1\\_258386.b17636cf0398105f3c10ffbbaa24da88.pdf,0,2000-01-01 01:00:00,2016-04-03 02:51:08,504000/b17636cf0398105f3c10ffbbaa24da88-d.jpg,,
19523401,The German Language: A Linguistic Introduction,,,,"Jean Boase-Beier, Ken R. Lodge",2003,1,Wiley-Blackwell,,274,0,English,314,,до 2011-01,"0631231382,9780631231387,0631231390,9780631231394",,,,,,,,,OL18140914M,,0,,,,,,1,1,819346,pdf,B1895800776D55CA23906B5F533427FB,,,D:\\!genesis\\library.nu\\b1\\_258243.b1895800776d55ca23906b5f533427fb.pdf,0,2000-01-01 01:00:00,2016-04-03 02:51:08,504000/b1895800776d55ca23906b5f533427fb-d.jpg,,
19523402,Language and Power: Exploring Political Cultures in Indonesia,,,,Benedict R. O'g Anderson,2006,,Equinox Publishing,,316,0,English,314,,до 2011-01,"9793780401,9789793780405",,,,,,,,,OL9192250M,,0,,,,,,,0,23375551,djvu,B14833D0EEB3D1D029E16CF102FD29A9,e4438855ce9c21631d444bf7acb1f185,no,D:\\!genesis\\library.nu\\b1\\_258203.b14833d0eeb3d1d029e16cf102fd29a9.djvu,0,2000-01-01 01:00:00,2016-04-03 02:51:08,504000/b14833d0eeb3d1d029e16cf102fd29a9-d.jpg,,
19523403,"Inspired by Technology, Driven by Pedagogy:  A Systemic Approach to Technology-Based School Innovations",,,,OECD Organisation for Economic Co-operation and Development,2010,,OECD Publishing,,160,0,English,203,,до 2011-01,"9264094784,9789264094789",,,,,,,,,,,0,,,,,,,1,1258249,pdf,B1C3E1ACF84CF0E98074E164E67D42B5,,,D:\\!genesis\\library.nu\\b1\\_258051.b1c3e1acf84cf0e98074e164e67d42b5.pdf,0,2000-01-01 01:00:00,2016-04-03 02:51:08,504000/b1c3e1acf84cf0e98074e164e67d42b5-d.jpg,,
19523404,The Really Useful Elementary Science Book,,,,Jeffrey W. Bloom,2010,1,Routledge,,226,0,English,181,,до 2011-01,"0415958199,9780415958196,0415998085,9780415998086,9780203848401,0203848403",,,,,,,,,OL10208778M,,0,,,,,,1,1,4025116,pdf,B1F01278E71182B64A4B4E361A4BF9A5,,,D:\\!genesis\\library.nu\\b1\\_256610.b1f01278e71182b64a4b4e361a4bf9a5.pdf,0,2000-01-01 01:00:00,2016-04-03 02:51:08,504000/b1f01278e71182b64a4b4e361a4bf9a5-d.jpg,,
19523405,"Prepositions in Their Syntactic, Semantic and Pragmatic Context",,Typological Studies in Language 50,,"Susanne Feigenbaum (Ed.), Dennis Kurzon (Ed.)",2002,1st,John Benjamins Publishing Company,,311,0,English,314,,до 2011-01,"9027229562,9789027229564",,,,,,,,,,,0,,,,,,,1,3618747,pdf,B10FCBEE831317B21CF55A8127ACDAD4,,,D:/!genesis/library.nu/b1/_256547.b10fcbee831317b21cf55a8127acdad4.pdf,0,2000-01-01 01:00:00,2016-04-03 02:51:08,504000/b10fcbee831317b21cf55a8127acdad4-d.jpg,,
19523406,Kant's Search for the Supreme Principle of Morality,,,,Samuel J. Kerstein,2002,1,Cambridge University Press,,237,0,English,,,до 2011-01,"0521810892,9780521810890",,,,,,,,,OL7755283M,,0,,,,,,,1,1049115,pdf,B11B37C120E7CD7B388AFB39F854930D,,,D:\\!genesis\\library.nu\\b1\\_256446.b11b37c120e7cd7b388afb39f854930d.pdf,0,2000-01-01 01:00:00,2016-04-03 02:51:08,504000/b11b37c120e7cd7b388afb39f854930d-d.jpg,,
19523407,Chelsea Chelsea Bang Bang,,,,Chelsea Handler,2010,First Edition,Grand Central Publishing,,256,0,English,,,до 2011-01,"0446552445,9780446552448",,,,,814/.6,PN6231.W6 H27 2010,,,OL23862607M,,0,,,,,,,1,603960,epub,B1D066A4E8669BDA7F5B12BD0B4FA316,,,D:\\!genesis\\library.nu\\b1\\_256025.b1d066a4e8669bda7f5b12bd0b4fa316.epub,0,2000-01-01 01:00:00,2016-04-03 02:51:08,504000/b1d066a4e8669bda7f5b12bd0b4fa316-d.jpg,,
19523408,A Study of the Geography of 1 Enoch 17-19: No One Has Seen What I Have Seen (Supplements to the Journal for the Study of Judaism),,Supplements to the Journal for the Study of Judaism 81,,Kelley Coblentz Bautch,2003,,Brill Academic Publishers,,350,0,English,183,,до 2011-01,"9004131035,9789004131033",,,,,,,,,OL9084695M,,0,,,,,,1,1,1442211,pdf,B1E04EFCA6A60330C42A9419FA5B1DE6,,,D:\\!genesis\\library.nu\\b1\\_255946.b1e04efca6a60330c42a9419fa5b1de6.pdf,0,2000-01-01 01:00:00,2016-04-03 02:51:08,504000/b1e04efca6a60330c42a9419fa5b1de6-d.jpg,,
19523409,"Studies in Exegesis: Christian Critiques of Jewish Law and Rabbinic Responses, 70-300 C.E.",,The Brill Refernce Library of Ancient Judaism 2,,Herbert W. Basser,2002,,Brill Academic Publishers,,162,0,English,183,,до 2011-01,"0391041657,9780391041653",,,,,,,,,OL7450454M,,300,,,,,,1,1,7931618,pdf,B14BA35B4B895905E124231B99983AC9,,,D:\\!genesis\\library.nu\\b1\\_255418.b14ba35b4b895905e124231b99983ac9.pdf,0,2000-01-01 01:00:00,2016-04-03 02:51:08,504000/b14ba35b4b895905e124231b99983ac9-d.jpg,,
19523410,"Грюнвальд в источниках: «Хроника конфликта Владислава, короля Польши, с крестоносцами в год Христов 1410»",,,,Гагуа Р.Б.,2009,,ПолесГУ,,208,0,Russian,,,до 2011-01,9789855130534,,,,,,,,,,,0,,,,,,,1,20902561,pdf,B172DB18A717EAADC94A54B527AFD157,,,D:\\!genesis\\library.nu\\b1\\_254998.b172db18a717eaadc94a54b527afd157.pdf,0,2000-01-01 01:00:00,2016-04-03 02:51:08,504000/b172db18a717eaadc94a54b527afd157-g.jpg,,
19523411,Apocalypse Never: Forging the Path to a Nuclear Weapon-Free World,,,,Tad Daley,2010,,Rutgers University Press,,296,0,English,215,,до 2011-01,"0813546613,9780813546612",,,,,327.1/747,JZ5665 .D35 2010,,,OL23224102M,,0,,,,,,1,1,1295006,pdf,B187E7BD7F577D381B15141068A343A3,,,D:\\!genesis\\library.nu\\b1\\_254848.b187e7bd7f577d381b15141068a343a3.pdf,0,2000-01-01 01:00:00,2016-04-03 02:51:08,504000/b187e7bd7f577d381b15141068a343a3-d.jpg,,
19523412,A Streetcar Named Desire,,,,Tennessee Williams,1947,1st English ed,New Directions Books,,164,0,English,,,до 2011-01,"1580601006,9781580601009",,,,,,,,,OL9685883M,,0,,,,0,1,1,1,3485219,pdf,B1AAB9C6367C81BCA1A4C8268614A1D1,,,D:\\!genesis\\library.nu\\b1\\_25484.b1aab9c6367c81bca1a4c8268614a1d1.pdf,0,2000-01-01 01:00:00,2016-04-03 02:51:08,504000/b1aab9c6367c81bca1a4c8268614a1d1-d.jpg,,
19523413,A Million Little Pieces,,,,James Frey,2003,First,,,383,0,English,,,до 2011-01,"0385507755,9780385507752",,,,,"362.29/092,B",HV5831.M6 F74 2003,,,OL3566829M,,0,,,,,1,,1,1034210,pdf,B16F191146AF2B1346BC38C71031B708,,,D:\\!genesis\\library.nu\\b1\\_25451.b16f191146af2b1346bc38c71031b708.pdf,0,2000-01-01 01:00:00,2016-04-03 02:51:08,504000/b16f191146af2b1346bc38c71031b708-d.jpg,,
19523414,Dictionary of Rheumatology,,,,"Jozef Rovensky, Juraj Payer, Roy Clague, Manfred Herold, Milan Bayer, Helena Tauchmannova, Miroslav Ferencik, Zdenko Killinger",2009,1,Springer,,235,0,English,322,,до 2011-01,3211685847,,,,,616.7/23003,RC927 .D53 2009,,,OL23712061M,,0,,,,,,1,1,1328047,pdf,B11B4B91295C4E048B8E00E4C2D12565,,,D:\\!genesis\\library.nu\\b1\\_254487.b11b4b91295c4e048b8e00e4c2d12565.pdf,0,2000-01-01 01:00:00,2016-04-03 02:51:08,504000/b11b4b91295c4e048b8e00e4c2d12565-d.jpg,,
19523415,"Sectoral Systems of Innovation and Production in Developing Countries: Actors, Structure and Evolution",,,,"Franco Malerba, Sunil Mani",2009,,Edward Elgar Pub,,394,0,English,,,до 2011-01,"184844656X,9781848446564",,,,,658.4063091724,HC59.72.T4 S43 2009,,,OL23977937M,,0,,,,,,,0,22330822,pdf,B1FB73CB9D29D13A243B1BA958A63204,,,D:\\!genesis\\library.nu\\b1\\_254003.b1fb73cb9d29d13a243b1ba958a63204.pdf,0,2000-01-01 01:00:00,2016-04-03 02:51:08,504000/b1fb73cb9d29d13a243b1ba958a63204-d.jpg,,
19523416,Predictably Irrational: The Hidden Forces That Shape Our Decisions,,,,Dan Ariely,2008,1,HarperCollins,,300,0,English,,,до 2011-01,"006135323X,9780061353239",,,,,,,,,OL9952510M,,0,,,,,,1,1,3831436,pdf,B16F04B598AE5610E0DBABE3AB5FE0B5,,,D:\\!genesis\\library.nu\\b1\\_253941.b16f04b598ae5610e0dbabe3ab5fe0b5.pdf,0,2000-01-01 01:00:00,2016-04-03 02:51:08,504000/b16f04b598ae5610e0dbabe3ab5fe0b5-d.jpg,,
19523417,Women in Christianity,,Continuum Icons,,Hans Kung,2002,,Continuum,,140,0,English,205,,до 2011-01,"0826476902,9780826476906,0826456863,9780826456861",,,,,270.082,,,,OL21086089M,,0,,,,,,1,1,5421350,pdf,B19E39CA21303A2F49BD8D61BFCC9A75,,,D:\\!genesis\\library.nu\\b1\\_253594.b19e39ca21303a2f49bd8d61bfcc9a75.pdf,0,2000-01-01 01:00:00,2016-04-03 02:51:08,504000/b19e39ca21303a2f49bd8d61bfcc9a75-d.jpg,,
19523418,Trafic   Declic ; Les villes de Nancy,,,,"Jean-Luc Nancy, Benoit Goetz",2009,,La Phocide,,74,0,French,,,до 2011-01,"2917694084,9782917694084",,,,,,,,,,,0,,,,,,,1,3386623,pdf,B1514918BA51B3DDA633A826BE71AB4E,,,D:\\!genesis\\library.nu\\b1\\_252940.b1514918ba51b3dda633a826be71ab4e.pdf,0,2000-01-01 01:00:00,2016-04-03 02:51:08,504000/b1514918ba51b3dda633a826be71ab4e-d.jpg,,
19523419,Griechische Geschichte. Von den Anfangen bis zum Hellenismus (Beck Wissen),,,,Detlev Lotze,1995,Originalausg,C.H. Beck Verlag,,116,0,German,,,до 2011-01,"3406395007,9783406395000",,,,,,,,,OL466195M,,0,,,,,,,1,1757982,pdf,B112EC98D5731117B3385E457B2F7BB6,,,D:\\!genesis\\library.nu\\b1\\_252539.b112ec98d5731117b3385e457b2f7bb6.pdf,0,2000-01-01 01:00:00,2016-04-03 02:51:08,504000/b112ec98d5731117b3385e457b2f7bb6-d.jpg,,
19523420,Guardian of the Sea: Jizo in Hawaii,,Latitude 20 Books,,John R. K. Clark,2007,,University of Hawaii Press,,218,0,English,,,до 2011-01,"0824831586,9780824831585",,,,,294.3/4211309969,BQ4710.K74 U635  2007,,,OL11450482M,,0,,,,,,,1,6709950,pdf,B1B48837E7BD068FA9BC812041143CD6,,,D:\\!genesis\\library.nu\\b1\\_252334.b1b48837e7bd068fa9bc812041143cd6.pdf,0,2000-01-01 01:00:00,2016-04-03 02:51:08,504000/b1b48837e7bd068fa9bc812041143cd6-d.jpg,,
19523421,"Synthetic Differential Geometry, 2nd Edition (London Mathematical Society Lecture Note Series )",,London Mathematical Society Lecture Note Series 333,,Anders Kock,2006,2,Cambridge University Press,,243,0,English,121,,до 2011-01,"0521687381,9780521687386",,,,,,,,,OL7752056M,,0,,,,,,1,1,1024521,pdf,B1334DAF88F3ADDE5EB5C0760B3F450C,,,D:\\!genesis\\library.nu\\b1\\_252010.b1334daf88f3adde5eb5c0760b3f450c.pdf,0,2000-01-01 01:00:00,2016-04-03 02:51:08,504000/b1334daf88f3adde5eb5c0760b3f450c-d.jpg,,
19523422,Apostolic Christianity: History Of The Christian Church Volume I,,,,Philip Schaff,2004,,,,704,0,English,64,,до 2011-01,"1419124080,9781419124082",,,,,,,,,OL8471007M,,0,,,,,1,1,1,5310682,pdf,B1B4BEF60063622DEE72B4FE3440D96F,,,D:\\!genesis\\library.nu\\b1\\_25141.b1b4bef60063622dee72b4fe3440d96f.pdf,0,2000-01-01 01:00:00,2016-04-03 02:51:08,504000/b1b4bef60063622dee72b4fe3440d96f-d.jpg,,
19523423,Professional SharePoint 2010 Development,,,,"Tom Rizzo, Reza Alirezaei, Paul J. Swider, Scot Hillier, Jeff Fried, Kenneth Schaefer",2010,1,Wrox,,696,0,English,,,до 2011-01,"0470529423,9780470529423",,,,,,,,,,,0,,,,,,,1,38417846,pdf,B1B7227C3847466C0EAFEA21B99C5759,,,D:\\!genesis\\library.nu\\b1\\_251314.b1b7227c3847466c0eafea21b99c5759.pdf,0,2000-01-01 01:00:00,2016-04-03 02:51:08,504000/b1b7227c3847466c0eafea21b99c5759-d.jpg,,
19523424,Post-Silicon and Runtime Verification for Modern Processors,,,,"Ilya Wagner, Valeria Bertacco",2010,,Springer,,243,0,English,,,до 2011-01,"978-1-4419-8033-5,978-1-4419-8034-2",,,,,,,10.1007/978-1-4419-8034-2,,,,0,,,,,,,1,2731414,pdf,B1A2790AB0F6C75291310A32757E595F,,,D:\\!genesis\\library.nu\\b1\\_251194.b1a2790ab0f6c75291310a32757e595f.pdf,0,2000-01-01 01:00:00,2016-04-03 02:51:08,504000/b1a2790ab0f6c75291310a32757e595f-g.jpg,,
19523425,"Globalization, Privatisation and Market Economy",,,,Yogesh Kumar Sharma,2007,,Aavishkar,,249,0,English,,,до 2011-01,"8179102106,9788179102107",,,,,,,,,,,0,,,,,,1,1,9948630,pdf,B1934C2BC1917C915096BAF97490F8E6,,,D:\\!genesis\\library.nu\\b1\\_251061.b1934c2bc1917c915096baf97490f8e6.pdf,0,2000-01-01 01:00:00,2016-04-03 02:51:08,504000/b1934c2bc1917c915096baf97490f8e6-g.jpg,,
19523426,Equipment Management: Key to Equipment Reliability and Productivity in Mining,,,,Paul D. Tomlingson,2009,,Society for Mining Metallurgy & Exploration,,326,0,English,,,до 2011-01,978-0-87335-324-3,,,,,,,,,,,0,,,,,,,1,3408609,pdf,B17DD1240489FEFB5362C723B7771A26,,,D:\\!genesis\\library.nu\\b1\\_250436.b17dd1240489fefb5362c723b7771a26.pdf,0,2000-01-01 01:00:00,2016-04-03 02:51:08,504000/b17dd1240489fefb5362c723b7771a26-g.jpg,,
19523427,Full-Potential Electronic Structure Method: Energy and Force Calculations with Density Functional and Dynamical Mean Field Theory (Springer Series in Solid-State Sciences),167,Springer Series in Solid-State Sciences 167,,"John M. Wills, Mebarek Alouani, Per Andersson, Anna Delin, Olle Eriksson, Oleksiy Grechnyev",2010,,Springer,,211,0,English,250,Kolxo3,до 2011-01,"978-3-642-15143-9,978-3-642-15144-6",,,,,,,10.1007/978-3-642-15144-6,,,,0,,,,,,1,1,3937143,pdf,B1D6DE47C17728DA339F280CCA263684,,,"P_Physics/PS_Solid state/Wills J.M., et al. Full-Potential Electronic Structure Method.. Energy and Force Calculations with Density Functional and Dynamical Mean Field Theory (SSSS 167, Springer, 2010)(ISBN 3642151434)(O)(211s)_PS_.pdf",0,2000-01-01 01:00:00,2016-04-03 02:51:08,504000/b1d6de47c17728da339f280cca263684-g.jpg,,
19523428,"Gran Canaria: Handbuch fur individuelles Endecken, 6. Auflage (Reisefuhrer)",,,,Dieter Schulze,2009,,Reise Know-How Verlag,,387,0,German,,,до 2011-01,"3831718164,9783831718160",,,,,,,,,,,0,,,,,,1,1,8650704,pdf,B183FE5C7CFA094CA636947233B7874F,,,D:\\!genesis\\library.nu\\b1\\_250219.b183fe5c7cfa094ca636947233b7874f.pdf,0,2000-01-01 01:00:00,2016-04-03 02:51:08,504000/b183fe5c7cfa094ca636947233b7874f-d.jpg,,
19523429,The Reverse of the Medal,,,,Patrick O'Brian,1992,,,,304,0,English,,,до 2011-01,"0393309606,9780393309607",,,,,,,,,OL7453019M,,0,,,,,1,,1,1015152,pdf,B1E66992BF86E84BE70C4C8F330EAAC9,,,D:\\!genesis\\library.nu\\b1\\_24935.b1e66992bf86e84be70c4c8f330eaac9.pdf,0,2000-01-01 01:00:00,2016-04-03 02:51:08,504000/b1e66992bf86e84be70c4c8f330eaac9-d.jpg,,
19523430,"Gute Madchen kommen in den Himmel, bose uberall hin  GERMAN",,,,Ute Ehrhardt,1994,,,,222,0,German,,,до 2011-01,"3810505153,9783810505156",,,,,,,,,OL8938835M,,0,,,,,1,,1,1219398,pdf,B1D45394692AAC29DC856BC9A1782F56,,,D:\\!genesis\\library.nu\\b1\\_2484.b1d45394692aac29dc856bc9a1782f56.pdf,0,2000-01-01 01:00:00,2016-04-03 02:51:08,504000/b1d45394692aac29dc856bc9a1782f56-d.jpg,,
19523431,Endocrine Therapy in Breast Cancer,,,,MIller Ingle,2002,1,,,400,0,English,166,,до 2011-01,"0824707877,9780824707873,9780203909836",,,,,616.99/449061,RC280.B8 E5245 2002,,,OL21486522M,,0,,,,,1,1,1,3163423,pdf,B118DFDE71F0B38381CB53C327DD49F7,,,D:\\!genesis\\library.nu\\b1\\_24734.b118dfde71f0b38381cb53c327dd49f7.pdf,0,2000-01-01 01:00:00,2016-04-03 02:51:08,504000/b118dfde71f0b38381cb53c327dd49f7-d.jpg,,
19523432,Live Girls,,,,Ray Garton,2006,,,,337,0,English,,,до 2011-01,"0843956747,9780843956740",,,,,,,,,OL8242448M,,0,,,,,1,,1,1765611,pdf,B1F0D968C09848E8A526F50C08146A9D,,,D:\\!genesis\\library.nu\\b1\\_24693.b1f0d968c09848e8a526f50c08146a9d.pdf,0,2000-01-01 01:00:00,2016-04-03 02:51:08,504000/b1f0d968c09848e8a526f50c08146a9d-d.jpg,,
19523433,Guide pratique des 5S : Pour les managers et les encadrants,,,,Christian Hohmann,,,,,306,0,French,,,до 2011-01,"2708134337,9782708134331",,,,,,,,,,,0,,,,,1,1,1,2957643,pdf,B1C04D10ABE988F20B952C151AF4248E,,,D:\\!genesis\\library.nu\\b1\\_246.b1c04d10abe988f20b952c151af4248e.pdf,0,2000-01-01 01:00:00,2016-04-03 02:51:08,504000/b1c04d10abe988f20b952c151af4248e-g.jpg,,
19523434,Digital Image Warping (Systems),,,,George Wolberg,1990,1,,,344,0,English,,,до 2011-01,"0818689447,9780818689444",,,,,621.36/7,TA1632 .W65 1992,,,OL1559304M,,0,,,,,1,,1,3626399,djvu,B1E27FB736D9209A8C8349AA714C84C9,,,D:\\!genesis\\library.nu\\b1\\_24287.b1e27fb736d9209a8c8349aa714c84c9.djvu,0,2000-01-01 01:00:00,2016-04-03 02:51:08,504000/b1e27fb736d9209a8c8349aa714c84c9-d.jpg,,
19523435,Masquerade of Angels,,,,Karla Turner,1994,1st,,,257,0,English,,,до 2011-01,"9780964089914,0964089912",,,,,813/.54,PS3570.U7187 M37 1994,,,OL1133745M,,0,,,,,1,,1,813940,pdf,B170714E0499603A9CA00DA40D36D691,,,D:\\!genesis\\library.nu\\b1\\_23384.b170714e0499603a9ca00da40d36d691.pdf,0,2000-01-01 01:00:00,2016-04-03 02:51:08,504000/b170714e0499603a9ca00da40d36d691-g.jpg,,
19523436,Data Structures and Efficient Algorithms: Final Report on the DFG Special Joint Initiative (Lecture Notes in Computer Science),,,,"Burkhard Monien, Thomas Ottmann",1992,1,,,397,0,English,69,,до 2011-01,"3540554882,9783540554882",,,,,006.6,QA76.9.D35 D36 1992,,,OL1709082M,,0,,,,,1,1,1,23940926,pdf,B10259F7A2D1391737C596B3840C3167,,,D:\\!genesis\\library.nu\\b1\\_23271.b10259f7a2d1391737c596b3840c3167.pdf,0,2000-01-01 01:00:00,2016-04-03 02:51:08,504000/b10259f7a2d1391737c596b3840c3167-d.jpg,,
19523437,High-Level Modeling and Synthesis of Analog Integrated Systems (Analog Circuits and Signal Processing),,,,"Ewout S.J. Martens, Georges Gielen",2008,1,,,297,0,English,255,,до 2011-01,"9781402068010,1402068018",,,,,621.3815,TK7874.654 M375 2008,,,OL22559854M,,0,,,,,1,1,1,1958155,pdf,B1C8A17DB542980DB866416AD07A32EF,,,D:\\!genesis\\library.nu\\b1\\_22509.b1c8a17db542980db866416ad07a32ef.pdf,0,2000-01-01 01:00:00,2016-04-03 02:51:08,504000/b1c8a17db542980db866416ad07a32ef-d.jpg,,
19523438,,,Progress in Optics 11,,E. Wolf (Eds.),1973,,"Elsevier, Academic Press",,"ii-ix, 1-357",0,English,279,,до 2011-01,978-0-444-10497-7,0079-6638,,,,,,,,,,0,,,,,,1,1,14949241,pdf,B1C438AE8DE56412D228B60043DAD240,,,D:\\!genesis\\library.nu\\b1\\_219150.b1c438ae8de56412d228b60043dad240.pdf,0,2000-01-01 01:00:00,2016-04-03 02:51:08,504000/b1c438ae8de56412d228b60043dad240-g.jpg,,
19523439,How To Teach Speaking (HOW),,,,Scott Thornbury,,,,,163,0,English,,,до 2011-01,,,,,,,,,,,,0,,,,,,,0,6025758,pdf,B11B535E6A8BF117BFF6888E8DBF6BF3,,,D:\\!genesis\\library.nu\\b1\\_218805.b11b535e6a8bf117bff6888e8dbf6bf3.pdf,0,2000-01-01 01:00:00,2016-04-03 02:51:08,504000/b11b535e6a8bf117bff6888e8dbf6bf3-g.jpg,,
19523440,Fulfilling Your Spiritual Promise,,,,DSS John-Roger,,,,,1384,0,English,,,до 2011-01,978-1-893020-17-7,,,,,,,,,,,0,,,,,,1,1,3537012,pdf,B1B8B31FC4A565E562525D5C52B15790,,,D:\\!genesis\\library.nu\\b1\\_218411.b1b8b31fc4a565e562525d5c52b15790.pdf,0,2000-01-01 01:00:00,2016-04-03 02:51:08,504000/b1b8b31fc4a565e562525d5c52b15790-g.jpg,,
19523441,Oecd Review of Agricultural Policies: Brazil (OECD Reviews of Agricultural Policies),,,,Organisation for Economic Co-Operation a,,,,,229,0,English,,,до 2011-01,92-64-01254-0,,,,,,,,,,,0,,,,,,,1,3052607,pdf,B177487CDFAEAB85B3FABEE5D2F5262E,,,D:\\!genesis\\library.nu\\b1\\_218205.b177487cdfaeab85b3fabee5d2f5262e.pdf,0,2000-01-01 01:00:00,2016-04-03 02:51:08,504000/b177487cdfaeab85b3fabee5d2f5262e-g.jpg,,
19523442,This Sovereign Land: A New Vision For Governing The West,,,,Daniel Kemmis,,,,,300,0,English,,,до 2011-01,1-55963-842-7,,,,,,,,,,,0,,,,,,1,1,1305367,pdf,B1DB59E83E6194297691303197E1B69E,,,D:\\!genesis\\library.nu\\b1\\_218022.b1db59e83e6194297691303197e1b69e.pdf,0,2000-01-01 01:00:00,2016-04-03 02:51:08,504000/b1db59e83e6194297691303197e1b69e-g.jpg,,
19523443,"Measurement, Design, and Analysis: An Integrated Approach",,,,"Elazar J. Pedhazur, Liora Pedhazur Schmelkin",1991,1,,,849,0,English,117,,до 2011-01,"089859555X,9780898595550",,,,,300/.1,H62 .P325 1991,,,OL2029878M,,0,,,,,,1,1,68732746,pdf,B1B2AE437B451FEE043D20B1291E61FC,,,D:\\!genesis\\library.nu\\b1\\_217538.b1b2ae437b451fee043d20b1291e61fc.pdf,0,2000-01-01 01:00:00,2016-04-03 02:51:08,504000/b1b2ae437b451fee043d20b1291e61fc-g.jpg,,
19523444,Testing Molecular Wires: A Photophysical and Quantum Chemical Assay (Springer Theses),,Springer Theses,,Mateusz Wielopolski,2010,1st Edition.,,,182,0,English,296,,до 2011-01,"3642147399,9783642147395,9783642147401",,,,,,,10.1007/978-3-642-14740-1,,,,0,,,,,,1,1,6013173,pdf,B1AD33F5595A276EB063227F551DAA01,,,D:\\!genesis\\library.nu\\b1\\_217155.b1ad33f5595a276eb063227f551daa01.pdf,0,2000-01-01 01:00:00,2016-04-03 02:51:08,504000/b1ad33f5595a276eb063227f551daa01-d.jpg,,
19523445,Self Hypnosis Safe Simple Superb,,,,Bryan Knight,,,,,36,0,English,,,до 2011-01,C20071211A,,C20071211A,,,,,,,,,0,,,,,1,1,1,529189,pdf,B1C400644DA038568C8124E3A6701BF1,,,D:\\!genesis\\library.nu\\b1\\_21633.b1c400644da038568c8124e3a6701bf1.pdf,0,2000-01-01 01:00:00,2016-04-03 02:51:08,504000/b1c400644da038568c8124e3a6701bf1-g.jpg,,
19523446,"Psychotropic Drug Handbook, 8 e 2006",,,,"Paul J Perry, Bruce Alexander, Barry Liskow, C. Lindsay DeVane",2006,Eighth,,,736,0,English,173,,до 2011-01,"0781762731,9780781762731",,,,,615/.788,RM315 .P44 2007,,,OL22750339M,,0,,,,,1,,,1601703,chm,B1F97582E289293C8D4F68E0B9E270BF,,,D:\\!genesis\\library.nu\\b1\\_21595.b1f97582e289293c8d4f68e0b9e270bf.chm,0,2000-01-01 01:00:00,2016-04-03 02:51:08,504000/b1f97582e289293c8d4f68e0b9e270bf-d.jpg,,
19523447,Studies of Identity in the 2008 Presidential Campaign (Lexington Studies in Political Communications),,,,Robert Denton,2010,,,,254,0,English,183,,до 2011-01,"0739141031,9780739141038,0739141023,9780739141021,9780739141045",,,,,324.973/0931,JK526 2008 .S98 2010,,,OL24110106M,,0,,,,,,,1,1111002,pdf,B12F38B7F525BAB8C102C59DC5A6C8CD,,,D:\\!genesis\\library.nu\\b1\\_215929.b12f38b7f525bab8c102c59dc5a6c8cd.pdf,0,2000-01-01 01:00:00,2016-04-03 02:51:08,504000/b12f38b7f525bab8c102c59dc5a6c8cd-d.jpg,,
19523448,Unfinished Desires: A Novel,,,,Gail Godwin,2010,Reprint,,,432,0,English,,,до 2011-01,"0345483219,9780345483218,0345483200,9780345483201",,,,,813/.54,PS3557.O315 R43 2009,,,OL22679963M,,0,,,,,,,,2108098,epub,B1AB1476951DB7EA5EC927044E1269CB,,,D:\\!genesis\\library.nu\\b1\\_215694.b1ab1476951db7ea5ec927044e1269cb.epub,0,2000-01-01 01:00:00,2016-04-03 02:51:08,504000/b1ab1476951db7ea5ec927044e1269cb-d.jpg,,
19523449,History of the Second World War (Part 15): Hitler Drives the Allies out of Greece,,,,Barrie Pitt (Editor),1973,,,,32,0,English,64,,до 2011-01,,,"B0014CFUMQ,B001469DXY",,,,,,,,,0,,,,,,,0,56756574,pdf,B11511ED2BEC55845B8D106E8760B3AD,,,D:\\!genesis\\library.nu\\b1\\_215660.b11511ed2bec55845b8d106e8760b3ad.pdf,0,2000-01-01 01:00:00,2016-04-03 02:51:08,504000/b11511ed2bec55845b8d106e8760b3ad-g.jpg,,
19523450,From Mobilization to Revolution,,,,Charles Tilly,1988,,,,192,0,English,,,до 2011-01,"0394349415,9780394349411,0201075717,9780201075717,0075548518,9780075548515",,B000OKR9XC,,,301.6/33,JC328.3 .T54,,,OL15026300M,,0,,,,,,,1,15914903,pdf,B136EB052AA972A0A3EE7DD346370D73,,,D:\\!genesis\\library.nu\\b1\\_215498.b136eb052aa972a0a3ee7dd346370d73.pdf,0,2000-01-01 01:00:00,2016-04-03 02:51:08,504000/b136eb052aa972a0a3ee7dd346370d73-d.jpg,,
19523451,Jane Austen's Persuasion,,Bloom's Modern Critical Interpretations,,Harold Bloom,2004,,,,285,0,English,,,до 2011-01,"0791075850,9780791075852",,,,,823/.7,PR4034.P43 P47 2004,,,OL3674684M,,0,,,,,,1,1,1106728,pdf,B1E73AA03BDD6A602E63F4D7547BDEBB,,,D:\\!genesis\\library.nu\\b1\\_215376.b1e73aa03bdd6a602e63f4d7547bdebb.pdf,0,2000-01-01 01:00:00,2016-04-03 02:51:08,504000/b1e73aa03bdd6a602e63f4d7547bdebb-d.jpg,,
19523452,"Wireless Internet and Mobile Computing: Interoperability and Performance (Information and Communication Technology Series,)",,,,"Yu-Kwong Ricky Kwok, Vincent K.N. Lau",2007,,,,731,0,English,137,,до 2011-01,"0471679682,9780471679684,9780470167953",,,,,621.382,TK5103.2 .K95 2007,,,OL10334263M,,0,,,,,1,1,1,38012501,pdf,B1F50A457F0893021F17B2B0AF9819FB,,,D:\\!genesis\\library.nu\\b1\\_21437.b1f50a457f0893021f17b2b0af9819fb.pdf,0,2000-01-01 01:00:00,2016-04-03 02:51:08,504000/b1f50a457f0893021f17b2b0af9819fb-d.jpg,,
19523453,My Way: Essays on Moral Responsibility,,,,John Martin Fischer,2007,,,,304,0,English,,,до 2011-01,"0195337468,9780195337464,0195179552,9780195179552",,,,,170,BJ1451 .F56 2006,,,OL3425400M,,0,,,,,,1,1,1138728,pdf,B144A43C0EEDB0FCB1EDB27BD7E11714,,,D:\\!genesis\\library.nu\\b1\\_214208.b144a43c0eedb0fcb1edb27bd7e11714.pdf,0,2000-01-01 01:00:00,2016-04-03 02:51:08,504000/b144a43c0eedb0fcb1edb27bd7e11714-d.jpg,,
19523454,Arbeitsschutz im Bauwesen mit RFID,,,,"Manfred Helmus, Selcuk Nisancioglu, Berit Offergeld, Oliver Sachs",2010,,Vieweg+Teubner,,329,0,German,256,,до 2011-01,"3834810304,9783834810304",,,,,,,,,,,0,,,,,,1,1,10276394,pdf,B1F4A4E98AFC6463DA1E5106D0B5CA69,,,D:\\!genesis\\library.nu\\b1\\_213576.b1f4a4e98afc6463da1e5106d0b5ca69.pdf,0,2000-01-01 01:00:00,2016-04-03 02:51:08,504000/b1f4a4e98afc6463da1e5106d0b5ca69-g.jpg,,
19523455,Louba der Spieler.,,,,Edgar Wallace,1983,,,,277,0,German,,,до 2011-01,"3442001633,9783442001637",,,,,,,,,,,0,,,,,,1,1,768030,pdf,B1571180E15E5DFEFEEF6B03BE98D6F3,,,D:\\!genesis\\library.nu\\b1\\_213520.b1571180e15e5dfefeef6b03be98d6f3.pdf,0,2000-01-01 01:00:00,2016-04-03 02:51:08,504000/b1571180e15e5dfefeef6b03be98d6f3-g.jpg,,
19523456,"Digital Photography: Essential Skills, Fourth Edition (Photography Essential Skills)",,,,Mark Galer M.Ed.,2008,4,,,248,0,English,59,,до 2011-01,"0240521129,9780240521121",,,,,,,,,OL23095494M,,0,,,,,,,1,16794399,pdf,B1A7B96D67D12F6E459D49095DA8E49C,,,D:\\!genesis\\library.nu\\b1\\_213393.b1a7b96d67d12f6e459d49095da8e49c.pdf,0,2000-01-01 01:00:00,2016-04-03 02:51:08,504000/b1a7b96d67d12f6e459d49095da8e49c-d.jpg,,
19523457,Climate Prediction and Agriculture: Advances and Challenges,,,,"Mannava V.K. Sivakumar (Editor), James Hansen (Editor)",2007,1,,,332,0,English,36,,до 2011-01,"3540446494,9783540446491,9783540446507",,,,,,,,,OL12775385M,,0,,,,,,,1,6304291,pdf,B128BC37C27C97EF6A88356B743B45ED,,,D:\\!genesis\\library.nu\\b1\\_213019.b128bc37c27c97ef6a88356b743b45ed.pdf,0,2000-01-01 01:00:00,2016-04-03 02:51:08,504000/b128bc37c27c97ef6a88356b743b45ed-d.jpg,,
19523458,"ISA Handbook of Measurement Equations and Tables, Second Edition",,,,Jim Strothman,2006,2,,,314,0,English,113,,до 2011-01,"1556179464,9781556179464",,,,,,,,,OL8577254M,,0,,,,,,1,1,1747978,pdf,B1BC556D3600A4F19DE482CC01FE7429,,,D:\\!genesis\\library.nu\\b1\\_212971.b1bc556d3600a4f19de482cc01fe7429.pdf,0,2000-01-01 01:00:00,2016-04-03 02:51:08,504000/b1bc556d3600a4f19de482cc01fe7429-d.jpg,,
19523459,Sozial- und Arbeitsmarktpolitik nach Hartz: Funf Jahre Hartzreformen: Bestandsaufnahme - Analysen - Perspektiven,,,,"Jurgen Klute, Sandra Kotlenga",,,,,258,0,German,117,,до 2011-01,"3940344338,9783940344335",,,,,,,,,,,0,,,,,,1,1,1702007,pdf,B1F6D47A17E5A1076D6BF6D5D8EFF772,,,D:\\!genesis\\library.nu\\b1\\_212398.b1f6d47a17e5a1076d6bf6d5d8eff772.pdf,0,2000-01-01 01:00:00,2016-04-03 02:51:08,504000/b1f6d47a17e5a1076d6bf6d5d8eff772-g.jpg,,
19523460,Pinch of Salt: A Cross-curricular Teaching Pack for 9-11 Year Olds,,,,"Martin Cottam, Mike Shaw",1994,,,,83,0,English,203,,до 2011-01,"1853426075,9781853426070",,,,,,,,,OL15378374M,,0,,,,,,,1,1588453,pdf,B1D0AF74A71422C5651872A570978062,,,D:\\!genesis\\library.nu\\b1\\_212078.b1d0af74a71422c5651872a570978062.pdf,0,2000-01-01 01:00:00,2016-04-03 02:51:08,504000/b1d0af74a71422c5651872a570978062-g.jpg,,
19523461,Dreams and Experience in Classical Antiquity,,,,William V. Harris,2009,,Harvard UP,,352,0,English,64,,до 2011-01,"0674032977,9780674032972",,,,,154.6/30938,BF1078 .H2955 2009,,,OL22679027M,,0,,,,,,1,1,1065152,pdf,B10AA5C8FE2AF74EB15E41F5BA08F2FC,,,D:\\!genesis\\library.nu\\b1\\_211857.b10aa5c8fe2af74eb15e41f5ba08f2fc.pdf,0,2000-01-01 01:00:00,2016-04-03 02:51:08,504000/b10aa5c8fe2af74eb15e41f5ba08f2fc-d.jpg,,
19523462,More Than Words: Stories of Hope,,,,"Diana Palmer, Kasey Michaels, Catherine Mann",2010,,,,336,0,English,,,до 2011-01,"9780373836703,0373836708",,"B002WEPCGY,B003F97HLI",,,,,,,,,0,,,,,,,,513117,epub,B14ED182C8A99D4BDB25BF101413838D,,,D:\\!genesis\\library.nu\\b1\\_211740.b14ed182c8a99d4bdb25bf101413838d.epub,0,2000-01-01 01:00:00,2016-04-03 02:51:08,504000/b14ed182c8a99d4bdb25bf101413838d-d.jpg,,
19523463,"The Heroes of Olympus, Book One: The Lost Hero",,Heroes of Olympus 1,,Rick Riordan,2010,1st,"Hyperion Books, an imprint of Disney Book Group",,576,0,English,,,до 2011-01,"142311339X,9781423113393",,,,,,,,,OL24376021M,,0,,,,,,,1,5871870,epub,B1F270279FDD4EFCFF94AC8CFA3DBA47,,,D:\\!genesis\\library.nu\\b1\\_211692.b1f270279fdd4efcff94ac8cfa3dba47.epub,0,2000-01-01 01:00:00,2016-04-03 02:51:08,504000/b1f270279fdd4efcff94ac8cfa3dba47-d.jpg,,
19523464,The Perfect Crime,,,,Jean Baudrillard,1996,,,,160,0,English,311,,до 2011-01,"1859840442,9781859849194,9781859840443,1859849199",,,,,110,B2430.B33973 C7315 1996,,,OL21079178M,,0,,,,,,,1,611737,pdf,B1B50979EDB19A5137EEA7995122371D,,,D:\\!genesis\\library.nu\\b1\\_211644.b1b50979edb19a5137eea7995122371d.pdf,0,2000-01-01 01:00:00,2016-04-03 02:51:08,504000/b1b50979edb19a5137eea7995122371d-d.jpg,,
19523465,Occult London (Pocket Essential series),,,,Merlin Coverley,2008,,,,160,0,English,,,до 2011-01,"1904048889,9781904048886",,,,,,,,,OL8770230M,,0,,,,,,1,1,523275,pdf,B1AAC9476E76AE1E7D61ABAD0BE0DBAC,,,D:\\!genesis\\library.nu\\b1\\_211604.b1aac9476e76ae1e7d61abad0be0dbac.pdf,0,2000-01-01 01:00:00,2016-04-03 02:51:08,504000/b1aac9476e76ae1e7d61abad0be0dbac-d.jpg,,
19523466,Essays in Speech Act Theory (Pragmatics & Beyond New Series),,,,"Daniel Vanderveken, Susumu Kubo, Daniel Vanderkeven",2001,,,,330,0,English,,,до 2011-01,"9789027250933,9027250936,1556198353,9781556198,1556198361,9781556198366,9027250944,9789027250940,9789027298157",,,,,306.44,P95.55 .E84 2001,,,OL17043129M,,0,,,,,,,1,6684347,pdf,B1823881BE702754E0135F727757DD30,,,D:\\!genesis\\library.nu\\b1\\_211483.b1823881be702754e0135f727757dd30.pdf,0,2000-01-01 01:00:00,2016-04-03 02:51:08,504000/b1823881be702754e0135f727757dd30-d.jpg,,
19523467,The Middle East: The Impact of Generational Change (The Moshe Dayan Center for Middle Eastern and African Studies),,,,Asher Susser,2007,,,,174,0,English,183,,до 2011-01,"9652240710,9789652240712",,,,,,,,,OL13110351M,,0,,,,,,1,1,1809112,pdf,B13D141203FBA0DD86C522FDB77273F5,,,D:\\!genesis\\library.nu\\b1\\_211463.b13d141203fba0dd86c522fdb77273f5.pdf,0,2000-01-01 01:00:00,2016-04-03 02:51:08,504000/b13d141203fba0dd86c522fdb77273f5-d.jpg,,
19523468,"Small Places, Large Issues: An Introduction to Social and Cultural Anthropology",,"Anthropology, Culture and Society",,Thomas Hylland Eriksen,1995,,Pluto Press,,320,0,English,14,,до 2011-01,"0745309518,9780745309514,9780585373669",,,,,306,GN316 .E75 1995,,,,,0,,,,,,,1,3657163,pdf,B13E40E9D9D4E092EE5157ED4BF96420,,,D:/!genesis/library.nu/b1/_211386.b13e40e9d9d4e092ee5157ed4bf96420.pdf,0,2000-01-01 01:00:00,2016-04-03 02:51:08,504000/b13e40e9d9d4e092ee5157ed4bf96420-d.jpg,,
19523469,"Advances in Multimedia and Network Information System Technologies (Advances in Intelligent and Soft Computing, 80)",,Advances in Intelligent and Soft Computing 80,,"Ngoc Thanh Nguyen, Andrzej Czyzewski, Aleksander Zgrzywa",2010,1st Edition.,,,340,0,English,178,,до 2011-01,"364214988X,9783642149894,9783642149887",,,,,,,10.1007/978-3-642-14989-4,,,,0,,,,,,,1,5490375,pdf,B19270AA7F5B4EE32DC3CD3D1C91030F,,,D:\\!genesis\\library.nu\\b1\\_210500.b19270aa7f5b4ee32dc3cd3d1c91030f.pdf,0,2000-01-01 01:00:00,2016-04-03 02:51:08,504000/b19270aa7f5b4ee32dc3cd3d1c91030f-d.jpg,,
19523470,Alonso Perez de Montalban : un librero en el Madrid de los Austrias,,,,Anne Cayuela,2005,,,,384,0,Spanish,,,до 2011-01,"8496049566,9788496049567",,,,,,,,,OL20544550M,,0,,,,,,1,1,3988188,pdf,B1C1B6C9F1998907F6DFE47FE902744A,,,D:\\!genesis\\library.nu\\b1\\_210496.b1c1b6c9f1998907f6dfe47fe902744a.pdf,0,2000-01-01 01:00:00,2016-04-03 02:51:08,504000/b1c1b6c9f1998907f6dfe47fe902744a-g.jpg,,
19523471,Applied Probability and Statistics (应用概率统计),,,,"Zeng Shanyu, Zhang Luda, Yang Liming (曾善玉主编；张录达，杨丽明编写)",,,,,166,0,Chinese,137,,до 2011-01,703008182X,,,,,,,,,,,0,,,,,,1,0,2590175,pdf,B199CA625822AE33A890FD3229D684C6,,,D:\\!genesis\\library.nu\\b1\\_209858.b199ca625822ae33a890fd3229d684c6.pdf,0,2000-01-01 01:00:00,2016-04-03 02:51:08,504000/b199ca625822ae33a890fd3229d684c6-g.jpg,,
19523472,Using Corpora in Discourse Analysis (Continuum Discourse),,,,Paul Baker,2006,,,,208,0,English,117,,до 2011-01,"0826477240,9780826477248,9781441198549",,,,,,,,,OL9486180M,,0,,,,,,,1,25027049,pdf,B1F53E94E1912B4FD27DD23DB4BFF32C,,,D:\\!genesis\\library.nu\\b1\\_209302.b1f53e94e1912b4fd27dd23db4bff32c.pdf,0,2000-01-01 01:00:00,2016-04-03 02:51:08,504000/b1f53e94e1912b4fd27dd23db4bff32c-d.jpg,,
19523473,The Roles of Representation in School Mathematics: 2001 Yearbook (Yearbook National Council of Teachers of Mathematics),,,,"Albert A. Cuoco, Frances R. Curcio",2001,,,,282,0,English,113,,до 2011-01,"9780873534956,0873534956",,,,,,,,,OL11116920M,,0,,,,,,1,1,3794872,pdf,B18A5909B18C4DD62944B94228024A9D,,,D:\\!genesis\\library.nu\\b1\\_209175.b18a5909b18c4dd62944b94228024a9d.pdf,0,2000-01-01 01:00:00,2016-04-03 02:51:08,504000/b18a5909b18c4dd62944b94228024a9d-d.jpg,,
19523474,The City After The Automobile: An Architect's Vision,,,,"Moshe Safdie, With *, Wendy Kohn, Basic Books",1998,,,,200,0,English,246,,до 2011-01,"0813335450,9780813335452,9781429490573",,,,,,,,,OL8023901M,,0,,,,,,1,1,13512864,pdf,B1D9267775A31FFA9B2CC3E6A5E1995D,,,D:\\!genesis\\library.nu\\b1\\_208909.b1d9267775a31ffa9b2cc3e6a5e1995d.pdf,0,2000-01-01 01:00:00,2016-04-03 02:51:08,504000/b1d9267775a31ffa9b2cc3e6a5e1995d-d.jpg,,
19523475,Marvel Illustrated - Homer's The Iliad #3 (Marvel Comics),,,,Roy Thomas  Adapted from the Epic Poem by Homer,2008,,,,24,0,English,,,до 2011-01,,,B0014E0TFM,,,,,,,,,0,,,,,,,1,13768022,pdf,B1E157A2E4A05E11A0016D6AC7594170,,,D:\\!genesis\\library.nu\\b1\\_208599.b1e157a2e4a05e11a0016d6ac7594170.pdf,0,2000-01-01 01:00:00,2016-04-03 02:51:08,504000/b1e157a2e4a05e11a0016d6ac7594170-d.jpg,,
19523476,From Microphysics to Macrophysics: Methods and Applications of Statistical Physics,I,Theoretical and Mathematical Physics,,Roger Balian,2006,,Springer,,"XXII, 465 p.",0,English,137,,до 2011-01,"9783540454694,3540454691",,,,,,,,,,,0,,,0,1,1,1,1,25370654,pdf,B15B0FA27CFEE7DC5D418DC007C53BEA,,,D:/!genesis/library.nu/b1/_208232.b15b0fa27cfee7dc5d418dc007c53bea.pdf,0,2000-01-01 01:00:00,2016-04-03 02:51:08,504000/b15b0fa27cfee7dc5d418dc007c53bea-d.jpg,,
19523477,Beginning Red Hat Linux 9  (Programmer to Programmer),,,,Sandip Bhattacharya,2003,,,,600,0,English,87,,до 2011-01,"0764543784,9780764543784,9780764555701",,,,,,,,,OL24303016M,,0,,,,,,,,21454949,chm,B1D10B32B200526FC2A2690FB6E13413,,,D:\\!genesis\\library.nu\\b1\\_208033.b1d10b32b200526fc2a2690fb6e13413.chm,0,2000-01-01 01:00:00,2016-04-03 02:51:08,504000/b1d10b32b200526fc2a2690fb6e13413-d.jpg,,
19523478,Variational Inequalities with Applications: A Study of Antiplane Frictional Contact Problems (Advances in Mechanics and Mathematics),,Advances in Mechanics and Mathematics 18,,"Mircea Sofonea, Andaluzia Matei",2009,1,,,230,0,English,183,,до 2011-01,"0387874593,9780387874593,0387874607,9780387874609",,,,,,,10.1007/978-0-387-87460-9,,,,0,,,,,,1,1,1498919,pdf,B118C48B4CFB5B90E00F6DA6C82CF06C,,,D:\\!genesis\\library.nu\\b1\\_207610.b118c48b4cfb5b90e00f6da6c82cf06c.pdf,0,2000-01-01 01:00:00,2016-04-03 02:51:08,504000/b118c48b4cfb5b90e00f6da6c82cf06c-d.jpg,,
19523479,"Customer Energy: Wie Unternehmen lernen, die Macht des Kunden fur sich zu nutzen",,,,"Martin Sonnenschein, Harald Zapp, Axel Freyberg",2006,,,,220,0,German,263,,до 2011-01,"3409142649,9783409142649",,,,,,,,,,,0,,,,,,,1,12273915,pdf,B16A5C6C45AA0B19A36D0D35A6EB7F49,,,D:\\!genesis\\library.nu\\b1\\_206886.b16a5c6c45aa0b19a36d0d35a6eb7f49.pdf,0,2000-01-01 01:00:00,2016-04-03 02:51:08,504000/b16a5c6c45aa0b19a36d0d35a6eb7f49-d.jpg,,
19523480,Oral Health Epidemiology: Principles and Practice,,,,Amit Chattopadhyay,2009,1,,,350,0,English,177,,до 2011-01,"0763754099,9780763754099,9781449610074",,,,,617.5/22,RC815 .C495 2010,,,OL23643209M,,0,,,,,,1,1,2631402,pdf,B1456A5B1904E06A36D157F7FE258762,,,D:\\!genesis\\library.nu\\b1\\_206680.b1456a5b1904e06a36d157f7fe258762.pdf,0,2000-01-01 01:00:00,2016-04-03 02:51:08,504000/b1456a5b1904e06a36d157f7fe258762-d.jpg,,
19523481,The Birds of the Thai-Malay Peninsula: Passerines: Vol 2,,,,David R. Wells,2007,,,,848,0,English,,,до 2011-01,"0713665343,9780713665345,9781408133132",,,,,,,,,,,0,,,,,,1,1,53884087,pdf,B1F9D60F29BE9F213D5E70152C11CC01,,,D:\\!genesis\\library.nu\\b1\\_206489.b1f9d60f29be9f213d5e70152c11cc01.pdf,0,2000-01-01 01:00:00,2016-04-03 02:51:08,504000/b1f9d60f29be9f213d5e70152c11cc01-d.jpg,,
19523482,30 Minuten fur professionelles Online-Marketing. 2. Auflage,,,,Torsten Schwarz,,,,,80,0,German,4,,до 2011-01,"3897497158,9783897497153",,,,,,,,,,,0,,,,,,,1,976274,pdf,B1F3C99E119A65E748F075E96354AFD1,,,D:\\!genesis\\library.nu\\b1\\_206260.b1f3c99e119a65e748f075e96354afd1.pdf,0,2000-01-01 01:00:00,2016-04-03 02:51:08,504000/b1f3c99e119a65e748f075e96354afd1-g.jpg,,
19523483,Essays on Kant and Hume,,,,Lewis White Beck,1978,1ST,,,231,0,English,,,до 2011-01,"0300021704,9780300021707",,,,,193,B2798 .B348,,,OL4550803M,,0,,,,,,1,0,2985021,djvu,B11714716608FDBC0D8A3DB2834020D2,501fbee0c2a7695edbb9e1093b15589e,no,D:\\!genesis\\library.nu\\b1\\_206070.b11714716608fdbc0d8a3db2834020d2.djvu,0,2000-01-01 01:00:00,2016-04-03 02:51:08,504000/b11714716608fdbc0d8a3db2834020d2-g.jpg,,
19523484,"Discourse, Beliefs and Intentions: Semantic Defaults and Propositional Attitude Ascription (Current Research in the Semantics Pragmatics Interface, 2)",,,,Kasia Jaszczolt,1999,1,,,384,0,English,,,до 2011-01,"0080430600,9780585473963,9780080430607",,,,,,,,,OL16978355M,,0,,,,,,1,1,8249566,pdf,B11FB1E41B4145D56FC4612F376F4B88,,,D:\\!genesis\\library.nu\\b1\\_205884.b11fb1e41b4145d56fc4612f376f4b88.pdf,0,2000-01-01 01:00:00,2016-04-03 02:51:08,504000/b11fb1e41b4145d56fc4612f376f4b88-d.jpg,,
19523485,Tourism and Modernity: A Sociological Analysis (Tourism Social Science Series),,,,Ning Wang,1999,,,,268,0,English,194,,до 2011-01,"0080434460,9780585474557,9780080434469",,,,,,,,,OL16976479M,,0,,,,,,,1,15395318,pdf,B1ED6F5BA93455D22BB148165CE8F0C5,,,D:\\!genesis\\library.nu\\b1\\_205882.b1ed6f5ba93455d22bb148165ce8f0c5.pdf,0,2000-01-01 01:00:00,2016-04-03 02:51:08,504000/b1ed6f5ba93455d22bb148165ce8f0c5-d.jpg,,
19523486,The Optimist: One Man's Search for the Brighter Side of Life,,,,Laurence Shorter,2009,,,,336,0,English,,,до 2011-01,"0385664532,9781847670618,9780385664530,184767061X",,,,,,,,,OL24086248M,,0,,,,,,,1,638877,pdf,B195D3067427F15EF1475870D84864BE,,,D:\\!genesis\\library.nu\\b1\\_205734.b195d3067427f15ef1475870d84864be.pdf,0,2000-01-01 01:00:00,2016-04-03 02:51:08,504000/b195d3067427f15ef1475870d84864be-d.jpg,,
19523487,"Brucken aus Stahlbeton und Spannbeton: Entwurf, Konstruktion und Berechnung, 5. Auflage",,,,"Karl Heinz Holst, Ralph Holst",2004,,,,802,0,German,,,до 2011-01,"9783433028377,3433028370",,,,,,,,,OL9724986M,,0,,,,,,1,0,47983950,pdf,B16D8DDC9068184387A194FDF0E92464,,,D:\\!genesis\\library.nu\\b1\\_205685.b16d8ddc9068184387a194fdf0e92464.pdf,0,2000-01-01 01:00:00,2016-04-03 02:51:08,504000/b16d8ddc9068184387a194fdf0e92464-d.jpg,,
19523488,"All About Asset Allocation, Second Edition",,,,Richard A. Ferri,2010,2nd Revised & enlarged,,,336,0,English,305,,до 2011-01,"0071700781,9780071700788,9780071759519",,,,,,,,,OL25055045M,,0,,,,,,,1,2326381,pdf,B138F48D9B6E8CA9AE7EAA37E88F7900,,,D:\\!genesis\\library.nu\\b1\\_205339.b138f48d9b6e8ca9ae7eaa37e88f7900.pdf,0,2000-01-01 01:00:00,2016-04-03 02:51:08,504000/b138f48d9b6e8ca9ae7eaa37e88f7900-d.jpg,,
19523489,Afghanistan's Local War: Building Local Defense Forces,,,,"Seth G. Jones, Arturo Munoz",2010,,,,114,0,English,,,до 2011-01,"0833049887,9780833049889",,,,,,,,,,,0,,,,,,,1,579902,pdf,B1F4BCD270566B41B9356D36AFF329F3,,,D:\\!genesis\\library.nu\\b1\\_204800.b1f4bcd270566b41b9356d36aff329f3.pdf,0,2000-01-01 01:00:00,2016-04-03 02:51:08,504000/b1f4bcd270566b41b9356d36aff329f3-d.jpg,,
19523490,The Riddle of Barack Obama: A Psychobiography,,,,Avner Falk,2010,,,,335,0,English,18,,до 2011-01,"0313385874,9780313385872,0313385882,9780313385889",,,,,,,,,,,0,,,,,,1,1,1254797,pdf,B1230E2A4A70501B0EC1A50741E304B5,,,D:\\!genesis\\library.nu\\b1\\_204617.b1230e2a4a70501b0ec1a50741e304b5.pdf,0,2000-01-01 01:00:00,2016-04-03 02:51:08,504000/b1230e2a4a70501b0ec1a50741e304b5-d.jpg,,
19523491,Relations et communications interpersonnelles,,,,"Edmond Marc, Dominique Picard",,,,,126,0,French,234,,до 2011-01,"9782100521777,2100521772",,,,,,,,,,,0,,,,,,1,1,1516172,pdf,B1B3ED2850E18AC79C6698E332F35190,,,D:\\!genesis\\library.nu\\b1\\_204492.b1b3ed2850e18ac79c6698e332f35190.pdf,0,2000-01-01 01:00:00,2016-04-03 02:51:08,504000/b1b3ed2850e18ac79c6698e332f35190-d.jpg,,
19523492,Erfolgreiches Management (German and English Edition),,,,Ralph Berndt,2010,1st Edition.,,,310,0,German,314,,до 2011-01,"3642136850,9783642136856",,,,,,,10.1007/978-3-642-13686-3,,,,0,,,,,,1,1,7327988,pdf,B1B19DF6158FEF0DE809249A8AAA1B41,,,D:\\!genesis\\library.nu\\b1\\_204079.b1b19df6158fef0de809249a8aaa1b41.pdf,0,2000-01-01 01:00:00,2016-04-03 02:51:08,504000/b1b19df6158fef0de809249a8aaa1b41-d.jpg,,
19523493,Az egyutteles bolygoja   Symbiotic Planet - A New Look at Evolution,,,,Lynn Margulis,,,,,150,0,Hungarian,18,,до 2011-01,"978963919252X,963919252X",,,,,,,,,,,0,,,,,,1,1,35391266,pdf,B18BF5CE7F0615ED2597AA8FB5713158,,,D:\\!genesis\\library.nu\\b1\\_203889.b18bf5ce7f0615ed2597aa8fb5713158.pdf,0,2000-01-01 01:00:00,2016-04-03 02:51:08,504000/b18bf5ce7f0615ed2597aa8fb5713158-g.jpg,,
19523494,Lovci na mamute,,,,Jean Auel,,,,,223,0,Croatian,,,до 2011-01,9788677450267,,,,,,,,,,,0,,,,,,,1,1354635,pdf,B158C66F9C54284247314F6741E32D79,,,D:/!genesis/library.nu/b1/_203710.b158c66f9c54284247314f6741e32d79.pdf,0,2000-01-01 01:00:00,2016-04-03 02:51:08,504000/b158c66f9c54284247314f6741e32d79-g.jpg,,
19523495,The Greek Anthology - Vol. I of 5 (Loeb Classical Library),,,,"T.E. Page, W.R. Paton",1916,,,,512,0,English,,,до 2011-01,"0674990749,9780674990746",,B000VDDX46,,,,,,,OL18215483M,,0,,,,,,,1,22027155,pdf,B19B8D9F8A221BB1EA020329910544C5,,,D:\\!genesis\\library.nu\\b1\\_203347.b19b8d9f8a221bb1ea020329910544c5.pdf,0,2000-01-01 01:00:00,2016-04-03 02:51:08,504000/b19b8d9f8a221bb1ea020329910544c5-d.jpg,,
19523496,Perry Rhodan 16: Die Posbis,,,,William Voltz,2001,,,,400,0,German,,,до 2011-01,"381182029X,9783811820296",,,,,,,,,OL8939021M,,0,,,,,,1,1,5886359,pdf,B17C24C04D17C9E674C1B09DB2B9E252,,,D:\\!genesis\\library.nu\\b1\\_203309.b17c24c04d17c9e674c1b09db2b9e252.pdf,0,2000-01-01 01:00:00,2016-04-03 02:51:08,504000/b17c24c04d17c9e674c1b09db2b9e252-d.jpg,,
19523497,Presuppositions and Pronouns (Current Research in the Semantics Pragmatics Interface),,,,B. Geurts,1999,1,,,252,0,English,,,до 2011-01,"0080435920,9780080435923,9780585474281",,,,,401/.43,P325 .G48 1999,,,OL50135M,,0,,,,,,,1,6267478,pdf,B13C9E85E3E16F642CA8B27C69DF9A1A,,,D:\\!genesis\\library.nu\\b1\\_203147.b13c9e85e3e16f642ca8b27c69df9a1a.pdf,0,2000-01-01 01:00:00,2016-04-03 02:51:08,504000/b13c9e85e3e16f642ca8b27c69df9a1a-d.jpg,,
19523498,Precision cycling,,,,Emdmund R Burke,1994,,,,21,0,English,,,до 2011-01,"9789519692524,9519692525",,,,,,,,,,,0,,,,,,,1,1276603,pdf,B11ED0ABCA66C218DB5A64AEBDE9AEE3,,,D:\\!genesis\\library.nu\\b1\\_203090.b11ed0abca66c218db5a64aebde9aee3.pdf,0,2000-01-01 01:00:00,2016-04-03 02:51:08,504000/b11ed0abca66c218db5a64aebde9aee3-d.jpg,,
19523499,Integrative Manual Therapy: For the Upper and Lower Extremities,,,,Sharon Giammatteo,1998,1,,,153,0,English,172,,до 2011-01,"1556432607,9781556432606",,,,,617.5/8062,RC951 .G53 1997,,,OL21665011M,,0,,,,,,1,1,10195764,pdf,B138019FE1575001AF9A3446C4D3D9E3,,,D:\\!genesis\\library.nu\\b1\\_202656.b138019fe1575001af9a3446c4d3d9e3.pdf,0,2000-01-01 01:00:00,2016-04-03 02:51:08,504000/b138019fe1575001af9a3446c4d3d9e3-d.jpg,,
19523500,Trials and the Courts (Criminal Justice),,,,Colin Evans,2010,1,,,125,0,English,311,,до 2011-01,"1604136162,9781604136166,9781438132877",,,,,345.73/05,KF9223 .E936 2010,,,OL23962339M,,0,,,,,,1,1,5776858,pdf,B1261C34218FE7A4F802AC33BA3C3C88,,,D:\\!genesis\\library.nu\\b1\\_201750.b1261c34218fe7a4f802ac33ba3c3c88.pdf,0,2000-01-01 01:00:00,2016-04-03 02:51:08,504000/b1261c34218fe7a4f802ac33ba3c3c88-d.jpg,,
19523501,Ενέργεια Πηγές-Εφαρμογές-Εναλλακτικές λύσεις   Energy Sources-Applications-Alternatives,,,,"Howard Bud Smith, Μανόλης Α. Δρης (μετάφραση)",,,,,352,0,Greek,137,,до 2011-01,9603370134,,,,,,,,,,,0,,,,,,1,0,77352485,pdf,B1A410B397CA6F17CCC3FE042710D330,,,D:\\!genesis\\library.nu\\b1\\_201524.b1a410b397ca6f17ccc3fe042710d330.pdf,0,2000-01-01 01:00:00,2016-04-03 02:51:08,504000/b1a410b397ca6f17ccc3fe042710d330-g.jpg,,
19523502,Apie laisvę,,Atviros Lietuvos knyga,,Džonas Stiuartas Milis (John Stuart Mill),1995,,Pradai,,101,0,Lithuanian,195,,до 2011-01,9986405513,,,,,,,,,,,0,,,,,,,0,853906,djvu,B17CDCECEAD9D9E2220591E8E388E90F,2b14001ce1e57d75e71f05c86a030eb4,no,D:/!genesis/library.nu/b1/_200811.b17cdcecead9d9e2220591e8e388e90f.djvu,0,2000-01-01 01:00:00,2016-04-03 02:51:08,504000/b17cdcecead9d9e2220591e8e388e90f-g.jpg,,
19523503,"Embrace The Darkness (Guardians of Eternity, Book 2)",,,,Alexandra Ivy,2007,,,,352,0,English,,,до 2011-01,"0821779370,9780821779378",,,,,,,,,OL11419432M,,0,,,,,,,,313920,lit,B1D014C170D6B7FFF770E9FEDA5010ED,,,D:\\!genesis\\library.nu\\b1\\_200792.b1d014c170d6b7fff770e9feda5010ed.lit,0,2000-01-01 01:00:00,2016-04-03 02:51:08,504000/b1d014c170d6b7fff770e9feda5010ed-d.jpg,,
19523504,The Catholic Conception of International Law,,,,James Brown Scott,2007,,,,494,0,English,313,,до 2011-01,"1584778210,9781584778219",,,,,341,KZ1242 .S26 2007,,,OL12313315M,,0,,,,,,,0,19509143,pdf,B1E0283430F48EDC417FF0DD8B281A7A,,,D:\\!genesis\\library.nu\\b1\\_200770.b1e0283430f48edc417ff0dd8b281a7a.pdf,0,2000-01-01 01:00:00,2016-04-03 02:51:08,504000/b1e0283430f48edc417ff0dd8b281a7a-d.jpg,,
19523505,Philosophy of Right,,,,"G. W. F. Hegel, Translated with notes by T. M. Knox",1967,,,,382,0,English,195,,до 2011-01,"0195002768,9780195002768,0198241283",,,,,,,,,OL7385741M,,0,,,,,,,0,8473407,djvu,B1C2A2DBBC93554DC762BE6B77096A33,5eede86c5d37efeb04c5b77f6f1efef6,no,D:\\!genesis\\library.nu\\b1\\_200723.b1c2a2dbbc93554dc762be6b77096a33.djvu,0,2000-01-01 01:00:00,2016-04-03 02:51:08,504000/b1c2a2dbbc93554dc762be6b77096a33-d.jpg,,
19523506,Pain Management in Rehabilitation,,,,"Trilok N. Monga, Martin Grabois",2002,1,,,352,0,English,,,до 2011-01,"1888799633,9781888799637,9781934559352",,,,,,,,,OL9429123M,,0,,,,,,1,1,2412297,pdf,B167663AA2D6F8816EDC0BBC9EA20D46,,,D:\\!genesis\\library.nu\\b1\\_200020.b167663aa2d6f8816edc0bbc9ea20d46.pdf,0,2000-01-01 01:00:00,2016-04-03 02:51:08,504000/b167663aa2d6f8816edc0bbc9ea20d46-d.jpg,,
19523507,Patient-Specific Modeling of the Cardiovascular System: Technology-Driven Personalized Medicine,,,,Roy C.P. Kerckhoffs,2010,1st Edition.,,,253,0,English,147,,до 2011-01,"1441966900,9781441966902,9781441966919",,,,,,,10.1007/978-1-4419-6691-9,,,,0,,,,,,1,1,8871673,pdf,B1CC73C2DEAFCD99229B6CBA5EC06FCF,,,D:\\!genesis\\library.nu\\b1\\_199643.b1cc73c2deafcd99229b6cba5ec06fcf.pdf,0,2000-01-01 01:00:00,2016-04-03 02:51:08,504000/b1cc73c2deafcd99229b6cba5ec06fcf-d.jpg,,
19523508,Text Book of Banking and Finance,,,,"Sharma, N. K.",,,,,489,0,English,305,,до 2011-01,9789380207001,,,,,,,,,,,0,,,,,,1,1,23007138,pdf,B11C36720DC26009B9ADBE3DE09BD47F,,,D:\\!genesis\\library.nu\\b1\\_199616.b11c36720dc26009b9adbe3de09bd47f.pdf,0,2000-01-01 01:00:00,2016-04-03 02:51:08,504000/b11c36720dc26009b9adbe3de09bd47f-g.jpg,,
19523509,Windows 7 fur Spateinsteiger,,,,"Thomas Schirmer, Andreas Hein",,,,,265,0,German,85,,до 2011-01,"3645600124,9783645600125",,,,,,,,,,,0,,,,,,1,1,29554654,pdf,B103411E7D1BDFFF348286D5E096CF0F,,,D:\\!genesis\\library.nu\\b1\\_199596.b103411e7d1bdfff348286d5e096cf0f.pdf,0,2000-01-01 01:00:00,2016-04-03 02:51:08,504000/b103411e7d1bdfff348286d5e096cf0f-g.jpg,,
19523510,"Growth Disorders, Second Edition",,,,"C. Kelnar, M. Savage, P. Saenger, C. Cowell",2007,2,,,704,0,English,305,,до 2011-01,"0340812400,9780340812402,1444113739,9781444113730",,,,,,,,,OL9655002M,,0,,,,,,1,1,12061544,pdf,B1CDF444856A41F7D7D8D5A6C1F31D0C,,,D:\\!genesis\\library.nu\\b1\\_199554.b1cdf444856a41f7d7d8d5a6c1f31d0c.pdf,0,2000-01-01 01:00:00,2016-04-03 02:51:08,504000/b1cdf444856a41f7d7d8d5a6c1f31d0c-d.jpg,,
19523511,"Machtspiele: Die Kunst, sich durchzusetzen",,,,Matthias Nollke,2007,,,,240,0,German,,,до 2011-01,"3448080535,9783448080537",,,,,,,,,,,0,,,,,,1,1,1191065,pdf,B1185AF9F1294684261C2AB7A6017747,,,D:\\!genesis\\library.nu\\b1\\_199003.b1185af9f1294684261c2ab7a6017747.pdf,0,2000-01-01 01:00:00,2016-04-03 02:51:08,504000/b1185af9f1294684261c2ab7a6017747-d.jpg,,
19523512,"Les Corruptibles, tome 3 : Loopings",,,,"Jean-Denis Pendanx, Alain Brezault",,,,,58,0,French,,,до 2011-01,"2723445348,9782723445344",,,,,,,,,,,0,,,,,,,0,32203612,pdf,B1FC79B0F91C54797373A50CCCDD9856,,,D:\\!genesis\\library.nu\\b1\\_198772.b1fc79b0f91c54797373a50cccdd9856.pdf,0,2000-01-01 01:00:00,2016-04-03 02:51:08,504000/b1fc79b0f91c54797373a50cccdd9856-g.jpg,,
19523513,Everything You Need to Know About Weddings,,,,Karen Dolby,2001,,,,224,0,English,,,до 2011-01,"000710233X,9780007102334,9780007132683",,,,,,,,,OL9921867M,,0,,,,,,,1,9131727,pdf,B1B646CDAD31476A9F1B8B3DEF12A2A6,,,D:\\!genesis\\library.nu\\b1\\_198713.b1b646cdad31476a9f1b8b3def12a2a6.pdf,0,2000-01-01 01:00:00,2016-04-03 02:51:08,504000/b1b646cdad31476a9f1b8b3def12a2a6-d.jpg,,
19523514,GCSE German (Instant Revision),,,,Ken Wheeler,2001,,,,128,0,English,,,до 2011-01,"000710975X,9780007109753,9780007129843",,,,,,,,,OL9922022M,,0,,,,,,,1,5985961,pdf,B1092A4B64C93166E3CB8AEEE3C10B5D,,,D:\\!genesis\\library.nu\\b1\\_198709.b1092a4b64c93166e3cb8aeee3c10b5d.pdf,0,2000-01-01 01:00:00,2016-04-03 02:51:08,504000/b1092a4b64c93166e3cb8aeee3c10b5d-d.jpg,,
19523515,Nucleic Acids (Tutorial Chemistry Texts),,,,Shawn Doonan,2004,1st Edition.,,,192,0,English,296,,до 2011-01,"0854044817,9780854044818",,,,,547.7,,,,OL19202536M,,0,,,,,,,1,50851437,pdf,B1487AA3C71427671560702996B9C3DC,,,D:\\!genesis\\library.nu\\b1\\_198548.b1487aa3c71427671560702996b9c3dc.pdf,0,2000-01-01 01:00:00,2016-04-03 02:51:08,504000/b1487aa3c71427671560702996b9c3dc-d.jpg,,
19523516,Infinite dimensional Morse theory and multiple solution problems,,,,K.C. Chang,1992,1,,,350,0,English,,,до 2011-01,"0817634517,9780817634513",,,,,515,QA331 .C445 1993,,,OL1534656M,,0,,,,,,1,1,5486656,pdf,B1AB874B2E43907EDA50A4A6863F4D63,,,D:\\!genesis\\library.nu\\b1\\_198535.b1ab874b2e43907eda50a4a6863f4d63.pdf,0,2000-01-01 01:00:00,2016-04-03 02:51:08,504000/b1ab874b2e43907eda50a4a6863f4d63-d.jpg,,
19523517,"Poetry for Students, Vol. 34",,,,"Sara Constantakis, David J. Kelly",2010,,,,350,0,English,,,до 2011-01,"1414441827,9781414441825,9781414449555,1414449550",,,,,,,,,,,0,,,,,,1,1,6258350,pdf,B168C6A6340FACF4197130E67603BF47,,,D:\\!genesis\\library.nu\\b1\\_197522.b168c6a6340facf4197130e67603bf47.pdf,0,2000-01-01 01:00:00,2016-04-03 02:51:08,504000/b168c6a6340facf4197130e67603bf47-d.jpg,,
19523518,Design for a Life: How Behavior and Personality Develop,,,,Patrick Bateson,2000,,Simon & Schuster,,272,0,English,,,до 2011-01,"0684869322,9780684869322,0099267624,9780099267621,0224050648,9780224050647,0684869330,9780684869339",,B000OPSJWM,,,155.2/34,BF341 .B37 1999,,,OL122749M,,0,,,,,,,1,22803878,pdf,B1BBC68A16BC5F3989C7A795A61840C8,,,D:\\!genesis\\library.nu\\b1\\_197256.b1bbc68a16bc5f3989c7a795a61840c8.pdf,0,2000-01-01 01:00:00,2016-04-03 02:51:08,504000/b1bbc68a16bc5f3989c7a795a61840c8-d.jpg,,
19523519,The Encyclopedia of Alcoholism and Alcohol Abuse (Facts on File Library of Health and Living),,,,"Mark S. Gold, Christine Adamec",2010,1,,,359,0,English,198,,до 2011-01,"0816077096,9780816077090,1438131739,9781438131733",,,,,362.29203,HV5017 .G65 2010,,,OL23725252M,,0,,,,,,1,1,1986840,pdf,B1F0FD4009E1CC5EC424E28EDB89BFC6,,,D:\\!genesis\\library.nu\\b1\\_196972.b1f0fd4009e1cc5ec424e28edb89bfc6.pdf,0,2000-01-01 01:00:00,2016-04-03 02:51:08,504000/b1f0fd4009e1cc5ec424e28edb89bfc6-d.jpg,,
19523520,Phyllotaxis: A Systemic Study in Plant Morphogenesis,,,,Roger V. Jean,2009,1,,,404,0,English,183,,до 2011-01,"0521104696,9780521404822,9780521104692,0521404827",,,,,581.3/32,QK649 .J44 1994,,,OL1406933M,,0,,,,,,1,1,20184077,pdf,B1F0522D8DEB7C3A9D2983456AC3990F,,,D:\\!genesis\\library.nu\\b1\\_196590.b1f0522d8deb7c3a9d2983456ac3990f.pdf,0,2000-01-01 01:00:00,2016-04-03 02:51:08,504000/b1f0522d8deb7c3a9d2983456ac3990f-d.jpg,,
19523521,Value Management Practice,,,,Michel Thiry,1997,,,,112,0,English,,,до 2011-01,"1880410141,9781880410141",,,,,658.4/04,HD69.P75 T466 1997,,,OL667196M,,0,,,,,,,1,3523160,pdf,B1B4ACA6E9738FC392737D3FEAE66062,,,D:\\!genesis\\library.nu\\b1\\_196402.b1b4aca6e9738fc392737d3feae66062.pdf,0,2000-01-01 01:00:00,2016-04-03 02:51:08,504000/b1b4aca6e9738fc392737d3feae66062-d.jpg,,
19523522,"En sautant dans le vide, Tome 4 : Quand tout s'ecroule",,,,Man (Manolo Carot),,,,,65,0,French,,,до 2011-01,"2505005850,9782505005858",,,,,,,,,,,0,,,,,,,0,20171548,pdf,B17272014A33DBD80CE4E6EADAA70E2F,,,D:\\!genesis\\library.nu\\b1\\_195958.b17272014a33dbd80ce4e6eadaa70e2f.pdf,0,2000-01-01 01:00:00,2016-04-03 02:51:08,504000/b17272014a33dbd80ce4e6eadaa70e2f-d.jpg,,
19523523,"Journal of Biblical Literature, Vol. 124, No. 2 (Summer 2005)",,,,General Editor: GAIL R. O’DAY,,,,,204,0,English,181,,до 2011-01,,,,,,,,,,,periodic,0,,,,,,,1,1763802,pdf,B17444F444D3279E4186FE232C690D1F,,ban,D:\\!genesis\\library.nu\\b1\\_195412.b17444f444d3279e4186fe232c690d1f.pdf,0,2000-01-01 01:00:00,2016-04-03 02:51:08,504000/b17444f444d3279e4186fe232c690d1f-g.jpg,,
19523524,"Preachers and People in the Reformations and Early Modern Period (New History of the Sermon, 2)",,,,Larissa Taylor,2003,,,,398,0,English,64,,до 2011-01,"9004115641,9789004115644,9781423705826",,,,,,,,,OL18347316M,,0,,,,,,,1,22134436,pdf,B1F8A30728CAC802C6D1A2A5CA98B434,,,D:\\!genesis\\library.nu\\b1\\_194943.b1f8a30728cac802c6d1a2a5ca98b434.pdf,0,2000-01-01 01:00:00,2016-04-03 02:51:08,504000/b1f8a30728cac802c6d1a2a5ca98b434-d.jpg,,
19523525,"Protection of Concrete: Proceedings of the International Conference, University of Dundee, September 1990",,,,"Ravindra K. Dhir, Jeffrey W. Green",1990,1,,,1136,0,English,,,до 2011-01,"9780419154907,9780442312411,0419154906,0442312415,0203473388,9780203473382,9780203240083",,,,,624.1834,TA439,,,OL17999138M,,0,,,,,,1,1,15390844,pdf,B1E1F6F4C940346A69D2C57C8ABFF957,,,D:\\!genesis\\library.nu\\b1\\_194826.b1e1f6f4c940346a69d2c57c8abff957.pdf,0,2000-01-01 01:00:00,2016-04-03 02:51:08,504000/b1e1f6f4c940346a69d2c57c8abff957-g.jpg,,
19523526,Discourses of Empire: Counter-Epic Literature in Early Modern Spain,,,,Barbara Simerka,2003,,,,224,0,English,108,,до 2011-01,"9780271022826,0271022825,0271027940,9780271027944,9780271031606",,,,,,,,,OL9715484M,,0,,,,,,,1,14856929,pdf,B163454306D5C9F2A1C76103CE2A40EE,,,D:\\!genesis\\library.nu\\b1\\_194690.b163454306d5c9f2a1c76103ce2a40ee.pdf,0,2000-01-01 01:00:00,2016-04-03 02:51:08,504000/b163454306d5c9f2a1c76103ce2a40ee-d.jpg,,
19523527,Aliens R Us: The Other in Science Fiction Cinema,,,,"Ziauddin Sardar, Sean Cubitt",2002,,Pluto Press,,189,0,English,60,,до 2011-01,"0745315399,9780745315393",,,,,,,,,OL7955320M,,0,,,,0,1,,1,1535258,pdf,B134F728A357A8E601C2E90B9068844B,,,D:\\!genesis\\library.nu\\b1\\_19464.b134f728a357a8e601c2e90b9068844b.pdf,0,2000-01-01 01:00:00,2016-04-03 02:51:08,504000/b134f728a357a8e601c2e90b9068844b-d.jpg,,
19523528,"On the Move to Meaningful Internet Systems 2004: CoopIS, DOA, and ODBASE: OTM Confederated International Conferences, CoopIS, DOA, and ODBASE 2004, Agia ... (Lecture Notes in Computer Science) (Pt. 2)",,,,"Robert Meersman, Zahir Tari",2004,1,,,849,0,English,69,,до 2011-01,"3540236627,9783540236627,9783540304692",,,,,,,,,OL17724445M,,0,,,,,,1,1,19786149,pdf,B1E56D58FC911DAAACAB889F5BEBEDEE,,,D:\\!genesis\\library.nu\\b1\\_194369.b1e56d58fc911daaacab889f5bebedee.pdf,0,2000-01-01 01:00:00,2016-04-03 02:51:08,504000/b1e56d58fc911daaacab889f5bebedee-d.jpg,,
19523529,Recent Advances in Actinide Science (Special Publications),,,,"Rebeca Alvares, Nicholas D. Bryan, Iain May",2006,1,,,836,0,English,178,,до 2011-01,"085404678X,9780854046782",,,,,,,,,OL18279189M,,0,,,,,,,1,132724817,pdf,B13B58B5BB351056316D0720902720DE,,,D:\\!genesis\\library.nu\\b1\\_194342.b13b58b5bb351056316d0720902720de.pdf,0,2000-01-01 01:00:00,2016-04-03 02:51:08,504000/b13b58b5bb351056316d0720902720de-d.jpg,,
19523530,"Schumann: Fantasie, Op. 17 (Cambridge Music Handbooks)",,,,Nicholas Marston,1992,,,,136,0,English,62,,до 2011-01,"0521398924,9780521398923",,,,,786.2/189,ML410.S4 M37 1992,,,OL1558661M,,0,,,,,,,1,4168287,pdf,B10F1E247352914DD9DF2E85FF2757CC,,,D:\\!genesis\\library.nu\\b1\\_193907.b10f1e247352914dd9df2e85ff2757cc.pdf,0,2000-01-01 01:00:00,2016-04-03 02:51:08,504000/b10f1e247352914dd9df2e85ff2757cc-d.jpg,,
19523531,Worldwide Variation in Human Growth (Cambridge Studies in Biologica),,,,"Phyllis B. Eveleth, James M. Tanner",1991,2,,,412,0,English,183,,до 2011-01,"0521350247,9780521350242",,,,,573/.6,GN63 .E94 1990,,,OL1874913M,,0,,,,,,,1,12248789,pdf,B1DBA56969E105C585DC7B0FACD6425C,,,D:\\!genesis\\library.nu\\b1\\_193900.b1dba56969e105c585dc7b0facd6425c.pdf,0,2000-01-01 01:00:00,2016-04-03 02:51:08,504000/b1dba56969e105c585dc7b0facd6425c-d.jpg,,
19523532,"Hegel: Religion, Economics, and the Politics of Spirit, 1770-1807 (Ideas in Context)",,,,Laurence Dickey,1989,,,,476,0,English,64,,до 2011-01,"0521389127,9780521389129",,,,,,,,,OL7739083M,,0,,,,,,,1,13595471,pdf,B1589603A3B56ABD79D32C2F0DB96F08,,,D:\\!genesis\\library.nu\\b1\\_193597.b1589603a3b56abd79d32c2f0db96f08.pdf,0,2000-01-01 01:00:00,2016-04-03 02:51:08,504000/b1589603a3b56abd79d32c2f0db96f08-d.jpg,,
19523533,"New Perspectives on the Late Victorian Economy: Essays in Quantitative Economic History, 1860-1914",,,,James Foreman-Peck,1991,,,,372,0,English,64,,до 2011-01,"0521391075,9780521391078",,,,,330.941/081,HC255 .N39 1991,,,OL2227147M,,0,,,,,,,1,13526827,pdf,B1809F039ABA739E2D732DCFEC1A3393,,,D:\\!genesis\\library.nu\\b1\\_193305.b1809f039aba739e2d732dcfec1a3393.pdf,0,2000-01-01 01:00:00,2016-04-03 02:51:08,504000/b1809f039aba739e2d732dcfec1a3393-d.jpg,,
19523534,Cognition and the Brain: The Philosophy and Neuroscience Movement,,,,"Andrew Brook, Kathleen Akins (Editors)",2005,,Cambridge University Press,,440,0,English,165,,до 2011-01,"0521836425,9780521836425,0521544912,9780521544917,9780511610608",,,,,,,,,,,0,,,,,,,1,9637434,pdf,B1C9E65A4EFB52ACFEE80DCEB8C59B72,,,D:/!genesis/library.nu/b1/_193119.b1c9e65a4efb52acfee80dceb8c59b72.pdf,0,2000-01-01 01:00:00,2016-04-03 02:51:08,504000/b1c9e65a4efb52acfee80dceb8c59b72-d.jpg,,
19523535,Theatre of the Oppressed,,,,Augusto Boal,1993,,,,208,0,English,,,до 2011-01,"9780930452490,0930452496",,,,,,,,,OL8360264M,,0,,,,,1,,1,409682,pdf,B10038EA4D1A17C5B362DF440E783EBF,,,D:\\!genesis\\library.nu\\b1\\_19308.b10038ea4d1a17c5b362df440e783ebf.pdf,0,2000-01-01 01:00:00,2016-04-03 02:51:08,504000/b10038ea4d1a17c5b362df440e783ebf-d.jpg,,
19523536,Early Native American Writing: New Critical Essays (Cambridge Studies in American Literature and Culture),,,,"Helen Jaskoski, LaVonne Brown Ruoff",1996,,,,260,0,English,183,,до 2011-01,"0521555272,9780521555272",,,,,820.9/897,PS153.I52 E27 1996,,,OL21576925M,,0,,,,,,,1,6953167,pdf,B1C6DF02F0841A28FE024D4190FCFDE7,,,D:\\!genesis\\library.nu\\b1\\_192970.b1c6df02f0841a28fe024d4190fcfde7.pdf,0,2000-01-01 01:00:00,2016-04-03 02:51:08,504000/b1c6df02f0841a28fe024d4190fcfde7-d.jpg,,
19523537,Fotografia Digital de Alta Calidad  Spanish,,,,Jose Maria Mellado,,,,,469,0,Spanish,63,,до 2011-01,"8488610815,9788488610812",,,,,,,,,,,0,,,,,1,,0,101214048,pdf,B136BAB909B6DDDFEE757DEE80D904C6,,,D:\\!genesis\\library.nu\\b1\\_19266.b136bab909b6dddfee757dee80d904c6.pdf,0,2000-01-01 01:00:00,2016-04-03 02:51:08,504000/b136bab909b6dddfee757dee80d904c6-g.jpg,,
19523538,"History, Religion, and Culture: British Intellectual History 1750-1950",,,,"Stefan Collini, Richard Whatmore, Brian Young",2000,,,,304,0,English,64,,до 2011-01,"0521626382,9780521626385,0521626390,9780521626392",,,,,941,DA533 .H63 2000,,,OL45363M,,0,,,,,,,1,1598469,pdf,B1C7932DC6ABC950D9D3D8A7CA8EB0EC,,,D:\\!genesis\\library.nu\\b1\\_192645.b1c7932dc6abc950d9d3d8a7ca8eb0ec.pdf,0,2000-01-01 01:00:00,2016-04-03 02:51:08,504000/b1c7932dc6abc950d9d3d8a7ca8eb0ec-g.jpg,,
19523539,Electrons and Phonons in Semiconductor Multilayers (Cambridge Studies in Semiconductor Physics and Microelectronic Engineering),,,,B. K. Ridley,1996,,,,352,0,English,210,,до 2011-01,"0521474922,9780521474924",,,,,537.6/226,QC611.6.S9 R54 1997,,,OL977101M,,0,,,,,,,1,9368714,pdf,B1A1DCD6B7829DE3C43051654E9AAC9F,,,D:\\!genesis\\library.nu\\b1\\_192573.b1a1dcd6b7829de3c43051654e9aac9f.pdf,0,2000-01-01 01:00:00,2016-04-03 02:51:08,504000/b1a1dcd6b7829de3c43051654e9aac9f-d.jpg,,
19523540,"Legal Imperialism: Sovereignty and Extraterritoriality in Japan, the Ottoman Empire, and China",,,,Kayaoglu Turan,2010,,,,248,0,English,,,до 2011-01,"0521765919,9780521765916",,,,,341.4,KZ3678 .K39 2010,,,OL23725506M,,0,,,,,,,1,1942464,pdf,B1C2AB2804BB5796BF1146EFC3D025DD,,,D:\\!genesis\\library.nu\\b1\\_192566.b1c2ab2804bb5796bf1146efc3d025dd.pdf,0,2000-01-01 01:00:00,2016-04-03 02:51:08,504000/b1c2ab2804bb5796bf1146efc3d025dd-d.jpg,,
19523541,Emotions and Beliefs: How Feelings Influence Thoughts (Studies in Emotion and Social Interaction),,,,"Nico H. Frijda, Antony S. R. Manstead, Sacha Bem",2000,1,,,260,0,English,183,,до 2011-01,"0521771382,9780521771382",,,,,,,,,OL7752909M,,0,,,,,,,1,1801958,pdf,B1EF46921D8E4D4D0BC2E9E899394F9B,,,D:\\!genesis\\library.nu\\b1\\_192543.b1ef46921d8e4d4d0bc2e9e899394f9b.pdf,0,2000-01-01 01:00:00,2016-04-03 02:51:08,504000/b1ef46921d8e4d4d0bc2e9e899394f9b-d.jpg,,
19523542,Political Topographies of the African State: Territorial Authority and Institutional Choice (Cambridge Studies in Comparative Politics),,,,Catherine Boone,2003,,Cambridge University Press,,422,0,English,183,,до 2011-01,"0521532647,9780521532648",,,,,,,,,,,0,,,,,,,1,2324535,pdf,B12325F7CCE5E2612A4F14BED126E89E,,,D:/!genesis/library.nu/b1/_192432.b12325f7cce5e2612a4f14bed126e89e.pdf,0,2000-01-01 01:00:00,2016-04-03 02:51:08,504000/b12325f7cce5e2612a4f14bed126e89e-d.jpg,,
19523543,"The European Health Report 2002 (WHO Regional Publications, European)",,,,World Health Organization,2002,,,,172,0,English,,,до 2011-01,"9289013656,9789289013659,9780585477121",,,,,,,,,OL12948949M,,0,,,,,,1,1,1664103,pdf,B1B22B111E2A9DA952389655C2A66FC7,,,D:\\!genesis\\library.nu\\b1\\_192055.b1b22b111e2a9da952389655c2a66fc7.pdf,0,2000-01-01 01:00:00,2016-04-03 02:51:08,504000/b1b22b111e2a9da952389655c2a66fc7-d.jpg,,
19523544,The United States: Singapore Free Trade Agreement Highlights and Insights,,,,"Tommy Koh, Chang Li Lin",2004,,,,316,0,English,65,,до 2011-01,"9812388486,9789812388483,9789812567161",,,,,,,,,OL3343834M,,0,,,,,,1,1,1667409,pdf,B16E3F56F17FD149A633CC3482431198,,,D:\\!genesis\\library.nu\\b1\\_191816.b16e3f56f17fd149a633cc3482431198.pdf,0,2000-01-01 01:00:00,2016-04-03 02:51:08,504000/b16e3f56f17fd149a633cc3482431198-d.jpg,,
19523545,"Petrarca, Francesco: Familiaria: Band 2 Buch 13-24 (German Edition)",,,,Francesco Petrarca,2009,1,,,915,0,German,,,до 2011-01,"3110191598,9783110191592",,,,,,,,,,,0,,,,,,1,1,3806776,pdf,B179183381D76500119319933129113D,,,D:\\!genesis\\library.nu\\b1\\_191762.b179183381d76500119319933129113d.pdf,0,2000-01-01 01:00:00,2016-04-03 02:51:08,504000/b179183381d76500119319933129113d-d.jpg,,
19523546,Neurotransmitter Transporters (Handbook of Experimental Pharmacology) (Volume 175),,,,"Harald H. Sitte, Michael Freissmuth",2006,1,,,561,0,English,289,,до 2011-01,"3540297839,9783540297833,9783540297840",,,,,,,,,OL12773809M,,0,,,,,,1,1,8367421,pdf,B1A95352A186E143190D4413CE6352FA,,,D:\\!genesis\\library.nu\\b1\\_191501.b1a95352a186e143190d4413ce6352fa.pdf,0,2000-01-01 01:00:00,2016-04-03 02:51:08,504000/b1a95352a186e143190d4413ce6352fa-d.jpg,,
19523547,Case Study Designs in Music Therapy,,,,David Aldridge,2004,1,,,262,0,English,183,,до 2011-01,"1843101408,9781843101406,9781423709787",,,,,,,,,OL22603642M,,0,,,,,,1,1,2408178,pdf,B151865BA9AE305959B81B882B35A962,,,D:\\!genesis\\library.nu\\b1\\_191300.b151865ba9ae305959b81b882b35a962.pdf,0,2000-01-01 01:00:00,2016-04-03 02:51:08,504000/b151865ba9ae305959b81b882b35a962-d.jpg,,
19523548,Spiritual Evolution: Scientists Discuss Their Beliefs,,,,"John Marks Templeton, Kenneth Seeman Giniger",1998,,,,136,0,English,,,до 2011-01,"1890151165,9781890151164,9781932031256",,,,,200/.88/5,Q141 .S65 1998,,,OL346896M,,0,,,,,,1,1,584066,pdf,B1015E936262EB01D81401D71FC6CAC5,,,D:\\!genesis\\library.nu\\b1\\_190894.b1015e936262eb01d81401d71fc6cac5.pdf,0,2000-01-01 01:00:00,2016-04-03 02:51:08,504000/b1015e936262eb01d81401d71fc6cac5-d.jpg,,
19523549,Power Quality,,,,C. Sankaran.,2001,1,,,216,0,English,,,до 2011-01,"0849310407,9780849310409,9781420041026",,,,,621.31/042,TK1010 .S35 2002,,,OL21463561M,,0,,,,,1,1,1,3691601,pdf,B14DEE08C0FBAC8F8FC3DECF432A92B9,,,D:\\!genesis\\library.nu\\b1\\_19070.b14dee08c0fbac8f8fc3decf432a92b9.pdf,0,2000-01-01 01:00:00,2016-04-03 02:51:08,504000/b14dee08c0fbac8f8fc3decf432a92b9-d.jpg,,
19523550,"Home Front: The Military, War and Gender in Twentieth-Century Germany",,,,"Karen Hagemann, Stefanie Schuler-Springorum",2002,First Edition,,,256,0,English,67,,до 2011-01,"1859736653,9781859736654,9780585484471",,,,,355/.0082/09430904,U21.75 .H45 2002,,,OL3556773M,,0,,,,,,1,1,1731907,pdf,B1FC2EC666D4735C89991CF15012396C,,,D:\\!genesis\\library.nu\\b1\\_190613.b1fc2ec666d4735c89991cf15012396c.pdf,0,2000-01-01 01:00:00,2016-04-03 02:51:08,504000/b1fc2ec666d4735c89991cf15012396c-d.jpg,,
19523551,"Dementia And Social Inclusion: Marginalised Groups And Marginalised Areas Of Dementia Research, Care And Practice",,,,"Anthea Innes, Carole Archibald, Charlie Murphy",2004,1,,,290,0,English,114,,до 2011-01,"1843101742,9781843101741,9781423709961",,,,,,,,,OL22604526M,,0,,,,,,1,1,949056,pdf,B1F559D8C3F50C930E33644B231EA703,,,D:\\!genesis\\library.nu\\b1\\_190415.b1f559d8c3f50c930e33644b231ea703.pdf,0,2000-01-01 01:00:00,2016-04-03 02:51:08,504000/b1f559d8c3f50c930e33644b231ea703-d.jpg,,
19523552,"Opportunistic Infections (Infectious Disease (Totowa, N.J.).)",,,,Vassil St. Georgiev,2001,1st,,,568,0,English,150,,до 2011-01,"1588290093,9781588290090,9781592592968",,,,,,,,,OL18185015M,,0,,,,,,1,1,5889555,pdf,B1C6F5458F1E6FC61D8545F810F556D5,,,D:\\!genesis\\library.nu\\b1\\_190034.b1c6f5458f1e6fc61d8545f810f556d5.pdf,0,2000-01-01 01:00:00,2016-04-03 02:51:08,504000/b1c6f5458f1e6fc61d8545f810f556d5-d.jpg,,
19523553,Bound by Blood: The true story of the Wollongong murders.,,,,John Linton,2004,,,,299,0,English,,,до 2011-01,1741141761,,,,,,,,,,,0,,,,,,1,1,750408,pdf,B142B0C5A24C9539D51ECCD8B2B7860A,,,D:\\!genesis\\library.nu\\b1\\_189760.b142b0c5a24c9539d51eccd8b2b7860a.pdf,0,2000-01-01 01:00:00,2016-04-03 02:51:08,504000/b142b0c5a24c9539d51eccd8b2b7860a-g.jpg,,
19523554,Zora Neale Hurston: And A History Of Southern Life (Critical Perspectives On The P),,,,Tiffany Ruby Patterson,2005,1,,,248,0,English,64,,до 2011-01,"1592132898,9781592132898,9781592137763",,,,,813/.52,PS3515.U789 Z797 2005,,,OL3309859M,,0,,,,,,1,1,1061121,pdf,B190B5746DA1574F2427DB15B597D7F4,,,D:\\!genesis\\library.nu\\b1\\_189739.b190b5746da1574f2427db15b597d7f4.pdf,0,2000-01-01 01:00:00,2016-04-03 02:51:08,504000/b190b5746da1574f2427db15b597d7f4-d.jpg,,
19523555,"Dynamics of Speech Production and Perception, Volume 374 NATO Science Series: Life and Behavioural Sciences (Nato Science)",,,,P.L. D S. Greenberg and G. Meyer,2006,,,,388,0,English,181,,до 2011-01,"9781429419062,9781586036669,1586036661",,,,,401/.9,BF463.S64 N38 2006,,,OL12317730M,,0,,,,,,1,1,6863300,pdf,B164732B97F4DD90AE8DC68DFF12FD3C,,,D:\\!genesis\\library.nu\\b1\\_189700.b164732b97f4dd90ae8dc68dff12fd3c.pdf,0,2000-01-01 01:00:00,2016-04-03 02:51:08,504000/b164732b97f4dd90ae8dc68dff12fd3c-d.jpg,,
19523556,The Official Patient's Sourcebook on Influenza: A Revised and Updated Directory for the Internet Age,,,,Icon Health Publications,2002,,,,332,0,English,100,,до 2011-01,"0597830568,9780597830563,9780585444277",,,,,,,,,OL7581602M,,0,,,,,1,,1,1197593,pdf,B1EC74A761E2DF717B1B8559F0CF28DB,,,D:\\!genesis\\library.nu\\b1\\_1893.b1ec74a761e2df717b1b8559f0cf28db.pdf,0,2000-01-01 01:00:00,2016-04-03 02:51:08,504000/b1ec74a761e2df717b1b8559f0cf28db-d.jpg,,
19523557,Food-Drug Synergy and Safety,,,,"Lilian U. Thompson, Wendy E. Ward",2005,1,,,488,0,English,173,,до 2011-01,"084932775X,9780849327759,9781420038255",,,,,,,,,OL8259814M,,0,,,,,,1,1,2799843,pdf,B19499DCEB4DDDD209E3F6533EF2F54F,,,D:\\!genesis\\library.nu\\b1\\_188636.b19499dceb4dddd209e3f6533ef2f54f.pdf,0,2000-01-01 01:00:00,2016-04-03 02:51:08,504000/b19499dceb4dddd209e3f6533ef2f54f-d.jpg,,
19523558,Productive Postmodernism: Consuming Histories and Cultural Studies (Suny Series in Postmodern Culture),,,,John N. Duvall,2001,,,,238,0,English,64,,до 2011-01,"9780791451946,0791451941,0791451933,9780791451939,9780585450292",,,,,,,,,OL7802660M,,0,,,,,,,1,2940733,pdf,B13AC50A23D32B226B10A620E1811799,,,D:\\!genesis\\library.nu\\b1\\_188381.b13ac50a23d32b226b10a620e1811799.pdf,0,2000-01-01 01:00:00,2016-04-03 02:51:08,504000/b13ac50a23d32b226b10a620e1811799-d.jpg,,
19523559,Hidden Power of Speaking in Tongues,,,,Mahesh Chavda,2003,,,,176,0,English,,,до 2011-01,"0768421713,9780768421712",,,,,,,,,OL8065570M,,0,,,,,,,1,495790,pdf,B13D6F1F6E14D9C95540EB6A6C124DC5,,,D:\\!genesis\\library.nu\\b1\\_188062.b13d6f1f6e14d9c95540eb6a6c124dc5.pdf,0,2000-01-01 01:00:00,2016-04-03 02:51:08,504000/b13d6f1f6e14d9c95540eb6a6c124dc5-d.jpg,,
19523560,Phonics Exposed: Understanding and Resisting Systematic Direct Intense Phonics Instruction,,,,Richard J. Meyer,2001,1,,,200,0,English,,,до 2011-01,"0805839100,9780805839104,9780585387949",,,,,,,,,OL17038496M,,0,,,,,,1,1,1048178,pdf,B1C256D0EECC98EDAA7BAF47738BC199,,,D:\\!genesis\\library.nu\\b1\\_187875.b1c256d0eecc98edaa7baf47738bc199.pdf,0,2000-01-01 01:00:00,2016-04-03 02:51:08,504000/b1c256d0eecc98edaa7baf47738bc199-d.jpg,,
19523561,"Research in Labor Economics, Volume 28",,,,Solomon Polachek,2008,,,,200,0,English,305,,до 2011-01,0762313978,,,,,,,,,,,0,,,,,,1,1,3261108,pdf,B1930EE5C48C3BDAAB2173DC8D9D6609,,,D:\\!genesis\\library.nu\\b1\\_187825.b1930ee5c48c3bdaab2173dc8d9d6609.pdf,0,2000-01-01 01:00:00,2016-04-03 02:51:08,504000/b1930ee5c48c3bdaab2173dc8d9d6609-d.jpg,,
19523562,Directors' Dilemmas,,,,Patrick Dunne,2005,2nd,,,288,0,English,,,до 2011-01,"0749443456,9780749443450,9781423708810",,,,,,,,,OL7967542M,,0,,,,,,1,1,832067,pdf,B12C9068C12FCF093B0AC94AF6BB7653,,,D:\\!genesis\\library.nu\\b1\\_187461.b12c9068c12fcf093b0ac94af6bb7653.pdf,0,2000-01-01 01:00:00,2016-04-03 02:51:08,504000/b12c9068c12fcf093b0ac94af6bb7653-d.jpg,,
19523563,The Transport Manager's & Operator's Handbook 2007,,,,David Lowe,2006,Revised,,,768,0,English,289,,до 2011-01,"0749448164,9780749451226,9780749448165",,,,,,,,,OL9878677M,,0,,,,,,1,1,2881472,pdf,B1B933629AAA530C405A0DA02E4579C9,,,D:\\!genesis\\library.nu\\b1\\_187353.b1b933629aaa530c405a0da02e4579c9.pdf,0,2000-01-01 01:00:00,2016-04-03 02:51:08,504000/b1b933629aaa530c405a0da02e4579c9-d.jpg,,
19523564,"Leukocytosis - A Medical Dictionary, Bibliography, and Annotated Research Guide to Internet References",,,,ICON Health Publications,2004,,,,160,0,English,59,,до 2011-01,"0497006537,9780497006532,9781417584673",,,,,,,,,OL7652313M,,0,,,,,,,1,2396163,pdf,B1785529612698152F9F9D4E3C88F543,,,D:\\!genesis\\library.nu\\b1\\_187232.b1785529612698152f9f9d4e3c88f543.pdf,0,2000-01-01 01:00:00,2016-04-03 02:51:08,504000/b1785529612698152f9f9d4e3c88f543-d.jpg,,
19523565,"Follicle-Stimulating Hormone - A Medical Dictionary, Bibliography, and Annotated Research Guide to Internet References",,,,ICON Health Publications,2004,,,,160,0,English,59,,до 2011-01,"0497004380,9780497004385,9781417556779",,,,,,,,,OL7652098M,,0,,,,,,1,1,1338965,pdf,B1E3562ECE01532CCC3960FCF5F1FC9B,,,D:\\!genesis\\library.nu\\b1\\_187082.b1e3562ece01532ccc3960fcf5f1fc9b.pdf,0,2000-01-01 01:00:00,2016-04-03 02:51:08,504000/b1e3562ece01532ccc3960fcf5f1fc9b-d.jpg,,
19523566,"Wu Han, Historian: Son of China's Times",,,,Mary G. Mazur,2009,,,,530,0,English,64,,до 2011-01,"0739124560,9780739124567,9780739130223",,,,,"951.0072/02,B",DS734.9.W78 M39 2008,,,OL16873030M,,0,,,,,,,1,2113348,pdf,B19404F586D2503BB0D5644355F76F16,,,D:\\!genesis\\library.nu\\b1\\_187009.b19404f586d2503bb0d5644355f76f16.pdf,0,2000-01-01 01:00:00,2016-04-03 02:51:08,504000/b19404f586d2503bb0d5644355f76f16-d.jpg,,
19523567,"Asphyxiation: A Medical Dictionary, Bibliography, And Annotated Research Guide To Internet References",,,,Icon Health Publications,2004,,,,92,0,English,59,,до 2011-01,"0497001039,9780497001032,9781417541119",,,,,,,,,OL7651763M,,0,,,,,,,1,1074200,pdf,B1E1F85B51AEE4C3E63DF3B0D725F60F,,,D:\\!genesis\\library.nu\\b1\\_186946.b1e1f85b51aee4c3e63df3b0d725f60f.pdf,0,2000-01-01 01:00:00,2016-04-03 02:51:08,504000/b1e1f85b51aee4c3e63df3b0d725f60f-d.jpg,,
19523568,Doing Counselling Research,,,,John McLeod,2003,2nd,,,228,0,English,,,до 2011-01,"9780761941088,0761941088,076194107X,9780761941071,9781412932936",,,,,,,,,OL22530750M,,0,,,,,,,1,1887720,pdf,B1EAD7AA1DEAEEC9315CC3C94A8A9AF1,,,D:\\!genesis\\library.nu\\b1\\_186884.b1ead7aa1deaeec9315cc3c94a8a9af1.pdf,0,2000-01-01 01:00:00,2016-04-03 02:51:08,504000/b1ead7aa1deaeec9315cc3c94a8a9af1-d.jpg,,
19523569,"Investment, Procurement and Performance in Construction: The First National RICS Research Conference",,,,"P.S. Brandon, P. Venmore-Rowland, T. Mole, P. S. Brandon",1990,,,,396,0,English,305,,до 2011-01,"0419174001,9780419174004,9780203973622",,,,,,,,,OL20911354M,,0,,,,,,1,1,5055449,pdf,B16A17AE9EA975334C5B0F46A9DB898E,,,D:\\!genesis\\library.nu\\b1\\_186770.b16a17ae9ea975334c5b0f46a9db898e.pdf,0,2000-01-01 01:00:00,2016-04-03 02:51:08,504000/b16a17ae9ea975334c5b0f46a9db898e-d.jpg,,
19523570,African American Performance and Theater History: A Critical Reader,,,,"Harry J. Elam, David Krasner",2001,,,,384,0,English,64,,до 2011-01,"0195127250,9780195127256,9780195302080",,,,,,,,,OL7388743M,,0,,,,,,1,1,2203924,pdf,B1DC5C9E48CF145AABAB7DCE19376FC4,,,D:\\!genesis\\library.nu\\b1\\_186452.b1dc5c9e48cf145aabab7dce19376fc4.pdf,0,2000-01-01 01:00:00,2016-04-03 02:51:08,504000/b1dc5c9e48cf145aabab7dce19376fc4-d.jpg,,
19523571,J.K. Lasser's Homeowner's Tax Breaks 2006: Your Complete Guide to Finding Hidden Gold in Your Home (J.K. Lasser),,,,Gerald J. Robinson,2005,Revised,,,270,0,English,137,,до 2011-01,"0471733105,9780471733102,9780471778158",,,,,,,,,OL24247367M,,0,,,,,,1,1,7101196,pdf,B1E9B3F19C4D3CD24F701257337F9252,,,D:\\!genesis\\library.nu\\b1\\_186064.b1e9b3f19c4d3cd24f701257337f9252.pdf,0,2000-01-01 01:00:00,2016-04-03 02:51:08,504000/b1e9b3f19c4d3cd24f701257337f9252-d.jpg,,
19523572,Cancer Control: Knowledge into Action: Diagnosis and Treatment (Who Guide for Effective Programmes),,,,World Health Organization,2008,,World Health Organization,,51,0,English,166,,до 2011-01,"9789240683129,9789241547406,9241547405",,,,,,,,,,,0,,,,,,1,1,5875168,pdf,B13212C84D76EF277E292952C4237A84,,,D:\\!genesis\\library.nu\\b1\\_185778.b13212c84d76ef277e292952c4237a84.pdf,0,2000-01-01 01:00:00,2016-04-03 02:51:08,504000/b13212c84d76ef277e292952c4237a84-g.jpg,,
19523573,Ripley's Believe It or Not!: Odd Places,,,,Howard Zimmerman,1991,100 Anv,,,128,0,English,,,до 2011-01,"9780812512854,0812512855",,,,,,,,,OL11346965M,,0,,,,,,,0,57423312,pdf,B115BD03029B0B90BA62346B7E84BEB4,,,D:\\!genesis\\library.nu\\b1\\_185462.b115bd03029b0b90ba62346b7e84beb4.pdf,0,2000-01-01 01:00:00,2016-04-03 02:51:08,504000/b115bd03029b0b90ba62346b7e84beb4-d.jpg,,
19523574,Well-Being in Amsterdam's Golden Age,,,,Derek Phillips,2009,,,,264,0,English,,,до 2011-01,"9085550424,9789085550426,9789048502066",,,,,,,,,OL23871604M,,0,,,,,,1,1,902932,pdf,B1F681BADFD3F5DA1428C9E7B8A60078,,,D:\\!genesis\\library.nu\\b1\\_185399.b1f681badfd3f5da1428c9e7b8a60078.pdf,0,2000-01-01 01:00:00,2016-04-03 02:51:08,504000/b1f681badfd3f5da1428c9e7b8a60078-d.jpg,,
19523575,Abiotic Stress Tolerance in Plants: Toward the Improvement of Global Environment and Food,,,,"Ashwani K. Rai (Editor), Teruhiro Takabe (Editor)",2006,1,,,276,0,English,18,,до 2011-01,"1402043880,9781402043888,9781402043895",,,,,,,,,OL8371848M,,0,,,,,1,,1,6228473,pdf,B18D203C9C5A5E2D62AEBB3BFB9968D0,,,D:\\!genesis\\library.nu\\b1\\_18500.b18d203c9c5a5e2d62aebb3bfb9968d0.pdf,0,2000-01-01 01:00:00,2016-04-03 02:51:08,504000/b18d203c9c5a5e2d62aebb3bfb9968d0-d.jpg,,
19523576,Inventing Personality: Gordon Allport and the Science of Selfhood,,,,Ian A. M. Nicholson,2003,1st,,,301,0,English,181,,до 2011-01,"155798929X,9781557989291",,,,,,,,,OL8603136M,,0,,,,,,1,1,28435215,pdf,B197A5C0DC63E383C0AB50B3CFE2FC60,,,D:\\!genesis\\library.nu\\b1\\_184671.b197a5c0dc63e383c0ab50b3cfe2fc60.pdf,0,2000-01-01 01:00:00,2016-04-03 02:51:08,504000/b197a5c0dc63e383c0ab50b3cfe2fc60-d.jpg,,
19523577,Changing American Psychiatry: A Personal Perspective,,,,Melvin Sabshin,2008,1,,,419,0,English,198,,до 2011-01,"1585623075,9781585623075,9781585628841",,,,,616.89,RC443 .S23 2008,,,OL18843764M,,0,,,,,,1,1,10005853,pdf,B122547F18C24512D17BF82CF5875842,,,D:\\!genesis\\library.nu\\b1\\_184387.b122547f18c24512d17bf82cf5875842.pdf,0,2000-01-01 01:00:00,2016-04-03 02:51:08,504000/b122547f18c24512d17bf82cf5875842-d.jpg,,
19523578,"Canadian Social Policy: Issues and Perspectives, 4th edition",,,,Anne Westhues,2006,4,,,412,0,English,192,,до 2011-01,"0889205043,9780889205048,9781429412506",,,,,361.6/10971,,,,OL22237135M,,0,,,,,,1,1,5384342,pdf,B139467142C315A9A457B661A3E81CF1,,,D:\\!genesis\\library.nu\\b1\\_184274.b139467142c315a9a457b661a3e81cf1.pdf,0,2000-01-01 01:00:00,2016-04-03 02:51:08,504000/b139467142c315a9a457b661a3e81cf1-d.jpg,,
19523579,The American Psychiatric Publishing Textbook of Psychoanalysis,,,,"Ethel S. Person, Arnold M. Cooper, Glen O. Gabbard",2005,1,"American Psychiatric Publishing, Inc.",,628,0,English,198,,до 2011-01,"1585621528,9781585621521,9781585626564",,,,,616.89/17,RC504 .A484 2005,,,OL18553754M,,0,,,,,,1,1,10461352,pdf,B15EE9E5E48B34896C8062F79DC35DA9,,,D:\\!genesis\\library.nu\\b1\\_184240.b15ee9e5e48b34896c8062f79dc35da9.pdf,0,2000-01-01 01:00:00,2016-04-03 02:51:08,504000/b15ee9e5e48b34896c8062f79dc35da9-d.jpg,,
19523580,Cataloging Correctly for Kids: An Introduction to the Tools 4th Edition,,,,Sheila S. Intner,2005,4,,,148,0,English,,,до 2011-01,"0838935591,9780838935590,9780838998991",,,,,025.3/2,Z695.1.C6 C37 2005,,,OL3403642M,,0,,,,,,1,1,669550,pdf,B13A778F29CC8BEAB8CEFE81E9C9E37B,,,D:\\!genesis\\library.nu\\b1\\_184139.b13a778f29cc8beab8cefe81e9c9e37b.pdf,0,2000-01-01 01:00:00,2016-04-03 02:51:08,504000/b13a778f29cc8beab8cefe81e9c9e37b-d.jpg,,
19523581,Adobe After Effects CS4 Classroom in a Book,,,,Adobe Creative Team,2009,1,,,400,0,English,95,,до 2011-01,"0321573838,9780321573834",,,,,778.5/3,TR858 .A368 2009,,,OL23655714M,,0,,,,,,1,1,20338320,pdf,B1295D2AB24B84441077C29A0B96FDA2,,,D:\\!genesis\\library.nu\\b1\\_183929.b1295d2ab24b84441077c29a0b96fda2.pdf,0,2000-01-01 01:00:00,2016-04-03 02:51:08,504000/b1295d2ab24b84441077c29a0b96fda2-d.jpg,,
19523582,"Chemical Vapor Deposition for Microelectronics: Principles, Technology and Applications (Materials Science and Process Technology)",,,,Arthur Sherman,1989,1st,,,226,0,English,296,,до 2011-01,"0815511361,9780815511366,9780815516392",,,,,621.381/7,TS695 .S54 1987,,,OL2382555M,,0,,,,,,1,1,11486970,pdf,B1E4EBC316171319689E83FB9F2298A3,,,D:\\!genesis\\library.nu\\b1\\_183545.b1e4ebc316171319689e83fb9f2298a3.pdf,0,2000-01-01 01:00:00,2016-04-03 02:51:08,504000/b1e4ebc316171319689e83fb9f2298a3-d.jpg,,
19523583,Polymer Membranes for Fuel Cells,,,,"S.M. Javaid Zaidi, Takeshi Matsuura",2008,1,,,550,0,English,243,,до 2011-01,"0387735313,9780387735313",,,,,,,10.1007/978-0-387-73532-0,,,,0,,,,,,,1,10880329,pdf,B139235BB191A5E26505204566631CC6,,,D:\\!genesis\\library.nu\\b1\\_183476.b139235bb191a5e26505204566631cc6.pdf,0,2000-01-01 01:00:00,2016-04-03 02:51:08,504000/b139235bb191a5e26505204566631cc6-d.jpg,,
19523584,"Economic analysis of music copyright: income, media and performances",,,,Ivan L. Pitt,2010,1,Springer,New York,174,0,English,305,,до 2011-01,"1441963170, 978-1-4419-6317-8, 978-1-4419-6318-5",,,,,,,10.1007/978-1-4419-6318-5,GYbndQUWxoIC,,,0,,,,1,0,1,1,1485522,pdf,B1F96A2AE902C83AA199CCC2EA1C82AC,,,D:/!genesis/library.nu/b1/_183430.b1f96a2ae902c83aa199ccc2ea1c82ac.pdf,0,2000-01-01 01:00:00,2016-04-03 02:51:08,504000/b1f96a2ae902c83aa199ccc2ea1c82ac-d.jpg,,
19523585,Society and Individual in Renaissance Florence,,,,William Connell (Editor),2002,,,,465,0,English,,,до 2011-01,"0520232542,9780520232549,9780585441139",,,,,945/.51,DG735.6 .S73 2002,,,OL23240113M,,0,,,,,1,1,1,4828151,pdf,B179B473A13D5C3B47C6F50314CE8DAD,,,D:\\!genesis\\library.nu\\b1\\_18254.b179b473a13d5c3b47c6f50314ce8dad.pdf,0,2000-01-01 01:00:00,2016-04-03 02:51:08,504000/b179b473a13d5c3b47c6f50314ce8dad-d.jpg,,
19523586,The 2000-2005 World Outlook for Snack Nuts and Seeds (Strategic Planning Series),,,,"Research Group, The Snack Nuts, Seeds Research Group",2000,2000,,,125,0,English,64,,до 2011-01,"0757655823,9780757655821",,,,,,,,,OL10867218M,,0,,,,,1,1,1,515931,pdf,B1C395B98DE135BB0B1D896B6529B544,,,D:\\!genesis\\library.nu\\b1\\_1822.b1c395b98de135bb0b1d896b6529b544.pdf,0,2000-01-01 01:00:00,2016-04-03 02:51:08,504000/b1c395b98de135bb0b1d896b6529b544-d.jpg,,
19523587,Continuum Solvation Models in Chemical Physics: From Theory to Applications,,,,"Benedetta Mennucci, Roberto Cammi",2008,1,,,636,0,English,296,,до 2011-01,"0470029382,9780470029381,9780470515228",,,,,541/.34,QD543 .C735 2007,,,OL10278409M,,0,,,,,,,1,19974699,pdf,B10B19E12CB35C99299FCEC3AAC6182B,,,D:\\!genesis\\library.nu\\b1\\_180531.b10b19e12cb35c99299fcec3aac6182b.pdf,0,2000-01-01 01:00:00,2016-04-03 02:51:08,504000/b10b19e12cb35c99299fcec3aac6182b-d.jpg,,
19523588,"Real Estate Investing For Dummies, 2nd Edition",,,,"Eric Tyson MBA, Robert S. Griswold MBA",2009,2,,,408,0,English,187,,до 2011-01,"047028966X,9780470289662",,,,,,,,,,,0,,,,,,,1,4677595,pdf,B18AF427033A67672863581E6D69C41B,,,D:\\!genesis\\library.nu\\b1\\_179505.b18af427033a67672863581e6d69c41b.pdf,0,2000-01-01 01:00:00,2016-04-03 02:51:08,504000/b18af427033a67672863581e6d69c41b-d.jpg,,
19523589,Helen Keller: Activist (Women of Achievment),,,,Rachel A. Koestler-Grack,2009,2nd,,,112,0,English,,,до 2011-01,"1604135026,9781604135022",,,,,"362.4/1092,B",HV1624.K4 K644 2009,,,OL22849827M,,0,,,,,,1,1,5726435,pdf,B1AED5E1368053424778147EC1EC16D4,,,D:\\!genesis\\library.nu\\b1\\_178768.b1aed5e1368053424778147ec1ec16d4.pdf,0,2000-01-01 01:00:00,2016-04-03 02:51:08,504000/b1aed5e1368053424778147ec1ec16d4-d.jpg,,
19523590,Arabic Thought and Its Place in History,,,,De Lacy O'Leary,2003,,,,336,0,English,64,,до 2011-01,"9780486427621,0486427625",,,,,,,,,OL7638939M,,0,,,,,1,,1,16036227,pdf,B139EB99C25E9211074F536481644390,,,D:\\!genesis\\library.nu\\b1\\_17857.b139eb99c25e9211074f536481644390.pdf,0,2000-01-01 01:00:00,2016-04-03 02:51:08,504000/b139eb99c25e9211074f536481644390-d.jpg,,
19523591,Software Design Methodology: From Principles to Architectural Styles,,,,Hong Zhu,2005,,,,368,0,English,,,до 2011-01,"0750660759,9780750660754,9780080454962",,,,,005.1,QA76.76.D47 Z58 2005,,,OL18177212M,,0,,,,,,1,1,4070028,pdf,B14C487B42CC77B412B3056514653D92,,,D:\\!genesis\\library.nu\\b1\\_177887.b14c487b42cc77b412b3056514653d92.pdf,0,2000-01-01 01:00:00,2016-04-03 02:51:08,504000/b14c487b42cc77b412b3056514653d92-d.jpg,,
19523592,Andersonvilles of the North: The Myths and Realities of Northern Treatment of Civil War Confederate Prisoners,,,,James M. Gillispie,2008,,,,296,0,English,67,,до 2011-01,"1574412558,9781574412550",,B003QFMT6O,,,973.7/71,E615 .G55 2008,,,OL16840514M,,0,,,,,,1,1,2384910,pdf,B10F3FFB76336960975BE8A14C1F2881,,,D:\\!genesis\\library.nu\\b1\\_176453.b10f3ffb76336960975be8a14c1f2881.pdf,0,2000-01-01 01:00:00,2016-04-03 02:51:08,504000/b10f3ffb76336960975be8a14c1f2881-d.jpg,,
19523593,"Information Technology and Lawyers: Advanced Technology in the Legal Domain, from Challenges to Daily Routine",,,,"Arno R. Lodder, Anja Oskamp (Editors)",2006,1,,,207,0,English,313,,до 2011-01,"1402041454,9781402041457,9781402041464",,,,,,,,,OL8371750M,,0,,,,,,,1,6850957,pdf,B1AEB5AA8513030962DCDD13EBC6C38D,,,D:\\!genesis\\library.nu\\b1\\_176350.b1aeb5aa8513030962dcdd13ebc6c38d.pdf,0,2000-01-01 01:00:00,2016-04-03 02:51:08,504000/b1aeb5aa8513030962dcdd13ebc6c38d-d.jpg,,
19523594,Jahrbuch fur Soziologiegeschichte: Soziologisches Erbe: Georg Simmel - Max Weber - Soziologie und Religion - Chicagoer Schule der Soziologie,,,,Carsten Klingemann,2007,,,,171,0,German,205,,до 2011-01,"3531152734,9783531152738",,,,,,,,,,,0,,,,,,1,1,1277103,pdf,B1375E0E31F2864522D6210C6D344319,,,D:\\!genesis\\library.nu\\b1\\_175916.b1375e0e31f2864522d6210c6d344319.pdf,0,2000-01-01 01:00:00,2016-04-03 02:51:08,504000/b1375e0e31f2864522d6210c6d344319-d.jpg,,
19523595,Chocolate Everything (Company's Coming),,,,Jean Pare,2000,,,,191,0,English,137,,до 2011-01,"9781895455649,1895455642",,,,,,,,,OL8725025M,,0,,,,,,,0,64239934,pdf,B13D0E18A6387A6E9DBDC4A588800B7A,,,D:\\!genesis\\library.nu\\b1\\_175800.b13d0e18a6387a6e9dbdc4a588800b7a.pdf,0,2000-01-01 01:00:00,2016-04-03 02:51:08,504000/b13d0e18a6387a6e9dbdc4a588800b7a-d.jpg,,
19523596,"Marketing Trends for Organic Food in the 21st Century (Computers and Operations Research, Vol. 3)",,,,G. Baourakis,2004,,,,360,0,English,69,,до 2011-01,"9812387684,9789812387684,9789812796622",,,,,338.17641302,,,,OL21188892M,,0,,,,,1,,1,17876058,pdf,B1397B65F6BD442E8BEB2A4E8852D1FB,,,D:\\!genesis\\library.nu\\b1\\_175121.b1397b65f6bd442e8beb2a4e8852d1fb.pdf,0,2000-01-01 01:00:00,2016-04-03 02:51:08,504000/b1397b65f6bd442e8beb2a4e8852d1fb-d.jpg,,
19523597,現代史資料 33,,,,伊藤 武雄,,,,,911,0,Japanese,,,до 2011-01,"9784622026334,4622026333,9784622091332",,,,,,,,,,,0,,,,,1,,0,27121358,pdf,B1A2D12FE1BE900DEF298295855AEF95,,,D:\\!genesis\\library.nu\\b1\\_174761.b1a2d12fe1be900def298295855aef95.pdf,0,2000-01-01 01:00:00,2016-04-03 02:51:08,504000/b1a2d12fe1be900def298295855aef95-g.jpg,,
19523598,"Electronic Government: Third International Conference, EGOV 2004, Zaragoza, Spain, August 30-September 3, 2004, Proceedings (Lecture Notes in Computer Science)",,,,Roland Traunmuller,2004,1,,,602,0,English,69,,до 2011-01,"3540229167,9783540229162,9783540300786",,,,,352.3/802854678,JF1525.A8 E584 2004,,,OL19291840M,,0,,,,,1,,1,10449836,pdf,B1F4536671E7492C1D9F752F681394B0,,,D:\\!genesis\\library.nu\\b1\\_174192.b1f4536671e7492c1d9f752f681394b0.pdf,0,2000-01-01 01:00:00,2016-04-03 02:51:08,504000/b1f4536671e7492c1d9f752f681394b0-d.jpg,,
19523599,Not Just a Pretty Face: Dolls and Human Figurines in Alaska Native Cultures,,,,Molly Lee,2006,1,,,80,0,English,,,до 2011-01,"1889963852,9781889963853,9781423773405",,,,,,,,,OL8713597M,,0,,,,,1,,1,9292104,pdf,B167D7E1905C9524DF167EFEF81D9DA0,,,D:\\!genesis\\library.nu\\b1\\_173853.b167d7e1905c9524df167efef81d9da0.pdf,0,2000-01-01 01:00:00,2016-04-03 02:51:08,504000/b167d7e1905c9524df167efef81d9da0-d.jpg,,
19523600,Le voyageur branche : Comment planifier votre voyage en ligne,,,,Gilles Belanger,,,,,193,0,French,,,до 2011-01,"9781435625501,9782895440352,2895440352,1435625501",,,,,,,,,,,0,,,,,1,,1,2547039,pdf,B185DF7A04294058EF887D1B60D60580,,,D:\\!genesis\\library.nu\\b1\\_173686.b185df7a04294058ef887d1b60d60580.pdf,0,2000-01-01 01:00:00,2016-04-03 02:51:08,504000/b185df7a04294058ef887d1b60d60580-g.jpg,,
19523601,Our Place in the Universe,,,,Norman K. Glendenning,2007,,,,244,0,English,,,до 2011-01,"9812700684,9789812700681,9789812708304",,,,,,,,,OL13169837M,,0,,,,,,,1,5043197,pdf,B161806F3B7290F98C398E2FC7167896,,,D:\\!genesis\\library.nu\\b1\\_173588.b161806f3b7290f98c398e2fc7167896.pdf,0,2000-01-01 01:00:00,2016-04-03 02:51:08,504000/b161806f3b7290f98c398e2fc7167896-d.jpg,,
19523602,Traite de nutrition de la personne agee,,,,"Xavier Hebuterne, Emmanuel Alix, Agathe Raynaud-Simon, Bruno Vellas",2008,1,,,322,0,French,,,до 2011-01,"9782287799273,2287799273,9782287981173",,,,,,,,,,,0,,,,,1,,1,3943620,pdf,B18E4A0058C4ECA51074B9F4D121B623,,,D:\\!genesis\\library.nu\\b1\\_173432.b18e4a0058c4eca51074b9f4d121b623.pdf,0,2000-01-01 01:00:00,2016-04-03 02:51:08,504000/b18e4a0058c4eca51074b9f4d121b623-d.jpg,,
19523603,Reduction de la fracture numerique en tourisme : role des grandes organisations internationales,,,,Francois Berard,,,,,155,0,French,,,до 2011-01,"9781435690097,9782760512290,2760512290",,,,,338.4791,,,,OL22616510M,,0,,,,,1,,1,5560573,pdf,B187E5210D9981267E6C77BE768789EE,,,D:\\!genesis\\library.nu\\b1\\_173250.b187e5210d9981267e6c77be768789ee.pdf,0,2000-01-01 01:00:00,2016-04-03 02:51:08,504000/b187e5210d9981267e6c77be768789ee-g.jpg,,
19523604,Objets et Memoires,,,,Debary Turgeon,,,,,270,0,French,,,до 2011-01,"2763785212,9782763785219,9781441608192",,,,,,,,,,,0,,,,,1,,1,2203433,pdf,B1A8D9413B5A7360A3B5F815901CB9EF,,,D:\\!genesis\\library.nu\\b1\\_172924.b1a8d9413b5a7360a3b5f815901cb9ef.pdf,0,2000-01-01 01:00:00,2016-04-03 02:51:08,504000/b1a8d9413b5a7360a3b5f815901cb9ef-g.jpg,,
19523605,Namenstudien zum Altgermanischen (Erganzungsbande zum Reallexikon der Germanischen Altertumskunde),,,,Gunter Neumann,2008,1,,,560,0,German,183,,до 2011-01,"9783110201000,3110201003",,,,,,,,,OL17112654M,,0,,,,,1,,1,2175792,pdf,B1C276CE1E073F808A657E11E67CDB1F,,,D:\\!genesis\\library.nu\\b1\\_172868.b1c276ce1e073f808a657e11e67cdb1f.pdf,0,2000-01-01 01:00:00,2016-04-03 02:51:08,504000/b1c276ce1e073f808a657e11e67cdb1f-d.jpg,,
19523606,Fitofarmacovigilanza: Vigilanza sulla sicurezza dei prodotti fitoterapici,,,,"F. Capasso, F. Borrelli, S. Castaldo, G. Grandolini",2006,1,,,218,0,Italian,,,до 2011-01,"8847004780,9788847004795,9788847004788",,,,,,,,,OL13430705M,,0,,,,,1,,1,1547337,pdf,B1F833EAE460B3A4EBB7259FAEA6D9DE,,,D:\\!genesis\\library.nu\\b1\\_172767.b1f833eae460b3a4ebb7259faea6d9de.pdf,0,2000-01-01 01:00:00,2016-04-03 02:51:08,504000/b1f833eae460b3a4ebb7259faea6d9de-d.jpg,,
19523607,Families in society: Boundaries and relationships,,,,"Linda McKie, Sarah Cunningham-Burley",2005,,,,240,0,English,,,до 2011-01,"1861346441,9781861346445,9781847421371",,,,,,,,,OL18250770M,,0,,,,,1,,1,1349271,pdf,B17E6FC20EDA51080D7C2F98911BCEB5,,,D:\\!genesis\\library.nu\\b1\\_172478.b17e6fc20eda51080d7c2f98911bceb5.pdf,0,2000-01-01 01:00:00,2016-04-03 02:51:08,504000/b17e6fc20eda51080d7c2f98911bceb5-d.jpg,,
19523608,Multi-Detector Computed Tomography in Oncology: CT Perfusion Imaging,,,,"Kenneth Miles, C. Charnsangavej, C. Cuenod",2007,1,,,304,0,English,137,,до 2011-01,"1842143093,9781842143094,9780203001158",,,,,,,,,OL12572370M,,0,,,,,1,,1,5181584,pdf,B134E290D2DDC7937D983B2AAFDBCE47,,,D:\\!genesis\\library.nu\\b1\\_171792.b134e290d2ddc7937d983b2aafdbce47.pdf,0,2000-01-01 01:00:00,2016-04-03 02:51:08,504000/b134e290d2ddc7937d983b2aafdbce47-d.jpg,,
19523609,"Tourism, Culture and Regeneration",,,,M. K. Smith,2006,First,,,240,0,English,,,до 2011-01,"1845931300,9781845931308,9781845931315",,,,,307.3/416,G156.5.H47 T69 2006,,,OL17930628M,,0,,,,,1,,1,1819378,pdf,B1B0F7981C306DDC1F13C245613F1AA3,,,D:\\!genesis\\library.nu\\b1\\_171060.b1b0f7981c306ddc1f13c245613f1aa3.pdf,0,2000-01-01 01:00:00,2016-04-03 02:51:08,504000/b1b0f7981c306ddc1f13c245613f1aa3-d.jpg,,
19523610,Globally Speaking: Motives for Adopting English Vocabulary in Other Languages (Multilingual Matters),,,,"Judith Rosenhouse, Rotem Kowner",2008,,,,300,0,English,314,,до 2011-01,"1847690513,9781847690517,9781847690524",,,,,420.9,PE1073 .G563 2008,,,OL11917868M,,0,,,,,1,,1,3291740,pdf,B1275D6239BBB540FA0E50442FAA13BE,,,D:\\!genesis\\library.nu\\b1\\_170993.b1275d6239bbb540fa0e50442faa13be.pdf,0,2000-01-01 01:00:00,2016-04-03 02:51:08,504000/b1275d6239bbb540fa0e50442faa13be-d.jpg,,
19523611,Let's Make Some Noise: Axe and the African Roots of Brazilian Popular Music,,,,Clarence Bernard Henry,2008,,,,208,0,English,62,,до 2011-01,"160473082X,9781604730821,9781604733341",,,,,781.64089/96981,ML3487.B7 H46 2008,,,OL16475166M,,0,,,,,1,,1,3390501,pdf,B1CAAD75DCB0F944AA298284F2269C8F,,,D:\\!genesis\\library.nu\\b1\\_170936.b1caad75dcb0f944aa298284f2269c8f.pdf,0,2000-01-01 01:00:00,2016-04-03 02:51:08,504000/b1caad75dcb0f944aa298284f2269c8f-d.jpg,,
19523612,Badge of Glory (The Royal Marines Saga),,,,Douglas Reeman,2002,,,,384,0,English,,,до 2011-01,"1590130138,9781590130131,9781590134436",,,,,823/.914,PR6068.E35 B3 2002,,,OL3551394M,,0,,,,,1,,1,945585,pdf,B1B31407CC0EF33102DEFA56DBC8B2EA,,,D:\\!genesis\\library.nu\\b1\\_170658.b1b31407cc0ef33102defa56dbc8b2ea.pdf,0,2000-01-01 01:00:00,2016-04-03 02:51:08,504000/b1b31407cc0ef33102defa56dbc8b2ea-d.jpg,,
19523613,"Music's Modern Muse: A Life of Winnaretta Singer, Princesse de Polignac (Eastman Studies in Music)",,Eastman Studies in Music,,Sylvia Kahan,2003,,University of Rochester Press,,576,0,English,183,,до 2011-01,"1580461336,9781580461337,9781580466523",,,,,,,,,OL17105153M,,0,,,,,1,,1,2951639,pdf,B15C6091396C3B0067A3B035B045FB02,,,D:\\!genesis\\library.nu\\b1\\_170514.b15c6091396c3b0067a3b035b045fb02.pdf,0,2000-01-01 01:00:00,2016-04-03 02:51:08,504000/b15c6091396c3b0067a3b035b045fb02-d.jpg,,
19523614,"Legal Rights, 5th Ed.: The Guide for Deaf and Hard of Hearing People",,,,National Association of the Deaf,2000,5th,,,264,0,English,,,до 2011-01,"1563680912,9781563680915,9781563682148",,,,,346.7301/3,KF480.5.D4 L43 2000,,,OL6781598M,,0,,,,,1,,1,14276333,pdf,B1C2E40FAA668C43C6D78191BCDAB00A,,,D:\\!genesis\\library.nu\\b1\\_170376.b1c2e40faa668c43c6d78191bcdab00a.pdf,0,2000-01-01 01:00:00,2016-04-03 02:51:08,504000/b1c2e40faa668c43c6d78191bcdab00a-d.jpg,,
19523615,"Advances in Supramolecular Chemistry, Volume 4 (Advances in Supramolecular Chemistry)",,,,G.W. Gokel,1997,,,,338,0,English,296,,до 2011-01,"1559387947,9781559387941,9780080550893",,,,,,,,,OL9822448M,,0,,,,,1,,1,17049508,pdf,B1ABB92B991AFD68D249564EB84E10A0,,,D:\\!genesis\\library.nu\\b1\\_170374.b1abb92b991afd68d249564eb84e10a0.pdf,0,2000-01-01 01:00:00,2016-04-03 02:51:08,504000/b1abb92b991afd68d249564eb84e10a0-d.jpg,,
19523616,A Companion to Wagner's Parsifal (Studies in German Literature Linguistics and Culture),,,,"William Kinderman, Katherine R. Syer",2005,,,,374,0,English,183,,до 2011-01,"1571132376,9781571132376,9781571136596",,,,,,,,,OL17174510M,,0,,,,,1,,1,3357038,pdf,B1BEBEE931D9511BD856B733B2655FF3,,,D:\\!genesis\\library.nu\\b1\\_170071.b1bebee931d9511bd856b733b2655ff3.pdf,0,2000-01-01 01:00:00,2016-04-03 02:51:08,504000/b1bebee931d9511bd856b733b2655ff3-d.jpg,,
19523617,"Integrated Management of Arthropod Pests and Insect Borne Diseases (Integrated Management of Plant Pests and Diseases, Volume 5)",,Integrated Management of Plant Pests and Diseases 5,,"Edited by: A. Ciancio, C.N.R., Bari, Italy and K.G. Mukerji, University of Delhi, India",2010,1st Edition.,,,376,0,English,150,,до 2011-01,"9048124638,9789048124633",,,,,,,10.1007/978-90-481-8606-8,,,,0,,,,,1,1,1,12835530,pdf,B15EF78FA8F37996D5F654800909F87B,,,D:\\!genesis\\library.nu\\b1\\_169878.b15ef78fa8f37996d5f654800909f87b.pdf,0,2000-01-01 01:00:00,2016-04-03 02:51:08,504000/b15ef78fa8f37996d5f654800909f87b-d.jpg,,
19523618,Rewire Your Brain: Think Your Way to a Better Life,,,,John B. Arden PhD,2010,1,,,256,0,English,,,до 2011-01,"0470487291,9780470487297,047056976X,9780470569764",,,,,153,BF371 .A595 2010,,,OL23631768M,,0,,,,1,0,,1,1123766,pdf,B1E434AB896CE63A184287E16C7C3761,,,D:\\!genesis\\library.nu\\b1\\_169773.b1e434ab896ce63a184287e16c7c3761.pdf,0,2000-01-01 01:00:00,2016-04-03 02:51:08,504000/b1e434ab896ce63a184287e16c7c3761-d.jpg,,
19523619,Whales and Dolphins (Eye Wonder),,,,DK Publishing,2003,1st,,,48,0,English,,,до 2011-01,"9780789492692,0789492695,0789496135,9780789496133",,,,,,,,,OL20943077M,,0,,,,,1,1,0,20636070,pdf,B1C1920E6E5BBC4CA765CD9AFEE7531A,,,D:\\!genesis\\library.nu\\b1\\_169525.b1c1920e6e5bbc4ca765cd9afee7531a.pdf,0,2000-01-01 01:00:00,2016-04-03 02:51:08,504000/b1c1920e6e5bbc4ca765cd9afee7531a-d.jpg,,
19523620,Garbage and Recycling (Hot Topics),,,,Debra A. Miller,2009,,,,112,0,English,,,до 2011-01,"142050147X,9781420501476",,,,,363.72/85,HD4482 .M55 2009,,,OL23235199M,,0,,,,,1,1,1,11789311,pdf,B15F66247E95C0D819E7228749F35D86,,,D:\\!genesis\\library.nu\\b1\\_169488.b15f66247e95c0d819e7228749f35d86.pdf,0,2000-01-01 01:00:00,2016-04-03 02:51:08,504000/b15f66247e95c0d819e7228749f35d86-d.jpg,,
19523621,Why Do the Lights Turn On? (Science in the Real World),,,,Barbara J. Davis,2009,1,,,32,0,English,181,,до 2011-01,"1604134712,9781604134711",,,,,537,QC527.2 .D39 2010,,,OL23202639M,,0,,,,,1,,1,3399384,pdf,B1671C9E7203A8FF5304A859734BA9BA,,,D:\\!genesis\\library.nu\\b1\\_169233.b1671c9e7203a8ff5304a859734ba9ba.pdf,0,2000-01-01 01:00:00,2016-04-03 02:51:08,504000/b1671c9e7203a8ff5304a859734ba9ba-d.jpg,,
19523622,Belgium (Modern World Nations),,,,George Wingfield,2008,1,,,120,0,English,,,до 2011-01,"079109670X,9780791096703",,,,,949.3,DH418 .W56 2008,,,OL11149665M,,0,,,,,1,,1,4122031,pdf,B145DA7FB3BE19DA5399AA6503F752B1,,,D:\\!genesis\\library.nu\\b1\\_169160.b145da7fb3be19da5399aa6503f752b1.pdf,0,2000-01-01 01:00:00,2016-04-03 02:51:08,504000/b145da7fb3be19da5399aa6503f752b1-d.jpg,,
19523623,The Rough Guide to Morocco,,,,"Mark Ellingham, Daniel Jacobs, Hamish Brown, Shaun McVeigh, Rough Guides",2007,8th,,,816,0,English,,,до 2011-01,"184353861X,9781843538615",,,,,916.40453,DT304 .R68 2007,,,OL23109257M,,0,,,,,1,,1,24797287,pdf,B1E8DFBA8E815A8A924C265C37E23390,,,D:\\!genesis\\library.nu\\b1\\_169031.b1e8dfba8e815a8a924c265c37e23390.pdf,0,2000-01-01 01:00:00,2016-04-03 02:51:08,504000/b1e8dfba8e815a8a924c265c37e23390-d.jpg,,
19523624,Viscous Circle,,,,Piers Anthony,1982,1st,,,207,0,English,,,до 2011-01,"0380798972,9780380798971",,,,,,,,,OL7435148M,,0,,,,0,1,,1,806914,pdf,B1E30F902514A53FDCA159FB4922A4F5,,,D:\\!genesis\\library.nu\\b1\\_168911.b1e30f902514a53fdca159fb4922a4f5.pdf,0,2000-01-01 01:00:00,2016-04-03 02:51:08,504000/b1e30f902514a53fdca159fb4922a4f5-d.jpg,,
19523625,Leistungsmessung stochastischer Dienstleistungsproduktionen,,,,Marcel Rossmy,2007,,,,250,0,German,,,до 2011-01,"3835008617,9783835008618",,,,,,,,,,,0,,,,,0,1,1,1525467,pdf,B176155D15950A60FAEC39D4638F07C0,,,D:\\!genesis\\library.nu\\b1\\_168879.b176155d15950a60faec39d4638f07c0.pdf,0,2000-01-01 01:00:00,2016-04-03 02:51:08,504000/b176155d15950a60faec39d4638f07c0-d.jpg,,
19523626,"Milwaukee's Jesuit University: Marquette, 1881-1981 (Urban Life Series)",,,,Thomas J. Jablonski,2007,,,,438,0,English,64,,до 2011-01,"0874620805,9780874620801,9781435610422",,,,,378.775/95,LD3231.M542 J33 2007,,,OL11121417M,,0,,,,,1,,1,17945339,pdf,B171CEA60F18D610F41C8027A61AE420,,,D:\\!genesis\\library.nu\\b1\\_168241.b171cea60f18d610f41c8027a61ae420.pdf,0,2000-01-01 01:00:00,2016-04-03 02:51:08,504000/b171cea60f18d610f41c8027a61ae420-d.jpg,,
19523627,"Guide to Electric Power Generation, Second Edition",,,,Anthony J. Pansini,2002,2,,,244,0,English,305,,до 2011-01,"0824709276,9780881733983,9780881733976,9780824709273,0881733970,0824755979,9780824755973",,,,,621.31,TK1001.P35 2002,,,OL24292290M,,0,,,,,1,,1,3438571,pdf,B1D40D45D9FFDCACA434414B09849C9D,,,D:\\!genesis\\library.nu\\b1\\_168050.b1d40d45d9ffdcaca434414b09849c9d.pdf,0,2000-01-01 01:00:00,2016-04-03 02:51:08,504000/b1d40d45d9ffdcaca434414b09849c9d-d.jpg,,
19523628,Change Ahead: Working in a Post 9 11 World,,,,Pat Gill Webber,2005,,,,220,0,English,,,до 2011-01,"141961388X,9781419613883,9781435634367",,,,,,,,,,,0,,,,,1,,1,6636447,pdf,B1A2D789D5F59C1CFA18E2137B19E9BD,,,D:\\!genesis\\library.nu\\b1\\_168027.b1a2d789d5f59c1cfa18e2137b19e9bd.pdf,0,2000-01-01 01:00:00,2016-04-03 02:51:08,504000/b1a2d789d5f59c1cfa18e2137b19e9bd-d.jpg,,
19523629,"Informatics in Control, Automation and Robotics II",,,,"Joaquim Filipe, Jean-Louis Ferrier, Juan A. Cetto, Marina Carvalho",2007,,,,243,0,English,257,,до 2011-01,"1402056265,1402056257,9781402056260,9781402056253",,,,,629.8,QA402.3 .I35 2005,,,OL11634226M,,0,,,,,1,,1,5383283,pdf,B143DB8A7F842D15DDDD747FC2B5184B,,,D:\\!genesis\\library.nu\\b1\\_167894.b143db8a7f842d15dddd747fc2b5184b.pdf,0,2000-01-01 01:00:00,2016-04-03 02:51:08,504000/b143db8a7f842d15dddd747fc2b5184b-g.jpg,,
19523630,Graphic Myths and Legends: Ali Baba: Fooling the Forty Thieves: an Arabian Tale (Graphic Universe),,,,Marie P. Croall,2008,,,,48,0,English,,,до 2011-01,"0822575256,9780822575252,9780761339939",,,,,398/.352,PZ8.C8684 Al 2008,,,OL11425874M,,0,,,,,1,,1,17318722,pdf,B1849B8CD9290572A4351DA5DF5BCF35,,,D:\\!genesis\\library.nu\\b1\\_167625.b1849b8cd9290572a4351da5df5bcf35.pdf,0,2000-01-01 01:00:00,2016-04-03 02:51:08,504000/b1849b8cd9290572a4351da5df5bcf35-d.jpg,,
19523631,Que Hacen Los Maestros?: (Despue's De Que Tevas De La Escuela)? (Ediciones Lerner Single Titles),,,,Anne Bowen,2007,,,,36,0,Spanish,,,до 2011-01,"9780822562641,9781580136259,0822562642",,,,,,,,,OL11425525M,,0,,,,,1,,1,10753211,pdf,B1CCDDB39A58F7BB4801BCD50C93DD15,,,D:\\!genesis\\library.nu\\b1\\_167331.b1ccddb39a58f7bb4801bcd50c93dd15.pdf,0,2000-01-01 01:00:00,2016-04-03 02:51:08,504000/b1ccddb39a58f7bb4801bcd50c93dd15-d.jpg,,
19523632,Muslims and Modernity: An Introduction to the Issues and Debates (Comparative Islamic Studies Series),,,,Clinton Bennett,2005,,,,304,0,English,183,,до 2011-01,"0826454828,9780826454829,9781441100504",,,,,,,,,OL8168403M,,0,,,,,1,,1,18180080,pdf,B1B2F9763F993F3DD8DAEDAAEE04BD3D,,,D:\\!genesis\\library.nu\\b1\\_167294.b1b2f9763f993f3dd8daedaaee04bd3d.pdf,0,2000-01-01 01:00:00,2016-04-03 02:51:08,504000/b1b2f9763f993f3dd8daedaaee04bd3d-d.jpg,,
19523633,Edward Stanly: Whiggery's Tarheel ''Conqueror'' (Southern historical publications),,,,Norman D. Brown,1975,1ST,,,365,0,English,64,,до 2011-01,"0817352627,9780817352622",,,,,"973.7/092/4,B",E340.S73 B76,,,OL5043182M,,0,,,,,1,,1,17726387,pdf,B1FDCEFD1AF70C49AF8944AB14F31C3B,,,D:\\!genesis\\library.nu\\b1\\_167048.b1fdcefd1af70c49af8944ab14f31c3b.pdf,0,2000-01-01 01:00:00,2016-04-03 02:51:08,504000/b1fdcefd1af70c49af8944ab14f31c3b-d.jpg,,
19523634,Health Promotion in Communities: Holistic and Wellness Approaches,,,,Carolyn Chambers Clark EdD  ARNP FAAN,2001,1,,,496,0,English,,,до 2011-01,"0826114075,9780826114075,9780826116192",,,,,,,,,OL17066086M,,0,,,,,1,,1,29936119,pdf,B11D6319A6AB5C9CC4464BBE52781FC4,,,D:\\!genesis\\library.nu\\b1\\_166966.b11d6319a6ab5c9cc4464bbe52781fc4.pdf,0,2000-01-01 01:00:00,2016-04-03 02:51:08,504000/b11d6319a6ab5c9cc4464bbe52781fc4-d.jpg,,
19523635,"The End of American History: Democracy, Capitalism, and the Metaphor of Two Worlds in Anglo-American Historical Writing, 1880-1980",,,,David W. Noble,1985,,,,166,0,English,64,,до 2011-01,"0816614156,9780816614158,9780816614165",,,,,973/.072,E175 .N63 1985,,,OL3020919M,,0,,,,,1,,1,9987900,pdf,B1C511E29DF47855497B41614AE773D1,,,D:\\!genesis\\library.nu\\b1\\_166796.b1c511e29df47855497b41614ae773d1.pdf,0,2000-01-01 01:00:00,2016-04-03 02:51:08,504000/b1c511e29df47855497b41614ae773d1-d.jpg,,
19523636,"Spirited Lives: How Nuns Shaped Catholic Culture and American Life, 1836-1920",,,,Carol K. Coburn,1999,,,,344,0,English,64,,до 2011-01,"0807824739,9780807824733,9780807875711",,,,,271/.90073,BX4220.U6 C63 1999,,,OL370133M,,0,,,,,1,,1,23917567,pdf,B1F2B667A75B753EC972308A5A544428,,,D:\\!genesis\\library.nu\\b1\\_166529.b1f2b667a75b753ec972308a5a544428.pdf,0,2000-01-01 01:00:00,2016-04-03 02:51:08,504000/b1f2b667a75b753ec972308a5a544428-d.gif,,
19523637,"Rebirth: A Political History Of Europe Since World War II, Second Edition",,,,"Cyril Black, Jonathan E. Helmreich, Robert English, A. James Mcadams, Paul C Helmreich",1999,Second Edition,,,720,0,English,64,,до 2011-01,"0813336643,9780813336640,9781429488556",,,,,940.55,D1051 .R44 2000,,,OL42258M,,0,,,,,1,,1,94386968,pdf,B19AA115F238D8E49A875520A58C9145,,,D:\\!genesis\\library.nu\\b1\\_166361.b19aa115f238d8e49a875520a58c9145.pdf,0,2000-01-01 01:00:00,2016-04-03 02:51:08,504000/b19aa115f238d8e49a875520a58c9145-d.jpg,,
19523638,Understanding Fabless IC Technology (Communications Engineering Series),,,,"Jeorge S. Hurtarte, Evert A. Wolsheimer, Lisa M. Tafoya",2007,,,,296,0,English,210,,до 2011-01,"0750679441,9780750679442,9780080551197",,,,,621.3815,TK7874.H8835 2007,,,OL16099040M,,0,,,,,1,,1,2065933,pdf,B11DCA9B217167BA3A9588900CF4A083,,,D:\\!genesis\\library.nu\\b1\\_165459.b11dca9b217167ba3a9588900cf4a083.pdf,0,2000-01-01 01:00:00,2016-04-03 02:51:08,504000/b11dca9b217167ba3a9588900cf4a083-d.jpg,,
19523639,Environment and Children: Passive Lessons from the Everyday Environment,,,,Christopher Day,2007,,,,320,0,English,,,до 2011-01,"0750683449,9780750683449,9780080550978",,,,,,,,,OL16121929M,,0,,,,,1,,1,8262542,pdf,B14EB430E87B009A305AE3E6E975A070,,,D:\\!genesis\\library.nu\\b1\\_165215.b14eb430e87b009a305ae3e6e975a070.pdf,0,2000-01-01 01:00:00,2016-04-03 02:51:08,504000/b14eb430e87b009a305ae3e6e975a070-d.jpg,,
19523640,Forestry (The Green World),,,,Catherine Raven,2006,,,,125,0,English,,,до 2011-01,"0791087522,9780791087527,9781438106953",,,,,634.9,SD376 .R38 2005,,,OL3405658M,,0,,,,,1,,1,11882830,pdf,B1FB81E260797C04237BCFCA2D1B4577,,,D:\\!genesis\\library.nu\\b1\\_165114.b1fb81e260797c04237bcfca2d1b4577.pdf,0,2000-01-01 01:00:00,2016-04-03 02:51:08,504000/b1fb81e260797c04237bcfca2d1b4577-d.jpg,,
19523641,Escape Routes: Control and Subversion in the 21st Century,,,,"Dimitris Papadopoulos, Niamh Stephenson, Vassilis Tsianos",2008,,,,320,0,English,,,до 2011-01,"0745327788,9780745327785,0745327796,9780745327792,9781435690950",,,,,,,,,OL23222281M,,0,,,,,1,,1,1934641,pdf,B1372F0C6E8AD357741EC07A777F38BC,,,D:\\!genesis\\library.nu\\b1\\_165085.b1372f0c6e8ad357741ec07a777f38bc.pdf,0,2000-01-01 01:00:00,2016-04-03 02:51:08,504000/b1372f0c6e8ad357741ec07a777f38bc-d.jpg,,
19523642,"Advances in Atomic Spectroscopy, Volume 3 (Advances in Atomic Spectroscopy)",,,,Joseph Sneddon,1997,,,,227,0,English,178,,до 2011-01,"0762300728,9780762300723,9780080551586",,,,,,,,,OL10908583M,,0,,,,,1,,1,9593764,pdf,B1EDAA7BEEC942A63F96529786439C22,,,D:\\!genesis\\library.nu\\b1\\_165051.b1edaa7beec942a63f96529786439c22.pdf,0,2000-01-01 01:00:00,2016-04-03 02:51:08,504000/b1edaa7beec942a63f96529786439c22-d.jpg,,
19523643,Hallucinogens (Drugs: the Straight Facts),,,,Randi Mehling,2003,,,,112,0,English,173,,до 2011-01,"0791072614,9780791072615,9781438102054",,,,,,,,,OL8159577M,,0,,,,,1,,1,10389201,pdf,B14BD8A80ADF77984BDF4AB2AB08DB58,,,D:\\!genesis\\library.nu\\b1\\_164963.b14bd8a80adf77984bdf4ab2ab08db58.pdf,0,2000-01-01 01:00:00,2016-04-03 02:51:08,504000/b14bd8a80adf77984bdf4ab2ab08db58-d.jpg,,
19523644,King Lear (Webster's Chinese-Traditional Thesaurus Edition),,,,William Shakespeare,2006,,,,186,0,English,322,,до 2011-01,"0497902117,9780497902117",,,,,,,,,OL10416583M,,0,,,,,1,,1,1375777,pdf,B1A7957563A2D404D6478CC8BB7DDF22,,,D:\\!genesis\\library.nu\\b1\\_163925.b1a7957563a2d404d6478cc8bb7ddf22.pdf,0,2000-01-01 01:00:00,2016-04-03 02:51:08,504000/b1a7957563a2d404d6478cc8bb7ddf22-d.jpg,,
19523645,"Volpone; or, The Fox (Webster's German Thesaurus Edition)",,,,Ben Jonson,2006,,,,276,0,English,322,,до 2011-01,"0497257327,9780497257323,9781423775942",,,,,,,,,OL9685335M,,0,,,,,1,,1,1922279,pdf,B1BA8DBFF38609040091AD063605A972,,,D:\\!genesis\\library.nu\\b1\\_163887.b1ba8dbff38609040091ad063605a972.pdf,0,2000-01-01 01:00:00,2016-04-03 02:51:08,504000/b1ba8dbff38609040091ad063605a972-d.jpg,,
19523646,"Networking All-in-One Desk Reference For Dummies, 3rd Edition",,,,Doug Lowe,2008,3,,,912,0,English,99,,до 2011-01,"0470179155,9780470179154,9780470333884",,,,,,,,,OL10294418M,,0,,,,,1,,1,11908637,pdf,B18FEDA2F40BE1473BFCCFC422C4080B,,,D:\\!genesis\\library.nu\\b1\\_163743.b18feda2f40be1473bfccfc422c4080b.pdf,0,2000-01-01 01:00:00,2016-04-03 02:51:08,504000/b18feda2f40be1473bfccfc422c4080b-d.jpg,,
19523647,Return of the Native (Webster's Thesaurus Edition),,,,Thomas Hardy,2006,annotated edition,,,572,0,English,322,,до 2011-01,"0497253232,9780497253233",,,,,,,,,OL7652800M,,0,,,,,1,,1,4618239,pdf,B1288A63DE93285D16C338E882D2AFF7,,,D:\\!genesis\\library.nu\\b1\\_163316.b1288a63de93285d16c338e882d2aff7.pdf,0,2000-01-01 01:00:00,2016-04-03 02:51:08,504000/b1288a63de93285d16c338e882d2aff7-d.jpg,,
19523648,Wealth Secrets of the Affluent: Keys to Fortune Building and Asset Protection,,,,"Christopher R. Jarvis, David B. Mandell",2008,1,,,376,0,English,,,до 2011-01,"047013979X,9780470139790,9780470282175",,,,,332.024,HG179 .J325 2008,,,OL10279931M,,0,,,,,1,,1,1616570,pdf,B16C66168FA72292CC5C97B00DB865D9,,,D:\\!genesis\\library.nu\\b1\\_163179.b16c66168fa72292cc5c97b00db865d9.pdf,0,2000-01-01 01:00:00,2016-04-03 02:51:08,504000/b16c66168fa72292cc5c97b00db865d9-d.jpg,,
19523649,Fundamentals of Earthquake Engineering,,,,"Amr Elnashai, Luigi Di Sarno",2008,1,,,366,0,English,210,,до 2011-01,"0470024836,9780470024843,0470024844,9780470024850,9780470024836",,,,,624.1/762,TA654.6 .E485 2008,,,OL21559735M,,0,,,,,0,,1,12713428,pdf,B189D374C8657E6B4D597EC61433699F,,,D:\\!genesis\\library.nu\\b1\\_163045.b189d374c8657e6b4d597ec61433699f.pdf,0,2000-01-01 01:00:00,2016-04-03 02:51:08,504000/b189d374c8657e6b4d597ec61433699f-d.jpg,,
19523650,"New Perspectives in the Study of Mesoamerican Primates: Distribution, Ecology, Behavior, and Conservation (Developments in Primatology: Progress and Prospects)",,,,"Alejandro Estrada, Paul A. Garber, Mary Pavelka, LeAndra Luecke",2005,1,,,616,0,English,183,,до 2011-01,"038725854X,9780387258546,9780387258720",,,,,,,,,OL7444885M,,0,,,,,1,,1,4074229,pdf,B1BD8D9E0ECD66A9C8F87EDD56787CE2,,,D:\\!genesis\\library.nu\\b1\\_162316.b1bd8d9e0ecd66a9c8f87edd56787ce2.pdf,0,2000-01-01 01:00:00,2016-04-03 02:51:08,504000/b1bd8d9e0ecd66a9c8f87edd56787ce2-d.jpg,,
19523651,Sartre on Violence: Curiously Ambivalent,,,,Ronald E. Santoni,2003,,,,179,0,English,,,до 2011-01,"0271023007,9780271023007",,,,,,,,,OL9689118M,,0,,,,,1,,1,7742887,pdf,B1962192F102F54C74515832840BA438,,,D:\\!genesis\\library.nu\\b1\\_161704.b1962192f102f54c74515832840ba438.pdf,0,2000-01-01 01:00:00,2016-04-03 02:51:08,504000/b1962192f102f54c74515832840ba438-d.jpg,,
19523652,Faith of the Managers: When Management Becomes Religion,,,,Stephen Pattison,1998,,,,188,0,English,205,,до 2011-01,"0304701440,9780304701445,9780826426598",,,,,,,,,OL10321789M,,0,,,,,1,,1,10958475,pdf,B1AF933D576946D462C44A87CA69CD90,,,D:\\!genesis\\library.nu\\b1\\_161302.b1af933d576946d462c44a87ca69cd90.pdf,0,2000-01-01 01:00:00,2016-04-03 02:51:08,504000/b1af933d576946d462c44a87ca69cd90-d.jpg,,
19523653,Economics beyond the Millennium (The Sset Series),,,,"Alan P. Kirman, Louis-Andre Gerard-Varet",1999,1st edition.,,,376,0,English,305,,до 2011-01,"0198292112,9780198292111,9780191521874",,,,,330/.01/12,HB3730 .E25 1999,,,OL357465M,,0,,,,,1,,1,2703352,pdf,B1131FE69D021B6E5FCEA31AEBA009CD,,,D:\\!genesis\\library.nu\\b1\\_161188.b1131fe69d021b6e5fcea31aeba009cd.pdf,0,2000-01-01 01:00:00,2016-04-03 02:51:08,504000/b1131fe69d021b6e5fcea31aeba009cd-d.jpg,,
19523654,Means-Tested Transfer Programs in the United States (National Bureau of Economic Research Conference Report),,,,Robert A. Moffitt,2003,1,,,654,0,English,305,,до 2011-01,"0226533565,9780226533568,9780226533575",,,,,,,,,OL9801657M,,0,,,,,1,,1,2941138,pdf,B111826842A083E23AE5E205E78472DE,,,D:\\!genesis\\library.nu\\b1\\_160684.b111826842a083e23ae5e205e78472de.pdf,0,2000-01-01 01:00:00,2016-04-03 02:51:08,504000/b111826842a083e23ae5e205e78472de-d.jpg,,
19523655,Casting Kings: Bards and Indian Modernity,,,,Jeffrey G. Snodgrass,2006,,,,256,0,English,,,до 2011-01,"0195304349,9780195304343",,,,,305.5/122/0954,HT720 .S55 2006,,,OL3415590M,,0,,,,,1,,1,2207899,pdf,B1C8CDA0A84BEB34B4A4B5FFF2F65A7F,,,D:\\!genesis\\library.nu\\b1\\_160536.b1c8cda0a84beb34b4a4b5fff2f65a7f.pdf,0,2000-01-01 01:00:00,2016-04-03 02:51:08,504000/b1c8cda0a84beb34b4a4b5fff2f65a7f-d.jpg,,
19523656,Categorical Variables in Developmental Research: Methods of Analysis,,,,"Alexander von Eye, Clifford C. Clogg",1996,1,,,286,0,English,117,,до 2011-01,"0127249656,9780127249650,9780080528717",,,,,155/.072,BF39 .C294 1996,,,OL7329337M,,0,,,,,1,,1,13160616,pdf,B1B25E381D198E75A8BA8774FF770D75,,,D:\\!genesis\\library.nu\\b1\\_159581.b1b25e381d198e75a8ba8774ff770d75.pdf,0,2000-01-01 01:00:00,2016-04-03 02:51:08,504000/b1b25e381d198e75a8ba8774ff770d75-d.jpg,,
19523657,Thomas Paine: Firebrand of the Revolution (Oxford Portraits Series.),,,,Harvey J. Kaye,2000,,,,160,0,English,183,,до 2011-01,"0195116275,9780195116274,9781423774273",,,,,"320.51/092,B",JC178.V5 K39 2000,,,OL48229M,,0,,,,,1,,1,12050598,pdf,B1D18B349967F89AED2C166C4F9987B0,,,D:\\!genesis\\library.nu\\b1\\_159534.b1d18b349967f89aed2c166c4f9987b0.pdf,0,2000-01-01 01:00:00,2016-04-03 02:51:08,504000/b1d18b349967f89aed2c166c4f9987b0-d.jpg,,
19523658,,,Advances in Geophysics 4,,H.E. Landsberg and J. Van Mieghem (Eds.),1958,,"Elsevier, Academic Press",,"iii-vii, 1-456",0,English,132,,до 2011-01,978-0-12-018804-8,0065-2687,,,,,,,,,,0,,,,,1,,1,24567823,pdf,B1513ACF2B6675B6D1DFD8ACDCDE0407,,,D:\\!genesis\\library.nu\\b1\\_158858.b1513acf2b6675b6d1dfd8acdcde0407.pdf,0,2000-01-01 01:00:00,2016-04-03 02:51:08,504000/b1513acf2b6675b6d1dfd8acdcde0407-d.jpg,,
19523659,"The Teenage Investor : How to Start Early, Invest Often & Build Wealth",,,,Timothy Olsen,2003,1,,,204,0,English,,,до 2011-01,"0071416633,9780071416634,9780071436229",,,,,332.6/0835,HG4527 .O45 2003,10.1036/0071463227,,OL24300022M,,0,,,,,1,,1,2052242,pdf,B115916C9B7FC9EA60CB182A29F3635D,,,D:\\!genesis\\library.nu\\b1\\_158791.b115916c9b7fc9ea60cb182a29f3635d.pdf,0,2000-01-01 01:00:00,2016-04-03 02:51:08,504000/b115916c9b7fc9ea60cb182a29f3635d-d.jpg,,
19523660,"Organic and Chic: Cakes, Cookies, and Other Sweets That Taste as Good as They Look",,,,Sarah Magid,2009,,,,272,0,English,300,,до 2011-01,"9780061673580,9780061882401,0061673587",,B002BD2UZC,,,641.8/6,TX773 .M2343 2009,,,OL16992840M,,0,,,,,1,,1,6870885,pdf,B18778EA094391614AD110D2E1399BCE,,,D:\\!genesis\\library.nu\\b1\\_158726.b18778ea094391614ad110d2e1399bce.pdf,0,2000-01-01 01:00:00,2016-04-03 02:51:08,504000/b18778ea094391614ad110d2e1399bce-d.jpg,,
19523661,Seismic Signatures and Analysis of Reflection Data in Anisotropic Media (Handbook of Geophysical Exploration: Seismic Exploration),,,,I. Tsvankin,2001,,,,456,0,English,132,,до 2011-01,"0080436498,9780080436494,9780080540887",,,,,,,,,OL17016752M,,0,,,,,1,,1,23101591,pdf,B1F795DDEB173C02B4603557A1487820,,,D:\\!genesis\\library.nu\\b1\\_158652.b1f795ddeb173c02b4603557a1487820.pdf,0,2000-01-01 01:00:00,2016-04-03 02:51:08,504000/b1f795ddeb173c02b4603557a1487820-d.jpg,,
19523662,Let It Be Love,,,,Victoria Alexander,2005,Reissue,,,384,0,English,,,до 2011-01,"0060593202,9780060593209,9780060898281",,,,,813/.54,PS3551.L357713 L48 2005,,,OL24273598M,,0,,,,,1,,1,1294963,pdf,B1B41258FAC63A9EBBB45B8725033936,,,D:\\!genesis\\library.nu\\b1\\_158334.b1b41258fac63a9ebbb45b8725033936.pdf,0,2000-01-01 01:00:00,2016-04-03 02:51:08,504000/b1b41258fac63a9ebbb45b8725033936-d.jpg,,
19523663,The Misunderstood Jew: The Church and the Scandal of the Jewish Jesus,,,,Amy-jill Levine,2007,,,,256,0,English,,,до 2011-01,"0061137782,9780061137785,9780061551420",,,,,,,,,OL24251835M,,0,,,,,1,,1,1332434,pdf,B19E7A4AF9A4D7D2D887F15E182E0114,,,D:\\!genesis\\library.nu\\b1\\_158213.b19e7a4af9a4d7d2d887f15e182e0114.pdf,0,2000-01-01 01:00:00,2016-04-03 02:51:08,504000/b19e7a4af9a4d7d2d887f15e182e0114-d.jpg,,
19523664,All for a Few Perfect Waves: The Audacious Life and Legend of Rebel Surfer Miki Dora,,,,David Rensin,2008,,,,475,0,English,272,,до 2011-01,"0060773316,9780060773311,9780061644269",,,,,,,,,OL24273657M,,0,,,,,1,,1,5319394,pdf,B1EC339C781C69E014DF4DC2C3A6E4E2,,,D:\\!genesis\\library.nu\\b1\\_158023.b1ec339c781c69e014df4dc2c3a6e4e2.pdf,0,2000-01-01 01:00:00,2016-04-03 02:51:08,504000/b1ec339c781c69e014df4dc2c3a6e4e2-d.jpg,,
19523665,1000 Years for Revenge: International Terrorism and the FBI--the Untold Story,,,,Peter Lance,2003,1,,,560,0,English,,,до 2011-01,"006054354X,9780060543549,9780060832438,9780060597252,0060597259",,,,,303.6/25,HV6432 .L353 2004,,,OL17947984M,,0,,,,,1,,1,11875471,pdf,B1EE370990B4558C1DED8BD199CFE873,,,D:\\!genesis\\library.nu\\b1\\_157971.b1ee370990b4558c1ded8bd199cfe873.pdf,0,2000-01-01 01:00:00,2016-04-03 02:51:08,504000/b1ee370990b4558c1ded8bd199cfe873-d.jpg,,
19523666,"Telomeres and Telomerase in Aging, Disease, and Cancer: Molecular Mechanisms of Adult Stem Cell Ageing",,,,K. Lenhard Rudolph,2007,1,,,330,0,English,26,,до 2011-01,"3540737081,9783540737087,9783540737094",,,,,,,,,OL16442891M,,0,,,,,1,,1,2484009,pdf,B1CE0263D93E2E5C51A3153FC8D7DCAF,,,D:\\!genesis\\library.nu\\b1\\_157366.b1ce0263d93e2e5c51a3153fc8d7dcaf.pdf,0,2000-01-01 01:00:00,2016-04-03 02:51:08,504000/b1ce0263d93e2e5c51a3153fc8d7dcaf-d.jpg,,
19523667,,,Advances in Carbohydrate Chemistry and Biochemistry 51,,Derek Horton (Eds.),1995,1st,"Elsevier, Academic Press",,"iii-viii, 1-348",0,English,296,,до 2011-01,978-0-12-007251-4,0065-2318,,,,,,,,OL22716261M,,0,,,,,1,,1,15571569,pdf,B157026374FA10D1E625603E1A25837E,,,D:\\!genesis\\library.nu\\b1\\_1573.b157026374fa10d1e625603e1a25837e.pdf,0,2000-01-01 01:00:00,2016-04-03 02:51:08,504000/b157026374fa10d1e625603e1a25837e-d.jpg,,
19523668,Joseph Banks And the British Museum: The World of Collecting 1770-1830,,,,Neil Chambers,2007,,,,195,0,English,64,,до 2011-01,"185196858X,9781851968589,9781851965359",,,,,,,,,OL8972839M,,0,,,,,1,,1,1957211,pdf,B16781BE6E0E56F0219BD9F44E9781A3,,,D:\\!genesis\\library.nu\\b1\\_157236.b16781be6e0e56f0219bd9f44e9781a3.pdf,0,2000-01-01 01:00:00,2016-04-03 02:51:08,504000/b16781be6e0e56f0219bd9f44e9781a3-d.jpg,,
19523669,The Brave Captains (The Phillip Hazard Novels) (Vol 2),,,,V. A. Stuart,2003,,,,240,0,English,,,до 2011-01,"1590130405,9781590130407,9781590134108",,,,,823/.92,PR6063.A38 B73 2003,,,OL3673066M,,0,,,,,1,,1,1149854,pdf,B12D091EBBE41CE323818312A7DF94EC,,,D:\\!genesis\\library.nu\\b1\\_157042.b12d091ebbe41ce323818312a7df94ec.pdf,0,2000-01-01 01:00:00,2016-04-03 02:51:08,504000/b12d091ebbe41ce323818312a7df94ec-d.jpg,,
19523670,Circle the Truth (Exceptional Reading & Language Arts Titles for Upper Grades),,,,Pat Schmatz,2007,,,,188,0,English,57,,до 2011-01,"9780822572688,0822572680,9781580136273",,,,,,,,,OL11425833M,,0,,,,,1,,1,1102383,pdf,B1D91E5EEF7A43E31628686D1F8291C5,,,D:\\!genesis\\library.nu\\b1\\_156665.b1d91e5eef7a43e31628686d1f8291c5.pdf,0,2000-01-01 01:00:00,2016-04-03 02:51:08,504000/b1d91e5eef7a43e31628686d1f8291c5-d.jpg,,
19523671,What the Dead Know: A Novel,,,,Laura Lippman,2009,Reissue,,,400,0,English,,,до 2011-01,"006177135X,9780061771354,9780061289552,9780061128851,0061128856",,,,,,,,,OL24083832M,,0,,,,,1,,1,1585892,pdf,B1DBCD6381CE850C96F30739AA11AC7E,,,D:\\!genesis\\library.nu\\b1\\_1566.b1dbcd6381ce850c96f30739aa11ac7e.pdf,0,2000-01-01 01:00:00,2016-04-03 02:51:08,504000/b1dbcd6381ce850c96f30739aa11ac7e-d.jpg,,
19523672,Tamora Pierce (Who Wrote That?),,,,Donna Dailey,2006,,,,146,0,English,,,до 2011-01,"0791087956,9780791087954",,,,,"813/.54,B",PS3566.I395 Z65 2005,,,OL3409112M,,0,,,,,1,,1,3725018,pdf,B1CA39ED6EA79FBE687A8D8ECFBE1BF0,,,D:\\!genesis\\library.nu\\b1\\_156280.b1ca39ed6ea79fbe687a8d8ecfbe1bf0.pdf,0,2000-01-01 01:00:00,2016-04-03 02:51:08,504000/b1ca39ed6ea79fbe687a8d8ecfbe1bf0-d.jpg,,
19523673,Quality of Life in Old Age: International and Multi-Disciplinary Perspectives (Social Indicators Research Series),,,,"Heidrun Mollenkopf, Alan Walker",2007,1,,,270,0,English,189,,до 2011-01,"1402056818,9781402056826,9781402056819,9048174260,9789048174263",,,,,,,,,OL8372255M,,0,,,,,1,,1,1084352,pdf,B1B350EA22696D85558C93C58DDC9167,,,D:\\!genesis\\library.nu\\b1\\_156148.b1b350ea22696d85558c93c58ddc9167.pdf,0,2000-01-01 01:00:00,2016-04-03 02:51:08,504000/b1b350ea22696d85558c93c58ddc9167-d.jpg,,
19523674,"Photovoltaic (PV) Solar Energy Equipment in Mexico: A Strategic Reference, 2007",,,,Philip M. Parker,2007,,,,252,0,English,263,,до 2011-01,"0497823578,9780497823573,9781429499996",,,,,,,,,,,0,,,,,1,,1,936065,pdf,B11F82A5299AC53C6D3EC737408C1E73,,,D:\\!genesis\\library.nu\\b1\\_155772.b11f82a5299ac53c6d3ec737408c1e73.pdf,0,2000-01-01 01:00:00,2016-04-03 02:51:08,504000/b11f82a5299ac53c6d3ec737408c1e73-d.jpg,,
19523675,Interactionism (BSA New Horizons in Sociology),,,,"Paul A. Atkinson, William Housley",2003,1,,,224,0,English,194,,до 2011-01,"9780761962700,0761962700,0761962697,9780761962694,9781847876133",,,,,302,HM499 .A85 2003,,,OL22524691M,,0,,,,,1,,1,920980,pdf,B1160E0805D1D58B84CF69783B1A5F7F,,,D:\\!genesis\\library.nu\\b1\\_155379.b1160e0805d1d58b84cf69783b1a5f7f.pdf,0,2000-01-01 01:00:00,2016-04-03 02:51:08,504000/b1160e0805d1d58b84cf69783b1a5f7f-d.jpg,,
19523676,Shakespeare's Drama of Exile (Palgrave Shakespeare Studies),,,,Jane Kingsley-Smith,2004,,,,256,0,English,183,,до 2011-01,"0333993446,9780333993446,9781403938435",,,,,822.3/3,PR3069.E94 K56 2003,,,OL22560991M,,0,,,,,1,,1,615547,pdf,B119AF01C6D5077A1FD365AA54F5D194,,,D:\\!genesis\\library.nu\\b1\\_155336.b119af01c6d5077a1fd365aa54f5d194.pdf,0,2000-01-01 01:00:00,2016-04-03 02:51:08,504000/b119af01c6d5077a1fd365aa54f5d194-d.jpg,,
19523677,Race (Transitions),,,,Brian Niro,2003,,,,224,0,English,,,до 2011-01,"0333753127,9780333753125,9781403937780",,,,,820.9/355,PR408.R34 N57 2003,,,OL3579121M,,0,,,,,1,,1,446567,pdf,B1EB68E3C31250EB308BF1609E0C414C,,,D:\\!genesis\\library.nu\\b1\\_155306.b1eb68e3c31250eb308bf1609e0c414c.pdf,0,2000-01-01 01:00:00,2016-04-03 02:51:08,504000/b1eb68e3c31250eb308bf1609e0c414c-d.jpg,,
19523678,"Red Scotland? The Rise and Decline of the Scottish Radical Left, 1880s-1930s",,,,William Kenefick,2007,,,,224,0,English,,,до 2011-01,"9780748625178,9780748630820,0748625178,0748625186,9780748625185",,,,,,,,,OL10760697M,,0,,,,,1,,1,768419,pdf,B15BF5FC842BC3B4934AAEC0A199E964,,,D:\\!genesis\\library.nu\\b1\\_155064.b15bf5fc842bc3b4934aaec0a199e964.pdf,0,2000-01-01 01:00:00,2016-04-03 02:51:08,504000/b15bf5fc842bc3b4934aaec0a199e964-d.jpg,,
19523679,"The LIFE Program for MS: Lifestyle, Independence, Fitness and Energy",,,,Susan J Epstein,2009,1,,,176,0,English,263,,до 2011-01,"0195383826,9780195383829,9780199724932",,,,,616.8/34,RC377 .E67 2009,,,OL22982532M,,0,,,,,1,,1,549494,pdf,B1CE97157F5E79B78DA9B282BC412342,,,D:\\!genesis\\library.nu\\b1\\_154923.b1ce97157f5e79b78da9b282bc412342.pdf,0,2000-01-01 01:00:00,2016-04-03 02:51:08,504000/b1ce97157f5e79b78da9b282bc412342-d.jpg,,
19523680,"Rediscovering Empathy: Agency, Folk Psychology, and the Human Sciences (Bradford Books)",,,,Karsten R. Stueber,2006,1,,,288,0,English,198,,до 2011-01,"026219550X,9780262195508,9781429416160",,,,,152.4/1,BF64 .S78 2006,,,OL3432235M,,0,,,,,1,,1,852364,pdf,B14C3B662A78479911E97A74E1003B9D,,,D:\\!genesis\\library.nu\\b1\\_154825.b14c3b662a78479911e97a74e1003b9d.pdf,0,2000-01-01 01:00:00,2016-04-03 02:51:08,504000/b14c3b662a78479911e97a74e1003b9d-d.jpg,,
19523681,Section 8,,,,Robert Doherty,2005,,,,312,0,English,,,до 2011-01,"006073583X,9780060735838,9780061535314",,,,,,,,,OL7280638M,,0,,,,,1,,1,712329,pdf,B1F512BBA5801854D49DA068FAB27DE8,,,D:\\!genesis\\library.nu\\b1\\_154637.b1f512bba5801854d49da068fab27de8.pdf,0,2000-01-01 01:00:00,2016-04-03 02:51:08,504000/b1f512bba5801854d49da068fab27de8-d.jpg,,
19523682,Ravenhill,,,,Timothy Hillmer,2007,,,,257,0,English,,,до 2011-01,"0826339859,9780826339850,9780826339867",,,,,,,,,OL11454092M,,0,,,,0,0,,1,526334,pdf,B1E75AFBC9D2EEC36A42108EC0203532,,,D:\\!genesis\\library.nu\\b1\\_153986.b1e75afbc9d2eec36a42108ec0203532.pdf,0,2000-01-01 01:00:00,2016-04-03 02:51:08,504000/b1e75afbc9d2eec36a42108ec0203532-d.jpg,,
19523683,"Gerechtigkeit als Zufall: Zur rhetorischen Evolution des Rechts (TRACE Transmission in Rhetorics, Arts and Cultural Evolution)",,,,Fabian Steinhauer,2007,1,,,164,0,German,57,,до 2011-01,"3211716882,9783211716892,9783211716885",,,,,,,,,OL12677796M,,0,,,,,1,,1,583264,pdf,B1BC08AC60003110E1D04F369590066F,,,D:\\!genesis\\library.nu\\b1\\_152955.b1bc08ac60003110e1d04f369590066f.pdf,0,2000-01-01 01:00:00,2016-04-03 02:51:08,504000/b1bc08ac60003110e1d04f369590066f-d.jpg,,
19523684,Religion in Criminal Justice (Criminal Justice: Recent Scholarship),,,,Monica K. Miller,2006,,,,236,0,English,205,,до 2011-01,"1593321422,9781593321420",,,,,347.73/75,KF8924 .M55 2006,,,OL12381528M,,0,,,,,1,,1,719330,pdf,B1BBD39D7E95AA10023E214A19099B97,,,D:\\!genesis\\library.nu\\b1\\_152937.b1bbd39d7e95aa10023e214a19099b97.pdf,0,2000-01-01 01:00:00,2016-04-03 02:51:08,504000/b1bbd39d7e95aa10023e214a19099b97-d.jpg,,
19523685,Stem Cell Research (Biomedical Ethics Reviews),,,,"James M. Humber, Robert F. Almeder",2003,1,,,200,0,English,26,,до 2011-01,"1588294013,9781588294012,9781592596744",,,,,,,,,OL17109570M,,0,,,,,1,,1,618427,pdf,B193DF50FD5F847D74FD0AEAEDB31D70,,,D:\\!genesis\\library.nu\\b1\\_152758.b193df50fd5f847d74fd0aeaedb31d70.pdf,0,2000-01-01 01:00:00,2016-04-03 02:51:08,504000/b193df50fd5f847d74fd0aeaedb31d70-d.jpg,,
19523686,Der Begriff des Gefuhls in der Philosophie Johann Gottlieb Fichtes (Fichte-Studien-Supplementa 18) (German Edition),,,,Petra Lohmann,2004,,,,222,0,German,183,,до 2011-01,"904200858X,9789042008588,9781423791775",,,,,,,,,OL9432141M,,0,,,,,1,,1,870945,pdf,B11E2681616DE8102294139ED07D0055,,,D:\\!genesis\\library.nu\\b1\\_152704.b11e2681616de8102294139ed07d0055.pdf,0,2000-01-01 01:00:00,2016-04-03 02:51:08,504000/b11e2681616de8102294139ed07d0055-d.jpg,,
19523687,Engaged with the Arts: Writings from the Frontline,,,,John Tusa,2007,,,,232,0,English,57,,до 2011-01,"1845114248,9781845114244,9781435603530",,,,,,,,,OL22748452M,,0,,,,,1,,1,638543,pdf,B133BAD4C041770D21A39C23B359B1ED,,,D:\\!genesis\\library.nu\\b1\\_152347.b133bad4c041770d21a39c23b359b1ed.pdf,0,2000-01-01 01:00:00,2016-04-03 02:51:08,504000/b133bad4c041770d21a39c23b359b1ed-d.jpg,,
19523688,"Renewable Energy Equipment and Services in India: A Strategic Reference, 2006",,,,Philip M. Parker,2007,,,,252,0,English,263,,до 2011-01,"0497360209,9780497360207,9781429499439",,,,,,,,,,,0,,,,,1,,1,968423,pdf,B1FA84B10E1F499A43AE41D4CA522938,,,D:\\!genesis\\library.nu\\b1\\_152019.b1fa84b10e1f499a43ae41d4ca522938.pdf,0,2000-01-01 01:00:00,2016-04-03 02:51:08,504000/b1fa84b10e1f499a43ae41d4ca522938-d.jpg,,
19523689,"Type 3 Gaucher Disease - A Bibliography and Dictionary for Physicians, Patients, and Genome Researchers",,,,Philip M. Parker,2007,,,,106,0,English,132,,до 2011-01,"0497112191,9780497112196,9781429497152",,,,,,,,,,,0,,,,,1,,1,1192056,pdf,B167791C5DF10C4216C38D31AA975C7E,,,D:\\!genesis\\library.nu\\b1\\_151855.b167791c5df10c4216c38d31aa975c7e.pdf,0,2000-01-01 01:00:00,2016-04-03 02:51:08,504000/b167791c5df10c4216c38d31aa975c7e-d.jpg,,
19523690,The Tempest (Webster's German Thesaurus Edition),,,,William Shakespeare,2006,,,,136,0,English,322,,до 2011-01,"0497259613,9780497259617,9781423777427",,,,,,,,,OL10370511M,,0,,,,,1,,1,1020374,pdf,B1F2383BB8F6E55998766839B2E4D7E7,,,D:\\!genesis\\library.nu\\b1\\_151787.b1f2383bb8f6e55998766839b2e4d7e7.pdf,0,2000-01-01 01:00:00,2016-04-03 02:51:08,504000/b1f2383bb8f6e55998766839b2e4d7e7-d.jpg,,
19523691,Webster's Korean to English Crossword Puzzles: Level 9,,,,Philip M. Parker,2006,Bilingual,,,120,0,English,314,,до 2011-01,"0497254794,9780497254797,9781423772422",,,,,,,,,OL10370265M,,0,,,,,1,,1,1282178,pdf,B1DC7BA600F61D9D0844CF9BC3A5771F,,,D:\\!genesis\\library.nu\\b1\\_151746.b1dc7ba600f61d9d0844cf9bc3a5771f.pdf,0,2000-01-01 01:00:00,2016-04-03 02:51:08,504000/b1dc7ba600f61d9d0844cf9bc3a5771f-d.jpg,,
19523692,Just one taste,,,,Jess Michaels.,,,,,26,0,English,,,до 2011-01,"0061493740,9780061493744",,,,,,,,,OL24315046M,,0,,,,0,0,,1,191671,pdf,B1D53760CB2628721C44B9BDF8B21511,,,D:\\!genesis\\library.nu\\b1\\_151259.b1d53760cb2628721c44b9bdf8b21511.pdf,0,2000-01-01 01:00:00,2016-04-03 02:51:08,504000/b1d53760cb2628721c44b9bdf8b21511-g.jpg,,
19523693,Lebanese Cinema: Imagining the Civil War and Beyond (Tauris World Cinema),,,,Lina Khatib,2008,,,,241,0,English,67,,до 2011-01,"1845116275,9781845116279,1845116283,9781845116286",,,,,791.43095692,PN1993.5.L4 K47 2008,,,OL11911406M,,0,,,,,1,1,1,4423915,pdf,B183DC366701CD9BFACED035E4E052C2,,,D:\\!genesis\\library.nu\\b1\\_151.b183dc366701cd9bfaced035e4e052c2.pdf,0,2000-01-01 01:00:00,2016-04-03 02:51:08,504000/b183dc366701cd9bfaced035e4e052c2-d.jpg,,
19523694,Peacemaking by Democracies: The Effect of State Autonomy on the Post-World-War Settlements,,,,Norrin M. Ripsman,2002,,,,288,0,English,67,,до 2011-01,"0271022221,9780271022222",,,,,327.1/72,JZ1251 .R57 2002,,,OL3555171M,,0,,,,,1,,1,7625215,pdf,B1A100A36B28A8EC6059441DE43006E0,,,D:\\!genesis\\library.nu\\b1\\_150252.b1a100a36b28a8ec6059441de43006e0.pdf,0,2000-01-01 01:00:00,2016-04-03 02:51:08,504000/b1a100a36b28a8ec6059441de43006e0-d.jpg,,
19523695,Modern Stone Cladding: Design and Installation of Exterior Dimension Stone Systems (ASTM Manual Series),,,,Michael D. Lewis,1995,,,,140,0,English,,,до 2011-01,"9780803120617,0803120613,9780803145290",,,,,693/.1,TH2238 .L49 1995,,,OL801086M,,0,,,,,1,,1,14478123,pdf,B1556FB915898BE104E2BED3FBF140C4,,,D:\\!genesis\\library.nu\\b1\\_149822.b1556fb915898be104e2bed3fbf140c4.pdf,0,2000-01-01 01:00:00,2016-04-03 02:51:08,504000/b1556fb915898be104e2bed3fbf140c4-g.jpg,,
19523696,Osprey Warrior 070 - Japanese Warrior Monks AD 949 - 1603,,,,Stephen Turnbull   Osprey,2003,,,,64,0,English,64,,до 2011-01,"1841765732,9781841765730",,,,,,,,,OL8922505M,,0,,,,,1,,0,3573169,djvu,B1E6556504D4C17C2B7222BD1AFAF8FB,f9ced655f797b1f817e88520345d7688,no,D:\\!genesis\\library.nu\\b1\\_14959.b1e6556504d4c17c2b7222bd1afaf8fb.djvu,0,2000-01-01 01:00:00,2016-04-03 02:51:08,504000/b1e6556504d4c17c2b7222bd1afaf8fb-d.jpg,,
19523697,Fisiologia del Esfuerzo y del DePorte (Spanish Edition),,,,Jack H. Wilmore,1998,,,,622,0,Spanish,,,до 2011-01,"8480193484,9788480193481,9780585467436",,,,,,,,,OL13315921M,,0,,,,,1,,1,14293540,pdf,B1C9FFB1672745C92552C3C6FC712F8F,,,D:\\!genesis\\library.nu\\b1\\_149259.b1c9ffb1672745c92552c3c6fc712f8f.pdf,0,2000-01-01 01:00:00,2016-04-03 02:51:08,504000/b1c9ffb1672745c92552c3c6fc712f8f-d.jpg,,
19523698,Palestinian Refugees: Challenges of Repatriation and Development (Library of Modern Middle East Studies),,,,"Rex Brynen, Roula El Rifai",2007,,,,224,0,English,183,,до 2011-01,"184511311X,9781845113117,9781435603929",,,,,956.94054086914,HV640.5.P36 P35 2007,,,OL11911258M,,0,,,,,1,,1,699088,pdf,B143B902C6779BA8132EA6955B6F6DE4,,,D:\\!genesis\\library.nu\\b1\\_149075.b143b902c6779ba8132ea6955b6f6de4.pdf,0,2000-01-01 01:00:00,2016-04-03 02:51:08,504000/b143b902c6779ba8132ea6955b6f6de4-d.jpg,,
19523699,New Vaccine Technologies (Medical Intelligence Unit 26) (Biotechnology Intelligence Unit) 2001,,,,Ronald W. Ellis,2001,1,,,308,0,English,17,,до 2011-01,"1587060507,9781587060502,9780585408521",,,,,,,,,OL12320531M,,0,,,,,1,,1,1307978,pdf,B18087812AF1607E99D6DF04B93349FD,,,D:\\!genesis\\library.nu\\b1\\_148510.b18087812af1607e99d6df04b93349fd.pdf,0,2000-01-01 01:00:00,2016-04-03 02:51:08,504000/b18087812af1607e99d6df04b93349fd-d.jpg,,
19523700,Celestial Bed,,,,Irving Wallace,1987,First Edition,,,304,0,English,,,до 2011-01,"0385295561,9780385295567",,,,,813/.54,PS3573.A426 C45 1987,,,OL2730087M,,0,,,,,1,,1,1239759,pdf,B1DA7E5858F6AA3019E08AAF9D5B7924,,,D:\\!genesis\\library.nu\\b1\\_14847.b1da7e5858f6aa3019e08aaf9d5b7924.pdf,0,2000-01-01 01:00:00,2016-04-03 02:51:08,504000/b1da7e5858f6aa3019e08aaf9d5b7924-d.jpg,,
19523701,Practical Pacifism,,,,Andrew G. Fiala Arthur Fiala,2004,,,,260,0,English,,,до 2011-01,"087586290X,9780875862903,0875862918,9780875862910,9780875862927",,,,,303.6/6,JZ5566.4 .F53 2004,,,OL3290864M,,0,,,,,1,,1,1032289,pdf,B1B9F8DE6E8E312E307AF9EC187D5966,,,D:\\!genesis\\library.nu\\b1\\_148232.b1b9f8de6e8e312e307af9ec187d5966.pdf,0,2000-01-01 01:00:00,2016-04-03 02:51:08,504000/b1b9f8de6e8e312e307af9ec187d5966-d.jpg,,
19523702,Newton's Dream,,,,"Marcia S. Stayer; consulting editor, Boris Castel",1988,First edition.,,,144,0,English,,,до 2011-01,"9780773506893,0773506896",,,,,501,,,,OL17956169M,,0,,,,,1,,0,1298401,djvu,B195548A482BB8E84C26989CA998F4CE,5658d643dc429a9238af8ac2d46c2d36,no,D:\\!genesis\\library.nu\\b1\\_1482.b195548a482bb8e84c26989ca998f4ce.djvu,0,2000-01-01 01:00:00,2016-04-03 02:51:08,504000/b195548a482bb8e84c26989ca998f4ce-g.jpg,,
19523703,Lung Biology in Health & Disease Volume 176 Non-Neoplastic Advanced Lung Disease,,,,Janet Maurer,2003,1,,,808,0,English,18,,до 2011-01,"9780824740771,9780824748531,0824740777",,,,,,,,,OL9406088M,,0,,,,,1,,1,11373171,pdf,B17A7486AE3DED3397CAD3346FF659AC,,,D:\\!genesis\\library.nu\\b1\\_147861.b17a7486ae3ded3397cad3346ff659ac.pdf,0,2000-01-01 01:00:00,2016-04-03 02:51:08,504000/b17a7486ae3ded3397cad3346ff659ac-d.jpg,,
19523704,Immigration and National Identity: North African Political Movements in Colonial and Postcolonial France (International Library of Migration Studies),,,,Rabah Aissaoui,2009,1,,,321,0,English,183,,до 2011-01,"1845118359,9781845118358",,,,,305.8/92761044,DC34.5.N67 A37 2009,,,OL23697909M,,0,,,,,1,1,1,2948639,pdf,B1BCAD0BE3E16CF104E3192A0EF6F16E,,,D:\\!genesis\\library.nu\\b1\\_147.b1bcad0be3e16cf104e3192a0ef6f16e.pdf,0,2000-01-01 01:00:00,2016-04-03 02:51:08,504000/b1bcad0be3e16cf104e3192a0ef6f16e-d.jpg,,
19523705,The Red Thread: Buddhist Approaches to Sexuality,,,,Bernard Faure,1998,,,,324,0,English,206,,до 2011-01,"0691059985,9781400811557,9780691059983,0691059977,9780691059976",,,,,294.3/37857,BQ4570.S48 F3813 1998,,,OL356781M,,0,,,,,1,,1,992682,pdf,B1C4B14E3046F236041B75B5B8994101,,,D:\\!genesis\\library.nu\\b1\\_146724.b1c4b14e3046f236041b75b5b8994101.pdf,0,2000-01-01 01:00:00,2016-04-03 02:51:08,504000/b1c4b14e3046f236041b75b5b8994101-d.jpg,,
19523706,The 2002 Official Patient's Sourcebook on Diabetes-Related Periodontal Disease,,,,Icon Health Publications,2002,,,,160,0,English,150,,до 2011-01,"0597831394,9780597831393,9780585431451",,,,,,,,,OL7581682M,,0,,,,,1,,1,603619,pdf,B11B1B727204B4F2319FE10B007E7045,,,D:\\!genesis\\library.nu\\b1\\_146505.b11b1b727204b4f2319fe10b007e7045.pdf,0,2000-01-01 01:00:00,2016-04-03 02:51:08,504000/b11b1b727204b4f2319fe10b007e7045-d.jpg,,
19523707,"The Careers of British Musicians, 1750-1850: A Profession of Artisans",,,,Deborah Rohr,2001,,,,246,0,English,64,,до 2011-01,"0521580951,9780521580953,9780511019111",,,,,,,,,OL7747103M,,0,,,,,1,,1,1066238,pdf,B1D5667AE26E8D010D720EB790249E23,,,D:\\!genesis\\library.nu\\b1\\_146185.b1d5667ae26e8d010d720eb790249e23.pdf,0,2000-01-01 01:00:00,2016-04-03 02:51:08,504000/b1d5667ae26e8d010d720eb790249e23-d.jpg,,
19523708,Spell of Apocalypse (The fourth book in the Dance of Gods series),,,,Mayer Alan Brenner,1994,,,,320,0,English,,,до 2011-01,"0886776023,9780886776022",,,,,,,,,OL8195905M,,0,,,,,1,,1,1251761,pdf,B1862A5BD51A0461A3F72EF10EC9348D,,,D:\\!genesis\\library.nu\\b1\\_145691.b1862a5bd51a0461a3f72ef10ec9348d.pdf,0,2000-01-01 01:00:00,2016-04-03 02:51:08,504000/b1862a5bd51a0461a3f72ef10ec9348d-g.jpg,,
19523709,The Spectacle Of The Real: From Hollywood To 'reality' TV And Beyond 2005,,,,Geoff King (Editor),2005,,,,234,0,English,,,до 2011-01,"1841501204,9781841501208,9781841509181",,,,,791.45/6,PN1992.8.R43 S64 2005,,,OL22624496M,,0,,,,,1,,1,1154039,pdf,B1D89C4E28CC5AE93010F74451EA4317,,,D:\\!genesis\\library.nu\\b1\\_14550.b1d89c4e28cc5ae93010f74451ea4317.pdf,0,2000-01-01 01:00:00,2016-04-03 02:51:08,504000/b1d89c4e28cc5ae93010f74451ea4317-d.jpg,,
19523710,Broadband Powerline Communications : Network Design,,,,Halid  Hrasnica,2004,1,,,290,0,English,99,,до 2011-01,"0470857412,9780470857410,9780470857427",,,,,621.382/1,TK5103.4 .H73 2004,,,OL24257807M,,0,,,,,1,,1,1612781,pdf,B1E89B77B5558BB6EFA21BC59418B454,,,D:\\!genesis\\library.nu\\b1\\_144954.b1e89b77b5558bb6efa21bc59418b454.pdf,0,2000-01-01 01:00:00,2016-04-03 02:51:08,504000/b1e89b77b5558bb6efa21bc59418b454-d.jpg,,
19523711,"The Ultimate Safe Money Guide: How Everyone 50 and Over Can Protect, Save and Grow Their Money",,,,Martin D. Weiss,2002,1,,,337,0,English,,,до 2011-01,"9780471152026,9780471271222,0471152021",,,,,332.024/0565,HG179 .W4645 2002,,,OL24266399M,,0,,,,,1,,1,736860,pdf,B17D69F3E9EECD6F71AD59CA6E8266E9,,,D:\\!genesis\\library.nu\\b1\\_144911.b17d69f3e9eecd6f71ad59ca6e8266e9.pdf,0,2000-01-01 01:00:00,2016-04-03 02:51:08,504000/b17d69f3e9eecd6f71ad59ca6e8266e9-d.jpg,,
19523712,Earth Accretionary Systems in Space and Time (Geological Society Special Publication No. 318),,,,"P A Cawood, A Kroner",2009,,,,388,0,English,212,,до 2011-01,"1862392781,9781862392786",,,,,,,10.1144/SP318.1,,,,0,,,,,1,1,1,9333375,pdf,B1E489BEE257625AEDA4A9FC293616F0,,,D:\\!genesis\\library.nu\\b1\\_144499.b1e489bee257625aeda4a9fc293616f0.pdf,0,2000-01-01 01:00:00,2016-04-03 02:51:08,504000/b1e489bee257625aeda4a9fc293616f0-d.jpg,,
19523713,"Generalist Practice, Second Edition",,,,"Eleanor Reardon Tolson, William J. Reid, Charles D. Garvin",2002,2nd,,,368,0,English,305,,до 2011-01,"9780231121828,9780231507523,0231121822",,,,,361.3/2,HV43 .T6 2003,,,OL10196159M,,0,,,,,1,,1,1064099,pdf,B13609B7E4235962A403AE4D964F382C,,,D:\\!genesis\\library.nu\\b1\\_144388.b13609b7e4235962a403ae4d964f382c.pdf,0,2000-01-01 01:00:00,2016-04-03 02:51:08,504000/b13609b7e4235962a403ae4d964f382c-d.jpg,,
19523714,Black Cross,,,,Greg Iles,1995,,,,656,0,English,,,до 2011-01,"0451185196,9780451185198",,,,,,,,,OL23268434M,,0,,,,,1,,1,1411297,pdf,B16DE9B78F392FC6C48E0D413481CC62,,,D:\\!genesis\\library.nu\\b1\\_14381.b16de9b78f392fc6c48e0d413481cc62.pdf,0,2000-01-01 01:00:00,2016-04-03 02:51:08,504000/b16de9b78f392fc6c48e0d413481cc62-d.jpg,,
19523715,MPLS Fundamentals,,,,Luc De Ghein,2006,1,,,672,0,English,,,до 2011-01,"1587051974,9781587051975",,,,,,,,,OL17168218M,,0,,,,,1,,1,3293908,pdf,B172D2B3E997ED047FFD705074287CAB,,,D:\\!genesis\\library.nu\\b1\\_143416.b172d2b3e997ed047ffd705074287cab.pdf,0,2000-01-01 01:00:00,2016-04-03 02:51:08,504000/b172d2b3e997ed047ffd705074287cab-d.jpg,,
19523716,Common Battlefield Training for Airmen,,,,Thomas Manacapilli,2007,1,,,166,0,English,,,до 2011-01,"0833041851,9780833041852,9780833044280",,,,,358.4/15071073,UG638 .C66 2007,,,OL11487415M,,0,,,,,1,,1,714639,pdf,B1A0881B31A384B66405888278E318CF,,,D:\\!genesis\\library.nu\\b1\\_143376.b1a0881b31a384b66405888278e318cf.pdf,0,2000-01-01 01:00:00,2016-04-03 02:51:08,504000/b1a0881b31a384b66405888278e318cf-d.jpg,,
19523717,Hematologic Malignancies: Methods & Techniques (Methods in Molecular Medicine),,,,Faguet,2000,1st,Humana Press,,337,0,English,162,,до 2011-01,"9780896035430,9781592590742,0896035433",,,,,616.99/418075,RC646.2 .H465 2001,,iYBPnINamrgC,OL20001425M,,0,,,,0,0,,1,2535291,pdf,B10FFB24F4B0941D336CEC3BC1CB3FCE,,,D:\\!genesis\\library.nu\\b1\\_142821.b10ffb24f4b0941d336cec3bc1cb3fce.pdf,0,2000-01-01 01:00:00,2016-04-03 02:51:08,504000/b10ffb24f4b0941d336cec3bc1cb3fce-d.jpg,,
19523718,Cardiovascular Molecular Imaging,,,,"Robert J. Gropler, David K. Glover, Albert J. Sinusas, Heinrich Taegtmeyer",2007,1,,,376,0,English,159,,до 2011-01,"0849333776,9780849333774,9781420005097",,,,,,,,,OL8260070M,,0,,,,,1,,1,13241840,pdf,B1FD6A643B5F4AFD4F75687687714D83,,,D:\\!genesis\\library.nu\\b1\\_142572.b1fd6a643b5f4afd4f75687687714d83.pdf,0,2000-01-01 01:00:00,2016-04-03 02:51:08,504000/b1fd6a643b5f4afd4f75687687714d83-d.jpg,,
19523719,Linux Apache Web Server Administration (Linux Library),,,,Charles Aulds,2000,illustrated edition,,,614,0,English,101,,до 2011-01,"0782127347,9780782127348,9780585474960",,,,,,,,,OL8096322M,,0,,,,,1,,1,8179431,pdf,B1887598FA83592621A9F6E280D4E393,,,D:\\!genesis\\library.nu\\b1\\_142559.b1887598fa83592621a9f6e280d4e393.pdf,0,2000-01-01 01:00:00,2016-04-03 02:51:08,504000/b1887598fa83592621a9f6e280d4e393-d.jpg,,
19523720,Grand Challenges in Environmental Sciences,,,,Committee on Grand Challenges in Environmental Sciences,2001,1st,,,96,0,English,31,,до 2011-01,"9780309072540,9780309513203,0309072549",,,,,,,,,OL9755811M,,0,,,,,1,,1,396605,pdf,B18AF405DE3D262D0C39CC15BCAC5035,,,D:\\!genesis\\library.nu\\b1\\_142329.b18af405de3d262d0c39cc15bcac5035.pdf,0,2000-01-01 01:00:00,2016-04-03 02:51:08,504000/b18af405de3d262d0c39cc15bcac5035-d.jpg,,
19523721,The Official Patient's Sourcebook on Map-Dot-Fingerprint Dystrophy: A Revised and Updated Directory for the Internet Age,,,,Icon Health Publications,2002,,,,116,0,English,100,,до 2011-01,"0597833036,9780597833038,9780585433950",,,,,,,,,OL7581845M,,0,,,,,1,,1,497946,pdf,B18F2A453E963A3847E26D2058DC31D1,,,D:\\!genesis\\library.nu\\b1\\_142326.b18f2a453e963a3847e26d2058dc31d1.pdf,0,2000-01-01 01:00:00,2016-04-03 02:51:08,504000/b18f2a453e963a3847e26d2058dc31d1-d.jpg,,
19523722,Party Competition between Unequals: Strategies and Electoral Fortunes in Western Europe (Cambridge Studies in Comparative Politics),,,,Bonnie M. Meguid,2008,,Cambridge University Press,,340,0,English,183,,до 2011-01,"0521887658,9780521887656,9780511409912",,,,,324.2094,JN94.A979 M44 2008,,,,,0,,,,,1,,1,1164580,pdf,B12464D3A4583E7771D76C9B78FF2C83,,,D:/!genesis/library.nu/b1/_142188.b12464d3a4583e7771d76c9b78ff2c83.pdf,0,2000-01-01 01:00:00,2016-04-03 02:51:08,504000/b12464d3a4583e7771d76c9b78ff2c83-d.jpg,,
19523723,Implications of Emerging Micro and Nanotechnology,,,,"Committee on Implications of Emerging Micro- and Nanotechnologies, National Research Council",2002,,,,266,0,English,224,,до 2011-01,"030908623X,9780309086233,9780309505215",,,,,620/.5,T174.7 .I47 2002,,,OL3575837M,,0,,,,,1,,1,7158807,pdf,B1064F924008F2358F238E510DD3C51B,,,D:\\!genesis\\library.nu\\b1\\_142146.b1064f924008f2358f238e510dd3c51b.pdf,0,2000-01-01 01:00:00,2016-04-03 02:51:08,504000/b1064f924008f2358f238e510dd3c51b-d.jpg,,
19523724,Nursing Calculations 6th Edition,,,,"J. D. Gatford, N. Phillips",2002,6th,,,190,0,English,,,до 2011-01,"9780443071959,9781417540327,0443071950",,,,,,,,,OL7528984M,,0,,,,,1,,1,3162198,pdf,B1A36A41B4F819F630E3C8C53493ED8C,,,D:\\!genesis\\library.nu\\b1\\_142067.b1a36a41b4f819f630e3c8c53493ed8c.pdf,0,2000-01-01 01:00:00,2016-04-03 02:51:08,504000/b1a36a41b4f819f630e3c8c53493ed8c-d.jpg,,
19523725,Transformations of Mind: Philosophy as Spiritual Practice,,,,Michael McGhee,2000,1,Cambridge University Press,,302,0,English,195,,до 2011-01,"0521771692,9780521771696,9780511011689",,,,,100,B72 .M39 2000,,,,,0,,,,,1,,1,977429,pdf,B1F8FE1520467F1C60B0204E4AD361A0,,,D:/!genesis/library.nu/b1/_141949.b1f8fe1520467f1c60b0204e4ad361a0.pdf,0,2000-01-01 01:00:00,2016-04-03 02:51:08,504000/b1f8fe1520467f1c60b0204e4ad361a0-d.jpg,,
19523726,"Anemia - A Medical Dictionary, Bibliography, and Annotated Research Guide to Internet References",,,,Health Publica Icon Health Publications,2003,,,,612,0,English,59,,до 2011-01,"0597835519,9780597835513,9780585475769",,,,,,,,,OL7582092M,,0,,,,,1,,1,2364925,pdf,B10B8A963117E6AFB34D7DE6ED2B5C0B,,,D:\\!genesis\\library.nu\\b1\\_141831.b10b8a963117e6afb34d7de6ed2b5c0b.pdf,0,2000-01-01 01:00:00,2016-04-03 02:51:08,504000/b10b8a963117e6afb34d7de6ed2b5c0b-d.jpg,,
19523727,Asterix and the Goths (Asterix),,,,Rene Goscinny,2004,Revised,,,48,0,English,,,до 2011-01,"075286615X,9780752866154",,,,,,,,,OL7984888M,,0,,,,,1,,0,13305535,pdf,B144D7E27B3C4D9589DA18CFE17F104D,,,D:\\!genesis\\library.nu\\b1\\_14179.b144d7e27b3c4d9589da18cfe17f104d.pdf,0,2000-01-01 01:00:00,2016-04-03 02:51:08,504000/b144d7e27b3c4d9589da18cfe17f104d-d.jpg,,
19523728,Vereinsbesteuerung: Steuervorteile durch Gemeinnutzigkeit,,,,Thomas Brinkmeier,2008,,,,226,0,German,,,до 2011-01,"3834904384,9783834904386",,,,,,,,,,,0,,,,,0,1,1,1185989,pdf,B144B037F3BFA8DDBEFB0A6F80CE4F43,,,D:\\!genesis\\library.nu\\b1\\_141554.b144b037f3bfa8ddbefb0a6f80ce4f43.pdf,0,2000-01-01 01:00:00,2016-04-03 02:51:08,504000/b144b037f3bfa8ddbefb0a6f80ce4f43-d.jpg,,
19523729,The Great Book of Cleveland Sports Lists (Great Book of Sports Lists),,,,"Bill Livingston, Greg Brinda",2008,,,,272,0,English,,,до 2011-01,"0762434163,9780762434169,9780786741090",,,,,,,,,OL23676964M,,0,,,,,1,,1,931294,pdf,B14E3E4C5BE0618808DD462856BB4548,,,D:\\!genesis\\library.nu\\b1\\_141072.b14e3e4c5be0618808dd462856bb4548.pdf,0,2000-01-01 01:00:00,2016-04-03 02:51:08,504000/b14e3e4c5be0618808dd462856bb4548-d.jpg,,
19523730,Adaptive Behavior Assessment System-II: Clinical Use and Interpretation  (Practical Resources for the Mental Health Professional),,,,"Thomas Oakland, Patti L. Harrison",2008,1,,,432,0,English,161,,до 2011-01,"9780080559780,9780123735867,0123735866",,,,,,,,,,,0,,,,,1,,1,1379972,pdf,B118636A4F0CC90D41CB6221505AE909,,,D:\\!genesis\\library.nu\\b1\\_140608.b118636a4f0cc90d41cb6221505ae909.pdf,0,2000-01-01 01:00:00,2016-04-03 02:51:08,504000/b118636a4f0cc90d41cb6221505ae909-d.jpg,,
19523731,Tom Swift and His 3-D Telejector (Book 24 in the Tom Swift Jr series),,,,Victor Appleton II,1964,,,,177,0,English,,,до 2011-01,,,"B000PDGD4O,B0006BMESY,B002DJ4G9M,B001B2J7QE",,,,,,,,,0,,,,,1,,1,1111838,pdf,B1E7367D9AF29698BC9D69430FE92445,,,D:\\!genesis\\library.nu\\b1\\_1405.b1e7367d9af29698bc9d69430fe92445.pdf,0,2000-01-01 01:00:00,2016-04-03 02:51:08,504000/b1e7367d9af29698bc9d69430fe92445-g.jpg,,
19523732,"Currency of the Heart: A Year of Investing, Death, Work, and Coins (Sightline Books)",,,,Donald Nichols,2002,,,,218,0,English,47,,до 2011-01,"0877458146,9780877458142,9781587294259",,,,,332.024,HG179 .N525 2002,,,OL3559231M,,0,,,,,1,,1,587711,pdf,B19DD0776C5AA5CB479D5C5778FA14B7,,,D:\\!genesis\\library.nu\\b1\\_140070.b19dd0776c5aa5cb479d5c5778fa14b7.pdf,0,2000-01-01 01:00:00,2016-04-03 02:51:08,504000/b19dd0776c5aa5cb479d5c5778fa14b7-d.jpg,,
19523733,"Fluid Catalytic Cracking Handbook, Second Edition",,,,Reza Sadeghbeigi,2000,2,,,352,0,English,305,,до 2011-01,"0884152898,9780884152897,9780585470542",,,,,665.5/33,TP690.4 .S23 2000,,,OL6784042M,,0,,,,,1,,1,32239987,pdf,B1FCF19CF293A95E1D960446CBC9B103,,,D:\\!genesis\\library.nu\\b1\\_140061.b1fcf19cf293a95e1d960446cbc9b103.pdf,0,2000-01-01 01:00:00,2016-04-03 02:51:08,504000/b1fcf19cf293a95e1d960446cbc9b103-d.jpg,,
19523734,"Networked Forces in Stability Operations 101st Airborne Division, 3 2 and 1 25 Stryker Brigades in Northern Iraq",,,,Daniel Gonzales,2007,1,,,220,0,English,99,,до 2011-01,"083304303X,9780833043030,9780833044273",,,,,956.7044/342,UA943 .N48 2007,,,OL11487448M,,0,,,,,1,,1,2345808,pdf,B1723CF28B86900A632173143754B593,,,D:\\!genesis\\library.nu\\b1\\_139792.b1723cf28b86900a632173143754b593.pdf,0,2000-01-01 01:00:00,2016-04-03 02:51:08,504000/b1723cf28b86900a632173143754b593-d.jpg,,
19523735,When Information Came of Age: Technologies of Knowledge in the Age of Reason and Revolution 1700-1850,,,,Daniel R. Headrick,2000,1st,,,246,0,English,64,,до 2011-01,"0195135970,9780195135978,9780195180404",,,,,306.4/2,CB203 .H39 2000,,,OL48485M,,0,,,,,1,,1,5511131,pdf,B14F0C4E9EB0B91E39F73B8D0B312F52,,,D:\\!genesis\\library.nu\\b1\\_139642.b14f0c4e9eb0b91e39f73b8d0b312f52.pdf,0,2000-01-01 01:00:00,2016-04-03 02:51:08,504000/b14f0c4e9eb0b91e39f73b8d0b312f52-d.jpg,,
19523736,American Hazardscapes: The Regionalization of Hazards and Disasters (Natural Hazards and Disasters),,,,Susan L. Cutter,2002,,,,226,0,English,65,,до 2011-01,"0309074436,9780309074438,9780309512145",,,,,,,,,OL9451404M,,0,,,,,1,,1,7505904,pdf,B1D2340F4736A81FBBB91F3F8D722AFE,,,D:\\!genesis\\library.nu\\b1\\_139625.b1d2340f4736a81fbbb91f3f8d722afe.pdf,0,2000-01-01 01:00:00,2016-04-03 02:51:08,504000/b1d2340f4736a81fbbb91f3f8d722afe-d.jpg,,
19523737,Practical Guide to Industrial Safety: Methods for Process Safety Professionals,,,,Cheremisinoff,2000,1,,,459,0,English,,,до 2011-01,"0824704762,9780824704766,9780585425139",,,,,,,,,OL16996781M,,0,,,,,1,,1,33439335,pdf,B15FE75DE91851D42E0BA868F56371EE,,,D:\\!genesis\\library.nu\\b1\\_139468.b15fe75de91851d42e0ba868f56371ee.pdf,0,2000-01-01 01:00:00,2016-04-03 02:51:08,504000/b15fe75de91851d42e0ba868f56371ee-d.jpg,,
19523738,Families at Work: Expanding the Bounds,,,,"Naomi Gerstel, Dan Clawson, Robert Zussman",2002,1,,,368,0,English,,,до 2011-01,"0826513972,9780826513977,9780585408019",,,,,,,,,OL8169815M,,0,,,,,1,,1,1053557,pdf,B1F60450BED929689F5430EA7FE54FA2,,,D:\\!genesis\\library.nu\\b1\\_139093.b1f60450bed929689f5430ea7fe54fa2.pdf,0,2000-01-01 01:00:00,2016-04-03 02:51:08,504000/b1f60450bed929689f5430ea7fe54fa2-d.jpg,,
19523739,Agamid Lizards: Keeping & Breeding Them in Captivity (Herpetology series),,,,David J. Zoffer,1996,,,,64,0,English,,,до 2011-01,"0793802830,9780793802838",,,,,,,,,OL11201177M,,0,,,,,1,1,1,54721369,pdf,B1F30FB08EFE38BC87ED4BA0444BBC8C,,,D:\\!genesis\\library.nu\\b1\\_138272.b1f30fb08efe38bc87ed4ba0444bbc8c.pdf,0,2000-01-01 01:00:00,2016-04-03 02:51:08,504000/b1f30fb08efe38bc87ed4ba0444bbc8c-d.jpg,,
19523740,The Cyprus Referendum: A Divided Island and the Challenge of the Annan Plan (International Library of Twentieth Centruy History),,,,Chrysostomos Pericleous,2009,,,,449,0,English,64,,до 2011-01,"1848850212,9781848850217",,,,,328.23095693,JF497.C93 P47 2009,,,OL24118038M,,0,,,,1,0,1,1,3948414,pdf,B17BB1ACFBD9F842D13A6867EEEE2E05,,,D:\\!genesis\\library.nu\\b1\\_137947.b17bb1acfbd9f842d13a6867eeee2e05.pdf,0,2000-01-01 01:00:00,2016-04-03 02:51:08,504000/b17bb1acfbd9f842d13a6867eeee2e05-d.jpg,,
19523741,Understanding Sleep and Dreaming,,,,William H. Moorcroft,2003,1,,,335,0,English,,,до 2011-01,"0387249656,0306474255,9780387286983,9780387249650,9780306479496,9780306474255",,,,,612.8/21,RC547 .M667 2005,,,OL17067514M,,0,,,,,1,1,1,17595823,pdf,B16066CE06C17CCE45721749F99D2EE9,,,D:\\!genesis\\library.nu\\b1\\_137617.b16066ce06c17cce45721749f99d2ee9.pdf,0,2000-01-01 01:00:00,2016-04-03 02:51:08,504000/b16066ce06c17cce45721749f99d2ee9-d.jpg,,
19523742,The Nemesis from Terra (aka Shadow over Mars),,,,Leigh Brackett,1000,,,,82,0,English,265,,до 2011-01,"0441569404,9780441569403",,B0007ES97A,,,,,,,OL22897796M,,0,,,,,1,1,1,708201,pdf,B181731C50C7894DFC9FC819EF1F9070,,,D:\\!genesis\\library.nu\\b1\\_137472.b181731c50c7894dfc9fc819ef1f9070.pdf,0,2000-01-01 01:00:00,2016-04-03 02:51:08,504000/b181731c50c7894dfc9fc819ef1f9070-d.jpg,,
19523743,Electromechanics of Particles,,,,Thomas B. Jones,2005,,,,288,0,English,271,,до 2011-01,"9780521019101,9780511574498,0521431964,0521019109,0511574495,9780521431965",,,,,543/.0871,QC585.7.D5 J6 1995,,,OL1112961M,,0,,,,,1,,1,7021098,pdf,B1FCE510D16616D18C0888462F47F710,,,D:\\!genesis\\library.nu\\b1\\_136682.b1fce510d16616d18c0888462f47f710.pdf,0,2000-01-01 01:00:00,2016-04-03 02:51:08,504000/b1fce510d16616d18c0888462f47f710-d.jpg,,
19523744,"Corporate Capital: Control, Ownership, Saving and Crisis",,,,Christos Pitelis,1987,First Edition,,,144,0,English,,,до 2011-01,"9780521328487,9780511522123,0521607450,0521328489,0511522126,9780521607452",,,,,338.7/4,HD2731,,,OL21373258M,,0,,,,,1,,1,3957349,pdf,B104E5249171D4E9C649E0BE216ADE10,,,D:\\!genesis\\library.nu\\b1\\_136570.b104e5249171d4e9c649e0be216ade10.pdf,0,2000-01-01 01:00:00,2016-04-03 02:51:08,504000/b104e5249171d4e9c649e0be216ade10-g.jpg,,
19523745,Physical Analysis for Tribology,,,,Terence F. J. Quinn,1991,,,,508,0,English,132,,до 2011-01,"9780511529634,0521326028,052101963X,0511529635,9780521019637,9780521326025",,,,,621.8/9,TJ1075 .Q56 1991,,,OL1614474M,,0,,,,,1,,1,18932489,pdf,B1F4D22A2B350E40CB2AAE67F5007F3A,,,D:\\!genesis\\library.nu\\b1\\_136557.b1f4d22a2b350e40cb2aae67f5007f3a.pdf,0,2000-01-01 01:00:00,2016-04-03 02:51:08,504000/b1f4d22a2b350e40cb2aae67f5007f3a-d.jpg,,
19523746,Day of Shining Red: An Essay on Understanding Ritual (Cambridge Studies in Social Anthropology),,,,Gilbert Lewis,1980,1,,,256,0,English,183,,до 2011-01,"9780521222785,9780511558061,0521358884,0521222788,0511558066,9780521358880",,,,,301.2/1,DU740.42 .L477,,,OL4748754M,,0,,,,,1,,1,6210626,pdf,B196F1875DC86A7E44179507DD340CA4,,,D:\\!genesis\\library.nu\\b1\\_136415.b196f1875dc86a7e44179507dd340ca4.pdf,0,2000-01-01 01:00:00,2016-04-03 02:51:08,504000/b196f1875dc86a7e44179507dd340ca4-g.jpg,,
19523747,Sustaining Change In Schools: How To Overcome Differences And Focus On Quality,,,,Daniel P. Johnson,2005,,,,183,0,English,,,до 2011-01,"1416601473,9781416601470,9781416602545",,,,,,,,,OL8457620M,,0,,,,,1,,1,1105967,pdf,B1CDF0D0CAE6BF2AB2A2F57B4229EC1A,,,D:\\!genesis\\library.nu\\b1\\_135756.b1cdf0d0cae6bf2ab2a2f57b4229ec1a.pdf,0,2000-01-01 01:00:00,2016-04-03 02:51:08,504000/b1cdf0d0cae6bf2ab2a2f57b4229ec1a-d.jpg,,
19523748,The Power of Paideia Schools: Defining Lives Through Learning,,,,"National Paideia Center, Terry Roberts",1998,,,,125,0,English,183,,до 2011-01,"0871203030,9780871203038,9780871205490",,,,,370.11/2,LB2822.82 .P69 1998,,,OL349784M,,0,,,,,1,1,1,1486101,pdf,B1D759E70C1E90B047BA54592A54B68E,,,D:\\!genesis\\library.nu\\b1\\_135646.b1d759e70c1e90b047ba54592a54b68e.pdf,0,2000-01-01 01:00:00,2016-04-03 02:51:08,504000/b1d759e70c1e90b047ba54592a54b68e-d.jpg,,
19523749,Deploying and Managing IP over WDM Networks,,,,Joan Serrat,2003,,,,316,0,English,99,,до 2011-01,"1580535011,9781580535014,9781580536738",,,,,004.62,TK5103.592.W38 S47 2003,,,OL22493598M,,0,,,,,1,1,1,1716118,pdf,B19CD48E3CA7441F612A84643D5233B9,,,D:\\!genesis\\library.nu\\b1\\_135574.b19cd48e3ca7441f612a84643d5233b9.pdf,0,2000-01-01 01:00:00,2016-04-03 02:51:08,504000/b19cd48e3ca7441f612a84643d5233b9-d.jpg,,
19523750,Finding Your Leadership Style: A Guide for Educators,,,,Jeffrey Glanz,2002,,,,217,0,English,,,до 2011-01,"0871206927,9780871206923,9780871208354",,,,,,,,,OL8346952M,,0,,,,,1,1,1,2483341,pdf,B176EFA1F0E4B3CD6B8551F4886C642A,,,D:\\!genesis\\library.nu\\b1\\_135538.b176efa1f0e4b3cd6b8551f4886c642a.pdf,0,2000-01-01 01:00:00,2016-04-03 02:51:08,504000/b176efa1f0e4b3cd6b8551f4886c642a-d.jpg,,
19523751,Flowering Plants in West Africa,,,,Margaret Steentoft,1988,,,,356,0,English,29,,до 2011-01,"0521261929,9780511551505,9787431988589,9780521261920",,,,,583.13/0966,QK393 .S743 1988,,,OL2394578M,,0,,,,,1,,1,8194890,pdf,B10272B1F5EB9B598AF106AEA6657729,,,D:\\!genesis\\library.nu\\b1\\_134894.b10272b1f5eb9b598af106aea6657729.pdf,0,2000-01-01 01:00:00,2016-04-03 02:51:08,504000/b10272b1f5eb9b598af106aea6657729-d.jpg,,
19523752,First Verbs: A Case Study of Early Grammatical Development,,,,Michael Tomasello,1992,,Cambridge University Press,,384,0,English,183,,до 2011-01,"0521034515,9780521034517,0521374960,9780521374965,9780511527678",,,,,401/.93,P118 .T56 1991,,,OL1539496M,,0,,,,0,1,,1,6919460,pdf,B1B77C1F4B6422945AAB4407CBAC6993,,,D:\\!genesis\\library.nu\\b1\\_134831.b1b77c1f4b6422945aab4407cbac6993.pdf,0,2000-01-01 01:00:00,2016-04-03 02:51:08,504000/b1b77c1f4b6422945aab4407cbac6993-d.jpg,,
19523753,Building Capitalism: The Transformation of the Former Soviet Bloc,,,,Anders Aslund,2001,,,,532,0,English,,,до 2011-01,"9780511528538,0521805252,9780521801393,0521801397,0511528531,9780521805254",,,,,,,,,OL15504819M,,0,,,,,1,,1,9038804,pdf,B1E4DE705A12BA191432875838AEA511,,,D:\\!genesis\\library.nu\\b1\\_134775.b1e4de705a12ba191432875838aea511.pdf,0,2000-01-01 01:00:00,2016-04-03 02:51:08,504000/b1e4de705a12ba191432875838aea511-d.jpg,,
19523754,"J Stalin Works (1907-1913, Volume 2)",,,,Joseph Stalin,1953,,,,440,0,English,64,,до 2011-01,,,B000BD3SBO,,,,,,,,,0,,,,,1,,1,2264052,pdf,B163DC6BBCBFBDCE8F68FE7B560AE16F,,,D:\\!genesis\\library.nu\\b1\\_134534.b163dc6bbcbfbdce8f68fe7b560ae16f.pdf,0,2000-01-01 01:00:00,2016-04-03 02:51:08,504000/b163dc6bbcbfbdce8f68fe7b560ae16f-g.jpg,,
19523755,Acid Rain: Report number 14,,,,Watt Committee,1990,First Edition,,,64,0,English,,,до 2011-01,"9780946392155,0946392153,020321031X,9780203210314,9780203289853",,,,,,,,,OL8450313M,,0,,,,,1,1,1,1101854,pdf,B13998F33BBB452DA888BA8370CADC2E,,,D:\\!genesis\\library.nu\\b1\\_134474.b13998f33bbb452da888ba8370cadc2e.pdf,0,2000-01-01 01:00:00,2016-04-03 02:51:08,504000/b13998f33bbb452da888ba8370cadc2e-d.jpg,,
19523756,The Fantasy Principle: Psychoanalysis of the Imagination,,,,Michael V Adams,2004,1,,,272,0,English,198,,до 2011-01,"1583918191,9781583918197",,,,,150.19/54,BF173.J85 A33 2004,,,OL22586636M,,0,,,,,1,1,1,2945483,pdf,B11704CF7E6A0B8BCBE5B4CB80A25524,,,D:\\!genesis\\library.nu\\b1\\_134318.b11704cf7e6a0b8bcbe5b4cb80a25524.pdf,0,2000-01-01 01:00:00,2016-04-03 02:51:08,504000/b11704cf7e6a0b8bcbe5b4cb80a25524-d.jpg,,
19523757,A Poetry of Reality: Composing with Recorded Sound (Contemporary Music Review Series),,,,Norman,1997,Pap/Com,,,192,0,English,137,,до 2011-01,"3718659328,9783718659326,9780203986387",,,,,,,,,OL12860547M,,0,,,,,1,1,1,1519801,pdf,B1C1D6E2F7094AC991DF0C60659787FA,,,D:\\!genesis\\library.nu\\b1\\_134276.b1c1d6e2f7094ac991df0c60659787fa.pdf,0,2000-01-01 01:00:00,2016-04-03 02:51:08,504000/b1c1d6e2f7094ac991df0c60659787fa-d.jpg,,
19523758,"New Social Movements In Western Europe: A Comparative Analysis (Social Movements, Protest and Contention)",,,,"Hanspeter Kriesi, Ruud Koopmans, Jan Willem Duyvendak, Marco G.Giugni",1995,,,,344,0,English,137,,до 2011-01,"9780816626700,0816626707,9781857285529,1857285522,9780203501115",,,,,303.484094,,,,OL22402679M,,0,,,,,1,1,1,2276839,pdf,B1A1870A3811A961306F0867D41D5240,,,D:\\!genesis\\library.nu\\b1\\_134197.b1a1870a3811a961306f0867d41d5240.pdf,0,2000-01-01 01:00:00,2016-04-03 02:51:08,504000/b1a1870a3811a961306f0867d41d5240-g.jpg,,
19523759,Social Rage: Emotion and Cultural Conflict (Garland Reference Library of Social Science),,,,Bonnie Berry,1999,1,,,300,0,English,,,до 2011-01,"0815330898,9780815330899,9780203903254",,,,,,,,,OL16951828M,,0,,,,,1,1,1,810662,pdf,B1E4D4AEFFA2CC7D3FA60765AB19095D,,,D:\\!genesis\\library.nu\\b1\\_133996.b1e4d4aeffa2cc7d3fa60765ab19095d.pdf,0,2000-01-01 01:00:00,2016-04-03 02:51:08,504000/b1e4d4aeffa2cc7d3fa60765ab19095d-d.jpg,,
19523760,Psychotherapy as a Developmental Process,,,,"Michael Basseches, Michael F. Mascolo",2009,1,,,371,0,English,172,,до 2011-01,"0805857303,9780805857306",,,,,616.89/14,RC480 .B3176 2009,,,OL23017405M,,0,,,,,1,1,1,4205788,pdf,B142369E327B65FFABA6BDA443C72716,,,D:\\!genesis\\library.nu\\b1\\_133916.b142369e327b65ffaba6bda443c72716.pdf,0,2000-01-01 01:00:00,2016-04-03 02:51:08,504000/b142369e327b65ffaba6bda443c72716-d.jpg,,
19523761,"Modern Times?: Work, Professionalism and Citizenship in Teaching",,,,Martin Lawn,1996,1,,,176,0,English,203,,до 2011-01,"0750704950,9780750704953,9780203974414",,,,,,,,,OL725728M,,0,,,,,1,1,1,1483797,pdf,B1AEBB3113ABF7F160A5EF7E7E765963,,,D:\\!genesis\\library.nu\\b1\\_133899.b1aebb3113abf7f160a5ef7e7e765963.pdf,0,2000-01-01 01:00:00,2016-04-03 02:51:08,504000/b1aebb3113abf7f160a5ef7e7e765963-d.jpg,,
19523762,Dualism in Transformation (Jordan Lectures in Comparative Religion),,,,Shaul Shaked,1994,1,,,176,0,English,137,,до 2011-01,"0728602334,9780728602335,9780203986028",,,,,295,BL1571 .S488 1994,,,OL892307M,,0,,,,,1,1,1,1110255,pdf,B13163781911561137BDED2328C6FE01,,,D:\\!genesis\\library.nu\\b1\\_133798.b13163781911561137bded2328c6fe01.pdf,0,2000-01-01 01:00:00,2016-04-03 02:51:08,504000/b13163781911561137bded2328c6fe01-d.jpg,,
19523763,Popular Religion in China: The Imperial Metaphor,,,,Step Feuchtwang,2001,2nd Revised edition,,,283,0,English,181,,до 2011-01,"9780700714216,0700714219,020339285X,9780203392850,9780203396384",,,,,,,,,OL7763839M,,0,,,,,1,,1,5553149,pdf,B15709AB4E0B12E59F6370D5D8F9A397,,,D:\\!genesis\\library.nu\\b1\\_133593.b15709ab4e0b12e59f6370d5d8f9a397.pdf,0,2000-01-01 01:00:00,2016-04-03 02:51:08,504000/b15709ab4e0b12e59f6370d5d8f9a397-d.jpg,,
19523764,Class Struggle and the Industrial Revolution: Early Industrial Capitalism in Three English Towns (University Paperbacks),,,,John Foster,1977,1,,,368,0,English,314,,до 2011-01,"0416841007,9780416841008",,,,,301.44/42/09427393,HD8400.O/,,,OL21209616M,,0,,,,,1,1,1,3012227,pdf,B1D00E7949D3481B40509A3E2F3B2BD2,,,D:\\!genesis\\library.nu\\b1\\_133580.b1d00e7949d3481b40509a3e2f3b2bd2.pdf,0,2000-01-01 01:00:00,2016-04-03 02:51:08,504000/b1d00e7949d3481b40509a3e2f3b2bd2-d.jpg,,
19523765,Assessment and Intervention for Executive Function Difficulties (School-based Practice in Action Series),,,,"George McCloskey, Lisa A. Perkins, Bob Van Diviner",2008,Pap/Cdr,,,392,0,English,,,до 2011-01,"0415957842,9780415957847,9780203893753",,,,,370.15,LB1051 .M393 2008,,,OL19906337M,,0,,,,,1,,1,3711885,pdf,B1DD8D7B7987827AE03811BAF18CAB3C,,,D:\\!genesis\\library.nu\\b1\\_133111.b1dd8d7b7987827ae03811baf18cab3c.pdf,0,2000-01-01 01:00:00,2016-04-03 02:51:08,504000/b1dd8d7b7987827ae03811baf18cab3c-d.jpg,,
19523766,"Heavenly Journeys, Earthly Concerns: The Legacy of the Mi'raj in the Formation of Islam (Religion in History, Society and Culture-Outstanding Dissertations)",,,,Brooke Vuckovic,2004,,,,188,0,English,64,,до 2011-01,"0415967856,9780415967853,9780203487471",,,,,297.6/33,BP166.57 .V83 2004,,,OL3294331M,,0,,,,,1,,1,986019,pdf,B1FC0FC4313936043866EA3191CFFDD4,,,D:\\!genesis\\library.nu\\b1\\_132986.b1fc0fc4313936043866ea3191cffdd4.pdf,0,2000-01-01 01:00:00,2016-04-03 02:51:08,504000/b1fc0fc4313936043866ea3191cffdd4-d.jpg,,
19523767,Religion and American Culture: A Reader,,,,David Hackett,2003,2,,,560,0,English,205,,до 2011-01,"041594273X,9780415942737,0415942721,9780415942720,9780203426999",,,,,200/.973,BL2525 .R447 2003,,,OL3578017M,,0,,,,,1,1,1,3153125,pdf,B1BD82B7D6F2A15F6AA88441BAA07B57,,,D:\\!genesis\\library.nu\\b1\\_132771.b1bd82b7d6f2a15f6aa88441baa07b57.pdf,0,2000-01-01 01:00:00,2016-04-03 02:51:08,504000/b1bd82b7d6f2a15f6aa88441baa07b57-d.jpg,,
19523768,America's Fight Over Water: The Environmental and Political Effects of Large-Scale Water Systems (American Popular History and Culture (Routledge (Firm)).),,,,Kevin Wehr,2004,1,,,284,0,English,64,,до 2011-01,"0415949300,9780415949309,9780203307892",,,,,,,,,OL7497408M,,0,,,,,1,,1,3385262,pdf,B1E8FEBDD982CF8A79F203277F318FAD,,,D:\\!genesis\\library.nu\\b1\\_132390.b1e8febdd982cf8a79f203277f318fad.pdf,0,2000-01-01 01:00:00,2016-04-03 02:51:08,504000/b1e8febdd982cf8a79f203277f318fad-d.jpg,,
19523769,A Realist Theory of Science,,,,Roy Bhaskar,2008,1,,,304,0,English,,,до 2011-01,"0415454948,9780415454940",,,,,501,Q175 .B53 2008,,,OL10207393M,,0,,,,,1,1,1,2127573,pdf,B145A6529098A1EBA2B7F7BED73CD4A0,,,D:\\!genesis\\library.nu\\b1\\_132104.b145a6529098a1eba2b7f7bed73cd4a0.pdf,0,2000-01-01 01:00:00,2016-04-03 02:51:08,504000/b145a6529098a1eba2b7f7bed73cd4a0-d.jpg,,
19523770,Consuming Habits: Global and Historical Perspectives on How Cultures Define Drugs,,,,Goodman Lovejoy,2007,2,,,304,0,English,64,,до 2011-01,"0415425816,9780415425810,9780203964118",,,,,394.1/4,GT3010 .C65 2007,,,OL23628790M,,0,,,,,1,1,1,1917618,pdf,B1FF5D88509339095E4320A51060FAFA,,,D:\\!genesis\\library.nu\\b1\\_131845.b1ff5d88509339095e4320a51060fafa.pdf,0,2000-01-01 01:00:00,2016-04-03 02:51:08,504000/b1ff5d88509339095e4320a51060fafa-d.jpg,,
19523771,The Politics of Women's Interests:  New Comparative and International Perspectives (Routledge Research in Comparative Politics),,,,"Louise Chappell, Lisa Hill",2006,1,,,224,0,English,137,,до 2011-01,"0415368340,9780415368346,9780203028216",,,,,323.3/4,HQ1236 .P645 2006,,,OL22728626M,,0,,,,,1,1,1,1308175,pdf,B1087763863C49EF9C3506AAFBDE3D23,,,D:\\!genesis\\library.nu\\b1\\_131344.b1087763863c49ef9c3506aafbde3d23.pdf,0,2000-01-01 01:00:00,2016-04-03 02:51:08,504000/b1087763863c49ef9c3506aafbde3d23-d.jpg,,
19523772,Theravada Buddhism and the British Encounter (Routledgecurzon Critical Studies in Buddhism),,Routledge critical studies in Buddhism,,Elizabeth Harris,2006,1,Routledge,,274,0,English,183,,до 2011-01,"0415371252,9780415371254,9780203098776",,,,,294.3/91/09549309034,BQ359 .H37 2006,,IZVT00tKA4oC,OL22725071M,,0,,,,1,0,1,1,1205455,pdf,B153F27EAA6651243C358FA70392332D,,,D:\\!genesis\\library.nu\\b1\\_131304.b153f27eaa6651243c358fa70392332d.pdf,0,2000-01-01 01:00:00,2016-04-03 02:51:08,504000/b153f27eaa6651243c358fa70392332d-d.jpg,,
19523773,"The digital economy: business organization, production processes and regional developments",,,,"Edward J. Malecki, Bruno Moriset",2008,,Routledge,,296,0,English,,,до 2011-01,"0415396956, 9780415396950, 0415396964, 9780415396967, 020393363X, 9780415933633",,,,,303.48'33–dc22,HC79.I55M355 2007,,mCKlYwhr82EC,,,0,,,,,0,1,1,1732426,pdf,B1FEFB29CB5FC7953D4BE7CDBD8CD948,08d1fbc79a7848159e9402278e76d63b,no,D:/!genesis/library.nu/b1/_131179.b1fefb29cb5fc7953d4be7cdbd8cd948.pdf,0,2000-01-01 01:00:00,2016-04-03 02:51:08,932000/6f79295285f30410dc1d2d8b81fdb18b-d.jpg,,
19523774,"Jung, Psychology, Postmodernity",,,,Jones,2007,1,,,152,0,English,198,,до 2011-01,"0415379482,9780415379489,9780203945575",,,,,,,,,OL10204418M,,0,,,,,1,,1,1060976,pdf,B11234C9E9C13D6D06A8A942DEF697AC,,,D:\\!genesis\\library.nu\\b1\\_131066.b11234c9e9c13d6d06a8a942def697ac.pdf,0,2000-01-01 01:00:00,2016-04-03 02:51:08,504000/b11234c9e9c13d6d06a8a942def697ac-d.jpg,,
19523775,Surviving and Succeeding in Senior School Management: Getting in and Getting on,,,,Paul Blum,2006,1,,,160,0,English,,,до 2011-01,"0415392594,9780415392594,9780203967126",,,,,,,,,OL9708756M,,0,,,,,1,,1,573059,pdf,B1A73E94EB2B88B3956CAB7DEA1D98B7,,,D:\\!genesis\\library.nu\\b1\\_130990.b1a73e94eb2b88b3956cab7dea1d98b7.pdf,0,2000-01-01 01:00:00,2016-04-03 02:51:08,504000/b1a73e94eb2b88b3956cab7dea1d98b7-d.jpg,,
19523776,The Origins of the Second World War 1933-1941 (Lancaster Pamphlets),,,,Ruth Henig,2005,2,,,128,0,English,64,,до 2011-01,"9780415332620,0415332621,0415332613,9780415332613,9780203332276",,,,,940.53/11,D741 .H43 2004,,,OL3293990M,,0,,,,,1,1,1,1007675,pdf,B165962ACC6C0769C87F04EBBE93A32B,,,D:\\!genesis\\library.nu\\b1\\_130635.b165962acc6c0769c87f04ebbe93a32b.pdf,0,2000-01-01 01:00:00,2016-04-03 02:51:08,504000/b165962acc6c0769c87f04ebbe93a32b-d.jpg,,
19523777,Helping with Behaviour  Establishing the positive and addressing the difficult in the early years (The Nursery World Routledgefalmer Essential Guides for Early Years Practitioners),,,,Sue Roffey,2005,1,,,168,0,English,,,до 2011-01,"9780203087671,9780415342902,9780415342919,0203087674,0415342902,0415342910",,,,,,,,,OL9481661M,,0,,,,,1,,1,716167,pdf,B1208CACBE3CE6E1C7EB54A81E4F90CA,,,D:\\!genesis\\library.nu\\b1\\_130481.b1208cacbe3ce6e1c7eb54a81e4f90ca.pdf,0,2000-01-01 01:00:00,2016-04-03 02:51:08,504000/b1208cacbe3ce6e1c7eb54a81e4f90ca-d.jpg,,
19523778,OLYMPIAS (Women of the Ancient World),,,,Elizabeth Carney,2006,1,,,240,0,English,64,,до 2011-01,"0415333164,9780415333160,9780203412787",,,,,,,,,OL7491996M,,0,,,,,1,1,1,2047755,pdf,B1B23F37298410636F9B14FDB675A0DA,,,D:\\!genesis\\library.nu\\b1\\_130352.b1b23f37298410636f9b14fdb675a0da.pdf,0,2000-01-01 01:00:00,2016-04-03 02:51:08,504000/b1b23f37298410636f9b14fdb675a0da-d.jpg,,
19523779,"Education, Philosophy and the Ethical Environment",,,,Graham Haydon,2006,1,,,176,0,English,183,,до 2011-01,"041535661X,9780415356619,9780203002704",,,,,,,,,OL10203915M,,0,,,,,1,1,1,985484,pdf,B17B070922DF131C96AD38D89152CEB2,,,D:\\!genesis\\library.nu\\b1\\_130004.b17b070922df131c96ad38d89152ceb2.pdf,0,2000-01-01 01:00:00,2016-04-03 02:51:08,504000/b17b070922df131c96ad38d89152ceb2-d.jpg,,
19523780,Between Sex and Power: Family in the World 1900-2000 (International Library of Sociology),,,,Goran Therborn,2004,,,,392,0,English,64,,до 2011-01,"0415300789,9780415300780",,,,,,,,,OL17125361M,,0,,,,,1,1,1,1548712,pdf,B16778188B8C5401F540901ED4B01DF9,,,D:\\!genesis\\library.nu\\b1\\_129555.b16778188b8c5401f540901ed4b01df9.pdf,0,2000-01-01 01:00:00,2016-04-03 02:51:08,504000/b16778188b8c5401f540901ed4b01df9-d.jpg,,
19523781,Vom Ursprung und Sinn der Seinsfrage im Denken Martin Heideggers Band 1 + 2: Versuch einer Ortsbestimmung,,,,Karl Lehmann,,,,,428,0,German,,,до 2011-01,"9783934450127,3934450121",,,,,,,,,,,0,,,,,1,1,1,8753503,pdf,B1C6A573A4F50FBEBE0A0A33E955CCF4,,,D:\\!genesis\\library.nu\\b1\\_129049.b1c6a573a4f50fbebe0a0a33e955ccf4.pdf,0,2000-01-01 01:00:00,2016-04-03 02:51:08,504000/b1c6a573a4f50fbebe0a0a33e955ccf4-g.jpg,,
19523782,Secrets of the Future Temple - Mishkney Elyon,,,,"Rabbi Moshe Chaim Luzzatto, Translated by Rabbi Avraham Greenbaum",1999,,,,141,0,English,,,до 2011-01,"9659012012,9789659012015",,,,,,,,,OL9168643M,,0,,,,,1,,1,847231,pdf,B1B9CA08E8BB389C27FE31DE77F50F36,,,D:\\!genesis\\library.nu\\b1\\_128334.b1b9ca08e8bb389c27fe31de77f50f36.pdf,0,2000-01-01 01:00:00,2016-04-03 02:51:08,504000/b1b9ca08e8bb389c27fe31de77f50f36-d.jpg,,
19523783,Time's Eye (A Time Odyssey),,,,"Arthur C. Clarke, Stephen Baxter",2005,,,,384,0,English,,,до 2011-01,"034545247X,9780345452474",,,,,,,,,OL9886279M,,0,,,,,1,,1,1280793,pdf,B12368B43633D4F85A2364FC13282F91,,,D:\\!genesis\\library.nu\\b1\\_128269.b12368b43633d4f85a2364fc13282f91.pdf,0,2000-01-01 01:00:00,2016-04-03 02:51:08,504000/b12368b43633d4f85a2364fc13282f91-d.jpg,,
19523784,Literacies Across Media: Playing the Text,,,,Margaret Mackey,2002,1st,,,224,0,English,,,до 2011-01,"0415272831,9780415272834,0203218973,9780203218976,9780203295199",,,,,,,,,OL7489482M,,0,,,,,1,1,1,773612,pdf,B1BC7BFD527B687342FDE0A039A49007,,,D:\\!genesis\\library.nu\\b1\\_127575.b1bc7bfd527b687342fde0a039a49007.pdf,0,2000-01-01 01:00:00,2016-04-03 02:51:08,504000/b1bc7bfd527b687342fde0a039a49007-d.jpg,,
19523785,"Rise of Political Economy in the Scottish Enlightenment (Routledge Studies in the History of Economics, 56)",,,,T. Sakamoto,2003,1,,,240,0,English,64,,до 2011-01,"041529648X,9780415296489,9780203986653",,,,,330/.092/2411,HB103.A2 R57 2003,,,OL22530998M,,0,,,,,1,1,1,978690,pdf,B15ABCD47D1829B67BB816513CB4D32A,,,D:\\!genesis\\library.nu\\b1\\_126943.b15abcd47d1829b67bb816513cb4d32a.pdf,0,2000-01-01 01:00:00,2016-04-03 02:51:08,504000/b15abcd47d1829b67bb816513cb4d32a-d.jpg,,
19523786,"The Creative School: A Framework for Creativity, Quality and Effectiveness",,,,Bob Jeffrey; Peter Woods,2003,1,,,168,0,English,,,до 2011-01,"0415282144,9780415282147,9780203437223,0415282152,9780415282154,0203437225",,,,,372.21/0941,LF795.A69,,,OL22126709M,,0,,,,,1,1,1,1112168,pdf,B17B446D07021E002F7DE3D4D7817905,,,D:\\!genesis\\library.nu\\b1\\_126815.b17b446d07021e002f7de3d4d7817905.pdf,0,2000-01-01 01:00:00,2016-04-03 02:51:08,504000/b17b446d07021e002f7de3d4d7817905-d.jpg,,
19523787,Politika i svakodnevni zivot Srbija 1999-2002,,,,"priredili Zagorka Golubovic, Ivana Spasic, Dorde Pavicevic.",,,,,409,0,Serbian,64,,до 2011-01,8682417065,,,,,,,,,OL23390009M,,0,,,,,1,1,1,1789159,pdf,B1ADC6AC2F36667D58104348FE74ABFF,,,D:\\!genesis\\library.nu\\b1\\_125605.b1adc6ac2f36667d58104348fe74abff.pdf,0,2000-01-01 01:00:00,2016-04-03 02:51:08,504000/b1adc6ac2f36667d58104348fe74abff-g.jpg,,
19523788,"Ο Μπαμπακένιος, το φαντασμένο σύννεφο - Οικολογική Ιστορία για Παιδιά",,,,Εκπαιδευτικοί της παιδαγωγικής Ομάδας του Κ.Π.Ε.Κ.,,,,,21,0,Greek,,,до 2011-01,9789609845618,,,,,,,,,,,0,,,,,1,,1,6894625,pdf,B1752AB55E74194268E8CF786C80D237,,,D:\\!genesis\\library.nu\\b1\\_125431.b1752ab55e74194268e8cf786c80d237.pdf,0,2000-01-01 01:00:00,2016-04-03 02:51:08,504000/b1752ab55e74194268e8cf786c80d237-g.jpg,,
19523789,Η πεισματάρα θεία Κλάρα,,,,Schneider Christine M.   Τσιώρου Βίκη,,,,,36,0,Greek,,,до 2011-01,9608240042,,,,,,,,,,,0,,,,,1,,0,8114486,pdf,B1C536CAA1CE283A62B6463C2E7FAD18,,,D:\\!genesis\\library.nu\\b1\\_125426.b1c536caa1ce283a62b6463c2e7fad18.pdf,0,2000-01-01 01:00:00,2016-04-03 02:51:08,504000/b1c536caa1ce283a62b6463c2e7fad18-g.jpg,,
19523790,"The New Industrial Geography: Regions, Regulation and Institutions (Routledge Studies in the Modern World Economy, 22)",,,,Trevor Barnes,1999,1,,,352,0,English,183,,до 2011-01,"0415218020,9780415218023,9780203159330",,,,,,,,,OL16955692M,,0,,,,,1,1,1,2865611,pdf,B18D0FC07D7501F4F0DFAAFAEFC70A04,,,D:\\!genesis\\library.nu\\b1\\_125016.b18d0fc07d7501f4f0dfaafaefc70a04.pdf,0,2000-01-01 01:00:00,2016-04-03 02:51:08,504000/b18d0fc07d7501f4f0dfaafaefc70a04-d.jpg,,
19523791,Popular Management Books: How They are Made and What They Mean for Organizations,,,,S. Furusten,1999,,,,208,0,English,181,,до 2011-01,"0415212189,9780415212182,9780203983706",,,,,,,,,OL15474147M,,0,,,,,1,1,1,1425765,pdf,B1A3D8E83585868AB07A0BB797BE4189,,,D:\\!genesis\\library.nu\\b1\\_124993.b1a3d8e83585868ab07a0bb797be4189.pdf,0,2000-01-01 01:00:00,2016-04-03 02:51:08,504000/b1a3d8e83585868ab07a0bb797be4189-d.jpg,,
19523792,Emotional Vertigo: Between Anxiety and Pleasure (New Library of Psychoanalysis),,,,Daniel Quinodoz,1997,1,,,216,0,English,198,,до 2011-01,"0415148359,9780415148351,0415148367,9780415148368,9780203279816",,,,,616.8/41,RB150.V4 Q5613 1997,,,OL666581M,,0,,,,,1,1,1,643465,pdf,B13404482326B13D9D44A91D6B859827,,,D:\\!genesis\\library.nu\\b1\\_124469.b13404482326b13d9d44a91d6b859827.pdf,0,2000-01-01 01:00:00,2016-04-03 02:51:08,504000/b13404482326b13d9d44a91d6b859827-d.jpg,,
19523793,British National Cinema (National Cinemas),,,,Sarah Street,1997,1,,,248,0,English,60,,до 2011-01,"0415067359,9780415067355",,,,,791.43/0941,PN1993.5.G7 S75 1997,,,OL995687M,,0,,,,,1,,1,3140872,pdf,B15A0C7C77633B5FB873D3954FFF6887,,,D:\\!genesis\\library.nu\\b1\\_123856.b15a0c7c77633b5fb873d3954fff6887.pdf,0,2000-01-01 01:00:00,2016-04-03 02:51:08,504000/b15a0c7c77633b5fb873d3954fff6887-d.jpg,,
19523794,Worktowners at Blackpool: Mass-Observation and Popular Leisure in the 1930s,,,,Gary Cross,1990,1,,,256,0,English,,,до 2011-01,"041504071X,9780415040716,9780203993293",,,,,917.53,GV76.E7 B588 1990,,,OL2220896M,,0,,,,,1,1,1,1324915,pdf,B11866DB4E28021B138C485647B786FE,,,D:\\!genesis\\library.nu\\b1\\_123399.b11866db4e28021b138c485647b786fe.pdf,0,2000-01-01 01:00:00,2016-04-03 02:51:08,504000/b11866db4e28021b138c485647b786fe-d.jpg,,
19523795,Introduction to Flow Cytometry,,,,James V. Watson,1991,,,,459,0,English,,,до 2011-01,"0521380618,9780521380614,0521611997,9780521611992,9780511565090",,,,,,,,,OL7748490M,,0,,,,,1,,1,14379753,pdf,B13256C960AD381F068EEB9F222F823C,,,D:\\!genesis\\library.nu\\b1\\_122814.b13256c960ad381f068eeb9f222f823c.pdf,0,2000-01-01 01:00:00,2016-04-03 02:51:08,504000/b13256c960ad381f068eeb9f222f823c-d.gif,,
19523796,Enterprise Security for the Executive: Setting the Tone from the Top (PSI Business Security),,,,Jennifer Bayuk,2009,,,,177,0,English,78,,до 2011-01,"0313376603,9780313376603",,,,,658.4/7,HD61.5 .B39 2010,,,OL23833223M,,0,,,,1,0,1,1,2553724,pdf,B164508C50BA644377D84A36046D7C23,,,D:\\!genesis\\library.nu\\b1\\_121988.b164508c50ba644377d84a36046d7c23.pdf,0,2000-01-01 01:00:00,2016-04-03 02:51:08,504000/b164508c50ba644377d84a36046d7c23-d.jpg,,
19523797,Jupiter (Space!),,,,George Capaccio,2009,1,,,64,0,English,212,,до 2011-01,"0761442448,9780761442448,9780761445555",,,,,523.45,QB661 .C37 2008,,,OL21893910M,,0,,,,1,0,,1,7410555,pdf,B1CA551D5330ED783844124A9830C1E1,,,D:\\!genesis\\library.nu\\b1\\_121737.b1ca551d5330ed783844124a9830c1e1.pdf,0,2000-01-01 01:00:00,2016-04-03 02:51:08,504000/b1ca551d5330ed783844124a9830c1e1-d.jpg,,
19523798,Crime and Defoe: A New Kind of Writing (Cambridge Studies in Eighteenth-Century English Literature and Thought),,,,Lincoln B. Faller,1993,,,,283,0,English,183,,до 2011-01,"0521420865,9780521420860,9780521060332,0521060338,9780511553455",,,,,823/.5,PR3408.C76 F35 1993,,,OL1715305M,,0,,,,,1,,1,6090361,pdf,B12F4B4DE1A6B356E2BD69F5D871C090,,,D:\\!genesis\\library.nu\\b1\\_121675.b12f4b4de1a6b356e2bd69f5d871c090.pdf,0,2000-01-01 01:00:00,2016-04-03 02:51:08,504000/b12f4b4de1a6b356e2bd69f5d871c090-g.jpg,,
19523799,Journal Publishing,,,,"Gillian Page, Robert Campbell, Jack Meadows",1997,Rev Upd Su,,,420,0,English,181,,до 2011-01,"0521441374,9780521441377,0521027683,9780521027687,9780511549748",,,,,070.5/72,Z286.S37 P33 1997,,,OL7714430M,,0,,,,,1,,1,7554705,pdf,B186E90FC07DD80E5DC3A4BE92CF07C6,,,D:\\!genesis\\library.nu\\b1\\_121229.b186e90fc07dd80e5dc3a4be92cf07c6.pdf,0,2000-01-01 01:00:00,2016-04-03 02:51:08,504000/b186e90fc07dd80e5dc3a4be92cf07c6-d.jpg,,
19523800,"Ecografia e procedure interventistiche percutanee: Fegato, vie biliari e pancreas",,,,"R. Pozzi Mucelli, Mirko D'Onofrio, Andrea Ruzzenente",2008,1,,,142,0,English,,,до 2011-01,"8847010616,9788847010628,9788847010611",,,,,,,,,,,0,,,,1,0,1,1,4394364,pdf,B1F8262FA9DB0AC8173D4FD820553074,,,D:\\!genesis\\library.nu\\b1\\_121107.b1f8262fa9db0ac8173d4fd820553074.pdf,0,2000-01-01 01:00:00,2016-04-03 02:51:08,504000/b1f8262fa9db0ac8173d4fd820553074-d.jpg,,
19523801,Deadly Blue: Battle Stories of the U.S. Air Force Special Operations Command,,,,Fred Pushies,2009,,,,238,0,English,245,,до 2011-01,"0814413609,9780814413609",,,,,958.104/7,DS371.412 .P875 2009,,,OL23181021M,,0,,,,,1,1,1,2197912,pdf,B1DE5B88A916BAB93E56B713986405C2,,,D:\\!genesis\\library.nu\\b1\\_120916.b1de5b88a916bab93e56b713986405c2.pdf,0,2000-01-01 01:00:00,2016-04-03 02:51:08,504000/b1de5b88a916bab93e56b713986405c2-d.jpg,,
19523802,Schwingungen - Eine Einfuhrung in die physikalischen Grundlagen und die theoretische Behandlung von Schwingungsproblemen 8 Auflage,,,,"Kurt Magnus, Karl Popp, Walter Sextro",2008,,,,298,0,German,132,,до 2011-01,"9783835101937,3835101935",,,,,,,,,,,0,,,,,1,,1,7014544,pdf,B16539D1353B6865A6ADA5C8A630887A,,,D:\\!genesis\\library.nu\\b1\\_119733.b16539d1353b6865a6ada5c8a630887a.pdf,0,2000-01-01 01:00:00,2016-04-03 02:51:08,504000/b16539d1353b6865a6ada5c8a630887a-d.jpg,,
19523803,Welding Symbols on Drawings,,,,N.E. Gregory,2005,,,,72,0,English,232,,до 2011-01,"185573589X,9781855735897,9781845690410",,,,,,,,,,,0,,,,,1,1,1,841112,pdf,B16F0CCC90DBD383B73C0CB8CA33EBEF,,,D:\\!genesis\\library.nu\\b1\\_119326.b16f0ccc90dbd383b73c0cb8ca33ebef.pdf,0,2000-01-01 01:00:00,2016-04-03 02:51:08,504000/b16f0ccc90dbd383b73c0cb8ca33ebef-d.jpg,,
19523804,Tax Planning Opportunities for Family Businesses in the New Regime (Hawksmere Report),,,,Christopher Jones,2000,,,,79,0,English,41,,до 2011-01,"9781423721437,9781854181541,1854181548",,,,,,,,,OL11968339M,,0,,,,,1,,1,246185,pdf,B10DD902AECDDA5A2349F181560340AE,,,D:\\!genesis\\library.nu\\b1\\_119251.b10dd902aecdda5a2349f181560340ae.pdf,0,2000-01-01 01:00:00,2016-04-03 02:51:08,504000/b10dd902aecdda5a2349f181560340ae-g.jpg,,
19523805,"Theory Construction in Second Language Acquisition (Language Learning & Language Teaching, 8)",,,,Geoff Jordan,2004,,,,285,0,English,314,,до 2011-01,"1588114821,9781588114822,902721705X,9789027217059,1588114813,9781588114815,9027217068,9789027217066,9789027295767",,,,,418,P118.2 .J67 2004,,,OL3694272M,,0,,,,,1,,1,2591137,pdf,B1A5D682CA436D1B4BC998D224659748,,,D:\\!genesis\\library.nu\\b1\\_119090.b1a5d682ca436d1b4bc998d224659748.pdf,0,2000-01-01 01:00:00,2016-04-03 02:51:08,504000/b1a5d682ca436d1b4bc998d224659748-d.jpg,,
19523806,"A Political History of The Gambia, 1816-1994 (Rochester Studies in African History and the Diaspora)",,,,"Arnold Hughes, David Perfect",2006,,University of Rochester Press,,226,0,English,64,,до 2011-01,"9781580462303,1580462308,1580461263,9781580461269,9781580466820",,,,,,,,,OL22861461M,,0,,,,0,0,,1,1399522,pdf,B18B9627E1410B521577C64F366BE5E3,,,D:\\!genesis\\library.nu\\b1\\_118848.b18b9627e1410b521577c64f366be5e3.pdf,0,2000-01-01 01:00:00,2016-04-03 02:51:08,504000/b18b9627e1410b521577c64f366be5e3-d.jpg,,
19523807,"Missionary Linguistics linguistica Misionera: Selected Papers From The First International Conference On Missionary Linguistics, Oslo, 13-16 March 2003 ... in the History of the Language Sciences)",,,,"Otto Zwartjes, Even Hovdhaugen, INTERNATIONAL CONFERENCE ON MISSIONARY L",2004,Bilingual,,,288,0,English,64,,до 2011-01,"158811581X,9781588115812",,,,,,,,,OL3308538M,,0,,,,,1,1,1,2545488,pdf,B19E2C879FD044101AA72E2124E26ABC,,,D:\\!genesis\\library.nu\\b1\\_118455.b19e2c879fd044101aa72e2124e26abc.pdf,0,2000-01-01 01:00:00,2016-04-03 02:51:08,504000/b19e2c879fd044101aa72e2124e26abc-d.jpg,,
19523808,Rethinking Nasserism: Revolution and Historical Memory in Modern Egypt,,,,"ELIE PODEH, ONN WINCKLER",2004,1st,,,384,0,English,64,,до 2011-01,"0813027047,9780813027043,9780813031378",,,,,962.05/2,DT107.83 .R45 2004,,,OL11348874M,,0,,,,,1,1,1,1735114,pdf,B1DFB422A815DD23DDB745EBB06D428C,,,D:\\!genesis\\library.nu\\b1\\_118302.b1dfb422a815dd23ddb745ebb06d428c.pdf,0,2000-01-01 01:00:00,2016-04-03 02:51:08,504000/b1dfb422a815dd23ddb745ebb06d428c-g.jpg,,
19523809,The Basic Writings of Bertrand Russell (Routledge Classics),,,,Bertrand Russell,2009,1,,,784,0,English,,,до 2011-01,"0415472385,9780415472388,9780203875391",,,,,192,B1649 .R91 2009,,,OL22696754M,,0,,,,1,0,1,1,2918023,pdf,B151FFF0F5261A6C693849FBBD2BECBE,,,D:\\!genesis\\library.nu\\b1\\_117387.b151fff0f5261a6c693849fbbd2becbe.pdf,0,2000-01-01 01:00:00,2016-04-03 02:51:08,504000/b151fff0f5261a6c693849fbbd2becbe-d.jpg,,
19523810,Formulaic Genres,,,,Koenraad Kuiper,2009,,,,256,0,English,,,до 2011-01,"0230553524,9780230553521",,,,,417/.2,P302.84 .K84 2009,,,OL22560687M,,0,,,,1,0,1,1,947963,pdf,B1935FF07B3AB641426A269A6E806E01,,,D:\\!genesis\\library.nu\\b1\\_117139.b1935ff07b3ab641426a269a6e806e01.pdf,0,2000-01-01 01:00:00,2016-04-03 02:51:08,504000/b1935ff07b3ab641426a269a6e806e01-d.jpg,,
19523811,Drug Metabolism Concepts,,ACS Symposium Volume 44,,Donald M. Jerina (Eds.),1977,,American Chemical Society,,200,0,English,173,,до 2011-01,"9780841203709,9780841203549,0-8412-0370-9",0097-6156,,,,615/.7,RM301 .D76,10.1021/bk-1977-0044,,OL4536331M,,0,,,,,1,,1,3214096,pdf,B1DC9924FF575C1E672D073A87D01CDA,,,D:\\!genesis\\library.nu\\b1\\_116981.b1dc9924ff575c1e672d073a87d01cda.pdf,0,2000-01-01 01:00:00,2016-04-03 02:51:08,504000/B1DC9924FF575C1E672D073A87D01CDA-d.jpg,,
19523812,"Enets Consensus Guidelines for the Management of Patients With Digestive Neuroendocrine Tumors: Part 1 - Stomach, Duodenum and Pancreas",,,,"W. W. De Herder, D. O'toole, G. Rindi, B. Wiedenmann",2007,,,,66,0,English,,,до 2011-01,"3805582676,9783805582674",,,,,,,10.1159/000098006,,,,0,,,,,1,,1,1528156,pdf,B12630258D3DC47F00A431E7DCA441EB,,,D:\\!genesis\\library.nu\\b1\\_116218.b12630258d3dc47f00a431e7dca441eb.pdf,0,2000-01-01 01:00:00,2016-04-03 02:51:08,504000/b12630258d3dc47f00a431e7dca441eb-d.jpg,,
19523813,"Praktische Regeltechnik: Anwendungsorientierte Einfuhrung fur Maschinenbauer und Elektrotechniker, 8. Auflage (VDI-Buch)",,VDI-Buch,,Peter F. Orlowski,2009,"8.,  bearb. Aufl.",,,501,0,German,250,,до 2011-01,"3642017355,9783642017353",,,,,,,10.1007/978-3-642-01736-0,,,,0,,,,,1,1,1,28927202,pdf,B1330996F32CA7E03186D05D9CA19EFF,,,D:\\!genesis\\library.nu\\b1\\_115614.b1330996f32ca7e03186d05d9ca19eff.pdf,0,2000-01-01 01:00:00,2016-04-03 02:51:08,504000/b1330996f32ca7e03186d05d9ca19eff-d.jpg,,
19523814,Drug Discovery and Design,,Advances in Protein Chemistry 56,,Edward M. Scolnick (Eds.),2001,1,"Elsevier, Academic Press",,1-567,0,English,296,,до 2011-01,978-0-12-034256-3,0065-3233,,,,,,,,OL15493038M,,0,,,,,1,,1,3876977,pdf,B1FAC7DA51977CA28842B3E26A6892B9,,,D:\\!genesis\\library.nu\\b1\\_114548.b1fac7da51977ca28842b3e26a6892b9.pdf,0,2000-01-01 01:00:00,2016-04-03 02:51:08,504000/b1fac7da51977ca28842b3e26a6892b9-d.jpg,,
19523815,Principles of Ocean Physics,,International Geophysics 38,,John R. Apel (Eds.),1988,,"Elsevier, Academic Press",,"iii-xiv, 1-631",0,English,132,,до 2011-01,"0120588668,9780120588664",0074-6142,,,,551.46,GC150.5 .A64 1987,,,OL2412919M,,0,,,,,1,1,1,27070376,pdf,B172D9904395A19400C9CD8D6D20ED66,,,D:\\!genesis\\library.nu\\b1\\_114278.b172d9904395a19400c9cd8d6d20ed66.pdf,0,2000-01-01 01:00:00,2016-04-03 02:51:08,504000/b172d9904395a19400c9cd8d6d20ed66-d.jpg,,
19523816,Introductory Econometrics: Using Monte Carlo Simulation with Microsoft Excel,,,,"Humberto Barreto, Frank Howland",2005,,,,798,0,English,310,,до 2011-01,"0521843197,9780521843195,9780511137174",,,,,330/.01/518282,HB139 .B376 2006,,,OL3400340M,,0,,,,,0,1,1,16891982,pdf,B1C4E3C0327155153532927E0258A831,,,D:\\!genesis\\library.nu\\b1\\_11371.b1c4e3c0327155153532927e0258a831.pdf,0,2000-01-01 01:00:00,2016-04-03 02:51:08,504000/b1c4e3c0327155153532927e0258a831-d.jpg,,
19523817,Enhancing Resilience in Survivors of Family Violence,,,,Dr. Kim Anderson Ph.D.,2009,1,,,261,0,English,41,,до 2011-01,"0826111394,9780826111395",,,,,616.85/822,RC569.5.C55 A53 2009,,,OL23687536M,,0,,,,0,0,1,1,1161832,pdf,B17D7BE2E6D55A219A8B704C59C95AE8,,,D:\\!genesis\\library.nu\\b1\\_113671.b17d7be2e6d55a219a8b704c59c95ae8.pdf,0,2000-01-01 01:00:00,2016-04-03 02:51:08,504000/b17d7be2e6d55a219a8b704c59c95ae8-d.jpg,,
19523818,"Digital Economy: Impacts, Influences and Challenges",,,,"Harbhajan S. Kehal, Varinder P. Singh",2004,,,,425,0,English,,,до 2011-01,"1591403642,9781591403647,1591403634,9781591403630",,,,,,,,,OL17130332M,,0,,,,0,0,,0,5364326,pdf,B1BEC07A08AC68F90ED35C0CFA7125E3,,,D:\\!genesis\\library.nu\\b1\\_113521.b1bec07a08ac68f90ed35c0cfa7125e3.pdf,0,2000-01-01 01:00:00,2016-04-03 02:51:08,504000/b1bec07a08ac68f90ed35c0cfa7125e3-d.jpg,,
19523819,Business Vocabulary in Use Elementary (Vocabulary in Use),,,,Bill Mascull,2006,,,,138,0,English,322,,до 2011-01,"0521606217,9780521606219",,,,,,,,,OL7748220M,,0,,,,,1,,0,24378829,pdf,B1CB57B3944E511DDE9B6CA35FA682FF,,,D:\\!genesis\\library.nu\\b1\\_11337.b1cb57b3944e511dde9b6ca35fa682ff.pdf,0,2000-01-01 01:00:00,2016-04-03 02:51:08,504000/b1cb57b3944e511dde9b6ca35fa682ff-d.jpg,,
19523820,The Man Who Lost His Language: A Case of Aphasia,,,,Sheila Hale,2007,1 Revised,,,269,0,English,314,,до 2011-01,"1843105640,9781843105640,9781435602687",,,,,"362.196/85520092,B",RC425 .H336 2007,,,OL17845616M,,0,,,,,1,1,1,2105135,pdf,B1236F2C96BE74E657CC796ABBB3F0FC,,,D:\\!genesis\\library.nu\\b1\\_112999.b1236f2c96be74e657cc796abbb3f0fc.pdf,0,2000-01-01 01:00:00,2016-04-03 02:51:08,504000/b1236f2c96be74e657cc796abbb3f0fc-d.jpg,,
19523821,Sensory Mechanisms.,,,,Y. Zotterman,1966,,,,225,0,English,,,до 2011-01,044440659X,,,,,,,,,,,0,,,,,1,,1,9169564,pdf,B129E2396D1FF1DEE378BE7365BA9EB2,,,D:\\!genesis\\library.nu\\b1\\_112935.b129e2396d1ff1dee378be7365ba9eb2.pdf,0,2000-01-01 01:00:00,2016-04-03 02:51:08,504000/b129e2396d1ff1dee378be7365ba9eb2-d.jpg,,
19523822,Taiwan's Environmental Struggle: Green Silicon Island (Routledge Contemporary Asia Series),,,,Jack Williams,2008,,,,225,0,English,31,,до 2011-01,"9780415447232,0415447232,9780203928929",,,,,333.72095124/9,HC430.5.Z9 E59 2008,,,OL10207019M,,0,,,,,1,1,1,1998848,pdf,B12D0DF405E14233B455E60244578EF6,,,D:\\!genesis\\library.nu\\b1\\_112616.b12d0df405e14233b455e60244578ef6.pdf,0,2000-01-01 01:00:00,2016-04-03 02:51:08,504000/b12d0df405e14233b455e60244578ef6-d.jpg,,
19523823,The Pre-Emptive Empire: A Guide to Bush's Kingdom,,,,Saul Landau,2003,,,,182,0,English,,,до 2011-01,"0745321402,9780745321400",,,,,973.931,E902 .L36 2003,,,OL22553438M,,0,,,,,1,,1,1206943,pdf,B1BF80530B3E87205510563DBFF2D534,,,D:\\!genesis\\library.nu\\b1\\_11217.b1bf80530b3e87205510563dbff2d534.pdf,0,2000-01-01 01:00:00,2016-04-03 02:51:08,504000/b1bf80530b3e87205510563dbff2d534-d.jpg,,
19523824,Do It Yourself: A Handbook for Changing Our World,,,,"Kim Bryan, Paul Chatterton, Alice Cutler",2007,,,,320,0,English,,,до 2011-01,"0745326382,9780745326382,0745326374,9780745326375",,,,,363.7,GE195 .D6 2007,,,OL10729372M,,0,,,,,1,,1,7672236,pdf,B1126EDBB575D46970E50FBBF11B1A30,,,D:\\!genesis\\library.nu\\b1\\_11164.b1126edbb575d46970e50fbbf11b1a30.pdf,0,2000-01-01 01:00:00,2016-04-03 02:51:08,504000/b1126edbb575d46970e50fbbf11b1a30-d.jpg,,
19523825,,,Advances in Inorganic Chemistry 32,,A.G. Sykes (Eds.),1988,,"Elsevier, Academic Press",,"ii-ix, 1-406",0,English,296,,до 2011-01,978-0-12-023632-9,0898-8838,,,,,,,,OL10070420M,,0,,,,,1,,1,18209692,pdf,B1A13D1F8B356D75E0062DFB71F7F385,,,D:\\!genesis\\library.nu\\b1\\_111589.b1a13d1f8b356d75e0062dfb71f7f385.pdf,0,2000-01-01 01:00:00,2016-04-03 02:51:08,504000/b1a13d1f8b356d75e0062dfb71f7f385-d.jpg,,
19523826,Einfuhrung in die Analysis dynamischer Systeme (Springer-Lehrbuch),,,,Manfred Denker,2004,1,,,285,0,German,117,,до 2011-01,"3540207139,9783540207139",,,,,,,,,OL9627094M,,0,,,,,1,,1,3288290,pdf,B1C825C80D3A268614B0B5FDA46F4C27,,,D:\\!genesis\\library.nu\\b1\\_110823.b1c825c80d3a268614b0b5fda46f4c27.pdf,0,2000-01-01 01:00:00,2016-04-03 02:51:08,504000/b1c825c80d3a268614b0b5fda46f4c27-d.jpg,,
19523827,Mackenzie's Mountain,,Mackenzie Family Saga 1,,Linda Howard,2000,,,,256,0,English,,,до 2011-01,"1551665743,9781551665740",,,,,,,,,OL24370370M,,0,,,,,1,,1,444437,pdf,B133B64B2FE7FA72556CA2B43AB21F75,,,D:\\!genesis\\library.nu\\b1\\_110789.b133b64b2fe7fa72556ca2b43ab21f75.pdf,0,2000-01-01 01:00:00,2016-04-03 02:51:08,504000/b133b64b2fe7fa72556ca2b43ab21f75-d.jpg,,
19523828,Art as Abstract Machine: Ontology and Aesthetics in Deleuze and Guattari (Studies Inphilosophy),,Studies in Philosophy,,Stephen Zepke,2005,,Taylor & Francis,,158,0,English,210,,до 2011-01,"0415971551,9780415971553",,,,,128/.6/092,B3199.A34 L45 2004,,iN1JqaCny_cC,OL3296297M,,0,,,,0,1,,1,5840329,pdf,B1655C76616AF6F1A1437CDE918DC688,,,D:\\!genesis\\library.nu\\b1\\_110616.b1655c76616af6f1a1437cde918dc688.pdf,0,2000-01-01 01:00:00,2016-04-03 02:51:08,504000/b1655c76616af6f1a1437cde918dc688-d.jpg,,
19523829,"Flavor Physics and the TeV Scale (Springer Tracts in Modern Physics, 233)",,,,George W. S. Hou,2009,1,,,151,0,English,132,,до 2011-01,"3540927913,9783540927914",,,,,,,10.1007 978-3-540-92792-1,,,,0,,,,0,0,1,1,1880320,pdf,B1C0C6C058D3345D5ED6AF4DEC050ECF,,,D:\\!genesis\\library.nu\\b1\\_110600.b1c0c6c058d3345d5ed6af4dec050ecf.pdf,0,2000-01-01 01:00:00,2016-04-03 02:51:08,504000/b1c0c6c058d3345d5ed6af4dec050ecf-d.jpg,,
19523830,Calvin,,,,Bruce Gordon,2009,,,,416,0,English,,,до 2011-01,"0300120761,9780300120769",,,,,"284/.2092,B",BX9418 .G63 2009,,,OL22672051M,,0,,,,1,0,1,1,13455759,pdf,B17E085B6D5970F193AC4D5FDDCF0C70,,,D:\\!genesis\\library.nu\\b1\\_110414.b17e085b6d5970f193ac4d5fddcf0c70.pdf,0,2000-01-01 01:00:00,2016-04-03 02:51:08,504000/b17e085b6d5970f193ac4d5fddcf0c70-d.jpg,,
19523831,Eight Centuries of Troubadours and Trouveres: The Changing Identity of Medieval Music (Musical Performance and Reception),,,,John Haines,2004,,,,360,0,English,62,,до 2011-01,"0521826721,9780521826723,9780511215759",,,,,782.430902,,,,OL22590810M,,0,,,,,1,,1,19102925,pdf,B1C6B4CE6C3E5CCBCD1BFC0E0A23E17E,,,D:\\!genesis\\library.nu\\b1\\_11012.b1c6b4ce6c3e5ccbcd1bfc0e0a23e17e.pdf,0,2000-01-01 01:00:00,2016-04-03 02:51:08,504000/b1c6b4ce6c3e5ccbcd1bfc0e0a23e17e-d.jpg,,
19523832,Aptavani 1,,,,Dada Bhagwan,2005,,,,164,0,English,,,до 2011-01,"8189725203,9788189725204",,,,,,,,,,,0,,,,,1,,1,613795,pdf,B1A5179B9444102A041B42E596CD5DF0,,,D:\\!genesis\\library.nu\\b1\\_109732.b1a5179b9444102a041b42e596cd5df0.pdf,0,2000-01-01 01:00:00,2016-04-03 02:51:08,504000/b1a5179b9444102a041b42e596cd5df0-d.jpg,,
19523833,"An Encyclopaedia of Occultism: A Compendium of Information on the Occult Sciences, Occult Personalities, Psychic Science, Magic, Demonology, Spiritism and Mysticism",,,,Lewis Spence,1920,,,,3,0,English,137,,до 2011-01,,,B00086NY5Y,,,,,,,,,0,,,,,1,,0,164981073,pdf,B1BF7E696869F2332938856A0163794F,,,D:\\!genesis\\library.nu\\b1\\_109363.b1bf7e696869f2332938856a0163794f.pdf,0,2000-01-01 01:00:00,2016-04-03 02:51:08,504000/b1bf7e696869f2332938856a0163794f-g.jpg,,
19523834,Dagon,,,,Fred Chappell,2009,,,,140,0,English,,,до 2011-01,"0917990943,9780917990946,0807127914,9780807127919,0312906765,9780312906764",,B0006BQXM2,,,813/.54,PS3553.H298 D34 2002,,,OL3954943M,,0,,,,,1,,1,810091,pdf,B105BBE9D7310B5FDC8CF571AB733A17,,,D:\\!genesis\\library.nu\\b1\\_109266.b105bbe9d7310b5fdc8cf571ab733a17.pdf,0,2000-01-01 01:00:00,2016-04-03 02:51:08,504000/b105bbe9d7310b5fdc8cf571ab733a17-d.jpg,,
19523835,A Guide to Accounting Zakah,,,,"Husayn Husayn Shihata, Abd Al-Sattar Abu Ghuddah",,,,,98,0,English,2,,до 2011-01,"9789775813381,9775813387",,,,,,,,,,,0,,,,,1,,0,2058256,pdf,B10208A52F674E68F80278FEFC6C4909,,,D:\\!genesis\\library.nu\\b1\\_109260.b10208a52f674e68f80278fefc6c4909.pdf,0,2000-01-01 01:00:00,2016-04-03 02:51:08,504000/b10208a52f674e68f80278fefc6c4909-g.jpg,,
19523836,"The Micronauts, Book 2",,,,Steve Lyons,2003,,,,288,0,English,,,до 2011-01,"074347466X,9780743474665,1591762626",,,,,,,,,OL24323553M,,0,,,,,1,,1,896645,pdf,B13442D8A0A6E7DF570AB980688A1D7B,,,D:\\!genesis\\library.nu\\b1\\_108917.b13442d8a0a6e7df570ab980688a1d7b.pdf,0,2000-01-01 01:00:00,2016-04-03 02:51:08,504000/b13442d8a0a6e7df570ab980688a1d7b-d.jpg,,
19523837,Legal Fictions,,,,Lon L. Fuller,1970,,,,158,0,English,,,до 2011-01,"0804703272,9780804703277,0804703280,9780804703284",,B0006BQN7C,,,,,,,OL9564161M,,0,,,,,1,,0,10174525,pdf,B1808B6D746544959DB4D5880F4C0C55,,,D:\\!genesis\\library.nu\\b1\\_108813.b1808b6d746544959db4d5880f4c0c55.pdf,0,2000-01-01 01:00:00,2016-04-03 02:51:08,504000/b1808b6d746544959db4d5880f4c0c55-g.jpg,,
19523838,Near Polygons (Frontiers in Mathematics),,,,Bart Bruyn,2006,1,,,268,0,English,113,,до 2011-01,"9783764375522,3764375523",,,,,,,,FFbMKkdUEAIC,OL9091067M,,0,,,,0,0,1,1,1740737,pdf,B17A013E80F2DBA9C4142188CA6CF573,,,D:\\!genesis\\library.nu\\b1\\_107906.b17a013e80f2dba9c4142188ca6cf573.pdf,0,2000-01-01 01:00:00,2016-04-03 02:51:08,504000/b17a013e80f2dba9c4142188ca6cf573-d.jpg,,
19523839,Activating Vocabulary: No. 1,,,,"Mark Fletcher, Richard G.A. Munns",2000,,,,26,0,English,322,,до 2011-01,"1898295662,9781898295662",,,,,,,,,OL12247821M,,0,,,,,1,1,1,1459162,pdf,B1F391F2E0CD7BF470EBD01FACD7A5FC,,,D:\\!genesis\\library.nu\\b1\\_107309.b1f391f2e0cd7bf470ebd01facd7a5fc.pdf,0,2000-01-01 01:00:00,2016-04-03 02:51:08,504000/b1f391f2e0cd7bf470ebd01facd7a5fc-d.jpg,,
19523840,Chemical History: Reviews of the Recent Literature,,,,"Colin A. Russell, Gerrylynn K. Roberts",2005,1,,,260,0,English,296,,до 2011-01,"9780854044641,0854044647",,,,,,,,,OL18209600M,,0,,,,,1,,1,1218130,pdf,B1604EBB3B671C553EA22A5C150BA564,,,D:\\!genesis\\library.nu\\b1\\_106969.b1604ebb3b671c553ea22a5c150ba564.pdf,0,2000-01-01 01:00:00,2016-04-03 02:51:08,504000/b1604ebb3b671c553ea22a5c150ba564-d.jpg,,
19523841,Microsoft SQL Server 2008 MDX Step by Step (Step By Step (Microsoft)),,,,"Bryan C. Smith, C. Ryan Clay, Hitachi Consulting",2009,Pap/Cdr,,,389,0,English,101,,до 2011-01,"9780735626188,0735626189",,,,,,,,,,,0,,,,1,0,,1,7945271,pdf,B11384F870D7B90EB8C67A4AB7D9B49E,,,D:\\!genesis\\library.nu\\b1\\_105854.b11384f870d7b90eb8c67a4ab7d9b49e.pdf,0,2000-01-01 01:00:00,2016-04-03 02:51:08,504000/b11384f870d7b90eb8c67a4ab7d9b49e-d.jpg,,
19523842,Alfred Doblin: Paradigms of Modernism,,,,Steffan Davies,2009,1,,,420,0,English,,,до 2011-01,"3110217694,9783110217698,0854572228,9780854572229",,,,,833/.912,PT2607.O35 Z57 2009,,,OL23736160M,,0,,,,1,0,1,1,2089244,pdf,B1F0EAEA51893D5F9EDBF4C06FDC605D,,,D:\\!genesis\\library.nu\\b1\\_105816.b1f0eaea51893d5f9edbf4c06fdc605d.pdf,0,2000-01-01 01:00:00,2016-04-03 02:51:08,504000/b1f0eaea51893d5f9edbf4c06fdc605d-d.jpg,,
19523843,The Stars Asunder (Mageworlds Book 6),,,,Debra Doyle James D. Macdonald,2000,,,,400,0,English,,,до 2011-01,"0812571924,9780812571929",,,,,,,,,OL9870807M,,0,,,,,1,1,1,1156800,pdf,B1014E0EC3E2FB4201A322A3EBC59AA6,,,D:\\!genesis\\library.nu\\b1\\_10511.b1014e0ec3e2fb4201a322a3ebc59aa6.pdf,0,2000-01-01 01:00:00,2016-04-03 02:51:08,504000/b1014e0ec3e2fb4201a322a3ebc59aa6-d.jpg,,
19523844,Media Theory: Interdisciplinary Applied Mathematics,,,,"David Eppstein, Jean-Claude Falmagne, Sergei Ovchinnikov",2007,1,,,330,0,English,113,,до 2011-01,"3540716963,9783540716969",,,,,,,10.1007 978-3-540-71697-6,,OL17072216M,,0,,,,1,0,1,1,1949245,pdf,B118E7A13C2F93BBB4170980C713CAD5,,,D:\\!genesis\\library.nu\\b1\\_104839.b118e7a13c2f93bbb4170980c713cad5.pdf,0,2000-01-01 01:00:00,2016-04-03 02:51:08,504000/b118e7a13c2f93bbb4170980c713cad5-d.jpg,,
19523845,G Protein-Coupled Receptors: Essential Methods,,,,"David Poyner, Mark Wheatley",2010,1,,,310,0,English,17,,до 2011-01,"0470749148,9780470749142,0470749229,9780470749227",,,,,612/.01575,QH603.C43 G67 2009,,,OL23687170M,,0,,,,,1,1,1,1978844,pdf,B16F71E1948CF29AB31AFD1B290E5FF7,,,D:\\!genesis\\library.nu\\b1\\_103710.b16f71e1948cf29ab31afd1b290e5ff7.pdf,0,2000-01-01 01:00:00,2016-04-03 02:51:08,504000/b16f71e1948cf29ab31afd1b290e5ff7-d.jpg,,
19523846,Incorporating Advances in Plant Pathology,,Advances in Botanical Research 41,,J. A. Callow (Eds.),2004,1,"Elsevier, Academic Press",,1-273,0,English,178,,до 2011-01,978-0-12-005941-6,0065-2296,,,,,,,,OL7324926M,,0,,,,,1,,1,3141499,pdf,B166CAECFBF02968370A134EBE5D5C3F,,,D:\\!genesis\\library.nu\\b1\\_102540.b166caecfbf02968370a134ebe5d5c3f.pdf,0,2000-01-01 01:00:00,2016-04-03 02:51:08,504000/b166caecfbf02968370a134ebe5d5c3f-d.jpg,,
19523847,The Mystic Experience: A Descriptive and Comparative Analysis,,,,Jordan D. Paper,2004,,,,184,0,English,137,,до 2011-01,"0791462501,9780791462508,0791462498,9780791462492,9781423740162",,,,,,,,,OL7803292M,,0,,,,1,0,1,1,512313,pdf,B1AD7C183D8B590F5601520C9A62A03D,,,D:\\!genesis\\library.nu\\b1\\_102060.b1ad7c183d8b590f5601520c9a62a03d.pdf,0,2000-01-01 01:00:00,2016-04-03 02:51:08,504000/b1ad7c183d8b590f5601520c9a62a03d-d.jpg,,
19523848,The History and Philosophy of Social Science: An Introduction,,,,Scott Gordon,1993,New edition,,,703,0,English,64,,до 2011-01,"9780203423226,9780415096706,0415096707,9780415056823,0415056829,0203423224",,,,,300.9,H51,,,OL21394661M,,0,,,,1,0,1,1,1763848,pdf,B1B38821CEAF51626AA8B0BD230B9881,,,D:\\!genesis\\library.nu\\b1\\_101927.b1b38821ceaf51626aa8b0bd230b9881.pdf,0,2000-01-01 01:00:00,2016-04-03 02:51:08,504000/b1b38821ceaf51626aa8b0bd230b9881-d.jpg,,
19523849,Groundwork for the Metaphysics of Morals,,,,"Christoph Horn, Dieter Schonecker, Corinna Mieth",2006,New edition,,,357,0,English,132,,до 2011-01,"3110177072,9783110177077",,,,,,,,,OL22738483M,,0,,,,1,0,1,1,4633368,pdf,B1CDE32454D14B043659C313587F5C6B,,,D:\\!genesis\\library.nu\\b1\\_101798.b1cde32454d14b043659c313587f5c6b.pdf,0,2000-01-01 01:00:00,2016-04-03 02:51:08,504000/b1cde32454d14b043659c313587f5c6b-d.jpg,,
19523850,Pythagoras Revived: Mathematics and Philosophy in Late Antiquity (Clarendon Paperbacks),,,,Dominic J. O'Meara,1991,,,,264,0,English,113,,до 2011-01,"9780198239130,9780198244851,0198239130,0198244851,9780191519802",,,,,119/.09/015,B243 .O46 1989,,,OL2047988M,,0,,,,1,0,1,1,1971020,pdf,B1EE2F47C1A5D275F67B53A6AB930C28,,,D:\\!genesis\\library.nu\\b1\\_101680.b1ee2f47c1a5d275f67b53a6ab930c28.pdf,0,2000-01-01 01:00:00,2016-04-03 02:51:08,504000/b1ee2f47c1a5d275f67b53a6ab930c28-d.jpg,,
19523851,IronRuby Unleashed,,,,Shay Friedman,2010,1,,,548,0,English,92,,до 2011-01,"0672330784,9780672330780",,,,,006.7/882,QA76.73.I586 F74 2010,,,OL23988754M,,0,,,,1,0,1,1,3977472,pdf,B19E05E7F35BF1D7F1BCF195306A5DE6,,,D:\\!genesis\\library.nu\\b1\\_101380.b19e05e7f35bf1d7f1bcf195306a5de6.pdf,0,2000-01-01 01:00:00,2016-04-03 02:51:08,504000/b19e05e7f35bf1d7f1bcf195306a5de6-d.jpg,,
19523852,The Death of Fashion: The Passage Rite of Fashion in the Show Window,,,,"Harald Grundl, EOOS",2007,1,,,275,0,English,,,до 2011-01,"3211498540,9783211498545",,,,,659.19391,HF6161.C44 G79 2007,,,OL17988931M,,0,,,,0,0,,1,1269897,pdf,B19BB2C487BD0921D909725100FAEC59,,,D:\\!genesis\\library.nu\\b1\\_101218.b19bb2c487bd0921d909725100faec59.pdf,0,2000-01-01 01:00:00,2016-04-03 02:51:08,504000/b19bb2c487bd0921d909725100faec59-d.jpg,,
19523853,Tensors: The Mathematics of Relativity Theory and Continuum Mechanics,,,,Anadi Jiban Das,2007,1,,,300,0,English,113,,до 2011-01,"9780387694689,0387694684",,,,,515.63,QA200 .D37 2007,,,OL18007677M,,0,,,,1,0,1,1,1657448,pdf,B1020B7B59EF153C2E269A954B6950BB,,,D:\\!genesis\\library.nu\\b1\\_100148.b1020b7b59ef153c2e269a954b6950bb.pdf,0,2000-01-01 01:00:00,2016-04-03 02:51:08,504000/b1020b7b59ef153c2e269a954b6950bb-d.jpg,,
19523854,Real-Variable Methods in Harmonic Analysis (Pure and Applied Mathematics),,,,Alberto Torchinsky,1986,,,,475,0,English,113,,до 2011-01,"9780126954609,0126954607,0126954615,9780126954616,9780080874425",,,,,"510 s,515/.2433","QA3 .P8 vol. 123,QA403 .P8 vol. 123",,,OL2708527M,,0,,,,0,0,,1,23413204,pdf,B0AF6BA67B55D033D701D822C6198930,,,D:\\!genesis\\library.nu\\b0\\_99629.b0af6ba67b55d033d701d822c6198930.pdf,0,2000-01-01 01:00:00,2016-04-03 02:51:08,504000/b0af6ba67b55d033d701d822c6198930-d.jpg,,
19523855,Webster's Chinese Traditional to English Crossword Puzzles: Level 4,,,,Philip M. Parker,2006,Bilingual,,,116,0,English,314,,до 2011-01,"049725378X,9780497253783,9781423770015",,,,,,,,,OL10370167M,,0,,,,,1,,1,1197614,pdf,B086E226734B20B323D6B96580118D4A,,,D:\\!genesis\\library.nu\\b0\\_99412.b086e226734b20b323d6b96580118d4a.pdf,0,2000-01-01 01:00:00,2016-04-03 02:51:08,504000/b086e226734b20b323d6b96580118d4a-d.jpg,,
19523856,Modules over Operads and Functors (Lecture Notes in Mathematics),,Lecture Notes in Mathematics 1967,,Benoit Fresse,2009,1,,,289,0,English,113,,до 2011-01,"3540890556,9783540890553",,,,,,,10.1007/978-3-540-89056-0,,,,0,,,,0,0,,1,2829645,pdf,B0299A41C515C0983762A3CF2D15FDDC,,,D:\\!genesis\\library.nu\\b0\\_99140.b0299a41c515c0983762a3cf2d15fddc.pdf,0,2000-01-01 01:00:00,2016-04-03 02:51:08,504000/b0299a41c515c0983762a3cf2d15fddc-d.jpg,,
19523857,"The Theban Plays: Oedipus the King, Oedipus at Colonus, Antigone (Johns Hopkins New Translations from Antiquity)",,,,"Sophocles, Ruth Fainlight (Translator), Robert J. Littman (Translator)",2009,,,,284,0,English,64,,до 2011-01,"0801891337,9780801891335,0801891345,9780801891342",,,,,880,PA4414.A2 F33  2008,,,OL16873703M,,0,,,,,1,1,1,646183,pdf,B077B0A2BCFDC9F5987B74AE2E1A8CF6,,,D:\\!genesis\\library.nu\\b0\\_99035.b077b0a2bcfdc9f5987b74ae2e1a8cf6.pdf,0,2000-01-01 01:00:00,2016-04-03 02:51:08,504000/b077b0a2bcfdc9f5987b74ae2e1a8cf6-d.jpg,,
19523858,Osez le bondage,,,,Axterdam,2005,Osez...,La Musardine,,129,0,French,,,до 2011-01,"284271279X,9782842712792",,,,,,,,,,,0,,,,0,1,,0,15243211,pdf,B02096F32DED89436B22E99685914F6B,,,D:/!genesis/library.nu/b0/_98823.b02096f32ded89436b22e99685914f6b.pdf,0,2000-01-01 01:00:00,2016-04-03 02:51:08,504000/b02096f32ded89436b22e99685914f6b-d.jpg,,
19523859,"Analysis of Radome-Enclosed Antennas, Second Revised Edition",,,,Dennis J. Kozakoff,2009,2,,,294,0,English,305,,до 2011-01,"1596934417,9781596934412",,,,,,,,,,,0,,,,,1,1,1,5663646,pdf,B0E0A0E45E3292A7AB93BAD25C54E680,,,D:\\!genesis\\library.nu\\b0\\_98576.b0e0a0e45e3292a7ab93bad25c54e680.pdf,0,2000-01-01 01:00:00,2016-04-03 02:51:08,504000/b0e0a0e45e3292a7ab93bad25c54e680-d.jpg,,
19523860,"Implementing Quality in Laboratory Policies and Processes: Using Templates, Project Management, and Six Sigma",,,,"Donnell R. Christian  Jr., Stephanie Drilling",2009,1,,,1432,0,English,7,,до 2011-01,"1420073044,9781420073041",,,,,363.25068/4,HV8073 .C533 2010,,,OL11817318M,,0,,,,,1,,1,14437781,pdf,B09B8F26385645AB022B6D2203224D61,,,D:\\!genesis\\library.nu\\b0\\_95671.b09b8f26385645ab022b6d2203224d61.pdf,0,2000-01-01 01:00:00,2016-04-03 02:51:08,504000/b09b8f26385645ab022b6d2203224d61-d.jpg,,
19523861,Statistical Methods for Food Science: Introductory procedures for the food practitioner,,,,John Bower,2009,1,,,320,0,English,,,до 2011-01,"1405167645,9781405167642",,,,,664/.0072,TX367 .B688 2009,,,OL17051894M,,0,,,,,1,1,1,2709740,pdf,B04CCD6B383EB925BB5F193D48AD1535,,,D:\\!genesis\\library.nu\\b0\\_95571.b04ccd6b383eb925bb5f193d48ad1535.pdf,0,2000-01-01 01:00:00,2016-04-03 02:51:08,504000/b04ccd6b383eb925bb5f193d48ad1535-d.jpg,,
19523862,Innovations in Distribution Logistics (Lecture Notes in Economics and Mathematical Systems),,Lecture Notes in Economics and Mathematical Systems 619,,"Luca Bertazzi, M. Grazia Speranza, Jo A.E.E.van Nunen",2009,1,,,285,0,English,305,,до 2011-01,"3540929436,9783540929437,9783540929444",,,,,,,10.1007/978-3-540-92944-4,,,,0,,,,0,0,,1,5678647,pdf,B04EE1DB346FBB4ADFA2E4B3698074F9,,,D:\\!genesis\\library.nu\\b0\\_93205.b04ee1db346fbb4adfa2e4b3698074f9.pdf,0,2000-01-01 01:00:00,2016-04-03 02:51:08,504000/b04ee1db346fbb4adfa2e4b3698074f9-d.jpg,,
19523863,Sentences Undecidable in Formalized Arithmetic,,Studies in Logic and the Foundations of Mathematics 10,,Andrzej Mostowski,1952,,North-Holland Publishing Company,,120,0,English,183,,до 2011-01,"0720422205,9780720422207",0049-237X,,,,,,,EQlqRAAACAAJ,,,0,,,,0,1,,1,4699465,pdf,B0F49F984673EB355E160EF28BCF0758,,,D:\\!genesis\\library.nu\\b0\\_8630.b0f49f984673eb355e160ef28bcf0758.pdf,0,2000-01-01 01:00:00,2016-04-03 02:51:08,504000/b0f49f984673eb355e160ef28bcf0758-g.jpg,,
19523864,J.S. Bach: A Life in Music,,,,Peter Williams,2007,,,,418,0,English,62,,до 2011-01,"0521870747,9780521870740,9780511279003",,,,,,,,,OL22746091M,,0,,,,,1,,1,4488269,pdf,B0CD2B35868C115C89188474330792B5,,,D:\\!genesis\\library.nu\\b0\\_8382.b0cd2b35868c115c89188474330792b5.pdf,0,2000-01-01 01:00:00,2016-04-03 02:51:08,504000/b0cd2b35868c115c89188474330792b5-d.jpg,,
19523865,David Busch's Pentax K200D Guide to Digital SLR Photography,,,,"David D. Busch, Matthew Bamberg",2009,1,,,344,0,English,59,,до 2011-01,"1598638025,9781598638028",,,,,775,TR263.P4 B879 2009,,,OL24418548M,,0,,,,,1,,1,14124773,pdf,B066DE2E270624374EA9F4380CBAA5D6,,,D:\\!genesis\\library.nu\\b0\\_83346.b066de2e270624374ea9f4380cbaa5d6.pdf,0,2000-01-01 01:00:00,2016-04-03 02:51:08,504000/b066de2e270624374ea9f4380cbaa5d6-d.jpg,,
19523866,The Social Validity Manual: A Guide to Subjective Evaluation of Behavior Interventions,,,,Stacy L. Carter,2009,1,,,312,0,English,189,,до 2011-01,"0123748976,9780123748973",,,,,,,,,,,0,,,,,1,,1,1185979,pdf,B0C1B0484D6EF7E18E5FCC37BD2C7AA7,,,D:\\!genesis\\library.nu\\b0\\_83040.b0c1b0484d6ef7e18e5fcc37bd2c7aa7.pdf,0,2000-01-01 01:00:00,2016-04-03 02:51:08,504000/b0c1b0484d6ef7e18e5fcc37bd2c7aa7-d.jpg,,
19523867,From Manager to Visionary: The Secretary-General of the United Nations,,,,Kent Kille,2006,First Edition,,,320,0,English,,,до 2011-01,"1403971048,9781403971043",,,,,,,,,OL22754941M,,0,,,,1,0,1,1,1274354,pdf,B0254BDEDBED1C29B837BD20B79FED84,,,D:\\!genesis\\library.nu\\b0\\_80080.b0254bdedbed1c29b837bd20b79fed84.pdf,0,2000-01-01 01:00:00,2016-04-03 02:51:08,504000/b0254bdedbed1c29b837bd20b79fed84-d.jpg,,
19523868,Building a Trustworthy State in Post-Socialist Transition (Political Evolution and Institutional Change),,,,"Janos Kornai, Susan Rose-Ackerman",2004,First Edition,,,256,0,English,,,до 2011-01,"1403964483,9781403964489,9781403981103",,,,,320.947,JN96.A58 B84 2004,,,OL22593724M,,0,,,,1,0,1,1,1164463,pdf,B03868EC11487F3AC38DD6408959D04A,,,D:\\!genesis\\library.nu\\b0\\_79977.b03868ec11487f3ac38dd6408959d04a.pdf,0,2000-01-01 01:00:00,2016-04-03 02:51:08,504000/b03868ec11487f3ac38dd6408959d04a-d.jpg,,
19523869,"The Strategic Use of Referendums: Power, Legitimacy, and Democracy",,,,Mark Clarence Walker,2003,1,,,166,0,English,,,до 2011-01,"1403962634,9781403962638,9781403973771",,,,,,,,,OL9801214M,,0,,,,1,0,,1,786536,pdf,B0AD14EA700C0036AF69AD5942E3462F,,,D:\\!genesis\\library.nu\\b0\\_79671.b0ad14ea700c0036af69ad5942e3462f.pdf,0,2000-01-01 01:00:00,2016-04-03 02:51:08,504000/b0ad14ea700c0036af69ad5942e3462f-d.jpg,,
19523870,Europeanization and Regionalization in the EU's Enlargement: The Myth of Conditionality (One Europe Or Several),,,,"James Hughes, Gwendolyn Sasse, Claire Gordon",2005,,,,248,0,English,,,до 2011-01,"140393987X,9781403939876,9780230503182",,,,,,,,,OL17147727M,,0,,,,1,0,1,1,1603303,pdf,B081ECE28488E45889772D8B38E57F3D,,,D:\\!genesis\\library.nu\\b0\\_79315.b081ece28488e45889772d8b38e57f3d.pdf,0,2000-01-01 01:00:00,2016-04-03 02:51:08,504000/b081ece28488e45889772d8b38e57f3d-d.jpg,,
19523871,Weapons of Mass Destruction: Prospects for Proliferation,,,,Edward M. Spiers,2000,,,,240,0,English,215,,до 2011-01,"0333739388,9780333739389,9780333983737",,,,,,,,,,,0,,,,1,0,1,1,835093,pdf,B060FAA9BB642CC8EF6931D03EE91165,,,D:\\!genesis\\library.nu\\b0\\_78006.b060faa9bb642cc8ef6931d03ee91165.pdf,0,2000-01-01 01:00:00,2016-04-03 02:51:08,504000/b060faa9bb642cc8ef6931d03ee91165-d.jpg,,
19523872,"Race in Mind: Race, IQ, and Other Racisms",,,,Alexander Alland,2002,1st,,,224,0,English,,,до 2011-01,"031223838X,9780312238384,9781403978912",,,,,,,,,OL9413028M,,0,,,,1,0,,1,755719,pdf,B004FD80E4497311E1D4307BAB8103DA,,,D:\\!genesis\\library.nu\\b0\\_77435.b004fd80e4497311e1d4307bab8103da.pdf,0,2000-01-01 01:00:00,2016-04-03 02:51:08,504000/b004fd80e4497311e1d4307bab8103da-d.jpg,,
19523873,Imagination and Principles: An Essay on the Role of Imagination in Moral Reasoning,,,,Mark Coeckelbergh,2007,First Edition,,,256,0,English,,,до 2011-01,023055279X,,,,,,,,,OL10194634M,,0,,,,1,0,1,1,961884,pdf,B01A6069E635A58DCB908D2A2113804F,,,D:\\!genesis\\library.nu\\b0\\_77263.b01a6069e635a58dcb908d2a2113804f.pdf,0,2000-01-01 01:00:00,2016-04-03 02:51:08,504000/b01a6069e635a58dcb908d2a2113804f-d.jpg,,
19523874,Corruption and Development: The Anti-Corruption Campaigns (Palgrave Studies in Development),,,,Sarah Bracking,2008,First Edition,,,348,0,English,183,,до 2011-01,"0230525504,9780230525504,9780230590625",,,,,364.1/323091724,JF1525.C66 C675 2007,,,OL10194491M,,0,,,,1,0,1,1,1557464,pdf,B0C18B6155F1C7A40340CC1C94EE9FED,,,D:\\!genesis\\library.nu\\b0\\_77203.b0c18b6155f1c7a40340cc1c94ee9fed.pdf,0,2000-01-01 01:00:00,2016-04-03 02:51:08,504000/b0c18b6155f1c7a40340cc1c94ee9fed-d.jpg,,
19523875,"Seaweed Invasions: A Synthesis of Ecological, Economic and Legal Imperatives",,,,"Johnson, Craig R.",2008,1,,,144,0,English,305,,до 2011-01,"3110195348,9783110195347",,,,,363.7/8,QK570.2 .S42 2007,10.1515/B0T.2007.037,,OL16693012M,,0,,,,,1,1,1,2937631,pdf,B00129F6E3D2FD585012DED0CF1FB133,,,D:\\!genesis\\library.nu\\b0\\_76551.b00129f6e3d2fd585012ded0cf1fb133.pdf,0,2000-01-01 01:00:00,2016-04-03 02:51:08,504000/b00129f6e3d2fd585012ded0cf1fb133-d.jpg,,
19523876,Engineering for a Finite Planet: Sustainable Solutions by Buro Happold,,,,Peter Davey,2004,1,,,151,0,English,210,,до 2011-01,"3764372206,9783764372200,9783764381660",,,,,,,,,OL9090954M,,0,,,,,1,,1,13154222,pdf,B0D40055CB425C8FF7B5BC0A801DFF55,,,D:\\!genesis\\library.nu\\b0\\_76377.b0d40055cb425c8ff7b5bc0a801dff55.pdf,0,2000-01-01 01:00:00,2016-04-03 02:51:08,504000/b0d40055cb425c8ff7b5bc0a801dff55-d.jpg,,
19523877,Israelite Religion and Biblical Theology: Collected Essays (JSOT Supplement),,,,Patrick D. Miller,2000,,,,720,0,English,205,,до 2011-01,"9780567649744,9781841271422,184127142X",,,,,230/.041,BS1192.5 .M55 2000,,,OL3988843M,,0,,,,,1,1,1,38354805,pdf,B062A3B931FA241673F5AED49562ED2F,,,D:\\!genesis\\library.nu\\b0\\_76076.b062a3b931fa241673f5aed49562ed2f.pdf,0,2000-01-01 01:00:00,2016-04-03 02:51:08,504000/b062a3b931fa241673f5aed49562ed2f-d.jpg,,
19523878,"Material-Logistik: Modelle und Algorithmen fur die Produktionsplanung und -steuerung in Advanced Planning-Systemen, 6th edition",,,,Horst Tempelmeier,2005,"6., neu bearb. Aufl.",,,424,0,German,137,,до 2011-01,"9783540284253,3540284257,9783540284277",,,,,,,,,OL9596496M,,0,,,,,1,1,1,8719431,pdf,B0CEA35BF64B49E3CC088A9EA1867ED8,,,D:\\!genesis\\library.nu\\b0\\_75966.b0cea35bf64b49e3cc088a9ea1867ed8.pdf,0,2000-01-01 01:00:00,2016-04-03 02:51:08,504000/b0cea35bf64b49e3cc088a9ea1867ed8-d.jpg,,
19523879,Transforming British Government: Changing Roles and Relationships Volume 2 (Transforming Government),,,,"R.A.W. Rhodes, B. Pimlott",2000,,,,320,0,English,,,до 2011-01,"9780230512931,9780333752432,0333752430",,,,,,,,,OL10556386M,,0,,,,,1,1,1,3533494,pdf,B0E1B56C185135789181988CB6D52109,,,D:\\!genesis\\library.nu\\b0\\_75840.b0e1b56c185135789181988cb6d52109.pdf,0,2000-01-01 01:00:00,2016-04-03 02:51:08,504000/b0e1b56c185135789181988cb6d52109-d.jpg,,
19523880,"End-user Computing: Concepts, Methodologies, Tools and Applications",,,,Steve Clarke,2008,1,,,4780,0,English,137,,до 2011-01,"9781599049458,1599049457,9781599049465",,,,,004.01/9,QA76.9.E53 E44 2008,,,OL18500047M,,0,,,,,0,,1,30994071,pdf,B08E7412C1BEF0D0CFB3BADC773E5BED,,,D:\\!genesis\\library.nu\\b0\\_75231.b08e7412c1bef0d0cfb3badc773e5bed.pdf,0,2000-01-01 01:00:00,2016-04-03 02:51:08,504000/b08e7412c1bef0d0cfb3badc773e5bed-d.jpg,,
19523881,PHP Solutions: Dynamic Web Design Made Easy,,,,David Powers,2006,1,friends of ED,,237,0,English,92,,до 2011-01,"1590597311,9781590597316",,,,,,,,,,,0,,,,0,0,,1,9341600,pdf,B04AE81F021B0551FAB11DFBDE6F87BC,,,D:/!genesis/library.nu/b0/_74322.b04ae81f021b0551fab11dfbde6f87bc.pdf,0,2000-01-01 01:00:00,2016-04-03 02:51:08,504000/b04ae81f021b0551fab11dfbde6f87bc-d.jpg,,
19523882,"Developer's Digital Media Reference: New Tools, New Methods",,,,"Curtis Poole, Janette Bradley",2003,,,,530,0,English,87,,до 2011-01,"0240805011,9780240805016,9780080504100",,,,,,,,,OL9667704M,,0,,,,,0,,1,3978501,pdf,B0628151B7542D529EB9E21691CF49BD,,,D:\\!genesis\\library.nu\\b0\\_74158.b0628151b7542d529eb9e21691cf49bd.pdf,0,2000-01-01 01:00:00,2016-04-03 02:51:08,504000/b0628151b7542d529eb9e21691cf49bd-d.jpg,,
19523883,"Sound Engineer's Pocket Book, Second Edition",,,,Michael Talbot-Smith,2000,2,,,208,0,English,305,,до 2011-01,"0240516125,9780240516127,9780080517391",,,,,,,,,OL9523803M,,0,,,,,0,,1,2745097,pdf,B07A0B9310C3699130C377344E831273,,,D:\\!genesis\\library.nu\\b0\\_74109.b07a0b9310c3699130c377344e831273.pdf,0,2000-01-01 01:00:00,2016-04-03 02:51:08,504000/b07a0b9310c3699130c377344e831273-d.jpg,,
19523884,"Creating Powerful Radio: Getting, Keeping and Growing Audiences News, Talk, Information & Personality Broadcast, HD, Satellite & Internet",,,,Valerie Geller,2007,,,,368,0,English,256,,до 2011-01,"0240519280,9780240519289,9780080492599",,,,,384.54,PN1991.5 .G45 2007,,,OL17976300M,,0,,,,,0,,1,1788512,pdf,B09DFD569129DF4C2650E6F733C46D7B,,,D:\\!genesis\\library.nu\\b0\\_74078.b09dfd569129df4c2650e6f733c46d7b.pdf,0,2000-01-01 01:00:00,2016-04-03 02:51:08,504000/b09dfd569129df4c2650e6f733c46d7b-d.jpg,,
19523885,Trunk Music,,Harry Bosch 5,,Michael Connelly,1998,First Edition,,,546,0,English,62,,до 2011-01,"0312963297,0312941919,9780312941918,9780312963293",,,,,813/.54,PS3553.O51165 T78 1998,,,OL24951636M,,0,,,,,1,,1,7810101,pdf,B061C5D286357BFA05773B5A4CEEFD2E,,,D:\\!genesis\\library.nu\\b0\\_73869.b061c5d286357bfa05773b5a4ceefd2e.pdf,0,2000-01-01 01:00:00,2016-04-03 02:51:08,504000/b061c5d286357bfa05773b5a4ceefd2e-d.jpg,,
19523886,"The Political Economy of Trust: Institutions, Interests, and Inter-Firm Cooperation in Italy and Germany (Cambridge Studies in Comparative Politics)",,,,Professor Henry Farrell,2009,1,Cambridge University Press,,256,0,English,183,,до 2011-01,"052188649X,9780521886499",,,,,338.8/70943,HD69.S8 F26 2009,,,,,0,,,,,1,1,1,2263022,pdf,B048E2923E0FA935317FEE01A2574821,,,D:/!genesis/library.nu/b0/_7328.b048e2923e0fa935317fee01a2574821.pdf,0,2000-01-01 01:00:00,2016-04-03 02:51:08,504000/b048e2923e0fa935317fee01a2574821-d.jpg,,
19523887,The Natural Way of Farming: The Theory and Practice of Green Philosophy,,,,"Masanobu Fukuoka, Frederic P. Metreaud",1985,1st,,,280,0,English,195,,до 2011-01,"0870406132,9780870406133",,,,,630,S604 .F82 1987,,,OL18353150M,,0,,,,,1,,1,8278626,pdf,B0B2FF16A8DB66E3F04D88C77ED07D47,,,D:\\!genesis\\library.nu\\b0\\_73056.b0b2ff16a8db66e3f04d88c77ed07d47.pdf,0,2000-01-01 01:00:00,2016-04-03 02:51:08,504000/b0b2ff16a8db66e3f04d88c77ed07d47-g.jpg,,
19523888,Professional Penetration Testing: Creating and Operating a Formal Hacking Lab,,,,Thomas Wilhelm,2009,Pap/Cdr,,,525,0,English,77,,до 2011-01,"1597494259,9781597494250",,,,,,,,,,,0,,,,0,0,1,1,9293933,pdf,B0C45C93441CF9D0D356F0F7747324A2,,,D:\\!genesis\\library.nu\\b0\\_72913.b0c45c93441cf9d0d356f0f7747324a2.pdf,0,2000-01-01 01:00:00,2016-04-03 02:51:08,504000/b0c45c93441cf9d0d356f0f7747324a2-d.jpg,,
19523889,Network Management SNMP (excerpts),,,,Regis Sbudd J. Bates,2002,,,,24,0,English,99,,до 2011-01,"9780071391832,0071391835",,,,,,,10.1036/0071346481.32,,,,0,,,,,1,,1,1139916,pdf,B0702436C10303DBA3ED428FCA265A92,,,D:\\!genesis\\library.nu\\b0\\_72892.b0702436c10303dba3ed428fca265a92.pdf,0,2000-01-01 01:00:00,2016-04-03 02:51:08,504000/b0702436c10303dba3ed428fca265a92-d.jpg,,
19523890,"Pediatric Neuropsychology, Second Edition: Research, Theory, and Practice (The Science and Practice of Neuropsychology)",,,,Robin L. Peterson,2009,Second Edition,,,559,0,English,305,,до 2011-01,"160623465X,9781606234655",,,,,618.92/8,RJ486.5 .P435 2010,,,OL23687406M,,0,,,,,0,,1,5309045,pdf,B099544E1225B3E155116465D006340D,,,D:\\!genesis\\library.nu\\b0\\_72790.b099544e1225b3e155116465d006340d.pdf,0,2000-01-01 01:00:00,2016-04-03 02:51:08,504000/b099544e1225b3e155116465d006340d-d.jpg,,
19523891,Public Vows: A History of Marriage and the Nation,,,,Nancy F. Cott,2002,,,,304,0,English,64,,до 2011-01,"0674008758,9780674029880,9780674008755,0674003209,9780674003200",,,,,,,,,OL23242220M,,0,,,,1,0,1,1,944859,pdf,B0B51235776B26F373356BB184328A96,,,D:\\!genesis\\library.nu\\b0\\_72466.b0b51235776b26f373356bb184328a96.pdf,0,2000-01-01 01:00:00,2016-04-03 02:51:08,504000/b0b51235776b26f373356bb184328a96-d.jpg,,
19523892,Statues in Roman Society: Representation and Response (Oxford Studies in Ancient Culture & Representation),,,,Peter Stewart,2004,,,,352,0,English,183,,до 2011-01,"0199240949,9780199240944,9781429469302",,,,,731.709376,,,,OL22576757M,,0,,,,,1,1,1,6150120,pdf,B0F4EE1FD464B8BDC2F3A91EB38D6E72,,,D:\\!genesis\\library.nu\\b0\\_72345.b0f4ee1fd464b8bdc2f3a91eb38d6e72.pdf,0,2000-01-01 01:00:00,2016-04-03 02:51:08,504000/b0f4ee1fd464b8bdc2f3a91eb38d6e72-d.jpg,,
19523893,Ethical Formation,,,,Professor Sabina Lovibond,2002,,,,224,0,English,,,до 2011-01,"067400650X,9780674006508,0674013654,9780674013650",,,,,,,,,OL7670589M,,0,,,,1,0,1,1,811172,pdf,B0162329E681206C6C31C72F4AD2CC6B,,,D:\\!genesis\\library.nu\\b0\\_71854.b0162329e681206c6c31c72f4ad2cc6b.pdf,0,2000-01-01 01:00:00,2016-04-03 02:51:08,504000/b0162329e681206c6c31c72f4ad2cc6b-d.jpg,,
19523894,"Power, Sex, Suicide: Mitochondria and the Meaning of Life",,,,Nick Lane,2005,1,,,368,0,English,201,,до 2011-01,"9780192804815,9780199205646,9781429421485,0192804812,0199205647",,B001CHNWCI,,,,,,,OL22709359M,,0,,,,,1,1,1,2965384,pdf,B0F2091BD14B928D5AC12C5504444990,,,D:\\!genesis\\library.nu\\b0\\_71617.b0f2091bd14b928d5ac12c5504444990.pdf,0,2000-01-01 01:00:00,2016-04-03 02:51:08,504000/b0f2091bd14b928d5ac12c5504444990-d.jpg,,
19523895,Classical Myth and Culture in the Cinema,,,,Martin M. Winkler,2001,,,,360,0,English,60,,до 2011-01,"0195130030,9780195130034,9781423738787",,,,,791.43/615,PN1995.9.M96 C59 2001,,,OL6792118M,,0,,,,,1,1,1,22478645,pdf,B0680157AB6A926C1FFA935182B17671,,,D:\\!genesis\\library.nu\\b0\\_71468.b0680157ab6a926c1ffa935182b17671.pdf,0,2000-01-01 01:00:00,2016-04-03 02:51:08,504000/b0680157ab6a926c1ffa935182b17671-d.jpg,,
19523896,Pocket Guide to Sainthood: The Field Manual for the Super-Virtuous Life,,,,Jason Boyett,2009,1,,,240,0,English,,,до 2011-01,"0470373105,9780470373101",,,,,270.092/2,BX4655.3 .B69 2009,,,OL23202864M,,0,,,,,1,,1,2800145,pdf,B06895962F9FE3C7F286F6CC1A13501E,,,D:\\!genesis\\library.nu\\b0\\_70888.b06895962f9fe3c7f286f6cc1a13501e.pdf,0,2000-01-01 01:00:00,2016-04-03 02:51:08,504000/b06895962f9fe3c7f286f6cc1a13501e-d.jpg,,
19523897,Sir Henry Maine: A Study in Victorian Jurisprudence (Cambridge Studies in English Legal History),,,,Raymond Cocks,1989,,,,231,0,English,64,,до 2011-01,"9780521353434,9780511558399,0521524962,0521353432,0511558392,9780521524964",,,,,"349.41,344.1",KD631.M28 C63 1988,,,OL2034238M,,300,,,,,1,,1,1482809,djvu,B0289A487A51348C4E558D018AE145D9,,,D:\\!genesis\\library.nu\\b0\\_70019.b0289a487a51348c4e558d018ae145d9.djvu,0,2000-01-01 01:00:00,2016-04-03 02:51:08,504000/b0289a487a51348c4e558d018ae145d9-d.jpg,,
19523898,Algebre commutative : Chapitres 1 a 4,,,,N. Bourbaki,2006,,,,362,0,French,114,,до 2011-01,"354033937X,9783540339762,9783540339373",,,,,,,,,OL12774053M,,0,,,,,1,,1,18104339,pdf,B069B54B32A0D0D33D5698180C677350,,,D:\\!genesis\\library.nu\\b0\\_68490.b069b54b32a0d0d33d5698180c677350.pdf,0,2000-01-01 01:00:00,2016-04-03 02:51:08,504000/b069b54b32a0d0d33d5698180c677350-d.jpg,,
19523899,Internalism and Externalism in Semantics and Epistemology,,,,Sanford C. Goldberg,2007,,,,280,0,English,,,до 2011-01,"9780191534676,9780199275755,0199275750",,,,,121/.4,BD238.I58 I58 2007,,,OL10146400M,,0,,,,,1,1,1,1595123,pdf,B025784BEF2306E9A3202ACC82FF43FC,,,D:\\!genesis\\library.nu\\b0\\_66729.b025784bef2306e9a3202acc82ff43fc.pdf,0,2000-01-01 01:00:00,2016-04-03 02:51:08,504000/b025784bef2306e9a3202acc82ff43fc-d.jpg,,
19523900,Information retrieval: a health and biomedical perspective,,Health informatics,,William Hersh,2008,3,Springer,,503,0,English,18,,до 2011-01,"0387955224, 9780387955223, 1441926976, 9781441926975, 9780387787039",,,,,610.285 22,R858 .H47 2009,,H3f9xsW0a_8C,,,0,,,,,1,1,1,4407148,pdf,B0212D067ED062B4B0BF648BA678EF60,,,D:/!genesis/library.nu/b0/_66446.b0212d067ed062b4b0bf648ba678ef60.pdf,0,2000-01-01 01:00:00,2016-04-03 02:51:08,504000/b0212d067ed062b4b0bf648ba678ef60-d.jpg,,
19523901,Liferay Portal 5.2 Systems Development,,,,Jonas X Yuan,2009,,,,552,0,English,,,до 2011-01,"1847194702,9781847194701",,,,,,,,,,,0,,,,,1,,1,9431748,pdf,B09FA6DD4E8F7689C7C712CBF3366D3D,,,D:\\!genesis\\library.nu\\b0\\_66431.b09fa6dd4e8f7689c7c712cbf3366d3d.pdf,0,2000-01-01 01:00:00,2016-04-03 02:51:08,504000/b09fa6dd4e8f7689c7c712cbf3366d3d-d.jpg,,
19523902,American Political Parties and Elections: A Very Short Introduction (Very Short Introductions),,,,L. Sandy Maisel,2007,,,,192,0,English,65,,до 2011-01,"9780195301229,9781435609563,0195301226",,,,,324.973,JK1965 .M34 2007,,,OL17566208M,,0,,,,,1,1,1,1510071,pdf,B0B067F80EBA9EFD586F94A44AA01F3B,,,D:\\!genesis\\library.nu\\b0\\_66052.b0b067f80eba9efd586f94a44aa01f3b.pdf,0,2000-01-01 01:00:00,2016-04-03 02:51:08,504000/b0b067f80eba9efd586f94a44aa01f3b-d.jpg,,
19523903,Macrojustice: The Political Economy of Fairness,,,,Serge-Christophe Kolm,2004,,,,544,0,English,,,до 2011-01,"0521835038,9780521835039,9780511082153",,,,,,,,,OL22614036M,,0,,,,,1,1,1,2441726,pdf,B01D2B1F0E6AFED562117E4B017CE507,,,D:\\!genesis\\library.nu\\b0\\_6580.b01d2b1f0e6afed562117e4b017ce507.pdf,0,2000-01-01 01:00:00,2016-04-03 02:51:08,504000/b01d2b1f0e6afed562117e4b017ce507-d.jpg,,
19523904,Introduction to European Union Law 2nd edition,,,,Walter Cairns,2001,2nd,,,392,0,English,313,,до 2011-01,"1859416799,9781859416792",,,,,341.2422,KJE947 .C34 2002,,,OL12045395M,,0,,,,,1,1,1,4345482,pdf,B0119C88D505030C15D98A7F10C0BA93,,,D:\\!genesis\\library.nu\\b0\\_65433.b0119c88d505030c15d98a7f10c0ba93.pdf,0,2000-01-01 01:00:00,2016-04-03 02:51:08,504000/b0119c88d505030c15d98a7f10c0ba93-d.jpg,,
19523905,New Rules for the New World: Cautionary Tales for the New World Manager,,,,Eddie Obeng,,,,,243,0,English,,,до 2011-01,"9780585176130,9781900961158,1900961156",,,,,,,,,OL8762691M,,0,,,,,1,1,1,1640266,pdf,B0C8797CF9C9D9C12110A63BD70723AC,,,D:\\!genesis\\library.nu\\b0\\_65416.b0c8797cf9c9d9c12110a63bd70723ac.pdf,0,2000-01-01 01:00:00,2016-04-03 02:51:08,504000/b0c8797cf9c9d9c12110a63bd70723ac-g.jpg,,
19523906,Get Great Information Fast,,,,"John Germov, Lauren Williams",2000,,,,176,0,English,,,до 2011-01,"1864485361,9781864485363",,,,,,,,,OL8647489M,,0,,,,,1,1,1,1770236,pdf,B093A924611AEBEBCAB464DF422FEF5B,,,D:\\!genesis\\library.nu\\b0\\_65351.b093a924611aebebcab464df422fef5b.pdf,0,2000-01-01 01:00:00,2016-04-03 02:51:08,504000/b093a924611aebebcab464df422fef5b-d.jpg,,
19523907,Principles of Public Law,,,,"Andrew Le Seur, Andrew Le Sueur, Paul Dobson, Nigel Gravells, Richard Kidner, Phillip Kenny",1999,2nd Revised edition,,,632,0,English,313,,до 2011-01,"1859413811,9781859413814",,,,,,,,,OL12045256M,,0,,,,,1,1,1,1668981,pdf,B079BFEA4742D6CA98E3DD62F8C2E1C9,,,D:\\!genesis\\library.nu\\b0\\_64781.b079bfea4742d6ca98e3dd62f8c2e1c9.pdf,0,2000-01-01 01:00:00,2016-04-03 02:51:08,504000/b079bfea4742d6ca98e3dd62f8c2e1c9-d.jpg,,
19523908,Selling and Sales Management,,,,"David Jobber, Geoffrey Lancaster",2009,8,,,546,0,English,,,до 2011-01,"0273720651,9780273720652",,,,,658.8/1,HF5438.25 .J63 2009,,,OL23148214M,,0,,,,,1,,1,5891971,pdf,B089DD059E98B82700ADE66BA5203D08,,,D:\\!genesis\\library.nu\\b0\\_64469.b089dd059e98b82700ade66ba5203d08.pdf,0,2000-01-01 01:00:00,2016-04-03 02:51:08,504000/b089dd059e98b82700ade66ba5203d08-d.jpg,,
19523909,Britain in Iraq: Contriving King and Country (Library of Middle East History),,,,Peter Sluglett,2007,,,,384,0,English,64,,до 2011-01,"1850437696,0231142013,9781850437697,9781435603516,9780231142014",,,,,327.41056709042,,,,OL19873398M,,0,,,,,1,1,1,1252722,pdf,B0602625E09D07B1D078CB039024998D,,,D:\\!genesis\\library.nu\\b0\\_64228.b0602625e09d07b1d078cb039024998d.pdf,0,2000-01-01 01:00:00,2016-04-03 02:51:08,504000/b0602625e09d07b1d078cb039024998d-g.jpg,,
19523910,Physical Medicine and Rehabilitation Board Review,,,,Sara J. Cuccurullo,2004,1st,,,848,0,English,132,,до 2011-01,"1888799455,9781888799453,9781934559376",,,,,615.82076,RM701.6.P48 2002,,,OL8711287M,,0,,,,,1,1,1,38503188,pdf,B0B47AA2BE9349451A21BDBB7C62C33A,,,D:\\!genesis\\library.nu\\b0\\_64084.b0b47aa2be9349451a21bdbb7c62c33a.pdf,0,2000-01-01 01:00:00,2016-04-03 02:51:08,504000/b0b47aa2be9349451a21bdbb7c62c33a-d.jpg,,
19523911,Finding My Voice,,,,Peter Brocklehurst,2005,,,,240,0,English,,,до 2011-01,"1741143446,9781741143447",,,,,,,,,OL8907695M,,0,,,,,1,,1,1060284,pdf,B036F8DD5C99BA35B06785FD3F878D61,,,D:\\!genesis\\library.nu\\b0\\_63601.b036f8dd5c99ba35b06785fd3f878d61.pdf,0,2000-01-01 01:00:00,2016-04-03 02:51:08,504000/b036f8dd5c99ba35b06785fd3f878d61-d.jpg,,
19523912,"Unseen City: Anthropological Perspectives on Port Moresby, Papua New Guinea",,,,Michael Goddard,2005,,,,240,0,English,14,,до 2011-01,"1740761340,9781740761345,9781740761659",,,,,307.7609954509051,,,,OL22628997M,,0,,,,,1,,1,620698,pdf,B02DE27FF7CD8CF97667B8EEA7CCF20A,,,D:\\!genesis\\library.nu\\b0\\_63370.b02de27ff7cd8cf97667b8eea7ccf20a.pdf,0,2000-01-01 01:00:00,2016-04-03 02:51:08,504000/b02de27ff7cd8cf97667b8eea7ccf20a-d.jpg,,
19523913,Cities and Society (Blackwell Readers in Sociology),,,,Nancy Kleniewski,2005,1,,,352,0,English,194,,до 2011-01,"1405102314,9781405102315,1405102322,9781405102322,9781405140874",,,,,,,,,OL22605945M,,0,,,,,1,1,1,1795145,pdf,B01E3CBEF8BEDEFA8A24C881DD5A8E69,,,D:\\!genesis\\library.nu\\b0\\_62907.b01e3cbef8bedefa8a24c881dd5a8e69.pdf,0,2000-01-01 01:00:00,2016-04-03 02:51:08,504000/b01e3cbef8bedefa8a24c881dd5a8e69-d.jpg,,
19523914,Risk Management: The Bottleneck Is at the Top of the Bottle,,,,Dimitris N. Chorafas,2004,,,,256,0,English,,,до 2011-01,"1403921431,9781403921437,9781403948106",,,,,658.15/5,HD61 .C546 2004,,,OL22607929M,,0,,,,,1,1,1,1047640,pdf,B0888B37B137C0D5BD79457B2434658C,,,D:\\!genesis\\library.nu\\b0\\_62883.b0888b37b137c0d5bd79457b2434658c.pdf,0,2000-01-01 01:00:00,2016-04-03 02:51:08,504000/b0888b37b137c0d5bd79457b2434658c-d.jpg,,
19523915,The Future of Warfare:  Issues from the 1999 Army After Next Study Cycle,,,,Walter Perry,2001,,,,116,0,English,183,,до 2011-01,"0833028243,9780833028242",,,,,,,,,OL9619018M,,0,,,,,1,,1,356012,pdf,B0F26B5D2B33EADDF358FDB3C532DFB0,,,D:\\!genesis\\library.nu\\b0\\_62761.b0f26b5d2b33eaddf358fdb3c532dfb0.pdf,0,2000-01-01 01:00:00,2016-04-03 02:51:08,504000/b0f26b5d2b33eaddf358fdb3c532dfb0-d.jpg,,
19523916,Technology Transfer of Federally Funded R&D: Perspectives from a Forum,,,,"Mark Wang, David M. Adamson, Gabrielle Bloom, William Butz, Donna Fossum, Mihal Gross, Charles Kelle",2003,,,,164,0,English,210,,до 2011-01,"083303359X,9780833033598",,,,,338.973/06,T174.3 .T3952 2003,,,OL3751754M,,0,,,,,1,1,1,721329,pdf,B0BE13D4E3D12B01B73565CDD2FE6A6E,,,D:\\!genesis\\library.nu\\b0\\_62464.b0be13d4e3d12b01b73565cdd2fe6a6e.pdf,0,2000-01-01 01:00:00,2016-04-03 02:51:08,504000/b0be13d4e3d12b01b73565cdd2fe6a6e-d.jpg,,
19523917,General Relativity: An Introduction for Physicists,,,,"M. P. Hobson, G. P. Efstathiou, A. N. Lasenby",2005,,,,591,0,English,132,,до 2011-01,"9780521536394,0521536391,0521829518,9780521829519,9780511140471",,,,,,,,,OL7745201M,,0,,,,,1,1,1,3311044,pdf,B0488D3AB21D9E73053425BD7FAFA5F8,,,D:\\!genesis\\library.nu\\b0\\_6237.b0488d3ab21d9e73053425bd7fafa5f8.pdf,0,2000-01-01 01:00:00,2016-04-03 02:51:08,504000/b0488d3ab21d9e73053425bd7fafa5f8-g.jpg,,
19523918,Puppy Care & Training: Your Happy Healthy Pet,,,,Bardi McLennan,2005,2,,,144,0,English,,,до 2011-01,"0764583875,9780764583872,9780764596216",,,,,,,,,OL24251718M,,0,,,,,1,,1,8983183,pdf,B014FB940B53E65970EFCBBD6A847602,,,D:\\!genesis\\library.nu\\b0\\_62234.b014fb940b53e65970efcbbd6a847602.pdf,0,2000-01-01 01:00:00,2016-04-03 02:51:08,504000/b014fb940b53e65970efcbbd6a847602-d.jpg,,
19523919,"Frommer's Portable Acapulco, Ixtapa & Zihuatanejo  (2005) (Frommer's Portable)",,,,Lynne Bairstow,2005,4,,,180,0,English,35,,до 2011-01,"9780471779018,9780764589768,0764589768",,,,,,,,,OL23038870M,,0,,,,,1,,1,2253171,pdf,B00303909578B7D3C1882C16A5042500,,,D:\\!genesis\\library.nu\\b0\\_62056.b00303909578b7d3c1882c16a5042500.pdf,0,2000-01-01 01:00:00,2016-04-03 02:51:08,504000/b00303909578b7d3c1882c16a5042500-d.jpg,,
19523920,"Globalizing Education for Work: Comparative Perspectives on Gender and the New Economy (Sociocultural, Political, and Historical Studies in Education)",,,,"Richard D. Lakes, Patricia A. Carter",2004,,,,392,0,English,64,,до 2011-01,"0805850295,9780805850291,9781410610492",,,,,,,,,OL11281101M,,0,,,,,1,1,1,1626784,pdf,B0CF6BF76DDBA761E0BFE5339EE495C3,,,D:\\!genesis\\library.nu\\b0\\_61666.b0cf6bf76ddba761e0bfe5339ee495c3.pdf,0,2000-01-01 01:00:00,2016-04-03 02:51:08,504000/b0cf6bf76ddba761e0bfe5339ee495c3-d.jpg,,
19523921,Getting to Great: Principles of Health Care Organization Governance,,,,"Dennis D. Pointer, James E. Orlikoff",2002,1,,,216,0,English,,,до 2011-01,"0787961213,9780787961213,9780585434155",,,,,,,,,OL8148813M,,0,,,,,1,1,1,752157,pdf,B0AFBF70535369A13AC53E940B26D594,,,D:\\!genesis\\library.nu\\b0\\_61613.b0afbf70535369a13ac53e940b26d594.pdf,0,2000-01-01 01:00:00,2016-04-03 02:51:08,504000/b0afbf70535369a13ac53e940b26d594-d.jpg,,
19523922,Frommer's Texas (2005) (Frommer's Complete),,,,"David Baird, Edie Jarolim, Eric Peterson, Neil E. Schlecht",2005,3rd,,,448,0,English,137,,до 2011-01,"9780764576683,9780764599736,0764576682",,,,,,,,,OL24317731M,,0,,,,,1,,1,11505150,pdf,B0E854605DA16FFA9C07C5DF86DFE14E,,,D:\\!genesis\\library.nu\\b0\\_61483.b0e854605da16ffa9c07c5df86dfe14e.pdf,0,2000-01-01 01:00:00,2016-04-03 02:51:08,504000/b0e854605da16ffa9c07c5df86dfe14e-d.jpg,,
19523923,The Evolution of Homo Erectus: Comparative Anatomical Studies of an Extinct Human Species,,,,G. Philip Rightmire,1990,1,Cambridge University Press,,272,0,English,183,,до 2011-01,"0521308801,9780521308809",,,,,573.3,GN284 .R54 1990,,,,,0,,,,,1,,1,1923576,djvu,B02C29F614641FEB92381A9C6C8F5CAD,,,D:/!genesis/library.nu/b0/_61218.b02c29f614641feb92381a9c6c8f5cad.djvu,0,2000-01-01 01:00:00,2016-04-03 02:51:08,504000/b02c29f614641feb92381a9c6c8f5cad-d.jpg,,
19523924,Beyond Testing:: Towards a Theory of Educational Assessment,,,,Caroline Gipps,1994,1,,,208,0,English,183,,до 2011-01,"9780203234013,9780750703284,9780750703291,0203486005,0750703288,0750703296",,,,,371.2/6,LB3051 .G517 1994,,,OL1102664M,,0,,,,,1,1,1,729789,pdf,B0181A5D9FF189328D4B69B108EA5D7C,,,D:\\!genesis\\library.nu\\b0\\_59611.b0181a5d9ff189328d4b69b108ea5d7c.pdf,0,2000-01-01 01:00:00,2016-04-03 02:51:08,504000/b0181a5d9ff189328d4b69b108ea5d7c-d.jpg,,
19523925,Fragile Hope: Your Church in 2020 (Convergence Ebook Series),,,,Thomas G. Bandy,2003,,,,176,0,English,,,до 2011-01,"068702708X,9780687027088",,,,,,,,,OL7723907M,,0,,,,,1,,1,1072266,pdf,B0423617120D05FD4C3DB062C9D963EE,,,D:\\!genesis\\library.nu\\b0\\_59210.b0423617120d05fd4c3db062c9d963ee.pdf,0,2000-01-01 01:00:00,2016-04-03 02:51:08,504000/b0423617120d05fd4c3db062c9d963ee-d.jpg,,
19523926,Tourists in Historic Towns: Urban Conservation and Heritage Management,,,,Aylin Orbasli,2000,1,,,228,0,English,64,,до 2011-01,"0419259309,9780419259305,9780203479001",,,,,,,,,OL16984968M,,0,,,,,1,1,1,4817058,pdf,B0B1AE2EAA335C0C2455E8577C4C9C00,,,D:\\!genesis\\library.nu\\b0\\_58293.b0b1ae2eaa335c0c2455e8577c4c9c00.pdf,0,2000-01-01 01:00:00,2016-04-03 02:51:08,504000/b0b1ae2eaa335c0c2455e8577c4c9c00-d.jpg,,
19523927,"China's New Nationalism: Pride, Politics, and Diplomacy (Philip E. Lilienthal Books)",,,,Peter Hays Gries,2004,1,,,224,0,English,192,,до 2011-01,"0520232976,9780520232976,0520244826,9780520244825,9781417520053",,,,,,,,,OL7711391M,,0,,,,,1,1,1,2558044,pdf,B0D29B7E4297B449B11B7D3254470C49,,,D:\\!genesis\\library.nu\\b0\\_57857.b0d29b7e4297b449b11b7d3254470c49.pdf,0,2000-01-01 01:00:00,2016-04-03 02:51:08,504000/b0d29b7e4297b449b11b7d3254470c49-d.jpg,,
19523928,Transmission Line Matrix (TLM) in Computational Mechanics,,,,"Donard de Cogan, William J. O'Connor, Susan Pulko",2005,1,,,272,0,English,120,,до 2011-01,"0415327172,9780415327176,9780203022184",,,,,,,,,OL7491719M,,0,,,,,1,1,1,10067715,pdf,B009959BE991396EF0F27A9E5D636A1D,,,D:\\!genesis\\library.nu\\b0\\_57408.b009959be991396ef0f27a9e5d636a1d.pdf,0,2000-01-01 01:00:00,2016-04-03 02:51:08,504000/b009959be991396ef0f27a9e5d636a1d-d.jpg,,
19523929,The Twelver Shi'a as a Muslim Minority in India: Pulpit of Tears (Routledge Persian and Shi'a Studies),,,,Toby Howarth,2005,1,,,240,0,English,183,,до 2011-01,"0415362342,9780415362344,9780203012604",,,,,297.8/21/0954,BP192.7.I4 H67 2005,,,OL22711089M,,0,,,,,1,1,1,1131902,pdf,B05E2302393AF418BFF94BC493C40B91,,,D:\\!genesis\\library.nu\\b0\\_57163.b05e2302393af418bff94bc493c40b91.pdf,0,2000-01-01 01:00:00,2016-04-03 02:51:08,504000/b05e2302393af418bff94bc493c40b91-d.jpg,,
19523930,"Debating Biology: Sociological Reflections on Health, Medicine and Society",,,,Simon Williams,2003,1,,,336,0,English,18,,до 2011-01,"041527902X,9780415279024,9780203987681",,,,,306.4/61,RA418 .D384 2003,,,OL18888683M,,0,,,,,1,1,1,888408,pdf,B03AAE78BACA2416B75463C33B021EAD,,,D:\\!genesis\\library.nu\\b0\\_57139.b03aae78baca2416b75463c33b021ead.pdf,0,2000-01-01 01:00:00,2016-04-03 02:51:08,504000/b03aae78baca2416b75463c33b021ead-d.jpg,,
19523931,Arms Trade and Economic Development: Theory and Policy in Offsets (Studies in Defence Economics),,,,Jurgen Brauer,2004,1,,,352,0,English,305,,до 2011-01,"0415331064,9780415331067,9780203392300",,,,,382/.456234,HD9743.A2 A76 2004,,,OL22596407M,,0,,,,,1,1,1,2542924,pdf,B086636CE7FD5E9A6C13C05E76D50798,,,D:\\!genesis\\library.nu\\b0\\_57033.b086636ce7fd5e9a6c13c05e76d50798.pdf,0,2000-01-01 01:00:00,2016-04-03 02:51:08,504000/b086636ce7fd5e9a6c13c05e76d50798-d.jpg,,
19523932,Changing Economic Geography of Globalization  Reinventing Space (Studies in Global Competition),,,,Giovan Vertova,2006,1,,,272,0,English,305,,до 2011-01,"041535398X,9780415353984,9780203000403",,,,,330.9/051/1,HF1359 .C446 2006,,,OL22723745M,,0,,,,,1,1,1,2658964,pdf,B08EB51EE4578DFF1E4117ECF9CEBBD7,,,D:\\!genesis\\library.nu\\b0\\_57013.b08eb51ee4578dff1e4117ecf9cebbd7.pdf,0,2000-01-01 01:00:00,2016-04-03 02:51:08,504000/b08eb51ee4578dff1e4117ecf9cebbd7-d.jpg,,
19523933,"Imperial Russia, 1801-1905",,,,Tim Chapman,2001,,,,160,0,English,64,,до 2011-01,"0415231094,9780415231091,9780203467053",,,,,947/.07,DK189 .C446 2001,,,OL6791241M,,0,,,,,1,1,1,1284792,pdf,B056B3D0D8ABA3DB1A3A65C55BB86F1E,,,D:\\!genesis\\library.nu\\b0\\_56360.b056b3d0d8aba3db1a3a65c55bb86f1e.pdf,0,2000-01-01 01:00:00,2016-04-03 02:51:08,504000/b056b3d0d8aba3db1a3a65c55bb86f1e-d.jpg,,
19523934,Assessement: Social Practice and Social Product,,,,Ann Filer,2000,1,,,240,0,English,189,,до 2011-01,"9780203465844,9780415227827,9780585448015,0415227828,0585448019,0203465849",,,,,,,,,OL7487432M,,0,,,,,1,1,1,1145103,pdf,B0EDFE8282FBC3CCB1FFE2B632FF0C89,,,D:\\!genesis\\library.nu\\b0\\_55986.b0edfe8282fbc3ccb1ffe2b632ff0c89.pdf,0,2000-01-01 01:00:00,2016-04-03 02:51:08,504000/b0edfe8282fbc3ccb1ffe2b632ff0c89-d.jpg,,
19523935,"The End of Finance: Pension Funds, Derivatives and Capital Market Inflation (Routledge Frontiers of Political Economy, 25)",,,,Jan Toporowski,1999,1,,,176,0,English,305,,до 2011-01,"0415208815,9780415208819,9780203014097",,,,,,,,,OL16957362M,,0,,,,,1,1,1,645910,pdf,B06CF68DCB7FD7AC616A00162287B829,,,D:\\!genesis\\library.nu\\b0\\_55607.b06cf68dcb7fd7ac616a00162287b829.pdf,0,2000-01-01 01:00:00,2016-04-03 02:51:08,504000/b06cf68dcb7fd7ac616a00162287b829-d.jpg,,
19523936,Community Based Psychotherapy with Young People: Evidence and Innovation in Practice,,,,G. Baruch,2001,1,,,208,0,English,172,,до 2011-01,"9780415215107,0415215102,0203361032,9780203361030,9780203377796",,,,,616.89/14/0835,RJ503 .C645 2001,,,OL6791371M,,0,,,,,1,1,1,2433466,pdf,B0018C6572E8DB1516469EDBD5491DA3,,,D:\\!genesis\\library.nu\\b0\\_55583.b0018c6572e8db1516469edbd5491da3.pdf,0,2000-01-01 01:00:00,2016-04-03 02:51:08,504000/b0018c6572e8db1516469edbd5491da3-d.jpg,,
19523937,Psychology of Teaching and Learning in the Primary School,,,,D. Whitebread,2000,1,,,384,0,English,183,,до 2011-01,"9780203190180,9780415214049,0415214041,041521405X,9780415214056",,,,,,,,,OL9408542M,,0,,,,,1,1,1,2771619,pdf,B046D67F46AE6832C3A4981AD57E80F2,,,D:\\!genesis\\library.nu\\b0\\_55259.b046d67f46ae6832c3a4981ad57e80f2.pdf,0,2000-01-01 01:00:00,2016-04-03 02:51:08,504000/b046d67f46ae6832c3a4981ad57e80f2-d.jpg,,
19523938,Soviet Politics in Perspective: 2nd Edition,,,,Richard Sakwa,1998,2,,,376,0,English,192,,до 2011-01,"9780415169929,0415169925,0203058232,9780203058237,9780203312438",,,,,947.084,DK266 .S2363 1998,,,OL356889M,,0,,,,,1,1,1,2885082,pdf,B0DB20AFFF1876FF89DECD84595E755B,,,D:\\!genesis\\library.nu\\b0\\_54672.b0db20afff1876ff89decd84595e755b.pdf,0,2000-01-01 01:00:00,2016-04-03 02:51:08,504000/b0db20afff1876ff89decd84595e755b-d.jpg,,
19523939,"Factories of Death: Japanese Biological Warfare, 1932-1945, and the American Cover-Up",,,,Sheldon Harris,1995,New edition,,,332,0,English,64,,до 2011-01,"0415132061,9780415132060,9780415245951",,,,,358.380952,,,,OL22319198M,,0,,,,,1,1,1,1859910,pdf,B09A94D34DDBEE1E04AF95B5CFDD2DAC,,,D:\\!genesis\\library.nu\\b0\\_54225.b09a94d34ddbee1e04af95b5cfdd2dac.pdf,0,2000-01-01 01:00:00,2016-04-03 02:51:08,504000/b09a94d34ddbee1e04af95b5cfdd2dac-d.jpg,,
19523940,Critiques of Everyday Life: An Introduction,,,,Michae Gardiner,2000,1,,,256,0,English,,,до 2011-01,"0415113148,9780415113144,0415113156,9780415113151,9780203170021",,,,,302/.1,BD435 .G34 2000,,,OL6778202M,,0,,,,,1,1,1,1749028,pdf,B050E23E0E901B645FA5B6D9E2FF0C0B,,,D:\\!genesis\\library.nu\\b0\\_53958.b050e23e0e901b645fa5b6d9e2ff0c0b.pdf,0,2000-01-01 01:00:00,2016-04-03 02:51:08,504000/b050e23e0e901b645fa5b6d9e2ff0c0b-d.jpg,,
19523941,Enterprise Learning in Action: Education and Economic Renewal for the Twenty-First Century (Educational Management),,,,Da Shuttleworth,1993,1,,,240,0,English,305,,до 2011-01,"0415068592,9780415068598,9780203313695",,,,,,,,,OL1738834M,,0,,,,,1,1,1,2322789,pdf,B0B3386FFAA391E54B1192399853C7E2,,,D:\\!genesis\\library.nu\\b0\\_53604.b0b3386ffaa391e54b1192399853c7e2.pdf,0,2000-01-01 01:00:00,2016-04-03 02:51:08,504000/b0b3386ffaa391e54b1192399853c7e2-d.jpg,,
19523942,Cancelled Words: Rediscovering Thomas Hardy,,,,Rosemari Morgan,1992,1,,,232,0,English,,,до 2011-01,"9780203313794,9780415068253,0415068258",,,,,823/.8,PR4745 .M6 1992,,,OL1557586M,,0,,,,,1,1,1,4132772,pdf,B0AF800AEB84439DBB6DB04B6AFA3CB0,,,D:\\!genesis\\library.nu\\b0\\_53596.b0af800aeb84439dbb6db04b6afa3cb0.pdf,0,2000-01-01 01:00:00,2016-04-03 02:51:08,504000/b0af800aeb84439dbb6db04b6afa3cb0-d.jpg,,
19523943,"The Economics of W. S. Jevons (Routledge Studies in the History of Economics, 9)",,,,Sandra Peart,1996,1,,,328,0,English,64,,до 2011-01,"0415067138,9780415067133,9780203022498",,,,,330.15/7,HB103.J5 P4 1996,,,OL814154M,,0,,,,,1,1,1,1871027,pdf,B014D19AAB4E72A271E51D3535C52DEE,,,D:\\!genesis\\library.nu\\b0\\_53429.b014d19aab4e72a271e51d3535c52dee.pdf,0,2000-01-01 01:00:00,2016-04-03 02:51:08,504000/b014d19aab4e72a271e51d3535c52dee-d.jpg,,
19523944,Interpreting Nature: Cultural Constructions of the Environment,,,,I. G. Simmons,1993,1,,,232,0,English,236,,до 2011-01,"0415097061,9780415097062,9780203302965",,,,,363.7,GE195.5 .S56 1993,,,OL1035524M,,0,,,,,1,1,1,4629370,pdf,B09EDF29130246E0107EEEDC41557E67,,,D:\\!genesis\\library.nu\\b0\\_53258.b09edf29130246e0107eeedc41557e67.pdf,0,2000-01-01 01:00:00,2016-04-03 02:51:08,504000/b09edf29130246e0107eeedc41557e67-d.jpg,,
19523945,The Economic Organisation of a Financial System,,,,Edwin H Neave,1990,1,,,224,0,English,305,,до 2011-01,"9780203409640,9780415053532,0203409647,0415053536",,,,,332.1,HG173 .N33 1990,,,OL1856421M,,0,,,,,1,1,1,840996,pdf,B0F9054E794B57B0B29FE8D4FCA3F0EE,,,D:\\!genesis\\library.nu\\b0\\_53033.b0f9054e794b57b0b29fe8d4fca3f0ee.pdf,0,2000-01-01 01:00:00,2016-04-03 02:51:08,504000/b0f9054e794b57b0b29fe8d4fca3f0ee-d.jpg,,
19523946,Commedia Dell'Arte: An Actor's Handbook,,,,John Rudlin,1994,,,,296,0,English,,,до 2011-01,"0415047706,9780415047708,9780203408193",,,,,792.2/3/09,PQ4155 .R83 1994,,,OL1405221M,,0,,,,,1,1,1,9283025,pdf,B02EF714B5CA065ECBC3A8B5A56327B6,,,D:\\!genesis\\library.nu\\b0\\_52986.b02ef714b5ca065ecbc3a8b5a56327b6.pdf,0,2000-01-01 01:00:00,2016-04-03 02:51:08,504000/b02ef714b5ca065ecbc3a8b5a56327b6-d.jpg,,
19523947,"Our Studies, Ourselves: Sociologists' Lives and Work",,,,"Barry Glassner, Rosanna Hertz",2003,First,,,296,0,English,183,,до 2011-01,"0195146611,9780195146615,9780195302950",,,,,,,,,OL17088206M,,0,,,,,1,1,1,1053090,pdf,B0067BDDC9845B5A2D55439015D4758A,,,D:\\!genesis\\library.nu\\b0\\_52749.b0067bddc9845b5a2d55439015d4758a.pdf,0,2000-01-01 01:00:00,2016-04-03 02:51:08,504000/b0067bddc9845b5a2d55439015d4758a-d.jpg,,
19523948,Tetanus (Deadly Diseases and Epidemics),,,,"Patrick, Ph.D. Guilfoile",2008,,,,100,0,English,150,,до 2011-01,"0791097110,9780791097113,9781438101729",,,,,,,,,OL11149702M,,0,,,,,1,,1,4575543,pdf,B0A121925CD30EC1277E59DFFD335D44,,,D:\\!genesis\\library.nu\\b0\\_51440.b0a121925cd30ec1277e59dffd335d44.pdf,0,2000-01-01 01:00:00,2016-04-03 02:51:08,504000/b0a121925cd30ec1277e59dffd335d44-d.jpg,,
19523949,"Investment, Vol. 3: Lifting the Burden: Tax Reform, the Cost of Capital, and U.S. Economic Growth",,,,"Dale W. Jorgenson, Kun-Young Yun",2002,,,,504,0,English,305,,до 2011-01,"0262100916,9780262100915,9781423725206",,,,,332.6,,,,OL10237175M,,0,,,,,1,1,1,1860989,pdf,B0AE98038E4DAE27F93025AD407F2CCA,,,D:\\!genesis\\library.nu\\b0\\_51036.b0ae98038e4dae27f93025ad407f2cca.pdf,0,2000-01-01 01:00:00,2016-04-03 02:51:08,504000/b0ae98038e4dae27f93025ad407f2cca-d.jpg,,
19523950,"The Bauhaus and America: First Contacts, 1919-1936",,,,Margret Kentgens-Craig,1999,,,,305,0,English,64,,до 2011-01,"026211237X,9780262112376,0262611716,9780262611718,9781423725213",,,,,724/.6,N332.G33 B447513 1999,,,OL10238294M,,0,,,,1,0,1,1,4169810,pdf,B07673C5054B242FE7EF2D5B6687DED9,,,D:\\!genesis\\library.nu\\b0\\_50723.b07673c5054b242fe7ef2d5b6687ded9.pdf,0,2000-01-01 01:00:00,2016-04-03 02:51:08,504000/b07673c5054b242fe7ef2d5b6687ded9-d.jpg,,
19523951,Physik fur Mediziner: Eine Einfuhrung 12. Auflage,,,,Ulrich Harten,2010,"12., bearb. Aufl.",,,387,0,German,132,,до 2011-01,"3540717064,9783540717065",,,,,,,,,,,0,,,,,1,,1,8701214,pdf,B01B53AE2DA8AD13841E5FDD1DF9F65A,,,D:\\!genesis\\library.nu\\b0\\_5056.b01b53ae2da8ad13841e5fdd1df9f65a.pdf,0,2000-01-01 01:00:00,2016-04-03 02:51:08,504000/b01b53ae2da8ad13841e5fdd1df9f65a-d.jpg,,
19523952,The Catch Trap,,,,Marion Zimmer Bradley,1980,,,,593,0,English,,,до 2011-01,"0345290666,9780345290663",,,,,,,,,,,0,,,,,1,,1,3143487,pdf,B0D56E22DFDDB042EBCFEB3588917369,,,D:\\!genesis\\library.nu\\b0\\_4969.b0d56e22dfddb042ebcfeb3588917369.pdf,0,2000-01-01 01:00:00,2016-04-03 02:51:08,504000/b0d56e22dfddb042ebcfeb3588917369-g.jpg,,
19523953,The Beginnings of Political Economy: Johann Heinrich Gottlob von Justi (The European Heritage in Economics and the Social Sciences),,,,Jurgen Georg Backhaus,2008,1,,,205,0,English,305,,до 2011-01,"0387097783,9780387097787,1441935355,9781441935359",,,,,,,10.1007 978-0-387-09779-4,,OL15025154M,,0,,,,1,0,1,1,1558401,pdf,B015E52FB254FF4788BC1BC43FBD5539,,,D:\\!genesis\\library.nu\\b0\\_49629.b015e52fb254ff4788bc1bc43fbd5539.pdf,0,2000-01-01 01:00:00,2016-04-03 02:51:08,504000/b015e52fb254ff4788bc1bc43fbd5539-d.jpg,,
19523954,Semiparametric Theory and Missing Data (Springer Series in Statistics),,,,Anastasios A. Tsiatis,2006,1,,,399,0,English,116,,до 2011-01,"9780387324487,9780387373454,0387324488",,,,,,,,,OL7445394M,,0,,,,,1,1,1,2392313,pdf,B0385B56AEA3C14139B52BF0434ACC88,,,D:\\!genesis\\library.nu\\b0\\_49525.b0385b56aea3c14139b52bf0434acc88.pdf,0,2000-01-01 01:00:00,2016-04-03 02:51:08,504000/b0385b56aea3c14139b52bf0434acc88-d.jpg,,
19523955,Clean: A History of Personal Hygiene and Purity,,,,Virginia Smith,2007,1,,,416,0,English,64,,до 2011-01,"0199297797,9780199297795,9781429489959",,,,,613.409,RA424 .S59 2007,,,OL24967720M,,0,,,,,1,1,1,4491417,pdf,B04491C0EF468EE5F3012711C98F9EC9,,,D:\\!genesis\\library.nu\\b0\\_49429.b04491c0ef468ee5f3012711c98f9ec9.pdf,0,2000-01-01 01:00:00,2016-04-03 02:51:08,504000/b04491c0ef468ee5f3012711c98f9ec9-d.jpg,,
19523956,"Anthocyanins: Biosynthesis, Functions, and Applications",,,,"Kevin Gould, Kevin Davies, Chris Winefield",2008,1,,,348,0,English,137,,до 2011-01,"0387773347,9780387773346,9780387773353",,,,,,,10.1007/978-0-387-77335-3,,,,0,,,,,1,1,1,4044608,pdf,B07862198CCD7423898A83D6C9406F4E,,,D:\\!genesis\\library.nu\\b0\\_49357.b07862198ccd7423898a83d6c9406f4e.pdf,0,2000-01-01 01:00:00,2016-04-03 02:51:08,504000/b07862198ccd7423898a83d6c9406f4e-d.jpg,,
19523957,"Norms, Interests, and Power in Japanese Foreign Policy",,,,"Yoichiro Sato, Keiko Hirata",2008,,,,288,0,English,192,,до 2011-01,"1403984484,9781403984487",,,,,,,,,OL11642953M,,0,,,,,1,1,1,1303344,pdf,B0A374778E21B32DEBE07A3F9D41697F,,,D:\\!genesis\\library.nu\\b0\\_48941.b0a374778e21b32debe07a3f9d41697f.pdf,0,2000-01-01 01:00:00,2016-04-03 02:51:08,504000/b0a374778e21b32debe07a3f9d41697f-d.jpg,,
19523958,"System Theory, the Schur Algorithm and Multidimensional Analysis (Operator Theory: Advances and Applications)",,,,"Daniel Alpay (Editor), Victor Vinnikov (Editor)",2007,1,,,322,0,English,137,,до 2011-01,"9783764381363,9783764381370,3764381361",,,,,,,,,OL9091176M,,0,,,,,1,1,1,2874410,pdf,B0346D7CBF01D1C7F24834F5F91784D8,,,D:\\!genesis\\library.nu\\b0\\_48310.b0346d7cbf01d1c7f24834f5f91784d8.pdf,0,2000-01-01 01:00:00,2016-04-03 02:51:08,504000/b0346d7cbf01d1c7f24834f5f91784d8-d.jpg,,
19523959,The Trophies of Time: English Antiquarians of the Seventeenth Century,,,,Graham Parry,2007,,,,394,0,English,314,,до 2011-01,"0199234272,0198129629,9780198129622,9780199234271",,,,,941.06,DA135 .P27 1995,,,OL1277189M,,0,,,,,1,1,1,22408620,pdf,B04CA3CC0EEF01440B8209B62A60864B,,,D:\\!genesis\\library.nu\\b0\\_47792.b04ca3cc0eef01440b8209b62a60864b.pdf,0,2000-01-01 01:00:00,2016-04-03 02:51:08,504000/b04ca3cc0eef01440b8209b62a60864b-d.jpg,,
19523960,The Hero's Farewell: What Happens When CEOs Retire,,,,Jeffrey Sonnenfeld,1991,,,,336,0,English,,,до 2011-01,"0195065832,9780195065831,0195050916,9780195050912",,,,,658.4,HD38.25.U6 S66 1988,,,OL2526365M,,0,,,,,1,1,1,20203279,pdf,B0842C21670247B11A49067D23BEB15D,,,D:\\!genesis\\library.nu\\b0\\_47289.b0842c21670247b11a49067d23beb15d.pdf,0,2000-01-01 01:00:00,2016-04-03 02:51:08,504000/b0842c21670247b11a49067d23beb15d-d.jpg,,
19523961,"Joyce, Race and 'Finnegans Wake'",,,,Len Platt,2007,,,,222,0,English,,,до 2011-01,"052186884X,9780521868846",,,,,,,,,OL22743994M,,0,,,,,1,1,1,1709519,pdf,B02FEDEB146E825CF33DD91A05DE65E7,,,D:\\!genesis\\library.nu\\b0\\_4634.b02fedeb146e825cf33dd91a05de65e7.pdf,0,2000-01-01 01:00:00,2016-04-03 02:51:08,504000/b02fedeb146e825cf33dd91a05de65e7-d.jpg,,
19523962,Complete Greek Tragedies: Aeschylus,,,,Aeschylus - Ed. David Grene and Richmond Lattimore,1959,,,,351,0,English,137,,до 2011-01,,,B000R0ENOM,,,,,,,,,0,,,,,1,1,1,8301711,pdf,B0CB324C366213073D2757F41267191D,,,D:\\!genesis\\library.nu\\b0\\_45599.b0cb324c366213073d2757f41267191d.pdf,0,2000-01-01 01:00:00,2016-04-03 02:51:08,504000/b0cb324c366213073d2757f41267191d-g.jpg,,
19523963,"Countervailing Forces in African-American Civic Activism, 1973-1994",,,,"Fredrick C. Harris, Valeria Sinclair-Chapman, Brian D. McKenzie",2005,,,,188,0,English,64,,до 2011-01,"0521849365,9780521849364,9780511137365",,,,,323.1196/073/009/045,JK1924 .H37 2005,,,OL22721327M,,0,,,,,1,1,1,9557720,pdf,B00EEE16649CF38DB001A8B9E08A77D6,,,D:\\!genesis\\library.nu\\b0\\_45314.b00eee16649cf38db001a8b9e08a77d6.pdf,0,2000-01-01 01:00:00,2016-04-03 02:51:08,504000/b00eee16649cf38db001a8b9e08a77d6-d.jpg,,
19523964,His Wicked Promise,,,,Samantha James,2000,,,,384,0,English,,,до 2011-01,"0380805871,9780380805877,9780061130137",,,,,,,,,OL24246592M,,0,,,,,1,,1,1061537,pdf,B09C3126BCBDAAD7887B8E98D702993F,,,D:\\!genesis\\library.nu\\b0\\_44631.b09c3126bcbdaad7887b8e98d702993f.pdf,0,2000-01-01 01:00:00,2016-04-03 02:51:08,504000/b09c3126bcbdaad7887b8e98d702993f-d.jpg,,
19523965,"From Ikaria to the Stars: Classical Mythification, Ancient and Modern",,,,Peter Green,2004,,,,348,0,English,64,,до 2011-01,"0292702302,9780292702301,9780292797550",,,,,,,,,OL10293246M,,0,,,,,1,,1,2385160,pdf,B0E5CD7DE5C4E66F21577E50AFCA7225,,,D:\\!genesis\\library.nu\\b0\\_44563.b0e5cd7de5c4e66f21577e50afca7225.pdf,0,2000-01-01 01:00:00,2016-04-03 02:51:08,504000/b0e5cd7de5c4e66f21577e50afca7225-d.jpg,,
19523966,"Trans-Appalachian Frontier: People, Societies, and Institutions, 1775-1850 (A History of the Trans-Appalachian Frontier)",,,,Malcolm J. Rohrbough,2008,Third Edition,,,696,0,English,64,,до 2011-01,"0253219329,9780253219329,9780253000101",,,,,,,,,OL17251322M,,0,,,,,1,1,1,6938275,pdf,B098187A327E4A928F4C68EFC9D36F73,,,D:\\!genesis\\library.nu\\b0\\_44295.b098187a327e4a928f4c68efc9d36f73.pdf,0,2000-01-01 01:00:00,2016-04-03 02:51:08,504000/b098187a327e4a928f4c68efc9d36f73-d.jpg,,
19523967,"Reforming Boston Schools, 1930-2006: Overcoming Corruption and Racial Segregation (Palgrave Studies in Urban Education)",,,,Joseph Marr Cronin,2008,,,,284,0,English,64,,до 2011-01,"0230604013,9780230604018",,,,,,,,,OL10194836M,,0,,,,,1,,1,1638137,pdf,B01ED40F790580C10BF38DDBA0C97E12,,,D:\\!genesis\\library.nu\\b0\\_44243.b01ed40f790580c10bf38ddba0c97e12.pdf,0,2000-01-01 01:00:00,2016-04-03 02:51:08,504000/b01ed40f790580c10bf38ddba0c97e12-d.jpg,,
19523968,Patriotic Grace: What It Is and Why We Need It Now,,,,Peggy Noonan,2008,First Edition,,,208,0,English,,,до 2011-01,"0061735825,9780061735820,9780061760099",,,,,323.6/5,JK1759 .N66 2008,,,OL22659222M,,0,,,,,1,1,1,613149,pdf,B0A29DB9141693C0F7D852B4EAD9572E,,,D:\\!genesis\\library.nu\\b0\\_43863.b0a29db9141693c0f7d852b4ead9572e.pdf,0,2000-01-01 01:00:00,2016-04-03 02:51:08,504000/b0a29db9141693c0f7d852b4ead9572e-d.jpg,,
19523969,Keeping the Faith: Guidance for Christian Women Facing Abuse,,,,Marie M. Fortune,1995,1,,,128,0,English,205,,до 2011-01,"0062513001,9780062513007,9780061357374",,,,,,,,,OL24254923M,,0,,,,,1,1,1,645205,pdf,B054016146C710C0FECE6B39A23B4910,,,D:\\!genesis\\library.nu\\b0\\_43664.b054016146c710c0fece6b39a23b4910.pdf,0,2000-01-01 01:00:00,2016-04-03 02:51:08,504000/b054016146c710c0fece6b39a23b4910-d.jpg,,
19523970,Data Smog: Surviving the Information Glut Revised and Updated Edition,,,,David Shenk,1998,Rev Upd,,,256,0,English,116,,до 2011-01,"0062515519,9780062515513,9780061446030",,,,,303.48/33,HM221 .S515 1998,,,OL18819286M,,0,,,,,1,,1,934771,pdf,B04EC61EC16E1822504615900BBA9175,,,D:\\!genesis\\library.nu\\b0\\_43603.b04ec61ec16e1822504615900bba9175.pdf,0,2000-01-01 01:00:00,2016-04-03 02:51:08,504000/b04ec61ec16e1822504615900bba9175-d.jpg,,
19523971,Street Love,,,,Walter Dean Myers,2007,,,,160,0,English,,,до 2011-01,"0064407322,9780064407328,9780061783364",,B000WJVLFM,,,,,,,OL24254776M,,0,,,,,1,1,1,420245,pdf,B05EFA91CC6ED8B9BAC33F03647FFB70,,,D:\\!genesis\\library.nu\\b0\\_43582.b05efa91cc6ed8b9bac33f03647ffb70.pdf,0,2000-01-01 01:00:00,2016-04-03 02:51:08,504000/b05efa91cc6ed8b9bac33f03647ffb70-d.jpg,,
19523972,Reckless,,,,Selena Montgomery,2008,1st,,,384,0,English,,,до 2011-01,"0061376035,9780061376030,9780061693335",,B001AZRJIK,,,,,,,OL22682636M,,0,,,,,1,,1,1341081,pdf,B063236D0982A545187ACFFCB9C8C6D6,,,D:\\!genesis\\library.nu\\b0\\_43350.b063236d0982a545187acffcb9c8c6d6.pdf,0,2000-01-01 01:00:00,2016-04-03 02:51:08,504000/b063236d0982a545187acffcb9c8c6d6-d.jpg,,
19523973,Portrait of an Unknown Woman: A Novel,,,,Vanora Bennett,2008,,,,464,0,English,,,до 2011-01,"9780061252563,0061252565,0061251836,9780061251832,9780061370694",,,,,823/.92,PR6102.E666 P67 2008,,,OL23275924M,,0,,,,,1,,1,2056312,pdf,B0408A7C4434BD025767A920AF951BF1,,,D:\\!genesis\\library.nu\\b0\\_43265.b0408a7c4434bd025767a920af951bf1.pdf,0,2000-01-01 01:00:00,2016-04-03 02:51:08,504000/b0408a7c4434bd025767a920af951bf1-d.jpg,,
19523974,The Second Death of Goodluck Tinubu: A Detective Kubu Mystery,,Detective Kubu 2,,Michael Stanley,2009,,,,480,0,English,305,,до 2011-01,"0061252492,9780061252495",,B002BD2V1U,,,823/.92,PR9369.4.S715 S43 2009,,,OL23218262M,,0,,,,,1,,1,2009389,pdf,B0C4112050A226490086A29CEDF8F31B,,,D:\\!genesis\\library.nu\\b0\\_43193.b0c4112050a226490086a29cedf8f31b.pdf,0,2000-01-01 01:00:00,2016-04-03 02:51:08,504000/b0c4112050a226490086a29cedf8f31b-d.jpg,,
19523975,Legend (1998),,,,Sharon Sala writing as Dinah McCall,1998,,,,352,0,English,,,до 2011-01,"9780061087011,9780061378102,0061087017",,,,,,,,,OL22820760M,,0,,,,,1,,1,908165,pdf,B05777D98C8123B83B8BBE5045E36895,,,D:\\!genesis\\library.nu\\b0\\_43073.b05777d98c8123b83b8bbe5045e36895.pdf,0,2000-01-01 01:00:00,2016-04-03 02:51:08,504000/b05777d98c8123b83b8bbe5045e36895-d.jpg,,
19523976,The Legalization of Drugs (For and Against),,,,"Doug Husak, Peter de Marneffe",2005,,Cambridge University Press,,222,0,English,173,,до 2011-01,"9780521546867,0521546869,0521837863,9780521837866,9780511345357",,,,,,,,fan_4fnKmL8C,OL22715065M,,0,,,,0,0,1,1,817162,pdf,B04CFECA734439DC6F1DA70E18CEAEEA,,,D:\\!genesis\\library.nu\\b0\\_4297.b04cfeca734439dc6f1da70e18ceaeea.pdf,0,2000-01-01 01:00:00,2016-04-03 02:51:08,504000/b04cfeca734439dc6f1da70e18ceaeea-d.jpg,,
19523977,In Between Men,,,,Mary Castillo,2006,,,,304,0,English,,,до 2011-01,"0060766824,9780060766825,9780061536144",,,,,813/.6,PS3603.A876 I5 2006,,,OL24269571M,,0,,,,,1,,1,1355635,pdf,B07CE3583365D6DD3F1EB2195C297FBE,,,D:\\!genesis\\library.nu\\b0\\_42375.b07ce3583365d6dd3f1eb2195c297fbe.pdf,0,2000-01-01 01:00:00,2016-04-03 02:51:08,504000/b07ce3583365d6dd3f1eb2195c297fbe-d.jpg,,
19523978,Remaking Management: Between Global and Local,,,,"Chris Smith, Brendan McSweeney, Robert Fitzgerald",2008,1,,,486,0,English,,,до 2011-01,"0521861519,9780521861519,9780511397110",,,,,658,HD31 .R4428 2008,,,OL10437552M,,0,,,,,1,1,1,1791808,pdf,B083DCEDFEA8B93EA3AD4E4FB3B10B46,,,D:\\!genesis\\library.nu\\b0\\_4208.b083dcedfea8b93ea3ad4e4fb3b10b46.pdf,0,2000-01-01 01:00:00,2016-04-03 02:51:08,504000/b083dcedfea8b93ea3ad4e4fb3b10b46-d.jpg,,
19523979,"Sex, Lies, and Menopause: The Shocking Truth About Synthetic Hormones and the Benefits of Natural Alternatives",,,,"T. S. Wiley, Julie Taguchi, Bent Formby,",2004,,,,384,0,English,,,до 2011-01,"0060542349,9780060542344,9780061442766",,,,,,,,,OL24285683M,,0,,,,,1,,1,3961210,pdf,B041511742B6E7968C2962A403045E2B,,,D:\\!genesis\\library.nu\\b0\\_42063.b041511742b6e7968c2962a403045e2b.pdf,0,2000-01-01 01:00:00,2016-04-03 02:51:08,504000/b041511742b6e7968c2962a403045e2b-d.jpg,,
19523980,Dangerous to Know,,,,Barbara Taylor Bradford,1995,1st,,,352,0,English,,,до 2011-01,"0060177225,9780060177225",,,,,813/.54,PS3552.R2147 D36 1995,,,OL786240M,,0,,,,,1,,1,964890,pdf,B0CB72F861418C9F2748B9E55F9910FC,,,D:\\!genesis\\library.nu\\b0\\_41940.b0cb72f861418c9f2748b9e55f9910fc.pdf,0,2000-01-01 01:00:00,2016-04-03 02:51:08,504000/b0cb72f861418c9f2748b9e55f9910fc-d.jpg,,
19523981,The Victorians and the Stuart Heritage: Interpretations of a Discordant Past,,,,Timothy Lang,2006,1,,,248,0,English,,,до 2011-01,"9780521026253,9780511521423,0521474647,0521026253,0511521421,9780521474641",,,,,941.06/072041,DA375 .L35 1995,,,OL1106742M,,0,,,,,1,,1,1544986,djvu,B036EC3B5850E19754C88188178BD71B,,,D:\\!genesis\\library.nu\\b0\\_41634.b036ec3b5850e19754c88188178bd71b.djvu,0,2000-01-01 01:00:00,2016-04-03 02:51:08,504000/b036ec3b5850e19754c88188178bd71b-d.jpg,,
19523982,Dragon Harper,,,,"Anne McCaffrey, Todd McCaffrey.",2007,1,,,320,0,English,,,до 2011-01,"9780345502520,9780345480309,9780345480316",,,,,813/.54,PS3563.A255 D73 2007,,,OL18025697M,,0,,,,,1,,1,2139094,pdf,B009EE821ADE0D7D57604C402D04FDC3,,,D:\\!genesis\\library.nu\\b0\\_41558.b009ee821ade0d7d57604c402d04fdc3.pdf,0,2000-01-01 01:00:00,2016-04-03 02:51:08,504000/b009ee821ade0d7d57604c402d04fdc3-d.jpg,,
19523983,August Strindberg: Selected Essays,,,,August Strindberg,1996,,,,296,0,English,,,до 2011-01,"9780511554223,0521563755,0521034418,0511554222,9780521034418,9780521563758",,,,,839.74/6,PT9804 .R6 1996,,,OL7715067M,,0,,,,,1,,1,1441953,djvu,B02E5DDD2DABBF876E73838CAB3A44B6,,,D:\\!genesis\\library.nu\\b0\\_41455.b02e5ddd2dabbf876e73838cab3a44b6.djvu,0,2000-01-01 01:00:00,2016-04-03 02:51:08,504000/b02e5ddd2dabbf876e73838cab3a44b6-d.jpg,,
19523984,A Prospective Study of Presale Radiographs of Thoroughbred Yearlings,,,,"Melissa Jackson, Andrew Vizard, Garry Anderson, Andrew Clarke, John Mattoon, Roger Lavelle, Nola Lester, Todd Smithenson, Chris Whitton",,,,,159,0,English,183,,до 2011-01,1741518822,,,,,,,,,,,0,,,,,1,1,1,2187545,pdf,B08CB8630BE6D37CE3501070DE4AA608,,,D:\\!genesis\\library.nu\\b0\\_41333.b08cb8630be6d37ce3501070de4aa608.pdf,0,2000-01-01 01:00:00,2016-04-03 02:51:08,504000/b08cb8630be6d37ce3501070de4aa608-g.jpg,,
19523985,The Dawn-Builder,,,,John G. Neihardt,2008,,,,336,0,English,,,до 2011-01,"1438425465,9781438425467",,,,,813/.52,PS3527.E35 D39 2008,,,OL22658349M,,0,,,,,1,1,1,9849317,pdf,B04CBF5BA79FD9DDB42A655BDCCA3371,,,D:\\!genesis\\library.nu\\b0\\_41125.b04cbf5ba79fd9ddb42a655bdcca3371.pdf,0,2000-01-01 01:00:00,2016-04-03 02:51:08,504000/b04cbf5ba79fd9ddb42a655bdcca3371-d.jpg,,
19523986,Distant Worlds: Milestones in Planetary Exploration,,,,Peter Bond,2007,1,,,325,0,English,,,до 2011-01,"0387402128,9780387402123",,,,,,,,,OL7445793M,,0,,,,,1,1,1,41157963,pdf,B0B23F6F5115F705591910753CF10D7D,,,D:\\!genesis\\library.nu\\b0\\_40628.b0b23f6f5115f705591910753cf10d7d.pdf,0,2000-01-01 01:00:00,2016-04-03 02:51:08,504000/b0b23f6f5115f705591910753cf10d7d-d.jpg,,
19523987,Tooth Movement with Removable Appliances,,,,"J D Muir, R T Reed",1979,First Edition,,,167,0,English,137,,до 2011-01,"0272794244,9780272794241",,,,,,,,,OL19506477M,,0,,,,,1,,0,2131397,pdf,B00901F24623BE547E7D5BDA13520DE1,,,D:\\!genesis\\library.nu\\b0\\_40411.b00901f24623be547e7d5bda13520de1.pdf,0,2000-01-01 01:00:00,2016-04-03 02:51:08,,,
19523988,The Comforts of Home: Prostitution in Colonial Nairobi,,,,Luise White,1990,1,,,300,0,English,,,до 2011-01,"0226895076,9780226895079,0226895068,9780226895062",,,,,306.74/2/0967625,HQ260.5.N35 W45 1990,,,OL1874415M,,0,,,,,1,1,1,16781008,pdf,B012C38157910A8BE0385AE0C0536045,,,D:\\!genesis\\library.nu\\b0\\_40335.b012c38157910a8be0385ae0c0536045.pdf,0,2000-01-01 01:00:00,2016-04-03 02:51:08,504000/b012c38157910a8be0385ae0c0536045-d.jpg,,
19523989,Handbook of Non-Invasive Drug Delivery Systems: Science and Technology (Personal Care and Cosmetic Technology),,,,Vitthal S. Kulkarni,2009,1,,,313,0,English,48,,до 2011-01,"0815520255,9780815520252",,,,,,,,,,,0,,,,0,0,1,1,5387151,pdf,B07DDFF4787FF2EC4AD40905757FCA1A,,,D:\\!genesis\\library.nu\\b0\\_39978.b07ddff4787ff2ec4ad40905757fca1a.pdf,0,2000-01-01 01:00:00,2016-04-03 02:51:08,504000/b07ddff4787ff2ec4ad40905757fca1a-d.jpg,,
19523990,Che Guevara: The Economics of Revolution,,,,Helen Yaffe,2009,,,,368,0,English,305,,до 2011-01,"0230218202,9780230218208,0230218210,9780230218215",,,,,,,,,,,0,,,,,1,1,1,1286768,pdf,B0DC913921BFD34A9B1B3F8EBF0502CF,,,D:\\!genesis\\library.nu\\b0\\_39701.b0dc913921bfd34a9b1b3f8ebf0502cf.pdf,0,2000-01-01 01:00:00,2016-04-03 02:51:08,504000/b0dc913921bfd34a9b1b3f8ebf0502cf-d.jpg,,
19523991,Habib Dembele Guimba : Un artiste dans la cite,,,,Habib Dembele Guimba,,,,,223,0,French,,,до 2011-01,"2296066585,9782296066588",,,,,,,,,OL25112112M,,0,,,,,1,,1,5335098,pdf,B0AB8C08DCBF14AB352CA4905A03318D,,,D:\\!genesis\\library.nu\\b0\\_39564.b0ab8c08dcbf14ab352ca4905a03318d.pdf,0,2000-01-01 01:00:00,2016-04-03 02:51:08,504000/b0ab8c08dcbf14ab352ca4905a03318d-g.jpg,,
19523992,"Wizard and Glass (The Dark Tower, Book 4)",,,,Stephen King,2003,,,,752,0,English,,,до 2011-01,"0451210875,9780451210876,9780786537860",,,,,,,,,OL7574519M,,0,,,,,1,,1,2944852,pdf,B0B5E0C5C53A9439440E572EAD70E211,,,D:\\!genesis\\library.nu\\b0\\_38446.b0b5e0c5c53a9439440e572ead70e211.pdf,0,2000-01-01 01:00:00,2016-04-03 02:51:08,504000/b0b5e0c5c53a9439440e572ead70e211-d.jpg,,
19523993,Target Bosnia:  Integrating Information Activities in Peace Operations,,,,Pascale Combelles Siegel,1998,,,,206,0,English,,,до 2011-01,1-57906-008-0,,B000K0834A,,,,,,,,,0,,,,,1,,1,778538,pdf,B0DFE42221B33E895FD2644E83D0954D,,,D:\\!genesis\\library.nu\\b0\\_38102.b0dfe42221b33e895fd2644e83d0954d.pdf,0,2000-01-01 01:00:00,2016-04-03 02:51:08,504000/b0dfe42221b33e895fd2644e83d0954d-g.jpg,,
19523994,Planking Model Ships: A Step by Step Procedure for Beginning and Advanced Modelers (Moonraker Workbook 1),,,,Richard Mansir,1982,,,,16,0,English,,,до 2011-01,"0940620065,9780940620063",,,,,,,,,OL11538644M,,0,,,,,1,,0,11229789,pdf,B09793582A48ACDCED32A3E203980347,,,D:\\!genesis\\library.nu\\b0\\_37351.b09793582a48acdced32a3e203980347.pdf,0,2000-01-01 01:00:00,2016-04-03 02:51:08,504000/b09793582a48acdced32a3e203980347-g.jpg,,
19523995,Never Give Up on Your Dream: My Journey,,,,Warren Moon,2009,First Edition,,,280,0,English,,,до 2011-01,"0306818248,9780306818240",,,,,"796.332092,B",GV939.M595 A3 2009,,,OL23165707M,,0,,,,,1,,1,983685,pdf,B0CD35A5F402D81B94C45BBF9ED2FB7B,,,D:\\!genesis\\library.nu\\b0\\_36401.b0cd35a5f402d81b94c45bbf9ed2fb7b.pdf,0,2000-01-01 01:00:00,2016-04-03 02:51:08,504000/b0cd35a5f402d81b94c45bbf9ed2fb7b-d.jpg,,
19523996,Instructional Technology and Media for Learning,,,,"Sharon E.; Heinich, Robert; Russell, James D. Smaldino",2004,8,,,432,0,English,183,,до 2011-01,"9780131136823,0131136828",,,,,371.33,LB1028.3 .H45 2005,,,OL3303526M,,0,,,,,1,,0,20225582,pdf,B0BE9099094858A0179B9BE625DE9F60,,,D:\\!genesis\\library.nu\\b0\\_36070.b0be9099094858a0179b9be625de9f60.pdf,0,2000-01-01 01:00:00,2016-04-03 02:51:08,504000/b0be9099094858a0179b9be625de9f60-d.jpg,,
19523997,Das Zinn der Bronzezeit in Mittelasien I (Archaologie in Iran und Turan 5.),,,,"Hermann Parzinger, Nikolaus Boroffka",,,,,345,0,German,,,до 2011-01,"9783805331357,3805331355",,,,,,,,,OL19195331M,,0,,,,,1,,1,40147012,pdf,B0CDECA8743A314B9D4812877AFC4467,,,D:\\!genesis\\library.nu\\b0\\_35853.b0cdeca8743a314b9d4812877afc4467.pdf,0,2000-01-01 01:00:00,2016-04-03 02:51:08,504000/b0cdeca8743a314b9d4812877afc4467-g.jpg,,
19523998,"Performance and Durability of the Window-Wall Interface (ASTM special technical publication, 1484)",,,,"Barry G. Hardman, Carl R. Wagus and Theresa A. Weston, editors",2006,,,,168,0,English,,,до 2011-01,"080313410X,9780803134102",,,,,,,,,OL22758873M,,0,,,,,1,1,1,6088242,pdf,B0ABB46444446644DE3DAED5739E2B23,,,D:\\!genesis\\library.nu\\b0\\_35771.b0abb46444446644de3daed5739e2b23.pdf,0,2000-01-01 01:00:00,2016-04-03 02:51:08,504000/b0abb46444446644de3daed5739e2b23-g.jpg,,
19523999,Workers and Workplaces in Revolutionary China,,,,Stephen Andors,1977,,,,225,0,English,,,до 2011-01,,,B0028QIHVS,,,,,,,,,0,,,,,1,,0,22656841,pdf,B0E6C0CE06407A09E18458F287F0A997,,,D:\\!genesis\\library.nu\\b0\\_35633.b0e6c0ce06407a09e18458f287f0a997.pdf,0,2000-01-01 01:00:00,2016-04-03 02:51:08,504000/b0e6c0ce06407a09e18458f287f0a997-g.jpg,,
19524000,Grenadine 1 alum,,,,"Marie-Laure Poletti, Clelia Paccagnino",2006,,,,71,0,French,,,до 2011-01,"9782011554697,2011554691,2011552222,9782011552228",,,,,,,,,,,0,,,,,1,,0,77637913,pdf,B0CDDDDE1943F647A051E2A0AC83D2F4,,,D:\\!genesis\\library.nu\\b0\\_34673.b0cdddde1943f647a051e2a0ac83d2f4.pdf,0,2000-01-01 01:00:00,2016-04-03 02:51:08,504000/b0cdddde1943f647a051e2a0ac83d2f4-d.jpg,,
19524001,La montagne qui bouge,,,,Vink,,,,,50,0,French,,,до 2011-01,"2205049224,9782205049220",,,,,,,,,,,0,,,,,1,,0,22940432,pdf,B09B8D50CDF67DA9335EFF11C6F3CAF7,,,D:\\!genesis\\library.nu\\b0\\_34541.b09b8d50cdf67da9335eff11c6f3caf7.pdf,0,2000-01-01 01:00:00,2016-04-03 02:51:08,504000/b09b8d50cdf67da9335eff11c6f3caf7-g.jpg,,
19524002,Save the Whales - Decodable Book 21 Grade 1,,,,Linda Barr illustrated by Matt Buckingham,2006,,,,12,0,English,,,до 2011-01,"0153641061,9780153641060",,,,,,,,,,,0,,,,,1,1,1,686894,pdf,B0023922B959483222E797380E8C8835,,,D:\\!genesis\\library.nu\\b0\\_34193.b0023922b959483222e797380e8c8835.pdf,0,2000-01-01 01:00:00,2016-04-03 02:51:08,504000/b0023922b959483222e797380e8c8835-g.jpg,,
19524003,Out of the Margins: The Rise of Chinese Vernacular Fiction,,,,Liangyan Ge,2001,,,,293,0,English,,,до 2011-01,"0824823702,9780824823702,9780585488943",,,,,895.1/346,PL2694.S53 G4 2001,,,OL3944550M,,0,,,,,1,1,1,5064473,pdf,B0046753F628C6532BFF3A098F015C6B,,,D:\\!genesis\\library.nu\\b0\\_33855.b0046753f628c6532bff3a098f015c6b.pdf,0,2000-01-01 01:00:00,2016-04-03 02:51:08,504000/b0046753f628c6532bff3a098f015c6b-d.jpg,,
19524004,The Cambridge Companion to Jewish American Literature (Cambridge Companions to Literature),,,,"Hana Wirth-Nesher, Michael P. Kramer",2003,,,,316,0,English,,,до 2011-01,"0521792932,9780521792936,9780511063114,0521796997,9780521796996",,,,,810.9/8924,PS153.J4 C36 2003,,,OL22531009M,,0,,,,,1,1,1,1814123,pdf,B0D2ED1132D32DC10EA61F90D7F644A6,,,D:\\!genesis\\library.nu\\b0\\_3360.b0d2ed1132d32dc10ea61f90d7f644a6.pdf,0,2000-01-01 01:00:00,2016-04-03 02:51:08,504000/b0d2ed1132d32dc10ea61f90d7f644a6-d.jpg,,
19524005,"Les Fondements philosophiques des systemes economiques: Textes de Jacques Rueff et essais rediges en son honneur, 23 aout 1966. Textes et essais rassembles et publies sous la direction de Emil M. Claassen",,,,"Jacques Rueff, Emil M. Claassen",,,,,525,0,French,305,,до 2011-01,,,B001D3DPHS,,,,,,,,,0,,,,,1,,1,9549518,pdf,B0A53CC80B2E1241FFC5BDF37BB2E9B8,,,D:\\!genesis\\library.nu\\b0\\_33345.b0a53cc80b2e1241ffc5bdf37bb2e9b8.pdf,0,2000-01-01 01:00:00,2016-04-03 02:51:08,504000/b0a53cc80b2e1241ffc5bdf37bb2e9b8-g.jpg,,
19524006,Teach Yourself Beginner's Greek Script (Teach Yourself Languages),,,,"Dennis Couniacis, Sheila Hunt",2003,,,,160,0,English,314,,до 2011-01,"0340860219,9780340860212",,,,,,,,,OL9422395M,,0,,,,,1,,1,5581685,pdf,B0E2D2CB2626653CCEC16633D96B7E9D,,,D:\\!genesis\\library.nu\\b0\\_32942.b0e2d2cb2626653ccec16633d96b7e9d.pdf,0,2000-01-01 01:00:00,2016-04-03 02:51:08,504000/b0e2d2cb2626653ccec16633d96b7e9d-d.jpg,,
19524007,Vom Ende der Anonymitat. Die Globalisierung der Uberwachung,,,,Christiane Schulzki-Haddouti,,,,,105,0,German,,,до 2011-01,"3882291850,9783882291858",,,,,,,,,,,0,,,,,1,,1,3932423,pdf,B08377B32FADEBE724DD659A95D1C67E,,,D:\\!genesis\\library.nu\\b0\\_32567.b08377b32fadebe724dd659a95d1c67e.pdf,0,2000-01-01 01:00:00,2016-04-03 02:51:08,504000/b08377b32fadebe724dd659a95d1c67e-g.jpg,,
19524008,Review of Truth in Mathematics,,,,Wim Ruitenburg,,,,,12,0,English,113,,до 2011-01,0-198-51476-X,,,,,,,,,,,0,,,,,0,,1,194420,pdf,B098152B3314F4F1DE81BE25EA4EF32B,,,D:\\!genesis\\library.nu\\b0\\_32466.b098152b3314f4f1de81be25ea4ef32b.pdf,0,2000-01-01 01:00:00,2016-04-03 02:51:08,504000/b098152b3314f4f1de81be25ea4ef32b-g.jpg,,
19524009,"The Writings of George Washington, Volume V",,,,George Washington,2009,,,,548,0,English,,,до 2011-01,"0559986688,9780559986680",,,,,,,,,,,0,,,,,1,,1,14981273,pdf,B083A7923BDB13771E4363EE3FE935AF,,,D:\\!genesis\\library.nu\\b0\\_32132.b083a7923bdb13771e4363ee3fe935af.pdf,0,2000-01-01 01:00:00,2016-04-03 02:51:08,504000/b083a7923bdb13771e4363ee3fe935af-d.jpg,,
19524010,"Signed, Mata Hari: A Novel",,,,Yannick Murphy,2007,1,,,288,0,English,,,до 2011-01,"9780316112642,031611264X,034912082X,9780349120829,0349120218,9780349120218",,B000SHVHT8,,,813/.54,PS3563.U7635 S57 2007,,,OL10426568M,,0,,,,,1,,1,604755,pdf,B0C492E8D21D2FC5250BBC1291D6BD12,,,D:\\!genesis\\library.nu\\b0\\_31912.b0c492e8d21d2fc5250bbc1291d6bd12.pdf,0,2000-01-01 01:00:00,2016-04-03 02:51:08,504000/b0c492e8d21d2fc5250bbc1291d6bd12-d.jpg,,
19524011,April Fool's Day: A Novel (P.S.),,,,Josip Novakovich,2006,,,,256,0,English,,,до 2011-01,"0060583983,9780060583989,9780061568565",,,,,,,,,OL24271287M,,0,,,,,1,,1,1204858,pdf,B06B430AE7DE305152390E83A4BC97A4,,,D:\\!genesis\\library.nu\\b0\\_31906.b06b430ae7de305152390e83a4bc97a4.pdf,0,2000-01-01 01:00:00,2016-04-03 02:51:08,504000/b06b430ae7de305152390e83a4bc97a4-d.jpg,,
19524012,La voluntad encarcelada : las ''luminosas trincheras de combate'' de Sendero Luminoso del Peru,,,,Jose Luis Renique.,,,,,175,0,Spanish,,,до 2011-01,9972510875,,,,,,,,,OL3729166M,,0,,,,,1,,1,952936,pdf,B0A3C92E212DAC58C73D98BBA7FDA49F,,,D:\\!genesis\\library.nu\\b0\\_31809.b0a3c92e212dac58c73d98bba7fda49f.pdf,0,2000-01-01 01:00:00,2016-04-03 02:51:08,504000/b0a3c92e212dac58c73d98bba7fda49f-g.jpg,,
19524013,Social Inclusion of People with Mental Illness,,,,"Julian Leff, Richard Warner",2006,1,,,204,0,English,189,,до 2011-01,"0521615364,9780521615365,9780511225949",,,,,,,,,OL22731568M,,0,,,,,1,1,1,1436335,pdf,B0E926A08F9F0A8FBA28DE2227422056,,,D:\\!genesis\\library.nu\\b0\\_3170.b0e926a08f9f0a8fba28de2227422056.pdf,0,2000-01-01 01:00:00,2016-04-03 02:51:08,504000/b0e926a08f9f0a8fba28de2227422056-d.jpg,,
19524014,The Professional Photographer's Legal Handbook,,,,Nancy Wolff,2007,1st,,,272,0,English,59,,до 2011-01,"1581154771,9781581154771,9781581156386",,B001TTEBSI,,,,,,,OL8782600M,,0,,,,,1,1,1,3234922,pdf,B02428943430639FD10D460488C2D45F,,,D:\\!genesis\\library.nu\\b0\\_31684.b02428943430639fd10d460488c2d45f.pdf,0,2000-01-01 01:00:00,2016-04-03 02:51:08,504000/b02428943430639fd10d460488c2d45f-d.jpg,,
19524015,Dresden Files 02 Fool Moon,,The Dresden Files Book 2,,Jim Butcher,2001,,Roc,,352,0,English,,,до 2011-01,"0451458125,9780451458124",,,,,813,,,,OL23998623M,,0,,,,,,,1,308565,epub,B0B8747111E78099CE2816AB63F1E192,,,D:\\!genesis\\library.nu\\b0\\_315978.b0b8747111e78099ce2816ab63f1e192.epub,0,2000-01-01 01:00:00,2016-04-03 02:51:08,504000/b0b8747111e78099ce2816ab63f1e192-d.jpg,,
19524016,Japanese War Orphans in Manchuria: Forgotten Victims of World War II,,,,Mayumi Itoh,2010,,Palgrave Macmillan,,264,0,English,67,,до 2011-01,"023062281X,9780230622814",,,,,305.23086/94509518,HV887.C552 M3645 2010,,,OL23668065M,,0,,,,,,1,1,4148283,pdf,B042A0DF95B078D654405378781D9D69,,,D:\\!genesis\\library.nu\\b0\\_315816.b042a0df95b078d654405378781d9d69.pdf,0,2000-01-01 01:00:00,2016-04-03 02:51:08,504000/b042a0df95b078d654405378781d9d69-d.jpg,,
19524017,"Enumerative Combinatorics, volume 1, second edition, draft",,,,"Richard Stanley,",,,,,714,0,English,126,,до 2011-01,,,,,,,,,,,draft version from 21 February 2011,0,,,,,,,1,4567396,pdf,B0A9FB9348BA5095A652B328DE5F23A7,,,D:\\!genesis\\library.nu\\b0\\_314445.b0a9fb9348ba5095a652b328de5f23a7.pdf,0,2000-01-01 01:00:00,2016-04-03 02:51:08,504000/b0a9fb9348ba5095a652b328de5f23a7-g.jpg,,
19524018,Κατά Χριστιανών,,Οι Τελευταίοι Έλληνες Εθνικοί · 7,,"Πορφύριος, Γιάννης Αβραμίδης (μετάφραση)",2000,,Αίολος,,118,0,Greek,,,до 2011-01,9608097029,,,,,,,,,,,0,,,,,,1,0,14026943,pdf,B00258FD6075EFAB2CAC2B4683E4DAA6,,,D:\\!genesis\\library.nu\\b0\\_314214.b00258fd6075efab2cac2b4683e4daa6.pdf,0,2000-01-01 01:00:00,2016-04-03 02:51:08,504000/b00258fd6075efab2cac2b4683e4daa6-g.jpg,,
19524019,"Social Robotics: Second International Conference on Social Robotics, ICSR 2010, Singapore, November 23-24, 2010. Proceedings (Lecture Notes in ...   Lecture Notes in Artificial Intelligence)",,Lecture Notes in Computer Science 6414,,"Haizhou Li, John-John Cabibihan, Yeow Kee Tan",2010,1st Edition.,Springer,,423,0,English,257,,до 2011-01,"3642172474,9783642172472",,,,,,,,,OL25156434M,,0,,,,,,1,1,12192624,pdf,B057CCFBAFB61A514A991B24F6C752C3,,,D:\\!genesis\\library.nu\\b0\\_313968.b057ccfbafb61a514a991b24f6c752c3.pdf,0,2000-01-01 01:00:00,2016-04-03 02:51:08,504000/b057ccfbafb61a514a991b24f6c752c3-d.jpg,,
19524020,"Unifying Theories of Programming: Third International Symposium, UTP 2010, Shanghai, China, November 15-16, 2010, Proceedings (Lecture Notes in ... Computer Science and General Issues)",,Lecture Notes in Computer Science 6445,,Shengchao Qin,2010,1st Edition.,Springer,,316,0,English,69,,до 2011-01,"364216689X,9783642166891",,,,,,,,,,,0,,,,,,,1,2878340,pdf,B067B83904964787EF63A3896DE952A2,,,D:\\!genesis\\library.nu\\b0\\_313903.b067b83904964787ef63a3896de952a2.pdf,0,2000-01-01 01:00:00,2016-04-03 02:51:08,504000/b067b83904964787ef63a3896de952a2-d.jpg,,
19524021,Final Cut Pro 7: Professionelle Videoproduktion mit dem neuen Final Cut Studio,,,,"Andreas Zerr, Manuel Skroblin",2010,,Galileo Press,,815,0,German,183,,до 2011-01,"3836215349,9783836215343",,,,,,,,,,,0,,,,,,,1,51129408,pdf,B00F7DE2EF75438FBC67EE5AD23DFDDD,,,D:\\!genesis\\library.nu\\b0\\_313750.b00f7de2ef75438fbc67ee5ad23dfddd.pdf,0,2000-01-01 01:00:00,2016-04-03 02:51:08,504000/b00f7de2ef75438fbc67ee5ad23dfddd-g.jpg,,
19524022,"Computer Vision -- ECCV 2010: 11th European Conference on Computer Vision, Heraklion, Crete, Greece, September 5-11, 2010, Proceedings, Part VI ... Vision, Pattern Recognition, and Graphics)",,Lecture Notes in Computer Science 6316,,"Kostas Daniilidis, Petros Maragos, Nikos Paragios",2010,1st Edition.,Springer,,623,0,English,69,,до 2011-01,"3642155669,9783642155666",,,,,,,,,,,0,,,,,,1,1,20248055,pdf,B09BE634B656BF7C90DB26B974381AC9,,,D:\\!genesis\\library.nu\\b0\\_313643.b09be634b656bf7c90db26b974381ac9.pdf,0,2000-01-01 01:00:00,2016-04-03 02:51:08,504000/b09be634b656bf7c90db26b974381ac9-d.jpg,,
19524023,Bob Bondurant on Police and Pursuit Driving,,,,Bob Bondurant,2000,1st,,,144,0,English,,,до 2011-01,"0760306869,9780760306864",,,,,,,,,OL8010803M,,0,,,,,1,1,1,36761624,pdf,B045EB10B57C61257C595C1F3B8A66A3,,,D:\\!genesis\\library.nu\\b0\\_31364.b045eb10b57c61257c595c1f3b8a66a3.pdf,0,2000-01-01 01:00:00,2016-04-03 02:51:08,504000/b045eb10b57c61257c595c1f3b8a66a3-d.jpg,,
19524024,Broken Lullaby (Love Inspired Suspense Series)   ,,,,Pamela Tracy,,,Harlequin Enterprises,,,0,English,,,до 2011-01,"9781426814402,1426814402",,,,,,,,,OL24249484M,,0,,,,,,,,204900,epub,B0F60CF1F33B5555C947C2538152EB0A,,,D:\\!genesis\\library.nu\\b0\\_313560.b0f60cf1f33b5555c947c2538152eb0a.epub,0,2000-01-01 01:00:00,2016-04-03 02:51:08,504000/B0F60CF1F33B5555C947C2538152EB0A-g.jpg,,
19524025,"Advances in Computer Science and Information Technology: AST UCMA ISA ACN 2010 Conferences, Miyazaki, Japan, June 23-25, 2010. Joint Proceedings ... Applications, incl. Internet Web, and HCI)",,Lecture Notes in Computer Science 6059,,"Tai-hoon Kim, Hojjat Adeli",2010,1st Edition.,Springer,,614,0,English,69,,до 2011-01,"3642135765,9783642135767",,,,,,,,,,,0,,,,,,1,1,13179515,pdf,B0D387C004FD8D87820AB0285FD0DA4D,,,D:\\!genesis\\library.nu\\b0\\_313345.b0d387c004fd8d87820ab0285fd0da4d.pdf,0,2000-01-01 01:00:00,2016-04-03 02:51:08,504000/b0d387c004fd8d87820ab0285fd0da4d-d.jpg,,
19524026,"Computer Vision -- ACCV 2009: 9th Asian Conference on Computer Vision, Xi'an, China, September 23-27, 2009, Revised Selected Papers, Part II (Lecture ... Vision, Pattern Recognition, and Graphics)",,Lecture Notes in Computer Science 5995,,"Hongbin Zha, Rin-ichiro Taniguchi, Stephen Maybank",2010,1st Edition.,Springer,,741,0,English,69,,до 2011-01,"3642123031,9783642123030",,,,,,,,,,,0,,,,,,1,1,21204363,pdf,B034FA8B074276DF7995EA9348D60C4D,,,D:\\!genesis\\library.nu\\b0\\_313228.b034fa8b074276df7995ea9348d60c4d.pdf,0,2000-01-01 01:00:00,2016-04-03 02:51:08,504000/b034fa8b074276df7995ea9348d60c4d-d.jpg,,
19524027,Against Normalization: Writing Radical Democracy in South Africa (Post-Contemporary Interventions),,,,Anthony O'Brien,2001,,,,352,0,English,,,до 2011-01,"0822325713,9780822325710,0822325527,9780822325529,9780822380634",,,,,820.9/358/0968,PR9359.6 .O27 2001,,,OL6789014M,,0,,,,,1,,1,13896801,pdf,B0A89AA7227DB885BFA0EAAA9F145F63,,,D:\\!genesis\\library.nu\\b0\\_31293.b0a89aa7227db885bfa0eaaa9f145f63.pdf,0,2000-01-01 01:00:00,2016-04-03 02:51:08,504000/b0a89aa7227db885bfa0eaaa9f145f63-d.jpg,,
19524028,The Hitchhiker's Guide to the Galaxy,,,,Douglas Adams,,,"Del Rey, an imprint of The Random House Publishing Group",,,0,English,,,до 2011-01,9780307417138,,,,,,,,,OL24292970M,,0,,,,,,,1,2244015,epub,B00C1AE7841CD30340AFE247D763621E,,,D:\\!genesis\\library.nu\\b0\\_312828.b00c1ae7841cd30340afe247d763621e.epub,0,2000-01-01 01:00:00,2016-04-03 02:51:08,504000/B00C1AE7841CD30340AFE247D763621E-g.jpg,,
19524029,Phantom Prey (Lucas Davenport),,,,John Sandford,2008,1ST,Putnam Adult,,384,0,English,,,до 2011-01,"0399155007,9780399155000",,,,,813/.54,PS3569.A516 P53 2008,,,OL10175945M,,0,,,,,,,1,327659,epub,B06D4AC14AF8C08222099BA6156E1A4B,,,D:\\!genesis\\library.nu\\b0\\_311993.b06d4ac14af8c08222099ba6156e1a4b.epub,0,2000-01-01 01:00:00,2016-04-03 02:51:08,504000/b06d4ac14af8c08222099ba6156e1a4b-d.jpg,,
19524030,"Kitty and the Silver Bullet (Kitty Norville, Book 4)",,,,Carrie Vaughn,2008,,Grand Central Publishing,,,0,English,,,до 2011-01,,,,,,,,,,,,0,,,,,,,,349145,epub,B0C9B88B05B6B65BB00D747F03F70EAB,,,D:\\!genesis\\library.nu\\b0\\_311935.b0c9b88b05b6b65bb00d747f03f70eab.epub,0,2000-01-01 01:00:00,2016-04-03 02:51:08,504000/B0C9B88B05B6B65BB00D747F03F70EAB-g.jpg,,
19524031,Dead and Gone (Sookie Stackhouse   Southern Vampire Series #9),,Sookie Stackhouse Southern Vampire Series,,Charlaine Harris,2011,,Penguin Group (USA),,,0,English,,,до 2011-01,,,,,,,,,,,,0,,,,,,,,343245,epub,B04B5B4542A7C7C1265345C4B80570E6,,,D:\\!genesis\\library.nu\\b0\\_311707.b04b5b4542a7c7c1265345c4b80570e6.epub,0,2000-01-01 01:00:00,2016-04-03 02:51:08,504000/B04B5B4542A7C7C1265345C4B80570E6-g.jpg,,
19524032,An Introduction to Modern Econometrics Using Stata,,,,Christopher F. Baum,2006,1,Stata Press,,341,0,English,310,,до 2011-01,"1597180130,9781597180139",,,,,,,,,OL8892824M,,0,,,,,,,0,39179087,pdf,B0B9EAC8D2B28132464211F95EF71530,,,D:\\!genesis\\library.nu\\b0\\_311641.b0b9eac8d2b28132464211f95ef71530.pdf,0,2000-01-01 01:00:00,2016-04-03 02:51:08,504000/b0b9eac8d2b28132464211f95ef71530-d.jpg,,
19524033,Model-based Geostatistics,,Springer Series in Statistics,,"Peter J. Diggle, Paulo J. Ribeiro Jr.",2007,1,Springer,,242,0,English,,,до 2011-01,"0387329072,9780387329079",,,,,,,,,OL7445442M,,0,,,,,,1,1,7993144,pdf,B016171B7D15B522B60213BB9653B1E8,,,D:\\!genesis\\library.nu\\b0\\_311344.b016171b7d15b522b60213bb9653b1e8.pdf,0,2000-01-01 01:00:00,2016-04-03 02:51:08,504000/b016171b7d15b522b60213bb9653b1e8-d.jpg,,
19524034,Voluntary Health Insurance in the european union,,,,Elias Mossialos and Sarah Thomson,2004,,,,206,0,English,,,до 2011-01,"9289010657,9789289010658",,,,,,,,,OL16344410M,,0,,,,,1,,1,847928,pdf,B046D3FF17DEBACEC14EE5DBA87A1342,,,D:\\!genesis\\library.nu\\b0\\_31084.b046d3ff17debacec14ee5dba87a1342.pdf,0,2000-01-01 01:00:00,2016-04-03 02:51:08,504000/b046d3ff17debacec14ee5dba87a1342-g.jpg,,
19524035,Modular Lie Algebras and Their Representations (Chapman & Hall CRC Pure and Applied Mathematics),,,,H. Strade,1988,1,CRC Press,,301,0,English,113,,до 2011-01,"0824775945,9780824775940",,,,,512/.55,QA252.3,,,OL22642395M,,0,,,,,,,1,8866950,djvu,B076F78ACC3EA89C7F20705936963F96,,,D:\\!genesis\\library.nu\\b0\\_310576.b076f78acc3ea89c7f20705936963f96.djvu,0,2000-01-01 01:00:00,2016-04-03 02:51:08,504000/b076f78acc3ea89c7f20705936963f96-d.jpg,,
19524036,"Virtual and Mixed Reality: Third International Conference, VMR 2009, Held as Part of HCI International 2009, San Diego, CA USA, July, 19-24, 2009, ... Applications, incl. Internet Web, and HCI)",,Lecture Notes in Computer Science 5622,,Randall Shumaker,2009,1,Springer,,657,0,English,137,,до 2011-01,"3642027709,9783642027703",,,,,,,,,,,0,,,,,,1,1,39997400,pdf,B0C17DD415E809EF5B703503E7E562CB,,,D:\\!genesis\\library.nu\\b0\\_310013.b0c17dd415e809ef5b703503e7e562cb.pdf,0,2000-01-01 01:00:00,2016-04-03 02:51:08,504000/b0c17dd415e809ef5b703503e7e562cb-d.jpg,,
19524037,Fast Fourier Transform - Algorithms and Applications,,Signals and Communication Technology,,"K.R. Rao, D.N. Kim, J.-J. Hwang",2010,1st Edition.,Springer,,443,0,English,137,Kolxo3,до 2011-01,"1402066287,9781402066283",,,,,,,10.1007/978-1-4020-6629-0,,,,0,,,,,,,1,5377004,pdf,B044BCA5024CB348B96E4E4A0EFD76D7,,,"M_Mathematics/MN_Numerical methods/MNw_Wavelets, signal processing/Rao K.R., Kim D.N., Hwang J.-J. Fast Fourier transform. Algorithms and applications (Springer, 2010)(ISBN 1402066287)(O)(443s)_MNw_.pdf",0,2000-01-01 01:00:00,2016-04-03 02:51:08,504000/b044bca5024cb348b96e4e4a0efd76d7-d.jpg,,
19524038,The Sea Watch (Shadows of the Apt),,,,Adrian Tchaikovsky,2011,,Tor Books,,480,0,English,,,до 2011-01,"0330511467,9780330511469",,,,,,,,,,,0,,,,,,,1,2774702,pdf,B0FAFF8605FE6F7D1CD05545A7BE5A61,,,D:\\!genesis\\library.nu\\b0\\_309742.b0faff8605fe6f7d1cd05545a7be5a61.pdf,0,2000-01-01 01:00:00,2016-04-03 02:51:08,504000/b0faff8605fe6f7d1cd05545a7be5a61-d.jpg,,
19524039,Rigorous Methods for Software Construction and Analysis: Essays Dedicated to Egon Borger on the Occasion of His 60th Birthday (Lecture Notes in Computer Science),,Lecture Notes in Computer Science 5115,,"Jean-Raymond Abrial, Uwe Glasser",2010,1st Edition.,Springer,,247,0,English,69,,до 2011-01,"3642114466,9783642114465",,,,,,,,,,,0,,,,,,1,1,3197383,pdf,B0CDF437CB7E8E8F672A2A8A5A73FFAC,,,D:\\!genesis\\library.nu\\b0\\_309690.b0cdf437cb7e8e8f672a2a8a5a73ffac.pdf,0,2000-01-01 01:00:00,2016-04-03 02:51:08,504000/b0cdf437cb7e8e8f672a2a8a5a73ffac-d.jpg,,
19524040,Freedom Under Siege: The U.S. Constitution After 200 Years,,,,Ron Paul,2007,,,,160,0,English,,,до 2011-01,,,B000XG4ZGQ,,,,,,,,,0,,,,,1,1,1,693145,pdf,B027AEB22D7BA02EBE4C79006608D892,,,D:\\!genesis\\library.nu\\b0\\_30968.b027aeb22d7ba02ebe4c79006608d892.pdf,0,2000-01-01 01:00:00,2016-04-03 02:51:08,504000/b027aeb22d7ba02ebe4c79006608d892-d.jpg,,
19524041,"Learning in the Synergy of Multiple Disciplines: 4th European Conference on Technology Enhanced Learning, EC-TEL 2009 Nice, France, September ...   Programming and Software Engineering)",,Lecture Notes in Computer Science 5794,,"Ulrike Cress, Vania Dimitrova, Marcus Specht",2009,1,Springer,,829,0,English,210,,до 2011-01,"3642046355,9783642046353",,,,,,,,,,,0,,,,,,1,1,22862880,pdf,B04B6DA910AE5249D034791CA92E0E4F,,,D:\\!genesis\\library.nu\\b0\\_309517.b04b6da910ae5249d034791ca92e0e4f.pdf,0,2000-01-01 01:00:00,2016-04-03 02:51:08,504000/b04b6da910ae5249d034791ca92e0e4f-d.jpg,,
19524042,Today's Parent - March 2011,,,,Caroline Connell (Editor),,,,,181,0,English,,,до 2011-01,,,,,,,,,,,,0,,,,,,,0,67030076,pdf,B0D9951FCB34DD97EFD36656BF0765AC,,,D:\\!genesis\\library.nu\\b0\\_308765.b0d9951fcb34dd97efd36656bf0765ac.pdf,0,2000-01-01 01:00:00,2016-04-03 02:51:08,504000/b0d9951fcb34dd97efd36656bf0765ac-g.jpg,,
19524043,Energy In The 21st Century,,,,John R. Fanchi,2005,,World Scientific Publishing Company,,257,0,English,263,,до 2011-01,"9789812561954,9812561951,9812561854,9789812561855,9789812567710",,,,,,,,,OL9197186M,,300,,,,,,,1,4718537,djvu,B0F193AD0D34710335AF99C7AE0D8528,,,D:\\!genesis\\library.nu\\b0\\_308673.b0f193ad0d34710335af99c7ae0d8528.djvu,0,2000-01-01 01:00:00,2016-04-03 02:51:08,504000/b0f193ad0d34710335af99c7ae0d8528-d.jpg,,
19524044,Great Seal of the United States,,,,Paul Foster Case,1976,10th,Builders of Adytum Ltd,,64,0,English,65,,до 2011-01,"0938002015,9780938002017",,,,,,,,,OL8416058M,,0,,,,,,1,1,2863069,pdf,B0DFF055B224E177CCD950AE59662095,,,D:\\!genesis\\library.nu\\b0\\_308373.b0dff055b224e177ccd950ae59662095.pdf,0,2000-01-01 01:00:00,2016-04-03 02:51:08,504000/b0dff055b224e177ccd950ae59662095-g.jpg,,
19524045,How to Read Egyptian Hieroglyphs: A Step-by-Step Guide to Teach Yourself,,,,"Mark Collier, Bill Manley",1998,1,University of California Press,,179,0,English,,,до 2011-01,"0520215974,9780520215979",,,,,,,,,OL13624791M,Bottom lines of most pages cut off,0,,,,,,,1,41833582,pdf,B0ED2C63FD529CE795C2C6BF08D951BF,,,D:\\!genesis\\library.nu\\b0\\_308279.b0ed2c63fd529ce795c2c6bf08d951bf.pdf,0,2000-01-01 01:00:00,2016-04-03 02:51:08,504000/b0ed2c63fd529ce795c2c6bf08d951bf-d.gif,,
19524046,Vitamin D and Cancer,,,,IARC,,,,,465,0,English,166,,до 2011-01,9789283224464,,,,,,,,,,,0,,,,,1,,1,3628916,pdf,B03267498318F1EFC9CA5190938EFDD1,,,D:\\!genesis\\library.nu\\b0\\_30781.b03267498318f1efc9ca5190938efdd1.pdf,0,2000-01-01 01:00:00,2016-04-03 02:51:08,504000/b03267498318f1efc9ca5190938efdd1-g.jpg,,
19524047,Elements of Ecology,,,,George L. Clarke,1954,,John Wiley & Sons,,549,0,English,31,,до 2011-01,,,,,,,,,,,missing pages 401-408,600,,,,,,1,1,39099595,pdf,B06DB5E567E38AE498042172ACB48E21,,,D:\\!genesis\\library.nu\\b0\\_307248.b06db5e567e38ae498042172acb48e21.pdf,0,2000-01-01 01:00:00,2016-04-03 02:51:08,504000/b06db5e567e38ae498042172acb48e21-g.jpg,,
19524048,"Aluminium Alloys, Theory and Applications",,,,Tibor Kvackaj,,,,,412,0,English,137,,до 2011-01,9789533072449,,,,,,,,,,,0,,,,,,1,1,54986280,pdf,B0D5335D7CABC10EFD6967055A9A95F1,,,D:\\!genesis\\library.nu\\b0\\_306351.b0d5335d7cabc10efd6967055a9a95f1.pdf,0,2000-01-01 01:00:00,2016-04-03 02:51:08,504000/b0d5335d7cabc10efd6967055a9a95f1-g.jpg,,
19524049,"Folds, Bodies & Blobs : Collected Essays (Books-by-architects)",,,,Greg Lynn,1998,0,La Lettre volee,,240,0,English,58,,до 2011-01,"2873170689,9782873170684",,,,,,,,,OL109602M,,0,,,,,,1,1,11301469,pdf,B09142838034D6413727CF2797D39290,,,D:\\!genesis\\library.nu\\b0\\_305978.b09142838034d6413727cf2797d39290.pdf,0,2000-01-01 01:00:00,2016-04-03 02:51:08,504000/b09142838034d6413727cf2797d39290-d.jpg,,
19524050,Certain Noble Plays of Japan,,,,Ezra Pound,2010,,HardPress Publishing,,60,0,English,,,до 2011-01,"1407647482,9781407647487",,,,,,,,,,,0,,,,,,1,1,213050,pdf,B04D8FA3DF5699A6FFE13BC2B167A3AC,,,D:\\!genesis\\library.nu\\b0\\_305891.b04d8fa3df5699a6ffe13bc2b167a3ac.pdf,0,2000-01-01 01:00:00,2016-04-03 02:51:08,504000/b04d8fa3df5699a6ffe13bc2b167a3ac-d.jpg,,
19524051,Вооружение енисейских кыргызов VI-XII вв.,,,,Худяков Ю.С.,1980,,Наука,,176,0,Russian,,,до 2011-01,,,,,,,,,,,,0,,,,,,,1,33417761,pdf,B0FB52A91941EE85737976477F139C4C,,,D:\\!genesis\\library.nu\\b0\\_305019.b0fb52a91941ee85737976477f139c4c.pdf,0,2000-01-01 01:00:00,2016-04-03 02:51:08,504000/b0fb52a91941ee85737976477f139c4c-g.jpg,,
19524052,Fisheries Policy Reform: National Experiences,,,,OECD,2011,,OECD Publishing,,122,0,English,192,,до 2011-01,"9789264074958,9789264096813",,,,,,,10.1787/9789264096813-en,,,,0,,,,,,,1,3060973,pdf,B0329EA8276DBCCC877017ED06B87FB5,,,D:\\!genesis\\library.nu\\b0\\_304410.b0329ea8276dbccc877017ed06b87fb5.pdf,0,2000-01-01 01:00:00,2016-04-03 02:51:08,504000/b0329ea8276dbccc877017ed06b87fb5-d.jpg,,
19524053,White Love and Other Events in Filipino History (American Encounters Global Interactions),,American Encounters Global Interactions,,Vicente L. Rafael,2000,,Duke University Press Books,,305,0,English,64,,до 2011-01,"082232542X,9780822325420",,,,,959.904,DS685 .R24 2000,,,OL48790M,,0,,,,,,,1,17544137,pdf,B084D8127ABA16D90A7F65022ADBA58F,,,D:\\!genesis\\library.nu\\b0\\_302959.b084d8127aba16d90a7f65022adba58f.pdf,0,2000-01-01 01:00:00,2016-04-03 02:51:08,504000/b084d8127aba16d90a7f65022adba58f-d.jpg,,
19524054,Contemporary Navajo Affairs (Navajo History Vol.3B),,Navajo History Vol.3B,,Norman K Eck,1982,1st,"Navajo Curriculum Center, Rough Rock Demonstration School",,255,0,English,64,,до 2011-01,"0936008059,9780936008059",,,,,"970.004/97 s,970.004/97","E99.N3 N33 vol. 3, pt. B",,,OL3509841M,,0,,,,,,,0,14421074,pdf,B0AF218B61C281EC1DC4955A9C95056B,,,D:\\!genesis\\library.nu\\b0\\_302894.b0af218b61c281ec1dc4955a9c95056b.pdf,0,2000-01-01 01:00:00,2016-04-03 02:51:08,504000/b0af218b61c281ec1dc4955a9c95056b-g.jpg,,
19524055,Down and Dirty,,Wild Cards 5,,George R.R. Martin,1988,,Bantam,,318,0,English,,,до 2011-01,"0553274635,9780553274639",,,,,,,,,OL17925803M,,0,,,,,,,1,523647,epub,B0B1BD5A1AC142EF655E36D8C7709971,,,D:\\!genesis\\library.nu\\b0\\_301967.b0b1bd5a1ac142ef655e36d8c7709971.epub,0,2000-01-01 01:00:00,2016-04-03 02:51:08,504000/b0b1bd5a1ac142ef655e36d8c7709971-d.jpg,,
19524056,Z Vm and Linux Operations for Z Os System Programmers,,,,IBM Redbooks,2008,,,,438,0,English,85,,до 2011-01,"0738431591,9780738431598",,,,,,,,,OL25030059M,,0,,,,,1,,1,4917617,pdf,B0A4B9056F819DCCD4781A5105C92D45,,,D:\\!genesis\\library.nu\\b0\\_30179.b0a4b9056f819dccd4781a5105c92d45.pdf,0,2000-01-01 01:00:00,2016-04-03 02:51:08,504000/b0a4b9056f819dccd4781a5105c92d45-d.jpg,,
19524057,Design of Digital Systems and Devices,,Lecture Notes in Electrical Engineering 79,,"Marian Adamski, Alexander Barkalov, Marek Wegrzyn",2011,1st Edition.,Springer,,384,0,English,,,до 2011-01,"3642175449,9783642175442",,,,,,,10.1007/978-3-642-17545-9,,,,0,,,,,,1,1,4733109,pdf,B0BE52446278E4EE7B2408E000349142,,,D:\\!genesis\\library.nu\\b0\\_301217.b0be52446278e4ee7b2408e000349142.pdf,0,2000-01-01 01:00:00,2016-04-03 02:51:08,504000/b0be52446278e4ee7b2408e000349142-d.jpg,,
19524058,Microsoft Dynamics Sure Step 2010,,,,"Chandru Shankar, Vincent Bellefroid",2011,,Packt Publishing,,360,0,English,87,,до 2011-01,"1849681104,9781849681100",,,,,,,,,,,0,,,,,,,1,23963816,pdf,B0545533A659C500CF17A23657D4AFBF,,,D:\\!genesis\\library.nu\\b0\\_301060.b0545533a659c500cf17a23657d4afbf.pdf,0,2000-01-01 01:00:00,2016-04-03 02:51:08,504000/b0545533a659c500cf17a23657d4afbf-d.jpg,,
19524059,"Nonlinear Semigroups, Fixed Points, and Geometry of Domains in Banach Spaces",,,,"Simeon Reich, David Shoikhet",2005,,Imperial College Press,,371,0,English,121,,до 2011-01,"1860945759,9781860945755",,,,,,,,,OL22711021M,,0,,,,,,1,1,15139017,pdf,B08C23CDC30D1441469F3DD45935A4B0,,,D:\\!genesis\\library.nu\\b0\\_300977.b08c23cdc30d1441469f3dd45935a4b0.pdf,0,2000-01-01 01:00:00,2016-04-03 02:51:08,504000/b08c23cdc30d1441469f3dd45935a4b0-d.jpg,,
19524060,Tafseer-e-Siddiqi (Volume 19),19,,,Allama Muhammad Abdul Qadir Siddiqi,,,,,124,0,Urdu,,,до 2011-01,,,,,,,,,,,,0,,,,,,,0,5137214,pdf,B0AAC387EFD0DD78FA3B2B9DDF27C7D2,,,D:\\!genesis\\library.nu\\b0\\_300252.b0aac387efd0dd78fa3b2b9ddf27c7d2.pdf,0,2000-01-01 01:00:00,2016-04-03 02:51:08,504000/b0aac387efd0dd78fa3b2b9ddf27c7d2-g.jpg,,
19524061,God's Demon,,,,Wayne Barlowe,2007,First Edition,Tor Books,,247,0,English,,,до 2011-01,"0765309858,9780765309853",,,,,,,,,OL10936394M,No pictures,0,,,,,,,1,1501689,pdf,B0DF3A5FCB22B9A32E836C9C419DBFF1,,,D:\\!genesis\\library.nu\\b0\\_300044.b0df3a5fcb22b9a32e836c9c419dbff1.pdf,0,2000-01-01 01:00:00,2016-04-03 02:51:08,504000/b0df3a5fcb22b9a32e836c9c419dbff1-d.jpg,,
19524062,What Men Owe to Women: Men's Voices from World Religions,,,,"John C. Raines, Daniel C. Maguire (eds.)",2001,,State University of New York Press,,312,0,English,205,,до 2011-01,"0791447855,9780791447857",,,,,,,,,OL7802397M,,0,,,,,,1,1,1723981,pdf,B0C5B9E041B42D2AA1D7BE210D0CAB09,,,D:\\!genesis\\library.nu\\b0\\_300041.b0c5b9e041b42d2aa1d7be210d0cab09.pdf,0,2000-01-01 01:00:00,2016-04-03 02:51:08,504000/b0c5b9e041b42d2aa1d7be210d0cab09-d.jpg,,
19524063,The Greatest Show on Earth: The Evidence for Evolution,,,,Richard Dawkins,2009,1,Free Press,,480,0,English,38,,до 2011-01,"1416594787,9781416594789",,,,,576.8,QH366.2 .D374 2009,,,OL23614062M,,0,,,,,,,1,21287113,epub,B0146B8D729D27742FB77DCC34C9AE6E,,,D:\\!genesis\\library.nu\\b0\\_299951.b0146b8d729d27742fb77dcc34c9ae6e.epub,0,2000-01-01 01:00:00,2016-04-03 02:51:08,504000/b0146b8d729d27742fb77dcc34c9ae6e-d.jpg,,
19524064,OpenSceneGraph 3.0: Beginner's Guide,,,,"Rui Wang, Xuelei Qian",2010,,Packt Publishing,,412,0,English,187,,до 2011-01,"1849512825,9781849512824",,,,,,,,,,,0,,,,,,,1,8086001,pdf,B036503A4183AC149009C1FE919FC28F,,,D:\\!genesis\\library.nu\\b0\\_299405.b036503a4183ac149009c1fe919fc28f.pdf,0,2000-01-01 01:00:00,2016-04-03 02:51:08,504000/b036503a4183ac149009c1fe919fc28f-d.jpg,,
19524065,Complexity and the Nexus of Leadership: Leveraging Nonlinear Science to Create Ecologies of Innovation,,,,"Jeffrey Goldstein, James K. Hazy, Benyamin B. Lichtenstein",2010,1,Palgrave Macmillan,,222,0,English,137,,до 2011-01,"0230622275,9780230622272",,,,,303.3/4,HD57.7 .G66396 2010,,,OL23919227M,,0,,,,,,1,1,971901,pdf,B06E638B6159BA9D481437F19EB2A17F,,,D:\\!genesis\\library.nu\\b0\\_299314.b06e638b6159ba9d481437f19eb2a17f.pdf,0,2000-01-01 01:00:00,2016-04-03 02:51:08,505000/b06e638b6159ba9d481437f19eb2a17f-d.jpg,,
19524066,Devil's Waltz (Alex Delaware 07),,,,Jonathan Kellerman,2003,,Ballantine Books,,,0,English,,,до 2011-01,,,,,,,,,,,,0,,,,,,,,462850,lit,B0BA5B8678250F77201E5662B150A641,,,D:\\!genesis\\library.nu\\b0\\_298749.b0ba5b8678250f77201e5662b150a641.lit,0,2000-01-01 01:00:00,2016-04-03 02:51:08,505000/B0BA5B8678250F77201E5662B150A641-g.jpg,,
19524067,Les nanoparticules : Un enjeu majeur pour la santé au travail ?,,,,"Benoît Hervé-Bazin, Collectif",2007,,EDP SCIENCES,,704,0,French,224,,до 2011-01,"2868839959,9782868839954",,,,,,,,,,,0,,,,,,1,1,4072995,pdf,B0E681A74B6CBA8FEA62F8E813C92A0A,,,D:\\!genesis\\library.nu\\b0\\_298664.b0e681a74b6cba8fea62f8e813c92a0a.pdf,0,2000-01-01 01:00:00,2016-04-03 02:51:08,505000/b0e681a74b6cba8fea62f8e813c92a0a-g.jpg,,
19524068,"Aromatic Hydroxyketones: Preparation and Physical Properties, 3rd Edition (4 Volume Set)",,,,Robert Martin,2011,3rd ed.,Springer,,2935,0,English,132,,до 2011-01,"1402097867,9781402097867",,,,,,,10.1007/978-1-4020-9787-4,,,,0,,,,,,,1,12164551,pdf,B0DC8BEB1F5F67933FEA4249AED477EC,,,D:\\!genesis\\library.nu\\b0\\_297420.b0dc8beb1f5f67933fea4249aed477ec.pdf,0,2000-01-01 01:00:00,2016-04-03 02:51:08,505000/b0dc8beb1f5f67933fea4249aed477ec-d.jpg,,
19524069,Laymans Guide to Steroids Part 3,,,,Mick Hart,,,,,150,0,English,,,до 2011-01,,,,,,,,,,,,0,,,,,,1,1,8571926,pdf,B04E9810428DE7200A2ED5E276A84F5B,,,D:\\!genesis\\library.nu\\b0\\_296869.b04e9810428de7200a2ed5e276a84f5b.pdf,0,2000-01-01 01:00:00,2016-04-03 02:51:08,505000/b04e9810428de7200a2ed5e276a84f5b-g.jpg,,
19524070,Ο ρινόκερος,,Παγκόσμιο Θέατρο -115,,"Ευγένιος Ιονέσκο (Eugene Ionesco), Γιώργος Πρωτοπαπάς (μετάφραση)",1992,,Δωδώνη,,198,0,Greek,,,до 2011-01,"9602485965,9789602485965",,,,,,,,,,,0,,,,,,,0,10736610,pdf,B0E0EF12A22A3B3464AC84A97A0EF272,,,D:\\!genesis\\library.nu\\b0\\_296815.b0e0ef12a22a3b3464ac84a97a0ef272.pdf,0,2000-01-01 01:00:00,2016-04-03 02:51:08,505000/b0e0ef12a22a3b3464ac84a97a0ef272-g.jpg,,
19524071,Yuendumu Everyday: Contemporary Life in Remote Aboriginal Australia,,,,Yasmine Musharbash,2009,,Aboriginal Studies Press,,213,0,English,,,до 2011-01,"0855756616,9780855756611,9780855756918",,,,,305.89915,GN667.Y84 M87 2008,,,OL23194878M,,0,,,,,,1,1,1231232,pdf,B03CB1129D70F9189D43FB3B9577F1D3,,,D:\\!genesis\\library.nu\\b0\\_296694.b03cb1129d70f9189d43fb3b9577f1d3.pdf,0,2000-01-01 01:00:00,2016-04-03 02:51:08,505000/b03cb1129d70f9189d43fb3b9577f1d3-d.jpg,,
19524072,Constitutionalism and the Separation of Powers,,,,M J C VILE,2010,2 Sub,Liberty Fund Inc.,,467,0,English,,,до 2011-01,"0865971749,9780865971745",,,,,320.473/04,JF229 .V5 1998,,,OL682666M,,0,,,,,,1,1,22780464,pdf,B04AE653AFA90BB1C659F077C2768EB3,,,D:\\!genesis\\library.nu\\b0\\_296509.b04ae653afa90bb1c659f077c2768eb3.pdf,0,2000-01-01 01:00:00,2016-04-03 02:51:08,505000/b04ae653afa90bb1c659f077c2768eb3-d.jpg,,
19524073,Summer Pleasures,,,,Nora Roberts,2002,,Silhouette Books,,,0,English,,,до 2011-01,,,,,,,,,,,,0,,,,,,,,386845,lit,B077377E2ECF1245265B22DE641B23BD,,,D:\\!genesis\\library.nu\\b0\\_296321.b077377e2ecf1245265b22de641b23bd.lit,0,2000-01-01 01:00:00,2016-04-03 02:51:08,505000/B077377E2ECF1245265B22DE641B23BD-g.jpg,,
19524074,,,Advances in Botanical Research 50,,Jean-Claude Kader and Michel Delseny (Eds.),2009,1,Academic Press,,1-242,0,English,178,,до 2011-01,978-0-12-374835-5,0065-2296,,,,,,,,,,0,,,,,,1,1,1954671,pdf,B0BA2DBDEE259AE1E93F00689D165266,,,D:\\!genesis\\library.nu\\b0\\_296293.b0ba2dbdee259ae1e93f00689d165266.pdf,0,2000-01-01 01:00:00,2016-04-03 02:51:08,505000/b0ba2dbdee259ae1e93f00689d165266-d.jpg,,
19524075,"Damned Lies and Statistics: Untangling Numbers from the Media, Politicians, and Activists",,,,Joel Best,2001,1,University of California Press,,203,0,English,,,до 2011-01,"0520219783,9780520219786",,,,,,,,,OL7710712M,,0,,,,,,1,1,1121515,pdf,B0B5BA39493CD2DE163ACBDEEE51FAD1,,,D:\\!genesis\\library.nu\\b0\\_295901.b0b5ba39493cd2de163acbdeee51fad1.pdf,0,2000-01-01 01:00:00,2016-04-03 02:51:08,505000/b0b5ba39493cd2de163acbdeee51fad1-d.jpg,,
19524076,Distributive and Procedural Justice,,,,Kjell Yngve To?rnblom; Rie?l Vermunt,2007,,Ashgate,,192,0,English,,,до 2011-01,"0754647668,9780754647669,9780754686132",,,,,,,,,OL10852663M,,0,,,,,,,1,970591,pdf,B0B5E2DADA78D465B47BE76CD937CDAC,,,D:\\!genesis\\library.nu\\b0\\_295725.b0b5e2dada78d465b47be76cd937cdac.pdf,0,2000-01-01 01:00:00,2016-04-03 02:51:08,505000/b0b5e2dada78d465b47be76cd937cdac-d.jpg,,
19524077,"American Mathematical Monthly, volume 117, number 1, january 2010",117,,,Daniel J. Velleman,2010,,Mathematical Association of America,,102,0,English,137,,до 2011-01,,,,,,,,10.4169/000298910X474952,,,,0,,,,,,1,1,1096109,pdf,B0EC2138C1CECCAA0FCB25190FCA7071,,,D:\\!genesis\\library.nu\\b0\\_295717.b0ec2138c1ceccaa0fcb25190fca7071.pdf,0,2000-01-01 01:00:00,2016-04-03 02:51:08,505000/b0ec2138c1ceccaa0fcb25190fca7071-g.jpg,,
19524078,"Dictionary of Louisiana French: As Spoken in Cajun, Creole, and American Indian Communities",,,,"Albert Valdman, Kevin J. Rottet, Barry Jean Ancelet, Richard Guidry, Thomas A. Klingler, Amanda LaFleur, Tamara Lindner, Michael D. Picone, Dominique Ryon",2009,1st,University Press of Mississippi,,933,0,English,322,,до 2011-01,"1604734035,9781604734034",,,,,447/.976303,PC3680.U7 L728 2009,,,OL23207939M,,0,,,,,,1,1,6299262,pdf,B0C848A1ECC905BDC8112884CEEC0A78,,,D:\\!genesis\\library.nu\\b0\\_295142.b0c848a1ecc905bdc8112884ceec0a78.pdf,0,2000-01-01 01:00:00,2016-04-03 02:51:08,505000/b0c848a1ecc905bdc8112884ceec0a78-d.jpg,,
19524079,Diagnostic Imaging: Chest,,,,Jud W. Gurney,2006,1,AMIRSYS,,992,0,English,,,до 2011-01,"1416023348,9781416023340",,,,,,,,,OL8455873M,,0,,,,,,,0,46805383,djvu,B0B46CDE5E8682C516A6FDADB9BA3CD9,e72006b77e0dc9fc20657e0d1c26d9f8,no,D:\\!genesis\\library.nu\\b0\\_295003.b0b46cde5e8682c516a6fdadb9ba3cd9.djvu,0,2000-01-01 01:00:00,2016-04-03 02:51:08,505000/b0b46cde5e8682c516a6fdadb9ba3cd9-d.jpg,,
19524080,Statistical Foundations of Econometric Modelling,,,,Aris Spanos,1989,,Cambridge University Press,,672,0,English,310,,до 2011-01,"0521269121,9780521269124",,,,,330/.028,HB141 .S64 1986,,,OL2548851M,,0,,,,,,,1,25732568,pdf,B0D599BCAFB77FDA380539AEF1B4510D,,,D:\\!genesis\\library.nu\\b0\\_294990.b0d599bcafb77fda380539aef1b4510d.pdf,0,2000-01-01 01:00:00,2016-04-03 02:51:08,505000/b0d599bcafb77fda380539aef1b4510d-d.jpg,,
19524081,Programmer's Guide to NCurses,,,,Dan Gookin,2007,1,Wiley,,579,0,English,,,до 2011-01,"0470107596,9780470107591",,,,,005.4/32,QA76.76.O63 G66665,,,OL17565436M,,0,,,,,,1,1,2145089,pdf,B0E33F0DB107583CF9267E27AA42F380,,,D:\\!genesis\\library.nu\\b0\\_294814.b0e33f0db107583cf9267e27aa42f380.pdf,0,2000-01-01 01:00:00,2016-04-03 02:51:08,505000/b0e33f0db107583cf9267e27aa42f380-d.jpg,,
19524082,"Biblioteca espanola-portugueza-judaica : dictionnaire bibliographique des auteurs juifs, de leurs ouvrages espanols et portugais et des oeuvres sur et contre les juifs et le judaisme. Avec ... une collection des proverbes espanols",,,,M. Kayserling,,,,,179,0,French,59,,до 2011-01,,,,,,,,,,,,0,,,,,,1,0,59503106,pdf,B0E700BACD7CD829E980CA483B3F5B77,,,D:\\!genesis\\library.nu\\b0\\_294566.b0e700bacd7cd829e980ca483b3f5b77.pdf,0,2000-01-01 01:00:00,2016-04-03 02:51:08,505000/b0e700bacd7cd829e980ca483b3f5b77-g.jpg,,
19524083,Die Gegenpapstin,,,,Martina Andre,2010,,Aufbau Verlag,,425,0,German,,,до 2011-01,"3746623235,9783746623238,9783841200112",,,,,,,,,,,0,,,,,,,1,2535141,epub,B04660B33030C2819025BCEEF7CE0D5C,,,D:\\!genesis\\library.nu\\b0\\_294125.b04660b33030c2819025bceef7ce0d5c.epub,0,2000-01-01 01:00:00,2016-04-03 02:51:08,505000/b04660b33030c2819025bceef7ce0d5c-d.jpg,,
19524084,Preaching from the Old Testament,,,,Elizabeth Achtemeier,1989,1st,Westminster John Knox Press,,192,0,English,,,до 2011-01,"0664250424,9780664250423",,,,,251,BS1191.5 .A24 1989,,,OL2056783M,,0,,,,,,,,288210,chm,B094A206345A8C32EED4CA2737C50960,,,D:\\!genesis\\library.nu\\b0\\_294052.b094a206345a8c32eed4ca2737c50960.chm,0,2000-01-01 01:00:00,2016-04-03 02:51:08,505000/b094a206345a8c32eed4ca2737c50960-d.jpg,,
19524085,Романские языки,,Языки мира.,,"Алисова Т.Б., Челышева И.И., Нарумов Б.П.",2001,,Academia,,722,0,Russian,315,,до 2011-01,"587444016X,9785874440169",,,,,,,,,,,0,,,,,,,0,43339037,djvu,B068BB96A6474A222A93678E54BE825A,c4c2e56d37b70013b6743623e31e9418,no,D:/!genesis/library.nu/b0/_293460.b068bb96a6474a222a93678e54be825a.djvu,0,2000-01-01 01:00:00,2016-04-03 02:51:08,505000/b068bb96a6474a222a93678e54be825a-g.jpg,,
19524086,The Last Sex: Feminism and Outlaw Bodies (Culturetexts),,Culturetexts,,"Arthur Kroker, Marilouise Kroker",1993,,Palgrave Macmillan,,261,0,English,201,,до 2011-01,"0312096828,9780312096823",,,,,305.42/01,HQ1190 .L37 1993,,,OL1411439M,,0,,,,,,1,1,11224038,pdf,B0D253ADE8F57A542F2418E7255D0520,,,D:\\!genesis\\library.nu\\b0\\_292770.b0d253ade8f57a542f2418e7255d0520.pdf,0,2000-01-01 01:00:00,2016-04-03 02:51:08,505000/b0d253ade8f57a542f2418e7255d0520-d.jpg,,
19524087,Horror Musicae Vacui,,,,Milan Uzelac,2007,,,,166,0,Serbian,62,,до 2011-01,,,,,,,,,,,,0,,,,,,,1,962090,pdf,B0A35D456E1BEAEC8A6C33D58D105A30,,,D:\\!genesis\\library.nu\\b0\\_292439.b0a35d456e1beaec8a6c33d58d105a30.pdf,0,2000-01-01 01:00:00,2016-04-03 02:51:08,505000/b0a35d456e1beaec8a6c33d58d105a30-g.jpg,,
19524088,"Human Rights Protection in the Field (International Studies in Human Rights, 87)",,,,Bertrand G. Ramcharan,2006,,,,424,0,English,183,,до 2011-01,9004148477,,,,,,,,,OL22722871M,,0,,,,,,,1,1247135,pdf,B0BD231ED29AD484FC875108F359C1D4,,,D:\\!genesis\\library.nu\\b0\\_291502.b0bd231ed29ad484fc875108f359c1d4.pdf,0,2000-01-01 01:00:00,2016-04-03 02:51:08,505000/b0bd231ed29ad484fc875108f359c1d4-d.jpg,,
19524089,Green Collar Jobs: Environmental Careers for the 21st Century,,,,Scott M. Deitche,2010,,,,170,0,English,31,,до 2011-01,0313380147,,,,,,,,,,,0,,,,,,1,1,803650,pdf,B0F7183E6FF4EC877D48D506C41893EF,,,D:\\!genesis\\library.nu\\b0\\_291446.b0f7183e6ff4ec877d48d506c41893ef.pdf,0,2000-01-01 01:00:00,2016-04-03 02:51:08,505000/b0f7183e6ff4ec877d48d506c41893ef-d.jpg,,
19524090,Computational Geometry in C,,,,Joseph O'Rourke,1998,2,Cambridge University Press,,359,0,English,121,,до 2011-01,,,,,,,,,,,,0,,,,,,,1,16261820,pdf,B067F0DF215FA3F0250EC1F328542F12,,,D:/!genesis/library.nu/b0/_291181.b067f0df215fa3f0250ec1f328542f12.pdf,0,2000-01-01 01:00:00,2016-04-03 02:51:08,505000/b067f0df215fa3f0250ec1f328542f12-g.jpg,,
19524091,Los Ultimos Tres Minutos,,,,Paul Davies,2001,,Debate,,99,0,Spanish,,,до 2011-01,"8483064448,9788483064443",,,,,,,,,OL13321073M,,0,,,,,,,1,767947,pdf,B077EE0447D62AE78E8024AD1A25717D,,,D:\\!genesis\\library.nu\\b0\\_291040.b077ee0447d62ae78e8024ad1a25717d.pdf,0,2000-01-01 01:00:00,2016-04-03 02:51:08,505000/b077ee0447d62ae78e8024ad1a25717d-d.jpg,,
19524092,"Punk Productions: Unfinished Business (Suny Series, Interruptions: Border Testimony(Ies) and Critical Discourse S)",,,,Stacy Thompson,2004,,State University of New York Press,,215,0,English,196,,до 2011-01,"0791461874,9780791461877",,,,,,,,,OL7803255M,,0,,,,,,1,1,798505,pdf,B02573F6AA204CE2705CF75DCFFFB9AD,,,D:\\!genesis\\library.nu\\b0\\_290931.b02573f6aa204ce2705cf75dcfffb9ad.pdf,0,2000-01-01 01:00:00,2016-04-03 02:51:08,505000/b02573f6aa204ce2705cf75dcfffb9ad-d.jpg,,
19524093,Resumen - Como suprimir las preocupaciones y disfrutar de la vida,,,,Dale Carnegie,,,,,5,0,Spanish,,,до 2011-01,,,,,,,,,,,,0,,,,,,,1,206108,pdf,B0E521ED71B4BC7CCDF3E4297F4C418C,,,D:\\!genesis\\library.nu\\b0\\_290651.b0e521ed71b4bc7ccdf3e4297f4c418c.pdf,0,2000-01-01 01:00:00,2016-04-03 02:51:08,505000/b0e521ed71b4bc7ccdf3e4297f4c418c-g.jpg,,
19524094,HANDBOOK FOR DIRECTORS OF FINANCIAL INSTITUTIONS,,,,Benton E. Gup,2008,,,,189,0,English,,,до 2011-01,"9781847204691,9781848443938,1847204694",,,,,332.1068/4,HG173 .H32 2008,,,OL23068105M,,0,,,,,1,1,1,829030,pdf,B0B60AA06307246B23939FAF60EC90FE,,,D:\\!genesis\\library.nu\\b0\\_29007.b0b60aa06307246b23939faf60ec90fe.pdf,0,2000-01-01 01:00:00,2016-04-03 02:51:08,505000/b0b60aa06307246b23939faf60ec90fe-d.jpg,,
19524095,Baron Wratislaw'ın Anıları,,,,Wenceslaw Wratislaw,,,,,216,0,Turkish,,,до 2011-01,,,,,,,,,,,,0,,,,,,,1,1178563,pdf,B0EF1D7048FA846F211D16D3DD0AF0E3,,,D:\\!genesis\\library.nu\\b0\\_289888.b0ef1d7048fa846f211d16d3dd0af0e3.pdf,0,2000-01-01 01:00:00,2016-04-03 02:51:08,505000/b0ef1d7048fa846f211d16d3dd0af0e3-g.jpg,,
19524096,La force de la regle: Wittgenstein et l'invention de la necessite (Collection,,,,Jacques Bouveresse,1987,,Editions de minuit,,175,0,French,,,до 2011-01,"2707311340,9782707311344",,,,,123/.7/0924,B3376.W564 B665 1987,,,OL2479796M,,0,,,,,,,0,8190902,pdf,B07AE43EE05E3EE1FA169DC279305F3D,,,D:\\!genesis\\library.nu\\b0\\_289881.b07ae43ee05e3ee1fa169dc279305f3d.pdf,0,2000-01-01 01:00:00,2016-04-03 02:51:08,505000/b07ae43ee05e3ee1fa169dc279305f3d-g.jpg,,
19524097,Klinische Psychologie und Psychotherapie,,,,"Hans-Ulrich Wittchen, Jurgen Hoyer",2006,1,"Springer, Berlin",,1014,0,German,198,,до 2011-01,"3540284680,9783540284680",,,,,,,,,,,0,,,,,,,1,12889729,pdf,B03ADE08DC6E8A2A4F9B1A034D60AEF0,,,D:\\!genesis\\library.nu\\b0\\_289681.b03ade08dc6e8a2a4f9b1a034d60aef0.pdf,0,2000-01-01 01:00:00,2016-04-03 02:51:08,505000/b03ade08dc6e8a2a4f9b1a034d60aef0-d.jpg,,
19524098,Beating the French Defense with the Advance Variation,,,,Andrew Soltis,1993,,Chess Digest,,92,0,English,,,до 2011-01,,,B004CF4DWA,,,,,,,,,0,,,,,,,0,737146,djvu,B0EDDC2158FE8627A09F5F0F5C2BA14C,0c541a33fcbd2fa5985707590501a254,no,D:\\!genesis\\library.nu\\b0\\_289123.b0eddc2158fe8627a09f5f0f5c2ba14c.djvu,0,2000-01-01 01:00:00,2016-04-03 02:51:08,505000/b0eddc2158fe8627a09f5f0f5c2ba14c-g.jpg,,
19524099,24-Hour Knitting Projects (24 Hours),,,,Rita Weiss,2006,,Sterling,,128,0,English,,,до 2011-01,"1402734506,9781402734502",,,,,,,,,OL8394203M,,0,,,,,,,0,27285620,pdf,B03048BA3F089D569B01F8298DD8692A,,,D:\\!genesis\\library.nu\\b0\\_288745.b03048ba3f089d569b01f8298dd8692a.pdf,0,2000-01-01 01:00:00,2016-04-03 02:51:08,505000/b03048ba3f089d569b01f8298dd8692a-d.jpg,,
19524100,Reform in the Ottoman Empire 1856-1876,,,,Roderic H. Davison,1963,First Printing,Princeton Univ Pr,,479,0,English,64,,до 2011-01,,,B001EIYJ0O,,,,,,,,,0,,,,,,,0,31856140,pdf,B084E8FE70D56ECC273632D0D77C98C5,,,D:\\!genesis\\library.nu\\b0\\_288245.b084e8fe70d56ecc273632d0d77c98c5.pdf,0,2000-01-01 01:00:00,2016-04-03 02:51:08,505000/b084e8fe70d56ecc273632d0d77c98c5-g.jpg,,
19524101,"Europe and Global Climate Change: Politics, Foreign Policy and Regional Cooperation",,,,Paul G. Harris,2007,,Edward Elgar Publishing Limited,,432,0,English,192,,до 2011-01,"9781845429447,1845429443",,,,,,,,,OL22749383M,,0,,,,,,,1,3194641,pdf,B0D6A63C87C19A460E3B1635B3E80F42,,,D:\\!genesis\\library.nu\\b0\\_288240.b0d6a63c87c19a460e3b1635b3e80f42.pdf,0,2000-01-01 01:00:00,2016-04-03 02:51:08,505000/b0d6a63c87c19a460e3b1635b3e80f42-d.jpg,,
19524102,Terroni. Tutto quello che e stato fatto perche gli italiani del Sud diventassero «meridionali»,,,,Pino Aprile,2010,,Piemme,,305,0,Italian,,,до 2011-01,,,,,,,,,,,,0,,,,,,,1,854200,pdf,B045195F29F55BF8449688765EF68B2E,,,D:\\!genesis\\library.nu\\b0\\_287657.b045195f29f55bf8449688765ef68b2e.pdf,0,2000-01-01 01:00:00,2016-04-03 02:51:08,505000/b045195f29f55bf8449688765ef68b2e-g.jpg,,
19524103,"Caste, Class, and Power: Changing Patterns of Stratification in a Tanjore Village",,,,Andre Beteille,1965,,University of California Press,,238,0,English,,,до 2011-01,"0520020537,9780520020535,0195638476,9780195638479,0195658345,9780195658347",,B0007DL3HY,,,305.5/122/095482,DS422.C3 B4 1996,,,OL19145523M,,0,,,,,,,0,27063169,pdf,B02529FD429E47439D4CC87D7183A70C,,,D:\\!genesis\\library.nu\\b0\\_287647.b02529fd429e47439d4cc87d7183a70c.pdf,0,2000-01-01 01:00:00,2016-04-03 02:51:08,505000/b02529fd429e47439d4cc87d7183a70c-g.jpg,,
19524104,Syntax: A Minimalist Introduction,,,,Andrew Radford,2001,,Foreign language teaching and research press,,323,0,English,,,до 2011-01,"0521589142,9780521589147",,,,,415,P291 .R36 1997,,,OL7747382M,,0,,,,,,1,0,6286732,pdf,B0A14E224637559F77D4F5DAB672179D,,,D:\\!genesis\\library.nu\\b0\\_287471.b0a14e224637559f77d4f5dab672179d.pdf,0,2000-01-01 01:00:00,2016-04-03 02:51:08,505000/b0a14e224637559f77d4f5dab672179d-d.jpg,,
19524105,"A Course in Formal Languages, Automata and Groups",,Universitext,,Ian Chiswell,2008,2nd Printing.,,,166,0,English,314,,до 2011-01,"1848009399,9781848009400,9781848009394,1848009402",,,,,,,10.1007/978-1-84800-940-0,,OL23223305M,,0,,,,,1,1,1,1522559,pdf,B000712EB559DB049DD610034A2E3F6A,,,D:\\!genesis\\library.nu\\b0\\_28726.b000712eb559db049dd610034a2e3f6a.pdf,0,2000-01-01 01:00:00,2016-04-03 02:51:08,505000/b000712eb559db049dd610034a2e3f6a-d.jpg,,
19524106,The Religion of Darwinism,,,,Harun Yahya,2003,,,,92,0,English,205,,до 2011-01,9960887154,,,,,,,,,,,0,,,,,,,1,2164392,pdf,B0D5C0C9EEE2A1F29CF62D740B518B0B,,,D:\\!genesis\\library.nu\\b0\\_287071.b0d5c0c9eee2a1f29cf62d740b518b0b.pdf,0,2000-01-01 01:00:00,2016-04-03 02:51:08,505000/b0d5c0c9eee2a1f29cf62d740b518b0b-g.jpg,,
19524107,"Oil & Gas Journal - January 24, 2011",,,,"Oil & Gas Journal - Volume 109, Issue 4",,,,,36,0,English,181,,до 2011-01,,,,,,,,,,,periodic,0,,,,,,,1,5261225,pdf,B0FB1FA92292ABE170C4946FA7BA78D5,,ban,D:\\!genesis\\library.nu\\b0\\_286977.b0fb1fa92292abe170c4946fa7ba78d5.pdf,0,2000-01-01 01:00:00,2016-04-03 02:51:08,505000/b0fb1fa92292abe170c4946fa7ba78d5-g.jpg,,
19524108,Complicity with Evil: The United Nations in the Age of Modern Genocide,,,,Adam LeBor,2006,,Yale University Press,,349,0,English,137,,до 2011-01,"0300111711,9780300111712",,,,,,,,,OL22740542M,,0,,,,,,1,1,12027534,pdf,B0BE6130540C418300E599BF585C903B,,,D:\\!genesis\\library.nu\\b0\\_286813.b0be6130540c418300e599bf585c903b.pdf,0,2000-01-01 01:00:00,2016-04-03 02:51:08,505000/b0be6130540c418300e599bf585c903b-d.jpg,,
19524109,Dynamics and Balancing of Multibody Systems (Lecture Notes in Applied and Computational Mechanics 37),,Lecture Notes in Applied and Computational Mechanics 37,,"Himanshu Chaudhary, Subir Kumar Saha",2010,Softcover reprint of hardcover 1st ed. 2009,Springer,,186,0,English,120,,до 2011-01,"3642096859,9783642096853",,,,,,,,,,,0,,,,,,,1,2320741,pdf,B022C63C4F1F819A7CFC391825DF68CD,,,D:\\!genesis\\library.nu\\b0\\_286760.b022c63c4f1f819a7cfc391825df68cd.pdf,0,2000-01-01 01:00:00,2016-04-03 02:51:08,505000/b022c63c4f1f819a7cfc391825df68cd-d.jpg,,
19524110,Jewish-Christian Gospel Tradition (Supplements to Vigiliae Christianae 17),,Supplements to Vigiliae Christianae 17,,Albertus Frederik Johannes Klijn,1992,,Brill,,164,0,English,205,,до 2011-01,"9004094539,9789004094536",,,,,229/.8,BS2851 .K55 1992,,,OL1771105M,,300,,,,,,1,1,3826094,pdf,B0DEB75755A2EB3AC743EA29A73B0203,,,D:\\!genesis\\library.nu\\b0\\_286187.b0deb75755a2eb3ac743ea29a73b0203.pdf,0,2000-01-01 01:00:00,2016-04-03 02:51:08,505000/b0deb75755a2eb3ac743ea29a73b0203-d.jpg,,
19524111,The Ezra Pound Encyclopedia,,,,"Demetres P. Tryphonopoulos, Stephen J. Adams",2005,,Greenwood,,363,0,English,188,,до 2011-01,"0313304483,9780313304484",,,,,"811/.52,B",PS3531.O82 Z459 2005,,,OL3299800M,,0,,,,,,,1,4417677,pdf,B0C3F933DCF710AAFA30665D5FFE1530,,,D:\\!genesis\\library.nu\\b0\\_286134.b0c3f933dcf710aafa30665d5ffe1530.pdf,0,2000-01-01 01:00:00,2016-04-03 02:51:08,505000/b0c3f933dcf710aafa30665d5ffe1530-d.jpg,,
19524112,"Culture of Intolerance: Chauvinism, Class, and Racism in the United States",,,,Professor Mark Nathan Cohen,1998,,Yale University Press,,344,0,English,65,,до 2011-01,"0300080662,9780300080667",,,,,,,,,OL9588074M,,0,,,,,,,,369804,chm,B07D580F34E8086AA5E26A3566A3C40A,,,D:\\!genesis\\library.nu\\b0\\_286103.b07d580f34e8086aa5e26a3566a3c40a.chm,0,2000-01-01 01:00:00,2016-04-03 02:51:08,505000/b07d580f34e8086aa5e26a3566a3c40a-d.jpg,,
19524113,"Fisica - Volumen 1, Tercera Edicion",,,,"David Halliday, Robert Resnick",2001,,Compañia Editorial Continental,,360,0,Spanish,,,до 2011-01,9682612551,,,,,,,,,OL13119816M,,0,,,,,,,0,68983063,pdf,B0298432FEB6CAED7168982B8816E435,,,D:\\!genesis\\library.nu\\b0\\_285766.b0298432feb6caed7168982b8816e435.pdf,0,2000-01-01 01:00:00,2016-04-03 02:51:08,505000/b0298432feb6caed7168982b8816e435-g.jpg,,
19524114,Application and Implementation of Finite Element Methods (Computational Mathematics and Applications),,,,J. E. Akin,1982,,Academic Press,,272,0,English,120,,до 2011-01,"0120476509,9780120476503",,,,,515.3/53,TA347.F5 A34 1982,,,OL3790755M,,0,,,,,,,1,6049599,pdf,B0C55484B4A5C703A55CD48D7A4AACC9,,,D:\\!genesis\\library.nu\\b0\\_285744.b0c55484b4a5c703a55cd48d7a4aacc9.pdf,0,2000-01-01 01:00:00,2016-04-03 02:51:08,505000/b0c55484b4a5c703a55cd48d7a4aacc9-g.jpg,,
19524115,Non-Equilibrium Phase Transitions: Volume 2: Ageing and Dynamical Scaling Far from Equilibrium (Theoretical and Mathematical Physics),,,,"Malte Henkel, Michel Pleimling",2010,1st Edition.,Springer,,568,0,English,137,,до 2011-01,"9048128684,9789048128686",,,,,,,,,,,0,,,,,,1,1,9858863,pdf,B07E086620FD3800037D23129CA3A734,,,D:\\!genesis\\library.nu\\b0\\_285552.b07e086620fd3800037d23129ca3a734.pdf,0,2000-01-01 01:00:00,2016-04-03 02:51:08,505000/b07e086620fd3800037d23129ca3a734-d.jpg,,
19524116,"Number Theory: Structures, Examples, and Problems",,,,"Titu Andreescu, Dorin Andrica",2009,1,Birkhäuser Boston,,403,0,English,143,,до 2011-01,"081763245X,9780817632458,9780817646455",,,,,,,10.1007/b11856,,OL8074310M,,0,,,,,,1,1,1891710,pdf,B09456C12CE52B9950BD2A8C44DF903C,,,D:\\!genesis\\library.nu\\b0\\_284891.b09456c12ce52b9950bd2a8c44df903c.pdf,0,2000-01-01 01:00:00,2016-04-03 02:51:08,505000/b09456c12ce52b9950bd2a8c44df903c-d.jpg,,
19524117,"Lebesgue Measure and Integration: An Introduction (Pure and Applied Mathematics: A Wiley Series of Texts, Monographs and Tracts)",,,,Frank Burk,1997,1,Wiley-Interscience,,310,0,English,113,Kolxo3,до 2011-01,"0471179787,9780471179788",,,,,515/.42,QA312 .B84 1998,,,OL661088M,,0,,,,,,1,1,2896584,djvu,B08737386FCC2988763A29306A922C32,,,"M_Mathematics/MC_Calculus/MCat_Advanced calculus/Burk F. Lebesgue measure and integration.. An introduction (Wiley, 1997)(ISBN 0471179787)(600dpi)(T)(O)(310s)_MCat_.djvu",0,2000-01-01 01:00:00,2016-04-03 02:51:08,505000/b08737386fcc2988763a29306a922c32-d.jpg,,
19524118,"In the Path of the Moon: Babylonian Celestial Divination and Its Legacy (Ancient Magic and Divination, 6)",,Ancient Magic and Divination,,Francesca Rochberg,2010,,Brill Academic Publishers,,445,0,English,64,,до 2011-01,"9004183892,9789004183896",,,,,133.5/9235,BF1714.A86 R64 2010,,,OL24049816M,,0,,,,,,1,1,10400410,pdf,B0A47755C493C25A0A85570F742190A6,,,D:\\!genesis\\library.nu\\b0\\_284518.b0a47755c493c25a0a85570f742190a6.pdf,0,2000-01-01 01:00:00,2016-04-03 02:51:08,505000/b0a47755c493c25a0a85570f742190a6-d.jpg,,
19524119,Promijagd: Kriminalroman,,,,Horst Bosetzky,2010,,Gmeiner Verlag,,276,0,German,,,до 2011-01,9783839235331,,,,,,,,,,,0,,,,,,1,1,854944,pdf,B09972E02CF337478F7238BD55895150,,,D:\\!genesis\\library.nu\\b0\\_284502.b09972e02cf337478f7238bd55895150.pdf,0,2000-01-01 01:00:00,2016-04-03 02:51:08,505000/b09972e02cf337478f7238bd55895150-g.jpg,,
19524120,Vaginitis: Differential Diagnosis and Management,,,,Sebastian Faro,2004,,Parthenon Publishing Group,,115,0,English,,,до 2011-01,"0203596250,9780203596258,0203500113,9780203500118,1842141597,9781842141595",,,,,618.1/5,RG268 .F37 2004,,,OL22569001M,,0,,,,,,1,1,1557022,pdf,B02EC8645EDE7223EB6D276722A73AD0,,,D:\\!genesis\\library.nu\\b0\\_284500.b02ec8645ede7223eb6d276722a73ad0.pdf,0,2000-01-01 01:00:00,2016-04-03 02:51:08,505000/b02ec8645ede7223eb6d276722a73ad0-g.jpg,,
19524121,Financial Development Report 2008,,,,World Economic Forum,,,,,362,0,English,305,,до 2011-01,"9295044088,9789295044081",,,,,,,,,,,0,,,,,,,1,18154450,pdf,B0A51DEBF68FE7400111892D2B87A68C,,,D:\\!genesis\\library.nu\\b0\\_284318.b0a51debf68fe7400111892d2b87a68c.pdf,0,2000-01-01 01:00:00,2016-04-03 02:51:08,505000/b0a51debf68fe7400111892d2b87a68c-g.jpg,,
19524122,The Leadership Secrets of Billy Graham,,,,Marshall Shelley Harold Myra,2005,,Zondervan,,340,0,English,,,до 2011-01,"0310267846,9780310267843",,,,,,,,,OL24271049M,,0,,,,,,1,1,1351787,pdf,B0497CEBEF8DE7577492DD3AFEDF4A74,,,D:\\!genesis\\library.nu\\b0\\_283800.b0497cebef8de7577492dd3afedf4a74.pdf,0,2000-01-01 01:00:00,2016-04-03 02:51:08,505000/b0497cebef8de7577492dd3afedf4a74-g.jpg,,
19524123,Dreams of Love And Fateful Encounters: The Power of Romantic Passion,,,,Ethel Spector Person,2006,1,"American Psychiatric Publishing, Inc.",,406,0,English,,,до 2011-01,"1585622400,9781585622405",,,,,,,,,OL8817527M,,0,,,,,,,1,2455167,pdf,B084BB0D3685045A2BCBC5404E45C46D,,,D:\\!genesis\\library.nu\\b0\\_283668.b084bb0d3685045a2bcbc5404e45c46d.pdf,0,2000-01-01 01:00:00,2016-04-03 02:51:08,505000/b084bb0d3685045a2bcbc5404e45c46d-d.jpg,,
19524124,The Way Of Man: According to the Teaching of Hasidism,,,,Martin Buber,2000,,Citadel,,42,0,English,203,,до 2011-01,"0806500247,9780806500249",,,,,,,,,OL21142579M,,0,,,,,,,1,65112,pdf,B03ADF6D07A63F873986CA309EE97769,,,D:\\!genesis\\library.nu\\b0\\_283305.b03adf6d07a63f873986ca309ee97769.pdf,0,2000-01-01 01:00:00,2016-04-03 02:51:08,505000/b03adf6d07a63f873986ca309ee97769-d.jpg,,
19524125,Die Matlock - Affare,,,,Robert Ludlum,1999,,Heyne Verlag,,322,0,German,,,до 2011-01,"3453147634,9783453147638",,,,,,,,,OL12716613M,,0,,,,,,1,1,1229294,pdf,B0DB1EAA0C5BE92BDABFE7D784851D88,,,D:\\!genesis\\library.nu\\b0\\_283287.b0db1eaa0c5be92bdabfe7d784851d88.pdf,0,2000-01-01 01:00:00,2016-04-03 02:51:08,505000/b0db1eaa0c5be92bdabfe7d784851d88-d.jpg,,
19524126,"To Wed a Scandalous Spy (Royal Four, Book 1)  ",,,,Celeste Bradley,2005,,,,268,0,English,,,до 2011-01,"0312931166,9780312931162",,,,,,,,,OL3475530M,,0,,,,,,,1,1197663,pdf,B0E2A5B45296B3D38DD89B1F5F794815,,,D:\\!genesis\\library.nu\\b0\\_283000.b0e2a5b45296b3d38dd89b1f5f794815.pdf,0,2000-01-01 01:00:00,2016-04-03 02:51:08,505000/b0e2a5b45296b3d38dd89b1f5f794815-d.jpg,,
19524127,"Social and Biological Aspects of Ethnicity (Biosocial Society, vol. 4)",,"Biosocial Society'', 4",,Malcolm Chapman,1993,,"Oxford University Press, USA",,71,0,English,18,,до 2011-01,"0198522800,9780198522805",,,,,305.8,GN495.6 .S63 1993,,,OL1413014M,p. 114-115 missing,0,,,,,,,0,7519218,pdf,B03E50A0058B76586CF9B31D2709AC72,,,D:\\!genesis\\library.nu\\b0\\_282825.b03e50a0058b76586cf9b31d2709ac72.pdf,0,2000-01-01 01:00:00,2016-04-03 02:51:08,505000/b03e50a0058b76586cf9b31d2709ac72-d.jpg,,
19524128,Social Banking and Social Finance: Answers to the Economic Crisis,,SpringerBriefs in Business,,Roland Benedikter,2011,1st Edition.,Springer,,148,0,English,305,,до 2011-01,"1441977732,9781441977731",,,,,,,10.1007/978-1-4419-7774-8,,,,0,,,,,,1,1,900373,pdf,B0A11132E4F91C004AF28CDA90151566,,,D:\\!genesis\\library.nu\\b0\\_282678.b0a11132e4f91c004af28cda90151566.pdf,0,2000-01-01 01:00:00,2016-04-03 02:51:08,505000/b0a11132e4f91c004af28cda90151566-d.jpg,,
19524129,Jerusalem's Rise to Sovereignty: Zion and Gerizim in Competition (JSOT Supplement Series),,Journal for the Study of the Old Testament Supplement Series 404,,Ingrid Hjelm,2004,,T & T Clark International,,384,0,English,137,,до 2011-01,"0567080854,9780567080851",,,,,221.6/7,BM155.3 .H55 2004,,,OL3377595M,,300,,,,,,,1,23497201,pdf,B08014D2DE74ACD83E1513E660E65682,,,D:\\!genesis\\library.nu\\b0\\_282528.b08014d2de74acd83e1513e660e65682.pdf,0,2000-01-01 01:00:00,2016-04-03 02:51:08,505000/b08014d2de74acd83e1513e660e65682-g.jpg,,
19524130,"Derrida, Literature and War: Absence and the Chance of Meeting",,"Philosophy, Aesthetics and Cultural Theory",,Sean Gaston,2009,1,Continuum,,243,0,English,108,,до 2011-01,"1847065538,9781847065537,184706552X,9781847065520",,,,,194,B2430.D484 G385 2009,,,OL22679732M,,0,,,,,,,1,1111178,pdf,B077BE516A2E1544C75316C60011D1DC,,,D:\\!genesis\\library.nu\\b0\\_281370.b077be516a2e1544c75316c60011d1dc.pdf,0,2000-01-01 01:00:00,2016-04-03 02:51:08,505000/b077be516a2e1544c75316c60011d1dc-d.jpg,,
19524131,Der Dativ ist dem Genitiv sein Tod - Folge 2: Neues aus dem Irrgarten der deutschen Sprache,,,,Bastian Sick,2005,,Kiepenheuer & Witsch,,260,0,German,,,до 2011-01,"3462036068,9783462036060",,,,,,,,,,,0,,,,,,1,1,1667323,pdf,B0E927535CD99ECDFFE542B0280F35F4,,,D:\\!genesis\\library.nu\\b0\\_281047.b0e927535cd99ecdffe542b0280f35f4.pdf,0,2000-01-01 01:00:00,2016-04-03 02:51:08,505000/b0e927535cd99ecdffe542b0280f35f4-d.jpg,,
19524132,"WISO: Aktien, Anleihen und Fonds",,,,"Michael Jungblut, Claudia Krafczyk, Rudolf Rauschenberger",2008,,Campus Verlag,,280,0,German,,,до 2011-01,"3593387182,9783593387185",,,,,,,,,,,0,,,,,,,1,2390394,pdf,B0B09686EB3249921A215EEC63056147,,,D:\\!genesis\\library.nu\\b0\\_280856.b0b09686eb3249921a215eec63056147.pdf,0,2000-01-01 01:00:00,2016-04-03 02:51:08,505000/b0b09686eb3249921a215eec63056147-d.jpg,,
19524133,Jim Thorpe: World's Greatest Athlete,,,,Robert W. Wheeler,1981,Revised,University of Oklahoma Press,,334,0,English,,,до 2011-01,"0806117451,9780806117454",,,,,,,,,OL20327736M,,0,,,,,,,,2963333,chm,B0B4FA9B907A230C9D002EC18BF7197A,,,D:\\!genesis\\library.nu\\b0\\_280285.b0b4fa9b907a230c9d002ec18bf7197a.chm,0,2000-01-01 01:00:00,2016-04-03 02:51:08,505000/b0b4fa9b907a230c9d002ec18bf7197a-d.jpg,,
19524134,Fiat Bravo and Brava (1995-2000 1.2 1.4 1.6 1.8 L engines) Service and Repair Manual (Haynes Manuals),,,,A.K. Legg,2000,,,,324,0,English,64,,до 2011-01,"9781859605721,1859605729",,,,,,,,,OL12046454M,,0,,,,,1,,0,107834313,pdf,B09CA80CA404B12A6ED4A8F35C77F757,,,D:\\!genesis\\library.nu\\b0\\_28016.b09ca80ca404b12a6ed4a8f35c77f757.pdf,0,2000-01-01 01:00:00,2016-04-03 02:51:08,505000/b09ca80ca404b12a6ed4a8f35c77f757-d.jpg,,
19524135,The Secret of Spiggy Holes,,,,Enid Blyton,2009,,,,192,0,English,,,до 2011-01,1841357499,,,,,,,,,,,0,,,,,,,1,583336,pdf,B0B8E8A07864DA7843FCD5419E9D51D0,,,D:\\!genesis\\library.nu\\b0\\_279939.b0b8e8a07864da7843fcd5419e9d51d0.pdf,0,2000-01-01 01:00:00,2016-04-03 02:51:08,505000/b0b8e8a07864da7843fcd5419e9d51d0-d.jpg,,
19524136,The Well Timed Strategy: Managing the Business Cycle for Competitive Advantage,,,,Peter Navarro,2006,1,Wharton School Publishing,,272,0,English,137,,до 2011-01,"0131494201,9780131494206",,,,,658.4/012,HD30.28 .N3889 2006,,,OL3405318M,,0,,,,,,,1,14396909,pdf,B0F9310BCBB707F234564CBFABCC865F,,,D:\\!genesis\\library.nu\\b0\\_279915.b0f9310bcbb707f234564cbfabcc865f.pdf,0,2000-01-01 01:00:00,2016-04-03 02:51:08,505000/b0f9310bcbb707f234564cbfabcc865f-d.jpg,,
19524137,Graphics Gems IV (IBM Version) (Graphics Gems - IBM) (No. 4),,,,Paul Heckbert,1994,1st,Morgan Kaufmann,,575,0,English,,,до 2011-01,"0123361559,9780123361554",,,,,006.6/6,T385 .G6974 1994,,,OL1435040M,,0,,,,,,,0,68327067,pdf,B00DCB4553742114A84451A37CF3D3E2,,,D:\\!genesis\\library.nu\\b0\\_279849.b00dcb4553742114a84451a37cf3d3e2.pdf,0,2000-01-01 01:00:00,2016-04-03 02:51:08,505000/b00dcb4553742114a84451a37cf3d3e2-d.jpg,,
19524138,Türkçenin Büyük Argo Sözlüğü (Tanıklarıyla),,,,Hulki Aktunç,1998,,YKY,,412,0,Turkish,,,до 2011-01,"9753638647,9789753638647",,,,,,,,,OL13159801M,,0,,,,,,,0,15512824,pdf,B072208875549CC1471233E7B2D87A6C,,,D:\\!genesis\\library.nu\\b0\\_279550.b072208875549cc1471233e7b2d87a6c.pdf,0,2000-01-01 01:00:00,2016-04-03 02:51:08,505000/b072208875549cc1471233e7b2d87a6c-g.jpg,,
19524139,La Batalla de El Consejo,,,,German Fleitas Nunez,2002,,Casa de la Cultura Poeta Pedro Rafael Buznego Martínez,,52,0,Spanish,,,до 2011-01,9803530712,,,,,,,,,,,0,,,,,,,0,19224594,pdf,B00BCFA7AE1A538BA7233A234A48F418,,,D:\\!genesis\\library.nu\\b0\\_279534.b00bcfa7ae1a538ba7233a234a48f418.pdf,0,2000-01-01 01:00:00,2016-04-03 02:51:08,505000/b00bcfa7ae1a538ba7233a234a48f418-g.jpg,,
19524140,A Companion to Britain in the Later Middle Ages (Blackwell Companions to British History),,Blackwell Companions to British History,,S. H. Rigby,2003,1,Wiley-Blackwell,,684,0,English,64,,до 2011-01,"0631217851,9780631217855",,,,,942.03,DA175 .C598 2002,,,OL3552651M,,0,,,,,,,1,20242511,pdf,B0A114F468245B42BF14B22E3A69A602,,,D:\\!genesis\\library.nu\\b0\\_279454.b0a114f468245b42bf14b22e3a69a602.pdf,0,2000-01-01 01:00:00,2016-04-03 02:51:08,505000/b0a114f468245b42bf14b22e3a69a602-d.jpg,,
19524141,Ethnic Relations: A Cross-Cultural Encyclopedia (Human Experience),,Encyclopedias of the human experience,,David Levinson,1995,,ABC-CLIO,,308,0,English,188,,до 2011-01,"0874367352,9780874367355",,,,,305.8,GN496 .L48 1994,,,OL1114302M,,0,,,,,,1,1,25039205,pdf,B0990C77D7902DCF517D4F12646CD3BB,,,D:\\!genesis\\library.nu\\b0\\_279198.b0990c77d7902dcf517d4f12646cd3bb.pdf,0,2000-01-01 01:00:00,2016-04-03 02:51:08,505000/b0990c77d7902dcf517d4f12646cd3bb-d.jpg,,
19524142,The Shadows of Avalon (Doctor Who),,,,Paul Cornell,2000,,,,274,0,English,,,до 2011-01,0563555882,,,,,,,,,,,0,,,,,,,1,748561,pdf,B081043A1E40B0EB3E2FB1F121794AF8,,,D:\\!genesis\\library.nu\\b0\\_278767.b081043a1e40b0eb3e2fb1f121794af8.pdf,0,2000-01-01 01:00:00,2016-04-03 02:51:08,505000/b081043a1e40b0eb3e2fb1f121794af8-d.jpg,,
19524143,Complications in Cardiothoracic Surgery: Avoidance and Treatment,,,,Alex G. Little,2004,1,,,464,0,English,137,,до 2011-01,"0879934271,9780879934279,9781405128520",,,,,617.4/1201,RD597 .C645 2004,,,OL19150120M,,0,,,,,1,1,1,4059093,pdf,B02F7573C5FDAF103B50023FF0FE6026,,,D:\\!genesis\\library.nu\\b0\\_27843.b02f7573c5fdaf103b50023ff0fe6026.pdf,0,2000-01-01 01:00:00,2016-04-03 02:51:08,505000/b02f7573c5fdaf103b50023ff0fe6026-d.jpg,,
19524144,"Taltos (Mayfair Witches, Book 3)",,Mayfair Witches 3,,Anne Rice,1994,,Knopf,,,0,English,,,до 2011-01,9780307575920,,,,,,,,,,,0,,,,,,,1,2224120,epub,B034ABEBCA22123066FC2A3168480F1C,,,D:\\!genesis\\library.nu\\b0\\_278245.b034abebca22123066fc2a3168480f1c.epub,0,2000-01-01 01:00:00,2016-04-03 02:51:08,505000/B034ABEBCA22123066FC2A3168480F1C-g.jpg,,
19524145,How to Make Money in Alternative Investments,,,,"Hubert Bromma, Lisa Moren Bromma",2009,1,McGraw-Hill,,272,0,English,305,,до 2011-01,"0071623779,9780071623773,9780071713139",,,,,332.63,HG4521 .B678 2010,,,OL23223415M,,0,,,,,,,1,1424065,pdf,B086850312201DD1DB51BFF6329400F0,,,D:\\!genesis\\library.nu\\b0\\_278125.b086850312201dd1db51bff6329400f0.pdf,0,2000-01-01 01:00:00,2016-04-03 02:51:08,505000/b086850312201dd1db51bff6329400f0-d.jpg,,
19524146,The Four Pillars of Investing: Lessons for Building a Winning Portfolio,,,,William Bernstein,2010,1,McGraw-Hill,,350,0,English,,,до 2011-01,"0071747052,9780071747059,9780071759175",,,,,,,,,,,0,,,,,,,1,3198003,pdf,B0699FE5407EC55DDF0E00C2C35F9297,,,D:\\!genesis\\library.nu\\b0\\_278076.b0699fe5407ec55ddf0e00c2c35f9297.pdf,0,2000-01-01 01:00:00,2016-04-03 02:51:08,505000/b0699fe5407ec55ddf0e00c2c35f9297-d.jpg,,
19524147,Wild Child,,,,T.C. Boyle,2010,,Viking,,,0,English,,,до 2011-01,"1101189908,9781101189900",,,,,813’.54—dc22 2009026518,,,,OL24257577M,,0,,,,,,,1,415716,epub,B07C7284CF8A5CFCE8CA5D4183107CA4,,,D:\\!genesis\\library.nu\\b0\\_277961.b07c7284cf8a5cfce8ca5d4183107ca4.epub,0,2000-01-01 01:00:00,2016-04-03 02:51:08,505000/B07C7284CF8A5CFCE8CA5D4183107CA4-g.jpg,,
19524148,L'Asie Mineure au IVe siecle (412-323 a.C.): Pouvoirs et jeux politiques (Etudes),,,,Pierre Debord,1999,,Diffusion De Boccard,,558,0,French,,,до 2011-01,"291002315X,9782910023157",,,,,939/.2,DS155 .D43 1999,,,OL4008321M,,0,,,,,,,1,27616097,pdf,B0A1736E4F10C78B2326467BEC8EA8FA,,,D:\\!genesis\\library.nu\\b0\\_277868.b0a1736e4f10c78b2326467bec8ea8fa.pdf,0,2000-01-01 01:00:00,2016-04-03 02:51:08,505000/b0a1736e4f10c78b2326467bec8ea8fa-g.jpg,,
19524149,Concepts of Programming Languages,,,,Robert W. Sebesta,2009,9,Addison Wesley,,696,0,English,314,,до 2011-01,"0136073476,9780136073475",,,,,005.13,QA76.7 .S43 2009,,,,,0,,,,,,1,0,222315100,pdf,B0DC5F679DE66E7B1791AF9CF7F1312B,,,D:/!genesis/library.nu/b0/_277743.b0dc5f679de66e7b1791af9cf7f1312b.pdf,0,2000-01-01 01:00:00,2016-04-03 02:51:08,505000/b0dc5f679de66e7b1791af9cf7f1312b-d.jpg,,
19524150,Instant Japanese,,,,"Boye Lafayette De Mente, Henk de Groot, Yasuko Tsuji",2003,2nd,Tuttle Publishing,,96,0,English,,,до 2011-01,"0804833664,9780804833660",,,,,,,,,OL7930967M,,0,,,,,,,1,5999635,pdf,B028B1CFDBB3E399B14160C33A4EE8DC,,,D:\\!genesis\\library.nu\\b0\\_277255.b028b1cfdbb3e399b14160c33a4ee8dc.pdf,0,2000-01-01 01:00:00,2016-04-03 02:51:08,505000/b028b1cfdbb3e399b14160c33a4ee8dc-d.jpg,,
19524151,Knowing the unknowable: science and the religions on God and the Universe,,Library of modern religion,,John W. Bowker,2008,1,I. B. Tauris,,289,0,English,205,,до 2011-01,"1845117573, 9781845117573, 1441615997, 9781441615992",,,,,,,,rL5AAQAAIAAJ,,,0,,,,,0,1,1,2880508,pdf,B08BC6EB5777601FAEB0B4B8BBA51561,,,D:/!genesis/library.nu/b0/_276945.b08bc6eb5777601faeb0b4b8bba51561.pdf,0,2000-01-01 01:00:00,2016-04-03 02:51:08,505000/b08bc6eb5777601faeb0b4b8bba51561-d.jpg,,
19524152,Broken Music: A Memoir,,,,Sting,2003,1st,The Dial Press,,337,0,English,62,,до 2011-01,"0385336780,9780385336789",,,,,"782.42166/092,B",ML420.S847 A3 2003,,,OL3318872M,,0,,,,,,,1,1542558,pdf,B014EBC3DBE0A6887A4BC1AA7FD9A716,,,D:\\!genesis\\library.nu\\b0\\_276917.b014ebc3dbe0a6887a4bc1aa7fd9a716.pdf,0,2000-01-01 01:00:00,2016-04-03 02:51:08,505000/b014ebc3dbe0a6887a4bc1aa7fd9a716-d.jpg,,
19524153,International Journal of Powder Metallurgy Volume 46 Issue 4,46,,,Alan Lawley,2010,,APMI International,,62,0,English,181,,до 2011-01,,,,,,,,,,,periodic,0,,,,,,,1,4683596,pdf,B0544D395CEA5A1B43D605DF26C46C5F,,ban,D:\\!genesis\\library.nu\\b0\\_276852.b0544d395cea5a1b43d605df26c46c5f.pdf,0,2000-01-01 01:00:00,2016-04-03 02:51:08,505000/b0544d395cea5a1b43d605df26c46c5f-g.jpg,,
19524154,Microbiological Methods for Assessing Soil Quality (Cabi Publishing),,,,"J. Bloem, D. W. Hopkins, A. Benedetti",2005,First,,,320,0,English,26,,до 2011-01,"0851990983,9780851990989,9781845931414",,,,,579/.1757,QR111 .M39 2005,,,OL22719533M,,0,,,,,1,1,1,1868755,pdf,B055759A75E547447C52C915185A8F64,,,D:\\!genesis\\library.nu\\b0\\_27659.b055759a75e547447c52c915185a8f64.pdf,0,2000-01-01 01:00:00,2016-04-03 02:51:08,505000/b055759a75e547447c52c915185a8f64-d.jpg,,
19524155,Transformation Space (Sentients of Orion 04),,,,Marianne de Pierres,,,,,283,0,English,212,,до 2011-01,9781841497594,,,,,,,,,,,0,,,,,,,1,1100790,pdf,B088E9344830E3A8B9EAB487FA083D02,,,D:\\!genesis\\library.nu\\b0\\_276408.b088e9344830e3a8b9eab487fa083d02.pdf,0,2000-01-01 01:00:00,2016-04-03 02:51:08,505000/b088e9344830e3a8b9eab487fa083d02-g.jpg,,
19524156,"Evolution of Communicative Flexibility: Complexity, Creativity, and Adaptability in Human and Animal Communication (Vienna Series in Theoretical Biology)",,,,"D. Kimbrough Oller, Ulrike Griebel",2008,,The MIT Press,,367,0,English,137,,до 2011-01,"0262151219,9780262151214",,,,,302.2,P91 .E96 2008,,,OL16490539M,,0,,,,,,1,1,2293460,pdf,B0A66F7C6ED35E1ACBFCD327C926C1D4,,,D:\\!genesis\\library.nu\\b0\\_276316.b0a66f7c6ed35e1acbfcd327c926c1d4.pdf,0,2000-01-01 01:00:00,2016-04-03 02:51:08,505000/b0a66f7c6ed35e1acbfcd327c926c1d4-d.jpg,,
19524157,Leshono Suroyo,,,,J.F. Healey,2005,1st Gorgias Press Ed,Gorgias Press,,248,0,English,,,до 2011-01,1593331908,,,,,,,,,OL8871912M,,0,,,,,,,0,14510788,pdf,B0CCC07BD01CCE259574C0D0BB590B10,,,D:\\!genesis\\library.nu\\b0\\_274832.b0ccc07bd01cce259574c0d0bb590b10.pdf,0,2000-01-01 01:00:00,2016-04-03 02:51:08,505000/b0ccc07bd01cce259574c0d0bb590b10-d.jpg,,
19524158,Emerging Technologies in Distance Education (Issues in Distance Education),,,,George Veletsianos,2010,,UBC Press,,350,0,English,183,,до 2011-01,"1897425767,9781897425763",,,,,371.3/58,LC5800 .E454 2010,,,OL24485083M,,0,,,,,,1,1,6773197,pdf,B0804410B7AFF7642D4818144E2B4EB1,,,D:\\!genesis\\library.nu\\b0\\_274451.b0804410b7aff7642d4818144e2b4eb1.pdf,0,2000-01-01 01:00:00,2016-04-03 02:51:08,505000/b0804410b7aff7642d4818144e2b4eb1-d.jpg,,
19524159,First Exposure to General Surgery,,,,Danny Jacobs,2006,1,McGraw-Hill Professional,,433,0,English,175,,до 2011-01,"0071441409,9780071441407,0071491295",,,,,617.0076,RD37.2 .F57 2006,10.1036/0071441409,,OL17941953M,,0,,,,,,,1,4403098,pdf,B0C83819170B3D8F3E99554153E33267,,,D:\\!genesis\\library.nu\\b0\\_274307.b0c83819170b3d8f3e99554153e33267.pdf,0,2000-01-01 01:00:00,2016-04-03 02:51:08,505000/b0c83819170b3d8f3e99554153e33267-d.jpg,,
19524160,Memoirs of a Millionaire's Mistress (Harlequin Presents),,Harlequin Presents Series 2914,,Anne Oliver,2010,,Harlequin,,,0,English,,,до 2011-01,"9781426852015,1426852010",,,,,,,,,OL24311689M,,0,,,,,,,1,447199,epub,B043BBAE8B0EE133FC85E5F0DF72F005,,,D:\\!genesis\\library.nu\\b0\\_274050.b043bbae8b0ee133fc85e5f0df72f005.epub,0,2000-01-01 01:00:00,2016-04-03 02:51:08,505000/B043BBAE8B0EE133FC85E5F0DF72F005-g.jpg,,
19524161,"Denying AIDS: Conspiracy Theories, Pseudoscience, and Human Tragedy",,,,Seth C. Kalichman,2009,1st Edition. 2nd Printing.,Springer,,228,0,English,,,до 2011-01,"9780387794754,9780387794761",,,,,362.196/9792,RA643.8 .K35 2009,,,OL24378852M,,0,,,,,,1,1,2816093,pdf,B03140C8B0AE3FDA256C343476AECB63,,,D:\\!genesis\\library.nu\\b0\\_274014.b03140c8b0ae3fda256c343476aecb63.pdf,0,2000-01-01 01:00:00,2016-04-03 02:51:08,505000/b03140c8b0ae3fda256c343476aecb63-d.jpg,,
19524162,War Over Kosovo,,,,"Andrew J. Bacevich, Eliot A. Cohen",2002,,Columbia University Press,,256,0,English,67,,до 2011-01,"0231124821,9780231124829",,,,,949.7103,DR2087 .W37 2001,,,OL3950236M,,0,,,,,,1,1,1488085,pdf,B0E9AD12071FC9240D978ACB2D250FBD,,,D:\\!genesis\\library.nu\\b0\\_272876.b0e9ad12071fc9240d978acb2d250fbd.pdf,0,2000-01-01 01:00:00,2016-04-03 02:51:08,505000/b0e9ad12071fc9240d978acb2d250fbd-d.jpg,,
19524163,科学翻译学,,,,黄忠廉 李亚舒,,,中国对外翻译出版公司,,461,0,Chinese,,,до 2011-01,,,,,,,,,,,,0,,,,,,1,0,6763223,pdf,B0B0538DF2918E8F5A0DBD9E62886324,,,D:\\!genesis\\library.nu\\b0\\_272831.b0b0538df2918e8f5a0dbd9e62886324.pdf,0,2000-01-01 01:00:00,2016-04-03 02:51:08,505000/b0b0538df2918e8f5a0dbd9e62886324-g.jpg,,
19524164,God and Morality: A Philosophical History (First Books in Philosophy),,,,John E. Hare,2007,1,Wiley-Blackwell,,316,0,English,64,,до 2011-01,"0631236074,9780631236078",,,,,,,,,OL18215841M,,0,,,,,,,1,4319295,pdf,B020ACEC3CAC99DABFC71CDACFB79585,,,D:\\!genesis\\library.nu\\b0\\_272356.b020acec3cac99dabfc71cdacfb79585.pdf,0,2000-01-01 01:00:00,2016-04-03 02:51:08,505000/b020acec3cac99dabfc71cdacfb79585-d.jpg,,
19524165,Lit: A Memoir,,Mary Karr's Memoirs 3,,Mary Karr,2009,,HarperCollins,,,0,English,,,до 2011-01,"9780061959684,0061959685",,,,,,,,,OL24258901M,,0,,,,,,,1,407170,epub,B015519F2F8DF0AC9C595D2243346BDC,,,D:\\!genesis\\library.nu\\b0\\_272050.b015519f2f8df0ac9c595d2243346bdc.epub,0,2000-01-01 01:00:00,2016-04-03 02:51:08,505000/B015519F2F8DF0AC9C595D2243346BDC-g.jpg,,
19524166,"The tripartite life of St. Patrick, with other documents relating to that saint, Part I",,,,Whitley Stokes,2008,,TannerRitchie Publishing,,470,0,English,,,до 2011-01,9781554930357,,,,,,,,,,,0,,,,,,1,1,13030488,pdf,B0BE676C86840868886F1E2978B5E7D5,,,D:\\!genesis\\library.nu\\b0\\_271878.b0be676c86840868886f1e2978b5e7d5.pdf,0,2000-01-01 01:00:00,2016-04-03 02:51:08,505000/b0be676c86840868886f1e2978b5e7d5-g.jpg,,
19524167,Order and History (Volume 2): The World of the Polis,,,,Eric Voegelin,1957,,Louisiana State University Press,,377,0,English,64,,до 2011-01,,,,,,,,,,,,0,,,,,,,1,31113789,pdf,B0598384218DE44080953ADC8E5EF601,,,D:\\!genesis\\library.nu\\b0\\_271519.b0598384218de44080953adc8e5ef601.pdf,0,2000-01-01 01:00:00,2016-04-03 02:51:08,505000/b0598384218de44080953adc8e5ef601-g.jpg,,
19524168,Induccion en la Geometria,,,,L. I. Golovina - I. M. Yaglom,1981,,Editorial Mir,,126,0,Spanish,121,,до 2011-01,,,,,,,,,,,,0,,,,,,,0,24830882,pdf,B0D923BDC6A39AE9C3AA91BEDD093801,,,D:\\!genesis\\library.nu\\b0\\_271456.b0d923bdc6a39ae9c3aa91bedd093801.pdf,0,2000-01-01 01:00:00,2016-04-03 02:51:08,505000/b0d923bdc6a39ae9c3aa91bedd093801-g.jpg,,
19524169,The Viking Takes a Knight,,Viking I 9,,Sandra Hill,2010,,HarperCollins,,,0,English,,,до 2011-01,"9780062008893,0062008897",,,,,,,,,,,0,,,,,,,1,413311,epub,B023AD3B217E32F9B33C9027669D2FBB,,,D:\\!genesis\\library.nu\\b0\\_271374.b023ad3b217e32f9b33c9027669d2fbb.epub,0,2000-01-01 01:00:00,2016-04-03 02:51:08,505000/B023AD3B217E32F9B33C9027669D2FBB-g.jpg,,
19524170,Enlightenment and Genocide: Contradictions of Modernity,,,,"James Kaye, Bo Strath",2000,,Peter Lang Publishing Inc,,274,0,English,,,до 2011-01,"0820446572,9780820446578",,,,,,,,,OL11396231M,,0,,,,,,1,1,10760850,pdf,B06DCED6DD693158091161041C8B5397,,,D:\\!genesis\\library.nu\\b0\\_271226.b06dced6dd693158091161041c8b5397.pdf,0,2000-01-01 01:00:00,2016-04-03 02:51:08,505000/b06dced6dd693158091161041c8b5397-d.jpg,,
19524171,God in the Classroom: Religion and America's Public Schools,,,,R. Murray Thomas,2007,,Praeger,,295,0,English,205,,до 2011-01,"0275991415,9780275991418",,,,,,,,,OL10289768M,,0,,,,,,,1,2606921,pdf,B02A637108E7D2C1BBEBE0383FBE6B5B,,,D:\\!genesis\\library.nu\\b0\\_271156.b02a637108e7d2c1bbebe0383fbe6b5b.pdf,0,2000-01-01 01:00:00,2016-04-03 02:51:08,505000/b02a637108e7d2c1bbebe0383fbe6b5b-d.jpg,,
19524172,Land's End: A Walk in Provincetown,,,,Michael Cunningham,2002,,Crown Journeys,,,0,English,,,до 2011-01,"9780307718013,0307718018",,,,,,,,,OL24278737M,,0,,,,,,,1,1976180,epub,B0E37B18EE7AC55858958DF431A5D8EC,,,D:\\!genesis\\library.nu\\b0\\_271000.b0e37b18ee7ac55858958df431a5d8ec.epub,0,2000-01-01 01:00:00,2016-04-03 02:51:08,505000/B0E37B18EE7AC55858958DF431A5D8EC-g.jpg,,
19524173,"You Say Tomato, I Say Shut Up: A Love Story",,,,"Annabelle Gurwitch, Jeff Kahn",2010,,Crown,,,0,English,,,до 2011-01,9780307463791,,,,,,,,,OL24253183M,,0,,,,,,,1,1983972,epub,B0032AC84D50AFB4C6C223885E23929C,,,D:\\!genesis\\library.nu\\b0\\_270675.b0032ac84d50afb4c6c223885e23929c.epub,0,2000-01-01 01:00:00,2016-04-03 02:51:08,505000/B0032AC84D50AFB4C6C223885E23929C-g.jpg,,
19524174,Becoming Conversant with the Emerging Church: Understanding a Movement and Its Implications,,,,D. A. Carson,2005,,Zondervan,,260,0,English,,,до 2011-01,"0310259479,9780310259473",,,,,,,,,OL9781443M,,0,,,,,,,1,1160931,pdf,B0470C045B0ABCB383242E18FB39F2BE,,,D:\\!genesis\\library.nu\\b0\\_270326.b0470c045b0abcb383242e18fb39f2be.pdf,0,2000-01-01 01:00:00,2016-04-03 02:51:08,505000/b0470c045b0abcb383242e18fb39f2be-d.jpg,,
19524175,Regulating Tobacco,,,,"Robert L. Rabin, Stephen D. Sugarman",2001,,"Oxford University Press, USA",,311,0,English,,,до 2011-01,"0195147561,9780195147568",,,,,,,,,OL17027446M,,0,,,,,,1,1,2106783,pdf,B0AB19CEC63A2CC96134A918E19539CC,,,D:\\!genesis\\library.nu\\b0\\_270218.b0ab19cec63a2cc96134a918e19539cc.pdf,0,2000-01-01 01:00:00,2016-04-03 02:51:08,505000/b0ab19cec63a2cc96134a918e19539cc-d.jpg,,
19524176,"Microdrop Generation (Nano- and Microscience, Engineering, Technology and Medicine)",,,,Eric R. Lee,2002,1,CRC Press,,272,0,English,210,,до 2011-01,"084931559X,9780849315596",,,,,,,,,OL18182036M,,0,,,,,,,1,2215036,pdf,B05FC46D346C69F418F927A9F10B65FF,,,D:\\!genesis\\library.nu\\b0\\_269809.b05fc46d346c69f418f927a9f10b65ff.pdf,0,2000-01-01 01:00:00,2016-04-03 02:51:08,505000/b05fc46d346c69f418f927a9f10b65ff-d.jpg,,
19524177,The Flower of Paradise and Other Armenian Tales (World Folklore Series),,,,Bonnie Marshall,2007,,Libraries Unlimited,,243,0,English,,,до 2011-01,"1591583675,9781591583677",,,,,,,,,OL8856034M,,0,,,,,,,1,2234312,pdf,B0A810B84A0D71343D6A8161ED5FEFEA,,,D:\\!genesis\\library.nu\\b0\\_269503.b0a810b84a0d71343d6a8161ed5fefea.pdf,0,2000-01-01 01:00:00,2016-04-03 02:51:08,505000/b0a810b84a0d71343d6a8161ed5fefea-d.jpg,,
19524178,"Statistical and Adaptive Signal Processing: Spectral Estimation, Signal Modeling, Adaptive Filtering and Array Processing (Artech House Signal Processing Library)",,,,"Dimitris G. Manolakis, Dimitris Manolakis, Vinay K. Ingle, Stephen M. Kogon",2005,,Artech House Publishers,,816,0,English,255,,до 2011-01,"1580536107,9781580536103,9781580533669",,,,,621.382/2,TK5102.9 .M36 2005,,,OL3423253M,,0,,,,,,1,1,14372832,pdf,B0A3642DA31AC1A297FEC34F2FF6916E,,,D:\\!genesis\\library.nu\\b0\\_269323.b0a3642da31ac1a297fec34f2ff6916e.pdf,0,2000-01-01 01:00:00,2016-04-03 02:51:08,505000/b0a3642da31ac1a297fec34f2ff6916e-d.jpg,,
19524179,Despre Pitagora si pitagoricieni,,,,Mihai Nasta,1998,,Paideia,,242,0,Romanian,,,0,,,,,,,,,,,,0,,,,,,,0,1636195,djvu,643610d970b3bc9a2eb6da6d8f303a51,c5d41f87e2f67d131dad5a7dc41a03f1,no,Mihai Nasta - Despre Pitagora si pitagoricieni,0,2000-01-01 01:00:00,2016-04-03 02:51:08,881000/643610d970b3bc9a2eb6da6d8f303a51-g.jpg,,
19524180,The Neighbors Are Watching,,,,Debra Ginsberg,2010,,Crown,,,0,English,,,до 2011-01,"9780307463883,0307463885",,,,,,,,,,,0,,,,,,,1,1955265,epub,B07B7315D7CEE9A2B1C6514411DE0506,,,D:\\!genesis\\library.nu\\b0\\_268818.b07b7315d7cee9a2b1c6514411de0506.epub,0,2000-01-01 01:00:00,2016-04-03 02:51:08,505000/B07B7315D7CEE9A2B1C6514411DE0506-g.jpg,,
19524181,National Curriculum Framework 2005,,,,"Yas Pal, National Council of Educational Research and Training (NCERT) India",,,,,160,0,English,,,до 2011-01,8174504672,,,,,,,,,,,0,,,,,,,1,2252448,pdf,B00FCC2DD3E8E84B888ADB849436BF47,,,D:\\!genesis\\library.nu\\b0\\_268574.b00fcc2dd3e8e84b888adb849436bf47.pdf,0,2000-01-01 01:00:00,2016-04-03 02:51:08,505000/b00fcc2dd3e8e84b888adb849436bf47-g.jpg,,
19524182,Curriculum in a New Key: The Collected Works of Ted T. Aoki (Studies in Curriculum Theory Series),,,,William F. Pinar & Rita L. Irwin,2004,1,"Lawrence Erlbaum Associates, Inc., Publishers",,224,0,English,183,,до 2011-01,"0805847421,9780805847420",,,,,,,,,OL17133004M,,0,,,,,,,1,24103008,pdf,B02BE47AB530B0AB64C8B1BBB475A527,,,D:\\!genesis\\library.nu\\b0\\_268446.b02be47ab530b0ab64c8b1bbb475a527.pdf,0,2000-01-01 01:00:00,2016-04-03 02:51:08,505000/b02be47ab530b0ab64c8b1bbb475a527-d.jpg,,
19524183,Ηπειρωτικά Χρονικά 3(1928),3,,,"Π. Βιζουκίδης, Γ. Αναγνωστόπουλος, Α. Κοντοπάνος (editors)",1928,,Ιερά Μητρόπολις Ιωαννίνων,,353,0,Greek,,,до 2011-01,,,,,,,,,,,,0,,,,,,1,0,20306680,pdf,B08EB588A03029FB19675B34EA3064AA,,,D:\\!genesis\\library.nu\\b0\\_267757.b08eb588a03029fb19675b34ea3064aa.pdf,0,2000-01-01 01:00:00,2016-04-03 02:51:08,505000/b08eb588a03029fb19675b34ea3064aa-g.jpg,,
19524184,Siciliano,,,,Rainer Bigalke,1997,,LINCOM EUROPA,,102,0,Italian,,,до 2011-01,"3895862193,9783895862199",,,,,,,,,OL18709287M,,0,,,,,,1,0,14488418,pdf,B030E7049F617D74067380B66E77535E,,,D:\\!genesis\\library.nu\\b0\\_267275.b030e7049f617d74067380b66e77535e.pdf,0,2000-01-01 01:00:00,2016-04-03 02:51:08,505000/b030e7049f617d74067380b66e77535e-g.jpg,,
19524185,Four and Twenty Blackbirds,,,,Cherie Priest,2003,,,,196,0,English,,,до 2011-01,"1892669226,9781892669223",,,,,,,,,,,0,,,,,1,1,1,1197935,pdf,B0E9955ED594F7B5C3DFC200D974B091,,,D:\\!genesis\\library.nu\\b0\\_26671.b0e9955ed594f7b5c3dfc200d974b091.pdf,0,2000-01-01 01:00:00,2016-04-03 02:51:08,505000/b0e9955ed594f7b5c3dfc200d974b091-d.jpg,,
19524186,The Ominous Parallels: A Brilliant Study of America Today - and the 'ominous parallels' with the chaos of pre-Hitler Germany,,,,Leonard Peikoff,1983,,Plume,,352,0,English,183,,до 2011-01,"0452011175,9780452011175",,,,,,,,,OL7589954M,,0,,,,,,,,430955,epub,B046F482A50A59F3239B755334CE4B16,,,D:\\!genesis\\library.nu\\b0\\_266418.b046f482a50a59f3239b755334ce4b16.epub,0,2000-01-01 01:00:00,2016-04-03 02:51:08,505000/b046f482a50a59f3239b755334ce4b16-d.jpg,,
19524187,Gebrauchsanweisung fur England,,,,Heinz Ohff,1997,,Piper Verlag,,175,0,German,,,до 2011-01,"3492049966,9783492049962",,,,,,,,,OL9047174M,,0,,,,,,1,1,526390,pdf,B0599C6AEFD6A1E253625D52A6417B59,,,D:\\!genesis\\library.nu\\b0\\_266086.b0599c6aefd6a1e253625d52a6417b59.pdf,0,2000-01-01 01:00:00,2016-04-03 02:51:08,505000/b0599c6aefd6a1e253625d52a6417b59-d.jpg,,
19524188,Cutting Edge Robotics 2010,,,,Vedran Kordic,2010,,,,450,0,English,257,,до 2011-01,9789533070629,,,,,,,,,,,0,,,,,,1,1,35310224,pdf,B04C180DCA0727E18D549D8103EBE9D3,,,D:\\!genesis\\library.nu\\b0\\_265888.b04c180dca0727e18d549d8103ebe9d3.pdf,0,2000-01-01 01:00:00,2016-04-03 02:51:08,505000/b04c180dca0727e18d549d8103ebe9d3-g.jpg,,
19524189,Chaos: A Program Collection for the PC (3 rd. edition),,,,"Hans Jurgen Korsch, Hans-Jorg Jodl, Timo Hartmann",2008,3rd rev. and enlarged ed.,Springer,,352,0,English,275,,до 2011-01,"3540748660,9783540748663",,,,,,,,,OL25051152M,,0,,,,,,1,1,15044505,pdf,B088C0CD184D5641F80D5BEF0FAA1DCF,,,D:\\!genesis\\library.nu\\b0\\_265636.b088c0cd184d5641f80d5bef0faa1dcf.pdf,0,2000-01-01 01:00:00,2016-04-03 02:51:08,505000/b088c0cd184d5641f80d5bef0faa1dcf-d.jpg,,
19524190,The Rock-N-Roll Singer's Survival Manual (Book),,,,Mark Baxter,1990,,Hal Leonard Corporation,,248,0,English,293,,до 2011-01,"0793502861,9780793502868",,,,,783/.066,MT820 .B285 1990,,,OL1889210M,,0,,,,,,,1,6268661,pdf,B04CA139F4AB3A4105882DC066811ECF,,,D:\\!genesis\\library.nu\\b0\\_264504.b04ca139f4ab3a4105882dc066811ecf.pdf,0,2000-01-01 01:00:00,2016-04-03 02:51:08,505000/b04ca139f4ab3a4105882dc066811ecf-d.jpg,,
19524191,The Crisis of Democracy: Report on the Governability of Democracies to the Trilateral Commission (Triangle Papers),,,,"Michel Crozier, Samuel P. Huntington, Joji Watanuki",1975,,New York University Press,,220,0,English,,,до 2011-01,"0814713645,9780814713648",,,,,321.8,JC421 .C86,,,OL21313843M,,0,,,,,,,1,3393858,pdf,B039868A90D1E865088F3766265734A1,,,D:\\!genesis\\library.nu\\b0\\_264396.b039868a90d1e865088f3766265734a1.pdf,0,2000-01-01 01:00:00,2016-04-03 02:51:08,505000/b039868a90d1e865088f3766265734a1-g.jpg,,
19524192,"Tomorrow's Chemistry Today: Concepts in Nanoscience, Organic Materials and Environmental Chemistry",,,,Bruno Pignataro,2009,2,Wiley-VCH,,458,0,English,296,,до 2011-01,"3527326235,9783527326235",,,,,,,,,,,0,,,,,,1,1,11748859,pdf,B0B43F5A898CD8C1789A2337E099680E,,,D:\\!genesis\\library.nu\\b0\\_264124.b0b43f5a898cd8c1789a2337e099680e.pdf,0,2000-01-01 01:00:00,2016-04-03 02:51:08,505000/b0b43f5a898cd8c1789a2337e099680e-d.jpg,,
19524193,The Turning Tide: A Novel of Crosspointe,,,,Diana Pharaoh Francis,2009,Original,Roc,,416,0,English,,,до 2011-01,"0451462688,9780451462688",,,,,,,,,,,0,,,,,,,,626327,epub,B0ED6E292B264D62282550944CBF58D0,,,D:\\!genesis\\library.nu\\b0\\_263916.b0ed6e292b264d62282550944cbf58d0.epub,0,2000-01-01 01:00:00,2016-04-03 02:51:08,505000/b0ed6e292b264d62282550944cbf58d0-d.jpg,,
19524194,Auslegungen der Reformatoren (Texte zum Neuen Testament 3; Das Neue Testament Deutsch),,,,Gerhard Friedrich (Herausgeber),1984,,Vandenhoeck & Ruprecht,,294,0,German,,,до 2011-01,"3525513658,9783525513651",,,,,225.6/09,BS2350 .T4 1984,,,OL2572603M,,400,,,,,,1,1,15966144,pdf,B0833A348926C76CF3C8DD2D6D90351A,,,D:\\!genesis\\library.nu\\b0\\_263829.b0833a348926c76cf3c8dd2d6d90351a.pdf,0,2000-01-01 01:00:00,2016-04-03 02:51:08,505000/b0833a348926c76cf3c8dd2d6d90351a-g.jpg,,
19524195,Psychosynthesis: A Psychology of the Spirit (SUNY Series in Transpersonal and Humanistic Psychology),,SUNY series in Transpersonal and Humanistic Psychology,,"John Firman, Ann Gila",2002,,State University of New York Press,,235,0,English,198,,до 2011-01,"0791455335,9780791455333,0791455343,9780791455340",,,,,,,,,OL7802837M,,0,,,,,,1,1,1387636,pdf,B0A0DE2111F7F7BDABF35A45A16D522B,,,D:\\!genesis\\library.nu\\b0\\_263560.b0a0de2111f7f7bdabf35a45a16d522b.pdf,0,2000-01-01 01:00:00,2016-04-03 02:51:08,505000/b0a0de2111f7f7bdabf35a45a16d522b-d.jpg,,
19524196,Al-Ibanah fi Usul al-Diyanah (The Elucidation of Islam's Founadtion),,,,"Abul Hasan Ali ibn Isma'il al-Ash'ari, Walter C. Klien",,,,,78,0,Indonesian,205,,до 2011-01,,,,,,,,,,,,0,,,,,,,1,7316513,pdf,B017BF57E16DC0E0163180ABF5A0B506,,,D:\\!genesis\\library.nu\\b0\\_263516.b017bf57e16dc0e0163180abf5a0b506.pdf,0,2000-01-01 01:00:00,2016-04-03 02:51:08,505000/b017bf57e16dc0e0163180abf5a0b506-g.jpg,,
19524197,"Floer Homology, Gauge Theory, and Low Dimensional Topology: Proceedings of the Clay Mathematics Institute 2004 Summer School, Alfred Renyi Institute of Mathematics, Budapest, Hungary, June 5-26, 2004 (Clay Mathematics Proceedings, Vol. 5)",,,,"David A. Ellwood, Peter S. Ozsvath, Andras I. Stipsicz, Zoltan Szabo",2006,,,,297,0,English,121,,до 2011-01,"0821838458,9780821838457",,,,,,,,,OL17201076M,,0,,,,,1,,1,3275062,pdf,B0E9EDB2FC0FBB5E9F7E43114A0B6A66,,,D:\\!genesis\\library.nu\\b0\\_26312.b0e9edb2fc0fbb5e9f7e43114a0b6a66.pdf,0,2000-01-01 01:00:00,2016-04-03 02:51:08,505000/b0e9edb2fc0fbb5e9f7e43114a0b6a66-d.jpg,,
19524198,"Uem: Faits, Defis Et Politiques",,,,Oecd,1999,,Organization for Economic Co-operation and Development (OECD),,230,0,French,,,до 2011-01,"9264270272,9789264270275",,,,,,,,,OL12903205M,,0,,,,,,1,1,1170644,pdf,B03AF1C7D4589E5E33DE50E6287968AD,,,D:\\!genesis\\library.nu\\b0\\_262581.b03af1c7d4589e5e33de50e6287968ad.pdf,0,2000-01-01 01:00:00,2016-04-03 02:51:08,505000/b03af1c7d4589e5e33de50e6287968ad-g.jpg,,
19524199,"Allies (Star Wars: Fate of the Jedi, Book 5)",,,,Christie Golden,2010,,LucasBooks,,384,0,English,,,до 2011-01,"0345509145,9780345509147",,,,,,,,,OL24232832M,,0,,,,,,,1,1065989,pdf,B0841EFA502C1CA9A78F49388AB236F5,,,D:\\!genesis\\library.nu\\b0\\_260340.b0841efa502c1ca9a78f49388ab236f5.pdf,0,2000-01-01 01:00:00,2016-04-03 02:51:08,505000/b0841efa502c1ca9a78f49388ab236f5-d.jpg,,
19524200,The art of making leather cases-vol 1,,,,Al Stohlman,1979,,Tandy Leather CO.,,119,0,English,,,до 2011-01,"1892214946,9781892214942",,,,,,,,,OL8718930M,,0,,,,,,,0,23743201,pdf,B07DB4B6BA3ABC8BE1EA50FBA65C69E8,,,D:\\!genesis\\library.nu\\b0\\_259926.b07db4b6ba3abc8be1ea50fba65c69e8.pdf,0,2000-01-01 01:00:00,2016-04-03 02:51:08,505000/b07db4b6ba3abc8be1ea50fba65c69e8-d.jpg,,
19524201,A Companion for Mathematical Statistics,,,,James E. Gentle,2010,,,,696,0,English,,,до 2011-01,,,,,,,,,,,,0,,,,,,1,1,3125298,pdf,B0D9F399811EE6805879D4CEAE371398,,,D:\\!genesis\\library.nu\\b0\\_258842.b0d9f399811ee6805879d4ceae371398.pdf,0,2000-01-01 01:00:00,2016-04-03 02:51:08,505000/b0d9f399811ee6805879d4ceae371398-g.jpg,,
19524202,"WAS IST WAS, Band 42: Indianer",,,,"Signe Seiler, Jorn Hennig",1985,,Tessloff Verlag,,50,0,German,,,до 2011-01,"3788602821,9783788602826",,,,,,,,,OL9103254M,,0,,,,,,,0,22124958,pdf,B08FC886465466DED2D463F73645CD45,,,D:\\!genesis\\library.nu\\b0\\_257665.b08fc886465466ded2d463f73645cd45.pdf,0,2000-01-01 01:00:00,2016-04-03 02:51:08,505000/b08fc886465466ded2d463f73645cd45-d.jpg,,
19524203,A Grammar of the Hittite Language,1 &amp; 2,,,Harry A. Hoffner & H. Craig Melchert,2008,,Eisenbrauns,,574,0,English,314,,до 2011-01,"1575061198,9781575061191",,,,,491/.998,P945 .H59 2008,,,OL12233531M,,0,,,,,,,1,3539088,pdf,B063D36F9C1AA1EA8DD725FA3D1977AC,,,D:\\!genesis\\library.nu\\b0\\_257590.b063d36f9c1aa1ea8dd725fa3d1977ac.pdf,0,2000-01-01 01:00:00,2016-04-03 02:51:08,505000/b063d36f9c1aa1ea8dd725fa3d1977ac-g.jpg,,
19524204,المعادلات التفاضلية - الجزء الأول,,,,حسن العويضي، عبد الوهاب رجب، سناء زارع,,,مكتبة الرشد,,307,0,Arabic,,,до 2011-01,,,,,,,,,,,,0,,,,,,1,0,3374101,pdf,B02AA6F58E0C3C3AD698A6528FBF7124,,,D:\\!genesis\\library.nu\\b0\\_256865.b02aa6f58e0c3c3ad698a6528fbf7124.pdf,0,2000-01-01 01:00:00,2016-04-03 02:51:08,505000/b02aa6f58e0c3c3ad698a6528fbf7124-g.jpg,,
19524205,Language and Time,,,,Quentin Smith,1993,,"Oxford University Press, USA",,273,0,English,314,,до 2011-01,"0195082273,9780195082272,0195155947,9780195155945",,,,,115,BD638 .S64 1993,,,OL1732359M,,300,,,,,,,1,3962391,djvu,B083085BA4B41E39FCF768D8F4217951,,,D:\\!genesis\\library.nu\\b0\\_256363.b083085ba4b41e39fcf768d8f4217951.djvu,0,2000-01-01 01:00:00,2016-04-03 02:51:08,505000/b083085ba4b41e39fcf768d8f4217951-d.jpg,,
19524206,Congress Volume Leiden 2004 (Supplements to Vetus Testamentum),,Supplements to Vetus Testamentum 109,,Andre Lemaire,2006,,Brill Academic Publishers,,480,0,English,,,до 2011-01,"9004149139,9789004149137",,,,,,,,,OL18712912M,,0,,,,,,1,1,4117433,pdf,B0E018716D74C4874064DEAE9F3B8D09,,,D:\\!genesis\\library.nu\\b0\\_256358.b0e018716d74c4874064deae9f3b8d09.pdf,0,2000-01-01 01:00:00,2016-04-03 02:51:08,505000/b0e018716d74c4874064deae9f3b8d09-d.jpg,,
19524207,Tradicija modernog: prilozi istoriji savremene antropologije,,,,Ivan Kovacevic,2006,,Beograd: Srpski genealoški centar,,156,0,Serbian,14,,до 2011-01,8683679306,,,,,,,,,,,0,,,,,,,1,920344,pdf,B02723266BC52589219088359026A61E,,,D:\\!genesis\\library.nu\\b0\\_256355.b02723266bc52589219088359026a61e.pdf,0,2000-01-01 01:00:00,2016-04-03 02:51:08,505000/b02723266bc52589219088359026a61e-g.jpg,,
19524208,The Western Esoteric Traditions: A Historical Introduction,,,,Nicholas Goodrick-Clarke,2008,,"Oxford University Press, USA",,296,0,English,64,,до 2011-01,"0195320999,9780195320992",,,,,135,BF1411 .G66 2008,,,OL10135110M,,0,,,,,,1,1,22030484,pdf,B0D829F0BF85081AB76963BCC6837516,,,D:\\!genesis\\library.nu\\b0\\_255947.b0d829f0bf85081ab76963bcc6837516.pdf,0,2000-01-01 01:00:00,2016-04-03 02:51:08,505000/b0d829f0bf85081ab76963bcc6837516-d.jpg,,
19524209,"Workshop Processes, Practices and Materials, Fourth Edition",,,,Bruce Black,2010,4,Newnes,,367,0,English,,,до 2011-01,"0080890644,9780080890647",,,,,,,,,,,0,,,,,,,1,10911438,pdf,B001A5BCC2CC20B031DDD67FDC83FAE4,,,D:\\!genesis\\library.nu\\b0\\_255258.b001a5bcc2cc20b031ddd67fdc83fae4.pdf,0,2000-01-01 01:00:00,2016-04-03 02:51:08,505000/b001a5bcc2cc20b031ddd67fdc83fae4-d.jpg,,
19524210,We (Мы),,,,Yevgeny Zamyatin,1993,,,,221,0,English,,,до 2011-01,"9780140185850,0140185852",,,,,891.73/42,PG3476.Z34 M913 1993,,,OL1738889M,,0,,,,,1,,1,392548,pdf,B0985978C97BDE3C845E4D2FFE296246,,,D:\\!genesis\\library.nu\\b0\\_25479.b0985978c97bde3c845e4d2ffe296246.pdf,0,2000-01-01 01:00:00,2016-04-03 02:51:08,505000/b0985978c97bde3c845e4d2ffe296246-d.jpg,,
19524211,Amazing Grace,,,,Danielle Steel,2008,Reprint,,,416,0,English,,,до 2011-01,0440243270,,,,,,,,,,,0,,,,,,,,2054143,epub,B0D86D1EE1CD319ABB3F981B2FDE5D5E,,,D:\\!genesis\\library.nu\\b0\\_254596.b0d86d1ee1cd319abb3f981b2fde5d5e.epub,0,2000-01-01 01:00:00,2016-04-03 02:51:08,505000/b0d86d1ee1cd319abb3f981b2fde5d5e-d.jpg,,
19524212,Eigenschaftsorientierte Beschreibung der logischen Architektur eingebetteter Systeme,,,,David Trachtenherz,,,,,451,0,German,,,до 2011-01,3834810290,,,,,,,,,,,0,,,,,,1,1,3037716,pdf,B0C8F7FD52BCD44D711B9DFB9E93B3B7,,,D:\\!genesis\\library.nu\\b0\\_254594.b0c8f7fd52bcd44d711b9dfb9e93b3b7.pdf,0,2000-01-01 01:00:00,2016-04-03 02:51:08,505000/b0c8f7fd52bcd44d711b9dfb9e93b3b7-g.jpg,,
19524213,Neue Strukturen globaler Umweltpolitik (Welt im Wandel) (German Edition),,,,Wissenschaftlicher Beirat Globale Umweltveranderungen (WBGU),2001,1,Springer,,223,0,German,,,до 2011-01,"354041343X,9783540413431",,,,,,,,,OL12774583M,,0,,,,,,,1,1686213,pdf,B083C49D9E862F2B3B95A98A8B147BD2,,,D:\\!genesis\\library.nu\\b0\\_253754.b083c49d9e862f2b3b95a98a8b147bd2.pdf,0,2000-01-01 01:00:00,2016-04-03 02:51:08,505000/b083c49d9e862f2b3b95a98a8b147bd2-d.jpg,,
19524214,The Hebrew Goddess 3rd Enlarged Edition,,,,Raphael Patai,1990,3,Wayne State University Press,,401,0,English,,,до 2011-01,"0814322719,9780814322710",,,,,296.3/11,BS1183 .P38 1990,,,OL2225601M,,0,,,,,,1,1,48794529,pdf,B0CF3BBE52CAFBB0FC7E5D17C005CA99,,,D:\\!genesis\\library.nu\\b0\\_253638.b0cf3bbe52cafbb0fc7e5d17c005ca99.pdf,0,2000-01-01 01:00:00,2016-04-03 02:51:08,505000/b0cf3bbe52cafbb0fc7e5d17c005ca99-d.jpg,,
19524215,Kinship and Diasporas in International Affairs,,,,Yossi Shain,2007,,University of Michigan Press,,210,0,English,,,до 2011-01,"0472099108,9780472099108",,,,,,,,,OL10342088M,,0,,,,,,1,1,879248,pdf,B0C3B18FFB8F3128B59CC3DFC753FC73,,,D:\\!genesis\\library.nu\\b0\\_253535.b0c3b18ffb8f3128b59cc3dfc753fc73.pdf,0,2000-01-01 01:00:00,2016-04-03 02:51:08,505000/b0c3b18ffb8f3128b59cc3dfc753fc73-d.jpg,,
19524216,Ultraclean Transportation Fuels (Acs Symposium Series),,,,"Olayinka I. Ogunsola, Isaac K. Gamwo",2007,1,"Oxford University Press, USA",,239,0,English,289,,до 2011-01,"0841274096,9780841274099",,,,,662/.66,TP360 .U44 2007,10.1021/bk-2007-0959.fw001,,OL11527793M,,0,,,,,,,1,20954764,pdf,B0FEC6F0ABA27ECD706CCF3A2F55F065,,,D:\\!genesis\\library.nu\\b0\\_253020.b0fec6f0aba27ecd706ccf3a2f55f065.pdf,0,2000-01-01 01:00:00,2016-04-03 02:51:08,505000/b0fec6f0aba27ecd706ccf3a2f55f065-d.jpg,,
19524217,The Annotated Alice: The Definitive Edition,,,,"Lewis Carroll, Martin Gardner",1999,Upd Sub,W. W. Norton & Company,,360,0,English,,,до 2011-01,"0393048470,9780393048476",,,,,823/.8,PR4611 .A7 2000,,,OL23244116M,,0,,,,,,,1,14643664,pdf,B0CE9B19E9BF6459149378245DE26E57,,,D:\\!genesis\\library.nu\\b0\\_252885.b0ce9b19e9bf6459149378245de26e57.pdf,0,2000-01-01 01:00:00,2016-04-03 02:51:08,505000/b0ce9b19e9bf6459149378245de26e57-d.jpg,,
19524218,Herausforderung Verbandemanagement: Handlungsfelder und Strategien,,,,"Dieter Witt, Michael Thiess, Astrid Heilmair, Burkhard von Velsen-Zerweck",2006,,Gabler,,282,0,German,,,до 2011-01,"3834902667,9783834902665",,,,,,,,,,,0,,,,,,,1,1449568,pdf,B0601CC752BEFA38E46AC53D59B0CC6B,,,D:\\!genesis\\library.nu\\b0\\_252536.b0601cc752befa38e46ac53d59b0cc6b.pdf,0,2000-01-01 01:00:00,2016-04-03 02:51:08,505000/b0601cc752befa38e46ac53d59b0cc6b-d.jpg,,
19524219,Die Azteken. Geschichte - Kultur - Religion (Beck Wissen),,,,Hanns J. Prem,1999,,C.H.Beck Verlag,,154,0,German,205,,до 2011-01,"3406458351,9783406458354",,,,,,,,,OL9026420M,,0,,,,,,1,1,520574,pdf,B0DDEB841D8A4FD2B092B916D193BBDE,,,D:\\!genesis\\library.nu\\b0\\_252496.b0ddeb841d8a4fd2b092b916d193bbde.pdf,0,2000-01-01 01:00:00,2016-04-03 02:51:08,505000/b0ddeb841d8a4fd2b092b916d193bbde-d.jpg,,
19524220,hakin9 - 2010 - 3,,,,hakin9 team,2010,,hakin9.org,,84,0,English,64,,до 2011-01,,,,,,,,,,,,0,,,,,,,1,10880272,pdf,B0738F17E0F1A3439AFB4AA32FBA6DAC,,,D:\\!genesis\\library.nu\\b0\\_251993.b0738f17e0f1a3439afb4aa32fba6dac.pdf,0,2000-01-01 01:00:00,2016-04-03 02:51:08,505000/b0738f17e0f1a3439afb4aa32fba6dac-g.jpg,,
19524221,Systems and Control (Engineering & Technology),,,,Stanislaw H. Zak,2002,,"Oxford University Press, USA",,781,0,English,210,,до 2011-01,"0195150112,9780195150117",,,,,629.832,,,,OL17079955M,,0,,,,,,1,1,5541709,pdf,B09AB7149F4B15619556E5CC5C094EC0,,,D:\\!genesis\\library.nu\\b0\\_251938.b09ab7149f4b15619556e5cc5c094ec0.pdf,0,2000-01-01 01:00:00,2016-04-03 02:51:08,505000/b09ab7149f4b15619556e5cc5c094ec0-d.jpg,,
