19576222,"For Us, The Living: A Comedy of Customs",,,,Robert A. Heinlein,2003,First Edition,,,288,0,English,,,до 2011-01,"074325998X,9780743259989,0743491548,9780743491549",,B0009Q000U,,,813/.54,PS3515.E288 F67 2004,,,OL22155160M,,0,,,,,1,,1,2291582,pdf,2B94930A1E4D04D2804C885199964EE6,,,D:\\!genesis\\library.nu\\2b\\_11664.2b94930a1e4d04d2804c885199964ee6.pdf,0,2000-01-01 01:00:00,2016-04-03 02:51:08,556000/2b94930a1e4d04d2804c885199964ee6-d.jpg,,
19576223,"1858: Abraham Lincoln, Jefferson Davis, Robert E. Lee, Ulysses S. Grant and the War They Failed to See",,,,Bruce Chadwick,2008,1,,,368,0,English,67,,до 2011-01,"140220941X,9781402209413,9781402219849",,,,,973.7/11,E458 .C425 2008,,,OL11636197M,,0,,,,,1,,1,2736949,pdf,2B34F8809C0D48906714718CF3280EAF,,,D:\\!genesis\\library.nu\\2b\\_116386.2b34f8809c0d48906714718cf3280eaf.pdf,0,2000-01-01 01:00:00,2016-04-03 02:51:08,556000/2b34f8809c0d48906714718cf3280eaf-d.jpg,,
19576224,Going Rogue: An American Life,,,,Sarah Palin,2009,1st,,,432,0,English,,,до 2011-01,"0061939897,9780061997877",,,,,"973.931092,B",F910.7.P35 A3 2009,,,OL24090158M,,0,,,,,1,,0,6930903,pdf,2BAF84001634ADDD740DFE875900E6FB,,,D:\\!genesis\\library.nu\\2b\\_11629.2baf84001634addd740dfe875900e6fb.pdf,0,2000-01-01 01:00:00,2016-04-03 02:51:08,556000/2baf84001634addd740dfe875900e6fb-d.jpg,,
19576225,The Kybalion: A Study of the Hermetic Philosophy of Ancient Egypt and Greece,,,,Three Initiates,2006,,,,136,0,English,183,,до 2011-01,"9781599869599,1599869594",,,,,,,,,OL8902424M,,0,,,,,1,,1,268538,pdf,2BBEBB1E5D5620F47CE3B2FA59346D02,,,D:\\!genesis\\library.nu\\2b\\_11612.2bbebb1e5d5620f47ce3b2fa59346d02.pdf,0,2000-01-01 01:00:00,2016-04-03 02:51:08,556000/2bbebb1e5d5620f47ce3b2fa59346d02-d.jpg,,
19576226,Überflieger: Warum manche Menschen erfolgreich sind - und andere nicht,,,,Malcolm Gladwell,,,,,272,0,German,,,до 2011-01,"3593388383,9783593388380",,,,,,,,,,,0,,,,,1,,1,2327752,pdf,2B4B42E368A212C7B1CA5574498432B9,,,D:\\!genesis\\library.nu\\2b\\_115691.2b4b42e368a212c7b1ca5574498432b9.pdf,0,2000-01-01 01:00:00,2016-04-03 02:51:08,556000/2b4b42e368a212c7b1ca5574498432b9-g.jpg,,
19576227,,,Advances in Immunology 26,,F.J. Dixon and Henry G. Kunkel (Eds.),1978,,"Elsevier, Academic Press",,"ii-xi, 1-347",0,English,178,,до 2011-01,978-0-12-022426-5,0065-2776,,,,,,,,,,0,,,,,1,,1,19056512,pdf,2BCE3199CB1AF739B1ED59D66667D201,,,D:\\!genesis\\library.nu\\2b\\_114664.2bce3199cb1af739b1ed59d66667d201.pdf,0,2000-01-01 01:00:00,2016-04-03 02:51:08,556000/2bce3199cb1af739b1ed59d66667d201-d.jpg,,
19576228,,,Advances in Protein Chemistry 34,,"C.B. Anfinsen, John T. Edsall and Frederic M. Richards (Eds.)",1981,First Edition,"Elsevier, Academic Press",,"ii-ix, 1-363",0,English,296,,до 2011-01,978-0-12-034234-1,0065-3233,,,,,,,,OL10070649M,,0,,,,,1,,1,17091633,pdf,2B6CBC24C7384CD7AAD7ADB962FBCF71,,,D:\\!genesis\\library.nu\\2b\\_114661.2b6cbc24c7384cd7aad7adb962fbcf71.pdf,0,2000-01-01 01:00:00,2016-04-03 02:51:08,556000/2b6cbc24c7384cd7aad7adb962fbcf71-d.jpg,,
19576229,"Power Electronics Handbook: Devices, Circuits and Applications",,,,Muhammad H. Rashid,2006,2,,,1192,0,English,137,,до 2011-01,"0120884798,9780120884797,9780080467658",,,,,,,,,,,0,,,,,1,,1,50140572,pdf,2BD8163DDD11093D2DB05DE66E337644,8c434c6dabd7db228f2b28c538da2898,no,D:/!genesis/library.nu/2b/_114103.2bd8163ddd11093d2db05de66e337644.pdf,0,2000-01-01 01:00:00,2016-04-03 02:51:08,556000/2bd8163ddd11093d2db05de66e337644-d.jpg,,
19576230,Death's Dream Kingdom: The American Psyche Since 9-11,,,,Davis Walter,2006,,Pluto Press,,301,0,English,,,до 2011-01,"074532469X,9780745324692,9781435662629",,,,,,,,,OL7955732M,,0,,,,0,1,,1,2391447,pdf,2B2E2DA7F32FEB7FF8A7ABA6E5F234FB,,,D:\\!genesis\\library.nu\\2b\\_11352.2b2e2da7f32feb7ff8a7aba6e5f234fb.pdf,0,2000-01-01 01:00:00,2016-04-03 02:51:08,556000/2b2e2da7f32feb7ff8a7aba6e5f234fb-d.jpg,,
19576231,Key Aspects of German Business Law: A Practical Manual,,,,"Michael Wendler, Bernd Tremml, Bernard John Buecker",2008,4th ed.,,,546,0,English,313,,до 2011-01,"354068574X,9783540685746",,,,,,,,,,,0,,,,,1,,1,3597260,pdf,2B4B70A671F6E4AEE1ACD8276E8797BD,,,D:\\!genesis\\library.nu\\2b\\_113215.2b4b70a671f6e4aee1acd8276e8797bd.pdf,0,2000-01-01 01:00:00,2016-04-03 02:51:08,556000/2b4b70a671f6e4aee1acd8276e8797bd-d.jpg,,
19576232,Linux Security (Networking),,,,Shadab Siddiqui,2002,1,,,512,0,English,85,,до 2011-01,"1931841993,9781931841993,9780585455990",,,,,005.8,,,,OL22018127M,,0,,,,,1,,1,2715643,pdf,2BAC0400F6393B564FE1312C9E39980C,,,D:\\!genesis\\library.nu\\2b\\_113018.2bac0400f6393b564fe1312c9e39980c.pdf,0,2000-01-01 01:00:00,2016-04-03 02:51:08,556000/2bac0400f6393b564fe1312c9e39980c-d.jpg,,
19576233,Radiotracer Studies of Interfaces,,Interface Science and Technology 3,,G. Horányi (Eds.),2004,,"Elsevier, Academic Press",,1-435,0,English,183,,до 2011-01,"012088495X,9780120884957,9780080474106",1573-4285,,,,,,,,OL18220791M,,0,,,,,1,,1,44154461,pdf,2BF2582FE8E512483430AF45699446D8,,,D:\\!genesis\\library.nu\\2b\\_112461.2bf2582fe8e512483430af45699446d8.pdf,0,2000-01-01 01:00:00,2016-04-03 02:51:08,556000/2bf2582fe8e512483430af45699446d8-d.jpg,,
19576234,Scottish Presbyterians and the Act of Union 1707,,,,Jeffrey Stephen,2007,,,,224,0,English,,,до 2011-01,"0748625054,9780748625055,9780748630783",,,,,,,,,OL10760694M,,0,,,,,1,,1,4932168,pdf,2BAA5F5E331427F88E29AC88EE6A004D,,,D:\\!genesis\\library.nu\\2b\\_112412.2baa5f5e331427f88e29ac88ee6a004d.pdf,0,2000-01-01 01:00:00,2016-04-03 02:51:08,556000/2baa5f5e331427f88e29ac88ee6a004d-d.jpg,,
19576235,"A History of Immunology, Second Edition",,,,Arthur M. Silverstein,2009,2,,,552,0,English,64,,до 2011-01,"012370586X,9780123705860",,,,,,,,,,,0,,,,,1,,1,6982090,pdf,2B8ADEE77CD430E83AAF72B198924397,,,D:\\!genesis\\library.nu\\2b\\_112128.2b8adee77cd430e83aaf72b198924397.pdf,0,2000-01-01 01:00:00,2016-04-03 02:51:08,556000/2b8adee77cd430e83aaf72b198924397-d.jpg,,
19576236,,,Advances in Applied Mechanics 3,,Richard Von Mises and Theodore Von Kármán (Eds.),1953,,"Elsevier, Academic Press",,"iii-vii, 1-324",0,English,178,,до 2011-01,978-0-12-002003-4,0065-2156,,,,,,,,,,0,,,,,1,,1,14301935,pdf,2BE0FBFCA38FAE93B8B367EF2553DB2F,,,D:\\!genesis\\library.nu\\2b\\_111862.2be0fbfca38fae93b8b367ef2553db2f.pdf,0,2000-01-01 01:00:00,2016-04-03 02:51:08,556000/2be0fbfca38fae93b8b367ef2553db2f-d.jpg,,
19576237,,,Advances in the Study of Behavior 12,,"Jay S. Rosenblatt, Robert A. Hinde, Colin Beer and Marie-Claire Busnel (Eds.)",1982,,"Elsevier, Academic Press",,"ii-xi, 1-260",0,English,183,,до 2011-01,978-0-12-004512-9,0065-3454,,,,,,,,OL10069873M,,0,,,,,1,,1,15294101,pdf,2B573FCE5D796F2DD2C60461DACBB975,,,D:\\!genesis\\library.nu\\2b\\_111410.2b573fce5d796f2dd2c60461dacbb975.pdf,0,2000-01-01 01:00:00,2016-04-03 02:51:08,556000/2b573fce5d796f2dd2c60461dacbb975-d.jpg,,
19576238,,,Advances in Cancer Research 29,,George Klein and Sidney Weinhouse (Eds.),1979,,"Elsevier, Academic Press",,"ii-ix, 1-458",0,English,178,,до 2011-01,978-0-12-006629-2,0065-230X,,,,,,,,,,0,,,,,1,,1,24610351,pdf,2BDCA372D8608FB872809D6ADF4229DE,,,D:\\!genesis\\library.nu\\2b\\_111319.2bdca372d8608fb872809d6adf4229de.pdf,0,2000-01-01 01:00:00,2016-04-03 02:51:08,556000/2bdca372d8608fb872809d6adf4229de-d.jpg,,
19576239,Agitations: Essays on Life and Literature,,,,Arthur Krystal,2002,,,,208,0,English,108,,до 2011-01,"0300092164,9780300092165",,,,,028/.9,Z1003 .K93 2002,,,OL22476175M,,0,,,,1,0,,1,1151118,pdf,2B015F4EC3F5E9E3914088B59743E3F8,,,D:\\!genesis\\library.nu\\2b\\_110407.2b015f4ec3f5e9e3914088b59743e3f8.pdf,0,2000-01-01 01:00:00,2016-04-03 02:51:08,556000/2b015f4ec3f5e9e3914088b59743e3f8-d.jpg,,
19576240,Arbeitsrecht: Schnell erfasst (Recht - schnell erfasst),,,,Ute Teschke-Bährle,2006,"6., überarb. u. aktualisierte Aufl.",,,246,0,German,,,до 2011-01,"3540325417,9783540325413,1010073540325",,,,,,,,,OL9745939M,,0,,,,,1,,1,8983697,pdf,2B8816C5D0F36ECC2649B02D3EB7DF4B,,,D:\\!genesis\\library.nu\\2b\\_110220.2b8816c5d0f36ecc2649b02d3eb7df4b.pdf,0,2000-01-01 01:00:00,2016-04-03 02:51:08,556000/2b8816c5d0f36ecc2649b02d3eb7df4b-d.jpg,,
19576241,Oxford Essays in Jurisprudence: Fourth Series,,,,Jeremy Horder,2000,,,,280,0,English,183,,до 2011-01,"0198268580,9780198268581",,,,,340/.1,K235 .O93 2000,,,OL52277M,,0,,,,,1,,0,9681782,pdf,2BC8BAFB89E091A41BB3DAA57659E6EB,,,D:\\!genesis\\library.nu\\2b\\_109535.2bc8bafb89e091a41bb3daa57659e6eb.pdf,0,2000-01-01 01:00:00,2016-04-03 02:51:08,556000/2bc8bafb89e091a41bb3daa57659e6eb-d.jpg,,
19576242,John Philoponus and the Controversies over Chalcedon in the Sixth Century. A Study and Translation of the Arbiter (Spicilegium Sacrum Lovaniense. Etudes et documents 47),,,,U.M. Lang,2002,,,,261,0,English,183,,до 2011-01,"9042910240,9789042910249",,,,,,,,342CNwaH8vsC,OL12805826M,,0,,,,,1,,0,2917546,pdf,2B5DAB7C0AA5817E75436D3E861D4D3C,,,D:\\!genesis\\library.nu\\2b\\_109013.2b5dab7c0aa5817e75436d3e861d4d3c.pdf,0,2000-01-01 01:00:00,2016-04-03 02:51:08,556000/2b5dab7c0aa5817e75436d3e861d4d3c-g.jpg,,
19576243,نگاهی به جنگل‌های ایران,,,,خسرو ثاقب طالبی، تکتم ساجدی، فرشاد یزدیان,1384,,موسسه تحقیقات جنگلها و مراتع,,30,0,Persian,,,до 2011-01,9644731964,,,,,,,,,,,0,,,,,1,,0,11728754,pdf,2BEA88F700BCA4F0F137390B0783BDA0,,,D:\\!genesis\\library.nu\\2b\\_108972.2bea88f700bca4f0f137390b0783bda0.pdf,0,2000-01-01 01:00:00,2016-04-03 02:51:08,556000/2bea88f700bca4f0f137390b0783bda0-g.jpg,,
19576244,The New Mum's Guide to Sex: Rediscover Passion After Childbirth,,,,Rachel Foux,2008,,,,288,0,English,201,,до 2011-01,"1905745133,9781905745135,9781848396388",,,,,,,,,OL12294843M,,0,,,,,1,,1,1346079,pdf,2B8E6614BCD1077D4964F2970AD75E11,,,D:\\!genesis\\library.nu\\2b\\_108128.2b8e6614bcd1077d4964f2970ad75e11.pdf,0,2000-01-01 01:00:00,2016-04-03 02:51:08,556000/2b8e6614bcd1077d4964f2970ad75e11-d.jpg,,
19576245,"Archangel (Samaria, Book 1)",,,,Sharon Shinn,1997,,,,400,0,English,,,до 2011-01,"0441004326,9780441004324",,,,,,,,,OL7524012M,,0,,,,,1,,1,1109475,pdf,2BC350D6884EAE929A559016A710BA0B,,,D:\\!genesis\\library.nu\\2b\\_108118.2bc350d6884eae929a559016a710ba0b.pdf,0,2000-01-01 01:00:00,2016-04-03 02:51:08,556000/2bc350d6884eae929a559016a710ba0b-d.jpg,,
19576246,Zoos and Animal Welfare (Issues That Concern You),,,,Peggy Daniels,2007,,,,112,0,English,23,,до 2011-01,"0737738189,9780737738186,0737748249,9780737748246",,,,,590.73,QL77.5 .Z673 2009,,,OL10604651M,,0,,,,1,0,,1,5302273,pdf,2B988148AD69B223B60038029FA4E34C,,,D:\\!genesis\\library.nu\\2b\\_107817.2b988148ad69b223b60038029fa4e34c.pdf,0,2000-01-01 01:00:00,2016-04-03 02:51:08,556000/2b988148ad69b223b60038029fa4e34c-d.jpg,,
19576247,"Mythos Markt? Die ökonomische, rechtliche und soziale Gestaltung der Arbeitswelt",,,,Deutscher Studienpreis,2006,,,,268,0,German,,,до 2011-01,"3531149911,9783531149912",,,,,,,,,,,0,,,,0,0,,1,2838666,pdf,2B32E4A452BD35B7D8E322E1CA163686,,,D:\\!genesis\\library.nu\\2b\\_107525.2b32e4a452bd35b7d8e322e1ca163686.pdf,0,2000-01-01 01:00:00,2016-04-03 02:51:08,556000/2b32e4a452bd35b7d8e322e1ca163686-d.jpg,,
19576248,Life and Death in Freud and Heidegger (Contemporary Psychoanalytic Studies 6) (Contemporary Psychoanalytic Studies),,,,Havi Carel,2006,,,,237,0,English,183,,до 2011-01,"9042016590,9789042016590,9781423791447",,,,,,,,,OL9623702M,,0,,,,,1,,1,2235292,pdf,2B8DE7902B34B38ED6B652F7859F2159,,,D:\\!genesis\\library.nu\\2b\\_107191.2b8de7902b34b38ed6b652f7859f2159.pdf,0,2000-01-01 01:00:00,2016-04-03 02:51:08,556000/2b8de7902b34b38ed6b652f7859f2159-d.jpg,,
19576249,Indian Conquistadors: Indigenous Allies in the Conquest of Mesoamerica,,,,"Laura E. Matthew, Michel R. Oudijk",2007,1,,,320,0,English,,,до 2011-01,"0806138548,9780806138541",,,,,323.1197,F1231 .I53 2007,,,OL11287077M,,0,,,,1,0,,1,2204510,pdf,2B82FA43D9CDE3745B0F8CD58F738F54,,,D:\\!genesis\\library.nu\\2b\\_106770.2b82fa43d9cde3745b0f8cd58f738f54.pdf,0,2000-01-01 01:00:00,2016-04-03 02:51:08,556000/2b82fa43d9cde3745b0f8cd58f738f54-d.jpg,,
19576250,A Mangrove Forest Food Chain: A Who-Eats-What Adventure in Asia (Follow That Food Chain),,,,"Rebecca Hogue Wojahn, Donald Wojahn",2009,,,,64,0,English,,,до 2011-01,"0822576155,9780822576150",,,,,577.69/816095,QH541.5.M27 W65 2010,,,OL22796287M,,0,,,,,1,,1,29610744,pdf,2B2DBF88DC3894D9A8E894F362C27B10,,,D:\\!genesis\\library.nu\\2b\\_106008.2b2dbf88dc3894d9a8e894f362c27b10.pdf,0,2000-01-01 01:00:00,2016-04-03 02:51:08,556000/2b2dbf88dc3894d9a8e894f362c27b10-d.jpg,,
19576251,"Liberty, Games and Contracts: Jan Narveson and the Defence of Libertarianism",,,,Malcolm Murray (ed.),2007,,,,273,0,English,,,до 2011-01,"0754656810,9780754656814,9780754686590",,,,,,,,,OL10852902M,,0,,,,1,0,,1,3090050,pdf,2BE4A2319E89987E7765F2F35263FDCD,,,D:\\!genesis\\library.nu\\2b\\_105762.2be4a2319e89987e7765f2f35263fdcd.pdf,0,2000-01-01 01:00:00,2016-04-03 02:51:08,556000/2be4a2319e89987e7765f2f35263fdcd-d.jpg,,
19576252,"Black, Brown, & Beige: Surrealist Writings from Africa and the Diaspora (The Surrealist Revolution)",,,,"Franklin Rosemont, Robin D.G. Kelley",2009,1,,,416,0,English,,,до 2011-01,"0292719973,9780292719972",,,,,809/.91163,PN6071.S915 B63 2009,,,OL23174582M,,0,,,,1,0,,1,6765826,pdf,2B5793DA6CFAD2C30F4402ADBEBF806D,,,D:\\!genesis\\library.nu\\2b\\_105730.2b5793da6cfad2c30f4402adbebf806d.pdf,0,2000-01-01 01:00:00,2016-04-03 02:51:08,556000/2b5793da6cfad2c30f4402adbebf806d-d.jpg,,
19576253,Escaping the Self-Determination Trap,,,,Marc Weller,2009,,,,230,0,English,,,до 2011-01,"9004174885,9789004174887",,,,,341.26,KZ1269 .W45 2008,,,OL23963421M,,0,,,,,1,,1,2006331,pdf,2B51C1D9D8356400CD3703612884F60A,,,D:\\!genesis\\library.nu\\2b\\_105606.2b51c1d9d8356400cd3703612884f60a.pdf,0,2000-01-01 01:00:00,2016-04-03 02:51:08,556000/2b51c1d9d8356400cd3703612884f60a-d.jpg,,
19576254,"Quantum Superposition: Counterintuitive Consequences of Coherence, Entanglement, and Interference (The Frontiers Collection)",,Frontiers Collection,,Mark P. Silverman,2008,1,,,388,0,English,269,,до 2011-01,"3540718834,9783540718833",,,,,530.12,QC174.17.S78 S55 2008,10.1007/978-3-540-71884-0,,OL18500576M,,0,,,,1,0,,1,2746480,pdf,2B6DB072CB160756B87148792F00811C,,,D:\\!genesis\\library.nu\\2b\\_105513.2b6db072cb160756b87148792f00811c.pdf,0,2000-01-01 01:00:00,2016-04-03 02:51:08,556000/2b6db072cb160756b87148792f00811c-d.jpg,,
19576255,"Practical JavaScript, DOM Scripting and Ajax Projects",,,,Frank Zammetti,2007,1,,,552,0,English,92,,до 2011-01,"1590598164,9781590598160",,,,,,,,,OL8849015M,,0,,,,1,0,,1,6504180,pdf,2BDAFB829F51006D3E5CDD896D5D2CA4,,,D:\\!genesis\\library.nu\\2b\\_105382.2bdafb829f51006d3e5cdd896d5d2ca4.pdf,0,2000-01-01 01:00:00,2016-04-03 02:51:08,556000/2bdafb829f51006d3e5cdd896d5d2ca4-d.jpg,,
19576256,The Sky at Einstein's Feet (Springer Praxis Books   Popular Astronomy),,,,William C. Keel,2005,1,Springer,,260,0,English,265,,до 2011-01,"0387261303,9780387376226,9780387261300",,,,,,,,4eQtYUV6NPIC,OL7444940M,,0,,,,1,0,,1,13665696,pdf,2B96590F825A5DF4E5EAD4DCCDA160BB,,,D:\\!genesis\\library.nu\\2b\\_105380.2b96590f825a5df4e5ead4dccda160bb.pdf,0,2000-01-01 01:00:00,2016-04-03 02:51:08,556000/2b96590f825a5df4e5ead4dccda160bb-d.jpg,,
19576257,The Best of Isaac Asimovs SF Magazine,,,,Gardner Dozois,1988,1st,,,214,0,English,181,,до 2011-01,"0441054986,9780441054985",,,,,,,,,OL7524599M,,0,,,,,1,,1,1199795,pdf,2BE349E49DC4F174D382264C38885475,,,D:\\!genesis\\library.nu\\2b\\_105178.2be349e49dc4f174d382264c38885475.pdf,0,2000-01-01 01:00:00,2016-04-03 02:51:08,556000/2be349e49dc4f174d382264c38885475-d.jpg,,
19576258,Grammatica Latina. Теоретична частина. Навчальний посібник,,,,Загайська Г.М.,2010,,Чернівецький національний університет,Чернівці,61,0,Ukrainian,,toloka.hurtom.com,0,,,,,81.2,,,,,,,0,,,,,,,0,1853351,djvu,6f89d157edb4536b30084f4275d9a20d,196810b6290cd63042f617efd431d9a8,no,Grammatica Latina. Теоретична частина. Навчальний посібник [Уклад. Г. Загайська] (2010) [Hurtom.com],0,2000-01-01 01:00:00,2016-04-03 02:51:08,885000/6f89d157edb4536b30084f4275d9a20d-g.jpg,,
19576259,Information Warfare: corporate attack and defence in a digital world (Computer Weekly Professional),,,,"Bill Hutchinson, Matt Warren",2001,,,,225,0,English,69,,до 2011-01,"0750649445,9780750649445,9780585459516",,,,,,,,,OL7972186M,,0,,,,0,0,,1,2438412,pdf,2BB4390BC0FD0043CF377B26F08DBEC6,,,D:\\!genesis\\library.nu\\2b\\_105144.2bb4390bc0fd0043cf377b26f08dbec6.pdf,0,2000-01-01 01:00:00,2016-04-03 02:51:08,556000/2bb4390bc0fd0043cf377b26f08dbec6-d.jpg,,
19576260,The Handbook of Country Risk: A Guide to International Business and Trade,,,,Jonathan Reuvid,2007,,,,493,0,English,,,до 2011-01,"1846730708,9781846730702,9781846730719",,,,,,,,,OL8964185M,,0,,,,1,0,,1,24388532,pdf,2B22DF79737FA9CD8417B5A418C2EEB0,,,D:\\!genesis\\library.nu\\2b\\_105133.2b22df79737fa9cd8417b5a418c2eeb0.pdf,0,2000-01-01 01:00:00,2016-04-03 02:51:08,556000/2b22df79737fa9cd8417b5a418c2eeb0-d.jpg,,
19576261,"The Inhuman Condition: Looking for Difference after Levinas and Heidegger (Phaenomenologica, 175)",,Phaenomenologica 175,,Rudi Visker,2004,1,,,321,0,English,195,,до 2011-01,"1402028253,9781402028274,9781402028250",,,,,,,,,,,0,,,,1,0,,1,1580531,pdf,2B12D56AE759A423C0FFEE89584B0069,,,D:/!genesis/library.nu/2b/_104775.2b12d56ae759a423c0ffee89584b0069.pdf,0,2000-01-01 01:00:00,2016-04-03 02:51:08,556000/2b12d56ae759a423c0ffee89584b0069-d.jpg,,
19576262,"Plato's Dialectic at Play: Argument, Structure, and Myth in the Symposium",,,,"Kevin Corrigan, Elena Glazov-Corrigan, Elena Corrigan",2004,illustrated edition,,,279,0,English,,,до 2011-01,"0271024623,9780271024622,9780271022710",,,,,,,,,OL9550711M,,0,,,,0,0,,1,1693568,pdf,2B537FFEAB355637D597B236C0B82663,,,D:\\!genesis\\library.nu\\2b\\_104102.2b537ffeab355637d597b236c0b82663.pdf,0,2000-01-01 01:00:00,2016-04-03 02:51:08,556000/2b537ffeab355637d597b236c0b82663-d.jpg,,
19576263,Relational Databases and Knowledge Bases,,,,"Georges Gardarin, Patrick Valduriez",1989,,,,237,0,English,116,,до 2011-01,"0201099551,9780201099553",,,,,005.75/6,QA76.9.D3 G375 1989,,,OL2030765M,,0,,,,0,1,,1,20971738,pdf,2B4A0A5A8DC706554D426B6B64CA2698,,,D:\\!genesis\\library.nu\\2b\\_104019.2b4a0a5a8dc706554d426b6b64ca2698.pdf,0,2000-01-01 01:00:00,2016-04-03 02:51:08,556000/2b4a0a5a8dc706554d426b6b64ca2698-g.jpg,,
19576264,Strategic Arena Switching in International Trade Negotiations,,,,"Wolfgang Blaas, Joachim Becker",2007,,,,287,0,English,,,до 2011-01,"0754649164,9780754649168,9780754683759",,,,,,,,,OL10852712M,,0,,,,,1,,1,1236462,pdf,2BB30EFCFF0E4B3111D7DD43E9042BF0,,,D:\\!genesis\\library.nu\\2b\\_103353.2bb30efcff0e4b3111d7dd43e9042bf0.pdf,0,2000-01-01 01:00:00,2016-04-03 02:51:08,556000/2bb30efcff0e4b3111d7dd43e9042bf0-d.jpg,,
19576265,"Titian and Venetian Painting, 1450-1590",,,,Bruce Cole,2000,,,,291,0,English,64,,до 2011-01,"0813390435,9780813390437,9781429486675",,,,,759.5/31,,,,OL18718391M,,0,,,,0,1,,1,55272772,pdf,2BFC8757AB076F4D1C92F0F96B0B4A48,,,D:\\!genesis\\library.nu\\2b\\_102749.2bfc8757ab076f4d1c92f0f96b0b4a48.pdf,0,2000-01-01 01:00:00,2016-04-03 02:51:08,556000/2bfc8757ab076f4d1c92f0f96b0b4a48-d.jpg,,
19576266,The Simple Solution to Rubik's Cube,,,,James G. Nourse,1981,,,,68,0,English,,,до 2011-01,"0553140175,9780553140170",,,,,793.74,GV1493 .N68 1981,,,OL21522210M,,600,,,,0,1,,1,1223618,djvu,2B30C0353BDAF86F79300F03FA20FAA3,,,D:\\!genesis\\library.nu\\2b\\_102739.2b30c0353bdaf86f79300f03fa20faa3.djvu,0,2000-01-01 01:00:00,2016-04-03 02:51:08,556000/2b30c0353bdaf86f79300f03fa20faa3-d.jpg,,
19576267,"101 Problems in Algebra From the Training of the USA IMO Team (Enrichment Series, Volume 18)",,,,"Andreescu T., Feng Z.",2001,1st,,,149,0,English,114,,до 2011-01,"9781876420123,187642012X",,,,,,,,,OL12107355M,,600,,,,0,1,,0,712152,djvu,2B55596A457672074608D609981CB82D,045d41a99a7f84a50d3dc722b03761a3,no,D:\\!genesis\\library.nu\\2b\\_102672.2b55596a457672074608d609981cb82d.djvu,0,2000-01-01 01:00:00,2016-04-03 02:51:08,556000/2b55596a457672074608d609981cb82d-d.jpg,,
19576268,Sichtbeton Atlas,,,,Joachim Schulz,2008,,,,332,0,German,,,до 2011-01,"9783834802613,3834802611",,,,,,,,,,,0,,,,,1,,1,65719485,pdf,2B08608C51D1789627381A3B3A05F911,,,D:\\!genesis\\library.nu\\2b\\_102618.2b08608c51d1789627381a3b3a05f911.pdf,0,2000-01-01 01:00:00,2016-04-03 02:51:08,556000/2b08608c51d1789627381a3b3a05f911-d.jpg,,
19576269,The Data Access Handbook: Achieving Optimal Database Application Performance and Scalability,,,,"John Goodson, Robert A. Steward",2009,1,,,357,0,English,137,,до 2011-01,"0137143931,9780137143931",,,,,005.3,QA76.9.D26 G665 2009,,,OL22853327M,,0,,,,1,0,,1,4129991,pdf,2B86AB43E30369E188FA077051C786A5,,,D:\\!genesis\\library.nu\\2b\\_102259.2b86ab43e30369e188fa077051c786a5.pdf,0,2000-01-01 01:00:00,2016-04-03 02:51:08,556000/2b86ab43e30369e188fa077051c786a5-d.jpg,,
19576270,The Six Initiations: A Do-it-yourself Psycho Spiritual Course with C.D.,,,,"David Brown, Selby Vanda",,,,,92,0,English,,,до 2011-01,"095585900X,9780955859007,9781435632769",,,,,,,,,,,0,,,,0,0,,1,546291,pdf,2B8EFFFADF37014C4EE3B8B4996CA971,,,D:\\!genesis\\library.nu\\2b\\_102126.2b8efffadf37014c4ee3b8b4996ca971.pdf,0,2000-01-01 01:00:00,2016-04-03 02:51:08,556000/2b8efffadf37014c4ee3b8b4996ca971-g.jpg,,
19576271,Concepts of Social Stratification: European and American Models,,,,Andreas Hess,2001,,,,197,0,English,189,,до 2011-01,"033391810X,9780333918104",,,,,,,,,OL10558183M,,0,,,,1,0,,1,654260,pdf,2B45A4B199D812D710F8EBA326E96B4B,,,D:\\!genesis\\library.nu\\2b\\_101989.2b45a4b199d812d710f8eba326e96b4b.pdf,0,2000-01-01 01:00:00,2016-04-03 02:51:08,556000/2b45a4b199d812d710f8eba326e96b4b-d.jpg,,
19576272,Tyranny of the Minority: The Subconstituency Politics Theory of Representation,,,,Benjamin Bishin,2009,,,,216,0,English,192,,до 2011-01,"1592136583,9781592136582",,,,,320.973,JK1764 .B52 2009,,,OL16991787M,,0,,,,1,0,,1,1033432,pdf,2BD3ADF6B04E9CDCE87D03DDD8C16D1A,,,D:\\!genesis\\library.nu\\2b\\_101951.2bd3adf6b04e9cdce87d03ddd8c16d1a.pdf,0,2000-01-01 01:00:00,2016-04-03 02:51:08,556000/2bd3adf6b04e9cdce87d03ddd8c16d1a-d.jpg,,
19576273,Kundenwert aus Sicht von Versicherungsunternehmen,,"Schriftenreihe \Versicherung und Risikoforschung\"" des Instituts für Betriebswirtschaftliche Risikoforschung und Versicherungswirtschaft der Ludwig-Maximilians-Universität", München," Bd. 50""",,Silke Friederichs-Schmidt,2006,,Deutscher Universitäts-Verlag,Wiesbaden,279,0,German,,usenet,to 2012-06,"9783835092020,3835092022",,,,,,,,,,,0,,,,,,,1,13091013,pdf,30d0fcfcb2a381b276d40d21bef67822,,,I:\\usenet_ger\\Kundenwert.aus.Sicht.von.Versicherungsunternehmen.[Springer].[2006].[t4803u].pdf,0,2000-01-01 01:00:00,2016-04-03 02:51:08,883000/30d0fcfcb2a381b276d40d21bef67822-g.jpg
19576274,Spinoza: A Guide for the Perplexed (Guides for the Perplexed),,,,Charles E. Jarrett,2007,,,,239,0,English,,,до 2011-01,"0826485952,9780826485953,9780826485960,0826485960",,,,,,,,,,,0,,,,1,0,,1,1058268,pdf,2B472206ECD33492672C55FF510AF858,3B62B34219386D82A2BE7E21651B1210,no,D:/!genesis/library.nu/2b/_101914.2b472206ecd33492672c55ff510af858.pdf,0,2000-01-01 01:00:00,2016-04-03 02:51:08,556000/2b472206ecd33492672c55ff510af858-d.jpg,,
19576275,Self-Consciousness,,,,Sebastian Rödl,2007,1,Harvard University Press,,212,0,English,,,до 2011-01,"067402494X,9780674024946",,,,,,,,,,,400,,,,0,1,,1,2271713,djvu,2B26B7E1E6C13A495D8B403D8B535591,,,D:/!genesis/library.nu/2b/_101721.2b26b7e1e6c13a495d8b403d8b535591.djvu,0,2000-01-01 01:00:00,2016-04-03 02:51:08,556000/2b26b7e1e6c13a495d8b403d8b535591-d.jpg,,
19576276,The Britannica Guide to the Islamic World (Britannica Guides),,,,Britannica,,,,,462,0,English,188,,до 2011-01,"1845298195,9781845298197",,,,,,,,,,,0,,,,1,0,,1,65539205,pdf,2BB50B20327364ED532A74C4587816F1,,,D:\\!genesis\\library.nu\\2b\\_100832.2bb50b20327364ed532a74c4587816f1.pdf,0,2000-01-01 01:00:00,2016-04-03 02:51:08,556000/2bb50b20327364ed532a74c4587816f1-g.jpg,,
19576277,"Bankruptcy and Insolvency Accounting, Volume 2, Seventh Edition",,,,Grant W. Newton,2009,7,,,1128,0,English,2,,до 2011-01,"0471787620,9780471787624",,,,,,,,,OL10336112M,,0,,,,,1,,1,5218014,pdf,2BD11006A4E953731544DD3DE27458F7,,,D:\\!genesis\\library.nu\\2b\\_100624.2bd11006a4e953731544dd3de27458f7.pdf,0,2000-01-01 01:00:00,2016-04-03 02:51:08,556000/2bd11006a4e953731544dd3de27458f7-d.jpg,,
19576278,"Sources for the Study of Greek Religion, Corrected Edition (Sources for Biblical Study #14)",,,,"John E. Stambaugh, David G. Rice",2000,,,,231,0,English,183,,до 2011-01,"0891303472,9780891303473,0891303464,9780891303466",,"B002BHDU2A,B0029I8NMI,B000I32B2O,B001Z75SEA",,,292/.08,BL782 .S7,,,OL4414573M,,0,,,,0,0,,1,3714952,pdf,2BA1B1A7C5D93C4E35C1BED65CB8A006,,,D:\\!genesis\\library.nu\\2b\\_100482.2ba1b1a7c5d93c4e35c1bed65cb8a006.pdf,0,2000-01-01 01:00:00,2016-04-03 02:51:08,556000/2ba1b1a7c5d93c4e35c1bed65cb8a006-d.jpg,,
19576279,Elliptic Boundary Problems for Dirac Operators (Mathematics: Theory & Applications),,,,"Bernhelm Booß-Bavnbek, Krzysztof P. Wojciechhowski",1993,1,,,327,0,English,113,,до 2011-01,"0817636811,9780817636814",,,,,515/.353,QA377 .B686 1993,,,OL1412978M,,0,,,,1,1,,1,7432885,pdf,2B1DD580EBE0CC7205709C2228D4F678,,,D:\\!genesis\\library.nu\\2b\\_100035.2b1dd580ebe0cc7205709c2228d4f678.pdf,0,2000-01-01 01:00:00,2016-04-03 02:51:08,556000/2b1dd580ebe0cc7205709c2228d4f678-d.jpg,,
19576280,"Flag Varieties: An Interplay of Geometry, Combinatorics, and Representation Theory (Texts and Readings in Mathematics)",,,,"V. Lakshmibai, Justin Brown",2009,,,,286,0,English,121,,до 2011-01,"8185931925,9788185931920",,,,,,,,,,,0,,,,0,1,,0,8976435,pdf,2A5316BAF19DB0256490AE607F77CC00,,,D:\\!genesis\\library.nu\\2a\\_99961.2a5316baf19db0256490ae607f77cc00.pdf,0,2000-01-01 01:00:00,2016-04-03 02:51:08,556000/2a5316baf19db0256490ae607f77cc00-g.jpg,,
19576281,"Analytic Function Theory, Volume I - 2nd Edition (AMS Chelsea Publishing)",,,,Einar Hille,1959,2nd,,,321,0,English,113,,до 2011-01,"9780828402699,0828402698",,,,,515,QA331 .H54 1973,,,OL5410196M,,600,,,,0,1,,1,6213545,djvu,2A5EC750E361059629CE9468EE665A7E,,,D:\\!genesis\\library.nu\\2a\\_99757.2a5ec750e361059629ce9468ee665a7e.djvu,0,2000-01-01 01:00:00,2016-04-03 02:51:08,556000/2a5ec750e361059629ce9468ee665a7e-d.jpg,,
19576282,Countdown to French : Learn to Communicate in 24 Hours,,,,Gail  Stein,2003,1,,,288,0,English,183,,до 2011-01,"0071428631,0071414223,9780071428637,9780071414227",,,,,448.2/421,PC2129.E5 S7626 2004,10.1036/0071428631,,OL24296081M,,0,,,,,1,,1,2759679,pdf,2AD9D7C1A37360E4F2675B876C52CC4F,,,D:\\!genesis\\library.nu\\2a\\_99178.2ad9d7c1a37360e4f2675b876c52cc4f.pdf,0,2000-01-01 01:00:00,2016-04-03 02:51:08,556000/2ad9d7c1a37360e4f2675b876c52cc4f-d.jpg,,
19576283,DB2 Information Integrator And Websphere Portal Server: A Synergistic Solution (IBM Redbooks),,,,IBM Redbooks,2004,,,,356,0,English,101,,до 2011-01,"0738498432,9780738498430",,,,,,,,,OL7899852M,,0,,,,,1,,,22207711,chm,2A156B4EEE463B794B677F8FD44D2C1C,,,D:\\!genesis\\library.nu\\2a\\_9903.2a156b4eee463b794b677f8fd44d2c1c.chm,0,2000-01-01 01:00:00,2016-04-03 02:51:08,556000/2A156B4EEE463B794B677F8FD44D2C1C-g.jpg,,
19576284,"Gaspésie : Bas-Saint-Laurent, Iles de la Madeleine",,,,"Thierry Ducharme, Aurélie Hubert, Pierre Daveluy, France Charest, Collectif",,,,,220,0,French,,,до 2011-01,"2894648251,9782894648254",,,,,,,,,,,0,,,,,1,,1,8070708,pdf,2A6D2DE7FB34A460D456F59D775E5280,,,D:\\!genesis\\library.nu\\2a\\_98064.2a6d2de7fb34a460d456f59d775e5280.pdf,0,2000-01-01 01:00:00,2016-04-03 02:51:08,556000/2a6d2de7fb34a460d456f59d775e5280-g.jpg,,
19576285,Less Than Zero: The Case for a Falling Price Level in a Growing Economy (Hobart Papers),,,,George Selgin,1997,,,,86,0,English,,,до 2011-01,"0255364024,9780255364027",,,,,,,,,OL10229277M,,0,,,,0,0,,1,1578839,pdf,2AB1A96AE1D8B9BCF2F5D661D13845B1,,,D:\\!genesis\\library.nu\\2a\\_97786.2ab1a96ae1d8b9bcf2f5d661d13845b1.pdf,0,2000-01-01 01:00:00,2016-04-03 02:51:08,556000/2ab1a96ae1d8b9bcf2f5d661d13845b1-d.jpg,,
19576286,The Man Who Collected Psychos: Critical Essays on Robert Bloch,,,,Benjamin Szumskyj,2009,,,,262,0,English,196,,до 2011-01,"0786442085,9780786442089",,,,,813/.54,PS3503.L718 Z77 2009,,,OL23230265M,,0,,,,,1,,1,1113837,pdf,2AA4856015F5DDE5FF38FB760A1A96BE,,,D:\\!genesis\\library.nu\\2a\\_95956.2aa4856015f5dde5ff38fb760a1a96be.pdf,0,2000-01-01 01:00:00,2016-04-03 02:51:08,556000/2aa4856015f5dde5ff38fb760a1a96be-d.jpg,,
19576287,Thomas Dixon Jr. And the Birth of Modern America (Making the Modern South),,,,"Michele K. Gillespie, Randal L. Hall",2006,,,,224,0,English,,,до 2011-01,"080713130X,9780807131305,0807135321,9780807135327",,,,,,,,,OL7945904M,,0,,,,1,0,,1,1545330,pdf,2A51344503C2FAD050C2D51C693799CC,,,D:\\!genesis\\library.nu\\2a\\_95010.2a51344503c2fad050c2d51c693799cc.pdf,0,2000-01-01 01:00:00,2016-04-03 02:51:08,556000/2a51344503c2fad050c2d51c693799cc-d.jpg,,
19576288,Situating Social Theory,,,,"Tim May, Jason Powell",2008,2,Open University Press,,352,0,English,189,,до 2011-01,0335210775,,,,,,,,SobZAAAAMAAJ,,,0,,,,1,0,,1,2413503,pdf,2A1664A4F9143F0ED7E44C7075F00592,,,D:\\!genesis\\library.nu\\2a\\_9355.2a1664a4f9143f0ed7e44c7075f00592.pdf,0,2000-01-01 01:00:00,2016-04-03 02:51:08,556000/2a1664a4f9143f0ed7e44c7075f00592-d.jpg,,
19576289,Introduction to the Mathematical and Statistical Foundations of Econometrics (Themes in Modern Econometrics),,,,Herman J. Bierens,2004,,,,345,0,English,137,,до 2011-01,"0521542243,9780521834315,9780521542241,9780511080418,0521834317",,,,,,,,,OL7745559M,,0,,,,0,0,,1,1660004,pdf,2AD062E829B51EFFF37F85C2F96ECAA2,,,D:\\!genesis\\library.nu\\2a\\_93214.2ad062e829b51efff37f85c2f96ecaa2.pdf,0,2000-01-01 01:00:00,2016-04-03 02:51:08,556000/2ad062e829b51efff37f85c2f96ecaa2-d.jpg,,
19576290,"Science, Social Theory and Public Knowledge",,,,"Alan Irwin, Mike Michael",2003,1,,,192,0,English,189,,до 2011-01,"0335209475,9780335209477,9780335225897",,,,,,,,,OL22549336M,,0,,,,,1,,1,883298,pdf,2ABBA61C9BE64707DDE8E013596CFEDA,,,D:\\!genesis\\library.nu\\2a\\_9287.2abba61c9be64707dde8e013596cfeda.pdf,0,2000-01-01 01:00:00,2016-04-03 02:51:08,556000/2abba61c9be64707dde8e013596cfeda-d.jpg,,
19576291,"Entrepreneurship, Geography, and American Economic Growth",,,,"Zoltan J. Acs, Catherine Armington",2006,,,,262,0,English,305,,до 2011-01,"9780511226144,9780521843225,0521843227",,,,,338/.040973,HB615 .A32 2006,,,OL3409515M,,0,,,,,1,,1,1796224,pdf,2A142C22E837F86794E4F5D9535B8C8C,,,D:\\!genesis\\library.nu\\2a\\_8190.2a142c22e837f86794e4f5d9535b8c8c.pdf,0,2000-01-01 01:00:00,2016-04-03 02:51:08,556000/2a142c22e837f86794e4f5d9535b8c8c-d.jpg,,
19576292,Jose Marti: An Introduction (New Directions in Latino American Culture),,,,Oscar Montero,2004,1st,,,160,0,English,,,до 2011-01,"1403962863,9781403973634,9781403962867",,,,,972.91/05/092,F1783.M38 M645 2003,,,OL17130859M,,0,,,,1,0,,1,767845,pdf,2A73A3F3EF8F2764D171550E9A001160,,,D:\\!genesis\\library.nu\\2a\\_79948.2a73a3f3ef8f2764d171550e9a001160.pdf,0,2000-01-01 01:00:00,2016-04-03 02:51:08,556000/2a73a3f3ef8f2764d171550e9a001160-d.jpg,,
19576293,Learning Toward an Ecological Consciousness: Selected Transformative Practices,,,,"Edmund O'Sullivan, Marilyn M. Taylor",2004,,,,272,0,English,183,,до 2011-01,"9781403963048,9781403982384,1403963045,1403963053,9781403963055",,,,,,,,,OL8400213M,,0,,,,1,0,,1,1270306,pdf,2A2D483E5098517E258D990C36C441DA,,,D:\\!genesis\\library.nu\\2a\\_79926.2a2d483e5098517e258d990c36c441da.pdf,0,2000-01-01 01:00:00,2016-04-03 02:51:08,556000/2a2d483e5098517e258d990c36c441da-d.jpg,,
19576294,Developing Ecofeminist Theory: The Complexity of Difference,,,,Erika Cudworth,2005,,,,232,0,English,137,,до 2011-01,"1403941157,9781403941152,9780230509276",,,,,305.42/01,HQ1194 .C83 2005,,,OL22636015M,,0,,,,1,0,,1,768403,pdf,2A1117FC28711F5B4A4961E8731393F5,,,D:\\!genesis\\library.nu\\2a\\_79479.2a1117fc28711f5b4a4961e8731393f5.pdf,0,2000-01-01 01:00:00,2016-04-03 02:51:08,556000/2a1117fc28711f5b4a4961e8731393f5-d.jpg,,
19576295,The Future of Development Financing: Challenges and Strategic Choices,,,,"Francisco Sagasti, Keith Bezanson, Fernando Prada",2005,,,,288,0,English,305,,до 2011-01,"1403949514,9781403949516,9780230505193",,,,,,,,,OL22628648M,,0,,,,1,0,,1,1739389,pdf,2A565BAEC0471EDD28A8CB89277C35CD,,,D:\\!genesis\\library.nu\\2a\\_79231.2a565baec0471edd28a8cb89277c35cd.pdf,0,2000-01-01 01:00:00,2016-04-03 02:51:08,556000/2a565baec0471edd28a8cb89277c35cd-d.jpg,,
19576296,"Politics and the Irish Working Class, 1830-1945",,,,"Fintan Lane, Donal O. Drisceoil",2005,,,,256,0,English,64,,до 2011-01,"1403939179,9781403939173,9780230503779",,,,,324/.086/2309415,HD8400.3 .P65 2005,,,OL22710960M,,0,,,,1,0,,1,1037112,pdf,2A63A26F2636AF434164E3EA57479420,,,D:\\!genesis\\library.nu\\2a\\_79222.2a63a26f2636af434164e3ea57479420.pdf,0,2000-01-01 01:00:00,2016-04-03 02:51:08,556000/2a63a26f2636af434164e3ea57479420-d.jpg,,
19576297,Fredric Jameson: A Critical Reader,,,,"Douglas Kellner, Sean Homer",2004,,,,256,0,English,196,,до 2011-01,"0333982088,9780333982082,9780230523524",,,,,801/.95/092,PN75.J36 F74 2004,,,OL3691312M,,0,,,,1,0,,1,1709376,pdf,2A4D4BA7FD604F73EC3B994A300628AF,,,D:\\!genesis\\library.nu\\2a\\_79064.2a4d4ba7fd604f73ec3b994a300628af.pdf,0,2000-01-01 01:00:00,2016-04-03 02:51:08,556000/2a4d4ba7fd604f73ec3b994a300628af-d.jpg,,
19576298,Phoenix at Coventry; the building of a cathedral,,,,"Basil Spence, Sir",1962,,[London] G. Bles,,20,0,English,,usenet,to 2012-06,,,,,,,,,,,,0,,,,,,,1,2904812,pdf,ab111613ea9a13d3199d5bb490f3afaf,,,I:\\usenet_ger\\Basil Kathedrale .pdf,0,2000-01-01 01:00:00,2016-04-03 02:51:08,882000/ab111613ea9a13d3199d5bb490f3afaf-g.jpg,,
19576299,Internet Discourse and Health Debates: A Linguistic Approach to Health Risk Debates,,,,Kay Richardson,2005,1,,,256,0,English,100,,до 2011-01,"1403914834,9781403914835,9780230512979",,,,,,,,,OL18224479M,,0,,,,1,0,,1,949020,pdf,2A8749F45454933AA7194FBD62507408,,,D:\\!genesis\\library.nu\\2a\\_79023.2a8749f45454933aa7194fbd62507408.pdf,0,2000-01-01 01:00:00,2016-04-03 02:51:08,556000/2a8749f45454933aa7194fbd62507408-d.jpg,,
19576300,Michael Young: Social Entrepreneur,,,,Asa Briggs,2001,,,,431,0,English,189,,до 2011-01,"0333750233,9780333750230,9780230508521",,,,,,,,,OL10556322M,,0,,,,1,0,,1,2535500,pdf,2AC8D0C7C4BED26A4F3B21050B952189,,,D:\\!genesis\\library.nu\\2a\\_77819.2ac8d0c7c4bed26a4f3b21050b952189.pdf,0,2000-01-01 01:00:00,2016-04-03 02:51:08,556000/2ac8d0c7c4bed26a4f3b21050b952189-d.jpg,,
19576301,Cyber Spaces Social Spaces: Culture Clash in Computerized Classrooms,,,,"Ivor F. Goodson, Michele Knobel, Colin Lankshear, J. Marshall Mangan",2002,1,,,184,0,English,69,,до 2011-01,"031221894X,9780312218942,9780230602151",,,,,,,,,OL15532476M,,0,,,,1,0,,1,3744971,pdf,2A6E9667513E747491F26BEBE95B3F03,,,D:\\!genesis\\library.nu\\2a\\_77319.2a6e9667513e747491f26bebe95b3f03.pdf,0,2000-01-01 01:00:00,2016-04-03 02:51:08,556000/2a6e9667513e747491f26bebe95b3f03-d.jpg,,
19576302,"The Women's Movement in Wartime: International Perspectives, 1914-19",,,,"Alison S. Fell, Ingrid Sharp",2007,First Edition,,,272,0,English,,,до 2011-01,"0230019668,9780230019669,9780230210790",,,,,,,,,OL10194208M,,0,,,,1,0,,1,1825057,pdf,2AAA2DC0E6E1C3EA2830E5EB0A32DA3F,,,D:\\!genesis\\library.nu\\2a\\_76968.2aaa2dc0e6e1c3ea2830e5eb0a32da3f.pdf,0,2000-01-01 01:00:00,2016-04-03 02:51:08,556000/2aaa2dc0e6e1c3ea2830e5eb0a32da3f-d.jpg,,
19576303,Thought Leadership: Moving Hearts and Minds,,,,Robin Ryde,2007,First Edition,,,128,0,English,,,до 2011-01,"0230525512,9780230525511,9780230206618",,,,,,,,,OL10194492M,,0,,,,1,0,,1,725608,pdf,2AE6FBA741E746461A1D2EEB9C1DB298,,,D:\\!genesis\\library.nu\\2a\\_76954.2ae6fba741e746461a1d2eeb9c1db298.pdf,0,2000-01-01 01:00:00,2016-04-03 02:51:08,556000/2ae6fba741e746461a1d2eeb9c1db298-d.jpg,,
19576304,"The Banking Sector In Hong Kong: Competition, Efficiency, Performance and Risk (Palgrave MacMillan Studies in Banking and Financial Institutions)",,,,"Hans Genberg, Cho-Hoi Hui",2008,1,,,256,0,English,305,,до 2011-01,"0230202667,9780230202665",,,,,332.1095125,HG3352 .B36 2008,,,OL16775977M,,0,,,,1,0,,1,1264491,pdf,2A4B3A735A8140B43EF96EA5F124A4DF,,,D:\\!genesis\\library.nu\\2a\\_76874.2a4b3a735a8140b43ef96ea5f124a4df.pdf,0,2000-01-01 01:00:00,2016-04-03 02:51:08,556000/2a4b3a735a8140b43ef96ea5f124a4df-d.jpg,,
19576305,Grammatical Relations in Change (Studies in Language Companion Series),,,,Jan Terje Faarlund,2001,,,,326,0,English,314,,до 2011-01,"9781588110343,1588110346,9027298041,9789027298041,9027230587,9789027230584",,,,,415,P201 .G6785 2001,,,OL3943693M,,0,,,,,1,,1,2394989,pdf,2A1DDBC7708D6FDE2FA978A94DE546F2,,,D:\\!genesis\\library.nu\\2a\\_76445.2a1ddbc7708d6fde2fa978a94de546f2.pdf,0,2000-01-01 01:00:00,2016-04-03 02:51:08,556000/2a1ddbc7708d6fde2fa978a94de546f2-g.jpg,,
19576306,Aesthetic Creation,,,,Nick Zangwill,2007,First Edition,,,192,0,English,,,до 2011-01,"0199261873,9781435622623,9780199261871",,,,,,,,,OL10146280M,,0,,,,,1,,1,1114678,pdf,2A8C9D57018E1F6CD03647A4ECFC5E53,,,D:\\!genesis\\library.nu\\2a\\_7637.2a8c9d57018e1f6cd03647a4ecfc5e53.pdf,0,2000-01-01 01:00:00,2016-04-03 02:51:08,556000/2a8c9d57018e1f6cd03647a4ecfc5e53-d.jpg,,
19576307,Embattled Home Fronts: Domestic Politics and the American Novel of World War I.,,,,Piep Karsten H.,2009,,,,324,0,English,67,,до 2011-01,"9042025204,9789042025202,9781441603586",,,,,,,,,,,0,,,,,1,,1,2742027,pdf,2AF66C2EBAFF998C169CABC821C657D3,,,D:\\!genesis\\library.nu\\2a\\_76008.2af66c2ebaff998c169cabc821c657d3.pdf,0,2000-01-01 01:00:00,2016-04-03 02:51:08,556000/2af66c2ebaff998c169cabc821c657d3-d.jpg,,
19576308,The 2009-2014 World Outlook for Very High-Field MRI Systems,,,,"Icon Group International, Inc. Staff (Compiler)",,,,,197,0,English,64,,до 2011-01,"0497840006,9780497840006,1435688848,9781435688841",,,,,,,,,,,0,,,,,1,,1,853419,pdf,2AAB8D409B0A822C56A9A439A7DCA6F0,,,D:\\!genesis\\library.nu\\2a\\_75955.2aab8d409b0a822c56a9a439a7dca6f0.pdf,0,2000-01-01 01:00:00,2016-04-03 02:51:08,556000/2aab8d409b0a822c56a9a439a7dca6f0-g.jpg,,
19576309,Mapping Meanings: The Field of New Learning in Late Qing China (Sinica Leidensia),,,,"Natascha Vittinghoff, International Conference Translating We",2004,,,,741,0,English,183,,до 2011-01,"9004139192,9789004139190,9781429408172",,,,,,,,,OL12798907M,,0,,,,,1,,1,3645277,pdf,2A5B04BC3901E3C85A55C21BBE823A4B,,,D:\\!genesis\\library.nu\\2a\\_75887.2a5b04bc3901e3c85a55c21bbe823a4b.pdf,0,2000-01-01 01:00:00,2016-04-03 02:51:08,556000/2a5b04bc3901e3c85a55c21bbe823a4b-d.jpg,,
19576310,Scottish Literature (Edinburgh Critical Guides to Literature),,,,Gerard Carruthers,2009,,,,256,0,English,108,,до 2011-01,"074863309X,9780748633098,0748633081,9780748633081,9780748633104",,,,,,,,,OL23915772M,,0,,,,,1,,1,1239768,pdf,2AF776890EA114F3627064D5C71D151E,,,D:\\!genesis\\library.nu\\2a\\_75683.2af776890ea114f3627064d5c71d151e.pdf,0,2000-01-01 01:00:00,2016-04-03 02:51:08,556000/2af776890ea114f3627064d5c71d151e-d.jpg,,
19576311,The Imperial Sublime: A Russian Poetics of Empire (Wisconsin Center for Pushkin Studies),,,,Harsha Ram,2006,1,,,320,0,English,183,,до 2011-01,"0299181944,9780299181949,0299181901,9780299181901,9780299181932",,,,,891.709/384,PG2987.S78 R36 2003,,,OL10317134M,,0,,,,,1,,1,1150017,pdf,2ADCA73D8B42851F183B9C216C324760,,,D:\\!genesis\\library.nu\\2a\\_75638.2adca73d8b42851f183b9c216c324760.pdf,0,2000-01-01 01:00:00,2016-04-03 02:51:08,556000/2adca73d8b42851f183b9c216c324760-d.jpg,,
19576312,Neuronal Processing of Optic Flow,,International Review of Neurobiology 44,,Markus Lappe (Eds.),1999,1,"Elsevier, Academic Press",,"ii-xvii, 3-321",0,English,18,,до 2011-01,"9780080857787,9780123668448,0123668441",0074-7742,,,,,,,,OL22368654M,,0,,,,,1,,1,17317846,pdf,2AD9CEE365C704C78316F426F9220574,,,D:\\!genesis\\library.nu\\2a\\_75558.2ad9cee365c704c78316f426f9220574.pdf,0,2000-01-01 01:00:00,2016-04-03 02:51:08,556000/2ad9cee365c704c78316f426f9220574-d.jpg,,
19576313,Optimality and Stability in Mathematical Programming (Mathematical programming study),,,,M. Guignard,1982,,,,250,0,English,183,,до 2011-01,"0444864415,9780444864413",,,,,519.7,QA402.5 .O63 1982,,,OL3488247M,,0,,,,,1,,1,9741483,pdf,2A75B08F8FD84BA318225D8E46A03F98,,,D:\\!genesis\\library.nu\\2a\\_75467.2a75b08f8fd84ba318225d8e46a03f98.pdf,0,2000-01-01 01:00:00,2016-04-03 02:51:08,556000/2a75b08f8fd84ba318225d8e46a03f98-g.jpg,,
19576314,Linear Robust Control (Prentice Hall Information and System Sciences),,Prentice Hall Information and System Sciences,,Michael Green David J. N. Limebeer,1994,,Prentice Hall,,538,0,English,,,до 2011-01,"9780131022782,0131022784",,,,,621.319/2,TK454 .B368 1995,,,OL1080025M,,0,,,,,0,,1,9774025,pdf,2A5728BAC9537E8E999E18172D653824,,,D:\\!genesis\\library.nu\\2a\\_75413.2a5728bac9537e8e999e18172d653824.pdf,0,2000-01-01 01:00:00,2016-04-03 02:51:08,556000/2a5728bac9537e8e999e18172d653824-g.jpg,,
19576315,"Spinal Implants: Are We Evaluating Them Appropriately? (ASTM Special Technical Publication, 1431)",,,,"Mark N. Melkerson, Steven L. Griffith, and John S. Kirkpatrick, editors",2003,illustrated edition,ASTM International,,238,0,English,29,,до 2011-01,"0803134630,9780803134638",,,,,617.5/6059,RD768 .S847 2003,,C9HWdag0kIsC,OL11211597M,,0,,,,0,0,,1,4949404,pdf,2A098BDACDD5D428E29F46111A2FB686,,,D:\\!genesis\\library.nu\\2a\\_7516.2a098bdacdd5d428e29f46111a2fb686.pdf,0,2000-01-01 01:00:00,2016-04-03 02:51:08,556000/2a098bdacdd5d428e29f46111a2fb686-d.jpg,,
19576316,Variational Principles of Continuum Mechanics: II. Applications (Interaction of Mechanics and Mathematics),,Interaction of Mechanics and Mathematics,,Victor Berdichevsky,2009,1,Springer,,439,0,English,113,,до 2011-01,"3540884688,9783540884682",,,,,,,10.1007/978-3-540-88469-9,m5ZrOK8FLIIC,,,0,,,,,0,,1,3365351,pdf,2AA93B40AD8E70D0EDBF22CDA5DDAF0E,,,D:\\!genesis\\library.nu\\2a\\_74742.2aa93b40ad8e70d0edbf22cda5ddaf0e.pdf,0,2000-01-01 01:00:00,2016-04-03 02:51:08,556000/2aa93b40ad8e70d0edbf22cda5ddaf0e-d.jpg,,
19576317,"Technoliteracy, Discourse and Social Practice: Frameworks and Applications in the Digital Age (Premier Reference Source)",,,,"Darren Lee Pullen, Christina Gitsaki, Margaret Baguley",2009,1,,,290,0,English,137,,до 2011-01,"1605668427,9781605668420",,,,,303.48/34,T65.3 .T44 2009,,,OL23223553M,,0,,,,,0,,1,5200820,pdf,2A1E14F016902F78BE791787F72D8765,,,D:\\!genesis\\library.nu\\2a\\_74493.2a1e14f016902f78be791787f72d8765.pdf,0,2000-01-01 01:00:00,2016-04-03 02:51:08,556000/2a1e14f016902f78be791787f72d8765-d.jpg,,
19576318,3ds max 7 New Features and Production Workflow,,,,Discreet,2005,Pap/DVD,,,352,0,English,97,,до 2011-01,"0240807758,9780240807751,9780080470672",,,,,006.686,TR897.7 .A15 2005,,,OL10200975M,,0,,,,,0,,1,11665469,pdf,2A952FEA84B7F11CC5F928316BBC9AC3,,,D:\\!genesis\\library.nu\\2a\\_74214.2a952fea84b7f11cc5f928316bbc9ac3.pdf,0,2000-01-01 01:00:00,2016-04-03 02:51:08,556000/2a952fea84b7f11cc5f928316bbc9ac3-d.jpg,,
19576319,The Last Surgeon,,,,Michael Palmer,2010,1st,,,384,0,English,,,до 2011-01,"031258749X,9780312587499",,,,,813/.54,PS3566.A539 L37 2010,,,OL23833184M,,0,,,,,1,,,312047,lit,2ADE227357E0534201052E1BE2F848B3,,,D:\\!genesis\\library.nu\\2a\\_73683.2ade227357e0534201052e1be2f848b3.lit,0,2000-01-01 01:00:00,2016-04-03 02:51:08,556000/2ade227357e0534201052e1be2f848b3-d.jpg,,
19576320,Fundamental Legal Conceptions as Applied in Judicial Reasoning; And Other Legal Essays,,,,Wesley Newcomb Hohfeld,1923,,,,420,0,English,137,,до 2011-01,,,B000857VHM,,,,,,,,,0,,,,,1,,0,22676979,pdf,2A36F7F0476796AEF0DC322B5381F081,,,D:\\!genesis\\library.nu\\2a\\_73538.2a36f7f0476796aef0dc322b5381f081.pdf,0,2000-01-01 01:00:00,2016-04-03 02:51:08,556000/2a36f7f0476796aef0dc322b5381f081-g.jpg,,
19576321,U.S. Vaccine Markets: Overview and Four Case Studies,,,,"Ernest R. Berndt, Anjli C. Warner, Rena N. Denoncourt",2009,,,,236,0,English,183,,до 2011-01,"0844742805,9780844742809",,,,,381/.456153720973,HD9675.V333 .U6 2009,,,OL23170028M,,0,,,,,1,,1,2345328,pdf,2A8029A809F11D50F4EB1117548A75F0,,,D:\\!genesis\\library.nu\\2a\\_73385.2a8029a809f11d50f4eb1117548a75f0.pdf,0,2000-01-01 01:00:00,2016-04-03 02:51:08,556000/2a8029a809f11d50f4eb1117548a75f0-d.jpg,,
19576322,Christianity and American Democracy (Alexis de Tocqueville Lectures on American Politics),,,,Hugh Heclo,2007,annotated edition,,,312,0,English,192,,до 2011-01,"0674025148,9780674025141,0674032306,9780674032309",,,,,,,,,OL7691961M,,0,,,,1,0,,1,803606,pdf,2A323D98F9123FCCE82BF2323941E3F3,,,D:\\!genesis\\library.nu\\2a\\_72745.2a323d98f9123fcce82bf2323941e3f3.pdf,0,2000-01-01 01:00:00,2016-04-03 02:51:08,556000/2a323d98f9123fcce82bf2323941e3f3-d.jpg,,
19576323,Salades pour changer,,,,Daniel Roche,,,,,120,0,French,,,до 2011-01,"250104794X,9782501047944",,,,,,,,,,,0,,,,,1,,0,10448735,pdf,2A270387538CA6482F7254F1E7FF12FC,,,D:\\!genesis\\library.nu\\2a\\_72722.2a270387538ca6482f7254f1e7ff12fc.pdf,0,2000-01-01 01:00:00,2016-04-03 02:51:08,556000/2a270387538ca6482f7254f1e7ff12fc-g.jpg,,
19576324,Environmental Law and Justice in Context,,,,"Jonas Ebbesson, Phoebe Okowa",2009,1,,,496,0,English,31,,до 2011-01,"052187968X,9780521879682,9780511508363",,,,,344.04/6,K3585 .E5793 2008,,,OL17075189M,,0,,,,,1,,1,4002076,pdf,2A66B6A2FCFBF2BEED13DE09C0A4A620,,,D:\\!genesis\\library.nu\\2a\\_7262.2a66b6a2fcfbf2beed13de09c0a4a620.pdf,0,2000-01-01 01:00:00,2016-04-03 02:51:08,556000/2a66b6a2fcfbf2beed13de09c0a4a620-d.jpg,,
19576325,"The Discovery of Global Warming (New Histories of Science, Technology, and Medicine)",,,,Spencer R. Weart,2003,,,,240,0,English,64,,до 2011-01,"0674011570,9780674011571",,,,,,,,,OL7670964M,,0,,,,1,0,,1,699338,pdf,2A1E16BD0D132E5B6FE2B94FEBD08F96,,,D:\\!genesis\\library.nu\\2a\\_72467.2a1e16bd0d132e5b6fe2b94febd08f96.pdf,0,2000-01-01 01:00:00,2016-04-03 02:51:08,556000/2a1e16bd0d132e5b6fe2b94febd08f96-d.jpg,,
19576326,The Reception of Bach's Organ Works from Mendelssohn to Brahms,,,,Russell Stinson,2006,,,,240,0,English,,,до 2011-01,"0195171098,9780195171099,9781429420587",,,,,786.5/092,ML410.B1 S856 2006,,,OL3397933M,,0,,,,,1,,1,15085490,pdf,2AD6B49C2F0496074775D9B45C3A93E3,,,D:\\!genesis\\library.nu\\2a\\_72094.2ad6b49c2f0496074775d9b45c3a93e3.pdf,0,2000-01-01 01:00:00,2016-04-03 02:51:08,556000/2ad6b49c2f0496074775d9b45c3a93e3-d.jpg,,
19576327,A Historical Guide to Mark Twain (Historical Guides to American Authors),,,,Shelley Fisher Fishkin,2002,,,,328,0,English,64,,до 2011-01,"0195132920,9780195132922,0195132939,9780195132939,9780195302288",,,,,818/.409,PS1342.H5 H57 2002,,,OL3955323M,,0,,,,,1,1,1,2559516,pdf,2A800C9D77BB6F3405B9556BB90EAB7E,,,D:\\!genesis\\library.nu\\2a\\_71819.2a800c9d77bb6f3405b9556bb90eab7e.pdf,0,2000-01-01 01:00:00,2016-04-03 02:51:08,556000/2a800c9d77bb6f3405b9556bb90eab7e-d.jpg,,
19576328,"Handbook of Magnetic Materials, Volume 14 (Handbook of Magnetic Materials Series)",,,,K.H.J. Buschow Ph.D.,2002,,,,434,0,English,287,,до 2011-01,"044451144X,9780444511447",,,,,,,,,OL7530624M,,0,,,,,1,,1,17262383,pdf,2AA1BFDF242D64BED2D1746FA0D2BD12,,,D:\\!genesis\\library.nu\\2a\\_71294.2aa1bfdf242d64bed2d1746fa0d2bd12.pdf,0,2000-01-01 01:00:00,2016-04-03 02:51:08,556000/2aa1bfdf242d64bed2d1746fa0d2bd12-d.jpg,,
19576329,Creating Value Through People: Discussions with Talent Leaders,,,,Mercer,2009,1,,,271,0,English,,,до 2011-01,"0470124156,9780470124154",,,,,658.4/092,HD57.7 .C734 2009,,,OL10279646M,,0,,,,,1,,1,1099116,pdf,2A580F9BF862F14F7325D1A4B4C57621,,,D:\\!genesis\\library.nu\\2a\\_70589.2a580f9bf862f14f7325d1a4b4c57621.pdf,0,2000-01-01 01:00:00,2016-04-03 02:51:08,556000/2a580f9bf862f14f7325d1a4b4c57621-d.jpg,,
19576330,Jordan in the 1967 War (Cambridge Middle East Library),,,,Samir A. Mutawi,2002,,,,243,0,English,67,,до 2011-01,"9780511563546,0521528585,0521343526,051156354X,9780521343527,9780521528580",,,,,956/.046,DS127.9.J6,,,OL21500222M,,300,,,,,1,,1,1692240,djvu,2A1955A4EB01CB85DA5E9A515201F0B7,,,D:\\!genesis\\library.nu\\2a\\_70096.2a1955a4eb01cb85da5e9a515201f0b7.djvu,0,2000-01-01 01:00:00,2016-04-03 02:51:08,556000/2a1955a4eb01cb85da5e9a515201f0b7-d.jpg,,
19576331,International Trade and Finance: New Frontiers for Research,,,,Benjamin J. Cohen,1997,,,,410,0,English,305,,до 2011-01,"9780511528392,0521580862,0521022045,0511528396,9780521022040,9780521580861",,,,,382,HF1379 .I5813 1997,,,OL1009874M,,300,,,,,1,,1,2613859,djvu,2A0BC40E7B2AFE8C2980059FD61F066E,,,D:\\!genesis\\library.nu\\2a\\_69952.2a0bc40e7b2afe8c2980059fd61f066e.djvu,0,2000-01-01 01:00:00,2016-04-03 02:51:08,556000/2a0bc40e7b2afe8c2980059fd61f066e-d.jpg,,
19576332,Brute Rationality: Normativity and Human Action (Cambridge Studies in Philosophy),,,,Joshua Gert,2004,,,,244,0,English,183,,до 2011-01,"9780511216589,0521833183,0511487088,0511216580,9780511487088,9780521833189",,,,,,,,,OL22594398M,,0,,,,,0,,1,792848,pdf,2AC557F5DC5A07EC2C47FB96B2364A43,,,D:\\!genesis\\library.nu\\2a\\_69764.2ac557f5dc5a07ec2c47fb96b2364a43.pdf,0,2000-01-01 01:00:00,2016-04-03 02:51:08,556000/2ac557f5dc5a07ec2c47fb96b2364a43-d.jpg,,
19576333,Rapid Assessment: A Flowchart Guide to Evaluating Signs & Symptoms,,,,Springhouse,2003,1,,,464,0,English,,,до 2011-01,"158255272X,9781582552729",,,,,616.07/5,RT48 .R364 2004,,,OL12285498M,,0,,,,,1,,,24359665,chm,2A60B71256BDCD67CA97EE4E5C76A33B,,,D:\\!genesis\\library.nu\\2a\\_69674.2a60b71256bdcd67ca97ee4e5c76a33b.chm,0,2000-01-01 01:00:00,2016-04-03 02:51:08,556000/2a60b71256bdcd67ca97ee4e5c76a33b-d.jpg,,
19576334,"Randonnée pédestre au Québec, 5e édition",,,,Yves Séguin,,,,,356,0,French,,,до 2011-01,"2894647611,9782894647615",,,,,,,,,,,0,,,,1,0,,1,8981543,pdf,2A5E61A212BFBF22B1DD06C1BD64F696,,,D:\\!genesis\\library.nu\\2a\\_69597.2a5e61a212bfbf22b1dd06c1bd64f696.pdf,0,2000-01-01 01:00:00,2016-04-03 02:51:08,556000/2a5e61a212bfbf22b1dd06c1bd64f696-g.jpg,,
19576335,Softwareentwicklung: Einstieg für Anspruchsvolle (Master Class),,,,Werner Schäfer,,,,,417,0,German,,,до 2011-01,"3827328519,9783827328519",,,,,,,,,,,0,,,,,1,,1,23678368,pdf,2A8BE4F7BA357E61DB6EEABCFF37AC99,,,D:\\!genesis\\library.nu\\2a\\_69574.2a8be4f7ba357e61db6eeabcff37ac99.pdf,0,2000-01-01 01:00:00,2016-04-03 02:51:08,556000/2a8be4f7ba357e61db6eeabcff37ac99-d.jpg,,
19576336,Computation with Recurrence Relations (Applicable Mathematics Series),,,,Jet Wimp,1984,,,,240,0,English,120,,до 2011-01,"0273085085,9780273085089",,,,,511.3,QA9.615,,,OL21229415M,,0,,,,,1,,1,2329363,djvu,2A7B991F9B4CDE1C0195EB0FFD75CD8E,,,D:\\!genesis\\library.nu\\2a\\_69391.2a7b991f9b4cde1c0195eb0ffd75cd8e.djvu,0,2000-01-01 01:00:00,2016-04-03 02:51:08,556000/2a7b991f9b4cde1c0195eb0ffd75cd8e-g.jpg,,
19576337,Food in Painting: From the Renaissance to the Present,,,,Kenneth Bendiner,2004,1,,,240,0,English,59,,до 2011-01,"1861892136,9781861892133",,,,,,,,,OL22608142M,,0,,,,1,0,,1,4965497,pdf,2A31F3FD27EA6A9273E11B8D0093FAC3,,,D:\\!genesis\\library.nu\\2a\\_69141.2a31f3fd27ea6a9273e11b8d0093fac3.pdf,0,2000-01-01 01:00:00,2016-04-03 02:51:08,556000/2a31f3fd27ea6a9273e11b8d0093fac3-d.jpg,,
19576338,Building Dynamic Web 2.0 Websites with Ruby on Rails,,,,A P Rajshekhar,2008,,,,232,0,English,70,,до 2011-01,"1847193412,9781847193414,9781847193421",,,,,,,,,,,0,,,,,1,,1,9010047,pdf,2A28FC084A10230D9BD6C1A206DEEC8A,,,D:\\!genesis\\library.nu\\2a\\_66616.2a28fc084a10230d9bd6c1a206deec8a.pdf,0,2000-01-01 01:00:00,2016-04-03 02:51:08,557000/2a28fc084a10230d9bd6c1a206deec8a-d.jpg,,
19576339,Verdi's Rigoletto: Opera Classics Library Series,,,,Burton D. Fisher,2005,,,,116,0,English,,,до 2011-01,"1930841752,9781930841758,9780585399164",,,,,,,,,OL9447938M,,0,,,,,1,,1,1275901,pdf,2A2E442093C3CF2D074272C947DEB8B8,,,D:\\!genesis\\library.nu\\2a\\_65175.2a2e442093c3cf2d074272c947deb8b8.pdf,0,2000-01-01 01:00:00,2016-04-03 02:51:08,557000/2a2e442093c3cf2d074272c947deb8b8-d.jpg,,
19576340,Personal Injury: Practice and Procedure in Europe,,,,"Martha Warren, Martha Warren Neocleous",1997,1,,,182,0,English,,,до 2011-01,"1859411797,9781859411797",,,,,,,,,OL445749M,,0,,,,,1,,1,607063,pdf,2AEDF31388ED303731A09FCCA9B918D1,,,D:\\!genesis\\library.nu\\2a\\_65001.2aedf31388ed303731a09fcca9b918d1.pdf,0,2000-01-01 01:00:00,2016-04-03 02:51:08,557000/2aedf31388ed303731a09fcca9b918d1-d.jpg,,
19576341,Feminist Perspectives on Healthcare Law (Feminist Perspectives on Law Series),,,,"Sally Sheldon, Michael Thomson, Anne Bottomley",1998,1,,,332,0,English,313,,до 2011-01,"1859413978,9781859413975",,,,,341.041/082,K3601 .F46 1998,,,OL103466M,,0,,,,,1,,1,1003995,pdf,2A5219CC9EC9F7A5EDC5B11836240665,,,D:\\!genesis\\library.nu\\2a\\_64818.2a5219cc9ec9f7a5edc5b11836240665.pdf,0,2000-01-01 01:00:00,2016-04-03 02:51:08,557000/2a5219cc9ec9f7a5edc5b11836240665-d.jpg,,
19576342,"Koma, Tome 6 : Au commencement",,,,"Pierre Wazem, Frederik Peeters",2008,,,,48,0,French,,,до 2011-01,"2731621885,9782731621884",,,,,,,,,,,0,,,,,1,,0,30404862,pdf,2A5E8D127FCCC0E9E84671FED4A846C1,,,D:\\!genesis\\library.nu\\2a\\_64565.2a5e8d127fccc0e9e84671fed4a846c1.pdf,0,2000-01-01 01:00:00,2016-04-03 02:51:08,557000/2a5e8d127fccc0e9e84671fed4a846c1-d.jpg,,
19576343,"Complex and Chaotic Nonlinear Dynamics: Advances in Economics and Finance, Mathematics and Statistics",,,,Thierry Vialar,2009,1,,,752,0,English,305,,до 2011-01,"3540859772,9783540859772,9783540859789",,,,,330.01175,HB135 .V524 2009,,,OL24813848M,,0,,,,,1,,1,25759852,pdf,2AFF0DC8F4B40590D6AD724D533E9DB1,,,D:\\!genesis\\library.nu\\2a\\_64226.2aff0dc8f4b40590d6ad724d533e9db1.pdf,0,2000-01-01 01:00:00,2016-04-03 02:51:08,557000/2aff0dc8f4b40590d6ad724d533e9db1-d.jpg,,
19576344,Insensitive Semantics: A Defense of Semantic Minimalism and Speech Act Pluralism,,,,"Herman Cappelen, Ernest Lepore",2005,,,,232,0,English,,,до 2011-01,"9781405126748,9781405186278,1405126744,1405126752,9781405126755,9781405144780",,,,,401/.43,P325 .C285 2005,,,OL22606339M,,0,,,,,1,,1,1182022,pdf,2ADDF92A1F5B06963AE02A460FA46CF9,,,D:\\!genesis\\library.nu\\2a\\_63721.2addf92a1f5b06963ae02a460fa46cf9.pdf,0,2000-01-01 01:00:00,2016-04-03 02:51:08,557000/2addf92a1f5b06963ae02a460fa46cf9-d.jpg,,
19576345,"Journal of enterprise information management Vol. 18, No. 3, A multi-enterprise view of business activities",,,,Cengiz Kahraman,,,,,109,0,English,181,,до 2011-01,1845441281,,,,,,,10.1108/17410390510591978,,,periodic,0,,,,,1,,1,1966157,pdf,2A925080BA8E84DE230D62C658C324F6,,ban,D:\\!genesis\\library.nu\\2a\\_63623.2a925080ba8e84de230d62c658c324f6.pdf,0,2000-01-01 01:00:00,2016-04-03 02:51:08,557000/2a925080ba8e84de230d62c658c324f6-g.jpg,,
19576346,Hesiod's Cosmos,,,,Jenny Strauss Clay,2003,,,,214,0,English,,,до 2011-01,"0521823927,9780521823920,9780511062148",,,,,881/.01,PA4009.T5 C48 2003,,,OL22554659M,,0,,,,,1,,1,2303435,pdf,2A901618E1B2A76A8D8A9DE81273E5DA,,,D:\\!genesis\\library.nu\\2a\\_6302.2a901618e1b2a76a8d8a9de81273e5da.pdf,0,2000-01-01 01:00:00,2016-04-03 02:51:08,557000/2a901618e1b2a76a8d8a9de81273e5da-d.jpg,,
19576347,Environmental Management in Proactive Commercial Firms: Lessons for Central Logistics Activities in the Department of Defense,,,,Frank Camm,2001,1,,,130,0,English,31,,до 2011-01,"9780833029584,0833029584",,,,,,,,,OL9349696M,,0,,,,,1,,1,328614,pdf,2A1B53D9539B47E06F5495E1C11060DD,,,D:\\!genesis\\library.nu\\2a\\_62936.2a1b53d9539b47e06f5495e1c11060dd.pdf,0,2000-01-01 01:00:00,2016-04-03 02:51:08,557000/2a1b53d9539b47e06f5495e1c11060dd-d.jpg,,
19576348,Management of Shared Fish Stocks,,,,"Andrew I. L. Payne, Carl M. O'Brien, Stuart I. Rogers",2004,,,,384,0,English,,,до 2011-01,"1405106174,9781405106177,9781405128674",,,,,333.95/6,QL618.3 .M365 2004,,,OL22573218M,,0,,,,,1,,1,23399922,pdf,2A380D76FDA088016F300D60B57F9552,,,D:\\!genesis\\library.nu\\2a\\_62838.2a380d76fda088016f300d60b57f9552.pdf,0,2000-01-01 01:00:00,2016-04-03 02:51:08,557000/2a380d76fda088016f300d60b57f9552-d.jpg,,
19576349,Out of the Ordinary: Finding Hidden Threats by Analyzing Unusual Behavior,,,,John Hollywood,2005,,,,192,0,English,,,до 2011-01,"0833035207,9780833035202",,,,,,,,,OL17140890M,,0,,,,,1,,1,591500,pdf,2A95BA2B4BB1DDF783A401EECD1DC0F6,,,D:\\!genesis\\library.nu\\2a\\_62809.2a95ba2b4bb1ddf783a401eecd1dc0f6.pdf,0,2000-01-01 01:00:00,2016-04-03 02:51:08,557000/2a95ba2b4bb1ddf783a401eecd1dc0f6-d.jpg,,
19576350,"E-Vision 2000, Key Issues That Will Shape Our Energy Future: Summary of Proceedings, Scenario Analysis, Expert Elicitation, and Submitted Papers",,,,RAND Corporation,2001,,,,67,0,English,263,,до 2011-01,"083303054X,9780833030542",,,,,333.79/13/09730112,TJ163.15 .S36 2001,,,OL3730784M,,0,,,,,1,,1,1982213,pdf,2A060B2F5DBAC20E25D45519FF11140D,,,D:\\!genesis\\library.nu\\2a\\_62733.2a060b2f5dbac20e25d45519ff11140d.pdf,0,2000-01-01 01:00:00,2016-04-03 02:51:08,557000/2a060b2f5dbac20e25d45519ff11140d-d.jpg,,
19576351,Community-Acquired Respiratory Infections (Infectious Disease and Therapy),,,,"Charles H. Nightingale, Paul G. Ambrose, Thomas M. File Jr.",2003,1,,,450,0,English,150,,до 2011-01,"0824746988,9780824746988,9780824756482",,,,,616.2/061,RC740 .C6515 2003,,,OL3327916M,,0,,,,,1,,1,2815935,pdf,2A47D63EE7B70D25DD76BD9BED347C8D,,,D:\\!genesis\\library.nu\\2a\\_62317.2a47d63ee7b70d25dd76bd9bed347c8d.pdf,0,2000-01-01 01:00:00,2016-04-03 02:51:08,557000/2a47d63ee7b70d25dd76bd9bed347c8d-d.jpg,,
19576352,The American Presidents: Critical Essays (Garland Reference Library of the Humanities),,,,Melvin Urofsky,2000,,Garland Publishing,,711,0,English,196,,до 2011-01,"0815321848,9780815321842,9780203008805",,,,,973/.09/9,E176.1 .A6566 2000,,,OL43687M,,0,,,,1,1,,1,6666828,pdf,2ACEEAD13302F83940F26D10689FDBB9,,,D:\\!genesis\\library.nu\\2a\\_62057.2aceead13302f83940f26d10689fdbb9.pdf,0,2000-01-01 01:00:00,2016-04-03 02:51:08,557000/2aceead13302f83940f26d10689fdbb9-d.jpg,,
19576353,Dragonfly Genera of the New World: An Illustrated and Annotated Key to the Anisoptera,,,,"Rosser W. Garrison, Natalia von Ellenrieder, Jerry A. Louton",2006,1,,,383,0,English,,,до 2011-01,"0801884462,9780801884467",,,,,,,,,OL22748505M,,0,,,,,0,,1,42365664,pdf,2A93920491B669742ED603E1E3E2573E,,,D:\\!genesis\\library.nu\\2a\\_61163.2a93920491b669742ed603e1e3e2573e.pdf,0,2000-01-01 01:00:00,2016-04-03 02:51:08,557000/2a93920491b669742ed603e1e3e2573e-d.jpg,,
19576354,Whiteness of a Different Color: European Immigrants and the Alchemy of Race,,,,Matthew Frye Jacobson,1998,,,,368,0,English,296,,до 2011-01,"0674063716,9780674063716",,,,,305.8/00973,E184.E95 J33 1998,,,OL355953M,,0,,,,,1,,1,10088385,pdf,2A62D0510F6D49096344EF8489184431,,,D:\\!genesis\\library.nu\\2a\\_61003.2a62d0510f6d49096344ef8489184431.pdf,0,2000-01-01 01:00:00,2016-04-03 02:51:08,557000/2a62d0510f6d49096344ef8489184431-d.jpg,,
19576355,Innovation and Knowledge Creation in an Open Economy: Canadian Industry and International Implications,,,,"John R. Baldwin, Petr Hanel",2003,,,,542,0,English,137,,до 2011-01,"0521810868,9780521810869,9780511064326",,,,,,,,,OL22533841M,,0,,,,,1,,1,2705186,pdf,2A309D2D9D1C988861885D54E49E0902,,,D:\\!genesis\\library.nu\\2a\\_6045.2a309d2d9d1c988861885d54e49e0902.pdf,0,2000-01-01 01:00:00,2016-04-03 02:51:08,557000/2a309d2d9d1c988861885d54e49e0902-d.jpg,,
19576356,Nationalist Mobilization and the Collapse of the Soviet State (Cambridge Studies in Comparative Politics),,,,Mark R. Beissinger,2002,,Cambridge University Press,,522,0,English,183,,до 2011-01,"052100148X,9780521001489,0521806704,9780521806701,9780511041839",,,,,,,,,,,0,,,,,1,,1,2074029,pdf,2A4B6128B12985AF07AD42E92EFC0386,,,D:/!genesis/library.nu/2a/_59165.2a4b6128b12985af07ad42e92efc0386.pdf,0,2000-01-01 01:00:00,2016-04-03 02:51:08,557000/2a4b6128b12985af07ad42e92efc0386-d.jpg,,
19576357,Make Money Work For YouInstead of You Working for It: Lessons from a Portfolio Manager,,,,William Thomason,2005,1,,,289,0,English,,,до 2011-01,"9780471465140,9780471746041,0471465143",,,,,,,,,OL24257254M,,0,,,,,1,,1,1320716,pdf,2AFF8658A8354CFF5C4BD3CF802C0A79,,,D:\\!genesis\\library.nu\\2a\\_58467.2aff8658a8354cff5c4bd3cf802c0a79.pdf,0,2000-01-01 01:00:00,2016-04-03 02:51:08,557000/2aff8658a8354cff5c4bd3cf802c0a79-d.jpg,,
19576358,Philosophy of the Buddha: An Introduction,,,,Christopher W. Gowans,2003,,Routledge,,243,0,English,206,,до 2011-01,"0415278589,9780415278584,9780203480793",,,,,181/.043,BQ4150 .G69 2003,,9Pkd6zDS-WMC,OL22530278M,,0,,,,0,1,,1,1185548,pdf,2AFC84ACAF443319C88825670C092388,,,D:\\!genesis\\library.nu\\2a\\_57478.2afc84acaf443319c88825670c092388.pdf,0,2000-01-01 01:00:00,2016-04-03 02:51:08,557000/2afc84acaf443319c88825670c092388-g.jpg,,
19576359,Iraq War and Democratic Politics (Adelphi Papers),,,,Alex Danchev,,,,,283,0,English,67,,до 2011-01,"0415351480,9780415351485,9780203325964",,,,,327.73/009/0511,DS79.76 .I7275 2005,,,OL18395627M,,0,,,,,1,,1,2568626,pdf,2A4FD6684D940C37815315E3075778DE,,,D:\\!genesis\\library.nu\\2a\\_57160.2a4fd6684d940c37815315e3075778de.pdf,0,2000-01-01 01:00:00,2016-04-03 02:51:08,557000/2a4fd6684d940c37815315e3075778de-g.jpg,,
19576360,"War, Diplomacy and the Rise of Savoy, 1690-1720 (Cambridge Studies in Italian History and Culture)",,,,Christopher Storrs,,,,,365,0,English,64,,до 2011-01,"0521551463,9780521551465,9780511008528",,,,,944/.48,DG618.53 .S76 1999,,,OL387744M,,0,,,,,1,,1,2239400,pdf,2AC88AE2EBC9FE9E1C77E7FF0D59519C,,,D:\\!genesis\\library.nu\\2a\\_5687.2ac88ae2ebc9fe9e1c77e7ff0d59519c.pdf,0,2000-01-01 01:00:00,2016-04-03 02:51:08,557000/2ac88ae2ebc9fe9e1c77e7ff0d59519c-g.jpg,,
19576361,Elements of the Representation Theory of Associative Algebras: Volume 1: Techniques of Representation Theory (London Mathematical Society Student Texts),,,,"Ibrahim Assem, Andrzej Skowronski, Daniel Simson",,,,,469,0,English,137,,до 2011-01,"052158423X,9780521586313,9780521584234,9780511345456,0521586313",,,,,512/.46,QA251.5 .A767 2005,,,OL22724682M,,0,,,,,1,,1,4547810,pdf,2A636E28EBD1F8FAE5ECA130478A25D9,,,D:\\!genesis\\library.nu\\2a\\_5668.2a636e28ebd1f8fae5eca130478a25d9.pdf,0,2000-01-01 01:00:00,2016-04-03 02:51:08,557000/2a636e28ebd1f8fae5eca130478a25d9-g.jpg,,
19576362,Japan's Contested Constitution: Documents and Analysis,,,,Glenn D. Hook,,,,,223,0,English,117,,до 2011-01,"9780203645079,9780415241007,0203645073,0415241006,0415240999,9780415240994",,,,,342.52/02,KNX2101 .J37 2000,,,OL6794376M,,0,,,,,1,,1,1460276,pdf,2ABC3EC1AD447C1F8FE51573905CF362,,,D:\\!genesis\\library.nu\\2a\\_56290.2abc3ec1ad447c1f8fe51573905cf362.pdf,0,2000-01-01 01:00:00,2016-04-03 02:51:08,557000/2abc3ec1ad447c1f8fe51573905cf362-g.jpg,,
19576363,"The Handbook of Autism, 2nd Edition: A Guide for Parents and Professionals",,,,Maureen Aarons,,,,,160,0,English,,,до 2011-01,"0415160359,9780415160353",,,,,,,,,OL7484705M,,0,,,,,1,,1,1936057,pdf,2A74DF1F21478301FA7805C3ADE96D3C,,,D:\\!genesis\\library.nu\\2a\\_54640.2a74df1f21478301fa7805c3ade96d3c.pdf,0,2000-01-01 01:00:00,2016-04-03 02:51:08,557000/2a74df1f21478301fa7805c3ade96d3c-g.jpg,,
19576364,"Making Sense of a Changing Economy: Technology, Markets and Morals",,,,Edward J. Nell,,,,,242,0,English,,,до 2011-01,"9780415136402,0415136407,0415136393,9780415136396,9780203980231",,,,,330.12/2,HB501 .N368 1995,,,OL21356361M,,0,,,,,1,,1,3733377,pdf,2AD38A87BE64A53DCE4BA6C5FD81E39D,,,D:\\!genesis\\library.nu\\2a\\_54512.2ad38a87be64a53dce4ba6c5fd81e39d.pdf,0,2000-01-01 01:00:00,2016-04-03 02:51:08,557000/2ad38a87be64a53dce4ba6c5fd81e39d-g.jpg,,
19576365,Economic Modelling at the Bank of France: Financial Deregulation and Economic Development in France (Routledge New International Studies in Economic Modelling),,,,M. Boutillier,,,,,269,0,English,305,,до 2011-01,"0415136458,9780415136457,9780203298855",,,,,330.9440015195,HG186.F8 E36 1996,,,OL10187006M,,0,,,,,1,,1,2328559,pdf,2A5EACA314E95C37603BE46C18D4579E,,,D:\\!genesis\\library.nu\\2a\\_54412.2a5eaca314e95c37603be46c18d4579e.pdf,0,2000-01-01 01:00:00,2016-04-03 02:51:08,557000/2a5eaca314e95c37603be46c18d4579e-g.jpg,,
19576366,Cities and Natural Process,,,,Michael Hough,,,,,345,0,English,,,до 2011-01,041512168X,,,,,304.2,HT166 .H664 1995,,,OL1105989M,,0,,,,,1,,1,14749112,pdf,2ABD1026D0EF08B861BC817D9BD9657E,,,D:\\!genesis\\library.nu\\2a\\_54142.2abd1026d0ef08b861bc817d9bd9657e.pdf,0,2000-01-01 01:00:00,2016-04-03 02:51:08,557000/2abd1026d0ef08b861bc817d9bd9657e-g.jpg,,
19576367,"Feminist Poetics: Poiesis, Performance, Histories",,,,Terr Threadgold,,,,,233,0,English,64,,до 2011-01,"0415062918,9780415062916,0415029392,9780415029391,9780203206201",,,,,820.9/9287/0994,PR9608 .T47 1997,,,OL990056M,,0,,,,,1,,1,980486,pdf,2ABF44A63CB71DEF82094CFA8D07B79C,,,D:\\!genesis\\library.nu\\2a\\_53685.2abf44a63cb71def82094cfa8d07b79c.pdf,0,2000-01-01 01:00:00,2016-04-03 02:51:08,557000/2abf44a63cb71def82094cfa8d07b79c-g.jpg,,
19576368,The Life and Times of Postmodernity,,,,Keith Tester,,,,,180,0,English,,,до 2011-01,"0415075459,9780415075459,0415098327,9780415098328,9780203302415",,,,,303.4,HM73 .T444 1993,,,OL1740164M,,0,,,,,1,,1,1001825,pdf,2AE9A92944FC121950097D310DEED418,,,D:\\!genesis\\library.nu\\2a\\_53564.2ae9a92944fc121950097d310deed418.pdf,0,2000-01-01 01:00:00,2016-04-03 02:51:08,557000/2ae9a92944fc121950097d310deed418-g.jpg,,
19576369,Raymond Williams: Making Connections,,,,John Eldridge,1994,,,,248,0,English,,,до 2011-01,"9780415040884,0415040884,0415040876,9780415040877,9780203992173",,,,,828/.91409,PR6073.I4329 Z65 1994,,,OL1413957M,,0,,,,,1,,1,988103,pdf,2AD1AE2A0CF92342C33978C639F4B9F2,,,D:\\!genesis\\library.nu\\2a\\_53188.2ad1ae2a0cf92342c33978c639f4b9f2.pdf,0,2000-01-01 01:00:00,2016-04-03 02:51:08,557000/2ad1ae2a0cf92342c33978c639f4b9f2-d.jpg,,
19576370,Residential Choices and Experiences of Older Adults: Pathways to Life Quality,,,,"John A. Krout PhD, Elaine Wethington PhD",2003,,,,256,0,English,,,до 2011-01,"9780826119544,0826119549",,,,,,,,,OL9518379M,,0,,,,1,0,,1,12137277,pdf,2AC9E280E590511F3AF5C6354BB481A5,,,D:\\!genesis\\library.nu\\2a\\_52845.2ac9e280e590511f3af5c6354bb481a5.pdf,0,2000-01-01 01:00:00,2016-04-03 02:51:08,557000/2ac9e280e590511f3af5c6354bb481a5-d.jpg,,
19576371,The Market in Chinese Social Policy,,,,"Linda Wong, Norman Flynn",2001,,,,183,0,English,192,,до 2011-01,"0333917790,9780333917794,9781403919939",,,,,361.6/1/0951,HN733.5 .M363 2001,,,OL10558178M,,0,,,,,1,,1,498157,pdf,2A899EC4E53C7F1DB71F5D404953E072,,,D:\\!genesis\\library.nu\\2a\\_52835.2a899ec4e53c7f1db71f5d404953e072.pdf,0,2000-01-01 01:00:00,2016-04-03 02:51:08,557000/2a899ec4e53c7f1db71f5d404953e072-d.jpg,,
19576372,Europe and Globalization,,,,Henryk Kierzkowski,2002,,,,352,0,English,,,до 2011-01,"0333998391,9781403937674,9780333998397",,,,,337.4,HF1531 .E792 2002,,,OL18667646M,,0,,,,,1,,1,1371749,pdf,2A88B1A04DA8632A596F3E58DBC0DC43,,,D:\\!genesis\\library.nu\\2a\\_52589.2a88b1a04da8632a596f3e58dbc0dc43.pdf,0,2000-01-01 01:00:00,2016-04-03 02:51:08,557000/2a88b1a04da8632a596f3e58dbc0dc43-d.jpg,,
19576373,Fault-Tolerant Systems,,,,"Israel Koren, C. Mani Krishna,",2007,,,,400,0,English,,,до 2011-01,"0120885255,9780120885251,9780080492681",,,,,,,,,OL7325695M,,0,,,,,1,,1,5115416,pdf,2A4054CD44C50C150541C78141471CB9,,,D:\\!genesis\\library.nu\\2a\\_52298.2a4054cd44c50c150541c78141471cb9.pdf,0,2000-01-01 01:00:00,2016-04-03 02:51:08,557000/2a4054cd44c50c150541c78141471cb9-d.jpg,,
19576374,"Actionable Strategies Through Integrated Performance, Process, Project, and Risk Management",,,,Stephen S. Bonham,2008,1,,,261,0,English,,,до 2011-01,"1596931191,9781596931190",,,,,,,,,OL17104531M,,0,,,,,1,,1,2366526,pdf,2A853CCCDE340D0AAF19E35F23ABEE0C,,,D:\\!genesis\\library.nu\\2a\\_52038.2a853cccde340d0aaf19e35f23abee0c.pdf,0,2000-01-01 01:00:00,2016-04-03 02:51:08,557000/2a853cccde340d0aaf19e35f23abee0c-d.jpg,,
19576375,"We the People: The Us Government's United Response Against Terror (Spirit of America, a Nation Responds to the Events of 11 September 2001)",,,,Angela Valdez,2002,,,,64,0,English,,,до 2011-01,"9780791069622,0791069621,9781438125329",,,,,973.931,HV6432 .V35 2003,,,OL24762517M,,0,,,,,1,,1,3524721,pdf,2A0398987D3ACB59878431AAE96CCF6B,,,D:\\!genesis\\library.nu\\2a\\_51208.2a0398987d3acb59878431aae96ccf6b.pdf,0,2000-01-01 01:00:00,2016-04-03 02:51:08,557000/2a0398987d3acb59878431aae96ccf6b-d.jpg,,
19576376,Max Planck Yearbook of United Nations Law,,,,Jochen Frowein,2001,1,,,777,0,English,313,,до 2011-01,"9041117237,9789041117236,9781417577729",,,,,,,,,OL9099041M,,0,,,,,1,,1,41451381,pdf,2AE7E4939921FCDE61B6ABC29DBC9FE3,,,D:\\!genesis\\library.nu\\2a\\_50644.2ae7e4939921fcde61b6abc29dbc9fe3.pdf,0,2000-01-01 01:00:00,2016-04-03 02:51:08,557000/2ae7e4939921fcde61b6abc29dbc9fe3-g.jpg,,
19576377,Advances in Machine Learning and Data Analysis (Lecture Notes in Electrical Engineering),,Lecture Notes in Electrical Engineering 48,,"Sio-Iong Ao, Burghard Rieger, Mahyar Amouzegar",2009,1st Edition.,,,247,0,English,210,,до 2011-01,"9048131766,9789048131761",,,,,,,10.1007/978-90-481-3177-8,,,,0,,,,,1,,1,6274101,pdf,2A6D90A5F0BE9ADBEB3AE35444BC0DB3,,,D:\\!genesis\\library.nu\\2a\\_50604.2a6d90a5f0be9adbeb3ae35444bc0db3.pdf,0,2000-01-01 01:00:00,2016-04-03 02:51:08,557000/2a6d90a5f0be9adbeb3ae35444bc0db3-d.jpg,,
19576378,Elements of the Theory of Functions and Functional Analysis. Volume 1: Metric and Normed Spaces.,,,,By A.N. Kolmogorov and S.V. Fomin,1957,,,,141,0,English,113,,до 2011-01,,,B000R09AHW,,,,,,,,,0,,,,,1,,1,2697728,pdf,2AF86EB607A0E10DBEFD48F30599B3BA,,,D:\\!genesis\\library.nu\\2a\\_50502.2af86eb607a0e10dbefd48f30599b3ba.pdf,0,2000-01-01 01:00:00,2016-04-03 02:51:08,557000/2af86eb607a0e10dbefd48f30599b3ba-g.jpg,,
19576379,"Changing Forests: Collective Action, Common Property, and Coffee in Honduras",,,,Catherine M. Tucker,2008,1,,,274,0,English,,,до 2011-01,"1402069766,9781402069765,9781402069772",,,,,,,,,,,0,,,,,1,,1,3063244,pdf,2A70D2493E6D165481150E32CF17CEFE,,,D:\\!genesis\\library.nu\\2a\\_49848.2a70d2493e6d165481150e32cf17cefe.pdf,0,2000-01-01 01:00:00,2016-04-03 02:51:08,557000/2a70d2493e6d165481150e32cf17cefe-d.jpg,,
19576380,Inside LightWave v9,,,,Dan Ablan,2006,1,,,744,0,English,,,до 2011-01,"0321426843,9780321426840",,,,,,,,,OL9667545M,,0,,,,,1,,1,30457412,pdf,2A611D72D12C2B1B78D462F23217DF6E,,,D:\\!genesis\\library.nu\\2a\\_49522.2a611d72d12c2b1b78d462f23217df6e.pdf,0,2000-01-01 01:00:00,2016-04-03 02:51:08,557000/2a611d72d12c2b1b78d462f23217df6e-d.jpg,,
19576381,Manuscript Verse Collectors and the Politics of Anti-Courtly Love Poetry,,,,Joshua Eckhardt,2009,,,,320,0,English,192,,до 2011-01,"0199559503,9780199559503",,,,,821.3093543,PR545.L7 E24 2009,,,OL23941536M,,0,,,,,1,,1,1609891,pdf,2A7F573354878866AF689743A92DC41F,,,D:\\!genesis\\library.nu\\2a\\_48461.2a7f573354878866af689743a92dc41f.pdf,0,2000-01-01 01:00:00,2016-04-03 02:51:08,557000/2a7f573354878866af689743a92dc41f-d.jpg,,
19576382,Statistical and Inductive Inference by Minimum Message Length (Information Science and Statistics),,,,C.S. Wallace,2005,1,,,442,0,English,,,до 2011-01,"038723795X,9780387237954,9780387276564",,,,,,,,,OL7444583M,,0,,,,,0,,1,2466317,pdf,2ACEF1F5957C4AC6D4CAAC68674977F3,,,D:\\!genesis\\library.nu\\2a\\_48408.2acef1f5957c4ac6d4caac68674977f3.pdf,0,2000-01-01 01:00:00,2016-04-03 02:51:08,557000/2acef1f5957c4ac6d4caac68674977f3-d.jpg,,
19576383,Poisson Structures and Their Normal Forms (Progress in Mathematics),,Progress in Mathematics,,"Jean-Paul Dufour, Nguyen Tien Zung,",2005,1,Birkhäuser Basel,,332,0,English,113,,до 2011-01,"3764373342,9783764373344,9783764373351",,,,,,,,,OL9091014M,,0,,,,1,0,,1,2462648,pdf,2A9786DB2E291B43E381993DF7D8B3B0,,,D:\\!genesis\\library.nu\\2a\\_48251.2a9786db2e291b43e381993df7d8b3b0.pdf,0,2000-01-01 01:00:00,2016-04-03 02:51:08,557000/2a9786db2e291b43e381993df7d8b3b0-d.jpg,,
19576384,German Literature of the 1990s and Beyond: Normalization and the Berlin Republic (Studies in German Literature Linguistics and Culture),,,,Stuart Taberner,2005,,,,317,0,English,183,,до 2011-01,"1571132899,9781571132895,9781571136725",,,,,,,,,OL15577070M,,0,,,,,1,,1,1878011,pdf,2A2646893F575C9257C1CA9A4B3B36AD,,,D:\\!genesis\\library.nu\\2a\\_4822.2a2646893f575c9257c1ca9a4b3b36ad.pdf,0,2000-01-01 01:00:00,2016-04-03 02:51:08,557000/2a2646893f575c9257c1ca9a4b3b36ad-d.jpg,,
19576385,Pindar: Pythian Eleven (Cambridge Classical Texts and Commentaries),,,,P. J. Finglass,2008,1,,,172,0,English,,,до 2011-01,"0521884810,9780521884815,9780511379307",,,,,,,,,OL10438458M,,0,,,,,1,,1,1404097,pdf,2AEA71F77771C7DCFA130D166D8490DE,,,D:\\!genesis\\library.nu\\2a\\_4794.2aea71f77771c7dcfa130d166d8490de.pdf,0,2000-01-01 01:00:00,2016-04-03 02:51:08,557000/2aea71f77771c7dcfa130d166d8490de-d.jpg,,
19576386,Projection and Realism in Hume's Philosophy,,,,P. J. E. Kail,2007,,,,272,0,English,195,,до 2011-01,"0199229503,9780199229505,9781435621961",,,,,192,B1498 .K35 2007,,,OL10146017M,,0,,,,,1,,1,1985091,pdf,2A98A7A4DD360990A39B044F9A76E04B,,,D:\\!genesis\\library.nu\\2a\\_47745.2a98a7a4dd360990a39b044f9a76e04b.pdf,0,2000-01-01 01:00:00,2016-04-03 02:51:08,557000/2a98a7a4dd360990a39b044f9a76e04b-d.jpg,,
19576387,"The Quakers in English Society, 1655-1725 (Oxford Historical Monographs)",,,,Adrian Davies,2000,,,,280,0,English,64,,до 2011-01,"0198208200,9780198208204",,,,,289.6/42/09032,BX7676.2 .D39 2000,,,,,0,,,,,1,,1,1285360,pdf,2A2E014358E25B3E478989D2634A06FA,,,D:/!genesis/library.nu/2a/_47616.2a2e014358e25b3e478989d2634a06fa.pdf,0,2000-01-01 01:00:00,2016-04-03 02:51:08,557000/2a2e014358e25b3e478989d2634a06fa-d.jpg,,
19576388,Landmarks of the American Revolution (American Landmarks),,,,Gary B. Nash,2003,,,,160,0,English,,,до 2011-01,"0195128494,9780195128499",,,,,973.3,E159 .N26 2003,,,OL3556588M,,0,,,,,1,,1,19645341,pdf,2AB4D9FD4CB7E044A385D4A8DF9CEB94,,,D:\\!genesis\\library.nu\\2a\\_47385.2ab4d9fd4cb7e044a385d4a8df9ceb94.pdf,0,2000-01-01 01:00:00,2016-04-03 02:51:08,557000/2ab4d9fd4cb7e044a385d4a8df9ceb94-d.jpg,,
19576389,Jews in Christian America: The Pursuit of Religious Equality (Studies in Jewish History),,,,Naomi W. Cohen,1992,,,,316,0,English,64,,до 2011-01,"0195065379,9780195065374,9781429407311",,,,,322/.1/089924073,E184.J5 C619 1992,,,OL1555512M,,0,,,,,1,,1,21709181,pdf,2A3E052B5ABAE77C70A044B47855A815,,,D:\\!genesis\\library.nu\\2a\\_47347.2a3e052b5abae77c70a044b47855a815.pdf,0,2000-01-01 01:00:00,2016-04-03 02:51:08,557000/2a3e052b5abae77c70a044b47855a815-d.jpg,,
19576390,"German Memory Contests: The Quest for Identity in Literature, Film, and Discourse since 1990 (German Literature Linguistics and Culture)",,,,"Mary Cosgrove, Georg Grote Anne Fuchs",2006,,,,320,0,English,108,,до 2011-01,"1571133240,9781571133243,9781571136763",,,,,,,,,OL18212129M,,0,,,,,1,,1,1613629,pdf,2A11899F82A645360128B272612D773F,,,D:\\!genesis\\library.nu\\2a\\_4695.2a11899f82a645360128b272612d773f.pdf,0,2000-01-01 01:00:00,2016-04-03 02:51:08,557000/2a11899f82a645360128b272612d773f-d.jpg,,
19576391,Essential Mathematics for Political and Social Research (Analytical Methods for Social Research),,,,Jeff Gill,2006,1,,,476,0,English,113,,до 2011-01,"9780521834261,9780521684033,9780511606656,0521834260,052168403X,0511606656",,,,,510.71/2,QA13 .G55 2006,,,OL3430576M,,0,,,,,1,,1,3239239,pdf,2A513F7640C6FF8564A0AD3E07910896,,,D:\\!genesis\\library.nu\\2a\\_46577.2a513f7640c6ff8564a0ad3e07910896.pdf,0,2000-01-01 01:00:00,2016-04-03 02:51:08,557000/2a513f7640c6ff8564a0ad3e07910896-d.jpg,,
19576392,Lost in Austin: A Nevada Memoir,,,,Jim Andersen,2009,,,,152,0,English,,,до 2011-01,"0874177871,9780874177879",,,,,"979.3/33,B",F849.A9 A535 2009,,,OL23208140M,,0,,,,1,1,,1,1494188,pdf,2AC6A5E60CE20CFA649DA79BC4288671,,,D:\\!genesis\\library.nu\\2a\\_46278.2ac6a5e60ce20cfa649da79bc4288671.pdf,0,2000-01-01 01:00:00,2016-04-03 02:51:08,557000/2ac6a5e60ce20cfa649da79bc4288671-d.jpg,,
19576393,The Social World Of Children's Learning,,,,"Andrew Pollard, Ann Filer",2001,,,,346,0,English,183,,до 2011-01,"0826475884,9780826475886",,,,,,,,,,,0,,,,,1,,1,21377322,pdf,2AE62675A60D60311F7A7FC59C1385BC,,,D:/!genesis/library.nu/2a/_46079.2ae62675a60d60311f7a7fc59c1385bc.pdf,0,2000-01-01 01:00:00,2016-04-03 02:51:08,557000/2ae62675a60d60311f7a7fc59c1385bc-d.jpg,,
19576394,Acta Numerica 1992 (Volume 1),,,,Arieh Iserles (Editor),1992,,,,407,0,English,145,,до 2011-01,"0521410266,9780521410267",,,,,,,,,OL7739878M,,0,,,,,1,,1,22686928,pdf,2A47C7AE1059EF678EC5D0985A03E966,,,D:\\!genesis\\library.nu\\2a\\_45943.2a47c7ae1059ef678ec5d0985a03e966.pdf,0,2000-01-01 01:00:00,2016-04-03 02:51:08,557000/2a47c7ae1059ef678ec5d0985a03e966-d.jpg,,
19576395,The Sugar House (Tess Monaghan Mysteries - Book 05 - 2000),,,,Laura Lippman,2001,,,,384,0,English,64,,до 2011-01,"0380810220,9780380810222,9780061193354",,,,,,,,,OL24297819M,,0,,,,,1,,1,1038399,pdf,2A2A9C670C672F116E0D984FEFA2864C,,,D:\\!genesis\\library.nu\\2a\\_45278.2a2a9c670c672f116e0d984fefa2864c.pdf,0,2000-01-01 01:00:00,2016-04-03 02:51:08,557000/2a2a9c670c672f116e0d984fefa2864c-d.jpg,,
19576396,Images of Beckett,,,,James Knowlson,2003,,,,174,0,English,,,до 2011-01,"0521822580,9780521822589,9780511078583",,,,,848/.91409,PR6003.E282 Z7655 2003,,,OL22569468M,,0,,,,,1,,1,6945811,pdf,2A6ECFF0BA2F0C10E5D5BDB2C7546633,,,D:\\!genesis\\library.nu\\2a\\_45039.2a6ecff0ba2f0c10e5d5bdb2c7546633.pdf,0,2000-01-01 01:00:00,2016-04-03 02:51:08,557000/2a6ecff0ba2f0c10e5d5bdb2c7546633-d.jpg,,
19576397,Fundamentals of Surgical Practice (2006),,,,"Andrew N. Kingsnorth, Aljafri A. Majid",2006,2,,,556,0,English,,,до 2011-01,"9780511349393,9780521677066,0521677068",,,,,617,RD32 .F86 2006,,,OL22650564M,,0,,,,,1,,1,8904863,pdf,2A901243B22C20E3AC9F712756279F68,,,D:\\!genesis\\library.nu\\2a\\_45024.2a901243b22c20e3ac9f712756279f68.pdf,0,2000-01-01 01:00:00,2016-04-03 02:51:08,557000/2a901243b22c20e3ac9f712756279f68-d.jpg,,
19576398,Ghosts of War in Vietnam (Studies in the Social and Cultural History of Modern Warfare),,,,Heonik Kwon,2008,1,,,232,0,English,64,,до 2011-01,"0521880610,9780521880619,9780511388217",,,,,,,,,OL10438329M,,0,,,,,1,,1,1466706,pdf,2ADE79664E7F0424881ED2F73904A882,,,D:\\!genesis\\library.nu\\2a\\_4452.2ade79664e7f0424881ed2f73904a882.pdf,0,2000-01-01 01:00:00,2016-04-03 02:51:08,557000/2ade79664e7f0424881ed2f73904a882-d.jpg,,
19576399,Sourcebook for Research in Music,,,,"Phillip D. Crabtree, Donald H. Foster, Allen Scott",2005,2 Rev Exp,,,382,0,English,62,,до 2011-01,"0253346118,9780253346117,9780253111746",,,,,,,,,OL3436958M,,0,,,,,1,,1,3933957,pdf,2A3BFB6C321D6F96EFF05ADC5EF41D29,,,D:\\!genesis\\library.nu\\2a\\_44112.2a3bfb6c321d6f96eff05adc5ef41d29.pdf,0,2000-01-01 01:00:00,2016-04-03 02:51:08,557000/2a3bfb6c321d6f96eff05adc5ef41d29-d.jpg,,
19576400,Equal in Monastic Profession: Religious Women in Medieval France (Women in Culture and Society Series),,,,Penelope D. Johnson,1994,,,,310,0,English,64,,до 2011-01,"0226401863,9780226401867,0226401855,9780226401850,9780226401973",,,,,271/.90044/09021,BX4220.F8 J64 1991,,,OL1884580M,,0,,,,,1,,1,17635834,pdf,2A6C580ACBCAE531B991E02FB225E8E8,,,D:\\!genesis\\library.nu\\2a\\_43912.2a6c580acbcae531b991e02fb225e8e8.pdf,0,2000-01-01 01:00:00,2016-04-03 02:51:08,557000/2a6c580acbcae531b991e02fb225e8e8-d.jpg,,
19576401,Letting Go (Fifth Edition): A Parents' Guide to Understanding the College Years,,,,"Karen Levin Coburn, Madge Lawrence Treeger",2009,5,,,464,0,English,,,до 2011-01,"0061665738,9780061665738",,,,,378.1/98,LA229 .C53 2009,,,OL24453467M,,0,,,,,1,,1,1631765,pdf,2A9392B31C8AB10DF1451B064E4F857A,,,D:\\!genesis\\library.nu\\2a\\_43541.2a9392b31c8ab10df1451b064e4f857a.pdf,0,2000-01-01 01:00:00,2016-04-03 02:51:08,557000/2a9392b31c8ab10df1451b064e4f857a-d.jpg,,
19576402,"Before I Wake (Nightmare Chronicles, Book 1)",,,,Kathryn Smith,2008,,,,384,0,English,,,до 2011-01,"0061340278,9780061340277,9780061695919",,,,,,,,,OL23237429M,,0,,,,,1,,1,1497309,pdf,2A74F595D362E82F869D13144E019DC3,,,D:\\!genesis\\library.nu\\2a\\_43481.2a74f595d362e82f869d13144e019dc3.pdf,0,2000-01-01 01:00:00,2016-04-03 02:51:08,557000/2a74f595d362e82f869d13144e019dc3-d.jpg,,
19576403,The Department of Lost & Found,,,,Allison Winn Scotch,2008,,,,336,0,English,,,до 2011-01,"006116142X,9780061161421,9780061645914",,,,,,,,,OL9952058M,,0,,,,,1,,1,1320834,pdf,2A07C6DBE0A687356B018F7623C4202B,,,D:\\!genesis\\library.nu\\2a\\_43336.2a07c6dbe0a687356b018f7623c4202b.pdf,0,2000-01-01 01:00:00,2016-04-03 02:51:08,557000/2a07c6dbe0a687356b018f7623c4202b-d.jpg,,
19576404,One Reckless Summer,,Destiny 1,,Toni Blake,2009,Original,,,384,0,English,,,до 2011-01,"0061429899,9780061429897,0061880108,9780061880100,0061880051,9780061880056,0061880094,9780061880094,0061880078,9780061880070",,,,,,,,,OL24085677M,,0,,,,,1,,1,907569,pdf,2AAD22B0D2D81E8349C384A901E79330,,,D:\\!genesis\\library.nu\\2a\\_43240.2aad22b0d2d81e8349c384a901e79330.pdf,0,2000-01-01 01:00:00,2016-04-03 02:51:08,557000/2aad22b0d2d81e8349c384a901e79330-d.jpg,,
19576405,Dead Center: Behind the Scenes at the World's Largest Medical Examiner's Office,,,,"Shiya Ribowsky, Tom Shachtman",2006,1,,,272,0,English,147,,до 2011-01,"9780061116247,9780061206399,0061116246,0061189405,9780061189401",,,,,614/.1097471,RA1025.R53 A3 2006,,,OL24264587M,,0,,,,,1,,1,1123950,pdf,2AB99F709564F71A0D2A66035E4213D4,,,D:\\!genesis\\library.nu\\2a\\_43224.2ab99f709564f71a0d2a66035e4213d4.pdf,0,2000-01-01 01:00:00,2016-04-03 02:51:08,557000/2ab99f709564f71a0d2a66035e4213d4-d.jpg,,
19576406,Waggit's Tale,,,,Peter Howe,2008,,,,288,0,English,,,до 2011-01,"0061242616,9780061242618,0061242632,9780061242632,0061242624,9780061242625,9780061910920",,,,,,,,,OL18730278M,,0,,,,,1,,1,3089756,pdf,2A7C56DAADDF60D060F0E7A913585C47,,,D:\\!genesis\\library.nu\\2a\\_43211.2a7c56daaddf60d060f0e7a913585c47.pdf,0,2000-01-01 01:00:00,2016-04-03 02:51:08,557000/2a7c56daaddf60d060f0e7a913585c47-d.jpg,,
19576407,Monday Morning Mentoring: Ten Lessons to Guide You Up the Ladder,,,,David Cottrell,2006,1,,,192,0,English,,,до 2011-01,"0060888229,9780060888220,9780061196294",,,,,650.1,HF5549.12 .C68 2006,,,OL24266904M,,0,,,,,1,,1,997124,pdf,2AFF7A9CEAC3EF54850744FC1F9BD21B,,,D:\\!genesis\\library.nu\\2a\\_43074.2aff7a9ceac3ef54850744fc1f9bd21b.pdf,0,2000-01-01 01:00:00,2016-04-03 02:51:08,557000/2aff7a9ceac3ef54850744fc1f9bd21b-d.jpg,,
19576408,Diamond,,Gambler's Daughter 01,,Sharon Sala,1994,,,,368,0,English,,,до 2011-01,"0061081965,9780061081965,9780061376191",,,,,,,,,OL24268566M,,0,,,,,1,,1,935866,pdf,2A0791E717ADF9669E84F2B2C1ABD7E6,,,D:\\!genesis\\library.nu\\2a\\_42942.2a0791e717adf9669e84f2b2c1abd7e6.pdf,0,2000-01-01 01:00:00,2016-04-03 02:51:08,557000/2a0791e717adf9669e84f2b2c1abd7e6-d.jpg,,
19576409,Kiss From a Rogue,,,,Shirley Karr,2006,,,,384,0,English,,,до 2011-01,"0060834110,9780060834111,9780061336522",,,,,,,,,OL24324667M,,0,,,,,1,,1,2297581,pdf,2AA4364E2978BE7F168F3CB38C082E3E,,,D:\\!genesis\\library.nu\\2a\\_42615.2aa4364e2978be7f168f3cb38c082e3e.pdf,0,2000-01-01 01:00:00,2016-04-03 02:51:08,557000/2aa4364e2978be7f168f3cb38c082e3e-d.jpg,,
19576410,"Faith, Reason and the Existence of God",,,,Denys Turner,2004,,,,292,0,English,,,до 2011-01,"0521841615,9780521841610",,,,,,,,,OL7766194M,,0,,,,,1,,1,1643641,pdf,2ACB82038884263DA3C641989C4EE225,,,D:\\!genesis\\library.nu\\2a\\_4243.2acb82038884263da3c641989c4ee225.pdf,0,2000-01-01 01:00:00,2016-04-03 02:51:08,557000/2acb82038884263da3c641989c4ee225-d.jpg,,
19576411,Mistress of Winter,,,,"Giles Carwyn, Todd Fahnestock",2007,1,,,496,0,English,,,до 2011-01,"006082977X,9780060829773,9780061337901",,,,,,,,,OL24301039M,,0,,,,,1,,1,3148073,pdf,2AD3219CEC3E88251FE1E4D7D88337A7,,,D:\\!genesis\\library.nu\\2a\\_42408.2ad3219cec3e88251fe1e4d7d88337a7.pdf,0,2000-01-01 01:00:00,2016-04-03 02:51:08,557000/2ad3219cec3e88251fe1e4d7d88337a7-d.jpg,,
19576412,The Carpet Wars: From Kabul to Baghdad: A Ten-Year Journey Along Ancient Trade Routes,,,,Christopher Kremmer,2002,1st American ed,,,464,0,English,64,,до 2011-01,"0060097329,9780060097325,9780060098681",,,,,,,,,OL7274986M,,0,,,,,1,,1,3375048,pdf,2A875D3839500804172D035C1AE1E065,,,D:\\!genesis\\library.nu\\2a\\_42098.2a875d3839500804172d035c1ae1e065.pdf,0,2000-01-01 01:00:00,2016-04-03 02:51:08,557000/2a875d3839500804172d035c1ae1e065-d.jpg,,
19576413,More Than Money: True Stories of People Who Learned Life's Ultimate Lesson,,,,Neil Cavuto,2005,,,,320,0,English,183,,до 2011-01,"0060096446,9780060096441,0060096438,9780060096434,9780060780234",,,,,,,,,OL18166394M,,0,,,,,1,,1,1956058,pdf,2A2217EEA3927FA747AFDA6B70CF034C,,,D:\\!genesis\\library.nu\\2a\\_41903.2a2217eea3927fa747afda6b70cf034c.pdf,0,2000-01-01 01:00:00,2016-04-03 02:51:08,557000/2a2217eea3927fa747afda6b70cf034c-d.jpg,,
19576414,Lie-Bäcklund Transformations in Applications (SIAM Studies in Applied and Numerical Methematics),,,,"Robert L. Anderson, Nail H. Ibragimov",1987,,,,134,0,English,183,,до 2011-01,"0898711517,9780898711516",,,,,,,,,OL8271699M,,0,,,,,1,,1,4690905,pdf,2A5F61DC0EC499C3E1ABDA629BCF0A1D,,,D:\\!genesis\\library.nu\\2a\\_41678.2a5f61dc0ec499c3e1abda629bcf0a1d.pdf,0,2000-01-01 01:00:00,2016-04-03 02:51:08,557000/2a5f61dc0ec499c3e1abda629bcf0a1d-d.jpg,,
19576415,Egalitarian Perspectives: Essays in Philosophical Economics,,,,John E. Roemer,1996,,,,372,0,English,305,,до 2011-01,"9780511528293,0521574455,0521450667,0511528299,9780521450669,9780521574457",,,,,330/.01,HB72 .R63 1994,,,OL1415349M,,0,,,,,1,,1,1735541,djvu,2AF0AA512B10E74D57AC8B4A8771CC13,,,D:\\!genesis\\library.nu\\2a\\_41084.2af0aa512b10e74d57ac8b4a8771cc13.djvu,0,2000-01-01 01:00:00,2016-04-03 02:51:08,557000/2af0aa512b10e74d57ac8b4a8771cc13-d.jpg,,
19576416,"Alloimmune Disorders of Pregnancy: Anaemia, Thrombocytopenia and Neutropenia in the Fetus and Newborn",,,,"Andrew Hadley, Peter Soothill",2002,1,,,304,0,English,,,до 2011-01,"9780511527043,0521781205,0521018048,0511527047,9780521018043,9780521781206",,,,,618.3/261,RG572 .A456 2002,,,OL22464271M,,0,,,,,1,,1,1464944,pdf,2A80EBBC8BF544FF4CF90C0BBD2E09B6,,,D:\\!genesis\\library.nu\\2a\\_40613.2a80ebbc8bf544ff4cf90c0bbd2e09b6.pdf,0,2000-01-01 01:00:00,2016-04-03 02:51:08,557000/2a80ebbc8bf544ff4cf90c0bbd2e09b6-d.jpg,,
19576417,Energy for a Warming World: A Plan to Hasten the Demise of Fossil Fuels (Green Energy and Technology),,Green Energy and Technology,,Alan J. Sangster,2010,1st Edition.,,,288,0,English,263,,до 2011-01,"9781848828339,1848828330",,,,,,,10.1007/978-1-84882-834-6,,OL25147427M,,0,,,,,1,,1,2120797,pdf,2ADD8C11EECED33AF15B84FB192BAB4E,,,D:\\!genesis\\library.nu\\2a\\_40501.2add8c11eeced33af15b84fb192bab4e.pdf,0,2000-01-01 01:00:00,2016-04-03 02:51:08,557000/2add8c11eeced33af15b84fb192bab4e-d.jpg,,
19576418,Blackshirts and Reds: Rational Fascism and the Overthrow of Communism,,,,Michael Parenti,2001,,,,165,0,English,,,до 2011-01,"0872863298,9780872863293",,,,,335.43,HX44.5 .P35 1997,,,OL655099M,,0,,,,,1,,0,10882293,pdf,2A465EA2A003644077523F690545F113,,,D:\\!genesis\\library.nu\\2a\\_40101.2a465ea2a003644077523f690545f113.pdf,0,2000-01-01 01:00:00,2016-04-03 02:51:08,557000/2a465ea2a003644077523f690545f113-d.jpg,,
19576419,Understanding Keynes' General Theory,,,,Brendan Sheehan,2009,,,,272,0,English,,,до 2011-01,"0230220134,9780230220133",,,,,330.15/6,HB99.7 .S475 2009,,,OL22501799M,,0,,,,,1,,1,1116271,pdf,2A12C41B40DB9766DA0E8B3AB6A87DF8,,,D:\\!genesis\\library.nu\\2a\\_39707.2a12c41b40db9766da0e8b3ab6a87df8.pdf,0,2000-01-01 01:00:00,2016-04-03 02:51:08,557000/2a12c41b40db9766da0e8b3ab6a87df8-d.jpg,,
19576420,World Politics & ''Parapolitics'' 2006: Computer-assisted Text Analysis of International Media Headlines,,,,"Karl M. Van Meter, Mathilde de Saint Léger",,,,,227,0,English,69,,до 2011-01,"9782296097018,2296097014",,,,,,,,,,,0,,,,,1,,1,7647826,pdf,2AB3FDF2F2D87F8C3579F4216911EF71,,,D:\\!genesis\\library.nu\\2a\\_39510.2ab3fdf2f2d87f8c3579f4216911ef71.pdf,0,2000-01-01 01:00:00,2016-04-03 02:51:08,557000/2ab3fdf2f2d87f8c3579f4216911ef71-g.jpg,,
19576421,Kronecker Products and Matrix Calculus: With Applications (Mathematics and Its Applications),,,,Alexander Graham,1981,,,,130,0,English,113,,до 2011-01,"9780853123910,9780470273005,9780853124276,0853123918,0853124272,0470273003",,,,,512.9/434,QA188 .G698 1981,,,OL4261423M,,0,,,,,1,,1,1352186,djvu,2A4B077C78E3944098953E403ACC7949,,,D:\\!genesis\\library.nu\\2a\\_39508.2a4b077c78e3944098953e403acc7949.djvu,0,2000-01-01 01:00:00,2016-04-03 02:51:08,557000/2a4b077c78e3944098953e403acc7949-g.jpg,,
19576422,"The Aftermath of Feminism: Gender, Culture and Social Change (Culture, Representation and Identity series)",,,,Angela McRobbie,2008,,,,192,0,English,113,,до 2011-01,"0761970622,9780761970620",,,,,,,,,OL10907894M,,0,,,,,1,,1,3726227,pdf,2A748DD6617EE57FB73705B03AA59A05,,,D:\\!genesis\\library.nu\\2a\\_39071.2a748dd6617ee57fb73705b03aa59a05.pdf,0,2000-01-01 01:00:00,2016-04-03 02:51:08,557000/2a748dd6617ee57fb73705b03aa59a05-d.jpg,,
19576423,Monetary and Financial Thought Through Four Decades of SUERF,,,,Jean P Abraham,,,,,230,0,English,305,,до 2011-01,"3902109173,9783902109170",,,,,,,,,,,0,,,,,1,,1,717491,pdf,2A7E35CEB1948076AAEE3821BD09BB97,,,D:\\!genesis\\library.nu\\2a\\_38841.2a7e35ceb1948076aaee3821bd09bb97.pdf,0,2000-01-01 01:00:00,2016-04-03 02:51:08,557000/2a7e35ceb1948076aaee3821bd09bb97-g.jpg,,
19576424,"Yamaha XS750 and 850 Triple, 1976-85 (Owners Workshop Manual)",,,,Haynes,1965,Revised edition,,,197,0,English,,,до 2011-01,"0856967122,9780856967122",,,,,,,,,OL11654206M,,0,,,,,1,,1,29852298,pdf,2A9FC34959416BEDC8ED54644F2E9D75,,,D:\\!genesis\\library.nu\\2a\\_37898.2a9fc34959416bedc8ed54644f2e9d75.pdf,0,2000-01-01 01:00:00,2016-04-03 02:51:08,557000/2a9fc34959416bedc8ed54644f2e9d75-d.jpg,,
19576425,Globalization 2.0: A Roadmap to the Future from Leading Minds,,,,"Raschid Ijioui, Heike Emmerich, Michael Ceyp, Jochen Hagen",2009,1,,,237,0,English,,,до 2011-01,"3642011772,9783642011771",,,,,,,,,,,0,,,,,1,,0,4347408,pdf,2AA9189210BB620A2E69D0A773E8011C,,,D:\\!genesis\\library.nu\\2a\\_37736.2aa9189210bb620a2e69d0a773e8011c.pdf,0,2000-01-01 01:00:00,2016-04-03 02:51:08,557000/2aa9189210bb620a2e69d0a773e8011c-d.jpg,,
19576426,"The Twilight Saga Quartet: Twilight, New Moon, Eclipse And Breaking Dawn",,,,Stephenie Meyer,2008,First Edition,,,2560,0,English,,,до 2011-01,"9780316031844,9781905654697,0316031844,1905654693,1905654219,9781905654215",,B001FA0PIQ,,,,,,,,,0,,,,,1,,1,7457433,pdf,2A44990311AB0965B0F28AB24225BE20,,,D:\\!genesis\\library.nu\\2a\\_37686.2a44990311ab0965b0f28ab24225be20.pdf,0,2000-01-01 01:00:00,2016-04-03 02:51:08,557000/2a44990311ab0965b0f28ab24225be20-d.jpg,,
19576427,Doodsimpel Dead Simple,,,,"Peter James, Jacqueline Caenberghs",,,,,384,0,Dutch,,,до 2011-01,"9789026122248,9789026126345",,,,,,,,,,,0,,,,,1,,1,155737137,pdf,2AFF17B8517E1E85E1DFBCAA6D0C0E64,,,D:\\!genesis\\library.nu\\2a\\_37655.2aff17b8517e1e85e1dfbcaa6d0c0e64.pdf,0,2000-01-01 01:00:00,2016-04-03 02:51:08,557000/2aff17b8517e1e85e1dfbcaa6d0c0e64-g.jpg,,
19576428,"Weber, Habermas and Transformations of the European State: Constitutional, Social, and Supra-National Democracy",,,,John P. McCormick,2007,1St Edition,,,318,0,English,100,,до 2011-01,"0521811406,9780521811408",,,,,,,,,OL10437268M,,0,,,,,1,,1,1619287,pdf,2A170E2EC944DF46B0297F8C0236E348,,,D:\\!genesis\\library.nu\\2a\\_3765.2a170e2ec944df46b0297f8c0236e348.pdf,0,2000-01-01 01:00:00,2016-04-03 02:51:08,557000/2a170e2ec944df46b0297f8c0236e348-d.jpg,,
19576429,I Am Responsible! (The Best Me I Can Be),,,,"David Parker, Sylvia Walker",,,,,16,0,English,,,до 2011-01,"0439628148,9780439628143",,,,,,,,,OL7514323M,,0,,,,,1,,0,2442586,pdf,2AC810343206240A5027A11E34D28AE9,,,D:\\!genesis\\library.nu\\2a\\_37565.2ac810343206240a5027a11e34d28ae9.pdf,0,2000-01-01 01:00:00,2016-04-03 02:51:08,557000/2ac810343206240a5027a11e34d28ae9-g.jpg,,
19576430,Harmonic Analysis,,,,Henry Helson,1983,,,,190,0,English,117,,до 2011-01,"0201127520,9780201127522",,,,,515/.2433,QA403 .H36 1983,,,OL3504110M,,0,,,,,1,,1,1502566,djvu,2A8064430BB75398215F09AB9BA3250D,,,D:\\!genesis\\library.nu\\2a\\_37498.2a8064430bb75398215f09ab9ba3250d.djvu,0,2000-01-01 01:00:00,2016-04-03 02:51:08,557000/2a8064430bb75398215f09ab9ba3250d-g.jpg,,
19576431,Fashioning Jewish Identity in Medieval Western Christendom,,,,Robert Chazan,2004,,,,396,0,English,64,,до 2011-01,"0521831849,9780521831840,9780511063060",,,,,,,,,OL22566852M,,0,,,,,1,,1,1934513,pdf,2A4FE1D1567C9229CD00808E8B8EEFFE,,,D:\\!genesis\\library.nu\\2a\\_3701.2a4fe1d1567c9229cd00808e8b8eeffe.pdf,0,2000-01-01 01:00:00,2016-04-03 02:51:08,557000/2a4fe1d1567c9229cd00808e8b8eeffe-d.jpg,,
19576432,"Religion and the Workplace: Pluralism, Spirituality, Leadership",,,,Douglas A. Hicks,2003,,,,232,0,English,205,,до 2011-01,"0521529603,9780521529600,0521822408,9780521822404,9780511061998",,,,,,,,,OL22554663M,,0,,,,,1,,1,1821420,pdf,2ADE5639C0040A814A3C77158D649C51,,,D:\\!genesis\\library.nu\\2a\\_3685.2ade5639c0040a814a3c77158d649c51.pdf,0,2000-01-01 01:00:00,2016-04-03 02:51:08,557000/2ade5639c0040a814a3c77158d649c51-d.jpg,,
19576433,The Future of NATO Expansion: Four Case Studies,,,,Zoltan Barany,2003,,,,278,0,English,183,,до 2011-01,"052182169X,9780521821698,9780511061912",,,,,,,,,OL22549041M,,0,,,,,1,,1,1453514,pdf,2A4594B9E643E55E93F18F03EB670EFA,,,D:\\!genesis\\library.nu\\2a\\_3674.2a4594b9e643e55e93f18f03eb670efa.pdf,0,2000-01-01 01:00:00,2016-04-03 02:51:08,557000/2a4594b9e643e55e93f18f03eb670efa-d.jpg,,
19576434,Foo Fighters (Transcribed Scores),,,,Foo Fighters,1998,,,,128,0,English,,,до 2011-01,"0793592356,9780793592357",,,,,,,,,OL11200818M,,0,,,,,1,,0,6798586,pdf,2AFB4AE9E7808DDD7CCA3C41AA0DC8B9,,,D:\\!genesis\\library.nu\\2a\\_36235.2afb4ae9e7808ddd7cca3c41aa0dc8b9.pdf,0,2000-01-01 01:00:00,2016-04-03 02:51:08,557000/2afb4ae9e7808ddd7cca3c41aa0dc8b9-d.jpg,,
19576435,The World As Will And Idea Vol. I  Seventh Edition,,,,Arthur Schopenhauer (Translated from the German by R. B. Haldane and J. Kemp),2008,,,,572,0,English,,,до 2011-01,"1443731897,9781443731898",,,,,,,,,,,0,,,,,1,,1,48027865,pdf,2A53C124C0AF0975F3D499E749D4F1FB,,,D:\\!genesis\\library.nu\\2a\\_35781.2a53c124c0af0975f3d499e749d4f1fb.pdf,0,2000-01-01 01:00:00,2016-04-03 02:51:08,557000/2a53c124c0af0975f3d499e749d4f1fb-d.jpg,,
19576436,"Agency And Impersonality: Their Linguistic And Cultural Manifestations (Studies in Language Companion Series, Volume 78)",,,,Mutsumi Yamamoto,2006,,,,152,0,English,314,,до 2011-01,"9027230889,9789027230881,9789027293282",,,,,,,,,OL9095094M,,0,,,,,1,,1,902415,pdf,2AC4D628F1287C746872AA2D132E8FDF,,,D:\\!genesis\\library.nu\\2a\\_35485.2ac4d628f1287c746872aa2d132e8fdf.pdf,0,2000-01-01 01:00:00,2016-04-03 02:51:08,557000/2ac4d628f1287c746872aa2d132e8fdf-d.jpg,,
19576437,Australian bushcraft : a serious guide to survival and camping,,,,Richard Graves ; illustrated by Richard Gregory.,1984,,,,319,0,English,293,,до 2011-01,"0909824355,9780909824365,0909824363,9780909824358",,,,,,,,,,,0,,,,,1,,1,8921734,pdf,2A56EBA529D9EAA4F6E7B008223139A5,,,D:\\!genesis\\library.nu\\2a\\_35035.2a56eba529d9eaa4f6e7b008223139a5.pdf,0,2000-01-01 01:00:00,2016-04-03 02:51:08,557000/2a56eba529d9eaa4f6e7b008223139a5-g.jpg,,
19576438,Après la finitude : Essai sur la nécessité de la contingence,,,,Quentin Meillassoux,2006,,,,178,0,French,,,до 2011-01,"2020847426,9782020847421",,,,,194,BD416 .M45 2006,,,OL19488112M,,0,,,,,1,,0,12833122,pdf,2A1E9C09ED103CA5FC3E0D9893470361,,,D:\\!genesis\\library.nu\\2a\\_35029.2a1e9c09ed103ca5fc3e0d9893470361.pdf,0,2000-01-01 01:00:00,2016-04-03 02:51:08,557000/2a1e9c09ed103ca5fc3e0d9893470361-d.jpg,,
19576439,History and the Supernatural in Medieval England (Cambridge Studies in Medieval Life and Thought: Fourth Series),,,,C. S. Watkins,2008,1,,,292,0,English,64,,до 2011-01,"0521802555,9780521802550,9780511378706",,,,,,,,,OL10437239M,,0,,,,,1,,1,1791788,pdf,2A1DED6D56077A1B6A12B8DE9192DCF3,,,D:\\!genesis\\library.nu\\2a\\_3473.2a1ded6d56077a1b6a12b8de9192dcf3.pdf,0,2000-01-01 01:00:00,2016-04-03 02:51:08,557000/2a1ded6d56077a1b6a12b8de9192dcf3-d.jpg,,
19576440,Die kalte Küche,,,,"Hans Szameitat, Reinhold Metz",2005,,,,408,0,German,,,до 2011-01,"3805704879,9783805704878",,,,,,,,,,,0,,,,,1,,0,21747994,djvu,2AD4D24F5A5CBECF4FC3F388FC8481AB,68a39887330a218608c8e685af95a5d2,no,D:\\!genesis\\library.nu\\2a\\_34663.2ad4d24f5a5cbecf4fc3f388fc8481ab.djvu,0,2000-01-01 01:00:00,2016-04-03 02:51:08,557000/2ad4d24f5a5cbecf4fc3f388fc8481ab-d.jpg,,
19576441,Who Has a Pet?,,,,"Kristi T. Butler, Eric Camden",2006,,,,12,0,English,,,до 2011-01,"0153640677,9780153640674",,,,,,,,,,,0,,,,,1,,1,1398061,pdf,2A93CAFD9B5BE0652CCF067ED94C69F3,,,D:\\!genesis\\library.nu\\2a\\_34149.2a93cafd9b5be0652ccf067ed94c69f3.pdf,0,2000-01-01 01:00:00,2016-04-03 02:51:08,557000/2a93cafd9b5be0652ccf067ed94c69f3-g.jpg,,
19576442,Our Planet: Answers to Questions About Our Wonderful World (Know How Know Why),,,,Gordon Volke,2007,,,,48,0,English,,,до 2011-01,"1600442617,9781600442612",,,,,,,,,OL12504663M,,0,,,,,1,,1,7146251,pdf,2AC588D9DCF67385B0E359CB39F090AA,,,D:\\!genesis\\library.nu\\2a\\_34086.2ac588d9dcf67385b0e359cb39f090aa.pdf,0,2000-01-01 01:00:00,2016-04-03 02:51:08,557000/2ac588d9dcf67385b0e359cb39f090aa-d.jpg,,
19576443,"Content, Consciousness, and Perception: Essays in Contemporary Philosophy of Mind",,,,Ezio Di Nucci and Conor McHugh,2008,new,,,222,0,English,195,,до 2011-01,"1847187757,9781847187758",,,,,,,,,,,0,,,,,1,,1,1118428,pdf,2A666D668A9131202AC32EAAB4C721EB,,,D:\\!genesis\\library.nu\\2a\\_33679.2a666d668a9131202ac32eaab4c721eb.pdf,0,2000-01-01 01:00:00,2016-04-03 02:51:08,557000/2a666d668a9131202ac32eaab4c721eb-d.jpg,,
19576444,How to Prove it: A Brief Guide for Teaching Proof to Year 1 Mathematics Undergraduate,,,,"Elena Nardi, Paola Iannone",2006,,,,64,0,English,113,,до 2011-01,"095399838X,9780953998388",,,,,,,,,,,0,,,,,1,,1,1138760,pdf,2A123F178585B05674086B4199342C32,,,D:\\!genesis\\library.nu\\2a\\_32291.2a123f178585b05674086b4199342c32.pdf,0,2000-01-01 01:00:00,2016-04-03 02:51:08,557000/2a123f178585b05674086b4199342c32-g.jpg,,
19576445,Byzantinoturcica: Die byzantinischen Quellen der Geschichte der Türkvölker,2 vols.,,,Gyula Moravcsik,1983,1st,Brill,Leiden,730,0,German,64,,до 2011-01,"9789004071322,9004071326",,B004K85G34,,,,,,,,,0,,,,,1,,0,163293144,pdf,2A51D1D8ADA6DD86D12FE0B8467D51AA,,,D:/!genesis/library.nu/2a/_32283.2a51d1d8ada6dd86d12fe0b8467d51aa.pdf,0,2000-01-01 01:00:00,2016-04-03 02:51:08,557000/2a51d1d8ada6dd86d12fe0b8467d51aa-g.jpg,,
19576446,"Introduction to Partial Differential Equations, 2nd Edition",,,,Gerald B. Folland,1995,2 Sub,,,352,0,English,125,,до 2011-01,"9780691043616,0691043612",,,,,515/.353,QA374 .F54 1995,,,OL796413M,,0,,,,,1,,1,4144936,djvu,2A949E835AB525C6085BFAC1DDBE0605,,,D:\\!genesis\\library.nu\\2a\\_32063.2a949e835ab525c6085bfac1ddbe0605.djvu,0,2000-01-01 01:00:00,2016-04-03 02:51:08,557000/2a949e835ab525c6085bfac1ddbe0605-d.jpg,,
19576447,La Argentina informal: Realidad de la vida economica,,,,Adrian Guissarri,1989,1a ed. en offset,,,318,0,Spanish,305,,до 2011-01,"9500408996,9789500408998",,,,,,,,,OL1810110M,,0,,,,,1,,1,2802321,pdf,2AF9C09616943B43C30A2F0929889953,,,D:\\!genesis\\library.nu\\2a\\_31586.2af9c09616943b43c30a2f0929889953.pdf,0,2000-01-01 01:00:00,2016-04-03 02:51:08,557000/2af9c09616943b43c30a2f0929889953-g.jpg,,
19576448,Thinking about Political Psychology (Cambridge Studies in Public Opinion and Political Psychology),,,,James H. Kuklinski,2002,,,,368,0,English,183,,до 2011-01,"0521593778,9780521593779,9780511065927",,,,,320/.01/9,JA74.5 .T43 2002,,,OL22466158M,,0,,,,,1,,1,1648086,pdf,2A984B6B81C732E5D0F7596339A4CD7B,,,D:\\!genesis\\library.nu\\2a\\_3158.2a984b6b81c732e5d0f7596339a4cd7b.pdf,0,2000-01-01 01:00:00,2016-04-03 02:51:08,557000/2a984b6b81c732e5d0f7596339a4cd7b-d.jpg,,
19576449,Sword Beach: 3rd British Infantry Division's Battle for the Normandy Beachhead: 6 June-10 June 1944 (Battleground Europe) (Battleground Europe. Normandy),,,,Tim Kilvert-Jones,2002,,,,192,0,English,,,до 2011-01,"0850526736,9780850526738",,,,,940.542142,D756.5.N6 K54 2001,,,OL3623287M,,0,,,,,1,,1,88714478,pdf,2AEB022D9E320150C17EE57D9837BA7F,,,D:\\!genesis\\library.nu\\2a\\_31448.2aeb022d9e320150c17ee57d9837ba7f.pdf,0,2000-01-01 01:00:00,2016-04-03 02:51:08,557000/2aeb022d9e320150c17ee57d9837ba7f-d.jpg,,
19576450,The Cambridge Companion to Shakespearean Comedy (Cambridge Companions to Literature),,,,Alexander Leggatt,2002,,,,256,0,English,,,до 2011-01,"0521779421,9780521779425,0521770440,9780521770446,9780511040740",,,,,822.3/3,PR2981 .C36 2002,,,OL3943972M,,0,,,,,1,,1,954249,pdf,2A91D7FD9584483E38E0A488E65CB318,,,D:\\!genesis\\library.nu\\2a\\_3062.2a91d7fd9584483e38e0a488e65cb318.pdf,0,2000-01-01 01:00:00,2016-04-03 02:51:08,557000/2a91d7fd9584483e38e0a488e65cb318-d.jpg,,
19576451,Monsters In The Woods: Backpacking With Children,,,,Tim Hauserman,2007,,,,152,0,English,,,до 2011-01,"0874177111,9780874177114,9780874177169",,,,,796.51083,GV199.6 .H38 2007,,,OL17171662M,,0,,,,,1,,1,867965,pdf,2A04EDD2DE3CE9B4ACBBD35D7F697F04,,,D:\\!genesis\\library.nu\\2a\\_30463.2a04edd2de3ce9b4acbbd35d7f697f04.pdf,0,2000-01-01 01:00:00,2016-04-03 02:51:08,557000/2a04edd2de3ce9b4acbbd35d7f697f04-d.jpg,,
19576452,81 Challenges Smart Managers Face,,,,Tim Connor,2007,,,,256,0,English,,,до 2011-01,"1402209029,9781402209024,9781402216855",,,,,658.4,HF5549 .C7192 2007,,,OL17171446M,,0,,,,,1,,1,824615,pdf,2AE0BDD0C7CB8C83E64151F4A972D071,,,D:\\!genesis\\library.nu\\2a\\_30427.2ae0bdd0c7cb8c83e64151f4a972d071.pdf,0,2000-01-01 01:00:00,2016-04-03 02:51:08,557000/2ae0bdd0c7cb8c83e64151f4a972d071-d.jpg,,
19576453,Eherecht und Familiengut in Antike und Mittelalter (Schriften des Historischen Kollegs),,,,Dieter Simon,1992,,,,168,0,German,64,,до 2011-01,"9783486558852,3486558854",,,,,"346.3804,343.8064",KJA2243 .A5 1989,,,OL1458512M,,0,,,,,1,,0,7646110,pdf,2AB2F1F6951E74178B31EE9D19FBB448,,,D:\\!genesis\\library.nu\\2a\\_30000.2ab2f1f6951e74178b31ee9d19fbb448.pdf,0,2000-01-01 01:00:00,2016-04-03 02:51:08,557000/2ab2f1f6951e74178b31ee9d19fbb448-d.jpg,,
19576454,The Mystery of Orcival,,,,Emile Gaboriau,2005,,,,388,0,English,,,до 2011-01,1417903422,,,,,,,,,OL9627496M,,0,,,,,1,,1,3387691,pdf,2AD97B958337286F6C6777039945BF98,,,D:\\!genesis\\library.nu\\2a\\_29200.2ad97b958337286f6c6777039945bf98.pdf,0,2000-01-01 01:00:00,2016-04-03 02:51:08,557000/2ad97b958337286f6c6777039945bf98-d.jpg,,
19576455,The Liberal Moment,,,,Robert Latham,1997,0,,,296,0,English,,,до 2011-01,0231107579,,,,,,,,,,,0,,,,,1,,0,32326535,pdf,2A1B62894E017FF97D3B61D3F577CA19,,,D:\\!genesis\\library.nu\\2a\\_28977.2a1b62894e017ff97d3b61d3f577ca19.pdf,0,2000-01-01 01:00:00,2016-04-03 02:51:08,557000/2a1b62894e017ff97d3b61d3f577ca19-d.jpg,,
19576456,Constraint Management in Manufacturing: Optimising the Supply Chain,,,,Ted Hutchin,2002,1,CRC Press,,192,0,English,,,до 2011-01,"0415285194,9780415285193",,,,,658.5,TS155 .H867 2002,,,OL3570502M,,0,,,,,,,1,4935950,pdf,2A22AA6F8FB3F77CA655C9298981CEBC,,,D:\\!genesis\\library.nu\\2a\\_288260.2a22aa6f8fb3f77ca655c9298981cebc.pdf,0,2000-01-01 01:00:00,2016-04-03 02:51:08,557000/2a22aa6f8fb3f77ca655c9298981cebc-d.jpg,,
19576457,Climate Resilient Cities: A Primer on Reducing Vulnerabilities to Disasters,,,,"Neeraj Prasad, Federica Ranghieri, Fatima Shah",2009,Pap/Cdr,World Bank Publications,,186,0,English,36,,до 2011-01,"0821377663,9780821377666",,,,,363.34/9216091732,HD49 .C59 2008,10.1596/978-0-8213-7766-6,,OL22551757M,,0,,,,,,,1,7789669,pdf,2A841F121E6DCC37C6DF3F91C271D0C9,,,D:\\!genesis\\library.nu\\2a\\_288217.2a841f121e6dcc37c6df3f91c271d0c9.pdf,0,2000-01-01 01:00:00,2016-04-03 02:51:08,557000/2a841f121e6dcc37c6df3f91c271d0c9-d.jpg,,
19576458,Elementary Particles: Building Blocks of Matter,,,,Harald Fritzsch,2005,,World Scientific Publishing Company,,118,0,English,,,до 2011-01,"9812561412,9789812561411",,,,,539.7/2,QC793.26 .F7513 2005,,,OL3422499M,,0,,,,,,,1,1436095,pdf,2AE6B0A642799E2DD0160DA3100AE42F,,,D:\\!genesis\\library.nu\\2a\\_287712.2ae6b0a642799e2dd0160da3100ae42f.pdf,0,2000-01-01 01:00:00,2016-04-03 02:51:08,557000/2ae6b0a642799e2dd0160da3100ae42f-d.jpg,,
19576459,Condition Monitoring and Assessment of Power Transformers Using Computational Intelligence,,Power Systems,,"W.H. Tang, Q.H. Wu",2011,1st Edition.,Springer,,218,0,English,120,,до 2011-01,"0857290517,9780857290519,9780857290526",,,,,621.314,TK1005 .T26 2011,10.1007/978-0-85729-052-6,,OL25161822M,,0,,,,,,,1,4656294,pdf,2A39E6C8545049031084C17304A31109,,,D:\\!genesis\\library.nu\\2a\\_287698.2a39e6c8545049031084c17304a31109.pdf,0,2000-01-01 01:00:00,2016-04-03 02:51:08,557000/2a39e6c8545049031084c17304a31109-d.jpg,,
19576460,Gedächtnistraining,,,,"Roland R. Geisselhart, Christiane Hofmann, Manuela Bürger",2010,,Haufe,,258,0,German,,,до 2011-01,"344810146X,9783448101461",,,,,,,,,,,0,,,,,,,1,38548418,pdf,2AD42AD92BAA6BA883D46DDCAAE2F58B,,,D:\\!genesis\\library.nu\\2a\\_287617.2ad42ad92baa6ba883d46ddcaae2f58b.pdf,0,2000-01-01 01:00:00,2016-04-03 02:51:08,557000/2ad42ad92baa6ba883d46ddcaae2f58b-g.jpg,,
19576461,In Another Country,,,,Priya Joshi,2002,,,,368,0,English,,,до 2011-01,"9780231125840,9780231125857,9780231500906,0231125844,0231125852",,,,,823/.809954,PR9492.2 .J68 2002,,,OL3952269M,,0,,,,,1,,1,1277203,pdf,2AD29EA5327DEF423480D36D41E1430C,,,D:\\!genesis\\library.nu\\2a\\_28742.2ad29ea5327def423480d36d41e1430c.pdf,0,2000-01-01 01:00:00,2016-04-03 02:51:08,557000/2ad29ea5327def423480d36d41e1430c-d.jpg,,
19576462,Improve Your English: English in the Workplace (Book): Hear and see how English is actually spoken--from real-life speakers,,,,"Stephen E. Brown, Ceil Lucas",2009,1,McGraw-Hill,,143,0,English,314,,до 2011-01,"0071497188,9780071497183",,,,,428.34,PE1115 .B76 2009,10.1036/0071497188,,OL23040660M,,0,,,,,,,1,4151593,pdf,2A909C367FDF30381F5522C9F29EC84A,,,D:\\!genesis\\library.nu\\2a\\_287374.2a909c367fdf30381f5522c9f29ec84a.pdf,0,2000-01-01 01:00:00,2016-04-03 02:51:08,557000/2a909c367fdf30381f5522c9f29ec84a-d.jpg,,
19576463,"Jahrbuch der österreichischen Byzantinistik, Band 60 2010",,Jahrbuch der Österreichischen Byzantinistik,,Ewald Kislinger,2010,,Verlag der österreichischen Akademie der Wissenschaften,,300,0,German,,,до 2011-01,"3700169132,9783700169130,9783700170341",,,,,,,,,,,0,,,,,,,1,4567367,pdf,2A4F79DAD8BFAA0A694BFB155289C19E,,,D:\\!genesis\\library.nu\\2a\\_286909.2a4f79dad8bfaa0a694bfb155289c19e.pdf,0,2000-01-01 01:00:00,2016-04-03 02:51:08,557000/2a4f79dad8bfaa0a694bfb155289c19e-g.jpg,,
19576464,Homerische Personennamen. Sprachwissenschaftliche und historische Klassifikation,,,,Hans von Kamptz,1982,,Vandenhoeck & Ruprecht,,410,0,German,64,,до 2011-01,"3525257414,9783525257418",,,,,883/.01,PA4177.V6 K35 1982,,,OL3221439M,,0,,,,,,,1,14869025,pdf,2AEDD1640F193E2334AEE49BDF6A7119,,,D:\\!genesis\\library.nu\\2a\\_286872.2aedd1640f193e2334aee49bdf6a7119.pdf,0,2000-01-01 01:00:00,2016-04-03 02:51:08,557000/2aedd1640f193e2334aee49bdf6a7119-d.jpg,,
19576465,"Inked Magazine, 2009 1, January",,,,(editorial staff),,,,,108,0,English,181,,до 2011-01,,,,,,,,,,,periodic,0,,,,,,,1,54626353,pdf,2AA8B3DFAA764ECE2E12D6F5A9CB6E37,,ban,D:\\!genesis\\library.nu\\2a\\_286551.2aa8b3dfaa764ece2e12d6f5a9cb6e37.pdf,0,2000-01-01 01:00:00,2016-04-03 02:51:08,557000/2aa8b3dfaa764ece2e12d6f5a9cb6e37-g.jpg,,
19576466,On the Plurality of Worlds,,,,David Lewis,1986,First Edition,Basil Blackwell,,284,0,English,,,до 2011-01,"0631139931,9780631139935,063113994X,9780631139942",,,,,111,BD655 .L48 1986,,,OL2534358M,,0,,,,,,,1,2516705,djvu,2A3942C6264C2C3EC829C9826399A120,,,D:\\!genesis\\library.nu\\2a\\_285924.2a3942c6264c2c3ec829c9826399a120.djvu,0,2000-01-01 01:00:00,2016-04-03 02:51:08,557000/2a3942c6264c2c3ec829c9826399a120-g.jpg,,
19576467,Arithmetic of Algebraic Curves (Monographs in Contemporary Mathematics),,,,Serguei A. Stepanov,1994,1,,,440,0,English,113,,до 2011-01,0306110369,,,,,,,,,,,0,,,,,1,,0,23859123,pdf,2AE38C91E5F911CD3A5F6ED5E2B3F21D,,,D:\\!genesis\\library.nu\\2a\\_28551.2ae38c91e5f911cd3a5f6ed5e2b3f21d.pdf,0,2000-01-01 01:00:00,2016-04-03 02:51:08,557000/2ae38c91e5f911cd3a5f6ed5e2b3f21d-d.jpg,,
19576468,Nature Biotechnology 01 2011 (magazine journal; January 2011),,,,Andrew Marshall,,,,,105,0,English,17,,до 2011-01,,,,,,,,,,,periodic,0,,,,,,,1,11415897,pdf,2AB6438AEE1E70020539CC1AFB183415,,ban,D:\\!genesis\\library.nu\\2a\\_285250.2ab6438aee1e70020539cc1afb183415.pdf,0,2000-01-01 01:00:00,2016-04-03 02:51:08,557000/2ab6438aee1e70020539cc1afb183415-g.jpg,,
19576469,We Mean Business: Elementary Course in Business English: Workbook,,,,Susan Norman,1993,Rev Ed,,,48,0,English,314,,до 2011-01,"0582225825,9780582225824",,,,,,,,,OL22788152M,,0,,,,,1,,0,1006307,pdf,2A73840D82DADB5E295E55EE6C73BCDA,,,D:\\!genesis\\library.nu\\2a\\_28500.2a73840d82dadb5e295e55ee6c73bcda.pdf,0,2000-01-01 01:00:00,2016-04-03 02:51:08,557000/2a73840d82dadb5e295e55ee6c73bcda-g.jpg,,
19576470,"The Menace of the Herd, or Procrustes at Large",,,,Erik Ritter von Kuehnelt-Leddihn (under nickname Francis Stuart Campbell),2007,,Ludwig von Mises Institute,,,0,English,,,до 2011-01,,,B000XGBYZ6,,,,,,,,,0,,,,,,,0,22422611,pdf,2A081A081B057B710AC5D9A0AD9F3381,,,D:\\!genesis\\library.nu\\2a\\_284633.2a081a081b057b710ac5d9a0ad9f3381.pdf,0,2000-01-01 01:00:00,2016-04-03 02:51:08,557000/2a081a081b057b710ac5d9a0ad9f3381-d.jpg,,
19576471,Dark Paradise: A History of Opiate Addiction in America,,,,David T. Courtwright,2001,Enlarged,Harvard University Press,,346,0,English,64,,до 2011-01,"0674005856,9780674005853",,,,,362.29/3/0973,HV5816 .C648 2001,,,OL24745807M,,0,,,,,,,1,1404011,pdf,2ABE588A84B8A39B28AC44A686678ECD,,,D:\\!genesis\\library.nu\\2a\\_284516.2abe588a84b8a39b28ac44a686678ecd.pdf,0,2000-01-01 01:00:00,2016-04-03 02:51:08,557000/2abe588a84b8a39b28ac44a686678ecd-d.jpg,,
19576472,Philosophy of Science: Contemporary Readings,,Routledge Contemporary Readings in Philosophy,,"Yuri Balashov, Alex Rosenberg",2002,1,Routledge,,531,0,English,195,,до 2011-01,"0415257816,9780415257817,0415257824,9780415257824",,,,,,,,,OL18168586M,,300,,,,,,,1,4512485,djvu,2AA7BC12B19204C763740041111FC49E,,,D:\\!genesis\\library.nu\\2a\\_284451.2aa7bc12b19204c763740041111fc49e.djvu,0,2000-01-01 01:00:00,2016-04-03 02:51:08,557000/2aa7bc12b19204c763740041111fc49e-d.jpg,,
19576473,Categorical Data Analysis with SAS and SPSS Applications,,,,H. Bayo Lawal,2003,Har/Cdr,Psychology Press,,576,0,English,137,,до 2011-01,"0805846050,9780805846058",,,,,,,,,OL7938014M,,0,,,,,,,1,31086693,pdf,2AC3042F9B245EFFCA8BE30EA3B0750B,,,D:\\!genesis\\library.nu\\2a\\_284304.2ac3042f9b245effca8be30ea3b0750b.pdf,0,2000-01-01 01:00:00,2016-04-03 02:51:08,557000/2ac3042f9b245effca8be30ea3b0750b-d.jpg,,
19576474,Los Afroandinos de los Siglos XVI al XX,,,,Susana Finocchietti,2004,,UNESCO,,248,0,Spanish,,,до 2011-01,"9972841065,9789972841064",,,,,,,,,,,0,,,,,,,1,2329460,pdf,2A0F48893167AD09E103306340AB582D,,,D:\\!genesis\\library.nu\\2a\\_284273.2a0f48893167ad09e103306340ab582d.pdf,0,2000-01-01 01:00:00,2016-04-03 02:51:08,557000/2a0f48893167ad09e103306340ab582d-g.jpg,,
19576475,Tacitus vol. 2,,,,Ronald Syme,1958,,Clarendon Press,,398,0,English,,,до 2011-01,,,,,,,,,,,,0,,,,,,,0,17691933,pdf,2A9CD5475B27D519D746692DAFE5EFC7,,,D:\\!genesis\\library.nu\\2a\\_284068.2a9cd5475b27d519d746692dafe5efc7.pdf,0,2000-01-01 01:00:00,2016-04-03 02:51:08,557000/2a9cd5475b27d519d746692dafe5efc7-g.jpg,,
19576476,Starting to Teach in the Secondary School (Learning to Teach Subjects in the Secondary School),,Learning to Teach Subjects in the Secondary School,,"Susan Capel, Marilyn Leask, Tony Turner, Ruth Heilbronn",2005,2,Routledge,,309,0,English,183,,до 2011-01,"0415338174,9780415338172,0203338944,9780203338940",,,,,373.1102,,,,OL18807294M,,0,,,,,,,1,1244954,pdf,2A0759369440F5A18170325167FD8636,,,D:\\!genesis\\library.nu\\2a\\_282881.2a0759369440f5a18170325167fd8636.pdf,0,2000-01-01 01:00:00,2016-04-03 02:51:08,557000/2a0759369440f5a18170325167fd8636-d.jpg,,
19576477,"Philosophy, Politics, Autonomy: Essays in Political Philosophy (Odeon)",,,,Cornelius Castoriadis,1991,,"Oxford University Press, USA",,145,0,English,192,,до 2011-01,"0195069633,9780195069631",,,,,320/.01,JA71 .C33 1992,,,OL1531470M,,0,,,,,,,1,1112753,pdf,2A2A2C9001B37FA5BC421D37E343D752,,,D:\\!genesis\\library.nu\\2a\\_282332.2a2a2c9001b37fa5bc421d37e343d752.pdf,0,2000-01-01 01:00:00,2016-04-03 02:51:08,557000/2a2a2c9001b37fa5bc421d37e343d752-d.jpg,,
19576478,Building a Values-Driven Organization: A Whole System Approach to Cultural Transformation,,,,Richard Barrett,2006,1,Butterworth-Heinemann,,280,0,English,,,до 2011-01,"0750679743,9780750679749",,,,,658.4/08,HD60 .B378 2006,,,OL3416127M,,0,,,,,,,1,1066314,pdf,2A632C8AC0907D98D98E115D2D9B5728,,,D:\\!genesis\\library.nu\\2a\\_281789.2a632c8ac0907d98d98e115d2d9b5728.pdf,0,2000-01-01 01:00:00,2016-04-03 02:51:08,557000/2a632c8ac0907d98d98e115d2d9b5728-d.jpg,,
19576479,Collected Papers on Wave Mechanics (Second Edition),,,,Erwin Schrödinger,1928,,Blackie and Son Limited,,160,0,English,271,,до 2011-01,,,,,,,,,,,,600,,,,,,,1,3903278,djvu,2A26CF446AE98C88095BBED51EE107E6,,,D:\\!genesis\\library.nu\\2a\\_281436.2a26cf446ae98c88095bbed51ee107e6.djvu,0,2000-01-01 01:00:00,2016-04-03 02:51:08,557000/2a26cf446ae98c88095bbed51ee107e6-g.jpg,,
19576480,Classical Topology and Combinatorial Group Theory: v. 72 (Graduate Texts in Mathematics),,,,John Stillwell,1995,2°,Springer,,350,0,English,121,,до 2011-01,"0387979700,9780387979700,3540979700,9783540979708",,,,,514,QA611 .S84 1993,,,OL1735621M,,0,,,,,,,1,6373942,pdf,2AC27C1C7C49B5D26AB4C3491FA14633,,,D:\\!genesis\\library.nu\\2a\\_281408.2ac27c1c7c49b5d26ab4c3491fa14633.pdf,0,2000-01-01 01:00:00,2016-04-03 02:51:08,557000/2ac27c1c7c49b5d26ab4c3491fa14633-d.jpg,,
19576481,"El Hombre Bicentenario y otros Cuentos (Grandes Bestsellers, 3)",,,,Isaac Asimov,1998,,"Ediciones B, S.A.",,477,0,Spanish,,,до 2011-01,"9567510113,9789567510115",,,,,,,,,,,0,,,,,,,1,214746,pdf,2AE82AAE24E614748E3E65E8EAF11046,,,D:\\!genesis\\library.nu\\2a\\_281332.2ae82aae24e614748e3e65e8eaf11046.pdf,0,2000-01-01 01:00:00,2016-04-03 02:51:08,557000/2ae82aae24e614748e3e65e8eaf11046-d.jpg,,
19576482,Silent Scream,,,,Karen Rose,,,Grand Central Publishing,,403,0,English,,,до 2011-01,"9780446563574,0446563579",,,,,,,,,,,0,,,,,,,1,625196,epub,2A21FA78E38EC78CCB31B643060EEFCD,,,D:\\!genesis\\library.nu\\2a\\_281264.2a21fa78e38ec78ccb31b643060eefcd.epub,0,2000-01-01 01:00:00,2016-04-03 02:51:08,557000/2A21FA78E38EC78CCB31B643060EEFCD-g.jpg,,
19576483,Algal Culturing Techniques,,,,Robert A. Andersen,2005,1,Academic Press,,596,0,English,,,до 2011-01,"0120884267,9780120884261",,,,,579.8,QK565.2 .A44 2005,,,OL22617740M,,0,,,,,,,1,11913488,pdf,2A01210DB3486838BC850BC5DA7F2A9A,,,D:\\!genesis\\library.nu\\2a\\_280972.2a01210db3486838bc850bc5da7f2a9a.pdf,0,2000-01-01 01:00:00,2016-04-03 02:51:08,557000/2a01210db3486838bc850bc5da7f2a9a-d.jpg,,
19576484,The Penguin Book of Very Short Stories,,,,Jake Allsop,1989,,Penguin Books Ltd (Penguin Group),,113,0,English,108,,до 2011-01,"0140809511,9780140809510",,,,,,,,,OL10098093M,,0,,,,,,,0,1858830,pdf,2AB6AAC273A57D2DEC1EAF6CF72099E5,,,D:\\!genesis\\library.nu\\2a\\_280575.2ab6aac273a57d2dec1eaf6cf72099e5.pdf,0,2000-01-01 01:00:00,2016-04-03 02:51:08,557000/2ab6aac273a57d2dec1eaf6cf72099e5-d.jpg,,
19576485,"Making Comics: Storytelling Secrets of Comics, Manga and Graphic Novels",,,,Scott Mccloud,2006,,Harper Paperbacks,,264,0,English,,,до 2011-01,"0060780940,9780060780944",,,,,,,,,OL7281604M,,0,,,,,,,0,30982234,pdf,2A49FF5A214EECFEE4C5DF15CE385C96,,,D:\\!genesis\\library.nu\\2a\\_280451.2a49ff5a214eecfee4c5df15ce385c96.pdf,0,2000-01-01 01:00:00,2016-04-03 02:51:08,557000/2a49ff5a214eecfee4c5df15ce385c96-d.jpg,,
19576486,"Territories of Profit: Communications, Capitalist Development, and the Innovative Enterprises of G. F. Swift and Dell Computer (Innovation and Technology in the World Economy)",,Innovation and Technology in the World Economy,,Gary Fields,2003,1,Stanford Business Books,,304,0,English,69,,до 2011-01,"0804747229,9780804747226",,,,,,,,,OL17106640M,,0,,,,,,,1,5648816,pdf,2A480D9746340AD0510C0FEE7C141BD4,,,D:\\!genesis\\library.nu\\2a\\_280400.2a480d9746340ad0510c0fee7c141bd4.pdf,0,2000-01-01 01:00:00,2016-04-03 02:51:08,557000/2a480d9746340ad0510c0fee7c141bd4-d.jpg,,
19576487,مقدمة في نظرية الحلقات والحقول,,,,صفوان عويرة,,,مكتبة المتنبي,,415,0,Arabic,,,до 2011-01,,,,,,,,,,,,0,,,,,,,0,7724668,pdf,2A2CE4E14BFC193F314FE3F951E52E14,,,D:\\!genesis\\library.nu\\2a\\_280163.2a2ce4e14bfc193f314fe3f951e52e14.pdf,0,2000-01-01 01:00:00,2016-04-03 02:51:08,557000/2a2ce4e14bfc193f314fe3f951e52e14-g.jpg,,
19576488,The Beetle,,,,Keith Seume,1997,,,,160,0,English,,,до 2011-01,"1858334381,9781858334387",,,,,,,,,OL9542581M,,0,,,,,1,,0,88739689,pdf,2A09E3872D7B532F277D17862DB049C1,,,D:\\!genesis\\library.nu\\2a\\_28015.2a09e3872d7b532f277d17862db049c1.pdf,0,2000-01-01 01:00:00,2016-04-03 02:51:08,557000/2a09e3872d7b532f277d17862db049c1-d.jpg,,
19576489,World's Trickiest Puzzles,,,,Charles Barry Townsend,1995,,,,128,0,English,,,до 2011-01,9780806909646,,,,,,,,,,,0,,,,,,,1,6955214,pdf,2AB2FC8D7F105DD1960FC0EC1CE9D39F,,,D:\\!genesis\\library.nu\\2a\\_280008.2ab2fc8d7f105dd1960fc0ec1ce9d39f.pdf,0,2000-01-01 01:00:00,2016-04-03 02:51:08,557000/2ab2fc8d7f105dd1960fc0ec1ce9d39f-g.jpg,,
19576490,The Science of Golf,,,,John Wesson,2009,,"Oxford University Press, USA",,284,0,English,181,,до 2011-01,"0199226202,9780199226207",,,,,796.352015,GV965 .W377 2009,,,OL23203462M,,0,,,,,,,1,3903544,pdf,2AEDC3B0A5F386B4C59E1A70A1EAC34B,,,D:\\!genesis\\library.nu\\2a\\_279732.2aedc3b0a5f386b4c59e1a70a1eac34b.pdf,0,2000-01-01 01:00:00,2016-04-03 02:51:08,557000/2aedc3b0a5f386b4c59e1a70a1eac34b-d.jpg,,
19576491,Climate Change Economics and Policy: An RFF Anthology,,,,Professor Michael A. Toman,2001,,RFF Press,,289,0,English,305,,до 2011-01,"189185304X,9781891853043",,,,,,,,,OL15510438M,,0,,,,,,,1,1110241,pdf,2AB00C07E1EE8C76DEBB9AFC7DBD079F,,,D:\\!genesis\\library.nu\\2a\\_279594.2ab00c07e1ee8c76debb9afc7dbd079f.pdf,0,2000-01-01 01:00:00,2016-04-03 02:51:08,557000/2ab00c07e1ee8c76debb9afc7dbd079f-d.jpg,,
19576492,The End of Dissatisfaction: Jacques Lacan and the Emerging Society of Enjoyment (Psychoanalysis and Culture),,,,Todd McGowan,2003,,State University of New York Press,,288,0,English,198,,до 2011-01,"0791459683,9780791459683",,,,,,,,,OL17111919M,,0,,,,,,,1,971343,pdf,2A6858763EA5509FDEAAC43FF5A76E40,,,D:\\!genesis\\library.nu\\2a\\_279295.2a6858763ea5509fdeaac43ff5a76e40.pdf,0,2000-01-01 01:00:00,2016-04-03 02:51:08,557000/2a6858763ea5509fdeaac43ff5a76e40-d.jpg,,
19576493,Signs of Weakness: Juxtaposing Irish Tales and the Bible (JSOT Supplement),,Journal for the Study of the Old Testament Supplement Series 321,,Varese Layzer,2001,,Sheffield Academic Press,,241,0,English,,,до 2011-01,"1841271721,9781841271729",,,,,,,,,OL8919324M,,300,,,,,,,1,12055942,pdf,2A41DADD036101CE69E0E77A5D864058,,,D:\\!genesis\\library.nu\\2a\\_279293.2a41dadd036101ce69e0e77a5d864058.pdf,0,2000-01-01 01:00:00,2016-04-03 02:51:08,557000/2a41dadd036101ce69e0e77a5d864058-d.jpg,,
19576494,The Canadian Snowbird in America: Professional Tax and Financial Insights into a Temporary U.S. Lifestyle,,,,"Terry F. Ritchie, Brian D. Wruk",2007,,Ecw Press,,203,0,English,305,,до 2011-01,"1550228048,9781550228045",,,,,,,,,OL21420914M,,0,,,,,,,1,7819005,pdf,2A0722F790F6C8270E03D21AA0F87CC7,,,D:\\!genesis\\library.nu\\2a\\_279092.2a0722f790f6c8270e03d21aa0f87cc7.pdf,0,2000-01-01 01:00:00,2016-04-03 02:51:08,557000/2a0722f790f6c8270e03d21aa0f87cc7-d.jpg,,
19576495,Warlock (Doctor Who-the New Adventures Series),,,,Andrew Cartmel,1995,,,,272,0,English,,,до 2011-01,0426204336,,,,,,,,,,,0,,,,,,,1,2324672,pdf,2ABAAA2EB5DA4D3158470A9493343300,,,D:\\!genesis\\library.nu\\2a\\_278727.2abaaa2eb5da4d3158470a9493343300.pdf,0,2000-01-01 01:00:00,2016-04-03 02:51:08,557000/2abaaa2eb5da4d3158470a9493343300-d.jpg,,
19576496,"Compulsion (Harlequin Presents, 422)",,,,Charlotte Lamb,1980,,,,189,0,English,137,,до 2011-01,0373104227,,,,,,,,,,,0,,,,,,,,158081,lit,2A37033C3EEA935E0D277C42FCADAC33,,,D:\\!genesis\\library.nu\\2a\\_278609.2a37033c3eea935e0d277c42fcadac33.lit,0,2000-01-01 01:00:00,2016-04-03 02:51:08,557000/2A37033C3EEA935E0D277C42FCADAC33-g.jpg,,
19576497,The Book of the Still (Doctor Who),,,,Paul Ebbs,2002,,,,224,0,English,,,до 2011-01,0563538511,,,,,,,,,,,0,,,,,,,1,853616,pdf,2ADB1ECFB61662ADA14FA7B042E1CBE2,,,D:\\!genesis\\library.nu\\2a\\_278596.2adb1ecfb61662ada14fa7b042e1cbe2.pdf,0,2000-01-01 01:00:00,2016-04-03 02:51:08,557000/2adb1ecfb61662ada14fa7b042e1cbe2-d.jpg,,
19576498,The Line of Beauty,,,,Alan Hollinghurst,2004,1st U.S. Ed,Bloomsbury USA,,400,0,English,,,до 2011-01,"1582345082,9781582345086",,,,,823/.914,PR6058.O4467 L56 2004,,,OL23273165M,,0,,,,,,,1,1838680,pdf,2A748A263865E2EF32A368036B5BC872,,,D:\\!genesis\\library.nu\\2a\\_278327.2a748a263865e2ef32a368036b5bc872.pdf,0,2000-01-01 01:00:00,2016-04-03 02:51:08,557000/2a748a263865e2ef32a368036b5bc872-d.jpg,,
19576499,The Genera of Araceae,,,,S. J. Mayo,1997,,Balogh Scientific Books,,382,0,English,,,до 2011-01,"1900347229,9781900347228",,,,,,,,,OL9764195M,,0,,,,,,,0,20592394,pdf,2ABE14342521DB6813956931F4D52493,,,D:\\!genesis\\library.nu\\2a\\_277650.2abe14342521db6813956931f4d52493.pdf,0,2000-01-01 01:00:00,2016-04-03 02:51:08,557000/2abe14342521db6813956931f4d52493-g.jpg,,
19576500,Stretching Mode d'Emploi,,,,"Lydie Raisin, Bernard Leduc",2006,,Marabout,,122,0,French,,,до 2011-01,"2501046218,9782501046213",,,,,,,,,,,0,,,,,,,1,6048250,pdf,2A8F434D2BF0CE80DA0DD998BC31BB7B,,,D:\\!genesis\\library.nu\\2a\\_277288.2a8f434d2bf0ce80da0dd998bc31bb7b.pdf,0,2000-01-01 01:00:00,2016-04-03 02:51:08,557000/2a8f434d2bf0ce80da0dd998bc31bb7b-g.jpg,,
19576501,The Grammar Handbook (Jolly Grammar) 1,,,,"Susan M. Lloyd, Sara Wernham",2000,,,,200,0,English,314,,до 2011-01,"1870946855,9781870946858",,,,,,,,,OL9601272M,,0,,,,,1,,0,68683609,pdf,2A0645B90B2C48B6B8F8A2C403390EDA,,,D:\\!genesis\\library.nu\\2a\\_27711.2a0645b90b2c48b6b8f8a2c403390eda.pdf,0,2000-01-01 01:00:00,2016-04-03 02:51:08,557000/2a0645b90b2c48b6b8f8a2c403390eda-d.jpg,,
19576502,The Palestinian Military: Between Militias and Armies (Middle Eastern Military Studies),,Middle Eastern Military Studies,,Hillel Frisch,2008,1,Routledge,,227,0,English,183,,до 2011-01,"0415395321,9780415395328,9780203929070",,,,,355.0095695/3,UA853.I8 F76 2008,,,OL10204744M,,0,,,,,,,1,846954,pdf,2A0DEC1CDC1DD84E19050EC683199136,,,D:\\!genesis\\library.nu\\2a\\_276915.2a0dec1cdc1dd84e19050ec683199136.pdf,0,2000-01-01 01:00:00,2016-04-03 02:51:08,557000/2a0dec1cdc1dd84e19050ec683199136-d.jpg,,
19576503,Investing in Development: A Practical Plan to Achieve the Millennium Development Goals (UN Millennium Project),,,,United Nations,2005,,United Nations,,124,0,English,,,до 2011-01,"1844072177,9781844072170",,,,,,,,,OL22629055M,,0,,,,,,,1,3459132,pdf,2A7545007F74A1A5BD7EE590F738F725,,,D:\\!genesis\\library.nu\\2a\\_276826.2a7545007f74a1a5bd7ee590f738f725.pdf,0,2000-01-01 01:00:00,2016-04-03 02:51:08,557000/2a7545007f74a1a5bd7ee590f738f725-d.jpg,,
19576504,The Chemistry of Pheromones and Other Semiochemicals II (Topics in Current Chemistry) (Pt. 2),,Topics in Current Chemistry 240,,Stefan Schulz,2005,1,Springer,,333,0,English,296,,до 2011-01,"3540213082,9783540213086",,,,,,,10.1007/b83344,,OL9858157M,,0,,,,,,,1,3861952,pdf,2A6E44B6B535F0114D369CDA8D0556E0,,,D:\\!genesis\\library.nu\\2a\\_276737.2a6e44b6b535f0114d369cda8d0556e0.pdf,0,2000-01-01 01:00:00,2016-04-03 02:51:08,557000/2a6e44b6b535f0114d369cda8d0556e0-d.jpg,,
19576505,The Gathering Storm,,The Wheel of Time 12,,"Robert Jordan, Brandon Sanderson",2009,,Tor Books,,,0,English,,,до 2011-01,9781429960830,,,,,,,,,,,0,,,,,,,,1091238,epub,2A158FCD1D9EDBA5796C31F0AD5EDE5B,,,D:\\!genesis\\library.nu\\2a\\_276661.2a158fcd1d9edba5796c31f0ad5ede5b.epub,0,2000-01-01 01:00:00,2016-04-03 02:51:08,557000/2A158FCD1D9EDBA5796C31F0AD5EDE5B-g.jpg,,
19576506,21st Century Political Science: A Reference Handbook,,21st Century Reference,,"John T. Ishiyama, Marijke Breuning",2010,1,"Sage Publications, Inc",,936,0,English,,,до 2011-01,"1412969018,9781412969017",,,,,320,JA66 .A21 2011,,,OL24452254M,,0,,,,,,,1,7282414,pdf,2A4CD533C1BEEA184666A0B54C76266B,,,D:\\!genesis\\library.nu\\2a\\_276195.2a4cd533c1beea184666a0b54c76266b.pdf,0,2000-01-01 01:00:00,2016-04-03 02:51:08,557000/2a4cd533c1beea184666a0b54c76266b-d.jpg,,
19576507,On Virtue Ethics,,,,Rosalind Hursthouse,2000,,,,288,0,English,,,до 2011-01,"9780198238188,9780199247998,0198238185,0199247994,9780191519369",,,,,179/.9,BJ1521 .H88 2001,,,OL15475719M,,0,,,,,1,,1,1353297,pdf,2A78EB5BF0D14FC636958685597FA37F,,,D:\\!genesis\\library.nu\\2a\\_27613.2a78eb5bf0d14fc636958685597fa37f.pdf,0,2000-01-01 01:00:00,2016-04-03 02:51:08,557000/2a78eb5bf0d14fc636958685597fa37f-d.jpg,,
19576508,The Dharma Bums (Penguin Classics Deluxe Edition),,,,Jack Kerouac,2006,Deluxe,,,118,0,English,108,,до 2011-01,"0143039601,9780143039600",,,,,,,,,OL17213572M,,0,,,,,,,1,486236,pdf,2A58C8ECFA166609C1942EBFA33609BC,,,D:\\!genesis\\library.nu\\2a\\_276031.2a58c8ecfa166609c1942ebfa33609bc.pdf,0,2000-01-01 01:00:00,2016-04-03 02:51:08,557000/2a58c8ecfa166609c1942ebfa33609bc-d.jpg,,
19576509,Specimen ineditae versionis arabico-samaritanae Pentateuchi,,,,A.Chr. Hwiid,,,,,103,0,Latin,,,до 2011-01,,,,,,,,,,,,0,,,,,,,0,3609040,pdf,2AEC54275BD284E3005AEE503DC81022,,,D:\\!genesis\\library.nu\\2a\\_275851.2aec54275bd284e3005aee503dc81022.pdf,0,2000-01-01 01:00:00,2016-04-03 02:51:08,557000/2aec54275bd284e3005aee503dc81022-g.jpg,,
19576510,Network Cabling Solution: Data Center Cabling Infrastructure,,,,Carrie Higbie,,,,,35,0,English,116,,до 2011-01,,,,,,,,,,,,0,,,,,,,1,556541,pdf,2A459F273EF380505DCED0DA02A33A38,,,D:\\!genesis\\library.nu\\2a\\_275812.2a459f273ef380505dced0da02a33a38.pdf,0,2000-01-01 01:00:00,2016-04-03 02:51:08,557000/2a459f273ef380505dced0da02a33a38-g.jpg,,
19576511,"Networking and Sharing Information Super Series, Fourth Edition (ILM Super Series)",,,,Institute of Leadership & Management (ILM),2004,4,,,112,0,English,99,,до 2011-01,"0750658851,9780750658850,9780080525013",,,,,,,,,OL10809151M,,0,,,,,1,,1,847694,pdf,2A51AB8EFA461FB5A428D10C7663CCAF,,,D:\\!genesis\\library.nu\\2a\\_27524.2a51ab8efa461fb5a428d10c7663ccaf.pdf,0,2000-01-01 01:00:00,2016-04-03 02:51:08,557000/2a51ab8efa461fb5a428d10c7663ccaf-d.jpg,,
19576512,Quantum Interferometry in Phase Space: Theory and Applications,,,,Martin Suda,2005,1,Springer,,182,0,English,137,,до 2011-01,"3540260706,9783540260707",,,,,,,,,OL9055602M,,0,,,,,,,1,13168815,pdf,2AC7E7EA2B90885E991CCB9B4E78FF27,,,D:\\!genesis\\library.nu\\2a\\_275149.2ac7e7ea2b90885e991ccb9b4e78ff27.pdf,0,2000-01-01 01:00:00,2016-04-03 02:51:08,557000/2ac7e7ea2b90885e991ccb9b4e78ff27-d.jpg,,
19576513,Introducción a los Métodos Numéricos,,,,A.A. Samarski,1986,,Editorial Mir,,308,0,Spanish,,,до 2011-01,,,,,,,,,,,,0,,,,,,,0,28563132,pdf,2AD93027F59C59137C9EBC1E3EC17D93,,,D:\\!genesis\\library.nu\\2a\\_275110.2ad93027f59c59137c9ebc1e3ec17d93.pdf,0,2000-01-01 01:00:00,2016-04-03 02:51:08,557000/2ad93027f59c59137c9ebc1e3ec17d93-g.jpg,,
19576514,Die Widersprüche zwischen den Evangelien. Ihre polemische und apologetische Behandlung in der Alten Kirche bis zu Augustin (WUNT 13),,Wissenschaftliche Untersuchungen zum Neuen Testament 13,,Helmut Merkel,1971,,Mohr Siebeck,,301,0,German,,,до 2011-01,"3161328213,9783161328213",,,,,,,,,,,400,,,,,,,1,11802050,pdf,2A78A681157372AC33E75A1C762334BE,,,D:\\!genesis\\library.nu\\2a\\_274992.2a78a681157372ac33e75a1c762334be.pdf,0,2000-01-01 01:00:00,2016-04-03 02:51:08,557000/2a78a681157372ac33e75a1c762334be-g.jpg,,
19576515,Complete Leadership: A Practical Guide For Developing Your Leadership Talents,,,,"Susan Bloch, Philip Whiteley",2003,,,,188,0,English,137,,до 2011-01,"1843040255,9781843040255",,,,,,,,,OL11902626M,,0,,,,,1,,1,692504,pdf,2A61946A3E0294A1A085A5CCC3958263,,,D:\\!genesis\\library.nu\\2a\\_27493.2a61946a3e0294a1a085a5ccc3958263.pdf,0,2000-01-01 01:00:00,2016-04-03 02:51:08,557000/2a61946a3e0294a1a085a5ccc3958263-d.jpg,,
19576516,BREEDING BIN LADENS,,,,Zachary Shore,,,,,244,0,English,,,до 2011-01,0-8018-8505-1,,,,,,,,,,,0,,,,,,,1,1325687,pdf,2A91A51D461E16774481A46957D8C7D9,,,D:\\!genesis\\library.nu\\2a\\_274850.2a91a51d461e16774481a46957d8c7d9.pdf,0,2000-01-01 01:00:00,2016-04-03 02:51:08,557000/2a91a51d461e16774481a46957d8c7d9-g.jpg,,
19576517,Mitch Rapp 07 Act of Treason,,Mitch Rapp,,Vince Flynn,2006,,Simon & Schuster Adult Publishing,,,0,English,,,до 2011-01,"9780743298810,0743298810",,,,,,,,,,,0,,,,,,,1,399841,epub,2AA54B140B6AE85C448EB684BDFA6A5A,,,D:\\!genesis\\library.nu\\2a\\_274652.2aa54b140b6ae85c448eb684bdfa6a5a.epub,0,2000-01-01 01:00:00,2016-04-03 02:51:08,557000/2AA54B140B6AE85C448EB684BDFA6A5A-g.jpg,,
19576518,"Medieval Saints' Lives: The Gift, Kinship and Community in Old French Hagiography (Gallica)",,,,Emma Campbell,2008,,D.S.Brewer,,294,0,English,59,,до 2011-01,"1843841800,9781843841807",,,,,270.30922,BX4662 .C36 2008,,,OL23022602M,,0,,,,,,,1,2597611,pdf,2A27B1135263F7642FDE4609D040BE29,,,D:\\!genesis\\library.nu\\2a\\_274388.2a27b1135263f7642fde4609d040be29.pdf,0,2000-01-01 01:00:00,2016-04-03 02:51:08,557000/2a27b1135263f7642fde4609d040be29-d.jpg,,
19576519,"Historical Dictionary of Pakistan (Historical Dictionaries of Asia, Oceania, and the Middle East), 3rd Edition",,,,Shahid Javed Burki,2006,3,,,648,0,English,64,,до 2011-01,"9780810856011,0810856018",,,,,,,,,OL22740534M,,0,,,,,1,,1,6137120,pdf,2AF706F2757D5B704D0664900CB8D6C1,,,D:\\!genesis\\library.nu\\2a\\_27400.2af706f2757d5b704d0664900cb8d6c1.pdf,0,2000-01-01 01:00:00,2016-04-03 02:51:08,557000/2af706f2757d5b704d0664900cb8d6c1-d.jpg,,
19576520,Творческая каллиграфия. Искусство красивого письма,,,,Кауч Малькольм (Couch Malcolm),1998,,Белфакс,,119,0,Russian,,,до 2011-01,,,,,,,,,,,cover page and copyright info are missing,0,,,,,,,0,44246291,pdf,2AE04D6A4D10AB98EDF555DC5DB30009,,,D:\\!genesis\\library.nu\\2a\\_273903.2ae04d6a4d10ab98edf555dc5db30009.pdf,0,2000-01-01 01:00:00,2016-04-03 02:51:08,557000/2ae04d6a4d10ab98edf555dc5db30009-g.jpg,,
19576521,"The Stock Market, Credit, and Capital Formation - Translated from the Revised German Edition",,,,Fritz Machlup,2007,,Ludwig von Mises Institute,,428,0,English,,,до 2011-01,,,B000XGAFS8,,,,,,,,,0,,,,,,,1,16883741,pdf,2AD8C3036078E7A8A19158DBCAA996D5,,,D:\\!genesis\\library.nu\\2a\\_273667.2ad8c3036078e7a8a19158dbcaa996d5.pdf,0,2000-01-01 01:00:00,2016-04-03 02:51:08,557000/2ad8c3036078e7a8a19158dbcaa996d5-d.jpg,,
19576522,Of Prophets' Visions and the Wisdom of Sages: Essays in Honour of R. Norman Whybray on His Seventieth Birthday (JSOT Supplement Series),,Journal for the Study of the Old Testament Supplement Series 162,,"Heather A. McKay, David J. A. Clines",1993,,Sheffield Academic Press,,335,0,English,,,до 2011-01,"1850754233,9781850754237,0567354849,9780567354846",,,,,221.6,BS1505.2 .O4 1993,,,OL1522794M,,300,,,,,,,1,15822219,pdf,2A2A28D376E37D27FFA21CF9039D3D0B,,,D:\\!genesis\\library.nu\\2a\\_273583.2a2a28d376e37d27ffa21cf9039d3d0b.pdf,0,2000-01-01 01:00:00,2016-04-03 02:51:08,557000/2a2a28d376e37d27ffa21cf9039d3d0b-d.jpg,,
19576523,The Nature of the State: Excavating the Political Ecologies of the Modern State (Oxford Geographical and Environmental Studies),,Oxford Geographical and Environmental Studies,,"Mark Whitehead, Rhys Jones, Martin Jones",2007,,Oxford University Press,,249,0,English,183,,до 2011-01,"0199271895,9780199271894",,,,,,,,,OL10146369M,,0,,,,,,,1,1875871,pdf,2A614A7A3C10C100AA797D64885A6A86,,,D:\\!genesis\\library.nu\\2a\\_273270.2a614a7a3c10c100aa797d64885a6a86.pdf,0,2000-01-01 01:00:00,2016-04-03 02:51:08,557000/2a614a7a3c10c100aa797d64885a6a86-d.jpg,,
19576524,"Foreign Aid and Landmine Clearance: Governance, Politics and Security in Afghanistan, Bosnia and Sudan (International Library of Postwar Reconstruction & Development)",,,,Matthew Bolton,2010,,I. B. Tauris,,282,0,English,236,,до 2011-01,"184885160X,9781848851603",,,,,338.9173,HC60 .B65 2010,,,OL24086277M,,0,,,,,,,1,18060101,pdf,2A7C0750FE0830C25BE6652BEDF6ECDE,,,D:\\!genesis\\library.nu\\2a\\_272789.2a7c0750fe0830c25be6652bedf6ecde.pdf,0,2000-01-01 01:00:00,2016-04-03 02:51:08,557000/2a7c0750fe0830c25be6652bedf6ecde-d.jpg,,
19576525,Meeting God in Virtual Reality: Using Spiritual Practices With Media (Convergence Series.),,,,"Teresa Blythe, Daniel Wolpert",2004,,Abingdon Press,,55,0,English,,,до 2011-01,"0687043816,9780687043811",,,,,,,,,OL7724024M,,0,,,,,,,1,336855,pdf,2AE0D76C872D26CE47D4A8599E427557,,,D:\\!genesis\\library.nu\\2a\\_272017.2ae0d76c872d26ce47d4a8599e427557.pdf,0,2000-01-01 01:00:00,2016-04-03 02:51:08,557000/2ae0d76c872d26ce47d4a8599e427557-d.jpg,,
19576526,"The Complete Works of Aristotle: The Revised Oxford Translation, Vol. 1",1,,,Jonathan Barnes (editor),1991,,Princeton University Press,,1757,0,English,183,,до 2011-01,,,,,,,,,,,,0,,,,,,,1,6185209,pdf,2A6092F2A49CAB5E8C6309C1E92AA701,,,D:\\!genesis\\library.nu\\2a\\_271533.2a6092f2a49cab5e8c6309c1e92aa701.pdf,0,2000-01-01 01:00:00,2016-04-03 02:51:08,557000/2a6092f2a49cab5e8c6309c1e92aa701-g.jpg,,
19576527,ATC-40 Seismic Evaluation and Retrofit of Concrete Buildings,,,,APPLIED TECHNOLOGY COUNCIL,1996,,,,334,0,English,,,до 2011-01,,,,,,,,,,,,0,,,,,,,0,9788166,pdf,2A205A4BA7B9247BEFBF20822FBEDCAD,,,D:\\!genesis\\library.nu\\2a\\_271512.2a205a4ba7b9247befbf20822fbedcad.pdf,0,2000-01-01 01:00:00,2016-04-03 02:51:08,557000/2a205a4ba7b9247befbf20822fbedcad-g.jpg,,
19576528,Manliness,,,,Professor Harvey C. Mansfield,2006,annotated edition,Yale University Press,,289,0,English,,,до 2011-01,"0300106645,9780300106640",,,,,305.31,HQ1090 .M365 2006,,,OL22723143M,,0,,,,,,,1,1086302,pdf,2ADA6BE57248654DF41DB709C450BAC7,,,D:\\!genesis\\library.nu\\2a\\_271511.2ada6be57248654df41db709c450bac7.pdf,0,2000-01-01 01:00:00,2016-04-03 02:51:08,557000/2ada6be57248654df41db709c450bac7-d.jpg,,
19576529,Geriatric Nutrition (Nutrition and Disease Prevention),,,,"John E. Morley, David R. Thomas",2007,1,,,600,0,English,150,,до 2011-01,"0849338158,9780849338151,9781420005493",,,,,,,,,OL17236924M,,0,,,,,1,,1,8682329,pdf,2AC016D82C3BA6843854C4AEC015C631,,,D:\\!genesis\\library.nu\\2a\\_27148.2ac016d82c3ba6843854c4aec015c631.pdf,0,2000-01-01 01:00:00,2016-04-03 02:51:08,557000/2ac016d82c3ba6843854c4aec015c631-d.jpg,,
19576530,Staub. Ein Kay-Scarpetta-Roman,,,,"Patricia Cornwell, Karin Dufner",2005,,Hoffmann und Campe,,432,0,German,,,до 2011-01,"3455011004,9783455011005",,,,,,,,,,,0,,,,,,,1,1128339,pdf,2AADE185A68E50F30F975B3C2A50CD7F,,,D:\\!genesis\\library.nu\\2a\\_271354.2aade185a68e50f30f975b3c2a50cd7f.pdf,0,2000-01-01 01:00:00,2016-04-03 02:51:08,557000/2aade185a68e50f30f975b3c2a50cd7f-d.jpg,,
19576531,Étude Statistique des Dépendances,,,,S. Aïvazian,1970,,Editorial Mir,,236,0,French,,,до 2011-01,,,,,,,,,,,,0,,,,,,,0,35194036,pdf,2A17EB8535A0CEEF3A3817766060EB14,,,D:\\!genesis\\library.nu\\2a\\_271351.2a17eb8535a0ceef3a3817766060eb14.pdf,0,2000-01-01 01:00:00,2016-04-03 02:51:08,557000/2a17eb8535a0ceef3a3817766060eb14-g.jpg,,
19576532,Nanobiotechnology of Biomimetic Membranes (Fundamental Biomedical Technologies),,Fundamental Biomedical Technologies,,Donald Martin,2006,1,Springer,,183,0,English,17,,до 2011-01,"0387377387,0387377409,9780387377384,9780387377407",,,,,,,,,OL22743600M,,0,,,,,,,1,4352900,pdf,2A6AFC452EEAC9FB7FC3FF2C8C406599,,,D:\\!genesis\\library.nu\\2a\\_269818.2a6afc452eeac9fb7fc3ff2c8c406599.pdf,0,2000-01-01 01:00:00,2016-04-03 02:51:08,557000/2a6afc452eeac9fb7fc3ff2c8c406599-d.jpg,,
19576533,Mapping Towns and Cities,,Mapping Our World,,Robert Walker,2010,1,Marshall Cavendish Children's Books,,33,0,English,,,до 2011-01,"1608701204,9781608701209",,,,,912/.19732,GA105.6 .W353 2011,,,OL24040032M,,0,,,,,,,1,10503152,pdf,2AC80BA5349FE6FF4BE2AED2A1F968B2,,,D:\\!genesis\\library.nu\\2a\\_269281.2ac80ba5349fe6ff4be2aed2a1f968b2.pdf,0,2000-01-01 01:00:00,2016-04-03 02:51:08,557000/2ac80ba5349fe6ff4be2aed2a1f968b2-d.jpg,,
19576534,Aap Kay Masail Aur Unka Hal Volume 2,,,,Maulana Muhammad Yousuf Ludhianvi,,,,,419,0,Urdu,248,,до 2011-01,,,,,,,,,,,,0,,,,,,,0,7389941,pdf,2A9BEA6563BF4A0F25F6B7951FD25DFF,,,D:\\!genesis\\library.nu\\2a\\_268913.2a9bea6563bf4a0f25f6b7951fd25dff.pdf,0,2000-01-01 01:00:00,2016-04-03 02:51:08,557000/2a9bea6563bf4a0f25f6b7951fd25dff-g.jpg,,
19576535,"The Cambridge History of Islam, Volume 1a~ The Central Islamic Lands from Pre-Islamic Times to the First World War (v. 1A)",,,,"P. M. Holt, Ann K. S. Lambton, Bernard Lewis",1970,1,Cambridge University Press,,545,0,English,64,,до 2011-01,"0521219469,9780521219464",,,,,,,,,,,0,,,,,,,1,33135182,pdf,2A08CCB0369597DC493E7CC7156583B9,,,D:\\!genesis\\library.nu\\2a\\_268224.2a08ccb0369597dc493e7cc7156583b9.pdf,0,2000-01-01 01:00:00,2016-04-03 02:51:08,557000/2a08ccb0369597dc493e7cc7156583b9-d.jpg,,
19576536,Privacy and Confidentiality Issues: A Guide for Libraries and Their Lawyers (ALA Editions),,,,Theresa Chmara,2009,1,,,98,0,English,313,,до 2011-01,"0838909701,9780838909706",,,,,344.73/092,KF4315 .C47 2009,,,OL17051999M,,0,,,,,1,,1,542855,pdf,2A86CEA2FE6D42F72815C3502882AAD0,,,D:\\!genesis\\library.nu\\2a\\_2668.2a86cea2fe6d42f72815c3502882aad0.pdf,0,2000-01-01 01:00:00,2016-04-03 02:51:08,557000/2a86cea2fe6d42f72815c3502882aad0-d.jpg,,
19576537,Poetry at Court in Trastamaran Spain: From the Cancionero de Baena to the Cancionero general,,,,E Michael Gerli,1998,,Renaissance Tapes,,311,0,English,,,до 2011-01,"086698223X,9780866982238",,,,,861/.2093543,PQ6096.C3 P64 1998,,,OL349077M,,0,,,,,,,1,7198137,djvu,2ADAD4F898F22094EE22EBC15B0AD249,,,D:\\!genesis\\library.nu\\2a\\_266167.2adad4f898f22094ee22ebc15b0ad249.djvu,0,2000-01-01 01:00:00,2016-04-03 02:51:08,557000/2adad4f898f22094ee22ebc15b0ad249-g.jpg,,
19576538,Political Polytheism: The Myth of Pluralism,,,,Gary North,1989,First edition.,,,771,0,English,,,до 2011-01,"093046432X,9780930464325",,,,,261.7/3,BR516 .N67 1989,,,OL2205432M,,0,,,,,1,,1,8308065,pdf,2AB4300998137B8D791ACD042C9E9D2A,,,D:\\!genesis\\library.nu\\2a\\_26608.2ab4300998137b8d791acd042c9e9d2a.pdf,0,2000-01-01 01:00:00,2016-04-03 02:51:08,557000/2ab4300998137b8d791acd042c9e9d2a-g.jpg,,
19576539,Gebrauchsanweisung für New York,,,,Natalie John,1997,,Piper Verlag,,173,0,German,,,до 2011-01,"3492049818,9783492049818",,,,,,,,,OL9047170M,,0,,,,,,,1,1478465,pdf,2ADF5AA81632EF20A67EC6C1CE236CFC,,,D:\\!genesis\\library.nu\\2a\\_266052.2adf5aa81632ef20a67ec6c1ce236cfc.pdf,0,2000-01-01 01:00:00,2016-04-03 02:51:08,557000/2adf5aa81632ef20a67ec6c1ce236cfc-d.jpg,,
19576540,Post-Scarcity Anarchism,,,,Murray Bookchin,1996,2,Black Rose Books,,96,0,English,,,до 2011-01,"0920057411,9780920057414",,,,,335/.83,,,,OL18360533M,,0,,,,,,,1,1851787,pdf,2A31D649ED30FC36B7F965A4ED0FAB46,,,D:\\!genesis\\library.nu\\2a\\_265602.2a31d649ed30fc36b7f965a4ed0fab46.pdf,0,2000-01-01 01:00:00,2016-04-03 02:51:08,557000/2a31d649ed30fc36b7f965a4ed0fab46-g.jpg,,
19576541,Data Mining in Public and Private Sectors: Organizational and Government Applications,,Premier Reference Source,,Antti Syvajarvi,2010,First,Information Science Reference,,449,0,English,137,,до 2011-01,"1605669067,9781605669069",,,,,006.3/12,QA76.9.D343 D38323 2010,,,OL24478581M,,0,,,,,,,1,11885168,pdf,2A0254B0693A715EB30CC036D7397ACC,,,D:\\!genesis\\library.nu\\2a\\_265295.2a0254b0693a715eb30cc036d7397acc.pdf,0,2000-01-01 01:00:00,2016-04-03 02:51:08,557000/2a0254b0693a715eb30cc036d7397acc-d.jpg,,
19576542,The vampire in Europe,,,,Montague Summers,1962,,University Books,,354,0,English,,,до 2011-01,,,,,,,,,,,,0,,,,,,,1,9962462,pdf,2A9605FE58C4A743347FB10AF095C9B2,,,D:\\!genesis\\library.nu\\2a\\_264809.2a9605fe58c4a743347fb10af095c9b2.pdf,0,2000-01-01 01:00:00,2016-04-03 02:51:08,557000/2a9605fe58c4a743347fb10af095c9b2-g.jpg,,
19576543,Sensitive Skin Syndrome (Dermatology: Clinical & Basic Science),,,,"Berardesca Enzo, Joachim W. Fluhr, Howard I. Maibach",2006,1,Informa Healthcare,,301,0,English,161,,до 2011-01,"0849330580,9780849330582",,,,,,,,,OL22732620M,,0,,,,,,,1,3488721,pdf,2A0BACA48DCE9F9961FF3669C6826BB9,,,D:\\!genesis\\library.nu\\2a\\_264608.2a0baca48dce9f9961ff3669c6826bb9.pdf,0,2000-01-01 01:00:00,2016-04-03 02:51:08,557000/2a0baca48dce9f9961ff3669c6826bb9-d.jpg,,
19576544,Advances in Survival Analysis,,Handbook of statistics,,"N. Balakrishnan, C. R. Rao",2004,1,North Holland,,789,0,English,178,,до 2011-01,"0444500790,9780444500793",,,,,,,,,OL18211112M,,0,,,,,,,1,6541992,pdf,2ADB8C0156285B989C30E38E470EC7D0,,,D:\\!genesis\\library.nu\\2a\\_264342.2adb8c0156285b989c30e38e470ec7d0.pdf,0,2000-01-01 01:00:00,2016-04-03 02:51:08,557000/2adb8c0156285b989c30e38e470ec7d0-d.jpg,,
19576545,Eastern Figures: Orient and Empire in British Writing,,,,Douglas Kerr,2008,,Hong Kong University Press,,265,0,English,,,до 2011-01,"9622099343,9789622099340,9622099351,9789622099357",,,,,,,,,,,0,,,,,,,1,2309709,pdf,2A5AB674BE6AA065A5EFF385722A5FBA,,,D:\\!genesis\\library.nu\\2a\\_264320.2a5ab674be6aa065a5eff385722a5fba.pdf,0,2000-01-01 01:00:00,2016-04-03 02:51:08,557000/2a5ab674be6aa065a5eff385722a5fba-d.jpg,,
19576546,Pompeii,,,,Robert Harris,2009,,Arrow,,416,0,English,,,до 2011-01,"0099527944,9780099527947",,,,,,,,,OL24087719M,,0,,,,,,,,245626,epub,2A0C3E7590D08392D2B79E139233575E,,,D:\\!genesis\\library.nu\\2a\\_264073.2a0c3e7590d08392d2b79e139233575e.epub,0,2000-01-01 01:00:00,2016-04-03 02:51:08,557000/2a0c3e7590d08392d2b79e139233575e-d.jpg,,
19576547,Polymer Reaction Engineering,,,,Jose Asua,2007,1,Wiley-Blackwell,,394,0,English,210,,до 2011-01,"1405144424,9781405144421",,,,,,,,,OL18287896M,,0,,,,,,,1,23295112,pdf,2A80A394A0FDD89D96BBBB9440E84A4A,,,D:\\!genesis\\library.nu\\2a\\_264039.2a80a394a0fdd89d96bbbb9440e84a4a.pdf,0,2000-01-01 01:00:00,2016-04-03 02:51:08,557000/2a80a394a0fdd89d96bbbb9440e84a4a-d.jpg,,
19576548,Buchführung: Grundlagen - Übungen - Klausurvorbereitung. 3. Auflage (Lehrbuch),,,,"Jörn Littkemann, Michael Holtrup, Klaus Schulte",2008,,Gabler,,362,0,German,,,до 2011-01,"3834908576,9783834908575",,,,,,,,,,,0,,,,,,,1,2261514,pdf,2AE40071FB7DA473155F715723DB2C14,,,D:\\!genesis\\library.nu\\2a\\_263890.2ae40071fb7da473155f715723db2c14.pdf,0,2000-01-01 01:00:00,2016-04-03 02:51:08,557000/2ae40071fb7da473155f715723db2c14-d.jpg,,
19576549,Νέα ιστορία Αθέσθη Κυθηρέου: επανέκδοση της πρώτης βενετικής έκδοσης του 1749,,,,"Πολίτης, Αλέξης (επιμ. νεότερης έκδοσης)",1983,,Εθνικό Ίδρυμα Ερευνών (Ε.Ι.Ε.),,168,0,Greek,,,до 2011-01,,,,,,,,,,,,0,,,,,,,1,7301840,pdf,2AEE0A77268B075D3595F20BE612EFE1,,,D:\\!genesis\\library.nu\\2a\\_263256.2aee0a77268b075d3595f20be612efe1.pdf,0,2000-01-01 01:00:00,2016-04-03 02:51:08,557000/2aee0a77268b075d3595f20be612efe1-g.jpg,,
19576550,Nightlight: A Parody,,,,The Harvard Lampoon,2009,,Vintage,,160,0,English,,,до 2011-01,"0307476103,9780307476104",,,,,813/.6,PS3600.A6 H37 2009,,,OL23954611M,,0,,,,,,,1,1881038,epub,2A891D9051BF0344039973E583B2B11D,,,D:\\!genesis\\library.nu\\2a\\_263245.2a891d9051bf0344039973e583b2b11d.epub,0,2000-01-01 01:00:00,2016-04-03 02:51:08,557000/2a891d9051bf0344039973e583b2b11d-d.jpg,,
19576551,Razor Sharp (The Sisterhood),,,,Fern Michaels,2009,Original,Zebra,,304,0,English,,,до 2011-01,"1420106848,9781420106848",,,,,813/.54,PS3563.I27 R39 2009,,,OL24943207M,,0,,,,,,,1,474232,epub,2AD22451BADA6FE5A29745D8FBB8E983,,,D:\\!genesis\\library.nu\\2a\\_263189.2ad22451bada6fe5a29745d8fbb8e983.epub,0,2000-01-01 01:00:00,2016-04-03 02:51:08,557000/2ad22451bada6fe5a29745d8fbb8e983-d.jpg,,
19576552,The Pop-Up Book: Step-by-Step Instructions for Creating Over 100 Original Paper Projects,,,,Paul Jackson,1996,,Holt Paperbacks,,162,0,English,,,до 2011-01,"0805028846,9780805028843",,,,,745.592,TT870 .J323 1993,,,OL7931871M,,0,,,,,,,1,22648709,pdf,2A56C19938A5A069B5C87B8616BF07F6,,,D:\\!genesis\\library.nu\\2a\\_262905.2a56c19938a5a069b5c87b8616bf07f6.pdf,0,2000-01-01 01:00:00,2016-04-03 02:51:08,557000/2a56c19938a5a069b5c87b8616bf07f6-d.jpg,,
19576553,Compendio de Medicamentos y Guía Terapéutica,,,,Dr. Hans-Heinrich Reckeweg,,,GRUPO ERGO PHARM ALEMANIA,,185,0,Spanish,137,,до 2011-01,,,,,,,,,,,,0,,,,,,,1,1880980,pdf,2AAFCADFF8AAD158403088A06D0A6782,,,D:\\!genesis\\library.nu\\2a\\_262796.2aafcadff8aad158403088a06d0a6782.pdf,0,2000-01-01 01:00:00,2016-04-03 02:51:08,557000/2aafcadff8aad158403088a06d0a6782-g.jpg,,
19576554,Designing Components with the C++ STL: A New Approach to Programming (Revised Edition),,,,Ulrich Breymann,2000,2,Addison-Wesley Professional,,320,0,English,137,,до 2011-01,"0201674882,9780201674880",,,,,,,,,OL7408421M,,0,,,,,,,1,1176920,pdf,2A38C316A48E0EC7B1F05D49930D3A2D,,,D:\\!genesis\\library.nu\\2a\\_262742.2a38c316a48e0ec7b1f05d49930d3a2d.pdf,0,2000-01-01 01:00:00,2016-04-03 02:51:08,557000/2a38c316a48e0ec7b1f05d49930d3a2d-d.jpg,,
19576555,Gestiona Mejor Tu Vida: Claves y hábitos para ser más productivo y eficaz (Spanish Edition),,,,Alberto Pena,2009,,Libros Libres-Spiritus Media-Voz Papel,,304,0,Spanish,,,до 2011-01,"8492654155,9788492654154",,,,,,,,,,,0,,,,,,,,335717,epub,2A379DE47C5A52E904FDDB18826B004B,,,D:\\!genesis\\library.nu\\2a\\_262701.2a379de47c5a52e904fddb18826b004b.epub,0,2000-01-01 01:00:00,2016-04-03 02:51:08,557000/2a379de47c5a52e904fddb18826b004b-d.jpg,,
19576556,Monte Carlo Methods,,,,"J.M. Hammersley (Author), D.C. Handscomb (Author)",,,,,95,0,English,,,до 2011-01,,,,,,,,,,,,0,,,,,,,1,14993391,pdf,2A59164AF3BEB9CFAE4B94B3C4B795A3,,,D:\\!genesis\\library.nu\\2a\\_262326.2a59164af3beb9cfae4b94b3c4b795a3.pdf,0,2000-01-01 01:00:00,2016-04-03 02:51:08,557000/2a59164af3beb9cfae4b94b3c4b795a3-g.jpg,,
19576557,Contextualisms in Epistemology,,,,"Elke Brendel, Christoph Jäger",2005,1,Springer,,368,0,English,,,до 2011-01,"1402031815,9781402031816",,,,,,,,,OL8371365M,,0,,,,,,,1,1401940,pdf,2AC7F678E238C85C35A687AF0F03B643,,,D:\\!genesis\\library.nu\\2a\\_262264.2ac7f678e238c85c35a687af0f03b643.pdf,0,2000-01-01 01:00:00,2016-04-03 02:51:08,557000/2ac7f678e238c85c35a687af0f03b643-d.jpg,,
19576558,The Social Roots of Basque Nationalism,,The Basque Series,,Alfonso Pérez-Agote,2006,,University of Nevada Press,,282,0,English,189,,до 2011-01,"0874176050,9780874176056",,,,,320.54/0946/6,DP302.B53 P48 2006,,,OL3404894M,,0,,,,,,,1,2042413,pdf,2A118F8F335D1D441BFB00BE0F796AF4,,,D:\\!genesis\\library.nu\\2a\\_261224.2a118f8f335d1d441bfb00be0f796af4.pdf,0,2000-01-01 01:00:00,2016-04-03 02:51:08,557000/2a118f8f335d1d441bfb00be0f796af4-d.jpg,,
19576559,The Virtual MBA,,,,C. J. Kasis,,,,,121,0,English,,,до 2011-01,,,,,,,,,,,,0,,,,,,,1,1308959,pdf,2A7C09F21ECC5AE1D31B0A17E461C921,,,D:\\!genesis\\library.nu\\2a\\_260732.2a7c09f21ecc5ae1d31b0a17e461c921.pdf,0,2000-01-01 01:00:00,2016-04-03 02:51:08,557000/2a7c09f21ecc5ae1d31b0a17e461c921-g.jpg,,
19576560,Rethinking Liberal Equality: From a  'Utopian'  Point of View,,,,Andrew Levine,1998,,Cornell University Press,,140,0,English,,,до 2011-01,"0801435439,9780801435430",,,,,323.42,JC575 .L626 1998,,,OL347661M,,0,,,,,,,1,4531463,pdf,2AB4A0B9B493C1E42B8E0528E03E6835,,,D:\\!genesis\\library.nu\\2a\\_260578.2ab4a0b9b493c1e42b8e0528e03e6835.pdf,0,2000-01-01 01:00:00,2016-04-03 02:51:08,557000/2ab4a0b9b493c1e42b8e0528e03e6835-d.jpg,,
19576561,Small Scale Modelling of Concrete Structures,,,,"F.A. Noor, L.F. Boswell",1992,,Spon Press (Elsevier),,357,0,English,,,до 2011-01,"1851666710,9781851666713",,,,,624.1/834,TA681.5 .S63 1991,,,OL1541502M,,0,,,,,,,1,8929390,chm,2A27984E8766B5466E007AB3ED298496,,,D:\\!genesis\\library.nu\\2a\\_260457.2a27984e8766b5466e007ab3ed298496.chm,0,2000-01-01 01:00:00,2016-04-03 02:51:08,557000/2A27984E8766B5466E007AB3ED298496-g.jpg,,
19576562,Don't Eat The Marshmallow Yet!: The Secret to Sweet Success in Work and Life,,,,"Joachim de Posada, Ellen Singer",2005,,Berkley Hardcover,,113,0,English,265,,до 2011-01,"0425205452,9780425205457",,,,,650.1/01/9,HG179 .P575 2005,,,OL17922525M,,0,,,,,,,0,2924067,djvu,2ACC91E12D1680DEF0228FB899213532,7bcc394085e45d7b529dcea216d0c4e5,no,D:\\!genesis\\library.nu\\2a\\_260350.2acc91e12d1680def0228fb899213532.djvu,0,2000-01-01 01:00:00,2016-04-03 02:51:08,557000/2acc91e12d1680def0228fb899213532-d.jpg,,
19576563,Authority in Islam: From the Rise of Muhammad to the Establishment of the Umayyads,,,,Hamid Dabashi,1989,,Transaction Publishers,,184,0,English,205,,до 2011-01,"1560005866,9781560005865,0887382886,9780887382888",,,,,306/.6,BP165.7 .D33 1989,,,OL2057452M,,600,,,,,,,1,3108883,pdf,2AE765EBAE8A3AD686F49671B620B8B2,,,D:\\!genesis\\library.nu\\2a\\_259849.2ae765ebae8a3ad686f49671b620b8b2.pdf,0,2000-01-01 01:00:00,2016-04-03 02:51:08,557000/2ae765ebae8a3ad686f49671b620b8b2-d.jpg,,
19576564,"Radführungen der Straßenfahrzeuge: Kinematik, Elasto-Kinematik und Konstruktion",,,,Wolfgang Matschinsky,2007,"3., aktualisierte u. erw. Aufl.",Springer,,466,0,German,,,до 2011-01,"3540711961,9783540711964",,,,,,,,,OL12810299M,,0,,,,,,,1,23608875,pdf,2A923610ADC1BA6805AA6E00B76200DA,,,D:\\!genesis\\library.nu\\2a\\_259848.2a923610adc1ba6805aa6e00b76200da.pdf,0,2000-01-01 01:00:00,2016-04-03 02:51:08,557000/2a923610adc1ba6805aa6e00b76200da-d.jpg,,
19576565,"Twice Bitten (Chicagoland Vampires, Book 3)",,,,Chloe Neill,2010,,NAL Trade,,368,0,English,,,до 2011-01,"0451230647,9780451230645",,,,,813/.6,PS3614.E4432 T87 2010,,,OL24084589M,,0,,,,,,,,520555,lit,2AF0D078D0A0B694E7F57606D2CAD2F6,,,D:\\!genesis\\library.nu\\2a\\_259701.2af0d078d0a0b694e7f57606d2cad2f6.lit,0,2000-01-01 01:00:00,2016-04-03 02:51:08,557000/2af0d078d0a0b694e7f57606d2cad2f6-d.jpg,,
19576566,Word Games with English: 3: Student Book (Heinemann Games),,,,"Deirdre Howard-Williams, Cynthia Herd",1986,,,,64,0,English,314,,до 2011-01,"0435283820,9780435283827",,,,,428.1,,,,OL10244943M,,0,,,,,1,,0,1852766,pdf,2AD1B18D50C85697B83B1E218C487161,,,D:\\!genesis\\library.nu\\2a\\_25969.2ad1b18d50c85697b83b1e218c487161.pdf,0,2000-01-01 01:00:00,2016-04-03 02:51:08,557000/2ad1b18d50c85697b83b1e218c487161-d.jpg,,
19576567,Secondary Predication and Adverbial Modification: The Typology of Depictives,,,,"Nikolaus P. Himmelmann, Eva F. Schultze-Berndt",2005,,"Oxford University Press, USA",,475,0,English,305,,до 2011-01,"0199272263,9780199272266,0199204349,9780199204342",,,,,415,P295 .S413 2005,,,OL22622263M,,0,,,,,,,1,3097264,pdf,2AB92B1BA69C5BE1B3871CAF986E81DE,,,D:\\!genesis\\library.nu\\2a\\_259595.2ab92b1ba69c5be1b3871caf986e81de.pdf,0,2000-01-01 01:00:00,2016-04-03 02:51:08,557000/2ab92b1ba69c5be1b3871caf986e81de-d.jpg,,
19576568,Smart but Scattered: The Revolutionary,,,,"Peg Dawson EdD, Richard Guare Phd",2009,1,The Guilford Press,,321,0,English,,,до 2011-01,"1593859872,9781593859879",,,,,649/.1526,HQ755.8 .D39 2008,,,OL16942931M,,0,,,,,,,1,2385182,pdf,2AF416BB328AC8E2742B1B4E40D6EDD9,,,D:\\!genesis\\library.nu\\2a\\_259414.2af416bb328ac8e2742b1b4e40d6edd9.pdf,0,2000-01-01 01:00:00,2016-04-03 02:51:08,557000/2af416bb328ac8e2742b1b4e40d6edd9-d.jpg,,
19576569,Ibas von Edessa: Rekonstruktion einer Biographie und dogmatischen Position zwischen den Fronten (Arbeiten Zur Kirchengeschichte)  German,,,,"Rammelt, Claudia",2008,1,,,400,0,German,18,,до 2011-01,"3110202182,9783110202182,9783110206739",,,,,,,,,OL24072576M,,0,,,,,1,,1,2520850,pdf,2ABDBB7788F4F872D4D5534225D37CAC,,,D:\\!genesis\\library.nu\\2a\\_2594.2abdbb7788f4f872d4d5534225d37cac.pdf,0,2000-01-01 01:00:00,2016-04-03 02:51:08,557000/2abdbb7788f4f872d4d5534225d37cac-d.jpg,,
19576570,Little Book of Monitor Lizards: A Guide to the Monitor Lizards of the World and Their Care in Captivity,,,,Daniel Bennett,1995,Colour e.,Viper P.,,228,0,English,,,до 2011-01,"0952663201,9780952663201",,,,,,,,,OL15359839M,,0,,,,,,,1,97739410,pdf,2A08EEAA0A63B315E867F7D9E7E4B0FA,,,D:\\!genesis\\library.nu\\2a\\_258400.2a08eeaa0a63b315e867f7d9e7e4b0fa.pdf,0,2000-01-01 01:00:00,2016-04-03 02:51:08,557000/2a08eeaa0a63b315e867f7d9e7e4b0fa-g.jpg,,
19576571,Let's Defeat Cancer: Biological Effect of Deuterium Depletion,,,,Gábor Somlyai,2001,,Akademiai Kiado,,146,0,English,18,,до 2011-01,"9630578077,9789630578073",,,,,,,,,,,0,,,,,,,1,44011384,pdf,2AA4BD13BF3A60E0F2DC49B9DB21E377,,,D:\\!genesis\\library.nu\\2a\\_258331.2aa4bd13bf3a60e0f2dc49b9db21e377.pdf,0,2000-01-01 01:00:00,2016-04-03 02:51:08,557000/2aa4bd13bf3a60e0f2dc49b9db21e377-g.jpg,,
19576572,"Finding Anyone, Anywhere, Anywhen",,,,Noel Montgomery Elliot,2009,Revised and Expanded,Firefly Books,,315,0,English,,,до 2011-01,"1554074703,9781554074709",,,,,025.04,ZA4225 .E45 2009,,,OL23537004M,,400,,,,,,,1,5089889,pdf,2A70A1D3974399CED8E67920824E8403,,,D:\\!genesis\\library.nu\\2a\\_258181.2a70a1d3974399ced8e67920824e8403.pdf,0,2000-01-01 01:00:00,2016-04-03 02:51:08,557000/2a70a1d3974399ced8e67920824e8403-d.jpg,,
19576573,Higher Education to 2030 (Vol. 1):  Demography,,,,OECD Organisation for Economic Co-operation and Development,2008,,OECD Publishing,,300,0,English,183,,до 2011-01,"926404065X,9789264040656",,,,,,,,,OL23182418M,,0,,,,,,,1,8466331,pdf,2A0B3EF9680840234D70412FE251BFA9,,,D:\\!genesis\\library.nu\\2a\\_258078.2a0b3ef9680840234d70412fe251bfa9.pdf,0,2000-01-01 01:00:00,2016-04-03 02:51:08,557000/2a0b3ef9680840234d70412fe251bfa9-d.jpg,,
19576574,To Have or to Be?,,,,Erich Fromm,2005,Revised,,,224,0,English,,,до 2011-01,"0826417388,9780826417381",,,,,,,,,OL8167993M,,0,,,,,1,,,273438,lit,2A3B01623997D4D363EFCEC7D373DD78,,,D:\\!genesis\\library.nu\\2a\\_25778.2a3b01623997d4d363efcec7d373dd78.lit,0,2000-01-01 01:00:00,2016-04-03 02:51:08,557000/2a3b01623997d4d363efcec7d373dd78-d.jpg,,
19576575,"WAS IST WAS, Band 33: Pilze, Moose und Farne",,,,Heike Hermann,1988,,Tessloff Verlag,,50,0,German,,,до 2011-01,"3788602732,9783788602734",,,,,,,,,,,0,,,,,,,1,14054770,pdf,2A10F024057F2E9A1B4984024B7B0CC9,,,D:\\!genesis\\library.nu\\2a\\_257307.2a10f024057f2e9a1b4984024b7b0cc9.pdf,0,2000-01-01 01:00:00,2016-04-03 02:51:08,557000/2a10f024057f2e9a1b4984024b7b0cc9-d.jpg,,
19576576,Raymond Pace Alexander: A New Negro Lawyer Fights for Civil Rights in Philadelphia (Margaret Walker Alexander Series in African American Studies),,,,David A. Canton,2010,,University Press of Mississippi,,267,0,English,183,,до 2011-01,"1604734256,9781604734256",,,,,"340.092,B",KF373.A385 C36 2010,,,OL23862244M,,0,,,,,,,1,2206910,pdf,2AFB78F41BF2F698D8628C8E62A43BA5,,,D:\\!genesis\\library.nu\\2a\\_256821.2afb78f41bf2f698d8628c8e62a43ba5.pdf,0,2000-01-01 01:00:00,2016-04-03 02:51:08,557000/2afb78f41bf2f698d8628c8e62a43ba5-d.jpg,,
19576577,Engagement with the Past: The Lives and Works of the World War II Generation of Historians,,,,William Palmer,2001,"1st edition,",University Press of Kentucky,,407,0,English,64,,до 2011-01,"0813122066,9780813122069",,,,,973/.07/2022,E175.45 .P35 2001,,,OL3938084M,,0,,,,,,,1,2477822,pdf,2ABF8993A4C60610008B7635B5981405,,,D:\\!genesis\\library.nu\\2a\\_256760.2abf8993a4c60610008b7635b5981405.pdf,0,2000-01-01 01:00:00,2016-04-03 02:51:08,557000/2abf8993a4c60610008b7635b5981405-d.jpg,,
19576578,Closing the Gap: Information Models in Contemporary Design Practice (Architectural Design March   April 2009 Vol. 79 No. 2),,Architectural Design 79 2,,Richard Garber,2009,1,Wiley,,147,0,English,,,до 2011-01,9780470998205,,,,,,,,,,,0,,,,,,,1,20974653,pdf,2A27BA9D2701DCB2445B9D37E3E7788F,,,D:\\!genesis\\library.nu\\2a\\_256665.2a27ba9d2701dcb2445b9d37e3e7788f.pdf,0,2000-01-01 01:00:00,2016-04-03 02:51:08,557000/2a27ba9d2701dcb2445b9d37e3e7788f-d.jpg,,
19576579,The Unidentified,,,,Rae Mariz,2010,,Balzer + Bray,,206,0,English,,,до 2011-01,9780062012784,,,,,Fic —dc22 2009054254,,,,,,0,,,,,,,1,1011629,epub,2A8ED5F6296E4A2F85B0CB58BAACCB3C,,,D:\\!genesis\\library.nu\\2a\\_256194.2a8ed5f6296e4a2f85b0cb58baaccb3c.epub,0,2000-01-01 01:00:00,2016-04-03 02:51:08,557000/2A8ED5F6296E4A2F85B0CB58BAACCB3C-g.jpg,,
19576580,Two Versions Of The Solomon Narrative: An Inquiry Into The Relationship Between MT 1kgs. 2-11 And LXX 3 Reg. 2-11 (Supplements to Vetus Testamentum),,Supplements to Vetus Testamentum 104,,"Percy S. F. Van Kulen, P. S. F. Van Keulen",2004,,Brill Academic Publishers,,350,0,English,,,до 2011-01,"9004138951,9789004138957",,,,,,,,,OL12798903M,,0,,,,,,,1,1406809,pdf,2AAF4F9DFA74703A66C158805221D825,,,D:\\!genesis\\library.nu\\2a\\_255404.2aaf4f9dfa74703a66c158805221d825.pdf,0,2000-01-01 01:00:00,2016-04-03 02:51:08,557000/2aaf4f9dfa74703a66c158805221d825-d.jpg,,
19576581,Byzantium in the Iconoclast Era (C. 680-850): The Sources: An Annotated Survey (Birmingham Byzantine and Ottoman Monographs 7),,,,"Leslie Brubaker, John F. Haldon",2000,,Ashgate,,392,0,English,59,,до 2011-01,"0754604187,9780754604181",,,,,,,,,OL10826869M,,300,,,,,,,1,13683226,pdf,2A1851150E36A67E28D13531188AF0AB,,,D:\\!genesis\\library.nu\\2a\\_255378.2a1851150e36a67e28d13531188af0ab.pdf,0,2000-01-01 01:00:00,2016-04-03 02:51:08,557000/2a1851150e36a67e28d13531188af0ab-g.jpg,,
19576582,Making Great Games: An Insider's Guide to Designing and Developing the World's Greatest Video Games,,,,Michael Thornton Wyman,2010,1,Focal Press,,236,0,English,,,до 2011-01,"0240812859,9780240812854",,,,,,,,,,,0,,,,,,,1,5386961,pdf,2ACD273E0FE18B893F30570B6690C791,,,D:\\!genesis\\library.nu\\2a\\_255267.2acd273e0fe18b893f30570b6690c791.pdf,0,2000-01-01 01:00:00,2016-04-03 02:51:08,557000/2acd273e0fe18b893f30570b6690c791-d.jpg,,
19576583,Strands of Sunlight,,,,Gael Baudino,1994,,Roc,,400,0,English,,,до 2011-01,"0451454081,9780451454089",,,,,,,,,OL7576011M,,0,,,,,,,1,1356060,pdf,2AF6F2C0CF14572923E753A829739673,,,D:\\!genesis\\library.nu\\2a\\_255228.2af6f2c0cf14572923e753a829739673.pdf,0,2000-01-01 01:00:00,2016-04-03 02:51:08,557000/2af6f2c0cf14572923e753a829739673-d.gif,,
19576584,,,,Журнал «Церковь и время». Номер 1 (38) 2007,,2007,,Отдел внешних церковных связей,,239,0,Russian,,,до 2011-01,,,,,,,,,,,,0,,,,,1,,0,10376769,pdf,2A45948670108018C9EB75266776BC6C,,ban,D:/!genesis/library.nu/2a/_255122.2a45948670108018c9eb75266776bc6c.pdf,0,2000-01-01 01:00:00,2016-04-03 02:51:08,557000/2a45948670108018c9eb75266776bc6c-g.jpg,,
19576585,Be Your Own Lobbyist: How to Give Your Small Business Big Clout with State and Local Government,,,,Amy H. Handlin,2010,,Praeger,,211,0,English,,,до 2011-01,"0313381550,9780313381553",,,,,659.2/93244,HD2341 .H296 2010,,,OL24050181M,,0,,,,,,,1,1051567,pdf,2AC3348EFD132A9A83A27408E9F19256,,,D:\\!genesis\\library.nu\\2a\\_254859.2ac3348efd132a9a83a27408e9f19256.pdf,0,2000-01-01 01:00:00,2016-04-03 02:51:08,557000/2ac3348efd132a9a83a27408e9f19256-d.jpg,,
19576586,Anđeo smrti,,,,John Blehm,,,,,191,0,Croatian,,,до 2011-01,,,,,,,,,,,,0,,,,,1,,1,1589562,pdf,2AEF6FD5BCF58A544184AABE7B0BB8F3,,,D:/!genesis/library.nu/2a/_254801.2aef6fd5bcf58a544184aabe7b0bb8f3.pdf,0,2000-01-01 01:00:00,2016-04-03 02:51:08,557000/2aef6fd5bcf58a544184aabe7b0bb8f3-g.jpg,,
19576587,Buy-In: Saving Your Good Idea from Getting Shot Down,,,,John P. Kotter and Lorne A. Whitehead,2010,Unabridged,,,109,0,English,,,до 2011-01,1441872302,,,,,,,,,,,0,,,,,,,1,12325921,pdf,2AEE15BE97FA859FF1774F91B9D6D8BE,,,D:\\!genesis\\library.nu\\2a\\_254621.2aee15be97fa859ff1774f91b9d6d8be.pdf,0,2000-01-01 01:00:00,2016-04-03 02:51:08,557000/2aee15be97fa859ff1774f91b9d6d8be-d.jpg,,
19576588,In Darwin's Image: How Human Biology Confirms Evolution Theory,,,,Arndt von Hippel,2001,,,,226,0,English,18,,до 2011-01,0759622418,,,,,,,,,,,0,,,,,,,1,604062,pdf,2A5E6237E9E933AC194D0BB8C81B5199,,,D:\\!genesis\\library.nu\\2a\\_254567.2a5e6237e9e933ac194d0bb8c81b5199.pdf,0,2000-01-01 01:00:00,2016-04-03 02:51:08,557000/2a5e6237e9e933ac194d0bb8c81b5199-d.jpg,,
19576589,Organophosphorus Chemistry (SPR Organophosphorus Chemistry (RSC)) (v. 35),35,,,"D. W. Allen, J. C. Tebby",2005,1st Edition.,Royal Society of Chemistry,,822,0,English,296,,до 2011-01,"0854043446,9780854043446",,,,,,,,,,,0,,,,,,,1,29419077,pdf,2A7F10765FB982CB7AF6AD854FA7A23A,,,D:\\!genesis\\library.nu\\2a\\_254443.2a7f10765fb982cb7af6ad854fa7a23a.pdf,0,2000-01-01 01:00:00,2016-04-03 02:51:08,557000/2a7f10765fb982cb7af6ad854fa7a23a-d.jpg,,
19576590,Partial Differential Equations,,Graduate Texts in Mathematics 214,,Jürgen Jost,2002,1,Springer,,338,0,English,125,,до 2011-01,"0387954287,9780387954288",,,,,,,,,OL13569946M,,0,,,,,,,1,1446593,pdf,2A2649EDDB4355DDEB26BB3EC5AC3FB9,,,D:\\!genesis\\library.nu\\2a\\_254360.2a2649eddb4355ddeb26bb3ec5ac3fb9.pdf,0,2000-01-01 01:00:00,2016-04-03 02:51:08,557000/2a2649eddb4355ddeb26bb3ec5ac3fb9-d.jpg,,
19576591,Endstation Venedig. Commissario Brunettis zweiter Fall,,,,Donna Leon,1995,,Diogenes Verlag,,250,0,German,,,до 2011-01,"3257060513,9783257060515",,,,,,,,,OL9021108M,,0,,,,,,,1,882452,pdf,2A9119FE10901FF9711BF03F9CC0D40B,,,D:\\!genesis\\library.nu\\2a\\_253908.2a9119fe10901ff9711bf03f9cc0d40b.pdf,0,2000-01-01 01:00:00,2016-04-03 02:51:08,557000/2a9119fe10901ff9711bf03f9cc0d40b-d.jpg,,
19576592,"Νεοελληνική Γλώσσα, Γ΄ Γυμνασίου",,,,Μαρία Σπυρογιάννη,2006,,Βολονάκη,,464,0,Greek,,,до 2011-01,"9789603813163,9603813168",,,,,,,,,,,0,,,,,,,1,2866770,pdf,2A536291F140C5B191F2997FA75C5DD4,,,D:\\!genesis\\library.nu\\2a\\_253793.2a536291f140c5b191f2997fa75c5dd4.pdf,0,2000-01-01 01:00:00,2016-04-03 02:51:08,557000/2a536291f140c5b191f2997fa75c5dd4-g.jpg,,
19576593,Schaum's Outline of German Grammar,,Schaum s Outline Series,,"Elke Gschossmann-Hendershot, Lois Feuerle",2009,4,McGraw-Hill Professional,,315,0,English,314,,до 2011-01,"0071615679,9780071615679",,,,,438.2/421,PF3118 .G8 2009,,,OL23606578M,,0,,,,,,,1,6632596,pdf,2A96E391C413F1CC2EDD5D0D48A2836D,,,D:\\!genesis\\library.nu\\2a\\_253664.2a96e391c413f1cc2edd5d0d48a2836d.pdf,0,2000-01-01 01:00:00,2016-04-03 02:51:08,557000/2a96e391c413f1cc2edd5d0d48a2836d-d.jpg,,
19576594,Islam: A Guide for Jews and Christians,,,,F. E. Peters,2003,,Princeton University Press,,300,0,English,205,,до 2011-01,"0691122334,9780691122335,0691115532,9780691115535",,,,,,,,,OL7758699M,,0,,,,,,,1,1814992,pdf,2A5145568E41E8576C84698A261B706E,,,D:\\!genesis\\library.nu\\2a\\_253615.2a5145568e41e8576c84698a261b706e.pdf,0,2000-01-01 01:00:00,2016-04-03 02:51:08,557000/2a5145568e41e8576c84698a261b706e-d.jpg,,
19576595,Chemcom: Chemistry in the Community,,,,Kendall Hunt,1996,3,Kendall Hunt Pub Co,,662,0,English,296,,до 2011-01,"0787205605,9780787205607",,,,,540,TD193 .C472 1998,,,OL1020895M,,0,,,,,,,1,43031515,pdf,2A8777D23CBDA513863AAAF0D53C3DE8,,,D:\\!genesis\\library.nu\\2a\\_253392.2a8777d23cbda513863aaaf0d53c3de8.pdf,0,2000-01-01 01:00:00,2016-04-03 02:51:08,557000/2a8777d23cbda513863aaaf0d53c3de8-g.jpg,,
19576596,Numerical Weather and Climate Prediction,,,,Thomas Tomkins Warner,2011,,Cambridge University Press,,548,0,English,120,,до 2011-01,"0521513898,9780521513890",,,,,551.63/4,QC995 .W27 2011,,,OL24494739M,,0,,,,,,,1,7530005,pdf,2A4B74ED399ADBD71590619B7F3D443C,,,D:\\!genesis\\library.nu\\2a\\_253294.2a4b74ed399adbd71590619b7f3d443c.pdf,0,2000-01-01 01:00:00,2016-04-03 02:51:08,557000/2a4b74ed399adbd71590619b7f3d443c-d.jpg,,
19576597,Tales of Seduction: The Figure of Don Juan in Spanish Culture,,,,Sarah Wright,2007,,Tauris Academic Studies,,305,0,English,,,до 2011-01,"1845114779,9781845114770",,,,,,,,,OL11911295M,,0,,,,,,,1,2146197,pdf,2AEF6FB3521208E030E7E03C0B62F4F5,,,D:\\!genesis\\library.nu\\2a\\_252826.2aef6fb3521208e030e7e03c0b62f4f5.pdf,0,2000-01-01 01:00:00,2016-04-03 02:51:08,557000/2aef6fb3521208e030e7e03c0b62f4f5-d.jpg,,
19576598,Carpe Corpus,,Morganville Vampires 6,,Rachel Caine,2009,,Signet,,135,0,English,,,до 2011-01,"0451227190,9780451227195",,,,,813/.6,PZ7.C1198 Car 2009,,,OL24300438M,,0,,,,,,,1,796444,pdf,2A56CD0604ACBE48C0BA1147DB8FF2AB,,,D:\\!genesis\\library.nu\\2a\\_252287.2a56cd0604acbe48c0ba1147db8ff2ab.pdf,0,2000-01-01 01:00:00,2016-04-03 02:51:08,557000/2a56cd0604acbe48c0ba1147db8ff2ab-d.jpg,,
19576599,Ghost Town,,Morganville Vampires 9,,Rachel Caine,2010,First Edition,NAL Hardcover,,163,0,English,,,до 2011-01,"0451231619,9780451231611",,,,,,,,,OL24394716M,,0,,,,,,,1,956450,pdf,2A848781F8B8595846B7FB3A5C619773,,,D:\\!genesis\\library.nu\\2a\\_252283.2a848781f8b8595846b7fb3a5c619773.pdf,0,2000-01-01 01:00:00,2016-04-03 02:51:08,557000/2a848781f8b8595846b7fb3a5c619773-d.jpg,,
19576600,Through the Language Glass: Why the World Looks Different in Other Languages,,,,Guy Deutscher,2010,,Metropolitan Books,,314,0,English,314,,до 2011-01,,,,,,,,,,,,0,,,,,,,1,4473664,pdf,2AFB0A91C26BB60DEC0DD4F6CD0D676D,,,D:\\!genesis\\library.nu\\2a\\_251701.2afb0a91c26bb60dec0dd4f6cd0d676d.pdf,0,2000-01-01 01:00:00,2016-04-03 02:51:08,557000/2afb0a91c26bb60dec0dd4f6cd0d676d-g.jpg,,
19576601,Sex Ethics and the Kinsey Reports,,,,Seward Hiltner,1953,,Books on Demand,,244,0,English,,,до 2011-01,,,,,,,,,,,,0,,,,,,,0,18161016,pdf,2A14D66A8CDEFB53D9687DABA5A879D1,,,D:\\!genesis\\library.nu\\2a\\_251669.2a14d66a8cdefb53d9687daba5a879d1.pdf,0,2000-01-01 01:00:00,2016-04-03 02:51:08,557000/2a14d66a8cdefb53d9687daba5a879d1-g.jpg,,
19576602,Stylistics: Prospect & Retrospect. (PALA Papers),,,,"David, L. Hoover, Sharon Lattig",2007,,,,236,0,English,,,до 2011-01,"9042023309,9789042023307,9781435613348",,,,,,,,,OL12805119M,,0,,,,,1,,1,4851317,pdf,2AC4991E8A073ABF0D97235D2B01D286,,,D:\\!genesis\\library.nu\\2a\\_2512.2ac4991e8a073abf0d97235d2b01d286.pdf,0,2000-01-01 01:00:00,2016-04-03 02:51:08,557000/2ac4991e8a073abf0d97235d2b01d286-d.jpg,,
19576603,Lektüreschlüssel: Gerhart Hauptmann - Die Weber,,,,Michael Mommert,2006,,Reclam Verlag,,90,0,German,100,,до 2011-01,"3150153689,9783150153680",,,,,,,,,,,0,,,,,,,1,292976,pdf,2A9E787DC25ACBAEC64B406D2AAD4614,,,D:\\!genesis\\library.nu\\2a\\_250949.2a9e787dc25acbaec64b406d2aad4614.pdf,0,2000-01-01 01:00:00,2016-04-03 02:51:08,557000/2a9e787dc25acbaec64b406d2aad4614-d.jpg,,
19576604,Ozzy Osbourne - Randy Rhoads Tribute,,,,"Ozzy Osbourne, Randy Rhoads",1987,,,,128,0,English,,,до 2011-01,"0895243474,9780895243478",,,,,,,,,OL8250388M,,0,,,,,1,,0,6953598,pdf,2A8ED876012F817378F1977ADC46C518,,,D:\\!genesis\\library.nu\\2a\\_25089.2a8ed876012f817378f1977adc46c518.pdf,0,2000-01-01 01:00:00,2016-04-03 02:51:08,557000/2a8ed876012f817378f1977adc46c518-d.jpg,,
19576605,The Humans Who Went Extinct: Why Neanderthals Died Out and We Survived,,,,Clive Finlayson,2009,,"Oxford University Press, USA",,286,0,English,,,до 2011-01,,,,,,,,,,,,0,,,,,,,1,2171642,pdf,2AB6ED8974B9B9ABFEB4CEB71737885A,,,D:\\!genesis\\library.nu\\2a\\_250685.2ab6ed8974b9b9abfeb4ceb71737885a.pdf,0,2000-01-01 01:00:00,2016-04-03 02:51:08,557000/2ab6ed8974b9b9abfeb4ceb71737885a-g.jpg,,
19576606,Overhauling the Legal Infrastructure of Public Procurement in the Philippines: A Study in Political Economy and Communication Strategy (World Bank Working Papers),,,,"J. Edgardo Campos, Jose Luis Syquia",2005,,,,62,0,English,183,,до 2011-01,"0821364359,9780821364352,9780821364369",,,,,346.59902,KPM850 .C36 2005,10.1596/978-0-8213-6435-2,,OL3422811M,,0,,,,,1,,1,4602060,pdf,2AF3795D1A9F115491E03D7BDD4DB498,,,D:\\!genesis\\library.nu\\2a\\_2503.2af3795d1a9f115491e03d7bdd4db498.pdf,0,2000-01-01 01:00:00,2016-04-03 02:51:08,557000/2af3795d1a9f115491e03d7bdd4db498-d.jpg,,
19576607,Bitten & Smitten,,Immortality Bites 1,,Michelle Rowen,2006,First,,,400,0,English,,,до 2011-01,"0446617008,9780446617000",,,,,,,,,OL7537877M,,0,,,,,1,,1,1439805,pdf,2A07D536E053B7FF48EF73195FF7B4E7,,,D:\\!genesis\\library.nu\\2a\\_24744.2a07d536e053b7ff48ef73195ff7b4e7.pdf,0,2000-01-01 01:00:00,2016-04-03 02:51:08,557000/2a07d536e053b7ff48ef73195ff7b4e7-d.jpg,,
19576608,Mathematics for Dyslexics: Including Dyscalculia - 3rd edition,,,,"Steve Chinn, Richard Ashcroft",2006,3,,,336,0,English,113,,до 2011-01,"9780470026922,9780470035047,0470026928",,,,,371.91/44,QA11.2 .C47 2007,,,OL17155621M,,0,,,,,1,,1,1611483,pdf,2ADA2B1821F3933C82219FB6FC7DD643,,,D:\\!genesis\\library.nu\\2a\\_24721.2ada2b1821f3933c82219fb6fc7dd643.pdf,0,2000-01-01 01:00:00,2016-04-03 02:51:08,557000/2ada2b1821f3933c82219fb6fc7dd643-d.jpg,,
19576609,"Gramática de la lengua castellana, destinada al uso de los americanos",,,,Andres Bello,2009,,,,478,0,Spanish,,,до 2011-01,"8496428826,9788496428829",,,,,,,,,OL9893185M,,0,,,,,1,,1,3686819,pdf,2A11A84D7D064A943F97222C7F3FCEBE,,,D:\\!genesis\\library.nu\\2a\\_24473.2a11a84d7d064a943f97222c7f3fcebe.pdf,0,2000-01-01 01:00:00,2016-04-03 02:51:08,557000/2a11a84d7d064a943f97222c7f3fcebe-d.jpg,,
19576610,Just Six Numbers : The Deep Forces that Shape the Universe,,,,Martin Rees,1999,0,,,192,0,English,143,,до 2011-01,"0465036724,9780465036721",,,,,523.1/8,QB981 .R367 2000,,,OL6805306M,,0,,,,,1,,0,8717225,pdf,2A8666AD0F9BDBDDC0999892D22A930E,,,D:\\!genesis\\library.nu\\2a\\_24375.2a8666ad0f9bdbddc0999892d22a930e.pdf,0,2000-01-01 01:00:00,2016-04-03 02:51:08,557000/2a8666ad0f9bdbddc0999892d22a930e-d.jpg,,
19576611,Erzeugnisse Islamischer Kunst (Bearbeitet von F. Sarre. Mit epigraphischen Beiträgen von E. Mittwoch + plates),,,,"Sarre, Friedrich Paul Theodor",,,,,101,0,German,59,,до 2011-01,,,B00181F6JA,,,,,,,,,0,,,,,1,,1,5445883,pdf,2A173CCFBEBFFAE11F656B00F8F14A96,,,D:\\!genesis\\library.nu\\2a\\_24276.2a173ccfbebffae11f656b00f8f14a96.pdf,0,2000-01-01 01:00:00,2016-04-03 02:51:08,557000/2a173ccfbebffae11f656b00f8f14a96-g.jpg,,
19576612,Γιατί αρρωσταίνουμε; Η νέα επιστήμη της Δαρβινικής Ιατρικής (Greek),,,,Randolph M. Nesse & George C. Williams,,,,,302,0,Greek,,,до 2011-01,9605300648,,,,,,,,,,,0,,,,,1,,1,2694783,pdf,2ABF950DF8B478F71D0422B9FE8B56AC,,,D:\\!genesis\\library.nu\\2a\\_24038.2abf950df8b478f71d0422b9fe8b56ac.pdf,0,2000-01-01 01:00:00,2016-04-03 02:51:08,557000/2abf950df8b478f71d0422b9fe8b56ac-g.jpg,,
19576613,Photomedicine in Gynecology & Reproduction,,,,"P. Wyss, Yona Tadir, Bruce J. Tromberg, Urs Haller",1999,1,,,384,0,English,31,,до 2011-01,"380556905X,9783805569057",,,,,,,,,OL9525555M,,0,,,,,1,,1,11823253,pdf,2A08C33C514F47F6CCD463DCFE20EE12,,,D:\\!genesis\\library.nu\\2a\\_23186.2a08c33c514f47f6ccd463dcfe20ee12.pdf,0,2000-01-01 01:00:00,2016-04-03 02:51:08,557000/2a08c33c514f47f6ccd463dcfe20ee12-g.jpg,,
19576614,The Mystique of Enlightenment: The Radical Ideas of U.G. Krishnamurti,,,,U. G. Krishnamurti,2003,,,,168,0,English,,,до 2011-01,"0971078610,9780971078611",,,,,,,,,OL8563309M,,0,,,,,1,,1,594176,pdf,2A93B92AFA7B98318A5085B6E1ECB108,,,D:\\!genesis\\library.nu\\2a\\_22956.2a93b92afa7b98318a5085b6e1ecb108.pdf,0,2000-01-01 01:00:00,2016-04-03 02:51:08,557000/2a93b92afa7b98318a5085b6e1ecb108-d.jpg,,
19576615,Functional Hemodynamic Monitoring (Update in Intensive Care and Emergency Medicine),,,,"Michael R. Pinsky, Didier Payen",2004,1,,,419,0,English,147,,до 2011-01,"3540223495,9783540223498,3540229868,9783540229865,9783540269007",,B000RQKY3U,,,616.1/0754,RC670.5.H45 F86 2006,,,OL19291990M,,0,,,,,1,,1,3759444,pdf,2AD4F94F006D8128D793C209985E2435,,,D:\\!genesis\\library.nu\\2a\\_22271.2ad4f94f006d8128d793c209985e2435.pdf,0,2000-01-01 01:00:00,2016-04-03 02:51:08,557000/2ad4f94f006d8128d793c209985e2435-d.jpg,,
19576616,Lord Shanmukha and His Worship,,,,Sri Swami Sivananda,1950,1ST,,,102,0,English,,,до 2011-01,81-7052-115-7,,B000RETO7O,,,,,,,,,0,,,,,1,,1,340460,pdf,2A41B91F104C3887096271E1E6AD9DDF,,,D:\\!genesis\\library.nu\\2a\\_22115.2a41b91f104c3887096271e1e6ad9ddf.pdf,0,2000-01-01 01:00:00,2016-04-03 02:51:08,557000/2a41b91f104c3887096271e1e6ad9ddf-g.jpg,,
19576617,Integrierte Raum- und Eisenbahnentwicklung am Hochrhein und Oberrhein  German,,,,Bernd Scholl,2007,,,,82,0,German,,,до 2011-01,"3866441592,9783866441590",,,,,,,,,,,0,,,,,1,,0,8892253,pdf,2A671B33BA9A38D83A5DF6C932C9D333,,,D:\\!genesis\\library.nu\\2a\\_22036.2a671b33ba9a38d83a5df6c932c9d333.pdf,0,2000-01-01 01:00:00,2016-04-03 02:51:08,557000/2a671b33ba9a38d83a5df6c932c9d333-d.jpg,,
19576618,"The Leisure Economy: How Changing Demographics, Economics, and Generational Attitudes Will Reshape Our Lives and Our Industries",,,,Linda Nazareth,,,,,262,0,English,305,,до 2011-01,978-0-470-84034-4,,,,,,,,,,,0,,,,,,,1,1276882,pdf,2A341680B360503048F07F3E3A6CFDAA,,,D:\\!genesis\\library.nu\\2a\\_219317.2a341680b360503048f07f3e3a6cfdaa.pdf,0,2000-01-01 01:00:00,2016-04-03 02:51:08,557000/2a341680b360503048f07f3e3a6cfdaa-g.jpg,,
19576619,"Reason, Truth and History (Philosophical Papers (Cambridge))",,,,Hilary Putnam,1981,,,,236,0,English,64,,до 2011-01,"0521297761,9780521297769",,,,,121,BD171 .P875,,,OL4260487M,,0,,,,,1,,1,5045701,djvu,2A3AD5B9D351994D49BFA91C8553F8A7,,,D:\\!genesis\\library.nu\\2a\\_21875.2a3ad5b9d351994d49bfa91c8553f8a7.djvu,0,2000-01-01 01:00:00,2016-04-03 02:51:08,557000/2a3ad5b9d351994d49bfa91c8553f8a7-d.jpg,,
19576620,Taxonomy for the Technology Domain,,,,Lawrence A. Tomei,,,,,297,0,English,,,до 2011-01,"1-59140-524-6,1-59140-525-4,1-59140-526-2",,,,,,,,,,,0,,,,,,,1,4588319,pdf,2A34F077856736B67C47B585A7978F83,,,D:\\!genesis\\library.nu\\2a\\_218535.2a34f077856736b67c47b585a7978f83.pdf,0,2000-01-01 01:00:00,2016-04-03 02:51:08,557000/2a34f077856736b67c47b585a7978f83-g.jpg,,
19576621,"Blueprint for Learning: Constructing College Courses to Facilitate, Assess, and Document Learning",,,,Laurie Richlin,,,,,176,0,English,236,,до 2011-01,"1-57922-142-4,1-57922-143-2,978-1-57922-142-3,978-1-57922-143-0",,,,,,,,,,,0,,,,,,,1,3289409,pdf,2A4E094397EF4F73A578CD82D274CD14,,,D:\\!genesis\\library.nu\\2a\\_218462.2a4e094397ef4f73a578cd82d274cd14.pdf,0,2000-01-01 01:00:00,2016-04-03 02:51:08,557000/2a4e094397ef4f73a578cd82d274cd14-g.jpg,,
19576622,Creating an Opportunity Society,,,,"Ron Haskins, Isabel Sawhill",,,,,367,0,English,,,до 2011-01,978-0-8157-0322-8,,,,,,,,,,,0,,,,,,,1,1612214,pdf,2A8FCB28B0B2D9C8DE37959095E03232,,,D:\\!genesis\\library.nu\\2a\\_217972.2a8fcb28b0b2d9c8de37959095e03232.pdf,0,2000-01-01 01:00:00,2016-04-03 02:51:08,557000/2a8fcb28b0b2d9c8de37959095e03232-g.jpg,,
19576623,Partisan Hearts and Minds: Political Parties and the Social Identity of Voters,,,,"Donald Green, Bradley Palmquist, Eric Schickler",,,,,279,0,English,189,,до 2011-01,0-300-09215-6,,,,,,,,,,,0,,,,,,,1,1673305,pdf,2A0791A31E68BFE8357E75DB74C528A9,,,D:\\!genesis\\library.nu\\2a\\_217923.2a0791a31e68bfe8357e75db74c528a9.pdf,0,2000-01-01 01:00:00,2016-04-03 02:51:08,557000/2a0791a31e68bfe8357e75db74c528a9-g.jpg,,
19576624,90 Dakikada Nietzsche,,,,Paul Strathern,,,,,18,0,Turkish,,,до 2011-01,"9789757809302,9757809306",,,,,,,,,,,0,,,,,,,1,217093,pdf,2AD3398253B544B73C38B201A7DAA198,,,D:\\!genesis\\library.nu\\2a\\_217407.2ad3398253b544b73c38b201a7daa198.pdf,0,2000-01-01 01:00:00,2016-04-03 02:51:08,557000/2ad3398253b544b73c38b201a7daa198-g.jpg,,
19576625,"The Rise of China and India: Impacts, Prospects and Implications (Studies in Development Economics and Policy)",,,,"Amelia U. Santos-Paulino, Guanghua Wan",2010,,,,336,0,English,305,,до 2011-01,"0230252737,9780230252738",,,,,,,,,,,0,,,,,,,1,3062726,pdf,2A97802AD7612F2009A1A312BA93AB0C,,,D:\\!genesis\\library.nu\\2a\\_217316.2a97802ad7612f2009a1a312ba93ab0c.pdf,0,2000-01-01 01:00:00,2016-04-03 02:51:08,557000/2a97802ad7612f2009a1a312ba93ab0c-d.jpg,,
19576626,"Water Resources Allocation: Policy and Socioeconomic Issues in Cyprus (Global Issues in Water Policy, 1)",,GLOBAL ISSUES IN WATER POLICY 1,,Phoebe Koundouri,2010,1st Edition.,,,164,0,English,192,,до 2011-01,"9048198240,9789048198245",,,,,,,10.1007/978-90-481-9825-2,,,,0,,,,,,,1,2779089,pdf,2A8D63F0734524A57DC1545F5ED85578,,,D:\\!genesis\\library.nu\\2a\\_216591.2a8d63f0734524a57dc1545f5ed85578.pdf,0,2000-01-01 01:00:00,2016-04-03 02:51:08,557000/2a8d63f0734524a57dc1545f5ed85578-d.jpg,,
19576627,"Laser Science And Applications: Proceedings of the 6th Intl Conf Natl Inst of Laser Enhanced Sciences, Cairo Univ, Egypt 15-18, January 2007",,,,Lotfia M. El-nadi,2010,,,,292,0,English,137,,до 2011-01,"9812814590,9789812814593",,,,,,,,,,,0,,,,,,,1,35308093,pdf,2A4C417CD5C40F3017C623C90C9175C4,,,D:\\!genesis\\library.nu\\2a\\_216039.2a4c417cd5c40f3017c623c90c9175c4.pdf,0,2000-01-01 01:00:00,2016-04-03 02:51:08,557000/2a4c417cd5c40f3017c623c90c9175c4-d.jpg,,
19576628,Defending the Faith: A Beginner's Guide to Cults and New Religions,,,,Richard Abanes,1998,,,,239,0,English,187,,до 2011-01,"0801057825,9780801057823",,,,,239/.93,BT1102 .A28 1997,,,OL677622M,,0,,,,,,,1,29217057,pdf,2A0E9C3B980B0449347C6F1E7FA24071,,,D:\\!genesis\\library.nu\\2a\\_215602.2a0e9c3b980b0449347c6f1e7fa24071.pdf,0,2000-01-01 01:00:00,2016-04-03 02:51:08,557000/2a0e9c3b980b0449347c6f1e7fa24071-d.jpg,,
19576629,Antibiotics: The Perfect Storm,,,,David M. Shlaes,2010,1st Edition.,,,110,0,English,18,,до 2011-01,"9048190568,9789048190560,9789048190577",,,,,,,10.1007/978-90-481-9057-7,,,,0,,,,,,,1,1641191,pdf,2A697681CA8989DE604BADF9E5C748F9,,,D:\\!genesis\\library.nu\\2a\\_215475.2a697681ca8989de604badf9e5c748f9.pdf,0,2000-01-01 01:00:00,2016-04-03 02:51:08,557000/2a697681ca8989de604badf9e5c748f9-d.jpg,,
19576630,Islamic Banking and Finance: New Perspectives on Profit Sharing and Risk,,,,International Conference on Islamic Economics and Banking (4th : 2000 : Loughborough University),2002,,,,250,0,English,305,,до 2011-01,"1840647876,9781840647877,9781843765318",,,,,,,,,OL12563815M,,0,,,,,,,1,2648849,pdf,2AB2BF1FDFBBDD7F52F255B2EA0FA0B4,,,D:\\!genesis\\library.nu\\2a\\_214580.2ab2bf1fdfbbdd7f52f255b2ea0fa0b4.pdf,0,2000-01-01 01:00:00,2016-04-03 02:51:08,557000/2ab2bf1fdfbbdd7f52f255b2ea0fa0b4-d.jpg,,
19576631,Compendium of Questionnaires and Inventories Volume 2,,,,Sarah Cook,2007,,,,364,0,English,137,,до 2011-01,"1599960575,9781599960579",,,,,,,,,OL12502714M,,0,,,,,,,1,446727,pdf,2A02E017115CB160C5CEEDB1467CD07C,,,D:\\!genesis\\library.nu\\2a\\_214457.2a02e017115cb160c5ceedb1467cd07c.pdf,0,2000-01-01 01:00:00,2016-04-03 02:51:08,557000/2a02e017115cb160c5ceedb1467cd07c-d.jpg,,
19576632,Do I Need It? or Do I Want It?: Making Budget Choices (Lightning Bolt Books - Exploring Economics),,,,Jennifer S. Larson,2010,,,,32,0,English,305,,до 2011-01,"0761356649,0761339140,9780761339144,9780761359524,0761359524,9780761356646",,,,,332.024,HG179 .L267 2010,,,OL23614722M,,0,,,,,,,1,12049447,pdf,2ABCA050F1A7305C14D3D42929ACDA1C,,,D:\\!genesis\\library.nu\\2a\\_212730.2abca050f1a7305c14d3d42929acda1c.pdf,0,2000-01-01 01:00:00,2016-04-03 02:51:08,557000/2abca050f1a7305c14d3d42929acda1c-d.jpg,,
19576633,Nikita Mikhalkov: The Filmmaker's Companion 1 (The KINOfiles Filmmaker's Companions),,,,Birgit Beumers,2005,,,,168,0,English,,,до 2011-01,"1860647855,9781860647857,9781423709404",,,,,791.4302/33/092,PN1998.3.M5 B48 2005,,,OL3434199M,,0,,,,,1,,1,1122999,pdf,2A89F3DD6BBFC144CEE52CAB1FEFF190,,,D:\\!genesis\\library.nu\\2a\\_2124.2a89f3dd6bbfc144cee52cab1feff190.pdf,0,2000-01-01 01:00:00,2016-04-03 02:51:08,557000/2a89f3dd6bbfc144cee52cab1feff190-d.jpg,,
19576634,Diccionario De Directores Del Western,,,,Vicente Del Castillo,2007,,,,208,0,Spanish,322,,до 2011-01,"8496576450,9788496576452",,,,,,,,,,,0,,,,,,,1,6562275,pdf,2A74C3D83B0BAB9D0B432F134D1C1091,,,D:\\!genesis\\library.nu\\2a\\_211733.2a74c3d83b0bab9d0b432f134d1c1091.pdf,0,2000-01-01 01:00:00,2016-04-03 02:51:08,557000/2a74c3d83b0bab9d0b432f134d1c1091-g.jpg,,
19576635,The Rise of ''The Rest'': Challenges to the West from Late-Industrializing Economies,,,,Alice H. Amsden,2001,,,,416,0,English,305,,до 2011-01,"0195139690,9780195139693,9781423745662",,,,,338.9/009172/4,HC59.7 .A7784 2001,,,OL18314144M,,0,,,,,,,1,1598281,pdf,2A684CFAD9FED2700D5E9C4324F6CE3D,,,D:\\!genesis\\library.nu\\2a\\_211259.2a684cfad9fed2700d5e9c4324f6ce3d.pdf,0,2000-01-01 01:00:00,2016-04-03 02:51:08,557000/2a684cfad9fed2700d5e9c4324f6ce3d-d.jpg,,
19576636,Varsity Green: A Behind the Scenes Look at Culture and Corruption in College Athletics,,,,Mark Yost,2009,,,,208,0,English,,,до 2011-01,"0804769699,9780804769693",,,,,796.04/30973,GV351 .Y67 2010,,,OL23397799M,,0,,,,,,,1,1472178,pdf,2AD27764798C9D2FEFB4C0090E45F427,,,D:\\!genesis\\library.nu\\2a\\_210811.2ad27764798c9d2fefb4c0090e45f427.pdf,0,2000-01-01 01:00:00,2016-04-03 02:51:08,557000/2ad27764798c9d2fefb4c0090e45f427-d.jpg,,
19576637,The law of electronic commerce,,,,Alan Davidson,2009,1,Cambridge University Press,,438,0,English,250,,до 2011-01,"052167865X,9780521678650,9780511818400",,,,,,,10.1017/CBO9780511818400,SS_Zy7f6ds8C,,,0,,,,1,0,1,1,1618678,pdf,2A7A60F752D52DDB1C050EAB7D0A9E76,,,D:/!genesis/library.nu/2a/_210742.2a7a60f752d52ddb1c050eab7d0a9e76.pdf,0,2000-01-01 01:00:00,2016-04-03 02:51:08,557000/2a7a60f752d52ddb1c050eab7d0a9e76-d.jpg,,
19576638,Help with Words (Heinemann English Language Practice),,,,"Nick Hall, John Shepheard",1992,,,,122,0,English,314,,до 2011-01,"0435281178,9780435281175",,,,,,,,,OL10244836M,,0,,,,,,,0,7801412,pdf,2A0E545F9F8593DD377E7DE653115D95,,,D:\\!genesis\\library.nu\\2a\\_210293.2a0e545f9f8593dd377e7de653115d95.pdf,0,2000-01-01 01:00:00,2016-04-03 02:51:08,557000/2a0e545f9f8593dd377e7de653115d95-g.jpg,,
19576639,Basi di dati : modelli e linguaggi di interrogazione,,,,"P. Atzeni, S. Ceri, S. Paraboschi, R. Torlone",,,,,414,0,Italian,,,до 2011-01,"8838662924,9788838662928",,,,,,,,,,,0,,,,,,,0,10207235,djvu,2A0D7BDA6B80372EA159AE5DA26AE895,c3b4e2c25c9beed2ec072018b71cb17f,no,D:\\!genesis\\library.nu\\2a\\_210193.2a0d7bda6b80372ea159ae5da26ae895.djvu,0,2000-01-01 01:00:00,2016-04-03 02:51:08,557000/2a0d7bda6b80372ea159ae5da26ae895-g.jpg,,
19576640,An Ideal Wife,,,,"Betty Neels,",2001,New Ed,,,219,0,English,,,до 2011-01,"0263824659730,9780263824650",,,,,,,,,,,0,,,,,,,,216512,lit,2AD0658A4EC0263B2F6C82BE319A6293,,,D:\\!genesis\\library.nu\\2a\\_210040.2ad0658a4ec0263b2f6c82be319a6293.lit,0,2000-01-01 01:00:00,2016-04-03 02:51:08,557000/2ad0658a4ec0263b2f6c82be319a6293-d.jpg,,
19576641,The Sims 3 Ambitions Expansion Pack - Prima Essential Guide: Prima Official Game Guide (Prima Essential Guides),,,,Prima Games,2010,Spi,,,192,0,English,,,до 2011-01,"9780307467423,0307467422",,,,,,,,,,,0,,,,,,,1,46501975,pdf,2A3CD763486F3C6CACD238FE12161E06,,,D:\\!genesis\\library.nu\\2a\\_209977.2a3cd763486f3c6cacd238fe12161e06.pdf,0,2000-01-01 01:00:00,2016-04-03 02:51:08,557000/2a3cd763486f3c6cacd238fe12161e06-d.jpg,,
19576642,Batman The Widening Gyre #5,,,,See Info,2010,,,,28,0,English,,,до 2011-01,,,B003B99H56,,,,,,,,,0,,,,,,,0,19156838,pdf,2AC2C0DC43C9948AE882CD57565BFF82,,,D:\\!genesis\\library.nu\\2a\\_209925.2ac2c0dc43c9948ae882cd57565bff82.pdf,0,2000-01-01 01:00:00,2016-04-03 02:51:08,557000/2ac2c0dc43c9948ae882cd57565bff82-d.jpg,,
19576643,"The cutworm moths of Ontario and Quebec (Publication - Research Branch, Canada Department of Agriculture ; 1593)",,,,Eric W Rockburne,1976,,,,164,0,English,,,до 2011-01,"066000514X,9780660005140",,,,,"630/.8 s,595.7/81","S133 .A346 no. 1593,QL561.N7 .A346 no. 1593",,,OL4612570M,,0,,,,,,,1,8081372,pdf,2AC465EEC92B175B625CBFAAEF45CF1E,,,D:\\!genesis\\library.nu\\2a\\_209913.2ac465eec92b175b625cbfaaef45cf1e.pdf,0,2000-01-01 01:00:00,2016-04-03 02:51:08,557000/2ac465eec92b175b625cbfaaef45cf1e-g.jpg,,
19576644,Pesticides in Tropical  Agriculture  (Advances in Chemistry Series 013),,,,American Chemical Society,1955,First Edition,,,103,0,English,296,,до 2011-01,"9780841221598,9780841200142",,B000HKRIO4,,,,,10.1021/ba-1955-0013.fw001,,,,0,,,,,,,1,2583490,pdf,2A020D23E13D2E8E723771D74EE35054,,,D:\\!genesis\\library.nu\\2a\\_209720.2a020d23e13d2e8e723771d74ee35054.pdf,0,2000-01-01 01:00:00,2016-04-03 02:51:08,557000/2a020d23e13d2e8e723771d74ee35054-g.jpg,,
19576645,Queer French,,,,Denis M. Provencher,2007,,,,236,0,English,,,до 2011-01,"0754647951,9780754647959,9780754686460",,,,,306.76/60944,HQ76.3.F8 P76 2007,,,OL10852669M,,0,,,,,,,1,1164056,pdf,2A10F7722233495759F83664E6F9FD72,,,D:\\!genesis\\library.nu\\2a\\_209100.2a10f7722233495759f83664e6f9fd72.pdf,0,2000-01-01 01:00:00,2016-04-03 02:51:08,557000/2a10f7722233495759f83664e6f9fd72-d.jpg,,
19576646,Praktische Philosophie in Fichtes Spaetwerk: Beitraege zum Fuenften Internationalen Fichte-Kongress Johann Gottlieb Fichte. Das Spaetwerk (1810-1814) ... (Fichte-Studien 29) (German Edition) (v. 2),,,,"Gunter Zoeller, Hans George Von Manz",2006,,,,224,0,German,64,,до 2011-01,"9789042020955,9042020954,9781429456371",,,,,,,,,OL12804981M,,0,,,,,,,1,1601563,pdf,2A99DCCC13E25DB11181405C941455E2,,,D:\\!genesis\\library.nu\\2a\\_209082.2a99dccc13e25db11181405c941455e2.pdf,0,2000-01-01 01:00:00,2016-04-03 02:51:08,557000/2a99dccc13e25db11181405c941455e2-d.jpg,,
19576647,Funktionelle MRT in Psychiatrie und Neurologie (German Edition),,,,"Frank Schneider, Gereon R. Fink",2006,1,,,689,0,German,198,,до 2011-01,"3540204741,9783540204749,9783540685586",,,,,,,,,OL12772938M,,0,,,,,,,1,27261271,pdf,2ACA50678D9121883737845BD8463BF4,,,D:\\!genesis\\library.nu\\2a\\_209010.2aca50678d9121883737845bd8463bf4.pdf,0,2000-01-01 01:00:00,2016-04-03 02:51:08,557000/2aca50678d9121883737845bd8463bf4-d.jpg,,
19576648,Inside the Chess Mind: How Players of All Levels Think About the Game,,,,Jacob Aagaard,2004,1st,,,160,0,English,46,,до 2011-01,"1857443578,9781857443578",,,,,,,,,OL8999932M,,0,,,,,,,0,4351734,djvu,2A426AFB04CE923577BA679D1344467C,3cb26672c2cdf02dc66b58dcfffb6154,no,D:\\!genesis\\library.nu\\2a\\_208372.2a426afb04ce923577ba679d1344467c.djvu,0,2000-01-01 01:00:00,2016-04-03 02:51:08,557000/2a426afb04ce923577ba679d1344467c-d.jpg,,
19576649,Mein Auto spiegelt mich  GERMAN,,,,Christa Kössner,2001,,,,144,0,German,,,до 2011-01,"3850685780,9783850685788",,,,,,,,,,,0,,,,,,,1,657289,pdf,2AB4DD9427DD62DD2458EB2CFCB04C6C,,,D:\\!genesis\\library.nu\\2a\\_208260.2ab4dd9427dd62dd2458eb2cfcb04c6c.pdf,0,2000-01-01 01:00:00,2016-04-03 02:51:08,557000/2ab4dd9427dd62dd2458eb2cfcb04c6c-d.jpg,,
19576650,"The Firstborn of Many: Doctrinal and Practical Christology (Marquette Studies in Theology, #20.)",,,,Donald L. Gelpi,2000,,,,585,0,English,183,,до 2011-01,"0874626463,9780874626469,9780585445922",,,,,232,BT205 .G37 2001,,,OL6777589M,,0,,,,,,,1,17940016,pdf,2A70BBFC0EB3AA9353B7181FE3EAF844,,,D:\\!genesis\\library.nu\\2a\\_207942.2a70bbfc0eb3aa9353b7181fe3eaf844.pdf,0,2000-01-01 01:00:00,2016-04-03 02:51:08,557000/2a70bbfc0eb3aa9353b7181fe3eaf844-d.jpg,,
19576651,Fundamentals of Psycholinguistics (Fundamentals of Linguistics),,,,"Eva M. Fernández, Helen Smith Cairns",2010,1,,,336,0,English,319,,до 2011-01,"140519152X,9781405191524,1405191473,9781405191470,9781444392777",,,,,401/.9,P37 .F47 2010,,,OL24040405M,,0,,,,,,,1,3080070,pdf,2A83BA8B3584A1AFCF45F1F18A7331EC,,,D:\\!genesis\\library.nu\\2a\\_206593.2a83ba8b3584a1afcf45f1f18a7331ec.pdf,0,2000-01-01 01:00:00,2016-04-03 02:51:08,557000/2a83ba8b3584a1afcf45f1f18a7331ec-d.jpg,,
19576652,Lifehouse,,,,Spider Robinson,1997,,,,288,0,English,,,до 2011-01,"0671877771,0671858262,9780671858261,9780671877774",,,,,,,,,OL24936349M,,0,,,,,,,1,827989,pdf,2ADEB1BD4FEA8BEA4C83960091809CBB,,,D:\\!genesis\\library.nu\\2a\\_206542.2adeb1bd4fea8bea4c83960091809cbb.pdf,0,2000-01-01 01:00:00,2016-04-03 02:51:08,557000/2adeb1bd4fea8bea4c83960091809cbb-d.jpg,,
19576653,30 Minuten für Ihre erfolgreiche Tagungsplanung,,,,Thomas Kühn,2005,,,,79,0,German,,,до 2011-01,"3897495589,9783897495586",,,,,,,,,,,0,,,,,,,1,897884,pdf,2A5CE28726476F4CC021F99A0A309254,,,D:\\!genesis\\library.nu\\2a\\_206219.2a5ce28726476f4cc021f99a0a309254.pdf,0,2000-01-01 01:00:00,2016-04-03 02:51:08,557000/2a5ce28726476f4cc021f99a0a309254-d.jpg,,
19576654,Le matérialisme rationnel,,,,Gaston Bachelard,,,,,227,0,French,,,до 2011-01,"213056285X,9782130562856",,,,,,,,,,,0,,,,,,,1,3982048,djvu,2A3A6098CCFA43265B6AC8B09AD6106E,,,D:\\!genesis\\library.nu\\2a\\_206182.2a3a6098ccfa43265b6ac8b09ad6106e.djvu,0,2000-01-01 01:00:00,2016-04-03 02:51:08,557000/2a3a6098ccfa43265b6ac8b09ad6106e-g.jpg,,
19576655,Black Hole Sun,,,,David Macinnis Gill,2010,1,,,352,0,English,266,,до 2011-01,"0061673048,9780061673047",,,,,,,,,OL23606286M,,0,,,,,,,1,860368,pdf,2A263FDE2E24575A0EEC5435DC6CD271,,,D:\\!genesis\\library.nu\\2a\\_206089.2a263fde2e24575a0eec5435dc6cd271.pdf,0,2000-01-01 01:00:00,2016-04-03 02:51:08,557000/2a263fde2e24575a0eec5435dc6cd271-d.jpg,,
19576656,Sozialpolitik: Ökonomisierung und Entgrenzung,,,,"Adalbert Evers, Rolf G. Heinze",2008,,,,341,0,German,,,до 2011-01,"3531157663,9783531157665",,,,,,,,,OL16979379M,,0,,,,,,,1,1364429,pdf,2A25A05D4A845AF4FE481C0D08767D0A,,,D:\\!genesis\\library.nu\\2a\\_205766.2a25a05d4a845af4fe481c0d08767d0a.pdf,0,2000-01-01 01:00:00,2016-04-03 02:51:08,557000/2a25a05d4a845af4fe481c0d08767d0a-d.jpg,,
19576657,Data Collection: Planning for and Collecting All Types of Data (Measurement and Evaluation Series),,,,"Cathy Stawarski, Patricia Pullian Phillips",2008,1,,,192,0,English,116,,до 2011-01,"9780470179017,9780787987183,0787987182",,,,,001.4/33,HD69.P75 P496 2008,,,OL11097807M,,0,,,,,,,1,2345968,pdf,2A575D1F63054058D39B86BA79B38824,,,D:\\!genesis\\library.nu\\2a\\_205655.2a575d1f63054058d39b86ba79b38824.pdf,0,2000-01-01 01:00:00,2016-04-03 02:51:08,557000/2a575d1f63054058d39b86ba79b38824-d.jpg,,
19576658,"Plunkett's Nanotechnology & Mems Industry Almanac 2010: Nanotechnology & MEMS Industry Market Research, Statistics, Trends & Leading Companies (Plunkett's Nanotechnology & Mems Industry Almanac)",,,,Jack W. Plunkett,2010,Pap/Cdr,,,434,0,English,137,,до 2011-01,"1593921721,9781593921729,9781593925154",,,,,,,,,,,0,,,,,,,1,3832744,pdf,2A2A9868A0A9336B62406FB74BD21F78,,,D:\\!genesis\\library.nu\\2a\\_205517.2a2a9868a0a9336b62406fb74bd21f78.pdf,0,2000-01-01 01:00:00,2016-04-03 02:51:08,557000/2a2a9868a0a9336b62406fb74bd21f78-d.jpg,,
19576659,The Evolution of Aging,,,,"Theodore, C. Goldsmith",2006,,,,200,0,English,,,до 2011-01,"0978870905,9780978870904",,,,,612.6/7,QP86 .G65 2006,,,OL19709116M,,0,,,,,,,1,1545596,pdf,2A6D8CDDC10C66B3C879353DDBEC9644,,,D:\\!genesis\\library.nu\\2a\\_205385.2a6d8cddc10c66b3c879353ddbec9644.pdf,0,2000-01-01 01:00:00,2016-04-03 02:51:08,557000/2a6d8cddc10c66b3c879353ddbec9644-d.jpg,,
19576660,Native Shakespeares : Indigenous Appropriations on a Global Stage,,,,Craig Dionne and Parmita Kapadia,2008,,,,258,0,English,,,до 2011-01,"0754662969,9780754681182,9780754662969",,,,,822.3/3,PR2880.A1 .N38 2008,,,OL16365341M,,0,,,,,,,1,1073229,pdf,2A4B1A817221EBCE986465E27F58A1DF,,,D:\\!genesis\\library.nu\\2a\\_205051.2a4b1a817221ebce986465e27f58a1df.pdf,0,2000-01-01 01:00:00,2016-04-03 02:51:08,557000/2a4b1a817221ebce986465e27f58a1df-d.jpg,,
19576661,Gesucht: Kulturmanager,,,,Armin Klein,,,,,227,0,German,,,до 2011-01,"3531162411,9783531162416",,,,,,,,,,,0,,,,,,,1,1842752,pdf,2A5049B25663D1A86D1F3844A09DF207,,,D:\\!genesis\\library.nu\\2a\\_204992.2a5049b25663d1a86d1f3844a09df207.pdf,0,2000-01-01 01:00:00,2016-04-03 02:51:08,557000/2a5049b25663d1a86d1f3844a09df207-d.jpg,,
19576662,Practical Mysticism,,,,Evelyn Underhill,2007,,,,88,0,English,,,до 2011-01,"1406549924,9781406549928",,,,,,,,,OL9692562M,,0,,,,,,,1,390772,pdf,2AFF1A8642DBAEC4505E6F59797D38DE,,,D:\\!genesis\\library.nu\\2a\\_204701.2aff1a8642dbaec4505e6f59797d38de.pdf,0,2000-01-01 01:00:00,2016-04-03 02:51:08,557000/2aff1a8642dbaec4505e6f59797d38de-d.jpg,,
19576663,Managing Coastal and Inland Waters: Pre-existing Aquatic Management Systems in Southeast Asia,,,,"Kenneth Ruddle, Arif Satria",2010,1st Edition.,,,202,0,English,7,,до 2011-01,"9048195543,9789048195541",,,,,,,10.1007/978-90-481-9555-8,,,,0,,,,,,,1,4427217,pdf,2A052019287BB5E05F0001FB21F0F61F,,,D:\\!genesis\\library.nu\\2a\\_204141.2a052019287bb5e05f0001fb21f0f61f.pdf,0,2000-01-01 01:00:00,2016-04-03 02:51:08,557000/2a052019287bb5e05f0001fb21f0f61f-d.jpg,,
19576664,Yours to Command: The Life and Legend of Texas Ranger Captain Bill McDonald (Frances B. Vick Series),,,,Harold J. Weiss Jr.,2009,First Edition,,,480,0,English,,,до 2011-01,"1574412604,9781574412604",,,,,"363.28,B",F391.M142 W456 2009,,,OL23016957M,,0,,,,,,,1,4072977,pdf,2AE8FA3A627D07BEE55982779C0681E7,,,D:\\!genesis\\library.nu\\2a\\_203797.2ae8fa3a627d07bee55982779c0681e7.pdf,0,2000-01-01 01:00:00,2016-04-03 02:51:08,557000/2ae8fa3a627d07bee55982779c0681e7-d.jpg,,
19576665,Milliyetçilik ve Türkiye-AB İlişkileri,,,,Umut Özkırımlı,,,,,135,0,Turkish,,,до 2011-01,9789758112944,,,,,,,,,OL25059202M,,0,,,,,,,1,2237556,pdf,2ABD958EF8F570A91DFFB2D752202AA7,,,D:\\!genesis\\library.nu\\2a\\_203688.2abd958ef8f570a91dffb2d752202aa7.pdf,0,2000-01-01 01:00:00,2016-04-03 02:51:08,557000/2abd958ef8f570a91dffb2d752202aa7-g.jpg,,
19576666,Sisters of Salome,,,,Ms. Toni Bentley,2002,First Edition,,,223,0,English,,,до 2011-01,"0300090390,9780300090390,9780300127256",,,,,"792.8/092/2,B",GV1785.A1 B47 2002,,,OL24962694M,,0,,,,,,,1,2379788,pdf,2A7573F79A2B6300F0346D38C377AAD5,,,D:\\!genesis\\library.nu\\2a\\_203402.2a7573f79a2b6300f0346d38c377aad5.pdf,0,2000-01-01 01:00:00,2016-04-03 02:51:08,557000/2a7573f79a2b6300f0346d38c377aad5-d.jpg,,
19576667,Black Coffee,,,,Agatha Christie,1998,First Edition,,,192,0,English,,,до 2011-01,"9780002326629,0002326620",,,,,,,,,OL21384240M,,0,,,,,1,,1,514321,pdf,2AE4A74780FF9C3F982CD81BDF26DD57,,,D:\\!genesis\\library.nu\\2a\\_20332.2ae4a74780ff9c3f982cd81bdf26dd57.pdf,0,2000-01-01 01:00:00,2016-04-03 02:51:08,557000/2ae4a74780ff9c3f982cd81bdf26dd57-d.jpg,,
19576668,"The Aqquyunlu: Clan, Confederation, Empire (Revised and Expanded Edition)",,,,"John Woods, John E. Woods",1998,Rev&exp,,,178,0,English,,,до 2011-01,"9780585129563,9780874805659,0874805651",,,,,956.1/015,DS27.52.W66 1999,,,OL374585M,,0,,,,,,,1,43498240,pdf,2AF1692A8D78487DF5A8C79D999D869F,,,D:\\!genesis\\library.nu\\2a\\_203079.2af1692a8d78487df5a8c79d999d869f.pdf,0,2000-01-01 01:00:00,2016-04-03 02:51:08,557000/2af1692a8d78487df5a8c79d999d869f-g.jpg,,
19576669,Theoretische Elektrotechnik: Eine Einführung 16. Auflage,,,,"Karl Küpfmüller, Wolfgang Mathis, Albrecht Reibiger",2005,"16., vollst. neu bearb. u. aktualisierte Aufl.",Springer,,740,0,German,250,,до 2011-01,"9783540207924,3540207929",,,,,,,,,OL9461881M,,0,,,,0,0,,1,9127083,pdf,2AA220637D9167DA35D7D60A4D5B0425,,,D:\\!genesis\\library.nu\\2a\\_20281.2aa220637d9167da35d7d60a4d5b0425.pdf,0,2000-01-01 01:00:00,2016-04-03 02:51:08,557000/2aa220637d9167da35d7d60a4d5b0425-d.jpg,,
19576670,"Improving Disaster Management: The Role of IT in Mitigation, Preparedness, Response, and Recovery",,,,"lt;i Editors, Committee on Using Information Technology to Enhance Disaster Management Ted Schmitt, National Research Council",2007,,,,192,0,English,,,до 2011-01,"0309103967,9780309103961",,,,,,,,,OL10359277M,,0,,,,,,,1,772253,pdf,2AB260F7225D6C59A0C61FE3ED6F48D1,,,D:\\!genesis\\library.nu\\2a\\_202668.2ab260f7225d6c59a0c61fe3ed6f48d1.pdf,0,2000-01-01 01:00:00,2016-04-03 02:51:08,557000/2ab260f7225d6c59a0c61fe3ed6f48d1-d.jpg,,
19576671,Paediatric Exercise Physiology: Advances in Sport and Exercise Science Series,,,,Neil Armstrong PhD  DSc,2007,1,,,378,0,English,178,,до 2011-01,"0443102600,9780443102608",,,,,,,,,OL10259554M,,0,,,,,,,1,3684195,pdf,2A2A402D45D048F7F5BC1107DEEE77DC,,,D:\\!genesis\\library.nu\\2a\\_202638.2a2a402d45d048f7f5bc1107deee77dc.pdf,0,2000-01-01 01:00:00,2016-04-03 02:51:08,557000/2a2a402d45d048f7f5bc1107deee77dc-d.jpg,,
19576672,Fundamentals of Physics,,,,"David Halliday, Robert Resnick, Jearl Walker",2010,9,Wiley,,1127,0,English,132,,до 2011-01,"0470469080,9780470556535,9780470469118,9780470469088,0470469110,0470556536",,,,,,,,,,,0,,,,,,,1,93889540,pdf,2A45EBB70D86587D135A52F6A2B7BCCF,,,D:\\!genesis\\library.nu\\2a\\_202617.2a45ebb70d86587d135a52f6a2b7bccf.pdf,0,2000-01-01 01:00:00,2016-04-03 02:51:08,557000/2a45ebb70d86587d135a52f6a2b7bccf-d.jpg,,
19576673,The Architect: Chapters in the History of the Profession (Galaxy Books),,,,Spiro Kostof,1986,,,,384,0,English,64,,до 2011-01,"0195040449,9780195040449,0520226046,9780520226043,0195020677,9780195020670",,,,,720.23,,,,OL22072203M,,0,,,,,,,1,32531776,pdf,2A9D33A61E4D35B0BDC84542041CEB61,,,D:\\!genesis\\library.nu\\2a\\_202071.2a9d33a61e4d35b0bdc84542041ceb61.pdf,0,2000-01-01 01:00:00,2016-04-03 02:51:08,557000/2a9d33a61e4d35b0bdc84542041ceb61-d.jpg,,
19576674,Das Bondage-Handbuch. Anleitung zum erotischen Fesseln,,,,Matthias T. J. Grimme,,,,,235,0,German,,,до 2011-01,"3931406164,9783931406165",,,,,,,,,,,0,,,,,,,0,86529674,pdf,2AC983A417D301C0B6B9F1C87B4B1502,,,D:\\!genesis\\library.nu\\2a\\_201952.2ac983a417d301c0b6b9f1c87b4b1502.pdf,0,2000-01-01 01:00:00,2016-04-03 02:51:08,557000/2ac983a417d301c0b6b9f1c87b4b1502-g.jpg,,
19576675,Knowledge and Computing: A Course on Computer Epistemology,,,,Tibor Vamos,2010,,,,226,0,English,69,,до 2011-01,"9639776645,9789639776647,1441645888,9781441645883",,,,,006.3,QA76 .V326 2010,,,OL23994442M,,0,,,,,,,1,5746223,pdf,2ACA600C7DC2664671CB231EF78A6F5B,,,D:\\!genesis\\library.nu\\2a\\_201171.2aca600c7dc2664671cb231ef78a6f5b.pdf,0,2000-01-01 01:00:00,2016-04-03 02:51:08,557000/2aca600c7dc2664671cb231ef78a6f5b-d.jpg,,
19576676,On the Pragmatics of Social Interaction: Preliminary Studies in the Theory of Communicative Action (Studies in Contemporary German Social Thought),,,,Jürgen Habermas,2000,,,,216,0,English,183,,до 2011-01,"0262082888,9780262082884",,,,,401,P106 .H2513 2001,,,OL6791814M,,0,,,,,,,0,20837621,pdf,2A9D9DFD150F1A59AD7AE895FA32752C,,,D:\\!genesis\\library.nu\\2a\\_200414.2a9d9dfd150f1a59ad7ae895fa32752c.pdf,0,2000-01-01 01:00:00,2016-04-03 02:51:08,557000/2a9d9dfd150f1a59ad7ae895fa32752c-d.jpg,,
19576677,Backup,,,,Jim Butcher,2008,Deluxe,,,72,0,English,,,до 2011-01,"1596061820,9781596061828",,,,,,,,,,,0,,,,,,,1,1075260,pdf,2A0953EC9400D51E0F0D7BE79BDA12ED,,,D:\\!genesis\\library.nu\\2a\\_200370.2a0953ec9400d51e0f0d7be79bda12ed.pdf,0,2000-01-01 01:00:00,2016-04-03 02:51:08,557000/2a0953ec9400d51e0f0d7be79bda12ed-d.jpg,,
19576678,Our Mutual Friend,,,,Charles Dickens,2002,,,,880,0,English,,,до 2011-01,"0375761144,9780375761140",,,,,823/.8,PR4568 .A1 2002,,,OL3562476M,,0,,,,,,,1,2235528,pdf,2ADB00A66912F84B720BD7E3A27234E3,,,D:\\!genesis\\library.nu\\2a\\_199779.2adb00a66912f84b720bd7e3a27234e3.pdf,0,2000-01-01 01:00:00,2016-04-03 02:51:08,557000/2adb00a66912f84b720bd7e3a27234e3-d.jpg,,
19576679,The Passions of Chelsea Kane,,,,Barbara Delinsky,2004,,,,432,0,English,,,до 2011-01,"0066214572,9780066214573,9780060573331",,,,,813/.54,PS3554.E4427 P38 2003,,,OL23246963M,,0,,,,,,,1,1312870,pdf,2AB701EB3BBDCD5E76E959889FA5C13A,,,D:\\!genesis\\library.nu\\2a\\_199777.2ab701eb3bbdcd5e76e959889fa5c13a.pdf,0,2000-01-01 01:00:00,2016-04-03 02:51:08,557000/2ab701eb3bbdcd5e76e959889fa5c13a-d.jpg,,
19576680,Access: How Do Good Health Technologies Get to Poor People in Poor Countries? (Harvard Series on Population and International Health),,Harvard Series on Population and International Health,,"Laura Frost, Michael R. Reich",2009,1,,,264,0,English,,,до 2011-01,"0674032152,9780674032156",,,,,362.109172/4,RA441.5 .F72 2008,,,OL22551997M,,0,,,,,,,1,1641612,pdf,2A1D1D7AB640A58FC516BF40B4789780,,,D:\\!genesis\\library.nu\\2a\\_199523.2a1d1d7ab640a58fc516bf40b4789780.pdf,0,2000-01-01 01:00:00,2016-04-03 02:51:08,557000/2a1d1d7ab640a58fc516bf40b4789780-d.jpg,,
19576681,Basics Film-Making: Producing,,,,Charlotte Worthington,2009,,,,175,0,English,,,до 2011-01,"9782940439584,2940439583,9782940373574,2940373574",,,,,,,,,,,0,,,,,,,1,21403665,pdf,2AD55E4DFF307FDBAE6D837912391613,,,D:\\!genesis\\library.nu\\2a\\_199461.2ad55e4dff307fdbae6d837912391613.pdf,0,2000-01-01 01:00:00,2016-04-03 02:51:08,557000/2ad55e4dff307fdbae6d837912391613-d.jpg,,
19576682,Interpretation and Uses of Medical Statistics,,,,"Leslie Daly, Geoffrey J Bourke",2000,5,,,568,0,English,147,,до 2011-01,"0632047631,9780632047635,9780632062751",,,,,,,,,OL7611383M,,0,,,,,,,1,3135588,pdf,2A5F1BE9E06B182AC7AA6DA4FAEA1DE7,,,D:\\!genesis\\library.nu\\2a\\_198763.2a5f1be9e06b182ac7aa6da4faea1de7.pdf,0,2000-01-01 01:00:00,2016-04-03 02:51:08,557000/2a5f1be9e06b182ac7aa6da4faea1de7-d.jpg,,
19576683,Die Nato nach 1989: Das Rätsel ihres Fortbestandes,,,,Ulrich Franke,,,,,330,0,German,,,до 2011-01,"3531177737,9783531177731",,,,,,,,,,,0,,,,,,,1,1876401,pdf,2A6150A4392EB3290097F176CE38C7BE,,,D:\\!genesis\\library.nu\\2a\\_198606.2a6150a4392eb3290097f176ce38c7be.pdf,0,2000-01-01 01:00:00,2016-04-03 02:51:08,557000/2a6150a4392eb3290097f176ce38c7be-g.jpg,,
19576684,La bambina che salvava i libri,,,,Markus Zusak ; traduzione di Gian M. Giughese,,,,,483,0,Italian,,,до 2011-01,"8876849432,9788876849435,886061371X,9788860613714,8888320393,9788888320397",,,,,,,,,,,0,,,,,,,1,2847090,pdf,2A2C8ABB27AF5C423AB940CCF653DD30,,,D:\\!genesis\\library.nu\\2a\\_198083.2a2c8abb27af5c423ab940ccf653dd30.pdf,0,2000-01-01 01:00:00,2016-04-03 02:51:08,557000/2a2c8abb27af5c423ab940ccf653dd30-g.jpg,,
19576685,"Sundials: Design, Construction, and Use (Springer Praxis Books   Popular Astronomy)",,,,Denis Savoie,2009,1,,,186,0,English,236,,до 2011-01,"0387098011,9780387098012,9780387098029",,,,,529.7,QB215 .S3413 2009,,,OL24022189M,,0,,,,,,,1,4870331,pdf,2A2BC9958A4D4FB03653A9591EC1A786,,,D:\\!genesis\\library.nu\\2a\\_197844.2a2bc9958a4d4fb03653a9591ec1a786.pdf,0,2000-01-01 01:00:00,2016-04-03 02:51:08,557000/2a2bc9958a4d4fb03653a9591ec1a786-d.jpg,,
19576686,Wild Bill Hickok (Legends of the Wild West),,,,Liz Sonneborn,2010,1,,,110,0,English,,,до 2011-01,"160413593X,9781604135930,1438134533,9781438134536",,,,,"978/.02092,B",F594.H62 S68 2010,,,OL24080891M,,0,,,,,,,1,7674174,pdf,2AABF41DC13EAB8A520F8695CED23630,,,D:\\!genesis\\library.nu\\2a\\_197572.2aabf41dc13eab8a520f8695ced23630.pdf,0,2000-01-01 01:00:00,2016-04-03 02:51:08,557000/2aabf41dc13eab8a520f8695ced23630-d.jpg,,
19576687,Dumitru Staniloae: Tradition and Modernity in Theology,,,,Lucian Turcescu (Editor),2002,,,,260,0,English,,,до 2011-01,"9739432298,9789739432290",,,,,230/.19/092,BX320.3 .D86 2002,,,OL3584917M,,0,,,,,,,0,2045846,djvu,2AB44E5EAC33DDF3CF7A3464EF3F592B,3ab7981f0b66c102779a7089dfd021eb,no,D:\\!genesis\\library.nu\\2a\\_197194.2ab44e5eac33ddf3cf7a3464ef3f592b.djvu,0,2000-01-01 01:00:00,2016-04-03 02:51:08,557000/2ab44e5eac33ddf3cf7a3464ef3f592b-g.jpg,,
19576688,"Haute Sécurité Cycle 2, Tome 2 : Les nouveaux maîtres",,,,"Gihef, Joël Callède",,,,,51,0,French,,,до 2011-01,"9782800143385,280014338X",,,,,,,,,,,0,,,,,,,0,15414504,pdf,2A0C0C7CBF47E7DC658355E963BD0985,,,D:\\!genesis\\library.nu\\2a\\_197070.2a0c0c7cbf47e7dc658355e963bd0985.pdf,0,2000-01-01 01:00:00,2016-04-03 02:51:08,557000/2a0c0c7cbf47e7dc658355e963bd0985-d.jpg,,
19576689,"The Big Questions: Tackling the Problems of Philosophy with Ideas from Mathematics, Economics, and Physics",,,,Steven E. Landsburg,2009,,,,288,0,English,305,,до 2011-01,"143914821X,9781439148228,9781439148211,1439148228,9781439153598,1439153590",,,,,100,BD21 .L29 2009,,,OL23534422M,,0,,,,,,,0,17337175,pdf,2AF23B174DFF8DCDA15AACDC057D12FE,,,D:\\!genesis\\library.nu\\2a\\_197028.2af23b174dff8dcda15aacdc057d12fe.pdf,0,2000-01-01 01:00:00,2016-04-03 02:51:08,557000/2af23b174dff8dcda15aacdc057d12fe-d.jpg,,
19576690,The Contemporary Middle East: A Documentary History,,,,John Felton,2007,1,,,1320,0,English,64,,до 2011-01,"0872894886,9780872894884",,,,,,,,,OL11114497M,,0,,,,,,,1,8068247,pdf,2A9A4F8907B32923EF1A61594D55C41C,,,D:\\!genesis\\library.nu\\2a\\_196740.2a9a4f8907b32923ef1a61594d55c41c.pdf,0,2000-01-01 01:00:00,2016-04-03 02:51:08,557000/2a9a4f8907b32923ef1a61594d55c41c-d.jpg,,
19576691,Neurobiology of ''Umwelt'': How Living Beings Perceive the World (Research and Perspectives in Neurosciences),,,,"A. Berthoz, Y. Christen",2008,1,,,170,0,English,18,,до 2011-01,"3540858962,9783540858966",,,,,,,,,,,0,,,,,,,1,2184591,pdf,2ABE74760CBEE73631F1B07059D18F47,,,D:\\!genesis\\library.nu\\2a\\_196447.2abe74760cbee73631f1b07059d18f47.pdf,0,2000-01-01 01:00:00,2016-04-03 02:51:08,557000/2abe74760cbee73631f1b07059d18f47-d.jpg,,
19576692,Measuring the Cosmos: How Scientists Discovered the Dimensions of the Universe,,,,"David H. Clark (Editor), Matthew D. H. Clark (Editor)",2004,,,,216,0,English,,,до 2011-01,"0813534046,9780813534046,9780813536460",,,,,,,,,OL8026026M,,0,,,,,,,1,989926,pdf,2A391BFB2B26F0C0CFEF7AA1960C15A1,,,D:\\!genesis\\library.nu\\2a\\_196367.2a391bfb2b26f0c0cfef7aa1960c15a1.pdf,0,2000-01-01 01:00:00,2016-04-03 02:51:08,557000/2a391bfb2b26f0c0cfef7aa1960c15a1-d.jpg,,
19576693,Getting Started in Investment Analysis (Getting Started In.....),,,,Warren Brussee,2008,,,,188,0,English,305,,до 2011-01,"9780470283844,047028384X,9780470413678",,,,,332.63/2042,HG4529 .B78 2009,,,OL16887017M,,0,,,,,1,,1,4476850,pdf,2A004605839FDF78424014448F678E2B,,,D:\\!genesis\\library.nu\\2a\\_1957.2a004605839fdf78424014448f678e2b.pdf,0,2000-01-01 01:00:00,2016-04-03 02:51:08,557000/2a004605839fdf78424014448f678e2b-d.jpg,,
19576694,"Ethnicity, Health, and Primary Care (Oxford Medical Publications)",,,,Joe Kai,2003,1,,,232,0,English,183,,до 2011-01,"0198515731,9780198515739,9781417599332",,,,,362.108900941,RA418.5.T73 E86 2003,,,OL22551817M,,0,,,,,1,,,1224086,chm,2A1583C2B45DA3069D5AC8F30DE9CC48,,,D:\\!genesis\\library.nu\\2a\\_19537.2a1583c2b45da3069d5ac8f30de9cc48.chm,0,2000-01-01 01:00:00,2016-04-03 02:51:08,557000/2a1583c2b45da3069d5ac8f30de9cc48-d.jpg,,
19576695,"Numerous Meanings, Volume 15: The Meaning of English Cardinals and the Legacy of Paul Grice (Current Research in the Semantics Pragmatics Interface) (Current ... in the Semantics Pragmatics Interface)",,,,Bert Bultinck,2005,,,,344,0,English,314,,до 2011-01,"0080445578,9780080445571,9780080456799",,,,,420/.143,PE1246 .B85 2005,,,OL19524129M,,0,,,,,,,1,22287277,pdf,2AF56AFCD962A671E27CC33399DC559C,,,D:\\!genesis\\library.nu\\2a\\_195246.2af56afcd962a671e27cc33399dc559c.pdf,0,2000-01-01 01:00:00,2016-04-03 02:51:08,557000/2af56afcd962a671e27cc33399dc559c-d.jpg,,
19576696,"Math Matters: Understanding the Math You Teach Grades K-8, 2nd Edition",,,,"Suzanne H. Chapin, Art Johnson",2006,2nd,,,376,0,English,113,,до 2011-01,"0941355713,9780941355711",,,,,,,,,OL18285642M,,0,,,,,,,1,3455078,pdf,2A97019851C7C239646FC30EB56EF1C5,,,D:\\!genesis\\library.nu\\2a\\_194229.2a97019851c7c239646fc30eb56ef1c5.pdf,0,2000-01-01 01:00:00,2016-04-03 02:51:08,557000/2a97019851c7c239646fc30eb56ef1c5-d.jpg,,
19576697,An Introduction to the Modeling of Neural Networks (Collection Alea-Saclay: Monographs and Texts in Statistical Physics),,,,Pierre Peretto,1992,,,,492,0,English,132,,до 2011-01,"0521424879,9780521424875,0521414512",,,,,612.8/2,QP363.3 .P47 1992,,,OL1455985M,,0,,,,,,,1,12823261,pdf,2A7CA55FD41038EF9800CBD7B60C239A,,,D:\\!genesis\\library.nu\\2a\\_193815.2a7ca55fd41038ef9800cbd7b60c239a.pdf,0,2000-01-01 01:00:00,2016-04-03 02:51:08,557000/2a7ca55fd41038ef9800cbd7b60c239a-d.jpg,,
19576698,From the Ballot to the Blackboard: The Redistributive Political Economy of Education (Cambridge Studies in Comparative Politics),,,,Ben W. Ansell,2010,1,Cambridge University Press,,268,0,English,183,,до 2011-01,"0521190185,9780521190183,0511729227,9780511729225",,,,,379.1/1,LB2824 .A58 2009,,,,,0,,,,,,,1,2594775,pdf,2A1270FDFFE9740D18B6CD18574219F4,,,D:/!genesis/library.nu/2a/_193671.2a1270fdffe9740d18b6cd18574219f4.pdf,0,2000-01-01 01:00:00,2016-04-03 02:51:08,557000/2a1270fdffe9740d18b6cd18574219f4-d.jpg,,
19576699,"Economic Expansion and Social Change: England 1500-1700, Volume I: People, Land and Towns",,,,C. G. A. Clay,1985,1,,,284,0,English,64,,до 2011-01,"052127768X,9780521277686",,,,,942.05,HC254.4 .C59 1984,,,OL3180596M,,0,,,,,,,1,10201555,pdf,2A09D78F011C8AE41C538287AD7A00C5,,,D:\\!genesis\\library.nu\\2a\\_193454.2a09d78f011c8ae41c538287ad7a00c5.pdf,0,2000-01-01 01:00:00,2016-04-03 02:51:08,557000/2a09d78f011c8ae41c538287ad7a00c5-d.jpg,,
19576700,The Language of Liberty 1660-1832: Political Discourse and Social Dynamics in the Anglo-American World,,,,J. C. D. Clark,1993,,,,424,0,English,64,,до 2011-01,"052144957X,9780521449571",,,,,973.2,E188 .C55 1994,,,OL1400496M,,0,,,,,,,1,13387960,pdf,2A33799EE848C6C605704CF069FF48D9,,,D:\\!genesis\\library.nu\\2a\\_193205.2a33799ee848c6c605704cf069ff48d9.pdf,0,2000-01-01 01:00:00,2016-04-03 02:51:08,557000/2a33799ee848c6c605704cf069ff48d9-d.jpg,,
19576701,The Fluxus Reader,,,,Edited by: Ken Friedman,1998,,,,320,0,English,,,до 2011-01,"0471978582,9780471978589",,,,,,,,,OL67053M,,0,,,,,1,,1,790875,pdf,2AFDC05B094819623CE61352CC59D78D,,,D:\\!genesis\\library.nu\\2a\\_19307.2afdc05b094819623ce61352cc59d78d.pdf,0,2000-01-01 01:00:00,2016-04-03 02:51:08,557000/2afdc05b094819623ce61352cc59d78d-d.jpg,,
19576702,Teratology in the Twentieth Century Plus Ten,,,,Harold Kalter,2010,1st Edition.,,,266,0,English,,,до 2011-01,"9048188199,9789048188192",,,,,,,10.1007/978-90-481-8820-8,,,,0,,,,,,,1,7413722,pdf,2A3AE17EFCCF9C91D1F14748F95FD4DC,,,D:\\!genesis\\library.nu\\2a\\_192617.2a3ae17efccf9c91d1f14748f95fd4dc.pdf,0,2000-01-01 01:00:00,2016-04-03 02:51:08,557000/2a3ae17efccf9c91d1f14748f95fd4dc-d.jpg,,
19576703,"Population, Gender and Politics: Demographic Change in Rural North India (Contemporary South Asia)",,,,"Roger Jeffery, Patricia Jeffery",1997,,,,296,0,English,59,,до 2011-01,"0521466539,9780521466530",,,,,,,,,OL1004142M,,0,,,,,,,1,8514540,pdf,2A6FF9A4103892339EF58BB08C324F96,,,D:\\!genesis\\library.nu\\2a\\_192521.2a6ff9a4103892339ef58bb08c324f96.pdf,0,2000-01-01 01:00:00,2016-04-03 02:51:08,557000/2a6ff9a4103892339ef58bb08c324f96-d.jpg,,
19576704,Conducting School Surveys On Drug Abuse: Global Assessment Programme On Drug Abuse,,,,UNITED NATIONS OFFICE ON DRUGS AND CRIME,2004,,,,104,0,English,173,,до 2011-01,"9211481716,9789211481716,9781417547944",,,,,,,,,OL18164651M,,0,,,,,,,1,772365,pdf,2A2463694341AABD26FBFF7A891032E9,,,D:\\!genesis\\library.nu\\2a\\_192173.2a2463694341aabd26fbff7a891032e9.pdf,0,2000-01-01 01:00:00,2016-04-03 02:51:08,557000/2a2463694341aabd26fbff7a891032e9-g.jpg,,
19576705,Physical activity and health in Europe,,,,Cavill; N.; Kahlmeier; S.; Racioppi; F.,2006,,,,43,0,English,132,,до 2011-01,"9289013877,9789289013871",,,,,,,,,OL12948958M,,0,,,,,,,1,1090954,pdf,2A0A6FEC066B49D98A7D0CDC6593D04C,,,D:\\!genesis\\library.nu\\2a\\_192115.2a0a6fec066b49d98a7d0cdc6593d04c.pdf,0,2000-01-01 01:00:00,2016-04-03 02:51:08,557000/2a0a6fec066b49d98a7d0cdc6593d04c-d.jpg,,
19576706,"Worlds of Welfare, Worlds of Consent?: Public Opinion on the Welfare State (International Comparative Social Studies) (International Comparative Social Studies)",,,,John Gelissen,2002,,,,241,0,English,183,,до 2011-01,"9004124578,9789004124578,9781417524594",,,,,,,,,OL9084429M,,0,,,,,,,1,8855808,pdf,2A5E6752F099425D6DC0A0BA9F42875A,,,D:\\!genesis\\library.nu\\2a\\_191869.2a5e6752f099425d6dc0a0ba9f42875a.pdf,0,2000-01-01 01:00:00,2016-04-03 02:51:08,557000/2a5e6752f099425d6dc0a0ba9f42875a-d.jpg,,
19576707,Contrast Media: Safety Issues and ESUR Guidelines 2nd Edition (Medical Radiology   Diagnostic Imaging),,Medical Radiology,,"Henrik S. Thomsen, Judith A.W. Webb",2009,2nd  ed.,,,267,0,English,147,,до 2011-01,"9783540727835,9783540727842,3540727833",,,,,,,10.1007/978-3-540-72784-2,,,,0,,,,,,,1,3372195,pdf,2AF5E06EBF666F002823BF80462DD78F,,,D:\\!genesis\\library.nu\\2a\\_191857.2af5e06ebf666f002823bf80462dd78f.pdf,0,2000-01-01 01:00:00,2016-04-03 02:51:08,557000/2af5e06ebf666f002823bf80462dd78f-d.jpg,,
19576708,Seeing and Knowing: Women and Learning in Medieval Europe 1200-1550 (Medieval Women: Texts and Contexts ;11),,,,Anneke B. Mulder-Bakker,2004,,,,250,0,English,64,,до 2011-01,"2503514480,9782503514482",,,,,,,,,OL8911397M,,0,,,,,,,1,3142221,pdf,2A6BC7CE84A1A63A9BF74F81A37ECF9E,,,D:\\!genesis\\library.nu\\2a\\_191450.2a6bc7ce84a1a63a9bf74f81a37ecf9e.pdf,0,2000-01-01 01:00:00,2016-04-03 02:51:08,557000/2a6bc7ce84a1a63a9bf74f81a37ecf9e-g.jpg,,
19576709,Beyond Conventional Economics: The Limits of Rational Behaviour in Political Decision Making,,,,"Giuseppe Eusepi, Alan P. Hamlin",2006,,,,154,0,English,305,,до 2011-01,"1845426630,9781845426637,9781845429911",,,,,,,,,OL22728476M,,0,,,,,,,1,682244,pdf,2AEDAD24869E4E9A8B1B6F2743D7785B,,,D:\\!genesis\\library.nu\\2a\\_191229.2aedad24869e4e9a8b1b6f2743d7785b.pdf,0,2000-01-01 01:00:00,2016-04-03 02:51:08,557000/2aedad24869e4e9a8b1b6f2743d7785b-d.jpg,,
19576710,ADD and Me: Forty Years in a Fog,,,,Ken Patterson,2004,1,,,239,0,English,,,до 2011-01,"1843107775,9781843107774,9781423710189",,,,,,,,,OL8929244M,,0,,,,,,,1,945431,pdf,2A054346F0143B8134BF30858374B159,,,D:\\!genesis\\library.nu\\2a\\_191100.2a054346f0143b8134bf30858374b159.pdf,0,2000-01-01 01:00:00,2016-04-03 02:51:08,557000/2a054346f0143b8134bf30858374b159-d.jpg,,
19576711,Wearable eHealth Systems For Personalised Health Management: State Of The Art and Future Challenges (Studies in Health Technology and Informatics),,,,"Andreas Lymberis, Danilo E. De Rossi",2004,1,,,354,0,English,183,,до 2011-01,"1586034499,9781586034498,9781429402378",,,,,,,,,OL12317594M,,0,,,,,,,1,8362359,pdf,2A3AF0B5A3F088FA34E451B05267786D,,,D:\\!genesis\\library.nu\\2a\\_189920.2a3af0b5a3f088fa34e451b05267786d.pdf,0,2000-01-01 01:00:00,2016-04-03 02:51:08,557000/2a3af0b5a3f088fa34e451b05267786d-d.jpg,,
19576712,What Would Jane Austen Do?,,,,Laurie Brown,2009,,,,352,0,English,,,до 2011-01,"1402218311,9781402218316,9781402223983",,,,,,,,,OL24288621M,,0,,,,,,,1,8896331,pdf,2ABE98D588FA29019B439B34ED123653,,,D:\\!genesis\\library.nu\\2a\\_189405.2abe98d588fa29019b439b34ed123653.pdf,0,2000-01-01 01:00:00,2016-04-03 02:51:08,557000/2abe98d588fa29019b439b34ed123653-d.jpg,,
19576713,The Marketplace of Democracy: Electoral Competition And American Politics,,,,John Curtis Samples,2006,,,,312,0,English,137,,до 2011-01,"0815755805,9780815755807,9780815755814",,,,,,,,,OL8050163M,,0,,,,,,,1,1739595,pdf,2A9F9ACEA9A1BBCD59D23677EE999C24,,,D:\\!genesis\\library.nu\\2a\\_188550.2a9f9acea9a1bbcd59d23677ee999c24.pdf,0,2000-01-01 01:00:00,2016-04-03 02:51:08,557000/2a9f9acea9a1bbcd59d23677ee999c24-d.jpg,,
19576714,Understanding Your Potential Expanded Edition,,,,Myles Munroe,2006,Expanded,,,256,0,English,,,до 2011-01,"0768423376,9780768423372",,,,,248.4,BV4598.2 .M87 2006,,,OL3415952M,,0,,,,,,,1,918197,pdf,2A9E074650EA1239FD9E28B17D5BB5B7,,,D:\\!genesis\\library.nu\\2a\\_188325.2a9e074650ea1239fd9e28b17d5bb5b7.pdf,0,2000-01-01 01:00:00,2016-04-03 02:51:08,557000/2a9e074650ea1239fd9e28b17d5bb5b7-d.jpg,,
19576715,"Long-Term Management of Contaminated Sites, Volume 13 (Research in Social Problems and Public Policy) (Research in Social Problems and Public Policy)",,,,Thomas M. Leschine,2006,1,,,268,0,English,192,,до 2011-01,"0762313196,9780762313198",,,,,,,,,OL17213549M,,0,,,,,,,1,2714483,pdf,2ADF4EECCB4DD99D2973717BB807B131,,,D:\\!genesis\\library.nu\\2a\\_187950.2adf4eeccb4dd99d2973717bb807b131.pdf,0,2000-01-01 01:00:00,2016-04-03 02:51:08,557000/2adf4eeccb4dd99d2973717bb807b131-d.jpg,,
19576716,The Mediating Effects of Public Opinion on Public Policy: Exporing the Realm of Health Care,,,,Richard E. Chard,2004,,,,179,0,English,192,,до 2011-01,"0791460533,9780791460535,0791460541,9780791460542,9781423739777",,,,,,,,,OL7803183M,,0,,,,,,,1,799802,pdf,2AA4267B5CFD9D062862F80A55A56F67,,,D:\\!genesis\\library.nu\\2a\\_187946.2aa4267b5cfd9d062862f80a55a56f67.pdf,0,2000-01-01 01:00:00,2016-04-03 02:51:08,557000/2aa4267b5cfd9d062862f80a55a56f67-d.jpg,,
19576717,"Gender, Peace and Conflict (International Peace Research Institute, Oslo (PRIO))",,,,"Inger Skjelsboek, Dan Smith",2001,1,,,240,0,English,,,до 2011-01,"0761968520,9780761968528,9781412933513",,,,,303.6/082,JZ6405.W66 G46 2001,,,OL3964623M,,0,,,,,,,1,1291893,pdf,2A64FD36D73999CF9187673091A20F19,,,D:\\!genesis\\library.nu\\2a\\_187730.2a64fd36d73999cf9187673091a20f19.pdf,0,2000-01-01 01:00:00,2016-04-03 02:51:08,557000/2a64fd36d73999cf9187673091a20f19-d.jpg,,
19576718,"Spinal Tap: A Medical Dictionary, Bibliography, And Annotated Research Guide To Internet References",,,,Icon Health Publications,2004,,,,92,0,English,59,,до 2011-01,"0597846332,9780597846335,9781417537938",,,,,,,,,OL10915148M,,0,,,,,,,1,1427395,pdf,2AA48527C2982F131A8EE4BC142C79CB,,,D:\\!genesis\\library.nu\\2a\\_187592.2aa48527c2982f131a8ee4bc142c79cb.pdf,0,2000-01-01 01:00:00,2016-04-03 02:51:08,557000/2aa48527c2982f131a8ee4bc142c79cb-d.jpg,,
19576719,Northwest California: A Natural History,,,,John O. Sawyer,2006,1,,,264,0,English,64,,до 2011-01,"0520232860,9780520232860,9781429413503",,,,,508.794,QH105.C2 S29 2006,,,OL3418147M,,0,,,,,,,1,5207318,pdf,2ABB5B3888FD80B1BBE9D2BAA7B8042C,,,D:\\!genesis\\library.nu\\2a\\_187143.2abb5b3888fd80b1bbe9d2baa7b8042c.pdf,0,2000-01-01 01:00:00,2016-04-03 02:51:08,557000/2abb5b3888fd80b1bbe9d2baa7b8042c-d.jpg,,
19576720,"Understanding European Trade Unionism: Between Market, Class and Society",,,,Richard Hyman,2001,1,,,208,0,English,,,до 2011-01,"0761952209,9780761952206,9781412932493",,,,,331.88/094,HD6657 .H95 2001,,,OL3965091M,,0,,,,,,,1,1277285,pdf,2ACC9C765974C6FF14421BFF9C0281B4,,,D:\\!genesis\\library.nu\\2a\\_186864.2acc9c765974c6ff14421bff9c0281b4.pdf,0,2000-01-01 01:00:00,2016-04-03 02:51:08,557000/2acc9c765974c6ff14421bff9c0281b4-d.jpg,,
19576721,Fighting Corruption in the Public Sector,,Contributions to Economic Analysis 284,,"Jorge Martinez-Vazquez, Javier Arze del Granado and Jameson Boex (Eds.)",2007,,"Elsevier, Academic Press",,1-254,0,English,305,,до 2011-01,978-0-444-52974-9,0573-8555,,,,364.1/323,JF1525.E8 M38 2007,,,OL19682299M,,0,,,,,,,1,2059808,pdf,2A4F05775E31CF366067331FAEC6ED85,,,D:\\!genesis\\library.nu\\2a\\_186174.2a4f05775e31cf366067331faec6ed85.pdf,0,2000-01-01 01:00:00,2016-04-03 02:51:08,557000/2a4f05775e31cf366067331faec6ed85-d.jpg,,
19576722,"Design for Inclusivity: A Practical Guide to Accessible, Innovative and User-centred Design (Design for Social Responsibility)",,,,"Roger Coleman, John Clarkson, Hua Dong, Julia Cassim",2008,,,,246,0,English,189,,до 2011-01,"0566087073,9780566087073",,,,,745.2,TS171 .D4638 2007,,,OL10638618M,,0,,,,,1,,1,4157126,pdf,2A3E9B0F0CAD56BAD1C32C499F305B96,,,D:\\!genesis\\library.nu\\2a\\_1860.2a3e9b0f0cad56bad1c32c499f305b96.pdf,0,2000-01-01 01:00:00,2016-04-03 02:51:08,557000/2a3e9b0f0cad56bad1c32c499f305b96-d.jpg,,
19576723,George Gallup in Hollywood (Film and Culture Series),,,,Susan Ohmer,2006,,,,304,0,English,,,до 2011-01,"0231121334,9780231121330,0231121326,9780231121323,9780231511285",,,,,,,,,OL22740571M,,0,,,,,,,1,1322772,pdf,2AA89C348710D9645DDF0A1F1BBC1557,,,D:\\!genesis\\library.nu\\2a\\_185968.2aa89c348710d9645ddf0a1f1bbc1557.pdf,0,2000-01-01 01:00:00,2016-04-03 02:51:08,557000/2aa89c348710d9645ddf0a1f1bbc1557-d.jpg,,
19576724,Corporate Finance and Investment: Decisions & Strategies,,,,"Richard Pike, Bill Neale",2006,5,,,759,0,English,305,,до 2011-01,"0273695614,9780273695615",,,,,,,,,OL10288142M,,0,,,,,,,1,9291924,pdf,2A2220C0C3E9D2E0A2223F2122AC9C1E,,,D:\\!genesis\\library.nu\\2a\\_185960.2a2220c0c3e9d2e0a2223f2122ac9c1e.pdf,0,2000-01-01 01:00:00,2016-04-03 02:51:08,557000/2a2220c0c3e9d2e0a2223f2122ac9c1e-d.jpg,,
19576725,Evaluation of Certain Food Additives and Contaminants: Sixty-seventh Report of the Joint Fao Who Expert Committee on Food Additives (Who Technical Report),,,,Who,2007,,,,103,0,English,,,до 2011-01,"9241209402,9789241209403,9789240683198",,,,,,,,,OL12898083M,,0,,,,,,,1,1289345,pdf,2A7D14B6DE66F938FB5267FCA39EFB7E,,,D:\\!genesis\\library.nu\\2a\\_185766.2a7d14b6de66f938fb5267fca39efb7e.pdf,0,2000-01-01 01:00:00,2016-04-03 02:51:08,557000/2a7d14b6de66f938fb5267fca39efb7e-g.jpg,,
19576726,Monitoring the Declaration of Commitment on HIV Aids: Guidelines on Construction of Core Indicators (Unaids Publication),,,,Unaids,2005,,,,106,0,English,236,,до 2011-01,"9291734330,9789291734337,9789240683020",,,,,,,,,OL12950871M,,0,,,,,,,1,563894,pdf,2AC87A3AB6B201B6F0DFAA91B687661B,,,D:\\!genesis\\library.nu\\2a\\_185667.2ac87a3ab6b201b6f0dfaa91b687661b.pdf,0,2000-01-01 01:00:00,2016-04-03 02:51:08,557000/2ac87a3ab6b201b6f0dfaa91b687661b-g.jpg,,
19576727,"Architecture and Elite Culture in the United Provinces, England and Ireland",,,,Hanneke Ronnes,2007,,,,214,0,English,58,,до 2011-01,"908555361X,9789085553618,9781435645806",,,,,,,,,OL12852543M,,0,,,,,,,1,10872033,pdf,2A98B7A9612E8E252D079723B321B4DC,,,D:\\!genesis\\library.nu\\2a\\_185330.2a98b7a9612e8e252d079723b321b4dc.pdf,0,2000-01-01 01:00:00,2016-04-03 02:51:08,557000/2a98b7a9612e8e252d079723b321b4dc-d.jpg,,
19576728,"Ris, masques et tréteaux : Aspects du théâtre du XVIIIe siècle, mélanges en hommage à David A. Trott",,,,"Stéphanie Massé, Marie-Laure Girou Swiderski, Françoise Rubellin",,,,,395,0,English,314,,до 2011-01,"2763786499,9782763786490",,,,,,,,,,,0,,,,,,,1,4000225,pdf,2ADCC5FBE0DF56F230F4A87D748872CE,,,D:\\!genesis\\library.nu\\2a\\_185253.2adcc5fbe0df56f230f4a87d748872ce.pdf,0,2000-01-01 01:00:00,2016-04-03 02:51:08,557000/2adcc5fbe0df56f230f4a87d748872ce-g.jpg,,
19576729,Discourses on Social Software,,"Texts in Logic and Games, Volume 5",,"Jan van Eijck, Rineke Verbrugge, eds.",2010,,Amsterdam University Press,,248,0,English,130,,до 2011-01,"9089641238,9789089641236,9789048510412",,,,,,,,,,,0,,,0,1,0,1,1,1588601,pdf,2A1714BFB0D183A9F8447EE6597532A0,,,D:/!genesis/library.nu/2a/_185174.2a1714bfb0d183a9f8447ee6597532a0.pdf,0,2000-01-01 01:00:00,2016-04-03 02:51:08,557000/2a1714bfb0d183a9f8447ee6597532a0-d.jpg,,
19576730,Handbook of Medicine in Psychiatry,,,,"Peter Manu, Raymond E. Suarez, Barbara J. Barnett",2006,1,,,605,0,English,198,,до 2011-01,"158562182X,9781585621828,9781585626458",,,,,616.89,RC55 .M25 2005,,,OL3402254M,,0,,,,,,,1,5486427,pdf,2AB6C0BF0B5F0FD02EE832EBA4A4F33B,,,D:\\!genesis\\library.nu\\2a\\_184556.2ab6c0bf0b5f0fd02ee832eba4a4f33b.pdf,0,2000-01-01 01:00:00,2016-04-03 02:51:08,557000/2ab6c0bf0b5f0fd02ee832eba4a4f33b-d.jpg,,
19576731,Ortega's 'The Revolt of the Masses' and the Triumph of the New Man,,,,Pedro Blas Gonzalez,2007,,,,212,0,English,,,до 2011-01,"0875864708,9780875864709,9780875864723",,,,,901,CB103 .G66 2007,,,OL11164366M,,0,,,,,,,1,1123945,pdf,2AC403A8A38DA6F4F32257DF74E27366,,,D:\\!genesis\\library.nu\\2a\\_183830.2ac403a8a38da6f4f32257df74e27366.pdf,0,2000-01-01 01:00:00,2016-04-03 02:51:08,557000/2ac403a8a38da6f4f32257df74e27366-d.jpg,,
19576732,"Words, Imagery, and the Mystery of Christ: A Reconstruction of Cyril of Alexandria's Christology (Supplements to Vigiliae Christianae, V. 55)",,,,Steven A. McKinion,2000,,Brill Academic Publishers,,242,0,English,236,,до 2011-01,"9004119876,9789004119871",,,,,232/.092,BT198 .M3997 2000,,,OL6793606M,,0,,,,,,,1,50650471,pdf,2A7BABD1D6CC3A1160076E0ECCC01028,,,D:\\!genesis\\library.nu\\2a\\_183534.2a7babd1d6cc3a1160076e0eccc01028.pdf,0,2000-01-01 01:00:00,2016-04-03 02:51:08,557000/2a7babd1d6cc3a1160076e0eccc01028-g.jpg,,
19576733,Private-Public Sector Collaboration to Enhance Community Disaster Resilience: A Workshop Report,,,,"Committee on Private-Public Sector Collaboration to Enhance Community Disaster Resilience, Geographical Science Committee, National Research Council",2010,,,,83,0,English,,,до 2011-01,"0309151066,9780309151061",,,,,363.347,HV551.3 .N357 2010,,,OL24893601M,,0,,,,,,,1,448752,pdf,2A05DB3672971E2153F55534EACE2260,,,D:\\!genesis\\library.nu\\2a\\_183510.2a05db3672971e2153f55534eace2260.pdf,0,2000-01-01 01:00:00,2016-04-03 02:51:08,557000/2a05db3672971e2153f55534eace2260-d.jpg,,
19576734,Australia's Biodiversity and Climate Change,,,,"Will Steffen, A.A. Burbidge, L. Hughes, R. Kitching, D. Lindenmayer, W. Musgrave, M. Stafford-Smith, P. A. Werner",2010,,,,160,0,English,18,,до 2011-01,"0643096051,9780643096059",,,,,,,,,OL24426698M,,0,,,,,,,1,11291013,pdf,2AF228E3C4A3C850697A72F90BB791D7,,,D:\\!genesis\\library.nu\\2a\\_183489.2af228e3c4a3c850697a72f90bb791d7.pdf,0,2000-01-01 01:00:00,2016-04-03 02:51:08,557000/2af228e3c4a3c850697a72f90bb791d7-d.jpg,,
19576735,The Quiet Hero: The Untold Medal of Honor Story of George E. Wahlen at the Battle for Iwo Jima,,,,Gary W. Toyn,2006,,,,240,0,English,,,до 2011-01,"0976154714,9780976154716,9780976154723",,,,,,,,,OL8586920M,,0,,,,,,,1,9049374,pdf,2ABE131D02144C6C753F85AEB404A1E1,,,D:\\!genesis\\library.nu\\2a\\_182980.2abe131d02144c6c753f85aeb404a1e1.pdf,0,2000-01-01 01:00:00,2016-04-03 02:51:08,557000/2abe131d02144c6c753f85aeb404a1e1-d.jpg,,
19576736,"Explorations in Parallel Distributed Processing - Macintosh version: A Handbook of Models, Programs, and Exercises",,,,"James L. McClelland, David E. Rumelhart",1989,,,,354,0,English,,,до 2011-01,"0262631296,9780262631297",,,,,,,,,OL14975367M,,0,,,,,,,0,4465725,djvu,2A0E4523AC01B7C104896ED132BEB073,7d1dbfa4cc18c0cf4544f0700efca6f7,no,D:\\!genesis\\library.nu\\2a\\_182825.2a0e4523ac01b7c104896ed132beb073.djvu,0,2000-01-01 01:00:00,2016-04-03 02:51:08,557000/2a0e4523ac01b7c104896ed132beb073-d.jpg,,
19576737,"New Catholic Encyclopedia: Supplement 2010, 2 Volume Set",,,,Robert L. Fastiggi,2010,3,,,1219,0,English,188,,до 2011-01,"1414475888,9781414475882,9781414464145,1414464142",,,,,282.03,BX841 .N44 Suppl. 2010,,,OL24054700M,,0,,,,,,,1,27460830,pdf,2A7C855901F9ECBD46C214BDA25628E9,,,D:\\!genesis\\library.nu\\2a\\_182260.2a7c855901f9ecbd46c214bda25628e9.pdf,0,2000-01-01 01:00:00,2016-04-03 02:51:08,557000/2a7c855901f9ecbd46c214bda25628e9-d.jpg,,
19576738,Check Your English Vocabulary for Living in the UK,,,,Rawdon Wyatt,2006,Workbook,,,80,0,English,322,,до 2011-01,"071367914X,9780713679144,9781408102374",,,,,,,,,OL24323259M,,0,,,,,,,1,997839,pdf,2A280B4E0EC5BD8B6170222F15E42036,,,D:\\!genesis\\library.nu\\2a\\_182130.2a280b4e0ec5bd8b6170222f15e42036.pdf,0,2000-01-01 01:00:00,2016-04-03 02:51:08,557000/2a280b4e0ec5bd8b6170222f15e42036-d.jpg,,
19576739,Radio Antennas and Propagation: Radio Engineering Fundamentals,,,,William Gosling,1998,3850,,,192,0,English,210,,до 2011-01,"0750637412,9780750637411,9780080515649",,,,,621.382/4,TK6565.A6 G63 1998,,,OL84154M,,0,,,,,,,1,10181208,pdf,2A2A43F8C7D17D4FFC4513B42E84D70F,,,D:\\!genesis\\library.nu\\2a\\_181862.2a2a43f8c7d17d4ffc4513b42e84d70f.pdf,0,2000-01-01 01:00:00,2016-04-03 02:51:08,557000/2a2a43f8c7d17d4ffc4513b42e84d70f-d.jpg,,
19576740,"Legal Rights of Chemists and Engineers (Advances in Chemistry, Vol 161)",,,,Warren D. Niederhauser,1977,First Edition,,,118,0,English,296,,до 2011-01,"0841203571,9780841205376,9780841203570,084120537X",,,,,"540/.8 s,344/.73/0176154","QD1 .A355 no. 161,KF2940.C45 .A355 no. 161",,,OL4542468M,,0,,,,,,,1,1598585,pdf,2AC0007A95EF7CEC997BE025EC84DED6,,,D:\\!genesis\\library.nu\\2a\\_181569.2ac0007a95ef7cec997be025ec84ded6.pdf,0,2000-01-01 01:00:00,2016-04-03 02:51:08,557000/2ac0007a95ef7cec997be025ec84ded6-g.jpg,,
19576741,La zattera di pietra,,,,José Saramago,,,,,228,0,Italian,,,до 2011-01,"8806181831,9788806181833",,,,,,,,,,,0,,,,,,,1,1041813,pdf,2A1D5CA8D28C3637FE6AA5F58E1C30E0,,,D:\\!genesis\\library.nu\\2a\\_181522.2a1d5ca8d28c3637fe6aa5f58e1c30e0.pdf,0,2000-01-01 01:00:00,2016-04-03 02:51:08,557000/2a1d5ca8d28c3637fe6aa5f58e1c30e0-g.jpg,,
19576742,Baumanagement und Bauökonomie: Aktuelle Entwicklungen,,,,"Jens H. Liebchen, Markus G. Viering, Christian Zanner",,,,,371,0,German,,,до 2011-01,"3835101528,9783835101524",,,,,,,,,,,0,,,,,,,1,8019733,pdf,2A384C5E90BE3BB0A181A14FF4E01418,,,D:\\!genesis\\library.nu\\2a\\_181356.2a384c5e90be3bb0a181a14ff4e01418.pdf,0,2000-01-01 01:00:00,2016-04-03 02:51:08,557000/2a384c5e90be3bb0a181a14ff4e01418-g.jpg,,
19576743,Enabling Technologies for Mobile Services: The MobiLife Book,,,,Mika Klemettinen,2007,1,,,438,0,English,,,до 2011-01,"0470512903,9780470512906,9780470517888",,,,,,,,,OL10295910M,,0,,,,,,,1,6193920,pdf,2A78AD8D0CA73B3F21B670962F0AC816,,,D:\\!genesis\\library.nu\\2a\\_180824.2a78ad8d0ca73b3f21b670962f0ac816.pdf,0,2000-01-01 01:00:00,2016-04-03 02:51:08,557000/2a78ad8d0ca73b3f21b670962f0ac816-d.jpg,,
19576744,How to Sell a House When It's Worth Less Than the Mortgage: Options for ''Underwater'' Homeowners and Investors,,,,Dwan Bent-Twyford,2009,1,,,224,0,English,,,до 2011-01,"9780470418611,0470418613,0470455020,9780470455029",,,,,643.120973,HD259 .B46 2009,,,OL23910377M,,0,,,,,,,1,2804856,pdf,2ADFB9334B90A3581946B34BFA3D3970,,,D:\\!genesis\\library.nu\\2a\\_180770.2adfb9334b90a3581946b34bfa3d3970.pdf,0,2000-01-01 01:00:00,2016-04-03 02:51:08,557000/2adfb9334b90a3581946b34bfa3d3970-d.jpg,,
19576745,Fraud in Accounts Payable: How to Prevent It,,,,Mary S. Schaeffer,2008,1,,,200,0,English,,,до 2011-01,"0470260459,9780470260456,9780470391273",,,,,657/.74,HF5681.A27 S36 2008,,,OL18725005M,,0,,,,,,,1,871474,pdf,2A5A25F42898A92CD96F7FA1F5E646BE,,,D:\\!genesis\\library.nu\\2a\\_180768.2a5a25f42898a92cd96f7fa1f5e646be.pdf,0,2000-01-01 01:00:00,2016-04-03 02:51:08,557000/2a5a25f42898a92cd96f7fa1f5e646be-d.jpg,,
19576746,Sweeteners and Sugar Alternatives in Food Technology,,,,Helen Mitchel,2006,1,,,432,0,English,,,до 2011-01,"1405134348,9781405134347,9780470995990",,,,,664/.5,TP421 .S938 2006,,,OL22734044M,,0,,,,,1,,0,5421397,pdf,2A70BCA4F8CA209CA75D61FE9C028075,,,D:\\!genesis\\library.nu\\2a\\_18063.2a70bca4f8ca209ca75d61fe9c028075.pdf,0,2000-01-01 01:00:00,2016-04-03 02:51:08,557000/2a70bca4f8ca209ca75d61fe9c028075-d.jpg,,
19576747,LINQ For Dummies (For Dummies (Computer Tech)),,,,John Paul Mueller,2008,1,,,364,0,English,69,,до 2011-01,"9780470277942,9780470406618,0470277947",,,,,,,,,OL24309361M,,0,,,,,,,1,4979694,pdf,2AABB8934B578C6242EEC84A967050F2,,,D:\\!genesis\\library.nu\\2a\\_180607.2aabb8934b578c6242eec84a967050f2.pdf,0,2000-01-01 01:00:00,2016-04-03 02:51:08,557000/2aabb8934b578c6242eec84a967050f2-d.jpg,,
19576748,Reverse Engineering Deals on Wall Street with Microsoft Excel: A Step-by-Step Guide (Wiley Finance),,,,Keith A. Allman,2008,1,,,224,0,English,210,,до 2011-01,"0470242051,9780470242056",,,,,338.8/30285554,HG176.7 .A45 2009,,,OL16909950M,,0,,,,,,,1,4707649,pdf,2A43A3AC837E587C8F3EB9221926CD3D,,,D:\\!genesis\\library.nu\\2a\\_180127.2a43a3ac837e587c8f3eb9221926cd3d.pdf,0,2000-01-01 01:00:00,2016-04-03 02:51:08,557000/2a43a3ac837e587c8f3eb9221926cd3d-d.jpg,,
19576749,"Design, Evaluation, and Analysis of Questionnaires for Survey Research (Wiley Series in Survey Methodology)",,,,"Willem E. Saris, Irmtraud N. Gallhofer",2007,1,,,392,0,English,117,,до 2011-01,"0470114959,9780470114957,9780470165188",,,,,300.72/3,HN29 .S29 2007,,,OL17565832M,,0,,,,,,,1,17866268,pdf,2A057C8B13E4799A2607F5C4880FEB2E,,,D:\\!genesis\\library.nu\\2a\\_179999.2a057c8b13e4799a2607f5c4880feb2e.pdf,0,2000-01-01 01:00:00,2016-04-03 02:51:08,557000/2a057c8b13e4799a2607f5c4880feb2e-d.jpg,,
19576750,The Life Force Diet: 3 Weeks to Supercharge Your Health and Stay Slim with Enzyme-Rich Foods,,,,Michelle Schoffro Cook,2009,1,,,288,0,English,20,,до 2011-01,"0470157577,9780470157572",,,,,,,,,,,0,,,,,,,1,1043120,pdf,2A4FA66D5EEB940AECEAE35965A24868,,,D:\\!genesis\\library.nu\\2a\\_179939.2a4fa66d5eeb940aeceae35965a24868.pdf,0,2000-01-01 01:00:00,2016-04-03 02:51:08,557000/2a4fa66d5eeb940aeceae35965a24868-d.jpg,,
19576751,The Last Samurai: The Life and Battles of Saigo Takamori,,,,Mark Ravina,2003,1,,,286,0,English,,,до 2011-01,"0471089702,9780471089704,9780471690375",,,,,"952.03/1/092,B",DS881.5.S2 R35 2004,,,OL18725896M,,0,,,,,,,1,2225633,pdf,2A43FB480F5F1C5C2291D84392CF01B0,,,D:\\!genesis\\library.nu\\2a\\_179613.2a43fb480f5f1c5c2291d84392cf01b0.pdf,0,2000-01-01 01:00:00,2016-04-03 02:51:08,557000/2a43fb480f5f1c5c2291d84392cf01b0-d.jpg,,
19576752,Essential Physiological Biochemistry: An Organ-Based Approach,,,,Stephen Reed,2010,1,,,342,0,English,296,,до 2011-01,"0470026367,9780470026366,0470026359,9780470026359",,,,,612/.015,QP514.2 .R44 2009,,,OL23397463M,,0,,,,,,,1,6066481,pdf,2A07B4098D7F1369CABCEFD62475AAE4,,,D:\\!genesis\\library.nu\\2a\\_179471.2a07b4098d7f1369cabcefd62475aae4.pdf,0,2000-01-01 01:00:00,2016-04-03 02:51:08,557000/2a07b4098d7f1369cabcefd62475aae4-d.jpg,,
19576753,Managing Chronic Obstructive Pulmonary Disease,,,,"Laura Blackler, Christine Jones, Caroline Mooney",2007,1,,,290,0,English,150,,до 2011-01,"0470027185,9780470027189,9780470517987",,,,,616.2/4,RC776.O3 M366 2007,,,OL10278372M,,0,,,,,,,1,1228221,pdf,2A1C3DBCA36EA5EEE463B9CC13503A14,,,D:\\!genesis\\library.nu\\2a\\_179176.2a1c3dbca36ea5eee463b9cc13503a14.pdf,0,2000-01-01 01:00:00,2016-04-03 02:51:08,557000/2a1c3dbca36ea5eee463b9cc13503a14-d.jpg,,
19576754,Atmospheric change and the North American transportation sector summary of a trilateral workshop,,,,by the Steering Committee on Atmospheric Change and the North American Transportation Sector of the National Research Council of the National Academy of Sciences.,,,,,34,0,English,289,,до 2011-01,"0309583918,9780309583916",,,,,,,,,,,0,,,,,,,1,1038680,pdf,2A772E3A7265170C2B7B8B658D6C0D74,,,D:\\!genesis\\library.nu\\2a\\_178762.2a772e3a7265170c2b7b8b658d6c0d74.pdf,0,2000-01-01 01:00:00,2016-04-03 02:51:08,557000/2a772e3a7265170c2b7b8b658d6c0d74-g.jpg,,
19576755,"Arts, Entertainment and Tourism",,,,Howard Hughes,2001,1,,,244,0,English,57,,до 2011-01,"0750645334,9780750645331,9780585459776",,,,,,,,,OL7972080M,,0,,,,,,,1,1821251,pdf,2AC50E6FD992AB4B3300C4C4675924BF,,,D:\\!genesis\\library.nu\\2a\\_178473.2ac50e6fd992ab4b3300c4c4675924bf.pdf,0,2000-01-01 01:00:00,2016-04-03 02:51:08,557000/2ac50e6fd992ab4b3300c4c4675924bf-d.jpg,,
19576756,Market Led Strategic Change (Chartered Institute of Marketing),,,,Piercy,2001,3,,,784,0,English,4,,до 2011-01,"075065225X,9780750652254,9780585459196",,,,,658.8,HF5415.13 .P542 1997,,,OL24410524M,,0,,,,,,,1,3424856,pdf,2A9F133B01DCD639EE1AEAFB76A8AEB0,,,D:\\!genesis\\library.nu\\2a\\_178425.2a9f133b01dcd639ee1aeafb76a8aeb0.pdf,0,2000-01-01 01:00:00,2016-04-03 02:51:08,557000/2a9f133b01dcd639ee1aeafb76a8aeb0-d.jpg,,
19576757,HRM in Europe: Evidence of Convergence?,,,,"Chris Brewster, Wolfgang Mayrhofer, Michael Morley",2004,1,,,496,0,English,,,до 2011-01,"0750647175,9780750647175,9780080472966",,,,,,,,,OL7972125M,,0,,,,,,,1,5868738,pdf,2A874E0A6DEA5769B1457D597D0187CC,,,D:\\!genesis\\library.nu\\2a\\_178195.2a874e0a6dea5769b1457d597d0187cc.pdf,0,2000-01-01 01:00:00,2016-04-03 02:51:08,557000/2a874e0a6dea5769b1457d597d0187cc-d.jpg,,
19576758,"Public Transit Planning and Operation: Theory, Modeling and Practice",,,,Avishai Ceder,2007,,,,640,0,English,,,до 2011-01,"0750661666,9780750661669,9780080549545",,,,,,,,,,,0,,,,,,,1,5714116,pdf,2A307748C5C4D9B29147EDC5D008E430,,,D:\\!genesis\\library.nu\\2a\\_178094.2a307748c5c4d9b29147edc5d008e430.pdf,0,2000-01-01 01:00:00,2016-04-03 02:51:08,557000/2a307748c5c4d9b29147edc5d008e430-d.jpg,,
19576759,Understanding the Markets (Securities Institute Global Capital Markets Series),,,,David Loader,2003,,,,208,0,English,,,до 2011-01,"0750654651,9780750654654,9780585462820",,,,,332.64,HG173 .L63 2002,,,OL3563946M,,0,,,,,,,1,1173374,pdf,2A53B3F4A502EC9558EB8E99B372BFE5,,,D:\\!genesis\\library.nu\\2a\\_178030.2a53b3f4a502ec9558eb8e99b372bfe5.pdf,0,2000-01-01 01:00:00,2016-04-03 02:51:08,557000/2a53b3f4a502ec9558eb8e99b372bfe5-d.jpg,,
19576760,"Witchcraft, Mythologies and Persecutions (Demons, Spirits, Witches)",,,,"Eszter Csonka-Takacs, Gabor Klaniczay, Eva Pocs",2008,,,,351,0,English,,,до 2011-01,"9637326871,9789637326875,9781435648272",,,,,133.4/309,BF1566 .W7393 2008,,,OL19999011M,,0,,,,,,,1,2201476,pdf,2A301D9A9C29C942F239C72615DB0714,,,D:\\!genesis\\library.nu\\2a\\_177049.2a301d9a9c29c942f239c72615db0714.pdf,0,2000-01-01 01:00:00,2016-04-03 02:51:08,557000/2a301d9a9c29c942f239c72615db0714-d.jpg,,
19576761,Seeds of Concern : The Genetic Manipulation of Plants  (CABI Publishing),,,,David R. Murray,2003,First,,,157,0,English,22,,до 2011-01,"0851997252,9780851997254",,,,,,,,,OL22527371M,,0,,,,,,,1,1335902,pdf,2A6B8E665DA7350682F0673EAA604BFE,,,D:\\!genesis\\library.nu\\2a\\_176950.2a6b8e665da7350682f0673eaa604bfe.pdf,0,2000-01-01 01:00:00,2016-04-03 02:51:08,557000/2a6b8e665da7350682f0673eaa604bfe-d.jpg,,
19576762,"CSCL 2: Carrying Forward the Conversation (Computers, Cognition, and Work)",,,,"Timothy Koschmann (Editor), Rogers P. Hall (Editor), Naomi Miyake (Editor)",2002,,,,592,0,English,69,,до 2011-01,"9780585418414,9780805835007,0805835008,0805835016,9780805835014",,,,,,,,,OL17041645M,,0,,,,,,,1,44033990,pdf,2AD9AF5181B672D1F2AF3BB2D84EA51A,,,D:\\!genesis\\library.nu\\2a\\_176924.2ad9af5181b672d1f2af3bb2d84ea51a.pdf,0,2000-01-01 01:00:00,2016-04-03 02:51:08,557000/2ad9af5181b672d1f2af3bb2d84ea51a-d.jpg,,
19576763,"Prices, Markets and the Pharmaceutical Revolution",,,,John E.  Calfee,2000,,Aei Press,,96,0,English,,,до 2011-01,"0844771473,9780844771472",,,,,338.4/361510973,HD9666.4 .C35 2000,,,OL3416308M,,0,,,,1,0,,1,243992,pdf,2A5A82DDBD2F6211922933B15BBFDFFD,,,D:\\!genesis\\library.nu\\2a\\_17681.2a5a82ddbd2f6211922933b15bbfdffd.pdf,0,2000-01-01 01:00:00,2016-04-03 02:51:08,557000/2a5a82ddbd2f6211922933b15bbfdffd-d.jpg,,
19576764,Organisationstheorien: Eine Einführung,,,,"Karin Sanders, Andrea Kianty",2006,,,,299,0,German,,,до 2011-01,"3531147188,9783531147185",,,,,,,,,,,0,,,,,,,1,1842726,pdf,2AE88EABF6B8363E0E4BDAD95028EC44,,,D:\\!genesis\\library.nu\\2a\\_176661.2ae88eabf6b8363e0e4bdad95028ec44.pdf,0,2000-01-01 01:00:00,2016-04-03 02:51:08,557000/2ae88eabf6b8363e0e4bdad95028ec44-d.jpg,,
19576765,Education Outreach and Public Engagement (Mentoring in Academia and Industry),,Mentoring in Academia and Industry 1,,Erin Dolan,2008,1,,,97,0,English,183,,до 2011-01,"038777792X,0387777911,9780387777924,9780387777917",,,,,,,10.1007/978-0-387-77792-4,,OL22981255M,,0,,,,,,,1,470929,pdf,2AFDFA09C9F88B56D9DAB227035056AB,,,D:\\!genesis\\library.nu\\2a\\_176143.2afdfa09c9f88b56d9dab227035056ab.pdf,0,2000-01-01 01:00:00,2016-04-03 02:51:08,557000/2afdfa09c9f88b56d9dab227035056ab-d.jpg,,
19576766,Erfolgsfaktoren von Mergers und Akquisitionen in der europäischen Telekommunikationsindustrie,,,,Rainer Lenhard,,,,,319,0,German,235,,до 2011-01,"3834910074,9783834910073",,,,,,,,,,,0,,,,,,,1,1828831,pdf,2A48151A1D7A2D571E5EAB0A5CA49429,,,D:\\!genesis\\library.nu\\2a\\_175520.2a48151a1d7a2d571e5eab0a5ca49429.pdf,0,2000-01-01 01:00:00,2016-04-03 02:51:08,557000/2a48151a1d7a2d571e5eab0a5ca49429-g.jpg,,
19576767,"Forest And Dragonflies: 4th Wda Symposium of Odonatology, Pontevedra, Spain, July 2005 (Faunistica) (Pensoft Series Faunistica)",,,,A. C. Rivera,2006,,,,300,0,English,,,до 2011-01,"9546422789,9789546422781,9781435638716",,,,,,,,,OL19372840M,,0,,,,,1,,1,16906291,pdf,2A522CF7BD3402557E3AD9680C7BF549,,,D:\\!genesis\\library.nu\\2a\\_175300.2a522cf7bd3402557e3ad9680c7bf549.pdf,0,2000-01-01 01:00:00,2016-04-03 02:51:08,557000/2a522cf7bd3402557e3ad9680c7bf549-d.jpg,,
19576768,Liquid Crystals: Fundamentals,,,,Shri Singh,2002,1st,,,548,0,English,,,до 2011-01,"9810242506,9789810242503,9789812778581",,,,,530.4/29,QD923 .S57 2005,,,OL3438800M,,0,,,,,1,,1,24886250,pdf,2A392012F65297086F8E8C606FB01D8A,,,D:\\!genesis\\library.nu\\2a\\_175267.2a392012f65297086f8e8c606fb01d8a.pdf,0,2000-01-01 01:00:00,2016-04-03 02:51:08,557000/2a392012f65297086f8e8c606fb01d8a-d.jpg,,
19576769,"America Precolombina  Pre-Columbian America: Sintesis Historica, Antologia Y Analisis De Su Arte Plastico (Spanish Edition)",,,,Cesar Sondereguer,2004,,,,205,0,Spanish,64,,до 2011-01,"9781417568291,9789871135646,9871135645",,,,,,,,,,,0,,,,,1,,1,20775552,pdf,2AE1B74C8B492A9D736BF566BB1B449F,,,D:\\!genesis\\library.nu\\2a\\_175222.2ae1b74c8b492a9d736bf566bb1b449f.pdf,0,2000-01-01 01:00:00,2016-04-03 02:51:08,557000/2ae1b74c8b492a9d736bf566bb1b449f-g.jpg,,
19576770,African Statistical Yearbook: Western Africa 2004,,,,United Nations,2005,Bilingual,,,298,0,English,,,до 2011-01,"9210251598,9789210251594,9781423754435",,,,,,,,,OL12892745M,,0,,,,,1,,1,14714394,pdf,2A9F73FBFB1F4E6ED6E275E246B80D44,,,D:\\!genesis\\library.nu\\2a\\_175194.2a9f73fbfb1f4e6ed6e275e246b80d44.pdf,0,2000-01-01 01:00:00,2016-04-03 02:51:08,557000/2a9f73fbfb1f4e6ed6e275e246b80d44-d.jpg,,
19576771,"Social Panorama of Latin America, 2002-2003",,,,United Nations,2004,2002-2003,,,356,0,English,64,,до 2011-01,"9211214262,9789211214260,9781417576920",,,,,,,,,OL9123361M,,0,,,,,1,,1,51623723,pdf,2A7F33026E3169837951758CBE453A90,,,D:\\!genesis\\library.nu\\2a\\_175174.2a7f33026e3169837951758cbe453a90.pdf,0,2000-01-01 01:00:00,2016-04-03 02:51:08,557000/2a7f33026e3169837951758cbe453a90-d.jpg,,
19576772,"Worldviews, Science and Us: Philosophy and Complexity",,,,"Carlos Gershenson, Diederik Aerts, Bruce Edmonds",2007,,,,351,0,English,137,,до 2011-01,"9812705481,9789812705488,9789812707420",,,,,,,,,OL22752632M,,0,,,,,1,,1,19304280,pdf,2A2527B5DC39160D3E82CD5860AE9CFD,,,D:\\!genesis\\library.nu\\2a\\_175130.2a2527b5dc39160d3e82cd5860ae9cfd.pdf,0,2000-01-01 01:00:00,2016-04-03 02:51:08,557000/2a2527b5dc39160d3e82cd5860ae9cfd-d.jpg,,
19576773,"Selected Decisions of the Human Rights Committee Under the Optional Protocol: International Covenant on Civil And Political Rights, Volume 6",,,,United Nations,2006,,,,208,0,English,,,до 2011-01,"9781423779544,9789211541656,9211541654",,,,,,,,,OL9123737M,,0,,,,,1,,1,20487858,pdf,2A4D561AAEF3F9CEDBB459AFA545B60C,,,D:\\!genesis\\library.nu\\2a\\_174917.2a4d561aaef3f9cedbb459afa545b60c.pdf,0,2000-01-01 01:00:00,2016-04-03 02:51:08,557000/2a4d561aaef3f9cedbb459afa545b60c-d.jpg,,
19576774,Data Acquisition and Signal Processing for Smart Sensors,,,,Nikolay V. Kirianaki Sergey Y. Yurish Nestor O. Shpak Vadim P. Deynega,2002,1,,,320,0,English,116,,до 2011-01,"0470843179,9780470843178,9780470852361",,,,,,,,,OL18139328M,,0,,,,,1,,1,2916347,pdf,2AFF02655E42D718934FE77652218F63,,,D:\\!genesis\\library.nu\\2a\\_17467.2aff02655e42d718934fe77652218f63.pdf,0,2000-01-01 01:00:00,2016-04-03 02:51:08,557000/2aff02655e42d718934fe77652218f63-d.jpg,,
19576775,産業・組織心理学 (朝倉心理学講座),,,,古川 久敬,,,,,206,0,Japanese,,,до 2011-01,"9784254526738,9784254955439,4254526733",,,,,,,,,,,0,,,,,1,,0,9937616,pdf,2A57ECBE76A690055D5D1F7EFEFAA07A,,,D:\\!genesis\\library.nu\\2a\\_173910.2a57ecbe76a690055d5d1f7efefaa07a.pdf,0,2000-01-01 01:00:00,2016-04-03 02:51:08,557000/2a57ecbe76a690055d5d1f7efefaa07a-g.jpg,,
19576776,"Reliable Software Technologies - Ada-Europe 2007: 12th Ada-Europe International Conference on Reliable Software Technologies, Geneva, Switzerland, June ... (Lecture Notes in Computer Science)",,,,"Nabil Abdennahder, Fabrice Kordon",2007,1,,,261,0,English,69,,до 2011-01,"3540732292,9783540732297,9783540732303",,,,,,,,,OL16148991M,,0,,,,,1,,1,2559349,pdf,2A5DB45991D938F466D3528A7007344E,,,D:\\!genesis\\library.nu\\2a\\_173677.2a5db45991d938f466d3528a7007344e.pdf,0,2000-01-01 01:00:00,2016-04-03 02:51:08,557000/2a5db45991d938f466d3528a7007344e-d.jpg,,
19576777,Mirror Neurons and the Evolution of Brain and Language,,Advances in Consciousness Research 42,,"Maksim I. Stamenov, Vittorio Gallese (Editors)",2002,1,John Benjamins Publishing Co,,390,0,English,314,,до 2011-01,"1588112152,9789027297082,9789027251664,9781588112156,9781588112422,158811242X,9027251665",,,,,401.9,,,,,,0,,,,,1,,1,4140893,pdf,2A3AF53865F51D56CCDD90215AB120B5,,,D:/!genesis/library.nu/2a/_173530.2a3af53865f51d56ccdd90215ab120b5.pdf,0,2000-01-01 01:00:00,2016-04-03 02:51:08,557000/2a3af53865f51d56ccdd90215ab120b5-d.jpg,,
19576778,Using Phrasal Verbs - Exercises New Edition (Spanish Edition),,,,Edward Rosset,2000,,,,161,0,Spanish,,,до 2011-01,"9788478732531,8478732535,9781417581115",,,,,,,,,OL13311869M,,0,,,,,1,,1,5657192,pdf,2ACF560FA3651B37FF0CCCE66DE60E79,,,D:\\!genesis\\library.nu\\2a\\_173336.2acf560fa3651b37ff0ccce66de60e79.pdf,0,2000-01-01 01:00:00,2016-04-03 02:51:08,557000/2acf560fa3651b37ff0ccce66de60e79-d.jpg,,
19576779,Textual Ethos Studies: Or Locating Ethics (Critical Studies 26),,,,Anna Fahraeus; AnnKatrin Jonsson,2005,,,,378,0,English,183,,до 2011-01,"904201797X,9789042017979,9781423791478",,,,,,,,,OL22716934M,,0,,,,,1,,1,2083094,pdf,2A2622E09E5C773FA29E344231AD4D68,,,D:\\!genesis\\library.nu\\2a\\_172752.2a2622e09e5c773fa29e344231ad4d68.pdf,0,2000-01-01 01:00:00,2016-04-03 02:51:08,557000/2a2622e09e5c773fa29e344231ad4d68-d.jpg,,
19576780,Parlement Québec de 1867 à aujourd'hui,,,,Louis Massicotte,,,,,317,0,French,,,до 2011-01,"9782763787398,2763787398,9781441614735",,,,,,,,,,,0,,,,,1,,1,1137846,pdf,2A3565C13ECFE0267A8D1D8DBD505966,,,D:\\!genesis\\library.nu\\2a\\_172417.2a3565c13ecfe0267a8d1d8dbd505966.pdf,0,2000-01-01 01:00:00,2016-04-03 02:51:08,557000/2a3565c13ecfe0267a8d1d8dbd505966-g.jpg,,
19576781,"Praxiswissen Anzeigenverkauf: So gelingt die Kommunikation zwischen Verlag, Agentur und Kunde",,,,Thorsten Szameitat,,,,,284,0,German,,,до 2011-01,"3834920940,9783834920942",,,,,,,,,,,0,,,,,1,,1,1499083,pdf,2A0D7F00D872819A867D01DF101EC6B5,,,D:\\!genesis\\library.nu\\2a\\_172020.2a0d7f00d872819a867d01df101ec6b5.pdf,0,2000-01-01 01:00:00,2016-04-03 02:51:08,557000/2a0d7f00d872819a867d01df101ec6b5-g.jpg,,
19576782,Dividend Stocks For Dummies,,,,Lawrence Carrel,2010,1,,,360,0,English,187,,до 2011-01,"0470466014,9780470466018",,,,,332.63/221,HG4028.D5 C376 2010,,,OL24485248M,,0,,,,,1,,1,4690468,pdf,2A8491D3522D47B2CA54CCE4EA4FC0F0,,,D:\\!genesis\\library.nu\\2a\\_171647.2a8491d3522d47b2ca54cce4ea4fc0f0.pdf,0,2000-01-01 01:00:00,2016-04-03 02:51:08,557000/2a8491d3522d47b2ca54cce4ea4fc0f0-d.jpg,,
19576783,Yahweh and the Sun: Biblical and Archaeological Evidence for Sun Worship in Ancient Israel (Journal for the Study of the Old Testament. Supplement),,,,J. Glen Taylor,1993,,,,322,0,English,183,,до 2011-01,"1850752729,9781850752721,9780567635495",,,,,296.3/1,BS1199.S9 T38 1993,,,OL1152132M,,0,,,,,1,,1,14579938,pdf,2A0B003260FE53A89588BE756A12022A,,,D:\\!genesis\\library.nu\\2a\\_170885.2a0b003260fe53a89588be756a12022a.pdf,0,2000-01-01 01:00:00,2016-04-03 02:51:08,557000/2a0b003260fe53a89588be756a12022a-d.jpg,,
19576784,Dairy Processing: Improving Quality,,,,Gerrit Smit,2003,1,,,536,0,English,,,до 2011-01,"9780849317583,0849317584,1855736764,9781855736764,9781855737075",,,,,,,,,OL16098988M,,0,,,,,1,,1,4136551,pdf,2A90BED6401C37DE81564FD2D493AA44,,,D:\\!genesis\\library.nu\\2a\\_170773.2a90bed6401c37de81564fd2d493aa44.pdf,0,2000-01-01 01:00:00,2016-04-03 02:51:08,557000/2a90bed6401c37de81564fd2d493aa44-d.jpg,,
19576785,Dark Storm Moving West,,,,Barbara Belyea,2007,,,,188,0,English,,,до 2011-01,"155238182X,9781552381823,9781435600225",,,,,971.2/01,F1060.7 .B45 2007,,,OL12017713M,,0,,,,,1,,1,7396106,pdf,2A9636C7D11E40072054C0641FD6DB27,,,D:\\!genesis\\library.nu\\2a\\_170526.2a9636c7d11e40072054c0641fd6db27.pdf,0,2000-01-01 01:00:00,2016-04-03 02:51:08,557000/2a9636c7d11e40072054c0641fd6db27-d.jpg,,
19576786,"Adventure Guide: Florida Keys & Everglades National Park, 4th Edition (Hunter Travel Guides)",,,,Bruce Morris,2005,4,,,298,0,English,35,,до 2011-01,"1588434036,9781588435590,9781588434036",,,,,,,,,OL8829120M,,0,,,,,1,,1,3879251,pdf,2A3BEC28B1077E9E3DB565E6CE99FB37,,,D:\\!genesis\\library.nu\\2a\\_170419.2a3bec28b1077e9e3db565e6ce99fb37.pdf,0,2000-01-01 01:00:00,2016-04-03 02:51:08,557000/2a3bec28b1077e9e3db565e6ce99fb37-d.jpg,,
19576787,A Parent's Guide to Asperger Syndrome and High-Functioning Autism: How to Meet the Challenges and Help Your Child Thrive,,,,"Sally Ozonoff, Geraldine Dawson",2002,1,,,278,0,English,,,до 2011-01,"1572307676,9781572307674,9781593859619",,,,,,,,,OL8734337M,,0,,,,,1,,1,860275,pdf,2A770FD994F93C187AEE56A8EF147943,,,D:\\!genesis\\library.nu\\2a\\_170252.2a770fd994f93c187aee56a8ef147943.pdf,0,2000-01-01 01:00:00,2016-04-03 02:51:08,557000/2a770fd994f93c187aee56a8ef147943-d.jpg,,
19576788,Mimicking Nature's Fire: Restoring Fire-Prone Forests In The West,,,,"Stephen F. Arno, Carl E. Fiedler",2005,1,,,256,0,English,,,до 2011-01,"1559631422,9781559631426,1559631430,9781559631433,9781429495219",,,,,,,,,OL22620229M,,0,,,,,1,,1,2759683,pdf,2A08A719B8837F354C319D10EC13BF14,,,D:\\!genesis\\library.nu\\2a\\_170228.2a08a719b8837f354c319d10ec13bf14.pdf,0,2000-01-01 01:00:00,2016-04-03 02:51:08,557000/2a08a719b8837f354c319d10ec13bf14-d.jpg,,
19576789,Proteins Are Powerful (What Should I Eat?),,,,Amanda Rondeau,2002,,,,23,0,English,17,,до 2011-01,"1577658361,9781577658368,9781423728306",,,,,,,,,OL12242514M,,0,,,,1,0,,1,1311519,pdf,2A89BA97DA40DE7905B73C255B6A601F,,,D:\\!genesis\\library.nu\\2a\\_169394.2a89ba97da40de7905b73c255b6a601f.pdf,0,2000-01-01 01:00:00,2016-04-03 02:51:08,557000/2a89ba97da40de7905b73c255b6a601f-d.jpg,,
19576790,Profiles of New York 2009 2010,,,,David Garoogian,2009,5,,,800,0,English,,,до 2011-01,"1592374220,9781592374229",,,,,,,,,,,0,,,,,1,,1,11729688,pdf,2A57DEFCFE46A3D77701B155141DFB7E,,,D:\\!genesis\\library.nu\\2a\\_169375.2a57defcfe46a3d77701b155141dfb7e.pdf,0,2000-01-01 01:00:00,2016-04-03 02:51:08,557000/2a57defcfe46a3d77701b155141dfb7e-d.jpg,,
19576791,Firefighter (Virtual Apprentice),,,,Diane Lindsey Reeves,2008,1,,,64,0,English,,,до 2011-01,"0816067511,9780816067510",,,,,628.9/25023,TH9119 .R443 2006,,,OL11360523M,,0,,,,,1,,1,7980413,pdf,2AE2835A40C4FA1F851519B973089A5C,,,D:\\!genesis\\library.nu\\2a\\_169135.2ae2835a40c4fa1f851519b973089a5c.pdf,0,2000-01-01 01:00:00,2016-04-03 02:51:08,557000/2ae2835a40c4fa1f851519b973089a5c-d.jpg,,
19576792,The Handy Ocean Answer Book (The Handy Answer Book Series),,,,Patricia Barnes-Svarney,1999,1,,,616,0,English,,,до 2011-01,"1578590639,9781578590636",,,,,,,,,OL15494300M,,0,,,,,1,,1,76583259,pdf,2A63CF2D738AC78DF325A90A2BC39C2D,,,D:\\!genesis\\library.nu\\2a\\_169104.2a63cf2d738ac78df325a90a2bc39c2d.pdf,0,2000-01-01 01:00:00,2016-04-03 02:51:08,557000/2a63cf2d738ac78df325a90a2bc39c2d-d.jpg,,
19576793,Marx's Critique of Politics 1842-1847,,,,Gary Teeple,1984,,,,331,0,English,64,,до 2011-01,"0802056318,9780802056313",,,,,320.5/315,JC233.M299 T43 1984,,,OL21365463M,,0,,,,,1,,1,5804557,djvu,2AEBBAFD546DB2BF4360205F8B44C1EC,,,D:\\!genesis\\library.nu\\2a\\_168963.2aebbafd546db2bf4360205f8b44c1ec.djvu,0,2000-01-01 01:00:00,2016-04-03 02:51:08,557000/2aebbafd546db2bf4360205f8b44c1ec-g.jpg,,
19576794,Getting Value Out of Value-Added: Report of a Workshop,,,,"Program Evaluation, and Accountability Committee on Value-Added Methodology for Instructional Improvement, National Research Council",2010,,,,96,0,English,,,до 2011-01,"0309148138,9780309148139",,,,,,,,,,,0,,,,1,0,,1,512734,pdf,2A0BBF88D3A27EBC3F4A2FED0540706A,,,D:\\!genesis\\library.nu\\2a\\_168857.2a0bbf88d3a27ebc3f4a2fed0540706a.pdf,0,2000-01-01 01:00:00,2016-04-03 02:51:08,557000/2a0bbf88d3a27ebc3f4a2fed0540706a-d.jpg,,
19576795,Best witness: The Mel Mermelstein affair and the triumph of historical revisionism,,,,Michael Collins Piper,1993,,,,246,0,English,64,,до 2011-01,"0935036482,9780935036480",,,,,,,,,OL1127401M,,0,,,,,1,,1,462851,pdf,2ACE6E14A3EA04B6E6866BF7A9106B52,,,D:\\!genesis\\library.nu\\2a\\_16863.2ace6e14a3ea04b6e6866bf7a9106b52.pdf,0,2000-01-01 01:00:00,2016-04-03 02:51:08,557000/2ace6e14a3ea04b6e6866bf7a9106b52-g.jpg,,
19576796,Henry John Cody: An Outstanding Life,,,,Donald Campbell Masters,1995,First Edition,,,344,0,English,,,до 2011-01,"9781550022193,1550022199",,,,,283/.092,BX5620.C6 M37 1995,,,OL925535M,,0,,,,,1,,1,20080372,pdf,2AA2F2A64CE8B316C7195EC31FEBEC1D,,,D:\\!genesis\\library.nu\\2a\\_168363.2aa2f2a64ce8b316c7195ec31febec1d.pdf,0,2000-01-01 01:00:00,2016-04-03 02:51:08,557000/2aa2f2a64ce8b316c7195ec31febec1d-g.jpg,,
19576797,"Lollards and Reformers (History Series (Hambledon Press), 22.)",,,,Margaret Aston,2003,,,,400,0,English,64,,до 2011-01,"0907628184,9780907628187,9780826431837",,,,,284/.3,BX4901.2 .A84 1984,,,OL3215437M,,0,,,,,1,,1,27997199,pdf,2ADFB38FEF99BB1144DCEFFFB2F89EC0,,,D:\\!genesis\\library.nu\\2a\\_168288.2adfb38fef99bb1144dcefffb2f89ec0.pdf,0,2000-01-01 01:00:00,2016-04-03 02:51:08,557000/2adfb38fef99bb1144dcefffb2f89ec0-d.jpg,,
19576798,"Speech Acoustics and Phonetics: Selected Writings (Text, Speech and Language Technology)",,,,Gunnar Fant,2005,1,,,322,0,English,314,,до 2011-01,"1402023731,9781402023736,9781402057465",,,,,302.2/242,P95 .S627 2004,,,OL3306949M,,0,,,,,1,,1,4387393,pdf,2A343129D1FDC66117F85F23BCB93A34,,,D:\\!genesis\\library.nu\\2a\\_168285.2a343129d1fdc66117f85f23bcb93a34.pdf,0,2000-01-01 01:00:00,2016-04-03 02:51:08,557000/2a343129d1fdc66117f85f23bcb93a34-d.jpg,,
19576799,Atlas of Alberta Lakes,,,,"Patricia Mitchell, Ellie E. Prepas",1991,,,,690,0,English,,,до 2011-01,"9780888642158,0888642156,0888642148,9780888642141,9781417592906",,,,,551.48/2/097123,,,,OL11266481M,,0,,,,,1,,1,90640529,pdf,2A6FD25292341D22F358020B47EFCD4B,,,D:\\!genesis\\library.nu\\2a\\_168145.2a6fd25292341d22f358020b47efcd4b.pdf,0,2000-01-01 01:00:00,2016-04-03 02:51:08,557000/2a6fd25292341d22f358020b47efcd4b-g.jpg,,
19576800,Aquatic Invertebrates of Alberta,,,,Hugh F. Clifford,1991,illustrated edition,,,550,0,English,,,до 2011-01,"9780888642349,0888642342,0888642334,9780888642332,9781417591398",,,,,592.097123,QL221.A38 C58 1991,,,OL1291694M,,0,,,,,1,,1,40313600,pdf,2A247CA1C053F26D376E651B93B814CF,,,D:\\!genesis\\library.nu\\2a\\_167891.2a247ca1c053f26d376e651b93b814cf.pdf,0,2000-01-01 01:00:00,2016-04-03 02:51:08,557000/2a247ca1c053f26d376e651b93b814cf-g.jpg,,
19576801,World Bank Assistance to Agriculture in Sub-Saharan Africa: An IEG Review (Independent Evaluation Studies),,,,World Bank,2007,,,,163,0,English,183,,до 2011-01,"0821373501,9780821373507,9780821373514",,,,,338.1/81,HG3881.5.W57 W66 2007,10.1596/978-0-8213-7350-7,,OL16419513M,,0,,,,,1,,1,2437842,pdf,2A05026042DB2181EB311D44F88B74DC,,,D:\\!genesis\\library.nu\\2a\\_167501.2a05026042db2181eb311d44f88b74dc.pdf,0,2000-01-01 01:00:00,2016-04-03 02:51:08,557000/2a05026042db2181eb311d44f88b74dc-d.jpg,,
19576802,Literature Among Discourses: The Spanish Golden Age,,,,Wlad Godzich,1986,,,,186,0,English,108,,до 2011-01,"0816614563,9780816614561,9780816614578",,,,,860/.9/003,PQ6065 .L58 1986,,,OL2539925M,,0,,,,,1,,1,10625452,pdf,2A28DA915BD295525263BE201A0A29F8,,,D:\\!genesis\\library.nu\\2a\\_167365.2a28da915bd295525263be201a0a29f8.pdf,0,2000-01-01 01:00:00,2016-04-03 02:51:08,557000/2a28da915bd295525263be201a0a29f8-g.jpg,,
19576803,The Roll Away Saloon: Cowboy Tales of the Arizona Strip (Western Experience Series),,,,Deirdre Paulsen,1985,1st,,,114,0,English,,,до 2011-01,"9780874211245,9780874213881,0874211247",,,,,979.1/3,F834.K36 R527 1985,,,OL2547597M,,0,,,,,1,,1,6528788,pdf,2A955379ECF8ED00E8B4CD7415A75CBA,,,D:\\!genesis\\library.nu\\2a\\_167322.2a955379ecf8ed00e8b4cd7415a75cba.pdf,0,2000-01-01 01:00:00,2016-04-03 02:51:08,557000/2a955379ecf8ed00e8b4cd7415a75cba-d.jpg,,
19576804,Hip to the Trip: A Cultural History of Route 66,,,,Peter B. Dedek,2007,,,,179,0,English,64,,до 2011-01,"0826341942,9780826341945,9780826341952",,,,,388.1/220973,HE356.U55 D43 2007,,,OL17173873M,,0,,,,,1,,1,1938631,pdf,2A4B4486F99C56A7F39241294E8B2691,,,D:\\!genesis\\library.nu\\2a\\_166870.2a4b4486f99c56a7f39241294e8b2691.pdf,0,2000-01-01 01:00:00,2016-04-03 02:51:08,557000/2a4b4486f99c56a7f39241294e8b2691-d.jpg,,
19576805,The Rough Guide to Yosemite,,Rough Guide Travel Guides,,Paul Whitfield,2008,3,Rough Guides,,256,0,English,35,,до 2011-01,"1858283930,9781858283937",,,,,917.94470454,,,,,,0,,,,0,0,,1,17246826,pdf,2A4CAD7B5E3DCAAC1733745C49137BFC,,,D:/!genesis/library.nu/2a/_165824.2a4cad7b5e3dcaac1733745c49137bfc.pdf,0,2000-01-01 01:00:00,2016-04-03 02:51:08,557000/2a4cad7b5e3dcaac1733745c49137bfc-d.jpg,,
19576806,Bible Stories told by Norman Vincent Peale,,,,Norman Vincent Peale,1995,,,,247,0,English,,,до 2011-01,"1562946897,9781562946890,0891290494,9780891290490,0531026345,9780531026342",,"B000GJ3WVY,B0007249AI,B0006X3MFG",,,220.9/505,BS550.2 .P4,,,OL24201632M,,0,,,,,1,,1,17735377,pdf,2A85C3E7BB730D45839129539989B33D,,,D:\\!genesis\\library.nu\\2a\\_165722.2a85c3e7bb730d45839129539989b33d.pdf,0,2000-01-01 01:00:00,2016-04-03 02:51:08,557000/2a85c3e7bb730d45839129539989b33d-g.jpg,,
19576807,The Cultural Work of Empire: The Seven Years' War and the Imagining of the Shandean State,,,,Carol Watts,2007,,,,272,0,English,67,,до 2011-01,"9780748625642,9780748631223,074862564X",,,,,823.6,,,,OL19337412M,,0,,,,,1,,1,961483,pdf,2AC55BAAE280CC452D832E2B0161853B,,,D:\\!genesis\\library.nu\\2a\\_165336.2ac55baae280cc452d832e2b0161853b.pdf,0,2000-01-01 01:00:00,2016-04-03 02:51:08,557000/2ac55baae280cc452d832e2b0161853b-d.jpg,,
19576808,"Collected Works of Poe, Volume IV (Webster's French Thesaurus Edition)",,,,Edgar Allan Poe,2006,annotated edition,,,264,0,English,322,,до 2011-01,"0497255960,9780497255961,9781423779872",,,,,,,,,OL7652853M,,0,,,,,1,,1,2415168,pdf,2AEBF418079BD6150F33420EE0870996,,,D:\\!genesis\\library.nu\\2a\\_163732.2aebf418079bd6150f33420ee0870996.pdf,0,2000-01-01 01:00:00,2016-04-03 02:51:08,557000/2aebf418079bd6150f33420ee0870996-d.jpg,,
19576809,The Confessions of Saint Augustine (Webster's French Thesaurus Edition),,,,Augustine,2006,,,,302,0,English,322,,до 2011-01,"0497255774,9780497255770,9781423779667",,,,,,,,,OL7652846M,,0,,,,,1,,1,2734048,pdf,2A62AB6FBE23266AE664E6CBE56D680D,,,D:\\!genesis\\library.nu\\2a\\_163359.2a62ab6fbe23266ae664e6cbe56d680d.pdf,0,2000-01-01 01:00:00,2016-04-03 02:51:08,557000/2a62ab6fbe23266ae664e6cbe56d680d-d.jpg,,
19576810,Leadership Blind Spots and What To Do About Them,,,,Karen Blakeley,2007,1,,,310,0,English,,,до 2011-01,"047003193X,9780470031933,9780470512210",,,,,658.4/092,HD57.7 .B554 2007,,,OL17848851M,,0,,,,,1,,1,855299,pdf,2A34676C66625571E27B7216107C6F36,,,D:\\!genesis\\library.nu\\2a\\_162825.2a34676c66625571e27b7216107c6f36.pdf,0,2000-01-01 01:00:00,2016-04-03 02:51:08,557000/2a34676c66625571e27b7216107c6f36-d.jpg,,
19576811,"Remembering the Alamo: Memory, Modernity, and the Master Symbol (CMAS History, Culture, and Society Series)",,,,Richard R. Flores,2002,1,,,216,0,English,64,,до 2011-01,"9780292725393,9780292796478,0292725396,029272540X,9780292725409",,,,,976.4/03,F390 .F58 2002,,,OL3953872M,,0,,,,,1,,1,1783748,pdf,2AD6E5C8DACFFFB3F2BB404C18D29C42,,,D:\\!genesis\\library.nu\\2a\\_162009.2ad6e5c8dacfffb3f2bb404c18d29c42.pdf,0,2000-01-01 01:00:00,2016-04-03 02:51:08,557000/2ad6e5c8dacfffb3f2bb404c18d29c42-g.jpg,,
19576812,NBER Macroeconomics Annual 2001,,,,Kenneth Rogoff,2002,,,,394,0,English,305,,до 2011-01,"0262025205,9780262025201,9780585477633",,,,,,,,,OL10236783M,,0,,,,,1,,1,17890110,pdf,2A83CFFCE89513B3A5E9C0CB7A8C96AD,,,D:\\!genesis\\library.nu\\2a\\_161873.2a83cffce89513b3a5e9c0cb7a8c96ad.pdf,0,2000-01-01 01:00:00,2016-04-03 02:51:08,557000/2a83cffce89513b3a5e9c0cb7a8c96ad-d.jpg,,
19576813,Courting the Media: Public Relations for the Accused and the Accuser,,,,Margaret A. Mackenzie,2006,,,,204,0,English,5,,до 2011-01,"0275991253,9780275991258,9780313082177",,,,,,,,,OL10289757M,,0,,,,,1,,1,749939,pdf,2A8B9CA1EC0FADEDA8F04388A3AAFEE5,,,D:\\!genesis\\library.nu\\2a\\_161661.2a8b9ca1ec0fadeda8f04388a3aafee5.pdf,0,2000-01-01 01:00:00,2016-04-03 02:51:08,557000/2a8b9ca1ec0fadeda8f04388a3aafee5-d.jpg,,
19576814,Environmental Regime Effectiveness: Confronting Theory with Evidence (Global Environmental Accord: Strategies for Sustainability and Institutional Innovation),,,,"Edward L. Miles, Arild Underdal, Steinar Andresen, Jorgen Wettestad, Jon Birger Skjaerseth",2001,,,,530,0,English,31,,до 2011-01,"0262133946,9780262133944,0262632411,9780262632416,9780585445724",,,,,,,,,OL18167507M,,0,,,,,1,,1,1692910,pdf,2AFB31CB3774F9D01A49D7022807758C,,,D:\\!genesis\\library.nu\\2a\\_161524.2afb31cb3774f9d01a49d7022807758c.pdf,0,2000-01-01 01:00:00,2016-04-03 02:51:08,557000/2afb31cb3774f9d01a49d7022807758c-d.jpg,,
19576815,Women's Roles in the Middle Ages (Women's Roles through History),,,,Sandy Bardsley,2007,annotated edition,,,256,0,English,64,,до 2011-01,"0313336350,9780313336355,9780313055850",,,,,,,,,OL10420658M,,0,,,,,1,,1,3880800,pdf,2A0813E8542B5D0031AA48B8BF524E4C,,,D:\\!genesis\\library.nu\\2a\\_161476.2a0813e8542b5d0031aa48b8bf524e4c.pdf,0,2000-01-01 01:00:00,2016-04-03 02:51:08,557000/2a0813e8542b5d0031aa48b8bf524e4c-d.jpg,,
19576816,Islam vs. Islamism: The Dilemma of the Muslim World,,,,Peter R. Demant,2006,,,,312,0,English,205,,до 2011-01,"0275990788,9780275990787,9780313081392",,,,,,,,,OL10289735M,,0,,,,,1,,1,2477703,pdf,2ABD74D087304E173D3D1CE0C9FB7DF7,,,D:\\!genesis\\library.nu\\2a\\_161303.2abd74d087304e173d3d1ce0c9fb7df7.pdf,0,2000-01-01 01:00:00,2016-04-03 02:51:08,557000/2abd74d087304e173d3d1ce0c9fb7df7-d.jpg,,
19576817,Fiction of Imperialism (Writing Past Colonialism Series),,,,Phillip Darby,1998,,,,260,0,English,,,до 2011-01,"0304701599,9780304701599,9780826420596",,,,,809.3/9358,PN51 .D285 1998,,,OL681100M,,0,,,,,1,,1,17149990,pdf,2A8D8C0180276E55BCD35A59BB2D59E3,,,D:\\!genesis\\library.nu\\2a\\_161288.2a8d8c0180276e55bcd35a59bb2d59e3.pdf,0,2000-01-01 01:00:00,2016-04-03 02:51:08,557000/2a8d8c0180276e55bcd35a59bb2d59e3-d.jpg,,
19576818,Last Things: Emily Bronte's Poems,,,,Janet Gezari,2007,,,,200,0,English,,,до 2011-01,"0199298181,9780199298181,9781429492812",,,,,,,,,OL17219684M,,0,,,,,1,,1,1769705,pdf,2AF87A35C668CA2DEAF4C69EA010B334,,,D:\\!genesis\\library.nu\\2a\\_160856.2af87a35c668ca2deaf4c69ea010b334.pdf,0,2000-01-01 01:00:00,2016-04-03 02:51:08,557000/2af87a35c668ca2deaf4c69ea010b334-d.jpg,,
19576819,Monitoring Vertebrate Populations,,,,"William L. Thompson, Gary C. White, Charles Gowan",1998,1st,,,365,0,English,,,до 2011-01,"0126889600,9780126889604,9780080536941",,,,,596.17/88,QL752 .T48 1998,,,OL396531M,,0,,,,,1,,1,16726144,pdf,2A3E79B1921FC20634DA341D96664329,,,D:\\!genesis\\library.nu\\2a\\_160353.2a3e79b1921fc20634da341d96664329.pdf,0,2000-01-01 01:00:00,2016-04-03 02:51:08,557000/2a3e79b1921fc20634da341d96664329-d.jpg,,
19576820,The Other Mary Shelley: Beyond Frankenstein,,,,"Audrey Fisch, Anne K. Mellor, Esther H. Schor",1993,,,,312,0,English,92,,до 2011-01,"0195077407,9780195077407",,,,,823/.7,PR5398 .O87 1993,,,OL1712491M,,0,,,,,1,,1,21833048,pdf,2AD39C1CB9CFF53751B5A8EC1B53580B,,,D:\\!genesis\\library.nu\\2a\\_159946.2ad39c1cb9cff53751b5a8ec1b53580b.pdf,0,2000-01-01 01:00:00,2016-04-03 02:51:08,557000/2ad39c1cb9cff53751b5a8ec1b53580b-d.jpg,,
19576821,Dinosaur Imagery: The Science of Lost Worlds and Jurassic Art (The Lanzendorf Collection),,,,John J. Lanzendorf (Author),2000,1,,,152,0,English,,,до 2011-01,"0124365906,9780124365902,9780080530420",,,,,704.9/432,N7663 .D56 2000,,,OL6797766M,,0,,,,,1,,1,19982451,pdf,2AF99F0A1D701170CD2A753501EB88DF,,,D:\\!genesis\\library.nu\\2a\\_159923.2af99f0a1d701170cd2a753501eb88df.pdf,0,2000-01-01 01:00:00,2016-04-03 02:51:08,557000/2af99f0a1d701170cd2a753501eb88df-d.jpg,,
19576822,Getting Bigger by Growing Smaller: A New Growth Model for Corporate America (Financial Times Prentice Hall Books),,,,"Joel M. Shulman, Thomas T. Stallkamp",2003,1st,,,240,0,English,305,,до 2011-01,"0130084220,9780130084224,9780132044578",,,,,,,,,OL3325717M,,0,,,,,1,,1,1254985,pdf,2AACF048687248BE310286406235F4CA,,,D:\\!genesis\\library.nu\\2a\\_159597.2aacf048687248be310286406235f4ca.pdf,0,2000-01-01 01:00:00,2016-04-03 02:51:08,557000/2aacf048687248be310286406235f4ca-d.jpg,,
19576823,The Burnt House (The Peter Decker and Rina Lazarus Series - Book 16 - 2007),,,,Faye Kellerman,2007,,,,448,0,English,64,,до 2011-01,"0061227323,9780061479397,9780061259517,9780061227325,0061259519",,,,,"813/.54,[Fic]",PS3561.E3864 B87 2007b,,,OL20946353M,,0,,,,,1,,1,1451744,pdf,2AFB6CDFBCD87CE9C694EFE76F541A95,,,D:\\!genesis\\library.nu\\2a\\_159021.2afb6cdfbcd87ce9c694efe76f541a95.pdf,0,2000-01-01 01:00:00,2016-04-03 02:51:08,557000/2afb6cdfbcd87ce9c694efe76f541a95-d.jpg,,
19576824,The Red Dragon & The West Wind: The Winning Guide to Official Chinese & American Mah-Jongg,,,,Tom Sloper,2007,First Edition,,,272,0,English,,,до 2011-01,"0061233943,9780061233944,9780061906183",,,,,,,,,OL7289305M,,0,,,,,1,,1,2767213,pdf,2A9E2D4E1A8337F97E118822C3E152E8,,,D:\\!genesis\\library.nu\\2a\\_158934.2a9e2d4e1a8337f97e118822c3e152e8.pdf,0,2000-01-01 01:00:00,2016-04-03 02:51:08,557000/2a9e2d4e1a8337f97e118822c3e152e8-d.jpg,,
19576825,"Baltic Yearbook of International Law, Volume 6 (2006)",,,,"Laurin, C.",2006,,,,504,0,English,313,,до 2011-01,"9004154302,9789004154308,9789047411192",,,,,,,,,OL9085766M,,0,,,,,1,,1,1431067,pdf,2A564850B59DFB623CC1BE239FA76DD2,,,D:\\!genesis\\library.nu\\2a\\_157731.2a564850b59dfb623cc1be239fa76dd2.pdf,0,2000-01-01 01:00:00,2016-04-03 02:51:08,557000/2a564850b59dfb623cc1be239fa76dd2-d.jpg,,
19576826,Fair Trade: A Beginner's Guide (Beginner's Guides),,,,Jacqueline Decarlo,2007,,,,192,0,English,187,,до 2011-01,"1851685219,9781851685219,9781435627659",,,,,,,,,OL8971701M,,0,,,,,1,,1,1251461,pdf,2A5F1C3FD29E3BD31574A130B43B3148,,,D:\\!genesis\\library.nu\\2a\\_157508.2a5f1c3fd29e3bd31574a130b43b3148.pdf,0,2000-01-01 01:00:00,2016-04-03 02:51:08,557000/2a5f1c3fd29e3bd31574a130b43b3148-d.jpg,,
19576827,Let It Bleed,,,,Ian Rankin,1996,,,,288,0,English,,,до 2011-01,"0752804014,9781407207001",,,,,,,,,OL7983743M,,0,,,,,1,,1,1333198,pdf,2AAB6E96AF9290DC8F748F71A1E239FA,,,D:\\!genesis\\library.nu\\2a\\_15750.2aab6e96af9290dc8f748f71a1e239fa.pdf,0,2000-01-01 01:00:00,2016-04-03 02:51:08,557000/2aab6e96af9290dc8f748f71a1e239fa-d.jpg,,
19576828,Future Trade Research Areas that Matter to Developing Country Policymakers: A Regional Perspective on the Doha Development Agenda and Beyond (Studies in Trade and Investment),,,,United Nations,2008,,,,228,0,English,305,,до 2011-01,"9211205336,9789211205336,9781435643932",,,,,,,,,,,0,,,,,1,,1,713440,pdf,2A926F4DBCA0D8E81B4657D15BA51E3A,,,D:\\!genesis\\library.nu\\2a\\_157346.2a926f4dbca0d8e81b4657d15ba51e3a.pdf,0,2000-01-01 01:00:00,2016-04-03 02:51:08,557000/2a926f4dbca0d8e81b4657d15ba51e3a-d.jpg,,
19576829,Terrorism and Global Disorder (International Library of War Studies),,,,Adrian Guelke,2006,,,,297,0,English,183,,до 2011-01,"9781429462525,9781850438038,9781850438045,185043803X,1850438048",,,,,,,,,OL22737409M,,0,,,,0,0,,1,917124,pdf,2A1C520E2C55FA2086DA8671704696DB,,,D:\\!genesis\\library.nu\\2a\\_157292.2a1c520e2c55fa2086da8671704696db.pdf,0,2000-01-01 01:00:00,2016-04-03 02:51:08,557000/2a1c520e2c55fa2086da8671704696db-d.jpg,,
19576830,Code of the Debator: Introduction to Policy Debating,,,,Alfred C. Snider,2008,,,,206,0,English,192,,до 2011-01,"1932716416,9781932716412,9781435665170",,,,,,,,,OL12334489M,,0,,,,,1,,1,485829,pdf,2A1783A9ADB2A6F227C1092C233F8539,,,D:\\!genesis\\library.nu\\2a\\_157180.2a1783a9adb2a6f227c1092c233f8539.pdf,0,2000-01-01 01:00:00,2016-04-03 02:51:08,557000/2a1783a9adb2a6f227c1092c233f8539-d.jpg,,
19576831,Escape From Leipzig,,,,Harald Fritzsch,2008,1,,,140,0,English,,,до 2011-01,"9789812793065,9812793062,9812790098,9789812790095,9789812790101",,,,,"943/.1087092,B",DD287.4 .F7513 2008,,,OL16864415M,,0,,,,,1,,1,1634873,pdf,2A7CDA2A3286DE3B877254B71626FC5D,,,D:\\!genesis\\library.nu\\2a\\_157174.2a7cda2a3286de3b877254b71626fc5d.pdf,0,2000-01-01 01:00:00,2016-04-03 02:51:08,557000/2a7cda2a3286de3b877254b71626fc5d-d.jpg,,
19576832,Architekturen und Prozesse: Strukturen und Dynamik in Forschung und Unternehmen (German Edition),,,,"Peter Loos, Helmut Krcmar",2007,1,,,335,0,German,,,до 2011-01,"3540468471,9783540468479,9783540468486",,,,,,,,,OL9058105M,,0,,,,,1,,1,2693736,pdf,2A8FC5E34694387CF761734FAC050567,,,D:\\!genesis\\library.nu\\2a\\_156995.2a8fc5e34694387cf761734fac050567.pdf,0,2000-01-01 01:00:00,2016-04-03 02:51:08,557000/2a8fc5e34694387cf761734fac050567-d.jpg,,
19576833,Renewables Information 2005 Edition,,,,Organization for Economic Cooperation & Development,2005,,,,216,0,English,,,до 2011-01,"9264109072,9789264109070,9789264109087",,,,,,,,,OL9126512M,,0,,,,,1,,1,1022751,pdf,2A18C9C76AFBACAFCF4B8C9147F5FBA1,,,D:\\!genesis\\library.nu\\2a\\_156934.2a18c9c76afbacafcf4b8c9147f5fba1.pdf,0,2000-01-01 01:00:00,2016-04-03 02:51:08,557000/2a18c9c76afbacafcf4b8c9147f5fba1-g.jpg,,
19576834,Lydia Cabrera and the Construction of an Afro-Cuban Cultural Identity (Envisioning Cuba),,,,Edna M. Rodriguez-Mangual,2004,,,,224,0,English,236,,до 2011-01,"0807828874,9780807828878,9780807876282",,,,,,,,,OL17134968M,,0,,,,,1,,1,1162569,pdf,2A9A07F84A1623EF83E2A1A5DDCCB018,,,D:\\!genesis\\library.nu\\2a\\_156861.2a9a07f84a1623ef83e2a1a5ddccb018.pdf,0,2000-01-01 01:00:00,2016-04-03 02:51:08,557000/2a9a07f84a1623ef83e2a1a5ddccb018-d.jpg,,
19576835,Some Aspects of Islam in Africa,,,,Uthman Sayyid Ahmad Ismail Al-Bili,2008,,,,135,0,English,205,,до 2011-01,"0863723195,9780863723193,9781435625945",,,,,297.096,BP64.A1 B55 2008,,,OL11047396M,,0,,,,,1,,1,602448,pdf,2A9442F59F6B363B7FC4D92B4E3E25B8,,,D:\\!genesis\\library.nu\\2a\\_156786.2a9442f59f6b363b7fc4d92b4e3e25b8.pdf,0,2000-01-01 01:00:00,2016-04-03 02:51:08,557000/2a9442f59f6b363b7fc4d92b4e3e25b8-d.jpg,,
19576836,"Quirky, Jerky, Extra Perky: More About Adjectives (Words Are Categorical)",,,,Brian P. Cleary,2007,,,,30,0,English,,,до 2011-01,"9780822567097,9781580136952,0822567091,1580136958",,,,,,,,,OL11425699M,,0,,,,,1,,1,5945160,pdf,2A1D4C6858017E813F006DB476E286A9,,,D:\\!genesis\\library.nu\\2a\\_156719.2a1d4c6858017e813f006db476e286a9.pdf,0,2000-01-01 01:00:00,2016-04-03 02:51:08,557000/2a1d4c6858017e813f006db476e286a9-d.jpg,,
19576837,Young Guns: The Fearless Entrepreneur's Guide to Chasing Your Dreams and Breaking Out on Your Own,,,,Robert Tuchman,2009,1,,,216,0,English,,,до 2011-01,"0814410707,9780814410707,9780814410714",,,,,658.1/1,HD62.5 .T83 2009,,,OL22551906M,,0,,,,,1,,1,581108,pdf,2AA17AF88AFDFBE4EBD597B25AB02D8F,,,D:\\!genesis\\library.nu\\2a\\_156311.2aa17af88afdfbe4ebd597b25ab02d8f.pdf,0,2000-01-01 01:00:00,2016-04-03 02:51:08,557000/2aa17af88afdfbe4ebd597b25ab02d8f-d.jpg,,
19576838,Forever Red: Confessions of a Cornhusker Football Fan,,,,Steve Smith,2005,,,,192,0,English,,,до 2011-01,"0803243103,9780803243101,9780803252202",,,,,,,,,OL7905338M,,0,,,,,1,,1,1073094,pdf,2AA0ED7D0E53BBD5970CDDAE9E19FF17,,,D:\\!genesis\\library.nu\\2a\\_156160.2aa0ed7d0e53bbd5970cddae9e19ff17.pdf,0,2000-01-01 01:00:00,2016-04-03 02:51:08,557000/2aa0ed7d0e53bbd5970cddae9e19ff17-d.jpg,,
19576839,Introduction to Solid-State Lighting,,,,Arturas Zukauskas Michael S. Shur Remis Gaska,2002,1,,,224,0,English,,,до 2011-01,"0471215740,9780471215745",,,,,,,,,OL17045063M,,0,,,,,1,,0,30466779,pdf,2ADBA7F66494C43E0A1BFE567600463F,,,D:\\!genesis\\library.nu\\2a\\_15590.2adba7f66494c43e0a1bfe567600463f.pdf,0,2000-01-01 01:00:00,2016-04-03 02:51:08,557000/2adba7f66494c43e0a1bfe567600463f-d.jpg,,
19576840,"Consuming Traditions:  Modernity, Modernism, and the Commodified Authentic",,,,Elizabeth Outka,2008,,,,232,0,English,,,до 2011-01,"0195372697,9780195372694,9780199706877",,,,,820.9/112,PR478.M6 O87 2008,,,OL16699335M,,0,,,,,1,,1,2763793,pdf,2AB12FCD46816EA4E801455FE91DA3AE,,,D:\\!genesis\\library.nu\\2a\\_1556.2ab12fcd46816ea4e801455fe91da3ae.pdf,0,2000-01-01 01:00:00,2016-04-03 02:51:08,557000/2ab12fcd46816ea4e801455fe91da3ae-d.jpg,,
19576841,The Elements of UML™ Style (Sigs Reference Library),,,,Scott W. Ambler,2002,,,,160,0,English,91,,до 2011-01,"0521525470,9780521525473,9780511077371",,,,,005.117,,,,OL18384200M,,0,,,,,1,,1,514181,pdf,2AEFB23E536E8AE417A79FDA80129055,,,D:\\!genesis\\library.nu\\2a\\_155589.2aefb23e536e8ae417a79fda80129055.pdf,0,2000-01-01 01:00:00,2016-04-03 02:51:08,557000/2aefb23e536e8ae417a79fda80129055-d.jpg,,
19576842,The River of Angry Dogs: A Memoir,,,,Mira Hamermesh,2004,,,,320,0,English,,,до 2011-01,"0745322336,9780745322339,9781435662070",,,,,"940.53/092,B",DS135.P63 H35484 2004,,,OL22582537M,,0,,,,,1,,1,963868,pdf,2AA3729AD1E2A03B7AA32C106CC2502B,,,D:\\!genesis\\library.nu\\2a\\_155534.2aa3729ad1e2a03b7aa32c106cc2502b.pdf,0,2000-01-01 01:00:00,2016-04-03 02:51:08,557000/2aa3729ad1e2a03b7aa32c106cc2502b-d.jpg,,
19576843,"Israel and the Clash of Civilisations: Iraq, Iran and the Plan to Remake the Middle East",,,,Jonathan Cook,2008,,,,192,0,English,,,до 2011-01,"0745327540,9780745327549,0745327559,9780745327556,9781435690899",,,,,327.56073,DS63.2.U5 C665 2008,,,OL10729406M,,0,,,,,1,,1,750659,pdf,2AD0AD32620374DA1F9BA1440DAAE056,,,D:\\!genesis\\library.nu\\2a\\_155461.2ad0ad32620374da1f9ba1440daae056.pdf,0,2000-01-01 01:00:00,2016-04-03 02:51:08,557000/2ad0ad32620374da1f9ba1440daae056-d.jpg,,
19576844,Child and Adolescent Psychiatry for the Specialty Board Review (Brunner Mazel Continuing Education in Psychiatry),,,,"Robert L. Hendren, Hong Shen",2007,3,,,184,0,English,183,,до 2011-01,041595598X,,,,,,,,,OL9524366M,,0,,,,,1,,1,2228500,pdf,2A353A162BC092F5DCB518DE800A2F4E,,,D:\\!genesis\\library.nu\\2a\\_155437.2a353a162bc092f5dcb518de800a2f4e.pdf,0,2000-01-01 01:00:00,2016-04-03 02:51:08,557000/2a353a162bc092f5dcb518de800a2f4e-d.jpg,,
19576845,Working with Children in Care: European Perspectives,,,,"Pat Petrie, Janet Boddy, Claire Cameron, Valerie Wigfall, Antonia Simon",2006,1,,,208,0,English,,,до 2011-01,"033521634X,9780335216345,9780335230143",,,,,,,,,OL10562007M,,0,,,,,1,,1,982765,pdf,2A46E54632B305CAAE211C16589E4D22,,,D:\\!genesis\\library.nu\\2a\\_155407.2a46e54632b305caae211c16589e4d22.pdf,0,2000-01-01 01:00:00,2016-04-03 02:51:08,557000/2a46e54632b305caae211c16589e4d22-d.jpg,,
19576846,Outsmarting the Terrorists (Global Crime and Justice),,,,"Ronald V. Clarke, Graeme R. Newman",2006,,,,316,0,English,311,,до 2011-01,"0275992306,9780275992309,9780313086373",,,,,,,,,OL9331800M,,0,,,,,1,,1,1411343,pdf,2A3EE703DAC30A46F69F23EA2DC711A9,,,D:\\!genesis\\library.nu\\2a\\_154834.2a3ee703dac30a46f69f23ea2dc711a9.pdf,0,2000-01-01 01:00:00,2016-04-03 02:51:08,557000/2a3ee703dac30a46f69f23ea2dc711a9-d.jpg,,
19576847,Past Forgetting: My Memory Lost and Found,,,,Jill Robinson,2000,,,,288,0,English,,,до 2011-01,"0060932341,9780060932343,9780061702921",,,,,,,,,OL7285099M,,0,,,,,1,,1,729144,pdf,2AE53F4DA5A21F17FA14A18400B8BF1F,,,D:\\!genesis\\library.nu\\2a\\_154704.2ae53f4da5a21f17fa14a18400b8bf1f.pdf,0,2000-01-01 01:00:00,2016-04-03 02:51:08,557000/2ae53f4da5a21f17fa14a18400b8bf1f-d.jpg,,
19576848,The Antelope Wife: A Novel,,,,Louise Erdrich,1998,1st,,,256,0,English,,,до 2011-01,"0060187263,9780060187262,9780060847463",,,,,813/.54,PS3555.R42 A8 1998,,,OL24273618M,,0,,,,,1,,1,1028137,pdf,2ACF4FEC77F3CAEF6D4C63893D8364A6,,,D:\\!genesis\\library.nu\\2a\\_154629.2acf4fec77f3caef6d4c63893d8364a6.pdf,0,2000-01-01 01:00:00,2016-04-03 02:51:08,557000/2acf4fec77f3caef6d4c63893d8364a6-d.jpg,,
19576849,Ellen Ochoa (The Great Hispanic Heritage),,,,Judy L. Hasday,2006,Library Binding,,,106,0,English,,,до 2011-01,"0791088421,9780791088425,9781438106762",,,,,,,,,OL8160019M,,0,,,,,1,,1,1226403,pdf,2AC15E7B3A9B92E9E306F505AFBC8144,,,D:\\!genesis\\library.nu\\2a\\_153738.2ac15e7b3a9b92e9e306f505afbc8144.pdf,0,2000-01-01 01:00:00,2016-04-03 02:51:08,557000/2ac15e7b3a9b92e9e306f505afbc8144-d.jpg,,
19576850,Cherry Ames Flight Nurse: Book 5 (Bk. 5),,,,Helen Wells,2006,1,,,224,0,English,,,до 2011-01,"0826103979,9780826103970,9780826104038",,,,,,,,,OL11453774M,,0,,,,,1,,1,451236,pdf,2AA39310B3E98A956488963572C40BBB,,,D:\\!genesis\\library.nu\\2a\\_153357.2aa39310b3e98a956488963572c40bbb.pdf,0,2000-01-01 01:00:00,2016-04-03 02:51:08,557000/2aa39310b3e98a956488963572c40bbb-d.jpg,,
19576851,What Is a Gas? (First Step Nonfiction),,,,Jennifer Boothroyd,2007,,,,24,0,English,,,до 2011-01,"9780822568377,0822568373,0822568187,9780822568186",,B002JBTAEK,,,,,,,OL11425763M,,0,,,,,1,,1,2944649,pdf,2A54AC474A4660C35A652158BAD18D8D,,,D:\\!genesis\\library.nu\\2a\\_153228.2a54ac474a4660c35a652158bad18d8d.pdf,0,2000-01-01 01:00:00,2016-04-03 02:51:08,557000/2a54ac474a4660c35a652158bad18d8d-d.jpg,,
19576852,Natural Gas Networks Performance After Partial Deregulation: Five Quantitative Studies (World Scientific Series on Energy and Resource Economics) (World ... Series on Energy and Resource Economics),,,,"Paul MacAvoy, Vadim Marmer, Nickolay Moshkin, Dmitry Shapiro",2007,,,,220,0,English,305,,до 2011-01,"981270860X,9789812708601,9789812770356",,,,,338.272850971,HD9581.N62 N37 2007,,,OL16821411M,,0,,,,,1,,1,905610,pdf,2A5CC0A2BB0A45AB44D0386112E96DEF,,,D:\\!genesis\\library.nu\\2a\\_153102.2a5cc0a2bb0a45ab44d0386112e96def.pdf,0,2000-01-01 01:00:00,2016-04-03 02:51:08,557000/2a5cc0a2bb0a45ab44d0386112e96def-d.jpg,,
19576853,Discovering Creative Solutions to Everyday Challenges (Leading from the Center),,,,Duke Corporate Education,2006,,,,112,0,English,,,до 2011-01,"141951508X,9781419515088,9781435607804",,,,,658.4/03,HD53 .D57 2005,,,OL3406667M,,0,,,,,1,,1,789227,pdf,2A39F9A201FA40985EF297E029926BAA,,,D:\\!genesis\\library.nu\\2a\\_152922.2a39f9a201fa40985ef297e029926baa.pdf,0,2000-01-01 01:00:00,2016-04-03 02:51:08,557000/2a39f9a201fa40985ef297e029926baa-d.jpg,,
19576854,Information Technology: A Growth Navigator for Small Scale Industries in India,,,,"Ganesh P. Sahu, Prabhudatt Dwivedi",,,,,11,0,English,,,до 2011-01,"1435695860,9781435695863",,,,,,,,,,,0,,,,,1,,1,342307,pdf,2AF8CCE9119253FB77CA60E69C3AD714,,,D:\\!genesis\\library.nu\\2a\\_152020.2af8cce9119253fb77ca60e69c3ad714.pdf,0,2000-01-01 01:00:00,2016-04-03 02:51:08,557000/2af8cce9119253fb77ca60e69c3ad714-g.jpg,,
19576855,"King Henry IV, Part I (Webster's Spanish Thesaurus Edition)",,,,William Shakespeare,2006,annotated edition,,,156,0,English,322,,до 2011-01,"0497261855,9780497261856,9781423779193",,,,,,,,,OL9716922M,,0,,,,,1,,1,1215222,pdf,2AC49580062C96BA92205E082B72DFE9,,,D:\\!genesis\\library.nu\\2a\\_151888.2ac49580062c96ba92205e082b72dfe9.pdf,0,2000-01-01 01:00:00,2016-04-03 02:51:08,557000/2ac49580062c96ba92205e082b72dfe9-d.jpg,,
19576856,Webster's English to Portuguese Crossword Puzzles: Level 19,,,,Philip M. Parker,2006,Bilingual,,,122,0,English,314,,до 2011-01,"0497255162,9780497255169,9781423772651",,,,,,,,,OL10370302M,,0,,,,,1,,1,976626,pdf,2A6B544F0D1E016AF8184B02B835492D,,,D:\\!genesis\\library.nu\\2a\\_151831.2a6b544f0d1e016af8184b02b835492d.pdf,0,2000-01-01 01:00:00,2016-04-03 02:51:08,557000/2a6b544f0d1e016af8184b02b835492d-d.jpg,,
19576857,Teddybears ABC,,,,Susanna Gretz,1999,,,,31,0,English,,,до 2011-01,"071365225X,9780713652253,9781590197813",,,,,,,,,OL9787931M,,0,,,,,1,,1,1405484,pdf,2A277663A932E206AB509803BC55D59E,,,D:\\!genesis\\library.nu\\2a\\_151792.2a277663a932e206ab509803bc55d59e.pdf,0,2000-01-01 01:00:00,2016-04-03 02:51:08,557000/2a277663a932e206ab509803bc55d59e-d.jpg,,
19576858,Uncle Vanya (Webster's German Thesaurus Edition),,,,Anton Chekhov,2006,,,,100,0,English,322,,до 2011-01,"0497257262,9780497257262,9781423775881",,,,,,,,,OL10370412M,,0,,,,,1,,1,891960,pdf,2A22E4964D7D2C1C83E494203BD8FF3C,,,D:\\!genesis\\library.nu\\2a\\_151534.2a22e4964d7d2c1c83e494203bd8ff3c.pdf,0,2000-01-01 01:00:00,2016-04-03 02:51:08,557000/2a22e4964d7d2c1c83e494203bd8ff3c-d.jpg,,
19576859,"Holocarboxylase Synthetase Deficiency - A Bibliography and Dictionary for Physicians, Patients, and Genome Researchers",,,,Philip M. Parker,2007,,,,102,0,English,132,,до 2011-01,"0497112337,9780497112332,9781429497534",,,,,,,,,,,0,,,,,1,,1,1166434,pdf,2AAD4DBF70EEC1FA57B24AC06F89C033,,,D:\\!genesis\\library.nu\\2a\\_151385.2aad4dbf70eec1fa57b24ac06f89c033.pdf,0,2000-01-01 01:00:00,2016-04-03 02:51:08,557000/2aad4dbf70eec1fa57b24ac06f89c033-d.jpg,,
19576860,Commercial Insurance: Strategies for Renewal,,,,Financial Executives Research Foundation,2002,,,,8,0,English,,,до 2011-01,"1885065450,9781885065452,9781417500369",,,,,,,,,OL12172335M,,0,,,,0,0,,1,190993,pdf,2AA030F3D23E42E1DBC964FCC1AE8F08,,,D:\\!genesis\\library.nu\\2a\\_151234.2aa030f3d23e42e1dbc964fcc1ae8f08.pdf,0,2000-01-01 01:00:00,2016-04-03 02:51:08,557000/2aa030f3d23e42e1dbc964fcc1ae8f08-g.jpg,,
19576861,Loisir et société : Traité de sociologie empirique (Collection Temps libre et culture) (French Edition),,,,Gilles Pronovost,1997,2e ed,,,401,0,French,194,,до 2011-01,"9782760509603,2760509605,9781441600929",,,,,,,,,OL417038M,,0,,,,,1,,1,3063781,pdf,2A2494E7EBB891736D5CF76AA5FB9DEF,,,D:\\!genesis\\library.nu\\2a\\_150844.2a2494e7ebb891736d5cf76aa5fb9def.pdf,0,2000-01-01 01:00:00,2016-04-03 02:51:08,557000/2a2494e7ebb891736d5cf76aa5fb9def-g.jpg,,
19576862,Worst to First: Or a 'Shock'ing Tale of Women's Basketball in Motown,,,,Vince Prygoski,2006,,,,80,0,English,,,до 2011-01,"1598002767,9781598002768,9781605572376",,,,,,,,,OL24294561M,,0,,,,,1,,1,472521,pdf,2A2739F3011ABAD39FED92CBF04A17CD,,,D:\\!genesis\\library.nu\\2a\\_150604.2a2739f3011abad39fed92cbf04a17cd.pdf,0,2000-01-01 01:00:00,2016-04-03 02:51:08,557000/2a2739f3011abad39fed92cbf04a17cd-d.jpg,,
19576863,Now and On Earth,,,,Jim Thompson,1994,,,,320,0,English,38,,до 2011-01,"9780679740131,0679740139,1417718722,9781417718726,9780759231214",,B000FC17VE,,,813/.54,PS3539.H6733 N62 1994,,,OL1417861M,,0,,,,,1,,1,533557,pdf,2A01C207FAE5DBC5791320227579BDDE,,,D:\\!genesis\\library.nu\\2a\\_150589.2a01c207fae5dbc5791320227579bdde.pdf,0,2000-01-01 01:00:00,2016-04-03 02:51:08,557000/2a01c207fae5dbc5791320227579bdde-d.jpg,,
19576864,The Teen-Centered Book Club: Readers into Leaders (Libraries Unlimited Professional Guides for Young Adult Librarians Series),,,,"Bonnie Kunzel, Constance Hardesty",2006,,,,240,0,English,,,до 2011-01,"1591581931,9781591581932,9780897899895",,,,,027.62/6,Z718.5 K86 2006,,,OL3419650M,,0,,,,,1,,1,840341,pdf,2AE0A4D431E7F02106FD960FD81ED8FC,,,D:\\!genesis\\library.nu\\2a\\_150438.2ae0a4d431e7f02106fd960fd81ed8fc.pdf,0,2000-01-01 01:00:00,2016-04-03 02:51:08,557000/2ae0a4d431e7f02106fd960fd81ed8fc-d.jpg,,
19576865,Secrets of the Sea: A Novel (P.S.),,,,Nicholas Shakespeare,2008,1,,,402,0,English,,,до 2011-01,"9780061474705,0061474703,1846550696,9781846550690,1846550688,9781846550683,9780061693403",,B001AZRJF8,,,823/.914,PR6069.H286 S43 2007,,,OL18818731M,,0,,,,,1,,1,1598057,pdf,2ADEB966EC00497124165B357C889F71,,,D:\\!genesis\\library.nu\\2a\\_150367.2adeb966ec00497124165b357c889f71.pdf,0,2000-01-01 01:00:00,2016-04-03 02:51:08,557000/2adeb966ec00497124165b357c889f71-d.jpg,,
19576866,The Hollow Hope: Can Courts Bring About Social Change? (American Politics and Political Economy Series),,,,Gerald N. Rosenberg,1993,,,,432,0,English,192,,до 2011-01,"0226727033,9780226727035,9780226726687",,,,,,,,,OL24249102M,,0,,,,,1,,1,30693771,pdf,2A1815A75D220DB08F9EC5A312A49B84,,,D:\\!genesis\\library.nu\\2a\\_149722.2a1815a75d220db08f9ec5a312a49b84.pdf,0,2000-01-01 01:00:00,2016-04-03 02:51:08,557000/2a1815a75d220db08f9ec5a312a49b84-d.jpg,,
19576867,Politics of Contemporary European Cinema (Cinema & Media),,,,Mike Wayne,2002,,,,146,0,English,60,,до 2011-01,"1841500593,9781841500591,9781841508221",,,,,791.43/094,PN1993.5.E8 W39 2002,,,OL3703687M,,0,,,,,1,,1,559557,pdf,2A776F9D5D81C0F84A35D2635C6CB3CD,,,D:\\!genesis\\library.nu\\2a\\_149622.2a776f9d5d81c0f84a35d2635c6cb3cd.pdf,0,2000-01-01 01:00:00,2016-04-03 02:51:08,557000/2a776f9d5d81c0f84a35d2635c6cb3cd-d.jpg,,
19576868,"The Occupational Attainment of Caribbean Immigrants in the United States, Canada, and England",,The New Americans,,Melonie P. Heron,2001,,LFB Scholarly Publishing,,162,0,English,65,,до 2011-01,"1931202206,9781931202206,9781931202978",,,,,305.9,LC3719 .H47 2001,,,,,0,,,,,1,,1,739264,pdf,2A89CFB1DFD8D464FFBF9EED3301CE56,,,D:/!genesis/library.nu/2a/_149536.2a89cfb1dfd8d464ffbf9eed3301ce56.pdf,0,2000-01-01 01:00:00,2016-04-03 02:51:08,557000/2a89cfb1dfd8d464ffbf9eed3301ce56-d.jpg,,
19576869,Plant Proteomics: Methods and Protocols (Methods in Molecular Biology Vol 355),,,,"Herve, Ed. Thiellement",2006,1,,,416,0,English,27,,до 2011-01,"9781588296351,9781597452274,1588296350",,,,,,,,,OL17203971M,,0,,,,,1,,1,4440465,pdf,2A22A00875203A214A0DC34DD5D6849C,,,D:\\!genesis\\library.nu\\2a\\_149516.2a22a00875203a214a0dc34dd5d6849c.pdf,0,2000-01-01 01:00:00,2016-04-03 02:51:08,557000/2a22a00875203a214a0dc34dd5d6849c-d.jpg,,
19576870,Perfect Alibis,,,,Jane Wenham-Jones,2007,,,,312,0,English,,,до 2011-01,"1905170858,9781905170852,9781429494205",,,,,,,,,OL9754328M,,0,,,,,1,,1,1086750,pdf,2A7E184516381A50B97E798F4BC96172,,,D:\\!genesis\\library.nu\\2a\\_149009.2a7e184516381a50b97e798f4bc96172.pdf,0,2000-01-01 01:00:00,2016-04-03 02:51:08,557000/2a7e184516381a50b97e798f4bc96172-d.jpg,,
19576871,Effective Teacher Hiring: A Guide to Getting the Best,,,,Kenneth D. Peterson,2002,,,,115,0,English,,,до 2011-01,"0871206757,9780871206756,9780871207906",,,,,,,,,OL8346948M,,0,,,,,1,,1,1109634,pdf,2A6B41F6ECED6B7A3386CD4151D283E4,,,D:\\!genesis\\library.nu\\2a\\_148911.2a6b41f6eced6b7a3386cd4151d283e4.pdf,0,2000-01-01 01:00:00,2016-04-03 02:51:08,557000/2a6b41f6eced6b7a3386cd4151d283e4-d.jpg,,
19576872,How to Make Patent Drawings: A Patent It Yourself Companion,,,,"Jack Lo, David Pressman",2007,5,,,256,0,English,,,до 2011-01,"1413306535,9781413306538,9781413307993",,,,,,,,,OL24281959M,,0,,,,,1,,1,3764321,pdf,2A58F13D143325828D1D9C621A96BFCC,,,D:\\!genesis\\library.nu\\2a\\_148434.2a58f13d143325828d1d9c621a96bfcc.pdf,0,2000-01-01 01:00:00,2016-04-03 02:51:08,557000/2a58f13d143325828d1d9c621a96bfcc-d.jpg,,
19576873,Calculus AB and BC  (Cliffs AP),,,,Kerry J. King Dale W. Johnson,2001,3,,,480,0,English,117,,до 2011-01,"0764586831,9780764586835,9780764517013",,,,,,,,,OL21095167M,,0,,,,,1,,1,2387288,pdf,2A1C5FC0655B88F1B7F2E056B76A6755,,,D:\\!genesis\\library.nu\\2a\\_147628.2a1c5fc0655b88f1b7f2e056b76a6755.pdf,0,2000-01-01 01:00:00,2016-04-03 02:51:08,557000/2a1c5fc0655b88f1b7f2e056b76a6755-d.jpg,,
19576874,"White Man's Club: Schools, Race, and the Struggle of Indian Acculturation (Indigenous Education)",,,,Jacqueline Fear-Segal,2007,,,,422,0,English,183,,до 2011-01,"0803220243,9780803220249,9780803215825",,,,,323.1197,E97 .F43 2007,,,OL11211963M,,0,,,,,1,,1,2286848,pdf,2A9D4059799A244A0C29F47E8FF8759F,,,D:\\!genesis\\library.nu\\2a\\_147321.2a9d4059799a244a0c29f47e8ff8759f.pdf,0,2000-01-01 01:00:00,2016-04-03 02:51:08,557000/2a9d4059799a244a0c29f47e8ff8759f-d.jpg,,
19576875,Self-Made Men: Identity and Embodiment among Transsexual Men,,,,Henry Rubin,2003,1,,,224,0,English,,,до 2011-01,"0826514340,9780826514349,9781423728948",,,,,,,,,OL8169844M,,0,,,,,1,,1,1539603,pdf,2AEB2FC69EE95A9EA87CAEF99C57E4FD,,,D:\\!genesis\\library.nu\\2a\\_147283.2aeb2fc69ee95a9ea87caef99c57e4fd.pdf,0,2000-01-01 01:00:00,2016-04-03 02:51:08,557000/2aeb2fc69ee95a9ea87caef99c57e4fd-d.jpg,,
19576876,An Introduction to Atmospheric Gravity Waves,,International Geophysics 85,,Carmen J. Nappo (Eds.),2002,Book and CD-Rom,"Elsevier, Academic Press",,1-276,0,English,132,,до 2011-01,"0125140827,9780125140829,9780080491660",0074-6142,,,,,,,,OL7328333M,,0,,,,1,0,,1,3759365,pdf,2A1BF3C76484C570D18EFD090BFEB888,,,D:\\!genesis\\library.nu\\2a\\_147079.2a1bf3c76484c570d18efd090bfeb888.pdf,0,2000-01-01 01:00:00,2016-04-03 02:51:08,557000/2a1bf3c76484c570d18efd090bfeb888-d.jpg,,
19576877,Microsoft Office XP Fast & Easy,,,,Diane Koers,2001,1,,,350,0,English,94,,до 2011-01,"0761533885,9780761533887,9780585439587",,,,,005.369,HF5548.4.M525 K7294 2001,,,OL23010204M,,0,,,,,1,,1,20624367,pdf,2A0A5AE42F51FC417CD29EF271F2230D,,,D:\\!genesis\\library.nu\\2a\\_147046.2a0a5ae42f51fc417cd29ef271f2230d.pdf,0,2000-01-01 01:00:00,2016-04-03 02:51:08,557000/2a0a5ae42f51fc417cd29ef271f2230d-d.jpg,,
19576878,The Analysis of Controlled Substances  (Analytical Techniques in the Sciences (AnTs) *),,,,Michael D.  Cole,2003,1,,,214,0,English,117,,до 2011-01,"0471492523,9780471492528,9780470864555",,,,,615.78,RS190.D77 C647 2003,,,OL18186724M,,0,,,,,1,,1,1888384,pdf,2A67E5B2FD08059D6B878E0B49C53D06,,,D:\\!genesis\\library.nu\\2a\\_146993.2a67e5b2fd08059d6b878e0b49c53d06.pdf,0,2000-01-01 01:00:00,2016-04-03 02:51:08,557000/2a67e5b2fd08059d6b878e0b49c53d06-d.jpg,,
19576879,The Evolving Female: A Life-History Perspective,,,,"ME Morbeck, A Galloway, AL Zihlman",1996,,,,344,0,English,64,,до 2011-01,"0691027471,9781400812769,9780691027487,9780691027470,069102748X",,,,,573.2,GN281 .E93 1997,,,OL982743M,,0,,,,,1,,1,3846257,pdf,2A4272FE8E192B2611EEE86BCDF7773C,,,D:\\!genesis\\library.nu\\2a\\_146805.2a4272fe8e192b2611eee86bcdf7773c.pdf,0,2000-01-01 01:00:00,2016-04-03 02:51:08,557000/2a4272fe8e192b2611eee86bcdf7773c-d.jpg,,
19576880,The Future of e-Markets: Multidimensional Market Mechanisms,,,,Martin Bichler,2001,1,,,262,0,English,,,до 2011-01,"0521801281,9780521801287,9780511012402",,,,,,,,,OL7754676M,,0,,,,,1,,1,1425175,pdf,2A33278F1B2C1CC411910DD08791F2CE,,,D:\\!genesis\\library.nu\\2a\\_146689.2a33278f1b2c1cc411910dd08791f2ce.pdf,0,2000-01-01 01:00:00,2016-04-03 02:51:08,557000/2a33278f1b2c1cc411910dd08791f2ce-d.jpg,,
19576881,The Official Patient's Sourcebook on Hemolytic Uremic Syndrome: A Revised and Updated Directory for the Internet Age,,,,Icon Health Publications,2002,,,,200,0,English,100,,до 2011-01,"0597833893,9780597833892,9780585428949",,,,,,,,,OL7581931M,,0,,,,,1,,1,700142,pdf,2A197586C778BFA23CE4D7520C48EE33,,,D:\\!genesis\\library.nu\\2a\\_146215.2a197586c778bfa23ce4d7520c48ee33.pdf,0,2000-01-01 01:00:00,2016-04-03 02:51:08,557000/2a197586c778bfa23ce4d7520c48ee33-d.jpg,,
19576882,The Official Patient's Sourcebook on Primary Lateral Sclerosis,,,,James N. Parker,2002,,,,156,0,English,,,до 2011-01,"0597830983,9780597830983,9780585435190",,,,,,,,,OL7581641M,,0,,,,,1,,1,544211,pdf,2A82D17B4142531C58BBBE87BBD38C98,,,D:\\!genesis\\library.nu\\2a\\_146135.2a82d17b4142531c58bbbe87bbd38c98.pdf,0,2000-01-01 01:00:00,2016-04-03 02:51:08,557000/2a82d17b4142531c58bbbe87bbd38c98-d.jpg,,
19576883,Blowback: A Thriller,,,,Brad Thor,2006,,,,608,0,English,,,до 2011-01,"1416510230,1416505415,9781416505419,9781416522379,9781416553472",,,,,813/.6,PS3620.H75 B66 2006,,,OL24960710M,,0,,,,,1,,1,1996505,pdf,2A2D7205602280209B79CD0E86FA60C9,,,D:\\!genesis\\library.nu\\2a\\_146001.2a2d7205602280209b79cd0e86fa60c9.pdf,0,2000-01-01 01:00:00,2016-04-03 02:51:08,557000/2a2d7205602280209b79cd0e86fa60c9-d.jpg,,
19576884,The 2002 Official Patient's Sourcebook on Retinal Detachment: A Revised and Updated Directory for the Internet Age,,,,Icon Health Publications,2002,,,,184,0,English,100,,до 2011-01,"0597832501,9780597832505,9780585429885",,,,,,,,,OL7581792M,,0,,,,,1,,1,655231,pdf,2A71B8A344B2BA7F9BE571CA093779B5,,,D:\\!genesis\\library.nu\\2a\\_145739.2a71b8a344b2ba7f9be571ca093779b5.pdf,0,2000-01-01 01:00:00,2016-04-03 02:51:08,557000/2a71b8a344b2ba7f9be571ca093779b5-d.jpg,,
19576885,America’s First Air Battles : Lessons Learned or  Lessons Lost?,,,,"ALDON E. PURDHAM JR. Lieutenant Colonel, USAF",,,,,94,0,English,183,,до 2011-01,1585661236,,,,,,,,,,,0,,,,,1,,1,884922,pdf,2AA50E3383BF8EAD57E64647C0702246,,,D:\\!genesis\\library.nu\\2a\\_145577.2aa50e3383bf8ead57e64647c0702246.pdf,0,2000-01-01 01:00:00,2016-04-03 02:51:08,557000/2aa50e3383bf8ead57e64647c0702246-g.jpg,,
19576886,"Children, Family, and the State: Decision-Making and Child Participation",,,,"Nigel Thomas, Jo Campling",2000,,,,242,0,English,41,,до 2011-01,"0333760379,9780333760376,9781403919915",,,,,,,,,OL9610981M,,0,,,,,1,,1,598157,pdf,2A5E74ADBEC1CEDAA7308C76AA2BC4AF,,,D:\\!genesis\\library.nu\\2a\\_145366.2a5e74adbec1cedaa7308c76aa2bc4af.pdf,0,2000-01-01 01:00:00,2016-04-03 02:51:08,557000/2a5e74adbec1cedaa7308c76aa2bc4af-d.jpg,,
19576887,"Topics in Fluorescence Spectroscopy, Volume 4: Probe Design and Chemical Sensing",,Topics in Fluorescence Spectroscopy 4,,Joseph R. Lakowicz (Editor),1994,1,,,524,0,English,296,,до 2011-01,"0306447843,9780306447846,9780306470608",,,,,543/.0858,QD96.F56 T66 1991,,,OL10324695M,,0,,,,,1,,1,13335499,pdf,2A2F7B640D0EC7605A15AC7923F0BF5E,,,D:\\!genesis\\library.nu\\2a\\_145322.2a2f7b640d0ec7605a15ac7923f0bf5e.pdf,0,2000-01-01 01:00:00,2016-04-03 02:51:08,557000/2a2f7b640d0ec7605a15ac7923f0bf5e-d.jpg,,
19576888,Taking Psychology and Law into the Twenty-First Century (Perspectives in Law & Psychology),,,,James R.P. Ogloff,2002,1,,,438,0,English,198,,до 2011-01,"0306467607,9780306467608,9780306479441",,,,,,,,,OL17053332M,,0,,,,,1,,1,3291240,pdf,2AFC4DBBF396B87F7C8B7C42D4668658,,,D:\\!genesis\\library.nu\\2a\\_144876.2afc4dbbf396b87f7c8b7c42d4668658.pdf,0,2000-01-01 01:00:00,2016-04-03 02:51:08,557000/2afc4dbbf396b87f7c8b7c42d4668658-d.jpg,,
19576889,"Financial Reporting and Global Capital Markets: A History of the International Accounting Standards Committee, 1973-2000",,,,"Kees Camfferman, Stephen A. Zeff",2007,,,,752,0,English,64,,до 2011-01,"0199296294,9780199296293,9781429493093",,,,,,,,,OL7405528M,,0,,,,,1,,1,4358024,pdf,2AAF5593429008293394B8367154CF72,,,D:\\!genesis\\library.nu\\2a\\_144231.2aaf5593429008293394b8367154cf72.pdf,0,2000-01-01 01:00:00,2016-04-03 02:51:08,557000/2aaf5593429008293394b8367154cf72-d.jpg,,
19576890,"Framing Pieces: Designs of the Gloss in Joyce, Woolf, and Pound",,,,John Whittier-Ferguson,1996,,,,216,0,English,,,до 2011-01,"0195097483,9780195097481,9781423758662",,,,,823/.91209,PR888.M63 W48 1996,,,OL784928M,,0,,,,,1,,1,15007562,pdf,2A2C97444770E1AD37C25A4A4DAA21E9,,,D:\\!genesis\\library.nu\\2a\\_144193.2a2c97444770e1ad37c25a4a4daa21e9.pdf,0,2000-01-01 01:00:00,2016-04-03 02:51:08,557000/2a2c97444770e1ad37c25a4a4daa21e9-d.jpg,,
19576891,"Advances in Catalysis and Related Subjects, Volume 9",,,,W G Frankenberg,1957,,,,847,0,English,296,,до 2011-01,"9780080565132,9780120078097,0120078090",,,,,,,,,,,0,,,,,1,,1,41162142,pdf,2A81CAA22388ADA04DFA70C0B8CA6F03,,,D:\\!genesis\\library.nu\\2a\\_144057.2a81caa22388ada04dfa70c0b8ca6f03.pdf,0,2000-01-01 01:00:00,2016-04-03 02:51:08,557000/2a81caa22388ada04dfa70c0b8ca6f03-d.jpg,,
19576892,The Complete Idiot's Guide to Playing Guitar (2nd Edition),,,,Frederick  Noad,2001,2nd,,,288,0,English,137,,до 2011-01,"0028642449,9780028642444,9781592570263",,,,,787.87/193,MT588 .N585 2002,,,OL23018095M,,0,,,,,1,,1,6037878,pdf,2AA48E0E3D82D5B802B75CD6036D72E5,,,D:\\!genesis\\library.nu\\2a\\_143821.2aa48e0e3d82d5b802b75cd6036d72e5.pdf,0,2000-01-01 01:00:00,2016-04-03 02:51:08,557000/2aa48e0e3d82d5b802b75cd6036d72e5-d.jpg,,
19576893,"Corrupting Youth: Political Education, Democratic Culture, and Political Theory",,,,J. Peter Euben,1997,First Edition,,,272,0,English,183,,до 2011-01,"0691048282,9780691048284,0691012024,9780691012025,9781400811519",,,,,321.8/01,JC73 .E93 1997,,,OL1013597M,,0,,,,,1,,1,896228,pdf,2A9A1686F98442D6D40BAF14FE167881,,,D:\\!genesis\\library.nu\\2a\\_143010.2a9a1686f98442d6d40baf14fe167881.pdf,0,2000-01-01 01:00:00,2016-04-03 02:51:08,557000/2a9a1686f98442d6d40baf14fe167881-d.jpg,,
19576894,High Frequency Continuous Time Filters in Digital CMOS,,,,"Yannis Tsividis, Shanthi Pavan",2000,1,,,240,0,English,258,,до 2011-01,"0792377737,9780792377733,9780306470141",,,,,621.39/732,,,,OL19019633M,,0,,,,,1,,1,2116210,pdf,2AA28C2CABA76ECC5C988FA9E4553DF2,,,D:\\!genesis\\library.nu\\2a\\_142800.2aa28c2caba76ecc5c988fa9e4553df2.pdf,0,2000-01-01 01:00:00,2016-04-03 02:51:08,557000/2aa28c2caba76ecc5c988fa9e4553df2-d.jpg,,
19576895,Positive Operators,,,,"Charalambos  D. Aliprantis, Owen Burkinshaw",2006,,Springer,,389,0,English,142,,до 2011-01,"1402050070,9781402050077",,,,,,,,Auq9w5shdAIC,OL8372066M,,0,,,,,0,,1,2658232,pdf,2A66DD44C88C575D1F26FF7309848811,,,D:\\!genesis\\library.nu\\2a\\_142410.2a66dd44c88c575d1f26ff7309848811.pdf,0,2000-01-01 01:00:00,2016-04-03 02:51:08,557000/2a66dd44c88c575d1f26ff7309848811-d.jpg,,
19576896,Asterix and the Actress,,,,Albert Uderzo Rene Goscinny,2002,,,,48,0,English,,,до 2011-01,"0752846582,9780752846583",,,,,,,,,OL7984307M,,0,,,,,1,,0,13372277,pdf,2AC87450CCE15FA80FE548AFAA353E68,,,D:\\!genesis\\library.nu\\2a\\_14205.2ac87450cce15fa80fe548afaa353e68.pdf,0,2000-01-01 01:00:00,2016-04-03 02:51:08,557000/2ac87450cce15fa80fe548afaa353e68-d.jpg,,
19576897,Backfire: Carly Fiorina's High-Stakes Battle for the Soul of Hewlett-Packard,,,,Peter Burrows,2003,1,,,304,0,English,,,до 2011-01,"0471267651,9780471267652,9780471465041",,,,,338.7/61004165,HD9696.A3 U53172 2003,,,OL24251087M,,0,,,,,1,,1,983488,pdf,2AEE58072FF9E7BB94F0A27566D39128,,,D:\\!genesis\\library.nu\\2a\\_141992.2aee58072ff9e7bb94f0a27566d39128.pdf,0,2000-01-01 01:00:00,2016-04-03 02:51:08,557000/2aee58072ff9e7bb94f0a27566d39128-d.jpg,,
19576898,"The Ultimate Safe Money Guide: How Everyone 50 and Over Can Protect, Save and Grow Their Money",,,,Martin D. Weiss,2002,1,,,337,0,English,,,до 2011-01,"9780471152026,9780471271222,0471152021",,,,,332.024/0565,HG179 .W4645 2002,,,OL24266399M,,0,,,,,1,,1,736859,pdf,2AFAECEA4BB1848DC0754D5D74F1CF45,,,D:\\!genesis\\library.nu\\2a\\_141854.2afaecea4bb1848dc0754d5d74f1cf45.pdf,0,2000-01-01 01:00:00,2016-04-03 02:51:08,557000/2afaecea4bb1848dc0754d5d74f1cf45-d.jpg,,
19576899,Rendering for Beginners: Image Synthesis using RenderMan,,,,Saty Raghavachary,2004,,,,384,0,English,187,,до 2011-01,"0240519353,9780240519357,9781417583706",,,,,006.6/93,TR897.7 .R34 2005,,,OL3434500M,,0,,,,,1,,1,29178988,pdf,2A1652BD34B611776DE0EB880FBC8B8A,,,D:\\!genesis\\library.nu\\2a\\_141653.2a1652bd34b611776de0eb880fbc8b8a.pdf,0,2000-01-01 01:00:00,2016-04-03 02:51:08,557000/2a1652bd34b611776de0eb880fbc8b8a-d.jpg,,
19576900,Children at Play: An American History,,,,Howard P. Chudacoff,2007,,,,288,0,English,64,,до 2011-01,"0814716644,9781435607279,9780814716656,9780814716649,0814716652",,,,,,,,,OL17235789M,,0,,,,,1,,1,1327134,pdf,2A28BF25866B7A2810D4AAA70B22A511,,,D:\\!genesis\\library.nu\\2a\\_141463.2a28bf25866b7a2810d4aaa70b22a511.pdf,0,2000-01-01 01:00:00,2016-04-03 02:51:08,557000/2a28bf25866b7a2810d4aaa70b22a511-d.jpg,,
19576901,Cinemachismo: Masculinities and Sexuality in Mexican Film,,,,Sergio de la Mora,2006,,,,256,0,English,60,,до 2011-01,"9780292712966,0292712960,9780292794702",,,,,791.43/6521,PN1993.5.M4 M67 2006,,,OL3420332M,,0,,,,,1,,1,4283401,pdf,2AEFE52899C5C8CCCCDE360C5010C209,,,D:\\!genesis\\library.nu\\2a\\_141335.2aefe52899c5c8ccccde360c5010c209.pdf,0,2000-01-01 01:00:00,2016-04-03 02:51:08,557000/2aefe52899c5c8ccccde360c5010c209-g.jpg,,
19576902,Jane Eyre,,,,Charlotte Bronte,2003,,E-BooksDirectory.com,,764,0,English,,,до 2011-01,"0486424499,9780486424491",,,,,823/.8,PR4167 .J3 2002,,,OL3563012M,,0,,,,0,0,,1,2311221,pdf,2A105A2CD67A689E3F2380A8BA2A88D6,,,D:\\!genesis\\library.nu\\2a\\_14115.2a105a2cd67a689e3f2380a8ba2a88d6.pdf,0,2000-01-01 01:00:00,2016-04-03 02:51:08,557000/2a105a2cd67a689e3f2380a8ba2a88d6-d.jpg,,
19576903,"Supply Chain Management und Logistik: Optimierung, Simulation, Decision Support",,,,"Hans-Otto Günther, Dirk C. Mattfeld, Leena Suhl",2005,1,,,587,0,German,136,,до 2011-01,"3790815764,9783790815764,9783790816259",,,,,,,,,OL9400245M,,0,,,,,1,,1,11404382,pdf,2A6399E690E6DD5BCA1E9F81280068DF,,,D:\\!genesis\\library.nu\\2a\\_140515.2a6399e690e6dd5bca1e9f81280068df.pdf,0,2000-01-01 01:00:00,2016-04-03 02:51:08,557000/2a6399e690e6dd5bca1e9f81280068df-d.jpg,,
19576904,"The Sustainability Handbook: The Complete Management Guide to Achieving Social, Economic and Environmental Responsibility",,,,William R. Blackburn,2007,"First Edition, Third Impression",,,828,0,English,305,,до 2011-01,"1844074951,9781844074952,9781435602663",,,,,333.7,HC110.E5 B563 2007b,,,OL16659699M,,0,,,,,1,,1,8343637,pdf,2A4F1413023C881E62DF7862943795E4,,,D:\\!genesis\\library.nu\\2a\\_140440.2a4f1413023c881e62df7862943795e4.pdf,0,2000-01-01 01:00:00,2016-04-03 02:51:08,557000/2a4f1413023c881e62df7862943795e4-d.jpg,,
19576905,Sacrifice and National Belonging in Twentieth-Century Germany (Walter Prescott Webb Memorial Lectures),,,,"Marcus Funck, Matthew Paul Berg",2002,,,,240,0,English,100,,до 2011-01,"1585442070,9781585442072,9781585449774",,,,,943/.007/2,DD256.48 .E34 2002,,,OL3552443M,,0,,,,,1,,1,2750937,pdf,2A52AD1D13F9AD2C5C6034C776900BC9,,,D:\\!genesis\\library.nu\\2a\\_140180.2a52ad1d13f9ad2c5c6034c776900bc9.pdf,0,2000-01-01 01:00:00,2016-04-03 02:51:08,557000/2a52ad1d13f9ad2c5c6034c776900bc9-d.jpg,,
19576906,UMTS and Mobile Computing,,,,Alexander Joseph Huber Josef Franz Huber,2002,1st,,,460,0,English,137,,до 2011-01,"1580532640,9781580532648,9781580535632",,,,,,,,,OL8780165M,,0,,,,,1,,1,2366216,pdf,2A914168141EE08CA17B009C6C20EBFD,,,D:\\!genesis\\library.nu\\2a\\_140134.2a914168141ee08ca17b009c6c20ebfd.pdf,0,2000-01-01 01:00:00,2016-04-03 02:51:08,557000/2a914168141ee08ca17b009c6c20ebfd-d.jpg,,
19576907,You Shall Know Our Velocity (Vintage),,,,Dave Eggers,2003,,,,368,0,English,,,до 2011-01,"1400033543,9781400033546",,,,,813/.6,PS3605.G48 Y68 2003,,,OL23271308M,,0,,,,,1,,1,827323,pdf,2A600682CDF5C56A810DC0B4A0B3EC58,,,D:\\!genesis\\library.nu\\2a\\_13998.2a600682cdf5c56a810dc0b4a0b3ec58.pdf,0,2000-01-01 01:00:00,2016-04-03 02:51:08,557000/2a600682cdf5c56a810dc0b4a0b3ec58-d.jpg,,
19576908,The Globalisation of Charismatic Christianity (Cambridge Studies in Ideology and Religion),,,,Simon Coleman,2000,,,,276,0,English,183,,до 2011-01,"0521660726,9780521660723,9780511010484,0521036453,9780521036450",,,,,,,,,OL16988726M,,0,,,,,1,,1,1009395,pdf,2A4F6DC94E03D88B211A225924C6A907,,,D:\\!genesis\\library.nu\\2a\\_139604.2a4f6dc94e03d88b211a225924c6a907.pdf,0,2000-01-01 01:00:00,2016-04-03 02:51:08,557000/2a4f6dc94e03d88b211a225924c6a907-d.jpg,,
19576909,Effective E-Mail Marketing: The Complete Guide to Creating Successful Campaigns,,,,Herschell Gordon Lewis,2002,1st,,,304,0,English,4,,до 2011-01,"0814471471,9780814471470,9780814426487",,,,,,,,,OL8043233M,,0,,,,,1,,1,1084664,pdf,2A1042BF821B5E7C954C08C076E838C1,,,D:\\!genesis\\library.nu\\2a\\_139307.2a1042bf821b5e7c954c08c076e838c1.pdf,0,2000-01-01 01:00:00,2016-04-03 02:51:08,557000/2a1042bf821b5e7c954c08c076e838c1-d.jpg,,
19576910,Language Disorders in Children: An Introductory Clinical Perspective (Health & Life Science),,,,Barbara Ann Johnson,1995,1st,,,400,0,English,314,,до 2011-01,"0827355335,9780827355330,9780585439723",,,,,618.92/855,RJ496.L35 J635 1996,,,OL1110798M,,0,,,,,1,,1,40340604,pdf,2A78ACACBE2B1FFB5EB2793FF52B83AE,,,D:\\!genesis\\library.nu\\2a\\_139280.2a78acacbe2b1ffb5eb2793ff52b83ae.pdf,0,2000-01-01 01:00:00,2016-04-03 02:51:08,557000/2a78acacbe2b1ffb5eb2793ff52b83ae-d.jpg,,
19576911,"Development and Faith: Where Mind, Heart, and Soul Work Together",,,,"Katherine Marshall, Marisa Bronwyn Van Saanen,",2007,,,,320,0,English,,,до 2011-01,"0821371738,9780821371732,9780821371749",,,,,201/.76,HD82 .M369 2007,10.1596/978-0-8213-7173-2,,OL11417000M,,0,,,,,1,,1,1204709,pdf,2ADF2F97EB944788127921B7FC4C0133,,,D:\\!genesis\\library.nu\\2a\\_139219.2adf2f97eb944788127921b7fc4c0133.pdf,0,2000-01-01 01:00:00,2016-04-03 02:51:08,557000/2adf2f97eb944788127921b7fc4c0133-d.jpg,,
19576912,Sophie's Choice,,,,William Styron,2001,,,,542,0,English,,,до 2011-01,"0795303327,9780795303326",,,,,,,,,,,0,,,,,1,,1,1316694,pdf,2A5B7B553EA43E8E271CF04EB930179D,,,D:\\!genesis\\library.nu\\2a\\_139154.2a5b7b553ea43e8e271cf04eb930179d.pdf,0,2000-01-01 01:00:00,2016-04-03 02:51:08,557000/2a5b7b553ea43e8e271cf04eb930179d-d.jpg,,
19576913,Challenges of the Third Age: Meaning and Purpose in Later Life,,,,"Robert S. Weiss, Scott A. Bass",2001,,,,216,0,English,,,до 2011-01,"0195150252,9780195150254,9781423763147",,,,,,,,,OL7389950M,,0,,,,,1,,1,520842,pdf,2A4A5650C8E24420C53DF9C63C2DBB4B,,,D:\\!genesis\\library.nu\\2a\\_139053.2a4a5650c8e24420c53df9c63c2dbb4b.pdf,0,2000-01-01 01:00:00,2016-04-03 02:51:08,557000/2a4a5650c8e24420c53df9c63c2dbb4b-d.jpg,,
19576914,The Echo of Battle: The Army's Way of War,,,,Brian McAllister Linn,2007,1St Edition,,,321,0,English,,,до 2011-01,"0674026519,9780674026513,9780674033528",,,,,,,,,OL11125089M,,0,,,,1,0,,1,1125519,pdf,2A1C8BD6C7E0C5BEB4856D929ABEE1B9,,,D:\\!genesis\\library.nu\\2a\\_138620.2a1c8bd6c7e0c5beb4856d929abee1b9.pdf,0,2000-01-01 01:00:00,2016-04-03 02:51:08,557000/2a1c8bd6c7e0c5beb4856d929abee1b9-d.jpg,,
19576915,"Tiere, Moral und Gesellschaft: Elemente und Ebenen humanimalischer Sozialität",,,,Rainer E. Wiedenmann,,,,,454,0,German,23,,до 2011-01,"3810025275,9783810025272",,,,,,,,,OL23940230M,,0,,,,,0,,1,2054681,pdf,2A4D13938B24C1493F4DD5437D1D219E,,,D:\\!genesis\\library.nu\\2a\\_138528.2a4d13938b24c1493f4dd5437d1d219e.pdf,0,2000-01-01 01:00:00,2016-04-03 02:51:08,557000/2a4d13938b24c1493f4dd5437d1d219e-g.jpg,,
19576916,"Understanding Motor Skills in Children with Dyspraxia, ADHD, Autism, and Other Learning Disabilities: A Guide to Improving Coordination (JKP Essentials Series) (Jkp Essentials)",,,,Lisa A. Kurtz,2007,1,,,160,0,English,183,,до 2011-01,"1843108658,9781843108658,9781846426728",,,,,618.92/83,RJ496.M68 K87 2008,,,OL23673603M,,0,,,,,1,,1,682286,pdf,2AC2290786A6727B25F445F99DDC2411,,,D:\\!genesis\\library.nu\\2a\\_138526.2ac2290786a6727b25f445f99ddc2411.pdf,0,2000-01-01 01:00:00,2016-04-03 02:51:08,557000/2ac2290786a6727b25f445f99ddc2411-d.jpg,,
19576917,V. I. Lenin : Collected Works : Volume 36 : 1900-1923,,,,V. I. Lenin,1966,,,,723,0,English,64,,до 2011-01,,,B002DG1TZE,,,,,,,,,0,,,,,1,,1,47718287,pdf,2A8755251E8E6EEDFC1454F60DF99D29,,,D:\\!genesis\\library.nu\\2a\\_138446.2a8755251e8e6eedfc1454f60df99d29.pdf,0,2000-01-01 01:00:00,2016-04-03 02:51:08,557000/2a8755251e8e6eedfc1454f60df99d29-g.jpg,,
19576918,"The Garden (Star Trek Voyager, No 11)",,,,Melissa Scott,1997,paperback / softback,,,278,0,English,,,до 2011-01,"0671567993,9780671567996",,,,,,,,,OL7659683M,,0,,,,,1,,,192897,lit,2ABCADC7FDD5381C2FBE9452CAA5FE20,,,D:\\!genesis\\library.nu\\2a\\_138003.2abcadc7fdd5381c2fbe9452caa5fe20.lit,0,2000-01-01 01:00:00,2016-04-03 02:51:08,557000/2abcadc7fdd5381c2fbe9452caa5fe20-d.jpg,,
19576919,Circadian Physiology,,,,"Ph.D., Roberto Refinetti",1999,Har/Dis,,,200,0,English,132,,до 2011-01,"0849322995,9780849322990",,,,,571.77,QP84.6.R534 1999,,,OL16979872M,,0,,,,,1,,1,2755048,pdf,2A67CF0F4997BF706BD72A631FC3F22B,,,D:\\!genesis\\library.nu\\2a\\_137733.2a67cf0f4997bf706bd72a631fc3f22b.pdf,0,2000-01-01 01:00:00,2016-04-03 02:51:08,557000/2a67cf0f4997bf706bd72a631fc3f22b-d.jpg,,
19576920,Hit and Run Trading II: Capturing Explosive Short-Term Moves in Stocks,,,,Jeff Cooper,1998,1,,,212,0,English,309,,до 2011-01,"0965046168,9780965046169",,,,,,,,,OL8528311M,,0,,,,,1,,1,3973176,djvu,2AC2E158BD5B8CE275B875E67094F673,,,D:\\!genesis\\library.nu\\2a\\_137732.2ac2e158bd5b8ce275b875e67094f673.djvu,0,2000-01-01 01:00:00,2016-04-03 02:51:08,557000/2ac2e158bd5b8ce275b875e67094f673-d.gif,,
19576921,Gestärkt aus der Krise: Unternehmensfinanzierung in und nach der Restrukturierung,,,,"Michael Blatz, Karl-J. Kraus, Sascha Haghani",2005,1,,,189,0,German,,,до 2011-01,"3540294163,9783540294177,9783540294160",,,,,,,,,OL9866703M,,0,,,,,1,,1,1439912,pdf,2A88B402B9574DBA936659E34172735D,,,D:\\!genesis\\library.nu\\2a\\_137031.2a88b402b9574dba936659e34172735d.pdf,0,2000-01-01 01:00:00,2016-04-03 02:51:08,557000/2a88b402b9574dba936659e34172735d-d.jpg,,
19576922,The New Economics of Human Behaviour,,,,"Mariano Tommasi, Kathryn Ierulli, Gary Becker",1995,,,,260,0,English,305,,до 2011-01,"9780511599040,0521479495,0521474205,0511599048,9780521474207,9780521479493",,,,,330/.01/9,HB74.P8 N484 1995,,,OL1095296M,,0,,,,,1,,1,5949644,pdf,2AE2F9F54F5AF38560DC54EA5ECA9562,,,D:\\!genesis\\library.nu\\2a\\_136978.2ae2f9f54f5af38560dc54ea5eca9562.pdf,0,2000-01-01 01:00:00,2016-04-03 02:51:08,557000/2ae2f9f54f5af38560dc54ea5eca9562-d.jpg,,
19576923,Study Design and Statistical Analysis: A Practical Guide for Clinicians,,,,Mitchell Katz,2006,1,,,200,0,English,183,,до 2011-01,"0521826756,9780511616761,0521534070,0511616767,9780521534079,9780521826754",,,,,,,,,OL7745055M,,0,,,,,1,,1,644631,pdf,2A9E54CFFFAFA367D516617845581B54,,,D:\\!genesis\\library.nu\\2a\\_136873.2a9e54cfffafa367d516617845581b54.pdf,0,2000-01-01 01:00:00,2016-04-03 02:51:08,557000/2a9e54cfffafa367d516617845581b54-d.jpg,,
19576924,Method and Politics in Plato's Statesman (Cambridge Classical Studies),,,,M. S. Lane,1998,,,,244,0,English,183,,до 2011-01,"9780511518492,0521582296,0521036879,0511518498,9780521036870,9780521582292",,,,,320/.01,JC71.P314 L36 1998,,,OL660682M,,0,,,,,1,,1,6498829,pdf,2AEF4B63934DA75DFFF1A9FAE9F99347,,,D:\\!genesis\\library.nu\\2a\\_136727.2aef4b63934da75dfff1a9fae9f99347.pdf,0,2000-01-01 01:00:00,2016-04-03 02:51:08,557000/2aef4b63934da75dfff1a9fae9f99347-d.jpg,,
19576925,"Making Democracy in Spain: Grass-Roots Struggle in the South, 1955-1975",,,,Joe Foweraker,1989,,,,304,0,English,64,,до 2011-01,"9780521354066,9780511528989,0521522811,0521354064,0511528981,9780521522816",,,,,946.082,DP270 .F65 1989,,,OL2060343M,,0,,,,,1,,1,6329897,pdf,2ACE3ADBFB87FA52626C7DB58A48C657,,,D:\\!genesis\\library.nu\\2a\\_136068.2ace3adbfb87fa52626c7db58a48c657.pdf,0,2000-01-01 01:00:00,2016-04-03 02:51:08,557000/2ace3adbfb87fa52626c7db58a48c657-d.jpg,,
19576926,Party Ideology and Popular Politics at the Accession of George III,,,,John Brewer,1976,1,,,391,0,English,192,,до 2011-01,"9780521210492,9780511561054,0521287014,0521210496,0511561059,9780521287012",,,,,320.9/41/073,DA510 .B67,,,OL21266542M,,0,,,,,1,,1,8617113,pdf,2AC490C646A38FBE91EA3AD0DE1F32AB,,,D:\\!genesis\\library.nu\\2a\\_136056.2ac490c646a38fbe91ea3ad0de1f32ab.pdf,0,2000-01-01 01:00:00,2016-04-03 02:51:08,557000/2ac490c646a38fbe91ea3ad0de1f32ab-g.jpg,,
19576927,Protocol Management in Computer Networking,,,,Philippe Byrnes,2000,1st,,,486,0,English,69,,до 2011-01,"1580530699,9781580530699,9781580533812",,,,,004.6/2,TK5105.55 .B97 2000,,,OL49369M,,0,,,,,1,,1,1802993,pdf,2AF04F89C95AF611556677F9EC999F24,,,D:\\!genesis\\library.nu\\2a\\_135774.2af04f89c95af611556677f9ec999f24.pdf,0,2000-01-01 01:00:00,2016-04-03 02:51:08,557000/2af04f89c95af611556677f9ec999f24-d.jpg,,
19576928,"Straight and Level: Practical Airline Economics, 3rd Edition",,,,Stephen Holloway,2008,3rd,,,614,0,English,305,,до 2011-01,"0754672581,9780754672586,9780754690900",,,,,387.7/1,HE9782 .H65 2008,,,OL16729335M,,0,,,,,1,,1,3462513,pdf,2ADD7497D4220FAFF8085D1058543F76,,,D:\\!genesis\\library.nu\\2a\\_135250.2add7497d4220faff8085d1058543f76.pdf,0,2000-01-01 01:00:00,2016-04-03 02:51:08,557000/2add7497d4220faff8085d1058543f76-d.jpg,,
19576929,"The Parliament of England, 1559-1581",,,,G. R. Elton,1986,,,,399,0,English,64,,до 2011-01,"9780521328357,9780511560521,0521389887,0521328357,0511560524,9780521389884",,,,,328.42/09,JN525,,,OL21376242M,,0,,,,,1,,1,8352969,pdf,2AE52AD9ACADEBD757263F3C3A716B4B,,,D:\\!genesis\\library.nu\\2a\\_134893.2ae52ad9acadebd757263f3c3a716b4b.pdf,0,2000-01-01 01:00:00,2016-04-03 02:51:08,557000/2ae52ad9acadebd757263f3c3a716b4b-g.jpg,,
19576930,Britain and Latin America: A Changing Relationship,,,,Victor Bulmer-Thomas,2008,1,,,256,0,English,,,до 2011-01,"0521054958,9780521054959,0521372054,9780521372053,9780511598692",,,,,303.48/24108,F1416.G7 B73 1989,,,OL2189126M,,0,,,,,1,,1,6096701,pdf,2A273AAE4D37F449926D23D94A103216,,,D:\\!genesis\\library.nu\\2a\\_134735.2a273aae4d37f449926d23d94a103216.pdf,0,2000-01-01 01:00:00,2016-04-03 02:51:08,557000/2a273aae4d37f449926d23d94a103216-d.jpg,,
19576931,Muslim Cities in the Later Middle Ages,,,,Ira M. Lapidus,1984,1,,,228,0,English,64,,до 2011-01,"0521277620,9780511583803,9780521263610,9780521277624",,,,,307.7/64/0917671,HT147.5 .L36 1984,,,OL3178306M,,0,,,,,1,,1,5179219,pdf,2A72392CAC7A0CA8B8EC759932D512C6,,,D:\\!genesis\\library.nu\\2a\\_134726.2a72392cac7a0ca8b8ec759932d512c6.pdf,0,2000-01-01 01:00:00,2016-04-03 02:51:08,557000/2a72392cac7a0ca8b8ec759932d512c6-d.jpg,,
19576932,"Secret Flotillas: Volume II, Clandestine Sea Operations in the Mediterranean, North Africa and the Adriatic 1940-1944",,,,Brooks Richards,2004,2,,,392,0,English,64,,до 2011-01,0714653144,,,,,,,,,,,0,,,,,1,,1,12315268,pdf,2A249D987EC4B937812F8986DEFA94B5,,,D:\\!genesis\\library.nu\\2a\\_133825.2a249d987ec4b937812f8986defa94b5.pdf,0,2000-01-01 01:00:00,2016-04-03 02:51:08,557000/2a249d987ec4b937812f8986defa94b5-d.jpg,,
19576933,The Lotus of the Wonderful Law: or The Lotus Gospel,,,,W. Soothill,1995,2nd,,,275,0,English,76,,до 2011-01,"0700701982,9780700701988,9780203986080",,,,,,,,,OL7763362M,,0,,,,,1,,1,2479399,pdf,2A1B4B22C88A50BF6BDCD27B522850EA,,,D:\\!genesis\\library.nu\\2a\\_133648.2a1b4b22c88a50bf6bdcd27b522850ea.pdf,0,2000-01-01 01:00:00,2016-04-03 02:51:08,557000/2a1b4b22c88a50bf6bdcd27b522850ea-d.jpg,,
19576934,The Science of Wealth: Adam Smith and the framing of political economy (Routledge Studies in the History of Economics),,,,Tony Aspromourgos,2008,1,,,416,0,English,64,,до 2011-01,"9780203889572,9780415463850,0415463858",,,,,330.15/3,HB103.S6 A87 2008,,,OL16776740M,,0,,,,,1,,1,1424418,pdf,2A3012734229D81865E80EBE88334094,,,D:\\!genesis\\library.nu\\2a\\_132235.2a3012734229d81865e80ebe88334094.pdf,0,2000-01-01 01:00:00,2016-04-03 02:51:08,557000/2a3012734229d81865e80ebe88334094-d.jpg,,
19576935,Television Democracy Elections in Russia (Basees Routledge Series on Russian and East European Studies),,,,Sarah Oates,2006,1,,,224,0,English,183,,до 2011-01,"9780415381345,0415381347,9780203966525",,,,,302.23/450947,PN1992.6 .O28 2006,,,OL22732778M,,0,,,,,1,,1,1952892,pdf,2A294AC15E25049A2418F078F967FDA9,,,D:\\!genesis\\library.nu\\2a\\_131517.2a294ac15e25049a2418f078f967fda9.pdf,0,2000-01-01 01:00:00,2016-04-03 02:51:08,557000/2a294ac15e25049a2418f078f967fda9-d.jpg,,
19576936,The Grammar of Identity: Intensifiers and Reflexives in Germanic Languages (Routledge Studies in Germanic Linguistics),,,,Gast,2006,1,,,272,0,English,314,,до 2011-01,"0415394112,9780415394116,9780203966181",,,,,,,,,OL22734532M,,0,,,,,1,,1,2783182,pdf,2A2559AB207CBCEFD678860EC4211AF2,,,D:\\!genesis\\library.nu\\2a\\_131211.2a2559ab207cbcefd678860ec4211af2.pdf,0,2000-01-01 01:00:00,2016-04-03 02:51:08,557000/2a2559ab207cbcefd678860ec4211af2-d.jpg,,
19576937,Key Topics in Sports Medicine (Key Topics Series),,,,Narvani Thomas,2006,1,,,336,0,English,147,,до 2011-01,"041541122X,9780415411226,9780203480151",,,,,,,,,OL17218536M,,0,,,,,1,,1,1531758,pdf,2A1B88A4CE74F6EF39778DDC332B06BD,,,D:\\!genesis\\library.nu\\2a\\_131078.2a1b88a4ce74f6ef39778ddc332b06bd.pdf,0,2000-01-01 01:00:00,2016-04-03 02:51:08,557000/2a1b88a4ce74f6ef39778ddc332b06bd-d.jpg,,
19576938,"German Football: History, Culture, Society and the World Cup 2006",,,,"Alan Tomlinson, Christopher Young",2006,1,,,272,0,English,64,,до 2011-01,"0415351952,9780415351959,9780203698686",,,,,796.334/0943,GV943.9.S64 G48 2005,,,OL3398849M,,0,,,,,1,,1,984590,pdf,2AA17457026360F8ABEB7103F9DFB151,,,D:\\!genesis\\library.nu\\2a\\_130599.2aa17457026360f8abeb7103f9dfb151.pdf,0,2000-01-01 01:00:00,2016-04-03 02:51:08,557000/2aa17457026360f8abeb7103f9dfb151-d.jpg,,
19576939,"Israeli Institutions at the Crossroads (Israeli: History, Politics and Society)",,,,Raphael Cohen-Almagor,2005,1,,,216,0,English,64,,до 2011-01,"0415363608,9780415363600,9780203086735",,,,,320.45694,JQ1830.A58 I87 2005,,,OL3426110M,,0,,,,,1,,1,1496524,pdf,2ABA791A402CC6C7B289C095EE55FF13,,,D:\\!genesis\\library.nu\\2a\\_130366.2aba791a402cc6c7b289c095ee55ff13.pdf,0,2000-01-01 01:00:00,2016-04-03 02:51:08,557000/2aba791a402cc6c7b289c095ee55ff13-d.jpg,,
19576940,J. D. Salinger's The Catcher in the Rye: A Routledge Guide (Routledge Guides to Literature),,,,Sarah Graham,2007,1,,,144,0,English,108,,до 2011-01,"0415344522,9780415344524,0415344530,9780415344531,0203496019,9780203496015",,,,,813/.54,PS3537.A426 C327 2006,,,OL22746192M,,0,,,,,1,,1,1545602,pdf,2A6CEC2803696AAD59CF571348636E2F,,,D:\\!genesis\\library.nu\\2a\\_130128.2a6cec2803696aad59cf571348636e2f.pdf,0,2000-01-01 01:00:00,2016-04-03 02:51:08,557000/2a6cec2803696aad59cf571348636e2f-d.jpg,,
19576941,"Jews, Muslims and Mass Media: Mediating the 'Other' (Routledgecurzon Jewish Studies Series)",,,,Tudor Parfitt,2004,,,,272,0,English,183,,до 2011-01,"0415318394,9780415318396,9781417534296,9780203354841",,,,,070.4/4995604,BP173.J8 J49 2003,,,OL22569791M,,0,,,,,1,,1,3482591,pdf,2A2A78523C4306BB9993BE1BB1423EF2,,,D:\\!genesis\\library.nu\\2a\\_129875.2a2a78523c4306bb9993be1bb1423ef2.pdf,0,2000-01-01 01:00:00,2016-04-03 02:51:08,557000/2a2a78523c4306bb9993be1bb1423ef2-d.jpg,,
19576942,"The Making of Modern Europe, 1648-1780",,,,G. Treasure,2003,3,,,672,0,English,64,,до 2011-01,"0415301556,9780415301558",,,,,,,,,OL7490657M,,0,,,,,1,,1,4103533,pdf,2A4E6F0ECF3B770DEB616D7083C84FAC,,,D:\\!genesis\\library.nu\\2a\\_129733.2a4e6f0ecf3b770deb616d7083c84fac.pdf,0,2000-01-01 01:00:00,2016-04-03 02:51:08,557000/2a4e6f0ecf3b770deb616d7083c84fac-d.jpg,,
19576943,"Arsenal 2070 (Shadowrun, 4.Edition)",,,,Tobias Hamelmann,2008,,,,206,0,German,,,до 2011-01,"3939794767,9783939794769",,,,,,,,,,,0,,,,,1,,0,57234051,pdf,2A95D201B526FD9100E1D4C81B1A9697,,,D:\\!genesis\\library.nu\\2a\\_129103.2a95d201b526fd9100e1d4c81b1a9697.pdf,0,2000-01-01 01:00:00,2016-04-03 02:51:08,557000/2a95d201b526fd9100e1d4c81b1a9697-d.jpg,,
19576944,Krondor: The Assassins,,Riftwar Legacy 2,,Raymond E. Feist,2001,Adobe Ebook Reader Ed,,,416,0,English,,,до 2011-01,"9780066213156,9780380803231,0066213150,0380803232",,,,,,,,,OL24251141M,,0,,,,,1,,1,1771321,pdf,2A634B8B2677F8C8BF2EB6316E890364,,,D:\\!genesis\\library.nu\\2a\\_128692.2a634b8b2677f8c8bf2eb6316e890364.pdf,0,2000-01-01 01:00:00,2016-04-03 02:51:08,557000/2a634b8b2677f8c8bf2eb6316e890364-d.jpg,,
19576945,Cardiovascular MRI: 150 Multiple-Choice Questions and Answers (Contemporary Cardiology),,,,Peter G. Danias,2008,1,,,192,0,English,159,,до 2011-01,"1934115592,9781934115596",,,,,,,,,,,0,,,,,1,,1,76258476,pdf,2AE275EFEC9E01EC7EE0F8F6EDAFFC10,,,D:\\!genesis\\library.nu\\2a\\_128286.2ae275efec9e01ec7ee0f8f6edaffc10.pdf,0,2000-01-01 01:00:00,2016-04-03 02:51:08,557000/2ae275efec9e01ec7ee0f8f6edaffc10-d.jpg,,
19576946,Celestial Ship of the North,,,,E. Valentia Straiton,1992,Facsimile edition,,,556,0,English,,,до 2011-01,"1564592650,9781564592651",,,,,,,,,OL8660498M,,0,,,,,1,,1,594832,pdf,2A517A9751B04FAEBCED4483CB31D8F7,,,D:\\!genesis\\library.nu\\2a\\_128110.2a517a9751b04faebced4483cb31d8f7.pdf,0,2000-01-01 01:00:00,2016-04-03 02:51:08,557000/2a517a9751b04faebced4483cb31d8f7-d.jpg,,
19576947,Political Parties and Terrorist Groups (Routledge Studies in Extremism and Democracy),,,,"Leonard Weinberg, Ami Pedahzur",2003,1,,,192,0,English,183,,до 2011-01,"9780203402931,9780203411575,9780415268714,0203402936,0415268710",,,,,322.4/2,HV6431 .W439 2003,,,OL17997387M,,0,,,,,1,,1,941325,pdf,2ADBEF24AE8DC3BF4848F0F537E5EFFE,,,D:\\!genesis\\library.nu\\2a\\_127678.2adbef24ae8dc3bf4848f0f537e5effe.pdf,0,2000-01-01 01:00:00,2016-04-03 02:51:08,557000/2adbef24ae8dc3bf4848f0f537e5effe-d.jpg,,
19576948,Evolution as a Religion: Strange Hopes and Stranger Fears,,,,Mary Midgley,2002,2,Routledge Classics,,224,0,English,205,,до 2011-01,"0415278333,9780415278331,0203361687,9780203361689,9780203378465",,,,,215,,,,,,0,,,,,1,,1,932551,pdf,2ABB46E33A823833D133C40236296402,,,D:/!genesis/library.nu/2a/_127632.2abb46e33a823833d133c40236296402.pdf,0,2000-01-01 01:00:00,2016-04-03 02:51:08,557000/2abb46e33a823833d133c40236296402-d.jpg,,
19576949,"Intersubjectivity in Economics: Agents and Structures (Economics As Socialtheory, 18)",,,,Edward Fullbrook (Editor),2001,,,,320,0,English,305,,до 2011-01,"0203116666,9780415266970,9780203163917,9780203116661,0415266971,041526698X,9780415266987",,,,,330/.01/9,HB74.P8 I59 2002,,,,,0,,,,,1,,1,1234420,pdf,2ACEA4138DFA94A2606FB45CF7161D82,,,D:/!genesis/library.nu/2a/_127506.2acea4138dfa94a2606fb45cf7161d82.pdf,0,2000-01-01 01:00:00,2016-04-03 02:51:08,557000/2acea4138dfa94a2606fb45cf7161d82-d.jpg,,
19576950,Teaching Geography in Secondary Schools: A Reader (Ou Flexible Pgce Series),,,,Margaret Smith,2002,1,,,288,0,English,59,,до 2011-01,"0415260787,9780415260787,9780203994238",,,,,,,,,OL17074402M,,0,,,,,1,,1,1840331,pdf,2ACB471C8F6973B55EF8259312495ABA,,,D:\\!genesis\\library.nu\\2a\\_127491.2acb471c8f6973b55ef8259312495aba.pdf,0,2000-01-01 01:00:00,2016-04-03 02:51:08,557000/2acb471c8f6973b55ef8259312495aba-d.jpg,,
19576951,"State, Power and Politics in the Making of the Modern Middle East 3rd edition",,,,Roger Owen,2004,3,,,296,0,English,192,,до 2011-01,"9780415297134,0415297133,0203403258,9780203403259,9780203411933",,,,,320.956,DS63 .O94 2004,,,OL3681541M,,0,,,,,1,,1,1274671,pdf,2A486CBEA8CDCEC04FB3D285A5DC32AA,,,D:\\!genesis\\library.nu\\2a\\_127436.2a486cbea8cdcec04fb3d285a5dc32aa.pdf,0,2000-01-01 01:00:00,2016-04-03 02:51:08,557000/2a486cbea8cdcec04fb3d285a5dc32aa-d.jpg,,
19576952,"The 4-Hour Workweek: Escape 9-5, Live Anywhere, and Join the New Rich",,,,Timothy Ferriss,2007,"1st, First Edition",,,320,0,English,,,до 2011-01,"0307353133,9780307353139,9780091923532,0091923530",,B001TICR1W,,,650.1,HD6955 .F435 2007,,,OL17172234M,,0,,,,,1,,0,15056186,pdf,2A3256E38FCB89AB129E5BB221DBC8DB,,,D:\\!genesis\\library.nu\\2a\\_127417.2a3256e38fcb89ab129e5bb221dbc8db.pdf,0,2000-01-01 01:00:00,2016-04-03 02:51:08,557000/2a3256e38fcb89ab129e5bb221dbc8db-d.jpg,,
19576953,Gauge theories in particle physics: A practical introduction (Graduate student series in physics),,,,Ian Johnston Rhind Aitchison,1982,,,,341,0,English,132,,до 2011-01,"0852745346,9780852745342",,,,,539.7/21,QC793.3.F5 A34 1982,,,OL21531221M,,0,,,,,1,,0,2656241,djvu,2AE0ECD64740F47DED6DE87133A83AE5,a326d4f78f2ff2269af232f9ed013a54,no,D:\\!genesis\\library.nu\\2a\\_127255.2ae0ecd64740f47ded6de87133a83ae5.djvu,0,2000-01-01 01:00:00,2016-04-03 02:51:08,557000/2ae0ecd64740f47ded6de87133a83ae5-d.jpg,,
19576954,Daughters of Hariti: Childbirth and Female Healers in South and Southeast Asia,,Theory and Practice in Medical Anthropology,,"Santi Rozario (ed.), Geoffrey Samuel (ed.)",2002,1st,Taylor and Francis,,320,0,English,14,,до 2011-01,"0203220218,9780415277921,9780203295991,9780203220214,0415277922",,,,,618.200954,,,,,,0,,,,1,0,1,1,10517408,pdf,2A59F747F2802D7A87C154B0F5F1C801,,,D:/!genesis/library.nu/2a/_126927.2a59f747f2802d7a87c154b0f5f1c801.pdf,0,2000-01-01 01:00:00,2016-04-03 02:51:08,557000/2a59f747f2802d7a87c154b0f5f1c801-d.jpg,,
19576955,"Antimatter (Star Trek Deep Space Nine, No 8)",,,,John Vornholt,1994,paperback / softback,,,276,0,English,212,,до 2011-01,"067188560X,9780671885601",,,,,813.54,,,,OL22291709M,,0,,,,,1,,,200874,lit,2AB01E2AD84F294B177A9A1AF042A6AC,,,D:\\!genesis\\library.nu\\2a\\_1269.2ab01e2ad84f294b177a9a1af042a6ac.lit,0,2000-01-01 01:00:00,2016-04-03 02:51:08,557000/2ab01e2ad84f294b177a9a1af042a6ac-d.jpg,,
19576956,100 Poets Against the War,,,,Todd Swift (Editor),2003,1st Edition & 2nd Edition,,,204,0,English,,,до 2011-01,"1876857986,9781876857981",,,,,,,,,OL8657173M,,0,,,,,1,,1,266826,pdf,2A4A28EE8E6E3B1211407A73A18D439B,,,D:\\!genesis\\library.nu\\2a\\_126553.2a4a28ee8e6e3b1211407a73a18d439b.pdf,0,2000-01-01 01:00:00,2016-04-03 02:51:08,557000/2a4a28ee8e6e3b1211407a73a18d439b-d.jpg,,
19576957,Wavelets and Subband Coding,,,,Martin Vetterli Jelena Kovacevic,1995,,Prentice Hall,,519,0,English,118,,до 2011-01,"0130970808,9780130970800",,,,,621.382/2,TK5102.9 .V48 1995,,,OL1274437M,,0,,,,1,0,,1,5274899,pdf,2AAE9D79C2D3D7CF8F50781F1DE0D757,,,D:\\!genesis\\library.nu\\2a\\_126262.2aae9d79c2d3d7cf8f50781f1de0d757.pdf,0,2000-01-01 01:00:00,2016-04-03 02:51:08,557000/2aae9d79c2d3d7cf8f50781f1de0d757-d.jpg,,
19576958,The Crystal Star (Star Wars (Random House Paperback)),,,,Vonda Mcintyre,1995,,,,432,0,English,,,до 2011-01,"0553571745,9780553571745",,,,,,,,,OL7829690M,,0,,,,,1,,,287105,lit,2A6EE25674AB46F5899BAC952F88DA50,,,D:\\!genesis\\library.nu\\2a\\_12587.2a6ee25674ab46f5899bac952f88da50.lit,0,2000-01-01 01:00:00,2016-04-03 02:51:08,557000/2a6ee25674ab46f5899bac952f88da50-d.jpg,,
19576959,Ο Τούρκος στον κήπο,,,,Ξανθούλης Γιάννης,2001,,,,229,0,Greek,,,до 2011-01,"9600330166,9789600330168",,,,,,,,,OL13073305M,,0,,,,,1,,1,1764780,pdf,2A074D867EF648753BCD34701B3A3E47,,,D:\\!genesis\\library.nu\\2a\\_125521.2a074d867ef648753bcd34701b3a3e47.pdf,0,2000-01-01 01:00:00,2016-04-03 02:51:08,557000/2a074d867ef648753bcd34701b3a3e47-g.jpg,,
19576960,Becoming a Successful Teacher of Mathematics,,,,"Sonia Jones, Howard Tanner",2001,1,,,256,0,English,113,,до 2011-01,"0203466969,9780585461557,9780415230681,9780203466964,0415230683,0415230691,9780415230698",,,,,,,,,OL18157226M,,0,,,,,1,,1,2150125,pdf,2A3D7896C7911A1A0904663EF057D576,,,D:\\!genesis\\library.nu\\2a\\_124922.2a3d7896c7911a1a0904663ef057d576.pdf,0,2000-01-01 01:00:00,2016-04-03 02:51:08,557000/2a3d7896c7911a1a0904663ef057d576-d.jpg,,
19576961,Rethinking Anti-Racisms: From Theory to Practice,,,,Floya Anthias,2002,,,,224,0,English,,,до 2011-01,"0415183375,9780415183376,9780203996812",,,,,,,,,OL17042512M,,0,,,,,1,,1,757797,pdf,2A9C25969F5CB768695036971708979D,,,D:\\!genesis\\library.nu\\2a\\_124545.2a9c25969f5cb768695036971708979d.pdf,0,2000-01-01 01:00:00,2016-04-03 02:51:08,557000/2a9c25969f5cb768695036971708979d-d.jpg,,
19576962,English Society 15801680,,,,Keith Wrightson,1982,New edition,,,264,0,English,314,,до 2011-01,"0415099153,9780415099158,9780203302040",,,,,,,,,OL7482765M,,0,,,,,1,,1,1457174,pdf,2A518EC6D58BA442C767AE655824C9E8,,,D:\\!genesis\\library.nu\\2a\\_124065.2a518ec6d58ba442c767ae655824c9e8.pdf,0,2000-01-01 01:00:00,2016-04-03 02:51:08,557000/2a518ec6d58ba442c767ae655824c9e8-d.jpg,,
19576963,Medicine in the Making of Modern Britain: 1700-1920 (Historical Connections),,,,Christ Lawrence,1994,1,,,120,0,English,64,,до 2011-01,"0415091683,9780415091688,9780203130704",,,,,362.1/0941,RA418.3.G7 L38 1994,,,OL1422950M,,0,,,,,1,,1,930774,pdf,2A1FF08534EC963F87A11B1F276EE71B,,,D:\\!genesis\\library.nu\\2a\\_123779.2a1ff08534ec963f87a11b1f276ee71b.pdf,0,2000-01-01 01:00:00,2016-04-03 02:51:08,557000/2a1ff08534ec963f87a11b1f276ee71b-d.jpg,,
19576964,Contemporary France: Politics and Society since 1945,,,,D. L. Hanley,1984,2,,,384,0,English,192,,до 2011-01,"0415025222,9780415025225,9780203989715",,,,,944.082,JN2594.2 .H35 1988,,,OL2035272M,,0,,,,,1,,1,2140784,pdf,2AB2BBFBB2F23D3B4959BF9F30F1543C,,,D:\\!genesis\\library.nu\\2a\\_123426.2ab2bbfbb2f23d3b4959bf9f30f1543c.pdf,0,2000-01-01 01:00:00,2016-04-03 02:51:08,557000/2ab2bbfbb2f23d3b4959bf9f30f1543c-d.jpg,,
19576965,The Notebooks of Samuel Taylor Coleridge: Notebooks 1819-1826,,,,Merton Christen,1990,,,,1685,0,English,64,,до 2011-01,"9780415044295,0415044294,0203167864,9780203167861,9780203283509",,,,,,,,,OL10186522M,,0,,,,,1,,1,4664858,pdf,2ADB572F05A20E6972932B49E2DB6A01,,,D:\\!genesis\\library.nu\\2a\\_123404.2adb572f05a20e6972932b49e2db6a01.pdf,0,2000-01-01 01:00:00,2016-04-03 02:51:08,557000/2adb572f05a20e6972932b49e2db6a01-d.jpg,,
19576966,The Art of Children's Portrait Photography,,,,Tamara Lackey,2008,,,,128,0,English,59,,до 2011-01,"1584282401,9781584282402",,,,,778.925,TR681.C5 L28 2009,,,OL24901606M,,0,,,,,1,,1,6325830,pdf,2AC6450CBAA1A84895926BDD2B7216F2,,,D:\\!genesis\\library.nu\\2a\\_123136.2ac6450cbaa1a84895926bdd2b7216f2.pdf,0,2000-01-01 01:00:00,2016-04-03 02:51:08,557000/2ac6450cbaa1a84895926bdd2b7216f2-d.jpg,,
19576967,Discerning the Spirits: Theological and Ethical Hermeneutics in Paul (Society for New Testament Studies Monograph Series),,,,André Munzinger,2007,,,,256,0,English,183,,до 2011-01,"0521875943,9780521875943,0521168562,9780521168564,9780511598104",,,,,,,,,OL10438121M,,0,,,,,1,,1,806434,pdf,2A8AE70FD65B829FF2F1B25ECC9DC5D6,,,D:\\!genesis\\library.nu\\2a\\_122820.2a8ae70fd65b829ff2f1b25ecc9dc5d6.pdf,0,2000-01-01 01:00:00,2016-04-03 02:51:08,557000/2a8ae70fd65b829ff2f1b25ecc9dc5d6-d.jpg,,
19576968,"Community, Trade, and Networks: Southern Fujian Province from the Third to the Thirteenth Century (Cambridge Studies in Chinese History, Literature and Institutions)",,,,Hugh R. Clark,1991,,,,278,0,English,64,,до 2011-01,"052139029X,9780521390293,0521894476,9780521894470,9780511572654",,,,,380.1/0951/245,HC428.F84 C58 1991,,,OL1864287M,,0,,,,,1,,1,7237625,pdf,2A7114626376090E2796266E6A868487,,,D:\\!genesis\\library.nu\\2a\\_122596.2a7114626376090e2796266e6a868487.pdf,0,2000-01-01 01:00:00,2016-04-03 02:51:08,557000/2a7114626376090e2796266e6a868487-d.gif,,
19576969,Subjects of Desire: Hegelian Reflections in Twentieth-Century France,,,,Judith P. Butler,1987,,,,268,0,English,,,до 2011-01,"0231064500,9780231064507,0231064519,9780231064514",,,,,128.3,,,,OL118260M,,0,,,,,1,,1,26575097,pdf,2A267E8920B4D2948680C9F8D72D7F6F,,,D:\\!genesis\\library.nu\\2a\\_121843.2a267e8920b4d2948680c9f8d72d7f6f.pdf,0,2000-01-01 01:00:00,2016-04-03 02:51:08,557000/2a267e8920b4d2948680c9f8d72d7f6f-g.jpg,,
19576970,Bove and Davis' Diving Medicine (Fourth Edition),,,,"Alfred A. Bove, Jefferson Davis",2003,4,,,615,0,English,147,,до 2011-01,"0721694241,9780721694245",,,,,,,,,OL7863655M,,0,,,,0,0,,1,17461227,pdf,2AFB56731AC2A3CB99DD7D86A02752EE,,,D:\\!genesis\\library.nu\\2a\\_121544.2afb56731ac2a3cb99dd7d86a02752ee.pdf,0,2000-01-01 01:00:00,2016-04-03 02:51:08,557000/2afb56731ac2a3cb99dd7d86a02752ee-d.jpg,,
19576971,Aquarius (Super Horoscopes 2009),,,,Margarete Beim,2008,2009,,,256,0,English,,,до 2011-01,"9780425220078,0425220079,1436243513",,,,,,,,,,,0,,,,,1,,1,3353517,pdf,2A5F5881DCDC179AE493BE2B0E245D37,,,D:\\!genesis\\library.nu\\2a\\_120952.2a5f5881dcdc179ae493be2b0e245d37.pdf,0,2000-01-01 01:00:00,2016-04-03 02:51:08,557000/2a5f5881dcdc179ae493be2b0e245d37-d.jpg,,
19576972,"Pauline Frommer's Paris, Second Edition (Pauline Frommer Guides)",,,,Margie Rynn,2009,2nd,,,384,0,English,305,,до 2011-01,"0470385162,9780470385166",,,,,,,,,,,0,,,,,1,,1,6260788,pdf,2AF70FFE1016EF28777AB74925B119E0,,,D:\\!genesis\\library.nu\\2a\\_120798.2af70ffe1016ef28777ab74925b119e0.pdf,0,2000-01-01 01:00:00,2016-04-03 02:51:08,557000/2af70ffe1016ef28777ab74925b119e0-d.jpg,,
19576973,Finite-Element Plasticity and Metalforming Analysis,,,,"G. W. Rowe, C. E. N. Sturgess, P. Hartley, I. Pillinger",2005,,,,324,0,English,117,,до 2011-01,"9780511470981,9780521017312,0521017319,9780521383622,0521383625",,,,,671.3,TS213 .F52 1991,,,OL1638189M,,0,,,,,1,,1,8434863,pdf,2AA3FC61A55958DEACE79B7288BF01C2,,,D:\\!genesis\\library.nu\\2a\\_120429.2aa3fc61a55958deace79b7288bf01c2.pdf,0,2000-01-01 01:00:00,2016-04-03 02:51:08,557000/2aa3fc61a55958deace79b7288bf01c2-d.jpg,,
19576974,"Textual Translation and Live Translation: The Total Experience of Nonverbal Communication in Literature, Theater and Cinema",,,,Fernando Poyatos,2008,,,,365,0,English,108,,до 2011-01,"9027232490,9789027232496,9789027290083",,,,,418/.02,P306.P668 2008,,,OL16925374M,,0,,,,,1,,1,3157931,pdf,2A7811BA41C2EADE35E04FA5024CF6AB,,,D:\\!genesis\\library.nu\\2a\\_120056.2a7811ba41c2eade35e04fa5024cf6ab.pdf,0,2000-01-01 01:00:00,2016-04-03 02:51:08,557000/2a7811ba41c2eade35e04fa5024cf6ab-d.jpg,,
19576975,Safety and Quality Issues in Fish Processing,,,,H. Allan Bremner,2002,1,,,507,0,English,,,до 2011-01,"9780849315404,0849315409,1855735520,9781855735521,9781855736788",,,,,,,,,OL18177440M,,0,,,,,1,,1,3555101,pdf,2A34924ACA9677ABA3E1B113883E0E2A,,,D:\\!genesis\\library.nu\\2a\\_119826.2a34924aca9677aba3e1b113883e0e2a.pdf,0,2000-01-01 01:00:00,2016-04-03 02:51:08,557000/2a34924aca9677aba3e1b113883e0e2a-d.jpg,,
19576976,Verbrennungsmotoren: Simulation der Verbrennung und Schadstoffbildung 3. Auflage,,,,"Günter P. Merker, Christian Schwarz, Gunnar Stiesch, Frank Otto",,,,,411,0,German,,,до 2011-01,"9783835100800,3835100807",,,,,,,,,,,0,,,,,1,,1,6927922,pdf,2A6604334EE3957C765D558A5C2DCF1E,,,D:\\!genesis\\library.nu\\2a\\_119378.2a6604334ee3957c765d558a5c2dcf1e.pdf,0,2000-01-01 01:00:00,2016-04-03 02:51:08,557000/2a6604334ee3957c765d558a5c2dcf1e-d.jpg,,
19576977,Formal Approaches to Function in Grammar: In Honor of Eloise Jelinek,,Linguistik Aktuell/Linguistics Today 62,,"Andrew Carnie, Heidi Harley, Maryann Willie, Eloise Jelinek",2003,,John Benjamins,,369,0,English,319,,до 2011-01,"1588113485,9781588113481,9027227853,9789027227850,9781423761334",,,,,415,P151 .F62 2003,,,,,0,,,,,1,,1,4166278,pdf,2AE72A335BE2B074BF48EA0155237B55,,,D:/!genesis/library.nu/2a/_119028.2ae72a335be2b074bf48ea0155237b55.pdf,0,2000-01-01 01:00:00,2016-04-03 02:51:08,557000/2ae72a335be2b074bf48ea0155237b55-d.jpg,,
19576978,Cross Site Scripting Attacks: Xss Exploits and Defense,,,,"Seth Fogie, Jeremiah Grossman, Robert Hansen, Anton Rager,",2007,,,,480,0,English,,,до 2011-01,"1597491543,9781597491549,9780080553405",,,,,,,,,OL8894070M,,0,,,,,1,,1,60287704,pdf,2A4CC30AB8153099327A3B85DA7938D5,,,D:\\!genesis\\library.nu\\2a\\_118820.2a4cc30ab8153099327a3b85da7938d5.pdf,0,2000-01-01 01:00:00,2016-04-03 02:51:08,557000/2a4cc30ab8153099327a3b85da7938d5-d.jpg,,
19576979,Narrative Development in a Multilingual Context (Studies in Bilingualism),,,,"Ludo Verhoeven, Sven Stromqvist",2002,,,,430,0,English,183,,до 2011-01,"1588110982,9781588110985,9027241341,9789027241344,9789027297327",,,,,401/.93,P118 .N367 2001,,,OL19376315M,,0,,,,,1,,1,2279878,pdf,2A692C62B166C67EF671A8EDB5CD6200,,,D:\\!genesis\\library.nu\\2a\\_118530.2a692c62b166c67ef671a8edb5cd6200.pdf,0,2000-01-01 01:00:00,2016-04-03 02:51:08,557000/2a692c62b166c67ef671a8edb5cd6200-d.jpg,,
19576980,The Bible and Flying Saucers (British Edition),,,,Barry Downing,1977,,,,175,0,English,,,до 2011-01,"0722130295,9780722130292",,,,,,,,,,,0,,,,,1,,1,760802,pdf,2A64B866F02888915210D2BAC4F72FDF,,,D:\\!genesis\\library.nu\\2a\\_117727.2a64b866f02888915210d2bac4f72fdf.pdf,0,2000-01-01 01:00:00,2016-04-03 02:51:08,557000/2a64b866f02888915210d2bac4f72fdf-g.jpg,,
19576981,Organizational Psychology: A Scientist Practitioner Approach,,,,Steve M.  Jex,2002,1,,,540,0,English,198,,до 2011-01,"0471374202,9780471374206,9780471219057",,,,,158.7,HF5548.8.J49 2002,,,OL7615956M,,0,,,,1,0,,1,2448820,pdf,2A3537F2EE76BDCCEA768500240A5160,,,D:\\!genesis\\library.nu\\2a\\_117207.2a3537f2ee76bdccea768500240a5160.pdf,0,2000-01-01 01:00:00,2016-04-03 02:51:08,557000/2a3537f2ee76bdccea768500240a5160-d.jpg,,
19576982,"The Relational Database Dictionary, Extended Edition (Firstpress)",,,,C. J. Date,2008,1,,,230,0,English,116,Kolxo3,до 2011-01,"1430210419,9781430210412",,,,,,,,,,,0,,,,0,0,,1,1066836,pdf,2AB496876E45DDFDA8722FB463D35116,,,"Cs_Computer science/CsDb_Databases/Date C.J. The Relational Database Dictionary, Extended Edition (Apress, 2008)(ISBN 1430210419)(O)(230s)_CsDb_.pdf",0,2000-01-01 01:00:00,2016-04-03 02:51:08,557000/2AB496876E45DDFDA8722FB463D35116-d.jpg,,
19576983,"Ethics for Psychologists, Second Edition",,,,Ronald D. Francis,2009,2,,,328,0,English,305,,до 2011-01,"1405188774,9781405188784,9781405188777,1405188782",,,,,174/.915,BF76.4 .F73 2009,,,OL23180260M,,0,,,,,1,,1,1256974,pdf,2A39E6D41BD6C7ED396B40E282E2BED2,,,D:\\!genesis\\library.nu\\2a\\_116711.2a39e6d41bd6c7ed396b40e282e2bed2.pdf,0,2000-01-01 01:00:00,2016-04-03 02:51:08,557000/2a39e6d41bd6c7ed396b40e282e2bed2-d.jpg,,
19576984,Caldecott Connections to Language Arts,,,,Shan Glandon,2000,,,,232,0,English,57,,до 2011-01,"1563088460,9781563088469,141773101X,9781417731015",,,,,,,,,OL8642044M,,0,,,,1,0,,1,17509341,pdf,2AC9A8746112689F4B05DBDBA49C9897,,,D:\\!genesis\\library.nu\\2a\\_116531.2ac9a8746112689f4b05dbdba49c9897.pdf,0,2000-01-01 01:00:00,2016-04-03 02:51:08,557000/2ac9a8746112689f4b05dbdba49c9897-d.jpg,,
19576985,"Alzheimer's and Parkinson's Diseases: Progress and New Perspectives: 8th International Conference Ad pd, Salzburg, March 2007: Abstracts (Neuro-Degenerative Diseases)",,,,"Abraham Fisher, Israel Hanin, Werner Poewe, Manfred Windisch",2007,Supplement,,,363,0,English,150,,до 2011-01,"380558282X,9783805582827,9783318014662",,,,,,,,,OL12931993M,,0,,,,,1,,1,22469745,pdf,2A80B2A109F19FF0415F59FF9573928E,,,D:\\!genesis\\library.nu\\2a\\_116264.2a80b2a109f19ff0415f59ff9573928e.pdf,0,2000-01-01 01:00:00,2016-04-03 02:51:08,557000/2a80b2a109f19ff0415f59ff9573928e-g.jpg,,
19576986,The GRYB,,,,A. E. Van Vogt,1976,,,,22,0,English,,,до 2011-01,"0890833311,9780890833315,0890831823,9780890831823",,,,,,,,,OL8217258M,,0,,,,,1,,1,471164,pdf,2A9FC5C379BB01A7D01FCAF34B0A0500,,,D:\\!genesis\\library.nu\\2a\\_115585.2a9fc5c379bb01a7d01fcaf34b0a0500.pdf,0,2000-01-01 01:00:00,2016-04-03 02:51:08,557000/2a9fc5c379bb01a7d01fcaf34b0a0500-g.jpg,,
19576987,Orchestermanagement,,,,Gerald Mertens,,,,,141,0,German,,,до 2011-01,"3531165844,9783531165844",,,,,,,,,,,0,,,,0,0,,1,1006344,pdf,2AE0725BDAF49181C8A75C4DEA1E36C1,,,D:\\!genesis\\library.nu\\2a\\_115374.2ae0725bdaf49181c8a75c4dea1e36c1.pdf,0,2000-01-01 01:00:00,2016-04-03 02:51:08,557000/2ae0725bdaf49181c8a75c4dea1e36c1-g.jpg,,
19576988,Bacterial Adhesion to Host Tissues: Mechanisms and Consequences (Advances in Molecular and Cellular Microbiology),,,,Michael Wilson,2002,1,,,344,0,English,178,,до 2011-01,"0521801079,9780521801072,9780511063312",,,,,616/.014,QR96.8 .B335 2002,,,OL3584897M,,0,,,,,1,,1,11290897,pdf,2A31FA8C7D04E23F725A28889E58A1CE,,,D:\\!genesis\\library.nu\\2a\\_11521.2a31fa8c7d04e23f725a28889e58a1ce.pdf,0,2000-01-01 01:00:00,2016-04-03 02:51:08,557000/2a31fa8c7d04e23f725a28889e58a1ce-d.jpg,,
19576989,After the Fall,,,,Kylie Ladd,2010,1,,,304,0,English,,,до 2011-01,"0385532814,9780385532815,9781742372303",,,,,823/.92,PR9619.4.L335 A69 2010,,,OL23909863M,,0,,,,1,0,,1,1476431,pdf,2ACFE51DABA7240AFB0F7D7D54B6617B,,,D:\\!genesis\\library.nu\\2a\\_114946.2acfe51daba7240afb0f7d7d54b6617b.pdf,0,2000-01-01 01:00:00,2016-04-03 02:51:08,557000/2acfe51daba7240afb0f7d7d54b6617b-d.jpg,,
19576990,Satellite Oceanic Remote Sensing,,Advances in Geophysics 27,,Barry Saltzman (Eds.),1985,,"Elsevier, Academic Press",,"ii-xvi, 1-511",0,English,178,,до 2011-01,978-0-12-018827-7,0065-2687,,,,,,,,OL10070300M,,0,,,,,1,,1,24994646,pdf,2A7C7216E54FCD9D5FF8B59FF37221BA,,,D:\\!genesis\\library.nu\\2a\\_114764.2a7c7216e54fcd9d5ff8b59ff37221ba.pdf,0,2000-01-01 01:00:00,2016-04-03 02:51:08,557000/2a7c7216e54fcd9d5ff8b59ff37221ba-d.jpg,,
19576991,,,Advances in Microbial Physiology 2,,A.H. Rose and J.F. Wilkinson (Eds.),1968,,"Elsevier, Academic Press",,"iii-v, 1-212",0,English,178,,до 2011-01,978-0-12-027702-5,0065-2911,,,,,,,,,,0,,,,,1,,1,12960877,pdf,2A11B40BB1EA945155B955540C6A5B2D,,,D:\\!genesis\\library.nu\\2a\\_114762.2a11b40bb1ea945155b955540c6a5b2d.pdf,0,2000-01-01 01:00:00,2016-04-03 02:51:08,557000/2a11b40bb1ea945155b955540c6a5b2d-d.jpg,,
19576992,,,Advances in Immunology 58,,Frank J. Dixon (Eds.),1995,1,"Elsevier, Academic Press",,"iii-ix, 1-469",0,English,178,,до 2011-01,978-0-12-022458-6,0065-2776,,,,,,,,OL22325447M,,0,,,,,1,,1,28030759,pdf,2A34218F757309AA28D6A2FCD23A033F,,,D:\\!genesis\\library.nu\\2a\\_114667.2a34218f757309aa28d6a2fcd23a033f.pdf,0,2000-01-01 01:00:00,2016-04-03 02:51:08,557000/2a34218f757309aa28d6a2fcd23a033f-d.jpg,,
19576993,Ion Channel Regulation (Advances in Second Messenger and Phosphoprotein Research),,,,"Paul Greengard, Angus Nairn, Shirish Shenolikar",1999,1st,,,318,0,English,178,,до 2011-01,"0120361337,9780120361335,9780080526454",,,,,,,,,OL7325371M,,0,,,,,1,,1,21205086,pdf,2A23D5E274BDCE2C0E97DC62D72689FA,,,D:\\!genesis\\library.nu\\2a\\_114623.2a23d5e274bdce2c0e97dc62d72689fa.pdf,0,2000-01-01 01:00:00,2016-04-03 02:51:08,557000/2a23d5e274bdce2c0e97dc62d72689fa-d.jpg,,
19576994,,,Advances in Pharmaceutical Sciences 7,,"David Ganderton, Trevor Jones and James McGinity (Eds.)",1995,1st,"Elsevier, Academic Press",,1-278,0,English,178,,до 2011-01,978-0-12-032307-4,0065-3136,,,,615.19,,,,OL21118731M,,0,,,,,1,,1,14426580,pdf,2AD074620B2CFE73734EE26249919BD2,,,D:\\!genesis\\library.nu\\2a\\_114516.2ad074620b2cfe73734ee26249919bd2.pdf,0,2000-01-01 01:00:00,2016-04-03 02:51:08,557000/2ad074620b2cfe73734ee26249919bd2-d.jpg,,
19576995,Ethics of Husserl's Phenomenology (Continuum Studies in Continental Philosophy),,,,Joaquim Siles I. Borras,2010,,,,222,0,English,183,,до 2011-01,"1441174699,9781441174697",,,,,170.92,B3279.H94 S49 2009,,,OL23218291M,,0,,,,,0,,1,1798397,pdf,2A2B3E2FB508E493391D963351F8E9CB,,,D:\\!genesis\\library.nu\\2a\\_113804.2a2b3e2fb508e493391d963351f8e9cb.pdf,0,2000-01-01 01:00:00,2016-04-03 02:51:08,557000/2a2b3e2fb508e493391d963351f8e9cb-d.jpg,,
19576996,"Communities and Law: Politics and Cultures of Legal Identities (Law, Meaning, and Violence)",,,,Gad Barzilai,2005,,,,384,0,English,192,,до 2011-01,"0472030795,9780472030798,0472113151,9780472113156,9780472024001",,,,,340/.115/095694,KMK68 .B37 2003,,,OL3685843M,,0,,,,1,0,,1,1708705,pdf,2A7570F07A853810EE0F98EA26F6B336,,,D:\\!genesis\\library.nu\\2a\\_113258.2a7570f07a853810ee0f98ea26f6b336.pdf,0,2000-01-01 01:00:00,2016-04-03 02:51:08,557000/2a7570f07a853810ee0f98ea26f6b336-d.jpg,,
19576997,Get Ready! for Social Studies : World History,,,,"Nancy White, Francine Weinberg",2002,1,,,216,0,English,64,,до 2011-01,"007137762X,9780071377621,9780071398466",,,,,372.89,LB1581 .O84 2002,10.1036/0071398465,,OL24321042M,,0,,,,,1,,1,3980133,pdf,2A61649E8761C114A1323B5DFD3D1D7F,,,D:\\!genesis\\library.nu\\2a\\_112822.2a61649e8761c114a1323b5dfd3d1d7f.pdf,0,2000-01-01 01:00:00,2016-04-03 02:51:08,557000/2a61649e8761c114a1323b5dfd3d1d7f-d.jpg,,
19576998,The Speed of Light: Constancy and Cosmos,,,,David A. Grandy,2009,,,,216,0,English,,,до 2011-01,"025335322X,9780253353221,0253220866,9780253220868",,,,,535,QC407 .G73 2009,,,OL22652967M,,0,,,,,1,,1,1029911,pdf,2A02A5B73D6B2BD4267E241388BAEC33,,,D:\\!genesis\\library.nu\\2a\\_112628.2a02a5b73d6b2bd4267e241388baec33.pdf,0,2000-01-01 01:00:00,2016-04-03 02:51:08,557000/2a02a5b73d6b2bd4267e241388baec33-d.jpg,,
19576999,Transgenesis and the Management of Vector-Borne Disease,,Advances in Experimental Medicine and Biology 627,,Serap Aksoy,2008,1,,,186,0,English,178,,до 2011-01,"9780387782249,9780387782256,0387782249",,,,,614.4/32,RA639.5 .T73 2008,,,OL16443622M,,0,,,,,1,,1,13817772,pdf,2A66878C124105C622CB811D4E18651F,,,D:\\!genesis\\library.nu\\2a\\_112617.2a66878c124105c622cb811d4e18651f.pdf,0,2000-01-01 01:00:00,2016-04-03 02:51:08,557000/2a66878c124105c622cb811d4e18651f-d.jpg,,
19577000,Simulation of Communication Systems (Applications of Communications Theory),,,,"Philip Balaban, Michel C. Jeruchim, K. Sam Shanmugan,",1992,1,,,760,0,English,137,,до 2011-01,"0306439891,9780306439896",,,,,621.382/01/13,TK5102.5 .J47 1992,,,OL1566082M,,0,,,,,1,,0,51970428,pdf,2A7382C6E7DC6A89D10F1F3C14FC024C,,,D:\\!genesis\\library.nu\\2a\\_112070.2a7382c6e7dc6a89d10f1f3c14fc024c.pdf,0,2000-01-01 01:00:00,2016-04-03 02:51:08,557000/2a7382c6e7dc6a89d10f1f3c14fc024c-d.jpg,,
19577001,,,Advances in the Study of Behavior 33,,"Peter J.B. Slater, Jay S. Rosenblatt, Charles T. Snowdon, Timothy J. Roper, Marc Naguib",2003,1,"Elsevier, Academic Press",,1-370,0,English,183,,до 2011-01,978-0-12-004533-4,0065-3454,,,,,,,,OL9783195M,,0,,,,,1,,1,3421347,pdf,2AFF3862E3D8D42B541DF34005FA05C4,,,D:\\!genesis\\library.nu\\2a\\_111639.2aff3862e3d8d42b541df34005fa05c4.pdf,0,2000-01-01 01:00:00,2016-04-03 02:51:08,557000/2aff3862e3d8d42b541df34005fa05c4-d.jpg,,
19577002,Masterizzare con Nero 9,,,,Bruno Bernasconi,,,,,162,0,Italian,,,до 2011-01,9771971662009,,,,,,,,,,,0,,,,,0,,1,23449473,pdf,2A8B0F38D7CAEAC29418E7467B04290E,,,D:\\!genesis\\library.nu\\2a\\_110887.2a8b0f38d7caeac29418e7467b04290e.pdf,0,2000-01-01 01:00:00,2016-04-03 02:51:08,557000/2a8b0f38d7caeac29418e7467b04290e-g.jpg,,
19577003,The Kinin System (Handbook of Immunopharmacology),,,,Stephen G. Farmer,1997,1st,,,349,0,English,156,,до 2011-01,"0122493400,9780122493409,9780080542522",,,,,612/.015756,QP552.K5 K54 1997,,,OL663112M,,0,,,,,1,,1,34247443,pdf,2AC36A39FD55235D5D8F1955E354E438,,,D:\\!genesis\\library.nu\\2a\\_110866.2ac36a39fd55235d5d8f1955e354e438.pdf,0,2000-01-01 01:00:00,2016-04-03 02:51:08,557000/2ac36a39fd55235d5d8f1955e354e438-d.jpg,,
19577004,Midnight Rainbow,,Rescues 1,,Linda Howard,1996,,,,256,0,English,,,до 2011-01,"9781551661537,1551661535",,,,,,,,,OL8552991M,,0,,,,,1,,1,562798,pdf,2ADE121A4D7C0D7E689FBE98D19EDE7B,,,D:\\!genesis\\library.nu\\2a\\_110797.2ade121a4d7c0d7e689fbe98d19ede7b.pdf,0,2000-01-01 01:00:00,2016-04-03 02:51:08,557000/2ade121a4d7c0d7e689fbe98d19ede7b-d.jpg,,
19577005,NYSML-ARML Contests 1973-1985,,,,Harry D. Ruderman,1987,Subsequent,,,207,0,English,64,,до 2011-01,"0873532473,9780873532471",,,,,510/.79,QA43 .N97 1987,,,OL2468093M,,0,,,,,1,,0,15153601,pdf,2AAB7A89DC116282DA55BE733A98A928,,,D:\\!genesis\\library.nu\\2a\\_109623.2aab7a89dc116282da55be733a98a928.pdf,0,2000-01-01 01:00:00,2016-04-03 02:51:08,557000/2aab7a89dc116282da55be733a98a928-g.jpg,,
19577006,A Guide to the HAP Standard: Humanitarian Accountability and Quality Management,,,,Humanitarian Accountability Partnership,2008,Pap/Cdr,,,250,0,English,,,до 2011-01,"085598600X,9780855986001",,,,,,,,,OL11613745M,,0,,,,,1,,1,1226601,pdf,2A6B674F627D2CB8747AEF663BF60DA0,,,D:\\!genesis\\library.nu\\2a\\_109595.2a6b674f627d2cb8747aef663bf60da0.pdf,0,2000-01-01 01:00:00,2016-04-03 02:51:08,557000/2a6b674f627d2cb8747aef663bf60da0-d.jpg,,
19577007,Morality: Religious and Secular: The Dilemma of the Traditional Conscience (Oxford Scholarly Classics),,,,Basil Mitchell,2000,First Edition,,,180,0,English,183,,до 2011-01,"0198245378,9780198245377",,,,,170/.42,BJ1012 .M56,,,OL21704098M,,0,,,,,1,,0,8221544,pdf,2A9E12918356FAB5B60EEC9E29B06162,,,D:\\!genesis\\library.nu\\2a\\_109576.2a9e12918356fab5b60eec9e29b06162.pdf,0,2000-01-01 01:00:00,2016-04-03 02:51:08,557000/2a9e12918356fab5b60eec9e29b06162-d.jpg,,
19577008,Soldiers of the Tsar - Army and Society in Russia 1462-1874,,,,John L. H. Keep,1985,,,,475,0,English,64,,до 2011-01,"019822575X,9780198225751",,,,,306/.27/0947,UA770 .K44 1985,,,OL2779961M,,0,,,,,1,,0,128533700,pdf,2A8010AD0143C336D63066643983813A,,,D:\\!genesis\\library.nu\\2a\\_109118.2a8010ad0143c336d63066643983813a.pdf,0,2000-01-01 01:00:00,2016-04-03 02:51:08,557000/2a8010ad0143c336d63066643983813a-d.jpg,,
19577009,Global Inequality Matters (Global Ethics),,,,Darrel Moellendorf,2009,,,,256,0,English,,,до 2011-01,"0230224571,9780230224575",,,,,305.09,HM821 .M64 2009,,,OL23935917M,,0,,,,,1,,1,44909705,pdf,2AACDCB0283693770C30E2C7E704DC53,,,D:\\!genesis\\library.nu\\2a\\_108652.2aacdcb0283693770c30e2c7e704dc53.pdf,0,2000-01-01 01:00:00,2016-04-03 02:51:08,557000/2aacdcb0283693770c30e2c7e704dc53-d.jpg,,
19577010,"Diverging Time: The Politics of Modernity in Kant, Hegel, and Marx",,,,David Carvounas,2002,,,,136,0,English,192,,до 2011-01,"0739103733,9780739103739,0739103725,9780739103722",,,,,,,,,,,0,,,,,1,,0,8506188,pdf,2AC1C51AD867C7F1654798F6B5EB5367,dccb3109a32ff356a41cad26161e83ba,no,D:/!genesis/library.nu/2a/_108569.2ac1c51ad867c7f1654798f6b5eb5367.pdf,0,2000-01-01 01:00:00,2016-04-03 02:51:08,557000/2ac1c51ad867c7f1654798f6b5eb5367-d.jpg,,
19577011,"La Nef du crépuscule (L'Assassin royal, tome 3)",,,,"Robin Hobb, A. Mousnier-Lompré",2002,,,,413,0,French,,,до 2011-01,"2290316296,9782290316290",,,,,,,,,OL8910914M,,0,,,,,1,,1,2695111,pdf,2A1BC3A8287E28D3C8E91125664F534D,,,D:\\!genesis\\library.nu\\2a\\_108536.2a1bc3a8287e28d3c8e91125664f534d.pdf,0,2000-01-01 01:00:00,2016-04-03 02:51:08,557000/2a1bc3a8287e28d3c8e91125664f534d-d.jpg,,
19577012,Democratic Rights: The Substance of Self-Government,,,,Corey Brettschneider,2007,,,,192,0,English,,,до 2011-01,"0691119708,9780691119700,9781400828104",,,,,,,,,OL22758199M,,0,,,,,1,,1,1526933,pdf,2A04B620B90B2C5109EF17EDA94E1E1A,,,D:\\!genesis\\library.nu\\2a\\_108099.2a04b620b90b2c5109ef17eda94e1e1a.pdf,0,2000-01-01 01:00:00,2016-04-03 02:51:08,557000/2a04b620b90b2c5109ef17eda94e1e1a-d.jpg,,
19577013,"Crusader Castles in Cyprus, Greece and the Aegean 1191-1571 (Fortress 059)",,,,David Nicolle,2007,,,,64,0,English,64,,до 2011-01,"1841769762,9781841769769",,,,,,,,,OL8922870M,,0,,,,,1,,1,29214393,pdf,2AF7E32E194DE06118165274233B477F,,,D:\\!genesis\\library.nu\\2a\\_108047.2af7e32e194de06118165274233b477f.pdf,0,2000-01-01 01:00:00,2016-04-03 02:51:08,557000/2af7e32e194de06118165274233b477f-d.jpg,,
19577014,Genetics of Sexual Differentiation and Sexually Dimorphic Behaviors,,Advances in Genetics 59,,Daisuke Yamamoto (Eds.),2007,1,"Elsevier, Academic Press",,1-274,0,English,178,,до 2011-01,978-0-12-017660-1,0065-2660,,,,571.882,QH431.A1 A3 vol. 59,,,OL21526724M,,0,,,,,1,,1,3787978,pdf,2AEB42E43F6A3A798729332910BBBCEA,,,D:\\!genesis\\library.nu\\2a\\_108041.2aeb42e43f6a3a798729332910bbbcea.pdf,0,2000-01-01 01:00:00,2016-04-03 02:51:08,557000/2aeb42e43f6a3a798729332910bbbcea-d.jpg,,
19577015,Who Knows?: A Study of Religious Consciousness,,,,Raymond M. Smullyan,2003,,,,160,0,English,183,,до 2011-01,"9780253215741,0253215749,0253341981,9780253341983,9780253109682",,,,,,,,,OL9528130M,,0,,,,1,0,,1,460548,pdf,2A2AE79302A7FF8CA8B75AAF43D16992,,,D:\\!genesis\\library.nu\\2a\\_107828.2a2ae79302a7ff8ca8b75aaf43d16992.pdf,0,2000-01-01 01:00:00,2016-04-03 02:51:08,557000/2a2ae79302a7ff8ca8b75aaf43d16992-d.jpg,,
19577016,Weaving the Word: The Metaphorics of Weaving and Female Textual Production,,,,Kathryn Sullivan Kruger,2001,,,,187,0,English,,,до 2011-01,"1575910527,9781575910529,9780585437606",,,,,821.009/355,PR508.W6 K78 2001,,,OL6795678M,,0,,,,,1,,1,908416,pdf,2A8AF2C5F34641B0550F6515393CFEA9,,,D:\\!genesis\\library.nu\\2a\\_107741.2a8af2c5f34641b0550f6515393cfea9.pdf,0,2000-01-01 01:00:00,2016-04-03 02:51:08,557000/2a8af2c5f34641b0550f6515393cfea9-g.jpg,,
19577017,Science at the Crossroads,,,,Herbert Dingle,1972,,,,256,0,English,181,,до 2011-01,"9780856160608,0856160601",,,,,530.1/1,Q175 .D6349,,,OL5318664M,,0,,,,,1,,1,2299959,pdf,2A53835E1D829A8E63F9ADDF4729FAEE,,,D:\\!genesis\\library.nu\\2a\\_107581.2a53835e1d829a8e63f9addf4729faee.pdf,0,2000-01-01 01:00:00,2016-04-03 02:51:08,557000/2a53835e1d829a8e63f9addf4729faee-g.jpg,,
19577018,Parent-Child Interaction Therapy: Second Edition (Issues in Clinical Child Psychology),,,,"Cheryl Bodiford McNeil, Toni L. Hembree-Kigin",2010,2nd ed.,,,487,0,English,305,,до 2011-01,"0387886389,9780387886381",,,,,,,10.1007 978-0-387-88639-8,,OL24437876M,,0,,,,0,0,,1,3145800,pdf,2A5A07F49C2EC71991FEDC2E940BC442,,,D:\\!genesis\\library.nu\\2a\\_106654.2a5a07f49c2ec71991fedc2e940bc442.pdf,0,2000-01-01 01:00:00,2016-04-03 02:51:08,557000/2a5a07f49c2ec71991fedc2e940bc442-d.jpg,,
19577019,Cancel Your Own Goddam Subscription: Notes and Asides from National Review,,,,William F. Buckley Jr.,2009,Reprint,,,295,0,English,,,до 2011-01,"0465002439,9780465002436,9780786744732,0465002420,9780465002429",,B001A5UV4O,,,,,,,OL10277516M,,0,,,,,1,,1,1043500,pdf,2A26D78CA1C83932558CB0DDF535C55A,,,D:\\!genesis\\library.nu\\2a\\_106416.2a26d78ca1c83932558cb0ddf535c55a.pdf,0,2000-01-01 01:00:00,2016-04-03 02:51:08,557000/2a26d78ca1c83932558cb0ddf535c55a-d.jpg,,
19577020,Women and School Leadership: International Perspectives (Suny Series in Women in Education),,Suny Series in Women in Education,,Cecilia Reynolds,2002,,State University of New York Press,,175,0,English,183,,до 2011-01,"0791453111,9780791453117,9780585465586",,,,,,,,,OL11150279M,,0,,,,1,0,,1,1188757,pdf,2A0287481849639897D4EBC4FA51D583,,,D:\\!genesis\\library.nu\\2a\\_106406.2a0287481849639897d4ebc4fa51d583.pdf,0,2000-01-01 01:00:00,2016-04-03 02:51:08,557000/2a0287481849639897d4ebc4fa51d583-d.jpg,,
19577021,"Commas: Teaching students to use commas correctly, without boring them to tears (Teaching the Boring Stuff Series)",,,,Randy Larson,1999,,,,80,0,English,203,,до 2011-01,"1877673382,9781877673382",,,,,,,,,OL8657964M,,0,,,,,1,,1,710145,pdf,2A81A062E2FB52B9506288DF7B624C5C,,,D:\\!genesis\\library.nu\\2a\\_106392.2a81a062e2fb52b9506288df7b624c5c.pdf,0,2000-01-01 01:00:00,2016-04-03 02:51:08,557000/2a81a062e2fb52b9506288df7b624c5c-d.jpg,,
19577022,Witch Hunts in Europe and America: An Encyclopedia,,,,William E. Burns,2003,,,,400,0,English,188,,до 2011-01,"0313321426,9780313321429",,,,,,,,,OL10420150M,,0,,,,,1,,1,30326468,pdf,2A9150D82FCD32A6A1A755E434B32E8D,,,D:\\!genesis\\library.nu\\2a\\_105904.2a9150d82fcd32a6a1a755e434b32e8d.pdf,0,2000-01-01 01:00:00,2016-04-03 02:51:08,557000/2a9150d82fcd32a6a1a755e434b32e8d-d.jpg,,
19577023,The Lord Of Death And The Queen Of Life,,,,Homer Eon Flint,2004,,,,136,0,English,,,до 2011-01,"1419170678,9781419170676",,,,,,,,,OL11793778M,,0,,,,,1,,1,1510365,pdf,2ACAFE53DCDE7286963C8034C2CF48DE,,,D:\\!genesis\\library.nu\\2a\\_10501.2acafe53dcde7286963c8034c2cf48de.pdf,0,2000-01-01 01:00:00,2016-04-03 02:51:08,557000/2acafe53dcde7286963c8034c2cf48de-d.jpg,,
19577024,The Price of Perfection: Individualism and Society in the Era of Biomedical Enhancement,,,,Maxwell J. Mehlman,2009,1,,,320,0,English,18,,до 2011-01,"0801892635,9780801892639",,,,,610,RA418.5.M4 M45 2009,,,OL22514045M,,0,,,,,1,,1,1761199,pdf,2AC7897EA8AA0053AD4233BE83A74F25,,,D:\\!genesis\\library.nu\\2a\\_104384.2ac7897ea8aa0053ad4233be83a74f25.pdf,0,2000-01-01 01:00:00,2016-04-03 02:51:08,557000/2ac7897ea8aa0053ad4233be83a74f25-d.jpg,,
19577025,"Mystic, Geometer, and Intuitionist: The Life of L. E. J. Brouwer: Volume 2: Hope and Disillusion",,,,Dirk van Dalen,2005,,,,517,0,English,,,до 2011-01,"0198516207,9780198516200",,,,,"510/.92,B",QA29.B697 D35 1999,,,OL7400269M,,0,,,,0,0,,1,13454949,pdf,2A9067B5A11ED53AFE95CBCBD81ECCDF,,,D:\\!genesis\\library.nu\\2a\\_103772.2a9067b5a11ed53afe95cbcbd81eccdf.pdf,0,2000-01-01 01:00:00,2016-04-03 02:51:08,557000/2a9067b5a11ed53afe95cbcbd81eccdf-d.jpg,,
19577026,Films cultes et culte du film chez les jeunes : Penser l'adolescence avec le cinéma,,,,"Jocelyn Lachance, Hugues Paris, Sébastien Dupont",,,,,167,0,French,,,до 2011-01,"276378884X,9782763788845",,,,,,,,,,,0,,,,1,0,,1,750678,pdf,2A8DA7712A15E45FDDCDD98AC55962BD,,,D:\\!genesis\\library.nu\\2a\\_103744.2a8da7712a15e45fddcdd98ac55962bd.pdf,0,2000-01-01 01:00:00,2016-04-03 02:51:08,557000/2a8da7712a15e45fddcdd98ac55962bd-g.jpg,,
19577027,Dear Gabriel,,,,Halfdan W. Freihow,2008,,,,192,0,English,,,до 2011-01,"0887842135,9780887842139,1741755581,9781741755589",,,,,,,,,OL8200464M,,0,,,,1,0,,1,670181,pdf,2AA64E2389C56D5AF790A23D8B66B8B5,,,D:\\!genesis\\library.nu\\2a\\_103266.2aa64e2389c56d5af790a23d8b66b8b5.pdf,0,2000-01-01 01:00:00,2016-04-03 02:51:08,557000/2aa64e2389c56d5af790a23d8b66b8b5-d.jpg,,
19577028,India's Financial Markets: An Insider's Guide to How the Markets Work (Elsevier and IIT Stuart Center for Financial Markets Press),,,,"Ajay Shah, Susan Thomas, Michael Gorham",2008,,Elsevier,,259,0,English,305,,до 2011-01,"012374251X,9780123742513",,,,,332.10954,HG187.I4 S53 2008,,,OL16700861M,,0,,,,1,0,,1,1416989,pdf,2A2B1BE1F94098DE5C237F4A3F6A3585,,,D:\\!genesis\\library.nu\\2a\\_102971.2a2b1be1f94098de5c237f4a3f6a3585.pdf,0,2000-01-01 01:00:00,2016-04-03 02:51:08,557000/2a2b1be1f94098de5c237f4a3f6a3585-d.jpg,,
19577029,Programming with Data: A Guide to the S Language,,,,John M. Chambers,1998,Corrected,Springer,,486,0,English,314,,до 2011-01,"0387985034,9780387985039",,,,,519.5/0285/5133,QA76.73.S15 C483 1998,,Km1IBFZCRPUC,OL353386M,,0,,,,1,1,,0,20349693,pdf,2AF39CBD5151477DF7E192327DFF4352,,,D:\\!genesis\\library.nu\\2a\\_102901.2af39cbd5151477df7e192327dff4352.pdf,0,2000-01-01 01:00:00,2016-04-03 02:51:08,557000/2af39cbd5151477df7e192327dff4352-d.jpg,,
19577030,UNIX System Administration: A Beginner's Guide,,,,Steven Maxwell,2002,1st,,,697,0,English,101,,до 2011-01,"0072194863,9780072194869,9780072228335",,,,,,,10.1036/0072228334,,,,0,,,,0,0,,1,7180488,pdf,2ABFC2F1E63DF88714D9E3FE8B2E84C8,48D45059446D001623490F60B65CCC30,no,D:/!genesis/library.nu/2a/_102792.2abfc2f1e63df88714d9e3fe8b2e84c8.pdf,0,2000-01-01 01:00:00,2016-04-03 02:51:08,557000/2abfc2f1e63df88714d9e3fe8b2e84c8-d.jpg,,
19577031,"The Encyclopedia of Angels, 2nd Edition",,,,Rosemary Guiley,2004,2,,,417,0,English,188,,до 2011-01,"0816050236,9780816050239",,,,,202/.15/03,BL477 .G87 2004,,,OL3690514M,,0,,,,0,0,,1,14573600,pdf,2AA82C13DCEC3B9CF3586654AD28D756,,,D:\\!genesis\\library.nu\\2a\\_102086.2aa82c13dcec3b9cf3586654ad28d756.pdf,0,2000-01-01 01:00:00,2016-04-03 02:51:08,557000/2aa82c13dcec3b9cf3586654ad28d756-d.jpg,,
19577032,Education After Dewey,,,,Paul Fairfield,2009,,,,315,0,English,183,,до 2011-01,"1441145869,9781441145864",,,,,370.1,LB14.7 .F33 2009,,,OL23197311M,,0,,,,0,0,,1,2903485,pdf,2A4054FAD4434C55D270CB157F816B2F,,,D:\\!genesis\\library.nu\\2a\\_102002.2a4054fad4434c55d270cb157f816b2f.pdf,0,2000-01-01 01:00:00,2016-04-03 02:51:08,557000/2a4054fad4434c55d270cb157f816b2f-d.jpg,,
19577033,Delete: The Virtue of Forgetting in the Digital Age,,,,Viktor Mayer-Schonberger,2009,,,,250,0,English,,,до 2011-01,"0691138613,9780691138619",,,,,153.1/25,BF371 .M375 2009,10.2139/ssrn.289968.,,OL23217776M,,600,,,,0,1,,1,1477118,djvu,2A3EA1168D046B3343E669CEA38A6F8B,,,D:\\!genesis\\library.nu\\2a\\_102000.2a3ea1168d046b3343e669cea38a6f8b.djvu,0,2000-01-01 01:00:00,2016-04-03 02:51:08,557000/2a3ea1168d046b3343e669cea38a6f8b-d.jpg,,
19577034,Stratagems and Spoils: A Social Anthropology of Politics,,,,F.g. Bailey,2001,,,,271,0,English,192,,до 2011-01,"0813339332,9780813339337,9781429489294",,,,,,,,,OL8024055M,,0,,,,0,1,,1,17083622,pdf,2AA9232CE3E86352F58E3E74D16F99BD,,,D:\\!genesis\\library.nu\\2a\\_101907.2aa9232ce3e86352f58e3e74d16f99bd.pdf,0,2000-01-01 01:00:00,2016-04-03 02:51:08,557000/2aa9232ce3e86352f58e3e74d16f99bd-d.jpg,,
19577035,"Kundenpriorisierung in der Marktbearbeitung : Gestaltung, Erfolgsauswirkungen und Implementierung",,Gabler Edition Wissenschaft; Schriftenreihe des Instituts für Marktorientierte Unternehmensführung Universität Mannheim,,Mathias Droll,2008,,Gabler,Wiesbaden,201,0,German,,usenet,to 2012-06,"3834910333,9783834910332",,,,,,,,,,,0,,,,,,,1,2116405,pdf,e9cea6d348d904cfff7d9e059803d1fc,,,I:\\usenet_ger\\Kundenpriorisierung.in.der.Marktbearbeitung.[Springer].[2008].[q63203].pdf,0,2000-01-01 01:00:00,2016-04-03 02:51:08,883000/e9cea6d348d904cfff7d9e059803d1fc-d.jpg,,
19577036,A Source Book in Chinese Philosophy,,,,Wing-Tsit Chan,1969,,,,883,0,English,195,,до 2011-01,"0691019649,9780691019642,0691071373,9780691071374,9781400811229",,,,,181.11082,B125 .C45,,,OL15054901M,,0,,,,1,1,,1,6549802,pdf,2A55F6375E165FE13BF7CADB68E5C70E,,,D:\\!genesis\\library.nu\\2a\\_101786.2a55f6375e165fe13bf7cadb68e5c70e.pdf,0,2000-01-01 01:00:00,2016-04-03 02:51:08,557000/2a55f6375e165fe13bf7cadb68e5c70e-d.jpg,,
19577037,Cicero on Divination: Book 1 (Clarendon Ancient History Series) (Bk. 1),,Clarendon Ancient History Series,,David Wardle,2006,,Oxford University Press,,482,0,English,64,,до 2011-01,"0199297916,9780199297917",,,,,875/.01,PA6296 .D1513 2006,,,OL17904741M,,0,,,,0,0,,1,1474732,pdf,2A2D8D33063E4163C58512289A4CF147,,,D:\\!genesis\\library.nu\\2a\\_101770.2a2d8d33063e4163c58512289a4cf147.pdf,0,2000-01-01 01:00:00,2016-04-03 02:51:08,557000/2a2d8d33063e4163c58512289a4cf147-d.jpg,,
19577038,Donald Davidson's Philosophy of Language – An Introduction,,,,Bjørn T. Ramberg,1991,1,,,156,0,English,314,,до 2011-01,"0631164588,9780631164586",,,,,121/.68,P85.D38 R35 1989,,,OL2056484M,,400,,,,0,1,,1,1011039,djvu,2AD4E1987DD2738C44BD6BAC78994D74,,,D:\\!genesis\\library.nu\\2a\\_101729.2ad4e1987dd2738c44bd6bac78994d74.djvu,0,2000-01-01 01:00:00,2016-04-03 02:51:08,557000/2ad4e1987dd2738c44bd6bac78994d74-d.jpg,,
19577039,Aristotle: Parts of Animals. Movement of Animals. Progression of Animals (Loeb Classical Library No. 323),,,,Aristotle,1937,Revised,,,580,0,English,23,,до 2011-01,"0674993578,9780674993570",,,,,,,,,OL7694119M,,0,,,,0,1,,1,16249208,pdf,2A3212562F413C1379A6FAE08CC6AAF7,,,D:\\!genesis\\library.nu\\2a\\_101512.2a3212562f413c1379a6fae08cc6aaf7.pdf,0,2000-01-01 01:00:00,2016-04-03 02:51:08,557000/2a3212562f413c1379a6fae08cc6aaf7-d.jpg,,
19577040,Canon EOS Digital Rebel XSi/450D,,Focal Digital Camera Guides,,Christopher Grey,2008,,Focal Press,,259,0,English,,,до 2011-01,"024081066X,9780240810669",,,,,771.3/3,TR263.C3 G76 2008,,,,,0,,,,0,0,,1,28594907,pdf,2AE3040A936F8A0BC555FBB0A3D7F8AC,,,D:/!genesis/library.nu/2a/_101460.2ae3040a936f8a0bc555fbb0a3d7f8ac.pdf,0,2000-01-01 01:00:00,2016-04-03 02:51:08,557000/2ae3040a936f8a0bc555fbb0a3d7f8ac-d.jpg,,
19577041,Spip 2 : Premiers pas pour créer son site web,,,,"Anne-Laure Quatravaux, Dominique Quatravaux",,,,,388,0,French,100,,до 2011-01,"221212502X,9782212125023,9782212852431",,,,,,,,,,,0,,,,1,0,,1,10878245,pdf,2AF8D8BB5306E74A0B14D2DBFED8C09E,,,D:\\!genesis\\library.nu\\2a\\_101344.2af8d8bb5306e74a0b14d2dbfed8c09e.pdf,0,2000-01-01 01:00:00,2016-04-03 02:51:08,557000/2af8d8bb5306e74a0b14d2dbfed8c09e-d.jpg,,
19577042,"Where Strangers Become Neighbours: Integrating Immigrants in Vancouver, Canada (Urban and Landscape Perspectives)",,,,"Leonie Sandercock, Giovanni Attili",2009,1,,,317,0,English,,,до 2011-01,"140209034X,9781402090349",,,,,,,,,,,0,,,,1,0,,1,102859801,pdf,2A4FAD5A0802CD6CD597209E0795F33C,,,D:\\!genesis\\library.nu\\2a\\_100098.2a4fad5a0802cd6cd597209e0795f33c.pdf,0,2000-01-01 01:00:00,2016-04-03 02:51:08,557000/2a4fad5a0802cd6cd597209e0795f33c-d.jpg,,
19577043,"Writing, Performance, and Authority in Augustan Rome",,,,Michele Lowrie,2009,,,,440,0,English,,,до 2011-01,"0199545677,9780199545674",,,,,871.01,PA6047 .L69 2009,,,OL24028636M,,0,,,,1,0,,1,3407442,pdf,2944DF3DDD146A220E0B02314BCA4EC4,,,D:\\!genesis\\library.nu\\29\\_99926.2944df3ddd146a220e0b02314bca4ec4.pdf,0,2000-01-01 01:00:00,2016-04-03 02:51:08,557000/2944df3ddd146a220e0b02314bca4ec4-d.jpg,,
19577044,Theory of Categories,,,,"Nicolae Popescu, Liliana Popescu",1979,1,,,347,0,English,,,до 2011-01,"9789028601680,9028601686",,,,,,,,,OL9410173M,,300,,,,0,1,,0,2915754,djvu,29F43B39201233467A2FFC00E2ECE5A9,7fb82cb60ca738b2bd9dfa8000d7ded1,no,D:\\!genesis\\library.nu\\29\\_99577.29f43b39201233467a2ffc00e2ece5a9.djvu,0,2000-01-01 01:00:00,2016-04-03 02:51:08,557000/29f43b39201233467a2ffc00e2ece5a9-g.jpg,,
19577045,Studying Children: A Cultural-Historical Approach,,,,"Marianne Hedegaard, Marilyn Fleer",2008,1,,,232,0,English,64,,до 2011-01,"033523478X,9780335234783,0335234798,9780335234790,9780335237586",,,,,,,,,,,0,,,,,1,,1,1435241,pdf,2945C0C6BE769037B2CCF0B5FCB77314,,,D:\\!genesis\\library.nu\\29\\_99248.2945c0c6be769037b2ccf0b5fcb77314.pdf,0,2000-01-01 01:00:00,2016-04-03 02:51:08,557000/2945c0c6be769037b2ccf0b5fcb77314-d.jpg,,
19577046,How to Use a Short Sale to Stop Home Foreclosure and Protect Your Finances,,,,Robert Irwin,2009,1,,,208,0,English,305,,до 2011-01,"0071635580,9780071635585",,,,,333.33/83,HD259 .I787 2009,,,OL23202351M,,0,,,,,1,,1,1317474,pdf,290A4CB966BA91E954D6560E2E73734B,,,D:\\!genesis\\library.nu\\29\\_98201.290a4cb966ba91e954d6560e2e73734b.pdf,0,2000-01-01 01:00:00,2016-04-03 02:51:08,557000/290a4cb966ba91e954d6560e2e73734b-d.jpg,,
19577047,Chiefdoms and Other Archaeological Delusions (Issues in Eastern Woodlands Archaeology),,,,Timothy R. Pauketat,2007,,,,270,0,English,130,,до 2011-01,"9780759108295,0759108293,0759108285,9780759108288",,,,,,,,,OL22756004M,,0,,,,,1,,1,3202876,pdf,291A21B772E0AC1950FA20B7780F5EE4,,,D:\\!genesis\\library.nu\\29\\_98017.291a21b772e0ac1950fa20b7780f5ee4.pdf,0,2000-01-01 01:00:00,2016-04-03 02:51:08,557000/291a21b772e0ac1950fa20b7780f5ee4-d.jpg,,
19577048,The Excellence of Play Second Edition,,,,Janet Moyles,2005,2,Open University Press,,319,0,English,305,,до 2011-01,"0335217575,9780335217571,9780335226566",,,,,,,,,OL9571438M,,0,,,,1,0,,1,2510787,pdf,298BED8CF5D425D18562ECF43CF9D767,,,D:\\!genesis\\library.nu\\29\\_9625.298bed8cf5d425d18562ecf43cf9d767.pdf,0,2000-01-01 01:00:00,2016-04-03 02:51:08,557000/298bed8cf5d425d18562ecf43cf9d767-d.jpg,,
19577049,"The Arsenic Century: How Victorian Britain was Poisoned at Home, Work, and Play",,,,James C. Whorton,2010,1,,,464,0,English,,,до 2011-01,"0199574707,9780199574704",,,,,669.75094109034,RA1231.A7 W46 2010,,,OL24492139M,,0,,,,,1,,1,2462881,pdf,2937AB36DF75B3780E5457F05D343878,,,D:\\!genesis\\library.nu\\29\\_95881.2937ab36df75b3780e5457f05d343878.pdf,0,2000-01-01 01:00:00,2016-04-03 02:51:08,557000/2937ab36df75b3780e5457f05d343878-d.jpg,,
19577050,"Unlocking Your Creative Power: How to Use Your Imagination to Brighten Life, to Get Ahead",,,,Alex Osborn,2009,abridged edition,,,64,0,English,,,до 2011-01,"0761847006,9780761847007",,,,,,,,,,,0,,,,,1,,1,318682,pdf,29787420BFEA2BCB50227F2342BCB6E8,,,D:\\!genesis\\library.nu\\29\\_95700.29787420bfea2bcb50227f2342bcb6e8.pdf,0,2000-01-01 01:00:00,2016-04-03 02:51:08,557000/29787420bfea2bcb50227f2342bcb6e8-d.jpg,,
19577051,Cobra Bargain,,,,Timothy  Zahn,1988,First Edition,,,296,0,English,,,до 2011-01,"0671653830,9780671653835",,,,,,,,,OL24501492M,,0,,,,,1,,1,859251,pdf,29B5AA674C32986180B0E494FF886436,,,D:\\!genesis\\library.nu\\29\\_94098.29b5aa674c32986180b0e494ff886436.pdf,0,2000-01-01 01:00:00,2016-04-03 02:51:08,557000/29b5aa674c32986180b0e494ff886436-d.jpg,,
19577052,Fairness in Bargaining and Markets (Lecture Notes in Economics and Mathematical Systems),,Lecture Notes in Economics and Mathematical Systems 627,,Christian Korth,2009,1st Edition.,,,180,0,English,305,,до 2011-01,"3642022529,9783642022524",,,,,,,10.1007/978-3-642-02253-1,,,,0,,,,0,0,,1,7190705,pdf,2913EBC9862BB27FA1A577FA55AF6622,,,D:\\!genesis\\library.nu\\29\\_93563.2913ebc9862bb27fa1a577fa55af6622.pdf,0,2000-01-01 01:00:00,2016-04-03 02:51:08,557000/2913ebc9862bb27fa1a577fa55af6622-d.jpg,,
19577053,The Legacies of Richard Popkin (International Archives of the History of Ideas   Archives internationales d'histoire des idées),,,,Jeremy D. Popkin,2008,1,,,320,0,English,64,,до 2011-01,"9781402084737,1402084730",,,,,,,,,,,0,,,,,1,,1,2046085,pdf,296EA357A0DE6E2D789080AFF266E240,,,D:\\!genesis\\library.nu\\29\\_9138.296ea357a0de6e2d789080aff266e240.pdf,0,2000-01-01 01:00:00,2016-04-03 02:51:08,557000/296ea357a0de6e2d789080aff266e240-d.jpg,,
19577054,"Asian Firms: History, Institutions, and Management",,,,Frank B. Tipton,2007,,,,419,0,English,64,,до 2011-01,"184064334X,9781840643343,9781847207197",,,,,338.095,HD70.A7 T57 2007,,,OL12563613M,,0,,,,,1,,1,1579111,pdf,29487A05AD79A2771172CFE0AC7516A0,,,D:\\!genesis\\library.nu\\29\\_9104.29487a05ad79a2771172cfe0ac7516a0.pdf,0,2000-01-01 01:00:00,2016-04-03 02:51:08,557000/29487a05ad79a2771172cfe0ac7516a0-d.jpg,,
19577055,,,Advances in Agronomy 53,,Donald L. Sparks (Eds.),1994,,"Elsevier, Academic Press",,"ii-ix, 1-193",0,English,178,,до 2011-01,978-0-12-000753-0,0065-2113,,,,,,,,OL21117628M,,0,,,,,1,,1,11247105,pdf,293E8680DBC74326E2348E890DD76FA9,,,D:\\!genesis\\library.nu\\29\\_90485.293e8680dbc74326e2348e890dd76fa9.pdf,0,2000-01-01 01:00:00,2016-04-03 02:51:08,557000/293e8680dbc74326e2348e890dd76fa9-d.jpg,,
19577056,Webster's New World 575+ German Verbs (Webster's New World),,,,Edward Swick,2006,1,,,720,0,German,100,,до 2011-01,"0764599151,9780764599156,9780471792819",,,,,438.2/421,PF3271 .S933 2006,,,OL24252650M,,0,,,,,1,,1,3962598,pdf,29F2B1F3C766A4C1EFEA5DD291ED28B9,,,D:\\!genesis\\library.nu\\29\\_9000.29f2b1f3c766a4c1efea5dd291ed28b9.pdf,0,2000-01-01 01:00:00,2016-04-03 02:51:08,557000/29f2b1f3c766a4c1efea5dd291ed28b9-d.jpg,,
19577057,Discount Voting: Voter Registration Reforms and their Effects,,,,Michael J. Hanmer,2009,,,,266,0,English,,,до 2011-01,"0521112656,9780521112659",,,,,324.6/40973,JK2160 .H36 2009,,,OL23187108M,,0,,,,1,0,,1,1440806,pdf,299F7FADF47387E663C65F5167891D9E,,,D:\\!genesis\\library.nu\\29\\_84.299f7fadf47387e663c65f5167891d9e.pdf,0,2000-01-01 01:00:00,2016-04-03 02:51:08,557000/299f7fadf47387e663c65f5167891d9e-d.jpg,,
19577058,Sony Alpha DSLR-A200 Digital Field Guide,,,,Alan Hess,2008,1,,,288,0,English,,,до 2011-01,"0470379154,9780470379158",,,,,,,,,,,0,,,,,1,,1,20090889,pdf,29A24AB1ABAE0B40F299D98917D144D6,,,D:\\!genesis\\library.nu\\29\\_83349.29a24ab1abae0b40f299d98917d144d6.pdf,0,2000-01-01 01:00:00,2016-04-03 02:51:08,557000/29a24ab1abae0b40f299d98917d144d6-d.jpg,,
19577059,"Agents of the Welfare State: How Caseworkers Respond to Need in the United States, Germany, and Sweden",,,,Christopher J. Jewell,2007,First Edition,,,264,0,English,65,,до 2011-01,"1403984115,9781403984111,9780230607255",,,,,,,,,OL11642930M,,0,,,,1,0,,1,1187248,pdf,29A01468CAA4314AD7F627105369E44E,,,D:\\!genesis\\library.nu\\29\\_80584.29a01468caa4314ad7f627105369e44e.pdf,0,2000-01-01 01:00:00,2016-04-03 02:51:08,557000/29a01468caa4314ad7f627105369e44e-d.jpg,,
19577060,World Society and the Middle East: Reconstructions in Regional Politics (Rethinking Peace and Conflict Studies),,,,"Stephan Stetter, Oliver P. Richmond",2008,,,,256,0,English,236,,до 2011-01,"140399577X,9781403995773,9780230227514",,,,,320.956,JQ1758.A58 S74 2008,,,OL16776027M,,0,,,,1,0,,1,1006861,pdf,296B78DACA790F7AA258B66A8C112611,,,D:\\!genesis\\library.nu\\29\\_80492.296b78daca790f7aa258b66a8c112611.pdf,0,2000-01-01 01:00:00,2016-04-03 02:51:08,557000/296b78daca790f7aa258b66a8c112611-d.jpg,,
19577061,"Power, Interest, and Identity in Military Alliances",,,,Jae-Jung Suh,2007,1st,,,304,0,English,67,,до 2011-01,"1403979286,9781403979285",,,,,,,,,OL22758482M,,0,,,,1,0,,1,1151003,pdf,292737519F07789EB41806EC83E0702F,,,D:\\!genesis\\library.nu\\29\\_80285.292737519f07789eb41806ec83e0702f.pdf,0,2000-01-01 01:00:00,2016-04-03 02:51:08,557000/292737519f07789eb41806ec83e0702f-d.jpg,,
19577062,"Travel Writing and Ireland, 1760-1860: Culture, History, Politics",,,,Glenn Hooper,2005,,,,240,0,English,64,,до 2011-01,"1403942862,9781403942869,9780230510814",,,,,914.1504/7,DA969 .H66 2005,,,OL22709047M,,0,,,,1,0,1,1,1717250,pdf,29DAE2F96C398B195AE716848D616364,,,D:\\!genesis\\library.nu\\29\\_79248.29dae2f96c398b195ae716848d616364.pdf,0,2000-01-01 01:00:00,2016-04-03 02:51:08,557000/29dae2f96c398b195ae716848d616364-d.jpg,,
19577063,Advertising as Multilingual Communication,,,,Helen Kelly-Holmes,2005,,,,240,0,English,5,,до 2011-01,"1403917256,9781403917256,9780230503014",,,,,,,,,OL8399273M,,0,,,,1,0,,1,791840,pdf,29A66D48D7346D27C5E9C02A50572E3A,,,D:\\!genesis\\library.nu\\29\\_79160.29a66d48d7346d27c5e9c02a50572e3a.pdf,0,2000-01-01 01:00:00,2016-04-03 02:51:08,557000/29a66d48d7346d27c5e9c02a50572e3a-d.jpg,,
19577064,Fourteenth Century England IV (v. 4),,,,J. S. Hamilton,2006,,,,204,0,English,,,до 2011-01,"1843832208,9781843832201,9781846154669",,,,,,,,,OL22733088M,,0,,,,,1,,1,2695268,pdf,29CFB09952DD423CF3E359F8AB2F0E70,,,D:\\!genesis\\library.nu\\29\\_76356.29cfb09952dd423cf3e359f8ab2f0e70.pdf,0,2000-01-01 01:00:00,2016-04-03 02:51:08,557000/29cfb09952dd423cf3e359f8ab2f0e70-d.jpg,,
19577065,The Brooklyn Cyclones: Hardball Dreams and the New Coney Island,,,,Ben Osborne,2004,,,,208,0,English,,,до 2011-01,"0814762050,9780814762059,9781417588343",,,,,,,,,OL8045687M,,0,,,,,1,,1,902190,pdf,29CFD968913046F41905AD5496665A35,,,D:\\!genesis\\library.nu\\29\\_75988.29cfd968913046f41905ad5496665a35.pdf,0,2000-01-01 01:00:00,2016-04-03 02:51:08,557000/29cfd968913046f41905ad5496665a35-d.jpg,,
19577066,Gullivers Reisen,,,,Jonathan Swift,1999,,,,388,0,German,,,до 2011-01,"3538068283,9783538068285",,,,,,,,,OL12770353M,,0,,,,,1,,1,906161,pdf,2954183B2514B1E7094C0548BF984640,,,D:\\!genesis\\library.nu\\29\\_75916.2954183b2514b1e7094c0548bf984640.pdf,0,2000-01-01 01:00:00,2016-04-03 02:51:08,557000/2954183b2514b1e7094c0548bf984640-d.jpg,,
19577067,Character Counts : The Creation and Building of the Vanguard Group,,,,John C. Bogle,2002,1,,,304,0,English,114,,до 2011-01,"9780071391153,9780071418126,0071391150",,,,,,,10.1036/0071418121,,OL24285994M,,0,,,,,1,,1,1960348,pdf,29DAE8FAB648A360B7AD2C3ED13D8F83,,,D:\\!genesis\\library.nu\\29\\_75629.29dae8fab648a360b7ad2c3ed13d8f83.pdf,0,2000-01-01 01:00:00,2016-04-03 02:51:08,557000/29dae8fab648a360b7ad2c3ed13d8f83-d.jpg,,
19577068,"Moore's Paradox: New Essays on Belief, Rationality, and the First Person",,,,"Mitchell S. Green, John N. Williams",2007,,,,272,0,English,,,до 2011-01,"019928279X,9780199282791,9781429469814",,,,,,,,,OL17213917M,,0,,,,,1,,1,1657097,pdf,2937ABD64235B0F5979722D04BF9AB80,,,D:\\!genesis\\library.nu\\29\\_7560.2937abd64235b0f5979722d04bf9ab80.pdf,0,2000-01-01 01:00:00,2016-04-03 02:51:08,557000/2937abd64235b0f5979722d04bf9ab80-d.jpg,,
19577069,"Fretting Fatigue: Current Technology and Practices (ASTM Special Technical Publication, 1367)",,,,"David W. Hoeppner, V. Chandrasekaran, and Charles B. Elliott III, editors",2000,,,,552,0,English,,,до 2011-01,"0803128517,9780803128514",,,,,,,,,OL9714832M,,0,,,,,1,,1,12864974,pdf,29DBDB49A1DE8B6FFD288FAA925473A9,,,D:\\!genesis\\library.nu\\29\\_7525.29dbdb49a1de8b6ffd288faa925473a9.pdf,0,2000-01-01 01:00:00,2016-04-03 02:51:08,557000/29dbdb49a1de8b6ffd288faa925473a9-d.jpg,,
19577070,Forensic Science Volume 3 (Napoleon's death - Y chromosome analysis),,,,Ayn Embar-seddon,2008,,,,388,0,English,,,до 2011-01,"9781587654268,1587654261",,,,,363.25,HV8073 .F5837 2009,,,OL16991291M,,0,,,,1,0,,1,7392188,pdf,29EC8158A880CE60EE7AF536810FA9D0,,,D:\\!genesis\\library.nu\\29\\_74938.29ec8158a880ce60ee7af536810fa9d0.pdf,0,2000-01-01 01:00:00,2016-04-03 02:51:08,557000/29ec8158a880ce60ee7af536810fa9d0-g.jpg,,
19577071,Handbook of South American Archaeology,,,,"Helaine Silverman, William Isbell",2008,1,Springer,,1161,0,English,66,,до 2011-01,"0387749063,9780387749068,0387752285,9780387752280",,,,,,,10.1007/978-0-387-79407-5,yZr-lxQgJiAC,OL23159027M,,0,,,,0,0,,1,56419374,pdf,29FD3FD4285D4DE33EEFE038A0303C34,,,D:\\!genesis\\library.nu\\29\\_74557.29fd3fd4285d4de33eefe038a0303c34.pdf,0,2000-01-01 01:00:00,2016-04-03 02:51:08,557000/29fd3fd4285d4de33eefe038a0303c34-d.jpg,,
19577072,"The Earth's Magnetic Field: Its History, Origin and Planetary Perspective",,International Geophysics 32,,Ronald T. Merrill and Michael W. McElhinny (Eds.),1983,,"Elsevier, Academic Press",,"iii-vii, 1-133, 135",0,English,64,,до 2011-01,"0124912400,9780124912403",0074-6142,,,,538/.7,QC816 .M47 1983,,,OL22040827M,,0,,,,,1,,1,20343199,pdf,29E762863392531D8E732CCB8EB4BF21,,,D:\\!genesis\\library.nu\\29\\_74555.29e762863392531d8e732ccb8eb4bf21.pdf,0,2000-01-01 01:00:00,2016-04-03 02:51:08,557000/29e762863392531d8e732ccb8eb4bf21-g.jpg,,
19577073,Advances in Fuzzy Object-Oriented Databases: Modeling and Applications,,,,Zongmin Ma (Editor),2004,,,,354,0,English,178,,до 2011-01,"1591403847,9781591403845,9781591403869",,,,,,,,,OL18221824M,,0,,,,,0,,1,3756881,pdf,292C2E7F05895592AE348BD9F3B9CFA5,,,D:\\!genesis\\library.nu\\29\\_74408.292c2e7f05895592ae348bd9f3b9cfa5.pdf,0,2000-01-01 01:00:00,2016-04-03 02:51:08,557000/292c2e7f05895592ae348bd9f3b9cfa5-d.jpg,,
19577074,"Producing for TV and New Media, Second Edition: A Real-World Approach for Producers",,,,Cathrine Kellison,2008,2,,,344,0,English,305,,до 2011-01,"0240810872,9780240810874",,,,,791.4502/32,PN1992.75 .K38 2009,,,OL16911666M,,0,,,,,0,,1,2958813,pdf,29D969A3E2F1B87CD5D034F8AD65DFC9,,,D:\\!genesis\\library.nu\\29\\_74381.29d969a3e2f1b87cd5d034f8ad65dfc9.pdf,0,2000-01-01 01:00:00,2016-04-03 02:51:08,557000/29d969a3e2f1b87cd5d034f8ad65dfc9-d.jpg,,
19577075,"Small Business Clustering Technologies: Applications in Marketing, Management, IT and Economics",,,,"Robert C. Macgregor, Ann T. Hodgkinson",2006,1,,,332,0,English,305,,до 2011-01,"9781599041261,9781599041278,159904126X,1599041278,9781599041285",,,,,,,,,OL12498860M,,0,,,,,0,,1,6014809,pdf,29269400A26057E3D55245732F00B599,,,D:\\!genesis\\library.nu\\29\\_74374.29269400a26057e3d55245732f00b599.pdf,0,2000-01-01 01:00:00,2016-04-03 02:51:08,557000/29269400a26057e3d55245732f00b599-d.jpg,,
19577076,Producing Video Podcasts: A Guide for Media Professionals,,,,"Richard Harrington, Mark Weiser",2008,,,,256,0,English,,,до 2011-01,"0240810295,9780240810294,9780080569673",,,,,,,,,OL10201028M,,0,,,,,0,,1,19240618,pdf,29BFAA5E510EF80DC541948C40FAE53D,,,D:\\!genesis\\library.nu\\29\\_74308.29bfaa5e510ef80dc541948c40fae53d.pdf,0,2000-01-01 01:00:00,2016-04-03 02:51:08,557000/29bfaa5e510ef80dc541948c40fae53d-d.jpg,,
19577077,The Filmmaker's Guide to Final Cut Pro Workflow,,,,Dale Angell,2007,,,,267,0,English,,,до 2011-01,"0240809866,9780240809861,9780080551630",,,,,778.5/350285,TR899 .A584 2008,,,OL10201017M,,0,,,,1,0,,1,9962195,pdf,296B8BF35FA93FB2382EF1A6BD9D6055,,,D:\\!genesis\\library.nu\\29\\_74149.296b8bf35fa93fb2382ef1a6bd9d6055.pdf,0,2000-01-01 01:00:00,2016-04-03 02:51:08,557000/296b8bf35fa93fb2382ef1a6bd9d6055-d.jpg,,
19577078,Audio Wiring Guide: How to wire the most popular audio and video connectors,,,,John Hechtman,2008,,,,336,0,English,,,до 2011-01,"0240520068,9780240520063,9780080887920",,,,,,,,,OL10200892M,,0,,,,,0,,1,17232984,pdf,29DF8E522CAA2D926277C5584C0616CA,,,D:\\!genesis\\library.nu\\29\\_73974.29df8e522caa2d926277c5584c0616ca.pdf,0,2000-01-01 01:00:00,2016-04-03 02:51:08,557000/29df8e522caa2d926277c5584c0616ca-d.jpg,,
19577079,Painter IX Creativity: Digital Artists Handbook,,,,Jeremy Sutton,2005,,,,480,0,English,59,,до 2011-01,"0240806697,9780240806693,9780080456539",,,,,,,,SZguk5MwfJEC,OL9557520M,,0,,,,,0,,1,23509952,pdf,2928751E4AD755F2340643692FEF5EE1,,,D:\\!genesis\\library.nu\\29\\_73937.2928751e4ad755f2340643692fef5ee1.pdf,0,2000-01-01 01:00:00,2016-04-03 02:51:08,557000/2928751e4ad755f2340643692fef5ee1-d.jpg,,
19577080,"Guide to Postproduction for TV and Film: Managing the Process, Second Edition",,,,"Barbara Clark, Susan Spohr",2002,2,,,355,0,English,305,,до 2011-01,"9780080491387,9780240805061,0240805062",,,,,,,,,OL9828397M,,0,,,,,0,,1,2637080,pdf,29DD86CD4C732BADC645BD7E950AFD55,,,D:\\!genesis\\library.nu\\29\\_73922.29dd86cd4c732badc645bd7e950afd55.pdf,0,2000-01-01 01:00:00,2016-04-03 02:51:08,557000/29dd86cd4c732badc645bd7e950afd55-d.jpg,,
19577081,"Realism, Mathematics, and Modality",,,,Hartry Field,1991,,,,295,0,English,113,,до 2011-01,"0631180877,9780631180876",,,,,510/.1,QA8.6 .F54 1991,,,OL1536755M,,800,,,,,1,,1,3158395,djvu,297AD846E38A05495EC5F5F6C0A415E7,,,D:\\!genesis\\library.nu\\29\\_73846.297ad846e38a05495ec5f5f6c0a415e7.djvu,0,2000-01-01 01:00:00,2016-04-03 02:51:08,557000/297ad846e38a05495ec5f5f6c0a415e7-g.jpg,,
19577082,Kierkegaard and the Treachery of Love (Cambridge Studies in Religion and Critical Thought),,,,Amy Laura Hall,2002,,,,236,0,English,183,,до 2011-01,"0521893119,9780521893114,0521809134,9780521809139,9780511042034",,,,,,,,,OL7755182M,,0,,,,,1,,1,2481075,pdf,292FF05EF79273C8FCF7BCB905DE60D4,,,D:\\!genesis\\library.nu\\29\\_7380.292ff05ef79273c8fcf7bcb905de60d4.pdf,0,2000-01-01 01:00:00,2016-04-03 02:51:08,557000/292ff05ef79273c8fcf7bcb905de60d4-d.jpg,,
19577083,How to Organize And Run a Failure Investigation,,,,Daniel P. Dennies,2005,1,,,223,0,English,,,до 2011-01,"0871708116,9780871708113",,,,,,,10.1361/h0rf2005p001,,OL8349537M,,0,,,,,1,,1,3641248,pdf,29D5A148588F5D77A919F5870FB63D81,,,D:\\!genesis\\library.nu\\29\\_73605.29d5a148588f5d77a919f5870fb63d81.pdf,0,2000-01-01 01:00:00,2016-04-03 02:51:08,557000/29d5a148588f5d77a919f5870fb63d81-d.jpg,,
19577084,I Could Tell You But Then You Would Have to be Destroyed by Me: Emblems from the Pentagon's Black World,,,,Trevor Paglen,2008,,,,136,0,English,,,до 2011-01,"1933633328,9781933633329",,,,,,,,,OL12338972M,,0,,,,,1,,0,81463022,pdf,297D8462EE68840E5F3DCBA07CA01EFB,,,D:\\!genesis\\library.nu\\29\\_73569.297d8462ee68840e5f3dcba07ca01efb.pdf,0,2000-01-01 01:00:00,2016-04-03 02:51:08,557000/297d8462ee68840e5f3dcba07ca01efb-d.jpg,,
19577085,Interpretations of Legal History,,,,Roscoe Pound,1923,,,,186,0,English,64,,до 2011-01,,,B0017DTPAA,,,,,,,,,0,,,,,1,,0,8150065,pdf,29149F360AA1CA9AC7F3F2D3C9B8B251,,,D:\\!genesis\\library.nu\\29\\_73533.29149f360aa1ca9ac7f3f2d3c9b8b251.pdf,0,2000-01-01 01:00:00,2016-04-03 02:51:08,557000/29149f360aa1ca9ac7f3f2d3c9b8b251-g.jpg,,
19577086,Handbook of Small Animal Spinal Surgery,,,,N. D. Jeffery,1995,1st,,,236,0,English,23,,до 2011-01,"0702016888,9780702016882",,,,,,,,,OL11189599M,,0,,,,,1,,0,27948125,pdf,29CBA7B07E44EBBACCD8A306D93E3483,,,D:\\!genesis\\library.nu\\29\\_73138.29cba7b07e44ebbaccd8a306d93e3483.pdf,0,2000-01-01 01:00:00,2016-04-03 02:51:08,557000/29cba7b07e44ebbaccd8a306d93e3483-g.jpg,,
19577087,"Topics in Stereochemistry, Volume 14",,,,ALLINGER,1983,,,,330,0,English,296,,до 2011-01,"0471898589,9780471898580",,,,,,,,,OL9517083M,,0,,,,1,1,,1,12576821,pdf,29B410A625DF54CF45955F4835081B67,,,D:\\!genesis\\library.nu\\29\\_72829.29b410a625df54cf45955f4835081b67.pdf,0,2000-01-01 01:00:00,2016-04-03 02:51:08,557000/29b410a625df54cf45955f4835081b67-g.jpg,,
19577088,Perioperative Care of the Child: A Nursing Manual,,,,Linda Shields,2010,1,,,290,0,English,,,до 2011-01,"1405155957,9781405155953",,,,,617.9/8,RD137 .P47 2010,,,OL23397521M,,0,,,,,1,,1,2025661,pdf,29A77AC8FD5229E31A063287EA9C0C4F,,,D:\\!genesis\\library.nu\\29\\_72654.29a77ac8fd5229e31a063287ea9c0c4f.pdf,0,2000-01-01 01:00:00,2016-04-03 02:51:08,557000/29a77ac8fd5229e31a063287ea9c0c4f-d.jpg,,
19577089,Teaching in America: The Slow Revolution,,,,"Gerald Grant, Christine E. Murray",1999,,,,288,0,English,203,,до 2011-01,"0674869613,9780674869615,0674007980,9780674007987",,,,,371.1/00973,LB1775.2 .G73 1999,,,OL376311M,,0,,,,1,0,,1,1196389,pdf,294402BA5C6B3BAA7CDA4BDAC7517BBD,,,D:\\!genesis\\library.nu\\29\\_72484.294402ba5c6b3baa7cda4bdac7517bbd.pdf,0,2000-01-01 01:00:00,2016-04-03 02:51:08,557000/294402ba5c6b3baa7cda4bdac7517bbd-d.jpg,,
19577090,Solutions Manual for Recursive Methods in Economic Dynamics,,,,"Claudio Irigoyen, Esteban Rossi-Hansberg, Mark L. J. Wright",2003,,,,304,0,English,305,,до 2011-01,"067400888X,9780674008885",,,,,330.0151,HB145 .I75 2002,,,OL3704809M,,0,,,,1,0,,1,1153871,pdf,2940BE19D9A3CF0C4C9B762F8DDC9B54,,,D:\\!genesis\\library.nu\\29\\_72452.2940be19d9a3cf0c4c9b762f8ddc9b54.pdf,0,2000-01-01 01:00:00,2016-04-03 02:51:08,557000/2940be19d9a3cf0c4c9b762f8ddc9b54-d.jpg,,
19577091,Flavius Josephus and Flavian Rome,,,,"Jonathan Edmondson, Steve Mason, James Rives",2005,,,,416,0,English,,,до 2011-01,"0199262128,9780199262120,9781435622630",,,,,937/.6,DS115.9.J6 F53 2005,,,OL17930480M,,0,,,,,1,,1,5025982,pdf,2970A2DF45CBCD167064D57B40F1F287,,,D:\\!genesis\\library.nu\\29\\_72061.2970a2df45cbcd167064d57b40f1f287.pdf,0,2000-01-01 01:00:00,2016-04-03 02:51:08,557000/2970a2df45cbcd167064d57b40f1f287-d.jpg,,
19577092,Russia's Unknown Agriculture: Household Production in Post-Socialist Rural Russia (Oxford Geographical and Environmental Studies Series),,,,"Judith Pallot, Tat'yana Nefedova",2007,First Edition,,,272,0,English,183,,до 2011-01,"0199227411,9780199227419,9781435618084",,,,,338.10947,HD1476.R8 P35 2007,,,OL10145968M,,0,,,,,1,,1,5585943,pdf,293B3770BE9B0BD933B12A17ADF655C3,,,D:\\!genesis\\library.nu\\29\\_72052.293b3770be9b0bd933b12a17adf655c3.pdf,0,2000-01-01 01:00:00,2016-04-03 02:51:08,557000/293b3770be9b0bd933b12a17adf655c3-d.jpg,,
19577093,Areal Diffusion and Genetic Inheritance: Problems in Comparative Linguistics (Oxford Linguistics),,,,"Alexandra Y. Aikhenvald, R. M. W. Dixon",2002,,,,472,0,English,183,,до 2011-01,"9780198299813,0198299818,0199283087,9780199283088,9780191515750",,,,,410,P143 .A74 2001,,,OL3948050M,,0,,,,,1,,1,27302448,pdf,295233C9B454449BF0432FE01D35574F,,,D:\\!genesis\\library.nu\\29\\_71955.295233c9b454449bf0432fe01d35574f.pdf,0,2000-01-01 01:00:00,2016-04-03 02:51:08,557000/295233c9b454449bf0432fe01d35574f-d.jpg,,
19577094,"The Birds of Northern Melanesia: Speciation, Ecology, and Biogeography",,,,"Ernst Mayr, Jared Diamond",2001,,,,548,0,English,18,,до 2011-01,"0195141709,9780195141702,9780195349665",,,,,,,,,OL7389501M,,0,,,,,1,,1,12041387,pdf,292743443C24EA5912F466EAA1C9319D,,,D:\\!genesis\\library.nu\\29\\_71919.292743443c24ea5912f466eaa1c9319d.pdf,0,2000-01-01 01:00:00,2016-04-03 02:51:08,557000/292743443c24ea5912f466eaa1c9319d-d.jpg,,
19577095,Understanding and Controlling the German Cockroach,,,,"Michael K. Rust, John M. Owens, Donald A. Reierson",1995,,,,448,0,English,,,до 2011-01,"019506495X,9780195064957,9781423734451",,,,,648/.7,TX325 .U48 1995,,4j8n8hIBEa0C,OL1106411M,,0,,,,,1,,1,28409858,pdf,298BB69660F643EA20FDBC6A794C5507,,,D:\\!genesis\\library.nu\\29\\_71710.298bb69660f643ea20fdbc6a794c5507.pdf,0,2000-01-01 01:00:00,2016-04-03 02:51:08,557000/298bb69660f643ea20fdbc6a794c5507-d.jpg,,
19577096,Querying the Medieval: Texts and the History of Practices in South Asia,,,,"Ronald B. Inden, Daud Ali, Jonathan S. Walters",2000,1st Edition.,,,248,0,English,64,,до 2011-01,"0195124308,9780195124309,9781423760184",,,,,954.02,DS339 .Q44 1999,,,OL30864M,,0,,,,,1,,1,16586109,pdf,2933616FCC31B9E8A2489435FE128810,,,D:\\!genesis\\library.nu\\29\\_71680.2933616fcc31b9e8a2489435fe128810.pdf,0,2000-01-01 01:00:00,2016-04-03 02:51:08,557000/2933616fcc31b9e8a2489435fe128810-d.jpg,,
19577097,Overcoming the Odds: Raising Academically Successful African American Young Women,,,,"Freeman A. Hrabowski, Kenneth I. Maton, Monica L. Greene, Geoffrey L. Greif, Geoffrey Greif",2002,,,,288,0,English,,,до 2011-01,"0195126424,9780195126426,9780195302066",,,,,649/.15796/073,LC2731 .O94 2002,,,OL17919641M,,0,,,,,1,,1,15421368,pdf,294FBC540D4D3526D3F7895EB7C95D2F,,,D:\\!genesis\\library.nu\\29\\_71672.294fbc540d4d3526d3f7895eb7c95d2f.pdf,0,2000-01-01 01:00:00,2016-04-03 02:51:08,557000/294fbc540d4d3526d3f7895eb7c95d2f-d.jpg,,
19577098,Racism: A Very Short Introduction (Very Short Introductions),,,,Ali Rattansi,2007,,,,209,0,English,,,до 2011-01,"0192805908,9780192805904,9781429487191",,,,,,,,,OL7383405M,,0,,,,0,0,,1,2960397,pdf,29356B04DED4CB26FB27B00E86334EA8,,,D:\\!genesis\\library.nu\\29\\_71634.29356b04ded4cb26fb27b00e86334ea8.pdf,0,2000-01-01 01:00:00,2016-04-03 02:51:08,557000/29356b04ded4cb26fb27b00e86334ea8-d.jpg,,
19577099,Conversations on Purpose for Women: 10 Appointments That Will Help You Discover God's Plan for Your Life,,,,Katie Brazelton,2005,,,,144,0,English,,,до 2011-01,"031025650X,9780310256502,9780310317012",,,,,248.843,BV4527 .B682 2005,,,OL3436561M,,0,,,,,1,,1,3115634,pdf,2950019321512AF9BCA56EFE64D153EF,,,D:\\!genesis\\library.nu\\29\\_71330.2950019321512af9bca56efe64d153ef.pdf,0,2000-01-01 01:00:00,2016-04-03 02:51:08,557000/2950019321512af9bca56efe64d153ef-d.jpg,,
19577100,Ultrasonic Wave Propagation in Non Homogeneous Media (Springer Proceedings in Physics),,Springer Proceedings in Physics 128,,Alain Leger,2009,1,,,428,0,English,132,,до 2011-01,"3540891048,9783540891048",,,,,,,10.1007/978-3-540-89105-5,,,,0,,,,1,0,,1,21146741,pdf,29A87BC8C21D74BEC9D1AA2EF14197E2,,,D:\\!genesis\\library.nu\\29\\_71185.29a87bc8c21d74bec9d1aa2ef14197e2.pdf,0,2000-01-01 01:00:00,2016-04-03 02:51:08,557000/29a87bc8c21d74bec9d1aa2ef14197e2-d.jpg,,
19577101,"Frommer's Singapore & Malaysia, 6th Edition",,,,Jennifer Eveland,2009,6,,,320,0,English,35,,до 2011-01,"0470435151,9780470435151",,,,,,,,,,,0,,,,,1,,1,15936667,pdf,29384EB68F14BC279541122E31F287AC,,,D:\\!genesis\\library.nu\\29\\_70969.29384eb68f14bc279541122e31f287ac.pdf,0,2000-01-01 01:00:00,2016-04-03 02:51:08,557000/29384eb68f14bc279541122e31f287ac-d.jpg,,
19577102,Everyone Here Spoke Sign Language: Hereditary Deafness on Martha's Vineyard,,,,Nora Ellen Groce,1985,,,,169,0,English,314,,до 2011-01,"067427041X,9780674270411,0674270401,9780674270404",,,,,362.4/2/0974494,HV2561.M49 G76 1985,,,OL18336208M,,0,,,,,1,,1,9013331,pdf,29E399AF2700EC8C36051CEDAD72B077,,,D:\\!genesis\\library.nu\\29\\_70869.29e399af2700ec8c36051cedad72b077.pdf,0,2000-01-01 01:00:00,2016-04-03 02:51:08,557000/29e399af2700ec8c36051cedad72b077-d.jpg,,
19577103,The Mountains of the Mediterranean World (Studies in Environment and History),,,,J. R. McNeill,2003,,,,443,0,English,64,,до 2011-01,"0521522889,0521332486,0511529023,9780511529023,9780521332484,9780521522885",,,,,333.73/13/091822,GF541 .M35 1992,,,OL1562901M,,300,,,,,1,,1,3823468,djvu,298AF3905E327C0DC3C3F005E7A6D6BA,,,D:\\!genesis\\library.nu\\29\\_69973.298af3905e327c0dc3c3f005e7a6d6ba.djvu,0,2000-01-01 01:00:00,2016-04-03 02:51:08,557000/298af3905e327c0dc3c3f005e7a6d6ba-d.jpg,,
19577104,West Nile Encephalitis Virus Infection: Viral Pathogenesis and the Host Immune Response (Emerging Infectious Diseases of the 21st Century),,Emerging Infectious Diseases of the 21st Century,,Michael S. Diamond,2008,1,,,485,0,English,150,,до 2011-01,"0387798390,9780387798394",,,,,616.9185,RA644.W47 .W474 2009,10.1007/978-0-387-79840-0,,OL23953666M,,0,,,,,1,,1,5548779,pdf,29639B2D70B5940CAA5D0B892DABBB37,,,D:\\!genesis\\library.nu\\29\\_69306.29639b2d70b5940caa5d0b892dabbb37.pdf,0,2000-01-01 01:00:00,2016-04-03 02:51:08,557000/29639b2d70b5940caa5d0b892dabbb37-d.jpg,,
19577105,Consciousness: A Mathematical Treatment of the Global Neuronal Workspace Model,,,,Rodrick Wallace,2005,1,Springer,,127,0,English,137,,до 2011-01,"0387252428,9780387252445,9780387252421",,,,,,,,,,,0,,,,,0,,1,5031314,pdf,29A68806B79A020936208D487764E026,,,D:/!genesis/library.nu/29/_69247.29a68806b79a020936208d487764e026.pdf,0,2000-01-01 01:00:00,2016-04-03 02:51:08,557000/29a68806b79a020936208d487764e026-d.jpg,,
19577106,"The Digital Hand, Vol 3: How Computers Changed the Work of American Public Sector Industries",,,,James W. Cortada,2007,1,,,496,0,English,69,,до 2011-01,"0195165861,9780195165869,9781435631465",,,,,,,,,OL17247026M,,0,,,,,1,,1,4726199,pdf,2942373F0F6840E15DB7E93E90756F15,,,D:\\!genesis\\library.nu\\29\\_69197.2942373f0f6840e15db7e93e90756f15.pdf,0,2000-01-01 01:00:00,2016-04-03 02:51:08,557000/2942373f0f6840e15db7e93e90756f15-d.jpg,,
19577107,Phagocytosis of Dying Cells: From Molecular Mechanisms to Human Diseases,,,,"Dmitri V. Krysko, Peter Vandenabeele",2009,1,,,454,0,English,150,,до 2011-01,"140209292X,9781402092923",,,,,616.0799,QR187.P4 P4895 2009,,,OL24573360M,,0,,,,,1,,1,8229892,pdf,29BBADF52290420D86C5DFA45978FAAB,,,D:\\!genesis\\library.nu\\29\\_68309.29bbadf52290420d86c5dfa45978faab.pdf,0,2000-01-01 01:00:00,2016-04-03 02:51:08,557000/29bbadf52290420d86c5dfa45978faab-d.jpg,,
19577108,"The Politics of the Environment: Ideas, Activism, Policy",,,,Neil Carter,2007,2,,,432,0,English,192,,до 2011-01,"0521868025,9780521868020,9780511279461",,,,,,,,,OL7767443M,,0,,,,,1,,1,3666316,pdf,29F551BB2FEFC667E0BC29DED68E0A84,,,D:\\!genesis\\library.nu\\29\\_6806.29f551bb2fefc667e0bc29ded68e0a84.pdf,0,2000-01-01 01:00:00,2016-04-03 02:51:08,557000/29f551bb2fefc667e0bc29ded68e0a84-d.jpg,,
19577109,Medicinal Chemistry and Pharmacological Potential of Fullerenes and Carbon Nanotubes (Carbon Materials: Chemistry and Physics),,,,"Franco Cataldo, Tatiana Da Ros",2008,1,,,408,0,English,296,,до 2011-01,"1402068441,9781402068447,9781402068454",,,,,,,,,,,0,,,,,1,,1,4668508,pdf,29C469997F858C10F575C9924187A2E7,,,D:\\!genesis\\library.nu\\29\\_67804.29c469997f858c10f575c9924187a2e7.pdf,0,2000-01-01 01:00:00,2016-04-03 02:51:08,557000/29c469997f858c10f575c9924187a2e7-d.jpg,,
19577110,Beyond Brain Death - The Case Against Brain based Critieria for Human Death - Philosophy and Medicine Vol 66,,,,"M. Potts, P.A. Byrne, R.G. Nilges",2001,,,,280,0,English,147,,до 2011-01,"9780306468827,9780792365785,079236578X",,,,,616.07/8,,,,OL18312439M,,0,,,,,1,,1,2012210,pdf,295AA5B5220BEF0DB98F25A0EBE13664,,,D:\\!genesis\\library.nu\\29\\_67763.295aa5b5220bef0db98f25a0ebe13664.pdf,0,2000-01-01 01:00:00,2016-04-03 02:51:08,557000/295aa5b5220bef0db98f25a0ebe13664-g.jpg,,
19577111,"The European Revolutions, 1848 - 1851 (New Approaches to European History)",,,,Jonathan Sperber,2005,2,,,334,0,English,64,,до 2011-01,"0521547792,9780521547796,0521839076,9780521839075,9780511126192",,,,,,,,,OL22627389M,,0,,,,,1,,1,2813490,pdf,29F33861CD61613EB425E5ECCCAB6A60,,,D:\\!genesis\\library.nu\\29\\_6693.29f33861cd61613eb425e5ecccab6a60.pdf,0,2000-01-01 01:00:00,2016-04-03 02:51:08,557000/29f33861cd61613eb425e5ecccab6a60-d.jpg,,
19577112,Creativity and Reason in Cognitive Development,,,,"James C. Kaufman, John Baer",2006,1,,,388,0,English,,,до 2011-01,"0521843855,9780521843850,9780511191800",,,,,153.3/5,BF723.C7 C74 2006,,,OL3405988M,,0,,,,,1,1,1,3495559,pdf,298F5E04F93FEF733B49974E44192DFE,,,D:\\!genesis\\library.nu\\29\\_6668.298f5e04f93fef733b49974e44192dfe.pdf,0,2000-01-01 01:00:00,2016-04-03 02:51:08,557000/298f5e04f93fef733b49974e44192dfe-d.jpg,,
19577113,Marxism and Democracy (Marxist Introductions),,,,Joseph V. Femia,1993,,,,200,0,English,,,до 2011-01,"0198279213,9780198279211,0198274947,9780198274940,9780191568619",,,,,321.9/2,JC474 .F46 1993,,,OL1401376M,,0,,,,,1,,1,996400,pdf,2912A9CCDE49DE0B4BE009BC4780B67E,,,D:\\!genesis\\library.nu\\29\\_66411.2912a9ccde49de0b4be009bc4780b67e.pdf,0,2000-01-01 01:00:00,2016-04-03 02:51:08,557000/2912a9ccde49de0b4be009bc4780b67e-d.jpg,,
19577114,History of Universities: Volume XXII 2,,,,Mordechai Feingold,2008,,,,208,0,English,64,,до 2011-01,"0199227497,9780199227495,9780191551710",,,,,,,,,,,0,,,,,1,,1,812031,pdf,29B0BAEC8EF0E0119E90AFB2447A8E51,,,D:\\!genesis\\library.nu\\29\\_66360.29b0baec8ef0e0119e90afb2447a8e51.pdf,0,2000-01-01 01:00:00,2016-04-03 02:51:08,557000/29b0baec8ef0e0119e90afb2447a8e51-d.jpg,,
19577115,A Theory of Virtue: Excellence in Being for the Good,,,,Robert Merrihew Adams,2006,,,,264,0,English,94,,до 2011-01,"0199207518,9780199207510,9781435621329",,,,,,,,,OL22739796M,,0,,,,,1,,1,1791963,pdf,29545A91742A41AB1B1309170C4859CE,,,D:\\!genesis\\library.nu\\29\\_65955.29545a91742a41ab1b1309170c4859ce.pdf,0,2000-01-01 01:00:00,2016-04-03 02:51:08,557000/29545a91742a41ab1b1309170c4859ce-d.jpg,,
19577116,Environmental Performance Reviews,,,,Organization for Economic Cooperation &,2003,,,,247,0,English,31,,до 2011-01,"9264100997,9789264100992",,,,,,,,,OL18887348M,,0,,,,,1,,1,1258177,pdf,29728CDC5FE1E121346444D558833B81,,,D:\\!genesis\\library.nu\\29\\_65629.29728cdc5fe1e121346444d558833b81.pdf,0,2000-01-01 01:00:00,2016-04-03 02:51:08,557000/29728cdc5fe1e121346444d558833b81-g.jpg,,
19577117,Ageing and Employment Policies: Japan (Ageing and Employment Policies),,,,Organisation for Economic Co-Operation and Development,2004,illustrated edition,,,148,0,English,,,до 2011-01,"9264021094,9789264021099",,,,,,,,,OL12900836M,,0,,,,,1,,1,1091877,pdf,29AB58F891057A811ECB1117FDE5066F,,,D:\\!genesis\\library.nu\\29\\_65556.29ab58f891057a811ecb1117fde5066f.pdf,0,2000-01-01 01:00:00,2016-04-03 02:51:08,557000/29ab58f891057a811ecb1117fde5066f-g.jpg,,
19577118,Employment Law (Briefcase),,,,"Barrow & Duddin, Charles Barrow, John G Duddington",2000,2nd Revised edition,,,270,0,English,313,,до 2011-01,"9781859415443,185941544X",,,,,,,,,OL12045334M,,0,,,,,1,,1,1247174,pdf,2912CE084AEED1AA78E85B4C6F9DCDC6,,,D:\\!genesis\\library.nu\\29\\_65116.2912ce084aeed1aa78e85b4c6f9dcdc6.pdf,0,2000-01-01 01:00:00,2016-04-03 02:51:08,557000/2912ce084aeed1aa78e85b4c6f9dcdc6-d.jpg,,
19577119,Intellectual Property Law (Principles of Law),,,,"Catheri Colston, Richard Kidner, Phillip Kenny, Nigel Gravells, Paul Dobson, Catherine Colston",1999,1,,,544,0,English,313,,до 2011-01,"1859414656,9781859414651",,,,,,,,,OL21994362M,,0,,,,,1,,1,1887923,pdf,29B389877C0B5220F2DBACF47C787A33,,,D:\\!genesis\\library.nu\\29\\_64896.29b389877c0b5220f2dbacf47c787a33.pdf,0,2000-01-01 01:00:00,2016-04-03 02:51:08,557000/29b389877c0b5220f2dbacf47c787a33-d.jpg,,
19577120,Insurance Law: Text & Materials 2 e,,,,Hodgin,2002,2,,,864,0,English,313,,до 2011-01,"1859417248,9781859417249",,,,,,,,,OL12045423M,,0,,,,,1,,1,5907592,pdf,2979AD8E9782484AF1E729DB13A4E013,,,D:\\!genesis\\library.nu\\29\\_64823.2979ad8e9782484af1e729db13a4e013.pdf,0,2000-01-01 01:00:00,2016-04-03 02:51:08,557000/2979ad8e9782484af1e729db13a4e013-d.jpg,,
19577121,New Ideas for Crochet,,,,Darsha Capaldi,2001,,,,160,0,English,,,до 2011-01,"1861081928,9781861081926",,,,,746.434043,TT820 .C237 2001,,,OL3774775M,,0,,,,,1,,0,22004518,pdf,29AB075E1E9D23754688922DFFBA8C2F,,,D:\\!genesis\\library.nu\\29\\_64530.29ab075e1e9d23754688922dffba8c2f.pdf,0,2000-01-01 01:00:00,2016-04-03 02:51:08,557000/29ab075e1e9d23754688922dffba8c2f-d.jpg,,
19577122,"Evolutionary Game Theory, Natural Selection, and Darwinian Dynamics",,,,Thomas L. Vincent and Joel S. Brown,2005,,,,401,0,English,141,,до 2011-01,"0521841704,9780521841702,9780511113437",,,,,,,,,OL22625381M,,0,,,,0,0,,1,2335263,pdf,29031A041F10AF4C0F485A03B50B609E,,,D:\\!genesis\\library.nu\\29\\_6424.29031a041f10af4c0f485a03b50b609e.pdf,0,2000-01-01 01:00:00,2016-04-03 02:51:08,557000/29031a041f10af4c0f485a03b50b609e-d.jpg,,
19577123,Journal of Organizational Change Management - Volume 18 Issue 1 (2005),,,,"David Grant, Grant Michelson, Cliff Oswick, Nick Wailes",,,,,107,0,English,181,,до 2011-01,1845440927,,,,,,,10.1108/09534810510579814,,,periodic,0,,,,,1,,1,1488668,pdf,296BC0A5845A170A56A535B3BAB94061,,ban,D:\\!genesis\\library.nu\\29\\_64041.296bc0a5845a170a56a535b3bab94061.pdf,0,2000-01-01 01:00:00,2016-04-03 02:51:08,557000/296bc0a5845a170a56a535b3bab94061-g.jpg,,
19577124,"In And Out Of English: For Better, For Worse? (Translating Europe)",,,,"Gunilla M. Anderman, Margaret Rogers",2005,,,,320,0,English,314,,до 2011-01,"1853597872,9781853597879,1853597880,9781853597886,9781853597893",,,,,,,,,OL22629807M,,0,,,,,1,,1,1163473,pdf,29CCE76B29AB724A523A840C21D1273F,,,D:\\!genesis\\library.nu\\29\\_63944.29cce76b29ab724a523a840c21d1273f.pdf,0,2000-01-01 01:00:00,2016-04-03 02:51:08,557000/29cce76b29ab724a523a840c21d1273f-d.jpg,,
19577125,Rights Before Courts: A Study of Constitutional Courts in Postcommunist States of Central and Eastern Europe,,,,Wojciech Sadurski,2005,1,,,380,0,English,183,,до 2011-01,"1402030061,9781402030062,9781402030079",,,,,,,,,OL8371301M,,0,,,,,1,,1,1195681,pdf,29DBF5A87D2A93C8593EEB9BDB021C74,,,D:\\!genesis\\library.nu\\29\\_62945.29dbf5a87d2a93c8593eeb9bdb021c74.pdf,0,2000-01-01 01:00:00,2016-04-03 02:51:08,557000/29dbf5a87d2a93c8593eeb9bdb021c74-d.jpg,,
19577126,Serve and Learn: Implementing and Evaluating Service-learning in Middle and High Schools,,,,"Florence Fay Pritchard, III, George I. Whitehead",2004,,,,288,0,English,183,,до 2011-01,"0805844201,9780805844207,9781410610478",,,,,,,,,OL7937910M,,0,,,,,1,,1,16994495,pdf,292F750757E401FC89BF09798DBDDF99,,,D:\\!genesis\\library.nu\\29\\_61875.292f750757e401fc89bf09798dbddf99.pdf,0,2000-01-01 01:00:00,2016-04-03 02:51:08,557000/292f750757e401fc89bf09798dbddf99-d.jpg,,
19577127,Classroom Discourse and the Space of Learning,,,,"Ference Marton, Amy B.M. Tsui, Pakey P.M. Chik, Po Yuk Ko, Mun Ling Lo, Ida A.C. Mok, Dorothy F.P. N",2004,,,,256,0,English,183,,до 2011-01,"0805840087,9780805840087,9781410609762",,,,,371.102/2,LB1033.5 .M265 2004,,,OL22143342M,,0,,,,,1,,1,12470381,pdf,290DB523A97135BF5A51AACDDF8025D5,,,D:\\!genesis\\library.nu\\29\\_61791.290db523a97135bf5a51aacddf8025d5.pdf,0,2000-01-01 01:00:00,2016-04-03 02:51:08,557000/290db523a97135bf5a51aacddf8025d5-d.jpg,,
19577128,Frommer's New England  (2004) (Frommer's Complete),,,,"Paul Karr, Herbert Bailey Livesey, Marie Morris, Laura M. Reckford",2004,1st,,,704,0,English,137,,до 2011-01,"9780764567643,9780764577109,0764567640",,,,,,,,,OL23036148M,,0,,,,,1,,1,12704067,pdf,2984F461F838A880ADDE40CC0A08FAEB,,,D:\\!genesis\\library.nu\\29\\_60065.2984f461f838a880adde40cc0a08faeb.pdf,0,2000-01-01 01:00:00,2016-04-03 02:51:08,557000/2984f461f838a880adde40cc0a08faeb-d.jpg,,
19577129,Enterprise and Welfare Reform in Communist Asia,,,,P. Ferdinand,2004,1,,,130,0,English,78,,до 2011-01,"071468399X,9780714683997,071465499X,9780714654997,9780203005323",,,,,,,,,OL7800557M,,0,,,,,1,,1,1124504,pdf,29B0787C4A5FE9AC2DA63CD804F000C7,,,D:\\!genesis\\library.nu\\29\\_60011.29b0787c4a5fe9ac2da63cd804f000c7.pdf,0,2000-01-01 01:00:00,2016-04-03 02:51:08,557000/29b0787c4a5fe9ac2da63cd804f000c7-d.jpg,,
19577130,CliffsNotes on Hesse's Steppenwolf & Siddhartha,,,,Carolyn R. Welch,2003,1,,,82,0,English,,,до 2011-01,"0764544594,9780764544590",,,,,,,,,OL8042587M,,0,,,,,1,,1,345103,pdf,296ECC9472C535A4DE05DF447168914D,,,D:\\!genesis\\library.nu\\29\\_59543.296ecc9472c535a4de05df447168914d.pdf,0,2000-01-01 01:00:00,2016-04-03 02:51:08,557000/296ecc9472c535a4de05df447168914d-d.jpg,,
19577131,Frommer's USA 2005 (Frommer's Complete),,,,Naomi P. Kraus,2005,9th,,,1088,0,English,137,,до 2011-01,"9780764574603,9780764587917,0764574604",,,,,,,,,OL23056047M,,0,,,,,1,,1,13554632,pdf,29DE1CB6B7D692580039AD5B7D76AC31,,,D:\\!genesis\\library.nu\\29\\_59382.29de1cb6b7d692580039ad5b7d76ac31.pdf,0,2000-01-01 01:00:00,2016-04-03 02:51:08,557000/29de1cb6b7d692580039ad5b7d76ac31-d.jpg,,
19577132,Polemic: Critical or Uncritical (Essays from the English Institute),,,,Jane Gallop,2004,1,,,224,0,English,196,,до 2011-01,"0415972280,9780415972284,9780203020302",,,,,809/.93384,PN771 .P66 2004,,,OL22604665M,,0,,,,,1,,1,843811,pdf,29F40FBA6CCE5629E4CF0A084E398400,,,D:\\!genesis\\library.nu\\29\\_58578.29f40fba6cce5629e4cf0a084e398400.pdf,0,2000-01-01 01:00:00,2016-04-03 02:51:08,557000/29f40fba6cce5629e4cf0a084e398400-d.jpg,,
19577133,Forbes Greatest Investing Stories,,,,Richard Phalon,2001,1,,,272,0,English,,,до 2011-01,"0471356247,9780471356240,9780471217404",,,,,,,,,OL24265898M,,0,,,,,1,,1,1484637,pdf,2994680E9356B4863323360EACE32ABB,,,D:\\!genesis\\library.nu\\29\\_58431.2994680e9356b4863323360eace32abb.pdf,0,2000-01-01 01:00:00,2016-04-03 02:51:08,557000/2994680e9356b4863323360eace32abb-d.jpg,,
19577134,Giving a Voice to the Voiceless: Four Pioneering Black Women Journalists (Studies in African American History and Culture),,,,Jinx Broussard,2003,1,,,228,0,English,64,,до 2011-01,"0415947170,9780415947176",,,,,"070.92/273,B",PN4872 .B76 2004,,,OL3675011M,,0,,,,,1,,1,1495758,pdf,295E24F9A8A21678ACB5E1D2A8A788C5,,,D:\\!genesis\\library.nu\\29\\_58428.295e24f9a8a21678acb5e1d2a8a788c5.pdf,0,2000-01-01 01:00:00,2016-04-03 02:51:08,557000/295e24f9a8a21678acb5e1d2a8a788c5-d.jpg,,
19577135,Janice VanCleave's Help! My Science Project Is Due Tomorrow! Easy Experiments You Can Do Overnight,,,,Janice VanCleave,2001,1,,,128,0,English,181,,до 2011-01,"0471331007,9780471331001,9780471225713",,,,,,,,,OL24256445M,,0,,,,,1,,1,2932388,pdf,293491BFFC63FE29AB0B2E4F767347D2,,,D:\\!genesis\\library.nu\\29\\_58394.293491bffc63fe29ab0b2e4f767347d2.pdf,0,2000-01-01 01:00:00,2016-04-03 02:51:08,557000/293491bffc63fe29ab0b2e4f767347d2-d.jpg,,
19577136,"Hey, Waitress! The USA from the Other Side of the Tray",,,,Alison Owings,2002,1,,,330,0,English,,,до 2011-01,"0520217500,9780520217508,9781417508396",,,,,,,,,OL7710624M,,0,,,,,1,,1,1259805,pdf,297246DAC94D359D909481E40D94EA71,,,D:\\!genesis\\library.nu\\29\\_57958.297246dac94d359d909481e40d94ea71.pdf,0,2000-01-01 01:00:00,2016-04-03 02:51:08,557000/297246dac94d359d909481e40d94ea71-d.jpg,,
19577137,40 Days to Success in Real Estate Investing,,,,Robert Shemin,2005,1,,,256,0,English,,,до 2011-01,"0471694827,9780471694823,9780471727682",,,,,,,,,OL24262526M,,0,,,,,1,,1,2129407,pdf,2905CCA2FBFE75F16612BDA6F41F8365,,,D:\\!genesis\\library.nu\\29\\_57671.2905cca2fbfe75f16612bda6f41f8365.pdf,0,2000-01-01 01:00:00,2016-04-03 02:51:08,557000/2905cca2fbfe75f16612bda6f41f8365-d.jpg,,
19577138,Beauty and Misogyny  Harmful Cultural Practices in the West (Women and Psychology),,,,Sheil Jeffreys,2005,1,,,216,0,English,198,,до 2011-01,"0415351839,9780415351836,9780203698563",,,,,306.4/613,HQ1219 .J44 2005,,,OL3393838M,,0,,,,,1,,1,993505,pdf,298F03BE0DD617970DBD173DF25A31F2,,,D:\\!genesis\\library.nu\\29\\_57463.298f03be0dd617970dbd173df25a31f2.pdf,0,2000-01-01 01:00:00,2016-04-03 02:51:08,557000/298f03be0dd617970dbd173df25a31f2-d.jpg,,
19577139,"Feminist Economics and the World Bank: History, Theory and Policy (Routledge Iaffe Advances in Feminist Economics)",,,,"Edith Kuiper, Drucilla K. Barker",2006,2,,,288,0,English,64,,до 2011-01,"0415700647,9780415700641,9780203420935",,,,,330/.082,HQ1381 .F462 2005,,,OL3395858M,,0,,,,,1,,1,1373709,pdf,299297BCF4C50F0C14A1128456EC51E7,,,D:\\!genesis\\library.nu\\29\\_57191.299297bcf4c50f0c14a1128456ec51e7.pdf,0,2000-01-01 01:00:00,2016-04-03 02:51:08,557000/299297bcf4c50f0c14a1128456ec51e7-d.jpg,,
19577140,"The Management of Regeneration: Choices, Challenges and Dilemmas",,,,John Diamond,2005,1,,,240,0,English,,,до 2011-01,"0415334217,9780415334211",,,,,307.3/416/0941,HT178.G7 D53 2005,,,OL3298029M,,0,,,,,1,,1,1883580,pdf,292439DA46C6E20E18BF0952C68C79B0,,,D:\\!genesis\\library.nu\\29\\_56853.292439da46c6e20e18bf0952c68c79b0.pdf,0,2000-01-01 01:00:00,2016-04-03 02:51:08,557000/292439da46c6e20e18bf0952c68c79b0-d.jpg,,
19577141,Agile Testing: How to Succeed in an Extreme Testing Environment,,,,John Watkins,2009,1,,,334,0,English,,,до 2011-01,"0521191815,9780521726870,9780521191814,0521726875,0511595468,9780511595462",,,,,005.1,QA76.76.D47 W384 2009,,,OL23186964M,,0,,,,,1,,1,2221280,pdf,296DF23B2863077B3A15BCD41F992BDD,,,D:\\!genesis\\library.nu\\29\\_5590.296df23b2863077b3a15bcd41f992bdd.pdf,0,2000-01-01 01:00:00,2016-04-03 02:51:08,557000/296df23b2863077b3a15bcd41f992bdd-d.jpg,,
19577142,Introduction to Jungian Psychotherapy: The Therapeutic Relationship,,,,David Sedgwick,2002,,,,196,0,English,172,,до 2011-01,"9780203360705,9780203377468,9780415183390,9780415183406,0203360702,0415183391,0415183405",,,,,,,,,OL17041535M,,0,,,,,1,,1,1059908,pdf,29C1704894A7C3591A260F726E5DAA7F,,,D:\\!genesis\\library.nu\\29\\_55392.29c1704894a7c3591a260f726e5daa7f.pdf,0,2000-01-01 01:00:00,2016-04-03 02:51:08,557000/29c1704894a7c3591a260f726e5daa7f-d.jpg,,
19577143,How We Write: Writing As Creative Design,,,,Mike Sharples,1998,,,,240,0,English,,,до 2011-01,"0415185866,9780415185868,0415185874,9780415185875,9780203272732",,,,,808/.042/019,PE1404 .S47 1999,,,OL348997M,,0,,,,,1,,1,4394484,pdf,29191FAD7C0225094B44FBB44882228F,,,D:\\!genesis\\library.nu\\29\\_55243.29191fad7c0225094b44fbb44882228f.pdf,0,2000-01-01 01:00:00,2016-04-03 02:51:08,557000/29191fad7c0225094b44fbb44882228f-d.jpg,,
19577144,Thinking Through the Curriculum,,,,Robert Burden,1998,1,,,216,0,English,,,до 2011-01,"9780415172011,0415172012,0203268415,9780203268414,0415172020,9780415172028",,,,,370.15/2,LB1590.3 .T535 1998,,,OL669105M,,0,,,,,1,,1,2806589,pdf,295DE32BCDBAB4B9E886A3ED9E87E8A5,,,D:\\!genesis\\library.nu\\29\\_54409.295de32bcdbab4b9e886a3ed9e87e8a5.pdf,0,2000-01-01 01:00:00,2016-04-03 02:51:08,557000/295de32bcdbab4b9e886a3ed9e87e8a5-d.jpg,,
19577145,"Equilibrium Versus Understanding: Towards the Rehumanization of Economics within Social Theory (Routledge Frontiers of Political Economy, Vol1)",,,,Mark Addleson,1995,,,,304,0,English,305,,до 2011-01,"0415128145,9780415128148,9780203434017",,,,,339.5,HB145 .A33 1995,,,OL1279998M,,0,,,,,1,,1,969709,pdf,294F08CF8308D2C52FCAF0153FC192B6,,,D:\\!genesis\\library.nu\\29\\_53747.294f08cf8308d2c52fcaf0153fc192b6.pdf,0,2000-01-01 01:00:00,2016-04-03 02:51:08,557000/294f08cf8308d2c52fcaf0153fc192b6-d.jpg,,
19577146,Understanding Design and Technology in Primary Schools: Cases from Teachers' Research,,,,Les Tickle,1996,1,,,232,0,English,,,до 2011-01,"0415130328,9780415130325,9780203134382",,,,,372.3/5,TA174 .U47 1996,,,OL7483596M,,0,,,,,1,,1,1727262,pdf,29BBE78C1A807C9D9ACFACBE4EE3F536,,,D:\\!genesis\\library.nu\\29\\_53689.29bbe78c1a807c9d9acfacbe4ee3f536.pdf,0,2000-01-01 01:00:00,2016-04-03 02:51:08,557000/29bbe78c1a807c9d9acfacbe4ee3f536-d.jpg,,
19577147,Other Histories (European Association of Social Anthropologists),,,,Kirsten Hastrup,1992,1,,,144,0,English,64,,до 2011-01,"9780203413227,9780415061223,0203413229,0415061229,0415061237,9780415061230",,,,,901,D16.8 .O815 1992,,,OL1700626M,,0,,,,,1,,1,716479,pdf,2923CB5AEAA55CD8524217F82A72C0BE,,,D:\\!genesis\\library.nu\\29\\_53670.2923cb5aeaa55cd8524217f82a72c0be.pdf,0,2000-01-01 01:00:00,2016-04-03 02:51:08,557000/2923cb5aeaa55cd8524217f82a72c0be-d.jpg,,
19577148,The Mediterranean World in Late Antiquity: AD 393-565 (Routledge History of the Ancient World),,,,Averil Cameron,1993,1,Routledge,,270,0,English,64,,до 2011-01,"0415014212,9780415014212,9780203134207",,,,,909/.09822,DE71 .C25 1993,,,OL1730180M,,0,,,,1,0,,1,1998054,pdf,29623CF5570F894CFBC29DD1A3C97E99,,,D:\\!genesis\\library.nu\\29\\_53085.29623cf5570f894cfbc29dd1a3c97e99.pdf,0,2000-01-01 01:00:00,2016-04-03 02:51:08,557000/29623cf5570f894cfbc29dd1a3c97e99-d.jpg,,
19577149,"Drinking and Casualties: Accidents, Poisonings and Violence in an International Perspective",,,,N. Giesbrecht,1989,1,,,464,0,English,,,до 2011-01,"9780415001281,0415001285,9780203168530,9780203284575,0203168534",,,,,364.2/4,HV5035 .D75 1989,,,OL2052034M,,0,,,,,1,,1,2537979,pdf,293839D02EBC32D62F230FADB83537A7,,,D:\\!genesis\\library.nu\\29\\_53077.293839d02ebc32d62f230fadb83537a7.pdf,0,2000-01-01 01:00:00,2016-04-03 02:51:08,557000/293839d02ebc32d62f230fadb83537a7-d.jpg,,
19577150,Living by the Pen: Women Writers in the Eighteenth Century,,,,Cheryl Turner,1992,1,,,272,0,English,,,до 2011-01,"9780415044110,0415044111,041511196X,9780415111966,9780203160145",,,,,823/.5099287,PR858.W6 T8 1992,,,OL1564316M,,0,,,,,1,,1,2211934,pdf,29CB133F3D42BC510CA790142EF5A24F,,,D:\\!genesis\\library.nu\\29\\_53074.29cb133f3d42bc510ca790142ef5a24f.pdf,0,2000-01-01 01:00:00,2016-04-03 02:51:08,557000/29cb133f3d42bc510ca790142ef5a24f-g.jpg,,
19577151,New Aspects of Human Ethology,,,,"Klaus Atzwanger, Karl Grammer, Katrin Schäfer, Alain Schmitt",1997,1st,,,252,0,English,296,,до 2011-01,"0306456958,9780306456954,9780585342894",,,,,155,BF701 .N48 1997,,,,,0,,,,,1,,1,19296082,pdf,29EEDE5434397ED39B338B12DA929DBB,,,D:/!genesis/library.nu/29/_52745.29eede5434397ed39b338b12da929dbb.pdf,0,2000-01-01 01:00:00,2016-04-03 02:51:08,557000/29eede5434397ed39b338b12da929dbb-d.jpg,,
19577152,The King's English: A Guide to Modern Usage,,,,Kingsley Amis,1998,,,,288,0,English,314,,до 2011-01,"9780006387466,0006387462,0312186010,9780312186012,0312206577,9780312206574",,,,,423/.1,PE1460 .A58 1998,,,OL355642M,,0,,,,,1,,1,2043519,djvu,293F3141F87D17D1965F2B83EF1F5A4A,,,D:\\!genesis\\library.nu\\29\\_5212.293f3141f87d17d1965f2b83ef1f5a4a.djvu,0,2000-01-01 01:00:00,2016-04-03 02:51:08,557000/293f3141f87d17d1965f2b83ef1f5a4a-d.jpg,,
19577153,Phrasal Movement and Its Kin (Linguistic Inquiry Monographs),,,,David Pesetsky,2000,,,,144,0,English,59,,до 2011-01,"9780262161961,9781423737827,0262161966,0262661667,9780262661669",,,,,,,,,OL22559365M,,0,,,,,1,,1,553193,pdf,296961EE9265ED6B1975DC17D724FDB2,,,D:\\!genesis\\library.nu\\29\\_50727.296961ee9265ed6b1975dc17d724fdb2.pdf,0,2000-01-01 01:00:00,2016-04-03 02:51:08,557000/296961ee9265ed6b1975dc17d724fdb2-d.jpg,,
19577154,Bacterial Chromatin,,,,"Remus T. Dame, Charles J. Dorman",2010,1st Edition.,Springer,,448,0,English,,,до 2011-01,"9048134722,9789048134724",,,,,572.87,QR76.5 .B33 2010,10.1007/978-90-481-3473-1,Esi4D4NjvskC,OL25255591M,,0,,,,,1,,1,22877472,pdf,2902D16F759EC5BFC41FD14398F5FD82,,,D:\\!genesis\\library.nu\\29\\_50467.2902d16f759ec5bfc41fd14398f5fd82.pdf,0,2000-01-01 01:00:00,2016-04-03 02:51:08,557000/2902d16f759ec5bfc41fd14398f5fd82-d.jpg,,
19577155,Orale Antibiotika in Klinik und Praxis: Praxisorientierte Empfehlungen zur Antibiotika-Therapie leichter bis mittelschwerer bakterieller Infektionen bei Erwachsenen im ambulanten und stationären Bereich,,,,"Dieter Adam, Klaus-Friedrich Bodmann, Wolfgang Elies, Cordula Lebert, Kurt G. Naber, Karin Simons, Friedrich Vogel, Hannes Wacha, Rainer Höhl, Peter Kujath, A. Pross, Arne C. Rodloff, Kuno Rommelsheim, Fritz Sörgel",2009,1,Springer,,157,0,German,18,,до 2011-01,"9783642005213,3642005217",,,,,,,,9AZODdHjY9YC,,,0,,,,0,0,,1,2044618,pdf,2964B2A8B5AABFD491EECE94A16F8FA9,,,D:\\!genesis\\library.nu\\29\\_5011.2964b2a8b5aabfd491eece94a16f8fa9.pdf,0,2000-01-01 01:00:00,2016-04-03 02:51:08,557000/2964b2a8b5aabfd491eece94a16f8fa9-d.jpg,,
19577156,"Autonomy, Ethnicity, and Poverty in Southwestern China: The State Turned Upside Down",,,,Chih-yu Shih,2007,1st,,,272,0,English,,,до 2011-01,"1403984468,9781403984463,9780230609341",,,,,951/.306,DS730 .S522 2008,,,OL11642951M,,0,,,,,1,,1,736222,pdf,29B6AA08E1C7D2185C701082860B5053,,,D:\\!genesis\\library.nu\\29\\_48998.29b6aa08e1c7d2185c701082860b5053.pdf,0,2000-01-01 01:00:00,2016-04-03 02:51:08,557000/29b6aa08e1c7d2185c701082860b5053-d.jpg,,
19577157,"American Education, Democracy, and the Second World War",,,,Charles Dorn,2007,First Edition,,,272,0,English,183,,до 2011-01,"1403984212,9781403984210,9780230608887",,,,,,,,,OL11642938M,,0,,,,,1,,1,1100520,pdf,29FB96E66FAAE8AAE14531E94529EEF3,,,D:\\!genesis\\library.nu\\29\\_48884.29fb96e66faae8aae14531e94529eef3.pdf,0,2000-01-01 01:00:00,2016-04-03 02:51:08,557000/29fb96e66faae8aae14531e94529eef3-d.jpg,,
19577158,Moving Mars: A Novel,,,,Greg Bear,1994,,,,512,0,English,265,,до 2011-01,"0812524802,9780812524802",,,,,,,,,OL17189132M,,0,,,,,1,,1,1428023,pdf,29A47391D7DF629D3BDB4E7818D3B27E,,,D:\\!genesis\\library.nu\\29\\_4877.29a47391d7df629d3bdb4e7818d3b27e.pdf,0,2000-01-01 01:00:00,2016-04-03 02:51:08,557000/29a47391d7df629d3bdb4e7818d3b27e-d.jpg,,
19577159,Global Specification and Validation of Embedded Systems: Integrating Heterogeneous Components,,,,"Gabriela Nicolescu, Ahmed Jerraya",2007,1,,,160,0,English,137,,до 2011-01,"140206151X,9781402061516,9781402061530",,,,,,,,,OL11634374M,,0,,,,,1,,1,3122582,pdf,291999CC7283F70657AEF59470A282E1,,,D:\\!genesis\\library.nu\\29\\_48245.291999cc7283f70657aef59470a282e1.pdf,0,2000-01-01 01:00:00,2016-04-03 02:51:08,557000/291999cc7283f70657aef59470a282e1-d.jpg,,
19577160,"Time, Policy, Management: Governing with the Past",,,,Christopher Pollitt,2008,,,,232,0,English,192,,до 2011-01,"0199237727,9780199237722,9780191553387",,,,,351,JF1351 .P666 2008,,,OL16897281M,,0,,,,,1,,1,874585,pdf,297477E2AB11AA514D600F9415207B6A,,,D:\\!genesis\\library.nu\\29\\_48183.297477e2ab11aa514d600f9415207b6a.pdf,0,2000-01-01 01:00:00,2016-04-03 02:51:08,557000/297477e2ab11aa514d600f9415207b6a-d.jpg,,
19577161,United in Diversity?: Comparing Social Models in Europe and America (International Policy Exchange Series),,,,"Jens Alber, Neil Gilbert",2009,1,,,464,0,English,137,,до 2011-01,"0195376633,9780195376630",,,,,320.6094,HN373.5 .U55 2010,,,OL23175143M,,0,,,,,1,,1,3062052,pdf,29E1B1920F6F4D9BC0E5B953CC7E103A,,,D:\\!genesis\\library.nu\\29\\_47613.29e1b1920f6f4d9bc0e5b953cc7e103a.pdf,0,2000-01-01 01:00:00,2016-04-03 02:51:08,557000/29e1b1920f6f4d9bc0e5b953cc7e103a-d.jpg,,
19577162,The Relapse and Other Plays (Oxford World's Classics),,,,John Vanbrugh,2004,,,,422,0,English,183,,до 2011-01,"0192833235,9780192833235,0199555699,9780199555697,9780191517839",,,,,,,,,OL17139868M,,0,,,,,1,,1,1169381,pdf,29461C2DBE772FA7CFF82D495539E2C3,,,D:\\!genesis\\library.nu\\29\\_47388.29461c2dbe772fa7cff82d495539e2c3.pdf,0,2000-01-01 01:00:00,2016-04-03 02:51:08,557000/29461c2dbe772fa7cff82d495539e2c3-d.jpg,,
19577163,"McGraw-Hill's SSAT ISEE, 2nd edition",,,,Nicholas Falletta,2009,2,,,480,0,English,,,до 2011-01,"0071609164,9780071609173,9780071609166",,,,,373.126/2,LB3060.33.S42 F34 2009,,,OL23191939M,,0,,,,,1,,1,2874932,pdf,29CFBB818E4E2E3DF1CEEC643BB232FA,,,D:\\!genesis\\library.nu\\29\\_46881.29cfbb818e4e2e3df1ceec643bb232fa.pdf,0,2000-01-01 01:00:00,2016-04-03 02:51:08,557000/29cfbb818e4e2e3df1ceec643bb232fa-d.jpg,,
19577164,The Economics of Earnings,,,,"Solomon W. Polachek, W. Stanley Siebert",1993,,,,383,0,English,305,,до 2011-01,"9780521364768,9780511522062,052136728X,0521364760,0511522061,9780521367288",,,,,331.2/1,HD4906 .P65 1993,,,OL1557875M,,0,,,,,1,,1,2324203,djvu,29E99CC1ACB5DD0BECC523248DC7952B,,,D:\\!genesis\\library.nu\\29\\_46639.29e99cc1acb5dd0becc523248dc7952b.djvu,0,2000-01-01 01:00:00,2016-04-03 02:51:08,557000/29e99cc1acb5dd0becc523248dc7952b-d.jpg,,
19577165,Democracy's Victory and Crisis,,,,Axel Hadenius,1997,,,,441,0,English,,,до 2011-01,"9780521573115,9780511558832,0521575834,0521573114,051155883X,9780521575836",,,,,321.8,JC421 .N63 1997,,,OL978918M,,0,,,,,1,,1,2184788,djvu,2964C0D22C088EF797E3F783B3C21D90,,,D:\\!genesis\\library.nu\\29\\_46621.2964c0d22c088ef797e3f783b3c21d90.djvu,0,2000-01-01 01:00:00,2016-04-03 02:51:08,557000/2964c0d22c088ef797e3f783b3c21d90-d.jpg,,
19577166,Shakespeare and Childhood,,,,"Kate Chedgzoy, Susanne Greenhalgh, Robert Shaughnessy",2007,1,,,296,0,English,,,до 2011-01,"9780511342523,0521871255,051148349X,0511342527,9780511483493,9780521871259",,,,,,,,,OL17243885M,,0,,,,0,0,,1,1542174,pdf,290489208C50E85F7A4EB92247E2B201,,,D:\\!genesis\\library.nu\\29\\_4529.290489208c50e85f7a4eb92247e2b201.pdf,0,2000-01-01 01:00:00,2016-04-03 02:51:08,557000/290489208c50e85f7a4eb92247e2b201-d.jpg,,
19577167,Frommer's Montreal & Quebec City 2009 (Frommer's Complete),,,,Leslie Brokaw,2008,Revised,,,432,0,English,137,,до 2011-01,"0470382236,9780470382233",,,,,,,,,,,0,,,,,1,,1,7271973,pdf,299122A70E93AB51502B9C57C7B3B6AB,,,D:\\!genesis\\library.nu\\29\\_45187.299122a70e93ab51502b9c57c7b3b6ab.pdf,0,2000-01-01 01:00:00,2016-04-03 02:51:08,557000/299122a70e93ab51502b9c57c7b3b6ab-d.jpg,,
19577168,Growing Apart?: America and Europe in the 21st Century,,,,Sven Steinmo,2007,1,,,254,0,English,,,до 2011-01,"0521879310,9780521879316,9780511367717",,,,,,,,,OL10438292M,,0,,,,,1,,1,1603731,pdf,295FB932906C8066550D834F6FF93F88,,,D:\\!genesis\\library.nu\\29\\_4477.295fb932906c8066550d834f6ff93f88.pdf,0,2000-01-01 01:00:00,2016-04-03 02:51:08,557000/295fb932906c8066550d834f6ff93f88-d.jpg,,
19577169,"The Search for a Common European Foreign and Security Policy: Leaders, Cognitions, and Questions of Institutional Viability (Advances in Foreign Policy Analysis)",,,,Akan Malici,2008,1st,,,240,0,English,178,,до 2011-01,"0230604463,9780230604469",,,,,,,,,OL10194842M,,0,,,,,1,,1,1604692,pdf,29E1FB9368C152151A3A69FE3C3E9701,,,D:\\!genesis\\library.nu\\29\\_44353.29e1fb9368c152151a3a69fe3c3e9701.pdf,0,2000-01-01 01:00:00,2016-04-03 02:51:08,557000/29e1fb9368c152151a3a69fe3c3e9701-d.jpg,,
19577170,Tank Driver: With the 11th Armored from the Battle of the Bulge to VE Day,,,,"Ted J. Hartman, J. Ted Hartman",2003,,,,192,0,English,67,,до 2011-01,"0253342112,9780253342119,9780253109828",,,,,,,,,OL9770028M,,0,,,,,1,,1,2259383,pdf,2912BC8866B29293545AC766871CAD33,,,D:\\!genesis\\library.nu\\29\\_44150.2912bc8866b29293545ac766871cad33.pdf,0,2000-01-01 01:00:00,2016-04-03 02:51:08,557000/2912bc8866b29293545ac766871cad33-d.jpg,,
19577171,Race and Policing in America: Conflict and Reform (Cambridge Studies in Criminology),,,,"Ronald Weitzer, Steven A. Tuch",2006,1,,,238,0,English,183,,до 2011-01,"0521616913,9780521616911,0521851521,9780521851527,9780511226243",,,,,,,,,OL22735873M,,0,,,,,1,,1,1608788,pdf,29949FCDBF052AC2B618F1F58715D4CC,,,D:\\!genesis\\library.nu\\29\\_4408.29949fcdbf052ac2b618f1f58715d4cc.pdf,0,2000-01-01 01:00:00,2016-04-03 02:51:08,557000/29949fcdbf052ac2b618f1f58715d4cc-d.jpg,,
19577172,"The Horse and His Boy (The Chronicles of Narnia, Book 3)",,,,C. S. Lewis,1994,First Edition,,,224,0,English,,,до 2011-01,"006440501X,9780064405010,9780061765339",,,,,,,,,OL24253344M,,0,,,,,1,,1,2846770,pdf,296730D869EE558BF570C9B67D2FCEDC,,,D:\\!genesis\\library.nu\\29\\_43972.296730d869ee558bf570c9b67d2fcedc.pdf,0,2000-01-01 01:00:00,2016-04-03 02:51:08,557000/296730d869ee558bf570c9b67d2fcedc-d.jpg,,
19577173,Lost Years: A Memoir 1945 - 1951,,,,Christopher Isherwood,2000,First Edition,,,432,0,English,64,,до 2011-01,"0061180017,9780061180019,9780061370649",,,,,"828/.91203,B",PR6017.S5 Z468 2000,,,OL24252818M,,0,,,,,1,,1,1539855,pdf,29F0AD0AD40644D4E511ADD6275D370A,,,D:\\!genesis\\library.nu\\29\\_43499.29f0ad0ad40644d4e511add6275d370a.pdf,0,2000-01-01 01:00:00,2016-04-03 02:51:08,557000/29f0ad0ad40644d4e511add6275d370a-d.jpg,,
19577174,Always a Scoundrel: The Notorious Gentlemen,,,,Suzanne Enoch,2009,Original,,,384,0,English,,,до 2011-01,"0061456756,9780061456756,9780061866708",,,,,,,,,OL24028245M,,0,,,,,1,,1,1419926,pdf,29CF36CC6964840A4ECE2057B81A65A5,,,D:\\!genesis\\library.nu\\29\\_43486.29cf36cc6964840a4ece2057b81a65a5.pdf,0,2000-01-01 01:00:00,2016-04-03 02:51:08,557000/29cf36cc6964840a4ece2057b81a65a5-d.jpg,,
19577175,"Collaborative Divorce: The Revolutionary New Way to Restructure Your Family, Resolve Legal Issues, and Move on with Your Life",,,,"Pauline H. Tesler, Peggy Thompson",2006,,,,288,0,English,41,,до 2011-01,"9780061191664,9780060889432,0060889438,0061148008,9780061148002",,,,,,,,,OL24318019M,,0,,,,,1,,1,1460056,pdf,29C430A51D7C72D2CC29289D53C55075,,,D:\\!genesis\\library.nu\\29\\_43163.29c430a51d7c72d2cc29289d53c55075.pdf,0,2000-01-01 01:00:00,2016-04-03 02:51:08,557000/29c430a51d7c72d2cc29289d53c55075-d.jpg,,
19577176,A Match Made in Scandal,,,,Melody Thomas,2005,,,,384,0,English,,,до 2011-01,"0060742313,9780060742317,9780061249204",,,,,,,,,OL24262747M,,0,,,,,1,,1,1164409,pdf,29A13A2DEB3C04F5D72ECAF30190C135,,,D:\\!genesis\\library.nu\\29\\_42628.29a13a2deb3c04f5d72ecaf30190c135.pdf,0,2000-01-01 01:00:00,2016-04-03 02:51:08,557000/29a13a2deb3c04f5d72ecaf30190c135-d.jpg,,
19577177,The Pirate Inside: Building a Challenger Brand Culture Within Yourself and Your Organization,,,,Adam Morgan,2004,1,,,351,0,English,,,до 2011-01,"0470860820,9780470860823,9780470860847",,B001OOMPWC,,,,,,,OL24268642M,,0,,,,,0,,1,1861015,pdf,293E7061B0C178849A452E833FC15CA6,,,D:\\!genesis\\library.nu\\29\\_41673.293e7061b0c178849a452e833fc15ca6.pdf,0,2000-01-01 01:00:00,2016-04-03 02:51:08,557000/293e7061b0c178849a452e833fc15ca6-d.jpg,,
19577178,"The Rampart Worlds, Book 2: Orion Arm",,,,Julian May,1995,,,,384,0,English,,,до 2011-01,"9780345471840,0345471849",,,,,,,,,OL9477966M,,0,,,,,1,,1,1093817,pdf,29D7C0F62AF92A6198D71C5CB3E73F52,,,D:\\!genesis\\library.nu\\29\\_41542.29d7c0f62af92a6198d71c5cb3e73f52.pdf,0,2000-01-01 01:00:00,2016-04-03 02:51:08,557000/29d7c0f62af92a6198d71c5cb3e73f52-d.jpg,,
19577179,Archives de l'Algérie,,,,"Jacques Borgé, Nicolas Viasnoff",,,,,220,0,French,,,до 2011-01,"9782843082382,9782851320599,2843082382,2851320599",,,,,,,,,,,0,,,,,1,,1,48275047,pdf,29FABBE627DD686605C136809206E5BA,,,D:\\!genesis\\library.nu\\29\\_41372.29fabbe627dd686605c136809206e5ba.pdf,0,2000-01-01 01:00:00,2016-04-03 02:51:08,557000/29fabbe627dd686605c136809206e5ba-g.jpg,,
19577180,Bildung zwischen Standardisierung und Heterogenität: - ein interdisziplinärer Diskurs,,,,"Carl-Peter Buschkühle, Ludwig Duncker, Vadim Oswalt",,,,,232,0,German,,,до 2011-01,"3531168002,9783531168005",,,,,,,,,OL24879648M,,0,,,,,,,1,1838353,pdf,292C6596E76EBDF2B060A107708E0076,,,D:\\!genesis\\library.nu\\29\\_41186.292c6596e76ebdf2b060a107708e0076.pdf,0,2000-01-01 01:00:00,2016-04-03 02:51:08,557000/292c6596e76ebdf2b060a107708e0076-g.jpg,,
19577181,"Decentralization with PROFIBUS DP DPV1: Architecture and Fundamentals, Configuration and Use with SIMATIC S7",,,,"Josef Weigmann, Gerhard Kilian",2004,"2nd Revised and Enlarged Edition, 2003",,,251,0,English,101,,до 2011-01,"3895782181,9783895782183",,,,,,,,,OL3363504M,,0,,,,,1,,0,60965712,pdf,29D715814D3CCFEF7EF064E1F841D011,,,D:\\!genesis\\library.nu\\29\\_40949.29d715814d3ccfef7ef064e1f841d011.pdf,0,2000-01-01 01:00:00,2016-04-03 02:51:08,557000/29d715814d3ccfef7ef064e1f841d011-d.jpg,,
19577182,"Materialfluss in Logistiksystemen, 6. Auflage (VDI-Buch)",,VDI-Buch,,"Dieter Arnold, Kai Furmans",2009,"6., erw. Aufl.",,,397,0,German,,,до 2011-01,"3642014046,9783642014048",,,,,,,10.1007/978-3-642-01405-5,,,,0,,,,,1,,1,3542937,pdf,29D0348096AEFF527B8E44A97F650F44,,,D:\\!genesis\\library.nu\\29\\_40184.29d0348096aeff527b8e44a97f650f44.pdf,0,2000-01-01 01:00:00,2016-04-03 02:51:08,557000/29d0348096aeff527b8e44a97f650f44-d.jpg,,
19577183,A Japanese Robinson Crusoe (Intersections: Asian and Pacific American Transcultural Studies),,,,Jenichiro Oyabe,2009,1 Reissue,,,185,0,English,183,,до 2011-01,"0824832477,9780824832476",,,,,"910.92,B",BV3457.O8 A3 2009,,,OL22551379M,,0,,,,,1,,1,1030273,pdf,29294A1BE537021C3E73630BE5C7E738,,,D:\\!genesis\\library.nu\\29\\_40156.29294a1be537021c3e73630be5c7e738.pdf,0,2000-01-01 01:00:00,2016-04-03 02:51:08,557000/29294a1be537021c3e73630be5c7e738-d.jpg,,
19577184,Knit Kimono: 18 Designs with Simple Shapes,,,,Vicki Square,2007,,,,128,0,English,,,до 2011-01,"1931499896,9781931499897",,,,,746.43/2041,TT825 .S71385 2007,,,OL17566360M,,0,,,,,1,,0,9425223,pdf,29059751BD050A8D72C72D7271D89178,,,D:\\!genesis\\library.nu\\29\\_39974.29059751bd050a8d72c72d7271d89178.pdf,0,2000-01-01 01:00:00,2016-04-03 02:51:08,557000/29059751bd050a8d72c72d7271d89178-d.jpg,,
19577185,L'antisémitisme : Son histoire et ses causes,,,,Bernard Lazare,,,,,426,0,French,,,до 2011-01,,,B001C675FY,,,,,,,,,0,,,,,1,,0,7008812,djvu,29853EFCF970085D8A2973BF0071EB96,197c39651299e76831d9c92186d0a56d,no,D:\\!genesis\\library.nu\\29\\_39969.29853efcf970085d8a2973bf0071eb96.djvu,0,2000-01-01 01:00:00,2016-04-03 02:51:08,557000/29853efcf970085d8a2973bf0071eb96-g.jpg,,
19577186,Institutions for the Common Good: International Protection Regimes in International Society (Cambridge Studies in International Relations),,,,Bruce Cronin,2003,,Cambridge University Press,,250,0,English,183,,до 2011-01,"9780521531870,052153187X,052182480X,9780521824804,9780511062360",,,,,,,,,OL22566866M,,0,,,,1,0,,1,1391578,pdf,29630CE88521A6F62391A9DACA259CD1,,,D:\\!genesis\\library.nu\\29\\_3924.29630ce88521a6f62391a9daca259cd1.pdf,0,2000-01-01 01:00:00,2016-04-03 02:51:08,557000/29630ce88521a6f62391a9daca259cd1-d.jpg,,
19577187,"Avec les Sahraouis, une histoire solidaire de 1975 à nos jours",,,,Régine Villemont,,,,,354,0,French,,,до 2011-01,"2296104894,9782296104891",,,,,,,,,,,0,,,,,1,,1,55296543,pdf,29F8D3569CB62152E16E15597261AB08,,,D:\\!genesis\\library.nu\\29\\_39103.29f8d3569cb62152e16e15597261ab08.pdf,0,2000-01-01 01:00:00,2016-04-03 02:51:08,557000/29f8d3569cb62152e16e15597261ab08-d.jpg,,
19577188,"The Adoption of the Euro, Choice of Currency Regime and Integration of Payment Systems",,,,"Michael Bonello, George von Furstenberg, Kari Kemppainen, Sinikka Salo",,,,,96,0,English,,,до 2011-01,"3902109351,9783902109354",,,,,,,,,,,0,,,,,1,,1,877579,pdf,29F53E332BCD65FF587E024CD252631E,,,D:\\!genesis\\library.nu\\29\\_38859.29f53e332bcd65ff587e024cd252631e.pdf,0,2000-01-01 01:00:00,2016-04-03 02:51:08,557000/29f53e332bcd65ff587e024cd252631e-g.jpg,,
19577189,Traversing the Fantasy: Critical Responses to Slavoj Zizek,,,,Geoff Boucher,2006,,,,268,0,English,196,,до 2011-01,"0754651924,9780754651925",,,,,199/.4973,B4870.Z594 B68 2005,,,OL22715460M,,0,,,,,1,,1,20572565,pdf,291AC151B95531C58169AF9D5A3160A9,,,D:\\!genesis\\library.nu\\29\\_38600.291ac151b95531c58169af9d5a3160a9.pdf,0,2000-01-01 01:00:00,2016-04-03 02:51:08,557000/291ac151b95531c58169af9d5a3160a9-d.jpg,,
19577190,"Comparative Health Policy, Second Edition",,,,"Robert H. Blank, Viola Burau",2007,2nd,,,304,0,English,137,,до 2011-01,"0230001408,9780230001404",,,,,,,,,OL22758557M,,0,,,,,1,,1,17969027,pdf,29496D6DE82AE7550495B75D1BB31B29,,,D:\\!genesis\\library.nu\\29\\_38382.29496d6de82ae7550495b75d1bb31b29.pdf,0,2000-01-01 01:00:00,2016-04-03 02:51:08,557000/29496d6de82ae7550495b75d1bb31b29-d.jpg,,
19577191,Elementary Hydrostatics with Chapters on the Motion of Fluids and on Sound,,,,W. H. Besant,1895,Reprint,,,284,0,English,,,до 2011-01,,,B002GWTUE2,,,,,,,,,0,,,,,1,,1,10031773,pdf,29A275CFC5AFA359658CA4FF89E9EB85,,,D:\\!genesis\\library.nu\\29\\_38181.29a275cfc5afa359658ca4ff89e9eb85.pdf,0,2000-01-01 01:00:00,2016-04-03 02:51:08,557000/29a275cfc5afa359658ca4ff89e9eb85-g.jpg,,
19577192,Yamaha YZF600R Thundercat FZS600 Fazer: 96 to '03 Service & Repair Manual (Haynes Manuals),,,,Matthew Coombs,2006,,,,272,0,English,,,до 2011-01,"9781844251520,1844251527",,,,,629.28775,TL448.Y3 C66253 2006,,,OL23100964M,,0,,,,,1,,1,14190078,pdf,29552715A379A90428C9B1CEFFF78FB8,,,D:\\!genesis\\library.nu\\29\\_37710.29552715a379a90428c9b1cefff78fb8.pdf,0,2000-01-01 01:00:00,2016-04-03 02:51:08,557000/29552715a379a90428c9b1cefff78fb8-d.jpg,,
19577193,"Islam, the West, and Tolerance: Conceiving Coexistence",,,,Aaron Tyler,2008,First Edition,,,240,0,English,205,,до 2011-01,"023060546X,9780230605466",,,,,,,,,OL10194878M,,0,,,,,1,,1,1071854,pdf,29D2B85D9B3BBF51932F22F43E325822,,,D:\\!genesis\\library.nu\\29\\_37407.29d2b85d9b3bbf51932f22f43e325822.pdf,0,2000-01-01 01:00:00,2016-04-03 02:51:08,557000/29d2b85d9b3bbf51932f22f43e325822-d.jpg,,
19577194,Finish Carpentry Basics,,,,Barbara Feller-Roth,1991,,,,112,0,English,,,до 2011-01,"0897212363,1402837062,9780897212366,9781402837067",,,,,694,TH5606 .B459 1991,,,OL1899071M,,0,,,,,1,,0,24123778,pdf,293929ADF7460462240FB62913D2C98A,,,D:\\!genesis\\library.nu\\29\\_37348.293929adf7460462240fb62913d2c98a.pdf,0,2000-01-01 01:00:00,2016-04-03 02:51:08,557000/293929adf7460462240fb62913d2c98a-d.jpg,,
19577195,Scarborough Fair (All's Fair In Love And Money),,,,SJ Hills,2010,,,,122,0,English,,,до 2011-01,"0955992117,9780955992117",,,,,,,,,,,0,,,,,1,,0,3499236,pdf,29FEE402DED685D55E40E718E7217F20,,,D:\\!genesis\\library.nu\\29\\_37194.29fee402ded685d55e40e718e7217f20.pdf,0,2000-01-01 01:00:00,2016-04-03 02:51:08,557000/29fee402ded685d55e40e718e7217f20-d.jpg,,
19577196,Le Suédois sans Peine - Tome 2 ; Livre (Relié),,,,Jean-Francois Battail,1992,,,,504,0,French,,,до 2011-01,"2700501284,9782700501285",,,,,,,,,,,0,,,,,1,,0,24578590,pdf,29EE6592A81B8F45A07FB8D21E5D52BD,,,D:\\!genesis\\library.nu\\29\\_36963.29ee6592a81b8f45a07fb8d21e5d52bd.pdf,0,2000-01-01 01:00:00,2016-04-03 02:51:08,557000/29ee6592a81b8f45a07fb8d21e5d52bd-d.jpg,,
19577197,Chemistry for Environmental Engineering and Science,,,,"Clair Sawyer, Perry McCarty, Gene Parkin",2002,5,,,768,0,English,296,,до 2011-01,"0072480661,9780072480665",,,,,628.0154,,,,OL22018545M,,0,,,,,1,,0,50216045,pdf,29DDD222923FCF5E08AD3A8079F6897C,,,D:\\!genesis\\library.nu\\29\\_35910.29ddd222923fcf5e08ad3a8079f6897c.pdf,0,2000-01-01 01:00:00,2016-04-03 02:51:08,557000/29ddd222923fcf5e08ad3a8079f6897c-d.jpg,,
19577198,Leninism Under Lenin,,,,Marcel Liebman,1980,,The Merlin Press Ltd,,239,0,English,64,,до 2011-01,"085036261X,9780850362619",,,,,,,,OQjzAAAAMAAJ,OL8264421M,,0,,,,0,1,,1,18439788,pdf,29082ED01879614C2BA55F8B44B2ACE9,,,D:\\!genesis\\library.nu\\29\\_35780.29082ed01879614c2ba55f8b44b2ace9.pdf,0,2000-01-01 01:00:00,2016-04-03 02:51:08,557000/29082ed01879614c2ba55f8b44b2ace9-d.jpg,,
19577199,Short History of Astronomy,,,,Arthur Berry,,,,,522,0,English,64,,до 2011-01,,,B001U462XO,,,,,,,,,0,,,,,1,,1,28132609,pdf,2917C7F058A1DDD2ADE66C52042D96D7,,,D:\\!genesis\\library.nu\\29\\_34945.2917c7f058a1ddd2ade66c52042d96d7.pdf,0,2000-01-01 01:00:00,2016-04-03 02:51:08,557000/2917c7f058a1ddd2ade66c52042d96d7-g.jpg,,
19577200,Les incendiaires : Les banques centrales dépassées par la globalisation,,,,Patrick Artus,2007,,Librairie Académique Perrin,,178,0,French,,,до 2011-01,"2262025614,9782262025618",,,,,,,,,OL22559586M,,0,,,,0,1,,1,2173728,pdf,2990D02F5F0DF714CF1A458F1A27073B,,,D:\\!genesis\\library.nu\\29\\_34254.2990d02f5f0df714cf1a458f1a27073b.pdf,0,2000-01-01 01:00:00,2016-04-03 02:51:08,557000/2990d02f5f0df714cf1a458f1a27073b-g.jpg,,
19577201,Land Surveyor Reference Manual,,,,Andrew L. Harbin,2001,3rd,,,482,0,English,,,до 2011-01,"1888577509,9781888577501",,,,,526.9,TA551 .H37 2001,,,OL3964134M,,0,,,,,1,,1,84233837,pdf,293EB447FD3D2A7783F3A6DBD3054454,,,D:\\!genesis\\library.nu\\29\\_33856.293eb447fd3d2a7783f3a6dbd3054454.pdf,0,2000-01-01 01:00:00,2016-04-03 02:51:08,557000/293eb447fd3d2a7783f3a6dbd3054454-d.jpg,,
19577202,Who's Who in Fluorescence 2009,,,,Chris D. Geddes,2009,1,,,234,0,English,,,до 2011-01,"1441901906,9781441901903,9781441901910",,,,,,,10.1007/978-1-4419-0191-0,,,,0,,,,,1,,1,4842012,pdf,29CA093563143A39ABAD0C777B6F98F8,,,D:\\!genesis\\library.nu\\29\\_33611.29ca093563143a39abad0c777b6f98f8.pdf,0,2000-01-01 01:00:00,2016-04-03 02:51:08,557000/29ca093563143a39abad0c777b6f98f8-d.jpg,,
19577203,Fallacy of the Mixed Economy: An 'Austrian' Critique of Recent Economic Thinking & Policy : 2nd Edition,,,,SC Littlechild,2009,2nd Revised edition,,,112,0,English,305,,до 2011-01,"0255366337,9780255366335",,,,,,,,,,,0,,,,,1,,1,5334814,pdf,299651B4EE9B750448BA08C31D051A6B,,,D:\\!genesis\\library.nu\\29\\_33071.299651b4ee9b750448ba08c31d051a6b.pdf,0,2000-01-01 01:00:00,2016-04-03 02:51:08,557000/299651b4ee9b750448ba08c31d051a6b-d.jpg,,
19577204,Adorno: Disenchantment and Ethics (Modern European Philosophy),,,,J. M. Bernstein,2001,,,,480,0,English,195,,до 2011-01,"0521003091,9780521003094",,,,,,,,,OL7712643M,,0,,,,,1,,0,185112833,pdf,2932F12F2E8C0C1B11D705D5EEFBD0B9,,,D:\\!genesis\\library.nu\\29\\_33028.2932f12f2e8c0c1b11d705d5eefbd0b9.pdf,0,2000-01-01 01:00:00,2016-04-03 02:51:08,557000/2932f12f2e8c0c1b11d705d5eefbd0b9-d.jpg,,
19577205,Falling in Love,,,,Francesco Alberoni,1983,,,,166,0,English,,,до 2011-01,"0394530071,9780394530079",,,,,306.7/3,BF575.L8 A413 1983,,,OL3185540M,,0,,,,,1,,0,676150,pdf,2952AF7851522E0064DF2D932201D244,,,D:\\!genesis\\library.nu\\29\\_32801.2952af7851522e0064df2d932201d244.pdf,0,2000-01-01 01:00:00,2016-04-03 02:51:08,557000/2952af7851522e0064df2d932201d244-g.jpg,,
19577206,C: A Reference Manual (5th Edition),,,,"Samuel P. Harbison, Guy L. Steele",2002,5,,,560,0,English,,,до 2011-01,"013089592X,9780130895929",,,,,005.13/3,QA76.73.C15 H38 2002,,,OL3582737M,,0,,,,,1,,1,4061548,djvu,2952763B2602168111358AA9EC9C7BEC,,,D:\\!genesis\\library.nu\\29\\_32603.2952763b2602168111358aa9ec9c7bec.djvu,0,2000-01-01 01:00:00,2016-04-03 02:51:08,557000/2952763b2602168111358aa9ec9c7bec-d.jpg,,
19577207,Byzantine and Turkish Sardis,,,,Clive Foss,1976,,,,232,0,English,,,до 2011-01,"9780783716978,0783716974,0674089693",,,,,939.2/2,DS156.S3 F67,,,OL5192915M,,0,,,,,1,,0,33146740,pdf,29DCD87877CE8ED5B38D2E06A4AAF679,,,D:\\!genesis\\library.nu\\29\\_32358.29dcd87877ce8ed5b38d2e06a4aaf679.pdf,0,2000-01-01 01:00:00,2016-04-03 02:51:08,557000/29dcd87877ce8ed5b38d2e06a4aaf679-d.jpg,,
19577208,Encyclopedia of Developing Regional Communities With Information And Communication Technology,,,,Stewart Marshall,2005,,,,804,0,English,188,,до 2011-01,"1591405750,9781591405757,1591407915,9781591407911",,,,,303.48/33/091724,HN49.C6 E545 2006,,,OL3393924M,,0,,,,,1,,1,9547927,pdf,2970747D1362130F73D0207288C1DE7C,,,D:\\!genesis\\library.nu\\29\\_31718.2970747d1362130f73d0207288c1de7c.pdf,0,2000-01-01 01:00:00,2016-04-03 02:51:08,557000/2970747d1362130f73d0207288c1de7c-d.jpg,,
19577209,Postmodern Geographies: The Reassertion of Space in Critical Social Theory,,,,Edward W. Soja,1989,,,,266,0,English,196,,до 2011-01,"0860919366,9780860919360",,,,,910/.01,G70 .S62 1989,,,OL2043712M,,0,,,,,1,,1,22281612,pdf,29401F6DA72657A93D52ADCEA9D62993,,,D:\\!genesis\\library.nu\\29\\_31704.29401f6da72657a93d52adcea9d62993.pdf,0,2000-01-01 01:00:00,2016-04-03 02:51:08,557000/29401f6da72657a93d52adcea9d62993-d.jpg,,
19577210,Design and development of recommender dialogue systems,,,,by Pontus Johansson.,,,,,149,0,English,,,до 2011-01,9173739189,,,,,,,,,,,0,,,,,1,,1,3407907,pdf,298E632280E94D7A57861B254B5B0CC7,,,D:\\!genesis\\library.nu\\29\\_31179.298e632280e94d7a57861b254b5b0cc7.pdf,0,2000-01-01 01:00:00,2016-04-03 02:51:08,557000/298e632280e94d7a57861b254b5b0cc7-g.jpg,,
19577211,"Force of Nature (Troubleshooters, Book 11)",,,,Suzanne Brockmann,2008,,,,512,0,English,181,,до 2011-01,"0345480171,9780345480170",,,,,,,,,OL9577119M,,0,,,,,1,,1,1989287,pdf,29337DA25AD0622CE5B2E76FFFD92DF2,,,D:\\!genesis\\library.nu\\29\\_30339.29337da25ad0622ce5b2e76fffd92df2.pdf,0,2000-01-01 01:00:00,2016-04-03 02:51:08,557000/29337da25ad0622ce5b2e76fffd92df2-d.jpg,,
19577212,La Vida En Busqueda De La Libertad  Spanish,,,,"Comblin, Jose",,,,,92,0,Spanish,,,до 2011-01,9788534927338,,,,,,,,,,,0,,,,,1,,1,434981,pdf,299E65F0C23C03924D09CF0A76EC851F,,,D:\\!genesis\\library.nu\\29\\_30217.299e65f0c23c03924d09cf0a76ec851f.pdf,0,2000-01-01 01:00:00,2016-04-03 02:51:08,557000/299e65f0c23c03924d09cf0a76ec851f-g.jpg,,
19577213,Sophocles: Ajax-Electra-Trachiniae- Philoctetes (Loeb Classical Library Series 21),,,,F. Storr,1993,Revised,,,498,0,Greek,92,,до 2011-01,"0674990242,9780674990241",,B0011U888Y,,,,,,,OL7693821M,,0,,,,,1,,1,5315191,pdf,29C3D08AC3361F22E45A09F1DB99F9DF,,,D:\\!genesis\\library.nu\\29\\_29656.29c3d08ac3361f22e45a09f1db99f9df.pdf,0,2000-01-01 01:00:00,2016-04-03 02:51:08,557000/29c3d08ac3361f22e45a09f1db99f9df-g.jpg,,
19577214,A Filosofia do Século XX (Coleção Filosofia e Política),,,,"Remo Bodei (Author), Modesto Florenzano (Translator)",,,,,289,0,Portuguese,,,до 2011-01,"9788586259845,8586259845",,,,,,,,,,,0,,,,,1,,1,1091811,pdf,29DAE8009BF0892BECDD1045327394F1,,,D:\\!genesis\\library.nu\\29\\_29627.29dae8009bf0892becdd1045327394f1.pdf,0,2000-01-01 01:00:00,2016-04-03 02:51:08,557000/29dae8009bf0892becdd1045327394f1-g.jpg,,
19577215,Critical Thinking: An Introduction to the Basic Skills,,,,William Hughes,1999,3,,,360,0,English,196,,до 2011-01,"1551112515,9781551112510,9780585270906",,,,,160,BC177 .H82 2000,,,OL6897076M,,0,,,,,1,,,542246,chm,29F147EDC78C80A23DE85E05CAFD118A,,,D:\\!genesis\\library.nu\\29\\_29551.29f147edc78c80a23de85e05cafd118a.chm,0,2000-01-01 01:00:00,2016-04-03 02:51:08,557000/29f147edc78c80a23de85e05cafd118a-d.jpg,,
19577216,BASIC 7.0 auf dem Commodore 128 : strukturiertes Programmieren erkl. an zahlr. Anwendungsbeispielen,,,,Jürgen Hückstädt,1986,3. Aufl,Markt-und-Technik-Verlag,Haar bei München,245,0,German,,usenet,to 2012-06,"3890901492,9783890901497",,,,,,,,,,,0,,,,,,,1,65024624,pdf,191d53b4912cf19ec8e44791c10bd1e1,,,I:\\usenet_ger\\Basic 7 auf dem C128 (OCR).pdf,0,2000-01-01 01:00:00,2016-04-03 02:51:08,882000/191d53b4912cf19ec8e44791c10bd1e1-g.jpg,,
19577217,A Series of Unfortunate Events 07 The Vile Village,,,,Lemony Snickey,2003,,,,60,0,English,,,до 2011-01,1402537417,,,,,,,,,OL8373898M,,0,,,,,1,,1,209033,pdf,2901A017E7DB9BC8897F4CA399BA08A6,,,D:\\!genesis\\library.nu\\29\\_29164.2901a017e7db9bc8897f4ca399ba08a6.pdf,0,2000-01-01 01:00:00,2016-04-03 02:51:08,557000/2901a017e7db9bc8897f4ca399ba08a6-g.jpg,,
19577218,Purines as Transmitter Molecules: Electrophysiological Studies on Purinergic Signalling in Different Cell Systems,,,,"Coppi, Elisabetta",2008,,Firenze University Press,,190,0,English,183,,до 2011-01,"8884539048,9788884539045",,,,,,,,,,,0,,,,,,,1,3975541,pdf,29B4DCD30ED82FD11992E5BB1D0D7674,,,D:\\!genesis\\library.nu\\29\\_288170.29b4dcd30ed82fd11992e5bb1d0d7674.pdf,0,2000-01-01 01:00:00,2016-04-03 02:51:08,557000/29b4dcd30ed82fd11992e5bb1d0d7674-g.jpg,,
19577219,ظلّ الأفعى,,,,يوسف زيدان,2005,,,,93,0,Arabic,,,до 2011-01,,,,,,,,,,,,0,,,,,,,1,566762,pdf,29FE72810268EDC95D307C62C5F95228,,,D:\\!genesis\\library.nu\\29\\_288062.29fe72810268edc95d307c62c5f95228.pdf,0,2000-01-01 01:00:00,2016-04-03 02:51:08,557000/29fe72810268edc95d307c62c5f95228-g.jpg,,
19577220,Concise Encyclopedia of Supersymmetry - And Noncommutative Structures in Mathematics and Physics,,,,S. Duplij,2003,1,Springer,,561,0,English,113,,до 2011-01,"1402013388,9781402013386",,,,,539.7/25,QC174.17.S9 C59 2004,,,OL21170821M,,0,,,,,,,0,49598814,pdf,29D74758B1BEAB081609835914DE1D36,,,D:\\!genesis\\library.nu\\29\\_287880.29d74758b1beab081609835914de1d36.pdf,0,2000-01-01 01:00:00,2016-04-03 02:51:08,557000/29d74758b1beab081609835914de1d36-d.jpg,,
19577221,Il Gioco Della Mosca (Italian Edition),,,,Andrea Camilleri,1997,,Sellerio di Giorgianni,,,0,Italian,,,до 2011-01,,,,,,,,,,,,0,,,,,,,,64023,epub,2940D684599DFB1615E432684AB43869,,,D:\\!genesis\\library.nu\\29\\_287203.2940d684599dfb1615e432684ab43869.epub,0,2000-01-01 01:00:00,2016-04-03 02:51:08,557000/2940D684599DFB1615E432684AB43869-g.jpg,,
