19786222,Financial Markets and Institutions (5th Edition)  ,,,,"Frederic S. Mishkin, Stanley G. Eakins",2005,5,Addison Wesley,,730,0,English ,,,2011 12 30,"0321280296,9780321280299",,,,,,,,,OL9791214M,,0,,,,0,1,1,0,68081981,pdf,B0739995BCDE13EBE83C2BCB04B97CF9,,,_435692.b0739995bcde13ebe83c2bcb04b97cf9.pdf,0,2000-01-01 01:00:00,2016-04-03 02:51:08,766000/b0739995bcde13ebe83c2bcb04b97cf9-d.jpg,,
19786223,How to Write a Business Plan  ,,,,Mike McKeever,2010,Tenth Edition,NOLO,,308,0,English ,,,2011 12 30,"1413312802,9781413312805",,,,,,,,,,,0,,,,,1,,1,17521934,pdf,B073D56D836B3E14F1FA9DF62D05B578,,,_491455.b073d56d836b3e14f1fa9df62d05b578.pdf,0,2000-01-01 01:00:00,2016-04-03 02:51:08,766000/b073d56d836b3e14f1fa9df62d05b578-d.jpg,,
19786224,Global Strategy  ,,,,Mike W. Peng,2008,2,South-Western College Pub,,557,0,English ,,,2011 12 30,"0324590997,9780324590999",,,,,,,,,OL23207337M,,0,,,,,1,,1,21357101,pdf,B076BEC1A7442E5253FEB2C1EF5D1767,,,_457238.b076bec1a7442e5253feb2c1ef5d1767.pdf,0,2000-01-01 01:00:00,2016-04-03 02:51:08,766000/b076bec1a7442e5253feb2c1ef5d1767-d.jpg,,
19786225,Artemis in Attica  ,,,,Ruth Léger,2011,,,,57,0,English ,,,2011 12 30,,,,,,,,,,,,0,,,,,1,,1,1289359,pdf,B0777F9ACCA10C59DD6A241CE988D9D6,,,_493794.b0777f9acca10c59dd6a241ce988d9d6.pdf,0,2000-01-01 01:00:00,2016-04-03 02:51:08,766000/b0777f9acca10c59dd6a241ce988d9d6-g.jpg,,
19786226,"Spectral Methods in MATLAB (Software, Environments, Tools)  ",,,,LLoyd N. Trefethen,,,,,181,0,English ,98,,2011 12 30,0898714656,,,,,,,,,,,0,,,,,1,,1,3273203,pdf,B07B65ABF6E0D560C565F8EA86115FE1,,,_449054.b07b65abf6e0d560c565f8ea86115fe1.pdf,0,2000-01-01 01:00:00,2016-04-03 02:51:08,766000/b07b65abf6e0d560c565f8ea86115fe1-d.jpg,,
19786227,"The Dream World of H. P. Lovecraft: His Life, His Demons, His Universe  ",,,,Donald Tyson,2010,,Llewellyn Publications,,214,0,English ,,,2011 12 30,"0738722847,9780738722849",,,,,813.52,,,,,,0,,,,,1,,0,43199010,pdf,B07CED8CF312009318F6C3AC1FB70EF0,,,_499743.b07ced8cf312009318f6c3ac1fb70ef0.pdf,0,2000-01-01 01:00:00,2016-04-03 02:51:08,766000/b07ced8cf312009318f6c3ac1fb70ef0-d.jpg,,
19786228,How To Make Maximum Money With Minimum Customers: 21 Proven Direct-Marketing Strategies Anyone Can Use!  ,,,,Craig Garber,2011,,kingofcopy.com,,,0,English ,,,2011 12 30,,,ISBN10:B005DYORXY,,,,,,,,,0,,,,,0,1,1,1341132,mobi,B07EFF9E031285AC5F752595BCFECDE4,,,_484741.b07eff9e031285ac5f752595bcfecde4.mobi,0,2000-01-01 01:00:00,2016-04-03 02:51:08,766000/B07EFF9E031285AC5F752595BCFECDE4-g.jpg,,
19786229,"Entwurfshilfen für Architekten und Bauingenieure: Faustformeln für Tragkonstruktionen, Tragfähigkeitstafeln, Bauwerksaussteifung  ",,,,"Klaus-Jürgen Schneider, Heinz Volz",2004,,Bauwerk Verlag Gmbh,,142,0,German ,,,2011 12 30,"3934369030,9783934369030",,,,,,,,,,,0,,,,,1,1,1,7440573,pdf,B080E02C572B56B6FF5C3206EA0CFD65,,,_501836.b080e02c572b56b6ff5c3206ea0cfd65.pdf,0,2000-01-01 01:00:00,2016-04-03 02:51:08,766000/b080e02c572b56b6ff5c3206ea0cfd65-g.jpg,,
19786230,Our Oriental Heritage: The Story of Civilization Vol 1  ,,The Story of Civilization 1,,Will Durant,2011,,Simon & Schuster,,,0,English ,,,2011 12 30,067154800X,,,,,,,,yfMsQwAACAAJ,OL7650005M,,0,,,,0,0,1,1,7770712,mobi,B081FEA63E5AE88DA005A1283F477393,,,_457901.b081fea63e5ae88da005a1283f477393.mobi,0,2000-01-01 01:00:00,2016-04-03 02:51:08,766000/b081fea63e5ae88da005a1283f477393-d.jpg,,
19786231,"Algorithmic Decision Theory: Second International Conference, ADT 2011, Piscataway, NJ, USA, October 26-28, 2011. Proceedings  ",,,,"Ronen I. Brafman, Fred S. Roberts, Alexis Tsoukiàs",2011,2011,Springer-Verlag Berlin Heidelberg,,354,0,English,,,2011 12 30,"3642248721,9783642248726",,,,,,,10.1007/978-3-642-24873-3,,,,0,,,,,0,1,1,4726565,pdf,B0845AD1366597B578831D0FEAC258A0,,,_507312.b0845ad1366597b578831d0feac258a0.pdf,0,2000-01-01 01:00:00,2016-04-03 02:51:08,766000/b0845ad1366597b578831d0feac258a0-d.jpg,,
19786232,צדק חלוקתי בישראל  ,,,,מנחם מאוטנר,2000,,רמות,,452,0,Hebrew,,,2011 12 30,,,,,,,,,,,,0,,,,0,1,0,0,76353989,pdf,B08506023852FD4B713D81C4B75B7D1C,,,_485142.b08506023852fd4b713d81c4b75b7d1c.pdf,0,2000-01-01 01:00:00,2016-04-03 02:51:08,766000/b08506023852fd4b713d81c4b75b7d1c-g.jpg,,
19786233,Writing Routes: A Resource Handbook of Therapeutic Writing  ,,Writing for Therapy or Personal Development Series,,"Gillie Bolton, Victoria Field & Kate Thompson (Editors)",2011,1,Jessica Kingsley Publishers,,240,0,English ,,,2011 12 30,"1849051070,9781849051071",,,,,,,,yevV5sC3BrgC,,,0,,,,1,0,1,1,646298,pdf,B085B89F04F8DA3A3C1F4009F4825B56,,,_493077.b085b89f04f8da3a3c1f4009f4825b56.pdf,0,2000-01-01 01:00:00,2016-04-03 02:51:08,766000/b085b89f04f8da3a3c1f4009f4825b56-d.jpg,,
19786234,Beautiful Software  ,,,,Chuck Connell,2011,,CreateSpace,,167,0,English ,,,2011 12 30,"1456438786,9781456438784",,,,,,,,,,,0,,,,,0,1,1,498588,mobi,B086C21E35D67EB84E43F18C7466EC20,,,_476187.b086c21e35d67eb84e43f18c7466ec20.mobi,0,2000-01-01 01:00:00,2016-04-03 02:51:08,766000/b086c21e35d67eb84e43f18c7466ec20-d.jpg,,
19786235,The Vengeful Djinn: Unveiling the Hidden Agenda of Genies  ,,,,"Rosemary Ellen Guiley, Philip J. Imbrogno",2011,,Llewellyn Worldwide,,451,0,English ,,,2011 12 30,"0738721719,9780738721712",,,,,,,,xMEipdTtH9oC,,,0,,,,,1,,1,1821197,mobi,B087C37F5739DD4E6D75EAA04F2AE66B,,,_464496.b087c37f5739dd4e6d75eaa04f2ae66b.mobi,0,2000-01-01 01:00:00,2016-04-03 02:51:08,766000/b087c37f5739dd4e6d75eaa04f2ae66b-d.jpg,,
19786236,Microscale Organic Laboratory: with Multistep and Multiscale Syntheses  ,,,,"Dana W. Mayo, Ronald M. Pike, David C. Forbes",2010,5,Wiley,,751,0,English ,,,2011 12 30,"0471215023,9780471215028",,,,,547.0078,QD261 .M38 2010,,,OL10304647M,,0,,,,,1,,1,45402647,pdf,B089EB828BCF5968FF6C594D522BB8B6,,,_455804.b089eb828bcf5968ff6c594d522bb8b6.pdf,0,2000-01-01 01:00:00,2016-04-03 02:51:08,766000/b089eb828bcf5968ff6c594d522bb8b6-d.jpg,,
19786237,JavaScript Web Applications (Otx)  ,,,,Alex MacCaw,2011,,O'Reilly Media,,280,0,English ,92,,2011 12 30,"144930351X,9781449303518",,,,,,,,ymDsh5yOfpsC,,,0,,,,1,0,1,1,10011539,pdf,B089F3DB70B3A6D47A0FF6123561852F,,,_462478.b089f3db70b3a6d47a0ff6123561852f.pdf,0,2000-01-01 01:00:00,2016-04-03 02:51:08,766000/b089f3db70b3a6d47a0ff6123561852f-d.jpg,,
19786238,Macroscope  ,,,,Piers Anthony,2003,,Mundania Press LLC,,575,0,English ,,,2011 12 30,"0972367098,9780972367097",,,,,,,,,OL8577893M,,0,,,,,1,,1,1031690,pdf,B08B9FEF01DC87A69ADD6757FA41E040,,,_435594.b08b9fef01dc87a69add6757fa41e040.pdf,0,2000-01-01 01:00:00,2016-04-03 02:51:08,766000/b08b9fef01dc87a69add6757fa41e040-d.jpg,,
19786239,What is cognitive science?  ,,,,Barbara Von Eckardt,1995,,MIT Press,,,0,English ,,,2011 12 30,"026272023X,9780262720236",,,,,153,,,E8l48-DZln0C,,,0,,,,,1,,,1571674,epub,B08BDA7C6FE8901802CE1C747BD8CF83,,,_472626.b08bda7c6fe8901802ce1c747bd8cf83.epub,0,2000-01-01 01:00:00,2016-04-03 02:51:08,766000/b08bda7c6fe8901802ce1c747bd8cf83-d.jpg,,
19786240,Hold Still  ,,,,"Nina LaCour, Mia Nolting",2009,1,Dutton,,,0,English ,,,2011 12 30,"0525421556,9780525421559",,,,,,,,ZKyyyXOTNbAC,OL25218311M,,0,,,,,1,,,5579253,epub,B08C2F6C7C0D17A109739F4025BCFC01,,,_493543.b08c2f6c7c0d17a109739f4025bcfc01.epub,0,2000-01-01 01:00:00,2016-04-03 02:51:08,766000/b08c2f6c7c0d17a109739f4025bcfc01-d.jpg,,
19786241,"Organic Chemistry, 2nd Edition  ",,,,Joseph M. Hornback,2006,2nd,Brooks Cole,,1334,0,English ,,,2011 12 30,"0534389511,9780534389512",,,,,547,QD253 .H66 2006,,FETzRWMGt3YC,OL3315091M,,0,,,,,1,1,1,13280047,djvu,B090863BCDBA92D6BAC801EB66DE6EB0,,,_484266.b090863bcdba92d6bac801eb66de6eb0.djvu,0,2000-01-01 01:00:00,2016-04-03 02:51:08,766000/b090863bcdba92d6bac801eb66de6eb0-d.jpg,,
19786242,Ο Δεύτερος Παγκόσμιος Πόλεμος  ,,,,"Parker, Alastair - μετάφραση: Γρηγόρης Κονδύλης",2004,1η έκδ.,Θύραθεν,,349,0,Greek(Modern),,,2011 12 30,9789608097223,,,,,,,,,,,0,,,,1,0,1,1,6297158,pdf,B090D76C5EF46EAC52661DD1D82BA188,,,_498765.b090d76c5ef46eac52661dd1d82ba188.pdf,0,2000-01-01 01:00:00,2016-04-03 02:51:08,766000/b090d76c5ef46eac52661dd1d82ba188-g.jpg,,
19786243,Command the Wind  ,,,,Elaine Lowe,2009,,Ellora's Cave,,,0,English ,,,2011 12 30,"1419920200,9781419920202",,,,,,,,,,,0,,,,,1,,,214110,epub,B0911F9C2FB13572171990C89E7044E1,,,_512701.b0911f9c2fb13572171990c89e7044e1.epub,0,2000-01-01 01:00:00,2016-04-03 02:51:08,766000/B0911F9C2FB13572171990C89E7044E1-g.jpg,,
19786244,Mises: The Last Knight of Liberalism  ,,,,Jörg Guido Hülsmann,2007,1st,Ludwig von Mises Institute,,1160,0,English ,,,2011 12 30,"193355018X,9781933550183",,,,,,,,,OL12338709M,,0,,,,,0,1,1,4545944,mobi,B091FB36A95FE57A8C1496F4368C3C09,,,_506814.b091fb36a95fe57a8c1496f4368c3c09.mobi,0,2000-01-01 01:00:00,2016-04-03 02:51:08,766000/b091fb36a95fe57a8c1496f4368c3c09-d.jpg,,
19786245,Must You Go?: My Life with Harold Pinter  ,,,,Antonia Fraser,2010,1St Edition,Nan A. Talese,,,0,English ,,,2011 12 30,"0385532504,9780385532501",,,,,"822/.914,B",PR6066.I53 Z6457 2010,,,OL24091039M,,0,,,,,1,,,12440324,epub,B09323725AE0AFB333ABA9C1930C1BD8,,,_445461.b09323725ae0afb333aba9c1930c1bd8.epub,0,2000-01-01 01:00:00,2016-04-03 02:51:08,766000/b09323725ae0afb333aba9c1930c1bd8-d.jpg,,
19786246,"Including Students with Special Needs: A Practical Guide for Classroom Teachers, 6th Edition  ",,,,"Marilyn Friend, William D. Bursuck",2011,6th Edition,Prentice Hall,,505,0,English ,,,2011 12 30,"0132179725,9780132179720",,,,,,,,,,,0,,,,1,0,1,1,17739698,pdf,B097C93FBFEBC3E1415681BC68EA0440,,,_468502.b097c93fbfebc3e1415681bc68ea0440.pdf,0,2000-01-01 01:00:00,2016-04-03 02:51:08,766000/b097c93fbfebc3e1415681bc68ea0440-d.jpg,,
19786247,Logic Programming with Prolog  ,,,,Max Bramer,,1st Edition.,,,229,0,English ,87,,2011 12 30,"1852339381,9781852339388",,,,,,,,,OL8974496M,,0,,,,0,0,1,1,847930,pdf,B0984AC01FCDDA72E57CF6BE2EDC618E,,,_100677.b0984ac01fcdda72e57cf6be2edc618e.pdf,0,2000-01-01 01:00:00,2016-04-03 02:51:08,766000/b0984ac01fcdda72e57cf6be2edc618e-d.jpg,,
19786248,A Grammar of Nzadi B865 : A Bantu language of Democratic Republic of Congo  ,,Uc Publications in Linguistics,,"Thera Marie Crane, Larry M. Hyman, Simon Nsielanga Tukumu S.J.",2011,1,University of California Press,,310,0,English ,,,2011 12 30,"0520098862,9780520098862",,,,,,,,,,,0,,,,0,0,0,1,16345691,pdf,B09877009E422E86C5DC7F73F7E157FD,,,_484907.b09877009e422e86c5dc7f73f7e157fd.pdf,0,2000-01-01 01:00:00,2016-04-03 02:51:08,766000/b09877009e422e86c5dc7f73f7e157fd-d.jpg,,
19786249,A Buddhist Chinese- Sanskrit Dictionary  ,,,,Akira Hirakawa,1997,,The Reiyukai,,1506,0,English ,,,2011 12 30,,,,,,,,,,,,0,,,,0,1,1,0,114916241,pdf,B098CD3112081E6FE91B82DB27371887,,,_433790.b098cd3112081e6fe91b82db27371887.pdf,0,2000-01-01 01:00:00,2016-04-03 02:51:08,766000/b098cd3112081e6fe91b82db27371887-g.jpg,,
19786250,The Book of Illusions  ,,,,Paul Auster,2003,,Picador,,,0,English ,,,2011 12 30,"0312421818,9780312421816",,,,,813/.54,PS3551.U77 B66 2003,,,OL22737548M,,0,,,,,1,,,316506,epub,B09BC1C9F615DDA1AB29BDA4511CFD43,,,_455352.b09bc1c9f615dda1ab29bda4511cfd43.epub,0,2000-01-01 01:00:00,2016-04-03 02:51:08,766000/b09bc1c9f615dda1ab29bda4511cfd43-d.jpg,,
19786251,История Джунгарского ханства. 1635-1758  ,,,,И.Я. Златкин,1983,2,Наука,,169,0,Russian ,,,2011 12 30,,,,,,,,,,,,0,,,,0,1,1,0,7699056,pdf,B09C3B4BB2DDD572D36D3761D1C576F7,,,_484718.b09c3b4bb2ddd572d36d3761d1c576f7.pdf,0,2000-01-01 01:00:00,2016-04-03 02:51:08,766000/b09c3b4bb2ddd572d36d3761d1c576f7-g.jpg,,
19786252,The 6th Lamentation  ,,,,William Brodrick,,,,,,0,English ,,,2011 12 30,,,,,,,,,,,,0,,,,,1,,,434858,epub,B09C3FBCAF25AA5EF1BE473AF413993B,,,_455365.b09c3fbcaf25aa5ef1be473af413993b.epub,0,2000-01-01 01:00:00,2016-04-03 02:51:08,766000/B09C3FBCAF25AA5EF1BE473AF413993B-g.jpg,,
19786253,College Algebra and Trigonometry: Building Concepts and Connections  ,,,,Revathi Narasimhan,2008,1,Houghton Mifflin Harcourt,,1130,0,English ,,,2011 12 30,"0618412891,9780618412891",,,,,512.9,QA154.3 .N37 2009,,,OL16989244M,,0,,,,1,0,1,1,30476078,pdf,B09DF64B9DCCB2A5911BAB9EC0DF8EDE,,,_471362.b09df64b9dccb2a5911bab9ec0df8ede.pdf,0,2000-01-01 01:00:00,2016-04-03 02:51:08,766000/b09df64b9dccb2a5911bab9ec0df8ede-d.jpg,,
19786254,"Computers, Cognition, and Writing Instruction (SUNY Series in Computers in Education)  ",,,,Marjorie Montague,1990,,State University of New York Press,,230,0,English ,,,2011 12 30,"079140336X,0791403351,9780791403365,9780585055053",,,,,428/.0078,LB1576.7 .M66 1990,,,OL2205056M,,0,,,,1,0,1,1,1449053,pdf,B09F8D06AECD34160260E18677DB2B46,,,_461300.b09f8d06aecd34160260e18677db2b46.pdf,0,2000-01-01 01:00:00,2016-04-03 02:51:08,766000/b09f8d06aecd34160260e18677db2b46-g.jpg,,
19786255,The Encyclopedia of Science Fiction  ,,,,"John Clute, Peter Nicholls",1995,,St Martins Press,,2869,0,English ,,,2011 12 30,"031213486X,9780312134860",,,,,809.3/8762/03,PN3433.4 .E53 1995,,,OL796952M,,0,,,,0,0,1,1,7991534,pdf,B0A062EA61D43039F50FA8F14D4F6C26,,,_507229.b0a062ea61d43039f50fa8f14d4f6c26.pdf,0,2000-01-01 01:00:00,2016-04-03 02:51:08,766000/b0a062ea61d43039f50fa8f14d4f6c26-d.jpg,,
19786256,"Exporting Security: International Engagement, Security Cooperation, and the Changing Face of the U.S. Military  ",,,,Derek S. Reveron,2010,,Georgetown University Press,,224,0,English ,,,2011 12 30,"1589017080,9781589017085",,,,,355/.0310973,UA23 .R463 2010,,u1TRAJ7ltGQC,OL24068601M,,0,,,,1,0,1,1,1274091,pdf,B0A19AED17AC8681B7378A0611538BE6,,,_446564.b0a19aed17ac8681b7378a0611538be6.pdf,0,2000-01-01 01:00:00,2016-04-03 02:51:08,766000/b0a19aed17ac8681b7378a0611538be6-d.jpg,,
19786257,Transport Matters: Integrated Approaches to Planning City-Regions  ,,RTPI library series,,Angela Hull,2009,1,Taylor & Francis,London ; New York,310,0,English ,,,2011 12 30,"0415454220,9780415454223,9780415458184,0415458188,9780203938782,020393878X",,,,,711/.7094,HE242.A2 H85 2010,,7CTjYtO3DAYC,OL24109743M,,0,,,,,1,,1,3511275,pdf,B0A4196A1D035D004118FD4F04241CD3,,,_473609.b0a4196a1d035d004118fd4f04241cd3.pdf,0,2000-01-01 01:00:00,2016-04-03 02:51:08,766000/b0a4196a1d035d004118fd4f04241cd3-d.jpg,,
19786258,"The Aging Networks: A Guide to Programs and Services, 7th Edition  ",,,,"Kelly Niles-Yokum MPA PhD, Donna Wagner PhD",2010,7th,Springer Publishing Company,,271,0,English ,,,2011 12 30,"0826118089,9780826118080,9780826118097",,,,,,,,AiVwXbLaxzEC,,,0,,,,1,0,1,1,1257081,pdf,B0A45BD2891F75ACF8276F940CBFEA14,,,_471683.b0a45bd2891f75acf8276f940cbfea14.pdf,0,2000-01-01 01:00:00,2016-04-03 02:51:08,766000/b0a45bd2891f75acf8276f940cbfea14-d.jpg,,
19786259,Generative and Transformational Techniques in Software Engineering III - GTTSE 2009  ,,Lecture Notes in Computer Science 6491,,"João M. Fernandes, Ralf Lämmel, Joost Visser, João Saraiva",2011,2011,Springer,,510,0,English ,,,2011 12 30,"3642180221,9783642180224",0302-9743,,,,,,,9FPPlPKfKbgC,,,0,,,,1,0,1,1,9801924,pdf,B0A47DDFD61601152E934204CA1C412F,,,_433166.b0a47ddfd61601152e934204ca1c412f.pdf,0,2000-01-01 01:00:00,2016-04-03 02:51:08,766000/b0a47ddfd61601152e934204ca1c412f-d.jpg,,
19786260,,,,Crux Mathematicorum with Mathematical Mayhem - Volume 35 Number 5 (Sep 2009) ,Canadian Mathematical Society,2009,,,,96,0,English ,,,2011 12 30,,,,,,,,,,,,0,,,,0,0,0,1,1034320,pdf,B0A7A4A2C08E9E3402FAFD54835CCF65,,,_466604.b0a7a4a2c08e9e3402fafd54835ccf65.pdf,0,2000-01-01 01:00:00,2016-04-03 02:51:08,766000/b0a7a4a2c08e9e3402fafd54835ccf65-g.jpg,,
19786261,The Cambridge History of Nineteenth-Century Music (The Cambridge History of Music)  ,,,,Jim Samson,2001,,Cambridge University Press,,784,0,English ,,,2011 12 30,"0521590175,9780521590174",,,,,,,,,OL23382715M,,0,,,,0,1,1,1,7884228,pdf,B0AB1352FFB0190339A0B7A7FB5BEEC8,,,_445286.b0ab1352ffb0190339a0b7a7fb5beec8.pdf,0,2000-01-01 01:00:00,2016-04-03 02:51:08,766000/b0ab1352ffb0190339a0b7a7fb5beec8-d.jpg,,
19786262,Homo sacer: sovereign power and bare life  ,,,,Giorgio Agamben,1998,1,Stanford University Press,,217,0,English ,,,2011 12 30,"0804732183,9780804732185",,,,,320/.01/1,JC571 .A16813 1998,,hM9euhxDMs8C,OL689571M,,0,,,,1,0,0,1,2922690,pdf,B0ACB6DAB583C1B3AEB313D5AC980C1F,,,_495120.b0acb6dab583c1b3aeb313d5ac980c1f.pdf,0,2000-01-01 01:00:00,2016-04-03 02:51:08,766000/b0acb6dab583c1b3aeb313d5ac980c1f-d.jpg,,
19786263,"Successful proposal strategies for small businesses: using knowledge management to win government, private sector, and international contracts  ",,professional development and technology management library,,Robert S. Frey,2002,3,Artech House,,555,0,English ,,,2011 12 30,"1580533329,9781580533324",,,,,,,,Yg3XuHRjloEC,OL8780211M,,0,,,,1,0,1,1,1586168,pdf,B0AE2DFB3BA3E7867658163E67C7BA6E,,,_435033.b0ae2dfb3ba3e7867658163e67c7ba6e.pdf,0,2000-01-01 01:00:00,2016-04-03 02:51:08,766000/b0ae2dfb3ba3e7867658163e67c7ba6e-d.jpg,,
19786264,Skull Moon  ,,,,Tim Curran,2009,,"Amber Quill Press, LLC",,151,0,English ,,,2011 12 30,1-59279-194-8,,ISBN10:B0032CX4II,,,,,,,,,0,,,,,1,,1,864084,pdf,B0AE69B12F491963ED2263DA20EF4D40,,,_444983.b0ae69b12f491963ed2263da20ef4d40.pdf,0,2000-01-01 01:00:00,2016-04-03 02:51:08,766000/b0ae69b12f491963ed2263da20ef4d40-g.jpg,,
19786265,WebSphere Application Server V7 Administration and Configuration Guide  ,,,,IBM Redbooks,2010,,Vervante,,830,0,English ,,,2011 12 30,"0738434248,9780738434247",,,,,,,,,,,0,,,,1,0,1,1,9289820,pdf,B0AE7CE3A48E7CBE9BB73DDFBA2C5293,,,_455306.b0ae7ce3a48e7cbe9bb73ddfba2c5293.pdf,0,2000-01-01 01:00:00,2016-04-03 02:51:08,766000/b0ae7ce3a48e7cbe9bb73ddfba2c5293-d.jpg,,
19786266,"English Online: Music Mania, Intermediate 3  ",,,,Liora Minkin Nurick et al.,2004,,Centre for Educational Technology,,52,0,English ,,,2011 12 30,,,,,,,,,,,,0,,,,0,1,0,0,19345435,pdf,B0AECC5247DD9998E34D5B719005F92A,,,_485119.b0aecc5247dd9998e34d5b719005f92a.pdf,0,2000-01-01 01:00:00,2016-04-03 02:51:08,766000/b0aecc5247dd9998e34d5b719005f92a-g.jpg,,
19786267,Transferencia de Calor Décima Edición  ,,,,Jack Philip Holman,1992,10a,Compania Editorial Continental,,624,0,"Spanish,Castilian",,,2011 12 30,"9682606497,9789682606496",,,,,,,,Y02HkgAACAAJ,OL13119766M,,0,,,,1,0,1,1,18354792,pdf,B0B27BCF1B5AF09C903263D320A846AF,,,_454072.b0b27bcf1b5af09c903263d320a846af.pdf,0,2000-01-01 01:00:00,2016-04-03 02:51:08,766000/b0b27bcf1b5af09c903263d320a846af-g.jpg,,
19786268,Why Ask My Name?: Anonymity and Identity in Biblical Narrative  ,,,,Adele Reinhartz,1998,,"Oxford University Press, USA",,226,0,English ,,,2011 12 30,"0195099702,9780195099706",,,,,221.6,BS1199.N2 R45 1998,,YsjjtGQyR60C,OL696707M,,0,,,,1,0,1,1,1366328,pdf,B0B2BEF96DA7DA074F5CC0BF84AC604F,,,_462325.b0b2bef96da7da074f5cc0bf84ac604f.pdf,0,2000-01-01 01:00:00,2016-04-03 02:51:08,766000/b0b2bef96da7da074f5cc0bf84ac604f-d.jpg,,
19786269,Giza Mastabas VII: The Senedjemib Complex Part I (Vol 7)  ,,,,Edward Brovarski,2002,,"Museum of Fine Arts, Boston",,516,0,English ,,,2011 12 30,"0878464794,9780878464791",,,,,,,,,OL8116362M,,0,,,,,1,1,1,165433408,pdf,B0B37844A772A0C5DACE2956477EC9B1,,,_502022.b0b37844a772a0c5dace2956477ec9b1.pdf,0,2000-01-01 01:00:00,2016-04-03 02:51:08,766000/b0b37844a772a0c5dace2956477ec9b1-g.jpg,,
19786270,"Delivering Knock Your Socks Off Service, 5th Edition  ",,Knock Your Socks Off Series,,"Performance Associates, PERFORMANCE RESEARCH ASSOCIATES, John Bush",2011,5th,AMACOM,,241,0,English ,,,2011 12 30,"0814417558,9780814417553",,,,,,,,QluKSBfctz0C,,,0,,,,1,0,1,1,946778,pdf,B0B3B5EAA673E5C16604327C3A8195FC,,,_510787.b0b3b5eaa673e5c16604327c3a8195fc.pdf,0,2000-01-01 01:00:00,2016-04-03 02:51:08,766000/b0b3b5eaa673e5c16604327c3a8195fc-d.jpg,,
19786271,Brave New Digital Classroom: Technology and Foreign Language Learning  ,,,,Robert J. Blake,2008,,Georgetown University Press,,206,0,English ,,,2011 12 30,"1589012127,9781589012127",,,,,418.00285,LB1028.3 .B567 2008,,,OL16365292M,,0,,,,1,0,1,1,1540977,pdf,B0B5398E86652E65A13455AF299A02D9,,,_500941.b0b5398e86652e65a13455af299a02d9.pdf,0,2000-01-01 01:00:00,2016-04-03 02:51:08,766000/b0b5398e86652e65a13455af299a02d9-d.jpg,,
19786272,King Rat  ,,,,China Mieville,,,,,,0,English ,,,2011 12 30,,,,,,,,,,,"no title page, no TOC, no copyright page",0,,,,0,0,1,1,435014,epub,B0B5FF7A786AB08A334B580DB17C015C,,,_454526.b0b5ff7a786ab08a334b580db17c015c.epub,0,2000-01-01 01:00:00,2016-04-03 02:51:08,766000/B0B5FF7A786AB08A334B580DB17C015C-g.jpg,,
19786273,Accidentally the Sheikh's Wife  ,,,,Barbara McMahon,2010,,Harlequin,,,0,English ,,,2011 12 30,"0373176449,9780373176441",,,,,,,,BlDI-lJiA9IC,OL24394098M,,0,,,,,1,,,324262,epub,B0B62AEB8472682F16990ABDE87AA069,,,_488634.b0b62aeb8472682f16990abde87aa069.epub,0,2000-01-01 01:00:00,2016-04-03 02:51:08,766000/b0b62aeb8472682f16990abde87aa069-d.jpg,,
19786274,Chronica Toccorum Chephalleniensium - Cronaca dei Tocco di Cefalonia di anonimo  ,,CFHB 10,,Giuseppe Schirò,1975,,,,643,0,Italian ,,,2011 12 30,,,,,,,,,,,,300,,,,0,1,0,1,22712009,pdf,B0B69C545FD28FBEF52F3FE9612147CF,,,_435109.b0b69c545fd28fbef52f3fe9612147cf.pdf,0,2000-01-01 01:00:00,2016-04-03 02:51:08,766000/b0b69c545fd28fbef52f3fe9612147cf-g.jpg,,
19786275,Marketing Channels (7th Edition)  ,,,,"Anne Coughlan, Erin Anderson, Louis W. Stern, Adel El-Ansary",2006,7,Prentice Hall,,627,0,English ,,,2011 12 30,"0131913468,9780131913462",,,,,658.8/7,HF5415.129 .M365 2006,,,OL3413859M,,0,,,,,1,1,0,36927923,pdf,B0B6AD98C2360C49A6AC7499D74208B6,,,_443508.b0b6ad98c2360c49a6ac7499d74208b6.pdf,0,2000-01-01 01:00:00,2016-04-03 02:51:08,766000/b0b6ad98c2360c49a6ac7499d74208b6-d.jpg,,
19786276,"The Cambridge Ancient History, Vol. 10: The Augustan Empire, 43 BC-AD 69  ",,The Cambridge Ancient History 10,,"Alan Bowman, Edward Champlin, Andrew Lintott",1996,Second,Cambridge University Press,,1161,0,English ,,,2011 12 30,"0521264308,9780521264303",,,,,,,,,OL7734731M,,0,,,,0,1,0,1,27635386,pdf,B0B6FC08DE4A02BB4DB7BAE979606F89,,,_449058.b0b6fc08de4a02bb4db7bae979606f89.pdf,0,2000-01-01 01:00:00,2016-04-03 02:51:08,766000/b0b6fc08de4a02bb4db7bae979606f89-d.jpg,,
19786277,Skeletons on the Zahara: A True Story of Survival  ,,,,Dean King,2004,,"Little, Brown and Company",,702,0,English ,,,2011 12 30,0759509670,,,,,,,,,,,0,,,,,1,,1,1011097,epub,B0B725DFA8E79CACA19565AC39A5F910,,,_444195.b0b725dfa8e79caca19565ac39a5f910.epub,0,2000-01-01 01:00:00,2016-04-03 02:51:08,766000/B0B725DFA8E79CACA19565AC39A5F910-g.jpg,,
19786278,Professional ASP.NET MVC 3,,,,"Jon Galloway, Phil Haack, Brad Wilson, K. Scott Allen",2011,1,John Wiley and Sons,,433,0,English,92,,2011 12 30,"1118076583,9781118076583",,,,,,,,5r6fJLz_ys0C,,,0,,,,1,0,1,1,15186629,pdf,B0B9A59D4844904F5B285AC2D1C3782F,,,_455492.b0b9a59d4844904f5b285ac2d1c3782f.pdf,0,2000-01-01 01:00:00,2016-04-03 02:51:08,766000/b0b9a59d4844904f5b285ac2d1c3782f-d.jpg,,
19786279,西方政治思想史  ,,,,唐士其,2002,,北京大学出版社,,652,0,Chinese(PRC),,,2011 12 30,"7301056044,9787301056042",,,,,,,,,,,0,,,,1,1,1,0,15557148,pdf,B0B9B97A1D8CFFC52219F381F1B823D8,,,_512695.b0b9b97a1d8cffc52219f381f1b823d8.pdf,0,2000-01-01 01:00:00,2016-04-03 02:51:08,766000/b0b9b97a1d8cffc52219f381f1b823d8-g.jpg,,
19786280,Neuromancer  ,,,,William Gibson,2004,20th anniversary,Ace Hardcover,,,0,English ,,,2011 12 30,"0441012035,9780441012039",,,,,813/.54,PS3557.I2264 N48 2004,,,OL3305354M,,0,,,,,1,,,571694,epub,B0BA70D40E6F3EDC41DD32B4B1B13646,,,_452076.b0ba70d40e6f3edc41dd32b4b1b13646.epub,0,2000-01-01 01:00:00,2016-04-03 02:51:08,766000/b0ba70d40e6f3edc41dd32b4b1b13646-d.jpg,,
19786281,"Galileo's Daughter: A Historical Memoir of Science, Faith and Love  ",,,,Dava Sobel,1999,First Edition,Walker & Co.,,,0,English ,,,2011 12 30,"0802713432,9780802713438",,,,,"520/.92,B",QB36.G2 S65 1999,,FFN2WWJAWhgC,OL22128789M,,0,,,,,0,1,1,11874456,epub,B0BB002A1D72A343328A3490ADE84D89,,,_495829.b0bb002a1d72a343328a3490ade84d89.epub,0,2000-01-01 01:00:00,2016-04-03 02:51:08,766000/b0bb002a1d72a343328a3490ade84d89-d.jpg,,
19786282,"Combinatorics, Paul Erdős is eighty, Volume 1  ",,Bolyai Society Mathematical Studies 1,,"D. Miklós, Vera T. Sós, T. Szőnyi",1993,,Janos Bolyai Mathematical Society,,527,0,English ,,,2011 12 30,"9638022744,9789638022745",,,,,511/.6,QA164 .C6645 1993,,,OL430300M,,300,,,,,1,1,1,5184549,djvu,B0BBD41FDD30EF0F3BDC0F4C47C5A967,,,_510439.b0bbd41fdd30ef0f3bdc0f4c47c5a967.djvu,0,2000-01-01 01:00:00,2016-04-03 02:51:08,766000/b0bbd41fdd30ef0f3bdc0f4c47c5a967-g.jpg,,
19786283,"Physik, Teil I: Klassische Physik – Experimentelle und theoretische Grundlagen  ",,,,Reinhart Weber,2007,2007,Teubner Verlag,,845,0,German ,,,2011 12 30,"3835100653,9783835100657",,,,,,,,,,,0,,,,,1,1,1,7212663,pdf,B0BECEEFAF537E8803F2EFF502F5A154,,,_251324.b0beceefaf537e8803f2eff502f5a154.pdf,0,2000-01-01 01:00:00,2016-04-03 02:51:08,766000/b0beceefaf537e8803f2eff502f5a154-d.jpg,,
19786284,"Handbook of Labor Economics, Volume 4B  ",,,,"Orley Ashenfelter, David Card",2010,1,North Holland,,1133,0,English ,,,2011 12 30,"0444534520,9780444534521",,,,,,,,,,,0,,,,0,0,1,1,27129884,pdf,B0BFD3BF265E8E38CE4BDB94B6109251,,,_441215.b0bfd3bf265e8e38ce4bdb94b6109251.pdf,0,2000-01-01 01:00:00,2016-04-03 02:51:08,766000/b0bfd3bf265e8e38ce4bdb94b6109251-d.jpg,,
19786285,The Globalization Paradox: Democracy and the Future of the World Economy  ,,,,Dani Rodrik,2011,,W. W. Norton & Company,,368,0,English ,,,2011 12 30,"0393071618,9780393071610",,,,,337,HF1418.5 .R6425 2011,,,OL24495253M,,0,,,,1,0,1,1,360299,epub,B0C1AC6E158BDD451465BD6FF897CC7A,,,_431310.b0c1ac6e158bdd451465bd6ff897cc7a.epub,0,2000-01-01 01:00:00,2016-04-03 02:51:08,766000/b0c1ac6e158bdd451465bd6ff897cc7a-d.jpg,,
19786286,Water Resources and Development (Routledge Perspectives on Development)  ,,Routledge perspectives on development,,"Clive Agnew, Philip Woodhouse",2010,1,Routledge,London ; New York,366,0,English ,,,2011 12 30,"0415451396,9780415451390,9780203840658,0-203-84065-8",,,,,333.91,HD1691 .A365 2010,,,OL25074104M,,0,,,,,1,,1,8939577,pdf,B0C345D3886128681D4B73233FCFFC78,,,_445244.b0c345d3886128681d4b73233fcffc78.pdf,0,2000-01-01 01:00:00,2016-04-03 02:51:08,766000/b0c345d3886128681d4b73233fcffc78-d.jpg,,
19786287,The acoustic guitar guide: everything you need to know to buy and maintain a new or used guitar  ,,,,"Larry Sandberg, Artie Traum",2000,2,Chicago Review Press,,290,0,English ,,,2011 12 30,"1556524188,9781556524189",,,,,787.8719,,,3s2FRq58oJAC,OL16999242M,,0,,,,1,0,1,1,4520499,pdf,B0C3691F51604F6BA5B53493A8591DA6,,,_504478.b0c3691f51604f6ba5b53493a8591da6.pdf,0,2000-01-01 01:00:00,2016-04-03 02:51:08,766000/b0c3691f51604f6ba5b53493a8591da6-d.jpg,,
19786288,Tried by War: Abraham Lincoln as Commander in Chief  ,,,,James M. McPherson,2008,1,"Penguin Press HC, The",,,0,English ,,,2011 12 30,"1594201919,9781594201912,0143116142,9780143116141",,,,,973.7092,E457.2 .M478 2008,,,OL16910187M,,0,,,,0,0,,1,1341140,mobi,B0C5386B0A897BA35D035140D69D89DF,,,_492560.b0c5386b0a897ba35d035140d69d89df.mobi,0,2000-01-01 01:00:00,2016-04-03 02:51:08,766000/b0c5386b0a897ba35d035140d69d89df-d.jpg,,
19786289,"Chemistry: The Molecular Science , Third Edition  ",,,,"John W. Moore, Conrad L. Stanitski, Peter C. Jurs",2007,3,Brooks Cole,,1287,0,English ,,,2011 12 30,"049510521X,9780495105213",,,,,,,,,OL17926038M,,0,,,,1,0,1,1,60662884,pdf,B0C5F4AD08A76DE0CE9E8D6408A478AC,,,_459280.b0c5f4ad08a76de0ce9e8d6408a478ac.pdf,0,2000-01-01 01:00:00,2016-04-03 02:51:08,766000/b0c5f4ad08a76de0ce9e8d6408a478ac-d.jpg,,
19786290,Whispers of Moonlight  ,,,,Lori Wick,2006,,Harvest House Publishers,,,0,English ,,,2011 12 30,"0736918191,9780736918190",,,,,,,,,OL7896958M,,0,,,,,1,,,416346,epub,B0C8B35D33263092A8C2E7A2771EFCAE,,,_485268.b0c8b35d33263092a8c2e7a2771efcae.epub,0,2000-01-01 01:00:00,2016-04-03 02:51:08,766000/b0c8b35d33263092a8c2e7a2771efcae-d.jpg,,
19786291,"Women's rites of passage. A menopause initiation ritual based on the Greek myth of Demeter and Persephone: Quantification of self-actualization and self-esteem attributes (PhD Institute of Transpersonal Psychology Palo Alto, Galifornia)  ",,,,"Castagna, Margo Elaine,",1995,,UMI,,151,0,English ,,,2011 12 30,,,,,,,,,,,,0,,,,,1,,1,4444557,pdf,B0C8F0108420DC9D8D45E67FD0013FFD,,,_463948.b0c8f0108420dc9d8d45e67fd0013ffd.pdf,0,2000-01-01 01:00:00,2016-04-03 02:51:08,766000/b0c8f0108420dc9d8d45e67fd0013ffd-g.jpg,,
19786292,The effective small home  ,,,,Lilian (Bayliss) Green Mrs. -1875,1917,,Library of Congress,,230,0,English ,,,2011 12 30,,,ISBN10:B003U4WL6Y,,,,,,,,,0,,,,0,1,0,1,12027550,pdf,B0C91F58CAC7DF3783EC141D6E344837,,,_474829.b0c91f58cac7df3783ec141d6e344837.pdf,0,2000-01-01 01:00:00,2016-04-03 02:51:08,766000/b0c91f58cac7df3783ec141d6e344837-g.jpg,,
19786293,"Celtic Geographies: Old Cultures, New Times (Critical Geographies)  ",,,,"David C. Harvey, Rhys Jones, Neil McInroy, Christine Milligan",2001,,Routledge,,289,0,English ,,,2011 12 30,"0415223970,9780415223973,0415223962",,,,,305.891/6041,DA125.C4 C45 2001,,,OL22464721M,,0,,,,1,1,1,1,10888398,pdf,B0C92DDA2671452D0B0F41749239FA6C,,,_435991.b0c92dda2671452d0b0f41749239fa6c.pdf,0,2000-01-01 01:00:00,2016-04-03 02:51:08,766000/b0c92dda2671452d0b0f41749239fa6c-d.jpg,,
19786294,"The Triple Helix: Gene, Organism, and Environment  ",,,,Richard Lewontin,2000,,Harvard University Press,,143,0,English ,,,2011 12 30,"0674006771,9780674006775",,,,,,,,otKbHE8OFy4C,OL7670611M,,0,,,,,1,0,0,4905739,pdf,B0CD591100A49662DBB68071B81DC515,,,_448324.b0cd591100a49662dbb68071b81dc515.pdf,0,2000-01-01 01:00:00,2016-04-03 02:51:08,766000/b0cd591100a49662dbb68071b81dc515-d.jpg,,
19786295,Il cambio  ,,,,Bruno Vespa,1995,,Mondadori,,472,0,Italian ,,,2011 12 30,"8804409223,9788804409229",,,,,,,,KqeKAAAACAAJ,,,0,,,,0,0,0,1,109060971,pdf,B0CD8B80F3AA11DAD1831DBAC0302912,,,_494980.b0cd8b80f3aa11dad1831dbac0302912.pdf,0,2000-01-01 01:00:00,2016-04-03 02:51:08,766000/b0cd8b80f3aa11dad1831dbac0302912-g.jpg,,
19786296,Microeconomic Theory  ,,,,"Andreu Mas-Colell, Michael D. Whinston, Jerry R. Green",1995,,"Oxford University Press, USA",,501,0,English ,,,2011 12 30,"0195073401,9780195073409",,,,,338.5,HB172 .M6247 1995,,,OL785910M,,0,,,,,1,1,1,34997340,pdf,B0CE14A5D0110E680A3AED237899D89C,,,_463427.b0ce14a5d0110e680a3aed237899d89c.pdf,0,2000-01-01 01:00:00,2016-04-03 02:51:08,766000/b0ce14a5d0110e680a3aed237899d89c-d.jpg,,
19786297,Developments in the Formulation and Reinforcement of Concrete (Woodhead Publishing in Materials)  ,,,,S. Mindess,2008,1,CRC Press,,309,0,English ,,,2011 12 30,"1420076094,9781420076097",,,,,620.136,,,,,,0,,,,0,1,0,1,25708842,pdf,B0CE24ABAE0BB87D236F3B340F9FE97E,,,_505685.b0ce24abae0bb87d236f3b340f9fe97e.pdf,0,2000-01-01 01:00:00,2016-04-03 02:51:08,766000/b0ce24abae0bb87d236f3b340f9fe97e-d.jpg,,
19786298,Skippy Dies  ,,,,Paul Murray,2010,,Hamish Hamilton,,,0,English ,,,2011 12 30,"0241144973,9780241144978",,,,,,,,,,,0,,,,,1,,,1814075,mobi,B0CE45B77438C6CB1085F10B59A370BD,,,_493202.b0ce45b77438c6cb1085f10b59a370bd.mobi,0,2000-01-01 01:00:00,2016-04-03 02:51:08,766000/b0ce45b77438c6cb1085f10b59a370bd-d.jpg,,
19786299,Yoga pentru toţi  ,,,,Philippe De Meric,2002,,Pro Editura,,378,0,"Romanian,Moldavian,Moldovan",,,2011 12 30,9738504791,,,,,,,,,,,0,,,,0,1,0,0,66815343,pdf,B0D01E7F6EB736A8E788A4E7C673EDC2,,,_452163.b0d01e7f6eb736a8e788a4e7c673edc2.pdf,0,2000-01-01 01:00:00,2016-04-03 02:51:08,766000/b0d01e7f6eb736a8e788a4e7c673edc2-g.jpg,,
19786300,Selected Political Writings  ,,Hackett Classics Series,,"Niccolo Machiavelli, Edited and Translated by David Wootton",1994,,Hackett Publishing Company,,274,0,English ,,,2011 12 30,"087220247X,9780872202474,0872202488,9780872202481",,,,,320.1/01,JC143 .M1463 1994,,YnfqzS7iNtsC,OL1096593M,,0,,,,1,0,1,1,1831014,pdf,B0D0620E10D05104D4E7B2B9CCC49CC9,,,_510145.b0d0620e10d05104d4e7b2b9ccc49cc9.pdf,0,2000-01-01 01:00:00,2016-04-03 02:51:08,766000/b0d0620e10d05104d4e7b2b9ccc49cc9-d.jpg,,
19786301,Clean Energy Common Sense: An American Call to Action on Global Climate Change  ,,,,Frances Beinecke,2009,,Rowman & Littlefield Publisher,,119,0,English ,,,2011 12 30,"144220317X,9781442203174,9781442203181",,,,,363.738/740973,TD885.5.C3 B45 2009,,,OL24566067M,,0,,,,1,0,1,1,320518,pdf,B0D404C997A4B7510222282CD9A57C76,,,_460089.b0d404c997a4b7510222282cd9a57c76.pdf,0,2000-01-01 01:00:00,2016-04-03 02:51:08,766000/b0d404c997a4b7510222282cd9a57c76-d.jpg,,
19786302,Intermediate Arabic Workbook  ,,,,John Mace,2007,Bilingual edition,Hippocrene Books,,173,0,English ,,,2011 12 30,"0781811775,9780781811774",,,,,492.7/8242,PJ6307 .M2325 2007,,WKjgkrNJuKYC,OL17163547M,,0,,,,0,1,1,1,15076497,pdf,B0D474A6BA7F4B9087CFC7DAD6692AC0,,,_502381.b0d474a6ba7f4b9087cfc7dad6692ac0.pdf,0,2000-01-01 01:00:00,2016-04-03 02:51:08,766000/b0d474a6ba7f4b9087cfc7dad6692ac0-d.jpg,,
19786303,The Parasite  ,,,,Ramsey Campbell,1989,New Edition,Tor Books,,,0,English ,,,2011 12 30,"0747240612,9780747240617",,,,,823.914,,,fLk9PgAACAAJ,OL17390073M,,0,,,,,0,0,1,311625,epub,B0D57D0E5020A2B5E60CCE57E195B180,,,_474469.b0d57d0e5020a2b5e60cce57e195b180.epub,0,2000-01-01 01:00:00,2016-04-03 02:51:08,766000/b0d57d0e5020a2b5e60cce57e195b180-d.jpg,,
19786304,"Der Traum der Hebamme (Hebammen Saga, Band 5)  ",,,,Sabine Ebert,2011,,Knaur Verlag,,,0,German ,,,2011 12 30,"3426638371,9783426638378,9783426411643",,,,,,,,,,,0,,,,,0,1,1,1444440,epub,B0D6DE61356263C94C358A6CBA2045F8,,,_478924.b0d6de61356263c94c358a6cba2045f8.epub,0,2000-01-01 01:00:00,2016-04-03 02:51:08,766000/b0d6de61356263c94c358a6cba2045f8-d.jpg,,
19786305,What Looks Like Crazy on an Ordinary Day (Oprah's Book Club)  ,,,,Pearl Cleage,2002,,HarperCollins e-books,,238,0,English ,,,2011 12 30,"038079487X,9780380794874,0060538449,9780060538446",,,,,813/.54,,,,OL16361250M,,0,,,,1,0,1,1,5170674,pdf,B0D74C203B5A22593861D3159C1CC221,,,_492902.b0d74c203b5a22593861d3159c1cc221.pdf,0,2000-01-01 01:00:00,2016-04-03 02:51:08,766000/b0d74c203b5a22593861d3159c1cc221-d.jpg,,
19786306,Forensic Emergency Medicine  ,,,,"Jonathan S. Olshaker, M. Christine Jackson, William S. Smock",2001,2,Lippincott Williams & Wilkins,,,0,English ,,,2011 12 30,"0781731445,9780781731447",,,,,,,,GOlpAAAAMAAJ,OL8094549M,,0,,,,,1,1,1,19614056,chm,B0D859542DD61A64677E9F79FC05047C,,,_456553.b0d859542dd61a64677e9f79fc05047c.chm,0,2000-01-01 01:00:00,2016-04-03 02:51:08,766000/b0d859542dd61a64677e9f79fc05047c-d.jpg,,
19786307,"Artists, patrons, and the public: why culture changes  ",,,,"Barry Lord, Gail Dexter Lord",2010,,Rowman Altamira,"Lanham, Md",226,0,English ,,,2011 12 30,"0759118485,978-0-7591-1848-5,978-0-7591-1901-7,0759119015",,,,,701/.03,NX180.S6 L67 2010,,eKF9bMLtReoC,OL23989213M,,0,,,,,1,,1,1122778,pdf,B0D90603CEF7DCB93F60C3F21559D44A,,,_469370.b0d90603cef7dcb93f60c3f21559d44a.pdf,0,2000-01-01 01:00:00,2016-04-03 02:51:08,766000/b0d90603cef7dcb93f60c3f21559d44a-d.jpg,,
19786308,"The Paradox of Tar Heel Politics: The Personalities, Elections, and Events That Shaped Modern North Carolina, New Preface  ",,,,Rob Christensen,2010,2 Rev Upd,The University of North Carolina Press,,372,0,English ,,,2011 12 30,"0807871516,9780807871515",,,,,,,,,,,0,,,,1,0,1,1,3750008,pdf,B0D9982DBCFEC8BAB9A3E6F211E8555E,,,_477170.b0d9982dbcfec8bab9a3e6f211e8555e.pdf,0,2000-01-01 01:00:00,2016-04-03 02:51:08,766000/b0d9982dbcfec8bab9a3e6f211e8555e-d.jpg,,
19786309,"Early to Death, Early to Rise  ",,Madison Avery 2,,Kim Harrison,2010,1,HarperCollins,,,0,English ,,,2011 12 30,"0061718173,9780061718175",,,,,,,,8YZWNU3s4m0C,OL23654544M,,0,,,,,1,,,208684,epub,B0D9AFE1DD5DE0068D6EAA0C859DB4F2,,,_440534.b0d9afe1dd5de0068d6eaa0c859db4f2.epub,0,2000-01-01 01:00:00,2016-04-03 02:51:08,766000/b0d9afe1dd5de0068d6eaa0c859db4f2-d.jpg,,
19786310,Unnatural Causes (Adam Dalgliesh Mysteries 3)  ,,Adam Dalgliesh 3,,P. D. James,1986,,Sphere,,86,0,English ,,,2011 12 30,,,,,,,,,,,,0,,,,0,1,0,1,640597,pdf,B0DCC23D33EC3C7BD372A493D58489AB,,,_444606.b0dcc23d33ec3c7bd372a493d58489ab.pdf,0,2000-01-01 01:00:00,2016-04-03 02:51:08,766000/b0dcc23d33ec3c7bd372a493d58489ab-g.jpg,,
19786311,Педагогическая психология  ,,,,Лев Семенович Выготский,1991,,Педагогика,,480,0,Russian ,,,2011 12 30,5715503582,,,,,,,,,OL15308550M,,0,,,,1,1,1,1,9382174,djvu,B0DCF9469DAF567C50E926F155DBBC83,,,_490531.b0dcf9469daf567c50e926f155dbbc83.djvu,0,2000-01-01 01:00:00,2016-04-03 02:51:08,766000/b0dcf9469daf567c50e926f155dbbc83-g.jpg,,
19786312,Narziß und Goldmund: Erzählung  ,,,,Hermann Hesse,1975,,Suhrkamp-Verlag,,329,0,German ,,,2011 12 30,"3518367749,9783518367742",,,,,,,,,OL22364834M,,0,,,,,1,0,1,1108112,pdf,B0E05F7F10790CAD784E65D7A2049D92,,,_450318.b0e05f7f10790cad784e65d7a2049d92.pdf,0,2000-01-01 01:00:00,2016-04-03 02:51:08,766000/b0e05f7f10790cad784e65d7a2049d92-d.jpg,,
19786313,Bug Zoo  ,,,,Nick Baker,2010,,DK Publishing,,66,0,English ,,,2011 12 30,"0756676169,9780756676162",,,,,,,,pdxYYDjMY8cC,,,0,,,,1,0,1,1,16844120,pdf,B0E0998F7BE484F21035BE794D222127,,,_479913.b0e0998f7be484f21035be794d222127.pdf,0,2000-01-01 01:00:00,2016-04-03 02:51:08,766000/b0e0998f7be484f21035be794d222127-g.jpg,,
19786314,The Origin of the Samaritans  ,,Supplements to Vetus Testamentum 128,,Magnar Kartveit,2009,,BRILL,,420,0,English ,,,2011 12 30,"9004178198,9789004178199",0083-5889,,,,296.8/17,BM910 .K37 2009,,lZSl64Or5UMC,OL23554306M,,0,,,,1,0,1,1,6171976,pdf,B0E3905F640E5D04AA260B381F3AFA12,,,_477747.b0e3905f640e5d04aa260b381f3afa12.pdf,0,2000-01-01 01:00:00,2016-04-03 02:51:08,766000/b0e3905f640e5d04aa260b381f3afa12-d.jpg,,
19786315,,,Advances in Immunology 108,,"Frederick W. Alt, K. Frank Austen, Tasuku Honjo, Fritz Melchers, Jonathan W. Uhr and Emil R. Unanue (Eds.)",2010,1,Academic Press,,1-178,0,English ,,,2011 12 30,978-0-12-380995-7,0065-2776,,,,,,,27VpCseBL5sC,,,0,,,,1,0,1,1,3144650,pdf,B0E3A6C2397270A0D4E659ACC6CDACBB,,,_450802.b0e3a6c2397270a0d4e659acc6cdacbb.pdf,0,2000-01-01 01:00:00,2016-04-03 02:51:08,766000/b0e3a6c2397270a0d4e659acc6cdacbb-d.jpg,,
19786316,Un anno sull'Altipiano  ,,,,Emilio Lussu,2008,,Einaudi,,206,0,Italian ,,,2011 12 30,"8806173146,9788806173142",,,,,,,,,,,0,,,,,1,1,0,548069,pdf,B0E4A0B32FE7B011FAFA784F5EA34CF8,,,_511015.b0e4a0b32fe7b011fafa784f5ea34cf8.pdf,0,2000-01-01 01:00:00,2016-04-03 02:51:08,766000/b0e4a0b32fe7b011fafa784f5ea34cf8-d.jpg,,
19786317,The Future of Financial Regulation  ,,,,"Iain G MacNeil, Justin O'Brien",2010,,Hart Publishing,"Oxford ; Portland, Or",484,0,English ,,,2011 12 30,"1841139106,978-1-84113-910-4,9781847315717,1847315712",,,,,346.082,K1066.A6 F87 2010,,,OL24439264M,,0,,,,0,1,0,1,3494976,pdf,B0E57D62ECF7F6A745BB97E1B6AC822D,,,_447023.b0e57d62ecf7f6a745bb97e1b6ac822d.pdf,0,2000-01-01 01:00:00,2016-04-03 02:51:08,766000/b0e57d62ecf7f6a745bb97e1b6ac822d-d.jpg,,
19786318,A Greek-Hebrew Aramaic Two-way Index to the Septuagint  ,,,,T. Muraoka,2010,Mul,Peeters Publishers,,395,0,English ,,,2011 12 30,"9042923563,9789042923560",,,,,,BS1122 .H32 M872 2010,,OcbqSgAACAAJ,OL24922959M,,300,,,,1,1,1,1,7832739,pdf,B0E83DF409635776178E9947711F2D1E,,,_455723.b0e83df409635776178e9947711f2d1e.pdf,0,2000-01-01 01:00:00,2016-04-03 02:51:08,766000/b0e83df409635776178e9947711f2d1e-d.jpg,,
19786319,What Philosophy Is  ,,,,"Havi Carel, David Gamez",2004,,Continuum,,318,0,English ,,,2011 12 30,"0826472419,9780826472410",,,,,,,,Nt_oWHHH8BwC,OL8168878M,,0,,,,0,1,1,1,33409236,pdf,B0E859B620895D1CD1950A760B5312ED,,,_431034.b0e859b620895d1cd1950a760b5312ed.pdf,0,2000-01-01 01:00:00,2016-04-03 02:51:08,766000/b0e859b620895d1cd1950a760b5312ed-d.jpg,,
19786320,Meaning and the Moral Sciences (Routledge Revivals)  ,,,,Hilary Putnam,1979,,Routledge Kegan & Paul,,153,0,English ,,,2011 12 30,"9780710004376,0710004370,9780710087546,0710087543",,,,,149/.94,BD171 .P87,,wcA9AAAAIAAJ,OL21348881M,,400,,,,1,1,1,1,942969,djvu,B0E89DCE4B4B24349075F7B3307A0343,,,_439849.b0e89dce4b4b24349075f7b3307a0343.djvu,0,2000-01-01 01:00:00,2016-04-03 02:51:08,766000/b0e89dce4b4b24349075f7b3307a0343-g.jpg,,
19786321,Determinants of Financial Development  ,,,,Yongfu Huang,2010,,Palgrave Macmillan,,227,0,English ,,,2011 12 30,"023027367X,9780230273672",,,,,,,,QfyiLEvr0HYC,,,0,,,,1,0,1,1,2305822,pdf,B0E8C2501D8F0FD93E73C2AD800C77D8,,,_462550.b0e8c2501d8f0fd93e73c2ad800c77d8.pdf,0,2000-01-01 01:00:00,2016-04-03 02:51:08,766000/b0e8c2501d8f0fd93e73c2ad800c77d8-d.jpg,,
19786322,A Guide to the Perplexed Business Owner: Helping Your Business Survive the Unexpected Shutdown  ,,,,Eric Beser,,,,,121,0,English ,,,2011 12 30,,,,,,,,,,,,0,,,,,0,1,0,2709077,pdf,B0E8FC36102ACE55148F0F150C03DF0B,,,_448216.b0e8fc36102ace55148f0f150c03df0b.pdf,0,2000-01-01 01:00:00,2016-04-03 02:51:08,766000/b0e8fc36102ace55148f0f150c03df0b-g.jpg,,
19786323,Τι είπε πραγματικά ο Φρόυντ  ,,,,David Stafford-Clark,1980,,Γλάρος,,242,0,Greek(Modern),,,2011 12 30,,,,,,,,,,,,300,,,,1,1,1,1,4636111,djvu,B0EA9DC90550388DA1FF3F757FE543DF,,,_432538.b0ea9dc90550388da1ff3f757fe543df.djvu,0,2000-01-01 01:00:00,2016-04-03 02:51:08,766000/b0ea9dc90550388da1ff3f757fe543df-g.jpg,,
19786324,El sello de los antepasados: marcado del cuerpo y demarcación étnica entre los Matis de la Amazonía  ,,,,Philippe Erikson,1999,,Editorial Abya Yala,,422,0,"Spanish,Castilian",,,2011 12 30,"9978044892,9789978044896",,,,,,,,zBCnYYclX9UC,OL3632570M,,0,,,,1,0,0,0,5059862,pdf,B0EBF582DA9A73EFDB43F8CB9B4D0DB4,,,_453316.b0ebf582da9a73efdb43f8cb9b4d0db4.pdf,0,2000-01-01 01:00:00,2016-04-03 02:51:08,766000/b0ebf582da9a73efdb43f8cb9b4d0db4-g.jpg,,
19786325,Les nombres p-adiques (Collection Sup)  ,,,,Yvette Amice,1975,,Presses universitaires de France,,190,0,French ,,,2011 12 30,,,,,,,,,,,,300,,,,,1,1,1,2704221,djvu,B0ECEE705ED530A306472B29D628ED2E,,,_477524.b0ecee705ed530a306472b29d628ed2e.djvu,0,2000-01-01 01:00:00,2016-04-03 02:51:08,766000/b0ecee705ed530a306472b29d628ed2e-g.jpg,,
19786326,Exploración y patología ocular en pequeños rumiantes  ,,,,"Montserrat Pérez Piñero, Luis Miguel Ferrer Mayayo, Juan José Ramos Antón",2006,Primera,Servet,,100,0,"Spanish,Castilian",,,2011 12 30,"8493473650,9788493473655",,,,,,,,,,,0,,,,0,1,1,0,137880357,pdf,B0EE022DFD16F9AFD23D7438FDBB932E,,,_500486.b0ee022dfd16f9afd23d7438fdbb932e.pdf,0,2000-01-01 01:00:00,2016-04-03 02:51:08,766000/b0ee022dfd16f9afd23d7438fdbb932e-d.jpg,,
19786327,"Making Healthy Places: Designing and Building for Health, Well-being, and Sustainability  ",,,,"Andrew Dannenberg, Howard Frumkin, Richard Jackson, Robin Fran Abrams, Emil Malizia, Arthur Wendel, James Sallis, Rachel A. Millstein, Jordan A. Carlson, Carolyn Cannuscio, Karen Glanz, Jonathan Samet, David A. Sleet, Rebecca B. Naumann, Rose Anne Rudd, Lorraine Backer, William C. Sullivan, Chun-Yen Cheng, Caitlin Eicher, Ichiro Kawachi, Chirs S. Kochtitzky, James Krieger, David E. Jacobs",2011,,Island Press,,448,0,English ,,,2011 12 30,"1597267279,9781597267274,1597267260,9781597267267",,,,,307.76,HT371 .M27 2011,,_VVUF8zYoSEC,OL25220338M,,0,,,,1,0,1,1,11099375,pdf,B0EE09693F93391F8E323B968C860B20,,,_477891.b0ee09693f93391f8e323b968c860b20.pdf,0,2000-01-01 01:00:00,2016-04-03 02:51:08,766000/b0ee09693f93391f8e323b968c860b20-d.jpg,,
19786328,The Rise and Fall of Al-Qaeda  ,,,,Fawaz A. Gerges,2011,,"Oxford University Press, USA",,270,0,English ,,,2011 12 30,"0199790655,9780199790654",,,,,363.325,HV6432.5.Q2 G47 2011,,,OL25086545M,,0,,,,1,0,1,1,1196940,pdf,B0EE2BDA50F51D11A790B2FC98620BA8,,,_478136.b0ee2bda50f51d11a790b2fc98620ba8.pdf,0,2000-01-01 01:00:00,2016-04-03 02:51:08,766000/b0ee2bda50f51d11a790b2fc98620ba8-d.jpg,,
19786329,"Ethnicity and the Persistence of Inequality: The Case of Peru (Conflict, Inequality and Ethnicity)  ",,,,"Rosemary Thorp, Maritza Paredes",2010,,Palgrave Macmillan,,253,0,English ,,,2011 12 30,"0230280005,9780230280007",,,,,305.898/085,HN350.Z9 S675 2010,,,OL25064915M,,0,,,,1,0,1,1,2004597,pdf,B0EF9013388A50896E6BA6C079CDE132,,,_469594.b0ef9013388a50896e6ba6c079cde132.pdf,0,2000-01-01 01:00:00,2016-04-03 02:51:08,766000/b0ef9013388a50896e6ba6c079cde132-d.jpg,,
19786330,Indesign Cs5: Basic (Student Manual)  ,,,,Axzo Press,2011,Student,Axzo Press,,225,0,English ,,,2011 12 30,"1426020937,9781426020933",,,,,,,,kTLZjwEACAAJ,,,0,,,,1,0,1,1,4885956,pdf,B0F1D2408CD4E6409F4A650A87455E0E,,,_492512.b0f1d2408cd4e6409f4a650a87455e0e.pdf,0,2000-01-01 01:00:00,2016-04-03 02:51:08,766000/b0f1d2408cd4e6409f4a650a87455e0e-d.jpg,,
19786331,"The Geology in Digital Age : Proceedings of the 17th Meeting of the Association of European Geological Societies, MAEGS 17  ",,,,The Serbian Geological Society. editors Ljubinko Savić et al.,2011,,Jovšić Printing Centar,,290,0,English ,,,2011 12 30,9788686053107,,,,,,,10.1007/s00531-007,,,,0,,,,0,0,1,1,10352910,djvu,B0F49E22158E1D59F05C317F13830AC2,,,_468718.b0f49e22158e1d59f05c317f13830ac2.djvu,0,2000-01-01 01:00:00,2016-04-03 02:51:08,766000/b0f49e22158e1d59f05c317f13830ac2-g.jpg,,
19786332,German Fighter Since 1915  ,,,,Rudiger Kosin,2003,First,Putnam Aeronautical,,222,0,English ,,,2011 12 30,"0851778224,9780851778228",,,,,,,,,OL21645129M,,0,,,,,1,0,1,63419966,pdf,B0F5608971FCAA96CCD2BD18813EC10F,,,_431715.b0f5608971fcaa96ccd2bd18813ec10f.pdf,0,2000-01-01 01:00:00,2016-04-03 02:51:08,766000/b0f5608971fcaa96ccd2bd18813ec10f-d.jpg,,
19786333,Vernacular and Latin Literary Discourses of the Muslim Other in Medieval Germany (The New Middle Ages)  ,,The New Middle Ages,,Jerold C. Frakes,2011,,Palgrave Macmillan,,253,0,English ,,,2011 12 30,"0230110878,9780230110878",,,,,830.9/38297,PT179 .F68 2011,,AAV0kgAACAAJ,OL24903210M,,0,,,,1,0,1,1,3969867,pdf,B0F696B9C6D91CB8235EF91A6D7590D5,,,_478632.b0f696b9c6d91cb8235ef91a6d7590d5.pdf,0,2000-01-01 01:00:00,2016-04-03 02:51:08,766000/b0f696b9c6d91cb8235ef91a6d7590d5-d.jpg,,
19786334,Laza Lazarevic - Pripovetke vol 1  ,,,,archive.org,,,,,245,0,Serbian ,,,2011 12 30,,,,,,,,,,,,0,,,,,1,,1,3621942,pdf,B0F6FA9B475E1AA74997DD5B794FD9FF,,,_479379.b0f6fa9b475e1aa74997dd5b794fd9ff.pdf,0,2000-01-01 01:00:00,2016-04-03 02:51:08,766000/b0f6fa9b475e1aa74997dd5b794fd9ff-g.jpg,,
19786335,Mussolini's Rome: Rebuilding the Eternal City  ,,,,Borden Painter,2005,First Edition,Palgrave Macmillan,,,0,English ,,,2011 12 30,"1403966044,9781403966049,9780230204",,,,,,,,pmfNgZoiO6gC,OL22714688M,,0,,,,,1,1,1,4306519,epub,B0F89866D3F2B2B4D9BF0646FF58EAB0,,,_467274.b0f89866d3f2b2b4d9bf0646ff58eab0.epub,0,2000-01-01 01:00:00,2016-04-03 02:51:08,766000/b0f89866d3f2b2b4d9bf0646ff58eab0-d.jpg,,
19786336,Feminist Reflections on the History of Philosophy  ,,The New Synthese Historical Library 55,,"Lilli Alanen, Charlotte Witt",2004,1,Springer,,272,0,English ,,,2011 12 30,"1402024886,9781402024887,1402024894",,,,,109,B72 .F38 2004,,rJqm5iQcsqoC,OL22615125M,,0,,,,1,0,1,1,1538077,pdf,B0F8EA17360434F4D651C47939A8508E,,,_443163.b0f8ea17360434f4d651c47939a8508e.pdf,0,2000-01-01 01:00:00,2016-04-03 02:51:08,766000/b0f8ea17360434f4d651c47939a8508e-d.jpg,,
19786337,The 37th Hour  ,,,,Jodi Compton,2005,,Dell,,,0,English ,,,2011 12 30,"0440241367,9780440241362",,,,,813.6,,,pjpl3ZGCuYQC,,,0,,,,,1,,,276559,epub,B0F99EB67FB313FB388F1AF60A072333,,,_498181.b0f99eb67fb313fb388f1af60a072333.epub,0,2000-01-01 01:00:00,2016-04-03 02:51:08,766000/b0f99eb67fb313fb388f1af60a072333-d.jpg,,
19786338,Старозаветни пророци  ,,,,Др Илија Томић,2006,,Београд,,149,0,Serbian ,,,2011 12 30,,,,,,,,,,,,0,,,,0,1,,1,1576060,pdf,B0F9F3AB3C9B16A343D18340C0100F75,,,_450281.b0f9f3ab3c9b16a343d18340c0100f75.pdf,0,2000-01-01 01:00:00,2016-04-03 02:51:08,766000/b0f9f3ab3c9b16a343d18340c0100f75-g.jpg,,
19786339,The City and Man  ,,,,Leo Strauss,1978,,University Of Chicago Press,,225,0,English ,,,2011 12 30,"0226777014,9780226777016",,,,,,,,,OL9668533M,,0,,,,0,1,1,1,8901116,pdf,B0FA4A304594342C65C9200CBC1131AF,,,_436474.b0fa4a304594342c65c9200cbc1131af.pdf,0,2000-01-01 01:00:00,2016-04-03 02:51:08,766000/b0fa4a304594342c65c9200cbc1131af-d.jpg,,
19786340,Children of Trauma: Rediscovering Your Discarded Self  ,,,,Jane Middelton-Moz,1989,1,,,,0,English ,,,2011 12 30,"1558740147,9781558740143",,,,,616.85/82,RC569.5.C55 M53 1989,,-tUF7rVVy5YC,OL2053999M,,0,,,,,1,,,535987,epub,B0FACB387E367ACB2113FAC528E0D4AF,,,_472557.b0facb387e367acb2113fac528e0d4af.epub,0,2000-01-01 01:00:00,2016-04-03 02:51:08,766000/b0facb387e367acb2113fac528e0d4af-d.jpg,,
19786341,Linguistic Auditing: A Guide to Identifying Foreign Language Communication Needs in Corporations  ,,,,Nigel Reeves and Colin Wright,1996,,"Multilingual Matters, Ltd.",,148,0,English ,,,2011 12 30,"1853593281,9781853593284,9780585154381",,,,,658.3/1244,HD62.4 .R44 1996,,,OL805631M,,0,,,,1,0,1,1,1371424,pdf,B0FACFE052FD8F19C766976BB9D8A291,,,_475198.b0facfe052fd8f19c766976bb9d8a291.pdf,0,2000-01-01 01:00:00,2016-04-03 02:51:08,766000/b0facfe052fd8f19c766976bb9d8a291-g.jpg,,
19786342,The humanist controversy and other writings (1966-67)  ,,,,Louis Althusser,2003,,Verso,,380,0,English ,,,2011 12 30,"1859844081,9781859844083",,,,,,,,,OL17094801M,,0,,,,1,1,1,1,4679891,djvu,B0FD1B59E21224E66786BF16B74DD161,,,_495980.b0fd1b59e21224e66786bf16b74dd161.djvu,0,2000-01-01 01:00:00,2016-04-03 02:51:08,766000/b0fd1b59e21224e66786bf16b74dd161-d.jpg,,
19786343,The Astronomy of the Bible  ,,,,"Maunder, E. Walter F.R.A.S",1908,,M. Kennerley,,414,0,English ,,,2011 12 30,,,,,,,,,,,,0,,,,0,1,1,1,6899196,pdf,B0FD44BC6AA03072248FED7132A45B73,,,_472794.b0fd44bc6aa03072248fed7132a45b73.pdf,0,2000-01-01 01:00:00,2016-04-03 02:51:08,766000/b0fd44bc6aa03072248fed7132a45b73-g.jpg,,
19786344,Modern Mathematical Statistics with Applications  ,,,,"Jay L. Devore, Kenneth N. Berk",2006,1,Duxbury Press,,849,0,English ,,,2011 12 30,"0534404731,9780534404734",,,,,,,,,OL7784720M,,0,,,,,0,1,1,5708246,pdf,B0FE1486B8C0BB0124C431C0233AFE09,,,_458483.b0fe1486b8c0bb0124c431c0233afe09.pdf,0,2000-01-01 01:00:00,2016-04-03 02:51:08,766000/b0fe1486b8c0bb0124c431c0233afe09-d.jpg,,
19786345,观念:改变人生的101个中国故事  ,,,,"康桥 , 陈鸣",,,,,236,0,Chinese(PRC),,,2011 12 30,"781058894X,9787810588942",,,,,,,,,,,0,,,,,1,1,0,4041467,pdf,B0FE1ED1C4556AD11019BCBC6FBA93C3,,,_440012.b0fe1ed1c4556ad11019bcbc6fba93c3.pdf,0,2000-01-01 01:00:00,2016-04-03 02:51:08,766000/b0fe1ed1c4556ad11019bcbc6fba93c3-g.jpg,,
19786346,Clinical Textbook of Dental Hygiene and Therapy  ,,,,Robert Ireland,2006,1,Wiley-Blackwell,,537,0,English ,,,2011 12 30,"1405135409,9781405135405",,,,,617.6/01,RK60.7 .C59 2006,,,OL18628869M,,0,,,,0,0,0,1,10851721,pdf,B0FE57F69CA9DB27A3CDE0D8DC7913D7,,,_436508.b0fe57f69ca9db27a3cde0d8dc7913d7.pdf,0,2000-01-01 01:00:00,2016-04-03 02:51:08,766000/b0fe57f69ca9db27a3cde0d8dc7913d7-d.jpg,,
19786347,Historical Lovecraft: Tales of Horror Through Time  ,,,,Silvia Moreno-Garcia & Paula R Stiles (Editors),2011,,Innsmouth Free Press,,295,0,English ,,,2011 12 30,9780986686436,,,,,813.0873808,PS648.H6H57 2011,,,,,0,,,,,1,1,1,365334,epub,B0FF01B38A3F7559DD3B4496ED8716DA,,,_507332.b0ff01b38a3f7559dd3b4496ed8716da.epub,0,2000-01-01 01:00:00,2016-04-03 02:51:08,766000/B0FF01B38A3F7559DD3B4496ED8716DA-g.jpg,,
19786348,Seychelles Global Citizen: The Autobiography of the Founding President  ,,,,James Mancham,2009,,Paragon House,,155,0,English ,,,2011 12 30,"1557788871,9781557788870",,,,,"969.6,B",DT469.S483 M367 2009,,,OL23554576M,,0,,,,,1,,0,105654298,pdf,B0FFA1E167F4EDD61A58036B1A251B31,,,_463982.b0ffa1e167f4edd61a58036b1a251b31.pdf,0,2000-01-01 01:00:00,2016-04-03 02:51:08,766000/b0ffa1e167f4edd61a58036b1a251b31-d.jpg,,
19786349,Stories for Nighttime and Some for the Day  ,,,,Ben Loory,2011,Original,Penguin (Non-Classics),,224,0,English ,,,2011 12 30,"0143119508,9780143119500",,,,,813/.6,PS3612.O57 S76 2011,,,OL25086516M,,0,,,,,1,1,1,218240,mobi,B10203B7CD5614B1DD1B15BFEC061902,,,_491819.b10203b7cd5614b1dd1b15bfec061902.mobi,0,2000-01-01 01:00:00,2016-04-03 02:51:08,766000/b10203b7cd5614b1dd1b15bfec061902-d.jpg,,
19786350,Intercept  ,,,,Patrick Robinson,2010,,Vanguard,,549,0,English ,,,2011 12 30,"1593155840,9781593155841",,,,,823/.914,PR6068.O1959 I58 2010,,SwQzbceOLEUC,OL24110377M,,0,,,,,1,,1,1838852,pdf,B1051C0E41CE9AE6B7693B174E8DC6AC,,,_468310.b1051c0e41ce9ae6b7693b174e8dc6ac.pdf,0,2000-01-01 01:00:00,2016-04-03 02:51:08,766000/b1051c0e41ce9ae6b7693b174e8dc6ac-d.jpg,,
19786351,Slag Attack  ,,,,Andersen Prunty,2010,,Eraserhead Press,,82,0,English ,,,2011 12 30,"1936383098,9781936383092",,,,,,,,,,,0,,,,,1,,1,445800,pdf,B105494367ABC5AA0AB9DCF5BB02701D,,,_448471.b105494367abc5aa0ab9dcf5bb02701d.pdf,0,2000-01-01 01:00:00,2016-04-03 02:51:08,766000/b105494367abc5aa0ab9dcf5bb02701d-d.jpg,,
19786352,The Search for Modern China  ,,,,Jonathan D. Spence,1990,1st,Norton,,1044,0,English ,,,2011 12 30,"0393027082,9780393027082",,,,,951/.03,DS754 .S65 1990,,2zbLQgAACAAJ,OL21399678M,,0,,,,1,0,1,1,76217370,pdf,B105A0BE4EBE5AF41D59B8B6949B5F92,,,_462275.b105a0be4ebe5af41d59b8b6949b5f92.pdf,0,2000-01-01 01:00:00,2016-04-03 02:51:08,766000/b105a0be4ebe5af41d59b8b6949b5f92-d.jpg,,
19786353,Römische Geburtsriten  ,,,,Thomas Köves-Zulauf,1990,,C.H.Beck,,223,0,German ,,,2011 12 30,"3406337147,9783406337147",,,,,,,,,OL1981521M,,0,,,,0,0,0,1,8395457,pdf,B10707D398D81D008AE5B1B7041C69C3,,,_440799.b10707d398d81d008ae5b1b7041c69c3.pdf,0,2000-01-01 01:00:00,2016-04-03 02:51:08,766000/b10707d398d81d008ae5b1b7041c69c3-g.jpg,,
19786354,"Impure Science: AIDS, Activism, and the Politics of Knowledge (Medicine & Society)  ",,,,Steven Epstein,1996,,University of California Press,,284,0,English ,,,2011 12 30,"0520214455,9780520214453",,,,,362.196979200973,,,,,,0,,,,,1,,1,1020694,pdf,B1075F56498969B9D7E3DF2AAA428994,,,_500490.b1075f56498969b9d7e3df2aaa428994.pdf,0,2000-01-01 01:00:00,2016-04-03 02:51:08,766000/b1075f56498969b9d7e3df2aaa428994-d.jpg,,
19786355,الذاكرة والنجاح  ,,,,مارى - جوزية كوشايير,,,,,189,0,Arabic ,,,2011 12 30,,,,,,,,,,,,0,,,,,1,,0,2976175,pdf,B109BB2A9D313FE52628101CDE7DA03E,,,_445989.b109bb2a9d313fe52628101cde7da03e.pdf,0,2000-01-01 01:00:00,2016-04-03 02:51:08,766000/b109bb2a9d313fe52628101cde7da03e-g.jpg,,
19786356,Batman Arkham City #2  issue 2nd,,,,Carlos DAnda,2011,,Dc comics,,22,0,English ,,,2011 12 30,761941303413,,ISBN10:B0055IUT3U,,,,,,,,,0,,,,,1,,0,12102296,pdf,B10B327CAF5D1B0F414848D0FD4CF987,,,_466730.b10b327caf5d1b0f414848d0fd4cf987.pdf,0,2000-01-01 01:00:00,2016-04-03 02:51:08,766000/b10b327caf5d1b0f414848d0fd4cf987-g.jpg,,
19786357,Cashflow Quadrant: Rich Dad's Guide to Financial Freedom  ,,,,"Robert T. Kiyosaki, Sharon L. Lechter",2000,,Warner Books,,269,0,English ,,,2011 12 30,"0446677477,9780446677479",,,,,332.024,HG4910 .K54 1999,,,OL16997015M,,0,,,,1,1,1,1,9430741,pdf,B10B4FCFD264D5A1A493370884B8CB7A,,,_485327.b10b4fcfd264d5a1a493370884b8cb7a.pdf,0,2000-01-01 01:00:00,2016-04-03 02:51:08,766000/b10b4fcfd264d5a1a493370884b8cb7a-d.jpg,,
19786358,It Came From Del Rio  ,,,,Stephen Graham Jones,2010,1ST,Trapdoor Books,,125,0,English ,,,2011 12 30,"1936500019,9781936500017",,,,,,,,,OL24550417M,,0,,,,,1,,1,836433,pdf,B10C98D80C3EBE1DF615FF8862EA1973,,,_445720.b10c98d80c3ebe1df615ff8862ea1973.pdf,0,2000-01-01 01:00:00,2016-04-03 02:51:08,766000/b10c98d80c3ebe1df615ff8862ea1973-d.jpg,,
19786359,GURPS Mysteries (4ed)  ,,,,Lisa J. Steele,2008,4,Steve Jackson Games,,124,0,English ,,,2011 12 30,"1556347618,9781556347610",,,,,,,,,,,0,,,,1,0,1,1,1797317,pdf,B11132B48B898C73F5AB1C5172DE5733,,,_499667.b11132b48b898c73f5ab1c5172de5733.pdf,0,2000-01-01 01:00:00,2016-04-03 02:51:08,766000/b11132b48b898c73f5ab1c5172de5733-d.jpg,,
19786360,"Behind Human Error, 2nd Edition  ",,,,"David D. Woods, Sidney Dekker, Richard Cook, Leila Johannesen, Nadine Sarter",2010,2,Ashgate,"Farnham ; Burlington, VT",292,0,English ,,,2011 12 30,"0754678334,978-0-7546-7833-5,978-0-7546-9650-6,978-0-7546-7834-2,0754696502",,,,,363.11/6,HD7262 .B387 2010,,,OL25226713M,,0,,,,0,0,0,1,4829538,pdf,B111C7EAF10804C781A5E493C08FB63A,,,_440040.b111c7eaf10804c781a5e493c08fb63a.pdf,0,2000-01-01 01:00:00,2016-04-03 02:51:08,766000/b111c7eaf10804c781a5e493c08fb63a-d.jpg,,
19786361,Introductory Algebra: An Applied Approach  ,,,,"Richard N. Aufmann, Joanne Lockwood",2010,3rd,Cengage Learning,,687,0,English ,,,2011 12 30,"1439046042,9781439046043",,,,,,QA152.2 .A85 2011,,MPIWikTHVXQC,OL25051610M,,0,,,,1,0,1,1,12845978,pdf,B11473035991581DD5A84B6965DE08CF,,,_485445.b11473035991581dd5a84b6965de08cf.pdf,0,2000-01-01 01:00:00,2016-04-03 02:51:08,766000/b11473035991581dd5a84b6965de08cf-d.jpg,,
19786362,Rebell der Krone: Roman  ,,,,Robyn Young,2011,,Blanvalet Taschenbuch Verlag,,,0,German ,,,2011 12 30,"3442372461,9783442372461,9783641056063",,,,,,,,,,,0,,,,,0,0,1,801188,epub,B11576CF9926DAC3CE583CE43AD1F86E,,,_475274.b11576cf9926dac3ce583ce43ad1f86e.epub,0,2000-01-01 01:00:00,2016-04-03 02:51:08,766000/b11576cf9926dac3ce583ce43ad1f86e-d.jpg,,
19786363,Bullying at School: What We Know and What We Can Do  ,,,,Dan Olweus,1993,1,Wiley-Blackwell,,,0,English ,,,2011 12 30,"0631192417,9780631192411",,,,,371.5/8,LB1124 .O48 1993,,4qNLY13mkDEC,OL1414595M,,0,,,,,1,,,239332,epub,B115773D9856D64415FB0D9A887CA14C,,,_468845.b115773d9856d64415fb0d9a887ca14c.epub,0,2000-01-01 01:00:00,2016-04-03 02:51:08,766000/b115773d9856d64415fb0d9a887ca14c-d.jpg,,
19786364,Aristotle (Continuum Library Of Educational Thought)  ,,Continuum Library Of Educational Thought,,Alexander Moseley,2010,,Continuum,,245,0,English ,,,2011 12 30,"1847061036,9781847061034",,,,,370.1,LB85.A7 M67 2010,,,OL23207511M,,0,,,,1,1,1,1,7295516,pdf,B116A08CBBD82A60CA1501B7A45DB4C9,,,_469326.b116a08cbbd82a60ca1501b7a45db4c9.pdf,0,2000-01-01 01:00:00,2016-04-03 02:51:08,766000/b116a08cbbd82a60ca1501b7a45db4c9-d.jpg,,
19786365,,,,The Mathematical Intelligencer volume 32 issue 2,"M.L. Senechal, C. Davis (Editors in Chief)",2010,,Springer,,82,0,English ,,,2011 12 30,,0343-6993,,,,,,,,,,0,,,,1,0,1,1,4286886,pdf,B116E1CA95C894B81524B783EA443AAD,,,_434794.b116e1ca95c894b81524b783ea443aad.pdf,0,2000-01-01 01:00:00,2016-04-03 02:51:08,766000/b116e1ca95c894b81524b783ea443aad-g.jpg,,
19786366,Bilimsel Düşünme Yöntemi  ,,,,Cemal Yıldırım,1997,,Bilgi Yayınevi,,313,0,Turkish ,,,2011 12 30,9754946604,,,,,,,,,,,0,,,,0,0,0,1,2298948,pdf,B1173439B5D948343E368859F236A994,,,_499466.b1173439b5d948343e368859f236a994.pdf,0,2000-01-01 01:00:00,2016-04-03 02:51:08,766000/b1173439b5d948343e368859f236a994-g.jpg,,
19786367,Troll's eye view: a book of villainous tales  ,,,,"Ellen Datlow, Terri Windling",2009,1,Viking,,,0,English ,,,2011 12 30,"0670061417,9780670061419",,,,,398.2,,,GezRLSeXviEC,,,0,,,,,1,,,298541,epub,B1183FBD89B20B95E9F79A8F5EC330E9,,,_502772.b1183fbd89b20b95e9f79a8f5ec330e9.epub,0,2000-01-01 01:00:00,2016-04-03 02:51:08,766000/b1183fbd89b20b95e9f79a8f5ec330e9-d.jpg,,
19786368,"Practically Radical: Not-So-Crazy Ways to Transform Your Company, Shake Up Your Industry, and Challenge Yourself  ",,,,William C. Taylor,2011,,William Morrow,,,0,English ,,,2011 12 30,"0061734616,9780061734618",,,,,,,,,,,0,,,,,1,1,,734450,epub,B118E39A62D41E6D21BF14F1770555ED,,,_438293.b118e39a62d41e6d21bf14f1770555ed.epub,0,2000-01-01 01:00:00,2016-04-03 02:51:08,766000/b118e39a62d41e6d21bf14f1770555ed-d.jpg,,
19786369,Exploratori şi neguţători  ,,Descoperă lumea,,Anne Millard,2008,,Litera Internaţional,,57,0,"Romanian,Moldavian,Moldovan",,,2011 12 30,9789736754876,,,,,,,,,,,0,,,,0,1,1,0,204781952,pdf,B119A21E4887E53D3AF12CF2B427793D,,,_444537.b119a21e4887e53d3af12cf2b427793d.pdf,0,2000-01-01 01:00:00,2016-04-03 02:51:08,766000/b119a21e4887e53d3af12cf2b427793d-g.jpg,,
19786370,Penetration Testing: Procedures & Methodologies  ,,,,EC-Council,2010,1,Course Technology,,237,0,English ,,,2011 12 30,"1435483677,9781435483675",,,,,,,,,,,0,,,,1,0,1,1,8344290,pdf,B119A6F2013C90102C06EC528408976C,,,_456788.b119a6f2013c90102c06ec528408976c.pdf,0,2000-01-01 01:00:00,2016-04-03 02:51:08,766000/b119a6f2013c90102c06ec528408976c-d.jpg,,
19786371,The Evolution of Human Sociality: A Darwinian Conflict Perspective  ,,,,Stephen K. Sanderson,2001,,"Rowman & Littlefield Publishers, Inc.",,406,0,English ,,,2011 12 30,"0847695352,9780847695355",,,,,,,,Dr8VJxygwwUC,OL8246521M,,0,,,,1,1,1,1,28255498,pdf,B11A68DC29AAAB15826ED80D0AE5342A,,,_436572.b11a68dc29aaab15826ed80d0ae5342a.pdf,0,2000-01-01 01:00:00,2016-04-03 02:51:08,766000/b11a68dc29aaab15826ed80d0ae5342a-d.jpg,,
19786372,"Cisco IOS Cookbook, 2nd Edition (Cookbooks (O'Reilly))  ",,,,"Kevin Dooley, Ian Brown",2006,2,O'Reilly Media,,,0,English ,99,,2011 12 30,"0596527225,9780596527228",,,,,,,,j9FfqFmraN4C,OL17907616M,,0,,,,,1,,,4145430,epub,B11ACC553DED4B577B6F0F36C1C7AF39,,,_459247.b11acc553ded4b577b6f0f36c1c7af39.epub,0,2000-01-01 01:00:00,2016-04-03 02:51:08,766000/b11acc553ded4b577b6f0f36c1c7af39-d.jpg,,
19786373,Lezioni di geometria  ,,,,Silvio Greco Paolo Valabrega,,,,,220,0,Italian ,,,2011 12 30,,,,,,,,,,,,0,,,,0,1,1,0,59638677,pdf,B11ACEC2DD85D9575264A7AF0A61F612,,,_453125.b11acec2dd85d9575264a7af0a61f612.pdf,0,2000-01-01 01:00:00,2016-04-03 02:51:08,766000/b11acec2dd85d9575264a7af0a61f612-g.jpg,,
19786374,Why Can't Elephants Jump?: And 113 Other Tantalizing Science Questions Answered  ,,,,New Scientist,2011,Original,Pegasus Books LLC,,240,0,English ,,,2011 12 30,"160598261X,9781605982618",,,,,,,,,,,0,,,,,0,1,1,520343,mobi,B11AF0ABE673614418153F9EEF2707AE,,,_491618.b11af0abe673614418153f9eef2707ae.mobi,0,2000-01-01 01:00:00,2016-04-03 02:51:08,766000/b11af0abe673614418153f9eef2707ae-d.jpg,,
19786375,Die Beute (Bd.2)  ,,,,Emile Zola,,,Digitale Bibliothek,,619,0,German ,,,2011 12 30,,,,,,,,,,,,0,,,,,1,1,1,339161,epub,B11B61C025F9D5BC523CAC6CCB708828,,,_455677.b11b61c025f9d5bc523cac6ccb708828.epub,0,2000-01-01 01:00:00,2016-04-03 02:51:08,766000/B11B61C025F9D5BC523CAC6CCB708828-g.jpg,,
19786376,"The Sermon on the Mount: A Commentary on the Sermon on the Mount, including the Sermon on the Plain (Matthew 5:3-7:27 and Luke 6:20-49) (Hermeneia)  ",,Hermeneia – a critical and historical commentary on the Bible,,Hans Dieter Betz,1995,,Augsburg Fortress,,738,0,English ,,,2011 12 30,"0800660315,9780800660314",,,,,226.9/077,BT380.2 .B484 1995,,,OL1273653M,,0,,,,1,1,1,1,26216171,pdf,B11BD2B0A7F1ADDCEF9F7D0EE10C5BB2,,,_487271.b11bd2b0a7f1addcef9f7d0ee10c5bb2.pdf,0,2000-01-01 01:00:00,2016-04-03 02:51:08,766000/b11bd2b0a7f1addcef9f7d0ee10c5bb2-d.jpg,,
19786377,סנה בוער בקוצק : נתיב חייו של רבי מנדל  ,,,,מאיר אוריין,2006,,"הוצאת ראובן מס בע מ, ירושלים",,332,0,Hebrew,,,2011 12 30,,,,,,,,,,,,0,,,,0,1,0,0,41718347,pdf,B11C59512550F7552B4CD7068AB6CE90,,,_485797.b11c59512550f7552b4cd7068ab6ce90.pdf,0,2000-01-01 01:00:00,2016-04-03 02:51:08,766000/b11c59512550f7552b4cd7068ab6ce90-g.jpg,,
19786378,Atom: od greckiej filozofii przyrody do nauki współczesnej  ,,,,Andrzej Łukasik,2000,,Wydawn. Uniw. Marii Curie-Skłodowskiej,,237,0,Polish ,,,2011 12 30,"8322715668,9788322715666",,,,,,,,,,,0,,,,,1,,1,2006717,pdf,B11D08BAD3442A68EDAF31FAC937B19F,,,_463545.b11d08bad3442a68edaf31fac937b19f.pdf,0,2000-01-01 01:00:00,2016-04-03 02:51:08,766000/b11d08bad3442a68edaf31fac937b19f-g.jpg,,
19786379,Managing Project Uncertainty  ,,Advances in project management,,David Cleden,2009,1,Gower,"Farnham, England ; Burlington, VT",146,0,English ,,,2011 12 30,"0566088401,978-0-566-08840-7,9780754681748,0754681742",,,,,658.4/04,HD69.P75 C5224 2009,,,OL22679164M,,0,,,,0,1,0,1,6416824,pdf,B11F6C5308809B1CB9B19017511EA818,,,_445595.b11f6c5308809b1cb9b19017511ea818.pdf,0,2000-01-01 01:00:00,2016-04-03 02:51:08,766000/b11f6c5308809b1cb9b19017511ea818-d.jpg,,
19786380,Journal of Biblical Literature 1898-2  ,,,,Journal of Biblical Literature,,,,,131,0,English ,,,2011 12 30,,,,,,,,,,,periodic,0,,,,,1,,1,9720918,pdf,B11FD7233F723F4879AFA50916A82BB3,,ban,_451997.b11fd7233f723f4879afa50916a82bb3.pdf,0,2000-01-01 01:00:00,2016-04-03 02:51:08,766000/b11fd7233f723f4879afa50916a82bb3-g.jpg,,
19786381,Introduction to theoretical physics  ,,,,Leigh Page,1952,"Third edition, third printing",D. Van Nostrand company,,357,0,English ,,,2011 12 30,,,,,,,,,ScwgAAAAMAAJ,,,0,,,,,1,,1,5412784,djvu,B1205D1BA1E14440E7D25421B3C02EB5,,,_436209.b1205d1ba1e14440e7d25421b3c02eb5.djvu,0,2000-01-01 01:00:00,2016-04-03 02:51:08,766000/b1205d1ba1e14440e7d25421b3c02eb5-g.jpg,,
19786382,Math Made Visual: Creating Images for Understanding Mathematics (Classroom Resource Material)  ,,,,"Roger Nelsen, Claudi Alsina",2006,,The Mathematical Association of America,,191,0,English ,,,2011 12 30,"0883857464,9780883857465",,,,,,,,hdMyr8WgKOMC,OL8191939M,,0,,,,,1,1,1,4147891,djvu,B1209B4E33CC260462B51F20F7945C24,,,_431832.b1209b4e33cc260462b51f20f7945c24.djvu,0,2000-01-01 01:00:00,2016-04-03 02:51:08,766000/b1209b4e33cc260462b51f20f7945c24-d.jpg,,
19786383,The Blue Planet: An Introduction to Earth System Science  ,,,,"Brian J. Skinner, Barbara W. Murck",2011,3,Wiley,,674,0,English ,,,2011 12 30,"0471236438,9780471236436",,,,,550,QB631 .S57 2011,,,OL24411763M,,0,,,,1,0,1,1,135946363,pdf,B120BB57B205BF96AD5799DB69A782C4,,,_453917.b120bb57b205bf96ad5799db69a782c4.pdf,0,2000-01-01 01:00:00,2016-04-03 02:51:08,766000/b120bb57b205bf96ad5799db69a782c4-d.jpg,,
19786384,COMO SE FAZ ANALISE DE CONJUNTURA  ,,,,HERBERT JOSE DE SOUZA,1996,16,VOZES,,61,0,Portuguese ,,,2011 12 30,"8532600913,9788532600912",,,,,338.9,,,s_yHOgAACAAJ,,,600,,,,1,1,1,1,3105839,pdf,B121A26C13F5FD06952B49886C4D0D0B,,,_509877.b121a26c13f5fd06952b49886c4d0d0b.pdf,0,2000-01-01 01:00:00,2016-04-03 02:51:08,766000/b121a26c13f5fd06952b49886c4d0d0b-g.jpg,,
19786385,Principles of Quantum Mechanics  ,,,,R. Shankar,1994,2,Springer,,694,0,English ,,,2011 12 30,"0306447908,9780306447907",,,,,530.1/2,QC174.12 .S52 1994,,,OL1101918M,,0,,,,,1,1,1,28722623,pdf,B1233E8EDD19173AB848E536FA7A21A0,,,_492699.b1233e8edd19173ab848e536fa7a21a0.pdf,0,2000-01-01 01:00:00,2016-04-03 02:51:08,766000/b1233e8edd19173ab848e536fa7a21a0-d.jpg,,
19786386,TCW 29: The Cat Who Had 60 Whiskers  ,,The Cat Who,,Lilian Jackson Braun,2007,First,"G. P. Putnam's Sons, New York",,,0,English ,,,2011 12 30,0515143952,,,,,,,,,,,0,,,,,1,,,179410,epub,B1234B065CB6F82ADF1114F5096A8EA9,,,_485534.b1234b065cb6f82adf1114f5096a8ea9.epub,0,2000-01-01 01:00:00,2016-04-03 02:51:08,766000/b1234b065cb6f82adf1114f5096a8ea9-d.jpg,,
19786387,"Satranç Öğrenelim 6, 12 Altın Adam  ",,,,Kahraman Olgaç,1984,1,Bilgi,,143,0,Turkish ,,,2011 12 30,,,,,,,,,,,,0,,,,,1,,0,4253081,pdf,B1247FE47E5B1485AB4108F2FBDC7D9B,,,_457378.b1247fe47e5b1485ab4108f2fbdc7d9b.pdf,0,2000-01-01 01:00:00,2016-04-03 02:51:08,,,
19786388,"Cammie Up!: Memoir of a Recon Marine in Vietnam, 1967-1968  ",,,,"Steven A. Johnson, Foreword by Ray W. Stubbe",2011,,McFarland,,289,0,English ,,,2011 12 30,"0786466006,9780786466009",,,,,"959.704/345092,B",DS559.5 .J644 2011,,Wywrua3huD8C,OL25078457M,,0,,,,1,0,1,1,2510028,pdf,B124A25CC6FEE225349AD79FD7DC1787,,,_513258.b124a25cc6fee225349ad79fd7dc1787.pdf,0,2000-01-01 01:00:00,2016-04-03 02:51:08,766000/b124a25cc6fee225349ad79fd7dc1787-d.jpg,,
19786389,Sweet Valley Confidential: Ten Years Later  ,,,,Francine Pascal,2011,,St. Martin's Press,,,0,English ,,,2011 12 30,"0312667574,9780312667573",,,,,,,,,OL24610381M,,0,,,,,1,,1,341118,epub,B125726FC252BC6549694A7F719AF213,,,_444922.b125726fc252bc6549694a7f719af213.epub,0,2000-01-01 01:00:00,2016-04-03 02:51:08,766000/b125726fc252bc6549694a7f719af213-d.jpg,,
19786390,Death on an Autumn River (A Sugawara Akitada Novel)  ,,,,I.J. Parker,2011,,,,287,0,English ,,,2011 12 30,,,,,,,,,,,,0,,,,,1,1,1,305497,epub,B128AC42D69FE4963C0A04F96B320977,,,_511079.b128ac42d69fe4963c0a04f96b320977.epub,0,2000-01-01 01:00:00,2016-04-03 02:51:08,766000/B128AC42D69FE4963C0A04F96B320977-g.jpg,,
19786391,Sociologie vědění: základní koncepce a paradigmata  ,,"Základy sociologie, 5. svazek",,Stanislav Hubík,1999,1. vydání,Sociologické nakladatelství,,226,0,Czech ,,,2011 12 30,"8085850583,9788085850581",,,,,,,,,OL102918M,,0,,,,1,0,1,1,6508278,pdf,B1292FD2C8F29E37A1C12D22DBCA3CE9,,,_470379.b1292fd2c8f29e37a1c12d22dbca3ce9.pdf,0,2000-01-01 01:00:00,2016-04-03 02:51:08,766000/b1292fd2c8f29e37a1c12d22dbca3ce9-g.jpg,,
19786392,Inscribing Sorrow: Fourth-Century Attic Funerary Epigrams (Trends in Classics - Supplementary Volumes - Volume 1)  ,,Trends in Classics - Supplementary Volumes 1,,Christos C. Tsagalis,2008,1,De Gruyter,,383,0,English ,,,2011 12 30,"3110201321,9783110201321",1868-4785,,,,,,,h5cB7HDK3w4C,,,0,,,,1,0,1,1,2645247,pdf,B12AFD3332996F07C1A312A4042DE60F,,,_444553.b12afd3332996f07c1a312a4042de60f.pdf,0,2000-01-01 01:00:00,2016-04-03 02:51:08,766000/b12afd3332996f07c1a312a4042de60f-d.jpg,,
19786393,Global public health vigilance: creating a world on alert  ,,,,"Mykhalovskiy We, Lorna Weir, Eric Mykhalovskiy",2009,1,Routledge,,231,0,English ,,,2011 12 30,"0415958423,9780415958424,0203857720,9780203857724",,,,,362.1,RA441 .W395 2010,,L9nXTdCTqAAC,OL10208796M,,0,,,,0,0,0,1,4746407,pdf,B12BB4DFD4313227EE385C09B5D7D01E,,,_472826.b12bb4dfd4313227ee385c09b5d7d01e.pdf,0,2000-01-01 01:00:00,2016-04-03 02:51:08,766000/b12bb4dfd4313227ee385c09b5d7d01e-d.jpg,,
19786394,,,,Crux Mathematicorum with Mathematical Mayhem - Volume 35 Number 8 (Dec 2009) issue 8,Canadian Mathematical Society,,,,,62,0,English ,,,2011 12 30,,,,,,,,,,,,0,,,,0,0,0,1,758175,pdf,B12C1725191E268092A4F1B9EC106176,,,_437551.b12c1725191e268092a4f1b9ec106176.pdf,0,2000-01-01 01:00:00,2016-04-03 02:51:08,766000/b12c1725191e268092a4f1b9ec106176-g.jpg,,
19786395,"Distillers Grains: Production, Properties, and Utilization  ",,,,"KeShun Liu, Kurt A. Rosentrater",2011,1,AOCS Publishing,,566,0,English ,,,2011 12 30,"1439817251,9781439817254",,,,,,,,,OL25220925M,,0,,,,,1,,1,15289377,pdf,B12CAD24657774E9AA14EBA512063018,,,_508308.b12cad24657774e9aa14eba512063018.pdf,0,2000-01-01 01:00:00,2016-04-03 02:51:08,766000/b12cad24657774e9aa14eba512063018-d.jpg,,
19786396,Карпато-восточнославянские параллели: Структура балканского текста  ,,Славянское и балканское языкознание,,"М. Судник, Т.В. Цивья",1977,,Наука,,194,0,Russian ,,,2011 12 30,,,,,,,,,,,,0,,,,0,1,0,0,6275142,pdf,B12CCEA4644AF83F0016AFF577D6C0D7,,,_469085.b12ccea4644af83f0016aff577d6c0d7.pdf,0,2000-01-01 01:00:00,2016-04-03 02:51:08,766000/b12ccea4644af83f0016aff577d6c0d7-g.jpg,,
19786397,Medstar I - Chirurdzy Polowi  ,,Gwiezdne Wojny 13,,"Michael Reaves, Steve Perry",2004,,AMBER,,106,0,Polish ,,,2011 12 30,,,,,,,,,,,,0,,,,,1,,1,1554038,pdf,B12D7EDCF6DECF70C45D23F383BEDA0B,,,_495204.b12d7edcf6decf70c45d23f383beda0b.pdf,0,2000-01-01 01:00:00,2016-04-03 02:51:08,766000/b12d7edcf6decf70c45d23f383beda0b-g.jpg,,
19786398,Fairy Tales of the Brothers Grimm  ,,,,Jacob Grimm and Wilhelm Grimm Translated by Edgar Taylor,2009,From a 1826 edition,The Floating Press,,453,0,English ,,,2011 12 30,978-1-877527-91-3,,,,,,,,,,,0,,,,1,0,1,1,947466,pdf,B12E0516FEC76510361A0C89262DA30C,,,_511114.b12e0516fec76510361a0c89262da30c.pdf,0,2000-01-01 01:00:00,2016-04-03 02:51:08,766000/b12e0516fec76510361a0c89262da30c-g.jpg,,
19786399,"Rocks (Geology: Landforms, Minerals, and Rocks)  ",,,,John P. Rafferty (editor),2012,,"Britannica Educational Publishing, Rosen Educational Services",,296,0,English ,,,2011 12 30,"1615305416,9781615305414",,,,,,,,wXGze2YcnwsC,,,0,,,,1,0,1,1,7680286,pdf,B12E4A87DB8654E3B54EE27CE3FAAF0E,,,_472873.b12e4a87db8654e3b54ee27ce3faaf0e.pdf,0,2000-01-01 01:00:00,2016-04-03 02:51:08,766000/b12e4a87db8654e3b54ee27ce3faaf0e-g.jpg,,
19786400,Preparation and Assay of Enzymes,,Methods In Enzymology 1,,"Nathan P. Kaplan, Nathan P. Colowick",1955,1,Academic Press,,905,0,English ,,,2011 12 30,"0121818012,9780121818012",0076-6879,,,,,,,,OL9613152M,,0,,,,,1,,1,46863096,pdf,B12EF039324D87613170203F0492C2C2,,,_433507.b12ef039324d87613170203f0492c2c2.pdf,0,2000-01-01 01:00:00,2016-04-03 02:51:08,766000/b12ef039324d87613170203f0492c2c2-d.jpg,,
19786401,Mary Anne vs. Logan  ,,,,Ann M. Martin,1991,,Scholastic,,43,0,English ,,,2011 12 30,"0590742418,9780590742412",,,,,,,,,OL7543117M,,0,,,,,1,,1,293821,pdf,B12F1130204575A9BF574A5A1C2EA4AA,,,_493878.b12f1130204575a9bf574a5a1c2ea4aa.pdf,0,2000-01-01 01:00:00,2016-04-03 02:51:08,766000/b12f1130204575a9bf574a5a1c2ea4aa-d.jpg,,
19786402,Interior Point Algorithms: Theory and Analysis  ,,Wiley-Interscience Series in Discrete Mathematics and Optimization,,Yinyu Ye,1997,1,John Wiley & Sons,,438,0,English ,,,2011 12 30,"0471174203,9780471174202",,,,,519.7/2,QA402.5 .Y4 1997,,RQZd7ru8cmMC,OL672448M,,0,,,,1,1,1,1,13079083,pdf,B12F44C6E8902A9B6112A9B5991527C2,,,_490135.b12f44c6e8902a9b6112a9b5991527c2.pdf,0,2000-01-01 01:00:00,2016-04-03 02:51:08,766000/b12f44c6e8902a9b6112a9b5991527c2-d.gif,,
19786403,"Handbook of Meningococcal Disease: Infection Biology, Vaccination, Clinical Management  ",,,,"Matthias Frosch, Martin C. J. Maiden",2006,1,WILEY-VCH Verlag GmbH,,571,0,English ,,,2011 12 30,"3527312609,9783527312603",,,,,,,,b_w-mnQmxI8C,OL9052705M,,0,,,,1,1,1,1,5941133,pdf,B12FA5BE6048FB1F92F7FF629FFDDAA9,,,_438560.b12fa5be6048fb1f92f7ff629ffddaa9.pdf,0,2000-01-01 01:00:00,2016-04-03 02:51:08,766000/b12fa5be6048fb1f92f7ff629ffddaa9-d.jpg,,
19786404,संख्या जगत में खेळकूड  ,,,,पी के श्रीनिवासन,2008,,"Bharat Gyan Vigyan Samiti, New Delhi, India",,71,0,Hindi ,,,2011 12 30,,,,,,,,,,,,0,,,,,1,,1,684258,pdf,B1308D704054CD63B33704FC93A763A7,,,_464669.b1308d704054cd63b33704fc93a763a7.pdf,0,2000-01-01 01:00:00,2016-04-03 02:51:08,766000/b1308d704054cd63b33704fc93a763a7-g.jpg,,
19786405,Bobby Brown and Richie Blue: A Spiritual Memoir  ,,,,"Richard Penaskovic, Robert Penaskovic",2009,,Hamilton Books,,127,0,English ,,,2011 12 30,"0761849092,9780761849094,9780761849100",,,,,"282.092/2,B",BX4705.P422445 A3 2010,,,OL24478189M,,0,,,,1,0,1,1,916481,pdf,B131E06A50A8BB09878885378F8C59BC,,,_456501.b131e06a50a8bb09878885378f8c59bc.pdf,0,2000-01-01 01:00:00,2016-04-03 02:51:08,766000/b131e06a50a8bb09878885378f8c59bc-d.jpg,,
19786406,The Kingless Land  ,,Band of Four 1,,Ed Greenwood,2001,,Tor Fantasy,,233,0,English ,,,2011 12 30,"0812580141,9780812580143,0312867212,9780312867218",,,,,813/.54,PR9199.3.G759 K5 2000,,,OL24279596M,,0,,,,0,1,1,1,998200,pdf,B13402FD0C282A2FD0DE371B6FDCAAEB,,,_443526.b13402fd0c282a2fd0de371b6fdcaaeb.pdf,0,2000-01-01 01:00:00,2016-04-03 02:51:08,766000/b13402fd0c282a2fd0de371b6fdcaaeb-d.jpg,,
19786407,The Complete Idiot's Guide to Game Theory  ,,,,"Ph.D., Edward C. Rosenthal",2011,,Alpha,,384,0,English ,,,2011 12 30,"161564055X,9781615640553",,,,,519.3,QA269 .R675 2011,,,OL25035574M,,0,,,,0,0,1,1,1544676,mobi,B134563A94F3DBD5A806B686F8BFE1BB,,,_465040.b134563a94f3dbd5a806b686f8bfe1bb.mobi,0,2000-01-01 01:00:00,2016-04-03 02:51:08,766000/b134563a94f3dbd5a806b686f8bfe1bb-d.jpg,,
19786408,The Hitler Cult  ,,,,Wyndham Lewis,1939,,Dent,,,0,English ,,,2011 12 30,,,,,,,,,,,,0,,,,,1,1,1,216180,epub,B1348AFD88E1C610656854CF2B3B85DC,,,_459365.b1348afd88e1c610656854cf2b3b85dc.epub,0,2000-01-01 01:00:00,2016-04-03 02:51:08,766000/B1348AFD88E1C610656854CF2B3B85DC-g.jpg,,
19786409,"Referendums and Representative Democracy: Responsiveness, Accountability and Deliberation (Routledge ECPR Studies in European Political Science)  ",,"Routledge/ECPR studies in European political science, 62",,"Maija Setälä, Theo Schiller",2009,1,Routledge,London ; New York,246,0,English ,,,2011 12 30,"0415481031,978-0-415-48103-8,9780203873427,0-203-87342-4",,,,,328.2/3,JF491 .R392 2009,,,OL23164654M,,0,,,,,1,,1,1455483,pdf,B1350FBB54F8B403B9021AD3AAC633B8,,,_448343.b1350fbb54f8b403b9021ad3aac633b8.pdf,0,2000-01-01 01:00:00,2016-04-03 02:51:08,766000/b1350fbb54f8b403b9021ad3aac633b8-d.jpg,,
19786410,Foundations of natural right: according to the principles of the Wissenschaftslehre  ,,Cambridge Texts in the History of Philosophy,,"Johann Gottlieb Fichte, Frederick Neuhouser (ed.), Michael Baur (trans.)",2000,,Cambridge University Press,,375,0,English ,,,2011 12 30,"0521573017,9780521573016,0521575915,9780521575911",,,,,320/.01,JC181 .F6213 2000,,tvVhQgAACAAJ,OL51398M,,400,,,,1,0,0,1,9685408,pdf,B1357459D09ADE4AEBEC9AF5068938A5,,,_455924.b1357459d09ade4aebec9af5068938a5.pdf,0,2000-01-01 01:00:00,2016-04-03 02:51:08,766000/b1357459d09ade4aebec9af5068938a5-d.jpg,,
19786411,Shaka II hc  ,,,,Mike Resnick,2009,,PS Publishing,,,0,English ,,,2011 12 30,,,,,,,,,,,,0,,,,,1,,,115314,epub,B137463E6EED76946459D20CE7588663,,,_488588.b137463e6eed76946459d20ce7588663.epub,0,2000-01-01 01:00:00,2016-04-03 02:51:08,766000/B137463E6EED76946459D20CE7588663-g.jpg,,
19786412,"חצרות קופנהגן : גאורג כהן, במאמץ למנוע מלחמה  ",,,,אמיליה כהן רואי,2003,,"הוצאת ראובן מס בע מ, ירושלים",,292,0,Hebrew,,,2011 12 30,,,,,,,,,,,,0,,,,0,1,0,0,39475114,pdf,B137E33D2CE77A264670A319CDCE1ABB,,,_485793.b137e33d2ce77a264670a319cdce1abb.pdf,0,2000-01-01 01:00:00,2016-04-03 02:51:08,766000/b137e33d2ce77a264670a319cdce1abb-g.jpg,,
19786413,विज्ञान का मजा  ,,,,मनरो लीफ,2007,,"Bharat Gyan Vigyan Samiti, New Delhi, India",,22,0,Hindi ,,,2011 12 30,,,,,,,,,,,,0,,,,,1,,0,609560,pdf,B13921676991A2F7FD322109C05BB308,,,_464814.b13921676991a2f7fd322109c05bb308.pdf,0,2000-01-01 01:00:00,2016-04-03 02:51:08,766000/b13921676991a2f7fd322109c05bb308-g.jpg,,
19786414,Neuromancer  ,,,,William Gibson,2003,,Ace Books,,,0,English ,,,2011 12 30,"110114646X,9781101146460",,,,,,,,,,,0,,,,0,0,1,1,571482,epub,B13AECB2ED978AA497953D09F84288B2,,,_451254.b13aecb2ed978aa497953d09f84288b2.epub,0,2000-01-01 01:00:00,2016-04-03 02:51:08,766000/B13AECB2ED978AA497953D09F84288B2-g.jpg,,
19786415,"Intermetallic Compounds, Volume 4, Magnetic, Electrical and Optical Properties and Applications of Intermetallic Compounds  ",,,,"J. H. Westbrook, R. L. Fleischer",2000,Volume 4,John Wiley & Sons Ltd,,221,0,English ,,,2011 12 30,"0471612618,9780471612612",,,,,620.1 '697—dc21,TA483.M26 2000,,,OL7619365M,"Missing 64-82, 100-120, 151-168, 227-240",0,,,,1,1,1,1,14007280,pdf,B13BADE0C0E780C4B9F236C254B4920C,,,_474280.b13bade0c0e780c4b9f236c254b4920c.pdf,0,2000-01-01 01:00:00,2016-04-03 02:51:08,766000/b13bade0c0e780c4b9f236c254b4920c-d.jpg,,
19786416,Advocacy Leadership: Toward a Post-Reform Agenda in Education (Critical Social Thought)  ,,,,Gary L. Anderson,2009,1,Routledge,,230,0,English ,,,2011 12 30,"0415994284,9780415994286,0415994276,9780415994279,9780203880616",,,,,371.200973,LB2805 .A56 2009,,Geu-SgwaVXYC,OL22542075M,,0,,,,1,0,1,1,1175546,pdf,B13ED73A783F2662EF12E289D97AAFB5,,,_452484.b13ed73a783f2662ef12e289d97aafb5.pdf,0,2000-01-01 01:00:00,2016-04-03 02:51:08,766000/b13ed73a783f2662ef12e289d97aafb5-d.jpg,,
19786417,The cave temples of India  ,,,,James Fergusson and James Burgess,1880,,W.H. Allen,,658,0,English ,,,2011 12 30,,,,,,,,,6ogW_gAACAAJ,,,0,,,,0,1,1,1,76835025,pdf,B13F8922661C98AA11323F10B1A8EEA7,,,_496974.b13f8922661c98aa11323f10b1a8eea7.pdf,0,2000-01-01 01:00:00,2016-04-03 02:51:08,766000/b13f8922661c98aa11323f10b1a8eea7-g.jpg,,
19786418,Ti amo  ,,,,Francesco Alberoni,2003,,BUR Biblioteca Univ. Rizzoli,,356,0,Italian ,,,2011 12 30,"8817107840,9788817107846",,,,,,,,4fAoAAAACAAJ,,,0,,,,,1,,0,17184233,pdf,B13FB31156B8984AB02FD300ED7A9DF8,,,_437815.b13fb31156b8984ab02fd300ed7a9df8.pdf,0,2000-01-01 01:00:00,2016-04-03 02:51:08,766000/b13fb31156b8984ab02fd300ed7a9df8-g.jpg,,
19786419,When Women Were Warriors Book II  ,,,,Catherine M Wilson,2008,,Shield Maiden Press,,320,0,English ,,,2011 12 30,"0981563627,9780981563626",,,,,,,,,,,0,,,,0,0,1,1,680644,mobi,B14100082BD4A9DEB30F344B1BB32F3A,,,_465128.b14100082bd4a9deb30f344b1bb32f3a.mobi,0,2000-01-01 01:00:00,2016-04-03 02:51:08,766000/b14100082bd4a9deb30f344b1bb32f3a-d.jpg,,
19786420,ELT Graded Readers: At The Beach  ,,ELT Graded Readers,,Michael Potter,2000,,Dorling Kindersley Publishers Ltd,,31,0,English ,,,2011 12 30,,,,,,,,,,,TOC is missing,0,,,,1,0,,1,1787791,pdf,B142B114CB1CBEABD643BC2A791CD48F,,,_434902.b142b114cb1cbeabd643bc2a791cd48f.pdf,0,2000-01-01 01:00:00,2016-04-03 02:51:08,766000/b142b114cb1cbeabd643bc2a791cd48f-g.jpg,,
19786421,The World's Finest Mystery and Crime Stories: 2: Second Annual Collection  ,,,,Ed Gorman,2001,,Tom Doherty Associates,,,0,English ,,,2011 12 30,"0312702418,9780312702410",,,,,,,,dTBoIZGE0UYC,,,0,,,,,1,,,804735,epub,B1448B4E69E19ED2E53A6DA400035FE6,,,_488620.b1448b4e69e19ed2e53a6da400035fe6.epub,0,2000-01-01 01:00:00,2016-04-03 02:51:08,766000/B1448B4E69E19ED2E53A6DA400035FE6-g.jpg,,
19786422,Thinking in Java (2nd Edition)  ,,,,Bruce Eckel,2000,2,Pearson Education,,1155,0,English ,92,,2011 12 30,"0130273635,9780130273635",,,,,005.13/3,QA76.73.J38 E25 2000,,,OL17728666M,,0,,,,,1,,1,3759659,pdf,B144F411983F9BD96B2D30B86E565EBE,,,_495959.b144f411983f9bd96b2d30b86e565ebe.pdf,0,2000-01-01 01:00:00,2016-04-03 02:51:08,766000/b144f411983f9bd96b2d30b86e565ebe-d.jpg,,
19786423,"Rubber-Clay Nanocomposites: Science, Technology, and Applications  ",,,,Maurizio Galimberti,2011,1,Wiley,,571,0,English ,,,2011 12 30,"0470562102,9780470562109,9781118092866,9781118092880,9781118092873",,,,,620.1/94,TA455.R8 R825 2011,,,OL24906368M,"chapter 2, pages 45-86, missing",0,,,,0,0,0,1,80323041,pdf,B14576A3DB68CB4C59E7C7961CCF0530,,,_499838.b14576a3db68cb4c59e7c7961ccf0530.pdf,0,2000-01-01 01:00:00,2016-04-03 02:51:08,766000/b14576a3db68cb4c59e7c7961ccf0530-d.jpg,,
19786424,Садовые цветы  ,,,,Ширли Уоттс,1997,,АРТ-Родник,,50,0,Russian ,,,2011 12 30,5888960152,,,,,,,,,,,600,,,,0,1,0,1,123359216,pdf,B145BC076C282A524EB68B67ABF7C5AF,,,_467095.b145bc076c282a524eb68b67abf7c5af.pdf,0,2000-01-01 01:00:00,2016-04-03 02:51:08,766000/b145bc076c282a524eb68b67abf7c5af-g.jpg,,
19786425,,,,Fables #5 ,Bill Willingham,,,,,23,0,English ,,,2011 12 30,,,,,,,,,,,,0,,,,0,1,0,0,6267637,pdf,B145F77A3BD1973AEE7003E938EB61B6,,,_501022.b145f77a3bd1973aee7003e938eb61b6.pdf,0,2000-01-01 01:00:00,2016-04-03 02:51:08,766000/b145f77a3bd1973aee7003e938eb61b6-g.jpg,,
19786426,Creative Knitting Magazine March 2009  ,,,,Creative knitting,,,,,101,0,English ,,,2011 12 30,,,,,,,,,,,,0,,,,,1,,0,42307107,pdf,B148379DFD6F85E3F70B2357E269C85C,,,_509570.b148379dfd6f85e3f70b2357e269c85c.pdf,0,2000-01-01 01:00:00,2016-04-03 02:51:08,766000/b148379dfd6f85e3f70b2357e269c85c-g.jpg,,
19786427,Wasted Heart (Special Edition)  ,,,,Lynn Galli,2010,,"Penikila Press, LLC",,252,0,English ,,,2011 12 30,"1935611321,9781935611325",,,,,,,,,,,0,,,,0,0,,1,418560,mobi,B1498D9BFE3611C2DCE46C83ABEA214B,,,_465126.b1498d9bfe3611c2dce46c83abea214b.mobi,0,2000-01-01 01:00:00,2016-04-03 02:51:08,766000/b1498d9bfe3611c2dce46c83abea214b-d.jpg,,
19786428,Behavior-Based Robotics (Intelligent Robotics and Autonomous Agents)  ,,,,Ronald C. Arkin,1998,,The MIT Press,,487,0,English ,,,2011 12 30,,,,,,,,,,,identification pages missing,0,,,,,1,1,1,49292094,pdf,B1499B1A8C5AD70046E20105A87F1537,,,_491822.b1499b1a8c5ad70046e20105a87f1537.pdf,0,2000-01-01 01:00:00,2016-04-03 02:51:08,766000/b1499b1a8c5ad70046e20105a87f1537-g.jpg,,
19786429,"יהודים ויהדות בימי בית שני, המשנה והתלמוד  ",,,,"מנחם שטרן, ישעיהו גפני ואהרן אופנהיימר",1993,,יד יצחק בן-צבי,,432,0,Hebrew,,,2011 12 30,,,,,,,,,,,,0,,,,0,1,0,0,72367420,pdf,B149C98871704BEFEDF6F79A3D64C9E1,,,_484669.b149c98871704befedf6f79a3d64c9e1.pdf,0,2000-01-01 01:00:00,2016-04-03 02:51:08,766000/b149c98871704befedf6f79a3d64c9e1-g.jpg,,
19786430,An Introduction to the Unitarian and Universalist Traditions (Introduction to Religion)  ,,Introduction to Religion,,"Andrea Greenwood, Mark W. Harris",2011,1,Cambridge University Press,,268,0,English ,,,2011 12 30,"0521707714,9780521707718,052188148X,9780521881487",,,,,230/.9132,BX9841.3 .G74 2011,,OuGQuC4bcJgC,OL24848258M,,0,,,,1,0,1,1,2162818,pdf,B14B49AE9041EA4521C1F2AFC2BEEA8C,,,_514539.b14b49ae9041ea4521c1f2afc2beea8c.pdf,0,2000-01-01 01:00:00,2016-04-03 02:51:08,766000/b14b49ae9041ea4521c1f2afc2beea8c-d.jpg,,
19786431,7th International Conference on Automated Deduction: Proceedings  ,,Lecture Notes in Computer Science 170,,R. E. Shostak,1984,1,Springer,,516,0,English ,,,2011 12 30,"0387960228,9780387960227",,,,,511.3,QA76.9.A96 C66 1984,,fWWQj8IVHD0C,OL2843473M,,0,,,,1,1,1,1,25370930,pdf,B14B59041673CA7A106591DAD67FD95D,,,_510187.b14b59041673ca7a106591dad67fd95d.pdf,0,2000-01-01 01:00:00,2016-04-03 02:51:08,766000/b14b59041673ca7a106591dad67fd95d-d.jpg,,
19786432,Statistical Continuum Mechanics  ,,CISM Courses and lectures 92,,E. Kröner,1974,1,Springer,,82,0,English ,,,2011 12 30,"321181129X,9783211811290",,,,,,,,,OL12677936M,,0,,,,1,1,0,1,1533957,djvu,B14C915BEB5136EDA9B5073C3BE1D38A,,,_470127.b14c915beb5136eda9b5073c3be1d38a.djvu,0,2000-01-01 01:00:00,2016-04-03 02:51:08,766000/b14c915beb5136eda9b5073c3be1d38a-g.jpg,,
19786433,Killer Angel: A Biography of Planned Parenthood's Founder Margaret Sanger  ,,,,George Grant,,,,,111,0,English ,,,2011 12 30,"1887690026,9781887690027",,,,,923,,,,OL12181481M,,0,,,,,1,1,1,770985,pdf,B14DE495DDF502B5FC29BF962A81E0A4,,,_496206.b14de495ddf502b5fc29bf962a81e0a4.pdf,0,2000-01-01 01:00:00,2016-04-03 02:51:08,766000/b14de495ddf502b5fc29bf962a81e0a4-g.jpg,,
19786434,All the Pretty Hearses: A Bed-and-Breakfast Mystery (Bed-And-Breakfast Mysteries)  ,,,,Mary Daheim,2011,,William Morrow,,430,0,English ,,,2011 12 30,,,,,,,,,,,,0,,,,,1,,1,1665007,pdf,B14DF311C7F6D51D41A779BE0D54492E,,,_474609.b14df311c7f6d51d41a779be0d54492e.pdf,0,2000-01-01 01:00:00,2016-04-03 02:51:08,766000/b14df311c7f6d51d41a779be0d54492e-g.jpg,,
19786435,Parler d'amour au bord du gouffre  ,,,,Boris Cyrulnik,2004,,Odile Jacob,,260,0,French ,,,2011 12 30,"273811556X,9782738115560",,,,,155.92,,,AWzNIFbWc_IC,OL13634817M,,0,,,,,1,,0,11463830,pdf,B14E54AA77013D293F9BFF30372CE3C4,,,_437690.b14e54aa77013d293f9bff30372ce3c4.pdf,0,2000-01-01 01:00:00,2016-04-03 02:51:08,766000/b14e54aa77013d293f9bff30372ce3c4-d.jpg,,
19786436,Programming Entity Framework: Code First  ,,,,"Julia Lerman, Rowan Miller",2011,,O'Reilly Media,,192,0,English ,87,,2011 12 30,"1449312942,9781449312947",,,,,,,,,,,0,,,,0,0,1,1,6622819,pdf,B14F0B55BC831C2CE90264DC53C8CBFA,,,_503227.b14f0b55bc831c2ce90264dc53c8cbfa.pdf,0,2000-01-01 01:00:00,2016-04-03 02:51:08,766000/b14f0b55bc831c2ce90264dc53c8cbfa-d.jpg,,
19786437,Illustrated History of the United States (Background Books)  ,,,,D B O'Callaghan,1990,,Ad Wes Longman Elt,,146,0,English ,,,2011 12 30,"0582749212,9780582749214",,,,,,,,,OL9690359M,,0,,,,0,1,1,1,53448071,pdf,B14F8A0136BF454E8BAE400E39107BA1,,,_458565.b14f8a0136bf454e8bae400e39107ba1.pdf,0,2000-01-01 01:00:00,2016-04-03 02:51:08,766000/b14f8a0136bf454e8bae400e39107ba1-d.jpg,,
19786438,Universal Semantic Communication  ,,,,Brendan Juba,2011,2011,Springer,,808,0,English,,,2011 12 30,"3642232965,9783642232961",,,,,,,10.1007/978-3-642-23297-8,L9Yay8hlqikC,,,0,,,,,1,1,1,5788208,pdf,B155FE4DF3A7B3870573459F46D4116D,,,_503138.b155fe4df3a7b3870573459f46d4116d.pdf,0,2000-01-01 01:00:00,2016-04-03 02:51:08,766000/b155fe4df3a7b3870573459f46d4116d-d.jpg,,
19786439,"CityTrip New York, 2. Auflage  ",,,,"Margit Brinke, Peter Kränzle",2011,2,Reise Know-How Verlag,,149,0,German ,,,2011 12 30,"3831720924,9783831720927",,,,,,,,,,,0,,,,1,0,1,1,18264082,pdf,B15975AF1EB8E8352E6E18AC62B1818F,,,_432982.b15975af1eb8e8352e6e18ac62b1818f.pdf,0,2000-01-01 01:00:00,2016-04-03 02:51:08,766000/b15975af1eb8e8352e6e18ac62b1818f-g.jpg,,
19786440,Thomas Jefferson: Early America (Primary Source Readers)  ,,,,"Jill K. Mulhall, M.Ed.",2008,Ill,Teacher Created Materials,,15,0,English ,,,2011 12 30,"0743987470,9780743987479",,,,,,,,,,,0,,,,0,0,0,1,11185675,pdf,B15B7B92105A128FEC25275FF460682D,,,_438334.b15b7b92105a128fec25275ff460682d.pdf,0,2000-01-01 01:00:00,2016-04-03 02:51:08,766000/b15b7b92105a128fec25275ff460682d-d.jpg,,
19786441,Challenging the Traditional Axioms: Translation into a Non-mother Tongue  ,,Benjamins Translation Library,,Nike K. Pokorn,2005,,John Benjamins Publishing Company,,179,0,English ,,,2011 12 30,"9027216681,9789027216687",,,,,418/.02,P306 .P646 2005,,aM2IwjPLOKcC,OL22625110M,,0,,,,1,0,0,1,1731643,pdf,B15B7CC6D059296DF70A1FBF694B48C2,,,_432036.b15b7cc6d059296df70a1fbf694b48c2.pdf,0,2000-01-01 01:00:00,2016-04-03 02:51:08,766000/b15b7cc6d059296df70a1fbf694b48c2-d.jpg,,
19786442,Archeologia polska i jej czasy  ,,,,Michał Brzostowicz (red.),2009,,Wydawn PTPN,,132,0,Polish ,,,2011 12 30,"8376540564,9788376540566",0137-3250,,,,,,,,,,0,,,,,1,,1,24264607,pdf,B15C2293D294FC2A2273E232CC9999C1,,,_435022.b15c2293d294fc2a2273e232cc9999c1.pdf,0,2000-01-01 01:00:00,2016-04-03 02:51:08,766000/b15c2293d294fc2a2273e232cc9999c1-g.jpg,,
19786443,The Handbook of Humanistic Psychology  ,,,,"Kirk J. Schneider, Dr. James F. T. Bugental, Jean Fraser Pierson",,,,,730,0,English ,,,2011 12 30,,,,,,,,,,,,0,,,,0,1,0,1,6953317,pdf,B15C6291DDC1618A451FA97357D1DDA2,,,_435371.b15c6291ddc1618a451fa97357d1dda2.pdf,0,2000-01-01 01:00:00,2016-04-03 02:51:08,766000/b15c6291ddc1618a451fa97357d1dda2-g.jpg,,
19786444,Dead Is Not an Option  ,,,,Marlene Perez,2011,,Graphia,,249,0,English ,,,2011 12 30,978-0-547-34593-2,,,,,,,,,,,0,,,,,1,,1,1306559,pdf,B15E3B484549190B1886E8E5E15DE304,,,_474617.b15e3b484549190b1886e8e5e15de304.pdf,0,2000-01-01 01:00:00,2016-04-03 02:51:08,766000/b15e3b484549190b1886e8e5e15de304-g.jpg,,
19786445,The Night Watch  ,,,,Sarah Waters,2006,X,Riverhead Trade,,544,0,English ,,,2011 12 30,"1594482306,9781594482304",,,,,,,,,OL13573100M,,0,,,,0,0,1,1,401596,mobi,B15E54BA79A8E8499A49A5C8E3CDA300,,,_465062.b15e54ba79a8e8499a49a5c8e3cda300.mobi,0,2000-01-01 01:00:00,2016-04-03 02:51:08,766000/b15e54ba79a8e8499a49a5c8e3cda300-d.jpg,,
19786446,Walls That Speak: The Murals of John Thomas Biggers  ,,,,Olive Jensen Theisen,2010,Updated,University of North Texas Press,,148,0,English ,,,2011 12 30,"1574412892,9781574412895",,,,,759.13,ND237.B587 T49 2010,,,OL24453060M,,0,,,,,0,1,1,5906864,pdf,B15ED00EF83F1EC7F4E0869C6C3882A0,,,_457804.b15ed00ef83f1ec7f4e0869c6c3882a0.pdf,0,2000-01-01 01:00:00,2016-04-03 02:51:08,766000/b15ed00ef83f1ec7f4e0869c6c3882a0-d.jpg,,
19786447,House Of Incest  ,,,,Anais Nin,1958,1,Swallow Press,,,0,English ,,,2011 12 30,"0804001480,9780804001489",,,,,811/.54,PS3527.I865 H6 1989,,,OL17119884M,,0,,,,,1,,,228580,epub,B15EE0F2660FED42C9E2D2F8513DCF27,,,_480225.b15ee0f2660fed42c9e2d2f8513dcf27.epub,0,2000-01-01 01:00:00,2016-04-03 02:51:08,766000/b15ee0f2660fed42c9e2d2f8513dcf27-d.jpg,,
19786448,Girls in White Dresses  ,,,,Jennifer Close,2011,,Knopf,,191,0,English ,,,2011 12 30,"0307596850,9780307596857",,,,,813/.6,PS3603.L68 G57 2011,,,OL25024837M,,0,,,,1,0,1,1,2269863,epub,B15FA8FFF02685AD84F5874F5AF8ACFE,,,_463433.b15fa8fff02685ad84f5874f5af8acfe.epub,0,2000-01-01 01:00:00,2016-04-03 02:51:08,766000/b15fa8fff02685ad84f5874f5af8acfe-d.jpg,,
19786449,"Lanthanide and actinide chemistry and spectroscopy: based on a symposium sponsored by the Division of Inorganic Chemistry at the 178th meeting of the American Chemical Society, Washington, D.C., September 10-13, 1979  ",,,,American Chemical Society. Division of Inorganic Chemistry,1980,,ACS,,472,0,English ,,,2011 12 30,"084120568X,9780841205680",,,,,546/.41,QD172.R2 L27,,6-7vAAAAMAAJ&am,OL4102915M,,0,,,,0,0,1,1,37071636,pdf,B15FAF080E11966B2E4387E8C10917BB,,,_499741.b15faf080e11966b2e4387e8c10917bb.pdf,0,2000-01-01 01:00:00,2016-04-03 02:51:08,766000/b15faf080e11966b2e4387e8c10917bb-g.jpg,,
19786450,Design for Manufacturability Handbook  ,,,,James Bralla,1998,2nd,McGraw-Hill Professional,,1296,0,English ,,,2011 12 30,"007007139X,9780070071391",,,,,670.42,TS176 .H337 1999,,,OL363203M,,0,,,,,1,1,1,12916311,pdf,B16068922B954BF50C0EA8F0EC12EAE7,,,_443199.b16068922b954bf50c0ea8f0ec12eae7.pdf,0,2000-01-01 01:00:00,2016-04-03 02:51:08,766000/b16068922b954bf50c0ea8f0ec12eae7-d.jpg,,
19786451,The Oxford Companion to Philosophy  ,,Oxford Companions,,Ted Honderich,1995,1st,"Oxford University Press, USA",,1024,0,English ,,,2011 12 30,"0198661320,9780198661320",,,,,100,B51 .O94 1995,,4ii8AAAAIAAJ,OL1111121M,,0,,,,1,0,1,1,11729343,pdf,B16172B496899C339957EF1BA4963C37,,,_446636.b16172b496899c339957ef1ba4963c37.pdf,0,2000-01-01 01:00:00,2016-04-03 02:51:08,766000/b16172b496899c339957ef1ba4963c37-d.jpg,,
19786452,Sanctuary  ,,,,Cassidy Hunter,,,,,135,0,English ,,,2011 12 30,9781607375722,,,,,,,,,,,0,,,,,1,,1,994193,pdf,B1629508969E76CA5EF4F81D0BA4E765,,,_484533.b1629508969e76ca5ef4f81d0ba4e765.pdf,0,2000-01-01 01:00:00,2016-04-03 02:51:08,766000/b1629508969e76ca5ef4f81d0ba4e765-g.jpg,,
19786453,Matter: Material Processes in Architectural Production  ,,,,"Gail Peter Borden, Michael Meredith",2011,1,Routledge,,514,0,English ,,,2011 12 30,"0415780284,9780415780285,0415780292,9780415780292,9780203827024,0203827023",,,,,721/.044,TA403 .M386 2012,,W8N3RAAACAAJ,OL25085123M,,0,,,,1,0,1,1,62779329,pdf,B165103669B03AB875CD8E103B62D9FB,,,_512125.b165103669b03ab875cd8e103b62d9fb.pdf,0,2000-01-01 01:00:00,2016-04-03 02:51:08,766000/b165103669b03ab875cd8e103b62d9fb-d.jpg,,
19786454,Commutative Algebra II: Pt. 2 (Graduate Texts in Mathematics)  ,,,,"O. Zariski, P. Samuel",1960,,Van Nostrand,,420,0,English ,,,2011 12 30,,,,,,,,,tvxzkQxOsUsC,,,600,,,,0,1,1,1,9813778,djvu,B1651056CF6AC935393934A98DAD4A6F,,,_461988.b1651056cf6ac935393934a98dad4a6f.djvu,0,2000-01-01 01:00:00,2016-04-03 02:51:08,766000/b1651056cf6ac935393934a98dad4a6f-g.jpg,,
19786455,The moral philosophers: an introduction to ethics  ,,,,Richard J. Norman,1998,2,Oxford University Press,,,0,English ,,,2011 12 30,"0198752172,9780198752172",,,,,170,BJ71 .N73 1997,,FYoQAQAAIAAJ,OL678664M,,0,,,,,1,,,497078,epub,B165AF51AB70F4B9EA0495AD33E855A0,,,_468753.b165af51ab70f4b9ea0495ad33e855a0.epub,0,2000-01-01 01:00:00,2016-04-03 02:51:08,766000/B165AF51AB70F4B9EA0495AD33E855A0-g.jpg,,
19786456,The Hour of Dust and Ashes  ,,,,Kelly Gay,2011,,Pocket Books,,,0,English ,,,2011 12 30,"1451625499,9781451625493",,,,,,,,4CPUgi9wML8C,,,0,,,,,1,,,614745,epub,B1667C7089807B353669824EA8B59163,,,_473931.b1667c7089807b353669824ea8b59163.epub,0,2000-01-01 01:00:00,2016-04-03 02:51:08,766000/B1667C7089807B353669824EA8B59163-g.jpg,,
19786457,Switching to a Mac For Dummies  ,,For Dummies,,Arnold Reinhold,2011,Mac OS X Lion Edition,John Wiley & Sons,,443,0,English ,,,2011 12 30,"111802446X,9781118024461,9781118173695,9781118173701,9781118173718",,,,,,,,mX37tgAACAAJ,,,0,,,,1,0,1,1,10033678,pdf,B1673E20AFEE5196100A592E0B92E9DE,,,_490561.b1673e20afee5196100a592e0b92e9de.pdf,0,2000-01-01 01:00:00,2016-04-03 02:51:08,766000/b1673e20afee5196100a592e0b92e9de-d.jpg,,
19786458,The Palaeotypography of the French Renaissance: Selected Papers on Sixteenth-century Typefaces (Library of the Written Word)  ,,Library of the Written Word 6,,Hendrik D. L. Vervliet,2008,,Brill Academic Pub,,583,0,English ,,,2011 12 30,"9004169822,9789004169821",1874-4834,,,,686.2/24094409031,Z250.A2 V47 2008,,6sidSDlif48C,OL22665138M,,0,,,,1,0,1,1,11288184,pdf,B1677D74C1F66E0DB89A6817C4110366,,,_494555.b1677d74c1f66e0db89a6817c4110366.pdf,0,2000-01-01 01:00:00,2016-04-03 02:51:08,766000/b1677d74c1f66e0db89a6817c4110366-d.jpg,,
19786459,The Adoration of Jenna Fox  ,,,,Mary E. Pearson,2009,Reprint,Square Fish,,,0,English ,,,2011 12 30,"0312594410,9780312594411",,,,,,,,WlvoS4gIq-kC,OL24333387M,,0,,,,,1,,,220403,epub,B168F95E155AF3C4DD5FC98E895931CD,,,_488619.b168f95e155af3c4dd5fc98e895931cd.epub,0,2000-01-01 01:00:00,2016-04-03 02:51:08,766000/b168f95e155af3c4dd5fc98e895931cd-d.jpg,,
19786460,Deadly Dreams (The Mindhunters)  ,,The Mindhunters 5,,Kylie Brant,2011,,Berkley,,,0,English ,,,2011 12 30,"0425240681,9780425240687",,,,,,,,,OL24601869M,,0,,,,,1,1,,405577,epub,B16D170602AB1B192800AF17CC1DA435,,,_451704.b16d170602ab1b192800af17cc1da435.epub,0,2000-01-01 01:00:00,2016-04-03 02:51:08,766000/b16d170602ab1b192800af17cc1da435-d.jpg,,
19786461,Communicating Process Architectures 2008; WoTUG-31 - Volume 66 Concurrent Systems Engineering Series  ,,,,"P.H. Welch, S. Stepney, F.A.C. Polack, F.R.M. Barnes, A.A. McEwan, G.S. Stiles, J.F. Broenink, A.T. Sampson",,,,,473,0,English ,,,2011 12 30,978-1-58603-907-3,,,,,,,,,,,0,,,,,1,1,1,3832136,pdf,B16D49146ADDFEC3526CCF46525BEEFB,,,_218213.b16d49146addfec3526ccf46525beefb.pdf,0,2000-01-01 01:00:00,2016-04-03 02:51:08,766000/b16d49146addfec3526ccf46525beefb-g.jpg,,
19786462,"Fundamentals of Futures and Options Markets, Sixth Edition  ",,,,John C. Hull,2007,6th,Prentice Hall,,288,0,English ,,,2011 12 30,"0132242265,9780132242264",,,,,332.64/52,HG6024.A3 H84 2007,,,OL16282955M,,0,,,,,1,,1,73207036,pdf,B16F11C9BBF1F4A0357D2D298AB6A98A,,,_507060.b16f11c9bbf1f4a0357d2d298ab6a98a.pdf,0,2000-01-01 01:00:00,2016-04-03 02:51:08,766000/b16f11c9bbf1f4a0357d2d298ab6a98a-d.jpg,,
19786463,"Analytical Profiles of Drug Substances, Excipients, and Related Methodology",,Profiles of Drug Substances Excipients and Related Methodology 19,,Klaus Florey (editor),1991,,Academic Press,,679,0,English ,,,2011 12 30,"0122608194,9780122608193",1871-5125,,,,,,,,OL10071492M,,0,,,,0,1,0,1,42316602,pdf,B1728B2A6EA700D6C5F2A2C391A60FB7,,,_442447.b1728b2a6ea700d6c5f2a2c391a60fb7.pdf,0,2000-01-01 01:00:00,2016-04-03 02:51:08,766000/b1728b2a6ea700d6c5f2a2c391a60fb7-d.jpg,,
19786464,Rapid Arabic Vol. 2 (with Audio)  ,,,,Earworms,2011,,Berlitz Publishing,,20,0,English ,,,2011 12 30,"1905443463,9781905443468",,,,,,,,,,,0,,,,0,0,0,1,70338354,pdf,B175120AB00623DDB96BADA4B8655000,,,_493080.b175120ab00623ddb96bada4b8655000.pdf,0,2000-01-01 01:00:00,2016-04-03 02:51:08,766000/b175120ab00623ddb96bada4b8655000-d.jpg,,
19786465,Philosophy: An Introduction to the Art of Wondering  ,,,,James L. Christian,2008,10,Wadsworth Publishing,,692,0,English ,,,2011 12 30,"0495505048,9780495505044",,,,,,,,,OL9487582M,,0,,,,1,0,1,1,13175408,pdf,B1774E998E52D326A3C309204DAEF9DF,,,_467108.b1774e998e52d326a3c309204daef9df.pdf,0,2000-01-01 01:00:00,2016-04-03 02:51:08,766000/b1774e998e52d326a3c309204daef9df-d.jpg,,
19786466,Kant and the Limits of Autonomy  ,,,,Susan Meld Shell,2009,1,Harvard University Press,,435,0,English ,,,2011 12 30,"0674033337,9780674033337",,,,,193,B2798 .S515 2009,,PHSeiIoaTTsC,OL22560322M,"book info (isbn, copyright, table of contents, etc.) missing",0,,,,1,0,0,1,5729059,pdf,B177890E6C8F70D8D61D43578D7170E4,,,_433120.b177890e6c8f70d8d61d43578d7170e4.pdf,0,2000-01-01 01:00:00,2016-04-03 02:51:08,766000/b177890e6c8f70d8d61d43578d7170e4-d.jpg,,
19786467,Dairy Chemistry and Animal Nutrition  ,,,,Dr. V.K. Chhazllani,2008,,Manglam Publications,,293,0,English ,,,2011 12 30,"8190658050,9788190658058",,,,,641.371,,,UnvLPgAACAAJ,,,0,,,,1,1,1,1,11759160,pdf,B17B05D6EB6F2FB6A1548CD45706FE14,,,_501578.b17b05d6eb6f2fb6a1548cd45706fe14.pdf,0,2000-01-01 01:00:00,2016-04-03 02:51:08,766000/b17b05d6eb6f2fb6a1548cd45706fe14-g.jpg,,
19786468,Return to Kaldak  ,,Richard Blade 36,,Jeffrey Lord,,,,,,0,English ,,,2011 12 30,,,,,,,,,,,,0,,,,,1,1,1,203908,epub,B17CD8242FC2CDA5D5030F93821D97CD,,,_509302.b17cd8242fc2cda5d5030f93821d97cd.epub,0,2000-01-01 01:00:00,2016-04-03 02:51:08,766000/B17CD8242FC2CDA5D5030F93821D97CD-g.jpg,,
19786469,Del Infinito: el Universo y los Mundos,,,,Giordano Bruno,1993,,Alianza,,243,0,"Spanish,Castilian",,,2011 12 30,"8420679151,9788420679150",,,,,,,,,,,0,,,,0,1,0,1,35117793,pdf,B17CFEB32DD9F0FFC4A447BE06F263C0,,,_446326.b17cfeb32dd9f0ffc4a447be06f263c0.pdf,0,2000-01-01 01:00:00,2016-04-03 02:51:08,766000/b17cfeb32dd9f0ffc4a447be06f263c0-d.jpg,,
19786470,Florentinerpakt: Palinskis achter Fall  ,,,,Pierre Emme,2008,,Gmeiner Verlag,,,0,German ,,,2011 12 30,"3899777700,9783899777703,9783839230428",,,,,,,,,,,0,,,,,0,1,1,1638629,epub,B17D4CDEA5C20D496F7D435B88EFC496,,,_432167.b17d4cdea5c20d496f7d435b88efc496.epub,0,2000-01-01 01:00:00,2016-04-03 02:51:08,766000/b17d4cdea5c20d496f7d435b88efc496-d.jpg,,
19786471,"Stochastic Processes in Physics, Chemistry, and Biology (Lecture Notes in Physics 557)  ",,Lecture Notes in Physics 557,,"Jan A. Freund, Thorsten Pöschel, Editors",2000,1,Springer,,499,0,English ,,,2011 12 30,"3540410740,9783540410744,3642074294,9783642074295",,,,,,,,,OL9446291M,"missing: pp 338-349 (ie Chapter 31, 'Quantum Mechanical Model of Proton Transfer in a Fluctuating Potential Field of the Active Site of α-Chymotrypsin,' by B.A. Grishanin, Yu.M. Romanovskii, A.Yu. Chikishev, E.V. Shuvalova)",0,,,,,1,0,0,26722400,pdf,B17D5FF30E540B0C39A92B0E53D0BBC3,,,_444433.b17d5ff30e540b0c39a92b0e53d0bbc3.pdf,0,2000-01-01 01:00:00,2016-04-03 02:51:08,766000/b17d5ff30e540b0c39a92b0e53d0bbc3-d.jpg,,
19786472,Giacomo C. 5 Por el amor de mi prima  ,,,,Dufaux & Griffo,2003,Tra,Norma Editorial,,50,0,"Spanish,Castilian",,,2011 12 30,"8484318737,9788484318736",,,,,,,,,,,0,,,,,1,,0,19167409,pdf,B17E5C85157636018397F36527AD3BAC,,,_464713.b17e5c85157636018397f36527ad3bac.pdf,0,2000-01-01 01:00:00,2016-04-03 02:51:08,766000/b17e5c85157636018397f36527ad3bac-g.jpg,,
19786473,When the Sacred Ginmill Closes  ,,Matthew Scudder 6,,Lawrence Block,,,,,,0,English ,,,2011 12 30,,,,,,,,,,,,0,,,,,1,1,1,234082,epub,B17E8EFB43E76F525E68532697C93A74,,,_491715.b17e8efb43e76f525e68532697c93a74.epub,0,2000-01-01 01:00:00,2016-04-03 02:51:08,766000/B17E8EFB43E76F525E68532697C93A74-g.jpg,,
19786474,,,,"Handbook of Management Accounting Research, Volume 3 volume 3 ","Anthony G. Hopwood, Christopher S. Chapman, Michael D. Shields",2009,1,Elsevier Science,,255,0,English ,,,2011 12 30,"0080554504,9780080554501",1751-3243,,,,,,10.1016/S1751-3243,dIbYmN57sMwC,,,0,,,,,1,1,1,1919680,pdf,B17EFAEA876D1872EB6CE30552D24DD1,,,_491436.b17efaea876d1872eb6ce30552d24dd1.pdf,0,2000-01-01 01:00:00,2016-04-03 02:51:08,766000/b17efaea876d1872eb6ce30552d24dd1-d.jpg,,
19786475,Feminist Perspectives on Jewish Studies  ,,,,"Lynn Davidman, Shelly Tenenbaum (eds.)",1996,,Yale University Press,,286,0,English ,,,2011 12 30,"0300068670,9780300068672,0300060289,9780300060287",,,,,296/.082,BM729.W6 F45 1994,,VLaNjSK8GZUC,OL1092131M,,0,,,,1,0,1,1,1481402,pdf,B17F639DF36C7B66215CE695550E20A9,,,_467933.b17f639df36c7b66215ce695550e20a9.pdf,0,2000-01-01 01:00:00,2016-04-03 02:51:08,766000/b17f639df36c7b66215ce695550e20a9-d.jpg,,
19786476,The Girl Who Ate Kalamazoo  ,,,,Darrin Doyle,2010,1,St. Martin's Griffin,,,0,English ,,,2011 12 30,"0312592310,9780312592318",,,,,813/.6,PS3604.O95475 G57 2010,,W-NMcAot2NgC,OL23688075M,,0,,,,0,0,1,1,284514,epub,B17FC505C69930872669120B5967989D,,,_460120.b17fc505c69930872669120b5967989d.epub,0,2000-01-01 01:00:00,2016-04-03 02:51:08,766000/b17fc505c69930872669120b5967989d-d.jpg,,
19786477,"Astronomy and Ancient Greek Cult An application of archaeoastronomy to Greek religious architecture, cosmologies and landscapes. (PhD Leicester)  ",,,,Efrosyni Boutsikas,2007,,,,223,0,English ,,,2011 12 30,,,,,,,,,,,,0,,,,0,0,,1,3834490,djvu,B180A8F63D8F0717FF6D0B006634EEEE,,,_440294.b180a8f63d8f0717ff6d0b006634eeee.djvu,0,2000-01-01 01:00:00,2016-04-03 02:51:08,766000/b180a8f63d8f0717ff6d0b006634eeee-g.jpg,,
19786478,"E-Health Systems Diffusion and Use: The Innovation, the User and the UseIT Model  ",,,,Ton A.M. Spil,2005,,IGI Global,,365,0,English ,,,2011 12 30,"1591404231,9781591404231,159140424X,9781591404248,1591404258",,,,,,,,V193PudpR5gC,OL8854832M,,0,,,,1,0,1,1,3443677,pdf,B180DA5EE84535BF8B6876F890E6D7C7,,,_452604.b180da5ee84535bf8b6876f890e6d7c7.pdf,0,2000-01-01 01:00:00,2016-04-03 02:51:08,766000/b180da5ee84535bf8b6876f890e6d7c7-d.jpg,,
19786479,Star  ,,,,Danielle Steel,1990,,Dell,,,0,English ,,,2011 12 30,"0440205573,9780440205579",,,,,,,,t-sS8rZvMj4C,OL7518770M,,0,,,,,0,0,1,327208,epub,B18171CCDED6176FC33579E1D54449A6,,,_445693.b18171ccded6176fc33579e1d54449a6.epub,0,2000-01-01 01:00:00,2016-04-03 02:51:08,766000/b18171ccded6176fc33579e1d54449a6-d.jpg,,
19786480,"Quasicrystals: Types, Systems, and Techniques  ",,Physics Research and Technology,,"Beth E. Puckermann, Editor",2011,,Nova Science Pub Inc,,238,0,English ,,,2011 12 30,"1617612308,9781617612305",,,,,,,,22TLbwAACAAJ,,,0,,,,1,0,1,1,7978147,pdf,B18234C3408DA28EB94815DF524A260A,,,_476831.b18234c3408da28eb94815df524a260a.pdf,0,2000-01-01 01:00:00,2016-04-03 02:51:08,766000/b18234c3408da28eb94815df524a260a-g.jpg,,
19786481,The Making of a Class: Cadres in French Society  ,,,,Luc Boltanski,1987,,Cambridge University Press,,207,0,English ,,,2011 12 30,"0521320739,9780521320733",,,,,305.5/0944,HN440.S6 B6513 1987,,,OL2376858M,,0,,,,0,0,1,1,4184840,djvu,B182C4061B5BB427FD406290ADF5A6F2,,,_436095.b182c4061b5bb427fd406290adf5a6f2.djvu,0,2000-01-01 01:00:00,2016-04-03 02:51:08,766000/b182c4061b5bb427fd406290adf5a6f2-d.jpg,,
19786482,La ragazza e l'inquisitore  ,,,,Nerea Riesco,2009,,Garzanti Libri,,236,0,Italian ,,,2011 12 30,,,,,,,,,,,,0,,,,0,0,0,1,1182725,pdf,B18407C2B925EF07FE7B44CEA9D9B9B2,,,_445081.b18407c2b925ef07fe7b44cea9d9b9b2.pdf,0,2000-01-01 01:00:00,2016-04-03 02:51:08,766000/b18407c2b925ef07fe7b44cea9d9b9b2-g.jpg,,
19786483,The Burn Journals  ,,,,Brent Runyon,2004,,Alfred A. Knopf,,,0,English ,,,2011 12 30,"9780307276957,0307276953",,,,,362.28092,HV6546.R86 2004,,rnHICY6koqgC,OL24297267M,,0,,,,,0,1,1,240986,epub,B184D6E2015DBAEDDF71E6FA5F3833E2,,,_476907.b184d6e2015dbaeddf71e6fa5f3833e2.epub,0,2000-01-01 01:00:00,2016-04-03 02:51:08,766000/B184D6E2015DBAEDDF71E6FA5F3833E2-g.jpg,,
19786484,"Biomechanics of Hard Tissues: Modeling, Testing, and Materials  ",,,,"Andreas Öchsner, Waqar Ahmed",2011,1,Wiley-VCH,,316,0,English ,,,2011 12 30,"3527324313,9783527324316",,,,,617.47,,,,,,0,,,,0,1,0,1,8588312,pdf,B185C16F756C71F7636CF95221CF2D3D,,,_499701.b185c16f756c71f7636cf95221cf2d3d.pdf,0,2000-01-01 01:00:00,2016-04-03 02:51:08,766000/b185c16f756c71f7636cf95221cf2d3d-d.jpg,,
19786485,The Restoration Game  ,,,,Ken Macleod,,,,,106,0,English ,,,2011 12 30,"1616145250,9781616145255",,,,,823/.914,PR6063.A2515 R47 2011,,xUBnKQEACAAJ,OL24857588M,,0,,,,,1,,1,1914302,pdf,B1860D51E60EC9FF7442D2CD33374B5B,,,_503116.b1860d51e60ec9ff7442d2cd33374b5b.pdf,0,2000-01-01 01:00:00,2016-04-03 02:51:08,766000/b1860d51e60ec9ff7442d2cd33374b5b-d.jpg,,
19786486,Origins of Chinese Civilization (Studies on China)  ,,,,David N. Keightley,1983,,University of California Press,,635,0,English ,,,2011 12 30,"0520042298,9780520042292",,,,,931,DS741.65 .O74 1983,,,OL4259028M,,0,,,,1,1,,0,106546828,pdf,B1868CAF16C0847930DE15468AFA7B55,,,_475765.b1868caf16c0847930de15468afa7b55.pdf,0,2000-01-01 01:00:00,2016-04-03 02:51:08,766000/b1868caf16c0847930de15468afa7b55-g.jpg,,
19786487,Sonnenfeuer. Die große Australien-Saga  ,,,,Patricia Shaw,2011,,Knaur ebook,,,0,German ,,,2011 12 30,"3426636883,9783426636886,9783426413883",,,,,,,,,,,0,,,,,0,1,1,933799,epub,B186A3CEB637C76B380DF75CE42D5265,,,_506691.b186a3ceb637c76b380df75ce42d5265.epub,0,2000-01-01 01:00:00,2016-04-03 02:51:08,766000/B186A3CEB637C76B380DF75CE42D5265-g.jpg,,
19786488,"365 Games Smart Toddlers Play: Creative Time to Imagine, Grow, and Learn (3rd ed)  ",,,,Sheila Ellison,2006,3rd,"Sourcebooks, Inc.",,442,0,English ,,,2011 12 30,"1402205864,9781402205866",,,,,,,,0EYchZAbIz0C,OL8373514M,,0,,,,1,0,1,1,4962070,pdf,B187635DD906D0F9EBCA0355F94010AC,,,_493241.b187635dd906d0f9ebca0355f94010ac.pdf,0,2000-01-01 01:00:00,2016-04-03 02:51:08,766000/b187635dd906d0f9ebca0355f94010ac-d.jpg,,
19786489,Naamah's Blessing  ,,Kushiel's Legacy 9,,Jacqueline Carey,2011,,Grand Central Publishing,,,0,English ,,,2011 12 30,"9780446576055,0446576050",,,,,,,,Qhb3yF6-kSUC,,,0,,,,,0,1,1,1361582,epub,B187C97133C7BFFE4BF91C9B61CC9C58,,,_441533.b187c97133c7bffe4bf91c9b61cc9c58.epub,0,2000-01-01 01:00:00,2016-04-03 02:51:08,766000/B187C97133C7BFFE4BF91C9B61CC9C58-g.jpg,,
19786490,"Cameras Into the Wild: A History of Early Wildlife and Expedition Filmmaking, 1895-1928  ",,,,Palle B. Petterson,2011,,McFarland,,237,0,English ,,,2011 12 30,"0786461667,9780786461660",,,,,777/.832,TR893.5 .P48 2011,,2BtGHoL9jqAC,OL24858016M,,0,,,,1,0,1,1,7399690,pdf,B188609755BA07179DCF02EDB7176E5E,,,_492922.b188609755ba07179dcf02edb7176e5e.pdf,0,2000-01-01 01:00:00,2016-04-03 02:51:08,766000/b188609755ba07179dcf02edb7176e5e-d.jpg,,
19786491,Der Krake. Roman  ,,,,China Miéville,2011,,Bastei Lübbe,,,0,German ,,,2011 12 30,"340420560X,9783404205608,9783838705163",,,,,,,,,,,0,,,,,0,1,1,716343,epub,B18884050C2C1A0FFD1112BBED70C644,,,_508074.b18884050c2c1a0ffd1112bbed70c644.epub,0,2000-01-01 01:00:00,2016-04-03 02:51:08,766000/b18884050c2c1a0ffd1112bbed70c644-d.jpg,,
19786492,"Federalism and regionalism in Australia: new approaches, new institutions?  ",,,,"A.J. Brown, J.A. Bellamy",2007,,ANU E Press,,294,0,English ,,,2011 12 30,"1921313412,9781921313417,9781921313424",,,,,,,,cDNCAaGdlykC,,,0,,,,1,0,1,1,3858069,pdf,B1891C9AEB2BE3989ECE730B3D42EA74,,,_453135.b1891c9aeb2be3989ece730b3d42ea74.pdf,0,2000-01-01 01:00:00,2016-04-03 02:51:08,766000/b1891c9aeb2be3989ece730b3d42ea74-d.jpg,,
19786493,Packed Towers: In Processing and Environmental Technology  ,,,,Reinhard Billet,1995,1,Wiley-VCH,,398,0,English ,,,2011 12 30,"3527286160,9783527286164",,,,,660/.28423,TP159.P3 B55 1995,,,OL1119024M,,0,,,,0,1,0,1,35127005,pdf,B18A8C772F824BFE5B8164ADDBDAB1E3,,,_493627.b18a8c772f824bfe5b8164addbdab1e3.pdf,0,2000-01-01 01:00:00,2016-04-03 02:51:08,766000/b18a8c772f824bfe5b8164addbdab1e3-d.jpg,,
19786494,"Innovations, Standards, and Practices of Web Services: Emerging Research Topics  ",,,,Liang Jie-Zhang,2011,1,IGI Global,,430,0,English ,,,2011 12 30,"1613501048,9781613501047,9781613501054,9781613501061",,,,,384.3/3,TK5105.88813 .I55 2012,,N6UG-wqp4tAC,OL25046257M,,0,,,,1,0,1,1,22097108,pdf,B18ACC4B3861DD3D2B984E7D537541BB,,,_506617.b18acc4b3861dd3d2b984e7d537541bb.pdf,0,2000-01-01 01:00:00,2016-04-03 02:51:08,766000/b18acc4b3861dd3d2b984e7d537541bb-d.jpg,,
19786495,Understanding Representation in the Cognitive Sciences - Does Representation Need Reality?  ,,,,"Alexander Riegler, Markus Peschl, Astrid von Stein (editors)",1999,1,Kluwer,,290,0,English ,,,2011 12 30,"0306462869,9780306462863",,,,,153,BF316.6 U63 1999,,YAxpBkfe7CIC,OL10324982M,,0,,,,1,0,1,1,3042798,pdf,B18D60C55073042C2B9FE42D8F3F8243,,,_459097.b18d60c55073042c2b9fe42d8f3f8243.pdf,0,2000-01-01 01:00:00,2016-04-03 02:51:08,766000/b18d60c55073042c2b9fe42d8f3f8243-d.jpg,,
19786496,Veterinary Technician's Pocket Partner: A Quick Access Reference Guide  ,,,,Marisa Bauer,2009,1,Delmar Cengage Learning,,481,0,English ,,,2011 12 30,"1428357823,9781428357822",,,,,,,,knSVNZ8M26cC,,,0,,,,1,0,1,1,15382173,pdf,B18D6DEC082BEA2FAB5C972D6FB4FFC1,,,_461208.b18d6dec082bea2fab5c972d6fb4ffc1.pdf,0,2000-01-01 01:00:00,2016-04-03 02:51:08,766000/b18d6dec082bea2fab5c972d6fb4ffc1-d.jpg,,
19786497,Vrednosti samoizražavanja u Srbiji: u potrazi za demokratskom političkom kulturom  ,,,,Zoran Pavlović,2009,,Beograd: Institut društvenih nauka,,155,0,Serbian ,,,2011 12 30,"8670931273,9788670931275",,,,,,,,,,,0,,,,1,1,0,1,3129607,pdf,B18F9C9397DBA7556F26213CAEFCA46F,,,_432278.b18f9c9397dba7556f26213caefca46f.pdf,0,2000-01-01 01:00:00,2016-04-03 02:51:08,766000/b18f9c9397dba7556f26213caefca46f-g.jpg,,
19786498,Soziologie. Spezielle Grundlagen: Band 2: Die Konstruktion der Gesellschaft  ,,,,Hartmut Esser,2002,,Campus Verlag,,509,0,German ,,,2011 12 30,"3593371456,9783593371450",,,,,,,,NiMAGqzOEFwC,OL12820315M,,0,,,,,0,1,1,5484810,pdf,B19208A666DF454CC5AF1BD85DF43EF3,,,_451987.b19208a666df454cc5af1bd85df43ef3.pdf,0,2000-01-01 01:00:00,2016-04-03 02:51:08,766000/b19208a666df454cc5af1bd85df43ef3-d.jpg,,
19786499,Physics Letters B vol 55  ,,,,Elsevier,1975,,,,507,0,English ,,,2011 12 30,,,,,,,,,,,,0,,,,,1,1,1,4423939,djvu,B19213D3F9A8098B5F6B105A0E84B3FE,,,_417721.b19213d3f9a8098b5f6b105a0e84b3fe.djvu,0,2000-01-01 01:00:00,2016-04-03 02:51:08,766000/b19213d3f9a8098b5f6b105a0e84b3fe-g.jpg,,
19786500,Meanings. The Bible as Document and as Guide  ,,,,Krister Stendahl,1984,,Fortress Press,,258,0,English ,,,2011 12 30,"0800617525,9780800617523",,,,,220.6,BS540 .S67 1984,,,OL3163731M,,0,,,,1,1,1,1,10885494,pdf,B19289E9585D98CAF38E70A7FF1BB1FE,,,_497647.b19289e9585d98caf38e70a7ff1bb1fe.pdf,0,2000-01-01 01:00:00,2016-04-03 02:51:08,766000/b19289e9585d98caf38e70a7ff1bb1fe-g.jpg,,
19786501,The Man in the Moss  ,,,,Phil Rickman,1994,,Macmillan UK,,534,0,English ,,,2011 12 30,,,,,,,,,,,,0,,,,,1,,1,1417955,epub,B1930D6C437F02F127CDFB87DCFB0BFF,,,_439218.b1930d6c437f02f127cdfb87dcfb0bff.epub,0,2000-01-01 01:00:00,2016-04-03 02:51:08,766000/B1930D6C437F02F127CDFB87DCFB0BFF-g.jpg,,
19786502,1001 People Who Made America  ,,,,Alan Axelrod,2008,,National Geographic,,,0,English ,,,2011 12 30,"1426202687,9781426202681",,,,,920.7303 B,CT214 .A94 2007,,r3uoTbtY8z4C,OL24293673M,,0,,,,,1,1,1,701366,epub,B19815E3D1EC4F79286D99A17E6FC275,,,_501674.b19815e3d1ec4f79286d99a17e6fc275.epub,0,2000-01-01 01:00:00,2016-04-03 02:51:08,766000/B19815E3D1EC4F79286D99A17E6FC275-g.jpg,,
19786503,Im Land des Korallenbaums (Roman)  ,,,,Sofia Caspari,2011,,Bastei Lübbe Verlag,,,0,German ,,,2011 12 30,"3404166019,9783404166015,9783838710532",,,,,,,,,,,0,,,,,0,0,1,685375,epub,B19A9B08D11D115F47F862E3C246F883,,,_478926.b19a9b08d11d115f47f862e3c246f883.epub,0,2000-01-01 01:00:00,2016-04-03 02:51:08,766000/b19a9b08d11d115f47f862e3c246f883-d.jpg,,
19786504,Zdravo društvo  ,,,,Erich Fromm,1989,,Zagreb,,138,0,Croatian ,,,2011 12 30,,,,,,,,,,,,0,,,,0,1,,1,1209602,pdf,B19BD0EED98758565B3B42BDC0A0A0E8,,,_450827.b19bd0eed98758565b3b42bdc0a0a0e8.pdf,0,2000-01-01 01:00:00,2016-04-03 02:51:08,766000/b19bd0eed98758565b3b42bdc0a0a0e8-g.jpg,,
19786505,The Original Sources of the Qur'an  ,,,,W. St. Clair Tisdall,1905,,"Society for Promoting Christian Knowledge, London",,174,0,English ,,,2011 12 30,,,,,,,,,,,,0,,,,0,1,0,1,1919069,pdf,B19FB4B27A688F5BBD69E6A1FCAFEEE5,,,_504511.b19fb4b27a688f5bbd69e6a1fcafeee5.pdf,0,2000-01-01 01:00:00,2016-04-03 02:51:08,766000/b19fb4b27a688f5bbd69e6a1fcafeee5-g.jpg,,
19786506,Murder by Mocha (Coffee House Mystery)  ,,Coffeehouse Mysteries 10,,Cleo Coyle,2011,1,Berkley Hardcover,,,0,English ,,,2011 12 30,"0425241432,9780425241431",,,,,813/.6,PS3603.O94 M85 2011,,,OL25010894M,,0,,,,,1,,,383487,epub,B1A351C7A474B6741559365027DF9C87,,,_449755.b1a351c7a474b6741559365027df9c87.epub,0,2000-01-01 01:00:00,2016-04-03 02:51:08,766000/b1a351c7a474b6741559365027df9c87-d.jpg,,
19786507,"Sādhanamālā, Vol. I  ",,,,Benoytosh Bhattacharya (editor),1925,,,,362,0,Sanskrit,,,2011 12 30,,,,,,,,,,,,0,,,,,1,1,1,10726048,pdf,B1A4C8F1C25A70466DD4BD758A192632,,,_490144.b1a4c8f1c25a70466dd4bd758a192632.pdf,0,2000-01-01 01:00:00,2016-04-03 02:51:08,766000/b1a4c8f1c25a70466dd4bd758a192632-g.jpg,,
19786508,סידור אבי חי - יום השבת בבית הכנסת  ,,,,אביגדור שנאן,1999,,ידיעות אחרונות קרן אבי חי,,370,0,Hebrew,,,2011 12 30,,,,,,,,,,,,0,,,,0,1,0,0,87074705,pdf,B1A6D76CA4C26DBB751FB243F554915B,,,_484122.b1a6d76ca4c26dbb751fb243f554915b.pdf,0,2000-01-01 01:00:00,2016-04-03 02:51:08,766000/b1a6d76ca4c26dbb751fb243f554915b-g.jpg,,
19786509,A Handbook of Comparative Social Policy (Elgar Original Reference)  ,,,,Patricia Kennett,2004,illustrated edition,Edward Elgar Publishing,"Cheltenham, UK ; Northampton, MA",438,0,English ,,,2011 12 30,"1840648864,9781840648867",,,,,361.6/1,HN17.5 .H3357 2004,,,OL22598351M,,0,,,,0,0,0,1,1396160,pdf,B1A8BA0EDBE1C77F6D36E2E89DDFE981,,,_463149.b1a8ba0edbe1c77f6d36e2e89ddfe981.pdf,0,2000-01-01 01:00:00,2016-04-03 02:51:08,766000/b1a8ba0edbe1c77f6d36e2e89ddfe981-d.jpg,,
19786510,Estructura del sistema de aspectos y tiempos del verbo griego antiguo. Análisis funcional sincrónico. Capítulo segundo.  ,,,,Martín Sánchez Ruipérez,,,,,12,0,"Spanish,Castilian",,,2011 12 30,,,,,,,,,,,,0,,,,,1,,1,590798,pdf,B1A8D2F9032B2007003DA67BE4E5B427,,,_476324.b1a8d2f9032b2007003da67be4e5b427.pdf,0,2000-01-01 01:00:00,2016-04-03 02:51:08,766000/b1a8d2f9032b2007003da67be4e5b427-g.jpg,,
19786511,"Crush Step 2: The Ultimate USMLE Step 2 Review, 3rd Edition  ",,,,Adam Brochert MD,2007,3rd Edition,Mosby,,,0,English ,,,2011 12 30,"1416029761,9781416029762",,,,,,,,XEqVPwAACAAJ,OL24446450M,,0,,,,,1,,,7956034,mobi,B1A8F30310488A442A5264BB8858D78A,,,_493921.b1a8f30310488a442a5264bb8858d78a.mobi,0,2000-01-01 01:00:00,2016-04-03 02:51:08,766000/b1a8f30310488a442a5264bb8858d78a-d.jpg,,
19786512,אקלים של צמיחה : חופש ומחויבות בחינוך  ,,,,דב דרום,2003,,ספרית פועלים,,282,0,Hebrew,,,2011 12 30,,,,,,,,,,,,0,,,,0,1,0,0,46715815,pdf,B1AC65B997423E2C0D5FC9F7BC81BEA8,,,_484656.b1ac65b997423e2c0d5fc9f7bc81bea8.pdf,0,2000-01-01 01:00:00,2016-04-03 02:51:08,766000/b1ac65b997423e2c0d5fc9f7bc81bea8-g.jpg,,
19786513,Conceptual Relevance  ,,,,Joseph Grunfeld,1976,,Br Gruner Pub Co,,229,0,English ,,,2011 12 30,"9060320131,9789060320136",,,,,121,B840 .G78 1989,,7Cojcj6oa0cC,OL1804881M,,0,,,,0,1,1,1,31889328,pdf,B1ACF2AE75AAE490BCA015147D8567E6,,,_431059.b1acf2ae75aae490bca015147d8567e6.pdf,0,2000-01-01 01:00:00,2016-04-03 02:51:08,766000/b1acf2ae75aae490bca015147d8567e6-g.jpg,,
19786514,Plan D (Roman)  ,,,,Simon Urban,2011,,Schöffling & Co. Verlag,,,0,German ,,,2011 12 30,"3895611956,9783895611957,9783895619649",,,,,,,,,,,0,,,,,0,1,1,869593,epub,B1AEDDEF5C2A60C1F3A63AEE9060D1A9,,,_499875.b1aeddef5c2a60c1f3a63aee9060d1a9.epub,0,2000-01-01 01:00:00,2016-04-03 02:51:08,766000/b1aeddef5c2a60c1f3a63aee9060d1a9-d.jpg,,
19786515,The Coupling of Climate and Economic Dynamics: Essays on Integrated Assessment  ,,Advances in Global Change Research 22,,"Alain Haurie, Laurent Viguier (editors)",2005,1,Springer,,406,0,English ,,,2011 12 30,"1402034245,1402034253,9781402034244,9781402034251",,,,,,,,k5eLBEhRHLkC,OL8371467M,,0,,,,1,0,1,1,14737309,pdf,B1AF6576B0D651F6D6CD48B326B0CE09,,,_492280.b1af6576b0d651f6d6cd48b326b0ce09.pdf,0,2000-01-01 01:00:00,2016-04-03 02:51:08,766000/b1af6576b0d651f6d6cd48b326b0ce09-d.jpg,,
19786516,Scarpetta's Winter Table  ,,,,Patricia Daniels Cornwell,1998,,Wyrick & Co.,,82,0,English ,,,2011 12 30,,,,,,,,,NSsIAAAACAAJ,,,0,,,,,0,0,1,179838,mobi,B1B035F2D465C230B3D4A7A4A26A90AE,,,_478797.b1b035f2d465c230b3d4a7a4a26a90ae.mobi,0,2000-01-01 01:00:00,2016-04-03 02:51:08,766000/B1B035F2D465C230B3D4A7A4A26A90AE-g.jpg,,
19786517,"Introduction to Environmental Engineering , Third Edition  ",,,,"P. Aarne Vesilind, Susan M. Morgan, Lauren G. Heine",2009,3,CL-Engineering,,628,0,English ,,,2011 12 30,"0495295833,9780495295839",,,,,,,,,,,0,,,,,1,1,1,14102865,pdf,B1B102848EA2F90AC6A187C12B186C88,,,_457629.b1b102848ea2f90ac6a187c12b186c88.pdf,0,2000-01-01 01:00:00,2016-04-03 02:51:08,766000/b1b102848ea2f90ac6a187c12b186c88-d.jpg,,
19786518,Le grand livre de la vente : Techniques et pratiques des professionnels de la vente  ,,,,"Nicolas Caron, Frédéric Vendeuvre",2008,,Dunod,,706,0,French ,,,2011 12 30,"2100520024,9782100520022",,,,,,,,m-u_OwAACAAJ,,,0,,,,1,0,1,1,16600497,pdf,B1B1561A2D604CBDF93CD560C37F77B9,,,_438938.b1b1561a2d604cbdf93cd560c37f77b9.pdf,0,2000-01-01 01:00:00,2016-04-03 02:51:08,766000/b1b1561a2d604cbdf93cd560c37f77b9-d.jpg,,
19786519,Shades of Midnight  ,,Midnight Breed 7,,Lara Adrian,2009,,Dell,,,0,English ,,,2011 12 30,"0440339197,9780440339199",,,,,,,,,OL24291536M,,0,,,,0,0,1,1,2148047,epub,B1B393118727F489430EA3794CC91CE2,,,_478688.b1b393118727f489430ea3794cc91ce2.epub,0,2000-01-01 01:00:00,2016-04-03 02:51:08,766000/b1b393118727f489430ea3794cc91ce2-d.jpg,,
19786520,"Principles of Neuropsychology , Second Edition  ",,,,"Eric A. Zillmer, Mary V. Spiers, William Culbertson",2007,2nd,Wadsworth Publishing,,603,0,English ,,,2011 12 30,"049500376X,9780495003762",,,,,612.8,,,,OL7650729M,,0,,,,1,0,1,1,16316432,pdf,B1B3A5B753AC1DF7EC9E0171B6E92C25,,,_453479.b1b3a5b753ac1df7ec9e0171b6e92c25.pdf,0,2000-01-01 01:00:00,2016-04-03 02:51:08,766000/b1b3a5b753ac1df7ec9e0171b6e92c25-d.jpg,,
19786521,Redeeming Sociology: A God-Centered Approach  ,,,,Vern Sheridan Poythress,2011,,Crossway Books,,353,0,English ,,,2011 12 30,"1433521296,9781433521294",,,,,261.5,BT738 .P65 2011,,TlTmSeh-QR0C,OL25075522M,,0,,,,1,0,1,1,3389064,pdf,B1B44C08273F3BA0FC6FDC379018E2DF,,,_456308.b1b44c08273f3ba0fc6fdc379018e2df.pdf,0,2000-01-01 01:00:00,2016-04-03 02:51:08,766000/b1b44c08273f3ba0fc6fdc379018e2df-d.jpg,,
19786522,"Plant Disease Epidemiology: Facing Challenges of the 21st Century: Under the aegis of an International Plant Disease Epidemiology Workshop held at Landernau, France, 10-15th April, 2005  ",,,,"S. Savary, B.M. Cooke",2006,1,Springer,,142,0,English ,,,2011 12 30,"1402050194,9781402050190",,,,,,,10.1007/s10658-005-5946-6,,OL11634133M,,0,,,,1,1,1,1,1413978,pdf,B1B4FB46F60A1AA471F167CC1D21E9E7,,,_455029.b1b4fb46f60a1aa471f167cc1d21e9e7.pdf,0,2000-01-01 01:00:00,2016-04-03 02:51:08,766000/b1b4fb46f60a1aa471f167cc1d21e9e7-d.jpg,,
19786523,Standard Grade Biology  ,,,,"James Torrance, etc.",1989,,Hodder Arnold H&S,,260,0,English ,,,2011 12 30,"0340493690,9780340493694",,,,,,,,,OL10621230M,,0,,,,,1,0,0,35829219,pdf,B1B9EE20433B3B79ACB7B3E928CADBFA,,,_464438.b1b9ee20433b3b79acb7b3e928cadbfa.pdf,0,2000-01-01 01:00:00,2016-04-03 02:51:08,766000/b1b9ee20433b3b79acb7b3e928cadbfa-g.jpg,,
19786524,Spoken Arabic: Saudi  ,,,,Merrill Y. Van Wagoner,1979,Pap/Cas,Spoken Language Services,,157,0,English ,,,2011 12 30,"0879504129,9780879504120",,,,,,,,,OL11177788M,,0,,,,0,1,0,0,15712292,pdf,B1BA69A5F6902C913348B0BE674C1D6F,,,_457649.b1ba69a5f6902c913348b0be674c1d6f.pdf,0,2000-01-01 01:00:00,2016-04-03 02:51:08,766000/b1ba69a5f6902c913348b0be674c1d6f-d.jpg,,
19786525,Transnational Corporations Versus the State: The Political Economy of the Mexican Auto Industry  ,,,,Douglas C. Bennett,1985,,Princeton University Press,,157,0,English ,,,2011 12 30,"0691022372,9780691022376",,,,,338.8/87,HD9710.M42 B46 1985,,,OL2550835M,,0,,,,0,0,1,1,4181789,djvu,B1BBD0ECB97ED88D41E1D5469C778519,,,_436096.b1bbd0ecb97ed88d41e1d5469c778519.djvu,0,2000-01-01 01:00:00,2016-04-03 02:51:08,766000/b1bbd0ecb97ed88d41e1d5469c778519-d.jpg,,
19786526,Policy and Practice for Global Tourism  ,,,,World Tourism Organization,2011,,Bernan Assoc,,145,0,English ,,,2011 12 30,"9284413796,9789284413799",,,,,,,,,,,0,,,,,1,,1,3042284,pdf,B1BC07F18C934F1DFDEF180B72EC2952,,,_512938.b1bc07f18c934f1dfdef180b72ec2952.pdf,0,2000-01-01 01:00:00,2016-04-03 02:51:08,766000/b1bc07f18c934f1dfdef180b72ec2952-d.jpg,,
19786527,Structural Dynamics: Theory and Computation  ,,,,"Mario Paz, William Leigh",2006,5th  ed.,Springer,,844,0,English ,,,2011 12 30,"1402076673,9781402076671",,,,,624.1/7,TA654 .P39 2004,,,OL19290661M,,0,,,,,1,,0,22896364,pdf,B1BCC8435F003ADDD3D9CF1A9CF33FAA,,,_442542.b1bcc8435f003addd3d9cf1a9cf33faa.pdf,0,2000-01-01 01:00:00,2016-04-03 02:51:08,766000/b1bcc8435f003addd3d9cf1a9cf33faa-d.jpg,,
19786528,"The British Political Elite and the Soviet Union, 1937-1939  ",,Cass series--British foreign and colonial policy,,Louise Grace Shaw,2003,,Routledge,"London ; Portland, OR",218,0,English ,,,2011 12 30,"0-7146-5398-5,9780714653983,9780203494950,0-203-49495-4,0-203-58330-2,0-7146-8333-7",,,,,327.41047/09/043,DA47.65 .S48 2003,,iAmDj-U-1fAC,OL3566099M,,0,,,,,1,,1,1772875,pdf,B1BCDC68287B312F80DFA560BA88F61B,,,_473568.b1bcdc68287b312f80dfa560ba88f61b.pdf,0,2000-01-01 01:00:00,2016-04-03 02:51:08,766000/b1bcdc68287b312f80dfa560ba88f61b-d.jpg,,
19786529,The Help  ,,,,Kathryn Stockett,2011,,Berkley Publishing Group,,,0,English ,,,2011 12 30,9781440697630,,,,,,,,,,,0,,,,,1,,,716066,mobi,B1BE7B5B83957FACF2C204E502C715CD,,,_450334.b1be7b5b83957facf2c204e502c715cd.mobi,0,2000-01-01 01:00:00,2016-04-03 02:51:08,766000/B1BE7B5B83957FACF2C204E502C715CD-g.jpg,,
19786530,Frommer's Morocco (Frommer's Complete Guides)  ,,Frommer's Complete Guides,,Darren Humphrys,2010,2nd,Frommers,,452,0,English ,,,2011 12 30,"0470560223,9780470560228",,,,,916.4045,,,3QK6vvWTq8YC,,,0,,,,1,0,1,1,4797827,pdf,B1BEDBD217C8C6450B85ADDAC21DA3B3,,,_496235.b1bedbd217c8c6450b85addac21da3b3.pdf,0,2000-01-01 01:00:00,2016-04-03 02:51:08,766000/b1bedbd217c8c6450b85addac21da3b3-d.jpg,,
19786531,中國華嚴宗通史  ,,,,魏道儒(Daoru Wei),1998,Di 1 ban,江苏古籍出版社,,350,0,Chinese(PRC),,,2011 12 30,"7805199388,9787805199382",,,,,,,,,OL13095515M,,0,,,,0,1,1,0,4627260,pdf,B1BFB5BEA8FDE039F5346E4D05E1D591,,,_475034.b1bfb5bea8fde039f5346e4d05e1d591.pdf,0,2000-01-01 01:00:00,2016-04-03 02:51:08,766000/b1bfb5bea8fde039f5346e4d05e1d591-g.jpg,,
19786532,The Potter's Field  ,,,,Andrea Camilleri,2011,,Penguin Group US,,177,0,English ,,,2011 12 30,"1101552611,9781101552612",,,,,,,,,,,0,,,,,1,1,1,340447,epub,B1BFC1D5CB42FBEE0DEBC2D8E0E49A29,,,_489405.b1bfc1d5cb42fbee0debc2d8e0e49a29.epub,0,2000-01-01 01:00:00,2016-04-03 02:51:08,766000/B1BFC1D5CB42FBEE0DEBC2D8E0E49A29-g.jpg,,
19786533,"Valor At Vauzlee (A Galaxy Unknown, Book 2)  ",,A Galaxy Unknown 2,,Thomas DePrima,2010,,Vinnia Publishing,,,0,English ,,,2011 12 30,,,,,,,,,,,,0,,,,,0,1,1,577659,mobi,B1C0DA8EB14D8C47488CE4F3761CBD8A,,,_489466.b1c0da8eb14d8c47488ce4f3761cbd8a.mobi,0,2000-01-01 01:00:00,2016-04-03 02:51:08,766000/B1C0DA8EB14D8C47488CE4F3761CBD8A-g.jpg,,
19786534,El cuerpo lesbiano  ,,,,"Monique Wittig, Nuria Pérez de Lara (Traductora)",1977,,Pre-Textos Ediciones,,78,0,"Spanish,Castilian",,,2011 12 30,"8485081102,9788485081103",,,,,,,,,,,0,,,,0,1,0,1,5284622,pdf,B1C1CD229473F569CE3249EA0A86649F,,,_449146.b1c1cd229473f569ce3249ea0a86649f.pdf,0,2000-01-01 01:00:00,2016-04-03 02:51:08,766000/b1c1cd229473f569ce3249ea0a86649f-g.jpg,,
19786535,Psychologie des émotions et des sentiments  ,,,,Jacques Cosnier,1994,,Retz,,180,0,French ,,,2011 12 30,"2725615321,9782725615325",,,,,152.4,BF511 .C67 1994,,STRiQgAACAAJ,OL1195922M,,0,,,,,1,,0,11532863,pdf,B1C25E845F4317D3B9AA697B22A48517,,,_437780.b1c25e845f4317d3b9aa697b22a48517.pdf,0,2000-01-01 01:00:00,2016-04-03 02:51:08,766000/b1c25e845f4317d3b9aa697b22a48517-g.jpg,,
19786536,"Бытовая лексика татарского языка: посуда, утварь, предметы домашнего обихода  ",,,,"Танзиля Хасановна Хайрутдинова, М. З Зәкиев",2000,,Изд-во Фикер,,128,0,Russian ,,,2011 12 30,"5930910146,9785930910148",,,,,,,,,,,0,,,,0,1,1,0,1569607,pdf,B1C50590CE49724B89013F6C6B49DB39,,,_445205.b1c50590ce49724b89013f6c6b49db39.pdf,0,2000-01-01 01:00:00,2016-04-03 02:51:08,766000/b1c50590ce49724b89013f6c6b49db39-g.jpg,,
19786537,Preparing the Perfect Cv  ,,,,Rebecca Corfield,2006,4th,Kogan Page Ltd,London,144,0,English ,,,2011 12 30,"0749448555,9780749448554,9780749451257,0749451254",,,,,,,,,OL7967694M,,0,,,,0,0,0,1,423259,pdf,B1C5F116EEC92C7660282FFC12EEA580,,,_459974.b1c5f116eec92c7660282ffc12eea580.pdf,0,2000-01-01 01:00:00,2016-04-03 02:51:08,766000/b1c5f116eec92c7660282ffc12eea580-d.jpg,,
19786538,Practical time-frequency analysis: Gabor and wavelet transforms with an implementation in S  ,,,,"René Carmona, Wen-Liang Hwang, Bruno Torrésani",1998,1st,Academic Press,,459,0,English ,,,2011 12 30,"0121601706,9780121601706",,,,,621.382/2,TK5102.9 .C34 1998,,,OL362659M,"Missing title & copyright pp., T.o.C.",0,,,,,1,1,1,20978326,pdf,B1C6BFFE32EFFAFB5B7A224A07973ED2,,,_450122.b1c6bffe32effafb5b7a224a07973ed2.pdf,0,2000-01-01 01:00:00,2016-04-03 02:51:08,766000/b1c6bffe32effafb5b7a224a07973ed2-d.jpg,,
19786539,The Psychology of Death  ,,,,Robert Kastenbaum,2000,3,Springer Publishing Company,,329,0,English ,,,2011 12 30,"0826113001,9780826113009",,,,,155.9/37,BF789.D4 K372 2000,,,OL45869M,,0,,,,,0,1,1,1261180,epub,B1C83A6008C8BE13FB209647994FA706,,,_497484.b1c83a6008c8be13fb209647994fa706.epub,0,2000-01-01 01:00:00,2016-04-03 02:51:08,766000/b1c83a6008c8be13fb209647994fa706-d.jpg,,
19786540,Gulf War and Health: Volume 2. Insecticides and Solvents  ,,,,Committee on Gulf War and Health: Literature Review of Pesticides and Solvents,2003,1,National Academies Press,,617,0,English ,,,2011 12 30,"030908458X,9780309084581,0309511577",,,,,,,,l3pRcDM-OrsC,OL10358556M,,0,,,,1,0,1,1,4025915,pdf,B1CCBA6FCA82C907C1082A94B9127F69,,,_433334.b1ccba6fca82c907c1082a94b9127f69.pdf,0,2000-01-01 01:00:00,2016-04-03 02:51:08,766000/b1ccba6fca82c907c1082a94b9127f69-d.jpg,,
19786541,American Ways: A Cultural Guide to the United States  ,,,,"Gary Althen, Janet Bennett",2011,3,Nicholas Brealey Publishing,,310,0,English ,,,2011 12 30,"0984247173,9780984247172",,,,,973,E158 .A46 2011,,f8zdRO3f0dcC,OL25004264M,,0,,,,1,0,1,1,1420460,pdf,B1CCF67D554BC1BEBDE4DC71F23CC2C2,,,_490798.b1ccf67d554bc1bebde4dc71f23cc2c2.pdf,0,2000-01-01 01:00:00,2016-04-03 02:51:08,766000/b1ccf67d554bc1bebde4dc71f23cc2c2-d.jpg,,
19786542,Darwin en España (Ediciones de bolsillo)  ,,,,Thomas F. Glick,1982,,Península,,130,0,"Spanish,Castilian",,,2011 12 30,"8429718958,9788429718959",,,,,,,,U-xlAAAACAAJ,OL20047400M,,0,,,,1,1,1,1,22729753,pdf,B1CDB1ACED1A47F915E2C80FEEF91E34,,,_457484.b1cdb1aced1a47f915e2c80feef91e34.pdf,0,2000-01-01 01:00:00,2016-04-03 02:51:08,766000/b1cdb1aced1a47f915e2c80feef91e34-g.jpg,,
19786543,In die Sonne schauen: Wie man die Angst vor dem Tod überwindet  ,,,,Irvin D. Yalom,2008,,btb Verlag,,,0,German ,,,2011 12 30,"3442752019,9783442752010",,,,,155.937,,,,,,0,,,,,1,,,353471,epub,B1CE2A56FC38259BA7D0F527DC6F19BD,,,_450983.b1ce2a56fc38259ba7d0f527dc6f19bd.epub,0,2000-01-01 01:00:00,2016-04-03 02:51:08,766000/b1ce2a56fc38259ba7d0f527dc6f19bd-d.jpg,,
19786544,"Menegakkan Hukum dan Hak Warga Negara: Pers, Buku, Film  ",,,,"Adinda Tenriangke Muchtar, Antonius Wiwan Koban",2010,,Freedom Institute,,77,0,Indonesian ,,,2011 12 30,9789791946681,,,,,,,,,OL24854302M,,0,,,,1,0,0,1,848947,pdf,B1CED2FA833AA16258AB543C56DDAA67,,,_459902.b1ced2fa833aa16258ab543c56ddaa67.pdf,0,2000-01-01 01:00:00,2016-04-03 02:51:08,766000/b1ced2fa833aa16258ab543c56ddaa67-g.jpg,,
19786545,"Advanced Modern Engineering Mathematics, 4th Edition  ",,,,"Glyn James, David Burley, Dick Clements, Phil Dyke, John Searl",2011,4th,Prentice Hall,,1065,0,English ,,,2011 12 30,"0273719238,9780273719236",,,,,620.001/51,TA330 .A38 2010,,,OL24524263M,,0,,,,1,0,1,1,7992480,pdf,B1CEEA385EE9AE91D3573A86BD35BF2D,,,_435772.b1ceea385ee9ae91d3573a86bd35bf2d.pdf,0,2000-01-01 01:00:00,2016-04-03 02:51:08,766000/b1ceea385ee9ae91d3573a86bd35bf2d-d.jpg,,
19786546,"Wood: Types, Properties, and Uses  ",,"Environmental Science, Engineering and Technology",,Lorenzo F. Botannini,2011,,Nova Science Pub Inc,,257,0,English ,,,2011 12 30,"1617280461,9781617280467",,,,,,,,pLj2RAAACAAJ,,,0,,,,1,0,1,1,8076623,pdf,B1D0A75E5DF298518C8B382AD3BD3291,,,_489837.b1d0a75e5df298518c8b382ad3bd3291.pdf,0,2000-01-01 01:00:00,2016-04-03 02:51:08,766000/b1d0a75e5df298518c8b382ad3bd3291-g.jpg,,
19786547,Like A Wisp of Steam: Steampunk Erotica (The Erotic Steampunk Library)  ,,The Erotic Steampunk Library,,"Thomas S. Roche, Jason Rubis, Peter Tupper, Vanessa Vaughn, Kaysee Renee Robichaud, Cecilia Tan, J. Blackmore",2008,,"Circlet Press, Inc.",,192,0,English ,,,2011 12 30,,,,,,,,,,,,0,,,,,0,1,1,274172,epub,B1D16F1647549A2BD2B63007E94EE2D5,,,_460501.b1d16f1647549a2bd2b63007e94ee2d5.epub,0,2000-01-01 01:00:00,2016-04-03 02:51:08,766000/B1D16F1647549A2BD2B63007E94EE2D5-g.jpg,,
19786548,"Organizations: Rational, Natural, and Open Systems (5th Edition)  ",,,,W. Richard Scott,2003,5th,Prentice Hall,,446,0,English ,,,2011 12 30,"013016559X,9780130165596",,,,,302.3/5,HM786 .S3846 2003,,HiubQgAACAAJ,OL3567414M,,0,,,,0,0,1,1,7843314,pdf,B1D28C861E1D2C20139DAB4BE9F0F3AE,,,_500918.b1d28c861e1d2c20139dab4be9f0f3ae.pdf,0,2000-01-01 01:00:00,2016-04-03 02:51:08,766000/b1d28c861e1d2c20139dab4be9f0f3ae-d.jpg,,
19786549,"Advanced Well Completion Engineering, 3rd Edition  ",,,,Wan Renpu,2011,3,Gulf Professional Publishing,,737,0,English ,,,2011 12 30,"0123858682,9780123858689",,,,,622/.3381,TN871.2 .R384 2011,,GH6JoDxT_9sC,OL24822866M,,0,,,,1,0,1,1,16581821,pdf,B1D384361FC4E1F949B67363EB7336CE,,,_461989.b1d384361fc4e1f949b67363eb7336ce.pdf,0,2000-01-01 01:00:00,2016-04-03 02:51:08,766000/b1d384361fc4e1f949b67363eb7336ce-d.jpg,,
19786550,Italian Clitics: An Empirical Study (Trends in Linguistics. Studies and Monographs)  ,,Trends in linguistics studies and monographs 193,,Cinzia Russi,2008,1,Mouton de Gruyter,,317,0,English ,,,2011 12 30,"9783110198683,3110198681",1861-4302,,,,455,PC1261 .R8778 2008,,,OL16445215M,,0,,,,1,0,1,1,2152332,pdf,B1D48F1D88E7556547D829E39A7C2691,,,_492023.b1d48f1d88e7556547d829e39a7c2691.pdf,0,2000-01-01 01:00:00,2016-04-03 02:51:08,766000/b1d48f1d88e7556547d829e39a7c2691-d.jpg,,
19786551,"Las estructuras elementales de la violencia: ensayos sobre género entre la antropología, el psicoanálisis y los derechos humanos  ",,,,Rita Laura Segato,2003,1st.,Universidad Nacional de Quilmes,,129,0,"Spanish,Castilian",,,2011 12 30,"987558018X,9789875580183",,,,,,,,,OL13201289M,,0,,,,,1,1,1,23666425,pdf,B1D4CBB8678B9400493935FDEE12B4BC,,,_508507.b1d4cbb8678b9400493935fdee12b4bc.pdf,0,2000-01-01 01:00:00,2016-04-03 02:51:08,766000/b1d4cbb8678b9400493935fdee12b4bc-g.jpg,,
19786552,"Principles and Labs for Physical Fitness, Sixth Edition  ",,,,"Wener W.K. Hoeger, Sharon A. Hoeger",2007,6th,Brooks Cole,,443,0,English ,,,2011 12 30,"0495111937,9780495111931",,,,,613.7/1,RA781 .H59 2008,,,OL18007683M,Some text and images not available due to copyright restrictions ...,0,,,,1,0,1,1,12013102,pdf,B1D735B56666A714F5750915D9D13817,,,_488003.b1d735b56666a714f5750915d9d13817.pdf,0,2000-01-01 01:00:00,2016-04-03 02:51:08,766000/b1d735b56666a714f5750915d9d13817-d.jpg,,
19786553,"Eutanazja a opieka paliatywna. Aspekty etyczne, religijne, psychologiczne i prawne  ",,,,Adam Biela; et al,1996,Wyd. 2,KUL,,119,0,Polish ,,,2011 12 30,8390577917,,,,,,,,,OL752709M,,0,,,,,1,,0,11278596,pdf,B1D7725D178FF56CD8128FBC6A7C2329,,,_471776.b1d7725d178ff56cd8128fbc6a7c2329.pdf,0,2000-01-01 01:00:00,2016-04-03 02:51:08,766000/b1d7725d178ff56cd8128fbc6a7c2329-g.jpg,,
19786554,Divine Simplicity: Theistic Reconstruction in Jüngel's Trinitarian Glaubenslehre (dissertation)  ,,,,Paul J. DeHart,,,,,133,0,English ,,,2011 12 30,,,,,,,,,,,,0,,,,,1,,0,13440966,pdf,B1D85DA0563CD10C78464602D797AB0C,,,_448455.b1d85da0563cd10c78464602d797ab0c.pdf,0,2000-01-01 01:00:00,2016-04-03 02:51:08,766000/b1d85da0563cd10c78464602d797ab0c-g.jpg,,
19786555,Discovering sourdough - part 1  ,,,,Teresa L. Hosier Greenway,,,,,125,0,English ,,,2011 12 30,,,,,,,,,,,,0,,,,,1,,0,3612978,pdf,B1D8650B1F18641A2A9DF13DF42EEBC4,,,_501924.b1d8650b1f18641a2a9df13df42eebc4.pdf,0,2000-01-01 01:00:00,2016-04-03 02:51:08,766000/b1d8650b1f18641a2a9df13df42eebc4-g.jpg,,
19786556,Ruby Holler  ,,,,Sharon Creech,2002,,HarperCollins (Perfect Bound),,324,0,English ,,,2011 12 30,"0060560150,9780060560157",,,,,,,,,OL23246025M,,0,,,,1,1,0,1,1225527,pdf,B1DA608F9B89223D4B5A5264734A9A12,,,_511237.b1da608f9b89223d4b5a5264734a9a12.pdf,0,2000-01-01 01:00:00,2016-04-03 02:51:08,766000/b1da608f9b89223d4b5a5264734a9a12-d.jpg,,
19786557,"Atlan, Bd.22 : Ring des Schreckens  ",,,,Rainer Castor,2003,,Fantasy Productions,,501,0,German ,,,2011 12 30,"3811815210,9783811815216",,,,,,,,,OL12966297M,,0,,,,0,1,0,1,1942880,pdf,B1DBC1ED3BDEEAECA6E54C60C1195921,,,_513247.b1dbc1ed3bdeeaeca6e54c60c1195921.pdf,0,2000-01-01 01:00:00,2016-04-03 02:51:08,766000/b1dbc1ed3bdeeaeca6e54c60c1195921-d.jpg,,
19786558,The Cambridge Companion to Ancient Greek Political Thought (Cambridge Companions to the Ancient World)  ,,,,Stephen Salkever,2009,1,Cambridge University Press,,377,0,English ,,,2011 12 30,"0521867533,9780521867535,0521687128,9780521687126",,,,,320.0938,JC73 .C364 2009,,,OL22685276M,Missing the index.,0,,,,1,0,1,1,1424823,pdf,B1DCD67DEF8C1A905BE2FCEA2EA7FEF1,,,_463943.b1dcd67def8c1a905be2fcea2ea7fef1.pdf,0,2000-01-01 01:00:00,2016-04-03 02:51:08,766000/b1dcd67def8c1a905be2fcea2ea7fef1-d.jpg,,
19786559,The Star Diaries: Further Reminiscences of Ijon Tichy  ,,,,Stanislaw Lem,1985,,The Seabury Press - A Continuum Book,,,0,English ,,,2011 12 30,"0156849054,9780156849050",,,,,891.8/537,PG7158.L39 D9213 1985,,,OL2862266M,,0,,,,,1,,,885143,mobi,B1DD0411EB4332ED0A8975141D1FE46F,,,_493059.b1dd0411eb4332ed0a8975141d1fe46f.mobi,0,2000-01-01 01:00:00,2016-04-03 02:51:08,766000/b1dd0411eb4332ed0a8975141d1fe46f-d.jpg,,
19786560,"A Companion to Pastoral Care in the Late Middle Ages, 1200-1500  ",,Brill's Companion to the Christian Tradition 22,,Ronald J. Stansbury (editor),2010,,BRILL,,435,0,English ,,,2011 12 30,"9004183531,9789004183537",,,,,253.094/0902,BV4006 .C65 2010,,,OL24069138M,,0,,,,1,0,1,1,1820517,pdf,B1DD254C194BD66C1B6BD32F4EEBFAFB,,,_477805.b1dd254c194bd66c1b6bd32f4eebfafb.pdf,0,2000-01-01 01:00:00,2016-04-03 02:51:08,766000/b1dd254c194bd66c1b6bd32f4eebfafb-d.jpg,,
19786561,Passions sans nom  ,,,,Eric Landowski,2003,Formes sï¿½miotiques,Presses Universitaires de France - PUF,,327,0,French ,,,2011 12 30,"2130534953,9782130534952",,,,,,,,,OL16273119M,,0,,,,0,1,0,1,19456108,pdf,B1DE19F9D8268BEA2FB8A3005C94F26D,,,_432296.b1de19f9d8268bea2fb8a3005c94f26d.pdf,0,2000-01-01 01:00:00,2016-04-03 02:51:08,766000/b1de19f9d8268bea2fb8a3005c94f26d-d.jpg,,
19786562,The Great A&P and the Struggle for Small Business in America  ,,,,Marc Levinson,2011,,Hill and Wang,,,0,English ,,,2011 12 30,"0809095432,9780809095438,9780374289942,9781429969024",,,,,641.5945,TX723 .K6813 2009,,ZphE-pqXb1wC,OL22543497M,,0,,,,,1,,,820480,epub,B1DE3803E0A5498D9F5B97E1D3706A9B,,,_461975.b1de3803e0a5498d9f5b97e1d3706a9b.epub,0,2000-01-01 01:00:00,2016-04-03 02:51:08,766000/b1de3803e0a5498d9f5b97e1d3706a9b-d.jpg,,
19786563,The Shot  ,,,,Philip Kerr,2001,,Pocket,,301,0,English ,,,2011 12 30,,,,,,,,,,,,0,,,,,1,0,1,308317,epub,B1DF230D126B2731F18DB22697045954,,,_437333.b1df230d126b2731f18db22697045954.epub,0,2000-01-01 01:00:00,2016-04-03 02:51:08,766000/B1DF230D126B2731F18DB22697045954-g.jpg,,
19786564,"The Sharper Your Knife, the Less You Cry: Love, Laughter, and Tears in Paris at the World's Most Famous Cooking School  ",,,,Kathleen Flinn,2008,Reprint,Penguin,,,0,English ,,,2011 12 30,9780143114130,,,,,,,,,OL23098927M,,0,,,,,1,,,494474,epub,B1E02135C7C4A13D1F9CD2C96FC3F285,,,_438258.b1e02135c7c4a13d1f9cd2c96fc3f285.epub,0,2000-01-01 01:00:00,2016-04-03 02:51:08,766000/b1e02135c7c4a13d1f9cd2c96fc3f285-d.jpg,,
19786565,Bloomberg's New York: Class and Governance in the Luxury City  ,,Geographies of Justice and Social Transformation 6,,Julian Brash,2011,,University of Georgia Press,,361,0,English ,,,2011 12 30,"0820336815,9780820336817,0820335665,9780820335667",,,,,,,,AhcdcfDIWwsC,,,0,,,,1,0,1,1,2757715,pdf,B1E10FE0B68EC04E189B1BAE50346438,,,_442680.b1e10fe0b68ec04e189b1bae50346438.pdf,0,2000-01-01 01:00:00,2016-04-03 02:51:08,766000/b1e10fe0b68ec04e189b1bae50346438-d.jpg,,
19786566,Psychology for Nurses and the Caring Professions (Social Science for Nurses and the Caring Professions)  ,,Social science for nurses and the caring professions,,"Jan Walker, Sheila Payne, Paula Smith, Nikki Jarrett",2007,3,Open University Press,"Maidenhead, Berkshire ; New York",288,0,English ,,,2011 12 30,"0335223869,9780335223862",,,,,610.19,,,,OL10562315M,,0,,,,0,0,0,1,2726347,pdf,B1E1A035D3C87247612A3583CDE78B93,,,_459946.b1e1a035d3c87247612a3583cde78b93.pdf,0,2000-01-01 01:00:00,2016-04-03 02:51:08,766000/b1e1a035d3c87247612a3583cde78b93-d.jpg,,
19786567,"Corporate Reputations, Branding and People Management: A Strategic Approach to HR  ",,Advanced HR Practitioner Series,,"Graeme Martin, Susan Hetrick",2006,,Butterworth-Heinemann,,401,0,English ,,,2011 12 30,"0750669500,9780750669504",,,,,,,,8OEM40g-cGcC,,,0,,,,1,0,1,1,1486475,pdf,B1E2CDFC5C00E23EA565350120889D02,,,_441262.b1e2cdfc5c00e23ea565350120889d02.pdf,0,2000-01-01 01:00:00,2016-04-03 02:51:08,766000/b1e2cdfc5c00e23ea565350120889d02-d.jpg,,
19786568,Electrolytic In-Process Dressing (ELID) Technologies: Fundamentals and Applications  ,,,,"Hitoshi Ohmori, Ioan D. Marinescu, Kazutoshi Katahira",2011,1,CRC Press,,264,0,English ,,,2011 12 30,"1439800367,9781439800362",,,,,621.3815,TK7871.85 .E424 2011,,JJcmOJY-iSwC,OL25060812M,,0,,,,1,0,1,1,10977170,pdf,B1E2FDC98D3E3D14A0447E4A4427F3F7,,,_447593.b1e2fdc98d3e3d14a0447e4a4427f3f7.pdf,0,2000-01-01 01:00:00,2016-04-03 02:51:08,766000/b1e2fdc98d3e3d14a0447e4a4427f3f7-d.jpg,,
19786569,Sektion 20  ,,,,Paul Dowswell,2011,,Bloomsbury,,,0,English ,,,2011 12 30,"1408818108,9781408818107",,,,,,,,9MYecsOHA6IC,,,0,,,,,1,,,616386,epub,B1E3F5F44FB5658AF3B51B61B01BF25D,,,_502798.b1e3f5f44fb5658af3b51b61b01bf25d.epub,0,2000-01-01 01:00:00,2016-04-03 02:51:08,766000/B1E3F5F44FB5658AF3B51B61B01BF25D-g.jpg,,
19786570,"Information Literacy: Search Strategies, Tools & Resources for High School Students and College Freshmen  ",,,,Zorana Ercegovac,2008,2,Linworth Pub Co,,209,0,English ,,,2011 12 30,"1586833324,9781586833329",,,,,025.5/24,Z710 .E72 2008,,oeggddn2TOQC,OL16443627M,,0,,,,1,0,1,1,1023647,pdf,B1E45B61ADF84B1C48FEF7081BDD0D9A,,,_478437.b1e45b61adf84b1c48fef7081bdd0d9a.pdf,0,2000-01-01 01:00:00,2016-04-03 02:51:08,766000/b1e45b61adf84b1c48fef7081bdd0d9a-d.jpg,,
19786571,Storia linguistica dell'Italia unita  ,,,,Tullio De Mauro,1991,,Laterza,,265,0,Italian ,,,2011 12 30,"8842037427,9788842037422",,,,,,,,,OL13429587M,,0,,,,0,1,0,1,28024895,pdf,B1E840A801371D3B8598A5EEE1EBE93B,,,_453713.b1e840a801371d3b8598a5eee1ebe93b.pdf,0,2000-01-01 01:00:00,2016-04-03 02:51:08,766000/b1e840a801371d3b8598a5eee1ebe93b-d.jpg,,
19786572,Fractals in Engineering: New Trends in Theory and Applications  ,,,,Jacques Lévy-Véhel and Evelyne Lutton (Eds.),2005,1st Edition.,Springer,,289,0,English ,,,2011 12 30,"1846280478,9781846280474",,,,,,,,,OL8962499M,,0,,,,,1,0,1,12961210,pdf,B1E97B6C76D94323B3566525B4590580,,,_431137.b1e97b6c76d94323b3566525b4590580.pdf,0,2000-01-01 01:00:00,2016-04-03 02:51:08,766000/b1e97b6c76d94323b3566525b4590580-d.jpg,,
19786573,"Sepp Holzer's Permaculture: A Practical Guide to Small-Scale, Integrative Farming and Gardening--With information on mushroom cultivation, sowing a ... ways to keep livestock, and more...  ",,,,Sepp Holzer,2011,,Chelsea Green Publishing,,258,0,English ,,,2011 12 30,"160358370X,9781603583701",,,,,631.5/8,S494.5.P47 H6813 2001,,,OL24827163M,,0,,,,1,0,1,1,97084503,pdf,B1EAB325DED09516B2A56C14EE7A2DDC,,,_431497.b1eab325ded09516b2a56c14ee7a2ddc.pdf,0,2000-01-01 01:00:00,2016-04-03 02:51:08,766000/b1eab325ded09516b2a56c14ee7a2ddc-d.jpg,,
19786574,Progressive Bass Concepts  ,,,,John Myung,,,Rittor Music,,21,0,English ,,,2011 12 30,,,,,,,,,,,,0,,,,0,1,1,0,7970278,pdf,B1EC74BA6A30B83F4DB5759F67DCC6A3,,,_447724.b1ec74ba6a30b83f4db5759f67dcc6a3.pdf,0,2000-01-01 01:00:00,2016-04-03 02:51:08,766000/b1ec74ba6a30b83f4db5759f67dcc6a3-g.jpg,,
19786575,Office Yoga: Tackling Tension with Simple Stretches You Can Do at Your Desk  ,,,,Julie Friedeberger,1999,2,Motilal Banarsidass Publishers,,156,0,English ,,,2011 12 30,"8120815424,9788120815421",,,,,,,,,OL9552231M,,0,,,,0,1,0,1,3849055,pdf,B1EC77C4905E34E2CEA38A2ECB0557E3,,,_455988.b1ec77c4905e34e2cea38a2ecb0557e3.pdf,0,2000-01-01 01:00:00,2016-04-03 02:51:08,766000/b1ec77c4905e34e2cea38a2ecb0557e3-d.jpg,,
19786576,'You Should See Yourself': Jewish Identity in Postmodern American Culture  ,,,,Vincent Brook (editor),2006,,Rutgers University Press,,350,0,English ,,,2011 12 30,"0813538440,9780813538440,9780813538457",,,,,700/.452992400904,NX652.J48 Y68 2006,,,OL3411975M,,0,,,,0,1,1,1,1299389,pdf,B1ECAA55D852DF2F201DF26030CC77DA,,,_443812.b1ecaa55d852df2f201df26030cc77da.pdf,0,2000-01-01 01:00:00,2016-04-03 02:51:08,766000/b1ecaa55d852df2f201df26030cc77da-d.jpg,,
19786577,Amar Chitra Katha - Gopal the Cowherd  ,,,,Anant Pai,1979,,India Book House,,36,0,English ,,,2011 12 30,,,,,,,,,,,,0,,,,,1,,1,6679071,pdf,B1EFC3DE224186C4437E6C4CF9D1990B,,,_512018.b1efc3de224186c4437e6c4cf9d1990b.pdf,0,2000-01-01 01:00:00,2016-04-03 02:51:08,766000/b1efc3de224186c4437e6c4cf9d1990b-g.jpg,,
19786578,Pinnacle Studio HD Version 15: Die große Filmwerktstatt  ,,,,Simon Gabathuler,2011,,Markt+Technik Verlag,,386,0,German ,,,2011 12 30,"382724708X,9783827247087",,,,,,,,,,,0,,,,1,0,1,1,63504012,pdf,B1F085BC8BE874DD306CEE6DEE50FE5F,,,_455204.b1f085bc8be874dd306cee6dee50fe5f.pdf,0,2000-01-01 01:00:00,2016-04-03 02:51:08,766000/b1f085bc8be874dd306cee6dee50fe5f-g.jpg,,
19786579,What Are Gamma-Ray Bursts? (Princeton Frontiers in Physics)  ,,Princeton Frontiers in Physics,,Joshua S. Bloom,2011,,Princeton University Press,,271,0,English ,,,2011 12 30,"0691145563,9780691145563,0691145571,9780691145570",,,,,523.01/97222,QB471.7.B85 B56 2011,,xa8Qcs6-I2gC,OL24479171M,,0,,,,1,0,1,1,1375134,pdf,B1F18B7BB8EB43040357458176CC8AB9,,,_476918.b1f18b7bb8eb43040357458176cc8ab9.pdf,0,2000-01-01 01:00:00,2016-04-03 02:51:08,766000/b1f18b7bb8eb43040357458176cc8ab9-d.jpg,,
19786580,The Machinery of Freedom: Guide to a Radical Capitalism (2nd edition)  ,,,,David Friedman,1989,2,Open Court Publishing Company,,,0,English ,,,2011 12 30,"0812690699,9780812690699",,,,,323.44,JC585 .F76 1989,,,OL2209046M,,0,,,,,0,1,1,326639,epub,B1F1BBFEED6A45022DAACA3206AD8C6A,,,_502104.b1f1bbfeed6a45022daaca3206ad8c6a.epub,0,2000-01-01 01:00:00,2016-04-03 02:51:08,766000/b1f1bbfeed6a45022daaca3206ad8c6a-d.jpg,,
19786581,Was ist das Lehnswesen?  ,,,,François L. Ganshof,1989,,Wissenschaftliche Buchgesellschaft,,227,0,German ,,,2011 12 30,"3534009274,9783534009275",,,,,,,,,,,200,,,,0,1,0,1,15822674,pdf,B1F5A541F3359B92400F5E1C4D33F034,,,_432774.b1f5a541f3359b92400f5e1c4d33f034.pdf,0,2000-01-01 01:00:00,2016-04-03 02:51:08,766000/b1f5a541f3359b92400f5e1c4d33f034-g.jpg,,
19786582,Lectures on Mechanics  ,,"London Mathematical Society, Lecture Notes 174",,Jerrold E. Marsden,2009,"half title page declares, This version: October, ",Cambridge University Press,,263,0,English ,,,2011 12 30,"0521428440,9780521428446",,,,,531/.01/516,QA805 .M367 1992,,3M07FsrNn9gC,OL1451628M,Copyright page +,0,,,,1,0,1,1,3360410,pdf,B1F5F19A062C8931D151212C54555461,,,_489242.b1f5f19a062c8931d151212c54555461.pdf,0,2000-01-01 01:00:00,2016-04-03 02:51:08,766000/b1f5f19a062c8931d151212c54555461-d.jpg,,
19786583,There's No Business That's Not Show Business: Marketing in an Experience Culture  ,,,,"Bernd H. Schmitt, David L. Rogers, Karen L. Vrotsos",2003,1,FT Press,,315,0,English ,,,2011 12 30,"0130471194,9780130471192",,,,,,,,,OL17087432M,,0,,,,0,1,0,1,15669474,pdf,B1F68A3AA8BCBBB88EB3F45E077A1447,,,_456146.b1f68a3aa8bcbbb88eb3f45e077a1447.pdf,0,2000-01-01 01:00:00,2016-04-03 02:51:08,766000/b1f68a3aa8bcbbb88eb3f45e077a1447-d.jpg,,
19786584,Head First Python  ,,,,Paul Barry,2010,1,O'Reilly Media,,494,0,English ,92,,2011 12 30,"1449382673,9781449382674",,,,,,,,,,,0,,,,1,0,1,1,39674229,pdf,B1F831FC2136986ED9DEAB7F4817A847,,,_443789.b1f831fc2136986ed9deab7f4817a847.pdf,0,2000-01-01 01:00:00,2016-04-03 02:51:08,766000/b1f831fc2136986ed9deab7f4817a847-d.jpg,,
19786585,Dirilis Çanakkale 1915  ,,,,Turgut Özakman,2010,111,Bilgi Yayinevi,,366,0,Turkish ,,,2011 12 30,"9752202470,9789752202474",,,,,,,,,OL24022102M,,0,,,,,1,0,1,6041530,pdf,B1F85C8DBA096E0421601A5FB9A9546C,,,_494860.b1f85c8dba096e0421601a5fb9a9546c.pdf,0,2000-01-01 01:00:00,2016-04-03 02:51:08,766000/b1f85c8dba096e0421601a5fb9a9546c-d.jpg,,
19786586,Semi-Classical Analysis for the Schrödinger Operator and Applications (Lecture Notes in Mathematics)  ,,Lecture Notes in Mathematics 1336,,Bernard Helffer,1988,1,Springer,,116,0,English ,,,2011 12 30,"3540500766,9783540500766",,,,,"510 s,515/.724","QA3 .L28 no. 1336a,QA329 .L28 no. 1336a",,,OL2136164M,,0,,,,0,1,0,0,2668701,pdf,B1F89694635E4FD62BF285C6E5204F91,,,_495557.b1f89694635e4fd62bf285c6e5204f91.pdf,0,2000-01-01 01:00:00,2016-04-03 02:51:08,766000/b1f89694635e4fd62bf285c6e5204f91-d.jpg,,
19786587,Consumer Behaviour  ,,,,Michael Solomon,2006,3rd,PRENTICE-HALL INTERN,[London],731,0,English ,,,2011 12 30,"0273687522,9780273687528",,,,,658.8/342,HF5415.33.E85 S65 2006,,,OL3428308M,,0,,,,0,1,0,1,32719835,pdf,B1F8DBCF1114E342E939191CAFC39042,,,_448774.b1f8dbcf1114e342e939191cafc39042.pdf,0,2000-01-01 01:00:00,2016-04-03 02:51:08,766000/b1f8dbcf1114e342e939191cafc39042-d.jpg,,
19786588,Blutsschwestern  ,,Vampire Academy 1,,Richelle Mead,2009,,Lyx,,236,0,German ,,,2011 12 30,"3802582012,9783802582011",,,,,,,,,,,0,,,,,1,,1,1675262,pdf,B1F8DEB250600B061E3FE1E4E2075A46,,,_434712.b1f8deb250600b061e3fe1e4e2075a46.pdf,0,2000-01-01 01:00:00,2016-04-03 02:51:08,766000/b1f8deb250600b061e3fe1e4e2075a46-g.jpg,,
19786589,Norm and Action  ,,,,Georg Henrik von Wright,,,,,201,0,English ,,,2011 12 30,,,,,,,,,,,,0,,,,,1,,1,907149,pdf,B1F919C6A8B6B03E1B02611A7BA16A31,,,_489309.b1f919c6a8b6b03e1b02611a7ba16a31.pdf,0,2000-01-01 01:00:00,2016-04-03 02:51:08,766000/b1f919c6a8b6b03e1b02611a7ba16a31-g.jpg,,
19786590,I Hate You--Don't Leave Me: Understanding the Borderline Personality  ,,,,"Jerold J. Kreisman, Hal Straus",2010,Rev Upd,Perigee Trade,,,0,English ,,,2011 12 30,"0399536213,9780399536212",,,,,616.85852,,,,OL25127011M,,0,,,,,1,,,374116,epub,B1F9D4C417E0385B87D8F4E65C027A10,,,_489235.b1f9d4c417e0385b87d8f4e65c027a10.epub,0,2000-01-01 01:00:00,2016-04-03 02:51:08,766000/b1f9d4c417e0385b87d8f4e65c027a10-d.jpg,,
19786591,The Troublesome Angel  ,,,,Valerie Hansen,2005,,Steeple Hill,,,0,English ,,,2011 12 30,"0373809727,9780373809721",,,,,,,,,OL7421501M,,0,,,,,1,,,556038,epub,B1FA308286C898308EE464B6D2D36D8B,,,_490240.b1fa308286c898308ee464b6d2d36d8b.epub,0,2000-01-01 01:00:00,2016-04-03 02:51:08,766000/b1fa308286c898308ee464b6d2d36d8b-d.jpg,,
19786592,Η αυταπάτη της εθνικής οικονομίας ~ Γιατί ο κομμουνισμός είναι αναγκαιότητα για τη Γερμανία  ,,,,"Καρλ Μαρξ (Karl Marx), Φρίντριχ Ένγκελς (Friedrich Engels), Κώστας Μιλτιάδης (μετάφραση)",,,Κοροντζής,,95,0,Greek(Modern),,,2011 12 30,,,,,,,,,,,,300,,,,1,1,0,0,3318960,pdf,B1FC48F8A74712178DAD596344726996,,,_501614.b1fc48f8a74712178dad596344726996.pdf,0,2000-01-01 01:00:00,2016-04-03 02:51:08,766000/b1fc48f8a74712178dad596344726996-g.jpg,,
19786593,"Comprehensive Mathematics for Computer Scientists 2: Calculus and ODEs, Splines, Probability, Fourier and Wavelet Theory, Fractals and Neural Networks, Categories and Lambda Calculus (Universitext) (v. 2)  ",,,,"Guerino Mazzola, Gérard Milmeister, Jody Weissmann",2006,1,Springer,,365,0,English ,,,2011 12 30,"3540208615,9783540208617",,,,,,,,SMWx5fQZcEUC,OL3313729M,,0,,,,1,0,1,1,3683782,pdf,B1FC99B773D5AB44A34342B0D9DA23B1,,,_438302.b1fc99b773d5ab44a34342b0d9da23b1.pdf,0,2000-01-01 01:00:00,2016-04-03 02:51:08,766000/b1fc99b773d5ab44a34342b0d9da23b1-d.jpg,,
19786594,Proverbs  ,,Believers church Bible commentary,,John W. Miller,2004,,Herald Press (VA),,352,0,English ,,,2011 12 30,"0836192923,9780836192926",,,,,,,,60zlAAAAMAAJ,OL8201724M,,0,,,,1,0,1,1,1036669,pdf,B1FCD68F48B82E3923C1BB5051A34841,,,_455302.b1fcd68f48b82e3923c1bb5051a34841.pdf,0,2000-01-01 01:00:00,2016-04-03 02:51:08,766000/b1fcd68f48b82e3923c1bb5051a34841-d.jpg,,
19786595,The Shadow - 011 - Double Z  ,,The Shadow Pulps 11,,Maxwell Grant (Walter B. Gibson),1932,,The Shadow Magazine,,81,0,English ,,,2011 12 30,,,,,,,,,,,,0,,,,0,1,0,1,440320,pdf,B1FEB6E9B332D0EBFDE9D943F741165D,,,_439092.b1feb6e9b332d0ebfde9d943f741165d.pdf,0,2000-01-01 01:00:00,2016-04-03 02:51:08,766000/b1feb6e9b332d0ebfde9d943f741165d-g.jpg,,
19786596,"Démocratie, dans quel état ?  ",,,,"Giorgio Agamben, Alain Badiou, Daniel Bensaïd, Wendy Brown, Jean-Luc Nancy, Jacques Rancière, Kristin Ross, Slavoj Zizek",2009,,LA FABRIQUE,,51,0,French ,,,2011 12 30,"2913372910,9782913372917",,,,,,,,,OL23617818M,,0,,,,,1,,0,8953319,pdf,B1FF700EE39928C9070B9543162C14ED,,,_457552.b1ff700ee39928c9070b9543162c14ed.pdf,0,2000-01-01 01:00:00,2016-04-03 02:51:08,766000/b1ff700ee39928c9070b9543162c14ed-d.jpg,,
19786597,Foundations of Special Education: An Introduction  ,,,,Michael Farrell,2009,1,Wiley,,330,0,English ,,,2011 12 30,"047075396X,9780470753965",,,,,371.9,LC3965 .F37 2009,,e-5MPgAACAAJ,OL23180535M,,0,,,,,0,,1,1541473,pdf,B2007FD4039CCA15D9719AF098A5F541,,,_443287.b2007fd4039cca15d9719af098a5f541.pdf,0,2000-01-01 01:00:00,2016-04-03 02:51:08,766000/b2007fd4039cca15d9719af098a5f541-d.jpg,,
19786598,المصطلحات المفاتيح لتحليل الخطاب  ,,,,دومينيك مانغونو,,,,,152,0,Arabic ,,,2011 12 30,,,,,,,,,,,,0,,,,,1,1,0,2681916,pdf,B200AA548A469606FBD93A3261907C1E,,,_509556.b200aa548a469606fbd93a3261907c1e.pdf,0,2000-01-01 01:00:00,2016-04-03 02:51:08,766000/b200aa548a469606fbd93a3261907c1e-g.jpg,,
19786599,Institutional Economics: Social Order and Public Policy  ,,Locke Institute Series,,"Wolfgang Kasper, Manfred E. Streit",1999,,Edward Elgar Pub,,539,0,English ,,,2011 12 30,"1858989418,9781858989419",,,,,330,HB99.5 .K37 1998,,,OL361143M,,0,,,,0,1,1,0,11739482,pdf,B2017435737E079982D3BA00B3B84B2B,,,_486809.b2017435737e079982d3ba00b3b84b2b.pdf,0,2000-01-01 01:00:00,2016-04-03 02:51:08,766000/b2017435737e079982d3ba00b3b84b2b-d.jpg,,
19786600,"Financial Institutions Management: A Risk Management Approach , Sixth Edition (McGraw-Hill Irwin Series in Finance, Insurance, and Real Est)  ",,,,"Anthony Saunders, Marcia Millon Cornett",2007,6th,McGraw-Hill,,896,0,English ,,,2011 12 30,"0073405140,9780073405148",,,,,,,,,OL9969780M,,0,,,,1,0,1,1,16814964,pdf,B202C7A03CEF7326E86A544071EA5D43,,,_456310.b202c7a03cef7326e86a544071ea5d43.pdf,0,2000-01-01 01:00:00,2016-04-03 02:51:08,766000/b202c7a03cef7326e86a544071ea5d43-g.jpg,,
19786601,Star Trek: Department of Temporal Investigations: Watching the Clock  ,,,,Christopher L. Bennett,2011,,Star Trek,,,0,English ,,,2011 12 30,"1451606257,9781451606256,9781451606294",,,,,,,,,,,0,,,,,1,,1,791995,epub,B204E3D0CFE392B368A798F2BE1F45E3,,,_441323.b204e3d0cfe392b368a798f2be1f45e3.epub,0,2000-01-01 01:00:00,2016-04-03 02:51:08,766000/b204e3d0cfe392b368a798f2be1f45e3-d.jpg,,
19786602,"Chess Secrets: Great Attackers: Learn from Kasparov, Tal and Stein  ",,,,Colin Crouch,2009,First,Everyman Chess,,271,0,English ,,,2011 12 30,9781857445794,,,,,,,,,,,0,,,,0,1,0,0,3939578,djvu,B2052DA13E341745FBB4D8204C2CA594,4ecdb3918ed8299b1c2ebb67c4be9638,no,_492236.b2052da13e341745fbb4d8204c2ca594.djvu,0,2000-01-01 01:00:00,2016-04-03 02:51:08,766000/b2052da13e341745fbb4d8204c2ca594-d.jpg,,
19786603,Mass Effect Volume 1: Redemption (Mass Effect (Dark Horse))  ,,,,"Mac Walters, John Jackson Miller, Omar Francia, Michael Atiyeh, Daryl Mandryk",2010,,Dark Horse Comics,,99,0,English ,,,2011 12 30,"1595824812,9781595824813",,,,,741.5/943,PN6727.W277 M37 2010,,,OL23963229M,,0,,,,,1,1,0,81785253,pdf,B205DC33E4EE691B79CF8B16BDB4F673,,,_514412.b205dc33e4ee691b79cf8b16bdb4f673.pdf,0,2000-01-01 01:00:00,2016-04-03 02:51:08,766000/b205dc33e4ee691b79cf8b16bdb4f673-d.jpg,,
19786604,Modern Land Law 6 e  ,,,,Martin Dixon,2008,6,Routledge-Cavendish,London ; New York,592,0,English ,,,2011 12 30,"0415458447,9780415458443,9780203867945,0-203-86794-7",,,,,,,,,OL10207500M,,0,,,,0,0,0,1,3689415,pdf,B20646A1874A1A7DB3C0322D05DAA00A,,,_461582.b20646a1874a1a7db3c0322d05daa00a.pdf,0,2000-01-01 01:00:00,2016-04-03 02:51:08,766000/b20646a1874a1a7db3c0322d05daa00a-d.jpg,,
19786605,"Inside the Tornado: Strategies for Developing, Leveraging, and Surviving Hypergrowth Markets (Collins Business Essentials)  ",,,,Geoffrey A. Moore,2004,,Harper Paperbacks,,,0,English ,,,2011 12 30,"0060745819,9780060745813",,,,,620.0068/8,HC79.H53 M66 2004,,,OL24960149M,,0,,,,,0,1,1,781020,mobi,B2069858C75131285285C91C4E0DB6B9,,,_469687.b2069858c75131285285c91c4e0db6b9.mobi,0,2000-01-01 01:00:00,2016-04-03 02:51:08,766000/b2069858c75131285285c91c4e0db6b9-d.jpg,,
19786606,Reptile Medicine and Surgery 2nd Edition  ,,,,Douglas R. Mader MS DVM,2005,2nd,Saunders,,536,0,English ,,,2011 12 30,"072169327X,9780721693279",,,,,,,,,OL18249486M,,0,,,,1,1,0,0,62196021,pdf,B206D38459E8F7300BA5648E60F655FD,,,_441222.b206d38459e8f7300ba5648e60f655fd.pdf,0,2000-01-01 01:00:00,2016-04-03 02:51:08,766000/b206d38459e8f7300ba5648e60f655fd-d.jpg,,
19786607,Control Systems  ,,,,W. Bolton,2002,1,Newnes,,193,0,English ,,,2011 12 30,"0750654619,9780750654616",,,,,629.8,TJ213 .B59537 2002,,5gTn5QR1MZUC,OL3437717M,,0,,,,,0,,1,2996881,pdf,B2073028A93306F0947A9BC2482B049D,,,_449772.b2073028a93306f0947a9bc2482b049d.pdf,0,2000-01-01 01:00:00,2016-04-03 02:51:08,766000/b2073028a93306f0947a9bc2482b049d-d.jpg,,
19786608,"Tumors of the Central Nervous System, Volume 2: Gliomas: Glioblastoma (Part 2)  ",,Tumors of the Central Nervous System 2,,M.A. Hayat,2011,1st Edition.,Springer,,480,0,English,,,2011 12 30,"9400706170,9789400706170",,,,,,,10.1007/978-94-007-0618-7,Yx0tEtfCXD0C,,,0,,,,1,0,1,1,10581135,pdf,B20772EB48F5E634F3B29F05F5A23947,,,_467089.b20772eb48f5e634f3b29f05f5a23947.pdf,0,2000-01-01 01:00:00,2016-04-03 02:51:08,766000/b20772eb48f5e634f3b29f05f5a23947-d.jpg,,
19786609,"Lagoons: Biology, Management and Environmental Impact (Environmental Science, Engineering and Technology)  ",,"Environmental Science, Engineering and Technology",,Adam G. Friedman,2011,,Nova Science Pub Inc,,513,0,English ,,,2011 12 30,9781611220865,,,,,,,,,,,0,,,,1,0,1,1,11235045,pdf,B20826E0D59E2F340B099BDC3AFB45A3,,,_469269.b20826e0d59e2f340b099bdc3afb45a3.pdf,0,2000-01-01 01:00:00,2016-04-03 02:51:08,766000/b20826e0d59e2f340b099bdc3afb45a3-g.jpg,,
19786610,Greek Tyrants  ,,,,Antony Andrewes,1956,,Prometheus Books,,188,0,English ,,,2011 12 30,"0090295641,9780090295647",,,,,938.02,,,,OL14898090M,,0,,,,0,1,0,0,16412768,pdf,B2082BA0DB0489B9CED95017ECCA28EE,,,_504484.b2082ba0db0489b9ced95017ecca28ee.pdf,0,2000-01-01 01:00:00,2016-04-03 02:51:08,766000/b2082ba0db0489b9ced95017ecca28ee-g.jpg,,
19786611,"Handbook of Combustion, Volume 1 (Fundamentals and Safety)  ",,,,"Maximilian Lackner,Franz Winter ,Avinash Kumar Agarwal",2010,1,Wiley-VCH,,499,0,English ,,,2011 12 30,"3527324496,9783527324491",,,,,,,,,,,0,,,,0,0,0,1,31790891,pdf,B20970DF0795D31C01085A171C4D6837,,,_469848.b20970df0795d31c01085a171c4d6837.pdf,0,2000-01-01 01:00:00,2016-04-03 02:51:08,766000/b20970df0795d31c01085a171c4d6837-d.jpg,,
19786612,The Devil You Know  ,,Morgan Kingsley 2,,Jenna Black,,,,,,0,English ,,,2011 12 30,,,,,,,,,,,,0,,,,,1,1,1,271441,epub,B20A4028C08838ECD55FE2E45C39F327,,,_490037.b20a4028c08838ecd55fe2e45c39f327.epub,0,2000-01-01 01:00:00,2016-04-03 02:51:08,766000/B20A4028C08838ECD55FE2E45C39F327-g.jpg,,
19786613,"Principles of Microeconomics , Sixth Edition  ",,,,"John B. Taylor, Akila Weerapana",2007,6,Cengage Learning,,587,0,English ,,,2011 12 30,"0618967656,9780618967650",,,,,,,,,,,0,,,,,1,1,1,9570151,pdf,B20BF3B3C7C100D18B15A8A15410CBCA,,,_504448.b20bf3b3c7c100d18b15a8a15410cbca.pdf,0,2000-01-01 01:00:00,2016-04-03 02:51:08,766000/b20bf3b3c7c100d18b15a8a15410cbca-d.jpg,,
19786614,"Putterman's Cosmetic Oculoplastic Surgery, 4th Edition  ",,,,Steven Fagien MD FACS,2007,4Th Edition,Saunders,,363,0,English ,,,2011 12 30,"0721602541,9780721602547",,,,,,,,,OL9572973M,,0,,,,1,0,1,1,23948291,pdf,B20C0F4D1FA9C812A8D976CB7C386B05,,,_493125.b20c0f4d1fa9c812a8d976cb7c386b05.pdf,0,2000-01-01 01:00:00,2016-04-03 02:51:08,766000/b20c0f4d1fa9c812a8d976cb7c386b05-d.jpg,,
19786615,"Manieren und Karriere: Internationale Verhaltensregeln für Führungskräfte, 5. Auflage  ",,,,Rosemarie Wrede-Grischkat,2006,5,Gabler,,414,0,German ,,,2011 12 30,"383490113X,9783834901132",,,,,,,,kuDBCJk58mwC,,,0,,,,1,1,0,1,22228731,pdf,B20CC4220709C46B79451FFC22D9AEBD,,,_444037.b20cc4220709c46b79451ffc22d9aebd.pdf,0,2000-01-01 01:00:00,2016-04-03 02:51:08,766000/b20cc4220709c46b79451ffc22d9aebd-d.jpg,,
19786616,Vox Graeca: A Guide to the Pronunciation of Classical Greek  ,,,,W. Sidney Allen,1968,First,Cambridge University Press,,174,0,English ,,,2011 12 30,"0521335558,9780521335553",,,,,481/.52,PA267 .A4 1987,,,OL2736604M,,0,,,,1,1,1,1,5371970,pdf,B20D9D9D305A520517415B34BF729212,,,_487036.b20d9d9d305a520517415b34bf729212.pdf,0,2000-01-01 01:00:00,2016-04-03 02:51:08,766000/b20d9d9d305a520517415b34bf729212-d.jpg,,
19786617,Inside Out and Back Again  ,,,,Thanhha Lai,2011,,HarperCollins,,293,0,English ,,,2011 12 30,"0061962783,9780061962783",,,,,,,,,OL24579492M,,0,,,,,1,,1,3043286,pdf,B20F1E48770F4252BF116924D624E78B,,,_500144.b20f1e48770f4252bf116924d624e78b.pdf,0,2000-01-01 01:00:00,2016-04-03 02:51:08,766000/b20f1e48770f4252bf116924d624e78b-d.jpg,,
19786618,Citizenship and Collective Identity in Europe (Routledge Advances in European Politics)  ,,"Routledge advances in European politics, 59",,Ireneusz Pawel Karolewski,2009,,Routledge,London ; New York,266,0,English ,,,2011 12 30,"0-415-49658-6,978-0-415-49658-2,978-0-203-87226-0,0-203-87226-6",,,,,323.6094,JN40 .K38 2009,,,OL23174708M,,0,,,,0,0,0,1,1560118,pdf,B20F2859B6344284C1742581FE78E4B4,,,_461567.b20f2859b6344284c1742581fe78e4b4.pdf,0,2000-01-01 01:00:00,2016-04-03 02:51:08,766000/b20f2859b6344284c1742581fe78e4b4-d.jpg,,
19786619,"Philo, Volume VIII: On the Special Laws, Book 4. On the Virtues. On Rewards and Punishments  ",,Loeb Classical Library 341,,Philo Judaeus; F. H. Colson (trans.),1939,,Harvard University Press,,485,0,English ,,,2011 12 30,"0674993764,9780674993761",,,,,,,,jGmrQwAACAAJ,OL7694137M,,600,,,,1,1,1,1,7601468,pdf,B20F77A3E1CBA3DD655411CA1321B5B1,,,_511974.b20f77a3e1cba3dd655411ca1321b5b1.pdf,0,2000-01-01 01:00:00,2016-04-03 02:51:08,766000/b20f77a3e1cba3dd655411ca1321b5b1-d.jpg,,
19786620,Professional Diver's Manual on Wet-Welding  ,,,,D Keats,1990,,Woodhead Publishing,,81,0,English ,,,2011 12 30,"1855730065,9781855730069",,,,,671.52,,,,OL12000853M,,0,,,,0,1,0,1,4351770,pdf,B211C05A216B9E5DF3291527CC7A12D7,,,_505233.b211c05a216b9e5df3291527cc7a12d7.pdf,0,2000-01-01 01:00:00,2016-04-03 02:51:08,766000/b211c05a216b9e5df3291527cc7a12d7-d.jpg,,
19786621,Making Things Happen: Mastering Project Management (Theory in Practice)  ,,,,Scott Berkun,2008,Revised,O'Reilly Media,,,0,English ,,,2011 12 30,"0596517718,9780596517717",,,,,658,T,,vKVQaJ0pMdQC,OL10781040M,,0,,,,,1,,,1801845,epub,B211E7B81CBDEAD44256A0844BC72EA6,,,_514159.b211e7b81cbdead44256a0844bc72ea6.epub,0,2000-01-01 01:00:00,2016-04-03 02:51:08,766000/b211e7b81cbdead44256a0844bc72ea6-d.jpg,,
19786622,"The New Yorker Magazine - December 12, 2011  ",,,,Conde-Nast,,,Conde Nast,,104,0,English ,,,2011 12 30,,,,,,,,,,,periodic,0,,,,1,1,0,0,114861689,pdf,B21576B589FC83D07B9B363595F69DAE,,ban,_508755.b21576b589fc83d07b9b363595f69dae.pdf,0,2000-01-01 01:00:00,2016-04-03 02:51:08,766000/b21576b589fc83d07b9b363595f69dae-g.jpg,,
19786623,P-Source: Guide to Apple Pascal System  ,,,,Randy Hyde,,,,,462,0,English ,92,,2011 12 30,"0881900044,9780881900040",,,,,001.64/2,QA76.8.A66 H93 1983,,,OL2903884M,,0,,,,,1,1,0,4744229,pdf,B2177BE0B54A12761230558DF7B2FBCF,,,_376924.b2177be0b54a12761230558df7b2fbcf.pdf,0,2000-01-01 01:00:00,2016-04-03 02:51:08,766000/b2177be0b54a12761230558df7b2fbcf-d.jpg,,
19786624,Tomatoland: How Modern Industrial Agriculture Destroyed Our Most Alluring Fruit  ,,,,Barry Estabrook,2011,,Andrews McMeel Publishing LLC,,,0,English ,,,2011 12 30,9781449408411,,,,,,SB349 .E78 2011,,-krDqrc_HWwC,,,0,,,,0,0,1,1,2189518,epub,B217F4DCB56AF8950D533CBB675D1056,,,_471422.b217f4dcb56af8950d533cbb675d1056.epub,0,2000-01-01 01:00:00,2016-04-03 02:51:08,766000/B217F4DCB56AF8950D533CBB675D1056-g.jpg,,
19786625,Caught Red-Handed  ,,,,Paige Tyler,,,,,,0,English ,,,2011 12 30,,,,,,,,,,,,0,,,,,1,,,74351,epub,B2189548149F40052CFED1150B5C18BE,,,_512704.b2189548149f40052cfed1150b5c18be.epub,0,2000-01-01 01:00:00,2016-04-03 02:51:08,766000/B2189548149F40052CFED1150B5C18BE-g.jpg,,
19786626,Hepatitis C Treatment  ,,,,"Costin Cernescu, Simona Ruta, Liana Gheorghe, Speranta Iacob, Irinel Popescu, and Richard Sebastian Wanless",2011,,Flying Publisher,,112,0,English ,,,2011 12 30,9783942687041,,,,,,,,,,,0,,,,0,1,,1,830090,pdf,B218A2F877456981B5D95A211F2F0817,,,_504160.b218a2f877456981b5d95a211f2f0817.pdf,0,2000-01-01 01:00:00,2016-04-03 02:51:08,766000/b218a2f877456981b5d95a211f2f0817-d.jpg,,
19786627,Examination of the Newborn: An Evidence Based Guide  ,,,,Anne Lomax,2011,1,Wiley-Blackwell,,296,0,English ,,,2011 12 30,"1405197749,9781405197748",,,,,618.92/01,RJ255.5 .E93 2011,,,OL25053627M,,0,,,,1,0,1,1,31678646,pdf,B219DE7A4806E72330D45254E2F8C607,,,_471554.b219de7a4806e72330d45254e2f8c607.pdf,0,2000-01-01 01:00:00,2016-04-03 02:51:08,766000/b219de7a4806e72330d45254e2f8c607-d.jpg,,
19786628,"Handbook of Compound Semiconductors: Growth, Processing, Characterization, and Devices (Materials Science and Process Technology Series)  ",,,,"Paul H. Holloway, Gary E. McGuire",1997,1,William Andrew,,934,0,English ,,,2011 12 30,"0815513747,9780815513742",,,,,621.3815/2,QC611.8.C64 H65 1995,,,OL789134M,,0,,,,,1,0,1,48859284,pdf,B21C129129B426D279F8BD4FD1DFEC20,,,_443933.b21c129129b426d279f8bd4fd1dfec20.pdf,0,2000-01-01 01:00:00,2016-04-03 02:51:08,766000/b21c129129b426d279f8bd4fd1dfec20-d.jpg,,
19786629,"Conservation of Caribbean Island Herpetofaunas: Conservation Biology and the Wider Caribbean, Volume 1  ",,,,"Adrian Hailey, Byron S. Wilson, Julia Horrocks (Eds.)",2011,,Brill Academic Pub,,234,0,Dutch ,,,2011 12 30,"9004183957,9789004183957",,,,,597.8,QL656.A1 C66 2011,,5bw5YgEACAAJ,OL25094028M,,0,,,,1,0,1,1,3380624,pdf,B21C79A9EF145E885E01C49A7A225340,,,_478254.b21c79a9ef145e885e01c49a7a225340.pdf,0,2000-01-01 01:00:00,2016-04-03 02:51:08,766000/b21c79a9ef145e885e01c49a7a225340-d.jpg,,
19786630,Programowanie mikrokontrolerów AVR w języku Bascom  ,,,,Marcin Wiązania,2004,,BTC,,174,0,Polish ,,,2011 12 30,8392107322,,,,,,,,,,,0,,,,,1,,0,23187638,pdf,B21D43B6EAE2CBB7F197B602338EC476,,,_473215.b21d43b6eae2cbb7f197b602338ec476.pdf,0,2000-01-01 01:00:00,2016-04-03 02:51:08,766000/b21d43b6eae2cbb7f197b602338ec476-g.jpg,,
19786631,Civil Society Anti-Corruption Initiatives  ,,,,Civil Society Anti-Corruption Initiatives,,,,,10,0,English ,,,2011 12 30,,,,,,,,,,,,0,,,,,1,,1,129103,pdf,B21D73E17457B3D00A57967AF2E3BDD8,,,_503908.b21d73e17457b3d00a57967af2e3bdd8.pdf,0,2000-01-01 01:00:00,2016-04-03 02:51:08,766000/b21d73e17457b3d00a57967af2e3bdd8-g.jpg,,
19786632,The American Economy 2 volumes : A Historical Encyclopedia  ,,,,Cynthia L. Clark,2011,Rev Ed,ABC-CLIO,,1393,0,English ,,,2011 12 30,"159884461X,9781598844610",,,,,330.973003,HC102 .A66 2011,,,OL24892751M,,0,,,,1,0,1,1,16624704,pdf,B21E075370AC1A4E6642AF384734AAFC,,,_469800.b21e075370ac1a4e6642af384734aafc.pdf,0,2000-01-01 01:00:00,2016-04-03 02:51:08,766000/b21e075370ac1a4e6642af384734aafc-d.jpg,,
19786633,Indian Philosophy (Vol. 1)  ,,,,S. Radhakrishnan (Sarvepalli Radhakrishnan),1948,,George Allen & Unwin,,738,0,English ,,,2011 12 30,478-484-486-4,,,,,,,,,,,0,,,,,1,1,1,33189357,djvu,B21E1496C0CDE537858B7E5AF99D9C4F,,,_451809.b21e1496c0cde537858b7e5af99d9c4f.djvu,0,2000-01-01 01:00:00,2016-04-03 02:51:08,766000/b21e1496c0cde537858b7e5af99d9c4f-g.jpg,,
19786634,"La chimie et l'art, le génie au service de l'homme  ",,,,"Christian Amatore, Anne Bouquillon, Sophie Descamps-Lequime, Rose Agnès Jacquesy, Koen Janssens, Jean-Claude Lehmann, Michel Menu, Marc Thébault, Bernard Valeur et Philippe Walter, Minh-Thu Dinh-Audouin, Rose Agnès Jacquesy, Danièle Olivier, Paul Rigny",2010,,EDP Sciences,,229,0,French ,,,2011 12 30,"2759805271,9782759805273",,,,,,,,Xz-KKb2LTRsC,,,0,,,,1,0,1,1,7725533,pdf,B21E795D86569D7E7B77F707C84ADB8B,,,_463692.b21e795d86569d7e7b77f707c84adb8b.pdf,0,2000-01-01 01:00:00,2016-04-03 02:51:08,766000/b21e795d86569d7e7b77f707c84adb8b-d.jpg,,
19786635,Bird Eating Bird: Poems (National Poetry Series)  ,,,,Kristin Naca,2009,First Edition,Harper Perennial,,,0,English ,,,2011 12 30,"0061782343,9780061782343",,,,,,,,,,,0,,,,,1,,,319946,epub,B21FD36034969C6218A5A2411271877C,,,_447589.b21fd36034969c6218a5a2411271877c.epub,0,2000-01-01 01:00:00,2016-04-03 02:51:08,766000/b21fd36034969c6218a5a2411271877c-d.jpg,,
19786636,"Java ist auch eine Insel: Das umfassende Handbuch, 10. Auflage  ",,,,Christian Ullenboom,2012,10,Galileo Press,,1309,0,German ,92,,2011 12 30,"383621802X,9783836218023",,,,,,,,,,,0,,,,1,0,1,1,10580392,pdf,B22099B0B6EC9969D1F56CD0B416FC59,,,_493913.b22099b0b6ec9969d1f56cd0b416fc59.pdf,0,2000-01-01 01:00:00,2016-04-03 02:51:08,766000/b22099b0b6ec9969d1f56cd0b416fc59-g.jpg,,
19786637,Physics Letters B vol 46  ,,,,Elsevier,1973,,,,500,0,English ,,,2011 12 30,,,,,,,,,,,,0,,,,,1,1,1,4256652,djvu,B2218D158801A7EE20039423DA6794BB,,,_417738.b2218d158801a7ee20039423da6794bb.djvu,0,2000-01-01 01:00:00,2016-04-03 02:51:08,766000/b2218d158801a7ee20039423da6794bb-g.jpg,,
19786638,Sui-Tang Chang'an: A Study in the Urban History of Late Medieval China (Michigan Monographs in Chinese Studies)  ,,,,Victor Xiong,2000,,"Center for Chinese Studies, The Universi",,208,0,English ,,,2011 12 30,"0892641371,9780892641376",,,,,951.43,,,,OL15487329M,,0,,,,,1,,1,16866987,pdf,B221A12EEFA47DDF42A809B24B7A8739,,,_496627.b221a12eefa47ddf42a809b24b7a8739.pdf,0,2000-01-01 01:00:00,2016-04-03 02:51:08,766000/b221a12eefa47ddf42a809b24b7a8739-d.jpg,,
19786639,African Women's Unique Vulnerabilities to HIV AIDS: Communication Perspectives and Promises  ,,,,Linda K. Fuller,2008,,Palgrave Macmillan,,328,0,English ,,,2011 12 30,"1403984050,9781403984050",,,,,614.5/993920082096,RA643.86.A35 F85 2008,,,OL11642927M,,0,,,,,1,,1,3176401,pdf,B22234285E2B9CB8491AB178A7AB9203,,,_433106.b22234285e2b9cb8491ab178a7ab9203.pdf,0,2000-01-01 01:00:00,2016-04-03 02:51:08,766000/b22234285e2b9cb8491ab178a7ab9203-d.jpg,,
19786640,"Compassion, by the Pound: The Economics of Farm Animal Welfare  ",,,,"F. Bailey Norwood, Jayson L. Lusk",2011,,"Oxford University Press, USA",,424,0,English ,,,2011 12 30,"0199551162,9780199551163",,,,,636.0832,HV4708 .N67 2011,,khxUA9r4If8C,OL25189586M,,0,,,,1,1,1,1,14385310,pdf,B2226E71283039659CF33B01B1774370,,,_455003.b2226e71283039659cf33b01b1774370.pdf,0,2000-01-01 01:00:00,2016-04-03 02:51:08,766000/b2226e71283039659cf33b01b1774370-d.jpg,,
19786641,Die Entwicklung der Aristotelischen Logik und Rhetorik  ,,Neue Philologische Untersuchungen 4,,Friedrich Solmsen,1929,,Weidmannsche Buchhandlung,,313,0,German ,,,2011 12 30,,,,,,,,,,,,600,,,,1,1,1,1,17050374,pdf,B22292C4FA3E6BCA8C4C8D7F5FC0E63E,,,_514574.b22292c4fa3e6bca8c4c8d7f5fc0e63e.pdf,0,2000-01-01 01:00:00,2016-04-03 02:51:08,766000/b22292c4fa3e6bca8c4c8d7f5fc0e63e-g.jpg,,
19786642,Równania Różniczkowe  ,,,,STANISŁAW ŁANOWY FRANCISZEK PRZYBYLAK BRONISŁAW SZLĘK,,,,,253,0,Polish ,,,2011 12 30,,,,,,,,,,,,0,,,,,1,1,0,9743175,pdf,B222BEF98C505F347134FEC38A083A67,,,_462787.b222bef98c505f347134fec38a083a67.pdf,0,2000-01-01 01:00:00,2016-04-03 02:51:08,766000/b222bef98c505f347134fec38a083a67-g.jpg,,
19786643,Location Based Marketing for Dummies  ,,For Dummies,,"Aaron Strout, Mike Schneider, B. J. (FRW) Emerson",2011,1,John Wiley & Sons,,291,0,English ,,,2011 12 30,"1118022491,9781118022498,9781118132043,9781118132050,9781118132067",,,,,658.872,HF5415 .S8716 2011,,cNlNYXxK5p4C,OL25237068M,,0,,,,1,0,1,1,12157516,pdf,B2254D901F42C356607809BE049486D1,,,_486815.b2254d901f42c356607809be049486d1.pdf,0,2000-01-01 01:00:00,2016-04-03 02:51:08,766000/b2254d901f42c356607809be049486d1-d.jpg,,
19786644,Essai sur la nature du commerce en général  ,,,,Richard Cantillon,2011,,Institut Coppet,,,0,French ,,,2011 12 30,,,,,,,,,,,,0,,,,,0,1,1,412673,mobi,B227A3DDEE28238F93DD69ED02E97853,,,_503674.b227a3ddee28238f93dd69ed02e97853.mobi,0,2000-01-01 01:00:00,2016-04-03 02:51:08,766000/B227A3DDEE28238F93DD69ED02E97853-g.jpg,,
19786645,Kapitalismus kontrovers: Zerklüftung im nicht so sehr kapitalistischen Weltsystem  ,,Welt Trends Papiere 9,,Hartmut Elsenhans,2009,,,,60,0,German ,,,2011 12 30,9783940793676,1864-0656,,,,,,,,,,0,,,,,1,1,1,957133,pdf,B227DFD7C852A1ECA62A4266310D54F4,,,_486035.b227dfd7c852a1eca62a4266310d54f4.pdf,0,2000-01-01 01:00:00,2016-04-03 02:51:08,766000/b227dfd7c852a1eca62a4266310d54f4-g.jpg,,
19786646,The Art of War: Complete Texts and Commentaries  ,,,,"Sun Tzu, Thomas Cleary",2011,,Shambhala Publications,,,0,English ,,,2011 12 30,"1590300548,9781590300541,9780834827301",,,,,,,,,OL8845848M,,0,,,,,0,1,1,777136,epub,B227EDB7C456858005B26AD10F972802,,,_506470.b227edb7c456858005b26ad10f972802.epub,0,2000-01-01 01:00:00,2016-04-03 02:51:08,766000/b227edb7c456858005b26ad10f972802-d.jpg,,
19786647,Antichristdrama des Mittelalters der Reformation und Gegenreformation  ,,,,K. Aichele,1974,1,Martinus Nijhoff,,239,0,German ,,,2011 12 30,"9024716446,9789024716449",,,,,809.251,,,,OL4821617M,,0,,,,,1,0,0,22602122,pdf,B22AE3BEAF34BF7512EB52FB71D3264F,,,_505298.b22ae3beaf34bf7512eb52fb71d3264f.pdf,0,2000-01-01 01:00:00,2016-04-03 02:51:08,766000/b22ae3beaf34bf7512eb52fb71d3264f-d.jpg,,
19786648,Inclusion: Developing an Effective Whole School Approach  ,,,,"Alison Ekins, Peter Grimes",2009,1,Open University Press,Maidenhead,175,0,English ,,,2011 12 30,"0-33-523604-9,9780335236046,9780335239467,0-33-523605-7,0335239463",,,,,,,,,,,0,,,,0,0,0,1,4134316,pdf,B22C1337C7CB205CC0F536C510AEA2FC,,,_461715.b22c1337c7cb205cc0f536c510aea2fc.pdf,0,2000-01-01 01:00:00,2016-04-03 02:51:08,766000/b22c1337c7cb205cc0f536c510aea2fc-d.jpg,,
19786649,,,,Duke Mathematical Journal - Volume 105,Jonathan Wahl (Academic Editor),2000,,Duke University Press,,558,0,English,,,2011 12 30,,0012-7094,,,,,,,,,periodic,0,,,,,0,1,1,3505795,pdf,B22C8DCC98A5798FAA04C7C8350E1D90,,ban,_474876.b22c8dcc98a5798faa04c7c8350e1d90.pdf,0,2000-01-01 01:00:00,2016-04-03 02:51:08,766000/b22c8dcc98a5798faa04c7c8350e1d90-g.jpg,,
19786650,מבוא לרובוטיקה : ניסויים  ,,,,"מוטי מאיר, גדי הרמן ושאול זרצקי",2008,,מטח : המרכז לטכנולוגיה חינוכית,,290,0,Hebrew,,,2011 12 30,,,,,,,,,,,,0,,,,0,1,0,0,28765831,pdf,B22F393A6678F61C2FA41A3F54DABBDC,,,_485767.b22f393a6678f61c2fa41a3f54dabbdc.pdf,0,2000-01-01 01:00:00,2016-04-03 02:51:08,766000/b22f393a6678f61c2fa41a3f54dabbdc-g.jpg,,
19786651,"Forts of the American Frontier 1776-1891: California, Oregon, Washington, and Alaska (Fortress)  ",,Fortress 105,,"Ron Field, Adam Hook (illustrator)",2011,First Edition,Osprey Publishing,,65,0,English ,,,2011 12 30,"1849083150,9781849083157",,,,,,,,,OL25256561M,,0,,,,0,0,1,1,4582585,pdf,B2304C1CA9551F316275822C684CA7E9,,,_486977.b2304c1ca9551f316275822c684ca7e9.pdf,0,2000-01-01 01:00:00,2016-04-03 02:51:08,766000/b2304c1ca9551f316275822c684ca7e9-d.jpg,,
19786652,Cryptonomicon (Roman)  ,,,,Neal Stephenson,2001,,Manhattan Verlag,,,0,German ,,,2011 12 30,"3442545293,9783442545292,344245512X,9783442455126,9783894806910",,,,,,,,,,,0,,,,,0,0,1,1646872,epub,B231360642407F5FA8F12A6CFC49C238,,,_479766.b231360642407f5fa8f12a6cfc49c238.epub,0,2000-01-01 01:00:00,2016-04-03 02:51:08,766000/b231360642407f5fa8f12a6cfc49c238-d.jpg,,
19786653,Population Aging: Is Latin America Ready?  ,,,,Daniel Cotlear,2010,,World Bank Publications,,324,0,English ,,,2011 12 30,"0821384872,9780821384879",,,,,305.26098,HQ1064.L29 P67 2010,10.1596/978-0-8213-8487-9,,OL24478865M,,0,,,,1,0,1,1,1770833,pdf,B23225CD8243CE7800E213C7F02C55EE,,,_510507.b23225cd8243ce7800e213c7f02c55ee.pdf,0,2000-01-01 01:00:00,2016-04-03 02:51:08,766000/b23225cd8243ce7800e213c7f02c55ee-d.jpg,,
19786654,Scriber  ,,,,Ben S. Dobson,2011,,,,,0,English ,,,2011 12 30,,,ISBN10:B005P5YOUW,,,,,,,,,0,,,,,0,1,1,568936,mobi,B233627223286DAA4DFA7E4E6F4F2EB9,,,_509755.b233627223286daa4dfa7e4e6f4f2eb9.mobi,0,2000-01-01 01:00:00,2016-04-03 02:51:08,766000/B233627223286DAA4DFA7E4E6F4F2EB9-g.jpg,,
19786655,God of Salvation  ,,,,"Ivor J. Davidson, Murray A. Rae",2011,,Ashgate,,209,0,English ,,,2011 12 30,"0754666190,9780754666196,9781409421672,9781409421627",,,,,234,BT751.3 .G63 2010,,6QFqpWJ__GAC,OL24524374M,,0,,,,1,0,1,1,2262171,pdf,B23401D5300498A2200120319DC8F5E0,,,_435086.b23401d5300498a2200120319dc8f5e0.pdf,0,2000-01-01 01:00:00,2016-04-03 02:51:08,766000/b23401d5300498a2200120319dc8f5e0-d.jpg,,
19786656,Bloom's How to Write About Mark Twain (Bloom's How to Write About Literature)  ,,,,R. Kent Rasmussen,2007,,Chelsea House Pub (L),,335,0,English ,,,2011 12 30,"0791094871,9780791094877",,,,,818/.409,PS1338 .R37 2007,,,OL11149536M,,0,,,,0,1,0,1,19684448,pdf,B2342C1BC1244456230AEF932437AD1E,,,_437423.b2342c1bc1244456230aef932437ad1e.pdf,0,2000-01-01 01:00:00,2016-04-03 02:51:08,766000/b2342c1bc1244456230aef932437ad1e-d.jpg,,
19786657,Det är vår bestämda uppfattning att om ingenting görs nu kommer det att vara för sent  ,,,,Andreas Malm,,,,,365,0,Swedish ,,,2011 12 30,,,,,,,,,,,,0,,,,1,0,1,1,4239502,pdf,B23431D16414B530E8F418C7423BAB05,,,_503363.b23431d16414b530e8f418c7423bab05.pdf,0,2000-01-01 01:00:00,2016-04-03 02:51:08,766000/b23431d16414b530e8f418c7423bab05-g.jpg,,
19786658,"Gay Bar: The Fabulous, True Story of a Daring Woman and Her Boys in the 1950s  ",,,,"Will Fellows, Helen P. Branson",2010,1,University of Wisconsin Press,,188,0,English ,,,2011 12 30,"029924850X,9780299248505,9780299248536",,,,,306.76/627949409045,HQ76.3.U5 F45 2010,,,OL25030210M,,0,,,,1,0,1,1,784424,pdf,B23486B23F6A8273C8F095D286AE807C,,,_460675.b23486b23f6a8273c8f095d286ae807c.pdf,0,2000-01-01 01:00:00,2016-04-03 02:51:08,766000/b23486b23f6a8273c8f095d286ae807c-d.jpg,,
19786659,Дневник белогвардейца : Воспоминания. Мемуары,,,,Будберг А.П.,2001,,АСТ,,335,0,Russian,,,2011 12 30,"9851302880,9789851302884",,,,,,,,JwUjOAAACAAJ,,,0,,,,,1,,1,18646698,pdf,B234A78DEC10E15D8E23B0A187237C12,,,_503157.b234a78dec10e15d8e23b0a187237c12.pdf,0,2000-01-01 01:00:00,2016-04-03 02:51:08,766000/b234a78dec10e15d8e23b0a187237c12-g.jpg,,
19786660,Never Love a Cowboy  ,,,,Lorraine Heath,2000,,Avon,,,0,English ,,,2011 12 30,"0380803305,9780380803309",,,,,,,,,OL24948327M,,0,,,,,1,,,414582,lit,B235F06FD954B40033384705AA02AC5F,,,_443417.b235f06fd954b40033384705aa02ac5f.lit,0,2000-01-01 01:00:00,2016-04-03 02:51:08,766000/b235f06fd954b40033384705aa02ac5f-d.jpg,,
19786661,"How Fascism Ruled Women: Italy, 1922-1945 (A Centennial Book)  ",,,,Victoria de Grazia,1993,,University of California Press,,372,0,English ,,,2011 12 30,"0520074572,9780520074576",,,,,,,,lK9fEvB7ruAC,OL7709619M,,0,,,,0,1,0,0,45147769,pdf,B23779962EB9CDE85126C48656A17E62,,,_502599.b23779962eb9cde85126c48656a17e62.pdf,0,2000-01-01 01:00:00,2016-04-03 02:51:08,766000/b23779962eb9cde85126c48656a17e62-d.jpg,,
19786662,2D Nmr: Density Matrix and Product Operator Treatment  ,,,,"Gheorghe D. Mateescu, Adrian Valeriu",1993,,Prentice Hall,,204,0,English ,,,2011 12 30,"013013368X,9780130133687",,,,,538/.362,QC762 .M267 1993,,,OL1728058M,,0,,,,,1,1,1,6411116,pdf,B23850F7BE823A416AA2A0A828F525F7,,,_454237.b23850f7be823a416aa2a0a828f525f7.pdf,0,2000-01-01 01:00:00,2016-04-03 02:51:08,766000/b23850f7be823a416aa2a0a828f525f7-g.jpg,,
19786663,Ελληνικός Νεανικός Τύπος (1936-1941). Καταγραφή  ,,,,Αγγελική Πανοπούλου-Κώστας Τσικνάκης,1992,,Εταιρεία Μελέτης Νέου Ελληνισμού,,268,0,Greek(Modern),,,2011 12 30,960-7089-06-5,,,,,,,,,,,0,,,,1,1,1,1,17684751,pdf,B23A1F82F17DC516B40EC1ECE1EFF73F,,,_434752.b23a1f82f17dc516b40ec1ece1eff73f.pdf,0,2000-01-01 01:00:00,2016-04-03 02:51:08,766000/b23a1f82f17dc516b40ec1ece1eff73f-g.jpg,,
19786664,Micro Transport Phenomena During Boiling  ,,,,Xiaofeng Peng,2011,1st Edition.,Springer,,271,0,English ,,,2011 12 30,"364213453X,9783642134531",,,,,,,,glhr6eH-LwkC,,,0,,,,1,0,1,1,11892645,pdf,B23B4419D7049C8E74181E9D74441F1E,,,_443430.b23b4419d7049c8e74181e9d74441f1e.pdf,0,2000-01-01 01:00:00,2016-04-03 02:51:08,766000/b23b4419d7049c8e74181e9d74441f1e-d.jpg,,
19786665,نور ملکوت قرآن جلد دوم  ,,,,سید محمد حسین حسینی طهرانی,,,,,642,0,Persian ,,,2011 12 30,,,,,,,,,,,,0,,,,1,0,0,1,5109334,pdf,B23BA6972D515886F6420C396C7BB9D1,,,_464302.b23ba6972d515886f6420c396c7bb9d1.pdf,0,2000-01-01 01:00:00,2016-04-03 02:51:08,766000/b23ba6972d515886f6420c396c7bb9d1-g.jpg,,
19786666,The 100 Absolutely Unbreakable Laws of Business Success  ,,,,Brian Tracy,2000,First Edition,Berrett-Koehler Publishers,,337,0,English ,,,2011 12 30,"1576751074,9781576751077",,,,,650.1,HF5386 .T8139 2000,,,OL17728658M,,0,,,,1,1,1,1,1439168,pdf,B23E93E6D12D7220F640817A012AC04D,,,_436000.b23e93e6d12d7220f640817a012ac04d.pdf,0,2000-01-01 01:00:00,2016-04-03 02:51:08,766000/b23e93e6d12d7220f640817a012ac04d-d.jpg,,
19786667,Heaven's Spite  ,,Jill Kismet 5,,Lilith Saintcrow,2010,1,Orbit,,,0,English ,,,2011 12 30,"0316074179,9780316074179",,,,,813.6,,,AcFTa1vbh8gC,OL24395315M,,0,,,,,0,1,1,329841,epub,B24066F7B72AA88B337D390EF1848C9F,,,_498145.b24066f7b72aa88b337d390ef1848c9f.epub,0,2000-01-01 01:00:00,2016-04-03 02:51:08,766000/b24066f7b72aa88b337d390ef1848c9f-d.jpg,,
19786668,Narcissus and Goldmund  ,,,,Hermann Hesse,,,,,208,0,English ,,,2011 12 30,,,,,,,,,,,,0,,,,,1,0,1,309051,epub,B2414CCF5D62E1C895D9FC363C3F1F2C,,,_431934.b2414ccf5d62e1c895d9fc363c3f1f2c.epub,0,2000-01-01 01:00:00,2016-04-03 02:51:08,766000/B2414CCF5D62E1C895D9FC363C3F1F2C-g.jpg,,
19786669,Smokescreen  ,,,,Dick Francis,2006,,Berkley,,63,0,English ,,,2011 12 30,"0425210251,9780425210253",,,,,,,,,OL7505469M,,0,,,,0,0,0,1,699313,pdf,B241CA8FC03102DA9CCFC60D1BBC9D85,,,_485935.b241ca8fc03102da9ccfc60d1bbc9d85.pdf,0,2000-01-01 01:00:00,2016-04-03 02:51:08,766000/b241ca8fc03102da9ccfc60d1bbc9d85-d.jpg,,
19786670,The Strategy of Satan: How to Detect & Defeat Him  ,,,,Warren W. Wiersbe,2011,1,Tyndale House Publishers,,,0,English ,,,2011 12 30,"0842366652,9780842366656",,,,,248.4/861,BV4501.2 .W5186,,,OL25175052M,,0,,,,0,0,1,1,599606,epub,B2450F443309BD4CAE147A7A576AC563,,,_505238.b2450f443309bd4cae147a7a576ac563.epub,0,2000-01-01 01:00:00,2016-04-03 02:51:08,766000/b2450f443309bd4cae147a7a576ac563-d.jpg,,
19786671,Loves and Lovers in Ancient Pompeii: a Pompeian Erotic Anthology  ,,,,"Matteo Della Corte, A. W. VanBuren",1960,,E. di Mauro,,119,0,English ,,,2011 12 30,,,ISBN10:B0007JFEYQ,,,,,,96jccQAACAAJ,,no,0,,,,1,1,,1,30122821,pdf,B245868F1E0100EA42B54C17006C4685,,,_451388.b245868f1e0100ea42b54c17006c4685.pdf,0,2000-01-01 01:00:00,2016-04-03 02:51:08,766000/b245868f1e0100ea42b54c17006c4685-g.jpg,,
19786672,"Robert Southey: History, Politics, Religion (Nineteenth-Century Major Lives and Letters)  ",,Nineteenth-Century Major Lives and Letters,,Stuart Andrews,2011,1,Palgrave Macmillan,,271,0,English ,,,2011 12 30,"0230115136,9780230115132",,,,,821/.7,PR5467 .A53 2011,,,OL25108963M,,0,,,,1,0,1,1,1664897,pdf,B245AB79A28B15E7D428DE6180E016D1,,,_514137.b245ab79a28b15e7d428de6180e016d1.pdf,0,2000-01-01 01:00:00,2016-04-03 02:51:08,766000/b245ab79a28b15e7d428de6180e016d1-d.jpg,,
19786673,"Constructing the Middle Ages: Historiography, Collective Memory, and Nation-Building in Luxembourg  ",,National Cultivation of Culture 3,,Pit Peporte,2011,,BRILL,,353,0,English ,,,2011 12 30,"9004210679,9789004210677",1876-5645,,,,949.35/01,DH909 .P47 2011,,sD-nZwEACAAJ,OL24906576M,,0,,,,1,0,1,1,13355584,pdf,B2472EF0EE17FF2B131EDA87310C6717,,,_505597.b2472ef0ee17ff2b131eda87310c6717.pdf,0,2000-01-01 01:00:00,2016-04-03 02:51:08,766000/b2472ef0ee17ff2b131eda87310c6717-d.jpg,,
19786674,Secrets from the Vinyl Cafe  ,,,,Stuart McLean,2011,,Penguin Group USA,,,0,English ,,,2011 12 30,9781101486276,,,,,,,,,,,0,,,,,1,1,,210792,epub,B24755AE4F9D8C2E15BE8E786E90B350,,,_441766.b24755ae4f9d8c2e15be8e786e90b350.epub,0,2000-01-01 01:00:00,2016-04-03 02:51:08,766000/B24755AE4F9D8C2E15BE8E786E90B350-g.jpg,,
19786675,From Asgard to Valhalla: The Remarkable History of the Norse Myths  ,,,,Heather O'Donoghue,2007,1st Ed.,I. B. Tauris,,232,0,English ,,,2011 12 30,"1845113578,9781845113575",,,,,,,,,OL22751191M,,0,,,,0,0,0,1,944160,pdf,B247810F53E1A5B21A3A82EBD3024C4B,,,_463506.b247810f53e1a5b21a3a82ebd3024c4b.pdf,0,2000-01-01 01:00:00,2016-04-03 02:51:08,766000/b247810f53e1a5b21a3a82ebd3024c4b-d.jpg,,
19786676,The upgrader's guide to Microsoft Office System 2003  ,,,,"Mike Gunderloy, Susan Sales Harkins",2004,,Que,,332,0,English ,,,2011 12 30,"0789731762,9780789731760",,,,,005.5,HF5548.4.M525 G856 2004,,M_SqUUKsTcsC,OL3314183M,,0,,,,1,0,1,1,7838340,pdf,B248BD95360D0FDDAAAD78332CCEE969,,,_447810.b248bd95360d0fddaaad78332ccee969.pdf,0,2000-01-01 01:00:00,2016-04-03 02:51:08,766000/b248bd95360d0fddaaad78332ccee969-d.jpg,,
19786677,Electromigration in Thin Films and Electronic Devices: Materials and Reliability  ,,,,Choong-Un Kim,2011,,Woodhead Publishing,,345,0,English ,,,2011 12 30,"1845699378,9781845699376",,,,,,,,,OL25214345M,,0,,,,0,1,0,1,7038920,pdf,B2493535B15F9348A9DDC52E8628A2B7,,,_506185.b2493535b15f9348a9ddc52e8628a2b7.pdf,0,2000-01-01 01:00:00,2016-04-03 02:51:08,766000/b2493535b15f9348a9ddc52e8628a2b7-d.jpg,,
19786678,Mechanism of the Heavens (Cambridge Library Collection - Astronomy)  ,,Cambridge Library Collection - Astronomy,,Pierre Simon Marquis de Laplace,2009,1,Cambridge University Press,,698,0,English ,,,2011 12 30,"1108001572,9781108001571",,,,,,,,V8fCPwAACAAJ,,,0,,,,1,1,1,1,10367786,pdf,B24A7769527F478A1055330B018DECA6,,,_447735.b24a7769527f478a1055330b018deca6.pdf,0,2000-01-01 01:00:00,2016-04-03 02:51:08,766000/b24a7769527f478a1055330b018deca6-d.jpg,,
19786679,Myśli nowoczesnego Polaka  ,,,,Roman Dmowski,2002,,Wydawn. Nortom,,117,0,Polish ,,,2011 12 30,"8385829148,9788385829140",,,,,,,,,,,0,,,,,0,1,1,600344,pdf,B24B62E6C744E24CDEC3796893C175E8,,,_434678.b24b62e6c744e24cdec3796893c175e8.pdf,0,2000-01-01 01:00:00,2016-04-03 02:51:08,766000/b24b62e6c744e24cdec3796893c175e8-g.jpg,,
19786680,Pig Island  ,,,,Mo Hayder,2007,,Atlantic Monthly Press,,,0,English ,,,2011 12 30,"0871139529,9780871139528",,,,,813/.54,PR6058.A9776 P545 2007,,,OL24765387M,,0,,,,0,1,1,1,328644,epub,B24B62EFA11FC0942100B4D369E14C9D,,,_445331.b24b62efa11fc0942100b4d369e14c9d.epub,0,2000-01-01 01:00:00,2016-04-03 02:51:08,766000/b24b62efa11fc0942100b4d369e14c9d-d.jpg,,
19786681,100 Case Studies in Pathophysiology  ,,,,Harold J. Bruyere,2008,1 Pap/Cdr,Lippincott Williams & Wilkins,,532,0,English ,,,2011 12 30,"078176145X,9780781761451",,,,,616.07,RB113 .B79 2009,,,OL16753664M,,0,,,,,1,1,1,2803519,pdf,B24BBB133815EDF8C2DFD375514AE031,,,_497886.b24bbb133815edf8c2dfd375514ae031.pdf,0,2000-01-01 01:00:00,2016-04-03 02:51:08,766000/b24bbb133815edf8c2dfd375514ae031-d.jpg,,
19786682,"Antonio Machado en Castilla y León: Exposición : Segovia, febrero-abril, Soria, abril-junio, 2007  ",,,,Juan Manuel Bonet,,,,,296,0,"Spanish,Castilian",,,2011 12 30,"8497184181,9788497184182",,,,,,,,pdXaPAAACAAJ,,,0,,,,,1,,1,13711332,pdf,B24BE27A9D8729CFECB2909EA35B0CAD,,,_474719.b24be27a9d8729cfecb2909ea35b0cad.pdf,0,2000-01-01 01:00:00,2016-04-03 02:51:08,766000/b24be27a9d8729cfecb2909ea35b0cad-g.jpg,,
19786683,Beyond a Joke: The Limits of Humour  ,,,,"Michael Pickering, Sharon Lockyer (editors)",2009,,Palgrave Macmillan,,110,0,English ,,,2011 12 30,"0230594506,9780230594500",,,,,,,,,,,0,,,,,1,,0,11802414,pdf,B24C3DB738B2572077F6D9F54ED3A881,,,_485320.b24c3db738b2572077f6d9f54ed3a881.pdf,0,2000-01-01 01:00:00,2016-04-03 02:51:08,766000/b24c3db738b2572077f6d9f54ed3a881-d.jpg,,
19786684,Macbeth  ,,,,William Shakespeare,,,,,145,0,"Spanish,Castilian",,,2011 12 30,"9781413521870,1413521878",,,,,,,,,,,0,,,,1,0,1,1,303290,pdf,B24CAFA943653E592EC8DECF0D11F4E0,,,_445450.b24cafa943653e592ec8decf0d11f4e0.pdf,0,2000-01-01 01:00:00,2016-04-03 02:51:08,766000/b24cafa943653e592ec8decf0d11f4e0-g.jpg,,
19786685,Multiphysics Modeling Using COMSOL: A First Principles Approach  ,,,,Roger W. Pryor,,1,,,871,0,English ,,,2011 12 30,"0763779997,9780763779993,1934015458,9781934015452",,,,,530.15/18,QC52 .P793 2010,,,OL23697017M,,0,,,,1,0,1,1,40219290,pdf,B24D66F1CE2A7975F04F6911C7D08E21,,,_154120.b24d66f1ce2a7975f04f6911c7d08e21.pdf,0,2000-01-01 01:00:00,2016-04-03 02:51:08,766000/b24d66f1ce2a7975f04f6911c7d08e21-d.jpg,,
19786686,"Leitfaden Geometrie. Für Studierende der Lehrämter, 5. Auflage  ",,,,"Susanne Müller-Philipp, Hans-Joachim Gorski",2011,5. Auflage,Vieweg+Teubner Verlag,,367,0,German ,,,2011 12 30,"383481234X,9783834812346",,,,,,,,PAdSPOBYHPUC,,,0,,,,1,0,1,1,4344887,pdf,B24D734EFC07823D2B1B2A267B64CB31,,,_496923.b24d734efc07823d2b1b2a267b64cb31.pdf,0,2000-01-01 01:00:00,2016-04-03 02:51:08,766000/b24d734efc07823d2b1b2a267b64cb31-d.jpg,,
19786687,Das Geheimnis des weißen Bandes: Ein Sherlock-Holmes-Roman  ,,,,Anthony Horowitz,2011,,Insel Verlag,,,0,German ,,,2011 12 30,"3458175431,9783458175438,9783458770404",,,,,,,,,,,0,,,,,0,1,1,1450246,epub,B25452BDE9B2B61C50D9D2E5F520E406,,,_513462.b25452bde9b2b61c50d9d2e5f520e406.epub,0,2000-01-01 01:00:00,2016-04-03 02:51:08,766000/b25452bde9b2b61c50d9d2e5f520e406-d.jpg,,
19786688,"Defiant (Kris Longknife, Book 3)  ",,Kris Longknife 3,,Mike Shepherd,2005,Kris Longknife #3.,Ace,,268,0,English ,,,2011 12 30,"044101349X,9780441013494",,,,,,,,JzFbhhotVd8C,OL7524298M,,0,,,,0,1,0,1,1579217,pdf,B2545AF8DABDC7198E170FCE5AE0E5DB,,,_486698.b2545af8dabdc7198e170fce5ae0e5db.pdf,0,2000-01-01 01:00:00,2016-04-03 02:51:08,766000/b2545af8dabdc7198e170fce5ae0e5db-d.jpg,,
19786689,The Social Structure of the First Crusade (The Medieval Mediterranean)  ,,The Medieval Mediterranean 76,,Conor Kostick,2008,,BRILL,,337,0,English ,,,2011 12 30,"9004166653,9789004166653",,,,,956/.014,D161.2 .K67 2008,,HQEM2MzGP58C,OL16638653M,,0,,,,1,0,1,1,1260020,pdf,B258BB7D0FCE98D14CB8405D75D19F06,,,_490193.b258bb7d0fce98d14cb8405d75d19f06.pdf,0,2000-01-01 01:00:00,2016-04-03 02:51:08,766000/b258bb7d0fce98d14cb8405d75d19f06-d.jpg,,
19786690,The form of man: human essence in Spinoza's Ethic  ,,"Brill's studies in intellectual history, vol. 11",,Lucia Lermond,1988,,Brill Academic Pub,,96,0,English ,,,2011 12 30,"9004088296,9789004088290",0920-8607,,,,170,B3974 .L47 1988,,,OL2529613M,,0,,,,1,1,1,1,1374886,djvu,B259005A28E705B3D3DFAD7322FBBDFD,,,_495608.b259005a28e705b3d3dfad7322fbbdfd.djvu,0,2000-01-01 01:00:00,2016-04-03 02:51:08,766000/b259005a28e705b3d3dfad7322fbbdfd-g.jpg,,
19786691,Reaching and Teaching the Child with Autism Spectrum Disorder: Using Learning Preferences and Strengths  ,,,,Heather Mackenzie,2008,1,Jessica Kingsley Pub,London ; Philadelphia,274,0,English ,,,2011 12 30,"184310623X,9781843106234,9781846427923,978-1-84310-561-9,1846427924",,,,,618.92/85882,RJ506.A9 M325 2008,,,OL23674679M,,0,,,,0,0,0,1,1873955,pdf,B259105321A7510B93CA94FBBBF5C121,,,_463164.b259105321a7510b93ca94fbbbf5c121.pdf,0,2000-01-01 01:00:00,2016-04-03 02:51:08,766000/b259105321a7510b93ca94fbbbf5c121-d.jpg,,
19786692,Epigenetic risks of cloning  ,,,,Akio Inui,2006,1,Taylor&Francis,,180,0,English ,,,2011 12 30,"0849325277,9780849325274",,,,,660.6’5—dc22,QH442.2.E65 2005,,,OL17174579M,"cover, index",0,,,,0,0,1,1,7812873,pdf,B259D867F7FFD8D83FF0F1AA5AC2B781,,,_444344.b259d867f7ffd8d83ff0f1aa5ac2b781.pdf,0,2000-01-01 01:00:00,2016-04-03 02:51:08,766000/b259d867f7ffd8d83ff0f1aa5ac2b781-d.jpg,,
19786693,Six Feet Over: Adventures in the Afterlife  ,,,,Mary Roach,2010,,Canongate Books,,240,0,English ,,,2011 12 30,"1847676928,9781847676924",,,,,,,,,OL24319983M,,0,,,,,0,1,1,1173677,epub,B261FC3F97A9C50020D82ABB2F510017,,,_509252.b261fc3f97a9c50020d82abb2f510017.epub,0,2000-01-01 01:00:00,2016-04-03 02:51:08,766000/B261FC3F97A9C50020D82ABB2F510017-g.jpg,,
19786694,,,,"Journal of Symbolic Computation, Volume 36, issues 1-6 issue 1-6",Hoon Hong (Editor),2003,,Academic Press,,945,0,English ,,,2011 12 30,"44-161-2756-1,3-540-42230-7",0747-7171,,,,,,10.1016/S0747-7171,,,periodic,0,,,,0,1,0,1,10158807,djvu,B263105E86078B9EF179D514E1A7085C,,ban,_418782.b263105e86078b9ef179d514e1a7085c.djvu,0,2000-01-01 01:00:00,2016-04-03 02:51:08,766000/b263105e86078b9ef179d514e1a7085c-g.jpg,,
19786695,The Cambridge Medieval History - Vol. 3 ; Germany and the Western Empire (facsimile)  ,,,,"J. B. Bury with H. M. Gwatkin, J. P. Whitney, J. R. Tanner and C. W. Previté-Orton",1922,,Macmillan,,788,0,English ,,,2011 12 30,,,,,,,,,,,,0,,,,,1,,1,70277995,pdf,B26413114F702E8F87C30A291DE1E89E,,,_453131.b26413114f702e8f87c30a291de1e89e.pdf,0,2000-01-01 01:00:00,2016-04-03 02:51:08,766000/b26413114f702e8f87c30a291de1e89e-g.jpg,,
19786696,Impact Listening 1 (Student Book with Self-Study Audio CD)  ,,,,"Ellen Kisslinger, Todd Beuckens",2006,2nd,Pearson ESL,,97,0,English ,,,2011 12 30,"9620058011,9789620058011",,,,,428.24,,,,OL13074322M,,0,,,,0,1,0,1,98271342,pdf,B2653F47B35046F084A05D07195FE4EE,,,_508334.b2653f47b35046f084a05d07195fe4ee.pdf,0,2000-01-01 01:00:00,2016-04-03 02:51:08,766000/b2653f47b35046f084a05d07195fe4ee-d.jpg,,
19786697,Eating Disorders in Adult Women  ,,,,"Julian N. Fuchs, Finn Lang",2008,1,Nova Science Pub Inc,,244,0,English ,,,2011 12 30,"1604566736,9781608762484",,,,,,,,,,,0,,,,1,0,1,1,2211869,pdf,B26595B48DC0E5C3C39C72DFB4005875,,,_465598.b26595b48dc0e5c3c39c72dfb4005875.pdf,0,2000-01-01 01:00:00,2016-04-03 02:51:08,766000/b26595b48dc0e5c3c39c72dfb4005875-d.jpg,,
19786698,La mia vita per la libertà. L'autobiografia del profeta della non-violenza  ,,,,Mohandas K. Gandhi,2005,,Newton Compton,,247,0,Italian ,,,2011 12 30,,,,,,,,,,,,0,,,,0,1,0,1,1305111,pdf,B265A414A39A8130E52F5207D10D6C25,,,_486152.b265a414a39a8130e52f5207d10d6c25.pdf,0,2000-01-01 01:00:00,2016-04-03 02:51:08,766000/b265a414a39a8130e52f5207d10d6c25-g.jpg,,
19786699,Culture and Customs of Australia (Culture and Customs of Asia)  ,,Culture and Customs of Asia,,Laurie Clancy,2004,,Greenwood,,212,0,English ,,,2011 12 30,"0313321698,9780313321696",,,,,306/.0994,DU107 .C545 2004,,REN8gTardCUC,OL3681741M,,0,,,,1,0,1,1,856259,pdf,B266DA8E2511099DE3E7E8A2602E2E11,,,_494582.b266da8e2511099de3e7e8a2602e2e11.pdf,0,2000-01-01 01:00:00,2016-04-03 02:51:08,766000/b266da8e2511099de3e7e8a2602e2e11-d.jpg,,
19786700,A Bibliography of the Modern Chap-Books and their Imitators  ,,,,Frederick Winthrop Faxon,,,,,27,0,English ,,,2011 12 30,,,,,,,,,,,,0,,,,,1,0,1,8447662,pdf,B26745B71A2607FB3758EE45CFE67C0D,,,_441282.b26745b71a2607fb3758ee45cfe67c0d.pdf,0,2000-01-01 01:00:00,2016-04-03 02:51:08,766000/b26745b71a2607fb3758ee45cfe67c0d-g.jpg,,
19786701,"A People and a Nation: A History of the United States, Volume II: Since 1865 , Brief Ninth Edition  ",,,,"Mary Beth Norton, Carol Sheriff, David W. Blight, Howard Chudacoff, Fredrik Logevall",2011,9,Wadsworth Publishing,,582,0,English ,,,2011 12 30,"0495916234,9780495916239",,,,,,,,,OL25076671M,,0,,,,,1,,1,114738640,pdf,B267B93A8C498CB5C9F0B6B203F61D7B,,,_472074.b267b93a8c498cb5c9f0b6b203f61d7b.pdf,0,2000-01-01 01:00:00,2016-04-03 02:51:08,766000/b267b93a8c498cb5c9f0b6b203f61d7b-d.jpg,,
19786702,Homo ludens: o podrijetlu kulture u igri  ,,,,Johan Huizinga,1992,,Naprijed,,196,0,Croatian ,,,2011 12 30,"8634902935,9788634902938",,,,,,,,,,,0,,,,1,1,0,1,1403896,pdf,B26B7C0A8A3B7A3EA3691F0AFFC3EF18,,,_432825.b26b7c0a8a3b7a3ea3691f0affc3ef18.pdf,0,2000-01-01 01:00:00,2016-04-03 02:51:08,766000/b26b7c0a8a3b7a3ea3691f0affc3ef18-g.jpg,,
19786703,"Economics: Principles and Policy, 11th Edition  ",,,,"William J. Baumol, Alan S. Blinder",2010,11,South-Western College Pub,,846,0,English ,,,2011 12 30,"1439039127,9781439039120",,,,,,,,jicAcH5TqqUC,OL24621685M,,0,,,,,0,1,1,31090042,pdf,B26BAAD06E006E74923C977038C1037A,,,_464889.b26baad06e006e74923c977038c1037a.pdf,0,2000-01-01 01:00:00,2016-04-03 02:51:08,766000/b26baad06e006e74923c977038c1037a-d.jpg,,
19786704,The Wisdom of Solomon: A New Translation with Introduction and Commentary  ,,The Anchor Bible 43,,David Winston,1979,1St Edition,Doubleday,,385,0,English ,,,2011 12 30,"0385016441,9780385016445",,,,,"220.7/7 s,229/.3/077","BS192.2.A1 1964 .G3 vol. 43,BS1753 .G3 vol. 4",,yx5LPgAACAAJ,OL21128661M,,600,,,,1,1,1,1,22458996,pdf,B26C5096F7B6DC90DB68ACAD673408E0,,,_495583.b26c5096f7b6dc90db68acad673408e0.pdf,0,2000-01-01 01:00:00,2016-04-03 02:51:08,766000/b26c5096f7b6dc90db68acad673408e0-d.jpg,,
19786705,"Management Information Systems - Managing the Digital Firm, 12th Edition  ",,,,"Kenneth C Laudon, Jane P Laudon",2011,12,Prentice Hall PTR,,677,0,English ,,,2011 12 30,"0132142856,9780132142854",,,,,,,,,OL24851312M,,0,,,,1,0,1,1,24293431,pdf,B26EF63DF2A545FA4C0823FC4409647C,,,_463801.b26ef63df2a545fa4c0823fc4409647c.pdf,0,2000-01-01 01:00:00,2016-04-03 02:51:08,766000/b26ef63df2a545fa4c0823fc4409647c-d.jpg,,
19786706,Using Social Theory in Educational Research: A Practical Guide  ,,,,Mark Dressman,2008,1,Routledge,,184,0,English ,,,2011 12 30,"0415436400,9780415436403",,,,,,,,MorJzbvKf8MC,OL10206525M,,0,,,,,0,,1,1342995,pdf,B26F700B2BAEC55F02BC6D84B845A14B,,,_442594.b26f700b2baec55f02bc6d84b845a14b.pdf,0,2000-01-01 01:00:00,2016-04-03 02:51:08,766000/b26f700b2baec55f02bc6d84b845a14b-d.jpg,,
19786707,Dictionary of Pure and Applied Physics (Comprehensive Dictionary of Physics)  ,,,,Dipak Basu,2000,1,CRC Press,,383,0,English ,,,2011 12 30,"084932890X,9780849328909",,,,,,,,,OL17001006M,,0,,,,,1,0,1,53799399,pdf,B273FC9562873A8DF2CDE39BD496E995,,,_446666.b273fc9562873a8df2cde39bd496e995.pdf,0,2000-01-01 01:00:00,2016-04-03 02:51:08,766000/b273fc9562873a8df2cde39bd496e995-d.jpg,,
19786708,,,,"Nature (Nature magazine), Volume 475, pp139-260, S1-S22, E1-E3 : 2011 July 14 issue 7355",Phillip Campbell,2011,,Nature Publishing Group,,149,0,English ,,,2011 12 30,,0028-0836,,,,,Q1 .N2,10.1126/science.1205983,,,periodic,600,,,,1,1,1,1,12397905,djvu,B2749F3989D63B6033B2BCFC36C207A1,,ban,_441648.b2749f3989d63b6033b2bcfc36c207a1.djvu,0,2000-01-01 01:00:00,2016-04-03 02:51:08,766000/b2749f3989d63b6033b2bcfc36c207a1-g.jpg,,
19786709,"True American: Language, Identity, and the Education of Immigrant Children  ",,,,Rosemary C. Salomone,2010,,Harvard University Press,,321,0,English ,,,2011 12 30,"0674046528,9780674046528",,,,,371.82/691,LC3731 .S24 2010,,GPN0IkpLD9UC,OL23697500M,,0,,,,1,0,1,1,917836,pdf,B2751453187638D5C2F8F2C613334AC1,,,_452946.b2751453187638d5c2f8f2c613334ac1.pdf,0,2000-01-01 01:00:00,2016-04-03 02:51:08,766000/b2751453187638d5c2f8f2c613334ac1-d.jpg,,
19786710,Quantum Field Theory: A Modern Introduction  ,,,,Michio Kaku,1993,First Edition,Oxford University Press,,802,0,English ,,,2011 12 30,"0195076524,9780195076523,0195091582,9780195091588",,,,,530.1/43,QC174.45 .K34 1993,,,OL15479064M,,300,,,,1,1,1,1,6567855,pdf,B276032375DD7088DD359CD4A4BE0A3C,,,_505212.b276032375dd7088dd359cd4a4be0a3c.pdf,0,2000-01-01 01:00:00,2016-04-03 02:51:08,766000/b276032375dd7088dd359cd4a4be0a3c-d.jpg,,
19786711,Lionhearted  ,,"Long, Tall Texans 25",,Diana Palmer,2002,,Silhouette,,96,0,English ,,,2011 12 30,,,,,,,,,,,missing front material,0,,,,0,0,0,1,311846,pdf,B276356A9C020453D707E8CE0E4DE54D,,,_439591.b276356a9c020453d707e8ce0e4de54d.pdf,0,2000-01-01 01:00:00,2016-04-03 02:51:08,766000/b276356a9c020453d707e8ce0e4de54d-g.jpg,,
19786712,A Mid-Atlantic Handbook: American and British English  ,,,,Marko Modiano,1996,,Studentlitteratur,,151,0,English ,,,2011 12 30,"9144614519,9789144614519",,,,,,,,,,,0,,,,,1,1,1,1470988,pdf,B277038B09BA72941C1426E9B9E0355C,,,_495488.b277038b09ba72941c1426e9b9e0355c.pdf,0,2000-01-01 01:00:00,2016-04-03 02:51:08,766000/b277038b09ba72941c1426e9b9e0355c-g.jpg,,
19786713,"The Stars, Like Dust  ",,Trantorian Empire 2,,Isaac Asimov,,,,,,0,English ,,,2011 12 30,,,,,,,,,,,,0,,,,,1,1,1,227027,epub,B2772BD45F06C4436DB3BF59AE87EEE9,,,_431154.b2772bd45f06c4436db3bf59ae87eee9.epub,0,2000-01-01 01:00:00,2016-04-03 02:51:08,766000/B2772BD45F06C4436DB3BF59AE87EEE9-g.jpg,,
19786714,La universidad en México hoy: gubernamentalidad y modernización  ,,,,Eduardo Ibarra Colado,,,,,617,0,"Spanish,Castilian",,,2011 12 30,9683690998,,,,,378.10972,LB2341.8.M6 I23 2001,,,OL18727959M,,0,,,,,1,,0,4723594,pdf,B277EBCAE34AD04713F90B8C73E80B17,,,_436701.b277ebcae34ad04713f90b8c73e80b17.pdf,0,2000-01-01 01:00:00,2016-04-03 02:51:08,766000/b277ebcae34ad04713f90b8c73e80b17-g.jpg,,
19786715,Differential Equations of the Second Order With Retarded Argument; TM-31  ,,,,S. B. Norkin,1972,,Amer Mathematical Society,,292,0,English ,,,2011 12 30,"0821838962,9780821838969,0821815814,9780821815816",,,,,515/.35,QA371,,,OL22453465M,,600,,,,,1,,1,2781794,djvu,B2780D54363A0DA1EC5926EC8972E549,,,_435540.b2780d54363a0da1ec5926ec8972e549.djvu,0,2000-01-01 01:00:00,2016-04-03 02:51:08,766000/b2780d54363a0da1ec5926ec8972e549-d.jpg,,
19786716,Between  ,,,,Jessica Warman,2011,,Walker Childrens,,283,0,English ,,,2011 12 30,"0802721826,9780802721822",,,,,,,,,OL25016358M,,0,,,,1,0,1,1,648035,epub,B2786D219743F10FF50883DD3231ECC2,,,_471305.b2786d219743f10ff50883dd3231ecc2.epub,0,2000-01-01 01:00:00,2016-04-03 02:51:08,766000/b2786d219743f10ff50883dd3231ecc2-d.jpg,,
19786717,Wuthering Heights (Puffin Classics)  ,,,,Emily Brontë,2009,,Puffin Books,,,0,English ,,,2011 12 30,"0141955007,9780141955001",,,,,,,,,OL24303545M,,0,,,,1,0,1,1,3375209,epub,B2789FD02250DDA04D617C04DC91E11B,,,_487124.b2789fd02250dda04d617c04dc91e11b.epub,0,2000-01-01 01:00:00,2016-04-03 02:51:08,766000/B2789FD02250DDA04D617C04DC91E11B-g.jpg,,
19786718,Les miracles et autres prodiges  ,,,,François Brune,2000,,Éd. France loisirs,,354,0,French ,,,2011 12 30,"2744140643,9782744140648",,,,,,,,-LCKQwAACAAJ,,,0,,,,,1,,0,13734550,pdf,B279562E25339553C55B744A49FD0084,,,_437509.b279562e25339553c55b744a49fd0084.pdf,0,2000-01-01 01:00:00,2016-04-03 02:51:08,766000/b279562e25339553c55b744a49fd0084-g.jpg,,
19786719,"Advances in Mergers and Acquisitions, Volume 7 (Advances in Mergers and Acquistions)  ",,"Advances in mergers and acquisitions, 7",,"C.L. Cooper, S. Finkelstein",2008,1st ed,Emerald Group Publishing Ltd,Bingley,151,0,English ,,,2011 12 30,"1848551002,978-1-84855-100-8,9781848551015,1848551010",,,,,,,10.1016/S1479-361X,,,,0,,,,0,1,0,1,906303,pdf,B279E16604A40C30C7D2507674F849D2,,,_444725.b279e16604a40c30c7d2507674f849d2.pdf,0,2000-01-01 01:00:00,2016-04-03 02:51:08,766000/b279e16604a40c30c7d2507674f849d2-d.jpg,,
19786720,"The United States Marine Corps: A Chronology, 1775 to the Present  ",,,,John C. Fredriksen,2011,,ABC-CLIO,,372,0,English ,,,2011 12 30,"159884542X,9781598845426,9781598845433",,,,,359.9/60973,VE23 .F735 2011,,lWwfQ0DZj4UC,OL24479747M,,0,,,,1,0,1,1,5673519,pdf,B27A31827C7F66A5F5E913D275CE547C,,,_458157.b27a31827c7f66a5f5e913d275ce547c.pdf,0,2000-01-01 01:00:00,2016-04-03 02:51:08,766000/b27a31827c7f66a5f5e913d275ce547c-d.jpg,,
19786721,Tropical Heat: A Fred Carver Mystery (Book One)  ,,,,John Lutz,2011,,Open Road,,,0,English ,,,2011 12 30,"1453219013,9781453219010",,,,,,,,zVchjgVrIQoC,,,0,,,,,1,,,3050229,epub,B27BC9EC6ED149EAF38118D7DCD86072,,,_488745.b27bc9ec6ed149eaf38118d7dcd86072.epub,0,2000-01-01 01:00:00,2016-04-03 02:51:08,766000/B27BC9EC6ED149EAF38118D7DCD86072-g.jpg,,
19786722,Underground  ,,,,Haruki Murakami,2001,1st Vintage International Ed,Vintage International,,,0,English ,,,2011 12 30,"0375725806,9780375725807",,,,,364.15/23/0952,BP605.O88 M8613 2001,,T8AKS2NEZUgC,OL18331553M,,0,,,,,1,,,2164568,epub,B27C41D557F0C6F9E7B4D34BBA07D922,,,_458359.b27c41d557f0c6f9e7b4d34bba07d922.epub,0,2000-01-01 01:00:00,2016-04-03 02:51:08,766000/b27c41d557f0c6f9e7b4d34bba07d922-d.jpg,,
19786723,Final Stroke  ,,,,Michael Beres,2007,1,Medallion Press,,,0,English ,,,2011 12 30,"1932815953,9781932815955",,,,,813/.6,PS3602.E7516 F56 2007,,,OL12335090M,,0,,,,,1,,,910154,epub,B27D33023172286B84F1665D7E4227CA,,,_464544.b27d33023172286b84f1665d7e4227ca.epub,0,2000-01-01 01:00:00,2016-04-03 02:51:08,766000/b27d33023172286b84f1665d7e4227ca-d.jpg,,
19786724,By Schism Rent Asunder  ,,,,David Weber,2009,Reprint,Tom Doherty Associates,,,0,English ,,,2011 12 30,"0765353989,9780765353986",,,,,,,,EdmxvQHxFmEC,OL24085058M,,0,,,,,1,,,679355,epub,B27E961E931E0D7C5CB1E7C092E9209B,,,_473762.b27e961e931e0d7c5cb1e7c092e9209b.epub,0,2000-01-01 01:00:00,2016-04-03 02:51:08,766000/b27e961e931e0d7c5cb1e7c092e9209b-d.jpg,,
19786725,The Two-Income Trap: Why Middle-Class Parents are Going Broke  ,,,,"Elizabeth Warren, Amelia Warren Tyagi",2004,,Basic Books,,,0,English ,,,2011 12 30,9780465009916,,,,,,,,,,,0,,,,,1,1,1,508270,epub,B27FD983BB09569DDA2E3663DD28D8AC,,,_443873.b27fd983bb09569dda2e3663dd28d8ac.epub,0,2000-01-01 01:00:00,2016-04-03 02:51:08,766000/B27FD983BB09569DDA2E3663DD28D8AC-g.jpg,,
19786726,"Legacy (The Sharing Knife, Book 2)  ",,,,Lois Mcmaster Bujold,2008,,Harper Voyager,,390,0,English ,,,2011 12 30,"0061139068,9780061139062",,,,,,,,,OL9951982M,,0,,,,,1,,1,1886847,pdf,B283ADA7095696301FBB95DFBF430C22,,,_450570.b283ada7095696301fbb95dfbf430c22.pdf,0,2000-01-01 01:00:00,2016-04-03 02:51:08,766000/b283ada7095696301fbb95dfbf430c22-d.jpg,,
19786727,Success in Evolutionary Computation (Studies in Computational Intelligence)  ,,Studies in Computational Intelligence 92,,"Ang Yang, Yin Shan, Lam Thu Bui",2008,1,Springer,,372,0,English ,,,2011 12 30,"354076285X,9783540762850",1860-949X,,,,,,,wytCwGYoAowC,,,0,,,,1,0,1,1,10999893,pdf,B283D044C076A39F4D4E913A4276C8AA,,,_465234.b283d044c076a39f4d4e913a4276c8aa.pdf,0,2000-01-01 01:00:00,2016-04-03 02:51:08,766000/b283d044c076a39f4d4e913a4276c8aa-d.jpg,,
19786728,Chasin' Eight (Rough Riders #11)  ,,,,Lorelei James,2011,,"Samhain Publishing, Ltd.",,402,0,English ,,,2011 12 30,9781609284916,,,,,,,,,,,0,,,,0,1,0,1,1424982,pdf,B286C8A56EFB3513737AE8A06D3D152B,,,_462453.b286c8a56efb3513737ae8a06d3d152b.pdf,0,2000-01-01 01:00:00,2016-04-03 02:51:08,766000/b286c8a56efb3513737ae8a06d3d152b-g.jpg,,
19786729,YOGA FOR THE WESTERN WORLD  ,,,,SIR PAUL DUKES,1958,,Students of Western Yoga,,44,0,English ,,,2011 12 30,,,,,,,,,,,,0,,,,0,1,0,1,5952084,pdf,B287F4C60BF2BCA1BBEE9E2D51298ABA,,,_479286.b287f4c60bf2bca1bbee9e2d51298aba.pdf,0,2000-01-01 01:00:00,2016-04-03 02:51:08,766000/b287f4c60bf2bca1bbee9e2d51298aba-g.jpg,,
19786730,Parlons Turkmene: Turkmence Gepleyaris  ,,,,Blacher Philippe-Sch,2002,,L'Harmattan,,223,0,French ,,,2011 12 30,"2747526836,9782747526838",,,,,,,,,,,0,,,,0,1,0,0,9310536,pdf,B2881D5E344DA7FFD9E0B88AB183CBBF,,,_468712.b2881d5e344da7ffd9e0b88ab183cbbf.pdf,0,2000-01-01 01:00:00,2016-04-03 02:51:08,766000/b2881d5e344da7ffd9e0b88ab183cbbf-d.jpg,,
19786731,Quicksilver  ,,,,Neal Stephenson,2010,,HarperCollins,,,0,English ,,,2011 12 30,9780061792779,,,,,,,,,OL24259408M,,0,,,,,1,1,1,3480079,epub,B289F5A89FEEED2C494ABFFAA6878732,,,_462524.b289f5a89feeed2c494abffaa6878732.epub,0,2000-01-01 01:00:00,2016-04-03 02:51:08,766000/B289F5A89FEEED2C494ABFFAA6878732-g.jpg,,
19786732,Nanowires Science and Technology  ,,,,Nicoleta Lupu (Ed.),2010,,InTech,,410,0,English ,,,2011 12 30,"9789537619893,9537619893",,,,,,,,,,,0,,,,0,0,1,1,66673234,pdf,B28B0687E32EBBC2D29756B2344308C9,,,_464959.b28b0687e32ebbc2d29756b2344308c9.pdf,0,2000-01-01 01:00:00,2016-04-03 02:51:08,766000/b28b0687e32ebbc2d29756b2344308c9-g.jpg,,
19786733,"Geometry of Time-Spaces: Non-Commutative Algebraic Geometry, Applied to Quantum Theory  ",,,,Olav Arnfinn Laudal,2011,1,World Scientific Publishing Company,,154,0,English ,,,2011 12 30,"981434334X,9789814343343",,,,,,,,,,,0,,,,1,0,1,1,952896,pdf,B28B7755F4FD6D93E8BE952E49CBE16E,,,_492852.b28b7755f4fd6d93e8be952e49cbe16e.pdf,0,2000-01-01 01:00:00,2016-04-03 02:51:08,766000/b28b7755f4fd6d93e8be952e49cbe16e-d.jpg,,
19786734,Veterinary Diagnostic Imaging - The Dog and Cat  ,,Veterinary Diagnostic Imaging series,,Charles S. Farrow DVM,2003,1,Mosby,,786,0,English ,,,2011 12 30,"0323012051,9780323012058",,,,,636.7'08960754–dc21,SF991 .F38 2003,,j97OtDGLKecC,OL10461954M,,0,,,,0,0,0,1,155753830,pdf,B28C96E9DE69299B1AC6F82BCF060C54,,,_506647.b28c96e9de69299b1ac6f82bcf060c54.pdf,0,2000-01-01 01:00:00,2016-04-03 02:51:08,766000/b28c96e9de69299b1ac6f82bcf060c54-d.jpg,,
19786735,Every Child Included  ,,,,Dr Rona Tutt,2007,,Sage Publications Ltd,,144,0,English ,,,2011 12 30,"1412944880,1412944899,9781412944885,9781412944892",,,,,,,,,OL11717142M,,0,,,,1,0,1,1,4302098,pdf,B28D15C59294E538DB25619F9D66038F,,,_455015.b28d15c59294e538db25619f9d66038f.pdf,0,2000-01-01 01:00:00,2016-04-03 02:51:08,766000/b28d15c59294e538db25619f9d66038f-d.jpg,,
19786736,Mathematics: A Very Short Introduction  ,,,,Timothy Gowers,2002,1st,"Oxford University Press, USA",,152,0,English ,,,2011 12 30,"0192853619,9780192853615",,,,,510,QA93 .G69 2002,,,OL7384524M,,0,,,,1,0,1,1,3595898,pdf,B28D25EB5C2F586C52D49B91CE4B9AD6,,,_457476.b28d25eb5c2f586c52d49b91ce4b9ad6.pdf,0,2000-01-01 01:00:00,2016-04-03 02:51:08,766000/b28d25eb5c2f586c52d49b91ce4b9ad6-d.jpg,,
19786737,Handbook of Nonlinear Optical Crystals (Springer Series in Optical Sciences)  ,,Springer Series in Optical Sciences,,"Valentin G. Dmitriev, Gagik G. Gurzadyan, David N. Nikogosyan",1999,Third Revised Edition,Springer,,430,0,English ,,,2011 12 30,"3540653945,9783540653943",0342-4111,,,,621.36/6,QC374 .G8713 1999,,,OL34142M,,0,,,,1,1,,1,21584360,pdf,B28D7709869638A961F8B2F610D1B1C0,,,_443424.b28d7709869638a961f8b2f610d1b1c0.pdf,0,2000-01-01 01:00:00,2016-04-03 02:51:08,766000/b28d7709869638a961f8b2f610d1b1c0-d.jpg,,
19786738,Bomba 4: Bomba auf der Jaguarinsel  ,,,,"Rockwood, Roy",1952,,AWA-VERLAG MÜNCHEN 8,,149,0,German ,,,2011 12 30,,,ISBN10:B0000BT9BU,,,,,,,,,0,,,,0,1,0,1,758376,pdf,B28E08A1526F1230735B5176AA10BDAE,,,_492728.b28e08a1526f1230735b5176aa10bdae.pdf,0,2000-01-01 01:00:00,2016-04-03 02:51:08,766000/b28e08a1526f1230735b5176aa10bdae-g.jpg,,
19786739,Letters to Elise: A Peter Townsend Novella (My Blood Approves)  ,,,,Amanda Hocking,2010,,Amazon Digital Services,,,0,English ,,,2011 12 30,,,ISBN10:B004GUSE2Q,,,,,,,,,0,,,,,1,,,416024,epub,B290A4869DFB3C13D7772B9B99F73E3E,,,_456632.b290a4869dfb3c13d7772b9b99f73e3e.epub,0,2000-01-01 01:00:00,2016-04-03 02:51:08,766000/B290A4869DFB3C13D7772B9B99F73E3E-g.jpg,,
19786740,I figli della paura  ,,,,Dan Simmons,1997,,,,403,0,Italian ,,,2011 12 30,,,,,,,,,,,,0,,,,0,1,0,1,1390832,pdf,B291057D6682CED192C9EA4FDFBD6683,,,_513354.b291057d6682ced192c9ea4fdfbd6683.pdf,0,2000-01-01 01:00:00,2016-04-03 02:51:08,766000/b291057d6682ced192c9ea4fdfbd6683-g.jpg,,
19786741,Work! Consume! Die!  ,,,,Frankie Boyle,2011,,HarperCollins Publishers,,,0,English ,,,2011 12 30,"000742681X,000742678X,0007426801,9780007426812,9780007426782,9780007426805",,,,,,,,5bLV412kgWgC,,,0,,,,,0,1,1,1419615,epub,B29119ACD39B063E3A0EACE0AE469BCC,,,_501683.b29119acd39b063e3a0eace0ae469bcc.epub,0,2000-01-01 01:00:00,2016-04-03 02:51:08,766000/b29119acd39b063e3a0eace0ae469bcc-d.jpg,,
19786742,Cassandra High Performance Cookbook  ,,,,Edward Capriolo,2011,,Packt Publishing,,325,0,English ,,,2011 12 30,"1849515123,9781849515122",,,,,,,,,,,0,,,,1,0,1,1,4945106,pdf,B2916DAC282FB4B4436A2F72FBC4DDB4,,,_449045.b2916dac282fb4b4436a2f72fbc4ddb4.pdf,0,2000-01-01 01:00:00,2016-04-03 02:51:08,766000/b2916dac282fb4b4436a2f72fbc4ddb4-d.jpg,,
19786743,Tideland  ,,,,Mitch Cullin,2000,1St Edition,Dufour Editions,,,0,English ,,,2011 12 30,"0802313353,9780802313355",,,,,813/.54,PS3553.U319 T53 2000,,,OL6781026M,,0,,,,,1,1,1,446014,epub,B29225F999E56D011D5C2A36A0C6B96B,,,_491923.b29225f999e56d011d5c2a36a0c6b96b.epub,0,2000-01-01 01:00:00,2016-04-03 02:51:08,766000/b29225f999e56d011d5c2a36a0c6b96b-d.jpg,,
19786744,"Hand Bone Age: A Digital Atlas of Skeletal Maturity, 2nd Ed  ",,,,Vicente Gilsanz and Osman Ratib,2012,2nd,,,103,0,English,,,2011 12 30,"3642237614,9783642237614",,,,,,,10.1007/978-3-642-23762-1,,,,0,,,,1,1,1,1,4066688,pdf,B292504D3620109D9BA68A95704EBFFA,,,_503587.b292504d3620109d9ba68a95704ebffa.pdf,0,2000-01-01 01:00:00,2016-04-03 02:51:08,766000/b292504d3620109d9ba68a95704ebffa-d.jpg,,
19786745,The Discovery of the Self: A Study in Psychological Cure  ,,,,Elizabeth Severn,1933,,,,112,0,English ,,,2011 12 30,,,,,,,,,,,,0,,,,,1,1,0,7117822,pdf,B293A4C4743D28F107CA200F0023278E,,,_434679.b293a4c4743d28f107ca200f0023278e.pdf,0,2000-01-01 01:00:00,2016-04-03 02:51:08,766000/b293a4c4743d28f107ca200f0023278e-g.jpg,,
19786746,Plantas medicinales: La experiencia de Tinguipaya  ,,,,Alberto Camaqui Mendoza,2009,,Cooperación Italiana en la Región Andina,,284,0,"Spanish,Castilian",,,2011 12 30,978-99954-751-3-0,,,,,,,,,,,0,,,,,1,,1,6512107,pdf,B2951F3E05FBCE69389A670FB18ABB4E,,,_445687.b2951f3e05fbce69389a670fb18abb4e.pdf,0,2000-01-01 01:00:00,2016-04-03 02:51:08,766000/b2951f3e05fbce69389a670fb18abb4e-g.jpg,,
19786747,Kurze Grammatik der georgischen Sprache  ,,,,Heinz Fähnrich,1986,"2., unverand. Aufl",VEB Verlag Enzyklopädie,,97,0,German ,,,2011 12 30,"3324000181,9783324000185",,,,,499/.96,PK9106 .F345 1987,,,OL20800448M,,0,,,,0,1,1,0,8361686,pdf,B29551032F64F7B20DF482A2585E5CAF,,,_496980.b29551032f64f7b20df482a2585e5caf.pdf,0,2000-01-01 01:00:00,2016-04-03 02:51:08,766000/b29551032f64f7b20df482a2585e5caf-d.jpg,,
19786748,Flash Memories  ,,,,Igor Stievano (editor),2011,,InTech,,274,0,English ,,,2011 12 30,978-953-307-272-2,,,,,,,,,,,0,,,,0,1,1,1,17361885,pdf,B29585D2E19CBAA80D5A44E92DA4EA77,,,_462698.b29585d2e19cbaa80d5a44e92da4ea77.pdf,0,2000-01-01 01:00:00,2016-04-03 02:51:08,767000/b29585d2e19cbaa80d5a44e92da4ea77-g.jpg,,
19786749,The Essential Performance Review Handbook: A Quick and Handy Resource For Any Manager or HR Professional  ,,,,Sharon Armstrong,2010,1,Career Press,,225,0,English ,,,2011 12 30,"1601631138,9781601631138",,,,,658.3/125,HF5549.5.R3 A7596 2010,,BY_8QQAACAAJ,OL24110721M,,0,,,,1,0,1,1,999100,pdf,B2964A5393DAE55F3F6F0470955612E6,,,_466565.b2964a5393dae55f3f6f0470955612e6.pdf,0,2000-01-01 01:00:00,2016-04-03 02:51:08,767000/b2964a5393dae55f3f6f0470955612e6-d.jpg,,
19786750,"Chalcogenide Photovoltaics: Physics, Technologies, and Thin Film Devices  ",,,,"Roland Scheer, Hans-Werner Schock",2011,1,Wiley-VCH,,386,0,English ,,,2011 12 30,"3527314598,9783527314591",,,,,621.38152,,,3Zn1wjEy1l8C,OL12767467M,,0,,,,1,0,1,1,3017195,pdf,B296623D394D0C0E8A9EFAAD8A596598,,,_503663.b296623d394d0c0e8a9efaad8a596598.pdf,0,2000-01-01 01:00:00,2016-04-03 02:51:08,767000/b296623d394d0c0e8a9efaad8a596598-d.jpg,,
19786751,Художественная галерея № 195. Серебрякова  ,,Художественная галерея,,Панфилов А. (ed.),2008,,DeAgostini,,32,0,Russian ,,,2011 12 30,,,,,,,,,,,periodic,0,,,,1,1,0,0,1406872,djvu,B2971180E5A18661EDA32390FCEFDF35,3f937b4b29e693eeaa588b3b9fb56138,ban,_474230.b2971180e5a18661eda32390fcefdf35.djvu,0,2000-01-01 01:00:00,2016-04-03 02:51:08,767000/b2971180e5a18661eda32390fcefdf35-g.jpg,,
19786752,"Henri Lefebvre on Space: Architecture, Urban Research, and the Production of Theory  ",,,,Lukasz Stanek,2011,,Univ Of Minnesota Press,,388,0,English ,,,2011 12 30,"0816666172,9780816666171,0816666164,9780816666164",,,,,304.2/3,H61.15 .S73 2011,,IJAsBHN02nwC,OL25109013M,,0,,,,1,0,1,1,12787109,pdf,B29B0436456D1F97890E67F1828F6052,,,_477790.b29b0436456d1f97890e67f1828f6052.pdf,0,2000-01-01 01:00:00,2016-04-03 02:51:08,767000/b29b0436456d1f97890e67f1828f6052-d.jpg,,
19786753,The Right Woman (Twins) (Harlequin Superromance)  ,,Harlequin Superromance 1221,,Linda Warren,2004,,Harlequin,,405,0,English ,,,2011 12 30,9781426881947,,,,,,,,HAjVIds8MzsC,,,0,,,,,0,1,1,1008552,mobi,B29D405E9CFD3E21A3A21E28DFBBD3A5,,,_460417.b29d405e9cfd3e21a3a21e28dfbbd3a5.mobi,0,2000-01-01 01:00:00,2016-04-03 02:51:08,767000/B29D405E9CFD3E21A3A21E28DFBBD3A5-g.jpg,,
19786754,Rudolf Steiner (Continuum Library Of Educational Thought)  ,,Continuum Library Of Educational Thought,,Heiner Ullrich,2008,,Continuum,,279,0,English ,,,2011 12 30,"0826484190,9780826484192",,,,,"370.92,B",LB775.S72 U5713 2008,,,OL23158906M,,0,,,,1,1,1,1,11375919,pdf,B29F65D8F75F98F84B9A8554FB5F8770,,,_469086.b29f65d8f75f98f84b9a8554fb5f8770.pdf,0,2000-01-01 01:00:00,2016-04-03 02:51:08,767000/b29f65d8f75f98f84b9a8554fb5f8770-d.jpg,,
19786755,The Last Days of a Rake  ,,,,Donna Lea Simpson,2010,,Carina Press,,,0,English ,,,2011 12 30,"1426890192,9781426890192",,,,,,,,,,,0,,,,0,0,1,1,426899,epub,B2A256164CE19A454994BE1BD8240C60,,,_505106.b2a256164ce19a454994be1bd8240c60.epub,0,2000-01-01 01:00:00,2016-04-03 02:51:08,767000/B2A256164CE19A454994BE1BD8240C60-g.jpg,,
19786756,Αρχαία ελληνική γραμματολογία (Archaia Hellēnikē grammatologia)  ,,ΑΡΧΑΙΟΓΝΩΣΙΑ ΚΑΙ ΑΡΧΑΙΟΓΛΩΣΣΙΑ ΣΤΗ ΜΕΣΗ ΕΚΠΑΙΔΕΥΣΗ 3,,Φάνης Ι. Κακριδής (Phanēs I. Kakridēs),2005,,Ινστιτούτο Νεοελληνικών Σπουδών (Ίδρυμα Μανόλη Τριανταφυλλίδη),,320,0,Greek(Modern),,,2011 12 30,"9602311142,9789602311141",,,,,,,,,OL24486427M,,0,,,,0,1,1,1,7137972,pdf,B2A26DD1129C56ED537D85C99332E96E,,,_511399.b2a26dd1129c56ed537d85c99332e96e.pdf,0,2000-01-01 01:00:00,2016-04-03 02:51:08,767000/b2a26dd1129c56ed537d85c99332e96e-g.jpg,,
19786757,Rebuilding Lives After Domestic Violence: Understanding Long-Term Outcomes  ,,,,Hilary Abrahams,2010,1,Jessica Kingsley Publishers,,209,0,English ,,,2011 12 30,"1843109611,9781843109617,9780857003201",,,,,362.82/92,HV6626 .A158 2007,,,OL23962399M,,0,,,,1,0,1,1,895823,pdf,B2A2AA64FAC666B09AF7885503D1D597,,,_463519.b2a2aa64fac666b09af7885503d1d597.pdf,0,2000-01-01 01:00:00,2016-04-03 02:51:08,767000/b2a2aa64fac666b09af7885503d1d597-d.jpg,,
19786758,Red: My Autobiography  ,,,,Gary Neville,2011,,Transworld,,,0,English ,,,2011 12 30,"1446465195,9781446465196",,,,,,,,KZvHwtAB1ekC,,,0,,,,,1,,,2132415,epub,B2A328B0BCD2F72586F968DAD16F5B1C,,,_473927.b2a328b0bcd2f72586f968dad16f5b1c.epub,0,2000-01-01 01:00:00,2016-04-03 02:51:08,767000/B2A328B0BCD2F72586F968DAD16F5B1C-g.jpg,,
19786759,Candy  ,,,,Terry Southern & Mason Hoffenberg,1996,,Grove Press,,137,0,English ,,,2011 12 30,,,,,,,,,,,,0,,,,0,1,1,1,902296,epub,B2A4C6C377837FF83E86C51CA9DB6774,,,_459751.b2a4c6c377837ff83e86c51ca9db6774.epub,0,2000-01-01 01:00:00,2016-04-03 02:51:08,767000/B2A4C6C377837FF83E86C51CA9DB6774-g.jpg,,
19786760,Poets of Jewish Culture (Critical Survey of Poetry)  ,,Critical Survey of Poetry,,Rosemary M. Canfield Reisman,2011,,Salem Press Inc,,274,0,English ,,,2011 12 30,9781587659140,,,,,,,,,,,0,,,,1,0,1,1,1365485,pdf,B2A662A1C0DE44704431AB4AE0D15BFC,,,_504044.b2a662a1c0de44704431ab4ae0d15bfc.pdf,0,2000-01-01 01:00:00,2016-04-03 02:51:08,767000/b2a662a1c0de44704431ab4ae0d15bfc-g.jpg,,
19786761,The Shard Axe: An Eberron Novel  ,,,,Marsheila Rockwell,2011,,Wizards of the Coast Publishing,,,0,English ,,,2011 12 30,"0786959339,9780786959334",,,,,,,,TXymOYqySi4C,,,0,,,,,1,,,614020,mobi,B2AA1492DEFA8898F44E90A7996B394A,,,_498302.b2aa1492defa8898f44e90a7996b394a.mobi,0,2000-01-01 01:00:00,2016-04-03 02:51:08,767000/B2AA1492DEFA8898F44E90A7996B394A-g.jpg,,
19786762,Karl Marx and the Close of His System - Böhm-Bawerk Criticism of Marx - On the Correction of Marx's Fundamental Theoretical Construction in the Third Volume of Capital  ,,,,"Eugen von Böhm-Bawerk , Rudolf Hilferding , Ladislaus von Bortkiewicz",1949,,Augustus Kelley,,256,0,English ,,,2011 12 30,9781610160087,,,,,,,,BbDnRMCfEUUC,,,0,,,,0,1,1,1,11031158,pdf,B2AA9B3C8AAD00BA2130D44CE014202D,,,_491879.b2aa9b3c8aad00ba2130d44ce014202d.pdf,0,2000-01-01 01:00:00,2016-04-03 02:51:08,767000/b2aa9b3c8aad00ba2130d44ce014202d-g.jpg,,
19786763,Methods in Biological Oxidative Stress (Methods in Pharmacology and Toxicology)  ,,Methods in Pharmacology and Toxicology,,Robert A. Floyd,2003,1st,Humana Press,,234,0,English ,,,2011 12 30,"0896038157,9780896038158",,,,,616.07,RB170 .M48 2003,,6tdn_kdESXgC,OL21801488M,,0,,,,0,0,0,1,7317809,pdf,B2AE080B20C0F51B47DC23CE80EB5450,,,_444347.b2ae080b20c0f51b47dc23ce80eb5450.pdf,0,2000-01-01 01:00:00,2016-04-03 02:51:08,767000/b2ae080b20c0f51b47dc23ce80eb5450-d.jpg,,
19786764,"Advanced Engineering Mathematics, 7th Edition  ",,,,Peter V. O'Neil,2011,7th Ed.,Cengage,,913,0,English ,,,2011 12 30,"1111427410,9781111427412",,,,,,,,,,,0,,,,1,1,1,1,24679264,pdf,B2AE1DC1188A6C01A1C6ED3C6B319FF2,,,_454047.b2ae1dc1188a6c01a1c6ed3c6b319ff2.pdf,0,2000-01-01 01:00:00,2016-04-03 02:51:08,767000/b2ae1dc1188a6c01a1c6ed3c6b319ff2-d.jpg,,
19786765,Comet in Moominland  ,,,,Tove Jansson,2003,,Penguin Books Ltd,,195,0,English ,,,2011 12 30,"0141326433,9780141326436",,,,,,,,9S6hVVGOIp4C,OL24315581M,,0,,,,,1,,1,8622947,epub,B2AF250701D0CBD0731CB530578CB3AC,,,_471513.b2af250701d0cbd0731cb530578cb3ac.epub,0,2000-01-01 01:00:00,2016-04-03 02:51:08,767000/B2AF250701D0CBD0731CB530578CB3AC-g.jpg,,
19786766,The Intentional Spectrum and Intersubjectivity: Phenomenology and the Pittsburgh Neo-Hegelians (Series In Continental Thought)  ,,Series In Continental Thought,,Michael D. Barber,2011,1,Ohio University Press,,343,0,English ,,,2011 12 30,"0821419617,9780821419618",,,,,121/.34,B1647.M144 B37 2011,,,OL24917435M,,0,,,,1,0,1,1,1038366,pdf,B2AFBE588B789D1E9A2660DDDE1D7CB7,,,_477569.b2afbe588b789d1e9a2660ddde1d7cb7.pdf,0,2000-01-01 01:00:00,2016-04-03 02:51:08,767000/b2afbe588b789d1e9a2660ddde1d7cb7-d.jpg,,
19786767,Celtic Warrior: 300 BC-AD 100  ,,Warrior 30,,Stephen Allen,2001,First Edition,Osprey Publishing,,67,0,English ,,,2011 12 30,"1841761435,9781841761435",,,,,,,,M1RopeW8XQ4C,OL8922136M,,0,,,,,1,,0,31813053,pdf,B2B02801C01B390ED64F84986AB6C7A2,,,_493458.b2b02801c01b390ed64f84986ab6c7a2.pdf,0,2000-01-01 01:00:00,2016-04-03 02:51:08,767000/b2b02801c01b390ed64f84986ab6c7a2-d.jpg,,
19786768,Tief: Thriller  ,,,,Mike Croft,2011,,Dumont Buchverlag,,,0,German ,,,2011 12 30,"3832161228,9783832161224,9783832185626",,,,,,,,,,,0,,,,,0,0,1,2137070,epub,B2B15F0D5E4145D7BB42D995716BA75F,,,_462395.b2b15f0d5e4145d7bb42d995716ba75f.epub,0,2000-01-01 01:00:00,2016-04-03 02:51:08,767000/B2B15F0D5E4145D7BB42D995716BA75F-g.jpg,,
19786769,"Handbook of Metaheuristics, Second Edition (International Series in Operations Research & Management Science, Volume 146)  ",,International Series in Operations Research &amp; Management Science 146,,"Michel Gendreau, Jean-Yves Potvin",,2nd ed. 2010,,,669,0,English,,,2011 12 30,"1441916636,9781441916655,9781441916631",,,,,,,10.1007/978-1-4419-1665-5,xMTS5dyDhwMC,,,0,,,,,1,1,1,5764086,pdf,B2B23E10D3DE6E493873F6935ACE9A19,,,_202192.b2b23e10d3de6e493873f6935ace9a19.pdf,0,2000-01-01 01:00:00,2016-04-03 02:51:08,767000/b2b23e10d3de6e493873f6935ace9a19-d.jpg,,
19786770,Pirate Modernity: Delhi's Media Urbanism (Routledge Studies in Asia's Transformations)  ,,,,Ravi Sundaram,2009,1,Routledge,,121,0,English ,,,2011 12 30,"0415409667,9780415409667",,,,,302.230954,P94.65.I4 S86 2009,,,OL10205246M,,0,,,,,1,,1,10412823,pdf,B2B2528BE6078F321A5B9CD2E2AB9B47,,,_474284.b2b2528be6078f321a5b9cd2e2ab9b47.pdf,0,2000-01-01 01:00:00,2016-04-03 02:51:08,767000/b2b2528be6078f321a5b9cd2e2ab9b47-d.jpg,,
19786771,Adenosine Receptors: Therapeutic Aspects for Inflammatory and Immune Diseases  ,,,,"Gyorgy Hasko, Bruce N. Cronstein, Csaba Szabo",2006,1,CRC Press,,352,0,English ,,,2011 12 30,"0849339995,9780849339998",,,,,615.7,,,,OL8260316M,missing index,0,,,,1,0,1,1,8848673,pdf,B2B7A737695C7FEA6E8D474091074817,,,_495935.b2b7a737695c7fea6e8d474091074817.pdf,0,2000-01-01 01:00:00,2016-04-03 02:51:08,767000/b2b7a737695c7fea6e8d474091074817-d.jpg,,
19786772,Arms and the women: an elliad  ,,,,Reginald Hill,2000,First Edition,HarperCollins,,,0,Danish ,,,2011 12 30,"0002258455,9780002258456",,,,,,,,S34gAQAAIAAJ,OL7255877M,,0,,,,,1,,,599107,mobi,B2B7EEAEC26D640D9E58A508ED26CAF2,,,_465967.b2b7eeaec26d640d9e58a508ed26caf2.mobi,0,2000-01-01 01:00:00,2016-04-03 02:51:08,767000/b2b7eeaec26d640d9e58a508ed26caf2-d.jpg,,
19786773,Race of Scorpions: The Third Book of The House of Niccolò  ,,The House of Niccolò,,Dorothy Dunnett,2010,,Vintage,,,0,English ,,,2011 12 30,"0307762386,9780307762382",,,,,823′.914—dc20,PR6054.U56R3 1990,,Z2ErAAAAYAAJ,,,0,,,,0,0,1,1,2851469,epub,B2B817C7E4E4F556062D233BAB557B6F,,,_496794.b2b817c7e4e4f556062d233bab557b6f.epub,0,2000-01-01 01:00:00,2016-04-03 02:51:08,767000/B2B817C7E4E4F556062D233BAB557B6F-g.jpg,,
19786774,Sirantha Jax 4 Killbox  ,,Sirantha Jax Book 4,,Ann Aguirre,2010,,Penguin Group (USA) Incorporated,,,0,English ,,,2011 12 30,9781101442524,,,,,,,,-R49TxMGoC0C,,,0,,,,,0,0,1,446271,epub,B2BAC61D4017214F0B6DF9905C1BE200,,,_445694.b2bac61d4017214f0b6df9905c1be200.epub,0,2000-01-01 01:00:00,2016-04-03 02:51:08,767000/B2BAC61D4017214F0B6DF9905C1BE200-g.jpg,,
19786775,The Design of Active Crossovers  ,,,,Douglas Self,2011,1,Focal Press,,605,0,English ,,,2011 12 30,"0240817389,9780240817385",,,,,621.3815/324,TK7872.F5 S447 2011,,E01DvO2nsH0C,OL25004500M,,0,,,,1,0,1,1,11452371,pdf,B2BADE3E7A60CE7E6A0836A24CB66BCC,,,_504356.b2bade3e7a60ce7e6a0836a24cb66bcc.pdf,0,2000-01-01 01:00:00,2016-04-03 02:51:08,767000/b2bade3e7a60ce7e6a0836a24cb66bcc-d.jpg,,
19786776,A Prehistory of Polymer Science  ,,SpringerBriefs in Molecular Science,,Gary Patterson,2011,2012,Springer,,56,0,English,,,2011 12 30,"3642216366,9783642216367",,,,,,,10.1007/978-3-642-21637-4,,,,0,,,,,0,1,1,1219749,pdf,B2BEDA7D34598C6769918323CB07B547,,,_497765.b2beda7d34598c6769918323cb07b547.pdf,0,2000-01-01 01:00:00,2016-04-03 02:51:08,767000/b2beda7d34598c6769918323cb07b547-d.jpg,,
19786777,עולמה של ספרות האגדה  ,,,,אביגדור שנאן,1987,,"משרד הביטחון, האוניברסיטה המשודרת",,128,0,Hebrew,,,2011 12 30,9650502939,,,,,,,,XnowAAAAYAAJ,OL17855959M,,0,,,,0,1,0,0,15846821,pdf,B2BF89A47787BE66DA9576A3A22B67E7,,,_474075.b2bf89a47787be66da9576a3a22b67e7.pdf,0,2000-01-01 01:00:00,2016-04-03 02:51:08,767000/b2bf89a47787be66da9576a3a22b67e7-g.jpg,,
19786778,Sources of the Jesus Tradition: Separating History from Myth  ,,,,R. Joseph Hoffmann,2010,,Prometheus Books,,703,0,English ,,,2011 12 30,"1616141891,9781616141899",,,,,232.9,BT303.2 .S66 2010,,,OL25242938M,,0,,,,0,0,1,1,2684001,pdf,B2C2297BEA69143CF621A225127ED216,,,_444173.b2c2297bea69143cf621a225127ed216.pdf,0,2000-01-01 01:00:00,2016-04-03 02:51:08,767000/b2c2297bea69143cf621a225127ed216-d.jpg,,
19786779,"The Wizard (The Wizard Knight, Book 2)  ",,,,Gene Wolfe,2004,1st,Tor Books,,430,0,English ,,,2011 12 30,"0765312018,9780765312013",,,,,813/.54,PS3573.O52 W59 2004,,,OL3305057M,,0,,,,,1,,1,3686620,pdf,B2C2FE00D9D8C3A8D6613B41924747A4,,,_450527.b2c2fe00d9d8c3a8d6613b41924747a4.pdf,0,2000-01-01 01:00:00,2016-04-03 02:51:08,767000/b2c2fe00d9d8c3a8d6613b41924747a4-d.jpg,,
19786780,Down's Syndrome: Children Growing Up  ,,,,Janet Carr,1995,1,Cambridge University Press,,217,0,English ,,,2011 12 30,"0521469333,9780521469333,052146532X,9780521465328",,,,,362.1/96858842,RJ506.D68 C36 1995,,,OL1120521M,,0,,,,1,1,1,1,2631907,pdf,B2C8BEFBE37B7B50FB0950482CF24E6D,,,_435132.b2c8befbe37b7b50fb0950482cf24e6d.pdf,0,2000-01-01 01:00:00,2016-04-03 02:51:08,767000/b2c8befbe37b7b50fb0950482cf24e6d-d.jpg,,
19786781,L'accumulation du capital : Contribution à l’explication économique de l’impérialisme  ,,,,Rosa Luxemburg,,,,,185,0,French ,,,2011 12 30,,,,,,,,,,,,0,,,,1,1,0,1,1012530,pdf,B2CB7E8A7C14C41D92448467E13386EF,,,_512760.b2cb7e8a7c14c41d92448467e13386ef.pdf,0,2000-01-01 01:00:00,2016-04-03 02:51:08,767000/b2cb7e8a7c14c41d92448467e13386ef-g.jpg,,
19786782,Putting Choice Before Democracy: A Critique of Rational Choice Theory  ,,,,Emily Hauptmann,1996,,SUNY Press,,,0,English ,,,2011 12 30,"0791430278,9780791430279",,,,,321.8/01,JC423 .H377 1996,,YIAhjiZ_7WMC,OL801010M,,0,,,,,1,,,280829,epub,B2CFECC8ADC78D51698980A1D9531BD8,,,_468887.b2cfecc8adc78d51698980a1d9531bd8.epub,0,2000-01-01 01:00:00,2016-04-03 02:51:08,767000/B2CFECC8ADC78D51698980A1D9531BD8-g.jpg,,
19786783,The Amateur Poacher (Cambridge Library Collection - History)  ,,Cambridge Library Collection - History,,Richard Jefferies,2009,1,Cambridge University Press,,256,0,English ,,,2011 12 30,"1108004091,9781108004091",,,,,,,,,,,0,,,,,1,1,1,6666578,pdf,B2D054C93F19D80F7427275167066129,,,_502582.b2d054c93f19d80f7427275167066129.pdf,0,2000-01-01 01:00:00,2016-04-03 02:51:08,767000/b2d054c93f19d80f7427275167066129-d.jpg,,
19786784,"Dornenthron (Dark Swan, Band 2)  ",,,,Richelle Mead,2010,,Lyx Verlag,,,0,German ,,,2011 12 30,"3802582128,9783802582127,9783802587115",,,,,,,,,,,0,,,,,0,0,1,1019858,epub,B2D1997C87DAB546F10AFBECD813FD5B,,,_488374.b2d1997c87dab546f10afbecd813fd5b.epub,0,2000-01-01 01:00:00,2016-04-03 02:51:08,767000/B2D1997C87DAB546F10AFBECD813FD5B-g.jpg,,
19786785,The Metaphysical Club : A Story of Ideas in America  ,,,,Louis Menand,2001,,"Farrar, Straus and Giroux",,,0,English ,,,2011 12 30,0374706387,,,,,,E169.1 .M546 2001,,,,,0,,,,,1,,1,1662444,mobi,B2D1E88A5B900343125F318AEE2CF959,,,_472869.b2d1e88a5b900343125f318aee2cf959.mobi,0,2000-01-01 01:00:00,2016-04-03 02:51:08,767000/B2D1E88A5B900343125F318AEE2CF959-g.jpg,,
19786786,Who shall survive? A New Approach to the Problem of Human Interrelations  ,,,,Jacob Levy Moreno,1934,,Nervous and Mental Disease Publishing,,452,0,English ,,,2011 12 30,,,,,,,,,39QhAAAAMAAJ,,,600,,,,1,1,1,1,41240889,pdf,B2D36EAD6D8A1816F2EEC0BB9A76F67B,,,_504845.b2d36ead6d8a1816f2eec0bb9a76f67b.pdf,0,2000-01-01 01:00:00,2016-04-03 02:51:08,767000/b2d36ead6d8a1816f2eec0bb9a76f67b-g.jpg,,
19786787,Social Anthropology (Fontana Masterguides)  ,,Fontana Masterguides,,Edmund Ronald Leach,1982,,Fontana Paperbacks,,253,0,English ,,,2011 12 30,"0006355331,9780006355335",,,,,,,,qBotAAAAMAAJ,OL22116352M,,0,,,,0,1,1,0,18876340,pdf,B2D6C43A269A127D12AF035A5029FA0A,,,_440988.b2d6c43a269a127d12af035a5029fa0a.pdf,0,2000-01-01 01:00:00,2016-04-03 02:51:08,767000/b2d6c43a269a127d12af035a5029fa0a-g.jpg,,
19786788,Bringing the Reggio approach to your early years practice  ,,,,"Linda Thornton, Pat Brunton",2007,1,Routledge,London ; New York,103,0,English ,,,2011 12 30,"1843124300,9781843124306,9780203935378,0203935373",,,,,372.2101,LB1140.3 .B77 2007,,LTTOeSk3whwC,OL17906703M,,0,,,,,1,,1,2007790,pdf,B2D98968BC14F7B2F9D3E42BFAC7EA53,,,_473607.b2d98968bc14f7b2f9d3e42bfac7ea53.pdf,0,2000-01-01 01:00:00,2016-04-03 02:51:08,767000/b2d98968bc14f7b2f9d3e42bfac7ea53-d.jpg,,
19786789,International Entrepreneurship: Innovative Solutions for a Fragile Planet  ,,,,A. Coskun Samli,2009,1,Springer,,154,0,English,,,2011 12 30,"038788596X,9780387885964",,,,,338.04091724,HB615 .S26 2009,10.1007/978-0-387-88597-1,Uvdw6E2-1aIC,OL23943887M,,0,,,,1,0,1,1,1157118,pdf,B2D9A53DE633B04C0182F1AEA4E52C2B,,,_432247.b2d9a53de633b04c0182f1aea4e52c2b.pdf,0,2000-01-01 01:00:00,2016-04-03 02:51:08,767000/b2d9a53de633b04c0182f1aea4e52c2b-d.jpg,,
19786790,大分流: 欧洲、中国及现代世界经济的发展  ,,海外中国研究丛书,,作者：彭慕兰(Kenneth Pomeranz),2003,1,江苏人民出版社 ,,393,0,Chinese(PRC),,,2011 12 30,,,,,,,,,,,,0,,,,0,1,0,0,10504065,pdf,B2DD0A40FFC72CDCE690FF86B33E2974,,,_459665.b2dd0a40ffc72cdce690ff86b33e2974.pdf,0,2000-01-01 01:00:00,2016-04-03 02:51:08,767000/b2dd0a40ffc72cdce690ff86b33e2974-g.jpg,,
19786791,Brightness Falls from the Air  ,,,,James Tiptree Jr.,1993,,Orb Books,,180,0,English ,,,2011 12 30,,,,,,,,,,,,0,,,,0,1,0,1,524533,pdf,B2DF0F35D26634A92B73F3B21B38CCC7,,,_445359.b2df0f35d26634a92b73f3b21b38ccc7.pdf,0,2000-01-01 01:00:00,2016-04-03 02:51:08,767000/b2df0f35d26634a92b73f3b21b38ccc7-g.jpg,,
19786792,Breast Cancer - Current and Alternative Therapeutic Modalities  ,,,,Esra Gunduz and Mehmet Gunduz,2011,,InTech,,550,0,English ,,,2011 12 30,9789533077765,,,,,,,,,,,0,,,,0,1,0,1,23918714,pdf,B2DF1989632ADEBEAA71D1023B1D3ED8,,,_493087.b2df1989632adebeaa71d1023b1d3ed8.pdf,0,2000-01-01 01:00:00,2016-04-03 02:51:08,767000/b2df1989632adebeaa71d1023b1d3ed8-g.jpg,,
19786793,My father at 100  ,,,,Ron Reagan,2011,First Edition,Viking,,,0,English ,,,2011 12 30,"0670022594,9780670022595",,,,,"973.927092,B",E877 .R325 2011,,,OL24592626M,,0,,,,,1,,,259761,epub,B2E12A09D7A18923E4A8902534B385EA,,,_509613.b2e12a09d7a18923e4a8902534b385ea.epub,0,2000-01-01 01:00:00,2016-04-03 02:51:08,767000/b2e12a09d7a18923e4a8902534b385ea-d.jpg,,
19786794,"Not Forgiven, Never Forgotten  ",,,,Elizabeth Power,2011,,Harlequin,,,0,English ,,,2011 12 30,"1459216636,9781459216631",,,,,,,,fvqox6j-LLUC,,,0,,,,,1,,,461272,mobi,B2E3E76B20F4DF922A635B63B0E8CE78,,,_466164.b2e3e76b20f4df922a635b63b0e8ce78.mobi,0,2000-01-01 01:00:00,2016-04-03 02:51:08,767000/B2E3E76B20F4DF922A635B63B0E8CE78-g.jpg,,
19786795,Thriving in the Community College AND Beyond: Strategies for Academic Success and Personal Development - Text  ,,,,"CUSEO JOE, MCLAUGHLIN JULIE, THOMPSON AARON, MOONO STEADY",2011,1,Kendall Hunt Publishing,,457,0,English ,,,2011 12 30,"0757580092,9780757580093",,,,,,,,,,,0,,,,1,1,0,0,41504285,pdf,B2E47A386E20A7669DDADD318EC591F2,,,_436632.b2e47a386e20a7669ddadd318ec591f2.pdf,0,2000-01-01 01:00:00,2016-04-03 02:51:08,767000/b2e47a386e20a7669ddadd318ec591f2-g.jpg,,
19786796,The Historical Christ and the Theological Jesus  ,,,,"Dale C., JR. Allison",2009,,William B. Eerdmans Publishing Company,,,0,English ,,,2011 12 30,"0802862624,9780802862624",,,,,232.9/08,BT303.2 .A545 2009,,WzOfssjUsIIC,OL22671835M,,0,,,,,0,,1,1354379,mobi,B2E4CAEA8C38FC1213ABA902935CB663,,,_500245.b2e4caea8c38fc1213aba902935cb663.mobi,0,2000-01-01 01:00:00,2016-04-03 02:51:08,767000/b2e4caea8c38fc1213aba902935cb663-d.jpg,,
19786797,"Surveys in Differential Geometry, Vol. 9: Eigenvalues of Laplacians and Other Geometric Operators  ",,,,"Alexander Grigoryan, Shing-Tung Yau",2004,,International Press of Boston,,472,0,English ,,,2011 12 30,"1571461159,9781571461155",,,,,,,,,OL14542794M,,0,,,,0,1,1,1,27758033,pdf,B2E4D0A7F95DF6F2A1C5E794E9F6D770,,,_475650.b2e4d0a7f95df6f2a1c5e794e9f6d770.pdf,0,2000-01-01 01:00:00,2016-04-03 02:51:08,767000/b2e4d0a7f95df6f2a1c5e794e9f6d770-d.jpg,,
19786798,Dialectical Social Theory and Its Critics: From Hegel to Analytical Marxism and Postmodernism (SUNY Series in Radical Social and Political Theory)  ,,,,Tony Smith,1992,,State University of New York Press,,173,0,English ,,,2011 12 30,"079141048X,9780791410486",,,,,301/.01,HM24 .S5394 1993,,,OL1549054M,,0,,,,0,1,0,1,7748998,pdf,B2E4E188B36D8608FF066F7EFDB581B8,,,_432721.b2e4e188b36d8608ff066f7efdb581b8.pdf,0,2000-01-01 01:00:00,2016-04-03 02:51:08,767000/b2e4e188b36d8608ff066f7efdb581b8-d.jpg,,
19786799,Narr (Thriller)  ,,,,"Gerd Schilddorfer, David G. L. Weiss",2010,,LangenMüller Verlag,,,0,German ,,,2011 12 30,"3784432352,9783784432359,9783784480244",,,,,,,,,,,0,,,,,0,0,1,1133242,epub,B2E52DE95D9E95DBC127FBB0146177F6,,,_451086.b2e52de95d9e95dbc127fbb0146177f6.epub,0,2000-01-01 01:00:00,2016-04-03 02:51:08,767000/b2e52de95d9e95dbc127fbb0146177f6-d.jpg,,
19786800,Histoire de la statistique  ,,,,"Philippe Tassi, Jean-Jacques Droesbeke",1997,,Presses Universitaires de France - PUF,,129,0,French ,,,2011 12 30,"2130430147,9782130430148",,,,,,,,,OL12444943M,,600,,,,,1,1,1,2483236,pdf,B2E562F3B84ED024419728830BEBA454,,,_510583.b2e562f3b84ed024419728830beba454.pdf,0,2000-01-01 01:00:00,2016-04-03 02:51:08,767000/b2e562f3b84ed024419728830beba454-d.jpg,,
19786801,Disability and Youth Sport (Routledge Studies in Physical Education and Youth Sport)  ,,International studies in physical education and youth sport,,Hayley Fitzgerald,2008,,Routledge,London ; New York,186,0,English ,,,2011 12 30,"0415423538,9780415423533,9780203889732,0-203-88973-8,9780415423526,041542352X,9780415470414,0415470412",,,,,796/.087,GV709.3 .D57 2009,,,OL10205850M,,0,,,,0,1,0,1,4942899,pdf,B2E57E6A751AE27086D3A1F2CD690319,,,_451220.b2e57e6a751ae27086d3a1f2cd690319.pdf,0,2000-01-01 01:00:00,2016-04-03 02:51:08,767000/b2e57e6a751ae27086d3a1f2cd690319-d.jpg,,
19786802,Out of the Shadows: Expanding the Canon of Classic Film Noir  ,,"G - Reference, Information and Interdisciplinary Subjects",,Gene D. Phillips,2011,,Scarecrow Press,,322,0,English ,,,2011 12 30,"0810881896,9780810881891,9780810881907",,,,,,,,lYAzadGt2UcC,,,0,,,,1,0,1,1,7439952,pdf,B2E597156FEE5DDFBDDE9142BB6994CB,,,_495786.b2e597156fee5ddfbdde9142bb6994cb.pdf,0,2000-01-01 01:00:00,2016-04-03 02:51:08,767000/b2e597156fee5ddfbdde9142bb6994cb-d.jpg,,
19786803,Comparative statistical inference  ,,probability and mathematical statistics 522,,Vic Barnett,1999,3,John Wiley and Sons,,411,0,English ,,,2011 12 30,"0471976431,9780471976431",,,,,519.5/4,QA276 .B2848 1999,,vz_YrVjkSLUC,OL382240M,,0,,,,1,1,1,1,20275427,pdf,B2E59CC276A8ADA7D9CA356A4A107565,,,_431645.b2e59cc276a8ada7d9ca356a4a107565.pdf,0,2000-01-01 01:00:00,2016-04-03 02:51:08,767000/b2e59cc276a8ada7d9ca356a4a107565-d.jpg,,
19786804,Three Little Pigs (Read It Yourself Level 2)  ,,,,Ladybird,2006,,Ladybird Books,,17,0,English ,,,2011 12 30,"1846460743,9781846460746",,,,,428.6,,,,,,0,,,,,1,1,0,5695347,pdf,B2E698B1E1461121D1334A9B16150A28,,,_498698.b2e698b1e1461121d1334a9b16150a28.pdf,0,2000-01-01 01:00:00,2016-04-03 02:51:08,767000/b2e698b1e1461121d1334a9b16150a28-d.jpg,,
19786805,Baba Ve Piç  ,,,,Elif Şafak,,,,,191,0,Turkish ,,,2011 12 30,975-342-553-8,,,,,,,,,,,0,,,,,1,,1,2313743,pdf,B2E8B611085B54BCB72BBB5F37A70A0A,,,_486258.b2e8b611085b54bcb72bbb5f37a70a0a.pdf,0,2000-01-01 01:00:00,2016-04-03 02:51:08,767000/b2e8b611085b54bcb72bbb5f37a70a0a-g.jpg,,
19786806,The Second Form At St. Clare's  ,,,,Enid Blyton,,,,,65,0,English ,,,2011 12 30,,,,,,,,,,,,0,,,,,1,,1,339931,pdf,B2E91C7261AAB09B7F8A2CAE9A77D92E,,,_503848.b2e91c7261aab09b7f8a2cae9a77d92e.pdf,0,2000-01-01 01:00:00,2016-04-03 02:51:08,767000/b2e91c7261aab09b7f8a2cae9a77d92e-g.jpg,,
19786807,"Powder and Propellants: Energetic Materials at Indian Head, Maryland, 1890-2001  ",,,,Rodney P. Carlisle,2002,2,University of North Texas Press,,367,0,English ,,,2011 12 30,"1574411497,9781574411492",,,,,,,,LGRLJMWT3DUC,OL8741381M,,0,,,,1,1,1,1,26999207,pdf,B2E9B95C5CDF144C244B2008BBBF0D7E,,,_444145.b2e9b95c5cdf144c244b2008bbbf0d7e.pdf,0,2000-01-01 01:00:00,2016-04-03 02:51:08,767000/b2e9b95c5cdf144c244b2008bbbf0d7e-d.jpg,,
19786808,Natural inheritance,,,,Sir Francis Galton,1889,,Macmillan & Co.,,271,0,English,,,2011 12 30,"0404081290,9780404081294",,,,,575.1,QH430 .G34 1973,,,,,0,,,,,1,1,0,9531848,pdf,B2EA899C569D05A6DAC9D6E4FC739299,,,_447983.b2ea899c569d05a6dac9d6e4fc739299.pdf,0,2000-01-01 01:00:00,2016-04-03 02:51:08,767000/b2ea899c569d05a6dac9d6e4fc739299-g.jpg,,
19786809,"Octonions, Jordan algebras, and exceptional groups  ",,Springer monographs in Mathematics,,"Tonny Albert Springer, Ferdinand D. Veldkamp",2000,1,Springer,,220,0,English ,,,2011 12 30,"3540663371,9783540663379",,,,,,,,UaeqA5tvSlAC,OL9063071M,,0,,,,1,1,1,1,8323751,pdf,B2EA91BF2B085C3F6AD66700C4582E6E,,,_438614.b2ea91bf2b085c3f6ad66700c4582e6e.pdf,0,2000-01-01 01:00:00,2016-04-03 02:51:08,767000/b2ea91bf2b085c3f6ad66700c4582e6e-d.jpg,,
19786810,"Science and Empire: Knowledge and Networks of Science across the British Empire, 1800-1970 (Britain & the World)  ",,Britain & the World,,"Brett M. M. Bennett, Joseph M. M. Hodge",2011,1,Palgrave Macmillan,,365,0,English ,,,2011 12 30,"0230252281,9780230252288",,,,,509.171/241,Q127.G4 S4183 2011,,9iz9tgAACAAJ,OL24852956M,,0,,,,1,0,1,1,1265936,pdf,B2EBE2A323A9FF083F62A0581E0FA6E7,,,_474518.b2ebe2a323a9ff083f62a0581e0fa6e7.pdf,0,2000-01-01 01:00:00,2016-04-03 02:51:08,767000/b2ebe2a323a9ff083f62a0581e0fa6e7-d.jpg,,
19786811,Georeferencing: The Geographic Associations of Information (Digital Libraries and Electronic Publishing)  ,,,,Linda L. Hill,2006,,The MIT Press,,275,0,English ,,,2011 12 30,"026208354X,9780262083546",,,,,,,,8JtOlgivtRkC,OL10237123M,,0,,,,0,0,1,1,1984409,pdf,B2EE187B1ADD38FAA02E5A11BFCA70CB,,,_436001.b2ee187b1add38faa02e5a11bfca70cb.pdf,0,2000-01-01 01:00:00,2016-04-03 02:51:08,767000/b2ee187b1add38faa02e5a11bfca70cb-d.jpg,,
19786812,The Phoenix Conspiracy  ,,"The Phoenix Conspiracy, The Phoenix Rising 1",,Richard Sanders,2011,,Smashwords,,681,0,English ,,,2011 12 30,,,,,,,,,,,,0,,,,,1,1,1,1134225,mobi,B2EE2E08E25DD5EEBE8D6198ECBA178E,,,_496822.b2ee2e08e25dd5eebe8d6198ecba178e.mobi,0,2000-01-01 01:00:00,2016-04-03 02:51:08,767000/B2EE2E08E25DD5EEBE8D6198ECBA178E-g.jpg,,
19786813,Integral Equations and Operator Theory - Volume 67  ,,,,C. Tretter (Chief Editor),2010,,Springer,,584,0,English ,,,2011 12 30,,0378-620X,,,,,,10.1007/s00020-010-1759-X,,,,0,,,,,0,1,1,7467917,pdf,B2EE58709DDF05E2C5E6517CFE540BF3,,,_495972.b2ee58709ddf05e2c5e6517cfe540bf3.pdf,0,2000-01-01 01:00:00,2016-04-03 02:51:08,767000/b2ee58709ddf05e2c5e6517cfe540bf3-g.jpg,,
19786814,Osmanlı Belgelerinde Batı Trakya Cilt III  ,,,,anonim,,,,,184,0,Turkish ,,,2011 12 30,,,,,,,,,,,,0,,,,,1,,1,5100949,pdf,B2EEA76B8F88407F9D3603ABEF7054F6,,,_492217.b2eea76b8f88407f9d3603abef7054f6.pdf,0,2000-01-01 01:00:00,2016-04-03 02:51:08,767000/b2eea76b8f88407f9d3603abef7054f6-g.jpg,,
19786815,Population Zero  ,,,,Wrath James White,2010,,Deadite Press,,76,0,English ,,,2011 12 30,"1936383373,9781936383375",,,,,,,,,,,0,,,,,1,,1,435954,pdf,B2EEB92CF42A2E24CB66901FB7E0387F,,,_443254.b2eeb92cf42a2e24cb66901fb7e0387f.pdf,0,2000-01-01 01:00:00,2016-04-03 02:51:08,767000/b2eeb92cf42a2e24cb66901fb7e0387f-d.jpg,,
19786816,"Grant's Dissector (Tank, Grant's Dissector)  ",,,,Patrick W. Tank,2008,"Fourteenth, North American Edition",Lippincott Williams & Wilkins,,288,0,English ,,,2011 12 30,"0781774314,9780781774314",,,,,611,QM34 .G75 2009,,,OL11007134M,,0,,,,1,0,1,1,20177483,pdf,B2EFF042B4063A17CBD1F2444275360A,,,_507669.b2eff042b4063a17cbd1f2444275360a.pdf,0,2000-01-01 01:00:00,2016-04-03 02:51:08,767000/b2eff042b4063a17cbd1f2444275360a-d.jpg,,
19786817,The natural selection of autonomy  ,,,,Bruce N. Waller,1998,First Edition,SUNY Press,,,0,English ,,,2011 12 30,"0791438201,9780791438206",,,,,128,B808.67 .W35 1998,,INGfTrYb4KkC,OL690650M,,0,,,,,1,,,352753,epub,B2F10F11D25DB3D77E739298DB04C071,,,_468895.b2f10f11d25db3d77e739298db04c071.epub,0,2000-01-01 01:00:00,2016-04-03 02:51:08,767000/b2f10f11d25db3d77e739298db04c071-d.jpg,,
19786818,"Investment Banking: Valuation, Leveraged Buyouts, and Mergers and Acquisitions (Wiley Finance)  ",,,,"Joshua Rosenbaum, Joshua Pearl",2009,1,Wiley,,304,0,English ,,,2011 12 30,"0470442204,9780470442203",,,,,332.6/6068,HG4534 .R67 2009,,,OL22795517M,,0,,,,1,1,1,1,7451600,mobi,B2F480B7639C79982CA87C1BA4E7F4F8,,,_464522.b2f480b7639c79982ca87c1ba4e7f4f8.mobi,0,2000-01-01 01:00:00,2016-04-03 02:51:08,767000/b2f480b7639c79982ca87c1ba4e7f4f8-d.jpg,,
19786819,Integer Partitions  ,,,,"George E. Andrews, Kimmo Eriksson",2004,2nd,Cambridge University Press,,152,0,English ,,,2011 12 30,"0521841186,9780521841184,0521600901,9780521600903",,,,,,,,_5gsjNr0lWAC,OL7747863M,,600,,,,1,1,1,1,1996730,pdf,B2F783AF1AA58F5407DE5B2A19C62588,,,_435651.b2f783af1aa58f5407de5b2a19c62588.pdf,0,2000-01-01 01:00:00,2016-04-03 02:51:08,767000/b2f783af1aa58f5407de5b2a19c62588-d.jpg,,
19786820,Division with Toys  ,,,,Jennifer Rozines Roy and Gregory Roy,2007,,Marshall Cavendish,,33,0,English ,,,2011 12 30,"0761422692,9780761422693",,,,,,,,ZgZjNBPKMkoC,OL8016498M,,0,,,,1,0,1,1,2497547,pdf,B2F98D443BECDFDBBB23B39CE5D2E679,,,_504608.b2f98d443becdfdbbb23b39ce5d2e679.pdf,0,2000-01-01 01:00:00,2016-04-03 02:51:08,767000/b2f98d443becdfdbbb23b39ce5d2e679-d.jpg,,
19786821,Train in Winter  ,,,,Caroline Moorehead,2011,,Chatto & Windus; First Edition edition,,,0,English ,,,2011 12 30,"0701182814,9780701182816",,,,,,,,,,,0,,,,,1,1,1,1131623,epub,B2F9A343DD05656225933A7B07A3886A,,,_511386.b2f9a343dd05656225933a7b07a3886a.epub,0,2000-01-01 01:00:00,2016-04-03 02:51:08,767000/b2f9a343dd05656225933a7b07a3886a-d.jpg,,
19786822,Meet Mr. Prince  ,,Silhouette Special Edition 2099,,Patricia Kay,2011,,Silhouette,,,0,English ,,,2011 12 30,"9781426884795,1426884796",,,,,,,,QaWAbsmE42sC,,,0,,,,,0,1,1,522771,epub,B2F9C77D307E87D098AB7FA459257C7C,,,_449027.b2f9c77d307e87d098ab7fa459257c7c.epub,0,2000-01-01 01:00:00,2016-04-03 02:51:08,767000/B2F9C77D307E87D098AB7FA459257C7C-g.jpg,,
19786823,Modern Biotechnology: Connecting Innovations in Microbiology and Biochemistry to Engineering Fundamentals  ,,,,"Nathan S. Mosier, Michael R. Ladisch",2009,1,Wiley-AIChE,,461,0,English ,19,,2011 12 30,"0470114851,9780470114858",,,,,660.6,TP248.2 .M675 2009,,,OL23147877M,,0,,,,,1,,1,3010902,pdf,B2FA79414699C5627E68E37F7C440CC1,,,_451455.b2fa79414699c5627e68e37f7c440cc1.pdf,0,2000-01-01 01:00:00,2016-04-03 02:51:08,767000/b2fa79414699c5627e68e37f7c440cc1-d.jpg,,
19786824,"The Wrecking Crew: How Conservatives Ruined Government, Enriched Themselves, and Beggared the Nation  ",,,,Thomas Frank,2010,,Holt Paperbacks,,,0,English ,,,2011 12 30,9781429929813,,,,,,,,,,,0,,,,,1,1,,516166,epub,B2FAFC3858DC8BBD1D565B47B133BBCC,,,_477988.b2fafc3858dc8bbd1d565b47b133bbcc.epub,0,2000-01-01 01:00:00,2016-04-03 02:51:08,767000/B2FAFC3858DC8BBD1D565B47B133BBCC-g.jpg,,
19786825,Robert B. Parker's Killing the Blues  ,,Jesse Stone 10,,Michael Brandman,2011,,Putnam Adult,,,0,English ,,,2011 12 30,9781101547748,,,,,,,,,,,0,,,,0,0,1,,194366,epub,B2FD70F6016695776905CDA98A3E1B42,,,_472893.b2fd70f6016695776905cda98a3e1b42.epub,0,2000-01-01 01:00:00,2016-04-03 02:51:08,767000/B2FD70F6016695776905CDA98A3E1B42-g.jpg,,
19786826,دورة فى الماتلاب خطوة خطوة  ,,,,يشرح الدورة احمد عفيفى,,,,,160,0,Arabic ,,,2011 12 30,,,,,,,,,,,,0,,,,,1,,1,4528606,pdf,B2FFAA1FED069AF745B52BF6676DFB93,,,_447893.b2ffaa1fed069af745b52bf6676dfb93.pdf,0,2000-01-01 01:00:00,2016-04-03 02:51:08,767000/b2ffaa1fed069af745b52bf6676dfb93-g.jpg,,
19786827,The Encyclopedia of Religion and Nature (Two Volume Set): Volume 2  ,,,,Bron Taylor,2008,,Continuum,,991,0,English ,,,2011 12 30,"1847062733,9781847062734",,,,,,,,,OL23175782M,,0,,,,,1,1,1,5889821,pdf,B300242BC489F73003C70751FEA51F11,,,_509522.b300242bc489f73003c70751fea51f11.pdf,0,2000-01-01 01:00:00,2016-04-03 02:51:08,767000/b300242bc489f73003c70751fea51f11-d.jpg,,
19786828,Baker's Biographical Dictionary of Popular Musicians Since 1990 (Volume 2)  ,,,,David Freeland,2004,,Macmillan Library Reference,,473,0,English ,,,2011 12 30,"0028658019,9780028658018",,,,,,,,,OL15570572M,,0,,,,0,1,0,1,19367384,pdf,B3034276A248697061DC1352F55F1C25,,,_464697.b3034276a248697061dc1352f55f1c25.pdf,0,2000-01-01 01:00:00,2016-04-03 02:51:08,767000/b3034276a248697061dc1352f55f1c25-g.jpg,,
19786829,Corrosion Risk Assessment And Safety Management for Offshore Processement Facilities  ,,,,"Dr. J Dawson, K. Bruce and Dr. D. G. John",,,,,60,0,English ,,,2011 12 30,0717620123,,,,,,,,,,,0,,,,1,0,0,1,620617,pdf,B304E9C0A3AE5F5E7BA9027535DE1545,,,_432989.b304e9c0a3ae5f5e7ba9027535de1545.pdf,0,2000-01-01 01:00:00,2016-04-03 02:51:08,767000/b304e9c0a3ae5f5e7ba9027535de1545-g.jpg,,
19786830,Blut von deinem Blute (Roman)  ,,,,Silvia Roth,2011,,Hoffmann und Campe Verlag,,,0,German ,,,2011 12 30,"3455403107,9783455403107,9783455810004",,,,,,,,,,,0,,,,,0,1,1,874279,epub,B306506D47B6D4E59BBEA1F557D82FFF,,,_471907.b306506d47b6d4e59bbea1f557d82fff.epub,0,2000-01-01 01:00:00,2016-04-03 02:51:08,767000/b306506d47b6d4e59bbea1f557d82fff-d.jpg,,
19786831,You Better Work!  ,,,,Kai Fikentscher,2000,1st,Wesleyan,,91,0,English ,,,2011 12 30,"0819564044,9780819564047",,,,,,,,,OL16982575M,,0,,,,,1,,0,10032931,pdf,B306C30CAFCC226AF7E6984B57C33D1C,,,_494481.b306c30cafcc226af7e6984b57c33d1c.pdf,0,2000-01-01 01:00:00,2016-04-03 02:51:08,767000/b306c30cafcc226af7e6984b57c33d1c-d.jpg,,
19786832,The Altian Plague (The Earthbound Series)  ,,,,DM Arnold,,,,,423,0,English ,,,2011 12 30,,,,,,,,,,,,0,,,,,1,,1,1120605,pdf,B306CB231D2C4CDAB72CA2AE8582BC84,,,_501741.b306cb231d2c4cdab72ca2ae8582bc84.pdf,0,2000-01-01 01:00:00,2016-04-03 02:51:08,767000/b306cb231d2c4cdab72ca2ae8582bc84-g.jpg,,
19786833,"Manifolds, Tensor Analysis, and Applications, Second Edition (Applied Mathematical Sciences 75)  ",,Applied Mathematical Sciences 75,,"Ralph Abraham, Jerrold E. Marsden, Tudor Ratiu",1988,2,Springer,,668,0,English ,,,2011 12 30,"0387967907,9780387967905",,,,,"510 s,514/.74","QA1 .A647 vol. 75,QA614 .A647 vol. 75",,,OL2237498M,,0,,,,0,1,1,1,30658557,pdf,B30BC408BF621DC557F324489BD8C0C6,,,_460296.b30bc408bf621dc557f324489bd8c0c6.pdf,0,2000-01-01 01:00:00,2016-04-03 02:51:08,767000/b30bc408bf621dc557f324489bd8c0c6-d.jpg,,
19786834,Retail Security and Loss Prevention Solutions  ,,,,"Alan Greggo, Millie Kresevich",2010,1,Auerbach Publications,,270,0,English ,,,2011 12 30,"1420090062,9781420090062,9781420090086",,,,,658.4/73,HF5429.27 .R484 2011,,is-dPYlgVvAC,OL24452379M,index is missing,0,,,,1,0,1,1,3025024,pdf,B30D162CCA24CE1E63C7E152E46ABF4B,,,_508794.b30d162cca24ce1e63c7e152e46abf4b.pdf,0,2000-01-01 01:00:00,2016-04-03 02:51:08,767000/b30d162cca24ce1e63c7e152e46abf4b-d.jpg,,
19786835,"Manufacturing Systems and Technologies for the New Frontier: The 41st CIRP Conference on Manufacturing Systems May 26-28, 2008, Tokyo, Japan  ",,,,"Mamoru Mitsuishi, Kanji Ueda, Fumihiko Kimura",2008,1st Edition.,Springer,,573,0,English,,,2011 12 30,"1848002661,9781848002661",,,,,670,TS176 .C5345 2008,10.1007/978-1-84800-267-8,I7PSi8Vbg7EC,OL22649317M,,0,,,,0,0,0,1,55083482,pdf,B30D25F2F27EB8DD0FA884D892A663EF,,,_436004.b30d25f2f27eb8dd0fa884d892a663ef.pdf,0,2000-01-01 01:00:00,2016-04-03 02:51:08,767000/b30d25f2f27eb8dd0fa884d892a663ef-d.jpg,,
19786836,Umění žít šťastně: Buddhova Abhidhamma v praxi meditace a zvládání života  ,,,,Mirko Frýba,2003,,Argo,,139,0,Czech ,,,2011 12 30,"8072034847,9788072034840",,,,,,,,,,,0,,,,1,1,,1,1036743,pdf,B30DD6D3694FD9980B37BCF052448D9B,,,_504175.b30dd6d3694fd9980b37bcf052448d9b.pdf,0,2000-01-01 01:00:00,2016-04-03 02:51:08,767000/b30dd6d3694fd9980b37bcf052448d9b-g.jpg,,
19786837,Enter the River: Healing Steps from White Privilege Toward Racial Reconciliation  ,,,,Tobin Miller Shearer,1994,,Herald Press,,208,0,English ,,,2011 12 30,"0836136608,9780836136609",,,,,305.8,HT1521 .S435 1994,,w1sFAQAAIAAJ,OL1429401M,,0,,,,1,0,1,1,964997,pdf,B30EB900EA1B45F1BA28B5A4D28F1D80,,,_469721.b30eb900ea1b45f1ba28b5a4d28f1d80.pdf,0,2000-01-01 01:00:00,2016-04-03 02:51:08,767000/b30eb900ea1b45f1ba28b5a4d28f1d80-d.jpg,,
19786838,Vamparazzi: An Esther Diamond Novel  ,,,,Laura Resnick,2011,Original,DAW,,,0,English ,,,2011 12 30,"0756406870,9780756406875",,,,,,,,,,,0,,,,0,0,0,1,721319,mobi,B30ED6FF5E9E74F1B153DAD666D8B617,,,_491711.b30ed6ff5e9e74f1b153dad666d8b617.mobi,0,2000-01-01 01:00:00,2016-04-03 02:51:08,767000/b30ed6ff5e9e74f1b153dad666d8b617-d.jpg,,
19786839,Le courage d'éduquer  ,,,,Lee Lozowick,2003,,Pocket,,373,0,French ,,,2011 12 30,"2266129481,9782266129480",,,,,,,,,,,0,,,,,1,1,1,6769790,pdf,B310129219408994EE11B8903669F9C4,,,_504721.b310129219408994ee11b8903669f9c4.pdf,0,2000-01-01 01:00:00,2016-04-03 02:51:08,767000/b310129219408994ee11b8903669f9c4-g.jpg,,
19786840,Love and Glory  ,,,,Robert B. Parker,2009,,Dell,,,0,English ,,,2011 12 30,9780307569714,,,,,,,,,OL24289481M,,0,,,,0,0,1,1,2045454,epub,B311985FE64DFAFDB788D4AC1B3BA2E0,,,_478097.b311985fe64dfafdb788d4ac1b3ba2e0.epub,0,2000-01-01 01:00:00,2016-04-03 02:51:08,767000/B311985FE64DFAFDB788D4AC1B3BA2E0-g.jpg,,
19786841,Hearts of Grey  ,,,,Earl E. Gobel,2009,,Xlibris,,,0,English ,,,2011 12 30,"144154979X,9781441549792",,,,,,,,,,,0,,,,,1,,,809741,epub,B3126CCEAC18F67E950951D0D61D81EB,,,_473979.b3126cceac18f67e950951d0d61d81eb.epub,0,2000-01-01 01:00:00,2016-04-03 02:51:08,767000/b3126cceac18f67e950951d0d61d81eb-d.jpg,,
19786842,Asia-Pacific Transitions  ,,,,"David E. Andersson, JessieH. P. Poon",2001,,Palgrave Macmillan,,294,0,English ,,,2011 12 30,"0333803019,9780333803011",,,,,338.95,HC462 .A85 2000,,,OL10557652M,,0,,,,1,0,1,1,2758486,pdf,B313D015854C7373D2D5AABAF36AB348,,,_463787.b313d015854c7373d2d5aabaf36ab348.pdf,0,2000-01-01 01:00:00,2016-04-03 02:51:08,767000/b313d015854c7373d2d5aabaf36ab348-d.jpg,,
19786843,"Clinical Decision Making in Fluency Disorders, Third Edition  ",,,,Walter H. Manning,2009,3rd Edition,Singular,,744,0,English ,,,2011 12 30,"141806730X,9781418067304",,,,,616.8554,,,q5d_J_B6S48C,OL25084966M,,0,,,,1,0,1,1,4336772,pdf,B314080F51DC5CE4E08574751642DBF2,,,_503218.b314080f51dc5ce4e08574751642dbf2.pdf,0,2000-01-01 01:00:00,2016-04-03 02:51:08,767000/b314080f51dc5ce4e08574751642dbf2-d.jpg,,
19786844,IRSE Green Book No.13 Train Describers (British Practice) 1952  ,,,,Institution of Railway Signal Engineers (IRSE),,,,,40,0,English ,,,2011 12 30,,,,,,,,,,,,0,,,,,1,,0,12228658,pdf,B3144F078D81F6D0C3030AE19DA3555A,,,_511490.b3144f078d81f6d0c3030ae19da3555a.pdf,0,2000-01-01 01:00:00,2016-04-03 02:51:08,767000/b3144f078d81f6d0c3030ae19da3555a-g.jpg,,
19786845,"Hegel and Religious Faith: Divided Brain, Atoning Spirit  ",,,,Andrew Shanks,2011,,T & T Clark International,,182,0,English ,,,2011 12 30,"0567532305,9780567532305",,,,,,,,kCYmLcFa8kIC,OL25013623M,,0,,,,1,0,1,1,605874,pdf,B3150BEC020FF6BEADF04EA0CD72A44F,,,_471497.b3150bec020ff6beadf04ea0cd72a44f.pdf,0,2000-01-01 01:00:00,2016-04-03 02:51:08,767000/b3150bec020ff6beadf04ea0cd72a44f-d.jpg,,
19786846,Everything Bad is Good for You: How Today's Popular Culture Is Actually Making Us Smarter  ,,,,Steven Johnson,2006,,Riverhead Books,,,0,English ,,,2011 12 30,9781101158012,,,,,,,,,,,0,,,,0,0,1,1,731732,epub,B316CFC2204DC07C7D43521CC5ABE1B5,,,_470473.b316cfc2204dc07c7d43521cc5abe1b5.epub,0,2000-01-01 01:00:00,2016-04-03 02:51:08,767000/B316CFC2204DC07C7D43521CC5ABE1B5-g.jpg,,
19786847,"Lehrbuch der Physikalischen Chemie, 5. Auflage  ",,,,Gerd Wedler,2004,5,Wiley-VCH,,1104,0,German ,,,2011 12 30,"3527310665,9783527310661",,,,,,,,QskBAAAACAAJ,OL9538526M,,0,,,,,1,1,0,194868856,pdf,B31794B2A14FB19190C9EA803BB8D5A9,,,_511681.b31794b2a14fb19190c9ea803bb8d5a9.pdf,0,2000-01-01 01:00:00,2016-04-03 02:51:08,767000/b31794b2a14fb19190c9ea803bb8d5a9-d.jpg,,
19786848,Wind Power and Power Politics: International Perspectives,,"Routledge Studies in Science, Technology and Society 9",,"Peter Strachan, David Lal, David Toke",2009,1st,Routledge,,229,0,English,,,2011 12 30,"0-415-96130-0,978-0-415-96130-1,978-0-203-88642-7,0-203-88642-9",,,,,333.9/2,TJ820 .W5765 2009,,,,,0,,,,0,0,0,1,1767559,pdf,B317D804D6BB5725D972E68EA0D7D61A,,,_459965.b317d804d6bb5725d972e68ea0d7d61a.pdf,0,2000-01-01 01:00:00,2016-04-03 02:51:08,767000/b317d804d6bb5725d972e68ea0d7d61a-d.jpg,,
19786849,"Україна і Друга світова війна: кінолітопис: анотований каталог кіножурналів, документальних фільмів, кіносюжетів, спецвипусків (1939-1945)",,,,Ємельянова Т.,2005,,Держ. комітет архівів України,,181,0,Ukrainian,,,0,"9668225139, 9789668225130",,,,,,,,hB_qAAAACAAJ,,,0,,,,,,,1,6798995,pdf,2274c41b734d3c9ec01d93da70c75696,,,cinema_1939-1945.pdf,0,2000-01-01 01:00:00,2016-04-03 02:51:08,1310000/2274c41b734d3c9ec01d93da70c75696-g.jpg,,
19786850,Vigilante  ,,Shane Scully - 11,,Stephen J. Cannell,2011,,St. Martin's Press,,243,0,English ,,,2011 12 30,"1429996684,9781429996686",,,,,,,,,,,0,,,,,1,1,1,279229,epub,B31A5EAEED3F14160E76F8559FD593BD,,,_509633.b31a5eaeed3f14160e76f8559fd593bd.epub,0,2000-01-01 01:00:00,2016-04-03 02:51:08,767000/B31A5EAEED3F14160E76F8559FD593BD-g.jpg,,
19786851,"Ombres, tome III : Le Sablier  ",,,,"Jean Dufaux, Lucien Rollin",1999,,Glénat,,51,0,French ,,,2011 12 30,"2723428508,9782723428507",,,,,,,,,OL12590720M,,0,,,,1,1,0,0,42781303,pdf,B31B43A97F0C534D57D79FD443679B73,,,_438367.b31b43a97f0c534d57d79fd443679b73.pdf,0,2000-01-01 01:00:00,2016-04-03 02:51:08,767000/b31b43a97f0c534d57d79fd443679b73-g.jpg,,
19786852,"Art in an Age of Civil Struggle, 1848-1871 (A Social History of Modern Art, volume 4)  ",,A Social History of Modern Art 4,,Albert Boime,2007,,University of Chicago Press,,906,0,English ,,,2011 12 30,"0226063283,9780226063287,9780226063423",,,,,709.03/4,N6757 .B63 2007,,,OL10191595M,,0,,,,,0,1,1,14376215,pdf,B31BB62577DA07B0989108EA80C4E524,,,_512469.b31bb62577da07b0989108ea80c4e524.pdf,0,2000-01-01 01:00:00,2016-04-03 02:51:08,767000/b31bb62577da07b0989108ea80c4e524-d.jpg,,
19786853,Legion of the Damned (Cassell Military Paperbacks)  ,,,,Sven Hassel,2007,,Cassell,,,0,English ,,,2011 12 30,"0304366315,9780304366316",,,,,,,,,OL10321685M,,0,,,,,1,,,233127,epub,B31D482F3597B70B74133D3F85AF0FB6,,,_476469.b31d482f3597b70b74133d3f85af0fb6.epub,0,2000-01-01 01:00:00,2016-04-03 02:51:08,767000/b31d482f3597b70b74133d3f85af0fb6-d.jpg,,
19786854,"Pulse Foods: Processing, Quality and Nutraceutical Applications (Food Science and Technology (Academic Press))  ",,,,"Brijesh K. Tiwari, Aoife Gowen, Brian McKenna",2011,1,Academic Press,,472,0,English ,,,2011 12 30,"0123820189,9780123820181",,,,,,,10.1016/B978-0-1238-2018-1.00007-0,,OL25081906M,,0,,,,,0,1,1,18545984,pdf,B31DDD53D902A8EC376033ED2638E568,,,_437164.b31ddd53d902a8ec376033ed2638e568.pdf,0,2000-01-01 01:00:00,2016-04-03 02:51:08,767000/b31ddd53d902a8ec376033ed2638e568-d.jpg,,
19786855,Die Erde (Bd.15)  ,,,,Emile Zola,,,Digitale Bibliothek,,940,0,German ,,,2011 12 30,,,,,,,,,,,,0,,,,,1,1,1,498568,epub,B31FE1CAD1ED8D58FB4CC618CFB2FA64,,,_464324.b31fe1cad1ed8d58fb4cc618cfb2fa64.epub,0,2000-01-01 01:00:00,2016-04-03 02:51:08,767000/B31FE1CAD1ED8D58FB4CC618CFB2FA64-g.jpg,,
19786856,Podstawy mikrobiologii w ochronie środowiska  ,,,,Barbara Kołwzan,2005,,Oficyna Wydawnicza Politechniki Wrocławskiej,,117,0,Polish ,,,2011 12 30,"8370858791,9788370858797",,,,,,,,,,,0,,,,,1,1,0,3731014,pdf,B321C629D923EBD8E25457F921C73247,,,_456645.b321c629d923ebd8e25457f921c73247.pdf,0,2000-01-01 01:00:00,2016-04-03 02:51:08,767000/b321c629d923ebd8e25457f921c73247-g.jpg,,
19786857,Contemporary anarchist studies: an introductory anthology of anarchy in the academy  ,,,,Randall Amster,2009,1,Taylor & Francis,,335,0,English ,,,2011 12 30,"0415474019,9780415474016",,,,,335/.83,HX833 .C66 2009,,OnztuCE8888C,OL17031855M,,0,,,,0,0,0,1,2200956,pdf,B321F78136E5AF3B6E353B6C4004CC1B,,,_445534.b321f78136e5af3b6e353b6c4004cc1b.pdf,0,2000-01-01 01:00:00,2016-04-03 02:51:08,767000/b321f78136e5af3b6e353b6c4004cc1b-d.jpg,,
19786858,Jihad in Saudi Arabia: Violence and Pan-Islamism since 1979 (Cambridge Middle East Studies)  ,,,,Thomas Hegghammer,2010,1,Cambridge University Press,,304,0,English ,,,2011 12 30,"052151858X,9780521518581",,,,,322.4/209538,BP63.S33 H44 2010,,,OL23981350M,,0,,,,0,0,0,1,2862395,pdf,B32215DA4F443594C988F87F9990A13E,,,_462919.b32215da4f443594c988f87f9990a13e.pdf,0,2000-01-01 01:00:00,2016-04-03 02:51:08,767000/b32215da4f443594c988f87f9990a13e-d.jpg,,
19786859,L'allocation universelle  ,,,,"Philippe Van Parijs, Yannick Vanderborght",2005,,Editions La Découverte,,128,0,French ,,,2011 12 30,"2707145262,9782707145260",,,,,,,,,,,0,,,,1,1,1,1,2688266,pdf,B3255C7B6092A685695A190B2C0D7716,,,_510052.b3255c7b6092a685695a190b2c0d7716.pdf,0,2000-01-01 01:00:00,2016-04-03 02:51:08,767000/b3255c7b6092a685695a190b2c0d7716-g.jpg,,
19786860,Planetary Science (Advances in Geosciences)  ,,Advances in Geosciences 19,,Anil Bhardwaj,2010,,World Scientific Publishing Company,,678,0,English ,,,2011 12 30,"9812838155,9789812838155",,,,,550,QB602.9 .A38 2006,,S6-8DVpsLLEC,OL24801471M,,0,,,,1,0,1,1,14982748,pdf,B32721D9795FC404F5E9643759501DC3,,,_476117.b32721d9795fc404f5e9643759501dc3.pdf,0,2000-01-01 01:00:00,2016-04-03 02:51:08,767000/b32721d9795fc404f5e9643759501dc3-d.jpg,,
19786861,Report on the Sixth General Elections to the Lok Sabha and General Elections to the Kerala Legislative Assembly 1977 Volume 1  ,,,,Election Commission of India 1978,,,,,141,0,English ,,,2011 12 30,,,,,,,,,,,,0,,,,,1,1,1,5019141,pdf,B329993106F88C22AA3A1E0A33DA2522,,,_497102.b329993106f88c22aa3a1e0a33da2522.pdf,0,2000-01-01 01:00:00,2016-04-03 02:51:08,767000/b329993106f88c22aa3a1e0a33da2522-g.jpg,,
19786862,Visual Basic 6  ,,,,Greg Perry,2008,,Pearson Education,,810,0,French ,,,2011 12 30,"2744022659,9782744022654",,,,,,,,,,,0,,,,0,1,1,0,293995363,pdf,B329C7B409941FF513BCBD900E0D668D,,,_495042.b329c7b409941ff513bcbd900e0d668d.pdf,0,2000-01-01 01:00:00,2016-04-03 02:51:08,767000/b329c7b409941ff513bcbd900e0d668d-d.jpg,,
19786863,An Anticlassical Political-Economic Analysis: A Vision for the Next Century  ,,,,Yasusuke Murakami,1996,1,Stanford University Press,,500,0,English ,,,2011 12 30,"0804726469,9780804726467",,,,,330,HB75 .M87713 1996,,IYywQgAACAAJ,OL7928956M,,0,,,,1,0,1,1,2479054,pdf,B329FF5751393B2274BC6821AA627124,,,_459490.b329ff5751393b2274bc6821aa627124.pdf,0,2000-01-01 01:00:00,2016-04-03 02:51:08,767000/b329ff5751393b2274bc6821aa627124-d.jpg,,
19786864,Conscious in a Vegetative State? A Critique of the PVS Concept  ,,"International library of ethics, law, and the new medicine 23",,Peter John McCullagh,2004,1,Springer,,375,0,English ,,,2011 12 30,"1402026293,9781402026294,1402026307",,,,,,,,nnp2gzGsR8kC,OL8371160M,,0,,,,1,0,1,1,1233297,pdf,B329FF6E8F0563E6E706B24F87D30832,,,_442701.b329ff6e8f0563e6e706b24f87d30832.pdf,0,2000-01-01 01:00:00,2016-04-03 02:51:08,767000/b329ff6e8f0563e6e706b24f87d30832-d.jpg,,
19786865,The Careless State: Wealth and Welfare in Britain Today  ,,,,Paul Taylor,2010,,Bloomsbury USA,London ; New York,241,0,English ,,,2011 12 30,"1849660018,978-1-8496-6001-3,978-1-8496-6355-7,978-1-8496-6036-5,1849663556,1849660360,9781849661003,1849661006",,,,,,,,,,,0,,,,0,0,0,1,1533751,pdf,B32A17FEB4B369984955A6A8DD5F95B4,,,_463189.b32a17feb4b369984955a6a8dd5f95b4.pdf,0,2000-01-01 01:00:00,2016-04-03 02:51:08,767000/b32a17feb4b369984955a6a8dd5f95b4-d.jpg,,
19786866,Vorlagen für die Erstberatung: Band 1. Steuerrecht  ,,,,"Stefan Arndt, Heuel Ingo",,2007,,,246,0,German ,,,2011 12 30,"3834904430,9783834904430",,,,,,,,,,,0,,,,,1,1,1,1614708,pdf,B32A1EA4F77A54B9385DB55DDE7BB895,,,_146623.b32a1ea4f77a54b9385db55dde7bb895.pdf,0,2000-01-01 01:00:00,2016-04-03 02:51:08,767000/b32a1ea4f77a54b9385db55dde7bb895-d.jpg,,
19786867,Dawn of Zombie Haiku  ,,,,Ryan Mecum,2011,,HOW Books,,,0,English ,,,2011 12 30,"1440312869,9781440312861",,,,,,,,G89sVkD8rmUC,,,0,,,,,1,1,0,7868168,epub,B32AB4E37780D03C3A83950F598AC79F,,,_490546.b32ab4e37780d03c3a83950f598ac79f.epub,0,2000-01-01 01:00:00,2016-04-03 02:51:08,767000/b32ab4e37780d03c3a83950f598ac79f-d.jpg,,
19786868,Casa-Grande e Senzala: Formação da Família Brasileira sob o Regime da Economia Patriarcal  ,,,,Gilberto Freyre,2005,47,Global,,375,0,Portuguese ,,,2011 12 30,"8526008692,9788526008694",,,,,,,,,OL9157243M,,0,,,,0,1,0,1,17436578,pdf,B32B541644E8A4F7520317F1C7394937,,,_470641.b32b541644e8a4f7520317f1c7394937.pdf,0,2000-01-01 01:00:00,2016-04-03 02:51:08,767000/b32b541644e8a4f7520317f1c7394937-d.jpg,,
19786869,"Learning HTML5 Game Programming: A Hands-on Guide to Building Online Games Using Canvas, SVG, and WebGL  ",,,,James L. Williams,2011,1,Addison-Wesley Professional,,254,0,English ,92,,2011 12 30,"0321767365,9780321767363",,,,,,,,,,,0,,,,1,0,1,1,5213519,pdf,B32CB68AA470BEC9508F9AE7595CC3CB,,,_490553.b32cb68aa470bec9508f9ae7595cc3cb.pdf,0,2000-01-01 01:00:00,2016-04-03 02:51:08,767000/b32cb68aa470bec9508f9ae7595cc3cb-d.jpg,,
19786870,"Keenan and Riches' Business Law, 9th Edition  ",,,,"Sarah Riches, Vida Allen",2009,9,Longman,"Harlow, UK",625,0,English ,,,2011 12 30,"1405899646,978-1-4058-9964-2,9781405899673,1405899670",,,,,346.4207,KD1629 .K44 2009,,,OL23153044M,,0,,,,0,0,0,1,6845661,pdf,B32D224027FA9C7BAC9F519BDBCA03F6,,,_445571.b32d224027fa9c7bac9f519bdbca03f6.pdf,0,2000-01-01 01:00:00,2016-04-03 02:51:08,767000/b32d224027fa9c7bac9f519bdbca03f6-d.jpg,,
19786871,Empires (Cornell Studies in Comparative History)  ,,Cornell Studies in Comparative History,,Michael W. Doyle,1986,First (pbk. 7th prtg.),Cornell University Press,,407,0,English ,,,2011 12 30,"080149334X,9780801493348",,,,,321.03,JC359 .D69 1986,,,OL21364814M,,0,,,,0,1,1,1,11762627,pdf,B32FF4303EF88312DD99C73B52166321,,,_493741.b32ff4303ef88312dd99c73b52166321.pdf,0,2000-01-01 01:00:00,2016-04-03 02:51:08,767000/b32ff4303ef88312dd99c73b52166321-d.jpg,,
19786872,"Infernal Devices (Mortal Engines Quartet, Book3)  ",,Mortal Engines Quartet,,Philip Reeve,2006,,Point Fiction,,498,0,English ,,,2011 12 30,,,,,,,,,,,,0,,,,,0,1,1,450143,mobi,B332F10E6D7FA1A49DF6E4E669A7A5A9,,,_460421.b332f10e6d7fa1a49df6e4e669a7a5a9.mobi,0,2000-01-01 01:00:00,2016-04-03 02:51:08,767000/B332F10E6D7FA1A49DF6E4E669A7A5A9-g.jpg,,
19786873,Miraculous Plagues: An Epidemiology of Early New England Narrative  ,,,,Cristobal Silva,2011,,"Oxford University Press, USA",,252,0,English ,,,2011 12 30,"0199743479,9780199743476",,,,,614.4/974,RA650.5 .S57 2011,,bpPqTcxKVTgC,OL24479312M,,0,,,,1,0,1,1,1081947,pdf,B334DE0284864AD6C5D90AAEF5546B4F,,,_465664.b334de0284864ad6c5d90aaef5546b4f.pdf,0,2000-01-01 01:00:00,2016-04-03 02:51:08,767000/b334de0284864ad6c5d90aaef5546b4f-d.jpg,,
19786874,Masks of Conquest: Literary Study and British Rule in India (Oxford India Paperbacks)  ,,,,Gauri Viswanathan,1998,,"Oxford University Press, USA",,88,0,English ,,,2011 12 30,"0195646401,9780195646405",,,,,,,,,OL7394467M,,0,,,,,1,,1,97325610,pdf,B3387B743A36533BC6E295EA8D0E6197,,,_475912.b3387b743a36533bc6e295ea8d0e6197.pdf,0,2000-01-01 01:00:00,2016-04-03 02:51:08,767000/b3387b743a36533bc6e295ea8d0e6197-d.jpg,,
19786875,Linkage Disequilibrium and Association Mapping: Analysis and Applications (Methods in Molecular Biology)  ,,Methods in Molecular Biology 376,,Andrew R. Collins,2007,1,Humana Press,,250,0,English ,,,2011 12 30,"1588296695,9781588296696",,,,,,,,,OL17238247M,,0,,,,,1,1,1,2106852,pdf,B33A1FAA6BB3FDE2B9AAA98C1228373A,,,_466487.b33a1faa6bb3fde2b9aaa98c1228373a.pdf,0,2000-01-01 01:00:00,2016-04-03 02:51:08,767000/b33a1faa6bb3fde2b9aaa98c1228373a-d.jpg,,
19786876,"Women & Catholicism: Gender, Communion, and Authority  ",,,,Phyllis Zagano,2011,,Palgrave Macmillan,,221,0,English ,,,2011 12 30,"0230111637,9780230111639",,,,,262/.02,BX2347.8.W6 Z34 2011,,,OL24914839M,,0,,,,1,0,1,1,1836239,pdf,B33BCF64BAF5C08F98FBC799EEFAE35A,,,_453799.b33bcf64baf5c08f98fbc799eefae35a.pdf,0,2000-01-01 01:00:00,2016-04-03 02:51:08,767000/b33bcf64baf5c08f98fbc799eefae35a-d.jpg,,
19786877,Wie Sie als Mieter Geld sparen können  ,,,,Otto N. Bretzinger,2011,,Haufe-Lexware,,193,0,German ,,,2011 12 30,"3648018566,9783648018569",,,,,,,,,,,0,,,,,1,1,1,2891853,pdf,B33D918013611A9EB391068095BC2333,,,_513274.b33d918013611a9eb391068095bc2333.pdf,0,2000-01-01 01:00:00,2016-04-03 02:51:08,767000/b33d918013611a9eb391068095bc2333-d.jpg,,
19786878,WordPress-Tricks und -Tweaks  ,,,,Clemens Gull,2011,,Franzis Verlag,,314,0,German ,70,,2011 12 30,"3645600760,9783645600767",,,,,006.76,,,,,,0,,,,1,0,1,1,5201775,pdf,B33E10A7528069C39436026637747B9A,,,_500967.b33e10a7528069c39436026637747b9a.pdf,0,2000-01-01 01:00:00,2016-04-03 02:51:08,767000/b33e10a7528069c39436026637747b9a-d.jpg,,
19786879,Things to Make in the Holidays  ,,,,"Steve Biddle, . M. Biddle",1989,,Random House,,160,0,English ,,,2011 12 30,"0099557207,9780099557203",,,,,,,,,OL9983984M,,0,,,,,1,,0,1537348,pdf,B33E28239E56808AB961732A432E9A23,,,_438112.b33e28239e56808ab961732a432e9a23.pdf,0,2000-01-01 01:00:00,2016-04-03 02:51:08,767000/b33e28239e56808ab961732a432e9a23-g.jpg,,
19786880,Γράμματα για τον Cézanne  ,,Προτάσεις,,"Rainer Maria Rilke, Κωνσταντίνα Ψαρρού (μετάφραση)",2000,,Ροές,,144,0,Greek(Modern),,,2011 12 30,"9602831073,9789602831076",,,,,,,,,,,300,,,,1,1,0,0,5663033,pdf,B33ECFB5712D2F947B064EDAED5120A6,,,_510729.b33ecfb5712d2f947b064edaed5120a6.pdf,0,2000-01-01 01:00:00,2016-04-03 02:51:08,767000/b33ecfb5712d2f947b064edaed5120a6-g.jpg,,
19786881,The Untouchables: Who were they and why they became untouchables?  ,,,,Dr. B. R. Ambedkar,1948,,,,123,0,English ,,,2011 12 30,,,,,,,,,,,,0,,,,,1,0,1,916036,pdf,B340595D7D2D438CAF1C5341CFFD90D5,,,_502317.b340595d7d2d438caf1c5341cffd90d5.pdf,0,2000-01-01 01:00:00,2016-04-03 02:51:08,767000/b340595d7d2d438caf1c5341cffd90d5-g.jpg,,
19786882,Shelter blues: sanity and selfhood among the homeless  ,,Contemporary Ethnography,,Robert R. Desjarlais,1997,,University of Pennsylvania Press,,320,0,English ,,,2011 12 30,"0812216229,9780812216226",,,,,305.569,HV4505 .D47 1997,,,OL663138M,,0,,,,1,0,1,1,8971075,pdf,B341C2FE4616B6F9CFBFDA2A9D71B7E3,,,_477736.b341c2fe4616b6f9cfbfda2a9d71b7e3.pdf,0,2000-01-01 01:00:00,2016-04-03 02:51:08,767000/b341c2fe4616b6f9cfbfda2a9d71b7e3-d.jpg,,
19786883,"Beginning iOS Game Center and Game Kit: For iPhone, iPad, and iPod touch  ",,,,Kyle Richter,2011,1,Apress,,,0,English ,,,2011 12 30,"1430235276,9781430235279",,,,,,,,LLtXdzYnXtQC,,,0,,,,,1,,,3029486,epub,B341D1EA5C5F7C02D14D798CE3F94CD7,,,_499644.b341d1ea5c5f7c02d14d798ce3f94cd7.epub,0,2000-01-01 01:00:00,2016-04-03 02:51:08,767000/b341d1ea5c5f7c02d14d798ce3f94cd7-d.jpg,,
19786884,Secrets of the Sicilian Dragon Revised  ,,,,Eric Schiller,,,,,244,0,English ,,,2011 12 30,,,,,,,,,,,,0,,,,,1,,1,4709164,pdf,B342B733CDFBC910537ED30CDEFFAA61,,,_495202.b342b733cdfbc910537ed30cdeffaa61.pdf,0,2000-01-01 01:00:00,2016-04-03 02:51:08,767000/b342b733cdfbc910537ed30cdeffaa61-g.jpg,,
19786885,On Holiday: A History of Vacationing  ,,California studies in critical human geography 6,,Orvar Löfgren,1999,1,University of California Press,,329,0,English ,,,2011 12 30,"0520217675,9780520217676",,,,,910.4,G156 .L56 1999,,BOXBQgAACAAJ,OL40548M,,0,,,,1,0,1,1,3004029,pdf,B344AB8F3FA7180CB7684FDDA3EA4C12,,,_464219.b344ab8f3fa7180cb7684fdda3ea4c12.pdf,0,2000-01-01 01:00:00,2016-04-03 02:51:08,767000/b344ab8f3fa7180cb7684fdda3ea4c12-d.jpg,,
19786886,Impact of TRIPS in India: An Access to Medicines Perspective  ,,,,Prabodh Malhotra,2010,1,Palgrave Macmillan,,343,0,English ,,,2011 12 30,"0230272789,9780230272781",,,,,,,,,,,0,,,,1,0,1,1,1733982,pdf,B34542144D2E48C67CB8C6D562ECBD0A,,,_470849.b34542144d2e48c67cb8c6d562ecbd0a.pdf,0,2000-01-01 01:00:00,2016-04-03 02:51:08,767000/b34542144d2e48c67cb8c6d562ecbd0a-d.jpg,,
19786887,All About Hanukkah  ,,,,"Judyth Groner, Madeline Wikler",2011,,Kar-Ben Publishing,,36,0,English ,,,2011 12 30,"1580130518,9781580130516,9780761385240",,,,,,,,,OL8760891M,,0,,,,1,0,1,1,22782694,pdf,B345794E851B935E3B5928E023861F3E,,,_505218.b345794e851b935e3b5928e023861f3e.pdf,0,2000-01-01 01:00:00,2016-04-03 02:51:08,767000/b345794e851b935e3b5928e023861f3e-d.jpg,,
19786888,"Sentences, Paragraphs, and Beyond: With Integrated Readings, Sixth Edition  ",,,,"Lee Brandon, Kelly Brandon",2010,6th,Wadsworth Publishing,,526,0,English ,,,2011 12 30,"0495802131,9780495802136",,,,,,,,78MHX4H8gBwC,OL24079938M,,0,,,,1,0,1,1,8702835,pdf,B346CFDF54267D82D5D59BE652B696AE,,,_495296.b346cfdf54267d82d5d59be652b696ae.pdf,0,2000-01-01 01:00:00,2016-04-03 02:51:08,767000/b346cfdf54267d82d5d59be652b696ae-d.jpg,,
19786889,Bizans Siyasal Düşüncesi  ,,,,G.L. Seidler,,,,,96,0,Turkish ,,,2011 12 30,,,,,,,,,,,,0,,,,,1,,1,2682917,pdf,B3475C3B2CF9E0D127B3ED3AC958E6EC,,,_488122.b3475c3b2cf9e0d127b3ed3ac958e6ec.pdf,0,2000-01-01 01:00:00,2016-04-03 02:51:08,767000/b3475c3b2cf9e0d127b3ed3ac958e6ec-g.jpg,,
19786890,Neo-Segregation Narratives: Jim Crow in Post-Civil Rights American Literature  ,,,,Brian Norman,2010,,University of Georgia Press,,282,0,English ,,,2011 12 30,"0820335967,9780820335964",,,,,810.9/896073,PS153.N5 N65 2010,,,OL24080673M,Front Matter missing,0,,,,0,0,1,1,2240010,pdf,B347AF15D1045593197659AAD201C8F3,,,_504930.b347af15d1045593197659aad201c8f3.pdf,0,2000-01-01 01:00:00,2016-04-03 02:51:08,767000/b347af15d1045593197659aad201c8f3-d.jpg,,
19786891,Höllenfahrten. Die epische katabasis und die Unterwelten der Moderne  ,,,,Isabel Platthaus,2004,,Wilhelm Fink Verlag,,245,0,German ,,,2011 12 30,"3770539915,9783770539918",,,,,,,,kB7zAAAAMAAJ,OL20023773M,,0,,,,1,1,1,1,11928480,pdf,B349605DB56230BD6D7329B133F1009A,,,_441775.b349605db56230bd6d7329b133f1009a.pdf,0,2000-01-01 01:00:00,2016-04-03 02:51:08,767000/b349605db56230bd6d7329b133f1009a-g.jpg,,
19786892,The Inner Sanctum  ,,,,Stephen W. Frey,1998,,Penguin,,,0,English ,,,2011 12 30,"0451190149,9780451190147",,,,,813/.54,PS3556.R4477 I5 1998,,R4T2p4NySFYC,OL24210723M,,0,,,,,1,,,268280,epub,B34B6EF21E38D8DAED1524AD0C0A2790,,,_440480.b34b6ef21e38d8daed1524ad0c0a2790.epub,0,2000-01-01 01:00:00,2016-04-03 02:51:08,767000/b34b6ef21e38d8daed1524ad0c0a2790-d.jpg,,
19786893,Старик Хоттабыч  ,,,,Лагин Лазарь,1983,,Детская литература,,348,0,Russian ,,,2011 12 30,,,,,,,,,,,,0,,,,,1,,0,4755921,djvu,B34C531103B01D83C5F9BA425DB2701B,509f7e87c03c19982e9b28212695145f,no,_461197.b34c531103b01d83c5f9ba425db2701b.djvu,0,2000-01-01 01:00:00,2016-04-03 02:51:08,767000/b34c531103b01d83c5f9ba425db2701b-g.jpg,,
19786894,Sams Teach Yourself Perl in 21 Days  ,,Sams Teach Yourself in 21 Days,,"Laura Lemay, Richard Colburn",2002,2,Sams,,699,0,English ,92,,2011 12 30,"0672320355,9780672320354",,,,,,,,trejcrrdSwAC,OL7668274M,,0,,,,1,0,1,1,2128934,pdf,B34DFE3C03124FAD1261963F13018439,,,_444471.b34dfe3c03124fad1261963f13018439.pdf,0,2000-01-01 01:00:00,2016-04-03 02:51:08,767000/b34dfe3c03124fad1261963f13018439-d.jpg,,
19786895,Adapting Land Administration to the Institutional Framework of Customary Tenure: The Case of Peri-Urban Ghana - Volume 39 Sustainable Urban Areas  ,,,,A. Arko-Adjei,2011,,IOS Press,,284,0,English ,,,2011 12 30,"1607507463,9781607507468",,,,,,,,,,,0,,,,,1,,1,2264467,pdf,B34F1789DD823C4292FF9F7A590A2B64,,,_454773.b34f1789dd823c4292ff9f7a590a2b64.pdf,0,2000-01-01 01:00:00,2016-04-03 02:51:08,767000/b34f1789dd823c4292ff9f7a590a2b64-d.jpg,,
19786896,Modern Methods of Reflector Antenna Analysis and Design (Artech House Antenna Library)  ,,,,Craig R. Scott,1990,,Artech House Publishers,,130,0,English ,,,2011 12 30,"0890064199,9780890064191",,,,,621.382/4,TK7871.6 .S37 1990,,,OL20061648M,,0,,,,,1,,0,1743167,djvu,B34F9B940190ECA89F730D9E34335455,678a4b1a4edbe5ad13459f23e591b869,no,_451925.b34f9b940190eca89f730d9e34335455.djvu,0,2000-01-01 01:00:00,2016-04-03 02:51:08,767000/b34f9b940190eca89f730d9e34335455-d.jpg,,
19786897,"Caste and World Conference against Racism, Durban, 2001: Dr. B.R. Ambedkar's Annihilation of Caste  ",,,,"Gian Singh Thind, Khushi Ram, Bhimrao Ramji Ambedkar",2002,,Cedar Publications,,272,0,English ,,,2011 12 30,"0968816215,9780968816219",,,,,323.3/294,HT720 .C375 2002,,,OL3753802M,,0,,,,,1,1,1,2021958,pdf,B3500556347B3BE992327274082FB170,,,_503260.b3500556347b3be992327274082fb170.pdf,0,2000-01-01 01:00:00,2016-04-03 02:51:08,767000/b3500556347b3be992327274082fb170-g.jpg,,
19786898,Fox Evil  ,,,,Minette Walters,,,,,298,0,English ,,,2011 12 30,,,,,,,,,,,,0,,,,0,1,0,1,332277,epub,B3511B1EEF68891F08B3AE69788A6997,,,_447672.b3511b1eef68891f08b3ae69788a6997.epub,0,2000-01-01 01:00:00,2016-04-03 02:51:08,767000/B3511B1EEF68891F08B3AE69788A6997-g.jpg,,
19786899,"Biochemistry, 5th Edition (Lippincott’s Illustrated Reviews)  ",,Lippincott’s Illustrated Reviews,,"Richard A. Harvey, Denise R. Ferrier",2010,5,Lippincott Williams & Wilkins,,533,0,English ,19,,2011 12 30,"160831412X,9781608314126",,,,,612/.015,QP514.2 .C48 2010,,-Lhp0ppRYWoC,OL24099132M,,0,,,,1,0,1,1,56893939,pdf,B351EC76AE3A66BEA1ECB4610D2D5E42,,,_502059.b351ec76ae3a66bea1ecb4610d2d5e42.pdf,0,2000-01-01 01:00:00,2016-04-03 02:51:08,767000/b351ec76ae3a66bea1ecb4610d2d5e42-d.jpg,,
19786900,"Ich weiss, dass du lügst: Was Gesichter verraten  ",,rororo,,Paul Ekman,2011,,Rowohlt Taschenbuch Verlag,,510,0,German ,,,2011 12 30,"3499627183,9783499627187",,,,,153.69,,,,,,0,,,,1,0,0,1,4422873,pdf,B35226FEBE561E8B39D26B10CDBB2739,,,_467613.b35226febe561e8b39d26b10cdbb2739.pdf,0,2000-01-01 01:00:00,2016-04-03 02:51:08,767000/b35226febe561e8b39d26b10cdbb2739-d.jpg,,
19786901,"Saviors or Sellouts: The Promise and Peril of Black Conservatism, from Booker T. Washington to Condoleezza Rice  ",,,,Christopher Alan Bracey,2008,,Beacon Press,,247,0,English ,,,2011 12 30,"0807083755,9780807083758",,,,,323.1196/073,E185 .B798 2008,,snkSp8XZ3jAC,OL11292818M,,0,,,,,1,1,0,9045019,pdf,B352970ED72CC538A277905AD1BCB9FC,,,_460087.b352970ed72cc538a277905ad1bcb9fc.pdf,0,2000-01-01 01:00:00,2016-04-03 02:51:08,767000/b352970ed72cc538a277905ad1bcb9fc-d.jpg,,
19786902,I salici ciechi e la donna addormentata  ,,,,Haruki Murakami,2010,,Einaudi,,347,0,Italian ,,,2011 12 30,,,,,,,,,,,,0,,,,,1,1,1,1793890,pdf,B35458DE0EB12F96687C99441E9F33A0,,,_446978.b35458de0eb12f96687c99441e9f33a0.pdf,0,2000-01-01 01:00:00,2016-04-03 02:51:08,767000/b35458de0eb12f96687c99441e9f33a0-g.jpg,,
19786903,О муже(N)ственности  ,,,,Сергей Ушакин Oushakine,2002,,Новое литературное обозрение,,719,0,Russian ,,,2011 12 30,"5867931706,9785867931704",,,,,,,,,OL3648901M,,0,,,,0,1,1,1,23322122,pdf,B355C28E11D053D496A8A699253538BF,,,_449100.b355c28e11d053d496a8a699253538bf.pdf,0,2000-01-01 01:00:00,2016-04-03 02:51:08,767000/b355c28e11d053d496a8a699253538bf-g.jpg,,
19786904,Colorado's war on militant unionism: James H. Peabody and the Western Federation of Miners  ,,,,George G. Suggs,1991,,University of Oklahoma Press,,,0,English ,,,2011 12 30,"0806123966,9780806123967",,,,,331.89/282233/09788,HD6515.M72 C65 1991,,6KZ4GwAACAAJ,OL1566362M,,0,,,,,1,,,983877,epub,B357934123AB366446AAAA262BF513B9,,,_472481.b357934123ab366446aaaa262bf513b9.epub,0,2000-01-01 01:00:00,2016-04-03 02:51:08,767000/B357934123AB366446AAAA262BF513B9-g.jpg,,
19786905,"Business Information Systems: Analysis, Design & Practice  ",,,,Graham Curtis; David Cobham,2005,5th,Financial Times Management,Harlow,687,0,English ,,,2011 12 30,"0273687921,9780273687924",,,,,658.4/038/011,HF5548.2 .C88 2004,,qtZ7ZvShCooC,OL3307434M,,0,,,,0,0,0,1,10644834,pdf,B357EDD343AFEE9CEF9D37B46118ECBF,,,_446711.b357edd343afee9cef9d37b46118ecbf.pdf,0,2000-01-01 01:00:00,2016-04-03 02:51:08,767000/b357edd343afee9cef9d37b46118ecbf-d.jpg,,
19786906,Gewalt und Herrschaft. Das provinziale Herrschaftssystem der römischen Republik  ,,,,Werner Dahlheim,1977,,Walter de Gruyter,,348,0,German ,,,2011 12 30,"3110069733,9783110069730",,,,,325/.31/0937,JC85.P9 D33,,DoieXKxPQs4C,OL4629018M,,0,,,,1,1,1,1,12106065,pdf,B35880DBB48EC06D81EC9255B559954F,,,_487068.b35880dbb48ec06d81ec9255b559954f.pdf,0,2000-01-01 01:00:00,2016-04-03 02:51:08,767000/b35880dbb48ec06d81ec9255b559954f-d.jpg,,
19786907,The Wages of Sickness: The Politics of Health Insurance in Progressive America  ,,Studies in social medicine,,Beatrix Rebecca Hoffman,2001,,UNC Press Books,,280,0,English ,,,2011 12 30,"0807849022,9780807849026,0807825883,9780807825884",,,,,,,,dT15d1HvXe0C,OL15496878M,,0,,,,1,0,1,1,1753509,pdf,B358E9DC091E1056CBC0BBFB9FD8BDF2,,,_436663.b358e9dc091e1056cbc0bbfb9fd8bdf2.pdf,0,2000-01-01 01:00:00,2016-04-03 02:51:08,767000/b358e9dc091e1056cbc0bbfb9fd8bdf2-d.jpg,,
19786908,"Mathe-Magie: Verblüffende Tricks für blitzschnelles Kopfrechnen und ein phänomenales Zahlengedächtnis, 3. Auflage  ",,,,"Arthur Benjamin, Michael Shermer",2007,3. Auflage,Heyne Verlag,,305,0,German ,,,2011 12 30,"3453615026,9783453615021",,,,,513.9,,,,,,0,,,,1,1,1,1,2540950,pdf,B35A1F9204D477A3DD75637ED493429E,,,_499752.b35a1f9204d477a3dd75637ed493429e.pdf,0,2000-01-01 01:00:00,2016-04-03 02:51:08,767000/b35a1f9204d477a3dd75637ed493429e-d.jpg,,
19786909,Abraham Epstein: The Forgotten Father of Social Security  ,,,,Pierre Epstein,2007,1,University of Missouri,,345,0,English ,,,2011 12 30,"0826216811,9780826216816",,,,,,,,,OL8166520M,Images available only on the printed version ...,0,,,,1,1,1,1,1278974,pdf,B35CF591425932873FA6EBC8D8B069F7,,,_468983.b35cf591425932873fa6ebc8d8b069f7.pdf,0,2000-01-01 01:00:00,2016-04-03 02:51:08,767000/b35cf591425932873fa6ebc8d8b069f7-d.jpg,,
19786910,Positive Psychology at Work: How Positive Leadership and Appreciative Inquiry Create Inspiring Organizations  ,,,,Sarah Lewis,2011,1,Wiley-Blackwell,,260,0,English ,,,2011 12 30,"0470683201,9780470683200,9781119990390",,,,,158.7,,,,,,0,,,,0,1,0,1,16100922,pdf,B35D6B3EF02516FBC72CD2FAFB63231A,,,_506574.b35d6b3ef02516fbc72cd2fafb63231a.pdf,0,2000-01-01 01:00:00,2016-04-03 02:51:08,767000/b35d6b3ef02516fbc72cd2fafb63231a-d.jpg,,
19786911,Πραγματεία περί αθεολογίας (Φυσική της μεταφυσικής)  ,,,,Μισέλ Ονφρέ,2006,,Εξάντας,,277,0,Greek(Modern),,,2011 12 30,"9602566434,9789602566435",,,,,,,,,,,600,,,,1,1,1,1,5315747,djvu,B35DA89DCA81E664F0C8D376BE74A527,,,_436860.b35da89dca81e664f0c8d376be74a527.djvu,0,2000-01-01 01:00:00,2016-04-03 02:51:08,767000/b35da89dca81e664f0c8d376be74a527-g.jpg,,
19786912,Kitten With a Whip  ,,,,Wade Miller,1959,,Gold Medal Books,,156,0,English ,,,2011 12 30,,,,,,,,,,,,0,,,,0,1,0,1,309935,epub,B35E1ED09CCE7DAE6B673351EFFD0C0E,,,_501311.b35e1ed09cce7dae6b673351effd0c0e.epub,0,2000-01-01 01:00:00,2016-04-03 02:51:08,767000/B35E1ED09CCE7DAE6B673351EFFD0C0E-g.jpg,,
19786913,Process and difference: between cosmological and poststructuralist postmodernisms  ,,constructive postmodern thought,,"Catherine Keller, Anne Daniell",2002,,SUNY Press,,297,0,English ,,,2011 12 30,"0791452875,9780791452875,0791452883,9780791452882",,,,,,,,e0l6QFzlyOEC,OL7802701M,,0,,,,1,0,1,1,1742491,pdf,B35E2613B394FB53B41F5938A034D810,,,_434074.b35e2613b394fb53b41f5938a034d810.pdf,0,2000-01-01 01:00:00,2016-04-03 02:51:08,767000/b35e2613b394fb53b41f5938a034d810-d.jpg,,
19786914,Conditions of peace  ,,,,Edward Hallett Carr,1942,,Macmillan Co.,,279,0,English ,,,2011 12 30,,,,,,,,,,,,0,,,,,1,1,0,12449721,pdf,B3620060BB258ED30BD442E9F8F819C8,,,_471564.b3620060bb258ed30bd442e9f8f819c8.pdf,0,2000-01-01 01:00:00,2016-04-03 02:51:08,767000/b3620060bb258ed30bd442e9f8f819c8-g.jpg,,
19786915,,,,"The Biblical Archaeologist - Vol.30, N.2 ",American Schools of Oriental Research,1967,,American Schools of Oriental Research,,40,0,English ,,,2011 12 30,,0006-0895,,,,,,,,,,0,,,,1,1,1,1,4725620,pdf,B3621588E57AF77AFDAC5A0008BA81B3,,,_507416.b3621588e57af77afdac5a0008ba81b3.pdf,0,2000-01-01 01:00:00,2016-04-03 02:51:08,767000/b3621588e57af77afdac5a0008ba81b3-g.jpg,,
19786916,Mathematical Modeling and Numerical Simulation in Continuum Mechanics  ,,Lecture Notes in Computational Science and Engineering 19,,"Ivo Babuška, Philippe G. Ciarlet, Tetsuhiko Miyoshi, Editors",2001,1,Springer,,314,0,English ,,,2011 12 30,"3540423990,9783540423997",1439-7358,,,,531,QA808.2 .I59 2000,,MAjVaXREdm4C,OL20644655M,,0,,,,1,1,1,1,25733930,pdf,B3624B3A346D1AE14374144976429E4D,,,_445477.b3624b3a346d1ae14374144976429e4d.pdf,0,2000-01-01 01:00:00,2016-04-03 02:51:08,767000/b3624b3a346d1ae14374144976429e4d-d.jpg,,
19786917,Réaliser et entretenir un mur végétal  ,,,,Léon-Hugo Bonte,2010,2,Eyrolles,,103,0,French ,,,2011 12 30,"2212127308,9782212127300",,,,,635.967,,,_EbRSAAACAAJ,,,0,,,,1,0,1,1,21427016,pdf,B3673B2C63A6178034BA54129F19C181,,,_500676.b3673b2c63a6178034ba54129f19c181.pdf,0,2000-01-01 01:00:00,2016-04-03 02:51:08,767000/b3673b2c63a6178034ba54129f19c181-d.jpg,,
19786918,Dsm IV manuel diagnostique et statistique des troubles mentaux  ,,,,AMERICAN PSYCHIATRIC ASSOCIATION,,,,,1082,0,French ,,,2011 12 30,,,,,,,,,,,,0,,,,,1,1,1,17293088,pdf,B368763250DF87C7D1DB10DDC8A61C08,,,_439977.b368763250df87c7d1db10ddc8a61c08.pdf,0,2000-01-01 01:00:00,2016-04-03 02:51:08,767000/b368763250df87c7d1db10ddc8a61c08-g.jpg,,
19786919,Your Money Your Investments  ,,,,Ben Fok,2011,,Marshall Cavendish Trade,,137,0,English ,,,2011 12 30,"9814328375,9789814328371",,,,,,,,,,,0,,,,1,0,1,1,318382,pdf,B369E81B57AD7EDB16570F99322CCCB7,,,_464531.b369e81b57ad7edb16570f99322cccb7.pdf,0,2000-01-01 01:00:00,2016-04-03 02:51:08,767000/b369e81b57ad7edb16570f99322cccb7-d.jpg,,
19786920,"God, Reason and Theistic Proofs (Reason & Religion)  ",,,,Stephen T. Davis,1997,,Wm. B. Eerdmans Publishing Company,,217,0,English ,,,2011 12 30,"0802844502,9780802844507",,,,,212/.1,BT102 .D32 1997,,,OL420225M,,0,,,,0,1,0,1,1934592,pdf,B36A0835A238D4BFD40E003A96DD7DB1,,,_454196.b36a0835a238d4bfd40e003a96dd7db1.pdf,0,2000-01-01 01:00:00,2016-04-03 02:51:08,767000/b36a0835a238d4bfd40e003a96dd7db1-d.jpg,,
19786921,Iraq's Dysfunctional Democracy  ,,,,David Ghanim,2011,,ABC-CLIO,,269,0,English ,,,2011 12 30,"0313398011,9780313398018,9780313398025",,,,,320.9567,JQ1849.A91 G43 2011,,U1VNI3rsOT8C,OL24843008M,,0,,,,1,0,0,1,1465616,pdf,B36B7C6C5F1EDC6728E5AD621B89E87C,,,_486237.b36b7c6c5f1edc6728e5ad621b89e87c.pdf,0,2000-01-01 01:00:00,2016-04-03 02:51:08,767000/b36b7c6c5f1edc6728e5ad621b89e87c-d.jpg,,
19786922,La notion de risque en économie  ,,,,Pierre-Charles Pradier,2005,REPERES,Editions La Découverte,,121,0,French ,,,2011 12 30,"2707139084,9782707139085",,,,,,,,,,,0,,,,1,0,1,1,1020397,pdf,B36DFBEAA06E0529F231484E1A6A53B2,,,_477266.b36dfbeaa06e0529f231484e1a6a53b2.pdf,0,2000-01-01 01:00:00,2016-04-03 02:51:08,767000/b36dfbeaa06e0529f231484e1a6a53b2-d.jpg,,
19786923,"Toys Go Out: Being the Adventures of a Knowledgeable Stingray, a Toughy Little Buffalo, and Someone Called Plastic  ",,,,"Emily Jenkins, Paul Zelinsky",2008,,Random House Children's Books,,,0,English ,,,2011 12 30,9780307560735,,,,,,,,,OL24288982M,,0,,,,,1,1,,3992173,epub,B370452BF4B9E631044F77175B315B3B,,,_432215.b370452bf4b9e631044f77175b315b3b.epub,0,2000-01-01 01:00:00,2016-04-03 02:51:08,767000/B370452BF4B9E631044F77175B315B3B-g.jpg,,
19786924,Pride and Prejudice  ,,,,Jane Austen,1813,,T. Egerton,,338,0,English ,,,2011 12 30,,,,,,,,,,,,0,,,,,1,,0,7834484,pdf,B37126BFA2290202C22BDA3DAC19778D,,,_472793.b37126bfa2290202c22bda3dac19778d.pdf,0,2000-01-01 01:00:00,2016-04-03 02:51:08,767000/b37126bfa2290202c22bda3dac19778d-g.jpg,,
19786925,The Last Greatest Magician in the World: Howard Thurston Versus Houdini & the Battles of the American Wizards  ,,,,Jim Steinmeyer,2011,,Penguin Group USA,,,0,English ,,,2011 12 30,9781101486344,,,,,,GV1545.T5 S74 2011,,3EHvWFOmueoC,,,0,,,,,1,,,567640,epub,B371441FD67EAC8E0C5E6C3EFE0CC211,,,_508316.b371441fd67eac8e0c5e6c3efe0cc211.epub,0,2000-01-01 01:00:00,2016-04-03 02:51:08,767000/B371441FD67EAC8E0C5E6C3EFE0CC211-g.jpg,,
19786926,Programming Android  ,,,,"Zigurd Mednieks, Laird Dornin, G. Blake Meike, Masumi Nakamura",2011,1,O'Reilly Media,,502,0,English ,92,,2011 12 30,"1449389694,9781449389697",,,,,005.276,QA76.76.A65 P76 2011,,,OL25141087M,,0,,,,1,0,1,1,11201572,pdf,B37191CB29AE7BB01D05BB40F27FE263,,,_450203.b37191cb29ae7bb01d05bb40f27fe263.pdf,0,2000-01-01 01:00:00,2016-04-03 02:51:08,767000/b37191cb29ae7bb01d05bb40f27fe263-d.jpg,,
19786927,Hemispheric Giants: The Misunderstood History of U.S.-Brazilian Relations  ,,,,Britta Crandall,2011,,Rowman & Littlefield Publishers,,231,0,English ,,,2011 12 30,"1442207876,9781442207875,9781442207899",,,,,327.73081,E183.8.B7 C73 2011,,mIeQUrEKOhkC,OL25074372M,,0,,,,1,0,1,1,1732616,pdf,B3732A90CFE3964C33685A922C7514F2,,,_450995.b3732a90cfe3964c33685a922c7514f2.pdf,0,2000-01-01 01:00:00,2016-04-03 02:51:08,767000/b3732a90cfe3964c33685a922c7514f2-d.jpg,,
19786928,Language and Ethnic Identity  ,,,,William B. Gudykunst (Editor),1988,,"Multilingual Matters, Ltd.",,177,0,English ,,,2011 12 30,"1853590215,9781853590214,9780585240787",,,,,401/.9,P35 .L267 1988,,,OL2041974M,,0,,,,1,0,1,1,1061991,pdf,B37733A3DE88CAAC9827DBD301191ACB,,,_440174.b37733a3de88caac9827dbd301191acb.pdf,0,2000-01-01 01:00:00,2016-04-03 02:51:08,767000/b37733a3de88caac9827dbd301191acb-g.jpg,,
19786929,Maximum PC - 2011 May  issue May 2011,,,,Future plc,2011,,,,74,0,English ,,,2011 12 30,,1522-4279,,,,,,,,,,0,,,,0,0,1,1,23590926,pdf,B3783F4A874B70D85405F104B3A8C644,,,_453631.b3783f4a874b70d85405f104b3a8c644.pdf,0,2000-01-01 01:00:00,2016-04-03 02:51:08,767000/b3783f4a874b70d85405f104b3a8c644-g.jpg,,
19786930,Walcheren 1944: Storming Hitler's Island Fortress  ,,,,"Richard Brooks, Graham Turner",2011,First Edition,Osprey Pub Co,,100,0,English ,,,2011 12 30,"1849082375,9781849082372,9781849082389",,,,,,,,,OL25143875M,,0,,,,,1,1,1,11323637,pdf,B378D0DAA9DC54A5DB4F78A012E03DBA,,,_510659.b378d0daa9dc54a5db4f78a012e03dba.pdf,0,2000-01-01 01:00:00,2016-04-03 02:51:08,767000/b378d0daa9dc54a5db4f78a012e03dba-d.jpg,,
19786931,Reference Manual on Scientific Evidence: Third Edition  ,,,,"Committee on the Development of the Third Edition of the Reference Manual on Scientific Evidence, Federal Judicial Center, Technology, Law Policy and Global Affairs Committee on Science, National Research Council",2011,3,National Academies Press,,1035,0,English ,,,2011 12 30,"0309214211,9780309214216",,,,,347.73/67,KF8961 .R44 2011,,,OL25101542M,,0,,,,0,1,1,1,11042278,pdf,B37984D422A098E3EDEA5F51816E54E5,,,_476502.b37984d422a098e3edea5f51816e54e5.pdf,0,2000-01-01 01:00:00,2016-04-03 02:51:08,767000/b37984d422a098e3edea5f51816e54e5-d.jpg,,
19786932,The Honor of Spies  ,,Honor Bound 5,,W.E.B. Griffin,2010,,Jove,,,0,English ,,,2011 12 30,9781101152102,,,,,,,,,OL24310255M,,0,,,,,1,1,,1213931,epub,B379B20DD6A527AEF89B137496CA20A6,,,_431829.b379b20dd6a527aef89b137496ca20a6.epub,0,2000-01-01 01:00:00,2016-04-03 02:51:08,767000/B379B20DD6A527AEF89B137496CA20A6-g.jpg,,
19786933,Kurzlehrbuch Neurologie  ,,,,"Heinrich Mattle, Marco Mumenthaler, Gerhard Schroth, Universitätsinstitut für Diagnostische und Interventionelle Neuroradiologie",2010,,G. Thieme,,456,0,German ,,,2011 12 30,"313142933X,9783131429339",,,,,,,,JW6qKQEACAAJ,,,0,,,,0,1,1,1,54874999,pdf,B37B4D2FBB2872437B11149FA139D3CE,,,_459049.b37b4d2fbb2872437b11149fa139d3ce.pdf,0,2000-01-01 01:00:00,2016-04-03 02:51:08,767000/b37b4d2fbb2872437b11149fa139d3ce-d.jpg,,
19786934,R in Action  ,,,,Robert Kabacoff,2011,1,Manning Publications,,474,0,English ,,,2011 12 30,"1935182390,9781935182399",,,,,,,,,OL25186696M,,0,,,,1,0,1,1,15653844,pdf,B37B99FB99CD562C279F298A5FDD8BDD,,,_455904.b37b99fb99cd562c279f298a5fdd8bdd.pdf,0,2000-01-01 01:00:00,2016-04-03 02:51:08,767000/b37b99fb99cd562c279f298a5fdd8bdd-d.jpg,,
19786935,Coaching Handbook: An Action Kit for Trainers and Managers  ,,Gale virtual reference library,,"Sara Thorpe, Jackie Clifford",2003,,Kogan Page,"London, England ; Sterlaing, Va",240,0,English ,,,2011 12 30,"074943810X,9780749438104,9780749447281,1417572280,9781417572281,0749447281",,,,,658.3124,HF5549.5.T7 T464 2003,,,OL3702950M,,0,,,,0,1,0,1,746652,pdf,B37CC78316A455687C571DD3AB751BD1,,,_449020.b37cc78316a455687c571dd3ab751bd1.pdf,0,2000-01-01 01:00:00,2016-04-03 02:51:08,767000/b37cc78316a455687c571dd3ab751bd1-d.jpg,,
19786936,"Dog Days (Diary of a Wimpy Kid, Book 4)  ",,,,Jeff Kinney,2009,1,Amulet Books,,,0,English ,,,2011 12 30,"0810983915,9780810983915",,,,,,,,,OL23631320M,,0,,,,,1,,,43120,epub,B37D53AD05E69A1E2D5026FBB02DD19E,,,_437001.b37d53ad05e69a1e2d5026fbb02dd19e.epub,0,2000-01-01 01:00:00,2016-04-03 02:51:08,767000/b37d53ad05e69a1e2d5026fbb02dd19e-d.jpg,,
19786937,George Washington's Enforcers: Policing the Continental Army  ,,,,Professor Emeritus Harry M. Ward,2006,1st,Southern Illinois University Press,,298,0,English ,,,2011 12 30,"0809326884,9780809326884",,,,,973.3/4,E259 .W37 2005,,,OL3411715M,,0,,,,1,0,1,1,2053582,pdf,B37E037E6FF58165FC261A2B35BAC4B8,,,_470490.b37e037e6ff58165fc261a2b35bac4b8.pdf,0,2000-01-01 01:00:00,2016-04-03 02:51:08,767000/b37e037e6ff58165fc261a2b35bac4b8-d.jpg,,
19786938,"Commutative Algebra, 2nd ed. (Mathematics Lecture Note Series, 56)  ",,,,Hideyuki Matsumura,,,,,332,0,English ,,,2011 12 30,,,,,,,,,,,,0,,,,,1,0,0,3452618,djvu,B37F9B9F8E6223FFBB546B5F26F6E0A3,82d2876dcaf3245e852ca066caf9bf8e,no,_454705.b37f9b9f8e6223ffbb546b5f26f6e0a3.djvu,0,2000-01-01 01:00:00,2016-04-03 02:51:08,767000/b37f9b9f8e6223ffbb546b5f26f6e0a3-g.jpg,,
19786939,Calculus: Early Transcendentals  ,,,,Jon Rogawski,2007,First Edition,W. H. Freeman,,1204,0,English ,,,2011 12 30,"0716772671,9780716772675",,,,,,,,,OL7835684M,,0,,,,,1,,1,60139776,pdf,B37FB17238E1BB50BB06DA21B31D1355,,,_456059.b37fb17238e1bb50bb06da21b31d1355.pdf,0,2000-01-01 01:00:00,2016-04-03 02:51:08,767000/b37fb17238e1bb50bb06da21b31d1355-d.jpg,,
19786940,,,,Science Magazine 17 June 2011 volume 332 ,AAAS,2011,,AAAS,,124,0,English ,,,2011 12 30,,0036-8075,,,,,,,,,periodic,0,,,,0,1,0,0,58869349,pdf,B38012E5193554C614F2D7B55E284493,,ban,_433684.b38012e5193554c614f2d7b55e284493.pdf,0,2000-01-01 01:00:00,2016-04-03 02:51:08,767000/b38012e5193554c614f2d7b55e284493-g.jpg,,
19786941,All the Mathematics You Missed: But Need to Know for Graduate School  ,,,,Thomas A. Garrity,2001,1,Cambridge University Press,,376,0,English ,,,2011 12 30,"0521792851,9780521792851,0521797071,9780521797078",,,,,,,,s_l6VK1ZPtMC,OL20793038M,,600,,,,1,1,1,1,2779638,djvu,B38028385FB7C1E5123E9415F03ECE29,,,_454688.b38028385fb7c1e5123e9415f03ece29.djvu,0,2000-01-01 01:00:00,2016-04-03 02:51:08,767000/b38028385fb7c1e5123e9415f03ece29-d.jpg,,
19786942,Death In Daytime: (A Soap Opera Mystery 01)  ,,,,Eileen Davidson,2008,,Signet,,,0,English ,,,2011 12 30,"0451225643,9780451225641",,,,,813/.6,PS3604.A9465 D43 2008,,,OL23991556M,,0,,,,,1,,,264823,epub,B380BF973B95B16846C5010DE57FA85B,,,_466562.b380bf973b95b16846c5010de57fa85b.epub,0,2000-01-01 01:00:00,2016-04-03 02:51:08,767000/b380bf973b95b16846c5010de57fa85b-d.jpg,,
19786943,"Allergy: Expert Consult, 4th Edition  ",,,,"Stephen T. Holgate, Martin K. Church, David H. Broide, Fernando D. Martinez",2011,4th Edition,Elsevier - Health Sciences Division,,410,0,English ,,,2011 12 30,"0723436584,9780723436584",,,,,616.9′7–dc22,,,GeLutgAACAAJ,,,0,,,,1,0,1,1,32632415,pdf,B3815FC1B74FADB912CCB20893743017,,,_511446.b3815fc1b74fadb912ccb20893743017.pdf,0,2000-01-01 01:00:00,2016-04-03 02:51:08,767000/b3815fc1b74fadb912ccb20893743017-d.jpg,,
19786944,"Fresh-cut Fruits and Vegetables: Science, Technology and Market  ",,,,Olusola Lamikanra,2002,1,CRC Press,,453,0,English ,,,2011 12 30,"1587160307,9781420031874,9781587160301",,,,,,2001054766,,,OL17039554M,,0,,,,,0,1,1,4831794,djvu,B3816B28942DE03666DAC5EE5778CD99,,,_436288.b3816b28942de03666dac5ee5778cd99.djvu,0,2000-01-01 01:00:00,2016-04-03 02:51:08,767000/b3816b28942de03666dac5ee5778cd99-d.jpg,,
19786945,Bhagawat - The Krishna Avatar (Special 9-volume hardcover edition)  ,,,,Anant Pai,2006,,Amar Chitra Katha,,256,0,English ,,,2011 12 30,8175081449,,,,,,,,,OL13147164M,,0,,,,,1,1,1,55277657,pdf,B3866270C6766BF183EFD59F6CB47CE4,,,_511994.b3866270c6766bf183efd59f6cb47ce4.pdf,0,2000-01-01 01:00:00,2016-04-03 02:51:08,767000/b3866270c6766bf183efd59f6cb47ce4-d.jpg,,
19786946,From Rebuke to Consolation: Exegesis and Theology in the Liturgical Anthology of the Ninth of Av Season (Brown Judaic Studies)  ,,,,Elsie R. Stern,2005,,Brown Judaic Studies,,230,0,English ,,,2011 12 30,"1930675216,9781930675216",,,,,296.4/539,BM675.K5 Z87 2004,,,OL19149044M,,0,,,,,1,,1,915974,pdf,B3873CB001CF2287A8DEF841B3E941D9,,,_484800.b3873cb001cf2287a8def841b3e941d9.pdf,0,2000-01-01 01:00:00,2016-04-03 02:51:08,767000/b3873cb001cf2287a8def841b3e941d9-d.jpg,,
19786947,Representing the Other?: Sanskrit Sources and the Muslims (8th-14th Century)  ,,,,Brajadulal Chattopadhyaya,1998,,Manohar Publishers and Distributors,,63,0,English ,,,2011 12 30,"8173042527,9788173042522",,,,,,,,,OL511728M,,0,,,,,1,,1,4707048,pdf,B3887D3AB1E61C90B4B92A97CD3B4F52,,,_495487.b3887d3ab1e61c90b4b92a97cd3b4f52.pdf,0,2000-01-01 01:00:00,2016-04-03 02:51:08,767000/b3887d3ab1e61c90b4b92a97cd3b4f52-g.jpg,,
19786948,"Cocoa Programming for Mac OS X, 3rd Edition  ",,,,Aaron Hillegass,2008,3,,,662,0,English ,87,,2011 12 30,"0321503619,9780321503619",,,,,005.26/8,QA76.76.O63 H57145 2008,,,OL23093975M,,0,,,,0,0,1,1,23546067,pdf,B388F470DC70355881B40A5C6C0241AB,,,_128306.b388f470dc70355881b40a5c6c0241ab.pdf,0,2000-01-01 01:00:00,2016-04-03 02:51:08,767000/b388f470dc70355881b40a5c6c0241ab-d.jpg,,
19786949,Intelligent multimedia databases and information retrieval: advancing applications and technologies,,,,"Li Yan, Zongmin Ma",2011,1,IGI Global,,334,0,English,76,,2011 12 30,"1613501269, 9781613501269, 1613501277, 9781613501276",,,,,006.7-dc23,QA76.575.I254 2012,10.4018/978-1-61350-126-9,Kt4kKQEACAAJ,,,0,,,,1,0,1,1,9130208,pdf,B389FFB465B1078D022E87984B36D14D,,,_513145.b389ffb465b1078d022e87984b36d14d.pdf,0,2000-01-01 01:00:00,2016-04-03 02:51:08,767000/b389ffb465b1078d022e87984b36d14d-d.jpg,,
19786950,Geometry: A Metric Approach with Models (Undergraduate Texts in Mathematics)  ,,,,"Richard S. Millman, George D. Parker",1990,2nd,Springer,,388,0,English ,,,2011 12 30,"0387974121,9780387974125",,,,,516,QA445 .M52 1991,,KpQ49uySA-EC,OL1587192M,,0,,,,,1,1,1,5012371,djvu,B38AEDAC3AD57A5595702C2C78BC41B3,,,_431318.b38aedac3ad57a5595702c2c78bc41b3.djvu,0,2000-01-01 01:00:00,2016-04-03 02:51:08,767000/b38aedac3ad57a5595702c2c78bc41b3-d.jpg,,
19786951,Agriculture and EU Environmental Law  ,,,,Brian Jack,2009,Har/Dig,Ashgate,"Farnham, Surrey, Great Britain ; Burlington, VT",300,0,English ,,,2011 12 30,"0754645401,978-0-7546-4540-5,978-0-7546-9241-6,0754692418",,,,,343.24/076,KJE6605 .J33 2009,,,OL23606750M,,0,,,,0,0,0,1,3868705,pdf,B38B057F1825C800254A0341545E7BF7,,,_459976.b38b057f1825c800254a0341545e7bf7.pdf,0,2000-01-01 01:00:00,2016-04-03 02:51:08,767000/b38b057f1825c800254a0341545e7bf7-d.jpg,,
19786952,"Searle's Philosophy and Chinese Philosophy: Constructive Engagement (Philosophy of History and Culture, Vol. 27)  ",,Philosophy of History and Culture 27,,Bo Mou (editor),2008,,Brill Academic Pub,,463,0,English ,,,2011 12 30,"9004168095,9789004168091",0922-6001,,,,191,B1649.S264 I83 2005,,NCfXAAAAMAAJ,OL16679354M,,0,,,,1,0,1,1,1730703,pdf,B38DC1716198E280DBFE5AFB416985E8,,,_493642.b38dc1716198e280dbfe5afb416985e8.pdf,0,2000-01-01 01:00:00,2016-04-03 02:51:08,767000/b38dc1716198e280dbfe5afb416985e8-d.jpg,,
19786953,Clerical Discourse and Lay Audience in Late Medieval England  ,,,,Fiona Somerset,1998,,Cambridge University Press,,253,0,English ,,,2011 12 30,"0521621542,9780521621540,9780511004124",,,,,428/.0271/09023,PA8030.C47 S65 1998,,,OL685425M,,0,,,,1,0,1,1,1102884,pdf,B38E3043654A85B845D375E39657EF34,,,_466529.b38e3043654a85b845d375e39657ef34.pdf,0,2000-01-01 01:00:00,2016-04-03 02:51:08,767000/b38e3043654a85b845d375e39657ef34-d.jpg,,
19786954,My Fab: Dot-to-Dot Fun In Park  ,,,,None,,,,,64,0,English ,,,2011 12 30,,,,,,,,,,,,0,,,,,1,,0,38374557,pdf,B38F80BFBED6530BBF65991CED74BE2E,,,_446125.b38f80bfbed6530bbf65991ced74be2e.pdf,0,2000-01-01 01:00:00,2016-04-03 02:51:08,767000/b38f80bfbed6530bbf65991ced74be2e-g.jpg,,
19786955,Parental learning disability and children's needs: family experiences and effective practice  ,,,,"Hedy Cleaver, Don Thomas Nicholson",2007,1,Jessica Kingsley Publishers,London ; Philadelphia,145,0,English ,,,2011 12 30,"1843106329,978-1-84310-632-6,9781846427442,978-1-84310-582-4,978-1-84310-543-5,1846427444",,,,,362.4085/0941,HQ759.912 .C54 2008,,uo2xbNTN0VwC,OL11902924M,,0,,,,,1,,1,567432,pdf,B392DF7FD60E5076FF93AC8DAD01427D,,,_469455.b392df7fd60e5076ff93ac8dad01427d.pdf,0,2000-01-01 01:00:00,2016-04-03 02:51:08,767000/b392df7fd60e5076ff93ac8dad01427d-d.jpg,,
19786956,Basics Interior Design: Exhibition Design  ,,"Basics interior design, 2",,Pam Locker,2011,,Ava Publishing,"Lausanne, Switzerland",169,0,English ,,,2011 12 30,"2940411387,978-2-940411-38-2,9782940439744,2940439745",,,,,,,,,,,0,,,,,1,,1,30298590,pdf,B393016D60EBFE799CBB788ED9F728B4,,,_453640.b393016d60ebfe799cbb788ed9f728b4.pdf,0,2000-01-01 01:00:00,2016-04-03 02:51:08,767000/b393016d60ebfe799cbb788ed9f728b4-d.jpg,,
19786957,Several Complex Variables (Chicago Lectures in Mathematics)  ,,,,Raghavan Narasimhan,1971,,University Of Chicago Press,,182,0,English ,,,2011 12 30,"0226568172,9780226568171",,,,,515/.94,QA331 .N29,,,OL5222630M,,0,,,,0,1,1,1,5533345,pdf,B3935A7700C4020BA3C7CA90F282B3AB,,,_460930.b3935a7700c4020ba3c7ca90f282b3ab.pdf,0,2000-01-01 01:00:00,2016-04-03 02:51:08,767000/b3935a7700c4020ba3c7ca90f282b3ab-d.jpg,,
19786958,Nakama 1  ,,,,"Yukiko Abe Hatasa, Kazumi Hatasa, Seiichi Makino",2010,2,Heinle,,586,0,English ,,,2011 12 30,"0495798185,9780495798187",,,,,,,,,,,0,,,,1,0,1,1,24441791,pdf,B3953E847AE6F0F08D3B535C525E5D07,,,_453877.b3953e847ae6f0f08d3b535c525e5d07.pdf,0,2000-01-01 01:00:00,2016-04-03 02:51:08,767000/b3953e847ae6f0f08d3b535c525e5d07-d.jpg,,
19786959,Angel Rogue  ,,,,Mary Jo Putney,2006,,Signet,,210,0,English ,,,2011 12 30,"0451219929,9780451219923",,,,,,,,,OL7574965M,,0,,,,,1,,1,629759,pdf,B396687F34EA30A9A4693B44AC346DCC,,,_463313.b396687f34ea30a9a4693b44ac346dcc.pdf,0,2000-01-01 01:00:00,2016-04-03 02:51:08,767000/b396687f34ea30a9a4693b44ac346dcc-d.jpg,,
19786960,Zarys Logiki  ,,,,Kazimierz Ajdukiewicz,1957,,PZWS,,105,0,Polish ,,,2011 12 30,,,,,,,,,,,,0,,,,,1,,0,17600773,pdf,B39743B493D6C8ED3322CB6856B58CA1,,,_471224.b39743b493d6c8ed3322cb6856b58ca1.pdf,0,2000-01-01 01:00:00,2016-04-03 02:51:08,767000/b39743b493d6c8ed3322cb6856b58ca1-g.jpg,,
19786961,Bob Cranshaw: Bass Lines exactly as recorded  ,,,,Fred Boaden,,,,,32,0,English ,,,2011 12 30,,,,,,,,,,,,0,,,,0,1,0,0,2879189,pdf,B3974D25D9586B1059BC518B7E1BCD39,,,_452553.b3974d25d9586b1059bc518b7e1bcd39.pdf,0,2000-01-01 01:00:00,2016-04-03 02:51:08,767000/b3974d25d9586b1059bc518b7e1bcd39-g.jpg,,
19786962,Green  ,,,,Jay Lake,2011,,Tor Books,,,0,English ,,,2011 12 30,"0765321858,9780765321855",,,,,813/.6,PS3612.A519 G74 2009,,,OL22691430M,,0,,,,,1,,,650538,epub,B398AEAECA05D1EF1CEAD6C111372671,,,_495100.b398aeaeca05d1ef1cead6c111372671.epub,0,2000-01-01 01:00:00,2016-04-03 02:51:08,767000/b398aeaeca05d1ef1cead6c111372671-d.jpg,,
19786963,Life Nomadic  ,,,,Tynan,2010,,CreateSpace,,157,0,English ,,,2011 12 30,,,,,,,,,,,,0,,,,1,0,0,1,1012477,pdf,B399DE072C22FF097BA68FA051AA668E,,,_474967.b399de072c22ff097ba68fa051aa668e.pdf,0,2000-01-01 01:00:00,2016-04-03 02:51:08,767000/b399de072c22ff097ba68fa051aa668e-g.jpg,,
19786964,Reinventing Management: Smarter Choices for Getting Work Done  ,,,,Julian Birkinshaw,2010,1,Jossey-Bass,,,0,English ,,,2011 12 30,"0470750111,9780470750117",,,,,658.4/012,HD31 .B4975 2010,,,OL24069118M,,0,,,,,1,,,942806,mobi,B39ADB9891DC8650FF0E4B7E5054B92A,,,_505049.b39adb9891dc8650ff0e4b7e5054b92a.mobi,0,2000-01-01 01:00:00,2016-04-03 02:51:08,767000/b39adb9891dc8650ff0e4b7e5054b92a-d.jpg,,
19786965,"Mathematical Concepts of Quantum Mechanics, 2nd Edition  ",,Universitext,,"Stephen J. Gustafson, Israel Michael Sigal",2011,2,Springer,,380,0,English,,,2011 12 30,"3642218652,9783642218651",,,,,,,10.1007/978-3-642-21866-8,,,,0,,,,0,0,1,1,3395854,pdf,B39AF206E3FD6F6161155C8C20B00F93,,,_470586.b39af206e3fd6f6161155c8c20b00f93.pdf,0,2000-01-01 01:00:00,2016-04-03 02:51:08,767000/b39af206e3fd6f6161155c8c20b00f93-d.jpg,,
19786966,Energy and the Evolution of Life  ,,,,Ronald F. Fox,1988,2nd Edition,W.H. Freeman & Company,,99,0,English ,,,2011 12 30,"0716718499,9780716718499,0716718707,9780716718703",,,,,575,QH371 .F62 1988,,sT5yQgAACAAJ,OL2392014M,,0,,,,0,1,0,0,11971455,pdf,B39B8205CEF147A8A645C7C4C6F6A6BE,,,_458949.b39b8205cef147a8a645c7c4c6f6a6be.pdf,0,2000-01-01 01:00:00,2016-04-03 02:51:08,767000/b39b8205cef147a8a645c7c4c6f6a6be-d.jpg,,
19786967,The Art of Aeschylus  ,,,,Thomas G. Rosenmeyer,1982,,University of California Press,,395,0,English ,,,2011 12 30,"0520046080,9780520046085",,,,,,,,,,,0,,,,0,1,0,0,39152926,pdf,B39BB101F45D577EFD385057AED56464,,,_474498.b39bb101f45d577efd385057aed56464.pdf,0,2000-01-01 01:00:00,2016-04-03 02:51:08,767000/b39bb101f45d577efd385057aed56464-d.jpg,,
19786968,"Pedagogy, Oppression and Transformation in a 'Post-Critical' Climate: The Return to Freirean Thinking  ",,,,"Andrew O'Shea, Maeve O'Brien",2011,1,Continuum,,193,0,English ,,,2011 12 30,"1441142347,9781441142344,9781441175229",,,,,370.11/5,LB880.F732 O84 2011,,BSi0cQAACAAJ,OL24847919M,,0,,,,1,0,1,1,957110,pdf,B39CC5B56980FBE1A89DF5B9AC04F751,,,_506952.b39cc5b56980fbe1a89df5b9ac04f751.pdf,0,2000-01-01 01:00:00,2016-04-03 02:51:08,767000/b39cc5b56980fbe1a89df5b9ac04f751-d.jpg,,
19786969,"Tsunamis: Causes, Characteristics, Warnings and Protection (Natural Disaster Research, Prediction and Mitigation)  ",,"Natural Disaster Research, Prediction and Mitigation",,"Neil Veitch, Gordon Jaffray",2010,,Nova Science Pub Inc,,277,0,English ,,,2011 12 30,"1608763609,9781608763603,9781611225709",,,,,363.34/94,GC221.2 .T785 2009,,,OL23713365M,,0,,,,1,0,1,1,10923457,pdf,B39D3D09BE17E60D14E5BC112ABC75DE,,,_471183.b39d3d09be17e60d14e5bc112abc75de.pdf,0,2000-01-01 01:00:00,2016-04-03 02:51:08,767000/b39d3d09be17e60d14e5bc112abc75de-d.jpg,,
19786970,Auch die Waschmaschine ist nur ein Mensch. Die besten Technikgeschichten  ,,,,Ephraim Kishon,1987,,Herbig,,201,0,German ,,,2011 12 30,"3776614544,9783776614541",,,,,,,,,OL23055256M,,0,,,,1,0,1,1,713094,pdf,B39E82DAC8BC6A3C210C2F947A8381EA,,,_456557.b39e82dac8bc6a3c210c2f947a8381ea.pdf,0,2000-01-01 01:00:00,2016-04-03 02:51:08,767000/b39e82dac8bc6a3c210c2f947a8381ea-g.jpg,,
19786971,An Elementary Swahili Newspaper Reader  ,,,,Agnes Musyoki and John D. Murphy,1985,,Dunwoody Press,,209,0,English ,,,2011 12 30,,,,,,,,,,,,0,,,,1,1,1,1,2191924,pdf,B39EFFB15739E91ED721349BFC1C0C1C,,,_490902.b39effb15739e91ed721349bfc1c0c1c.pdf,0,2000-01-01 01:00:00,2016-04-03 02:51:08,767000/b39effb15739e91ed721349bfc1c0c1c-g.jpg,,
19786972,"Socjologia: zwięzłe, lecz krytyczne wprowadzenie  ",,,,Anthony Giddens,1998,,Zysk i S-ka,,91,0,Polish ,,,2011 12 30,"8371504578,9788371504570",,,,,,,,,,,0,,,,,1,,0,4165279,pdf,B39F62AA8815E3371642671750E73D46,,,_504237.b39f62aa8815e3371642671750e73d46.pdf,0,2000-01-01 01:00:00,2016-04-03 02:51:08,767000/b39f62aa8815e3371642671750e73d46-g.jpg,,
19786973,A Decade of Hope: Stories of Grief and Endurance from 9-11 Families and Friends  ,,,,Dennis Smith,2011,,Viking Adult,,,0,English ,,,2011 12 30,"1101543515,9781101543511",,,,,,,,,,,0,,,,0,0,1,1,932147,epub,B3A1867ED5FDACF348DD22FA189DECB3,,,_479052.b3a1867ed5fdacf348dd22fa189decb3.epub,0,2000-01-01 01:00:00,2016-04-03 02:51:08,767000/B3A1867ED5FDACF348DD22FA189DECB3-g.jpg,,
19786974,New Topics in Food Engineering  ,,Food Science and Technology,,Mariann A. Comeau,2011,,Nova Science Pub Inc,,326,0,English ,,,2011 12 30,9781612098968,,,,,,,,alVJYgEACAAJ,,,0,,,,1,0,1,1,7475846,pdf,B3A32D2563C5C9F8900F6E016220CF05,,,_495781.b3a32d2563c5c9f8900f6e016220cf05.pdf,0,2000-01-01 01:00:00,2016-04-03 02:51:08,767000/b3a32d2563c5c9f8900f6e016220cf05-g.jpg,,
19786975,Teachers' Guide To - Physics is Fun - Book Four  ,,Physics is Fun,,"Douglas McMahon, John Hughes, Tom Spears",1969,,Heinemann Educational Books Ltd.,,122,0,English ,,,2011 12 30,043567482X,,,,,530,,,,OL15042901M,,0,,,,0,1,0,1,19213451,pdf,B3A33C96D20A5B23008D7331D3C43676,,,_466595.b3a33c96d20a5b23008d7331d3c43676.pdf,0,2000-01-01 01:00:00,2016-04-03 02:51:08,767000/b3a33c96d20a5b23008d7331d3c43676-g.jpg,,
19786976,Biologiczne podstawy psychologii  ,,,,James W. Kalat,2007,,Wydawnictwo Naukowe PWN,,614,0,Polish ,,,2011 12 30,"8301146885,9788301146887",,,,,,,,,,,0,,,,0,1,0,0,267467045,pdf,B3A3665249632B820E6EECBC168DEE51,,,_460702.b3a3665249632b820e6eecbc168dee51.pdf,0,2000-01-01 01:00:00,2016-04-03 02:51:08,767000/b3a3665249632b820e6eecbc168dee51-g.jpg,,
19786977,"Tree of Paradise (Harlequin Romance, 2033)  ",,Harlequin Romance,,Jane Arbor,1977,,Harlequin,,301,0,English ,,,2011 12 30,"0373020333,9780373020331",,,,,,,,3hlLa0s8GAsC,OL10690888M,,0,,,,,0,1,1,407697,mobi,B3A3C0A17B601F290E5AB49B200C0B39,,,_460406.b3a3c0a17b601f290e5ab49b200c0b39.mobi,0,2000-01-01 01:00:00,2016-04-03 02:51:08,767000/B3A3C0A17B601F290E5AB49B200C0B39-g.jpg,,
19786978,Rebirth  ,,A Daughter of Kings: Battle for Ruin Mist 3,,Robert Stanek,2010,,Reagent Press,,28,0,English ,,,2011 12 30,"1575458861,9781575458861",,,,,,,,,,,0,,,,1,1,0,0,10605543,pdf,B3A550E3C35CC9FCDC258DC3573A8F50,,,_486134.b3a550e3c35cc9fcdc258dc3573a8f50.pdf,0,2000-01-01 01:00:00,2016-04-03 02:51:08,767000/b3a550e3c35cc9fcdc258dc3573a8f50-g.jpg,,
19786979,Belly Laughs: The Naked Truth About Pregnancy and Childbirth  ,,,,Jenny McCarthy,2004,1st Da Capo Lifelong Bks Ed 2004,Da Capo Lifelong,,,0,English ,,,2011 12 30,"073820949X,9780738209494,9780738211282",,,,,618.2/002/07,RG556 .M34 2004,,FPzap8_I4SgC,OL20944050M,,0,,,,,0,1,1,167047,epub,B3A865D53A5E7D9189AC8766227445EC,,,_500449.b3a865d53a5e7d9189ac8766227445ec.epub,0,2000-01-01 01:00:00,2016-04-03 02:51:08,767000/b3a865d53a5e7d9189ac8766227445ec-d.jpg,,
19786980,The Abominable Man  ,,Martin Beck 7,,"Maj Sjöwall, Per Wahlöö",2007,,Harper Perennial,,142,0,English ,,,2011 12 30,"030739090X,9780307390905",,,,,839.7/374,PT9876.29.J63 V4 2009,,,OL23997401M,,0,,,,0,1,0,1,951983,pdf,B3AAA9901C56B890B121DAE43866C40E,,,_440311.b3aaa9901c56b890b121dae43866c40e.pdf,0,2000-01-01 01:00:00,2016-04-03 02:51:08,767000/b3aaa9901c56b890b121dae43866c40e-d.jpg,,
19786981,Appassionata  ,,,,Eva Hoffman,2009,,Other Press,,,0,English ,,,2011 12 30,9781590513514,,,,,,,,,OL24269512M,,0,,,,,1,1,,1965910,epub,B3AB9C40A50BD1434B300A37E9A85A69,,,_443052.b3ab9c40a50bd1434b300a37e9a85a69.epub,0,2000-01-01 01:00:00,2016-04-03 02:51:08,767000/B3AB9C40A50BD1434B300A37E9A85A69-g.jpg,,
19786982,Adaptation volume 239 ,,,,Richard C Lewontin,1978,,,,11,0,English ,,,2011 12 30,,,,,,,,,,,,0,,,,0,1,0,1,9131278,pdf,B3AC5FE5D5C18E235D1ED6A1D8DC7BC6,,,_448327.b3ac5fe5d5c18e235d1ed6a1d8dc7bc6.pdf,0,2000-01-01 01:00:00,2016-04-03 02:51:08,767000/b3ac5fe5d5c18e235d1ed6a1d8dc7bc6-g.jpg,,
19786983,Misticismo e logica e altri saggi  ,,,,Bertrand Russell,1964,,Longanesi,,,0,Italian ,,,2011 12 30,,,,,,,,,,,,0,,,,,1,1,1,3738062,epub,B3ADE6FA27CD3C090B889CC7218047DF,,,_440338.b3ade6fa27cd3c090b889cc7218047df.epub,0,2000-01-01 01:00:00,2016-04-03 02:51:08,767000/B3ADE6FA27CD3C090B889CC7218047DF-g.jpg,,
19786984,A Scholarly Edition of Andrés de Li's Thesoro de la passion (1494) (Medieval and Early Modern Iberian World)  ,,Medieval and Early Modern Iberian World 41,,Laura Delbrugge,2011,,BRILL,,397,0,English ,,,2011 12 30,"9004195866,9789004195868",,,,,232.96,BT431.3 .L55 2011,,,OL24914876M,,0,,,,1,0,1,1,5916952,pdf,B3AF79FC5EBCB9BB5B0F129E794C5B72,,,_479627.b3af79fc5ebcb9bb5b0f129e794c5b72.pdf,0,2000-01-01 01:00:00,2016-04-03 02:51:08,767000/b3af79fc5ebcb9bb5b0f129e794c5b72-d.jpg,,
19786985,A First Dictionary of Cultural Literacy: What Our Children Need to Know  ,,,,E. D. Hirsch,1996,2,Houghton Mifflin,,298,0,English ,,,2011 12 30,"0395823528,9780395823521",,,,,31,AG5 .F55 1996,,_SXMGwAACAAJ,OL7468107M,,0,,,,1,0,1,1,6054648,pdf,B3B02FF2E37F0869BB472C16314A874C,,,_456770.b3b02ff2e37f0869bb472c16314a874c.pdf,0,2000-01-01 01:00:00,2016-04-03 02:51:08,767000/b3b02ff2e37f0869bb472c16314a874c-d.jpg,,
19786986,NumPy 1.5 Beginner's Guide  ,,,,Ivan Idris,2011,,Packt Publishing,,234,0,English ,,,2011 12 30,"1849515301,9781849515306",,,,,,,,,,,0,,,,1,0,1,1,3330245,pdf,B3B09562F29599DE38A626C92EA14FCF,,,_494450.b3b09562f29599de38a626c92ea14fcf.pdf,0,2000-01-01 01:00:00,2016-04-03 02:51:08,767000/b3b09562f29599de38a626c92ea14fcf-d.jpg,,
19786987,Художественная галерея № 98. Жерико  ,,Художественная галерея,,Панфилов А. (ed.),2006,,DeAgostini,,32,0,Russian ,,,2011 12 30,"0748989390,0748974652",,,,,,,,,,periodic,0,,,,1,1,0,0,5236100,djvu,B3B1E1B6BDC332967582CC9BB99D969C,,ban,_474124.b3b1e1b6bdc332967582cc9bb99d969c.djvu,0,2000-01-01 01:00:00,2016-04-03 02:51:08,767000/b3b1e1b6bdc332967582cc9bb99d969c-g.jpg,,
19786988,My Cousin Rachel  ,,,,Daphne du Maurier,2009,,Sourcebooks Landmark,,27,0,English ,,,2011 12 30,"1402217099,9781402217098",,,,,823.9,,,,,,0,,,,,1,,,56424,epub,B3B437300305A2641FC9EB9E16B0C9D5,,,_503954.b3b437300305a2641fc9eb9e16b0c9d5.epub,0,2000-01-01 01:00:00,2016-04-03 02:51:08,767000/b3b437300305a2641fc9eb9e16b0c9d5-d.jpg,,
19786989,Childhood Psychological Disorders: Current Controversies (Making Sense of Psychology)  ,,Making Sense of Psychology,,Alberto M. Bursztyn,2011,,Praeger,,229,0,English ,,,2011 12 30,"0313336962,9780313336966,9780313064067",,,,,364.16/4,HV6433.785 .P57 2010,,,OL24562113M,,0,,,,1,0,1,1,1041909,pdf,B3B6AEBE0A2C2E8FD45FF4B9F8344FF3,,,_475349.b3b6aebe0a2c2e8fd45ff4b9f8344ff3.pdf,0,2000-01-01 01:00:00,2016-04-03 02:51:08,767000/b3b6aebe0a2c2e8fd45ff4b9f8344ff3-d.jpg,,
19786990,,,,Investigación y Ciencia 422 -NOVIEMBRE 2011 ,Pilar Bronchal Garfella,2011,,Prensa Científica,,96,0,"Spanish,Castilian",,,2011 12 30,,0210136X,,,,,,,,,,0,,,,0,1,0,0,71474526,pdf,B3B6D8CFC0D317D73B6081613B1C386E,,,_492685.b3b6d8cfc0d317d73b6081613b1c386e.pdf,0,2000-01-01 01:00:00,2016-04-03 02:51:08,767000/b3b6d8cfc0d317d73b6081613b1c386e-g.jpg,,
19786991,Management of Unintended and Abnormal Pregnancy: Comprehensive Abortion Care  ,,,,"Maureen Paul, Steve Lichtenberg, Lynn Borgatta, David A. Grimes, Phillip G. Stubblefield, Mitchell D. Creinin",2009,1,Wiley-Blackwell,,396,0,English ,,,2011 12 30,"1405176962,9781405176965",,,,,618.88,RG734 .M345 2009,,,OL24802703M,,0,,,,0,0,0,1,9030675,pdf,B3B890D6CC2E5F66CC2D4B9F3B0F8852,,,_454939.b3b890d6cc2e5f66cc2d4b9f3b0f8852.pdf,0,2000-01-01 01:00:00,2016-04-03 02:51:08,767000/b3b890d6cc2e5f66cc2d4b9f3b0f8852-d.jpg,,
19786992,Environmental Chemistry of Animal Manure  ,,"Environmental Science, Engineering and Technology",,Zhongqui He,2011,,Nova Science Pub Inc,,470,0,English ,,,2011 12 30,"1619422387,9781619422384",,,,,,,,IP88YgEACAAJ,,,0,,,,1,0,1,1,8980867,pdf,B3B89976503BE25253253D9396224F82,,,_508384.b3b89976503be25253253d9396224f82.pdf,0,2000-01-01 01:00:00,2016-04-03 02:51:08,767000/b3b89976503be25253253d9396224f82-g.jpg,,
19786993,"Microsoft® Computer Dictionary, Fifth Edition  ",,,,Microsoft Press,2002,5th ed.,Microsoft Press,,1004,0,English ,,,2011 12 30,"0735614954,9780735614956",,,,,004.03,,,,OL18174143M,,0,,,,,1,0,1,8127295,pdf,B3B8CF2BFE8E7860F09CCFC3697CC300,,,_502037.b3b8cf2bfe8e7860f09ccfc3697cc300.pdf,0,2000-01-01 01:00:00,2016-04-03 02:51:08,767000/b3b8cf2bfe8e7860f09ccfc3697cc300-d.jpg,,
19786994,Progressive Blues Bass: For Beginning Blues Bass Players  ,,,,Stephan Richter,,,,,65,0,English ,,,2011 12 30,,,,,,,,,,,,0,,,,0,1,0,0,5735875,pdf,B3B8FDCD890FD6ADC64E74064AEE80F7,,,_445620.b3b8fdcd890fd6adc64e74064aee80f7.pdf,0,2000-01-01 01:00:00,2016-04-03 02:51:08,767000/b3b8fdcd890fd6adc64e74064aee80f7-g.jpg,,
19786995,Health at Every Size: The Surprising Truth about Your Weight  ,,,,Linda Bacon,2008,2nd Edition,Benbella Books,,224,0,English ,,,2011 12 30,"1935618253,9781935618256",,,,,,,,6-L1HBYhxaAC,OL25033951M,,0,,,,0,0,1,1,796080,mobi,B3B9903ED892C64D9432D34A58EF9A14,,,_494613.b3b9903ed892c64d9432d34a58ef9a14.mobi,0,2000-01-01 01:00:00,2016-04-03 02:51:08,767000/b3b9903ed892c64d9432d34a58ef9a14-d.jpg,,
19786996,"Attacking the Spanish: Marshall, Schliemann & Gajewski  ",,,,Sabino Brunello,2009,,Quality Chess Europe AB,,283,0,English ,,,2011 12 30,"1906552177,9781906552176",,,,,,,,,,,0,,,,0,1,1,1,9312302,pdf,B3BAA18BDAA7172BD6F6CC1BFA0E15C1,,,_477207.b3baa18bdaa7172bd6f6cc1bfa0e15c1.pdf,0,2000-01-01 01:00:00,2016-04-03 02:51:08,767000/b3baa18bdaa7172bd6f6cc1bfa0e15c1-d.jpg,,
19786997,Scritti politici  ,,,,Edward Burke,1963,,UTET,,302,0,Italian ,,,2011 12 30,"880202670X,9788802026701",,,,,,,,,,,0,,,,,1,,0,25121601,pdf,B3BB2227C63FD06C1C34042C8DC7A173,,,_506637.b3bb2227c63fd06c1c34042c8dc7a173.pdf,0,2000-01-01 01:00:00,2016-04-03 02:51:08,767000/b3bb2227c63fd06c1c34042c8dc7a173-g.jpg,,
19786998,"Thiol Redox Transitions in Cell Signaling, Part 2",,Methods in Enzymology 474,,"Enrique Cadenas, Lester Packer",2010,1,Academic Press,,370,0,English ,,,2011 12 30,"0123810035,9780123810038",0076-6879,,,,,,,,,,0,,,,,1,1,1,7532526,pdf,B3BB46D056D551C6C318C26C0E248EF5,,,_490814.b3bb46d056d551c6c318c26c0e248ef5.pdf,0,2000-01-01 01:00:00,2016-04-03 02:51:08,767000/b3bb46d056d551c6c318c26c0e248ef5-d.jpg,,
19786999,"Fundamentals of Financial Management , Eleventh Edition  ",,,,"Eugene F. Brigham, Joel F. Houston",2007,11th edition,Thomson South-Western,,799,0,English ,,,2011 12 30,"0324319819,9780324319811",,,,,,,,,,,0,,,,,0,1,1,10633326,pdf,B3BB671645075B48AF5E9D5144CBDA04,,,_458930.b3bb671645075b48af5e9d5144cbda04.pdf,0,2000-01-01 01:00:00,2016-04-03 02:51:08,767000/b3bb671645075b48af5e9d5144cbda04-d.jpg,,
19787000,Etale Cohomology Theory  ,,Nankai Tracts in Mathematics 13,,Lei Fu,2011,,World Scientific Publishing Company,,622,0,English ,,,2011 12 30,"9814307726,9789814307727",,,,,,,,WhaY64UEVXAC,,,0,,,,1,0,1,1,2706289,pdf,B3BD7B133452DC69771D11B30E39B4DC,,,_487294.b3bd7b133452dc69771d11b30e39b4dc.pdf,0,2000-01-01 01:00:00,2016-04-03 02:51:08,767000/b3bd7b133452dc69771d11b30e39b4dc-d.jpg,,
19787001,From Page to Performance: Essays in Early English Drama  ,,,,John A. Alford,1995,Library edition,Michigan State Univ Pr,,267,0,English ,,,2011 12 30,"0870133799,9780870133794",,,,,822.009,PR648 .F76 1995,,beQKAQAAMAAJ,OL1271165M,,0,,,,1,0,1,1,2301286,pdf,B3BE5597F8628E5A3F7F54C5D320A385,,,_467932.b3be5597f8628e5a3f7f54c5d320a385.pdf,0,2000-01-01 01:00:00,2016-04-03 02:51:08,767000/b3be5597f8628e5a3f7f54c5d320a385-g.jpg,,
19787002,"The Little Black Schoolbook: The Secret to Getting Straight A's at School and University, Volume 2: Exams  ",,,,Mark Lopez,2011,,Taylor Trade Publishing,,188,0,English ,,,2011 12 30,"1589795814,9781589795907,9781589795815",,,,,,,,,,,0,,,,1,0,1,1,791609,pdf,B3BF14C596393AFF994C187C20F96EDB,,,_490567.b3bf14c596393aff994c187c20f96edb.pdf,0,2000-01-01 01:00:00,2016-04-03 02:51:08,767000/b3bf14c596393aff994c187c20f96edb-d.jpg,,
19787003,Electronic Discourse: Linguistic Individuals in Virtual Space  ,,,,Boyd H. Davis and Jeutonne P. Brewer,1997,,State University of New York Press,,244,0,English ,,,2011 12 30,"0791434761,0791434753,9780791434765,9780585090290",,,,,401/.41/0285,P302.3 .D38 1997,,,OL665503M,,0,,,,1,0,1,1,1320647,pdf,B3C06AEE90E9F36759F65193540BA246,,,_466555.b3c06aee90e9f36759f65193540ba246.pdf,0,2000-01-01 01:00:00,2016-04-03 02:51:08,767000/b3c06aee90e9f36759f65193540ba246-d.jpg,,
19787004,Home Birth: The Politics of Difficult Choices  ,,,,Mary Nolan,2011,1,Routledge,,156,0,English ,,,2011 12 30,"0415557542,9780415557542",,,,,,,,1tJ1K2IwtdYC,,,0,,,,,0,,1,2017692,pdf,B3C1274864FC6F84645035EA0671DE35,,,_442947.b3c1274864fc6f84645035ea0671de35.pdf,0,2000-01-01 01:00:00,2016-04-03 02:51:08,767000/b3c1274864fc6f84645035ea0671de35-d.jpg,,
19787005,O melhor do Blog Biblioteconomia para concursos  ,,,,"Gustavo Henn, organizador",,,,,135,0,Portuguese ,,,2011 12 30,9788561748012,,,,,,,,,,,0,,,,,1,1,1,1257688,pdf,B3C14C50DA78D543FAF82EB7E0FE8AAF,,,_454529.b3c14c50da78d543faf82eb7e0fe8aaf.pdf,0,2000-01-01 01:00:00,2016-04-03 02:51:08,767000/b3c14c50da78d543faf82eb7e0fe8aaf-g.jpg,,
19787006,"The Physics of Coronary Blood Flow (Biological and Medical Physics, Biomedical Engineering)  ",,,,M. Zamir,2005,1,Springer,,417,0,English ,,,2011 12 30,"0387252975,9780387252971",,,,,,,,,OL9523171M,,0,,,,,1,,1,5535528,pdf,B3C26D0603C76FA1A772AB34749BD789,,,_456439.b3c26d0603c76fa1a772ab34749bd789.pdf,0,2000-01-01 01:00:00,2016-04-03 02:51:08,767000/b3c26d0603c76fa1a772ab34749bd789-d.jpg,,
19787007,German Angst  ,,,,Friedrich Ani,2000,,Droemer Knaur,,574,0,German ,,,2011 12 30,"3426195437,9783426195437",,,,,,,,,OL6878993M,,0,,,,1,0,1,1,1838807,pdf,B3C2F26294DDABDFEC4FF773559C76CC,,,_444307.b3c2f26294ddabdfec4ff773559c76cc.pdf,0,2000-01-01 01:00:00,2016-04-03 02:51:08,767000/b3c2f26294ddabdfec4ff773559c76cc-d.jpg,,
19787008,"Food Machinery: For the Production of Cereal Foods, Snack Foods and Confectionery  ",,,,L.M. Cheng,1992,,Woodhead Publishing,,287,0,English ,,,2011 12 30,"1855732696,9780133234374",,,,,,,,,OL7340702M,,0,,,,,1,0,1,17667825,pdf,B3C4515DA68869F8A7D22329197E58B0,,,_504533.b3c4515da68869f8a7d22329197e58b0.pdf,0,2000-01-01 01:00:00,2016-04-03 02:51:08,767000/b3c4515da68869f8a7d22329197e58b0-d.jpg,,
19787009,Research Methods in Education - 6e  ,,,,"Louis Cohen, Lawrence Manion, Keith Morrison",2007,6,Routledge,,657,0,English ,,,2011 12 30,"0415374103,9780415374101",,,,,,,,,OL9585409M,,0,,,,0,0,0,1,7700625,pdf,B3C740B929BF91287E563ABE3BED18DC,,,_466283.b3c740b929bf91287e563abe3bed18dc.pdf,0,2000-01-01 01:00:00,2016-04-03 02:51:08,767000/b3c740b929bf91287e563abe3bed18dc-d.jpg,,
19787010,Makro Strategien  ,,,,wolfgang Münchau,,,,,330,0,German ,,,2011 12 30,,,,,,,,,,,,0,,,,,1,,0,124152072,pdf,B3C8A6C7E071E2101384BE48CE9BB494,,,_499502.b3c8a6c7e071e2101384be48ce9bb494.pdf,0,2000-01-01 01:00:00,2016-04-03 02:51:08,767000/b3c8a6c7e071e2101384be48ce9bb494-g.jpg,,
19787011,Data Communication  ,,,,Genetic Computer School,1998,,,,101,0,English ,,,2011 12 30,,,,,,,,,,,,0,,,,1,0,0,1,952483,pdf,B3CA118D3B048A703707841B5FFB04A0,,,_479242.b3ca118d3b048a703707841b5ffb04a0.pdf,0,2000-01-01 01:00:00,2016-04-03 02:51:08,767000/b3ca118d3b048a703707841b5ffb04a0-g.jpg,,
19787012,Literatur und Theologie im 18. Jahrhundert: Konfrontationen - Kontroversen - Konkurrenzen  ,,Hallesche Beiträge zur Europäischen Aufklärung,,Hans Edwin Friedrich,2011,1,De Gruyter,,368,0,German ,,,2011 12 30,"3110251280,9783110251289,9783110251296",,,,,830.93809033,,,yZTZ3t5vkuYC,,,0,,,,1,0,1,1,1735835,pdf,B3CA17CCF29AC16CEDCAC209BBC267C5,,,_506265.b3ca17ccf29ac16cedcac209bbc267c5.pdf,0,2000-01-01 01:00:00,2016-04-03 02:51:08,767000/b3ca17ccf29ac16cedcac209bbc267c5-d.jpg,,
19787013,"Briefs of Leading Cases in Corrections, Fifth Edition  ",,,,"Rolando V. del Carmen, Susan E. Ritter, Betsy A. Witt",2008,5,Anderson,,403,0,English ,,,2011 12 30,"1593455747,9781593455743",,,,,344.7303/5,KF9728 .D45 2005,,,OL22543252M,,0,,,,,1,,1,1717165,pdf,B3CB46E107EBDD0D9AEB3F338EFF03A9,,,_479536.b3cb46e107ebdd0d9aeb3f338eff03a9.pdf,0,2000-01-01 01:00:00,2016-04-03 02:51:08,767000/b3cb46e107ebdd0d9aeb3f338eff03a9-d.jpg,,
19787014,Secondary ion mass spectrometry in the earth sciences: gleaning the big picture from a small spot  ,,,,Mostafa Fayek,2009,,Mineralogical Association of Canada,,177,0,English ,,,2011 12 30,"0921294506,9780921294504",,,,,,,,,,,0,,,,,1,,1,32748040,pdf,B3CEDC4B2D7CBE1CC549A260B171339E,,,_513491.b3cedc4b2d7cbe1cc549a260b171339e.pdf,0,2000-01-01 01:00:00,2016-04-03 02:51:08,767000/b3cedc4b2d7cbe1cc549a260b171339e-g.jpg,,
19787015,Oração aos moços  ,,,,RUI BARBOSA,2009,,Ridendo Castigat Mores,,59,0,Portuguese ,,,2011 12 30,,,,,,,,,,,,0,,,,1,1,0,1,283683,pdf,B3CF1D637265A704DC06246DF403E55F,,,_438885.b3cf1d637265a704dc06246df403e55f.pdf,0,2000-01-01 01:00:00,2016-04-03 02:51:08,767000/b3cf1d637265a704dc06246df403e55f-g.jpg,,
19787016,Fluid Mechanics of Flow Metering  ,,,,"Wolfgang Merzkirch, Klaus Gersten, Volker Hans, Ernst von Lavante, Franz Peters, Venkatesa Vasanta Ram",2004,1,Springer,,269,0,English ,,,2011 12 30,"3540222421,9783540222422",,,,,,,,,OL9054806M,,0,,,,,1,0,1,9252595,pdf,B3D02CBF88F629CF629DB5E8B34AC354,,,_470768.b3d02cbf88f629cf629db5e8b34ac354.pdf,0,2000-01-01 01:00:00,2016-04-03 02:51:08,767000/b3d02cbf88f629cf629db5e8b34ac354-d.jpg,,
19787017,"Practical Real Estate Law , Fifth Edition  ",,,,Daniel F. Hinkel,2007,5,Delmar Cengage Learning,,699,0,English ,,,2011 12 30,"1418048410,9781418048419",,,,,346.7304/3,KF665 .H53 2008,,,OL17952020M,,0,,,,1,0,1,1,11420451,pdf,B3D11C7A4C05B88194F4B00E7ADFAB1D,,,_467561.b3d11c7a4c05b88194f4b00e7adfab1d.pdf,0,2000-01-01 01:00:00,2016-04-03 02:51:08,767000/b3d11c7a4c05b88194f4b00e7adfab1d-d.jpg,,
19787018,Beyond Happiness: How You Can Fulfill Your Deepest Desire  ,,,,Frank Joseph Kinslow,2008,,"Lucid Sea, LLC",,204,0,English ,,,2011 12 30,"0615226795,9780615226798",,,,,,,,,,,0,,,,1,1,1,1,1105879,pdf,B3D185AB4D4702BCD60F2D3DD37438FB,,,_445633.b3d185ab4d4702bcd60f2d3dd37438fb.pdf,0,2000-01-01 01:00:00,2016-04-03 02:51:08,767000/b3d185ab4d4702bcd60f2d3dd37438fb-d.jpg,,
19787019,Something In The Water  ,,Torchwood 4,,Trevor Baxendale,2008,eBook Edition,BBC Books,,,0,English ,,,2011 12 30,"1846074371,9781846074370,1409071316,9781409071310",,,,,,,,3D7GyQ-0HeAC,OL11913814M,,0,,,,,0,1,1,255369,epub,B3D3968B1972ABEC40CADCB6A7ED123B,,,_477253.b3d3968b1972abec40cadcb6a7ed123b.epub,0,2000-01-01 01:00:00,2016-04-03 02:51:08,767000/b3d3968b1972abec40cadcb6a7ed123b-d.jpg,,
19787020,Ai margini della galassia  ,,,,Lloyd jr. Biggle,1972,,Nord,,86,0,Italian ,,,2011 12 30,,,,,,,,,Gb51PwAACAAJ,,,0,,,,0,1,0,1,954212,pdf,B3D3EB5C8D64DF2926D84919104B7DE6,,,_508491.b3d3eb5c8d64df2926d84919104b7de6.pdf,0,2000-01-01 01:00:00,2016-04-03 02:51:08,767000/b3d3eb5c8d64df2926d84919104b7de6-g.jpg,,
19787021,Challenges and Opportunities in Using Residual Newborn Screening Samples for Translational Research: Workshop Summary  ,,,,"Steve Olson and Adam C. Berger; Roundtable on Translating Genomic-Based Research for Health, Institute of Medicine",2010,,National Academies Press,,85,0,English ,,,2011 12 30,"0309159547,9780309159548",,,,,,,,jYCUm_VIhRAC,OL25161146M,,0,,,,,0,1,1,1143159,pdf,B3D6AFCC9C93450CB72EFECC5E70EA34,,,_433290.b3d6afcc9c93450cb72efecc5e70ea34.pdf,0,2000-01-01 01:00:00,2016-04-03 02:51:08,767000/b3d6afcc9c93450cb72efecc5e70ea34-d.jpg,,
19787022,The copywriter's handbook: a step-by-step guide to writing copy that sells (3rd edition)  ,,,,Robert W. Bly,2006,3rd,Henry Holt,,,0,English ,,,2011 12 30,"0805078045,9780805078046",,,,,808/.066659,HF5825 .B55 2006,,,OL3426505M,,0,,,,,0,1,1,475826,epub,B3D81E2BDF0ED0BF3CB66C514276E437,,,_490111.b3d81e2bdf0ed0bf3cb66c514276e437.epub,0,2000-01-01 01:00:00,2016-04-03 02:51:08,767000/b3d81e2bdf0ed0bf3cb66c514276e437-d.jpg,,
19787023,Yarmuk 636 a.C.: los musulmanes conquistan Siria  ,,,,David Nicolle,1995,,Ediciones del Prado,,98,0,"Spanish,Castilian",,,2011 12 30,"8478385304,9788478385300",,,,,,,,bXVZQwAACAAJ,,,0,,,,,1,1,0,109680314,pdf,B3D84579453EEB330098689406A7A299,,,_502956.b3d84579453eeb330098689406a7a299.pdf,0,2000-01-01 01:00:00,2016-04-03 02:51:08,767000/b3d84579453eeb330098689406a7a299-g.jpg,,
19787024,Adsorption by carbons  ,,,,"Eduardo J. Bottani, J. M. D. Tascón",2008,1,Elsevier,,708,0,English ,,,2011 12 30,"0080444644,9780080444642",,,,,662.93,TP245.C4 A38 2008,,,OL24430608M,,0,,,,,1,,1,61202368,pdf,B3D8FE5C3FE61607B7D8A0F173B27889,,,_503488.b3d8fe5c3fe61607b7d8a0f173b27889.pdf,0,2000-01-01 01:00:00,2016-04-03 02:51:08,767000/b3d8fe5c3fe61607b7d8a0f173b27889-d.jpg,,
19787025,The Doomsday Book  ,,,,Connie Willis,1993,,Bantam Spectra,,,0,English ,,,2011 12 30,9780307784445,,,,,,,,,,,0,,,,,1,1,1,675803,epub,B3D9C9CFB3C1006A80F3400152199858,,,_462536.b3d9c9cfb3c1006a80f3400152199858.epub,0,2000-01-01 01:00:00,2016-04-03 02:51:08,767000/B3D9C9CFB3C1006A80F3400152199858-g.jpg,,
19787026,"Grammaire: cours de civilisation francaise de la Sorbonne : 350 exercices-niveau superieur, Volume 2  ",,,,J. Cadiot-Cueilleron,,Copyright 1991,,,149,0,English ,,,2011 12 30,"2010162919,9782010162916",,,,,,,,jsnNcQAACAAJ,OL20746940M,,0,,,,,1,1,0,86642914,pdf,B3D9EBF8D8F33C40880B1E23DF3CCF46,,,_437960.b3d9ebf8d8f33c40880b1e23df3ccf46.pdf,0,2000-01-01 01:00:00,2016-04-03 02:51:08,767000/b3d9ebf8d8f33c40880b1e23df3ccf46-d.jpg,,
19787027,The Challenges of Vulnerability: In Search of Strategies for a Less Vulnerable Social Life  ,,,,Barbara Anna Misztal,2011,,Palgrave Macmillan,,273,0,English ,,,2011 12 30,"0230222749,9780230222748",,,,,305,HM821 .M57 2011,,t2ZLYgEACAAJ,OL25138398M,,0,,,,1,0,1,1,1604370,pdf,B3DB453DCF9D2E8C153EA87E2C163CD7,,,_507831.b3db453dcf9d2e8c153ea87e2c163cd7.pdf,0,2000-01-01 01:00:00,2016-04-03 02:51:08,767000/b3db453dcf9d2e8c153ea87e2c163cd7-d.jpg,,
19787028,The Sweetness of Tears  ,,,,Nafisa Haji,2011,Original,William Morrow Paperbacks,,400,0,English ,,,2011 12 30,"0061780103,9780061780103",,,,,813.6,,,,OL24656676M,,0,,,,,0,1,1,699823,mobi,B3DC2E04B3FF1BE7147F6715EDA2A6FA,,,_504129.b3dc2e04b3ff1be7147f6715eda2a6fa.mobi,0,2000-01-01 01:00:00,2016-04-03 02:51:08,767000/b3dc2e04b3ff1be7147f6715eda2a6fa-d.jpg,,
19787029,Business Database Systems  ,,,,"Thomas Connolly, Carolyn Begg, Richard Holowczak",2008,1,Addison Wesley,,593,0,English ,,,2011 12 30,"1405874376,9781405874373",,,,,005.74,HF5548.2 .C623 2008,,-b2769W15RQC,OL16728839M,,0,,,,,0,0,1,11939350,pdf,B3DD21DD79783CAE533AD85F16DC39AD,,,_446249.b3dd21dd79783cae533ad85f16dc39ad.pdf,0,2000-01-01 01:00:00,2016-04-03 02:51:08,767000/b3dd21dd79783cae533ad85f16dc39ad-d.jpg,,
19787030,Pediatric Surgery Digest  ,,,,Zacharias Zachariou,2008,1,Springer,,891,0,English,,,2011 12 30,"3540340327,9783540340324",,,,,,,10.1007/978-3-540-34033-1,,OL12774080M,,0,,,,,1,1,1,29557158,pdf,B3DDFB32C0244872DADAC6675E3E4F03,,,_432197.b3ddfb32c0244872dadac6675e3e4f03.pdf,0,2000-01-01 01:00:00,2016-04-03 02:51:08,767000/b3ddfb32c0244872dadac6675e3e4f03-d.jpg,,
19787031,Sex and Rockets: The Occult World of Jack Parsons  ,,,,"John Carter, Robert Anton Wilson",2005,,Feral House,,,0,English ,,,2011 12 30,"0922915970,9780922915972",,,,,,,,TIWoTlHT4xYC,OL8355542M,,0,,,,0,1,1,1,6559484,epub,B3DE6F65DB6A5E9EB511D098ABE2EE4D,,,_475010.b3de6f65db6a5e9eb511d098abe2ee4d.epub,0,2000-01-01 01:00:00,2016-04-03 02:51:08,767000/b3de6f65db6a5e9eb511d098abe2ee4d-d.jpg,,
19787032,Blood: Ein Alex-Cross-Roman  ,,,,James Patterson,2008,,Blanvalet Verlag,,,0,German ,,,2011 12 30,"3442368553,9783442368556,9783641062712",,,,,,,,,,,0,,,,,0,0,1,364323,epub,B3DFD1A7AF7CD4BE83E24E745ED2B3F5,,,_504333.b3dfd1a7af7cd4be83e24e745ed2b3f5.epub,0,2000-01-01 01:00:00,2016-04-03 02:51:08,767000/b3dfd1a7af7cd4be83e24e745ed2b3f5-d.jpg,,
19787033,Az i Ya  ,,,,Olcas Süleyman,1992,,Türk Dünyası Araştırmaları Vakfı,,146,0,Turkish ,,,2011 12 30,9754980535,,,,,,,,,OL21850721M,,0,,,,0,1,0,1,17302396,pdf,B3E069C683EFC7C2C6C8758145E9702F,,,_431367.b3e069c683efc7c2c6c8758145e9702f.pdf,0,2000-01-01 01:00:00,2016-04-03 02:51:08,767000/b3e069c683efc7c2c6c8758145e9702f-g.jpg,,
19787034,"Daily Handwriting Practice, Traditional Cursive  ",,,,"Jill Norris, Evan-Moor Educational Publishers",2000,,Evan-Moor,,118,0,English ,,,2011 12 30,"1557997543,9781557997548",,,,,652.1,,,,OL9412971M,,0,,,,,1,0,1,6620665,pdf,B3E0B3CE932F0D9049B7A250EA417AF1,,,_503188.b3e0b3ce932f0d9049b7a250ea417af1.pdf,0,2000-01-01 01:00:00,2016-04-03 02:51:08,767000/b3e0b3ce932f0d9049b7a250ea417af1-d.jpg,,
19787035,Indian Angles: English Verse in Colonial India from Jones to Tagore  ,,,,Mary Ellis Gibson,2011,1,Ohio University Press,,351,0,English ,,,2011 12 30,"0821419412,9780821419410,9780821443583",,,,,,,,091F4xfxBmcC,,,0,,,,1,0,1,1,1768644,pdf,B3E134E38F52941EE9A83E47F82E0FDB,,,_473114.b3e134e38f52941ee9a83e47f82e0fdb.pdf,0,2000-01-01 01:00:00,2016-04-03 02:51:08,767000/b3e134e38f52941ee9a83e47f82e0fdb-d.jpg,,
19787036,The Making of Economic Policy: A Transaction-Cost Politics Perspective  ,,Munich Lectures in Economics,,Avinash K. Dixit,1996,,MIT Press,,399,0,English ,,,2011 12 30,"0262041553,9780262041553",,,,,338.9,HD87 .D59 1996,,6rHBQgAACAAJ,OL811352M,,0,,,,0,1,0,,363411,epub,B3E562508E791FEA6E7FB64FF2F2095F,,,_468761.b3e562508e791fea6e7fb64ff2f2095f.epub,0,2000-01-01 01:00:00,2016-04-03 02:51:08,767000/b3e562508e791fea6e7fb64ff2f2095f-d.jpg,,
19787037,Clockwork Prince (Infernal Devices Book 2)  ,,,,Cassandra Clare,,1ST,,,471,0,English ,,,2011 12 30,"9781416975885,9781442431348",,,,,,,,,OL24906274M,,0,,,,0,1,0,1,1899614,pdf,B3E6BB4FD57A7024FC991E6C24889D71,,,_513234.b3e6bb4fd57a7024fc991e6c24889d71.pdf,0,2000-01-01 01:00:00,2016-04-03 02:51:08,767000/b3e6bb4fd57a7024fc991e6c24889d71-d.jpg,,
19787038,Measurement and Analysis of Radiation Effects in Devices and ICS  ,,,,1992 NSREC SHORT COURSE,,,,,260,0,English ,,,2011 12 30,,,,,,,,,,,,0,,,,,1,,1,14841470,pdf,B3E71059969511170CB53B33A4FF4BC5,,,_495506.b3e71059969511170cb53b33a4ff4bc5.pdf,0,2000-01-01 01:00:00,2016-04-03 02:51:08,767000/b3e71059969511170cb53b33a4ff4bc5-g.jpg,,
19787039,Discretization Methods and Iterative Solvers Based on Domain Decomposition  ,,Lecture Notes in Computational Science and Engineering 17,,Barbara I. Wohlmuth,2001,1,Springer,,212,0,English ,,,2011 12 30,"354041083X,9783540410836",1439-7358,,,,,,,RI-q3IRtIGoC,OL9510424M,,0,,,,1,1,1,1,21494801,pdf,B3E7B367C96D74D874F54DCE9DF739A8,,,_445472.b3e7b367c96d74d874f54dce9df739a8.pdf,0,2000-01-01 01:00:00,2016-04-03 02:51:08,767000/b3e7b367c96d74d874f54dce9df739a8-d.jpg,,
19787040,Northlight  ,,Quiller Novels 11,,Adam Hall (Elleston Trevor),1985,,Star,,151,0,English ,,,2011 12 30,,,ISBN10:B000XYBQH4,,,,,,,,,0,,,,,1,,1,501412,pdf,B3E9294718EB67D416CE297E9508AD9D,,,_447853.b3e9294718eb67d416ce297e9508ad9d.pdf,0,2000-01-01 01:00:00,2016-04-03 02:51:08,767000/b3e9294718eb67d416ce297e9508ad9d-g.jpg,,
19787041,The Screaming Mimi  ,,,,Fredric Brown,2008,,Olympia Press,,,0,English ,,,2011 12 30,,,,,,,,,,,,0,,,,0,1,0,1,162305,epub,B3E97FA14D2297C37080A5909742D925,,,_499089.b3e97fa14d2297c37080a5909742d925.epub,0,2000-01-01 01:00:00,2016-04-03 02:51:08,767000/B3E97FA14D2297C37080A5909742D925-g.jpg,,
19787042,Freedom and Necessity: St. Augustine's Teaching on Divine Power and Human Freedom  ,,,,Gerald Bonner,2007,,Catholic University of America Press,,159,0,English ,,,2011 12 30,"0813214742,9780813214740",,,,,234.9092,,,,OL8023023M,,0,,,,,0,1,1,987881,pdf,B3E98E3F453811B00124CAEA58605FD8,,,_500456.b3e98e3f453811b00124caea58605fd8.pdf,0,2000-01-01 01:00:00,2016-04-03 02:51:08,767000/b3e98e3f453811b00124caea58605fd8-d.jpg,,
19787043,The de Havilland D.H.9 (Profile Publications Number 62)  ,,,,J. M. Bruce,1966,,Profile Publications,,12,0,English ,,,2011 12 30,,,,,,,,,,,,0,,,,1,1,0,0,4624106,pdf,B3EA3AF8A1400785A04F92707CC35E72,,,_495578.b3ea3af8a1400785a04f92707cc35e72.pdf,0,2000-01-01 01:00:00,2016-04-03 02:51:08,767000/b3ea3af8a1400785a04f92707cc35e72-g.jpg,,
19787044,"Global theory of minimal surfaces: proceedings of the Clay Mathematics Institute 2001 Summer School, Mathematical Sciences Research Institute, Berkeley, California, June 25-July 27, 2001  ",,Clay Mathematics Proceedings 2,,David Hoffman,2005,,Amer Mathematical Society,,809,0,English ,,,2011 12 30,"0821835874,9780821835876",,,,,516.3/62,QA644 .C53 2001,,,OL11420149M,,0,,,,1,0,1,1,27257691,pdf,B3EAA981EB175A002226E0FE05A120A6,,,_506102.b3eaa981eb175a002226e0fe05a120a6.pdf,0,2000-01-01 01:00:00,2016-04-03 02:51:08,767000/b3eaa981eb175a002226e0fe05a120a6-d.jpg,,
19787045,English Online: Student Work Pages and Assessment Pages-Intermediate 1  ,,,,The Centre for Educational Technology,2005,,Centre for Educational Technology,,132,0,English ,,,2011 12 30,,,,,,,,,,,,0,,,,0,1,0,0,15697027,pdf,B3EBB58B788C3A5AFD355854B506862D,,,_484641.b3ebb58b788c3a5afd355854b506862d.pdf,0,2000-01-01 01:00:00,2016-04-03 02:51:08,767000/b3ebb58b788c3a5afd355854b506862d-g.jpg,,
19787046,Rebellion (Star Force Series)  ,,,,B. V. Larson,2011,,,,,0,English ,,,2011 12 30,,,,,,,,,,,,0,,,,,1,,,379827,epub,B3EC35CFF2709FF34B17C385F7B5D217,,,_498067.b3ec35cff2709ff34b17c385f7b5d217.epub,0,2000-01-01 01:00:00,2016-04-03 02:51:08,767000/B3EC35CFF2709FF34B17C385F7B5D217-g.jpg,,
19787047,Wicked  ,,Pretty Little Liars 5,,Sara Shepard,2009,,HarperCollins,,,0,English ,,,2011 12 30,9780061975608,,,,,,,,,,cover poorly formatted,0,,,,0,0,1,1,1657702,epub,B3EE704C2B097580D556FD06F1DE0F6D,,,_509773.b3ee704c2b097580d556fd06f1de0f6d.epub,0,2000-01-01 01:00:00,2016-04-03 02:51:08,767000/B3EE704C2B097580D556FD06F1DE0F6D-g.jpg,,
19787048,A Question of Blood  ,,,,Ian Rankin,2004,,Orion,,,0,English ,,,2011 12 30,0752858963,,,,,,,,,,,0,,,,,1,,,323287,epub,B3EE7E9B05D40CFDAB7B42B4BECF076F,,,_479968.b3ee7e9b05d40cfdab7b42b4becf076f.epub,0,2000-01-01 01:00:00,2016-04-03 02:51:08,767000/b3ee7e9b05d40cfdab7b42b4becf076f-d.jpg,,
19787049,,,,Chance Vol.22 - No.4 - 2009 issue 4,Mike Larsen (Executive Editor),2009,,American Statistical Association,,62,0,English ,,,2011 12 30,,1867-2280,,,,,,,,,,0,,,,1,0,1,1,2401289,pdf,B3EF22D1058A1A6C9BE842BBF01FD241,,,_439306.b3ef22d1058a1a6c9be842bbf01fd241.pdf,0,2000-01-01 01:00:00,2016-04-03 02:51:08,767000/b3ef22d1058a1a6c9be842bbf01fd241-g.jpg,,
19787050,Nocturne  ,,,,Nick Kyme,2011,Original,Games Workshop,,,0,English ,,,2011 12 30,"1849700893,9781849700894",,,,,,,,y0LxtgAACAAJ,,,0,,,,,1,,,615578,epub,B3EF33701088AB194DF22EBF45F90EDB,,,_498436.b3ef33701088ab194df22ebf45f90edb.epub,0,2000-01-01 01:00:00,2016-04-03 02:51:08,767000/b3ef33701088ab194df22ebf45f90edb-d.jpg,,
19787051,Time of Death  ,,In Death omnibus,,J. D. Robb,2011,,Penguin Group USA,,,0,English ,,,2011 12 30,9781101535370,,,,,,,,,,,0,,,,,1,1,,266321,epub,B3F01DF83CB739C9E4A202A52AA25EBA,,,_443003.b3f01df83cb739c9e4a202a52aa25eba.epub,0,2000-01-01 01:00:00,2016-04-03 02:51:08,767000/B3F01DF83CB739C9E4A202A52AA25EBA-g.jpg,,
19787052,Property rights and the Constitution: shaping society through land use regulation  ,,,,Dennis J. Coyle,1993,,SUNY Press,,,0,English ,,,2011 12 30,"0791414442,9780791414446",,,,,"346.7304/5,347.30645",KF5698 .C674 1993,,HYi4hA5X2k4C,OL1714420M,,0,,,,,1,,,750262,epub,B3F2956458AF7FC0DBEDC56E715AA9FA,,,_472449.b3f2956458af7fc0dbedc56e715aa9fa.epub,0,2000-01-01 01:00:00,2016-04-03 02:51:08,767000/b3f2956458af7fc0dbedc56e715aa9fa-d.jpg,,
19787053,"The Ring of Bright Water Trilogy: Ring of Bright Water, The Rocks Remain, Raven Seek Thy Brother  ",,Ring of Bright Water 1-3,,Gavin Maxwell,2001,,Penguin Books,,,0,English ,,,2011 12 30,"0141927208,9780141927206",,,,,,,,WHqvJ7AHy3AC,OL24252212M,,0,,,,,0,1,1,6672636,mobi,B3F295964491C96E844AC401AC4CCE8C,,,_492472.b3f295964491c96e844ac401ac4cce8c.mobi,0,2000-01-01 01:00:00,2016-04-03 02:51:08,767000/B3F295964491C96E844AC401AC4CCE8C-g.jpg,,
19787054,Antimicrobial Susceptibility Testing Protocols  ,,,,"Richard Schwalbe, Lynn Steele-Moore, Avery C. Goodwin",2007,1,CRC Press,,430,0,English ,,,2011 12 30,"0824741005,9780824741006",,,,,,,,,OL17256063M,,0,,,,1,0,1,1,6719832,pdf,B3F2F0FA0A4D1BB0215F42BFDC448F55,,,_478261.b3f2f0fa0a4d1bb0215f42bfdc448f55.pdf,0,2000-01-01 01:00:00,2016-04-03 02:51:08,767000/b3f2f0fa0a4d1bb0215f42bfdc448f55-d.jpg,,
19787055,Wendy and the Lost Boys. The Uncommon Life of Wendy Wasserstein  ,,,,Julie Salamon,2011,,Penguin Press,,,0,English ,,,2011 12 30,9781101517765,,,,,,,,ahEzOJVQ_KQC,,,0,,,,,0,1,1,1331375,epub,B3F591441864A9D25A270AB86438F255,,,_463678.b3f591441864a9d25a270ab86438f255.epub,0,2000-01-01 01:00:00,2016-04-03 02:51:08,767000/B3F591441864A9D25A270AB86438F255-g.jpg,,
19787056,Confronting Fascism in Egypt: Dictatorship versus Democracy in the 1930s  ,,,,"Israel Gershoni, James Jankowski",2010,,Stanford University Press,,359,0,English ,,,2011 12 30,"0804763445,9780804763448",,,,,962.05/2,DT107.82 .G425 2009,,,OL23397900M,,0,,,,1,0,1,1,2625982,pdf,B3F6113B9107775625E5EE56EC3DD620,,,_506968.b3f6113b9107775625e5ee56ec3dd620.pdf,0,2000-01-01 01:00:00,2016-04-03 02:51:08,767000/b3f6113b9107775625e5ee56ec3dd620-d.jpg,,
19787057,Frost  ,,,,Marianna Baer,2011,,Balzer + Bray,,,0,English ,,,2011 12 30,"0061799491,9780061799495",,,,,,,,,OL24906314M,,0,,,,0,0,1,1,9566012,epub,B3F6CE1B0423815B35EA93ECB7FA76EF,,,_477946.b3f6ce1b0423815b35ea93ecb7fa76ef.epub,0,2000-01-01 01:00:00,2016-04-03 02:51:08,767000/b3f6ce1b0423815b35ea93ecb7fa76ef-d.jpg,,
19787058,Cambridge First Certificate in English 1 with Answers: Official Examination Papers from University of Cambridge ESOL Examinations  ,,,,unknown,2008,,Cambridge University Press,,193,0,English ,,,2011 12 30,"0521714508,9780521714501",,,,,428.24076,,,,OL10437135M,,0,,,,,1,1,0,52931481,pdf,B3F6FAD47CC90E73F6CD6D8496A74A1E,,,_506906.b3f6fad47cc90e73f6cd6d8496a74a1e.pdf,0,2000-01-01 01:00:00,2016-04-03 02:51:08,767000/b3f6fad47cc90e73f6cd6d8496a74a1e-d.jpg,,
19787059,"Taking Measure of Charter Schools: Better Assessments, Better Policymaking, Better Schools (New Frontiers in Education)  ",,New Frontiers in Education,,"Julian R. Betts, Paul T. Hill, June Ahn, Larry Angel, Dominic J. Brewer, Laura S. Hamilton, Jeffrey R. Henig, Robin J. Lake, Patrick J. McEwan, Robert B. Olsen, Lydia Rainey, Brian M. Stecher, Y Emily Tang, Andrew C. Zau",2010,,R&L Education,,237,0,English ,,,2011 12 30,"1607093596,9781607093596,1607093588,9781607093589,9781607093602",,,,,371,LB2806.36 .T37 2010,,,OL23981158M,,0,,,,1,0,1,1,766219,pdf,B3F7B63FD478D9359E0B253DD05061C7,,,_461278.b3f7b63fd478d9359e0b253dd05061c7.pdf,0,2000-01-01 01:00:00,2016-04-03 02:51:08,767000/b3f7b63fd478d9359e0b253dd05061c7-d.jpg,,
19787060,Foundations of Business (2nd edition)  ,,,,"William M. Pride, Robert J. Hughes, Jack R. Kapoor",2011,2,South-Western College Pub,,563,0,English ,,,2011 12 30,"0538744510,9780538744515",,,,,,,,4NnMo0H9EL0C,OL24599811M,,0,,,,1,0,1,1,23245079,pdf,B3F7FD50D4CD8D508E8D2F30B55F70AB,,,_456109.b3f7fd50d4cd8d508e8d2f30b55f70ab.pdf,0,2000-01-01 01:00:00,2016-04-03 02:51:08,767000/b3f7fd50d4cd8d508e8d2f30b55f70ab-d.jpg,,
19787061,A Little Wild  ,,,,Kate St. James,2011,,Samhain Publishing,,355,0,English ,,,2011 12 30,"1609286243,9781609286248",,,,,,,,,,,0,,,,1,0,1,1,1411063,pdf,B3F8A42A49B7FE4E937DA9E055BED639,,,_499714.b3f8a42a49b7fe4e937da9e055bed639.pdf,0,2000-01-01 01:00:00,2016-04-03 02:51:08,767000/b3f8a42a49b7fe4e937da9e055bed639-g.jpg,,
19787062,Neuroscience Nursing: Evidence-Based Theory and Practice  ,,,,"Sue Woodward, Ann-marie Mestecky",2011,1,Wiley-Blackwell,"Chichester, West Sussex, U.K. ; Ames, Iowa",681,0,English ,,,2011 12 30,"1405163569,978-1-4051-6356-9,9781444329179,1444329170",,,,,616.8/04231,RC350.5 .N4885 2011,,,OL24524278M,,0,,,,,1,,1,19480169,pdf,B3F911E3721A7824C7D4460F9AD1D63D,,,_443919.b3f911e3721a7824c7d4460f9ad1d63d.pdf,0,2000-01-01 01:00:00,2016-04-03 02:51:08,767000/b3f911e3721a7824c7d4460f9ad1d63d-d.jpg,,
19787063,راههايی برای افزايش سرعت و کارايی ويندوز7  ,,,,سعيد سلاميان,2009,,,,26,0,Persian ,,,2011 12 30,,,,,,,,,,,,0,,,,,1,,1,2296000,pdf,B3F9A73C2C93C2393625CD6672A917A7,,,_495409.b3f9a73c2c93c2393625cd6672a917a7.pdf,0,2000-01-01 01:00:00,2016-04-03 02:51:08,767000/b3f9a73c2c93c2393625cd6672a917a7-g.jpg,,
19787064,Butterflies through Binoculars: The West A Field Guide to the Butterflies of Western North America (Glassberg Field Guide Series)  ,,,,Jeffrey Glassberg,2001,,"Oxford University Press, USA",,381,0,English ,,,2011 12 30,"0195106695,9780195106695",,,,,,,,,OL7387932M,,0,,,,1,1,0,1,27128387,djvu,B3F9E2FCF0DA4BB2BD5BD9A6DFA0E53A,,,_434580.b3f9e2fcf0da4bb2bd5bd9a6dfa0e53a.djvu,0,2000-01-01 01:00:00,2016-04-03 02:51:08,767000/b3f9e2fcf0da4bb2bd5bd9a6dfa0e53a-d.jpg,,
19787065,"Systems of Conservation Laws 1: Hyperbolicity, Entropies, Shock Waves  ",,Systems of Conservation Laws 1,,Denis Serre,1999,,Cambridge University Press,,286,0,English ,,,2011 12 30,"0521582334,9780521582339",,,,,515/.353,QA377 .S46413 1999,,7uZYi9Eg-DIC,OL374344M,,0,,,,1,0,1,1,1156533,pdf,B3F9F8478EE6997E480B2993343F3518,,,_456585.b3f9f8478ee6997e480b2993343f3518.pdf,0,2000-01-01 01:00:00,2016-04-03 02:51:08,767000/b3f9f8478ee6997e480b2993343f3518-d.jpg,,
19787066,Population Monitoring and Radionuclide Decorporation Following a Radiological Or Nuclear Incident  ,,NCRP REPORT 166,,Ncrp Publications (COR),2011,1,National Council on Radiation Protection & Measurements,,297,0,English ,,,2011 12 30,"0982384378,9780982384374",,,,,616.9/897,RC93 .P67 2011,,,OL24847708M,,0,,,,1,0,1,1,1365932,pdf,B3FA6A218F79B0A3ABC6E8BE188A4CEE,,,_490651.b3fa6a218f79b0a3abc6e8be188a4cee.pdf,0,2000-01-01 01:00:00,2016-04-03 02:51:08,767000/b3fa6a218f79b0a3abc6e8be188a4cee-g.jpg,,
19787067,"Conversacion y repaso , Tenth Edition  ",,Intermediate Spanish,,"Lynn A. Sandstedt, Ralph Kite, John G. Copeland",2010,10th,Heinle,,349,0,English ,,,2011 12 30,"0495803332,9780495803331",,,,,,,,,OL24492171M,Some text not available due to copyright restrictions ...,0,,,,1,1,1,1,9007855,pdf,B3FB6B0EBF6A0DA44B81BC1C0701C29B,,,_454344.b3fb6b0ebf6a0da44b81bc1c0701c29b.pdf,0,2000-01-01 01:00:00,2016-04-03 02:51:08,767000/b3fb6b0ebf6a0da44b81bc1c0701c29b-d.jpg,,
19787068,"Obstetrics: Normal and Problem Pregnancies, 5th Edition  ",,,,"Steven G. Gabbe MD, Joe Leigh Simpson MD, Jennifer R. Niebyl MD, Henry Galan MD, Laura Goetzl MD MPH, Eric R. M. Jauniaux MD PhD, Mark Landon MD",2007,5th Edition,Churchill Livingstone,,1416,0,English ,,,2011 12 30,"0443069301,9780443069307",,,,,618.2,RG524 .O3 2007,,,OL17873839M,,0,,,,0,0,1,1,42783671,pdf,B3FB6F11503BBF9AA6CCE9DC21AB9895,,,_457935.b3fb6f11503bbf9aa6cce9dc21ab9895.pdf,0,2000-01-01 01:00:00,2016-04-03 02:51:08,767000/b3fb6f11503bbf9aa6cce9dc21ab9895-d.jpg,,
19787069,Dynamic Tourism: Journeying with Change  ,,Aspects of Tourism,,Priscilla Boniface,2001,,CHANNEL VIEW PUBLICATIONS,,199,0,English ,,,2011 12 30,"1853150296,1853150288",,,,,,,,,,,0,,,,0,1,1,1,1575694,pdf,B3FBB8C2ADBBFAA6E85C231177F47872,,,_467000.b3fbb8c2adbbfaa6e85c231177f47872.pdf,0,2000-01-01 01:00:00,2016-04-03 02:51:08,767000/b3fbb8c2adbbfaa6e85c231177f47872-g.jpg,,
19787070,Absolute Beginner's Guide to Tablet PCs  ,,Absolute Beginner's Guide,,Craig Forrest Mathews,2003,,Que Publishing,,409,0,English ,,,2011 12 30,"0789730499,9780789730497",,,,,,,,Z8yAcf03zwkC,OL8157683M,,0,,,,1,0,1,1,8979428,pdf,B3FC4D1DA53EFA9A81BB4BA529C7E7CE,,,_445762.b3fc4d1da53efa9a81bb4ba529c7e7ce.pdf,0,2000-01-01 01:00:00,2016-04-03 02:51:08,767000/b3fc4d1da53efa9a81bb4ba529c7e7ce-d.jpg,,
19787071,Algebra Vol. I  ,,,,Redei L.,,,,,835,0,English ,,,2011 12 30,,,ISBN10:B0016GFHSM,,,,,,,,,0,,,,,1,,1,20323410,djvu,B3FCC70180AF06990C05409DC014D6CB,,,_206386.b3fcc70180af06990c05409dc014d6cb.djvu,0,2000-01-01 01:00:00,2016-04-03 02:51:08,767000/b3fcc70180af06990c05409dc014d6cb-g.jpg,,
19787072,"Sexe, drogue... et économie : Pas de sujet tabou pour les économistes !  ",,,,"Alexandre Delaigue, Stéphane Ménia",2008,,Village Mondial,,290,0,French ,,,2011 12 30,"2744063142,9782744063145",,,,,,,,,,,0,,,,1,1,1,1,3578157,pdf,B3FD0F4AD1EEC68F6EB2D59DDBE25E05,,,_431770.b3fd0f4ad1eec68f6eb2d59ddbe25e05.pdf,0,2000-01-01 01:00:00,2016-04-03 02:51:08,767000/b3fd0f4ad1eec68f6eb2d59ddbe25e05-d.jpg,,
19787073,Form and Being: Studies in Thomistic Metaphysics (Studies in Philosophy & the History of Philosophy)  ,,,,Lawrence Dewan,2006,,Catholic University of America Press,,284,0,English ,,,2011 12 30,"0813214610,9780813214610",,,,,,,,,OL8023012M,,0,,,,,0,1,1,950776,pdf,B3FED8D78EF2807D32E13DB5C41AA2F5,,,_500463.b3fed8d78ef2807d32e13db5c41aa2f5.pdf,0,2000-01-01 01:00:00,2016-04-03 02:51:08,767000/b3fed8d78ef2807d32e13db5c41aa2f5-d.jpg,,
19787074,System Level Design with .Net Technology  ,,,,"El Mostapha Aboulhamid, Frederic Rousseau",2009,1,CRC Press,,318,0,English ,92,,2011 12 30,"143981211X,9781439812112",,,,,004.2/1,TK7895.E42 S9744 2010,,NKfqOCAU3d4C,OL23621928M,,0,,,,1,0,1,1,4179743,pdf,B4018CCC447277B5087C30F41405CD02,,,_513530.b4018ccc447277b5087c30f41405cd02.pdf,0,2000-01-01 01:00:00,2016-04-03 02:51:08,767000/b4018ccc447277b5087c30f41405cd02-d.jpg,,
19787075,Peterson Field Guide to Mammals of North America: Fourth Edition (Peterson Field Guides)  ,,Peterson Field Guides,,Fiona Reid,2006,4th,Houghton Mifflin Harcourt,,598,0,English ,,,2011 12 30,"0395935962,9780395935965",,,,,,,,,OL15979434M,,0,,,,1,1,0,1,19678452,djvu,B40242B502C839FB4D4870684A102E40,,,_434467.b40242b502c839fb4d4870684a102e40.djvu,0,2000-01-01 01:00:00,2016-04-03 02:51:08,767000/b40242b502c839fb4d4870684a102e40-d.jpg,,
19787076,Photonic Crystals: Molding the Flow of Light (Second Edition)  ,,,,"John D. Joannopoulos, Steven G. Johnson, Joshua N. Winn, Robert D. Meade",2008,2,Princeton University Press,,305,0,English ,,,2011 12 30,"0691124566,9780691124568",,,,,548/.9,QC793.5.P427 J63 2008,,,OL11182861M,,0,,,,,1,1,1,3861182,djvu,B4026EA3FF9D7FABD78F5BE7EE4A3E04,,,_451295.b4026ea3ff9d7fabd78f5be7ee4a3e04.djvu,0,2000-01-01 01:00:00,2016-04-03 02:51:08,767000/b4026ea3ff9d7fabd78f5be7ee4a3e04-d.jpg,,
19787077,Delusions and Other Irrational Beliefs (International Perspectives in Philosophy and Psychiatry)  ,,,,Lisa Bortolotti,2010,1,"Oxford University Press, USA",,297,0,English ,,,2011 12 30,"0199206163,9780199206162",,,,,,,,0vempippniwC,OL24453280M,missing most of the frontmatter,0,,,,0,1,1,1,41526387,pdf,B4028D7B88759EB035785A74A9B3F187,,,_431058.b4028d7b88759eb035785a74a9b3f187.pdf,0,2000-01-01 01:00:00,2016-04-03 02:51:08,767000/b4028d7b88759eb035785a74a9b3f187-d.jpg,,
19787078,Indian Thought and Western Science in the Nineteenth Century  ,,,,Mary Everest Boole,1901,,The Ceylon National Review,,15,0,English ,,,2011 12 30,,,,,,,,,,,,0,,,,1,0,0,1,222081,pdf,B4032742246BDB167E16A6951B758E43,,,_487009.b4032742246bdb167e16a6951b758e43.pdf,0,2000-01-01 01:00:00,2016-04-03 02:51:08,767000/b4032742246bdb167e16a6951b758e43-g.jpg,,
19787079,Bug Book: Everything You Ever Wanted to Know About Electronic Eavesdropping ... But Were Afraid to Ask  ,,,,"M.L. Shannon,",2000,,Paladin Press,,169,0,English ,,,2011 12 30,"1581600658,9781581600650",,,,,,,,,OL8783692M,,0,,,,0,1,0,1,36590960,pdf,B404C9509EAA76188248AF0123248F70,,,_456687.b404c9509eaa76188248af0123248f70.pdf,0,2000-01-01 01:00:00,2016-04-03 02:51:08,767000/b404c9509eaa76188248af0123248f70-d.jpg,,
19787080,"Le juge d'Égypte, tome 2 : La loi du désert  ",,,,Christian Jacq,2000,,Pocket,,,0,French ,,,2011 12 30,"2266063618,9782266063616",,,,,,,,,OL8889847M,,0,,,,0,1,1,1,454379,epub,B405AE797F8C19FA3FCAD64A27BD098F,,,_456024.b405ae797f8c19fa3fcad64a27bd098f.epub,0,2000-01-01 01:00:00,2016-04-03 02:51:08,767000/b405ae797f8c19fa3fcad64a27bd098f-d.jpg,,
19787081,"Plunkett's Telecommunications Industry Almanac 2011: Telecommunications Industry Market Research, Statistics, Trends & Leading Companies  ",,,,Jack W. Plunkett,2010,,Plunkett Research,,615,0,English ,,,2011 12 30,9781608799107,,,,,,,,MfmlSgAACAAJ,,,0,,,,1,0,1,1,5220431,pdf,B4063A9F9D2A524E382A9976B0BB0224,,,_494103.b4063a9f9d2a524e382a9976b0bb0224.pdf,0,2000-01-01 01:00:00,2016-04-03 02:51:08,767000/b4063a9f9d2a524e382a9976b0bb0224-g.jpg,,
19787082,Already Gone  ,,,,John Rector,2011,,AmazonEncore,,230,0,English ,,,2011 12 30,9781612180878,,,,,,,,,,,0,,,,,1,1,1,342294,epub,B40641ACB46C27C4F794904082ACCB04,,,_489404.b40641acb46c27c4f794904082accb04.epub,0,2000-01-01 01:00:00,2016-04-03 02:51:08,767000/b40641acb46c27c4f794904082accb04-d.jpg,,
19787083,گفت و گوهای اوریانا فالاچی  ,,,,انتخاب و ترجمه: غلامرضا امامی,1383,,نشر افق,,219,0,Persian ,,,2011 12 30,9643691241,,,,,,,,,,,0,,,,1,1,0,1,1914094,pdf,B408F14DD84101241701C4BA3631FF81,,,_504853.b408f14dd84101241701c4ba3631ff81.pdf,0,2000-01-01 01:00:00,2016-04-03 02:51:08,767000/b408f14dd84101241701c4ba3631ff81-g.jpg,,
19787084,The Calculus Direct: An Intuitively Obvious Approach to a Basic Knowledge of the Calculus for the Casual Observer  ,,,,John Weiss,2010,,unknown,,,0,English ,,,2011 12 30,"1452854912,9781452854915",,,,,,,,,,,0,,,,,0,,1,1586056,mobi,B40AFDBE0C86A3DDFCA28AC8AEDBD5AB,,,_508053.b40afdbe0c86a3ddfca28ac8aedbd5ab.mobi,0,2000-01-01 01:00:00,2016-04-03 02:51:08,767000/b40afdbe0c86a3ddfca28ac8aedbd5ab-d.jpg,,
19787085,Muskoxen and Their Hunters: A History  ,,Animal natural history 5,,Peter C. Lent,1999,,University of Oklahoma Press,,346,0,English ,,,2011 12 30,,,,,,,,,KE2z-QFjj8kC,,,0,,,,1,0,1,1,4252653,pdf,B40D92FF6DF09582B0F1CD0A6554D11F,,,_451461.b40d92ff6df09582b0f1cd0a6554d11f.pdf,0,2000-01-01 01:00:00,2016-04-03 02:51:08,767000/b40d92ff6df09582b0f1cd0a6554d11f-g.jpg,,
19787086,"Foucault. O pensamento, a pessoa  ",,,,Paul Veyne,2009,,Lisboa,,148,0,Portuguese ,,,2011 12 30,,,,,,,,,,,,0,,,,1,1,0,0,71837987,pdf,B40E0C441692FE797F64127910D99B85,,,_433086.b40e0c441692fe797f64127910d99b85.pdf,0,2000-01-01 01:00:00,2016-04-03 02:51:08,767000/b40e0c441692fe797f64127910d99b85-g.jpg,,
19787087,Atlas descrito por el cielo  ,,,,Goran Petrovic,2003,,Editorial Sexto Piso,,229,0,"Spanish,Castilian",,,2011 12 30,"9685679096,9789685679091",,,,,,,,iffFAAAACAAJ,OL9174832M,,0,,,,1,1,1,1,8398449,pdf,B40E3DB7E0EA7BA101BBF5B1255082D6,,,_493303.b40e3db7e0ea7ba101bbf5b1255082d6.pdf,0,2000-01-01 01:00:00,2016-04-03 02:51:08,767000/b40e3db7e0ea7ba101bbf5b1255082d6-d.jpg,,
19787088,"An Uplifting Murder: Josie Marcus, Mystery Shopper  ",,,,Elaine Viets,2010,Original,Signet,,,0,English ,,,2011 12 30,"0451231708,9780451231703",,,,,813.54,,,,,,0,,,,0,0,1,1,489309,mobi,B40EAE6AD3FF2DB9114843E573547E50,,,_501481.b40eae6ad3ff2db9114843e573547e50.mobi,0,2000-01-01 01:00:00,2016-04-03 02:51:08,767000/b40eae6ad3ff2db9114843e573547e50-d.jpg,,
19787089,Wojsko Polskie w drugiej polowie XVII wieku  ,,,,Jan Wimmer,1965,,Wydawnictwo Ministerstwa Obrony Narodowej,,193,0,Polish ,,,2011 12 30,,,,,,,,,,,,0,,,,,1,,0,20746852,pdf,B410DC095071B1A1F571D1B3506DFC56,,,_449646.b410dc095071b1a1f571d1b3506dfc56.pdf,0,2000-01-01 01:00:00,2016-04-03 02:51:08,767000/b410dc095071b1a1f571d1b3506dfc56-g.jpg,,
19787090,古代文史名著选译丛书.第1批.先秦两汉.孟子选译 .刘聿鑫&刘晓东.译注.巴蜀书社.影印版  ,,,,刘聿鑫 刘晓东,,,,,312,0,Chinese(PRC),,,2011 12 30,,,,,,,,,,,,0,,,,,1,,0,3560831,pdf,B410E8CF8C84C41191F6F5A84A25FAB4,,,_512509.b410e8cf8c84c41191f6f5a84a25fab4.pdf,0,2000-01-01 01:00:00,2016-04-03 02:51:08,767000/b410e8cf8c84c41191f6f5a84a25fab4-g.jpg,,
19787091,Theatre in Health and Care  ,,,,Emma Brodzinski,2010,,Palgrave Macmillan,,201,0,English ,,,2011 12 30,"140399708X,9781403997081",,,,,616.89/1523,R702.5 .B76 2010,,fefSQgAACAAJ,OL24538494M,,0,,,,1,0,1,1,2122996,pdf,B411115CE6BDAA2CDFD65675E777F51F,,,_478616.b411115ce6bdaa2cdfd65675e777f51f.pdf,0,2000-01-01 01:00:00,2016-04-03 02:51:08,767000/b411115ce6bdaa2cdfd65675e777f51f-d.jpg,,
19787092,Los hoyos negros y la curvatura del espacio-tiempo  ,,,,Shahen Hacyan,,,,,63,0,"Spanish,Castilian",,,2011 12 30,"9681657721,9789681657727",,,,,523.8875,,,,,,0,,,,,0,1,1,1640728,pdf,B41538043D392DCD2633DB7618994E5F,,,_504692.b41538043d392dcd2633db7618994e5f.pdf,0,2000-01-01 01:00:00,2016-04-03 02:51:08,767000/b41538043d392dcd2633db7618994e5f-g.jpg,,
19787093,The Sportsman: Unexpected Lessons from an Around-the-World Sports Odyssey  ,,,,"Dhani Jones, Jonathan Grotenstein",2011,,Rodale Books,,,0,English ,,,2011 12 30,"160961111X,9781609611118",,,,,"796.332092,B",GV939.J635 A3 2011,,fZtGI9R-XDoC,OL24828022M,,0,,,,,0,1,1,1121485,epub,B415A0705E9A122F882CA1039A756B9F,,,_494662.b415a0705e9a122f882ca1039a756b9f.epub,0,2000-01-01 01:00:00,2016-04-03 02:51:08,767000/b415a0705e9a122f882ca1039a756b9f-d.jpg,,
19787094,"Strategic Human Resource Management: A Guide to Action, 4th Edition  ",,,,Michael Armstrong,2008,4th,Kogan Page,London ; Philadelphia,256,0,English ,,,2011 12 30,"0749453753,978-0-7494-5375-6,9780749455569,074945556X",,,,,658.3/01,HF5549 .A89784 2008,,,OL18743799M,,0,,,,,1,,1,1203248,pdf,B415E06C2097C9D8F2C31FEF5DEB47B2,,,_448700.b415e06c2097c9d8f2c31fef5deb47b2.pdf,0,2000-01-01 01:00:00,2016-04-03 02:51:08,767000/b415e06c2097c9d8f2c31fef5deb47b2-d.jpg,,
19787095,"Le Troisième Testament, Tome 4 : Jean ou le jour du corbeau  ",,,,"Alex Alice, Xavier Dorison",2003,,Glénat,,76,0,French ,,,2011 12 30,"2723437329,9782723437325",,,,,,,,,OL8933739M,,0,,,,1,1,0,0,47894649,pdf,B4182D27A9ECCEE19C68B51B26FC5912,,,_488575.b4182d27a9eccee19c68b51b26fc5912.pdf,0,2000-01-01 01:00:00,2016-04-03 02:51:08,767000/b4182d27a9eccee19c68b51b26fc5912-d.jpg,,
19787096,The Walking Dead #33  ,,,,Robert Kirkman,2006,,Image Comics,,,0,English ,,,2011 12 30,,,ISBN10:B0010OHNHI,,,,,,,,,0,,,,,1,,,1618365,epub,B418DC8D7C463579A7C9DBD221409F69,,,_504735.b418dc8d7c463579a7c9dbd221409f69.epub,0,2000-01-01 01:00:00,2016-04-03 02:51:08,767000/B418DC8D7C463579A7C9DBD221409F69-g.jpg,,
19787097,An Introduction to Duplicate Detection  ,,,,"Felix Naumann, Melanie Herschel",2010,,Morgan & Claypool,,87,0,English ,,,2011 12 30,"1608452204,9781608452200",,,,,005.7565,,10.2200/S00262ED1V01Y201003DTM003,,,,0,,,,,0,1,1,1016655,pdf,B41AA0AF097B7D1188A07B4105B6605E,,,_507238.b41aa0af097b7d1188a07b4105b6605e.pdf,0,2000-01-01 01:00:00,2016-04-03 02:51:08,767000/b41aa0af097b7d1188a07b4105b6605e-d.jpg,,
19787098,Heat Lightning  ,,Virgil Flowers 2,,John Sandford,2008,1St Edition,Berkley,,,0,English ,,,2011 12 30,9780399155277,,,,,,,,,OL20963820M,,0,,,,0,0,1,1,395600,epub,B41B01106D522FF73D964CDD3CE91951,,,_491762.b41b01106d522ff73d964cdd3ce91951.epub,0,2000-01-01 01:00:00,2016-04-03 02:51:08,767000/b41b01106d522ff73d964cdd3ce91951-d.jpg,,
19787099,Function Theory of One Complex Variable: Third Edition (Graduate Studies in Mathematics)  ,,Graduate Studies in Mathematics 40,,"Robert E. Greene, Steven G. Krantz",2006,Third,American Mathematical Society,,525,0,English ,,,2011 12 30,"0821839624,9780821839621",,,,,515/.9,QA331.7 .G75 2006,,,OL3431526M,,600,,,,0,1,1,1,5096312,djvu,B41E1992D3A9AC7C44FDD500F2E290D9,,,_508448.b41e1992d3a9ac7c44fdd500f2e290d9.djvu,0,2000-01-01 01:00:00,2016-04-03 02:51:08,767000/b41e1992d3a9ac7c44fdd500f2e290d9-d.jpg,,
19787100,Science in Action: How to Follow Scientists and Engineers through Society  ,,,,Bruno Latour,1988,,Harvard University Press,,313,0,English ,,,2011 12 30,"0674792912,9780674792913",,,,,,,,,OL7693477M,,0,,,,0,0,0,1,915839,pdf,B41EFB2FCA7F13757D80B4CB7B19F28C,,,_431758.b41efb2fca7f13757d80b4cb7b19f28c.pdf,0,2000-01-01 01:00:00,2016-04-03 02:51:08,767000/b41efb2fca7f13757d80b4cb7b19f28c-d.jpg,,
19787101,Was ist Aufklärung  ,,,,Immanuel Kant,,,,,4,0,German ,,,2011 12 30,,,,,,,,,,,,0,,,,,1,,1,17531,pdf,B41F3B42E47B4EF43F5C31F37C4A525A,,,_476647.b41f3b42e47b4ef43f5c31f37c4a525a.pdf,0,2000-01-01 01:00:00,2016-04-03 02:51:08,767000/b41f3b42e47b4ef43f5c31f37c4a525a-g.jpg,,
19787102,Orienting of Attention  ,,,,"Richard D. Wright, Lawrence M. Ward",2008,1,"Oxford University Press, USA",Oxford ; New York,304,0,English ,,,2011 12 30,"0195130499,978-0-19-513049-2,9780198029977,0198029977",,,,,153.7/33,BF321 .W75 2008,,,OL10133222M,,0,,,,,1,,1,6291019,pdf,B4213A1B35512EF6EB800B5CD28BDD28,,,_458022.b4213a1b35512ef6eb800b5cd28bdd28.pdf,0,2000-01-01 01:00:00,2016-04-03 02:51:08,767000/b4213a1b35512ef6eb800b5cd28bdd28-d.jpg,,
19787103,Design and Prototyping for Drupal  ,,,,Dani Nordin,2011,,O'Reilly Media,,168,0,English ,70,,2011 12 30,"1449305504,9781449305505",,,,,,,,mMLrVVLTNQ0C,,,0,,,,1,0,1,1,18753420,pdf,B421B1667157A4035ED6216FF94CDD69,,,_511955.b421b1667157a4035ed6216ff94cdd69.pdf,0,2000-01-01 01:00:00,2016-04-03 02:51:08,767000/b421b1667157a4035ed6216ff94cdd69-d.jpg,,
19787104,The Venetian Judgment  ,,,,David Stone,2009,,G. P. PUTNAM’S SONS,,315,0,English ,,,2011 12 30,9781101032084,,,,,,,,,OL24273253M,,0,,,,,1,1,1,538491,epub,B421E1547E5CAC4F30B262ECD5D8AFFB,,,_466655.b421e1547e5cac4f30b262ecd5d8affb.epub,0,2000-01-01 01:00:00,2016-04-03 02:51:08,767000/B421E1547E5CAC4F30B262ECD5D8AFFB-g.jpg,,
19787105,Into This World and Out Again: A modern proof of the origin of humanity and its retrogression from the original creation of man. Verified by the Holy Bible ... received through thought communication  ,,,,George W. Van Tassel,1956,,G.W. Van Tassel,,50,0,English ,,,2011 12 30,,,ISBN10:B0007HRBW6,,,,,,,,,0,,,,0,1,,0,19805560,pdf,B4240630E345064795FA606384ED5A74,,,_486096.b4240630e345064795fa606384ed5a74.pdf,0,2000-01-01 01:00:00,2016-04-03 02:51:08,767000/b4240630e345064795fa606384ed5a74-g.jpg,,
19787106,The Cambridge Companion to the Aegean Bronze Age  ,,,,Cynthia W. Shelmerdine (editor),2008,1,Cambridge University Press,,533,0,English ,,,2011 12 30,"0521891272,9780521891271,0521814448,9780521814447",,,,,939/.101,DF220 .S47 2008,,,OL10437278M,,0,,,,1,0,1,1,5368436,pdf,B425438CEA4177B767DCA83D1F88E1CA,,,_510533.b425438cea4177b767dca83d1f88e1ca.pdf,0,2000-01-01 01:00:00,2016-04-03 02:51:08,767000/b425438cea4177b767dca83d1f88e1ca-d.jpg,,
19787107,"Greek Prostitutes in the Ancient Mediterranean, 800 BCE-200 CE (Wisconsin Studies in Classics)  ",,Wisconsin Studies in Classics,,"Allison Glazebrook, Madeleine M. Henry",2011,1,University of Wisconsin Press,,342,0,English ,,,2011 12 30,"0299235645,9780299235642,9780299235635",,,,,,,,,,,0,,,,1,0,1,1,1751078,pdf,B42543D4F5EB7F12E25CB18819BC1A85,,,_459353.b42543d4f5eb7f12e25cb18819bc1a85.pdf,0,2000-01-01 01:00:00,2016-04-03 02:51:08,767000/b42543d4f5eb7f12e25cb18819bc1a85-d.jpg,,
19787108,Philosophers and God: At the Frontiers of Faith and Reason  ,,,,"John Cornwell, Michael McGhee (editors)",2009,1,Continuum,,275,0,English ,,,2011 12 30,"1847065481,9781847065483",,,,,109.2,BL51 .P5245 2009,,,OL23972727M,,0,,,,0,1,0,1,14892667,pdf,B425949B8DD72AD94B606D799E3B922F,,,_465483.b425949b8dd72ad94b606d799e3b922f.pdf,0,2000-01-01 01:00:00,2016-04-03 02:51:08,767000/b425949b8dd72ad94b606d799e3b922f-d.jpg,,
19787109,Witta: An Irish Pagan Tradition (Llewellyn's World Religion & Magick)  ,,,,Edain McCoy,1993,,Llewellyn Publications,,272,0,English ,,,2011 12 30,"0875427324,9780875427324",,,,,299/.162,BF1581 .M44 1993,,,OL1416786M,,0,,,,,1,0,0,5649370,pdf,B426226BA752B35F52F61947FCD3E22C,,,_497669.b426226ba752b35f52f61947fcd3e22c.pdf,0,2000-01-01 01:00:00,2016-04-03 02:51:08,767000/b426226ba752b35f52f61947fcd3e22c-d.jpg,,
19787110,"Personality, 7th Edition  ",,,,Jerry M. Burger,2007,7,Cengage Learning,,575,0,English ,,,2011 12 30,"0495097861,9780495097860",,,,,155.2,BF698 .B84 2008,,FvGH0J_wHggC,OL24399954M,,0,,,,1,0,1,1,6556861,pdf,B426656865DA1CD24E3760068D45446D,,,_452164.b426656865da1cd24e3760068d45446d.pdf,0,2000-01-01 01:00:00,2016-04-03 02:51:08,767000/b426656865da1cd24e3760068d45446d-d.jpg,,
19787111,Digitales Face- und Bodystyling: Porträtretusche mit Photoshop  ,,,,"Birgit Nitzsche, Karsten Rose",2010,,Addison-Wesley Verlag,,482,0,German ,,,2011 12 30,"382732971X,9783827329714",,,,,775,,,,,,0,,,,1,0,1,1,121682614,pdf,B4284CF712957F63C57A9D7E8BA5FBC1,,,_501462.b4284cf712957f63c57a9d7e8ba5fbc1.pdf,0,2000-01-01 01:00:00,2016-04-03 02:51:08,767000/b4284cf712957f63c57a9d7e8ba5fbc1-g.jpg,,
19787112,Die Kreativität des Handelns  ,,,,Hans Joas,1992,1. Aufl,Suhrkamp,,207,0,German ,,,2011 12 30,"3518581295,9783518581292",,,,,302,HM291 .J562 1992,,,OL1514452M,,0,,,,0,1,0,0,87521283,pdf,B42AE24BEBD66C0B6D014387CA5CE71C,,,_455125.b42ae24bebd66c0b6d014387ca5ce71c.pdf,0,2000-01-01 01:00:00,2016-04-03 02:51:08,767000/b42ae24bebd66c0b6d014387ca5ce71c-g.jpg,,
19787113,,,,"The Biblical Archaeologist - Vol.22, N.3 ",American Schools of Oriental Research,1959,,American Schools of Oriental Research,,27,0,English ,,,2011 12 30,,0006-0895,,,,,,,,,,0,,,,1,1,1,1,3115066,pdf,B42C859A06C9404C21EBE6892027695A,,,_510959.b42c859a06c9404c21ebe6892027695a.pdf,0,2000-01-01 01:00:00,2016-04-03 02:51:08,767000/b42c859a06c9404c21ebe6892027695a-g.jpg,,
19787114,زمانی کورد  ,,,,مه‌سعوود محه‌مه‌د Masud Muhammad,,,,,40,0,Kurdish ,,,2011 12 30,,,,,,,,,,,,0,,,,,1,,1,496785,pdf,B42D38173FA4F125526B2BE52A0762C4,,,_494199.b42d38173fa4f125526b2be52a0762c4.pdf,0,2000-01-01 01:00:00,2016-04-03 02:51:08,767000/b42d38173fa4f125526b2be52a0762c4-g.jpg,,
19787115,High Value Consulting: Managing and Maximizing External and Internal Consultants for Massive Added Value  ,,,,Tom Lambert,1999,,Nicholas Brealey Publishing,,224,0,English ,,,2011 12 30,"1857881737,9781857881738",,,,,658.46,,,2AAxQAAACAAJ,OL18460626M,,0,,,,1,0,1,1,801633,pdf,B42D75646221D9BB7A76CA0A073B3EC4,,,_444426.b42d75646221d9bb7a76ca0a073b3ec4.pdf,0,2000-01-01 01:00:00,2016-04-03 02:51:08,767000/b42d75646221d9bb7a76ca0a073b3ec4-d.jpg,,
19787116,Эпикур,,ЖЗЛ,,Гончарова Т.В.,1988,,Молодая гвардия,,337,0,Russian,,,2011 12 30,5235002261,,,,,,,,,,,0,,,,,1,,1,41472073,pdf,B42F871424936D48924E168FF4A88C86,,,_489102.b42f871424936d48924e168ff4a88c86.pdf,0,2000-01-01 01:00:00,2016-04-03 02:51:08,767000/b42f871424936d48924e168ff4a88c86-d.jpg,,
19787117,Arizona (United States (A Buddy Book))  ,,,,Julie Murray,2005,,Buddy Books,,34,0,English ,,,2011 12 30,"1591976626,9781591976622",,,,,979.1,F811.3 .M87 2006,,by9dChOfUkwC,OL3301786M,,0,,,,1,0,1,1,1098579,pdf,B42FC22634E27D34442B4C39F2B038F6,,,_509011.b42fc22634e27d34442b4c39f2b038f6.pdf,0,2000-01-01 01:00:00,2016-04-03 02:51:08,767000/b42fc22634e27d34442b4c39f2b038f6-d.jpg,,
19787118,"Desire, Violence, and Divinity in Modern Southern Fiction: Katherine Anne Porter, Flannery O'connor, Cormac Mccarthy, Walker Percy (Southern Literary Studies)  ",,Southern Literary Studies,,Gary M. Ciuba,2011,Reprint,Louisiana State University Press,,300,0,English ,,,2011 12 30,"0807138630,9780807138632",,,,,,,,,,,0,,,,1,0,1,1,2488215,pdf,B430A275C88DDF0D205BC2EC44A3BE76,,,_459546.b430a275c88ddf0d205bc2ec44a3be76.pdf,0,2000-01-01 01:00:00,2016-04-03 02:51:08,767000/b430a275c88ddf0d205bc2ec44a3be76-d.jpg,,
19787119,101 stronzate a cui abbiamo creduto tutti almeno una volta nella vita  ,,,,Severino Colombo,2011,,Newton Compton,,,0,Italian ,,,2011 12 30,9788854129160,,,,,,,,vRDoTgEACAAJ,,,0,,,,,1,,,676170,epub,B4323F977EB5A5A9F0C75096C00AB8EA,,,_511214.b4323f977eb5a5a9f0c75096c00ab8ea.epub,0,2000-01-01 01:00:00,2016-04-03 02:51:08,767000/B4323F977EB5A5A9F0C75096C00AB8EA-g.jpg,,
19787120,Copula理论及其在金融分析上的应用  ,,,,"韦艳华, 张世英",2008,,清华大学出版社,,174,0,Chinese(PRC),,,2011 12 30,"7302179123,9787302179122",,,,,,,,,,,0,,,,,1,1,0,24618261,pdf,B432EB8F306EB02A94044E0EAE8FDB0F,,,_464321.b432eb8f306eb02a94044e0eae8fdb0f.pdf,0,2000-01-01 01:00:00,2016-04-03 02:51:08,767000/b432eb8f306eb02a94044e0eae8fdb0f-d.jpg,,
19787121,"Hospital: Man, Woman, Birth, Death, Infinity, Plus Red Tape, Bad Behavior, Money, God and Diversity on Steroids  ",,,,Julie Salamon,2008,,Penguin,,383,0,English ,,,2011 12 30,1436237831,,,,,,,,,,,0,,,,,1,,1,1524532,pdf,B43404FEF69045378576B703E8D46210,,,_491507.b43404fef69045378576b703e8d46210.pdf,0,2000-01-01 01:00:00,2016-04-03 02:51:08,767000/b43404fef69045378576b703e8d46210-g.jpg,,
19787122,Lily Dale: believing  ,,,,Wendy Corsi Staub,2008,First Edition,Walker,,,0,English ,,,2011 12 30,"0802796567,9780802796561",,,,,,,,JgAvIAAACAAJ,OL11209685M,,0,,,,,1,,,205576,epub,B4340AA35145F6C75D463C6C84904316,,,_498306.b4340aa35145f6c75d463c6c84904316.epub,0,2000-01-01 01:00:00,2016-04-03 02:51:08,767000/b4340aa35145f6c75d463c6c84904316-d.jpg,,
19787123,In Harm's Way  ,,Heroes of Quantico 3,,Irene Hannon,2010,,Revell,,,0,English ,,,2011 12 30,9781441207494,,,,,,,,,OL24322967M,,0,,,,0,0,1,1,622442,epub,B434B3853F7B8517387EE9D6943F4E9B,,,_475351.b434b3853f7b8517387ee9d6943f4e9b.epub,0,2000-01-01 01:00:00,2016-04-03 02:51:08,767000/B434B3853F7B8517387EE9D6943F4E9B-g.jpg,,
19787124,Charles Lindbergh (20th Century Biographies) - Teacher's Guide  ,,,,Kent Publishing,2008,,Saddleback Educational Publ,,15,0,English ,,,2011 12 30,"1599053284,9781599053288",,,,,,,,,,,0,,,,0,0,0,1,258187,pdf,B4354358A064050FF45E3ABBC6C97A03,,,_444085.b4354358a064050ff45e3abbc6c97a03.pdf,0,2000-01-01 01:00:00,2016-04-03 02:51:08,767000/b4354358a064050ff45e3abbc6c97a03-d.jpg,,
19787125,Final Days  ,,,,Gary Gibson,2011,,Tor,,,0,English ,,,2011 12 30,9780230761025,,,,,,,,,,,0,,,,0,0,1,1,437536,epub,B435CA6949E502F7F44D477515D4AA79,,,_449903.b435ca6949e502f7f44d477515d4aa79.epub,0,2000-01-01 01:00:00,2016-04-03 02:51:08,767000/B435CA6949E502F7F44D477515D4AA79-g.jpg,,
19787126,,,,The Economist 13 August 2011 volume 400 issue 8746,The Economist Group,2011,,The Economist Group,,92,0,English ,,,2011 12 30,,,,,,,,,,,,0,,,,1,1,0,0,56445176,pdf,B435DFF08EADB3C1978456A5C4A076CB,,,_453167.b435dff08eadb3c1978456a5c4a076cb.pdf,0,2000-01-01 01:00:00,2016-04-03 02:51:08,767000/b435dff08eadb3c1978456a5c4a076cb-g.jpg,,
19787127,"Hepatitis - A Medical Dictionary, Bibliography, and Annotated Research Guide to Internet References  ",,Official Physician Guides,,Health Publica Icon Health Publications,2003,,ICON Health Publications,,705,0,English ,,,2011 12 30,"059783704X,9780597837043",,,,,,,,RNYtPwAACAAJ,OL7582227M,,0,,,,1,0,1,1,3455760,pdf,B43822DA18DD6CC7CD49695D351FD9E0,,,_434727.b43822da18dd6cc7cd49695d351fd9e0.pdf,0,2000-01-01 01:00:00,2016-04-03 02:51:08,767000/b43822da18dd6cc7cd49695d351fd9e0-d.jpg,,
19787128,"Core Knowledge in Orthopaedics: Hand, Elbow, and Shoulder  ",,,,"Thomas Trumble, Roger Cornwall, Jeffrey Budoff",2005,1,Mosby,,681,0,English ,,,2011 12 30,"0323027695,9780323027694",,,,,617.5/7044,RD776 .T78 2006,,,OL21897004M,,0,,,,0,0,1,1,54635619,pdf,B438B8DC2FDBDE27F6A75DEA05627720,,,_466722.b438b8dc2fdbde27f6a75dea05627720.pdf,0,2000-01-01 01:00:00,2016-04-03 02:51:08,767000/b438b8dc2fdbde27f6a75dea05627720-d.jpg,,
19787129,Wissenschaftstheorie II  ,,,,Franz von Kutschera,1972,,Wilhelm Fink Verlag,,269,0,German ,,,2011 12 30,"3770508858,9783770508853",,,,,501.8,,,,,"Missing: Index, table of symbols; Bibliography incomplete",0,,,,0,1,0,1,26199084,pdf,B4390FA9741AD0CE40B67BA5FBAE4F5D,,,_502084.b4390fa9741ad0ce40b67ba5fbae4f5d.pdf,0,2000-01-01 01:00:00,2016-04-03 02:51:08,767000/b4390fa9741ad0ce40b67ba5fbae4f5d-g.jpg,,
19787130,"Randomness Through Computation: Some Answers, More Questions  ",,,,Hector Zenil,2011,,World Scientific Publishing Company,,440,0,English ,,,2011 12 30,"9814327743,9789814327749",,,,,,,,WqVwQ70tAVUC,,,0,,,,,0,1,1,17228435,pdf,B43930B015215C8E6DD24AEC86320B70,,,_467632.b43930b015215c8e6dd24aec86320b70.pdf,0,2000-01-01 01:00:00,2016-04-03 02:51:08,767000/b43930b015215c8e6dd24aec86320b70-d.jpg,,
19787131,Du musst dein Leben ändern: Über Anthropotechnik  ,,,,Peter Sloterdijk,2009,Neuauflage.,Suhrkamp Verlag Kg,,362,0,German ,,,2011 12 30,"3518419951,9783518419953",,,,,,,,,OL24106941M,,0,,,,,1,1,1,17557153,pdf,B43A1CB7DE2549AC6ED564199535065C,,,_487419.b43a1cb7de2549ac6ed564199535065c.pdf,0,2000-01-01 01:00:00,2016-04-03 02:51:08,767000/b43a1cb7de2549ac6ed564199535065c-d.jpg,,
19787132,The Princess of Burundi  ,,Ann Lindell Mysteries: English Publication Order 1,,Kjell Eriksson,2011,,Minotaur Books,,283,0,English ,,,2011 12 30,,,,,,,,,,,,0,,,,0,1,1,1,347377,epub,B43C78877A0D00354312B6A5A3F372B3,,,_447664.b43c78877a0d00354312b6a5a3f372b3.epub,0,2000-01-01 01:00:00,2016-04-03 02:51:08,767000/B43C78877A0D00354312B6A5A3F372B3-g.jpg,,
19787133,Human: The Science Behind What Makes Us Unique  ,,,,Michael S. Gazzaniga,,,,,,0,English ,,,2011 12 30,,,,,,,,,,,,0,,,,,1,,,579636,mobi,B43CB8113A4A1EDA8F6AF1F812C33AAD,,,_453266.b43cb8113a4a1eda8f6af1f812c33aad.mobi,0,2000-01-01 01:00:00,2016-04-03 02:51:08,767000/B43CB8113A4A1EDA8F6AF1F812C33AAD-g.jpg,,
19787134,She Smells the Dead (Spirit Guide)  ,,,,E.J. Stevens,2010,,Sacred Oaks Press,,,0,English ,,,2011 12 30,,,,,,,,,,,,0,,,,,1,,,484524,mobi,B43D0FF0345F70470C69EA19E936A3A7,,,_465909.b43d0ff0345f70470c69ea19e936a3a7.mobi,0,2000-01-01 01:00:00,2016-04-03 02:51:08,767000/B43D0FF0345F70470C69EA19E936A3A7-g.jpg,,
19787135,Environment and Politics (Routledge Introductions to Environment: Environment and Society Texts)  ,,Routledge Introductions to Environment: Environment and Society Texts,,"Timothy Doyle, Doug McEachern",2008,3,Routledge,,332,0,English ,,,2011 12 30,"0415380529,9780415380522",,,,,363.7,GE170 .D69 2007,,UC5Ab5tJzDQC,OL10204446M,,0,,,,1,0,1,1,1515345,pdf,B44129E142430D127267282170EF4846,,,_477273.b44129e142430d127267282170ef4846.pdf,0,2000-01-01 01:00:00,2016-04-03 02:51:08,767000/b44129e142430d127267282170ef4846-d.jpg,,
19787136,Walking Dead #37  ,,,,Robert Kirkman,2008,,Image,,,0,English ,,,2011 12 30,,,ISBN10:B001HO9R6Q,,,,,,,,,0,,,,,1,,,2656718,epub,B441F04D96ADDFDF6F6E2E4C9FB0FAA9,,,_504763.b441f04d96addfdf6f6e2e4c9fb0faa9.epub,0,2000-01-01 01:00:00,2016-04-03 02:51:08,767000/B441F04D96ADDFDF6F6E2E4C9FB0FAA9-g.jpg,,
19787137,Paint & Coating Industry July 2011  ,,,,Kristin Johansson,,,Business News Publishing Co,,72,0,English ,,,2011 12 30,,,,,,,,,,,,0,,,,1,0,1,1,29659165,pdf,B4420173AFBBFAEC869E2F67CB56FA52,,,_513004.b4420173afbbfaec869e2f67cb56fa52.pdf,0,2000-01-01 01:00:00,2016-04-03 02:51:08,767000/b4420173afbbfaec869e2f67cb56fa52-g.jpg,,
19787138,,,,مجله رشد برهان ریاضی (دوره راهنمایی) شماره 54 volume 15 issue 4,آموزش و پرورش,2010,,,,48,0,Persian ,,,2011 12 30,,,,,,,,,,,,0,,,,,1,,1,4225635,pdf,B442205798DFDC3D49A260BA97886547,,,_495954.b442205798dfdc3d49a260ba97886547.pdf,0,2000-01-01 01:00:00,2016-04-03 02:51:08,767000/b442205798dfdc3d49a260ba97886547-g.jpg,,
19787139,Intangible Heritage Embodied  ,,,,"D. Fairchild Ruggles, Helaine Silverman",2009,1,Springer,,219,0,English,,,2011 12 30,"1441900713,9781441900715,9781441900722",,,,,,,10.1007/978-1-4419-0072-2,,,,0,,,,0,1,1,1,5910631,pdf,B4422C62622C3874A1DA2269FE04E9C0,,,_443486.b4422c62622c3874a1da2269fe04e9c0.pdf,0,2000-01-01 01:00:00,2016-04-03 02:51:08,767000/b4422c62622c3874a1da2269fe04e9c0-d.jpg,,
19787140,True and False Recovered Memories: Toward a Reconciliation of the Debate  ,,Nebraska Symposium on Motivation 58,,Robert F. Belli (editor),2011,2012,Springer,,275,0,English,,,2011 12 30,"1461411947,9781461411949,9781461411956",,,,,,,10.1007/978-1-4614-1195-6,,,,0,,,,0,0,1,1,2152826,pdf,B4455246686EF0F73339A4D61A05572B,,,_497416.b4455246686ef0f73339a4d61a05572b.pdf,0,2000-01-01 01:00:00,2016-04-03 02:51:08,767000/b4455246686ef0f73339a4d61a05572b-d.jpg,,
19787141,"מסע אל העבר : יוון, רומא וירושלים  ",,,,אסתי ריין,2001,,מטח : המרכז לטכנולוגיה חינוכית,,242,0,Hebrew,,,2011 12 30,,,,,,,,,,,,0,,,,0,1,0,0,95115145,pdf,B44654BDA3CDCA9FF03A8341AC0F3449,,,_484640.b44654bda3cdca9ff03a8341ac0f3449.pdf,0,2000-01-01 01:00:00,2016-04-03 02:51:08,767000/b44654bda3cdca9ff03a8341ac0f3449-g.jpg,,
19787142,Managing Brand Equity  ,,,,David A. Aaker,1991,,Free Press,,299,0,English ,,,2011 12 30,"0029001013,9780029001011",,,,,658.8/27,HD69.B7 A22 1991,,,OL1532721M,,0,,,,1,1,1,1,2200896,mobi,B44A97AD7549C8354D1194888FE68602,,,_464842.b44a97ad7549c8354d1194888fe68602.mobi,0,2000-01-01 01:00:00,2016-04-03 02:51:08,767000/b44a97ad7549c8354d1194888fe68602-d.jpg,,
19787143,"Kinship and Gender: An Introduction, (4th Edition)  ",,,,Linda Stone,2009,4th Edition,Westview Press,,354,0,English ,,,2011 12 30,"0813344026,9780813344027",,,,,306.83,GN487 .S76 2010,,,OL23397467M,,0,,,,1,0,1,1,2169037,pdf,B44AFC29DE018CE9AF07837F3BB0DCCA,,,_476668.b44afc29de018ce9af07837f3bb0dcca.pdf,0,2000-01-01 01:00:00,2016-04-03 02:51:08,767000/b44afc29de018ce9af07837f3bb0dcca-d.jpg,,
19787144,Sparing Nature: The Conflict between Human Population Growth and Earth's Biodiversity  ,,,,Jeffrey K. McKee,2003,,Rutgers University Press,,226,0,English ,,,2011 12 30,"0813531411,9780813531410,0813535581,9780813535586",,,,,,,,Hpqi5xrbLIYC,OL8025886M,,0,,,,1,0,1,1,1391640,pdf,B44B3717B228471E35223BC3477E4614,,,_488880.b44b3717b228471e35223bc3477e4614.pdf,0,2000-01-01 01:00:00,2016-04-03 02:51:08,767000/b44b3717b228471e35223bc3477e4614-d.jpg,,
19787145,Katzenjammer (Roman)  ,,,,Frauke Scheunemann,2011,,Page & Turner,,,0,German ,,,2011 12 30,"3442203694,9783442203697,9783641061869",,,,,,,,,,,0,,,,,0,1,1,307852,epub,B44C960552C29624D34280F45E9E2D43,,,_447221.b44c960552c29624d34280f45e9e2d43.epub,0,2000-01-01 01:00:00,2016-04-03 02:51:08,767000/b44c960552c29624d34280f45e9e2d43-d.jpg,,
19787146,"The New Relationship Marketing: How to Build a Large, Loyal, Profitable Network Using the Social Web  ",,,,Mari Smith,2011,1,Wiley,,,0,English ,,,2011 12 30,"1118063066,9781118063064",,,,,658.8/72,HF5415.55 .S65 2011,,,OL25149473M,,0,,,,,0,1,1,1383045,epub,B44D0A8096F353FA3F33099F8588C805,,,_484050.b44d0a8096f353fa3f33099f8588c805.epub,0,2000-01-01 01:00:00,2016-04-03 02:51:08,767000/b44d0a8096f353fa3f33099f8588c805-d.jpg,,
19787147,Design para quem não é designer: noções básicas de planejamento visual  ,,,,Robin Williams,2006,2,Callis Editora Ltd,,138,0,Portuguese ,,,2011 12 30,"8574162388,9788574162386",,,,,,,,,OL9164017M,,0,,,,,1,,0,19390685,pdf,B44E5D2A21AE0261CF2B16DB8E3D91A8,,,_486186.b44e5d2a21ae0261cf2b16db8e3d91a8.pdf,0,2000-01-01 01:00:00,2016-04-03 02:51:08,767000/b44e5d2a21ae0261cf2b16db8e3d91a8-g.jpg,,
19787148,Guide to Financial Management  ,,,,John Tennent,2008,,John Wiley & Sons,,334,0,English ,,,2011 12 30,"186197809X,9781861978097",,,,,658.15,HG4026 .T47 2008,,,OL23208434M,,0,,,,,0,1,1,1746329,pdf,B44E88C39C658D040958C2B81A65951F,,,_512307.b44e88c39c658d040958c2b81a65951f.pdf,0,2000-01-01 01:00:00,2016-04-03 02:51:08,767000/b44e88c39c658d040958c2b81a65951f-d.jpg,,
19787149,Типы языковых значений. Семантика производного слова  ,,,,Е. С. Кубрякова,1981,,Наука,,100,0,Russian ,,,2011 12 30,"5382004927,9785382004921",,,,,,,,,,,0,,,,,1,,1,8300926,pdf,B44EA1AB715FB2B337CED5F8556B379A,,,_506024.b44ea1ab715fb2b337ced5f8556b379a.pdf,0,2000-01-01 01:00:00,2016-04-03 02:51:08,767000/b44ea1ab715fb2b337ced5f8556b379a-g.jpg,,
19787150,Kiss of Frost (Mythos Academy)  ,,,,Jennifer Estep,2011,,K-Teen,,,0,English ,,,2011 12 30,"0758266944,9780758266941",,,,,,,,,,,0,,,,,0,1,1,880296,mobi,B44F14B407ED049458932BA39000D417,,,_502029.b44f14b407ed049458932ba39000d417.mobi,0,2000-01-01 01:00:00,2016-04-03 02:51:08,767000/b44f14b407ed049458932ba39000d417-d.jpg,,
19787151,State of the Union 2010: Schuman Report on Europe  ,,,,Foundation Schuman,2010,1st Edition.,Springer,,290,0,English ,,,2011 12 30,"2817801741,9782817801742",,,,,,,,a9XrVYpHhmkC,,,0,,,,0,0,1,1,7887577,pdf,B44F3B0C02CAEF6EE5A116F0251FA88D,,,_461457.b44f3b0c02caef6ee5a116f0251fa88d.pdf,0,2000-01-01 01:00:00,2016-04-03 02:51:08,767000/b44f3b0c02caef6ee5a116f0251fa88d-d.jpg,,
19787152,Biochemical Oscillations and Cellular Rhythms: The Molecular Bases of Periodic and Chaotic Behaviour  ,,,,Albert Goldbeter,1997,,Cambridge University Press,,630,0,English ,,,2011 12 30,"0521599466,9780521599467,0521403073,9780521403078",,,,,574.1/882,QP84.6 .G6513 1996,,,OL1278421M,,0,,,,1,1,1,1,9962528,pdf,B450EA97AD6E73F146DE6AD039B4071B,,,_457802.b450ea97ad6e73f146de6ad039b4071b.pdf,0,2000-01-01 01:00:00,2016-04-03 02:51:08,767000/b450ea97ad6e73f146de6ad039b4071b-d.jpg,,
19787153,Civil Liberties and the State: A Documentary and Reference Guide (Documentary and Reference Guides)  ,,,,Christopher Peter Latimer,2010,,Greenwood,,388,0,English ,,,2011 12 30,"0313379343,9780313379345,9780313379352",,,,,,,,,,,0,,,,1,0,1,1,3080428,pdf,B451768470B0FE93F031C69D5D581E2E,,,_463317.b451768470b0fe93f031c69d5d581e2e.pdf,0,2000-01-01 01:00:00,2016-04-03 02:51:08,767000/b451768470b0fe93f031c69d5d581e2e-d.jpg,,
19787154,Cheating Monkeys and Citizen Bees: The Nature of Cooperation in Animals and Humans  ,,,,Lee Dugatkin,2000,,Harvard University Press,,,0,English ,,,2011 12 30,"0684843412,9780684843414,9781439136515",,,,,591.56,QL775 .D84 1999,,wqiZJhtI-0wC,OL367257M,,0,,,,,0,1,1,238262,epub,B4521761FC09FAB861067A72509EE739,,,_506303.b4521761fc09fab861067a72509ee739.epub,0,2000-01-01 01:00:00,2016-04-03 02:51:08,767000/b4521761fc09fab861067a72509ee739-d.jpg,,
19787155,The Flux of History and the Flux of Science  ,,,,Joseph Margolis,1993,,University of California Press,,133,0,English ,,,2011 12 30,"0520083199,9780520083196",,,,,907/.2,D16.9 .M276 1993,,,OL1396694M,,0,,,,,1,,1,544439,pdf,B45377EF8AC14A8C9730B2B28E24BDF8,,,_500541.b45377ef8ac14a8c9730b2b28e24bdf8.pdf,0,2000-01-01 01:00:00,2016-04-03 02:51:08,767000/b45377ef8ac14a8c9730b2b28e24bdf8-d.jpg,,
19787156,SQL SERVER 2005 - ADMINISTRAÇAO E DESENVOLVIMENTO: CURSO COMPLETO  ,,,,JULIO BATTISTI,2005,,Axcel Books,,1018,0,Portuguese ,76,,2011 12 30,"8573232498,9788573232493",,,,,,,,,,,0,,,,,1,,0,52451856,pdf,B455789885F2FB9888C85E5B73BC93E8,,,_485623.b455789885f2fb9888c85e5b73bc93e8.pdf,0,2000-01-01 01:00:00,2016-04-03 02:51:08,767000/b455789885f2fb9888c85e5b73bc93e8-g.jpg,,
19787157,Unearthed  ,,,,Gina Ranalli,2011,,Delirium Books,,,0,English ,,,2011 12 30,,,,,,,,,,,,0,,,,,1,,,429620,mobi,B4559E632E7430AE928D20DA4AD39680,,,_465944.b4559e632e7430ae928d20da4ad39680.mobi,0,2000-01-01 01:00:00,2016-04-03 02:51:08,767000/B4559E632E7430AE928D20DA4AD39680-g.jpg,,
19787158,One Click: Jeff Bezos and the Rise of Amazon.com  ,,,,Richard L. Brandt,2011,,Portfolio,,,0,English ,,,2011 12 30,,,ISBN10:B004IYIUS8,,,,,,,,,0,,,,,0,1,1,293184,mobi,B455C211E31E04FE63BF035102ACE0F6,,,_486300.b455c211e31e04fe63bf035102ace0f6.mobi,0,2000-01-01 01:00:00,2016-04-03 02:51:08,767000/B455C211E31E04FE63BF035102ACE0F6-g.jpg,,
19787159,Alpha Force: Untouchable  ,,,,Chris Ryan,2010,,RHCB,,,0,English ,,,2011 12 30,"1407050141,9781407050140",,,,,823.92,,,4Nf-cytsYhEC,OL24309364M,,0,,,,,1,,,341864,mobi,B45601BED46E400C04A56E01EAE7A665,,,_498357.b45601bed46e400c04a56e01eae7a665.mobi,0,2000-01-01 01:00:00,2016-04-03 02:51:08,767000/B45601BED46E400C04A56E01EAE7A665-g.jpg,,
19787160,"A Comparative Grammar of the French, Italian, Spanish and Portuguese Languages  ",,,,Edwin A. Notley,1868,,Truebner & Co,,412,0,English ,,,2011 12 30,,,,,,,,,,,,0,,,,0,1,0,0,72457125,pdf,B4568977855BB308DF197B4B98D9542A,,,_433815.b4568977855bb308df197b4b98d9542a.pdf,0,2000-01-01 01:00:00,2016-04-03 02:51:08,767000/b4568977855bb308df197b4b98d9542a-g.jpg,,
19787161,ויקרא - צו : ספר ויקרא - פרקים א - ח (חוברת עבודה)  ,,,,מתיה קם וברוריה מכמן,1998,,מטח : המרכז לטכנולוגיה חינוכית,,82,0,Hebrew,,,2011 12 30,,,,,,,,,,,,0,,,,0,1,0,0,18099985,pdf,B4569C5FC5F3D73C30708013863BB044,,,_485761.b4569c5fc5f3d73c30708013863bb044.pdf,0,2000-01-01 01:00:00,2016-04-03 02:51:08,767000/b4569c5fc5f3d73c30708013863bb044-g.jpg,,
19787162,The Great Game: On Secret Service in High Asia  ,,,,Peter Hopkirk,2006,,John Murray,,,0,English ,,,2011 12 30,"0719564476,9780719564475",,,,,,,,,,,0,,,,,1,,,1350329,epub,B457F84FFE473CAFA2F4D4E01480B25D,,,_463398.b457f84ffe473cafa2f4d4e01480b25d.epub,0,2000-01-01 01:00:00,2016-04-03 02:51:08,767000/b457f84ffe473cafa2f4d4e01480b25d-d.jpg,,
19787163,Der Schwarze Korridor  ,,,,Michael Moorcock,1972,,Fischer Taschenbuch Verlag,,126,0,German ,,,2011 12 30,"3436015687,9783436015688",,,,,,,,,,,0,,,,,1,,1,807714,pdf,B4582FB9C26658E6AC9E0020C5406953,,,_479919.b4582fb9c26658e6ac9e0020c5406953.pdf,0,2000-01-01 01:00:00,2016-04-03 02:51:08,767000/b4582fb9c26658e6ac9e0020c5406953-g.jpg,,
19787164,चित्रग्रीव  ,,,,धन गोपाल मुखर्जी,,,"National Book Trust, New Delhi, India",,155,0,Marathi,,,2011 12 30,,,,,,,,,,,,0,,,,,1,,0,2561602,pdf,B4590C703852D65973631B5B65C93EF3,,,_463394.b4590c703852d65973631b5b65c93ef3.pdf,0,2000-01-01 01:00:00,2016-04-03 02:51:08,767000/b4590c703852d65973631b5b65c93ef3-g.jpg,,
19787165,"Researching IT in Education: Theory, Practice and Future Directions  ",,,,"Anne McDougall, John Murnane, Anthony Jones, Nick Reynolds",2010,1,Routledge,London ; New York,231,0,English ,,,2011 12 30,"0415560004,9780415560009,9780203863275,0203863275",,,,,371.33/4,LB1028.3 .R464 2010,,,OL23606474M,,0,,,,,1,,1,3355026,pdf,B45AA4422DE72BEE36F7D0A41EB55884,,,_447066.b45aa4422de72bee36f7d0a41eb55884.pdf,0,2000-01-01 01:00:00,2016-04-03 02:51:08,767000/b45aa4422de72bee36f7d0a41eb55884-d.jpg,,
19787166,"Aislinge Meic Con Gline (Irish Edition, english comments)  ",,,,Kenneth Hurlst Jackson (ed.),1990,,Dublin Institute for Advanced Studies,,248,0,Irish,,,2011 12 30,"0901282944,9780901282941",,,,,491.6/27,PB1397 .A368 1990,,,OL1957169M,,400,,,,,1,1,1,3683257,djvu,B45B18E91BBC121ED89AD60674D5F56F,,,_453520.b45b18e91bbc121ed89ad60674d5f56f.djvu,0,2000-01-01 01:00:00,2016-04-03 02:51:08,767000/b45b18e91bbc121ed89ad60674d5f56f-g.jpg,,
19787167,傅斯年全集（05）  ,,,,傅斯年,,,,,531,0,Chinese(PRC),,,2011 12 30,,,,,,,,,,,,0,,,,,1,,0,11880464,pdf,B45C21BE27AF857DA1FE50039B4C87B9,,,_452592.b45c21be27af857da1fe50039b4c87b9.pdf,0,2000-01-01 01:00:00,2016-04-03 02:51:08,767000/b45c21be27af857da1fe50039b4c87b9-g.jpg,,
19787168,Decodable Book 11 Grade 2  ,,,,HSP,2006,,Houghton Mifflin School,,44,0,English ,,,2011 12 30,"0153641266,9780153641268",,,,,,,,,,,0,,,,0,0,1,1,4855498,pdf,B45F48A40B8B7626A9BE8F1F63898077,,,_487506.b45f48a40b8b7626a9be8f1f63898077.pdf,0,2000-01-01 01:00:00,2016-04-03 02:51:08,767000/b45f48a40b8b7626a9be8f1f63898077-g.jpg,,
19787169,Economic Growth and Environmental Regulation: China's Path to a Brighter Future  ,,,,"Tim Swanson, Tun Lin",2009,1,Routledge,,391,0,English ,,,2011 12 30,"0203868722,9780203868720",,,,,333.70951,HC430.E5 E34 2009,,,OL23207668M,,0,,,,0,0,0,1,9078534,pdf,B46139AEEB02CB7D2E9310AF0F972A54,,,_461574.b46139aeeb02cb7d2e9310af0f972a54.pdf,0,2000-01-01 01:00:00,2016-04-03 02:51:08,767000/b46139aeeb02cb7d2e9310af0f972a54-d.jpg,,
19787170,How to Read a French Fry: And Other Stories of Intriguing Kitchen Science  ,,,,Russ Parsons,2001,First Edition,Houghton Mifflin Harcourt,,353,0,English ,,,2011 12 30,"039596783X,9780395967836",,,,,,,,Q4QgAQAAIAAJ,OL18197464M,,0,,,,1,0,1,1,1215891,pdf,B464AFF748A24AE723D0C37B70D44466,,,_472027.b464aff748a24ae723d0c37b70d44466.pdf,0,2000-01-01 01:00:00,2016-04-03 02:51:08,767000/b464aff748a24ae723d0c37b70d44466-d.jpg,,
19787171,"Proteomics and Protein-Protein Interactions: Biology, Chemistry, Bioinformatics, and Drug Design (Protein Reviews)  ",,Protein Reviews 3,,Gabriel Waksman,2005,1,Springer,,325,0,English ,,,2011 12 30,"0387245316,9780387245317",,,,,612/.01575,QP551.5 .P765 2005,,,OL3420499M,,0,,,,0,0,1,1,4161979,pdf,B46503303C7870B020CF5BC77BFA9EDC,,,_438468.b46503303c7870b020cf5bc77bfa9edc.pdf,0,2000-01-01 01:00:00,2016-04-03 02:51:08,767000/b46503303c7870b020cf5bc77bfa9edc-d.jpg,,
19787172,Lock On No. 22 - McDonnell Douglas F-15 E Strike Eagle  ,,,,Willy Peeters,1993,1st,Verlinden Publications,,38,0,English ,,,2011 12 30,"1930607199,9781930607194",,,,,,,,,OL12303496M,,0,,,,,1,,0,14809479,pdf,B467BA2812E11CCAA8153DB5EB1325A8,,,_433126.b467ba2812e11ccaa8153db5eb1325a8.pdf,0,2000-01-01 01:00:00,2016-04-03 02:51:08,767000/b467ba2812e11ccaa8153db5eb1325a8-d.jpg,,
19787173,Rituals of the season  ,,,,Margaret Maron,2005,First Edition,Mysterious Press,,,0,English ,,,2011 12 30,"0892968095,9780892968091",,,,,813/.54,PS3563.A679 R58 2005,,TCuh4fMSkS0C,OL23273543M,,0,,,,,1,,,449107,mobi,B46814C4DC57E32D849C45950A115443,,,_466105.b46814c4dc57e32d849c45950a115443.mobi,0,2000-01-01 01:00:00,2016-04-03 02:51:08,767000/b46814c4dc57e32d849c45950a115443-d.jpg,,
19787174,Returning Home: Reconnecting with Our Childhoods  ,,,,Jerry M. Burger,2011,,Rowman & Littlefield Publishers,,151,0,English ,,,2011 12 30,"1442206802,9781442206809,9781442206823",,,,,155.9/45,BF353 .B87 2011,,NJrWrBY7vLEC,OL25001381M,,0,,,,1,0,1,1,527961,pdf,B46A4A664CC78489A4B5F71C0D81CD27,,,_452973.b46a4a664cc78489a4b5f71c0d81cd27.pdf,0,2000-01-01 01:00:00,2016-04-03 02:51:08,767000/b46a4a664cc78489a4b5f71c0d81cd27-d.jpg,,
19787175,"Языковая политика и социально-правовые аспекты адаптации мигрантов: проблемы, реализация, перспективы, часть 1  ",,,,"Под ред. Карабулатовой И.С., Корепанова Г.С., Сунцова А.П. Тюмень",2010,,Вектор-Бук,,309,0,Russian ,314,,2011 12 30,9785914091729,,,,,,,,,,,0,,,,1,1,0,1,14456381,pdf,B46B91B6AF8C74FAFAAA4FBD8D4E51A6,,,_487414.b46b91b6af8c74fafaaa4fbd8d4e51a6.pdf,0,2000-01-01 01:00:00,2016-04-03 02:51:08,767000/b46b91b6af8c74fafaaa4fbd8d4e51a6-g.jpg,,
19787176,A Burial at Sea  ,,,,Charles Finch,2011,,St. Martin's Press,,269,0,English ,,,2011 12 30,"1429980702,9781429980708",,,,,,,,,,,0,,,,,1,1,1,314904,epub,B46BCAAABF1946C65D3BC92EE5F2361B,,,_494626.b46bcaaabf1946c65d3bc92ee5f2361b.epub,0,2000-01-01 01:00:00,2016-04-03 02:51:08,767000/B46BCAAABF1946C65D3BC92EE5F2361B-g.jpg,,
19787177,Anywhere Computing with Laptops : Making Mobile Easier  ,,,,Harold Davis,2006,1,Que,,,0,English ,,,2011 12 30,"0789733277,9780789733276",,,,,004.616,QA76.59 .D39 2006,,bBACAAAACAAJ,OL23030775M,,0,,,,,0,1,1,7654339,epub,B46BF6B40879A467EFDCBF429366B01E,,,_488545.b46bf6b40879a467efdcbf429366b01e.epub,0,2000-01-01 01:00:00,2016-04-03 02:51:08,767000/b46bf6b40879a467efdcbf429366b01e-d.jpg,,
19787178,A History of Horrors: The Rise and Fall of the House of Hammer  ,,,,"Denis Meikle, Christopher T. Koetting",2009,Revised Edition,Scarecrow Press,,1000,0,English ,,,2011 12 30,"0810863545,9780810863545,0810863537,9780810863538",,,,,791.43/6164,PN1999.H3 M45 2009,,CMbANBcdOrwC,OL17010504M,,0,,,,,1,,1,2558268,mobi,B46C3E6D102F68A8B8A4DB038D7DED72,,,_457125.b46c3e6d102f68a8b8a4db038d7ded72.mobi,0,2000-01-01 01:00:00,2016-04-03 02:51:08,767000/b46c3e6d102f68a8b8a4db038d7ded72-d.jpg,,
19787179,Beyond Binaries in Education Research (Routledge Research in Education)  ,,Routledge Research in Education,,"Warren Midgley, Mark A. Tyler, Patrick Alan Danaher, Alison Mander",2011,1,Routledge,,302,0,English ,,,2011 12 30,"0415885124,9780415885126,9780203816608",,,,,370.72,LB1028.2 .B48 2011,,GljZSAAACAAJ,OL25074967M,,0,,,,1,0,1,1,1723244,pdf,B46E0426AF826CC2C92F7EBC5F51876D,,,_506510.b46e0426af826cc2c92f7ebc5f51876d.pdf,0,2000-01-01 01:00:00,2016-04-03 02:51:08,767000/b46e0426af826cc2c92f7ebc5f51876d-d.jpg,,
19787180,Soul Thief: A Demon Trappers Novel  ,,,,Jana Oliver,2011,,St. Martin's Press,,,0,English ,,,2011 12 30,"0312614799,9780312614799",,,,,,,,wt5Qo7G0bbgC,OL25177054M,,0,,,,,1,,,777468,mobi,B46E0ADB1D92CA0CB536DE008B991560,,,_466001.b46e0adb1d92ca0cb536de008b991560.mobi,0,2000-01-01 01:00:00,2016-04-03 02:51:08,767000/b46e0adb1d92ca0cb536de008b991560-d.jpg,,
19787181,What I Loved  ,,,,Siri Hustvedt,2004,First edition.,Picador,,,0,English ,,,2011 12 30,"0312421192,9780312421199",,,,,813.54,,,,OL9734062M,,0,,,,,1,,,320150,epub,B46E2C8BAEF56924D8920A746CFDC540,,,_497466.b46e2c8baef56924d8920a746cfdc540.epub,0,2000-01-01 01:00:00,2016-04-03 02:51:08,767000/b46e2c8baef56924d8920a746cfdc540-d.jpg,,
19787182,"The Feline Patient, 4th Edition  ",,,,"Gary D. Norsworthy, Sharon Fooshee Grace, Mitchell A. Crystal, Larry P. Tilley",2010,4,Wiley-Blackwell,,1073,0,English ,,,2011 12 30,"0813818486,9780813818481",,,,,636.8/0896,SF985 .F46 2011,,,OL24553035M,,0,,,,1,1,1,1,49769470,pdf,B46F13620870C5151ADF677CB4B97B49,,,_486973.b46f13620870c5151adf677cb4b97b49.pdf,0,2000-01-01 01:00:00,2016-04-03 02:51:08,767000/b46f13620870c5151adf677cb4b97b49-d.jpg,,
19787183,I'm Feeling Lucky: The Confessions of Google Employee Number 59  ,,,,Douglas Edwards,2011,None,Houghton Mifflin Harcourt,,,0,English ,,,2011 12 30,"0547416997,9780547416991",,,,,,,,,OL24947051M,,0,,,,,0,1,1,739276,mobi,B46F289130F6DD4C6D5E47DEA067D172,,,_490661.b46f289130f6dd4c6d5e47dea067d172.mobi,0,2000-01-01 01:00:00,2016-04-03 02:51:08,767000/b46f289130f6dd4c6d5e47dea067d172-d.jpg,,
19787184,Proofiness: the dark arts of mathematical deception  ,,,,Charles Seife,2010,,Viking,,,0,English ,,,2011 12 30,9781101443507,,,,,,,,,,,0,,,,0,1,1,1,645269,epub,B470093667D881A88880C92D146878C6,,,_465382.b470093667d881a88880c92d146878c6.epub,0,2000-01-01 01:00:00,2016-04-03 02:51:08,767000/B470093667D881A88880C92D146878C6-g.jpg,,
19787185,Handbook of Analysis of Edible Animal By-Products  ,,,,"Leo M.L. Nollet, Fidel Toldra",2011,1,CRC Press,,442,0,English ,,,2011 12 30,"1439803609,9781439803608",,,,,641.36,,,,,,0,,,,,1,,1,11082321,pdf,B4707FEE3BAABBDDB26E890D9AA5E236,,,_508115.b4707fee3baabbddb26e890d9aa5e236.pdf,0,2000-01-01 01:00:00,2016-04-03 02:51:08,767000/b4707fee3baabbddb26e890d9aa5e236-d.jpg,,
19787186,Programming Microsoft ASP.NET MVC,,,,Dino Esposito,2011,2,Microsoft Press,,464,0,English,92,,2011 12 30,"0735662843,9780735662841",,,,,,,,,,,0,,,,1,0,1,1,9920843,pdf,B470AF7BB7E6E255D1C5A3E899FDAF6C,,,_494436.b470af7bb7e6e255d1c5a3e899fdaf6c.pdf,0,2000-01-01 01:00:00,2016-04-03 02:51:08,767000/b470af7bb7e6e255d1c5a3e899fdaf6c-d.jpg,,
19787187,Der kleine Mann  ,,,,Erich Kästner,1998,,Dressler Verlag,,195,0,German ,,,2011 12 30,"3791530178,9783791530178",,,,,,,,mdd4_D-2sFAC,OL8935795M,,0,,,,,1,1,1,6442965,pdf,B470BD597DD051EB9E8770CF6CEEE6AB,,,_513849.b470bd597dd051eb9e8770cf6ceee6ab.pdf,0,2000-01-01 01:00:00,2016-04-03 02:51:08,767000/b470bd597dd051eb9e8770cf6ceee6ab-d.jpg,,
19787188,How to List and Sell Real Estate: 30th Anniversary Edition  ,,,,"Danielle Kennedy, Warren Jamison",2010,"4th, 30th anniversary edition",Cengage Learning,,572,0,English ,,,2011 12 30,"0538798297,9780538798297",,,,,,,,O8Ufk4cUk4kC,,,0,,,,1,0,1,1,3253958,pdf,B471C5DA19C3385905662A653FD01638,,,_468159.b471c5da19c3385905662a653fd01638.pdf,0,2000-01-01 01:00:00,2016-04-03 02:51:08,767000/b471c5da19c3385905662a653fd01638-d.jpg,,
19787189,Developing Enterprise iOS Applications: iPhone and iPad Apps for Companies and Organizations  ,,,,James Turner,2012,,O'Reilly Media,,114,0,English ,,,2011 12 30,"1449311482,9781449311483",,,,,,,,lzsCCeqBJDAC,,,0,,,,1,0,1,1,8698502,pdf,B474AC1BFB76C8790DAA9B4F8C9AF3CA,,,_510894.b474ac1bfb76c8790daa9b4f8c9af3ca.pdf,0,2000-01-01 01:00:00,2016-04-03 02:51:08,767000/b474ac1bfb76c8790daa9b4f8c9af3ca-d.jpg,,
19787190,Mixed Integer Nonlinear Programming  ,,The IMA Volumes in Mathematics and its Applications 154,,"Jon Lee, Sven Leyffer",2011,2012,Springer,,687,0,English,87,,2011 12 30,"1461419263,9781461419266",,,,,519.76,T57.8 .M59 2012,10.1007/978-1-4614-1927-3,,OL25223099M,,0,,,,0,0,1,1,8045369,pdf,B47528675132AA1C24507AB3494A334A,,,_505856.b47528675132aa1c24507ab3494a334a.pdf,0,2000-01-01 01:00:00,2016-04-03 02:51:08,767000/b47528675132aa1c24507ab3494a334a-d.jpg,,
19787191,Newspaper Writings -- Part II (Collected Works of John Stuart Mill - Vol. 23)  ,,,,John Stuart Mill,1996,1 New,Routledge,,431,0,English ,,,2011 12 30,"0415145589,9780415145589",,,,,,,,,OL10187077M,,0,,,,,1,1,1,31319703,pdf,B475D1D1916C7D96B684B80C92CF38F9,,,_439347.b475d1d1916c7d96b684b80c92cf38f9.pdf,0,2000-01-01 01:00:00,2016-04-03 02:51:08,767000/b475d1d1916c7d96b684b80c92cf38f9-g.jpg,,
19787192,Language Origins: Perspectives on Evolution  ,,,,Maggie Tallerman,2005,,Oxford University Press,,447,0,English ,,,2011 12 30,"0199279039,9780199279036",,,,,401,P116 .L36 2005,,VuWLJNFX3fIC,OL3439832M,,0,,,,0,0,0,1,5480989,pdf,B47A739622C917EF57337305FFFC052F,,,_468131.b47a739622c917ef57337305fffc052f.pdf,0,2000-01-01 01:00:00,2016-04-03 02:51:08,767000/b47a739622c917ef57337305fffc052f-d.jpg,,
19787193,The Debacle  ,,,,Émile Zola,1973,,Penguin Classics,,,0,English ,,,2011 12 30,,,,,,,,,,,,0,,,,0,1,,1,3006102,epub,B47A8143F5D2B3D62C6E6571C5C3E3BB,,,_499092.b47a8143f5d2b3d62c6e6571c5c3e3bb.epub,0,2000-01-01 01:00:00,2016-04-03 02:51:08,767000/B47A8143F5D2B3D62C6E6571C5C3E3BB-g.jpg,,
19787194,Making Sense of Leadership: Exploring the Five Key Roles Used by Effective Leaders  ,,,,"Esther Cameron, Mike Green",2008,,Kogan Page Publishers,London ; Philadelphia,224,0,English ,,,2011 12 30,"0749450398,9780749450397,9780749455583,0749455586",,,,,658.4/092,HD57.7 C3537 2008,,_VAJbpcuImYC,OL16799363M,,0,,,,,1,,1,2794474,pdf,B47ABA305C43D6BDD53E7A2496399E3C,,,_473659.b47aba305c43d6bdd53e7a2496399e3c.pdf,0,2000-01-01 01:00:00,2016-04-03 02:51:08,767000/b47aba305c43d6bdd53e7a2496399e3c-d.jpg,,
19787195,Οι μαριονέτες  ,,Ρομαντική Βιβλιοθήκη,,"Heinrich von Kleist, Τζένη Μαστοράκη (μετάφραση)",1996,,Άγρα,,67,0,Greek(Modern),,,2011 12 30,960325181X,,,,,,,,,,,600,,,,1,1,1,0,3708897,pdf,B47CC933A1BE7F877BFCC16757AC767A,,,_490748.b47cc933a1be7f877bfcc16757ac767a.pdf,0,2000-01-01 01:00:00,2016-04-03 02:51:08,767000/b47cc933a1be7f877bfcc16757ac767a-g.jpg,,
19787196,Formal Ethics  ,,,,Harry Gensler,1996,First Edition,Routledge,,213,0,English ,,,2011 12 30,"0415130654,9780415130653",,,,,170,BJ1012 .G44 1996,,V2ojbjIupd8C,OL802466M,,0,,,,,0,,1,2336016,pdf,B47DC0C582E54A434584B811FF38E225,,,_443658.b47dc0c582e54a434584b811ff38e225.pdf,0,2000-01-01 01:00:00,2016-04-03 02:51:08,767000/b47dc0c582e54a434584b811ff38e225-d.gif,,
19787197,Introduction to Crystallography  ,,,,Donald E. Sands,1993,,Courier Dover Publications,,179,0,English ,,,2011 12 30,"0486678393,9780486678399",,,,,548,QD905.2 .S26 1993,,,OL1424605M,,0,,,,0,1,0,1,14319562,pdf,B47E4B9CF167179BAB9A43E809B80EC8,,,_484774.b47e4b9cf167179bab9a43e809b80ec8.pdf,0,2000-01-01 01:00:00,2016-04-03 02:51:08,767000/b47e4b9cf167179bab9a43e809b80ec8-d.jpg,,
19787198,Ventilation Systems: Design and Performance  ,,,,Hazim B. Awbi,2007,1,Spon Press,,460,0,English ,,,2011 12 30,"0419217002,9780419217008",,,,,697.9/2,TH7658 .V455 2007,,,OL10211696M,,0,,,,,1,,1,5347616,pdf,B47EAB9C9374AF4EF539B3FBED763B64,,,_470605.b47eab9c9374af4ef539b3fbed763b64.pdf,0,2000-01-01 01:00:00,2016-04-03 02:51:08,767000/b47eab9c9374af4ef539b3fbed763b64-d.jpg,,
19787199,"Seeing Further: The Story of Science, Discovery, and the Genius of the Royal Society  ",,,,Bill Bryson,2010,,HarperCollins,,,0,English ,,,2011 12 30,9780062036223,,,,,,,,,,,0,,,,,1,1,1,173569919,epub,B47ECA9E8B727A7EF51A004E4F8D9225,,,_440648.b47eca9e8b727a7ef51a004e4f8d9225.epub,0,2000-01-01 01:00:00,2016-04-03 02:51:08,767000/B47ECA9E8B727A7EF51A004E4F8D9225-g.jpg,,
19787200,La coartada perpetua  ,,Lingüística y teoría literaria,,Ambrosio Fornet,2002,,Siglo XXI,,153,0,"Spanish,Castilian",,,2011 12 30,"9682323398,9789682323393",,,,,972.9106/4,F1787 .F67 2002,,8YSDWdpW7ZIC,OL24283197M,,0,,,,1,0,1,1,730473,pdf,B480D2D5AC489B758F730C70BA930D0B,,,_446411.b480d2d5ac489b758f730c70ba930d0b.pdf,0,2000-01-01 01:00:00,2016-04-03 02:51:08,767000/b480d2d5ac489b758f730c70ba930d0b-d.jpg,,
19787201,The Dead and the Gone  ,,The Last Survivors 2,,Susan Beth Pfeffer,2011,,Harcourt Children's Books,,,0,English ,,,2011 12 30,"0152063110,9780152063115",,,,,,,,,OL10100877M,,0,,,,0,0,1,1,206722,epub,B480D74ECD5A88594878E776B1489ACB,,,_471945.b480d74ecd5a88594878e776b1489acb.epub,0,2000-01-01 01:00:00,2016-04-03 02:51:08,767000/b480d74ecd5a88594878e776b1489acb-d.jpg,,
19787202,Kindness and the Good Society: Connections of the Heart  ,,SUNY series in the philosophy of the social sciences,,William S. Hamrick,2002,,State University of New York Press,,345,0,English ,,,2011 12 30,"0791452662,9780791452660,0791452654,9780791452653",,,,,,,,5aBxZdXtYkMC,OL7802692M,,0,,,,1,0,1,1,2146443,pdf,B481D244AD0623215C1201CCF0CC91BB,,,_471078.b481d244ad0623215c1201ccf0cc91bb.pdf,0,2000-01-01 01:00:00,2016-04-03 02:51:08,767000/b481d244ad0623215c1201ccf0cc91bb-d.jpg,,
19787203,Top 10 Dominican Republic (Eyewitness Top 10 Travel Guides)  ,,Eyewitness Top 10 Travel Guides,,Jon Spaull,2006,,Dorling Kindersley Publishing,,156,0,English ,,,2011 12 30,"0756609046,9780756609047",1479-344X,,,,,,,,OL7994785M,,0,,,,1,0,1,1,9011963,pdf,B482B00EB65EF53CE328528FF44E4938,,,_446419.b482b00eb65ef53ce328528ff44e4938.pdf,0,2000-01-01 01:00:00,2016-04-03 02:51:08,767000/b482b00eb65ef53ce328528ff44e4938-d.jpg,,
19787204,,,,"Expert Opinion on Biological Therapy, Volume 11, No. 2, 2011 volume 11 ","EDITOR-IN-CHIEF: Michael Morse: Duke University Medical Centre, USA",2011,,,,122,0,English ,,,2011 12 30,,1744-7682,,,,,,10.1517/14712598.2011.542367,,,no table of contents or advertising,0,,,,1,1,1,1,3709892,pdf,B484D252373A1944BDF51305F696C2ED,,,_489652.b484d252373a1944bdf51305f696c2ed.pdf,0,2000-01-01 01:00:00,2016-04-03 02:51:08,767000/b484d252373a1944bdf51305f696c2ed-g.jpg,,
19787205,David Busch's Compact Field Guide for the Nikon D3100  ,,,,David D. Busch,2011,1,Course Technology PTR,,161,0,English ,,,2011 12 30,"1435459946,9781435459946",,,,,,,,u7BbzgAACAAJ,,,0,,,,1,0,1,1,3711762,pdf,B485477AB850C3F58C16B67F5A9357CC,,,_486374.b485477ab850c3f58c16b67f5a9357cc.pdf,0,2000-01-01 01:00:00,2016-04-03 02:51:08,767000/b485477ab850c3f58c16b67f5a9357cc-d.jpg,,
19787206,Coding for Penetration Testers: Building Better Tools  ,,,,"Jason Andress, Ryan Linn",2011,1,Syngress,,321,0,English ,,,2011 12 30,"1597497290,9781597497299",,,,,,,,,,,0,,,,1,0,1,1,10356612,pdf,B487A6B9AB8DF76649B76DC1413D95BD,,,_500082.b487a6b9ab8df76649b76dc1413d95bd.pdf,0,2000-01-01 01:00:00,2016-04-03 02:51:08,767000/b487a6b9ab8df76649b76dc1413d95bd-d.jpg,,
19787207,Community and Communication: The Role of Language in Nation State Building and European Integration  ,,Multilingual matters 114,,Sue Wright,2000,,Multilingual Matters,,288,0,English ,,,2011 12 30,"1853594849,9781853594847,1853594857,9781853594854",,,,,306.44/094,P119.32.E85 W75 2000,,Gd5d1CwtI7cC,OL47660M,,0,,,,1,0,1,1,1402848,pdf,B48AB8C6B6450C72F8D6BE3D3017AC63,,,_462346.b48ab8c6b6450c72f8d6be3d3017ac63.pdf,0,2000-01-01 01:00:00,2016-04-03 02:51:08,767000/b48ab8c6b6450c72f8d6be3d3017ac63-d.jpg,,
19787208,The Cambridge Medieval History - Vol. 2 ; The Rise of the Saracens and the Foundation of the Western Empire black-and-white  ,,,,J. B. Bury with H. M. Gwatkin and J. P. Whitney,1913,,Macmillan,,988,0,English ,,,2011 12 30,,,,,,,,,,,,0,,,,,1,,1,53780028,pdf,B48B46FB734CE2ED9741AEEA3EA77760,,,_452507.b48b46fb734ce2ed9741aeea3ea77760.pdf,0,2000-01-01 01:00:00,2016-04-03 02:51:08,767000/b48b46fb734ce2ed9741aeea3ea77760-g.jpg,,
19787209,מאה שנות ציונות דתית - היבטים רעיוניים  ,,,,אבי שגיא ודב שוורץ,2002,,הוצאת אוניברסיטת בר אילן,,560,0,Hebrew,,,2011 12 30,,,,,,,,,,,,0,,,,0,1,0,0,105930660,pdf,B48D87D578E5EBDFFE11A61BEEB77FD2,,,_484635.b48d87d578e5ebdffe11a61beeb77fd2.pdf,0,2000-01-01 01:00:00,2016-04-03 02:51:08,767000/b48d87d578e5ebdffe11a61beeb77fd2-g.jpg,,
19787210,Banco  ,,,,Henri Charrière,1973,,Mondadori,,,0,Italian ,,,2011 12 30,,,,,,,,,,,,0,,,,,1,0,1,598911,epub,B48FE6D352B6174F2EF1737E4194E29A,,,_437241.b48fe6d352b6174f2ef1737e4194e29a.epub,0,2000-01-01 01:00:00,2016-04-03 02:51:08,767000/B48FE6D352B6174F2EF1737E4194E29A-g.jpg,,
19787211,McKettrick's Luck  ,,McKettricks 6,,Linda Lael Miller,2012,,HQN Books,,,0,English ,,,2011 12 30,"1459219031,9781459219038",,,,,,,,,,,0,,,,0,0,1,1,304141,epub,B491B18459E848D011E4BA8337A79587,,,_514211.b491b18459e848d011e4ba8337a79587.epub,0,2000-01-01 01:00:00,2016-04-03 02:51:08,767000/B491B18459E848D011E4BA8337A79587-g.jpg,,
19787212,"Roadfood: The Coast-to-Coast Guide to 800 of the Best Barbecue Joints, Lobster Shacks, Ice Cream Parlors, Highway Diners, and Much, Much More  ",,,,"Jane Stern, Michael Stern",2011,,Crown Publishing Group,,,0,English ,,,2011 12 30,9780307591258,,,,,647.9573,TX907.2 .S84 2011,,roCHEntpvMMC,OL25107362M,,0,,,,,1,1,,4521941,epub,B493E168B2D172FBE4C2289AFEF1E4FD,,,_439032.b493e168b2d172fbe4c2289afef1e4fd.epub,0,2000-01-01 01:00:00,2016-04-03 02:51:08,767000/B493E168B2D172FBE4C2289AFEF1E4FD-g.jpg,,
19787213,ELEX tijdschrift voor hobby-elektronica 1986-34  issue june,,,,Elektuur B.V.,1986,,,,44,0,Dutch ,,,2011 12 30,,,,,,,,,,,,0,,,,0,0,1,1,58759421,pdf,B4941EB5EBB57C4E8356ED4B860B4632,,,_487853.b4941eb5ebb57c4e8356ed4b860b4632.pdf,0,2000-01-01 01:00:00,2016-04-03 02:51:08,767000/b4941eb5ebb57c4e8356ed4b860b4632-g.jpg,,
19787214,Embedded C Programming and the Microchip PIC  ,,,,"Richard H. Barnett, Sarah Cox, Larry O'Cull",2003,1,Delmar Cengage Learning,,515,0,English ,92,,2011 12 30,"1401837484,9781401837488",,,,,005.13/3,QA76.73.C15 B379 2004,,,OL22143854M,,0,,,,,1,0,0,104932832,pdf,B4946CEC5E25BE2B9BCA849C9C4DE3BE,,,_510174.b4946cec5e25be2b9bca849c9c4de3be.pdf,0,2000-01-01 01:00:00,2016-04-03 02:51:08,767000/b4946cec5e25be2b9bca849c9c4de3be-d.jpg,,
19787215,Lucky Starr. Lucky Starr 01.  ,,,,Isaac Asimov,1987,,Bastei-Lübbe,,173,0,German ,,,2011 12 30,"3404211383,9783404211388",,,,,,,,,,,0,,,,,1,,1,641280,pdf,B4956E565EFC34BA032AAE0FB83E2945,,,_470401.b4956e565efc34ba032aae0fb83e2945.pdf,0,2000-01-01 01:00:00,2016-04-03 02:51:08,767000/b4956e565efc34ba032aae0fb83e2945-g.jpg,,
19787216,ეტრუსკული და ქართველური  ,,,,"გორდეზიანი, რ.",1980,,თბილისის უნივერსიტეტის გამ-ბა,,98,0,Georgian,,,2011 12 30,,,,,,,,,,,,0,,,,1,1,1,0,1877397,pdf,B4958BC2C96163E51C5E96F8A98E63A0,,,_496977.b4958bc2c96163e51c5e96f8a98e63a0.pdf,0,2000-01-01 01:00:00,2016-04-03 02:51:08,767000/b4958bc2c96163e51c5e96f8a98e63a0-g.jpg,,
19787217,The Best and the Brightest  ,,,,David Halberstam,2001,,Modern Library,,,0,English ,,,2011 12 30,,,,,,,,,U_WoXcJq_1wC,,,0,,,,,0,1,1,841942,epub,B495B2524EFB537A8B8C0EE2C10BFD89,,,_512552.b495b2524efb537a8b8c0ee2c10bfd89.epub,0,2000-01-01 01:00:00,2016-04-03 02:51:08,767000/B495B2524EFB537A8B8C0EE2C10BFD89-g.jpg,,
19787218,Studien zum Unbewegten Beweger in der Naturphilosophie des Aristoteles  ,,,,Bernd Manuwald,1998,,Steiner Franz Verlag,,67,0,German ,,,2011 12 30,"3515055916,9783515055918",,,,,,,,,OL1326354M,,0,,,,,1,,0,24234961,pdf,B495ECAAA60386E69E5ABA3AAE143F40,,,_504403.b495ecaaa60386e69e5aba3aae143f40.pdf,0,2000-01-01 01:00:00,2016-04-03 02:51:08,767000/b495ecaaa60386e69e5aba3aae143f40-g.jpg,,
19787219,"Multivariable Calculus: Concepts and Contexts (with Tools for Enriching Calculus, Interactive Video Skillbuilder CD-ROM, and iLrn Homework Personal Tutor)  ",,,,James Stewart,2004,3,Brooks Cole,,514,0,English ,,,2011 12 30,"0534410049,9780534410049,9780495535522",,,,,,,,,OL7784789M,,0,,,,1,0,1,1,12172876,pdf,B497207362E075C999E60D5262B1F4D4,,,_471848.b497207362e075c999e60d5262b1f4d4.pdf,0,2000-01-01 01:00:00,2016-04-03 02:51:08,767000/b497207362e075c999e60d5262b1f4d4-d.jpg,,
19787220,Driving Over Lemons: An Optimist in Spain  ,,,,Chris Stewart,2001,First Vintage Departures Edition,Vintage Books,,,0,English ,,,2011 12 30,"9780307425683,0307425681",,,,,946’.8—dc21,DP302.A38 S74 2000,,,,,0,,,,,1,1,1,1919345,epub,B4978B387734C8F6E2F91E4E5C7E0244,,,_449479.b4978b387734c8f6e2f91e4e5c7e0244.epub,0,2000-01-01 01:00:00,2016-04-03 02:51:08,767000/B4978B387734C8F6E2F91E4E5C7E0244-g.jpg,,
19787221,Accounting Made Simple: Accounting Explained in 100 Pages or Less  ,,,,Mike Piper,2010,,"Simple Subjects, LLC",,,0,English ,,,2011 12 30,"0981454224,9780981454221",,ISBN10:B004JHYTDE,,,657,,,,,,0,,,,,0,1,1,424340,mobi,B497AF0BC649946BCF9227A598DA3308,,,_501703.b497af0bc649946bcf9227a598da3308.mobi,0,2000-01-01 01:00:00,2016-04-03 02:51:08,767000/b497af0bc649946bcf9227a598da3308-d.jpg,,
