19819222,The New Jerusalem: Zionist Power in America,,,,Michael Collins Piper,2004,,American Free Press,,188,0,English,,,0,"0978573374,9780978573379",,B000Y93216,,,,,,,,,0,,,,,1,,1,907736,pdf,227704914f705740678880967ad0a336,,,_474882.227704914f705740678880967ad0a336.pdf,0,2000-01-01 01:00:00,2016-04-03 02:51:08,799000/227704914f705740678880967ad0a336-g.jpg,,
19819223,The works of John Locke 9,,,,John Locke,1823,,,,243,0,English,,,,,,,,,,,,,,,0,,,,,1,,1,19490115,pdf,8d247bb9c95f514169d82727d59ba2d3,,,_474899.8d247bb9c95f514169d82727d59ba2d3.pdf,0,2000-01-01 01:00:00,2016-04-03 02:51:08,799000/8d247bb9c95f514169d82727d59ba2d3-g.jpg,,
19819224,Serious Leisure and Nature: Sustainable Consumption in the Outdoors,,,,"Robert A. Stebbins, Lee Davidson",2011,,Palgrave Macmillan,,240,0,English,,,,"023025201X,9780230252011",,,,,306.4/812,GV14.45 .D38 2011,,,OL24917471M,,0,,,,1,0,1,1,1107988,pdf,f96820de5544e6a01fa8458dab816688,,,_474911.f96820de5544e6a01fa8458dab816688.pdf,0,2000-01-01 01:00:00,2016-04-03 02:51:08,799000/f96820de5544e6a01fa8458dab816688-d.jpg,,
19819225,Prostate Cancer (Radiation Medicine Rounds Volume 2 Issue 1),,"Radiation Medicine Rounds volume 2, issue 1",,"Allen Chen MD, Srinivasan Vijayakumar MD, Charles Thomas  Jr. MD",2011,1,Demos Medical,,182,0,English,,,,"1936287331,9781936287338",,,,,616.99/463,RC280.P7 P742224 2011,,,OL24822975M,,0,,,,1,0,1,1,2755217,pdf,5e99432d804585a317ec0c537657d49b,,,_474927.5e99432d804585a317ec0c537657d49b.pdf,0,2000-01-01 01:00:00,2016-04-03 02:51:08,799000/5e99432d804585a317ec0c537657d49b-d.jpg,,
19819226,The Future of Marketing: Critical 21st Century Perspectives,,,,Philip J. Kitchen,2003,,Palgrave Macmillan,,224,0,English,,,,"0333992865,9780333992869",,,,,,,,,OL17078930M,,0,,,,1,0,1,1,1199042,pdf,b7def5877c386e05e00a8f8316882b7f,,,_474930.b7def5877c386e05e00a8f8316882b7f.pdf,0,2000-01-01 01:00:00,2016-04-03 02:51:08,799000/b7def5877c386e05e00a8f8316882b7f-d.jpg,,
19819227,بیست و چهار ساعت در خواب و بیداری,,,,صمد بهرنگی,,,,,27,0,Persian,,,,,,,,,,,,,,,0,,,,0,0,0,1,209072,pdf,5c6ded2d524c4a5382612e6b36237c24,,,_474950.5c6ded2d524c4a5382612e6b36237c24.pdf,0,2000-01-01 01:00:00,2016-04-03 02:51:08,799000/5c6ded2d524c4a5382612e6b36237c24-g.jpg,,
19819228,Defending the Undefendable,,,,Walter Block,2008,,Ludwig von Mises Institute,,257,0,English,,,,"1933550171,9781933550176",,,,,,,,,,,0,,,,,1,,,2504012,epub,48b2d32298829471ac8b91ff6eea0468,,,_474963.48b2d32298829471ac8b91ff6eea0468.epub,0,2000-01-01 01:00:00,2016-04-03 02:51:08,799000/48b2d32298829471ac8b91ff6eea0468-d.jpg,,
19819229,The Everyday Meditator: A Practical Guide,,,,Osho,1993,,Tuttle Pub,,210,0,English,,,,"0804819769,9780804819763",,,,,,,,m2bWAAAAMAAJ,OL7930739M,,0,,,,0,1,0,0,9134678,djvu,e98574cf621f9df330d5f1086830917b,ca216536ff09910a29e97049b30e224e,no,_475012.e98574cf621f9df330d5f1086830917b.djvu,0,2000-01-01 01:00:00,2016-04-03 02:51:08,799000/e98574cf621f9df330d5f1086830917b-d.jpg,,
19819230,Mysticism and Language,,,,Steven T. Katz (editor),1992,,"Oxford University Press, USA",,262,0,English,,,,"0195054555,9780195054552",,,,,291.4/22/014,BL625 .M885 1992,,eoMoAAAAYAAJ,OL1551847M,,0,,,,0,1,0,0,2501897,djvu,7c8328970c9b0bd238b72589a0388097,d5da62d722a6e0a318ea0c490c08aa17,no,_475017.7c8328970c9b0bd238b72589a0388097.djvu,0,2000-01-01 01:00:00,2016-04-03 02:51:08,799000/7c8328970c9b0bd238b72589a0388097-g.jpg,,
19819231,What's Inside? Autocad 2011 (2nd Edition),,,,"Ralph Grabowski - upFront.eZine Publishing, Ltd.",,2nd,upFront.eZine Publishing,,140,0,English,,,,,,,,,,,,,,,0,,,,,1,1,1,4710248,pdf,e3ce22d39f38f82325ce07a74e2523b8,,,_475018.e3ce22d39f38f82325ce07a74e2523b8.pdf,0,2000-01-01 01:00:00,2016-04-03 02:51:08,799000/e3ce22d39f38f82325ce07a74e2523b8-g.jpg,,
19819232,Giáo Trình - Kiến Trúc Máy Tính,,,,"Msc.Võ Văn Chín, ThS. Nguyễn Hồng Vân, KS. Phạm Hữu Tài",,,,,95,0,Vietnamese,,,,,,,,,,,,,,,0,,,,,1,,1,3871448,pdf,7e57d33828660f155094be92ff48f312,,,_475021.7e57d33828660f155094be92ff48f312.pdf,0,2000-01-01 01:00:00,2016-04-03 02:51:08,799000/7e57d33828660f155094be92ff48f312-g.jpg,,
19819233,Mechanical Properties of Complex Intermetallics,,Complex Metallic Alloys volume 4,,Esther Belin-Ferre,2010,1,World Scientific Publishing Company,,467,0,English,,,,"9814322164,9789814322164",,,,,,,,bfrPSAAACAAJ,,,0,,,,1,0,1,1,14709493,pdf,84cb8a1ed40f5a1013843f3821096681,,,_475022.84cb8a1ed40f5a1013843f3821096681.pdf,0,2000-01-01 01:00:00,2016-04-03 02:51:08,799000/84cb8a1ed40f5a1013843f3821096681-d.jpg,,
19819234,Insulin-like Growth Factors and Cancer: From Basic Biology to Therapeutics,,Cancer Drug Discovery and Development,,Derek LeRoith,2011,2012,Springer,,297,0,English,,,,"1461405971,9781461405979",,,,,,,10.1007/978-1-4614-0598-6,DEEmdT0tBtUC,,,0,,,,1,0,1,1,2870188,pdf,9b7d097b1168accdb63c37ff83262c43,,,_475042.9b7d097b1168accdb63c37ff83262c43.pdf,0,2000-01-01 01:00:00,2016-04-03 02:51:08,799000/9b7d097b1168accdb63c37ff83262c43-d.jpg,,
19819235,Functional Genomics and Evolution of Photosynthetic Systems,,Advances in Photosynthesis and Respiration volume 33,,"Robert Burnap, Wim Vermaas",2011,2012,Springer,,429,0,English,,,,"9400715323,9789400715325",1572-0233,,,,,,10.1007/978-94-007-1533-2,WfzEgaLibuwC,,,0,,,,1,0,1,1,10787374,pdf,a2f1c80697b1d9e9ed4b9e0c8465644f,,,_475066.a2f1c80697b1d9e9ed4b9e0c8465644f.pdf,0,2000-01-01 01:00:00,2016-04-03 02:51:08,799000/a2f1c80697b1d9e9ed4b9e0c8465644f-d.jpg,,
19819236,The Biggest Secret: The Book That Will Change the World (Updated Second Edition),,,,David Icke,1999,2nd,David Icke Books,,527,0,English,,,,"0952614766,9780952614760",,,,,001.9,,,,OL22144786M,,0,,,,1,0,1,1,4997135,pdf,515a299cbc7e338fbf380352564240ea,,,_475071.515a299cbc7e338fbf380352564240ea.pdf,0,2000-01-01 01:00:00,2016-04-03 02:51:08,799000/515a299cbc7e338fbf380352564240ea-d.jpg,,
19819237,Understanding Late Devonian And Permian-Triassic Biotic and Climatic Events: Towards an Integrated Approach,,Developments in Palaeontology and Stratigraphy 20,,"D.J. Over, J.R. Morrow and P.B. Wignall (Eds.)",2005,1,Elsevier,,1-337,0,English,,,,"0444521275,9780444521279",0920-5446,,,,,,,,OL17256942M,,0,,,,1,0,1,1,7400319,pdf,7a581df40f29afffa1dfc763a4780667,,,_475098.7a581df40f29afffa1dfc763a4780667.pdf,0,2000-01-01 01:00:00,2016-04-03 02:51:08,799000/7a581df40f29afffa1dfc763a4780667-d.jpg,,
19819238,Numerical optimization,,Springer Series in Operations Research,,"Jorge Nocedal, Stephen J. Wright",1999,1st,Springer,,651,0,English,,,,"0387987932,9780387987934",,,,,519.3,QA402.5 .N62 1999,,w1kJYpOkPykC,OL32072M,,0,,,,1,0,1,1,3506097,pdf,a253e974b2b4e665cd682241a65fb61a,,,_475100.a253e974b2b4e665cd682241a65fb61a.pdf,0,2000-01-01 01:00:00,2016-04-03 02:51:08,799000/a253e974b2b4e665cd682241a65fb61a-d.jpg,,
19819239,"Evidence-Based Decisions and Economics: Health Care, Social Welfare, Education and Criminal Justice",,Evidence-Based Medicine,,"Ian Shemilt, Miranda Mugford, Luke Vale, Kevin Marsh, Cam Donaldson",2010,2nd,Blackwell Publishing Ltd.,,214,0,English,,,,"1405191538,9781405191531",,,,,338.4/33621,RA410.5 .E956 2010,,,OL23944628M,,0,,,,0,1,1,1,3371217,pdf,dd02365626efb7b197c7e6b28d808074,,,_475124.dd02365626efb7b197c7e6b28d808074.pdf,0,2000-01-01 01:00:00,2016-04-03 02:51:08,799000/dd02365626efb7b197c7e6b28d808074-d.jpg,,
19819240,Plant Stress Biology: From Genomics to Systems Biology,,,,Heribert Hirt,2009,1,Wiley-VCH,,265,0,English,,,,"3527322906,9783527322909",,,,,,,,cw9zcJd987sC,,,0,,,,0,0,1,1,2863951,pdf,1823201e1d8c0fa291f8526656c9c928,,,_475151.1823201e1d8c0fa291f8526656c9c928.pdf,0,2000-01-01 01:00:00,2016-04-03 02:51:08,799000/1823201e1d8c0fa291f8526656c9c928-d.jpg,,
19819241,The Handbook of Language and Speech Disorders (Blackwell Handbooks in Linguistics),,,,"Jack S. Damico, Nicole Müller, Martin J. Ball (editors)",2010,1,Wiley-Blackwell,,662,0,English,,,,"140515862X,9781405158626",,,,,616.85/5,RC423 .H3258 2010,,,OL23632288M,,0,,,,,1,1,1,20858846,pdf,b81151a9f907be1f5d9dd8a6afb37e4f,,,_475153.b81151a9f907be1f5d9dd8a6afb37e4f.pdf,0,2000-01-01 01:00:00,2016-04-03 02:51:08,799000/b81151a9f907be1f5d9dd8a6afb37e4f-d.jpg,,
19819242,Беларускае Павілле ў жалезным веку і раннім сярэдневякоўі,,Матэрыялы па археалогіі Беларусі,,Звяруга Я.Г.,2005,,ДНУ «Інстытут гісторіі НАН Беларусі»,,176,0,Belarusian,,,,"9856769078,9789856769071",,,,,,,,,,,0,,,,0,1,1,1,7018649,pdf,4c8b051a5668108024240432fbad42b5,,,_475154.4c8b051a5668108024240432fbad42b5.pdf,0,2000-01-01 01:00:00,2016-04-03 02:51:08,799000/4c8b051a5668108024240432fbad42b5-g.jpg,,
19819243,Artificial Intelligence in Medicine - AIME 2011,,Lecture Notes in Artificial Intelligence volume 6747,,"Mor Peleg, Nada Lavra, Carlo Combi",2011,1st Edition.,Springer,,374,0,English,,,,"364222217X,9783642222177",0302-9743,,,,,,10.1007/978-3-642-22218-4,g_XxvvCMQ-YC,,,0,,,,1,0,1,1,7100440,pdf,9d232226c8cfa5eaf680543246b34854,,,_475155.9d232226c8cfa5eaf680543246b34854.pdf,0,2000-01-01 01:00:00,2016-04-03 02:51:08,799000/9d232226c8cfa5eaf680543246b34854-d.jpg,,
19819244,Copyrighting Culture: The Political Economy Of Intellectual Property (Critical Studies in Communication & in the Cultural Industries),,,,Ronald V. Bettig,1996,,Westview Press,,288,0,English,,,,"0813333040,9780813333045",,,,,303.48/33,K1420.5 .B48 1996,,,OL8023800M,,0,,,,,1,,1,36796667,pdf,5525bc858476f22da0bf838085d1dd1b,,,_475182.5525bc858476f22da0bf838085d1dd1b.pdf,0,2000-01-01 01:00:00,2016-04-03 02:51:08,799000/5525bc858476f22da0bf838085d1dd1b-d.jpg,,
19819245,Making It in America: A Sourcebook on Eminent Ethnic Americans,,,,Elliott Robert Barkan,2001,,ABC-CLIO,,486,0,English,,,,"1576070980,9781576070987",,,,,920.073,E184.A1 M263 2001,,WwwY_eJnodgC,OL3937490M,,0,,,,1,0,1,1,3014404,pdf,56fd8d580614872c63467e88df4b58ad,,,_475223.56fd8d580614872c63467e88df4b58ad.pdf,0,2000-01-01 01:00:00,2016-04-03 02:51:08,799000/56fd8d580614872c63467e88df4b58ad-d.jpg,,
19819246,Supporting People: Towards a person-centred approach,,,,"Peter Beresford, Jennie Fleming, Michael Glynn, Catherine Bewley, Suzy Croft, Fran Branfield, Karen Postle",2011,,The Policy Press,,447,0,English,,,,"1847427626,9781847427625",,,,,,,,dRwYAPQ2-i8C,OL25055069M,,0,,,,1,0,1,1,2126466,pdf,fef4283073851c9fe80890cf09d824df,,,_475227.fef4283073851c9fe80890cf09d824df.pdf,0,2000-01-01 01:00:00,2016-04-03 02:51:08,799000/fef4283073851c9fe80890cf09d824df-d.jpg,,
19819247,Migration and Culture,,Frontiers of Economics and Globalization volume 8,,Gil S. Epstein,2010,,Emerald Group Publishing Limited,,758,0,English,,,,"0857241532,9780857241535",,,,,,,,o1kOLN2FDgMC,,,0,,,,1,0,1,1,3775242,pdf,4ddf78e7a68254451ca8d2f5ee3a53b2,,,_475237.4ddf78e7a68254451ca8d2f5ee3a53b2.pdf,0,2000-01-01 01:00:00,2016-04-03 02:51:08,799000/4ddf78e7a68254451ca8d2f5ee3a53b2-d.jpg,,
19819248,L'oracolo,,,,Valerio M. Manfredi,1992,,Mondadori,,236,0,Italian,,,,,,,,,,,,,,,0,,,,0,0,0,1,847378,pdf,5dc3048880597ce0acefeab0bf8f1166,,,_475260.5dc3048880597ce0acefeab0bf8f1166.pdf,0,2000-01-01 01:00:00,2016-04-03 02:51:08,799000/5dc3048880597ce0acefeab0bf8f1166-g.jpg,,
19819249,Great Foundations: A 360-Degree Guide to Building Resilient and Effective Not-for-Profit Organisations,,,,Catherine J. Brown,2010,,ACER Press,,154,0,English,,,,"0864318863,9780864318862",,,,,658.048,HD62.6 .B754 2010,,3Yxws_EKArsC,OL25056707M,,0,,,,1,0,1,1,744693,pdf,3ad353d483171c2a90f3d8c7f2a68884,,,_475310.3ad353d483171c2a90f3d8c7f2a68884.pdf,0,2000-01-01 01:00:00,2016-04-03 02:51:08,799000/3ad353d483171c2a90f3d8c7f2a68884-d.jpg,,
19819250,Influenza Report 2006,,,,"Bernd Sebastian Kamps, Christian Hoffmann, Wolfgang Preiser",2006,,Flying Publisher,,225,0,English,,,,392477451X,,,,,,,,,,,0,,,,1,0,1,1,2826807,pdf,8380e8074458b1070186f1933b2e36ac,,,_475339.8380e8074458b1070186f1933b2e36ac.pdf,0,2000-01-01 01:00:00,2016-04-03 02:51:08,799000/8380e8074458b1070186f1933b2e36ac-g.jpg,,
19819251,Dead Men's Harvest,,Joe Hunter volume 6,,Matt Hilton,2011,,Hodder & Stoughton,,,0,English,,,,"1444712675,9781444712674",,,,,,,,,,,0,,,,,0,1,1,520689,epub,9d89425d2b5caba52ae8269454861c03,,,_475370.9d89425d2b5caba52ae8269454861c03.epub,0,2000-01-01 01:00:00,2016-04-03 02:51:08,799000/9d89425d2b5caba52ae8269454861c03-g.jpg,,
19819252,Water on Tap: Rights and Regulation in the Transnational Governance of Urban Water Services (Cambridge Studies in Law and Society),,Cambridge Studies in Law and Society,,Bronwen Morgan,2011,1,Cambridge University Press,,244,0,English,,,,"1107008948,9781107008946",,,,,,,,HH9HUVlw8Q0C,,,0,,,,1,0,1,1,1572647,pdf,bf97922ddfc4fd62040f1f3679823159,,,_475376.bf97922ddfc4fd62040f1f3679823159.pdf,0,2000-01-01 01:00:00,2016-04-03 02:51:08,799000/bf97922ddfc4fd62040f1f3679823159-d.jpg,,
19819253,Master Your Metabolism: The 3 Diet Secrets to Naturally Balancing Your Hormones for a Hot and Healthy Body!,,,,"Jillian Michaels, Mariska van Aalst",2009,1,Crown,,288,0,English,,,,"0307450732,9780307450739",,,,,613.2/5,RM222.2 .M483 2009,,,OL22685927M,,0,,,,,1,,,4472176,mobi,01beb879181448234ea50f0844414fcd,,,_475388.01beb879181448234ea50f0844414fcd.mobi,0,2000-01-01 01:00:00,2016-04-03 02:51:08,799000/01beb879181448234ea50f0844414fcd-d.jpg,,
19819254,Commutative Ring Theory (Cambridge Studies in Advanced Mathematics 8),,Cambridge Studies in Advanced Mathematics volume 8,,Hideyuki Matsumura,1989,1,Cambridge University Press,,329,0,English,,,,"0521259169,9780521259163,0521367646,9780521367646",,,,,512/.4,QA251.3 .M37213 1986,,,OL2531075M,,0,,,,1,1,,1,18710613,pdf,306e46e09729b69804198562e6223937,,,_475415.306e46e09729b69804198562e6223937.pdf,0,2000-01-01 01:00:00,2016-04-03 02:51:08,799000/306e46e09729b69804198562e6223937-g.jpg,,
19819255,Paulus. Der Völkerapostel in jüdischer Sicht.,,,,Schalom Ben-Chorin,1992,,Dtv,,237,0,German,,,,"3423300116,9783423300117",,,,,,,,,,,0,,,,1,1,1,1,705384,pdf,a4a6045210814823e328986afa826c1e,,,_475421.a4a6045210814823e328986afa826c1e.pdf,0,2000-01-01 01:00:00,2016-04-03 02:51:08,799000/a4a6045210814823e328986afa826c1e-g.jpg,,
19819256,HBR's Must Reads Boxed Set (6 Books) (HBR's 10 Must Reads),,,,Harvard Business Review,2011,,Harvard Business Press,,1200,0,English,,,,"1422184056,9781422184059",,,,,,,,,,,0,,,,,0,1,1,5045336,epub,d83569f9a40f92969ecd017131e831c7,,,_475440.d83569f9a40f92969ecd017131e831c7.epub,0,2000-01-01 01:00:00,2016-04-03 02:51:08,799000/d83569f9a40f92969ecd017131e831c7-d.jpg,,
19819257,Visual Marketing: 99 Proven Ways for Small Businesses to Market with Images and Design,,,,"David Langton, Anita Campbell",2011,,Wiley,,,0,English,,,,,,,,,,,,,,,0,,,,,0,1,1,5784680,mobi,13664a834220fc5031371ec0ac8266d4,,,_475455.13664a834220fc5031371ec0ac8266d4.mobi,0,2000-01-01 01:00:00,2016-04-03 02:51:08,799000/13664a834220fc5031371ec0ac8266d4-g.jpg,,
19819258,In the Presence of the Enemy,,Inspector Lynley volume 8,,Elizabeth George,2008,,Bantam,,640,0,English,,,,"055338550X,9780553385502",,,,,813/.54,PS3557.E478 I5 2008,,,OL16976251M,,0,,,,,1,,1,4987314,pdf,bd7853832864c8ec32f8b1e33cf9d660,,,_475456.bd7853832864c8ec32f8b1e33cf9d660.pdf,0,2000-01-01 01:00:00,2016-04-03 02:51:08,799000/bd7853832864c8ec32f8b1e33cf9d660-d.jpg,,
19819259,Strong Poison (Crime Club),,,,Dorothy L Sayers,1968,New impression,New English Library,,304,0,English,,,,"0450013928,9780450013928",,,,,,,,,OL7569178M,,0,,,,,1,,,244828,epub,8de75ecb0f422bf99d2cf3f188060438,,,_475468.8de75ecb0f422bf99d2cf3f188060438.epub,0,2000-01-01 01:00:00,2016-04-03 02:51:08,799000/8de75ecb0f422bf99d2cf3f188060438-d.jpg,,
19819260,Murder Must Advertise (Lord Peter Wimsey Mysteries),,,,Dorothy L. Sayers,1995,First,HarperTorch,,368,0,English,,,,"0061043559,9780061043550",,,,,,,,,OL7286899M,,0,,,,,1,,,349820,epub,243c83108a3809fac80244a34b109abe,,,_475469.243c83108a3809fac80244a34b109abe.epub,0,2000-01-01 01:00:00,2016-04-03 02:51:08,799000/243c83108a3809fac80244a34b109abe-d.jpg,,
19819261,Busman's Honeymoon: A Lord Peter Wimsey Mystery with Harriet Vane,,,,Dorothy L. Sayers,1995,,HarperTorch,,416,0,English,,,,"0061043516,9780061043512",,,,,,,,,OL22906654M,,0,,,,,1,,,469361,epub,81813710e705eb6403e66708e2c566ce,,,_475471.81813710e705eb6403e66708e2c566ce.epub,0,2000-01-01 01:00:00,2016-04-03 02:51:08,799000/81813710e705eb6403e66708e2c566ce-d.jpg,,
19819262,The structure of scientific revolutions (3rd edition),,,,Thomas S. Kuhn,1996,3rd,University of Chicago Press,,226,0,English,,,,"0226458075,9780226458076,0226458083",,,,,501,Q175 .K95 1996,,qo4QAQAAIAAJ,OL976099M,,0,,,,1,0,0,1,5167985,pdf,64345cc0af1ef60680858c8691b553ef,,,_475474.64345cc0af1ef60680858c8691b553ef.pdf,0,2000-01-01 01:00:00,2016-04-03 02:51:08,799000/64345cc0af1ef60680858c8691b553ef-d.jpg,,
19819263,"The Peppers, Cracklings, and Knots of Wool Cookbook: The Global Migration of African Cuisine",,,,Diane M. Spivey,2000,,State Univ of New York Pr,,486,0,English,,,,"0791443760,9780791443767",,,,,641.59/29073,TX725.A4S68 2000eb,,JUytZhUKfYIC,OL7802193M,,0,,,,0,1,,1,1933430,pdf,9160395f52130255768044970940919d,,,_475492.9160395f52130255768044970940919d.pdf,0,2000-01-01 01:00:00,2016-04-03 02:51:08,799000/9160395f52130255768044970940919d-d.gif,,
19819264,Richelieu ou la quête d'Europe,,,,Marie-Catherine Vignal Souleyreau,2008,,Pygmalion,,,0,French,,,,"2756402141,9782756402147",,,,,,,,,OL22845558M,,0,,,,0,1,1,,1231869,epub,182709221b67b16a6c45013c89b8b69f,,,_475500.182709221b67b16a6c45013c89b8b69f.epub,0,2000-01-01 01:00:00,2016-04-03 02:51:08,799000/182709221b67b16a6c45013c89b8b69f-d.jpg,,
19819265,"Les Lames du Cardinal, tome 1 : Les Lames du Cardinal",,,,Pierre Pevel,2008,,Bragelonne,,,0,French,,,,"235294161X,9782352941613",,,,,,,,,,,0,,,,0,1,1,1,1252373,epub,7d16b18f76e8255293a149c60e4b8a6d,,,_475503.7d16b18f76e8255293a149c60e4b8a6d.epub,0,2000-01-01 01:00:00,2016-04-03 02:51:08,799000/7d16b18f76e8255293a149c60e4b8a6d-d.jpg,,
19819266,Markus Miessen: The Nightmare of Participation (Crossbench Praxis as A Mode of Criticality),,,,Markus Miessen,2011,,Sternberg Press,,304,0,English,,,,"1934105074,9781934105078",,,,,,,,,,,0,,,,0,1,0,0,2636900,pdf,732d4388387995856a04d7c661023a15,,,_475528.732d4388387995856a04d7c661023a15.pdf,0,2000-01-01 01:00:00,2016-04-03 02:51:08,799000/732d4388387995856a04d7c661023a15-d.jpg,,
19819267,Caballo De Troya 1: Jerusalen,,,,J. J. Benitez,2006,Spanish Language,Booket,,348,0,Spanish,,,,"8408061909,9788408061908",,,,,,,,,OL23119573M,,0,,,,0,0,0,1,2153601,pdf,0821f6576f5af9c38193249b1e2996fc,,,_475544.0821f6576f5af9c38193249b1e2996fc.pdf,0,2000-01-01 01:00:00,2016-04-03 02:51:08,799000/0821f6576f5af9c38193249b1e2996fc-d.jpg,,
19819268,Caballo de Troya 6. Hermon,,,,J. J. Benitez,2002,Edicion Revisada y Corregida por el autor,Booket,,314,0,Spanish,,,,"8408043846,9788408043843",,,,,,,,,OL23066435M,,0,,,,0,0,0,1,1741846,pdf,b75997b3116f589259caa410b0d83331,,,_475551.b75997b3116f589259caa410b0d83331.pdf,0,2000-01-01 01:00:00,2016-04-03 02:51:08,799000/b75997b3116f589259caa410b0d83331-d.jpg,,
19819269,"Meteoros: Poesia, 1962-2006",,Calambur poesía,,"Antonio Pereira,",2006,,Not Avail,,381,0,Spanish,,,,"8496049876,9788496049871",,,,,,,,f2yeH9e29kUC,OL19431240M,,0,,,,1,0,1,1,587961,pdf,f86943b0370e7dc181427f2d0f11b312,,,_475574.f86943b0370e7dc181427f2d0f11b312.pdf,0,2000-01-01 01:00:00,2016-04-03 02:51:08,799000/f86943b0370e7dc181427f2d0f11b312-d.jpg,,
19819270,La revolución cultural del renacimiento,,,,Eugenio Garin,1981,,Editorial Critica,,180,0,Spanish,,,,847423154X,,,,,,,,,,,0,,,,0,1,0,1,78496704,pdf,5fc05317d76ac8077122038b45ce62ab,,,_475591.5fc05317d76ac8077122038b45ce62ab.pdf,0,2000-01-01 01:00:00,2016-04-03 02:51:08,799000/5fc05317d76ac8077122038b45ce62ab-g.jpg,,
19819271,Monument,,,,Lloyd Biggle Jr.,,,,,,0,English,,,,,,,,,,,,,,,0,,,,,1,1,1,213241,epub,82393ec3d1cf297c0645c2ad9b638a31,,,_475605.82393ec3d1cf297c0645c2ad9b638a31.epub,0,2000-01-01 01:00:00,2016-04-03 02:51:08,799000/82393ec3d1cf297c0645c2ad9b638a31-g.jpg,,
19819272,Aux sources du modèle libéral français,,,,Alain Madelin,1997,,Librairie académique Perrin,,477,0,French,,,,"2262012067,9782262012069",,,,,,,,,OL414166M,,0,,,,1,1,1,1,9145691,pdf,b7581225e3b6fae96135e7ed4883fec7,,,_475623.b7581225e3b6fae96135e7ed4883fec7.pdf,0,2000-01-01 01:00:00,2016-04-03 02:51:08,799000/b7581225e3b6fae96135e7ed4883fec7-d.jpg,,
19819273,"The Post-American World, Release 2",,,,Fareed Zakaria,2011,Release 2,W. W. Norton & Company,,336,0,English,,,,"039308180X,9780393081800",,,,,303.49,CB161 .Z34 2011,,G4U8o3FNOS4C,OL24885103M,,0,,,,,0,1,1,612375,mobi,30682414adfcee3abcd42556e3fa7722,,,_475624.30682414adfcee3abcd42556e3fa7722.mobi,0,2000-01-01 01:00:00,2016-04-03 02:51:08,799000/30682414adfcee3abcd42556e3fa7722-d.jpg,,
19819274,Banach algebras: An introduction (Pure and Applied Mathematics: A Series of Monographs and Textbooks 24),,Pure and Applied Mathematics: A Series of Monographs and Textbooks volume 24,,Ronald Larsen,1973,,Marcel Dekker,,358,0,English,,,,"0824760786,9780824760786",,,,,512/.55,QA326 .L34,,,OL5436465M,,0,,,,0,1,0,1,20122978,pdf,cfd6f9781560377d097c8802b17f6e83,,,_475648.cfd6f9781560377d097c8802b17f6e83.pdf,0,2000-01-01 01:00:00,2016-04-03 02:51:08,799000/cfd6f9781560377d097c8802b17f6e83-g.jpg,,
19819275,The Naughty Bits: The Steamiest and Most Scandalous Sex Scenes from the World's Great Books,,,,Jack Murnighan,2001,1st,Three Rivers Press,,256,0,English,,,,"0609806602,9780609806609",,,,,808.8/03538,PN6071.S416 M87 2001,,,OL6788853M,,0,,,,,1,,,367934,epub,137f43f40942aae090775f1824219282,,,_475657.137f43f40942aae090775f1824219282.epub,0,2000-01-01 01:00:00,2016-04-03 02:51:08,799000/137f43f40942aae090775f1824219282-d.jpg,,
19819276,Debugging Linux Systems,,,,reekrishnan Venkateswaran,,,,,,0,English,,,,,,,,,,,,,,,0,,,,,1,,,159568,epub,b08ba0e2e71e0d63781488aeb05e2b49,,,_475679.b08ba0e2e71e0d63781488aeb05e2b49.epub,0,2000-01-01 01:00:00,2016-04-03 02:51:08,799000/b08ba0e2e71e0d63781488aeb05e2b49-g.jpg,,
19819277,"Lucid Dreams in 30 Days, Second Edition: The Creative Sleep Program",,,,"Keith Harary, Pamela Weintraub",1999,2,St. Martin's Griffin,,124,0,English,,,,"0312199880,9780312199883",,,,,135/.3,BF1099.L82 H37 1999,,,OL389378M,,0,,,,,1,0,0,13716996,pdf,8ed13403b4b79d89511880292a5582fb,,,_475687.8ed13403b4b79d89511880292a5582fb.pdf,0,2000-01-01 01:00:00,2016-04-03 02:51:08,799000/8ed13403b4b79d89511880292a5582fb-d.jpg,,
19819278,Postfix: The Definitive Guide,,,,Kyle Dent D.,2003,1st,O'Reilly Media,,288,0,English,,,0,"0596002122,9780596002121",,,,,005.7/13,TK5105.74.P66 D46 2004,,,,,0,,,,,1,,,556953,epub,5a0c46a6ff7d0ee69c9ba80393f8892e,1098bf6395ca60add8ca00b69dcecd36,no,_475693.5a0c46a6ff7d0ee69c9ba80393f8892e.epub,0,2000-01-01 01:00:00,2016-04-03 02:51:08,799000/5a0c46a6ff7d0ee69c9ba80393f8892e-d.jpg,,
19819279,Private Party,,,,Jami Alden,2007,eBook Edition,Kensington Publishing,,304,0,English,,,,"0758219865,9780758219862,0758227922,9780758227928",,,,,,,,,OL9415798M,,0,,,,,0,0,1,522067,epub,47d6332a44451ec41e2ed1afc9c81047,,,_475715.47d6332a44451ec41e2ed1afc9c81047.epub,0,2000-01-01 01:00:00,2016-04-03 02:51:08,799000/47d6332a44451ec41e2ed1afc9c81047-d.jpg,,
19819280,Introductory Chemistry: An Active Learning Approach,,,,"Mark S. Cracolice, Edward I. Peters",2006,3rd,Brooks Cole,,789,0,English,,,,"0495013323,9780495013327,0495015164",,,,,,,,,OL7650944M,,0,,,,,1,1,1,27404741,pdf,86b943952bb18170206ccc3234b0a8e8,,,_475717.86b943952bb18170206ccc3234b0a8e8.pdf,0,2000-01-01 01:00:00,2016-04-03 02:51:08,799000/86b943952bb18170206ccc3234b0a8e8-d.jpg,,
19819281,"Bringing It All Back Home: Class, Gender & Power in the Modern World",,,,"Harriet Fraad, Stephen Resnick, Richard Wolff",1999,,Pluto Pr,,98,0,English,,,,"0745307078,9780745307077",,,,,305.3,HQ1075 .F7 1994,,,OL1437995M,,0,,,,0,1,0,0,28117518,pdf,3791d18b6c2694be483253f76140e827,,,_475727.3791d18b6c2694be483253f76140e827.pdf,0,2000-01-01 01:00:00,2016-04-03 02:51:08,799000/3791d18b6c2694be483253f76140e827-g.jpg,,
19819282,"Between Women: Biographers, Novelists, Critics, Teachers and Artists Write about Their Work on Women",,,,"Carol Ascher, Louise DeSalvo, Sara Ruddick",1993,Reprint,Routledge,,249,0,English,,,,"0415907705,9780415907705",,,,,305.42/0973,HQ1426 .B47 1993,,,OL1404834M,,0,,,,0,1,0,0,72893879,pdf,fdb59b8d96f6a5f8043953d00db46da6,,,_475731.fdb59b8d96f6a5f8043953d00db46da6.pdf,0,2000-01-01 01:00:00,2016-04-03 02:51:08,799000/fdb59b8d96f6a5f8043953d00db46da6-d.jpg,,
19819283,It: A Novel,,,,Stephen King,2009,,Signet,,,0,English,,,,9781101138113,,,,,,,,,OL24268737M,,0,,,,0,0,1,1,1163688,epub,f0650ab18c7f2985a133b41829783752,,,_475732.f0650ab18c7f2985a133b41829783752.epub,0,2000-01-01 01:00:00,2016-04-03 02:51:08,799000/f0650ab18c7f2985a133b41829783752-g.jpg,,
19819284,Boss Man,,"Long, Tall Texans volume 31",,Diana Palmer,2008,,Harlequin,,,0,English,,,,9781426816307,,,,,,,,,OL24283162M,,0,,,,0,0,1,1,217326,epub,42bfd2bc2816116a1f3c762c1208573e,,,_475764.42bfd2bc2816116a1f3c762c1208573e.epub,0,2000-01-01 01:00:00,2016-04-03 02:51:08,799000/42bfd2bc2816116a1f3c762c1208573e-g.jpg,,
19819285,I Heard That Song Before,,,,Mary Higgins Clark,2008,First Thus,Pocket Books,,416,0,English,,,,"0743497309,9780743497305",,,,,"813/.54,FIC",PS3553.L287 I15 2008,,,OL24210429M,,0,,,,,1,,1,578505,mobi,92aceb68030b60daea3c77132d783049,,,_475777.92aceb68030b60daea3c77132d783049.mobi,0,2000-01-01 01:00:00,2016-04-03 02:51:08,799000/92aceb68030b60daea3c77132d783049-d.jpg,,
19819286,Coaching Run-And-Shoot Football,,,,Al Black,1991,,Harding Pr,,101,0,English,,,,"0962477923,9780962477928",,,,,796.332/2,GV951.8 .B575 1991,,,OL1866736M,,0,,,,,1,,0,1503302,pdf,9c4e33689b7c9441436e1809800f6dba,,,_475812.9c4e33689b7c9441436e1809800f6dba.pdf,0,2000-01-01 01:00:00,2016-04-03 02:51:08,799000/9c4e33689b7c9441436e1809800f6dba-g.jpg,,
19819287,"My Fellow Citizens: The Inaugural Addresses of the Presidents of the United States, 1789-2009 (Facts On File Library of American History)",,Facts On File Library of American History,,"Arthur M. Schlesinger Jr. (editor and Introduction), Fred L. Israel  (editor and Commentary)",2010,1,Facts On File,,443,0,English,,,,"0816082537,9780816082537",,,,,352.23/860973,J81.3 .A14 2010,,dsYO99wrzsIC,OL23668287M,,0,,,,1,0,1,1,1343291,pdf,fe6825bfaaf81691189a137fe24c62c5,,,_475819.fe6825bfaaf81691189a137fe24c62c5.pdf,0,2000-01-01 01:00:00,2016-04-03 02:51:08,799000/fe6825bfaaf81691189a137fe24c62c5-d.jpg,,
19819288,Java Phrasebook,,,,Timothy R. Fisher,2006,1,Sams,,224,0,English,92,,,"0672329077,9780672329074",,,,,005.13/3,QA76.73.J38 F52 2006,,,OL17882772M,,0,,,,,1,,,263052,epub,79aa0e8f1beff082f77b1538088498e7,,,_475827.79aa0e8f1beff082f77b1538088498e7.epub,0,2000-01-01 01:00:00,2016-04-03 02:51:08,799000/79aa0e8f1beff082f77b1538088498e7-d.jpg,,
19819289,Cajuns and Their Acadian Ancestors: A Young Reader's History,,,,Shane K. Bernard,2008,,University Press of Mississippi,,105,0,English,,,,"1934110787,9781934110782",,,,,305.84/10763,F380.A2 B47 2008,,CRjiTFg90L0C,OL16767537M,,0,,,,1,0,1,1,6404054,pdf,8244c7827282703bb0b19a42e209ba8a,,,_475848.8244c7827282703bb0b19a42e209ba8a.pdf,0,2000-01-01 01:00:00,2016-04-03 02:51:08,799000/8244c7827282703bb0b19a42e209ba8a-d.jpg,,
19819290,The Consulting Bible: Everything You Need to Know to Create and Expand a Seven-Figure Consulting Practice,,,,Alan Weiss,2011,,Wiley,,,0,English,,,,,,B004PYDRLQ,,,,,,,,,0,,,,,0,1,1,1235231,epub,7280448a2c0c52f7457c6e6ba491f91e,,,_475850.7280448a2c0c52f7457c6e6ba491f91e.epub,0,2000-01-01 01:00:00,2016-04-03 02:51:08,799000/7280448a2c0c52f7457c6e6ba491f91e-g.jpg,,
19819291,"Gender, Trafficking, and Slavery (Oxfam Focus on Gender Series)",,Oxfam Focus on Gender Series,,Rachel Masika,2002,,Oxfam Publishing,,100,0,English,,,,"0855984783,9780855984786",,,,,,HQ117 .G38 2002,,0ruZ_E14cBQC,OL8301203M,,0,,,,0,1,0,0,14661450,pdf,26938a67d7d67e286fc883181245f011,,,_475859.26938a67d7d67e286fc883181245f011.pdf,0,2000-01-01 01:00:00,2016-04-03 02:51:08,799000/26938a67d7d67e286fc883181245f011-d.jpg,,
19819292,The Migration of Power and North-South Inequalities: The Case of Italy and Libya,,,,Emanuela Paoletti,2010,,Palgrave Macmillan,,320,0,English,,,,"0230249264,9780230249264",,,,,,,,,OL25256911M,,0,,,,1,0,1,1,3548641,pdf,96f4725d9a83155fb8e50836af3efb54,,,_475861.96f4725d9a83155fb8e50836af3efb54.pdf,0,2000-01-01 01:00:00,2016-04-03 02:51:08,799000/96f4725d9a83155fb8e50836af3efb54-d.jpg,,
19819293,The Meaning and Purpose of Leisure: Habermas and Leisure at the End of Modernity,,,,Karl Spracklen,2009,,Palgrave Macmillan,,192,0,English,,,,"0230205259,9780230205253",,,,,,,,,,,0,,,,1,0,1,1,1049038,pdf,18880ae3c69abbf181243680a70e0a91,,,_475873.18880ae3c69abbf181243680a70e0a91.pdf,0,2000-01-01 01:00:00,2016-04-03 02:51:08,799000/18880ae3c69abbf181243680a70e0a91-d.jpg,,
19819294,"The Future of United States, China, and Taiwan Relations",,,,"Cheng-yi Lin, Denny Roy, Stephen D. Krasner",2011,,Palgrave Macmillan,,266,0,English,,,,"0230112781,9780230112780",,,,,327.73051,JZ1480.A57 C648 2010,,,OL24495389M,,0,,,,1,0,1,1,3347255,pdf,982821a332319974a34d1e5876ec6dbe,,,_475876.982821a332319974a34d1e5876ec6dbe.pdf,0,2000-01-01 01:00:00,2016-04-03 02:51:08,799000/982821a332319974a34d1e5876ec6dbe-d.jpg,,
19819295,The Foreign Relations of Elizabeth I (Queenship and Power),,,,Charles Beem,2011,,Palgrave Macmillan,,248,0,English,,,,"0230112145,9780230112148",,,,,,,,,,,0,,,,1,0,1,1,4829164,pdf,59da524bcd8201181f8fab6539020da4,,,_475877.59da524bcd8201181f8fab6539020da4.pdf,0,2000-01-01 01:00:00,2016-04-03 02:51:08,799000/59da524bcd8201181f8fab6539020da4-d.jpg,,
19819296,The Impact of Expansion on European Union Institutions: The Eastern Touch on Brussels,,,,Eva G. Heidbreder,2011,,Palgrave Macmillan,,240,0,English,,,,"0230110967,9780230110960",,,,,341.242/2,JN30 .H39 2010,,,OL24479584M,,0,,,,1,0,1,1,2399099,pdf,ec3e941e2291921cb8ef447226183415,,,_475880.ec3e941e2291921cb8ef447226183415.pdf,0,2000-01-01 01:00:00,2016-04-03 02:51:08,799000/ec3e941e2291921cb8ef447226183415-d.jpg,,
19819297,The Democratization of Albania: Democracy from Within,,,,Theodore Kaltsounis,2010,,Palgrave Macmillan,,206,0,English,,,,"0230104584,9780230104587",,,,,320.94965,JN9689.A15 K35 2009,,,OL23994469M,,0,,,,1,0,1,1,2058008,pdf,774e4b1370d1bbd374e0f616283220f6,,,_475889.774e4b1370d1bbd374e0f616283220f6.pdf,0,2000-01-01 01:00:00,2016-04-03 02:51:08,799000/774e4b1370d1bbd374e0f616283220f6-d.jpg,,
19819298,The Political Economy of China's Systemic Transformation: 1979 to the Present,,,,"Raphael Shen, Victoria Mantzopoulos",2011,,Palgrave Macmillan,,250,0,English,,,,"0230103030,9780230103030",,,,,330.951,HC427.92 .M3575 2011,,,OL24903463M,,0,,,,1,0,1,1,3539114,pdf,76ed70f70893548bc958181661d39bab,,,_475893.76ed70f70893548bc958181661d39bab.pdf,0,2000-01-01 01:00:00,2016-04-03 02:51:08,799000/76ed70f70893548bc958181661d39bab-d.jpg,,
19819299,The Pathology of the U.S. Economy Revisited: The Intractable Contradictions of Economic Policy,,,,Michael Perelman,2002,1st,Palgrave Macmillan,,256,0,English,,,,"0312294727,9780312294724",,,,,330.973,HC103 .P417 2002,,,OL3951110M,,0,,,,1,0,1,1,11545125,pdf,5809759a93c740c5288826ee7689c5e1,,,_475904.5809759a93c740c5288826ee7689c5e1.pdf,0,2000-01-01 01:00:00,2016-04-03 02:51:08,799000/5809759a93c740c5288826ee7689c5e1-d.jpg,,
19819300,Byron and the Politics of Freedom and Terror,,,,Edited by Matthew J. A. Green and Piya Pal-Lapinski,2011,,Palgrave Macmillan,,252,0,English,,,,"023024646X,9780230246461",,,,,,,,pqpPYgEACAAJ,,,0,,,,1,0,1,1,1244059,pdf,7a59d9ff659480948690b5015d435cdd,,,_475909.7a59d9ff659480948690b5015d435cdd.pdf,0,2000-01-01 01:00:00,2016-04-03 02:51:08,799000/7a59d9ff659480948690b5015d435cdd-d.jpg,,
19819301,The Tragedy of American School Reform: How Curriculum Politics and Entrenched Dilemmas Have Diverted Us from Democracy,,,,Ronald W. Evans,2011,,Palgrave Macmillan,,304,0,English,,,,"0230107982,9780230107984",,,,,300.71/073,LB1585.3 .E93 2011,,,OL24885142M,,0,,,,1,0,1,1,8387986,pdf,78b85fcc32082020a90d3cae6cb22fce,,,_475915.78b85fcc32082020a90d3cae6cb22fce.pdf,0,2000-01-01 01:00:00,2016-04-03 02:51:08,799000/78b85fcc32082020a90d3cae6cb22fce-d.jpg,,
19819302,"The Primacy of Foreign Policy in British History, 1660-2000: How Strategic Concerns Shaped Modern Britain",,,,"William Mulligan, Brendan Simms",2010,1,Palgrave Macmillan,,368,0,English,,,,"0230574726,9780230574724",,,,,327.41,DA45 .P75 2010,,,OL24913985M,,0,,,,1,0,1,1,2299812,pdf,faad93517a34f81408b5090663eaac59,,,_475925.faad93517a34f81408b5090663eaac59.pdf,0,2000-01-01 01:00:00,2016-04-03 02:51:08,799000/faad93517a34f81408b5090663eaac59-d.jpg,,
19819303,Linux Kernel in a Nutshell,,,,Greg Kroah-Hartman,2006,1,"O'Reilly Media, Inc.",,197,0,English,,,,"0596100795,9780596100797",,,,,,QA76.76.O63 K786 2007,,1rFLGKO0dywC,OL17933206M,,0,,,,0,0,0,1,6568985,pdf,418730f3f5a4c561dc09f8c82383d8da,,,_475947.418730f3f5a4c561dc09f8c82383d8da.pdf,0,2000-01-01 01:00:00,2016-04-03 02:51:08,799000/418730f3f5a4c561dc09f8c82383d8da-d.jpg,,
19819304,Unnatural Amino Acids: Methods and Protocols (Methods in Molecular Biology 794),,Methods in Molecular Biology volume Vol. 794,,"Loredano Pollegioni, Stefano Servi",2011,2012,Humana Press,,424,0,English,,,,"1617793302,9781617793301,9781617793318",1064-3745,,,,,,10.1007/978-1-61779-331-8,,,,0,,,,1,0,1,1,4982694,pdf,db71104553a769457ca748067888a75d,,,_475952.db71104553a769457ca748067888a75d.pdf,0,2000-01-01 01:00:00,2016-04-03 02:51:08,799000/db71104553a769457ca748067888a75d-d.jpg,,
19819305,Oceans and the Atmospheric Carbon Content,,,,"Pedro Duarte, J.  Magdalena Santana-Casiano",2010,1st Edition.,Springer,,187,0,English,,,,"9048198208,9789048198207",,,,,,,10.1007/978-90-481-9821-4,BuAZCyHYsI8C,,,0,,,,1,0,1,1,5200801,pdf,11ec815894e67adda4cb768042611328,,,_475954.11ec815894e67adda4cb768042611328.pdf,0,2000-01-01 01:00:00,2016-04-03 02:51:08,799000/11ec815894e67adda4cb768042611328-d.jpg,,
19819306,"Introduction to Psychology: Gateways to Mind and Behavior , Eleventh Edition",,,,"Dennis Coon, John O. Mitterer",2006,11th,Wadsworth Publishing,,840,0,English,,,,"0495091553,9780495091554",,,,,150,,,,OL7651130M,,0,,,,,1,,1,36507410,pdf,17b2580392d0db11b043a4f66f277629,,,_475970.17b2580392d0db11b043a4f66f277629.pdf,0,2000-01-01 01:00:00,2016-04-03 02:51:08,799000/17b2580392d0db11b043a4f66f277629-d.jpg,,
19819307,Web Reasoning and Rule Systems - RR 2011,,Lecture Notes in Computer Science volume 6902,,"Sebastian Rudolph, Claudio Gutierrez",2011,1st Edition.,Springer,,322,0,English,,,,"3642235794,9783642235795",0302-9743,,,,,,10.1007/978-3-642-23580-1,1RHwqe6ymGwC,,,0,,,,1,0,1,1,3849081,pdf,c18f5a7a4acc6568a82339ebce76db9e,,,_475987.c18f5a7a4acc6568a82339ebce76db9e.pdf,0,2000-01-01 01:00:00,2016-04-03 02:51:08,799000/c18f5a7a4acc6568a82339ebce76db9e-d.jpg,,
19819308,"Grassroots with Readings: The Writer's Workbook , Tenth Edition",,,,Susan Fawcett,2011,10,Wadsworth Publishing,,483,0,English,,,,"0495901237,9780495901235",,,,,,,,,OL25121101M,,0,,,,,1,,1,15280142,pdf,f918e616bad51d3e6747170c81648292,,,_475988.f918e616bad51d3e6747170c81648292.pdf,0,2000-01-01 01:00:00,2016-04-03 02:51:08,799000/f918e616bad51d3e6747170c81648292-d.jpg,,
19819309,"La Biblia, su historia y su lectura. Una introducción",,,,Johan Konings,1995,,"Verbo Divino, Estella",,251,0,Spanish,,,,,,,,,,,,,,,0,,,,1,1,0,1,3706058,pdf,345b360425390581475f8990d777ff3d,,,_475991.345b360425390581475f8990d777ff3d.pdf,0,2000-01-01 01:00:00,2016-04-03 02:51:08,799000/345b360425390581475f8990d777ff3d-g.jpg,,
19819310,"Medical Image Computing and Computer-Assisted Intervention, Part I - MICCAI 2011",,Lecture Notes in Computer Science volume 6891,,"Gabor Fichtinger, Anne Martel, Terry Peters",2011,1st Edition.,Springer,,740,0,English,,,,"3642236227,9783642236228",0302-9743,,,,,,10.1007/978-3-642-23623-5,,,,0,,,,1,0,1,1,32498321,pdf,f37377f554c5115b7ab6c09d82896771,,,_475992.f37377f554c5115b7ab6c09d82896771.pdf,0,2000-01-01 01:00:00,2016-04-03 02:51:08,799000/f37377f554c5115b7ab6c09d82896771-d.jpg,,
19819311,The Creation of Brittany: A Late Medieval State,,,,Michael C. E. Jones,1988,,Continuum International Publishing Group,,464,0,French,,,,"090762880X,9780907628804",,,,,944/.1,DC611.B854 J66 1988,,XfgHKGYI92kC,OL2388969M,,0,,,,1,1,1,1,23060071,pdf,5b72a88ddbb30fb4e97cd4bcd4823776,,,_475994.5b72a88ddbb30fb4e97cd4bcd4823776.pdf,0,2000-01-01 01:00:00,2016-04-03 02:51:08,799000/5b72a88ddbb30fb4e97cd4bcd4823776-d.jpg,,
19819312,Like-Minded: Externalism and Moral Psychology,,,,Andrew Sneddon,2011,,The MIT Press,,295,0,English,,,,"0262016117,9780262016117",,,,,170/.42,BJ45 .S63 2011,,kZBeJcAmdhEC,OL25053519M,,0,,,,1,0,1,1,758792,pdf,c2c0371bd8bb533a83ed83053761f3b7,,,_476007.c2c0371bd8bb533a83ed83053761f3b7.pdf,0,2000-01-01 01:00:00,2016-04-03 02:51:08,799000/c2c0371bd8bb533a83ed83053761f3b7-d.jpg,,
19819313,Labyrinth,,,,Kate Mosse,2007,,Berkley Publishing Group,,528,0,English,,,,9780425213971,,,,,,,,,OL24608083M,,0,,,,,1,,,460133,epub,11c09c80884c6d2e6c7f0a1c298ff25c,,,_476009.11c09c80884c6d2e6c7f0a1c298ff25c.epub,0,2000-01-01 01:00:00,2016-04-03 02:51:08,799000/11c09c80884c6d2e6c7f0a1c298ff25c-d.jpg,,
19819314,"Connecting with Computer Science , Second Edition",,,,"Greg Anderson, David Ferro, Robert Hilton",2010,2nd,Course Technology,,673,0,English,,,,"1439080356,9781439080351",,,,,,,,,,,0,,,,1,0,1,1,53645373,pdf,bf6a830013243009e511e1686d9095b4,,,_476043.bf6a830013243009e511e1686d9095b4.pdf,0,2000-01-01 01:00:00,2016-04-03 02:51:08,799000/bf6a830013243009e511e1686d9095b4-d.jpg,,
19819315,واژه نامۀ گرگانی,,,,صادق کیا,1330,Tehran,انتشارات دانشگاه تهران,,176,0,Persian,,,,,,,,,,,,,,,0,,,,0,1,0,0,113637350,pdf,02049638030922f95d9dd0918864b309,,,_476047.02049638030922f95d9dd0918864b309.pdf,0,2000-01-01 01:00:00,2016-04-03 02:51:08,799000/02049638030922f95d9dd0918864b309-g.jpg,,
19819316,Mathematik für Ingenieur-Bachelor: Schritt für Schritt mit ausführlichen Lösungen,,,,"Heidrun Matthäus, Wolf-Gert Matthäus",2011,2011,Vieweg+Teubner Verlag,,347,0,German,,,,"3834813818,9783834813817",,,,,,,,QMb1r7zGVbgC,,,0,,,,1,0,1,1,127269853,pdf,fcc431ca36c707af53f63fe1d8149507,,,_476056.fcc431ca36c707af53f63fe1d8149507.pdf,0,2000-01-01 01:00:00,2016-04-03 02:51:08,799000/fcc431ca36c707af53f63fe1d8149507-d.jpg,,
19819317,"The Ghost Map: The Story of London's Most Terrifying Epidemic - and How It Changed Science, Cities, and the Modern World",,,,Steven Johnson,2006,,Riverhead Books,,321,0,English,,,,"9781429501293,1429501294",,,,,614.5'14—dc22,RC133.G6J64 2006,,cWtglGzhPPEC,OL24276010M,,0,,,,1,0,1,1,2977652,pdf,e31a904a04cb17a543382212f7a7ac3e,,,_476076.e31a904a04cb17a543382212f7a7ac3e.pdf,0,2000-01-01 01:00:00,2016-04-03 02:51:08,799000/e31a904a04cb17a543382212f7a7ac3e-g.jpg,,
19819318,Higher Education and the Public Good: Imagining the University,,,,Jon Nixon,2011,,Continuum,,167,0,English,,,,"0826437435,9780826437433",,,,,370/.015,LB2322.2 .N59 2011,,BAEz5tr7fQIC,OL24579661M,,0,,,,1,0,1,1,845221,pdf,1e826020b87dde04cf0121ca8b281600,,,_476087.1e826020b87dde04cf0121ca8b281600.pdf,0,2000-01-01 01:00:00,2016-04-03 02:51:08,799000/1e826020b87dde04cf0121ca8b281600-d.jpg,,
19819319,Scaredy Cat,,Tom Thorne volume 2,,Mark Billingham,,,,,,0,English,,,,,,,,,,,,,,,0,,,,,1,1,1,316139,epub,a53d7fccb98248724f494a8c0ef67505,,,_476101.a53d7fccb98248724f494a8c0ef67505.epub,0,2000-01-01 01:00:00,2016-04-03 02:51:08,799000/a53d7fccb98248724f494a8c0ef67505-g.jpg,,
19819320,Das Haus des Daedalus,,,,Kai Meyer,2000,,Heyne Verlag,,,0,German,,,,"3453178602,9783453178601",,,,,,,,,OL23064859M,,0,,,,,0,1,1,385533,epub,67f493d81745d8ba3859e832076e26c5,,,_476105.67f493d81745d8ba3859e832076e26c5.epub,0,2000-01-01 01:00:00,2016-04-03 02:51:08,799000/67f493d81745d8ba3859e832076e26c5-g.jpg,,
19819321,Embodiment and Agency,,,,"Sue Campbell, Letitia Meynell, Susan Sherwin (editors)",2009,,Pennsylvania State University Press,,272,0,English,,,,"0271035226,9780271035222",,,,,306.4,HQ1190 .E45 2009,,,OL23070666M,,0,,,,,1,,0,13692700,pdf,7f6458290328eacbdb896eb41088f027,,,_476122.7f6458290328eacbdb896eb41088f027.pdf,0,2000-01-01 01:00:00,2016-04-03 02:51:08,799000/7f6458290328eacbdb896eb41088f027-d.jpg,,
19819322,Facing Violence: Preparing for the Unexpected: Ethically • Emotionally • Physically (... and without going to prison),,,,Rory Miller,2011,,YMAA Publication Center,,280,0,English,,,,"1594392137,9781594392139",,,,,613.6/6,GV1111 .M48 2011,,,OL25090427M,,0,,,,0,1,1,1,635796,mobi,b87d7120283236876ca985af01f93ee9,,,_476127.b87d7120283236876ca985af01f93ee9.mobi,0,2000-01-01 01:00:00,2016-04-03 02:51:08,799000/b87d7120283236876ca985af01f93ee9-d.jpg,,
19819323,La Representación Prohibida,,,,Jean-Luc Nancy,2006,,Amorrortu Editores,,66,0,Spanish,,,,"8461090047,9788461090044",,,,,,,,,OL13274462M,,0,,,,,1,,1,2782671,pdf,8d4f328e1566d78ff29c0d5b1c783303,,,_476140.8d4f328e1566d78ff29c0d5b1c783303.pdf,0,2000-01-01 01:00:00,2016-04-03 02:51:08,799000/8d4f328e1566d78ff29c0d5b1c783303-d.jpg,,
19819324,Structural Nativization in Indian English Lexicogrammar (Studies in Corpus Linguistics),,Studies in Corpus Linguistics volume 46,,Marco Schilk,2011,,John Benjamins Publishing Company,,196,0,English,,,,"9027203512,9789027203519",,,,,427/.954,PE3502.I61 .S35 2011,,,OL24848594M,,0,,,,1,0,1,1,1080441,pdf,a507538a15ee714881040bf27b9e7474,,,_476195.a507538a15ee714881040bf27b9e7474.pdf,0,2000-01-01 01:00:00,2016-04-03 02:51:08,799000/a507538a15ee714881040bf27b9e7474-d.jpg,,
19819325,Religion in Archaic and Republican Rome and Italy: Evidence and Experience (New Perspectives on the Ancient World 2),,New Perspectives on the Ancient World volume 2,,"Edward Bispham, Christopher John Smith (eds.)",2000,,Edinburgh University Press,,214,0,English,,,,"1579583253,9781579583255",,,,,292.07,BL802 .R45 2000,,kZY__iHXOjQC,OL3971633M,,0,,,,1,1,1,1,4031393,pdf,4d088001a25a80712990cb674433bcde,,,_476197.4d088001a25a80712990cb674433bcde.pdf,0,2000-01-01 01:00:00,2016-04-03 02:51:08,799000/4d088001a25a80712990cb674433bcde-d.jpg,,
19819326,Vampire Academy,,Vampire Academy volume 1,,Richelle Mead,2009,,Razorbill,,,0,English,,,,9781440678592,,,,,,,,,OL24250138M,,0,,,,0,0,1,1,254847,epub,c4d16b48d4e1382137e3d1b18d13f441,,,_476208.c4d16b48d4e1382137e3d1b18d13f441.epub,0,2000-01-01 01:00:00,2016-04-03 02:51:08,799000/c4d16b48d4e1382137e3d1b18d13f441-g.jpg,,
19819327,Shadow Kiss,,Vampire Academy volume 3,,Richelle Mead,2009,,Razorbill,,,0,English,,,,9781440697180,,,,,,,,,OL24247722M,,0,,,,0,0,1,1,322760,epub,ba32c4fc1837695578c0f59a4de6c9fd,,,_476212.ba32c4fc1837695578c0f59a4de6c9fd.epub,0,2000-01-01 01:00:00,2016-04-03 02:51:08,799000/ba32c4fc1837695578c0f59a4de6c9fd-g.jpg,,
19819328,Collected Works: Volume III: Unpublished essays and lectures (Collected Works of Kurt Godel),,,,Kurt Gödel,1995,,"Oxford University Press, USA",,552,0,English,,,,"0195072553,9780195072556",,,,,511.3,QA9 .G5313 1986,,,OL2534739M,,0,,,,0,1,0,0,51949287,pdf,480715230844aad2ac13975e55448218,,,_476225.480715230844aad2ac13975e55448218.pdf,0,2000-01-01 01:00:00,2016-04-03 02:51:08,799000/480715230844aad2ac13975e55448218-d.jpg,,
19819329,Pharmacology: An Introduction,,,,"Henry Hitner, Barbara Nagle",2011,6,Mcgraw-Hill College,,901,0,English,,,,"0073520861,9780073520865",,,,,615/.1,RM300 .H57 2012,,,OL25155985M,,0,,,,1,0,1,1,91729610,pdf,d6acf67af6bf5fa3548357127fbf7862,,,_476237.d6acf67af6bf5fa3548357127fbf7862.pdf,0,2000-01-01 01:00:00,2016-04-03 02:51:08,799000/d6acf67af6bf5fa3548357127fbf7862-d.jpg,,
19819330,"The Making of Economic Society, 13th Edition (The Pearson Series in Economics)",,,,"Robert L. Heilbroner, William Milberg",2011,13 Edition,Prentice Hall,,220,0,English,,,,"0136080693,9780136080695",,,,,330.9,HC51 .H44 2012,,,OL25018263M,,0,,,,1,0,1,1,1790445,pdf,498161466ead4800de23f7355b5e668f,,,_476242.498161466ead4800de23f7355b5e668f.pdf,0,2000-01-01 01:00:00,2016-04-03 02:51:08,799000/498161466ead4800de23f7355b5e668f-d.jpg,,
19819331,"The Wild Life of Our Bodies: Predators, Parasites, and Partners That Shape Who We Are Today",,,,Rob Dunn,2011,,HarperCollins,,578,0,English,,,,"006180648X,9780061806483",,,,,612,QR46 .D86 2011,,5uVrM8ggm9MC,OL25074349M,,0,,,,,1,,1,575044,mobi,52d9dd214be8f215be7b7828131c1b84,,,_476245.52d9dd214be8f215be7b7828131c1b84.mobi,0,2000-01-01 01:00:00,2016-04-03 02:51:08,799000/52d9dd214be8f215be7b7828131c1b84-d.jpg,,
19819332,The Priests of the Roman Republic: A Study of Interactions between Priesthoods and Magistracies (Collection Latomus 127),,Collection Latomus volume 127,,G. J. Szemler,1972,,Latomus,,225,0,English,,,,,,,,,,,,ydIoAAAAYAAJ,,,0,,,,1,1,1,1,4516352,pdf,00f754a2f9f11154069fe86c8682506e,,,_476258.00f754a2f9f11154069fe86c8682506e.pdf,0,2000-01-01 01:00:00,2016-04-03 02:51:08,799000/00f754a2f9f11154069fe86c8682506e-g.jpg,,
19819333,You Know the Fair Rule: Strategies for Positive and Effective Behaviour Management and Discipline in Schools (Third Edition),,,,Bill Rogers,2011,Third,ACER Press,,338,0,English,,,,"0864319746,9780864319746",,,,,,,,b4ry00g7s2YC,,,0,,,,1,0,1,1,2565606,pdf,804433b6707df40e408e071a7cb75302,,,_476278.804433b6707df40e408e071a7cb75302.pdf,0,2000-01-01 01:00:00,2016-04-03 02:51:08,799000/804433b6707df40e408e071a7cb75302-d.jpg,,
19819334,"Knowing Our Place: Children Talking About Power, Identity and Citizenship",,,,"Judith Gill, Sue Howard",2009,,Australian Council for Educational,,202,0,English,,,,"0864318723,9780864318725",,,,,,,,UI3xa0yuJmEC,OL25255490M,,0,,,,1,0,1,1,1909845,pdf,e49880595343d5a7d45265e3639bce4a,,,_476280.e49880595343d5a7d45265e3639bce4a.pdf,0,2000-01-01 01:00:00,2016-04-03 02:51:08,799000/e49880595343d5a7d45265e3639bce4a-d.jpg,,
19819335,The Low GI Shopper's Guide to GI Values 2011: The Authoritative Source of Glycemic Index Values for 1200 Foods,,New Glucose Revolution,,"Dr. Jennie Brand-Miller, Kaye Foster-Powell B.SC.  M. Nutri. & Diet",2011,Original,Da Capo Lifelong Books,,288,0,English,,,,"0738214329,9780738214320",,,,,,,,ZKObYgee14sC,,,0,,,,,1,1,,5865531,epub,fcac6bbaa68d0c5a5c2832501c6f3d0f,,,_476283.fcac6bbaa68d0c5a5c2832501c6f3d0f.epub,0,2000-01-01 01:00:00,2016-04-03 02:51:08,799000/fcac6bbaa68d0c5a5c2832501c6f3d0f-d.jpg,,
19819336,Abstinent Cooking for Food Addicts,,,,FAA WSO,2010,6,"Food Addicts Anonymous, Inc.",,140,0,English,,,,"0963807439,9780963807434",,,,,,,,,OL8524311M,,0,,,,0,0,0,1,500813,pdf,53345f798fa9b0f57fa53df548204365,,,_476300.53345f798fa9b0f57fa53df548204365.pdf,0,2000-01-01 01:00:00,2016-04-03 02:51:08,799000/53345f798fa9b0f57fa53df548204365-d.jpg,,
19819337,"Maphead: Charting the Wide, Weird World of Geography Wonks",,,,Ken Jennings,2011,,Scribner,,,0,English,,,,"1439167192,9781439167199",,,,,,,,jZkKRmFRXPsC,,,0,,,,,1,,,7572630,epub,f882e8b545180463dce1a207da787c58,,,_476348.f882e8b545180463dce1a207da787c58.epub,0,2000-01-01 01:00:00,2016-04-03 02:51:08,799000/f882e8b545180463dce1a207da787c58-g.jpg,,
19819338,"Clubhouse Confidential: A Yankee Bat Boy's Insider Tale of Wild Nights, Gambling, and Good Times with Modern Baseball's Grea",,,,"Luis Castillo, William Cane",2011,,St. Martin's Press,,304,0,English,,,,"1429936975,9781429936972,9780312645427",,,,,796.3576406,GV875.N4 C37 2011,,KE5EVn599W0C,OL25103600M,,0,,,,,1,,,388897,epub,16e8894525feb4aaa86ddfed0e820894,,,_476352.16e8894525feb4aaa86ddfed0e820894.epub,0,2000-01-01 01:00:00,2016-04-03 02:51:08,799000/16e8894525feb4aaa86ddfed0e820894-d.jpg,,
19819339,A Genealogy of Marion's Philosophy of Religion: Apparent Darkness,,Indiana Series in the Philosophy of Religion,,Tamsin Jones,2011,,Indiana University Press,,249,0,English,,,,"0253222869,9780253222862,025335594X,9780253355942",,,,,210.92,BT40 .J66 2011,,f-9it6zRCe4C,OL24423978M,,0,,,,1,0,1,1,2142494,pdf,d4edd3fe7ae228b78a81e459ea822690,,,_476374.d4edd3fe7ae228b78a81e459ea822690.pdf,0,2000-01-01 01:00:00,2016-04-03 02:51:08,799000/d4edd3fe7ae228b78a81e459ea822690-d.jpg,,
19819340,The Democratic Soul: A Wilson Carey McWilliams Reader,,,,Wilson Carey McWilliams,2011,,The University Press of Kentucky,,439,0,English,,,,"0813130131,9780813130132,9780813133706",,,,,320.973,JK1764 .M394 2011,,CryKbdBUD18C,OL24809726M,,0,,,,1,0,1,1,1448363,pdf,3f7c26bda982389542269295dea710ae,,,_476378.3f7c26bda982389542269295dea710ae.pdf,0,2000-01-01 01:00:00,2016-04-03 02:51:08,799000/3f7c26bda982389542269295dea710ae-d.jpg,,
19819341,Κεφάλαια από τη θεωρητική φιλοσοφία του Καντ. Πανεπιστημιακές παραδόσεις,,,,Αναστάσιος Γιανναράς,1976,,Παπαζήσης,,109,0,Greek(Modern),,,,,,,,,,,,,,,400,,,,1,1,0,0,2862830,pdf,57158309714aff2019458406e5627730,,,_476387.57158309714aff2019458406e5627730.pdf,0,2000-01-01 01:00:00,2016-04-03 02:51:08,799000/57158309714aff2019458406e5627730-g.jpg,,
19819342,Memorias (1936-1938): Hacia Un Nuevo Aragon,,Larumbe. Filología,,Joaquin Ascaso,2006,,Prensas Universitarias Universidad de Zaragoz,,297,0,Spanish,,,,"8477338361,9788477338369",,,,,,,,UN2NAAAAMAAJ,OL19207710M,,0,,,,1,0,1,1,3473719,pdf,e215f4801349c4a283475524fb7d82ca,,,_476395.e215f4801349c4a283475524fb7d82ca.pdf,0,2000-01-01 01:00:00,2016-04-03 02:51:08,799000/e215f4801349c4a283475524fb7d82ca-d.jpg,,
19819343,Evernight Bd. 3 - Hüterin des Zwielichts: Roman,,Evernight volume 3,,Claudia Gray,2011,,Penhaligon Verlag,,,0,German,,,,"3764530537,9783764530532,9783641070649",,,,,,,,,,,0,,,,,0,1,1,886255,epub,c5eae90cb4e1115b409980340bb13030,,,_476450.c5eae90cb4e1115b409980340bb13030.epub,0,2000-01-01 01:00:00,2016-04-03 02:51:08,799000/c5eae90cb4e1115b409980340bb13030-d.jpg,,
19819344,Ein mörderischer Sommer: Roman,,,,Joy Fielding,1996,,Goldmann Verlag,,352,0,German,,,,"344242870X,9783442428700,9783641054151",,,,,,,,,OL9035353M,,0,,,,,0,1,1,319287,epub,e29f58d82748c26b4ce7b54af7eadfbc,,,_476456.e29f58d82748c26b4ce7b54af7eadfbc.epub,0,2000-01-01 01:00:00,2016-04-03 02:51:08,799000/e29f58d82748c26b4ce7b54af7eadfbc-d.jpg,,
19819345,Sag Mami Goodbye,,,,Joy Fielding,1998,,Goldmann Verlag,,384,0,German,,,,"3442059925,9783442059928,9783641054137",,,,,,,,,OL9034635M,,0,,,,,0,1,1,355434,epub,3e6fab28bbc98240410b3a37604c02c1,,,_476463.3e6fab28bbc98240410b3a37604c02c1.epub,0,2000-01-01 01:00:00,2016-04-03 02:51:08,799000/3e6fab28bbc98240410b3a37604c02c1-d.jpg,,
19819346,"Die mündige Welt II. Weißensee, Verschiedenes",,,,Eberhard Bethge et al.,1956,,Chr. Kaiser,,218,0,German,,,,,,,,,,,,,,,0,,,,1,1,0,1,15853448,pdf,6b3c81369f60da953a16577472c638d1,,,_476494.6b3c81369f60da953a16577472c638d1.pdf,0,2000-01-01 01:00:00,2016-04-03 02:51:08,799000/6b3c81369f60da953a16577472c638d1-g.jpg,,
19819347,"Constantinople and Its Hinterland: Papers from the Twenty-Seventh Spring Symposium of Byzantine Studies, Oxford, April 1993",,Publications (Society for the Promotion of Byzantine Studies (Great Britain)) volume 3,,"Cyril Mango, Gilbert Dagron",1995,,Variorum,,219,0,English,,,,"0860784878,9780860784876",,,,,949.5/02,DR729 .S67 1993,,,OL1116640M,,0,,,,0,1,1,0,44861281,pdf,9d8a74232126080292770c5057ccc102,,,_476522.9d8a74232126080292770c5057ccc102.pdf,0,2000-01-01 01:00:00,2016-04-03 02:51:08,799000/9d8a74232126080292770c5057ccc102-g.jpg,,
19819348,Crime Classification Manual: A Standard System for Investigating and Classifying Violent Crimes,,,,"John Douglas, Ann W. Burgess, Allen G. Burgess, Robert K. Ressler",2006,2,Jossey-Bass,,555,0,English,,,,"0787985015,9780787985011",,,,,364.01/2,HV6253 .C75 2006,,,OL17215862M,,0,,,,1,1,1,1,2122697,pdf,b042a97c7e69d0062812745471ee4883,,,_476529.b042a97c7e69d0062812745471ee4883.pdf,0,2000-01-01 01:00:00,2016-04-03 02:51:08,799000/b042a97c7e69d0062812745471ee4883-d.jpg,,
19819349,Engagement Matters: Personalised Learning for Grades 3 to 6,,,,"Kathy Walker, Shona Bass",2011,Pap/Cdr,ACER Press,,130,0,English,,,,"0864318316,9780864318312",,,,,,,,,,,0,,,,1,0,1,1,29956200,pdf,022eb1ca63296103d521819128e57be8,,,_476538.022eb1ca63296103d521819128e57be8.pdf,0,2000-01-01 01:00:00,2016-04-03 02:51:08,799000/022eb1ca63296103d521819128e57be8-d.jpg,,
19819350,Teaching America: The Case for Civic Education,,,,David J. Feith,2011,,R&L Education,,258,0,English,,,,"1607098415,9781607098416,1607098407,9781607098409,9781607098423",,,,,372.890973,LC1091 .F45 2011,,,OL24918088M,,0,,,,1,0,1,1,841079,pdf,e4247d3c681198d03fa3cbf7173e98ce,,,_476545.e4247d3c681198d03fa3cbf7173e98ce.pdf,0,2000-01-01 01:00:00,2016-04-03 02:51:08,799000/e4247d3c681198d03fa3cbf7173e98ce-d.jpg,,
19819351,Air Pollution XVI (Wit Transactions on Ecology and the Environment),,Wit Transactions on Ecology and the Environment,,"C. A. Brebbia, J. W. S. Longhurst",2008,1,WIT Press,,665,0,English,,,,"1845641272,9781845641276",,,,,363.73926,TD883.14 .I58 2008,,,OL11912732M,,0,,,,1,0,1,1,14417616,pdf,2c5a6b1b77bcb89b9fd8082171725492,,,_476549.2c5a6b1b77bcb89b9fd8082171725492.pdf,0,2000-01-01 01:00:00,2016-04-03 02:51:08,799000/2c5a6b1b77bcb89b9fd8082171725492-d.jpg,,
19819352,Daeninckx par Daeninckx,,,,Thierry Maricourt,2009,,Le Cherche Midi,,,0,French,,,,"2749110963,9782749110967",,,,,,,,IvcrAQAAIAAJ,OL23925629M,,0,,,,0,0,1,1,420066,epub,1163fcf2838949aa3910d2de1c377b43,,,_476559.1163fcf2838949aa3910d2de1c377b43.epub,0,2000-01-01 01:00:00,2016-04-03 02:51:08,799000/1163fcf2838949aa3910d2de1c377b43-d.jpg,,
19819353,Making Transnational Law Work in the Global Economy: Essays in Honour of Detlev Vagts,,,,"Peter H. F. Bekker, Rudolf Dolzer, Michael Waibel",2010,1,Cambridge University Press,,720,0,English,,,,"0521192528,9780521192521",,,,,341,K561 .M295 2010,,UuEAEM676hcC,OL24438790M,,0,,,,0,0,0,1,6384564,pdf,cd0a6f824ac6bd7af71c29b381967577,,,_476562.cd0a6f824ac6bd7af71c29b381967577.pdf,0,2000-01-01 01:00:00,2016-04-03 02:51:08,799000/cd0a6f824ac6bd7af71c29b381967577-d.jpg,,
19819354,Creation and Salvation: Dialogue on Abraham Kuyper's Legacy for Contemporary Ecotheology (Studies in Reformed Theology),,Studies in Reformed Theology volume 20,,Ernst M. Conradie,2011,,Brill Academic Pub,,297,0,English,,,,"9004203362,9789004203365",,,,,261.8/8,BT695.5 .C745 2011,,,OL24882022M,,0,,,,1,0,1,1,1305940,pdf,6b66eb9d781086d7c6231562327d2499,,,_476567.6b66eb9d781086d7c6231562327d2499.pdf,0,2000-01-01 01:00:00,2016-04-03 02:51:08,799000/6b66eb9d781086d7c6231562327d2499-d.jpg,,
19819355,"Using MIS, 4th Edition",,,,David M. Kroenke,2011,4,Prentice Hall,,529,0,English,,,,"0132158183,9780132158183",,,,,658.4/038011,HD30.213 .K76 2011b,,,OL24385066M,,0,,,,1,1,1,1,30869855,pdf,5503138dc81710c15609b66c1ffa4886,,,_476575.5503138dc81710c15609b66c1ffa4886.pdf,0,2000-01-01 01:00:00,2016-04-03 02:51:08,799000/5503138dc81710c15609b66c1ffa4886-d.jpg,,
19819356,ГІСТОРЫЯ БЕЛАРУСІ  У ДВУХ ЧАСТКАХ : Частка 2: 1917 Г.-1997 г.,,,,"Пад рэд. Я. К. Новіка, Г. С. Марцуля.",1998,,Універсітэцкае,,233,0,Belarusian,,,,"9850903058,9789850903051",,,,,,,,,,,0,,,,0,1,0,0,8766406,djvu,ffabf4d186912a7183565e8237b4f614,499e68e33ee5374d14a1a336fa71cbdf,no,_476579.ffabf4d186912a7183565e8237b4f614.djvu,0,2000-01-01 01:00:00,2016-04-03 02:51:08,799000/ffabf4d186912a7183565e8237b4f614-g.jpg,,
19819357,Faith and Reason: Their Roles in Religious and Secular Life,,,,Donald A. Crosby,2011,,SUNY Press,,190,0,English,,,,"1438436130,9781438436135",,,,,,,,,,,0,,,,1,0,1,1,816352,pdf,c13f58a23e9d9f816748315a862c2c0c,,,_476595.c13f58a23e9d9f816748315a862c2c0c.pdf,0,2000-01-01 01:00:00,2016-04-03 02:51:08,799000/c13f58a23e9d9f816748315a862c2c0c-d.jpg,,
19819358,"Feindbilder und Verständigung: Grundfragen der politischen Psychologie, 3. Auflage",,,,Josef Berghold,2007,3. Auflage,Vs Verlag,,341,0,German,,,,"3531156284,9783531156286",,,,,,,,Bko-CSTAdiYC,,,0,,,,1,0,1,1,2173914,pdf,31cae07cdcf996d129e79d81023b1e51,,,_476626.31cae07cdcf996d129e79d81023b1e51.pdf,0,2000-01-01 01:00:00,2016-04-03 02:51:08,799000/31cae07cdcf996d129e79d81023b1e51-d.jpg,,
19819359,Art in Theory 1648-1815: An Anthology of Changing Ideas,,,,"Charles Harrison, Dr Paul J. Wood, Jason Gaiger",1991,1,Wiley-Blackwell,,1248,0,English,,,,"0631200649,9780631200642",,,,,,,,,OL7609444M,,0,,,,0,1,0,0,16437955,pdf,2555f834818e39a54cf052d75de6d1d7,,,_476628.2555f834818e39a54cf052d75de6d1d7.pdf,0,2000-01-01 01:00:00,2016-04-03 02:51:08,799000/2555f834818e39a54cf052d75de6d1d7-d.jpg,,
19819360,The Cambridge Companion to Utopian Literature (Cambridge Companions to Literature),,,,Gregory Claeys (editor),2010,1,Cambridge University Press,,283,0,English,,,,"0521714141,9780521714143",,,,,809/.93372,PN56.U8 C36 2010,,,OL24553562M,,0,,,,1,1,0,1,1980101,pdf,c839349044af98b8ad34b59ad6cc5075,,,_476630.c839349044af98b8ad34b59ad6cc5075.pdf,0,2000-01-01 01:00:00,2016-04-03 02:51:08,799000/c839349044af98b8ad34b59ad6cc5075-d.jpg,,
19819361,Female Power and Male Dominance: On the Origins of Sexual Inequality,,,,Peggy Reeves Sanday,1981,,Cambridge University Press,,295,0,English,,,,"0521280753,9780521280754",,,,,305.3,"HQ1075 .S26,HQ1075 S26",,,OL21256464M,,0,,,,,1,,0,31008604,pdf,f556bb875c79c1d48392689b9fad67bb,,,_476644.f556bb875c79c1d48392689b9fad67bb.pdf,0,2000-01-01 01:00:00,2016-04-03 02:51:08,799000/f556bb875c79c1d48392689b9fad67bb-d.jpg,,
19819362,Primal leadership: learning to lead with emotional intelligence,,,,"Daniel Goleman, Richard E. Boyatzis, Annie McKee",2004,,Harvard Business Press,,260,0,English,,,,"1591391849,9781591391845",,,,,658.4092019,,,,OL8854533M,,0,,,,,1,1,1,613712,epub,600bf2404cf82282904c07f1d925eb20,,,_476655.600bf2404cf82282904c07f1d925eb20.epub,0,2000-01-01 01:00:00,2016-04-03 02:51:08,799000/600bf2404cf82282904c07f1d925eb20-d.jpg,,
19819363,Lehrbuch der Funktiontheorie,,,,William Fogg Osgood,1929,,B. G. Teubner,,307,0,German,,,,,,,,,,,,,,,0,,,,0,1,0,0,18229832,pdf,f90fff7a782162ec874fe9ee94e4f4f5,,,_476660.f90fff7a782162ec874fe9ee94e4f4f5.pdf,0,2000-01-01 01:00:00,2016-04-03 02:51:08,799000/f90fff7a782162ec874fe9ee94e4f4f5-g.jpg,,
19819364,Mechatronic Modeling and Simulation Using Bond Graphs,,,,Shuvra Das,2009,1,CRC Press,,504,0,English,,,,"1420073141,9781420073140",,,,,621,TJ163.12 .D37 2009,,,OL11817322M,,0,,,,1,0,1,1,14575476,pdf,4355b4fd8388112c02ed939bca2e4d2b,,,_476672.4355b4fd8388112c02ed939bca2e4d2b.pdf,0,2000-01-01 01:00:00,2016-04-03 02:51:08,799000/4355b4fd8388112c02ed939bca2e4d2b-d.jpg,,
19819365,Bayesian Bounds for Parameter Estimation and Nonlinear Filtering Tracking,,,,"Harry L. Van Trees, Kristine L. Bell",2007,1,Wiley-IEEE Press,,960,0,English,,,,"0470120959,9780470120958",,,,,,,,,OL7596317M,,0,,,,0,1,0,1,246967686,pdf,88637e47d6865690e8e8102482551974,,,_476680.88637e47d6865690e8e8102482551974.pdf,0,2000-01-01 01:00:00,2016-04-03 02:51:08,799000/88637e47d6865690e8e8102482551974-d.jpg,,
19819366,Fodor's London 2012,,,,Fodor's,2011,,Fodor's Travel Publications,,,0,English,,,,"0307928608,9780307928603",,,,,,,,,,,0,,,,0,0,1,1,38502183,epub,5dd707c40859d99e8c02488343861719,,,_476705.5dd707c40859d99e8c02488343861719.epub,0,2000-01-01 01:00:00,2016-04-03 02:51:08,799000/5dd707c40859d99e8c02488343861719-g.jpg,,
19819367,Good Strategy Bad Strategy: The Difference and Why It Matters,,,,Richard Rumelt,2011,,Crown Business,,336,0,English,,,,"0307886239,9780307886231",,,,,658.4/012,HD30.28 .R854 2011,,,OL25030541M,,0,,,,,0,1,1,704810,epub,0bad65185a480689f88a68ea5da96626,,,_476714.0bad65185a480689f88a68ea5da96626.epub,0,2000-01-01 01:00:00,2016-04-03 02:51:08,799000/0bad65185a480689f88a68ea5da96626-d.jpg,,
19819368,Good Strategy Bad Strategy: The Difference and Why It Matters,,,,Richard Rumelt,2011,,Crown Business,,,0,English,,,,,,B004J4WKEC,,,,,,,,,0,,,,,0,1,1,1070348,mobi,ab3fe274eb3cb0bd1c5483540b7621cc,,,_476716.ab3fe274eb3cb0bd1c5483540b7621cc.mobi,0,2000-01-01 01:00:00,2016-04-03 02:51:08,799000/ab3fe274eb3cb0bd1c5483540b7621cc-g.jpg,,
19819369,Do the Work,,,,Steven Pressfield,2011,,The Domino Project,,,0,English,,,,,,B004PGO25O,,,,,,,,,0,,,,1,0,1,1,276820,mobi,805823cade7d9d1741f9a030b360e01c,,,_476718.805823cade7d9d1741f9a030b360e01c.mobi,0,2000-01-01 01:00:00,2016-04-03 02:51:08,799000/805823cade7d9d1741f9a030b360e01c-g.jpg,,
19819370,The Idea of Communism,,,,Costas Douzinas and Slavoj Žižek (editors),2010,,Verso,,121,0,English,,,,"184467455X,9781844674558",,,,,,,,,,missing book pages 62 and 63 (would have been file page 38).,0,,,,0,1,0,0,12015388,pdf,561deefdac10c69481284aa20e9738c5,,,_476724.561deefdac10c69481284aa20e9738c5.pdf,0,2000-01-01 01:00:00,2016-04-03 02:51:08,799000/561deefdac10c69481284aa20e9738c5-d.jpg,,
19819371,An Introduction to the International Criminal Court,,,,William A. Schabas,2011,4,Cambridge University Press,,594,0,English,,,,"0521151953,9780521151955",,,,,,,,,OL24851331M,,0,,,,1,0,1,1,3323124,pdf,4f2891edad823081d4a57e519ada6d7d,,,_476736.4f2891edad823081d4a57e519ada6d7d.pdf,0,2000-01-01 01:00:00,2016-04-03 02:51:08,799000/4f2891edad823081d4a57e519ada6d7d-d.jpg,,
19819372,The Psychologist's Companion: A Guide to Writing Scientific Papers for Students and Researchers,,,,"Robert J. Sternberg, Karin Sternberg",2010,5,Cambridge University Press,,378,0,English,,,,"0521144825,9780521144827",,,,,808/.06615,BF76.8 .S73 2010,,,OL24494327M,,0,,,,1,0,1,1,1230112,pdf,ecc407e41cf359f70c5b018328297e11,,,_476737.ecc407e41cf359f70c5b018328297e11.pdf,0,2000-01-01 01:00:00,2016-04-03 02:51:08,799000/ecc407e41cf359f70c5b018328297e11-d.jpg,,
19819373,Term Paper Resource Guide to Medieval History (Term Paper Resource Guides),,,,Jean Shepherd Hamm,2009,,Greenwood,,371,0,English,,,,"0313359679,9780313359675",,,,,940.1,D118 .H235 2009,,,OL23697645M,,0,,,,1,0,1,1,1293466,pdf,8780c24a41f813795ca44bf8371bc016,,,_476739.8780c24a41f813795ca44bf8371bc016.pdf,0,2000-01-01 01:00:00,2016-04-03 02:51:08,799000/8780c24a41f813795ca44bf8371bc016-d.jpg,,
19819374,"Georg Lukács Reconsidered: Critical Essays in Politics, Philosophy and Aesthetics",,,,Edited by Michael J. Thompson,2011,,Continuum,,264,0,English,,,,"1441108769,9781441108760",,,,,199/.439,B4815.L84 G39 2011,,h_VRGseVIncC,OL24524704M,,0,,,,1,0,1,1,818438,pdf,9e8b7c0bb2404f8969ba19815084cd8b,,,_476744.9e8b7c0bb2404f8969ba19815084cd8b.pdf,0,2000-01-01 01:00:00,2016-04-03 02:51:08,799000/9e8b7c0bb2404f8969ba19815084cd8b-d.jpg,,
19819375,"College algebra, (Fourth Edition)",,,,"James Stewart, L. Redlin, Saleem Watson",2003,4th,Cengage Learning,,817,0,English,,,,"0534405991,9780534405991",,,,,512.9,QA152.3 .S74 2000,,QwRXcEK1NzgC,OL3697251M,,0,,,,1,0,1,1,16716033,pdf,9de462870ed1829666f93e96e79607a3,,,_476755.9de462870ed1829666f93e96e79607a3.pdf,0,2000-01-01 01:00:00,2016-04-03 02:51:08,799000/9de462870ed1829666f93e96e79607a3-d.jpg,,
19819376,"Probability, geometry, and integrable systems: for Henry McKean's 75th birthday (Mathematical Sciences Research Institute Publications 55)",,Mathematical Sciences Research Institute Publications volume 55,,"Mark A. Pinsky, Björn Birnir, Henry P. McKean",2008,1,Cambridge University Press,,428,0,English,,,,"0521895278,9780521895279",,,,,519.2,QA273 .P79536 2008,,YhPGfrNK-KwC,OL16365330M,,0,,,,1,0,1,1,8131527,pdf,70903247e8a4b6282671c06e1ae29053,,,_476805.70903247e8a4b6282671c06e1ae29053.pdf,0,2000-01-01 01:00:00,2016-04-03 02:51:08,799000/70903247e8a4b6282671c06e1ae29053-d.jpg,,
19819377,Тайна Синего имама,,,,Бернар Бессон,2011,,"Москва. Иностранка , Азбука-Аттика",,400,0,Russian,,,,"5389020626,9785389020627",,,,,,,,,,,0,,,,,1,1,1,3052703,djvu,bb2190d755cbdcafd12187b9781845b0,,,_476818.bb2190d755cbdcafd12187b9781845b0.djvu,0,2000-01-01 01:00:00,2016-04-03 02:51:08,799000/bb2190d755cbdcafd12187b9781845b0-g.jpg,,
19819378,Michigan (It's My State!),,It's My State!,,"Johannah Haney, Richard Hantula",2011,2,Benchmark Books,,81,0,English,,,,"1608705234,9781608705238,9781608707010",,,,,977.4,F566.3 .H36 2012,,rgNAYgEACAAJ,OL25184473M,,0,,,,1,0,1,1,8687441,pdf,5103cc003d1cfcea282618417fad1539,,,_476826.5103cc003d1cfcea282618417fad1539.pdf,0,2000-01-01 01:00:00,2016-04-03 02:51:08,799000/5103cc003d1cfcea282618417fad1539-d.jpg,,
19819379,A Window Into Zeta and Modular Physics (Mathematical Sciences Research Institute Publications 57),,Mathematical Sciences Research Institute Publications volume 57,,"Klaus Kirsten, Floyd L. Williams",2010,1,Cambridge University Press,,361,0,English,,,,"0521199301,9780521199308",,,,,530.15/556,QC20.7.F88 W56 2010,,yPmq8tSf0lsC,OL24493668M,,0,,,,1,0,1,1,5040212,pdf,5f0e2c7f7b0757181445a81851364bd4,,,_476827.5f0e2c7f7b0757181445a81851364bd4.pdf,0,2000-01-01 01:00:00,2016-04-03 02:51:08,799000/5f0e2c7f7b0757181445a81851364bd4-d.jpg,,
19819380,Ecosytems and Sustainable Development VI,,,,"E. Tiezzi, J. C. Marques, C. A. Brebbia, S. E. Jorgensen",2007,,WIT Press,,583,0,English,,,,"1845640888,9781845640880",,,,,,,,,OL11912705M,,0,,,,1,0,1,1,10359239,pdf,2c5cb93da908482197755427ba724240,,,_476887.2c5cb93da908482197755427ba724240.pdf,0,2000-01-01 01:00:00,2016-04-03 02:51:08,799000/2c5cb93da908482197755427ba724240-d.jpg,,
19819381,"We Are All Slaves: African Miners, Culture, and Resistance at the Enugu Government Colliery, Nigeria (Social History of Africa)",,,,Carolyn A. Brown,2002,,Heinemann,,288,0,English,,,,"0325070075,9780325070070",,,,,,,,,OL10485648M,,0,,,,,1,,1,16236660,pdf,866c00a3dfe82174071a4e1db6aff3b4,,,_476910.866c00a3dfe82174071a4e1db6aff3b4.pdf,0,2000-01-01 01:00:00,2016-04-03 02:51:08,799000/866c00a3dfe82174071a4e1db6aff3b4-d.jpg,,
19819382,Man and Culture: An Evaluation of the Works of Bronislaw Malinowski,,,,"Firth, Raymond (ed.)",1960,Second impression with corrections,Routledge and Kegan Paul,,312,0,English,,,,,,,,,,,,,,,0,,,,1,1,0,1,14709261,pdf,24ae5e07b898c6827944e73fc3d77034,,,_476929.24ae5e07b898c6827944e73fc3d77034.pdf,0,2000-01-01 01:00:00,2016-04-03 02:51:08,799000/24ae5e07b898c6827944e73fc3d77034-g.jpg,,
19819383,"Writings of Early Scholars in the Ancient Near East, Egypt, Rome, and Greece (Beiträge zur Altertumskunde - Bands 286)",,Beiträge zur Altertumskunde,,"Annette Imhausen, Tanja Pommerening (editors)",2010,1,De Gruyter,,451,0,German,,,,"3110229927,9783110229929,9783110229936",1616-0452,,,,,,,o6K_r7ZcyDgC,,,0,,,,1,0,1,1,2480676,pdf,ef1b98164037ef04aa1cafac0558ded2,,,_476938.ef1b98164037ef04aa1cafac0558ded2.pdf,0,2000-01-01 01:00:00,2016-04-03 02:51:08,799000/ef1b98164037ef04aa1cafac0558ded2-d.jpg,,
19819384,Mud-Covered Filthy Creatures (Five Stories),,,,Marius Benta,2011,,,,35,0,English,,,,9789730115543,,,,,,,,,,,0,,,,1,1,1,1,287231,pdf,0f1c8a482523c569f692bcffae8a1cd4,,,_476942.0f1c8a482523c569f692bcffae8a1cd4.pdf,0,2000-01-01 01:00:00,2016-04-03 02:51:08,799000/0f1c8a482523c569f692bcffae8a1cd4-g.jpg,,
19819385,The Weak Hydrogen Bond: In Structural Chemistry and Biology (International Union of Crystallography Monographs on Crystallography),,International Union of Crystallography Monographs on Crystallography volume 9,,"Gautam R. Desiraju, Thomas Steiner",2001,,"Oxford University Press, USA",,371,0,English,,,,"0198509707,9780198509707",,,,,,,10.1093/acpr0f,,OL7400184M,,0,,,,,1,,1,13443482,pdf,744c25f2056a65018245232ef7671f33,,,_476945.744c25f2056a65018245232ef7671f33.pdf,0,2000-01-01 01:00:00,2016-04-03 02:51:08,799000/744c25f2056a65018245232ef7671f33-d.jpg,,
19819386,Jesus: An Experiment in Christology,,,,Edward Schillebeeckx,1991,1,"Crossroad Publishing Company, New York",,767,0,English,,,,"0824503201,0824505045",,,,,232/.09,BT202 .S33513 1981b,,,OL4259833M,,0,,,,,1,,0,16920683,djvu,af005b1dbe01179e15e80557221e873a,7ac670d35928718c9135be34722aa41b,no,_476957.af005b1dbe01179e15e80557221e873a.djvu,0,2000-01-01 01:00:00,2016-04-03 02:51:08,799000/af005b1dbe01179e15e80557221e873a-g.jpg,,
19819387,The Decline of Medieval Hellenism in Asia Minor and the Process of Islamization from the Eleventh through the Fifteenth Century,,,,Speros Jr. Vryonis,2008,,ACLS Humanities E-Book,,568,0,English,,,,"1597404764,9781597404761",,,,,,,,,,,0,,,,,1,,0,16101146,djvu,8145164ed95764a8c51a2792c9f6b066,0f1406b42e9ebedf8e0496339e847a73,no,_476964.8145164ed95764a8c51a2792c9f6b066.djvu,0,2000-01-01 01:00:00,2016-04-03 02:51:08,799000/8145164ed95764a8c51a2792c9f6b066-d.jpg,,
19819388,Textbook of Radiology and Imaging (Vol. 2),,,,David Sutton,2002,7,,,1021,0,English,,,,0443071098,,,,,,,,,,,0,,,,0,0,1,1,79749790,pdf,c01890e883784aef6e385797d05b88fa,,,_476973.c01890e883784aef6e385797d05b88fa.pdf,0,2000-01-01 01:00:00,2016-04-03 02:51:08,799000/c01890e883784aef6e385797d05b88fa-g.jpg,,
19819389,Harrison's Nephrology and Acid-Base Disorders,,,,"J. Larry Jameson, Joseph Loscalzo",2010,1,McGraw-Hill Prof Med/Tech,,321,0,English,,,,"0071663398,9780071663397",,,,,616.6/1,RC902.A3 H37 2010,,,OL23677566M,,0,,,,1,0,1,1,9211747,pdf,0e9f4f58cadc03e8a81364c605683423,,,_476983.0e9f4f58cadc03e8a81364c605683423.pdf,0,2000-01-01 01:00:00,2016-04-03 02:51:08,799000/0e9f4f58cadc03e8a81364c605683423-d.jpg,,
19819390,"Guerrilla Profits: 10 Powerful Strategies to Increase Cashflow, Boost Earnings & Get More Business (Guerilla Marketing Press)",,,,"Jay Conrad Levinson, Stuart Burkow",2008,,Morgan James Publishing,,246,0,English,,,,"1600373224,9781600373220",,,,,,,,,OL9305951M,,0,,,,0,1,1,1,13560415,pdf,efedf639d82673d206f47f4d1b9c84b2,,,_476993.efedf639d82673d206f47f4d1b9c84b2.pdf,0,2000-01-01 01:00:00,2016-04-03 02:51:08,799000/efedf639d82673d206f47f4d1b9c84b2-d.jpg,,
19819391,Texts and Monuments for the Christian Domus Ecclesiae in Its Environment (Social Origins of Christian Architecture),,,,L. Michael White,1996,,Trinity Press International,,520,0,English,,,,"1563381818,9781563381812",,,,,,,,,OL22328236M,,0,,,,,1,,0,48943894,pdf,05381e5c3f67940561a2bb215d483852,,,_476996.05381e5c3f67940561a2bb215d483852.pdf,0,2000-01-01 01:00:00,2016-04-03 02:51:08,799000/05381e5c3f67940561a2bb215d483852-d.jpg,,
19819392,Fragments,,,,Héraclite,1998,4.,Presses Universitaires de France - PUF,,496,0,French,,,,2130440037,,,,,,,,,OL8863179M,DOUBLE-PAGES,0,,,,1,1,0,1,17666468,pdf,5e2bfe9a8047363cd0d6494f0b08136b,,,_476999.5e2bfe9a8047363cd0d6494f0b08136b.pdf,0,2000-01-01 01:00:00,2016-04-03 02:51:08,799000/5e2bfe9a8047363cd0d6494f0b08136b-d.jpg,,
19819393,Wolf Star (Tour of the Merrimack #2),,Tour of the Merrimack volume 2,,R. M. Meluch,2007,eBook Edition,DAW Books,,,0,English,,,,"1101087218,9781101087213",,,,,,,,,,,0,,,,,0,1,1,353770,epub,78a692d7f60ddfca9db9fa14c7836829,,,_477019.78a692d7f60ddfca9db9fa14c7836829.epub,0,2000-01-01 01:00:00,2016-04-03 02:51:08,799000/78a692d7f60ddfca9db9fa14c7836829-g.jpg,,
19819394,The Oxford Handbook of Civil Society,,,,Michael Edwards (editor),2011,,Oxford University Press,,532,0,English,,,,"0195398572,9780195398571",,,,,300,JC337 .O94 2011,,,OL25161067M,,0,,,,1,0,1,1,2487853,pdf,8382150d07571754049e2c29ee94f089,,,_477026.8382150d07571754049e2c29ee94f089.pdf,0,2000-01-01 01:00:00,2016-04-03 02:51:08,799000/8382150d07571754049e2c29ee94f089-d.jpg,,
19819395,Culture or Chaos in the Village: The Journey to Cultural Fluency,,,,Ursula Thomas,2010,,Rowman & Littlefield Education,,155,0,English,,,,"160709925X,9781607099253,1607099241,9781607099246",,,,,371.1,BF318 .C85 2011,,R7N0dDFYsJ0C,OL24495305M,,0,,,,1,0,1,1,1271227,pdf,45345e220472a973f94c665318158586,,,_477046.45345e220472a973f94c665318158586.pdf,0,2000-01-01 01:00:00,2016-04-03 02:51:08,799000/45345e220472a973f94c665318158586-d.jpg,,
19819396,"Собрание сочинений, том 5",,,,Лев Семенович Выготский,1983,,Педагогика,,368,0,Russian,,,,,,,,,,,,,,,0,,,,1,1,1,1,9007127,djvu,d206a1f14c083563301e8645adb98cb1,,,_477048.d206a1f14c083563301e8645adb98cb1.djvu,0,2000-01-01 01:00:00,2016-04-03 02:51:08,799000/d206a1f14c083563301e8645adb98cb1-g.jpg,,
19819397,Successful writing: upper-intermediate,,,,Virginia Evans,2000,,Express Publishing,,138,0,English,,,,"1842168789,9781842168783",,,,,,,,,OL12572911M,,0,,,,,1,0,0,40596287,pdf,4b766d0e74637c842173e8348800eec0,,,_477052.4b766d0e74637c842173e8348800eec0.pdf,0,2000-01-01 01:00:00,2016-04-03 02:51:08,799000/4b766d0e74637c842173e8348800eec0-d.jpg,,
19819398,Thought and Language,,,,Lev Vygotsky,1986,2nd,MIT Press,,287,0,English,,,,"0262220296,9780262220293",,,,,401/.9,P37 .V9413 1986,,,OL18287173M,,0,,,,1,1,0,1,6320554,djvu,b0ff92ad83026b78fd71949e977aa6ab,,,_477068.b0ff92ad83026b78fd71949e977aa6ab.djvu,0,2000-01-01 01:00:00,2016-04-03 02:51:08,799000/b0ff92ad83026b78fd71949e977aa6ab-g.jpg,,
19819399,Tarzan of the Apes (Barnes & Noble Classics),,Barnes & Noble Classics,,Edgar Rice Burroughs,2006,,Barnes & Noble Books,,304,0,English,,,,"1593082274,9781593082277,1411433254,9781411433250",,,,,,,,,OL8870248M,,0,,,,,0,1,1,1161916,epub,19b1c83740956907679f58dd4c370e42,,,_477077.19b1c83740956907679f58dd4c370e42.epub,0,2000-01-01 01:00:00,2016-04-03 02:51:08,799000/19b1c83740956907679f58dd4c370e42-d.jpg,,
19819400,Carnage on the Committee (Robert Amiss Mysteries),,Robert Amiss Mystery 10,,Ruth Dudley Edwards,2004,First Edition,Poisoned Pen Press,,246,0,English,,,,"1590581334,9781590581339",,,,,,,,,OL8848213M,,0,,,,0,1,0,1,339149,mobi,e0d52ea2015ae191098228926b133a7d,,,_477079.e0d52ea2015ae191098228926b133a7d.mobi,0,2000-01-01 01:00:00,2016-04-03 02:51:08,799000/e0d52ea2015ae191098228926b133a7d-d.jpg,,
19819401,"Streams of Silver (Forgotten Realms: The Icewind Dale Trilogy, Book 2)",,,,R.A. Salvatore,1989,,Wizards of the Coast,,342,0,English,,,,"088038672X,9780880386722",,,,,,,,,OL2063909M,,0,,,,,1,,,321086,epub,25ce61ff5b06804819c0cbfbd24dc7a7,,,_477093.25ce61ff5b06804819c0cbfbd24dc7a7.epub,0,2000-01-01 01:00:00,2016-04-03 02:51:08,799000/25ce61ff5b06804819c0cbfbd24dc7a7-d.jpg,,
19819402,BIOS Instant Notes in Neuroscience,,,,Alan Longstaff,2011,3rd Edition,Taylor & Francis,,360,0,English,,,,"0415607698,9780415607698",,,,,616.8,RC343.6 .L66 2011,,,OL25045780M,,0,,,,1,0,1,1,6046136,pdf,792c833122df5b92daf757c310265621,,,_477111.792c833122df5b92daf757c310265621.pdf,0,2000-01-01 01:00:00,2016-04-03 02:51:08,799000/792c833122df5b92daf757c310265621-d.jpg,,
19819403,ירושלים במאה ה-19,,,,יהושע בן-אריה,1980,,ישראל. משרד הבטחון. ההוצאה לאור,,89,0,Hebrew,,,,,,,,,,,,,,,0,,,,0,1,0,0,10635089,pdf,3c5009c5fdbe513a2dfa91388823620b,,,_477121.3c5009c5fdbe513a2dfa91388823620b.pdf,0,2000-01-01 01:00:00,2016-04-03 02:51:08,799000/3c5009c5fdbe513a2dfa91388823620b-g.jpg,,
19819404,"ההיסטוריה של ארץ-ישראל, כרך רביעי: שלטון רומי: התקופה הרומית - ביזנטית",,,,מנחם שטרן,1984,,יד יצחק בן-צבי כתר הוצאה לאור,,428,0,Hebrew,,,,,,,,,,,,,,,0,,,,0,1,0,0,82228184,pdf,583789fd84676ed19913c58466501471,,,_477133.583789fd84676ed19913c58466501471.pdf,0,2000-01-01 01:00:00,2016-04-03 02:51:08,799000/583789fd84676ed19913c58466501471-g.jpg,,
19819405,"ההיסטוריה של ארץ-ישראל, כרך חמישי: תקופת המשנה והתלמוד והשלטון הביזנטי (70 - 640)",,,,משה דוד הר,1985,,יד יצחק בן-צבי כתר הוצאה לאור,,448,0,Hebrew,,,,,,,,,,,,,,,0,,,,0,1,0,0,86386332,pdf,2b72e44ecec7bed3d3199f9b12983206,,,_477134.2b72e44ecec7bed3d3199f9b12983206.pdf,0,2000-01-01 01:00:00,2016-04-03 02:51:08,799000/2b72e44ecec7bed3d3199f9b12983206-g.jpg,,
19819406,The Adobe Photoshop CS3 Book for Digital Photographers,,,,Scott Kelby,2007,1,New Riders Press,,494,0,English,,,,"0321501918,9780321501912",,,,,006.686024775,T385 .K394 2008,,zVWaDsCmIQUC,OL18300219M,,0,,,,,0,0,1,142082738,pdf,7e49833424c9266e5518dd365936b64a,,,_477142.7e49833424c9266e5518dd365936b64a.pdf,0,2000-01-01 01:00:00,2016-04-03 02:51:08,799000/7e49833424c9266e5518dd365936b64a-d.jpg,,
19819407,The Sugar House (A Tess Monaghan Mystery),,,,Laura Lippman,2001,,Avon,,384,0,English,,,,"0380810220,9780380810222",,,,,,,,,,,0,,,,,1,,,651078,mobi,840726814882d3be5633cbd3f067dedc,,,_477163.840726814882d3be5633cbd3f067dedc.mobi,0,2000-01-01 01:00:00,2016-04-03 02:51:08,799000/840726814882d3be5633cbd3f067dedc-d.jpg,,
19819408,David Busch's Compact Field Guide for the Nikon D5100,,,,David D. Busch,2011,1,Course Technology PTR,,156,0,English,,,,"1435460871,9781435460874",,,,,,,,,,,0,,,,1,0,1,1,2783782,pdf,bb9c310e96ce17b5ee6b67a03fe81434,,,_477166.bb9c310e96ce17b5ee6b67a03fe81434.pdf,0,2000-01-01 01:00:00,2016-04-03 02:51:08,799000/bb9c310e96ce17b5ee6b67a03fe81434-d.jpg,,
19819409,Stone age economics,,,,Marshall David Sahlins,1972,,Aldine-Atherton,,362,0,English,,,,"0202010988,9780202010984",,,,,330.9/012,GN489 .S24 1972,,,OL21284425M,,0,,,,0,1,0,1,29971524,pdf,e250914d7632012737aacf94822158fb,,,_477189.e250914d7632012737aacf94822158fb.pdf,0,2000-01-01 01:00:00,2016-04-03 02:51:08,799000/e250914d7632012737aacf94822158fb-g.jpg,,
19819410,Energy Myths and Realities: Bringing Science to the Energy Policy Debate,,,,Vaclav Smil,2010,First,AEI Press,,232,0,English,,,,"9780844743288,0844743283",,B004RIOM8C,,,333.79/4,TJ808 .S639 2010,,,OL24493456M,,0,,,,,1,,,1647812,mobi,a6ae07b5b380590964a132b0a909806f,,,_477199.a6ae07b5b380590964a132b0a909806f.mobi,0,2000-01-01 01:00:00,2016-04-03 02:51:08,799000/a6ae07b5b380590964a132b0a909806f-d.jpg,,
19819411,Seize the time: the story of the Black Panther Party and Huey P. Newton,,,,Bobby Seale,1991,,Black Classic Press,,235,0,English,,,,"093312130X,9780933121300",,,,,322.4/2/0973,E185.615 .S37 1991,,CJX_JX9jENgC,OL1573006M,,0,,,,0,1,0,1,1470155,pdf,f5e3b28d0c2817aebac4efe81465c6fa,,,_477225.f5e3b28d0c2817aebac4efe81465c6fa.pdf,0,2000-01-01 01:00:00,2016-04-03 02:51:08,799000/f5e3b28d0c2817aebac4efe81465c6fa-d.jpg,,
19819412,L'économie de la culture,,,,Françoise Benhamou,2004,,La Découverte,,123,0,French,,,,"270714410X,9782707144102",,,,,,,,,,,0,,,,1,0,1,1,728365,pdf,3f20ca62a852db84ca70a9a0c8241677,,,_477274.3f20ca62a852db84ca70a9a0c8241677.pdf,0,2000-01-01 01:00:00,2016-04-03 02:51:08,799000/3f20ca62a852db84ca70a9a0c8241677-g.jpg,,
19819413,Économie de la qualité,,,,Bénédicte Coestier-Perrin,2004,REPERES,La Découverte,,122,0,French,,,,"2707141445,9782707141446",,,,,,,,,,,0,,,,1,0,1,1,500272,pdf,0d4e9f49279f50032409824636259662,,,_477278.0d4e9f49279f50032409824636259662.pdf,0,2000-01-01 01:00:00,2016-04-03 02:51:08,799000/0d4e9f49279f50032409824636259662-d.jpg,,
19819414,Galaxy Tab: The Missing Manual: Covers Samsung TouchWiz Interface (Missing Manuals),,,,Preston Gralla,2011,1,Pogue Press,,442,0,English,,,,"1449396852,9781449396855",,,,,,,,,,,0,,,,1,0,1,1,48655704,pdf,74017b7b1a8178400387ce061e3ee153,,,_477280.74017b7b1a8178400387ce061e3ee153.pdf,0,2000-01-01 01:00:00,2016-04-03 02:51:08,799000/74017b7b1a8178400387ce061e3ee153-d.jpg,,
19819415,Finances publiques,,,,Stéphanie Damarey,2008,,Gualino Editeur,,598,0,French,,,,"2297011148,9782297011143",,,,,,,,,,,0,,,,0,0,1,1,2448082,pdf,8da0ff33f982196525726c84299d0c3b,,,_477288.8da0ff33f982196525726c84299d0c3b.pdf,0,2000-01-01 01:00:00,2016-04-03 02:51:08,799000/8da0ff33f982196525726c84299d0c3b-d.jpg,,
19819416,"Calculus for the Managerial, Life, and Social Sciences, Seventh Edition",,,,Soo T. Tan,2005,7,Brooks Cole,,696,0,English,,,,"0534419860,9780534419868",,,,,515,QA303.2 .T36 2006,,,OL3316635M,,0,,,,1,0,1,1,12044373,pdf,b924fb24883243a974bbcefe474649ec,,,_477297.b924fb24883243a974bbcefe474649ec.pdf,0,2000-01-01 01:00:00,2016-04-03 02:51:08,799000/b924fb24883243a974bbcefe474649ec-d.jpg,,
19819417,Wielki słownik rosyjsko-polski,,,,"A. Mirowicz, I. Dulewiczowa, I. Grek-Pabisowa, I. Maryniakowa",1993,,Wiedza Powszechna,,431,0,Polish,322,,0,83-214-0971-7,,,,,,,,,,,0,,,,,1,0,0,17227099,djvu,c492a6e785d8681633c39263d6bf8cbd,c136865bda9c6a585754b4aec1de8bab,no,_477308.c492a6e785d8681633c39263d6bf8cbd.djvu,0,2000-01-01 01:00:00,2016-04-03 02:51:08,799000/c492a6e785d8681633c39263d6bf8cbd-g.jpg,,
19819418,Campos de fuerza: entre la historia intelectual y la crítica cultural,,"Espacios del saber, 36.",,Martin Jay,2003.,1a ed,Paidós,Buenos Aires,349 p. ; 21 cm.,0,Spanish,,,0,"9501265366,9789501265361",,,,,,,,,,,0,,,,,,1,1,26282591,pdf,16a88b70a25a1cf567b2517ca7d48883,,,207721093-Martin-Jay-Campos-de-Fuerza.pdf,0,2000-01-01 01:00:00,2016-04-03 02:51:08,1160000/16a88b70a25a1cf567b2517ca7d48883-g.jpg,,
19819419,"La trilogie divine, Tome 2 : L'invasion divine",,,,Philip K. Dick,2006,,Editions Gallimard,,246,0,French,,,,2-207-24579-9,,,,,,,,,,,0,,,,,1,,1,1381042,pdf,74140ebef997d1809853e42ca35c45d0,,,_477320.74140ebef997d1809853e42ca35c45d0.pdf,0,2000-01-01 01:00:00,2016-04-03 02:51:08,799000/74140ebef997d1809853e42ca35c45d0-g.jpg,,
19819420,Stalker : Pique-nique au bord du chemin,,,,"Arkadi Strougatski, Boris Strougatski",2010,,Editions Denoël,,,0,French,,,,,,,,,,,,,,,0,,,,,1,,,254523,epub,6b137e2798bb2110a36176818606198c,,,_477326.6b137e2798bb2110a36176818606198c.epub,0,2000-01-01 01:00:00,2016-04-03 02:51:08,799000/6b137e2798bb2110a36176818606198c-g.jpg,,
19819421,"Perspectives on Rescuing Urban Literacy Education: Spies, Saboteurs, and Saints",,,,Robert B. Cooter,2004,1,L. Erlbaum,,305,0,English,,,,"0805842896,9780805842890,080584290X,9780805842906",,,,,372.4/09764/2812,LC5128,,HfbzGCwXaJ0C,OL22059481M,,0,,,,1,0,1,1,2284819,pdf,7b42990991cd9a138375941db3e8bee1,,,_477336.7b42990991cd9a138375941db3e8bee1.pdf,0,2000-01-01 01:00:00,2016-04-03 02:51:08,799000/7b42990991cd9a138375941db3e8bee1-d.jpg,,
19819422,La fin du non-A : Le cycle du non-A,,,,Van Vogt A.E.,2001,,J'ai lu,,,0,French,,,,,,,,,,,,,,,0,,,,,1,,,429094,epub,8253572cabf6521d337bc444e6b1605d,,,_477345.8253572cabf6521d337bc444e6b1605d.epub,0,2000-01-01 01:00:00,2016-04-03 02:51:08,799000/8253572cabf6521d337bc444e6b1605d-g.jpg,,
19819423,Stone Age Economics,,,,Marshall D. Sahlins,1972,,Aldine-Atherton,,363,0,English,,,,"0202010988,9780202010984",,,,,330.9/012,GN489 .S24 1972,,O9jtAAAAMAAJ,OL21284425M,,0,,,,1,1,1,1,19065305,pdf,d83075cd7c02099656fa09d822e590be,,,_477359.d83075cd7c02099656fa09d822e590be.pdf,0,2000-01-01 01:00:00,2016-04-03 02:51:08,799000/d83075cd7c02099656fa09d822e590be-g.jpg,,
19819424,All about African Elephants (All About Series Book 85 Level K),,All About Series volume Book 85 Level K,,Michael Christopher,2009,,Heinemann; Fountas & Pinnell Lelevered Literacy Intervention,,16,0,English,,,,"0325016925,9780325016924",,,,,,,,cMK_ZwEACAAJ,,,0,,,,1,0,1,1,4593011,pdf,4cefd859ad656241831797aa27f13ffb,,,_477369.4cefd859ad656241831797aa27f13ffb.pdf,0,2000-01-01 01:00:00,2016-04-03 02:51:08,799000/4cefd859ad656241831797aa27f13ffb-g.jpg,,
19819425,Water Resources Management IV,,,,"C. A. Brebbia, A. G. Kungolos",2007,,WIT Press,,721,0,English,,,,"1845640748,9781845640743",,,,,333.91,,,,OL9902754M,,0,,,,1,0,1,1,16642522,pdf,b89f3df01d52810431af11fce27bd445,,,_477378.b89f3df01d52810431af11fce27bd445.pdf,0,2000-01-01 01:00:00,2016-04-03 02:51:08,799000/b89f3df01d52810431af11fce27bd445-d.jpg,,
19819426,A Companion to Marie de France (Brill's Companions to the Christian Tradition),,Brill's Companions to the Christian Tradition volume 27,,Logan E. Whalen,2011,,BRILL,,351,0,English,,,,"900420217X,9789004202177",,,,,841/.1,PQ1495 .W42 2011,,QvsWtwAACAAJ,OL24906095M,,0,,,,1,0,1,1,1775609,pdf,69f591515e34af449622861a9f083608,,,_477383.69f591515e34af449622861a9f083608.pdf,0,2000-01-01 01:00:00,2016-04-03 02:51:08,799000/69f591515e34af449622861a9f083608-d.jpg,,
19819427,Access 2003 Personal Trainer (Personal Trainer (O'Reilly)),,Personal Trainer (O'Reilly) Series,,Inc. CustomGuide,2005,,O'Reilly Media,,368,0,English,76,,,"0596009372,9780596009373",,,,,005.75/65,QA76.9.D3 A28932 2005,,0CCkQ6AEwAA,OL3438184M,,0,,,,,0,1,1,10576385,epub,80351e7ce8c70de1cd5c8e97b21100f7,,,_477394.80351e7ce8c70de1cd5c8e97b21100f7.epub,0,2000-01-01 01:00:00,2016-04-03 02:51:08,799000/80351e7ce8c70de1cd5c8e97b21100f7-d.jpg,,
19819428,Beyond Belief: Two Thousand Years of Bad Faith in the Christian Church,,,,James McDonald,2011,,Garnet Publishing,,513,0,English,,,,9780863723810,,,,,270,,,,,,0,,,,1,0,1,1,2955295,pdf,ade6aaba28143077b8bef58f4eb548cf,,,_477414.ade6aaba28143077b8bef58f4eb548cf.pdf,0,2000-01-01 01:00:00,2016-04-03 02:51:08,799000/ade6aaba28143077b8bef58f4eb548cf-g.jpg,,
19819429,Air Pollution XV,,,,"C. A. Borrego, C. A. Brebbia",2007,,WIT Press / Computational Mechanics,,619,0,English,,,,"1845640675,9781845640675",,,,,,,,,OL11912689M,,0,,,,1,0,1,1,14322475,pdf,8d96cadfae61b82142d5940d2fa8dc6a,,,_477421.8d96cadfae61b82142d5940d2fa8dc6a.pdf,0,2000-01-01 01:00:00,2016-04-03 02:51:08,799000/8d96cadfae61b82142d5940d2fa8dc6a-d.jpg,,
19819430,Proper English: Myths and Misunderstandings about Language,,Language Library,,Ronald Wardhaugh,1999,1,"Blackwell Publishing, Ltd.",,213,0,English,,,,"0631212698,9780631212690,9780631228110",,,,,428,PE1074.7 .W37 1999,,,OL364304M,,0,,,,1,0,1,1,695576,pdf,678fb90583543c0a883d1c0be284952d,,,_477426.678fb90583543c0a883d1c0be284952d.pdf,0,2000-01-01 01:00:00,2016-04-03 02:51:08,799000/678fb90583543c0a883d1c0be284952d-d.jpg,,
19819431,Fancies and Goodnights,,,,John Collier,1951,First Edition,Doubleday,,396,0,English,,,,"9997539494,9789997539496",,,,,,,,,,,0,,,,,1,,,520016,epub,03da808db83ba8064999600ee475105b,,,_477427.03da808db83ba8064999600ee475105b.epub,0,2000-01-01 01:00:00,2016-04-03 02:51:08,799000/03da808db83ba8064999600ee475105b-g.jpg,,
19819432,International Review of Cell and Molecular Biology,,International Review of Cell and Molecular Biology 275,,Kwang W. Jeon (Eds.),2009,1,Academic Press,,1-253,0,English,,,,"0123748062,9780123748065",1937-6448,,,,571.6,,10.1016/S1937-6448,,,,0,,,,1,0,1,1,2557966,pdf,98e1b658d9fe812540889935549464a8,,,_477446.98e1b658d9fe812540889935549464a8.pdf,0,2000-01-01 01:00:00,2016-04-03 02:51:08,799000/98e1b658d9fe812540889935549464a8-d.jpg,,
19819433,L'or et les monnaies : histoire d'une crise,,,,Jean Lecerf,1969,,Gallimard,,192,0,French,,,,"2070351866,9782070351862",,,,,,,,,,,0,,,,1,1,1,1,4771747,pdf,cf50160d769b6d281621e916a42581a3,,,_477452.cf50160d769b6d281621e916a42581a3.pdf,0,2000-01-01 01:00:00,2016-04-03 02:51:08,799000/cf50160d769b6d281621e916a42581a3-d.jpg,,
19819434,Istoria relaţiilor României cu ţările Americii Latine (1866 - 2000),,,,Doru Bratu,2004,,Editura Fundaţiei România de Mâine,,270,0,"Romanian,Moldavian,Moldovan",,,,9735829339,,,,,,,,,,,0,,,,1,1,,1,1354514,pdf,8ca63857431d8367807ba994e345e19c,,,_477458.8ca63857431d8367807ba994e345e19c.pdf,0,2000-01-01 01:00:00,2016-04-03 02:51:08,799000/8ca63857431d8367807ba994e345e19c-g.jpg,,
19819435,"My Life, Deleted: A Memoir",,,,"Scott Bolzan, Joan Bolzan, Caitlin Rother",2011,,HarperCollins,,304,0,English,,,,"0062025473,9780062025470,9780062098313,0062098314",,,,,616.85/23200922,RC394.A5 B65 2011,,xytMYgEACAAJ,OL25130630M,,0,,,,0,0,1,1,1336151,epub,b2a6b12912833040260f8bc2dc5a519c,,,_477462.b2a6b12912833040260f8bc2dc5a519c.epub,0,2000-01-01 01:00:00,2016-04-03 02:51:08,799000/b2a6b12912833040260f8bc2dc5a519c-d.jpg,,
19819436,Underworld: The Mysterious Origins of Civilization,,,,Graham Hancock,2003,,Three Rivers Press,,1826,0,English,,,,"1400049512,9781400049516",,,,,930.1/028/04,CC77.U5 H36 2003,,FGayyVzTTxMC,OL3708208M,,0,,,,,1,,1,26798616,mobi,24d262207160413192f6809822d042e2,,,_477468.24d262207160413192f6809822d042e2.mobi,0,2000-01-01 01:00:00,2016-04-03 02:51:08,799000/24d262207160413192f6809822d042e2-d.jpg,,
19819437,Biogeografie,,,,Anca-Luiza Stănilă,2003,,Editura Fundaţiei România de Mâine,,149,0,"Romanian,Moldavian,Moldovan",,,,,,,,,,,,,,,0,,,,,1,,1,9767318,pdf,7979a16e194008116536e83530431f63,,,_477478.7979a16e194008116536e83530431f63.pdf,0,2000-01-01 01:00:00,2016-04-03 02:51:08,799000/7979a16e194008116536e83530431f63-g.jpg,,
19819438,Jesus' Sohn,,,,Denis Johnson,2001,,Suhrkamp,,155,0,German,,,,"3518398318,9783518398319",,,,,813.54,,,,OL12762396M,,0,,,,1,1,,1,1053727,pdf,8352ada9bb1c44983873e914c9bd5341,,,_477508.8352ada9bb1c44983873e914c9bd5341.pdf,0,2000-01-01 01:00:00,2016-04-03 02:51:08,799000/8352ada9bb1c44983873e914c9bd5341-d.jpg,,
19819439,Encyclopedia of Pollution (Facts on File Science Library),,Facts on File Science Library,,"Alexander Gates, Robert P. Blauvelt",2011,,Facts on File (J),,1028,0,English,,,,"0816070024,9780816070022",,,,,363.7003,TD173 .G38 2011,,,OL11360630M,,0,,,,1,0,1,1,72037894,pdf,89896edbc3a80742e85b487a1b0e11ce,,,_477510.89896edbc3a80742e85b487a1b0e11ce.pdf,0,2000-01-01 01:00:00,2016-04-03 02:51:08,799000/89896edbc3a80742e85b487a1b0e11ce-d.jpg,,
19819440,Filozofija osećanja,,Teorija,,Hans H. Grelan,2007,,Geopoetika,,172,0,Serbian,,,,"8676661200,9788676661206",,,,,,,,FfVkGQAACAAJ,,,0,,,,,1,,0,8320946,pdf,391003d39c99990abd7f4fd83e817312,,,_477523.391003d39c99990abd7f4fd83e817312.pdf,0,2000-01-01 01:00:00,2016-04-03 02:51:08,799000/391003d39c99990abd7f4fd83e817312-g.jpg,,
19819441,Deal with Your Debt: The Right Way to Manage Your Bills and Pay Off What You Owe,,,,Liz Weston,2005,1,FT Press,,241,0,English,,,,"0131856758,9780131856752",,,,,332.024/02,HG3755 .W44 2006,,,OL23026075M,,0,,,,1,0,1,1,2144949,pdf,0d6daa42c68135630c08d6020c0dfcfc,,,_477527.0d6daa42c68135630c08d6020c0dfcfc.pdf,0,2000-01-01 01:00:00,2016-04-03 02:51:08,799000/0d6daa42c68135630c08d6020c0dfcfc-d.jpg,,
19819442,Steve Jobs - iLeadership: Mit Charisma und Coolness an die Spitze,,,,"Jay Elliot, William L. Simon",2011,,Ariston Verlag,,,0,German,,,,"3424200492,9783424200492,3641059623,9783641059620",,,,,,,,,,,0,,,,,0,1,1,2068362,epub,1dd31309bf892df8106494f854e03e5e,,,_477532.1dd31309bf892df8106494f854e03e5e.epub,0,2000-01-01 01:00:00,2016-04-03 02:51:08,799000/1dd31309bf892df8106494f854e03e5e-d.jpg,,
19819443,Geometric Mechanics (Lecture Notes in Mathematics 1798),,Lecture Notes in Mathematics volume 1798,,Waldyr Muniz Oliva,2002,1,Springer,,283,0,English,,,,"3540442421,9783540442424",,,,,531,,,,OL9531219M,,0,,,,1,0,1,1,2046654,pdf,dff7696817bd41017cecd8133173bf7a,,,_477537.dff7696817bd41017cecd8133173bf7a.pdf,0,2000-01-01 01:00:00,2016-04-03 02:51:08,799000/dff7696817bd41017cecd8133173bf7a-d.jpg,,
19819444,The Socialist Alternative: Real Human Development,,,,Michael Lebowitz,2010,,Monthly Review Press,,187,0,English,,,,"1583672141,9781583672143",,,,,335,HX73 .L4167 2010,,,,,0,,,,0,1,0,1,25331885,pdf,e3bff02903bee8110297416193cab8ee,,,_477542.e3bff02903bee8110297416193cab8ee.pdf,0,2000-01-01 01:00:00,2016-04-03 02:51:08,799000/e3bff02903bee8110297416193cab8ee-d.jpg,,
19819445,"História Augusta, Vol. 1: Vidas de Adriano, Élio, Antonino Pio, Marco Aurélio, Lúcio Vero, Avídio Cássio e Cómodo",,,,"Anónimo, Cláudia A. Teixeira, José Luís Brandão, Nuno Simões Rodrigues",2011,1ª/2011,Centro de Estudos Clássicos e Humanísticos da Universidade de Coimbra,,232,0,Portuguese,,,,"9789898281876,9789898281883",,,,,,,,,,,0,,,,1,0,1,1,1108211,pdf,30569f294252eda824257463bd3df5a7,,,_477587.30569f294252eda824257463bd3df5a7.pdf,0,2000-01-01 01:00:00,2016-04-03 02:51:08,799000/30569f294252eda824257463bd3df5a7-g.jpg,,
19819446,El Ser y el Tiempo,,,,Martin Heidegger; Jorge Eduardo Rivera,,,,,448,0,Spanish,,,,,,,,,,,,,,No,0,,,,1,1,,1,3677780,pdf,84adb28abdfb74f7cf4884e11780742b,,,_477591.84adb28abdfb74f7cf4884e11780742b.pdf,0,2000-01-01 01:00:00,2016-04-03 02:51:08,799000/84adb28abdfb74f7cf4884e11780742b-g.jpg,,
19819447,From the Corner of His Eye,,,,Dean Koontz,2001,,Bantam,,210,0,English,,,,"0553582747,9780553582741",,,,,813.54,,,,OL23245074M,,0,,,,0,0,0,1,1532037,pdf,be6e08e3c5feb8148333734ac3c6bb30,,,_477606.be6e08e3c5feb8148333734ac3c6bb30.pdf,0,2000-01-01 01:00:00,2016-04-03 02:51:08,799000/be6e08e3c5feb8148333734ac3c6bb30-d.jpg,,
19819448,Sole Survivor,,,,Dean Koontz,2000,,Bantam,,162,0,English,,,,"0553582941,9780553582949",,,,,813.54,,,,OL7830170M,,0,,,,0,0,0,1,882143,pdf,7da06c2b0df811899955e2ca4a3b2e3e,,,_477608.7da06c2b0df811899955e2ca4a3b2e3e.pdf,0,2000-01-01 01:00:00,2016-04-03 02:51:08,799000/7da06c2b0df811899955e2ca4a3b2e3e-d.jpg,,
19819449,"Internet Marketing Start to Finish: Drive Measurable, Repeatable Online Sales with Search Marketing, Usability, CRM, and Analytics",,,,"Catherine Juon, Dunrie Greiling, Catherine Buerkle",2011,1,Que Publishing,,317,0,English,,,,"0789747898,9780789747891",,,,,658.8/72,HF5415.1265 .J86 2012,,rF2gfE9CkPIC,OL25170824M,,0,,,,1,0,1,1,8945447,pdf,57e9a2804147050f5c13684624acd09c,,,_477641.57e9a2804147050f5c13684624acd09c.pdf,0,2000-01-01 01:00:00,2016-04-03 02:51:08,799000/57e9a2804147050f5c13684624acd09c-d.jpg,,
19819450,Privacy and Big Data,,,,"Terence Craig, Mary E. Ludloff",2011,,O'Reilly Media,,106,0,English,,,,"1449305008,9781449305000",,,,,,,,YAeNPJdNo2UC,,,0,,,,,1,,,810086,epub,18aca8a6be6e4831338bebd1a5de887b,,,_477664.18aca8a6be6e4831338bebd1a5de887b.epub,0,2000-01-01 01:00:00,2016-04-03 02:51:08,799000/18aca8a6be6e4831338bebd1a5de887b-d.jpg,,
19819451,L'odore della notte,,,,Jeaniene Frost,2011,,Fanucci,,211,0,Italian,,,,,,,,,,,,,,,0,,,,0,0,1,1,1001046,pdf,6811c623d8819977e4113a65120b3d73,,,_477675.6811c623d8819977e4113a65120b3d73.pdf,0,2000-01-01 01:00:00,2016-04-03 02:51:08,799000/6811c623d8819977e4113a65120b3d73-g.jpg,,
19819452,"Рукопись, найденная в Сарагосе",,Литературные памятники,,Потоцкий Ян,1968,,Наука,,628,0,Russian,,,,,,,,,,,,,,,0,,,,,1,1,1,11455743,djvu,bab80773d2c39fe8d9106b8022a1b8ff,,,_477704.bab80773d2c39fe8d9106b8022a1b8ff.djvu,0,2000-01-01 01:00:00,2016-04-03 02:51:08,799000/bab80773d2c39fe8d9106b8022a1b8ff-g.jpg,,
19819453,Advanced Trigonometry,,,,"C. V. Durell, A. Robson",2003,Dover Ed,Dover Publications,,281,0,English,,,,"0486432297,9780486432298",,,,,514,,,,OL7639170M,,0,,,,0,1,0,0,13784566,pdf,dc80525a04d5ce1182c302f08b04816d,,,_477729.dc80525a04d5ce1182c302f08b04816d.pdf,0,2000-01-01 01:00:00,2016-04-03 02:51:08,799000/dc80525a04d5ce1182c302f08b04816d-d.jpg,,
19819454,Otherworldly and Eschatological Priesthood in the Dead Sea Scrolls,,Studies on the Texts of the Desert of Judah volume 86,,Joseph L. Angel,2010,,BRILL,,396,0,English,,,,"9004181458,9789004181458",,,,,296.1/55,BM651 .A54 2010,,,OL23936278M,,0,,,,1,1,1,1,4925055,pdf,8d265cb6548df95a3671811379de481c,,,_477734.8d265cb6548df95a3671811379de481c.pdf,0,2000-01-01 01:00:00,2016-04-03 02:51:08,799000/8d265cb6548df95a3671811379de481c-d.jpg,,
19819455,"Inner Tantric Yoga: Working with the Universal Shakti: Secrets of Mantras, Deities, and Meditation",,,,David Frawley,2009,,Lotus Press,,280,0,English,,,,"0940676508,9780940676503",,,,,294.34436,,,T6Vp_rTWkAAC,,,0,,,,0,0,0,0,1729548,pdf,649a4210ac83334eea782f0d19970383,,,_477770.649a4210ac83334eea782f0d19970383.pdf,0,2000-01-01 01:00:00,2016-04-03 02:51:08,799000/649a4210ac83334eea782f0d19970383-d.jpg,,
19819456,"Conceptual Physical Science, (5th Edition)",,,,"Paul G. Hewitt, John A. Suchocki, Leslie A. Hewitt",2011,5th,Pearson Education Canada,,890,0,English,,,,"0321753348,9780321753342",,,,,500.2,,,l_hhzgAACAAJ,,,0,,,,1,0,1,1,57766865,pdf,3d17af97d2da2e0630c1081842ff77f7,,,_477772.3d17af97d2da2e0630c1081842ff77f7.pdf,0,2000-01-01 01:00:00,2016-04-03 02:51:08,799000/3d17af97d2da2e0630c1081842ff77f7-d.jpg,,
19819457,A Companion to Ælfric (Brill's Companions to the Christian Tradition),,Brill's Companions to the Christian Tradition volume 18,,"Hugh Magennis, Mary Swan",2009,,Brill,,485,0,English,,,,"9004176810,9789004176812",,,,,829,PR1534 .C66 2009,,,OL23192649M,,0,,,,1,0,1,1,2174988,pdf,b011a0b41fed6d732fc26f41828240c7,,,_477801.b011a0b41fed6d732fc26f41828240c7.pdf,0,2000-01-01 01:00:00,2016-04-03 02:51:08,799000/b011a0b41fed6d732fc26f41828240c7-d.jpg,,
19819458,"1Q84 - Livre 2, Juillet-septembere",,,,Haruki Murakami,2011,,BELFOND,,,0,French,,,,9782714451699,,,,,,,,,,,0,,,,,1,,,481635,epub,0f7f7f80973d7f5f6df126f1ee14f1c7,,,_477816.0f7f7f80973d7f5f6df126f1ee14f1c7.epub,0,2000-01-01 01:00:00,2016-04-03 02:51:08,799000/0f7f7f80973d7f5f6df126f1ee14f1c7-g.jpg,,
19819459,,,,Journal of Econometrics (2011) Vol. 161 N° 1,"T. Amemiya, A.R. Gallant, J.F. Geweke, C. Hsiao, P. Robinson, A. Zellner",2011,,Elsevier,,100,0,English,,,,,0304-4076,,,,,,10.1016/j.jec0n0m.2010.09.001,,,periodic,0,,,,1,0,1,1,7234908,pdf,08baf4e8136572b6783c98e670662f40,,ban,_477822.08baf4e8136572b6783c98e670662f40.pdf,0,2000-01-01 01:00:00,2016-04-03 02:51:08,799000/08baf4e8136572b6783c98e670662f40-g.jpg,,
19819460,"God and Globalization: Globalization and Grace (Theology For The 21St Century, 4)",,Theology For The 21St Century volume 4,,Max L. Stackhouse,2007,,T&T Clark Int'l,,285,0,English,,,,"0826428851,9780826428851",,,,,241.624,,,,OL11454270M,,0,,,,1,0,1,1,11145042,pdf,7b5cb218fbbb6595ed93d46f82876f95,,,_477856.7b5cb218fbbb6595ed93d46f82876f95.pdf,0,2000-01-01 01:00:00,2016-04-03 02:51:08,799000/7b5cb218fbbb6595ed93d46f82876f95-d.jpg,,
19819461,"Love Systems Routines Manual, Volume 1.1",,,,"The Don, Savoy",2009,,Love Systems,,198,0,English,,,,,,B002ZRQJ24,,,,,,,,,0,,,,,0,1,1,1900905,pdf,233c5d5d222018102362e3e149efa187,,,_477871.233c5d5d222018102362e3e149efa187.pdf,0,2000-01-01 01:00:00,2016-04-03 02:51:08,799000/233c5d5d222018102362e3e149efa187-g.jpg,,
19819462,"Education and Society in Florentine Tuscany: Teachers, Pupils and Schools, c. 1250-1500 (Education and Society in the Middle Ages and Renaissance)",,Education and Society in the Middle Ages and Renaissance volume 29,,"Black, R.D.",2007,,BRILL,,871,0,English,,,,"9004158537,9789004158535",,,,,370.945/51,LA799.F55 B58 2007,,,OL17944138M,,0,,,,1,0,1,1,2589210,pdf,fab7ed2812591558a2792904c896432c,,,_477873.fab7ed2812591558a2792904c896432c.pdf,0,2000-01-01 01:00:00,2016-04-03 02:51:08,799000/fab7ed2812591558a2792904c896432c-d.jpg,,
19819463,Ritter von Arkon. Atlan 08.,,,,"Perry Rhodan, Hanns Kneifel",1996,,Fantasy Productions,,431,0,German,,,,"3811815075,9783811815070",,,,,833.9,,,,OL12966283M,,0,,,,0,1,0,1,1949672,pdf,0a1d953b5818696ad1b2dd2fe356ad81,,,_477874.0a1d953b5818696ad1b2dd2fe356ad81.pdf,0,2000-01-01 01:00:00,2016-04-03 02:51:08,799000/0a1d953b5818696ad1b2dd2fe356ad81-d.jpg,,
19819464,"Atlan-Zeitabenteuer: Atlan, Bd.10, Balladen des Todes",,,,"Perry Rhodan, Hanns Kneifel, Hans Kneifel",1997,,Fantasy Productions,,431,0,German,,,,"3811815091,9783811815094",,,,,,,,,OL12966285M,,0,,,,0,1,0,1,1780365,pdf,552771582e88bc382e482461df05296e,,,_477877.552771582e88bc382e482461df05296e.pdf,0,2000-01-01 01:00:00,2016-04-03 02:51:08,799000/552771582e88bc382e482461df05296e-d.jpg,,
19819465,Evolution of Rāga and Tāla in Indian Music,,,,M. R. Gautam,1993,2nd,South Asia Books,,290,0,English,,,,"8121504422,9788121504423",,,,,780.954,,,,OL13131359M,,0,,,,,1,,1,11543492,pdf,920f3d7d8101824bd2aa1f97fcf260bb,,,_477880.920f3d7d8101824bd2aa1f97fcf260bb.pdf,0,2000-01-01 01:00:00,2016-04-03 02:51:08,799000/920f3d7d8101824bd2aa1f97fcf260bb-d.jpg,,
19819466,Ecology of Forest Elephant Distribution and its Implications for Conservation,,,,Stephen Blake,2002,,University of Edinburgh,,321,0,English,,,,,,,,,,,,,,,0,,,,1,0,1,1,5409545,pdf,6c833fc483412b222b247301baf7e43f,,,_477897.6c833fc483412b222b247301baf7e43f.pdf,0,2000-01-01 01:00:00,2016-04-03 02:51:08,799000/6c833fc483412b222b247301baf7e43f-g.jpg,,
19819467,Disability Studies: An Interdisciplinary Introduction,,,,Dan Goodley,2011,1,SAGE Publications Ltd,,233,0,English,,,,"1847875580,1847875572,9781847875587,9781847875570",,,,,362.4,HV1568.2 .G665 2011,,xGR9FBbMnW8C,OL25185322M,,0,,,,1,0,1,1,2629499,pdf,dce1b70fc833638f6a297c7918a72df4,,,_477910.dce1b70fc833638f6a297c7918a72df4.pdf,0,2000-01-01 01:00:00,2016-04-03 02:51:08,799000/dce1b70fc833638f6a297c7918a72df4-d.jpg,,
19819468,Chime,,,,Franny Billingsley,2011,,Dial,,,0,English,,,,9781101476048,,,,,,,,,,,0,,,,0,0,1,1,873426,epub,20c364529ba825fb3898343660006b28,,,_477968.20c364529ba825fb3898343660006b28.epub,0,2000-01-01 01:00:00,2016-04-03 02:51:08,799000/20c364529ba825fb3898343660006b28-g.jpg,,
19819469,Inclusive design guidelines for HCI,,,,"Colette Nicolle, Julio Abascal (Eds)",2001,1,Taylor & Francis,,304,0,English,,,,"0748409483,9780748409488",,,,,004/.01/9,QA76.9.H85 N53 2001,,gMk76PpnMCAC,OL22425314M,,0,,,,1,0,1,1,3820341,pdf,dc3b8a151107d80378120ac412924982,,,_477969.dc3b8a151107d80378120ac412924982.pdf,0,2000-01-01 01:00:00,2016-04-03 02:51:08,799000/dc3b8a151107d80378120ac412924982-d.jpg,,
19819470,The World of Marcus Garvey: Race and Class in Modern Society,,,,Judith Stein,1986,,Louisiana State University Press,,319,0,English,,,,"080711670X,9780807116708",,,,,,E185.97.G3 S8 1986,,,OL22105798M,,0,,,,0,1,0,0,36946889,pdf,d8cc591289cca043248115073cd2bb2a,,,_477971.d8cc591289cca043248115073cd2bb2a.pdf,0,2000-01-01 01:00:00,2016-04-03 02:51:08,799000/d8cc591289cca043248115073cd2bb2a-d.jpg,,
19819471,Architecture in France,,,,Philip Jodidio,2006,Bilingual,Taschen,,188,0,Spanish,,,,"3822852570,9783822852576",,,,,720.94409051,,,,OL8946055M,,0,,,,0,1,0,1,32241087,pdf,5bfe7c883413e4b250e5742df3d65a1b,,,_477989.5bfe7c883413e4b250e5742df3d65a1b.pdf,0,2000-01-01 01:00:00,2016-04-03 02:51:08,799000/5bfe7c883413e4b250e5742df3d65a1b-d.jpg,,
19819472,Dark Moon,,,,David Gemmell,1997,paperback / softback,Transworld,,802,0,English,,,,"0552142530,9780552142533",,,,,823.914,,,UWlq2rjYda4C,OL7815094M,,0,,,,,0,0,1,634346,epub,4283458510e7768338b73ee3ffe28abd,,,_477999.4283458510e7768338b73ee3ffe28abd.epub,0,2000-01-01 01:00:00,2016-04-03 02:51:08,799000/4283458510e7768338b73ee3ffe28abd-d.jpg,,
19819473,"Fever Season (Benjamin January, Book 2)",,Benjamin January volume 2,,Barbara Hambly,1999,,Random House Publishing Group,,323,0,English,,,,9780307785282,,,,,813.54,,,9Ugxm7iyHkkC,,,0,,,,,0,1,1,584366,epub,e903ff4822d2580344d00f6b9e92ab8e,,,_478005.e903ff4822d2580344d00f6b9e92ab8e.epub,0,2000-01-01 01:00:00,2016-04-03 02:51:08,799000/e903ff4822d2580344d00f6b9e92ab8e-g.jpg,,
19819474,"Graveyard Dust (Benjamin January, Book 3)",,Benjamin January volume 3,,Barbara Hambly,2000,,Bantam Books,,343,0,English,,,,9780307785299,,,,,,,,3_YxyAbENSUC,,,0,,,,,0,1,1,649722,epub,803676930dc264a8fc78b0dbbe69823a,,,_478006.803676930dc264a8fc78b0dbbe69823a.epub,0,2000-01-01 01:00:00,2016-04-03 02:51:08,799000/803676930dc264a8fc78b0dbbe69823a-g.jpg,,
19819475,Algebra Readiness Made Easy: Grade 6: An Essential Part of Every Math Curriculum (Best Practices in Action),,Best Practices in Action,,"Mary Cavanagh, Carol Findell, Carole Greenes",2008,,Scholastic Teaching Resources,,91,0,English,,,,"0439839394,9780439839396",,,,,,,,ubV5GQAACAAJ,OL10252981M,,0,,,,1,0,1,1,1843062,pdf,73528192413490f04ac87d55f0d1aca3,,,_478038.73528192413490f04ac87d55f0d1aca3.pdf,0,2000-01-01 01:00:00,2016-04-03 02:51:08,799000/73528192413490f04ac87d55f0d1aca3-d.jpg,,
19819476,I greci d'Occidente,,,,Valerio M. Manfredi,2000,,Mondadori,,146,0,Italian,,,,"8804435038,9788804435037",,,,,,,,,,,0,,,,0,0,0,1,1026349,pdf,9c9429d086a7716becf286786d382880,,,_478058.9c9429d086a7716becf286786d382880.pdf,0,2000-01-01 01:00:00,2016-04-03 02:51:08,799000/9c9429d086a7716becf286786d382880-g.jpg,,
19819477,Granice w kulturze,,,,"Redakcja: Andrzej Radomski, Radosław Bomba",2010,,Wydawnictwo Portalu Wiedza i Edukacja,,352,0,Polish,,,,9878361546160,,,,,,,,,,,0,,,,,1,,1,2075615,pdf,181511ef860794d51c58e68f8fd361f4,,,_478072.181511ef860794d51c58e68f8fd361f4.pdf,0,2000-01-01 01:00:00,2016-04-03 02:51:08,799000/181511ef860794d51c58e68f8fd361f4-g.jpg,,
19819478,Genetyka zachowania,,,,Robert Plomin,2001,,Wydawnictwo Naukowe,,230,0,Polish,,,,"8301135689,9788301135683",,,,,,,,,,,0,,,,,1,,1,49274889,pdf,17b603dc0d682691c0af612afbc8db3b,,,_478075.17b603dc0d682691c0af612afbc8db3b.pdf,0,2000-01-01 01:00:00,2016-04-03 02:51:08,799000/17b603dc0d682691c0af612afbc8db3b-g.jpg,,
19819479,Die Goldene Regel. Eine Einführung in die Geschichte der antiken und frühchristlichen Vulgärethik,,Studienhefte zur Altertumswissenschaft volume 7,,Albrecht Dihle,1962,,Vandenhoeck & Ruprecht,,137,0,German,,,,,,,,,,,,,,,0,,,,1,1,1,1,7925348,pdf,daba1deef284983916e6812e0dee5cef,,,_478098.daba1deef284983916e6812e0dee5cef.pdf,0,2000-01-01 01:00:00,2016-04-03 02:51:08,799000/daba1deef284983916e6812e0dee5cef-g.jpg,,
19819480,Nati per credere: perché il nostro cervello sembra predisposto a fraintendere la teoria di Darwin,,,,"Vittorio Girotto, Telmo Pievani, Giorgio Vallortigara",2008,,Codice,,212,0,Italian,,,,"8875781109,9788875781101",,,,,153,,,,,,600,,,,1,1,1,1,8832531,pdf,8ad51955c87f8d3ef028dbe9ef82354a,,,_478099.8ad51955c87f8d3ef028dbe9ef82354a.pdf,0,2000-01-01 01:00:00,2016-04-03 02:51:08,799000/8ad51955c87f8d3ef028dbe9ef82354a-g.jpg,,
19819481,Spanish-English English-Spanish Beginner's Dictionary,,,,"Gladys C. Lipton, Olivia Muñoz",2009,4th,Barron's Educational Series,,458,0,English,,,,"0764139681,9780764139680",,,,,463/.21,PC4628 .L5 2009,,iEZMKvglkVwC,OL23677058M,,0,,,,1,0,1,1,4031152,pdf,b843815124898161a6a18f08928e63ef,,,_478101.b843815124898161a6a18f08928e63ef.pdf,0,2000-01-01 01:00:00,2016-04-03 02:51:08,799000/b843815124898161a6a18f08928e63ef-d.jpg,,
19819482,To Bee or Not to Bee: A Book for Beeings Who Feel There's More to Life Than Just Making Honey,,,,"John Penberthy, Laurie Barrows",2007,First Printing,Sterling,,144,0,English,,,,"1402747659,9781402747656",,,,,128,,,,OL8394665M,,0,,,,0,1,0,0,19652024,pdf,1a54c0e832cec70815535c9baca0df09,,,_478109.1a54c0e832cec70815535c9baca0df09.pdf,0,2000-01-01 01:00:00,2016-04-03 02:51:08,799000/1a54c0e832cec70815535c9baca0df09-d.jpg,,
19819483,Elements of X-Ray Diffraction . A Volume in Addison-Wesley Series in Metallurgy and Materials.,,,,B.D. Cullity,1959,,Addison-Wesley,,519,0,English,,,,,,,,,,,,,,,0,,,,,1,0,1,34475758,pdf,15e700585414a1f4810112592c390bad,,,_478112.15e700585414a1f4810112592c390bad.pdf,0,2000-01-01 01:00:00,2016-04-03 02:51:08,799000/15e700585414a1f4810112592c390bad-g.jpg,,
19819484,Digital Color Imaging Handbook (Electrical Engineering & Applied Signal Processing Series),,,,"Gaurav Sharma, Raja Bala",2002,1,CRC Press,,763,0,English,,,,"084930900X,9780849309007",,,,,621.367,,,,OL18186590M,,0,,,,,1,1,1,14646392,pdf,11db8306845ab9486e557d64b06af183,,,_478118.11db8306845ab9486e557d64b06af183.pdf,0,2000-01-01 01:00:00,2016-04-03 02:51:08,799000/11db8306845ab9486e557d64b06af183-d.jpg,,
19819485,Diagnostic Imaging: Brain,,,,"Anne Osborn, Susan Blaser, Karen Salzman",2004,1,AMIRSYS,,1053,0,English,,,,"0721629059,9780721629056",,,,,616.804757,,,,OL7862920M,,0,,,,,1,1,1,215973868,pdf,99964be23f69232bd74d88f481381e9f,,,_478122.99964be23f69232bd74d88f481381e9f.pdf,0,2000-01-01 01:00:00,2016-04-03 02:51:08,799000/99964be23f69232bd74d88f481381e9f-d.jpg,,
19819486,Top 10 Italian Lakes (Eyewitness Top 10 Travel Guides),,Eyewitness Top 10 Travel Guides,,"Lucy Ratcliffe, Helena Smith",2011,Pap/Map,DK Travel,,130,0,English,,,,"0756657946,9780756657949",,,,,914.520493,,,Q_rIR0gYabIC,,,0,,,,1,0,1,1,9841097,pdf,6e083ec1a48823863f90e66300474172,,,_478148.6e083ec1a48823863f90e66300474172.pdf,0,2000-01-01 01:00:00,2016-04-03 02:51:08,799000/6e083ec1a48823863f90e66300474172-d.jpg,,
19819487,Good To Great And The Social Sectors: A Monograph to Accompany Good to Great,,,,Jim Collins,2011,,Harper Paperbacks,,,0,English,,,,,,B0058DRTGC,,,,,,,,,0,,,,,0,1,1,991250,epub,71aefd5ee8482527a5512125df54b021,,,_478175.71aefd5ee8482527a5512125df54b021.epub,0,2000-01-01 01:00:00,2016-04-03 02:51:08,799000/71aefd5ee8482527a5512125df54b021-g.jpg,,
19819488,How I Sold 1 Million eBooks in 5 Months,,,,John Locke,2011,,"Telemachus Press, LLC",,170,0,English,,,,"1935670913,9781935670919",,,,,808.020285,,,,,,0,,,,,0,0,1,208596,epub,f701ad4fbb93c7e6bedf283669634fb7,,,_478183.f701ad4fbb93c7e6bedf283669634fb7.epub,0,2000-01-01 01:00:00,2016-04-03 02:51:08,799000/f701ad4fbb93c7e6bedf283669634fb7-d.jpg,,
19819489,Germany 1866-1945 (Oxf History Modern Europe Ncs),,,,Gordon A. Craig,1980,New Ed,Oxford University Press,,842,0,English,,,,"0192851012,9780192851017",,,,,943.08,DD220 .C72 1980b,,,OL17917548M,,0,,,,0,1,1,1,2037702,epub,eff281285af214c3cb2299f425deaf67,,,_478187.eff281285af214c3cb2299f425deaf67.epub,0,2000-01-01 01:00:00,2016-04-03 02:51:08,799000/eff281285af214c3cb2299f425deaf67-d.jpg,,
19819490,"Cálculo Diferencial e Integral de Funções de Várias Variáveis, 3ª Edição",,,,"Diomara Pinto, Maria Cândida Ferreira Morgado",2000,3ª Edição,Editora UFRJ,,360,0,Portuguese,,,,9788571082199,,,,,,,,,,,0,,,,,1,1,0,106607216,pdf,79e7767aab62183181f52817c599b456,,,_478200.79e7767aab62183181f52817c599b456.pdf,0,2000-01-01 01:00:00,2016-04-03 02:51:08,799000/79e7767aab62183181f52817c599b456-g.jpg,,
19819491,"Science in the Spanish and Portuguese Empires, 1500-1800",,,,"Daniela Bleichmar, Paula De Vos, Kristin Huffine, Kevin Sheehan (editors)",2008,,Stanford University Press,,454,0,English,,,,"080475358X,9780804753586",,,,,509.03,Q127.L38 S36 2009,,,OL22552015M,,0,,,,1,0,1,1,6567601,pdf,751e8314aad3c8095382b9a30bff4c88,,,_478204.751e8314aad3c8095382b9a30bff4c88.pdf,0,2000-01-01 01:00:00,2016-04-03 02:51:08,799000/751e8314aad3c8095382b9a30bff4c88-d.jpg,,
19819492,Welding Handbook: Welding Technology VOLUME 1 8th edition,,,,American Welding Society,1987,8,American Welding Society,,638,0,English,,,,"0871712814,9780871712813",,,,,671.5/2,TS227 .W387 1987,,,OL2413794M,,0,,,,,1,,1,57139500,pdf,642ead7dc72973bae947c7dd72580416,,,_478226.642ead7dc72973bae947c7dd72580416.pdf,0,2000-01-01 01:00:00,2016-04-03 02:51:08,799000/642ead7dc72973bae947c7dd72580416-g.jpg,,
19819493,Türk Dilinin Etimolojik Sözlüğü,,,,Hasan Eren,1999,1. bask,TDK,,272,0,Turkish,,,,9759457709,,,,,494/.352/03,PL183.5 .E74 1999,,2EJkAAAAMAAJ,OL147878M,,0,,,,1,1,0,0,49377087,pdf,ab41451e3380891015260d9ba141ae5f,,,_478260.ab41451e3380891015260d9ba141ae5f.pdf,0,2000-01-01 01:00:00,2016-04-03 02:51:08,799000/ab41451e3380891015260d9ba141ae5f-g.jpg,,
19819494,Chomsky on Anarchism,,,,Noam Chomsky,2005,,AK Press,,242,0,English,,,,"1904859208,9781904859208",,,,,335.83,,,chopy4Zh5LkC,OL8773895M,,0,,,,1,1,1,1,4763739,pdf,42a80d4351b2541c7153c2aecef83774,,,_478271.42a80d4351b2541c7153c2aecef83774.pdf,0,2000-01-01 01:00:00,2016-04-03 02:51:08,799000/42a80d4351b2541c7153c2aecef83774-d.jpg,,
19819495,Anarchism and Its Aspirations,,Anarchist Interventions volume 1,,Cindy Milstein,2010,,AK Press,,152,0,English,,,,"1849350019,9781849350013",,,,,335.8309,,,FILkkYkSsCAC,OL25083522M,,0,,,,1,0,1,1,1494255,pdf,b1bdcfba828417946098fba9e493d093,,,_478285.b1bdcfba828417946098fba9e493d093.pdf,0,2000-01-01 01:00:00,2016-04-03 02:51:08,799000/b1bdcfba828417946098fba9e493d093-d.jpg,,
19819496,Experimenting with the quantum world,,,,S T Lakshmikumar,2007,,,,191,0,English,,,,,,,,,,,,,,NO,0,,,,0,1,0,1,3407259,pdf,383592326dd1b2959d5fedec5f7d832d,,,_478295.383592326dd1b2959d5fedec5f7d832d.pdf,0,2000-01-01 01:00:00,2016-04-03 02:51:08,799000/383592326dd1b2959d5fedec5f7d832d-g.jpg,,
19819497,Brain Facts: A Primer on the Brain and Nervous System 6th Edition,,,,Society for Neuroscience,2008,,Society for Neuroscience,,79,0,English,,,,"0607082348,9780607082340",,,,,612.8 22,QP355.2 .B73 2002,,,,,0,,,,1,0,1,1,1587443,pdf,8b9b4db8178291eb3ac4c049865122dd,,,_478305.8b9b4db8178291eb3ac4c049865122dd.pdf,0,2000-01-01 01:00:00,2016-04-03 02:51:08,799000/8b9b4db8178291eb3ac4c049865122dd-g.jpg,,
19819498,The Drunkard's Walk: How Randomness Rules Our Lives,,,,Leonard Mlodinow,2009,,Vintage,,,0,English,,,,9780307377548,,,,,519.2,,,,OL24276018M,,0,,,,,1,,,717080,epub,89fd8fc80507cc22c12215a164f60410,,,_478308.89fd8fc80507cc22c12215a164f60410.epub,0,2000-01-01 01:00:00,2016-04-03 02:51:08,799000/89fd8fc80507cc22c12215a164f60410-g.jpg,,
19819499,Mit kollegialen Grüßen ...: Sprachdummheiten in der Medizin,,,,Reiner W. Heckl,2006,"3., bearb. u. erw. Aufl.",Steinkopff,,126,0,German,,,,"3798516189,9783798516182",,,,,430,,,,OL12921960M,,0,,,,,1,,1,1080165,pdf,b408d47ef4d80693f3f165f1d1d5e199,,,_478316.b408d47ef4d80693f3f165f1d1d5e199.pdf,0,2000-01-01 01:00:00,2016-04-03 02:51:08,799000/b408d47ef4d80693f3f165f1d1d5e199-d.jpg,,
19819500,"Precautionary Risk Management: Dealing with Catastrophic Loss Potentials in Business, The Community and Society",,,,Mark Jablonowski,2006,,Palgrave Macmillan,,183,0,English,,,,"023001352X,9780230013520",,,,,,,,Gs1wQgAACAAJ,OL10194092M,,0,,,,1,0,1,1,654825,pdf,973a60dee329a283193b6390f026596a,,,_478319.973a60dee329a283193b6390f026596a.pdf,0,2000-01-01 01:00:00,2016-04-03 02:51:08,799000/973a60dee329a283193b6390f026596a-d.jpg,,
19819501,Peru (Eyewitness Travel Guides),,DK Eyewitness Travel Guides,,"Nigel Hicks, Linda Whitwam",2010,revised,DK Travel,,354,0,English,,,,"0756661889,9780756661885",,,,,918.504644,,,d2NBQQAACAAJ,,,0,,,,1,0,1,1,42796595,pdf,f55b382981d96575ceaf25a72b40e6a6,,,_478342.f55b382981d96575ceaf25a72b40e6a6.pdf,0,2000-01-01 01:00:00,2016-04-03 02:51:08,799000/f55b382981d96575ceaf25a72b40e6a6-d.jpg,,
19819502,(21 العطایا النبویہ فی الفتاویٰ الرضویہ  (جلد,,,,اعلیٰ حضرت، مجدد دین و ملت الشاہ امام احمد رضا خان قادری بریلوی علیہ الرحمہ,,,"Raza Foundation, Jamia Nizamia Razvia (AlaHazratNetwork)",,662,0,Urdu,,,,,,,,,,,,,,,0,,,,1,1,0,0,58024596,pdf,c9481112dbae89c35d6e1ab556ebb283,,,_478353.c9481112dbae89c35d6e1ab556ebb283.pdf,0,2000-01-01 01:00:00,2016-04-03 02:51:08,799000/c9481112dbae89c35d6e1ab556ebb283-g.jpg,,
19819503,My First Pocket Guide to Wisconsin,,,,Carole Marsh,2011,,Gallopade International,,100,0,English,,,,,,,,,,,,,,,0,,,,1,0,1,1,5761027,pdf,733d8b59995011fae83507ebee7d5314,,,_478377.733d8b59995011fae83507ebee7d5314.pdf,0,2000-01-01 01:00:00,2016-04-03 02:51:08,799000/733d8b59995011fae83507ebee7d5314-g.jpg,,
19819504,Dictionary of Twentieth-Century Art,,,,Ian Chilvers,1998,,Oxford University Press,,,0,English,,,,,,,,,,,,,,,0,,,,,0,,1,1391064,mobi,e9830340fe11598963c7e1653ac31eb4,,,_478386.e9830340fe11598963c7e1653ac31eb4.mobi,0,2000-01-01 01:00:00,2016-04-03 02:51:08,799000/e9830340fe11598963c7e1653ac31eb4-g.jpg,,
19819505,A Dictionary of Twentieth Century World History,,,,Jan Palmowski,1997,,Oxford University Press,,,0,English,,,,,,,,,,,,,,,0,,,,,0,,1,2679836,mobi,17570bdb2835141b896f7815e028fd20,,,_478389.17570bdb2835141b896f7815e028fd20.mobi,0,2000-01-01 01:00:00,2016-04-03 02:51:08,799000/17570bdb2835141b896f7815e028fd20-g.jpg,,
19819506,Oxford Dictionary of Finance and Banking,,,,"Brian Butler, David Butler, Alan Isaacs, editors",2002,,Oxford University Press,,,0,English,,,,,,,,,,,,,,,0,,,,,0,,1,697348,mobi,5e6b83328f8d6ff67175c06aea117f7d,,,_478400.5e6b83328f8d6ff67175c06aea117f7d.mobi,0,2000-01-01 01:00:00,2016-04-03 02:51:08,799000/5e6b83328f8d6ff67175c06aea117f7d-g.jpg,,
19819507,Le classi sociali negli anni '80,,,,Paolo Sylos Labini,1986,1a ed,Laterza,,279,0,Italian,,,,8842026883,,,,,,,,,OL2315243M,,0,,,,0,1,0,1,26876207,pdf,e9effa24633cc6c34667bcaea2816804,,,_478414.e9effa24633cc6c34667bcaea2816804.pdf,0,2000-01-01 01:00:00,2016-04-03 02:51:08,799000/e9effa24633cc6c34667bcaea2816804-d.jpg,,
19819508,La papessa,,,,Donna Woolfolk Cross,2010,,Newton Compton,,358,0,Italian,,,,9788854111233,,,,,,,,,,,0,,,,0,1,0,1,2375081,pdf,e1f145fb67483170855d84e2838226bb,,,_478418.e1f145fb67483170855d84e2838226bb.pdf,0,2000-01-01 01:00:00,2016-04-03 02:51:08,799000/e1f145fb67483170855d84e2838226bb-g.jpg,,
19819509,Oxford dictionary of Political Biography,,,,Dennis Kavanagh,1998,,Oxford University Press,,,0,English,,,,,,,,,,,,,,,0,,,,,0,,1,998944,mobi,0f7ffce375ce3748054289cd341a2dd5,,,_478436.0f7ffce375ce3748054289cd341a2dd5.mobi,0,2000-01-01 01:00:00,2016-04-03 02:51:08,799000/0f7ffce375ce3748054289cd341a2dd5-g.jpg,,
19819510,Real Vampires Have More to Love,,,,Gerry Bartlett,2010,,Berkley Books,,359,0,English,,,,"1101441747,9781101441749",,,,,,PS3602.A83945R4285 2010,,Bf1eJXfYAA4C,,,0,,,,1,0,1,1,1017065,pdf,bac62d9f71a80778df5f2d3fca42aa6b,,,_478463.bac62d9f71a80778df5f2d3fca42aa6b.pdf,0,2000-01-01 01:00:00,2016-04-03 02:51:08,799000/bac62d9f71a80778df5f2d3fca42aa6b-g.jpg,,
19819511,Ненецко-русский словарь,,,,Хомич Л. В.,1954,,Ленинградское отделение Учпедгиза,,123,0,"Russian, Nenets",322,,0,,,,,,,,,,,,600,0,1,0,0,1,1,1,7142515,pdf,42195827209e36836a25dc2f24d26d82,,,_478471.42195827209e36836a25dc2f24d26d82.pdf,0,2000-01-01 01:00:00,2016-04-03 02:51:08,799000/42195827209e36836a25dc2f24d26d82-g.jpg,,
19819512,Head First Algebra: A Learner's Guide to Algebra I,,,,"Dan Pilone, Tracey Pilone",2009,1,O'Reilly Media,,560,0,English,,,,"0596514867,9780596514860",,,,,512,QA155 .P54 2009,,,OL23693540M,,0,,,,,1,,1,26247294,pdf,dcc66cb436d4b7f137d7b6dbc81728aa,,,_478477.dcc66cb436d4b7f137d7b6dbc81728aa.pdf,0,2000-01-01 01:00:00,2016-04-03 02:51:08,799000/dcc66cb436d4b7f137d7b6dbc81728aa-d.jpg,,
19819513,"Problem Solving Cases in Microsoft Access and Excel, 9th Edition",,,,"Ellen Monk, Joseph Brady, Gerard S. Cook",2011,9th Edition,Course Technology,,290,0,English,76,,,"1111820511,9781111820510",,,,,,,,,,,0,,,,1,0,1,1,17989552,pdf,dce6da6837506c112f6842e67c668e38,,,_478479.dce6da6837506c112f6842e67c668e38.pdf,0,2000-01-01 01:00:00,2016-04-03 02:51:08,799000/dce6da6837506c112f6842e67c668e38-d.jpg,,
19819514,Les origines de la vie : &Eacute;mergence ou explication réductive ?,,,,Christophe Malaterre,2010,,Hermann,,274,0,French,,,,"2705670335,9782705670337",,,,,194,,,NcRKewAACAAJ&am,OL24835864M,,0,,,,1,0,1,1,2306335,pdf,405c36abefb79d2381750a290da6dcd6,,,_478482.405c36abefb79d2381750a290da6dcd6.pdf,0,2000-01-01 01:00:00,2016-04-03 02:51:08,799000/405c36abefb79d2381750a290da6dcd6-d.jpg,,
19819515,70s Funk & Disco Bass: 101 Groovin' Bass Patterns,,,,Josquin des Pres,2001,,Hal Leonard Corporation,,29,0,English,,,,"0634028561,9780634028564",,,,,787.8716,,,,OL7622798M,"missing pages 30,31",0,,,,0,1,0,0,49818992,pdf,f4e82db51a1c63b3ffc8213159999cac,,,_478511.f4e82db51a1c63b3ffc8213159999cac.pdf,0,2000-01-01 01:00:00,2016-04-03 02:51:08,799000/f4e82db51a1c63b3ffc8213159999cac-d.jpg,,
19819516,"Our Bodies, Ourselves: Menopause",,,,"Boston Women's Health Book Collective, Judy Norsigian",2006,Original,Touchstone,,368,0,English,,,,"0743274873,9780743274876",,,,,618.175,,,,OL17240830M,,0,,,,,1,,0,53308268,pdf,012d3c0621bf4e80868fe5550ad3d609,,,_478515.012d3c0621bf4e80868fe5550ad3d609.pdf,0,2000-01-01 01:00:00,2016-04-03 02:51:08,799000/012d3c0621bf4e80868fe5550ad3d609-d.jpg,,
19819517,"Schweser Notes, 2011 CFA Exam, Level 3- Book 2 – Institutional Investors, Capital Market Expectations, Economic Concepts, and Asset Allocation",,,,Schweser Kaplan,,,,,256,0,English,,,,"978-1-4277-2730-5,1-4277-2730-9",,,,,,,,,,,0,,,,,1,,1,3974144,pdf,766ef998de044a76e80545c567c8cacb,,,_478524.766ef998de044a76e80545c567c8cacb.pdf,0,2000-01-01 01:00:00,2016-04-03 02:51:08,799000/766ef998de044a76e80545c567c8cacb-g.jpg,,
19819518,Kształtowanie struktury i własności powierzchni materiałów inżynierskich i biomedycznych,,,,Leszek A. Dobrzański,,,,,171,0,Polish,,,,"8389728524,9788389728524",,,,,,,,,,,0,,,,,1,,0,79303651,pdf,c78a3f442a8d7e30dadc8c78347073fe,,,_478528.c78a3f442a8d7e30dadc8c78347073fe.pdf,0,2000-01-01 01:00:00,2016-04-03 02:51:08,799000/c78a3f442a8d7e30dadc8c78347073fe-g.jpg,,
19819519,Pedeutologia,,,,Henryka Kwiatkowska,2008,,Wydawnictwa Akademickie i Profesjonalne,,256,0,Polish,,,,"8360501270,9788360501276",,,,,,,,,,,0,,,,,0,,1,1632938,pdf,728f137791ef2812822b7d03a3785edb,,,_478533.728f137791ef2812822b7d03a3785edb.pdf,0,2000-01-01 01:00:00,2016-04-03 02:51:08,799000/728f137791ef2812822b7d03a3785edb-g.jpg,,
19819520,A Rule of Property for Bengal: An Essay on the Idea of Permanent Settlement,,,,Ranajit Guha,1982,2,Stosius Inc/Advent Books Division,,64,0,English,,,,"0861312899,9780861312894",,,,,"343.54/140542,345.41403542",LAW,,,OL3093014M,,0,,,,0,1,0,0,4408900,pdf,2f19c1bf9904095478fab838197076ea,,,_478538.2f19c1bf9904095478fab838197076ea.pdf,0,2000-01-01 01:00:00,2016-04-03 02:51:08,799000/2f19c1bf9904095478fab838197076ea-d.jpg,,
19819521,Statistics for Corpus Linguistics (Edinburgh Textbooks in Empirical Linguistics),,Edinburgh Textbooks in Empirical Linguistics,,Michael P. Oakes,1998,,Edinburgh University Press,,319,0,English,,,,"0748608176,0748610324,9780748610327,9780585137742,9780748608171",,,,,410/.285,P98.5.S83 O18 1998,,,OL482599M,,0,,,,1,0,1,1,1490123,pdf,e68f9538b28035789ccd9755172978c4,,,_478539.e68f9538b28035789ccd9755172978c4.pdf,0,2000-01-01 01:00:00,2016-04-03 02:51:08,799000/e68f9538b28035789ccd9755172978c4-d.jpg,,
19819522,Principles of Condensed Matter Physics,,,,"Paul M. Chaikin, Tom C. Lubensky",1995,1,Cambridge University Press,,717,0,English,,,,"0521432243,9780521432245",,,,,530.4/1,QC173.454 .C48 1995,,,OL1432688M,,0,,,,,1,0,1,17956750,pdf,92e35a1acf6ac83473b47140911e792b,,,_478540.92e35a1acf6ac83473b47140911e792b.pdf,0,2000-01-01 01:00:00,2016-04-03 02:51:08,799000/92e35a1acf6ac83473b47140911e792b-d.jpg,,
19819523,"A study of history, Volume 5 - Disintegration of Civilizations",,12 Volumes,,"Arnold Joseph Toynbee, Royal Institute of International Affairs",1955,,Oxford University Press,,716,0,English,,,,,,,,,,,,PMUIAQAAIAAJ,,,0,,,,0,1,0,0,71626176,pdf,668203645a300c501b30d1b9bc39531a,,,_478572.668203645a300c501b30d1b9bc39531a.pdf,0,2000-01-01 01:00:00,2016-04-03 02:51:08,799000/668203645a300c501b30d1b9bc39531a-g.jpg,,
19819524,Filozofija zla,,Teorija,,Laš Fr. H. Svensen,2006,,Geopoetika,,260,0,Serbian,,,,"8676661065,9788676661060",,,,,,,,L2aVAAAACAAJ,,,0,,,,,1,,0,13245633,pdf,53c0f4e2fd43479d43e3db0183228a04,,,_478587.53c0f4e2fd43479d43e3db0183228a04.pdf,0,2000-01-01 01:00:00,2016-04-03 02:51:08,799000/53c0f4e2fd43479d43e3db0183228a04-g.jpg,,
19819525,"Accelerants: Twelve Strategies to Sell Faster, Close Deals Faster, and Grow Your Business Faster",,,,Michael A. Boylan,2006,First,Portfolio Hardcover,,240,0,English,,,,"159184150X,9781591841500",,,,,658.4/092,HD2746 .B69 2007,,,OL17886065M,,0,,,,,0,1,1,1051125,epub,9335ec53c8292413eb0fbfd71837b7a2,,,_478598.9335ec53c8292413eb0fbfd71837b7a2.epub,0,2000-01-01 01:00:00,2016-04-03 02:51:08,799000/9335ec53c8292413eb0fbfd71837b7a2-d.jpg,,
19819526,"The Progress Principle: Using Small Wins to Ignite Joy, Engagement, and Creativity at Work",,,,"Teresa Amabile, Steven Kramer",2011,,Harvard Business Press,,272,0,English,,,,"142219857X,9781422198575",,,,,658.3/14,HF5549.5.M63 A58 2011,,,OL25148989M,,0,,,,,0,1,1,661507,epub,811400f197c5109a67371cee99aa922d,,,_478604.811400f197c5109a67371cee99aa922d.epub,0,2000-01-01 01:00:00,2016-04-03 02:51:08,799000/811400f197c5109a67371cee99aa922d-d.jpg,,
19819527,Making Work Visible: Ethnographically Grounded Case Studies of Work Practice,,"Learning in Doing: Social, Cognitive and Computational Perspectives",,"Margaret H. Szymanski (ed.), Jack Whalen (ed.)",2011,1st,Cambridge University Press,,406,0,English,,,0,"0521176654,9780521176651,052119072X,9780521190725",,,,,,,,HuC9Zf7IRywC,,,0,,,,1,0,1,1,3071549,pdf,eb9fe82ba0a3b4f81500ed4b02c96586,,,_478606.eb9fe82ba0a3b4f81500ed4b02c96586.pdf,0,2000-01-01 01:00:00,2016-04-03 02:51:08,799000/eb9fe82ba0a3b4f81500ed4b02c96586-d.jpg,,
19819528,"Women at the Top: Challenges, Choices and Change",,,,Marianne Coleman,2011,,Palgrave Macmillan,,229,0,English,,,,"0230252206,9780230252202",,,,,658.40082,HD6054.3 .C646 2011,,-r9FYgEACAAJ,OL24809071M,,0,,,,1,0,1,1,1922127,pdf,3e903788dd7683085cca50478be42015,,,_478623.3e903788dd7683085cca50478be42015.pdf,0,2000-01-01 01:00:00,2016-04-03 02:51:08,799000/3e903788dd7683085cca50478be42015-d.jpg,,
19819529,Well-being: Productivity and Happiness at Work,,,,"Cary Cooper, Ivan Robertson",2011,,Palgrave Macmillan,,241,0,English,,,,"0230249957,9780230249950",,,,,658.314,HD6955 .R59 2011,,zFM9iFnu0XwC,OL25062913M,,0,,,,1,0,1,1,1206547,pdf,83369c188a88367209eb8519196e17f9,,,_478624.83369c188a88367209eb8519196e17f9.pdf,0,2000-01-01 01:00:00,2016-04-03 02:51:08,799000/83369c188a88367209eb8519196e17f9-d.jpg,,
19819530,"Transnational Actors in Global Governance: Patterns, Explanations and Implications (Democracy Beyond the Nation State? Transnational Actors and Global Governance)",,Democracy Beyond the Nation State? Transnational Actors and Global Governance,,"Jonas Tallberg, Christer J u00f6nsson",2010,,Palgrave Macmillan,,275,0,English,,,,"0230239056,9780230239050",,,,,341.2,,,8T5DAQAAIAAJ,,,0,,,,1,0,1,1,2329623,pdf,da0874b83444a37ac2b412023ceadddf,,,_478628.da0874b83444a37ac2b412023ceadddf.pdf,0,2000-01-01 01:00:00,2016-04-03 02:51:08,799000/da0874b83444a37ac2b412023ceadddf-d.jpg,,
19819531,Transatlantic Diplomacy and the Use of Military Force in the Post-Cold War Era,,,,Mark Wintz,2010,,Palgrave Macmillan,,255,0,English,,,,"0230103839,9780230103832",,,,,355/.03351821,UA23 .W4857 2010,,liP5QwAACAAJ,OL24110319M,,0,,,,1,0,1,1,2555584,pdf,824560c1c432e6d2b82621edf31c99bd,,,_478635.824560c1c432e6d2b82621edf31c99bd.pdf,0,2000-01-01 01:00:00,2016-04-03 02:51:08,799000/824560c1c432e6d2b82621edf31c99bd-d.jpg,,
19819532,Understanding and Regulating the Market At A Time of Globalization: The Case of the Cement Industry,,,,"Herve Dumez, Alain Jeunemaetre",2000,,Palgrave Macmillan,,255,0,English,,,,"0312226225,9780312226220",,,,,338.4/766694,HD9622.A2 D86 1999,,k7j7fN0325cC,OL10387612M,,0,,,,1,0,1,1,13258408,pdf,ae260a3cb6578f052f59678259371f95,,,_478644.ae260a3cb6578f052f59678259371f95.pdf,0,2000-01-01 01:00:00,2016-04-03 02:51:08,799000/ae260a3cb6578f052f59678259371f95-d.jpg,,
19819533,El cuerpo y la moda : Una visión sociológica,,,,Joanne Entwistle,2002,Tra,Paidos Iberica Ediciones S a,,309,0,Spanish,,,,"8449312582,9788449312588",,,,,391,,,,OL13272902M,,0,,,,,1,,1,2140926,pdf,4cab3241bb1cf679d65248983037c6ec,,,_478662.4cab3241bb1cf679d65248983037c6ec.pdf,0,2000-01-01 01:00:00,2016-04-03 02:51:08,799000/4cab3241bb1cf679d65248983037c6ec-d.jpg,,
19819534,The Luminist,,,,David Rocklin,2011,,Hawthorne Books,,,0,English,,,,9780983477518,,,,,813.6,,,,,,0,,,,0,0,1,1,471681,epub,e56ca37b6b9be93db5169acf8109530d,,,_478677.e56ca37b6b9be93db5169acf8109530d.epub,0,2000-01-01 01:00:00,2016-04-03 02:51:08,799000/e56ca37b6b9be93db5169acf8109530d-g.jpg,,
19819535,"Kaplan GRE & GMAT Exams; Writing Workbook, 3rd Edition",,,,Kaplan,2008,3rd,Kaplan Publishing,,232,0,English,,,,,,,,,,,,fYh612wFxtQC,,,0,,,,0,0,1,1,4195637,epub,6c96df8fd0af10372e57b5f823728d67,,,_478683.6c96df8fd0af10372e57b5f823728d67.epub,0,2000-01-01 01:00:00,2016-04-03 02:51:08,799000/6c96df8fd0af10372e57b5f823728d67-g.jpg,,
19819536,Fool Moon,,The Dresden Files volume 2,,Jim Butcher,2010,,Roc,,,0,English,,,,,,,,,,,,,,,0,,,,0,0,1,1,357485,epub,d6a8e8cd9e3bbbfc6809421cdfc29d0e,,,_478709.d6a8e8cd9e3bbbfc6809421cdfc29d0e.epub,0,2000-01-01 01:00:00,2016-04-03 02:51:08,799000/d6a8e8cd9e3bbbfc6809421cdfc29d0e-g.jpg,,
19819537,NorFor - The Nordic Feed Evaluation System (Eaap Publication),,EAAP – European Federation of Animal Science,,Harald Volden,2010,1,Wageningen Academic Publishers,,181,0,English,,,,"9086861628,9789086861620",0071-2477,,,,,,10.3920/978-90-8686-718-9,26_YD3PHHokC,,,0,,,,1,0,1,1,3402534,pdf,dbe68345959191801a1f34517e91dda9,,,_478722.dbe68345959191801a1f34517e91dda9.pdf,0,2000-01-01 01:00:00,2016-04-03 02:51:08,799000/dbe68345959191801a1f34517e91dda9-d.jpg,,
19819538,"Grace, Reconciliation, Concord: The Death of Christ in Greco-Roman Metaphors",,Supplements to Novum Testamentum,,Cilliers Breytenbach,2010,,Brill Academic Pub,,383,0,German,,,,"9004186085,9789004186088",0167-9732,,,,232.963,,,,,,0,,,,1,0,1,1,1924681,pdf,0edf9381040cf867bc4ba944219c8164,,,_478730.0edf9381040cf867bc4ba944219c8164.pdf,0,2000-01-01 01:00:00,2016-04-03 02:51:08,799000/0edf9381040cf867bc4ba944219c8164-d.jpg,,
19819539,Sound Reading,,,,Donald L. Bouchard,1982,,"English Teaching Division, Educational and Cultural Affairs, International Communication",,106,0,English,,,,,,,,,,,,,,,0,,,,0,1,1,0,1527505,djvu,e0874240c03b4c1783682fb3d4376cdc,1c64438e286ca76d1f09231771c3fd57,no,_478738.e0874240c03b4c1783682fb3d4376cdc.djvu,0,2000-01-01 01:00:00,2016-04-03 02:51:08,799000/e0874240c03b4c1783682fb3d4376cdc-g.jpg,,
19819540,Song of Songs: A Close Reading (Supplements to Vetus Testamentum),,Supplements to Vetus Testamentum volume 144,,Gianni Barbiero,2011,,BRILL,,561,0,English,,,,"9004203257,9789004203259",0083-5889,,,,223/.9077,BS1485.53 .B3713 2011,,,OL24823462M,,0,,,,1,0,1,1,1678046,pdf,58f312e49830424ae439da2d904426bd,,,_478745.58f312e49830424ae439da2d904426bd.pdf,0,2000-01-01 01:00:00,2016-04-03 02:51:08,799000/58f312e49830424ae439da2d904426bd-d.jpg,,
19819541,Psychologie der Menschenführung: Wie Sie Führungsstärke und Autorität entwickeln,,,,"Michael Paschen, Erich Dihsmaier",2011,2012,Springer,,267,0,German,,,,"3642198775,9783642198779",,,,,,,,yCNXJKbGm9UC,,,0,,,,1,0,1,1,3116601,pdf,348113d00053427f55ef28817821558f,,,_478781.348113d00053427f55ef28817821558f.pdf,0,2000-01-01 01:00:00,2016-04-03 02:51:08,799000/348113d00053427f55ef28817821558f-d.jpg,,
19819542,Fuoco amico,,,,Giuliana Sgrena,2005,,Feltrinelli,,96,0,Italian,,,,8807171120,,,,,,,,,OL20854934M,,0,,,,0,1,0,1,2079242,pdf,957822667ca8f5a9b816154d696aab24,,,_478810.957822667ca8f5a9b816154d696aab24.pdf,0,2000-01-01 01:00:00,2016-04-03 02:51:08,799000/957822667ca8f5a9b816154d696aab24-d.jpg,,
19819543,"A study of history, Volume 7 - Universal Churches",,,,"Arnold Joseph Toynbee, Edward DeLos Myers, Royal Institute of International Affairs",1954,,Oxford University Press,,817,0,English,,,,,,,,,,,,,,,0,,,,0,1,0,1,39142607,pdf,8402e581c791990aeddd1d6b81693ea8,,,_478841.8402e581c791990aeddd1d6b81693ea8.pdf,0,2000-01-01 01:00:00,2016-04-03 02:51:08,799000/8402e581c791990aeddd1d6b81693ea8-g.jpg,,
19819544,Dental Assisting Coloring Book,,,,"Donna J. Phinney, Judy H. Halstead",2010,1,Delmar Cengage Learning,,418,0,English,,,,"1439059314,9781439059319",,,,,617.60233,,,lSF30epzvJ4C,,,0,,,,1,0,1,1,13858980,pdf,87198097007703817bf3e57b7f55f7f2,,,_478847.87198097007703817bf3e57b7f55f7f2.pdf,0,2000-01-01 01:00:00,2016-04-03 02:51:08,799000/87198097007703817bf3e57b7f55f7f2-d.jpg,,
19819545,Liquid Millionaire: How to Make Millions from the Up and Coming Stock Market Boom,,,,Stephen Sutherland,2009,1st,AuthorHouse UK,,248,0,English,,,,"1438903294,9781438903293",,,,,332.6,,,,,,0,,,,0,1,0,0,44528376,pdf,5d079a1570afe27904e1013619808855,,,_478875.5d079a1570afe27904e1013619808855.pdf,0,2000-01-01 01:00:00,2016-04-03 02:51:08,799000/5d079a1570afe27904e1013619808855-d.jpg,,
19819546,De Hegel a Nietzsche,,,,Karl Lowith,2008,,Katz Editores,,501,0,Spanish,,,,"8496859169,9788496859166",,,,,190.9034,,,,,Some pages missing,0,,,,1,1,0,0,11247124,pdf,3f582180abb986a5864f298831c35ac1,,,_478886.3f582180abb986a5864f298831c35ac1.pdf,0,2000-01-01 01:00:00,2016-04-03 02:51:08,799000/3f582180abb986a5864f298831c35ac1-d.jpg,,
19819547,Beyond Consolation,,,,John Waters,2010,,Continuum International Publishing Group,,236,0,English,,,,"1441114211,9781441114211",,,,,248.409415,,,PRkQDS_ItoQC,,,0,,,,1,0,1,1,583458,pdf,7a38b95d8149652150c46f33f487d177,,,_478889.7a38b95d8149652150c46f33f487d177.pdf,0,2000-01-01 01:00:00,2016-04-03 02:51:08,799000/7a38b95d8149652150c46f33f487d177-d.jpg,,
19819548,"Everett Ruess: His Short Life, Mysterious Death, and Astonishing Afterlife",,,,Philip L. Fradkin,2011,1,University of California Press,,297,0,English,,,,"0520265424,9780520265424",,,,,"811/.52,B",PS3535.U26 Z63 2011,,NHw9XHQyNZoC,OL24828141M,,0,,,,1,0,1,1,1681263,pdf,57c607cbce282453d2c01feb2d1befe3,,,_478897.57c607cbce282453d2c01feb2d1befe3.pdf,0,2000-01-01 01:00:00,2016-04-03 02:51:08,799000/57c607cbce282453d2c01feb2d1befe3-d.jpg,,
19819549,M6800 Application Manual,,,,Motorola Semiconductor Products Inc.,1975,,Motorola,,713,0,English,,,,,,,,,,,,,,,0,,,,0,1,0,0,38193475,pdf,06711812475a87e83fbc67d4f1723705,,,_478908.06711812475a87e83fbc67d4f1723705.pdf,0,2000-01-01 01:00:00,2016-04-03 02:51:08,799000/06711812475a87e83fbc67d4f1723705-g.jpg,,
19819550,Jägerin des Zwielichts: Ein Anita Blake Roman,,,,Laurell K. Hamilton,2011,,Bastei Lübbe Verlag,,,0,German,,,,"3404160541,9783404160549,9783838704586",,,,,,,,,,,0,,,,,0,1,1,439372,epub,bdb2dfa8bdbfeec81649f487757d9a84,,,_478921.bdb2dfa8bdbfeec81649f487757d9a84.epub,0,2000-01-01 01:00:00,2016-04-03 02:51:08,799000/bdb2dfa8bdbfeec81649f487757d9a84-d.jpg,,
19819551,Heirs of the Blade,,Shadows of the Apt volume 7,,Adrian Tchaikovsky,2011,,Tor,,,0,English,,,,"9780230761728,0230761720",,,,,,,,Gjt-VS_4fuMC,,,0,,,,,0,1,1,1217965,epub,d821198d1c8b63621a300fce8d7c37b1,,,_478925.d821198d1c8b63621a300fce8d7c37b1.epub,0,2000-01-01 01:00:00,2016-04-03 02:51:08,799000/d821198d1c8b63621a300fce8d7c37b1-g.jpg,,
19819552,Matrix Groups for Undergraduates (Student Mathematical Library 29),,Student Mathematical Library volume 29,,Kristopher Tapp,2005,,American Mathematical Society,,89,0,English,,,,"0821837850,9780821837856",,,,,512.12,QAI84.2.T37 2005,,,OL15495263M,,0,,,,0,1,0,0,5968157,pdf,a673883088ecbb61e78630e8bf679485,,,_478947.a673883088ecbb61e78630e8bf679485.pdf,0,2000-01-01 01:00:00,2016-04-03 02:51:08,799000/a673883088ecbb61e78630e8bf679485-d.jpg,,
19819553,Conduction Heat Transfer,,,,Vedat S. Arpacı,,,,,550,0,English,,,,,,,,,,,,,,,0,,,,,1,1,1,26811220,pdf,b7a1ec3ad46ff1a81327e026d30502e9,,,_478954.b7a1ec3ad46ff1a81327e026d30502e9.pdf,0,2000-01-01 01:00:00,2016-04-03 02:51:08,799000/b7a1ec3ad46ff1a81327e026d30502e9-g.jpg,,
19819554,The Death Cure,,Maze Runner volume 3,,James Dashner,2011,1St Edition,Delacorte Press,,,0,English,,,,"0375896120,9780375896125",,,,,,,,8t5GVWLo_eEC,,,0,,,,,0,,1,522000,mobi,a6b6f8167377bfa1cba7b5c3561d934f,,,_478978.a6b6f8167377bfa1cba7b5c3561d934f.mobi,0,2000-01-01 01:00:00,2016-04-03 02:51:08,799000/a6b6f8167377bfa1cba7b5c3561d934f-g.jpg,,
19819555,"Cours d'analyse de l'École polytechnique, Tome 1: Calcul Différentiel, Deuxièmme édition",,,,Camille Jordan,1893,2,Gauthier-Villars,,612,0,French,,,,,,,,,,,,,,,600,,,,0,1,0,1,16624864,djvu,fe580781684c3a3b7fe9ecfe71241d8b,,,_479002.fe580781684c3a3b7fe9ecfe71241d8b.djvu,0,2000-01-01 01:00:00,2016-04-03 02:51:08,799000/fe580781684c3a3b7fe9ecfe71241d8b-g.jpg,,
19819556,The No Asshole Rule: Building a Civilized Workplace and Surviving One That Isn't,,,,Robert I. Sutton,2007,1,Business Plus,,224,0,English,,,,"0446526568,9780446526562",,,,,650.13,,,,OL7536883M,,0,,,,,1,,0,16070125,pdf,8c3a71181470e5fd25b082539223dcdc,,,_479017.8c3a71181470e5fd25b082539223dcdc.pdf,0,2000-01-01 01:00:00,2016-04-03 02:51:08,799000/8c3a71181470e5fd25b082539223dcdc-d.jpg,,
19819557,Call Centres and Human Resource Management,,,,"Stephen Deery, Nick Kinnie",2004,,Palgrave Macmillan,,308,0,English,,,,"1403913048,9781403913043",,,,,658.812,,,TLlmQgAACAAJ,OL22112145M,,0,,,,1,0,1,1,1614962,pdf,2db9d57bbee18268425d9db8a7d01038,,,_479037.2db9d57bbee18268425d9db8a7d01038.pdf,0,2000-01-01 01:00:00,2016-04-03 02:51:08,799000/2db9d57bbee18268425d9db8a7d01038-d.jpg,,
19819558,Riders,,,,Jilly Cooper,1985,New Ed,Corgi,,919,0,English,,,,"0552124869,9780552124867",,,,,823.914,,,vWpCPgAACAAJ,OL18216924M,,0,,,,,0,0,1,1335676,mobi,9db1693098069847ee659fc471ba0285,,,_479050.9db1693098069847ee659fc471ba0285.mobi,0,2000-01-01 01:00:00,2016-04-03 02:51:08,799000/9db1693098069847ee659fc471ba0285-d.jpg,,
19819559,The Foundations of Analysis: A Straightforward Introduction: Book 2: Topological Ideas,,,,K. G. Binmore,1981,,Cambridge University Press,,262,0,English,,,,"052123350X,9780521233507,9780521299305",,,,,515,QA299.8 .B56,,,OL4425966M,,0,,,,1,1,1,1,5778841,pdf,25edbba8309b98b07c9c808231048746,,,_479070.25edbba8309b98b07c9c808231048746.pdf,0,2000-01-01 01:00:00,2016-04-03 02:51:08,799000/25edbba8309b98b07c9c808231048746-g.jpg,,
19819560,Some Assembly Required: A Networking Guide for Women,,,,Thom Singer,2008,1st,New Year Publishing LLC,,184,0,English,,,,"0976009560,9780976009566",,,,,650.13,,,,OL9739960M,,0,,,,,1,,0,48435231,pdf,80506aa0fe79dddf56da68d65a880378,,,_479077.80506aa0fe79dddf56da68d65a880378.pdf,0,2000-01-01 01:00:00,2016-04-03 02:51:08,799000/80506aa0fe79dddf56da68d65a880378-d.jpg,,
19819561,"International Review of Biblical Studies, Volume 55 (2008-2009)",,,,Lang,2010,,BRILL,,543,0,English,,,,"9004181342,9789004181342",,,,,16,,,yuVkKAw6HDgC,,,0,,,,1,0,1,1,1963958,pdf,6274222281511b951d9effc29713f40f,,,_479082.6274222281511b951d9effc29713f40f.pdf,0,2000-01-01 01:00:00,2016-04-03 02:51:08,799000/6274222281511b951d9effc29713f40f-d.jpg,,
19819562,Plain Perfect,,Daughters of the Promise volume 1,,Beth Wiseman,2008,,Thomas Nelson,,320,0,English,,,,"1595546308,9781595546302",,,,,813/.6,PS3623.I83 P57 2008,,b5Y9XRluQwgC,OL16945842M,,0,,,,,0,1,1,711327,epub,fb0ababd6e6b03ffbdb1650c38a83795,,,_479091.fb0ababd6e6b03ffbdb1650c38a83795.epub,0,2000-01-01 01:00:00,2016-04-03 02:51:08,799000/fb0ababd6e6b03ffbdb1650c38a83795-d.jpg,,
19819563,Communication Disorders in Turkish,,Communication Disorders Across Languages,,"Seyhun Topbaş, Mehmet Yavaş",2010,,Multilingual Matters,,434,0,English,,,,"184769246X,9781847692467",,,,,401/.9089943,RC423 .C6428 2010,,,OL24080411M,,0,,,,1,0,0,1,3786004,pdf,2d1586bec1f1d82696ef0c750f317300,,,_479094.2d1586bec1f1d82696ef0c750f317300.pdf,0,2000-01-01 01:00:00,2016-04-03 02:51:08,799000/2d1586bec1f1d82696ef0c750f317300-d.jpg,,
19819564,The Dark Half,,,,Stephen King,1989,First Edition,Viking,,256,0,English,,,,"0340509112,9780340509111",,,,,813/.54,,,1EZmzgAACAAJ,OL18388145M,,0,,,,,0,1,1,946307,mobi,0c3269c61402fe0bc7f6fff22d80981b,,,_479095.0c3269c61402fe0bc7f6fff22d80981b.mobi,0,2000-01-01 01:00:00,2016-04-03 02:51:08,799000/0c3269c61402fe0bc7f6fff22d80981b-d.jpg,,
19819565,The Limits of Interpretation (Advances in Semiotics),,,,Umberto Eco,1990,,Indiana University Press,,313,0,English,,,,"0253318521,0253208696,9780253208699,9780585182667,9780253318527",,,,,801/.95,PN98.S46 E26 1990,,,OL2218924M,,0,,,,1,0,1,1,1507041,pdf,8607b980107880dfe2fb832965d316b7,,,_479101.8607b980107880dfe2fb832965d316b7.pdf,0,2000-01-01 01:00:00,2016-04-03 02:51:08,799000/8607b980107880dfe2fb832965d316b7-d.jpg,,
19819566,סתרי תפילה והיכלות,,,,מאיר בר אילן,1987,,הוצאת אוניברסיטת בר אילן,,196,0,Hebrew,,,,926226072X,,,,,,,,,,,0,,,,0,1,0,0,30196635,pdf,180639f00b9b78bca02669b898e3253b,,,_479169.180639f00b9b78bca02669b898e3253b.pdf,0,2000-01-01 01:00:00,2016-04-03 02:51:08,799000/180639f00b9b78bca02669b898e3253b-g.jpg,,
19819567,Αμοργός,,,,Νίκος Γκάτσος,,,,,29,0,Greek(Modern),,,,,,,,,,,,,,,0,,,,0,1,0,0,432786,pdf,bade82791141c8b30681ca28c091c868,,,_479175.bade82791141c8b30681ca28c091c868.pdf,0,2000-01-01 01:00:00,2016-04-03 02:51:08,799000/bade82791141c8b30681ca28c091c868-g.jpg,,
19819568,"Reality Show, tome 3 : Interruption momentanée",,,,"Francis Porcel, Jean-David Morvan",2005,,Dargaud,,48,0,French,,,,"2871297320,9782871297321",,,,,,,,,,,0,,,,1,1,0,0,28229961,pdf,1aef6d527d168bbb82075485c1753e2f,,,_479176.1aef6d527d168bbb82075485c1753e2f.pdf,0,2000-01-01 01:00:00,2016-04-03 02:51:08,799000/1aef6d527d168bbb82075485c1753e2f-g.jpg,,
19819569,Δοκίμια. 99 Μικρά Κείμενα για την Τέχνη,,,,Τάσος Σταμπούλογλου,2011,,περιοδικό ΓΙΑΤΙ,,266,0,Greek(Modern),,,,9789609977906,,,,,,,,,,,0,,,,0,1,0,0,4136810,pdf,2084cec9bd1c882979f9ec4e1670407e,,,_479177.2084cec9bd1c882979f9ec4e1670407e.pdf,0,2000-01-01 01:00:00,2016-04-03 02:51:08,799000/2084cec9bd1c882979f9ec4e1670407e-g.jpg,,
19819570,The Impostor,,,,Damon Galgut,2008,,McClelland & Stewart,,,0,English,,,,"1551992531,9781551992532",,,,,823’.92 C2008-900889-8,PR9369.3.G34I46 2008,,dtUl_3PT6LAC,,,0,,,,0,0,1,1,252512,epub,b29c381627e23977ceea0151436ca67d,,,_479199.b29c381627e23977ceea0151436ca67d.epub,0,2000-01-01 01:00:00,2016-04-03 02:51:08,799000/b29c381627e23977ceea0151436ca67d-g.jpg,,
19819571,L'uomo senza inconscio. Figure della nuova clinica psicoanalitica,,Psicologia clinica e psicoterapia volume 217,,Massimo Recalcati,2010,,Cortina Raffaello,,358,0,Italian,,,,"8860303028,9788860303028",,,,,616,,,1id8QgAACAAJ,,,0,,,,1,1,0,1,9817855,pdf,f99d2fd490a9cf809377e6aa96639a03,,,_479204.f99d2fd490a9cf809377e6aa96639a03.pdf,0,2000-01-01 01:00:00,2016-04-03 02:51:08,799000/f99d2fd490a9cf809377e6aa96639a03-g.jpg,,
19819572,مرثیه های خاک : مجموعه شعر,,,,احمد شاملو,1968,,,,28,0,Persian,,,,,,,,,,,,,,,0,,,,1,1,0,1,251916,pdf,5481a5ea26faae29b963b3cb83389951,,,_479231.5481a5ea26faae29b963b3cb83389951.pdf,0,2000-01-01 01:00:00,2016-04-03 02:51:08,799000/5481a5ea26faae29b963b3cb83389951-g.jpg,,
19819573,"עולים ומעברות, 1948 - 1952 : מקורות, סיכומים, פרשיות נבחרות וחומר עזר",,,,מרדכי נאור,1986,,יד יצחק בן-צבי,,292,0,Hebrew,,,,,,,,,,,,,,,0,,,,0,1,0,0,51174121,pdf,f1831425c28f6eba939ff928371922a0,,,_479239.f1831425c28f6eba939ff928371922a0.pdf,0,2000-01-01 01:00:00,2016-04-03 02:51:08,799000/f1831425c28f6eba939ff928371922a0-g.jpg,,
19819574,Magari + 2 Audio CD's (Corso di Lingua e Cultura Italiana di Livello Intermedio e Avanzato),,,,"Alessandro de Giuli, Carlo Guastalla, Ciro Massimo Nadeo",2008,,A.L.M.A. Editions Italy,,402,0,Italian,,,,,,,,,,,,,,,0,,,,0,1,1,0,274920205,pdf,d538b5ad5cb812948cc1d5254dfd6f17,,,_479250.d538b5ad5cb812948cc1d5254dfd6f17.pdf,0,2000-01-01 01:00:00,2016-04-03 02:51:08,799000/d538b5ad5cb812948cc1d5254dfd6f17-g.jpg,,
19819575,The Guns of August,,,,Barbara W. Tuchman,1994,,Ballantine Books,,544,0,English,,,,"034538623X,9780345386236",,,,,940.4/144,D530 .T8 1994,,,OL1448082M,,0,,,,,1,,,586388,epub,3618dfccafd807d9da7625de06827570,,,_479255.3618dfccafd807d9da7625de06827570.epub,0,2000-01-01 01:00:00,2016-04-03 02:51:08,799000/3618dfccafd807d9da7625de06827570-d.jpg,,
19819576,Lectures on Elementary Mathematics,,,,Joseph  Louis  Lagrange,1901,,The Open Court Publishing Company (Chicago),,181,0,English,,,,,,,,,,,,,,,0,,,,,0,1,1,897818,pdf,64c4116d0ffbd0624a8d4fa5a4183368,,,_479277.64c4116d0ffbd0624a8d4fa5a4183368.pdf,0,2000-01-01 01:00:00,2016-04-03 02:51:08,799000/64c4116d0ffbd0624a8d4fa5a4183368-g.jpg,,
19819577,Nature and Landscape Photography: 71 Tips from the Top (Rocky Nook),,,,Martin Borg,2011,,Rocky Nook,,129,0,English,,,,"1933952865,9781933952864",,,,,779/.36,TR721 .B6713 2011,,iYwDtwAACAAJ,OL25060745M,,0,,,,1,0,1,1,259856517,pdf,bb9cd6ef4b64d57b511291d82812269e,,,_479283.bb9cd6ef4b64d57b511291d82812269e.pdf,0,2000-01-01 01:00:00,2016-04-03 02:51:08,799000/bb9cd6ef4b64d57b511291d82812269e-d.jpg,,
19819578,"La liebre y la tortuga: cultura, biología y naturaleza humana",,,,David P. Barash,1987,,Salvat,,297,0,Spanish,,,,"8434584557,9788434584556",,,,,304.5,,,CsyfLgAACAAJ,,,300,,,,0,1,0,1,7766859,djvu,582439ae8cafef5627a3a7385767007f,,,_479285.582439ae8cafef5627a3a7385767007f.djvu,0,2000-01-01 01:00:00,2016-04-03 02:51:08,799000/582439ae8cafef5627a3a7385767007f-g.jpg,,
19819579,The Trial of Henry Kissinger,,,,Christopher Hitchens,2002,First Edition,Verso,,160,0,English,,,,"1859846319,9781859846315",,,,,973.924/092,E840.8.K58 H58 2001,,,OL24766707M,,0,,,,,0,0,1,308756,mobi,29d7fb90b9483243d457e0069739490d,,,_479304.29d7fb90b9483243d457e0069739490d.mobi,0,2000-01-01 01:00:00,2016-04-03 02:51:08,799000/29d7fb90b9483243d457e0069739490d-d.jpg,,
19819580,"Matrix Groups for Undergraduates (Student Mathematical Library,)",,,,Kristopher Tapp,2005,,American Mathematical Society,,177,0,English,,,,"0821837850,9780821837856",,,,,512.2,,,,OL15495263M,,0,,,,0,1,0,1,1992703,djvu,d8385150dc774bf236e794c7643dbca6,,,_479326.d8385150dc774bf236e794c7643dbca6.djvu,0,2000-01-01 01:00:00,2016-04-03 02:51:08,799000/d8385150dc774bf236e794c7643dbca6-d.jpg,,
19819581,The Ethos of a Late-Modern Citizen,,,,Stephen K. White,2009,1,Harvard University Press,,150,0,English,,,,"0674032632,9780674032637",,,,,323.601,JF801 .W53 2009,,_86I4EUDFKQC,OL22665039M,,0,,,,1,0,1,1,674324,pdf,c57607e83927169eb33d0bfaaa06d9ae,,,_479359.c57607e83927169eb33d0bfaaa06d9ae.pdf,0,2000-01-01 01:00:00,2016-04-03 02:51:08,799000/c57607e83927169eb33d0bfaaa06d9ae-d.jpg,,
19819582,Enduring Success: What Top Companies Do Differently,,,,"Franz Bailom, Kurt Matzler, Dieter Tschemernjak",2007,First Edition,Palgrave Macmillan,,215,0,English,,,,"0230550649,9780230550643",,,,,658.409,,,Mns04Ys5YwgC,OL10194616M,,0,,,,1,0,1,1,1661121,pdf,63ea3eb90282155d00f9f1b8a76d2fa2,,,_479384.63ea3eb90282155d00f9f1b8a76d2fa2.pdf,0,2000-01-01 01:00:00,2016-04-03 02:51:08,799000/63ea3eb90282155d00f9f1b8a76d2fa2-d.jpg,,
19819583,Determinants of Innovative Behaviour: A Firm's Internal Practices and its External Environment,,,,"Cees van Beers, Alfred Kleinknecht, Roland Ortt, Robert Verburg",2008,,Palgrave Macmillan,,325,0,English,,,,"0230206328,9780230206328",,,,,658.4/063,HD45 .D37 2008,,aH8JLwAACAAJ,OL16857724M,,0,,,,1,0,1,1,1359693,pdf,f18128aa7ca83885ce14070fe6881c32,,,_479388.f18128aa7ca83885ce14070fe6881c32.pdf,0,2000-01-01 01:00:00,2016-04-03 02:51:08,799000/f18128aa7ca83885ce14070fe6881c32-d.jpg,,
19819584,Plato versus Parmenides: The Debate over Coming-into-Being in Greek Philosophy,,,,Robert J. Roecklein,2010,,Lexington Books,,210,0,English,,,,"0739150774,9780739150771",,,,,182/.3,B398.K7 R64 2011,,eeo1HLrLKOsC,OL25041705M,,0,,,,1,0,1,1,924004,pdf,99186a5c5830714246167d587cb71728,,,_479404.99186a5c5830714246167d587cb71728.pdf,0,2000-01-01 01:00:00,2016-04-03 02:51:08,799000/99186a5c5830714246167d587cb71728-d.jpg,,
19819585,"Описание Черного моря, Эгейского архипелага и османского флота",,,,П. А. Толстой,2006,,Москва. Наталис,,304,0,Russian,,,,"5806202151,9785806202155",,,,,,,,,OL20867193M,,0,,,,,1,,1,4180369,djvu,7c30d895e1a10974bd6983472ca2e919,,,_479426.7c30d895e1a10974bd6983472ca2e919.djvu,0,2000-01-01 01:00:00,2016-04-03 02:51:08,799000/7c30d895e1a10974bd6983472ca2e919-d.jpg,,
19819586,Encyclopedia of Polymer Research (2 Volume Set),,Polymer Science and Technology,,Caroline E. Jones,2011,,Nova Science Pub Inc,,1627,0,English,,,,9781611222098,,,,,,,,azKgcQAACAAJ,,,0,,,,1,0,1,1,23095613,pdf,f1c729c781527cfe6afc1dd5334ec3f4,,,_479446.f1c729c781527cfe6afc1dd5334ec3f4.pdf,0,2000-01-01 01:00:00,2016-04-03 02:51:08,799000/f1c729c781527cfe6afc1dd5334ec3f4-g.jpg,,
19819587,"The Animals of Spain: An Introduction to Imperial Perceptions and Human Interaction With Other Animals, 1492-1826 (Human-Animal Studies)",,,,Abel A. Alves,2011,,Brill Academic Pub,,239,0,English,,,,"9004193898,9789004193895",,,,,508.46/09,QL85 .A46 2011,,Human-Animal St,OL24885571M,,0,,,,1,0,1,1,2812222,pdf,9626d8f828436338f19e4cfca6e0ec0b,,,_479448.9626d8f828436338f19e4cfca6e0ec0b.pdf,0,2000-01-01 01:00:00,2016-04-03 02:51:08,799000/9626d8f828436338f19e4cfca6e0ec0b-d.jpg,,
19819588,Two for the Lions (Marcus Didius Falco Mysteries),,Marcus Didius Falco Mysteries,,Lindsey Davis,2000,,Grand Central Publishing,,,0,English,,,,,,,,,,,,aLi8jmlk9yIC,,,0,,,,,0,0,1,379585,epub,fbb5cb7a6dbf802157059388fd805312,,,_479450.fbb5cb7a6dbf802157059388fd805312.epub,0,2000-01-01 01:00:00,2016-04-03 02:51:08,799000/fbb5cb7a6dbf802157059388fd805312-g.jpg,,
19819589,"הזכות לחנך, החובה לחנך",,,,עקיבא ארנסט סימון,1983,,ספרית פועלים,,206,0,Hebrew,,,,,,,,,,,,,,,0,,,,0,1,0,0,26836052,pdf,52d9bdcced5dcae063017667c83789d6,,,_479478.52d9bdcced5dcae063017667c83789d6.pdf,0,2000-01-01 01:00:00,2016-04-03 02:51:08,799000/52d9bdcced5dcae063017667c83789d6-g.jpg,,
19819590,,,,"The Economist October 15th, 2011 issue 8751",The Economist Group (Publishers),2011,,The Economist Group,,104,0,English,,,,,,,,,,,,,,,0,,,,0,1,0,0,92533374,pdf,def59c62a21f803a83528782b6f46ec3,,,_479490.def59c62a21f803a83528782b6f46ec3.pdf,0,2000-01-01 01:00:00,2016-04-03 02:51:08,799000/def59c62a21f803a83528782b6f46ec3-g.jpg,,
19819591,"Wer überlebt? Warum manche Menschen in Grenzsituationen überleben, andere nicht",,,,Ben Sherwood,2009,,Riemann Verlag,,478,0,German,,,0,"357050087X,978-3-570-50087-3,978-3-641-02739-1",,B004OL2TW8,,,,,,,,,0,,,,,0,1,1,676614,epub,a4665d866ae0a7007e41268062499403,,,_479500.a4665d866ae0a7007e41268062499403.epub,0,2000-01-01 01:00:00,2016-04-03 02:51:08,799000/a4665d866ae0a7007e41268062499403-g.jpg,,
19819592,"Stories, Time and Again: A Program Guide for Schools and Libraries",,,,Jan Irving,2005,,Libraries Unlimited,,210,0,English,,,,"156308998X,9781563089985",,,,,372.67/7,LB1027.25 .I78 2006,,,OL3413289M,,0,,,,1,1,1,1,13295312,pdf,dce498124515e6fd70d3818d99b0c514,,,_479505.dce498124515e6fd70d3818d99b0c514.pdf,0,2000-01-01 01:00:00,2016-04-03 02:51:08,799000/dce498124515e6fd70d3818d99b0c514-d.jpg,,
19819593,Der Veteran: Roman,,,,Gavin Smith,2011,,Blanvalet Taschenbuch Verlag,,,0,German,,,,"3442267692,9783442267699,9783641053000",,,,,,,,,,,0,,,,,0,1,1,523018,epub,06ee975cd0e4db2b81c8388125860e14,,,_479507.06ee975cd0e4db2b81c8388125860e14.epub,0,2000-01-01 01:00:00,2016-04-03 02:51:08,799000/06ee975cd0e4db2b81c8388125860e14-d.jpg,,
19819594,The History of the Central Asian Republics (The Greenwood Histories of the Modern Nations),,The Greenwood Histories of the Modern Nations,,Peter L. Roudik,2007,,Greenwood,,237,0,English,,,,"0313340137,9780313340130",,,,,958,,,,OL10420773M,,0,,,,1,0,1,1,913159,pdf,82bbb0c565c82662d7ffc623e36a7b39,,,_479513.82bbb0c565c82662d7ffc623e36a7b39.pdf,0,2000-01-01 01:00:00,2016-04-03 02:51:08,799000/82bbb0c565c82662d7ffc623e36a7b39-d.jpg,,
19819595,"Meeresblitzen (Jane True, Band 2)",,,,Nicole Peeler,2011,,Heyne Verlag,,,0,German,,,,"3453528298,9783453528291,9783641071790",,,,,,,,,,,0,,,,,0,1,1,516354,epub,47837172ab0bd6f2b8e48013379552dd,,,_479520.47837172ab0bd6f2b8e48013379552dd.epub,0,2000-01-01 01:00:00,2016-04-03 02:51:08,799000/47837172ab0bd6f2b8e48013379552dd-d.jpg,,
19819596,Τι είναι η θεωρία της σχετικότητας,,,,"Lev Landau, Yuriy Rumer, Νίκος Κιάος - Αντώνης Μαργαρίτης (μετάφραση)",,,Γ.Α. Πνευματικός,,82,0,Greek(Modern),,,,,,,,,,,,,,,300,,,,0,1,1,0,1335556,pdf,f215631a1059ac59f210b8106361a8d0,,,_479521.f215631a1059ac59f210b8106361a8d0.pdf,0,2000-01-01 01:00:00,2016-04-03 02:51:08,799000/f215631a1059ac59f210b8106361a8d0-g.jpg,,
19819597,"American Government: Brief Version , Tenth Edition",,,,James Q. Wilson,2011,10,Wadsworth Publishing,,377,0,English,,,,"0495906786,9780495906780",,,,,320.473,,,,OL25053416M,,0,,,,,1,,1,21673917,pdf,e984f24002f6921b6e48de2edc836763,,,_479546.e984f24002f6921b6e48de2edc836763.pdf,0,2000-01-01 01:00:00,2016-04-03 02:51:08,799000/e984f24002f6921b6e48de2edc836763-d.jpg,,
19819598,Enzymes in Food and Beverage Processing,,ACS Symposium Volume 47,,Robert L. Ory and Allen J. St. Angelo (Eds.),1977,,American Chemical Society,,333,0,English,,,,"9780841203754,9780841204034,0-8412-0375-X",0097-6156,,,,664,TP368 .E59,10.1021/bk-1977-0047,,OL4540162M,,0,,,,0,1,1,1,6169729,pdf,bbe93dc082018c15098541275e049ede,,,_479576.bbe93dc082018c15098541275e049ede.pdf,0,2000-01-01 01:00:00,2016-04-03 02:51:08,799000/bbe93dc082018c15098541275e049ede-d.jpg,,
19819599,"Magnetic Nanoparticles: Particle Science, Imaging Technology, and Clinical Applications",,,,"T. M. Buzug, J. Borgert, T. Knopp, S. Biederer, T. F. Sattel, M. Erbe, K. Lüdtke-Buzug, Editors",2010,1,World Scientific Publishing Company,,258,0,English,,,,"9814324671,9789814324670",,,,,620.5,,,yGFYQSiuvLMC,,,0,,,,1,0,1,1,7480090,pdf,9d13a7fae840ef968c6d817485904a87,,,_479602.9d13a7fae840ef968c6d817485904a87.pdf,0,2000-01-01 01:00:00,2016-04-03 02:51:08,799000/9d13a7fae840ef968c6d817485904a87-d.jpg,,
19819600,"Risk, social policy and welfare",,Introducing social policy,,Hazel Kemshall,2002,1,Open University Press,Buckingham ; Philadelphia,173,0,English,,,,"0335204090,9780335204090,0335204104,9780335204106,9780335231997,0335231993",,,,,361.610941,,,,OL9465425M,,0,,,,0,1,,0,39608936,pdf,83a13b4b843780682dc36bbf9f4c2711,,,_479623.83a13b4b843780682dc36bbf9f4c2711.pdf,0,2000-01-01 01:00:00,2016-04-03 02:51:08,799000/83a13b4b843780682dc36bbf9f4c2711-d.jpg,,
19819601,A Scientific Autobiography: S. Chandrasekhar,,,,Kameshwar C. Wali,2011,,World Scientific Publishing Company,,296,0,English,,,,"981429957X,9789814299572",,,,,523.01092,QB460.72.C48 A3 2010,,qKP7QwAACAAJ,OL25048588M,,0,,,,1,0,1,1,2381289,pdf,d654b780253bf03c0802927643877117,,,_479631.d654b780253bf03c0802927643877117.pdf,0,2000-01-01 01:00:00,2016-04-03 02:51:08,799000/d654b780253bf03c0802927643877117-d.jpg,,
19819602,Thomas Hobbes: the unity of scientific & moral wisdom,,,,Gary Bruce Herbert,1989,,UBC Press,,216,0,English,,,,"0774803169,9780774803168",,,,,192,B1247 .H47 1989,,,OL1902778M,,0,,,,1,1,1,1,8725189,pdf,e6ca9e858201138b9f058e311db92098,,,_479646.e6ca9e858201138b9f058e311db92098.pdf,0,2000-01-01 01:00:00,2016-04-03 02:51:08,799000/e6ca9e858201138b9f058e311db92098-g.jpg,,
19819603,The Heiress,,,,Lynsay Sands,2011,,Avon,,384,0,English,,,,"0061963097,9780061963094",,,,,813.6,,,,OL24607842M,,0,,,,,1,,,571272,mobi,739fe942b7cbfdaa1876d59815263bd5,,,_479684.739fe942b7cbfdaa1876d59815263bd5.mobi,0,2000-01-01 01:00:00,2016-04-03 02:51:08,799000/739fe942b7cbfdaa1876d59815263bd5-d.jpg,,
19819604,Adam & Eve,,,,Sena Jeter Naslund,2010,First Edition,William Morrow,,352,0,English,,,,"0061579270,9780061579271",,,,,813/.54,PS3564.A827 A66 2010,,,OL24356033M,,0,,,,,1,,,577860,mobi,de41c5e4c881653455fa45267df2e7fa,,,_479695.de41c5e4c881653455fa45267df2e7fa.mobi,0,2000-01-01 01:00:00,2016-04-03 02:51:08,799000/de41c5e4c881653455fa45267df2e7fa-d.jpg,,
19819605,Acts of Malice,,,,Perri O'Shaughnessy,2000,later printing,Island Books,,480,0,English,,,,"0440225817,9780440225812",,,,,813.54,,,,OL15307576M,,0,,,,,1,,,683432,mobi,2283116ee3bbe75fb30e903462797508,,,_479698.2283116ee3bbe75fb30e903462797508.mobi,0,2000-01-01 01:00:00,2016-04-03 02:51:08,799000/2283116ee3bbe75fb30e903462797508-d.jpg,,
19819606,"Rich dad, poor dad: what the rich teach their kids about money that the poor and middle class do not!",,,,"Robert T. Kiyosaki, Sharon L. Lechter",2000,1,Warner Books,,207,0,English,,,,"0446677450,9780446677455",,,,,332.024,HG179 .K565 1998,,,OL22611011M,,0,,,,,1,,,855744,mobi,8a81374e064610a9f2841c52a28fde3c,,,_479704.8a81374e064610a9f2841c52a28fde3c.mobi,0,2000-01-01 01:00:00,2016-04-03 02:51:08,799000/8a81374e064610a9f2841c52a28fde3c-d.jpg,,
19819607,Julian Assange: The Unauthorised Autobiography,,,,Julian Assange,2011,,Canongate Books Ltd,,,0,English,,,,"0857863843,9780857863843",,,,,070.92,JF1525.W45 A87 2011,,,OL25179783M,,0,,,,,1,1,,1082912,mobi,502a62fffebe6b1cf1371164808046e9,,,_479716.502a62fffebe6b1cf1371164808046e9.mobi,0,2000-01-01 01:00:00,2016-04-03 02:51:08,799000/502a62fffebe6b1cf1371164808046e9-d.jpg,,
19819608,Illustrated Light on Yoga,,,,B.K.S. Iyengar,2004,,Harper Collins,,179,0,English,,,,"8172236069,9788172236069",,,,,,,,,OL9850829M,,0,,,,0,1,0,1,13834678,pdf,d45f81cf67f4db80469a7e56998c5f2f,,,_479721.d45f81cf67f4db80469a7e56998c5f2f.pdf,0,2000-01-01 01:00:00,2016-04-03 02:51:08,799000/d45f81cf67f4db80469a7e56998c5f2f-d.jpg,,
19819609,"The Madwoman in the Attic: The Woman Writer and the Nineteenth-Century Literary Imagination, Second Edition (Nota Bene)",,,,"Professor Sandra M. Gilbert, Professor Susan Gubar",2000,2 Sub,Yale University Press,,768,0,English,,,,"0300084587,9780300084580",,,,,820.9/9287/09034,PR115 .G5 2000,,,OL58675M,,0,,,,,1,,1,68742724,pdf,5e57f407d34c58052905ba4c33a5b5c5,,,_479736.5e57f407d34c58052905ba4c33a5b5c5.pdf,0,2000-01-01 01:00:00,2016-04-03 02:51:08,799000/5e57f407d34c58052905ba4c33a5b5c5-d.jpg,,
19819610,Im Tal der roten Zedern: Die große Australien-Saga (Roman),,,,Di Morrissey,2009,,Knaur Verlag,,,0,German,,,,"3426663244,9783426663240,342650796X,9783426507964,9783426401859",,,,,,,,,,,0,,,,,0,1,1,686513,epub,6752092b50b43539b7e6c68390691ed5,,,_479775.6752092b50b43539b7e6c68390691ed5.epub,0,2000-01-01 01:00:00,2016-04-03 02:51:08,799000/6752092b50b43539b7e6c68390691ed5-d.jpg,,
19819611,"Töchter der Sünde (Wanderhure, Band 5)",,,,Iny Lorentz,2011,,Knaur Verlag,,,0,German,,,,"3426662450,9783426662458,9783426411278",,,,,,,,,,,0,,,,,0,1,1,1218526,epub,71155d573f0883351110745180eed378,,,_479786.71155d573f0883351110745180eed378.epub,0,2000-01-01 01:00:00,2016-04-03 02:51:08,799000/71155d573f0883351110745180eed378-d.jpg,,
19819612,"The Carrie Diaries - Carries Leben vor Sex and the City, Band 1",,,,Candace Bushnell,2010,,cbt Verlag,,,0,German,,,,"3570161048,9783570161043,9783641069711",,,,,,,,,,,0,,,,,0,1,1,516640,epub,a77780e82800448395a573df0ae56050,,,_479787.a77780e82800448395a573df0ae56050.epub,0,2000-01-01 01:00:00,2016-04-03 02:51:08,799000/a77780e82800448395a573df0ae56050-d.jpg,,
19819613,Membrane Technology: Volume 1: Membranes for Life Sciences,,,,"Klaus-Viktor Peinemann, Suzana Pereira Nunes",2007,1,Wiley-VCH,,343,0,English,,,,"3527314806,9783527314805",,,,,660.28424,TP159.M4 M474 2008,,,OL12767476M,,0,,,,,1,,1,5529633,pdf,32ab240bafd099fd735cbdc81465d003,,,_479792.32ab240bafd099fd735cbdc81465d003.pdf,0,2000-01-01 01:00:00,2016-04-03 02:51:08,799000/32ab240bafd099fd735cbdc81465d003-d.jpg,,
19819614,"Minimum Design Loads for Buildings and Other Structures, ASCE 7-10",,,,American Society of Civil Engineers,2010,1,American Society of Civil Engineers,,650,0,English,,,,"0784410852,9780784410851",,,,,624.1/75021873,TH851 .M56 2010,,,OL24493647M,,0,,,,,1,,1,24075161,pdf,98a7a160766a2ee820075341f9a6f291,,,_479798.98a7a160766a2ee820075341f9a6f291.pdf,0,2000-01-01 01:00:00,2016-04-03 02:51:08,799000/98a7a160766a2ee820075341f9a6f291-d.jpg,,
19819615,Linear Systems: Optimal and Robust Control,,,,Alok Sinha,2007,,CRC Press,,488,0,English,,,,"1420008889,9781420008883",,,,,,,,,,,0,,,,1,0,1,1,10459404,pdf,b9aaf47d82052e7a5d3d09941f265e82,,,_479802.b9aaf47d82052e7a5d3d09941f265e82.pdf,0,2000-01-01 01:00:00,2016-04-03 02:51:08,799000/b9aaf47d82052e7a5d3d09941f265e82-g.jpg,,
19819616,"Organic Farming, Pest Control and Remediation of Soil Pollutants",,Sustainable Agriculture Reviews volume 1,,Eric Lichtfouse,2009,1,Springer,,429,0,English,,,,"1402096534,9781402096532",,,,,631.584,,10.1007/978-1-4020-9654-9,66RV9Q1EtLcC,,,0,,,,1,0,1,1,6340721,pdf,9eb08222619b5872e89bcb078873c3c9,,,_479820.9eb08222619b5872e89bcb078873c3c9.pdf,0,2000-01-01 01:00:00,2016-04-03 02:51:08,799000/9eb08222619b5872e89bcb078873c3c9-d.jpg,,
19819617,The traffic in culture: refiguring art and anthropology,,,,"George E. Marcus, Fred R. Myers",1995,,University of California Press,,384,0,English,,,,"0520088476,9780520088474",,,,,701/.03,N72.A56 T73 1995,,,OL1113572M,,0,,,,0,1,0,0,41143203,pdf,50beb241e90d12bf3f981774fdc89165,,,_479826.50beb241e90d12bf3f981774fdc89165.pdf,0,2000-01-01 01:00:00,2016-04-03 02:51:08,799000/50beb241e90d12bf3f981774fdc89165-d.gif,,
19819618,Similarity-based Pattern Recognition - Simbad 2011,,Lecture Notes in Computer Science volume 7005,,"Marcello Pelillo, Edwin R. Hancock",2011,1st Edition.,Springer,,348,0,English,,,,"364224470X,9783642244704",0302-9743,,,,,,10.1007/978-3-642-24471-1,kFxlMTF3EHkC,,,0,,,,1,0,1,1,9106523,pdf,33805931dfecdc5eaa084ac5a737afdc,,,_479827.33805931dfecdc5eaa084ac5a737afdc.pdf,0,2000-01-01 01:00:00,2016-04-03 02:51:08,799000/33805931dfecdc5eaa084ac5a737afdc-d.jpg,,
19819619,Aleph,,,,Paulo Coelho,2011,,Knopf,,,0,English,,,,9780307957016,,,,,,,,,,,0,,,,0,0,1,1,2343943,epub,3d2f33478b820400c417f8cbe90b99e1,,,_479832.3d2f33478b820400c417f8cbe90b99e1.epub,0,2000-01-01 01:00:00,2016-04-03 02:51:08,799000/3d2f33478b820400c417f8cbe90b99e1-g.jpg,,
19819620,Fundamentals of Mold Growth in Indoor Environments and Strategies for Healthy Living,,,,"Robert A. Samson, Olaf C. G. Adan",2011,,Wageningen Academic Publishers,,524,0,English,,,,"9086861350,9789086861354",,,,,,,10.3920/978-90-8686-722-6,,,,0,,,,1,0,1,1,9662087,pdf,56431c6a19ffb7ce2458a24166806419,,,_479833.56431c6a19ffb7ce2458a24166806419.pdf,0,2000-01-01 01:00:00,2016-04-03 02:51:08,799000/56431c6a19ffb7ce2458a24166806419-d.jpg,,
19819621,"Deutsch als Fremd- und Zweitsprache, 2. Halbband",,Handbooks of linguistics and communication science,,"Hans-Jürgen Krumm, Christian Fandrych, Britta Hufeisen",2010,1,Gruyter,,837,0,German,,,,"3110205084,9783110205084",1861-5090,,,,438.2/4,PF3066 .D462 2010,,xJTgF_4Gj3cC,OL24495605M,,0,,,,1,0,1,1,3182189,pdf,2486d273825560ef6e6cb4d09ac13405,,,_479835.2486d273825560ef6e6cb4d09ac13405.pdf,0,2000-01-01 01:00:00,2016-04-03 02:51:08,799000/2486d273825560ef6e6cb4d09ac13405-d.jpg,,
19819622,"Sprachliche Spur der Moderne. In Gedichten um 1900: Nietzsche, Holz, George, Rilke, Morgenstern (Untersuchungen Zur Deutschen Literaturgeschichte)",,Untersuchungen Zur Deutschen Literaturgeschichte,,Helmut Henne,2010,1,Walter de Gruyter,,160,0,German,,,,"3110230003,9783110230000",0083-4564,,,,430.14,,,WHUfk2KR2zYC,OL24543736M,,0,,,,1,0,1,1,3128993,pdf,32ba75ff10bce061bb09f813830b2863,,,_479838.32ba75ff10bce061bb09f813830b2863.pdf,0,2000-01-01 01:00:00,2016-04-03 02:51:08,799000/32ba75ff10bce061bb09f813830b2863-d.jpg,,
19819623,Science Rocks!,,,,Robert Winston,2011,,DK Publishing,,146,0,English,,,,"0756671981,9780756671983",,,,,507.8,,,,,,0,,,,1,0,1,1,23245379,pdf,abe9c61ec8347887a71aca0504e2f5e2,,,_479854.abe9c61ec8347887a71aca0504e2f5e2.pdf,0,2000-01-01 01:00:00,2016-04-03 02:51:08,799000/abe9c61ec8347887a71aca0504e2f5e2-d.jpg,,
19819624,Watch & Clock Encyclopedia,,,,Donald de Carle,1977,First Edition,Bonanza Books,,330,0,English,,,,"0517246619,9780517246610",,,,,681/.11/03,TS540.7 .D4 1975,,,OL19476595M,,0,,,,,1,0,0,20209703,pdf,94493a4dd35b788f482215114425f588,,,_479856.94493a4dd35b788f482215114425f588.pdf,0,2000-01-01 01:00:00,2016-04-03 02:51:08,799000/94493a4dd35b788f482215114425f588-d.jpg,,
19819625,The Bernini Bust,,,,Iain Pears,2003,,Berkley Trade,,288,0,English,,,,"0425191893,9780425191897",,,,,823/.914,PR6066.E167 B47 2003,,,OL3692484M,,0,,,,,1,,,308600,mobi,77e7548c14388155476aea5fb6bff705,,,_479872.77e7548c14388155476aea5fb6bff705.mobi,0,2000-01-01 01:00:00,2016-04-03 02:51:08,799000/77e7548c14388155476aea5fb6bff705-d.jpg,,
19819626,Physics for the International Baccalaureate,,,,Greg Kerr,2009,3,IBID Press,,584,0,English,,,,"1876659289,9781876659288",,,,,,,,,,,0,,,,,1,0,1,13290543,pdf,650f157a23b6fca3a3261c558175243c,,,_479888.650f157a23b6fca3a3261c558175243c.pdf,0,2000-01-01 01:00:00,2016-04-03 02:51:08,799000/650f157a23b6fca3a3261c558175243c-g.jpg,,
19819627,Damon Knight&rsquo;s Collection Band 2. (Neue Science Fiction Stories),,,,Damon Knight,1972,,Fischer Taschenbuch Verlag,,173,0,German,,,,"3436014907,9783436014902",,,,,,,,,,,0,,,,,1,,1,2828217,pdf,d10ba6744734824580174f1c63114278,,,_479893.d10ba6744734824580174f1c63114278.pdf,0,2000-01-01 01:00:00,2016-04-03 02:51:08,799000/d10ba6744734824580174f1c63114278-g.jpg,,
19819628,Blockade,,,,Brian N. Ball,1974,,Fischer-Taschenbuch-Verlag,,298,0,German,,,,"3436015008,9783436015008",,,,,,,,,,,0,,,,,1,,1,2401169,pdf,fee27e81106cb356b5befc58a67c2c14,,,_479896.fee27e81106cb356b5befc58a67c2c14.pdf,0,2000-01-01 01:00:00,2016-04-03 02:51:08,799000/fee27e81106cb356b5befc58a67c2c14-g.jpg,,
19819629,"Reinforced Concrete Masonry Construction Inspectors Handbook, 7th Ed",,,,"John Chrysler, Masonry Institute of America, International Code Council",2010,7,Masonry Institute of America,,416,0,English,,,,"0940116510,9780940116511",,,,,693.540287,,,,,,0,,,,,1,0,0,77925196,pdf,8881214484e5b3254c24822e8b8e078a,,,_479918.8881214484e5b3254c24822e8b8e078a.pdf,0,2000-01-01 01:00:00,2016-04-03 02:51:08,799000/8881214484e5b3254c24822e8b8e078a-g.jpg,,
19819630,Damon Knight&rsquo;s Collection 6,,,,Damon Knight,1972,,Fischer Taschenbuch Verlag,,169,0,German,,,,"3436015776,9783436015770",,,,,,,,,,,0,,,,,1,,1,949368,pdf,8644eeaa4efd823917118604632fa613,,,_479920.8644eeaa4efd823917118604632fa613.pdf,0,2000-01-01 01:00:00,2016-04-03 02:51:08,799000/8644eeaa4efd823917118604632fa613-g.jpg,,
19819631,Zweibeiner sehen dich an,,,,Damon Knight,1973,,Fischer Taschenbuch Verlag,,197,0,German,,,,"3436016756,9783436016753",,,,,,,,,,,0,,,,,1,,1,2780986,pdf,03a6f3e8286180c4a5530e1b42b410c3,,,_479928.03a6f3e8286180c4a5530e1b42b410c3.pdf,0,2000-01-01 01:00:00,2016-04-03 02:51:08,799000/03a6f3e8286180c4a5530e1b42b410c3-g.jpg,,
19819632,A Better Way to Date: A Step-by-Step Guide to Finding Your Perfect Partner,,,,Michael Webb,2003,,,,177,0,English,,,,,,,,,,,,,,,0,,,,1,0,1,1,2039628,pdf,384de673827092e43495d3088e9a64cf,,,_479934.384de673827092e43495d3088e9a64cf.pdf,0,2000-01-01 01:00:00,2016-04-03 02:51:08,799000/384de673827092e43495d3088e9a64cf-g.jpg,,
19819633,"Manufacturing Hysteria: A History of Scapegoating, Surveillance, and Secrecy in Modern America",,,,Jay Feldman,2011,,Pantheon Books,,,0,English,,,,"0307379868,9780307379863",,,,,323.4′90973—dc22,JC599.U5F415 2011 ,,4FAtuXR2AJsC,,,0,,,,0,0,1,1,4501417,epub,341f2ad04f953bc0a3e8caff81419cef,,,_479957.341f2ad04f953bc0a3e8caff81419cef.epub,0,2000-01-01 01:00:00,2016-04-03 02:51:08,799000/341f2ad04f953bc0a3e8caff81419cef-g.jpg,,
19819634,"Electric power distribution, automation, protection, and control",,,,James A. Momoh,2007,,CRC Press,,380,0,English,,,,"1420006258,9781420006254",,,,,,,,yt2pQAAACAAJ,,,0,,,,1,0,1,1,7413741,pdf,b0cde16a80801501321f153d566b1f2e,,,_479971.b0cde16a80801501321f153d566b1f2e.pdf,0,2000-01-01 01:00:00,2016-04-03 02:51:08,799000/b0cde16a80801501321f153d566b1f2e-g.jpg,,
19819635,The Orthodox Corruption of Scripture: The Effect of Early Christological Controversies on the Text of the New Testament,,,,Bart D. Ehrman,1996,,"Oxford University Press, USA",,329,0,English,,,,"0195102797,9780195102796",,,,,225.609015,,,,OL7387807M,,0,,,,1,1,1,1,6829792,pdf,94d5a5e0db5b38078901063bfccce83d,,,_479983.94d5a5e0db5b38078901063bfccce83d.pdf,0,2000-01-01 01:00:00,2016-04-03 02:51:08,799000/94d5a5e0db5b38078901063bfccce83d-d.jpg,,
19819636,"Quest for Lost Heroes (Drenai Tales, Book 3)",,Drenai Tales volume 3,,David Gemmell,1995,,Random House Publishing Group,,,0,English,,,,,,,,,,,,Q2i-fUTDVZkC,,,0,,,,,0,0,1,320337,epub,7dae8f0e52bc2f2693825732ea4649c8,,,_480004.7dae8f0e52bc2f2693825732ea4649c8.epub,0,2000-01-01 01:00:00,2016-04-03 02:51:08,799000/7dae8f0e52bc2f2693825732ea4649c8-g.jpg,,
19819637,The Swerve: How the World Became Modern,,,,Stephen Greenblatt,2011,First Edition,W. W. Norton & Company,,356,0,English,,,,"0393064476,9780393064476",,,,,940.2/1,PA6484 .G69 2011,,,OL25053773M,,0,,,,1,1,1,1,930087,epub,296ac8607e97d5a76d07d1f34ed80529,,,_480013.296ac8607e97d5a76d07d1f34ed80529.epub,0,2000-01-01 01:00:00,2016-04-03 02:51:08,799000/296ac8607e97d5a76d07d1f34ed80529-d.jpg,,
19819638,Mistero All'abbazia (Audio),,,,"Maria Luisa Banfi, Simona Gavelli",2008,,Cideb Editrice,,66,0,Italian,,,,"8853007303,9788853007308",,,,,458.6,,,,,,0,,,,0,1,1,0,74259572,pdf,f82104e01f5eb84f77ec4faccbf10a39,,,_480030.f82104e01f5eb84f77ec4faccbf10a39.pdf,0,2000-01-01 01:00:00,2016-04-03 02:51:08,799000/f82104e01f5eb84f77ec4faccbf10a39-d.jpg,,
19819639,Early America Revisited,,,,Ivan Van Sertima,1998,,Transaction Publishers,,217,0,English,,,,"0765804638,9780765804631",,,,,970.01/9,E109.A35 V35 1998,,FXFsUySZg8QC,OL353447M,,0,,,,0,1,0,0,37779189,pdf,85dae7e3a5182421b46377a784aa2e08,,,_480046.85dae7e3a5182421b46377a784aa2e08.pdf,0,2000-01-01 01:00:00,2016-04-03 02:51:08,799000/85dae7e3a5182421b46377a784aa2e08-d.jpg,,
19819640,The Art of Digital Audio Recording: A Practical Guide for Home and Studio,,,,Steve Savage,2011,,"Oxford University Press, USA",,284,0,English,,,,"0195394100,9780195394108,0195394097,9780195394092",,,,,621.389/3,TK7881.4 .S38 2011,,2ORA8Ca6QuwC,OL25001246M,,0,,,,1,0,1,1,7361858,pdf,0c2bf9d6f22381a79a68218325e15348,,,_480049.0c2bf9d6f22381a79a68218325e15348.pdf,0,2000-01-01 01:00:00,2016-04-03 02:51:08,799000/0c2bf9d6f22381a79a68218325e15348-d.jpg,,
19819641,Stress: Perspectives and Processes (Health Psychology),,,,Dean Bartlett,1998,1,Open Univ Pr,,173,0,English,,,,"0335199283,9780335199280",,,,,616/.001/9,RC455.4.S87 B37 1998,,,OL354788M,,0,,,,,1,,0,26032757,pdf,c4a6ccd682b3001f591f74e0ea482507,,,_480052.c4a6ccd682b3001f591f74e0ea482507.pdf,0,2000-01-01 01:00:00,2016-04-03 02:51:08,799000/c4a6ccd682b3001f591f74e0ea482507-d.jpg,,
19819642,The Birthday Ball,,,,"Lois Lowry, Jules Feiffer",2011,1,Houghton Mifflin Books for Children,,192,0,English,,,,"054723869X,9780547238692",,,,,,,,,OL23712513M,,0,,,,0,0,1,1,3137860,epub,a82892ddf85e60eb08e94ec6b80b23d3,,,_480110.a82892ddf85e60eb08e94ec6b80b23d3.epub,0,2000-01-01 01:00:00,2016-04-03 02:51:08,799000/a82892ddf85e60eb08e94ec6b80b23d3-d.jpg,,
19819643,Kodierungstechniken im Wandel: Das Zusammenspiel von Analytik und Synthese im Gegenwartsdeutschen,,Linguistik - Impulse & Tendenzen,,"Dagmar Bittner, Livio Gaeta",2010,1,Gruyter,,298,0,German,,,,"3110228440,9783110228441",,,,,435,,,dfCJ-RmbrPEC,,,0,,,,1,0,1,1,3133563,pdf,3088b3924c871c522b1fbd817823ef58,,,_480142.3088b3924c871c522b1fbd817823ef58.pdf,0,2000-01-01 01:00:00,2016-04-03 02:51:08,799000/3088b3924c871c522b1fbd817823ef58-d.jpg,,
19819644,The Ideal Wife,,Dark Angel volume 5,,Mary Balogh,2008,,Dell,,,0,English,,,,"0440337879,9780440337874",,,,,823.914,,,,OL24291611M,,0,,,,0,0,1,1,621164,epub,9e831825b66a9d76b8c76583332ffd9b,,,_480146.9e831825b66a9d76b8c76583332ffd9b.epub,0,2000-01-01 01:00:00,2016-04-03 02:51:08,799000/9e831825b66a9d76b8c76583332ffd9b-g.jpg,,
19819645,Biosensors and Biodetection: Methods and Protocols Volume 1: Optical-Based Detectors (Methods in Molecular Biology Vol 503),,Methods in Molecular Biology volume 503,,"Avraham Rasooly, Keith E. Herold",2008,1,Humana Press,,452,0,English,,,,"1603275665,9781603275668",,,,,610.28,R857.B54 B55196 2009,10.1007/978-1-60327-567-5,,OL24585314M,,0,,,,0,1,1,1,7756923,pdf,64c181385ebe3ed563225d92ed870d8d,,,_480151.64c181385ebe3ed563225d92ed870d8d.pdf,0,2000-01-01 01:00:00,2016-04-03 02:51:08,799000/64c181385ebe3ed563225d92ed870d8d-d.jpg,,
19819646,Understanding physics,,,,"David C. Cassidy, Gerald James Holton, Floyd James Rutherford, F. James Rutherford, Harvard Project Physics",2002,1,Birkh u00e4user,,875,0,English,,,,"0387987568,9780387987569",,,,,530,QC23.2 .C37 2002,,iPsKvL_ATygC,OL3559183M,,0,,,,1,0,1,1,54060765,pdf,880823c39b0e0bc4c2da77c70f6a3617,,,_480196.880823c39b0e0bc4c2da77c70f6a3617.pdf,0,2000-01-01 01:00:00,2016-04-03 02:51:08,799000/880823c39b0e0bc4c2da77c70f6a3617-d.jpg,,
19819647,A Spy in the House of Love,,,,Anais Nin,1994,First Edition,Pocket,,176,0,English,,,,"0671871390,9780671871390",,,,,813.52,,,,OL7667078M,,0,,,,,1,,,146884,epub,821906f211aba65c3b18c3df0fb4854c,,,_480221.821906f211aba65c3b18c3df0fb4854c.epub,0,2000-01-01 01:00:00,2016-04-03 02:51:08,799000/821906f211aba65c3b18c3df0fb4854c-d.jpg,,
19819648,Hora est. Bibliografie van de proefschriften Katholieke Univeriteit Nijmegen 1923-1998,,,,A.J.M. DOBBELAER,1998,,"Valkhof Pers, Nijmegen",,627,0,Dutch,,,,9056250442,,,,,,,,,,,0,,,,1,0,0,1,2477307,pdf,2d5cc730bc9681264ee81a71e0e3566e,,,_480258.2d5cc730bc9681264ee81a71e0e3566e.pdf,0,2000-01-01 01:00:00,2016-04-03 02:51:08,799000/2d5cc730bc9681264ee81a71e0e3566e-g.jpg,,
19819649,"Mapping Psychic Reality: Triangulation, Communication and Insight",,Psychoanalytic Ideas,,Edited by James Rose,2011,,Karnac Books,,295,0,English,,,,"1855758148,9781855758148",,,,,,,,9_qFh4DR3lUC,,,0,,,,1,0,1,1,808425,pdf,e7ffc82326b839c5d83020a6e20d2878,,,_480271.e7ffc82326b839c5d83020a6e20d2878.pdf,0,2000-01-01 01:00:00,2016-04-03 02:51:08,799000/e7ffc82326b839c5d83020a6e20d2878-d.jpg,,
19819650,Hercule Poirot's Christmas,,,,Agatha Christie,2001,Masterpiece ed,Harpercollins Pb,,336,0,English,,,,"0007120699,9780007120697",,,,,823.912,,,,,,0,,,,,1,,,252239,epub,5eff4607baac9794fb02d4d912d6c827,,,_480290.5eff4607baac9794fb02d4d912d6c827.epub,0,2000-01-01 01:00:00,2016-04-03 02:51:08,799000/5eff4607baac9794fb02d4d912d6c827-d.jpg,,
19819651,Hercule Poirot's Casebook,,,,Agatha Christie,2004,,Putnam Adult,,861,0,English,,,,"0399150218,9780399150210",,,,,823/.912,PR6005.H66 H4 1989,,,OL20946804M,,0,,,,,1,,,403385,epub,84f2d80655b85278d48eb5ce58f033f9,,,_480291.84f2d80655b85278d48eb5ce58f033f9.epub,0,2000-01-01 01:00:00,2016-04-03 02:51:08,799000/84f2d80655b85278d48eb5ce58f033f9-d.jpg,,
19819652,Poirot Investigates,,Hercule Poirot volume 3,,Agatha Christie,,,,,,0,English,,,,,,,,,,,,,,"missing front material, all text bolded",0,,,,0,0,0,1,208800,epub,2bb8238cc5ef177d295115d6d93b7b25,,,_480292.2bb8238cc5ef177d295115d6d93b7b25.epub,0,2000-01-01 01:00:00,2016-04-03 02:51:08,799000/2bb8238cc5ef177d295115d6d93b7b25-g.jpg,,
19819653,Hallowe'en Party: A Hercule Poirot Mystery (Hercule Poirot Mysteries),,,,Agatha Christie,2011,Reissue,Harper Paperbacks,,272,0,English,,,,"0062073958,9780062073952",,,,,823.912,,,,,,0,,,,,1,,,208794,epub,d101204c16b89866188973c2894e4b8d,,,_480293.d101204c16b89866188973c2894e4b8d.epub,0,2000-01-01 01:00:00,2016-04-03 02:51:08,799000/d101204c16b89866188973c2894e4b8d-d.jpg,,
19819654,Colonialism and the Emergence of Science Fiction (Early Classics of Science Fiction),,,,John Rieder,2008,,Wesleyan,,200,0,English,,,,"0819568740,9780819568748",,,,,823/.0876209,PS374.S35 R45 2008,,,OL16896966M,,0,,,,0,1,0,1,8709243,pdf,18c7b67fe4fccc3d499e07a2a8c0a78d,,,_480294.18c7b67fe4fccc3d499e07a2a8c0a78d.pdf,0,2000-01-01 01:00:00,2016-04-03 02:51:08,799000/18c7b67fe4fccc3d499e07a2a8c0a78d-d.jpg,,
19819655,Causation,,Oxford Readings in Philosophy,,"Ernest Sosa, Michael Tooley (editors)",1993,,Oxford University Press,,260,0,English,,,,"0198750935,9780198750932",,,,,122,BD591 .C26 1993,,,OL1724739M,,600,,,,,1,1,1,2452308,djvu,515b4fff37e6f375f71cccf2f801c6a4,,,_480295.515b4fff37e6f375f71cccf2f801c6a4.djvu,0,2000-01-01 01:00:00,2016-04-03 02:51:08,799000/515b4fff37e6f375f71cccf2f801c6a4-g.jpg,,
19819656,Higher Education Institutions and Learning Management Systems: Adoption and Standardization,,,,"Rosalina Babo, Ana Azevedo",2011,1,IGI Global snippet,,399,0,English,,,,"1609608844,9781609608842,1609608860,9781609608866,9781609608859",,,,,378.1/7344678,LB2395.7 .H55 2012,,2yhKkxRD15sC,OL25077894M,,0,,,,1,0,1,1,14247749,pdf,c18fb9f3e8b6ccb74eafae75cb6a4407,,,_480296.c18fb9f3e8b6ccb74eafae75cb6a4407.pdf,0,2000-01-01 01:00:00,2016-04-03 02:51:08,799000/c18fb9f3e8b6ccb74eafae75cb6a4407-d.jpg,,
19819657,International Law and Ethics After the Critical Challenge: Framing the Legal within the Post-Foundational,,The Erik Castrén Institute Monographs on International Law and Human Rights,,Euan MacDonald,2011,,Martinus Nijhoff Publishers,,446,0,English,,,,"9004189092,9789004189096",1568-2765,,,,341,KZ1256.M33 2011,,3VQ9YgEACAAJ,,,0,,,,1,0,1,1,1805243,pdf,166c55e85d0aeb151d5ba97b72a750cb,,,_480297.166c55e85d0aeb151d5ba97b72a750cb.pdf,0,2000-01-01 01:00:00,2016-04-03 02:51:08,799000/166c55e85d0aeb151d5ba97b72a750cb-d.jpg,,
19819658,Islamic Economics and Finance: An Epistemological Inquiry,,Contributions to Economic Analysis 291,,Masudul Alam Choudhury,2011,,Emerald Group Publishing Limited,,396,0,English,,,,"0857247212,9780857247216",0573-8555,,,,330.91767,,,Ow_NzK1rbccC,,,0,,,,1,0,1,1,1573943,pdf,c65473bb465a960b74df1a49757713e4,,,_480298.c65473bb465a960b74df1a49757713e4.pdf,0,2000-01-01 01:00:00,2016-04-03 02:51:08,799000/c65473bb465a960b74df1a49757713e4-d.jpg,,
19819659,Junkware,,PostHumanities volume 13,,Thierry Bardini,2011,,Univ Of Minnesota Press,,298,0,English,,,,"0816667519,9780816667512,0816667500,9780816667505",,,,,128,BD450 .B37 2010,,7hZDllG70OYC,OL24040607M,,0,,,,1,0,1,1,1382923,pdf,15b8b472a352995475f974131a7fd56d,,,_480299.15b8b472a352995475f974131a7fd56d.pdf,0,2000-01-01 01:00:00,2016-04-03 02:51:08,799000/15b8b472a352995475f974131a7fd56d-d.jpg,,
19819660,The Tourniquet Manual - Principles and Practice,,,,Leslie Klenerman,2003,1st Edition.,Springer,,115,0,English,,,,"1852337060,9781852337063",,,,,617/.9,RD73.T6 K54 2003,,yX46bfZ-j98C,OL3684374M,,0,,,,0,1,1,1,5726405,pdf,063c2e79fd5993d83b9ad357cc224d2e,,,_480300.063c2e79fd5993d83b9ad357cc224d2e.pdf,0,2000-01-01 01:00:00,2016-04-03 02:51:08,799000/063c2e79fd5993d83b9ad357cc224d2e-d.jpg,,
19819661,Stress: Perspectives and Processes (Health Psychology),,,,Dean Bartlett,1998,1,Open University Press,,185,0,English,,,,"0335199283,9780335199280",,,,,616/.001/9,RC455.4.S87 B37 1998,,,OL354788M,,0,,,,1,1,1,1,1876948,pdf,399ab7d43e228c99ae3f24863dce654c,,,_480301.399ab7d43e228c99ae3f24863dce654c.pdf,0,2000-01-01 01:00:00,2016-04-03 02:51:08,799000/399ab7d43e228c99ae3f24863dce654c-d.jpg,,
19819662,"Boomerang Kids: A Revealing Look at Why So Many of Our Children Are Failing on Their Own, and How Parents Can Help",,,,Carl Pickhardt Ph.D.,2011,,Sourcebooks,,337,0,English,,,,,,,,,,,,,,,0,,,,1,0,1,1,2459653,pdf,508317a889e9720c45bd045b967beafd,,,_480302.508317a889e9720c45bd045b967beafd.pdf,0,2000-01-01 01:00:00,2016-04-03 02:51:08,799000/508317a889e9720c45bd045b967beafd-g.jpg,,
19819663,Boundary Element Methods in Engineering and Sciences,,Computational and Experimental Methods in Structures volume 4,,"M. H. Aliabadi, P. H. Wen",2010,1,World Scientific,,412,0,English,,,,"184816579X,9781848165793",,,,,620.00151535,,,PyZfY8zYfyoC,,,0,,,,1,0,1,1,5332594,pdf,04005d3800c61928a0b141de7cedf52a,,,_480303.04005d3800c61928a0b141de7cedf52a.pdf,0,2000-01-01 01:00:00,2016-04-03 02:51:08,799000/04005d3800c61928a0b141de7cedf52a-d.jpg,,
19819664,Cancer Sourcebook,,Health Reference,,Karen Bellenir,2011,6,Omnigraphics,,1110,0,English,,,,"0780811453,9780780811454",,,,,616.99/4,RC263 .C294 2011,,dbFVRAAACAAJ,OL25045808M,,0,,,,1,0,1,1,3583455,pdf,cfdf6826d58c9ddc6740691ff539d1c2,,,_480304.cfdf6826d58c9ddc6740691ff539d1c2.pdf,0,2000-01-01 01:00:00,2016-04-03 02:51:08,799000/cfdf6826d58c9ddc6740691ff539d1c2-d.jpg,,
19819665,Essai de sociologie,,,,Luigi Sturzo,1935,,Bloud et Gay,,252,0,French,,,,,,,,,,,,,,,0,,,,1,1,1,1,7474787,pdf,19ed5b19e69ce194962cb0334cdcf973,,,_480305.19ed5b19e69ce194962cb0334cdcf973.pdf,0,2000-01-01 01:00:00,2016-04-03 02:51:08,799000/19ed5b19e69ce194962cb0334cdcf973-g.jpg,,
19819666,Information status and noncanonical word order in English,,Studies in language companion volume 40,,"Betty J. Birner, Gregory L. Ward",1998,,John Benjamins Publishing Company,,328,0,English,,,,"9027230439,9789027230430,1556199260,9781556199264",,,,,401/.41,PE1390 .B575 1998,,ceATAL6Un38C,OL347111M,,0,,,,1,1,1,1,12844801,pdf,18e9286a3ecd8744632108836af0cdff,,,_480306.18e9286a3ecd8744632108836af0cdff.pdf,0,2000-01-01 01:00:00,2016-04-03 02:51:08,799000/18e9286a3ecd8744632108836af0cdff-g.jpg,,
19819667,Surviving the Bosnian Genocide: The Women of Srebrenica Speak,,,,"Selma Leydesdorff, Kay Richardson",2011,,Indiana University Press,,273,0,English,,,,"0253356695,9780253356697,0253005299,9780253005298",,,,,949.703,DR1313.32.S68 L4913 2011,,OrxGc79iHZ8C,OL25032527M,,0,,,,1,0,1,1,4981988,pdf,3f8ea975d7ab35ee2de37bd08f3ceacf,,,_480307.3f8ea975d7ab35ee2de37bd08f3ceacf.pdf,0,2000-01-01 01:00:00,2016-04-03 02:51:08,799000/3f8ea975d7ab35ee2de37bd08f3ceacf-d.jpg,,
19819668,How's Life?: Measuring Progress and Well-Being,,,,Organization for Economic Cooperation and Development OECD,2011,,Bernan Assoc,,130,0,English,,,,"9264111611,9789264111615",,,,,362.1,,10.1787/9789264121164-en,,OL25146023M,,0,,,,,1,1,1,4911346,pdf,b89799c4bffb08dd32983513e082f75b,,,_480308.b89799c4bffb08dd32983513e082f75b.pdf,0,2000-01-01 01:00:00,2016-04-03 02:51:08,799000/b89799c4bffb08dd32983513e082f75b-d.jpg,,
19819669,Περί Ειρήνης - Κατά των Σοφιστών - Προς Φίλιππον (III) - Προς Αλέξανδρον (V),,Αρχαίοι Συγγραφείς,,"Ισοκράτης, Μαρία Γ. Ξανθού (μετάφραση)",2006,,Ζήτρος (Το Βήμα),,415,0,Greek(Modern),,,,9604425056,,,,,,,,,,,600,,,,0,1,1,0,30012933,pdf,a39776774a70533fdb6b3ab002105735,,,_480309.a39776774a70533fdb6b3ab002105735.pdf,0,2000-01-01 01:00:00,2016-04-03 02:51:08,799000/a39776774a70533fdb6b3ab002105735-g.jpg,,
19819670,Tamiya Mini 4WD Pro Product Catalog,,,,Tamiya USA,,,,,20,0,English,,,,,,,,,,,,,,,0,,,,,1,,1,33824605,pdf,311f251e880b059f5fb777d8fcc81850,,,_480310.311f251e880b059f5fb777d8fcc81850.pdf,0,2000-01-01 01:00:00,2016-04-03 02:51:08,799000/311f251e880b059f5fb777d8fcc81850-g.jpg,,
19819671,Fearless Fourteen,,Stephanie Plum volume 14,,Janet Evanovich,2011,,Headline,,379,0,English,,,,"075538850X,9780755388509",,,,,,,,haf_l5esklIC,,,0,,,,0,0,0,1,203330,epub,672f198942b61e32a4a55a003dbceba2,,,_480311.672f198942b61e32a4a55a003dbceba2.epub,0,2000-01-01 01:00:00,2016-04-03 02:51:08,799000/672f198942b61e32a4a55a003dbceba2-g.jpg,,
19819672,Twelve Sharp,,Stephanie Plum volume 12,,Janet Evanovich,2011,,Headline,,396,0,English,,,,"0755388488,9780755388486",,,,,,,,0k5KhFDla3gC,,,0,,,,0,0,0,1,220299,epub,0961fd774dd46b840e056353d2f95365,,,_480312.0961fd774dd46b840e056353d2f95365.epub,0,2000-01-01 01:00:00,2016-04-03 02:51:08,799000/0961fd774dd46b840e056353d2f95365-g.jpg,,
19819673,To The Nines,,Stephanie Plum volume 9,,Janet Evanovich,2011,,Headline,,428,0,English,,,,"0755388437,9780755388431",,,,,,,,2VRUz1duE5UC,,,0,,,,0,0,0,1,263965,epub,e63652395693121b1d8d1efb40993983,,,_480316.e63652395693121b1d8d1efb40993983.epub,0,2000-01-01 01:00:00,2016-04-03 02:51:08,799000/e63652395693121b1d8d1efb40993983-g.jpg,,
19819674,Hard eight,,Stephanie Plum volume 8,,Janet Evanovich,2003,,St. Martin's Paperbacks,,434,0,English,,,,"0312983867,9780312983864",,,,,813/.54,PS3555.V2126 H37 2002b,,CqI5AgAACAAJ,OL23246036M,,0,,,,0,0,0,1,226818,epub,2ed0d511f89c95c83221f2cb2923db13,,,_480317.2ed0d511f89c95c83221f2cb2923db13.epub,0,2000-01-01 01:00:00,2016-04-03 02:51:08,799000/2ed0d511f89c95c83221f2cb2923db13-d.jpg,,
19819675,Seven Up,,Stephanie Plum volume 7,,Janet Evanovich,2002,,St. Martin's Press,,428,0,English,,,,"0312984510,9780312984519",,,,,813.54,,,2n9NwqyoM9oC,OL9577947M,,0,,,,0,0,0,1,425867,epub,0b1af0743c37aaaf37dca7ed449d822b,,,_480318.0b1af0743c37aaaf37dca7ed449d822b.epub,0,2000-01-01 01:00:00,2016-04-03 02:51:08,799000/0b1af0743c37aaaf37dca7ed449d822b-d.jpg,,
19819676,Hot Six,,Stephanie Plum volume 6,,Janet Evanovich,2000,Large Print Ed,Windsor Publications,,424,0,English,,,,"0754015084,9780754015086",,,,,813.54,,,c-VMPgAACAAJ,,,0,,,,0,0,0,1,455137,epub,cb0384dc710b3b267c4b41fe10acd0b4,,,_480319.cb0384dc710b3b267c4b41fe10acd0b4.epub,0,2000-01-01 01:00:00,2016-04-03 02:51:08,799000/cb0384dc710b3b267c4b41fe10acd0b4-g.jpg,,
19819677,7 Commitments of a Forerunner,,,,"Mike Bickle, Brian Kim",2009,,Forerunner Books,,134,0,English,,,,"0982326289,9780982326282",,,,,,,,,,,0,,,,,1,,1,1686669,pdf,94dd0801a3915d33c9b7a608af1c077f,,,_480320.94dd0801a3915d33c9b7a608af1c077f.pdf,0,2000-01-01 01:00:00,2016-04-03 02:51:08,799000/94dd0801a3915d33c9b7a608af1c077f-d.jpg,,
19819678,High Five,,Stephanie Plum volume 5,,Janet Evanovich,1999,,Pan,,439,0,English,,,,"144207518X,9781442075184",,,,,,,,n-E4QwAACAAJ,,,0,,,,0,0,0,1,267982,epub,e4466dd5de74bdbd61a7d1cf4f362520,,,_480321.e4466dd5de74bdbd61a7d1cf4f362520.epub,0,2000-01-01 01:00:00,2016-04-03 02:51:08,799000/e4466dd5de74bdbd61a7d1cf4f362520-g.jpg,,
19819679,The Seven Longings of the Human Heart,,,,"Mike Bickle, Deborah Hiebert",2006,,Forerunner Media,,151,0,English,,,,"0977673847,9780977673841",,,,,248.4,,,,OL8591378M,,0,,,,,1,,1,606548,pdf,4251e82c9e3124fa570eedc65f73d447,,,_480322.4251e82c9e3124fa570eedc65f73d447.pdf,0,2000-01-01 01:00:00,2016-04-03 02:51:08,799000/4251e82c9e3124fa570eedc65f73d447-d.jpg,,
19819680,Four to Score,,Stephanie Plum volume 4,,Janet Evanovich,2010,1 Reprint,St. Martin's Press,,444,0,English,,,,"0312675097,9780312675097",,,,,813.54,,,eXq8H6APWAYC,,,0,,,,0,0,0,1,276531,epub,565c2b08169762b555a2cebc88e36132,,,_480323.565c2b08169762b555a2cebc88e36132.epub,0,2000-01-01 01:00:00,2016-04-03 02:51:08,799000/565c2b08169762b555a2cebc88e36132-d.jpg,,
19819681,Prayers to Strengthen Your Inner Man,,,,Mike Bickle,2009,,Forerunner Books,,31,0,English,,,,"0982326211,9780982326213",,,,,,,,,,,0,,,,,1,,1,335368,pdf,ec1b360016c5febcc7c6630eb4692775,,,_480324.ec1b360016c5febcc7c6630eb4692775.pdf,0,2000-01-01 01:00:00,2016-04-03 02:51:08,799000/ec1b360016c5febcc7c6630eb4692775-d.jpg,,
19819682,Three To Get Deadly: A Stephanie Plum Novel,,Stephanie Plum volume 3,,Janet Evanovich,1999,,Simon and Schuster,,480,0,English,,,,"0684868601,9780684868608",,,,,,,,EXl6DW2h0iYC,,,0,,,,1,0,1,1,308902,epub,8496fc8953cef380f7d52f55376f8a39,,,_480325.8496fc8953cef380f7d52f55376f8a39.epub,0,2000-01-01 01:00:00,2016-04-03 02:51:08,799000/8496fc8953cef380f7d52f55376f8a39-d.jpg,,
19819683,"Growing In The Prophetic: A practical biblical guide to dreams, visions, and spiritual gifts",,,,Mike Bickle,2008,Revised,Charisma House,,256,0,English,,,,"1599793121,9781599793122",,,,,234/.13,BR115.P8 B53 2008,,,OL16991540M,,0,,,,,1,,1,3118610,pdf,ccb8043fec4bfcc626ac8b8ddb65502c,,,_480326.ccb8043fec4bfcc626ac8b8ddb65502c.pdf,0,2000-01-01 01:00:00,2016-04-03 02:51:08,799000/ccb8043fec4bfcc626ac8b8ddb65502c-d.jpg,,
19819684,Two For The Dough: A Stephanie Plum Novel,,Stephanie Plum volume 2,,Janet Evanovich,2000,PF,Simon and Schuster,,419,0,English,,,,"0684868539,9780684868530",,,,,,,,V-5AV-yiq-UC,,,0,,,,0,0,0,1,277573,epub,d942b87dc68f0bdddec870e29319d8d2,,,_480327.d942b87dc68f0bdddec870e29319d8d2.epub,0,2000-01-01 01:00:00,2016-04-03 02:51:08,799000/d942b87dc68f0bdddec870e29319d8d2-d.jpg,,
19819685,One for the money,,Stephanie Plum volume 1,,Janet Evanovich,1995,Repack,Penguin,,390,0,English,,,,"0140252924,9780140252927",,,,,813.54,,,9EoSQgAACAAJ,OL7351334M,,0,,,,0,0,0,1,211978,epub,7beea24bbd7a462e6324b98d01097432,,,_480328.7beea24bbd7a462e6324b98d01097432.epub,0,2000-01-01 01:00:00,2016-04-03 02:51:08,799000/7beea24bbd7a462e6324b98d01097432-d.jpg,,
19819686,Reason and Responsibility: Readings in Some Basic Problems of Philosophy (13th Edition),,,,"Joel Feinberg, Russ Shafer-Landau",2007,13th,Wadsworth Publishing,,377,0,English,,,,"0495094927,9780495094920",,,,,100,,,,OL7651187M,,0,,,,0,0,0,1,1925931,pdf,36f8ae4cd885799f471abbe20222680f,,,_480329.36f8ae4cd885799f471abbe20222680f.pdf,0,2000-01-01 01:00:00,2016-04-03 02:51:08,799000/36f8ae4cd885799f471abbe20222680f-d.jpg,,
19819687,Deification in John of Damascus  (phd dissertation),,,,"Himmerich,Maurice Fred",1985,,,,212,0,English,,,,,,,,,,,,,,,0,,,,1,1,0,1,6597086,pdf,91845b3d5277084e83e322b2889bdb8f,,,_480330.91845b3d5277084e83e322b2889bdb8f.pdf,0,2000-01-01 01:00:00,2016-04-03 02:51:08,799000/91845b3d5277084e83e322b2889bdb8f-g.jpg,,
19819688,Approaches and Methods in Language Teaching,,,,Jack C. Richards & Theodore S. Rodgers,,,,,142,0,English,,,,,,,,,,,,,,,0,,,,,1,,0,41185069,pdf,5bcb164be822c300a96cc7959975eb18,,,_480331.5bcb164be822c300a96cc7959975eb18.pdf,0,2000-01-01 01:00:00,2016-04-03 02:51:08,799000/5bcb164be822c300a96cc7959975eb18-g.jpg,,
19819689,Traité des mystères (Sources chrétiennes 019),,,,"Hilaire de Poitiers, Jean-Paul Brisson (éd.)",,,,,87,0,French,,,,,,,,,,,,,,,0,,,,,1,,0,16492584,pdf,cdd12769790e9e6e6fb3d2da345d48cb,,,_480332.cdd12769790e9e6e6fb3d2da345d48cb.pdf,0,2000-01-01 01:00:00,2016-04-03 02:51:08,799000/cdd12769790e9e6e6fb3d2da345d48cb-g.jpg,,
19819690,Homélies sur le Cantique des Cantiques (Sources chrétiennes 037),,,,"Origène, Dom Olivier Rousseau (éd.)",,,,,80,0,French,,,,,,,,,,,,,,,0,,,,,1,,0,15949147,pdf,b439667df16af9c0ad6f793f16973322,,,_480333.b439667df16af9c0ad6f793f16973322.pdf,0,2000-01-01 01:00:00,2016-04-03 02:51:08,799000/b439667df16af9c0ad6f793f16973322-g.jpg,,
19819691,The Story of Layla and Majnun,,,,Nizami Ganjavi,1966,,Bruno Cassirer,,110,0,English,,,,,,,,,,,,,,,0,,,,0,1,0,0,9020581,pdf,b5ab0b1b84d74c3828c203490b53cc53,,,_480335.b5ab0b1b84d74c3828c203490b53cc53.pdf,0,2000-01-01 01:00:00,2016-04-03 02:51:08,799000/b5ab0b1b84d74c3828c203490b53cc53-g.jpg,,
19819692,Supplique au sujet des Chrétiens (Sources chrétiennes 003),,,,"Athénagore, Gustave Bardy (éd.)",,,,,87,0,French,,,,,,,,,,,,,,,0,,,,,1,,0,15424136,pdf,9815ba33aaf0400fd7a2b33e2fea0ba8,,,_480337.9815ba33aaf0400fd7a2b33e2fea0ba8.pdf,0,2000-01-01 01:00:00,2016-04-03 02:51:08,799000/9815ba33aaf0400fd7a2b33e2fea0ba8-g.jpg,,
19819693,New Knowledge in a New Era of Globalization,,,,Piotr Pachura,,,2011,,366,0,English,,,,978-953-307-501-3,,,,,,,,,,,0,,,,0,0,0,1,26661967,pdf,60e8456c1d87386683b8abf6fca81950,,,_480338.60e8456c1d87386683b8abf6fca81950.pdf,0,2000-01-01 01:00:00,2016-04-03 02:51:08,799000/60e8456c1d87386683b8abf6fca81950-g.jpg,,
19819694,,,,MSDN Magazine - Agile Development - June 2011 issue 6,"Microsoft, LUCINDA ROWLEY",2011,,,,96,0,English,,,,,,,,,,,,,,periodic,0,,,,1,0,1,1,21570205,pdf,642eaff3bad067ff04d529bfa2a1caba,,ban,_480339.642eaff3bad067ff04d529bfa2a1caba.pdf,0,2000-01-01 01:00:00,2016-04-03 02:51:08,799000/642eaff3bad067ff04d529bfa2a1caba-g.jpg,,
19819695,100 Top Consultations in Small Animal General Practice,,,,"Peter Hill, Sheena Warman, Geoff Shawcross",2011,1,Wiley-Blackwell,,448,0,English,,,,"1405169494,9781405169493",,,,,636.089,,,,,,0,,,,,1,,,17882951,epub,90072eb51e6cb7003f65f8b6270c2ffd,,,_480340.90072eb51e6cb7003f65f8b6270c2ffd.epub,0,2000-01-01 01:00:00,2016-04-03 02:51:08,799000/90072eb51e6cb7003f65f8b6270c2ffd-d.jpg,,
19819696,Descendant,,,,Graham Masterton,2011,Reprint,DP,,407,0,English,,,,"9781428511286,9781428509603",,,,,,,,,,,0,,,,,1,,1,1227096,pdf,f346b82e69f39ef6c3ba866b86701778,,,_480341.f346b82e69f39ef6c3ba866b86701778.pdf,0,2000-01-01 01:00:00,2016-04-03 02:51:08,799000/f346b82e69f39ef6c3ba866b86701778-d.jpg,,
19819697,The Penguin Freud Reader,,,,"Sigmund Freud, Selected and Introduced by Adam Phillips",2006,,Penguin Books,,,0,English,,,,,,,,,,,,eVR8Eos2798C,,,0,,,,0,0,1,1,2117638,epub,f025227c45ef8e5161527acd8160a9a5,,,_480342.f025227c45ef8e5161527acd8160a9a5.epub,0,2000-01-01 01:00:00,2016-04-03 02:51:08,799000/f025227c45ef8e5161527acd8160a9a5-g.jpg,,
19819698,Islamic Education,,,,Khosrow Bagheri Noaparast,,,,,141,0,English,,,,964-472-328-7,,,,,,,,,,,0,,,,,1,,1,337809,pdf,d2c70ad6255254c9090c849b7266ffca,,,_480343.d2c70ad6255254c9090c849b7266ffca.pdf,0,2000-01-01 01:00:00,2016-04-03 02:51:08,799000/d2c70ad6255254c9090c849b7266ffca-g.jpg,,
19819699,"The continuity of the Platonic tradition during the Middle Ages: with a new preface and four supplementary chapters ; together with, Plato's Parmenides in the Middle Ages and the Renaissance : with a new introductory preface",,,,Raymond Klibansky,1982,,Kraus International Publications,,82,0,English,,,,"0527501301,9780527501303",,,,,186/.4,B732,,,OL21217086M,,0,,,,0,1,0,0,104138201,pdf,550e1ef18c0d52ff458cf148a80305ec,,,_480344.550e1ef18c0d52ff458cf148a80305ec.pdf,0,2000-01-01 01:00:00,2016-04-03 02:51:08,799000/550e1ef18c0d52ff458cf148a80305ec-g.jpg,,
19819700,Utopolis,,,,Werner Illing,1974,,Fischer Taschenbuch Verlag,,252,0,German,,,,3436018619,,,,,,,,,,,0,,,,,1,,1,2357029,pdf,a9595508587a9bd01da9f1f66c17e2f4,,,_480346.a9595508587a9bd01da9f1f66c17e2f4.pdf,0,2000-01-01 01:00:00,2016-04-03 02:51:08,799000/a9595508587a9bd01da9f1f66c17e2f4-g.jpg,,
19819701,"Zen Mind, Beginner's Mind",,,,"Shunryū Suzuki, Trudy Dixon (editor)",1970,,Weatherhill,,138,0,English,,,,"0834800799,9780834800793",,,,,294.3/4/43,BL1478.6 .S9 1999,,,OL18189220M,,0,,,,,1,1,1,52943295,pdf,732b7ddfc0c5a0f1e9ac93c67e78ee73,,,_480347.732b7ddfc0c5a0f1e9ac93c67e78ee73.pdf,0,2000-01-01 01:00:00,2016-04-03 02:51:08,799000/732b7ddfc0c5a0f1e9ac93c67e78ee73-d.gif,,
19819702,Marco Polo: From Venice to Xanadu,,,,Laurence Bergreen,2007,First Edition,Knopf,,432,0,English,,,,"140004345X,9781400043453",,,,,"910.4,B",G370.P9 B37 2007,,,OL17945055M,,0,,,,,1,,1,4676228,pdf,f4e56fd1867e4acbf86e742be11b4bfb,,,_480348.f4e56fd1867e4acbf86e742be11b4bfb.pdf,0,2000-01-01 01:00:00,2016-04-03 02:51:08,799000/f4e56fd1867e4acbf86e742be11b4bfb-d.jpg,,
19819703,CURRENT Medical Diagnosis and Treatment 2011,,,,"Stephen McPhee, Stephen J. McPhee, Maxine Papadakis, Michael W. Rabow",2010,,McGraw-Hill Prof Med/Tech,,,0,English,,,,"0071767630,9780071767637",,,,,,,,,,,0,,,,0,1,1,1,40795642,epub,3232db10fd60605764f30f77fe663de1,,,_480349.3232db10fd60605764f30f77fe663de1.epub,0,2000-01-01 01:00:00,2016-04-03 02:51:08,799000/3232db10fd60605764f30f77fe663de1-g.jpg,,
19819704,Basilisk,,,,Graham Masterton,2009,,Severn House Publishers,,101,0,English,,,,"9781780100586,9780727867674,9781847511423",,,,,,,,,,,0,,,,,1,,1,1059636,pdf,a7aa08f19fe39e70dee67a37f7f664ee,,,_480350.a7aa08f19fe39e70dee67a37f7f664ee.pdf,0,2000-01-01 01:00:00,2016-04-03 02:51:08,799000/a7aa08f19fe39e70dee67a37f7f664ee-d.jpg,,
19819705,Women's oppression today: Problems in Marxist feminist analysis,,,,Michele Barrett,1986,,Verso,,146,0,English,,,0,0860910334,,,,,305.42,,,XQYpAAAAYAAJ,OL4159872M,,0,,,,0,1,0,1,10971523,pdf,2ca1476284b26658954dffc4e175ee59,,,_480351.2ca1476284b26658954dffc4e175ee59.pdf,0,2000-01-01 01:00:00,2016-04-03 02:51:08,799000/2ca1476284b26658954dffc4e175ee59-g.jpg,,
19819706,"Markets and Mortality: Economics, Dangerous Work, and the Value of Human Life",,,,Peter Dorman,1996,,Cambridge University Press,,287,0,English,,,,"0521553067,9780521553063",,,,,331.2,HD7262 .D58 1996,,,OL1277578M,,0,,,,1,1,1,1,3416743,pdf,00ce9c536a518fe41a757cfbff9d9f57,,,_480353.00ce9c536a518fe41a757cfbff9d9f57.pdf,0,2000-01-01 01:00:00,2016-04-03 02:51:08,799000/00ce9c536a518fe41a757cfbff9d9f57-d.jpg,,
19819707,"Logic , Part 1 (1921)",,,,William Ernest Johnson,1921,,Cambridge University Press,,304,0,English,,,,,,,,,,,,,,,0,,,,,1,,1,13201776,pdf,02896eef625a74ace08bdac99a775ab8,,,_480354.02896eef625a74ace08bdac99a775ab8.pdf,0,2000-01-01 01:00:00,2016-04-03 02:51:08,799000/02896eef625a74ace08bdac99a775ab8-g.jpg,,
19819708,"Choroby wewnętrzne: podręcznik multimedialny oparty na zasadach EBM., Tom 1",,,,"Jerzy Alkiewicz i inni, (red.: Andrzej Szczeklik)",2005,,Medycyna Praktyczna,,1232,0,Polish,,,,"8374300310,9788374300315",,,,,,,,,,,0,,,,,1,,1,960859412,pdf,288a27f6d9b18b282ff2d1a17b634d30,,,_480355.288a27f6d9b18b282ff2d1a17b634d30.pdf,0,2000-01-01 01:00:00,2016-04-03 02:51:08,799000/288a27f6d9b18b282ff2d1a17b634d30-g.jpg,,
19819709,"Logic , Part II ; Demonstrative Inference - Deductive and   Inductive (1922)",,,,William Ernest Johnson,1922,,Cambridge University Press,,288,0,English,,,,,,,,,,,,,,,0,,,,,1,,1,12259014,pdf,a61dad2e00b7212a3cad03306e81e324,,,_480356.a61dad2e00b7212a3cad03306e81e324.pdf,0,2000-01-01 01:00:00,2016-04-03 02:51:08,799000/a61dad2e00b7212a3cad03306e81e324-g.jpg,,
19819710,Intervention resource guide: 50 performance improvement tools,,,,"Danny G. Langdon, Kathleen S. Whiteside, Monica M. McKenna",1999,1,Jossey-Bass/Pfeiffer,,411,0,English,,,,"0787944017,9780787944018",,,,,658.3/045,HF5549.5.P37 I57 1999,,,OL377574M,,0,,,,0,0,0,1,9796521,pdf,2b2961e1f8660d4befc19b180f57382f,,,_480357.2b2961e1f8660d4befc19b180f57382f.pdf,0,2000-01-01 01:00:00,2016-04-03 02:51:08,799000/2b2961e1f8660d4befc19b180f57382f-d.jpg,,
19819711,Rheumatoid Arthritis and Proteus,,,,Alan Ebringer,2011,2012,Springer,,244,0,English,,,,"0857299492,9780857299499",,,,,,,10.1007/978-0-85729-950-5,B7Rh_iQ6IWoC,,,0,,,,1,0,1,1,1423729,pdf,57ca438ed3c2040b47e2aa08c934092d,,,_480358.57ca438ed3c2040b47e2aa08c934092d.pdf,0,2000-01-01 01:00:00,2016-04-03 02:51:08,799000/57ca438ed3c2040b47e2aa08c934092d-d.jpg,,
19819712,"Choroby wewnętrzne: podręcznik multimedialny oparty na zasadach EBM., Tom 2",,,,"Małgorzata Bała i inni, (red.: Andrzej Szczeklik)",2006,,Medycyna Praktyczna,,1169,0,Polish,,,,"8374300698,9788374300698",,,,,,,,,,,300,,,,,1,,1,975562844,pdf,e1762af5aa9afb0e378e4345e5b98aa3,,,_480359.e1762af5aa9afb0e378e4345e5b98aa3.pdf,0,2000-01-01 01:00:00,2016-04-03 02:51:08,799000/e1762af5aa9afb0e378e4345e5b98aa3-g.jpg,,
19819713,Logic - Part III - The Logical Foundations of Science (1924),,,,William Ernest Johnson,1924,,Cambridge University Press,,236,0,English,,,,,,,,,,,,,,,0,,,,,1,,1,9953685,pdf,10f40f5cbca2a498f2d1e4a3b327bedd,,,_480360.10f40f5cbca2a498f2d1e4a3b327bedd.pdf,0,2000-01-01 01:00:00,2016-04-03 02:51:08,799000/10f40f5cbca2a498f2d1e4a3b327bedd-g.jpg,,
19819714,Cupid's Poisoned Arrow: From Habit to Harmony in Sexual Relationships,,,,"Marnia Robinson, forward by Douglas Wile",2009,,North Atlantic Books,,400,0,English,,,,"1556438095,9781556438097",,,,,306.7,HQ21 .R7513,,88EU4S8BhtoC,OL22560385M,,0,,,,0,0,0,1,4488681,pdf,1ec95b343c7fce0c2bb526a6d558792c,,,_480361.1ec95b343c7fce0c2bb526a6d558792c.pdf,0,2000-01-01 01:00:00,2016-04-03 02:51:08,799000/1ec95b343c7fce0c2bb526a6d558792c-d.jpg,,
19819715,Biological Computation,,Chapman & Hall/CRC Mathematical & Computational Biology volume 37,,"Ehud Lamm, Ron Unger",2011,,CRC Press,,332,0,English,,,,9781420087963,,,,,,,,,,,0,,,,1,0,1,1,9400275,pdf,2b9a3df0450f241fd8f073b7a0e8dba5,,,_480362.2b9a3df0450f241fd8f073b7a0e8dba5.pdf,0,2000-01-01 01:00:00,2016-04-03 02:51:08,799000/2b9a3df0450f241fd8f073b7a0e8dba5-g.jpg,,
19819716,Die SS-Totenkopfverbände im Konzentrationslager Buchenwald,,,,Steffen Grimm,2011,,Diplomica Verlag,,107,0,German,,,,"3842856458,9783842856455,9783842806450",,,,,940.5413,,,IS4ZinhfxY4C,,,0,,,,1,0,1,1,930129,pdf,597bf37e4c052283cbe9100008e4b59a,,,_480363.597bf37e4c052283cbe9100008e4b59a.pdf,0,2000-01-01 01:00:00,2016-04-03 02:51:08,799000/597bf37e4c052283cbe9100008e4b59a-d.jpg,,
19819717,მორალური და ამორალური მორალი moral and immoral moral,,,,ირაკლი ქავთარაძე  Irakli Kavtaradze,,,,,7,0,Georgian,,,,,,,,,,,,,,,0,,,,,1,,1,87082,pdf,8edc4459e842e0e1548a354eaca47c5e,,,_480364.8edc4459e842e0e1548a354eaca47c5e.pdf,0,2000-01-01 01:00:00,2016-04-03 02:51:08,799000/8edc4459e842e0e1548a354eaca47c5e-g.jpg,,
19819718,Principles of Pharmacology: The Pathophysiologic Basis of Drug Therapy,,,,"David Golan, Armen H. Tashjian, Ehrin Armstrong, April Armstrong",2011,3rd,Lippincott Williams & Wilkins,,978,0,English,,,,"1608312704,9781608312702",,,,,615/.1,RM301 .P65 2012,,,OL25018226M,,0,,,,1,0,1,1,350658080,pdf,453e4f9fafbd76439326bcc1224a05ab,,,_480365.453e4f9fafbd76439326bcc1224a05ab.pdf,0,2000-01-01 01:00:00,2016-04-03 02:51:08,799000/453e4f9fafbd76439326bcc1224a05ab-d.jpg,,
19819719,Incidente em Antares,,,,Erico Verissimo,1988,35a. ed,Editora Globo,,485,0,Portuguese,,,,"8525005908,9788525005908",,,,,869.341,,,,OL1244142M,,0,,,,0,1,0,1,1893975,pdf,b62ee2d376773fcdd4e06b3c0bd7e067,,,_480366.b62ee2d376773fcdd4e06b3c0bd7e067.pdf,0,2000-01-01 01:00:00,2016-04-03 02:51:08,799000/b62ee2d376773fcdd4e06b3c0bd7e067-g.jpg,,
19819720,Logic (1899),,,,"Richard F. Clarke, S.J.",1899,,Benziger Brothers,,532,0,English,,,,,,,,,,,,,,,0,,,,,1,,1,9356132,pdf,35bdc9ca8cbc1e970705d6b8b09c06eb,,,_480367.35bdc9ca8cbc1e970705d6b8b09c06eb.pdf,0,2000-01-01 01:00:00,2016-04-03 02:51:08,799000/35bdc9ca8cbc1e970705d6b8b09c06eb-g.jpg,,
19819721,Bound by Dreams,,,,Christina Skye,2009,1 Original,HQN Books,,384,0,English,,,,"0373774060,9780373774067",,,,,,,,,OL24146639M,,0,,,,,1,,,328163,epub,72d720ddfe7e9d8e8c78b8be5174f40a,,,_480368.72d720ddfe7e9d8e8c78b8be5174f40a.epub,0,2000-01-01 01:00:00,2016-04-03 02:51:08,799000/72d720ddfe7e9d8e8c78b8be5174f40a-d.jpg,,
19819722,Draycott Everlasting: Christmas Knight Moonrise,,,,Christina Skye,2009,Original,HQN Books,,528,0,English,,,,"037377415X,9780373774159",,,,,,,,,OL24826549M,,0,,,,,1,,,443540,epub,8f18e376d28fa293bfa0a0b3235555c8,,,_480370.8f18e376d28fa293bfa0a0b3235555c8.epub,0,2000-01-01 01:00:00,2016-04-03 02:51:08,799000/8f18e376d28fa293bfa0a0b3235555c8-d.jpg,,
19819723,Teoria de probabilidades y estadística matemática,,,,Gert Maibaum,,,,,229,0,Spanish,,,,,,,,,,,,,,,0,,,,,1,,0,8859928,pdf,fd1203d88dbb3bd1c7babf1d81eb8808,,,_480371.fd1203d88dbb3bd1c7babf1d81eb8808.pdf,0,2000-01-01 01:00:00,2016-04-03 02:51:08,799000/fd1203d88dbb3bd1c7babf1d81eb8808-g.jpg,,
19819724,Methodengeschichte der Germanistik (de Gruyter Lexikon),,de Gruyter Lexikon,,Jost Schneider,2009,1,Gruyter,,803,0,German,,,,"3110188805,9783110188806",,,,,430,,,,,,0,,,,1,0,1,1,2835289,pdf,719c01d5585c510c92a07db4dba38249,,,_480373.719c01d5585c510c92a07db4dba38249.pdf,0,2000-01-01 01:00:00,2016-04-03 02:51:08,799000/719c01d5585c510c92a07db4dba38249-d.jpg,,
19819725,Anathema,,,,Colleen Coble,2008,third,Thomas Nelson Publishers,,320,0,English,,,,"1595541403,9781595541406",,,,,,,,,OL8882444M,,0,,,,,1,,,479204,epub,bb49cd2cb1090400027c8c9aeb8d0a33,,,_480376.bb49cd2cb1090400027c8c9aeb8d0a33.epub,0,2000-01-01 01:00:00,2016-04-03 02:51:08,799000/bb49cd2cb1090400027c8c9aeb8d0a33-d.jpg,,
19819726,Opportunities and Challenges of the Therapies Targeting CNS Regeneration,,Ernst Schering Research Foundation Workshop volume 53,,"H.D. Perez, B. Mitrovic, A. Baron Van Evercooren",2005,1,Springer,,203,0,English,,,,"3540240829,9783540240822",0947-6075,,,,616.8,RC361 .O67 2005,,,OL3317101M,,0,,,,1,0,1,1,2786318,pdf,764da97769a766770b519bc2916cc195,,,_480378.764da97769a766770b519bc2916cc195.pdf,0,2000-01-01 01:00:00,2016-04-03 02:51:08,799000/764da97769a766770b519bc2916cc195-d.jpg,,
19819727,"Ubiquitous Computing and Multimedia Applications, Part II - UCMA 2011",,Communications in Computer and Information Science volume 151,,"Tai-hoon Kim, Hojjat Adeli, Rosslin John Robles, Maricel Balitanas",2011,1st Edition.,Springer,,604,0,English,,,,"3642209971,9783642209970",1865-0929,,,,,,10.1007/978-3-642-20998-7,,,,0,,,,1,0,1,1,16662303,pdf,1ebd5ef434ef807c721cebd3b5e832bc,,,_480379.1ebd5ef434ef807c721cebd3b5e832bc.pdf,0,2000-01-01 01:00:00,2016-04-03 02:51:08,799000/1ebd5ef434ef807c721cebd3b5e832bc-d.jpg,,
19819728,A Study of Saturn: Friend and Guide,,,,D. P. Saxena,1998,,Ranjan Publications,,179,0,English,,,,,,,,,,,,,,,0,,,,,1,0,1,3750305,pdf,47847869e83245c963aa5ae228ad2864,,,_480380.47847869e83245c963aa5ae228ad2864.pdf,0,2000-01-01 01:00:00,2016-04-03 02:51:08,799000/47847869e83245c963aa5ae228ad2864-g.jpg,,
19819729,"Evolutionary Computation, Machine Learning and Data Mining in Bioinformatics - EvoBIO 2011",,Lecture Notes in Computer Science volume 6623,,"Clara Pizzuti, Marylyn D. Ritchie, Mario Giacobini",2011,1st Edition.,Springer,,194,0,English,,,,"3642203884,9783642203886",0302-9743,,,,006.3,,10.1007/978-3-642-20389-3,6Km5k0CeLtsC,,,0,,,,1,0,1,1,3028320,pdf,80ef835ab6a34f8b1a7b047f10d25680,,,_480381.80ef835ab6a34f8b1a7b047f10d25680.pdf,0,2000-01-01 01:00:00,2016-04-03 02:51:08,799000/80ef835ab6a34f8b1a7b047f10d25680-d.jpg,,
19819730,Basilisk,,,,Graham Masterton,2009,,Severn House Publishers,,143,0,English,,,,"0727867679,9780727867674",,,,,823.914,,,,,,0,,,,1,1,0,1,1156420,pdf,9cd9d81d2231f604c766d257cfefd799,,,_480382.9cd9d81d2231f604c766d257cfefd799.pdf,0,2000-01-01 01:00:00,2016-04-03 02:51:08,799000/9cd9d81d2231f604c766d257cfefd799-d.jpg,,
19819731,Behavioral Science in Medicine,,,,Barbara Fadem,2003,First,Lippincott Williams & Wilkins,,500,0,English,,,,"0781736692,9780781736695",,,,,362.2/042,RC455 .F24 2004,,,OL17887640M,,0,,,,,1,1,1,5366716,chm,271181d6a555ed57d426edb9ba7ad771,,,_480384.271181d6a555ed57d426edb9ba7ad771.chm,0,2000-01-01 01:00:00,2016-04-03 02:51:08,799000/271181d6a555ed57d426edb9ba7ad771-d.jpg,,
19819732,The Dovekeepers,,,,Alice Hoffman,2011,,Scribner,,512,0,English,,,,"145161747X,9781451617474",,,,,813/.54,PS3558.O3447 D68 2011,,,OL24853294M,,0,,,,,1,,,1439239,mobi,3a5657b927257ed2ec138e8cbd09ac28,,,_480385.3a5657b927257ed2ec138e8cbd09ac28.mobi,0,2000-01-01 01:00:00,2016-04-03 02:51:08,799000/3a5657b927257ed2ec138e8cbd09ac28-d.jpg,,
19819733,Fundamental Medical and Engineering Investigations on Protective Artificial Respiration,,Notes on Numerical Fluid Mechanics and Multidisciplinary Design (NNFM) volume 116,,"Michael Klaas, Edmund Koch, Wolfgang Schröder",2011,1st Edition.,Springer,,197,0,English,,,,"3642203256,9783642203251",1612-2909,,,,615.8362,,10.1007/978-3-642-20326-8,scAjjqU4sSYC,,,0,,,,1,0,1,1,6257055,pdf,5f9dff4f756f03a79bbaaef247586da1,,,_480386.5f9dff4f756f03a79bbaaef247586da1.pdf,0,2000-01-01 01:00:00,2016-04-03 02:51:08,799000/5f9dff4f756f03a79bbaaef247586da1-d.jpg,,
19819734,"Utopia, 1518 Edition",,,,Thomas Morus,1518,,,,372,0,Latin,,,,,,,,,,,,,,,0,,,,0,1,1,0,5151118,pdf,d78f6cc905b3c73c9e39dd24fbf768cf,,,_480388.d78f6cc905b3c73c9e39dd24fbf768cf.pdf,0,2000-01-01 01:00:00,2016-04-03 02:51:08,799000/d78f6cc905b3c73c9e39dd24fbf768cf-g.jpg,,
19819735,Mobilité interne : Comment réussir ?,,,,Pierre Bultel,2009,,Eyrolles,,202,0,French,,,,"2212545274,9782212545272",,,,,658.306,,,,,,0,,,,,1,,1,1250046,pdf,8d71f82a96231412c328ef157bad19f1,,,_480390.8d71f82a96231412c328ef157bad19f1.pdf,0,2000-01-01 01:00:00,2016-04-03 02:51:08,799000/8d71f82a96231412c328ef157bad19f1-d.jpg,,
19819736,"The Wild Life of Our Bodies: Predators, Parasites, and Partners That Shape Who We Are Today",,,,Rob Dunn,2011,,Harper,,304,0,English,,,,"006180648X,9780061806483",,,,,612,QR46 .D86 2011,,,OL25074349M,,0,,,,,1,,,339114,epub,0e0949b663029d529f77bb80fb14edd4,,,_480391.0e0949b663029d529f77bb80fb14edd4.epub,0,2000-01-01 01:00:00,2016-04-03 02:51:08,799000/0e0949b663029d529f77bb80fb14edd4-d.jpg,,
19819737,Distributed Systems: Concepts and Design (4th Edition),,,,"Jean Dollimore, Tim Kindberg, George Coulouris",2005,4,Addison Wesley,,942,0,English,,,,"0321263545,9780321263544",,,,,004/.36,QA76.9.D5 C68 2005,,,OL22619976M,,0,,,,,1,0,1,229478159,pdf,77e9c1acbd2a53309279603bc5f94195,,,_480392.77e9c1acbd2a53309279603bc5f94195.pdf,0,2000-01-01 01:00:00,2016-04-03 02:51:08,799000/77e9c1acbd2a53309279603bc5f94195-d.jpg,,
19819738,Fundamentals of Vedic Astrology: Vedic Astrologer's Handbook Vol. I,,,,Bepin Behari,2003,,Lotus Press,,264,0,English,,,,,,,,,,,,,,Selected Bibliography,0,,,,,1,0,1,18304044,pdf,4fbe00e818af9bd93743b84912a7793b,,,_480393.4fbe00e818af9bd93743b84912a7793b.pdf,0,2000-01-01 01:00:00,2016-04-03 02:51:08,799000/4fbe00e818af9bd93743b84912a7793b-g.jpg,,
19819739,Introduction to Fourier Analysis and Wavelets (Brooks Cole Series in Advanced Mathematics),,,,Mark A. Pinsky,2001,1,Thomson Brooks/Cole,,387,0,English,,,,"0534376606,9780534376604",,,,,515/.2433,QA403.5 .P56 2002,,,OL22463925M,,0,,,,,1,0,0,13524500,pdf,bc7bef4a9125056cbaf5d915d210e1e9,,,_480394.bc7bef4a9125056cbaf5d915d210e1e9.pdf,0,2000-01-01 01:00:00,2016-04-03 02:51:08,799000/bc7bef4a9125056cbaf5d915d210e1e9-d.jpg,,
19819740,A Town Like Alice,,,,Nevil Shute,1987,,Ballantine Books,,288,0,English,,,,"0345353749,9780345353740",,,,,823,"PZ3.N83 To 1976,PR6027.O54 To 1976",,,OL24222263M,,0,,,,,1,,,254839,epub,40d4483344b743c3758d3f2dac711766,,,_480395.40d4483344b743c3758d3f2dac711766.epub,0,2000-01-01 01:00:00,2016-04-03 02:51:08,799000/40d4483344b743c3758d3f2dac711766-d.jpg,,
19819741,The social reality of religion,,,,Peter L. Berger,1973,,Penguin,,235,0,English,,,,"0140600264,9780140600261",,,,,301.58,,,,OL10097819M,,0,,,,1,1,0,1,2022782,pdf,d899875987aff49d14cbda1c71897778,,,_480396.d899875987aff49d14cbda1c71897778.pdf,0,2000-01-01 01:00:00,2016-04-03 02:51:08,799000/d899875987aff49d14cbda1c71897778-g.jpg,,
19819742,"Anthropomorphism, Anecdotes, and Animals",,SUNY Series in Philosophy and Biology,,"Robert W. Mitchell, Nicholas S. Thompson, and H. Lyn Miles (Editors)",1997,,State University of New York Press,,560,0,English,,,,"0791431266,0791431258,9780791431269,9780585087856",,,,,591.51,QL785 .A74 1997,,,OL988439M,,0,,,,1,0,1,1,3236982,pdf,120d440824e72b687e64fbdc0867b92e,,,_480397.120d440824e72b687e64fbdc0867b92e.pdf,0,2000-01-01 01:00:00,2016-04-03 02:51:08,799000/120d440824e72b687e64fbdc0867b92e-d.jpg,,
19819743,"Adaptive and Natural Computing Algorithms, Part I - ICANNGA 2011",,Lecture Notes in Computer Science volume 6593,,"Andrej Dobnikar, Uros Lotric, Branko Ster (Editors)",2011,1st Edition.,Springer,,450,0,English,,,,"3642202810,9783642202810",0302-9743,,,,,,10.1007/978-3-642-20282-7,BhiWdB0YlO8C,,,0,,,,1,0,1,1,10062685,pdf,1f34ff78e0233e3e9b7725ca2ab9f5fa,,,_480398.1f34ff78e0233e3e9b7725ca2ab9f5fa.pdf,0,2000-01-01 01:00:00,2016-04-03 02:51:08,799000/1f34ff78e0233e3e9b7725ca2ab9f5fa-d.jpg,,
19819744,Studii româneşti Vol. 1: Fantasmele nihilismului: secretul doctorului Eliade,,,,Ioan P. Culianu,2006,2nd,Polirom,,408,0,"Romanian,Moldavian,Moldovan",,,,"9734603949,9789734603947",,,,,,,,,,,0,,,,1,1,0,1,1179946,pdf,a474567e744d8cc5e872979e50c8cac0,,,_480399.a474567e744d8cc5e872979e50c8cac0.pdf,0,2000-01-01 01:00:00,2016-04-03 02:51:08,799000/a474567e744d8cc5e872979e50c8cac0-g.jpg,,
19819745,Unreal Development Kit 3 - Beginner's Guide,,,,Richard Moore,2011,,Packt Publishing,,244,0,English,,,,"1849690529,9781849690522",,,,,,,,,,,0,,,,,0,,1,25524416,pdf,96cc9d30da578c861e21c1992645a514,,,_480400.96cc9d30da578c861e21c1992645a514.pdf,0,2000-01-01 01:00:00,2016-04-03 02:51:08,799000/96cc9d30da578c861e21c1992645a514-d.jpg,,
19819746,"Studies in Intellectual Breakthrough: Freud, Simmel, and Buber",,,,Charles David Axelrod,1979,1st,Univ of Massachusetts Pr,,94,0,English,,,,"0870232568,9780870232565",,,,,"153.3/5/0926,B",BF408 .A93,,,OL21168669M,,0,,,,,1,0,1,524384,pdf,4adafdbd6e739dd975cc6222da96347b,,,_480401.4adafdbd6e739dd975cc6222da96347b.pdf,0,2000-01-01 01:00:00,2016-04-03 02:51:08,799000/4adafdbd6e739dd975cc6222da96347b-g.jpg,,
19819747,Eyewall,,,,H.W. ''Buzz'' Bernard,2011,,Bell Bridge Books,,,0,English,,,,"9781611940329,161194032X",,,,,,,,ollWtwAACAAJ,,,0,,,,,1,1,1,619700,mobi,ab135c8eb62935aa408fe304e749e23b,,,_480402.ab135c8eb62935aa408fe304e749e23b.mobi,0,2000-01-01 01:00:00,2016-04-03 02:51:08,799000/ab135c8eb62935aa408fe304e749e23b-g.jpg,,
19819748,English for Pharmacy Writing and Oral Communication,,,,Miriam Diaz-Gilbert,2008,1,Lippincott Williams & Wilkins,,434,0,English,,,,"0781774322,9780781774321",,,,,428.340246151,PE1128 .D465 2008,,,OL23919852M,,0,,,,1,0,1,1,2091624,pdf,337283ea36b8fbe306dbce575a569409,,,_480403.337283ea36b8fbe306dbce575a569409.pdf,0,2000-01-01 01:00:00,2016-04-03 02:51:08,799000/337283ea36b8fbe306dbce575a569409-d.jpg,,
19819749,Small Animal Gastroenterology,,,,Marjorie Chandler,2011,1,Elsevier,,403,0,English,,,,"0702029106,9780702029103",,,,,636.089/633,SF851 .C43 2011,,,OL24494919M,,0,,,,,1,1,1,6771181,epub,268c418a88d85648d7e9b856c4f02111,,,_480404.268c418a88d85648d7e9b856c4f02111.epub,0,2000-01-01 01:00:00,2016-04-03 02:51:08,799000/268c418a88d85648d7e9b856c4f02111-d.jpg,,
19819750,Hercule Poirot,,,,Agatha Christie,1999,,Harpercollins Pb,,928,0,English,,,,"0006513778,9780006513773",,,,,823.912,,,,OL21967901M,,0,,,,,0,1,1,2785432,mobi,c1a384e050704015ba587c025218b126,,,_480405.c1a384e050704015ba587c025218b126.mobi,0,2000-01-01 01:00:00,2016-04-03 02:51:08,799000/c1a384e050704015ba587c025218b126-d.jpg,,
19819751,"Oreo (favorites, 79 easy recipes & cookie crafts)",,Better Your Home,,Better your Home,2001,,Meredith,,84,0,English,,,,,,,,,,,,,,,0,,,,1,1,1,1,9492941,pdf,c271db99b874d383dc236f01969f8f38,,,_480407.c271db99b874d383dc236f01969f8f38.pdf,0,2000-01-01 01:00:00,2016-04-03 02:51:08,799000/c271db99b874d383dc236f01969f8f38-g.jpg,,
19819752,Der Koboldprinz - The Goblin Prince: Fantasy für Kids,,,,Anja Thieme,2009,,Langenscheidt,,145,0,German,,,,"3468206321,9783468206320",,,,,,,,,,,0,,,,1,0,0,1,1282508,pdf,e436840b8ded16905c33159a9862ff9e,,,_480408.e436840b8ded16905c33159a9862ff9e.pdf,0,2000-01-01 01:00:00,2016-04-03 02:51:08,799000/e436840b8ded16905c33159a9862ff9e-g.jpg,,
19819753,Verhandlungssache - Verhandlungsführung in Gesundheitsberufen (Top im Gesundheitsjob),,Top im Gesundheitsjob,,Renate Tewes,2011,1. Aufl.,Springer Berlin Heidelberg,,165,0,German,,,,"3642125557,9783642125553",,,,,658.4052,,,UZaCr0TI8dwC,,,0,,,,1,0,1,1,1821358,pdf,17475c091a3be632b4e9048f7d37fdd9,,,_480409.17475c091a3be632b4e9048f7d37fdd9.pdf,0,2000-01-01 01:00:00,2016-04-03 02:51:08,800000/17475c091a3be632b4e9048f7d37fdd9-d.jpg,,
19819754,Small Animal Ophthalmology: What's Your Diagnosis,,,,"Heidi Featherstone, Elaine Holt",2011,1,Wiley-Blackwell,,210,0,English,,,,"1405151617,9781405151610",,,,,636.089/77,SF891 .F43 2011,,,OL11650315M,,0,,,,,1,1,1,22309380,epub,3bf60b12f9836e06bef4cfc5fb320142,,,_480411.3bf60b12f9836e06bef4cfc5fb320142.epub,0,2000-01-01 01:00:00,2016-04-03 02:51:08,800000/3bf60b12f9836e06bef4cfc5fb320142-d.jpg,,
19819755,Starting Out: 1 e4!: A Reliable Repertoire for the Improving Player (Starting Out - Everyman Chess),,,,Neil McDonald,2006,1st,Everyman Chess,,202,0,English,,,,"1857444167,9781857444162",,,,,794.122,,,,OL8999984M,,0,,,,0,1,0,0,17685764,pdf,5e0691964948a6e789277ccde827d9e1,,,_480412.5e0691964948a6e789277ccde827d9e1.pdf,0,2000-01-01 01:00:00,2016-04-03 02:51:08,800000/5e0691964948a6e789277ccde827d9e1-d.jpg,,
19819756,"Small Animal Bandaging, Casting, and Splinting Techniques",,,,"Steven F. Swaim, Walter C. Renberg, Kathy M. Shike",2011,1,Wiley-Blackwell,,78,0,English,,,,"0813819628,9780813819624",,,,,636.089/71,SF914.3 .S93 2011,,,OL25074580M,,0,,,,,1,1,1,16125998,epub,f969ea37c0e4e383b545774089209414,,,_480413.f969ea37c0e4e383b545774089209414.epub,0,2000-01-01 01:00:00,2016-04-03 02:51:08,800000/f969ea37c0e4e383b545774089209414-d.jpg,,
19819757,California Indian Languages,,,,Victor Golla,2011,1,University of California Press,,395,0,English,,,,"0520266676,9780520266674",,,,,497.09794,PM501.C2 G65 2011,,MX1RtDR_gC0C,OL24857965M,,0,,,,0,1,0,1,66543111,pdf,6fe263e10c9ec740784b6166be9aacd1,,,_480414.6fe263e10c9ec740784b6166be9aacd1.pdf,0,2000-01-01 01:00:00,2016-04-03 02:51:08,800000/6fe263e10c9ec740784b6166be9aacd1-d.jpg,,
19819758,"Klinische Psychologie & Psychotherapie, 2. Auflage",,Springer-Lehrbuch,,"Hans-Ulrich Wittchen, Jürgen Hoyer",2011,2. Auflage,Springer Berlin Heidelberg,,1197,0,German,,,,"3642130178,9783642130175",,,,,616.89,,,,,,0,,,,1,0,1,1,24989207,pdf,01dd35021fd1ed6851aab03e5518f9b0,,,_480416.01dd35021fd1ed6851aab03e5518f9b0.pdf,0,2000-01-01 01:00:00,2016-04-03 02:51:08,800000/01dd35021fd1ed6851aab03e5518f9b0-d.jpg,,
19819759,"Adams and Stashak's Lameness in Horses, Sixth Edition",,,,Gary M. Baxter,2011,6th Edition,Wiley-Blackwell,,1272,0,English,,,,"0813815495,9780813815497",,,,,636.1/089758,SF959.L25 A3 2011,,oWnUSAAACAAJ,OL25106725M,,0,,,,,0,1,1,185286315,epub,08ec1e638b9a74dcec34caaf49b2feb5,,,_480417.08ec1e638b9a74dcec34caaf49b2feb5.epub,0,2000-01-01 01:00:00,2016-04-03 02:51:08,800000/08ec1e638b9a74dcec34caaf49b2feb5-d.jpg,,
19819760,"Small Animal Clinical Pharmacology and Therapeutics, 2nd Edition",,,,Dawn Merton Boothe DVM  MS  PhD  DACVIM  DACVCP,2011,2nd Edition,Saunders,,2700,0,English,,,,"0721605559,9780721605555",,,,,636.70895,,,,OL9522424M,,0,,,,,1,1,1,36893654,epub,b1060f1c4320e8fbc8ca1610c0ec5b4a,,,_480418.b1060f1c4320e8fbc8ca1610c0ec5b4a.epub,0,2000-01-01 01:00:00,2016-04-03 02:51:08,800000/b1060f1c4320e8fbc8ca1610c0ec5b4a-d.jpg,,
19819761,The Lightkeeper's Daughter,,,,Colleen Coble,2010,1st,Thomas Nelson Inc,,320,0,English,,,,"1595542671,9781595542670",,,,,813/.54,PS3553.O2285 L54 2010,,,OL23862659M,,0,,,,,1,,,442470,epub,5946342894da17f8ac2375fd898eceb2,,,_480419.5946342894da17f8ac2375fd898eceb2.epub,0,2000-01-01 01:00:00,2016-04-03 02:51:08,800000/5946342894da17f8ac2375fd898eceb2-d.jpg,,
19819762,Fornnorrøn Lesibók I Tekstir,,,,Rikard Long,1964,,,,202,0,Faroese,,,,,,,,,,,,,,,0,,,,0,1,1,0,11854885,pdf,a2d41461df47488d01d46deed50278d0,,,_480420.a2d41461df47488d01d46deed50278d0.pdf,0,2000-01-01 01:00:00,2016-04-03 02:51:08,800000/a2d41461df47488d01d46deed50278d0-g.jpg,,
19819763,Understanding Statistics in the Behavioral Sciences,,,,Robert R. Pagano,2008,9,Wadsworth Publishing,,632,0,English,,,,"0495596523,9780495596523",,,,,519.5,,,,OL25175815M,,0,,,,1,0,1,1,10737252,pdf,4f6d16ebcd5a4613f14357d556f3de83,,,_480421.4f6d16ebcd5a4613f14357d556f3de83.pdf,0,2000-01-01 01:00:00,2016-04-03 02:51:08,800000/4f6d16ebcd5a4613f14357d556f3de83-d.jpg,,
19819764,Lawyers are Liars: The Truth About Protecting Our Assets,,,,Mark J. Kohler,2007,,Life's Plan Publishing,,236,0,English,,,,"0979738504,9780979738500",,,,,,,,,OL11841556M,,0,,,,,0,1,1,192910,epub,70963ef087197671876dc90cef72829b,,,_480422.70963ef087197671876dc90cef72829b.epub,0,2000-01-01 01:00:00,2016-04-03 02:51:08,800000/70963ef087197671876dc90cef72829b-d.jpg,,
19819765,God's Gift,,,,Dee Henderson,2006,,Harlequin Enterprises,,,0,English,,,,"1426857616,9781426857614",,,,,,,,,OL24297424M,,0,,,,,1,,,209682,epub,0f1ef56437077e8334dec1ab28193b98,,,_480423.0f1ef56437077e8334dec1ab28193b98.epub,0,2000-01-01 01:00:00,2016-04-03 02:51:08,800000/0f1ef56437077e8334dec1ab28193b98-g.jpg,,
19819766,Fornnorrøn Lesibók II Orðalýsingar,,,,Rikard Long,1964,,,,86,0,Faroese,,,,,,,,,,,,,,,0,,,,0,1,1,0,6279567,pdf,27146da4fcceb307034ef5c61caa8174,,,_480424.27146da4fcceb307034ef5c61caa8174.pdf,0,2000-01-01 01:00:00,2016-04-03 02:51:08,800000/27146da4fcceb307034ef5c61caa8174-g.jpg,,
19819767,Lawyers are Liars: The Truth About Protecting Our Assets,,,,Mark J. Kohler,2007,,Life's Plan Publishing,,,0,English,,,,,,B001IKKC7C,,,,,,,,,0,,,,,0,1,1,246754,mobi,392eee942f54167fb07308be4d66df9b,,,_480425.392eee942f54167fb07308be4d66df9b.mobi,0,2000-01-01 01:00:00,2016-04-03 02:51:08,,,
19819768,The Strategy and Tactics of Pricing (5th Edition),,,,"Thomas Nagle, John Hogan, Joseph Zale",2010,5,Prentice Hall,,352,0,English,,,,"0136106811,9780136106814",,,,,658.8/16,HF5416.5 .N34 2010,,,OL23872871M,,0,,,,,0,1,1,2549276,epub,dd6f1f113665baa364b08158320f33c2,,,_480426.dd6f1f113665baa364b08158320f33c2.epub,0,2000-01-01 01:00:00,2016-04-03 02:51:08,800000/dd6f1f113665baa364b08158320f33c2-d.jpg,,
19819769,"Larry Gonick's the Cartoon History of the Universe, Book 1",,,,Larry Gonick,1982,,William Morrow & Co,,52,0,English,,,,,,,,,,,,,,,0,,,,0,1,0,0,31387076,pdf,a060ef8afb6a088243f3d7c6de36e675,,,_480427.a060ef8afb6a088243f3d7c6de36e675.pdf,0,2000-01-01 01:00:00,2016-04-03 02:51:08,800000/a060ef8afb6a088243f3d7c6de36e675-g.jpg,,
19819770,The Strategy and Tactics of Pricing (5th Edition),,,,"Thomas Nagle, John Hogan, Joseph Zale",2010,5,Prentice Hall,,352,0,English,,,,"0136106811,9780136106814",,,,,658.8/16,HF5416.5 .N34 2010,,,OL23872871M,,0,,,,,0,1,1,3481208,mobi,0c470b70607450dc70689c6fdd574208,,,_480428.0c470b70607450dc70689c6fdd574208.mobi,0,2000-01-01 01:00:00,2016-04-03 02:51:08,800000/0c470b70607450dc70689c6fdd574208-d.jpg,,
19819771,"Creative Genius: An Innovation Guide for Business Leaders, Border Crossers and Game Changers",,,,Peter Fisk,2011,1,Capstone,,306,0,English,,,,"1841127892,9781841127897,9781906465186",,,,,658.406,,,NGHcU2IDWBMC,,,0,,,,,0,1,1,2254065,epub,98cf6482aaa91d9f007b1936a9e3230e,,,_480429.98cf6482aaa91d9f007b1936a9e3230e.epub,0,2000-01-01 01:00:00,2016-04-03 02:51:08,800000/98cf6482aaa91d9f007b1936a9e3230e-d.jpg,,
19819772,True Devotion,,,,Dee Henderson,2002,1ST,Multnomah Publishers,,336,0,English,,,,"1576738868,9781576738863",,,,,813.54,,,,OL8748343M,,0,,,,,1,,,257705,epub,8a65e6ad88c0019b074a278fcc538559,,,_480430.8a65e6ad88c0019b074a278fcc538559.epub,0,2000-01-01 01:00:00,2016-04-03 02:51:08,800000/8a65e6ad88c0019b074a278fcc538559-d.jpg,,
19819773,"Sociology Now, Census Update",,HM585 .K57 2012,,"Michael S. Kimmel, Amy Aronson",2012,Census update,Prentice Hall,,764,0,English,,,,"0205181066,9780205181063",,,,,,,,2sn4tgAACAAJ,OL25055179M,,0,,,,1,0,1,1,81372772,pdf,62beb71f5b80070c2459f4e1e1a679c8,,,_480431.62beb71f5b80070c2459f4e1e1a679c8.pdf,0,2000-01-01 01:00:00,2016-04-03 02:51:08,800000/62beb71f5b80070c2459f4e1e1a679c8-d.jpg,,
19819774,"Financial Algebra, Student Edition",,,,"Robert K. Gerver, Richard J. Sgroi",2010,1,Cengage Learning,,577,0,English,,,,"0538449675,9780538449670",,,,,,,,mQ7EdJA6WWMC,,,0,,,,1,0,1,1,44694750,pdf,e6d22060c0b6ba53dff192378152d2b0,,,_480432.e6d22060c0b6ba53dff192378152d2b0.pdf,0,2000-01-01 01:00:00,2016-04-03 02:51:08,800000/e6d22060c0b6ba53dff192378152d2b0-d.jpg,,
19819775,Linear systems: optimal and robust control,,,,Alok K. Sinha,2007,,CRC Press,,488,0,English,,,,"1420008889,9781420008883",,,,,629.8/32,QA402.3 .S553 2007,,uKZkQgAACAAJ,,,0,,,,1,0,1,1,5857320,pdf,a5ce1f1441310843aaf9d321764bf041,,,_480434.a5ce1f1441310843aaf9d321764bf041.pdf,0,2000-01-01 01:00:00,2016-04-03 02:51:08,800000/a5ce1f1441310843aaf9d321764bf041-g.jpg,,
19819776,"Creative Genius: An Innovation Guide for Business Leaders, Border Crossers and Game Changers",,,,Peter Fisk,2011,,Capstone,,,0,English,,,,,,B0051H66W8,,,,,,,,,0,,,,,0,1,1,2567248,mobi,79d41ddd72fb19e2d2d12c2a7f983dea,,,_480435.79d41ddd72fb19e2d2d12c2a7f983dea.mobi,0,2000-01-01 01:00:00,2016-04-03 02:51:08,800000/79d41ddd72fb19e2d2d12c2a7f983dea-g.jpg,,
19819777,El avance de la insignificancia,,,,Cornelius Castoriadis,1997,,Eudeba,,291,0,Spanish,,,,"950230635X,9789502306353",,,,,,,,,OL12963195M,,0,,,,1,1,1,1,9739543,pdf,a794a50cf12bd37e3b4b2b6fd95a304c,,,_480436.a794a50cf12bd37e3b4b2b6fd95a304c.pdf,0,2000-01-01 01:00:00,2016-04-03 02:51:08,800000/a794a50cf12bd37e3b4b2b6fd95a304c-g.jpg,,
19819778,The Monday Night Cooking School,,,,Erica Bauermeister,2010,,Penguin Adult,,,0,English,,,,"0141943661,9780141943664",,,,,,,,,OL24305491M,,0,,,,,1,,,263689,epub,f9833bf0a979dc890b1b26551304ffe8,,,_480437.f9833bf0a979dc890b1b26551304ffe8.epub,0,2000-01-01 01:00:00,2016-04-03 02:51:08,800000/f9833bf0a979dc890b1b26551304ffe8-g.jpg,,
19819779,The Storm: the world economic crisis and what it means,,,,Vince Cable,2009,,ATLANTIC BOOKS,,181,0,English,,,,"1848870574,9781848870574",,,,,338.542,HB3722 .C33 2009,,,OL23578702M,,0,,,,,1,,1,6621559,pdf,dba492deeb9471357e8b8265e9869ab7,,,_480438.dba492deeb9471357e8b8265e9869ab7.pdf,0,2000-01-01 01:00:00,2016-04-03 02:51:08,800000/dba492deeb9471357e8b8265e9869ab7-d.jpg,,
19819780,Weapons Systems and Political Stability: A History,,,,Carroll Quigley,1983,,University Press of America,,1064,0,English,,,,"081912947X,9780819129475",,,,,303.6/6,HM36.5 .Q53 1983,,,OL3501515M,,0,,,,0,1,0,0,38025768,pdf,6a912f5a54de76a154ae63e591491c27,,,_480439.6a912f5a54de76a154ae63e591491c27.pdf,0,2000-01-01 01:00:00,2016-04-03 02:51:08,800000/6a912f5a54de76a154ae63e591491c27-g.jpg,,
19819781,Philosophy in History: Essays in the Historiography of Philosophy (Ideas in Context),,,,"Richard Rorty, Jerome B. Schneewind, Quentin Skinner",1984,1St Edition,Cambridge University Press,,416,0,English,,,,"0521253527,9780521253529",,,,,109,B73 .P48 1984,,,OL2847381M,,0,,,,1,1,1,1,7916445,pdf,3423d4746994f67d3a5f1c4df77c11c6,,,_480440.3423d4746994f67d3a5f1c4df77c11c6.pdf,0,2000-01-01 01:00:00,2016-04-03 02:51:08,800000/3423d4746994f67d3a5f1c4df77c11c6-g.jpg,,
19819782,3. Türle Yakın İlişkiler,,,,Spielberg,,,,,133,0,Turkish,,,,,,,,,,,,,,,0,,,,,1,,1,1640198,pdf,432ffede9d9106469be98583cca04dac,,,_480442.432ffede9d9106469be98583cca04dac.pdf,0,2000-01-01 01:00:00,2016-04-03 02:51:08,800000/432ffede9d9106469be98583cca04dac-g.jpg,,
19819783,"Simulation of Dynamic Systems with MATLAB and Simulink, 2nd Edition",,,,"Harold Klee, Randal Allen",2011,2nd,CRC Press,,804,0,English,98,,,"1439836744,9781439836743",,,,,629.8/32,QA402.3 .S553 2007,,EGj_QgAACAAJ,,,0,,,,1,0,1,1,10435270,pdf,df9d7715e1a5c83f6d11ee0179e38a2f,,,_480443.df9d7715e1a5c83f6d11ee0179e38a2f.pdf,0,2000-01-01 01:00:00,2016-04-03 02:51:08,800000/df9d7715e1a5c83f6d11ee0179e38a2f-g.jpg,,
19819784,Open source GIS: a GRASS GIS approach,,,,"Markus Neteler, Helena Mitasova",2008,3rd,Springer,,417,0,English,,,,"038735767X,9780387357676",,,,,,,,hzANQ6X_MUIC,OL22743481M,it only lacks white pages between chapters,0,,,,1,0,1,1,41490165,pdf,193e09e92343cc6bb075341ac58769a1,,,_480444.193e09e92343cc6bb075341ac58769a1.pdf,0,2000-01-01 01:00:00,2016-04-03 02:51:08,800000/193e09e92343cc6bb075341ac58769a1-d.jpg,,
19819785,"Adaptive and Natural Computing Algorithms, Part II - ICANNGA 2011",,Lecture Notes in Computer Science volume 6594,,"Andrej Dobnikar, Uro Lotric, Branko ter",2011,1st Edition.,Springer,,420,0,English,,,,"3642202667,9783642202667",0302-9743,,,,,,10.1007/978-3-642-20267-4,ozpbAlIJ74sC,,,0,,,,1,0,1,1,7243099,pdf,f540acc133a4589c2a9e74ffde8b67f7,,,_480445.f540acc133a4589c2a9e74ffde8b67f7.pdf,0,2000-01-01 01:00:00,2016-04-03 02:51:08,800000/f540acc133a4589c2a9e74ffde8b67f7-d.jpg,,
19819786,Yoga Sutras of Patanjali,,,,Michael Beloved,2007,,Michael Beloved,,241,0,English,,,,"097939161X,9780979391613",,,,,,,,,,,0,,,,0,0,0,1,5985389,pdf,8ae1a45189624d19ce4beaf668a00904,,,_480446.8ae1a45189624d19ce4beaf668a00904.pdf,0,2000-01-01 01:00:00,2016-04-03 02:51:08,800000/8ae1a45189624d19ce4beaf668a00904-d.jpg,,
19819787,The Air Force in the Vietnam War,,,,"John T. Correll, The Air Force Association, The Aerospace Education Foundation",2004,,Aerospace Education Foundation,,54,0,English,,,,,,,,,,,,,,,0,,,,0,0,,1,2415198,pdf,9a06aaa1ef6819c4a2573a634c17b987,,,_480448.9a06aaa1ef6819c4a2573a634c17b987.pdf,0,2000-01-01 01:00:00,2016-04-03 02:51:08,800000/9a06aaa1ef6819c4a2573a634c17b987-g.jpg,,
19819788,"The Book of Nothing: Vacuums, Voids, and the Latest Ideas about the Origins of the Universe",,,,John D. Barrow,2002,,Vintage,,393,0,English,,,,"0375726098,9780375726095",,,,,111.5,,,,OL7426987M,,0,,,,0,1,0,1,4449672,pdf,03552d9e500b5af812d54d12d99a6975,,,_480449.03552d9e500b5af812d54d12d99a6975.pdf,0,2000-01-01 01:00:00,2016-04-03 02:51:08,800000/03552d9e500b5af812d54d12d99a6975-d.jpg,,
19819789,El avance de la insignificancia,,,,Cornelius Castoriadis,1997,,Eudeba,,291,0,Spanish,,,,"950230635X,9789502306353",,,,,,,,,OL12963195M,,0,,,,,1,,1,4433906,djvu,d689bcee81fee91b336b33610fd374a2,,,_480450.d689bcee81fee91b336b33610fd374a2.djvu,0,2000-01-01 01:00:00,2016-04-03 02:51:08,800000/d689bcee81fee91b336b33610fd374a2-g.jpg,,
19819790,"Deixis und Anaphorik (Linguistik - Impulse Und Tendenzen, 42)",,Linguistik - Impulse Und Tendenzen volume 42,,Shin Tanaka,2011,1,Gruyter,,245,0,German,,,,"311025641X,9783110256413",1612-8702,,,,435,PF3398.D44 T36 2011,,e9GDKikek8QC,OL24839743M,,0,,,,1,0,1,1,2196493,pdf,9675992e8795506e5f08c3d497c75c8c,,,_480451.9675992e8795506e5f08c3d497c75c8c.pdf,0,2000-01-01 01:00:00,2016-04-03 02:51:08,800000/9675992e8795506e5f08c3d497c75c8c-d.jpg,,
19819791,Finite and Infinite Games: A Vision of Life as Play and Possibility,,,,James P. Carse,1986,First Edition,Free Press,,160,0,English,,,,"0029059801,9780029059807",,,,,110,BD431 .C297 1986,,,OL2720840M,,0,,,,0,1,1,1,8009574,pdf,0c63ec966f4150801e31d6c55e8195f6,,,_480452.0c63ec966f4150801e31d6c55e8195f6.pdf,0,2000-01-01 01:00:00,2016-04-03 02:51:08,800000/0c63ec966f4150801e31d6c55e8195f6-d.jpg,,
19819792,Studien zur modernen Deutschen Lexikographie: Auswahl aus den Lexikographischen Arbeiten,,Linguistik Aktuell/Linguistics Today volume 1,,"Ruth Klappenbach, Jan F. Brand",1980,,John Benjamins Publishing Co,,338,0,German,,,,"9027227217,9789027227218",,,,,433/.028,PF3611 .K55 1980,,dSe9_8dumRwC,OL22094783M,,0,,,,1,0,1,1,11791627,pdf,fa3bef5675d108e95b38566bcbdfd771,,,_480453.fa3bef5675d108e95b38566bcbdfd771.pdf,0,2000-01-01 01:00:00,2016-04-03 02:51:08,800000/fa3bef5675d108e95b38566bcbdfd771-g.jpg,,
19819793,"Italienische Mediensprache. Handbuch, 2. Auflage   Glossario del linguaggio dei mass media: Italiano - tedesco",,Terminological Series Terminologische Schriftenreihe volume 4,,"Eckhard Römer, Natascia Gudenzi",2009,2. Auflage,Walter de Gruyter,,545,0,German,,,,"3899496442,9783899496444",,,,,070.44930223014,,,IqXYdae0vBQC,,,0,,,,1,0,1,1,3085155,pdf,c6a568d0af8234b48b8a6480b4e520c1,,,_480454.c6a568d0af8234b48b8a6480b4e520c1.pdf,0,2000-01-01 01:00:00,2016-04-03 02:51:08,800000/c6a568d0af8234b48b8a6480b4e520c1-d.jpg,,
19819794,Hummingbird Lake: An Eternity Springs Novel,,,,Emily March,2011,,Random House Publishing Group,,336,0,English,,,,"0345518365,9780345518361",,,,,813.6,,,,OL24619424M,,0,,,,,1,,,2348218,epub,53afb7af248661a7cfe5c3c0469555a1,,,_480455.53afb7af248661a7cfe5c3c0469555a1.epub,0,2000-01-01 01:00:00,2016-04-03 02:51:08,800000/53afb7af248661a7cfe5c3c0469555a1-d.jpg,,
19819795,Market Complicity and Christian Ethics,,New Studies in Christian Ethics,,Albino Barrera,2011,,Cambridge University Press,,326,0,English,,,,"1107003156,9781107003156",,,,,241/.64,BJ1251 .B346 2010,,ywRtetoAQVkC,OL24411590M,,0,,,,1,0,1,1,1347886,pdf,f9e045f75ee67dcae9e78a90cc6fc01a,,,_480456.f9e045f75ee67dcae9e78a90cc6fc01a.pdf,0,2000-01-01 01:00:00,2016-04-03 02:51:08,800000/f9e045f75ee67dcae9e78a90cc6fc01a-d.jpg,,
19819796,Angel's Rest: An Eternity Springs Novel,,,,Emily March,2011,,Random House Publishing Group,,336,0,English,,,,"0345518349,9780345518347",,,,,813.6,,,,OL24611254M,,0,,,,,1,,,2367592,epub,742927c61c291c74d125fdf2e5ab3402,,,_480457.742927c61c291c74d125fdf2e5ab3402.epub,0,2000-01-01 01:00:00,2016-04-03 02:51:08,800000/742927c61c291c74d125fdf2e5ab3402-d.jpg,,
19819797,Vierbeiner-Darstellungen auf schwedischen Runensteinen,,Reallexikon Der Germanischen Altertumskunde volume 72,,Sigmund Oehrl,2010,1,Gruyter,,598,0,German,,,,"3110227428,9783110227420",1866-7678,,,,430,PD2014 .O34 2010,,1ncbSn0563cC,OL24479707M,,0,,,,1,0,1,1,30710918,pdf,dd47a9939366b9a4505a40ce9ef2fac2,,,_480458.dd47a9939366b9a4505a40ce9ef2fac2.pdf,0,2000-01-01 01:00:00,2016-04-03 02:51:08,800000/dd47a9939366b9a4505a40ce9ef2fac2-d.jpg,,
19819798,Mentally Incontinent,,,,Joe Peacock,2005,,This Is Not Art!,,317,0,English,,,,"0977418405,9780977418404,0977418413,9780977418411",,,,,,,,y7rzRilKn7kC,OL8590842M,,0,,,,1,0,1,1,6825146,pdf,0b544ceb6560f5f43667920660e99239,,,_480459.0b544ceb6560f5f43667920660e99239.pdf,0,2000-01-01 01:00:00,2016-04-03 02:51:08,800000/0b544ceb6560f5f43667920660e99239-d.jpg,,
19819799,"Encyclopedia of Indian Philosophies, Volume II: Indian Metaphysics and Epistemology: The Tradition of Nyāya-Vaiśeṣika up to Gaṅgeśa",,,,Karl H. Potter (editor),1995,,Motilal Banarsidass,,744,0,English,,,,"8120803094,9788120803091",,,,,181/.43,"B131 .E5 v. 2,B132.N8 .E5 v. 2",,Aag7N3FVYCsC,OL4392772M,,0,,,,1,1,1,1,72007791,pdf,954e09f2888a2381f43fb16ad4171d0c,,,_480460.954e09f2888a2381f43fb16ad4171d0c.pdf,0,2000-01-01 01:00:00,2016-04-03 02:51:08,800000/954e09f2888a2381f43fb16ad4171d0c-d.jpg,,
19819800,Bachelor's Puzzle,,,,Judith Pella,2007,,Baker Books,,352,0,English,,,,"0764201336,9780764201332",,,,,813.54,,,,OL8039437M,,0,,,,,1,,,410625,epub,51178df6980aa481ae4632c12db65f87,,,_480461.51178df6980aa481ae4632c12db65f87.epub,0,2000-01-01 01:00:00,2016-04-03 02:51:08,800000/51178df6980aa481ae4632c12db65f87-d.jpg,,
19819801,The Living Mind: From Psyche to Consciousness,,,,Richard Dien Winfield,2011,,Rowman & Littlefield Publishers,,319,0,English,,,,"1442211555,9781442211551",,,,,128/.2,B808.9 .W56 2011,,#ИМЯ?,OL24827640M,,0,,,,1,0,1,1,1126096,pdf,92f90f73b7aeebe6774439c3051c0fe3,,,_480462.92f90f73b7aeebe6774439c3051c0fe3.pdf,0,2000-01-01 01:00:00,2016-04-03 02:51:08,800000/92f90f73b7aeebe6774439c3051c0fe3-d.jpg,,
19819802,How to Knit a Heart Back Home: A Cypress Hollow Yarn,,,,Rachael Herron,2011,Original,HarperCollins,,368,0,English,,,,"0061841315,9780061841316",,,,,813/.6,PS3608.E7765 H66 2010,,,OL24566834M,,0,,,,,1,,,508226,epub,9c3f05bba4c32d355d9a57b52f30ec97,,,_480463.9c3f05bba4c32d355d9a57b52f30ec97.epub,0,2000-01-01 01:00:00,2016-04-03 02:51:08,800000/9c3f05bba4c32d355d9a57b52f30ec97-d.jpg,,
19819803,How to Knit a Love Song: A Cypress Hollow Yarn,,,,Rachael Herron,2010,1,HarperCollins,,336,0,English,,,,"0061841293,9780061841293",,,,,813/.6,PS3608.E7765 H68 2010,,,OL23936161M,,0,,,,,1,,,518893,epub,360d673d5ba5b9b58189c648a870d90b,,,_480464.360d673d5ba5b9b58189c648a870d90b.epub,0,2000-01-01 01:00:00,2016-04-03 02:51:08,800000/360d673d5ba5b9b58189c648a870d90b-d.jpg,,
19819804,A Case of Exploding Mangoes,,,,Mohammed Hanif,,,,,434,0,English,,,,,,,,,,,,,,,0,,,,,1,1,,425603,mobi,d1f91b35e5502dc9d1ce44c2eb8fbf92,,,_480466.d1f91b35e5502dc9d1ce44c2eb8fbf92.mobi,0,2000-01-01 01:00:00,2016-04-03 02:51:08,800000/d1f91b35e5502dc9d1ce44c2eb8fbf92-g.jpg,,
19819805,"Cooperative Design, Visualization, and Engineering (Lecture Notes in Computer Science)",,Lecture Notes in Computer Science volume 6874,,Yuhua Luo (Editor),2011,1st Edition.,Springer,,222,0,English,,,,"3642237339,9783642237331,9783642237348",0302-9743,,,,,,10.1007/978-3-642-23734-8,#ИМЯ?,,,0,,,,1,0,1,1,7663334,pdf,67a59e58146ebb1d1696df805f6ea2ba,,,_480467.67a59e58146ebb1d1696df805f6ea2ba.pdf,0,2000-01-01 01:00:00,2016-04-03 02:51:08,800000/67a59e58146ebb1d1696df805f6ea2ba-d.jpg,,
19819806,"Fiscal Federalism and Political Decentralization: Lessons from Spain, Germany and Canada (Studies in Fiscal Federalism and State-Local Finance",,Studies in Fiscal Federalism and State Finance Series,,Núria Bosch and José M. Durán (Editors),2008,Illustrated Edition,Edward Elgar Publishing,,279,0,English,,,,"1847204678,9781847204677",,,,,336,HJ197 .F5727 2008,,ngoAEwlqMIsC,OL22557035M,,0,,,,1,0,1,1,1378940,pdf,fc757255986eca16c40ecfd42322c7f2,,,_480468.fc757255986eca16c40ecfd42322c7f2.pdf,0,2000-01-01 01:00:00,2016-04-03 02:51:08,800000/fc757255986eca16c40ecfd42322c7f2-d.jpg,,
19819807,Matrix Groups for Undergraduates (Student Mathematical Library),,Student Mathematical Library volume Vol. 29,,Kristopher Tapp,2005,,American Mathematical Society,,176,0,English,,,,"0821837850,9780821837856",,,,,512.2,,,,OL15495263M,,0,,,,1,1,1,1,4112183,pdf,931e95f5c6b4529b451a601627cd865a,,,_480469.931e95f5c6b4529b451a601627cd865a.pdf,0,2000-01-01 01:00:00,2016-04-03 02:51:08,800000/931e95f5c6b4529b451a601627cd865a-d.jpg,,
19819808,Casting About,,,,Terri DuLong,2010,Original,Kensington Books,,352,0,English,,,,"0758232055,9780758232052",,,,,813/.6,PS3604.U455 C37 2010,,,OL24804491M,,0,,,,,1,,,353447,epub,277d2dd0ba9d0da661b48bcdbf911373,,,_480470.277d2dd0ba9d0da661b48bcdbf911373.epub,0,2000-01-01 01:00:00,2016-04-03 02:51:08,800000/277d2dd0ba9d0da661b48bcdbf911373-d.jpg,,
19819809,"Calculus I with Precalculus, A One-Year Course, 3rd Edition",,,,"Ron Larson, Robert P. Hostetler (main authors), Bruce H. Edwards (assistant author)",2011,3rd,Cengage Learning,,1064,0,English,,,,"0840068336,9780840068330",,,,,515,,,IBjvMZSIsCYC,,,0,,,,1,0,1,1,24147502,pdf,9d0c810bdd4b8a11226f89ad67ac4896,,,_480471.9d0c810bdd4b8a11226f89ad67ac4896.pdf,0,2000-01-01 01:00:00,2016-04-03 02:51:08,800000/9d0c810bdd4b8a11226f89ad67ac4896-d.jpg,,
19819810,Spinning Forward,,,,Terri DuLong,2009,Original,Kensington Publishing Corporation,,352,0,English,,,,"0758232047,9780758232045",,,,,813.6,PS3604.U455 S68 2009,,,OL24539714M,,0,,,,,1,,,305769,epub,bc00013480a3559faeca60571486e5e3,,,_480472.bc00013480a3559faeca60571486e5e3.epub,0,2000-01-01 01:00:00,2016-04-03 02:51:08,800000/bc00013480a3559faeca60571486e5e3-d.jpg,,
19819811,"New Partnership for Africa's Development: Macroeconomics, Institutions, and Poverty",,,,Saleh M. Nsouli,2004,,International Monetary Fund,,179,0,English,,,,"1589062620,9781589062627",,,,,338.96,HC800.N36 2004,,,OL12328391M,,0,,,,1,0,1,1,932237,pdf,a8902edcb3613477cf14259f6c659d5a,,,_480473.a8902edcb3613477cf14259f6c659d5a.pdf,0,2000-01-01 01:00:00,2016-04-03 02:51:08,800000/a8902edcb3613477cf14259f6c659d5a-d.jpg,,
19819812,"Humanökologie: Fakten - Argumente - Ausblicke, 2. Auflage (Springer-Lehrbuch)",,Springer-Lehrbuch,,Wolfgang Nentwig,2005,2. Auflage,Springer,,489,0,German,,,,"3540211608,9783540211600",,,,,330,,,ORIinZdFItEC,OL9734596M,,0,,,,1,0,1,1,7497827,pdf,80a12fafdc73f64da6754aed2673a9dc,,,_480474.80a12fafdc73f64da6754aed2673a9dc.pdf,0,2000-01-01 01:00:00,2016-04-03 02:51:08,800000/80a12fafdc73f64da6754aed2673a9dc-d.jpg,,
19819813,September,,,,Rosamunde Pilcher,1991,1,St. Martin's Press,,613,0,English,,,,"0312924801,9780312924805",,,,,823/.914,PR6066.I38 S4 1991,,,OL23277175M,,0,,,,,1,,,522261,epub,2093e3e3787ce09dd5cbfdb9b6672bcb,,,_480475.2093e3e3787ce09dd5cbfdb9b6672bcb.epub,0,2000-01-01 01:00:00,2016-04-03 02:51:08,800000/2093e3e3787ce09dd5cbfdb9b6672bcb-d.jpg,,
19819814,Beyond the Mist: What Irish Mythology Can Teach Us About Ourselves,,,,Peter O'Connor,2002,,"Orion Publishing Group, Limited",,277,0,English,,,,"9781865088013,1865088013",,,,,398.209415,,,N8KFPwAACAAJ,,,0,,,,1,0,1,1,1652583,pdf,dbfbb9fbc2cff68674bf83b88a34b4d6,,,_480476.dbfbb9fbc2cff68674bf83b88a34b4d6.pdf,0,2000-01-01 01:00:00,2016-04-03 02:51:08,800000/dbfbb9fbc2cff68674bf83b88a34b4d6-g.jpg,,
19819815,"Mind, Society, and Human Action: Time and Knowledge in a Theory of Social Economy (Routledge Foundations of the Market Economy)",,,,Richard E. Wagner,2010,,Routledge,,224,0,English,,,,"0415779960,9780415779968",,,,,306.3,HM548 .W34 2010,,,OL23687678M,,0,,,,1,0,1,1,510260,epub,a1b06494a2b340cad024b4ed5f781261,,,_480479.a1b06494a2b340cad024b4ed5f781261.epub,0,2000-01-01 01:00:00,2016-04-03 02:51:08,800000/a1b06494a2b340cad024b4ed5f781261-d.jpg,,
19819816,Afghanistan: A Cultural and Political History (Princeton Studies in Muslim Politics),,,,Thomas Barfield,2010,First Edition,Princeton University Press,,568,0,English,,,,"0691145687,9780691145686",,,,,958.1,DS357.5 .B37 2010,,,OL24040042M,,0,,,,,1,,,1091757,epub,72773203f4e0b5cc53183cb9dab23e76,,,_480483.72773203f4e0b5cc53183cb9dab23e76.epub,0,2000-01-01 01:00:00,2016-04-03 02:51:08,800000/72773203f4e0b5cc53183cb9dab23e76-d.jpg,,
19819817,Afghanistan: A Cultural and Political History (Princeton Studies in Muslim Politics),,,,Thomas Barfield,2010,First Edition,Princeton University Press,,568,0,English,,,,"0691145687,9780691145686",,,,,958.1,DS357.5 .B37 2010,,,OL24040042M,,0,,,,,1,,,1493158,mobi,d45b53a4d3000ab286274eb4ff977d59,,,_480484.d45b53a4d3000ab286274eb4ff977d59.mobi,0,2000-01-01 01:00:00,2016-04-03 02:51:08,800000/d45b53a4d3000ab286274eb4ff977d59-d.jpg,,
19819818,Leadership Unplugged: The New Renaissance of Value Propositions,,,,"Jacqueline Moore, Steven Sonsino",2003,,Palgrave Macmillan,,400,0,English,,,,"1403903816,9781403903815",,,,,658.4092,,,IhvJDZAl5lgC,OL22530108M,,0,,,,1,0,1,1,969164,pdf,bb4bdae6e90973ad16dd2e5993220b79,,,_480485.bb4bdae6e90973ad16dd2e5993220b79.pdf,0,2000-01-01 01:00:00,2016-04-03 02:51:08,800000/bb4bdae6e90973ad16dd2e5993220b79-d.jpg,,
19819819,Global Networks: The Vodafone-Ericsson Journey to Globalization and the Inception of a Requisite Organization,,,,Christopher J. Ibbott,2007,First Edition,Palgrave Macmillan,,225,0,English,,,,"0230551173,9780230551176",,,,,384.533,,,RuCtUzmHcnEC,OL10194622M,,0,,,,1,0,1,1,914503,pdf,b875e11d9664fff2b2b9719c9f0f2da2,,,_480488.b875e11d9664fff2b2b9719c9f0f2da2.pdf,0,2000-01-01 01:00:00,2016-04-03 02:51:08,800000/b875e11d9664fff2b2b9719c9f0f2da2-d.jpg,,
19819820,International Entrepreneurship: Theoretical Foundations and Empirical Analysis,,,,"Antonella Zucchella, Paolo Scabini",2007,First Edition,Palgrave Macmillan,,218,0,English,,,,"0230515479,9780230515475",,,,,658.421,,,CO8dAQAAIAAJ,OL10194322M,,0,,,,1,0,1,1,650361,pdf,bc6d830db7363521a87694a1ec247956,,,_480490.bc6d830db7363521a87694a1ec247956.pdf,0,2000-01-01 01:00:00,2016-04-03 02:51:08,800000/bc6d830db7363521a87694a1ec247956-d.jpg,,
19819821,Global Sourcing of Business and IT Services,,,,"Leslie P. Willcocks, Mary C. Lacity",2006,,Palgrave Macmillan,,321,0,English,,,,"0230006590,9780230006591",,,,,658.4058,,,_IHStt6MRukC,OL22736646M,,0,,,,1,0,1,1,1176008,pdf,0bf11ff843d617cb5df1e1cd4669231d,,,_480491.0bf11ff843d617cb5df1e1cd4669231d.pdf,0,2000-01-01 01:00:00,2016-04-03 02:51:08,800000/0bf11ff843d617cb5df1e1cd4669231d-d.jpg,,
19819822,"Managing by Values: A Corporate Guide to Living, Being Alive, and Making a Living in the 21st Century",,,,"Simon L. Dolan, Salvador Garcia, Bonnie Richley",2006,,Palgrave Macmillan,,265,0,English,,,,"0230000266,9780230000261",,,,,174.4,,,AdXrBNp0mlUC,OL10193676M,,0,,,,1,0,1,1,1942433,pdf,6c289bfe30ba64d920c58d072e127f2e,,,_480492.6c289bfe30ba64d920c58d072e127f2e.pdf,0,2000-01-01 01:00:00,2016-04-03 02:51:08,800000/6c289bfe30ba64d920c58d072e127f2e-d.jpg,,
19819823,Influencing: Skills and Techniques for Business Success,,,,"Fiona Dent, Mike Brent",2006,,Palgrave Macmillan,,193,0,English,,,,"1403996687,9781403996688",,,,,650.1,HF5548.8 .D454 2006,,_f1THs8en1QC,OL8401360M,,0,,,,1,0,1,1,2210099,pdf,fd943ac0378c276932788946167349d9,,,_480493.fd943ac0378c276932788946167349d9.pdf,0,2000-01-01 01:00:00,2016-04-03 02:51:08,800000/fd943ac0378c276932788946167349d9-d.jpg,,
19819824,"iGenetics: a molecular approach, 3rd Edition",,,,Peter J. Russell,2009,3rd,Benjamin Cummings,,853,0,English,,,,"0321569768,9780321569769",,,,,572.8,QH442 .R865 2010,,V_hEAQAAIAAJ,OL22696728M,,0,,,,1,0,1,1,71662290,pdf,959e17ed5f1a21966f4015a22430cc09,,,_480494.959e17ed5f1a21966f4015a22430cc09.pdf,0,2000-01-01 01:00:00,2016-04-03 02:51:08,800000/959e17ed5f1a21966f4015a22430cc09-d.jpg,,
19819825,Leadership Landscapes,,,,"Tom Cummings, Jim Keen",2008,First Edition,Palgrave Macmillan,,173,0,English,,,,"0230525695,9780230525696",,,,,658.4092,,,YArWXA_Kf1cC,OL10194501M,,0,,,,1,0,1,1,1602947,pdf,b6a350d63cbc7ab5f43b320e127e6d5f,,,_480496.b6a350d63cbc7ab5f43b320e127e6d5f.pdf,0,2000-01-01 01:00:00,2016-04-03 02:51:08,800000/b6a350d63cbc7ab5f43b320e127e6d5f-d.jpg,,
19819826,Applied Numerical Methods,,,,"Brice Carnahan, H.A. Luther, James O. Wilkes",1990,,Krieger Pub Co,,621,0,English,,,,"0894644866,9780894644863",,,,,519.4,QA297 .C34 1990,,,OL1876016M,,0,,,,0,1,0,0,8454140,pdf,876b222dfec0ec49cd0947e4865ec4e1,,,_480498.876b222dfec0ec49cd0947e4865ec4e1.pdf,0,2000-01-01 01:00:00,2016-04-03 02:51:08,800000/876b222dfec0ec49cd0947e4865ec4e1-d.jpg,,
19819827,The Plague Dogs,,,,Richard Adams,1986,1st,Fawcett Crest,,480,0,English,,,,"0449211827,9780449211823",,,,,,,,,OL7566034M,,0,,,,,1,,,371843,epub,c9f919f0a537f78331939c678351242c,,,_480499.c9f919f0a537f78331939c678351242c.epub,0,2000-01-01 01:00:00,2016-04-03 02:51:08,800000/c9f919f0a537f78331939c678351242c-d.jpg,,
19819828,Abstract Convex Analysis (Wiley-Interscience and Canadian Mathematics Series of Monographs and Texts),,Wiley-Interscience and Canadian Mathematics Series of Monographs and Texts,,Ivan Singer,1997,1,Wiley-Interscience,,517,0,English,,,,"0471160156,9780471160151",,,,,515/.8,QA331.5 .S53 1997,,,OL993489M,,0,,,,1,1,1,1,7324232,pdf,4772ab1e52df2925512f65f807048aed,,,_480501.4772ab1e52df2925512f65f807048aed.pdf,0,2000-01-01 01:00:00,2016-04-03 02:51:08,800000/4772ab1e52df2925512f65f807048aed-d.jpg,,
19819829,On Keynesian Economics and the Economics of Keynes: A Study in Monetary Theory,,,,Axel Leijonhufvud,1968,,"Oxford University Press, USA",,450,0,English,,,,"0195009487,9780195009484",,,,,,,,5689AAAAIAAJ,,,0,,,,0,1,1,1,26354470,pdf,fc73d6eee2c0d015d349f13b4afa437d,,,_480502.fc73d6eee2c0d015d349f13b4afa437d.pdf,0,2000-01-01 01:00:00,2016-04-03 02:51:08,800000/fc73d6eee2c0d015d349f13b4afa437d-d.jpg,,
19819830,Model Checking and Artificial Intelligence - MoChArt 2010,,Lecture Notes in Artificial Intelligence volume 6572,,"Ron van der Meyden, Jan Smaus",2011,1st Edition.,Springer,,142,0,English,,,,"3642206735,9783642206733",0302-9743,,,,006.3,,10.1007/978-3-642-20674-0,8IVcLnxFOUgC,,,0,,,,1,0,1,1,1670692,pdf,869aa3a299a72f911cb48e17a49f26f1,,,_480503.869aa3a299a72f911cb48e17a49f26f1.pdf,0,2000-01-01 01:00:00,2016-04-03 02:51:08,800000/869aa3a299a72f911cb48e17a49f26f1-d.jpg,,
19819831,More Modern African Stories,,,,Charles R Larson,1975,,Fontana,,160,0,English,,,,"0006137229,9780006137221",,,,,,,,,OL17205985M,,0,,,,0,1,0,1,4157505,pdf,8a777561aa030cab0985946514756f60,,,_480504.8a777561aa030cab0985946514756f60.pdf,0,2000-01-01 01:00:00,2016-04-03 02:51:08,800000/8a777561aa030cab0985946514756f60-g.jpg,,
19819832,Fury on earth: a biography of Wilhelm Reich,,,,Myron Sharaf,1994,,Da Capo Press,,576,0,English,,,,"0306805758,9780306805752",,,,,"150.19/5/092,B",RC339.52.R44 S53 1994,,,OL1425769M,,0,,,,0,1,0,1,46578264,pdf,1b2c9d79f73ae20dcfa173de71ef339c,,,_480505.1b2c9d79f73ae20dcfa173de71ef339c.pdf,0,2000-01-01 01:00:00,2016-04-03 02:51:08,800000/1b2c9d79f73ae20dcfa173de71ef339c-d.jpg,,
19819833,The Icebound Land,,Ranger's Apprentice volume 3,,John Flanagan,2010,,Philomel,,,0,English,,,,"9781101147207,1101147202",,,,,,,,,,,0,,,,0,0,1,1,275990,epub,850363ec783082bef6ff02964a3a2217,,,_480506.850363ec783082bef6ff02964a3a2217.epub,0,2000-01-01 01:00:00,2016-04-03 02:51:08,800000/850363ec783082bef6ff02964a3a2217-g.jpg,,
19819834,Open Season,,Joe Pickett volume 1,,C. J. Box,2010,,Berkley Prime Crime,,,0,English,,,,9781101463802,,,,,,,,,,,0,,,,0,0,1,1,269247,epub,a0a827a9b9593db0cd1bdaa6a8b7153b,,,_480507.a0a827a9b9593db0cd1bdaa6a8b7153b.epub,0,2000-01-01 01:00:00,2016-04-03 02:51:08,800000/a0a827a9b9593db0cd1bdaa6a8b7153b-g.jpg,,
19819835,,,,Science Magazine 14 October 2011,AAAS,2011,,AAAS,,132,0,English,,,,,,,,,,,,,,periodic,0,,,,0,1,0,0,64255627,pdf,aba69e81731fa7268688abbeee81bd53,,ban,_480508.aba69e81731fa7268688abbeee81bd53.pdf,0,2000-01-01 01:00:00,2016-04-03 02:51:08,800000/aba69e81731fa7268688abbeee81bd53-g.jpg,,
19819836,Optimization by Vector Space Methods (Wiley Professional),,,,David G. Luenberger,1969,1969,Wiley-Interscience,,342,0,English,,,,"047118117X,9780471181170",,,,,,,,,OL7612943M,"pp 232-233, 314-315 missing",0,,,,1,1,1,1,7478587,pdf,2f7427975f005c37ece5ad28ace2fb89,,,_480511.2f7427975f005c37ece5ad28ace2fb89.pdf,0,2000-01-01 01:00:00,2016-04-03 02:51:08,800000/2f7427975f005c37ece5ad28ace2fb89-d.jpg,,
19819837,موسوعة اليهود واليهودية والصهيونية: الموسوعة الموجزة فى جزئين,,,,عبد الوهاب المسيرى,,,,,2391,0,Arabic,,,,"9770909092,9789770909096",,,,,,,,,,,0,,,,,1,1,1,29102361,pdf,f4cecdaf60ac83b5ef9c8cb80859c905,,,_480512.f4cecdaf60ac83b5ef9c8cb80859c905.pdf,0,2000-01-01 01:00:00,2016-04-03 02:51:08,800000/f4cecdaf60ac83b5ef9c8cb80859c905-g.jpg,,
19819838,Nietzsche: A Guide for the Perplexed (Guides For The Perplexed),,Guides for the Perplexed,,R. Kevin Hill,2007,1 Edition,Continuum,,215,0,English,,,,"0826489257,9780826489258,9780826489241",,,,,193,B3317 .H5355 2007,,,OL22752925M,,0,,,,1,0,1,1,967032,pdf,b279526da4b264d3eb31ca3a11f68648,,,_480513.b279526da4b264d3eb31ca3a11f68648.pdf,0,2000-01-01 01:00:00,2016-04-03 02:51:08,800000/b279526da4b264d3eb31ca3a11f68648-d.jpg,,
19819839,بازرس مخفی,,,,عزیز نسین,1978,,فروغی,,340,0,Persian,,,,,,,,,,,,,,,0,,,,,1,1,0,29973859,pdf,b7c099a60e43b029a1cf0a906c4b4c88,,,_480514.b7c099a60e43b029a1cf0a906c4b4c88.pdf,0,2000-01-01 01:00:00,2016-04-03 02:51:08,800000/b7c099a60e43b029a1cf0a906c4b4c88-g.jpg,,
19819840,Many waters,,,,Madeleine L'Engle,1986,1st,Farrar Straus & Giroux,,320,0,English,,,,"0374347964,9780374347963",,,,,,,,,OL24911218M,,0,,,,,1,,,255023,epub,cf868c86103edaa42572fc6d9df7b8a5,,,_480515.cf868c86103edaa42572fc6d9df7b8a5.epub,0,2000-01-01 01:00:00,2016-04-03 02:51:08,800000/cf868c86103edaa42572fc6d9df7b8a5-d.jpg,,
19819841,الأسرار الخفية وراء إلغاء الخلافة العثمانية,,,,مصطفى حلمي,,,,,222,0,Arabic,,,,2745141392,,,,,,,,,,,0,,,,,1,1,0,4679754,pdf,6cb8aa492d4956843dbf238d79c2fe88,,,_480516.6cb8aa492d4956843dbf238d79c2fe88.pdf,0,2000-01-01 01:00:00,2016-04-03 02:51:08,800000/6cb8aa492d4956843dbf238d79c2fe88-g.jpg,,
19819842,Utilitarianism: A Guide for the Perplexed (Guides For The Perplexed),,Guides for the Perplexed,,Krister Bykvist,2010,,Continuum,,185,0,English,,,,"0826498094,9780826498090,9780826498083",,,,,171/.5,B843 .B95 2009,,u7sGDUrCuWoC,OL23223746M,,0,,,,1,0,1,1,627209,pdf,a5185508935acf535c7a24e92232a788,,,_480517.a5185508935acf535c7a24e92232a788.pdf,0,2000-01-01 01:00:00,2016-04-03 02:51:08,800000/a5185508935acf535c7a24e92232a788-d.jpg,,
19819843,"From Barbarians to New Men: Greek, Roman, and Modern Perceptions of Peoples of the Central Apennines",,Oxford Classical Monographs,,Emma Dench,1995,,Clarendon Press,,269,0,English,,,,"0198150210,9780198150213",,,,,937/.02,DG221.5 .D46 1995,,cJNeh81j7ZYC,OL1280251M,,0,,,,1,1,1,1,4804888,pdf,d55319053fc7e2367dad297377b4d6a4,,,_480518.d55319053fc7e2367dad297377b4d6a4.pdf,0,2000-01-01 01:00:00,2016-04-03 02:51:08,800000/d55319053fc7e2367dad297377b4d6a4-d.jpg,,
19819844,Bentham: A Guide for the Perplexed (Guides For The Perplexed),,Guides for the Perplexed,,Philip Schofield,2009,,Continuum,,192,0,English,,,,"0826495907,9780826495907,0826495893,9780826495891",,,,,192,B1574.B34 S36 2009,,,OL22541677M,,0,,,,1,0,1,1,1253457,pdf,4bef59f07d713b5009c91bac0d56658b,,,_480520.4bef59f07d713b5009c91bac0d56658b.pdf,0,2000-01-01 01:00:00,2016-04-03 02:51:08,800000/4bef59f07d713b5009c91bac0d56658b-d.jpg,,
19819845,"Personality and Individual Differences: Theory, Assessment, and Application",,Psychology Research Progress,,"Simon Boag, Niko Tiliopoulos",2011,,Nova Science Pub Inc,,354,0,English,,,,"161122070X,9781611220704",,,,,155.2,BF698.P3584 2010,,AN21cQAACAAJ,,,0,,,,1,0,1,1,3268737,pdf,dbd36030031b3091735f09b3ece6e0aa,,,_480521.dbd36030031b3091735f09b3ece6e0aa.pdf,0,2000-01-01 01:00:00,2016-04-03 02:51:08,800000/dbd36030031b3091735f09b3ece6e0aa-d.jpg,,
19819846,Berkeley: A Guide for the Perplexed (Guides For The Perplexed),,Guides for the Perplexed,,Talia Mae Bettcher,2009,,Continuum,,224,0,English,,,,"0826489915,9780826489913,0826489907,9780826489906",,,,,192,B1348 .B477 2008,,,OL18517732M,,0,,,,1,0,1,1,905902,pdf,1710a26366fca5166be9795816ab6b50,,,_480522.1710a26366fca5166be9795816ab6b50.pdf,0,2000-01-01 01:00:00,2016-04-03 02:51:08,800000/1710a26366fca5166be9795816ab6b50-d.jpg,,
19819847,Truth in Nonfiction: Essays,,,,David Lazar (editor),2008,1,University Of Iowa Press,,213,0,English,,,,"1587296543,9781587296543",,,,,809/.93592,CT25 .T785 2008,,,OL12321661M,,0,,,,,1,1,1,1850808,pdf,dbadad0d0fe64c062863b9234504fb35,,,_480523.dbadad0d0fe64c062863b9234504fb35.pdf,0,2000-01-01 01:00:00,2016-04-03 02:51:08,800000/dbadad0d0fe64c062863b9234504fb35-d.jpg,,
19819848,Heidegger: A Guide for the Perplexed (Guides For The Perplexed),,Guides for the Perplexed,,David R. Cerbone,2008,,Continuum,,193,0,English,,,,"082648669X,9780826486691,9780826486684",,,,,193,B3279.H49 C395 2008,,,OL22549565M,,0,,,,1,0,1,1,795176,pdf,c75f640b81a996a3aa1304e4233f8aad,,,_480524.c75f640b81a996a3aa1304e4233f8aad.pdf,0,2000-01-01 01:00:00,2016-04-03 02:51:08,800000/c75f640b81a996a3aa1304e4233f8aad-d.jpg,,
19819849,Calvin: A Guide for the Perplexed (Guides For The Perplexed),,Guides for the Perplexed,,Paul Helm,2008,,T&T Clark Int'l,,186,0,English,,,,"0567032027,9780567032027,0567032019,9780567032010",,,,,284.2092,BX9418 .H375 2008,,O3IfANw2VBcC,OL22984840M,,0,,,,1,0,1,1,615658,pdf,066015ca84d60ed349d5827f4410aa35,,,_480525.066015ca84d60ed349d5827f4410aa35.pdf,0,2000-01-01 01:00:00,2016-04-03 02:51:08,800000/066015ca84d60ed349d5827f4410aa35-d.jpg,,
19819850,"Zur Metamorphose des politischen Systems in der römischen Kaiserzeit: Die Entstehung einer ''personalen Bürokratie'' im langen dritten Jahrhundert (Klio Beihefte, neue Folge, Bd. 9)",,"Klio Beihefte, neue Folge volume 9",,Peter Eich,2005,,Akademie Verlag,,467,0,German,,,,"3050041102,9783050041100",,,,,,,,gJBXp8UzYJ0C,OL20128078M,,0,,,,1,1,1,1,12619870,pdf,b55e207da83b16eeecd57b0cf55dea95,,,_480526.b55e207da83b16eeecd57b0cf55dea95.pdf,0,2000-01-01 01:00:00,2016-04-03 02:51:08,800000/b55e207da83b16eeecd57b0cf55dea95-d.jpg,,
19819851,The Empiricists: A Guide for the Perplexed (Guides For The Perplexed),,Guides for the Perplexed,,Laurence Carlin,2009,,Continuum,,203,0,English,,,,"1847062008,9781847062000,1847061990,9781847061997",,,,,146/.44,B816 .C37 2009,,,OL22658130M,,0,,,,1,0,1,1,1233899,pdf,d51ca8cf884de12818a013cc5f687d37,,,_480527.d51ca8cf884de12818a013cc5f687d37.pdf,0,2000-01-01 01:00:00,2016-04-03 02:51:08,800000/d51ca8cf884de12818a013cc5f687d37-d.jpg,,
19819852,Fascinate: Your 7 Triggers to Persuasion and Captivation,,,,Sall Hogshead,2010,,Collins Business,,486,0,English,,,,"0061714704,9780061714702,9780061966163",,,,,658.8001/9,HF5415.34 .H65 2010,,TS48dDmLjo0C,OL23736108M,,0,,,,1,0,1,1,417395,epub,35360cdc410a0cec4511fc7ea90bf6b9,,,_480528.35360cdc410a0cec4511fc7ea90bf6b9.epub,0,2000-01-01 01:00:00,2016-04-03 02:51:08,800000/35360cdc410a0cec4511fc7ea90bf6b9-d.jpg,,
19819853,تاريخ النشوء، في البدء كان الهيدروجين,,,,هويمار فون ديتفورت Hoimar von Ditfurth,1990,,دار الحوار للنشر والتوزيع - سورية,,256,0,Arabic,,,,,,,,,,,,,,,0,,,,0,1,1,0,9245935,pdf,3af9e1fb0db0d063d9e005fc8ab9acbb,,,_480529.3af9e1fb0db0d063d9e005fc8ab9acbb.pdf,0,2000-01-01 01:00:00,2016-04-03 02:51:08,800000/3af9e1fb0db0d063d9e005fc8ab9acbb-g.jpg,,
19819854,Saussure: A Guide For The Perplexed (Guides For The Perplexed),,Guides for the Perplexed,,Paul Bouissac,2010,,Continuum,,159,0,English,,,,"1441186018,9781441186010",,,,,410.92,P85.S18 B66 2010,,f3S2FaquumUC,OL23872852M,,0,,,,1,0,1,1,740375,pdf,dbfa19d27f9f1a91405306cb8a98c0ea,,,_480530.dbfa19d27f9f1a91405306cb8a98c0ea.pdf,0,2000-01-01 01:00:00,2016-04-03 02:51:08,800000/dbfa19d27f9f1a91405306cb8a98c0ea-d.jpg,,
19819855,Книга путей и стран,,,,Ибн Хордадбех,1986,,Элм,,464,0,Russian,,,,,,,,,,,,,,,0,,,,1,1,1,1,41131581,pdf,c50bec36b4c8cce79f2ed107d0d38078,,,_480531.c50bec36b4c8cce79f2ed107d0d38078.pdf,0,2000-01-01 01:00:00,2016-04-03 02:51:08,800000/c50bec36b4c8cce79f2ed107d0d38078-g.jpg,,
19819856,Sprache (Heidelberger Jahrbücher 2009 - 53),,Heidelberger Jahrbücher,,Ekkehard Felder,2009,1,Springer,,414,0,German,,,,"3642003419,9783642003417,9783642003424",0073-1641,,,,430,,,USKFIaTLcGEC,,,0,,,,1,0,1,1,5256269,pdf,f72bd7b57be45974e62b902df19fc1af,,,_480532.f72bd7b57be45974e62b902df19fc1af.pdf,0,2000-01-01 01:00:00,2016-04-03 02:51:08,800000/f72bd7b57be45974e62b902df19fc1af-d.jpg,,
19819857,Rousseau: A Guide for the Perplexed (Guides For The Perplexed),,Guides for the Perplexed,,Matthew Simpson,2007,,Continuum,,157,0,English,,,,"0826489400,9780826489401",,,,,194,B2137 .S56 2007,,,OL22748910M,,0,,,,1,1,1,1,8209262,pdf,a034c2d0dbb22f333c4e57350125f066,,,_480533.a034c2d0dbb22f333c4e57350125f066.pdf,0,2000-01-01 01:00:00,2016-04-03 02:51:08,800000/a034c2d0dbb22f333c4e57350125f066-d.jpg,,
19819858,Roil,,The Nightbound Land volume 1,,Trent Jamieson,2011,,Angry Robot,,432,0,English,,,,"0857661833,085766185X,9780857661838,9780857661852",,,,,,,,ogTwZwEACAAJ,,,0,,,,,0,1,1,362638,epub,78d375a89778c4b4e7e43ee8ff7249a2,,,_480534.78d375a89778c4b4e7e43ee8ff7249a2.epub,0,2000-01-01 01:00:00,2016-04-03 02:51:08,800000/78d375a89778c4b4e7e43ee8ff7249a2-d.jpg,,
19819859,The Carceral State and the Crucible of Black Politics: An Urban History of the Rockefeller Drug Laws,,,,Michael Javen Fortner,2011,,,,67,0,English,,,,,,,,,,,,,,,0,,,,1,1,0,1,541658,pdf,6393212db5beb17273e25161bbc3ab0b,,,_480535.6393212db5beb17273e25161bbc3ab0b.pdf,0,2000-01-01 01:00:00,2016-04-03 02:51:08,800000/6393212db5beb17273e25161bbc3ab0b-g.jpg,,
19819860,The Calculus Integral,,,,Brian S Thomson,2010,,ClassicalRealAnalysis.com,,710,0,English,,,,"1442180951,9781442180956",,,,,,,,,,Beta Version,0,,,,1,0,1,1,3118143,pdf,b0b968c9dd256a12246dd1935202aaa9,,,_480536.b0b968c9dd256a12246dd1935202aaa9.pdf,0,2000-01-01 01:00:00,2016-04-03 02:51:08,800000/b0b968c9dd256a12246dd1935202aaa9-d.jpg,,
19819861,Plant-Pathogen Interactions (Annual Plant Reviews S.) (Annual Plant Reviews),,,,Nicolas Talbot,2004,Volume 11,WileyBlackwell,,264,0,English,,,,"1405114339,9781405114332",,,,,632.3,,,,OL17621273M,,0,,,,,1,1,1,4125298,pdf,a578f1a9de80cd1861cff45813dbebc2,,,_480537.a578f1a9de80cd1861cff45813dbebc2.pdf,0,2000-01-01 01:00:00,2016-04-03 02:51:08,800000/a578f1a9de80cd1861cff45813dbebc2-d.jpg,,
19819862,Pigeon English,,,,Stephen Kelman,2011,1,Houghton Mifflin Harcourt,,288,0,English,,,,"0547500602,9780547500607",,,,,823/.92,PR6111.E524 P54 2011,,,OL25008402M,,0,,,,,1,,1,974145,pdf,b0be52e3512edeb07a35857407bccc79,,,_480538.b0be52e3512edeb07a35857407bccc79.pdf,0,2000-01-01 01:00:00,2016-04-03 02:51:08,800000/b0be52e3512edeb07a35857407bccc79-d.jpg,,
19819863,The Navigator of New York,,,,Wayne Johnston,2003,,Vintage Canada,,,0,English,,,,"9780307375421,0307375420",,,,,,PS8569.O3918N39 2003,,zFB9xcQYJnEC,,,0,,,,,0,1,1,2267757,epub,1658c0d1639bbecc86472d28f4329935,,,_480539.1658c0d1639bbecc86472d28f4329935.epub,0,2000-01-01 01:00:00,2016-04-03 02:51:08,800000/1658c0d1639bbecc86472d28f4329935-g.jpg,,
19819864,The Graveyard Book,,,,Neil Gaiman,2008,,HarperCollins,,,0,English,,,,9780061709395,,,,,,PZ7.G1273 Gr 2008,,kSpQvfX1BSoC,OL24249495M,,0,,,,0,0,1,1,595897,epub,9a321533829c66c0548484a35e4d99db,,,_480540.9a321533829c66c0548484a35e4d99db.epub,0,2000-01-01 01:00:00,2016-04-03 02:51:08,800000/9a321533829c66c0548484a35e4d99db-g.jpg,,
19819865,Essential Quantum Mechanics,,,,Gary Bowman,2008,,"Oxford University Press, USA",,222,0,English,,,,"0199228922,9780199228928",,,,,530.12,QC174.12 .B69 2008,,,OL10145994M,,0,,,,,0,1,1,12807922,pdf,32cb566dadf6c870133617e9cd1d1dc7,,,_480541.32cb566dadf6c870133617e9cd1d1dc7.pdf,0,2000-01-01 01:00:00,2016-04-03 02:51:08,800000/32cb566dadf6c870133617e9cd1d1dc7-d.jpg,,
19819866,Texas Gothic,,,,Rosemary Clement-Moore,2011,,Delacorte Press,,,0,English,,,,"9780375898105,0375898107",,,,,,PZ7.C59117Tex 2011,,m77s8XNV-VUC,,,0,,,,,0,1,1,2049492,epub,3799089173882d0b2c723f6caa47cffb,,,_480542.3799089173882d0b2c723f6caa47cffb.epub,0,2000-01-01 01:00:00,2016-04-03 02:51:08,800000/3799089173882d0b2c723f6caa47cffb-g.jpg,,
19819867,"Philosophy, its History and Historiography (Royal Institute of Philosophy Conferences)",,,,Alan J. Holland,1985,1,Springer,,336,0,English,,,,"9027719454,9789027719454",,,,,190,B791 .P44 1985,,,OL2531279M,,0,,,,1,1,1,1,3308809,pdf,1398afd32e05ab9e69356d4c9e07b2f8,,,_480544.1398afd32e05ab9e69356d4c9e07b2f8.pdf,0,2000-01-01 01:00:00,2016-04-03 02:51:08,800000/1398afd32e05ab9e69356d4c9e07b2f8-d.jpg,,
19819868,Prussian Napoleonic Tactics 1792-1815 (Elite 182),,Elite volume 182,,Peter Hofschroer,2011,,Osprey Publishing,,65,0,English,,,,"1846035090,9781846035098,9781849083003,9781849088824",,,,,,,,,OL25261099M,,0,,,,1,0,1,1,3784679,pdf,d52ae4b73c3dfa4cd9125ad441f54404,,,_480545.d52ae4b73c3dfa4cd9125ad441f54404.pdf,0,2000-01-01 01:00:00,2016-04-03 02:51:08,800000/d52ae4b73c3dfa4cd9125ad441f54404-d.jpg,,
19819869,"Practical Guide to Ubuntu Linux, 3rd Edition 2011",,,,Mark G. Sobell,2010,3,Prentice Hall,,1302,0,English,,,,9780132542487,,,,,005.4/32,QA76.76.O63 S59497 2010,,,OL24538646M,,0,,,,,1,0,1,12978251,pdf,c8ae2cd4d550a81142a3ed64b0f61f6a,,,_480546.c8ae2cd4d550a81142a3ed64b0f61f6a.pdf,0,2000-01-01 01:00:00,2016-04-03 02:51:08,800000/c8ae2cd4d550a81142a3ed64b0f61f6a-d.jpg,,
19819870,The New Zealand Expeditionary Force in World War I (Men-at-Arms 473),,Men-at-Arms volume 473,,Wayne Stack,2011,,Osprey Publishing,,49,0,English,,,,"1849085390,9781849085397,9781849085403,9781849088886",,,,,,,,,OL25222062M,,0,,,,1,0,1,1,2805171,pdf,7c9c7a93fe11fa18238eaa7a158fd866,,,_480547.7c9c7a93fe11fa18238eaa7a158fd866.pdf,0,2000-01-01 01:00:00,2016-04-03 02:51:08,800000/7c9c7a93fe11fa18238eaa7a158fd866-d.jpg,,
19819871,Big Cherry Holler: a Big Stone Gap novel,,,,Adriana Trigiani,2001,1st,Random House,,272,0,English,,,,"0375506179,9780375506178",,,,,813/.54,PS3570.R459 B53 2001,,,OL23245406M,,0,,,,,1,,,321339,epub,81c112a4aee7e09bed77dd49b94df34b,,,_480549.81c112a4aee7e09bed77dd49b94df34b.epub,0,2000-01-01 01:00:00,2016-04-03 02:51:08,800000/81c112a4aee7e09bed77dd49b94df34b-d.jpg,,
19819872,"With Letters of Light באותיות של אור: Studies in the Dead Sea Scrolls, Early Jewish Apocalypticism, Magic, and Mysticism",,Ekstasis: Religious Experience from Antiquity to the Middle Ages volume 2,,Daphna V. Arbel; Andrei Orlov,2010,1,De Gruyter,,465,0,English,,,,"3110222019,9783110222012,9783110222029",1865-8792,,,,229/.91,BM487 .W58 2010,,JD-0SEV3Sd8C,OL24539114M,,0,,,,1,0,1,1,3883757,pdf,4bb942a6632988fba5eada7b5121bb2f,,,_480550.4bb942a6632988fba5eada7b5121bb2f.pdf,0,2000-01-01 01:00:00,2016-04-03 02:51:08,800000/4bb942a6632988fba5eada7b5121bb2f-d.jpg,,
19819873,Home to Big Stone Gap,,,,Adriana Trigiani,2006,,Random House,,320,0,English,,,,"1400060087,9781400060085",,,,,813.54,,,,OL23275276M,,0,,,,,1,,,330754,epub,fe0ab218798cb5a247b89b901f3e2640,,,_480551.fe0ab218798cb5a247b89b901f3e2640.epub,0,2000-01-01 01:00:00,2016-04-03 02:51:08,800000/fe0ab218798cb5a247b89b901f3e2640-d.jpg,,
19819874,"Ben Sira on Family, Gender, and Sexuality",,Deuterocanonical and cognate literature studies volume 8,,Ibolya Balla,2011,1,De Gruyter,,342,0,English,,,,"3110247461,9783110247466,9783110247473",1865-1666,,,,229.407,BS1765.53.B35 2011,,oO5JNzS5XQEC,,,600,,,,1,1,1,1,4701966,pdf,e724fb240fb09be7a2cec867415bcfa8,,,_480552.e724fb240fb09be7a2cec867415bcfa8.pdf,0,2000-01-01 01:00:00,2016-04-03 02:51:08,800000/e724fb240fb09be7a2cec867415bcfa8-d.jpg,,
19819875,The Early Enoch Literature,,Supplements to the Journal for the Study of Judaism volume 121,,"Gabriele Boccaccini, John J. Collins",2007,,Brill Academic Publishers,,379,0,English,,,,"9004161546,9789004161542",1384-2161,,,,229/.913,BS1830.E7 E15 2007,,DpFzZFU7JccC,OL12799283M,,0,,,,1,0,1,1,1407611,pdf,9417001d5923f656a518ffc995bcf1ac,,,_480553.9417001d5923f656a518ffc995bcf1ac.pdf,0,2000-01-01 01:00:00,2016-04-03 02:51:08,800000/9417001d5923f656a518ffc995bcf1ac-d.jpg,,
19819876,Psihologia minciunii,,Biblioterapia,,M. Scott Peck,2003,,Curtea Veche Publishing,,167,0,"Romanian,Moldavian,Moldovan",,,,9736690237,,,,,,,,,,,0,,,,0,1,0,0,13847236,pdf,f991611b097b43e9eb03ec55f6345e0d,,,_480554.f991611b097b43e9eb03ec55f6345e0d.pdf,0,2000-01-01 01:00:00,2016-04-03 02:51:08,800000/f991611b097b43e9eb03ec55f6345e0d-g.jpg,,
19819877,Psihologia minciunii,,Biblioterapia,,M. Scott Peck,2003,,Curtea Veche Publishing,,167,0,"Romanian,Moldavian,Moldovan",,,,9736690237,,,,,,,,,,,0,,,,0,1,0,0,2468506,djvu,686a80ef1529831327a1687a84197cc7,,,_480555.686a80ef1529831327a1687a84197cc7.djvu,0,2000-01-01 01:00:00,2016-04-03 02:51:08,800000/686a80ef1529831327a1687a84197cc7-g.jpg,,
19819878,Wisdom's Root Revealed: Ben Sira and the Election of Israel,,Supplements to the Journal for the study of Judaism volume 139,,Greg Schmidt Goering,2009,,Brill,,330,0,English,,,,"9004165797,9789004165793",1384-2161,,,,296.3/1172,BM613 .G64 2009,,kq0pthJErJsC,OL23397746M,,0,,,,1,0,1,1,10881001,pdf,0e2e759eb9717aef2ad9a2bf55c0cafe,,,_480556.0e2e759eb9717aef2ad9a2bf55c0cafe.pdf,0,2000-01-01 01:00:00,2016-04-03 02:51:08,800000/0e2e759eb9717aef2ad9a2bf55c0cafe-d.jpg,,
19819879,"The Books of Kings: Sources, Composition, Historiography and Reception",,Supplements to Vetus Testamentum volume 129,,"Baruch Halpern and Andre Lemaire (editors), Matthew J. Adams  (associate editor)",2010,,Brill,,727,0,English,,,,"9004177299,9789004177291",0083-5889,,,,222/.506,BS1335.52 .B66 2010,,1SXbIFYu-ZAC,OL23981083M,,0,,,,1,0,1,1,5113915,pdf,058a20ba34d7a2b4a5179684b0060edf,,,_480557.058a20ba34d7a2b4a5179684b0060edf.pdf,0,2000-01-01 01:00:00,2016-04-03 02:51:08,800000/058a20ba34d7a2b4a5179684b0060edf-d.jpg,,
19819880,The Ethics of Obscene Speech in Early Christianity and Its Environment,,Supplements to Novum Testamentum volume 128,,Jeremy F. Hultin,2008,,Brill,,302,0,English,,,,"9004168036,9789004168039",0167-9732,,,,241/.69509015,BV4597.53.C64 H85 2008,,GSmLQgAACAAJ,OL16679370M,,0,,,,1,0,1,1,1913056,pdf,c7060bba31c988b6e08a7235cda6c34b,,,_480558.c7060bba31c988b6e08a7235cda6c34b.pdf,0,2000-01-01 01:00:00,2016-04-03 02:51:08,800000/c7060bba31c988b6e08a7235cda6c34b-d.jpg,,
19819881,"Studies in the Book of Ben Sira: Papers of the Third International Conference on the Deuterocanonical Books, Shime'on Centre, Pápa, Hungary, 18-20 May, 2006",,Supplements to the Journal for the Study of Judaism volume 127,,Géza G. Xeravits & József Zsengellér,2008,,Brill,,282,0,English,,,,"9004169067,9789004169067",1384-2161,,,,229/.406,BS1765.52 .I58 2006,,F9LYAAAAMAAJ,OL16796470M,,0,,,,1,0,1,1,2342981,pdf,3500d37daa88682727da2dbdf1a79d0f,,,_480560.3500d37daa88682727da2dbdf1a79d0f.pdf,0,2000-01-01 01:00:00,2016-04-03 02:51:08,800000/3500d37daa88682727da2dbdf1a79d0f-d.jpg,,
19819882,McGraw-Hill's Super-Mini American Slang Dictionary,,,,Richard A. Spears,2007,2,McGraw-Hill,,254,0,English,,,,"0071594930,0071492283,9780071492287",,,,,427/.97303,PE2846 .S65 2007b,10.1036/0071492283,,OL18503095M,,0,,,,0,0,0,1,3677759,pdf,7e63adf6b576cf0b9eb61280f7fcb789,,,_480561.7e63adf6b576cf0b9eb61280f7fcb789.pdf,0,2000-01-01 01:00:00,2016-04-03 02:51:08,800000/7e63adf6b576cf0b9eb61280f7fcb789-d.jpg,,
19819883,50 Tips and Tricks for MongoDB Developers,,,,Kristina Chodorow,2011,1,O'Reilly Media,,66,0,English,76,,,"1449304613,9781449304614",,,,,,,,,,,0,,,,,0,1,1,5590568,pdf,1ade81a4a3d00fd2cd4f6f939d0b955b,,,_480562.1ade81a4a3d00fd2cd4f6f939d0b955b.pdf,0,2000-01-01 01:00:00,2016-04-03 02:51:08,800000/1ade81a4a3d00fd2cd4f6f939d0b955b-d.jpg,,
19819884,Studies in the Book of Wisdom,,Supplements to the Journal for the Study of Judaism 142,,Géza G. Xeravits & József Zsengellér (editors),2010,,Brill,,245,0,English,,,0,"9004186123,9789004186125",1384-2161,,,,229/.306,BS1755.52 .I58 2007,,oo-cqZXJ87MC,,,0,,,,1,0,1,1,30611109,pdf,696546749588803285d3004fcbf31aee,,,_480563.696546749588803285d3004fcbf31aee.pdf,0,2000-01-01 01:00:00,2016-04-03 02:51:08,800000/696546749588803285d3004fcbf31aee-d.jpg,,
19819885,Scarlett: The Sequel to Margaret Mitchell's,,,,Alexandria Ripley,1992,,Grand Central Publishing,,896,0,English,,,,"0446363251,9780446363259",,,,,813.54,,,,OL7536242M,,0,,,,,1,,,687806,epub,70f2639047a51bcd714459580961694d,,,_480564.70f2639047a51bcd714459580961694d.epub,0,2000-01-01 01:00:00,2016-04-03 02:51:08,800000/70f2639047a51bcd714459580961694d-d.jpg,,
19819886,"Women's Experience of Modernity, 1875-1945",,,,"Ann L. Ardis, Leslie W. Lewis (editors)",2002,,The Johns Hopkins University Press,,325,0,English,,,,"0801869358,9780801869358",,,,,820.9/9287/09034,PS228.M63 W66 2003,,Ds7zyLfBn6EC,OL3940211M,,0,,,,1,0,1,1,1259453,pdf,3f80e9824ef387b69b3ffdc32322d7d1,,,_480565.3f80e9824ef387b69b3ffdc32322d7d1.pdf,0,2000-01-01 01:00:00,2016-04-03 02:51:08,800000/3f80e9824ef387b69b3ffdc32322d7d1-d.jpg,,
19819887,"The Woman in the Violence: Gender, Poverty, and Resistance in Peru",,,,M. Cristina Alcalde,2010,,Vanderbilt University Press,,273,0,English,,,,"0826517293,9780826517296",,,,,362.82/92098525,HV6250.4.W65 A499 2010,,zUHS2bQs4kkC,OL24080369M,,0,,,,1,0,1,1,1770156,pdf,a1ca607355d659d22a680587c89d26e8,,,_480566.a1ca607355d659d22a680587c89d26e8.pdf,0,2000-01-01 01:00:00,2016-04-03 02:51:08,800000/a1ca607355d659d22a680587c89d26e8-d.jpg,,
19819888,Carrier of the Mark,,,,Leigh Fallon,2011,1,HarperTeen,,352,0,English,,,,"0062027875,9780062027870",,,,,,,,,OL24791947M,,0,,,,,1,,,385323,epub,b1788a713693776a3ff8290d54aca747,,,_480567.b1788a713693776a3ff8290d54aca747.epub,0,2000-01-01 01:00:00,2016-04-03 02:51:08,800000/b1788a713693776a3ff8290d54aca747-d.jpg,,
19819889,The Horizon: A History of Our Infinite Longing,,,,Didier Maleuvre,2011,1,University of California Press,,387,0,English,,,,"0520267435,9780520267435",,,,,909,CB151.M224 2011,,pUldN1FCGmwC,,,0,,,,1,0,1,1,2816409,pdf,dfa57132b48a18a0897a0b9950a3369e,,,_480569.dfa57132b48a18a0897a0b9950a3369e.pdf,0,2000-01-01 01:00:00,2016-04-03 02:51:08,800000/dfa57132b48a18a0897a0b9950a3369e-d.jpg,,
19819890,"Palace Walk: The Cairo Trilogy, Volume 1",,The Cairo Trilogy volume 1,,Naguib Mahfouz,1990,,Anchor,,512,0,English,,,,"0385264666,9780385264662",,,,,892.736,,,,OL18319018M,,0,,,,,1,0,1,788007,mobi,2271a772357edf8e7352159fd773602f,,,_480570.2271a772357edf8e7352159fd773602f.mobi,0,2000-01-01 01:00:00,2016-04-03 02:51:08,800000/2271a772357edf8e7352159fd773602f-d.jpg,,
19819891,"Palace of Desire: The Cairo Trilogy, Volume 2",,The Cairo Trilogy volume 2,,Naguib Mahfouz,1991,,Anchor,,432,0,English,,,,"0385264682,9780385264686",,,,,892/.736,PJ7846.A46 Q313 1992,,,OL1545929M,,0,,,,,1,0,1,623772,mobi,83ef65d8b7b3c4288f98588c30444e8b,,,_480571.83ef65d8b7b3c4288f98588c30444e8b.mobi,0,2000-01-01 01:00:00,2016-04-03 02:51:08,800000/83ef65d8b7b3c4288f98588c30444e8b-d.jpg,,
19819892,"Sugar Street: The Cairo Trilogy, Volume 3",,The Cairo Trilogy volume 3,,Naguib Mahfouz,1992,"1st Anchor Bks Ed, 1st Print. 1993",Anchor,,320,0,English,,,,"0385264704,9780385264709",,,,,892.736,,,,OL17204426M,,0,,,,,1,0,1,513497,mobi,710ba4af106d888864f535b06805e93e,,,_480572.710ba4af106d888864f535b06805e93e.mobi,0,2000-01-01 01:00:00,2016-04-03 02:51:08,800000/710ba4af106d888864f535b06805e93e-d.jpg,,
19819893,Shock Wave,,Virgil Flowers volume 5,,John Sandford,2011,,Putnam Adult,,,0,English,,,,9781101547656,,,,,,,,,,,0,,,,0,0,1,1,316828,epub,295add946064c1109613d04fb7b4aef4,,,_480573.295add946064c1109613d04fb7b4aef4.epub,0,2000-01-01 01:00:00,2016-04-03 02:51:08,800000/295add946064c1109613d04fb7b4aef4-g.jpg,,
19819894,"Neverwinter: Neverwinter Saga, Book II (Forgotten Realms)",,Neverwinter Saga volume 2,,R.A. Salvatore,2011,1,Wizards of the Coast,,352,0,English,,,,"0786958421,9780786958429",,,,,813/.54,PS3569.A462345 N48 2011,,,OL25170244M,,0,,,,,0,1,1,628158,epub,43bacb25da7af667d608572e19ee7863,,,_480574.43bacb25da7af667d608572e19ee7863.epub,0,2000-01-01 01:00:00,2016-04-03 02:51:08,800000/43bacb25da7af667d608572e19ee7863-d.jpg,,
19819895,Problems in Physics for Advanced and Scholarship Candidates,,,,Frank Tyler,1957,,Edward Arnold,,235,0,English,,,,,,,,,,,,,,,0,,,,1,1,1,1,2294020,pdf,601f05cbf54b95ec94e96a7f3f43e7cb,,,_480575.601f05cbf54b95ec94e96a7f3f43e7cb.pdf,0,2000-01-01 01:00:00,2016-04-03 02:51:08,800000/601f05cbf54b95ec94e96a7f3f43e7cb-g.jpg,,
19819896,Contemporary Precalculus: A Graphing Approach,,,,"Thomas W. Hungerford, Douglas J. Shaw",2008,5,Brooks Cole,,1058,0,English,,,,"0495108332,9780495108337",,,,,512.1,,,,OL10345206M,,0,,,,,1,,1,19322091,pdf,7966a7ee40ef3d161c41c5bc240d2b34,,,_480576.7966a7ee40ef3d161c41c5bc240d2b34.pdf,0,2000-01-01 01:00:00,2016-04-03 02:51:08,800000/7966a7ee40ef3d161c41c5bc240d2b34-d.jpg,,
19819897,الرياضيات للصف السادس العلمي,,,,طارق شعبان رجب الحديثي ، رحيم يونس كرو ، محمد عبدالغفور الجواهري ، منعم حسين التميمي ، يوسف شريف المعمار ، جعفر رضا هاشم الزبيدي,2010,,المديرية العامة للمناهج - العراق,,262,0,Arabic,,,,,,,,,,,,,,,0,,,,1,0,1,1,11461737,pdf,fc2f08558d79852decfa62ceaf0561e0,,,_480577.fc2f08558d79852decfa62ceaf0561e0.pdf,0,2000-01-01 01:00:00,2016-04-03 02:51:08,800000/fc2f08558d79852decfa62ceaf0561e0-g.jpg,,
19819898,Recent Advances in the Message Passing Interface (Lecture Notes in Computer Science   Programming and Software),,Lecture Notes in Computer Science volume 6960,,"Yiannis Cotronis, Anthony Danalis, Dimitrios S. Nikolopoulos, Jack Dongarra (Editors)",2011,2011,Springer,,374,0,English,87,,,"3642244483,9783642244483,9783642244490",0302-9743,,,,,,10.1007/978-3-642-24449-0,I8FtaaxBjdkC,,,0,,,,1,0,1,1,7394731,pdf,89871031164e59d250f02db0dac99fc5,,,_480578.89871031164e59d250f02db0dac99fc5.pdf,0,2000-01-01 01:00:00,2016-04-03 02:51:08,800000/89871031164e59d250f02db0dac99fc5-d.jpg,,
19819899,Left Legalism Left Critique,,,,"Wendy Brown, Janet Halley",2002,,Duke University Press Books,,458,0,English,,,,"0822329689,9780822329688",,,,,340.1,KF380 .L44 2002,,,OL3553858M,,0,,,,1,1,1,1,20315308,pdf,c0ae446e267eacf6093eab45e2ad846f,,,_480580.c0ae446e267eacf6093eab45e2ad846f.pdf,0,2000-01-01 01:00:00,2016-04-03 02:51:08,800000/c0ae446e267eacf6093eab45e2ad846f-d.jpg,,
19819900,Преступление и наказание,,Литературные памятники,,Достоевский Федор Михайлович,1970,,Наука,,835,0,Russian,,,,,,,,,,,,,,,0,,,,,1,1,1,19159212,djvu,c9198a44eba17d60b853b93a599edf9f,,,_480581.c9198a44eba17d60b853b93a599edf9f.djvu,0,2000-01-01 01:00:00,2016-04-03 02:51:08,800000/c9198a44eba17d60b853b93a599edf9f-g.jpg,,
19819901,"Working with Families of the Poor, Second Edition (The Guilford Family Therapy Series)",,,,"Patricia Minuchin PhD, Jorge Colapinto, Salvador Minuchin",2006,Second Edition,The Guilford Press,,259,0,English,,,,"1593853475,9781593853471",,,,,362.5,HV697 .M55 2007,,,OL17844262M,,0,,,,,1,1,1,1151542,pdf,f3df962168b2c07c2cd0d757b4969185,,,_480582.f3df962168b2c07c2cd0d757b4969185.pdf,0,2000-01-01 01:00:00,2016-04-03 02:51:08,800000/f3df962168b2c07c2cd0d757b4969185-d.jpg,,
19819902,The Sacred Tree in Ancient Greek Religion,,,,Karolyn Elizabeth Smardz,1979,,,,135,0,English,,,,,,,,,,,,,,,0,,,,,1,,1,46898227,pdf,e7fe96ddc95277732d97fd9182ed400c,,,_480583.e7fe96ddc95277732d97fd9182ed400c.pdf,0,2000-01-01 01:00:00,2016-04-03 02:51:08,800000/e7fe96ddc95277732d97fd9182ed400c-g.jpg,,
19819903,Evaluation and Management of Blepharoptosis,,,,"Adam J. Cohen, David A. Weinberg",2010,First edition,Springer,,309,0,English,,,,"0387928545,9780387928548",,,,,617.7/710592,RE155.B5 E93 2011,10.1007/978-0-387-92855-5,,OL25014644M,,0,,,,,0,1,1,11639065,pdf,0c2d5cfa76690f757fda228f065658be,,,_480584.0c2d5cfa76690f757fda228f065658be.pdf,0,2000-01-01 01:00:00,2016-04-03 02:51:08,800000/0c2d5cfa76690f757fda228f065658be-d.jpg,,
19819904,States Of Terror: Essays (Occasional Papers),,,,Begona Aretxaga,2006,,University of Nevada Press,,325,0,English,,,,"1877802573,9781877802577",,,,,303.60946/6,JC328.65.S7 A74 2005,,,OL3414319M,,0,,,,,1,1,1,23314460,pdf,7c9e091800ba6e10029d36d707a1dbc5,,,_480585.7c9e091800ba6e10029d36d707a1dbc5.pdf,0,2000-01-01 01:00:00,2016-04-03 02:51:08,800000/7c9e091800ba6e10029d36d707a1dbc5-d.jpg,,
19819905,,الجزء الاول,,دليل المعلم في الرياضيات للصف الثاني عشر (علمي) ، الجزء الاول,احمد الشيخ، حميد فايز حميد ، محمد القاضي ، منصور غلوم حسين ، نصرة الباق,2009,,مكتب التربية العربي لدول الخليج - الكويت,,183,0,Arabic,,,,,,,,,,,,,,,0,,,,1,0,1,1,4979888,pdf,c0fa57cfd8c989dc4857e9d75817e674,,,_480587.c0fa57cfd8c989dc4857e9d75817e674.pdf,0,2000-01-01 01:00:00,2016-04-03 02:51:08,800000/c0fa57cfd8c989dc4857e9d75817e674-g.jpg,,
19819906,Transportvorgänge in der Verfahrenstechnik: Grundlagen und apparative Umsetzungen (VDI-Buch   Chemische Technik   Verfahrenstechnik),,,,Matthias Kraume,2003,1,Springer,,627,0,German,,,,"3540401059,9783540401056",,,,,,,,aHDVROxcKfEC,OL9722023M,,0,,,,0,0,1,1,11037729,pdf,8dd7ba30488465575daeaca9f8c20a66,,,_480589.8dd7ba30488465575daeaca9f8c20a66.pdf,0,2000-01-01 01:00:00,2016-04-03 02:51:08,800000/8dd7ba30488465575daeaca9f8c20a66-d.jpg,,
19819907,Bossuet en Hollande,,,,J. A. G. Tans,1949,,Ernest van Aelst Maastricht,,221,0,French,,,,,,,,,,,,,,,0,,,,1,1,1,1,3267397,pdf,2d4344f7d7f3147771e836cc0aa0e851,,,_480590.2d4344f7d7f3147771e836cc0aa0e851.pdf,0,2000-01-01 01:00:00,2016-04-03 02:51:08,800000/2d4344f7d7f3147771e836cc0aa0e851-g.jpg,,
19819908,English for Pharmacy Writing and Oral Communication,,,,Miriam Diaz-Gilbert,2008,1,Lippincott Williams & Wilkins,,434,0,English,,,,"0781774322,9780781774321",,,,,428.340246151,PE1128 .D465 2008,,,OL23919852M,,0,,,,1,0,1,1,2516862,pdf,c0460e51ea6cc2ba8cab0654132f6d99,,,_480592.c0460e51ea6cc2ba8cab0654132f6d99.pdf,0,2000-01-01 01:00:00,2016-04-03 02:51:08,800000/c0460e51ea6cc2ba8cab0654132f6d99-d.jpg,,
19819909,"Pronto, chi spia?: il libro nero delle intercettazioni",,,,Agente italiano (pseud.),2006,,Aliberti,,155,0,Italian,,,,,,,,,,,,BfQWAQAAIAAJ,,,0,,,,0,1,0,1,3419026,pdf,cb5e3a5198b94af6d722e20619636571,,,_480593.cb5e3a5198b94af6d722e20619636571.pdf,0,2000-01-01 01:00:00,2016-04-03 02:51:08,800000/cb5e3a5198b94af6d722e20619636571-g.jpg,,
19819910,,الجزء الثاني,,دليل المعلم في الرياضيات للصف الثاني عشر (علمي) - الجزء الثاني,احمد الشيخ ، حميد فايز حميد ، محمد القاضي ، منصور غلوم حسين ، نصرة الباقر,2009,,مكتب التربية العربي لدول الخليج - الكويت,,177,0,Arabic,,,,,,,,,,,,,,,0,,,,1,0,1,1,6727308,pdf,a99aea9dc5551af7b38c21ac9a837205,,,_480595.a99aea9dc5551af7b38c21ac9a837205.pdf,0,2000-01-01 01:00:00,2016-04-03 02:51:08,800000/a99aea9dc5551af7b38c21ac9a837205-g.jpg,,
19819911,Программирование. Принципы и практика использования C++,,,,Страуструп Б.,2011,,Вильямс,,1206,0,Russian,92,,0,"5845916216,9785845916211",,,,,,,,,,,0,,,,,1,1,1,20439147,djvu,433cf9284e2379c8f65b68e1ac06a0bc,,,_480596.433cf9284e2379c8f65b68e1ac06a0bc.djvu,0,2000-01-01 01:00:00,2016-04-03 02:51:08,800000/433cf9284e2379c8f65b68e1ac06a0bc-d.jpg,,
19819912,"The Democratic Debate: American Politics in an Age of Change , Fifth Edition",,,,"Bruce Miroff, Raymond Seidelman, Todd Swanstrom, Tom De Luca",2009,5,Wadsworth Publishing,,489,0,English,,,,"0547216386,9780547216386",,,,,320.473,,,,OL23718927M,,0,,,,,1,1,1,10841440,pdf,598b4b9c54736286229300898a8e97d0,,,_480599.598b4b9c54736286229300898a8e97d0.pdf,0,2000-01-01 01:00:00,2016-04-03 02:51:08,800000/598b4b9c54736286229300898a8e97d0-d.jpg,,
19819913,Mustang American Classic (Book Brick),,,,Publications International,2006,,Publications International,,318,0,English,,,,"1412712246,9781412712248",,,,,629.2222,,,,OL8432558M,,0,,,,0,1,1,0,195116896,pdf,16a35faa3785a3af5269c4e0741e7807,,,_480601.16a35faa3785a3af5269c4e0741e7807.pdf,0,2000-01-01 01:00:00,2016-04-03 02:51:08,800000/16a35faa3785a3af5269c4e0741e7807-d.jpg,,
19819914,The Night Eternal,,,,Guillermo del Toro; Chuck Hogan,2011,,HarperCollins Publishers Ltd,,400,0,English,,,,"9780007328628,9780007319527",,,,,,,,,,,0,,,,,0,1,1,397705,epub,1221430bbbce771b9f91e9ccc7de720c,,,_480603.1221430bbbce771b9f91e9ccc7de720c.epub,0,2000-01-01 01:00:00,2016-04-03 02:51:08,800000/1221430bbbce771b9f91e9ccc7de720c-d.jpg,,
19819915,101 Things Ive Learned in my 50 Trips around the Sun,,,,Michael Angier,,,,,19,0,English,,,,,,,,,,,,,,,0,,,,1,1,,0,269884,pdf,d4ca924d7c345a279aa674cce2181ef2,,,_480604.d4ca924d7c345a279aa674cce2181ef2.pdf,0,2000-01-01 01:00:00,2016-04-03 02:51:08,800000/d4ca924d7c345a279aa674cce2181ef2-g.jpg,,
19819916,Glass Demon,,,,Helen Grant,2010,,Penguin Books,,623,0,English,,,,"0141325763,9780141325767",,,,,,,,unVjQgAACAAJ,OL25217366M,,0,,,,1,0,1,1,2983718,epub,4610bd37b0cbfba09871059e81917eeb,,,_480605.4610bd37b0cbfba09871059e81917eeb.epub,0,2000-01-01 01:00:00,2016-04-03 02:51:08,800000/4610bd37b0cbfba09871059e81917eeb-d.jpg,,
19819917,Beyond Words: Discourse and Critical Agency in Africa,,,,Andrew Apter,2007,,University Of Chicago Press,,192,0,English,,,,"0226023524,9780226023526",,,,,,,,,OL22756003M,,0,,,,,1,,1,11341573,pdf,12c7ba2bc368a513aa2268a27896fbf5,,,_480606.12c7ba2bc368a513aa2268a27896fbf5.pdf,0,2000-01-01 01:00:00,2016-04-03 02:51:08,800000/12c7ba2bc368a513aa2268a27896fbf5-d.jpg,,
19819918,Behavioral and Psychopharmacologic Pain Management,,Cambridge Medicine,,Edited by Michael H. Ebert and Robert D. Kerns,2010,1,Cambridge University Press,,507,0,English,,,,"0521884349,9780521884341",,,,,616.0472,RB127.B44 2010,,RORnRRghGeYC,,,0,,,,1,0,1,1,4458871,pdf,5d7f840b3b82804cf037e2413cdb0e30,,,_480607.5d7f840b3b82804cf037e2413cdb0e30.pdf,0,2000-01-01 01:00:00,2016-04-03 02:51:08,800000/5d7f840b3b82804cf037e2413cdb0e30-d.jpg,,
19819919,"Il tallone del drago - Lavoro cognitivo, capitale globalizzato e conflitti in Cina",,,,paolo do,,,,,144,0,Italian,,,,978-88-6548-008-3,,,,,,,,,,,0,,,,,1,,1,550960,pdf,82200d352d85bc983ad1f1c8cef0b18a,,,_480608.82200d352d85bc983ad1f1c8cef0b18a.pdf,0,2000-01-01 01:00:00,2016-04-03 02:51:08,800000/82200d352d85bc983ad1f1c8cef0b18a-g.jpg,,
19819920,The Future of Looking Back,,,,Richard Banks,2011,,Microsoft Press,,184,0,English,,,,"0735658064,9780735658066",,,,,,,,,,,0,,,,,1,,,1689034,epub,941a442e9b166efa8fd3a9ec263f57e7,,,_480610.941a442e9b166efa8fd3a9ec263f57e7.epub,0,2000-01-01 01:00:00,2016-04-03 02:51:08,800000/941a442e9b166efa8fd3a9ec263f57e7-d.jpg,,
19819921,"Beyond Universals in Cognitive Development, Second Edition",,,,David Henry Feldman,1994,2,Ablex Publishing,,232,0,English,,,,"1567500323,9781567500325",,,,,155.4/13,BF723.C5 F44 1994,,,OL1092023M,,0,,,,,1,1,0,22564007,pdf,1a580769a7874458b4202b1e27fb24fa,,,_480614.1a580769a7874458b4202b1e27fb24fa.pdf,0,2000-01-01 01:00:00,2016-04-03 02:51:08,800000/1a580769a7874458b4202b1e27fb24fa-d.jpg,,
19819922,Hiking the Horizontal: Field Notes from a Choreographer,,,,Liz Lerman,2011,First Edition,Wesleyan,,329,0,English,,,,"0819569518,9780819569516",,,,,"792.8/2092,B",GV1785 .L435 2011,,sfjYOpmCZcAC,OL24384700M,,0,,,,1,0,1,1,2793001,pdf,6e390f5b9f2f897f7c3d82a6621a2eaf,,,_480615.6e390f5b9f2f897f7c3d82a6621a2eaf.pdf,0,2000-01-01 01:00:00,2016-04-03 02:51:08,800000/6e390f5b9f2f897f7c3d82a6621a2eaf-d.jpg,,
19819923,Wish Me Dead,,,,Helen Grant,2011,,Puffin,,592,0,English,,,,"0141337702,9780141337708",,,,,823.92,,,FxuGGptSWCwC,,,0,,,,1,1,1,1,1985438,epub,18f385b35b84827d2c7f0dd32e1de8c0,,,_480616.18f385b35b84827d2c7f0dd32e1de8c0.epub,0,2000-01-01 01:00:00,2016-04-03 02:51:08,800000/18f385b35b84827d2c7f0dd32e1de8c0-d.jpg,,
19819924,Changing Views on Ancient Near Eastern Mathematics,,,,"Jens Hoeyrup, Peter Damerow",2001,,Reimer,,332,0,German,,,,"3496026537,9783496026532",,,,,,,,,OL22453310M,,0,,,,0,1,1,1,13641871,pdf,d3bf60caadc3a41f67bb891f187c4ebd,,,_480617.d3bf60caadc3a41f67bb891f187c4ebd.pdf,0,2000-01-01 01:00:00,2016-04-03 02:51:08,800000/d3bf60caadc3a41f67bb891f187c4ebd-d.jpg,,
19819925,We Others,,,,Steven Millhauser,2011,,Alfred A. Knopf,,,0,English,,,,"0307701433,9780307701435",,,,,,PS3563.I422W42 2011,,mBL_CI8P0KgC,,,0,,,,,0,1,1,2096010,epub,a39c5febc47b8f6c9aa2267f0ea8b342,,,_480618.a39c5febc47b8f6c9aa2267f0ea8b342.epub,0,2000-01-01 01:00:00,2016-04-03 02:51:08,800000/a39c5febc47b8f6c9aa2267f0ea8b342-g.jpg,,
19819926,Worldmark Encyclopedia of Religious Practices (3 Volume Set),,,,Thomas Riggs,2006,1st,Gale,,1986,0,English,,,,"0787666114,9780787666118",,,,,200.9,BL80.3 .W67 2006,,,OL22172619M,,0,,,,1,0,1,1,101956599,pdf,db94c176b5780cbd1596e23301c142b4,,,_480620.db94c176b5780cbd1596e23301c142b4.pdf,0,2000-01-01 01:00:00,2016-04-03 02:51:08,800000/db94c176b5780cbd1596e23301c142b4-d.jpg,,
19819927,"Junior Worldmark Encyclopedia of the Nations (5th edition, 10-volume set, 2007)",,,,UXL - Gale Group,2007,5th editon,uxl,,3003,0,English,,,,"1414410956,9780787607456",,,,,,,,,OL11755820M,"some frontmatter such as title page, copyright page and more missing",0,,,,1,1,1,1,96348856,pdf,4659409538b05a9116bae2eb29600172,,,_480622.4659409538b05a9116bae2eb29600172.pdf,0,2000-01-01 01:00:00,2016-04-03 02:51:08,800000/4659409538b05a9116bae2eb29600172-d.jpg,,
19819928,Indelible,,,,Lani Woodland,,,,,,0,English,,,,0982729723,,,,,,,,,,,0,,,,,1,,,283620,epub,0c8c42ed1b4ed6738db44b74ca287599,,,_480623.0c8c42ed1b4ed6738db44b74ca287599.epub,0,2000-01-01 01:00:00,2016-04-03 02:51:08,800000/0c8c42ed1b4ed6738db44b74ca287599-g.jpg,,
19819929,Babylonische und assyrische Kolophone,,,,Hermann Hunger,1968,,Butzon u. Bercker,,189,0,German,,,,,,B0000BPICI,,,,,,,,,0,,,,,1,0,1,24474567,pdf,a1f1f7fa1e2400141ecac05b10225f8f,,,_480624.a1f1f7fa1e2400141ecac05b10225f8f.pdf,0,2000-01-01 01:00:00,2016-04-03 02:51:08,800000/a1f1f7fa1e2400141ecac05b10225f8f-g.jpg,,
19819930,Das sumerische Kurzepos Bilgames und Akka,,,,Willem H.Ph. Römer,1980,,Neukirchener Theologie,,123,0,German,,,,"3788706384,9783788706388",,,,,899.951,,,,,,0,,,,,1,0,0,4193046,pdf,5027e14d9d660471ac34423de56ae208,,,_480626.5027e14d9d660471ac34423de56ae208.pdf,0,2000-01-01 01:00:00,2016-04-03 02:51:08,800000/5027e14d9d660471ac34423de56ae208-g.jpg,,
19819931,Der Aufstieg Marduks. Die Stellung Marduks in der babylonischen Religion des zweiten Jahrtausends v. Chr.,,,,Walter Sommerfeld,1982,,Neukirchener,,245,0,German,,,,"3788706961,9783788706968",,,,,299.21,,,,,,0,,,,,1,0,0,9770318,pdf,e7ec0c1bab1f1e90976fa0f344b5d762,,,_480627.e7ec0c1bab1f1e90976fa0f344b5d762.pdf,0,2000-01-01 01:00:00,2016-04-03 02:51:08,800000/e7ec0c1bab1f1e90976fa0f344b5d762-g.jpg,,
19819932,"Junior Worldmark Encyclopedia of the States (5th editon, 4-volume set, 2007)",,,,"Susan B. Gall, Jane Hoehner, Timothy L. Gall",2007,5th edition,UXL,,1185,0,English,,,,"1414411065,9781414411064",,,,,973.03,E156 .J86 2007,,,OL11755821M,some frontmatter missing,0,,,,1,1,1,1,27597185,pdf,26e8f10fd28eb335bef42fe014d226ad,,,_480628.26e8f10fd28eb335bef42fe014d226ad.pdf,0,2000-01-01 01:00:00,2016-04-03 02:51:08,800000/26e8f10fd28eb335bef42fe014d226ad-d.jpg,,
19819933,Untersuchungen zur Totenpflege (kispum) im Alten Mesopotamien,,,,Akio Tsukimoto,1985,,Neukirchener,,260,0,German,,,,"3788712007,9783788712006",,,,,935,DS69.6 .T78 1985,,,OL2348710M,,0,,,,,1,0,1,23394868,pdf,2723ba05bbb811ec08c7ea834a764a01,,,_480629.2723ba05bbb811ec08c7ea834a764a01.pdf,0,2000-01-01 01:00:00,2016-04-03 02:51:08,800000/2723ba05bbb811ec08c7ea834a764a01-g.jpg,,
19819934,'Holiness'' and ''Purity'' in Mesopotamia,,,,E Jan Wilson,1994,,Neukirchener,,121,0,English,,,,"3788714948,9783788714949",,,,,299/.9295,BL1615 .W55 1994,,,OL1215621M,,0,,,,,1,0,1,15951535,pdf,d2a7456e684ba9a71299ddf391e58b16,,,_480630.d2a7456e684ba9a71299ddf391e58b16.pdf,0,2000-01-01 01:00:00,2016-04-03 02:51:08,800000/d2a7456e684ba9a71299ddf391e58b16-g.jpg,,
19819935,Ich bin eine Schwertklinge des Königs. Die Sprache des Bel-ibni,,,,Joop M de Vaan,1995,,Neukirchener,,549,0,German,,,,"3788715367,9783788715366",,,,,492/.1,PJ3889 .V33 1995,,,OL899859M,,0,,,,,1,0,0,28418006,pdf,3dfbe32597264d14b9852299c3f6e586,,,_480631.3dfbe32597264d14b9852299c3f6e586.pdf,0,2000-01-01 01:00:00,2016-04-03 02:51:08,800000/3dfbe32597264d14b9852299c3f6e586-g.jpg,,
19819936,Flesh And Blood,,,,Kristen Painter,2011,1,Orbit,,432,0,English,,,,031608476X,,,,,,,,,OL25254460M,,0,,,,,1,,,652270,epub,69899bcfe4be41fdd368cbf7b0e7fe1b,,,_480632.69899bcfe4be41fdd368cbf7b0e7fe1b.epub,0,2000-01-01 01:00:00,2016-04-03 02:51:08,800000/69899bcfe4be41fdd368cbf7b0e7fe1b-d.jpg,,
19819937,Die Bildersprache der akkadischen Epik,,Alter Orient und Altes Testament volume 264,,Michael P Streck,1999,,Ugarit-Verlag,,258,0,German,,,,"3927120774,9783927120778",,,,,,,,,OL12345457M,,0,,,,0,1,,1,38470730,pdf,61e49e0749be89a54fc108f359282ca1,,,_480633.61e49e0749be89a54fc108f359282ca1.pdf,0,2000-01-01 01:00:00,2016-04-03 02:51:08,800000/61e49e0749be89a54fc108f359282ca1-g.jpg,,
19819938,Munuscula Mesopotamica: Festschrift für Johannes Renger,,,,"Barbara Böck, Eva Cancik-Kirschbaum, Thomas Richter",1999,,Ugarit-Verlag,,704,0,German,,,,"3927120812,9783927120815",,,,,935,PJ3126.R46 M86 1999,,,OL6811299M,,0,,,,,1,0,0,39508176,pdf,471e31d7daf156f133c542d16746e608,,,_480634.471e31d7daf156f133c542d16746e608.pdf,0,2000-01-01 01:00:00,2016-04-03 02:51:08,800000/471e31d7daf156f133c542d16746e608-g.jpg,,
19819939,Die Namen der Keilschriftzeichen,,Alter Orient und Altes Testament volume 268,,Yushu Gong,2000,,Ugarit-Verlag,,228,0,German,,,,"3927120839,9783927120839",,,,,,,,,OL6839330M,,0,,,,0,1,1,0,7053914,pdf,a293664900d389eb40424bb66c11fe49,,,_480635.a293664900d389eb40424bb66c11fe49.pdf,0,2000-01-01 01:00:00,2016-04-03 02:51:08,800000/a293664900d389eb40424bb66c11fe49-g.jpg,,
19819940,Schulunterricht in Babylonien im ersten Jahrtausend v. Chr.,,Alter Orient und Altes Testament volume 275,,Petra D Gesche,2001,,Ugarit-Verlag,,820,0,German,,,,"3927120936,9783927120938",,,,,370/.935,PJ3725 .G47 2000,,,OL18318501M,,0,,,,,1,1,1,37035844,pdf,926749af415aa921af887f5d51113296,,,_480636.926749af415aa921af887f5d51113296.pdf,0,2000-01-01 01:00:00,2016-04-03 02:51:08,800000/926749af415aa921af887f5d51113296-g.jpg,,
19819941,The Elminster Series 1. Elminster: The Making of a Mage (Forgotten Realms),,The Elminster Series,,Ed Greenwood,1995,,Wizards of the Coast,,336,0,English,,,,"0786902035,9780786902033",,,,,813.54,,,,OL8143769M,,0,,,,,1,1,1,1445526,pdf,068654b41b89a0e7df49c0915ded56ab,,,_480637.068654b41b89a0e7df49c0915ded56ab.pdf,0,2000-01-01 01:00:00,2016-04-03 02:51:08,800000/068654b41b89a0e7df49c0915ded56ab-d.jpg,,
19819942,Und weinten um Tammuz: Die Götter Dumuzi-ama'usumgalanna und Damu,,,,Michael M Fritz,2003,,Ugarit-Verlag,,430,0,German,,,,"3934628427,9783934628427",,,,,,,,,OL19655435M,,0,,,,,1,0,0,7333569,pdf,0083d46666c3586a28c8cd6bff5a5b98,,,_480638.0083d46666c3586a28c8cd6bff5a5b98.pdf,0,2000-01-01 01:00:00,2016-04-03 02:51:08,800000/0083d46666c3586a28c8cd6bff5a5b98-g.jpg,,
19819943,Kaleidoscope: Contemporary and Classic Readings in Education (What's New in Early Childhood),,,,"Kevin Ryan, James M. Cooper",2009,12,Wadsworth Publishing,,400,0,English,,,,"1426649339,9781426649332",,,,,370.973,,,,OL23916107M,,0,,,,,1,1,1,2916506,pdf,56fa66968eeea3faba30084800e69003,,,_480641.56fa66968eeea3faba30084800e69003.pdf,0,2000-01-01 01:00:00,2016-04-03 02:51:08,800000/56fa66968eeea3faba30084800e69003-d.jpg,,
19819944,Die Klage über die Zerstörung von Ur,,,,Willem H Römer,2004,,Ugarit-Verlag,,191,0,German,,,,"393462846X,9783934628465",,,,,,,,,OL19625678M,,0,,,,,1,0,0,2107368,pdf,57405299d2cb137a32e46c6e723e9d64,,,_480642.57405299d2cb137a32e46c6e723e9d64.pdf,0,2000-01-01 01:00:00,2016-04-03 02:51:08,800000/57405299d2cb137a32e46c6e723e9d64-g.jpg,,
19819945,Die Entwicklung der Tierkopfzeichen: eine Studie zur syro-mesopotamischen Keilschriftpaläographie des 3. und frühen 2. Jahrtausends v. Chr,,Alter Orient und Altes Testament volume 319,,Catherine Mittermayer,2005,,Ugarit-Verlag,,161,0,German,,,,"3934628591,9783934628595",,,,,492.1,,,,OL12346689M,,0,,,,,1,0,0,1631073,pdf,bbb717af4650f0b2ea5ec05dfe880786,,,_480643.bbb717af4650f0b2ea5ec05dfe880786.pdf,0,2000-01-01 01:00:00,2016-04-03 02:51:08,800000/bbb717af4650f0b2ea5ec05dfe880786-g.jpg,,
19819946,Alternative Variants of Zero-Knowledge Proofs,,,,Rafael Pass,2004,,Universitetsservice US AB,,118,0,English,,,,"9172839333,9789172839335",,,,,,,,o3A_NAAACAAJ,,,0,,,,0,0,0,1,856464,pdf,824b75c3ec5518e2ff20a0dd627e9bf6,,,_480644.824b75c3ec5518e2ff20a0dd627e9bf6.pdf,0,2000-01-01 01:00:00,2016-04-03 02:51:08,800000/824b75c3ec5518e2ff20a0dd627e9bf6-g.jpg,,
19819947,Magical Practice in the Latin West (Religions in the Graeco-Roman World - Volume 168),,Religions in the Graeco-Roman World volume 168,,"Richard L. Gordon, Francisco Marco Simon",2010,,BRILL,,659,0,English,,,,"9004179046,9789004179042",0927-7633,,,,133.4/3094,BF1591 .M3444 2010,,,OL23929355M,Indices missing (pp. 649ff),0,,,,1,0,1,1,6109031,pdf,ab01fb24b7aa1781389f6bcca1dd9d1f,,,_480645.ab01fb24b7aa1781389f6bcca1dd9d1f.pdf,0,2000-01-01 01:00:00,2016-04-03 02:51:08,800000/ab01fb24b7aa1781389f6bcca1dd9d1f-d.jpg,,
19819948,"Godlists from Old Babylonian Nippur in the University Museum, Philadelphia",,Alter Orient und Altes Testament volume 362,,Jeremiah Peterson,2009,,Ugarit,,137,0,English,,,,"3868350195,9783868350197",,,,,299.21,,,,,,0,,,,,1,0,0,4280222,pdf,55d15e4663622dc2299a57e97148344c,,,_480646.55d15e4663622dc2299a57e97148344c.pdf,0,2000-01-01 01:00:00,2016-04-03 02:51:08,800000/55d15e4663622dc2299a57e97148344c-g.jpg,,
19819949,The Exchange of Goods and Services in Pre-Sargonic Lagash,,,,Rosemary Prentice,2010,,Ugarit-Verlag,,238,0,English,,,,"3868350330,9783868350333",,,,,330.935,,,,,,0,,,,,1,0,1,11376983,pdf,146e3b27c216b654a206ed7ad3782a17,,,_480649.146e3b27c216b654a206ed7ad3782a17.pdf,0,2000-01-01 01:00:00,2016-04-03 02:51:08,800000/146e3b27c216b654a206ed7ad3782a17-g.jpg,,
19819950,"Investigating Chemistry: A Forensic Science Perspective , Second Edition",,,,Matthew Johll,2008,Second Edition,W. H. Freeman,,508,0,English,,,,"1429209895,9781429209892",,,,,363.2562,,,,,,0,,,,1,0,1,1,57505125,pdf,141fe4daf22e8331f3372d5056c55080,,,_480650.141fe4daf22e8331f3372d5056c55080.pdf,0,2000-01-01 01:00:00,2016-04-03 02:51:08,800000/141fe4daf22e8331f3372d5056c55080-d.jpg,,
19819951,Kramer anniversary volume: cuneiform studies in honor of Samuel Noah Kramer,,,,"Samuel Noah Kramer, Barry L. Eichler, Jane W. Heimerdinger, Åke W. Sjöberg",1976,,Butzon und Bercker,,473,0,English,,,,"3766689096,9783766689092",,,,,492,,,,OL4934848M,,0,,,,,1,1,1,27769144,pdf,f43294f9e817e56bdb398c69ca683ea4,,,_480651.f43294f9e817e56bdb398c69ca683ea4.pdf,0,2000-01-01 01:00:00,2016-04-03 02:51:08,800000/f43294f9e817e56bdb398c69ca683ea4-g.jpg,,
19819952,"Children's Literature: Theory, Research, and Teaching",,,,Kay E. Vandergrift,1990,,"Libraries Unlimited, Inc.",,327,0,English,,,,"0872877493,9780872877498",,,,,809/.89282,Z1037.A1 V36 1990,,,OL17780140M,,0,,,,1,0,1,1,1978928,pdf,3ce4e8c025fd7c6a8aeb3d0c5cba965c,,,_480652.3ce4e8c025fd7c6a8aeb3d0c5cba965c.pdf,0,2000-01-01 01:00:00,2016-04-03 02:51:08,800000/3ce4e8c025fd7c6a8aeb3d0c5cba965c-d.jpg,,
19819953,"su-ila-Gebete: Supplement zu L.W.King, Babylonian magic and sorcery",,,,"Oswald Loretz, Werner R. Mayer",1978,,Butzon und Bercker,,30,0,German,,,,"3788705736,9783788705732",,,,,,,,,,,0,,,,0,1,0,1,18967758,pdf,635070cf18c4a3127ceec972c332faed,,,_480653.635070cf18c4a3127ceec972c332faed.pdf,0,2000-01-01 01:00:00,2016-04-03 02:51:08,800000/635070cf18c4a3127ceec972c332faed-g.jpg,,
19819954,Die Omnipotenz Assurs,,,,Galo W. Vera Chamaza,2002,,Ugarit-Verlag,,586,0,German,,,,"3934628249,9783934628243",,,,,299/.21,BL1625.A8 V47 2002,,,OL22514845M,,0,,,,,1,0,0,7605927,pdf,e6396b7090ce22e615eb672f0304b635,,,_480654.e6396b7090ce22e615eb672f0304b635.pdf,0,2000-01-01 01:00:00,2016-04-03 02:51:08,800000/e6396b7090ce22e615eb672f0304b635-g.jpg,,
19819955,Studia Etanaica: new texts and discussions,,Alter Orient und Altes Testament volume 338,,James Vincent Kinnier Wilson,2007,,Ugarit-Verlag,,100,0,English,,,,"3934628907,9783934628908",,,,,892.1,,,,OL16794542M,,0,,,,,1,1,1,4906691,pdf,61255f4adeef9733f95eecc8e5ef9d71,,,_480655.61255f4adeef9733f95eecc8e5ef9d71.pdf,0,2000-01-01 01:00:00,2016-04-03 02:51:08,800000/61255f4adeef9733f95eecc8e5ef9d71-g.jpg,,
19819956,A commentator in service of the empire: Sāyaṇa and the royal project of commenting on the whole of the Veda,,Publications of the De Nobili Research Library volume 35,,Cezary Galewicz,2009,,Sammlung de Nobili,,327,0,English,,,,"3900271410,9783900271411",,,,,,,,,,,0,,,,,1,,1,5861722,pdf,dd0aaf5e587a059d3fc65fc6b7d4e09f,,,_480656.dd0aaf5e587a059d3fc65fc6b7d4e09f.pdf,0,2000-01-01 01:00:00,2016-04-03 02:51:08,800000/dd0aaf5e587a059d3fc65fc6b7d4e09f-g.jpg,,
19819957,Psychophysiological Recording,,,,"Robert Morris Stern, William J. Ray, Karen S. Quigley",2001,2nd,Oxford University Press,,295,0,English,,,,"0195113594,9780195113594",,,,,152,,,,OL17000655M,,0,,,,,1,1,1,14277958,pdf,1e90928e1bac4a43654633f3b375c083,,,_480657.1e90928e1bac4a43654633f3b375c083.pdf,0,2000-01-01 01:00:00,2016-04-03 02:51:08,800000/1e90928e1bac4a43654633f3b375c083-d.jpg,,
19819958,Design and Construction Guidelines for Geosynthetic-Reinforced Soil Bridge Abutments With a Flexible Facing (Nchrp Report),,,,"Jonathan T. H. Wu, Kevin Z. Z. Lee, Sam B. Helwany, Kanop Ketchart",2006,,Transportation Research Board,,130,0,English,,,,"0309098459,9780309098458",,,,,624.284,,,,OL10359071M,,0,,,,,1,,1,4374991,pdf,c6f03a84e056222a2608f8d8cbeb36bc,,,_480658.c6f03a84e056222a2608f8d8cbeb36bc.pdf,0,2000-01-01 01:00:00,2016-04-03 02:51:08,800000/c6f03a84e056222a2608f8d8cbeb36bc-g.jpg,,
19819959,Concise Encyclopedia of Traffic & Transportation Systems (Advances in Systems Control and Information Engineering),,,,M. Papageorgiou,1991,1st,Pergamon,,702,0,English,,,,"0080362036,9780080362038",,,,,388/.03,TA1145 .C58 1991,,,OL1864548M,,0,,,,,1,1,1,57622578,pdf,8c8844f9f9a4b9fea602332a89e3cdfb,,,_480659.8c8844f9f9a4b9fea602332a89e3cdfb.pdf,0,2000-01-01 01:00:00,2016-04-03 02:51:08,800000/8c8844f9f9a4b9fea602332a89e3cdfb-d.jpg,,
19819960,Principles of Chemistry: A Molecular Approach,,,,Nivaldo J. Tro,2009,1,Prentice Hall,,890,0,English,,,,"0321560043,9780321560049",,,,,540,QD453.3 .T76 2010,,,OL22679810M,,0,,,,1,1,1,1,74726459,pdf,12742813ff9792b2e14384eedd4fe5d2,,,_480661.12742813ff9792b2e14384eedd4fe5d2.pdf,0,2000-01-01 01:00:00,2016-04-03 02:51:08,800000/12742813ff9792b2e14384eedd4fe5d2-d.jpg,,
19819961,Universal Display Book for PIC Microcontrollers,,,,Richard Grodzik,2008,,Elektor International Media BV,,194,0,English,,,,"0905705734,9780905705736",,,,,,,,,,,0,,,,0,0,0,1,5219366,pdf,f11cf82d9fb006786c071bf18a21d444,,,_480662.f11cf82d9fb006786c071bf18a21d444.pdf,0,2000-01-01 01:00:00,2016-04-03 02:51:08,800000/f11cf82d9fb006786c071bf18a21d444-d.jpg,,
19819962,"Principles of Biochemistry, 5th Edition",,,,"Laurence A. Moran, Robert A Horton, Gray Scrimgeour, Marc Perry",2011,5th Edition,Prentice Hall,,824,0,English,19,,0,"0321707338,9780321707338",,,,,612/.015,QP514.2 .P745 2012,,,,,0,,,,1,0,1,1,88004119,pdf,b8644c2c9e0358a18ca1c31297c8d9c6,969811c10e03a10f1428ac6b03d43f20,no,_480663.b8644c2c9e0358a18ca1c31297c8d9c6.pdf,0,2000-01-01 01:00:00,2016-04-03 02:51:08,800000/b8644c2c9e0358a18ca1c31297c8d9c6-d.jpg,,
19819963,Der hebräische Bibeltext seit Franz Delitzsch,,Franz Delitzsch-Vorlesungen 1958,,Paul Kahle,1961,,Kohlhammer,,120,0,German,,,,,,,,,,,,,,,0,,,,1,1,1,1,12164611,pdf,d212649aea59a476b0ef6686c4359c3a,,,_480664.d212649aea59a476b0ef6686c4359c3a.pdf,0,2000-01-01 01:00:00,2016-04-03 02:51:08,800000/d212649aea59a476b0ef6686c4359c3a-g.jpg,,
19819964,Tohfut-Ul-Mujahideen,,,,"Sheikh Zein Uddin, M.J. Rowlandson (translator)",1833,,,,202,0,English,,,,,,,,,,,,,,,0,,,,0,1,0,1,4433825,pdf,265cbc54ad839fd9a78ac2132492dd16,,,_480665.265cbc54ad839fd9a78ac2132492dd16.pdf,0,2000-01-01 01:00:00,2016-04-03 02:51:08,800000/265cbc54ad839fd9a78ac2132492dd16-g.jpg,,
19819965,"Children and Their Development, 6th Edition",,,,Robert V. Kail,2011,6,Prentice Hall,,590,0,English,,,,"0205034942,9780205034949",,,,,305.231,HQ767.9 .K345 2012,,,OL24857955M,,0,,,,1,1,1,1,42018233,pdf,27d2bed22ec72f9faf8e09ea9d13e153,,,_480666.27d2bed22ec72f9faf8e09ea9d13e153.pdf,0,2000-01-01 01:00:00,2016-04-03 02:51:08,800000/27d2bed22ec72f9faf8e09ea9d13e153-d.jpg,,
19819966,Стереоскопические чертежи по геометрии,,,,Владимирский Г.А.,1962,,Государственное учебно-педагогическое издательство,,175,0,Russian,,,,,,,,,,,,,,,0,,,,,1,0,1,22905177,djvu,5d6bdb780d2dc1b3a40ea1d4cff2dcc7,,,_480667.5d6bdb780d2dc1b3a40ea1d4cff2dcc7.djvu,0,2000-01-01 01:00:00,2016-04-03 02:51:08,800000/5d6bdb780d2dc1b3a40ea1d4cff2dcc7-g.jpg,,
19819967,The Elminster Series 1. Elminster: The Making of a Mage (Forgotten Realms),,The Elminster Series,,Ed Greenwood,1995,,Wizards of the Coast,,336,0,English,,,,"0786902035,9780786902033",,,,,813.54,,,,OL8143769M,,0,,,,,1,1,1,532561,epub,7e1691e92ced6c8a3b1e224be0f38066,,,_480668.7e1691e92ced6c8a3b1e224be0f38066.epub,0,2000-01-01 01:00:00,2016-04-03 02:51:08,800000/7e1691e92ced6c8a3b1e224be0f38066-d.jpg,,
19819968,The Complete Idiot's Guide To Managing Your Money,,The Complete Idiot's Guide Series,,"Robert K. Heady, Christy Heady",1999,2,Alpha Books,,351,0,English,,,,"0028627229,9780028627229",,,,,332.024,,,O-5PSQAACAAJ,OL22643725M,,0,,,,0,1,0,0,29645184,pdf,4f81a2ffbe9a7af39be698083d593799,,,_480669.4f81a2ffbe9a7af39be698083d593799.pdf,0,2000-01-01 01:00:00,2016-04-03 02:51:08,800000/4f81a2ffbe9a7af39be698083d593799-d.jpg,,
19819969,The Seeker,,Shaker volume 3,,Ann H. Gabhart,2010,Reprinted,Revell,,411,0,English,,,,"0800733630,9780800733636",,,,,813/.6,PS3607.A23 S44 2010,,,OL24049999M,,0,,,,0,0,1,1,415088,epub,d890145b268efc20c18ec7324e79ec81,,,_480670.d890145b268efc20c18ec7324e79ec81.epub,0,2000-01-01 01:00:00,2016-04-03 02:51:08,800000/d890145b268efc20c18ec7324e79ec81-d.jpg,,
19819970,Фольклор и действительность,,Исследования по фольклору и мифологии Востока,,Пропп В.Я.,1976,,Наука,,330,0,Russian,,,,,,,,,,,,,,,0,,,,0,1,0,1,38821331,pdf,31151eae3b50b0645926a6f43b07ebee,,,_480671.31151eae3b50b0645926a6f43b07ebee.pdf,0,2000-01-01 01:00:00,2016-04-03 02:51:08,800000/31151eae3b50b0645926a6f43b07ebee-g.jpg,,
19819971,Guía del autoestopista galáctico,,,,Douglas Adams,2007,,ANAGRAMA,,121,0,Spanish,,,,"843397310X,9788433973108",,,,,,,,,OL9128783M,,0,,,,1,0,,1,510381,pdf,47fb202c79fe41a7e10eb34c4f0c3802,,,_480672.47fb202c79fe41a7e10eb34c4f0c3802.pdf,0,2000-01-01 01:00:00,2016-04-03 02:51:08,800000/47fb202c79fe41a7e10eb34c4f0c3802-d.jpg,,
19819972,The Complete Idiot's Guide to the American Revolution,,The Complete Idiot's Guide Series,,Alan Axelrod,2000,1,Alpha Books,,582,0,English,,,,"0028633792,9780028633794,9780585278810",,,,,973.3,E208 .A88 2000,,6_sG-uBwfFwC,OL55237M,,0,,,,0,0,0,1,11297520,pdf,05e5b90aa2f585d7f03f60adfa4707b1,,,_480673.05e5b90aa2f585d7f03f60adfa4707b1.pdf,0,2000-01-01 01:00:00,2016-04-03 02:51:08,800000/05e5b90aa2f585d7f03f60adfa4707b1-d.jpg,,
19819973,Quilter's Knot,,,,Arlene Sachitano,2008,,Zumaya Publications,,232,0,English,,,,"1934841102,9781934841105",,,,,813/.6,PS3619.A277 Q855 2008,,,OL23153139M,,0,,,,,1,,,280437,epub,4e77be313c16995f51ae8e8053db2935,,,_480675.4e77be313c16995f51ae8e8053db2935.epub,0,2000-01-01 01:00:00,2016-04-03 02:51:08,800000/4e77be313c16995f51ae8e8053db2935-d.jpg,,
19819974,Οικονομικά και Φιλοσοφικά Χειρόγραφα,,,,"Καρλ Μαρξ (Karl Marx), Μπάμπης Γραμμένος (μετάφραση)",1975,,Γλάρος,,202,0,Greek(Modern),,,,,,,,,,,,,,,600,,,,1,1,0,0,14540946,pdf,73742fd15bfcc0f7cd71d608fee66036,,,_480676.73742fd15bfcc0f7cd71d608fee66036.pdf,0,2000-01-01 01:00:00,2016-04-03 02:51:08,800000/73742fd15bfcc0f7cd71d608fee66036-g.jpg,,
19819975,The Complete Idiot's Guide to Eastern Philosophy,,The Complete Idiot's Guide Series,,Jay Stevenson,2000,1,Alpha Books,,612,0,English,,,,"0028638204,9780028638201,9780585305202",,,,,181.4,B130.S84 2000eb,,SKrnshWJ4-wC,OL7269200M,,0,,,,0,0,0,1,11924518,pdf,dd2cca8979aac51c1e375bc5f37c57e0,,,_480677.dd2cca8979aac51c1e375bc5f37c57e0.pdf,0,2000-01-01 01:00:00,2016-04-03 02:51:08,800000/dd2cca8979aac51c1e375bc5f37c57e0-d.jpg,,
19819976,A Time to Die: The Place for Physician Assistance,,,,Charles F. McKhann,1999,,Yale University Press,,292,0,English,,,,"0300086989,9780300086980,9780585350875",,,,,179.7,R726.M355 1999eb,,ylH8-KgiyTYC,OL9386953M,,0,,,,0,0,1,1,949282,pdf,623051d04c8c86a3bd79ca6e2a1d567b,,,_480678.623051d04c8c86a3bd79ca6e2a1d567b.pdf,0,2000-01-01 01:00:00,2016-04-03 02:51:08,800000/623051d04c8c86a3bd79ca6e2a1d567b-d.jpg,,
19819977,"Human Geography: People, Place, and Culture , Ninth Edition",,,,"Erin H. Fouberg, Alexander B. Murphy, H. J. de Blij",2009,9th  Edition,Wiley,,544,0,English,,,,"0470382589,9780470382585",,,,,304.2,,,,OL24921487M,,0,,,,,1,1,1,78011163,pdf,c19f749a12a3c8782a6a2882be4edbe0,,,_480679.c19f749a12a3c8782a6a2882be4edbe0.pdf,0,2000-01-01 01:00:00,2016-04-03 02:51:08,800000/c19f749a12a3c8782a6a2882be4edbe0-d.jpg,,
19819978,"Algorithmic Game Theory: 4th International Symposium, SAGT 2011, Amalfi, Italy, October 17-19, 2011. Proceedings (Lecture Notes in Computer Science LNCS 6982)",,Lecture Notes in Computer Science 6982,,Giuseppe Persiano,2011,2011,Springer,,335,0,English,,,,"3642248284,9783642248283",,,,,,,10.1007/978-3-642-24829-0,gYZmmCd2YncC,,,0,,,,1,0,1,1,4145420,pdf,2a941e173404a92757ece1b6869441ed,,,_480680.2a941e173404a92757ece1b6869441ed.pdf,0,2000-01-01 01:00:00,2016-04-03 02:51:08,800000/2a941e173404a92757ece1b6869441ed-d.jpg,,
19819979,Amigo Warfare: Poems,,,,Eric Gamalinda,2007,,Cherry Grove Collections,,88,0,English,,,,"1933456663,9781933456669",,,,,821,2007923410,,,OL21885175M,,0,,,,1,0,1,1,205467,pdf,b2e2a2c4bb745d0097eb218715ce57ed,,,_480681.b2e2a2c4bb745d0097eb218715ce57ed.pdf,0,2000-01-01 01:00:00,2016-04-03 02:51:08,800000/b2e2a2c4bb745d0097eb218715ce57ed-d.jpg,,
19819980,"PC, M.D.: How Political Correctness Is Corrupting Medicine",,,,Sally Satel,2000,1ST,Basic Books,,297,0,English,,,,"0465071821,9780465071821",,,,,362.10973,,,Nb8eAQAAIAAJ,OL7593965M,,0,,,,0,1,1,1,29873619,pdf,2ca9f1983a8b93fea615299936027887,,,_480682.2ca9f1983a8b93fea615299936027887.pdf,0,2000-01-01 01:00:00,2016-04-03 02:51:08,800000/2ca9f1983a8b93fea615299936027887-d.jpg,,
19819981,Stalking: Psychiatric Perspectives and Practical Approaches,,,,Debra A. Pinals (Editor),2007,1,Oxford University Press,,281,0,English,,,,"0195189841,9780195189841",,,,,362.20425,,,YC3AL7RvGYoC,OL10133842M,,0,,,,0,0,1,1,13385212,pdf,4d44a5e9c6ec4a8221d424de176ca9fb,,,_480683.4d44a5e9c6ec4a8221d424de176ca9fb.pdf,0,2000-01-01 01:00:00,2016-04-03 02:51:08,800000/4d44a5e9c6ec4a8221d424de176ca9fb-d.jpg,,
19819982,Swarm,,,,Jorie Graham,2000,,Ecco,,132,0,English,,,,"006093509X,9780060935092",,,,,,,,,OL7285243M,,0,,,,0,1,0,0,10695175,pdf,216baf0c46bebbe0a9af80fc3eaab5cb,,,_480684.216baf0c46bebbe0a9af80fc3eaab5cb.pdf,0,2000-01-01 01:00:00,2016-04-03 02:51:08,800000/216baf0c46bebbe0a9af80fc3eaab5cb-d.jpg,,
19819983,Il declino della Cristianità sotto l'Islam,,,,Bat Ye'or,2009,,Lindau,,567,0,Italian,,,,"8871808290,9788871808291",,,,,,,,JYZ6PgAACAAJ,,,0,,,,0,1,0,1,15118646,pdf,a117900bdfb7dd1228c13f2d1c36f1a2,,,_480685.a117900bdfb7dd1228c13f2d1c36f1a2.pdf,0,2000-01-01 01:00:00,2016-04-03 02:51:08,800000/a117900bdfb7dd1228c13f2d1c36f1a2-g.jpg,,
19819984,Uscite dal mondo,,,,Elémire Zolla,1992,4,Adelphi,,609,0,Italian,,,,"8845908798,9788845908798",,,,,291.4/2,BL625 .Z65 1992,,dQFOtwAACAAJ,OL1347395M,,0,,,,0,1,0,1,11363785,pdf,f3f2d7b63c35295a877ef05c5b8ce700,,,_480686.f3f2d7b63c35295a877ef05c5b8ce700.pdf,0,2000-01-01 01:00:00,2016-04-03 02:51:08,800000/f3f2d7b63c35295a877ef05c5b8ce700-d.jpg,,
19819985,"Philobarbarism: A study in Greek interchanges with the non-Greeks in the fourth century BCE (Ph.D., Princeton University, 2002)",,,,"Allen, Katarzyna Hagemajer,",2002,,UMI,,296,0,English,,,,,,,,,,,,,,,0,,,,,1,,0,13182424,pdf,49ba1b7d0dc6253e0e53b8491e49bf6f,,,_480688.49ba1b7d0dc6253e0e53b8491e49bf6f.pdf,0,2000-01-01 01:00:00,2016-04-03 02:51:08,800000/49ba1b7d0dc6253e0e53b8491e49bf6f-g.jpg,,
19819986,Guida (politicamente scorretta) all'Islam e alle crociate,,,,Robert Spencer,2008,,Lindau,,332,0,Italian,,,,"8871807227,9788871807225",,,,,,,,OkXNJQAACAAJ,,,0,,,,1,1,0,1,6724109,pdf,74d0d6a437574549d54ec63aa01bd23b,,,_480689.74d0d6a437574549d54ec63aa01bd23b.pdf,0,2000-01-01 01:00:00,2016-04-03 02:51:08,800000/74d0d6a437574549d54ec63aa01bd23b-g.jpg,,
19819987,Το μυστήριο της Θείας Ευχαριστίας(Πρακτικά Γ'Πανελλλήνιου Λειτουργικού Συμποσίου),,Σειρά Ποιμαντική Βιβλιοθήκη 8,,Ιερά Σύνοδος της Εκκλησίας της Ελλάδος,2001,,,,404,0,Greek(Modern),,,,9603155187,,,,,,,,,,,0,,,,0,1,0,1,1504469,pdf,95b60d10d04482fc0ac44c16486dba17,,,_480690.95b60d10d04482fc0ac44c16486dba17.pdf,0,2000-01-01 01:00:00,2016-04-03 02:51:08,800000/95b60d10d04482fc0ac44c16486dba17-g.jpg,,
19819988,Lo scontro delle civiltà e il nuovo ordine mondiale,,,,Samuel P. Huntington,1997,,Garzanti Libri,,499,0,Italian,,,,"8811599725,9788811599722",,,,,,,,ZHezAAAACAAJ,,,0,,,,1,1,0,1,13201231,pdf,15f2943d7386b9fcb4d7e2af3a304576,,,_480691.15f2943d7386b9fcb4d7e2af3a304576.pdf,0,2000-01-01 01:00:00,2016-04-03 02:51:08,800000/15f2943d7386b9fcb4d7e2af3a304576-g.jpg,,
19819989,Ill Fares the Land,,,,Tony Judt,2010,,Penguin,,,0,English,,,,9781101223703,,B003NX7NDS,,,,,,,,,0,,,,,1,,,274525,epub,59124543f2005bb421abfc128b421c2e,,,_480692.59124543f2005bb421abfc128b421c2e.epub,0,2000-01-01 01:00:00,2016-04-03 02:51:08,800000/59124543f2005bb421abfc128b421c2e-g.jpg,,
19819990,In Search of Memory: The Emergence of a New Science of Mind,,,,Eric R. Kandel,2008,Reprint,,,510,0,English,,,,"1439560552,9781439560556",,,,,,,,,,,0,,,,,1,,,1436521,epub,e87e76708e4d2ec6d3c79aba08c9f08d,,,_480693.e87e76708e4d2ec6d3c79aba08c9f08d.epub,0,2000-01-01 01:00:00,2016-04-03 02:51:08,800000/e87e76708e4d2ec6d3c79aba08c9f08d-g.jpg,,
19819991,"Concepts of Genetics, 10th Edition",,,,"William S. Klug, Michael R. Cummings, Charlotte A. Spencer, Michael A. Palladino",2011,10th Edition,Benjamin Cummings,,895,0,English,,,,"0321724127,9780321724120,0321754352,9780321754356",,,,,576.5,,,,OL25005630M,,0,,,,1,0,1,1,54239483,pdf,4a838f20af836b16bc3b6fae9ed974a7,,,_480694.4a838f20af836b16bc3b6fae9ed974a7.pdf,0,2000-01-01 01:00:00,2016-04-03 02:51:08,800000/4a838f20af836b16bc3b6fae9ed974a7-d.jpg,,
19819992,Cambridge English for Engineering Student's Book with Audio CDs (2) (Cambridge Professional English),,,,Mark Ibbotson,2008,1 Pap/Com,Cambridge University Press,,112,0,English,,,,"0521715180,9780521715188",,,,,,,,,OL24451062M,,0,,,,,1,,0,20088418,pdf,330f399626d59cc99176c116a6bed1fe,,,_480695.330f399626d59cc99176c116a6bed1fe.pdf,0,2000-01-01 01:00:00,2016-04-03 02:51:08,800000/330f399626d59cc99176c116a6bed1fe-d.jpg,,
19819993,Great Athletes Olympic Sports,,,,"Rafer Johnson, Salem Press",2009,Revised,Salem Pr Inc,,1441,0,English,,,,"1587654873,9781587654879",,,,,"796.0922,B",GV697.A1 G68 2009,,REhxRAAACAAJ,OL23533899M,,0,,,,1,0,1,1,18777991,pdf,370bc55db757905968339f9fb31daa0e,,,_480697.370bc55db757905968339f9fb31daa0e.pdf,0,2000-01-01 01:00:00,2016-04-03 02:51:08,800000/370bc55db757905968339f9fb31daa0e-d.jpg,,
19819994,L'époque de la Renaissance (1400-1600): Tome III : maturations et mutations (1520-1560),,Comparative History of Literatures in European Languages volume 3,,Eva Kushner,2011,Bilingual,John Benjamins Publishing Company,,649,0,French,,,,"9027234590,9789027234599",,,,,809.89409024,,,3Pm3dGSeG0kC,,,0,,,,1,0,1,1,3593443,pdf,b5bc59a6678ab8757228aff488498d5b,,,_480698.b5bc59a6678ab8757228aff488498d5b.pdf,0,2000-01-01 01:00:00,2016-04-03 02:51:08,800000/b5bc59a6678ab8757228aff488498d5b-d.jpg,,
19819995,100+ Fun Ideas for Playground Games,,,,Christine Green,2009,,Brilliant Publications,,107,0,English,,,,,,,,,,,,yZ-Vki5kaVkC,,,0,,,,1,0,1,1,2465326,pdf,211f1a0f31e0adfb3dce5d2ce0cac9a4,,,_480699.211f1a0f31e0adfb3dce5d2ce0cac9a4.pdf,0,2000-01-01 01:00:00,2016-04-03 02:51:08,800000/211f1a0f31e0adfb3dce5d2ce0cac9a4-g.jpg,,
19819996,"Livestock in a Changing Landscape, Volume 1: Drivers, Consequences, and Responses",,,,"Henning Steinfeld, Harold A. Mooney, Fritz Schneider",2010,1,Island Press,,444,0,English,,,,"159726671X,9781597266710,9781597266703",,,,,636,SF140.L65 L57 2009,,lug9AF-wVR8C,OL23712636M,,0,,,,1,0,1,1,12683142,pdf,9fedba016befd4143d386c28dda87197,,,_480700.9fedba016befd4143d386c28dda87197.pdf,0,2000-01-01 01:00:00,2016-04-03 02:51:08,800000/9fedba016befd4143d386c28dda87197-d.jpg,,
19819997,Little Big World: Collecting Louis Marx and the American Fifties,,,,Jeffrey Hammond,2010,1,University Of Iowa Press,,137,0,English,,,,"1587299100,9781587299100,9781587299438,1587299437",,,,,688.7/2097309045,TS2301.T7 H29 2010,,UzTAkobnWC0C,OL24098842M,,0,,,,1,0,1,1,606081,pdf,5822420c2ec5176ce0ec823693e73358,,,_480701.5822420c2ec5176ce0ec823693e73358.pdf,0,2000-01-01 01:00:00,2016-04-03 02:51:08,800000/5822420c2ec5176ce0ec823693e73358-d.jpg,,
19819998,Jesus of Nazareth: An independent historian's account of his life and teaching,,,,Maurice Casey,2010,,T&T Clark Int'l,,577,0,English,,,,"0567645177,9780567645173,0567104087,9780567104083",,,,,232.9,,,lXK0auknD0YC,OL24807084M,,0,,,,1,0,1,1,1834565,pdf,1f1622f3e9e45d4824f3b2757d098f92,,,_480702.1f1622f3e9e45d4824f3b2757d098f92.pdf,0,2000-01-01 01:00:00,2016-04-03 02:51:08,800000/1f1622f3e9e45d4824f3b2757d098f92-d.jpg,,
19819999,Bret Easton Ellis: Underwriting the Contemporary (American Literature Readings in the 21st Century),,American Literature Readings in the 21st Century,,Georgina Colby,2011,1,Palgrave Macmillan,,241,0,English,,,,"0230116981,9780230116986",,,,,813/.54,PS3555.L5937 Z57 2011,,w-9BYgEACAAJ,OL25053593M,,0,,,,1,0,1,1,3080970,pdf,0ccf2f93ea0b02d45d341e536274c449,,,_480705.0ccf2f93ea0b02d45d341e536274c449.pdf,0,2000-01-01 01:00:00,2016-04-03 02:51:08,800000/0ccf2f93ea0b02d45d341e536274c449-d.jpg,,
19820000,Sex and Aesthetics in Samuel Beckett's Work (New Interpertations of Beckett in the Twenty-First Century),,New Interpertations of Beckett in the Twenty-First Century,,Paul Stewart,2011,,Palgrave Macmillan,,239,0,English,,,,"0230108814,9780230108813",,,,,848/.91409,PR6003.E282 Z8354 2011,,E-bfYgEACAAJ,OL25149041M,,0,,,,1,0,1,1,3161983,pdf,3877879bf516d44b814efb6351263df8,,,_480706.3877879bf516d44b814efb6351263df8.pdf,0,2000-01-01 01:00:00,2016-04-03 02:51:08,800000/3877879bf516d44b814efb6351263df8-d.jpg,,
19820001,La main invisible et le droit,,,,Patrick Simon,1992,,Belles Lettres,,291,0,French,,,,"2251410066,9782251410067",,,,,"349.44,344.4",KJV286 .S56 1992,,,OL1479463M,,0,,,,1,1,1,1,4026281,pdf,5ffc33a89a6368fd2e22d20066e82cb8,,,_480707.5ffc33a89a6368fd2e22d20066e82cb8.pdf,0,2000-01-01 01:00:00,2016-04-03 02:51:08,800000/5ffc33a89a6368fd2e22d20066e82cb8-g.jpg,,
19820002,Papyrus Bodmer XXIV: Psaume XVII–CXVIII,,,,"Rodolphe Kasser, Michael Testuz",1967,,BIBLIOTHECA BODMERIANA,,169,0,English,,,,,,,,,,,,,,,0,,,,0,1,0,1,65960818,pdf,32f8ed6387e410950b5d0421f96219d4,,,_480708.32f8ed6387e410950b5d0421f96219d4.pdf,0,2000-01-01 01:00:00,2016-04-03 02:51:08,800000/32f8ed6387e410950b5d0421f96219d4-g.jpg,,
19820003,La Amistad de Dios: El Cristianismo como Amistad,,,,Segundo Galilea,1991,,Ediciones Paulinas,,102,0,Spanish,,,,"8428511578,9788428511575",,,,,248.4,,,,OL19737120M,,0,,,,,1,,1,3151088,pdf,ef3fdf30685f6bf191cca181107454b8,,,_480709.ef3fdf30685f6bf191cca181107454b8.pdf,0,2000-01-01 01:00:00,2016-04-03 02:51:08,800000/ef3fdf30685f6bf191cca181107454b8-d.jpg,,
19820004,The Elminster Series 2. Elminster in Myth Drannor (Forgotten Realms),,The Elminster Series,,Ed Greenwood,1998,First Edition,Wizards of the Coast,,167,0,English,,,,"0786911905,9780786911905",,,,,813.54,,,,OL1014124M,,0,,,,,1,1,1,1047730,pdf,e37b582eaa3537afd16b24782beec77e,,,_480710.e37b582eaa3537afd16b24782beec77e.pdf,0,2000-01-01 01:00:00,2016-04-03 02:51:08,800000/e37b582eaa3537afd16b24782beec77e-d.jpg,,
19820005,The Shapes Of Galaxies and their Dark Halos,,Yale Cosmology Workshop,,Priyamvada Natarajan,2002,1st,World Scientific Pub Co Inc,,276,0,English,,,,"9810248482,9789810248482",,,,,523.1/12,QB856 .Y35 2001,,SOONM9etEowC,OL3584961M,,0,,,,1,1,1,1,12590529,pdf,94b32cbe9d39b16fe6425232ffcafd4b,,,_480711.94b32cbe9d39b16fe6425232ffcafd4b.pdf,0,2000-01-01 01:00:00,2016-04-03 02:51:08,800000/94b32cbe9d39b16fe6425232ffcafd4b-d.jpg,,
19820006,Los años oscuros de Jesus,,Colección Hagadot,,Robert Aron,1991,,Ediciones EGA,,325,0,Spanish,,,,,,,,,,,,,,,0,,,,,1,,1,10404681,pdf,e3913d66c43e05f1406a716ae8052109,,,_480712.e3913d66c43e05f1406a716ae8052109.pdf,0,2000-01-01 01:00:00,2016-04-03 02:51:08,800000/e3913d66c43e05f1406a716ae8052109-g.jpg,,
19820007,(ااف (ترجمه فارسی - Aleph,,,,Paulo Coelho - پائلو کوئلیو,2011,,,,,0,Persian,,,,,,,,,,,,,,,0,,,,1,1,0,0,876056,pdf,83a766ef8183df3f2056654df6230291,,,_480713.83a766ef8183df3f2056654df6230291.pdf,0,2000-01-01 01:00:00,2016-04-03 02:51:08,,,
19820008,Seriously...I'm Kidding,,,,Ellen DeGeneres,2011,,Grand Central Publishing,,,0,English,,,,"0446585033,9780446585033",,,,,,,,alaJTz4_Nl4C,,,0,,,,,0,1,1,579793,mobi,69023da016b591ee7d65f336e538d5a8,,,_480714.69023da016b591ee7d65f336e538d5a8.mobi,0,2000-01-01 01:00:00,2016-04-03 02:51:08,800000/69023da016b591ee7d65f336e538d5a8-g.jpg,,
19820009,The Immorality Engine (Newbury & Hobbes Investigation),,,,George Mann,2011,First Edition,Tor Books,,352,0,English,,,,"0765327759,9780765327758",,,,,823/.92,PR6113.A546 I66 2011,,D96BzFP0y0UC,OL25121372M,,0,,,,1,0,1,1,293486,epub,fb87eccb340503d84241585539cd3beb,,,_480715.fb87eccb340503d84241585539cd3beb.epub,0,2000-01-01 01:00:00,2016-04-03 02:51:08,800000/fb87eccb340503d84241585539cd3beb-d.jpg,,
19820010,Speaking Irish: Take your language skills beyond basics (with Audio),,,,"Siuan Ni Mhaonaigh, Antain Mac Lochlainn",2007,1,McGraw-Hill,,239,0,English,,,,"0071475621,9780071475624",,,,,491.6/2,PB1223.7 .N5 2008,10.1036/0071475621,,OL18495600M,,0,,,,0,0,0,1,108494867,pdf,a66feebb00c4be5d2ded34072e4c2789,,,_480717.a66feebb00c4be5d2ded34072e4c2789.pdf,0,2000-01-01 01:00:00,2016-04-03 02:51:08,800000/a66feebb00c4be5d2ded34072e4c2789-d.jpg,,
19820011,"Private Worship, Public Values, and Religious Change in Late Antiquity",,,,Kimberly Diane Bowes,2008,1,Cambridge University Press,,381,0,English,,,,"0521885930,9780521885935",,,,,270.2,BV6 .B69 2008,,,OL16471777M,,0,,,,1,1,1,1,10656124,pdf,57287b64b3a07c400430189a48b88dfa,,,_480718.57287b64b3a07c400430189a48b88dfa.pdf,0,2000-01-01 01:00:00,2016-04-03 02:51:08,800000/57287b64b3a07c400430189a48b88dfa-d.jpg,,
19820012,Francia 35: Forschungen zur westeuropäischen Geschichte,,,,DHI Paris,2008,,Thorbecke Jan Verlag,,670,0,French,,,,"379958126X,9783799581264",,,,,,,,,,,0,,,,1,0,1,1,8224737,pdf,0be929962c5905bc1645e1cade950a06,,,_480719.0be929962c5905bc1645e1cade950a06.pdf,0,2000-01-01 01:00:00,2016-04-03 02:51:08,800000/0be929962c5905bc1645e1cade950a06-g.jpg,,
19820013,"Ways of the World, Combined Version (Volumes I & II): A Brief Global History",,,,Robert W. Strayer,2008,First Edition,Bedford/St. Martin's,,880,0,English,,,,"031245287X,9780312452872",,,,,,,,,OL23191748M,,0,,,,,1,,1,202120535,pdf,68dd6da8ea17e3349aeea1ebb07b69b0,,,_480720.68dd6da8ea17e3349aeea1ebb07b69b0.pdf,0,2000-01-01 01:00:00,2016-04-03 02:51:08,800000/68dd6da8ea17e3349aeea1ebb07b69b0-d.jpg,,
19820014,Fundamentals of Electric Circuits,,,,"Charles Alexander, Matthew Sadiku",2008,4,McGraw-Hill Science/Engineering/Math,,1056,0,English,,,,"0077263197,9780077263195",,,,,,,,,,,0,,,,,1,,1,16142793,pdf,9dc11e9150647e792aeb70c70429bcfd,,,_480722.9dc11e9150647e792aeb70c70429bcfd.pdf,0,2000-01-01 01:00:00,2016-04-03 02:51:08,800000/9dc11e9150647e792aeb70c70429bcfd-d.jpg,,
19820015,Succeed: How We Can Reach Our Goals,,,,Heidi Grant Halvorson,2010,,Hudson Street Press,,129,0,English,,,,"1594630739,9781594630736",,,,,153.8,BF505.G6 .G65 2011,,DSEW_gAACAAJ,OL24914081M,,0,,,,0,1,1,1,102983851,pdf,cb3d6dbf0ecebe2a602cd175a6cff5f2,,,_480723.cb3d6dbf0ecebe2a602cd175a6cff5f2.pdf,0,2000-01-01 01:00:00,2016-04-03 02:51:08,800000/cb3d6dbf0ecebe2a602cd175a6cff5f2-d.jpg,,
19820016,,,,"EDN Magazine September 22, 2011 issue 18/2011",UBM Electronics,,,,,60,0,English,,,,,0012-7515,,,,,,,,,periodic,0,,,,,0,0,1,11446211,pdf,0b7801a0fd2f634c9116666e059558f8,,ban,_480724.0b7801a0fd2f634c9116666e059558f8.pdf,0,2000-01-01 01:00:00,2016-04-03 02:51:08,800000/0b7801a0fd2f634c9116666e059558f8-g.jpg,,
19820017,"Book collections of clerics in Norway, 1650-1750",,Studies in the History of Christian Traditions volume 148,,Gina Dahl,2010,,Brill,,379,0,English,,,,"9004188991,9789004188990",,,,,027.6/70948109032,Z997.2.N8 D34 2010,,OpyhSgAACAAJ,OL24524103M,,0,,,,1,0,1,1,2059613,pdf,da7c8b4da5a270c717ce4226d83395d1,,,_480725.da7c8b4da5a270c717ce4226d83395d1.pdf,0,2000-01-01 01:00:00,2016-04-03 02:51:08,800000/da7c8b4da5a270c717ce4226d83395d1-d.jpg,,
19820018,The Jesuit Mission to New France: A New Interpretation in the Light of the Earlier Jesuit Experience in Japan (Studies in the History of Christian Thought),,Studies in the History of Christian Thought volume 151,,Takao Abe,2011,,Brill Academic Pub,,243,0,English,,,,"9004192859,9789004192850",,,,,971,,,sUJcewAACAAJ,,,0,,,,1,0,1,1,3011187,pdf,d41356f489a6519d83c8f00a2fc3935b,,,_480726.d41356f489a6519d83c8f00a2fc3935b.pdf,0,2000-01-01 01:00:00,2016-04-03 02:51:08,800000/d41356f489a6519d83c8f00a2fc3935b-d.jpg,,
19820019,"Dong Zhongshu, a 'Confucian' Heritage and the Chunqiu Fanlu",,China Studies volume 20,,Michael Loewe,2011,,Brill,,383,0,English,,,,"9004194657,9789004194656",,,,,181/.112,B128.T824 L64 2011,,_QL6tgAACAAJ,OL24823175M,,0,,,,1,0,1,1,2741527,pdf,b6ad3bad05b3f2d1c68d6eabbed9ae54,,,_480727.b6ad3bad05b3f2d1c68d6eabbed9ae54.pdf,0,2000-01-01 01:00:00,2016-04-03 02:51:08,800000/b6ad3bad05b3f2d1c68d6eabbed9ae54-d.jpg,,
19820020,Food and Foodways of Medieval Cairenes: Aspects of Life in an Islamic Metropolis of the Eastern Mediterranean,,Islamic History and Civilization volume 88,,Paulina B. Lewicka,2011,,Brill Academic Pub,,649,0,English,,,,"900419472X,9789004194724",,,,,394.120962160902,GT2853.E3 L49 2011,,U4H7tgAACAAJ,OL24847735M,,0,,,,1,0,1,1,2608003,pdf,06c42703bfefe6885b13258be0180014,,,_480728.06c42703bfefe6885b13258be0180014.pdf,0,2000-01-01 01:00:00,2016-04-03 02:51:08,800000/06c42703bfefe6885b13258be0180014-d.jpg,,
19820021,,,,"EDN Magazine October 6, 2011 issue 19/2011",UBM Electronics,,,,,56,0,English,,,,,0012-7515,,,,,,,,,periodic,0,,,,,0,0,1,9347087,pdf,c8dceba5b9908e6cfc8d93d487c8873f,,ban,_480729.c8dceba5b9908e6cfc8d93d487c8873f.pdf,0,2000-01-01 01:00:00,2016-04-03 02:51:08,800000/c8dceba5b9908e6cfc8d93d487c8873f-g.jpg,,
19820022,Women in the Language and Society of Japan: The Linguistic Roots of Bias,,,,Naoko Takemaru,2010,,McFarland,,240,0,English,,,,"0786440031,9780786440030",,,,,306.44/089956,PL524.75 .T35 2010,,,OL24040055M,,0,,,,0,1,0,1,13506257,pdf,811c8c1647c236b957df4d97a642d68f,,,_480730.811c8c1647c236b957df4d97a642d68f.pdf,0,2000-01-01 01:00:00,2016-04-03 02:51:08,800000/811c8c1647c236b957df4d97a642d68f-d.jpg,,
19820023,Dictionary of Celtic Mythology,,,,Peter Berresford Ellis,1992,1st.U.S.Edition,"ABC-CLIO, Inc.",,232,0,English,,,,"0874366097,9780874366099",,,,,299/.16,BL900 .E45 1992,,tUHXAAAAMAAJ,OL1700522M,,0,,,,,0,1,1,512617,epub,fab438a30e1efeae4a1b273995e13775,,,_480731.fab438a30e1efeae4a1b273995e13775.epub,0,2000-01-01 01:00:00,2016-04-03 02:51:08,800000/fab438a30e1efeae4a1b273995e13775-g.jpg,,
19820024,Post-Analytic Tractatus (Ashgate New Critical Thinking in Philosophy),,,,"Edited by Barry Stocker. Contributors: Barry Allen, James Conant, Diarmuid Costello, Cora Diamond, Daniel D. Hutto, Kelly Dean Jolley, Michael Kremer, Anthony Rudd, Walter P. Van Stigt",2004,,Ashgate Pub Ltd,,253,0,English,,,,"075461297X,9780754612971",,,,,,,,L5DHWUcEcqcC,OL22582040M,,0,,,,,1,0,1,16110424,pdf,b6de05446050f57322930c80ae3f29d3,,,_480732.b6de05446050f57322930c80ae3f29d3.pdf,0,2000-01-01 01:00:00,2016-04-03 02:51:08,800000/b6de05446050f57322930c80ae3f29d3-d.jpg,,
19820025,"Genesis Of Innovation: Systemic Linkages Between Knowledge and the Market (New Horizons in the Economics of Innovation, Book 10 )",,New Horizons in the Economics of Innovation Series volume Book 10,,"Blandine Laperche, Dimitri Uzunidis, G. N. Von Tunzelmann",2008,,Edward Elgar Publishing,,299,0,English,,,,"1847205933,9781847205933",,,,,338.064,HC79.T4 G466 2008,,pQzCsYxXGK8C,OL23229385M,,0,,,,1,0,1,1,3165354,pdf,d887fb914f13bb37390478114b4ac388,,,_480734.d887fb914f13bb37390478114b4ac388.pdf,0,2000-01-01 01:00:00,2016-04-03 02:51:08,800000/d887fb914f13bb37390478114b4ac388-d.jpg,,
19820026,Boala şi tămăduirea sufletului în tradiţia ortodoxă,,,,Hierotheos Vlachos,,,,,66,0,"Romanian,Moldavian,Moldovan",,,,,,,,,,,,,,,0,,,,,1,,1,834379,pdf,ec4d8f8255b53ad2bc7814a4f27bac35,,,_480735.ec4d8f8255b53ad2bc7814a4f27bac35.pdf,0,2000-01-01 01:00:00,2016-04-03 02:51:08,800000/ec4d8f8255b53ad2bc7814a4f27bac35-g.jpg,,
19820027,The Ubiquitous Siva: Somananda's Sivadrsti and His Tantric Interlocutors,,The Religion in Translation series,,John Nemec,2011,,Oxford Univ Pr,,499,0,English,,,,"0199795460,9780199795468,0199795452,9780199795451,9780199795543",,,,,294.5/2,BL1281.1545 .N46 2011,,Pabw1HHgg5IC,OL25042166M,,0,,,,1,0,1,1,2057592,pdf,fc696507c5b752b8e21fab9896980dac,,,_480737.fc696507c5b752b8e21fab9896980dac.pdf,0,2000-01-01 01:00:00,2016-04-03 02:51:08,800000/fc696507c5b752b8e21fab9896980dac-d.jpg,,
19820028,The Great War and Modern Memory,,,,Paul Fussell,1975,First Edition,"Oxford University Press, USA",,189,0,English,,,,"0195019180,9780195019186",,,,,820/.93,PR478.E8 F8,,,OL5187830M,,0,,,,0,1,1,1,9570964,pdf,363ede3a58e7f7eb97047acf64881f1d,,,_480738.363ede3a58e7f7eb97047acf64881f1d.pdf,0,2000-01-01 01:00:00,2016-04-03 02:51:08,800000/363ede3a58e7f7eb97047acf64881f1d-d.jpg,,
19820029,"Law, Legislation and Liberty, Volume 3: The Political Order of a Free People",,"Law, Legislation and Liberty volume 3",,Friedrich August Hayek,1981,,University of Chicago Press,,258,0,English,,,,"0226320901,9780226320908",,,,,323.44,,,,OL22361972M,,0,,,,1,1,1,1,10041866,pdf,30f4dcdd58d2628021e5d365409d7b7f,,,_480739.30f4dcdd58d2628021e5d365409d7b7f.pdf,0,2000-01-01 01:00:00,2016-04-03 02:51:08,800000/30f4dcdd58d2628021e5d365409d7b7f-d.jpg,,
19820030,"Poetry and Popular Protest: Peterloo, Cato Street and the Queen Caroline Controversy",,,,John Gardner,2011,,Palgrave Macmillan,,293,0,English,,,,"0230280714,9780230280717",,,,,821.7093581,,,,OL25154560M,,0,,,,1,0,1,1,3536826,pdf,f26433c4253d0fd7e2ad494c32585046,,,_480740.f26433c4253d0fd7e2ad494c32585046.pdf,0,2000-01-01 01:00:00,2016-04-03 02:51:08,800000/f26433c4253d0fd7e2ad494c32585046-d.jpg,,
19820031,The History of Honduras (The Greenwood Histories of the Modern Nations),,The Greenwood Histories of the Modern Nations,,Thomas M. Leonard,2011,,Greenwood,,243,0,English,,,,"031336303X,9780313363030",,,,,972.83,F1506 .L48 2011,,,OL24479816M,,0,,,,1,0,1,1,2247180,pdf,23e96637b4d5b2b063869b10ed5487bf,,,_480741.23e96637b4d5b2b063869b10ed5487bf.pdf,0,2000-01-01 01:00:00,2016-04-03 02:51:08,800000/23e96637b4d5b2b063869b10ed5487bf-d.jpg,,
19820032,Joseph Brodsky: A Literary Life,,,,Lev Loseff; Translated by Jane Ann Miller,2011,,Yale University Press,,350,0,English,,,,"030014119X,9780300141191",,,,,891.7144,PG3479.4.R64Z76513 2011,,IibQTMo5ATYC,,,0,,,,1,0,1,1,1834447,pdf,914c3ed7f8652205683a02a2c8d96457,,,_480742.914c3ed7f8652205683a02a2c8d96457.pdf,0,2000-01-01 01:00:00,2016-04-03 02:51:08,800000/914c3ed7f8652205683a02a2c8d96457-d.jpg,,
19820033,The History of the Czech Republic and Slovakia (The Greenwood Histories of the Modern Nations),,The Greenwood Histories of the Modern Nations,,William Mahoney,2011,,Greenwood,,315,0,English,,,,"0313363056,9780313363054",,,,,943.7,DB2063 .M34 2011,,5qgHE29pikMC,OL24881971M,,0,,,,1,0,1,1,2339571,pdf,5fff6d3b5eb138e4e5826a5a5688003d,,,_480743.5fff6d3b5eb138e4e5826a5a5688003d.pdf,0,2000-01-01 01:00:00,2016-04-03 02:51:08,800000/5fff6d3b5eb138e4e5826a5a5688003d-d.jpg,,
19820034,Building eCommerce Applications,,,,Developers from DevZone,2011,,O'Reilly Media,,244,0,English,,,,"1449316905,9781449316907",,,,,,,,,,,0,,,,1,0,1,1,2780933,pdf,8dd000c47abad4c0589840661fb57f0d,,,_480744.8dd000c47abad4c0589840661fb57f0d.pdf,0,2000-01-01 01:00:00,2016-04-03 02:51:08,800000/8dd000c47abad4c0589840661fb57f0d-g.jpg,,
19820035,How Cool Brands Stay Hot: Branding to Generation Y,,,,"Joeri Van Den Bergh, Mattias Behrer, Gert (FRW) Kerkstoel",2011,,Kogan Page Publishers,,273,0,English,,,,"0749462507,9780749462505,9780749462512",,,,,658.8/27,HF5415.332.Y66 B47 2011,,nnbDTthIla4C,OL25008173M,,0,,,,1,0,1,1,2642320,pdf,635cfce52bc357500693143b72fd8374,,,_480745.635cfce52bc357500693143b72fd8374.pdf,0,2000-01-01 01:00:00,2016-04-03 02:51:08,800000/635cfce52bc357500693143b72fd8374-d.jpg,,
19820036,Android Cookbook (Early Release),,,,Ian F. Darwin,2011,,O'Reilly Media,,689,0,English,,,,"1449318703,9781449318703",,,,,,,,,,,0,,,,1,0,1,1,8894818,pdf,5e4fa0b4686c076af44316bf7547f20e,,,_480746.5e4fa0b4686c076af44316bf7547f20e.pdf,0,2000-01-01 01:00:00,2016-04-03 02:51:08,800000/5e4fa0b4686c076af44316bf7547f20e-g.jpg,,
19820037,Encyclopedia of Dinosaurs and Prehistoric Life,,,,Dorling Kindersley,2008,,DK Publishing,,378,0,English,,,,9780756638368,,,,,550.3,,,,OL10855848M,,0,,,,1,0,1,1,29409214,pdf,12497387fb3083592fc141f5b1271373,,,_480747.12497387fb3083592fc141f5b1271373.pdf,0,2000-01-01 01:00:00,2016-04-03 02:51:08,800000/12497387fb3083592fc141f5b1271373-d.jpg,,
19820038,Argentina (Eyewitness Travel Guides),,Eyewitness Travel Guides,,"Wayne Bernhardson, Declan McGarvey, Demetrio (PHT) Carrasco",2010,Rep Rev,Dk Pub,,354,0,English,,,,"0756661935,9780756661939",,,,,918.2047,,,aSK_QQAACAAJ,,,0,,,,1,0,1,1,39067638,pdf,76ddb06ffc443655707f61b399e7acfa,,,_480748.76ddb06ffc443655707f61b399e7acfa.pdf,0,2000-01-01 01:00:00,2016-04-03 02:51:08,800000/76ddb06ffc443655707f61b399e7acfa-d.jpg,,
19820039,L'immanence de l'ego,,,,Christiane Chauviré,2009,Philosophies,Presses Universitaires France,,161,0,French,,,,"2130562612,9782130562610",,,,,193,,,nISVQAAACAAJ,,,0,,,,0,1,0,1,6493190,pdf,0888a634d04a32868cb016ae7346d380,,,_480749.0888a634d04a32868cb016ae7346d380.pdf,0,2000-01-01 01:00:00,2016-04-03 02:51:08,800000/0888a634d04a32868cb016ae7346d380-d.jpg,,
19820040,Tales from the Head's Room: Life in a London Primary School,,,,Mike Kent,2011,,Continuum,,172,0,English,,,,"1441187030,9781441187031",,,,,372.12/012,LB2832.4.G7 K46 2011,,0e93Ef56T5oC,OL24384802M,,0,,,,1,0,1,1,496898,pdf,0495867c9c979cb4361a73184a6e7320,,,_480750.0495867c9c979cb4361a73184a6e7320.pdf,0,2000-01-01 01:00:00,2016-04-03 02:51:08,800000/0495867c9c979cb4361a73184a6e7320-d.jpg,,
19820041,Mastering VMware VSphere 5,,,,Scott Lowe,2011,1,John Wiley & Sons,,944,0,English,,,,"0470890800,9780470890806",,,,,,,,uC9NcAAACAAJ,,,0,,,,0,0,0,1,22718797,pdf,d45e5002b60a246567be492e966f398f,,,_480751.d45e5002b60a246567be492e966f398f.pdf,0,2000-01-01 01:00:00,2016-04-03 02:51:08,800000/d45e5002b60a246567be492e966f398f-d.jpg,,
19820042,"Speakable and Unspeakable in Quantum Mechanics, First Edition",,,,John S. Bell,1987,1st,Cambridge University Press,,225,0,English,,,,"0521334950,9780521334952,0521368693,9780521368698",,,,,530.1/2,QC173.97 .B45 1987,,,OL14717355M,,0,,,,1,1,1,1,2970007,pdf,05fd983c267b78c220b5b269b1f35c9e,,,_480752.05fd983c267b78c220b5b269b1f35c9e.pdf,0,2000-01-01 01:00:00,2016-04-03 02:51:08,800000/05fd983c267b78c220b5b269b1f35c9e-d.jpg,,
19820043,"From Chicaza to Chickasaw: The European Invasion and the Transformation of the Mississippian World, 1540-1715",,,,Robbie Ethridge,2010,,UNC Press Books,,359,0,English,,,,"0807834351,9780807834350",,,,,976.00497386,,,NiVPCYm5WTwC,,,0,,,,1,0,1,1,6305056,pdf,10a0b4cfa6534c68399effb594995e4a,,,_480753.10a0b4cfa6534c68399effb594995e4a.pdf,0,2000-01-01 01:00:00,2016-04-03 02:51:08,800000/10a0b4cfa6534c68399effb594995e4a-d.jpg,,
19820044,Developer's Guide to Collections in Microsoft .NET,,,,Calvin Janes,2011,,Microsoft Press,,648,0,English,92,,,"0735659273,9780735659278",,,,,,,,VGv7tgAACAAJ,,,0,,,,1,0,1,1,1031828,epub,3bb3ddab7f0a1938c60f977a718421c4,,,_480754.3bb3ddab7f0a1938c60f977a718421c4.epub,0,2000-01-01 01:00:00,2016-04-03 02:51:08,800000/3bb3ddab7f0a1938c60f977a718421c4-d.jpg,,
19820045,"Historical Dictionary of Lithuania, 2nd Edition (Historical Dictionaries of Europe)",,Historical Dictionaries of Europe volume 80,,Saulius Suziedelis,2011,2nd,Scarecrow Press,,426,0,English,,,,"0810849143,9780810849143,9780810875364",,,,,947.93003,DK505.37 .S89 1011,,,OL25001467M,,0,,,,1,0,1,1,2447512,pdf,068b63864301f3595427cf3a44e797ab,,,_480755.068b63864301f3595427cf3a44e797ab.pdf,0,2000-01-01 01:00:00,2016-04-03 02:51:08,800000/068b63864301f3595427cf3a44e797ab-d.jpg,,
19820046,El restaurante del fin del mundo,,,,Douglas Adams,2008,,Espasa-Calpe SA,,171,0,Spanish,,,,"8433973282,9788433973283",,,,,,,,,,,0,,,,1,0,,1,632376,pdf,208a2a485690bf8e3da62ef4a152fb0b,,,_480756.208a2a485690bf8e3da62ef4a152fb0b.pdf,0,2000-01-01 01:00:00,2016-04-03 02:51:08,800000/208a2a485690bf8e3da62ef4a152fb0b-d.jpg,,
19820047,Diffusion of Distances: Dialogues Between Chinese and Western Poetics,,,,Wai-Lim Yip,1993,,University of California Press,,267,0,English,,,,"0520077369,9780520077362,9780585108667",,,,,895.1/1009,PL1279 .Y56 1993,,,OL1713179M,,0,,,,1,0,1,1,1377645,pdf,cea1e91bb2287da13ebf6e251b3b39e2,,,_480757.cea1e91bb2287da13ebf6e251b3b39e2.pdf,0,2000-01-01 01:00:00,2016-04-03 02:51:08,800000/cea1e91bb2287da13ebf6e251b3b39e2-d.jpg,,
19820048,Enduring Legacies: Ethnic Histories and Cultures of Colorado (Timberline Books),,Timberline Books,,Arturo Aldama,2010,,University Press of Colorado,,441,0,English,,,,"1607320509,9781607320500,1607320495,9781607320494,9781607320517",,,,,,,,,,,0,,,,1,0,1,1,2725411,pdf,4871cfc12192b34c96c104f5c8189da0,,,_480758.4871cfc12192b34c96c104f5c8189da0.pdf,0,2000-01-01 01:00:00,2016-04-03 02:51:08,800000/4871cfc12192b34c96c104f5c8189da0-d.jpg,,
19820049,MCTS Self-Paced Training Kit (Exam 70-667): Configuring Microsoft SharePoint 2010,,,,"Dan Holme, Orin Thomas, Alastair Matthews, Bob Castle",2011,Pap/Cdr,Microsoft Press,,864,0,English,,,,"0735638853,9780735638853",,,,,004.682,TK5105.875.I6 H648 2011,,5XjPbwAACAAJ,OL25223060M,,0,,,,1,0,1,1,21968350,pdf,9f618fd9dc43cc1756cb3570ef2f3911,,,_480759.9f618fd9dc43cc1756cb3570ef2f3911.pdf,0,2000-01-01 01:00:00,2016-04-03 02:51:08,800000/9f618fd9dc43cc1756cb3570ef2f3911-d.jpg,,
19820050,Revisiting the Synod of Dordt (1618-1619) (Brill's Series in Church History),,Brill's Series in Church History volume 49,,"Aza Goudriaan, Fred Van Lieburg",2011,,Brill Academic Pub,,457,0,English,,,,"9004188630,9789004188631",,,,,262.542492,,,wx9MYgEACAAJ,,,0,,,,1,0,1,1,5488100,pdf,ea66f4bd77ece5ed5fd7ffbc9d069342,,,_480762.ea66f4bd77ece5ed5fd7ffbc9d069342.pdf,0,2000-01-01 01:00:00,2016-04-03 02:51:08,800000/ea66f4bd77ece5ed5fd7ffbc9d069342-d.jpg,,
19820051,Essentials in Bone and Soft-Tissue Pathology,,,,"Jasvir S. Khurana, Edward F. McCarthy, Paul J. Zhang",2010,1st Edition.,Springer,,229,0,English,,,,"0387898441,9780387898445",,,,,616.707,,10.1007/978-0-387-89845-2,,,,0,,,,,0,,1,30649471,pdf,06973cc3443f0c91065208f319641ad2,,,_480763.06973cc3443f0c91065208f319641ad2.pdf,0,2000-01-01 01:00:00,2016-04-03 02:51:08,800000/06973cc3443f0c91065208f319641ad2-d.jpg,,
19820052,An Introduction to Quantum Computing for Non-Physicists,,,,Eleanor Rieffel and Wolfgang Polak,,,,,36,0,English,,,,,,,,,,,,,,,0,,,,1,0,0,1,491886,pdf,15f29f3f9f4d57b283a877f8190fdfb3,,,_480764.15f29f3f9f4d57b283a877f8190fdfb3.pdf,0,2000-01-01 01:00:00,2016-04-03 02:51:08,800000/15f29f3f9f4d57b283a877f8190fdfb3-g.jpg,,
19820053,"Aftermaths of War: Women’s Movements and Female Activists, 1918-1923 (History of Warfare)",,History of Warfare volume 63,,Edited by Ingrid Sharp and Matthew Stibbe,2011,,BRILL,,455,0,English,,,,"9004191720,9789004191723",,,,,305.42094/09042,HQ1587 .A34 2011,,v9D-tgAACAAJ,OL25136680M,,0,,,,1,0,1,1,3545918,pdf,c2163010ae76ac391ad4442e7571725e,,,_480765.c2163010ae76ac391ad4442e7571725e.pdf,0,2000-01-01 01:00:00,2016-04-03 02:51:08,800000/c2163010ae76ac391ad4442e7571725e-d.jpg,,
19820054,"Bonaventura Vulcanius, Works and Networks: Bruges 1538 - Leiden 1614 (Brill's Studies in Intellectual History)",,Brill's Studies in Intellectual History volume 194,,Helene Cazes,2010,,BRILL,,505,0,English,,,,"9004192093,9789004192096",,,,,"409.2,B",PA85.V8 B66 2010,,e2zEcQAACAAJ,OL24384106M,,0,,,,1,0,1,1,11813868,pdf,24b1799ec5448aaae4b0a6912c7510d5,,,_480766.24b1799ec5448aaae4b0a6912c7510d5.pdf,0,2000-01-01 01:00:00,2016-04-03 02:51:08,800000/24b1799ec5448aaae4b0a6912c7510d5-d.jpg,,
19820055,Encyclopedia of School Crime and Violence,,,,Laura Finley,2011,,ABC-CLIO,,747,0,English,,,,"0313362386,9780313362385,9780313362392",,,,,371.7/8097303,HV6250.4.S78 E53 2011,,,OL24827939M,,0,,,,1,0,1,1,5058100,pdf,609f883436179f48136941c810d61c3e,,,_480767.609f883436179f48136941c810d61c3e.pdf,0,2000-01-01 01:00:00,2016-04-03 02:51:08,800000/609f883436179f48136941c810d61c3e-d.jpg,,
19820056,Authentic Wine: Toward Natural and Sustainable Winemaking,,,,"Jamie Goode, Sam Harrop, Sam Harrop MW",2011,1,University of California Press,,272,0,English,,,,"0520265637,9780520265639",,,,,641.2/2,TP548 .G6259 2011,,tM0l2Dt2WdcC,OL25085276M,,0,,,,1,0,1,1,4075851,pdf,694078f4ae597bc56a29b8f598db7d8e,,,_480768.694078f4ae597bc56a29b8f598db7d8e.pdf,0,2000-01-01 01:00:00,2016-04-03 02:51:08,800000/694078f4ae597bc56a29b8f598db7d8e-d.jpg,,
19820057,Das Kapital - 1. Cilt (Türkçe 2011 Baskısı-Yordam),,,,"Marx, Karl (Yordam Kitap)",,,,,378,0,Turkish,,,,9786055541316,,,,,,,,,,,0,,,,,1,,1,4614287,pdf,7f478d1c7af2704419298fc9f37eccd7,,,_480769.7f478d1c7af2704419298fc9f37eccd7.pdf,0,2000-01-01 01:00:00,2016-04-03 02:51:08,800000/7f478d1c7af2704419298fc9f37eccd7-g.jpg,,
19820058,The Legal and Regulatory Environment of Business,,,,"O. Lee Reed, Peter Shedd, Jere Morehead, Marisa Pagnattaro",2009,15th,McGraw-Hill/Irwin,,704,0,English,,,,"007337766X,9780073377667",,,,,346.7307,KF1600 .C6 2010,,VZZZAAAAYAAJ,OL22843737M,,0,,,,,0,1,1,134044990,pdf,d45084743a7c9b7b540a6c100e9454d7,,,_480770.d45084743a7c9b7b540a6c100e9454d7.pdf,0,2000-01-01 01:00:00,2016-04-03 02:51:08,800000/d45084743a7c9b7b540a6c100e9454d7-d.jpg,,
19820059,Das Kapital - 1. Cilt - Yayımlanmamış Altıncı Bölüm - Dolaysız Üretim Sürecinin Sonuçları (2011 Baskısı-Yordam),,,,"Marx, Karl",,,,,135,0,Turkish,,,,9786055541316,,,,,,,,,,,0,,,,,1,,1,1178178,pdf,9d8643fe18fd672c0e7b54f1105556f7,,,_480771.9d8643fe18fd672c0e7b54f1105556f7.pdf,0,2000-01-01 01:00:00,2016-04-03 02:51:08,800000/9d8643fe18fd672c0e7b54f1105556f7-g.jpg,,
19820060,Introduction to Fourier Analysis and Wavelets (Brooks Cole Series in Advanced Mathematics),,,,Mark A. Pinsky,2001,1,Thomson Brooks/Cole,,387,0,English,,,,"0534376606,9780534376604",,,,,515/.2433,QA403.5 .P56 2002,,,OL22463925M,,0,,,,,1,1,1,4891106,djvu,5b9af5e568a139f56e1b1eea61288295,,,_480772.5b9af5e568a139f56e1b1eea61288295.djvu,0,2000-01-01 01:00:00,2016-04-03 02:51:08,800000/5b9af5e568a139f56e1b1eea61288295-d.jpg,,
19820061,Paolo e le donne,,Orizzonti Biblici,,"Jerome Murphy-O'Connor, Cettina Militello, Maria-Luisa Rigato",2006,,Cittadella,,187,0,Italian,,,,"8830808482,9788830808485",,,,,227,,,,,,600,,,,1,1,1,1,4673061,pdf,b07edffe1701a19e9b0873e0633e6e98,,,_480773.b07edffe1701a19e9b0873e0633e6e98.pdf,0,2000-01-01 01:00:00,2016-04-03 02:51:08,800000/b07edffe1701a19e9b0873e0633e6e98-d.jpg,,
19820062,Web mapping illustrated: Using Open Source GIS Toolkits,,,,Tyler Mitchell,2005,1,"O'Reilly Media, Inc",,368,0,English,,,,"0596008651,9780596008659",,,,,526.0285,GA139 .M58 2005,,IdGoy2rZSyIC,OL17922686M,,0,,,,1,0,1,,9550753,chm,a8400da5e18c9d32f64219e94d58a9e8,,,_480775.a8400da5e18c9d32f64219e94d58a9e8.chm,0,2000-01-01 01:00:00,2016-04-03 02:51:08,800000/a8400da5e18c9d32f64219e94d58a9e8-d.jpg,,
19820063,Giovanni: Il Vangelo indomabile,,Piccola Collana Moderna - Serie Biblica volume 84,,Robert Kysar,2000,,Claudiana,,251,0,Italian,,,,"8870163326,9788870163322",,,,,,,,,,,600,,,,1,1,1,1,5205395,pdf,dc0e46d248f60f8752cb51adaa0c272d,,,_480776.dc0e46d248f60f8752cb51adaa0c272d.pdf,0,2000-01-01 01:00:00,2016-04-03 02:51:08,800000/dc0e46d248f60f8752cb51adaa0c272d-g.jpg,,
19820064,Mesozoic Birds: Above the Heads of Dinosaurs,,,,"Luis M. Chiappe, Lawrence M. Witmer",2002,1,University of California Press,,531,0,English,,,,"0520200942,9780520200944",,,,,568,,,,OL17062430M,,0,,,,,1,0,1,24165872,pdf,4be36c00994689d4651372e9d5fb41b8,,,_480777.4be36c00994689d4651372e9d5fb41b8.pdf,0,2000-01-01 01:00:00,2016-04-03 02:51:08,800000/4be36c00994689d4651372e9d5fb41b8-d.jpg,,
19820065,"Pelicans, Cormorants, and Their Relatives: The Pelecaniformes (Bird Families of the World)",,,,J. Bryan Nelson,2006,,"Oxford University Press, USA",,677,0,English,,,,"0198577273,9780198577270",,,,,598.43,,,,OL17195051M,,0,,,,,1,0,1,29853496,pdf,fb83e57a321ae6539485441a88a235e1,,,_480778.fb83e57a321ae6539485441a88a235e1.pdf,0,2000-01-01 01:00:00,2016-04-03 02:51:08,800000/fb83e57a321ae6539485441a88a235e1-d.jpg,,
19820066,Corrosion of Magnesium Alloys (Woodhead Publishing in Materials),,,,Guang-Ling Song,2011,,Woodhead Publishing,,480,0,English,,,,"1845697081,9781845697082",,,,,,,,,,,0,,,,,1,,1,26151270,pdf,b40c07a0ecfa32e7c4b03297a4d8fced,,,_480779.b40c07a0ecfa32e7c4b03297a4d8fced.pdf,0,2000-01-01 01:00:00,2016-04-03 02:51:08,800000/b40c07a0ecfa32e7c4b03297a4d8fced-d.jpg,,
19820067,Kammerflimmern. Lenz' zweiter Fall,,,,Matthias P. Gibert,2008,,Gmeiner Verlag,,,0,German,,,,"389977776X,9783899777765,9783839230527",,,,,,,,lXxYV1nZ0RQC,,,0,,,,,0,1,1,1702378,epub,9f4b5d2223180266ade7381a43edfef6,,,_480780.9f4b5d2223180266ade7381a43edfef6.epub,0,2000-01-01 01:00:00,2016-04-03 02:51:08,800000/9f4b5d2223180266ade7381a43edfef6-d.jpg,,
19820068,Studien zur modernen deutschen Lexikographie: Auswahl aus den lexikographischen Arbeiten,,,,"Ruth Klappenbach, Helene Malige-Klappenbach, Jan F. Brand",1980,,John Benjamins Publishing Company,,338,0,German,,,,"9027227217,9789027227218",,,,,433/.028,PF3611 .K55 1980,,dSe9_8dumRwC,OL22094783M,,0,,,,1,0,1,1,11791609,pdf,8d44b293ab6c858d1d40774c192714d3,,,_480781.8d44b293ab6c858d1d40774c192714d3.pdf,0,2000-01-01 01:00:00,2016-04-03 02:51:08,800000/8d44b293ab6c858d1d40774c192714d3-g.jpg,,
19820069,Zeitbombe. Lenz' achter Fall. Kriminalroman,,,,Matthias P. Gibert,2011,,Gmeiner Verlag,,,0,German,,,,"3839212022,9783839212028,9783839237649",,,,,,,,xXq_4GBlYc8C,,,0,,,,,0,1,1,1876402,epub,2319995784a399f391c5e1a88e321366,,,_480782.2319995784a399f391c5e1a88e321366.epub,0,2000-01-01 01:00:00,2016-04-03 02:51:08,800000/2319995784a399f391c5e1a88e321366-d.jpg,,
19820070,"Basic College Mathematics, Second Edition",,,,Julie Miller,2008,Second Edition,Mcgraw-Hill College,,782,0,English,,,,"0073406112,9780073406114",,,,,510,QA37.3 .M55 2009,,,OL23157600M,,0,,,,1,0,1,1,64852058,pdf,3f81d6033b8db226d8a7582d0299e962,,,_480783.3f81d6033b8db226d8a7582d0299e962.pdf,0,2000-01-01 01:00:00,2016-04-03 02:51:08,800000/3f81d6033b8db226d8a7582d0299e962-d.jpg,,
19820071,The Taste of Ethnographic Things: The Senses in Anthropology,,,,Paul Stoller,1989,3rd paperback printing,University of Pennsylvania Press,,204,0,English,,,,"0812212924,9780812212921",,,,,306/.096626,DT547.45.S65 S765 1989,,,OL2210984M,,0,,,,1,0,1,1,7818243,pdf,fafcec9a70128c525c834151bda923c4,,,_480784.fafcec9a70128c525c834151bda923c4.pdf,0,2000-01-01 01:00:00,2016-04-03 02:51:08,800000/fafcec9a70128c525c834151bda923c4-d.jpg,,
19820072,Pathologic Basis of Veterinary Disease,,,,"M. Donald McGavin MVSc  PhD  FACVSc, James F. Zachary DVM  PhD",2006,4,Mosby,,1470,0,English,,,,,,,,,,,,,,,0,,,,0,1,0,1,304526477,pdf,233bb605e44f413fdadd672111c3b6b2,,,_480785.233bb605e44f413fdadd672111c3b6b2.pdf,0,2000-01-01 01:00:00,2016-04-03 02:51:08,800000/233bb605e44f413fdadd672111c3b6b2-g.jpg,,
19820073,Rechtsdruck. Lenz' siebter Fall. Kriminalroman,,,,Matthias P. Gibert,2011,,Gmeiner Verlag,,,0,German,,,,"3839211301,9783839211304,9783839236260",,,,,,,,4Oj-1svmb1UC,,,0,,,,,0,1,1,2336605,epub,054a702e7dbb13a492b302be5029dc05,,,_480786.054a702e7dbb13a492b302be5029dc05.epub,0,2000-01-01 01:00:00,2016-04-03 02:51:08,800000/054a702e7dbb13a492b302be5029dc05-g.jpg,,
19820074,Conservation and Restoration of Archive Materials,,"Unesco manuals for libraries issue Documentation, libraries and archives : studies an",,Yash Pal. Kathpalia,1974,,Unipub,,251,0,English,,,,9231010735,,,,,025.8/4,Z110.C7 K35,,,OL5108876M,,0,,,,0,1,0,1,15043352,pdf,47f168b19e0ac7890e59d9db6bc288f2,,,_480787.47f168b19e0ac7890e59d9db6bc288f2.pdf,0,2000-01-01 01:00:00,2016-04-03 02:51:08,800000/47f168b19e0ac7890e59d9db6bc288f2-d.jpg,,
19820075,The great influenza: the epic story of the deadliest plague in history,,,,John M. Barry,2005,Revised,Penguin,,546,0,English,,,,"0143036491,9780143036494",,,,,614.51809041,,,,OL7361576M,,0,,,,,1,1,,1173264,epub,586e9aa8d2f7b7547090dae7713b8125,,,_480788.586e9aa8d2f7b7547090dae7713b8125.epub,0,2000-01-01 01:00:00,2016-04-03 02:51:08,800000/586e9aa8d2f7b7547090dae7713b8125-d.jpg,,
19820076,Ezra Pound and Japan: Letters and Essays,,,,Ezra Pound,1987,1st,Black Swan Books,,249,0,English,,,,"0933806272,9780933806276",,,,,"811/.52,B",PS3531.O82 E95 1987,,,OL2721290M,,0,,,,,1,,1,11946590,pdf,6b3b333f70689c068995d909318786a6,,,_480789.6b3b333f70689c068995d909318786a6.pdf,0,2000-01-01 01:00:00,2016-04-03 02:51:08,800000/6b3b333f70689c068995d909318786a6-g.jpg,,
19820077,What's Eating Your Child?: The Hidden Connection Between Food and Your Child's Well-Being,,,,Kelly Dorfman,2011,,Workman Publishing,,,0,English,,,,"0761165282,9780761165286",,,,,,,,,,,0,,,,0,0,1,1,2385357,epub,9affe8af34efadb5ad95041b552537bf,,,_480790.9affe8af34efadb5ad95041b552537bf.epub,0,2000-01-01 01:00:00,2016-04-03 02:51:08,800000/9affe8af34efadb5ad95041b552537bf-g.jpg,,
19820078,What to Expect When You're Expecting,,,,"Heidi Murkoff, Sharon Mazel",2010,4th,Workman Publishing,,,0,English,,,,9780761152682,,,,,618.24,,,,,,0,,,,0,0,1,1,4173434,epub,c7c4875d083b6d48c7a7cc9094908ade,,,_480791.c7c4875d083b6d48c7a7cc9094908ade.epub,0,2000-01-01 01:00:00,2016-04-03 02:51:08,800000/c7c4875d083b6d48c7a7cc9094908ade-g.jpg,,
19820079,The Silent Girl,,Jane Rizzoli & Maura Isles volume 9,,Tess Gerritsen,2011,,Ballantine Books,,,0,English,,,,9780345526601,,,,,813/.54,PS3557.E687 S55 2011,,,OL25176959M,,0,,,,0,0,1,1,585946,epub,5a373ef366dd2fc2d06f6ae498e4ae30,,,_480792.5a373ef366dd2fc2d06f6ae498e4ae30.epub,0,2000-01-01 01:00:00,2016-04-03 02:51:08,800000/5a373ef366dd2fc2d06f6ae498e4ae30-g.jpg,,
19820080,Computational Discrete Mathematics: Combinatorics and Graph Theory with Mathematica ®,,,,"Sriram Pemmaraju, Steven Skiena",2003,,Cambridge University Press,,494,0,English,,,,"0521806860,9780521806862",,,,,511.6,,,,OL22582401M,,0,,,,0,1,1,0,50341917,pdf,2405a7c0b78b49f94fbff16692efa753,,,_480793.2405a7c0b78b49f94fbff16692efa753.pdf,0,2000-01-01 01:00:00,2016-04-03 02:51:08,800000/2405a7c0b78b49f94fbff16692efa753-d.jpg,,
19820081,Stalking the Angel,,Elvis Cole volume 2,,Robert Crais,2011,,Crimeline,,,0,English,,,,9780307789969,,,,,813.54,,,,,,0,,,,0,0,1,1,2001934,epub,2ceedfb7aa6832cb56f019ba46256d06,,,_480794.2ceedfb7aa6832cb56f019ba46256d06.epub,0,2000-01-01 01:00:00,2016-04-03 02:51:08,800000/2ceedfb7aa6832cb56f019ba46256d06-g.jpg,,
19820082,Fodor's New York City 2012,,,,Fodor's,2011,,Fodor's Travel Publications,,,0,English,,,,"0307928640,9780307928641",,,,,,,,,,,0,,,,0,0,1,1,43012896,epub,d6a9d78090a0b1359bd35637afa9a5ea,,,_480795.d6a9d78090a0b1359bd35637afa9a5ea.epub,0,2000-01-01 01:00:00,2016-04-03 02:51:08,800000/d6a9d78090a0b1359bd35637afa9a5ea-g.jpg,,
19820083,A Killer Among Us,,Women of Justice volume 3,,Lynette Eason,2011,,Revell,,,0,English,,,,9781441232618,,,,,813.6,,,,,,0,,,,0,0,1,1,944984,epub,76989532d808000cb563f4b4755a2634,,,_480796.76989532d808000cb563f4b4755a2634.epub,0,2000-01-01 01:00:00,2016-04-03 02:51:08,800000/76989532d808000cb563f4b4755a2634-g.jpg,,
19820084,La nausée,,,,Jean-Paul Sartre,1972,,Gallimard,,252,0,French,,,,"207036805X,9782070368051",,,,,843/.9/14,PQ2637.A82 N3 1975,,,OL15054960M,,600,,,,,1,,1,5186213,djvu,ff56fd157fff9ae5e11e0f069af7c2bc,,,_480797.ff56fd157fff9ae5e11e0f069af7c2bc.djvu,0,2000-01-01 01:00:00,2016-04-03 02:51:08,800000/ff56fd157fff9ae5e11e0f069af7c2bc-d.jpg,,
19820085,A Reformed Druid Anthology (Illustrated),,,,Michael Scharding,1996,,The Drynemetum Press,,483,0,English,,,,,,,,,,,,,,No ISBNs,0,,,,1,0,1,1,5309096,pdf,08d07b9f0a58ae5e4f59020616b80bb4,,,_480798.08d07b9f0a58ae5e4f59020616b80bb4.pdf,0,2000-01-01 01:00:00,2016-04-03 02:51:08,800000/08d07b9f0a58ae5e4f59020616b80bb4-g.jpg,,
19820086,S.H.A.P.E.: Finding and Fulfilling Your Unique Purpose for Life,,,,Erik Rees,2006,,Zondervan,,259,0,English,,,,"031027558X,9780310275589,0310275601,9780310275602",,,,,,,,xrNatGqWnV0C,OL24323438M,,106,,,,1,0,1,1,12741020,pdf,069c59db8ca68b411259335a99e1d280,,,_480800.069c59db8ca68b411259335a99e1d280.pdf,0,2000-01-01 01:00:00,2016-04-03 02:51:08,800000/069c59db8ca68b411259335a99e1d280-g.jpg,,
19820087,The Structure of Arab Reason بنية العقل العربي,,,,محمد عابد الجابري,,,,,603,0,Arabic,,,,,,,,,,,,,,,0,,,,,1,,0,12178138,pdf,d72b971386a2a97a7e12f7563eb7193b,,,_480801.d72b971386a2a97a7e12f7563eb7193b.pdf,0,2000-01-01 01:00:00,2016-04-03 02:51:08,800000/d72b971386a2a97a7e12f7563eb7193b-g.jpg,,
19820088,Amiche piante. 50 piante per purificare l'aria in casa e in ufficio,,,,B. C. Wolverton,2002,,Geo,,300,0,Italian,,,,"8872161002,9788872161005",,,,,,,,,,,0,,,,,1,0,0,217698573,pdf,947c50229b5d2981796750dc2d0ee287,,,_480802.947c50229b5d2981796750dc2d0ee287.pdf,0,2000-01-01 01:00:00,2016-04-03 02:51:08,800000/947c50229b5d2981796750dc2d0ee287-g.jpg,,
19820089,Figures of Speech - Sixty Ways to Turn a Phrase,,,,Arthur Quinn,1982,Gibbs Smith Printing,Gibbs M. Smith,,113,0,English,,,,"0879051213,9780879051211",,,,,808,PN227 .Q5 1982,,,OL23256383M,,300,,,,1,1,1,1,680850,djvu,5c0a5e5e7220450516028c4f13b9d319,,,_480803.5c0a5e5e7220450516028c4f13b9d319.djvu,0,2000-01-01 01:00:00,2016-04-03 02:51:08,800000/5c0a5e5e7220450516028c4f13b9d319-d.jpg,,
19820090,الثقافة التلفزيونية : سقوط النخبة وبروز الشعبي,,,,عبد الله الغذامي,,,,,230,0,Arabic,,,,,,,,,,,,,,,0,,,,,1,,0,8699909,pdf,145bac9aecb36e346c9a89ec2dfedfae,,,_480804.145bac9aecb36e346c9a89ec2dfedfae.pdf,0,2000-01-01 01:00:00,2016-04-03 02:51:08,800000/145bac9aecb36e346c9a89ec2dfedfae-g.jpg,,
19820091,Täuschung und Klarheit. Zur Wechselwirkung zwischen Vision und Geschichte in der Johannesoffenbarung (Forschungen zur Religion und Literatur des Alten und Neuen Testaments 175),,Forschungen zur Religion und Literatur des Alten und Neuen Testaments (FRLANT) volume 175,,Daria Pezzoli-Olgiati,1997,,Vandenhoeck & Ruprecht,,272,0,German,,,,"3525538588,9783525538586",,,,,228/.06,BS2825.2 .P49 1997,,,OL760064M,,0,,,,1,1,1,1,8182649,pdf,388f7d6ea664f916300656dfa80f2f14,,,_480806.388f7d6ea664f916300656dfa80f2f14.pdf,0,2000-01-01 01:00:00,2016-04-03 02:51:08,800000/388f7d6ea664f916300656dfa80f2f14-d.jpg,,
19820092,The Philosophy of Software: Code and Mediation in the Digital Age,,,,David M. Berry,2011,,Palgrave Macmillan,,211,0,English,,,,"0230244181,9780230244184",,,,,303.48/34,QA76.9.C66 B4685 2011,,HzU1kgAACAAJ,OL24885023M,,0,,,,,1,,1,1201076,epub,078cad580c8ebaa24e881ed76f9d359c,,,_480807.078cad580c8ebaa24e881ed76f9d359c.epub,0,2000-01-01 01:00:00,2016-04-03 02:51:08,800000/078cad580c8ebaa24e881ed76f9d359c-d.jpg,,
19820093,La Regenta,,,,"Alas, Leopoldo",2010,,Dimacofi Servicios S.A.,,,0,Spanish,,,,"9789563420111,9789563420104,9789563420098",,,,,,,,,,,0,,,,,1,,,1151245,epub,6499f0cfda58e17e3b5a11b76a308e73,,,_480808.6499f0cfda58e17e3b5a11b76a308e73.epub,0,2000-01-01 01:00:00,2016-04-03 02:51:08,800000/6499f0cfda58e17e3b5a11b76a308e73-g.jpg,,
19820094,Casualties of Care: Immigration and the Politics of Humanitarianism in France,,,,Miriam I. Ticktin,2011,1,University of California Press,,313,0,English,,,,"0520269055,9780520269057,0520269047,9780520269040",,,,,325.44,JV7925.2 .T53 2011,,,OL24827704M,,0,,,,1,0,1,1,3177294,pdf,e171e293ab5d083f89e75e3d471703c9,,,_480809.e171e293ab5d083f89e75e3d471703c9.pdf,0,2000-01-01 01:00:00,2016-04-03 02:51:08,800000/e171e293ab5d083f89e75e3d471703c9-d.jpg,,
19820095,Work stress: the making of a modern epidemic,,,,"David Wainwright, Michael Calnan",2002,1,Open University Press,"Philadelphia, Pa",241,0,English,,,,"0335207073,9780335207077,0335207081,9780335207084,9780335233076,0335233074",,,,,158.720941,,,,OL9362380M,,0,,,,0,1,0,0,31831996,pdf,ab56c5c65b960dfa9e415f1c540ed0c3,,,_480810.ab56c5c65b960dfa9e415f1c540ed0c3.pdf,0,2000-01-01 01:00:00,2016-04-03 02:51:08,800000/ab56c5c65b960dfa9e415f1c540ed0c3-d.jpg,,
19820096,"China's Geography: Globalization and the Dynamics of Political, Economic, and Social Change",,,,"Gregory Veeck, Clifton W. Pannell, Christopher J. Smith, Youqin Huang",2011,2nd,Rowman & Littlefield,,399,0,English,,,,"0742567834,9780742567832,0742567826,9780742567825,9780742567849",,,,,915.1,DS706 .C51138 2011,,CVu9D0JOLfYC,OL25076970M,,0,,,,1,0,1,1,12380892,pdf,d90f745e2c3558ebd4844636908e1b8b,,,_480811.d90f745e2c3558ebd4844636908e1b8b.pdf,0,2000-01-01 01:00:00,2016-04-03 02:51:08,800000/d90f745e2c3558ebd4844636908e1b8b-d.jpg,,
19820097,Exceedingly Nietzsche: Aspects of Contemporary Nietzsche-Interpretation,,,,"David Farrell Krell, David Wood (editors)",1988,1,Routledge,,194,0,English,,,,"0415562236,9780415562232",,,,,193,,,,,,600,,,,0,1,1,1,1994992,pdf,17b0abc22ab73fcd59d1fa44f4635805,,,_480813.17b0abc22ab73fcd59d1fa44f4635805.pdf,0,2000-01-01 01:00:00,2016-04-03 02:51:08,800000/17b0abc22ab73fcd59d1fa44f4635805-d.jpg,,
19820098,البلاغة,,,,فرانسوا  مورو,2003,,إفريقيا الشرق,,50,0,Arabic,,,,"9981252956,9789981252950",,,,,,,,,,,0,,,,,1,,0,1135481,pdf,d934fbc52dd18680c19afa38c11cb12a,,,_480814.d934fbc52dd18680c19afa38c11cb12a.pdf,0,2000-01-01 01:00:00,2016-04-03 02:51:08,800000/d934fbc52dd18680c19afa38c11cb12a-g.jpg,,
19820099,Evropská loutnová hudba 16. a 17. století. Kytarová sóla (European lute music of XVI-XVII c. for solo guitar),,,,Jiří Jirmal (ed.),1972,,,,29,0,Czech,,,,,,,,,,,,,,,0,,,,,1,1,0,1470323,pdf,e90cb8bfe1ec266cdbfbce0dc89d069f,,,_480815.e90cb8bfe1ec266cdbfbce0dc89d069f.pdf,0,2000-01-01 01:00:00,2016-04-03 02:51:08,800000/e90cb8bfe1ec266cdbfbce0dc89d069f-g.jpg,,
19820100,The Assumption of Moses. A Critical Edition with Commentary (Studia in Veteris Testamenti Pseudepigrapha 10),,Studia in Veteris Testamenti Pseudepigrapha (SVTP) volume 10,,Johannes Tromp,1993,,Brill,,336,0,English,,,,"9004097791,9789004097797",,,,,"229/.91 s,229/.913","BS1700 .S78 vol. 10,BS1830.A8 .S78 vol. 10",,,OL1734884M,,0,,,,1,1,1,1,14267203,pdf,699323e270fe404f963c0d3193e90fb9,,,_480816.699323e270fe404f963c0d3193e90fb9.pdf,0,2000-01-01 01:00:00,2016-04-03 02:51:08,800000/699323e270fe404f963c0d3193e90fb9-d.jpg,,
19820101,The Best Digital Marketing Campaigns in the World: Mastering the Art of Customer Engagement,,,,"Damian Ryan, Calvin Jones",2011,,Kogan Page Publishers,,225,0,English,,,,"0749460628,9780749460624,9780749460631",,,,,658.8/72,HF5415.1265 .R92 2011,,a4hNMPe1hC0C,OL25016661M,,0,,,,1,0,1,1,2895802,pdf,63ff684c435e0d95192e29e7b8caf7a9,,,_480817.63ff684c435e0d95192e29e7b8caf7a9.pdf,0,2000-01-01 01:00:00,2016-04-03 02:51:08,800000/63ff684c435e0d95192e29e7b8caf7a9-d.jpg,,
19820102,Unequal lives: health and socioeconomic inequalities,,,,Hilary Graham,2007,1,Open University Press,,236,0,English,,,,"0335213693,9780335213696",,,,,362.1042,RA418.5.S63 G73 2007,,,OL10561869M,,0,,,,0,1,0,1,3897615,pdf,376c7392962aee52a2931e46ced09f98,,,_480818.376c7392962aee52a2931e46ced09f98.pdf,0,2000-01-01 01:00:00,2016-04-03 02:51:08,800000/376c7392962aee52a2931e46ced09f98-d.jpg,,
19820103,Marketing Communications: Integrating Offline and Online with Social Media,,,,"Paul R. Smith, Ze Zook",2011,Fifth Edition,Kogan Page Publishers,,505,0,English,,,,"0749461934,9780749461935,9780749461942",,,,,658.8/02,HF5415.123 .S65 2011,,MbCR0hBgYWgC,OL25001714M,,0,,,,1,0,1,1,8174079,pdf,0c468b9f018e07a00be892c0f11c63af,,,_480819.0c468b9f018e07a00be892c0f11c63af.pdf,0,2000-01-01 01:00:00,2016-04-03 02:51:08,800000/0c468b9f018e07a00be892c0f11c63af-d.jpg,,
19820104,Neige,,,,Maxence Fermine,2000,,Arlea,,84,0,French,,,,"2020385805,9782020385800",,,,,,,,,OL8834968M,,0,,,,,1,,1,431557,pdf,ea15cb0cd027f3974fefbc099ecdffb4,,,_480820.ea15cb0cd027f3974fefbc099ecdffb4.pdf,0,2000-01-01 01:00:00,2016-04-03 02:51:08,800000/ea15cb0cd027f3974fefbc099ecdffb4-d.jpg,,
19820105,What Is Life?: with Mind and Matter and Autobiographical Sketches,,,,Erwin Schrödinger,1992,,Cambridge University Press,,104,0,English,,,,"0521427088,9780521427081",,,,,574/.01,QH331 .S357 1992,,,OL1548875M,,0,,,,0,0,1,1,6426540,pdf,69cb311b83ce08f6117729e47cd6494f,,,_480821.69cb311b83ce08f6117729e47cd6494f.pdf,0,2000-01-01 01:00:00,2016-04-03 02:51:08,800000/69cb311b83ce08f6117729e47cd6494f-d.jpg,,
19820106,"1Q84 - Livre 2, Juillet-Septembre",,,,Haruki Murakami,2011,,BELFOND,,,0,French,,,,"2714449840,9782714449849",,,,,,,,,,,0,,,,,1,,,457601,epub,5ef9643f131fe1cab1ec5d570a7e50a6,,,_480822.5ef9643f131fe1cab1ec5d570a7e50a6.epub,0,2000-01-01 01:00:00,2016-04-03 02:51:08,800000/5ef9643f131fe1cab1ec5d570a7e50a6-d.jpg,,
19820107,Top 10 Dubrovnik and the Dalmatian Coast  (Eyewitness Top 10 Travel Guides),,Eyewitness Top 10 Travel Guides,,"James Stewart, Robin McKelvie, Jenny McKelvie",2010,Pap/Map,Dorling Kindersley,,130,0,Croatian,,,,"0756661382,9780756661380",,,,,914.972043,,,I1mvPwAACAAJ,,,0,,,,1,0,1,1,9031435,pdf,70672129ea10531c1cb651893947a383,,,_480823.70672129ea10531c1cb651893947a383.pdf,0,2000-01-01 01:00:00,2016-04-03 02:51:08,800000/70672129ea10531c1cb651893947a383-d.jpg,,
19820108,In High Places,,,,Arthur Hailey,1986,,Dell,,,0,English,,,,"0440140005,9780440140009",,,,,813.54,,,,OL7517648M,,0,,,,,1,,,522019,epub,b35936893f02ae20f54eb216e458fdba,,,_480824.b35936893f02ae20f54eb216e458fdba.epub,0,2000-01-01 01:00:00,2016-04-03 02:51:08,800000/b35936893f02ae20f54eb216e458fdba-d.jpg,,
19820109,Developing Effective Assessment in Higher Education: A Practical Guide,,,,"Sue Bloxham, Pete Boyd",2007,1,McGraw-Hill,,271,0,English,,,,"0335221076,9780335221073,0335221084,9780335221080",,,,,378.1660941,,,,OL10562259M,,0,,,,0,1,0,1,4529395,pdf,5c5c2fedca9048a2cec4d0c672babfd5,,,_480825.5c5c2fedca9048a2cec4d0c672babfd5.pdf,0,2000-01-01 01:00:00,2016-04-03 02:51:08,800000/5c5c2fedca9048a2cec4d0c672babfd5-d.jpg,,
19820110,A Time to Heal,,,,Barbara Cameron,2011,,Abingdon Pr,,352,0,English,,,,"1426707649,9781426707643",,,,,813/.6,PS3603.A4473 T54 2011,,,OL25016595M,,0,,,,,1,,,612740,epub,0b6ea8f675fc22029aa3114dc5723e5f,,,_480826.0b6ea8f675fc22029aa3114dc5723e5f.epub,0,2000-01-01 01:00:00,2016-04-03 02:51:08,800000/0b6ea8f675fc22029aa3114dc5723e5f-d.jpg,,
19820111,Challenging e-learning in the university: a literacies perspective,,,,"Robin Goodfellow, Mary Rosalind Lea",2007,1,McGraw Hill/Open University Press/Society for Research into Higher Education,,170,0,English,,,,"0335220878,9780335220878,0335220886,9780335220885",,,,,378.1734,,,,,,0,,,,0,1,0,1,1828574,pdf,338cf4d000d60e9711c3d01c17955378,,,_480827.338cf4d000d60e9711c3d01c17955378.pdf,0,2000-01-01 01:00:00,2016-04-03 02:51:08,800000/338cf4d000d60e9711c3d01c17955378-d.jpg,,
19820112,The Girl who Played with Fire,,,,Stieg Larsson,2009,1,Alfred A. Knopf,,503,0,English,,,,"0307269981,9780307269980,9780307272300",,,,,839.73/8,PT9876.22.A6933 F5713 2009,,,OL23198056M,,0,,,,,1,1,1,933800,mobi,fa9f48c98d77c0555dad51231957b27d,,,_480828.fa9f48c98d77c0555dad51231957b27d.mobi,0,2000-01-01 01:00:00,2016-04-03 02:51:08,800000/fa9f48c98d77c0555dad51231957b27d-d.jpg,,
19820113,Anthology of Selected Pieces (Transcribed and edited for the guitar),,,,Gaspar Sanz (ed. by Raymond Burley),1993,,,,52,0,English,,,,,,,,,,,,,,,0,,,,0,1,1,0,7141000,pdf,0167e8322152b0f3d6adf8674f804c01,,,_480829.0167e8322152b0f3d6adf8674f804c01.pdf,0,2000-01-01 01:00:00,2016-04-03 02:51:08,800000/0167e8322152b0f3d6adf8674f804c01-g.jpg,,
19820114,Zen-Brain Reflections,,,,James H. Austin,2006,1,The MIT Press,,615,0,English,,,,"0262012235,9780262012232",,,,,294.3/422,BQ9288 .A967 2006,,,OL22724081M,,0,,,,1,0,1,1,6352521,pdf,f7ef9e87ac015c68a2e9ba59533bafab,,,_480830.f7ef9e87ac015c68a2e9ba59533bafab.pdf,0,2000-01-01 01:00:00,2016-04-03 02:51:08,800000/f7ef9e87ac015c68a2e9ba59533bafab-d.jpg,,
19820115,Revisiting the welfare state,,,,Robert M. Page,2007,1,Open University Press,,177,0,English,,,,"0335213170,9780335213177,0335213189,9780335213184",,,,,361.6509410904,,,,OL10561846M,,0,,,,0,1,0,1,6168547,pdf,6314fdf2f70876351c8901496257bd18,,,_480831.6314fdf2f70876351c8901496257bd18.pdf,0,2000-01-01 01:00:00,2016-04-03 02:51:08,800000/6314fdf2f70876351c8901496257bd18-d.jpg,,
19820116,החי והצומח של ארץ-ישראל : אנציקלופדיה שימושית מאויירת - כרך 8 - הצומח של ארץ ישראל,,,,יואב ויזל,1991,,ישראל. משרד הבטחון. ההוצאה לאור,,268,0,Hebrew,,,,9650500758,,,,,,,,,,,0,,,,0,1,0,0,126562843,pdf,9303be46fa21e7be69fe0db9ffe511e9,,,_480832.9303be46fa21e7be69fe0db9ffe511e9.pdf,0,2000-01-01 01:00:00,2016-04-03 02:51:08,800000/9303be46fa21e7be69fe0db9ffe511e9-g.jpg,,
19820117,החי והצומח של ארץ-ישראל : אנציקלופדיה שימושית מאויירת - כרך 9 - צמחים חסרי פרחים,,,,ורדה רביב,1991,,ישראל. משרד הבטחון. ההוצאה לאור,,264,0,Hebrew,,,,9650500766,,,,,,,,,,,0,,,,0,1,0,0,110403025,pdf,fff6d06010016cd969e792bc290e0bc1,,,_480833.fff6d06010016cd969e792bc290e0bc1.pdf,0,2000-01-01 01:00:00,2016-04-03 02:51:08,800000/fff6d06010016cd969e792bc290e0bc1-g.jpg,,
19820118,"The Controversy Stories in the Gospel of Matthew. Their Redaction, Form and Relevance for the Relationship Between the Matthean Community and Formative Judaism (Forschungen zur Religion und Literatur des Alten und Neuen Testaments 189)",,Forschungen zur Religion und Literatur des Alten und Neuen Testaments (FRLANT) volume 189,,Boris Repschinski,2000,,Vandenhoeck & Ruprecht,,373,0,English,,,,"3525538731,9783525538739",,,,,226.2/066,BS2575.2 .R47 2000,,,OL6839341M,,0,,,,1,1,1,1,22361506,pdf,6d2d927ae57e6251054e8f845d7a4057,,,_480834.6d2d927ae57e6251054e8f845d7a4057.pdf,0,2000-01-01 01:00:00,2016-04-03 02:51:08,800000/6d2d927ae57e6251054e8f845d7a4057-d.jpg,,
19820119,نبرد دین با علم,,,,برتراند راسل ترجمه علی اصغر مهاجر و احمد ایرانی,1993,,نا مشخص,,192,0,Persian,,,,,,,,,,,,,,,0,,,,0,1,,1,6767812,pdf,31aa0654c46108c72396ce43766cfcae,,,_480835.31aa0654c46108c72396ce43766cfcae.pdf,0,2000-01-01 01:00:00,2016-04-03 02:51:08,800000/31aa0654c46108c72396ce43766cfcae-g.jpg,,
19820120,No Place Like Home,,,,Barbara Samuel,2002,1st,Ballantine Books,,304,0,English,,,,"0345445651,9780345445650",,,,,813/.54,PS3573.I485 N6 2002,,,OL3954030M,,0,,,,,1,,,407554,epub,091a3c0fcf5b2ebdcd6310723c135e3d,,,_480836.091a3c0fcf5b2ebdcd6310723c135e3d.epub,0,2000-01-01 01:00:00,2016-04-03 02:51:08,800000/091a3c0fcf5b2ebdcd6310723c135e3d-d.jpg,,
19820121,Muay Thai - The Art of Fighting,,,,"Yod Ruerngsa, Khun Kao Charuad  and James Cartmell",,,,,277,0,English,,,,,,,,,,,,,,,0,,,,,1,0,1,7351407,pdf,cd8517cbabd5d8cce0ff49a3cecd3c32,,,_480837.cd8517cbabd5d8cce0ff49a3cecd3c32.pdf,0,2000-01-01 01:00:00,2016-04-03 02:51:08,800000/cd8517cbabd5d8cce0ff49a3cecd3c32-g.jpg,,
19820122,Exalted 01 A Day Dark As Night,,Exalted volume Book 1,,Carl Bowen,2004,,"White Wolf Publishing Inc,",,290,0,English,,,,"1588468593,9781588468598",,,,,813,,,TKMIAAAACAAJ,OL8829754M,,0,,,,1,0,1,1,2418901,pdf,fd85915c54404fd57b4a6d873cc79ab2,,,_480838.fd85915c54404fd57b4a6d873cc79ab2.pdf,0,2000-01-01 01:00:00,2016-04-03 02:51:08,800000/fd85915c54404fd57b4a6d873cc79ab2-d.jpg,,
19820123,ההיסטוריה של ארץ-ישראל - המאנדאט והבית הלאומי (1917 - 1947),,,,יהושע פורת ויעקוב שביט,1998,,יד יצחק בן-צבי כתר הוצאה לאור,,390,0,Hebrew,,,,,,,,,,,,,,,0,,,,0,1,0,0,78306230,pdf,86b5146ac587404a8cf76ec40995904b,,,_480839.86b5146ac587404a8cf76ec40995904b.pdf,0,2000-01-01 01:00:00,2016-04-03 02:51:08,800000/86b5146ac587404a8cf76ec40995904b-g.jpg,,
19820124,הספרות האפוקליפטית בימי הבית השני,,,,כנה ורמן,2003,,ישראל. משרד הבטחון. ההוצאה לאור,,129,0,Hebrew,,,,9650512209,,,,,,,,,OL19655103M,,0,,,,0,1,0,0,14567692,pdf,3cf12850033e67d0c5ff15ced41f4454,,,_480840.3cf12850033e67d0c5ff15ced41f4454.pdf,0,2000-01-01 01:00:00,2016-04-03 02:51:08,800000/3cf12850033e67d0c5ff15ced41f4454-g.jpg,,
19820125,ההיסטוריה של ארץ-ישראל - מבואות התקופות הקדומות (מהתקופות הפריהיסטוריות עד סוף האלף השני לפני הספירה,,,,ישראל אפעל,1982,,יד יצחק בן-צבי כתר הוצאה לאור,,314,0,Hebrew,,,,,,,,,,,,,,,0,,,,0,1,0,0,57582627,pdf,a96d5aae9094274b77fc33c3cb7023f2,,,_480841.a96d5aae9094274b77fc33c3cb7023f2.pdf,0,2000-01-01 01:00:00,2016-04-03 02:51:08,800000/a96d5aae9094274b77fc33c3cb7023f2-g.jpg,,
19820126,"Jerusalem, Israel, Petra & Sinai (Eyewitness Travel Guides)",,Eyewitness Travel Guides,,Dorling Kindersley,2010,,DK Publishing,,338,0,English,,,,"0756683238,9780756683238",,,,,914.5180492,,,,,,0,,,,1,0,1,1,38885752,pdf,0ef507473b280b3259c46e63a671240d,,,_480842.0ef507473b280b3259c46e63a671240d.pdf,0,2000-01-01 01:00:00,2016-04-03 02:51:08,800000/0ef507473b280b3259c46e63a671240d-g.jpg,,
19820127,Carolina Basketball: A Century of Excellence,,,,"Adam Lucas, Matt Bowers",2010,,UNC Press Books,,289,0,English,,,,"0807834106,9780807834107",,,,,796.323/6309756565,GV885.43.U54 L825 2010,,978kcjN9CwUC,OL24423028M,,0,,,,1,0,1,1,35406810,pdf,80fa50a5c8f956df79eb602757c2a384,,,_480843.80fa50a5c8f956df79eb602757c2a384.pdf,0,2000-01-01 01:00:00,2016-04-03 02:51:08,800000/80fa50a5c8f956df79eb602757c2a384-d.jpg,,
19820128,Bibliographie de l'Art Byzantin et Postbyzantin. La contribution Grecque 2006-2010,,,,Olga Karagiorgou,,,,,276,0,English,,,,9789604042142,,,,,,,,,,,0,,,,,1,,1,860930,pdf,71c3c13a99c7d4b0b9d5147e3d873058,,,_480844.71c3c13a99c7d4b0b9d5147e3d873058.pdf,0,2000-01-01 01:00:00,2016-04-03 02:51:08,800000/71c3c13a99c7d4b0b9d5147e3d873058-g.jpg,,
19820129,BNF for Children 2011-2012 (British National Formulary for Children),,British National Formulary for Children,,Pharmaceutical Press,2011,1 Pap/Crds,Pharmaceutical Press,,878,0,English,,,,"0853699593,9780853699590",,,,,615.1083,,,nTOGZwEACAAJ,,,0,,,,1,0,1,1,6449475,pdf,d26c133f4573fbac62d3fe85fdcd04a7,,,_480845.d26c133f4573fbac62d3fe85fdcd04a7.pdf,0,2000-01-01 01:00:00,2016-04-03 02:51:08,800000/d26c133f4573fbac62d3fe85fdcd04a7-d.jpg,,
19820130,The American Rhetorical Construction of the Iranian Nuclear Threat,,,,Jason Jones,2011,,Continuum,,210,0,English,,,,"1441120149,9781441120144",,,,,820.9,,,7wblVXOtV6IC,,,0,,,,1,0,1,1,2628760,pdf,4c403e97a85cad8b987cc0d9c77f98c8,,,_480846.4c403e97a85cad8b987cc0d9c77f98c8.pdf,0,2000-01-01 01:00:00,2016-04-03 02:51:08,800000/4c403e97a85cad8b987cc0d9c77f98c8-g.jpg,,
19820131,Turn Coat,,The Dresden Files volume 11,,Jim Butcher,2009,,Roc,,,0,English,,,,9781101032428,,,,,,,,,OL24273008M,,0,,,,0,0,1,1,446701,epub,125220fb2dce655be08d72ebc25cf43d,,,_480847.125220fb2dce655be08d72ebc25cf43d.epub,0,2000-01-01 01:00:00,2016-04-03 02:51:08,800000/125220fb2dce655be08d72ebc25cf43d-g.jpg,,
19820132,"Ubiquitous Computing: Design, Implementation and Usability (Premier Reference Source)",,Premier Reference Source,,Yin-Leng Theng,2008,,IGI Global,,396,0,English,,,,"1599046938,9781599046938,9781599046952",,,,,4,QA76.5915 .U259 2008,,Ka7xDlBXoe4C,OL16922428M,,0,,,,1,0,1,1,6100129,pdf,b6144739e041a1ff774f8b86c99d041d,,,_480848.b6144739e041a1ff774f8b86c99d041d.pdf,0,2000-01-01 01:00:00,2016-04-03 02:51:08,800000/b6144739e041a1ff774f8b86c99d041d-d.jpg,,
19820133,Start It Up,,,,Luke Johnson,2011,,Portfolio,,208,0,English,,,,"0670919411,9780670919413",,,,,658.11,,,,,,0,,,,,0,1,1,329452,epub,ce16b2b3b471a77127726b994fd0a7a5,,,_480849.ce16b2b3b471a77127726b994fd0a7a5.epub,0,2000-01-01 01:00:00,2016-04-03 02:51:08,800000/ce16b2b3b471a77127726b994fd0a7a5-d.jpg,,
19820134,Curious George Takes a Job,,Curious George,,H. A. Rey,2011,,Houghton Mifflin Harcourt,,48,0,English,,,,"0395186498,9780395186497,0395150868",,,,,"813/.5/4,E",PZ7.R33 Cu12,,,OL23116273M,,0,,,,0,0,0,1,24272803,epub,dd5a2b9e51dba3e8227bccbbc6d541e5,,,_480850.dd5a2b9e51dba3e8227bccbbc6d541e5.epub,0,2000-01-01 01:00:00,2016-04-03 02:51:08,800000/dd5a2b9e51dba3e8227bccbbc6d541e5-d.jpg,,
19820135,Why Do I Have to Think Like a Man? How to Think Like a Lady and Still Get the Man,,,,"Shanae Hall, Rhonda Frost",2010,,"Dr. Farrah Gray Publishing, Inc.",,,0,English,,,,"9780982702741,0982702744",,,,,,,,axDsRgAACAAJ,,,0,,,,,1,1,1,724500,epub,1df023854bd283fb98b7dade4343fb30,,,_480851.1df023854bd283fb98b7dade4343fb30.epub,0,2000-01-01 01:00:00,2016-04-03 02:51:08,800000/1df023854bd283fb98b7dade4343fb30-g.jpg,,
19820136,Start It Up: Why Running Your Own Business is Easier Than You Think,,,,Luke Johnson,2011,,Penguin,,,0,English,,,,,,B005HDK59Q,,,,,,,,,0,,,,,0,1,1,330432,mobi,d6e8aab8156c4d9671041c4c4d46c74a,,,_480852.d6e8aab8156c4d9671041c4c4d46c74a.mobi,0,2000-01-01 01:00:00,2016-04-03 02:51:08,800000/d6e8aab8156c4d9671041c4c4d46c74a-g.jpg,,
19820137,סיפורי מושבות : סיפורן של חמישים ושתיים המושבות בא''י,,,,ענר זאב,1995,,ישראל. משרד הבטחון. ההוצאה לאור,,268,0,Hebrew,,,,9650507884,,,,,,,,,OL13108482M,,0,,,,0,1,0,0,126803985,pdf,3f2a588d6b5a40699df9e8f34bf5094e,,,_480853.3f2a588d6b5a40699df9e8f34bf5094e.pdf,0,2000-01-01 01:00:00,2016-04-03 02:51:08,800000/3f2a588d6b5a40699df9e8f34bf5094e-g.jpg,,
19820138,Start Up: The Life and Lessons of a Serial Entrepreneur,,,,David H. Gilmour,2011,,Wakaya Perfection LP,,,0,English,,,,,,B005O0QCIK,,,,,,,,,0,,,,,0,1,1,263223,epub,295569a144afedcd22f62512c8fc921a,,,_480854.295569a144afedcd22f62512c8fc921a.epub,0,2000-01-01 01:00:00,2016-04-03 02:51:08,800000/295569a144afedcd22f62512c8fc921a-g.jpg,,
19820139,Start Up: The Life and Lessons of a Serial Entrepreneur,,,,David H. Gilmour,2011,,Wakaya Perfection LP,,,0,English,,,,,,B005O0QCIK,,,,,,,,,0,,,,,1,,,349768,mobi,423b54f057b6e185b4dc427efbf5dffd,,,_480855.423b54f057b6e185b4dc427efbf5dffd.mobi,0,2000-01-01 01:00:00,2016-04-03 02:51:08,800000/423b54f057b6e185b4dc427efbf5dffd-g.jpg,,
19820140,The Real Deal,,,,James Caan,2010,,Virgin Books,,384,0,English,,,,"0753515091,9780753515099",,,,,338.04092,,,,,,0,,,,,0,1,1,420201,epub,36a358cf53992c7eb4997f5b2a0b221c,,,_480856.36a358cf53992c7eb4997f5b2a0b221c.epub,0,2000-01-01 01:00:00,2016-04-03 02:51:08,800000/36a358cf53992c7eb4997f5b2a0b221c-d.jpg,,
19820141,Multidisciplinary Management of Head and Neck Cancer,,,,Robert I. Haddad,2010,First,Demos Medical Publishing,,257,0,English,,,,"1933864559,9781933864556",,,,,616.99/491,RC280.H4 M825 2011,,pGvEXHfW7D4C,OL24384102M,,0,,,,1,0,1,1,4042808,pdf,7d6d3ae2ca2d1d0e8811c092b8dd27da,,,_480857.7d6d3ae2ca2d1d0e8811c092b8dd27da.pdf,0,2000-01-01 01:00:00,2016-04-03 02:51:08,800000/7d6d3ae2ca2d1d0e8811c092b8dd27da-d.jpg,,
19820142,The Real Deal,,,,James Caan,2010,,Virgin Digital,,,0,English,,,,,,B004E9TJ7I,,,,,,,,,0,,,,,0,0,1,555953,mobi,2458ce583c996cc313093fb3ea0c6877,,,_480858.2458ce583c996cc313093fb3ea0c6877.mobi,0,2000-01-01 01:00:00,2016-04-03 02:51:08,800000/2458ce583c996cc313093fb3ea0c6877-g.jpg,,
19820143,Tadpoles: The Biology of Anuran Larvae,,,,"Roy W. McDiarmid, Ronald Altig",2000,1,University Of Chicago Press,,458,0,English,,,,"0226557634,9780226557632",,,,,597.8139,,,,OL9550103M,,0,,,,,1,1,0,57866211,pdf,05ac783573c28f5b367160272b24a309,,,_480859.05ac783573c28f5b367160272b24a309.pdf,0,2000-01-01 01:00:00,2016-04-03 02:51:08,800000/05ac783573c28f5b367160272b24a309-d.jpg,,
19820144,"Losing My Virginity: How I Survived, Had Fun, and Made a Fortune Doing Business My Way",,,,Richard Branson,2011,Updated,Crown Business,,624,0,English,,,,"0307720748,9780307720740",,,,,"338/.04/092,B",HC252.5.B73 B73 2011,,,OL25242064M,,0,,,,,0,1,1,3989139,epub,987750643a17ab58cd827178580d9986,,,_480860.987750643a17ab58cd827178580d9986.epub,0,2000-01-01 01:00:00,2016-04-03 02:51:08,800000/987750643a17ab58cd827178580d9986-d.jpg,,
19820145,Elly Peterson: ''Mother'' of the Moderates,,,,Sara Fitzgerald,2011,,University of Michigan Press,,349,0,English,,,,"0472117874,9780472117871",,,,,"324.2092,B",F570.25.P47 F47 2011,,_c9-nUXAmT4C,OL25053551M,,0,,,,1,0,1,1,1710827,pdf,92170a5f68e04e86e5c66be914fdff13,,,_480861.92170a5f68e04e86e5c66be914fdff13.pdf,0,2000-01-01 01:00:00,2016-04-03 02:51:08,800000/92170a5f68e04e86e5c66be914fdff13-d.jpg,,
19820146,"Losing My Virginity: How I Survived, Had Fun, and Made a Fortune Doing Business My Way",,,,Richard Branson,2011,Updated,Crown Business,,624,0,English,,,,"0307720748,9780307720740",,,,,"338/.04/092,B",HC252.5.B73 B73 2011,,,OL25242064M,,0,,,,,0,1,1,4184260,mobi,ca03bd7cdd020b14bb872f61ce9c81ef,,,_480862.ca03bd7cdd020b14bb872f61ce9c81ef.mobi,0,2000-01-01 01:00:00,2016-04-03 02:51:08,800000/ca03bd7cdd020b14bb872f61ce9c81ef-d.jpg,,
19820147,"Parallel Computational Fluid Dynamics 2008: Parallel Numerical Methods, Software Development and Applications",,Lecture Notes in Computational Science and Engineering volume 74,,"Damien Tromeur-Dervout, Gunther Brenner, David R. Emerson, Jocelyne Erhel, Editors",2010,1st Edition.,Springer,,451,0,English,,,,"3642144373,9783642144370,9783642144387",,,,,510,,10.1007/978-3-642-14438-7,0kkV91U84qsC,,,0,,,,1,0,1,1,9830400,pdf,780f4b638740156ca3e8e6ecd9602ec5,,,_480863.780f4b638740156ca3e8e6ecd9602ec5.pdf,0,2000-01-01 01:00:00,2016-04-03 02:51:08,800000/780f4b638740156ca3e8e6ecd9602ec5-d.jpg,,
19820148,The Discovery of Chinese Logic,,Modern Chinese Philosophy volume 1,,Joachim Kurtz,2011,,Brill,,486,0,English,,,,"9004173382,9789004173385",,,,,160.951,BC39.5.C47 K87 2011,,xfPiSAAACAAJ,OL24857528M,,0,,,,1,0,1,1,5439246,pdf,047e94e972004c756b37b2881ff8d7d8,,,_480864.047e94e972004c756b37b2881ff8d7d8.pdf,0,2000-01-01 01:00:00,2016-04-03 02:51:08,800000/047e94e972004c756b37b2881ff8d7d8-d.jpg,,
19820149,Psychology Applied to Work,,,,Paul M. Muchinsky,2005,8,Wadsworth Publishing,,577,0,English,,,,"0534607810,9780534607814",,,,,158.7,,,,,,0,,,,1,0,1,1,11606915,pdf,06058ff8b439cff2790f532c5190a10a,,,_480865.06058ff8b439cff2790f532c5190a10a.pdf,0,2000-01-01 01:00:00,2016-04-03 02:51:08,800000/06058ff8b439cff2790f532c5190a10a-d.jpg,,
19820150,Early Buddhist Transmission and Trade Networks: Mobility and Exchange Within and Beyond the Northwestern Borderlands of South Asia (Dynamics in the History of Religions),,Dynamics in the History of Religions volume 2,,Jason Neelis,2010,,Brill Academic Pub,,391,0,English,,,,"9004181598,9789004181595",,,,,294.3/7209021,BQ270 .N44 2010,,zwq8bwAACAAJ,OL24438910M,,0,,,,1,0,1,1,5171064,pdf,272fd5c9f05c701fdedd7babb3aa54dc,,,_480866.272fd5c9f05c701fdedd7babb3aa54dc.pdf,0,2000-01-01 01:00:00,2016-04-03 02:51:08,800000/272fd5c9f05c701fdedd7babb3aa54dc-d.jpg,,
19820151,Being in action: the theological shape of Barth's ethical vision,,,,Paul T. Nimmo,2007,,T & T Clark,,215,0,English,,,,"0567031497,9780567031495",,,,,241.092,,,,OL10638757M,,0,,,,1,1,1,1,9560810,pdf,0d973bd26980988a30159abe7bf00c4d,,,_480867.0d973bd26980988a30159abe7bf00c4d.pdf,0,2000-01-01 01:00:00,2016-04-03 02:51:08,800000/0d973bd26980988a30159abe7bf00c4d-d.jpg,,
19820152,Pseudoscience: A Critical Encyclopedia,,,,Brian Regal,2009,,Greenwood Press,,214,0,English,,,,"0313355088,9780313355080",,,,,001.9,Q172.5.P77 R44 2009,,,OL23554309M,,0,,,,1,0,1,1,2807013,pdf,f1917646b6ed3860a9c16017015c4acb,,,_480869.f1917646b6ed3860a9c16017015c4acb.pdf,0,2000-01-01 01:00:00,2016-04-03 02:51:08,800000/f1917646b6ed3860a9c16017015c4acb-g.jpg,,
19820153,Top 10 Honolulu & Oahu (Eyewitness Top 10 Travel Guides),,Eyewitness Top 10 Travel Guides,,DK Publishing,2010,Pap/Map,DK Travel,,130,0,English,,,,"0756660416,9780756660413",,,,,919.6931,,,JQcGgtzfwgMC,,,0,,,,1,0,1,1,10483361,pdf,769eb5c844a568dbdf661663be5dfef3,,,_480870.769eb5c844a568dbdf661663be5dfef3.pdf,0,2000-01-01 01:00:00,2016-04-03 02:51:08,800000/769eb5c844a568dbdf661663be5dfef3-d.jpg,,
19820154,Family by Design,,,,Bonnie K. Winn,2011,,Harlequin,,,0,English,,,,"1408951355,9781408951354",,,,,,,,,,,0,,,,,1,,,297776,epub,2572edee289398dc8f68c9bc7b246fb5,,,_480872.2572edee289398dc8f68c9bc7b246fb5.epub,0,2000-01-01 01:00:00,2016-04-03 02:51:08,800000/2572edee289398dc8f68c9bc7b246fb5-g.jpg,,
19820155,Top 10 Milan & The Lakes,,,,Eyewitness Top 10 Travel Guides),,,,,162,0,English,,,,978-0-75666-963-8,,,,,,,,,,,0,,,,,1,1,1,12537631,pdf,b295e62dca33336bb6ffdc7e9f300e94,,,_480873.b295e62dca33336bb6ffdc7e9f300e94.pdf,0,2000-01-01 01:00:00,2016-04-03 02:51:08,800000/b295e62dca33336bb6ffdc7e9f300e94-g.jpg,,
19820156,Convex Optimization & Euclidean Distance Geometry,,,,Jon Dattorro,2011,"online edition (868p., 25. April 2011)",Meboo Publishing (USA),,868,0,English,,,,,,,,,,,,,,,0,,,,,0,1,1,24623287,pdf,ce01eb2659fb96e0ae1e7ef7110ce187,,,_480874.ce01eb2659fb96e0ae1e7ef7110ce187.pdf,0,2000-01-01 01:00:00,2016-04-03 02:51:08,800000/ce01eb2659fb96e0ae1e7ef7110ce187-g.jpg,,
19820157,Naked Economics: Undressing the Dismal Science,,,,Charles Wheelan,2010,,W. W. Norton & Company,,,0,English,,,,,,B003NX6TYC,,,,,,,,,0,,,,,0,1,1,559736,mobi,4d556cc98234bdbd40f1fc3ee1d763d2,,,_480875.4d556cc98234bdbd40f1fc3ee1d763d2.mobi,0,2000-01-01 01:00:00,2016-04-03 02:51:08,800000/4d556cc98234bdbd40f1fc3ee1d763d2-g.jpg,,
19820158,How to Blow Her Mind in Bed: The essential guide for any man who wants to satisfy his woman,,,,Siski Green,2008,,Sourcebooks Casablanca,,256,0,English,,,,"1402213581,9781402213588",,,,,613.9/6082,HQ56 .G68 2008,,GKi-8m0VH8UC,OL16993014M,,0,,,,,1,1,1,462946,epub,db495e76f8e407498370aceec49a0ab3,,,_480876.db495e76f8e407498370aceec49a0ab3.epub,0,2000-01-01 01:00:00,2016-04-03 02:51:08,800000/db495e76f8e407498370aceec49a0ab3-d.jpg,,
19820159,Het Hemels Mandaat: De geschiedenis van het Chinese Keizerrijk,,,,Barend J. ter Haar,2009,,Amsterdam University Press,,623,0,Dutch,,,,"9089641203,9789089641205,9789048510368",,,,,950,,,6rp-bkGs9gwC,,,0,,,,1,1,1,1,21307325,pdf,6d607cb60ace0ec262552e439ccaeb6e,,,_480877.6d607cb60ace0ec262552e439ccaeb6e.pdf,0,2000-01-01 01:00:00,2016-04-03 02:51:08,800000/6d607cb60ace0ec262552e439ccaeb6e-g.jpg,,
19820160,the First Lady,,,,Carl Weber,2007,,Dafina Books,,,0,English,,,,"0758254202,9780758254207",,,,,,,,,,,0,,,,,1,,,355161,epub,c5f34a25dad362ae71b3f57f7cde3e51,,,_480878.c5f34a25dad362ae71b3f57f7cde3e51.epub,0,2000-01-01 01:00:00,2016-04-03 02:51:08,800000/c5f34a25dad362ae71b3f57f7cde3e51-g.jpg,,
19820161,El derecho de matar (1ª edición),,,,Raúl Barón Biza,,,,,162,0,Spanish,,,,,,,,,,,,,,,0,,,,,1,,1,15316891,pdf,fc69e60578284597933caba32e0fe763,,,_480879.fc69e60578284597933caba32e0fe763.pdf,0,2000-01-01 01:00:00,2016-04-03 02:51:08,800000/fc69e60578284597933caba32e0fe763-g.jpg,,
19820162,,,,"Journal of Biblical Literature, Vol. 130, No. 3 (Fall 2011)",General Editor: JAMES C. VANDERKAM,2011,,Society of Biblical Literature,,212,0,English,,,,,0021-9231,,,,,,,,,periodic,0,,,,1,0,0,1,7044258,pdf,58fb7b463f64aea29c6e03431ac14210,,ban,_480880.58fb7b463f64aea29c6e03431ac14210.pdf,0,2000-01-01 01:00:00,2016-04-03 02:51:08,800000/58fb7b463f64aea29c6e03431ac14210-g.jpg,,
19820163,"Ruminant Physiology: Digestion, Metabolism and Impact of Nutrition on Gene Expression, Immunology and Stress",,,,"K. Sejrsen, T. Hvelplund, M. O. Nielsen",2006,,Wageningen Pers,,602,0,English,,,,"9076998647,9789076998640",,,,,636.20892,,10.3920/978-90-8686-566-6,,OL16140756M,,0,,,,0,1,0,1,4714294,pdf,a537dd9d490135670a4b370105aff091,,,_480881.a537dd9d490135670a4b370105aff091.pdf,0,2000-01-01 01:00:00,2016-04-03 02:51:08,800000/a537dd9d490135670a4b370105aff091-d.jpg,,
19820164,Encyclopedia of Embroidery Techniques,,,,Pauline Brown,2001,,Search Press Ltd,,178,0,English,,,,"0855329858,9780855329853",,,,,746.44,,,,OL8300741M,,0,,,,,1,0,0,26550726,pdf,7474f0ab9f067912db9070db1232a047,,,_480883.7474f0ab9f067912db9070db1232a047.pdf,0,2000-01-01 01:00:00,2016-04-03 02:51:08,800000/7474f0ab9f067912db9070db1232a047-d.jpg,,
19820165,The Command of the Ocean: A Naval History of Britain 1649-1815,,,,N. A. M. Rodger,2006,,Penguin,,976,0,English,,,,"0141026901,9780141026909",,,,,359.009410903,,,,OL7358782M,,0,,,,,1,,,2982853,epub,8c37eb61afdadce75378681e977ac313,,,_480884.8c37eb61afdadce75378681e977ac313.epub,0,2000-01-01 01:00:00,2016-04-03 02:51:08,800000/8c37eb61afdadce75378681e977ac313-d.jpg,,
19820166,Papii. Istorie şi secrete,,,,Claudio Rendina,2002,,Bic All,,448,0,"Romanian,Moldavian,Moldovan",,,,9735714108,,,,,,,,,,,0,,,,0,1,1,0,118594136,pdf,c859d870fddd70c6bdde63124fbc539e,,,_480885.c859d870fddd70c6bdde63124fbc539e.pdf,0,2000-01-01 01:00:00,2016-04-03 02:51:08,800000/c859d870fddd70c6bdde63124fbc539e-g.jpg,,
19820167,The Lover's Dictionary,,,,David Levithan,2011,,"Farrar, Straus and Giroux",,224,0,English,,,,"0374193681,9780374193683",,,,,813/.54,PS3562.E922175 L68 2011,,,OL24468381M,,0,,,,,1,,,822858,epub,26a043ccf494d80a41c1d5af599fe396,,,_480886.26a043ccf494d80a41c1d5af599fe396.epub,0,2000-01-01 01:00:00,2016-04-03 02:51:08,800000/26a043ccf494d80a41c1d5af599fe396-d.jpg,,
19820168,Sentido de Urgencia,,,,John P. Kotter,2008,,,,119,0,Spanish,,,,"9898101563,9789898101563",,,,,,,,wGj-tgAACAAJ&am,,,0,,,,1,0,0,1,752734,pdf,1473aba1a35f4892051819516a4222c8,,,_480888.1473aba1a35f4892051819516a4222c8.pdf,0,2000-01-01 01:00:00,2016-04-03 02:51:08,800000/1473aba1a35f4892051819516a4222c8-g.jpg,,
19820169,Words in the Mind: An Introduction to the Mental Lexicon,,,,Jean Aitchison,1987,illustrated edition,Blackwell Publishers,,240,0,English,,,,"0631144412,9780631144410",,,,,401/.9,P326 .A4 1987,,,OL2732279M,,0,,,,1,1,1,1,14020525,pdf,509359bfefac827d0edc605750e156b0,,,_480889.509359bfefac827d0edc605750e156b0.pdf,0,2000-01-01 01:00:00,2016-04-03 02:51:08,800000/509359bfefac827d0edc605750e156b0-g.jpg,,
19820170,"Making Europe: People, Politics, and Culture",,,,"Frank L. Kidner, Maria Bucur, Ralph Mathisen, Sally McKee, Theodore R. Weeks",2007,1,Houghton Mifflin,,963,0,English,,,,"0618004793,9780618004799",,,,,,,,,OL23943145M,,0,,,,1,1,1,1,80808523,pdf,61176a7c851a0b253b30b378666fbf7c,,,_480890.61176a7c851a0b253b30b378666fbf7c.pdf,0,2000-01-01 01:00:00,2016-04-03 02:51:08,800000/61176a7c851a0b253b30b378666fbf7c-d.jpg,,
19820171,Family Law for Paralegals,,The McGraw-Hill paralegal list,,George Kent,2008,1st,Career Education,,403,0,English,,,,"0073376973,9780073376974",,,,,346.7301/5,KF505.Z9 K46 2009,,E7rtHgAACAAJ,OL23144474M,,0,,,,1,1,1,1,15716165,pdf,91c78600cff9e8688c2e3013aa6fb681,,,_480891.91c78600cff9e8688c2e3013aa6fb681.pdf,0,2000-01-01 01:00:00,2016-04-03 02:51:08,800000/91c78600cff9e8688c2e3013aa6fb681-d.jpg,,
19820172,Direct Theory: Experimental Film Video as Major Genre,,,,Edward S. Small,1994,1st,Southern Illinois University Press,,146,0,English,,,,"0809319209,9780809319190,9780585107516,9780809319206",,,,,791.43/61,PN1995.9.E96 S62 1994,,,OL1433300M,,0,,,,1,0,1,1,1752820,pdf,2cafc134f0bf9abab2a8d89d7591f31b,,,_480892.2cafc134f0bf9abab2a8d89d7591f31b.pdf,0,2000-01-01 01:00:00,2016-04-03 02:51:08,800000/2cafc134f0bf9abab2a8d89d7591f31b-d.jpg,,
19820173,Changing,,,,Liv Ullmann,1977,First,Random House Inc (T),,244,0,English,,,,"039441148X,9780394411484",,,,,"791.43/028/0924,B",PN2768.U4 A3213 1977,,,OL20169653M,,0,,,,0,1,1,1,19460262,pdf,be0d4446604d5fca292785205a6d41f5,,,_480894.be0d4446604d5fca292785205a6d41f5.pdf,0,2000-01-01 01:00:00,2016-04-03 02:51:08,800000/be0d4446604d5fca292785205a6d41f5-d.jpg,,
19820174,Peter Carey: A Literary Companion,,McFarland Literary Companions volume 8,,Mary Ellen Snodgrass,2010,,McFarland,,357,0,English,,,,"0786441526,9780786441525",,,,,823/.914,PR9619.3.C36 Z85 2010,,duIZeX4S7O4C,OL23981057M,,0,,,,1,0,1,1,1962488,pdf,a7f38dc23ee5c1a3c684d868fdaefec3,,,_480895.a7f38dc23ee5c1a3c684d868fdaefec3.pdf,0,2000-01-01 01:00:00,2016-04-03 02:51:08,800000/a7f38dc23ee5c1a3c684d868fdaefec3-d.jpg,,
19820175,Revolta trupului,,Biblioteca de psihologie,,Alice Miller,2006,,Nemira,,158,0,"Romanian,Moldavian,Moldovan",,,,"9735699397,9789735699390",,,,,616.0019,,,,,,0,,,,0,1,0,1,12700555,pdf,4667098e8bacbc1ccf5335026cdca886,,,_480896.4667098e8bacbc1ccf5335026cdca886.pdf,0,2000-01-01 01:00:00,2016-04-03 02:51:08,800000/4667098e8bacbc1ccf5335026cdca886-g.jpg,,
19820176,"Shifting Ground: Knowledge and Reality, Transgression and Trustworthiness",,Studies in Feminist Philosophy,,Naomi Scheman,2011,,Oxford University Press,,262,0,English,,,,"0195395107,9780195395105,0195395115,9780195395112",,,,,191,B29 .S355 2011,,ZvqLRu30ipsC,OL24452564M,,0,,,,1,0,1,1,1092335,pdf,bf79a025e2a4e0310b68b03c86bde2bc,,,_480898.bf79a025e2a4e0310b68b03c86bde2bc.pdf,0,2000-01-01 01:00:00,2016-04-03 02:51:08,800000/bf79a025e2a4e0310b68b03c86bde2bc-d.jpg,,
19820177,Building Java Programs: A Back to Basics Approach (1st Edition),,,,"Stuart Reges, Marty Stepp",2007,,Addison Wesley,,896,0,English,92,,,"0321382838,9780321382832",,,,,005.13/3,QA76.73.J38 R447 2007,,,OL17173021M,,0,,,,,1,,1,7004826,pdf,0db8614156572e69236cee781a024046,,,_480901.0db8614156572e69236cee781a024046.pdf,0,2000-01-01 01:00:00,2016-04-03 02:51:08,800000/0db8614156572e69236cee781a024046-d.jpg,,
19820178,Risk and Precaution,,,,Alan Randall,2011,1,Cambridge University Press,,280,0,English,,,,"0521759196,9780521759199,052176615X,9780521766159",,,,,338.5,HB615 .R364 2011,,IlHj3fvJzMsC,OL24893173M,,0,,,,1,0,1,1,1417270,pdf,5fdaf718bfe9c01c8bbcffb279da4268,,,_480907.5fdaf718bfe9c01c8bbcffb279da4268.pdf,0,2000-01-01 01:00:00,2016-04-03 02:51:08,800000/5fdaf718bfe9c01c8bbcffb279da4268-d.jpg,,
19820179,Redoute's Finest Flowers in Embroidery,,,,Trish Burr,2002,,Sally Milner Publishing,,97,0,English,,,,"1863512934,9781863512930",,,,,746.44/041,TT773 .B68 2002,,,OL3618604M,,0,,,,,1,0,0,6992643,pdf,592b9a9a847cd10665048683fb5ca5ec,,,_480908.592b9a9a847cd10665048683fb5ca5ec.pdf,0,2000-01-01 01:00:00,2016-04-03 02:51:08,800000/592b9a9a847cd10665048683fb5ca5ec-d.jpg,,
19820180,Holly Blues (China Bayles Mystery),,,,Susan Wittig Albert,2010,1,Berkley Hardcover,,304,0,English,,,,"0425232603,9780425232606",,,,,813/.54,PS3551.L2637 H65 2010,,,OL23962839M,,0,,,,,1,,,508072,mobi,5fb7aa1b219c1174bbc26cd0f4731025,,,_480909.5fb7aa1b219c1174bbc26cd0f4731025.mobi,0,2000-01-01 01:00:00,2016-04-03 02:51:08,800000/5fb7aa1b219c1174bbc26cd0f4731025-d.jpg,,
19820181,"C++ Programming: Program Design Including Data Structures, 5th Edition",,,,D. S. Malik,2010,5th,Course Technology,,1616,0,English,92,,,"0538798092,9780538798099",,,,,005.133,,,miLKQgAACAAJ,,,0,,,,1,0,1,1,21095158,pdf,27109d174c6f151ff80e36d8327d3d5e,,,_480910.27109d174c6f151ff80e36d8327d3d5e.pdf,0,2000-01-01 01:00:00,2016-04-03 02:51:08,800000/27109d174c6f151ff80e36d8327d3d5e-d.jpg,,
19820182,The Penguin Complete Sherlock Holmes,,,,"Arthur Conan Doyle, with an Introduction by Ruth Rendell",2009,,Penguin Books,,,0,English,,,,"0141931817,9780141931814",,,,,,,,NcGubKCE7z8C,OL24294225M,,0,,,,0,0,1,1,3674205,epub,5c132671903b12d9551005d54939eabc,,,_480911.5c132671903b12d9551005d54939eabc.epub,0,2000-01-01 01:00:00,2016-04-03 02:51:08,800000/5c132671903b12d9551005d54939eabc-g.jpg,,
19820183,Mistletoe Man (China Bayles Mystery),,,,Susan Wittig Albert,2001,,Berkley,,320,0,English,,,,"0425182010,9780425182017",,,,,813.54,,,,OL18589255M,,0,,,,,1,,,378391,mobi,678dbd65f7b557462ce426ba75950622,,,_480912.678dbd65f7b557462ce426ba75950622.mobi,0,2000-01-01 01:00:00,2016-04-03 02:51:08,800000/678dbd65f7b557462ce426ba75950622-d.jpg,,
19820184,Mourning Gloria (China Bayles Mystery),,,,Susan Wittig Albert,2011,1st ptg,Berkley Hardcover,,320,0,English,,,,"0425239136,9780425239131",,,,,813/.54,PS3551.L2637 M68 2011,,,OL24903350M,,0,,,,,1,,,402191,epub,12901916140cd7506301ea2131f6274e,,,_480913.12901916140cd7506301ea2131f6274e.epub,0,2000-01-01 01:00:00,2016-04-03 02:51:08,800000/12901916140cd7506301ea2131f6274e-d.jpg,,
19820185,"Corbie in the Carolingian Renaissance (Francia, Beihefte 20): Bd. XX",,,,David Ganz,1990,,"Jan Thorbecke Verlag, Stuttgart",,192,0,English,,,,"3799573208,9783799573207",,,,,944.01,,,,OL15290264M,,0,,,,1,1,0,1,26220707,pdf,4082a5ab0d787294ee981912f29cd9d2,,,_480914.4082a5ab0d787294ee981912f29cd9d2.pdf,0,2000-01-01 01:00:00,2016-04-03 02:51:08,800000/4082a5ab0d787294ee981912f29cd9d2-g.jpg,,
19820186,Gramática general aplicada a la lengua castellana o el alma del idioma castellano. Vol 1,,,,Felipe Robles Dégano.,,,,,316,0,Spanish,,,,,,,,,,,,,,No,0,,,,,1,,1,8105693,djvu,4a088b0dab19f025ec30eff3ed2e288d,,,_480915.4a088b0dab19f025ec30eff3ed2e288d.djvu,0,2000-01-01 01:00:00,2016-04-03 02:51:08,800000/4a088b0dab19f025ec30eff3ed2e288d-g.jpg,,
19820187,Mothers and Daughters in Arab Women's Literature,,Women and Gender: The Middle East and the Islamic World volume Volume 10,,Dalya Abudi,2010,1st Edition,BRILL,,346,0,English,,,,"9004181148,9789004181144",1570-7628,,,,892.7/0935254,PJ7525.2 .A257 2011,,gp20cQAACAAJ,OL24412472M,,0,,,,0,1,1,1,19706813,pdf,e0f6cdc818262546b421857140c7d81b,,,_480916.e0f6cdc818262546b421857140c7d81b.pdf,0,2000-01-01 01:00:00,2016-04-03 02:51:08,800000/e0f6cdc818262546b421857140c7d81b-d.jpg,,
19820188,Quellen und Forschungen aus italienischen Archiven und Bibliotheken: BD 87 (Quellen Und Forschungen aus Italienischen Archiven Und Bibli),,,,Deutsches Historisches Institut in ROM,2008,1,"Niemeyer, Tübingen",,904,0,German,,,,"3484830875,9783484830875",,,,,,,,,,,0,,,,1,0,0,1,17989629,pdf,0782c2d4775a2c6072172fca7120ae62,,,_480917.0782c2d4775a2c6072172fca7120ae62.pdf,0,2000-01-01 01:00:00,2016-04-03 02:51:08,800000/0782c2d4775a2c6072172fca7120ae62-g.jpg,,
19820189,"Private Truths, Public Lies. The Social Consequences of Preference Falsification",,,,Timur Kuran,1997,,Harvard University Press,,439,0,English,,,,"0674707583,9780674707580",,,,,303.34,,,,OL7693322M,,0,,,,1,1,1,1,23843803,pdf,d2462ba1db1941d09724ad9a57f8126f,,,_480918.d2462ba1db1941d09724ad9a57f8126f.pdf,0,2000-01-01 01:00:00,2016-04-03 02:51:08,800000/d2462ba1db1941d09724ad9a57f8126f-d.jpg,,
19820190,Words in the Mind: An Introduction to the Mental Lexicon,,,,Jean Aitchison,1987,illustrated edition,Blackwell Publishers,,240,0,English,,,,"0631144412,9780631144410",,,,,401/.9,P326 .A4 1987,,,OL2732279M,,0,,,,,1,,1,10925386,djvu,efda0b96c3a865f6c1afbd8c6c72ddba,,,_480919.efda0b96c3a865f6c1afbd8c6c72ddba.djvu,0,2000-01-01 01:00:00,2016-04-03 02:51:08,800000/efda0b96c3a865f6c1afbd8c6c72ddba-g.jpg,,
19820191,"Bischofsherrschaft in Gallien: Zur Kontinuitat romischer Fuhrungsschichten vom 4. bis zum 7. Jahrhundert : soziale, prosopographische und bildungsgeschichtliche ... (Beihefte der Francia)",,,,Martin Heinzelmann,1976,,Artemis,,283,0,German,,,,"3760846556,9783760846552",,,,,282.44,,,,OL2302376M,,0,,,,1,1,0,1,17942404,pdf,7d103b1dc6759d9371b0f898e7ed4d77,,,_480920.7d103b1dc6759d9371b0f898e7ed4d77.pdf,0,2000-01-01 01:00:00,2016-04-03 02:51:08,800000/7d103b1dc6759d9371b0f898e7ed4d77-g.jpg,,
19820192,The Day the Leader Was Killed,,,,Naguib Mahfouz,2000,,Anchor,,108,0,English,,,,"0385499221,9780385499224",,,,,892.7/36,PJ7846.A46 Y3813 2000,,,OL17596681M,,0,,,,,1,0,0,5010323,pdf,3cabfc479d99903476b44a69229f241d,,,_480921.3cabfc479d99903476b44a69229f241d.pdf,0,2000-01-01 01:00:00,2016-04-03 02:51:08,800000/3cabfc479d99903476b44a69229f241d-d.jpg,,
19820193,"Digital Holographic Microscopy: Principles, Techniques, and Applications",,Springer Series in Optical Sciences volume 162,,Myung K. Kim,2011,1st Edition.,Springer,,254,0,English,,,,"1441977929,9781441977922",0342-4111,,,,621.3/675,TA1542 .K56 2011,10.1007/978-1-4419-7793-9,TNEIvHaNjawC,OL25104537M,,0,,,,1,0,1,1,9261971,pdf,4d355b038b04f5311eabd253a147a5cc,,,_480922.4d355b038b04f5311eabd253a147a5cc.pdf,0,2000-01-01 01:00:00,2016-04-03 02:51:08,800000/4d355b038b04f5311eabd253a147a5cc-d.jpg,,
19820194,"Men and Masculinities: Theory, Research and Social Practice",,,,"Chris Haywood, Mairtin Mac an Ghaill",2003,1,Open University Press,,206,0,English,,,,"0335208916,9780335208913",,,,,305.32,HQ1090 .H396 2003,,rl1Bll1VAnsC,OL3567368M,,0,,,,1,0,1,1,738234,pdf,c865654bfca50e5c8d72d8fd1a279cf3,,,_480923.c865654bfca50e5c8d72d8fd1a279cf3.pdf,0,2000-01-01 01:00:00,2016-04-03 02:51:08,800000/c865654bfca50e5c8d72d8fd1a279cf3-d.jpg,,
19820195,Studying History (Macmillan Study Guide) (Second edition),,Macmillan Study Guide,,Jeremy Black,2000,Second edition,Palgrave Macmillan,,255,0,English,,,,"0333801830,9780333801833",,,,,907,,,nwqAQgAACAAJ,OL10557622M,,0,,,,1,0,1,1,993256,pdf,cebbefc7bf1b4efd9ea5a8bc7c218ab4,,,_480924.cebbefc7bf1b4efd9ea5a8bc7c218ab4.pdf,0,2000-01-01 01:00:00,2016-04-03 02:51:08,800000/cebbefc7bf1b4efd9ea5a8bc7c218ab4-d.jpg,,
19820196,Everyday Corruption and the State: Citizens and Public Officials in Africa,,,,"Giorgio Blundo, Jean-Pierre Olivier de Sardan",2006,,Zed Books,,256,0,English,,,,"1842775634,9781842775639",,,,,364.1/323096,JQ1875.A55 C6358 2006,,,OL21872992M,,0,,,,,1,1,1,374602939,pdf,c49c7fa0fa65cbc47e245450a3bd62e7,,,_480925.c49c7fa0fa65cbc47e245450a3bd62e7.pdf,0,2000-01-01 01:00:00,2016-04-03 02:51:08,800000/c49c7fa0fa65cbc47e245450a3bd62e7-d.jpg,,
19820197,Encounter on the Narrow Ridge: A Life of Martin Buber,,,,Maurice Friedman,1998,1st Paperback Ed,Paragon House,,496,0,English,,,,"1557785961,9781557785961",,,,,296.3092,,,,OL8601786M,,0,,,,,1,,1,3093310,pdf,f5e430f92574d8b34bd27085f50620f8,,,_480927.f5e430f92574d8b34bd27085f50620f8.pdf,0,2000-01-01 01:00:00,2016-04-03 02:51:08,800000/f5e430f92574d8b34bd27085f50620f8-d.jpg,,
19820198,"101 Really Important Things You Already Know, But Keep Forgetting",,,,Ernie J. Zelinski,2007,,Visions International Publishing,,238,0,English,,,,"0969419465,9780969419464",,,,,158.1,,,,OL23131706M,,0,,,,,0,1,1,4763717,pdf,eac106a66b04aba23a30940fb8897899,,,_480928.eac106a66b04aba23a30940fb8897899.pdf,0,2000-01-01 01:00:00,2016-04-03 02:51:08,800000/eac106a66b04aba23a30940fb8897899-g.jpg,,
19820199,Why God Won't Go Away: Brain Science and the Biology of Belief,,,,"Andrew Newberg, Eugene D'Aquili, Vince Rause",2002,,Ballantine Books,,,0,English,,,,,,,,,,,,o2CVU2RBgksC,,,0,,,,,0,1,1,511064,mobi,35284a25ffb7fd2e3e7dacdbb53152ad,,,_480930.35284a25ffb7fd2e3e7dacdbb53152ad.mobi,0,2000-01-01 01:00:00,2016-04-03 02:51:08,800000/35284a25ffb7fd2e3e7dacdbb53152ad-g.jpg,,
19820200,Why God Won't Go Away: Brain Science and the Biology of Belief,,,,"Andrew Newberg, Eugene D'Aquili, Vince Rause",2002,,Ballantine Books,,,0,English,,,,9780307493156,,,,,,,,o2CVU2RBgksC,,,0,,,,0,0,1,1,336156,epub,975a13db2a21130d174546d5d792510d,,,_480931.975a13db2a21130d174546d5d792510d.epub,0,2000-01-01 01:00:00,2016-04-03 02:51:08,800000/975a13db2a21130d174546d5d792510d-g.jpg,,
19820201,"Listverse.com's Ultimate Book of Bizarre Lists: Fascinating Facts and Shocking Trivia on Movies, Music, Crime, Celebrities, History, and More",,,,Jamie Frater,2010,,Ulysses Press,,,0,English,,,,9781569758854,,,,,031.02,,,DAc2vqmcjTYC,,,0,,,,,0,1,1,3333356,mobi,a12f3e1a2d30d28dcadd27c64670d63c,,,_480932.a12f3e1a2d30d28dcadd27c64670d63c.mobi,0,2000-01-01 01:00:00,2016-04-03 02:51:08,800000/a12f3e1a2d30d28dcadd27c64670d63c-g.jpg,,
19820202,"Listverse.com's Ultimate Book of Bizarre Lists: Fascinating Facts and Shocking Trivia on Movies, Music, Crime, Celebrities, History, and More",,,,Jamie Frater,2010,,Ulysses Press,,,0,English,,,,9781569758854,,,,,031.02,,,DAc2vqmcjTYC,,,0,,,,0,0,1,1,2868643,epub,4191f6af020f5d7556d004bacec9a702,,,_480933.4191f6af020f5d7556d004bacec9a702.epub,0,2000-01-01 01:00:00,2016-04-03 02:51:08,800000/4191f6af020f5d7556d004bacec9a702-g.jpg,,
19820203,"Atomic Force Microscopy Based Nanorobotics: Modelling, Simulation, Setup Building and Experiments",,Springer Tracts in Advanced Robotics volume 71,,"Hui Xie, Cagdas Onal, Stéphane Régnier, Metin Sitti",2011,2011,Springer,,359,0,English,,,,"3642203280,9783642203282",1610-7438,,,,,,10.1007/978-3-642-20329-9,,,,0,,,,1,0,1,1,9066827,pdf,ee516a7baa7699fec1e9b7349f2f3868,,,_480934.ee516a7baa7699fec1e9b7349f2f3868.pdf,0,2000-01-01 01:00:00,2016-04-03 02:51:08,800000/ee516a7baa7699fec1e9b7349f2f3868-d.jpg,,
19820204,Chronic Physical Illness: Self Management and Behavioural Interventions,,,,"Stanton Newman, Elizabeth Steed, Kathleen Mulligan",2008,1,Open University Press,,324,0,English,,,,"0335217869,9780335217861",,,,,616.044,,,st3mAAAACAAJ,,,0,,,,1,0,1,1,1462599,pdf,f15bb9965603c1366ab883da83642dca,,,_480935.f15bb9965603c1366ab883da83642dca.pdf,0,2000-01-01 01:00:00,2016-04-03 02:51:08,800000/f15bb9965603c1366ab883da83642dca-d.jpg,,
19820205,Graph-Based Representations in Pattern Recognition - GbRPR 2011,,Lecture Notes in Computer Science volume 6658,,"Xiaoyi Jiang, Miquel Ferrer, Andrea Torsello",2011,1st Edition.,Springer,,358,0,English,,,,"3642208436,9783642208430",0302-9743,,,,,,10.1007/978-3-642-20844-7,yyRtis-qqaYC,OL25205805M,,0,,,,1,0,1,1,7476151,pdf,146287f16f5f46f4215ed8df12c89d60,,,_480936.146287f16f5f46f4215ed8df12c89d60.pdf,0,2000-01-01 01:00:00,2016-04-03 02:51:08,800000/146287f16f5f46f4215ed8df12c89d60-d.jpg,,
19820206,"Evangelienbuch, Band 2. Einleitung und Apparat zu P und D",,,,Rita Heuser,2007,,Max Niemeyer Verlag,,221,0,German,,,,"3484640537,9783484640535",,,,,,,,2QC-1f5SQGQC,,,0,,,,1,0,1,1,5412054,pdf,91035375db810b46bdf45dab7bc57d64,,,_480937.91035375db810b46bdf45dab7bc57d64.pdf,0,2000-01-01 01:00:00,2016-04-03 02:51:08,800000/91035375db810b46bdf45dab7bc57d64-d.jpg,,
19820207,The competitive destination: a sustainable tourism perspective,,,,"J. R. Brent Ritchie, Geoffrey Ian Crouch",2003,First,CABI,,291,0,English,,,,"0851996647,9780851996646",,,,,338.4791,,,dCF5W0GHYn0C,OL8280071M,,0,,,,1,0,1,1,2390194,pdf,bbe80d5e9e6a9af2b15b4c032869ada5,,,_480938.bbe80d5e9e6a9af2b15b4c032869ada5.pdf,0,2000-01-01 01:00:00,2016-04-03 02:51:08,800000/bbe80d5e9e6a9af2b15b4c032869ada5-d.jpg,,
19820208,The Princes in the Tower,,,,Alison Weir,1995,,Ballantine,,,0,English,,,,,,,,,,,,GY6fAAAAMAAJ,,Illustrations (Removed by the publisher),0,,,,,0,0,1,318669,epub,03a75602f80fbf392d9be8cad297969d,,,_480940.03a75602f80fbf392d9be8cad297969d.epub,0,2000-01-01 01:00:00,2016-04-03 02:51:08,800000/03a75602f80fbf392d9be8cad297969d-g.jpg,,
19820209,"Mistress of the Monarchy: The Life of Katherine Swynford, Duchess of Lancaster",,,,Alison Weir,2009,,Ballantine Books,,,0,English,,,,9780345512918,,,,,942.038092,,,BuFcR5WlNE8C,OL24273372M,Illustrations (Removed by the publisher),0,,,,,0,0,1,443579,epub,af2aa1cdcfcea3c12d4cd3e74ce9ddee,,,_480941.af2aa1cdcfcea3c12d4cd3e74ce9ddee.epub,0,2000-01-01 01:00:00,2016-04-03 02:51:08,800000/af2aa1cdcfcea3c12d4cd3e74ce9ddee-g.jpg,,
19820210,Innocent Traitor: A Novel of Lady Jane Grey,,,,Alison Weir,2007,,Ballantine Books,,,0,English,,,,9780345498069,,,,,823.92,,,#ИМЯ?,OL24264112M,,0,,,,,0,1,1,559779,epub,8edb737a8ac6738937980139c1101e6e,,,_480942.8edb737a8ac6738937980139c1101e6e.epub,0,2000-01-01 01:00:00,2016-04-03 02:51:08,800000/8edb737a8ac6738937980139c1101e6e-g.jpg,,
19820211,Captive Queen: A Novel of Eleanor of Aquitaine,,,,Alison Weir,2010,,Random House Publishing Group,,,0,English,,,,9780345521958,,,,,823.92,,,MV-KjWLR91IC,,,0,,,,,0,1,1,769326,epub,140503190dcda9c326f4885b5d19326b,,,_480943.140503190dcda9c326f4885b5d19326b.epub,0,2000-01-01 01:00:00,2016-04-03 02:51:08,800000/140503190dcda9c326f4885b5d19326b-g.jpg,,
19820212,The Six Wives of Henry VIII,,,,Alison Weir,2000,,Grove Press,,,0,English,,,,,,,,,,,,uUV3JgWK5dsC,,"Genealogical Tables, Photo inserts (Removed by the publisher)",0,,,,,0,0,1,654466,epub,1a8fe3def29a6511479d0dbb77e00a3c,,,_480944.1a8fe3def29a6511479d0dbb77e00a3c.epub,0,2000-01-01 01:00:00,2016-04-03 02:51:08,800000/1a8fe3def29a6511479d0dbb77e00a3c-g.jpg,,
19820213,Britain's Royal Families: The Complete Genealogy,,,,Alison Weir,2011,,Random House,,,0,English,,,,"1446449114,9781446449110",,,,,,,,7nZ90l1_IzAC,,,0,,,,,0,0,1,451833,epub,00fa1fa7083900b82b2a291e9b9b1a3d,,,_480945.00fa1fa7083900b82b2a291e9b9b1a3d.epub,0,2000-01-01 01:00:00,2016-04-03 02:51:08,800000/00fa1fa7083900b82b2a291e9b9b1a3d-g.jpg,,
19820214,Katherine Swynford: The Story of John of Gaunt and His Scandalous Duchess,,,,Alison Weir,2010,,Vintage Digital,,,0,English,,,,,,,,,,,,,,Illustrations (Removed by the publisher),0,,,,,0,0,1,365310,epub,bad2165683e192940225ed3460132b74,,,_480946.bad2165683e192940225ed3460132b74.epub,0,2000-01-01 01:00:00,2016-04-03 02:51:08,800000/bad2165683e192940225ed3460132b74-g.jpg,,
19820215,"Islam, Orientalism and Intellectual History: Modernity and the Politics of Exclusion since Ibn Khaldun (Library of Middle East History)",,Library of Middle East History volume 8,,Mohammad R. Salama,2011,,Tauris Academic Studies,,289,0,English,,,,"1848850050,9781848850057",,,,,303.4821767101821,,,29jmedLd0jgC,,,0,,,,1,0,1,1,1901694,pdf,cbc6ff956bce9f9065372ac9b553fa3f,,,_480947.cbc6ff956bce9f9065372ac9b553fa3f.pdf,0,2000-01-01 01:00:00,2016-04-03 02:51:08,800000/cbc6ff956bce9f9065372ac9b553fa3f-d.jpg,,
19820216,Well Production Practical Handbook,,,,Henri Cholet (ed.),2008,,Editions Technip,,559,0,English,,,,"2710807726,2710809176,9782710809173",,,,,,,,_NBEGlHrcfgC,OL12525790M,,0,,,,0,0,1,1,16265092,pdf,d50fb895c01a30c85abed2e1860eb8b4,,,_480948.d50fb895c01a30c85abed2e1860eb8b4.pdf,0,2000-01-01 01:00:00,2016-04-03 02:51:08,800000/d50fb895c01a30c85abed2e1860eb8b4-d.jpg,,
19820217,Declarative Agent Languages and Technologies VIII - DALT 2009,,Lecture Notes in Artificial Intelligence volume 6619,,"Andrea Omicini, Sebastian Sardina, Wamberto Vasconcelos",2011,1st Edition.,Springer,,216,0,English,,,,"3642207146,9783642207143",0302-9743,,,,006.3,,10.1007/978-3-642-20715-0,wd4BwBH_t4sC,OL25173413M,,0,,,,1,0,1,1,3192137,pdf,537aada7ed048fa5bf8b01fbf9789d98,,,_480949.537aada7ed048fa5bf8b01fbf9789d98.pdf,0,2000-01-01 01:00:00,2016-04-03 02:51:08,800000/537aada7ed048fa5bf8b01fbf9789d98-d.jpg,,
19820218,Soulstice,,The Devouring volume 2,,Simon Holt,2009,,"Little, Brown and Company",,,0,English,,,,"9780316071413,0316071412",,,,,,,,qOyQvpHSMi0C,OL24271812M,,0,,,,,0,1,1,510003,epub,0e988ec4cf46dee97ee113e4a51ca718,,,_480951.0e988ec4cf46dee97ee113e4a51ca718.epub,0,2000-01-01 01:00:00,2016-04-03 02:51:08,800000/0e988ec4cf46dee97ee113e4a51ca718-g.jpg,,
19820219,Cryptographic Hardware and Embedded Systems - CHES 2011,,Lecture Notes in Computer Science volume 6917,,"Bart Preneel, Tsuyoshi Takagi",2011,1st Edition.,Springer,,539,0,English,,,,"3642239501,9783642239502",0302-9743,,,,,,10.1007/978-3-642-23951-9,8X0U1T3vmmsC,,,0,,,,1,0,1,1,10857952,pdf,41ee94528a8cccc28713d9bbf6dc34aa,,,_480952.41ee94528a8cccc28713d9bbf6dc34aa.pdf,0,2000-01-01 01:00:00,2016-04-03 02:51:08,800000/41ee94528a8cccc28713d9bbf6dc34aa-d.jpg,,
19820220,Arithmetic Graphs,,,,Dileepkumar R,,,,,148,0,English,,,,,,,,,,,,,,,0,,,,,0,0,1,6738184,pdf,640c012f63f8632a7a197de6d928abbd,,,_480953.640c012f63f8632a7a197de6d928abbd.pdf,0,2000-01-01 01:00:00,2016-04-03 02:51:08,800000/640c012f63f8632a7a197de6d928abbd-g.jpg,,
19820221,Nanomaterials: Risks and Benefits (NATO Science for Peace and Security Series C: Environmental Security),,NATO Science for Peace and Security Series C: Environmental Security,,"Igor Linkov, Jeffery A. Steevens (eds.)",2009,1,Springer Science + Business Media B.V.,,454,0,English,,,,"1402094892,9781402094897,9781402094903,9781402094910",,,,,620.50289,,,,,,0,,,,,0,1,1,8651503,pdf,e51a19d69b40b4460fcef6fcfdee0dc3,,,_480954.e51a19d69b40b4460fcef6fcfdee0dc3.pdf,0,2000-01-01 01:00:00,2016-04-03 02:51:08,800000/e51a19d69b40b4460fcef6fcfdee0dc3-d.jpg,,
