5699158,Pediatric Psychopharmacology: Principles and Practice,,,,"Andres Martin, Lawrence Scahill, Dennis S. Charney, James F. Leckman",2002,1,"Oxford University Press, USA",,814,0,English,Химия//Фармакология,avaxhome.ws,,"9780195141733,0195141733",,,,,615/.78,RJ504.7 .P397 2003,,,OL18478985M,17260,0,,,,,,,T,7570603,pdf,96EBF764D9373DC0526EC29EB236B85E,,,Y. dl_avaxhome 17260  _=Pediatric_Psychopharmacology.pdf,0,2000-01-01 01:00:00,2016-04-03 02:51:08,261000/96ebf764d9373dc0526ec29eb236b85e-d.jpg,,
5699159,Photoshop For Right-Brainers: The Art of Photomanipulation,,,,Al Ward,2009,3,Sybex,,291,0,English,Компьютеры//Программы//Продукты Adobe,avaxhome.ws,,"9780470397015,0470397012",,,,,006.6/86,T385 .W369 2009,,,OL22696765M,16731,0,,,,,,,,36859181,pdf,9763A44277BE9EE6E94E7C2CAE64BD85,,,Y. dl_avaxhome 16731  _=6347476.pdf,0,2000-01-01 01:00:00,2016-04-03 02:51:08,261000/9763a44277be9ee6e94e7c2cae64bd85-d.jpg,,
5699157,The Really Useful Literacy Book: Being Creative with Literacy in the Primary Classroom,,The Really Useful Series,,"Tony Martin, Chira Lovat, Glynis Purnell",2008,2,Routledge,,301,0,English,Образование,avaxhome.ws,,"0415431654,9780415431651,9780203932704",,,,,372.6,LB1576 .M3795 2008,,,OL10206272M,22191,0,,,,,1,,T,9984696,pdf,96BF0339075485DFE7971DE42E023714,,,Y. dl_avaxhome 22191  _=aa31.pdf,0,2000-01-01 01:00:00,2016-04-03 02:51:08,261000/96bf0339075485dfe7971de42e023714-d.jpg,,
5699155,European Weapons and Armour,,,,Ewart Oakeshott,2000,,Boydell Press,,155,0,English,История,avaxhome.ws,,0851157890,,,,,,,,,,23647,0,,,,,,,0,21102241,pdf,9601490CBE017685B968F0E06BB7EE2D,,,Y. dl_avaxhome 23647  _=European_Weapons_Armour.pdf,0,2000-01-01 01:00:00,2016-04-03 02:51:08,261000/9601490cbe017685b968f0e06bb7ee2d-d.jpg,,
5699156,Just Tell Them I Survived: Women in Antarctica,,,,Dr Robin Burns,2008,,Allen & Unwin Pty LTD,,249,0,English,"Домоводство, досуг",avaxhome.ws,,"9781865083827,1865083828",,,,,919.8/9/0082,G872.A7 .B87 2001,,,OL3627670M,24944,0,,,,,,,T,5293175,pdf,9690BBDD68B52453904C29D3ABC2597D,,,Y. dl_avaxhome 24944  _=ee06.pdf,0,2000-01-01 01:00:00,2016-04-03 02:51:08,261000/9690bbdd68b52453904c29d3abc2597d-d.jpg,,
5699154,"Neoplasms of the Colon, Rectum, and Anus, ",,,,"Philip H. Gordon, Santhat Nivatvongs",2007,2,Informa Healthcare,,412,0,English,Медицина,avaxhome.ws,,"0824729595,9780824729592",,,,,616.99/4347,RC280.C6 G67 2007,,,OL21896130M,21028,0,,,,,,,1,16740431,pdf,95B74224C815F36324A1C77A54A827F0,,,Y. dl_avaxhome 21028  _=NeoplasmCol.pdf,0,2000-01-01 01:00:00,2016-04-03 02:51:08,261000/95b74224c815f36324a1c77a54a827f0-d.jpg,,
5699153,Maximizing Your Sales with Salesforce.com,,,,"Edward Kachinske, Stacy Roach, Carol Gilliland, Timothy Kachinske",2008,1,Course Technology PTR,,272,0,English,Компьютеры//Информационные системы,avaxhome.ws,,"9781598635621,159863562X",,,,,,,,,OL22521834M,17615,0,,,,,,,T,8247302,pdf,95733149B30644A7DF3DB1264CE26B98,,,Y. dl_avaxhome 17615  _=Maximizing_Your_Sales.pdf,0,2000-01-01 01:00:00,2016-04-03 02:51:08,261000/95733149b30644a7df3db1264ce26b98-d.jpg,,
5699152,Fraud Casebook: Lessons from the Bad Side of Business,,,,Joseph T. Wells,2007,,Wiley,,625,0,English,Бизнес,avaxhome.ws,,"9780470134689,0470134682",,,,,363.25/963,HV6691 .F737 2007,,,OL17178839M,23748,0,,,,,,,1,5743611,pdf,95585771AC43487D569A6B8DEA5EB28E,,,Y. dl_avaxhome 23748  _=W9780.pdf,0,2000-01-01 01:00:00,2016-04-03 02:51:08,261000/95585771ac43487d569a6b8dea5eb28e-d.jpg,,
5699150,"Wrestling With an Angel: Power, Morality, and Jewish Identity",,,,"Ehud Luz, Michael Swirsky",2003,,Yale University Press,,363,0,English,Общественные науки прочие//Философия,avaxhome.ws,,"9780300092936,0300092938",,,,,,,,,OL10318753M,16878,0,,,,,,,T,1223667,pdf,95075234B373FF8080CAFDF4CC62FB5D,,,Y. dl_avaxhome 16878  _=0300092938.pdf,0,2000-01-01 01:00:00,2016-04-03 02:51:08,261000/95075234b373ff8080cafdf4cc62fb5d-d.jpg,,
5699151,Water Privatisation: Trans-National Corporations and the Re-regulation of the Water Industry,,Spon's Environmental Science and Engineering Series,,"Jeremy Allouche, Matthias Finger",2001,1,Spon Press,,262,0,English,Техника//Водоочистка,avaxhome.ws,,"9780415232081,0415232082,0203302486,9780203302484,9780203354308",,,,,363.6/1,HD4456 .F564 2001,,,OL16240534M,19002,0,,,,,1,,T,1543399,pdf,9523F0BAC3672074F8B77101539C8FE6,,,Y. dl_avaxhome 19002  _=Water_Privatisation.pdf,0,2000-01-01 01:00:00,2016-04-03 02:51:08,261000/9523f0bac3672074f8b77101539c8fe6-d.jpg,,
5699149,Mathematical Foundations of Information Theory,,,,A. Ya. Khinchin,1957,,Dover Publications,,142,0,English,Математика,avaxhome.ws,,"9780486604343,0486604349",,,,,,,,,,23229,0,,,,,,,T,10050210,djvu,94A89EB675E29A434121677A00617F0C,,,Y. dl_avaxhome 23229  _=84202.090503121939.djvu,0,2000-01-01 01:00:00,2016-04-03 02:51:08,261000/94a89eb675e29a434121677a00617f0c-d.jpg,,
5699148,The World Is Flat 3.0: A Brief History of the Twenty-first Century,,,,Thomas L. Friedman,2007,,Picador,,674,0,English,История,avaxhome.ws,,"9780312425074,0312425074",,,,,,,,,OL9818252M,24333,0,,,,,,,T,9527631,pdf,945C287348881D93A7D3F2C212577438,,,Y. dl_avaxhome 24333  _=Friedman-twif3.pdf,0,2000-01-01 01:00:00,2016-04-03 02:51:08,261000/945c287348881d93a7d3f2c212577438-d.jpg,,
5699147,"Kashmir in Conflict: India, Pakistan And the Unending War",,,,Victoria Schofield,2003,,Diane Pub Co,,314,0,English,Общественные науки прочие,avaxhome.ws,,"9780756791094,075679109X",,,,,,,,,OL9499361M,22473,0,,,,,,,T,9639945,pdf,94236126CEBC3B75BF9ADFCD6D4541D2,,,Y. dl_avaxhome 22473  _=nn35.pdf,0,2000-01-01 01:00:00,2016-04-03 02:51:08,261000/94236126cebc3b75bf9adfcd6d4541d2-g.jpg,,
5699146,"Physicians and Surgeons in Glasgow, 1599-1858: The History of the Royal College of Physicians and Surgeons of Glasgow",Volume 1,,,"Johanna Geyer-Kordesch, Fiona Macdonald",2003,,Hambledon & London,,505,0,English,Физика,avaxhome.ws,,"9781852851866,1852851864",,,,,610.71141443,,,,OL11958313M,17239,0,,,,,,,T,32016249,pdf,942337D7721C82CB20511ACBB9D8C2B6,,,Y. dl_avaxhome 17239  _=1852852615_Glasgow_2.pdf,0,2000-01-01 01:00:00,2016-04-03 02:51:08,261000/942337d7721c82cb20511acbb9d8c2b6-d.jpg,,
5699145,Inventive Strategies for Teaching Mathematics: Implementing Standards for Reform,,Psychology in the Classroom,,"James A. Middleton, Polly Goepfert",1996,1,American Psychological Association (APA),,164,0,English,Математика,avaxhome.ws,,"9781557983688,1557983682",,,,,510/.71,QA11 .M4964 1996,,,OL976352M,20378,0,,,,,,,T,6651671,pdf,9420E792AFD20103FF9A0D66CB0AFCA8,,,Y. dl_avaxhome 20378  _=InventiveStrategies_TeachingMathematics.pdf,0,2000-01-01 01:00:00,2016-04-03 02:51:08,261000/9420e792afd20103ff9a0d66cb0afca8-g.jpg,,
5699143,Solving in Style,,,,John Nunn,2002,2nd,Gambit Publications,,260,0,English,"Домоводство, досуг//Игры//Шахматы",avaxhome.ws,,"9781901983661,1901983668",,,,,,,,,OL8764353M,17360,0,,,,,,,,13769843,pdf,9355158C91518C46DF3C2A8005F079FE,,,Y. dl_avaxhome 17360  _=Nunn.Solving.in.style_downarchive.com.pdf,0,2000-01-01 01:00:00,2016-04-03 02:51:08,261000/9355158c91518c46df3c2a8005f079fe-d.jpg,,
5699144,Surpassing Realism: The Politics of European Integration since 1945,,Governance in Europe,,Mark F. Gilbert,2003,,"Rowman & Littlefield Publishers, Inc.",,299,0,English,История,avaxhome.ws,,"9780742519145,0742519147",,,,,,,,,OL22538762M,24727,0,,,,,,,T,21483646,pdf,939F99855575D896268A87F16D29706E,,,Y. dl_avaxhome 24727  _=Surpassing_Realism.pdf,0,2000-01-01 01:00:00,2016-04-03 02:51:08,261000/939f99855575d896268a87f16d29706e-d.jpg,,
5699142,Trading Secrets of the Inner Circle,,,,Andrew Goodwin,1997,,Traders Press,,96,0,English,Экономика,avaxhome.ws,,"9780934380409,0934380406",,,,,,,,,,20941,0,,,,,,,,6355713,pdf,934A27E5113FC0E8BDB328A4F45DC633,,,Y. dl_avaxhome 20941  _=TradingSecrets.pdf,0,2000-01-01 01:00:00,2016-04-03 02:51:08,261000/934a27e5113fc0e8bdb328a4f45dc633-d.jpg,,
5699141,"Sultana: Surviving the Civil War, Prison, and the Worst Maritime Disaster in American History",,,,Alan Huffman,2009,1St Edition,Smithsonian,,315,0,English,История,avaxhome.ws,,"9780061470547,0061470546,9780061785542",,,,,973.7/71,E595.S84 H84 2009,,,OL22541615M,16535,0,,,,,1,,T,1101495,pdf,931A39D27A7969A00F1F5CE46446DC8C,,,Y. dl_avaxhome 16535  _=Sultana.pdf,0,2000-01-01 01:00:00,2016-04-03 02:51:08,261000/931a39d27a7969a00f1f5ce46446dc8c-d.jpg,,
5699140,"Chemical Reactor Design, Optimization, and Scaleup",,,,E. Bruce Nauman,2008,2,Wiley-AIChE,,643,0,English,Химия,avaxhome.ws,,"0470105259,9780470105252,9780470282069",,,,,660/.2832,TP157 .N393 2008,,,OL10279389M,20937,0,,,,,,,T,3035799,pdf,92F8A93A2298E6A5413346EE314C1FC0,,,Y. dl_avaxhome 20937  _=0470105259.pdf,0,2000-01-01 01:00:00,2016-04-03 02:51:08,261000/92f8a93a2298e6a5413346ee314c1fc0-d.jpg,,
5699139,The Theory of Money and Credit,,Lib Works Ludwig Von Mises PB,,"Ludwig von Mises, H.E. Batson",1981,,Liberty Fund Inc.,,302,0,English,Бизнес,avaxhome.ws,,"9780913966716,0913966711",,,,,332.4/01,HG221 .V652 1980,,,OL4421373M,21267,0,,,,,,,1,1542308,pdf,92E67CA99E5796F2C48AB937D540FD59,,,Y. dl_avaxhome 21267  _=thetheoryofmoneyandcredit.pdf,0,2000-01-01 01:00:00,2016-04-03 02:51:08,261000/92e67ca99e5796f2c48ab937d540fd59-d.jpg,,
5699136,"Social Protection & Labor at the World Bank, 2000-2008",,,,"Robert Holzmann, Robert Holzmann",2008,,World Bank Publications,,258,0,English,Экономика,avaxhome.ws,,"0821376489,9780821376485,9780821376546",,,,,332.1/532091724,HC60 .S619 2009,,,OL16909966M,17802,0,,,,,,,T,2948140,pdf,91AFF447D40385B2DCC9CB831CFBA213,,,Y. dl_avaxhome 17802  _=0821376489_Social_Protection.pdf,0,2000-01-01 01:00:00,2016-04-03 02:51:08,261000/91aff447d40385b2dcc9cb831cfba213-d.jpg ,,
5699137,Design Sketching,,,,"Erik Olofsson, Klara Sjolen",2006,2nd,KEEOS Design books AB,,54,0,English,Искусство//Графические виды искусства,avaxhome.ws,,"9789163173943,9163173948",,,,,,,,,,16518,0,,,,,,,,69977202,pdf,929A5E1C6D087F3D14F8A6314531D60A,,,Y. dl_avaxhome 16518  _=nggnhcsediktes.pdf,0,2000-01-01 01:00:00,2016-04-03 02:51:08,261000/929a5e1c6d087f3d14f8a6314531d60a-d.jpg,,
5699138,Biogeochemical Controls on Palaeoceanographic Environmental Proxies,,Geological Society Special Publication Special Publication no 303,,"W. E. N. Austin, R. H. James, W. E. N. Austin, R. H. James",2008,,Geological Society of London,,195,0,English,Химия,avaxhome.ws,,"9781862392571,1862392579",,,,,551.4686,QH344 .B55 2008,,,OL23231390M,18912,0,,,,,,,,5956495,pdf,92AD99ECA1BFDB8EC84C52C5A7785B17,,,Y. dl_avaxhome 18912  _=gsiortehmgenginla.pdf,0,2000-01-01 01:00:00,2016-04-03 02:51:08,261000/92ad99eca1bfdb8ec84c52c5a7785b17-d.jpg,,
5699133,Electronic Materials: The Oligomer Approach,,,,Ian McConachie,2006,2,Cambridge University Press,,453,0,English,Техника//Электроника,avaxhome.ws,,"9780511508028,9780521682473,9781841101903,0521682479,1841101907",,,,,,,,,OL22244755M,16524,0,,,,,1,,T,1537547,pdf,9127DFA700EDABE08D22CC068B973743,,,Y. dl_avaxhome 16524  _=Handbook_of_ICU_Therapy.pdf,0,2000-01-01 01:00:00,2016-04-03 02:51:08,261000/9127dfa700edabe08d22cc068b973743-d.jpg,,
5699134,Illuminations: Essays and Reflections,,,,"Walter Benjamin, Hannah Arendt, Hannah Arendt, Harry Zohn",1999,first Schocken paperback edition,Schocken,,288,0,English,Общественные науки прочие//Философия,avaxhome.ws,,"9780805202410,0805202412",,,,,809,PN37 .B4413 1986,,,OL21155050M,20837,0,,,,,,,1,16123449,pdf,912B97F19DDFE0F52D26FA819440B240,,,Y. dl_avaxhome 20837  _=ben.pdf,0,2000-01-01 01:00:00,2016-04-03 02:51:08,261000/912b97f19ddfe0f52d26fa819440b240-d.jpg,,
5699135,Conservation Laws,,"Introductory Physics Textbooks series, volume 2",,Benjamin Crowell,1998,,lightandmatter,,171,0,English,Юридические науки//Право,avaxhome.ws,,"9780970467027,0970467028",,,,,,,,,,19581,0,,,,,,,T,8726559,pdf,915678CA797B023F356CAF8EB2DF5EA2,,,Y. dl_avaxhome 19581  _=ConsLaws.pdf,0,2000-01-01 01:00:00,2016-04-03 02:51:08,261000/915678ca797b023f356caf8eb2df5ea2-g.jpg,,
5699132,Dynamic programming and the calculus of variations,,Mathematics in Science and Engineering 21,,Dreyfus,1965,1st US Edition 1st Printing,Academic Press,,538,0,English,Компьютеры//Программирование,avaxhome.ws,,"9780122218507,0122218507",,,,,,,,,,17758,0,,,,,,,T,6758445,djvu,90EDD7AAA8FB17335BC7F6B1A83D0FB7,,,Y. dl_avaxhome 17758  _=dreyfus_dynamic.djvu,0,2000-01-01 01:00:00,2016-04-03 02:51:08,261000/90edd7aaa8fb17335bc7f6b1a83d0fb7-d.jpg,,
5699131,To the Boy in Berlin,,,,"Elizabeth Honey, Heike Brandt",2007,,Allen & Unwin,,288,0,English,"Домоводство, досуг",avaxhome.ws,,"9781741750041,1741750040",,,,,,,,,,22590,0,,,,,,,T,5418609,pdf,90A7ADB6CD06E03B5B8D71F4C4A9F483,,,Y. dl_avaxhome 22590  _=1741750040.pdf,0,2000-01-01 01:00:00,2016-04-03 02:51:08,261000/90a7adb6cd06e03b5b8d71f4c4a9f483-d.jpg,,
5699130,Cardiovascular Emergencies,,Cardiovascular medicine,,"Crispin Davies, Yaver Bashir",2001,1,BMJ Books,,401,0,English,Медицина,avaxhome.ws,,"9780727914842,0727914847",,,,,,,,,OL7868392M,19847,0,,,,,,,T,4342705,pdf,908E35A83045B5E6817E39D466EF79B9,,,Y. dl_avaxhome 19847  _=CardiovascularEmergencies.pdf,0,2000-01-01 01:00:00,2016-04-03 02:51:08,261000/908e35a83045b5e6817e39d466ef79b9-d.jpg,,
5699129,Integrated Pest Management for Crops and Pastures,,Landlinks Press,,"Paul A. Horne, Jessica Page",2008,,CSIRO Publishing,,134,0,English,Бизнес//менеджмент,avaxhome.ws,,"0643092579,9780643092570,9780643095625",,,,,,,,,OL23158822M,21188,0,,,,,,,T,5413696,pdf,8FA2E62DDBBEF61972E0131A4DC851EE,,,Y. dl_avaxhome 21188  _=rr22.pdf,0,2000-01-01 01:00:00,2016-04-03 02:51:08,261000/8fa2e62ddbbef61972e0131a4dc851ee-d.jpg,,
5699128,Alternate Energy: Assessment and Implementation Reference Book,,,,James J. Winebrake,2003,,Fairmont Press,,257,0,English,,avaxhome.ws,,"9780881734379,0881734373",,,,,,,,,OL9699977M,21106,0,,,,,,,T,3776442,pdf,8FA10C169C2714ED2871DBFEEBE7BFF4,,,Y. dl_avaxhome 21106  _=AlteEner.pdf,0,2000-01-01 01:00:00,2016-04-03 02:51:08,261000/8fa10c169c2714ed2871dbfeebe7bff4-g.jpg,,
5699127,Flash Journalism: How to Create Multimedia News Packages,,,,Mindy McAdams,2005,,Focal Press,,519,0,English,programming_development,avaxhome.ws,,"9780240806976,0240806972",,,,,070.4,PN4784.O62 M38 2005,,,OL3296738M,24789,0,,,,,,,T,18893626,pdf,8F0C43B963BA104F1508B590FD190FEF,,,Y. dl_avaxhome 24789 big06972  _=Flash Journalism - How to Create Multimedia News Packages.pdf,0,2000-01-01 01:00:00,2016-04-03 02:51:08,261000/8f0c43b963ba104f1508b590fd190fef-d.jpg,,
5699126,The Art & Elegance of Beadweaving,,,,Carol Wilcox Wells,2003,1,Lark Books,,139,0,English,"Домоводство, досуг",avaxhome.ws,,"9781579905330,1579905331",,,,,,,,,OL8759583M,23700,0,,,,,,,,31627757,pdf,8ED750FFF58F00DD3B0544AA53E6D11F,,,Y. dl_avaxhome 23700  _=ArtBeadw.pdf,0,2000-01-01 01:00:00,2016-04-03 02:51:08,261000/8ed750fff58f00dd3b0544aa53e6d11f-d.jpg,,
5699124,Spelling Steps 3,,Spelling Steps,,Laurel and Associates,2006,,"Saddleback Educational Publishing, Inc.",,173,0,English,Образование,avaxhome.ws,,"1562541463,9781562541460",,,,,,,,,OL8640389M,22210,0,,,,,,,T,1298927,pdf,8EA2474730811E90321142653E928331,,,Y. dl_avaxhome 22210  _=aa10.pdf,0,2000-01-01 01:00:00,2016-04-03 02:51:08,261000/8ea2474730811e90321142653e928331-g.jpg,,
5699125,"Nurse's Pocket Guide: Diagnoses, Interventions, and Rationales",,"Nurse's Pocket Guide: Diagnoses, Interventions & Rationales",,"Marilynn E. Doenges, Mary Frances Moorhouse, Alice C. Murr",2004,9th,F. A. Davis Company,,788,0,English,,avaxhome.ws,,"9780803611795,080361179X",,,,,,,,,OL9620479M,22004,0,,,,,,,,4320679,pdf,8ECCEC55DC36A10FF3C3B8A817D5EB33,,,Y. dl_avaxhome 22004  _=080361179X_Nurse_s_Pocket_Guide9.pdf,0,2000-01-01 01:00:00,2016-04-03 02:51:08,261000/8eccec55dc36a10ff3c3b8a817d5eb33-d.jpg,,
5699122,The Wearing of the Green: A History of St Patrick's Day,,,,"Mike Cronin, Daryl Adair",2001,1,Routledge,,347,0,English,История,avaxhome.ws,,"9780415180047,041518004X",,,,,,,,,OL15507111M,24372,0,,,,,,,T,5796018,pdf,8E456F35C5B673E71BBF9601578766A0,,,Y. dl_avaxhome 24372  _=gg28.pdf,0,2000-01-01 01:00:00,2016-04-03 02:51:08,261000/8e456f35c5b673e71bbf9601578766a0-d.jpg,,
5699123,Helping Children to be Strong,,From Birth to Three Series,,"Ann Roberts, Avril Harpley",2007,1,David Fulton Publishers,,96,0,English,"Домоводство, досуг",avaxhome.ws,,"1843124513,9781843124511,9780203931738",,,,,305.2/31,LB1117 .R59 2007,,,OL11903141M,20544,0,,,,,1,,T,5899473,pdf,8E95D5F31903099613732C580F2B5CD4,,,Y. dl_avaxhome 20544  _=ww04.pdf,0,2000-01-01 01:00:00,2016-04-03 02:51:08,261000/8e95d5f31903099613732c580f2b5cd4-d.jpg,,
5699121,Your Business Your Pension: How to Use Your Business to Provide for a Better Retirement,,,,John Whiteley,2006,,How to Books,,208,0,English,Образование,avaxhome.ws,,"9781845280420,1845280423",,,,,,,,,OL11911704M,18874,0,,,,,,,T,15813944,pdf,8E44C6622C16BB984F5D1AF2C8013701,,,Y. dl_avaxhome 18874  _=a32.pdf,0,2000-01-01 01:00:00,2016-04-03 02:51:08,261000/8e44c6622c16bb984f5d1af2c8013701-d.jpg,,
5699119,"Pleasures of Pi,e and Other Interesting Numbers",,,,Y. E. O. Adrian,2006,,World Scientific Publishing Company,,268,0,English,Математика//Теория чисел,avaxhome.ws,,"9812700781,9789812700780",,,,,,,,,OL9198026M,20169,0,,,,1,1,,1,23037039,pdf,8D9DD001AA0B5F5313A53378667BABF2,,,Y. dl_avaxhome 20169  _=PleasNumb.pdf,0,2000-01-01 01:00:00,2016-04-03 02:51:08,261000/8d9dd001aa0b5f5313a53378667babf2-d.jpg,,
5699120,"The New Heat Theorem,: Its Foundations in Theory and Experiment",,,,Walther Nernst,1969,,Dover Publications,,311,0,English,Химия,avaxhome.ws,,"9780486622521,0486622525",,,,,536/.71,QC311 .N4513 1969,,,OL5683757M,23831,0,,,,,,,,7788074,djvu,8E03C07033FF6EC912F1A0186B076104,,,Y. dl_avaxhome 23831  _=25162.090501141044.djvu,0,2000-01-01 01:00:00,2016-04-03 02:51:08,261000/8e03c07033ff6ec912f1a0186b076104-g.jpg,,
5699117,Everybody Knows: Cynicism in America,,,,William Chaloupka,1999,1st,University of Minnesota Press,,261,0,English,Общественные науки прочие,avaxhome.ws,,"9780816633104,081663310X",,,,,,,,,OL8070342M,24624,0,,,,,,,T,5930190,pdf,8D2DE0263198897123A24E60E4A8AECA,,,Y. dl_avaxhome 24624  _=dd29.pdf,0,2000-01-01 01:00:00,2016-04-03 02:51:08,261000/8d2de0263198897123a24e60e4a8aeca-d.jpg,,
5699118,The Most Dreadful Visitation: Male Madness in Victorian Fiction,,Liverpool University Press - Liverpool English Texts & Studies,,Valerie Pedlar,2007,annotated edition,Liverpool University Press,,193,0,English,Литература//Проза,avaxhome.ws,,"9780853238393,0853238391",,,,,,,,,OL11607236M,21138,0,,,,,,,T,3706335,pdf,8D7BE21DE6C8D78A275DF85CFFB73B89,,,Y. dl_avaxhome 21138  _=0853238391_Most_Dreadful.pdf,0,2000-01-01 01:00:00,2016-04-03 02:51:08,261000/8d7be21de6c8d78a275df85cffb73b89-d.jpg,,
5699114,QuickBooks 2007 QuickSteps,,,,Cindy Fox,2007,1,McGraw-Hill Osborne Media,,242,0,English,,avaxhome.ws,,"9780071487672,0071487670",,,,,657/.9042/0285536,HF5679 .F69 2007,,,OL23109638M,20989,0,,,,,,,,14602229,pdf,8D0784C0C1FDE0163979A804E671E025,,,Y. dl_avaxhome 20989  _=QuickBooks_202007_20QuickSteps.pdf,0,2000-01-01 01:00:00,2016-04-03 02:51:08,261000/8d0784c0c1fde0163979a804e671e025-d.jpg,,
5699115,The New Cambridge English Course 4 Student's book,Bk. 4,Bk. 4,,"Michael Swan, Catherine Walter, Desmond O'Sullivan",1993,,Cambridge University Press,,116,0,English,Языкознание,avaxhome.ws,,"0521376408,9780521376402",,,,,,,,,OL7738592M,20921,0,,,,,1,,,90220826,pdf,8D2B3609E2987E353CB2C9DE48592632,,,Y. dl_avaxhome 20921  _=0521376408.PDF,0,2000-01-01 01:00:00,2016-04-03 02:51:08,261000/8d2b3609e2987e353cb2c9de48592632-d.jpg,,
5699116,The Neanderthal Legacy,,,,Paul Mellars,1995,,Princeton University Press,,494,0,English,История,avaxhome.ws,,"9780691034935,0691034931",,,,,936,GN285 .M45 1996,,,OL1272955M,20444,0,,,,,,,,75947646,pdf,8D2D0258F7D40BEED5DDD7EDCE2B7BEF,,,Y. dl_avaxhome 20444  _=b0691034931.pdf,0,2000-01-01 01:00:00,2016-04-03 02:51:08,261000/8d2d0258f7d40beed5ddd7edce2b7bef-d.gif,,
5699112,Qualitative Data: An Introduction to Coding and Analysis,,Qualitative Studies in Psychology,,"Carl Auerbach, Louise B. Silverstein",2003,1,NYU Press,,217,0,English,Компьютеры//Организация и обработка данных,avaxhome.ws,,"9780814706947,0814706940",,,,,,,,,OL15555542M,18868,0,,,,,,,T,5777512,pdf,8CE25B7568571555E29C4F858BF40ECE,,,Y. dl_avaxhome 18868  _=a37.pdf,0,2000-01-01 01:00:00,2016-04-03 02:51:08,261000/8ce25b7568571555e29c4f858bf40ece-d.jpg,,
5699113,"Cyanide in Water and Soil: Chemistry, Risk, and Management",,,,"David A. Dzombak, Rajat S. Ghosh, George M. Wong-Chong",2005,1,CRC Press,,602,0,English,Техника//Водоочистка,avaxhome.ws,,"9781566706667,1566706661",,,,,628.5/2,TD427.C9 D97 2005,,,OL3425816M,22215,0,,,,,,,T,10557686,pdf,8CF9501859C84AD6732C6EF1CD82DD58,,,Y. dl_avaxhome 22215  _=aa05.pdf,0,2000-01-01 01:00:00,2016-04-03 02:51:08,261000/8cf9501859c84ad6732c6ef1cd82dd58-d.jpg,,
5699111,"Globalisation, Regionalism and Economic Interdependence",,,,"Filippo di Mauro, Stéphane Dees, Warwick J. McKibbin",2009,,Cambridge University Press,,183,0,English,Экономика,avaxhome.ws,,"9780521886062,0521886066",,,,,337,HF1418.5 .G5735 2008,,,OL16925450M,18749,0,,,,,,,T,1919383,pdf,8C62324DCC519C963D40FA1BA6D42D57,,,Y. dl_avaxhome 18749  _=Globalisation.pdf,0,2000-01-01 01:00:00,2016-04-03 02:51:08,261000/8c62324dcc519c963d40fa1ba6d42d57-d.jpg,,
5699109,Backyard Stars: A Guide for Home and the Road,,Klutz Guides,,Inc. Klutz,1998,illustrated edition,Klutz,,16,0,English,Образование,avaxhome.ws,,"9781570541728,1570541728",,,,,,,,,OL8696925M,19125,0,,,,,,,,5800829,pdf,8BE9FDEF60C527F3DF39011766AF811C,,,Y. dl_avaxhome 19125  _=kbyrstrsarkut.pdf,0,2000-01-01 01:00:00,2016-04-03 02:51:08,261000/8be9fdef60c527f3df39011766af811c-d.jpg,,
5699110,The Puzzle Instinct: The Meaning of Puzzles in Human Life,,,,Marcel Danesi,2002,,Indiana University Press,,282,0,English,Психология,avaxhome.ws,,"9780253340948,0253340942",,,,,,,,,OL9567729M,21293,0,,,,,,,,19136342,pdf,8BF9648631718C184225C50137D62825,,,Y. dl_avaxhome 21293  _=PuzzlIns.pdf,0,2000-01-01 01:00:00,2016-04-03 02:51:08,261000/8bf9648631718c184225c50137d62825-d.jpg,,
5699107,Vedanta Philosophy - Five Lectures On Reincarnation,,,,Swami Abhedananda,2007,,"NuVision Publications, LLC",,57,0,English,Общественные науки прочие//Философия,avaxhome.ws,,"9781595478931,1595478930",,,,,,,,,OL9316398M,18936,0,,,,,,,T,1121496,pdf,8A5618BBCD3C4097C57C15A1325626A1,,,Y. dl_avaxhome 18936  _=1595478930 - Vedanta Philosophy - Five Lectures on Reincarnation.pdf,0,2000-01-01 01:00:00,2016-04-03 02:51:08,261000/8a5618bbcd3c4097c57c15a1325626a1-d.jpg,,
5699108,Handbook of Vibrational Spectroscopy,5 Volume Set,,,"John Chalmers, Peter Griffiths",2002,1,Wiley,,4595,0,English,Физика//Механика//Колебания и волны,avaxhome.ws,,"9780471988472,0471988472",,,,,,,,,OL9874371M,19840,0,,,,,,,,71206393,pdf,8B5D074B9B246BEB1D151B1CE9858E4B,,,Y. dl_avaxhome 19840  _=Vibrational_spectroscopy.pdf,0,2000-01-01 01:00:00,2016-04-03 02:51:08,261000/8b5d074b9b246beb1d151b1ce9858e4b-d.jpg,,
5699106,Jane Austen: The World of Her Novels,,,,Deirdre Le Faye,2002,,Harry N. Abrams,,324,0,English,История,avaxhome.ws,0,"9780810932852,0810932857",,,,,,,,,OL15376055M,22302,0,,,,,1,,T,13905669,pdf,89ECEF5221C41DE0C96049FAD8DB072A,,,Y. dl_avaxhome 22302  _=LeFaye-jatwohn.pdf,0,2000-01-01 01:00:00,2016-04-03 02:51:08,261000/89ecef5221c41de0c96049fad8db072a-d.jpg,,
5699104,"Buckling and Postbuckling Structures: Experimental, Analytical and Numerical Studies",,Computational and Experiemental Methods in Structures,,"B. G. Falzon, B. G. Falzon, Aliabadi. M. H.",2008,illustrated edition,Imperial College Press,,526,0,English,Математика//Вычислительная математика,avaxhome.ws,,"9781860947940,1860947948",,,,,624.171 22,TA656.2 .B834 2008,,,OL12055610M,17776,0,,,,,,,1,43975039,pdf,88216ECA23178036F38CCB66C3202C54,,,Y. dl_avaxhome 17776  _=1860947948.pdf,0,2000-01-01 01:00:00,2016-04-03 02:51:08,261000/88216eca23178036f38ccb66c3202c54-d.jpg,,
5699105,Linux Application Development Using Websphere Studio 5,,,,"IBM Redbooks, Osamu Takagiwa",2003,,IBM.Com/Redbooks,,222,0,English,Компьютеры//Сети//Интернет,avaxhome.ws,,"9780738427911,0738427918",,,,,,,,,OL10606890M,19190,0,,,,,,,T,3356344,pdf,88F7C0F0EFF8122FC71C8C318EA660BF,,,Y. dl_avaxhome 19190  _=sg246431.pdf,0,2000-01-01 01:00:00,2016-04-03 02:51:08,261000/88f7c0f0eff8122fc71c8c318ea660bf-g.jpg,,
5699102,Red Stars in the Sky: Soviet Air Force in World War Two,Volume 2,Neuvostoliiton Ilmavoimat Ii Maailmansodassa,,Carl Fredrik Geust,1981,,Tietoteos,,52,0,English,История,avaxhome.ws,,"9789519035598,9519035591",,,,,,,,,,21548,0,,,,,,,,8682968,pdf,87E64851426820B1F0C6F5D3C665F5B1,,,Y. dl_avaxhome 21548  _=Red_Stars_2.pdf,0,2000-01-01 01:00:00,2016-04-03 02:51:08,261000/87e64851426820b1f0c6f5d3c665f5b1-g.jpg,,
5699103,"Helping Bereaved Children, : A Handbook for Practitioners",,,,Nancy Boyd Webb DSW  BCD  RPT-S,2002,Second Edition,The Guilford Press,,432,0,English,,avaxhome.ws,,"9781572306325,1572306327",,,,,,,,,OL18171922M,22209,0,,,,,,,T,2253121,pdf,881620BC4142DF84F90751C8BACD594B,,,Y. dl_avaxhome 22209  _=aa11.pdf,0,2000-01-01 01:00:00,2016-04-03 02:51:08,261000/881620bc4142df84f90751c8bacd594b-d.jpg,,
5699100,The Memory Program,,,,D. P. Devanand,2001,1,Wiley,,263,0,English,Психология,avaxhome.ws,,"9780471398332,0471398330",,,,,,,,,OL9755841M,22866,0,,,,,,,T,5238891,pdf,86CD0C6CF612531B6EFDAB40342A4BBD,,,Y. dl_avaxhome 22866  _=oo01.pdf,0,2000-01-01 01:00:00,2016-04-03 02:51:08,261000/86cd0c6cf612531b6efdab40342a4bbd-d.jpg,,
5699101,German Guided Missiles,,,,Heinz J. Nowarra,1993,,Schiffer Publishing,,52,0,German,История,avaxhome.ws,,"9780887404757,0887404758",,,,,358.1/7182,UG1315.G4 N6813 1993,,,OL1138415M,16622,0,,,,,,,,74527974,pdf,8703626E90B5D4E25E526E096A99D4DB,,,Y. dl_avaxhome 16622  _=German_Guided_Missiles.pdf,0,2000-01-01 01:00:00,2016-04-03 02:51:08,261000/8703626e90b5d4e25e526e096a99d4db-g.jpg,,
5699098,Instructional Coaches and Classroom Teachers: Sharing the Road to Success,,,,"Cheryl Jones, M.Ed., Mary Vreeman",2008,,Shell Education Pub,,211,0,English,Образование,avaxhome.ws,,"9781425803322,1425803326",,,,,,,,,OL11871835M,22361,0,,,,,,,T,3522851,pdf,863AAB53F93648AE9597CE9AA2ACA224,,,Y. dl_avaxhome 22361  _=1425803326_Instructional_Coaches.pdf,0,2000-01-01 01:00:00,2016-04-03 02:51:08,261000/863aab53f93648ae9597ce9aa2aca224-d.jpg,,
5699099,Cosa Nostra: A History of the Sicilian Mafia,,,,John Dickie,2004,,Palgrave Macmillan,,562,0,English,История,avaxhome.ws,,"9781403966964,1403966966",,,,,,,,,OL8400444M,16928,0,,,,,,,T,7078553,pdf,86B141409A90F52C400AE88D03BB3945,,,Y. dl_avaxhome 16928  _=76887___mossostra.pdf,0,2000-01-01 01:00:00,2016-04-03 02:51:08,261000/86b141409a90f52c400ae88d03bb3945-d.jpg,,
5699097,Michael Brein's Guide to Sydney by Public Transit,,Michael Brein's Guides to Sightseeing By Public Transportation,,,1998,1st,"Michael Brein, Inc.",,20,0,English,,avaxhome.ws,,"9781886590113,1886590117",,,,,,,,,OL24314489M,18619,0,,,,,,,,1543419,pdf,8635FC2F007987D52BB1BA20864C9AB4,,,Y. dl_avaxhome 18619  _=1886590117_Guide_to_Sydney.pdf,0,2000-01-01 01:00:00,2016-04-03 02:51:08,261000/8635fc2f007987d52bb1ba20864c9ab4-d.jpg,,
5699095,Dead Space: Prima Official Game Guide,,Prima Official Game Guides,,Fernando Bueno,2008,,Prima Games,,146,0,English,Техника//Аэрокосмическое оборудование,avaxhome.ws,,"9780761559870,0761559876",,,,,,,,,,24282,0,,,,,,,,30880457,pdf,851F1F5E339B73C788FA43A1F4B53503,,,Y. dl_avaxhome 24282  _=Dead_Space_Official_Game_Guide.pdf,0,2000-01-01 01:00:00,2016-04-03 02:51:08,261000/851f1f5e339b73c788fa43a1f4b53503-d.jpg,,
5699096,Catolicismo Para Dummies,,,,"Rev. John Trigilio Jr., Rev. Kenneth Brighenti, Rev. Luis Rafael Rodriguez-Hernandez, Jose H. Gomez",2007,,For Dummies,,459,0,Spanish,Образование,avaxhome.ws,,"9780470170496,9780470225448,0470170492",,,,,282,BX1754 .T7518 2008,,,OL23552907M,23809,0,,,,,,,T,5264775,pdf,85A843EB650BC4B0F50529B03412454B,,,Y. dl_avaxhome 23809  _=jj05.pdf,0,2000-01-01 01:00:00,2016-04-03 02:51:08,261000/85a843eb650bc4b0f50529b03412454b-d.jpg,,
5699093,"Dictionary of Computing: Over 10,000 terms clearly defined",,,,Paul Roseby,2008,5,A&C Black,,532,0,English,Компьютеры//Организация и обработка данных,avaxhome.ws,,"9781408104569,1408104563",,,,,,,,,,17820,0,,,,,,,T,2457530,pdf,84F8DC3B856A483DE46CD89EE7C43948,,,Y. dl_avaxhome 17820  _=Dictionary_of_Computing__Fourth_Edition.pdf,0,2000-01-01 01:00:00,2016-04-03 02:51:08,261000/84f8dc3b856a483de46cd89ee7c43948-d.jpg,,
5699094,Character Animation with Poser Pro,,Graphics Series,,Larry (Larry Mitchell) Mitchell,2008,1,Charles River Media,,369,0,English,Компьютеры//Мультимедиа,avaxhome.ws,,"1584505176,9781584505174,9781584506171",,,,,006.696,TR897.7 .M58 2009,,,OL23859495M,22150,0,,,,,,,T,15501416,pdf,84FE47EC61B9343C51D6213A500F8E82,,,Y. dl_avaxhome 22150  _=Character_Animation_with_Poser_Pro.1584505176.pdf,0,2000-01-01 01:00:00,2016-04-03 02:51:08,261000/84fe47ec61b9343c51d6213a500f8e82-d.jpg,,
5699092,,,"Advances in Marine Biology, Volume 43",,"Alan J. Southward, Craig M. Young, Lee A. Fuiman",2002,1,Academic Press,,348,0,English,,avaxhome.ws,,"9780120261437,012026143X",,,,,,,,,OL7325242M,20282,0,,,,,,,T,20816158,pdf,84BDF6502F3C7BCC8F216CEBFF626D3C,,,Y. dl_avaxhome 20282  _=135928___bio_43.pdf,0,2000-01-01 01:00:00,2016-04-03 02:51:08,261000/84bdf6502f3c7bcc8f216cebff626d3c-d.jpg,,
5699090,Real-Resumes for Computer Jobs,,Real-Resumes Series,,Anne McKinney,2001,,Prep Publishing,,193,0,English,Компьютеры,avaxhome.ws,,"9781885288080,1885288085",,,,,808/.06665,HF5383 .R3958 2001,,,OL22997628M,24942,0,,,,,,,T,5849828,pdf,838724DB78EDE2CCAD6BEA4AC63FA97F,,,Y. dl_avaxhome 24942  _=ee08.pdf,0,2000-01-01 01:00:00,2016-04-03 02:51:08,261000/838724db78ede2ccad6bea4ac63fa97f-d.jpg,,
5699091,Bubble Proof: Real Estate Strategies that Work in any Market,,,,Tonja Demoff,2007,Original,Kaplan Business,,177,0,English,Бизнес,avaxhome.ws,,"9781427756046,142775604X",,,,,,,,,OL8537187M,17995,0,,,,,,,T,6117508,pdf,84495150D0589160413498F2A8183DD9,,,Y. dl_avaxhome 17995  _=b14.pdf,0,2000-01-01 01:00:00,2016-04-03 02:51:08,261000/84495150d0589160413498f2a8183dd9-d.jpg,,
5699089,Dictionary of Evidence-Based Medicine,,,,"Alain Wan Po Li, Alain L. Po",1998,,Radcliffe Medical Press,,170,0,English,Медицина,avaxhome.ws,,"9781857753059,1857753054",,,,,610/.3,R118.6 .L5 1998,,,OL70353M,17123,0,,,,,,,T,7322886,pdf,832E113E8CB8162FF6EB00E2A3C1A01A,,,Y. dl_avaxhome 17123  _=Dictionary_of_Evidence-Based_Medicine.pdf,0,2000-01-01 01:00:00,2016-04-03 02:51:08,261000/832e113e8cb8162ff6eb00e2a3c1a01a-d.gif,,
5699087,Immunotoxicology Of Environmental And Occupational Metals,,,,"Judith T Zelicoff, Peter Thomas",1998,1,CRC Press,,385,0,English,Медицина//Иммунология,avaxhome.ws,,"0748403906,0203211871,0203290526",,,,,615.9/256,RA1231.M52 I46 1998,,,OL432926M,17268,0,,,,,1,,T,4284113,pdf,82EB28D4504349EE253B314311B1EF3A,,,Y. dl_avaxhome 17268  _=0748403906.pdf,0,2000-01-01 01:00:00,2016-04-03 02:51:08,261000/82eb28d4504349ee253b314311b1ef3a-d.jpg,,
5699088,The First Snap-fit Handbook: Creating And Managing Attachments for Plastic Parts,,,,P. Bonenberger Paul R. Bonenberger,2005,2,Hanser Gardner Pubns,,314,0,English,Бизнес//Менеджмент//Управление проектами,avaxhome.ws,,"9781569903889,1569903883",,,,,621.8/8,TS178.4 .B64 2005,,,OL3401052M,19015,0,,,,,,,,6666495,pdf,832822417E7BC98A09D4F0A501FCE620,,,Y. dl_avaxhome 19015  _=SnapfitHb.pdf,0,2000-01-01 01:00:00,2016-04-03 02:51:08,261000/832822417e7bc98a09d4f0a501fce620-d.jpg,,
5699086,All Clear: Listening and Speaking,2,,,Helen Kalkstein Fragiadakis,2006,2,Heinle ELT,,238,0,English,Языкознание,avaxhome.ws,,"9781413017038,1413017037",,,,,,,,,OL8434112M,18094,0,,,,,,,,67720335,pdf,82D645C6BBC42492EA85D58063DA39B8,,,Y. dl_avaxhome 18094  _=All_Clear_1_Book.pdf,0,2000-01-01 01:00:00,2016-04-03 02:51:08,261000/82d645c6bbc42492ea85d58063da39b8-d.jpg,,
5699084,The Arts of Korea: A Resource for Educators,,,,"Elizabeth Hammer, Ms. Judith E. Smith",2002,,Metropolitan Museum of Art,,118,0,English,Искусство,avaxhome.ws,,"9780300093759,0300093756",,,,,,,,,OL10318768M,19889,0,,,,,,,T,8118029,pdf,82CCA31CCC59A4C786EBB2F7B1C3CD38,,,Y. dl_avaxhome 19889  _=The_Arts_of_Korea.pdf,0,2000-01-01 01:00:00,2016-04-03 02:51:08,261000/82cca31ccc59a4c786ebb2f7b1c3cd38-d.jpg,,
5699085,The Britannica Guide to Climate Change,,,,Encyclopedia Britannica,2009,illustrated edition,Running Press,,477,0,English,"География//Метеорология, Климатология",avaxhome.ws,,"9780762433926,0762433922",,,,,363.738/74,QC903 .B75 2008,,,OL23934312M,18224,0,,,,,,,T,2448150,pdf,82D55948251F93877E280279D258F71A,,,Y. dl_avaxhome 18224  _=0762433922.pdf,0,2000-01-01 01:00:00,2016-04-03 02:51:08,261000/82d55948251f93877e280279d258f71a-d.jpg,,
5699083,Structure and Emplacement of High-Level Magmatic Systems,,Geological Society Special Publication no 302,,"K. Thomson, N. Petford, K. Thomson, N. Petford",2008,,Geological Society of London,,234,0,English,Наука (общее)//Науковедение,avaxhome.ws,,"9781862392564,1862392560",,,,,551.88,QE611 .S78 2008,,,OL23536545M,18910,0,,,,,,,,11546293,pdf,82B4CB1F4770CFCE02395BDC8ACEC213,,,Y. dl_avaxhome 18910  _=turcisndaplmecmet.pdf,0,2000-01-01 01:00:00,2016-04-03 02:51:08,261000/82b4cb1f4770cfce02395bdc8acec213-d.jpg,,
5699082,Living with a Below-Knee Amputation: A Unique Insight from a Prosthetist/Amputee,,,,Richard Lee Riley CP  BS,2005,1st,Slack Incorporated,,270,0,English,Медицина//Научно-популярная литература,avaxhome.ws,,"1556426925,9781556426926,9781556429101",,,,,617.5/8,RD756.4 .R54 2005,,,OL22635434M,16523,0,,,,,,,T,2155606,pdf,829C4CE2B374C612DBF7E0E541037ABD,,,Y. dl_avaxhome 16523  _=Living_with_a_Below-Knee_Amputation.pdf,0,2000-01-01 01:00:00,2016-04-03 02:51:08,261000/829c4ce2b374c612dbf7e0e541037abd-d.jpg,,
5699080,Everyday Writing Center: A Community of Practice,,,,"Anne Ellen Geller, Michele Eodice, Frankie Condon, Meg Carroll, Elizabeth Boquet",2006,1,Utah State University Press,,154,0,English,Образование,avaxhome.ws,,"9780874216561,0874216567",,,,,,,,,OL22752391M,24633,0,,,,,,,T,5282001,pdf,81F304FAB32D32C68132FAF6803D75C1,,,Y. dl_avaxhome 24633  _=dd20.pdf,0,2000-01-01 01:00:00,2016-04-03 02:51:08,261000/81f304fab32d32c68132faf6803d75c1-d.jpg,,
5699081,The Gambling Debate,,Historical Guides to Controversial Issues in America,,Richard A. McGowan,2007,,Greenwood,,189,0,English,Компьютеры//Программирование,avaxhome.ws,,"9780313340680,0313340684",,,,,363.4/20973,HV6715 .M394 2008,,,OL10420780M,19948,0,,,,,,,T,6002633,pdf,8220DD13D013D47641EC2C50AC15AF3C,,,Y. dl_avaxhome 19948  _=yy01.pdf,0,2000-01-01 01:00:00,2016-04-03 02:51:08,261000/8220dd13d013d47641ec2c50ac15af3c-d.jpg,,
5699079,New English File: MultiPACK A Upper-intermediate level,,,,"Clive Oxenden, Christina Latham-Koenig",2008,,Oxford University Press,,172,0,English,Языкознание,avaxhome.ws,,"9780194519298,0194519295",,,,,,,,,,21350,0,,,,,,,,16616044,pdf,81B7CB59C7979EF442C6F22C92678464,,,Y. dl_avaxhome 21350  _=Upper-intermediate_Student_s_Book.pdf,0,2000-01-01 01:00:00,2016-04-03 02:51:08,261000/81b7cb59c7979ef442c6f22c92678464-d.jpg,,
5699078,Game Theory: A Critical Introduction,,,,"Shaun Hargreaves-Heap, Yanis Varoufakis",2004,2,Routledge,,755,0,English,Наука (общее)//Научно-популярное,avaxhome.ws,,"9780415250955,0415250951",,,,,519.3,H61.25 .H4 2004,,,OL3690043M,19871,0,,,,,,,T,7949110,pdf,81A62E003D420B4DE5C585D9F3584B36,,,Y. dl_avaxhome 19871  _=GamThCrit.pdf,0,2000-01-01 01:00:00,2016-04-03 02:51:08,261000/81a62e003d420b4de5c585d9f3584b36-d.jpg,,
5699076,"Black Sun: Aryan Cults, Esoteric Nazism and the Politics of Identity",,,,Nicholas Goodrick-Clarke,2001,,NYU Press,,379,0,English,"Религия//Эзотерика, мистика",avaxhome.ws,,"0814731244,9780814731246,9780585434674",,,,,,,,,OL17037103M,17840,0,,,,0,0,,1,2568297,pdf,81579664DE0C784EAF9174766F487819,,,Y. dl_avaxhome 17840  _=BSACENPI.pdf,0,2000-01-01 01:00:00,2016-04-03 02:51:08,261000/81579664de0c784eaf9174766f487819-d.jpg,,
5699077,Waffles,,Quick & Easy,,Kristiane Muller Urban,2007,,"Silverback Books, Inc.",,72,0,English,"Домоводство, досуг//Кулинария",avaxhome.ws,,"1596372362,9781596372368",,,,,,,,,OL12441963M,21360,0,,,,,,,,6632075,pdf,81689488BEC72B53C9885E6CE7CF1FA8,,,Y. dl_avaxhome 21360  _=1596372362.pdf,0,2000-01-01 01:00:00,2016-04-03 02:51:08,261000/81689488bec72b53c9885e6ce7cf1fa8-d.jpg,,
5699074,25 Doctrines of Law You Should Know,,,,Philip Chase Tobin,2007,,Algora Publishing,,237,0,English,Юридические науки//Право,avaxhome.ws,,"9780875865362,0875865364",,,,,349.73,KF380 .C48 2007,,,OL11164383M,24638,0,,,,,,,T,5750768,pdf,80651783978B3814D815EC489432B0D6,,,Y. dl_avaxhome 24638  _=dd15.pdf,0,2000-01-01 01:00:00,2016-04-03 02:51:08,261000/80651783978b3814d815ec489432b0d6-d.jpg,,
5699075,"Cognitive Radio Technology, ",,,,Bruce A. Fette,2009,2,Academic Press,,828,0,English,Техника//Электроника//Радио,avaxhome.ws,,"9780123745354,0123745357",,,,,621.384,TK5103.4875 .C64 2009,,,OL23919903M,17347,0,,,,,,,,22415809,pdf,813EA61F0BB2795764695557C9E8CD75,,,Y. dl_avaxhome 17347  _=Cognitive_Radio_Technology__Second_Edition.pdf,0,2000-01-01 01:00:00,2016-04-03 02:51:08,261000/813ea61f0bb2795764695557c9e8cd75-d.jpg,,
5699073,"100 Winning Resumes For $100,000 + Jobs: Resumes That Can Change Your Life",,,,Wendy S. Enelow,1997,2nd,Impact Publications,,221,0,English,Экономика,avaxhome.ws,,"1570230706,9781570230707,9780585313931",,,,,808/.06665,HF5383 .E476 1997,,,OL662428M,21920,0,,,,,1,,T,13961507,pdf,8056A9A720B99C1A3F4F43C31E43E098,,,Y. dl_avaxhome 21920  _=100_Resumes.pdf,0,2000-01-01 01:00:00,2016-04-03 02:51:08,261000/8056a9a720b99c1a3f4f43c31e43e098-d.jpg,,
5699071,"Rockets: Sulfur, Sputnik and Scramjets",,,,Peter Macinnis,2004,,Allen & Unwin,,288,0,English,История,avaxhome.ws,,"1865087947,9781865087948,9781741151947",,,,,,,,,OL18511754M,22544,0,,,,,,,T,1872209,pdf,7FFBE1FFE679DEA4F90215C20ED9092E,,,Y. dl_avaxhome 22544  _=1865087947.pdf,0,2000-01-01 01:00:00,2016-04-03 02:51:08,261000/7ffbe1ffe679dea4f90215c20ed9092e-d.jpg,,
5699072,Blackwell Handbook of Childhood Social Development,,Blackwell Handbooks of Developmental Psychology,,"Peter K. Smith, Craig H. Hart",2002,First,Wiley-Blackwell,,682,0,English,,avaxhome.ws,,"0631217525,9780631217527,9780585468174",,,,,,,,,OL17056142M,22793,0,,,,,1,,T,4692878,pdf,802B29DDFED399B4FFE0BF9B9EB018DE,,,Y. dl_avaxhome 22793  _=ChildhSoDev.pdf,0,2000-01-01 01:00:00,2016-04-03 02:51:08,261000/802b29ddfed399b4ffe0bf9b9eb018de-d.jpg,,
5699070,Nero,,Blackwell Ancient Lives,,Jurgen Malitz,2005,,Wiley-Blackwell,,186,0,English,История,avaxhome.ws,,"1405121777,9781405121774,9781405144742,1405121785,9781405121781,9781405144759",,,,,,,,,OL22630222M,21161,0,,,,,1,,T,4808334,pdf,7FC24C0F78327BBB729E10C13B5F6BE4,,,Y. dl_avaxhome 21161  _=MalitzNero.pdf,0,2000-01-01 01:00:00,2016-04-03 02:51:08,261000/7fc24c0f78327bbb729e10c13b5f6be4-d.jpg,,
5699068,Historiography in the Middle Ages,,,,Deborah Mauskopf Deliyannis,2003,,Brill Academic Publishers,,473,0,English,История,avaxhome.ws,,"9004118810,9789004118812",,,,,909.07/07/2,D116 .H575 2003,,,OL22532395M,22295,0,,,,,,,T,1808383,pdf,7F4B6EE5DB42A71B0267582BE8442C3D,,,Y. dl_avaxhome 22295  _=9004118810.pdf,0,2000-01-01 01:00:00,2016-04-03 02:51:08,261000/7f4b6ee5db42a71b0267582be8442c3d-d.jpg,,
5699069,Robot Grippers,,,,"Gareth J. Monkman, Stefan Hesse, Ralf Steinmann, Henrik Schunk",2007,,Wiley-VCH,,454,0,English,Техника//Электроника//Робототехника,avaxhome.ws,,"3527406190,9783527406197,9783527609895",,,,,629.8933,TJ211 .R535513 2007,,,OL21875387M,17087,0,,,,,1,,T,12612389,pdf,7F8C5D8027FBDEDF1D4832E8495783CD,,,Y. dl_avaxhome 17087  _=RobotGrip.pdf,0,2000-01-01 01:00:00,2016-04-03 02:51:08,261000/7f8c5d8027fbdedf1d4832e8495783cd-d.jpg,,
5699067,"Thinking Orientals: Migration, Contact, and Exoticism in Modern America",,,,Henry Yu,2002,,"Oxford University Press, USA",,279,0,English,История,avaxhome.ws,,"0195151275,9780195151275,9780195185294",,,,,,,,,OL7390011M,20659,0,,,,,,,T,1827947,pdf,7F49E60FF3120A36BE3B3183572C3A0F,,,Y. dl_avaxhome 20659  _=0195151275.pdf,0,2000-01-01 01:00:00,2016-04-03 02:51:08,261000/7f49e60ff3120a36be3b3183572c3a0f-d.jpg,,
5699065,Art of Ancient Egypt A Resource for Educators,,,,"Edith W. Watts, Edith A. Watts",1998,,Metropolitan Museum of Art,,184,0,English,История,avaxhome.ws,,"9780300086737,0300086733",,,,,,,,,OL10318619M,19881,0,,,,,,,T,2019409,pdf,7EB133C0647BB1176A3D64CE24064DC3,,,Y. dl_avaxhome 19881  _=The_Art_of_Ancient_Egypt.pdf,0,2000-01-01 01:00:00,2016-04-03 02:51:08,261000/7eb133c0647bb1176a3d64ce24064dc3-d.jpg,,
5699066,Chronic Obstructive Pulmonary Disease: Cellular and Molecular Mechanisms,,Lung Biology in Health and Disease,,Peter J. Barnes,2005,1,Informa Healthcare,,552,0,English,Медицина//Болезни//Внутренние болезни,avaxhome.ws,,"9780824723118,0824723112",,,,,616.2/4,RC776.O3 C4782 2005,,,OL3435243M,22214,0,,,,,,,T,6902135,pdf,7F29D5C8ABCF5FC8608ED9AC495CFFF1,,,Y. dl_avaxhome 22214  _=aa06.pdf,0,2000-01-01 01:00:00,2016-04-03 02:51:08,261000/7f29d5c8abcf5fc8608ed9ac495cfff1-d.jpg,,
5699063,The First Global Financial Crisis of the 21st Century: A VoxEU.Org Publication,,,,"Andrew Felton, Carmen M. Reinhart",2008,,Centre for Economic Policy Research,,390,0,English,Экономика,avaxhome.ws,,"9780955700934,0955700930",,,,,,,,,,20081,0,,,,,,,T,2269791,pdf,7E59C0C981A11F92B31F3620062CB13E,,,20081 =742.pdf,0,2000-01-01 01:00:00,2016-04-03 02:51:08,261000/7e59c0c981a11f92b31f3620062cb13e-g.jpg,,
5699064,GCSE Mathematics,,Instant Revision,,Paul Metcalf,2001,,Collins,,125,0,English,Математика,avaxhome.ws,,"9780007109722,0007109725",,,,,,,,,OL9922019M,24266,0,,,,,,,T,30891144,pdf,7E99BA60534C1988B8C4E1A538E17DF9,,,Y. dl_avaxhome 24266  _=GCSEMath.pdf,0,2000-01-01 01:00:00,2016-04-03 02:51:08,261000/7e99ba60534c1988b8c4e1a538e17df9-d.jpg,,
5699062,Jagdpanther,,Wydawnictwo Militaria 083,,Janusz Ledwoch,1999,,Wydawnictwo Militaria,,52,0,German,История,avaxhome.ws,,"9788372190406,8372190402",,,,,,,,,,20576,0,,,,,,,,5668100,pdf,7E33F07E9EB7DC119B50BE4909628351,,,20576 =Wydawnictwo_Militaria__083__-_Jagdpanther.pdf,0,2000-01-01 01:00:00,2016-04-03 02:51:08,261000/7e33f07e9eb7dc119b50be4909628351-g.jpg,,
5699060,Microsoft Exchange Server 2007 For Dummies,,,,John Paul Mueller,2008,illustrated edition,For Dummies,,386,0,English,Образование,avaxhome.ws,,"9780470398661,0470398663",,,,,,,,,,23356,0,,,,,,,,11379455,pdf,7DC4237D4673BE77733BB533B7176A22,,,Y. dl_avaxhome 23356  _=MicExServDum.pdf,0,2000-01-01 01:00:00,2016-04-03 02:51:08,261000/7dc4237d4673be77733bb533b7176a22-d.jpg,,
5699061,Introduction To Immunotoxicology,,,,Jacques Descotes,1998,1,CRC Press,,196,0,English,Медицина//Иммунология,avaxhome.ws,,"074840306X,9780748403066,0203362543,9780203362549,9780203379349",,,,,616.07/9,RC582.17 .D473 1999,,,OL77826M,17248,0,,,,,,,T,1629288,pdf,7DD84FBEDD62FBEA0A74FFA79E73690D,,,Y. dl_avaxhome 17248  _=074840306X.pdf,0,2000-01-01 01:00:00,2016-04-03 02:51:08,261000/7dd84fbedd62fbea0a74ffa79e73690d-d.jpg,,
5699058,Chemical Engineering: Visions of the World,,,,"R. C. Darton, D. G. Wood, R. G. H. Prince",2003,1,Elsevier Science,,132,0,English,Химия,avaxhome.ws,,"0444513094,9780444513090,9780080472218",,,,,660,TP155 .W67 2001,,,OL18187596M,20602,0,,,,,1,,T,2142394,pdf,7DB789463FD3DC29BD2F49DA8BDA96DD,,,Y. dl_avaxhome 20602  _=chemical_engineering_-_visions_of_the_world.pdf,0,2000-01-01 01:00:00,2016-04-03 02:51:08,261000/7db789463fd3dc29bd2f49da8bda96dd-d.jpg ,,
5699059,Price of Passion,,Harlequin Presents: Pregnant Mistresses,,Susan Napier,2008,,Harlequin,,196,0,English,Литература//Проза,avaxhome.ws,,"9780373820610,0373820615",,,,,,,,,OL10749988M,23117,0,,,,,,,T,1809095,pdf,7DB8D728453B61905F474AE78BEECB77,,,Y. dl_avaxhome 23117  _=387.pdf,0,2000-01-01 01:00:00,2016-04-03 02:51:08,261000/7db8d728453b61905f474ae78beecb77-d.jpg,,
5699057,"Dynamics of Cancer: Incidence, Inheritance, and Evolution",,Princeton Series in Evolutionary Biology,,Steven A. Frank,2007,1,Princeton University Press,,396,0,English,Биология,avaxhome.ws,,"9780691133669,0691133662",,,,,616.99/4071,RC268.5 .F63 2007,,,OL11182994M,23789,0,,,,,,,T,5800279,pdf,7D71851A62F9BC4215F56F2E4921C090,,,Y. dl_avaxhome 23789  _=jj21.pdf,0,2000-01-01 01:00:00,2016-04-03 02:51:08,261000/7d71851a62f9bc4215f56f2e4921c090-d.jpg,,
5699055,Computational Algebra,,Lecture Notes in Pure and Applied Mathematics,,"Klaus G. Fischer, Philippe Loustaunau, Jay Shapiro, Edward Green, David Farkas",1993,1,CRC Press,,252,0,English,Математика//Вычислительная математика,avaxhome.ws,,"9780824790707,0824790707",,,,,512/.00285,QA155.7.E4 C64 1994,,,OL1423489M,21252,0,,,,,,,,7287438,djvu,7CE77AC071194C7BD1D84E2E3922AEAA,,,Y. dl_avaxhome 21252  _=fischer---computational_algebra.djvu,0,2000-01-01 01:00:00,2016-04-03 02:51:08,261000/7ce77ac071194c7bd1d84e2e3922aeaa-d.jpg,,
5699056,,,"Advances in Agronomy, Volume 102",,Donald L. Sparks,2009,1,Academic Press,,331,0,English,,avaxhome.ws,,"0123748186,9780123748188",,,,,,,,,,16637,0,,,,,1,,,3604695,pdf,7CEDAA0696BE3F92CF278C09D4E24AC1,,,Y. dl_avaxhome 16637  _=0123748186.pdf,0,2000-01-01 01:00:00,2016-04-03 02:51:08,261000/7cedaa0696be3f92cf278c09d4e24ac1-d.jpg,,
5699054,Discrete-Event Modeling and Simulation: A Practitioner's Approach,,"Computational Analysis, Synthesis, and Design of Dynamic Systems",,Gabriel A. Wainer,2009,1,CRC Press,,486,0,English,,avaxhome.ws,,"9781420053364,1420053361",,,,,003/.3,QA76.9.C65 W35 2009,,,OL11816633M,19593,0,,,,,,,1,14168923,pdf,7CAF3440C72DABA25F7F0EC185DB4F26,,,Y. dl_avaxhome 19593  _=14200_53361.pdf,0,2000-01-01 01:00:00,2016-04-03 02:51:08,261000/7caf3440c72daba25f7f0ec185db4f26-d.jpg,,
5699052,Aviation Instructor's Handbook: FAA-H-8083-9A,,FAA Handbooks,,Federal Aviation Administration,2009,,"Aviation Supplies & Academics, Inc.",,228,0,English,,avaxhome.ws,,"9781560277491,1560277491",,,,,,,,,,19359,0,,,,,,,,18173336,pdf,7C2AAE225A36ACD175933DE4A09F99E9,,,Y. dl_avaxhome 19359  _=f16.pdf,0,2000-01-01 01:00:00,2016-04-03 02:51:08,261000/7c2aae225a36acd175933de4a09f99e9-d.jpg,,
5699053,English Teaching in the Secondary School 2/e: Linking Theory and Practice,,,,"Mike Fleming, David Stevens",2004,2,David Fulton Publishers,,273,0,English,Образование,avaxhome.ws,,"9781843121282,184312128X",,,,,,,,,OL9506083M,19364,0,,,,,,,T,6783767,pdf,7C8DB794EE3AE342D15CB42584400222,,,Y. dl_avaxhome 19364  _=f12.pdf,0,2000-01-01 01:00:00,2016-04-03 02:51:08,261000/7c8db794ee3ae342d15cb42584400222-d.jpg,,
5699050,Web Copy That Sells: The Revolutionary Formula for Creating Killer Copy Every Time,,,,Maria Veloso,2004,1st,AMACOM,,240,0,English,Компьютеры//Сети//Интернет,avaxhome.ws,,"0814472494,9780814472491,9780814428108",,,,,,,,,OL8043312M,22442,0,,,,,1,,,1862428,pdf,7BA14BD8D2992F937FC1370B3E398D3C,,,Y. dl_avaxhome 22442  _=0814472494.pdf,0,2000-01-01 01:00:00,2016-04-03 02:51:08,261000/7ba14bd8d2992f937fc1370b3e398d3c-d.jpg,,
5699051,Inequalities: Theory of Majorization and Its Applications,,Mathematics in Science and Technology,,"Ingram Olkin, Albert W. Marshall",1980,,Academic Press,,588,0,English,Математика,avaxhome.ws,,"9780124737501,0124737501",,,,,515/.26,QA295 .M42,,,OL4426448M,17910,0,,,,,,,,3305653,djvu,7BD0EDC690353419FAF17DFCB1CBF169,,,Y. dl_avaxhome 17910  _=Inequalities_Theory_of_Majorization_and_Its_Applications.djvu,0,2000-01-01 01:00:00,2016-04-03 02:51:08,261000/7bd0edc690353419faf17dfcb1cbf169-d.jpg,,
5699049,Handbook of Inorganic Electrochromic Materials,,,,C.G. Granqvist,1995,,Elsevier Science,,651,0,English,,avaxhome.ws,,"9780444899309,0444899308",,,,,621.381/045,TA1750 .G73 1995,,,OL1271322M,18601,0,,,,,,,T,13931001,pdf,7B393002668AC0246EBEAB2600F7E586,,,Y. dl_avaxhome 18601  _=0444899308_Inorganic_Electrochromic.pdf,0,2000-01-01 01:00:00,2016-04-03 02:51:08,261000/7b393002668ac0246ebeab2600f7e586-d.jpg,,
5699048,World Intellectual Property Organization (WIPO): Resurgence and the Development Agenda (Global Institutions),,,,Christopher May,2007,1,Routledge,,154,0,English,Компьютеры//Сети,avaxhome.ws,,"9780415358019,0415358019",,,,,,,,,OL10203952M,22199,0,,,,,,,T,1784751,pdf,7B101EE1BF157FF4F7029F6A62E5583B,,,Y. dl_avaxhome 22199  _=aa23.pdf,0,2000-01-01 01:00:00,2016-04-03 02:51:08,261000/7b101ee1bf157ff4f7029f6a62e5583b-d.jpg,,
5699046,The Modern Survival Retreat,,,,Ragnar Benson,1998,,Paladin Press,,59,0,English,История,avaxhome.ws,,"9780873649803,087364980X",,,,,,,,,OL482247M,22111,0,,,,,1,,,8613841,pdf,7B08A48586AC506FBD6612FA7584311F,,,Y. dl_avaxhome 22111  _=Sur.pdf,0,2000-01-01 01:00:00,2016-04-03 02:51:08,261000/7b08a48586ac506fbd6612fa7584311f-d.jpg,,
5699047,Computer performance issues,,"Advances in Computers, Volume 75",,Marvin Zelkowitz Ph.D.  MS  BS.,2009,1,Academic Press,,351,0,English,Компьютеры,avaxhome.ws,,"9780123748102,0123748100",,,,,,,,,,18758,0,,,,,,,,4327785,pdf,7B0C3CACA4B1E7407508908A20E6C89D,,,Y. dl_avaxhome 18758  _=Advances_in_Computers.pdf,0,2000-01-01 01:00:00,2016-04-03 02:51:08,261000/7b0c3caca4b1e7407508908a20e6c89d-d.jpg,,
5699045,Wind Energy: Renewable Energy and the Environment,,,,Vaughn C. Nelson,2009,1,CRC Press,,308,0,English,Техника//Энергетика,avaxhome.ws,,"9781420075687,1420075683",,,,,621.31/2136,TJ820 .N44 2009,,,OL11817418M,19631,0,,,,,,,,7412128,pdf,7AE24DB07715A079752E9BB5ACA4FBD4,,,Y. dl_avaxhome 19631  _=WE_14200_75683.pdf,0,2000-01-01 01:00:00,2016-04-03 02:51:08,261000/7ae24db07715a079752e9bb5aca4fbd4-d.jpg,,
5699043,A Theologico-Political Treatise,Part III,Chapters XI to XV,,"Benedict de Spinoza, Baruch Spinoza",2008,,Arc Manor,,32,0,English,Математика//Математическая логика,avaxhome.ws,,"9781604502152,1604502150",,,,,,,,,,23717,0,,,,,,,,117712,pdf,7A6EA6E0D45218F871051BDF6D7907D7,,,23717 =358.pdf,0,2000-01-01 01:00:00,2016-04-03 02:51:08,261000/7a6ea6e0d45218f871051bdf6d7907d7-d.jpg,,
5699044,"Lie-Theoretic Ode Numerical Analysis, Mechanics and Differential Systems",,"Hermann, Robert//Interdisciplinary Mathematics",,Robert Hermann,1994,,Math-Sci Press,,291,0,English,Математика//Вычислительная математика,avaxhome.ws,,"9780915692453,0915692457",,,,,515/.35,QA372 .H485 1994,,,OL1086855M,17467,0,,,,,,,T,20275549,djvu,7A8899799161DE8AC50B99EF19616888,,,Y. dl_avaxhome 17467  _=61992.090522091100.djvu,0,2000-01-01 01:00:00,2016-04-03 02:51:08,261000/7a8899799161de8ac50b99ef19616888-g.jpg,,
5699042,Structural Design Optimization Considering Uncertainties,Vol.1,Structures and Infrastructures,,"Yannis Tsompanakis, Nikos D. Lagaros, Manolis Papadrakakis",2008,1,Taylor & Francis,,669,0,English,Математика//Оптимизация. Исследование операций.,avaxhome.ws,,"9780415452601,0415452600",,,,,624.1/7713,TA658.8 .S73 2008,,,OL23604921M,21203,0,,,,,,,T,10762980,pdf,79FCD2507B7FC64BE36077505483D8AD,,,Y. dl_avaxhome 21203  _=rr08.pdf,0,2000-01-01 01:00:00,2016-04-03 02:51:08,261000/79fcd2507b7fc64be36077505483d8ad-d.jpg,,
5699040,Imperium Romanum: Politics and Administration,,,,Andrew Lintott,1993,illustrated edition,Routledge,,138,0,English,Компьютеры//Системное администрирование,avaxhome.ws,,"0415093759,9780415093750",,,,,930/.0971237,DG241 .L56 1993,,,OL1722529M,21401,0,,,,,1,,,26873307,pdf,79A1B3A132E42365D3DBA25DE6FD5549,,,Y. dl_avaxhome 21401  _=ImperiumRomanum.pdf,0,2000-01-01 01:00:00,2016-04-03 02:51:08,261000/79a1b3a132e42365d3dba25de6fd5549-d.jpg,,
5699041,Social Struggles in Archaic Rome: New Perspectives on the Conflict of the Orders,,,,Kurt A. Raaflaub,2006,2,Wiley-Blackwell,,449,0,English,История,avaxhome.ws,,"9781405100601,1405100605",,,,,937/.02,DG83.3 .S59 2005,,,OL3394888M,21937,0,,,,,,,T,3339275,pdf,79CE64653DE85E11A2FEF583EB45B91A,,,Y. dl_avaxhome 21937  _=SocStrugrRom.pdf,0,2000-01-01 01:00:00,2016-04-03 02:51:08,261000/79ce64653de85e11a2fef583eb45b91a-d.jpg,,
5699038,Olaf's Kitchen: A Master Chef Shares His Passion,,,,Olaf Mertens,2008,,Wiley,,225,0,English,"Домоводство, досуг//Кулинария",avaxhome.ws,,"0470155655,9780470155653,9780470156797",,,,,641.5,TX714 .M464 2008,,,OL22844111M,16816,0,,,,0,0,,1,10427000,pdf,792D777BE2C7CCF84C63CE5AFA8F8150,,,Y. dl_avaxhome 16816  _=Olafs_Kitchen.pdf,0,2000-01-01 01:00:00,2016-04-03 02:51:08,261000/792d777be2c7ccf84c63ce5afa8f8150-d.jpg,,
5699039,The Secret Door To Success,,,,Florence Scovel Shinn,2009,,Wilder Publications,,46,0,English,"Домоводство, досуг",avaxhome.ws,,"9781604591507,1604591501",,,,,,,,,,22643,0,,,,,,,1,226273,pdf,793722A36D623F89B42B5CE0DBA1FA3B,,,22643 =477.pdf,0,2000-01-01 01:00:00,2016-04-03 02:51:08,261000/793722a36d623f89b42b5ce0dba1fa3b-d.jpg,,
5699037,Golden Notebook,,,,Doris May Lessing,1973,,Grafton,,1132,0,English,,avaxhome.ws,,0553136755,,,,,,,,,,17521,0,,,,,,,T,2210956,pdf,7891D75CFB146A90FEBEA59E00FC8312,,,Y. dl_avaxhome 17521 golden  _=Golden Notebook - Doris Lessing.pdf,0,2000-01-01 01:00:00,2016-04-03 02:51:08,261000/7891d75cfb146a90febea59e00fc8312-d.jpg,,
5699036,Space Sciences,,Macmillan Science Library,,Pat Dasch,2002,,Gacl,,1195,0,English,Техника//Аэрокосмическое оборудование,avaxhome.ws,,"9780028655468,002865546X",,,,,500.5,QB500 .S63 2002,,,OL3552032M,16780,0,,,,,,,T,58162229,pdf,787FCFFD51A24E71CD253B9518DB1DE0,,,Y. dl_avaxhome 16780  _=Space002865546X.pdf,0,2000-01-01 01:00:00,2016-04-03 02:51:08,261000/787fcffd51a24e71cd253b9518db1de0-d.jpg,,
5699033,"Essentials of English Grammar: 25th impression, 1987",,,,Otto Jespersen,2006,1 New,Routledge,,341,0,English,Языкознание,avaxhome.ws,,"0203425782,0203734025,0415104408",,,,,,,,,,17204,0,,,,,,,1,2240379,pdf,78340B96153F6B93EF850BB1AC45E363,,,Y. dl_avaxhome 17204  _=EsEngGram.pdf,0,2000-01-01 01:00:00,2016-04-03 02:51:08,261000/78340b96153f6b93ef850bb1ac45e363-d.jpg,,
5699034,Gitanjali,,,,Rabindranath Tagore,2004,,Full Circle Publishing Ltd,,42,0,English,Литература//Поэзия,avaxhome.ws,,"9788176211123,8176211125",,,,,,,,,OL20320231M,22634,0,,,,,,,,134449,pdf,7838728BC0E7327536119C8A93957F08,,,Y. dl_avaxhome 22634  _=Gitanjali_by_RabindranathTagore.pdf,0,2000-01-01 01:00:00,2016-04-03 02:51:08,261000/7838728bc0e7327536119c8a93957f08-g.jpg,,
5699035,Adobe Photoshop Lightroom Photographers' Guide,,,,John G. Blair,2007,1,Course Technology PTR,,290,0,English,Искусство//Фотография,avaxhome.ws,,"9781598633399,1598633392",,,,,,,,,OL8899642M,17624,0,,,,,,,T,20040090,pdf,783ED2F9BC303D6A80F09C10A9858168,,,Y. dl_avaxhome 17624  _=Adobe_Photoshop_Lightroom_Guide.pdf,0,2000-01-01 01:00:00,2016-04-03 02:51:08,261000/783ed2f9bc303d6a80f09c10a9858168-d.jpg,,
5699032,Gifted and Talented Children 4-11: Understanding and Supporting their Development,,David Fulton Books,,Christine MacIntyre,2008,1,Routledge,,106,0,English,Психология,avaxhome.ws,,"9780415464925,0415464927",,,,,371.95/72,LC3997.G7 M33 2008,,,OL22549644M,19944,0,,,,,,,T,6342679,pdf,78259112B4B2ADD262E74F5E3A580B2C,,,Y. dl_avaxhome 19944  _=yy05.pdf,0,2000-01-01 01:00:00,2016-04-03 02:51:08,261000/78259112b4b2add262e74f5e3a580b2c-d.jpg,,
5699031,"Sexual Violence: Policies, Practices, and Challenges in the United States and Canada",,,,"James F. Hodgson, Debra S. Kelley",2001,,Praeger,,257,0,English,История,avaxhome.ws,,"9780275973681,0275973689",,,,,,,,,OL9759497M,17949,0,,,,,,,T,1517871,pdf,77E420E7E14B149F50ADD936C4049D60,,,Y. dl_avaxhome 17949  _=0275973689.pdf,0,2000-01-01 01:00:00,2016-04-03 02:51:08,261000/77e420e7e14b149f50add936c4049d60-d.jpg,,
5699030,Fluid Motions in Volcanic Conduits: A Source of Seismic and Acoustic Signals,,Special Publication 307,,"S. J. Lane, J. S. Gilbert",2008,,Geological Society of London,,249,0,English,Физика//Механика//Колебания и волны,avaxhome.ws,,"9781862392625,1862392625",,,,,551.2,QC809.F5 .F589 2008,,,OL23838082M,19339,0,,,,,,,,12662996,pdf,77B995AD77D222324AE4118010768333,,,Y. dl_avaxhome 19339  _=luifdmotioncnefuits.pdf,0,2000-01-01 01:00:00,2016-04-03 02:51:08,261000/77b995ad77d222324ae4118010768333-d.jpg,,
5699028,101 Boardroom Problems and How to Solve Them,,,,"Eli Mina, Keith Michael Fiels",2008,illustrated edition,AMACOM,,208,0,English,Образование,avaxhome.ws,,"9780814410585,0814410588",,,,,658.4/22,HD2745 .M56 2009,,,OL11353500M,17695,0,,,,,,,T,7213234,pdf,7720D2AB99F0295D60C330A5E48428E4,,,Y. dl_avaxhome 17695  _=d26.pdf,0,2000-01-01 01:00:00,2016-04-03 02:51:08,261000/7720d2ab99f0295d60c330a5e48428e4-d.jpg,,
5699029,"Clinical Skills for OSCEs, ",,,,"Neel Burton, Kuldip Birdi",2007,2,Informa Healthcare,,352,0,English,Медицина//Клиническая медицина,avaxhome.ws,,"9781841846163,1841846163",,,,,,,,,OL8923232M,21639,0,,,,,,,1,35232612,pdf,77581839D681F7AA2665034A1F87471B,,,Y. dl_avaxhome 21639  _=Clinical.Skills.for.OSCEs.2006.Burton.Birdi.OCR.pdf,0,2000-01-01 01:00:00,2016-04-03 02:51:08,261000/77581839d681f7aa2665034a1f87471b-d.jpg,,
5699027,Nature Within Walls: The Chinese Garden Court at The Metropolitan Museum of Art: A Resource for Educators,,Metropolitan Museum of Art Series,,Elizabeth Hammer,2003,Pap/Cdr/Ps,Metropolitan Museum of Art,,30,0,English,artbook,avaxhome.ws,,"9780300103441,0300103441",,,,,,,,,OL10318989M,19874,0,,,,,,,,933045,pdf,7637CDDB7C9219050D90406E1F800D84,,,Y. dl_avaxhome 19874  _=Nature_Within_Walls.pdf,0,2000-01-01 01:00:00,2016-04-03 02:51:08,261000/7637cddb7c9219050d90406e1f800d84-d.jpg,,
5699026,An Introduction to Numerical Analysis,,,,"Endre Süli, David F. Mayers",2003,,Cambridge University Press,,445,0,English,Математика//Вычислительная математика,avaxhome.ws,,"9780521007948,9780521810265,0521007941,0521810264,9780511078101",,,,,,,,,OL19567607M,18055,0,,,,,1,,T,5868602,pdf,7552091C721FB5807C3FFD5D3B32DFD2,,,Y. dl_avaxhome 18055  _=0521810264.pdf,0,2000-01-01 01:00:00,2016-04-03 02:51:08,261000/7552091c721fb5807c3ffd5d3b32dfd2-d.jpg,,
5699025,Enhancing Participation And Governance in Water Resources Management: Conventional Approaches And Information Technology,,,,"Libor Jansky, Juha I. Uitto",2006,,United Nations University Press,,235,0,English,Техника//Водоочистка,avaxhome.ws,,"9280811207,9789280811209,9781423765936",,,,,333.91,TD345 .E54 2005,,,OL3409343M,22293,0,,,,,,,T,2138925,pdf,75198715A467234A266262CDC4CA4BAA,,,Y. dl_avaxhome 22293  _=9280811207.pdf,0,2000-01-01 01:00:00,2016-04-03 02:51:08,261000/75198715a467234a266262cdc4ca4baa-d.jpg,,
5699022,Maya Plug-In Power,,,,Mark Jennings(Mark Smith) Smith,2008,1,Charles River Media,,368,0,English,Компьютеры,avaxhome.ws,,"1584505303,9781584505303,9781584506133",,,,,,,,,OL12312607M,22151,0,,,,,,,T,19974264,pdf,748CD8EB982599E896A541E9E9B52792,,,Y. dl_avaxhome 22151  _=Maya_Plug-In_Power.1584505303.pdf,0,2000-01-01 01:00:00,2016-04-03 02:51:08,261000/748cd8eb982599e896a541e9e9b52792-d.jpg,,
5699023,Formal Issues in Lexical-Functional Grammar,,Center for the Study of Language and Information - Lecture Notes,,"John Maxwell III, Ronald M. Kaplan, Mary Dalrymple, Annie Zaenen",1994,,Center for the Study of Language and Inf,,469,0,English,Языкознание,avaxhome.ws,,"9781881526377,1881526372",,,,,415,P158.25 .F67 1995,,,OL1101305M,22711,0,,,,,,,T,8163698,pdf,74A7D7E24D1EA3C4DB99FF2DCE4058DD,,,Y. dl_avaxhome 22711  _=Lex.pdf,0,2000-01-01 01:00:00,2016-04-03 02:51:08,261000/74a7d7e24d1ea3c4db99ff2dce4058dd-g.jpg,,
5699024,A Guide to the Project Management Body of Knowledge:,,Pmbok Guide,,Project Management Institute,2008,4,Project Management Institute,,496,0,English,Бизнес//Менеджмент//Управление проектами,avaxhome.ws,,"9781933890517,1933890517",,,,,,,,,OL25202748M,19877,0,,,,,,,,36252509,pdf,74EE0C7B53854FEEF2968CCF4371C1C0,,,19877 =pmb4ed.pdf,0,2000-01-01 01:00:00,2016-04-03 02:51:08,261000/74ee0c7b53854feef2968ccf4371c1c0-d.jpg,,
5699020,"Building on Knowledge: Developing Expertise, Creativity and Intellectual Capital in the Construction Professions",,,,David Bartholomew,2008,,Wiley-Blackwell,,315,0,English,Техника//Строительство,avaxhome.ws,,"9781405147095,1405147091",,,,,690.071,TH165 .B36 2008,,,OL11650278M,24337,0,,,,,,,T,3294809,pdf,745727629B132CFED7A5DCA509A0CC73,,,Y. dl_avaxhome 24337  _=Wiley.Building.On.Knowledge.Oct.2008.eBook-ELOHiM.pdf,0,2000-01-01 01:00:00,2016-04-03 02:51:08,261000/745727629b132cfed7a5dca509a0cc73-d.jpg,,
5699021,Numerical Methods in Electromagnetics. Special Volume,,Handbook of Numerical Analysis 13,,"W.H.A. SCHILDERS, E.J.W. TER MATEN, Philippe G. Ciarlet",2005,,North Holland,,913,0,English,Физика//Электричество и магнетизм,avaxhome.ws,,"9780444513755,0444513752",,,,,,,,,OL7530704M,18921,0,,,,,,,,8798191,djvu,746CF4F734A4790B919FB0CA1D9CEEF5,,,Y. dl_avaxhome 18921  _=Numerical_Methods_in_Electromagnetics_Volume_13_Special_Volume.djvu,0,2000-01-01 01:00:00,2016-04-03 02:51:08,261000/746cf4f734a4790b919fb0ca1d9ceef5-d.jpg,,
5699018,Maha-bharata: The Epic of Ancient India Condensed into English Verse,,,,Unknown author,2005,,Adamant Media Corporation,,172,0,English,История,avaxhome.ws,,"9780543729651,0543729656",,,,,,,,,,18239,0,,,,,1,,,845120,pdf,73E166F912F0B1750E37AD6E0979C050,,,18239 =887.pdf,0,2000-01-01 01:00:00,2016-04-03 02:51:08,261000/73e166f912f0b1750e37ad6e0979c050-d.jpg,,
5699019,Resorts: Management and Operation,,,,Robert Christie Mill,2007,2,Wiley,,499,0,English,Бизнес//менеджмент,avaxhome.ws,,"047174722X,9780471747222,9780470139561",,,,,647.94068,TX911.3.M27 M538 2008,,,OL18337422M,21454,0,,,,,,,T,6321547,pdf,7449A4EDB629A27151B1FC48F40CC081,,,Y. dl_avaxhome 21454  _=hh38.pdf,0,2000-01-01 01:00:00,2016-04-03 02:51:08,261000/7449a4edb629a27151b1fc48f40cc081-d.jpg,,
5699015,The Model,,,,Milo Manara,2002,First Edition,Eurotica,,105,0,English,Литература//Комиксы,avaxhome.ws,,"9781561633395,1561633399",,,,,,,,,OL8637313M,23720,0,,,,,,,,38954281,pdf,73491890FAA44EC4FEC3B04DDA2EF099,,,Y. dl_avaxhome 23720  _=Manara_The_Model_pdf.pdf,0,2000-01-01 01:00:00,2016-04-03 02:51:08,261000/73491890faa44ec4fec3b04dda2ef099-d.jpg,,
5699016,IN SPITE OF THE GODS: THE STRANGE RISE OF MODERN INDIA,,,,EDWARD LUCE,2006,,"LITTLE, BROWN",,414,0,English,Языкознание,avaxhome.ws,,"9780316729819,0316729817",,,,,330.954053,,,,OL20189920M,22472,0,,,,,,,1,5844469,pdf,73876EAAA64E13790BD0B723F5A358DF,,,Y. dl_avaxhome 22472  _=nn36.pdf,0,2000-01-01 01:00:00,2016-04-03 02:51:08,261000/73876eaaa64e13790bd0b723f5a358df-d.jpg,,
5699017,Navy SEAL Physical Fitness Guide,,,,Patricia Duester,2002,,William s Konecky Assoc,,301,0,English,Физика,avaxhome.ws,,"9781568523743,1568523742",,,,,,,,,OL8689762M,20762,0,,,,,,,T,16835715,pdf,73DB526D9ED68C4A972AD25F5B0A865A,,,Y. dl_avaxhome 20762  _=NavFitness.pdf,0,2000-01-01 01:00:00,2016-04-03 02:51:08,261000/73db526d9ed68c4a972ad25f5b0a865a-d.jpg,,
5699013,the deliberate dumbing down of america - A Chronological Paper Trail: A Chronological Paper Trail,,,,"Charlotte Thomson Iserbyt, Charlotte Iserbyt-Thomson, cynthia weatherly, joel pett",1999,third,3D Research,,738,0,English,Математика//Математическая логика,avaxhome.ws,,"9780966707106,0966707109",,,,,370/.973/0945,LA217.2 .T485 1999,,,OL399467M,20127,0,,,,,,,1,7381668,pdf,72DC62041898214E1FEB297453F2B528,,,Y. dl_avaxhome 20127  _=DDDoA.sml.pdf,0,2000-01-01 01:00:00,2016-04-03 02:51:08,261000/72dc62041898214e1feb297453f2b528-d.jpg,,
5699014,The Handbook of National Legislatures: A Global Survey,,,,"M. Steven Fish, Matthew Kroenig",2009,1,Cambridge University Press,,810,0,English,,avaxhome.ws,,"9780521514668,0521514665",,,,,328.03,JF511 .F57 2008,,,OL23156199M,16564,0,,,,,,,T,4053237,pdf,730414023AD7CE1CAB1E5C19D7A42748,,,Y. dl_avaxhome 16564  _=The_Handbook_of_National_Legislatures.pdf,0,2000-01-01 01:00:00,2016-04-03 02:51:08,261000/730414023ad7ce1cab1e5c19d7a42748-d.jpg,,
5699010,A Theologico-Political Treatise,Part I,Chapters I to V,,"Benedict de Spinoza, Baruch Spinoza",2008,,Arc Manor,,55,0,English,Математика//Математическая логика,avaxhome.ws,,"9781604502138,1604502134",,,,,,,,,,23963,0,,,,,,,,204466,pdf,7202C0DC134E100C599DED71C0DCCB99,,,23963 =331.pdf,0,2000-01-01 01:00:00,2016-04-03 02:51:08,261000/7202c0dc134e100c599ded71c0dccb99-d.jpg,,
5699011,"Antioch as a Centre of Hellenic Culture, as Observed by Libanius",,Liverpool University Press - Translated Texts for Historians,,A.F. Norman,2000,,Liverpool University Press,,225,0,English,История,avaxhome.ws,,"9780853235958,0853235953",,,,,939/.27,DS156.A556 L53213 2000,,,OL3988814M,20120,0,,,,,,,1,2274203,pdf,724657966242BB8B7134A0F69243C3FA,,,Y. dl_avaxhome 20120  _=0853235953_Antioch_as_a_Centre_1.pdf,0,2000-01-01 01:00:00,2016-04-03 02:51:08,261000/724657966242bb8b7134a0f69243c3fa-g.jpg,,
5699012,Medical Management Of Adults With Neurologic Disabilities,,,,"Adrian Cristian, Adrian Cristian",2008,1,Demos Medical Publishing,,465,0,English,Медицина,avaxhome.ws,,"9781933864457,1933864451",,,,,616.8/043,RC346 .M266 2009,,,OL22542701M,16861,0,,,,,,,T,18800510,pdf,72742E483C9C34F03B97FD169996D172,,,Y. dl_avaxhome 16861  _=Medical_Management_Of_Adults_With_Neurologic_Disabilities.pdf,0,2000-01-01 01:00:00,2016-04-03 02:51:08,261000/72742e483c9c34f03b97fd169996d172-d.jpg,,
5699008,Whistle-Blowing in Organizations,,Lea&#039;s Organization and Management,,"Marcia P. Miceli, Janet Pollex Near, Terry M. Dworkin",2008,1,Psychology Press,,248,0,English,Бизнес,avaxhome.ws,0,"0805859896,9780805859898",,,,,302.3/5,HD60 .M54 2008,,,,22197,0,,,,,1,,T,3969901,pdf,71BB0A67321BCE31B338BD97E25F8B73,,,Y. dl_avaxhome 22197  _=aa25.pdf,0,2000-01-01 01:00:00,2016-04-03 02:51:08,261000/71bb0a67321bce31b338bd97e25f8b73-d.jpg,,
5699009,Mastering Microsoft Exchange Server 2007 SP1,,,,Jim McBee,2009,2nd Ed,Sybex,,1033,0,English,Компьютеры//Программирование,avaxhome.ws,,"9780470417331,0470417331",,,,,004.692,QA76.9.C55 M26387 2009,,,OL22672343M,19727,0,,,,,,,T,23898826,pdf,71F861639D0B3FAEF4575F2AE7E69B24,,,Y. dl_avaxhome 19727  _=0470417331.pdf,0,2000-01-01 01:00:00,2016-04-03 02:51:08,261000/71f861639d0b3faef4575f2ae7e69b24-d.jpg,,
5699006,Step-by-Step Guide to Sustainability Planning: How to Create and Implement Sustainability Plans in Any Business or Organization,,,,"Darcy Hitchcock, Marsha Willard",2008,,Earthscan Publications Ltd.,,206,0,English,Образование,avaxhome.ws,,"9781844076161,1844076164",,,,,658.4/095,HD30.255 .H584 2008,,,OL17010803M,17716,0,,,,,,,T,6288353,pdf,70EE06623AD604B323C6FC2F3000D2DC,,,Y. dl_avaxhome 17716  _=d02.pdf,0,2000-01-01 01:00:00,2016-04-03 02:51:08,261000/70ee06623ad604b323c6fc2f3000d2dc-d.jpg,,
5699007,Forensic Science Glossary,,,,John C. Brenner,1999,1,CRC Press,,185,0,English,Наука (общее)//Научно-популярное,avaxhome.ws,,"9780849311963,0849311969",,,,,363.25/03,HV8073 .B677 2000,,,OL6891151M,24630,0,,,,,,,T,5370794,pdf,7177282AB0961AC350D361D1A7FA8068,,,Y. dl_avaxhome 24630  _=dd23.pdf,0,2000-01-01 01:00:00,2016-04-03 02:51:08,261000/7177282ab0961ac350d361d1a7fa8068-d.jpg,,
5699003,Mind Wars: The battle for your brain,,,,Ian McFadyen,2000,,Allen & Unwin Pty LTD,,233,0,English,Общественные науки прочие,avaxhome.ws,,"9781865083162,186508316X",,,,,155.7,BF701 .M38 2000,,,OL3653476M,not,0,,,,,,,1,6835198,pdf,70DCBF0F14F3E12786682D96F83DDF07,,,Y. dl_avaxhome 24945  _=ee05.pdf,0,2000-01-01 01:00:00,2016-04-03 02:51:08,261000/70dcbf0f14f3e12786682d96f83ddf07-d.jpg,,
5699004,Clinical Care of the Aged Person: An Interdisciplinary Perspective,,,,"David G. Satin, Barbara A. Blakeney, Jennifer M. Bottomley, Margot C. Howe, Helen D. Smith",1994,1,"Oxford University Press, USA",,512,0,English,Медицина//Клиническая медицина,avaxhome.ws,,"9780195052909,0195052900",,,,,362.1/9897,RC952 .C534 1994,,,OL1427161M,22241,0,,,,,,,,33728072,pdf,70DDA2FB29D4CF90B86E45A6351F470C,,,Y. dl_avaxhome 22241  _=0195052900.pdf,0,2000-01-01 01:00:00,2016-04-03 02:51:08,261000/70dda2fb29d4cf90b86e45a6351f470c-d.jpg,,
5699005,Cubic Forms,,,,Yu.I. Manin,1986,2,North Holland,,335,0,English,Математика,avaxhome.ws,,"9780444878236,0444878238",,,,,516.3/6,QA573 .M2513 1986,,,OL2539466M,17145,0,,,,,,,T,12174934,djvu,70ECA41ED1BA5B20E2610C5CAE4C9DE7,,,Y. dl_avaxhome 17145  _=Manin---Cubic_forms.djvu,0,2000-01-01 01:00:00,2016-04-03 02:51:08,261000/70eca41ed1ba5b20e2610c5cae4c9de7-d.jpg,,
5699002,The Complete Guide to Day Trading: A Practical Manual From a Professional Day Trading Coach,,,,Markus Heitkoetter,2008,,Outskirts Press,,295,0,English,Экономика,avaxhome.ws,,"1432721178,9781432721176",,,,,,,,,,19094,0,,,,,,,1,33684820,pdf,705429866626352736690E34875CDF93,,,Y. dl_avaxhome 19094  _=The_Complete_Guide_to_Day_Trading.pdf,0,2000-01-01 01:00:00,2016-04-03 02:51:08,261000/705429866626352736690e34875cdf93-d.jpg ,,
5699000,Simple Reading Activities,,Oxford Basics,,"Jill Hadfield, Charles Hadfield",2000,,"Oxford University Press, USA",,72,0,English,,avaxhome.ws,,"9780194421737,0194421732",,,,,,,,,OL7385642M,20601,0,,,,,,,T,5470366,pdf,7014438202FD7CA5D6CA1193EE0ADC70,,,Y. dl_avaxhome 20601  _=Oxford.Basics-Simple.Reading.Activities.pdf,0,2000-01-01 01:00:00,2016-04-03 02:51:08,261000/7014438202fd7ca5d6ca1193ee0adc70-d.jpg,,
5699001,UNCTAD Handbook of Statistics 2008,,Unctad Handbook of Statistics/Manuel De Statistiques De La Cnuced,,United Nations,2008,,United Nations,,513,0,English,Математика//Математическая статистика,avaxhome.ws,,"9789211020694,9211020697",,,,,,,,,,19372,0,,,,,,,,29021271,pdf,704F67B8842B0D475878ED1B0F74DC9B,,,Y. dl_avaxhome 19372  _=f04.pdf,0,2000-01-01 01:00:00,2016-04-03 02:51:08,261000/704f67b8842b0d475878ed1b0f74dc9b-d.jpg,,
5698999,Real-Resumes for Manufacturing Jobs: Including Real Resumes Used to Change Careers and Transfer Skills to Other Industries,,Real-Resumes Series,,Anne McKinney,2002,,Prep Publishing,,193,0,English,Бизнес,avaxhome.ws,,"9781885288233,1885288239",,,,,650.14/2,HF5383 .R39587 2002,,,OL24922372M,24936,0,,,,,,,T,5453618,pdf,6FAF2920AB4333C6AF14BCD48C2DDBC4,,,Y. dl_avaxhome 24936  _=ee14.pdf,0,2000-01-01 01:00:00,2016-04-03 02:51:08,261000/6faf2920ab4333c6af14bcd48c2ddbc4-d.jpg,,
5698997,The Modern Survival Retreat,,,,Ragnar Benson,1998,,Paladin Press,,234,0,English,Языкознание,avaxhome.ws,,"9780873649803,087364980X",,,,,,,,,OL482247M,21829,0,,,,,,,T,9318117,pdf,6F9762233C38F223CA42CB5BDCD6EFAC,,,Y. dl_avaxhome 21829  _=Rac.pdf,0,2000-01-01 01:00:00,2016-04-03 02:51:08,261000/6f9762233c38f223ca42cb5bdcd6efac-d.jpg,,
5698998,Be Prepared! Pass That Job Interview,,,,Julie-Ann Amos,2008,3rd,How To Books Ltd,,97,0,English,Бизнес,avaxhome.ws,,"1845282671,9781845282677,9781848033009",,,,,,,,,,21749,0,,,,,1,,T,397629,pdf,6F9E61366054AC261DC0EA29CAB01B34,,,Y. dl_avaxhome 21749  _=Be Prepared Pass That Job Interview.pdf,0,2000-01-01 01:00:00,2016-04-03 02:51:08,261000/6f9e61366054ac261dc0ea29cab01b34-d.jpg,,
5698996,The Problem of Pure Consciousness: Mysticism and Philosophy,,,,Robert K. C. Forman,1997,,"Oxford University Press, USA",,318,0,English,Общественные науки прочие//Философия,avaxhome.ws,,"9780195109764,0195109767",,,,,,,,,OL22376433M,18870,0,,,,,,,T,6084991,pdf,6F3DE943C83BD8830B8316585102D07D,,,Y. dl_avaxhome 18870  _=a35.pdf,0,2000-01-01 01:00:00,2016-04-03 02:51:08,261000/6f3de943c83bd8830b8316585102d07d-d.jpg,,
5698994,"How Much Money Does an Economy Need?: Solving the Central Economic Puzzle of Money,Prices, and Jobs",,,,Hunter Lewis,2008,,Axios Press,,196,0,English,Экономика,avaxhome.ws,,"0975366270,9780975366271",,,,,332.4/6,HG221 .L486 2007,,,OL11807435M,18208,0,,,,,1,,T,2108563,pdf,6E98F2085AA446BCEFB0F409F22705B8,,,Y. dl_avaxhome 18208  _=Hunter.Lewis.-.How.much.money.does.an.economy.need.196pp..pdf,0,2000-01-01 01:00:00,2016-04-03 02:51:08,261000/6e98f2085aa446bcefb0f409f22705b8-d.jpg,,
5698995,Entire solutions of semilinear elliptic equations,,Progress in Nonlinear Differential Equations and Their Applications,,"Ilya A. Kuzin, Stanislav I. Pohozaev",1997,1,BirkhГ¤user Basel,,128,0,English,Математика,avaxhome.ws,,"9783764353230,3764353236",,,,,515/.353,QA377 .K89 1997,,,OL688723M,17756,0,,,,,,,,4757077,djvu,6EEF3166A34EF9BD0A22132C81020715,,,Y. dl_avaxhome 17756  _=entire_solutions_of_semilinear_elliptic_equations.djvu,0,2000-01-01 01:00:00,2016-04-03 02:51:08,261000/6eef3166a34ef9bd0a22132c81020715-d.jpg,,
5698993,"The Trillion Dollar Meltdown: Easy Money, High Rollers, and the Great Credit Crash",,,,Charles R. Morris,2008,1St Edition,PublicAffairs,,222,0,English,Экономика,avaxhome.ws,,"9781586485634,1586485636",,,,,332/.04150973,HG4910 .M667 2008,,,OL12319264M,18575,0,,,,,,,T,5541759,pdf,6DC11879A31DC3741DAE967F26138766,,,Y. dl_avaxhome 18575  _=c04.pdf,0,2000-01-01 01:00:00,2016-04-03 02:51:08,261000/6dc11879a31dc3741dae967f26138766-d.jpg,,
5698991,The Treatment of Epilepsy,,,,"Simon D. Shorvon, Emilio Perucca, David Fish, W E Dodson",2004,2,Wiley-Blackwell,,936,0,English,Медицина,avaxhome.ws,,"9780632060467,0632060468",,,,,616.8/5306,RC372 .T67 2004,,,OL18902170M,20256,0,,,,,,,,108945161,pdf,6D398AA68C309A1CEE5D66E71C1725EE,,,Y. dl_avaxhome 20256  _=Treatment_of_epilepsy.pdf,0,2000-01-01 01:00:00,2016-04-03 02:51:08,261000/6d398aa68c309a1cee5d66e71c1725ee-d.jpg,,
5698992,The Art of JosГ© del Nido,,,,Geoffrey Lewis,2004,,Modern Graphics,,110,0,German,Искусство,avaxhome.ws,,"9783931670573,3931670570",,,,,,,,,,19770,0,,,,,,,,8724142,pdf,6D7BB8920B710DBDD98E061B5EB76F08,,,Y. dl_avaxhome 19770  _=jslednid7foatrtnsix.pdf,0,2000-01-01 01:00:00,2016-04-03 02:51:08,261000/6d7bb8920b710dbdd98e061b5eb76f08-d.jpg,,
5698988,Street Logos,,,,Tristan Manco,2004,,Thames & Hudson,,132,0,English,"Домоводство, досуг",avaxhome.ws,,"0500284695,9780500284698",,,,,751.7/3,NC1002.L63 M36 2004,,,OL22586192M,21061,0,,,,,1,,,46466550,pdf,6C978AAB3E1AF7E246252ECC762921B5,,,Y. dl_avaxhome 21061  _=Street_Logos_150dpi.pdf,0,2000-01-01 01:00:00,2016-04-03 02:51:08,261000/6c978aab3e1af7e246252ecc762921b5-d.jpg,,
5698989,Fiat BR-20,,Wydawnictwo Militaria 081,,Pawel Babinski,1999,,Wydawnictwo Militaria,,48,0,English,История,avaxhome.ws,,8372190356,,,,,,,,,,20581,0,,,,,,,,11366625,pdf,6CCE25C02BDD6C53040F07270A4A5154,,,20581 =Wydawnictwo_Militaria__081__-_Fiat_Br20.pdf,0,2000-01-01 01:00:00,2016-04-03 02:51:08,261000/6cce25c02bdd6c53040f07270a4a5154-g.jpg,,
5698990,"Ecce Homo, and the Antichrist: How One Becomes What One is/a curse on Christianity",,,,Friedrich Wilhelm Nietzsche,2004,,Algora Publishing,,183,0,English,Общественные науки прочие//Философия,avaxhome.ws,,"9780875862811,0875862810",,,,,193,B3316.N54 A3413 2004,,,OL3291024M,24635,0,,,,,,,T,5407029,pdf,6CF7214B912D9C4AAC5CE627A85DCFAA,,,Y. dl_avaxhome 24635  _=dd18.pdf,0,2000-01-01 01:00:00,2016-04-03 02:51:08,261000/6cf7214b912d9c4aac5ce627a85dcfaa-d.jpg,,
5698987,The Philosophy of Mathematics: Translated from Cours de Philosophie Positive by W. M. Gillespie,,Dover Phoenix Editions,,Auguste Comte,2005,,Dover Publications,,284,0,English,Математика,avaxhome.ws,,"9780486442495,0486442497",,,,,,,,,OL7639718M,23390,0,,,,,,,T,20591133,pdf,6C81974F77A83B4A97D7F865B7383236,,,Y. dl_avaxhome 23390  _=the_philosophy_of_mathematics.pdf,0,2000-01-01 01:00:00,2016-04-03 02:51:08,261000/6c81974f77a83b4a97d7f865b7383236-d.jpg,,
5698985,"Swimming Pool Games: All the Rules, All the Classics",,Klutz Guides,,Inc. Klutz,1999,illustrated edition,Klutz Press,,12,0,English,Образование,avaxhome.ws,,"9781570543630,1570543631",,,,,,,,,OL12198289M,18537,0,,,,,,,,7548034,pdf,6C0D79C3A0BDBB844D8F56A0C1C171E4,,,Y. dl_avaxhome 18537  _=oolpmeswimsningktz.pdf,0,2000-01-01 01:00:00,2016-04-03 02:51:08,261000/6c0d79c3a0bdbb844d8f56a0c1c171e4-d.jpg,,
5698986,"God, Chance and Purpose: Can God Have It Both Ways?",,,,David J. Bartholomew,2008,1,Cambridge University Press,,274,0,English,Общественные науки прочие//Философия,avaxhome.ws,,"9780521880855,0521880858",,,,,,,,,OL10438338M,19904,0,,,,,,,T,5695460,pdf,6C6632209E3F235C957362AC4E468175,,,Y. dl_avaxhome 19904  _=yy29.pdf,0,2000-01-01 01:00:00,2016-04-03 02:51:08,261000/6c6632209e3f235c957362ac4e468175-d.jpg,,
5698983,Fugitives of Chaos,,Tor Fantasy,,John C. Wright,2007,,Tor Fantasy,,234,0,English,"Физика//Механика//Нелинейная динамика, хаос",avaxhome.ws,,"9780765353870,0765353873",,,,,,,,,OL8054191M,16834,0,,,,,,,,1827162,pdf,6BF7AD3724A37A415FA0972083D10A8F,,,Y. dl_avaxhome 16834  _=Fugitives_of_Chaos.pdf,0,2000-01-01 01:00:00,2016-04-03 02:51:08,261000/6bf7ad3724a37a415fa0972083d10a8f-d.jpg,,
5698984,PHP 6 Fast and Easy Web Development,,,,"Matt (Matt Telles) Telles, Julie C. Meloni",2008,1,Course Technology PTR,,593,0,English,Компьютеры//Сети//Интернет,avaxhome.ws,,"1598634712,9781598634716,9781598636697",,,,,006.7/6,QA76.73.P224 M465 2007,,EehTqQ1BDzMC,OL12497077M,18582,0,,,,0,0,,1,7950870,pdf,6C0745B750EF3755EA48E0EF9A08EA03,,,Y. dl_avaxhome 18582  _=PHP_6_Fast_and_Easy_Web_Development_2008.pdf,0,2000-01-01 01:00:00,2016-04-03 02:51:08,261000/6c0745b750ef3755ea48e0ef9a08ea03-d.jpg,,
5698981,All Clear: Listening and Speaking,1,,,Helen Kalkstein Fragiadakis,2007,3,Heinle ELT,,242,0,English,Языкознание,avaxhome.ws,,"9781413017045,1413017045",,,,,,,,,,18091,0,,,,,,,,92608717,pdf,6B7FA6AC40A3C82C0A5832A51E60F9BD,,,Y. dl_avaxhome 18091  _=All_Clear_2_Book.pdf,0,2000-01-01 01:00:00,2016-04-03 02:51:08,261000/6b7fa6ac40a3c82c0a5832a51e60f9bd-d.jpg,,
5698982,A Concise Guide to Clinical Trials,,,,Allan Hackshaw,2009,1,BMJ Books,,214,0,English,Медицина//Клиническая медицина,avaxhome.ws,,9781405167741,,,,,615.50724,RM301.27 .H33 2009,,,OL25009377M,16586,0,,,,,,,1,2524673,pdf,6BCFB47E4389B3DB004334AD31D3715E,,,Y. dl_avaxhome 16586  _=hackshaw_3.pdf,0,2000-01-01 01:00:00,2016-04-03 02:51:08,261000/6bcfb47e4389b3db004334ad31d3715e-d.jpg,,
5698980,Negotiating The Curriculum: Educating For The 21st Century,,,,"Garth Boomer, Cynthia Onore, Nancy Lester, Jonathan Cook",1992,1,Routledge,,310,0,English,Наука (общее)//Науковедение,avaxhome.ws,,"1850009376,9781850009375,1850009317,9781850009313,9780203975381",,,,,375/.001,LB2806.15 .N44 1992,,,OL1710457M,22408,0,,,,,1,,T,1916708,pdf,6B6B81A0760AFB740C4DAA3F20C980FA,,,Y. dl_avaxhome 22408  _=1850009376.pdf,0,2000-01-01 01:00:00,2016-04-03 02:51:08,261000/6b6b81a0760afb740c4daa3f20c980fa-d.jpg,,
5698979,Samochody Wehrmachtu,,Wydawnictwo Militaria 072,,Robert Sawicki,1998,,Wydawnictwo Militaria,,68,0,English,История,avaxhome.ws,,"9788372190239,8372190232",,,,,,,,,,21854,0,,,,,,,,25351464,pdf,6B49D98EE6F97232795632AB7FB64712,,,21854 =Wydawnictwo_Militaria__072__-_Samochody_Wehrmachtu.pdf,0,2000-01-01 01:00:00,2016-04-03 02:51:08,261000/6b49d98ee6f97232795632ab7fb64712-g.jpg,,
5698978,Of Minds and Language: A Dialogue with Noam Chomsky in the Basque Country,,,,"Massimo Piattelli-Palmarini, Juan Uriagereka, Pello Salaburu",2009,1,"Oxford University Press, USA",,472,0,English,Психология,avaxhome.ws,,"0199544662,9780199544660",,,,,401,P107 .O35 2009,,,OL16958483M,16815,0,,,,,,,1,5423810,pdf,6B47F9A06FB4BCCDC90AC7892C3ECBA9,,,Y. dl_avaxhome 16815  _=Of_Minds_and_Language.pdf,0,2000-01-01 01:00:00,2016-04-03 02:51:08,261000/6b47f9a06fb4bccdc90ac7892c3ecba9-d.jpg,,
5698976,"Nanomaterials, Nanotechnologies and Design: An Introduction for Engineers and Architects",,,,"Daniel L. Schodek, Paulo Ferreira, Michael F. Ashby",2009,,Butterworth-Heinemann,,544,0,English,Техника//Нанотехнологии,avaxhome.ws,,"9780750681490,0750681497",,,,,,,,,,17725,0,,,,,,,,32253545,pdf,6A81CF69E615D49BD424F83ABFB621A3,,,Y. dl_avaxhome 17725  _=0750681497.pdf,0,2000-01-01 01:00:00,2016-04-03 02:51:08,261000/6a81cf69e615d49bd424f83abfb621a3-g.jpg,,
5698977,Clinical Manual of Anxiety Disorders,,,,Dan J. Stein,2004,1,"American Psychiatric Publishing, Inc.",,201,0,English,Медицина//Клиническая медицина,avaxhome.ws,,"9781585620760,1585620769",,,,,,,,,OL18156791M,22492,0,,,,,,,T,6497301,pdf,6AA105F356DC41D52BB093CBB8ED3C97,,,Y. dl_avaxhome 22492  _=nn16.pdf,0,2000-01-01 01:00:00,2016-04-03 02:51:08,261000/6aa105f356dc41d52bb093cbb8ed3c97-g.jpg,,
5698974,Waffen SS,,Wydawnictwo Militaria 086,,Robin Lumsden,1999,,Wydawnictwo Militaria,,88,0,German,История,avaxhome.ws,,"9788372190185,8372190186",,,,,,,,,,19141,0,,,,,,,,18552335,pdf,69F06B7AB5C0DE22D93210263EEB1B89,,,19141 =Wydawnictwo_Militaria__086__-_Waffen_SS.pdf,0,2000-01-01 01:00:00,2016-04-03 02:51:08,261000/69f06b7ab5c0de22d93210263eeb1b89-g.jpg,,
5698975,Business Dashboards: A Visual Catalog for Design and Deployment,,,,"Nils H. Rasmussen, Manish Bansal, Claire Y. Chen",2009,,Wiley,,301,0,English,Бизнес,avaxhome.ws,,"0470413476,9780470413470,0470460598,9780470460597",,,,,658.4/038011,HD30.213 .R37 2009,,,OL22560826M,17051,0,,,,,,,T,9015977,pdf,6A0B985558F312F0C81C009D31B18AA1,,,Y. dl_avaxhome 17051  _=0470413476.pdf,0,2000-01-01 01:00:00,2016-04-03 02:51:08,261000/6a0b985558f312f0c81c009d31b18aa1-d.jpg,,
5698972,Approaches to Design and Synthesis of Antiparasitic Drugs,,Pharmacochemistry Library,,"N. Anand, S. Sharma?",1997,1,Elsevier Science,,525,0,English,Химия//Фармакология,avaxhome.ws,,"9780444894762,0444894764",,,,,616.9/6061,RM412 .A53 1997,,,OL670134M,22221,0,,,,,,,T,22417164,pdf,691B29C89A74DF2F07215BC7E31CF102,,,Y. dl_avaxhome 22221  _=ApproDesig.pdf,0,2000-01-01 01:00:00,2016-04-03 02:51:08,261000/691b29c89a74df2f07215bc7e31cf102-d.jpg,,
5698973,Business Statistics: A Multimedia Guide to Concepts and Applications,,Hodder Arnold Publication,,"Moya McCloskey, Chris Robertson",2009,,Wiley,,411,0,English,Математика//Математическая статистика,avaxhome.ws,,"0340719273,9780585497426,9780340719275",,,,,50/.01/5195,HF1017 .R625 2002,,,OL3700413M,17648,0,,,,,,,T,25415109,pdf,69948E705265F393749A17F57E3BF713,,,Y. dl_avaxhome 17648  _=Business_Statistics.pdf,0,2000-01-01 01:00:00,2016-04-03 02:51:08,261000/69948e705265f393749a17f57e3bf713-d.jpg,,
5698970,Neurology in Clinical Practice,2 vol. set,,,"Walter G. Bradley DM  FRCP, Robert B. Daroff MD, Gerald M Fenichel MD, Joseph Jankovic MD",2003,4,Butterworth-Heinemann,,2570,0,English,Медицина//Клиническая медицина,avaxhome.ws,,"9780750674690,0750674695",,,,,616.8,RC346 .N4535 2004,,,OL14757126M,19901,0,,,,,,,,60050769,pdf,66C4034AA33A3C87461E1C0D884A48AD,,,Y. dl_avaxhome 19901  _=Neurology_in_Clinical_Practice.pdf,0,2000-01-01 01:00:00,2016-04-03 02:51:08,261000/66c4034aa33a3c87461e1c0d884a48ad-d.jpg,,
5698971,Topics in the Geometric Theory of Linear Systems,,"Hermann, Robert//Interdisciplinary Mathematics",,Robert Hermann,1984,,Math Science Pr,,301,0,English,Математика//Геометрия и топология,avaxhome.ws,,"091569235X,9780915692354",,,,,620.7/2,QA402 .H445 1984,,,OL2842034M,17126,0,,,,,,,,13256148,pdf,670193BA7509481D7AAB67D46139B110,,,Y. dl_avaxhome 17126  _=hermann_r._-_im_22.pdf,0,2000-01-01 01:00:00,2016-04-03 02:51:08,261000/670193ba7509481d7aab67d46139b110-g.jpg,,
5698968,The Modern Bodyguard,,,,,,,,,352,0,English,,avaxhome.ws,,"9780953763856,0953763854",,,,,,,,,,20973,0,,,,,,,T,6374712,pdf,6675D2BE3E3A351E0E5BA96EB32A0FA4,,,Y. dl_avaxhome 20973  _=The_Modern_Bodyguard.pdf,0,2000-01-01 01:00:00,2016-04-03 02:51:08,261000/6675d2be3e3a351e0e5ba96eb32a0fa4-d.jpg,,
5698969,India's Nuclear Bomb and National Security,,Routledge Advances in South Asian Studies,,Anna Greenspan,2006,1,Palgrave Macmillan,,248,0,English,Общественные науки прочие,avaxhome.ws,,"1403939438,9781403939432",,,,,303.48/33/0954,T58.5 .G73 2004,,,OL22604502M,22470,0,,,,,,,1,5410551,pdf,66BC2D332A302CB518DABE3D6522DE2C,,,Y. dl_avaxhome 22470  _=nn38.pdf,0,2000-01-01 01:00:00,2016-04-03 02:51:08,261000/66bc2d332a302cb518dabe3d6522de2c-d.jpg,,
5698966,After Dark,,,,Wilkie Collins,2004,,Wildside Press,,381,0,English,Литература//Проза,avaxhome.ws,,"0809599082,9780809599080",,,,,,,,,OL7978872M,23157,0,,,,,1,,,1286681,pdf,65E91D90974B062CC538A3C52587483F,,,Y. dl_avaxhome 23157  _=After_Dark.pdf,0,2000-01-01 01:00:00,2016-04-03 02:51:08,261000/65e91d90974b062cc538a3c52587483f-d.jpg,,
5698967,Typographie: A Manual of Design,,,,Emil Ruder,2002,4th,A. Niggli,,274,0,German,Искусство//Графические виды искусства,avaxhome.ws,,"9783721200430,3721200438",,,,,686.2/24,Z246 .R79 1982,,,OL15505004M,23678,0,,,,,,,,409371862,pdf,66027C3537E4A9998806241E940C0F9F,,,Y. dl_avaxhome 23678  _=Typ.pdf,0,2000-01-01 01:00:00,2016-04-03 02:51:08,261000/66027c3537e4a9998806241e940c0f9f-d.jpg,,
5698964,Echocardiography in Congenital Heart Disease Made Simple,,Cardiopulmonary Medicine from Imperial College Press,,"Siew Yen Ho, Michael L. Rigby, Robert Henry Anderson",2005,1,World Scientific Publishing Company,,259,0,English,Медицина//Болезни//Внутренние болезни,avaxhome.ws,,"9781860941245,1860941249",,,,,616.1/20437543,RC687 .H6 2005,,,OL3312199M,19455,0,,,,,,,T,21134491,pdf,65826797D857FAD9FFB7D22993A7D075,,,Y. dl_avaxhome 19455  _=1860941249.pdf,0,2000-01-01 01:00:00,2016-04-03 02:51:08,261000/65826797d857fad9ffb7d22993a7d075-d.jpg,,
5698965,Adobe Integrated Runtime (AIR) for JavaScript Developers Pocket Guide),,Adobe Developer Library,,"Mike Chambers, Daniel Dura, Kevin Hoyt",2007,1,Adobe Developer Library,,176,0,English,Компьютеры//Программирование//Языки программирования,avaxhome.ws,,"0596515197,9780596515195",,,,,005.1,QA76.76.D47 C843 2007,,,OL22525911M,18350,0,,,,,1,,T,4440028,pdf,6596A15E998F027FCC5EF1F1F7267117,,,Y. dl_avaxhome 18350  _=adobe_air_for_javascript_developers_062807.pdf,0,2000-01-01 01:00:00,2016-04-03 02:51:08,261000/6596a15e998f027fcc5ef1f1f7267117-d.jpg,,
5698963,Living and Working in America,,How to,,Steve Mills,2004,6th,How to Books,,319,0,English,,avaxhome.ws,,"9781857039139,1857039130",,,,,,,,,OL8998197M,20363,0,,,,,,,T,15456658,pdf,6516253F9B9BBEEF83A0C2A6054877ED,,,Y. dl_avaxhome 20363  _=Living_and_Working_in_America.pdf,0,2000-01-01 01:00:00,2016-04-03 02:51:08,261000/6516253f9b9bbeef83a0c2a6054877ed-d.jpg,,
5698961,Eschatology in the Old Testament,,,,Donald Gowan,1998,2,Continuum International Publishing,,175,0,English,Религия,avaxhome.ws,,"9780567086556,0567086550",,,,,,,,,OL7854305M,22306,0,,,,,,,T,10869166,pdf,64D9564EE394696B917795BB91C62B2A,,,Y. dl_avaxhome 22306  _=Eschatology_in_the_Old_Testament.pdf,0,2000-01-01 01:00:00,2016-04-03 02:51:08,261000/64d9564ee394696b917795bb91c62b2a-d.jpg,,
5698962,Soviet Wheeled Armored Vehicles,,Concord 1013,,Steven J. Zaloga,1992,,Concord,,64,0,English,Техника//Транспорт,avaxhome.ws,,"9789623610131,9623610130",,,,,,,,,OL9160387M,23468,0,,,,,,,,25904611,pdf,64E234762493BA33FBC2CB59794EABD1,,,Y. dl_avaxhome 23468  _=Concord_1013_-_Soviet_Wheeled_armored_vehicles.pdf,0,2000-01-01 01:00:00,2016-04-03 02:51:08,261000/64e234762493ba33fbc2cb59794eabd1-g.jpg,,
5698959,Holiday and Travel Security Handbook,,,,Des Conway,2007,,How To Books,,256,0,English,,avaxhome.ws,,"9781845280994,1845280997",,,,,,,,,OL11911716M,20996,0,,,,,,,T,12947105,pdf,6487F149FB68357C0F931216D69361ED,,,Y. dl_avaxhome 20996  _=Holiday_20and_20Travel_20Security_20Handbook.pdf,0,2000-01-01 01:00:00,2016-04-03 02:51:08,261000/6487f149fb68357c0f931216d69361ed-d.jpg,,
5698960,Developmental Immunotoxicology,,,,Steven D. Holladay,2004,1,Informa Healthcare,,383,0,English,Медицина//Иммунология,avaxhome.ws,,"9780415284578,0415284570",,,,,,,,,OL18219699M,17265,0,,,,,,,T,4336475,pdf,649E6CA60800BEA9FE7F32F73940C859,,,Y. dl_avaxhome 17265  _=63747___holl_devimmtox.pdf,0,2000-01-01 01:00:00,2016-04-03 02:51:08,261000/649e6ca60800bea9fe7f32f73940c859-d.jpg,,
5698957,"Real Resumes for Police, Law Enforcement and Security Jobs: Including Real Resumes Used to Change Careers and Transfer Skills to Other Industries)",,Real-Resumes Series,,Anne McKinney,2002,,Prep Publishing,,193,0,English,Юридические науки//Право,avaxhome.ws,,"9781885288257,1885288255",,,,,650.14/2,HF5383 .R39588 2002,,,OL24922373M,24934,0,,,,,,,T,5542713,pdf,64442591565C255FA656E50662084712,,,Y. dl_avaxhome 24934  _=ee16.pdf,0,2000-01-01 01:00:00,2016-04-03 02:51:08,261000/64442591565c255fa656e50662084712-d.jpg,,
5698958,Finite Element Analysis of Antennas and Arrays,,,,"Jian-Ming Jin, Douglas J. Riley",2008,,Wiley-IEEE Press,,467,0,English,Техника//Электроника//Радио,avaxhome.ws,,"0470401281,9780470401286,9780470409725",,,,,621.382/4,TK7871.6 .J56 2008,,,OL16911934M,16857,0,,,,,,,T,11689370,pdf,6471B8AA6238A409B598E7AF85B5DF88,,,Y. dl_avaxhome 16857  _=Finite_Element_Analysis_of_Antennas_and_Arrays.pdf,0,2000-01-01 01:00:00,2016-04-03 02:51:08,261000/6471b8aa6238a409b598e7af85b5df88-d.jpg,,
5698956,Analogue and Numerical Modelling of Sedimentary Systems: From Understanding to Prediction,,Special Publication 40 of the IAS) (International Association Of Sedimentologists Series,,"Poppe de Boer, George Postma, Kees van der Zwan, Peter Burgess, Peter Kukla",2008,1,Wiley-Blackwell,,321,0,English,Математика//Вычислительная математика,avaxhome.ws,,"9781405189309,1405189304",,,,,552/.5,QE615.5.I8 A53 2008,,,OL23157920M,19288,0,,,,,,,,36426748,pdf,63D79EBF1DE37519539B4EA3F0DF1B5A,,,Y. dl_avaxhome 19288  _=1405189304.pdf,0,2000-01-01 01:00:00,2016-04-03 02:51:08,261000/63d79ebf1de37519539b4ea3f0df1b5a-d.jpg,,
5698955,The Experience of Freedom,,Meridian: Crossing Aesthetics,,Jean-Luc Nancy,1994,1,Stanford University Press,,243,0,English,Общественные науки прочие//Философия,avaxhome.ws,,"9780804721905,0804721904",,,,,123/.5,B105.L45 N3613 1993,,,OL1407873M,19735,0,,,,,,,T,12677322,pdf,63CE7F4D1A4BB5310047E23F41525BD6,,,Y. dl_avaxhome 19735  _=0804721904.pdf,0,2000-01-01 01:00:00,2016-04-03 02:51:08,261000/63ce7f4d1a4bb5310047e23f41525bd6-d.gif,,
5698953,Crimes of Punishment: America's Culture of Violence,,,,Theodore L. Dorpat,2007,,Algora Publishing,,307,0,English,"Юридические науки//Криминология, криминалистика",avaxhome.ws,,"9780875865638,0875865631",,,,,364.973,HV6080 .D64 2007,,,OL11164393M,24639,0,,,,,,,T,5467892,pdf,63A228E85E89B9183B19B995ABBC60D8,,,Y. dl_avaxhome 24639  _=dd14.pdf,0,2000-01-01 01:00:00,2016-04-03 02:51:08,261000/63a228e85e89b9183b19b995abbc60d8-d.jpg,,
5698954,After the Storm: Iraqi Wrecks and Fortifications,,FIREPOWER PICTORIAL 1024,,Eric Micheletti,1990,,Concord Publications,,66,0,English,История,avaxhome.ws,,"9623610246,9789623610247",,,,,,,,,OL9160396M,23642,0,,,,,1,,,11922183,pdf,63C8B835E344ABC005EB08730CC96275,,,Y. dl_avaxhome 23642  _=Concord_Publication_1024_-_After_The_Storm_-_Iraqi_Wrecks_And_Fortifications.pdf,0,2000-01-01 01:00:00,2016-04-03 02:51:08,261000/63c8b835e344abc005eb08730cc96275-g.jpg,,
5698952,Medicine and the Internet,,,,Bruce McKenzie,2002,3,"Oxford University Press, USA",,309,0,English,Компьютеры//Сети//Интернет,avaxhome.ws,,"9780198510635,0198510632",,,,,004.67/8/02461,R119.95 .M37 2002,,,OL17920276M,18193,0,,,,,,,1,3318993,pdf,638698727AFDC52858607ACF45D67130,,,Y. dl_avaxhome 18193  _=0198510632_10.pdf,0,2000-01-01 01:00:00,2016-04-03 02:51:08,261000/638698727afdc52858607acf45d67130-d.jpg,,
5698950,Passages Student's: An Upper-level Multi-skills Course,book 2,"Passages , No 2",,"Jack C. Richards, Chuck Sandy",2000,,Cambridge University Press,,74,0,English,Языкознание,avaxhome.ws,,"9780521564717,0521564719",,,,,428.2/4,PE1128 .R4599 2000,,,OL52082M,19181,0,,,,,,,,13261323,pdf,6300078DF25EE581F7F526329AA78AC7,,,Y. dl_avaxhome 19181  _=DL-03.pdf,0,2000-01-01 01:00:00,2016-04-03 02:51:08,261000/6300078df25ee581f7f526329aa78ac7-d.jpg,,
5698951,"Sound and Recording, : An Introduction",,Music Technology,,"Francis Rumsey, TIM MCCORMICK",2006,5,Focal Press,,595,0,English,Техника,avaxhome.ws,,"0240519965,9780240519968,9781423763291",,,,,,,,,OL22378373M,19095,0,,,,,0,,T,5766994,pdf,6333C2AA46602C6E491F64E88D0F2851,,,Y. dl_avaxhome 19095  _=Sound_And_Recording.pdf,0,2000-01-01 01:00:00,2016-04-03 02:51:08,261000/6333c2aa46602c6e491f64e88d0f2851-d.jpg,,
5698948,Harry Potter Hardcover Box Set,Books 1-6,,,"J. K. Rowling, Mary GrandPré",2005,,Arthur A. Levine Books,,376,0,English,Литература//Проза,avaxhome.ws,,"9780439827607,0439827604",,,,,,,,,OL7515755M,17164,0,,,,,,,T,7808855,pdf,6283E2E30701C07A86F7C98873067115,,,Y. dl_avaxhome 17164  _=1920942629.pdf,0,2000-01-01 01:00:00,2016-04-03 02:51:08,261000/6283e2e30701c07a86f7c98873067115-d.jpg,,
5698949,Lithic Materials and Paleolithic Societies,,,,"Brian Adams, Brooke Blades",2009,New,Wiley-Blackwell,,305,0,English,Наука (общее)//Науковедение,avaxhome.ws,,"9781405168373,1405168374",,,,,930.1/2,CC79.5.S76 L577 2009,,,OL22560662M,16971,0,,,,,,,1,5531762,pdf,62FCBDCF4690A56815F9C2F668939BC6,,,Y. dl_avaxhome 16971  _=Lithic_Materials.pdf,0,2000-01-01 01:00:00,2016-04-03 02:51:08,261000/62fcbdcf4690a56815f9c2f668939bc6-d.jpg,,
5698946,Mansfield Park,,Norton Critical Editions,,"Jane Austen, Claudia L. Johnson",1998,,W. W. Norton & Company,,542,0,English,Литература//Проза,avaxhome.ws,,"0393967913,9780393967913",,,,,823/.7,PR4034 .M3 1998,,,OL1009432M,22509,0,,,,,,,T,8520105,pdf,62306F81D282215E853B3E32271EF1BC,,,Y. dl_avaxhome 22509  _=Austen-mpnce.pdf,0,2000-01-01 01:00:00,2016-04-03 02:51:08,261000/62306f81d282215e853b3e32271ef1bc-d.jpg,,
5698947,Ethics and Criminal Justice: An Introduction,,Cambridge Applied Ethics,,John Kleinig,2008,1,Cambridge University Press,,296,0,English,"Юридические науки//Криминология, криминалистика",avaxhome.ws,,"9780521864206,0521864208",,,,,,,,,OL10437633M,19924,0,,,,,,,T,5637900,pdf,62591492CAC80C300ED3FC011FE45B9E,,,Y. dl_avaxhome 19924  _=yy11.pdf,0,2000-01-01 01:00:00,2016-04-03 02:51:08,261000/62591492cac80c300ed3fc011fe45b9e-d.jpg,,
5698945,Enter the Dragon,,,,"Tielle St. Clare, Madison Hayes, Mlyn Hurn",2005,,Ellora's Cave Publishing Inc.,,236,0,English,,avaxhome.ws,,"9781419952715,1419952714",,,,,,,,,OL8484394M,18970,0,,,,,,,T,1306995,pdf,61AEEA76A91DF8FF2C868BC6C76385CF,,,"Y. dl_avaxhome 18970  _=Anthology_-_Enter_The_Dragon_-_Tielle_St_Clare,_Madison_Hayes,_Mlyn_Hurn.pdf",0,2000-01-01 01:00:00,2016-04-03 02:51:08,261000/61aeea76a91df8ff2c868bc6c76385cf-d.jpg,,
5698943,Cycad Classification:,,,,"Terrence Walters, Roy Osborne",2004,First,CABI,,276,0,English,Биология,avaxhome.ws,,"9780851997414,0851997414",,,,,585/.9/012,QK494 .C93 2004,,,OL22574486M,22480,0,,,,,,,T,7782368,pdf,616C3B09320234331CF2EFBB10AE5F33,,,Y. dl_avaxhome 22480  _=nn28.pdf,0,2000-01-01 01:00:00,2016-04-03 02:51:08,261000/616c3b09320234331cf2efbb10ae5f33-d.jpg,,
5698944,"India's Changing Innovation System: Achievements, Challenges, and Opportunities for Cooperation: Report of a Symposium",,,,"Committee on Comparative Innovation Policy: Best Practice for the 21st Century, National Research Council, Charles W. Wessner, Sujai J. Shivakumar",2007,,National Academies Press,,225,0,English,Образование//Международные конференции и симпозиумы,avaxhome.ws,,"9780309104838,0309104831",,,,,,,,,OL16121932M,18327,0,,,,,,,,1401712,pdf,6186A3A2773C7A4A17EE221FF36DFCA1,,,Y. dl_avaxhome 18327  _=93.pdf,0,2000-01-01 01:00:00,2016-04-03 02:51:08,261000/6186a3a2773c7a4a17ee221ff36dfca1-d.jpg,,
5698941,Hidden: The Conceptual Photography of Misha Gordin,,,,Misha Gordin,2008,Limited Edition,Earth Aware Editions,,111,0,English,Искусство//Фотография,avaxhome.ws,,"1933784202,9781933784205",,,,,,,,,OL12339460M,24203,0,,,,,1,,,13887582,pdf,610192404BD19672F97B04E5C87A7646,,,Y. dl_avaxhome 24203  _=Conceptual.photography.pdf,0,2000-01-01 01:00:00,2016-04-03 02:51:08,261000/610192404bd19672f97b04e5c87a7646-d.jpg,,
5698942,Watercolor Workshop,,PRACTICAL ART,,Glynis Barnes-Mellish,2006,1ST,DK ADULT,,128,0,English,Образование//Международные конференции и симпозиумы,avaxhome.ws,,"9780756619374,0756619378",,,,,,,,,OL7995273M,18680,0,,,,,,,1,67248640,pdf,61148336E690439240DD43652AAAEA85,,,Y. dl_avaxhome 18680  _=WatercWo.pdf,0,2000-01-01 01:00:00,2016-04-03 02:51:08,261000/61148336e690439240dd43652aaaea85-d.jpg,,
5698940,Semilinear Schrodinger Equations,,Courant Lecture Notes,,Thierry Cazenave,2003,,Courant Institute of Mathemetical Sciences,,329,0,English,Математика,avaxhome.ws,,"9780821833995,0821833995",,,,,,,,,OL17093394M,17754,0,,,,,,,,7480362,djvu,607C6D6C709808C1789ED3701513C5C4,,,Y. dl_avaxhome 17754  _=semilinear_schrodinger_equations.djvu,0,2000-01-01 01:00:00,2016-04-03 02:51:08,261000/607c6d6c709808c1789ed3701513c5c4-d.jpg,,
5698939,Value Chain Struggles: Institutions and Governance in the Plantation Districts of South India,,Rgs-Ibg Book,,"Jeff Neilson, Bill Pritchard",2009,,Wiley-Blackwell,,311,0,English,Биология//Растения//Ботаника,avaxhome.ws,,"9781405173933,1405173939",,,,,338.4/76337309548,HD9199.I42 N45 2009,,,OL22501704M,16907,0,,,,,,,1,2744235,pdf,6003749F479EA1ED0F6801989695145E,,,Y. dl_avaxhome 16907  _=35.pdf,0,2000-01-01 01:00:00,2016-04-03 02:51:08,261000/6003749f479ea1ed0f6801989695145e-d.jpg,,
5698937,Insects,,,,R. E Snodgrass,1967,1,Constable,,431,0,English,Биология,avaxhome.ws,,"9781557095305,1557095302",,B0000COD12,,,,,,,OL8597903M,22666,0,,,,,1,,,25181703,pdf,5FB71BE4FC4EB9CB4AAE73196E953745,,,Y. dl_avaxhome 22666  _=39088001578236.pdf,0,2000-01-01 01:00:00,2016-04-03 02:51:08,261000/5fb71be4fc4eb9cb4aae73196e953745-d.jpg,,
5698938,30 Minutes to Master the Internet,,,,Steven Armstrong,1997,,Kogan Page,,65,0,English,Компьютеры//Сети//Интернет,avaxhome.ws,,"0749435186,9780749435189",,,,,,,,,OL10768681M,23722,0,,,,,1,,T,503392,pdf,5FE0B7FF7E86DE5DE0BEE0F1F7291611,,,Y. dl_avaxhome 23722 30_minutes_to_master_the_internet_30_minutes  _=30_minutes_to_master_the_internet_30_minutes.pdf,0,2000-01-01 01:00:00,2016-04-03 02:51:08,261000/5fe0b7ff7e86de5de0bee0f1f7291611-d.jpg,,
5698936,Dr. Jensen's Guide to Body Chemistry & Nutrition,,,,"Bernard Jensen, Bernard Jensen PhD",2000,1,McGraw-Hill,,152,0,English,Химия,avaxhome.ws,,"9780658002779,0658002775",,,,,,,,,OL7626295M,18880,0,,,,,,,T,35612728,pdf,5F6CE17DFE35AB01253CDDC2815D9FF5,,,Y. dl_avaxhome 18880  _=a26.pdf,0,2000-01-01 01:00:00,2016-04-03 02:51:08,261000/5f6ce17dfe35ab01253cddc2815d9ff5-d.jpg,,
5698935,The Condemnation of Little B.,,,,Elaine Brown,2003,,Beacon Press,,401,0,English,,avaxhome.ws,,"9780807009758,080700975X",,,,,,,,,OL7944505M,20804,0,,,,,,,T,4304752,pdf,5F4E0C0893E220270B8939E71D50028D,,,Y. dl_avaxhome 20804  _=080700975x.pdf,0,2000-01-01 01:00:00,2016-04-03 02:51:08,261000/5f4e0c0893e220270b8939e71d50028d-d.jpg,,
5698934,Compound Semiconductor Devices: Structures and Processing,,,,Kenneth A. Jackson,1998,2nd edition,Wiley-VCH,,189,0,English,Техника//Электроника//Радио,avaxhome.ws,,"9783527295968,3527295968",,,,,,,,,OL12766706M,16522,0,,,,,,,,14151707,pdf,5F2C093CA9F98DD6EAC314CC9B2E5DA3,,,Y. dl_avaxhome 16522  _=Compound_Semiconductor_Devices-Structures_and_Processing.pdf,0,2000-01-01 01:00:00,2016-04-03 02:51:08,261000/5f2c093ca9f98dd6eac314cc9b2e5da3-d.jpg,,
5698933,Vocabulary Puzzles: The Fun Way to Ace Standardized Tests,,,,"John T. Molloy, Rich Norris",2007,,Wiley,,314,0,English,Языкознание//Словари,avaxhome.ws,,"0470135107,9780470135105,9780470170991",,,,,,,,,OL24252872M,21169,0,,,,,,,T,2148677,pdf,5F01CE3B418C8B24DE6AFA99865CAACD,,,Y. dl_avaxhome 21169  _=VocabPuzzl.pdf,0,2000-01-01 01:00:00,2016-04-03 02:51:08,261000/5f01ce3b418c8b24de6afa99865caacd-d.jpg,,
5698930,Tornadoes,,Pull Ahead Books,,Matt Doeden,2007,,Lerner Publications,,33,0,English,"Домоводство, досуг",avaxhome.ws,,"9780822579106,0822579103",,,,,551.55/3,QC955.2 .D64 2008,,,OL11425947M,17881,0,,,,,,,T,2721092,pdf,5D1A4B9B279B2592617225972F133C6C,,,Y. dl_avaxhome 17881  _=0822579103.pdf,0,2000-01-01 01:00:00,2016-04-03 02:51:08,261000/5d1a4b9b279b2592617225972f133c6c-d.jpg,,
5698931,Brand Hollywood: Selling Entertainment in a Global Media Age,,,,Paul Grainge,2007,1,Routledge,,225,0,English,Экономика,avaxhome.ws,,"9780415354042,0415354048,9780203000526",,,,,384/.830973,PN1995.9.M29 G73 2008,,,OL10203864M,20213,0,,,,,1,,T,5742883,pdf,5D767AF54E033BF870FCB97C579E8D5A,,,Y. dl_avaxhome 20213  _=qq07.pdf,0,2000-01-01 01:00:00,2016-04-03 02:51:08,261000/5d767af54e033bf870fcb97c579e8d5a-d.jpg,,
5698932,"Fitness Made Simple: The Power to Change Your Body, The Power to Change Your Life",,,,John Basedow,2007,1,McGraw-Hill,,287,0,English,Медицина//Научно-популярная литература,avaxhome.ws,,"9780071497084,0071497080",,,,,613.7,GV481 .B275 2008,,,OL21095622M,22705,0,,,,,,,1,9148390,pdf,5E3EE56FB6E91E4518DF82F92D1E76F5,,,Y. dl_avaxhome 22705  _=Fitness_Made_Simple.pdf,0,2000-01-01 01:00:00,2016-04-03 02:51:08,261000/5e3ee56fb6e91e4518df82f92d1e76f5-d.jpg,,
5698929,"Bioinformatics: Volume II: Structure, Function and Applications",,Methods in Molecular Biology,,Jonathan M. Keith,2008,1,Humana Press,,497,0,English,Биология//Молекулярная//Биоинформатика,avaxhome.ws,,"9781603274289,1603274286",,,,,572.80285,QH324.2 .B545 2008,,,OL18593282M,16609,0,,,,,,,,20025433,pdf,5CC4ADA1A6B9F89B1EA02AE91AE4A1FA,,,Y. dl_avaxhome 16609  _=Bioinform2.pdf,0,2000-01-01 01:00:00,2016-04-03 02:51:08,261000/5cc4ada1a6b9f89b1ea02ae91ae4a1fa-d.jpg,,
5698927,Advanced Techniques of Clandestine Psychedelic & Amphetamine Manufacture,,,,Uncle Fester,1998,,Loompanics Unlimited,,201,0,English,Медицина,avaxhome.ws,,"9781559501743,155950174X",,,,,,,,,OL391875M,22104,0,,,,,,,T,63629299,pdf,5BD4A85CE7F047C3D9C1BC27445A15AC,,,Y. dl_avaxhome 22104  _=155950174X.Loompanics.Unlimited.Advanced.Techniques.of.Clandestine.Psychedelic.&.Amphetamine.Manufacture.Sep.1998.pdf,0,2000-01-01 01:00:00,2016-04-03 02:51:08,261000/5bd4a85ce7f047c3d9c1bc27445a15ac-d.jpg,,
5698928,Statistics for Business and Economics Readings and Cases,,,,Edwin Mansfield,1980,,W W Norton & Co Inc (Np),,380,0,English,Математика//Математическая статистика,avaxhome.ws,,"9780393950663,0393950662",,,,,519.5/02/433,HB137,,,OL22830439M,18750,0,,,,,,,T,4000140,djvu,5BD7F6309F64C80D0F519AFC416603CF,,,Y. dl_avaxhome 18750  _=63.djvu,0,2000-01-01 01:00:00,2016-04-03 02:51:08,261000/5bd7f6309f64c80d0f519afc416603cf-g.jpg,,
5698925,"Infertility in Practice, ",,Reproductive Medicine and Asst. Reproduction,,Adam Balen,2008,3,Informa Healthcare,,479,0,English,Медицина,avaxhome.ws,,"9780415450676,0415450675",,,,,,,,,,23860,0,,,,,,,T,63185247,pdf,5B57528C0206447239B94D507D01A289,,,Y. dl_avaxhome 23860  _=balen.pdf,0,2000-01-01 01:00:00,2016-04-03 02:51:08,261000/5b57528c0206447239b94d507d01a289-d.jpg,,
5698926,Grid Application Systems Design,,,,April J. Wells,2007,1,CRC Press,,252,0,English,Компьютеры//Информационные системы,avaxhome.ws,,"9780849329975,0849329973",,,,,004/.36,QA76.9.C58 W43 5 2007,,,OL11559624M,16959,0,,,,,,,T,3180561,pdf,5BB2D954DDCC927846E2F7E598E29366,,,Y. dl_avaxhome 16959  _=0849329973_Grid_Application_Systems_Design.pdf,0,2000-01-01 01:00:00,2016-04-03 02:51:08,261000/5bb2d954ddcc927846e2f7e598e29366-d.jpg,,
5698923,Hungry As The Sea,,,,Wilbur Smith,1999,,St. Martin's Paperbacks,,681,0,English,,avaxhome.ws,,"9780312971076,0312971079",,,,,,,,,OL24951020M,17187,0,,,,,,,T,1427447,pdf,5A8C77DC38D0DAE1B204F122E4327039,,,"Y. dl_avaxhome 17187 Hungry as the Sea  _=Smith, Wilbur - Hungry as the Sea.pdf",0,2000-01-01 01:00:00,2016-04-03 02:51:08,261000/5a8c77dc38d0dae1b204f122e4327039-d.jpg,,
5698924,"White Saris and Sweet Mangoes: Aging, Gender, and Body in North India",,,,Sarah Lamb,2000,1,University of California Press,,328,0,English,Языкознание,avaxhome.ws,,"9780520220003,0520220005",,,,,,,,,OL7710723M,22185,0,,,,,,,T,5251934,pdf,5AF24B9E95614C3813C62519E539CBD3,,,Y. dl_avaxhome 22185  _=aa38.pdf,0,2000-01-01 01:00:00,2016-04-03 02:51:08,261000/5af24b9e95614c3813c62519e539cbd3-d.jpg,,
5698922,Natural Selection and Beyond: The Intellectual Legacy of Alfred Russel Wallace,,,,"Charles H. Smith, George Beccaloni",2009,,"Oxford University Press, USA",,509,0,English,Биология,avaxhome.ws,,"9780199239160,0199239169",,,,,576.82092,QH31.W2 N38 2008,,,OL23222296M,17084,0,,,,,,,T,9777823,pdf,5A80D7DE39917223F1F036B76FF1FCDA,,,Y. dl_avaxhome 17084  _=smith_9.pdf,0,2000-01-01 01:00:00,2016-04-03 02:51:08,261000/5a80d7de39917223f1f036b76ff1fcda-d.jpg,,
5698920,Roots of Chinese Culture and Medicine,,Academy of Chinese Culture and Health Sciences Series,,Wei Tsuei,1990,,Chinese Culture Books,,135,0,English,Медицина,avaxhome.ws,,"9780962515606,0962515604",,,,,610.951,MLCS 92/17688 (D),,,OL2222057M,19507,0,,,,,,,T,755693,pdf,59FC3F36636D86B2BDFDC7F2006AB724,,,Y. dl_avaxhome 19507  _=ROOTS_OF_CHINESE_CULTURE_AND_MEDICINE_-_Wei_Tsuei.pdf,0,2000-01-01 01:00:00,2016-04-03 02:51:08,261000/59fc3f36636d86b2bdfdc7f2006ab724-d.jpg,,
5698921,Authenticity: Clearing the Junk: A Buddhist Perspective,,,,Venerable Yifa,2007,,Lantern Books,,130,0,English,Религия,avaxhome.ws,,"9781590561096,1590561090",,,,,294.3/444,BQ5405 .Y55 2007,,,OL12369425M,24623,0,,,,,,,T,5097223,pdf,59FF7229ADAD22E1659FAC6E218E5AB3,,,Y. dl_avaxhome 24623  _=dd30.pdf,0,2000-01-01 01:00:00,2016-04-03 02:51:08,261000/59ff7229adad22e1659fac6e218e5ab3-d.jpg,,
5698918,I've Got a Domain Name--Now What???: A Practical Guide to Building a Website and Web Presence,,,,Jean Bedord,2008,,Happy About,,115,0,English,Компьютеры//Сети//Интернет,avaxhome.ws,,"9781600051098,160005109X",,,,,,,,,,22178,0,,,,,,,T,1702446,pdf,59F09CDE2E54827F3BAA3CAC76F3AC16,,,Y. dl_avaxhome 22178  _=aa41.pdf,0,2000-01-01 01:00:00,2016-04-03 02:51:08,261000/59f09cde2e54827f3baa3cac76f3ac16-d.jpg,,
5698919,Renaissance and Reformations: An Introduction to Early Modern English Literature,,Blackwell Introductions to Literature,,Michael Hattaway,2007,,Wiley-Blackwell,,264,0,English,Языкознание,avaxhome.ws,,"9781405100458,1405100451",,,,,820.9/003,PR421 .H27 2005,,,OL3395129M,21108,0,,,,,,,T,1657899,pdf,59F84CE18FA3D3454E9BEB36D1B69DFB,,,Y. dl_avaxhome 21108  _=RenaisRef.pdf,0,2000-01-01 01:00:00,2016-04-03 02:51:08,261000/59f84ce18fa3d3454e9beb36d1b69dfb-d.jpg,,
5698916,Purchasing: Selection and Procurement for the Hospitality Industry,,,,"Andrew H. Feinstein, John M. Stefanelli",2007,7,Wiley,,802,0,English,Бизнес,avaxhome.ws,,"9780471730088,0471730084",,,,,647.95068/7,TX911.3.P8 F45 2008,,,OL17932910M,21457,0,,,,,,,,13834466,pdf,58BE80812835DCC02C3CB9FA61DF5DC7,,,Y. dl_avaxhome 21457  _=hh35.pdf,0,2000-01-01 01:00:00,2016-04-03 02:51:08,261000/58be80812835dcc02c3cb9fa61df5dc7-d.jpg,,
5698917,Movement and Learning in the Early Years: Supporting Dyspraxia (DCD) and Other Difficulties,,,,"Dr Christine Macintyre, Kim McVitty",2004,1,Sage Publications Ltd,,162,0,English,Образование,avaxhome.ws,,"9781412902373,1412902371",,,,,796.86/8,GV452 .M33 2004,,,OL11716302M,19925,0,,,,,,,T,5496742,pdf,5984000BC4CA3B610D58E3B1062C2AF5,,,Y. dl_avaxhome 19925  _=yy10.pdf,0,2000-01-01 01:00:00,2016-04-03 02:51:08,261000/5984000bc4ca3b610d58e3b1062c2af5-d.jpg,,
5698915,Faces in the Forest: The Endangered Muriqui Monkeys of Brazil,,,,Karen B. Strier,1992,1st Printing,"Oxford University Press, USA",,159,0,English,Биология,avaxhome.ws,,"9780195063394,0195063392",,,,,599.8/2,QL737.P925 S77 1992,,,OL1565015M,18260,0,,,,,,,T,9922594,pdf,5880788AC1C63006CE0BD2FF0F1291B6,,,Y. dl_avaxhome 18260  _=0195063392.pdf,0,2000-01-01 01:00:00,2016-04-03 02:51:08,261000/5880788ac1c63006ce0bd2ff0f1291b6-d.jpg,,
5698913,Absolute Beginner's Guide to Digital Photography,,,,"Joseph Ciaglia, Barbara London, John Upton, Peter Kuhns",2004,,Que,,381,0,English,Образование,avaxhome.ws,,"9780789731203,0789731207",,,,,,,,,OL8157705M,18422,0,,,,,,,,13011474,pdf,57F31DE707BB3744D5969540E18FA11D,,,Y. dl_avaxhome 18422  _=AbBegDigPhot.pdf,0,2000-01-01 01:00:00,2016-04-03 02:51:08,261000/57f31de707bb3744d5969540e18fa11d-d.jpg,,
5698914,Commodity Investing: Maximizing Returns Through Fundamental Analysis,,Wiley Finance,,"Adam Dunsby, John Eckstein, Jess Gaspar, Sarah Mulholland",2008,illustrated edition,Wiley,,305,0,English,Экономика,avaxhome.ws,,"0470223103,9780470223109,9780470262641",,,,,332.63/28,HG6046 .C636 2008,,,OL10295069M,20093,0,,,,,,,T,6434256,pdf,5808BCFD6FA81DA6184A65B92C625F81,,,Y. dl_avaxhome 20093  _=Com.Inv.pdf,0,2000-01-01 01:00:00,2016-04-03 02:51:08,261000/5808bcfd6fa81da6184a65b92c625f81-d.jpg,,
5698911,Thomas Hardy's Shorter Fiction: A Critical Study,,,,"Sophie Gilmartin, Rod Mengham",2007,,Edinburgh University Press,,162,0,English,Языкознание,avaxhome.ws,,"9780748632657,0748632654",,,,,,,,,OL10760729M,19946,0,,,,,,,T,5657640,pdf,57254C01D3EBD2EEAF0DF46114F59EEF,,,Y. dl_avaxhome 19946  _=yy03.pdf,0,2000-01-01 01:00:00,2016-04-03 02:51:08,261000/57254c01d3ebd2eeaf0df46114f59eef-d.jpg,,
5698912,Applied Latent Class Analysis,,,,"Jacques A. Hagenaars, Allan L. McCutcheon",2002,1,Cambridge University Press,,478,0,English,Математика,avaxhome.ws,,"0521594510,9780521594516,9780511065941",,,,,519.5/35,QA278.6 .A67 2002,,,OL21086873M,19687,0,,,,,1,,T,2306553,pdf,579F053B9137AC9FCB422916E99EF9FA,,,Y. dl_avaxhome 19687  _=applied_latent_class_analysis-0521594510.pdf,0,2000-01-01 01:00:00,2016-04-03 02:51:08,261000/579f053b9137ac9fcb422916e99ef9fa-d.jpg,,
5698910,Opportunities in Library and Information Science,,,,Kathleen McCook,2009,3,McGraw-Hill,,206,0,English,Наука (общее)//Научно-популярное,avaxhome.ws,,"9780071545310,007154531X",,,,,020.23/73,Z682.35.V62 M35 2008,,,OL16909541M,23859,0,,,,,,,1,900021,pdf,570D64FD6E2C6B953CC7019FF603554C,,,"Y. dl_avaxhome 23859 Opportunities in Library and Information Science, Rev Edition  _=007154531X.pdf",0,2000-01-01 01:00:00,2016-04-03 02:51:08,261000/570d64fd6e2c6b953cc7019ff603554c-d.jpg,,
5698909,Development Communication: Reframing the Role of the Media,,,,Thomas L. McPhail,2009,,Wiley-Blackwell,,248,0,English,Техника//Электроника//Телекоммуникации,avaxhome.ws,,"1405187956,9781405187954",,,,,302.2309172/4,HM1206 .M3873 2009,,,OL22849797M,18081,0,,,,,,,T,1341395,pdf,56C9A0AD2684EBA4EF889552CD16244F,,,Y. dl_avaxhome 18081  _=McPhail_Development Communication-Reframing the Role of the Media_1405187956.pdf,0,2000-01-01 01:00:00,2016-04-03 02:51:08,261000/56c9a0ad2684eba4ef889552cd16244f-d.jpg,,
5698907,Dombey and Son,,Everyman's Library,,Charles Dickens,1994,,Everyman's Library,,913,0,English,Литература//Проза,avaxhome.ws,,"9780679435914,0679435913",,,,,823/.8,PR4559 .A1 1994,,,OL1081247M,16963,0,,,,,,,,2172897,pdf,55F7BCA590A6B36EFA258D63641A64F7,,,Y. dl_avaxhome 16963  _=Dombey_And_Son_By_Charles_Dickens.pdf,0,2000-01-01 01:00:00,2016-04-03 02:51:08,261000/55f7bca590a6b36efa258d63641a64f7-d.jpg,,
5698908,China: A Global Studies Handbook,,,,Robert Andre LaFleur,2003,annotated edition,ABC-CLIO,,318,0,English,,avaxhome.ws,,"9781576072844,1576072843",,,,,,,,,OL15542747M,19902,0,,,,,,,T,5452681,pdf,56569387D8D643C6106A2F632CEC8113,,,Y. dl_avaxhome 19902  _=yy30.pdf,0,2000-01-01 01:00:00,2016-04-03 02:51:08,261000/56569387d8d643c6106a2f632cec8113-d.jpg,,
5698905,Handbook of Episodic Memory,,Handbook of Behavioral Neuroscience Volume 18,,"Ekrem Dere, Alexander Easton, Lynn Nadel, Joe P Huston",2008,1,Elsevier Science,,612,0,English,,avaxhome.ws,,"9780444531742,0444531742",,,,,,,,,,23160,0,,,,,,,1,17325786,pdf,54C0A8C8F1CF11959D46FA545293488C,,,Y. dl_avaxhome 23160  _=oo08.pdf,0,2000-01-01 01:00:00,2016-04-03 02:51:08,261000/54c0a8c8f1cf11959d46fa545293488c-d.jpg,,
5698906,The Encyclopedia of Suicide,,Facts on File Library of Health and Living,,"Glen Evans, Norman L. Farberow",2003,2,Facts on File,,369,0,English,Образование//Энциклопедии,avaxhome.ws,,"9780816045259,0816045259",,,,,,,,,OL23272333M,24611,0,,,,,,,T,1310494,pdf,555587CC98A9B6FF7511EB53308E9E90,,,Y. dl_avaxhome 24611  _=0816045259_Encyclopedia_of_Suicide.pdf,0,2000-01-01 01:00:00,2016-04-03 02:51:08,261000/555587cc98a9b6ff7511eb53308e9e90-d.jpg,,
5698903,Poker Stars ''CRACKED'',,,,"Robert Eagle, Robert Eagle",2007,2nd,Venetian Publishing INC,,72,0,English,,avaxhome.ws,,"9781427615770,1427615772",,,,,,,,,OL11882118M,17494,0,,,,,,,T,491225,pdf,54340C17792C2112E05EDA02ACA3BD7D,,,Y. dl_avaxhome 17494  _=POKER_STARS_CRACKED_EBOOK.pdf,0,2000-01-01 01:00:00,2016-04-03 02:51:08,261000/54340c17792c2112e05eda02aca3bd7d-g.jpg,,
5698904,"Low Carbon, High Growth Latin American Responses To Climate Change",,,,"Pablo Fajnzylber, Pablo Fajnzylber, John Nash",2009,,World Bank Publications,,92,0,English,"География//Метеорология, Климатология",avaxhome.ws,,"9780821376195,0821376195",,,,,363.738/74098,QC988.L29 T67 2009,,,OL23016598M,18727,0,,,,,,,T,3010034,pdf,54BD58C6AB2E80F79C146C7A0182E0CB,,,Y. dl_avaxhome 18727  _=0821376195_Low_Carbon_High_Growth_5.pdf,0,2000-01-01 01:00:00,2016-04-03 02:51:08,261000/54bd58c6ab2e80f79c146c7a0182e0cb-d.jpg,,
5698901,"Analysis, Networks, Peptides",,Advances in Polymer Science,,"K. Bode, I. Kuriyama",1985,1,Springer,,233,0,English,Компьютеры//Сети,avaxhome.ws,,"9780387136561,9783540136569,0387136568,3540136568",,,,,,,,,OL10152063M,18203,0,,,,,1,,T,4666788,pdf,5312A46E68BA74363174712EE1B7B910,,,Y. dl_avaxhome 18203  _=0387136568_Analysis_Networks_Peptides.pdf,0,2000-01-01 01:00:00,2016-04-03 02:51:08,261000/5312a46e68ba74363174712ee1b7b910-g.jpg,,
5698902,I'll Be Short: Essentials for a Decent Working Society,,,,Robert B. Reich,2003,,Beacon Press,,131,0,English,,avaxhome.ws,,"0807043419,9780807043417,0807043400,9780807043400,9780807043424",,"B0027MPQ9O,B0027MOTP6",,,,,,,OL7944790M,20809,0,,,,,,,T,4627164,pdf,540DAD1F1D3EDCBB05DA604568B84D17,,,Y. dl_avaxhome 20809  _=0807043419.pdf,0,2000-01-01 01:00:00,2016-04-03 02:51:08,261000/540dad1f1d3edcbb05da604568b84d17-d.jpg,,
5698900,Visceral Sensory Neuroscience: Interoception,,,,"Oliver G. Cameron M.D.  Ph.D., W.D. Hamilton, Jonathan Abrams, Donald Hunninghake, Robert Knopp, RPSGB, Alison M. Beaney, Jenkins, Margaret T. Shannon, Billie Ann Wilson, Carolyn L. Stang",2001,1,"Oxford University Press, USA",,372,0,English,Медицина//Неврология,avaxhome.ws,,"0195136012,9780195136012,9780198031109",,,,,612.8/8,QP435 .C35 2002,,,OL10133251M,16830,0,,,,0,1,,1,19136952,pdf,52A0DA3AB14195851A57AE0C801EB6D9,,,Y. dl_avaxhome 16830  _=Visceral_Sensory_Neuroscience-Interoception.pdf,0,2000-01-01 01:00:00,2016-04-03 02:51:08,261000/52a0da3ab14195851a57ae0c801eb6d9-d.jpg,,
5698898,"The Historical Imagination of G.K. Chesterton: Locality, Patriotism, and Nationalism",,Studies in Major Literary Authors,,Joseph R. McCleary,2009,1,Routledge,,173,0,English,История,avaxhome.ws,,"9780415991759,0415991757",,,,,828/.912,PR4453.C4 Z723 2009,,,OL22514144M,22124,0,,,,,,,T,1846206,pdf,51174FE7C9E115BDFF89E13E3F32C332,,,Y. dl_avaxhome 22124  _=The Historical Imagination of G.K. Chesterton.pdf,0,2000-01-01 01:00:00,2016-04-03 02:51:08,261000/51174fe7c9e115bdff89e13e3f32c332-d.jpg,,
5698899,The Living Soil,,Soil Association Organic Classics,,Lady Eve Balfour,1975,,Soil Association Ltd,,223,0,English,Техника//Нефтегазовые технологии,avaxhome.ws,,"9781904665083,190466508X",,,,,,,,,,19090,0,,,,,,,T,2069028,pdf,5217F8A69FB63B08E99ED288BAC593A8,,,Y. dl_avaxhome 19090  _=190466508X_1.pdf,0,2000-01-01 01:00:00,2016-04-03 02:51:08,261000/5217f8a69fb63b08e99ed288bac593a8-d.jpg,,
5698895,American Narcissism: The Myth of National Superiority,,,,Wilber W. Caldwell,2006,,Algora Publishing,,194,0,English,История,avaxhome.ws,,"9780875864679,0875864678",,,,,,,,,OL8090112M,24636,0,,,,,,,T,6202726,pdf,4F3BB53CB22A33032B43969DDFC5D6B2,,,Y. dl_avaxhome 24636  _=dd17.pdf,0,2000-01-01 01:00:00,2016-04-03 02:51:08,261000/4f3bb53cb22a33032b43969ddfc5d6b2-d.jpg,,
5698896,"Change Your Handwriting, Change Your Life Workbook",,Ages 13+,,Bart A. Baggett,2000,2000,Empresse Publishing,,70,0,English,Психология,avaxhome.ws,,"9781882929108,1882929101",,,,,,,,,OL12148147M,22610,0,,,,,,,,7273014,pdf,4FF1ABCE5BA56F391AA0C7C8D8E40770,,,Y. dl_avaxhome 22610  _=Baggett-Change.Your.Handwriting.Change.Your.Life-1882929101.pdf,0,2000-01-01 01:00:00,2016-04-03 02:51:08,261000/4ff1abce5ba56f391aa0c7c8d8e40770-d.jpg,,
5698897,Real-Resumes for Financial Jobs,,Real-Resumes Series,,Anne McKinney,2001,,Prep Publishing,,193,0,English,Экономика,avaxhome.ws,,"9781885288158,1885288158",,,,,,,,,OL8703530M,24940,0,,,,,,,T,5504583,pdf,50521EFAF79660C798F93E5E33448648,,,Y. dl_avaxhome 24940  _=ee10.pdf,0,2000-01-01 01:00:00,2016-04-03 02:51:08,261000/50521efaf79660c798f93e5e33448648-d.jpg,,
5698894,The Reassess Your Chess Workbook,,,,Jeremy Silman,2001,1st,Siles Press,,221,0,English,"Домоводство, досуг//Игры//Шахматы",avaxhome.ws,,"9781890085056,1890085057",,,,,794.1,GV1449.5 .S56 2001,,,OL3941983M,21156,0,,,,,,,,18303683,pdf,4E9682DDCCF04DCAC5DB797F5632D65F,,,Y. dl_avaxhome 21156  _=ReasChesWo.pdf,0,2000-01-01 01:00:00,2016-04-03 02:51:08,261000/4e9682ddccf04dcac5db797f5632d65f-d.jpg,,
5698892,An Emerging Intellectual Property Paradigm: Perspectives from Canada,,Queen Mary Studies in Intellectual Property,,Ysolde Gendreau,2009,,Edward Elgar Publishing,,345,0,English,Общественные науки прочие,avaxhome.ws,,"9781847205971,1847205976",,,,,,,,,OL23202300M,18952,0,,,,,,,T,6261401,pdf,4E7285799B06F194ED63632E4170D0C7,,,Y. dl_avaxhome 18952  _=1847205976_Emerging_Intellectual.pdf,0,2000-01-01 01:00:00,2016-04-03 02:51:08,261000/4e7285799b06f194ed63632e4170d0c7-d.jpg,,
5698893,Improvised Home-Built Recoilless Launchers,,Exotic Weapons,,F. Demarco,1995,illustrated edition,Paladin Press,,32,0,English,Техника//Нефтегазовые технологии,avaxhome.ws,,"9780873648301,0873648307",,,,,623.4/2,TS534.5 .D46 1995,,,OL1025562M,22115,0,,,,,,,,11937730,pdf,4E8BFA4666D3E5D1BAA402CA2252BD2A,,,Y. dl_avaxhome 22115  _=Wea.pdf,0,2000-01-01 01:00:00,2016-04-03 02:51:08,261000/4e8bfa4666d3e5d1baa402ca2252bd2a-d.jpg,,
5698891,Statistical Multisource-Multitarget Information Fusion,,,,Ronald P. S. Mahler,2007,,Artech House Publishers,,882,0,English,Математика//Вероятность,avaxhome.ws,,"9781596930926,1596930926",,,,,,,,,OL8892437M,19907,0,,,,,,,T,7417189,pdf,4E0ED14141CC19D016FB1214C349F6D0,,,Y. dl_avaxhome 19907  _=yy26.pdf,0,2000-01-01 01:00:00,2016-04-03 02:51:08,261000/4e0ed14141cc19d016fb1214c349f6d0-d.jpg,,
5698889,Professional Cooking,,,,Wayne Gisslen,2006,6,Wiley,,1025,0,English,"Домоводство, досуг//Кулинария",avaxhome.ws,,"9780471663768,047166376X",,,,,641.5/7,TX820 .G54 2006,,,OL3416080M,24605,0,,,,,,,T,41874261,pdf,4D91D59C036ADD1C338A0035858989CE,,,Y. dl_avaxhome 24605  _=ProfCook.pdf,0,2000-01-01 01:00:00,2016-04-03 02:51:08,261000/4d91d59c036add1c338a0035858989ce-d.jpg,,
5698890,A Primer in Game Theory,,,,Robert Gibbons,1992,,Pearson Academic,,140,0,English,Математика//Теория игр,avaxhome.ws,,"9780745011592,0745011594",,,,,,,,,OL20745329M,19868,180,,,,,1,,1,7809692,pdf,4DC53E7CCAD53B6356429F6CE80F442B,,,Y. dl_avaxhome 19868  _=PrimGamT.pdf,0,2000-01-01 01:00:00,2016-04-03 02:51:08,261000/4dc53e7ccad53b6356429f6ce80f442b-d.jpg,,
5698888,Tiger,Vol. 1,Wydawnictwo Militaria 074,,Janusz Ledwoch,1998,,Wydawnictwo Militaria,,108,0,English,История,avaxhome.ws,,"9788372190277,8372190275",,,,,,,,,,21850,0,,,,,,,,12824327,pdf,4D00F32A508358ABE7A0D893150A08EE,,,21850 =Wydawnictwo_Militaria__074__-_Tiger_vol._1.pdf,0,2000-01-01 01:00:00,2016-04-03 02:51:08,261000/4d00f32a508358abe7a0d893150a08ee-g.jpg,,
5698886,Biology of the Spotted Seatrout,,Marine Biology,,Stephen A. Bortone,2002,1,CRC Press,,329,0,English,Биология,avaxhome.ws,,"0849311292,9780849311291,9781420040791",,,,,,,,,OL18136615M,20271,0,,,,,,,T,5508482,pdf,4CD84C18AED477B3AC5201CEDB1E7D13,,,Y. dl_avaxhome 20271  _=0849311292.pdf,0,2000-01-01 01:00:00,2016-04-03 02:51:08,261000/4cd84c18aed477b3ac5201cedb1e7d13-d.jpg,,
5698887,Pig,,See How They Grow,,DK Publishing,2007,,DK Preschool,,28,0,English,Образование,avaxhome.ws,,"9780756630188,0756630185",,,,,,,,,OL7995743M,19919,0,,,,,,,T,7041884,pdf,4CE4FD9F654F2C1B48F0ACE9E2900C4B,,,Y. dl_avaxhome 19919  _=yy16.pdf,0,2000-01-01 01:00:00,2016-04-03 02:51:08,261000/4ce4fd9f654f2c1b48f0ace9e2900c4b-d.jpg,,
5698885,Challenges to Globalization: Analyzing the Economics,,National Bureau of Economic Research Conference Report,,"Robert E. Baldwin, L. Alan Winters",2004,1,University Of Chicago Press,,559,0,English,Экономика,avaxhome.ws,,"0226036154,9780226036151",,,,,,,,,OL15549580M,19032,0,,,,,,,T,2373744,pdf,4C290D70E1602EAAC75E8DBB596B30AA,,,Y. dl_avaxhome 19032  _=47.pdf,0,2000-01-01 01:00:00,2016-04-03 02:51:08,261000/4c290d70e1602eaac75e8dbb596b30aa-d.jpg,,
5698883,The Future of Geological Modelling in Hydrocarbon Development - Special Publication no 309,,Geological Society Special Publication 309,,"A. Robinson, J. Hegre, S. Price",2009,,Geological Society of London,,225,0,English,Геология,avaxhome.ws,,"9781862392663,1862392668",,,,,553.79,QE43 .F88 2008,,,OL23632508M,19337,0,,,,,,,,9606794,pdf,4B88E0CA2973148441A520A6F867B6FD,,,Y. dl_avaxhome 19337  _=fturesoeinlogeli.pdf,0,2000-01-01 01:00:00,2016-04-03 02:51:08,261000/4b88e0ca2973148441a520a6f867b6fd-d.jpg,,
5698884,The Economics of Crime: An Introduction to Rational Crime Analysis,,,,Harold Winter,2008,1,Routledge,,142,0,English,Экономика,avaxhome.ws,,"0415771730,9780415771733,9780203927465",,,,,,,,,OL10207798M,21343,0,,,,,1,,T,1221163,pdf,4C1F1C94AEB9A116B9D99F7396DAFE89,,,Y. dl_avaxhome 21343  _=0415771730.Routledge.The.Economics.of.Crime.Winter.Jun.2008.pdf,0,2000-01-01 01:00:00,2016-04-03 02:51:08,261000/4c1f1c94aeb9a116b9d99f7396dafe89-d.jpg,,
5698882,English Grammar In Use with Answers and CD ROM: A Self-study Reference and Practice Book for Intermediate Students of English,,,,Raymond Murphy,2004,3,Cambridge University Press,,392,0,English,,avaxhome.ws,,"9780521537629,0521537622",,,,,,,,,OL7745288M,23598,0,,,,,,,,76347488,pdf,4B5F3AB4CFFEDCC19841EA350655E8DC,,,Y. dl_avaxhome 23598  _=English_Grammar_In_Use_3rd_Edition_Book.pdf,0,2000-01-01 01:00:00,2016-04-03 02:51:08,261000/4b5f3ab4cffedcc19841ea350655e8dc-d.jpg,,
5698880,Handbook of Personality Disorders: Theory and Practice,,,,Jeffrey J. Magnavita,2003,1,Wiley,,603,0,English,,avaxhome.ws,,"9780471201168,0471201162",,,,,,,,,OL17107955M,18788,0,,,,,,,T,3141778,pdf,4A7B17A468ADAC2693CB7905929EF5FA,,,Y. dl_avaxhome 18788  _=0471201162.pdf,0,2000-01-01 01:00:00,2016-04-03 02:51:08,261000/4a7b17a468adac2693cb7905929ef5fa-d.jpg,,
5698881,Strategic Public Personnel Administration: Building and Managing Human Capital for the 21st Century,Volume 1,,,Ali Farazmand,2006,,Praeger,,523,0,English,Бизнес//Менеджмент//Управление проектами,avaxhome.ws,,"0275993787,9780275993788",,,,,352.6/234,JF1351 .S856 2007,,,OL17549097M,16905,0,,,,,,,T,2097817,pdf,4B5AC2470202A9401ADC91BC731B5868,,,Y. dl_avaxhome 16905  _=36.pdf,0,2000-01-01 01:00:00,2016-04-03 02:51:08,261000/4b5ac2470202a9401adc91bc731b5868-g.jpg,,
5698879,"The Early Earth: Physical, Chemical and Biological Development",,"Geological Society Special Publication, No. 199",,"C M R Fowler, C Ebinger and C J Hawkesworth, Connie May Fowler, C. J. Ebinger, C. J. Hawkesworth",2003,,Geological Society of London,,369,0,English,Химия,avaxhome.ws,,"9781862391093,1862391092",,,,,551.7/12,QE653.3 .E27 2002,,,OL3754850M,20381,0,,,,,,,,44478826,pdf,4A42F80826DD6FB6703F438FF79FF55F,,,Y. dl_avaxhome 20381  _=EarlyEarth.pdf,0,2000-01-01 01:00:00,2016-04-03 02:51:08,261000/4a42f80826dd6fb6703f438ff79ff55f-g.jpg,,
5698877,Underdog Advertising,,,,Paul W. Flowers,2006,1st,Brown Books Publishing Group,,224,0,English,Бизнес//Маркетинг//Реклама,avaxhome.ws,,"1933285222,9781933285221,9781605570396",,,,,,,,,OL12337474M,20099,0,,,,,1,,T,1543093,pdf,4A083ACF3CB2A3B88248A2B4A32469D7,,,Y. dl_avaxhome 20099  _=UndogAdv.pdf,0,2000-01-01 01:00:00,2016-04-03 02:51:08,261000/4a083acf3cb2a3b88248a2b4a32469d7-d.jpg,,
5698878,"Real-Resumes for Restaurant, Food Service & Hotel Jobs: Including Real Resumes Used to Change Careers and Transfer Skills to Other Industries",,Real-Resumes Series,,Anne McKinney,2002,,Prep Publishing,,193,0,English,Техника//Пищевые производства,avaxhome.ws,,"9781885288288,188528828X",,,,,650.14/2,HF5383 .R39589 2002,,,OL3561523M,24932,0,,,,,,,T,5414909,pdf,4A38630F52F85B6A51EDE559A8C12D36,,,Y. dl_avaxhome 24932  _=ee18.pdf,0,2000-01-01 01:00:00,2016-04-03 02:51:08,261000/4a38630f52f85b6a51ede559a8c12d36-d.jpg,,
5698876,Understanding Environmental Policy,,,,Steven Cohen,2006,,Columbia University Press,,193,0,English,Биология//Экология,avaxhome.ws,,"9780231135368,023113536X",,,,,363.7/0561,GE170 .C62 2006,,,OL3417957M,18753,0,,,,,,,T,1129195,pdf,49E111317F7C421763B40CB4E386CA0E,,,Y. dl_avaxhome 18753 policy  _=023113536X.pdf,0,2000-01-01 01:00:00,2016-04-03 02:51:08,261000/49e111317f7c421763b40cb4e386ca0e-d.jpg,,
5698874,The Saffron Wave,,,,Thomas Blom Hansen,1999,,Princeton University Press,,300,0,English,Общественные науки прочие,avaxhome.ws,,"0691006709,9780691006703",,,,,294.5/5/0954,BL1215.P65 H36 1999,,,OL371759M,22475,0,,,,,,,T,5468427,pdf,4938901A55C5D7B2940A60ECF9F5F3E0,,,Y. dl_avaxhome 22475  _=nn33.pdf,0,2000-01-01 01:00:00,2016-04-03 02:51:08,261000/4938901a55c5d7b2940a60ecf9f5f3e0-d.jpg,,
5698875,The Life Of Sir Richard Burton,,,,Thomas Wright,2004,,Kessinger Publishing,,229,0,English,Искусство//Графические виды искусства,avaxhome.ws,,"9781419169793,1419169793",,,,,,,,,OL8481766M,19109,0,,,,,,,,614483,pdf,497FFA5863D5ED74B97029C1775C6C37,,,Y. dl_avaxhome 19109  _=The_Life_of_Sir_Richard_Burton.pdf,0,2000-01-01 01:00:00,2016-04-03 02:51:08,261000/497ffa5863d5ed74b97029c1775c6c37-d.jpg,,
5698873,Handbook of Plastics Joining: A Practical Guide,,Plastics Design Library,,Michael J. Troughton,2008,2,William Andrew,,563,0,English,,avaxhome.ws,,"0815515812,9780815515814",,,,,668.4,TP1160 .T76 2008,,,OL16636803M,17352,0,,,,,,,,20249561,pdf,48E9F566BBE425DB599DA887C233182D,,,Y. dl_avaxhome 17352  _=Handbook_of_Plastics_Joining_A_Practical_Guide__2nd_Edition.pdf,0,2000-01-01 01:00:00,2016-04-03 02:51:08,261000/48e9f566bbe425db599da887c233182d-d.jpg,,
5698871,Belly Dancing Basics,,,,"Laura Cooper, Sarah Skinner",2004,,Sterling,,128,0,English,Физкультура и спорт,avaxhome.ws,,"9781402710780,140271078X",,,,,,,,,OL8393192M,22029,0,,,,,,,,26981396,pdf,48B0CB736AD7604797B512DAD1EAE2F4,,,Y. dl_avaxhome 22029  _=Belly_Dancing.pdf,0,2000-01-01 01:00:00,2016-04-03 02:51:08,261000/48b0cb736ad7604797b512dad1eae2f4-d.jpg,,
5698872,An Assessment of the Investment Climate in Nigeria,,Directions in Development,,"Giuseppe Iarossi, Peter Mousley, Ismail Radwan",2009,,World Bank Publications,,146,0,English,"География//Метеорология, Климатология",avaxhome.ws,,"0821377973,9780821377970,9780821378113",,,,,330.9669,HG5881.A3 .I27 2009,,,OL22696226M,23514,0,,,,0,0,,1,958261,pdf,48BA127054CEE81459D6DB5E0AFB74EB,,,Y. dl_avaxhome 23514 Assessment_of_the_Investment  _=0821377973 Assessment_of_the_Investment.pdf,0,2000-01-01 01:00:00,2016-04-03 02:51:08,261000/48ba127054cee81459d6db5e0afb74eb-d.jpg,,
5698869,Frommer's Europe,,Frommer's Complete,,"Darwin Porter, Danforth Prince, George McDonald, Sherry Marker",2008,10,Frommers,,1091,0,English,География,avaxhome.ws,,"9780470345436,0470345438",,,,,,,,,,19767,0,,,,,,,T,24466098,pdf,477CC73C69C1A77E8C21E662A346A79D,,,Y. dl_avaxhome 19767  _=0470345438.pdf,0,2000-01-01 01:00:00,2016-04-03 02:51:08,261000/477cc73c69c1a77e8c21e662a346a79d-d.jpg,,
5698870,Using Thinking Skills in the Primary Classroom,,,,Dr Peter Kelly,2005,1,Sage Publications Ltd,,114,0,English,Образование,avaxhome.ws,,"9781412900164,1412900166",,,,,,,,,OL15586637M,19917,0,,,,,,,1,5614860,pdf,47CBFAD89C3FBDBEC71C63CE0BD9CF94,,,Y. dl_avaxhome 19917  _=yy17.pdf,0,2000-01-01 01:00:00,2016-04-03 02:51:08,261000/47cbfad89c3fbdbec71c63ce0bd9cf94-d.jpg,,
5698868,"Knowledge, Organizational Evolution and Market Creation: The Globalization of Indian Firms from Steel to Software",,,,Gita Sud De Surie,2008,,Edward Elgar Publishing,,229,0,English,Компьютеры//Программирование,avaxhome.ws,,"9781847204561,1847204562",,,,,,,,,OL22649334M,19915,0,,,,,,,T,5445268,pdf,46DA043676F27CA2E46A3FC0FA1B3E1E,,,Y. dl_avaxhome 19915  _=yy19.pdf,0,2000-01-01 01:00:00,2016-04-03 02:51:08,261000/46da043676f27ca2e46a3fc0fa1b3e1e-d.jpg,,
5698867,Nova's SAT Prep Course,,,,Jeff Kolby,2005,,Nova Press,,631,0,English,Образование,avaxhome.ws,,"9781889057286,1889057282",,,,,,,,,OL8711879M,24268,0,,,,,,,T,8030340,pdf,469FF08F7F681C63F81042D6A1DE4237,,,Y. dl_avaxhome 24268  _=NovSATPrep.pdf,0,2000-01-01 01:00:00,2016-04-03 02:51:08,261000/469ff08f7f681c63f81042d6a1de4237-d.jpg,,
5698865,Ending The Sex Wars: A Woman's Guide to Understanding Men,,,,Morley David Glicken,2005,0,"iUniverse, Inc.",,162,0,English,"Психология//Любовь, эротика",avaxhome.ws,,"9780595360079,0595360076",,,,,,,,,OL24293457M,20131,0,,,,,,,T,1414659,pdf,460FF483955393EDA0D94F7C42BFDCDF,,,Y. dl_avaxhome 20131  _=0595360076.pdf,0,2000-01-01 01:00:00,2016-04-03 02:51:08,261000/460ff483955393eda0d94f7c42bfdcdf-d.jpg,,
5698866,Carole Maggio Facercise: The Dynamic Muscle-Toning Program for Renewed Vitality and a More Youthful Appearance,,"Revised, Updated",,Carole Maggio,2002,Rev Upd,Perigee Trade,,128,0,English,Психология,avaxhome.ws,,"9780399527838,0399527834",,,,,646.7/26,RA778 .M26 2002,,,OL3670766M,21609,0,,,,,,,,10485829,pdf,463CA121EB8BC2ED0BFB57E7813EE450,,,Y. dl_avaxhome 21609  _=Carole_Maggio-Facercise.pdf,0,2000-01-01 01:00:00,2016-04-03 02:51:08,261000/463ca121eb8bc2ed0bfb57e7813ee450-d.jpg,,
5698864,"The Post-Colonial Critic: Interviews, Strategies, Dialogues",,,,"Gayatri Chakravorty Spivak, Sarah Harasym",1990,,Routledge,,175,0,English,Общественные науки прочие//Философия,avaxhome.ws,,"9780415901703,0415901707",,,,,306/.09/04,HN27 .S66 1990,,,OL2191731M,24916,0,,,,,,,T,6684822,pdf,459375A546D3747802C3864A49D44CEB,,,Y. dl_avaxhome 24916  _=postcolonial_critic.pdf,0,2000-01-01 01:00:00,2016-04-03 02:51:08,261000/459375a546d3747802c3864a49d44ceb-d.jpg,,
5698862,15 Minute Everyday Pilates (Book and DVD,,Book and DVD,,Alycea Ungaro,2007,Pap/DVD,DK ADULT,,130,0,English,Медицина//Научно-популярная литература,avaxhome.ws,,"9780756633578,0756633575,1405326581,9781405326582",,,,,,,,,OL10855592M,21186,0,,,,,,,1,8872033,pdf,455F74A50CE5483B2DBCDF286CBA2623,,,Y. dl_avaxhome 21186  _=rr27.pdf,0,2000-01-01 01:00:00,2016-04-03 02:51:08,261000/455f74a50ce5483b2dbcdf286cba2623-d.jpg,,
5698863,A Survey of Lie Groups and Lie Algebra with Applications and Computational Methods,,Classics in Applied Mathematics,,B. Kolman,1987,,Society for Industrial  Mathematics,,175,0,English,Математика//Вычислительная математика,avaxhome.ws,,"9780898712438,0898712432",,,,,512/.55,QA387 .B43 1989,,,OL2198929M,19685,0,,,,,,,T,1286258,djvu,458AEE2E8A8863E0834B3CF222707B10,,,Y. dl_avaxhome 19685  _=survey_of_lie_groups_and_lie_algebras_with_applications_and_computational_methods.djvu.djvu,0,2000-01-01 01:00:00,2016-04-03 02:51:08,261000/458aee2e8a8863e0834b3cf222707b10-d.jpg,,
5698861,Escaping Toxic Guilt: Five Proven Steps to Free Yourself from Guilt for Good!,,,,Susan Carrell,2007,,McGraw-Hill,,274,0,English,Психология,,,"9780071497350,0071497358",,,,,152.4/4,BF575.G8 C36 2008,,,OL18007846M,20147,0,,,,,,,T,2086950,pdf,4538F712CE3D4476A9A228D3E130D196,,,"Carrell S. Escaping toxic guilt five proven steps to free yourself from guilt for good- (MGH, 2010)(ISBN 9780071595889)(O)(274s).pdf",0,2000-01-01 01:00:00,2016-04-03 02:51:08,261000/4538f712ce3d4476a9a228d3e130d196-d.jpg,,
5698859,"Early Medieval Europe, 300-1000, ",,Palgrave History of Europe,,Roger Collins,1999,2nd,Palgrave Macmillan,,241,0,English,История,avaxhome.ws,,"9780312218867,0312218869",,,,,940.1,D121 .C65 1999,,,OL376194M,20513,0,,,,,,,,23303993,pdf,448E98ABF0BDDE4DA726EC97223F59BC,,,Y. dl_avaxhome 20513  _=0312218869.pdf,0,2000-01-01 01:00:00,2016-04-03 02:51:08,261000/448e98abf0bdde4da726ec97223f59bc-d.jpg,,
5698860,Destination Europe: The Political and Economic Growth of a Continent,,,,Kjell M. Torbiorn,2004,,Manchester University Press,,327,0,English,Экономика,avaxhome.ws,,"9780719065729,0719065720",,,,,940.55,JN12 .T58 2003,,,OL3692530M,22170,0,,,,,,,T,1474545,pdf,44D5EE86CC3D3869DDC77240F6D6F673,,,Y. dl_avaxhome 22170  _=0719065720_Destination_Europe.pdf,0,2000-01-01 01:00:00,2016-04-03 02:51:08,261000/44d5ee86cc3d3869ddc77240f6d6f673-d.jpg,,
5698858,Ning For Dummies,,,,Manny Hernandez,2009,,For Dummies,,363,0,English,Образование,avaxhome.ws,,"0470453176,9780470453179,9780470504512",,,,,,,,,OL24307796M,21916,0,,,,,,,T,12544344,pdf,4476CF015553E2A4FD339F410EA02103,,,Y. dl_avaxhome 21916  _=Ning_For_Dummies.pdf,0,2000-01-01 01:00:00,2016-04-03 02:51:08,261000/4476cf015553e2a4fd339f410ea02103-d.jpg,,
5698857,"Manual Therapy: NAGS, SNAGS, MWMS, etc.",,,,Brian R. Mulligan,2004,5th,OPTP,,150,0,English,Медицина,avaxhome.ws,,"9780476011540,047601154X",,,,,,,,,OL10342467M,21444,0,,,,,,,,80216360,pdf,4466221B04E906F0941D7D2B663781BA,,,Y. dl_avaxhome 21444  _=MWM.pdf,0,2000-01-01 01:00:00,2016-04-03 02:51:08,261000/4466221b04e906f0941d7d2b663781ba-d.jpg,,
5698855,Discovering Creative Solutions to Everyday Challenges,,Leading from the Center,,Duke Corporate Education,2006,,Kaplan Business,,113,0,English,Бизнес,avaxhome.ws,,"9781419515088,141951508X",,,,,658.4/03,HD53 .D57 2005,,,OL3406667M,23540,0,,,,,,,T,1012472,pdf,435ADDD1EF1954A9BE43E5504EB8DCC7,,,Y. dl_avaxhome 23540  _=DiscovSolutions.pdf,0,2000-01-01 01:00:00,2016-04-03 02:51:08,261000/435addd1ef1954a9be43e5504eb8dcc7-d.jpg,,
5698856,International Relations: A Concise Companion,,,,David Weigall,2002,annotated edition,Bloomsbury USA,,259,0,English,,avaxhome.ws,,"9780340763339,0340763337",,,,,327,JZ1161 .W45 2002,,,OL3778558M,17632,0,,,,,,,T,17841210,pdf,4458A485FAC77FCF17113406D5A8A1F9,,,Y. dl_avaxhome 17632  _=International_Relations.pdf,0,2000-01-01 01:00:00,2016-04-03 02:51:08,261000/4458a485fac77fcf17113406d5a8a1f9-d.jpg,,
5698854,Practical Controls: A Guide to Mechanical Systems,,,,Steve Calabrese,2003,,Fairmont Press,,481,0,English,Физика,avaxhome.ws,,"9780881734478,0881734470",,,,,,,,,OL9334760M,22212,0,,,,,,,T,2386675,pdf,43239FAC408FAB04C116022F64554AE4,,,Y. dl_avaxhome 22212  _=aa08.pdf,0,2000-01-01 01:00:00,2016-04-03 02:51:08,261000/43239fac408fab04c116022f64554ae4-g.jpg,,
5698852,Certified Lotus Professional: Application Development Study Guide,,,,Cate McCoy,2001,,Sybex Inc,,732,0,English,Компьютеры//Базы данных,avaxhome.ws,,"0782126685,9780782126686,9780585477411",,,,,,,,,OL8096301M,22491,0,,,,,,,,6298611,pdf,426C2098969EB0F85B30143C6FECF28C,,,Y. dl_avaxhome 22491  _=nn17.pdf,0,2000-01-01 01:00:00,2016-04-03 02:51:08,261000/426c2098969eb0f85b30143c6fecf28c-d.jpg,,
5698853,Marketing Made Easy,,,,Kevin Epstein,2006,1,Entrepreneur Press,,24,0,English,Бизнес,avaxhome.ws,,"9781599180175,1599180170",,,,,658.8,HF5415 .E678 2006,,,OL24929618M,24060,0,,,,,,,,109487,pdf,428561BF8828559F039B2F7C70904FAA,,,24060 =302.pdf,0,2000-01-01 01:00:00,2016-04-03 02:51:08,261000/428561bf8828559f039b2f7c70904faa-d.jpg,,
5698850,A-6 Intruder: Carrier-Borne Bomber,,,,Robert F. Dorr,1991,,Arms & Armour,,58,0,English,История,avaxhome.ws,,"9781854090034,1854090038",,,,,358.4/283,UG1242.B6 D65 1991,,,OL1646575M,18639,0,,,,,,,,9405693,djvu,41C3F97005B4C1A4BD4490C20100F3F5,,,Y. dl_avaxhome 18639  _=30989.090519140141.djvu,0,2000-01-01 01:00:00,2016-04-03 02:51:08,261000/41c3f97005b4c1a4bd4490c20100f3f5-g.jpg,,
5698851,Cocoa Programming for Mac OS X For Dummies,,,,Erick Tejkowski,2009,,For Dummies,,412,0,English,Образование,avaxhome.ws,,"9780470432891,0470432896",,,,,,,,,,16737,0,,,,,,,T,12734539,pdf,41C8C25B9379D8B3F7BB86079407FFFF,,,Y. dl_avaxhome 16737  _=00402430.pdf,0,2000-01-01 01:00:00,2016-04-03 02:51:08,261000/41c8c25b9379d8b3f7bb86079407ffff-d.jpg,,
5698849,Pride and Prejudice,,Norton Critical Editions,,"Jane Austen, Donald J. Gray",2000,3rd,W. W. Norton & Company,,423,0,English,Литература//Проза,avaxhome.ws,,"0393976041,9780393976045",,,,,823/.7,PR4034 .P7 2001,,,OL6783437M,22468,0,,,,,,,,6725449,pdf,40BE3A456A7CD425D9B877B605E734FC,,,Y. dl_avaxhome 22468  _=Austen-ppnce.pdf,0,2000-01-01 01:00:00,2016-04-03 02:51:08,261000/40be3a456a7cd425d9b877b605e734fc-d.jpg,,
5698847,"Electromyography: Physiology, Engineering, and Non-Invasive Applications",,IEEE Press Series on Biomedical Engineering,,"Roberto Merletti, Philip Parker",2004,,Wiley-IEEE Press,,506,0,English,Техника,avaxhome.ws,,"0471675806,9780471675808",,,,,616.7/407547,RC77.5 .E456 2004,,,OL22606600M,17442,0,,,,,1,,,10823121,pdf,405D6E4E8215C24E63B14EBC647409F4,,,Y. dl_avaxhome 17442  _=ElectromEn.pdf,0,2000-01-01 01:00:00,2016-04-03 02:51:08,261000/405d6e4e8215c24e63b14ebc647409f4-d.jpg,,
5698848,States' Rights and American Federalism: A Documentary History,,Primary Documents in American History and Contemporary Issues,,"Frederick D. Drake, Lynn R. Nelson",1999,,Greenwood Press,,264,0,English,История,avaxhome.ws,,"9780313305733,0313305730",,,,,320.473,JK311 .S73 1999,,,OL18281374M,17763,0,,,,,,,T,1198345,pdf,4097E00432E964CD3A72846C4E9192C4,,,Y. dl_avaxhome 17763  _=0313305730.pdf,0,2000-01-01 01:00:00,2016-04-03 02:51:08,261000/4097e00432e964cd3a72846c4e9192c4-d.jpg,,
5698845,Women and the U.S. Budget: Where the Money Goes and What You Can Do About It,,,,Jane Midgley,2005,Softcover Ed,New Society Publishers,,225,0,English,Экономика,avaxhome.ws,,"0865715254,9780865715257",,,,,,,,,OL8326627M,22216,0,,,,,1,,T,1154281,pdf,3F350E3209FB81AA1DC56FA5B3FEF427,,,Y. dl_avaxhome 22216  _=aa04.pdf,0,2000-01-01 01:00:00,2016-04-03 02:51:08,261000/3f350e3209fb81aa1dc56fa5b3fef427-d.jpg,,
5698846,This Is PK Mind Over Matter,,,,Gita Sudarshanananda,2008,,Shakti Karma Bhakti Yoga International Society,,10,0,English,Психология,avaxhome.ws,,"9780615237374,0615237371",,,,,,,,,,22718,0,,,,,,,,55767,pdf,3F42DF561404C927C5D8FF75D54873D0,,,22718 =471.pdf,0,2000-01-01 01:00:00,2016-04-03 02:51:08,261000/3f42df561404c927c5d8ff75d54873d0-d.jpg,,
5698844,A History of Political Thought: From the Middle Ages to the Renaissance,,,,Janet Coleman,2000,,Wiley-Blackwell,,317,0,English,История,avaxhome.ws,,"0631186522,9780631186526",,,,,,,,,OL22400008M,23051,0,,,,,1,,,32711381,pdf,3EE972F0D2AEF5AA356D1B0A56BF88F8,,,Y. dl_avaxhome 23051  _=History_of_Political_Thought_2.pdf,0,2000-01-01 01:00:00,2016-04-03 02:51:08,261000/3ee972f0d2aef5aa356d1b0a56bf88f8-d.jpg,,
5698842,"Making Sense of Aids: Culture, Sexuality, and Power in Melanesia",,,,"Leslie Butt, Richard Eves",2008,illustrated edition,University of Hawaii Press,,345,0,English,"Психология//Любовь, эротика",avaxhome.ws,,"0824831934,9780824831936,0824832493,9780824832490,9781435666757",,,,,362.196/9792,RA643.86.M5 M35 2008,,,OL16882234M,18514,0,,,,,1,,T,3114847,pdf,3DA3FE1A1D143F8587779D8542D73D84,,,Y. dl_avaxhome 18514  _=0824831934.pdf,0,2000-01-01 01:00:00,2016-04-03 02:51:08,261000/3da3fe1a1d143f8587779d8542d73d84-d.jpg,,
5698843,Economics of Forest Resources,,,,"Gregory S. Amacher, Markku Ollikainen, Erkki A. Koskela",2009,1,The MIT Press,,423,0,English,Экономика,avaxhome.ws,,"0262012480,9780262012485,9780262255424",,,,,338.1/349,SD393 .A46 2009,,,OL23160201M,18911,0,,,,,1,,T,3676925,pdf,3EBA9F24A875A0D8FC4AE88348938590,,,Y. dl_avaxhome 18911  _=EconoFores.pdf,0,2000-01-01 01:00:00,2016-04-03 02:51:08,261000/3eba9f24a875a0d8fc4ae88348938590-d.jpg,,
5698841,"Mothering Without a Compass: White Mother's Love, Black Son's Courage",,,,Becky Thompson,2000,,University of Minnesota Press,,179,0,English,Общественные науки прочие,avaxhome.ws,,"9780816636358,0816636354",,,,,306.874/3,HQ75.53 .T48 2000,,,OL6776329M,24625,0,,,,,,,T,5164898,pdf,3D8EF36EFD2B4ED9B51CCB96BD09D4FC,,,Y. dl_avaxhome 24625  _=dd28.pdf,0,2000-01-01 01:00:00,2016-04-03 02:51:08,261000/3d8ef36efd2b4ed9b51ccb96bd09d4fc-d.jpg,,
5698839,Rise of Analytic Philosophy,,Ratio Special Issues,,Hans-Johann Glock,1999,,Wiley-Blackwell,,55,0,English,Общественные науки прочие//Философия,avaxhome.ws,,"9780631200864,063120086X",,,,,,,,,OL7609451M,19056,0,,,,,,,0,4919499,pdf,3D391799C13AF2C4784AF122D3747825,,,Y. dl_avaxhome 19056  _=The_Rise_Of_Analytic_Philosophy.pdf,0,2000-01-01 01:00:00,2016-04-03 02:51:08,261000/3d391799c13af2c4784af122d3747825-d.gif,,
5698840,Companion to Social Archaeology,,,,"Lynn Meskell, Robert W. Preucel",2004,illustrated edition,Wiley-Blackwell,,437,0,English,,avaxhome.ws,,"0631225781,9780631225782,9780470692868",,,,,930.1,CC72.4 .C67 2004,,,OL22599468M,18830,0,,,,,,,T,2352229,pdf,3D44577C6F55EFB70D81E6FE9EAFC9DB,,,Y. dl_avaxhome 18830  _=Social_Archaeology.pdf,0,2000-01-01 01:00:00,2016-04-03 02:51:08,261000/3d44577c6f55efb70d81e6fe9eafc9db-d.jpg,,
5698837,"Sleep Solutions for Your Baby, Toddler and Preschooler: The Ultimate No-Worry Approach for Each Age and Stage",,Mother of All Solutions,,Ann Douglas,2006,,Wiley,,320,0,English,"Домоводство, досуг",avaxhome.ws,,"0470836334,9780470836330,9780470156513",,,,,,,,,OL24301906M,20524,0,,,,,,,T,1936501,pdf,3BF9A01D6F45F33FD301C6E7F7C22B0B,,,Y. dl_avaxhome 20524  _=ww26.pdf,0,2000-01-01 01:00:00,2016-04-03 02:51:08,261000/3bf9a01d6f45f33fd301c6e7f7c22b0b-d.jpg,,
5698838,Electroconvulsive and Neuromodulation Therapies,,,,Conrad M. Swartz MD,2009,1,Cambridge University Press,,649,0,English,Медицина//Терапия,avaxhome.ws,,"0521883881,9780521883887,9780511508622",,,,,616.89/122,RC485 .E38 2009,,,OL17050254M,16831,0,,,,,1,,T,6623846,pdf,3D0C7AD2AF0EB671EB7B0C8B253D8B34,,,Y. dl_avaxhome 16831  _=Electroconvulsive_and_Neuromodulation_Therapies.pdf,0,2000-01-01 01:00:00,2016-04-03 02:51:08,261000/3d0c7ad2af0eb671eb7b0c8b253d8b34-d.jpg,,
5698835,A Means to an End: The Biological Basis of Aging and Death,,,,William R. Clark,2002,1,"Oxford University Press, USA",,252,0,English,Биология,avaxhome.ws,,"9780195153750,0195153758",,,,,,,,,OL7390162M,18269,0,,,,,,,T,12187142,pdf,3B5E26952417B161B0BB80AF37805909,,,Y. dl_avaxhome 18269  _=0195153758.pdf,0,2000-01-01 01:00:00,2016-04-03 02:51:08,261000/3b5e26952417b161b0bb80af37805909-d.jpg,,
5698836,"Advances in Chemical Physics, Reduced-Density-Matrix Mechanics: With Application to Many-Electron Atoms and Molecules (Volume 134",,,,David A. Mazziotti,2007,1,Wiley-Interscience,,597,0,English,Химия,avaxhome.ws,,"9780471790563,0471790567",,,,,530.122,QD453 .A27 vol. 134,,,OL10336154M,22235,0,,,,,,,T,3386603,pdf,3B97633C9C4B9532F8892E88054BC30C,,,Y. dl_avaxhome 22235  _=reduced-density_matrix_mechanics.pdf,0,2000-01-01 01:00:00,2016-04-03 02:51:08,261000/3b97633c9c4b9532f8892e88054bc30c-d.jpg,,
5698834,FIRST COLD WAR: THE LEGACY OF WOODROW WILSON IN U.S. - SOVIET RELATIONS,,,,"Donald E. Davis, Eugene P. Trani",2002,1,University of Missouri,,356,0,English,История,avaxhome.ws,,"9780826213884,082621388X",,,,,327.73047/09/041,E183.8.S65 D386 2002,,,OL3560569M,24708,0,,,,,,,T,8594310,pdf,3B0A5F9B3E35DFF8DC84AA95D9C9A48F,,,Y. dl_avaxhome 24708  _=The_First_Cold_War.PDF,0,2000-01-01 01:00:00,2016-04-03 02:51:08,261000/3b0a5f9b3e35dff8dc84aa95d9c9a48f-d.jpg,,
5698832,Expert Resumes for People Returning to Work,,,,"Wendy S. Enelow, Louise M. Kursmark",2007,2,JIST Works,,289,0,English,Бизнес,avaxhome.ws,,"9781593573621,1593573626",,,,,650.14/2,HF5383 .E4789 2008,,,OL17962851M,17686,0,,,,,,,,57889090,pdf,3AB6504208DA962CFD45FA9664C9A2CC,,,Y. dl_avaxhome 17686  _=1593573626.pdf,0,2000-01-01 01:00:00,2016-04-03 02:51:08,261000/3ab6504208da962cfd45fa9664c9a2cc-d.jpg,,
5698833,Sign Here!: Handwriting in the Age of New Media,,Transformations in Art and Culture,,"Sonja Neef, Jose van Dijck, Eric Ketelaar",2006,,Amsterdam University Press,,249,0,English,,avaxhome.ws,,"9053568166,9789053568163,9781429454537",,,,,,,,,OL12808325M,21955,0,,,,,,,T,2366841,pdf,3AC333A96F5BDA6260359C6D4C4CD691,,,Y. dl_avaxhome 21955  _=9053568166_Sign_Here.pdf,0,2000-01-01 01:00:00,2016-04-03 02:51:08,261000/3ac333a96f5bda6260359c6d4c4cd691-d.jpg,,
5698831,Epilepsy and Sleep: Physiological and Clinical Relationships,,,,"Dudley S. Dinner, Hans O. Luders",2001,1st,Academic Press,,295,0,English,Медицина//Клиническая медицина,avaxhome.ws,,"9780122167706,0122167708",,,,,,,,,OL7326515M,21392,0,,,,,,,,17421609,pdf,3AB61176CA03CD981887EEC6981CBF93,,,Y. dl_avaxhome 21392  _=EpilepsSle.pdf,0,2000-01-01 01:00:00,2016-04-03 02:51:08,261000/3ab61176ca03cd981887eec6981cbf93-d.jpg,,
5698829,HOWTO Secure and Audit Oracle 10g and 11g,,,,Ron Ben-Natan,2009,1,Auerbach Publications,,472,0,English,Компьютеры//Базы данных,avaxhome.ws,,"9781420084122,1420084127",,,,,005.8,QA76.9.A25 B446 2009,,,OL22984248M,16732,0,,,,,,,T,11242306,pdf,3A635BD575C622B70318421E1BC14F7F,,,Y. dl_avaxhome 16732  _=03259999.pdf,0,2000-01-01 01:00:00,2016-04-03 02:51:08,261000/3a635bd575c622b70318421e1bc14f7f-d.jpg,,
5698830,Chromatic Monitoring of Complex Conditions,,Series in Sensors,,"Gordon Rees Jones, Anthony G. Deakin, Joseph W. Spencer",2008,,Taylor & Francis,,314,0,English,Техника,avaxhome.ws,,"9781584889885,1584889888",,,,,681/.25,QC793.3.Q35 C57 2008,,,OL12313895M,21473,0,,,,,,,T,18730150,pdf,3A9E7BE24087FBE99B855209BAA74EC4,,,Y. dl_avaxhome 21473  _=hh19.pdf,0,2000-01-01 01:00:00,2016-04-03 02:51:08,261000/3a9e7be24087fbe99b855209baa74ec4-d.jpg,,
5698828,Community Participation in China: Issues and Processes for Capacity Building,,,,"Jannelle Plummer, John G. Taylor",2004,illustrated edition,Earthscan Publications Ltd.,,379,0,English,Экономика,avaxhome.ws,,"9781844070862,1844070867",,,,,,,,,OL22604284M,17958,0,,,,,,,,1575950,pdf,3A280C115C92F21010C03598BA591AA5,,,Y. dl_avaxhome 17958  _=95.pdf,0,2000-01-01 01:00:00,2016-04-03 02:51:08,261000/3a280c115c92f21010c03598ba591aa5-d.jpg,,
5698825,Fig Heaven: 70 Recipes for the World's Most Luscious Fruit,,,,Marie Simmons,2004,,William Morrow Cookbooks,,176,0,English,Наука (общее)//Научно-популярное,avaxhome.ws,,"006053849X,9780060538491",,,,,,,,,OL7278168M,16630,0,,,,,1,,T,3067818,pdf,38FDD6A0048531AD1668395B07C9FA13,,,Y. dl_avaxhome 16630  _=simmons_f.pdf,0,2000-01-01 01:00:00,2016-04-03 02:51:08,261000/38fdd6a0048531ad1668395b07c9fa13-d.jpg,,
5698826,Sacrament,,,,Clive Barker,1997,,HarperTorch,,862,0,English,Искусство,avaxhome.ws,,"9780061091995,0061091995",,,,,,,,,,18032,0,,,,,,,T,2373010,pdf,393B0098A378B4A4EEF84C2D468280E5,,,Y. dl_avaxhome 18032  _=Barker__Clive_-_Sacrament.pdf,0,2000-01-01 01:00:00,2016-04-03 02:51:08,261000/393b0098a378b4a4eef84c2d468280e5-d.jpg,,
5698827,Art of Oral Sex: Bring Your Partner to New Heights of Pleasure,,,,"Ian Denchasy, Alicia Denchasy",2007,illustrated edition,Quiver,,28,0,English,"Психология//Любовь, эротика",avaxhome.ws,,"9781592332908,1592332900",,,,,306.77/4,HQ31 .D427 2007,,,OL12377119M,23505,0,,,,,,,,183383,pdf,3996FD0DDE343E5953B8B2DADF6D5866,,,Y. dl_avaxhome 23505  _=The_Art_of_Oral_Sex.pdf,0,2000-01-01 01:00:00,2016-04-03 02:51:08,261000/3996fd0dde343e5953b8b2dadf6d5866-d.jpg,,
5698824,Ethics: An Essay on the Understanding of Evil,,Wo es war,,"Alain Badiou, Peter Hallward",2002,,Verso,,211,0,French,Общественные науки прочие//Философия,avaxhome.ws,,"1859844359,9781859844359",,,,,,,,,OL8624271M,22175,0,,,,,1,,T,5624667,djvu,3897B3F1D432809B9C800B19A7626792,,,Y. dl_avaxhome 22175  _=1859844359.djvu,0,2000-01-01 01:00:00,2016-04-03 02:51:08,261000/3897b3f1d432809b9c800b19a7626792-d.jpg,,
5698822,There's No Place Like Home Video,,,,James M. Moran,2002,,University of Minnesota Press,,253,0,English,Языкознание,avaxhome.ws,,"9780816638000,0816638004",,,,,384.55/8,PN1992.945 .M67 2002,,,OL3551591M,24627,0,,,,,,,T,6062730,pdf,37FE01C1E8E623A8D814D2C39E837AC0,,,Y. dl_avaxhome 24627  _=dd26.pdf,0,2000-01-01 01:00:00,2016-04-03 02:51:08,261000/37fe01c1e8e623a8d814d2c39e837ac0-d.jpg,,
5698823,"Now You See It, Now You Don't!: Lessons in Sleight of Hand",,,,Bill Tarr,1976,,Vintage,,228,0,English,eLearning_book\\Others,avaxhome.ws,,"9780394722023,0394722027",,,,,793.8,GV1547 .T33 1976b,,,OL4903080M,18947,0,,,,,,,T,50056547,pdf,38450C161835B162BA9F5043111EFD92,,,Y. dl_avaxhome 18947  _=Now_You_See_It__Now_You_Don_t_.pdf,0,2000-01-01 01:00:00,2016-04-03 02:51:08,261000/38450c161835b162ba9f5043111efd92-d.jpg,,
5698820,Migrants in Modern France,,,,"Philip E. Ogden, Paul White",1989,1,Routledge,,256,0,English,История,avaxhome.ws,,"0043012094,9780043012093,9780203036525",,,,,304.8/0944,HB2053 .M53 1988,,,OL2040522M,16839,0,,,,,1,,T,5186197,pdf,37886F2DBFC91EB7C2DBEEA88531C5F9,,,Y. dl_avaxhome 16839  _=MigraFranc.pdf,0,2000-01-01 01:00:00,2016-04-03 02:51:08,261000/37886f2dbfc91eb7c2dbeea88531c5f9-d.jpg,,
5698821,Fourier Analysis,,Lecture Notes in Pure and Applied Mathematics,,"William O. Bray, P. Milojevic, C.V. Stanojevic",1994,1,CRC Press,,444,0,English,Математика//Анализ,avaxhome.ws,,"9780824792084,0824792084",,,,,515/.2433,QA403.5 .F67 1994,,,OL1078523M,21265,0,,,,,,,,11800791,djvu,37EA4D3A7923ADBD890348926FA1B0F5,,,Y. dl_avaxhome 21265  _=bray-milojevic-stanojevic---fourier_analysis.djvu,0,2000-01-01 01:00:00,2016-04-03 02:51:08,261000/37ea4d3a7923adbd890348926fa1b0f5-d.jpg,,
5698819,Climate Change and Terrestrial Carbon Sequestration in Central Asia,,,,"Rattan Lal, M. Suleimenov, B.A. Stewart, D.O. Hansen, Paul Doraiswamy",2007,1,Taylor & Francis,,512,0,English,"География//Метеорология, Климатология",avaxhome.ws,,"9780415422352,0415422353",,,,,363.700958,SD387.C37 C58 2007,,,OL10205772M,20193,0,,,,,,,T,10132577,pdf,37730778DE96083840365D777FE117F4,,,Y. dl_avaxhome 20193  _=qq26.pdf,0,2000-01-01 01:00:00,2016-04-03 02:51:08,261000/37730778de96083840365d777fe117f4-d.jpg,,
5698817,Women in Prison: A Reference Handbook,,Contemporary World Issues,,Cyndi Banks,2003,,ABC-CLIO,,241,0,English,,avaxhome.ws,,"9781576079294,1576079295",,,,,,,,,OL12237540M,22484,0,,,,,,,T,5499639,pdf,365A7A334AEAAD55C8DF527E5ED43E5C,,,Y. dl_avaxhome 22484  _=nn24.pdf,0,2000-01-01 01:00:00,2016-04-03 02:51:08,261000/365a7a334aeaad55c8df527e5ed43e5c-d.jpg,,
5698818,A Student Grammar of French,,,,Malcolm Offord,2006,Bilingual,Cambridge University Press,,450,0,English,Языкознание,avaxhome.ws,,"0521547628,9780521547628",,,,,448.2/421,PC2112 .O34 2006,,,OL3408489M,17853,0,,,,,1,,T,3359031,pdf,3709F940B777901795EBF308CC0F21D9,,,0521547628.Cambridge.University.Press.A.Student.Grammar.of.French.May.2006.pdf,0,2000-01-01 01:00:00,2016-04-03 02:51:08,261000/3709f940b777901795ebf308cc0f21d9-d.jpg,,
5698816,Great Women Mystery Writers,,,,Elizabeth Blakesley Lindsay,2006,2,Greenwood,,352,0,English,Образование//Энциклопедии,avaxhome.ws,,"0313334285,9780313334283,9780313049064",,,,,,,,,OL10420571M,22188,0,,,,,,,T,4427895,pdf,3656B117C755E830A71CB92A4647FE2B,,,Y. dl_avaxhome 22188  _=aa35.pdf,0,2000-01-01 01:00:00,2016-04-03 02:51:08,261000/3656b117c755e830a71cb92a4647fe2b-d.jpg,,
5698814,Mama's Home Remedies: Discover Time-Tested Secrets of Good Health and the Pleasures of Natural Living,,,,"Svetlana Konnikova, Anna Maria Clement",2008,illustrated edition,"Aurora Publishers, Inc.",,329,0,English,Медицина,avaxhome.ws,,"9780979175824,0979175828",,,,,615.8/8,RA776.95 .K67 2008,,,OL11839544M,16818,0,,,,,,,T,12528803,pdf,361523AFD9F6D166BD18715E56F950D3,,,Y. dl_avaxhome 16818  _=Mama_s_Home_Remedies.pdf,0,2000-01-01 01:00:00,2016-04-03 02:51:08,261000/361523afd9f6d166bd18715e56f950d3-d.jpg,,
5698815,Encyclopedia of Italian Literary Studies,,,,"Gaetana Marrone, Paolo Puppa",2006,1,Routledge,,2258,0,English,Образование//Энциклопедии,avaxhome.ws,,"1579583903,9781579583903,9780203943540",,,,,,,,,OL17211237M,21487,0,,,,,1,,T,12264401,pdf,36290FF2CDCE3F73BCFB5ECB36E78B39,,,Y. dl_avaxhome 21487  _=hh04.pdf,0,2000-01-01 01:00:00,2016-04-03 02:51:08,261000/36290ff2cdce3f73bcfb5ecb36e78b39-d.jpg,,
5698813,Multimedia Security Handbook,,Internet and Communications,,"Borko Furht, Darko Kirovski",2004,1,CRC Press,,812,0,English,,avaxhome.ws,,"9780849327735,0849327733",,,,,,,,,OL17150169M,22440,0,,,,,,,T,47118934,pdf,35A5F835C88422EA8F386E99904C3182,,,Y. dl_avaxhome 22440  _=fotech_-_multimedia_security_handbook.pdf,0,2000-01-01 01:00:00,2016-04-03 02:51:08,261000/35a5f835c88422ea8f386e99904c3182-d.jpg,,
5698812,"Social Simulation: Technologies, Advances and New Discoveries",,Premier Reference,,"Bruce Edmonds, Bruce Edmonds, Cesareo Hernandez, Klaus G. Troitzsch",2007,1,IGI Global,,403,0,English,Техника,avaxhome.ws,,"1599045222,9781599045221,9781599045245",,,,,300.1/13,H61.3 .S625 2008,,,OL12498885M,17296,0,,,,,0,,,19255731,pdf,359DA923469F8DB946234AFF377B6862,,,Y. dl_avaxhome 17296  _=Social_Simulation_1599045222.pdf,0,2000-01-01 01:00:00,2016-04-03 02:51:08,261000/359da923469f8db946234aff377b6862-d.jpg,,
5698810,New Testament,,Understanding the Bible and Its World,,Gerd Theissen,2003,,T. & T. Clark Publishers,,211,0,English,"Религия//Эзотерика, мистика",avaxhome.ws,,"9780567081919,0567081915",,,,,,,,,OL22103705M,18061,0,,,,,,,1,8491139,pdf,340C9B96DF212DCFE4425A9B2E2508A9,,,Y. dl_avaxhome 18061  _=0567081915.pdf,0,2000-01-01 01:00:00,2016-04-03 02:51:08,261000/340c9b96df212dcfe4425a9b2e2508a9-d.jpg,,
5698811,The SAGE Dictionary of Cultural Studies,v. 1,,,Dr Chris Barker,2004,1,Sage Publications Ltd,,242,0,English,Языкознание//Словари,avaxhome.ws,,"9780761973409,0761973400",,,,,,,,,OL8030709M,19931,0,,,,,,,T,5807329,pdf,34D97507B861598973DD2274738DC74E,,,Y. dl_avaxhome 19931  _=yy08.pdf,0,2000-01-01 01:00:00,2016-04-03 02:51:08,261000/34d97507b861598973dd2274738dc74e-d.jpg,,
5698808,Blackwell Handbook of Adolescence,,Blackwell Handbooks of Developmental Psychology,,"Gerald R. Adams, Michael Berzonsky",2003,1,Wiley-Blackwell,,677,0,English,,avaxhome.ws,,"9780631219194,0631219196",,,,,,,,,OL17082069M,22448,0,,,,,,,T,7153685,pdf,33910F20F9F4B7008ED359AE4C0B0C05,,,Y. dl_avaxhome 22448  _=HbAdoles.pdf,0,2000-01-01 01:00:00,2016-04-03 02:51:08,261000/33910f20f9f4b7008ed359ae4c0b0c05-d.jpg,,
5698809,International Cuisine,,,,The International Culinary Schools at The Art Institutes,2008,,Wiley,,865,0,English,"Домоводство, досуг//Кулинария",avaxhome.ws,,"9780470052402,9780470280065,0470052406,0470410760,9780470410769",,,,,641.59,TX725.A1 N46 2009,,,OL16638559M,19425,0,,,,,,,,26844252,pdf,33CE91CA7F23EC62CD091E7E975A73A8,,,Y. dl_avaxhome 19425  _=IntCuisine.pdf,0,2000-01-01 01:00:00,2016-04-03 02:51:08,261000/33ce91ca7f23ec62cd091e7e975a73a8-d.jpg,,
5698807,Acupuncture: An Anatomical Approach,,,,"Houchi Dung, Curtis P. Clogston, Joeming W. Dunn",2004,1,CRC Press,,252,0,English,Медицина,avaxhome.ws,,"9780849316517,0849316510",,,,,,,,,OL22585597M,17917,0,,,,,,,T,5357956,djvu,33890EE438F5A0F1D0A43C5217AFBA4B,,,Y. dl_avaxhome 17917  _=AcupunAnat.djvu,0,2000-01-01 01:00:00,2016-04-03 02:51:08,261000/33890ee438f5a0f1d0a43c5217afba4b-d.jpg,,
5698805,Arithmetic Moduli of Elliptic Curves.,,Annals of Mathematics Studies 108,,"Nicholas M. Katz, Barry Mazur",1985,,Princeton University Press,,526,0,English,Математика,avaxhome.ws,,"9780691083520,0691083525",,,,,516.3/5,QA567 .K3 1985,,,OL3185773M,24801,0,,,,,,,,8370212,djvu,332A8B824CFC23FB548A7F28CD655D1B,,,Y. dl_avaxhome 24801  _=Katz_Mazur-arithmetic_moduli_of_elliptic_curves.djvu,0,2000-01-01 01:00:00,2016-04-03 02:51:08,261000/332a8b824cfc23fb548a7f28cd655d1b-d.jpg,,
5698806,Making Pure Corn Whiskey: A Professional Guide For Amateur And Micro Distillers,,,,Ian Smiley,2003,2,Ian Smiley,,114,0,English,"Домоводство, досуг//Кулинария",avaxhome.ws,,"0968629210,9780968629215",,,,,,,,,OL8558906M,19480,0,,,,,1,,,898532,pdf,333EB6D8B74EC5210358B1EFA93CAC8C,,,Y. dl_avaxhome 19480  _=Making_Pure_Corn_Whiskey.pdf,0,2000-01-01 01:00:00,2016-04-03 02:51:08,261000/333eb6d8b74ec5210358b1efa93cac8c-d.jpg,,
5698804,My First Book of Time,,My First Books (Board Books Dorling Kindersley),,DK Publishing,2007,,DK Preschool,,14,0,English,Образование,avaxhome.ws,,"9780756629380,0756629381",,,,,,,,,,19908,0,,,,,,,T,17681336,pdf,330307AE9111B7A0872E60EE677AF032,,,Y. dl_avaxhome 19908  _=yy25.pdf,0,2000-01-01 01:00:00,2016-04-03 02:51:08,261000/330307ae9111b7a0872e60ee677af032-d.jpg,,
5698802,Fashion as Photograph: Viewing and Reviewing Images of Fashion,,,,Eugenie Shinkle,2008,,I. B. Tauris,,257,0,English,Искусство//Фотография,avaxhome.ws,,"9781845115173,1845115171",,,,,778.9/974692,TR679 .F374 2008,,,OL11911326M,21549,0,,,,,,,T,2756700,pdf,32A26B91F5B09BB6F2E2B4E58E9F2403,,,Y. dl_avaxhome 21549  _=1845115171_Fashion_As_Photograph.pdf,0,2000-01-01 01:00:00,2016-04-03 02:51:08,261000/32a26b91f5b09bb6f2e2b4e58e9f2403-d.jpg,,
5698803,Go Scuba Dive,,GO SERIES,,Monty Halls,2007,Pap/DVD,DK ADULT,,161,0,English,Физкультура и спорт,avaxhome.ws,,"9780756626273,0756626277",,,,,,,,,OL7995565M,19930,0,,,,,,,T,21113856,pdf,32AF468DE3CB333CC0E07E66C0ED6790,,,Y. dl_avaxhome 19930  _=yy09.pdf,0,2000-01-01 01:00:00,2016-04-03 02:51:08,261000/32af468de3cb333cc0e07e66c0ed6790-d.jpg,,
5698801,600 Essential Words for the TOEIC,,,,Lin Lougheed Ed.D.,2008,3,Barron's Educational Series,,364,0,English,,avaxhome.ws,,"9780764194016,0764194011",,,,,428.1,PE1128 .L643 2008,,,OL10931332M,17808,0,,,,,,,,11966293,pdf,322C088ABB0306CEF2D0C44CB30B583D,,,Y. dl_avaxhome 17808  _=600_est_.pdf,0,2000-01-01 01:00:00,2016-04-03 02:51:08,261000/322c088abb0306cef2d0c44cb30b583d-d.jpg,,
5698800,Sex Tips from a Dominatrix,,,,Patricia Payne,2009,Reprint,It Books,,226,0,English,"Психология//Любовь, эротика",avaxhome.ws,,"9780061547331,0061547336,006072191X,0060392878,9780060392871,9780060721916",,,,,306.77/5,HQ79 .P35 1999,,,OL23389421M,24825,0,,,,,1,,T,1116916,pdf,31E4B30B7CD4865D2F581CC0AF18D507,,,Y. dl_avaxhome 24825  _=Sex_Tips_From_a_Dominatrix_0061547336.pdf,0,2000-01-01 01:00:00,2016-04-03 02:51:08,261000/31e4b30b7cd4865d2f581cc0af18d507-d.jpg,,
5698798,Constructive Psychotherapy: A Practical Guide,,,,Michael J. Mahoney PhD,2003,First Edition,The Guilford Press,,322,0,English,Психология,avaxhome.ws,,"1572309024,9781572309029",,,,,,,,,OL8734449M,22193,0,,,,,,,T,1339813,pdf,315316A307109F2FF1ECAF6B93BEBA1D,,,Y. dl_avaxhome 22193  _=aa29.pdf,0,2000-01-01 01:00:00,2016-04-03 02:51:08,261000/315316a307109f2ff1ecaf6b93beba1d-d.jpg,,
5698799,Special Edition Using Microsoft Expression Web 2,,,,Jim Cheshire,2008,,Que,,1144,0,English,Компьютеры//Сети//Интернет,avaxhome.ws,,"9780789737847,0789737841",,,,,006.7/8,TK5105.8883 .C54 2008,,,OL23155786M,18717,0,,,,,,,,40985476,pdf,31C5096B09E3289582B3DF5D13ED92E0,,,Y. dl_avaxhome 18717  _=MicrExpWeb.pdf,0,2000-01-01 01:00:00,2016-04-03 02:51:08,261000/31c5096b09e3289582b3df5d13ed92e0-d.jpg,,
5698797,Reading Comprehension Skills & Strategies Level 4,,Highinterest Reading Comprehension Skills & Strategies,,Edge,2002,,"Saddleback Educational Publishing, Inc.",,146,0,English,Образование,avaxhome.ws,,"1562540319,9781562540319",,,,,,,,,OL23120153M,22481,0,,,,,,,,4794181,pdf,312E63E83475FAFD0F162B3587736BF6,,,Y. dl_avaxhome 22481  _=nn27.pdf,0,2000-01-01 01:00:00,2016-04-03 02:51:08,261000/312e63e83475fafd0f162b3587736bf6-d.jpg,,
5698796,"Moral and Political Philosophy: Key Issues, Concepts and Theories",,,,Paul Smith,2008,,Palgrave Macmillan,,265,0,English,Общественные науки прочие//Философия,avaxhome.ws,,"0230552757,9780230552753",,,,,170,BJ55 .S64 2008,,,OL16725892M,18899,0,,,,,,,T,1480919,pdf,30CD13474C8E2E1A20D8B5A6179EF978,,,Y. dl_avaxhome 18899  _=smith-moral_and_political_philosophy.pdf,0,2000-01-01 01:00:00,2016-04-03 02:51:08,261000/30cd13474c8e2e1a20d8b5a6179ef978-d.jpg,,
5698794,The Story Of A Bold Tin Soldier,,,,Laura Lee Hope,2004,,Kessinger Publishing,,35,0,English,Литература//Проза,avaxhome.ws,,"9781419183669,1419183664",,,,,,,,,OL9564878M,19113,0,,,,,,,,70695,pdf,2FF5F5566B608E85A0C364E2AB641D6E,,,Y. dl_avaxhome 19113  _=The_Story_of_a_Bold_Tin_Soldier.pdf,0,2000-01-01 01:00:00,2016-04-03 02:51:08,261000/2ff5f5566b608e85a0c364e2ab641d6e-d.jpg,,
5698795,Thinking Through Things: Theorising Artefacts Ethnographically,,UCL,,"Amiria Henare, Martin Holbraad, Sari Wastell",2006,,Routledge,,248,0,English,Языкознание,avaxhome.ws,,"1844720721,9781844720729,9780203088791",,,,,306,GN406 .T53 2006,,,OL17211130M,22548,0,,,,,,,T,1571685,pdf,3023A7BE04A3CF3C4AE63413695C78D3,,,Y. dl_avaxhome 22548  _=1844720721.pdf,0,2000-01-01 01:00:00,2016-04-03 02:51:08,261000/3023a7be04a3cf3c4ae63413695c78d3-d.jpg,,
5698793,Palgrave Advances in the Crusades,,Palgrave Advances Hardback ,,Helen J. Nicholson,2005,,Palgrave Macmillan,,330,0,English,История,avaxhome.ws,,"9781403912367,140391236X",,,,,909.07,D156.58 .P35 2005,,,OL3422069M,22489,0,,,,,,,T,5455178,pdf,2F48E8135A8A86665CC4AAF61D604B1F,,,Y. dl_avaxhome 22489  _=nn19.pdf,0,2000-01-01 01:00:00,2016-04-03 02:51:08,261000/2f48e8135a8a86665cc4aaf61d604b1f-d.jpg,,
5698792,Analysis of Time Series Structure: SSA and Related Techniques,,,,"Nina Golyandina, Vladimir Nekrutkin, Anatoly A Zhigljavsky",2001,1,Chapman and Hall/CRC,,310,0,English,Математика//Математическая статистика,avaxhome.ws,,"9781584881940,1584881941",,,,,,,,,OL8795236M,21895,0,,,,,,,T,5399840,pdf,2E7E547D7CEE32554C126CD3D069CBBD,,,Y. dl_avaxhome 21895  _=1584881941.pdf,0,2000-01-01 01:00:00,2016-04-03 02:51:08,261000/2e7e547d7cee32554c126cd3d069cbbd-d.jpg,,
5698790,Sing Your Own Song: A Guide for Single Moms,,,,Cynthia Orange,2001,,Hazelden,,203,0,English,"Домоводство, досуг",avaxhome.ws,,"9781568385723,1568385722",,,,,,,,,OL8689362M,18865,0,,,,,,,T,6997056,pdf,2D8A61039BE320B43E0B6A16B0940601,,,Y. dl_avaxhome 18865  _=a40.pdf,0,2000-01-01 01:00:00,2016-04-03 02:51:08,261000/2d8a61039be320b43e0b6a16b0940601-d.jpg,,
5698791,The Oxford Companion to the Supreme Court of the United States,,,,Kermit L. Hall,2005,2,"Oxford University Press, USA",,1270,0,English,,avaxhome.ws,,"9780195176612,0195176618",,,,,347.73/26/03,KF8742.A35 O93 2005,,,OL18257059M,18873,0,,,,,,,,20673450,pdf,2DEF3F41342E1FB9734A9486455EA245,,,Y. dl_avaxhome 18873  _=a33.pdf,0,2000-01-01 01:00:00,2016-04-03 02:51:08,261000/2def3f41342e1fb9734a9486455ea245-d.jpg,,
5698789,Great Sex Tips,,,,"Anne Hooper, Lynne Brown",2002,,DK ADULT,,122,0,English,Наука (общее)//Научно-популярное,avaxhome.ws,,"9780789471437,0789471434",,,,,613.9/6,HQ31 .H7423 2001,,,OL3581205M,21577,0,,,,,,,,30667855,pdf,2D300995CFC8014C81E8CCA402C2DD33,,,Y. dl_avaxhome 21577  _=Great_Sex_Tips.pdf,0,2000-01-01 01:00:00,2016-04-03 02:51:08,261000/2d300995cfc8014c81e8cca402c2dd33-d.jpg,,
5698788,Adversarial Justice: America's Court System on Trial,,,,Theodore L. Kubicek,2006,,Algora Publishing,,223,0,English,Общественные науки прочие,avaxhome.ws,,"9780875865270,0875865275",,,,,,,,,OL8090131M,24637,0,,,,,,,T,5897253,pdf,2D0EEE944B9FC265278DF91D5C6DB247,,,Y. dl_avaxhome 24637  _=dd16.pdf,0,2000-01-01 01:00:00,2016-04-03 02:51:08,261000/2d0eee944b9fc265278df91d5c6db247-d.jpg,,
5698786,Gurus on Business Strategy,,,,Tony Grundy,2005,,Thorogood,,235,0,English,Бизнес,avaxhome.ws,,"9781854182623,1854182625",,,,,,,,,OL8988964M,24947,0,,,,,,,T,5165745,pdf,2C6C8F9EEA9A076CC88B1ED099F67BFE,,,Y. dl_avaxhome 24947  _=ee03.pdf,0,2000-01-01 01:00:00,2016-04-03 02:51:08,261000/2c6c8f9eea9a076cc88b1ed099f67bfe-d.jpg,,
5698787,"Postharvest Handling, : A Systems Approach",,Food Science and Technology,,"Wojciech J. Florkowski, Stanley E. Prussia, Robert L. Shewfelt, Bernhard Brueckner",2009,2,Academic Press,,594,0,English,Биология,avaxhome.ws,,"9780123741127,0123741122",,,,,,,,,,17349,0,,,,,,,,6929566,pdf,2CA65C7DA0D129E77C938AD2A30CF398,,,Y. dl_avaxhome 17349  _=Postharvest_Handling__Second_Edition_A_Systems_Approach.pdf,0,2000-01-01 01:00:00,2016-04-03 02:51:08,261000/2ca65c7da0d129e77c938ad2a30cf398-d.jpg,,
5698784,Ceramic Materials and Components for Engines,,,,"Jürgen G. Heinrich, Fritz Aldinger",2001,,Wiley-VCH,,677,0,English,Наука (общее)//Науковедение,avaxhome.ws,,"9783527304165,3527304169",,,,,,,,,OL9359457M,16508,0,,,,,,,,64933507,pdf,2BCD2017E610AE8EA4E4F76A36662772,,,Y. dl_avaxhome 16508  _=Ceramic_Materials_and_Components_for_Engines.pdf,0,2000-01-01 01:00:00,2016-04-03 02:51:08,261000/2bcd2017e610ae8ea4e4f76a36662772-d.jpg,,
5698785,A Companion to 20th-Century America,,Blackwell Companions to American History,,Stephen J. Whitfield,2004,,Wiley-Blackwell,,581,0,English,,avaxhome.ws,,"9780631211006,0631211004",,,,,973.91,E178.6 .C65 2004,,,OL22566846M,19830,0,,,,,,,T,4513314,pdf,2C0C9ED8D55A90FA4D121643EA25EFA7,,,Y. dl_avaxhome 19830  _=Companion20thCenturyAmerica.pdf,0,2000-01-01 01:00:00,2016-04-03 02:51:08,261000/2c0c9ed8d55a90fa4d121643ea25efa7-d.jpg,,
5698782,"Owning Up: Poverty, Assets and the American Dream",,,,Michelle Miller-Adams,2002,,Brookings Institution Press,,238,0,English,Общественные науки прочие,avaxhome.ws,,"9780815706205,0815706200",,,,,,,,,OL9775152M,22490,0,,,,,,,T,7387809,pdf,2AE7C971CCC4AD6893BE767E5FFD3CC2,,,Y. dl_avaxhome 22490  _=nn18.pdf,0,2000-01-01 01:00:00,2016-04-03 02:51:08,261000/2ae7c971ccc4ad6893be767e5ffd3cc2-d.jpg,,
5698783,Real-Resumes for Students,,Real-Resumes Series,,Anne McKinney,2000,1,Prep Publishing,,193,0,English,Бизнес,avaxhome.ws,,"9781885288189,1885288182",,,,,"650.14/2,808/.06665",HF5383 .R3963 2000,,,OL24927659M,24938,0,,,,,,,T,5604501,pdf,2AF2BF67C133AD37C3E98A216C67839F,,,Y. dl_avaxhome 24938  _=ee12.pdf,0,2000-01-01 01:00:00,2016-04-03 02:51:08,261000/2af2bf67c133ad37c3e98a216c67839f-d.jpg,,
5698780,Australia 1942 - 1945 - with English Summary,,Wydawnictwo Militaria 092,,Andre R. Zbiegniewski,1999,,Wydawnictwo Militaria,,100,0,English,Языкознание,avaxhome.ws,,"9788372190499,8372190496",,,,,,,,,,18050,0,,,,,,,,14475815,pdf,2A50C4AB1BA13C38307CC1B153DA8300,,,18050 =Wydawnictwo_Militaria__092__-_Australia_1942_1945.pdf,0,2000-01-01 01:00:00,2016-04-03 02:51:08,261000/2a50c4ab1ba13c38307cc1b153da8300-g.jpg,,
5698781,Handbook on the South Asian Economies,,,,"Anis Chowdhury, Wahiduddin Mahmud",2008,,Edward Elgar Pub,,257,0,English,Экономика,avaxhome.ws,,"9781843769880,1843769883",,,,,330.954,HC430.6 .H36 2008,,,OL24585245M,19912,0,,,,,,,T,5339291,pdf,2ACEAE55B783FB8A189CDC341EA4CD4D,,,Y. dl_avaxhome 19912  _=yy21.pdf,0,2000-01-01 01:00:00,2016-04-03 02:51:08,261000/2aceae55b783fb8a189cdc341ea4cd4d-d.jpg,,
5698778,Ocular Therapeutics: Eye on New Discoveries,,,,"Thomas Yorio, Abbott Clark, Martin B Wax",2008,1,Academic Press,,537,0,English,Медицина,avaxhome.ws,,"9780123705853,0123705851",,,,,,,,,OL10071904M,24671,0,,,,,,,T,7959590,pdf,2A247EA388FE8FFCA456E93149BFF5A4,,,Y. dl_avaxhome 24671  _=0123705851.pdf,0,2000-01-01 01:00:00,2016-04-03 02:51:08,261000/2a247ea388fe8ffca456e93149bff5a4-d.jpg,,
5698779,Stepping Stones: A Guide for Mature-Aged Students at University,,,,"Jill Scevak, Robert Cantwell",2007,,Acer Press,,151,0,English,Бизнес,avaxhome.ws,,"9780864314147,0864314140",,,,,,,,,,24631,0,,,,,,,T,5855923,pdf,2A4EFF31649AC330B3AC84C9C984BBC5,,,Y. dl_avaxhome 24631  _=dd22.pdf,0,2000-01-01 01:00:00,2016-04-03 02:51:08,261000/2a4eff31649ac330b3ac84c9c984bbc5-d.jpg,,
5698777,The Green Building Revolution,,,,"Jerry Yudelson, S. Richard Fedrizzi",2007,,Island Press,,270,0,English,Техника//Строительство,avaxhome.ws,,"1597261793,9781597261791,9781435699830",,,,,,,,,OL12493178M,21630,0,,,,,,,T,3378161,pdf,29F25B4C5E6C97D1CE93AF200ED58EA5,,,Y. dl_avaxhome 21630  _=Green_Building.pdf,0,2000-01-01 01:00:00,2016-04-03 02:51:08,261000/29f25b4c5e6c97d1ce93af200ed58ea5-d.jpg,,
5698775,India as an Emerging Power,,,,Sumit Ganguly,2003,1,Routledge,,235,0,English,Общественные науки прочие,avaxhome.ws,,"9780714683218,0714683213",,,,,,,,,OL7800876M,22186,0,,,,,,,T,5180341,pdf,299BE6C31E921A6F26F784BEE2CC042C,,,Y. dl_avaxhome 22186  _=aa37.pdf,0,2000-01-01 01:00:00,2016-04-03 02:51:08,261000/299be6c31e921a6f26f784bee2cc042c-d.jpg,,
5698776,Bodies at Work,,,,Dr Carol Wolkowitz,2006,,Sage Publications Ltd,,224,0,English,Общественные науки прочие,avaxhome.ws,,"9780761960645,0761960643",,,,,,,,,OL22734029M,22206,0,,,,,,,T,1709664,pdf,29BA5BB33961F4D5BC366998AF87558B,,,Y. dl_avaxhome 22206  _=aa14.pdf,0,2000-01-01 01:00:00,2016-04-03 02:51:08,261000/29ba5bb33961f4d5bc366998af87558b-d.jpg,,
5698774,British Fascism and the Labour Movement,,,,"Nigel Copsey, Dave Renton",2005,,Palgrave Macmillan,,219,0,English,История,avaxhome.ws,,"9781403939166,1403939160",,,,,335.6/0941/0904,DA566.7 .B665 2005,,,OL22622804M,22498,0,,,,,,,T,5610051,pdf,295D0913397AE7AD23421AB4E52EAB3F,,,Y. dl_avaxhome 22498  _=nn11.pdf,0,2000-01-01 01:00:00,2016-04-03 02:51:08,261000/295d0913397ae7ad23421ab4e52eab3f-d.jpg,,
5698772,Photography: The Art of Composition,,,,Bert Krages,2005,,Allworth Press,,257,0,English,Искусство//Фотография,avaxhome.ws,,"1581154097,9781581154092,9781581155839",,,,,,,,,OL8782554M,19466,0,,,,,1,,T,14541674,pdf,290C5D718D54F6F42B527E8D1401055D,,,Y. dl_avaxhome 19466  _=1581154097.pdf,0,2000-01-01 01:00:00,2016-04-03 02:51:08,261000/290c5d718d54f6f42b527e8d1401055d-d.jpg,,
5698773,"Diary of a Real Estate Rookie: My Year of Flipping, Selling, and Rebuilding ? and What I Learned",,The Hard Way,,Alison Rogers,2007,Original,Kaplan Publishing,,225,0,English,Образование,avaxhome.ws,,"9781427754653,1427754659",,,,,,,,,OL8537175M,17705,0,,,,,,,T,6446134,pdf,2934CCA9C5EE614EB6D6653C8B66896F,,,Y. dl_avaxhome 17705  _=d14.pdf,0,2000-01-01 01:00:00,2016-04-03 02:51:08,261000/2934cca9c5ee614eb6d6653c8b66896f-d.jpg,,
5698770,Salivary Diagnostics,,,,David Wong,2008,1,Wiley-Blackwell,,320,0,English,Медицина,avaxhome.ws,,"9780813813332,0813813336",,,,,616.3/16075,RB52.5 .S25 2008,,,OL16909938M,16860,0,,,,,,,T,6498839,pdf,28D311799EB5AD913B806D61C792F54E,,,Y. dl_avaxhome 16860  _=Salivary_Diagnostics.pdf,0,2000-01-01 01:00:00,2016-04-03 02:51:08,261000/28d311799eb5ad913b806d61c792f54e-d.jpg,,
5698771,Perspectives in Receptor Research,,Pharmacochemistry Library Volume 24,,"Dario Giardina, Alessandro Piergentili, Maria Pigini, H. Timmerman",1996,,Elsevier Science,,423,0,English,Медицина,avaxhome.ws,,"9780444822048,0444822046",,,,,615/.7,RM301.41 .C36 1995,,,OL979899M,17115,0,,,,,,,T,22989752,pdf,28DAE65B061B8CD6678BF7F726604260,,,Y. dl_avaxhome 17115  _=0444822046.pdf,0,2000-01-01 01:00:00,2016-04-03 02:51:08,261000/28dae65b061b8cd6678bf7f726604260-d.jpg,,
5698769,How to Run a Successful Pub,,,,Mark S. Elliott,2007,,How To Books Ltd,,366,0,English,Образование,avaxhome.ws,,"9781845281267,1845281268",,,,,,,,,,17717,0,,,,,,,T,26999373,pdf,28B67C229C5EC821165B8A46E05B60B8,,,Y. dl_avaxhome 17717  _=d01.pdf,0,2000-01-01 01:00:00,2016-04-03 02:51:08,261000/28b67c229c5ec821165b8a46e05b60b8-d.jpg,,
5698767,Dictionary of Symbols,,,,J. C. Cirlot,1990,New ed of 2 Revised ed,Routledge,,507,0,English,Языкознание//Словари,avaxhome.ws,,"0415036496,9780415036498,9780203133750,0203133757,0203189280",,,,,,,,,OL22010372M,23645,0,,,,,1,,T,6287752,pdf,278D6EC6D122B0BB38625C5FBF9A6368,,,Y. dl_avaxhome 23645  _=Sym.pdf,0,2000-01-01 01:00:00,2016-04-03 02:51:08,261000/278d6ec6d122b0bb38625c5fbf9a6368-d.jpg,,
5698768,Money for Minors: A Student's Guide to Economics,,,,Marie Bussing-Burks,2008,,Greenwood,,203,0,English,Экономика,avaxhome.ws,,"9780313347573,0313347573",,,,,330,HB171.5 .B974 2008,,,OL16488830M,21595,0,,,,,,,T,3391314,pdf,27F462F8B6383D1804058905CD5F548E,,,Y. dl_avaxhome 21595  _=money_for_minors.pdf,0,2000-01-01 01:00:00,2016-04-03 02:51:08,261000/27f462f8b6383d1804058905cd5f548e-d.jpg,,
5698766,200 Perplexing Chess Puzzles,,,,Martin Greif,1997,,Sterling Pub Co Inc,,72,0,English,"Домоводство, досуг//Игры//Шахматы",avaxhome.ws,,"9780806997278,0806997273",,,,,794.1,GV1451 .A168 1997,,,OL672058M,21166,0,,,,,,,,7123609,pdf,276FF61AB3E50FFEAE9FDAE8C6EBC186,,,Y. dl_avaxhome 21166  _=ChessPuzz.pdf,0,2000-01-01 01:00:00,2016-04-03 02:51:08,261000/276ff61ab3e50ffeae9fdae8c6ebc186-d.jpg,,
5698764,Anne Hooper's Kama Sutra,,,,Anne Hooper,1998,1,DK ADULT,,123,0,English,"Домоводство, досуг",avaxhome.ws,,"9781564586490,1564586499",,,,,306.7,HQ31 .H744 1994,,,OL1097233M,21537,0,,,,,,,,13449108,pdf,26A5D8EAEE428A3CF8A7F754C9C6F23D,,,Y. dl_avaxhome 21537  _=KaSu.pdf,0,2000-01-01 01:00:00,2016-04-03 02:51:08,261000/26a5d8eaee428a3cf8a7f754c9c6f23d-d.gif,,
5698765,Solutions Manual for Elements of Design Analysis in Rock Mechanics,,,,W. G. Pariseau,2007,,A A Balkema,,369,0,English,Физика,avaxhome.ws,,"9780203932506,0203932501",,,,,624.1/5132076,TA712 .P29 2007,,,OL16395234M,19905,0,,,,,,,T,6861014,pdf,26BFEE88990D95EFA4919DBCB2AEDC11,,,Y. dl_avaxhome 19905  _=yy28.pdf,0,2000-01-01 01:00:00,2016-04-03 02:51:08,261000/26bfee88990d95efa4919dbcb2aedc11-g.jpg,,
5698762,Making Sense of Japanese: What the Textbooks Don't Tell You,,Power Japanese Series - Kodansha's Children's Classics,,Jay Rubin,2002,,Kodansha International,,68,0,English,Языкознание,avaxhome.ws,,"4770028024,9784770028020",,,,,,,,,OL9037441M,22350,0,,,,,1,,,5599845,pdf,25D6F2A8112C6DD029C40F4F4D5182B7,,,Y. dl_avaxhome 22350  _=MakingSenseJapanese.pdf,0,2000-01-01 01:00:00,2016-04-03 02:51:08,261000/25d6f2a8112c6dd029c40f4f4d5182b7-d.jpg,,
5698763,"101 Workouts: Build Muscle, Lose Fat & Reach Your Fitness Goals Faster",,,,Muscle & Fitness Magazine,2008,,Triumph Books,,147,0,English,Физкультура и спорт,avaxhome.ws,,"9781600780240,1600780245",,,,,,,,,OL12505258M,24501,0,,,,,,,T,13632402,pdf,260045CEC287C87E1750DE8B029176C0,,,Y. dl_avaxhome 24501  _=Muscle._.Fitness.101.Workouts.pdf,0,2000-01-01 01:00:00,2016-04-03 02:51:08,261000/260045cec287c87e1750de8b029176c0-d.jpg,,
5698761,"The Decline of Latin American Economies: Growth, Institutions, and Crises",,National Bureau of Economic Research Conference Report,,"Sebastian Edwards, Gerardo Esquivel, Graciela Marquez",2007,,University Of Chicago Press,,427,0,English,Экономика,avaxhome.ws,,"9780226185002,0226185001",,,,,,,,,OL10191781M,19018,0,,,,,,,,3347590,pdf,259A3D28720687863E626E35577A06DE,,,Y. dl_avaxhome 19018  _=53.pdf,0,2000-01-01 01:00:00,2016-04-03 02:51:08,261000/259a3d28720687863e626e35577a06de-d.jpg,,
5698758,The Edgier Waters: Five Years of 3am,,,,A. Stevens,2006,UK open market ed,Snowbooks Ltd,,384,0,English,Литература//Поэзия,avaxhome.ws,,"1905005202,9781905005208,9781429419529",,,,,,,,,OL24291677M,22392,0,,,,,,,T,1393063,pdf,24523DA2E540A53AB547785BA3507A23,,,Y. dl_avaxhome 22392  _=1905005202.pdf,0,2000-01-01 01:00:00,2016-04-03 02:51:08,261000/24523da2e540a53ab547785ba3507a23-d.jpg,,
5698759,Great Sex Guide,,,,Anne Hooper,1999,,Dorling Kindersley Publishers Ltd,,122,0,English,"Психология//Любовь, эротика",avaxhome.ws,,"9780751307047,0751307041",,,,,,,,,OL9472991M,21503,0,,,,,,,,27597166,pdf,247F896B8E6E88A6CFF19C9F076AADDC,,,Y. dl_avaxhome 21503  _=Great_Sex_Guide.pdf,0,2000-01-01 01:00:00,2016-04-03 02:51:08,261000/247f896b8e6e88a6cff19c9f076aaddc-d.jpg,,
5698760,Reichel's Care of the Elderly: Clinical Aspects of Aging,,,,"Christine Arenson, Jan Busby-Whitehead, Kenneth Brummel-Smith, James G. O'Brien, Mary H. Palmer, William Reichel",2009,6th,Cambridge University Press,,657,0,English,История,avaxhome.ws,,"0521869293,9780521869294,9780511508349",,,,,618.97,RC952 .C53 2009,,,OL16886848M,16829,0,,,,,1,,,8949018,pdf,24EF4D6D82873D32CAB81BBCE1756215,,,Y. dl_avaxhome 16829  _=Reichel_s_Care_of_the_Elderly-Clinical_Aspects_of_Aging_6th_Edition.pdf,0,2000-01-01 01:00:00,2016-04-03 02:51:08,261000/24ef4d6d82873d32cab81bbce1756215-d.jpg,,
5698756,"Newnes Radio and RF Engineering Pocket Book, ",,Newnes Pocket Books,,"Steve Winder, Joseph Carr",2002,3,Newnes,,355,0,English,Техника,avaxhome.ws,,"9780750656085,0750656085",,,,,,,,,OL7972395M,24563,0,,,,,,,T,2253587,pdf,23C9F3707F41120D6162BBB7064669DD,,,Y. dl_avaxhome 24563  _=E.pdf,0,2000-01-01 01:00:00,2016-04-03 02:51:08,261000/23c9f3707f41120d6162bbb7064669dd-d.jpg,,
5698757,The Art of Jon Hul,,,,Katy Gardner,2004,,Infinity Verlag,,94,0,English,Искусство,avaxhome.ws,,"9783931670429,3931670422",,,,,,,,,,19785,0,,,,,,,,16659236,pdf,23DD6FE344DF8E6CBCB16EEE703ED48C,,,Y. dl_avaxhome 19785  _=jh1pnutex2itrta.pdf,0,2000-01-01 01:00:00,2016-04-03 02:51:08,261000/23dd6fe344df8e6cbcb16eee703ed48c-g.jpg,,
5698755,Color and Money: How Rich White Kids Are Winning the War over College Affirmative Action,,,,Peter G. Schmidt,2007,,Palgrave Macmillan,,273,0,English,Наука (общее)//Научно-популярное,avaxhome.ws,,"9781403976017,1403976015",,,,,379.2/6,LC213.52 .S35 2007,,,OL22525461M,19909,0,,,,,,,T,5724558,pdf,2383AFA3C862D2C264791C62D4788EE8,,,Y. dl_avaxhome 19909  _=yy24.pdf,0,2000-01-01 01:00:00,2016-04-03 02:51:08,261000/2383afa3c862d2c264791c62d4788ee8-d.jpg,,
5698753,Topology from the Differentiable Viewpoint,,,,John Willard Milnor,1988,,University of Virginia Press,,76,0,English,Математика//Геометрия и топология,avaxhome.ws,,"0813901812,9780813901817",,,,,,,,,OL16754690M,22555,0,,,,0,0,,1,1654184,pdf,22E289C3FD1879FF0869418614E5CE86,,,Y. dl_avaxhome 22555  _=milnor_topology_from_the_differentiable_viewpoint.pdf,0,2000-01-01 01:00:00,2016-04-03 02:51:08,261000/22e289c3fd1879ff0869418614e5ce86-g.jpg,,
5698754,Focus on Fathering,,,,Robin Sullivan,2004,,Acer Press,,246,0,English,"Домоводство, досуг",avaxhome.ws,,"9780864314659,0864314655",,,,,,,,,,22478,0,,,,,,,T,5796747,pdf,22F1ECEBCC7AECB3408D02B098C23072,,,Y. dl_avaxhome 22478  _=nn30.pdf,0,2000-01-01 01:00:00,2016-04-03 02:51:08,261000/22f1ecebcc7aecb3408d02b098c23072-d.jpg,,
5698751,Value Chain Management in the Chemical Industry: Global Value Chain Planning of Commodities,,Contributions to Management Science,,Matthias Kannegiesser,2008,1,Physica-Verlag HD,,279,0,English,Химия,avaxhome.ws,,"9783790820317,3790820318",,,,,,,,,,17838,0,,,,,,,1,4582815,pdf,21F0E427B7CEFA04F80F56B7CB17BC03,,,Y. dl_avaxhome 17838  _=ValChainMan.pdf,0,2000-01-01 01:00:00,2016-04-03 02:51:08,261000/21f0e427b7cefa04f80f56b7cb17bc03-d.jpg,,
5698752,Steam Turbines for Modern Fossil-Fuel Power Plants,,,,A. Sh Leizerovich,2007,,Fairmont Press,,550,0,English,Биология//Растения//Ботаника,avaxhome.ws,,"9780881735482,0881735485",,,,,621.31/3,TJ735 .L395 2007,,,OL11224645M,18896,0,,,,,,,T,14227666,pdf,2241C8BE110F817B758E8773CCA2C8FE,,,Y. dl_avaxhome 18896  _=a12.pdf,0,2000-01-01 01:00:00,2016-04-03 02:51:08,261000/2241c8be110f817b758e8773cca2c8fe-g.jpg,,
5698749,How to Buy And Let a Holiday Cottage,,,,Allison Lee,2006,,How to Books,,241,0,English,Образование,avaxhome.ws,,"9781845281229,1845281225",,,,,,,,,OL8958609M,17397,0,,,,,,,T,18626851,pdf,2164A6C526C803C0CE7BA816A69AF4A1,,,Y. dl_avaxhome 17397  _=e06.pdf,0,2000-01-01 01:00:00,2016-04-03 02:51:08,261000/2164a6c526c803c0ce7ba816a69af4a1-d.jpg,,
5698750,Sayings of the Buddha: New Translations from the Pali Nikayas,,Oxford World's Classics,,Rupert Gethin,2008,,"Oxford University Press, USA",,364,0,English,Религия,avaxhome.ws,,"019283925X,9780192839251",,,,,294.3/823,BQ1192.E53 G48 2008,,,OL16818668M,17094,0,,,,,,,T,4987529,pdf,2180AADD830C1459121C800D16E60E5E,,,Y. dl_avaxhome 17094  _=Sayings_of_the_Buddha.pdf,0,2000-01-01 01:00:00,2016-04-03 02:51:08,261000/2180aadd830c1459121c800d16e60e5e-d.jpg,,
5698748,Derrida and the Political,,Thinking the Political,,Richard Beardsworth,1996,1,Routledge,,189,0,English,Общественные науки прочие//Философия,avaxhome.ws,,"9780415109666,0415109663",,,,,320,JC261.D44 B43 1996,,,OL793978M,19878,0,,,,,,,T,12558148,pdf,21619CD0577ABAC0F2D640CB207B8F0A,,,Y. dl_avaxhome 19878  _=0415109663.pdf,0,2000-01-01 01:00:00,2016-04-03 02:51:08,261000/21619cd0577abac0f2d640cb207b8f0a-d.jpg,,
5698747,Marketing,,SAGE Course Companions,,Mr Jim Blythe,2006,,Sage Publications Ltd,,191,0,English,Бизнес,avaxhome.ws,,"9781412910330,1412910331",,,,,,,,,OL8433225M,17692,0,,,,,,,T,5266665,pdf,20B767835A8F27369EFEE4ECB9F1FD01,,,Y. dl_avaxhome 17692  _=d30.pdf,0,2000-01-01 01:00:00,2016-04-03 02:51:08,261000/20b767835a8f27369efee4ecb9f1fd01-d.jpg,,
5698745,Life Care Planning and Case Management Handbook,,,,Roger O. Weed,2004,2,CRC Press,,873,0,English,,avaxhome.ws,,"9780849315114,0849315115",,,,,,,,,OL18214305M,20566,0,,,,,,,,11150861,pdf,207D10D4B6556290F248F45919840872,,,Y. dl_avaxhome 20566  _=LifeCarPlan.pdf,0,2000-01-01 01:00:00,2016-04-03 02:51:08,261000/207d10d4b6556290f248f45919840872-d.jpg,,
5698746,"Information Communication Technologies: Concepts, Methodologies, Tools, and Applications",,,,"Craig Van Slyke, Craig Van Slyke",2008,illustrated edition,Information Science Reference,,3937,0,English,Техника//Электроника//Телекоммуникации,avaxhome.ws,,"9781599049496,159904949X",,,,,303.48/33,HM851 .I5315 2008,,,OL18017936M,23490,0,,,,,,,,33654519,pdf,20807ECD1ED1DB3D29F3569CC76795A7,,,Y. dl_avaxhome 23490  _=InCoTe.pdf,0,2000-01-01 01:00:00,2016-04-03 02:51:08,261000/20807ecd1ed1db3d29f3569cc76795a7-d.jpg,,
5698743,Binge: What Your College Student Won't Tell You,,,,Barrett Seaman,2005,,Wiley,,322,0,English,Психология,avaxhome.ws,,"0471491195,9780471491194,9780471738152",,,,,378.1/98/0973,LB3605 .S382 2005,,,OL24272214M,18083,0,,,,,1,,T,1700904,pdf,20421A052A2D216A9726E11D9226BA9D,,,Y. dl_avaxhome 18083  _=0471491195.pdf,0,2000-01-01 01:00:00,2016-04-03 02:51:08,261000/20421a052a2d216a9726e11d9226ba9d-d.jpg,,
5698744,CIA Explosives For Sabotage Manual,,,,CIA,1987,illustrated edition,Paladin Press,,70,0,English,Химия//Пиротехника и взрывчатые вещества,avaxhome.ws,,"9780873640367,0873640365",,,,,,,,,OL11117146M,22223,0,,,,,,,,3419516,pdf,205E041EE2566469648BE599A57B88E6,,,Y. dl_avaxhome 22223  _=CIA Explosives for Sabotage Manual.pdf,0,2000-01-01 01:00:00,2016-04-03 02:51:08,261000/205e041ee2566469648be599a57b88e6-d.jpg,,
5698741,Reintroduction of Top-Order Predators,,Conservation Science and Practice,,"Matt W. Hayward, Michael Somers",2009,,Wiley-Blackwell,,475,0,English,Биология,avaxhome.ws,,"1405176806,9781405176804",,,,,639.9/7,QL758 .R45 2009,,,OL22560661M,16972,0,,,,,1,,T,6274155,pdf,1F582A05A368D595E1D473BB435EC36D,,,Y. dl_avaxhome 16972  _=9781405176804_1.pdf,0,2000-01-01 01:00:00,2016-04-03 02:51:08,261000/1f582a05a368d595e1d473bb435ec36d-d.jpg,,
5698742,International Mathematical Olympiads 1959-2000,,,,,2001,1st,Academic Distribution Center,,190,0,English,Математика,avaxhome.ws,,"9780964095915,0964095912",,,,,,,,,OL11706498M,20517,0,,,,,,,,42962864,pdf,2012BA6542AF985D35FA77BD9C16DF9F,,,Y. dl_avaxhome 20517  _=International_Mathematical_Olympiads_1959-2000.pdf,0,2000-01-01 01:00:00,2016-04-03 02:51:08,261000/2012ba6542af985d35fa77bd9c16df9f-d.jpg,,
5698740,Culture and Everyday Life,,,,Andy Bennett,2005,,Sage Publications Ltd,,216,0,English,Общественные науки прочие,avaxhome.ws,,"9780761963905,0761963901",,,,,306.01,,,,OL22631654M,21486,0,,,,,,,T,8351421,pdf,1F4915B334DAE3DB678381BB0F93A1A4,,,Y. dl_avaxhome 21486  _=hh05.pdf,0,2000-01-01 01:00:00,2016-04-03 02:51:08,261000/1f4915b334dae3db678381bb0f93a1a4-d.jpg,,
5698738,Connecting With Students,,,,Allen N. Mendler,2001,,Association for Supervision & Curriculum Deve,,105,0,English,"Психология//Любовь, эротика",avaxhome.ws,,"9780871205735,0871205734",,,,,,,,,OL8346936M,22497,0,,,,,,,T,5769199,pdf,1F30CBF8B49A40FA16784216503FF11D,,,Y. dl_avaxhome 22497  _=nn12.pdf,0,2000-01-01 01:00:00,2016-04-03 02:51:08,261000/1f30cbf8b49a40fa16784216503ff11d-d.jpg,,
5698739,"Excuse Me, Your Life Is Waiting: The Astonishing Power of Feelings",,,,Lynn Grabhorn,2003,1st Trade Paper Ed,Hampton Roads Publishing,,312,0,English,"Психология//Любовь, эротика",avaxhome.ws,,"9781571743817,1571743812,0340834463,9780340834466,1571741941,9781571741943,9780585382357",,,,,158.1,BF698.35.O57 G73 2003,,,OL10676970M,19844,0,,,,,1,,,34267145,pdf,1F30D26A7B24B161A8FC775A7B8DB242,,,Y. dl_avaxhome 19844  _=Excuse_me_yl_is_waiting.pdf,0,2000-01-01 01:00:00,2016-04-03 02:51:08,261000/1f30d26a7b24b161a8fc775a7b8db242-d.jpg,,
5698736,"Making Babies, Making Families: What Matters Most in an Age of Reproductive Technologies, Surrogacy, Adoption, and Same-Sex and Unwed Parents' RIghts",,,,Mary L. Shanley,2002,1,Beacon Press,,219,0,English,"Домоводство, досуг",avaxhome.ws,,"9780807044094,0807044091",,,,,,,,,OL7944801M,20829,0,,,,,,,T,2179516,pdf,1F0CE8199A6EB6ED8811D0F46F49F1C4,,,Y. dl_avaxhome 20829  _=MakingBabies_MakingFamilies.pdf,0,2000-01-01 01:00:00,2016-04-03 02:51:08,261000/1f0ce8199a6eb6ed8811d0f46f49f1c4-d.jpg,,
5698737,Emma,,Norton Critical Editions,,"Jane Austen, Stephen M. Parrish",1999,3rd,W. W. Norton & Company,,465,0,English,Литература//Проза,avaxhome.ws,,"0393972844,9780393972849",,,,,823/.7,PR4034 .E5 2000,,,OL48004M,22519,0,,,,,,,,7220265,pdf,1F0D083B94E972D012BBBAFF2B978A7A,,,Y. dl_avaxhome 22519  _=Austen-ence.pdf,0,2000-01-01 01:00:00,2016-04-03 02:51:08,261000/1f0d083b94e972d012bbbaff2b978a7a-d.jpg,,
5698734,Dreamcatcher,,,,Stephen King,2001,1st,Scribner,,628,0,English,Литература//Проза,avaxhome.ws,,"9780743211383,0743211383",,,,,813/.54,PS3561.I483 D77 2001,,,OL23245363M,16953,0,,,,,,,T,3572154,pdf,1E2DB451EDCF7A12F1642C0A79E80100,,,Y. dl_avaxhome 16953  _=Dreamcather_by_Stephen_King.pdf,0,2000-01-01 01:00:00,2016-04-03 02:51:08,261000/1e2db451edcf7a12f1642c0a79e80100-d.jpg,,
5698735,David Busch's Quick Snap Guide To Lighting,,,,David D. Busch,2008,1,Course Technology PTR,,217,0,English,Образование,avaxhome.ws,,"9781598635485,1598635484",,,,,778.7/2,TR590 .B87 2009,,,OL23536230M,17605,0,,,,,,,,15440200,pdf,1E63F469D9D3CA278708E8DBEAAF0ECF,,,Y. dl_avaxhome 17605  _=Quick_Snap_Guide_To_Lighting.pdf,0,2000-01-01 01:00:00,2016-04-03 02:51:08,261000/1e63f469d9d3ca278708e8dbeaaf0ecf-d.jpg,,
5698732,"The Masterful Coaching Fieldbook: Grow Your Business, Multiply Your Profits, Win the Talent War!",,Essential Knowledge Resource,,Robert Hargrove,2007,2,Pfeiffer,,363,0,English,Бизнес,avaxhome.ws,,"9780787986025,078798602X",,,,,,,,,OL8149681M,22485,0,,,,,,,T,6340998,pdf,1D1735094A67DC53F3E4144A1A0BE3D9,,,Y. dl_avaxhome 22485  _=nn23.pdf,0,2000-01-01 01:00:00,2016-04-03 02:51:08,261000/1d1735094a67dc53f3e4144a1a0be3d9-d.jpg,,
5698733,Intelligence: A Brief History,,Blackwell Brief Histories of Psychology,,"Anna T. Cianciolo, Robert J. Sternberg",2004,1,Wiley-Blackwell,,181,0,English,История,avaxhome.ws,,"9781405108232,1405108231",,,,,,,,,OL8405059M,17555,0,,,,,,,T,712045,pdf,1E1B725B1721BB38A8E3165BBCDD8B07,,,Y. dl_avaxhome 17555  _=Intelligence A Brief History.pdf,0,2000-01-01 01:00:00,2016-04-03 02:51:08,261000/1e1b725b1721bb38a8e3165bbcdd8b07-d.jpg,,
5698731,Computational Flow Modeling for Chemical Reactor Engineering,Volume 5,Process Systems Engineering,,Vivek V. Ranade,2001,1st,Academic Press,,474,0,English,Математика//Вычислительная математика,avaxhome.ws,,"9780125769600,0125769601",,,,,,,,,OL18166210M,20950,0,,,,,,,T,9708114,pdf,1CDB39804119BA931B10F631095ACFFD,,,Y. dl_avaxhome 20950  _=academic.press_-_computational.flow.modeling.for.chemical.reactor.engineering.pdf,0,2000-01-01 01:00:00,2016-04-03 02:51:08,261000/1cdb39804119ba931b10f631095acffd-d.jpg,,
5698729,Vikram and the Vampire,,,,Sir Richard F. Burton,2008,,Book Jungle,,109,0,English,Литература//Проза,avaxhome.ws,,"9781605978451,1605978450",,,,,,,,,,19110,0,,,,,,,,276460,pdf,1CC98AE48249748A8BDADEDC31F58E47,,,Y. dl_avaxhome 19110  _=Vikram_and_the_Vampire.pdf,0,2000-01-01 01:00:00,2016-04-03 02:51:08,261000/1cc98ae48249748a8bdadedc31f58e47-d.jpg,,
5698730,Correlation and Causality,,,,David A. Kenny,1979,1St Edition,John Wiley & Sons Inc,,80,0,English,Физика,avaxhome.ws,,"9780471024392,0471024392",,,,,300/.1/82,HA29 .K429,,,OL4403389M,20126,0,,,,,,,,747452,pdf,1CD86B20B2CA5952A66F89F7B8D83B7C,,,20126 =737.pdf,0,2000-01-01 01:00:00,2016-04-03 02:51:08,261000/1cd86b20b2ca5952a66f89f7b8d83b7c-g.jpg,,
5698727,Freshwater Aquarium Models: Recipes for Creating Beautiful Aquariums That Thrive,,,,John H. Tullock,2006,1,Howell Book House,,307,0,English,"Религия//Эзотерика, мистика",avaxhome.ws,,"9780470044254,047004425X",,,,,,,,,OL7595157M,19028,0,,,,,,,,6171032,pdf,1CAC952ABDFB1A0D14723884B648826B,,,Y. dl_avaxhome 19028  _=FreAqModels.pdf,0,2000-01-01 01:00:00,2016-04-03 02:51:08,261000/1cac952abdfb1a0d14723884b648826b-d.jpg,,
5698728,"Active Infective Aortic Valve Endocarditis with Infection Extension: Clinical Features, Perioperative Echocardiographic Findings and Results of Surgical ... in der Herz-, Thorax- und GefГ¤Гџchirurgie)",,,,Henryk Siniawski,2006,1,Steinkopff,,70,0,English,Медицина//Клиническая медицина,avaxhome.ws,,"9783798515215,9783798516298,3798515212",,,,,,,,,OL8936602M,20626,0,,,,,1,,T,2981362,pdf,1CAE84E89D7FCB52A13F4A9EF5086CCA,,,Y. dl_avaxhome 20626  _=Endocarditis.pdf,0,2000-01-01 01:00:00,2016-04-03 02:51:08,261000/1cae84e89d7fcb52a13f4a9ef5086cca-d.jpg,,
5698726,"Forts Of The United States: A Historical Dictionary, 16th Through 19th Centuries",,,,Bud Hannings,2006,,McFarland & Company,,745,0,English,История,avaxhome.ws,,"9780786417964,078641796X",,,,,355.70973,UG410 .H36 2005,,,OL3410328M,16824,0,,,,,,,,13509397,pdf,1C78F3F837D73BB4E8A287F71C210588,,,Y. dl_avaxhome 16824  _=Forts_Of_The_United_States-A_Historical_Dictionary_16th_Through_19th_Centuries.pdf,0,2000-01-01 01:00:00,2016-04-03 02:51:08,261000/1c78f3f837d73bb4e8a287f71c210588-d.jpg,,
5698724,Equations of State And Pvt Analysis,,,,Tarek Ahmed,2007,,Gulf Publishing Company,,562,0,English,Математика,avaxhome.ws,,"1933762039,9781933762036",,,,,,,,,OL8815167M,21327,0,,,,,1,,T,12821157,pdf,1B3B8B1AF8B2CC96702913EBE118A2D8,,,Y. dl_avaxhome 21327  _=EqStatPvtAn.pdf,0,2000-01-01 01:00:00,2016-04-03 02:51:08,261000/1b3b8b1af8b2cc96702913ebe118a2d8-d.jpg,,
5698725,"Building Outrigger Sailing Canoes: Modern Construction Methods for Three Fast, Beautiful Boats",,,,Gary Dierking,2007,1,International Marine/Ragged Mountain Press,,185,0,English,Техника//Транспорт//Корабли,avaxhome.ws,,"0071487913,9780071594561,9780071487917",,B0010Q2K60,,,623.822/3,VM353 .D53 2007,,,OL17990513M,20155,0,,,,,,,T,11905766,pdf,1B602822F534139CF9D3A1C4510921D4,,,Y. dl_avaxhome 20155  _=BuildingCanoes.pdf,0,2000-01-01 01:00:00,2016-04-03 02:51:08,261000/1b602822f534139cf9d3a1c4510921d4-d.jpg,,
5698723,Creating a World Without Poverty: Social Business and the Future of Capitalism,,,,Muhammad Yunus,2008,First Edition,PublicAffairs,,297,0,English,Бизнес,avaxhome.ws,,"1586484931,9781586484934",,,,,,,,,OL17249547M,19984,0,,,,,,,T,4863813,pdf,1AC69F63CACEA8E073F89653873C1832,,,Y. dl_avaxhome 19984  _=Yunus-cawwp.pdf,0,2000-01-01 01:00:00,2016-04-03 02:51:08,261000/1ac69f63cacea8e073f89653873c1832-d.jpg,,
5698722,Europe For Dummies,,,,"Donald Olson, Liz Albertson, Cheryl A. Pientka, George McDonald, Darwin Porter, Danforth Prince, Hana Mastrini, Bruce Murphy, Alessandra de Rosa, Neil Edward Schlecht, Tania Kollias",2009,5,For Dummies,,652,0,English,География,avaxhome.ws,,"9780470345450,0470345454",,,,,,,,,,19765,0,,,,,,,,12849732,pdf,1A8F93CDB166D5A5AEB17F195BCD7527,,,Y. dl_avaxhome 19765  _=0470345454.pdf,0,2000-01-01 01:00:00,2016-04-03 02:51:08,261000/1a8f93cdb166d5a5aeb17f195bcd7527-d.jpg,,
5698721,Magic Time: Angelfire,,,,"Marc Zicree, Maya Kaathryn Bohnhoff",2003,First Edition,Eos,,418,0,English,Искусство,avaxhome.ws,,"0061059587,9780061059582,9780061151019",,,,,,,,,OL24301564M,16783,0,,,,,1,,T,2023885,pdf,1A89B92D682D9A32D8C1D78409C27847,,,Y. dl_avaxhome 16783  _=0061059587.pdf,0,2000-01-01 01:00:00,2016-04-03 02:51:08,261000/1a89b92d682d9a32d8c1d78409c27847-d.jpg,,
5698720,Environmental Microbiology: From Genomes to Biogeochemistry,,,,Eugene L. Madsen,2008,,Wiley-Blackwell,,490,0,English,Биология,avaxhome.ws,,"1405136472,9781405136471",,,,,579/.17,QR100 .M33 2008,,,OL11650195M,17192,0,,,,,,,1,16361912,pdf,1A41F1B02242D3DA202104BB78476C98,,,Y. dl_avaxhome 17192  _=1405136472.pdf,0,2000-01-01 01:00:00,2016-04-03 02:51:08,261000/1a41f1b02242d3da202104bb78476c98-d.jpg,,
5698719,Teaching and Training in Post-compulsory Education,,,,"Andy Armitage, Robin Bryant, Richard Dunnill, Karen Flanagan, Dennis Hayes, Alan Hudson, Janis Kent, Shirley Lawes, Mandy Renwick",2007,3,Open University Press,,306,0,English,Образование,avaxhome.ws,,"0335222676,9780335222674,9780335235049",,,,,,,,,,22205,0,,,,,1,,T,1952208,pdf,1A28F2A673A68274FBE85162F76D72A1,,,Y. dl_avaxhome 22205  _=aa15.pdf,0,2000-01-01 01:00:00,2016-04-03 02:51:08,261000/1a28f2a673a68274fbe85162f76d72a1-d.jpg,,
5698718,Antithetical Arts: On the Ancient Quarrel Between Literature and Music,,,,Peter Kivy,2009,,"Oxford University Press, USA",,288,0,English,История,avaxhome.ws,,"9780199562800,0199562806",,,,,780/.08,ML3849 .K57 2009,,,OL22672365M,16867,0,,,,,,,T,3119283,pdf,1A11C30CB665A396B75D597560AE7E6A,,,Y. dl_avaxhome 16867  _=kivy.pdf,0,2000-01-01 01:00:00,2016-04-03 02:51:08,261000/1a11c30cb665a396b75d597560ae7e6a-d.jpg,,
5698717,My Secret Garden,,,,Nancy Friday,2008,,Pocket,,359,0,English,"Психология//Любовь, эротика",avaxhome.ws,,"9781416567011,1416567011",,,,,306.77082,HQ29 .F74 2008,,,OL11758368M,24216,0,,,,,,,T,855414,pdf,19FC1CBD031410DE4EA4701285B55B87,,,Y. dl_avaxhome 24216  _=Nancy Friday - My Secret Garden (WomenS Sexual Fantasies).pdf,0,2000-01-01 01:00:00,2016-04-03 02:51:08,261000/19fc1cbd031410de4ea4701285b55b87-d.jpg,,
5698716,Masking and Power: Carnival and Popular Culture in the Caribbean,,,,Gerard Aching,2002,,University of Minnesota Press,,191,0,English,Языкознание,avaxhome.ws,,"9780816640171,0816640173",,,,,,,,,OL8070656M,24628,0,,,,,,,T,6124286,pdf,19D02F77A068CBF87C3103E0543C35B0,,,Y. dl_avaxhome 24628  _=dd25.pdf,0,2000-01-01 01:00:00,2016-04-03 02:51:08,261000/19d02f77a068cbf87c3103e0543c35b0-d.jpg,,
5698715,"Steels: Processing, Structure, And Performance",,,,George Krauss,2005,,ASM International,,583,0,English,Техника,avaxhome.ws,,"9780871708175,0871708175",,,,,,,,,OL8349540M,21596,0,,,,,,,,13700621,pdf,19AD1D50404978711C2F8ABDC9917B92,,,Y. dl_avaxhome 21596  _=Steels_Processing_Structure_and_Performance.pdf,0,2000-01-01 01:00:00,2016-04-03 02:51:08,261000/19ad1d50404978711c2f8abdc9917b92-d.jpg,,
5698714,Restoration and Eighteenth-Century Comedy,,Norton Critical Editions,,Scott McMillin,1997,Second Edition,W. W. Norton & Company,,646,0,English,Литература//Проза,avaxhome.ws,,"0393963349,9780393963342",,,,,822/.0523,PR1248 .M3 1997,,,OL808207M,22466,0,,,,,,,1,10111230,pdf,192CD6F3A9CA20F45E9B5F545DE13287,,,Y. dl_avaxhome 22466  _=McMillin-raeccnce.pdf,0,2000-01-01 01:00:00,2016-04-03 02:51:08,261000/192cd6f3a9ca20f45e9b5f545de13287-d.jpg,,
5698713,Keith Parkinson.,,,,Lydia L. Dewiel,2004,,Infinity Verlag,,138,0,German,Искусство,avaxhome.ws,,"9783931670580,3931670589",,,,,,,,,,19768,0,,,,,,,,13145748,pdf,1910CF3EE1A129C4E7D8DDAB5BF969A7,,,Y. dl_avaxhome 19768  _=kghptens8fnatisaryr.pdf,0,2000-01-01 01:00:00,2016-04-03 02:51:08,261000/1910cf3ee1a129c4e7d8ddab5bf969a7-d.jpg,,
5698712,Working the American Way,,,,Robert Day,2005,,How to Books,,224,0,English,Бизнес,avaxhome.ws,,"9781857039849,185703984X",,,,,,,,,OL12007859M,17701,0,,,,,,,T,10663911,pdf,1845009E8796A5389F677489BDD6E6E3,,,Y. dl_avaxhome 17701  _=d19.pdf,0,2000-01-01 01:00:00,2016-04-03 02:51:08,261000/1845009e8796a5389f677489bdd6e6e3-d.jpg,,
5698711,Magic in Ancient Egypt,,,,Geraldine Pinch,1994,2nd,British Museum Press,,189,0,English,История,avaxhome.ws,,"9780714119366,0714119369",,,,,,,,,,24594,0,,,,,,,1,5676615,pdf,181D357038C7A0302EBE2308D68C29A1,,,Y. dl_avaxhome 24594  _=MagAnEg.pdf,0,2000-01-01 01:00:00,2016-04-03 02:51:08,261000/181d357038c7a0302ebe2308d68c29a1-d.jpg,,
5698710,Ancient Greek Democracy: Readings and Sources,,Interpreting Ancient History,,Eric W. Robinson,2004,illustrated edition,Wiley-Blackwell,,342,0,English,История,avaxhome.ws,,"0631233938,9780631233930,9780470752197",,,,,320.938/5/09014,JC75.D36 A43 2004,,,OL18889074M,21115,0,,,,,,,1,24622374,pdf,17E5D38CD971954410A7F6F5DA22DE3F,,,Y. dl_avaxhome 21115  _=AnGreekDem.pdf,0,2000-01-01 01:00:00,2016-04-03 02:51:08,261000/17e5d38cd971954410a7f6f5da22de3f-d.jpg,,
5698709,How the Mind Works,,,,Steven Pinker,1997,First Edition,W. W. Norton & Company,,672,0,English,Общественные науки прочие//Философия,avaxhome.ws,,"9780393045352,0393045358",,,,,153,QP360.5 .P56 1997,,,OL24747142M,19501,0,,,,,,,T,5650623,pdf,1797D7512B12CF932C4D402B9F44CE78,,,Y. dl_avaxhome 19501  _=How_the_Mind_Works.pdf,0,2000-01-01 01:00:00,2016-04-03 02:51:08,261000/1797d7512b12cf932c4d402b9f44ce78-d.jpg,,
5698708,"Dynamics of Crustal Magma Transfer, Storage and Differentiation",,Geological Society Special Publication no 304,,"C. Annen, G. Zellmer, C. Annen, G. Zellmer",2008,,Geological Society of London,,287,0,English,,avaxhome.ws,,"9781862392588,1862392587",,,,,551.13,QE461 .D96 2008,,,OL23231389M,19169,0,,,,,,,,8907001,pdf,16A028D33B7560319FC8A089252839CA,,,Y. dl_avaxhome 19169  _=culilmgnmaynmcsi.pdf,0,2000-01-01 01:00:00,2016-04-03 02:51:08,261000/16a028d33b7560319fc8a089252839ca-d.jpg,,
5698707,Careers for Film Buffs & Other Hollywood Types,,,,Jaq Greenspon,2003,2,McGraw-Hill,,169,0,English,Бизнес,avaxhome.ws,,"9780071405744,0071405747",,,,,791.43/02/93,PN1995.9.P75 G68 2003,,,OL3578884M,22989,0,,,,,,,T,735134,pdf,168ABB0043821FA0F07E9991D6C59F6F,,,Y. dl_avaxhome 22989  _=0071405747.pdf,0,2000-01-01 01:00:00,2016-04-03 02:51:08,261000/168abb0043821fa0f07e9991d6c59f6f-d.jpg,,
5698706,The Slave's Narrative,,,,"Charles T. Davis, Henry Louis Gates Jr.",1991,,"Oxford University Press, USA",,385,0,English,Психология,avaxhome.ws,,"9780195066562,0195066561",,,,,,,,,OL18190224M,18237,0,,,,,,,,29019973,pdf,164B2B2C99F8B9E6032B0432806E25B5,,,Y. dl_avaxhome 18237  _=0195066561.pdf,0,2000-01-01 01:00:00,2016-04-03 02:51:08,261000/164b2b2c99f8b9e6032b0432806e25b5-d.jpg,,
5698705,Dictionary of Information Technology,,,,"S. M. H. Collin, P. H. Collin, M.H. Collin.",2001,3 Sub,Independent Publishers Group,,602,0,English,Языкознание//Словари,avaxhome.ws,,"9781901659559,1901659550",,,,,004/.03,QA76.15 .C58 2002,,,OL3344831M,17823,0,,,,,,,T,3049317,pdf,162C8B1D2F43A102C58F1F3EF066B741,,,Y. dl_avaxhome 17823  _=DICTIONARY_of_Information_Technology__Third_Edition.pdf,0,2000-01-01 01:00:00,2016-04-03 02:51:08,261000/162c8b1d2f43a102c58f1f3ef066b741-d.jpg,,
5698703,Comparative Studies in the Archaeology of Colonialism,,British Archaeological Reports (BAR),,Stephen L. Dyson,1985,,British Archaeological Reports,,187,0,English,История,avaxhome.ws,,"9780860543022,0860543021",,,,,970.01,CC77.H5 C65 1985,,,OL2650840M,20407,0,,,,,,,,22434060,pdf,15EC79F10B7D5DC9C833F044A3F32987,,,Y. dl_avaxhome 20407  _=comp0860543021.pdf,0,2000-01-01 01:00:00,2016-04-03 02:51:08,261000/15ec79f10b7d5dc9c833f044a3f32987-g.jpg,,
5698704,"Specters of Marx: The State of the Debt, The Work of Mourning & the New International",,Routledge Classics,,Jacques Derrida,2006,1,Routledge,,276,0,English,Общественные науки прочие//Философия,avaxhome.ws,,"0415389577,9780415389570",,,,,,,,,OL7494013M,18102,600,,,,1,1,,1,14195810,pdf,160611CC5466EC4C4D17B572A30F1605,,,Y. dl_avaxhome 18102  _=0415389577.pdf,0,2000-01-01 01:00:00,2016-04-03 02:51:08,261000/160611cc5466ec4c4d17b572a30f1605-d.jpg,,
5698701,Many Miles to Go: A Modern Parable for Business,,,,"Brian Tracy, Hrvey Mackay",2003,1,Entrepreneur Press,,325,0,English,Бизнес,avaxhome.ws,,"9781891984990,1891984993",,,,,,,,,OL8718161M,23791,0,,,,,,,T,5340885,pdf,15A3F0DA05657EFF62C945B033AFB3CD,,,Y. dl_avaxhome 23791  _=jj20.pdf,0,2000-01-01 01:00:00,2016-04-03 02:51:08,261000/15a3f0da05657eff62c945b033afb3cd-d.jpg,,
5698702,Aboriginal Suicide Is Different: A Portrait of Life And Self Destruction,,,,Colin Tatz,2005,2,Aboriginal Studies Press,,221,0,English,Психология,avaxhome.ws,,"9780855754983,0855754982",,,,,,,,,OL8301095M,22479,0,,,,,,,T,5483719,pdf,15B8C7A795DEFF5A2F6C83F13255B427,,,Y. dl_avaxhome 22479  _=nn29.pdf,0,2000-01-01 01:00:00,2016-04-03 02:51:08,261000/15b8c7a795deff5a2f6c83f13255b427-d.jpg,,
5698700,A Companion to Latin Literature,,Blackwell Companions to the Ancient World,,Stephen Harrison,2005,annotated edition,Wiley-Blackwell,,470,0,English,,avaxhome.ws,,"0631235299,9780631235293,9781405137379",,,,,870.9/001,PA6004 .C66 2005,,,OL22608905M,21884,0,,,,1,1,,T,2836112,pdf,157320D6924F3DE475D2E837A87AA264,,,Y. dl_avaxhome 21884  _=CLatiLiter.pdf,0,2000-01-01 01:00:00,2016-04-03 02:51:08,261000/157320d6924f3de475d2e837a87aa264-d.jpg,,
5698699,Organizational Knowledge and Technology: An Action-Oriented Perspective on Organization and Information Systems,,,,Rodrigo Magalhaes,2004,illustrated edition,Edward Elgar Publishing,,267,0,English,Бизнес,avaxhome.ws,,"9781843762829,184376282X,9781845420703",,,,,658.4/038/011,HD30.2 .M347 2004,,,OL11906684M,22275,0,,,,,1,,T,1484111,pdf,155DED79E7A2198B810005DBFAE2DD8B,,,Y. dl_avaxhome 22275  _=organizational_knowledge_and_technologyan_actionoriented_perspective_on_organization_and_information_systems.pdf,0,2000-01-01 01:00:00,2016-04-03 02:51:08,261000/155ded79e7a2198b810005dbfae2dd8b-d.jpg,,
5698697,Systems Analysis and Design (,,,,"Donald Yeates, Tony Wakefield",2004,2,Prentice Hall,,518,0,English,Математика//Анализ,avaxhome.ws,,"9780273655367,0273655361",,,,,,,,,OL9575331M,21023,0,,,,,,,T,9318076,pdf,1504200243F038B4C057878FD321B579,,,Y. dl_avaxhome 21023  _=Sy.Ana.pdf,0,2000-01-01 01:00:00,2016-04-03 02:51:08,261000/1504200243f038b4c057878fd321b579-d.jpg,,
5698698,"Better Balance, Better Business",,,,,,,"Learning Resources, Inc",,47,0,English,Бизнес,avaxhome.ws,,"9780778516064,0778516067",,,,,,,,,,18482,0,,,,,,,,1203407,pdf,1549112FCB4D9ACE863FDFF883ABC017,,,Y. dl_avaxhome 18482  _=73.pdf,0,2000-01-01 01:00:00,2016-04-03 02:51:08,261000/1549112fcb4d9ace863fdff883abc017-g.jpg,,
5698696,PC Magazine Guide to Digital Photography,,,,"Daniel Grotta, Sally Wiener Grotta",2004,,Wiley,,425,0,English,Photo_related,avaxhome.ws,,"9780764573729,0764573721",,,,,,,,,OL8051537M,17396,0,,,,,,,T,26043341,pdf,14CB33DDC8DC5F7E0FBDA1BFD1849A50,,,Y. dl_avaxhome 17396  _=e07.pdf,0,2000-01-01 01:00:00,2016-04-03 02:51:08,261000/14cb33ddc8dc5f7e0fbda1bfd1849a50-d.jpg,,
5698694,Real-Resumes for Medical Jobs,,Real-Resumes Series,,Anne McKinney,2001,1,Prep Publishing,,193,0,English,Медицина,avaxhome.ws,,"9781885288141,188528814X",,,,,,,,,OL8703529M,24941,0,,,,,,,T,5834981,pdf,13F3A0A88FA5C5B4455EBBF6FF57EBB9,,,Y. dl_avaxhome 24941  _=ee09.pdf,0,2000-01-01 01:00:00,2016-04-03 02:51:08,261000/13f3a0a88fa5c5b4455ebbf6ff57ebb9-d.jpg,,
5698695,The Green House: New Directions in Sustainable Architecture,,,,"Alanna Stang, Christopher Hawthorne",2005,1,Princeton Architectural Press,,197,0,English,Искусство//Архитектура,avaxhome.ws,,"9781568984810,1568984812",,,,,,,,,OL8691449M,20152,0,,,,,,,T,19283295,pdf,1482D96B5B0E55B50E7C1715E03F01E9,,,Y. dl_avaxhome 20152  _=GreenHouse.pdf,0,2000-01-01 01:00:00,2016-04-03 02:51:08,261000/1482d96b5b0e55b50e7c1715e03f01e9-d.jpg,,
5698693,Late Victorian Gothic Tales,,Oxford World's Classics,,Roger Luckhurst,2005,,"Oxford University Press, USA",,328,0,English,Литература//Проза,avaxhome.ws,,"9780192804808,0192804804",,,,,823/.087290808,PR1309.H6 L38 2005,,,OL22624383M,24369,0,,,,,,,,5739225,pdf,138051DCDB816FEB44B63228BBE75948,,,Y. dl_avaxhome 24369  _=gg11.pdf,0,2000-01-01 01:00:00,2016-04-03 02:51:08,261000/138051dcdb816feb44b63228bbe75948-d.jpg,,
5698692,Exercise and Cognitive Function,,,,"Terry McMorris, Phillip Tomporowski, Michel Audiffren",2009,1,Wiley,,376,0,English,Наука (общее)//Науковедение,avaxhome.ws,,"0470516607,9780470516607",,,,,612.8/233,BF311 .E877 2009,,,OL22684709M,22106,0,,,,,1,,T,2891484,pdf,13449B8646B7272B2AC0C3487089D2F3,,,Y. dl_avaxhome 22106  _=mcmorris.pdf,0,2000-01-01 01:00:00,2016-04-03 02:51:08,261000/13449b8646b7272b2ac0c3487089d2f3-d.jpg,,
5698691,Introduction to Global Politics,,,,"Richard Mansbach, Kirsten Rafferty",2007,annotated edition,Routledge,,873,0,English,Общественные науки прочие,avaxhome.ws,,"0415773830,9780415773836,9780203946114",,,,,327,JZ1242 .M36 2007,,,OL17848158M,21478,0,,,,1,0,,1,20300174,pdf,133303AE58F3BE47771E26E136C6D472,,,Y. dl_avaxhome 21478  _=hh14.pdf,0,2000-01-01 01:00:00,2016-04-03 02:51:08,261000/133303ae58f3be47771e26e136c6d472-d.jpg,,
5698690,Lectures on Analytic Differential Equations,,Graduate Studies in Mathematics,,"Yulij Ilyashenko, Sergei Yakovenko",2007,,American Mathematical Society,,599,0,English,Математика,avaxhome.ws,,"9780821836675,0821836676",,,,,515/.355,QA372 .I445 2008,,,OL11420167M,19173,0,,,,,,,T,5879824,pdf,1306608138832E745E2D9718B71CDBF2,,,Y. dl_avaxhome 19173  _=thebook1.pdf,0,2000-01-01 01:00:00,2016-04-03 02:51:08,261000/1306608138832e745e2d9718b71cdbf2-d.jpg,,
5698688,International Encyclopedia of Ergonomics and Human Factors,3 Volume Set,,,Waldemar Karwowski,2001,1,CRC Press,,1980,0,English,Образование//Энциклопедии,avaxhome.ws,,"9780748408474,0748408479",,,,,,,,,OL20674399M,24036,0,,,,,,,,27842879,pdf,12757C59B71698DEE682C09065E18AB0,,,Y. dl_avaxhome 24036  _=Ergo.pdf,0,2000-01-01 01:00:00,2016-04-03 02:51:08,261000/12757c59b71698dee682c09065e18ab0-d.jpg,,
5698689,Webster's New World Spanish Grammar Handbook,,,,Gail Stein,2005,1,Webster's New World,,387,0,English,Компьютеры//Сети//Интернет,avaxhome.ws,,"9780764578977,0764578979",,,,,468.2/421,PC4112 .S74 2005,,,OL3434032M,18953,0,,,,,,,T,6443603,pdf,12D256DD47CCAAD9E9EFA8E820B719EC,,,Y. dl_avaxhome 18953  _=WebsterSpan.pdf,0,2000-01-01 01:00:00,2016-04-03 02:51:08,261000/12d256dd47ccaad9e9efa8e820b719ec-d.jpg,,
5698687,Handbook of Financial Markets: Dynamics and Evolution,,Handbooks in Finance,,"Thorsten Hens IV, Klaus Reiner Schenk-Hoppe",2009,,North Holland,,591,0,English,,avaxhome.ws,,"0123742587,9780123742582",,,,,332.6015118,,,,OL10072085M,17348,0,,,,,,,1,9333337,pdf,1250A1534096D909A8E25753DA13CAEE,,,Y. dl_avaxhome 17348  _=Handbook_of_Financial_Markets_Dynamics_and_Evolution.pdf,0,2000-01-01 01:00:00,2016-04-03 02:51:08,261000/1250a1534096d909a8e25753da13caee-d.jpg,,
5698686,VW Kubelwagen Schwimmwagen,,Wydawnictwo Militaria 076,,Robert Sawicki,1999,,Wydawnictwo Militaria,,68,0,German,История,avaxhome.ws,,"9788372190284,8372190283",,,,,,,,,,21124,0,,,,,,,,36295474,pdf,1240742ABABC3FA8D6B5152706D94C66,,,21124 =Wydawnictwo_Militaria__076__-_VW_Kubelwagen_Schwimmwagen.pdf,0,2000-01-01 01:00:00,2016-04-03 02:51:08,261000/1240742ababc3fa8d6b5152706d94c66-g.jpg,,
5698685,Mathematical Foundations of Quantum Statistics,,Dover Books on Physics,,A. Y. Khinchin,1998,,Dover Publications,,122,0,English,Математика,avaxhome.ws,,"9780486400259,0486400255",,,,,530.13/3/0151,QC174.4 .K413 1998,,,OL699378M,23226,0,,,,,,,,4068003,djvu,119F1F491F74F096496FF97789EC6434,,,Y. dl_avaxhome 23226  _=40860.090503092008.djvu,0,2000-01-01 01:00:00,2016-04-03 02:51:08,261000/119f1f491f74f096496ff97789ec6434-d.jpg,,
5698683,AS Maths,,Instant Revision,,"Jenny Sharp, Stewart Townend",2004,2nd,Collins,,128,0,English,Образование,avaxhome.ws,,"9780007172696,0007172699",,,,,,,,,OL9923309M,24265,0,,,,,,,T,1850306,pdf,1132DC60DA3F5A131BEBF8046B4958FA,,,Y. dl_avaxhome 24265  _=ASMaths.pdf,0,2000-01-01 01:00:00,2016-04-03 02:51:08,261000/1132dc60da3f5a131bebf8046b4958fa-d.jpg,,
5698684,Road to Nowhere: Elementary Level,,Heinemann Guided Readers,,John Milne,1999,,Delta Systems,,66,0,English,Литература//Проза,avaxhome.ws,,"0435271911,9780435271916",,,,,,,,,OL10244634M,18049,0,,,,,1,,T,2940954,pdf,115967FCB96652F6D1FF6E4609A987F1,,,Y. dl_avaxhome 18049  _=John_Milne_-_Road_to_Nowhere__Heinemann_Guided_Readers_.pdf,0,2000-01-01 01:00:00,2016-04-03 02:51:08,261000/115967fcb96652f6d1ff6e4609a987f1-d.jpg,,
5698682,A Lecturer's Guide to Further Education,,,,"Dennis Hayes, Toby Marshall, Alec Turner",2007,1,Open University Press,,246,0,English,Образование,avaxhome.ws,,"0335220185,9780335220182,9780335234899",,,,,,,,,OL10562210M,22208,0,,,,,1,,T,2810298,pdf,11234719B35810F59B2A4BA5E9C985DB,,,Y. dl_avaxhome 22208  _=aa12.pdf,0,2000-01-01 01:00:00,2016-04-03 02:51:08,261000/11234719b35810f59b2a4ba5e9c985db-d.jpg,,
5698681,Remodeling On the Money: 15 Innovative Projects Designed to Add Value to Your Home,,,,Alan Heavens,2007,Original,Kaplan Publishing,,243,0,English,"Домоводство, досуг",avaxhome.ws,,"9781427754806,1427754802",,,,,,,,,OL8537185M,18542,0,,,,,,,T,11859114,pdf,1102EEE5FF885BF659FEA47052876861,,,Y. dl_avaxhome 18542  _=c20.pdf,0,2000-01-01 01:00:00,2016-04-03 02:51:08,261000/1102eee5ff885bf659fea47052876861-d.jpg,,
5698680,Intelligent and Adaptive Systems in Medicine,,Series in Medical Physics and Biomedical Engineering,,"Olivier C. L. Haas, Keith J. Burnham",2008,1,Taylor & Francis,,402,0,English,Медицина,avaxhome.ws,,"9780750309943,0750309946",,,,,610.285,R859.7.A72 I48 2008,,,OL21039394M,19131,0,,,,,,,T,14475397,pdf,10BDD903A1B5EBC85C5CF243928D0704,,,Y. dl_avaxhome 19131  _=IntSystMed.pdf,0,2000-01-01 01:00:00,2016-04-03 02:51:08,261000/10bdd903a1b5ebc85c5cf243928d0704-d.jpg,,
5698678,The Dark Tower Boxed Set,Books 1-4,,,Stephen King,2003,,Signet,,1338,0,English,Искусство,avaxhome.ws,,"9780451211248,0451211243",,,,,,,,,OL7574528M,21122,0,,,,,,,,9979702,pdf,106F0B6CE611DB4DFB65E907298C7CF8,,,Y. dl_avaxhome 21122  _=Stephen_King_-_The_Dark_Tower_Books_1-5.pdf,0,2000-01-01 01:00:00,2016-04-03 02:51:08,261000/106f0b6ce611db4dfb65e907298c7cf8-d.jpg,,
5698679,Catch-22,,,,Joseph Heller,1996,Later printing,Simon & Schuster,,475,0,English,Литература//Проза,avaxhome.ws,,"9780684833392,0684833395",,,,,813/.54,PS3558.E476 C3 2004,,,OL20024538M,16976,0,,,,,,,,1610804,pdf,10895F144107FBB858430EB1B7F74494,,,Y. dl_avaxhome 16976  _=catch.22.pdf,0,2000-01-01 01:00:00,2016-04-03 02:51:08,261000/10895f144107fbb858430eb1b7f74494-d.jpg,,
5698677,The Art of Recording: Understanding and Crafting the Mix,,,,William Moylan,2002,1,Focal Press,,361,0,English,Техника,avaxhome.ws,,"9780240804835,024080483X",,,,,,,,,OL9510291M,19306,0,,,,,,,T,4126193,pdf,0F6DFCA9D6AFB548CC3FCFB710FDBCC2,,,Y. dl_avaxhome 19306  _=Art_Of_Rec.pdf,0,2000-01-01 01:00:00,2016-04-03 02:51:08,261000/0f6dfca9d6afb548cc3fcfb710fdbcc2-g.jpg,,
5698675,Endgame in Chess,,,,Fred Reinfeld,,,Dover Publications Inc. boo,,93,0,English,"Домоводство, досуг//Игры//Шахматы",avaxhome.ws,,"0486204170,9780486204178",,,,,,,,,,22596,0,,,,,1,,T,4005990,pdf,0F46BD2787EE42248E6BBBDF12298AEC,,,Y. dl_avaxhome 22596  _=reinfeld252c_fred_-_reinfeld_on_the_end-game_of_chess.pdf,0,2000-01-01 01:00:00,2016-04-03 02:51:08,261000/0f46bd2787ee42248e6bbbdf12298aec-g.jpg,,
5698676,Encyclopedia of Philosophers on Religion,,,,Bernard J. Verkamp,2008,,McFarland,,241,0,English,Религия,avaxhome.ws,,"0786432861,9780786432868,9780786451975",,,,,210.92/2,B104 .V47 2008,,,OL16908825M,16545,0,,,,,1,,T,3733965,pdf,0F5A4C31C3930829447297270D25F51A,,,Y. dl_avaxhome 16545  _=Encyclopedia_of_Philosophers_on_Religion.pdf,0,2000-01-01 01:00:00,2016-04-03 02:51:08,261000/0f5a4c31c3930829447297270d25f51a-d.jpg,,
5698674,"The Best of 2600, Collector's Edition: A Hacker Odyssey",,,,Emmanuel Goldstein,2009,Har/Cdr Co,Wiley,,913,0,English,Компьютеры//Безопасность,avaxhome.ws,,"9780470458532,0470458534",,,,,,,,,,21408,0,,,,,,,,11704827,pdf,0F1EA53B758BCE9F6D5C65FCC05F1B0F,,,Y. dl_avaxhome 21408  _=Wiley.The.Best.of.2600.A.Hacker.Odyssey.Feb.2009.eBook-DDU.pdf,0,2000-01-01 01:00:00,2016-04-03 02:51:08,261000/0f1ea53b758bce9f6d5c65fcc05f1b0f-d.jpg,,
5698673,Bridge For Dummies,,,,Eddie Kantar,2006,2,For Dummies,,410,0,English,Образование,avaxhome.ws,,"0471924261,9780471924265,9780470107003",,,,,,,,,OL18001956M,23557,0,,,,1,0,,1,7940018,pdf,0E973C825BB8960B6D5628CCD438E3E9,,,Y. dl_avaxhome 23557  _=Bri.Dum.pdf,0,2000-01-01 01:00:00,2016-04-03 02:51:08,261000/0e973c825bb8960b6d5628ccd438e3e9-d.jpg,,
5698671,Reinforced Concrete Design,,Civil Engineering Series,,"W. H. Mosley, J. H. Bungey",1991,4,"Scholium International, Inc.",,202,0,English,Техника//Строительство,avaxhome.ws,,"9780333537183,0333537181",,,,,,,,,OL10550059M,21790,0,,,,,,,,44070828,pdf,0DDA1CC1A7212199F1DD716C61B798B8,,,Y. dl_avaxhome 21790  _=ReinforcedConcreteDesign.pdf,0,2000-01-01 01:00:00,2016-04-03 02:51:08,261000/0dda1cc1a7212199f1dd716c61b798b8-d.jpg,,
5698672,Passages Student's: An Upper-level Multi-skills Course,,"Passages , No 2",,"Jack C. Richards, Chuck Sandy",2000,,Cambridge University Press,,221,0,English,Языкознание,avaxhome.ws,,"9780521564717,0521564719",,,,,428.2/4,PE1128 .R4599 2000,,,OL52082M,19161,0,,,,,,,,32271697,pdf,0E28972B298FD6C089FF53AA7C7D5458,,,Y. dl_avaxhome 19161  _=DL-02.pdf,0,2000-01-01 01:00:00,2016-04-03 02:51:08,261000/0e28972b298fd6c089ff53aa7c7d5458-d.jpg,,
5698670,Evil Eyes,,,,Corey Mitchell,2006,,Pinnacle,,429,0,English,Литература//Проза,avaxhome.ws,,"9780786016761,0786016760",,,,,,,,,OL8104788M,23508,0,,,,,,,T,758041,pdf,0DB63D05CB0B061AC17D6A342F8415E1,,,Y. dl_avaxhome 23508 Corey_Mitchell_-_Evil_Eyes  _=Corey Mitchell - Evil Eyes.pdf,0,2000-01-01 01:00:00,2016-04-03 02:51:08,261000/0db63d05cb0b061ac17d6a342f8415e1-d.jpg,,
5698668,"Improving the Economy, Efficiency, and Effectiveness of Not-for-Profits: Conducting Operational Reviews",,,,Rob Reider,2001,1,Wiley,,342,0,English,,avaxhome.ws,,"9780471395737,0471395730",,,,,,,,,OL7616550M,20976,0,,,,,,,T,10108128,pdf,0D9DB1E2E33AE19D22839085D130CEA8,,,Y. dl_avaxhome 20976  _=Improving_20the_20Economy_20Efficiency_20and_20Effectiveness.pdf,0,2000-01-01 01:00:00,2016-04-03 02:51:08,261000/0d9db1e2e33ae19d22839085d130cea8-d.jpg,,
5698669,Japanese Verbs and Essentials of Grammar,,,,Rita Lampkin,2004,2,McGraw-Hill,,143,0,English,Языкознание,avaxhome.ws,,"007143514X,9780071435147",,,,,496/.56,PL585 .L26 2004,,,OL18396698M,23210,0,,,,,,,0,16061784,pdf,0DAF37DF4C70D687A1AD4485F9AB518C,,,Y. dl_avaxhome 23210  _=Japanese_Verbs_Grammar.pdf,0,2000-01-01 01:00:00,2016-04-03 02:51:08,261000/0daf37df4c70d687a1ad4485f9ab518c-d.jpg,,
5698667,"Black and White in Photoshop CS3 and Photoshop Lightroom: Create stunning monochromatic images in Photoshop CS3, Photoshop Lightroom, and beyond",,,,Leslie Alsheimer,2007,,Focal Press,,266,0,English,Искусство//Фотография,avaxhome.ws,,"9780240520841,024052084X",,,,,,,,,OL10200914M,19447,0,,,,,,,T,22534012,pdf,0D986F3767C1579A247172D1B1D16C3C,,,Y. dl_avaxhome 19447  _=BlacWhitPh.pdf,0,2000-01-01 01:00:00,2016-04-03 02:51:08,261000/0d986f3767c1579a247172d1b1d16c3c-d.jpg,,
5698666,"A History of the Classical Greek World, 478 - 323 BC",,Blackwell History of the Ancient World,,P. J. Rhodes,2005,,Wiley-Blackwell,,423,0,English,История,avaxhome.ws,,"0631225641,9780631225645",,,,,,,,,OL9655717M,21887,0,,,,,,,T,3686925,pdf,0D00D4DA605AA233E3FB7361CAF2D739,,,Y. dl_avaxhome 21887  _=HistGreWorld.PDF,0,2000-01-01 01:00:00,2016-04-03 02:51:08,261000/0d00d4da605aa233e3fb7361caf2d739-d.jpg,,
5698665,"Practical Modern SCADA Protocols: DNP3, 60870.5 and Related Systems",,IDC Technology,,"Gordon Clarke CP Eng  BEng  MBA, Deon Reynders Pr Eng  BSc (ElecEng) (Hons)  MBA",2004,1,Newnes,,549,0,English,Компьютеры//Программы//САПР,avaxhome.ws,,"9780750657990,0750657995",,,,,670.4275,TS158.6 .C558 2004,,,OL3439733M,18951,0,,,,,,,T,27353593,pdf,0CDE6D9F56DB658264822FDCB7090603,,,Y. dl_avaxhome 18951  _=.Practical_morden_scada.pdf,0,2000-01-01 01:00:00,2016-04-03 02:51:08,261000/0cde6d9f56db658264822fdcb7090603-d.jpg,,
5698664,Jethro Tull - Flute Solos: As Performed by Ian Anderson,,,,"Jethro Tull, Ian Anderson",2006,1,Hal Leonard Corporation,,48,0,English,Искусство//Музыка//Гитара,avaxhome.ws,,"1423409779,9781423409779",,,,,,,,,OL8495201M,24918,0,,,,,1,,,13410189,pdf,0B41ADFB62EA683E2C46A80903B071BC,,,Y. dl_avaxhome 24918  _=Jethro_Tull_Flute_Solos_Songbook.pdf,0,2000-01-01 01:00:00,2016-04-03 02:51:08,261000/0b41adfb62ea683e2c46a80903b071bc-d.jpg,,
5698663,Risk Management and Capital Adequacy,,,,Reto Gallati,2003,1,McGraw-Hill,,576,0,English,Бизнес//менеджмент,avaxhome.ws,,"9780071407632,0071407634",,,,,658.155,HD61 .G35 2003,,,OL3707852M,20997,0,,,,,,,T,8026138,pdf,0AB2C3E5F17BCF0E03345C0372D732E3,,,Y. dl_avaxhome 20997  _=Risk Management and Capital Adequacy.pdf,0,2000-01-01 01:00:00,2016-04-03 02:51:08,261000/0ab2c3e5f17bcf0e03345c0372d732e3-d.jpg,,
5698662,Practicing E-government: A Global Perspective,,,,Mehdi Khosrowpour,2005,illustrated edition,Idea Group Publishing,,471,0,English,Компьютеры//Информационные системы,avaxhome.ws,,"9781591406372,1591406374",,,,,,,,,OL8854949M,18752,0,,,,,,,,3798451,pdf,0A31C9D0D3A91697116237B7B9C9FC49,,,Y. dl_avaxhome 18752  _=Practicing_E_government.pdf,0,2000-01-01 01:00:00,2016-04-03 02:51:08,261000/0a31c9d0d3a91697116237b7b9c9fc49-d.jpg,,
5698660,Kama Sutra for 21st Century Lovers,,,,Anne Hooper,2007,1,DK ADULT,,362,0,English,"Психология//Любовь, эротика",avaxhome.ws,,"9780756631666,0756631661",,,,,,,,,OL7995777M,21520,0,,,,,,,T,27401883,pdf,09D51CB45F3ECEFDEC3887CBB89F78F5,,,Y. dl_avaxhome 21520  _=Kama_Sutra_SEX_Positions_Complete_Guide_2nd_Eddition.pdf,0,2000-01-01 01:00:00,2016-04-03 02:51:08,261000/09d51cb45f3ecefdec3887cbb89f78f5-d.jpg,,
5698661,Gordon R. Willey and American Archeology: Contemporary Perspectives,,,,"Jeremy A. Sabloff, William L. Fash",2007,,University of Oklahoma Press,,265,0,English,Искусство//Архитектура,avaxhome.ws,,"9780806138053,080613805X",,,,,,,,,OL22751461M,17369,0,,,,,,,T,2445667,pdf,09ECA93B2593CC365A806F4008EBCECC,,,Y. dl_avaxhome 17369  _=American_Archeology_01.pdf,0,2000-01-01 01:00:00,2016-04-03 02:51:08,261000/09eca93b2593cc365a806f4008ebcecc-d.jpg,,
5698658,The All-New Switch Book: The Complete Guide to LAN Switching Technology,,,,"Rich Seifert, James Edwards",2008,2,Wiley,,818,0,English,Компьютеры//Сети,avaxhome.ws,,"9780470287156,0470287152",,,,,621.39/84,TK5105.7 .S45 2008,,,OL25019178M,18359,0,,,,,,,T,7312151,pdf,099F38B54EA2CE990A9B6D42677466AE,,,Y. dl_avaxhome 18359  _=All_New_Switch_Book.pdf,0,2000-01-01 01:00:00,2016-04-03 02:51:08,261000/099f38b54ea2ce990a9b6d42677466ae-d.jpg,,
5698659,Efficiency Of Racetrack Betting Markets,,,,Donald B. Hausch,2008,2008 Ed,World Scientific Publishing Company,,679,0,English,Экономика,avaxhome.ws,,"9789812819185,9812819185",,,,,338.4/7798401,SF331 .E36 2008,,,OL16796547M,17146,0,,,,,,,T,32630109,pdf,09A88E34AC8D699B9058BABD7C92CE08,,,Y. dl_avaxhome 17146  _=218232___9812819185.pdf,0,2000-01-01 01:00:00,2016-04-03 02:51:08,261000/09a88e34ac8d699b9058babd7c92ce08-d.jpg,,
5698656,,,ADVANCES IN ECOLOGICAL RESEARCH V9,,Author Unknown,1975,First Edition,Academic Press,,399,0,English,science_books\\biology_genetics,avaxhome.ws,,"012013909X,9780120139095,9780080566931",,,,,,,,,OL10070168M,21592,0,,,,,1,,T,19836731,pdf,090336B863401F420CD2F526BC9597D9,,,Y. dl_avaxhome 21592  _=57.pdf,0,2000-01-01 01:00:00,2016-04-03 02:51:08,261000/090336b863401f420cd2f526bc9597d9-d.jpg,,
5698657,Russia and NATO since 1991: From Cold War Through Cold Peace to Partnership?,,Routledge Advances in International Relations and Global Politics,,Martin A. Smith,2006,1,Routledge,,177,0,English,География//Россия,avaxhome.ws,,"0415363004,9780415363006,9784020301323",,,,,355/.031/0918210947,JZ6005 .S65 2006,,,OL22717793M,19981,0,,,,,1,,T,768464,pdf,090C4476272840007AEA10B276563715,,,Y. dl_avaxhome 19981  _=0415363004.pdf,0,2000-01-01 01:00:00,2016-04-03 02:51:08,261000/090c4476272840007aea10b276563715-d.jpg,,
5698654,Smart Light-Responsive Materials: Azobenzene-Containing Polymers and Liquid Crystals,,,,"Y. Zhao, Tomiki Ikeda",2009,,Wiley-Interscience,,535,0,English,Медицина,avaxhome.ws,,"9780470175781,0470175788",,,,,620.1/1295,TA418.9.S62 .Z53 2009,,,OL17100380M,16781,0,,,,,,,T,9171876,pdf,08836FC0F3B9BA454936126DEC634D3D,,,Y. dl_avaxhome 16781  _=236546442.pdf,0,2000-01-01 01:00:00,2016-04-03 02:51:08,261000/08836fc0f3b9ba454936126dec634d3d-d.jpg,,
5698655,Molecular Bases of Anesthesia,,Handbooks in Pharmacology and Toxicology,,"Eric Moody, Phil Skolnick",2000,1,CRC Press,,346,0,English,Медицина//Анестезиология и интенсивная терапия,avaxhome.ws,,"9780849385551,0849385555",,,,,,,,,OL11560447M,20338,0,,,,,,,T,5133333,pdf,08FAEFF309AA4D20DEA42322B4A2E264,,,Y. dl_avaxhome 20338  _=MoleBasAnest.pdf,0,2000-01-01 01:00:00,2016-04-03 02:51:08,261000/08faeff309aa4d20dea42322b4a2e264-d.jpg,,
5698653,American Wilderness: A New History,,,,Michael Lewis,2007,,"Oxford University Press, USA",,299,0,English,История,avaxhome.ws,,"9780195174151,0195174151",,,,,,,,,OL7391172M,16514,0,,,,,,,T,3810325,pdf,079C1BD26991CBF044EF99985ADBB5F0,,,Y. dl_avaxhome 16514  _=American_Wilderness_0195174151.pdf,0,2000-01-01 01:00:00,2016-04-03 02:51:08,261000/079c1bd26991cbf044ef99985adbb5f0-d.jpg,,
5698651,The Creation of the World or Globalization,,SUNY Series in Contemporary French Thought,,"Jean-Luc Nancy, Raffoul Francois, David Pettigrew",2007,,State University of New York Press,,126,0,English,Общественные науки прочие//Философия,avaxhome.ws,,"9780791470251,0791470253",,,,,,,,,OL7803739M,21807,0,,,,,,,,7694522,pdf,06B152C65653C9FC75B19E04191796F7,,,Y. dl_avaxhome 21807  _=0791470253.pdf,0,2000-01-01 01:00:00,2016-04-03 02:51:08,261000/06b152c65653c9fc75b19e04191796f7-d.jpg,,
5698652,Philosophy as a Way of Life: Spiritual Exercises from Socrates to Foucault,,,,"Pierre Hadot, Arnold Davidson",1995,,Wiley-Blackwell,,162,0,English,Общественные науки прочие//Философия,avaxhome.ws,,"0631180338,9780631180333",,,,,100,B105.S66 H3313 1995,,,OL1103753M,23393,0,,,,,1,,,45456000,pdf,07339648A6174463DB39B0BFEFFCC184,,,Y. dl_avaxhome 23393  _=PhilosophyWayLife.pdf,0,2000-01-01 01:00:00,2016-04-03 02:51:08,261000/07339648a6174463db39b0bfeffcc184-d.jpg,,
5698650,101 American English Riddles : Understanding Language and Culture Through Humor,,,,Harry Collis,1996,1,McGraw-Hill,,123,0,English,Языкознание,avaxhome.ws,,"9780844256061,0844256064",,,,,,,,,OL18372651M,17887,0,,,,,,,,5847384,pdf,06861E4E38072CED9711EDAEB254ABB2,,,Y. dl_avaxhome 17887  _=101_American_English_Riddles__Understanding_Language_and_Culture_Through_Humor.pdf,0,2000-01-01 01:00:00,2016-04-03 02:51:08,261000/06861e4e38072ced9711edaeb254abb2-d.jpg,,
5698648,Working for Full Employment,,,,John Philpott,1997,1,Routledge,,271,0,English,Бизнес,avaxhome.ws,,"9780415143479,0415143470",,,,,331.12/042,HD5765.A6 W675 1997,,,OL969101M,22289,0,,,,,,,T,2341267,pdf,06232E24A5490008D3999A76A8D76EBC,,,Y. dl_avaxhome 22289  _=0415143470.pdf,0,2000-01-01 01:00:00,2016-04-03 02:51:08,261000/06232e24a5490008d3999a76a8d76ebc-d.jpg,,
5698649,What's the Good of Counselling & Psychotherapy?: The Benefits Explained,,Ethics in Practice,,Mr Colin Feltham,2002,1,Sage Publications Ltd,,297,0,English,Психология,avaxhome.ws,,"9780761969556,0761969551",,,,,,,,,OL8030590M,19913,0,,,,,,,T,5479434,pdf,0684D7FDF8003647E9323CE4C73F0188,,,Y. dl_avaxhome 19913  _=yy20.pdf,0,2000-01-01 01:00:00,2016-04-03 02:51:08,261000/0684d7fdf8003647e9323ce4c73f0188-d.jpg,,
5698646,Knowledge Management: Organizational and Technological Dimensions,,,,"Joseph Davis, Eswaran Subrahmanian, Art Westerberg",2005,1,Physica-Verlag HD,,203,0,English,Бизнес//менеджмент,avaxhome.ws,,"9783790800814,3790800813",,,,,,,,,OL22623136M,19498,0,,,,,,,,12787011,pdf,05E1D8787CD58C425BE43D68AC023F5B,,,Y. dl_avaxhome 19498  _=3790800813.pdf,0,2000-01-01 01:00:00,2016-04-03 02:51:08,261000/05e1d8787cd58c425be43d68ac023f5b-d.jpg,,
5698647,How to Write and Speak Correctly,,,,Joseph Devlin,2007,,Wildside Press,,7,0,English,Образование,avaxhome.ws,,"9781557429179,1557429170",,,,,,,,,OL8599574M,24050,0,,,,,,,,124865,pdf,06102772B92EC5EB4D6F935166F4D78C,,,24050 =307.pdf,0,2000-01-01 01:00:00,2016-04-03 02:51:08,261000/06102772b92ec5eb4d6f935166f4d78c-d.jpg,,
5698644,Plundering Paradise: The Hand of Man on the Galapagos Islands,,,,Michael D'orso,2003,,Harper Perennial,,373,0,English,Биология,avaxhome.ws,,"9780060955762,0060955767",,,,,,,,,OL7285542M,22400,0,,,,,,,T,1264377,pdf,05B8B1DB3255697F5B74E79F841666BF,,,Y. dl_avaxhome 22400  _=Galapagos_Islands.pdf,0,2000-01-01 01:00:00,2016-04-03 02:51:08,261000/05b8b1db3255697f5b74e79f841666bf-d.jpg,,
5698645,Performance Measurement in Finance,,Quantitative Finance,,"John Knight, Stephen Satchell",2002,1st,Butterworth-Heinemann,,395,0,English,Экономика,avaxhome.ws,,"9780750650267,0750650265",,,,,332.6,,,,OL22066312M,19086,0,,,,,,,T,2367276,pdf,05DB0C13207D0D8687C8C9BC55F5C008,,,Y. dl_avaxhome 19086  _=0750650265.pdf,0,2000-01-01 01:00:00,2016-04-03 02:51:08,261000/05db0c13207d0d8687c8c9bc55f5c008-d.jpg,,
5698642,LINPACK Users' Guide,,,,"J.J Dongarra, G.W. Stewart",1987,,Society for Industrial  Mathematics,,371,0,English,Математика,avaxhome.ws,,"9780898711721,089871172X",,,,,,,,,OL8271710M,24523,0,,,,,1,,T,22576359,pdf,058B78F1BB3226529366C3053B525481,,,Y. dl_avaxhome 24523  _=linguide.pdf,0,2000-01-01 01:00:00,2016-04-03 02:51:08,261000/058b78f1bb3226529366c3053b525481-g.jpg,,
5698643,Transient Numerical Simulation of Complex Convection Effects During Solidification in Casting and Welding,,"Giesserei-Institut: Forschung, Entwicklung, Ergebnisse v. 45",,Georg Ehlen,2004,,"Shaker Verlag GmbH, Germany",,352,0,English,Математика//Вычислительная математика,avaxhome.ws,,"9783832228866,3832228861",,,,,,,,,,19003,0,,,,,,,T,7253129,djvu,05A685A9D1D9B5CFCB9F11606509646C,,,Y. dl_avaxhome 19003  _=53639.090517085001.djvu,0,2000-01-01 01:00:00,2016-04-03 02:51:08,261000/05a685a9d1d9b5cfcb9f11606509646c-d.jpg,,
5698640,Materials Enabled Designs: The Materials Engineering Perspective to Product Design and Manufacturing,,,,Michael Pfeifer,2009,,Butterworth-Heinemann,,307,0,English,Техника,avaxhome.ws,,"9780750682879,0750682876",,,,,620.11,TA403.6 .P47 2009,,,OL10809531M,17726,0,,,,,,,,15769529,pdf,0479E8283C4C9B96DD7792BFD257C7C0,,,Y. dl_avaxhome 17726  _=0750682876.pdf,0,2000-01-01 01:00:00,2016-04-03 02:51:08,261000/0479e8283c4c9b96dd7792bfd257c7c0-d.jpg,,
5698641,The Thermodynamics of Electrical Phenomena in Metals and a Condensed Collection of Thermodynamic Formulas,,,,P. W. Bridgman,1979,,Peter Smith Pub Inc,,263,0,English,Физика//Термодинамика и статистическая физика,avaxhome.ws,,"9780844617374,0844617377",,,,,,,,,OL11554184M,23832,0,,,,,,,,17781160,djvu,04E7E9A503918928869B25509C99E805,,,Y. dl_avaxhome 23832  _=98405.090501141056.djvu,0,2000-01-01 01:00:00,2016-04-03 02:51:08,261000/04e7e9a503918928869b25509c99e805-g.jpg,,
5698639,Evolution Equations and Their Applications in Physical and Life Sciences,,Lecture Notes in Pure and Applied Mathematics,,G Lumer,2000,1,CRC Press,,511,0,English,Математика,avaxhome.ws,,"0824790103,9780824790103,9780585422237",,,,,515/.353,QA377 .E958 2001,,,OL21504047M,21772,0,,,,,1,,,21458604,pdf,04507A58275B5BB37602CE1BB55E29B2,,,Y. dl_avaxhome 21772  _=lumer.pdf,0,2000-01-01 01:00:00,2016-04-03 02:51:08,261000/04507a58275b5bb37602ce1bb55e29b2-d.jpg,,
5698637,Practical Guide to the Packaging of Electronics: Thermal and Mechanical Design and Analysis,,Dekker Mechanical Engineering,,Ali Jamnia,2008,2,CRC Press,,306,0,English,Физика,avaxhome.ws,,"9781420065312,1420065319",,,,,621.381/046,TK7870.15 .J36 2008,,,OL11816964M,21353,0,,,,,,,,5752423,pdf,024DF7F9CA72B7C0A4CFEC93CFF8913C,,,Y. dl_avaxhome 21353  _=1420065319.pdf,0,2000-01-01 01:00:00,2016-04-03 02:51:08,261000/024df7f9ca72b7c0a4cfec93cff8913c-d.jpg,,
5698638,The Biology of Musical Performance and Performance-Related Injury,,,,Alan H. D. Watson,2009,Pap/Cdr,"The Scarecrow Press, Inc.",,393,0,English,Биология,avaxhome.ws,,"0810863596,0810863588,9780810863583,9780810863590",,,,,612.002/478,ML3820 .W27 2009,,,OL17073346M,16503,0,,,,,,,1,8283155,pdf,0320FC3C7016BE3533EEB15F7B042BB4,,,Y. dl_avaxhome 16503  _=The_Biology_of_Musical_Performance_and_Performance-Related_Injury.pdf,0,2000-01-01 01:00:00,2016-04-03 02:51:08,261000/0320fc3c7016be3533eeb15f7b042bb4-d.jpg,,
5698636,Public Executions: The Death Penalty and the Media,,"Crime, Media, and Popular Culture",,Christopher S. Kudlac,2007,1,Praeger,,201,0,English,Общественные науки прочие,avaxhome.ws,,"9780275993078,0275993078",,,,,364.660973,HV8699.U6 K83 2007,,,OL10289841M,22189,0,,,,,,,T,1800721,pdf,023B6D29DF26526C214FEC6B04E21794,,,Y. dl_avaxhome 22189  _=aa33.pdf,0,2000-01-01 01:00:00,2016-04-03 02:51:08,261000/023b6d29df26526c214fec6b04e21794-d.jpg,,
5698634,"1,000 GLUTEN-FREE RECIPES",,,,Carol Fenster,2008,,Wiley,,723,0,English,Компьютеры//Сети,avaxhome.ws,,"0470067802,9780470067802,9780470434475",,,,,641.5/638,RM237.86 .F462 2008,,,OL16631800M,18814,0,,,,,,,,11889692,pdf,01D98A79A976FE396D34A7B8736BF632,,,Y. dl_avaxhome 18814  _=GlutFrRec.pdf,0,2000-01-01 01:00:00,2016-04-03 02:51:08,261000/01d98a79a976fe396d34a7b8736bf632-d.jpg,,
5698635,Way to Go!: Finding Your Way with a Compass,,Reader's Digest Explorer Guides,,"Sharon Sharth, David Wenzel",2000,Bk&Acces,Reader's Digest,,49,0,English,,avaxhome.ws,,"9781575844275,1575844273",,,,,,,,,OL12236670M,20993,0,,,,,,,T,7030758,pdf,01F1B85F6BA6FE6E62713CE0BD80150B,,,Y. dl_avaxhome 20993  _=Finding_20Way_20with_20Compas.pdf,0,2000-01-01 01:00:00,2016-04-03 02:51:08,261000/01f1b85f6ba6fe6e62713ce0bd80150b-d.jpg,,
5698633,D-Day in the Pacific: The Battle of Saipan,,Twentieth-Century Battles,,Harold J. Goldberg,2007,annotated edition,Indiana University Press,,297,0,English,,avaxhome.ws,,"0253348692,9780253348692,9780253116819",,,,,,,,,OL9469339M,16835,0,,,,,1,,T,5806695,pdf,01CF9899A749DCBCE45B3C7975D485B1,,,Y. dl_avaxhome 16835  _=D-Day_in_the_Pacific_The_Battle_of_Saipan.pdf,0,2000-01-01 01:00:00,2016-04-03 02:51:08,261000/01cf9899a749dcbce45b3c7975d485b1-d.jpg,,
5698631,Induction and Analysis of Antigen-specific T cell Responses in Melanoma Patients and Animal Models,,LUP Dissertaties,,Adriaan D. Bins,2007,,Leiden University Press,,149,0,English,Биология//Зоология,avaxhome.ws,,"9087280114,9789087280116,9789048505913",,,,,,,,,OL9113435M,16828,0,,,,,,,T,59051616,pdf,01B0E74C0D40253CFFF7327C14352EAA,,,Y. dl_avaxhome 16828  _=Induction_and_Analysis_of_Antigen-specific_T_cell.pdf,0,2000-01-01 01:00:00,2016-04-03 02:51:08,261000/01b0e74c0d40253cfff7327c14352eaa-d.jpg,,
5698632,Emancipation (s) (Radical Thinkers),,s Radical Thinkers ,,Ernesto Laclau,2007,,Verso,,135,0,English,Общественные науки прочие//Философия,avaxhome.ws,,"1844675769,9781844675760",,,,,,,,,OL8956283M,19890,0,,,,,,,1,7268879,pdf,01B3838F0EC93322A1CCB39829243A5B,,,Y. dl_avaxhome 19890  _=9781844675760_-_Ernesto_Laclau_-_Emancipation.pdf,0,2000-01-01 01:00:00,2016-04-03 02:51:08,261000/01b3838f0ec93322a1ccb39829243a5b-d.jpg,,
5698630,Drive: 9 Ways to Motivate Your Kids to Achieve,,,,Janine Walker Caffrey,2008,,Da Capo Press,,238,0,English,"Домоводство, досуг",avaxhome.ws,,"9780738211602,0738211605",,,,,,,,,OL10605298M,18852,0,,,,,,,T,5649582,pdf,0135733F3128B92299B8E9161AEAC048,,,Y. dl_avaxhome 18852  _=a50.pdf,0,2000-01-01 01:00:00,2016-04-03 02:51:08,261000/0135733f3128b92299b8e9161aeac048-d.jpg,,
5698628,Transfusion Medicine and Hemostasis: Clinical and Laboratory Aspects,,,,"Christopher D. Hillyer MD, Beth H. Shaz, James C. Zimring, Thomas C. Abshire",2009,1,Elsevier Science,,762,0,English,Медицина,avaxhome.ws,,"0123744326,9780123744326",,,,,,,,,,17353,0,,,,,,,1,7701478,pdf,00DF4640C0DE0F92B2624D4761A95C46,,,Y. dl_avaxhome 17353  _=Transfusion_Medicine_and_Hemostasis_Clinical_and_Laboratory_Aspects.pdf,0,2000-01-01 01:00:00,2016-04-03 02:51:08,261000/00df4640c0de0f92b2624d4761a95c46-d.jpg,,
5698629,Principles of Fourier Analysis,,Studies in Advanced Mathematics,,Kenneth B. Howell,2001,1,CRC Press,,774,0,English,Математика//Анализ,avaxhome.ws,,"0849382750,9780849382758,9781420036909",,,,,,,,,OL8261292M,22435,0,,,,,1,,,5351011,djvu,00F69D5724D839D0AC77785E0DF9D63D,,,Y. dl_avaxhome 22435  _=howell---principles_of_fourier_analysis.djvu,0,2000-01-01 01:00:00,2016-04-03 02:51:08,261000/00f69d5724d839d0ac77785e0df9d63d-d.jpg,,
5698626,,,"Current Topics in Developmental Biology, Volume 71",,Gerald P. Schatten,2005,1,Academic Press,,333,0,English,,avaxhome.ws,,"0121531716,9780121531713",,,,,,,,,OL7325984M,20614,0,,,,,1,,T,4020936,pdf,0034C581E7AC3E7CAD0756D755E988DF,,,Y. dl_avaxhome 20614  _=CurTopDevBiol71.pdf,0,2000-01-01 01:00:00,2016-04-03 02:51:08,261000/0034c581e7ac3e7cad0756d755e988df-d.jpg ,,
5698627,Candlestick Charts: An Introduction to Using Candlestick Charts,,,,Clive Lambert,2008,,Harriman House,,188,0,English,Экономика,avaxhome.ws,,"1905641745,9781905641741",,,,,,,,,,16525,0,,,,,,,T,6608571,pdf,0040ADD06934C944210EE9D26C8F197D,,,Y. dl_avaxhome 16525  _=1905641745.pdf,0,2000-01-01 01:00:00,2016-04-03 02:51:08,261000/0040add06934c944210ee9d26c8f197d-d.jpg,,
5698624,Windows XP in 10 Steps or Less,,,,"Bradley L. Jones, Bill Hatfield",2003,,Wiley,,603,0,English,Компьютеры//Операционные системы,,0,0764542362,,,,,,,,,,,0,,,,,,,1,22601534,pdf,FF7DE7DA553280EC78855617E9F82F7B,,,,0,2000-01-01 01:00:00,2016-04-03 02:51:08,260000/ff7de7da553280ec78855617e9f82f7b-d.jpg,,
5698625,Encyclopedia of Electronic Circuits,Volume 2,,,Rudolf F. Graf,1988,1,McGraw-Hill/TAB Electronics,,766,0,English,Техника//Электроника,avaxhome.ws,,0830631380,,,,,,,,,,514,0,,,,,,,,23383000,pdf,FFD0F7C09B403F9F25FC29874A308A2E,,,Y. dl_avaxhome 514  _=0830631380_Enc_Electronic_Circuits_Vol_2.pdf,0,2000-01-01 01:00:00,2016-04-03 02:51:08,260000/ffd0f7c09b403f9f25fc29874a308a2e-d.jpg,,
5698623,Cultural Performances in Medieval France: Essays in Honor of Nancy Freeman Regalado,,Gallica,,"Eglal Doss-Quinby, Roberta L. Krueger, E. Jane Burns",2007,,D.S.Brewer,,342,0,English,История,,0,"9781843841128,1843841126",,,,,,,,,OL17977667M,,0,,,,,,,T,2436873,pdf,FF2D40F54AA1E739D7BC7DAF6FFA83AA,,,,0,2000-01-01 01:00:00,2016-04-03 02:51:08,260000/ff2d40f54aa1e739d7bc7daf6ffa83aa-d.jpg,,
5698621,"Fellowship, The: The Untold Story of Frank Lloyd Wright and the Taliesin Fellowship",,,,"Roger Friedland, Harold Zellman",2007,,Harper Perennial,,670,0,English,История,avaxhome.ws,,"0060988665,9780060988661",,,,,,,,,OL23106771M,15781,0,,,,,1,,T,3451218,pdf,FEFE69F49C94A68138241A79A717BA88,,,Y. dl_avaxhome 15781  _=0060988665_The_Fellowship.pdf,0,2000-01-01 01:00:00,2016-04-03 02:51:08,260000/fefe69f49c94a68138241a79a717ba88-d.jpg,,
5698622,Bulwer Lytton: The Rise and Fall of a Victorian Man of Letters,,,,Leslie Mitchell,2003,,Hambledon & London,,331,0,English,,avaxhome.ws,,1852854235,,,,,"823/.8,B",PR4931 .M58 2003,,,OL22533662M,1518,0,,,,,,,T,20199732,pdf,FF0EB97333A4759FFA818DB953A2A512,,,Y. dl_avaxhome 1518  _=1852854235_Victorian_Man.pdf,0,2000-01-01 01:00:00,2016-04-03 02:51:08,260000/ff0eb97333a4759ffa818db953a2a512-d.jpg,,
5698620,Once Upon a Town: The Miracle of the North Platte Canteen,,,,Bob Greene,2003,,Harper Paperbacks,,279,0,English,,,0,"006008197X,9780060081973,9780061193897",,,,,,,,,OL24259984M,,0,,,,,1,,T,1219047,pdf,FEE7864F40D12B7749D876A5EEDF209D,,,,0,2000-01-01 01:00:00,2016-04-03 02:51:08,260000/fee7864f40d12b7749d876a5eedf209d-d.jpg,,
5698618,The NALCO Guide to Boiler Failure Analysis,,,,"Robert Port, Harvey Herro",1990,1,McGraw-Hill Professional,,317,0,English,Техника//Нефтегазовые технологии,,0,"0070458731,9780070458734",,,,,621.1/83,TJ298 .P67 1991,,,OL1880326M,,0,,,,,1,,,10807479,pdf,FEA758B78A6E317DA17512146B46CC14,,,,0,2000-01-01 01:00:00,2016-04-03 02:51:08,260000/fea758b78a6e317da17512146b46cc14-d.jpg,,
5698619,Control of Human Parasitic Diseases,,,,,2007,1,Academic Press,,681,0,English,Медицина//Болезни//Внутренние болезни,avaxhome.ws,,0120317656,,,,,,,,,,7358,0,,,,,,,T,5095458,pdf,FED68F45DB02CAA790DC41AE7A3CDC89,,,Y. dl_avaxhome 7358  _=AdvancesinParasitologyVolume61-ControlofHumanParasiticDiseases2007.pdf,0,2000-01-01 01:00:00,2016-04-03 02:51:08,260000/fed68f45db02caa790dc41ae7a3cdc89-d.jpg,,
5698615,Quantitative Methods in Health Care Management: Techniques and Applications,,J-B Public Health/Health Services Text,,Yasar A. Ozcan PhD,2009,2,Jossey-Bass,,467,0,English,Бизнес//менеджмент,avaxhome.ws,,0470434627,,,,,,,,,,244,0,,,,,,,T,7858279,pdf,FE1583DCA05C66F36C100D0E0B83AC16,,,Y. dl_avaxhome 244  _=0470434627.pdf,0,2000-01-01 01:00:00,2016-04-03 02:51:08,260000/fe1583dca05c66f36c100d0e0b83ac16-d.jpg,,
5698616,Frommer's Walt Disney World and Orlando 2009,,Frommer's Complete,,Laura Lea Miller,2008,Revised,Frommers,,421,0,English,География,avaxhome.ws,,"9780470285657,0470285656",,,,,917.5924,,,,OL23114723M,12873,0,,,,,,,T,25331559,pdf,FE7BC002FE4599D7CA48064EA4EFCBE1,,,Y. dl_avaxhome 12873  _=Frommer_s_Walt_Disney_World_and_Orlando_2009.pdf,0,2000-01-01 01:00:00,2016-04-03 02:51:08,260000/fe7bc002fe4599d7ca48064ea4efcbe1-d.jpg,,
5698617,A Prayer for Spiritual Elevation and Protection,,,,"Muhyiddin Ibn 'Arabi, Suha Taji-Farouki",2007,,Anqa Publishing,,152,0,Arabic,,,0,"0953451305,9780953451302",,,,,297.3824,BP183.3 .I3213 2006,,,OL21320838M,,0,,,,,,,T,1572226,pdf,FE918065BA586D47165341DB82AE5DB4,,,,0,2000-01-01 01:00:00,2016-04-03 02:51:08,260000/fe918065ba586d47165341db82ae5db4-d.jpg,,
5698613,"Stop and Go, Yes and No: What Is an Antonym?",,Words Are Categorical,,Brian P. Cleary,2008,,First Avenue Editions,,34,0,English,Языкознание,avaxhome.ws,,0822590255,,,,,,,,,,697,0,,,,,,,T,4530632,pdf,FD3ED48905447E8F478BA9EC90B2F156,,,Y. dl_avaxhome 697  _=zz07.pdf,0,2000-01-01 01:00:00,2016-04-03 02:51:08,260000/fd3ed48905447e8f478ba9ec90b2f156-d.jpg,,
5698614,Rendering for Beginners: Image synthesis using RenderMan,,,,Saty Raghavachary,2004,,Focal Press,,385,0,English,Образование,avaxhome.ws,,0240519353,,,,,,,,,,326,0,,,,,,,,30835687,pdf,FD5AB647D5747479EF97F42C09C60E80,,,Y. dl_avaxhome 326  _=Rendering_for_Beginners_Image_Synthesis_Using_RenderMan.pdf,0,2000-01-01 01:00:00,2016-04-03 02:51:08,260000/fd5ab647d5747479ef97f42c09c60e80-d.jpg,,
5698610,Mathematical Olympiad in China: Problems and Solutions,,,,"Bin Xiong, Bin Xiong, Yee Lee Peng",2007,,World Scientific Publishing Company,,274,0,English,Математика,avaxhome.ws,,"9789812707895,9789812709790,9812707891",,,,,,,,,OL13170013M,3558,0,,,,,1,,T,9366306,pdf,FCF6978FD9F8C45A248F728EB29020B1,,,Y. dl_avaxhome 3558  _=MathOlymChin.pdf,0,2000-01-01 01:00:00,2016-04-03 02:51:08,260000/fcf6978fd9f8c45a248f728eb29020b1-d.jpg,,
5698611,The Measurement of Productive Efficiency and Productivit Growth,,,,"Harold O. Fried, C. A. Knox Lovell, Shelton S. Schmidt",2008,illustrated edition,"Oxford University Press, USA",,653,0,English,Экономика,avaxhome.ws,,"0195183525,9780195183528",,,,,338.5,HD56.25 .M4356 2007,,,OL10133794M,15075,0,,,,,,,1,4331575,pdf,FD195AD556C6EA1BDCF8CFFAF0286B19,,,Y. dl_avaxhome 15075  _=MeasGrowth.pdf,0,2000-01-01 01:00:00,2016-04-03 02:51:08,260000/fd195ad556c6ea1bdcf8cffaf0286b19-d.jpg,,
5698612,Particle-Lung Interactions,,,,Gehr/Heyder,2000,,Marcel Dekker Ltd,,815,0,English,,,0,"9780824746896,0824746899,0824798910",,,,,,,,,OL9581545M,,0,,,,,,,,11356513,pdf,FD3E70264DE7FA245933785FD9546E19,,,,0,2000-01-01 01:00:00,2016-04-03 02:51:08,260000/fd3e70264de7fa245933785fd9546e19-g.jpg,,
5698608,My Grandmother's Chinese Kitchen: 100 Family Recipes and Life Lessons,,,,Eileen Yin-Fei Lo,2006,,HP Trade,,287,0,English,"Домоводство, досуг//Кулинария",avaxhome.ws,,1557885052,,,,,641.5/951,TX724.5.C5 L59458 2006,,,OL17885994M,5774,0,,,,,,,T,12210071,pdf,FC50E729A40D53171D22DE8A5A353312,,,Y. dl_avaxhome 5774  _=My_Grandmother_s_Chinese_Kitchen.pdf,0,2000-01-01 01:00:00,2016-04-03 02:51:08,260000/fc50e729a40d53171d22de8a5a353312-d.jpg,,
5698609,The complete book of karate weapons,,,,Theodore L Gambordella,1981,1st,Paladin Press,,414,0,English,Техника//Военная техника//Оружие,avaxhome.ws,,"9780873642064,0873642066",,,,,796.8/15/028,GV1101.5 .G36 1981,,,OL2926771M,16275,0,,,,,,,T,8861362,pdf,FCBBA5E8BA57A2F2183FB496B9970D99,,,Y. dl_avaxhome 16275  _=Kar.pdf,0,2000-01-01 01:00:00,2016-04-03 02:51:08,260000/fcbba5e8ba57a2f2183fb496b9970d99-g.jpg,,
5698606,When Happily Ever After Ends,,,,Covy,2006,,Sphinx Publishing,,290,0,English,"Домоводство, досуг",avaxhome.ws,,"9781572485488,1572485485",,,,,,,,,OL24271251M,16331,0,,,,,,,T,5166499,pdf,FC27D88121C0929D75D913E5FFA73CCE,,,Y. dl_avaxhome 16331  _=h24.pdf,0,2000-01-01 01:00:00,2016-04-03 02:51:08,260000/fc27d88121c0929d75d913e5ffa73cce-d.jpg,,
5698607,"Design Reuse in Product Development Modeling, Analysis and Optimization",,Series on Manufacturing Systems and Technology,,S. K. Ong,2008,,World Scientific Publishing Company,,313,0,English,Биология//Генетика,avaxhome.ws,,9812832629,,,,,,,,,OL23936600M,1987,0,,,,,,,T,3759918,pdf,FC4BF9FB16C45DB1B593B3E17D97DD7B,,,Y. dl_avaxhome 1987  _=9812832629.pdf,0,2000-01-01 01:00:00,2016-04-03 02:51:08,260000/fc4bf9fb16c45db1b593b3e17d97dd7b-d.jpg,,
5698604,Pseudo holomorphic curves in symplectic manifolds,,,"Invent. math. 82, 307-347 (1985)",Gromov M.,,,,,41,0,English,Математика,,0,,,,,,,,,,,,0,,,,,,,,2518310,pdf,FB8C4E21E3768BEE5302D024DBDDE470,,,,0,2000-01-01 01:00:00,2016-04-03 02:51:08,260000/fb8c4e21e3768bee5302d024dbdde470-g.jpg,,
5698605,A World of Trouble: The White House and the Middle East--from the Cold War to the War on Terror,,,,Patrick Tyler,2008,1St Edition,"Farrar, Straus and Giroux",,644,0,English,История,avaxhome.ws,,"9780374292898,0374292892",,,,,327.7305609/045,DS63.2.U5 T95 2008,,,OL22543362M,15764,0,,,,,,,,10685610,pdf,FBEA9EAF4FFAF2AB4D0FAB1B42DA2030,,,Y. dl_avaxhome 15764  _=Tyler-awot.pdf,0,2000-01-01 01:00:00,2016-04-03 02:51:08,260000/fbea9eaf4ffaf2ab4d0fab1b42da2030-d.jpg,,
5698603,The Nibelungenlied: The Lay of the Nibelungs,,Oxford World's Classics,,Cyril Edwards,2010,,"Oxford University Press, USA",,282,0,English,,,0,"0199238545,9780199238545",,,,,831/.21,PT1579.A3 E38 2010,,,OL23554677M,,0,,,,,,,T,879464,pdf,FB5ABF7317D2642B8C8B395462613E70,,,,0,2000-01-01 01:00:00,2016-04-03 02:51:08,260000/fb5abf7317d2642b8c8b395462613e70-d.jpg,,
5698601,Arthurian Chronicles: Roman de Brut,,Large Print Edition,,Wace,2008,large type edition,BiblioLife,,145,0,English,Литература//Проза,avaxhome.ws,,0554263467,,,,,,,,,,172,0,,,,,,,T,380557,pdf,FAC5587F4556BA0F0A7C68230D9E5814,,,Y. dl_avaxhome 172  _=Arthurian_Chronicles_Roman_De_Brut_by_Wace.pdf,0,2000-01-01 01:00:00,2016-04-03 02:51:08,260000/fac5587f4556ba0f0a7c68230d9e5814-d.jpg,,
5698602,Sourcebook on Contract Law,,Sourcebook Series,,"Oughton, David Oughton, Martin Davies",2000,2,Routledge Cavendish,,826,0,English,Юридические науки//Право,avaxhome.ws,,"1859415849,9781859415849",,,,,,,,,OL12045349M,3785,0,,,,,1,,T,2674731,pdf,FAF34C814954F7D1EB4DC97D5291E186,,,Y. dl_avaxhome 3785  _=1859415849.pdf,0,2000-01-01 01:00:00,2016-04-03 02:51:08,260000/faf34c814954f7d1eb4dc97d5291e186-d.jpg,,
5698599,"Monetary Unions and Hard Pegs: Effects on Trade, Financial Development, and Stability",,,,"Volbert Alexander, Jacques Mélitz, George M. von Furstenberg",2004,,"Oxford University Press, USA",,399,0,English,Экономика,,0,"9780199271405,0199271402",,,,,332.4566,HG3894 .M656 2004,,,OL22581983M,,0,,,,,,,T,2631741,pdf,FA7646A5BFDE63FB0BDA61887939A505,,,,0,2000-01-01 01:00:00,2016-04-03 02:51:08,260000/fa7646a5bfde63fb0bda61887939a505-d.jpg,,
5698600,Combat Kick Boxing: A Framework for Success,,Martial Arts,,Pat O'Keeffe,2002,,Summersdale Publishers,,160,0,English,,avaxhome.ws,,"9781840241952,1840241950",,,,,,,,,OL8914690M,12877,0,,,,,,,T,11474373,pdf,FA8274261580FF7CE93C5A76234EEC1B,,,Y. dl_avaxhome 12877  _=Combat_Kick_Boxing.pdf,0,2000-01-01 01:00:00,2016-04-03 02:51:08,260000/fa8274261580ff7ce93c5a76234eec1b-d.jpg,,
5698598,Royal Navy,Volume 1,Wydawnictwo Militaria 096,,Janusz Ledwoch,1999,,Wydawnictwo Militaria,,46,0,English,История,avaxhome.ws,,8372190550,,,,,,,,,,6668,0,,,,,,,,58601229,pdf,FA05892F7E9C817CF83DD8A914F90595,,,6668 =Wydawnictwo_Militaria__096__-_Royal_Navy_vol_1.pdf,0,2000-01-01 01:00:00,2016-04-03 02:51:08,260000/fa05892f7e9c817cf83dd8a914f90595-g.jpg,,
5698596,The Gold Standard: Perspectives in the Austrian School,,,,Llewellyn H Rockwell Jr.,1992,,Ludwig Van Mises Institute,,164,0,English,Экономика,avaxhome.ws,,"0945466110,9780945466116",,,,,,,,,OL8449020M,1926,0,,,,0,1,,1,14539552,pdf,F97553D46A9C4CF74FF78CF1417A2C26,,,Y. dl_avaxhome 1926  _=0945466110.pdf,0,2000-01-01 01:00:00,2016-04-03 02:51:08,260000/f97553d46a9c4cf74ff78cf1417a2c26-d.jpg,,
5698597,Harry Truman's Excellent Adventure: The True Story of a Great American Road Trip,,,,Matthew Algeo,2009,,Chicago Review Press,,273,0,English,Компьютеры//Программы//Офисные программы,,0,"1556527772,9781556527777",,,,,"973.918092,B",E814 .A75 2009,,,OL22542246M,,0,,,,,,,T,5327287,pdf,F98966E259D5C8EE029B7005653744B2,,,,0,2000-01-01 01:00:00,2016-04-03 02:51:08,260000/f98966e259d5c8ee029b7005653744b2-d.jpg,,
5698594,Delivered from Evil: Saga of World War Two,,,,Robert Leckie,1989,1st,HarperCollins,,519,0,English,История,avaxhome.ws,,0060158123,,,,,,,,,,7531,0,,,,,,,,11752141,pdf,F93DF99AE7A64517BC9FAA0F991842E2,,,Y. dl_avaxhome 7531  _=Delivered_from_Evil_The_Saga_of_WW2.pdf,0,2000-01-01 01:00:00,2016-04-03 02:51:08,260000/f93df99ae7a64517bc9faa0f991842e2-d.jpg,,
5698595,"Recasting Ritual: Performance, Media, Identity",,European Association of Social Anthropologists,,"Mary M. Crain, Felicia Hughes-Freeland",1998,1,Routledge,,183,0,English,Общественные науки прочие,avaxhome.ws,,"0415182794,9780415182799",,,,,306.4,GN473 .R35 1998,,,OL369073M,8242,0,,,,,1,,T,1586810,pdf,F94762E29E172C59F4F581F1FAA30D49,,,Y. dl_avaxhome 8242  _=0415182794.pdf,0,2000-01-01 01:00:00,2016-04-03 02:51:08,260000/f94762e29e172c59f4f581f1faa30d49-d.jpg,,
5698593,The CBI Skills and Training Handbook,,,,Mark Parkinson,2001,2,Kogan Page,,348,0,English,,avaxhome.ws,,0749433752,,,,,,,,,,2428,0,,,,,,,T,7756124,pdf,F93A9A2D835D72765EEF5F6F1BB9CEA0,,,Y. dl_avaxhome 2428  _=mm13.pdf,0,2000-01-01 01:00:00,2016-04-03 02:51:08,260000/f93a9a2d835d72765eef5f6f1bb9cea0-d.jpg,,
5698591,Contemplation of the Holy Mysteries: The Mashahid al-asrar of Ibn 'Arabi,,,,"Ibn 'Arabi, Cecilia Twinch, Pablo Beneito",2008,,Anqa Publishing,,138,0,Arabic,,,0,"1905937024,9781905937028",,,,,297.4,BP188.9 .I24513 2008,,,OL18727318M,,0,,,,,,,T,8945919,pdf,F75E49CC6FFE6B9AB51035D250B82E48,,,,0,2000-01-01 01:00:00,2016-04-03 02:51:08,260000/f75e49cc6ffe6b9ab51035d250b82e48-d.jpg,,
5698592,A Commentary of Jean-Paul Satre's Critique of Dialectical Reason,,Commentary on Jean-Paul Sartre's Critique of Dialectical Rea,,Joseph S. Catalano,1987,,Univ of Chicago Pr (Tx),,293,0,English,Общественные науки прочие//Философия,avaxhome.ws,,"9780226097015,0226097013",,,,,194,B2430.S33 C7297 1986,,,OL2718098M,749,0,,,,,1,,T,9685520,pdf,F92811ADBCEB93DB4121A9473A1D4451,,,Y. dl_avaxhome 749  _=Catalano1st.pdf,0,2000-01-01 01:00:00,2016-04-03 02:51:08,260000/f92811adbceb93db4121a9473a1d4451-g.jpg,,
5698589,"Globalization and Terrorism: The Migration of Dreams and Nightmares (Globalization (Lanham, MD.))",,,,Jamal R. Nassar,2004,,"Rowman & Littlefield Publishers, Inc.",,156,0,English,,avaxhome.ws,,"0742525031,9780742525030,9780742568648",,,,,,,,,OL18251807M,16086,0,,,,,,,1,707744,pdf,F706B4D5863C7D99BE237923829A35D4,,,Y. dl_avaxhome 16086 teroer  _=0742525031.pdf,0,2000-01-01 01:00:00,2016-04-03 02:51:08,260000/f706b4d5863c7d99be237923829a35d4-d.jpg,,
5698590,Mars,,Worlds Beyond,,Ron Miller,2004,,21st Century,,98,0,English,Физика//Астрономия,avaxhome.ws,,0761323627,,,,,,,,,,5605,0,,,,,,,T,2394345,pdf,F73CAE586794C45958675DA849A44A11,,,Y. dl_avaxhome 5605  _=0761323627.pdf,0,2000-01-01 01:00:00,2016-04-03 02:51:08,260000/f73cae586794c45958675da849a44a11-d.jpg,,
5698587,Structural Colors in the Realm of Nature,,,,Shuichi Kinoshita,2008,,World Scientific Publishing Company,,367,0,English,Наука (общее)//Научно-популярное,avaxhome.ws,,9812707832,,,,,591.472,QL767 .K56 2008,,,OL23606949M,1738,0,,,,,,,T,22979308,pdf,F6C109F20A329D5003E33031DD7F9EC6,,,Y. dl_avaxhome 1738  _=9812707832.pdf,0,2000-01-01 01:00:00,2016-04-03 02:51:08,260000/f6c109f20a329d5003e33031dd7f9ec6-d.jpg,,
5698588,Солдатский долг,,Полководцы Великой Отечественной,,К. К. Рокоссовский,1997,,Воениздат,,480,0,Russian,,,0,5-203-00489-7,,,,,,,,,,худ. лит,0,,,,,,,,1287270,pdf,F6CCA613DD2FF2C744856F5BE550FAAA,,,,0,2000-01-01 01:00:00,2016-04-03 02:51:08,260000/f6cca613dd2ff2c744856f5be550faaa-g.jpg,,
5698586,Arthritis: How to Stay Active and Relieve Your Pain,,,,"Barbara Stokes, Antoine Helewa",2007,1,Bull Publishing Company,,440,0,English,Образование,avaxhome.ws,,"9781933503035,1933503033",,,,,,,,,OL12338522M,16163,0,,,,,,,T,2921792,pdf,F6AF88AD14C4A3B21C271476F7524143,,,Y. dl_avaxhome 16163  _=Arthritis_How_to_Stay_Active_and_Relieve_Your_Pain.pdf,0,2000-01-01 01:00:00,2016-04-03 02:51:08,260000/f6af88ad14c4a3b21c271476f7524143-d.jpg,,
5698583,Strategic Intelligence (Intelligence and the Quest for Security,v. 1-5,,,,2006,,Praeger,,1807,0,English,Общественные науки прочие,avaxhome.ws,,0275989429,,,,,,,,,,1625,0,,,,,,,,13046983,pdf,F56483069EB45749EFB4536E1B46E8AE,,,Y. dl_avaxhome 1625  _=0275989429.pdf,0,2000-01-01 01:00:00,2016-04-03 02:51:08,260000/f56483069eb45749efb4536e1b46e8ae-d.jpg,,
5698584,Mitosis: Methods and Protocols,,Methods in Molecular Biology 545,,Andrew D. McAinsh,2009,1,Humana Press,,358,0,English,Медицина,avaxhome.ws,,"9781603279925,160327992X",,,,,571.844,QH605 .M59 2009,,,OL24579197M,14390,0,,,,,,,1,12797420,pdf,F621C78F489EB7634557AF3F2985EB35,,,Y. dl_avaxhome 14390  _=Mitosis_Methods_and_Protocols.pdf,0,2000-01-01 01:00:00,2016-04-03 02:51:08,260000/f621c78f489eb7634557af3f2985eb35-d.jpg,,
5698585,Basic Machines and How They Work,,,,Naval Education And Training Program,1997,Revised (1994),Dover Publications,,178,0,English,Техника,avaxhome.ws,,"0486217094,9780486217093",,,,,621.8,TJ148 .U58 1971,,,OL4581024M,411,0,,,,,1,,T,8552129,pdf,F6981B60692F4CCD0F1569DBA2FDC639,,,Y. dl_avaxhome 411  _=basic_machines.pdf,0,2000-01-01 01:00:00,2016-04-03 02:51:08,260000/f6981b60692f4ccd0f1569dba2fdc639-d.jpg,,
5698582,Fundamentals of Physics,,Regular Edition,,David Halliday,2007,8,Wiley,,1334,0,English,Физика,avaxhome.ws,,0470044721,,,,,,,,,,7543,0,,,,,,,1,28166602,pdf,F54B69105289FF6299B9AD8995468766,,,Y. dl_avaxhome 7543  _=Fundamentals_of_Physics.pdf,0,2000-01-01 01:00:00,2016-04-03 02:51:08,260000/f54b69105289ff6299b9ad8995468766-d.jpg,,
5698580,Mitral Valve Transesophageal Echocardiography,,,,Martin G. St. John Sutton,2005,1,Informa Healthcare,,327,0,English,Медицина,avaxhome.ws,,1841846082,,,,,,,,,OL22710975M,5524,0,,,,,,,T,7976143,pdf,F50C89BC4DDB3392D450C16CFD2F13E1,,,Y. dl_avaxhome 5524  _=Mitral_Valve_Transesophageal_Echocardiography.pdf,0,2000-01-01 01:00:00,2016-04-03 02:51:08,260000/f50c89bc4ddb3392d450c16cfd2f13e1-d.jpg,,
5698581,Power Geometry in Algebraic and Differential Equations,,North-Holland Mathematical Library,,,2000,1,Elsevier Science,,397,0,English,Математика,avaxhome.ws,,0444502971,,,,,,,,,,6765,0,,,,,,,T,17766182,pdf,F52DCD32643AB0CF444C623ABC4B6971,,,Y. dl_avaxhome 6765  _=444502971_Power_Geometry_in_Algebraic_and_Differential_Equations.pdf,0,2000-01-01 01:00:00,2016-04-03 02:51:08,260000/f52dcd32643ab0cf444c623abc4b6971-d.jpg,,
5698579,Governing Health: The Politics of Health Policy,,,,"Carol S. Weissert, William G. Weissert",2006,3rd,The Johns Hopkins University Press,,463,0,English,,,0,"9780801884320,0801884322",,,,,,,,,OL7871479M,,0,,,,,,,T,3021156,pdf,F4CEDC174D9B9C260B72D6EE8FFFE6FB,,,,0,2000-01-01 01:00:00,2016-04-03 02:51:08,260000/f4cedc174d9b9c260b72d6ee8fffe6fb-d.jpg,,
5698577,"Mastering the Instructional Design Process : A Systematic Approach, ",,,,William J. Rothwell,1998,2,Pfeiffer,,397,0,English,Бизнес,avaxhome.ws,,0787909483,,,,,,,,,,9139,0,,,,,,,T,17554157,pdf,F4509C8982452D8C792C51C6F97DD668,,,Y. dl_avaxhome 9139  _=mastering_instructional_design_process.pdf,0,2000-01-01 01:00:00,2016-04-03 02:51:08,260000/f4509c8982452d8c792c51c6f97dd668-d.jpg,,
5698578,Shania Twain: On My Way,,,,Dallas Williams,1997,"1st, No Additional Printing Listed",Ecw Press,,250,0,English,Искусство//Графические виды искусства,avaxhome.ws,,"155022297X,9781550222975,9781554902972",,,,,"782.42164/092,B",ML420.T953 W55 1997,,,OL409313M,7527,0,,,,,1,,T,6577624,pdf,F499A66F4E3BACF07A8E26CDA5688B3E,,,Y. dl_avaxhome 7527  _=155022297X_Shania_Twain.pdf,0,2000-01-01 01:00:00,2016-04-03 02:51:08,260000/f499a66f4e3bacf07a8e26cda5688b3e-d.jpg,,
5698576,Networking Foundations: Technology Fundamentals for IT Success,,,,Patrick Ciccarelli,2004,,Sybex,,368,0,English,Компьютеры//Сети,avaxhome.ws,,0782143717,,,,,,,,,,878,0,,,,,,,T,9273559,pdf,F4425E47D5FBFA3D7FFCDDC0A49E14D0,,,Y. dl_avaxhome 878 big43717  _=(Sybex) Networking Foundations (2004).pdf,0,2000-01-01 01:00:00,2016-04-03 02:51:08,260000/f4425e47d5fbfa3d7ffcddc0a49e14d0-d.jpg,,
5698575,The Complete Home Veterinary Guide,,,,Chris Pinney,2003,3,McGraw-Hill Professional,,821,0,English,,avaxhome.ws,,"0071412727,9780071412728",,,,,,,,,,9337,0,,,,,,,1,12698818,pdf,F433DA3270C590431F95050965C9090C,,,Y. dl_avaxhome 9337  _=V.G353464.pdf,0,2000-01-01 01:00:00,2016-04-03 02:51:08,260000/f433da3270c590431f95050965c9090c-d.jpg,,
5698573,"Dearly, Nearly, Insincerely: What Is An Adverb?",,Words Are Categorical,,"Brian P. Cleary, Brian Gable",2005,,Lerner Publications,,33,0,English,Языкознание,avaxhome.ws,,"1575059193,9781575059198,0876149247,9780876149249,9781575057217",,,,,428.2,PE1325 .C57 2003,,,OL3552514M,699,0,,,,,1,,T,4589171,pdf,F2FD6966111F896014722F488D9D2CF6,,,Y. dl_avaxhome 699  _=zz05.pdf,0,2000-01-01 01:00:00,2016-04-03 02:51:08,260000/f2fd6966111f896014722f488d9d2cf6-d.jpg,,
5698574,Brute Force: Policing Animal Cruelty,,,,Arnold Arluke,2004,1,Purdue University Press,,193,0,English,Биология//Зоология,,0,"9781557533500,1557533504",,,,,,,,,OL18218839M,,0,,,,,,,T,15602233,pdf,F37A1F91D8C9812D97CE05DEFAAF262D,,,,0,2000-01-01 01:00:00,2016-04-03 02:51:08,260000/f37a1f91d8c9812d97ce05defaaf262d-d.jpg,,
5698572,Snow Crash,,Bantam Spectra Book,,Neal Stephenson,2000,,Spectra,,463,0,English,,avaxhome.ws,,"9780553380958,0553380958",,,,,,,,,OL18141225M,13340,0,,,,,,,,886663,pdf,F2F165BB6988BEC6A77B41A9643A1D0F,,,Y. dl_avaxhome 13340  _=Snow_Crash.pdf,0,2000-01-01 01:00:00,2016-04-03 02:51:08,260000/f2f165bb6988bec6a77b41a9643a1d0f-d.jpg,,
5698570,Constitutional Reform and Political Participation in the Gulf,,,,"Abdulhadi Khalaf, Giacomo Luciani",2008,,Gulf Research Center,,304,0,English,Экономика,avaxhome.ws,,"9948432533,9789948432531",,,,,,,,,OL13208650M,11076,0,,,,,1,,T,1394599,pdf,F2E41B1575151FEB193CFC449438DD28,,,Y. dl_avaxhome 11076  _=1qipbfl5zyxr886y3kv4_14.pdf,0,2000-01-01 01:00:00,2016-04-03 02:51:08,260000/f2e41b1575151feb193cfc449438dd28-d.jpg,,
5698571,Is There Hope for Uncle Sam?,,,,Jan Nederveen Pieterse,2008,,Zed Books,,225,0,English,,avaxhome.ws,,"1848130228,9781848130227,1848130236,9781848130234",,,,,,,,,,1991,0,,,,,,,T,1344982,pdf,F2E8F587CB14A00BA170A78DFC5C64E6,,,Y. dl_avaxhome 1991  _=1848130228.pdf,0,2000-01-01 01:00:00,2016-04-03 02:51:08,260000/f2e8f587cb14a00ba170a78dfc5c64e6-d.jpg,,
5698568,"A Lime, a Mime, a Pool of Slime: More About Nouns",,Words Are Categorical,,"Brian P. Cleary, Brian Gable",2006,,Millbrook Press,,34,0,English,Языкознание,avaxhome.ws,,"9781575059372,9780822571841",,,,,428.1,PE1201 .C577 2006,,,OL3409911M,698,0,,,,,,,T,5616157,pdf,F2491A42729814157055F7A48CA5D19B,,,Y. dl_avaxhome 698  _=zz06.pdf,0,2000-01-01 01:00:00,2016-04-03 02:51:08,260000/f2491a42729814157055f7a48ca5d19b-d.jpg,,
5698569,The Noisy Pendulum,,,,Moshe Gitterman,2008,,World Scientific Publishing Company,,133,0,English,Физика,avaxhome.ws,,9812832998,,,,,531/.324,QA862.P4 .G58 2008,,,OL17030410M,1975,0,,,,,,,T,4734322,pdf,F2D926812BEB7BE3C5430E96D5A0D18F,,,Y. dl_avaxhome 1975  _=9812832998.pdf,0,2000-01-01 01:00:00,2016-04-03 02:51:08,260000/f2d926812beb7be3c5430e96d5a0d18f-d.jpg,,
5698567,Digital Engagement: Internet Marketing That Captures Customers and Builds Intense Brand Loyalty,,,,"Leland Harden, Bob Heyman",2009,,AMACOM,,257,0,English,Компьютеры//Сети//Интернет,,0,"0814410723,9780814410721",,B00280859S,,,658.8/72,HF5415.1265 .H3663 2009,,,OL16960698M,,0,,,,,1,,T,2838481,pdf,F1F7A296B4843A441F8CA6E9FDDF0E65,,,,0,2000-01-01 01:00:00,2016-04-03 02:51:08,260000/f1f7a296b4843a441f8ca6e9fddf0e65-d.jpg,,
5698565,Population Cycles: The Case for Trophic Interactions,,,,Alan Berryman,2002,,"Oxford University Press, USA",,207,0,English,Биология,avaxhome.ws,,"0195140982,9780195140989,9780195349733",,,,,591.7/88,QL752 .P635 2002,,,OL21661336M,4359,0,,,,,1,,T,3486453,pdf,F1A51655A31988E3FA21F3D5C5C8A3C7,,,Y. dl_avaxhome 4359  _=0195140982_Population_Cycles.pdf,0,2000-01-01 01:00:00,2016-04-03 02:51:08,260000/f1a51655a31988e3fa21f3d5c5c8a3c7-d.jpg,,
5698566,Ancient Ways: Reclaiming Pagan Traditions,,,,Pauline Campanelli,1991,1st,Llewellyn Publications,,237,0,English,История,avaxhome.ws,,0875420907,,,,,,,,,,685,0,,,,,,,,16778429,pdf,F1D0C45750D1AC380835C7077BDF1DF4,,,Y. dl_avaxhome 685  _=zz20.pdf,0,2000-01-01 01:00:00,2016-04-03 02:51:08,260000/f1d0c45750d1ac380835c7077bdf1df4-d.jpg,,
5698563,Reference Series,,Information Plus Reference Series,,"Carrie Snyder, Carrie Snyder",2009,illustrated edition,Information Plus,,189,0,English,,,0,"9780787651039,0787651036,9781414407623,1414407629,9781414438191,1414438192",,,,,576.5,QH430 .W49 2006,,,OL11755744M,,0,,,,,,,,3043774,pdf,F076CC078A498D6A3B5BE9002921D9CB,,,,0,2000-01-01 01:00:00,2016-04-03 02:51:08,260000/f076cc078a498d6a3b5be9002921d9cb-g.jpg,,
5698564,Medical Complications of Kidney Transplantation,,,,,2007,1,Informa Healthcare,,434,0,English,Медицина,avaxhome.ws,,0415417155,,,,,,,,,,2258,0,,,,,,,T,8449969,pdf,F158626CD3CCD13947FC9D45AB7F6EE3,,,Y. dl_avaxhome 2258  _=Medical_Complications_of_Kidney_Transplantation.pdf,0,2000-01-01 01:00:00,2016-04-03 02:51:08,260000/f158626cd3ccd13947fc9d45ab7f6ee3-d.jpg,,
5698561,Human Resource Management for Events: Managing the event workforce,,Events Management,,Lynn Van der Wagen,2006,,Butterworth-Heinemann,,272,0,English,Бизнес//Менеджмент//Управление проектами,avaxhome.ws,,"0750669985,9780750669986,9780080940977",,,,,,,,,,16065,0,,,,,1,,T,5965444,pdf,F00EEC54A337758629160F274A5DE92A,,,Y. dl_avaxhome 16065  _=managemant.pdf,0,2000-01-01 01:00:00,2016-04-03 02:51:08,260000/f00eec54a337758629160f274a5de92a-d.jpg,,
5698562,Resumes for Re-Entering the Job Market,,Professional Resumes Series,,Editors of McGraw-Hill,2008,3,McGraw-Hill,,160,0,English,Бизнес,avaxhome.ws,,0071493212,,,,,,,,,,7096,0,,,,,,,T,788735,pdf,F05606AE2E12D9F629BE29E522BE0ED4,,,Y. dl_avaxhome 7096  _=ResumobMar.pdf,0,2000-01-01 01:00:00,2016-04-03 02:51:08,260000/f05606ae2e12d9f629be29e522be0ed4-d.jpg,,
5698559,Volcanoes Inside And Out,,On My Own Science,,D. M. Souza,2005,,Millbrook Press,,50,0,English,others,avaxhome.ws,,1575058537,,,,,,,,,OL8744028M,4749,0,,,,,,,T,5556256,pdf,EFF371740C92D6E95077181B35473075,,,Y. dl_avaxhome 4749  _=1575058537.pdf,0,2000-01-01 01:00:00,2016-04-03 02:51:08,260000/eff371740c92d6e95077181b35473075-d.jpg,,
5698560,How to Present at Meetings,,HOW - How To,,George M. Hall,2007,2,BMJ Books,,86,0,English,Образование,,0,"9781405139854,1405139854",,,,,,,,,OL8406004M,,0,,,,,,,T,1229901,pdf,F00DDEC4DC5C4BB30B76BA5D7C617E77,,,,0,2000-01-01 01:00:00,2016-04-03 02:51:08,260000/f00ddec4dc5c4bb30b76ba5d7c617e77-d.jpg,,
5698558,Linear Integral Equations,,Dover Phoenix Editions,,William Vernon Lovitt,2005,,Dover Publications,,279,0,English,Математика,avaxhome.ws,,"9780486442853,0486442853",,,,,515/.45,QA431 .L7 2005,,,OL3311657M,14320,0,,,,,,,T,2830142,djvu,EFE2CAE765846450FC81DEBBF7E3BEDA,,,Y. dl_avaxhome 14320  _=70630.090529010439.djvu,0,2000-01-01 01:00:00,2016-04-03 02:51:08,260000/efe2cae765846450fc81debbf7e3beda-d.jpg,,
5698556,Monochrome and Colour Television,,,,R.R. Gulati,2005,2,New Age Publications (Academic),,711,0,English,,,0,"8122416071,9788122424898",,,,,,,,,,,0,,,,,,,1,6100102,pdf,EF6F6D121E310D308D3BF43B48A1D82F,,,,0,2000-01-01 01:00:00,2016-04-03 02:51:08,260000/ef6f6d121e310d308d3bf43b48a1d82f-g.jpg,,
5698557,Condensed Matter Theories: Proceedings of the 31st International Workshop,,,,Virulh Sa-Yakanit,2009,,World Scientific Publishing Company,,499,0,English,Образование//Международные конференции и симпозиумы,avaxhome.ws,,9812836616,,,,,,,,,,1680,0,,,,,,,1,25109387,pdf,EFA4930B428F3076F09FA888CF18F01B,,,Y. dl_avaxhome 1680  _=Condensed_Matter_Theories_Proceedings_of_the_31st_International_Workshop.pdf,0,2000-01-01 01:00:00,2016-04-03 02:51:08,260000/efa4930b428f3076f09fa888cf18f01b-d.jpg,,
5698555,Cardiovascular Disease in the Elderly,,Fundamental and Clinical Cardiology,,,2008,4,Informa Healthcare,,892,0,English,Медицина//Болезни//Внутренние болезни,avaxhome.ws,,1420061704,,,,,618.97/612,RC669 .C279 2008,,,OL11816822M,8471,0,,,,,,,T,28378327,pdf,EE97BD537331F1E63FE752F1A84CF963,,,Y. dl_avaxhome 8471  _=1420061704_Cardiovascular_Disease.pdf,0,2000-01-01 01:00:00,2016-04-03 02:51:08,260000/ee97bd537331f1e63fe752f1a84cf963-d.jpg,,
5698553,The World Order Ezra Pound Institute of Civilization,,,,Mullins,1992,,,,282,0,English,,,2,,,,,,,,,,,,0,0,0,,,,,T,1393072,pdf,ED80942A3F6B57FD1B4F6DAE37105401,,,,0,2000-01-01 01:00:00,2016-04-03 02:51:08,260000/ed80942a3f6b57fd1b4f6dae37105401-g.jpg,,
5698554,"Lesbian, Gay, and Bisexual Identities over the Lifespan: Psychological Perspectives",,,,"Anthony R. D'Augelli, Charlotte J. Patterson",1995,,"Oxford University Press, USA",,468,0,English,Психология,,0,"9780195082319,0195082311",,,,,155.3/4,HQ76.25 .L49 1995,,,OL1090258M,,0,,,,,,,1,32396736,pdf,EDFBBD0190487F56BBF075A3C81EC827,,,,0,2000-01-01 01:00:00,2016-04-03 02:51:08,260000/edfbbd0190487f56bbf075a3c81ec827-d.jpg,,
5698552,Never Married: Singlewomen in Early Modern England,,,,Amy M. Froide,2005,,"Oxford University Press, USA",,257,0,English,,,0,"0199270600,9780199270606,019923762X,9780199237623,9781435622708",,,,,306.81/53/09420903,HQ800.4.G72 E544 2005,,,OL10146142M,,0,,,,,1,,T,1383127,pdf,ED16BA7FA954700173DD2190E4D42482,,,,0,2000-01-01 01:00:00,2016-04-03 02:51:08,260000/ed16ba7fa954700173dd2190e4d42482-d.jpg,,
5698550,Judging Executive Power: Sixteen Supreme Court Cases that Have Shaped the American Presidency,,,,Richard J. Ellis,2009,,"Rowman & Littlefield Publishers, Inc.",,245,0,English,,,0,"0742565130,9780742565128,0742565122,9780742565135,9780742565142,0742565149",,,,,342.73/06,KF5050 .J83 2009,,,OL22658021M,,0,,,,,,,T,2372447,pdf,ED053F2BB5154022807CBB578DDA370A,,,,0,2000-01-01 01:00:00,2016-04-03 02:51:08,260000/ed053f2bb5154022807cbb578dda370a-d.jpg,,
5698551,Every Day Tarot: A Choice Centered Book,,,,Gail Fairfield,2002,Revised,Red Wheel / Weiser,,162,0,English,"Религия//Эзотерика, мистика",avaxhome.ws,,"1578632684,9781578632688",,,,,,,,,OL8754971M,702,0,,,,,1,,T,6286628,pdf,ED10BB86DAFCCBA8C36BCE946132561E,,,Y. dl_avaxhome 702  _=zz02.pdf,0,2000-01-01 01:00:00,2016-04-03 02:51:08,260000/ed10bb86dafccba8c36bce946132561e-d.jpg,,
5698549,"Fractures of the Cervical, Thoracic, and Lumbar Spine",,Mechanical Engineering Series,,Vaccaro,2002,1,Informa Healthcare,,770,0,English,Физика,avaxhome.ws,,0824707133,,,,,,,,,,4173,0,,,,,,,T,12194388,pdf,ECDAA4616E2F0DF60AD4818EF9EED216,,,Y. dl_avaxhome 4173  _=0824743970.pdf,0,2000-01-01 01:00:00,2016-04-03 02:51:08,260000/ecdaa4616e2f0df60ad4818ef9eed216-d.jpg,,
5698547,"Excuses Begone!: How to Change Lifelong, Self-Defeating Thinking Habits",,,,Dr. Wayne W. Dyer,2009,ZZZ,Hay House,,263,0,English,Образование,avaxhome.ws,,1401921736,,,,,,,,,,1958,0,,,,,,,,40905336,pdf,EC9E2C4C73571B76D3AA19DFE170D4C9,,,Y. dl_avaxhome 1958  _=EBG.pdf,0,2000-01-01 01:00:00,2016-04-03 02:51:08,260000/ec9e2c4c73571b76d3aa19dfe170d4c9-d.jpg,,
5698548,The LESI Guide to Licensing Best Practices: Strategic Issues and Contemporary Realities,,,,Robert Goldscheider,2002,1st,Wiley,,529,0,English,others,avaxhome.ws,,"0471219525,9780471219521,9780471423188",,,,,343.73/07,K1528 .L47 2002,,,OL3556549M,578,0,,,,,1,,,2330945,pdf,ECB9866FA77CFD5DE421CCCD82336F94,,,Y. dl_avaxhome 578  _=011471219525.pdf,0,2000-01-01 01:00:00,2016-04-03 02:51:08,260000/ecb9866fa77cfd5de421cccd82336f94-d.jpg,,
5698546,Quantum Aspects Of Life,,,,Derek Abbott,2008,1,Imperial College Press,,469,0,English,Физика//Квантовая физика,avaxhome.ws,,1848162537,,,,,576.8/3,QP517.Q34 .Q36 2008,,,OL16974002M,1957,0,,,,,,,T,6955890,pdf,EC92B04386FEA4A13B0EFF6D13793DF2,,,Y. dl_avaxhome 1957  _=1848162537.pdf,0,2000-01-01 01:00:00,2016-04-03 02:51:08,260000/ec92b04386fea4a13b0eff6d13793df2-d.jpg,,
5698545,A Little Tour in France,,,,Henry James,2006,,BiblioBazaar,,210,0,English,Литература//Проза,avaxhome.ws,,"9781426408175,142640817X",,,,,,,,,OL11876345M,14124,0,,,,,,,,436768,pdf,EC890B1F1A57772AAFC61696EB8A60EE,,,Y. dl_avaxhome 14124  _=Tour_in_france.pdf,0,2000-01-01 01:00:00,2016-04-03 02:51:08,260000/ec890b1f1a57772aafc61696eb8a60ee-d.jpg,,
5698543,The Emotions: Outline Of A Theory,,A Philosophical Library Book  ,,"Jean-Paul Sartre, Bernard Frechtman",1993,,Citadel,,98,0,French,,,0,"080650904X,9780806509044",,,,,,,,,OL21125640M,,0,,,,,,,1,6385336,pdf,EC7D3E549442F40B9375B2ADB4F90FA3,,,,0,2000-01-01 01:00:00,2016-04-03 02:51:08,260000/ec7d3e549442f40b9375b2adb4f90fa3-g.jpg,,
5698544,Just Doing My Job: Stories of Service from World War II,,,,"Jonna Doolittle Hoppes, General Arthur J. Lichte",2009,,Santa Monica Press,,345,0,English,История,,0,"1595800425,9781595800428,9781595809834",,,,,940.54/8173,D736 .J865 2009,,,OL23148056M,,0,,,,,,,T,8076175,pdf,EC858774402E11F0E138E3C697E74CE2,,,,0,2000-01-01 01:00:00,2016-04-03 02:51:08,260000/ec858774402e11f0e138e3c697e74ce2-d.jpg,,
5698542,Guide to Australian Moths,,,,Paul Zborowski; Ted Edwards,2007,illustrated edition,CSIRO Publishing,,225,0,English,Биология,avaxhome.ws,,0643091599,,,,,,,,,,2200,0,,,,,,,,21169948,pdf,EC5C63FB1F9C68813098A7E993EAC9F4,,,Y. dl_avaxhome 2200  _=0643091599_44.PDF,0,2000-01-01 01:00:00,2016-04-03 02:51:08,260000/ec5c63fb1f9c68813098a7e993eac9f4-d.jpg,,
5698541,Simplexity: Why Simple Things Become Complex (and How Complex Things Can Be Made Simple),,,,Jeffrey Kluger,2008,,Hyperion,,334,0,English,Общественные науки прочие//Философия,avaxhome.ws,,1401303013,,,,,501,Q173 .K5738 2008,,,OL11591021M,3735,0,,,,,,,T,1438857,pdf,EC44978FE3A0D7954B7227CF7C217A06,,,Y. dl_avaxhome 3735  _=Simplexity.PDF,0,2000-01-01 01:00:00,2016-04-03 02:51:08,260000/ec44978fe3a0d7954b7227cf7c217a06-d.jpg,,
5698539,"The Euro at Ten: Europeanization, Power, and Convergence",,,,Kenneth Dyson,2008,,"Oxford University Press, USA",,495,0,English,Биология//Генетика,,0,"0199208867,9780199208869,9780191549175",,,,,332.4/94,HG925 .E86785 2008,,,OL16798020M,,0,,,,,1,,T,5180476,pdf,EBB6DA1B6AACF251B80DAF26CF407E89,,,,0,2000-01-01 01:00:00,2016-04-03 02:51:08,260000/ebb6da1b6aacf251b80daf26cf407e89-d.jpg,,
5698540,Vegetables Are Vital,,What Should I Eat?,,Amanda Rondeau,2002,,SandCastle,,25,0,English,"Домоводство, досуг//Кулинария",avaxhome.ws,,1577658353,,,,,,,,,OL12242513M,2054,0,,,,,,,T,1277531,pdf,EBD0CBDCC0D2C7D063185851CC0D9B71,,,Y. dl_avaxhome 2054  _=oo05.pdf,0,2000-01-01 01:00:00,2016-04-03 02:51:08,260000/ebd0cbdcc0d2c7d063185851cc0d9b71-d.jpg,,
5698538,Metallothioneins in Biochemistry and Pathology,,,,"Paolo Zatta, Paolo Zatta",2008,1,World Scientific Publishing Company,,335,0,English,Техника//Металлургия,avaxhome.ws,,"9812778934,9789812778932",,,,,,,,,OL23220589M,1969,0,,,,,,,1,8469510,pdf,EBB1CFE5D83DF2BBBBDEEBEAC1525E58,,,Y. dl_avaxhome 1969  _=9812778934.pdf,0,2000-01-01 01:00:00,2016-04-03 02:51:08,260000/ebb1cfe5d83df2bbbbdeebeac1525e58-d.jpg,,
5698537,Philip Sidney and the Poetics of Renaissance Cosmopolitanism,,,,Robert E. Stillman,2008,,Ashgate,,283,0,English,,,0,"0754663698,9780754663690,9780754681199",,,,,808.1,PR2343 .S78 2008,,,OL17069352M,,0,,,,,1,,T,2572586,pdf,EB893955897AF711F18C48F0A39C1746,,,,0,2000-01-01 01:00:00,2016-04-03 02:51:08,260000/eb893955897af711f18c48f0a39c1746-d.jpg,,
5698536,Holiday Howlers: Jokes for Punny Parties,,Make Me Laugh,,Peter Roop,2003,,Carolrhoda Books,,33,0,English,"Домоводство, досуг",avaxhome.ws,,1575057050,,,,,818/.5402,PN6231.H547 R65 2004,,,OL24864477M,3530,0,,,,,,,T,1584618,pdf,EB6B7ADE8B8D07DEC7C07579FCB2338E,,,Y. dl_avaxhome 3530  _=1575057050.pdf,0,2000-01-01 01:00:00,2016-04-03 02:51:08,260000/eb6b7ade8b8d07dec7c07579fcb2338e-d.jpg,,
5698534,History of the Yale Law School,,,,Prof. Anthony T. Kronman,2004,First edition.,Yale University Press,,270,0,English,Юридические науки//Право,avaxhome.ws,,0300095643,,,,,,,,,,4649,0,,,,,,,1,1173846,pdf,EB20720F963F3694DD50B3ECF8585508,,,Y. dl_avaxhome 4649  _=History_of_the_Yale_Law_School.pdf,0,2000-01-01 01:00:00,2016-04-03 02:51:08,260000/eb20720f963f3694dd50b3ecf8585508-d.jpg,,
5698535,Divorce: Causes and Consequences,,Current Perspectives in Psychology,,Professor Alison Clarke-Stewart,2006,,Yale University Press,,360,0,English,Психология,avaxhome.ws,,0300110448,,,,,,,,,,8446,0,,,,,,,T,2319902,pdf,EB5269CB80AFAE8EB8BA40EA98D78B3B,,,Y. dl_avaxhome 8446  _=0300125933_Divorce.pdf,0,2000-01-01 01:00:00,2016-04-03 02:51:08,260000/eb5269cb80afae8eb8ba40ea98d78b3b-d.jpg,,
5698532,Biological Response Signatures: Indicator Patterns Using Aquatic Communities,,,,Thomas P. Simon,2002,1,CRC Press,,597,0,English,Биология,avaxhome.ws,,0849309050,,,,,,,,,,46,0,,,,,,,,11155181,pdf,EADDA8ED573E03C8E12ACEA1EA186133,,,Y. dl_avaxhome 46  _=0849309050_12.pdf,0,2000-01-01 01:00:00,2016-04-03 02:51:08,260000/eadda8ed573e03c8e12acea1ea186133-d.jpg,,
5698533,"Jet Combat: Hot and High, Fast and Low",,Osprey Colour Series,,Ian Black,1988,,Osprey Pub Co,,129,0,English,История,avaxhome.ws,,"9780850458398,0850458390",,,,,,,,,OL11593128M,14251,0,,,,,,,,10102135,pdf,EB0B6993CE42F3DFC1DD39FC2C9EE31A,,,Y. dl_avaxhome 14251  _=Jet_Combat.PDF,0,2000-01-01 01:00:00,2016-04-03 02:51:08,260000/eb0b6993ce42f3dfc1dd39fc2c9ee31a-g.jpg,,
5698530,Encyclopedia of Biology,,Science Encyclopedia,,"Don Rittner, Timothy Lee Mccabe",2004,illustrated edition,Facts on File,,400,0,English,Биология,avaxhome.ws,,"0816048592,9780816048595",,,,,,,,,OL11359707M,378,0,,,,,,,1,7001085,pdf,E9A0652B3159293F3CB1CC3E173A674B,,,Y. dl_avaxhome 378  _=EncyclopBiolog.pdf,0,2000-01-01 01:00:00,2016-04-03 02:51:08,260000/e9a0652b3159293f3cb1cc3e173a674b-d.jpg,,
5698531,"Molecular Chaperones and Folding Catalysts: Regulation, Cellular Functions and Mechanisms",,,,Bernd Bakau,1999,1,CRC Press,,784,0,English,,,0,"9057023709,9789057023705",,,,,572.6/45,QP552.M64 M643 1999,,,OL3630087M,,0,,,,,,,T,8490103,pdf,E9FF566A1E30AB3792EC3C919E8210F0,,,,0,2000-01-01 01:00:00,2016-04-03 02:51:08,260000/e9ff566a1e30ab3792ec3c919e8210f0-d.jpg,,
5698528,Nationalizing the Russian Empire: The Campaign against Enemy Aliens during World War I,,Russian Research Center Studies,,Eric Lohr,2003,,Harvard University Press,,245,0,English,История,,0,"0674010418,9780674010413",,,,,940.3/086/91,DK34.R9 L64 2003,,,OL3578781M,,0,,,,,1,,T,7782635,pdf,E86BA57B4F719D00A45A875450D2BCF8,,,,0,2000-01-01 01:00:00,2016-04-03 02:51:08,260000/e86ba57b4f719d00a45a875450d2bcf8-d.jpg,,
5698529,Pro Apache,,Expert's Voice,,Peter Wainwright,2004,3rd,Apress,,904,0,English,Компьютеры//Системное администрирование,avaxhome.ws,,"1590593006,9781590593004",,,,,005.713769,,,,OL22119503M,15919,0,,,,,1,,T,4882110,pdf,E8CE95E877DD1A73465047D89F331F14,,,Y. dl_avaxhome 15919  _=ProApache.pdf,0,2000-01-01 01:00:00,2016-04-03 02:51:08,260000/e8ce95e877dd1a73465047d89f331f14-d.jpg,,
5698526,"JavaScript Bible, Gold Edition",,,,Danny Goodman,2001,,Wiley,,2177,0,English,Компьютеры//Программирование//Языки программирования,avaxhome.ws,,0764547186,,,,,,,,,,2775,0,,,,,,,T,36421727,pdf,E7B9E5C77DEC8B7A491B9B6E7E8B4658,,,Y. dl_avaxhome 2775  _=J.3523464.pdf,0,2000-01-01 01:00:00,2016-04-03 02:51:08,260000/e7b9e5c77dec8b7a491b9b6e7e8b4658-d.jpg,,
5698527,Structural Genomics and High Throughput Structural Biology,,,,Michael Sundstrom,2005,1,CRC Press,,303,0,English,Биология,avaxhome.ws,,0824753356,,,,,,,,,,2107,0,,,,,,,T,6059802,pdf,E8456903F490C03890B1C2B7F4FDF43D,,,Y. dl_avaxhome 2107  _=structural_genomics_and_high_throughput_structural_biology_isbn0824753356.pdf,0,2000-01-01 01:00:00,2016-04-03 02:51:08,260000/e8456903f490c03890b1c2b7f4fdf43d-d.jpg,,
5698525,General Dynamics Aircraft and Their Predecessors,,Putnam Aviation Series,,John Wegg,1990,,Naval Inst Pr,,130,0,English,История,avaxhome.ws,,"9780870212338,0870212338",,,,,629.133/34,TL686.G4 W44 1990,,,OL2222437M,13464,0,,,,,1,,,124205857,pdf,E78B1D7A551D5AB197051AB99BBA1151,,,Y. dl_avaxhome 13464  _=General_Dynamics_Aircraft_and_their_Predecesors__Putnam_.pdf,0,2000-01-01 01:00:00,2016-04-03 02:51:08,260000/e78b1d7a551d5ab197051ab99bba1151-g.jpg,,
5698524,Computational Biology and Genome Informatics,,,,"Cathy H. Wu, Paul P. Wang, Jason T. L. Wang",2003,1,World Scientific Publishing Company,,266,0,English,Математика//Вычислительная математика,,0,"9789812382573,9812382577",,,,,,,,,OL18725479M,,0,,,,,,,T,15265016,pdf,E75E2F0D690F82E1AAFF79823A7EA90E,,,,0,2000-01-01 01:00:00,2016-04-03 02:51:08,260000/e75e2f0d690f82e1aaff79823a7ea90e-d.jpg,,
5698522,Dance of the Swan: A Story About Anna Pavlova,,Creative Minds Biographies,,Barbara Allman,2000,,Carolrhoda Books,,65,0,English,Искусство//Графические виды искусства,avaxhome.ws,,1575054639,,,,,,,,,OL8743902M,4395,0,,,,,,,T,2987646,pdf,E71906BE6FEB0926F91069214F591323,,,Y. dl_avaxhome 4395  _=1575054639.pdf,0,2000-01-01 01:00:00,2016-04-03 02:51:08,260000/e71906be6feb0926f91069214f591323-d.jpg,,
5698523,"The Nature of Design: Ecology, Culture, and Human Intention",,,,David W. Orr,2002,,"Oxford University Press, USA",,247,0,English,Наука (общее)//Научно-популярное,avaxhome.ws,,019514855X,,,,,,,,,OL7389863M,3747,0,,,,,,,T,1201573,pdf,E74A344B8EFFB7A22AABB6F472AA08E9,,,"Y. dl_avaxhome 3747  _=The_Nature_of_Design._Ecology,_Culture,_and_Human_Intention.pdf",0,2000-01-01 01:00:00,2016-04-03 02:51:08,260000/e74a344b8effb7a22aabb6f472aa08e9-d.jpg,,
5698521,Molecular Genetic Approaches in Conservation,,,,"Thomas B. Smith, Robert K. Wayne",1996,,"Oxford University Press, USA",,498,0,English,Биология//Генетика,avaxhome.ws,,"019509526X,9780195095265,9781423765134",,,,,333.95/16/0157487328,QH75 .M65 1996,,,OL986710M,8190,0,,,,,1,,T,32388265,pdf,E57E730AB5FBCB74A314F61389006AC8,,,Y. dl_avaxhome 8190  _=019509526X.pdf,0,2000-01-01 01:00:00,2016-04-03 02:51:08,260000/e57e730ab5fbcb74a314f61389006ac8-d.jpg,,
5698520,Liver Immunology: Principles and Practice,,,,"M. Eric Gershwin, John M. Vierling, Michael P. Manns",2007,1,Humana Press,,468,0,English,Медицина//Иммунология,avaxhome.ws,,"1588298183,9781588298188",,,,,,,,,OL12325753M,2777,0,,,,,,,1,17524379,pdf,E560D59D7DBE9FE376755383B10045A1,,,Y. dl_avaxhome 2777  _=Liver_Immunology_Principles_and_Practice.pdf,0,2000-01-01 01:00:00,2016-04-03 02:51:08,260000/e560d59d7dbe9fe376755383b10045a1-d.jpg,,
5698518,Winner Takes All: The Eight Keys to Developing a Winner's Attitude,,,,Ph.D. Noelle C. Nelson,2001,,Da Capo Press,,228,0,English,Бизнес,avaxhome.ws,,0738204641,,,,,,,,,,2429,0,,,,,,,T,31066019,pdf,E33B752815F7772CAD6B84239070D132,,,Y. dl_avaxhome 2429  _=mm25.pdf,0,2000-01-01 01:00:00,2016-04-03 02:51:08,260000/e33b752815f7772cad6b84239070d132-d.jpg,,
5698519,Organ Donation: Opportunities for Action,,,,Committee on Increasing Rates of Organ Donation,2006,1,National Academies Press,,358,0,English,Медицина,avaxhome.ws,,030910114X,,,,,,,,,OL10359151M,7515,0,,,,,,,T,1063193,pdf,E504A55A80059B77D6F7DFFD9C86F32E,,,Y. dl_avaxhome 7515  _=9780309101141-030910114X.pdf,0,2000-01-01 01:00:00,2016-04-03 02:51:08,260000/e504a55a80059b77d6f7dffd9c86f32e-d.jpg,,
5698517,A workbook in language teaching: With special reference to English as a foreign language,,,,Earl W Stevick,1963,,Abingdon Press,,128,0,English,Образование,avaxhome.ws,,"9780687461745,068746174X",,,,,,,,,OL11179663M,11005,0,,,,,,,1,5252428,pdf,E1669C8D86176BC145A0C5C59FB02EEC,,,Y. dl_avaxhome 11005  _=A_Workbook_in_Language_Teaching.pdf,0,2000-01-01 01:00:00,2016-04-03 02:51:08,260000/e1669c8d86176bc145a0c5c59fb02eec-g.jpg,,
5698515,Attitude 3,,,,Garside et al,2006,,Macmillan ELT,,82,0,English,Языкознание,avaxhome.ws,,9706503692,,,,,,,,,,1910,0,,,,,,,,26608002,pdf,E050750F9B48CF0C03C824B93F0DD286,,,Y. dl_avaxhome 1910  _=att_3_wb.pdf,0,2000-01-01 01:00:00,2016-04-03 02:51:08,260000/e050750f9b48cf0c03c824b93f0dd286-g.jpg,,
5698516,Encyclopedia of Islam & the Muslim World,,,,"Richard C. Martin, Said Amir Arjomand, Marcia Hermansen, Abdulkader Tayob, Rochelle Davis, John Obert Voll",2003,,Gacl,,874,0,English,Образование//Энциклопедии,avaxhome.ws,,"9780028656038,0028656032",,,,,,,,,OL15542019M,14076,0,,,,,,,T,30520071,pdf,E131EC8767D053C8F23F23BCD8216BC1,,,Y. dl_avaxhome 14076  _=Encyclopedia_of_Islam_and_the_Muslim_World_(Vol.1-2)_0028656032.pdf,0,2000-01-01 01:00:00,2016-04-03 02:51:08,260000/e131ec8767d053c8f23f23bcd8216bc1-d.jpg,,
5698513,B-2 Spirit In Action,,Aircraft No. 178,,Jim Goodall,2002,1st,Squadron/Signal Publications,,51,0,English,История,avaxhome.ws,,089747435X,,,,,,,,,OL8266920M,7878,0,,,,,,,,22582937,djvu,DFC113BDEE15A42472C594CDAD31F7D4,,,Y. dl_avaxhome 7878  _=B-2.Spirit.djvu,0,2000-01-01 01:00:00,2016-04-03 02:51:08,260000/dfc113bdee15a42472c594cdad31f7d4-d.jpg,,
5698514,The International Economy since 1945,,The Making of the Contemporary World,,Sidney Pollard,1997,1,Routledge,,134,0,English,,,0,"0415140676,9780415140676,9780203438398",,,,,330.9/045,HC59 .P597 1997,,,OL298277M,,0,,,,,1,,T,564246,pdf,E00C687884CD4CEFABC806E34EAA9B29,,,,0,2000-01-01 01:00:00,2016-04-03 02:51:08,260000/e00c687884cd4cefabc806e34eaa9b29-d.jpg,,
5698512,"How to Administer an Estate, : A Step-by-Step Guide for Families and Friends",,,,Stephen G. Christianson Esq.,2004,5,Career Press,,169,0,English,Образование,avaxhome.ws,,1564147274,,,,,346.7305/2,KF778.Z9 C48 2004,,,OL3302987M,2057,0,,,,,,,T,5790751,pdf,DFBADB35A454A2CFA8B08E474E2F723C,,,Y. dl_avaxhome 2057  _=oo02.pdf,0,2000-01-01 01:00:00,2016-04-03 02:51:08,260000/dfbadb35a454a2cfa8b08e474e2f723c-d.jpg,,
5698510,Clinical Procedures in Laser Skin Rejuvenation,,Series in Cosmetic and Laser Therapy,,,2007,1,Informa Healthcare,,234,0,English,Наука (общее)//Научно-популярное,avaxhome.ws,,041541413X,,,,,,,,,OL10205420M,1721,0,,,,,,,T,11356346,pdf,DEA96816473826F2A03E337417FD20D1,,,Y. dl_avaxhome 1721  _=Clinical_Procedures_in_Laser_Skin_Rejuvenation.pdf,0,2000-01-01 01:00:00,2016-04-03 02:51:08,260000/dea96816473826f2a03e337417fd20d1-d.jpg,,
5698511,Fish Reproductive Biology: Implications for Assessment and Management,,,,"Tore Jakobsen, Michael J. Fogarty, Bernard A. Megrey, Erlend Moksness",2009,1,Wiley-Blackwell,,286,0,English,Бизнес//менеджмент,avaxhome.ws,,"9781405121262,1405121262",,,,,639.3,SH329.F56 F57 2009,,,OL11650027M,14850,0,,,,,,,,9927852,pdf,DEBF19C5B2DDEB70C090DAD4B349F74B,,,Y. dl_avaxhome 14850  _=iff1.pdf,0,2000-01-01 01:00:00,2016-04-03 02:51:08,260000/debf19c5b2ddeb70c090dad4b349f74b-d.jpg,,
5698509,Physical Biology: From Atoms to Medicine,,,,"Ahmed Zewail, Ahmed Zewail",2008,1,Imperial College Press,,582,0,English,Физика,duansci.com,0,"1848161999,1848162006,9781848161993,9781848162006",,,,,570,QH505 .P457 2008,,,OL16679142M,,0,,,,,,,1,112526588,pdf,DE90239EF5644D36346561318F44EA93,,,,0,2000-01-01 01:00:00,2016-04-03 02:51:08,260000/de90239ef5644d36346561318f44ea93-d.jpg,,
5698507,Buying & Selling Jewelry on eBay,,Buying & Selling on Ebay,,Stacey King Gordon,2005,1,Course Technology PTR,,289,0,English,,,0,"1592006094,9781592006090,9781592006106",,,,,,,,,OL3316579M,,0,,,,,1,,T,9340585,pdf,DE3DB0EB59E36CC5D61C05555D5CF487,,,,0,2000-01-01 01:00:00,2016-04-03 02:51:08,260000/de3db0eb59e36cc5d61c05555d5cf487-d.jpg,,
5698508,Sydney Omarr's Day-By-Day Astrological Guide for the Year 2010: Aquarius,,Sydney Omarr's Day By Day Astrological Guide for Aquarius,,Trish MacGregor,2009,,Signet,,317,0,English,Математика//Математическая логика,avaxhome.ws,,0451227204,,,,,,,,,,522,0,,,,,,,T,1660273,pdf,DE8C75D04FD477B507732752042A2BEC,,,Y. dl_avaxhome 522  _=Sydney_Omarr_s_Day-By-Day_Astrological_Guide_for_the_Year_2010_-_Aquarius.pdf,0,2000-01-01 01:00:00,2016-04-03 02:51:08,260000/de8c75d04fd477b507732752042a2bec-d.jpg,,
5698505,GABA,,Advances in Pharmacology Volume 54,,"S.J. Enna, J. Thomas August, Ferid Murad",2006,1,Academic Press,,360,0,English,,,0,"9780080464732,9780120329571,0120329573",,,,,615/.78,QP563.G32 G315 2006,,,OL22650830M,,0,,,,,1,,T,6968863,pdf,DDEB69BFE98B20C755E165EDE209F709,,,,0,2000-01-01 01:00:00,2016-04-03 02:51:08,260000/ddeb69bfe98b20c755e165ede209f709-d.jpg,,
5698506,"Feminism and Motherhood in Western Europe, 1890-1970: The Maternal Dilemma",,,,Ann Taylor Allen,2005,1st,Palgrave Macmillan,,367,0,English,,,0,"1403962367,9781403962362,9781403981431",,,,,,,,,OL22636019M,,0,,,,1,0,,T,2067910,pdf,DE2924CCA5C42A65069C4BD996E3F46E,,,,0,2000-01-01 01:00:00,2016-04-03 02:51:08,260000/de2924cca5c42a65069c4bd996e3f46e-d.jpg,,
5698504,Practical Science for Gardeners,,,,Mary Pratt,2005,,"Timber Press, Incorporated",,177,0,English,Наука (общее)//Научно-популярное,avaxhome.ws,,088192718X,,,,,,,,,OL8176423M,2444,0,,,,,,,T,9040657,pdf,DDE73BAC6F74D528E588A9E3A9EA0459,,,Y. dl_avaxhome 2444  _=mm14.pdf,0,2000-01-01 01:00:00,2016-04-03 02:51:08,260000/dde73bac6f74d528e588a9e3a9ea0459-d.jpg,,
5698502,The Fifth Postulate: How Unraveling A Two Thousand Year Old Mystery Unraveled the Universe,,,,Jason Socrates Bardi,2008,First Edition,Wiley,,268,0,English,Математика//Анализ,,0,"0470149094,9780470149096,047039613X,9780470396131,0470396121,9780470396124,0470467363,9780470467367",,,,,516.2,QA481 .B237 2008,,,OL16700322M,,0,,,,,,,T,2010989,pdf,DDC394379733147862CF803FA13A1E0F,,,,0,2000-01-01 01:00:00,2016-04-03 02:51:08,260000/ddc394379733147862cf803fa13a1e0f-d.jpg,,
5698503,Britons in Anglo-Saxon England,,Publications of the Manchester Centre for Anglo-Saxon Studies) (Pubns Manchester Centre for Anglo-Saxon Studies,,"Nick Higham, Nick Higham",2007,,Boydell Press,,268,0,English,,,0,"9781843833123,1843833123",,,,,942.01,,,,OL20929003M,,0,,,,,,,T,2585152,pdf,DDC5B48128DC668AB06FFAF9D9BE8F6E,,,,0,2000-01-01 01:00:00,2016-04-03 02:51:08,260000/ddc5b48128dc668ab06ffaf9d9be8f6e-d.jpg,,
5698501,Status Epilepticus: A Clinical Perspective,,Current Clinical Neurology,,Frank W. Drislane,2005,,"Humana Press Inc.,U.S.",,368,0,English,Медицина//Клиническая медицина,,0,"9781592599455,1592599451,1588293556",,,,,616.8/53,RC372 .S767 2005,,,OL18910024M,,0,,,,,,,,7413575,pdf,DD98B9ADF31601DADF5FB3E0F793AFAB,,,,0,2000-01-01 01:00:00,2016-04-03 02:51:08,260000/dd98b9adf31601dadf5fb3e0f793afab-g.jpg,,
5698500,Maximum PC Guide to Building a Dream PC,,Maximum PC Guide To...,,Maximum PC,2004,illustrated edition,Que,,280,0,English,hardware,avaxhome.ws,,0789731932,,,,,,,,,,1539,0,,,,,,,,21933713,pdf,DD72F8395E22C6B609A51B109CA34D5E,,,Y. dl_avaxhome 1539  _=Maximum_PC_Guide_to_Building_a_Dream_PC-9780789731937.pdf,0,2000-01-01 01:00:00,2016-04-03 02:51:08,260000/dd72f8395e22c6b609a51b109ca34d5e-d.jpg,,
5698498,Biographical Encyclopedia of Scientists,,,,John Daintith,2008,3,Taylor & Francis,,873,0,English,Образование//Энциклопедии,,0,"1420072714,9781420072716",,,,,"509.2/2,B",Q141 .B53 2008,,,OL11817303M,,0,,,,0,0,,1,8344789,pdf,DBBBB6C99D8C06F87395EAAF0EB9BEC7,,,,0,2000-01-01 01:00:00,2016-04-03 02:51:08,260000/dbbbb6c99d8c06f87395eaaf0eb9bec7-d.jpg,,
5698499,The Event Manager's Bible: How to Plan and Deliver an Event,,,,Des Conway,2006,2,How to Books,,329,0,English,Образование,avaxhome.ws,,"9781845281342,1845281349",,,,,,,,,OL8958614M,16355,0,,,,,,,T,22847209,pdf,DCB29A75BCDE90BFA08D7E5BB4F1070F,,,Y. dl_avaxhome 16355  _=h10.pdf,0,2000-01-01 01:00:00,2016-04-03 02:51:08,260000/dcb29a75bcde90bfa08d7e5bb4f1070f-d.jpg,,
5698496,Sabiston Textbook of Surgery,,,,Courtney M. Townsend,2004,17,Saunders,,3129,0,English,Медицина,avaxhome.ws,,0721604099,,,,,,,,,,2801,0,,,,,,,T,120834901,pdf,DB4985D09E0F137170FEB4A17AABFF6D,,,Y. dl_avaxhome 2801  _=Sabiston_Textbook_of_Surgery_17Th_Edition.pdf,0,2000-01-01 01:00:00,2016-04-03 02:51:08,260000/db4985d09e0f137170feb4a17aabff6d-d.jpg,,
5698497,"Understanding Automotive Electronics, ",,,,William Ribbens,1998,5,Newnes,,447,0,English,Техника//Электроника,avaxhome.ws,,0750670088,,,,,,,,,,733,0,,,,,,,T,17655780,pdf,DB568A228C3D5CF1DDE8CCF33C210096,,,Y. dl_avaxhome 733  _=AutomElectron.pdf,0,2000-01-01 01:00:00,2016-04-03 02:51:08,260000/db568a228c3d5cf1dde8ccf33c210096-d.jpg,,
5698494,OECD Private Pensions Outlook 2008,,,,OECD Organisation for Economic Co-operation and Development,2009,,OECD Publishing,,313,0,English,Компьютеры//Программы//Офисные программы,,0,"9264044388,9789264044388",,,,,,,,,,,0,,,,,,,,11640190,pdf,DB0DAD758AB389F99A08A75DC7462E6B,,,,0,2000-01-01 01:00:00,2016-04-03 02:51:08,260000/db0dad758ab389f99a08a75dc7462e6b-d.jpg,,
5698495,Vickers Supermarine Spitfire F Mk.22 / 24,,4+ Publications,,Michal Ovcacik,2006,,MARK I Ltd. / 4+ Publications,,32,0,English,История,avaxhome.ws,,8086637034,,,,,,,,,,3368,0,,,,,,,,6843245,pdf,DB2994C35097021D79DD976FD49BA08B,,,Y. dl_avaxhome 3368  _=Spitfire_F_Mk.22___24__Mark_1_Guide_.pdf,0,2000-01-01 01:00:00,2016-04-03 02:51:08,260000/db2994c35097021d79dd976fd49ba08b-g.jpg,,
5698493,Express Review Guides: Vocabulary,,,,LearningExpress Editors,2007,,"LearningExpress, LLC",,200,0,English,Языкознание//Словари,,0,"1576856283,9781576856284",,,,,428.1071/2,LB1631 .E97 2007,,,OL17847773M,,0,,,,,,,T,1356605,pdf,DA9AAC3A7393E526505239FBEB1793CE,,,,0,2000-01-01 01:00:00,2016-04-03 02:51:08,260000/da9aac3a7393e526505239fbeb1793ce-d.jpg,,
5698491,All-Girl Crafts,,,,Kathy Ross,2005,,First Avenue Editions,,50,0,English,"Домоводство, досуг",avaxhome.ws,,0761323910,,,,,,,,,,689,0,,,,,,,T,12313722,pdf,DA30A63F5AB02408E34E38F8826F0D5A,,,Y. dl_avaxhome 689  _=zz15.pdf,0,2000-01-01 01:00:00,2016-04-03 02:51:08,260000/da30a63f5ab02408e34e38f8826f0d5a-d.jpg,,
5698492,Seeing Black and White,,Oxford Psychology Series,,Alan Gilchrist,2006,1,"Oxford University Press, USA",,449,0,English,,avaxhome.ws,,"0195187164,9780195187168,9781429420426",,"B001K25S0Y,B002CA6XBQ",,,,,,,OL17726163M,6866,0,,,,,1,,T,4393067,pdf,DA6E384D61E8A40EF21F532A96226159,,,Y. dl_avaxhome 6866  _=0195187164.pdf,0,2000-01-01 01:00:00,2016-04-03 02:51:08,260000/da6e384d61e8a40ef21f532a96226159-d.jpg,,
5698489,Adhesion Protein Protocols,,Methods in Molecular Biology,,Amanda S. Coutts,2007,2nd,Humana Press,,245,0,English,Биология//Биотехнология,,0,"9781588295330,1588295338,1597453536",,,,,,,,,OL22751531M,,0,,,,,,,,5620281,pdf,DA19AD8DA1CD65B98C9A308E1A30D7EF,,,,0,2000-01-01 01:00:00,2016-04-03 02:51:08,260000/da19ad8da1cd65b98c9a308e1a30d7ef-d.jpg,,
5698490,"Sample Survey Methods and Theory, Theory",Volume 2,Wiley Classics Library,,Morris H. Hansen,1993,Reprint,Wiley-Interscience,,346,0,English,Математика,avaxhome.ws,,0471309664,,,,,,,,,,8462,0,,,,,,,T,9007135,djvu,DA20AE50CE022F6308101D229DABAA08,,,Y. dl_avaxhome 8462  _=SampleSurveyMethods.djvu,0,2000-01-01 01:00:00,2016-04-03 02:51:08,260000/da20ae50ce022f6308101d229dabaa08-d.jpg,,
5698488,Patent Law and Theory: A Handbook of Contemporary Research,,Research Handbooks in Intellectual Property,,Toshiko Takenaka,2009,,Edward Elgar Pub,,803,0,English,Юридические науки//Право,avaxhome.ws,,1845424131,,,,,346.0486,K1505 .P3745 2008,,,OL23686703M,443,0,,,,,,,T,8574877,pdf,D9B313FA9BB5CF72AC7671BE32CE0F8F,,,Y. dl_avaxhome 443  _=299923___1845424131_13.pdf,0,2000-01-01 01:00:00,2016-04-03 02:51:08,260000/d9b313fa9bb5cf72ac7671be32ce0f8f-d.jpg,,
5698487,Decision Support for Natural Disasters and Intentional Threats to Water Security,,NATO Science for Peace and Security Series C: Environmental Security,,"Tissa H. Illangasekare, Katarina Mahutova, John J. Barich",2009,1,Springer,,258,0,English,Техника//Водоочистка,avaxhome.ws,,9048127122,,,,,,,,,,2001,0,,,,,,,T,25365100,pdf,D98D82887E78D09D09E55423BEA858D6,,,Y. dl_avaxhome 2001  _=GGP528.pdf,0,2000-01-01 01:00:00,2016-04-03 02:51:08,260000/d98d82887e78d09d09e55423bea858d6-d.jpg,,
5698486,"The Political Economy of Poverty, Equity, and Growth: A Comparative Study",,,,"Deepak Lal, H. Myint",1999,,"Oxford University Press, USA",,477,0,English,Экономика,,0,"0198294328,9780198294320,0198288638,9780198288633,9780191522260",,,,,,,,,OL623938M,,0,,,,,1,,T,3590461,pdf,D9388EC07046F6E288C096BDFF53F5FB,,,,0,2000-01-01 01:00:00,2016-04-03 02:51:08,260000/d9388ec07046f6e288c096bdff53f5fb-d.jpg,,
5698484,Goodness and Justice: A Consequentialist Moral Theory,,Cambridge Studies in Philosophy,,Joseph Mendola,2006,,Cambridge University Press,,336,0,English,Общественные науки прочие//Философия,,0,"0521859530,9780521859530",,,,,171/.5,BJ1031 .M46 2006,,,OL3404238M,,0,,,,,,,T,2872198,pdf,D8AD2F300BB349A6A9301B3CAC0F88C9,,,,0,2000-01-01 01:00:00,2016-04-03 02:51:08,260000/d8ad2f300bb349a6a9301b3cac0f88c9-d.jpg,,
5698485,Science and Polity in France: The Revolutionary and Napoleonic Years,,,,Charles Coulston Gillispie,2004,,Princeton University Press,,764,0,English,История,avaxhome.ws,,"0691115419,9780691115412,0691118493,9780691118499,9781400824618",,,,,509/.44,Q127.F8 G53 2004,,,OL13636131M,401,0,,,,,1,,T,3639454,pdf,D8F3DB99377D7C31B1F57C9947C56B09,,,Y. dl_avaxhome 401  _=0691115419_17.pdf,0,2000-01-01 01:00:00,2016-04-03 02:51:08,260000/d8f3db99377d7c31b1f57c9947c56b09-d.jpg,,
5698483,Gramsci and Marxist Theory,,,,Chantal Mouffe,1979,,Routledge & Kegan Paul Books,,289,0,English,Общественные науки прочие//Философия,avaxhome.ws,,"9780710003584,0710003587",,,,,335.43/092/4,HX288.G7 G73 1979,,,OL4425351M,15956,0,,,,,,,,19884338,pdf,D86353C33D3285F5008054EE7BCA17EA,,,Y. dl_avaxhome 15956  _=0710003587.pdf,0,2000-01-01 01:00:00,2016-04-03 02:51:08,260000/d86353c33d3285f5008054ee7bca17ea-g.jpg,,
5698481,Islamic Biomedical Ethics: Principles and Application,,,,Abdulaziz Sachedina,2009,1,"Oxford University Press, USA",,291,0,English,Религия,avaxhome.ws,,0195378504,,,,,,,,,,4704,0,,,,,,,T,2597936,pdf,D7F418E8131752DD45BE5588A4CD17CF,,,Y. dl_avaxhome 4704  _=IslamicBiomedicalEthics.pdf,0,2000-01-01 01:00:00,2016-04-03 02:51:08,260000/d7f418e8131752dd45be5588a4cd17cf-d.jpg,,
5698482,Offender Rehabilitation and Treatment: Effective Programmes and Policies to Reduce Re-offending,,Wiley Series in Forensic Clinical Psychology,,James McGuire,2003,,Wiley,,413,0,English,Медицина//Судебная,avaxhome.ws,,"9780471987611,0471987611",,,,,,,,,OL17073920M,16301,0,,,,,,,T,2535640,pdf,D833703EF5AD6AF863B60AF280968FAB,,,Y. dl_avaxhome 16301  _=offender_rehabilitation_and_treatment.pdf,0,2000-01-01 01:00:00,2016-04-03 02:51:08,260000/d833703ef5ad6af863b60af280968fab-d.jpg,,
5698480,"The Psychiatrist As Expert Witness, ",,,,Thomas G. Gutheil,2009,2,"American Psychiatric Publishing, Inc.",,166,0,English,Психология,avaxhome.ws,,"1585623423,9781585623426,9781585628933",,,,,614/.1,KF8965 .G8 2009,,,OL22658553M,15965,0,,,,,,,T,876591,pdf,D7D87DE6D818D80F2AB1A983FB0D26BE,,,Y. dl_avaxhome 15965  _=1585623423 Expert Witness.pdf,0,2000-01-01 01:00:00,2016-04-03 02:51:08,260000/d7d87de6d818d80f2ab1a983fb0d26be-d.jpg,,
5698477,Evaluating Contract Claims,,,,R. Peter Davison,2008,2,Wiley-Blackwell,,313,0,English,Техника,avaxhome.ws,,1405159200,,,,,,,,,,7474,0,,,,,,,T,2734176,pdf,D6AA476DD8C6A6602A1C9A2BF68C2A80,,,Y. dl_avaxhome 7474  _=Evaluating_Contract_Claims.pdf,0,2000-01-01 01:00:00,2016-04-03 02:51:08,260000/d6aa476dd8c6a6602a1c9a2bf68c2a80-d.jpg,,
5698478,Introduction to Behavioral Research Methods,,,,Mark R. Leary,2000,3,Allyn & Bacon,,454,0,English,,avaxhome.ws,,0205322042,,,,,,,,,,6814,0,,,,,,,T,8689670,pdf,D6E1D8BFBDF5F1AC8A47A15D50BD50A2,,,Y. dl_avaxhome 6814  _=Research_Methods_Leary.pdf,0,2000-01-01 01:00:00,2016-04-03 02:51:08,260000/d6e1d8bfbdf5f1ac8a47a15d50bd50a2-d.jpg,,
5698479,The New Princeton Encyclopedia of Poetry and Poetics,,,,,1993,3 Sub,Princeton Univ Pr,,1426,0,English,Образование//Энциклопедии,avaxhome.ws,,0691032718,,,,,,,,,,633,0,,,,,,,,144731650,pdf,D7260FFF31147435262B3AFC8D03F947,,,Y. dl_avaxhome 633  _=princeton_poetry.pdf,0,2000-01-01 01:00:00,2016-04-03 02:51:08,260000/d7260fff31147435262b3afc8d03f947-d.jpg,,
5698476,Ideology Politics and Diplomacy in East Central Europe,,Rochester Studies in Central Europe,,M. B. B. Biskupski,2003,,University of Rochester Press,,294,0,English,,,0,"1580461379,9781580461375,1580461557,9781580461559,9781580466738",,,,,943/.0009/04,DJK48.5 .I33 2003,,,OL3673685M,,0,,,,,1,,T,2247026,pdf,D66F50185F82E34D7E79CF8FF8C1EEBD,,,,0,2000-01-01 01:00:00,2016-04-03 02:51:08,260000/d66f50185f82e34d7e79cf8ff8c1eebd-d.jpg,,
5698475,Immigrant Stories: Ethnicity and Academics in Middle Childhood,,Child Development in Cultural Context,,"Cynthia Garcia Coll, Amy Kerivan Marks",2009,1,"Oxford University Press, USA",,299,0,English,,avaxhome.ws,,"0195174593,9780195174595",,B002BKRR5S,,,305.23086/9120973,HQ792.U5 G37 2009,,,OL10133683M,884,0,,,,,1,,T,1094750,pdf,D62EA7988606B78F61CC7F2D70F72E8F,,,Y. dl_avaxhome 884  _=0195174593.pdf,0,2000-01-01 01:00:00,2016-04-03 02:51:08,260000/d62ea7988606b78f61cc7f2d70f72e8f-d.jpg,,
5698474,Inconceivable Conceptions: Psychological Aspects of infertility and Reproductive Technology,,,,"Juliet Miller, Jane Haynes",2003,,Routledge,,182,0,English,Психология,,0,"1583911685,9781583911686",,,,,616.6/92/0019,RC889 .H328 2003,,,OL22525105M,,0,,,,,1,,T,1468148,pdf,D5A2C5A15115CB88C7C12AA61028D26E,,,,0,2000-01-01 01:00:00,2016-04-03 02:51:08,260000/d5a2c5a15115cb88c7c12aa61028d26e-d.jpg,,
5698472,Military Model Showcase,,Europa Militaria 012,,Bill Horan,1993,,crowood press,,64,0,English,История//Военная история,avaxhome.ws,,1872004288,,,,,,,,,OL8652159M,2129,0,,,,,,,T,9263694,pdf,D47B4BB04D49D69A491B1E174A4491E2,,,Y. dl_avaxhome 2129  _=Europa Militaria 012 - Military Model Showcase.PDF,0,2000-01-01 01:00:00,2016-04-03 02:51:08,260000/d47b4bb04d49d69a491b1e174a4491e2-g.jpg,,
5698473,The Touch of Twilight,,"Sign of the Zodiac, Book 3",,Vicki Pettersson,2008,First Printing - Reissue,Eos,,422,0,English,Техника,avaxhome.ws,,"9780060898939,0060898933",,,,,813/.6,,,,OL22689434M,14416,0,,,,,,,T,1691939,pdf,D4A57D5BFEB786C902823754FBC3D439,,,Y. dl_avaxhome 14416  _=0060898933.pdf,0,2000-01-01 01:00:00,2016-04-03 02:51:08,260000/d4a57d5bfeb786c902823754fbc3d439-d.jpg,,
5698471,Effective Writing Skills for Public Relations,,PR in Practice,,John Foster,2008,4th,Kogan Page,,288,0,English,Бизнес//Маркетинг//Реклама,avaxhome.ws,,"9780749451097,0749451092",,,,,808/.066659,HF5718.3 .F67 2008,,,OL16505561M,16189,0,,,,,,,T,13327084,pdf,D3F34504E5FBEE3059BF6A403228891E,,,Y. dl_avaxhome 16189  _=WrSkillsPR.pdf,0,2000-01-01 01:00:00,2016-04-03 02:51:08,260000/d3f34504e5fbee3059bf6a403228891e-d.jpg,,
5698469,Using their Brains in Science: Ideas for Children Aged 5 to 14,,,,Ms Hellen Ward,2007,,Sage Publications Ltd,,161,0,English,,avaxhome.ws,,"9781412946643,1412946646",,,,,,,,,OL11717199M,15771,0,,,,,,,1,2876533,pdf,D3B9A337C42A65F2993D58A837171C4D,,,Y. dl_avaxhome 15771  _=1412946646_Using_their_Brains.pdf,0,2000-01-01 01:00:00,2016-04-03 02:51:08,260000/d3b9a337c42a65f2993d58a837171c4d-d.jpg,,
5698470,Kant's 'Critique of Pure Reason',,,,"Theodor Adorno, Rolf Tiedemann, Rodney Livingstone",2002,1,Stanford University Press,,312,0,English,Общественные науки прочие//Философия,avaxhome.ws,0,"0804744262,9780804744263",,,,,,,,,,909,0,,,,,1,,,2981698,djvu,D3BFC7B48CFF3A3FB1F4157F2C4B64E5,,,Y. dl_avaxhome 909  _=b2779a3613.djvu,0,2000-01-01 01:00:00,2016-04-03 02:51:08,260000/d3bfc7b48cff3a3fb1f4157f2c4b64e5-d.jpg,,
5698467,"Chemsitry Was Their Life: Pioneer British Women Chemists, 1880-1949",,,,Geoff Rayner-Canham,2009,,Imperial College Press,,561,0,English,Химия,avaxhome.ws,,"9781860949869,186094986X",,,,,540.820973 22,QD20 .R385 2008,,,OL23632518M,1986,0,,,,,,,T,2794506,pdf,D2CBA006181D94DF85A9A29D457153DF,,,Y. dl_avaxhome 1986  _=186094986X.pdf,0,2000-01-01 01:00:00,2016-04-03 02:51:08,260000/d2cba006181d94df85a9a29d457153df-d.jpg,,
5698468,New Directions in Austrian Economics,,Studies in Economic Theory,,Louis M. Spadaro,1981,,New York University Press,,251,0,English,Экономика,avaxhome.ws,,0836251032,,,,,,,,,,9529,0,,,,,1,,T,12311153,pdf,D3AC8C74884CA15378A17E7B73DF2255,,,Y. dl_avaxhome 9529  _=226910___newdirections__1.pdf,0,2000-01-01 01:00:00,2016-04-03 02:51:08,260000/d3ac8c74884ca15378a17e7b73df2255-d.jpg,,
5698465,Atlantic Families: Lives and Letters in the Later Eighteenth Century,,,,Sarah M. S. Pearsall,2009,,"Oxford University Press, USA",,309,0,English,,,0,"0199532990,9780199532995,9780191559792",,,,,306.85089/2107,HQ613 .P44 2008,,,OL17029809M,,0,,,,,1,,T,2720898,pdf,D1024413D48662452A9BC7F7AE326FCE,,,,0,2000-01-01 01:00:00,2016-04-03 02:51:08,260000/d1024413d48662452a9bc7f7ae326fce-d.jpg,,
5698466,Principles and Practice of Neuropathology,,Medicine,,"James S. Nelson, Hernando Mena, Joseph E. Parisi, Sydney S. Schochet",2003,2,"Oxford University Press, USA",,608,0,English,Медицина,avaxhome.ws,,"9780195125894,0195125894,9781423784760",,,,,,,,,OL9887796M,15578,0,,,,,1,,,42734244,pdf,D1AF5120D7D16FF91255ABF234B6F0A9,,,Y. dl_avaxhome 15578  _=prisgy.pdf,0,2000-01-01 01:00:00,2016-04-03 02:51:08,260000/d1af5120d7d16ff91255abf234b6f0a9-d.jpg,,
5698463,"ICTs and Indian Economic Development: Economy, Work, Regulation",,,,"Dr Ashwani Saith, M Vijayabaskar",2005,,SAGE Publications,,475,0,English,Экономика,,0,"9780761933397,0761933395",,,,,,,,,OL8029613M,,0,,,,,,,T,5851120,pdf,D0F78CD9963DEA3E6FCC89B3A881B3E8,,,,0,2000-01-01 01:00:00,2016-04-03 02:51:08,260000/d0f78cd9963dea3e6fcc89b3a881b3e8-d.jpg,,
5698464,Understanding Menopause,,Understanding Illness and Health  ,,Karen Ballard,2003,,Wiley,,132,0,English,Медицина,avaxhome.ws,,047084471X,,,,,,,,,OL9765305M,7964,0,,,,,,,1,1159736,pdf,D0FF3C4EA19A9DDC6A7A0C8A1A5934AE,,,Y. dl_avaxhome 7964  _=047084471x.pdf,0,2000-01-01 01:00:00,2016-04-03 02:51:08,260000/d0ff3c4ea19a9ddc6a7a0c8a1a5934ae-d.jpg,,
5698462,The Effects of Estrogen on Brain Function,,,,Natalie L. Rasgon,2006,1,The Johns Hopkins University Press,,181,0,English,,avaxhome.ws,,"0801882826,9780801882821,9780801888908",,,,,616.8/0461,RC553.C64 E44 2006,,,OL22732484M,2146,0,,,,,1,,T,2135301,pdf,D05FD06BC78E58F17CA9003B5EFB0D4C,,,Y. dl_avaxhome 2146  _=D101.pdf,0,2000-01-01 01:00:00,2016-04-03 02:51:08,260000/d05fd06bc78e58f17ca9003b5efb0d4c-d.jpg,,
5698460,Anadenanthera: Visionary Plant Of Ancient South America,,,,Constantino M Torres,2006,1,Routledge,,343,0,English,Биология//Растения//Ботаника,avaxhome.ws,,0789026422,,,,,,,,,,4353,0,,,,,,,,53854928,pdf,D04B1CE365344C286BA2DD320E32DF93,,,Y. dl_avaxhome 4353  _=127094___anadenanthera-visionary_plant_of_ancient_south_america-torres_repke-0789026422.pdf,0,2000-01-01 01:00:00,2016-04-03 02:51:08,260000/d04b1ce365344c286ba2dd320e32df93-d.jpg,,
5698461,The Early Modern European Economy,,European History in Perspective,,Peter Musgrave,1999,,Palgrave Macmillan,,245,0,English,,,0,"9780333665428,0333665422",,,,,,,,,,,0,,,,,,,T,945899,pdf,D05029533A11C3900D8C00D2BED82EDE,,,,0,2000-01-01 01:00:00,2016-04-03 02:51:08,260000/d05029533a11c3900d8c00d2bed82ede-d.jpg,,
5698459,Design Of Nonlinear Control Systems With The Highest Derivative In Feedback,,"Series on Stability, Vibration and Control of Systems, Series a",,Valery D. Yurkevich,2004,,World Scientific Publishing Company,,374,0,English,Математика//Теория автоматического управления,avaxhome.ws,,9812388990,,,,,,,,,OL9196598M,4339,0,,,,,,,T,15678375,pdf,D03C8132FA4B7178468BF36D897E3EFA,,,Y. dl_avaxhome 4339  _=DeNonlinCoSy.pdf,0,2000-01-01 01:00:00,2016-04-03 02:51:08,260000/d03c8132fa4b7178468bf36d897e3efa-d.jpg,,
5698457,The Group of 7/8,,Global Institutions,,Hugo Dobson,2007,1,Routledge,,139,0,English,Математика//Симметрия и группы,,0,"0415370183,9780415370189,9780203029756",,,,,337.1,HF1359 .D633 2006,,,OL24052131M,,0,,,,,1,,,983541,pdf,CFDAB9B0823A3DDFB37C1311339F302D,,,,0,2000-01-01 01:00:00,2016-04-03 02:51:08,260000/cfdab9b0823a3ddfb37c1311339f302d-d.jpg,,
5698458,Cell Migration: Developmental Methods and Protocols,,Methods in Molecular Biology 294,,,2004,1,Humana Press,,381,0,English,,avaxhome.ws,,1588293823,,,,,,,,,OL8828478M,7650,0,,,,,,,,15476074,pdf,CFF2802F6C07C63819B2359A88FC9A6C,,,Y. dl_avaxhome 7650  _=CelMigrat.pdf,0,2000-01-01 01:00:00,2016-04-03 02:51:08,260000/cff2802f6c07c63819b2359a88fc9a6c-d.jpg,,
5698456,Project Management: Tools and Trade-offs,,,,Ted Klastorin,2003,,Wiley,,272,0,English,Бизнес//Менеджмент//Управление проектами,avaxhome.ws,,"0471413844,9780471413844",,,,,,,,,OL7616876M,14302,0,,,,,,,1,34215226,pdf,CF1793E117102ECCAB5DFE800A0F785C,,,Y. dl_avaxhome 14302  _=0471413844.pdf,0,2000-01-01 01:00:00,2016-04-03 02:51:08,260000/cf1793e117102eccab5dfe800a0f785c-d.jpg,,
5698454,Projective Geometry: From Foundations to Applications,,,,"Albrecht Beutelspacher, Ute Rosenbaum",1998,,Cambridge University Press,,133,0,English,Математика//Геометрия и топология,avaxhome.ws,,"9780521483643,0521483646",,,,,516/.5,QA471 .B5613 1998,,,OL671993M,15818,0,,,,,,,,12109713,pdf,CE91696AE740238C21AE9D3E37D57B64,,,Y. dl_avaxhome 15818  _=0521483646.pdf,0,2000-01-01 01:00:00,2016-04-03 02:51:08,260000/ce91696ae740238c21ae9d3e37d57b64-d.jpg,,
5698455,Intelligent Systems in Process Engineering: Paradigms from Product and Process Design,Part 1,Advances in Chemical Engineering Volume 21,,"James Wei, James Wei, Chonghun Han, George Stephanopoulos, John L. Anderson, Morton M. Denn, John H. Seinfeld",1995,,Academic Press,,345,0,English,Техника,avaxhome.ws,,"9780080565682,9780120085217,0120085216",,,,,,,,,OL9625519M,15934,0,,,,,1,,T,15313704,pdf,CEC1125A08761236952ACF7BDB0BA6C9,,,Y. dl_avaxhome 15934  _=Intelligent_Systems_in_Process_Engineering.pdf,0,2000-01-01 01:00:00,2016-04-03 02:51:08,260000/cec1125a08761236952acf7bdb0ba6c9-d.jpg,,
5698452,OECD Patent Statistics Manual,,,,OECD Organisation for Economic Co-operation and Development,2009,,OECD Publishing,,162,0,English,Математика//Математическая статистика,,0,"926405412X,9789264054127",,,,,,,,,OL23924449M,,0,,,,,,,T,3063358,pdf,CE16DD3397B4C9768C54E7C3CC256067,,,,0,2000-01-01 01:00:00,2016-04-03 02:51:08,260000/ce16dd3397b4c9768c54e7c3cc256067-d.jpg,,
5698453,"The Grammar Book: An ESL/EFL Teacher's Course, ",,,,Marianne Celce-Murcia,1998,2,Heinle ELT,,656,0,English,Языкознание,avaxhome.ws,,0838447252,,,,,,,,,,9661,0,,,,,,,,6522852,djvu,CE1BEEB6656CD3E94BEE87357E5E81F9,,,Y. dl_avaxhome 9661  _=GramBookTe.djvu,0,2000-01-01 01:00:00,2016-04-03 02:51:08,260000/ce1beeb6656cd3e94bee87357e5e81f9-d.jpg,,
5698451,Theory of Seismic Imaging,,Lecture Notes in Earth Sciences,,John A. Scales,1995,,Springer,,297,0,English,Физика//Геофизика,avaxhome.ws,,"9783540590514,354059051X",,,,,550/.28,QE538.5 .S288 1995,,,OL1275785M,12167,0,,,,,,,,5961597,pdf,CDFCE48CD03C0943C4286B9A0ABB928F,,,Y. dl_avaxhome 12167  _=imaging.pdf,0,2000-01-01 01:00:00,2016-04-03 02:51:08,260000/cdfce48cd03c0943c4286b9a0abb928f-g.jpg,,
5698449,Integration,,Princeton mathematical series,,E. J McShane,1972,,Princeton University Press,,400,0,English,Математика,avaxhome.ws,,"9780691079820,069107982X",,,,,,,,,OL11182752M,3955,0,,,,,1,,,14627978,djvu,CD895749CC82F888D1AAF578F5671402,,,Y. dl_avaxhome 3955  _=Integration.djvu,0,2000-01-01 01:00:00,2016-04-03 02:51:08,260000/cd895749cc82f888d1aaf578f5671402-g.jpg,,
5698450,Milk Is Magnificent,,What Should I Eat,,Amanda Rondeau,2002,,SandCastle,,25,0,English,"Домоводство, досуг//Кулинария",avaxhome.ws,,157765837X,,,,,,,,,OL12242515M,2056,0,,,,,,,T,1114477,pdf,CDE4737EE91579C8D33DD4E845D74569,,,Y. dl_avaxhome 2056  _=oo03.pdf,0,2000-01-01 01:00:00,2016-04-03 02:51:08,260000/cde4737ee91579c8d33dd4e845d74569-d.jpg,,
5698447,The Weight Loss Cure They Don't Want You to Know About,,,,Kevin Trudeau,2007,1ST,Alliance Publishing,,264,0,English,Медицина//Научно-популярная литература,avaxhome.ws,,"097878510X,9780978785109",,,,,,,,,OL8593088M,14971,0,,,,,1,,,41643074,pdf,CD040AEA8A73D186F6E9A0995C93E27A,,,Y. dl_avaxhome 14971  _=097878510X.pdf,0,2000-01-01 01:00:00,2016-04-03 02:51:08,260000/cd040aea8a73d186f6e9a0995c93e27a-d.jpg,,
5698448,From Wax to Crayon,,Start to Finish,,Robin Nelson,2003,,Lerner Publications,,25,0,English,Образование,avaxhome.ws,,0822546604,,,,,,,,,,3604,0,,,,,,,T,1368604,pdf,CD2900AFB7CA73B4DE5D0579D45D61CE,,,Y. dl_avaxhome 3604  _=0822546604.pdf,0,2000-01-01 01:00:00,2016-04-03 02:51:08,260000/cd2900afb7ca73b4de5d0579d45d61ce-d.jpg,,
5698446,Women and Philanthropy in Education,,Philanthropic and Nonprofit Studies,,Andrea Walton,2005,,Indiana University Press,,377,0,English,Образование,avaxhome.ws,,"0253344662,9780253344663,9780253111319",,,,,,,,,OL10228751M,2222,0,,,,,1,,T,1607801,pdf,CCB713DFA5436963274195C03FF4C0E8,,,Y. dl_avaxhome 2222  _=0253344662.pdf,0,2000-01-01 01:00:00,2016-04-03 02:51:08,260000/ccb713dfa5436963274195c03ff4c0e8-d.jpg,,
5698444,Road Engineering for Development,,,,"Richard Robinson, Bent Thagesen",2004,2,Spon Press,,539,0,English,Техника,avaxhome.ws,,0415318823,,,,,,,,,,183,0,,,,,1,,T,12076794,pdf,CC34C9713EAD9531F28A9D376FEA09B1,,,Y. dl_avaxhome 183  _=RoadEngin.pdf,0,2000-01-01 01:00:00,2016-04-03 02:51:08,260000/cc34c9713ead9531f28a9d376fea09b1-d.jpg,,
5698445,Minor Trauma in Children: A Pocket Guide,,Arnold Publication,,Ffion C. W. Davies,2003,1,A Hodder Arnold Publication,,225,0,English,Медицина,avaxhome.ws,,"0340732040,9780340732045,9780585497228",,,,,,,,,OL10629195M,16135,0,,,,,,,T,15131493,pdf,CC617F825EA85EA6341DD83871DDCD43,,,Y. dl_avaxhome 16135  _=Minor_Trauma_in_Children_A_Pocket_Guide.pdf,0,2000-01-01 01:00:00,2016-04-03 02:51:08,260000/cc617f825ea85ea6341dd83871ddcd43-d.jpg,,
5698442,Bar Style: Hotels and Members' Clubs,,Interior Angles,,Howard Watson,2005,1,Academy Press,,123,0,English,Искусство//Архитектура,avaxhome.ws,,0470011475,,,,,,,,,,7067,0,,,,,,,,98830518,pdf,CBCCC2AD05823E50B98696325C0A4F77,,,Y. dl_avaxhome 7067  _=Bar_Style.pdf,0,2000-01-01 01:00:00,2016-04-03 02:51:08,260000/cbccc2ad05823e50b98696325c0a4f77-d.jpg,,
5698443,Mathematics of Modality,,Center for the Study of Language and Information - Lecture Notes,,Robert Goldblatt,1994,1,Center for the Study of Language and Inf,,288,0,English,Математика,,0,"9781881526230,1881526232,1881526240,9781881526247",,,,,511.3,QA9.46 .G66 1993,,,OL1405314M,,0,,,,,1,,T,2546409,djvu,CC1A606C65B500B219CB2CD168C374DF,,,,0,2000-01-01 01:00:00,2016-04-03 02:51:08,260000/cc1a606c65b500b219cb2cd168c374df-g.jpg,,
5698440,Trajectories in Near Eastern Apocalyptic: A Postrabbinic Jewish Apocalypse Reader,,Resources for Biblical Study No. 45.,,John C. Reeves,2005,,Society of Biblical Literature,,277,0,English,"Религия//Эзотерика, мистика",avaxhome.ws,,"9781589831025,1589831020,9004130950,9789004130951,9781435614550",,,,,296.1/5,BS1705 .R44 2005,,,OL21420848M,2573,0,,,,,1,,T,1472487,pdf,CABACA8919B22B66F958C5D19A8F1D96,,,Y. dl_avaxhome 2573  _=Trajectories_in_Near_Eastern_Apocalyptic.pdf,0,2000-01-01 01:00:00,2016-04-03 02:51:08,260000/cabaca8919b22b66f958c5d19a8f1d96-d.jpg,,
5698441,Director MX 2004 Games: Game Development with Director,,,,Nik Lever,2004,,Focal Press,,343,0,English,Компьютеры//Мультимедиа,avaxhome.ws,,0240519493,,,,,,,,,,670,0,,,,,,,T,11591044,pdf,CACA569841C9965557A2822E02AABE41,,,Y. dl_avaxhome 670  _=director-mx-2004-games-game-development-with-director.9780240519494.24780.pdf,0,2000-01-01 01:00:00,2016-04-03 02:51:08,260000/caca569841c9965557a2822e02aabe41-d.jpg,,
5698439,GERMAN SOLDIERS OF WORLD WAR TWO,,,,Jean deLagarde,2001,illustrated edition,Histoire and Collections,,129,0,French,История,avaxhome.ws,,2908182297,,,,,355.1/4/094309044,UC485.G3 L34 1994,,,OL6883702M,2405,0,,,,,,,,119478290,pdf,CA9A0E9A0F5D4B94977D4B0DFFA5F179,,,Y. dl_avaxhome 2405  _=German_Soldiers_of_WW2.pdf,0,2000-01-01 01:00:00,2016-04-03 02:51:08,260000/ca9a0e9a0f5d4b94977d4b0dffa5f179-d.jpg,,
5698437,The Best American Crime Writing 2005,,Best American Crime Reporting,,"James Ellroy, Otto Penzler, Thomas H. Cook",2005,First Thus,Harper Perennial,,53,0,English,"Юридические науки//Криминология, криминалистика",avaxhome.ws,,"9780060815516,0060815515",,,,,,,,,OL7282317M,15366,0,,,,,,,T,870981,pdf,CA75350E6EAA639C95FE96BE951271CE,,,Y. dl_avaxhome 15366  _=9780060895273.pdf,0,2000-01-01 01:00:00,2016-04-03 02:51:08,260000/ca75350e6eaa639c95fe96be951271ce-d.jpg,,
5698438,"Bali's Silent Crisis: Desire, Tragedy, and Transition",,,,"Jeff Lewis, Belinda Lewis",2009,,Lexington Books,,253,0,English,Общественные науки прочие,avaxhome.ws,,"0739128205,9780739128206",,,,,306.09598/62,HN710.B3 L49 2009,,,OL23859543M,7022,0,,,,,,,1,2343015,pdf,CA8C91CAE1FDF4FD61FE3692AF40EADE,,,Y. dl_avaxhome 7022  _=6.pdf,0,2000-01-01 01:00:00,2016-04-03 02:51:08,260000/ca8c91cae1fdf4fd61fe3692af40eade-d.jpg,,
5698436,Virtual Lesions: Examining Cortical Function with Reversible Deactivation,,,,,2002,1,"Oxford University Press, USA",,390,0,English,Биология,avaxhome.ws,,019850893X,,,,,612.825,,,,OL22479925M,9372,0,,,,,,,T,7424222,pdf,CA653775B9870939972624E2CA1A7934,,,Y. dl_avaxhome 9372  _=019850893x_11.pdf,0,2000-01-01 01:00:00,2016-04-03 02:51:08,260000/ca653775b9870939972624e2ca1a7934-d.jpg,,
5698434,Pharmacy Case Studies,,,,,2009,1,Pharmaceutical Press,,473,0,English,Химия//Фармакология,avaxhome.ws,,0853697248,,,,,,,,,,4032,0,,,,,,,T,1831226,pdf,C9AFB86F9CAD06FA3A30D02963FD6EAF,,,Y. dl_avaxhome 4032  _=0853697248.pdf,0,2000-01-01 01:00:00,2016-04-03 02:51:08,260000/c9afb86f9cad06fa3a30d02963fd6eaf-d.jpg,,
5698435,Discrete-Signal Analysis and Design,,,,William E. Sabin,2008,,Wiley-Interscience,,190,0,English,Математика//Анализ,avaxhome.ws,,"0470187778,9780470187777,9780470192641",,,,,621.382/2,TK7868.D5 S13 2007,,,OL10294631M,3361,0,,,,,,,T,1349634,pdf,C9F5E6D852B21C06BE29E35AA5B57252,,,Y. dl_avaxhome 3361  _=D.S532464.pdf,0,2000-01-01 01:00:00,2016-04-03 02:51:08,260000/c9f5e6d852b21c06be29e35aa5b57252-d.jpg,,
5698433,Safety Management: A Guide for Facility Managers,,,,Joseph F. Gustin,2008,,Fairmont Press,,311,0,English,Бизнес//менеджмент,avaxhome.ws,,"9780881733310,0881733318",,,,,658.3/82,T55 .G795 2007,,,OL17932935M,16369,0,,,,,,,T,30910580,pdf,C962E305D689C10E82E78125C040D142,,,Y. dl_avaxhome 16369  _=h04.pdf,0,2000-01-01 01:00:00,2016-04-03 02:51:08,260000/c962e305d689c10e82e78125c040d142-g.jpg,,
5698431,Practical MRI of the Foot and Ankle,,,,"Al R. Spouge, Thomas L Pope",2000,1,Informa Healthcare,,313,0,English,,avaxhome.ws,,0849302811,,,,,,,,,,1716,0,,,,,,,,7647899,pdf,C91EC62F6E5D2D209D406DB4965480A3,,,Y. dl_avaxhome 1716  _=0702_PrNRIFoAnk.pdf,0,2000-01-01 01:00:00,2016-04-03 02:51:08,260000/c91ec62f6e5d2d209d406db4965480a3-d.jpg,,
5698432,Final Cut Pro HD for Dummies,,,,Helmut  Kobler,2004,1,For Dummies,,496,0,English,Образование,avaxhome.ws,,"0764577735,9780764577734,9780764579264",,,,,,,,,OL24250551M,16321,0,,,,,1,,T,10916260,pdf,C934D3A6ED19448B59B01DFAE77A7241,,,Y. dl_avaxhome 16321  _=h30.pdf,0,2000-01-01 01:00:00,2016-04-03 02:51:08,260000/c934d3a6ed19448b59b01dfae77a7241-d.jpg,,
5698429,"The Manual of Scientific Style: A Guide for Authors, Editors, and Researchers",,,,"Harold Rabinowitz, Suzanne Vogel",2008,1,Academic Press,,955,0,English,,,0,"0123739802,1865843830,9780123739803",,,,,,,,,OL10072031M,,0,,,,,,,,10959475,pdf,C8F86E161EF337D64380E77CD7DD5E2C,,,,0,2000-01-01 01:00:00,2016-04-03 02:51:08,260000/c8f86e161ef337d64380e77cd7dd5e2c-d.jpg,,
5698430,The Secret Science of Numerology: The Hidden Meaning of Numbers and Letters,,,,Shirley Blackwell Lawrence,2001,,New Page Books,,288,0,English,Наука (общее)//Научно-популярное,avaxhome.ws,,1564145298,,,,,,,,,OL8646907M,1558,0,,,,,,,T,13224456,pdf,C90206370CF3A17E7AC49857D3E45E3B,,,Y. dl_avaxhome 1558  _=pp11.pdf,0,2000-01-01 01:00:00,2016-04-03 02:51:08,260000/c90206370cf3a17e7ac49857d3e45e3b-d.jpg,,
5698427,Information Technology and C Language,,,,"Rajiv , Khanna",2006,,New Age Publications (Academic),,318,0,English,Компьютеры//Программирование,avaxhome.ws,,8122419186,,,,,,,,,,4368,0,,,,,,,1,5447184,pdf,C8B9944BD1D93BAE135C5769DF3A2404,,,Y. dl_avaxhome 4368  _=9788122419184_Information_Technology_and_C_Language.pdf,0,2000-01-01 01:00:00,2016-04-03 02:51:08,260000/c8b9944bd1d93bae135c5769df3a2404-g.jpg,,
5698428,Germany and the Causes of the First World War,,Legacy of the Great War,,Mark Hewitson,2005,,Berg Publishers,,278,0,English,История,,0,"1859738656,9781859738658,9781429409018",,,,,,,,,OL8623625M,,0,,,,,,,T,1362699,pdf,C8E4B0FBBA3A2AF0E036E79BC39D58F6,,,,0,2000-01-01 01:00:00,2016-04-03 02:51:08,260000/c8e4b0fbba3a2af0e036e79bc39d58f6-d.jpg,,
5698426,Exercise-Induced Acute Renal Failure: Acute Renal Failure with Severe Loin Pain and Patchy Renal Ischemia after Anaerobic Exercise,,,,Isao Ishikawa,2010,1,Springer,,103,0,English,Химия,,0,"4431694838,9784431694830",,,,,,,,,OL12410873M,,0,,,,,,,T,2251521,pdf,C8A66C84097376DB5485C5E76DC17F3F,,,,0,2000-01-01 01:00:00,2016-04-03 02:51:08,260000/c8a66c84097376db5485c5e76dc17f3f-d.jpg,,
5698424,John Mackay: Silver King in the Gilded Age (Wilber S. Shepperson Series in Nevada History,,Wilber S. Shepperson Series in Nevada History ,,Michael J. Makley,2009,,University of Nevada Press,,297,0,English,История,,0,"0874177707,9780874177701",,,,,979.3/02092,HD9537.U62 M335 2009,,,OL22552126M,,0,,,,,,,T,1664782,pdf,C7F494350D32325A660A4940605470EA,,,,0,2000-01-01 01:00:00,2016-04-03 02:51:08,260000/c7f494350d32325a660a4940605470ea-d.jpg,,
5698425,Arthritis Research: Methods and Protocols,Volume 1,Methods in Molecular Medicine,,Andrew P. Cope,2007,1,Humana Press,,441,0,English,Медицина,,0,"9781588293442,9781597454018,1588293440,158829918X",,,,,616.7/220072,RC933 .A665245 2007,,,OL12325600M,,0,,,,,,,,6524332,pdf,C827FE8EC1A87BB526350AE3C2978E08,,,,0,2000-01-01 01:00:00,2016-04-03 02:51:08,260000/c827fe8ec1a87bb526350ae3c2978e08-d.jpg,,
5698422,From a Philosophical Point of View: Selected Studies,,,,Morton White,2004,,Princeton University Press,,366,0,English,Общественные науки прочие//Философия,avaxhome.ws,,"0691119597,9780691119595",,,,,191,B21 .W48 2005,,,OL3303310M,619,0,,,,,,,T,1164864,pdf,C7B8732C4F06FA56E5E82B2A0E3A118B,,,Y. dl_avaxhome 619  _=PhilosophPoint.pdf,0,2000-01-01 01:00:00,2016-04-03 02:51:08,260000/c7b8732c4f06fa56e5e82b2a0e3a118b-d.jpg,,
5698423,Hayek Versus Marx: And today's challenges,,Routledge Frontiers of Political Economy,,Eric Aarons,2009,1,Routledge,,259,0,English,,,0,"0415464889,9780415464888,0203880897,9780203880890",,,,,330.15,HX39.5.A53 A27 2009,,,OL22528787M,,0,,,,,1,,,1290304,pdf,C7C1FD5459E285CD2B512F2E0441632E,,,,0,2000-01-01 01:00:00,2016-04-03 02:51:08,260000/c7c1fd5459e285cd2b512f2e0441632e-d.jpg,,
5698421,Thermodynamics and Physics of Matter,,,,Frederick D. Rossini,1955,First Edition,Princeton University Press,,829,0,English,Физика//Термодинамика и статистическая физика,avaxhome.ws,,"9780691080536,0691080534",,,,,,,,,,16031,0,,,,,,,,23161020,djvu,C6706C7646EDC62E49EEAF1C3EE4549C,,,Y. dl_avaxhome 16031  _=rossini.djvu,0,2000-01-01 01:00:00,2016-04-03 02:51:08,260000/c6706c7646edc62e49eeaf1c3ee4549c-d.jpg,,
5698419,"When the Diagnosis Is Multiple Sclerosis: Help, Hope, and Insights from an Affected Physician",,,,Kym Orsetti Furney M.D.,2007,1,Praeger,,143,0,English,Физика,,0,"9780275994686,0275994686,1968340092",,,,,"362.196/8340092,B",RC377 .F873 2007,,,OL10289913M,,0,,,,,,,T,1397000,pdf,C62B68CCA075E58FEC376F484B7F15F7,,,,0,2000-01-01 01:00:00,2016-04-03 02:51:08,260000/c62b68cca075e58fec376f484b7f15f7-d.jpg,,
5698420,When Law and Medicine Meet: A Cultural View,,"International Library of Ethics, Law, and the New Medicine",,"Lola Romanucci-Ross, Laurence R. Tancredi",2008,1,Springer,,193,0,English,Юридические науки//Право,,0,"1402067631,9781402067631,9781402027574",,,,,,,,,OL18632274M,,0,,,,,,,T,1477963,pdf,C632919766698C9F973DE6D8DE15DFC3,,,,0,2000-01-01 01:00:00,2016-04-03 02:51:08,260000/c632919766698c9f973de6d8de15dfc3-d.jpg,,
5698417,The Cambridge Companion to Orthodox Christian Theology,,Cambridge Companions to Religion,,"Elizabeth Theokritoff, Mary B. Cunningham",2009,1,Cambridge University Press,,330,0,English,,avaxhome.ws,,"0521864844,0521683386,9780521683388,9780521864848",,,,,,,,,OL10437654M,13819,0,,,,,1,,,1830669,pdf,C55F20854E028CCBED799CA13E528D6F,,,Y. dl_avaxhome 13819  _=OrthodoxChristianTheology.pdf,0,2000-01-01 01:00:00,2016-04-03 02:51:08,260000/c55f20854e028ccbed799ca13e528d6f-d.jpg,,
5698418,Skyjack,,Oxford Bookworms,,Tim Vicary,1989,,Oxford University Press,,51,0,English,Языкознание,avaxhome.ws,,0194216349,,,,,,,,,,209,0,,,,,,,T,3535849,pdf,C5B05D745AD71CB8687D0847E351F014,,,Y. dl_avaxhome 209  _=tv-skyj-3.pdf,0,2000-01-01 01:00:00,2016-04-03 02:51:08,260000/c5b05d745ad71cb8687d0847e351f014-d.jpg,,
5698416,Of Men and Numbers: The Story of the Great Mathematicians,,,,Jane Muir,1996,,Dover Publications,,254,0,English,Математика,avaxhome.ws,,0486289737,,,,,,,,,,1857,0,,,,,,,T,22625794,pdf,C504F80E15CEBC99C21BAA5E8CFC2CE0,,,Y. dl_avaxhome 1857  _=0486289737.pdf,0,2000-01-01 01:00:00,2016-04-03 02:51:08,260000/c504f80e15cebc99c21baa5e8cfc2ce0-d.jpg,,
5698414,The Old Testament Pseudepigrapha & the New Testament,,,,James H. Charlesworth,1998,,Trinity Press International,,189,0,English,Религия,avaxhome.ws,,1563382571,,,,,229/.9106,BS1700 .C44 1998,,,OL377801M,7493,0,,,,,,,T,10316317,pdf,C4B189F9654A03844383DB0C4A7F91E0,,,Y. dl_avaxhome 7493  _=charlesworth_the.ot.pseudepigrapha_the.new.testament.pdf,0,2000-01-01 01:00:00,2016-04-03 02:51:08,260000/c4b189f9654a03844383db0c4a7f91e0-d.jpg,,
5698415,Sympathetic Nervous System Research Developments,,,,Mitsuyasu Kaneko,2007,,Nova Science Publishers,,355,0,English,Медицина,avaxhome.ws,,"1600218814,9781600218811,9781606926284",,,,,612.8/9,QP368.5 .S98 2007,,,OL16744132M,2023,0,,,,,,,T,7111816,pdf,C4D5AE582374276410266AF76C235B44,,,Y. dl_avaxhome 2023  _=oo28.pdf,0,2000-01-01 01:00:00,2016-04-03 02:51:08,260000/c4d5ae582374276410266af76c235b44-d.jpg,,
5698412,Nurturing Yourself And Others: Learn How To Fill Your Life With Happiness,,,,Lee Schnebly,2000,,Da Capo Press,,232,0,English,Образование,avaxhome.ws,,1555612911,,,,,158.1,BF632 .S37 2000,,,OL6783766M,2440,0,,,,,,,T,28093529,pdf,C462DAD30E26C174B89CACB1DD981F06,,,Y. dl_avaxhome 2440  _=mm17.pdf,0,2000-01-01 01:00:00,2016-04-03 02:51:08,260000/c462dad30e26c174b89cacb1dd981f06-d.jpg,,
5698413,Command Failure in War: Psychology and Leadership,,,,"Philip Langer, Robert Pois",2004,,Indiana University Press,,303,0,English,Психология,,0,"9780253343789,025334378X",,,,,,,,,OL9700821M,,0,,,,,,,T,12228267,pdf,C479351F4380648465A1CEE9FA31D32C,,,,0,2000-01-01 01:00:00,2016-04-03 02:51:08,260000/c479351f4380648465a1cee9fa31d32c-d.jpg,,
5698410,The American Jesuits: A History,,,,Raymond Schroth,2007,,NYU Press,,327,0,English,История,avaxhome.ws,,0814740251,,,,,,,,,,775,0,,,,,,,T,10883179,pdf,C3A722C9844E40BDAB73F47DF2B6479B,,,Y. dl_avaxhome 775  _=1111111111.pdf,0,2000-01-01 01:00:00,2016-04-03 02:51:08,260000/c3a722c9844e40bdab73f47df2b6479b-d.jpg,,
5698411,Complete Guide to the Toefl Test: IBT/E,,Complete Guide to the Toefl Test,,Bruce Rogers,2006,4th Bk&Cdr-IBT/E,Heinle ELT,,845,0,English,Языкознание//Иностранные//Английский язык,avaxhome.ws,,"9781413023039,1413023037",,,,,,,,,OL8434160M,13705,0,,,,,,,,50088444,pdf,C3EC4EC08D1162FFA1201F173CFC2F97,,,Y. dl_avaxhome 13705  _=Thomson_Toelf_Ibt.pdf,0,2000-01-01 01:00:00,2016-04-03 02:51:08,260000/c3ec4ec08d1162ffa1201f173cfc2f97-d.jpg,,
5698409,Research-Based Web Design & Usability Guidelines,,,,Health and Human Services Dept. (U.S.),2006,Enlarged/Expanded,U.S. Dept. of Health and Human Services,,292,0,English,Компьютеры//Сети//Интернет,avaxhome.ws,,"9780160762703,0160762707",,,,,,,,,OL17200666M,11460,0,,,,,,,,70636426,pdf,C2ACB5474F4AAABEAF3CE3E10F49EA36,,,Y. dl_avaxhome 11460  _=ReseDesign_0160762707.pdf,0,2000-01-01 01:00:00,2016-04-03 02:51:08,260000/c2acb5474f4aaabeaf3ce3e10f49ea36-d.jpg,,
5698408,"Frank Lloyd Wright, 1867-1959: Building for Democracy",,Taschen Basic Architecture,,Bruce Brooks Pfeiffer,2004,illustrated edition,Taschen,,175,0,English,Искусство//Архитектура,avaxhome.ws,,"9783822827574,3822827576",,,,,,,,,OL8945662M,13137,0,,,,,,,T,105027745,pdf,C2770155D7F0062E8DA779AEC76BC069,,,Y. dl_avaxhome 13137  _=Frank_Lloyd_Wright_.pdf,0,2000-01-01 01:00:00,2016-04-03 02:51:08,260000/c2770155d7f0062e8da779aec76bc069-d.jpg,,
5698406,Public Health and the Risk Factor: A History of an Uneven Medical Revolution,,Rochester Studies in Medical History,,William G. Rothstein,2003,1,University of Rochester Press,,480,0,English,Медицина,avaxhome.ws,,1580461271,,,,,362.1,RA427.3 .R68 2003,,,OL3671775M,4573,0,,,,,,,T,16122615,pdf,C137037F9EC39C13320A896ED38AFAD4,,,Y. dl_avaxhome 4573  _=Public_Health_and_the_Risk_Factor.pdf,0,2000-01-01 01:00:00,2016-04-03 02:51:08,260000/c137037f9ec39c13320a896ed38afad4-d.jpg,,
5698407,Dimensional Approaches in Diagnostic Classification: Refining the Research Agenda for DSM-V,,,,"John E. Helzer, John E. Helzer, Helena Chmura Kraemer, Robert F. Krueger, Hans-Ulrich Wittchen, Paul J. Sirovatka, Darrel A. Regier",2008,1,"American Psychiatric Publishing, Inc.",,165,0,English,Медицина,avaxhome.ws,,"0890423431,9780890423431,9780890426548",,,,,616.89/075,RC455.2.C4 D56 2008,,,OL16699967M,15968,0,,,,,,,T,1216483,pdf,C1A62AE1BCBC437B0711821E0C29F527,,,Y. dl_avaxhome 15968  _=0890423431_Dimensional.pdf,0,2000-01-01 01:00:00,2016-04-03 02:51:08,260000/c1a62ae1bcbc437b0711821e0c29f527-d.jpg,,
5698405,The Ultramarines Omnibus,,"Warhammer 40,000 Omnibus",,Graham McNeill,2008,,Games Workshop,,324,0,English,Литература//Проза,avaxhome.ws,,"1844164039,9781844164035",,,,,,,,,OL8953828M,2930,0,,,,,1,,,3840041,pdf,C0D6F663FFC2608241D3F08ADE96749A,,,Y. dl_avaxhome 2930  _=Graham_McNeill_Ultramarines_Omnibus.pdf,0,2000-01-01 01:00:00,2016-04-03 02:51:08,260000/c0d6f663ffc2608241d3f08ade96749a-d.jpg,,
5698403,History's Greatest Heist: The Looting of Russia by the Bolsheviks,,,,Mr. Sean McMeekin,2008,,Yale University Press,,331,0,English,География//Россия,,0,"0300135580,9780300135589",,,,,336.47/09041,HJ1208 .M36 2008,,,OL16899718M,,0,,,,,,,T,1298547,pdf,C0939AEB66CE787D8558988BA99F8B00,,,,0,2000-01-01 01:00:00,2016-04-03 02:51:08,260000/c0939aeb66ce787d8558988ba99f8b00-d.jpg,,
5698404,The Concise New Makers of Modern Culture,,,,Justin Wintle,2009,1,Routledge,,892,0,English,,avaxhome.ws,,"9780415477,9780203884287,9780415477826,0203884280,0415477824,0415477832",,,,,920.009/04,CT103 .C59 2008,,,OL16973164M,7553,0,,,,,1,,T,5737567,pdf,C0962C12B6E5222F20D9631E13406FD3,,,Y. dl_avaxhome 7553  _=New_makers_modern_culture.pdf,0,2000-01-01 01:00:00,2016-04-03 02:51:08,260000/c0962c12b6e5222f20d9631e13406fd3-d.jpg,,
5698402,US Hegemony and International Organizations,,,,,2003,,"Oxford University Press, USA",,155,0,English,Общественные науки прочие,avaxhome.ws,,0199261423,,,,,,,,,,7270,0,,,,,,,,34965950,pdf,BFBDD8EEEC4876C93A085ED4BA85AB1B,,,Y. dl_avaxhome 7270  _=0199261423.pdf,0,2000-01-01 01:00:00,2016-04-03 02:51:08,260000/bfbdd8eeec4876c93a085ed4ba85ab1b-d.jpg,,
5698400,A Philosophical Investigation of Rape: The Making and Unmaking of the Feminine Self,,Routledge Research in Gender and Society,,Louise du Toit,2009,1,Routledge,,257,0,English,Общественные науки прочие//Философия,,0,"0415990297,9780415990295,9780203397855",,,,,362.883,HV6558 .D88 2008,,,OL16899786M,,0,,,,,1,,T,2028725,pdf,BE773C8030C007F14A94E20B3B9B5CC6,,,,0,2000-01-01 01:00:00,2016-04-03 02:51:08,260000/be773c8030c007f14a94e20b3b9b5cc6-d.jpg,,
5698401,Proteins Are Powerful,,What Should I Eat?,,Amanda Rondeau,2002,,SandCastle,,25,0,English,Биология//Биотехнология,avaxhome.ws,,1577658361,,,,,,,,,OL12242514M,2051,0,,,,,,,T,1444480,pdf,BF92C1DF8D72EE172883E719702CC118,,,Y. dl_avaxhome 2051  _=oo07.pdf,0,2000-01-01 01:00:00,2016-04-03 02:51:08,260000/bf92c1df8d72ee172883e719702cc118-d.jpg,,
5698399,Scripture and Ethics: Twentieth-Century Portraits,,,,Jeffrey Siker,1996,,"Oxford University Press, USA",,305,0,English,,,0,"0195110994,9780195110999,0195101049,9780195101041,9781423741329",,,,,241,BJ1231 .S45 1997,,,OL7387764M,,0,,,,,1,,T,19317714,pdf,BE720D49D7330E2532FA9A9031EF2065,,,,0,2000-01-01 01:00:00,2016-04-03 02:51:08,260000/be720d49d7330e2532fa9a9031ef2065-d.jpg,,
5698397,Alluring Tales 1: Awaken the Fantasy,,,,"Vivi Anna, Sylvia Day, Delilah Devlin, Cathryn Fox, Myla Jackson, Lisa Renee Jones, Sasha White",2007,,Avon Red,,334,0,English,Литература//Проза,avaxhome.ws,,"0061176036,9780061176036,9780061287800",,,,,813./60803538,PS648.E7 A45 2007,,,OL23227850M,681,0,,,,,1,,T,1000945,pdf,BE600B4B6135CC5D7154D1C88E0D083D,,,Y. dl_avaxhome 681  _=zz24.pdf,0,2000-01-01 01:00:00,2016-04-03 02:51:08,260000/be600b4b6135cc5d7154d1c88e0d083d-d.jpg,,
5698398,Information Processing and Routing in Wireless Sensor Networks,,,,"Yang Yu, Viktor K. Prasanna, Bhaskar Krishnamachari",2006,,World Scientific Publishing Company,,202,0,English,Компьютеры//Сети,,0,"9789812701466,981270146X",,,,,,,,,OL9198032M,,0,,,,,,,T,11491031,pdf,BE6EBE29A59E5C7E1C0AE22806A6747D,,,,0,2000-01-01 01:00:00,2016-04-03 02:51:08,260000/be6ebe29a59e5c7e1c0ae22806a6747d-d.jpg,,
5698396,The Chickens Fight Back: Pandemic Panics and Deadly Diseases That Jump from Animals to Humans,,,,David Waltner-Toews,2007,1,Greystone Books,,247,0,English,Медицина//Болезни//Внутренние болезни,avaxhome.ws,,"9781553652700,1553652703",,,,,,,,,OL8570903M,14676,0,,,,,,,T,10830123,pdf,BE3FE731222FCD44FE2D5D80560F50BD,,,Y. dl_avaxhome 14676  _=chickens_fight_back_pandemic_panics.pdf,0,2000-01-01 01:00:00,2016-04-03 02:51:08,260000/be3fe731222fcd44fe2d5d80560f50bd-d.jpg,,
5698395,Supporting Mathematical Development in the Early Years,,Supporting Early Learning,,Linda Pound,2006,2,Open University Press,,177,0,English,Математика,avaxhome.ws,,"0335217788,9780335217786,9780335227501",,,,,,,,,OL9578212M,2814,0,,,,,1,,T,2851390,pdf,BD77B375EFCC9440CBAB4728C22274BD,,,Y. dl_avaxhome 2814  _=SupMathDev.pdf,0,2000-01-01 01:00:00,2016-04-03 02:51:08,260000/bd77b375efcc9440cbab4728c22274bd-d.jpg,,
5698393,Spatial Modeling Principles in Earth Sciences,,,,Zekai Sen,2009,1,Springer,,358,0,English,Геология,avaxhome.ws,,1402096712,,,,,,,,,,2004,0,,,,,,,T,15773607,pdf,BC818FB4A207B0227F8C9D10889D56FB,,,Y. dl_avaxhome 2004  _=GGP532.pdf,0,2000-01-01 01:00:00,2016-04-03 02:51:08,260000/bc818fb4a207b0227f8c9d10889d56fb-d.jpg,,
5698394,International Consumption Comparisons,,,,"E. A. Selvanathan, S. Selvanathan",2003,1st,World Scientific Publishing Company,,354,0,English,Бизнес,avaxhome.ws,,"9789810240059,9810240058",,,,,339.4/7,HC79.C6 .S44 2003,,,OL22542134M,16458,0,,,,,,,T,11360776,pdf,BCE3E0E7A25B85062D836084371A5D65,,,Y. dl_avaxhome 16458  _=International_Consumption_Comparisons.pdf,0,2000-01-01 01:00:00,2016-04-03 02:51:08,260000/bce3e0e7a25b85062d836084371a5d65-d.jpg,,
5698391,A Reader's Guide to the Novels of Louise Erdrich,,,,Peter G. Beidler,1999,,University of Missouri Press,,278,0,English,Языкознание,avaxhome.ws,,0826212395,,,,,,,,,,2047,0,,,,,,,T,8188813,pdf,BC26139F2FA3BFFB7CD6C01E501C9F3C,,,Y. dl_avaxhome 2047  _=oo08.pdf,0,2000-01-01 01:00:00,2016-04-03 02:51:08,260000/bc26139f2fa3bffb7cd6c01e501c9f3c-d.jpg,,
5698392,Learning Through Children's Eyes: Social Constructivism and the Desire to Learn,,,,Penny Oldfather,1999,1,American Psychological Association (APA),,124,0,English,Образование,avaxhome.ws,,1557985871,,,,,,,,,OL9640131M,3897,0,,,,,,,,6076724,pdf,BC62329FF030692AB31F743DE0352F17,,,Y. dl_avaxhome 3897  _=26.pdf,0,2000-01-01 01:00:00,2016-04-03 02:51:08,260000/bc62329ff030692ab31f743de0352f17-d.jpg,,
5698390,The Universe and the Atom,,,,Don Lichtenberg,2007,illustrated edition,World Scientific Publishing Company,,328,0,English,Физика,avaxhome.ws,,"9789812705617,9812705619",,,,,,,,,OL13169905M,16194,0,,,,,,,T,2824034,pdf,BBFAC00F23713120D935F1C3259E8EC0,,,Y. dl_avaxhome 16194  _=the_univers_and_the_atom.pdf,0,2000-01-01 01:00:00,2016-04-03 02:51:08,260000/bbfac00f23713120d935f1c3259e8ec0-d.jpg,,
5698388,"From Nation to Diaspora: Samuel Selvon, George Lamming And the Cultural Performance of Gender",,,,Curdella Forbes,2005,First,University of the West Indies Press,,316,0,English,История,avaxhome.ws,,"9766401713,9789766401719,9781435630925",,,,,,,,,OL9190585M,380,0,,,,,1,,T,1040373,pdf,BB5986049BB512BCBAAE6871315EC718,,,Y. dl_avaxhome 380  _=9766401713.pdf,0,2000-01-01 01:00:00,2016-04-03 02:51:08,260000/bb5986049bb512bcbaae6871315ec718-d.jpg,,
5698389,PISA PISA Data Analysis Manual: SAS,,,,OECD Organisation for Economic Co-operation and Development,2009,Pap/Ele,OECD Publishing,,470,0,English,Компьютеры//Организация и обработка данных,,0,"9264056246,9789264056244",,,,,,,,,,,0,,,,,,,,4463824,pdf,BBE764BB09A6E09F7680FC8C04EE1F98,,,,0,2000-01-01 01:00:00,2016-04-03 02:51:08,260000/bbe764bb09a6e09f7680fc8c04ee1f98-d.jpg,,
5698387,France and Germany at Maastricht: Politics and Negotiations to Create the European Union,,Contemporary Issues in European Politics,,Colette Mazzucelli,1999,,Routledge,,376,0,English,,,0,"0815335938,9780815335931,9780203906774",,,,,,,,,OL8048240M,,0,,,,,1,,T,1427966,pdf,BB330D9939C82A2D1F39E9E7194FBFBE,,,,0,2000-01-01 01:00:00,2016-04-03 02:51:08,260000/bb330d9939c82a2d1f39e9e7194fbfbe-d.jpg,,
5698385,Encyclopedia of Electronic Circuits,Volume 1,,,Rudolf Graf,1985,1,McGraw-Hill/TAB Electronics,,800,0,English,Техника//Электроника,avaxhome.ws,,0830619380,,,,,,,,,,518,0,,,,,,,,23775088,pdf,BAC31B324C550FD45D1653D1C7FDCE55,,,Y. dl_avaxhome 518  _=0830619380_Enc__Electronic_Circuits_Vol._1.pdf,0,2000-01-01 01:00:00,2016-04-03 02:51:08,260000/bac31b324c550fd45d1653d1c7fdce55-d.jpg,,
5698386,The Spiritual Laws and Lessons of the Universe,,,,Lord Michael,1998,,Bridger House Publishers Inc,,189,0,English,Юридические науки//Право,avaxhome.ws,,0964010461,,,,,,,,,,5566,0,,,,,,,,11433054,pdf,BAE12DB98CCFF9AAA2B45CDE7E139D26,,,Y. dl_avaxhome 5566  _=The_Spiritual_Laws_and_lessons_Of_The_Universe.pdf,0,2000-01-01 01:00:00,2016-04-03 02:51:08,260000/bae12db98ccff9aaa2b45cde7e139d26-d.jpg,,
5698384,The Future of the Multinational Company,,,,"Julian Birkinshaw, Sumantra Ghoshal, Constantinos C. Markides, John Stopford, George Yip",2003,,Wiley,,284,0,English,Экономика,avaxhome.ws,,"0470850655,9780470850657,9780470868362",,,,,,,,,OL15543345M,13619,0,,,,,1,,T,2160915,pdf,B9FF72671CDD4492F06115EF154AB41A,,,Y. dl_avaxhome 13619  _=FutMultinComp.pdf,0,2000-01-01 01:00:00,2016-04-03 02:51:08,260000/b9ff72671cdd4492f06115ef154ab41a-d.jpg,,
5698382,"Dynamical Aspects of Nuclear Fission: Proceedings of the 6th International Conference, Smolenice Castle, Slovak Republic, 2-6 Ocotber 2006",,,,,2009,,World Scientific Publishing Company,,377,0,English,Образование//Международные конференции и симпозиумы,avaxhome.ws,,9812837523,,,,,,,,,OL23936608M,1517,0,,,,,,,T,56295390,pdf,B9BB8D7085E2028ED2EA02B567AD6BD6,,,Y. dl_avaxhome 1517  _=9812837523.pdf,0,2000-01-01 01:00:00,2016-04-03 02:51:08,260000/b9bb8d7085e2028ed2ea02b567ad6bd6-d.jpg,,
5698383,"Chest Pain Units, An Issue of Cardiology Clinics",,The Clinics: Internal Medicine,,Michael H. Crawford MD  FACC,2005,1,Saunders,,215,0,English,Медицина//Клиническая медицина,avaxhome.ws,,1416027017,,,,,,,,,OL8455965M,857,0,,,,,,,,5661736,pdf,B9BF1ED2F10684BCA3E916DCE29CC913,,,Y. dl_avaxhome 857  _=chest_pain_units.pdf,0,2000-01-01 01:00:00,2016-04-03 02:51:08,260000/b9bf1ed2f10684bca3e916dce29cc913-d.jpg,,
5698381,The Last British Liberals in Africa: Michael Blundell and Garfield Todd,,,,Dickson Mungazi [Deceased],1999,,Praeger,,311,0,English,,,0,"0275962830,9780275962838,9781567508697",,,,,325/.341/09226762,DT2979.T63 M86 1999,,,OL377840M,,0,,,,,,,T,1866145,pdf,B937ABCEF99BA80BA3EA79772E7B3176,,,,0,2000-01-01 01:00:00,2016-04-03 02:51:08,260000/b937abcef99ba80ba3ea79772e7b3176-d.jpg,,
5698379,Modeling and Reasoning with Bayesian Networks,,,,Adnan Darwiche,2009,1,Cambridge University Press,,562,0,English,Компьютеры//Сети,,0,"0521884381,9780521884389",,,,,519.5/42,QA279.5 .D37 2009,,,OL22658659M,,0,,,,,1,,T,10601024,pdf,B77AB8306E14B4F45C27A198FE73589A,,,,0,2000-01-01 01:00:00,2016-04-03 02:51:08,260000/b77ab8306e14b4f45c27a198fe73589a-d.jpg,,
5698380,Beyond the Market: The Social Foundations of Economic Efficiency,,,,Jens Beckert,2002,,Princeton University Press,,376,0,English,Экономика,avaxhome.ws,,0691049076,,,,,,,,,,431,0,,,,,,,T,1751355,pdf,B811CFF958EB505F87680A55052725F4,,,Y. dl_avaxhome 431  _=0691049076.pdf,0,2000-01-01 01:00:00,2016-04-03 02:51:08,260000/b811cff958eb505f87680a55052725f4-d.jpg,,
5698378,Heresy and the Persecuting Society in the Middle Ages: Essays on the Work of R.I. Moore,,"Studies in the History of Christian Traditions, V. 129",,,2006,,Brill Academic Publishers,,353,0,English,История,avaxhome.ws,,9004150986,,,,,273/.6,BT1319 .H475 2006,,,OL12799065M,3823,0,,,,,,,,1935869,pdf,B6E565723DF9D9DEA1343ABA790B2BFB,,,Y. dl_avaxhome 3823  _=9004150986_-_Heresy_and_the_Persecuting_Society_in_the_Middle_Ages.pdf,0,2000-01-01 01:00:00,2016-04-03 02:51:08,260000/b6e565723df9d9dea1343aba790b2bfb-d.jpg,,
5698376,Baby Facts: The Truth about Your Child's Health from Newborn through Preschool,,,,"Andrew Adesman, William Sears",2009,,Wiley,,287,0,English,Медицина,avaxhome.ws,,"0470179392,9780470179390",,,,,649/.122,RJ61 .A25 2009,,,OL22685607M,16042,0,,,,,,,T,2996119,pdf,B6736ED9D32D0B117C4C5DB822C290F2,,,Y. dl_avaxhome 16042  _=Baby_Facts.pdf,0,2000-01-01 01:00:00,2016-04-03 02:51:08,260000/b6736ed9d32d0b117c4c5db822c290f2-d.jpg,,
5698377,Bourdieu: A Critical Reader,,Blackwell Critical Reader,,,1999,,Wiley-Blackwell,,285,0,English,Общественные науки прочие//Философия,avaxhome.ws,,0631188185,,,,,,,,,,3177,0,,,,,,,,19180033,pdf,B6A28FD58EAC5823F4F6157B5C25E791,,,Y. dl_avaxhome 3177  _=0631188185.pdf,0,2000-01-01 01:00:00,2016-04-03 02:51:08,260000/b6a28fd58eac5823f4f6157b5c25e791-d.jpg,,
5698374,National Electrical Code Handbook,,Mcgraw Hill's National Electrical Code Handbook,,Brian McPartland,2005,25,McGraw-Hill Professional,,1370,0,English,Техника//Электроника//Электротехника,avaxhome.ws,,0071443401,,,,,,,,,,6841,0,,,,,,,1,22885672,pdf,B61CC1C596F721B8710E413363C01B80,,,Y. dl_avaxhome 6841  _=isbn0071443401.pdf,0,2000-01-01 01:00:00,2016-04-03 02:51:08,260000/b61cc1c596f721b8710e413363c01b80-d.jpg,,
5698375,Professional Athlete,,Virtual Apprentice,,Gayle Bryan,2009,1,Ferguson Publishing Company,,65,0,English,Наука (общее)//Науковедение,avaxhome.ws,,0816067597,,,,,,,,,,4681,0,,,,,,,1,6900752,pdf,B66F3EC8BEDA595DD5FF83241212A415,,,Y. dl_avaxhome 4681  _=0816067597_2.pdf,0,2000-01-01 01:00:00,2016-04-03 02:51:08,260000/b66f3ec8beda595dd5ff83241212a415-d.jpg,,
5698373,Kitchen Table Sustainability: Practical Recipes for Community Engagement with Sustainability,,,,"Wendy Sarkissian, Nancy Hofer, Yollana Shore, Steph Vajda, Cathy Wilkinson",2008,,Earthscan Publications Ltd.,,400,0,English,Бизнес,avaxhome.ws,,"9781844076147,1844076148",,,,,307.1/4,HN49.C6 S27 2008,,,OL17051434M,16361,0,,,,,,,T,11774227,pdf,B5C2B9BE49AF18B5B88CF39F1D85DFE4,,,Y. dl_avaxhome 16361  _=h07.pdf,0,2000-01-01 01:00:00,2016-04-03 02:51:08,260000/b5c2b9be49af18b5b88cf39f1d85dfe4-d.jpg,,
5698371,AIR POLLUTION & HEALTH,,Issues in Environmental Science and Technology,,"R M Harrison, R E Hester, Anthony K Barbour, N A Burdett, John Cairns Jr",1998,1,Royal Society of Chemistry,,139,0,English,Биология//Экология,,0,"9780854042456,0854042458",,,,,,,,,OL18130880M,,0,,,,,1,,T,1327008,pdf,B5359A715AAA3930BF7B15BF9150C407,,,,0,2000-01-01 01:00:00,2016-04-03 02:51:08,260000/b5359a715aaa3930bf7b15bf9150c407-d.jpg,,
5698372,The Seven Days of the Heart: Prayers for the Nights and Days of the Week,,,,"Ibn 'Arabi, Pablo Beneito, Stephen Hirtenstein",2008,,Anqa Publishing,,138,0,Arabic,,,0,"1905937016,9781905937011",,,,,,,,,OL12295089M,,0,,,,,,,T,6074442,pdf,B597FE5092B1DFC95C03E1CCD014CE00,,,,0,2000-01-01 01:00:00,2016-04-03 02:51:08,260000/b597fe5092b1dfc95c03e1ccd014ce00-d.jpg,,
5698369,Professional English in Use Medicine,,,,"Eric Glendinning, Ron Howard",2007,1,Cambridge University Press,,163,0,English,Медицина,avaxhome.ws,,"9780521682015,0521682010",,,,,,,,,OL9826563M,14312,0,,,,,,,,31926007,pdf,B4ED3373CB0C4FAD70E37289845D3C21,,,Y. dl_avaxhome 14312  _=Professional_English__in_Use_Medicine.pdf,0,2000-01-01 01:00:00,2016-04-03 02:51:08,260000/b4ed3373cb0c4fad70e37289845d3c21-d.jpg,,
5698370,The Cambridge History of Iran,Volume 1,,,,1968,,Cambridge University Press,,803,0,English,История,avaxhome.ws,,0521069351,,,,,,,,,,1944,0,,,,,,,T,54578955,pdf,B4F8DE75E83526F7AA28FF4AAF8370E2,,,Y. dl_avaxhome 1944  _=0521069351.pdf,0,2000-01-01 01:00:00,2016-04-03 02:51:08,260000/b4f8de75e83526f7aa28ff4aaf8370e2-d.jpg,,
5698368,"European Central Bank, History, role, functions",,,,HANSPETER K. SCHELLER,2006,,ECB,,232,0,English,История,,2,928990027X,,,,,,,,,,,0,0,0,,,,,T,2260113,pdf,B4EC5CEBFCF94C13A757C0CCBFC395F5,,,,0,2000-01-01 01:00:00,2016-04-03 02:51:08,260000/b4ec5cebfcf94c13a757c0ccbfc395f5-g.jpg,,
5698366,Urban Design,,,,"Alex Krieger, William S. Saunders",2009,,Univ Of Minnesota Press,,389,0,English,Искусство//Архитектура,avaxhome.ws,,"9780816656387,081665638X",,,,,711/.4,NA9040 .U677 2009,,,OL22552575M,15817,0,,,,,,,T,4406618,pdf,B3FE50C136C07CEF5809680C13322121,,,Y. dl_avaxhome 15817  _=0816656398_Urban.pdf,0,2000-01-01 01:00:00,2016-04-03 02:51:08,260000/b3fe50c136c07cef5809680c13322121-d.jpg,,
5698367,"Diazo Chemistry, Vol. 2, Aliphatic, Inorganic and Organometallic Compounds",,,,Heinrich Zollinger,1995,,Wiley-VCH,,531,0,English,Техника//Металлургия,,0,"9783527292226,3527292225",,,,,540,,,,OL22103535M,,0,,,,,,,,54594455,pdf,B440B433B6A958B4762D00DD0A3B0B4C,,,,0,2000-01-01 01:00:00,2016-04-03 02:51:08,260000/b440b433b6a958b4762d00dd0a3b0b4c-d.jpg,,
5698365,BEA WebLogic Server 8 for Dummies,,,,"Jeff Heaton, Melody Layne",2003,8th edition,For Dummies,,385,0,English,Образование,avaxhome.ws,,"9780764524721,0764524720",,,,,,,,,OL8041929M,12338,0,,,,,,,T,7892162,pdf,B36DC2D731E1AD28B4B5496FAB50152B,,,Y. dl_avaxhome 12338  _=Dummies_BEA_WebLogic_Server_8_For_Dummies.pdf,0,2000-01-01 01:00:00,2016-04-03 02:51:08,260000/b36dc2d731e1ad28b4b5496fab50152b-d.jpg,,
5698363,High Tech/High Touch: Technology and Our Search for Meaning,,,,John Naisbitt,2001,,Nicholas Brealey Publishing,,295,0,English,Общественные науки прочие,avaxhome.ws,,1857882601,,,,,303.48/3,T173.8 .N34 2001,,,OL18917859M,2446,0,,,,,,,,10278193,pdf,B34F4B424C4ED76E70186CA35CBAC321,,,Y. dl_avaxhome 2446  _=mm11.pdf,0,2000-01-01 01:00:00,2016-04-03 02:51:08,260000/b34f4b424c4ed76e70186ca35cbac321-d.jpg,,
5698364,Rhyme & PUNishment: Adventures in Wordplay,,,,Brian P. Cleary,2006,,Millbrook Press,,50,0,English,Языкознание,avaxhome.ws,,1575058499,,,,,811/.54,PS3553.L39144 R49 2006,,,OL3405214M,695,0,,,,,,,T,4643274,pdf,B361418C1F77910396227B994E1F2BC1,,,Y. dl_avaxhome 695  _=zz10.pdf,0,2000-01-01 01:00:00,2016-04-03 02:51:08,260000/b361418c1f77910396227b994e1f2bc1-d.jpg,,
5698361,"The Social History of Art: Renaissance, Mannerism, Baroque",Volume 2,,,Arnold Hauser,1990,,Routledge,,141,0,German,История,avaxhome.ws,,"9780415045797,0415045797",,,,,,,,,OL10186534M,4635,0,,,,,1,,,22296892,pdf,B220B88AAD3A35A728802A7293F35252,,,Y. dl_avaxhome 4635  _=hauservol2.pdf,0,2000-01-01 01:00:00,2016-04-03 02:51:08,260000/b220b88aad3a35a728802a7293f35252-g.jpg,,
5698362,SS Armor: A Pictorial History of the Armored Formations of the Waffen-SS,,Specials series 6014,,"Robert C. Stern, Don Greer, Ron Volstad",1996,,Squadron/Signal Publications,,70,0,English,История,avaxhome.ws,,"9780897470667,0897470664",,,,,,,,,OL8266782M,16179,0,,,,,,,,9593693,pdf,B2F7321779AA306015B695BBBBB7787D,,,Y. dl_avaxhome 16179  _=SS.Armor.pdf,0,2000-01-01 01:00:00,2016-04-03 02:51:08,260000/b2f7321779aa306015b695bbbbb7787d-d.jpg,,
5698360,Doras of the Galland Circus,,"Library of Eagles, Number 1",,"Jerry Crandall, Thomas A. Tullis",1999,,Eagle Editions Ltd,,76,0,English,Биология//Генетика,avaxhome.ws,,"9780966070620,0966070623",,,,,,,,,OL8532112M,14088,0,,,,,,,,55393075,pdf,B20EDBD6E4F6BA75E62C712C031FF022,,,Y. dl_avaxhome 14088  _=Focke-Wulf_FW190_-_Doras_of_the_Galland_Circus_Eagle_Files_01.pdf,0,2000-01-01 01:00:00,2016-04-03 02:51:08,260000/b20edbd6e4f6ba75e62c712c031ff022-d.jpg,,
5698358,Europe From A to Z Guide to European integration,,,,EUROPE,1997,,,,264,0,English,,,0,"9282801624,9789282801628",,,,,,,,,,,0,0,0,,,,,,2226416,pdf,B06AA1B2E79056F0E0B8A65DA95B13D3,,,,0,2000-01-01 01:00:00,2016-04-03 02:51:08,260000/b06aa1b2e79056f0e0b8a65da95b13d3-g.jpg,,
5698359,"Understanding Change Super Series, ",,ILM Super Series,,Institute of Leadership &amp; Management (ILM),2002,4,Pergamon Flexible Learning,,91,0,English,Бизнес,avaxhome.ws,,0750658789,,,,,,,,,,4333,0,,,,,,,T,641383,pdf,B1CA3A923E34DC0C816DD505802C60C5,,,"Y. dl_avaxhome 4333  _=Understanding Change Super Series, Fourth Edition (ILM Super Series).pdf",0,2000-01-01 01:00:00,2016-04-03 02:51:08,260000/b1ca3a923e34dc0c816dd505802c60c5-d.jpg,,
5698357,"The Oxford Bookworms Library: Stage 3: 1,000 Headwords The Railway Children",,,,Edith Nesbit,2000,,"Oxford University Press, USA",,41,0,English,Образование,avaxhome.ws,,0194230139,,,,,,,,,,206,0,,,,,,,,2565210,pdf,AF74D7C6F8541BD384C8C82B7B008691,,,Y. dl_avaxhome 206  _=oxford_bookworms_-_the_railway_children_stage_3.pdf,0,2000-01-01 01:00:00,2016-04-03 02:51:08,260000/af74d7c6f8541bd384c8c82b7b008691-d.jpg,,
5698355,The Complete Idiot's Guide to College Survival,,Complete Idiot's Guide To.,,Laurie Rozakis,2001,1st,Alpha,,289,0,English,Образование,avaxhome.ws,,"0028641698,9780028641690,9781592570164",,,,,,,,,,682,0,,,,,,,T,6307498,pdf,AF64B8DC755305A3592DFA70A8F09FCB,,,Y. dl_avaxhome 682  _=zz23.pdf,0,2000-01-01 01:00:00,2016-04-03 02:51:08,260000/af64b8dc755305a3592dfa70a8f09fcb-d.jpg,,
5698356,The Atomic Bomb and the Origins of the Cold War,,,,"Prof. Campbell Craig, Prof. Sergey S Radchenko",2008,,Yale University Press,,230,0,English,,,0,"0300110286,9780300110289,9780300142655",,,,,909.82/5,D843 .C67 2008,,,OL10319107M,,0,,,,,1,,T,776991,pdf,AF6702BBBC4C64EF6DE0745614DF2FD6,,,,0,2000-01-01 01:00:00,2016-04-03 02:51:08,260000/af6702bbbc4c64ef6de0745614df2fd6-d.jpg,,
5698354,Singled Out: How Two Million British Women Survived Without Men After the First World War,,,,Virginia Nicholson,2008,,"Oxford University Press, USA",,343,0,English,История,avaxhome.ws,,0195378229,,,,,,,,,,2715,0,,,,,,,T,3804602,pdf,AE917FD10C2C40026BED73DBC11FD08C,,,Y. dl_avaxhome 2715  _=0195378229_9.pdf,0,2000-01-01 01:00:00,2016-04-03 02:51:08,260000/ae917fd10c2c40026bed73dbc11fd08c-d.jpg,,
5698352,Blood Safety and Surveillance,,,,Jeanne Linden,2001,1,Informa Healthcare,,629,0,English,Медицина,avaxhome.ws,,0824702638,,,,,,,,,,1694,0,,,,,,,T,6190791,pdf,AE582E05D95D1D359213BC41E595AD32,,,Y. dl_avaxhome 1694  _=116238___082474523x.pdf,0,2000-01-01 01:00:00,2016-04-03 02:51:08,260000/ae582e05d95d1d359213bc41e595ad32-d.jpg,,
5698353,PANZERWAFFE - THE CAMPAIGNS IN THE WEST 1940,VOL. 2,Classiccolours v. 2,,John Prigent,2008,,Ian Allan Publishing,,102,0,English,,avaxhome.ws,,"9780711032408,0711032408",,,,,,,,,OL11241852M,14876,0,,,,,,,,73715006,pdf,AE851FB5DE9B82D7D500871C7E21B224,,,Y. dl_avaxhome 14876  _=Panzerwaffe_The_Campaigns_in_the_West_1940_v2.pdf,0,2000-01-01 01:00:00,2016-04-03 02:51:08,260000/ae851fb5de9b82d7d500871c7e21b224-d.jpg,,
5698351,Wolf Pack: The Story of the U-Boat in World War II,,General Military,,Gordon Williamson,2005,First Edition,Osprey Publishing,,278,0,English,История,avaxhome.ws,,1841768723,,,,,,,,,OL8922775M,7082,0,,,,,,,T,35385082,pdf,AE483E177A876EA9CA44C1F532492520,,,Y. dl_avaxhome 7082  _=Wolf_Pack_-_The_Story_of_the_U-Boat_in_World_War_II.pdf,0,2000-01-01 01:00:00,2016-04-03 02:51:08,260000/ae483e177a876ea9ca44c1f532492520-d.jpg,,
5698349,Fast Jets 2,,Osprey Colour Series,,Chris Allan,1987,,Osprey Publishing (UK),,127,0,English,История,avaxhome.ws,,"9780850457544,0850457548",,,,,,,,,OL8264943M,13909,0,,,,,,,,5477835,pdf,ADB4876818BC1143B8213E13CCF4D553,,,Y. dl_avaxhome 13909  _=Fast.Jets2.pdf,0,2000-01-01 01:00:00,2016-04-03 02:51:08,,,
5698350,"Discrete Mathematics and Theoretical Computer Science: 4th International Conference, DMTCS 2003, Dijon, France, July 7-12, 2003. Proceedings",,Lecture Notes in Computer Science,,"Cristian S. Calude, Michael J. Dinneen, Vincent Vajnovszki",2003,1,Springer,,1,0,English,Математика,avaxhome.ws,,"9783540405054,3540405054",,,,,511/.6,QA164 .D62 2003,,,OL22543346M,13149,0,,,,,,,T,50397,pdf,ADF9E18AF6FA8976129FEC59F7DBB92E,,,Y. dl_avaxhome 13149  _=sokoban.pdf,0,2000-01-01 01:00:00,2016-04-03 02:51:08,260000/adf9e18af6fa8976129fec59f7dbb92e-d.jpg,,
5698348,Vietnam at War,,,,Mark Philip Bradley,2009,1,"Oxford University Press, USA",,250,0,English,История,avaxhome.ws,,"0192803492,9780192803498",,,,,959.704/3,DS557.6 .B73 2009,,,OL23718943M,906,0,,,,,1,,T,1578678,pdf,AD71E2CD9A74044B3B2E2B67B03FC516,,,Y. dl_avaxhome 906  _=0192803492.pdf,0,2000-01-01 01:00:00,2016-04-03 02:51:08,260000/ad71e2cd9a74044b3b2e2b67b03fc516-d.jpg,,
5698346,C++ Design Patterns and Derivatives Pricing,,"Mathematics, Finance and Risk",,M. S. Joshi,2008,2,Cambridge University Press,,310,0,English,Компьютеры//Программирование//Языки программирования,,0,"0521721628,9780521721622,9780511396939",,,,,,,,,OL22553338M,,0,,,,,1,,T,2064840,pdf,ACFF9213D025F886520836BA3800C94D,,,0521721628.Cambridge.University.Press.C.Plus.Plus.Design.Patterns.and.Derivatives.Pricing.Jun.2008.pdf,0,2000-01-01 01:00:00,2016-04-03 02:51:08,260000/acff9213d025f886520836ba3800c94d-d.jpg,,
5698347,Prosodic Orientation in English Conversation,,,,Beatrice Szczepek Reed,2007,First Edition,Palgrave Macmillan,,246,0,English,Языкознание,avaxhome.ws,,"0230008720,9780230008724,9780230625273",,,,,,,,,OL10194049M,2118,0,,,,1,0,,T,1892761,pdf,AD020C6B70C36F5F153B95C8A33D1E92,,,Y. dl_avaxhome 2118  _=0230008720.pdf,0,2000-01-01 01:00:00,2016-04-03 02:51:08,260000/ad020c6b70c36f5f153b95c8a33d1e92-d.jpg,,
5698345,PZL P.24 A-G,,Monographs No. 07,,Andrzej Glass,2004,,Kagero,,90,0,English,История,avaxhome.ws,,8389088339,,,,,,,,,,13525,0,,,,,,,,43785253,pdf,ACF6A7F862EE3DBAC06034FA1DC480C1,,,Y. dl_avaxhome 13525  _=PZL_P.24.pdf,0,2000-01-01 01:00:00,2016-04-03 02:51:08,260000/acf6a7f862ee3dbac06034fa1dc480c1-d.jpeg,,
5698343,Dead Souls: A Novel,,,,"Nikolai Gogol, Richard Pevear, Larissa Volokhonsky",1997,,Vintage,,368,0,English,Литература//Проза,avaxhome.ws,,"9780679776444,0679776443",,,,,,,,,OL7701155M,13882,0,,,,,,,,1156386,pdf,ACAEBE56942E90B4D94198096B07ACDD,,,Y. dl_avaxhome 13882  _=deadsouls.pdf,0,2000-01-01 01:00:00,2016-04-03 02:51:08,260000/acaebe56942e90b4d94198096b07acdd-d.jpg,,
5698344,Non-Well-Founded Sets,,Center for the Study of Language and Information - Lecture Notes,,Peter Aczel,1988,1,Center for the Study of Language and Inf,,137,0,English,,,0,"9780937073223,0937073229,0937073210",,,,,511.3/22,QA248 .A28 1988,,,OL2388700M,,0,,,,,,,1,4671821,pdf,ACED25413ED7610257B994F262454DC8,,,,0,2000-01-01 01:00:00,2016-04-03 02:51:08,260000/aced25413ed7610257b994f262454dc8-g.jpg,,
5698341,Semiconductor Optoelectronic Devices: Introduction to Physics and Simulation,,,,Joachim Piprek,2003,,Academic Press,,296,0,English,Физика,avaxhome.ws,,0125571909,,,,,,,,,,4374,0,,,,,,,T,5233341,pdf,AC29ECE1F2BB6FAF1C549FB4A8EA7023,,,Y. dl_avaxhome 4374  _=SemiOptoElDe.pdf,0,2000-01-01 01:00:00,2016-04-03 02:51:08,260000/ac29ece1f2bb6faf1c549fb4a8ea7023-d.jpg,,
5698342,The Hero with a Thousand Faces: Commemorative Edition,,Bollingen Series (General),,"Joseph Campbell, Clarissa Pinkola Estes",2004,Cmv,Bollingen,,497,0,English,,,0,"0691119244,9780691119243,9781577315933,1577315936",,,,,201/.3,BL313 .C28 2008,,,OL16774776M,,0,,,,1,1,,1,8372929,pdf,AC7EB1BC54626D16B94A34980D80ED08,,,,0,2000-01-01 01:00:00,2016-04-03 02:51:08,260000/ac7eb1bc54626d16b94a34980d80ed08-d.jpg,,
5698340,Russian Helmets: from Kaska to Stalshlyem 1916-2001,,,,Robert Clawson,2002,,R. James Bender Publ,,130,0,English,История,avaxhome.ws,,0912138904,,,,,,,,,,7923,0,,,,,,,,47268596,djvu,AAEA2F073098650E6AE030F485D3CC8B,,,Y. dl_avaxhome 7923  _=Russian.Helmets.djvu,0,2000-01-01 01:00:00,2016-04-03 02:51:08,260000/aaea2f073098650e6ae030f485d3cc8b-g.jpg,,
5698338,Проектирование технологической оснастки,,,,"Шулепов А.П., Шманев В.А., Шитарев И.Л.",1996,,Самарский государственный аэрокосмический университет,Самара,376,0,Russian,Техника,,0,5-230-1б991-5,,,621.9.06-2: 621.4З:658.52.011.56:681.3](075.8),,,,,,,,400,0,1,1,,,,,7921310,djvu,AA75FE8A9FE7F215475252E7428D72F6,,,,0,2000-01-01 01:00:00,2016-04-03 02:51:08,260000/aa75fe8a9fe7f215475252e7428d72f6-g.jpg,,
5698339,Downshifter's Guide to Relocation,,,,"Chris Sangster, Gillean Sangster, Chris Sangster",2005,,How to Books,,174,0,English,"Домоводство, досуг",avaxhome.ws,,"9781857039559,1857039556",,,,,,,,,OL8998222M,16380,0,,,,,,,T,14201883,pdf,AAE6D5A09A96F5902A4A5A13D97111BA,,,Y. dl_avaxhome 16380  _=h01.pdf,0,2000-01-01 01:00:00,2016-04-03 02:51:08,260000/aae6d5a09a96f5902a4a5a13d97111ba-d.jpg,,
5698337,Ferguson Career Coach: Managing Your Career in the Art Industry,,,,Shelly Field,2008,,Ferguson Publishing Company,,301,0,English,Бизнес//Менеджмент//Управление проектами,avaxhome.ws,,"0816053561,9780816053568,081605357X,9780816053575",,,,,,,,,OL11359921M,4300,0,,,,,,,T,1441138,pdf,AA41BC1BCF72D3E0099227852F8D9306,,,Y. dl_avaxhome 4300  _=0816053561__Art_In.pdf,0,2000-01-01 01:00:00,2016-04-03 02:51:08,260000/aa41bc1bcf72d3e0099227852f8d9306-d.jpg,,
5698335,Armies of Ivan the Terrible: Russian Troops 1505-1700,,Men-at-Arms,,David Nicolle,2006,illustrated edition,Osprey Publishing,,51,0,English,История,avaxhome.ws,,1841769258,,,,,,,,,OL8922824M,2551,0,,,,,,,,15116726,pdf,AA133E415C24CEF549EA09BD06BEF733,,,Y. dl_avaxhome 2551  _=Armies.Ivan.Terrible.pdf,0,2000-01-01 01:00:00,2016-04-03 02:51:08,260000/aa133e415c24cef549ea09bd06bef733-d.jpg,,
5698336,"Media Effects and Beyond: Culture, Socialization and Lifestyles",,Communication and Society,,Karl Erik Rosengren,1994,1,Routledge,,313,0,English,Техника,avaxhome.ws,,"0415091411,9780415091411,9780203992593",,,,,302.23,HM258 .M3742 1994,,,OL1077195M,2048,0,,,,,1,,T,2811992,pdf,AA1A623B5D9BF0C858F24FBCEB552146,,,Y. dl_avaxhome 2048  _=0415091411.pdf,0,2000-01-01 01:00:00,2016-04-03 02:51:08,260000/aa1a623b5d9bf0c858f24fbceb552146-d.jpg,,
5698333,"The Biggest Loser Fitness Program: Fast, Safe, and Effective Workouts to Target and Tone Your Trouble Spots--Adapted from NBC's Hit Show!",,,,The Biggest Loser Experts and Cast,2007,1,Rodale Books,,205,0,English,,avaxhome.ws,,1594866953,,,,,,,,,OL9546142M,7356,0,,,,,,,,84985905,pdf,A9ADF40E0FF91C980DBCD20E9E4A0E83,,,Y. dl_avaxhome 7356  _=The_Biggest_Loser_Fitness_Program__book_.pdf,0,2000-01-01 01:00:00,2016-04-03 02:51:08,260000/a9adf40e0ff91c980dbcd20e9e4a0e83-d.jpg,,
5698334,"The Invention of the Creek Nation, 1670-1763",,Indians of the Southeast,,Steven C. Hahn,2004,,University of Nebraska Press,,353,0,English,История,avaxhome.ws,,0803224141,,,,,,,,,,763,0,,,,,,,T,14868082,pdf,A9D316E183FA969798FAE84FF29DAA86,,,Y. dl_avaxhome 763  _=3333333333333333333.pdf,0,2000-01-01 01:00:00,2016-04-03 02:51:08,260000/a9d316e183fa969798fae84ff29daa86-d.jpg,,
5698332,Mass Spectrometry in Medicinal Chemistry: Applications in Drug Discovery,,Methods and Principles in Medicinal Chemistry,,,2007,1,Wiley-VCH,,462,0,English,Химия,avaxhome.ws,,3527314563,,,,,,,,,OL18286438M,8185,0,,,,,,,T,9745498,pdf,A9A64402389D8BEAC0DB24FF6AE4B093,,,Y. dl_avaxhome 8185  _=9783527314560.pdf,0,2000-01-01 01:00:00,2016-04-03 02:51:08,260000/a9a64402389d8beac0db24ff6ae4b093-d.jpg,,
5698330,Constructivist Instruction: Success or Failure?,,,,"Sigmund Tobias, Thomas M. Duffy",2009,1,Routledge,,389,0,English,,,0,"0415994241,9780415994248,0415994233,9780415994231,0203878841,9780203878842",,,,,370.15/2,LB1590.3 .C6785 2009,,,OL23080655M,,0,,,,,1,,T,2896445,pdf,A98BCEE4B8C9FB2B6237420E1F3D9A8E,,,,0,2000-01-01 01:00:00,2016-04-03 02:51:08,260000/a98bcee4b8c9fb2b6237420e1f3d9a8e-d.jpg,,
5698331,Castable Polyurethane Elastomers,,,,I.R. Clemitson,2008,First Edition,CRC Press,,274,0,English,Химия,avaxhome.ws,,"1420065769,9781420065763,9781420065770",,,,,,,,,OL11816983M,1648,0,,,,,1,,T,1651193,pdf,A99597255701CD34E0B8CE2E1290398D,,,Y. dl_avaxhome 1648  _=129736___1420065769.pdf,0,2000-01-01 01:00:00,2016-04-03 02:51:08,260000/a99597255701cd34e0b8ce2e1290398d-d.jpg,,
5698329,The Feminine Mystique,,,,"Betty Friedan, Anna Quindlen",2001,,W. W. Norton & Company,,6,0,English,eLearning_book\\Others,avaxhome.ws,,"9780393322576,0393322572",,,,,,,,,OL7453863M,13796,0,,,,,,,,1164064,pdf,A989148D631DF50C885F437FAE936929,,,Y. dl_avaxhome 13796  _=The_Feminine_Mystique_chapter_3_-_The_Crisis_in_Woman_s_Identity.pdf,0,2000-01-01 01:00:00,2016-04-03 02:51:08,260000/a989148d631df50c885f437fae936929-d.jpg,,
5698328,In Defense of Food: An Eater's Manifesto,,,,Michael Pollan,2008,First Printing,"Penguin Press HC, The",,260,0,English,"Домоводство, досуг//Кулинария",avaxhome.ws,,"1594201455,9781594201455",,,,,613,RA784 .P643 2008,,,OL12433642M,6551,0,,,,,,,1,3067659,pdf,A950D4EB64094A7BE1AEC1F5E32EC2CA,,,Y. dl_avaxhome 6551  _=Pollan__Michael_-_In_Defense_of_Food__An_Eater_s_Manifesto__Penguin__2008_.pdf,0,2000-01-01 01:00:00,2016-04-03 02:51:08,260000/a950d4eb64094a7be1aec1f5e32ec2ca-d.jpg,,
5698327,In Order to Learn: How the Sequence of Topics Influences Learning,,Oxford Series on Cognitive Models and Architectures,,"Frank E. Ritter, Josef Nerb, Erno Lehtinen, Timothy M. O'Shea",2007,1,"Oxford University Press, USA",,255,0,English,Образование,,0,"019517884X,9780195178845,9781435618671",,,,,,,,,OL17235073M,,0,,,,,1,,T,2580014,pdf,A910E47A2DF7504F92AE21D7F6931EF4,,,,0,2000-01-01 01:00:00,2016-04-03 02:51:08,260000/a910e47a2df7504f92ae21d7f6931ef4-d.jpg,,
5698325,Regional Development And Spatial Planning in an Enlarged European Union,,Urban and Regional Planning and Development Series) (Urban and Regional Planning and Development Series,,"Neil Adams, Jeremy Alden, Neil Harris",2006,,Ashgate Publishing,,298,0,English,,,0,"9780754647140,0754647145",,,,,,,,,OL22741846M,,0,,,,,,,T,1849182,pdf,A8E5D99FE89E2F60416DDF137C5980A2,,,,0,2000-01-01 01:00:00,2016-04-03 02:51:08,260000/a8e5d99fe89e2f60416ddf137c5980a2-d.jpg,,
5698326,The Waffen SS (3): 11. to 23. Divisions,v. 3,Men-at-Arms,,Gordon Williamson,2004,illustrated edition,Osprey Publishing,,51,0,English,История,avaxhome.ws,,1841765910,,,,,,,,,OL8922521M,1354,0,,,,,,,,14866035,pdf,A90CC934D569AD5E49D29A7165784CAB,,,Y. dl_avaxhome 1354  _=The.Waffen.Ss.3.pdf,0,2000-01-01 01:00:00,2016-04-03 02:51:08,260000/a90cc934d569ad5e49d29a7165784cab-d.jpg,,
5698323,A Dictionary of Nonprofit Terms and Concepts,,Philanthropic and Nonprofit Studies,,"David Horton Smith, Robert A. Stebbins, Michael A. Dover",2006,,Indiana University Press,,356,0,English,Языкознание//Словари,avaxhome.ws,,"0253347831,9780253347831,9780253112224",,,,,,,,,OL10228812M,7389,0,,,,,1,,T,1400582,pdf,A8660955BC8E4CF1DB9B687BAED7DF84,,,Y. dl_avaxhome 7389  _=D.1131232.pdf,0,2000-01-01 01:00:00,2016-04-03 02:51:08,260000/a8660955bc8e4cf1db9b687baed7df84-d.jpg,,
5698324,Wednesday Is Indigo Blue: Discovering the Brain of Synesthesia,,,,"Richard E. Cytowic, David M. Eagleman",2009,1,The MIT Press,,321,0,English,Биология,,0,"0262012790,9780262012799",,,,,612.8/233,RC394.S93 C964 2009,,,OL16974682M,,0,,,,,,,T,2816209,pdf,A8C2BAD1D996E716065B7DCECC063278,,,,0,2000-01-01 01:00:00,2016-04-03 02:51:08,260000/a8c2bad1d996e716065b7dcecc063278-d.jpg,,
5698322,"Monitoring Sweatshops: Workers, Consumers, and the Global Apparel Industry",,,,Jill Esbenshade,2004,,Temple University Press,,290,0,English,Экономика,avaxhome.ws,,"1592132561,9781592132560,1592132553,9781592132553,9781439900642",,,,,,,,,OL8859853M,8168,0,,,,,,,T,12007534,pdf,A7A8B3F6222DE5B1B2851637415975D1,,,Y. dl_avaxhome 8168  _=1592132553_Sweatshops_7.pdf,0,2000-01-01 01:00:00,2016-04-03 02:51:08,260000/a7a8b3f6222de5b1b2851637415975d1-d.jpg,,
5698320,"Flight Deck: US Navy Carrier Operations, 1940-1945 - Aircraft Specials series (6086",,,,"Al Adcock, Don Greer, Andrew Probert",2002,,"Squadron/Signal Publications Inc.,U.S.",,66,0,English,История,avaxhome.ws,,"0897474414,9780897474412",,,,,,,,,OL3670204M,7331,0,,,,,1,,,18748066,djvu,A76036A56CBEE8DC721E4344F51BB915,,,Y. dl_avaxhome 7331  _=Flight.Deck.djvu,0,2000-01-01 01:00:00,2016-04-03 02:51:08,260000/a76036a56cbee8dc721e4344f51bb915-d.jpg,,
5698321,A Room with a View,,Bantam Classics,,E. M. Forster,2008,,CreateSpace,,226,0,English,Литература//Проза,avaxhome.ws,,"1440417814,9781440417818",,,,,,,,,,16024,0,,,,,1,,T,502171,pdf,A796F42B0B2F8B058E87A31C5CB29EF9,,,Y. dl_avaxhome 16024  _=Room-View6x9.pdf,0,2000-01-01 01:00:00,2016-04-03 02:51:08,260000/a796f42b0b2f8b058e87a31c5cb29ef9-d.jpg,,
5698319,Silent Skies: Gliders at War 1939-1945,,,,Tim Lynch,2008,,Pen and Sword,,119,0,English,История,avaxhome.ws,,1-84415-736-9,,,,,,,,,,1670,0,,,,,,,,109497160,pdf,A7597CB9B2EBAD7EAB3D2F5892496026,,,Y. dl_avaxhome 1670  _=Silent_Skies_-_Gliders_at_War_1939-1945.pdf,0,2000-01-01 01:00:00,2016-04-03 02:51:08,260000/a7597cb9b2ebad7eab3d2f5892496026-d.jpg,,
5698317,NEUROINFLAMMATION IN NEURONAL DEATH AND REPAIR,,International Review of Neurobiology Volume 82,,"G. Bagetta, G. Bagetta",2007,1,Academic Press,,499,0,English,Техника,avaxhome.ws,,"9780123739896,0123739896",,,,,,,,,OL22380675M,15265,0,,,,,,,,10210031,pdf,A593D6ABB5492C72D4F3FB49EFCB3D4F,,,Y. dl_avaxhome 15265  _=baget0123739896.pdf,0,2000-01-01 01:00:00,2016-04-03 02:51:08,260000/a593d6abb5492c72d4f3fb49efcb3d4f-d.jpg,,
5698318,"Arab Women Writers: A Critical Reference Guide, 1873-1999",,,,"Radwa Ashour, Ferial Ghazoul, Hasna Reda-mekdashi",2008,,American University in Cairo Press,,542,0,English,,,0,"9774161467,9789774161469",,,,,,,,,OL13164341M,,0,,,,,,,T,5261963,pdf,A678A7761611BE9B1BF384D89B64DB5F,,,,0,2000-01-01 01:00:00,2016-04-03 02:51:08,260000/a678a7761611be9b1bf384d89b64db5f-d.jpg,,
5698316,"Accountants' Handbook, Financial Accounting and General Topics",,ACCOUNTANTS’ HANDBOOK,,"D. R. Carmichael, O. Ray Whittington, Lynford Graham",2007,1,Wiley,,1058,0,English,Бизнес//Бухгалтерский учет,,0,"0471790389,9780471790389",,,,,,,,,OL7621655M,,0,,,,,,,T,11915240,pdf,A52F69D6A624B604B1D8EA281E3C5D09,,,,0,2000-01-01 01:00:00,2016-04-03 02:51:08,260000/a52f69d6a624b604b1d8ea281e3c5d09-d.jpg,,
5698314,Maintenance Benchmarking and Best Practices,,,,Ralph Peters,2006,1,McGraw-Hill Professional,,599,0,English,Техника,avaxhome.ws,,"0071463399,9780071463393,0071491651,9780071491655",,,,,,,,,OL24262666M,6094,0,,,,,1,,,4135563,pdf,A4DFBCD627FE179D6532A22717329C53,,,Y. dl_avaxhome 6094  _=MaintenanceBenchmarking.pdf,0,2000-01-01 01:00:00,2016-04-03 02:51:08,260000/a4dfbcd627fe179d6532a22717329c53-d.jpg,,
5698315,Ship Modeling from Stem to Stern,,,,Milton Roth,1988,1,McGraw-Hill Professional,,276,0,English,"Домоводство, досуг",avaxhome.ws,,0830628444,,,,,,,,,,9296,0,,,,,,,,48742457,pdf,A4F3D1EFFEC8479DE801ED036CC47AF6,,,Y. dl_avaxhome 9296  _=Ship.modeling.from.Stem.to.Stern.pdf,0,2000-01-01 01:00:00,2016-04-03 02:51:08,260000/a4f3d1effec8479de801ed036cc47af6-d.jpg,,
5698312,The Forensic Evaluation of Traumatic Brain Injury: A Handbook for Clinicians and Attorneys,,,,Gregory Murrey  Ph.D.,2000,1,CRC Press,,168,0,English,,,0,"9780849320354,0849320356",,,,,617.4/81044,RC387.5 .F66 2000,,,OL22424817M,,0,,,,,,,,1525232,pdf,A427888EF313D0D725ECBB4D50A9FE20,,,,0,2000-01-01 01:00:00,2016-04-03 02:51:08,260000/a427888ef313d0d725ecbb4d50a9fe20-d.jpg,,
5698313,IEEE-488 General Purpose Instrumentation Bus Manual,,Professional and Technical Series,,Anthony J. Caristi,1989,,Academic Press,,269,0,English,,avaxhome.ws,,0121598209,,,,,,,,,,1735,0,,,,,,,,3197348,pdf,A4A8ED3A27F1BB528878FEFFBB4D7210,,,Y. dl_avaxhome 1735  _=0121598209__IEEE488manual.pdf,0,2000-01-01 01:00:00,2016-04-03 02:51:08,260000/a4a8ed3a27f1bb528878feffbb4d7210-d.jpg,,
5698311,The Road to Scientific Success: Inspiring Life Stories of Prominent Researchers,,,,Deborah D. L. Chung (Editor),2006,,World Scientific Publishing Company,,244,0,English,Наука (общее)//Науковедение,avaxhome.ws,,"9789812564665,9812564667",,,,,,,,,OL22752484M,16325,0,,,,,,,T,17052695,pdf,A35584405AE37F238CE06595E9941091,,,Y. dl_avaxhome 16325  _=h27.pdf,0,2000-01-01 01:00:00,2016-04-03 02:51:08,260000/a35584405ae37f238ce06595e9941091-g.jpg,,
5698309,Berlin Airlift: The Effort and the Aircraft,,,,R.E.G. Davies,1998,1st,Airlife Publishing Ltd,,90,0,English,История,avaxhome.ws,,"9781888962055,1888962054",,,,,,,,,OL6834990M,10989,0,,,,,1,,T,67436085,pdf,A30026161EB522C3F4612CC4341D8476,,,Y. dl_avaxhome 10989  _=Berlin_Airlift.pdf,0,2000-01-01 01:00:00,2016-04-03 02:51:08,260000/a30026161eb522c3f4612cc4341d8476-d.jpg,,
5698310,Tanks: An Illustrated History of Their Impact,,Weapons and Warfare,,Spencer Tucker,2004,,ABC-CLIO,,397,0,English,История,avaxhome.ws,,1576079961,,,,,,,,,,7208,0,,,,,,,T,9068491,pdf,A31336FB25316EE9E4782D6944D24C8C,,,Y. dl_avaxhome 7208  _=impact-_tanks.pdf,0,2000-01-01 01:00:00,2016-04-03 02:51:08,260000/a31336fb25316ee9e4782d6944d24c8c-d.jpg,,
5698307,Modern chemistry: Systematic chemistry,,Volume 2,,William Ramsay,2002,,Adamant Media Corporation,,216,0,English,Химия,avaxhome.ws,,0543693643,,,,,,,,,,8234,0,,,,,,,T,16273944,pdf,A2B177B294F79073C122AE1DFA513691,,,Y. dl_avaxhome 8234  _=Modern_chemistry2.pdf,0,2000-01-01 01:00:00,2016-04-03 02:51:08,260000/a2b177b294f79073c122ae1dfa513691-d.jpg,,
5698308,"Medea, Magic, and Modernity in France",,,,Amy Wygant,2007,,Ashgate,,228,0,English,История,avaxhome.ws,,0754659240,,,,,,,,,,731,0,,,,,,,T,1930460,pdf,A2F15548B87F62EC6449BD8ECC7F3F64,,,Y. dl_avaxhome 731  _=0754659240.pdf,0,2000-01-01 01:00:00,2016-04-03 02:51:08,260000/a2f15548b87f62ec6449bd8ecc7f3f64-d.jpg,,
5698306,Profiles of Indiana,,,,"David Garoogian, Laura Mars-Proietti",2007,1,Universal Reference Publications,,508,0,English,,avaxhome.ws,,1592372147,,,,,,,,,,644,0,,,,,,,T,13974008,pdf,A2267EA07B9849F6C871C4545B540185,,,Y. dl_avaxhome 644  _=Profiles_of_Indiana.pdf,0,2000-01-01 01:00:00,2016-04-03 02:51:08,260000/a2267ea07b9849f6c871c4545b540185-d.jpg,,
5698304,Howl's Moving Castle,,Howl's Moving Castle 1,,Diana Wynne Jones,2008,,Greenwillow Books,,111,0,English,Литература//Проза,avaxhome.ws,0,"0061478784,9780061478789",,,,,,,,,,converted from text file; missing front matter,0,,,,,1,,1,516678,pdf,A19CE256A118C5A18759DEFDFCB1C464,,,Y. dl_avaxhome 14228  _=Jones_HMC.PDF,0,2000-01-01 01:00:00,2016-04-03 02:51:08,260000/a19ce256a118c5a18759defdfcb1c464-d.jpg,,
5698305,Forensic Entomology: The Utility of Arthropods in Legal Investigations,,,,"Jason H. Byrd, James L. Castner",2000,1,CRC Press,,437,0,English,Биология,avaxhome.ws,,"9780849381201,9781420036947,0849381207",,,,,,,,,OL18172706M,513,0,,,,,,,T,14609286,pdf,A20DFD7E72E69D78B42634F3D20925CF,,,Y. dl_avaxhome 513  _=0849381207_7.pdf,0,2000-01-01 01:00:00,2016-04-03 02:51:08,260000/a20dfd7e72e69d78b42634f3d20925cf-d.jpg,,
5698302,Explorations of Phase Theory: Interpretation at the Interfaces,,Interface Explorations,,"Grohmann, Kleanthes K., Kleanthes K. Grohmann",2009,1,Mouton de Gruyter,,289,0,English,,,0,"3110205211,9783110205213",,,,,415/.0182,P158.28 .E973 2009,,,OL23148087M,,0,,,,,,,T,2220123,pdf,A0B329D970DA3D94BF21E3213BA544A4,,,,0,2000-01-01 01:00:00,2016-04-03 02:51:08,260000/a0b329d970da3d94bf21e3213ba544a4-d.jpg,,
5698303,As You Like It,,Arden Shakespeare: Third Series,,"William Shakespeare, Juliet Dusinberre",2006,3rd,Arden Shakespeare,,467,0,English,,,0,"1904271219,9781904271215",,,,,,,,,OL8770916M,,0,,,,,,,1,8658504,pdf,A0C55CF61E69ACA1B93DAD7F71534C7D,,,,0,2000-01-01 01:00:00,2016-04-03 02:51:08,260000/a0c55cf61e69aca1b93dad7f71534c7d-d.jpg,,
5698300,"Conrad II, 990-1039: Emperor of Three Kingdoms",,,,Herwig Wolfram,2006,,Pennsylvania State Univ,,496,0,German,,avaxhome.ws,,027102738X,,,,,,,,,OL10284408M,1989,0,,,,,,,T,6190015,pdf,A0528E36F1553704CAAB606923507613,,,Y. dl_avaxhome 1989  _=2006000633.pdf,0,2000-01-01 01:00:00,2016-04-03 02:51:08,260000/a0528e36f1553704caab606923507613-d.jpg,,
5698301,Darwin Loves You: Natural Selection and the Re-enchantment of the World,,,,George Levine,2008,,Princeton University Press,,335,0,English,Биология,avaxhome.ws,,0691136394,,,,,,,,,,6254,0,,,,,,,T,4332277,pdf,A0A22799129CD0DB912259326370C668,,,Y. dl_avaxhome 6254  _=DarwinLovesYou.pdf,0,2000-01-01 01:00:00,2016-04-03 02:51:08,260000/a0a22799129cd0db912259326370c668-d.jpg,,
5698299,Skinny Bitch Bun in the Oven: A Gutsy Guide to Becoming One Hot (and Healthy) Mother!,,,,"Rory Freedman, Kim Barnouin",2008,,Running Press,,330,0,English,"Домоводство, досуг",avaxhome.ws,,"9780762431052,0762431059",,,,,618,RA,,,OL23097086M,16327,0,,,,,,,T,6914310,pdf,9FFA96D7D42D6BF1ACF51683E79932AB,,,Y. dl_avaxhome 16327  _=h26.pdf,0,2000-01-01 01:00:00,2016-04-03 02:51:08,260000/9ffa96d7d42d6bf1acf51683e79932ab-d.jpg,,
5698296,A Historical Atlas (1885),,,,Robert Henlopen Labberton,2008,,"Kessinger Publishing, LLC",,58,0,English,История,avaxhome.ws,,1436773415,,,,,,,,,,3007,0,,,,,,,T,5926358,pdf,9F786B04E2D4C3E50904C24B47CB11E3,,,Y. dl_avaxhome 3007  _=HistoricalAtlas.pdf,0,2000-01-01 01:00:00,2016-04-03 02:51:08,260000/9f786b04e2d4c3e50904c24b47cb11e3-d.jpg,,
5698297,The Rise and Fall of Europe's New Stock Markets,,Advances in Financial Economics Volume 10,,Giudici G,2004,,Elsevier Science,,368,0,English,,,0,"9780762311378,0762311371",,,,,,,,,OL22616422M,,0,,,,,,,1,2334960,pdf,9F87714614F3E159A273F9EC1279C106,,,,0,2000-01-01 01:00:00,2016-04-03 02:51:08,260000/9f87714614f3e159a273f9ec1279c106-d.jpg,,
5698298,The Hunt for Red October,,Jack Ryan,,Tom Clancy,1992,later printing,Berkley,,302,0,English,,avaxhome.ws,,0425133516,,,,,,,,,,2299,0,,,,,,,,1658872,pdf,9FBEB0DE455BC9E619E799A019AB0C40,,,Y. dl_avaxhome 2299  _=t.c3526246.pdf,0,2000-01-01 01:00:00,2016-04-03 02:51:08,260000/9fbeb0de455bc9e619e799a019ab0c40-d.jpg,,
5698295,The Complete Idiot's Guide to the Perfect Marriage,,,,"Hilary Rich, M.D., Helaina Laks Kravitz, Helaina L. Laks Kravitz MD",2001,2,Alpha,,334,0,English,Образование,avaxhome.ws,,"0028641728,9780028641720,9781592570324",,,,,646.7/8,HQ734 .R44 2001,,,OL3957620M,683,0,,,,,,,T,6793413,pdf,9F42C907178AFFAD026C31410FBD5C9F,,,Y. dl_avaxhome 683  _=zz22.pdf,0,2000-01-01 01:00:00,2016-04-03 02:51:08,260000/9f42c907178affad026c31410fbd5c9f-d.jpg,,
5698294,Fitness Evaluation of the Horse,,Howell Equestrian Library,,Jean-Pierre Hourdebaigt LMT,2008,Spi,Howell Book House,,274,0,English,Биология,avaxhome.ws,,0470192291,,,,,,,,,,4637,0,,,,,,,,20389622,pdf,9F353970E91997BABE3C01C045FB2C37,,,Y. dl_avaxhome 4637  _=0470192291_5.pdf,0,2000-01-01 01:00:00,2016-04-03 02:51:08,260000/9f353970e91997babe3c01c045fb2c37-d.jpg,,
5698291,How to Avoid Falling in Love with a Jerk,,,,John Van Epp,2008,1,McGraw-Hill,,338,0,English,Образование,avaxhome.ws,,0071548424,,,,,,,,,,2312,0,,,,,,,,1642401,pdf,9D1648EE485D0D3FAEE982630DB7A9B9,,,Y. dl_avaxhome 2312  _=H.F63575.PDF,0,2000-01-01 01:00:00,2016-04-03 02:51:08,260000/9d1648ee485d0d3faee982630db7a9b9-d.jpg,,
5698292,Women's Work: Making Dance in Europe before 1800,,Studies in Dance History,,Lynn Brooks,2007,1,University of Wisconsin Press,,282,0,English,,,0,"9780299225346,0299225348,0299225305",,,,,,,,,OL10317344M,,0,,,,,,,1,2675687,pdf,9E84A2005BC19DF2572FCFDD552C49A6,,,,0,2000-01-01 01:00:00,2016-04-03 02:51:08,260000/9e84a2005bc19df2572fcfdd552c49a6-d.jpg,,
5698293,Payment Systems in Global Perspective,,Routledge International Studies in Money and Banking,,Maxwell J. Fry,1999,,Routledge,,188,0,English,,,0,"0415207649,9780415207645",,,,,332.1/1,HG1692 .P387 1999,,,OL18279698M,,0,,,,,1,,T,1132159,pdf,9E909C48B96AB6974BBF2946CB6D64C6,,,,0,2000-01-01 01:00:00,2016-04-03 02:51:08,260000/9e909c48b96ab6974bbf2946cb6d64c6-d.jpg,,
5698290,The Power of a Promise: Education and Economic Renewal in Kalamazoo,,,,Michelle Miller-Adams,2009,1st,W.E. Upjohn Institute,,275,0,English,Образование,,0,"0880993405,9780880993395,0880993391,9780880993401",,,,,378.3/40977417,LB2338 .M53 2008,,,OL22849366M,,0,,,,,,,T,3674990,pdf,9D10599A870C14098DD871F2F0BE1BE6,,,,0,2000-01-01 01:00:00,2016-04-03 02:51:08,260000/9d10599a870c14098dd871f2f0be1be6-d.jpg,,
5698289,The Little Black Book of Online Business: 1001 Insider Resources Every Business Owner Needs,,,,Paul Galloway,2009,,Wiley,,275,0,English,Бизнес,avaxhome.ws,,"047040776X,9780470407769,0470438185,9780470438183",,,,,658.8/72,HF5548.32 .G355 2009,,IqMyY_NkTWMC,OL23122368M,5440,0,,,,1,0,,1,1566246,pdf,9CF0C78B72A2EF92E1F2B5EE82BAEAD5,,,Y. dl_avaxhome 5440  _=LittleBlackBook.pdf,0,2000-01-01 01:00:00,2016-04-03 02:51:08,260000/9cf0c78b72a2ef92e1f2b5ee82baead5-d.jpg,,
5698288,History of the First Christians,,Understanding the Bible and Its World,,Alexander J. M. Wedderburn,2004,,T&T Clark Int'l,,309,0,English,История,avaxhome.ws,,"0567084132,9780567084132,9780567144065",,,,,270.1,BR165 .W43 2004,,,OL22574465M,726,0,,,,,1,,T,16713868,pdf,9CA8F20EF2234BE5F254B0B103EFE6D2,,,Y. dl_avaxhome 726  _=History_of_the_First_Christians.pdf,0,2000-01-01 01:00:00,2016-04-03 02:51:08,260000/9ca8f20ef2234be5f254b0b103efe6d2-d.jpg,,
5698286,Hawaii For Dummies,,Dummies Travel,,Cheryl Farr Leas,2004,3,For Dummies,,554,0,English,География,avaxhome.ws,,"9780764574023,9780764583544,0764574027",,,,,,,,,OL23041659M,16322,0,,,,,1,,T,12086786,pdf,9C26AD7DE51EB163EECBA992341272DE,,,Y. dl_avaxhome 16322  _=h29.pdf,0,2000-01-01 01:00:00,2016-04-03 02:51:08,260000/9c26ad7de51eb163eecba992341272de-d.jpg,,
5698287,Imagining the Tenth Dimension: A New Way of Thinking About Time and Space,,,,Rob; Bryanton,2006,,Trafford Publishing,,227,0,English,Техника//Аэрокосмическое оборудование,avaxhome.ws,,"9781425103804,1425103804",,,,,,,,,OL8502190M,15568,0,,,,,,,T,9900374,pdf,9C8B95D458F6310919FB631568FF6511,,,Y. dl_avaxhome 15568  _=tenth_dimension.pdf,0,2000-01-01 01:00:00,2016-04-03 02:51:08,260000/9c8b95d458f6310919fb631568ff6511-d.jpg,,
5698285,Foundations of Mathematical Economics,,,,Michael Carter,2001,1st,The MIT Press,,669,0,English,Математика,avaxhome.ws,,"0262032899,9780262032896,9780585437002",,,,,,,,,OL9637221M,2455,0,,,,,1,,1,2420469,pdf,9BBD531ED6BF13286BE7E6AB96715A2E,,,Y. dl_avaxhome 2455  _=mm05.pdf,0,2000-01-01 01:00:00,2016-04-03 02:51:08,260000/9bbd531ed6bf13286be7e6ab96715a2e-d.jpg,,
5698283,Classic Knits for Real Women: Versatile Knitwear Designs for Plus Sizes,,,,"Martin Storey, Sharon Brant",2005,,C&T Publishing,,116,0,English,"Домоводство, досуг",avaxhome.ws,,"1571203699,9781571203694",,,,,,,,,OL8730725M,13220,0,,,,,1,,,12930752,djvu,9B993DD218764B3EEACBD5970477D05E,,,Y. dl_avaxhome 13220  _=Classic.Knits.for.Real.Women.djvu,0,2000-01-01 01:00:00,2016-04-03 02:51:08,260000/9b993dd218764b3eeacbd5970477d05e-d.jpg,,
5698284,America's Economic Moralists: A History of Rival Ethics and Economics,,,,Donald E. Frey,2009,,State University of New York Press,,251,0,English,Экономика,,0,"0791493512,9780791493519",,,,,174.092/27,HB119.A3 F73 2009,,,OL22569371M,,0,,,,,,,T,1053971,pdf,9BBD0A6D044C441ECDBC00CC471EA0E4,,,,0,2000-01-01 01:00:00,2016-04-03 02:51:08,260000/9bbd0a6d044c441ecdbc00cc471ea0e4-d.jpg,,
5698281,"Purchase, Rehab, and Reposition Commercial Investment Property",,,,Michael Zaransky,2007,Original,Kaplan Publishing,,225,0,English,Бизнес,avaxhome.ws,,"9781419596797,1419596799",,,,,332.63/24,HD1393.55 .Z37 2007,,,OL22515948M,16339,0,,,,,,,T,5841108,pdf,9B353A01C2BC74864DD509FA6CB416AE,,,Y. dl_avaxhome 16339  _=h18.pdf,0,2000-01-01 01:00:00,2016-04-03 02:51:08,260000/9b353a01c2bc74864dd509fa6cb416ae-d.jpg,,
5698282,Thermoluminescence of Solids,,Cambridge Solid State Science Series,,S. W. S. McKeever,1988,,Cambridge University Press,,194,0,English,Физика,avaxhome.ws,,"0521368111,9780521368117",,,,,,,,,OL7738359M,1176,0,,,,,1,,,6633091,djvu,9B62DB5C3EC9710D973E81907B3754FB,,,Y. dl_avaxhome 1176  _=Thermolumines.djvu,0,2000-01-01 01:00:00,2016-04-03 02:51:08,260000/9b62db5c3ec9710d973e81907b3754fb-d.jpg,,
5698278,Ibn 'Arabi and Modern Thought: The History of Taking Metaphysics Seriously,,,,Peter Coates,2002,,Anqa Publishing,,216,0,English,Физика,,0,"9780953451371,0953451372",,,,,,,,,OL8478235M,,0,,,,,,,T,15237402,pdf,9A5308664A821D8BBBA3A34356ECC6AE,,,,0,2000-01-01 01:00:00,2016-04-03 02:51:08,260000/9a5308664a821d8bbba3a34356ecc6ae-d.jpg,,
5698279,The Complete Idiot's Guide to Understanding Buddhism,,,,Gary Gach,2001,1st,Alpha,,433,0,English,Образование,avaxhome.ws,,"0028641701,9780028641706,9781592570089",,,,,,,,,OL23006788M,680,0,,,,,,,T,13786491,pdf,9A983E0479BCAB256E3E804B6C5E1F39,,,Y. dl_avaxhome 680  _=zz25.pdf,0,2000-01-01 01:00:00,2016-04-03 02:51:08,260000/9a983e0479bcab256e3e804b6c5e1f39-d.jpg,,
5698280,Children's Sri Sai Baba,,,,Vikasa Mehata,2001,,Siddharth Publications,,108,0,English,,avaxhome.ws,,8172201397,,,,,,,,,OL3592493M,2661,0,,,,,,,T,6777399,pdf,9AB76B322ED415E19A91CC2F31CE54AB,,,Y. dl_avaxhome 2661  _=Childrens_Sri_Sai_Baba.book.pdf,0,2000-01-01 01:00:00,2016-04-03 02:51:08,260000/9ab76b322ed415e19a91cc2f31ce54ab-g.jpg,,
5698277,,,"Current Topics in Developmental Biology, Volume 38",,"Roger A. Pedersen, Gerald P. Schatten",1997,1st,Academic Press,,323,0,English,,avaxhome.ws,,"0121531384,9780121531386,9780080584614",,,,,,,,,OL9771145M,214,0,,,,,1,,,19338598,pdf,9A44FCC133ABCECB41C7EA7E5C6B67CE,,,Y. dl_avaxhome 214  _=0121531384.pdf,0,2000-01-01 01:00:00,2016-04-03 02:51:08,260000/9a44fcc133abcecb41c7ea7e5c6b67ce-d.jpg,,
5698275,Cartesian Linguistics: A Chapter in the History of Rationalist Thought,,,,Noam Chomsky,2009,3rd,Cambridge University Press,,166,0,English,История,,0,"9780521708173,9780521881760,0521708176,0521881765",,,,,401,P37.5.C37 C48 2009,,,OL23623059M,,0,,,,,1,,T,1438453,pdf,9911CB47CFB0B4949A7AF49E394862F9,,,,0,2000-01-01 01:00:00,2016-04-03 02:51:08,260000/9911cb47cfb0b4949a7af49e394862f9-d.jpg,,
5698276,Land Transport in Roman Egypt: A Study of Economics and Administration in a Roman Province,,Oxford Classical Monographs,,Colin Adams,2007,,"Oxford University Press, USA",,346,0,English,Экономика,avaxhome.ws,,0199203970,,,,,,,,,,3091,0,,,,,,,T,1719198,pdf,9968A0175F7F773FA3190B18CA99F417,,,Y. dl_avaxhome 3091  _=0199203970_2.pdf,0,2000-01-01 01:00:00,2016-04-03 02:51:08,260000/9968a0175f7f773fa3190b18ca99f417-d.jpg,,
5698273,"Collected Works Of Shinya InouÃ©: Microscopes, Living Cells, and Dynamic Molecules (With DVD-ROM",,,,Shinya Inoue,2008,Har/Dvdr,World Scientific Publishing Company,,1017,0,English,Биология,Downloads_duansci.com,0,9812703888,,,,,,,,,OL13169856M,,0,,,,,,,T,149441388,pdf,9852ECF2830A85C358DA9D9FF5DA15B2,,,,0,2000-01-01 01:00:00,2016-04-03 02:51:08,260000/9852ecf2830a85c358da9d9ff5da15b2-d.jpg,,
5698274,Understanding Consciousness,,,,Max Velmans,2009,2,Routledge,,406,0,English,Наука (общее)//Научно-популярное,,0,"0415425158,9780415425155,0415425166,9780415425162,0203882725,9780203882726",,,,,126,BF311 .V44 2009,,,OL23160638M,,0,,,,,1,,,2993727,pdf,98802FB12D4F558E72CB9DE5316B64D1,,,,0,2000-01-01 01:00:00,2016-04-03 02:51:08,260000/98802fb12d4f558e72cb9de5316b64d1-d.jpg,,
5698272,Sequential Analysis,,Dover Phoenix Editions,,Abraham Wald,2004,,Dover Publications,,222,0,English,Математика//Анализ,avaxhome.ws,,"9780486439129,0486439127,9780471918066,0471918067",,,,,519.5/4,QA279.7 .W34 2004,,,OL3305189M,1495,0,,,,,1,,,7178473,djvu,9815CE7807BF4C55BE4C85DF4007DEA5,,,Y. dl_avaxhome 1495  _=wald-sequential_analysis.djvu,0,2000-01-01 01:00:00,2016-04-03 02:51:08,260000/9815ce7807bf4c55be4c85df4007dea5-d.jpg,,
5698271,Globalization and Social Exclusion,,,,Robert Anderton,2004,,,,193,0,English,Экономика,,0,"0203488857,0203601874,0415320127,9780415320122",,,,,331.7/98/091821090511,HD5710.7 .G54 2006,,,OL22721372M,,0,,,,,,,T,1708750,pdf,9812F011D49F0B165135268A2AC68E03,,,,0,2000-01-01 01:00:00,2016-04-03 02:51:08,260000/9812f011d49f0b165135268a2ac68e03-g.jpg,,
5698269,"Management Cases, Revised Edition",,,,Peter F. Drucker,2009,Revised,Harper Paperbacks,,258,0,English,Бизнес//менеджмент,avaxhome.ws,,"0061435155,9780061435157,9780061853753",,,,,658,HD70.U5 D69 2008,,,OL16842906M,11055,0,,,,,1,,T,1188260,pdf,9753ABC7000B9EB32EA6306E3FC44B2F,,,Y. dl_avaxhome 11055  _=Management_Cases.pdf,0,2000-01-01 01:00:00,2016-04-03 02:51:08,260000/9753abc7000b9eb32ea6306e3fc44b2f-d.jpg,,
5698270,"Safe Use of Oxygen and Oxygen Systems: Handbook for Oxygen System Design, Operation, and Maintenance",,,,Harold Deck Beeson,2007,,ASTM International,,150,0,English,,avaxhome.ws,,"0803144709,9780803144705",,,,,665.8/230289,TH9446.O95 B44 2007,,,OL16320961M,1415,0,,,,,1,,,1601216,pdf,9782CAD4DCFBDB1776021549B612D02A,,,Y. dl_avaxhome 1415  _=0803144709_Oxygen_and_Oxygen.pdf,0,2000-01-01 01:00:00,2016-04-03 02:51:08,260000/9782cad4dcfbdb1776021549b612d02a-g.jpg,,
5698268,Ultrasound of Congenital Fetal Anomalies,,Series in Maternal Fetal Medicine,,Dario Paladini,2007,1,Informa Healthcare,,378,0,English,Медицина,avaxhome.ws,,041541444X,,,,,,,,,OL9427125M,7346,0,,,,,,,T,28549121,pdf,973678DAC3BA5006CD132A6E32085618,,,Y. dl_avaxhome 7346  _=Ultrasound_of_Congenital_Fetal_Anomalies.pdf,0,2000-01-01 01:00:00,2016-04-03 02:51:08,260000/973678dac3ba5006cd132a6e32085618-d.jpg,,
5698267,Pink Floyd: the Black Strat. A History of David Gilmour's Black Fender Stratocaster,,Guitar Reference,,Phil Taylor,2008,1 Exp Upd,Hal Leonard,,161,0,English,История,avaxhome.ws,,1423445597,,,,,,,,,,8087,0,,,,,,,,22012197,pdf,970E54416B7D7EE866F9325669C5A4DB,,,Y. dl_avaxhome 8087  _=bstrat4.pdf,0,2000-01-01 01:00:00,2016-04-03 02:51:08,260000/970e54416b7d7ee866f9325669c5a4db-d.jpg,,
5698265,Write a Winning CV: Essential CV Writing Skills That Will Get You the Job You Want,,Essentials,,Julie-Ann Amos,2000,,How To Books Ltd,,96,0,English,Бизнес,avaxhome.ws,,1857036506,,,,,,,,,OL12007746M,2452,0,,,,,,,T,2695779,pdf,96FA0F71E985506EF93779A41EF54999,,,Y. dl_avaxhome 2452  _=mm06.pdf,0,2000-01-01 01:00:00,2016-04-03 02:51:08,260000/96fa0f71e985506ef93779a41ef54999-d.jpg,,
5698266,"New Perspectives on Mathematical Practices: Essays in Philosophy and History of Mathematics, Brussels, Belgium, 26-28 March 2007",,,,Bart Van Kerkhove,2009,,World Scientific Publishing Company,,248,0,English,Математика,avaxhome.ws,,"9812812229,9789812812223",,,,,510.1,QA8 .P37 2007,,,OL22659061M,1983,0,,,,,1,,T,4560486,pdf,9704049E30D27208A60F26FE26663E00,,,Y. dl_avaxhome 1983  _=9812812229.pdf,0,2000-01-01 01:00:00,2016-04-03 02:51:08,260000/9704049e30d27208a60f26fe26663e00-d.jpg,,
5698264,"Sensors And Microsystems: Proceedings of the 10th Italian Conference Firenze, Italy 15-17 February 2005",,,,,2008,,World Scientific Publishing Company,,699,0,English,Образование//Международные конференции и симпозиумы,avaxhome.ws,,9812833528,,,,,,,,,OL23201353M,1953,0,,,,,,,T,42635749,pdf,96A729CC9D9C5E515EDBE331C450134A,,,Y. dl_avaxhome 1953  _=9812833528.pdf,0,2000-01-01 01:00:00,2016-04-03 02:51:08,260000/96a729cc9d9c5e515edbe331c450134a-d.jpg,,
5698262,The European Economy: The Global Context,,,,Christopher M. Dent,1997,1,Routledge,,478,0,English,Бизнес,,0,"0415134870,9780415134873",,,,,330.94,HC240 .D453 1997,,,OL982160M,,0,,,,,1,,T,4112604,pdf,96500051456BCC9E01D3BD517BF19306,,,,0,2000-01-01 01:00:00,2016-04-03 02:51:08,260000/96500051456bcc9e01d3bd517bf19306-d.jpg,,
5698263,Medical Terminology Demystified,,,,Dale Layman,2005,1,McGraw-Hill Professional,,457,0,English,Образование,,0,"9780071461047,0071461043",,,,,610.1/4,R123 .L363 2006,,,OL17896256M,,0,,,,,,,T,4263520,pdf,969F4C7FEADBF7645596A0ACA029E598,,,,0,2000-01-01 01:00:00,2016-04-03 02:51:08,260000/969f4c7feadbf7645596a0aca029e598-d.jpg,,
5698260,It's My Party and I'll Knit If I Want To!,,"Food, Family & Friends Cookbook",,Sharon Aris,2003,,Allen & Unwin,,288,0,English,Психология,avaxhome.ws,,"1741140730,9781741140736,9781741155266",,,,,,,,,OL24311815M,8333,0,,,,,1,,T,5493465,pdf,95748F48C9B959E65304253FB7960ED8,,,Y. dl_avaxhome 8333  _=ItMyParty.pdf,0,2000-01-01 01:00:00,2016-04-03 02:51:08,260000/95748f48c9b959e65304253fb7960ed8-d.jpg,,
5698261,Mobile Peer to Peer (P2P): A Tutorial Guide ,,Wiley Series on Communications Networking & Distributed Systems,,,2009,,Wiley,,263,0,English,Техника,avaxhome.ws,,0470699922,,,,,,,,,,581,0,,,,,,,T,4648212,pdf,958DB8EDE6E33E8365F435B3EDC3B420,,,Y. dl_avaxhome 581  _=Mobile_Peer_to_Peer_(P2P).pdf,0,2000-01-01 01:00:00,2016-04-03 02:51:08,260000/958db8ede6e33e8365f435b3edc3b420-d.jpg,,
5698258,The Complete Idiot's Guide to Wine,,,,"Phillip Seldon, Alpha Group",2000,2,Alpha,,544,0,English,Образование,avaxhome.ws,,"0028636619,9780028636610,9781592570515",,,,,641.2/2,TP548 .S4675 2000,,,OL6797861M,676,0,,,,,,,T,13588947,pdf,954A7199BA82EAEF6C4D95D90BBCB19F,,,Y. dl_avaxhome 676  _=zz29.pdf,0,2000-01-01 01:00:00,2016-04-03 02:51:08,260000/954a7199ba82eaef6c4d95d90bbcb19f-d.jpg,,
5698259,"Building Websites with the ASP.NET Community Starter Kit: A comprehensive guide to understanding, implementing, and extending the powerful and freely available application from Microsoft.",,,,"K. Scott Allen, Cristian Darie",2004,,Packt Publishing,,280,0,English,Компьютеры//Сети//Интернет,,0,"9781904811008,1904811000",,,,,,,,,OL8773674M,,0,,,,,,,T,7235389,pdf,95693D7A19F5DDAB7D783B9E104F9EBF,,,,0,2000-01-01 01:00:00,2016-04-03 02:51:08,260000/95693d7a19f5ddab7d783b9e104f9ebf-d.jpg,,
5698257,"Experimental Algorithms: 5th International Workshop, WEA 2006, Cala Galdana, Menorca, Spain, May 24-27, 2006, Proceedings",,Lecture Notes in Computer Science ... Computer Science and General Issues,,"Carme Àlvarez, Maria Serna",2006,1,Springer,,337,0,English,Образование//Международные конференции и симпозиумы,avaxhome.ws,,"9783540345978,3540345973",,,,,,,,,OL12774157M,14797,0,,,,,,,,7597529,pdf,950B1C2E364810232966C1C1FAEA8435,,,Y. dl_avaxhome 14797  _=3540345973.pdf,0,2000-01-01 01:00:00,2016-04-03 02:51:08,260000/950b1c2e364810232966c1c1faea8435-d.jpg,,
5698256,Interpreting the Musical Past: Early Music in Nineteenth-Century France,,,,Katharine Ellis,2005,,"Oxford University Press, USA",,321,0,English,Искусство//Музыка//Гитара,avaxhome.ws,,0195176820,,,,,,,,,,6129,0,,,,,,,1,2926016,pdf,94FF0C41C6D9A0BC0ED75680770C84BA,,,Y. dl_avaxhome 6129  _=0195176820.pdf,0,2000-01-01 01:00:00,2016-04-03 02:51:08,260000/94ff0c41c6d9a0bc0ed75680770c84ba-d.jpg,,
5698254,Separation Chemistry,,,,R.P. Bhudiraja,2007,,to New Age International Pvt Ltd Publishers,,435,0,English,Химия,,0,"8122414532,9788122414530,9788122425314",,,,,,,,,,,0,,,,,,,T,3535985,pdf,91F0183E8FEE6B21E4646A428FF47F99,,,,0,2000-01-01 01:00:00,2016-04-03 02:51:08,260000/91f0183e8fee6b21e4646a428ff47f99-g.jpg,,
5698255,World War I: A History in Documents,,Pages from History,,Frans Coetzee,2002,,"Oxford University Press, USA",,177,0,English,История,avaxhome.ws,,0195137469,,,,,,,,,,761,0,,,,,,,T,7972191,pdf,925DBB4B06BF11D20AE49E675CEA10FA,,,Y. dl_avaxhome 761  _=4444444444.pdf,0,2000-01-01 01:00:00,2016-04-03 02:51:08,260000/925dbb4b06bf11d20ae49e675cea10fa-d.jpg,,
5698252,"Stroll and Walk, Babble and Talk: More About Synonyms",,Words Are Categorical,,"Brian P. Cleary, Brian Gable",2008,,Millbrook Press,,36,0,English,Языкознание,avaxhome.ws,,"0822578506,9780822578505",,,,,,,,,OL23573652M,696,0,,,,,,,1,7469547,pdf,91AFC5BA4AED1BFB2A3D203705D0F1E1,,,Y. dl_avaxhome 696  _=zz08.pdf,0,2000-01-01 01:00:00,2016-04-03 02:51:08,260000/91afc5ba4aed1bfb2a3d203705d0f1e1-d.jpg,,
5698253,The DNA of Success: Know What You Want to Get What You Want,,,,"Jack M. Zufelt, Jack Zufelt",2002,1st,Regan Books,,210,0,English,Биология//Генетика,,0,"0060006587,9780060006587",,B000OEKS0Y,,,,,,,OL7274381M,,0,,,,,,,1,1017521,pdf,91DBAEE675189EE8973756A2ADFBAE7A,,,,0,2000-01-01 01:00:00,2016-04-03 02:51:08,260000/91dbaee675189ee8973756a2adfbae7a-d.jpg,,
5698251,The Universal Tree and the Four Birds,,Mystical Treatises of Muhyiddin Ibn 'Ara,,"Muhyiddin Ibn 'Arabi, Angela Jaffray",2006,,Anqa Publishing,,159,0,Arabic,,,0,"0953451399,9780953451395",,,,,892.7134,PJ7755.I175 R5713 2006,,,OL18279503M,,0,,,,,,,1,1345877,pdf,90DA510720DED0241A9783514BEBD440,,,,0,2000-01-01 01:00:00,2016-04-03 02:51:08,260000/90da510720ded0241a9783514bebd440-d.jpg,,
5698249,The GDA Diet: Shop Yourself Thin - Your Supermarket Weight Loss Guide,,,,Nigel Denby,2008,,Capstone Publishing Ltd,,252,0,English,,,0,"1906465398,9781906465391",,,,,613.2/5,RM222.2 .D465 2008,,,OL22671871M,,0,,,,,,,T,17653883,pdf,9072041CECF18E17505D662AE8E1CCFD,,,,0,2000-01-01 01:00:00,2016-04-03 02:51:08,260000/9072041cecf18e17505d662ae8e1ccfd-d.jpg,,
5698250,The Genetics of Renal Disease,,Oxford Monographs on Medical Genetics,,"Frances Flinter, Eamonn Maher, Anand Saggar-Malik",2004,1,"Oxford University Press, USA",,581,0,English,Медицина//Болезни//Внутренние болезни,avaxhome.ws,,0192631462,,,,,,,,,,1797,0,,,,,,,T,7851317,pdf,90786109AE5FA1681B75A6C1630B49AB,,,Y. dl_avaxhome 1797  _=89359___fli0192631462.pdf,0,2000-01-01 01:00:00,2016-04-03 02:51:08,260000/90786109ae5fa1681b75a6c1630b49ab-d.jpg,,
5698246,"Biothiols, Part A: Monothiols and Dithiols, Protein Thiols, and Thiyl Radicals, Volume 251",PartA,Methods in Enzymology,,"John N. Abelson, Melvin I. Simon, Helmut Sies",1995,1st,Academic Press,,537,0,English,Биология//Биотехнология,,0,"9780121821524,0121821528",,,,,,,,,OL22201918M,,0,0,0,,,1,,,9271777,pdf,904847B1F6CE2D2BB6EEA00107BA3809,,,,0,2000-01-01 01:00:00,2016-04-03 02:51:08,260000/904847b1f6ce2d2bb6eea00107ba3809-d.jpg,,
5698247,My Hundred Million Dollar Secret,,,,David Weinberger,2006,,Lulu.com,,220,0,English,Литература//Проза,avaxhome.ws,,"1847288006,9781847288004",,,,,,,,,OL11916654M,15380,0,,,,,1,,T,650655,pdf,90491AFA8D61F1EADEBC6BA90D0F2676,,,Y. dl_avaxhome 15380  _=My100MillionDollarSecret_online.pdf,0,2000-01-01 01:00:00,2016-04-03 02:51:08,260000/90491afa8d61f1eadebc6ba90d0f2676-d.jpg,,
5698248,Short History of the European ECU,,,,Droulers,1991,,ARIA,,66,0,English,История,,0,,,,,,,,,,,,0,0,0,,,,,,36436760,pdf,904F502E5A31C010ED46F63CA0FFE87D,,,,0,2000-01-01 01:00:00,2016-04-03 02:51:08,260000/904f502e5a31c010ed46f63ca0ffe87d-g.jpg,,
5698245,The History of German Aviation: Kurt Tank: Focke-Wulf's Designer and Test Pilot,v. 2,Aviation History,,Wolfgang Wagner,1999,,Schiffer,,273,0,German,История,avaxhome.ws,,"9780764306440,0764306448",,,,,"629.13/0092,B",TL686.F57 W32 1998,,,OL20866190M,13253,0,,,,,,,,89144586,pdf,8FB4B9C6F362AAB41DEA8911DE51A70B,,,Y. dl_avaxhome 13253  _=Kurt_Tank_-_Focke-Wulf_s_Designer_and_Test_Pilot.pdf,0,2000-01-01 01:00:00,2016-04-03 02:51:08,260000/8fb4b9c6f362aab41dea8911de51a70b-g.jpg,,
5698243,Families in Asia: Home and Kin,,,,Stella Quah,2008,2,Routledge,,227,0,English,История,avaxhome.ws,,"0415455685,9780415455688,9780203888506",,,,,306.85095,HQ663 .Q53 2008,,,OL19968729M,16137,0,,,,,1,,T,2169333,pdf,8F74F6116075F413B1F6604DC35EE4DA,,,Y. dl_avaxhome 16137  _=FamiliAsia.pdf,0,2000-01-01 01:00:00,2016-04-03 02:51:08,260000/8f74f6116075f413b1f6604dc35ee4da-d.jpg,,
5698244,Introduction to Webometrics: Quantitative Web Research for the Social Sciences,,"Synthesis Lectures on Information Concepts, Retrieval, and Services",,Michael Thelwall,2009,,Morgan and Claypool Publishers,,127,0,English,Компьютеры//Сети//Интернет,avaxhome.ws,,"159829993X,9781598299939",,,,,,,,,,16030,0,,,,1,0,,1,5304732,pdf,8FA82A30D76749B967AE5BC541B8E833,,,Y. dl_avaxhome 16030  _=159829993X.pdf,0,2000-01-01 01:00:00,2016-04-03 02:51:08,260000/8fa82a30d76749b967ae5bc541b8e833-d.jpg,,
5698241,"Heteroepitaxy of Semiconductors: Theory, Growth, and Characterization",,,,John E. Ayers,2007,1,CRC Press,,447,0,English,Техника//Электроника//Радио,,0,"0849371953,9780849371950",,,,,,,,,OL8261054M,,0,,,,,,,T,7788540,pdf,8F32AD80463B17A9B1940F57E8E7AC7B,,,,0,2000-01-01 01:00:00,2016-04-03 02:51:08,260000/8f32ad80463b17a9b1940f57e8e7ac7b-d.jpg,,
5698242,Fruits Are Fun,,What Should I Eat,,Amanda Rondeau,2002,,SandCastle,,25,0,English,"Домоводство, досуг//Кулинария",avaxhome.ws,,1577658345,,,,,,,,,OL12242512M,2055,0,,,,,,,T,1207732,pdf,8F6E8EFB106BAFD70B1F19416D54BF67,,,Y. dl_avaxhome 2055  _=oo04.pdf,0,2000-01-01 01:00:00,2016-04-03 02:51:08,260000/8f6e8efb106bafd70b1f19416d54bf67-d.jpg,,
5698239,Textbook of Surgical Oncology,,,,"J. Poston Graeme, Daniel Beauchamp, Theo Ruers",2007,1,Informa Healthcare,,456,0,English,,,0,"1841845078,1841846252,9781841845074,1264332424",,,,,,,,,OL12571204M,,0,,,,,,,T,8617871,pdf,8EE8336BF0C075FCA4E67CE3F7993C70,,,,0,2000-01-01 01:00:00,2016-04-03 02:51:08,260000/8ee8336bf0c075fca4e67ce3f7993c70-d.jpg,,
5698240,Likelihood-Based Inference in Cointegrated Vector Autoregressive Models,,Advanced Texts in Econometrics,,Søren Johansen,1996,,"Oxford University Press, USA",,280,0,English,Экономика,,0,"9780198774501,0198774508",,,,,330.015195,,,,OL22227645M,,0,,,,,,,T,4556162,pdf,8F16B5F59CE022061F6BB45CCB9FDB16,,,,0,2000-01-01 01:00:00,2016-04-03 02:51:08,260000/8f16b5f59ce022061f6bb45ccb9fdb16-d.jpg,,
5698237,Fold: Leibniz and the Baroque,,,,Gilles Deleuze,1992,1,Univ Of Minnesota Press,,187,0,English,Общественные науки прочие//Философия,avaxhome.ws,0,0816616019,,,,,,,,,OL8069935M,2569,0,,,,,,,T,24175072,pdf,8EA049DADEC6E7D38978BF75CB31FC6F,,,Y. dl_avaxhome 2569  _=delfold.pdf,0,2000-01-01 01:00:00,2016-04-03 02:51:08,260000/8ea049dadec6e7d38978bf75cb31fc6f-d.jpg,,
5698238,All New Crafts for Thanksgiving,,All-New Holiday Crafts for Kids,,Kathy Ross,2005,,First Avenue Editions,,50,0,English,"Домоводство, досуг",avaxhome.ws,,0761323945,,,,,,,,,,688,0,,,,,,,T,5210244,pdf,8ECA89EBE11D9EF565913273D226A97E,,,Y. dl_avaxhome 688  _=zz16.pdf,0,2000-01-01 01:00:00,2016-04-03 02:51:08,260000/8eca89ebe11d9ef565913273d226a97e-d.jpg,,
5698235,Advances in Electronic Business,Vol. 2,,,Eldon Y. Li,2006,,IGI Global,,172,0,English,Бизнес,avaxhome.ws,,1591406781,,,,,,,,,OL8854968M,2482,0,,,,,,,T,62539542,pdf,8DDEC40187A45048CD54BE7D8CC49464,,,Y. dl_avaxhome 2482  _=AiEBv2.pdf,0,2000-01-01 01:00:00,2016-04-03 02:51:08,260000/8ddec40187a45048cd54be7d8cc49464-d.jpg,,
5698236,Pawn Structure Chess,,,,Andrew Soltis,1995,First Edition,Random House Puzzles & Games,,362,0,English,"Домоводство, досуг//Игры//Шахматы",avaxhome.ws,,0812925297,,,,,,,,,,9633,0,,,,,,,,11524921,pdf,8E372A112C2516CD879054293ACB600A,,,9633 =pawn_structure.pdf,0,2000-01-01 01:00:00,2016-04-03 02:51:08,260000/8e372a112c2516cd879054293acb600a-d.jpg,,
5698233,Reinventing Yourself: How To Become The Person You've Always Wanted To Be,,,,Steve Chandler,2005,Revised,Career Press,,225,0,English,Образование,avaxhome.ws,,"1564148173,9781564148179",,,,,,,,,OL8647110M,2039,0,,,,,,,1,1709105,pdf,8CA03665A6C390779470064DAB0AD7DF,,,Y. dl_avaxhome 2039  _=oo16.pdf,0,2000-01-01 01:00:00,2016-04-03 02:51:08,260000/8ca03665a6c390779470064dab0ad7df-d.jpg,,
5698234,Emergency Department Treatment of the Psychiatric Patient: Policy Issues and Legal Requirements,,American Psychology-Law Society Series,,Susan Stefan,2006,1,"Oxford University Press, USA",,232,0,English,Психология,avaxhome.ws,,0195189299,,,,,,,,,,4751,0,,,,,,,T,1253643,pdf,8D0A5C920F620ECBA7B85BF68540FFB9,,,Y. dl_avaxhome 4751  _=EmergencyDepartmentTreatment.pdf,0,2000-01-01 01:00:00,2016-04-03 02:51:08,260000/8d0a5c920f620ecba7b85bf68540ffb9-d.jpg,,
5698232,No More Joint Pain,,Yale University Press Health & Wellness,,"Dr. Joseph A. Abboud M.D., Soo Kim Abboud",2008,1,Yale University Press,,288,0,English,,,0,"0300111754,9780300111750",,,,,,,,,OL10319173M,,0,,,,,,,T,1721213,pdf,8C6CC53DD0BA2C26081D8E4EC64D97E2,,,,0,2000-01-01 01:00:00,2016-04-03 02:51:08,260000/8c6cc53dd0ba2c26081d8e4ec64d97e2-d.jpg,,
5698230,Text Atlas of Penile Surgery,,,,Yachia Daniel,2007,1,Informa Healthcare,,242,0,English,Медицина,avaxhome.ws,,"9780203090886,9781841845173,1841845175",,,,,,,,,OL12571210M,2836,0,,,,,1,,T,21750566,pdf,8C260564DA3699228139BC53FE0FA7B0,,,Y. dl_avaxhome 2836  _=Text_Atlas_of_Penile_Surgery.pdf,0,2000-01-01 01:00:00,2016-04-03 02:51:08,260000/8c260564da3699228139bc53fe0fa7b0-d.jpg,,
5698231,Creative Marketing for New Product and New Business Development,,,,"Akira Ishikawa, Akira Ishikawa, Atsushi Tsujimoto",2008,illustrated edition,World Scientific Publishing Company,,337,0,English,Бизнес,avaxhome.ws,,"9789812772183,9812772189",,,,,658.575,HF5415.153 .C74 2008,,,OL23181278M,11331,0,,,,,,,T,16626929,pdf,8C5B082C334B2A3765730AEEFC7FEE70,,,Y. dl_avaxhome 11331  _=ass9.pdf,0,2000-01-01 01:00:00,2016-04-03 02:51:08,260000/8c5b082c334b2a3765730aeefc7fee70-d.jpg,,
5698229,Mobilize Yourself! the Microsoft Guide to Mobile Technology,,,,Liz Rosenberg,2009,Original,William Morrow Paperbacks,,340,0,English,Компьютеры//Программирование,avaxhome.ws,,"006173456X,9780061734564,1602855412,9781602855410,9780061869006",,,,,813/.54,PS3568.O7874 H66 2009,,,OL23148114M,399,0,,,,,1,,T,1216725,pdf,8BF7678B0827CC69B961F99CA3087635,,,Y. dl_avaxhome 399  _=006173456X.pdf,0,2000-01-01 01:00:00,2016-04-03 02:51:08,260000/8bf7678b0827cc69b961f99ca3087635-d.jpg,,
5698228,Piety and Politics: Islamism in Contemporary Malaysia,,Religion and Global Politics,,Joseph Chinyong Liow,2009,,"Oxford University Press, USA",,284,0,English,Религия,avaxhome.ws,,0195377087,,,,,,,,,,3743,0,,,,,,,T,1608779,pdf,8BA1525D86E145100979B06E7F52AAFE,,,Y. dl_avaxhome 3743  _=0195377087.pdf,0,2000-01-01 01:00:00,2016-04-03 02:51:08,260000/8ba1525d86e145100979b06e7f52aafe-d.jpg,,
5698226,Handbook on Constructing Composite Indicators: Methodology and User Guide,,,,OECD Organisation for Economic Co-operation and Development,2008,Pap/Ado,OECD Publishing,,162,0,English,,,0,"9264043454,9789264043459",,,,,,,,,OL22687676M,,0,,,,,,,T,3094146,pdf,8B709FB3CC7633DD94136D9FE234F0BE,,,,0,2000-01-01 01:00:00,2016-04-03 02:51:08,260000/8b709fb3cc7633dd94136d9fe234f0be-d.jpg,,
5698227,Embryo and Fetal Pathology: Color Atlas with Ultrasound Correlation,,,,Enid Gilbert-Barness,2004,1,Cambridge University Press,,728,0,English,Медицина,avaxhome.ws,0,0521825296,,,,,,,,,OL7765236M,6860,0,,,,,,,,25695037,pdf,8B7DBDEB89C8BCDF4DA525C47A5E06EF,,,0521825296.Cambridge.University.Press.Embryo.and.Fetal.Pathology.Color.Atlas.with.Ultrasound.Correlation.May.2004.pdf,0,2000-01-01 01:00:00,2016-04-03 02:51:08,260000/8b7dbdeb89c8bcdf4da525c47a5e06ef-d.jpg,,
5698224,Camptothecins in Cancer Therapy,,Cancer Drug Discovery and Development,,,2005,1,Humana Press,,474,0,English,Медицина//Онкология,avaxhome.ws,,1588290271,,,,,,,,,OL18222718M,2679,0,,,,,,,T,7521304,pdf,8B26771E8E22636E0D7249CE91360C82,,,Y. dl_avaxhome 2679  _=ada_cictcddad.pdf,0,2000-01-01 01:00:00,2016-04-03 02:51:08,260000/8b26771e8e22636e0d7249ce91360c82-d.jpg,,
5698225,Funk Guitar: The Essential Guide,,Private Lessons,,Ross Bolton,2001,,Musicians Institute Press,,33,0,English,Искусство//Музыка//Гитара,,0,"0634011685,9780634011689",,,,,,,,,OL7622381M,,0,,,,,1,,,8007913,pdf,8B45CD84C02F17B6496A92D63EFDD990,,,,0,2000-01-01 01:00:00,2016-04-03 02:51:08,260000/8b45cd84c02f17b6496a92d63efdd990-d.jpg,,
5698222,Iraqi Perspectives Project: A View of Operation Iraqi Freedom From Saddam's Senior Leadership,,,,"Kevin M. Woods, Michael R. Pease, Mark E. Stout, Williamson Murray, James G. Lacey",2006,,Joint Center for Operational Analysis,,230,0,English,,,0,"0976255014,9780976255017",,,,,,,,,OL25255449M,,0,,,,,1,,T,7903635,pdf,8AD0B28D382CFCA50AA8E3C0DE586F5E,,,,0,2000-01-01 01:00:00,2016-04-03 02:51:08,260000/8ad0b28d382cfca50aa8e3c0de586f5e-d.jpg,,
5698223,Global Values 101: A Short Course,,,,"Kate Holbrook, Ann S. Kim, Brian Palmer, Anna Portnoy",2006,1,Beacon Press,,289,0,English,Общественные науки прочие,avaxhome.ws,,"9780807003053,0807003050",,,,,170/.973,HM681 .G55 2005,,,OL3399291M,16349,0,,,,,,,T,16378785,pdf,8AEF48F57527030EDA8251F0B5C75498,,,Y. dl_avaxhome 16349  _=h13.pdf,0,2000-01-01 01:00:00,2016-04-03 02:51:08,260000/8aef48f57527030eda8251f0b5c75498-d.jpg,,
5698221,Understanding Healthcare Financial Management,,,,Louis C. Gapenski,2006,5,Health Administration Press,,737,0,English,Наука (общее)//Научно-популярное,avaxhome.ws,,1567932649,,,,,362.11068/1,RA971.3 .G37 2007,,,OL17551057M,213,0,,,,,,,,4479992,pdf,8AC2D0EF0AC2F8EE9A6CD75B53FABBD7,,,Y. dl_avaxhome 213  _=1567932649.pdf,0,2000-01-01 01:00:00,2016-04-03 02:51:08,260000/8ac2d0ef0ac2f8ee9a6cd75b53fabbd7-d.jpg,,
5698219,"German mountain troops: A selection of German wartime photographs from the Bundesarchiv, Koblenz",,World War 2 photo album,,Bruce Quarrie,1980,,AZTEX Corp,,98,0,English,Искусство//Фотография,avaxhome.ws,,"9780894040399,0894040391",,,,,940.54/13/43,D757.39 .G46 1980,,,OL4119603M,13083,0,,,,,,,,61728475,pdf,8A422757B21466945D8B4ED0DE66ABE5,,,Y. dl_avaxhome 13083  _=German.Mountain.Troops.pdf,0,2000-01-01 01:00:00,2016-04-03 02:51:08,260000/8a422757b21466945d8b4ed0de66abe5-g.jpg,,
5698220,Heterosexual Masculinities: Contemporary Perspectives from Psychoanalytic Gender Theory,,Psychoanalysis in a New Key Book Series,,"Bruce Reis, Robert Grossmark",2009,1,Routledge,,290,0,English,,,0,"0881635014,9780881635010,0881635022,9780881635027,9780203888315",,,,,155.3/32,BF175.5.M37 H48 2009,,,OL17099619M,,0,,,,,1,,T,2418050,pdf,8A74EFA2B5D0E8DAD2E7558D21381EDB,,,,0,2000-01-01 01:00:00,2016-04-03 02:51:08,260000/8a74efa2b5d0e8dad2e7558d21381edb-d.jpg,,
5698218,The 100-Gun Ship Victory,,Anatomy of the Ship,,John McKay,2000,Revised,Naval Institute Press,,121,0,English,История,avaxhome.ws,,0851777988,,,,,,,,,,7011,0,,,,,,,T,10901770,pdf,89EE0ED245989A3E203BB22F0CD36428,,,Y. dl_avaxhome 7011  _=Anatomy_of_the_Ship_-_HMS_Victory.pdf,0,2000-01-01 01:00:00,2016-04-03 02:51:08,260000/89ee0ed245989a3e203bb22f0cd36428-d.jpg,,
5698216,Toonamint of Champions: How LaJuanita Mumps Got to Join Augusta National Golf Club Real Easy,,,,Todd Sentell,2007,1st,Kunati Inc.,,197,0,English,,,0,"1601640056,9781601640055",,,,,,,,,OL9477624M,,0,,,,,,,T,19540557,pdf,88E41294CF234C4E88806B34710996C2,,,,0,2000-01-01 01:00:00,2016-04-03 02:51:08,260000/88e41294cf234c4e88806b34710996c2-d.jpg,,
5698217,Disease and Democracy: The  Industrialized World Faces AIDS,,California/Milbank Books on Health and the Public,,Peter Baldwin,2005,1,University of California Press,,479,0,English,Медицина//Болезни//Внутренние болезни,,0,"9780520243507,0520243501",,,,,,,,,OL7711991M,,0,,,,,,,T,2010621,pdf,88E58965A35ABCC7889B19AA83A0C5CF,,,,0,2000-01-01 01:00:00,2016-04-03 02:51:08,260000/88e58965a35abcc7889b19aa83a0c5cf-d.jpg,,
5698215,Grammar and Vocabulary for Cambridge Advanced and Proficiency: With Key,,Grammar & vocabulary,,"Richard Side, Guy Wellman",2002,,Longman,,288,0,English,Языкознание//Словари,avaxhome.ws,,"9780582518216,0582518210",,,,,,,,,OL7881683M,11357,0,,,,,,,T,14745453,pdf,889B7DFC94F82BB46E65918E79719043,,,Y. dl_avaxhome 11357  _=GramVocabAd.pdf,0,2000-01-01 01:00:00,2016-04-03 02:51:08,260000/889b7dfc94f82bb46e65918e79719043-d.jpg,,
5698213,Traditional Chinese Medicine: A Woman's Guide to Healing from Breast Cancer,,,,"Nan Lu, Ellen Schaplowsky",1999,1,Harper Paperbacks,,385,0,English,Медицина,,0,"0380809028,9780380809028,9780061916984",,,,,,,,,OL7435438M,,0,,,,,1,,T,2528913,pdf,884B18A2DCED70CF108831445FBFB455,,,,0,2000-01-01 01:00:00,2016-04-03 02:51:08,260000/884b18a2dced70cf108831445fbfb455-d.jpg,,
5698214,101 Ways to Love Your Job,,,,Stephanie Davidson,2008,,"Sourcebooks, Inc.",,286,0,English,Бизнес,avaxhome.ws,,"9781402213601,1402213603",,,,,650.1,HF5549.5.J63 D384 2008,,,OL18608374M,16338,0,,,,,,,T,5912454,pdf,8876D2C8FC53C7809144BF7A2654DF53,,,Y. dl_avaxhome 16338  _=h19.pdf,0,2000-01-01 01:00:00,2016-04-03 02:51:08,260000/8876d2c8fc53c7809144bf7a2654df53-d.jpg,,
5698212,Neuropeptide Y and Drug Development,,,,,1996,1st,Academic Press,,242,0,English,Химия//Фармакология,avaxhome.ws,,0123049903,,,,,,,,,,6589,0,,,,,,,T,12566814,pdf,87E6EEDC74F8BA31C6AF9E59AB9B9620,,,Y. dl_avaxhome 6589  _=0123049903.pdf,0,2000-01-01 01:00:00,2016-04-03 02:51:08,260000/87e6eedc74f8ba31c6af9e59ab9b9620-d.jpg,,
5698211,Motivated Reinforcement Learning: Curious Characters for Multiuser Games,,,,Kathryn Merrick,2009,1,Springer,,207,0,English,Образование,avaxhome.ws,,3540891862,,,,,,,,,,1443,0,,,,,,,T,10721577,pdf,87AADDDF89C90FDC6F097B9BD780E7EB,,,Y. dl_avaxhome 1443  _=3540891862.pdf,0,2000-01-01 01:00:00,2016-04-03 02:51:08,260000/87aadddf89c90fdc6f097b9bd780e7eb-d.jpg,,
5698209,"One Day in History: July 4, 1776",,,,Rodney P. Carlisle,2006,,Smithsonian,,292,0,English,История,avaxhome.ws,,"0061120324,9780061120329",,,,,,,,,OL17206086M,15891,0,,,,,1,,T,9079117,pdf,866F3B9873B66E4D618A6CF72B4DB583,,,Y. dl_avaxhome 15891  _=0061120324_July_4_.pdf,0,2000-01-01 01:00:00,2016-04-03 02:51:08,260000/866f3b9873b66e4d618a6cf72b4db583-d.jpg,,
5698210,Electromagnetic Band Gap Structures in Antenna Engineering,,The Cambridge RF and Microwave Engineering Series,,"Fan Yang, Yahya Rahmat-Samii",2008,1,Cambridge University Press,,282,0,English,Физика//Электричество и магнетизм,,0,"052188991X,9780521889919",,,,,621.382/4,TK7871.6 .Y35 2008,,,OL17048587M,,0,,,,,,,T,4819818,pdf,874F882831A0B71B3FCC5FD5154FC4A8,,,,0,2000-01-01 01:00:00,2016-04-03 02:51:08,260000/874f882831a0b71b3fcc5fd5154fc4a8-d.jpg,,
5698207,The Continuum Companion to Twentieth Century Theatre,,,,Colin Chambers,2002,,Continuum International Publishing Group,,892,0,English,,avaxhome.ws,,"9780826449597,082644959X",,,,,792/.03,PN2035 .C65 2002,,,OL3561056M,13463,0,,,,,,,T,83914039,pdf,84FAC7A29936AB401D785A54284FFDC5,,,Y. dl_avaxhome 13463  _=Continuum_Companion_to_Twentieth_Century_Theatre_082644959X.pdf,0,2000-01-01 01:00:00,2016-04-03 02:51:08,260000/84fac7a29936ab401d785a54284ffdc5-d.jpg,,
5698208,Korea's Twentieth-Century Odyssey,,,,Michael E. Robinson,2007,,University of Hawaii Press,,233,0,English,Общественные науки прочие,avaxhome.ws,,"0824830806,9780824830809,9781435666375",,,,,941.904,DS916 .R63 2007,,,OL17173216M,16001,0,,,,,1,,T,10526821,pdf,866A007FCA2003A81E76DF239FFD2154,,,Y. dl_avaxhome 16001  _=TwentiethCenturyOdyssey.pdf,0,2000-01-01 01:00:00,2016-04-03 02:51:08,260000/866a007fca2003a81e76df239ffd2154-d.jpg,,
5698205,Атмосферная радиация,,,,Гуди Р. М.,1966,,Мир,Москва,524,0,Russian,Физика//Физика атмосферы,,0,,,,УДК 525.7 + 551.3,,,,,,,,0,,,0,,,,,6495737,djvu,84C3B1027AE0E49FF427A51701387374,,,,0,2000-01-01 01:00:00,2016-04-03 02:51:08,260000/84c3b1027ae0e49ff427a51701387374-g.jpg,,
5698206,Law for Business Studies Students 3rd edn,,,,Keith Owens,2001,3,Routledge-Cavendish,,808,0,English,Юридические науки//Право,avaxhome.ws,,"1859416713,9781859416716",,,,,,,,,OL12045392M,9214,0,,,,,1,,T,5232639,pdf,84E70BF59D2EEDAFDF235F608430536F,,,Y. dl_avaxhome 9214  _=LawBusinStud.pdf,0,2000-01-01 01:00:00,2016-04-03 02:51:08,260000/84e70bf59d2eedafdf235f608430536f-d.jpg,,
5698204,"Acts of Giving: Individual, Community, and Church in Tenth-Century Christian Spain",,,,Wendy Davies,2007,,"Oxford University Press, USA",,261,0,English,История,avaxhome.ws,,0199283400,,,,,,,,,,3540,0,,,,,,,T,2703404,pdf,84BDE09D383FDF8C12789E12D973F418,,,Y. dl_avaxhome 3540  _=0199283400.pdf,0,2000-01-01 01:00:00,2016-04-03 02:51:08,260000/84bde09d383fdf8c12789e12d973f418-d.jpg,,
5698202,Panic Disorder: The Great Pretender,,,,F.A.C.N. H. Michael Zal D.O.,2001,,Da Capo Press,,234,0,English,Психология,avaxhome.ws,,0738205761,,,,,,,,,,2046,0,,,,,,,T,23077409,pdf,83F002CE3FBAE1B3553A0BB084F305B8,,,Y. dl_avaxhome 2046  _=oo09.pdf,0,2000-01-01 01:00:00,2016-04-03 02:51:08,260000/83f002ce3fbae1b3553a0bb084f305b8-d.jpg,,
5698203,Complete Idiot's Guide to Wicca and Witchcraft,,,,"Denise Zimmermann, Katherine Gleason",2000,1,Alpha,,385,0,English,Образование,avaxhome.ws,,"0028639456,9780028639451,9781592570485",,,,,133.4/3,BF1566 .Z55 2000,,,OL3967170M,684,0,,,,,,,T,11053370,pdf,843FAEF4A932E9B50E52FB8A8FCDBA86,,,Y. dl_avaxhome 684  _=zz21.pdf,0,2000-01-01 01:00:00,2016-04-03 02:51:08,260000/843faef4a932e9b50e52fb8a8fcdba86-d.jpg,,
5698201,Making Formative Assessment Work,,,,"Kathy Hall, Winnifred Burke",2004,1,Open University Press,,183,0,English,Наука (общее)//Науковедение,avaxhome.ws,,"9780335213795,9780335225651,0335213790,0335213804,9780335213801",,,,,,,,,OL9686295M,2206,0,,,,,1,,T,2384144,pdf,837A613F48A6E106CC39DC7A8A4C0B7E,,,Y. dl_avaxhome 2206  _=0335213790.pdf,0,2000-01-01 01:00:00,2016-04-03 02:51:08,260000/837a613f48a6e106cc39dc7a8a4c0b7e-d.jpg,,
5698199,Handbook Of Cardiac Stem Cell Therapy,,,,Ioannis Dimarakis,2008,1,Imperial College Press,,306,0,English,,avaxhome.ws,,1848162561,,,,,616/.02774,RC684.S74 H36 2009,,,OL24477058M,1756,0,,,,,,,T,22444300,pdf,833623D8A8E55D6B89F3002D763EFBA2,,,Y. dl_avaxhome 1756  _=1848162561.pdf,0,2000-01-01 01:00:00,2016-04-03 02:51:08,260000/833623d8a8e55d6b89f3002d763efba2-d.jpg,,
5698200,Quicken 2009 The Official Guide,,Quicken Press,,Maria Langer,2008,1,McGraw-Hill Osborne Media,,545,0,English,Экономика,avaxhome.ws,,0071599487,,,,,,,,,,6279,0,,,,,,,T,19891068,pdf,83411D386F67455F3BB988A3B60009C1,,,Y. dl_avaxhome 6279  _=1173.pdf,0,2000-01-01 01:00:00,2016-04-03 02:51:08,260000/83411d386f67455f3bb988a3b60009c1-d.jpg,,
5698197,Oxford Word Skills Basic: Student's Pack (book and CD-ROM): Learn and Practise English Vocabulary,,,,"Ruth Gairns, Stuart Redman",2008,,Oxford University Press,,254,0,English,Образование,avaxhome.ws,,"9780194620031,0194620034",,,,,,,,,,15424,0,,,,,,,,81452121,pdf,82B5DBDA9773E052484FCE4C6676668B,,,Y. dl_avaxhome 15424  _=Oxford_Word_Skills_Basic_Book.pdf,0,2000-01-01 01:00:00,2016-04-03 02:51:08,260000/82b5dbda9773e052484fce4c6676668b-d.jpg,,
5698198,The Razor Edge Book of Sharpening,,,,John Juranitch,2000,,"Razor Edge Systems, Inc.",,144,0,English,"Домоводство, досуг",avaxhome.ws,,"9780966605907,096660590X",,,,,,,,,OL22986933M,15446,0,,,,,,,T,5000177,djvu,82E647FFE9B3973100EB51B64E7CF75D,,,Y. dl_avaxhome 15446  _=Razor.Edge.Book.Sharpening.djvu,0,2000-01-01 01:00:00,2016-04-03 02:51:08,260000/82e647ffe9b3973100eb51b64e7cf75d-d.jpg,,
5698196,Food Webs and Container Habitats: The Natural History and Ecology of Phytotelmata,,,,R. L. Kitching,2000,1,Cambridge University Press,,447,0,English,Компьютеры//Сети//Интернет,,0,"0521773164,9780521773164,9780511017704",,,,,577.6,QH541.5.W3 K57 2000,,,OL47502M,,0,,,,,1,,T,2284513,pdf,82A8488F08025181E1F3E26AC7294E08,,,,0,2000-01-01 01:00:00,2016-04-03 02:51:08,260000/82a8488f08025181e1f3e26ac7294e08-d.jpg,,
5698194,Mycobacterium Bovis Infection in Animals and Humans,,,,"Charles O. Thoen, James H. Steele, Michael J. Gilsdorf",2006,2,Wiley-Blackwell,,346,0,English,Биология//Зоология,avaxhome.ws,,0813809193,,,,,,,,,,2020,0,,,,,,,T,4047185,pdf,81F3F7D85C90C75AEEF192F5BEA51F35,,,Y. dl_avaxhome 2020  _=fennek.pdf,0,2000-01-01 01:00:00,2016-04-03 02:51:08,260000/81f3f7d85c90c75aeef192f5bea51f35-d.jpg,,
5698195,Small Wars Manual,,,,United States Marine Corps,2005,,University Press of the Pacific,,492,0,English,,avaxhome.ws,,1410224821,,,,,,,,,OL8425322M,1821,0,,,,,,,T,27125251,pdf,82178A851129B362103E0E15BFC49B38,,,Y. dl_avaxhome 1821  _=small.pdf,0,2000-01-01 01:00:00,2016-04-03 02:51:08,260000/82178a851129b362103e0e15bfc49b38-d.jpg,,
5698193,Pulmonary Problems in Pregnancy,,Respiratory Medicine,,"Ghada Bourjeily, Karen Rosene-Montella",2009,1,Humana Press,,414,0,English,Медицина,avaxhome.ws,,"1934115126,9781934115121",,,,,,,,,,11758,0,,,,,1,,T,7829929,pdf,81BDB6729DAB9AE9F62C9D8BCC1B2B60,,,Y. dl_avaxhome 11758 Pulmonary Problems in Pregnancy  _=Pulmonary Problems in Pregnancy.pdf,0,2000-01-01 01:00:00,2016-04-03 02:51:08,260000/81bdb6729dab9ae9f62c9d8bcc1b2b60-d.jpg,,
5698191,Cooked in LA: I Shot for the Stars and Hit Bottom,,,,Paul Cook,2009,,Kunati Inc.,,309,0,English,,,0,"1601641931,9781601641939",,,,,"362.29092,B",HV5805.C66 A3 2009,,,OL23180618M,,0,,,,,,,T,9621943,pdf,81550F05051B0F802E9EBA6E7F21E9A0,,,,0,2000-01-01 01:00:00,2016-04-03 02:51:08,260000/81550f05051b0f802e9eba6e7f21e9a0-d.jpg,,
5698192,Kant's Intuitionism: A Commentary on the Transcendental Aesthetic,,Toronto Studies in Philosophy,,Lorne Falkenstein,1995,,University of Toronto Press,,490,0,English,Общественные науки прочие//Философия,avaxhome.ws,,"9780802029737,0802029736,0802037747",,,,,121,B2779 .F35 1995,,,OL542736M,4341,0,,,,,1,,T,25455657,pdf,81779AB3EC4F5D54F127CF03441E1C85,,,Y. dl_avaxhome 4341  _=Kants_Intuitionism.pdf,0,2000-01-01 01:00:00,2016-04-03 02:51:08,260000/81779ab3ec4f5d54f127cf03441e1c85-g.jpg,,
5698190,Power Rules: How Common Sense Can Rescue American Foreign Policy,,,,Leslie H. Gelb,2009,1st,Harper,,353,0,English,Общественные науки прочие,avaxhome.ws,,"0061714542,9780061714542",,,,,327.73,JZ1480.A5 G45 2009,,,OL22795953M,15908,0,,,,,1,,T,2381844,pdf,80FBBA16B5EF529894D9C6C2E85F6176,,,Y. dl_avaxhome 15908  _=0061714542_Power_Rules.pdf,0,2000-01-01 01:00:00,2016-04-03 02:51:08,260000/80fbba16b5ef529894d9c6c2e85f6176-d.jpg,,
5698188,"Delta-Sigma Data Converters: Theory, Design, and  Simulation",,,,"Steven R. Norsworthy, Richard Schreier, Gabor C. Temes",1996,,Wiley-IEEE Press,,500,0,English,Компьютеры//Организация и обработка данных,,0,"0780310454,9780780310452",,,,,621.3815/322,TK7887.6 .D45 1996,,,OL8082543M,,0,,,,,1,,,30738820,pdf,80DFFC98BB9FA0FDE2BBCD223E7CBB7B,,,,0,2000-01-01 01:00:00,2016-04-03 02:51:08,260000/80dffc98bb9fa0fde2bbcd223e7cbb7b-d.jpg,,
5698189,Mastering Digital Color: A Photographer's and Artist's Guide to Controlling Color,,Digital Process and Print,,David Saffir,2006,1,Course Technology PTR,,272,0,English,Искусство//Фотография,,0,"1592005438,9781592005437,9781592005666",,,,,,,,,OL17903691M,,0,,,,,,,T,10778897,pdf,80E7E2E613745F303BCBF07DABF0022E,,,,0,2000-01-01 01:00:00,2016-04-03 02:51:08,260000/80e7e2e613745f303bcbf07dabf0022e-d.jpg,,
5698186,Make a Name for Yourself,,,,Scott Ginsberg,2007,1st,"Hello, my name is Scott!",,221,0,English,,,0,"9780972649735,0972649735",,,,,,,,,OL9359539M,,0,,,,,,,T,9659359,pdf,7F0A4C14BDC0E1DE807BF61734D0AD40,,,,0,2000-01-01 01:00:00,2016-04-03 02:51:08,260000/7f0a4c14bdc0e1de807bf61734d0ad40-d.jpg,,
5698187,Wine and Conversation,,,,Adrienne Lehrer,2009,2,"Oxford University Press, USA",,332,0,English,,,0,"0195307933,9780195307931,9780195307948",,,,,412,P325 .L368 2009,,,OL23157912M,,0,,,,,,,T,3512867,pdf,7FC2E9C153B4401C6C4E3C6C1CB8D5F8,,,,0,2000-01-01 01:00:00,2016-04-03 02:51:08,260000/7fc2e9c153b4401c6c4e3c6c1cb8d5f8-d.jpg,,
5698184,Handbook of Conveying and Handling of Particulate Solids,Volume 10,Handbook of Powder Technology,,"A. Levy, Christopher J Kalman MSc MBChB FFOM FRCP(Glas)",2001,1,Elsevier Science,,871,0,English,,,0,"9780444502353,0444502351",,,,,621.8/6,TS180.8.B8 .H36 2001,,,OL3972262M,,0,,,,,,,,42545678,pdf,7EC2B316CAFB7C489AA8249E426E3FE5,,,,0,2000-01-01 01:00:00,2016-04-03 02:51:08,260000/7ec2b316cafb7c489aa8249e426e3fe5-d.jpg,,
5698185,How to Read Kierkegaard,,,,John D. Caputo,2007,,Granta Books,,139,0,English,Образование,,0,"1862079153,9780393330786",,,,,198/.9,B4377 .C3136 2008,,,OL10157720M,,0,,,,,,,T,7291604,pdf,7EF300C29D52E1F20E418235ABE657AB,,,,0,2000-01-01 01:00:00,2016-04-03 02:51:08,260000/7ef300c29d52e1f20e418235abe657ab-d.jpg,,
5698183,Formal Logic,,Humanities Insights,,Mark Jago,2007,,Humanities - Ebooks.co.uk,,111,0,English,Математика//Математическая логика,avaxhome.ws,,"9781847600417,1847600417",,,,,,,,,,4271,0,,,,,1,,T,7746217,pdf,7EBE622288E4DC981FB2A722BCCC743D,,,Y. dl_avaxhome 4271  _=FormalLogic.pdf,0,2000-01-01 01:00:00,2016-04-03 02:51:08,260000/7ebe622288e4dc981fb2a722bccc743d-g.jpg,,
5698181,The English Civil War Recreated in Colour Photographs,,Europa Militaria 004,,Chris Honeywell,1994,,crowood press,,97,0,English,Искусство//Фотография,avaxhome.ws,,1872004547,,,,,,,,,OL8652165M,1928,0,,,,,,,,39679416,pdf,7D3974F955B96F179E1418F2BB6E5B28,,,Y. dl_avaxhome 1928  _=Europa Militaria 004 - The English Civil War Recreated In Colour Photos.pdf,0,2000-01-01 01:00:00,2016-04-03 02:51:08,260000/7d3974f955b96f179e1418f2bb6e5b28-d.jpg,,
5698182,Stress-induced and Fear Circuitry Disorders: Refining the Research Agenda for DSM-V,,,,"Gavin Andrews, Dennis S. Charney, Paul J. Sirovatka, Darrel A. Regier, Gavin Andrews, Dennis S. Charney, Paul J. Sirovatka, Darrel A. Regier",2008,1,"American Psychiatric Publishing, Inc.",,331,0,English,Медицина,avaxhome.ws,,"089042344X,9780890423448,9780890426555",,,,,616.85/22,RC531 .S764 2009,,,OL16900861M,15958,0,,,,,,,T,2230393,pdf,7DE1EBD5E5A031F597530CA007582E84,,,Y. dl_avaxhome 15958  _=089042344X_Circuitry_Disorde.pdf,0,2000-01-01 01:00:00,2016-04-03 02:51:08,260000/7de1ebd5e5a031f597530ca007582e84-d.jpg,,
5698179,World Englishes: The Study of New Linguistic Varieties,,Key Topics in Sociolinguistics,,"Rajend Mesthrie, Rakesh M. Bhatt",2008,,Cambridge University Press,,296,0,English,Языкознание,,0,"0521793416,9780521793414,9780511410123",,,,,427.009171/241,PE2751 .M47 2008,,,OL10437225M,,0,,,,,1,,T,2574566,pdf,7D189BA69B75AF6C37011C638B173416,,,,0,2000-01-01 01:00:00,2016-04-03 02:51:08,260000/7d189ba69b75af6c37011c638b173416-d.jpg,,
5698180,Touchstone Tarot,,,,Kat Black,2009,Crds/Pap,Kunati Inc.,,203,0,English,,,0,"1601641907,9781601641908",,,,,133.3/2424,BF1879.T2 B53 2009,,,OL22685246M,,0,,,,1,0,,1,2100480,pdf,7D34F73FBFCC5E9C37E4B00AFF6DDB94,,,,0,2000-01-01 01:00:00,2016-04-03 02:51:08,260000/7d34f73fbfcc5e9c37e4b00aff6ddb94-d.jpg,,
5698177,Lockheed L-188 Electra and Orion,,,,J.L. Sherlock,1977,,Air Britain Historians Ltd,,82,0,English,История,avaxhome.ws,,"0851300588,9780851300580",,,,,629.133/343,HE9769.A3 S48,,,OL4489786M,16046,0,,,,,1,,,22018317,pdf,7CEA9674E623F36CF363EF3BCCA2E4A7,,,Y. dl_avaxhome 16046  _=_Air_Britain__Lockheed_L-188_Electra_And_Orion.pdf,0,2000-01-01 01:00:00,2016-04-03 02:51:08,260000/7cea9674e623f36cf363ef3bcca2e4a7-g.jpg,,
5698178,European Economic Integration: Limits and Prospects,,,,Miroslav Jovanovic,1997,1,Routledge,,425,0,English,География,,0,"0415095484,9780415095488,9780203009864,9780415095495,0415095492,020300986X",,,,,337.1/42,HC241 .J62 1997,,,OL493712M,,0,,,,,1,,T,4360509,pdf,7D10D4DB272D7D648B06411F8DF77159,,,,0,2000-01-01 01:00:00,2016-04-03 02:51:08,260000/7d10d4db272d7d648b06411f8df77159-d.jpg,,
5698176,T-64 and T-80,,Firepower Pictorials,,Steven J. Zaloga,1992,,Concord Publications,,66,0,English,История,avaxhome.ws,,"9789623610315,9623610319",,,,,,,,,OL9160400M,15775,0,,,,,,,,10935887,pdf,7C9836E208F9ABA7185EE86FD41705B6,,,Y. dl_avaxhome 15775  _=T-64.and.T-80.pdf,0,2000-01-01 01:00:00,2016-04-03 02:51:08,260000/7c9836e208f9aba7185ee86fd41705b6-g.jpg,,
5698174,British Pharmacopoeia 2009,,,,British Pharmacopoeia Commission,2008,Har/Pas,Stationery Office Books (TSO),,10952,0,English,Химия//Фармакология,avaxhome.ws,,"9780113227990,011322799X",,,,,,,,,,14306,0,,,,,,,T,95254118,pdf,7C61E82D5013FD94ED24A25871F6E06E,,,Y. dl_avaxhome 14306  _=PAL.pdf,0,2000-01-01 01:00:00,2016-04-03 02:51:08,260000/7c61e82d5013fd94ed24a25871f6e06e-g.jpg,,
5698175,Flow Cytometry in Hematopathology: A Visual Approach to Data Analysis and Interpretation,,Current Clinical Pathology,,"Doyen T. Nguyen, Lawrence W. Diamond, Raul C. Braylan",2002,1,Humana Press,,236,0,English,Компьютеры//Организация и обработка данных,,0,"9781588292124,1588292126,1592593542,0750642475",,,,,616.4/1075,RB45 .N49 2003,,,OL22488941M,,0,,,,,,,,5848992,pdf,7C70645462A641374C20B514A9C5CFB4,,,,0,2000-01-01 01:00:00,2016-04-03 02:51:08,260000/7c70645462a641374c20b514a9c5cfb4-d.jpg,,
5698172,"One Day in History: December 7, 1941",,,,Rodney P. Carlisle,2006,,Smithsonian,,292,0,English,История,avaxhome.ws,,"0061120340,9780061120343",,,,,940.54/26693,D767.92 .O54 2006,,,OL23104378M,15893,0,,,,,1,,T,6711740,pdf,7B85BBC5EF2213BC7CD6BF422C56B8D5,,,Y. dl_avaxhome 15893  _=0061120340_December_7.pdf,0,2000-01-01 01:00:00,2016-04-03 02:51:08,260000/7b85bbc5ef2213bc7cd6bf422c56b8d5-d.jpg,,
5698173,"Into the Light: Real Life Stories About Angelic Visits, Visions of the Afterlife, and Other Pre-Death Experiences",,,,John Lerma,2007,,New Page Books,,241,0,English,"Религия//Эзотерика, мистика",avaxhome.ws,,"1564149722,9781564149725,9781435659537",,,,,,,,,OL12155429M,2037,0,,,,,1,,T,1438711,pdf,7BEA2255C4150D8DCA193B8BD8CEC9F3,,,Y. dl_avaxhome 2037  _=oo17.pdf,0,2000-01-01 01:00:00,2016-04-03 02:51:08,260000/7bea2255c4150d8dca193b8bd8cec9f3-d.jpg ,,
5698170,Face Forward,,,,Kevyn Aucoin,2001,First Edition,"Little, Brown and Company",,178,0,English,Психология,avaxhome.ws,,"0316287059,9780316287050",,,,,,,,,OL9450596M,1875,0,,,,,1,,,61596573,pdf,7B27F24AC57D24AB3664399D21247233,,,Y. dl_avaxhome 1875  _=face_forward.pdf,0,2000-01-01 01:00:00,2016-04-03 02:51:08,260000/7b27f24ac57d24ab3664399d21247233-d.jpg,,
5698171,"Not So Plain as Black and White: Afro-German Culture and History, 1890-2000",,Rochester Studies in African History and the Diaspora,,Patricia Mazon,2005,,University of Rochester Press,,268,0,English,История,avaxhome.ws,,1580461832,,,,,,,,,OL18224221M,4551,0,,,,,,,T,2987972,pdf,7B854A59073D693727DFA24FA0B0632F,,,Y. dl_avaxhome 4551  _=Not_So_Plain_as_Black_and_White.PDF,0,2000-01-01 01:00:00,2016-04-03 02:51:08,260000/7b854a59073d693727dfa24fa0b0632f-d.jpg,,
5698168,Encyclopedia of Electronic Circuits,Volume 4,,,William Sheets,1992,,McGraw-Hill Companies,,744,0,English,Техника//Электроника,avaxhome.ws,,0071577122,,,,,,,,,,505,0,,,,,,,,25436532,pdf,7AF180ADC45B249125CF11DF2E5DAF34,,,Y. dl_avaxhome 505  _=0071577122_Enc_Electronic_Circuits_Vol_4.pdf,0,2000-01-01 01:00:00,2016-04-03 02:51:08,260000/7af180adc45b249125cf11df2e5daf34-g.jpg,,
5698169,Encyclopedic Dictionary of Condensed Matter Physics,,,,,2004,,Elsevier,,1658,0,English,Физика,avaxhome.ws,,0120883988,,,,,,,,,,4223,0,,,,,,,T,16252792,pdf,7AFDECDF562AEEE1032ACBB86D9E71BD,,,Y. dl_avaxhome 4223  _=Encyclopedic_Dictionary_of_Condensed_Matter_Physics.pdf,0,2000-01-01 01:00:00,2016-04-03 02:51:08,260000/7afdecdf562aeee1032acbb86d9e71bd-d.jpg,,
5698166,Colour Terms in the Old Testament,,Journal for the Study of the Old Testament,,Athalya Brenner,1983,,Almond Press,,307,0,English,История,avaxhome.ws,,0905774426,,,,,,,,,,1890,0,,,,,,,T,11088053,pdf,79FB15EDFA5F075E6451EAC534942A51,,,Y. dl_avaxhome 1890  _=0905774426.pdf,0,2000-01-01 01:00:00,2016-04-03 02:51:08,260000/79fb15edfa5f075e6451eac534942a51-g.jpg,,
5698167,"Atlas of Endometriosis, ",,Encyclopedia of Visual Medicine Series,,Caroline Overton,2007,3,Informa Healthcare,,130,0,English,Медицина,avaxhome.ws,,0415395739,,,,,,,,,,7696,0,,,,,,,T,12126400,pdf,7A97B48322E2DE55E3584950DF75D5FD,,,Y. dl_avaxhome 7696  _=Atlas_of_Endometriosis.pdf,0,2000-01-01 01:00:00,2016-04-03 02:51:08,260000/7a97b48322e2de55e3584950df75d5fd-d.jpg,,
5698164,Against Destiny,,,,Alexander Dolinin,2009,1,Kunati Inc.,,453,0,English,,,0,"1601641737,9781601641731",,,,,813/.6,PS3604.O433 A7 2009,,,OL22685436M,,0,,,,,,,T,27831818,pdf,790EDE1368372E266B57BD47370E2A09,,,,0,2000-01-01 01:00:00,2016-04-03 02:51:08,260000/790ede1368372e266b57bd47370e2a09-d.jpg,,
5698165,Slavery and the American West: The Eclipse of Manifest Destiny,,,,Michael A. Morrison,1997,,The University of North Carolina Press,,411,0,English,История,avaxhome.ws,,0807823198,,,,,,,,,,362,0,,,,,,,T,12600957,pdf,7973F7F8A8B22618CB41FE851C0409FB,,,Y. dl_avaxhome 362  _=222222.pdf,0,2000-01-01 01:00:00,2016-04-03 02:51:08,260000/7973f7f8a8b22618cb41fe851c0409fb-d.jpg,,
5698163,Managing Chronic Conditions: Experience in Eight Countries,,A EURO Publication,,"E. Nolte, C. Knai, Martin McKee",2009,,World Health Organization,,202,0,English,Бизнес//Менеджмент//Управление проектами,,0,"928904294X,9789289042949,9789289042970",,,,,,,,,,,0,,,,,1,,T,1464291,pdf,78126E82B290CE275BCD61FCCAC43C26,,,,0,2000-01-01 01:00:00,2016-04-03 02:51:08,260000/78126e82b290ce275bcd61fccac43c26-d.jpg,,
5698161,Creating Responsible Learners: The Role of a Positive Classroom Environment,,Psychology in the Classroom,,Dale Scott Ridley,1995,1,American Psychological Association (APA),,123,0,English,Образование,avaxhome.ws,,1557982953,,,,,371.1/024/0973,LB3013 .R525 1995,,,OL790121M,3871,0,,,,,,,T,4394142,pdf,77EA05AFE1CB4504963674D5E39150ED,,,Y. dl_avaxhome 3871  _=28.pdf,0,2000-01-01 01:00:00,2016-04-03 02:51:08,260000/77ea05afe1cb4504963674d5e39150ed-d.jpg,,
5698162,Crafting the Witch: Gendering Magic in Medieval and Early Modern England,,Studies in Medieval History and Culture,,Heidi Breuer,2009,,Routledge,,203,0,English,История,,0,"0415977614,9780415977616,0203876784,9780203876787",,,,,820/.9377,PN671 .B73 2009,,,OL22691509M,,0,,,,,1,,T,1954068,pdf,77F20E430F079CFF8C6F93398B1331FE,,,,0,2000-01-01 01:00:00,2016-04-03 02:51:08,260000/77f20e430f079cff8c6f93398b1331fe-d.jpg,,
5698159,Home-Built Claymore Mines: A Blueprint For Survival,,,,Ragnar Benson,1993,illustrated edition,Paladin Press,,57,0,English,История,,0,"0873647262,9780873647267",,,,,623.4/5115,UG490 .B46 1993,,,OL1045313M,,0,,,,,1,,T,4543115,pdf,7745EBB0DC5469F1FF68614F838E8A87,,,,0,2000-01-01 01:00:00,2016-04-03 02:51:08,260000/7745ebb0dc5469f1ff68614f838e8a87-d.jpg,,
