5693158,Buddy Bolden and the Last Days of Storyville,,Bayou Press Series,,"Alyn Shipton, Danny Baker",2001,,Continuum,,185,0,English,,ebook3000.com,0,"0826457029,9780826457028",,,,,,,,,OL8168460M,,0,,,,,1,,T,10314456,pdf,49A49B5D563BF731CE3CBE891058310E,,,,0,2000-01-01 01:00:00,2016-04-03 02:51:08,255000/49a49b5d563bf731ce3cbe891058310e-d.jpg,,
5693159,Men's Sexual Health: Fitness for Satisfying Sex,,,,"Barry W. McCarthy, Michael E. Metz",2007,1,Routledge,,226,0,English,"Психология//Любовь, эротика",,0,"0415956382,9780415956383",,,,,,,,,OL10208689M,,0,,,,,,,T,3520425,pdf,4A18867AFF02C3798CD30CF6E75BA528,,,,0,2000-01-01 01:00:00,2016-04-03 02:51:08,255000/4a18867aff02c3798cd30cf6e75ba528-d.jpg,,
5693156,"Math You Can't Use: Patents, Copyright, and Software",,,,Ben Klemens,2005,illustrated edition,Brookings Institution Press,,192,0,English,Компьютеры//Программирование,,0,"9780815749424,0815749422",,,,,346.04/8,K1519.C6 .K54 2005,,,OL22720544M,,0,,,,,,,T,1719708,pdf,489A3631FA048E529E2ED16D43EF530F,,,,0,2000-01-01 01:00:00,2016-04-03 02:51:08,255000/489a3631fa048e529e2ed16d43ef530f-d.jpg,,
5693157,LIBERALISM,,Lib Works Ludwig Von Mises CL ,,LUDWIG VON MISES,2005,,Liberty Fund Inc.,,208,0,English,Биология//Генетика,,0,"086597585X,9780865975859",,,,,320.51,JC585 .V613 2005,,,OL3423206M,,0,,,,,,,T,955191,pdf,48C1CE489B123F0079E1AEAA2B62F312,,,,0,2000-01-01 01:00:00,2016-04-03 02:51:08,255000/48c1ce489b123f0079e1aeaa2b62f312-d.jpg,,
5693155,"Derivatives: Markets, Valuation, and Risk Management",,Wiley Finance,,Robert E. Whaley,2006,,Wiley,,963,0,English,Бизнес//менеджмент,,0,"9780471786320,0471786322",,,,,,,,,OL9785642M,,0,,,,,,,T,10174080,pdf,4894C60550A0871595263892584B3C67,,,,0,2000-01-01 01:00:00,2016-04-03 02:51:08,255000/4894c60550a0871595263892584b3c67-d.jpg,,
5693153,The Foundations of Knowing,,,,Roderick M. Chisholm,1983,,Univ of Minnesota Pr,,226,0,English,Физика,,0,"9780816611034,0816611033,0816611041",,,,,121,BD161 .C467 1982,,,OL21225950M,,0,,,,,,,1,11312314,pdf,47C5A44CA1BE6EFD9423ACE47A75B05F,,,,0,2000-01-01 01:00:00,2016-04-03 02:51:08,255000/47c5a44ca1be6efd9423ace47a75b05f-d.jpg,,
5693154,True Films 2.0: 150 Great Documentaries & Factuals,,,,Kevin Kelly,2007,,Kevin Kelly,,199,0,English,Экономика,,0,"9780972392549,0972392548",,,,,,,,,,,0,,,,,,,1,4620789,pdf,48463C9956A380D909CFC83A59028B72,,,,0,2000-01-01 01:00:00,2016-04-03 02:51:08,255000/48463c9956a380d909cfc83a59028b72-d.jpg,,
5693151,From Molecule to Metaphor: A Neural Theory of Language,,Bradford Books ,,Jerome A. Feldman,2006,1,The MIT Press,,379,0,English,,,0,"9780262062534,0262062534",,,,,401,P107 .F445 2006,,,OL3432052M,,0,,,,,,,T,3164872,pdf,473CB154A59613A079E80A22ACA579D4,,,,0,2000-01-01 01:00:00,2016-04-03 02:51:08,255000/473cb154a59613a079e80a22aca579d4-d.jpg,,
5693152,Chemical Solution Deposition Of Semiconductor Films,,Food Science and Technology,,Gary Hodes,2002,1,CRC Press,,381,0,English,Химия,,0,"9780824708511,0824708512",,,,,,,,,OL18186268M,,0,,,,,,,,1837157,pdf,4757B17A988554260146812BAD3536E3,,,,0,2000-01-01 01:00:00,2016-04-03 02:51:08,255000/4757b17a988554260146812bad3536e3-d.jpg,,
5693150,"Monetary Theory and Policy, 2nd Edition",,,,Carl E. Walsh,2003,2,The MIT Press,,633,0,English,,,0,"9780262232319,0262232316",,,,,332.46,HG230.3.W35,,,OL15546511M,,0,,,,,,,T,7635470,pdf,46EB2B7E53A6B50F8EC27748AEC49BA9,,,,0,2000-01-01 01:00:00,2016-04-03 02:51:08,255000/46eb2b7e53a6b50f8ec27748aec49ba9-d.jpg,,
5693148,Robotics: Science and Systems III,,,,"Wolfram Burgard, Oliver Brock, Cyrill Stachniss",2008,,The MIT Press,,349,0,English,Наука (общее)//Научно-популярное,,0,"0262524848,9780262524841,9781435628007",,,,,,,,,OL10237950M,,0,,,,,1,,,16700593,pdf,46C5F89D53D097902DA17308647ADF29,,,,0,2000-01-01 01:00:00,2016-04-03 02:51:08,255000/46c5f89d53d097902da17308647adf29-d.jpg,,
5693149,Cambridge IELTS 3 Student's Book with Answers: Examination Papers from the University of Cambridge Local Examinations Syndicate,,Ielts Practice Tests,,University of Cambridge Local Examinations Syndicate,2002,,Cambridge University Press,,179,0,English,Языкознание//Иностранные//Английский язык,,0,"9780521013338,052101333X,0521013356,0521013364",,,,,,,,,OL7713281M,,0,,,,,,,T,18233210,pdf,46CFC2B676F79D41C602C58BD0300DDD,,,,0,2000-01-01 01:00:00,2016-04-03 02:51:08,255000/46cfc2b676f79d41c602c58bd0300ddd-d.jpg,,
5693147,Film Structure and the Emotion System,,,,Dr Greg M. Smith,2003,,Cambridge University Press,,230,0,English,,,0,"0521817587,9780521817585",,,,,,,,,OL22549039M,,0,,,,,,,T,2946074,pdf,46BE07C4EA9A1C5462670BB159E9DF13,,,,0,2000-01-01 01:00:00,2016-04-03 02:51:08,255000/46be07c4ea9a1c5462670bb159e9df13-d.jpg,,
5693145,Encyclopedia of Group Processes and Intergroup Relations,,,,"John M. Levine, Dr. Michael A. Hogg",2009,,"Sage Publications, Inc",,1028,0,English,Образование//Энциклопедии,ebook3000.com,0,"141294208X,9781412942089",,,,,302.303,HM716 .E53 2010,,,OL23621882M,,0,,,,1,0,,1,15025228,pdf,4696AD579225C020C6B4F9F1CEAE3411,,,,0,2000-01-01 01:00:00,2016-04-03 02:51:08,255000/4696ad579225c020c6b4f9f1ceae3411-d.jpg,,
5693146,Pro ASP.NET 2.0 in VB 2005,,Expert's Voice in .Net,,"Laurence Moroney, Matthew MacDonald (Ed.)",2006,1,Apress,,1297,0,English,Компьютеры//Программирование//Языки программирования,,0,"1590595637,9781590595633,9781430201182",,,,,,,,,OL8848806M,,0,,,,,1,,T,22837099,pdf,469EDA9CCC5115760A0C5F9CD9DC38A3,,,,0,2000-01-01 01:00:00,2016-04-03 02:51:08,255000/469eda9ccc5115760a0c5f9cd9dc38a3-d.jpg,,
5693143,Metaphysics: The Elements,,,,Bruce Aune,1985,,University of Minnesota Press,,252,0,English,Физика,,0,"0816614121,9780816614127",,,,,110,BD111 .A96 1985,,,OL3022314M,,0,,,,1,1,,1,15210846,pdf,45FF1E9FE529CBFA456F3D6D606F3B79,,,,0,2000-01-01 01:00:00,2016-04-03 02:51:08,255000/45ff1e9fe529cbfa456f3d6d606f3b79-d.jpg,,
5693144,Who da' Man ?: Black Masculinities and Sporting Cultures,,,,Gamal Abdel-Shehid,2005,,Canadian Scholars Press,,209,0,English,,,0,"9781551302614,1551302616",,,,,796/.089/96071,GV706.5 .A38 2005,,,OL3460372M,,0,,,,,,,T,1176674,pdf,467F0830618CC5F6E878216934277D96,,,,0,2000-01-01 01:00:00,2016-04-03 02:51:08,255000/467f0830618cc5f6e878216934277d96-d.jpg,,
5693141,Encyclopedia of Business and Finance,,,,"Burton S. Kaliski, Macmillan Reference USA",2000,,MacMillan Reference Books,,943,0,English,Бизнес,,0,"9780028650654,0028650654",,,,,,,,,OL7269489M,,0,,,,,,,,11795529,pdf,453AFB7686273CEF35B1B509729D32AA,,,,0,2000-01-01 01:00:00,2016-04-03 02:51:08,255000/453afb7686273cef35b1b509729d32aa-d.jpg,,
5693142,A Concise German Grammar,,,,Timothy Buck,1999,,"Oxford University Press, USA",,192,0,English,Языкознание,ebook3000.com,0,"9780198700227,0198700229",,,,,435,PF3112 .B764 1999,,,OL42880M,,0,,,,,,,,23794579,pdf,4566AC707B811D85427DDE51DC52EF52,,,,0,2000-01-01 01:00:00,2016-04-03 02:51:08,255000/4566ac707b811d85427dde51dc52ef52-d.jpg,,
5693140,A Short History of Cambodia: From Empire to Survival,,A Short History of Asia series ,,John Tully,2006,,Allen & Unwin,,284,0,English,История,,0,"1741147638,9781741147636,9781741158571",,,,,959.6,DS554.5 .T85 2005,,,OL17180944M,,0,,,,,1,,T,3416272,pdf,452E7AB854CDEF5DD99DAC33BE60F793,,,,0,2000-01-01 01:00:00,2016-04-03 02:51:08,255000/452e7ab854cdef5dd99dac33be60f793-d.jpg,,
5693138,"Truth, Lies, and Public Health: How We Are Affected When Science and Politics Collide",,,,Madelon L. Finkel,2007,1,Praeger,,257,0,English,Наука (общее)//Научно-популярное,,0,"9780275991289,0275991288",,,,,,,,,OL10289760M,,0,,,,,,,T,1239976,pdf,451A53C709462C354F8DB29533853261,,,,0,2000-01-01 01:00:00,2016-04-03 02:51:08,255000/451a53c709462c354f8db29533853261-d.jpg,,
5693139,Memory and Popular Film,,Inside Popular Film ,,Paul Grainge,2003,,Manchester University Press,,272,0,English,Экономика,,0,"0719063744,9780719063749",,,,,791.43/75,PN1993.5.U6 M38 2003,,,OL3684666M,,0,,,,,,,T,3305082,pdf,452C2C6566ADEDEE4F3AE4AD64F1B354,,,,0,2000-01-01 01:00:00,2016-04-03 02:51:08,255000/452c2c6566adedee4f3ae4ad64f1b354-g.jpg,,
5693137,Corporate Canaries: Avoid Business Disasters with a Coal Miner's Secrets,,,,"Lisa Samson, Gary Sutton",2005,,Thomas Nelson,,5,0,English,Бизнес,,0,"9780785212997,078521299X",,,,,657.4/03,HF5386 .S894 2005,,,OL3405454M,,0,,,,,,,T,70411,pdf,4438A9A6CEA63166BE98FEC71315C1ED,,,,0,2000-01-01 01:00:00,2016-04-03 02:51:08,255000/4438a9a6cea63166be98fec71315c1ed-d.jpg,,
5693135,"Trading in the Zone: Master the Market with Confidence, Discipline and a Winning Attitude",,,,Mark Douglas,2000,,Prentice Hall Press,,121,0,English,Бизнес//Трейдинг,,0,"9780735201446,0735201447",,,,,332.64,HG6041 .D59 2000,,,OL18321146M,,0,,,,,,,,2724126,pdf,43996E4477E51A2C6E773611251E48AB,,,,0,2000-01-01 01:00:00,2016-04-03 02:51:08,255000/43996e4477e51a2c6e773611251e48ab-d.jpg,,
5693136,British Cinema in the 1950's: An Art in Peacetime,,,,"Ian MacKillop, Neil Sinyard",2003,,Manchester University Press,,249,0,English,Искусство//Кинематография,,0,"9780719064883,0719064880,0719064899",,,,,791.43/0941/09045,PN1993.5. G7 M263 2003,,,OL22522782M,,0,,,,,,,T,4977339,pdf,43EA6CF011FF577E0E07C5B5A816A1A3,,,,0,2000-01-01 01:00:00,2016-04-03 02:51:08,255000/43ea6cf011ff577e0e07c5b5a816a1a3-d.jpg,,
5693134,Marijuana as Medicine: The Science Beyond the Controversy,,,,"Alison Mack, Janet Joy",2001,1,National Academies Press,,215,0,English,Наука (общее)//Научно-популярное,,0,"9780309065313,0309065313",,,,,,,,,OL9605894M,,0,,,,,,,T,3810655,pdf,438B8DB7E5C162A6FFA614505523592B,,,,0,2000-01-01 01:00:00,2016-04-03 02:51:08,255000/438b8db7e5c162a6ffa614505523592b-d.jpg,,
5693132,"The 100 Best Vegan Baking Recipes: Amazing Cookies, Cakes, Muffins, Pies, Brownies and Breads",,,,Kris Holechek,2009,Original,Ulysses Press,,169,0,English,"Домоводство, досуг//Кулинария",ebook3000.com,0,"1569757143,9781569757147",,,,,,,,,,,0,,,,,,,T,1465193,pdf,43003B9BEACF49A420F54E80F612B2C8,,,,0,2000-01-01 01:00:00,2016-04-03 02:51:08,255000/43003b9beacf49a420f54e80f612b2c8-d.jpg,,
5693133,"Valuation: Measuring and Managing the Value of Companies, 3rd Edition",,,,"McKinsey & Company Inc., Tom Copeland, Tim Koller, Jack Murrin",2000,3,"John Wiley & Sons, Inc.",,508,0,English,Бизнес//Менеджмент//Управление проектами,,0,"9780471361909,0471361909,0471397490",,,,,,,,,OL15480769M,,0,,,,,,,T,16959567,pdf,43559953BF1DE6F862E6CCDFF5935719,,,,0,2000-01-01 01:00:00,2016-04-03 02:51:08,255000/43559953bf1de6f862e6ccdff5935719-d.jpg,,
5693130,Geology,,Let’s Explore Science,,Tim Clifford,2008,,Rourke Publishing (FL),,48,0,English,Геология,,0,"160044623X,9781600446238",,,,,550,QE29 .C655 2008,,,OL12504800M,,0,,,,,1,,T,4054524,pdf,4259ED6F36568C26542DBD015AED1657,,,,0,2000-01-01 01:00:00,2016-04-03 02:51:08,255000/4259ed6f36568c26542dbd015aed1657-d.jpg,,
5693131,"Frommer's Portable Acapulco, Ixtapa and Zihuatanejo",,,,Lynne Bairstow,2003,3,Frommers,,193,0,English,География,,0,"0764538217,9780764538216,9780764557200",,,,,,,,,OL23071302M,,0,,,,,1,,T,3540955,pdf,4290B9CF4D2A1057DBD33EDCD887DE6F,,,,0,2000-01-01 01:00:00,2016-04-03 02:51:08,255000/4290b9cf4d2a1057dbd33edcd887de6f-d.jpg,,
5693128,Statistically Speaking: A Dictionary of Quotations,,,,"C.C. Gaither, Alma E Cavazos-Gaither",1996,1,Taylor & Francis,,430,0,English,Языкознание//Словари,,0,"9780750304016,0750304014",,,,,519.5,QA273 .S742 1996,,,OL1004458M,,0,,,,,,,T,16937085,pdf,41F92B92FF8D4099A0F91171695EDAB6,,,,0,2000-01-01 01:00:00,2016-04-03 02:51:08,255000/41f92b92ff8d4099a0f91171695edab6-d.jpg,,
5693129,Taekwondo: Ancient Wisdom for the Modern Warrior,,,,Doug Cook,2001,,YMAA Publication Center,,21,0,English,История,,0,"9781886969933,1886969930",,,,,796.815/3,GV1114.9 .C66 2001,,,OL3370353M,,0,,,,,,,,371882,pdf,421B5AB53A54EC4EF22D6333A830B652,,,,0,2000-01-01 01:00:00,2016-04-03 02:51:08,255000/421b5ab53a54ec4ef22d6333a830b652-d.jpg,,
5693127,Dictionary of e-Business: A Definitive Guide to Technology and Business Terms,,,,Francis Botto,2003,2,Wiley,,380,0,English,Бизнес,,0,"9780470844700,0470844701",,,,,658.8/4,HF5548.32 .B67 2003,,,OL24929016M,,0,,,,,,,T,2545290,pdf,41E10239C37E5E6713F9C6FB9FD7B570,,,,0,2000-01-01 01:00:00,2016-04-03 02:51:08,255000/41e10239c37e5e6713f9c6fb9fd7b570-d.jpg,,
5693126,The Language of the Papyri,,,,"T. V. Evans, D. D. Obbink",2010,,"Oxford University Press, USA",,383,0,English,,ebook3000.com,0,"0199237085,9780199237081",,,,,480,PA3341 .L36 2010,,,OL24123561M,,0,,,,,,,T,5180032,pdf,415ECD0E8FC5740AD90C1022442EBF71,,,,0,2000-01-01 01:00:00,2016-04-03 02:51:08,255000/415ecd0e8fc5740ad90c1022442ebf71-d.jpg,,
5693124,Advanced Photoshop CS3 Trickery & FX,,Graphics Series,,Stephen Burns,2007,1,Charles River Media,,381,0,English,Компьютеры//Программы//Продукты Adobe,,0,"1584505311,9781584505310,9781584505976",,,,,006.6/86,T385 .B864345 2007,,,OL17872179M,,0,,,,,1,,T,34486140,pdf,41397C593413282708D256E9C0346478,,,,0,2000-01-01 01:00:00,2016-04-03 02:51:08,255000/41397c593413282708d256e9c0346478-d.jpg,,
5693125,The Oz Principle: Getting Results through Individual and Organizational Accountability,,,,"Roger Connors, Tom Smith, Craig Hickman",2004,Rev Sub,Portfolio Hardcover,,11,0,English,Экономика,,0,"9781591840244,1591840244",,,,,658,HD70.U5 C59 2004,,,OL3389325M,,0,,,,,,,,234664,pdf,4157F52A6CF88C27664185860710BDA0,,,,0,2000-01-01 01:00:00,2016-04-03 02:51:08,255000/4157f52a6cf88c27664185860710bda0-d.jpg,,
5693123,"The Formation of Islam: Religion and Society in the Near East, 600-1800",,Themes in Islamic History ,,Jonathan P. Berkey,2002,,Cambridge University Press,,298,0,English,Религия,,0,"0521582148,9780521582148,1397805215821",,,,,297/.09,BP63.A35 B47 2003,,,OL3563102M,,0,,,,,,,,2192472,pdf,41382A076FDFB8573D598C69B134AEAF,,,,0,2000-01-01 01:00:00,2016-04-03 02:51:08,255000/41382a076fdfb8573d598c69b134aeaf-g.jpg,,
5693121,"Knowledge, Possibility, and Consciousness",,Jean Nicod Lectures ,,John Perry,2001,2 Sub,The MIT Press,,238,0,English,,,0,"0262661357,9780262661355",,,,,128´.2—dc21,,,,OL9659142M,,0,,,,,,,1,649862,pdf,41003C567D6E75C2057966CABC86D343,,,,0,2000-01-01 01:00:00,2016-04-03 02:51:08,255000/41003c567d6e75c2057966cabc86d343-d.jpg,,
5693122,Legal Forms for Starting & Running a Small Business,,,,Fred S. Steingold,2004,,NOLO,,450,0,English,Бизнес,,0,"9780873379717,0873379713",,,,,,,,,OL15447640M,,0,,,,,,,T,5043190,pdf,411E675ADD64D448888B2FC28BC95A57,,,,0,2000-01-01 01:00:00,2016-04-03 02:51:08,255000/411e675add64d448888b2fc28bc95a57-d.jpg,,
5693119,Better Green Business: Handbook for Environmentally Responsible and Profitable Business Practices,,,,Eric G. Olson,2009,1,Wharton School Publishing,,248,0,English,,ebook3000.com,0,"0137010176,9780137010172",,,,,658.4/083,HD30.255 .O47 2009,,,OL23632175M,,0,,,,,,,,1674683,pdf,406A4D5D10AA5DB8668C0EAC26CC89C1,,,,0,2000-01-01 01:00:00,2016-04-03 02:51:08,255000/406a4d5d10aa5db8668c0eac26cc89c1-d.jpg,,
5693120,CSS Mastery: Advanced Web Standards Solutions,,,,"Cameron Moll, Andy Budd, Simon Collison",2006,,friendsofED,,280,0,English,Компьютеры//Сети//Интернет,,0,"1590596145,9781590596142,9781430201236",,,,,,,,,OL8848845M,,0,,,,0,0,,1,4876731,pdf,40F5D3D223726CE1EDA7CE2198805442,,,,0,2000-01-01 01:00:00,2016-04-03 02:51:08,255000/40f5d3d223726ce1eda7ce2198805442-d.jpg,,
5693118,21st Century Sociology: A Reference Handbook,vol 1,"21st Century Reference Series Thousand Oaks, Calif.",,"Clifton D. Bryant, Dr. Dennis L. Peck",2006,,"Sage Publications, Inc",,738,0,English,,,0,"1412916089,9781412916080",,,,,,,,,OL15607065M,,0,0,0,,,,,1,6505353,pdf,4016B7DC5DA2C23B97E31969CB502464,,,,0,2000-01-01 01:00:00,2016-04-03 02:51:08,255000/4016b7dc5da2c23b97e31969cb502464-d.jpg,,
5693116,Shin Origami Rando: Tsukatte Asobou Yunitto Origami,,New Origami Land:  Origami You Can Play With,,Tomoko Fuse,2000,,Seibundo Shinkosha,,54,0,Japanese,"Домоводство, досуг",ebook3000.com,0,"9784416300121,4416300123",,,,,,,,,OL9031009M,,0,,,,,,,,4099742,pdf,3FF2A4EA8A9F2E56385897C9B0056F29,,,,0,2000-01-01 01:00:00,2016-04-03 02:51:08,255000/3ff2a4ea8a9f2e56385897c9b0056f29-d.jpg,,
5693117,Life in the Frozen State,,,,"Barry Fuller, Nick Lane, Erica E. Benson",2004,1,CRC Press,,700,0,English,Наука (общее)//Науковедение,,0,"0415247004,9780415247009,9780203647073",,,,,,,,,OL17128790M,,0,,,,,1,,T,11580172,pdf,4016A390EB042DC86A208FFFDACFBCF4,,,,0,2000-01-01 01:00:00,2016-04-03 02:51:08,255000/4016a390eb042dc86a208fffdacfbcf4-d.jpg,,
5693114,"Architecture Design Notebook, Second Edition",,,,A Peter Fawcett BA.  (Arch.)  (Manc.)  RIBA  Hon. ARUA.,2003,2,Architectural Press,,119,0,English,Искусство//Архитектура,ebook3000.com,0,"9780750656696,0750656697",,,,,721,NA2750 .F37 2003,,,OL18888206M,,0,,,,,,,T,5391588,pdf,3F45E0E606093370A93A3F68C4731235,,,,0,2000-01-01 01:00:00,2016-04-03 02:51:08,255000/3f45e0e606093370a93a3f68c4731235-d.jpg,,
5693115,French Cinema: A Student's Guide,,,,"Phil Powrie, Keith Reader",2002,,Bloomsbury USA,,221,0,English,Искусство//Кинематография,,0,"9780340760048,0340760044,0340760036",,,,,,,,,OL15529642M,,0,,,,,,,T,11348196,pdf,3FAE9DA6774034CB0FA81A2828AFA1CD,,,,0,2000-01-01 01:00:00,2016-04-03 02:51:08,255000/3fae9da6774034cb0fa81a2828afa1cd-d.jpg,,
5693113,"Encyclopedia Of African History And Culture, 5 Vol. Set",2,Facts on File Library of World History,,Willie F. Page,2005,Revised,Facts on File,,315,0,English,История,,0,"0816052700,9780816052707",,,,,,,,,OL11359877M,,0,0,0,,,,,T,6540686,pdf,3F1C1A93810B344CF98AB04C5731466F,,,,0,2000-01-01 01:00:00,2016-04-03 02:51:08,255000/3f1c1a93810b344cf98ab04c5731466f-d.jpg,,
5693111,"A Demon of Our Own Design: Markets, Hedge Funds, and the Perils of Financial Innovation",,,,Richard Bookstaber,2007,,Wiley,,289,0,English,Экономика,,0,"0471227277,9780471227274",,,,,,,,,OL7613690M,,0,,,,,,,T,1787475,pdf,3E714421994E18FFD07B854B5B0A1C68,,,,0,2000-01-01 01:00:00,2016-04-03 02:51:08,255000/3e714421994e18ffd07b854b5b0a1c68-d.jpg,,
5693112,"Total orgasm,Advanced techniques for increasing sexual pleasure",,,,Jack Lee Rosenberg,1973,First Edition,Random House,,218,0,English,,,0,"9780394485010,0394485017,0394731670",,,,,613.7/1,RA788 .R64,,,OL10160174M,,0,0,0,,,,,T,6592554,pdf,3F16903D6E4A59742FD3DCDC30A6F19B,,,,0,2000-01-01 01:00:00,2016-04-03 02:51:08,255000/3f16903d6e4a59742fd3dcdc30a6f19b-g.jpg,,
5693109,How to Write a BA Thesis: A Practical Guide from Your First Ideas to Your Finished Paper,,"Chicago Guides to Writing, Editing, and Publishing",,Charles Lipson,2005,,University Of Chicago Press,,409,0,English,Образование,,0,"9780226481258,0226481255,0226481263",,,,,,,,,OL9641807M,,0,,,,,,,T,4863751,pdf,3D8F53BC3BFDBFBDBAC1BC862A72B721,,,,0,2000-01-01 01:00:00,2016-04-03 02:51:08,255000/3d8f53bc3bfdbfbdbac1bc862a72b721-d.jpg,,
5693110,The Dictionary Of Modern American Philosophers,4 Volume Set,,,John R. Shook,2005,,Thoemmes Press,,2759,0,English,Общественные науки прочие//Философия,,0,"9781843710370,1843710374",,,,,191.03,B851 .D53 2005,,,OL18986607M,,0,,,,,,,T,9828761,pdf,3DB9A241C9431B4134BBF335F5B8A816,,,,0,2000-01-01 01:00:00,2016-04-03 02:51:08,255000/3db9a241c9431b4134bbf335f5b8a816-d.jpg,,
5693108,Pedagogy and the Shaping of Consciousness: Linguistic and Social Processes,,Open Linguistics Series ,,Frances Christie,1999,,Cassell,,305,0,English,Образование,ebook3000.com,0,"9780304702282,9780826478702,0826478700,0304702285",,,,,306.43,LC191 .P37 1999,,,OL685953M,,0,,,,,1,,,18027833,pdf,3D88C7AF298BC189D7A50069071BFB84,,,,0,2000-01-01 01:00:00,2016-04-03 02:51:08,255000/3d88c7af298bc189d7a50069071bfb84-d.jpg,,
5693106,Sales Management,,Express Exec ,,Patrick Forsyth,2002,,Capstone,,105,0,English,Бизнес//менеджмент,,0,"9781841121932,1841121932,1841122610",,,,,,,,,OL8917943M,,0,,,,,,,T,1181769,pdf,3D0106C40A9E002CD85CE5B39A2EFBCF,,,,0,2000-01-01 01:00:00,2016-04-03 02:51:08,255000/3d0106c40a9e002cd85ce5b39a2efbcf-d.jpg,,
5693107,How Europe Underdeveloped Africa,,,,Walter Rodney,1981,Revised,Howard University Press,,453,0,English,,,0,"9780882580968,0882580965",,,,,330.96,HC800 .R62 1981,,,OL4260599M,,0,,,,,,,T,1256400,pdf,3D3D3ED45B7DEA13AE4A5905D64D0C10,,,,0,2000-01-01 01:00:00,2016-04-03 02:51:08,255000/3d3d3ed45b7dea13ae4a5905d64d0c10-d.jpg,,
5693105,"Tax Savvy for Small Business, Sixth Edition",,,,Frederick W. Daily,2002,6th,Nolo.com,,405,0,English,Бизнес,ebook3000.com,0,"9780873378321,0873378326",,,,,343.7305/268,KF6491 .D35 2002,,,OL3560446M,,0,,,,,,,T,15106514,pdf,3CC738457C1BEDD63D66CC679CBDBBB6,,,,0,2000-01-01 01:00:00,2016-04-03 02:51:08,255000/3cc738457c1bedd63d66cc679cbdbbb6-d.jpg,,
5693103,Magic and Alchemy,,"Mysteries, Legends, and Unexplained Phenomena",,Robert Michael Place,2009,1,Chelsea House Publications,,144,0,English,Химия,,0,"0791093905,9780791093900",,,,,133.4/3,BF1621 .P58 2009,,,OL23147613M,,0,,,,1,0,,1,6954889,pdf,3C7415B6666B9BEED4A5AD04914489AA,,,,0,2000-01-01 01:00:00,2016-04-03 02:51:08,255000/3c7415b6666b9beed4a5ad04914489aa-d.jpg,,
5693104,The Video Game Theory Reader 2,,,,"Bernard Perron, Mark J. P. Wolf",2008,1,Routledge,,453,0,German,Математика//Теория игр,ebook3000.com,0,"9780415962834,0203887662",,,,,794.8,GV1469.3 .V57 2008,,,OL16991669M,,0,,,,,,,T,3437412,pdf,3C81D49789D3C91E70DA15B6279297C2,,,,0,2000-01-01 01:00:00,2016-04-03 02:51:08,255000/3c81d49789d3c91e70da15b6279297c2-d.jpg,,
5693101,"Transformation of Knowledge, Information and Data: Theory and Applications",,,,Patrick van Bommel,2004,,Information Science Publishing,,339,0,English,Компьютеры//Организация и обработка данных,,0,"9781591405276,1591405270,1591405289,1591405297",,,,,005.74,QA76.9.D3 T693 2004,,,OL3295514M,,0,,,,,,,T,4087812,pdf,3BD062C48112FBAF7961FF10AC72F30A,,,,0,2000-01-01 01:00:00,2016-04-03 02:51:08,255000/3bd062c48112fbaf7961ff10ac72f30a-d.jpg,,
5693102,"Reasoning, Meaning, and Mind",,,,Gilbert Harman,1999,,"Oxford University Press, USA",,248,0,English,,,0,"0198238029,9780198238027",,,,,128.33,,,,OL22642139M,,0,,,,,,,1,1304128,pdf,3BDCD8E5CEDC5CD4FA9B580E67F17C06,,,,0,2000-01-01 01:00:00,2016-04-03 02:51:08,255000/3bdcd8e5cedc5cd4fa9b580e67f17c06-d.jpg,,
5693100,Sex Offenders and Self-Control: Explaining Sexual Violence (Criminal Justice,,Lfb Scholarly Publishing Llc).,,Shawna Cleary,2004,,LFB Scholarly Publishing,,202,0,English,"Психология//Любовь, эротика",,0,"9781593320553,1593320558",,,,,,,,,OL9471121M,,0,,,,,,,T,1254372,pdf,3B4B1BF8CF86A7730B40D9D239364F4D,,,,0,2000-01-01 01:00:00,2016-04-03 02:51:08,255000/3b4b1bf8cf86a7730b40d9d239364f4d-d.jpg,,
5693098,Berkshire Encyclopedia Of World History: Five Volume Set,vol 1,,,"William H. McNeill, David Christian, Jerry Bentley, William H. McNeill, David Christian, Jerry H. Bentley",2005,,Berkshire Publishing Group,,490,0,English,История,,0,"9780974309101,0974309109",,,,,903,D23 .B45 2005,,,OL3297015M,,0,0,0,,,,,1,52613250,pdf,3ACEAA38D3E396B77534BC0B094B7094,,,,0,2000-01-01 01:00:00,2016-04-03 02:51:08,255000/3aceaa38d3e396b77534bc0b094b7094-d.jpg,,
5693099,"Light and Heavy Vehicle Technology, Fourth Edition",,,,M J Nunney,2006,4,Butterworth-Heinemann,,684,0,English,Техника//Транспорт,,0,"9780750680370,0750680377",,,,,629.2,,,,OL20902187M,,0,,,,,,,T,12145664,pdf,3B15F37CACBA1AB339A02E00AC029404,,,,0,2000-01-01 01:00:00,2016-04-03 02:51:08,255000/3b15f37cacba1ab339a02e00ac029404-d.jpg,,
5693096,Arthur C. Clarke's Venus Prime 1,,,,Paul Preuss,1999,,I Books,,335,0,English,,,0,"9780671038885,0671038885",,,,,,,,,OL7645208M,,0,,,,,,,T,23877400,pdf,3A984E03B843473BED4CCE146A1530A2,,,,0,2000-01-01 01:00:00,2016-04-03 02:51:08,255000/3a984e03b843473bed4cce146a1530a2-d.jpg,,
5693097,The 30-Second Storyteller: The Art and Business of Directing Commercials,,Aspiring Filmmaker's Library ,,Thomas Richter,2006,1,Course Technology PTR,,319,0,English,Бизнес,,0,"1598632264,9781598632262",,,,,,,,,OL18212155M,,0,,,,,,,T,3718442,pdf,3AC0084BB3E71220D9C211FC9EDFD28A,,,,0,2000-01-01 01:00:00,2016-04-03 02:51:08,255000/3ac0084bb3e71220d9c211fc9edfd28a-d.jpg,,
5693095,Filmfront Weimar: Representations of the First World War in German Films from the Weimar Period (1919-1933),,Film Culture in Transition  ,,Bernadette Kester,2003,1,Amsterdam University Press,,329,0,English,История,,0,"9053565973,9789053565971",,,,,791.43/658,D522.23 .K4713 2003,,,OL12808268M,,0,,,,,,,1,5686464,pdf,3A8C25099F5F2FD917394273F8639CA4,,,,0,2000-01-01 01:00:00,2016-04-03 02:51:08,255000/3a8c25099f5f2fd917394273f8639ca4-d.jpg,,
5693093,Ajax Patterns and Best Practices,,Expert's Voice,,Christian Gross,2006,1,Apress,,401,0,English,Компьютеры//Программирование//Языки программирования,,0,"9781590596166,1590596161",,,,,"006.76,005.713",QA76.73.J39 G76 2006,,,OL24744627M,,0,,,,,,,,7572976,pdf,39F479FE4DA1C57706196D7A38E92657,,,,0,2000-01-01 01:00:00,2016-04-03 02:51:08,255000/39f479fe4da1c57706196d7a38e92657-d.jpg,,
5693094,Modern Rhodium-Catalyzed Organic Reactions,,,,"P. Andrew Evans, Jiro Tsuji",2005,,Wiley-VCH,,495,0,English,Химия//Органическая химия,,0,"9783527306831,3527306838",,,,,,,,,OL18223675M,,0,,,,,,,T,5197759,pdf,3A6D609F5FD561E1E76027019E142325,,,,0,2000-01-01 01:00:00,2016-04-03 02:51:08,255000/3a6d609f5fd561e1e76027019e142325-d.jpg,,
5693092,Frontiers in Research of the Renin-Angiotensin System on Human Disease,,Proteases in Biology and Disease,,"Po Sing Leung, Po Sing Leung",2008,1,Springer,,310,0,English,Медицина//Болезни//Внутренние болезни,,0,"1402063717,9781402063718,9781402063725",,,,,,,,,OL11634450M,,0,,,,,1,,T,3280265,pdf,39C89E34488643EFBB53D9B363259221,,,,0,2000-01-01 01:00:00,2016-04-03 02:51:08,255000/39c89e34488643efbb53d9b363259221-d.jpg,,
5693090,What About Labrador Retrievers: The Joy and Realities of Living with a Lab,,What About?,,Karla Rugh DVM  PhD,2003,1,Howell Book House,,162,0,English,"Домоводство, досуг//Домашние питомцы",,0,"0764540882,9780764544644,9780764540882",,,,,,,,,OL24273701M,,0,,,,,1,,T,1305655,pdf,39891A669501C729ECDE09B9734ECACB,,,,0,2000-01-01 01:00:00,2016-04-03 02:51:08,255000/39891a669501c729ecde09b9734ecacb-d.jpg,,
5693091,The Tools of Screenwriting: A Writer's Guide to the Craft and Elements of a Screenplay,,,,"David Howard, Edward Mabley",1995,,St. Martin's Griffin,,311,0,English,,ebook3000.com,0,"9780312119089,0312119089",,,,,,,,,OL9770289M,,0,,,,,,,1,4442637,pdf,39B7EE9CCA8E23E6351F611C8FF33A2B,,,,0,2000-01-01 01:00:00,2016-04-03 02:51:08,255000/39b7ee9cca8e23e6351f611c8ff33a2b-d.jpg,,
5693089,An Introduction to World Anglicanism,,Introduction to Religion,,Bruce Kaye,2005,1,Cambridge University Press,,290,0,English,Религия,ebook3000.com,0,"0521853451,9780521853453,9780511408885,9780521618663",,,,,283,BX5005 .K39 2008,,,OL10436029M,,0,,,,,,,T,2026184,pdf,396550B699EBF86575E6B3C035BC20CD,,,,0,2000-01-01 01:00:00,2016-04-03 02:51:08,255000/396550b699ebf86575e6b3c035bc20cd-d.jpg,,
5693087,The Joy of Money: A User-friendly Guide to the Financial Maze,,,,Michelle Doughty,2006,2nd,Kogan Page Ltd,,241,0,English,Экономика,,0,"074944505X,9780749445058",,,,,,,,,OL9500669M,,0,,,,,,,1,1758473,pdf,39279B1CB1CE0DA1EA1E77214AE49101,,,,0,2000-01-01 01:00:00,2016-04-03 02:51:08,255000/39279b1cb1ce0da1ea1e77214ae49101-d.jpg,,
5693088,JOURNEYS TO THE EDGE: IN THE FOOTSTEPS OF AN ANTHROPOLOGIST,,,,Peter M. Gardner,2006,1,University of Missouri,,240,0,English,,,0,"082621634X,9780826216342,9780826265227",,,,,"305.80092,B",GN21.G37 A3 2006,,,OL3413034M,,0,,,,,1,,T,3232600,pdf,394FF14F574D4CE51FB26D94ED27544A,,,,0,2000-01-01 01:00:00,2016-04-03 02:51:08,255000/394ff14f574d4ce51fb26d94ed27544a-d.jpg,,
5693086,The Providence of God Regarding The Universe,,Vediaeval Philosophical Texts in Translation,,"William of Auvergne, Roland J. Teske",2007,,Marquette University Press,,208,0,English,Общественные науки прочие//Философия,ebook3000.com,0,"9780874622461,0874622468",,,,,231/.5,BT96.3 .W5513 2007,,,OL11121453M,,0,,,,,,,T,2587198,pdf,3908C2C009E666B4F53B388E47EBB1D8,,,,0,2000-01-01 01:00:00,2016-04-03 02:51:08,255000/3908c2c009e666b4f53b388e47ebb1d8-d.jpg,,
5693085,"The Interaction Society: Theories, Practice and Supportive Technologies",,,,Mikael Wiberg,2004,,Information Science Publishing,,381,0,English,,ebook3000.com,0,"9781591405306,1591405300,1591405319,1591405327",,,,,303.48/33,HM851 .I568 2004,,,OL3295515M,,0,,,,,,,T,12722143,pdf,387F335B25382B51F411582396C77796,,,,0,2000-01-01 01:00:00,2016-04-03 02:51:08,255000/387f335b25382b51f411582396c77796-d.jpg,,
5693083,Models and Cognition,,Bradford Books,,Jonathan A. Waskan,2006,1,The MIT Press,,341,0,English,Общественные науки прочие//Философия,,0,"0262232545,9780262232548",,,,,,,,,OL10237764M,,0,,,,,,,1,2025389,pdf,36A9E894D59AE2AACD86460BCC583BE7,,,,0,2000-01-01 01:00:00,2016-04-03 02:51:08,255000/36a9e894d59ae2aacd86460bcc583be7-d.jpg ,,
5693084,Mammalian Evolutionary Morphology: A Tribute to Frederick S. Szalay,,Vertebrate Paleobiology and Paleoanthropology,,"Eric Sargis, Marian Dagosto",2009,1st ed. 2008. 2nd printing,Springer,,451,0,English,Биология//Палеонтология,,0,"1402069960,9781402069963,9781402069970",,,,,,,,,OL17117903M,,0,0,0,,,,,T,14235160,pdf,37307BC3524E95AB341BE89123AFDFE1,,,,0,2000-01-01 01:00:00,2016-04-03 02:51:08,255000/37307bc3524e95ab341be89123afdfe1-d.jpg,,
5693081,Taoist Secrets of Love: Cultivating Male Sexual Energy,,,,"Mantak Chia, Michael Winn",1984,,Aurora Press,,328,0,English,"Психология//Любовь, эротика",,0,"9780943358192,0943358191",,,,,613.9/6,HQ36 .C43 1984,,,OL2874483M,,0,,,,,,,T,2390792,pdf,35F4281409AD52FAE7F0E9E054054A9F,,,,0,2000-01-01 01:00:00,2016-04-03 02:51:08,255000/35f4281409ad52fae7f0e9e054054a9f-d.jpg,,
5693082,Professor Trim's Ultimate Food Energy Guide,,,,"David Cameron-Smith, Garry Egger, Australia) Deakin University",2003,,Allen & Unwin,,218,0,English,Техника//Пищевые производства,ebook3000.com,0,"9781741140194,1741140196",,,,,,,,,,,0,,,,,,,T,11167260,pdf,3606A51026EC385582001BA7972F6D6D,,,,0,2000-01-01 01:00:00,2016-04-03 02:51:08,255000/3606a51026ec385582001ba7972f6d6d-d.jpg,,
5693079,Professional Event Coordination,,The Wiley Event Management Series,,Julia Rutherford Silvers,2003,1,Wiley,,497,0,English,,,0,"9780471263050,0471263052",,,,,,,,,OL18207553M,,0,,,,,,,T,4473279,pdf,35C0B448D8603D4849F7655DC41D0E5C,,,,0,2000-01-01 01:00:00,2016-04-03 02:51:08,255000/35c0b448d8603d4849f7655dc41d0e5c-d.jpg,,
5693080,Business the Richard Branson Way: 10 Secrets of  the World's Greatest Brand Builder,,Big Shots Series,,Des Dearlove,2007,3,Capstone,,192,0,English,Бизнес,,0,"1841127647,9781841127644",,,,,"338/.04092,B",HC252.5.B73 D4 2007,,,OL17844909M,,0,,,,,,,T,1592542,pdf,35DC0D1F4226B3D79EA50B1CC9F9CD22,,,,0,2000-01-01 01:00:00,2016-04-03 02:51:08,255000/35dc0d1f4226b3d79ea50b1cc9f9cd22-d.jpg,,
5693077,Beyond Hindu and Muslim: Multiple Identity in Narratives from Village India,,,,Peter Gottschalk,2000,illustrated edition,"Oxford University Press, USA",,241,0,English,Бизнес//менеджмент,,0,"9780195135145,0195135148,2199046737",,,,,305.8/00954,DS430 .G66 2000,,,OL22133175M,,0,,,,,,,T,1187873,pdf,351828A8119FAF547A4919D531F9E99D,,,,0,2000-01-01 01:00:00,2016-04-03 02:51:08,255000/351828a8119faf547a4919d531f9e99d-d.jpg,,
5693078,"Often Wrong, Never in Doubt: Unleash the Business Rebel Within",,,,"Donny Deutsch, Peter Knobler",2005,First Edition,HarperBusiness,,272,0,English,Бизнес,,0,"9780060567187,006056718X",,,,,659.1/125/068,HF5810.D48 A3 2005,,,OL3423365M,,0,,,,,,,T,2182626,pdf,353B5A16EB784B470D4A4284DE596FAD,,,,0,2000-01-01 01:00:00,2016-04-03 02:51:08,255000/353b5a16eb784b470d4a4284de596fad-d.jpg,,
5693075,Charting Made Easy,,,,John J. Murphy,2000,,"Marketplace Books, Inc.",,82,0,English,Экономика,,0,"1883272599,9781883272593",,,,,,,,,OL8685494M,,0,,,,,,,T,913841,pdf,34D1D153019D4DADB0A1602A69FF6CE3,,,,0,2000-01-01 01:00:00,2016-04-03 02:51:08,255000/34d1d153019d4dadb0a1602a69ff6ce3-d.jpg,,
5693076,"JavaScript Bible, Fifth Edition",,,,"Danny Goodman, Michael Morrison",2004,5,Wiley,,1743,0,English,Компьютеры//Программирование//Языки программирования,,0,"9780764557439,0764557432",,,,,005.13/3,QA76.73.J39 G65 2004,,,OL23086548M,,0,,,,,,,T,25325592,pdf,34D472F5DB4E80EDCA9A255DB841002C,,,,0,2000-01-01 01:00:00,2016-04-03 02:51:08,255000/34d472f5db4e80edca9a255db841002c-d.jpg,,
5693074,Predict Market Swings With Technical Analysis,,,,Michael McDonald,2002,1st,Wiley,,217,0,English,Математика//Анализ,,0,"9780471205968,0471205966",,,,,332.63/2042,HG4637 .M38 2002,,,OL3581512M,,0,,,,,,,T,1300190,pdf,34C1ECB5A43180D946538AB4A68548FB,,,,0,2000-01-01 01:00:00,2016-04-03 02:51:08,255000/34c1ecb5a43180d946538ab4a68548fb-d.jpg,,
5693072,Art in the Cinematic Imagination,,,,Susan Felleman,2006,annotated edition,University of Texas Press,,214,0,English,Искусство//Кинематография,,0,"0292709412,9780292709416",,,,,791.43/657,PN1995.9.A73 F46 2006,,,OL22721599M,,0,,,,,,,T,5476454,pdf,3342A8F70CC9BCB3A36CB966BCBB61EF,,,,0,2000-01-01 01:00:00,2016-04-03 02:51:08,255000/3342a8f70cc9bcb3a36cb966bcbb61ef-d.jpg,,
5693073,Car Hacks & Mods For Dummies,,,,David Vespremi,2004,,For Dummies,,387,0,English,Образование,ebook3000.com,0,"9780764571428,0764571427",,,,,629.2872,TL255.2 .V37 2004,,,OL3314256M,,0,,,,,,,T,11590986,pdf,33BCDC610666B950D91881444CD824FC,,,,0,2000-01-01 01:00:00,2016-04-03 02:51:08,255000/33bcdc610666b950d91881444cd824fc-d.jpg,,
5693070,The Cambridge Companion to German Idealism,,Cambridge Companions to Philosophy ,,Karl Ameriks,2000,,Cambridge University Press,,312,0,English,,,0,"9780521651783,0521651786",,,,,193,B2745 .C36 2000,,,OL22351380M,,0,,,,,,,T,2148737,pdf,32EB9841536A86FA67A62B7CA49F5BFC,,,,0,2000-01-01 01:00:00,2016-04-03 02:51:08,255000/32eb9841536a86fa67a62b7ca49f5bfc-d.jpg,,
5693071,"The Criminal Law Handbook: Know Your Rights, Survive the System",,Criminal Law Handbook,,"Paul Bergman, Sara J. Berman-Barrett",2003,5th,Nolo.com,,651,0,English,Юридические науки//Право,,0,"9780873379281,0873379284",,,,,345.73/05,KF9619.6 .B47 2003,,,OL3566531M,,0,,,,,,,T,6266672,pdf,333BDAEAD47EC1C44FA16FC2A1A5CC18,,,,0,2000-01-01 01:00:00,2016-04-03 02:51:08,255000/333bdaead47ec1c44fa16fc2a1a5cc18-d.jpg,,
5693068,Finance: A Fine Art,,,,Michel Fleuriet,2003,,Wiley,,299,0,English,Экономика,,0,"9780470847671,0470847670",,,,,330,HG4521 .F61424 2003,,,OL3703339M,,0,,,,,,,T,1085578,pdf,32856C81B11601889FB94075FA03C8E1,,,,0,2000-01-01 01:00:00,2016-04-03 02:51:08,255000/32856c81b11601889fb94075fa03c8e1-d.jpg,,
5693069,The Guru Guide to Marketing: A Concise Guide to the Best Ideas from Today's Top Marketers,,,,"Joseph H. Boyett, Jimmie T. Boyett",2002,,Wiley,,267,0,English,,,0,0471213772,,,,,,,,,,,0,,,,,,,T,1658172,pdf,328D715A0FBE046B9208E3B43DA6C0D0,,,,0,2000-01-01 01:00:00,2016-04-03 02:51:08,255000/328d715a0fbe046b9208e3b43da6c0d0-d.jpg,,
5693067,The Supersymmetric World: The Beginnings of the Theory,,,,"Gordon L. Kane, Mikhail A. Shifman",2001,1st American,World Scientific Publishing Company,,289,0,English,Математика//Симметрия и группы,,0,"9810245394,9789810245399,981024522X,9789810245221,9789812385505",,,,,,,,,OL9195312M,,0,,,,,1,,T,14088222,pdf,326C69AB49BE01F65136AF91D8A01C91,,,,0,2000-01-01 01:00:00,2016-04-03 02:51:08,255000/326c69ab49be01f65136af91d8a01c91-d.jpg,,
5693066,The Superstock Investor: Profiting from Wall Street's Best Undervalued Companies,,,,"Charles M. Laloggia, Cherrie A. Mahon",2001,1st,McGraw-Hill Trade,,314,0,English,Экономика,,0,"0071360832,9780071360838,9780071381161",,,,,,,,,OL9964056M,,0,,,,,1,,T,2415512,pdf,3195A35C4BD7EB1B01463B30243B663A,,,,0,2000-01-01 01:00:00,2016-04-03 02:51:08,255000/3195a35c4bd7eb1b01463b30243b663a-d.jpg,,
5693064,The Asymmetrical Brain,,Bradford Books,,"Kenneth Hugdahl, Richard J. Davidson",2002,illustrated edition,The MIT Press,,800,0,English,,,0,"9780262083096,0262083094",,,,,612.8/2,QP385.5 .B725 2003,,,OL19060040M,,0,,,,,,,T,28408036,pdf,31721B40496CB3A137543210D1DFB245,,,,0,2000-01-01 01:00:00,2016-04-03 02:51:08,255000/31721b40496cb3a137543210d1dfb245-d.jpg,,
5693065,Beyond Flesh: Queer Masculinities and Nationalism in Israeli Cinema,,,,Raz Yosef,2004,,Rutgers University Press,,218,0,English,Искусство//Кинематография,,0,"9780813533759,0813533759",,,,,791.43/653,PN1993.5.I86 Y67 2004,,,OL3674635M,,0,,,,,,,T,5080560,pdf,3193DF452E12358E6368237CEC975EC3,,,,0,2000-01-01 01:00:00,2016-04-03 02:51:08,255000/3193df452e12358e6368237cec975ec3-d.jpg,,
5693063,Religious Warfare in Europe 1400-1536,,,,Norman Housley,2002,,"Oxford University Press, USA",,248,0,English,Религия,,0,"9780198208112,0198208111",,,,,940.2/1,D203 .H68 2002,,,OL3702536M,,0,,,,,,,T,1253032,pdf,313AB78D42A9F437DD7F3CD5BA49DE01,,,,0,2000-01-01 01:00:00,2016-04-03 02:51:08,255000/313ab78d42a9f437dd7f3cd5ba49de01-d.jpg,,
5693061,A Manual for Biochemistry Protocols,,Manuals in Biomedical Research,,Markus R. Wenk; Aaron Z. Fernandis,2007,1st,World Scientific Publishing Company,,142,0,English,Химия,,0,"9789812700667,9812700668",,,,,,,,,OL9198022M,,0,,,,,,,T,1567046,pdf,30BEB1C026AE3D505E4A8C0C3FF04EEC,,,,0,2000-01-01 01:00:00,2016-04-03 02:51:08,255000/30beb1c026ae3d505e4a8c0c3ff04eec-d.jpg,,
5693062,An Atlas of Surgical Approaches to the Bones and Joints of the Dog and Cat,,,,"Donald Piermattei, Kenneth A. Johnson",2004,4,Saunders,,328,0,English,Биология,duansci.com,0,"9780721687070,0721687075",,,,,,,,,OL7863487M,,0,,,,,,,,53269024,pdf,30D365D499478A86E39CD47698850344,,,,0,2000-01-01 01:00:00,2016-04-03 02:51:08,255000/30d365d499478a86e39cd47698850344-d.jpg,,
5693059,The Quiet Hours: City Photographs,,,,Mike Melman,2003,,University of Minnesota Press,,94,0,English,Искусство//Фотография,,0,"9780816643288,0816643288,2003109876543",,,,,,,,,OL8070772M,,0,,,,,,,T,9533050,pdf,30923745648CAFFF82F5D95F769E6723,,,,0,2000-01-01 01:00:00,2016-04-03 02:51:08,255000/30923745648cafff82f5d95f769e6723-d.jpg,,
5693060,Stock Market Wizards: Interviews with America's Top Stock Traders,,,,Jack D. Schwager,2001,1st,HarperBusiness,,235,0,English,Экономика,,0,"9780066620589,0066620589",,,,,,,,,OL17018098M,,0,,,,,,,,1305596,pdf,30AB106944889114841BA52B0A1A4A44,,,,0,2000-01-01 01:00:00,2016-04-03 02:51:08,255000/30ab106944889114841ba52b0a1a4a44-d.jpg,,
5693057,Encyclopedia of Primary Education,,,,Denis Hayes,2010,,David Fulton Publishers,,486,0,English,Образование,ebook3000.com,0,"0415485177,0415485185,9780415485173,9780415485180,9780203864609",,,,,372/.941,LB1556.7.G7 H39 2009,,,OL23554005M,,0,,,,,,,T,4260582,pdf,2FE37F1F419A4BB33767C9980AC79A3F,,,,0,2000-01-01 01:00:00,2016-04-03 02:51:08,255000/2fe37f1f419a4bb33767c9980ac79a3f-d.jpg,,
5693058,Werewolf Lodges 2 The Splintered,,Werewolf the Forsaken,,"Chuck Wendig, Aaron Dembski-Bowden",2006,,White Wolf Publishing,,144,0,English,,,0,"9781588463371,1588463370",,,,,,,,,OL8829492M,,0,,,,,,,,11721526,pdf,300EC12AB16F82ABE45C9F1952AB9689,,,,0,2000-01-01 01:00:00,2016-04-03 02:51:08,255000/300ec12ab16f82abe45c9f1952ab9689-d.jpg,,
5693056,Dragon Bone Hill: An Ice-Age Saga of Homo erectus,,,,"Noel Thomas Boaz, Russell L. Ciochon",2004,,"Oxford University Press, USA",,254,0,English,Биология//Палеонтология,,0,"9780195152913,0195152913",,,569.9,,,,,,OL7390115M,,0,0,0,,,,,T,7615234,pdf,2F8A0D0128B27675D470CDA49BA20C58,,,,0,2000-01-01 01:00:00,2016-04-03 02:51:08,255000/2f8a0d0128b27675d470cda49ba20c58-d.jpg,,
5693054,Adventure Guide Turkey,,Adventure Guides Series,,Samantha Lafferty,2008,1,Hunter,,645,0,English,,ebook3000.com,0,"1588436462,9781588436467",,,,,915.6410/39,DR416 .L244 2008,,,OL12326098M,,0,,,,,,,T,25559379,pdf,2EDA14B0497D3BB8A54579A95A0F3711,,,,0,2000-01-01 01:00:00,2016-04-03 02:51:08,255000/2eda14b0497d3bb8a54579a95a0f3711-d.jpg,,
5693055,UNIX. Практическое пособие администратора,,,,Филипп Торчинский,2005,,Символ-Плюс,,398,0,Russian,Компьютеры//Системное администрирование,,0,5-93286-084-7,,,,,,,,,,,0,,,,,,,,4085205,pdf,2F631BD4F74354BA9604665B695F70AC,,,,0,2000-01-01 01:00:00,2016-04-03 02:51:08,255000/2f631bd4f74354ba9604665b695f70ac-g.jpg,,
5693053,The Stock Trader: How I Make a Living Trading Stocks,,,,Tony Oz,2000,,Goldman Brown Business Media,,146,0,English,Бизнес//Трейдинг,,0,"9780967943503,0967943507",,,,,,,,,OL8558158M,,0,,,,,,,,2820177,pdf,2ED08D39CC778190B0F792952D3529AD,,,,0,2000-01-01 01:00:00,2016-04-03 02:51:08,255000/2ed08d39cc778190b0f792952d3529ad-d.jpg,,
5693051,Collagen: Structure and Mechanics,,,,"Peter Fratzl, Peter Fratzl",2008,1,Springer,,516,0,English,Физика,,0,"9780387739069,9780387739052",,,,,,,,,,,0,,,,,,,1,28630073,pdf,2EB1B8A3D4D1165828D9A61C27EE59E9,,,,0,2000-01-01 01:00:00,2016-04-03 02:51:08,255000/2eb1b8a3d4d1165828d9a61c27ee59e9-d.jpg,,
5693052,The Concept of Model: An Introduction to the Materialist Epistemology of Mathematics,,Transmission ,,"Alain Badiou, Zachary, Luke Fraser, Tzuchien Tho",2007,,re.press,,183,0,French,Математика,,0,"0980305233,9780980305234",,,,,510,QA9.7 .B3413 2007,,,OL11842369M,,0,,,,,1,,T,2073730,pdf,2ECAC21D80412B912A91726B5CF48B09,,,,0,2000-01-01 01:00:00,2016-04-03 02:51:08,255000/2ecac21d80412b912a91726b5cf48b09-d.jpg,,
5693050,CEH: Official Certified Ethical Hacker Review Guide: Exam 312-50,,,,Kimberly Graves,2007,,Sybex,,265,0,English,Компьютеры//Безопасность,ebook3000.com,0,"0782144373,9780782144376",,,,,005.8,QA76.3 .G69 2007,,,OL17931366M,,0,,,,,,,T,13108753,pdf,2E930A59BA670657A189BA9F742808B5,,,,0,2000-01-01 01:00:00,2016-04-03 02:51:08,255000/2e930a59ba670657a189ba9f742808b5-d.jpg,,
5693048,The Gale Encyclopedia of Surgery: A Guide for Patients and Caregivers,2,,,Anthony J. Senagore,2003,1,Gacl,,535,0,English,"Медицина//Хирургия, Ортопедия",,0,"9780787677213,0787677213",,,,,617/.91/003,RD17 .G34 2004,,,OL24071585M,,0,0,0,,,,,,10850038,pdf,2E1F69CE78546E39E30AAC09E7B34D49,,,,0,2000-01-01 01:00:00,2016-04-03 02:51:08,255000/2e1f69ce78546e39e30aac09e7b34d49-d.jpg,,
5693049,Quantitative Paleozoology,,Cambridge Manuals in Archaeology,,R. Lee Lyman,2008,1,Cambridge University Press,,374,0,English,Биология//Зоология,,0,"9780521715362,0521715369,0521887496,9780521887496,9780511388460",,,,,,,,,OL10437150M,,0,0,0,,,1,,T,7038957,pdf,2E54825296EEC03BF5CD725D2C103BB8,,,0521887496.Cambridge.University.Press.Quantitative.Paleozoology.Apr.2008.pdf,0,2000-01-01 01:00:00,2016-04-03 02:51:08,255000/2e54825296eec03bf5cd725d2c103bb8-d.jpg,,
5693047,Vehicle Propulsion Systems: Introduction to Modeling and Optimization,,,,"Lino Guzzella, Antonio Sciarretta",2007,2nd,Springer,,348,0,English,Техника//Транспорт,,0,"3540746919,9783540746911,9783540251958",,,,,629.253015118,TL210 .G89 2007,,,OL16678298M,,0,,,,,,,,7316805,pdf,2E0ACA3B993E2FCE3409D60F632F2A46,,,,0,2000-01-01 01:00:00,2016-04-03 02:51:08,255000/2e0aca3b993e2fce3409d60f632f2a46-d.jpg,,
5693044,Fashion Classics from Carlyle to Barthes,,"Dress, Body, Culture",,Michael Carter,2003,,Berg Publishers,,193,0,French,Экономика,,0,"9781859736012,1859736017,1859736068",,,,,391,GT521 .C37 2003,,,OL22523012M,,0,,,,,,,T,821891,pdf,2D71861B0723D9CED4B00DED58861C0C,,,,0,2000-01-01 01:00:00,2016-04-03 02:51:08,255000/2d71861b0723d9ced4b00ded58861c0c-d.jpg,,
5693045,Medicinal Plants of Asia and the Pacific,,,,Christophe Wiart,2006,1,CRC Press,,296,0,English,Биология//Растения//Ботаника,,0,"0849372453,9780849372452",,,,,615/.321,RS179 .W53 2006,,,OL3419677M,,0,,,,,,,,16598871,pdf,2DC494C983FE6DEA879C26D676FCFE68,,,,0,2000-01-01 01:00:00,2016-04-03 02:51:08,255000/2dc494c983fe6dea879c26d676fcfe68-d.jpg,,
5693046,Breakthrough Business Negotiation: A Toolbox for Managers,,,,Michael Watkins,2002,1,Jossey-Bass,,305,0,English,Бизнес,,0,"0787960128,9780787960124,9780787965235",,,,,,,,,OL24254094M,,0,,,,,1,,T,2008914,pdf,2DDB2CDE7467429E58E8EEBBF8E6600C,,,,0,2000-01-01 01:00:00,2016-04-03 02:51:08,255000/2ddb2cde7467429e58e8eebbf8e6600c-d.jpg,,
5693043,Calvin,,Library of Christian Classics,,J. K. S. Reid,1954,,Westminster John Knox Press,,353,0,English,,,0,"0664223672,9780664223670",,,,,,,,,OL7628110M,,0,,,,,1,,T,13543436,pdf,2D6BBCB849D7B005C661341D82A533DE,,,,0,2000-01-01 01:00:00,2016-04-03 02:51:08,255000/2d6bbcb849d7b005c661341d82a533de-d.jpg,,
5693042,"An Introduction to Craniosacral Therapy: Anatomy, Function, and Treatment",,,,"Don Cohen, John Upledger",1996,1,North Atlantic Books,,124,0,English,Медицина//Терапия,ebook3000.com,0,"155643183X,9781556431838",,,,,615.8/2,RZ399.C73 C64 1995,,,OL811291M,,0,,,,,0,,T,3727003,pdf,2CEEDC320BD8CD8787CA2A5190A63F2C,,,,0,2000-01-01 01:00:00,2016-04-03 02:51:08,255000/2ceedc320bd8cd8787ca2a5190a63f2c-d.jpg,,
5693040,"Encyclopedia Of African History And Culture, 5 Vol. Set",1,,,"Willie F. Page, R. Hunt Davis",2005,Revised,Facts on File,,333,0,English,История,,0,"9780816051991,0816051992",,,,,,,,,OL11359848M,,0,0,0,,,,,T,6982910,pdf,2AF1DB61BD0CE05FB96F612426A161D5,,,,0,2000-01-01 01:00:00,2016-04-03 02:51:08,255000/2af1db61bd0ce05fb96f612426a161d5-d.jpg,,
5693041,Legacy of Ashes: The History of the CIA,,,,Tim Weiner,2007,1St Edition,Doubleday,,732,0,English,История,,0,"038551445X,9780385514453",,,,,327.1273009,JK468.I6 W44 2007,,,OL17848694M,,0,,,,,,,1,10450013,pdf,2B6AA2A6B7002C129F9125EAE79B7AA5,,,,0,2000-01-01 01:00:00,2016-04-03 02:51:08,255000/2b6aa2a6b7002c129f9125eae79b7aa5-d.jpg,,
5693038,Technically-Write!,,,,"Ronald S. Blicq, Lisa Moretto",2003,6,Prentice Hall,,428,0,English,,ebook3000.com,0,"0131148788,9780131148789",,,,,808/.0666,T11 .B62 2004,,,OL3321418M,,0,,,,,1,,T,3118099,pdf,2A32EFCE87FDBDA09CDCF9EABA3F5E3B,,,,0,2000-01-01 01:00:00,2016-04-03 02:51:08,255000/2a32efce87fdbda09cdcf9eaba3f5e3b-d.jpg,,
5693039,Loopholes of the Rich: How the Rich Legally Make More Money and Pay Less Tax,,,,Diane Kennedy,2004,Revised,Wiley,,332,0,English,Экономика,,0,"9780471711780,0471711780",,,,,658.15/3,HJ4653.C7 K46 2005,,,OL23050917M,,0,,,,,,,T,2936391,pdf,2AC08A06911D441E0081C5651FCAE04C,,,,0,2000-01-01 01:00:00,2016-04-03 02:51:08,255000/2ac08a06911d441e0081c5651fcae04c-d.jpg,,
5693037,The Influence of Genetics on Contemporary Thinking,,"Logic, Epistemology, and the Unity of Science ",,"Anne Fagot-Largeault, Shahid Rahman, Juan Manuel Torres",2007,1 English and French Edition,Springer,,269,0,English,Биология//Генетика,,0,"140205663X,9781402056635,9781402056642",,,,,576.5,QH438.7 .I54 2007,,,OL11634235M,,0,,,,,,,T,2629531,pdf,2A1796B7AD895B0405A2DFC2551E2A22,,,,0,2000-01-01 01:00:00,2016-04-03 02:51:08,255000/2a1796b7ad895b0405a2dfc2551e2a22-d.jpg,,
5693036,Who Owns Culture?: Appropriation and Authenticity in American Law,,Rutgers Series on the Public Life of the Arts,,Susan Scafidi,2005,,Rutgers University Press,,222,0,English,Юридические науки//Право,ebook3000.com,0,"9780813536057,0813536057,0813536065",,,,,,,,,OL23240958M,,0,,,,,,,T,1441737,pdf,2A0F8303D4CB43F609BF0C26CCE167AA,,,,0,2000-01-01 01:00:00,2016-04-03 02:51:08,255000/2a0f8303d4cb43f609bf0c26cce167aa-d.jpg,,
5693034,Practicing Organization Development: A Guide for Consultants (J-B O-D)(Organizational Development)),,J-B O-D Organizational Development ,,"William J.  Rothwell, Roland  Sullivan",2005,2,Pfeiffer,,753,0,English,,,0,"9780787962388,9780787978501,0787962384",,,,,658.4/063,HD58.8 .P7 2005,,,OL23033012M,,0,,,,,1,,T,7092156,pdf,29868967A2A74B622FEFA66315F74F0D,,,,0,2000-01-01 01:00:00,2016-04-03 02:51:08,255000/29868967a2a74b622fefa66315f74f0d-d.jpg,,
5693035,Reasoning: Studies of Human Inference and its Foundations,,,,"Jonathan E. Adler, Lance J. Rips",2008,1,Cambridge University Press,,1073,0,English,,,0,"0521848156,9780521848152,9780511457357",,,,,160,BC177 .R4344 2008,,,OL16939581M,,0,,,,,1,,T,6869165,pdf,29BD199CAB4F5ED7E97BB2CD45B19957,,,,0,2000-01-01 01:00:00,2016-04-03 02:51:08,255000/29bd199cab4f5ed7e97bb2cd45b19957-d.jpg,,
5693033,Who Owns Native Culture?,,,,Michael F. Brown,2003,,Harvard University Press,,332,0,English,,ebook3000.com,0,"9780674011717,0674011716",,,,,,,,,OL7670974M,,0,,,,,,,T,1734579,pdf,28F1B781BA9A3E87BF78068101A1A141,,,,0,2000-01-01 01:00:00,2016-04-03 02:51:08,255000/28f1b781ba9a3e87bf78068101a1a141-d.jpg,,
5693031,.NET e-Business Architecture,,,,et al David Burgett,2001,,Sams,,664,0,English,Бизнес,,0,"9780672322198,0672322196",,,,,,,,,OL7668375M,,0,,,,,,,T,12485688,pdf,2879474FF0806C8D3A38A5A9559485D1,,,,0,2000-01-01 01:00:00,2016-04-03 02:51:08,255000/2879474ff0806c8d3a38a5a9559485d1-d.jpg,,
5693032,Dictionary of Microbiology & Molecular Biology,,,,"Paul Singleton, Diana Sainsbury",2006,3,Wiley,,904,0,English,Языкознание//Словари,,0,"9780470035450,0470035455",,,,,,,,,OL7594959M,,0,,,,,,,,10826006,pdf,28927958A59999524C2ADE052F2FFE62,,,,0,2000-01-01 01:00:00,2016-04-03 02:51:08,255000/28927958a59999524c2ade052f2ffe62-d.jpg,,
5693030,"The Infinite Book: A Short Guide to the Boundless, Timeless and Endless",,,,John D. Barrow,2005,,Pantheon,,343,0,English,Математика//Теория чисел,,0,"0375422277,9780375422270",,,,,,,,,OL7425531M,,600,,,,0,1,,1,4285012,djvu,27F563553F6208CE0C4AE377F242FDE9,,,,0,2000-01-01 01:00:00,2016-04-03 02:51:08,255000/27f563553f6208ce0c4ae377f242fde9-d.jpg,,
5693028,Relations and Functions Within and Around Language,,Open Linguistics ,,"David Lockwood, William Spruiell, Peter Fries, Michael Cummings",2005,,Continuum,,410,0,English,Языкознание,ebook3000.com,0,"0826478751,9780826478757",,,,,,,,,OL9780166M,,0,,,,,1,,T,19455582,pdf,276CB0DA9026BD2C737359C003A9EEC3,,,,0,2000-01-01 01:00:00,2016-04-03 02:51:08,255000/276cb0da9026bd2c737359c003a9eec3-d.jpg,,
5693029,How to Become a Rainmaker: The Rules For Getting and Keeping Customers and Clients,,,,Jeffrey J. Fox,2000,,Hyperion,,11,0,English,Образование,,0,"9780786865956,0786865954",,,,,,,,,OL18196619M,,0,,,,,,,,97890,pdf,278650C3EA600558EEC2B09389BFE463,,,,0,2000-01-01 01:00:00,2016-04-03 02:51:08,255000/278650c3ea600558eec2b09389bfe463-d.jpg,,
5693027,Take Control of Your AirPort Network (Vol 1),,,,"Glenn Fleishman, Adam Engst",2004,,Peachpit Press,,155,0,English,Компьютеры//Сети,ebook3000.com,0,"9780321321169,0321321162",,,,,621.382,TK5103.2 .F53 2005,,,OL24739042M,,0,,,,,,,T,13969387,pdf,274E3041CD9A89DE1EF6801EF9339128,,,,0,2000-01-01 01:00:00,2016-04-03 02:51:08,255000/274e3041cd9a89de1ef6801ef9339128-d.jpg,,
5693025,Enzyme Structure,"Volume 117, Part J",Methods in Enzymology,,"Nathan P. Colowick, Nathan P. Kaplan, C. H.W. Hirs, Serge N. Timasheff",1985,,Academic Press,,572,0,English,Биология//Биохимия//Ферментология,duansci.com,0,"9780121820176,0121820173",,,,,,,,,OL9773249M,,0,0,0,,,,,,38796594,pdf,2642152EB62C7511F5FCDABD31A7659C,,,,0,2000-01-01 01:00:00,2016-04-03 02:51:08,255000/2642152eb62c7511f5fcdabd31a7659c-d.jpg,,
5693026,Vision and Mind: Selected Readings in the Philosophy of Perception,,,,"Alva Noe, Evan T. Thompson",2002,1,The MIT Press,,638,0,English,Общественные науки прочие//Философия,,0,"9780262640473,0262640473,0262140780,9780262140782,9780585445755",,,,,121/.34,B828.45 .V565 2002,,,OL3560158M,,0,,,,,1,,T,4809052,pdf,2666D4808F11CA1621B55A357F5C82B8,,,,0,2000-01-01 01:00:00,2016-04-03 02:51:08,255000/2666d4808f11ca1621b55a357f5c82b8-d.jpg,,
5693024,The Infinite Sea,,"Chaos Chronicles/Jeffrey a. Carver, Vol 3",,Jeffrey A. Carver,1996,1st,Tor Books,,387,0,English,"Физика//Механика//Нелинейная динамика, хаос",ebook3000.com,0,"9780312856090,9780812535174,0312856091,0812535170",,,,,813/.54,PS3553.A7892 I54 1996,,,OL9403296M,,0,,,,,1,,T,1159156,pdf,2612567DB0D753349A52EA071DE6BCA4,,,,0,2000-01-01 01:00:00,2016-04-03 02:51:08,255000/2612567db0d753349a52ea071de6bca4-d.jpg,,
5693022,The Marketing Power of Emotion,,,,"John O'Shaughnessy, Nicholas Jackson O'Shaughnessy",2002,,"Oxford University Press, USA",,283,0,English,,,0,"9780195150568,0195150562",,,,,658.8/342,HF5415.32 .O743 2003,,,OL3569280M,,0,,,,,,,T,11496233,pdf,25ACD547C85BF2FCD15451900CB5E9B2,,,,0,2000-01-01 01:00:00,2016-04-03 02:51:08,255000/25acd547c85bf2fcd15451900cb5e9b2-d.jpg,,
5693023,Power Speaking: The Art of the Exceptional Public Speaker,,,,Achim Nowak,2004,,Allworth Press,,225,0,English,,,0,"9781581153613,1581153619",,,,,,,,,OL8782529M,,0,,,,,,,T,1309212,pdf,25C75F5969570DC0A45DCBE200843C59,,,,0,2000-01-01 01:00:00,2016-04-03 02:51:08,255000/25c75f5969570dc0a45dcbe200843c59-d.jpg,,
5693020,"Trading in the Zone: Master the Market with Confidence, Discipline and a Winning Attitude",,,,Mark Douglas,2000,,Prentice Hall Press,,143,0,English,Бизнес//Трейдинг,,0,"0735201447,9780735201446",,,,,332.64,HG6041 .D59 2000,,,OL18321146M,,0,,,,,1,,T,750151,pdf,24AEE76794ADCB14816A2A91FEC2973B,,,,0,2000-01-01 01:00:00,2016-04-03 02:51:08,255000/24aee76794adcb14816a2a91fec2973b-d.jpg,,
5693021,Handbook of Medical Imaging: Processing and Analysis Management,,Biomedical Engineering,,Isaac Bankman,2000,1st,Academic Press,,911,0,English,,,0,"9780120777907,0120777908",,,,,,,,,OL7325564M,,0,,,,,,,T,22172483,pdf,252C75F431C6CF64BABEE57A3025AEBB,,,,0,2000-01-01 01:00:00,2016-04-03 02:51:08,255000/252c75f431c6cf64babee57a3025aebb-d.jpg,,
5693019,Who Cooked the Last Supper: The Women's History of the World,,,,Rosalind Miles,2001,1,Three Rivers Press,,355,0,English,История,,0,"0609806955,9780609806951",,,,,,,,,OL7586339M,,0,,,,,,,T,5605154,pdf,24AD9AA04C76A080AE5386FE655E35D1,,,,0,2000-01-01 01:00:00,2016-04-03 02:51:08,255000/24ad9aa04c76a080ae5386fe655e35d1-d.jpg,,
5693017,Hillbilly: A Cultural History of an American Icon,,,,Anthony Harkins,2003,First Edition,"Oxford University Press, USA",,337,0,English,История,,0,"019514631X,9780195146318,9780195180688",,,,,975/.00943,E184.M83 H37 2004,,,OL3682967M,,0,,,,,1,,T,7157345,pdf,241E3F5064264FC37EF1C72AC6F22CA5,,,,0,2000-01-01 01:00:00,2016-04-03 02:51:08,255000/241e3f5064264fc37ef1c72ac6f22ca5-d.jpg,,
5693018,Water Colours of Hitler: Recovered Art Works,,,,"Enzo Colotti, Riccardo Mariani",2005,,Fratelli Alinari,,56,0,English,Техника//Водоочистка,ebook3000.com,0,"9788872920541,887292054X",,,,,,,,,,,0,,,,,,,,20592821,pdf,243F738B5635CA9BD1AED6A8FAC2071B,,,,0,2000-01-01 01:00:00,2016-04-03 02:51:08,255000/243f738b5635ca9bd1aed6a8fac2071b-d.jpg,,
5693016,Brigands of Mirkwood,,Middle Earth Role Playing/MERP 8090,,"Charles Crutchfield, Peter C. Fenlon, Angus McBride",1986,,Iron Crown Enterprises,,40,0,English,,,0,"9780915795857,091579585X",,,,,,,,,OL8335906M,,0,,,,,,,,8760328,pdf,23D7C61CF613901DBEE63D038FAD3C94,,,,0,2000-01-01 01:00:00,2016-04-03 02:51:08,255000/23d7c61cf613901dbee63d038fad3c94-d.jpg,,
5693014,"How to Make Money With Real Estate Options: Low-Cost, Low-Risk, High-Profit Strategies for Controlling Undervalued Property....Without the Burdens of Ownership!",,,,Thomas Lucier,2005,1,Wiley,,260,0,English,Образование,,0,"9780471692768,047169276X",,,,,,,,,OL7620167M,,0,,,,,,,T,2529825,pdf,234A9082CA97E83A069338736A1531C4,,,,0,2000-01-01 01:00:00,2016-04-03 02:51:08,255000/234a9082ca97e83a069338736a1531c4-d.jpg,,
5693015,"The Changing Face of Christianity: Africa, the West, and the World",,,,"Lamin Sanneh, Joel A. Carpenter",2005,,"Oxford University Press, USA",,251,0,English,,ebook3000.com,0,"9780195177275,9780195177282,0195177274,0195177282",,,,,270.8/3,BR481 .C47 2005,,,OL17929951M,,0,,,,,,,T,1581270,pdf,23AB29850D1A439501B359336A301EC2,,,,0,2000-01-01 01:00:00,2016-04-03 02:51:08,255000/23ab29850d1a439501b359336a301ec2-d.jpg,,
5693013,Who's Who in Classical Mythology,,,,Adrian Room,2003,,Gramercy,,355,0,English,Языкознание//Словари,,0,"0517222566,9780517222560",,,,,,,,,OL7681619M,,0,,,,,,,1,8026692,pdf,230B0932653B6A0E7581932EF35A2484,,,,0,2000-01-01 01:00:00,2016-04-03 02:51:08,255000/230b0932653b6a0e7581932ef35a2484-d.jpg,,
5693011,False Prophets: The Gurus Who Created Modern Management and Why Their Ideas Are Bad for Business Today,,,,James Hoopes,2003,1,Basic Books,,353,0,English,Бизнес//менеджмент,,0,"9780738207988,0738207985",,,,,,,,,OL7899636M,,0,,,,,,,T,18785489,pdf,22615A8B073978A42619668BC048628D,,,,0,2000-01-01 01:00:00,2016-04-03 02:51:08,255000/22615a8b073978a42619668bc048628d-d.jpg,,
5693012,DNA Methylation: Approaches and Applications,,,,Manel Esteller,2004,1,CRC Press,,217,0,English,Биология//Генетика,,0,"9780849320507,084932050X",,,,,,,,,OL18218611M,,0,,,,,,,1,5933128,pdf,22D5769544D2CBCDD97D04DA0E1D8482,,,,0,2000-01-01 01:00:00,2016-04-03 02:51:08,255000/22d5769544d2cbcdd97d04da0e1d8482-d.jpg,,
5693010,iPhone User Interface Design Projects,,,,"Joachim Bondo, David Barnard, Eddie Wilson, Keith Peters, Craig Kemper, Dan Burcaw, Tim Novikoff, Chris Parrish, Jurgen Siebert",2009,1,Apress,,274,0,English,Компьютеры//Операционные системы,,0,"1430223596,9781430223597",,,,,,,,,,,0,,,,,1,,T,37613765,pdf,21B71D7B62AF0EBE67F3D49FE9385EBB,,,,0,2000-01-01 01:00:00,2016-04-03 02:51:08,255000/21b71d7b62af0ebe67f3d49fe9385ebb-d.jpg,,
5693008,Java in 60 Minutes A Day,,,,R. F. Raposa,2003,1st,Wiley,,789,0,English,Компьютеры//Программирование//Языки программирования,ebook3000.com,0,"9780471423140,0471423149",,,,,,,,,OL7617061M,,0,,,,,,,T,9753697,pdf,21221C9ABEA835F2659B8DD4FE4B2742,,,,0,2000-01-01 01:00:00,2016-04-03 02:51:08,255000/21221c9abea835f2659b8dd4fe4b2742-d.jpg,,
5693009,The Evolution of Macroeconomic Theory and Policy,,,,Kamran Dadkhah,2009,1,Springer,,282,0,English,Экономика,ebook3000.com,0,"3540770070,9783540770077,9783540770084",,,,,,,,,,,0,,,,,,,T,7265719,pdf,21B42541A0241CD18B6D198C69B51F20,,,,0,2000-01-01 01:00:00,2016-04-03 02:51:08,255000/21b42541a0241cd18b6d198c69b51f20-d.jpg,,
5693007,How to Write a Business Plan,,,,Mike P. McKeever,1999,5th,Nolo.com,,308,0,English,Образование,,0,"9780873375443,0873375440",,,,,,,,,OL9624646M,,0,,,,,,,,10715180,pdf,2117748C1F6AD47231E67B7E87821D36,,,,0,2000-01-01 01:00:00,2016-04-03 02:51:08,255000/2117748c1f6ad47231e67b7e87821d36-d.jpg,,
5693005,Amblyopia: A Multidisciplinary Approach,,,,"Merrick Moseley BSc  PhD, Alistair Fielder FRCP  FRCS  FRCOphth",2002,1,Butterworth-Heinemann,,160,0,English,,ebook3000.com,0,"9780750646918,0750646918",,,,,617.762,RE92 .A42 2002,,,OL22464968M,,0,,,,,,,,9347144,pdf,206D1392DB6B49DE50F145E23163B80F,,,,0,2000-01-01 01:00:00,2016-04-03 02:51:08,255000/206d1392db6b49de50f145e23163b80f-d.jpg,,
5693006,Blues,,American Popular Music,,"Dick Weissman, Craig Morrison",2005,,Facts on File,,338,0,English,,,0,"9780816053100,0816053103",,,,,781.643/0973/03,ML102.B6 W45 2006,,,OL3299524M,,0,,,,,,,T,5801820,pdf,20B687AA1C9394214DAC6C81BF89C146,,,,0,2000-01-01 01:00:00,2016-04-03 02:51:08,255000/20b687aa1c9394214dac6c81bf89c146-d.jpg,,
5693004,Universe or Multiverse?,,,,Bernard Carr,2007,1,Cambridge University Press,,519,0,English,Физика//Астрономия//Астрофизика,,0,"0521848415,9780521848411",,,,,523.12,QB985 .U549 2007,,,OL22754185M,,0,,,,,,,T,2903554,pdf,1FFCE448005D4D8E13E416CAE99BED2B,,,,0,2000-01-01 01:00:00,2016-04-03 02:51:08,255000/1ffce448005d4d8e13e416cae99bed2b-d.jpg,,
5693003,Study Guide for Come Into My Trading Room: A Complete Guide to Trading,,,,Alexander Elder,2002,Study Guide,Wiley,,210,0,English,Бизнес//Трейдинг,,0,"9780471225409,0471225401",,,,,332.678,,,,OL23013897M,,0,,,,,,,T,1362171,pdf,1FF9AD4EE5AC9703515ED504C8BC6D10,,,,0,2000-01-01 01:00:00,2016-04-03 02:51:08,255000/1ff9ad4ee5ac9703515ed504c8bc6d10-d.jpg,,
5693001,"Aging, Immunity, and Infection",,Infectious Disease,,"Joseph F. Albright, Julia W. Albright",2003,1,Humana Press,,252,0,English,,,0,"9780896036444,0896036448,1592594026",,,,,,,,,OL25105387M,,0,,,,,,,T,3024733,pdf,1FC8B43907C010BD643A4301ACC9143B,,,,0,2000-01-01 01:00:00,2016-04-03 02:51:08,255000/1fc8b43907c010bd643a4301acc9143b-d.jpg,,
5693002,"The Three Skills of Top Trading: Behavioral Systems Building, Pattern Recognition, and Mental State Management",,Wiley Trading,,Hank Pruden,2007,,Wiley,,303,0,English,Компьютеры//Алгоритмы и структуры данных//Распознавание образов,,0,"9780470050637,2006036653",,,,,,,,,OL9793405M,,0,,,,,,,T,21770544,pdf,1FDA471662D6BB9FA1FCDFFC472B9F10,,,,0,2000-01-01 01:00:00,2016-04-03 02:51:08,255000/1fda471662d6bb9fa1fcdffc472b9f10-d.jpg,,
5693000,Trend Following: How Great Traders Make Millions in Up or Down Markets,,Financial Times Prentice Hall Books ,,Michael W. Covel,2004,illustrated edition,Financial Times Prentice Hall,,9,0,English,Бизнес//менеджмент,,0,"9780131446038,0131446037",,,,,,,,,OL7336441M,,0,,,,,,,,3509830,pdf,1FB0406733FB8A17E04C640BD0E66570,,,,0,2000-01-01 01:00:00,2016-04-03 02:51:08,255000/1fb0406733fb8a17e04c640bd0e66570-d.jpg,,
5692998,The Rough Guide to Sci-Fi Movies 1,,Rough Guide Reference ,,John Scalzi,2005,,Rough Guides,,338,0,English,,,0,"9781843535201,1843535203",,,,,,,,,OL8931779M,,0,,,,,,,1,20754844,pdf,1F5E79C2BB7C41DA10BB89B621C12B2F,,,,0,2000-01-01 01:00:00,2016-04-03 02:51:08,255000/1f5e79c2bb7c41da10bb89b621c12b2f-d.jpg,,
5692999,Introduction to Chemical Engineering Thermodynamics,,Mcgraw-Hill Chemical Engineering Series,,"Joseph M. Smith, H. C. Van Ness",1987,4 Sub,McGraw-Hill Companies,,364,0,English,Химия,,0,"9780070587038,0070587035,5821987660",,,,,660.2/969,TP149 .S582 1987,,,OL2714256M,,0,,,,,,,,15412184,djvu,1F888EED97B0682223EB693DE823B17F,,,,0,2000-01-01 01:00:00,2016-04-03 02:51:08,255000/1f888eed97b0682223eb693de823b17f-g.jpg,,
5692997,Trade What You See: How To Profit from Pattern Recognition,,Wiley Trading,,"Larry Pesavento, Leslie Jouflas",2007,illustrated edition,Wiley,,211,0,English,Компьютеры//Алгоритмы и структуры данных//Распознавание образов,,0,"9780470106761,2007034476",,,,,,,,,OL9347182M,,0,,,,,,,T,5255584,pdf,1EFC48E589846AFA3C2B8410B6842436,,,,0,2000-01-01 01:00:00,2016-04-03 02:51:08,255000/1efc48e589846afa3c2b8410b6842436-d.jpg,,
5692996,Berkshire Encyclopedia Of World History: Five Volume Set,vol 2,,,"William H. McNeill, David Christian, Jerry Bentley, William H. McNeill, David Christian, Jerry H. Bentley",2005,,Berkshire Publishing Group,,493,0,English,История,,0,"9780974309101,0974309109",,,,,903,D23 .B45 2005,,,OL3297015M,,0,0,0,,,,,1,43800823,pdf,1EEC8A6BF1911FA429A9AB3B8E386ED7,,,,0,2000-01-01 01:00:00,2016-04-03 02:51:08,255000/1eec8a6bf1911fa429a9ab3b8e386ed7-d.jpg,,
5692994,Neuroscience of Psychoactive Substance Use and Dependence,,,,World Health Organization,2004,illustrated edition,World Health Organization,,286,0,English,Медицина//Неврология,,0,"9789241562355,9241562358",,,,,615/.788,RM315 .N4833 2004,,,OL3452725M,,0,,,,,,,T,2375233,pdf,1E4A6723E6D06400635E10B55498247F,,,,0,2000-01-01 01:00:00,2016-04-03 02:51:08,255000/1e4a6723e6d06400635e10b55498247f-d.jpg,,
5692995,Essentials of Bedside Cardiology,,Contemporary Cardiology,,Jules Constant,2002,1,Humana Press,,312,0,English,Медицина//Кардиология,,0,"9781588291424,1588291421",,,,,616.1/2,RC683 .C593 2003,,,OL21801702M,,0,,,,,,,,4382923,pdf,1E57B6C388AEB8E8C4E9610F28C137C9,,,,0,2000-01-01 01:00:00,2016-04-03 02:51:08,255000/1e57b6c388aeb8e8c4e9610f28c137c9-d.jpg,,
5692992,Cross-Train Your Brain: A Mental Fitness Program for Maximizing Creativity and Achieving Success,,,,Stephen D. Eiffert,1999,,AMACOM,,242,0,English,,,0,"9780814479940,0814479944",,,,,,,,,OL8043536M,,0,,,,,,,T,1783185,pdf,1DD30CEDBFACF7AD8369468D7AF18028,,,,0,2000-01-01 01:00:00,2016-04-03 02:51:08,255000/1dd30cedbfacf7ad8369468d7af18028-d.jpg,,
5692993,"An Engine, Not a Camera: How Financial Models Shape Markets",,Inside Technology,,Donald MacKenzie,2006,,The MIT Press,,391,0,English,Экономика,,0,"9780262134606,0262134608",,,,,332/.01/5195,HG4523 .M24 2006,,,OL3427855M,,0,,,,,,,T,3020523,pdf,1E19B90171A5458E67CC16E9F695EC69,,,,0,2000-01-01 01:00:00,2016-04-03 02:51:08,255000/1e19b90171a5458e67cc16e9f695ec69-d.jpg,,
5692991,"Beginning Linux Programming, Third Edition",,,,"Neil Matthew, Richard Stones, Alan Cox",2004,3,Wrox,,891,0,English,Компьютеры//Операционные системы,,0,"9780764544972,0764544977",,,,,005.26/8,QA76.76.O63 M37157 2004,,,OL18986633M,,0,,,,,,,,11618088,pdf,1DD03B95D49C6F73556A20B11FA2F941,,,,0,2000-01-01 01:00:00,2016-04-03 02:51:08,255000/1dd03b95d49c6f73556a20b11fa2f941-d.jpg,,
5692989,"Dinosaurs Fact File: Thw Who, When, Where of the Prehistoric World",,,,Paul Harrison,2008,,Arcturus foulsham,,162,0,English,История,,0,"0572034008,9780572034009",,,,,,,,,,,0,0,0,,,,,T,19486009,pdf,1D9DF4D9E6873DF740429055CAD7445B,,,,0,2000-01-01 01:00:00,2016-04-03 02:51:08,255000/1d9df4d9e6873df740429055cad7445b-d.jpg,,
5692990,Cognitive Integration: Mind and Cognition Unbounded,,,,Richard Menary,2007,1,Palgrave Macmillan,,220,0,English,,,0,"140398977X,9781403989772,9780230592889,9780230549364,0230549365",,,,,,,,,OL11643019M,,0,,,,0,0,,1,1519549,pdf,1DB99A981596A9F4EA47D3AD812D8DA7,,,,0,2000-01-01 01:00:00,2016-04-03 02:51:08,255000/1db99a981596a9f4ea47d3ad812d8da7-d.jpg,,
5692988,Pro PHP XML and Web Services,,,,Robert Richards,2006,,Apress,,937,0,English,Компьютеры//Сети//Интернет,,0,"9781590596333,1590596331",,,,,,,,,OL8848861M,,0,,,,,,,,4537879,pdf,1D380927491AE61201FF1972A08BF1CE,,,,0,2000-01-01 01:00:00,2016-04-03 02:51:08,255000/1d380927491ae61201ff1972a08bf1ce-d.jpg,,
5692986,Power of An Hour: Business and Life Mastery in One Hour A Week,,,,Dave Lakhani,2006,1,Wiley,,221,0,English,Бизнес,,0,"0471780936,9780471780939,9780470036181",,,,,658.4/09,HD38.2 .L345 2006,,,OL24254490M,,0,,,,,1,,T,2277878,pdf,1D14AC06D67EDF825B6FBCD8B580E502,,,,0,2000-01-01 01:00:00,2016-04-03 02:51:08,255000/1d14ac06d67edf825b6fbcd8b580e502-d.jpg,,
5692987,Merriam-Webster's Dictionary of Allusions,,,,"Elizabeth Webber, Mike Feinsilber",1999,Ppk,Merriam-Webster,,609,0,English,Компьютеры//Сети//Интернет,,0,"0877796289,9780877796282",,,,,803,PN43 .W384 1999,,,OL41348M,,0,,,,,,,1,11237865,pdf,1D1EAC2034854C0BCA7C884EE8E7EEC7,,,,0,2000-01-01 01:00:00,2016-04-03 02:51:08,255000/1d1eac2034854c0bca7c884ee8e7eec7-d.jpg,,
5692985,50 Weapons That Changed Warfare,,,,William Weir,2005,,New Page Books,,262,0,English,Техника//Военная техника//Оружие,,0,"9781564147561,1564147568",,,,,,,,,OL8647066M,,0,,,,,,,T,5575801,pdf,1CB862768447F64CC3D6C283EAEC3660,,,,0,2000-01-01 01:00:00,2016-04-03 02:51:08,255000/1cb862768447f64cc3d6c283eaec3660-d.jpg,,
5692983,"The European Revolutions, 1848-1851",,New Approaches to European History,,Jonathan Sperber,2005,2,Cambridge University Press,,335,0,English,,,0,"0521839076,9780521839075",,,,,,,,,OL7766057M,,0,,,,,,,T,3614395,pdf,1C61D53A7657FC6D1C16A8F239970B3B,,,,0,2000-01-01 01:00:00,2016-04-03 02:51:08,255000/1c61d53a7657fc6d1c16a8f239970b3b-d.jpg,,
5692984,Beginning JavaScript,,Programmer to Programmer,,"Paul Wilton, Jeremy McPeak",2007,3,Wrox,,791,0,English,Компьютеры//Программирование//Языки программирования,ebook3000.com,0,"0470051515,9780470051511,9780470171370",,,,,005.13/3,QA76.73.J39 W55 2007,,,OL17162147M,,0,,,,,1,,T,13415378,pdf,1CB7C218924ADA045F2B81D2E9A03EFB,,,,0,2000-01-01 01:00:00,2016-04-03 02:51:08,255000/1cb7c218924ada045f2b81d2e9a03efb-d.jpg,,
5692982,How to Think Like Benjamin Graham and Invest Like Warren Buffett,,,,Lawrence A. Cunningham,2001,,McGraw-Hill,,289,0,English,Образование,,0,"9780071381048,007138104X,0071369929",,,,,,,,,OL24296091M,,0,,,,,,,T,1130641,pdf,1C47C4918FCD17B2C2FA2DD8486BD945,,,,0,2000-01-01 01:00:00,2016-04-03 02:51:08,255000/1c47c4918fcd17b2c2fa2dd8486bd945-g.jpg,,
5692980,Automating Linux And Unix System Administration,,Expert's Voice in Linux,,"Nathan Campi, Kirk Bauer",2008,2,Apress,,431,0,English,Компьютеры//Системное администрирование,,0,"1430210591,9781430210597,9781430210603",,,,,005.432,QA76.76.O63 C36 2009,,,OL23945643M,,0,,,,,,,,1847610,pdf,1B5B15310F6784F6DB5D3EBE79E83B3E,,,,0,2000-01-01 01:00:00,2016-04-03 02:51:08,255000/1b5b15310f6784f6db5d3ebe79e83b3e-d.jpg,,
5692981,Memory and Emotion: Interdisciplanary Perspectives,,New Perspectives in Cognitive Psychology ,,"Bob Uttl, Nobuo Ohta, Amy Siegenthaler",2006,1,Wiley-Blackwell,,318,0,English,,,0,"9781405139816,1405139811,9781405139823,140513982X",,,,,153.1/2,BF371 .M4478 2006,,,OL22737385M,,0,,,,,,,T,2417276,pdf,1B7FA022AF700BE0FC8699BD1FA6121F,,,,0,2000-01-01 01:00:00,2016-04-03 02:51:08,255000/1b7fa022af700be0fc8699bd1fa6121f-d.jpg,,
5692979,How to Make Anyone Fall in Love With You,,,,Leil Lowndes,1996,,Contemporary Books,,193,0,English,Образование,,0,"9780809232116,0809232111",,,,,306.7,HQ801 .L69 1996,,,OL977322M,,0,,,,,,,T,890496,pdf,1B38AF260C2587F58C897883179FA933,,,,0,2000-01-01 01:00:00,2016-04-03 02:51:08,255000/1b38af260c2587f58c897883179fa933-d.jpg,,
5692977,Study Guide for Sell and Sell Short,,Wiley Trading,,Alexander Elder,2008,Stg,Wiley,,145,0,English,Бизнес//Трейдинг,,0,"0470200472,9780470200476",,,,,,,,,OL10294771M,,0,,,,,,,T,2039171,pdf,1AC0E5F4CFA42D36EDACCB83B94B60F2,,,,0,2000-01-01 01:00:00,2016-04-03 02:51:08,255000/1ac0e5f4cfa42d36edaccb83b94b60f2-d.jpg,,
5692978,An Introduction to Classical Islamic Philosophy,,,,Oliver Leaman,2001,2,Cambridge University Press,,274,0,English,Общественные науки прочие//Философия,ebook3000.com,0,"9780521793438,0521793432,0521797578",,,,,,,,,OL18129930M,,0,,,,,,,T,2431877,pdf,1B13F4C4E376E6DD588C17EA9E7D577B,,,,0,2000-01-01 01:00:00,2016-04-03 02:51:08,255000/1b13f4c4e376e6dd588c17ea9e7d577b-d.jpg,,
5692975,Immobilized Enzymes and Cells,"Volume 137, Part D",Methods in Enzymology,,"Nathan P. Colowick, Nathan P. Kaplan, Klaus Mosbach",1988,,Academic Press,,825,0,English,Биология//Биохимия//Ферментология,duansci.com,0,"9780121820374,0121820378",,,,,,,,,OL9352717M,,0,0,0,,,,,,44240378,pdf,1A21297EF6041CAA269252BF4C39F99D,,,,0,2000-01-01 01:00:00,2016-04-03 02:51:08,255000/1a21297ef6041caa269252bf4c39f99d-d.jpg,,
5692976,The Dhandho Investor: The Low - Risk Value Method to High Returns,,,,Mohnish Pabrai,2007,,Wiley,,209,0,English,,,0,"047004389X,9780470043899",,,,,,,,,OL7595142M,,0,,,,,,,T,2969667,pdf,1A9D830C22E5C29F19AB0E3D7438404D,,,,0,2000-01-01 01:00:00,2016-04-03 02:51:08,255000/1a9d830c22e5c29f19ab0e3d7438404d-d.jpg,,
5692973,Lonely Minds in the Universe,,,,Giancarlo Genta,2007,1,Springer,,309,0,English,Физика,,0,"0387339256,9780387339252,9780387690391",,,,,,,,,OL7445551M,,0,,,,,,,T,2475596,pdf,1A0E30CD3F293F07667614CD62CD98F3,,,,0,2000-01-01 01:00:00,2016-04-03 02:51:08,255000/1a0e30cd3f293f07667614cd62cd98f3-d.jpg,,
5692974,Writing About Business,,,,Terri Thompson,2000,2,Columbia University Press,,448,0,English,Бизнес,ebook3000.com,0,"9780231118347,0231118341,023111835X",,,,,,,,,OL16992429M,,0,,,,,,,1,5553764,pdf,1A1088861DCE8D22F4A341FEBCF70639,,,,0,2000-01-01 01:00:00,2016-04-03 02:51:08,255000/1a1088861dce8d22f4a341febcf70639-d.jpg,,
5692972,How to Be an Effective Speaker,,,,Cristina Stuart,1990,1,McGraw-Hill,,4,0,English,Образование,,0,"9780844232805,0844232807,1570230900",,,,,808.51,PN4121 .S8344 1989,,,OL2223229M,,0,,,,,,,T,30491,pdf,19F1A139CB5CB5EF2AD3D435CF63AC52,,,,0,2000-01-01 01:00:00,2016-04-03 02:51:08,255000/19f1a139cb5cb5ef2ad3d435cf63ac52-d.jpg,,
5692970,Japanese Cinema: An Introduction,,Images of Asia ,,Donald Richie,1990,,"Oxford University Press, USA",,59,0,English,Искусство//Кинематография,,0,"9780195849509,0195849507",,,,,791.43/0952,PN1993.5.J3 R474 1990,,,OL2207657M,,0,,,,,,,,2093129,pdf,19B0488847D772092302D95A833DFB44,,,,0,2000-01-01 01:00:00,2016-04-03 02:51:08,255000/19b0488847d772092302d95a833dfb44-d.jpg,,
5692971,Turn Signals Are the Facial Expressions of Automobiles,,,,Donald A. Norman,1992,1ST,Perseus Books,,220,0,English,"Техника//Транспорт//Автомобили, мотоциклы",ebook3000.com,0,"0201581248,9780201581249,020162236X,9780201622362",,,,,600,T47 .N67 1992,,,OL1557901M,,600,,,,0,1,,1,4469939,djvu,19EB86EAE32C76C151A9137AFE7BC786,,,,0,2000-01-01 01:00:00,2016-04-03 02:51:08,255000/19eb86eae32c76c151a9137afe7bc786-d.jpg,,
5692969,The Mathematics of Money Management: Risk Analysis Techniques for Traders,,,,Ralph Vince,1992,1,Wiley,,109,0,English,Математика,,0,"9780471547389,0471547387",,,,,332.6/01/51,HG4529 .V56 1992,,,OL1553518M,,0,,,,,,,,2012084,pdf,197760C9B4A32DB5CC51EEE8089FF3B8,,,,0,2000-01-01 01:00:00,2016-04-03 02:51:08,255000/197760c9b4a32db5cc51eee8089ff3b8-d.jpg,,
5692967,The Films of Federico Fellini,,Cambridge Film Classics ,,Peter Bondanella,2002,1,Cambridge University Press,,220,0,English,,,0,"0521573254,9780521573252",,,,,,,,,OL7746871M,,0,,,,,,,T,4085861,pdf,190ACBF6898A18A54F7CFF47854FA16F,,,,0,2000-01-01 01:00:00,2016-04-03 02:51:08,255000/190acbf6898a18a54f7cff47854fa16f-g.jpg,,
5692968,Greek Magical Papyri in Translation: Including the Demotic Spells,,"Greek Magical Papyri in Translation, Including the Demonic S",,Hans Dieter Betz,1997,1,University Of Chicago Press,,397,0,English,,,0,"0226044475,9780226044477,0226044440,9780226044446",,,,,133.4/3/0938,BF1622.G8 G74 1986,,,OL3020978M,,0,,,,1,1,,1,16273319,pdf,1948923D7E12B712D41291F813F49AA9,,,,0,2000-01-01 01:00:00,2016-04-03 02:51:08,255000/1948923d7e12b712d41291f813f49aa9-d.jpg,,
5692965,Modern Coding Theory,,,,"Tom Richardson, Ruediger Urbanke",2008,,Cambridge University Press,,590,0,English,Компьютеры,,0,"0521852293,9780521852296,9780511387944",,,,,003/.54,QA268 .R53 2008,,,OL16471711M,,0,,,,,1,,T,5128142,pdf,189F85CC39BCE5E9406A995926E36074,,,,0,2000-01-01 01:00:00,2016-04-03 02:51:08,255000/189f85cc39bce5e9406a995926e36074-d.jpg,,
5692966,Bob Marley: A Biography,,Greenwood Biographies,,David Moskowitz Ph.D.,2007,,Greenwood,,148,0,English,,,0,"9780313338793,0313338795",,,,,"782.421646092,B",ML420.M3313 M66 2007,,,OL10420738M,,0,,,,,,,T,745389,pdf,18B2A61DA01D7E7D98FF62CC42771E60,,,,0,2000-01-01 01:00:00,2016-04-03 02:51:08,255000/18b2a61da01d7e7d98ff62cc42771e60-d.jpg,,
5692964,Smarts: Are We Hardwired for Success?,,,,"Chuck Martin, Peg Dawson, Richard Guare",2007,illustrated edition,AMACOM,,240,0,English,,,0,"0814409067,9780814409060",,,,,,,,,OL8043100M,,0,,,,,,,1,2437983,pdf,188543BCB0F20E68755013686A5EBF04,,,,0,2000-01-01 01:00:00,2016-04-03 02:51:08,255000/188543bcb0f20e68755013686a5ebf04-d.jpg,,
5692962,100 Strangest Mysteries,,,,Matt Lamy,2004,,Arcturus publishing Limited,,213,0,English,История,,0,"9780760761755,0760761752",,,,,,,,,OL8014400M,,0,,,,,,,T,26050858,pdf,1841A6E07C552C68EADD91B18C81B88B,,,,0,2000-01-01 01:00:00,2016-04-03 02:51:08,255000/1841a6e07c552c68eadd91b18c81b88b-g.jpg,,
5692963,Kuby Immunology,,,,"Richard A. Goldsby, Thomas J. Kindt, Janis Kuby, Barbara A. Osborne",2002,5th,W. H. Freeman,,554,0,English,Медицина//Иммунология,duansci.com,0,"0716749475,9780716733317,9780716749479,0716733315",,,,,616.079,,,,OL22820133M,,0,,,,,1,,,23133791,pdf,18834C6EA72D18C088B7C02D75877979,,,,0,2000-01-01 01:00:00,2016-04-03 02:51:08,255000/18834c6ea72d18c088b7c02d75877979-d.jpg,,
5692961,The Development of Language: Functional Perspectives on Species and Individuals,,Open Linguistics ,,"Geoff Williams, Annabelle Lukin",2006,illustrated edition,Continuum,,279,0,English,Языкознание,ebook3000.com,0,"0826488781,9780826488787,0826457584,9780826457585",,,,,417/.7,P140 .D48 2004,,,OL22587585M,,0,,,,,1,,T,15897790,pdf,182766D0DE34FD802806CCD7AB5A4691,,,,0,2000-01-01 01:00:00,2016-04-03 02:51:08,255000/182766d0de34fd802806ccd7ab5a4691-d.jpg,,
5692960,How to Be Happy at Work: A Practical Guide to Career Satisfaction,,,,Arlene S. Hirsch,2003,2,Jist Publishing,,305,0,English,Образование,,0,"9781563709807,1563709805",,,,,,,,,OL8644762M,,0,,,,,,,,2540308,pdf,1802D9AB7FB8BD5C0EB77D8C00942278,,,,0,2000-01-01 01:00:00,2016-04-03 02:51:08,255000/1802d9ab7fb8bd5c0eb77d8c00942278-d.jpg,,
5692958,Financial Risk Manager Handbook,,Wiley Finance,,"Philippe Jorion, GARP (Global Association of Risk Professionals)",2007,4,Wiley,,735,0,English,,,0,"0470126302,9780470126301",,,,,,,,,OL9867734M,,0,,,,,,,,4082400,pdf,17D5EF4F48A7437B5C60D1D5C67F780A,,,,0,2000-01-01 01:00:00,2016-04-03 02:51:08,255000/17d5ef4f48a7437b5c60d1d5c67f780a-d.jpg,,
5692959,Next Generation Intelligent Networks,,Artech House Telecommunications Library,,Johan Zuidweg,2002,1st,Artech House Publishers,,363,0,English,Компьютеры//Сети,ebook3000.com,0,"9781580532631,1580532632",,,,,4,TK5105.84 .Z85 2002,,,OL3570594M,,0,,,,,,,T,4588990,pdf,17F2FE6AB3A32F8E1AED7874E1A5CBE0,,,,0,2000-01-01 01:00:00,2016-04-03 02:51:08,255000/17f2fe6ab3a32f8e1aed7874e1a5cbe0-d.jpg,,
5692957,Marine Mammals of the World: A Comprehensive Guide to Their Identification,,,,"Thomas A. Jefferson, Marc A. Webber, Robert Pitman",2007,1,Academic Press,,572,0,English,Биология,duansci.com,0,"9780123838537,0123838533",,,,,,,,,OL10072116M,,0,,,,,,,,51873261,pdf,17D1EA80A1AC1DBBDB4507B28969CC49,,,,0,2000-01-01 01:00:00,2016-04-03 02:51:08,255000/17d1ea80a1ac1dbbdb4507b28969cc49-d.jpg,,
5692955,"Dictionary of Geophysics, Astrophysics, and Astronomy",,Comprehensive Dictionary of Physics,,Richard A. Matzner,2001,1,CRC Press,,525,0,English,Физика,,0,"9780849328916,0849328918",,,,,,,,,OL8259880M,,0,,,,,,,T,5691130,pdf,1769CC6717BAD6A2A3D1453EC67FBD2C,,,,0,2000-01-01 01:00:00,2016-04-03 02:51:08,255000/1769cc6717bad6a2a3d1453ec67fbd2c-d.jpg,,
5692956,"Forming Nation, Framing Welfare",,"Social Policy: Welfare, Power and Diversity",,Gail Lewis,1998,1,Routledge,,351,0,English,,,0,"9780415181303,0415181305,0415181291,9780415181297",,,,,361.6/5/0941,HV245 .F685 1998,,,OL699102M,,0,,,,,1,,T,6137609,pdf,1788A3DB6EC7F6FDA486029D4522DB1E,,,,0,2000-01-01 01:00:00,2016-04-03 02:51:08,255000/1788a3db6ec7f6fda486029d4522db1e-d.jpg,,
5692953,Cognition on Cognition,,,,"Jacques Mehler, Susana Franck",1995,,The MIT Press,,474,0,English,,,0,"9780262631679,0262631679",,,,,153,BF311 .C5496 1995,,,OL796849M,,0,,,,,,,,2688161,pdf,16F33892466FA4A602BFB8E23B16DF03,,,,0,2000-01-01 01:00:00,2016-04-03 02:51:08,255000/16f33892466fa4a602bfb8e23b16df03-d.jpg,,
5692954,Riemann-Finsler Geometry,,Nankai Tracts in Mathematics,,"Shiing-Shen Chern, Zhongmin Shen",2005,,World Scientific Publishing Company,,204,0,English,Математика//Геометрия и топология,,0,"9789812383570,9812383573",,,,,516.3/75,QA689 .C48 2005,,,OL3420805M,,0,,,,,,,T,6901402,pdf,173A146CC09B3048EBB96E5E6FABACC1,,,,0,2000-01-01 01:00:00,2016-04-03 02:51:08,255000/173a146cc09b3048ebb96e5e6fabacc1-d.jpg,,
5692951,"Grounding Cognition: The Role of Perception and Action in Memory, Language, and Thinking",,,,"Diane Pecher, Rolf A. Zwaan",2005,,Cambridge University Press,,336,0,English,,,0,"0521834643,9780521834643",,,,,,,,,OL22617892M,,0,,,,,,,T,5761755,pdf,161C1EB001AB8E888252C824FE443319,,,,0,2000-01-01 01:00:00,2016-04-03 02:51:08,255000/161c1eb001ab8e888252c824fe443319-d.jpg,,
5692952,The Euro and Its Central Bank: Getting United after the Union,,,,Tommaso Padoa-Schioppa,2004,,The MIT Press,,283,0,English,,,0,"9780262162227,0262162229",,,,,,,,,OL9702673M,,0,,,,,,,T,3071964,pdf,165D054510319523DC74129205900805,,,,0,2000-01-01 01:00:00,2016-04-03 02:51:08,255000/165d054510319523dc74129205900805-d.jpg,,
5692949,Long/Short Market Dynamics: Trading Strategies for Today's Markets,,Wiley Trading ,,Clive M. Corcoran,2007,,Wiley,,358,0,English,Бизнес//Трейдинг,,0,"0470057289,9780470057285",,,,,,,,,OL7595492M,,0,,,,,,,T,6374853,pdf,15FBA3B44B86937972714B93A2D7916A,,,,0,2000-01-01 01:00:00,2016-04-03 02:51:08,255000/15fba3b44b86937972714b93a2d7916a-d.jpg,,
5692950,Musculoskeletal Tissue Regeneration: Biological Materials and Methods,,Orthopedic Biology and Medicine,,"William S. Pietrzak, William S. Pietrzak",2008,1,Humana Press,,642,0,English,Биология,,0,"1588299090,9781588299093",,,,,616.7,RC925 .M867 2007,,,OL12325774M,,0,,,,,1,,T,11781856,pdf,1610C0532BD0422E54FC6C58C359E841,,,,0,2000-01-01 01:00:00,2016-04-03 02:51:08,255000/1610c0532bd0422e54fc6c58c359e841-d.jpg,,
5692947,An Infinity of Things: How Sir Henry Wellcome Collected the World,,,,Frances Larson,2009,,"Oxford University Press, USA",,358,0,English,,ebook3000.com,0,"0199554463,9780199554461",,B002ZNJ9R0,,,,,,,OL24552229M,,0,,,,,1,,T,4138930,pdf,15B7F2C7B85B73437DF504938CB17FCB,,,,0,2000-01-01 01:00:00,2016-04-03 02:51:08,255000/15b7f2c7b85b73437df504938cb17fcb-d.jpg,,
5692948,Conversations on Consciousness,,,,Susan J. Blackmore,2005,,Oxford University Press,,279,0,English,,,0,"9780192806222,019280622X",,,,,126,B808.9 .B53 2005,,,OL22713459M,,0,,,,,,,T,4954570,pdf,15D54A21BEA1170386E963438DC35045,,,,0,2000-01-01 01:00:00,2016-04-03 02:51:08,255000/15d54a21bea1170386e963438dc35045-d.jpg,,
5692945,Drawing and the Non-Verbal Mind: A Life-Span Perspective,,,,"Chris Lange-Küttner, Annie Vinter",2008,1,Cambridge University Press,,361,0,English,Искусство//Графические виды искусства,,0,"0521872057,9780521872058,9780511424076",,,,,153,BF456.D7 D73 2008,,,OL10437929M,,0,,,,,1,,T,8783862,pdf,157645EA46E07685E00CB51FC740251F,,,,0,2000-01-01 01:00:00,2016-04-03 02:51:08,255000/157645ea46e07685e00cb51fc740251f-d.jpg,,
5692946,The Cambridge Companion to German Idealism,,Cambridge Companions to Philosophy ,,Karl Ameriks,2000,,Cambridge University Press,,312,0,English,,,0,"0521651786,9780521651783",,,,,193,B2745 .C36 2000,,,OL22351380M,,0,,,,,,,T,2161220,pdf,158AB9300D6A8308D879DED83EE2251B,,,,0,2000-01-01 01:00:00,2016-04-03 02:51:08,255000/158ab9300d6a8308d879ded83ee2251b-d.jpg,,
5692943,Making the Implicit Explicit: Creating Performance Expectations for the Dissertation,,,,Barbara E. Lovitts,2007,,Stylus Publishing,,431,0,English,,,0,"1579221807,9781579221805,9781429484619",,,,,,,,,OL9640833M,,0,,,,,,,1,3236064,pdf,15151762A1BBCBAED343178ADAC7D4C3,,,,0,2000-01-01 01:00:00,2016-04-03 02:51:08,255000/15151762a1bbcbaed343178adac7d4c3-d.jpg,,
5692944,Coffee and Espresso: Make Your Favorite Drinks at Home,,Quick & Easy,,Tania Dusy,2004,,Silverback Books,,66,0,English,,,0,"9781930603394,1930603398",,,,,,,,,OL8799852M,,0,,,,,,,,5168692,pdf,155A5E76040B7D7B632D9A3A07B17DAF,,,,0,2000-01-01 01:00:00,2016-04-03 02:51:08,255000/155a5e76040b7d7b632d9a3a07b17daf-d.jpg,,
5692942,New Larousse Encyclopedia Of Mythology,,,,Robert Graves,1987,,Crescent,,478,0,French,Образование//Энциклопедии,,0,"9780517004043,0517004046",,,,,,,,,OL7672177M,,0,,,,,,,,2514991,pdf,149B71AD586FA7C53DE5F579BA389B99,,,,0,2000-01-01 01:00:00,2016-04-03 02:51:08,255000/149b71ad586fa7c53de5f579ba389b99-d.jpg,,
5692941,"Encyclopedia of Drugs, Alcohol & Addictive Behavior",,"Encyclopedia of Drugs, Alcohol and Addictive Behavior ",,"Pamela Korsmeyer, Henry R. Kranzler",2008,3,Macmillan Reference USA,,1701,0,English,Психология,ebook3000.com,0,"9780028660646,0028660641",,,,,362.2903,HV5804 .E53 2009,,,OL18534308M,,0,,,,,1,,T,18662971,pdf,1447081859576C8E63460CBA3B8D76E5,,,,0,2000-01-01 01:00:00,2016-04-03 02:51:08,255000/1447081859576c8e63460cba3b8d76e5-d.jpg,,
5692939,Biological Anthropology of the Human Skeleton,,,,"M. Anne Katzenberg, Shelley R. Saunders",2008,2,Wiley-Liss,,658,0,English,Биология//Антропология,,0,"0471793728,9780471793724",,,,,599.9/47,GN70 .B55 2007,,,OL18524833M,,0,0,0,,,,,T,9496420,pdf,1423E98AA7DAF8716BF426C2E7116E4D,,,,0,2000-01-01 01:00:00,2016-04-03 02:51:08,255000/1423e98aa7daf8716bf426c2e7116e4d-d.jpg,,
5692940,Discourse Strategies,,Studies in Interactional Sociolinguistics ,,John J. Gumperz,1982,,Cambridge University Press,,237,0,English,Языкознание,ebook3000.com,0,"0521288967,9780511611834,0521246911,0511611838,9780521246910,9780521288965",,,,,401/.9,P95.45 .G8 1982,,,OL3780571M,,300,,,,,1,,1,1301304,djvu,142DDE4FAE89FACB4E0B181A8FEB68F9,,,,0,2000-01-01 01:00:00,2016-04-03 02:51:08,255000/142dde4fae89facb4e0b181a8feb68f9-d.jpg,,
5692938,"Web Standards Programmer's Reference : HTML, CSS, JavaScript, Perl, Python, and PHP",,,,Steven M. Schafer,2005,,Wrox,,812,0,English,Компьютеры//Сети//Интернет,ebook3000.com,0,"0764588206,9780764588204",,,,,,,,,OL8051971M,,0,,,,,,,1,13056898,pdf,1415C18FF4BC35E7AEA4101ADE51AB93,,,,0,2000-01-01 01:00:00,2016-04-03 02:51:08,255000/1415c18ff4bc35e7aea4101ade51ab93-d.jpg,,
5692936,Auto Repair For Dummies,,,,Deanna Sclar,1999,Rev Upd,IDG Books Worldwide,,600,0,English,Образование,,0,"9780764550898,0764550896,3175723993,8004343422,8004342086",,,,,629.28/72,TL152 .S42 1999,,,OL399105M,,0,,,,,,,T,8587626,pdf,135D483703507F1A458B2C13245EA880,,,,0,2000-01-01 01:00:00,2016-04-03 02:51:08,255000/135d483703507f1a458b2c13245ea880-d.jpg,,
5692937,Laugh and Learn: 95 Ways to Use Humor for More Effective Teaching and Training,,,,Doni Tamblyn,2003,1,AMACOM,,272,0,English,Образование,,0,"9780814407455,0814407455",,,,,658.3124,,,,OL22022757M,,0,,,,,,,T,3526140,pdf,13B00FF8E10E7DE6542BFF0446660BEC,,,,0,2000-01-01 01:00:00,2016-04-03 02:51:08,255000/13b00ff8e10e7de6542bff0446660bec-d.jpg,,
5692934,Literacy and the Social Order: Reading and Writing in Tudor and Stuart England,,,,David Cressy,1980,,Cambridge University Press,,258,0,English,,ebook3000.com,0,"0521225140,9780511560484,0521032466,0511560486,9780521032469,9780521225144",,,,,306/.4,LC156.G7 C73,,,OL4425947M,,0,,,,,1,,T,1709133,djvu,12F5BC893FF62AE7BD17BCE641AF3FCC,,,,0,2000-01-01 01:00:00,2016-04-03 02:51:08,255000/12f5bc893ff62ae7bd17bce641af3fcc-g.jpg,,
5692935,Irregular Connections: A History of Anthropology and Sexuality,,Critical Studies in the History of Anthropology,,"Andrew P. Lyons, Harriet D. Lyons",2004,,University of Nebraska Press,,437,0,English,"Психология//Любовь, эротика",,0,"9780803229532,0803229534",,,,,,,,,OL7905144M,,0,,,,,,,T,2827125,pdf,13562DB3A96272D65793E1D9A6AE440A,,,,0,2000-01-01 01:00:00,2016-04-03 02:51:08,255000/13562db3a96272d65793e1d9a6ae440a-d.jpg,,
5692933,Vascular Dementia: Cerebrovascular Mechanisms and Clinical Management,,Current Clinical Neurology,,Robert H. Paul,2004,1,Humana Press,,371,0,English,Бизнес//менеджмент,,0,"9781588293664,1588293661,1592598242",,,,,616.8/1,RC388.5 .V3659 2005,,,OL19150980M,,0,,,,,,,,6588625,pdf,1296EF34051450155ECDE774A1FD8E3C,,,,0,2000-01-01 01:00:00,2016-04-03 02:51:08,255000/1296ef34051450155ecde774a1fd8e3c-d.jpg,,
5692931,The Organization of Language,,,,"Janice Moulton, George M. Robinson",1981,,Cambridge University Press,,405,0,English,,ebook3000.com,0,"9780521231299,9780511529856,0521298512,0521231299,0511529856,9780521298513",,,,,415,P291,,,OL22347417M,,300,,,,,1,,1,2265397,djvu,126DDE5085A417BD233A29E0703C0720,,,,0,2000-01-01 01:00:00,2016-04-03 02:51:08,255000/126dde5085a417bd233a29e0703c0720-g.jpg,,
5692932,Consciousness Explained,,,,"Daniel C. Dennett, Paul Weiner",1991,1st,Little Brown & Co (T),,525,0,English,Медицина//Неврология,,0,"0316180653,9780316180658,9780316180665",,,,,126,B105.C477 D45 1991,,,OL1537348M,,0,,,,,,,T,4323053,djvu,1296079CB15C9AD8589647FD12A787B8,,,,0,2000-01-01 01:00:00,2016-04-03 02:51:08,255000/1296079cb15c9ad8589647fd12a787b8-d.jpg,,
5692929,Black Directors in Hollywood,,,,Melvin Donalson,2003,1,University of Texas Press,,390,0,English,,,0,"9780292701786,0292701780,0292701799",,,,,"791.43/0233/092273,B",PN1995.9.N4 D66 2003,,,OL22567830M,,0,,,,,,,T,9112039,pdf,11770802571C9BFE4B6DDCE907BAB01D,,,,0,2000-01-01 01:00:00,2016-04-03 02:51:08,255000/11770802571c9bfe4b6ddce907bab01d-g.jpg,,
5692930,The Nordstrom Way to Customer Service Excellence: A Handbook For Implementing Great Service in Your Organization,,,,Robert Spector,2005,1,Wiley,,289,0,English,,,0,"0471702862,9780471702863,9780471724209",,,,,,,,,OL24260088M,,0,,,,,1,,T,3488527,pdf,1262E73A6593D3E9EB0C5AD54888DA9A,,,,0,2000-01-01 01:00:00,2016-04-03 02:51:08,255000/1262e73a6593d3e9eb0c5ad54888da9a-d.jpg,,
5692927,Float Analysis: Powerful Technical Indicators Using Price and Volume,,A Marketplace Book,,Marketplace Books,2002,1st,Wiley,,250,0,English,Математика//Анализ,,0,"9780471215530,0471215538",,,,,332.63/2042,HG4529 .W66 2002,,,OL3669589M,,0,,,,,,,T,2433006,pdf,11123AD06D85F07AA448D658D6F0E91B,,,,0,2000-01-01 01:00:00,2016-04-03 02:51:08,255000/11123ad06d85f07aa448d658d6f0e91b-d.jpg,,
5692928,"Encyclopedia Of African History And Culture, 5 Vol. Set",5,,,"Willie F. Page, R. Hunt Davis",2005,Revised,Facts on File,,624,0,English,История,,0,"9780816051991,0816051992",,,,,,,,,OL11359848M,,0,0,0,,,,,,25951226,pdf,116925A95F9C7FE12DB6882B31884347,,,,0,2000-01-01 01:00:00,2016-04-03 02:51:08,255000/116925a95f9c7fe12db6882b31884347-d.jpg,,
5692925,Anatomy of Movement,,Revised Edition,,Blandine Calais-Germain,2007,Revised,Eastland Press,,314,0,English,Медицина//Анатомия и физиология человека,ebook3000.com,0,"0939616572,9780939616572",,,,,,,,,OL16743854M,,0,,,,,0,,T,32246769,pdf,10BEB325EDE38B58CD351959945608F0,,,,0,2000-01-01 01:00:00,2016-04-03 02:51:08,255000/10beb325ede38b58cd351959945608f0-d.jpg,,
5692926,The Genetics of Male Infertility,,,,Douglas T. Carrell,2006,1,Humana Press,,355,0,English,Биология//Генетика,,0,"9781588298638,1588298639,1597451762",,,,,,,,,OL8828680M,,0,,,,,,,T,3980965,pdf,11028AB7B4C3845DF14A1DC9E67D2FC2,,,,0,2000-01-01 01:00:00,2016-04-03 02:51:08,255000/11028ab7b4c3845df14a1dc9e67d2fc2-d.jpg,,
5692924,Reflecting on leadership,,,,Karin Wittenborg,2003,,Council on Library and Information Resources,,61,0,English,,,0,"9781932326062,1932326065",,,,,,,,,OL8808307M,,0,,,,,,,T,432906,pdf,107C346EFF33BB3A0D76DB3415E51365,,,,0,2000-01-01 01:00:00,2016-04-03 02:51:08,255000/107c346eff33bb3a0d76db3415e51365-g.jpg,,
5692922,Физическая природа аналитических функций в разведочной геофизике,,,,Чантуришвили Л.С.,1994,,,Зугдиди,64,0,Russian,Физика,,0,,,,,,,,,,,,0,,,,,,,,1332330,djvu,102E90C8A40F939BD9D67EB44F98DDF6,,,,0,2000-01-01 01:00:00,2016-04-03 02:51:08,255000/102e90c8a40f939bd9d67eb44f98ddf6-g.jpg,,
5692923,Problems of Vision: Rethinking the Causal Theory of Perception,,,,Gerald Vision,1997,First Edition / First Printing,"Oxford University Press, USA",,285,0,English,,,0,"9780195104981,0195104986",,,,,131/.3,BD214 .V57 1997,,,OL7387879M,,0,,,,,,,,20502072,pdf,103EAED642DBD3BBD7F9984471CC0836,,,,0,2000-01-01 01:00:00,2016-04-03 02:51:08,255000/103eaed642dbd3bbd7f9984471cc0836-d.jpg,,
5692920,Weight Watchers Family Power: 5 Simple Rules for a Healthy-Weight Home,,,,"Weight Watchers, Karen Miller-Kovach, Meredith Vieira, Marc Jacobson",2005,1,Wiley,,259,0,English,,ebook3000.com,0,"9780471771029,0471771023",,,,,649/.3,RJ206 .M687 2006,,,OL3414355M,,0,,,,,,,T,11229643,pdf,0FDFEC0D31A4F0C54A4965FFF11B6000,,,,0,2000-01-01 01:00:00,2016-04-03 02:51:08,255000/0fdfec0d31a4f0c54a4965fff11b6000-d.jpg,,
5692921,Mastering Fundamental Analysis,,,,Michael C. Thomsett,1998,First Edition,Kaplan Business,,242,0,English,Математика//Анализ,ebook3000.com,0,"9780793128730,0793128730",,,,,332.63/22/0973,HG4529 .T49 1998,,,OL348938M,,0,,,,,,,,11288601,pdf,0FF28A3C615E28047C51E1AD36100885,,,,0,2000-01-01 01:00:00,2016-04-03 02:51:08,255000/0ff28a3c615e28047c51e1ad36100885-d.jpg,,
5692919,Forensic Science: An Illustrated Dictionary,,,,John C. Brenner,2003,1,CRC Press,,282,0,English,Языкознание//Словари,,0,"9780849314575,0849314577",,,,,363.25/03,HV8073 .B677 2004,,,OL20523942M,,0,,,,,,,T,17020054,pdf,0FD2A4FDD9DFDC15D00D026D1582C3AE,,,,0,2000-01-01 01:00:00,2016-04-03 02:51:08,255000/0fd2a4fdd9dfdc15d00d026d1582c3ae-d.jpg,,
5692917,Commercial Real Estate Investing 12 Easy Steps to Getting Started,,,,Jack Cummings,2004,1,Wiley,,291,0,English,Экономика,,0,"9780471647140,0471647144",,,,,,,,,OL7619594M,,0,,,,,,,1,1849991,pdf,0F514A1207E68EB0896E8C2D825B90E8,,,,0,2000-01-01 01:00:00,2016-04-03 02:51:08,255000/0f514a1207e68eb0896e8c2d825b90e8-d.jpg,,
5692918,Evolution And Palaeobiology of Pterosaurs,,Geological Society Special Publication ,,"Geological Society Publishing, Eric Buffetaut, Jean-michel Mazin",2003,illustrated edition,Geological Society of London,,354,0,English,Биология//Палеонтология,,0,"9781862391437,1862391432",,,,,567.918,QE862 .E96 2003,,,OL3353904M,,0,0,0,,,,,,41604373,pdf,0FA3DCA0E5AF0D310557460372C9E415,,,,0,2000-01-01 01:00:00,2016-04-03 02:51:08,255000/0fa3dca0e5af0d310557460372c9e415-d.jpg,,
5692915,"Sex and the Perfect Lover: Tao, Tantra, and the Kama Sutra",,,,Mabel Iam,2006,,Atria,,180,0,English,,,0,"074329209X,9780743292092",,,,,,,,,OL7948968M,,0,,,,,1,,T,1202101,pdf,0F0222E35FA1944477359E382F3022AE,,,,0,2000-01-01 01:00:00,2016-04-03 02:51:08,255000/0f0222e35fa1944477359e382f3022ae-d.jpg,,
5692916,Tracking the Meaning of Life: A Philosophical Journey,,,,Yuval Lurie,2006,1,University of Missouri,,353,0,English,,,0,"0826216528,9780826216526",,,,,,,,,,,0,,,,,,,1,2679244,pdf,0F4A8B3F0E29349B9864AD71A1E967B6,,,,0,2000-01-01 01:00:00,2016-04-03 02:51:08,255000/0f4a8b3f0e29349b9864ad71a1e967b6-d.jpg,,
5692914,Essential English Grammar,,,,Philip Gucker,1966,,Dover Publications,,208,0,English,Языкознание,,0,"9780486216492,0486216497",,,,,425,,,,OL15055660M,,0,,,,,,,T,9630134,pdf,0E1A9D73DD15622C762CF3F1C5D4AF23,,,,0,2000-01-01 01:00:00,2016-04-03 02:51:08,255000/0e1a9d73dd15622c762cf3f1c5d4af23-d.jpg,,
5692912,The Idea of Women in Fundamentalist Islam,,,,LAMIA RUSTUM SHEHADEH,2003,1st,University Press of Florida,,339,0,English,,ebook3000.com,0,"9780813026060,0813026067",,,,,,,,,OL8021808M,,0,,,,,,,T,982470,pdf,0D723730C87BEBEAA91FD0F372E5D927,,,,0,2000-01-01 01:00:00,2016-04-03 02:51:08,255000/0d723730c87bebeaa91fd0f372e5d927-g.jpg,,
5692913,Intelligent Behavior in Animals and Robots,,Complex Adaptive Systems ,,"David McFarland, Thomas BÃ¶sser",1993,First Edition,The MIT Press,,358,0,English,Биология//Зоология,,0,"0262132931,9780262132930,9780585020488",,,,,156/.3,QL785 .M46 1993,,,OL1735601M,,0,,,,,1,,,3767812,pdf,0DFD8253624AC2671EE9FE03A115E471,,,,0,2000-01-01 01:00:00,2016-04-03 02:51:08,255000/0dfd8253624ac2671ee9fe03a115e471-d.jpg,,
5692911,The Act of Thinking,,Bradford Books ,,Derek Melser,2004,,The MIT Press,,305,0,English,,,0,"9780262134460,0262134462",,,,,,,,,OL9587596M,,0,,,,,,,T,1025375,pdf,0D584C520E10826CD8C71AC1FAF49E79,,,,0,2000-01-01 01:00:00,2016-04-03 02:51:08,255000/0d584c520e10826cd8c71ac1faf49e79-d.jpg,,
5692909,First a Dream: A Community Builds a Library,,,,Jo Ann Ridley,2001,1st,Vision Books International,,272,0,English,,,0,"9781565500891,156550089X",,,,,,,,,OL3961619M,,0,,,,,,,T,1900438,pdf,0D3ED7B449A403814C0948EC707AA9B1,,,,0,2000-01-01 01:00:00,2016-04-03 02:51:08,255000/0d3ed7b449a403814c0948ec707aa9b1-d.jpg,,
5692910,"Classical Film Violence: Designing and Regulating Brutality in Hollywood Cinema, 1930-1968",,,,Stephen Prince,2003,,Rutgers University Press,,343,0,English,Искусство//Кинематография,,0,"9780813532806,0813532809,0813532817",,,,,791.43/6,PN1995.9.V5 P75 2003,,,OL22553275M,,0,,,,,,,T,5265501,pdf,0D53A7C6BE5C75BCEBF819A5CC46B809,,,,0,2000-01-01 01:00:00,2016-04-03 02:51:08,255000/0d53a7c6be5c75bcebf819a5cc46b809-d.jpg,,
5692907,Coming to the Edge of the Circle: A Wiccan Initiation Ritual,,American Academy of Religion Academy,,Nikki Bado-Fralick,2005,illustrated edition,An American Academy of Religion Book,,194,0,English,Религия,,0,"9780195166453,0195166450",,,,,299/.94,BL615 .B33 2005,,,OL3392681M,,0,,,,,,,1,2631797,pdf,0CC4407966D6D4C63ACFB0F9FCFB7BD8,,,,0,2000-01-01 01:00:00,2016-04-03 02:51:08,255000/0cc4407966d6d4c63acfb0f9fcfb7bd8-d.jpg,,
5692908,Handbook of Islamic Banking,,Elgar Original Reference,,"M. Kabir Hassan, Mervyn K. Lewis",2007,,Edward Elgar Publishing,,462,0,English,,ebook3000.com,0,"1845420837,9781845420833",,,,,,,,,OL9343862M,,0,,,,,,,T,1943645,pdf,0CC5F86869C1D02932800883BE63B2A6,,,,0,2000-01-01 01:00:00,2016-04-03 02:51:08,255000/0cc5f86869c1d02932800883be63b2a6-d.jpg,,
5692906,Med-surg Success: A Course Review Applying Critical Thinking to Test Taking,,,,Colgrove,2006,1,F A Davis Co,,687,0,English,,,0,"9780803615762,0803615760",,,,,610.73/076,RD99.25 .C65 2007,,,OL24966827M,,0,,,,,,,,28450857,pdf,0BCD63CB9E4CBF85A013683C6FB1CAE0,,,,0,2000-01-01 01:00:00,2016-04-03 02:51:08,255000/0bcd63cb9e4cbf85a013683c6fb1cae0-d.jpg,,
5692904,The Unofficial MacGyver How-To Handbook: Revised 2nd Edition,,,,"Bret Terrill, Greg Dierkers",2005,2nd edition,American International Press,,194,0,English,,,0,"1887641475,9781887641470",,,,,,,,,OL8708675M,,0,,,,,1,,T,3375502,pdf,0B2AC7FB2326FFBE78976BCAF7EC594C,,,,0,2000-01-01 01:00:00,2016-04-03 02:51:08,255000/0b2ac7fb2326ffbe78976bcaf7ec594c-d.jpg,,
5692905,Werewolf the Rage (PG)  (Werewolf: The Forsaken),,PG Werewolf: The Forsaken ,,"Aaron Demski-Bowden, Jonathan McFarland, Adam Tinworth, Chuck Wendig, Stewart Wilson",2007,illustrated edition,White Wolf Publishing,,220,0,English,,,0,"1588463389,9781588463388",,,,,,,,,OL8829493M,,0,,,,,,,,16116305,pdf,0BC46E7425F3B724C5BA1934C68E51CA,,,,0,2000-01-01 01:00:00,2016-04-03 02:51:08,255000/0bc46e7425f3b724c5ba1934c68e51ca-d.jpg,,
5692902,101 Ways to Really Satisfy Your Customers: How to Keep Your Customers and Attract New Ones,,101 . . . Series,,Andrew Griffiths,2007,,Allen & Unwin,,255,0,English,Образование,,0,"9781741750089,1741750083",,,,,,,,,OL8908039M,,0,,,,,,,T,1109711,pdf,0A8C4E9AFFAD17DC537F9E3BC6B0CCD5,,,,0,2000-01-01 01:00:00,2016-04-03 02:51:08,255000/0a8c4e9affad17dc537f9e3bc6b0ccd5-d.jpg,,
5692903,Light Years and Time Travel: An Exploration of Mankind's Enduring Fascination With Light,,,,Brian Clegg,2002,1,John Wiley & Sons,,321,0,English,,,0,"9780471211822,0471211826",,,,,,,,,OL17037666M,,0,,,,,,,T,2576088,pdf,0AAE941DC6AB82AA6FFD8CC3524DF0C6,,,,0,2000-01-01 01:00:00,2016-04-03 02:51:08,255000/0aae941dc6ab82aa6ffd8cc3524df0c6-d.jpg,,
5692900,Alanis Obomsawin: The Vision of a Native Filmmaker,,American Indian Lives ,,Randolph Lewis,2006,1,University of Nebraska Press,,289,0,English,,,0,"0803229631,9780803229631,9780803256286",,,,,791.4302/33092,PN1998.3.O24 2006,,,OL3295538M,,0,,,,,1,,T,4768201,pdf,094E9A696F806125FCE1F1EA56F36023,,,,0,2000-01-01 01:00:00,2016-04-03 02:51:08,255000/094e9a696f806125fce1f1ea56f36023-d.jpg,,
5692901,101 Option Trading Secrets,,,,Kenneth R. Trester,2003,,Institute for Options Research,,336,0,English,Бизнес//Трейдинг,,0,"9780960491445,0960491449",,,,,,,,,OL8514703M,,0,,,,,,,T,3311116,pdf,0A84DE5EC078E0D189E6EC01462E55F6,,,,0,2000-01-01 01:00:00,2016-04-03 02:51:08,255000/0a84de5ec078e0d189e6ec01462e55f6-d.jpg,,
5692899,Rethinking the Mediterranean,,,,W. V. Harris,2005,,"Oxford University Press, USA",,435,0,English,Экономика,,0,"9780199265459,0199265453",,,,,,,,,OL15570029M,,0,,,,,,,,6375372,pdf,08F9F7D0B9795576B5B605AF4AD74F87,,,,0,2000-01-01 01:00:00,2016-04-03 02:51:08,255000/08f9f7d0b9795576b5b605af4ad74f87-d.jpg,,
5692897,The Language of Demons and Angels: Cornelius Agrippa's Occult Philosophy,,Brill's Studies in Intellectual History,,Christopher I. Lehrich,2003,,Brill Academic Publishers,,265,0,English,"Религия//Эзотерика, мистика",,0,"9789004135741,900413574X,2003055665",,,,,,,,,OL9084784M,,0,,,,,,,T,2294578,pdf,0857927480005CB4BEC93894569005CC,,,,0,2000-01-01 01:00:00,2016-04-03 02:51:08,255000/0857927480005cb4bec93894569005cc-d.jpg,,
5692898,Subprime Mortgage Credit Derivatives,,Frank J. Fabozzi Series,,"Laurie S. Goodman, Shumin Li, Douglas J. Lucas, Thomas A. Zimmerman, Frank J. Fabozzi CFA",2008,,Wiley,,336,0,English,,,0,"047024366X,9780470243664",,,,,332.63/244,HG2040.15 .S825 2008,,,OL10295356M,,0,,,,,,,T,2141664,pdf,088BEB5218D1DF4BAA12D6D0C4E06D7C,,,,0,2000-01-01 01:00:00,2016-04-03 02:51:08,255000/088beb5218d1df4baa12d6d0c4e06d7c-d.jpg,,
5692896,Jargon: An Informal Dictionary of Computer Terms,,,,"Robin Williams, Steve Cummings",1993,,Peachpit Press,,684,0,English,Компьютеры,,0,"9780938151845,0938151843",,,,,,,,,OL8416343M,,0,,,,,,,T,10493911,pdf,0818C206E892B5F003C7CC35777D0FF4,,,,0,2000-01-01 01:00:00,2016-04-03 02:51:08,255000/0818c206e892b5f003c7cc35777d0ff4-d.jpg,,
5692894,ASP.NET Developer's Cookbook,,,,"Steven A. Smith, Rob Howard",2003,,Sams,,454,0,English,Компьютеры//Программирование//Языки программирования,ebook3000.com,0,"9780672325243,0672325241",,,,,006.7/76,TK5105.8885.A26 S65 2003,,,OL3694643M,,0,,,,,,,T,1589909,pdf,07917A9846821AB8BDC1DF3A97F8290A,,,,0,2000-01-01 01:00:00,2016-04-03 02:51:08,255000/07917a9846821ab8bdc1df3a97f8290a-d.jpg,,
5692895,Mathematical Circus,,Spectrum,,Martin Gardner,1996,Subsequent,The Mathematical Association of America,,295,0,English,Математика,,0,"9780883855065,0883855062",,,,,793.7/4,QA95 .G287 1992,,,OL1746889M,,0,,,,,1,,T,14890077,pdf,07D83BDBA922525CEC8E020263B518BD,,,,0,2000-01-01 01:00:00,2016-04-03 02:51:08,255000/07d83bdba922525cec8e020263b518bd-g.jpg,,
5692893,"Kiplinger's Practical Guide to Your Money, Revised and Updated: Keep More of It, Make it Grow, Enjoy It, Protect It, Pass It On",,,,Ted Miller,2002,Rev&Updtd,Kiplinger Books,,570,0,English,Экономика,,0,"9780938721932,0938721933",,,,,,,,,OL8417485M,,0,,,,,,,T,1457831,pdf,0735FE1C7BD8F754707229C9761422BB,,,,0,2000-01-01 01:00:00,2016-04-03 02:51:08,255000/0735fe1c7bd8f754707229c9761422bb-d.jpg,,
5692891,Vaccinia Virus and Poxvirology: Methods and Protocols,,Methods in Molecular Biology 269,,Stuart N. Isaacs,2004,1,Humana Press,,417,0,English,Биология,,0,"9781588292292,1588292290,1592597890",,,,,,,,,OL17127902M,,0,,,,,,,,8546886,pdf,06C3A2D599A4AC06193636B7A4FB4156,,,,0,2000-01-01 01:00:00,2016-04-03 02:51:08,255000/06c3a2d599a4ac06193636b7a4fb4156-d.jpg,,
5692892,Writing Feature Stories: How to Research and Write Newspaper and Magazine Articles,,,,Matthew Ricketson,2004,,Allen & Unwin,,301,0,English,,,0,"9781865087320,1865087327",,,,,070.4/4,PN4784.F37 R53 2004,,,OL3466019M,,0,,,,,,,T,3467698,pdf,06FFCA120896EE7CB9FAEA7C7F8BBC7C,,,,0,2000-01-01 01:00:00,2016-04-03 02:51:08,255000/06ffca120896ee7cb9faea7c7f8bbc7c-d.jpg,,
5692890,The Leadership Training Activity Book: 50 Exercises for Building Effective Leaders,,,,"Lois B. Hart Ed.D., Charlotte S. Waisman Ph.D.",2004,1st,AMACOM,,337,0,English,Наука (общее)//Научно-популярное,,0,"9780814472620,0814472621",,,,,,,,,OL8043321M,,0,,,,,,,,1969356,pdf,067EA9CDD030862E1E9D924CF86B140D,,,,0,2000-01-01 01:00:00,2016-04-03 02:51:08,255000/067ea9cdd030862e1e9d924cf86b140d-d.jpg,,
5692888,Beginning OpenGL Game Programming,,Game Development Series,,"Dave Astle, Kevin Hawkins",2004,1,Course Technology PTR,,338,0,English,Компьютеры//Программирование//Библиотеки API,,0,"9781592003693,1592003699",,,,,,,,,OL22146719M,,0,,,,,,,T,5786775,pdf,063894571E8C32DEF40CD950D7E8705D,,,,0,2000-01-01 01:00:00,2016-04-03 02:51:08,255000/063894571e8c32def40cd950d7e8705d-d.jpg,,
5692889,"The Biology Of Belief: Unleashing The Power Of Consciousness, Matter And Miracles",,,,Bruce H. Lipton,2005,,Mountain of Love,,221,0,English,Биология,duansci.com,0,"0975991477,9781401923112,9781401923129,9780975991473,1401923119,1401923127",,,,,599.93/5,QH581.2 .L56 2008,,,OL24966458M,,0,,,,,1,,,25546624,pdf,06619F1A4CA91905F1AA208DBA92891C,,,,0,2000-01-01 01:00:00,2016-04-03 02:51:08,255000/06619f1a4ca91905f1aa208dba92891c-d.jpg,,
5692887,"The New Rules of Marketing and PR: How to Use News Releases, Blogs, Podcasting, Viral Marketing and Online Media to Reach Buyers Directly",,,,David Meerman Scott,2007,,Wiley,,305,0,English,,,0,"0470113456,9780470113455",,,,,658.8/72,HF5415.1265 .S393 2007,,,OL19682698M,,0,,,,,,,T,2537185,pdf,057B99448D189896D62267312488A39A,,,,0,2000-01-01 01:00:00,2016-04-03 02:51:08,255000/057b99448d189896d62267312488a39a-d.jpg,,
5692885,Japanese Candlestick Charting Techniques: A Contemporary Guide to the Ancient Investment Techniques of the Far East,,,,Steve Nison,1991,,New York Institute of Finance,,330,0,English,История,,0,"9780139316500,0139316507",,,,,332.63/222/0952,HG4638 .N57 1991,,,OL1864784M,,0,,,,,,,T,5016784,pdf,04F17C7166BFCEAA6A18A595DF44D9B3,,,,0,2000-01-01 01:00:00,2016-04-03 02:51:08,255000/04f17c7166bfceaa6a18a595df44d9b3-d.jpg,,
5692886,Big Book of Independent Thinking: Do Things No One Does or Do Things Everyone Does in a Way No One Does,,Independent Thinking Series,,Ian Gilbert,2006,,Crown House Publishing,,192,0,English,Наука (общее)//Научно-популярное,,0,"1904424384,9781904424383",,,,,,,,,OL8771575M,,0,,,,,,,T,1622100,pdf,04FFC5A8B867D6CBE1EB7EF520A7CE34,,,,0,2000-01-01 01:00:00,2016-04-03 02:51:08,255000/04ffc5a8b867d6cbe1eb7ef520a7ce34-d.jpg,,
5692884,"Assessment Methods in Recruitment, Selection & Performance: A Managers Guide to Psychometric Testing, Interviews and Assessment Centres",,,,Robert Edenborough,2005,,Kogan Page,,320,0,English,,ebook3000.com,0,"9780749442941,0749442948",,,,,658.3/125,HF5549.5.R3 E32 2005,,,OL3394262M,,0,,,,,,,1,3228691,pdf,03D2EF15FEE36AEE77A68D3932DCF693,,,,0,2000-01-01 01:00:00,2016-04-03 02:51:08,255000/03d2ef15fee36aee77a68d3932dcf693-d.jpg,,
5692882,Dean LeBaron's Treasury of Investment Wisdom: 30 Great Investing Minds,,,,"Dean LeBaron, Romesh Vaitilingam",2001,1,Wiley,,320,0,English,Образование//Энциклопедии,,0,"9780471152941,0471152943",,,,,,,,,OL7612579M,,0,,,,,,,T,1299323,pdf,02FC78DE2FE36651BBE0C9C6D20AE652,,,,0,2000-01-01 01:00:00,2016-04-03 02:51:08,255000/02fc78de2fe36651bbe0c9c6d20ae652-d.jpg,,
5692883,A History of British Fossil Mammals and Birds,,,,Richard Owen,2010,,Velikovsky Press,London,620,0,English,История,,0,"9781446035207,1446035204",,,,,,,,,,,0,0,0,,,,,,24721978,pdf,03617F4C95FFAB8ACD6CFA87E1F2C8E0,,,,0,2000-01-01 01:00:00,2016-04-03 02:51:08,255000/03617f4c95ffab8acd6cfa87e1f2c8e0-d.jpg,,
5692881,The Genetic Gods: Evolution and Belief in Human Affairs,,,,John C. Avise,1998,1,Harvard University Press,,287,0,English,Биология//Генетика,,0,"9780674346253,0674346254",,,,,576,QH437 .A95 1998,,,OL344296M,,0,,,,,,,T,1961436,pdf,02E0E2A33940B6A9327E452EBBCAF77C,,,,0,2000-01-01 01:00:00,2016-04-03 02:51:08,255000/02e0e2a33940b6a9327e452ebbcaf77c-d.jpg,,
5692879,Zhuan Falun,,Revolving the Law Wheel,,Hongzhi Li,1999,3rd,Universe Pub Ny Corp,,188,0,Mandarin Chinese,,,0,"9781586131012,158613101X",,,,,,,,,OL21857153M,,0,,,,,,,T,913789,pdf,0280F8D394517142EB303FBD3124EB7C,,,,0,2000-01-01 01:00:00,2016-04-03 02:51:08,255000/0280f8d394517142eb303fbd3124eb7c-d.jpg,,
5692880,Neptune's Ark: From Ichthyosaurs to Orcas,,,,"David Rains Wallace, Ken Kirkland",2007,1,University of California Press,,314,0,English,Биология//Палеонтология,,0,"0520243226,9780520243224,1615141312111",,,596.0979,,,,,,OL22753327M,,0,0,0,,,,,T,3513223,pdf,02B16DEA29CB755C1D54C6DEE819FD65,,,,0,2000-01-01 01:00:00,2016-04-03 02:51:08,255000/02b16dea29cb755c1d54c6dee819fd65-d.jpg,,
5692877,Wiki: Kooperation im Web (Xpert.press),,Xpert.press ,,"Anja Ebersbach, Markus Glaser, Richard Heigl, Alexander Warta, Andrea Adelung, Gunter Dueck",2008,2nd ed.,Springer,,480,0,German,Компьютеры//Сети//Интернет,ebook3000.com,0,"3540351507,9783540351504",,,,,,,,,OL19065481M,not,0,,,,,,,1,20043713,pdf,023556C21BDE002D4C9C18D8C42D940B,,,,0,2000-01-01 01:00:00,2016-04-03 02:51:08,255000/023556c21bde002d4c9c18d8c42d940b-d.jpg,,
5692878,Colour Perception: Mind and the Physical World,,,,"Rainer Mausfeld, Dieter Heyer",2004,1,"Oxford University Press, USA",,546,0,English,Физика,,0,"0198505000,9780198505006,9781423701088",,,,,152.14/5,BF241 .C63 2003,,,OL22558896M,,0,,,,,1,,,5614023,pdf,0243C0F3F41475220BF3CB9AAE2C8545,,,,0,2000-01-01 01:00:00,2016-04-03 02:51:08,255000/0243c0f3f41475220bf3cb9aae2c8545-d.jpg,,
5692876,The Complete Q&A Job Interview Book,,,,Jeffrey G. Allen,2004,4,Wiley,,258,0,English,,,0,"9780471651253,0471651257",,,,,650.14/4,HF5549.5.I6 A43 2004,,,OL3691896M,,0,,,,,,,T,5749089,pdf,010378BC76146479BD5383B0E4E99F4A,,,,0,2000-01-01 01:00:00,2016-04-03 02:51:08,255000/010378bc76146479bd5383b0e4e99f4a-d.jpg,,
5692875,A Short History of Indonesia: The Unlikely Nation?,,A Short History of Asia series ,,Colin Brown,2004,illustrated edition,Allen & Unwin,,289,0,English,История,,0,"9781865088389,1865088382",,,,,959.8,DS634 .B67 2003,,,OL3326655M,,0,,,,,,,T,4879605,pdf,00A5EBD7974EA04A675251E400D39309,,,,0,2000-01-01 01:00:00,2016-04-03 02:51:08,255000/00a5ebd7974ea04a675251e400d39309-d.jpg,,
5692874,Achieving Success in Second Language Acquisition,,,,"Betty Lou Leaver, Madeline Ehrman, Boris Shekhtman",2005,,Cambridge University Press,,281,0,English,,,0,"0521837510,9780521837514,9780511113420",,,,,418,P118.2 .L43 2004,,,OL3308622M,,0,,,,,1,,T,2056013,pdf,007FBAEEA96E8FBC07EBA1EFEA7FB8AA,,,,0,2000-01-01 01:00:00,2016-04-03 02:51:08,255000/007fbaeea96e8fbc07eba1efea7fb8aa-d.jpg,,
5692872,Cancer Modelling and Simulation,,Chapman & Hall/CRC Mathematical & Computational Biology,,Luigi Preziosi,2003,1,CRC Press,,437,0,English,Медицина//Онкология,,0,"9781584883616,1584883618",,,,,616.99/4/00113,RC267 .C3645 2003,,,OL20526520M,,0,,,,,,,1,6950301,pdf,005ACA33B99B3BE4937873CA1E8FE1A3,,,,0,2000-01-01 01:00:00,2016-04-03 02:51:08,255000/005aca33b99b3be4937873ca1e8fe1a3-d.jpg,,
5692873,"Heparin-Induced Thrombocytopenia, Fourth Edition",,Fundamental and Clinical Cardiology,,"Theodore E. Warkentin, Andreas Greinacher",2007,4,Informa Healthcare,,590,0,English,Медицина//Клиническая медицина,,0,"1420045083,9781420045086",,,,,616.1/5,RM666.H28 H47 2007,,,OL17854433M,,0,,,,,,,T,12589822,pdf,0072A21FD6EBC1230E76744F5A1D063B,,,,0,2000-01-01 01:00:00,2016-04-03 02:51:08,255000/0072a21fd6ebc1230e76744f5a1d063b-d.jpg,,
5692871,Theories of Visual Perception,,,,Ian E. Gordon,2004,3,Psychology Press,,271,0,English,Биология,,0,"9781841693835,1841693839,0203502256,0203595343",,,,,152.14,BF241 .G67 2004,,,OL22603251M,,0,,,,,,,T,4380832,pdf,002986F69AAB9DC4EAA2A757FBCB1704,,,,0,2000-01-01 01:00:00,2016-04-03 02:51:08,255000/002986f69aab9dc4eaa2a757fbcb1704-d.jpg,,
5692869,Learning Ext JS,,,,"Shea Frederick, Colin Ramsay, Steve 'Cutter' Blades",2008,,Packt Publishing,,324,0,English,Образование,,0,"9781847195142,1847195148",,,,,,,,,,,0,,,,,1,,T,5236552,pdf,FFBB7DD28F2E3017170492E038B8CC44,,,,0,2000-01-01 01:00:00,2016-04-03 02:51:08,254000/ffbb7dd28f2e3017170492e038b8cc44-d.jpg,,
5692870,The Jossey-Bass Reader on Nonprofit and Public Leadership,,Essential Texts for Nonprofit and Public Leadership and Management,,"Jossey-Bass Publishers, James L. Perry, James M. Kouzes",2009,1 Pap/Pas,Jossey-Bass,,689,0,English,,,0,"0470479493,9780470479490",,,,,658.4/092,HD57.7 .J67 2009,,,OL23668294M,,0,,,,,1,,T,2915391,pdf,FFDAD5F180881E01205CD23AF130CBAD,,,,0,2000-01-01 01:00:00,2016-04-03 02:51:08,254000/ffdad5f180881e01205cd23af130cbad-d.jpg,,
5692868,Advances in Inorganic Chemistry,Volume 55,,,Rudi van Eldik,2004,1,Academic Press,,459,0,English,Химия//Неорганическая химия,,0,"0120236559,9780120236558,9780080493664",,,,,,,,,OL7325207M,,0,0,0,,,1,,T,5773768,pdf,FF9D22FF00A321FB612D84619E1D5D33,,,,0,2000-01-01 01:00:00,2016-04-03 02:51:08,254000/ff9d22ff00a321fb612d84619e1d5d33-d.jpg,,
5692866,Superpower Rivalry and Conflict: The Long Shadow of the Cold War on the 21st Century,,Routledge Advances in International Relations and Global Politics,,Chandra Chari,2010,1,Routledge,,278,0,English,,,0,"0415550254,9780415550253",,,,,909.83/1,D863.3 .S87 2010,,,OL23235736M,,0,,,,,1,,,1560197,pdf,FF14FEA73694DF3E825B9BF1B4F52FC6,,,,0,2000-01-01 01:00:00,2016-04-03 02:51:08,254000/ff14fea73694df3e825b9bf1b4f52fc6-d.jpg,,
5692867,Fine Cuts: The Art of European Film Editing,,,,Roger Crittenden,2005,,Focal Press,,417,0,English,,ebook3000.com,0,"9780240516844,0240516842",,,,,778.535094,,,,OL22716871M,,0,,,,,,,T,10849038,pdf,FF8E0315EB3DEE9C6DCB6D323D5581AB,,,,0,2000-01-01 01:00:00,2016-04-03 02:51:08,254000/ff8e0315eb3dee9c6dcb6d323d5581ab-d.jpg,,
5692864,Performativity and Performance,,Essays from the English Institute,,"Andrew Parker, Eve Kosofsky Sedgwick",1995,,Routledge,,125,0,English,,,0,"0415910544,9780415910545,0415910552,9780415910552",,,,,401/.41,P95.55 .P47 1995,,,OL1098339M,,0,,,,,1,,,18934960,pdf,FEDD24012DF72EF041A7BCCF6E9E1629,,,,0,2000-01-01 01:00:00,2016-04-03 02:51:08,254000/fedd24012df72ef041a7bccf6e9e1629-g.jpg,,
5692865,The Chattel Principle: Internal Slave Trades in the Americas,,David Brion Davis Gilder Lehrman ,,Walter Johnson,2005,,Yale University Press,,400,0,English,,ebook3000.com,0,"9780300103557,0300103557",,,,,306.3/62/091812,E449 .C48 2004,,,OL18485116M,,0,,,,,,,T,10620023,pdf,FEE23DD75C3BB3762668E9E64EE29B1D,,,,0,2000-01-01 01:00:00,2016-04-03 02:51:08,254000/fee23dd75c3bb3762668e9e64ee29b1d-d.jpg,,
5692863,Nuclear Logics: Contrasting Paths in East Asia and the Middle East,,Princeton Studies in International History and Politics,,Etel Solingen,2007,,Princeton University Press,,421,0,English,Математика//Математическая логика,ebook3000.com,0,"0691134685,9780691134680,0691131473,9780691131474",,,,,355.02/17095,JZ5675 .S665 2007,,,OL11182959M,,0,,,,,1,,T,2187728,pdf,FE4C61F3E33A4AE8E964DE043BD2156D,,,,0,2000-01-01 01:00:00,2016-04-03 02:51:08,254000/fe4c61f3e33a4ae8e964de043bd2156d-d.jpg,,
5692861,The Practice of Construction Management: Third  Edition,,,,Barry Fryer,1997,3 Sub,Wiley-Blackwell,,304,0,English,Бизнес//менеджмент,ebook3000.com,0,"9780632041428,0632041420,0632038977,0632038624,0632040718,0632039248,0632028165",,,,,624/.068,HD9715.A2 F79 1997,,,OL1003098M,,0,,,,,,,,5292312,pdf,FD9786EAC212BE471BD0C7933817C447,,,,0,2000-01-01 01:00:00,2016-04-03 02:51:08,254000/fd9786eac212be471bd0c7933817c447-d.jpg,,
5692862,"Context-Aware Mobile Computing: Affordances of Space, Social Awareness, and Social Influence",,Synthesis Lectures on Human-Centered Informatics,,Geri Gay,2009,1,Morgan and Claypool Publishers,,72,0,English,Компьютеры//Организация и обработка данных,ebook3000.com,0,"1598299905,9781598299908,9781598299915",,,,,,,,,,,0,,,,,,,1,2126813,pdf,FDEA31DAE01785D6CBB3461A90F63FCC,,,,0,2000-01-01 01:00:00,2016-04-03 02:51:08,254000/fdea31dae01785d6cbb3461a90f63fcc-d.jpg,,
5692860,Astrophysics: Decoding the Cosmos,,,,Judith Ann Irwin,2007,,Wiley,,456,0,English,Физика,,0,"0470013052,9780470013052,0471485705,9780470013069",,,,,523.01,QB461 .I79 2007,,,OL17179554M,,0,,,,,,,T,13871800,pdf,FCBDE3038F508DB2B0D0BF2553575D33,,,,0,2000-01-01 01:00:00,2016-04-03 02:51:08,254000/fcbde3038f508db2b0d0bf2553575d33-d.jpg,,
5692858,Foundation ActionScript 3.0 Image Effects,,Foundations,,Todd Yard,2009,1,friendsofED,,684,0,English,Компьютеры//Сети//Интернет,,0,"1430218711,9781430218715",,,,,,,,,,,0,,,,,1,,T,8753261,pdf,FC94EF7D01CD878BB10D065E70F083E1,,,,0,2000-01-01 01:00:00,2016-04-03 02:51:08,254000/fc94ef7d01cd878bb10d065e70f083e1-d.jpg,,
5692859,Professional C# (Beta 2 Edition),,,,"Simon Robinson, Burt Harvey, Craig McQueen, Christian Nagel, Morgan Skinner, Jay Glynn, Karli Watson, Ollie Cornes, Jerod Moemeka",2001,Beta 2,Wrox Press,,516,0,English,Компьютеры//Программирование//Языки программирования,,0,"9781861004994,1861004990,5855821870",,,,,,,,,OL18379411M,,0,,,,,,,T,20412568,djvu,FC9895C89A0A029474337DF9F9B173A5,,,,0,2000-01-01 01:00:00,2016-04-03 02:51:08,254000/fc9895c89a0a029474337df9f9b173a5-d.jpg,,
5692857,"Nationalism, Positivism and Catholicism: The Politics of Charles Maurras and French Catholics 1890-1914 (Cambridge Studies in the History and Theory of Politics)",,Cambridge Studies in the History and Theory of Politics ,,Michael Sutton,2002,,Cambridge University Press,,344,0,English,История,,0,"9780511558610,0521893402,0521228689,0511558619,9780521228688,9780521893404",,,,,"944.081/092/4,B",DC340 .S95 1982,,,OL3484857M,,0,,,,,1,,T,2021185,djvu,FC8E58E36924D2B92EF980D77931F635,,,,0,2000-01-01 01:00:00,2016-04-03 02:51:08,254000/fc8e58e36924d2b92ef980d77931f635-d.jpg,,
5692856,Breakthrough Technology Project Management,,E-Business Solutions,,"Bennet P. Lientz, Kathryn P. Rea",2000,2,Butterworth-Heinemann,,368,0,English,Бизнес//Менеджмент//Управление проектами,ebook3000.com,0,"9780124499683,0124499686",,,,,658.4/04,HD69.P75 L538 2001,,,OL6799144M,,0,,,,,,,T,7259140,pdf,FC6EE2B473B4D518BB94BA383D87399A,,,,0,2000-01-01 01:00:00,2016-04-03 02:51:08,254000/fc6ee2b473b4d518bb94ba383d87399a-d.jpg,,
5692854,Foundation Silverlight 2 Animation,,,,Jeff Paries,2008,1,friendsofED,,426,0,English,Компьютеры//Мультимедиа,,0,"1430215690,9781430215691",,,,,006.7,QA76.575 .P347 2009,,,OL25092015M,,0,,,,,1,,,4152791,pdf,FC4FA4611E268DB9192945E88086FA30,,,,0,2000-01-01 01:00:00,2016-04-03 02:51:08,254000/fc4fa4611e268db9192945e88086fa30-d.jpg,,
5692855,Head First JavaScript,,,,Michael Morrison,2008,1,O'Reilly Media,,621,0,English,Компьютеры//Программирование//Языки программирования,,0,"0596527748,9780596527747",,,,,005.13/3,QA76.73.J39 M67 2008,,,OL18590894M,,0,,,,,,,T,33446242,pdf,FC6861FC865006373AB1C68DE791424F,,,,0,2000-01-01 01:00:00,2016-04-03 02:51:08,254000/fc6861fc865006373ab1c68de791424f-d.jpg,,
5692852,Process Systems Risk Management,,Process Systems Engineering 6,,"Ian T. Cameron, R. Raman",2005,,Academic Press,,631,0,English,Бизнес//менеджмент,,0,"9780121569327,0121569322,1865843830,2076315500",,,,,,,,,OL23156037M,,0,,,,,,,T,41714143,pdf,FC255F428EB50B3AA226A1CBA061A9F6,,,,0,2000-01-01 01:00:00,2016-04-03 02:51:08,254000/fc255f428eb50b3aa226a1cba061a9f6-d.jpg,,
5692853,"The National Basketball League: A History, 1935-1949",,,,Murry R. Nelson,2009,First Edition,McFarland,,295,0,English,История,ebook3000.com,0,"0786440066,9780786440061",,,,,796.323/640973,GV885.515.N37 N45 2009,,,OL23180124M,,0,,,,,,,T,2334652,pdf,FC476EF21547852EAA6DF9D6A9ED488E,,,,0,2000-01-01 01:00:00,2016-04-03 02:51:08,254000/fc476ef21547852eaa6df9d6a9ed488e-d.jpg,,
5692851,Tricks of the 3D Game Programming Gurus-Advanced 3D Graphics and Rasterization,,Other Sams,,Andre LaMothe,2003,,Sams,,1691,0,English,Компьютеры//Мультимедиа,,0,"9780672318351,0672318350",,,,,794.8/1526,QA76.76.C672 L3613 2003,,,OL55187M,,0,,,,,,,,50564372,pdf,FBFF257EF230EB163C118F63AD85E981,,,,0,2000-01-01 01:00:00,2016-04-03 02:51:08,254000/fbff257ef230eb163c118f63ad85e981-d.jpg,,
5692849,Ext JS 3.0 Cookbook,,,,Jorge Ramon,2009,,Packt Publishing,,375,0,English,Компьютеры//Сети//Интернет,,0,"1847198708,9781847198709",,,,,,,,,,,0,,,,,,,,4103629,pdf,FAA39EBF860F661C714A0F3B944281B9,,,,0,2000-01-01 01:00:00,2016-04-03 02:51:08,254000/faa39ebf860f661c714a0f3b944281b9-d.jpg,,
5692850,Ben Roethlisberger,,Football Superstars,,Rachel A. Koestler-Grack,2008,1,Chelsea House Publications,,137,0,English,Искусство//Графические виды искусства,ebook3000.com,0,"0791098370,9780791098370,9781438117362",,,,,"796.332092,B",GV939.R623 K64 2008,,,OL16700770M,,0,,,,,1,,T,7386257,pdf,FB9D3EE714BB18B5F7DFA394BD50D7B5,,,,0,2000-01-01 01:00:00,2016-04-03 02:51:08,254000/fb9d3ee714bb18b5f7dfa394bd50d7b5-d.jpg,,
5692847,Action Reflection Learning (TM): Solving Real Business Problems by Connecting Learning with Earning,,,,"Isabel Rimanoczy, Ernie Turner",2008,,Nicholas Brealey Boston,,273,0,English,Образование,ebook3000.com,0,"0891062408,9780891062400",,,,,374,LC5225.E57 R56 2008,,,OL11274585M,,0,,,,,1,,T,1964539,pdf,FA668CC47027A0E7887CB66665FA22E6,,,,0,2000-01-01 01:00:00,2016-04-03 02:51:08,254000/fa668cc47027a0e7887cb66665fa22e6-d.jpg,,
5692848,Pro Django,,Expert's Voice in Web Development,,Marty Alchin,2008,1,Apress,,312,0,English,Компьютеры//Программирование//Языки программирования,,0,"1430210478,9781430210474,9781430210481",,,,,006.7/6,TK5105.888 .A3747 2009,,,OL24420983M,,0,,,,,,,,1218523,pdf,FA95B79074C1C85C0F323FFB2FC68534,,,,0,2000-01-01 01:00:00,2016-04-03 02:51:08,254000/fa95b79074c1c85c0f323ffb2fc68534-d.jpg,,
5692845,The Design of Modern Steel Bridges,,,,Sukhen Chatterjee,2003,2,Wiley-Blackwell,,226,0,English,,ebook3000.com,0,"9780632055111,0632055111",,,,,624.25,TG380 .C46 2003,,,OL18498583M,,0,,,,,,,1,2441931,pdf,F9C921EA31A87EFAA71E13EE26D6F081,,,,0,2000-01-01 01:00:00,2016-04-03 02:51:08,254000/f9c921ea31a87efaa71e13ee26d6f081-d.jpg,,
5692846,Mastering Joomla! 1.5 Extension and Framework Development: The Professional Guide to Programming Joomla!,,,,James Kennard,2007,,Packt Publishing,,486,0,English,Компьютеры//Web-дизайн,,0,"1847192823,9781847192820",,,,,,,,,OL11916245M,,0,,,,,,,T,12217970,pdf,F9CEBCE745428F0EC655224A9F5207F7,,,,0,2000-01-01 01:00:00,2016-04-03 02:51:08,254000/f9cebce745428f0ec655224a9f5207f7-d.jpg,,
5692843,PHP глазами хакера,,,,Михаил Фленов,2005,,БХВ-Петербург,,305,0,Russian,Компьютеры//Программирование//Языки программирования,,0,5-94157-673-0,,,,,,,,,,,0,,,,,,,T,26335268,pdf,F96A18604AA49A188F5AF35A4C22195B,,,,0,2000-01-01 01:00:00,2016-04-03 02:51:08,254000/f96a18604aa49a188f5af35a4c22195b-g.jpg,,
5692844,Beginning Math and Physics for Game Programmers,,,,Wendy Stahler,2004,,New Riders Games,,593,0,English,Физика,,0,"9780735713901,0735713901,3174283280",,,,,,,,,OL7891595M,,0,,,,,,,T,46671731,pdf,F979297D3D3D5BC2AFB4B4DA8BFAB2A5,,,,0,2000-01-01 01:00:00,2016-04-03 02:51:08,254000/f979297d3d3d5bc2afb4b4da8bfab2a5-d.jpg,,
5692841,Moodle 1.9 E-Learning Course Development: A complete guide to successful learning using Moodle,,,,William Rice,2008,1,Packt Publishing,,385,0,English,Образование,,0,"1847193536,9781847193537",,,,,,,,,,,0,,,,,,,T,15511761,pdf,F7EC61B4B8BF33EE271B0507E1C3D7F6,,,,0,2000-01-01 01:00:00,2016-04-03 02:51:08,254000/f7ec61b4b8bf33ee271b0507e1c3d7f6-d.jpg,,
5692842,Building Web Applications with UML,,The Addison-Wesley Object Technology Series,,"Jim Conallen, Jim Conallen",1999,1st,Addison Wesley Longman,,247,0,English,Компьютеры//Сети//Интернет,,0,"9780201615777,0201615770",,,,,005.7/2,TK5105.888 .C654 1999,,,OL24745267M,,0,,,,,,,T,2986765,pdf,F9182F4C98085CF2C5A34A7636CB8911,,,,0,2000-01-01 01:00:00,2016-04-03 02:51:08,254000/f9182f4c98085cf2c5a34a7636cb8911-d.jpg,,
5692839,"Building Websites with VB.NET and DotNetNuke 4: A practical guide to creating and maintaining your own DotNetNuke website, and developing new modules and skins",,,,"Daniel N. Egan, Steve Valenzuela, Michael Washington",2006,,Packt Publishing,,334,0,English,Компьютеры//Сети//Интернет,,0,"9781904811992,190481199X",,,,,,,,,OL8773743M,,0,,,,,,,T,9515007,pdf,F7899A540F1712C3E98BAF00F652865A,,,,0,2000-01-01 01:00:00,2016-04-03 02:51:08,254000/f7899a540f1712c3e98baf00f652865a-d.jpg,,
5692840,The Marine Electrical and Electronics Bible,,,,John C. Payne,2007,3rd,Sheridan House,,126,0,English,Техника//Электроника//Электротехника,ebook3000.com,0,"9781574092424,1574092421",,,,,,,,,OL8740396M,,0,,,,,,,T,9500059,pdf,F7C919449AA5A6BF738D7939ED546CD2,,,,0,2000-01-01 01:00:00,2016-04-03 02:51:08,254000/f7c919449aa5a6bf738d7939ed546cd2-d.jpg,,
5692838,Sliding Mode Control in Engineering,,Automation and Control Engineering,,Wilfrid Perruquetti,2002,1st,CRC Press,,416,0,English,Техника,,0,"9780824706715,0824706714",,,,,629.8,TJ213 .S4749 2002,,,OL21188683M,,0,,,,,,,,14880586,pdf,F72C25D0D7F828F5FB2EA581BC533D15,,,,0,2000-01-01 01:00:00,2016-04-03 02:51:08,254000/f72c25d0d7f828f5fb2ea581bc533d15-d.jpg,,
5692836,Writing Sense: Integrated Reading and Writing Lessons for English Language Learners,,,,"Juli Kendall, Outey Khuon",2006,1,Stenhouse Publishers,,223,0,English,Образование,ebook3000.com,0,"9781571104427,1571104429",,,,,,,,,OL9768442M,,0,,,,,,,T,7644084,pdf,F6E77AE875E2D0A57ADE47A980D83851,,,,0,2000-01-01 01:00:00,2016-04-03 02:51:08,254000/f6e77ae875e2d0a57ade47a980d83851-d.jpg,,
5692837,SQL Anywhere Studio 9 Developer's Guide,,Wordware Applications Library,,Breck Carter,2004,,"Wordware Publishing, Inc.",,489,0,English,Компьютеры//Базы данных,ebook3000.com,0,"9781556225062,1556225067",,,,,,,,,OL8594287M,,0,,,,,,,,13099040,pdf,F71951048838FBA44AF5821857AAC6F6,,,,0,2000-01-01 01:00:00,2016-04-03 02:51:08,254000/f71951048838fba44af5821857aac6f6-d.jpg,,
5692834,Urodynamics,,,,Paul Abrams,2005,3rd,Springer,,347,0,English,Медицина,ebook3000.com,0,"1852339241,9781852339241",,,,,,,,,OL9305698M,,0,,,,,,,T,11793358,pdf,F68EC265D0CCEA1E0C3099A313FA7B72,,,,0,2000-01-01 01:00:00,2016-04-03 02:51:08,254000/f68ec265d0ccea1e0c3099a313fa7b72-d.jpg,,
5692835,Foundation Fireworks CS4,,Foundations,,"Grant Hinkson, Craig Erskine, Matt Heerema, Chuck Mallott, Matthew Keefe, Hugh Griffith",2009,1,friendsofED,,306,0,English,Компьютеры//Сети//Интернет,,0,"1430216182,9781430216186",,,,,,,,,,,0,,,,,1,,T,35295203,pdf,F6BB02213D844234B0CF53C53333A704,,,,0,2000-01-01 01:00:00,2016-04-03 02:51:08,254000/f6bb02213d844234b0cf53c53333a704-d.jpg,,
5692833,"Saving Our Environment from Washington: How Congress Grabs Power, Shirks Responsibility, and Shortchanges the People (RN)",,,,Professor David Schoenbrod,2005,1ST,Yale University Press,,308,0,English,Наука (общее)//Международные конференции и симпозиумы,ebook3000.com,0,"9780300106213,0300106211",,,,,,,,,OL9330523M,,0,,,,,,,T,10826838,pdf,F63771D20A76D4F7E0784E6542511FAF,,,,0,2000-01-01 01:00:00,2016-04-03 02:51:08,254000/f63771d20a76d4f7e0784e6542511faf-d.jpg,,
5692832,"Quantum Probability And Infinite Dimensional Analysis: From Foundations To Applications Krupp-Kolleg Greifswald, Germany 22-28 June 2003 (Qp-Pq Quantum Probability and White Noise Analysis)",,,,"Michael Schurmann, Uwe Franz",2005,,World Scientific Publishing Company,,547,0,English,Математика//Вероятность,,0,"9789812561473,9812561471",,,,,,,,,OL9197168M,,0,,,,,,,T,21848759,pdf,F60B3E918D530C2F5B038D6C94F87F9D,,,,0,2000-01-01 01:00:00,2016-04-03 02:51:08,254000/f60b3e918d530c2f5b038d6c94f87f9d-d.jpg,,
5692830,Essentials of Creatine in Sports and Health,,,,"Jeffrey R. Stout, Jose Antonio, Douglas Kalman",2007,1,Humana Press,,255,0,English,,ebook3000.com,0,"1588296903,9781588296900,9781597455732",,,,,,,,,OL12325692M,,0,,,,,,,T,16281590,pdf,F57AEA1315DB3593456D0EB569224DA2,,,,0,2000-01-01 01:00:00,2016-04-03 02:51:08,254000/f57aea1315db3593456d0eb569224da2-d.jpg,,
5692831,Linguistic Evidence For The Pre-Exilic Date Of The Yahwistic Source,,Library of Hebrew Bible/Old Testament Studies,,Rick Wright,2005,,T. & T. Clark Publishers,,219,0,English,,ebook3000.com,0,"9780567041210,0567041212",,,,,,,,,OL7853905M,,0,,,,,,,,10969790,pdf,F57B1A010133C957BE77DB5C99BA6A4E,,,,0,2000-01-01 01:00:00,2016-04-03 02:51:08,254000/f57b1a010133c957be77db5c99ba6a4e-d.jpg,,
5692829,Models in Hardware Testing: Lecture Notes of the Forum in Honor of Christian Landrault,,Frontiers in Electronic Testing,,Hans-Joachim Wunderlich,2009,1,Springer,,263,0,English,Образование//Международные конференции и симпозиумы,,0,"9048132819,9789048132812,9789048132829",,,,,,,,,,,0,,,,,,,T,8353421,pdf,F57078A455E88624ED56D9FA5CC41E66,,,,0,2000-01-01 01:00:00,2016-04-03 02:51:08,254000/f57078a455e88624ed56d9fa5cc41e66-d.jpg,,
5692828,WordPress In Depth,,,,"Bud E. Smith, Michael McCallister",2010,1 Original,Que,,422,0,English,Компьютеры//Сети//Интернет,,0,"9780789742759,0789742756",,,,,006.7/52,TK5105.8885.W66 S65 2010,,,OL23988748M,,0,,,,,,,,13105876,pdf,F53D99685983F319D66D784E4E9CEFDD,,,,0,2000-01-01 01:00:00,2016-04-03 02:51:08,254000/f53d99685983f319d66d784e4e9cefdd-d.jpg,,
5692826,Beginning Java Google App Engine,,,,"Kyle Roche, Jeff Douglas",2009,1st Edition.,Apress,,265,0,English,Компьютеры//Сети//Интернет,,0,"143022553X,9781430225539,9781430225546",,,,,,,,,,,0,,,,,,,T,2506001,pdf,F3D4D3A4A78CD7A7E2D4B14D7978CCA2,,,,0,2000-01-01 01:00:00,2016-04-03 02:51:08,254000/f3d4d3a4a78cd7a7e2d4b14d7978cca2-d.jpg,,
5692827,"Rivers, Lakes, and Oceans",,The Restless Earth,,Gretel H. Schueller,2008,1,Chelsea House Publications,,110,0,English,,ebook3000.com,0,"0791097978,9780791097977",,,,,551.48,GB1203.8 .S379 2008,,,OL11149762M,,0,,,,,1,,T,13474080,pdf,F3DEDA1A1B1B3BA0FE2F6CCA43736BD4,,,,0,2000-01-01 01:00:00,2016-04-03 02:51:08,254000/f3deda1a1b1b3ba0fe2f6cca43736bd4-d.jpg,,
5692824,"Der Architekturreview: Vorgehensweise, Konzepte und Praktiken",,Xpert.press ,,Dieter Masak,2009,1,Springer,,297,0,German,,,0,"3642016588,9783642016585,9783642016592",,,,,,,,,,,0,,,,,,,,2554765,pdf,F3A0BE5152378F97AABD1A0AC6E35F05,,,,0,2000-01-01 01:00:00,2016-04-03 02:51:08,254000/f3a0be5152378f97aabd1a0ac6e35f05-d.jpg,,
5692825,Microsoft Visual C# 2008 Express Edition: Build a Program Now!,,PRO-Developer,,Patrice Pelland,2008,,Microsoft Press,,263,0,English,Компьютеры//Программирование,,0,"0735625425,9780735625426",,,,,,,,,OL10599449M,,0,,,,,1,,T,7854648,pdf,F3D4319CEF346A3DAF551D34F59BD01B,,,,0,2000-01-01 01:00:00,2016-04-03 02:51:08,254000/f3d4319cef346a3daf551d34f59bd01b-d.jpg,,
5692822,Calculations for A-level Physics,,Calculations For A Level Physics,,"T. L. Lowe, J. F. Rounce",2002,4th,Nelson Thornes Ltd,,279,0,English,Физика,ebook3000.com,0,"9780748767489,0748767487",,,,,,,,,OL7964831M,,0,,,,,,,,17020344,pdf,F301DFA59E7F21C706641BC1F5862AF4,,,,0,2000-01-01 01:00:00,2016-04-03 02:51:08,254000/f301dfa59e7f21c706641bc1f5862af4-d.jpg,,
5692823,Green Sisters: A Spiritual Ecology,,,,Sarah McFarland Taylor,2007,annotated edition,Harvard University Press,,385,0,English,Биология//Экология,ebook3000.com,0,"0674024400,9780674024403,0674034953,9780674034952",,,,,,,,,OL7691905M,,0,,,,1,0,,1,3108084,pdf,F33FBD894FB966451B5B24D3EDA2B886,,,,0,2000-01-01 01:00:00,2016-04-03 02:51:08,254000/f33fbd894fb966451b5b24d3eda2b886-d.jpg,,
5692820,Ruby in Practice,,,,"Jeremy McAnally, Assaf Arkin",2008,1,Manning Publications,,359,0,English,Компьютеры//Программирование,,0,"1933988479,9781933988474",,,,,005.133,QA76.73.R83 M33 2009,,,OL12340319M,,0,,,,,,,T,7210890,pdf,F2916A10DDC21D5738FABF873A09506F,,,,0,2000-01-01 01:00:00,2016-04-03 02:51:08,254000/f2916a10ddc21d5738fabf873a09506f-d.jpg,,
5692821,New Developments in Asthma Research,,,,Amy P. Miller,2006,,Nova Science Publishers,,215,0,English,,ebook3000.com,0,"1600210546,9781600210549",,,,,,,,,OL12503291M,,0,,,,,1,,T,1672233,pdf,F2C92553FE8B025AD2EAE53B269E7A0A,,,,0,2000-01-01 01:00:00,2016-04-03 02:51:08,254000/f2c92553fe8b025ad2eae53b269e7a0a-d.jpg,,
5692818,Grails 1.1 Web Application Development,,,,Jon Dickinson,2009,,Packt Publishing,,328,0,English,Компьютеры//Сети//Интернет,,0,"1847196683,9781847196682",,,,,,,,,,,0,,,,,1,,T,2704701,pdf,F244A96144BA7BEAAC7AAD8A789AEA5C,,,,0,2000-01-01 01:00:00,2016-04-03 02:51:08,254000/f244a96144ba7beaac7aad8a789aea5c-d.jpg,,
5692819,The R Book,,,,Michael J. Crawley,2007,1,Wiley,,949,0,English,Математика//Математическая статистика,,0,"0470510242,9780470510247",,,,,,,,,OL22769163M,,0,,,,,,,,27443679,pdf,F25ABD2DCF69F277ECCDB9BBC541AFF8,,,,0,2000-01-01 01:00:00,2016-04-03 02:51:08,254000/f25abd2dcf69f277eccdb9bbc541aff8-d.jpg,,
5692817,"Creative Children, Imaginative Teaching",,"Enriching the Primary Curriculum--Child, Teacher, Context",,BEETLESTONE,1998,,Open University Press,,176,0,English,Образование,ebook3000.com,0,"0335197833,9780335197835,0335197841,9780335197842",,,,,370.15/7,LB1062 .B43 1998,,,OL684738M,,0,,,,,1,,,1935774,pdf,F219713E9A763D8395E4961214D4F89C,,,,0,2000-01-01 01:00:00,2016-04-03 02:51:08,254000/f219713e9a763d8395e4961214d4f89c-d.jpg,,
5692815,Something Musical Happened at the Library,,,,Rob Reid,2009,illustrated edition,Amer Library Assn Editions,,170,0,English,Искусство//Музыка//Гитара,ebook3000.com,0,"0838909426,9780838909423",,,,,,,,,OL9844651M,,0,,,,,1,,T,2342730,pdf,F1D15C19776774ABA6253EA94AFDFD33,,,,0,2000-01-01 01:00:00,2016-04-03 02:51:08,254000/f1d15c19776774aba6253ea94afdfd33-d.jpg,,
5692816,Population Balances in Biomedical Engineering: Segregation Through the Distribution of Cell States,,,,Martin Hjortso,2005,1,McGraw-Hill Professional,,173,0,English,Техника,,0,"9780071447683,0071447687",,,,,571.601/1,QH605 .H52 2006,,,OL19152015M,,0,,,,,,,,1310844,pdf,F1F6A591D3A70EAC3116033250C215EB,,,,0,2000-01-01 01:00:00,2016-04-03 02:51:08,254000/f1f6a591d3a70eac3116033250c215eb-d.jpg,,
5692813,Rockin' the Rockpile: The Buffalo Bills of the American Football League,,,,"Jeffrey Miller, Billy Shaw",2007,,ECW Press,,595,0,English,,ebook3000.com,0,"1550227971,9781550227970,9781554907977",,,,,,,,,OL9723925M,,0,,,,,1,,T,14005524,pdf,F0E7FF5694B622FDD92AD580FD792E91,,,,0,2000-01-01 01:00:00,2016-04-03 02:51:08,254000/f0e7ff5694b622fdd92ad580fd792e91-d.jpg,,
5692814,Object-Oriented Data Structures In Java,,,,"Chip Weems, Samuel Rebelsky, Nell B. Dale",2002,Har/Cdr,"Jones and Bartlett Publishers, Inc.",,845,0,English,Компьютеры//Алгоритмы и структуры данных,,0,"9780763710798,0763710792",,,,,,,,,OL17719548M,,0,,,,,,,T,15566373,pdf,F1091CB600E658E965159593FE161A51,,,,0,2000-01-01 01:00:00,2016-04-03 02:51:08,254000/f1091cb600e658e965159593fe161a51-d.jpg,,
5692812,"Optoelectronic Devices: Design, Modeling, and Simulation",,,,Xun Li,2009,1,Cambridge University Press,,373,0,English,Техника//Электроника,ebook3000.com,0,"0521875102,0511581149,0511577494,9780511577499,9780511581144,9780521875103",,,,,621.381045,TA1750 .L5 2009,,,OL10438082M,,0,,,,,0,,1,4169111,pdf,F0DE2FA4CEE475EB506FD7A744120D99,,,,0,2000-01-01 01:00:00,2016-04-03 02:51:08,254000/f0de2fa4cee475eb506fd7a744120d99-d.jpg,,
5692810,The Economic Structure of International Law,,,,Joel P. Trachtman,2008,,Harvard University Press,,369,0,English,Экономика,ebook3000.com,0,"0674030982,9780674030985",,,,,341,KZ1252 .T73 2008,,,OL19326516M,,0,,,,1,0,,1,1515068,pdf,F0844012081C8FF0918DEE459146EFD7,,,,0,2000-01-01 01:00:00,2016-04-03 02:51:08,254000/f0844012081c8ff0918dee459146efd7-d.jpg,,
5692811,Programming Mac OS X: A Guide for Unix Developers,,,,Kevin O'Malley,2003,,Manning Publications,,385,0,English,Компьютеры//Операционные системы,,0,"9781930110854,1930110855",,,,,005.4/465,QA76.76.O63 O49 2003,,,OL3707188M,,0,,,,,,,T,15056255,pdf,F0C793E70AB2CE34B005FFCAB740106F,,,,0,2000-01-01 01:00:00,2016-04-03 02:51:08,254000/f0c793e70ab2ce34b005ffcab740106f-d.jpg,,
5692807,Groovy and Grails Recipes,,Recipes: a Problem-Solution Approach,,Bashar Abdul-Jawad,2008,1,Apress,,407,0,English,Компьютеры,,0,"143021600X,9781430216001",,,,,,,,,,,0,,,,,1,,,3134225,pdf,EFEE6ADBD10ACB6CACC38486C3C1DE2C,,,,0,2000-01-01 01:00:00,2016-04-03 02:51:08,254000/efee6adbd10acb6cacc38486c3c1de2c-d.jpg,,
5692808,SCBCD Exam Study Kit: Java Business Component Developer Certification for EJB,,,,Paul Sanghera,2005,Stg,Manning Publications,,485,0,English,Бизнес,,0,"9781932394405,1932394400",,,,,,,,,OL8808736M,,0,,,,,,,T,8949275,pdf,F012451ABBEB7D7E36F29FBF4F0932F3,,,,0,2000-01-01 01:00:00,2016-04-03 02:51:08,254000/f012451abbeb7d7e36f29fbf4f0932f3-d.jpg,,
5692809,Frommer's Cuba,,Frommer's Complete,,Claire Boobbyer,2008,4,Frommers,,324,0,English,География,ebook3000.com,0,"047034542X,9780470345429",,,,,,,,,,,0,,,,,1,,T,5366494,pdf,F057A306AD921E49274292ABDDE0028B,,,,0,2000-01-01 01:00:00,2016-04-03 02:51:08,254000/f057a306ad921e49274292abdde0028b-d.jpg,,
5692805,Gangs,,Writing the Critical Essay,,Lauri S Friedman,2009,,Greenhaven,,121,0,English,,ebook3000.com,0,"0737745630,9780737745634",,,,,364.1/0660973,HV6439.U5 G3578 2009,,,OL23614601M,,0,,,,1,0,,1,12550709,pdf,EF34B72BC7801536BE1ABF71552551D5,,,,0,2000-01-01 01:00:00,2016-04-03 02:51:08,254000/ef34b72bc7801536be1abf71552551d5-d.jpg,,
5692806,International Mathematics Tournament of Towns: 1993-1997,Book 4,"Enrichment Series, Volume 15",,"Peter J. Taylor, AM Storozhev",1998,1st,AMT Publishing,,93,0,English,Математика,,0,"9781876420031,1876420030",,,,,,,,,OL12107348M,,0,,,,,1,,,2916892,djvu,EF7E52797B5BED01B19C9EFAEC62C1DA,,,,0,2000-01-01 01:00:00,2016-04-03 02:51:08,254000/ef7e52797b5bed01b19c9efaec62c1da-d.jpg,,
5692804,Practical Ruby Gems,,,,David Berube,2007,,Apress,,288,0,English,Компьютеры//Программирование,ebook3000.com,0,"1590598113,9781590598115",,,,,,,,,OL8849011M,,0,,,,,,,,12787555,pdf,EF2A30817D85C2FEC5021D8F218D8CCD,,,,0,2000-01-01 01:00:00,2016-04-03 02:51:08,254000/ef2a30817d85c2fec5021d8f218d8ccd-d.jpg,,
5692802,Stainless Steels for Design Engineers,,,,"Michael F. McGuire, Kaufman J. G.",2008,,ASM International,,301,0,English,,ebook3000.com,0,"0871707179,9780871707178",,,,,620.1/7,TA479.S7 M35 2008,,,OL24022188M,,0,,,,,1,,,4840617,pdf,EE38B5ABA8EF82FEB7F544B66B1DD468,,,,0,2000-01-01 01:00:00,2016-04-03 02:51:08,254000/ee38b5aba8ef82feb7f544b66b1dd468-d.jpg,,
5692803,Trend Following (Updated Edition): Learn to Make Millions in Up or Down Markets,,,,Michael W. Covel,2009,1 Original,FT Press,,467,0,English,Образование,ebook3000.com,0,"0135094399,9780137020188,013702018X,9780135094396",,,,,332.6,HG4521 .C82 2009,,,OL22842756M,,0,,,,1,0,,1,5670947,pdf,EE4C6D9394740C221D2F8E56C03342DE,,,,0,2000-01-01 01:00:00,2016-04-03 02:51:08,254000/ee4c6d9394740c221d2f8e56c03342de-d.jpg,,
5692801,Quality Assurance for Dynamics AX-Based ERP Solutions: Verifying Dynamics AX customization to the Microsoft IBI Standards,,,,Anil Kumar Gupta,2008,,Packt Publishing,,166,0,English,Компьютеры//Программирование,,0,"1847192912,9781847192912",,,,,,,,,,,0,,,,,,,T,3104789,pdf,EE152D213424C0014C1454407AE7C4BF,,,,0,2000-01-01 01:00:00,2016-04-03 02:51:08,254000/ee152d213424c0014c1454407ae7c4bf-d.jpg,,
5692799,Anoxygenic Photosynthetic Bacteria,,Advances in Photosynthesis and Respiration,,"R.E. Blankenship, Michael T. Madigan, C.E. Bauer",1995,1,Springer,,1368,0,English,,ebook3000.com,0,"9780792336815,079233681X,0306479540",,,,,589.9,QR88.5 .A55 1995,,,OL798139M,,0,,,,,,,T,42969816,pdf,EDCD690C8D0785712EF37E80246FEB81,,,,0,2000-01-01 01:00:00,2016-04-03 02:51:08,254000/edcd690c8d0785712ef37e80246feb81-d.jpg,,
5692800,"Broadway Plays and Musicals: Descriptions and Essential Facts of More Than 14,000 Shows Through 2007",,,,Thomas S. Hischak,2009,,McFarland,,645,0,English,Искусство//Музыка//Гитара,ebook3000.com,0,"0786434481,9780786434480",,,,,792.09747/1,PN2277.N5 H573 2009,,,OL22658487M,,0,,,,,,,1,6902809,pdf,EDCDDD8D027AAD2087724478AB2A2EC7,,,,0,2000-01-01 01:00:00,2016-04-03 02:51:08,254000/edcddd8d027aad2087724478ab2a2ec7-d.jpg,,
5692797,Joomla! 1.5 Multimedia,,,,Allan Walker,2010,,Packt Publishing,,375,0,English,Компьютеры//Мультимедиа,,0,"1847197701,9781847197702",,,,,,,,,,,0,,,,,,,T,12740811,pdf,ED99164FD95430F3C04372B6D40747C2,,,,0,2000-01-01 01:00:00,2016-04-03 02:51:08,254000/ed99164fd95430f3c04372b6d40747c2-d.jpg,,
5692798,RHCE Red Hat Certified Engineer Study Guide Exam RH302,,,,Bill McCarty,2000,,Sybex Inc,,817,0,English,Компьютеры//Операционные системы,,0,"9780782127935,0782127932",,,,,,,,,OL8096353M,,0,,,,,,,,10684872,pdf,EDCB360F635F2E05F905087AC31BA871,,,,0,2000-01-01 01:00:00,2016-04-03 02:51:08,254000/edcb360f635f2e05f905087ac31ba871-d.jpg,,
5692795,Invectives,,I Tatti Renaissance Library (Unnumbered),,"Francesco Petrarca, David Marsh",2008,,Harvard University Press,,561,0,English,,ebook3000.com,0,"0674030885,9780674030886,0674011546,9780674011540",,,,,874/.01,PQ4496 .E21 2008,,,OL16797167M,,0,,,,1,0,,1,1802930,pdf,ECF5646FBA63DA4ADD98726773A55582,,,,0,2000-01-01 01:00:00,2016-04-03 02:51:08,254000/ecf5646fba63da4add98726773a55582-d.jpg,,
5692796,"Culture, 1922: The Emergence of a Concept.",,,,Marc Manganaro,2002,,Princeton University Press,,243,0,English,,ebook3000.com,0,"9780691001364,0691001367,0691001375",,,,,,,,,OL7755843M,,0,,,,,,,T,10616428,pdf,ED2021CAA16D9BC7A1AF5BC6F2EF7362,,,,0,2000-01-01 01:00:00,2016-04-03 02:51:08,254000/ed2021caa16d9bc7a1af5bc6f2ef7362-d.jpg,,
5692793,.NET Framework Solutions: In Search of the Lost Win32 API,,,,John Paul Mueller,2002,,Sybex,,437,0,English,Компьютеры//Операционные системы,ebook3000.com,0,"9780782141344,078214134X",,,,,,,,,OL8096559M,,0,,,,,,,,15674415,pdf,ECB654724BFAD8694CAEDBD63D2B0B62,,,,0,2000-01-01 01:00:00,2016-04-03 02:51:08,254000/ecb654724bfad8694caedbd63d2b0b62-d.jpg,,
5692794,"Designing Social Interfaces: Principles, Patterns, and Practices for Improving the User Experience (Animal Guide)",,Animal Guide ,,"Christian Crumlish, Erin Malone",2009,1,Yahoo Press,,518,0,English,Биология//Зоология,,0,"0596154925,9780596154929",,,,,006.754,HM742 .C78 2009,,,OL25052885M,,0,,,,,,,1,14547004,pdf,ECF4B9EBE09B4FC1B4F0F778D939F055,,,,0,2000-01-01 01:00:00,2016-04-03 02:51:08,254000/ecf4b9ebe09b4fc1b4f0f778d939f055-d.jpg,,
5692791,Real Estate Presentations That Make Millions,,,,Jim Remley,2007,,AMACOM,,257,0,English,Бизнес,ebook3000.com,0,"0814474012,9780814474013,9780814430040",,,,,,,,,OL8043415M,,0,,,,,1,,T,3800781,pdf,EBE6E2A0F134C7A1F4B5FFDE60B56FCD,,,,0,2000-01-01 01:00:00,2016-04-03 02:51:08,254000/ebe6e2a0f134c7a1f4b5ffde60b56fcd-d.jpg,,
5692792,Vogel's Qualitative Inorganic Analysis,,,,G. Svehla,1996,7,Prentice Hall,,356,0,English,Химия//Неорганическая химия,ebook3000.com,0,"0582218667,9780582218666",,,,,,,,,OL22371385M,,0,,,,,1,,,13701763,pdf,EC1831FCC487CD7CC516944E2E989428,,,,0,2000-01-01 01:00:00,2016-04-03 02:51:08,254000/ec1831fcc487cd7cc516944e2e989428-d.jpg,,
5692789,The Roots of Education,,"Foundations of Waldorf Education, 19",,"Rudolf Steiner, Torin M Finser",1997,3rd,Anthroposophic Press,,105,0,German,Образование,ebook3000.com,0,"9780880104159,0880104155",,,,,370/.1,LB775.S7 A413 1997,,,OL688333M,,0,,,,,,,T,1143115,pdf,EB63A7E9468F141741B69454B4F37267,,,,0,2000-01-01 01:00:00,2016-04-03 02:51:08,254000/eb63a7e9468f141741b69454b4f37267-d.jpg,,
5692790,Professional XMPP Programming with JavaScript and jQuery,,Wrox Programmer to Programmer,,Jack Moffitt,2010,,Wrox,,484,0,English,Компьютеры//Программирование//Языки программирования,,0,"0470540710,9780470540718",,,,,,,,,,,0,,,,,1,,T,13221165,pdf,EBE109EACD839A13E2F2B819B9DEEF7A,,,,0,2000-01-01 01:00:00,2016-04-03 02:51:08,254000/ebe109eacd839a13e2f2b819b9deef7a-d.jpg,,
5692787,Concise Encyclopedia of Magnetic and Superconducting Materials,,Advances in Materials Sciences and Engineering,,K.H.J. Buschow Ph.D.,2006,2,Elsevier Science,,1361,0,English,Физика//Электричество и магнетизм,,0,"0080445861,9780080445861,9780080457659",,,,,,,,,OL7312804M,,0,0,0,,,1,,T,26988218,pdf,EB52AD26CA137B3EC7BD509E178B58DA,,,,0,2000-01-01 01:00:00,2016-04-03 02:51:08,254000/eb52ad26ca137b3ec7bd509e178b58da-d.jpg,,
5692788,Distributed and Parallel Systems: From Cluster to Grid Computing,,,,"Peter Kacsuk, Thomas Fahringer, Zsolt Nemeth",2007,1,Springer,,224,0,English,Компьютеры//Организация и обработка данных,,0,"0387698574,9780387698571,9780387698588",,,,,,,,,OL7447733M,,0,,,,,,,T,5789970,pdf,EB5D5AC1ACF95C5DF0A732957F5D97A1,,,,0,2000-01-01 01:00:00,2016-04-03 02:51:08,254000/eb5d5ac1acf95c5df0a732957f5d97a1-d.jpg,,
5692785,Amazing Pet Tricks,,ASPCA Kids,,"Kate Eldredge, Jacque Lynn Schultz",2009,,Howell Book House,,111,0,English,,,0,"0470410833,9780470410837",,,,,636.08/35,SF412.7 E43 2009,,,OL22671732M,,0,,,,,1,,T,26146930,pdf,EB4030A56A74565593ECE0361DF26379,,,,0,2000-01-01 01:00:00,2016-04-03 02:51:08,254000/eb4030a56a74565593ece0361df26379-d.jpg,,
5692786,Coalitions and Partnerships in Community Health,,,,Frances Dunn Butterfoss,2007,1,Jossey-Bass,,608,0,English,,ebook3000.com,0,"0787987859,9780787987855,9780787996017",,,,,,,,,OL22755321M,,0,,,,,,,T,2862075,pdf,EB4512A866FCD6ECDA5F58A3762AA02E,,,,0,2000-01-01 01:00:00,2016-04-03 02:51:08,254000/eb4512a866fcd6ecda5f58a3762aa02e-d.jpg,,
5692783,AdvancED CSS,,,,"Joe Lewis, Meitar Moscovitz",2009,1,friendsofED,,358,0,English,Компьютеры//Web-дизайн,,0,"1430219327,9781430219323",,,,,006.74,TK5105.888 .L495 2009,,HTtFEKPBtcsC,OL24893637M,,0,,,,0,0,,1,7071170,pdf,EB1C1B2691D017EC06BEC7AA65AC1B11,,,,0,2000-01-01 01:00:00,2016-04-03 02:51:08,254000/eb1c1b2691d017ec06bec7aa65ac1b11-d.jpg,,
5692784,University Builders,,,,Martin Pearce,2001,,Academy Press,,224,0,English,,ebook3000.com,0,"9780471988342,0471988340",,,,,727/.3/09045,NA6600 .P38 2001,,,OL3965329M,,0,,,,,,,,12984646,pdf,EB3B3B33EF9E474280FC2CD6BD6AF5E6,,,,0,2000-01-01 01:00:00,2016-04-03 02:51:08,254000/eb3b3b33ef9e474280fc2cd6bd6af5e6-d.jpg,,
5692780,Cross-Platform GUI Programming with wxWidgets,,,,"Julian Smart, Kevin Hock, Stefan Csomor",2006,,Prentice Hall,,744,0,English,Компьютеры//Программирование,,0,"0131473816,9780131473812",,,,,,,,CyMsvtgnq0QC,OL7336675M,,0,,,,,1,,T,7130848,pdf,EA941D1A9232A2CA4EA25E5912519FAC,,,,0,2000-01-01 01:00:00,2016-04-03 02:51:08,254000/ea941d1a9232a2ca4ea25e5912519fac-d.jpg,,
5692781,Open for Business - Open Source Inspired Innovation,,,,"Jaap Bloem, Menno van Doorn, Erik van Ommeren",2007,,Uitgeverij kleine Uil,,209,0,English,Бизнес,,0,"9075414196,9789075414196",,,,,,,,,,,0,,,,,1,,T,4656035,pdf,EAD1C9241C1EE06641F8A92FB88FE2B0,,,,0,2000-01-01 01:00:00,2016-04-03 02:51:08,254000/ead1c9241c1ee06641f8a92fb88fe2b0-d.jpg,,
5692782,EJB 3 in Action,,,,"Debu Panda, Reza Rahman, Derek Lane",2007,1,Manning Publications,,709,0,English,Языкознание,,0,"9781933988344,1933988347",,,,,,,,,OL8832514M,,0,,,,,,,T,16028824,pdf,EAD6D67AB746861EA2A755752272C2A1,,,,0,2000-01-01 01:00:00,2016-04-03 02:51:08,254000/ead6d67ab746861ea2a755752272c2a1-d.jpg,,
5692779,Handbook of Peer-to-Peer Networking,,,,"Xuemin Shen, Heather Yu, John Buford, Mursalin Akon",2009,1st Edition.,Springer,,1421,0,English,,,0,"0387097503,9780387097503",,,,,551.46/09,GC96.5 .S97 1978,,,OL25168421M,,0,,,,,1,,T,12925823,pdf,EA5A552053D08B02708B117F06AB91DF,,,,0,2000-01-01 01:00:00,2016-04-03 02:51:08,254000/ea5a552053d08b02708b117f06ab91df-d.jpg,,
5692777,Tiger Woods: Athlete,,Black Americans of Achievement,,Judy L. Hasday,2008,1,Chelsea House Publications,,103,0,English,,ebook3000.com,0,"0791097145,9780791097144,9781604133271",,,,,"796.352092,B",GV964.W66 H37 2008,,,OL11149705M,,0,,,,,,,T,2458723,pdf,EA0E95C4BD0288B7081FB81D909231BC,,,,0,2000-01-01 01:00:00,2016-04-03 02:51:08,254000/ea0e95c4bd0288b7081fb81d909231bc-d.jpg,,
5692778,World that is the Book: Paul Auster's Fiction,,,,Aliki Varvogli,2001,,Liverpool University Press,,184,0,English,,ebook3000.com,0,"9780853236870,0853236879,0853236976",,,,,813/.54,PS3551.U77 Z925 2001,,,OL3632249M,,0,,,,,,,1,11525954,pdf,EA3575050F9AD58FE1F9376BBD15D259,,,,0,2000-01-01 01:00:00,2016-04-03 02:51:08,254000/ea3575050f9ad58fe1f9376bbd15d259-d.jpg,,
5692776,The Ancient Egyptian Pyramid Texts (Writings from the Ancient World),,Writings from the Ancient World ,,"James P. Allen, Peter Der Manuelian",2005,,Society of Biblical Literature,,483,0,English,История,ebook3000.com,0,"1589831829,9781589831827",,,,,,,,,OL22723869M,,0,,,,,,,T,11321504,pdf,EA046BB65C6CFD13A7D86A65D7E93193,,,,0,2000-01-01 01:00:00,2016-04-03 02:51:08,254000/ea046bb65c6cfd13a7d86a65d7e93193-d.jpg,,
5692774,Mitsubishi G4M Betty,,,,Martin Ferkl,2002,,Revi Publications,,104,0,English,История,,0,"9788085957099,8085957094",,,,,,,,,,,0,,,,,,,,20719929,pdf,E88491C5A06E5CF72530170D51B73DA0,,,,0,2000-01-01 01:00:00,2016-04-03 02:51:08,254000/e88491c5a06e5cf72530170d51b73da0-g.jpg,,
5692775,Mathematical Go: Chilling Gets the Last Point,,,,"Elwyn R. Berlekamp, David Wolfe",1997,,A K Peters Ltd,,247,0,English,Математика,ebook3000.com,0,"9781568810324,1568810326",,,,,794,GV1459.55 .B47 1994,,,OL1429549M,,0,,,,,,,,14023258,pdf,E9E9E4AC7F03D53A5122A2858A79784B,,,,0,2000-01-01 01:00:00,2016-04-03 02:51:08,254000/e9e9e4ac7f03d53a5122a2858a79784b-d.jpg,,
5692773,JavaScript Programmer's Reference (Wrox Programmer to Programmer),,Wrox Programmer to Programmer ,,Alexei White,2009,,Wrox,,1035,0,English,,,0,"9780470344729,0470344725",,,,,,,,,,,0,,,,,1,,T,6836252,pdf,E8321709CE1472C4E110B4B5C549F6A3,,,,0,2000-01-01 01:00:00,2016-04-03 02:51:08,254000/e8321709ce1472c4e110b4b5c549f6a3-d.jpg,,
5692771,Deep Nature: Photographs from Iowa,,Bur Oak Book,,"John Pearson, Linda Scarth, Robert Scarth",2009,1st Edition,University Of Iowa Press,,119,0,English,Искусство//Фотография,ebook3000.com,0,"1587298244,9781587298240",,,,,779/.309777,TR721 .S33 2009,,,OL23170114M,,0,,,,,1,,T,9132406,pdf,E799E2FF1751F7C5F4E1654E6BEB6834,,,,0,2000-01-01 01:00:00,2016-04-03 02:51:08,254000/e799e2ff1751f7c5f4e1654e6beb6834-d.jpg,,
5692772,Selling Online with Drupal e-Commerce: Walk through the creation of an online store with Drupal's e-Commerce module,,From Technologies to Solutions,,Michael Peacock,2008,,Packt Publishing,,265,0,English,Бизнес//Электронная коммерция,,0,"1847194060,9781847194060",,,,,,,,,,,0,,,,,,,T,10566371,pdf,E7CAAEE7FF339D504B7C2DE84044BC68,,,,0,2000-01-01 01:00:00,2016-04-03 02:51:08,254000/e7caaee7ff339d504b7c2de84044bc68-d.jpg,,
5692769,American Diabetes Association Complete Guide to Diabetes,,,,American Diabetes Association,2005,Fourth Edition,American Diabetes Association,,567,0,English,История,ebook3000.com,0,"1580402372,9781580402378",,,,,,,,,OL8779574M,,0,,,,,1,,,3675094,pdf,E6C6A02D3ADCC6B449237C1F319E4BF2,,,,0,2000-01-01 01:00:00,2016-04-03 02:51:08,254000/e6c6a02d3adcc6b449237c1f319e4bf2-d.jpg,,
5692770,Wireless Telecommunications Networking with ANSI-41,,,,"Randall A. Snyder, Michael D. Gallagher",2001,2,McGraw-Hill Professional,,502,0,English,Техника//Электроника//Телекоммуникации,,0,"9780071352314,0071352317,8851890189519",,,,,,,,,OL7298352M,,0,,,,,,,,2158957,pdf,E70980AC54682FEADAB125F13D1647FF,,,,0,2000-01-01 01:00:00,2016-04-03 02:51:08,254000/e70980ac54682feadab125f13d1647ff-d.jpg,,
5692767,Building Content Type Solutions in SharePoint 2007,,,,"David Gerhardt, Kevin Martin",2008,1,Charles River Media,,319,0,English,Техника//Строительство,ebook3000.com,0,"1584506695,9781584506690",,,,,,,,,,,0,,,,,1,,T,5578388,pdf,E62D9B693CBAC971CDCE9942CE0E874B,,,,0,2000-01-01 01:00:00,2016-04-03 02:51:08,254000/e62d9b693cbac971cdce9942ce0e874b-d.jpg,,
5692768,Crack Analysis in Structural Concrete: Theory and Applications,,,,Zihai Shi,2009,,Butterworth-Heinemann,,326,0,English,Техника//Строительство,ebook3000.com,0,"0750684461,1865843830,9780750684460",,,,,620.1366,TA445 .S435 2009,,,OL24107830M,,0,,,,,,,,20325777,pdf,E67B13CAB93DCF6624B2A4EB1A9DF51D,,,,0,2000-01-01 01:00:00,2016-04-03 02:51:08,254000/e67b13cab93dcf6624b2a4eb1a9df51d-d.jpg,,
5692765,Mind Wars: Brain Research and National Defense,,,,Jonathan D. Moreno,2006,1,Dana Press,,231,0,English,,,0,"1932594167,9781932594164",,,,,,,,,OL8810121M,,0,,,,,1,,T,1692148,pdf,E60503412A12689138D888113DC1BC13,,,,0,2000-01-01 01:00:00,2016-04-03 02:51:08,254000/e60503412a12689138d888113dc1bc13-d.jpg,,
5692766,M-Audio Guide for the Recording Guitarist (Book),,,,Chris Buono,2008,1,Hal Leonard,,465,0,English,Искусство//Музыка//Гитара,ebook3000.com,0,"1598634232,9781598634235,159863674X",,,,,,,,,OL12497049M,,0,,,,,,,T,11813307,pdf,E615BE9A323DCF2E28C6B8B24C6F185C,,,,0,2000-01-01 01:00:00,2016-04-03 02:51:08,254000/e615be9a323dcf2e28c6b8b24c6f185c-d.jpg,,
5692763,Sams Teach Yourself Microsoft Expression Web 3 in 24 Hours,,,,Morten Rand-Hendriksen,2009,1,Sams,,523,0,English,Образование//Самоучители,,0,"9780672330643,0672330644",,,,,006.7/8,TK5105.8883 .R362 2009,,,OL23668439M,,0,,,,,,,,17906595,pdf,E57B3922279D135FBCE82599994FA8AF,,,,0,2000-01-01 01:00:00,2016-04-03 02:51:08,254000/e57b3922279d135fbce82599994fa8af-d.jpg,,
5692764,Common Design Patterns for Symbian OS: The Foundations of Smartphone Software (Symbian Press),,Symbian Press ,,Adrian J. Issott,2008,,Wiley,,447,0,English,Компьютеры//Программирование,,0,"0470516356,9780470516355,9780470758960",,,,,,,,,OL24317258M,,0,,,,,,,1,3105121,pdf,E5E328A2582C9418DEE9A325A9A4CF79,,,,0,2000-01-01 01:00:00,2016-04-03 02:51:08,254000/e5e328a2582c9418dee9a325a9a4cf79-d.jpg,,
5692762,Nanotechnology Applications for Clean Water: Solutions for Improving Water Quality,,Micro and Nano Technologies,,"Mamadou Diallo, Jeremiah Duncan, Nora Savage, Anita Street, Richard Sustich",2009,1,William Andrew,,634,0,English,Техника//Водоочистка,ebook3000.com,0,"0815515782,9780815515784",,,,,628.1,TD353 .N34 2009,,,OL22658497M,,0,,,,,1,,T,13512153,pdf,E567755AEA7B0CC00F2FFF679E9D0D6C,,,,0,2000-01-01 01:00:00,2016-04-03 02:51:08,254000/e567755aea7b0cc00f2fff679e9d0d6c-d.jpg,,
5692760,"\By My Absolute Royal Authority\"": Justice and the Castilian Commonwealth at the Beginning of the First Global Age""",,Changing Perspectives on Early Modern Europe,,J. B. Owens,2005,,University of Rochester Press,,396,0,English,,ebook3000.com,0,"9781580462013,1580462014",,,,,,,,,OL12276427M,,0,,,,,,,T,10941498,pdf,E4FB56D3B2B0585E3419E32E940ECCBD,,,,0,2000-01-01 01:00:00,2016-04-03 02:51:08,254000/e4fb56d3b2b0585e3419e32e940eccbd-d.jpg,,
5692761,Microsoft SharePoint 2007 Development Unleashed,,,,"Kevin Hoffman, Robert Foster",2007,1,Sams,,431,0,English,Компьютеры//Программирование,ebook3000.com,0,"0672329034,9780672329036",,,,,004.6/8,TK5105.875.I6 H63 2007,,,OL17883741M,,0,,,,,,,,11232536,pdf,E4FD6E8C35D830D8AA98A1A36747D3CD,,,,0,2000-01-01 01:00:00,2016-04-03 02:51:08,254000/e4fd6e8c35d830d8aa98a1a36747d3cd-d.jpg,,
5692759,"Drugs, Clubs And Young People: Sociological And Public Health Perspectives",,,,Bill Sanders,2006,1,Ashgate Publishing,,215,0,English,Общественные науки прочие//Социология,ebook3000.com,0,"9780754646990,0754646998",,,,,,,,,OL22733128M,,0,,,,,,,T,1149890,pdf,E4D953DAFFF71F27E53531B14FF4D7E7,,,,0,2000-01-01 01:00:00,2016-04-03 02:51:08,254000/e4d953dafff71f27e53531b14ff4d7e7-d.jpg,,
5692757,Joomla! 1.5x Customization: Make Your Site Adapt to Your Needs,,,,Daniel Chapman,2009,,Packt Publishing,,287,0,English,Компьютеры//Web-дизайн,,0,"1847195164,9781847195166",,,,,,,,,,,0,,,,,,,T,5324974,pdf,E47D7889FD2C2A51BDAB2D4809BC1661,,,,0,2000-01-01 01:00:00,2016-04-03 02:51:08,254000/e47d7889fd2c2a51bdab2d4809bc1661-d.jpg,,
5692758,RESTful Web Services Cookbook: Solutions for Improving Scalability and Simplicity,,,,Subbu Allamaraju,2010,1,Yahoo Press,,314,0,English,Компьютеры//Сети//Интернет,,0,"0596801688,9780596801687",,,,,,,,,,,0,,,,,,,T,2344121,pdf,E47E49EBF9C374FF7A49D4C2258CDB53,,,,0,2000-01-01 01:00:00,2016-04-03 02:51:08,254000/e47e49ebf9c374ff7a49d4c2258cdb53-d.jpg,,
5692755,Alone Together: How Marriage in America Is Changing,,,,"Paul R. Amato, Alan Booth, David R. Johnson, Stacy J. Rogers",2007,,Harvard University Press,,336,0,English,,ebook3000.com,0,"0674022815,9780674022812,9780674032170",,,,,,,,,OL17207337M,,0,,,,,,,T,2367784,pdf,E44C743BEF1070239EA34489840542BF,,,,0,2000-01-01 01:00:00,2016-04-03 02:51:08,254000/e44c743bef1070239ea34489840542bf-d.jpg,,
5692756,The Book of PF: A No-Nonsense Guide to the OpenBSD Firewall,,,,Peter N.M. Hansteen,2008,1,No Starch Press,,184,0,English,Компьютеры//Операционные системы,,0,"1593271654,9781593271657",,,,,005.8,TK5105.585 .H385 2008,,,OL18459909M,,0,,,,,,,T,7159105,pdf,E474D0E1D783B56A94BC7ED37947ADFD,,,,0,2000-01-01 01:00:00,2016-04-03 02:51:08,254000/e474d0e1d783b56a94bc7ed37947adfd-d.jpg,,
5692753,Ismaili Literature: A Bibliography of Sources and Studies,,,,Farhad Daftary,2004,,Institute for Ismaili Studies,,488,0,English,История,,0,"9781850434399,1850434395",,,,,,,,,OL18252804M,,0,,,,,,,T,5739406,pdf,E428CF1B745F3059E550A9C218542275,,,,0,2000-01-01 01:00:00,2016-04-03 02:51:08,254000/e428cf1b745f3059e550a9c218542275-d.jpg,,
5692754,Edmund Husserl's Phenomenology,,Purdue University Series in the History of Philosophy,,Joseph Kockelmans,1994,,Purdue University Press,,371,0,English,Общественные науки прочие//Философия,ebook3000.com,0,"1557530505,9781557530509",,,,,193,B3279.H94 K594 1994,,,OL1434368M,,600,,,,,1,,,7866921,pdf,E431239E93B0A88345572C70F18CB433,,,,0,2000-01-01 01:00:00,2016-04-03 02:51:08,254000/e431239e93b0a88345572c70f18cb433-d.jpg,,
5692751,Tumor Budding In Colorectal Cancer: Recent Progress In Colorectal Cancer Research,,Horizons in Cancer Research,,Tadahiko Masaki,2004,1,Nova Biomedical Books,,200,0,English,Медицина//Онкология,ebook3000.com,0,"1594541892,9781594541896",,,,,616.99/4347,RC280.C6 T864 2004,,,OL3296984M,,0,,,,,1,,T,7992024,pdf,E3995C3025903A8ED8126C6B42557FF7,,,,0,2000-01-01 01:00:00,2016-04-03 02:51:08,254000/e3995c3025903a8ed8126c6b42557ff7-d.jpg,,
5692752,"Sculpture, 1896-1923 (Corinth)",,Corinth ,,Franklin P. Johnson,1931,Volume IX Part 1,American School of Classical Studies,,167,0,English,,ebook3000.com,0,"0876610912,9780876610916",,,,,,,,,,,0,,,,,1,,,15529771,pdf,E3F0935444E366DC4D31AE68BC73D260,,,,0,2000-01-01 01:00:00,2016-04-03 02:51:08,254000/e3f0935444e366dc4d31ae68bc73d260-g.jpg,,
5692748,iPhone for Work: Increasing Productivity for Busy Professionals,,Books for Professionals by Professionals,,Ryan Faas,2009,1,Apress,,354,0,English,Компьютеры,,0,"1430224452,9781430224457,9781430224464",,,,,621.38456,QA76.8.I64 .F33 2009,,,OL25261164M,,0,,,,,,,T,9670428,pdf,E1C3E1BE8765FE31A3B6BAB64D86FE4E,,,,0,2000-01-01 01:00:00,2016-04-03 02:51:08,254000/e1c3e1be8765fe31a3b6bab64d86fe4e-d.jpg,,
5692749,Ubuntu 8.10 Linux Bible,,,,William von Hagen,2009,Pap/Dvdr/C,Wiley,,1583,0,English,Компьютеры//Операционные системы,,0,"9780470294208,0470294205",,,,,005.4/32,QA76.76.O63 V664 2009,,,OL23165621M,,0,,,,,1,,T,53955044,pdf,E3248F698DA647444405A34229BD9DF5,,,,0,2000-01-01 01:00:00,2016-04-03 02:51:08,254000/e3248f698da647444405a34229bd9df5-d.jpg,,
5692750,For God's Sake: The Christian Right and US Foreign Policy,,,,Lee Marsden,2008,,Zed Books,,299,0,English,,ebook3000.com,0,"1842778846,9781842778845,9781842778852",,,,,327.73,JZ1480 .M33 2008,,,OL19141719M,,0,,,,,,,1,1719808,pdf,E34F725674ABAF26445E1DBBE98E08A2,,,,0,2000-01-01 01:00:00,2016-04-03 02:51:08,254000/e34f725674abaf26445e1dbbe98e08a2-d.jpg,,
5692746,"Mobile Web Development: Building mobile websites, SMS and MMS messaging, mobile payments, and automated voice call systems with XHTML MP, WCSS, and mobile AJAX",,,,Nirav Mehta,2008,,Packt Publishing,,236,0,English,Компьютеры//Сети//Интернет,,0,"1847193439,9781847193438",,,,,,,,,,,0,,,,,1,,T,6484126,pdf,E1A13AA0C1F360755DD5C5F3AFE2DCAA,,,,0,2000-01-01 01:00:00,2016-04-03 02:51:08,254000/e1a13aa0c1f360755dd5c5f3afe2dcaa-d.jpg,,
5692747,Build Your Own Website The Right Way Using HTML & CSS,,,,Ian Lloyd,2008,1,SitePoint,,472,0,English,Компьютеры//Сети//Интернет,,0,"0980455278,9780980455274",,,,,,,,,,,0,,,,,,,T,35091996,pdf,E1BFDE390882AD71E7DCBB95F0163AC4,,,,0,2000-01-01 01:00:00,2016-04-03 02:51:08,254000/e1bfde390882ad71e7dcbb95f0163ac4-d.jpg,,
5692743,Magento 1.3 Theme Design,,,,Richard Carter,2009,,Packt Publishing,,187,0,English,Компьютеры//Сети//Интернет,,0,"1847196640,9781847196644",,,,,,,,,,,0,,,,,,,T,6928356,pdf,DFF95E24DE5F2A11376C4F7531F97A8E,,,,0,2000-01-01 01:00:00,2016-04-03 02:51:08,254000/dff95e24de5f2a11376c4f7531f97a8e-d.jpg,,
5692744,Data Compression: The Complete Reference,,,,David Salomon,2004,3rd,Springer,,920,0,English,,,0,"9780387406978,0387406972",,,,,,,,,OL7445849M,,0,,,,,,,T,16837681,pdf,E0F7D48C57EDEB6252D17010C9CD0BB3,,,,0,2000-01-01 01:00:00,2016-04-03 02:51:08,254000/e0f7d48c57edeb6252d17010c9cd0bb3-d.jpg,,
5692745,Calculations for A-Level Chemistry,,Calculations for A Level Chemistry,,Eileen Ramsden,2001,4th,Nelson Thornes Ltd,,199,0,English,Химия,ebook3000.com,0,"9780748758395,0748758399",,,,,,,,,OL7964755M,,0,,,,,,,,10065666,pdf,E179D8706BBE6CF03637979D9E989843,,,,0,2000-01-01 01:00:00,2016-04-03 02:51:08,254000/e179d8706bbe6cf03637979d9e989843-d.jpg,,
5692742,Encyclopedia of Knowledge Management,,,,David Schwartz,2005,illustrated edition,Idea Group Publishing,,946,0,English,Бизнес//менеджмент,ebook3000.com,0,"9781591405733,1591405734,1591405742",,,,,658.4/038,HD30.2 .E53 2006,,,OL3399783M,,0,,,,,,,,12479757,pdf,DF7F3F64D36140064669DA86A6AD7EED,,,,0,2000-01-01 01:00:00,2016-04-03 02:51:08,254000/df7f3f64d36140064669da86a6ad7eed-d.jpg,,
5692740,World Drug Report 2007,,,,United Nations,2007,1,United Nations Publications,,282,0,English,Химия//Фармакология,,0,"9211482224,9789211482225",,,,,,,,,OL21599261M,,0,,,,,,,T,14984024,pdf,DE99EBAC88C384EE965B308D8ACA9BBA,,,,0,2000-01-01 01:00:00,2016-04-03 02:51:08,254000/de99ebac88c384ee965b308d8aca9bba-d.jpg,,
5692741,Republicanism in the Modern World,,,,John Maynor,2003,,Polity,,242,0,English,,ebook3000.com,0,"0745628087,9780745628080,0745628079,9780745628073",,,,,,,,,OL22522243M,,0,,,,,1,,,13011239,pdf,DF32048110D9ACA3F69B017A7ED87405,,,,0,2000-01-01 01:00:00,2016-04-03 02:51:08,254000/df32048110d9aca3f69b017a7ed87405-d.jpg,,
5692738,Basic Comprehension Passages with Vocabulary Activities and Recall Exercises (Skills),,Skills ,,Donn Byrne,1986,,Longman,,62,0,English,Языкознание//Словари,ebook3000.com,0,"9780582793354,0582793351",,,,,,,,,OL7882135M,,0,,,,,,,,3387801,pdf,DE1A299F7A91834672168A421F3FC55A,,,,0,2000-01-01 01:00:00,2016-04-03 02:51:08,254000/de1a299f7a91834672168a421f3fc55a-d.jpg,,
5692739,Joomla! Bible,,,,Ric Shreves,2010,1st,Wiley,,795,0,English,Компьютеры//Web-дизайн,,0,"0470509570,9780470509579",,,,,,,,,,,0,,,,,1,,T,28619416,pdf,DE6C85A367FA87833003A74468CE0890,,,,0,2000-01-01 01:00:00,2016-04-03 02:51:08,254000/de6c85a367fa87833003a74468ce0890-d.jpg,,
5692737,Python Essential Reference (2nd Edition),,,,David Beazley,2001,2,Sams,,538,0,English,,,0,"9780735710917,0735710910,4005823811013,7110160242233",,,,,005.13/3,QA76.73.P98 B43 2001,,,OL20183728M,,0,,,,,,,T,2611496,pdf,DDAB149F79F8A1AF702AD6C8BA4D5DB8,,,,0,2000-01-01 01:00:00,2016-04-03 02:51:08,254000/ddab149f79f8a1af702ad6c8ba4d5db8-d.jpg,,
5692735,CCNP Building Scalable Internetworks (BSCI 642-901) Lab Portfolio,,Cisco Networking Academy,,"David Kotfila, Joshua Moorhouse, Ross Wolfson",2007,1,Cisco Press,,532,0,English,Компьютеры//Сети//Интернет,ebook3000.com,0,"9781587132131,1587132133",,,,,004.6,TK5105.5 .K68 2008,,,OL12320654M,,0,,,,,,,T,14363272,pdf,DD89CA73732E6409F858CBC76EEFCC9A,,,,0,2000-01-01 01:00:00,2016-04-03 02:51:08,254000/dd89ca73732e6409f858cbc76eefcc9a-d.jpg,,
5692736,PHP and MySQL Web Development (4th Edition),,,,"Luke Welling, Laura Thomson",2008,4,Addison-Wesley Professional,,1008,0,English,Компьютеры//Сети//Интернет,,0,"9780672329166,0672329166",,,,,005.2/762,QA76.73.P224 W45 2008,,,OL18736793M,,0,,,,,,,T,12414340,pdf,DDA9B19DD7F12D78746B685D3CD06B84,,,,0,2000-01-01 01:00:00,2016-04-03 02:51:08,254000/dda9b19dd7f12d78746b685d3cd06b84-d.jpg,,
5692733,My Website is Better than Yours,,,,Nicholas Longo,2005,,"CoffeeCup Software, Inc.",,299,0,English,Компьютеры//Сети//Интернет,,0,"9780976756903,0976756900",,,,,,,,,OL8588886M,,0,,,,,,,T,6304638,pdf,DD6F11EC5B0EC797B5DC6454552134B0,,,,0,2000-01-01 01:00:00,2016-04-03 02:51:08,254000/dd6f11ec5b0ec797b5dc6454552134b0-d.jpg,,
5692734,Understanding UNIX/LINUX  Programming: A Guide to Theory and Practice,,,,Bruce Molay,2002,illustrated edition,Prentice Hall,,574,0,German,Компьютеры//Операционные системы,,0,"9780130083968,0130083968,5933780871",,,,,005.282,QA76.76.O63 M626 2003,,,OL3708135M,,0,,,,,,,,21282217,djvu,DD7A50C1421CB5074544EE380EB07D4B,,,,0,2000-01-01 01:00:00,2016-04-03 02:51:08,254000/dd7a50c1421cb5074544ee380eb07d4b-d.jpg,,
5692731,Django 1.0 Template Development,,,,Scott Newman,2008,,Packt Publishing,,272,0,English,Компьютеры,,0,"1847195709,9781847195708",,,,,,,,,,,0,,,,,,,T,6455326,pdf,DCF53FBE58D628B0606DD76D5C05A8B1,,,,0,2000-01-01 01:00:00,2016-04-03 02:51:08,254000/dcf53fbe58d628b0606dd76d5c05a8b1-d.jpg,,
5692732,Microwave Measurements,,Iet Electrical Measurement Series,,"R. Collier, D. Skinner, R. J. Collier, A. D. Skinner",2007,3,IET,,506,0,English,Техника//Электроника,ebook3000.com,0,"0863417353,9780863417351",,,,,,,,,,,0,,,,,1,,T,3841627,pdf,DD007B6EFD4C6E061EF832186C7AF496,,,,0,2000-01-01 01:00:00,2016-04-03 02:51:08,254000/dd007b6efd4c6e061ef832186c7af496-d.jpg,,
5692729,Thought and Choice in Chess,,Psychological Studies ,,Adriann Degroot,1978,2nd,Mouton De Gruyter,,485,0,English,"Домоводство, досуг//Игры//Шахматы",,0,"9027979146,9789053569986,9789048501915",,,,,,,,,OL21508792M,,0,,,,,,,T,12116609,pdf,DC57CDB18B0493BC4E47C5D6D0D1CD63,,,,0,2000-01-01 01:00:00,2016-04-03 02:51:08,254000/dc57cdb18b0493bc4e47c5d6d0d1cd63-d.jpg,,
5692730,Smartphone Operating System Concepts with Symbian OS: A Tutorial Guide,,Symbian Press,,Michael J. Jipping,2007,,Wiley,,356,0,English,Языкознание,,0,"0470034491,9780470034491",,,,,621.3845/6,TK6570.M6 J56 2007,,,OL17555882M,,0,,,,,,,1,1263145,pdf,DCDBC70F37AE72D15F17CEEC3A26DB29,,,,0,2000-01-01 01:00:00,2016-04-03 02:51:08,254000/dcdbc70f37ae72d15f17ceec3a26db29-d.jpg,,
5692728,Morphosyntactic Issues in Second Language Acquisition,,,,Danuta Gabry?-Barker,2008,illustrated edition,Multilingual Matters,,279,0,English,,,0,"1847690653,9781847690654",,,,,418,P118.2 .M675 2008,,,OL16955435M,,0,,,,,,,,1912474,pdf,DC578B6A1A42CD412F69658EE75274FE,,,,0,2000-01-01 01:00:00,2016-04-03 02:51:08,254000/dc578b6a1a42cd412f69658ee75274fe-d.jpg,,
5692727,Advanced Ultrasonic Methods for Material and Structure Inspection,,Instrumentation & Measurement Series (ISTE),,"Tribikram Kundu, Dominique Placko",2007,,Wiley-ISTE,,408,0,English,,,0,"190520969X,9781905209699",,,,,620.1/1274,TA417.4 .A38 2006,,,OL17909260M,,0,,,,,,,T,6924256,pdf,DC3E55059292C2FC960692C1DED9F2B8,,,,0,2000-01-01 01:00:00,2016-04-03 02:51:08,254000/dc3e55059292c2fc960692c1ded9f2b8-d.jpg,,
5692725,Fathering at Risk: Helping Nonresidential Fathers,,,,"James Dudley PhD, Glenn Stone PhD, Mark H. Stone PsyD",2001,1,Springer Publishing Company,,345,0,English,,ebook3000.com,0,"0826114180,9780826114181,1591021294,9781591021292",,,,,,,,,OL8165675M,,0,,,,1,0,,1,17382721,pdf,DBBED560750A7587774B436755C3B9CF,,,,0,2000-01-01 01:00:00,2016-04-03 02:51:08,254000/dbbed560750a7587774b436755c3b9cf-d.jpg,,
5692726,"Technology Computer Aided Design for Si, SiGe and GaAs Integrated Circuits",,"Iet Circuits, Devices and Systems",,"C.K. Maiti, G.A. Armstrong",2007,,IET,,457,0,English,Компьютеры,ebook3000.com,0,"0863417434,9780863417436",,,,,,,,,,,0,,,,,1,,T,4162274,pdf,DC0D123FAD477651018435C2F83B94D4,,,,0,2000-01-01 01:00:00,2016-04-03 02:51:08,254000/dc0d123fad477651018435c2f83b94d4-d.jpg,,
5692723,"Developing Web Applications with Apache, MySQL, memcached, and Perl",,Wrox Programmer to Programmer,,Patrick Galbraith,2009,1 Original,Wrox,,891,0,English,Компьютеры//Сети//Интернет,,0,"0470414642,9780470414644",,,,,,,,,,,0,,,,,,,T,5664954,pdf,DB40B703E26EAA53E8BEC6CC2EDD7BEB,,,,0,2000-01-01 01:00:00,2016-04-03 02:51:08,254000/db40b703e26eaa53e8bec6cc2edd7beb-d.jpg,,
5692724,International Mathematics Tournament of Towns: 1984-1989,Book 2,"Enrichment Series, Volume 3",,Peter J. Taylor,2003,1ST,AMT Publishing,,96,0,English,Математика,,0,"9781876420147,1876420146",,,,,,,,,OL12107356M,,400,,,,0,1,,0,2151931,djvu,DBB4CAB90FA222415BC90C57587193D7,,,,0,2000-01-01 01:00:00,2016-04-03 02:51:08,254000/dbb4cab90fa222415bc90c57587193d7-d.jpg,,
5692722,Optical Communications Essentials,,Telecommunications,,Gerd Keiser,2003,1,McGraw-Hill Professional,,348,0,English,Техника//Электроника//Телекоммуникации,,0,"9780071412049,0071412042",,,,,,,,,OL7299696M,,0,,,,,,,,2432939,pdf,DAD04481D1729D15C1902E72649B6838,,,,0,2000-01-01 01:00:00,2016-04-03 02:51:08,254000/dad04481d1729d15c1902e72649b6838-d.jpg,,
5692720,WPF Recipes in C# 2008: A Problem-Solution Approach,,,,"Allen Jones, Sam Bourton, Sam Noble",2008,1,Apress,,746,0,English,Компьютеры//Программирование//Языки программирования,,0,"1430210842,9781430210849,9781430210832",,,,,,,,,OL23945440M,,0,,,,,,,,5116864,pdf,D9E6626FCDCC3A7D73444BD9DEC02877,,,,0,2000-01-01 01:00:00,2016-04-03 02:51:08,254000/d9e6626fcdcc3a7d73444bd9dec02877-d.jpg,,
5692721,Trends in Bilingual Acquisition,,Trends in Language Acquistion Research,,"Jasone Cenoz, Fred Genesee, International Association for the Study of Child Language",2001,,John Benjamins Publishing Co,,297,0,English,,ebook3000.com,0,"1588110990,9781588110992,902723471X,9789027234711,9789027294814",,,,,401/.93,P118 .T734 2001,,,OL3948533M,,0,,,,,1,,T,1819621,pdf,DAC345C13BEF06206EC45BF49E24646A,,,,0,2000-01-01 01:00:00,2016-04-03 02:51:08,254000/dac345c13bef06206ec45bf49e24646a-d.jpg,,
5692718,Material Inhomogeneities and their Evolution: A Geometric Approach,,Interaction of Mechanics and Mathematics,,"Marcelo Epstein, Marek Elzanowski",2007,1,Springer,,275,0,English,Математика//Геометрия и топология,,0,"3540723722,9783540723721",,,,,,,,,OL12810425M,,0,,,,,,,T,14872176,pdf,D929B8AC81FE05BF9C16E7CEB17EC08E,,,,0,2000-01-01 01:00:00,2016-04-03 02:51:08,254000/d929b8ac81fe05bf9c16e7ceb17ec08e-d.jpg,,
5692719,Beyond Reality: A Guide to Alternate Reality Gaming,,,,John W. Gosney,2005,1,Course Technology PTR,,344,0,English,Образование,ebook3000.com,0,"9781592007370,1592007376",,,,,793.93/2,GV1469.7 .G68 2005,,,OL20733838M,,0,,,,,,,T,44109901,pdf,D983267CF1A2E1788A15A794097C110D,,,,0,2000-01-01 01:00:00,2016-04-03 02:51:08,254000/d983267cf1a2e1788a15a794097c110d-d.jpg,,
5692717,Social Work And Social Exclusion: The Idea of Practice,,,,Michael Sheppard,2006,,Ashgate Publishing,,290,0,English,,ebook3000.com,0,"0754647706,0754647684,9780754647683,9780754647706",,,,,,,,,OL22738051M,,0,,,,,,,T,1089757,pdf,D92790FA2A448D6AEECE4498BD55CD34,,,,0,2000-01-01 01:00:00,2016-04-03 02:51:08,254000/d92790fa2a448d6aeece4498bd55cd34-d.jpg,,
5692715,"The Discrete Nonlinear Schrödinger Equation: Mathematical Analysis, Numerical Computations and Physical Perspectives",,Springer Tracts in Modern Physics,,Panayotis G. Kevrekidis,2009,1,Springer,,415,0,English,Математика,,0,"3540891986,9783540891987",,,,,,,,,,,0,,,,0,0,,1,12417530,pdf,D860E80A5FC8BA10975D10D9F78F65FE,,,,0,2000-01-01 01:00:00,2016-04-03 02:51:08,254000/d860e80a5fc8ba10975d10d9f78f65fe-d.jpg,,
5692716,Interactions Between Neurons and Glia in Aging and Disease,,,,"Joao Malva, Joao Malva, Ana Cristina Rego, Catarina Oliveira, Rodrigo Cunha",2007,1,Springer,,524,0,English,Медицина//Болезни//Внутренние болезни,,0,"0387708294,9780387708294,9780387708300",,,,,618.9768,RC346 .I52 2007,,,OL18504859M,,0,,,,,,,T,15740688,pdf,D881DAEBA63B4FA081B2BB89C174E0FA,,,,0,2000-01-01 01:00:00,2016-04-03 02:51:08,254000/d881daeba63b4fa081b2bb89c174e0fa-d.jpg,,
5692712,Sociology and Complexity Science: A New Field of Inquiry,,Understanding Complex Systems,,"Brian Castellani, Frederic William Hafferty",2009,1,Springer,,292,0,English,Общественные науки прочие//Социология,,0,"3540884610,9783540884613",,,,,,,,,,,0,,,,0,0,,1,6321156,pdf,D7D8B554D2581568B1C9EC27A8B45624,,,,0,2000-01-01 01:00:00,2016-04-03 02:51:08,254000/d7d8b554d2581568b1c9ec27a8b45624-d.jpg,,
5692713,Drupal for Education and E-Learning,,,,Bill Fitzgerald,2008,,Packt Publishing,,400,0,English,Образование,,0,"1847195024,9781847195029",,,,,,,,,OL23136041M,,0,,,,,,,T,19368684,pdf,D7E50F613CDF4E015E18AEDCD32008B9,,,,0,2000-01-01 01:00:00,2016-04-03 02:51:08,254000/d7e50f613cdf4e015e18aedcd32008b9-d.jpg,,
5692714,World War I Almanac,,,,Sara Pendergast,2001,1,UXL,,234,0,English,История,ebook3000.com,0,"9780787654757,0787654752,0787654760",,,,,940.3,D521 .P37 2002,,,OL11094380M,,0,0,0,,,,,T,20710730,pdf,D85BD7A22DE7BE34A548ED93806956DF,,,,0,2000-01-01 01:00:00,2016-04-03 02:51:08,254000/d85bd7a22de7be34a548ed93806956df-g.jpg,,
5692711,Rapid GUI Programming with Python and Qt (Prentice Hall Open Source Software Development),,Prentice Hall Open Source Software Development ,,Mark Summerfield,2007,1,Prentice Hall,,643,0,English,Компьютеры//Программирование,,0,"0132354187,9780132354189",,,,,005.1/2,QA76.9.U83 S89 2008,,,OL10085264M,,0,,,,,,,T,7305577,pdf,D745DEB572E4EDA340A553F6ECE25028,,,,0,2000-01-01 01:00:00,2016-04-03 02:51:08,254000/d745deb572e4eda340a553f6ece25028-d.jpg,,
5692709,Handbook of Optical and Laser Scanning (Optical Science and Engineering),,Optical Science and Engineering ,,"Gerald F. Marshall, Glenn E. Stutz",2004,2,CRC Press,,784,0,English,Техника,,0,"9780824755690,0824755693,8002281160",,,,,621.36/7,TK7882.S3 H36 2004,,,OL3327922M,,0,,,,,,,,11718584,pdf,D63887A5EED92D21CEC9B6D45342D3DA,,,,0,2000-01-01 01:00:00,2016-04-03 02:51:08,254000/d63887a5eed92d21cec9b6d45342d3da-d.jpg,,
5692710,Ruby on Rails Bible,,,,Timothy Fisher,2008,,Wiley,,627,0,English,Компьютеры//Программирование,,0,"0470258225,9780470258224",,,,,,,,,OL10295451M,,0,,,,1,0,,1,10245540,pdf,D73A5908E480694C047B80E2E0CD6A93,,,,0,2000-01-01 01:00:00,2016-04-03 02:51:08,254000/d73a5908e480694c047b80e2e0cd6a93-d.jpg,,
5692707,"Wicked Theory, Naked Practice: A Fred Ho Reader",,,,"Fred Ho, Bill V. Mullen, Diane C. Fujino, Robin D.G. Kelley",2009,,Univ Of Minnesota Press,,449,0,English,,ebook3000.com,0,"0816656843,9780816656844,9780816656851",,,,,781.65,ML60 .H68 2009,,,OL22514306M,,0,,,,,,,T,2539781,pdf,D4DABA9ABF2A9ADA9A1D6509E4F8462A,,,,0,2000-01-01 01:00:00,2016-04-03 02:51:08,254000/d4daba9abf2a9ada9a1d6509e4f8462a-d.jpg,,
5692708,WPF Control Development Unleashed: Building Advanced User Experiences,,,,"Pavan Podila, Kevin Hoffman",2009,1,Sams,,385,0,English,Техника//Строительство,,0,"9780672330339,0672330334",,,,,006.7/882,QA76.76.A65 P64 2009,,,OL23687524M,,0,,,,,,,,5320813,pdf,D60BCECC89D672A8F2A8704BF55E7958,,,,0,2000-01-01 01:00:00,2016-04-03 02:51:08,254000/d60bcecc89d672a8f2a8704bf55e7958-d.jpg,,
5692706,Joomla! 1.5 Content Administration,,,,Tracey Porst,2009,,Packt Publishing,,211,0,English,Компьютеры//Системное администрирование,,0,"184719804X,9781847198044",,,,,,,,,,,0,,,,,,,T,5511694,pdf,D479954BF8644E47F0A70AF528BE6397,,,,0,2000-01-01 01:00:00,2016-04-03 02:51:08,254000/d479954bf8644e47f0a70af528be6397-d.jpg,,
5692704,Introduction to Nitride Semiconductor Blue Lasers and Light Emitting Diodes,,,,"Shuji Nakamura, Shigefusa F. Chichibu",2000,1,CRC Press,,386,0,English,Физика,,0,"0748408363,9780748408368",,,,,621.36/6,TA1700 .I58 2000,,,OL33707M,,0,,,,,,,1,16134027,pdf,D413914B6B99A502C1489EED9A24C750,,,,0,2000-01-01 01:00:00,2016-04-03 02:51:08,254000/d413914b6b99a502c1489eed9a24c750-d.jpg,,
5692705,Mastering phpMyAdmin 2.11 for Effective MySQL Management: Increase your MySQL productivity and control by discovering the real power of phpMyAdmin 2.11,,,,Marc Delisle,2008,,Packt Publishing,,337,0,English,Бизнес//менеджмент,,0,"1847194184,9781847194183",,,,,,,,,,,0,,,,,,,T,9121495,pdf,D45940706B0297EA43379D1EFFF0AD73,,,,0,2000-01-01 01:00:00,2016-04-03 02:51:08,254000/d45940706b0297ea43379d1efff0ad73-d.jpg,,
5692702,Security on Rails,,The Pragmatic Programmers,,"Ben Poweski, David Raphael",2009,1,Pragmatic Bookshelf,,295,0,English,Компьютеры//Безопасность,,0,"1934356484,9781934356487",,,,,005.8,QA76.9.A25 P69 2009,,,OL24882171M,,0,,,,,,,T,8924656,pdf,D3AF84E29E04A53E6CBF38C4169968E4,,,,0,2000-01-01 01:00:00,2016-04-03 02:51:08,254000/d3af84e29e04a53e6cbf38c4169968e4-d.jpg,,
5692703,Hungary,,Nations in Transition,,Raymond Hill,2003,2,Facts on File,,225,0,English,География,ebook3000.com,0,"9780816050819,0816050813",,,,,,,,,OL11359797M,,0,,,,,,,T,2898121,pdf,D407A42CAF984996AC2AA070423FCB2E,,,,0,2000-01-01 01:00:00,2016-04-03 02:51:08,254000/d407a42caf984996ac2aa070423fcb2e-d.jpg,,
5692700,UML for Systems Engineering: watching the wheels,,IEE Professional Applications of Computing,,John Holt,2004,2,The Institution of Engineering and Technology,,375,0,English,Техника,ebook3000.com,0,"0863413544,9780863413544",,,,,620.001/171,TA168 .H647 2004,,,OL17909693M,,0,,,,,1,,T,1298657,pdf,D3495B438CB0A9F54081E60B6E5EFF25,,,,0,2000-01-01 01:00:00,2016-04-03 02:51:08,254000/d3495b438cb0a9f54081e60b6e5eff25-d.jpg,,
5692701,Beginning Ruby: From Novice to Professional,,,,Peter Cooper,2009,2,Apress,,658,0,English,Образование,,0,"1430223634,9781430223634,9781430223641",,,,,005.117,QA76.64 .C667 2009,,,OL24861490M,,0,,,,,,,T,15901436,pdf,D365ADEBAE259C5F91F12B547E41E2B5,,,,0,2000-01-01 01:00:00,2016-04-03 02:51:08,254000/d365adebae259c5f91f12b547e41e2b5-d.jpg,,
5692699,"WebSphere Business Integration Primer: Process Server, BPEL, SCA, and SOA",,The developerWorks Series,,"Ashok Iyengar, Vinod Jessani, Michele Chilanti",2007,1,IBM Press,,496,0,English,Компьютеры//Сети//Интернет,,0,"9780132248310,013224831X",,,,,005.1,QA76.76.M54 I94 2008,,,OL18500054M,,0,,,,,,,T,2518987,pdf,D32B88521083898D43E8B2E30DBBCDC8,,,,0,2000-01-01 01:00:00,2016-04-03 02:51:08,254000/d32b88521083898d43e8b2e30dbbcdc8-d.jpg,,
5692697,Building Websites with PHP-Nuke,,,,Douglas Paterson,2005,,Packt Publishing,,320,0,English,Компьютеры//Сети//Интернет,,0,"9781904811053,1904811051",,,,,,,,,OL8773679M,,0,,,,,,,T,5685643,pdf,D2D9312D6DEF4C7BFFA047B68F54DFCD,,,,0,2000-01-01 01:00:00,2016-04-03 02:51:08,254000/d2d9312d6def4c7bffa047b68f54dfcd-d.jpg,,
5692698,Frommer's Valencia Day by Day,,Frommer's Day by Day - Pocket,,Timothy Birch,2009,Original,Frommers,,196,0,English,География,,0,"0470721707,9780470721704",,,,,,,,,,,0,,,,,1,,,18985987,pdf,D305DF5CE46FB9DF6DB047AE8A78CEBE,,,,0,2000-01-01 01:00:00,2016-04-03 02:51:08,254000/d305df5ce46fb9df6db047ae8a78cebe-d.jpg,,
5692695,"Invision Power Board 2: A User Guide: Configure, manage and maintain a copy of Invision Power Board 2 on your own website to power an online discussion forum",,,,David Mytton,2005,,Packt Publishing,,190,0,English,Образование//Международные конференции и симпозиумы,,0,"1904811388,9781904811381",,,,,,,,,OL8773702M,no,0,,,,,,,1,2592799,pdf,D2CFADDA18BD41A5C81512E0A30ED8BD,,,,0,2000-01-01 01:00:00,2016-04-03 02:51:08,254000/d2cfadda18bd41a5c81512e0a30ed8bd-d.jpg,,
5692696,Understanding European Foreign Policy,,,,Brian White,2001,,Palgrave Macmillan,,201,0,English,,ebook3000.com,0,"9780333949887,0333949889",,,,,327.4,D843 .W453 2001,,,OL6788434M,,0,,,,,,,,1501686,djvu,D2D57A1473E0FA6C3F9F5DAC87689D39,,,,0,2000-01-01 01:00:00,2016-04-03 02:51:08,254000/d2d57a1473e0fa6c3f9f5dac87689d39-d.jpg,,
5692693,The Well-Grounded Rubyist,,,,David A. Black,2009,1,Manning Publications,,519,0,English,Компьютеры//Программирование,,0,"1933988657,9781933988658",,,,,005.117,QA76.73.R83 B58 2009,,,OL24465729M,,0,,,,,,,T,11430696,pdf,D288B80A72EAB97B2E183E1EE56D40E5,,,,0,2000-01-01 01:00:00,2016-04-03 02:51:08,254000/d288b80a72eab97b2e183e1ee56d40e5-d.jpg,,
5692694,The Nintendo Wii Pocket Guide,,,,Bart G. Farkas,2007,1,Peachpit Press,,225,0,English,,ebook3000.com,0,"9780321510112,0321510119",,,,,,,,,OL9352165M,,0,,,,,,,T,10771532,pdf,D29A9E8CFBDB61B0DDC6F3730042702B,,,,0,2000-01-01 01:00:00,2016-04-03 02:51:08,254000/d29a9e8cfbdb61b0ddc6f3730042702b-d.jpg,,
5692692,Fortress France: The Maginot Line and French Defenses in World War II,,Stackpole Military History Series,,"J.E Kaufmann, H.W Kaufmann, Tomasz Idzikowski",2005,,Praeger,,220,0,English,История,ebook3000.com,0,"0275983455,9780811733953,9780275983451,0811733955",,,,,940.54/2143,UG429.F8 H39 2006,,,,,0,,,,,1,,T,14806203,pdf,D211B842932583A6D2843EF772E09ABC,,,,0,2000-01-01 01:00:00,2016-04-03 02:51:08,254000/d211b842932583a6d2843ef772e09abc-d.jpg,,
5692690,"Coins, 1896-1929 (Corinth)",,Corinth ,,Katharine M. Edwards,1933,Volume VI,American School of Classical Studies,,189,0,English,"Домоводство, досуг//Коллекционирование",ebook3000.com,0,"9780876610619,0876610610",,,,,,,,,,,0,,,,,,,T,11011984,pdf,D16E59347D262D7C701CC65051A9BA08,,,,0,2000-01-01 01:00:00,2016-04-03 02:51:08,254000/d16e59347d262d7c701cc65051a9ba08-g.jpg,,
5692691,Lean Accounting: Best Practices for Sustainable Integration,,,,Joe Stenzel,2007,,Wiley,,344,0,English,Бизнес//Бухгалтерский учет,,0,"0470087285,9786468600,3175723993,9780470087282",,,,,,,,,OL17220015M,,0,,,,,,,T,13252874,pdf,D1FEBE1939E7086698D5B29942211D40,,,,0,2000-01-01 01:00:00,2016-04-03 02:51:08,254000/d1febe1939e7086698d5b29942211d40-d.jpg,,
5692689,Head First HTML with CSS & XHTML,,,,"Eric T Freeman, Elisabeth Freeman",2005,1,O'Reilly Media,,56,0,English,Компьютеры//Web-дизайн,,0,"9780596101978,059610197X",,,,,006.74,QA76.76.H94 F74 2006,,,OL23070940M,,0,,,,,,,T,3422384,pdf,D1086B915209251549DE1777082B3D7E,,,,0,2000-01-01 01:00:00,2016-04-03 02:51:08,254000/d1086b915209251549de1777082b3d7e-d.jpg,,
5692687,ASP.NET MVC 1.0 Quickly,,,,Maarten Balliauw,2009,,Packt Publishing,,256,0,English,Компьютеры//Программирование//Языки программирования,,0,"184719754X,9781847197542",,,,,,,,,,,0,,,,,,,T,14596270,pdf,CF4D8FAA4733EB7ADCD590FAFB052C43,,,,0,2000-01-01 01:00:00,2016-04-03 02:51:08,254000/cf4d8faa4733eb7adcd590fafb052c43-d.jpg,,
5692688,"Trade, Food, Diet and Health: Perspectives and Policy Options",,,,"Corinna Hawkes, Chantal Blouin, Spencer Henson, Nick Drager, Laurette Dubé",2010,1,Wiley-Blackwell,,338,0,English,Техника//Пищевые производства,ebook3000.com,0,"1405199865,9781405199865",,,,,363.8/2,TX359 .T73 2010,,,OL23677621M,,0,,,,,1,,T,2570004,pdf,CFCA0B867CAE978FF3FC2F03BC7AD12C,,,,0,2000-01-01 01:00:00,2016-04-03 02:51:08,254000/cfca0b867cae978ff3fc2f03bc7ad12c-d.jpg,,
5692686,"Corporatism and Consensus in Florentine Electoral Politics, 1280-1400",,,,John M. Najemy,1982,,Univ of North Carolina Pr,,359,0,English,История,ebook3000.com,0,"9780807815069,0807815063",,,,,324.945/5105,JS5817.3 .N34 1982,,,OL4270350M,,0,,,,,,,T,10967984,pdf,CF1EA327DC8DA1338BC8350509FA27E0,,,,0,2000-01-01 01:00:00,2016-04-03 02:51:08,254000/cf1ea327dc8da1338bc8350509fa27e0-g.jpg,,
5692684,"Handbook of Flotation Reagents: Chemistry, Theory and Practice: Flotation of Sulfide Ores",Volume 1,,,Srdjan M. Bulatovic,2007,,Elsevier Science,,448,0,English,,,0,"9780444530295,0444530290",,,,,622/.752,TN523 .B85 2007,,,OL21802838M,,0,,,,,,,,6456554,pdf,CE462C2315B15BEB644B7C8E0CEAC7FA,,,,0,2000-01-01 01:00:00,2016-04-03 02:51:08,254000/ce462c2315b15beb644b7c8e0ceac7fa-d.jpg,,
5692685,Kallias of Sphettos and the Revolt of Athens in 286 B.C. (Hesperia Supplement),Volume XVII,Hesperia Supplement ,,T. Leslie Shear Jr.,1978,Volume XVII,American School of Classical Studies,,130,0,English,,ebook3000.com,0,"0876615175,9780876615171",,,,,938/.5,DF235.7 .S53,,,OL4721606M,,0,,,,,1,,T,18754178,pdf,CEF6F7A092AF2E80968542ACA29D7C0F,,,,0,2000-01-01 01:00:00,2016-04-03 02:51:08,254000/cef6f7a092af2e80968542aca29d7c0f-d.jpg,,
5692682,"Raising an Athlete: How to Instill Confidence, Build Skills and Inspire a Love of Sport",,,,"Jack Perconte, Bobby Delaney",2009,,Second Base Publishing,,196,0,English,Образование,ebook3000.com,0,"0979356229,9780979356223",,,,,,,,,,,0,,,,,1,,T,1618530,pdf,CE16D8383D20C5182C2CABDA3D94063F,,,,0,2000-01-01 01:00:00,2016-04-03 02:51:08,254000/ce16d8383d20c5182c2cabda3d94063f-d.jpg,,
5692683,Manual of Applied Field Hydrogeology,,,,"Willis D. Weight, John L. Sonderegger",2001,1,McGraw-Hill Professional,,553,0,English,Геология,,0,"9780070696396,007069639X",,,,,,,,,OL7297360M,,0,,,,,,,,23602639,pdf,CE36EA049B1141B9C7382B0F0A3D4B0C,,,,0,2000-01-01 01:00:00,2016-04-03 02:51:08,254000/ce36ea049b1141b9c7382b0f0a3d4b0c-d.jpg,,
5692681,"Dutch and British Colonial Intervention in Sri Lanka, 1780-1815",,Tanap Monographs on the History of Asian-European Interaction,,"Schrikker, A.",2007,,BRILL,,289,0,English,,ebook3000.com,0,"900415602X,9789004156029",,,,,,,,,OL9085854M,,0,,,,,,,T,11518436,pdf,CD879681BAFC8C9076F97770D47F0BA9,,,,0,2000-01-01 01:00:00,2016-04-03 02:51:08,254000/cd879681bafc8c9076f97770d47f0ba9-d.jpg,,
5692679,Refactoring in Ruby,,,,"William C. Wake, Kevin Rutherford",2009,1,Addison-Wesley Professional,,291,0,English,Компьютеры//Программирование,,0,"9780321545046,0321545044",,,,,005.1/17,QA76.76.R42 .W345 2009,,,OL23655520M,,0,,,,,,,T,1519980,pdf,CD2F0BCA5869E6979EC510FE6624FEDF,,,,0,2000-01-01 01:00:00,2016-04-03 02:51:08,254000/cd2f0bca5869e6979ec510fe6624fedf-d.jpg,,
5692680,Instant Wealth Wake Up Rich!: Discover The Secret of The New Entrepreneurial Mind,,,,Christopher Howard,2009,,Wiley,,286,0,English,Экономика,,0,"0470503939,9780470503935",,,,,658.421,HB615 .H69 2010,,,OL24412961M,,0,,,,,1,,T,1985074,pdf,CD551B1C265A33EFD2877019C90555FD,,,,0,2000-01-01 01:00:00,2016-04-03 02:51:08,254000/cd551b1c265a33efd2877019c90555fd-d.jpg,,
5692677,Joomla! 1.5 Development Cookbook,,,,James Kennard,2009,,Packt Publishing,,359,0,English,Компьютеры//Web-дизайн,,0,"1847198147,9781847198143",,,,,,,,,,,0,,,,1,0,,1,5448541,pdf,CD25A767C72B9203B3A67B408ED0D53D,,,,0,2000-01-01 01:00:00,2016-04-03 02:51:08,254000/cd25a767c72b9203b3a67b408ed0d53d-d.jpg,,
5692678,CCSP SNRS Exam Certification Guide,,,,"Greg Bastien, Sara Nasseh, Christian Degu",2005,,Cisco Press,,760,0,English,Наука (общее)//Научно-популярное,,0,"9781587201530,1587201534",,,,,,,,,OL8823155M,,0,,,,,,,T,14714389,pdf,CD2C721650677B4A718510BB723EA4CD,,,,0,2000-01-01 01:00:00,2016-04-03 02:51:08,254000/cd2c721650677b4a718510bb723ea4cd-d.jpg,,
5692676,Autonomous and Autonomic Systems: With Applications to NASA Intelligent Spacecraft Operations and Exploration Systems,,NASA Monographs in Systems and Software Engineering,,"Walt Truszkowski, Harold Hallock, Christopher Rouff, Jay Karlin, James Rash, Michael Hinchey",2009,1st Edition.,Springer,,295,0,English,Техника//Аэрокосмическое оборудование,,0,"1846282322,9781846282324",,,,,,,,EXlub-LlnOUC,OL11914369M,,0,,,,,1,,T,4114892,pdf,CD00B2F7265168F069F765F9E4906CE1,,,,0,2000-01-01 01:00:00,2016-04-03 02:51:08,254000/cd00b2f7265168f069f765f9e4906ce1-d.jpg,,
5692674,"Debug It!: Find, Repair, and Prevent Bugs in Your Code",,Pragmatic Programmers,,Paul Butcher,2009,1,Pragmatic Bookshelf,,216,0,English,,,0,"193435628X,9781934356289",,,,,005.14,QA76.9.D43 B88 2009,,,OL24385225M,,0,,,,,,,T,2144698,pdf,CC95F28546B2492A07CA287542E23016,,,,0,2000-01-01 01:00:00,2016-04-03 02:51:08,254000/cc95f28546b2492a07ca287542e23016-d.jpg,,
5692675,Taking Your iPhone to the Max,,Technology in Action,,Erica Sadun,2007,1,Apress,,192,0,English,Техника//Строительство,,0,"1590599268,9781590599266,9781430205173",,,,,,,,,OL12369541M,,0,,,,,1,,,3567432,pdf,CCC09DC80D5AB9E583A28513C7A0D833,,,,0,2000-01-01 01:00:00,2016-04-03 02:51:08,254000/ccc09dc80d5ab9e583a28513c7a0d833-d.jpg,,
5692672,Actor Training,,,,Alison Hodge,2010,2,Routledge,,363,0,English,,,0,"0415471672,9780415471671,0415471680,9780415471688",,,,,792.02/807,PN2075 .T94 2010,,,OL23622327M,,0,,,,,1,,T,6072938,pdf,CC1A1CBA9717B1B1FB9D11840FFD0EDF,,,,0,2000-01-01 01:00:00,2016-04-03 02:51:08,254000/cc1a1cba9717b1b1fb9d11840ffd0edf-d.jpg,,
5692673,"Heraldry, Pageantry and Social Display in Medieval England",,,,"Peter Coss, Maurice Keen",2002,Completely Upda,Boydell Press,,289,0,English,История,ebook3000.com,0,"9780851158501,0851158501,1843830361",,,,,,,,,OL8950370M,,0,,,,,,,1,12317887,pdf,CC1FFD50DCB41C6C257E96A17772DCA9,,,,0,2000-01-01 01:00:00,2016-04-03 02:51:08,254000/cc1ffd50dcb41c6c257e96a17772dca9-d.jpg,,
5692670,Democracy and Moral Conflict,,,,Robert B. Talisse,2009,,Cambridge University Press,,217,0,English,,,0,"0521513545,9780521513548",,,,,321.8,JC423 .T2745 2009,,,OL23186966M,,0,,,,,1,,T,1226305,pdf,CBDAE476EB4B0C8A1FE27E40EA66897A,,,,0,2000-01-01 01:00:00,2016-04-03 02:51:08,254000/cbdae476eb4b0c8a1fe27e40ea66897a-d.jpg,,
5692671,"Ivory Towers and Nationalist Minds: Universities, Leadership, and the Development of the American State",,,,Mark Richard Nemec,2006,,University of Michigan Press,,291,0,English,,ebook3000.com,0,"0472099124,9780472099122,9780472069125,0472069128",,,,,379.73,LC173 .N46 2006,,,OL3408529M,,0,,,,,,,T,16698438,pdf,CC0C94956430DB685CD6C8E273431794,,,,0,2000-01-01 01:00:00,2016-04-03 02:51:08,254000/cc0c94956430db685cd6c8e273431794-d.jpg,,
5692668,Astronomical Spectroscopy: An Introduction To The Atomic And Molecular Physics Of Astronomical Spectra (Immperial College Press Advanced Physics Texts),,Immperial College Press Advanced Physics Texts ,,Jonathan Tennyson,2005,,Imperial College Press,,203,0,English,Физика,,0,"9781860945137,1860945139,1860945295",,,,,,,,,OL8628125M,,0,,,,,,,T,3460004,pdf,CB9B5F8203BC657C1C56DEDE0608EEF4,,,,0,2000-01-01 01:00:00,2016-04-03 02:51:08,254000/cb9b5f8203bc657c1c56dede0608eef4-d.jpg,,
5692669,POLITICS AND HISTORY IN WILLIAM GOLDING: THE WORLD TURNED UPSIDE DOWN,,,,Paul Crawford,2002,1,University of Missouri,,276,0,English,История,ebook3000.com,0,"9780826214164,0826214169",,,,,823/.914,PR6013.O35 Z5968 2002,,,OL3561529M,,0,,,,,,,T,2180486,pdf,CBA8951ACC589F441237C0668C7126AC,,,,0,2000-01-01 01:00:00,2016-04-03 02:51:08,254000/cba8951acc589f441237c0668c7126ac-d.jpg,,
5692666,The Archaeology of Human Bones,,,,Simon Mays,1998,1,Routledge,,257,0,English,История,ebook3000.com,0,"9780415166218,0415166217,0415174074,020319439X,020319442X",,,,,599.9/4,GN70 .M39 1998,,,OL24248159M,,0,,,,,,,T,11118446,pdf,CAB7C14EA27551F6822EC604A62CA9F2,,,,0,2000-01-01 01:00:00,2016-04-03 02:51:08,254000/cab7c14ea27551f6822ec604a62ca9f2-d.jpg,,
5692667,Solr 1.4 Enterprise Search Server,,,,"David Smiley, Eric Pugh",2009,,Packt Publishing,,335,0,English,Компьютеры//Информационные системы//ИС предприятий,,0,"1847195881,9781847195883",,,,,,,,,,,0,,,,,,,T,7491011,pdf,CAD2DB1F5436BF10EB208DEE0353E69A,,,,0,2000-01-01 01:00:00,2016-04-03 02:51:08,254000/cad2db1f5436bf10eb208dee0353e69a-d.jpg,,
5692664,JBoss(R) Seam: Simplicity and Power Beyond Java(TM) EE,,,,"Michael Juntao Yuan, Thomas Heute",2007,1,Prentice Hall,,421,0,English,Компьютеры//Программирование//Языки программирования,ebook3000.com,0,"9780131347960,0131347969",,,,,005.2/762,TK5105.8885.J42 Y83 2007,,,OL17160428M,,0,,,,,,,T,10734750,pdf,CA5994AD1EA97ECB7D42DF28F55987E0,,,,0,2000-01-01 01:00:00,2016-04-03 02:51:08,254000/ca5994ad1ea97ecb7d42df28f55987e0-d.jpg,,
5692665,Down the Tube: The Diary of My Week in TV Hell : 200 Channels : No Escape,,,,Bill Brownstein,2001,,ECW Press,,169,0,English,,ebook3000.com,0,"9781550224634,1550224638",,,,,,,,,OL8548485M,,0,,,,,,,T,10985092,pdf,CA792572E9533D26FBF89DDCB6EFD4B4,,,,0,2000-01-01 01:00:00,2016-04-03 02:51:08,254000/ca792572e9533d26fbf89ddcb6efd4b4-d.jpg,,
5692663,"Foundation Website Creation with CSS, XHTML, and JavaScript",,,,"Jonathan Lane, Meitar Moscovitz, Joseph R. Lewis",2008,1,friends of ED,,350,0,English,Компьютеры//Сети//Интернет,,0,"1430209917,9781430209911,9781430209928",,,,,"006.76,005.276",TK5105.888 .L363 2008,,,OL23655704M,,0,,,,,,,,5796225,pdf,CA547BBB5E057123F3FF5A907C92BCFE,,,,0,2000-01-01 01:00:00,2016-04-03 02:51:08,254000/ca547bbb5e057123f3ff5a907c92bcfe-d.jpg,,
5692661,"Gla1/4cksspiel in Deutschland: A-Konomie, Recht, Sucht",,,,"Ihno Gebhardt, Sabine Miriam Gra1/4sser-Sinopoli",2008,,Walter de Gruyter,,761,0,German,,,0,"3899493176,9783899493177",,,,,,,,,OL25144919M,,0,,,,,,,T,3582103,pdf,C954FEFAAB2542893E3AB33201B3155D,,,,0,2000-01-01 01:00:00,2016-04-03 02:51:08,254000/c954fefaab2542893e3ab33201b3155d-d.jpg,,
5692662,Using Drupal,,,,"Angela Byron, Addison Berry, Nathan Haug, Jeff Eaton, James Walker, Jeff Robbins",2008,1,O'Reilly Media,,494,0,English,,,0,"0596515804,9780596515805",,,,,006.7/6 22,TK5105.8885.D78 U75 2009,,,OL22869018M,,0,,,,1,0,,1,26676268,pdf,C9CE6817685C5C3122CA4515756F70F4,,,,0,2000-01-01 01:00:00,2016-04-03 02:51:08,254000/c9ce6817685c5c3122ca4515756f70f4-d.jpg,,
5692660,Cabling: The Complete Guide to Copper and Fiber-Optic Networking,,,,"Andrew Oliviero, Bill Woodward",2009,4,Sybex,,1147,0,English,Техника//Электроника//Волоконная оптика,,0,"0470477075,9780470477076",,,,,621.382/3,TK5103.15 .O43 2009,,,OL23213305M,,0,,,,,,,T,20966736,pdf,C94419CAE9570D6A14BFD29B01C4E379,,,,0,2000-01-01 01:00:00,2016-04-03 02:51:08,254000/c94419cae9570d6a14bfd29b01c4e379-d.jpg,,
5692659,WordPress 2.7 Complete,,,,"Hasin Hayder, April Hodge Silver",2009,,Packt Publishing,,295,0,English,,,0,"184719656X,9781847196569",,,,,,,,,,,0,,,,,,,T,10792641,pdf,C8E3306970769FDB89DDDC30D8F474D4,,,,0,2000-01-01 01:00:00,2016-04-03 02:51:08,254000/c8e3306970769fdb89dddc30d8f474d4-d.jpg,,
5692657,CCSP IPS Exam Certification Guide,,,,Earl Carter,2005,,Cisco Press,,816,0,English,Компьютеры//Сети,,0,"9781587201462,1587201461",,,,,,,,,OL8823151M,,0,,,,,,,T,16230250,pdf,C83546B20759E9192664816A3F42BE15,,,,0,2000-01-01 01:00:00,2016-04-03 02:51:08,254000/c83546b20759e9192664816a3f42be15-d.jpg,,
5692658,Nitric Oxide in Plant Physiology,,,,"Shamsul Hayat, Masaki Mori, John Pichtel, Aqil Ahmad",2009,,Wiley-VCH,,230,0,English,Биология//Растения//Ботаника,,0,"3527325190,9783527325191",,,,,,,,,,,0,,,,,1,,T,2293648,pdf,C86F843AEAD28F5BFC31E4DBCAD3B055,,,,0,2000-01-01 01:00:00,2016-04-03 02:51:08,254000/c86f843aead28f5bfc31e4dbcad3b055-d.jpg,,
5692655,Enterprise Recipes with Ruby and Rails,,,,Maik Schmidt,2008,,Pragmatic Bookshelf,,375,0,English,Компьютеры//Информационные системы//ИС предприятий,,0,"1934356239,9781934356234",,,,,005.1/17,QA76.64 .S357 2008,,,OL23644049M,,0,,,,0,0,,1,8817917,pdf,C6CE104C06764D3CAA7FB41629F91447,,,,0,2000-01-01 01:00:00,2016-04-03 02:51:08,254000/c6ce104c06764d3caa7fb41629f91447-d.jpg,,
5692656,Cracking Drupal: A Drop in the Bucket,,,,Greg Knaddison,2009,,Wiley,,242,0,English,Компьютеры//Сети//Интернет,,0,"0470429038,9780470429037",,,,,006.7/6,TK5105.8885.D78 K63 2009,,,OL23165622M,,0,,,,,,,T,4612581,pdf,C779DD5300E1DC8B27D5BB0B7313D129,,,,0,2000-01-01 01:00:00,2016-04-03 02:51:08,254000/c779dd5300e1dc8b27d5bb0b7313d129-d.jpg,,
5692654,"Operational Radiation Safety Program for Astronauts in Low-Earth Orbit: A Basic Framework (Ncrp Report, No. 142)",,"Ncrp Report, No. 142 ",,National Council on Radiation Protection and Measurements,2002,,National Council on Radiation Protection & Me,,180,0,English,Физика//Астрономия//Астрофизика,,0,"9780929600758,0929600754",,,,,616.9/80214,RA1151.R33 N38 2002,,,OL3565300M,,0,,,,,,,T,977822,pdf,C6C90DD010F82CC9E709EAD794D5ABB0,,,,0,2000-01-01 01:00:00,2016-04-03 02:51:08,254000/c6c90dd010f82cc9e709ead794d5abb0-d.jpg,,
5692652,Professional Oracle WebLogic Server,,Wrox Programmer to Programmer,,"Robert Patrick, Gregory Nyberg, Philip Aston, Josh Bregman, Paul Done",2009,1,Wrox,,816,0,English,Компьютеры//Сети//Интернет,,0,"0470484306,9780470484302,0470593938,9780470593936",,,,,,,,,OL24305561M,,0,,,,,1,,,6491857,pdf,C6409DDB23100DC859F40ABC106DA1C1,,,,0,2000-01-01 01:00:00,2016-04-03 02:51:08,254000/c6409ddb23100dc859f40abc106da1c1-d.jpg,,
5692653,"The Definitive Guide to Catalyst: Writing Extensible, Scalable and Maintainable Perl–Based Web Applications",,,,"Kieren Diment, Matt Trout",2009,1,Apress,,362,0,English,Компьютеры//Сети//Интернет,,0,"1430223650,9781430223658",,,,,005.13/3,QA76.73.P22 D54 2009,,,OL24484434M,,0,,,,1,0,,1,13112224,pdf,C673DA0096A65A179343AE3C6404A50C,,,,0,2000-01-01 01:00:00,2016-04-03 02:51:08,254000/c673da0096a65a179343ae3c6404a50c-d.jpg,,
5692650,"Complete Web Monitoring: Watching Your Visitors, Performance, Communities, and Competitors",,,,"Alistair Croll, Sean Power",2009,1,O'Reilly Media,,664,0,English,Компьютеры//Сети//Интернет,,0,"0596155131,9780596155131",,,,,006.7,TK5105.888 .C75 2009,,,OL24379936M,,0,,,,,,,T,21546734,pdf,C60A421B7FADEA8F408252DE9DE0DB5D,,,,0,2000-01-01 01:00:00,2016-04-03 02:51:08,254000/c60a421b7fadea8f408252de9de0db5d-d.jpg,,
5692651,The Anthropology of Ireland,,,,"Thomas M. Wilson, Hastings Donnan",2006,,Berg Publishers,,256,0,English,Биология//Антропология,ebook3000.com,0,"1845202384,9781845202385,9781845202392,1845202392",,,,,,,,,OL22740028M,,0,,,,,,,T,12954424,pdf,C61B14F831A1E4E014A67B2220723968,,,,0,2000-01-01 01:00:00,2016-04-03 02:51:08,254000/c61b14f831a1e4e014a67b2220723968-d.jpg,,
5692649,Troubleshooting Remote Access Networks (CCIE Professional Development),,CCIE Professional Development ,,Plamen Nedeltchev,2002,,Cisco Press,,896,0,English,Компьютеры//Сети,,0,"9781587050763,1587050765",,,,,004.6,TK5105.597 .N43 2003,,,OL22732688M,,0,,,,,,,,11709086,pdf,C5D9962F16083FBF9CCD7FC75EAF4FF1,,,,0,2000-01-01 01:00:00,2016-04-03 02:51:08,254000/c5d9962f16083fbf9ccd7fc75eaf4ff1-d.jpg,,
5692647,"Wills' Mineral Processing Technology, Seventh Edition: An Introduction to the Practical Aspects of Ore Treatment and Mineral Recovery",,,,"Tim Napier-Munn, Barry A. Wills",2006,7,Butterworth-Heinemann,,450,0,English,,,0,"9780750644501,0750644508",,,,,622/.7,TN500 .W54 2006,,,OL18585458M,,0,,,,,,,T,42069946,pdf,C55FF86F1A3296F1D1FCC4DC5378F6D6,,,,0,2000-01-01 01:00:00,2016-04-03 02:51:08,254000/c55ff86f1a3296f1d1fcc4dc5378f6d6-d.jpg,,
5692648,MPLS and Next-Generation Networks: Foundations for NGN and Enterprise Virtualization,,,,"Azhar Sayeed, Monique J. Morrow",2006,illustrated edition,Cisco Press,,400,0,English,Компьютеры//Информационные системы//ИС предприятий,,0,"1587201208,9781587201202",,,,,004.67/8,TK5105.875.E87 M77 2005,,,OL17929890M,CHM to pdf conversion - needs improvement,0,,,,,,,1,4558488,pdf,C5A2B1D7FDCFFC5CBD4ED2407741544B,,,,0,2000-01-01 01:00:00,2016-04-03 02:51:08,254000/c5a2b1d7fdcffc5cbd4ed2407741544b-d.jpg,,
5692646,The Complete Cisco VPN Configuration Guide,,,,Richard Deal,2005,illustrated edition,Cisco Press,,390,0,English,Компьютеры//Системное администрирование,,0,"9781587052040,1587052040",,,,,,,,,OL8822249M,,0,,,,,,,T,35506287,pdf,C559380A964D8D578D6357A1A369FE9D,,,,0,2000-01-01 01:00:00,2016-04-03 02:51:08,254000/c559380a964d8d578d6357a1a369fe9d-d.jpg,,
5692643,Prediabetes For Dummies,,,,Alan L. Rubin MD,2009,1,For Dummies,,387,0,English,Образование,,0,"0470523018,9780470523018",,,,,,,,,OL24803544M,,0,,,,,,,T,4619072,pdf,C4A7971D5346C0055FDE2886EBF71F4D,,,,0,2000-01-01 01:00:00,2016-04-03 02:51:08,254000/c4a7971d5346c0055fde2886ebf71f4d-d.jpg,,
5692644,Spring Web Flow 2 Web Development,,,,"Sven Lüppken, Markus Stäuble",2009,,Packt Publishing,,272,0,English,Компьютеры//Сети//Интернет,,0,"1847195423,9781847195425",,,,,,,,,,,0,,,,,1,,T,4638352,pdf,C4E2E386C7CCB3DECC1FE645F01AF770,,,,0,2000-01-01 01:00:00,2016-04-03 02:51:08,254000/c4e2e386c7ccb3decc1fe645f01af770-d.jpg,,
5692645,Best Practice in Labour and Delivery,,Cambridge Medicine,,"Richard Warren, Sabaratnam Arulkumaran",2009,1,Cambridge University Press,,380,0,English,Медицина,ebook3000.com,0,"0521720680,9780521720687,9780511635038",,,,,618.4,RG651 .B47 2009,,,OL23575417M,,0,,,,,,,T,6400770,pdf,C518DA557E2C2EF174705A3AF61759E5,,,,0,2000-01-01 01:00:00,2016-04-03 02:51:08,254000/c518da557e2c2ef174705a3af61759e5-d.jpg,,
5692641,Joomla! Web Security,,,,Tom Canavan,2008,,Packt Publishing,,264,0,English,Компьютеры//Сети//Интернет,,0,"1847194885,9781847194886",,,,,,,,,,,0,,,,,,,T,10302305,pdf,C2F9809AD9E7734538420DBEDF73DEC1,,,,0,2000-01-01 01:00:00,2016-04-03 02:51:08,254000/c2f9809ad9e7734538420dbedf73dec1-d.jpg,,
5692642,AdvancED Flash on Devices: Mobile Development with Flash Lite and Flash 10,,,,"Scott Janousek, Elad Elrom, Thomas Joos",2009,1,friendsofED,,717,0,English,Биология//Генетика,,0,"1430219041,9781430219040",,,,,776/.6,TR897.7 .E455 2009,,,OL24851896M,,0,,,,,0,,,12647600,pdf,C46201779B1C1FB4AF5758FBAFE7A08A,,,,0,2000-01-01 01:00:00,2016-04-03 02:51:08,254000/c46201779b1c1fb4af5758fbafe7a08a-d.jpg,,
5692640,Flash CS4 Professional for Windows and Macintosh: Visual QuickStart Guide,,,,Katherine Ulrich,2008,1,Peachpit Press,,619,0,English,Компьютеры//Операционные системы,,0,"9780321591920,0321591925",,,,,006.786,T385 .U4583 2009,,,OL22984858M,,0,,,,,,,T,17929926,pdf,C27342D8AF129D20EE282234AE7F668D,,,,0,2000-01-01 01:00:00,2016-04-03 02:51:08,254000/c27342d8af129d20ee282234ae7f668d-d.jpg,,
5692638,A Modern Art of Education (Foundations of Waldorf Education),,Foundations of Waldorf Education ,,R Steiner,2004,Revised,Anthroposophic Press,,256,0,German,Образование,ebook3000.com,0,"9780880105118,0880105119",,,,,370/.1,LB775.S7 G497 2003,,,OL3677835M,,0,,,,,,,1,2003434,pdf,C1C356B0C06E522D3289ED8403AB651B,,,,0,2000-01-01 01:00:00,2016-04-03 02:51:08,254000/c1c356b0c06e522d3289ed8403ab651b-d.jpg,,
5692639,Principles of Planar Near-Field Antenna Measurements,,Iet Electromagnetic Waves,,"S. Gregson, J. McCormick, C. Parini",2007,,Institution of Engineering and Technology,,413,0,English,Техника//Электроника//Радио,ebook3000.com,0,"0863417361,9780863417368",,,,,,,,,,,0,,,,,1,,T,5477313,pdf,C1F73011274B726EBF0BE4E38511C076,,,,0,2000-01-01 01:00:00,2016-04-03 02:51:08,254000/c1f73011274b726ebf0be4e38511c076-d.jpg,,
5692636,Sams Teach Yourself Shell Programming in 24 Hours,,,,Sriranga Veeraraghavan,2002,2,Sams,,503,0,English,Образование//Самоучители,ebook3000.com,0,"9780672323584,0672323583,2001096631",,,,,,,,,OL7668455M,,0,,,,,,,T,14431997,pdf,C1723E330FDA2B8A5212FA63FF56B20A,,,,0,2000-01-01 01:00:00,2016-04-03 02:51:08,254000/c1723e330fda2b8a5212fa63ff56b20a-d.jpg,,
5692637,UMTS Networks and Beyond,,,,Cornelia Kappler,2009,,Wiley,,363,0,English,Компьютеры//Сети,,0,"0470031905,9780470031902",,,,,621.3845/6,TK5103.4883 .K36 2009,,,OL22552266M,,0,,,,,,,T,4924242,pdf,C18B5893D2EBF0DB6F7225B611C168C4,,,,0,2000-01-01 01:00:00,2016-04-03 02:51:08,254000/c18b5893d2ebf0db6f7225b611c168c4-d.jpg,,
5692635,Motion Vision: Design of Compact Motion Sensing Solutions for Autonomous Systems,,IEE Control Series,,Ljubo Vlacic Julian Kolodko,2005,illustrated edition,Institution of Engineering and Technology,,458,0,English,,ebook3000.com,0,"0863414532,9780863414534",,,,,629.8315,TJ214.5 .K65 2005,,,OL3464399M,,0,,,,,1,,T,2452405,pdf,C16A78EC5DB04B61920CD1E7323E15C0,,,,0,2000-01-01 01:00:00,2016-04-03 02:51:08,254000/c16a78ec5db04b61920cd1e7323e15c0-d.jpg,,
5692633,Il Cammino di Santiago,,,,Paulo Coelho,2001,Fifth Edition,"Bompiani, Milano",,345,0,Italian,Языкознание,ebook3000.com,0,"9788845248474,884524847X",,,,,,,,,,,0,,,,,1,,T,1390597,pdf,C1525A40435EF7A8F35C2C3527A87B06,,,,0,2000-01-01 01:00:00,2016-04-03 02:51:08,254000/c1525a40435ef7a8f35c2c3527a87b06-d.jpg,,
5692634,JDBC 4.0 and Oracle JDeveloper for J2EE Development: A J2EE developer's guide to using Oracle JDeveloper's integrated database features to build data-driven applications,,,,Deepak Vohra,2008,,Packt Publishing,,442,0,English,Компьютеры//Организация и обработка данных,,0,"1847194303,9781847194305",,,,,,,,,,,0,,,,,,,T,25426564,pdf,C15E3C2FE57F158EDD733A9E74961362,,,,0,2000-01-01 01:00:00,2016-04-03 02:51:08,254000/c15e3c2fe57f158edd733a9e74961362-d.jpg,,
5692631,"Joomla! Start to Finish: How to Plan, Execute, and Maintain Your Web Site",,Wrox Programmer to Programmer,,Jen Kramer,2010,,Wrox,,364,0,English,Образование,,0,"047057089X,9780470570890",,,,,006.78,TK5105.8885.J86 K73 2010,,,OL25255582M,,0,,,,,,,T,17317476,pdf,C0CF8D419852032869312547EBE76C73,,,,0,2000-01-01 01:00:00,2016-04-03 02:51:08,254000/c0cf8d419852032869312547ebe76c73-d.jpg,,
5692632,Troubleshooting IP Routing Protocols,,CCIE Professional Development Series,,"Zaheer Aziz, Johnson Liu, Abe Martey, Faraz Shamim",2002,,Cisco Press,,1145,0,English,Компьютеры//Сети,,0,"9781587050190,1587050196",,,,,,,,,OL18386391M,,0,,,,,,,,12592004,pdf,C12856500A23EF4F03BEC7C1CD6CE7F3,,,,0,2000-01-01 01:00:00,2016-04-03 02:51:08,254000/c12856500a23ef4f03bec7c1cd6ce7f3-d.jpg,,
5692630,Ruby Best Practices,,,,Gregory T Brown,2009,1,O'Reilly Media,,330,0,English,Компьютеры//Программирование,,0,"0596523009,9780596523008",,,,,,,,,,,0,,,,,1,,T,2097870,pdf,C0CB8E581477B7A18CEBD9ABEC255117,,,,0,2000-01-01 01:00:00,2016-04-03 02:51:08,254000/c0cb8e581477b7a18cebd9abec255117-d.jpg,,
5692628,Mrs Brown is a Man and a Brother: Women in Merseyside's Political Organisations 1890-1920,,,,Krista Cowman,2004,,Liverpool University Press,,207,0,English,,ebook3000.com,0,"9780853237389,0853237387,0853237484",,,,,305.42094275,HQ1236.5.G7 C69 2004,,,OL22588385M,,0,,,,,,,T,11736114,pdf,C0893D676D16CAE1976DACEFCC90B278,,,,0,2000-01-01 01:00:00,2016-04-03 02:51:08,254000/c0893d676d16cae1976dacefcc90b278-d.jpg,,
5692629,From Cranmer to Sancroft,,,,Patrick Collinson,2007,,Continuum International Publishing,,293,0,English,,,0,"9781852855048,1852855045",,,,,,,,,OL11958318M,,0,,,,,,,T,16725990,pdf,C0A01F79966AF44D79A4C4D890E14761,,,,0,2000-01-01 01:00:00,2016-04-03 02:51:08,254000/c0a01f79966af44d79a4c4d890e14761-d.jpg,,
5692626,Beginning Mac OS X Programming,,,,"Michael Trent, Drew McCormack",2005,,Wrox,,722,0,English,Компьютеры//Операционные системы,,0,"0764573993,9780764573996,9780471751953",,,,,,,,,OL24301024M,,0,,,,,,,T,8351658,pdf,C0130CC229859D0B214BC789F442A46E,,,,0,2000-01-01 01:00:00,2016-04-03 02:51:08,254000/c0130cc229859d0b214bc789f442a46e-d.jpg,,
5692627,"Agile Web Development with Rails, Third Edition",,,,"Sam Ruby, Dave Thomas, David Heinemeier Hansson",2009,3,Pragmatic Bookshelf,,762,0,English,Компьютеры//Сети//Интернет,,0,"1934356166,9781934356166",,,,,,,,,OL23719153M,,0,,,,,,,T,9242862,pdf,C07E62F02960EB7E6731262B1A56B172,,,,0,2000-01-01 01:00:00,2016-04-03 02:51:08,254000/c07e62f02960eb7e6731262b1a56b172-d.jpg,,
5692624,"CCENT/CCNA ICND1 Official Exam Certification Guide, 2nd Edition",,,,Wendell Odom,2007,2nd,Cisco Press,,685,0,English,Компьютеры//Сети,,0,"9781587201820,1587201828",,,,,004.6,QA76.3 .O358 2008,,,OL23673635M,,0,,,,,,,T,16079753,pdf,BF84452D68258C23CCC7395A8EC0856C,,,,0,2000-01-01 01:00:00,2016-04-03 02:51:08,254000/bf84452d68258c23ccc7395a8ec0856c-d.jpg,,
5692625,"She Bop II: The Definitive History of Women in Rock, Pop and Soul",,Bayou Press Series,,Lucy O'Brien,2004,,Continuum,,545,0,English,История,ebook3000.com,0,"0826472087,9780826472083",,,,,,,,,OL8168873M,,0,,,,,,,T,28233608,pdf,BFA870343F919CC925281F0468CD13D5,,,,0,2000-01-01 01:00:00,2016-04-03 02:51:08,254000/bfa870343f919cc925281f0468cd13d5-d.jpg,,
5692622,Multimedia on Symbian OS: Inside the Convergence Device,,Symbian Press,,"Adi Rome, Mark Wilcox",2008,,Wiley,,278,0,English,Компьютеры//Мультимедиа,,0,"0470695072,9780470695074",,,,,,,,,,,0,,,,,,,T,1187811,pdf,BD7E9B65645D00F99462C684F8877D59,,,,0,2000-01-01 01:00:00,2016-04-03 02:51:08,254000/bd7e9b65645d00f99462c684f8877d59-d.jpg,,
5692623,Ingenieurmathematik kompakt  Problemlösungen mit MATLAB: Einstieg und Nachschlagewerk für Ingenieure und Naturwissenschaftler,,,,Hans Benker,2010,1st Edition.,Springer,,274,0,German,Математика,,0,"3642054528,9783642054525",,,,,,,,,,,0,,,,,1,,,2937533,pdf,BF35F44EA52EAE719152C20F799B1B5C,,,,0,2000-01-01 01:00:00,2016-04-03 02:51:08,254000/bf35f44ea52eae719152c20f799b1b5c-d.jpg,,
5692621,Introduction to 3D Game Engine Design Using DirectX 9 and C#,,,,Lynn Thomas Harrison,2003,1,Apress,,373,0,German,Компьютеры//Мультимедиа,,0,"9781590590812,1590590813",,,,,,,,,OL8848510M,,0,,,,,,,,2370237,pdf,BD72D29F5EFD8DC7AB7D0EC743D04D07,,,,0,2000-01-01 01:00:00,2016-04-03 02:51:08,254000/bd72d29f5efd8dc7ab7d0ec743d04d07-d.jpg,,
5692619,LINQ Quickly,,,,N. Satheesh Kumar,2007,,Packt Publishing,,250,0,English,Компьютеры,,0,"1847192548,9781847192547",,,,,,,,,OL11916241M,,0,,,,,,,T,6878530,pdf,BCAE949382FA2D049851693216FC3EF7,,,,0,2000-01-01 01:00:00,2016-04-03 02:51:08,254000/bcae949382fa2d049851693216fc3ef7-d.jpg,,
5692620,MENC Handbook of Research Methodologies,,,,Richard Colwell,2006,,"Oxford University Press, USA",,417,0,English,,,0,"9780195304558,0195189450,0195304551",,,,,780/.71,MT1 .R512 2006,,,OL22723114M,,0,,,,,,,T,2241905,pdf,BD5BFEC3C6B45968567B92EC70C5F8FB,,,,0,2000-01-01 01:00:00,2016-04-03 02:51:08,254000/bd5bfec3c6b45968567b92ec70c5f8fb-d.jpg,,
5692617,Too Big to Save? How to Fix the U.S. Financial System,,,,"Robert Pozen, Robert J. Shiller",2009,,Wiley,,482,0,English,Образование,,0,"0470499052,9780470499054",,,,,332.10973,HG181 .P67 2010,,,OL23687602M,,0,,,,,1,,T,3149628,pdf,BC71CFAC522B3E859E170788CF74A80A,,,,0,2000-01-01 01:00:00,2016-04-03 02:51:08,254000/bc71cfac522b3e859e170788cf74a80a-d.jpg,,
5692618,Bioinformatics: Genomics and Post-Genomics,,,,"Frédéric Dardel, François Képès, Noah Hardy",2006,1,Wiley,,253,0,English,Биология//Молекулярная//Биоинформатика,,0,"9780470020012,0470020016",,,,,572.80285,QH324.2 .B558 2006,,,OL21057314M,,0,,,,,,,T,4169707,pdf,BC796F9C366CE70254B2A015002635B9,,,,0,2000-01-01 01:00:00,2016-04-03 02:51:08,254000/bc796f9c366ce70254b2a015002635b9-d.jpg,,
5692616,Frommer's South Africa,,Frommer's Complete,,Pippa de Bruyn,2009,6,Frommers,,484,0,English,География,,0,"0470498765,9780470498767",,,,,,,,,,,0,,,,,1,,,10808687,pdf,BC71996D69EE61C992D2A0CD79381BEF,,,,0,2000-01-01 01:00:00,2016-04-03 02:51:08,254000/bc71996d69ee61c992d2a0cd79381bef-d.jpg,,
5692614,ITS NEVER DONE THAT BEFORE,,,,Cengage,2002,,Thomson Delmar Learning,,283,0,English,Компьютеры//Операционные системы,ebook3000.com,0,"9781593270766,1593270763",,,,,005.4/46,QA76.76.O63 R682 2006,,,OL3412713M,,0,,,,,,,T,13750227,pdf,BB1A17FDB34EA5FFF2BB7A69EE6CA346,,,,0,2000-01-01 01:00:00,2016-04-03 02:51:08,254000/bb1a17fdb34ea5fff2bb7a69ee6ca346-d.jpg,,
5692615,"One Strategy: Organization, Planning, and Decision Making",,,,"Steven Sinofsky, Marco Iansiti",2009,,Wiley,,323,0,English,,,0,"0470560452,9780470560457",,,,,658.4/012,HD30.28 .S476 2010,,,OL23697542M,,0,,,,,1,,T,1887238,pdf,BB9A21FACE13A634DA781FD8B0145F8D,,,,0,2000-01-01 01:00:00,2016-04-03 02:51:08,254000/bb9a21face13a634da781fd8b0145f8d-d.jpg,,
5692612,Professional Android Application Development,,Wrox Programmer to Programmer,,Reto Meier,2008,,Wrox,,436,0,English,Компьютеры,,0,"0470344717,9780470344712,9780471777106,9780764558313",,,,,005.13/3,QA76.73.J38 P7623 2007,,,OL21888311M,,0,,,,,,,T,5808075,pdf,BA37549759DA93A74AECC45B5FCD9DE8,,,,0,2000-01-01 01:00:00,2016-04-03 02:51:08,254000/ba37549759da93a74aecc45b5fcd9de8-d.jpg,,
5692613,Building Websites with PHP-Nuke,,,,Douglas Paterson,2005,,Packt Publishing,,321,0,English,Компьютеры//Сети//Интернет,,0,"9781904811053,1904811051",,,,,,,,,OL8773679M,,0,,,,,,,T,10080671,pdf,BACCE503683AC9FDCFEC290B6491614F,,,,0,2000-01-01 01:00:00,2016-04-03 02:51:08,254000/bacce503683ac9fdcfec290b6491614f-d.jpg,,
5692610,Security and Quality of Service in Ad Hoc Wireless Networks,,,,Amitabh Mishra,2008,1,Cambridge University Press,,196,0,English,Компьютеры//Сети,,0,"0521878241,9780521878241,9780511388132",,,,,621.3821,TK5105.77 .M57 2008,,,OL10438261M,,0,,,,0,0,,1,3254858,pdf,B9A899593BC34577FD91ACD00033C4B0,,,,0,2000-01-01 01:00:00,2016-04-03 02:51:08,254000/b9a899593bc34577fd91acd00033c4b0-d.jpg,,
5692611,Alcohol - Whats a Parent to Believe?,,The Informed Parent,,Stephen Biddulph,2003,,Hazelden Publishing,,246,0,English,Психология,ebook3000.com,0,"9781592850402,1592850405,2003050914",,,,,,,,,OL8868540M,,0,,,,,,,T,5530006,pdf,BA0AA8FADABB2C3F93E16ED4372766F3,,,,0,2000-01-01 01:00:00,2016-04-03 02:51:08,254000/ba0aa8fadabb2c3f93e16ed4372766f3-d.jpg,,
5692609,Freedom on Fire: Human Rights Wars and Americas Response,,,,John Shattuck,2003,,Harvard University Press,,401,0,English,,ebook3000.com,0,"0674011627,9780674011625,0674018559,9780674018556",,,,,,,,,OL7670968M,,0,,,,1,0,,1,1410197,pdf,B99914BD3F45982A8B88F4E180CB738B,,,,0,2000-01-01 01:00:00,2016-04-03 02:51:08,254000/b99914bd3f45982a8b88f4e180cb738b-d.jpg,,
5692607,Prevention of Premature Staining in New Buildings,,,,Phil Parnham,1996,1,Spon Press,,139,0,English,Техника//Строительство,,0,"0419171304,9780419171300,0203473914,9780203473917,9780585456935",,,,,,,,,OL19945237M,,0,,,,,,,T,6877161,pdf,B921343648C598C2F52E98F5D695D202,,,,0,2000-01-01 01:00:00,2016-04-03 02:51:08,254000/b921343648c598c2f52e98f5d695d202-d.jpg,,
5692608,"CSS Cookbook, 3rd Edition (Animal Guide)",,Animal Guide ,,"Christopher Schmitt, Dan Cederholm",2009,3rd,O'Reilly Media,,896,0,English,Биология//Зоология,,0,"059615593X,9780596155933",,,,,,,,,OL24903713M,,0,,,,,,,T,32280107,pdf,B97DA96973B87FC678C80B84B9504B67,,,,0,2000-01-01 01:00:00,2016-04-03 02:51:08,254000/b97da96973b87fc678c80b84b9504b67-d.jpg,,
5692605,Luminescence and the Solid State,,Studies in Inorganic Chemistry 21,,Richard C. Ropp,2004,2,Elsevier Science,,731,0,English,Химия,,0,"9780444516619,0444516611,1865843830,2076315500,044488940X",,,,,541/.0421,QD478 .R66 1991,,,OL1532606M,,0,0,0,,,,,T,31065199,pdf,B91191076C121F5786C85BB11A829434,,,,0,2000-01-01 01:00:00,2016-04-03 02:51:08,254000/b91191076c121f5786c85bb11a829434-d.jpg,,
5692606,MooTools 1.2 Beginner's Guide,,,,"Jacob Gube, Garrick Cheung",2010,,Packt Publishing,,280,0,English,Образование,,0,"1847194583,9781847194589",,,,,,,,,,,0,,,,,,,T,5369135,pdf,B91F71D9EF9BC1E3145C008C6DB4849E,,,,0,2000-01-01 01:00:00,2016-04-03 02:51:08,254000/b91f71d9ef9bc1e3145c008c6db4849e-d.jpg,,
5692603,The Basics: A Really Useful Cook Book,,,,Anthony Telford,2009,,Allen & Unwin,,587,0,English,,ebook3000.com,0,"1741752140,9781741752144",,,,,,,,,,,0,,,,,1,,T,7656929,pdf,B8A7B2EE531BF3968F8F358D393BB717,,,,0,2000-01-01 01:00:00,2016-04-03 02:51:08,254000/b8a7b2ee531bf3968f8f358d393bb717-d.jpg,,
5692604,The Early Admissions Game: Joining the Elite,,,,"Christopher Avery, Andrew Fairbanks, Richard Zeckhauser",2003,,Harvard University Press,,398,0,English,,ebook3000.com,0,"0674010558,9780674010550,0674016203,9780674016200",,,,,,,,,OL9537886M,,0,,,,1,0,,1,906390,pdf,B8F0DAF1299913C7037ECE54A90C4E91,,,,0,2000-01-01 01:00:00,2016-04-03 02:51:08,254000/b8f0daf1299913c7037ece54a90c4e91-d.jpg,,
5692602,Unmanned Space Missions (An Explorer's Guide to the Universe),,An Explorer's Guide to the Universe ,,Erik Gregersen,2009,1,Rosen Education Service,,208,0,English,Техника//Аэрокосмическое оборудование,ebook3000.com,0,"9781615300181,161530018X",,,,,629.43/5,TL795.3 .U56 2010,,,OL23712917M,,0,,,,,,,T,12060396,pdf,B8A4468A03EAEB81DFCA04E412D7F04A,,,,0,2000-01-01 01:00:00,2016-04-03 02:51:08,254000/b8a4468a03eaeb81dfca04e412d7f04a-d.jpg,,
5692599,Asterisk 1.6,,,,"Barrie Dempster, David Gomillion, David Merel",2009,,Packt Publishing,,239,0,English,,,0,"1847198627,9781847198624",,,,,,,,,,,0,,,,1,0,,1,5265637,pdf,B860273A2EA09A802B4B75223C4A30AC,,,,0,2000-01-01 01:00:00,2016-04-03 02:51:08,254000/b860273a2ea09a802b4b75223c4a30ac-d.jpg,,
5692600,Handbook of Computational Fluid Mechanics,,,,Roger Peyret,1996,,Academic Press,,467,0,English,Математика//Вычислительная математика,,0,"9780125530101,0125530102",,,,,,,,,OL9678916M,,0,,,,,,,,5797902,djvu,B89036063DA76EB247D295136AAFB633,,,,0,2000-01-01 01:00:00,2016-04-03 02:51:08,254000/b89036063da76eb247d295136aafb633-d.jpg,,
5692601,The Jossey-Bass Academic Administrator's Guide to Budgets and Financial Management,,Jossey-Bass Academic Administrator's Guides,,Margaret J. Barr,2002,1,Jossey-Bass,,134,0,English,Бизнес//менеджмент,,0,"9780787959579,078795957X",,,,,,,,,OL8148735M,,0,,,,,,,T,900078,pdf,B892407B95F4455B95B05F953C5218BF,,,,0,2000-01-01 01:00:00,2016-04-03 02:51:08,254000/b892407b95f4455b95b05f953c5218bf-d.jpg,,
5692598,Microsoft Dynamics AX 2009 Development Cookbook,,,,Mindaugas Pocius,2009,,Packt Publishing,,351,0,English,Компьютеры//Программирование,,0,"1847199429,9781847199423",,,,,,,,,,,0,,,,,,,T,5075958,pdf,B85BBF172703A243867E0C137AE19FE4,,,,0,2000-01-01 01:00:00,2016-04-03 02:51:08,254000/b85bbf172703a243867e0c137ae19fe4-d.jpg,,
5692597,Satisfying Safety Goals by Probabilistic Risk Assessment,,Springer Series in Reliability Engineering,,Hiromitsu Kumamoto,2007,1,Springer,,263,0,English,Математика//Вероятность,,0,"1846286816,9781846286810,9781846286827",,,,,,,,,OL8962657M,,0,,,,,,,T,3855809,pdf,B847073C4020FC74AEAF47B772FCDCF2,,,,0,2000-01-01 01:00:00,2016-04-03 02:51:08,254000/b847073c4020fc74aeaf47b772fcdcf2-d.jpg,,
5692596,Hunter Fabulous Quebec City,,Ulysses Travel Guides,,Ulysses,2009,Bilingual,Hunter Publishing (NJ),,196,0,English,,,0,"2894648936,9782894648933",,,,,,,,,,,0,,,,1,0,,1,32013179,pdf,B7C2675204F279E1B77A32E2B19FAE44,,,,0,2000-01-01 01:00:00,2016-04-03 02:51:08,254000/b7c2675204f279e1b77a32e2b19fae44-d.jpg,,
5692594,Web 2.0 Architectures: What Entrepreneurs and Information Architects Need to Know,,,,"James Governor, Dion Hinchcliffe, Duane Nickull",2009,1,O'Reilly,,274,0,English,Компьютеры//Сети//Интернет,,0,"0596514433,9780596514433",,,,,006.76,TK5105.88817 .G68 2009,,,OL10781009M,,0,,,,1,0,,1,5871276,pdf,B76D91F9B96A353EF3362AB4ACCE4CA4,,,,0,2000-01-01 01:00:00,2016-04-03 02:51:08,254000/b76d91f9b96a353ef3362ab4acce4ca4-d.jpg,,
5692595,Seismic Design Aids for Nonlinear Analysis of Reinforced Concrete Structures,,Advances in Earthquake Engineering,,"Srinivasan Chandrasekaran, Luciano Nunziante, Giorgio Serino, Federico Carannante",2009,1,CRC Press,,268,0,English,Физика//Геофизика,ebook3000.com,0,"1439809143,9781439809143",,,,,624.1/8341,TA658.44 .S386 2010,,,OL23235518M,,0,,,,,1,,T,7680710,pdf,B78321BD7637F9A7C7F44364DB2E93F2,,,,0,2000-01-01 01:00:00,2016-04-03 02:51:08,254000/b78321bd7637f9a7c7f44364db2e93f2-d.jpg,,
5692593,Microwave Component Mechanics,,Artech House Microwave Library,,"Harri Eskelinen, Pekka Eskelinen",2003,,Artech House Publishers,,389,0,English,Физика,,0,"9781580533683,158053368X",,,,,621.381/33,TK7876 .E85 2003,,,OL3566689M,,0,,,,,,,T,3668583,pdf,B751A23DF34B971A4C4A0FD1D7DE92FD,,,,0,2000-01-01 01:00:00,2016-04-03 02:51:08,254000/b751a23df34b971a4c4a0fd1d7de92fd-d.jpg,,
5692591,"The Rolling Stones: The Origin of the Species: How, Why and Where It All Began",,,,Alan Clayson,2007,,Chrome Dreams,,281,0,English,,ebook3000.com,0,"1842403893,9781842403891",,,,,,,,,OL8926477M,,0,,,,,1,,T,7758760,pdf,B6868EFBDFA939A2749B2C3FEDB7AE4E,,,,0,2000-01-01 01:00:00,2016-04-03 02:51:08,254000/b6868efbdfa939a2749b2c3fedb7ae4e-d.jpg,,
5692592,The Encyclopedia of Child Abuse (Facts on File Library of Health and Living),,Facts on File Library of Health and Living ,,"Robin E. Clark, Judith Freeman Clark, Christine A. Adamec",2007,3rd,Facts on File,,397,0,English,Образование//Энциклопедии,ebook3000.com,0,"0816066779,9780816066773",,,,,,,,,OL9699711M,,0,,,,,,,,2172203,pdf,B6F71888E07041E876495418317EBA2E,,,,0,2000-01-01 01:00:00,2016-04-03 02:51:08,254000/b6f71888e07041e876495418317eba2e-d.jpg,,
5692589,CrysDev: A Developer's Guide to Integrating Crystal Reports,,,,"Craig Berntson, Dan Jurden",2003,,Hentzenwerke Publishing,,473,0,English,,,0,"9781930919389,1930919387",,,,,,,,,OL8801079M,,0,,,,,,,T,9993784,pdf,B6530BADD6C589338E1ADC7582813E1C,,,,0,2000-01-01 01:00:00,2016-04-03 02:51:08,254000/b6530badd6c589338e1adc7582813e1c-d.jpg,,
5692590,Microsoft IIS 7 Implementation and Administration (Mastering),,Mastering ,,John Paul Mueller,2007,Pap/Onl,Sybex,,387,0,English,Компьютеры//Программирование,,0,"0470178930,9780470178935",,,,,005.7/1376,TK5105.875.I57 M837 2007,,,OL10294414M,,0,,,,,,,,16530917,pdf,B66F80ED97A6D8003EC5690BC287B415,,,,0,2000-01-01 01:00:00,2016-04-03 02:51:08,254000/b66f80ed97a6d8003ec5690bc287b415-d.jpg,,
5692587,Frommer's Germany 2010 (Frommer's Complete),,Frommer's Complete ,,"Darwin Porter, Danforth Prince",2009,Pap/Map,Frommers,,708,0,English,География,,0,"0470470739,9780470470732",,,,,,,,,,,0,,,,,1,,,13442606,pdf,B5F3BDF7BFA0EFE07232992704B8952A,,,,0,2000-01-01 01:00:00,2016-04-03 02:51:08,254000/b5f3bdf7bfa0efe07232992704b8952a-d.jpg,,
5692588,The Beer Lover's Cookbook: More than 300 Recipes All Made with Beer,,,,John Schlimm,2009,,Cumberland House,,258,0,English,"Домоводство, досуг//Кулинария",ebook3000.com,0,"1402230931,9781402230936",,,,,,,,,OL25034021M,,0,,,,,1,,T,13089988,pdf,B63049FA5F783CE071F00BD578B27C66,,,,0,2000-01-01 01:00:00,2016-04-03 02:51:08,254000/b63049fa5f783ce071f00bd578b27c66-d.jpg,,
5692586,Random Matrix Theory and Wireless Communications,,Foundations and Trends in Communications and Information The,,"A M Tulino, S Verdu",2004,,Now Publishers Inc,,197,0,English,Математика//Алгебра//Линейная алгебра,,0,"9781933019000,193301900X,0246810121416",,,,,,,,,OL3461603M,,0,,,,,,,T,2612451,pdf,B5AF9A4F02E307214A2B982624C97410,,,,0,2000-01-01 01:00:00,2016-04-03 02:51:08,254000/b5af9a4f02e307214a2b982624c97410-d.jpg,,
5692584,"Radio Monitoring: Problems, Methods and Equipment",,Lecture Notes in Electrical Engineering,,"Anatoly Rembovsky, Alexander Ashikhmin, Vladimir Kozmin, Sergey M. Smolskiy",2009,1,Springer,,530,0,English,Техника//Электроника//Радио,,0,"0387980997,9780387980997",,,,,,,,,,,0,,,,,,,T,12246476,pdf,B51328DAAAC00651EC6F54A384E39B98,,,,0,2000-01-01 01:00:00,2016-04-03 02:51:08,254000/b51328daaac00651ec6f54a384e39b98-d.jpg,,
5692585,Современные деятельностные представления о социальной практике и общественном развитии,,,,Громыко Ю.В.,2006,,,М.,504,0,Russian,Общественные науки прочие//Социология,,0,5-350-00118-3,,,,60.524,,,,,OL22684070M,,0,1,1,,,,,T,5987279,pdf,B534CDB538D044563D5DD69C7BDEFE4C,,,,0,2000-01-01 01:00:00,2016-04-03 02:51:08,254000/b534cdb538d044563d5dd69c7bdefe4c-g.jpg,,
5692583,JBoss Portal Server Development,,,,Ramanujam Rao,2009,,Packt Publishing,,275,0,English,Компьютеры//Системное администрирование,,0,"1847194109,9781847194107",,,,,,,,,,,0,,,,1,0,,1,9940695,pdf,B4D1EBA9BF3E98158C1EF82055451B87,,,,0,2000-01-01 01:00:00,2016-04-03 02:51:08,254000/b4d1eba9bf3e98158c1ef82055451b87-d.jpg,,
5692581,Linux System Administration Recipes: A Problem-Solution Approach,,Expert's Voice in Linux,,Juliet Kemp,2009,1,Apress,,282,0,English,Компьютеры//Системное администрирование,,0,"1430224495,9781430224495",,,,,,,,,,,0,,,,1,0,,1,4493817,pdf,B3DF081BE82EFBC7CC2DE409EFB99598,,,,0,2000-01-01 01:00:00,2016-04-03 02:51:08,254000/b3df081be82efbc7cc2de409efb99598-d.jpg,,
5692582,"Functional Organic Materials: Syntheses, Strategies and Applications",,,,"Thomas J. J. Müller, Uwe H. F. Bunz",2007,1,Wiley-VCH,,615,0,English,Химия//Органическая химия,,0,"3527313028,9783527313020",,,,,547,,,,OL18519751M,,0,,,,,,,T,13177841,pdf,B433B014BEA092A02B65F852B716A7B8,,,,0,2000-01-01 01:00:00,2016-04-03 02:51:08,254000/b433b014bea092a02b65f852b716a7b8-d.jpg,,
5692580,Кибернетика. Вопросы теории и практики,,Наука. Мировоззрение. Жизнь.,,Глушков В.М.,1986,,Наука,М.,479,0,Russian,Компьютеры//Кибернетика,,0,,,,519.6,,,,,,,,0,,,,,,,T,51040350,pdf,B3AED9609ADEE150C81173DAD322F17E,,,,0,2000-01-01 01:00:00,2016-04-03 02:51:08,254000/b3aed9609adee150c81173dad322f17e-g.jpg,,
5692578,Web Design for Developers: A Programmer's Guide to Design Tools and Techniques,,The Pragmatic Programmers,,Brian P. Hogan,2009,1,Pragmatic Bookshelf,,327,0,English,Компьютеры//Сети//Интернет,,0,"1934356131,9781934356135",,,,,,,,,,,0,,,,,,,T,5761824,pdf,B3726F9301CF3FB0FE58A54AE13BA474,,,,0,2000-01-01 01:00:00,2016-04-03 02:51:08,254000/b3726f9301cf3fb0fe58a54ae13ba474-d.jpg,,
5692579,Principles of Corrosion Engineering and Corrosion Control,,,,Zaki Ahmad,2006,1,Butterworth-Heinemann,,660,0,English,Техника,,0,"9780750659246,0750659246",,,,,,,,,OL17632742M,,0,,,,,,,,51409166,pdf,B38F39969A79DBA1E03984DE8695606A,,,,0,2000-01-01 01:00:00,2016-04-03 02:51:08,254000/b38f39969a79dba1e03984de8695606a-d.jpg,,
5692576,"CCDA(R) Exam Certification Guide (CCDA Self-Study, 640-861)",vol 2,,,"Anthony Bruno, Jacqueline Kim",2003,2,Cisco Press,,1006,0,English,,,0,"9781587200762,1587200767",,,,,004.6,QA76.3 .B78473 2004,,,OL24732818M,,0,0,0,,,,,T,29009093,pdf,B2AB520106B8950115C78DD7EB6B636B,,,,0,2000-01-01 01:00:00,2016-04-03 02:51:08,254000/b2ab520106b8950115c78dd7eb6b636b-d.jpg,,
5692577,PHP6 and MySQL Bible,,Bible (Wiley),,"Steve Suehring, Tim Converse, Joyce Park",2009,,Wiley,,915,0,English,Компьютеры//Программирование//Языки программирования,,0,"0470384506,9780470384503",,,,,005.2/762,QA76.73.P224 S94 2009,,,OL22672274M,,0,,,,,,,T,29685777,pdf,B3606A7FD127C25F1551DC0C49A53916,,,,0,2000-01-01 01:00:00,2016-04-03 02:51:08,254000/b3606a7fd127c25f1551dc0c49a53916-d.jpg,,
5692574,Google Web Toolkit Applications,,,,Ryan Dewsbury,2007,1,Addison-Wesley Professional,,600,0,English,Компьютеры//Сети//Интернет,,0,"9780321501967,0321501969",,,,,006.7/6,TK5105.8885.A52 D49 2008,,,OL10461137M,,0,,,,,,,T,6866393,pdf,B266EE870E8FA345112D84600B6BB64B,,,,0,2000-01-01 01:00:00,2016-04-03 02:51:08,254000/b266ee870e8fa345112d84600b6bb64b-d.jpg,,
5692575,"Learning Cocoa with Objective-C, 2nd Edition",,,,"James Duncan Davidson, Inc. Apple Computer",2002,2,O'Reilly Media,,461,0,English,Образование,,0,"9780596003012,0596003013",,,,,005.26/8,QA76.64 .D39 2002,,,OL3774923M,,0,,,,,,,T,6281561,pdf,B27318D3D3FC20AE735C0E1ED688A951,,,,0,2000-01-01 01:00:00,2016-04-03 02:51:08,254000/b27318d3d3fc20ae735c0e1ed688a951-d.jpg,,
5692573,Securing PHP Web Applications,,,,"Tricia Ballad, William Ballad",2008,,Addison-Wesley Professional,,330,0,English,Компьютеры//Сети//Интернет,,0,"9780321534347,0321534344",,,,,005.8,QA76.73.P224 B35 2009,,,OL22553066M,,0,,,,,,,T,11547122,pdf,B23D52C0011345C1554B9D0D3AF4A3DB,,,,0,2000-01-01 01:00:00,2016-04-03 02:51:08,254000/b23d52c0011345c1554b9d0d3af4a3db-d.jpg,,
5692571,Pro Android Games,,,,Vladimir Silva,2009,1st Edition.,Apress,,320,0,English,Наука (общее)//Научно-популярное,,0,"1430226471,9781430226475,9781430226482",,,,,005.276,QA76.76.A65 S53 2009,,,OL24861525M,,0,,,,,,,T,2681212,pdf,B17181C42A7ACB60189F76B34AF7729F,,,,0,2000-01-01 01:00:00,2016-04-03 02:51:08,254000/b17181c42a7acb60189f76b34af7729f-d.jpg,,
5692572,Renaissance and Revolt: Essays in the Intellectual and Social History of Early Modern France,,Cambridge Studies in Early Modern History,,John Hearsey McMillan Salmon,1987,,Cambridge University Press,,316,0,English,История,,0,"9780521327695,9780511562792,0521522463,0521327695,0511562799,9780521522465",,,,,944/.028,DC33.3 .S25 1987,,,OL21370355M,,0,,,,,1,,T,2541033,djvu,B19795D7C9058A5E85BD54C0A0858E26,,,,0,2000-01-01 01:00:00,2016-04-03 02:51:08,254000/b19795d7c9058a5e85bd54c0a0858e26-d.jpg,,
5692570,Radio-Frequency and Microwave Communications Circuits: Analysis and Design,,,,"Devendra K. Misra, Devendra Misra",2001,1,Wiley-Interscience,,588,0,English,Техника//Электроника//Телекоммуникации,,0,"9780471412533,0471412538,0471224359",,,,,,,,,OL18167900M,,0,,,,,,,T,6401413,pdf,B12E29DCEF14B453745DC9FD751FAF18,,,,0,2000-01-01 01:00:00,2016-04-03 02:51:08,254000/b12e29dcef14b453745dc9fd751faf18-d.jpg,,
5692568,"Global Positioning Systems, Inertial Navigation, and Integration",,,,"Mohinder S. Grewal, Lawrence R. Weill, Angus P. Andrews",2000,Book&Disk,Wiley-Interscience,,408,0,English,Техника//Электроника//Радио,,0,"9780471350323,047135032X,0471200719",,,,,,,,,OL17002397M,,0,,,,,,,T,4652533,pdf,B0B64D84E5154F6C5638FA9384930459,,,,0,2000-01-01 01:00:00,2016-04-03 02:51:08,254000/b0b64d84e5154f6c5638fa9384930459-d.jpg,,
5692569,Guns N' Roses Encyclopaedia,,,,Mick O'Shea,2008,,Chrome Dreams,,305,0,English,Образование//Энциклопедии,ebook3000.com,0,"1842404237,9781842404232",,,,,,,,,OL11899952M,,0,,,,,1,,T,11556949,pdf,B11DBFA363FC91A53E1ADE54F2A7BAD0,,,,0,2000-01-01 01:00:00,2016-04-03 02:51:08,254000/b11dbfa363fc91a53e1ade54f2a7bad0-d.jpg,,
5692567,Changepower!: 37 Secrets to Habit Change Success,,,,Meg Selig,2009,1,Routledge,,284,0,English,,,0,"0415800668,9780415800662",,,,,158.1,BF637.B4 S45 2010,,,OL23202337M,,0,,,,,1,,T,2292629,pdf,B084538A7AB76B3BED8D04754FD6BC10,,,,0,2000-01-01 01:00:00,2016-04-03 02:51:08,254000/b084538a7ab76b3bed8d04754fd6bc10-d.jpg,,
5692564,Unix Programming Environment,,Prentice-Hall Software Series,,"Brian W. Kernighan, Rob Pike",1984,,Prentice Hall,,369,0,English,Компьютеры//Операционные системы,,0,"9780139376818,9780139376993,013937681X,0139376992",,,,,001.64/25,QA76.6 .K495 1984,,,OL3191213M,,600,,,,0,1,,1,5079733,djvu,AFE458B6FCFE968E58A040B30F5222B4,,,,0,2000-01-01 01:00:00,2016-04-03 02:51:08,254000/afe458b6fcfe968e58a040b30f5222b4-d.jpg,,
5692565,Volterra Integral and Functional Equations,,Encyclopedia of Mathematics and its Applications,,"G. Gripenberg, S. O. Londen, O. Staffans",1990,,Cambridge University Press,,725,0,English,Математика,ebook3000.com,0,"9780521372893,0521372895",,,,,515/.45,QA431 .G76 1990,,,OL1954595M,,600,,,,0,1,,1,7826408,djvu,B00F4754185DC327B58A3765E29FE063,,,,0,2000-01-01 01:00:00,2016-04-03 02:51:08,254000/b00f4754185dc327b58a3765e29fe063-d.jpg,,
5692566,Professional JavaScript for Web Developers,,Wrox Programmer to Programmer,,Nicholas C. Zakas,2009,2,Wrox,,841,0,English,Компьютеры//Сети//Интернет,,0,"047022780X,9780470227800",,,,,005.2/762,TK5105.8885.J38 Z34 2008,,,OL22659062M,,0,,,,,,,T,5510920,pdf,B07ADFCAF9641B17FE76115BF174F44C,,,,0,2000-01-01 01:00:00,2016-04-03 02:51:08,254000/b07adfcaf9641b17fe76115bf174f44c-d.jpg,,
5692562,Wind and Solar Power Systems,,,,Mukund R. Patel,1999,1,CRC Press,,283,0,English,Техника//Энергетика,,0,"9780849316050,0849316057",,,,,621.31/2136,TK1541 .P38 1999,,,OL385297M,,0,,,,,,,,33642010,pdf,AFA23E15EC489C03E8B935395EF1F992,,,,0,2000-01-01 01:00:00,2016-04-03 02:51:08,254000/afa23e15ec489c03e8b935395ef1f992-d.jpg,,
5692563,Using Joomla: Building Powerful and Efficient Web Sites,,,,"Ron Severdia, Kenneth Crowder",2009,1,O'Reilly Media,,412,0,English,Компьютеры//Сети//Интернет,,0,"0596804946,9780596804947",,,,,006.78,TK5105.8885.J86 S48 2010,,,OL24818752M,,0,,,,1,0,,1,9353713,pdf,AFBDA434EBBB02CEE161AC9CC06398FE,,,,0,2000-01-01 01:00:00,2016-04-03 02:51:08,254000/afbda434ebbb02cee161ac9cc06398fe-d.jpg,,
5692561,Embedded FreeBSD Cookbook (Embedded Technology),,Embedded Technology ,,Paul Cevoli Paul Cevoli is an embedded systems engineer and programmer with over 15 years of experience with various embedded operating systems.,2002,,Newnes,,250,0,English,Компьютеры//Операционные системы,,0,"9781589950047,1589950046",,,,,005.4/32,QA76.76.O63 C416 2003,,,OL3777459M,,0,,,,,,,,1213137,pdf,AFA0998CA1C12E3C239FEFC43200D284,,,,0,2000-01-01 01:00:00,2016-04-03 02:51:08,254000/afa0998ca1c12e3c239fefc43200d284-d.jpg,,
5692560,Forces in Physics: A Historical Perspective,,Greenwood Guides to Great Ideas in Science,,Steven N. Shore,2008,,Greenwood,,250,0,English,Физика,,0,"0313333033,9780313333033,0313038635,9780313038631",,,,,531/.6,QC72 .S46 2008,,,OL10420522M,,0,,,,0,0,,1,3120635,pdf,AF7ABCB8ABFDB8A645A410713A74F9FB,,,,0,2000-01-01 01:00:00,2016-04-03 02:51:08,254000/af7abcb8abfdb8a645a410713a74f9fb-d.jpg,,
5692559,Professional SQL Server 2005 XML,,Programmer to Programmer,,Scott Klein,2006,,Wrox,,549,0,English,Компьютеры//Системное администрирование,ebook3000.com,0,"0764597922,9780764597923",,,,,005.2/768,QA76.9.C55 K545 2005,,,OL3413582M,,0,,,,,,,T,12842111,pdf,AEB6928E4BDDDAF62818EBCE368D28DC,,,,0,2000-01-01 01:00:00,2016-04-03 02:51:08,254000/aeb6928e4bdddaf62818ebce368d28dc-d.jpg,,
5692557,Нелинейные волны намагниченности. Динамические и топологические солитоны,,,,"Косевич А.М., Иванов Б.А., Ковалев А.С.",1983,,Наукова думка,Киев,194,0,Russian,Математика//Геометрия и топология,torrents,0,,,,,,,,,,,,0,0,1,,,,,,3880814,djvu,AE1DEF5D75AEA20F4D1C908FEB496735,,,,0,2000-01-01 01:00:00,2016-04-03 02:51:08,254000/ae1def5d75aea20f4d1c908feb496735-g.jpg,,
5692558,Opening Pitch: Professional Baseball's Inaugural Season,,,,Warren N. Wilbert,2007,,"The Scarecrow Press, Inc.",,177,0,English,,ebook3000.com,0,"9780810860209,0810860201",,,,,,,,,OL11321213M,,0,,,,,,,,4342785,pdf,AE62953C3D928AE3A4160F56C21DB849,,,,0,2000-01-01 01:00:00,2016-04-03 02:51:08,254000/ae62953c3d928ae3a4160f56c21db849-d.jpg,,
5692556,SharePoint Designer Tutorial: Working with SharePoint Websites: Get started with SharePoint Designer to put together a business site with SharePoint,,,,Mike Poole,2008,,Packt Publishing,,183,0,English,Компьютеры//Сети//Интернет,,0,"1847194427,9781847194428",,,,,,,,,,,0,,,,,,,T,5039457,pdf,ADBBC9FB74DFC9195E0ADF3D8A11B7F1,,,,0,2000-01-01 01:00:00,2016-04-03 02:51:08,254000/adbbc9fb74dfc9195e0adf3d8a11b7f1-d.jpg,,
5692554,Low-Dimensional Molecular Metals,,Springer Series in Solid-State Sciences,,"Naoki Toyota, Michael Lang, Jens Müller",2007,1,Springer,,315,0,English,Физика//Физика твердого тела,ebook3000.com,0,"3540495746,9783540495741",,,,,,,,,OL9058179M,,0,,,,,,,T,13363039,pdf,AD78331465467EB7BA9918A2BE7E7BA0,,,,0,2000-01-01 01:00:00,2016-04-03 02:51:08,254000/ad78331465467eb7ba9918a2be7e7ba0-d.jpg,,
5692555,Just-In-Time Math for Engineers,,,,"Archibald Fripp Dr. Archibald Fripp is an electrical engineer and materials scientist. He was a senior scientist at NASA and managed many space shuttle experiments. He retired from NASA in 1998 but still consults for them on semiconductor and microgravity research., Jon Fripp, Michael Fripp",2003,,Newnes,,400,0,English,,,0,"9780750675352,0750675357",,,,,,,,,OL15397532M,,0,,,,,,,1,19395664,pdf,AD7CF3F1E4DFDFB5C9543AD7603AE8B9,,,,0,2000-01-01 01:00:00,2016-04-03 02:51:08,254000/ad7cf3f1e4dfdfb5c9543ad7603ae8b9-d.jpg,,
5692553,TYPO3 4.3 Multimedia Cookbook,,,,Dan Osipov,2010,,Packt Publishing,,227,0,English,Компьютеры//Мультимедиа,,0,"1847198481,9781847198488",,,,,,,,,,,0,,,,,,,T,4098214,pdf,AD597B7B03636822EE05097DEF79B965,,,,0,2000-01-01 01:00:00,2016-04-03 02:51:08,254000/ad597b7b03636822ee05097def79b965-d.jpg,,
5692551,Solid State NMR Spectroscopy for Biopolymers: Principles and Applications,,,,"Hazime Saitô, Isao Ando, Akira Naito",2006,1,Springer,,465,0,English,,ebook3000.com,0,"1402043023,9781402043024,1402043031,9781402043031",,,,,,,,,OL8371820M,,0,,,,,,,T,13619637,pdf,ACB22A0DA13D095456DE20F570E618FD,,,,0,2000-01-01 01:00:00,2016-04-03 02:51:08,254000/acb22a0da13d095456de20f570e618fd-d.jpg,,
5692552,Human Reliability Assessment Theory and Practice,,,,Anthony J. Spurgin,2009,1,CRC Press,,300,0,English,,ebook3000.com,0,"1420068512,9781420068511",,,,,620/.00452,TA166 .S685 2010,,,OL11817110M,,0,,,,,1,,T,3942890,pdf,AD28BF17BCEBB78435B2924B68757765,,,,0,2000-01-01 01:00:00,2016-04-03 02:51:08,254000/ad28bf17bcebb78435b2924b68757765-d.jpg,,
5692549,The Definitive Guide to Pylons,,,,James Gardner,2008,1,Apress,,546,0,English,,,0,"1590599349,9781590599341,9781430205340",,,,,006.7/6,TK5105.888 .G365 2009,,,OL12369546M,,0,,,,0,0,,1,4462298,pdf,ABCC7AB60626796B26F7D83FFD994A4D,,,,0,2000-01-01 01:00:00,2016-04-03 02:51:08,254000/abcc7ab60626796b26f7d83ffd994a4d-d.jpg,,
5692550,How to Talk to a Liberal (If You Must): The World According to Ann Coulter,,,,Ann Coulter,2005,,Three Rivers Press,,257,0,English,Образование,ebook3000.com,0,"9781400054190,1400054192",,,,,,,,,OL8363551M,,0,,,,,,,,10796761,pdf,AC1E981FFA08A3F1AD5B0F5CB4E0C93F,,,,0,2000-01-01 01:00:00,2016-04-03 02:51:08,254000/ac1e981ffa08a3f1ad5b0f5cb4e0c93f-d.jpg,,
5692548,Drupal 6 Site Builder Solutions,,,,Mark Noble,2008,,Packt Publishing,,352,0,English,,,0,"1847196403,9781847196408",,,,,,,,,,,0,,,,,,,T,25883517,pdf,AB8A563771499977778DBCB039B460F0,,,,0,2000-01-01 01:00:00,2016-04-03 02:51:08,254000/ab8a563771499977778dbcb039b460f0-d.jpg,,
5692546,Theory of Convex Structures,,North-Holland Mathematical Library 50,,M.L.J. van de Vel,1993,1,North Holland,,556,0,English,Математика//Анализ,,0,"9780444815057,0444815058",,,,,516/.08,QA639.5 .V45 1993,,,OL1400446M,,0,,,,1,0,,1,10107947,pdf,AA3AFC9ED0AB450D18D41C3C3A24D9DC,,,,0,2000-01-01 01:00:00,2016-04-03 02:51:08,254000/aa3afc9ed0ab450d18d41c3c3a24d9dc-d.jpg,,
5692547,eZ Publish 4: Enterprise Web Sites Step-by-Step,,,,"Francesco Fullone, Francesco Trucchia",2009,,Packt Publishing,,291,0,English,Компьютеры//Информационные системы//ИС предприятий,,0,"1904811647,9781904811640",,,,,,,,,,,0,,,,,,,T,5585391,pdf,AADAB5F4DCBDB4A1BB581F3186360965,,,,0,2000-01-01 01:00:00,2016-04-03 02:51:08,254000/aadab5f4dcbdb4a1bb581f3186360965-d.jpg,,
5692544,Practical Data Analysis and Reporting with BIRT,,,,John Ward,2009,,Packt Publishing,,307,0,English,Компьютеры//Организация и обработка данных,,0,"1847191096,9781847191090",,,,,,,,,,,0,,,,,,,T,11780496,pdf,A9AF03EE2AA49AEF6EDE2A96E39642E2,,,,0,2000-01-01 01:00:00,2016-04-03 02:51:08,254000/a9af03ee2aa49aef6ede2a96e39642e2-d.jpg,,
5692545,Music and the Young Mind: Enhancing Brain Development and Engaging Learning,,,,Maureen Harris,2009,Har/Cdr,Rowman & Littlefield Education,,151,0,English,Образование,ebook3000.com,0,"1607090619,9781607090618,1607090635,9781607090632,1607090627,9781607090625",,,,,372.87/049,MT1 .H228 2009,,,OL23187180M,,0,,,,1,1,,1,1046185,pdf,AA37AF5D7CADB14CED6F5FF2B262463F,,,,0,2000-01-01 01:00:00,2016-04-03 02:51:08,254000/aa37af5d7cadb14ced6f5ff2b262463f-d.jpg,,
5692541,Forth-83 Standard,,,,Forth Standards Team,1983,,Mountain View Press,,93,0,English,,,0,"9780914699033,0914699032",,,,,,,,,OL8325087M,,0,,,,,,,T,163755,pdf,A82EC55A79CB1F6BD3D652FC9D47AFAE,,,,0,2000-01-01 01:00:00,2016-04-03 02:51:08,254000/a82ec55a79cb1f6bd3d652fc9d47afae-g.jpg,,
5692542,The Transvestite Achilles: Gender and Genre in Statius' Achilleid,,,,P. J. Heslin,2009,1,Cambridge University Press,,370,0,English,,ebook3000.com,0,"0521117755,9780521851459",,,,,,,,,OL7766682M,,0,,,,,,,T,13517180,pdf,A8C46505BCEB48EFF22F507DDD90ED48,,,,0,2000-01-01 01:00:00,2016-04-03 02:51:08,254000/a8c46505bceb48eff22f507ddd90ed48-d.jpg,,
5692543,Feeling Good Together: The Secret to Making Troubled Relationships Work,,,,David D. Burns M.D.,2010,Reprint,Three Rivers Press,,286,0,English,,ebook3000.com,0,"0767920821,9780767920827",,,,,,,,,,,0,,,,,,,T,1811364,djvu,A8D99A96B354BBC42B36EAE5A3945336,,,,0,2000-01-01 01:00:00,2016-04-03 02:51:08,254000/a8d99a96b354bbc42b36eae5a3945336-d.jpg,,
5692539,"Fish Pies and French Fries, Vegetables, Meat and Something Sweet: Affordable Everyday Food and Family-friendly Recipes Made Easy",,,,Gill Holcombe,2009,,How to Books,,321,0,English,"Домоводство, досуг//Кулинария",,0,"1905862334,9781905862337",,,,,,,,,,,0,,,,,1,,T,2281555,pdf,A6A66FE2545EF58856D94AD84F9C08F3,,,,0,2000-01-01 01:00:00,2016-04-03 02:51:08,254000/a6a66fe2545ef58856d94ad84f9c08f3-d.jpg,,
5692540,Hospital Politics in Seventeenth-Century France,,The History of Medicine in Context,,Tim Mchugh,2007,,Ashgate Pub Co,,201,0,English,Медицина,ebook3000.com,0,"0754657620,9780754657620",,,,,,,,,OL22748411M,,0,,,,,,,T,1097664,pdf,A6B2CCF352F380324E76D09EA6A6CF28,,,,0,2000-01-01 01:00:00,2016-04-03 02:51:08,254000/a6b2ccf352f380324e76d09ea6a6cf28-d.jpg,,
5692538,Flexible Rails: Flex 3 on Rails 2,,,,Peter Armstrong,2008,,Manning Publications,,591,0,English,Языкознание,,0,"9781933988504,1933988509",,,,,006.7/6,QA76.625 .A745 2007,,,OL12340321M,,0,,,,,,,T,9432954,pdf,A683749BB53EC6FCD38D8A6E5DF1A22E,,,,0,2000-01-01 01:00:00,2016-04-03 02:51:08,254000/a683749bb53ec6fcd38d8a6e5df1a22e-d.jpg,,
5692536,Practical Liferay: Java–based Portal Applications Development (Pro),,Pro,,Poornachandra Sarang,2009,1,Apress,,386,0,English,Компьютеры//Программирование//Языки программирования,,0,"1430218479,9781430218470",,,,,,,,,,,0,,,,1,0,,1,6024293,pdf,A60AF4CC08FB306D6BB9FF728993AC28,,,,0,2000-01-01 01:00:00,2016-04-03 02:51:08,254000/a60af4cc08fb306d6bb9ff728993ac28-d.jpg,,
5692537,Foundation Expression Blend 3 with Silverlight (Foundations),,Foundations ,,Victor Gaudioso,2009,1,friendsofED,,350,0,English,Компьютеры//Мультимедиа,,0,"1430219505,9781430219507",,,,,,,,,OL24861488M,,0,,,,,1,,,5386534,pdf,A6379BB8FCAEB0FA014A65A118ECFFBD,,,,0,2000-01-01 01:00:00,2016-04-03 02:51:08,254000/a6379bb8fcaeb0fa014a65a118ecffbd-d.jpg,,
5692534,Design of Experiments for Engineers and Scientists,,,,Jiju Antony,2003,1,Butterworth-Heinemann,,156,0,English,,,0,"9780750647090,0750647094",,,,,,,,,OL7972121M,,0,,,,,,,,12499101,pdf,A5C805266D60A8B09471E6E59A04ACB9,,,,0,2000-01-01 01:00:00,2016-04-03 02:51:08,254000/a5c805266d60a8b09471e6e59a04acb9-d.jpg,,
5692535,Atlas of Minimally Invasive Surgery in Esophageal Carcinoma,,,,"Shailesh Puntambekar, Miguel A. Cuesta",2009,1st Edition.,Springer,,203,0,English,"Медицина//Хирургия, Ортопедия",,0,"1848827679,9781848827677",,,,,,,,,,,0,,,,,,,1,45372222,pdf,A5DF90C9F40F42D3908236986225B2F8,,,,0,2000-01-01 01:00:00,2016-04-03 02:51:08,254000/a5df90c9f40f42d3908236986225b2f8-d.jpg,,
5692533,Handbook of Nanofabrication,,,,Gary Wiederrecht,2009,,Academic Press,,307,0,English,,ebook3000.com,0,"0123751764,9780123751768",,,,,,,,,,,0,,,,,1,,T,15514189,pdf,A5797F3CF3787F9BC2178BC36E277165,,,,0,2000-01-01 01:00:00,2016-04-03 02:51:08,254000/a5797f3cf3787f9bc2178bc36e277165-d.jpg,,
5692531,Космическая геофизика,,,,"Эгеланд А., Холтер О., Омхольт А.",1976,,Мир,Москва,548,0,Russian,Физика,,0,,,,550.3,,,,,,,,600,0,1,0,,,,T,10174102,djvu,A4D729AF3615CF840BDD678388CB4A7E,,,,0,2000-01-01 01:00:00,2016-04-03 02:51:08,,,
5692532,Bipolar Disorder: The Ultimate Guide,,,,"Sarah Owen, Amanda Saunders",2008,,Oneworld,,308,0,English,,,0,"1851686045,9781851686049",,,,,616.895,RC516 .O97 2010,,,OL25062478M,,0,,,,,1,,T,3894256,pdf,A528FA14D91CACB50A8981E1AE061452,,,,0,2000-01-01 01:00:00,2016-04-03 02:51:08,254000/a528fa14d91cacb50a8981e1ae061452-d.jpg,,
5692529,"Formeln und Aufgaben zur Technischen Mechanik 2: Elastostatik, Hydrostatik",,Springer-Lehrbuch ,,"Dietmar Gross, Wolfgang Ehlers, Peter Wriggers",2011,9. bearb. u. erg. Aufl.,Springer,,209,0,German,Физика,,0,"3642030874,9783642030871,9783642030888",,,,,,,,,,,0,,,,,,,T,3977832,pdf,A473B36C526755B285FC9E7F46806206,,,,0,2000-01-01 01:00:00,2016-04-03 02:51:08,254000/a473b36c526755b285fc9e7f46806206-d.jpg,,
5692530,Practical CakePHP Projects,,Practical Projects,,"Kai Chan, John Omokore, Richard Miller",2008,1,Apress,,389,0,English,Компьютеры//Программирование//Языки программирования,,0,"143021578X,9781430215783,9781430215790",,,,,005.2762 22,QA76.73.P224 C43 2009,,,OL23615116M,,0,,,,,,,1,2695884,pdf,A4D0097296BF0AC103F9017ECE76F006,,,,0,2000-01-01 01:00:00,2016-04-03 02:51:08,254000/a4d0097296bf0ac103f9017ece76f006-d.jpg,,
5692527,SPICE for Power Electronics and Electric Power,,Electrical and Computer Engineering,,"Muhammad H. Rashid, Hasan M. Rashid",2005,2,CRC Press,,551,0,English,Техника//Электроника,,0,"0849334187,9780849334184",,,,,621.31/7/0285,TK7881.15 .R38 2005,,,OL3426007M,,0,,,,,,,,6500574,djvu,A3A2E6DCA425C2B9CA87ECD83B74D710,,,,0,2000-01-01 01:00:00,2016-04-03 02:51:08,254000/a3a2e6dca425c2b9ca87ecd83b74d710-d.jpg,,
5692528,jQuery: Visual QuickStart Guide,,,,Steven Holzner,2009,1,Peachpit Press,,241,0,English,Компьютеры,,0,"9780321647498,0321647491",,,,,005.13/3,QA76.73.J39 H656 2009,,,OL23682262M,,0,,,,,,,T,3234112,pdf,A3FAE3727D3C0281469D623B03FB386F,,,,0,2000-01-01 01:00:00,2016-04-03 02:51:08,254000/a3fae3727d3c0281469d623b03fb386f-d.jpg,,
5692525,"Applied Cryptography: Protocols, Algorithms, and Source Code in C",,,,Bruce Schneier,1995,2,Wiley,,1027,0,English,Компьютеры//Алгоритмы и структуры данных,,0,"9780471128458,0471128457",,,,,005.8/2,QA76.9.A25 S35 1996,,,OL7612292M,,0,,,,,,,T,9586849,pdf,A31AF1875C2C924D6C13CEF4AFFFF549,,,,0,2000-01-01 01:00:00,2016-04-03 02:51:08,254000/a31af1875c2c924d6c13cef4affff549-d.jpg,,
5692526,Low Power and Low Voltage Circuit Design with the FGMOS Transistor,,"Circuits, Devices and Systems",,Esther Rodriguez-Villegas,2006,,Institution of Engineering and Technology,,320,0,English,,ebook3000.com,0,"0863416179,9780863416170",,,,,,,,,OL17217316M,,0,,,,,1,,T,3155307,pdf,A3465BE1B3B5DBFF85D7AAE6E7DB18E5,,,,0,2000-01-01 01:00:00,2016-04-03 02:51:08,254000/a3465be1b3b5dbff85d7aae6e7db18e5-d.jpg,,
5692523,Mathematics Dictionary,,,,R.C. James,1992,5th,Springer,,554,0,English,Математика,,0,"0412990415,9780412990410",,,,,510/.3,QA5 .J33 1992b,,,OL413423M,,0,,,,,1,,,19651938,djvu,A25BB3E3549715E728DBA3F6F0874389,,,,0,2000-01-01 01:00:00,2016-04-03 02:51:08,254000/a25bb3e3549715e728dba3f6f0874389-d.jpg,,
5692524,HTML & CSS: The Good Parts (Animal Guide),,Animal Guide ,,Ben Henick,2010,1,O'Reilly Media,,352,0,English,Биология//Зоология,,0,"0596157606,9780596157609",,,,,006.74,QA76.76.H94 H46 2010,,,OL25045125M,,0,,,,,,,T,6280337,pdf,A2A2312C06E67FA6E31EEC8EFF76CCEC,,,,0,2000-01-01 01:00:00,2016-04-03 02:51:08,254000/a2a2312c06e67fa6e31eec8eff76ccec-d.jpg,,
5692521,Augenheilkunde,,,,Gerhard K. Lang,2008,,Thieme Georg Verlag,,626,0,German,,,0,"3131028343,9783131028341",,,,,,,,,,,0,,,,,1,,,10084939,pdf,A1B653AFC669C71CA592C1D7D058C1C2,,,,0,2000-01-01 01:00:00,2016-04-03 02:51:08,254000/a1b653afc669c71ca592c1d7d058c1c2-d.jpg,,
5692522,Struts 2 in Action,,,,"Don Brown, Chad Michael Davis, Scott Stanlick",2008,1,Manning Publications,,434,0,English,Языкознание,,0,"9781933988078,193398807X",,,,,,,,,OL12340313M,,0,,,,,,,1,6229090,pdf,A2306CE1DB07D83BB1971672E2362882,,,,0,2000-01-01 01:00:00,2016-04-03 02:51:08,254000/a2306ce1db07d83bb1971672e2362882-d.jpg,,
5692518,Wie nutze ich Solarenergie in Haus und Garten?,,,,Bo Hanus,2002,,Franzis Verlag,,91,0,German,Техника//Энергетика,,0,"9783772379345,3772379346",,,,,,,,,OL12873604M,,0,,,,,,,1,2450860,pdf,A0D74DBF52AD169A110E5D1C8C546367,,,,0,2000-01-01 01:00:00,2016-04-03 02:51:08,254000/a0d74dbf52ad169a110e5d1c8c546367-d.jpg,,
5692519,Grails: A Quick-Start Guide,,,,Dave Klein,2009,1,Pragmatic Bookshelf,,231,0,English,Компьютеры//Сети//Интернет,,0,"1934356468,9781934356463",,,,,,,,,,,0,,,,,,,T,6427916,pdf,A18D421BE4279A66EBDFC46A0D30848C,,,,0,2000-01-01 01:00:00,2016-04-03 02:51:08,254000/a18d421be4279a66ebdfc46a0d30848c-d.jpg,,
5692520,Step into Xcode: Mac OS X Development,,,,Fritz Anderson,2006,First Printing,Addison-Wesley Professional,,558,0,English,Компьютеры//Операционные системы,,0,"0321334221,9780321334220",,,,,005.4/465,QA76.76.O63,,,OL3413730M,,0,,,,,,,T,29635634,pdf,A199C85E54195EBBF68A939621EB5FC4,,,,0,2000-01-01 01:00:00,2016-04-03 02:51:08,254000/a199c85e54195ebbf68a939621eb5fc4-d.jpg,,
5692517,An Introductory Grammar of Rabbinic Hebrew,,,,"Miguel Perez Fernandez, John Elwolde",1997,,Brill Academic Pub,,351,0,Hebrew,Языкознание,,0,"9789004108905,9004108904",,,,,492.4/82421,PJ4911 .P4713 1997,,,OL657409M,,0,,,,,,,T,16520243,pdf,A0A9DE9CF79D7555E9FA1A3AB334A419,,,,0,2000-01-01 01:00:00,2016-04-03 02:51:08,254000/a0a9de9cf79d7555e9fa1a3ab334a419-d.gif,,
5692515,Diet Pills,,Junior Drug Awareness,,"Amy E. Breguet, Ronald J. Brogan",2008,1,Chelsea House Publications,,111,0,English,Химия//Фармакология,ebook3000.com,0,"0791097501,9780791097502",,,,,615/.78,RM332.3 .B74 2009,,,OL11149726M,,0,,,,,1,,1,5306966,pdf,A03F35881E89FA4D5A1D8212C375BA18,,,,0,2000-01-01 01:00:00,2016-04-03 02:51:08,254000/a03f35881e89fa4d5a1d8212c375ba18-d.jpg,,
5692516,Neural Systems for Control,,,,"Omid Omidvar, David L. Elliott",1997,1st,Academic Press,,357,0,English,,,0,"9780125264303,0125264305",,,,,629.8/9,QA76.87 .N4925 1997,,,OL991169M,,0,,,,,,,,2515174,pdf,A067972CB49C7DF73472C8B281E8150B,,,,0,2000-01-01 01:00:00,2016-04-03 02:51:08,254000/a067972cb49c7df73472c8b281e8150b-d.jpg,,
5692513,Moodle 1.9 for Second Language Teaching,,,,Jeff Stanford,2009,,Packt Publishing,,523,0,English,Образование,,0,"1847196241,9781847196248",,,,,,,,,,,0,,,,,,,T,18904146,pdf,A021CC6234501822B100827AD861B4AF,,,,0,2000-01-01 01:00:00,2016-04-03 02:51:08,254000/a021cc6234501822b100827ad861b4af-d.jpg,,
5692514,ABC of Skin Cancer,,ABC Series,,"Sajjad Rajpar, Jerry Marsden",2008,1,BMJ Books,,77,0,English,Медицина//Онкология,ebook3000.com,0,"1405162198,9781405162197",,,,,616.99/477,RC280.S5 A15 2008,,,OL11650491M,,0,,,,,,,1,3050016,pdf,A035D396173931A2B87F3F7EBD65C47B,,,,0,2000-01-01 01:00:00,2016-04-03 02:51:08,254000/a035d396173931a2b87f3f7ebd65c47b-d.jpg,,
5692512,Practical Mono (Expert's Voice in Open Source),,Expert's Voice in Open Source ,,Mark Mamone,2005,1,Apress,,425,0,English,Языкознание,,0,"1590595483,9781590595480,9781430200970",,,,,,,,,OL8848793M,,0,,,,,1,,T,15115032,pdf,9FCBA1A89DD81FF5BE1727079EDA1C60,,,,0,2000-01-01 01:00:00,2016-04-03 02:51:08,254000/9fcba1a89dd81ff5be1727079eda1c60-d.jpg,,
5692509,JavaScript Developer's Dictionary,,Developer's Library,,Alexander J. Vincent,2002,,Sams,,1198,0,English,Компьютеры//Программирование//Языки программирования,ebook3000.com,0,"9780672322013,0672322013",,,,,,,,,OL7668365M,,0,,,,,,,,3541478,pdf,9EC98ED88A191FF5CFB41DD1D79AE08E,,,,0,2000-01-01 01:00:00,2016-04-03 02:51:08,254000/9ec98ed88a191ff5cfb41dd1d79ae08e-d.jpg,,
5692510,"Art and Politics: Psychoanalysis, Ideology, Theatre",,,,Walter A. Davis,2006,,Pluto Press,,189,0,English,Математика//Анализ,ebook3000.com,0,"0745326471,9780745326481,074532648X,9780745326474",,,,,,,,,OL22750532M,,0,,,,,,,T,12668233,pdf,9ED664FB740334C298338378A9AE477E,,,,0,2000-01-01 01:00:00,2016-04-03 02:51:08,254000/9ed664fb740334c298338378a9ae477e-d.jpg,,
5692511,Cocoa(R) Programming for Mac(R) OS X (3rd Edition),,,,Aaron Pablo Hillegass,2008,3,Addison-Wesley Professional,,655,0,English,Компьютеры//Программирование,,0,"0321503619,9780321503619,0321562739,9780321562739",,,,,005.26/8,QA76.76.O63 H57145 2008,,,OL23093975M,,0,,,,,,,,33413992,pdf,9F34644ABA540A8BDEED92CFA786F125,,,,0,2000-01-01 01:00:00,2016-04-03 02:51:08,254000/9f34644aba540a8bdeed92cfa786f125-d.jpg,,
5692507,Digital Signal Processing using MATLAB and Wavelets,,,,Michael Weeks,2006,,Jones & Bartlett Publishers,,478,0,English,"Математика//Вейвлеты,обработка сигналов",ebook3000.com,0,"9780977858200,0977858200",,,,,621.382/2,TK5102.9 .W433 2007,,,OL24021016M,,0,,,,,1,,T,2940811,pdf,9DF5A507267342405A5D5A096AFA6DD2,,,,0,2000-01-01 01:00:00,2016-04-03 02:51:08,254000/9df5a507267342405a5d5a096afa6dd2-d.jpg,,
5692508,The Design and Implementation of Geographic Information Systems,,,,"John E. Harmon, Steven J. Anderson",2003,,Wiley,,273,0,English,,,0,"9780471204886,0471204889",,,,,,,,,OL7613313M,,0,,,,,,,T,6565877,pdf,9E696257BF81104E6386639977ED3EFA,,,,0,2000-01-01 01:00:00,2016-04-03 02:51:08,254000/9e696257bf81104e6386639977ed3efa-d.jpg,,
5692505,Sams Teach Yourself Networking in 24 Hours,,,,Uyless Black,2009,4,Sams,,433,0,English,Образование//Самоучители,,0,"0768685761,9780768685763",,,,,004.6,TK5105.5 .H385 2009,,,OL23207541M,,0,,,,,,,,5601071,pdf,9D942C65052E6272E113C3027943C7EA,,,,0,2000-01-01 01:00:00,2016-04-03 02:51:08,254000/9d942c65052e6272e113c3027943c7ea-d.jpg,,
5692506,Frommer's Copenhagen Day by Day (Frommer's Day by Day - Pocket),,Frommer's Day by Day - Pocket ,,Sasha Heseltine,2009,,Frommers,,196,0,English,География,,0,"0470699531,9780470699539",,,,,,,,,,,0,,,,,1,,,20804658,pdf,9DADFA93DA3A35EB78D3031824A963AF,,,,0,2000-01-01 01:00:00,2016-04-03 02:51:08,254000/9dadfa93da3a35eb78d3031824a963af-d.jpg,,
5692504,ABC of Child Protection,,ABC Series,,"Sir Roy Meadow, Jacqueline Mok, Donna Rosenberg",2007,4,BMJ Books,,118,0,English,,ebook3000.com,0,"0727918176,9780727918178",,,,,362.76,RJ102 .A25 2007,,,OL17866434M,,0,,,,,,,1,3114867,pdf,9D80EE27161A1586173520284E67A24F,,,,0,2000-01-01 01:00:00,2016-04-03 02:51:08,254000/9d80ee27161a1586173520284e67a24f-d.jpg,,
5692502,Visual Basic Game Programming for Teens,,,,Jonathan S. Harbour,2004,1,Course Technology PTR,,393,0,English,Компьютеры//Программирование,,0,"9781592005871,159200587X",,,,,794.8/1526,QA76.76.C672 H356 2005,,,OL23088743M,,0,,,,,,,T,11931029,pdf,9D6E4DDD1B7574969ABF4B5D311A7CCB,,,,0,2000-01-01 01:00:00,2016-04-03 02:51:08,254000/9d6e4ddd1b7574969abf4b5d311a7ccb-d.jpg,,
5692503,ASP.NET 3.5 CMS Development,,,,"Curt Christianson, Jeff Cochran",2009,,Packt Publishing,,283,0,English,Компьютеры//Программирование//Языки программирования,,0,"1847193617,9781847193612",,,,,,,,,,,0,,,,,,,T,11601903,pdf,9D7D858959F90B2FC8458BD7E5CFAEB2,,,,0,2000-01-01 01:00:00,2016-04-03 02:51:08,254000/9d7d858959f90b2fc8458bd7e5cfaeb2-d.jpg,,
5692500,"New History of the Isle of Man: The Modern Period, 1830-1999",Vol. 5,Liverpool University Press - New History of the Isle of Man,,John Belchem,2001,,Liverpool University Press,,485,0,English,История,ebook3000.com,0,"9780853237167,0853237166,0853237263",,,,,942.7/9,DA670.M2 N49 2000,,,OL3597051M,,0,,,,,,,T,10606068,pdf,9C9E02953B23FD748F9BBD5968969D07,,,,0,2000-01-01 01:00:00,2016-04-03 02:51:08,254000/9c9e02953b23fd748f9bbd5968969d07-d.jpg,,
5692501,iPhoto '09 Portable Genius,,,,Brad Miser,2009,,Wiley,,356,0,English,Техника,,0,"0470475692,9780470475690",,,,,,,,,,,0,,,,,,,T,31788508,pdf,9D461A7873D90B985F65D0B21AEE0F52,,,,0,2000-01-01 01:00:00,2016-04-03 02:51:08,254000/9d461a7873d90b985f65d0b21aee0f52-d.jpg,,
5692498,Egyptian Medicine,,Shire Egyptology,,Carole Reeves,2008,,Shire,,72,0,English,Медицина,ebook3000.com,0,"9780747801276,0747801274",,,,,,,,,OL19784287M,,0,,,,,,,1,4191223,pdf,9BE48473C869B382A91B0E778B78FF0F,,,,0,2000-01-01 01:00:00,2016-04-03 02:51:08,254000/9be48473c869b382a91b0e778b78ff0f-d.jpg,,
5692499,Artificial Intelligence Methods and Tools for Systems Biology,,Computational Biology,,"W. Dubitzky, Francisco Azuaje",2005,1,Springer,,231,0,English,Биология,ebook3000.com,0,"9781402029592,1402029594,1402028598,1402028652",,,,,,,,,OL9679630M,,0,,,,,,,T,14073856,pdf,9C426A6E4686E09DFB1BE09869EF87C1,,,,0,2000-01-01 01:00:00,2016-04-03 02:51:08,254000/9c426a6e4686e09dfb1be09869ef87c1-d.jpg,,
5692496,Borderline - Die andere Art zu fühlen: Beziehungen verstehen und leben,,,,"Alice Sendera, Martina Sendera",2009,1st Edition.,Springer,,238,0,German,,,0,"3211997105,9783211997109",,,,,,,,,,,0,,,,,1,,T,2809776,pdf,9BA3FDD338FF91F9CAA27F59FACF1C8B,,,,0,2000-01-01 01:00:00,2016-04-03 02:51:08,254000/9ba3fdd338ff91f9caa27f59facf1c8b-d.jpg,,
5692497,CWTS: Certified Wireless Technology Specialist Official Study Guide: Exam PW0-070,,CWNP Official Study Guides,,Robert J. Bartz,2009,1 Pap/Cdr,Sybex,,511,0,English,Компьютеры//Сети,,0,"0470438894,9780470438893",,,,,621.384076,TK5105.78 .B37 2009,,,OL23186737M,,0,,,,,1,,T,11275782,pdf,9BC48EC96BD374F6E5C9DCCE5C292446,,,,0,2000-01-01 01:00:00,2016-04-03 02:51:08,254000/9bc48ec96bd374f6e5c9dcce5c292446-d.jpg,,
5692495,"Wine, Food, and Tourism Marketing",,"Monograph Published Simultaneously As the Journal of Travel & Tourism Marketing, 3/4 2003 - Vol. 14",,C Michael Hall,2004,1,Routledge,,193,0,English,Техника//Пищевые производства,ebook3000.com,0,"9780789000828,0789000822,0789001063",,,,,338.4/791,TP548.5.T68 W56 2003,,,OL3677728M,,0,,,,,,,T,9290553,pdf,9B86469A13A3C7C0CF8797C1BB0533E5,,,,0,2000-01-01 01:00:00,2016-04-03 02:51:08,254000/9b86469a13a3c7c0cf8797c1bb0533e5-d.jpg,,
5692493,The FreeBSD Handbook,,,,Jim Mock,1999,1st,Walnut Creek CDROM,,570,0,English,,,0,"9781571762412,1571762418,1571763031",,,,,,,,,OL8732143M,,0,,,,,,,,5717495,pdf,9B1CEAD63ED340373EAF145A473A2DEE,,,,0,2000-01-01 01:00:00,2016-04-03 02:51:08,254000/9b1cead63ed340373eaf145a473a2dee-d.jpg,,
5692494,Volatile Organic Compounds in the Atmosphere,,Issues in Environmental Science and Technology,,"R.E. HESTER, HARRISON",1995,1,Royal Society of Chemistry,,148,0,English,Биология//Экология,,0,"9780854042159,0854042156",,,,,628.53,,,,,,0,,,,,1,,T,1513471,pdf,9B7034FCD70C6E7E4ECB01717A3AC057,,,,0,2000-01-01 01:00:00,2016-04-03 02:51:08,254000/9b7034fcd70c6e7e4ecb01717a3ac057-d.jpg,,
5692492,Anarchist Seeds Beneath the Snow: Left-Libertarian Thought and British Writers from William Morris to Colin Ward,,Liverpool University Press - Liverpool Science Fiction Texts & Studies,,David Goodway,2007,1,Liverpool University Press,,414,0,English,,,0,"1846310253,1846310261,9781846310256,9781846310263",,,,,,,,,OL22742262M,,0,,,,,,,T,10820590,pdf,9AECF4A7EFD35A85B7074A41C5F877E9,,,,0,2000-01-01 01:00:00,2016-04-03 02:51:08,254000/9aecf4a7efd35a85b7074a41c5f877e9-d.jpg,,
5692490,Inorganic Polymers,,,,"James E. Mark, Harry R. Allcock, Robert West",2005,2,"Oxford University Press, USA",,353,0,English,Химия//Неорганическая химия,,0,"9780195131192,0195131193",,,,,546,QD196 .M37 2005,,,OL3302893M,,0,,,,,,,T,3581272,pdf,9AC45FC9954678C63BBBAF3B870D4C8E,,,,0,2000-01-01 01:00:00,2016-04-03 02:51:08,254000/9ac45fc9954678c63bbbaf3b870d4c8e-d.jpg,,
5692491,Model Theory and Modules,,London Mathematical Society Lecture Note Series,,M. Prest,1988,,Cambridge University Press,,388,0,English,Математика//Математическая логика,ebook3000.com,0,"9780521348331,0521348331",,,,,511/.8,QA9.7 .P74 1988,,,OL2402351M,,0,,,,0,1,,0,12911995,pdf,9AE9A3E58E5DC15BBA4DA8263243BE73,,,,0,2000-01-01 01:00:00,2016-04-03 02:51:08,254000/9ae9a3e58e5dc15bba4da8263243be73-d.jpg,,
5692488,Bewegungstherapie bei internistischen Erkrankungen,,,,"Klaus-Michael Braumann, Niklas Stiller",2009,1st Edition.,Springer,,262,0,German,Медицина//Терапия,,0,"3642013317,9783642013317",,,,,,,,,,,0,,,,,1,,,3575200,pdf,9A802B9B83A73AD164D8511FEE6F40B0,,,,0,2000-01-01 01:00:00,2016-04-03 02:51:08,254000/9a802b9b83a73ad164d8511fee6f40b0-d.jpg,,
5692489,"Beer, Blood & Cornmeal: Seven Years of Strange Wrestling",,,,Bob Calhoun,2008,,Ecw Press,,411,0,English,,ebook3000.com,0,"1550228277,9781550228274",,,,,796.812092,,,,OL11988584M,,0,,,,,1,,T,30815288,pdf,9A8A86250CA0EDA21D0A49DA1EE29A81,,,,0,2000-01-01 01:00:00,2016-04-03 02:51:08,254000/9a8a86250ca0eda21d0a49da1ee29a81-d.jpg,,
5692486,Practical Prototype and script.aculo.us,,Expert's Voice in Web Development,,Andrew Dupont,2008,1,Apress,,332,0,English,Компьютеры,,0,"1590599195,9781590599198",,,,,,,,,OL12369535M,,0,,,,,,,,4605188,pdf,99A02385A5D36EAC7B157C688C5D8B57,,,,0,2000-01-01 01:00:00,2016-04-03 02:51:08,254000/99a02385a5d36eac7b157c688c5d8b57-d.jpg,,
5692487,IBS Cookbook For Dummies,,,,"Carolyn Dean MD  ND, L. Christine Wheeler MA",2009,1,For Dummies,,363,0,English,Образование,,0,"0470530723,9780470530726",,,,,,,,,,,0,,,,,1,,,4570465,pdf,9A1D5011FDE968CD7CD3E382DB970EBD,,,,0,2000-01-01 01:00:00,2016-04-03 02:51:08,254000/9a1d5011fde968cd7cd3e382db970ebd-d.jpg,,
5692484,Microsoft Expression Web 2 On Demand,,,,"Steve Johnson, Steve Perspection Inc.",2008,2nd,Que,,943,0,English,Компьютеры//Сети//Интернет,,0,"078973785X,9780789737854",,,,,006.7/86,TK5105.8883 .J66 2008,,,OL16523446M,,0,,,,,,,T,15988923,pdf,98EFF86DD0138D9F5D645C4849D35900,,,,0,2000-01-01 01:00:00,2016-04-03 02:51:08,254000/98eff86dd0138d9f5d645c4849d35900-d.jpg,,
5692485,Radio Frequency Integrated Circuits and Technologies,,,,Frank Ellinger,2007,1,Springer,,518,0,English,Техника//Электроника//Радио,ebook3000.com,0,"9783540357889,3540357882",,,,,,,,,OL9056649M,,0,,,,,,,T,14606569,pdf,999842E2CC79014BCB8EF94478E84DCC,,,,0,2000-01-01 01:00:00,2016-04-03 02:51:08,254000/999842e2cc79014bcb8ef94478e84dcc-d.jpg,,
5692482,"Explore the Solar System!: 25 Great Projects, Activities, Experiments (Explore Your World series)",,Explore Your World series ,,"Anita Yasuda, Bryan Stone",2009,,Nomad Press,,98,0,English,Физика//Астрономия,,0,"1934670367,9781934670361",,,,,,,,,OL25030690M,,0,,,,,1,,T,17285188,pdf,98B817D6F3B77AE0C351551198CDCE4F,,,,0,2000-01-01 01:00:00,2016-04-03 02:51:08,254000/98b817d6f3b77ae0c351551198cdce4f-d.jpg,,
5692483,Fourier Analysis on Finite Abelian Groups (Applied and Numerical Harmonic Analysis),,Applied and Numerical Harmonic Analysis ,,Bao Luong,2009,"XVI,159 p.",Birkhäuser Boston,,166,0,English,Математика//Вычислительная математика,ebook3000.com,0,"0817649158,9780817649159,9780817649166",,,,,515/.2433,QA403.5 .L86 2009,,,OL25051609M,,0,,,,,,,T,2005578,pdf,98CCB4D8440005538B9F21DDEB9771F5,,,,0,2000-01-01 01:00:00,2016-04-03 02:51:08,254000/98ccb4d8440005538b9f21ddeb9771f5-d.jpg,,
5692481,Hacking Vim: A Cookbook to get the Most out of the Latest Vim Editor: From personalizing Vim to productivity optimizations: Recipes to make life easier for experienced Vim users,,,,Kim Schulz,2007,,Packt Publishing,,224,0,English,Компьютеры//Безопасность,,0,"1847190936,9781847190932",,,,,,,,,OL9819691M,,0,,,,,,,T,4842931,pdf,985CF69CE86F4A1C58ACA27D35AE4EFA,,,,0,2000-01-01 01:00:00,2016-04-03 02:51:08,254000/985cf69ce86f4a1c58aca27d35ae4efa-d.jpg,,
5692479,"Ruby on Rails Enterprise Application Development: Plan, Program, Extend: Building a complete Ruby on Rails business application from start to finish",,,,"Elliot Smith, Rob Nichols",2007,,Packt Publishing,,525,0,English,Компьютеры//Информационные системы//ИС предприятий,,0,"1847190855,9781847190857",,,,,,,,,OL11916222M,,0,,,,,1,,T,15427050,pdf,9821C18B786BBB13B897050DFA2984E7,,,,0,2000-01-01 01:00:00,2016-04-03 02:51:08,254000/9821c18b786bbb13b897050dfa2984e7-d.jpg,,
5692480,"Deciding Who Leads: How Executive Recruiters Drive, Direct, and Disrupt the Global Search for Leadership Talent",,,,Joseph Daniel McCool,2008,illustrated edition,Nicholas Brealey Boston,,241,0,English,,ebook3000.com,0,"0891062467,9780891062462",,,,,,,,,OL11274586M,,0,,,,,1,,T,2419380,pdf,984AF6EB6A483DC261FA7D7DFF6EB5A9,,,,0,2000-01-01 01:00:00,2016-04-03 02:51:08,254000/984af6eb6a483dc261fa7d7dff6eb5a9-d.jpg,,
5692477,Creating Ecological Value: An Evolutionary Approach to Business Strategies and the Natural Environment,,,,Frank Boons,2010,,Edward Elgar Pub,,223,0,English,Бизнес,,0,"1847209726,9781847209726",,,,,,,,,,,0,,,,,1,,T,3527350,pdf,97F0D5A991FAEC0BC9849CAE6D0B61A1,,,,0,2000-01-01 01:00:00,2016-04-03 02:51:08,254000/97f0d5a991faec0bc9849cae6d0b61a1-d.jpg,,
5692478,"The Renewal of Education: Lectures Delivered in Basel, Switzerland, April 20-May 16, 1920",,"Foundations of Waldorf Education, 9",,"Rudolf Steiner, Eugene Schwartz",2002,2nd,Steiner Books,,285,0,German,Образование,ebook3000.com,0,"9780880104555,0880104554",,,,,370/.1,LB1029.W34 S7212 2001,,,OL18396030M,,0,,,,,,,T,1099715,pdf,981C98903A486C6BA30E1C1E0DFC4766,,,,0,2000-01-01 01:00:00,2016-04-03 02:51:08,254000/981c98903a486c6ba30e1c1e0dfc4766-d.jpg,,
5692476,Physics of Ferroelectrics: A Modern Perspective (Topics in Applied Physics),,Topics in Applied Physics ,,"Karin M. Rabe, Karin M. Rabe, Charles H. Ahn, Jean-Marc Triscone",2007,1,Springer,,398,0,English,Физика,ebook3000.com,0,"3540345906,9783540345909",,,,,,,,,OL12774156M,,0,,,,,,,T,10884544,pdf,97E87185E128F4B5E6310FC2168BF7E9,,,,0,2000-01-01 01:00:00,2016-04-03 02:51:08,254000/97e87185e128f4b5e6310fc2168bf7e9-d.jpg,,
5692473,Bob Zuppke: The Life and Football Legacy of the Illinois Coach,,,,Maynard Brichford,2009,,McFarland,,225,0,English,,ebook3000.com,0,"0786443014,9780786443017",,,,,"796.332092,B",GV939.Z8 B75 2009,,,OL23207715M,,0,,,,,,,T,1762764,pdf,9704B818CFB703D2300D3DE2400D1381,,,,0,2000-01-01 01:00:00,2016-04-03 02:51:08,254000/9704b818cfb703d2300d3de2400d1381-d.jpg,,
5692474,Business Analysis with QuickBooks,,,,Conrad Carlberg,2009,,Wiley,,411,0,English,Бизнес,,0,"0470543140,9780470543146",,,,,,,,,,,0,,,,,1,,T,11058036,pdf,976BAEF44F8F252B275D153FF8A676B2,,,,0,2000-01-01 01:00:00,2016-04-03 02:51:08,254000/976baef44f8f252b275d153ff8a676b2-d.jpg,,
5692475,Groups Acting on Hyperbolic Space: Harmonic Analysis and Number Theory,,Springer Monographs in Mathematics,,"Juergen Elstrodt, Fritz Grunewald, Jens Mennicke",1997,1,Springer,,272,0,English,Техника//Аэрокосмическое оборудование,,0,"9783540627456,3540627456",,,,,512/.7,QA320 .E47 1998,,,OL691568M,,0,,,,,,,,22495003,pdf,97AAB39B476AA475C30C9C78ECA22506,,,,0,2000-01-01 01:00:00,2016-04-03 02:51:08,254000/97aab39b476aa475c30c9c78eca22506-d.jpg,,
5692472,Quantum Information With Continuous Variables of Atoms and Light,,,,"Nicolas J. Cerf, Nicolas J. Cerf; Gerd Leuchs; Eugene S. Polzik",2007,,Imperial College Press,,629,0,English,Физика//Квантовая физика,,0,"9781860947605,1860947603",,,,,,,,,OL8628238M,,0,,,,,,,T,16026072,pdf,96B7426618DAEF05BDE8B5CB886F529D,,,,0,2000-01-01 01:00:00,2016-04-03 02:51:08,254000/96b7426618daef05bde8b5cb886f529d-d.jpg,,
5692470,Pro SQL Server 2005 Reporting Services,,,,"Rodney Landrum, Walter J. Voytek II",2005,1,Apress,,401,0,English,Компьютеры//Системное администрирование,ebook3000.com,0,"9781590594988,1590594983",,,,,,,,,OL18248224M,,0,,,,,,,T,18619658,pdf,96416A7BF01154B2CF06B72326B6B476,,,,0,2000-01-01 01:00:00,2016-04-03 02:51:08,254000/96416a7bf01154b2cf06b72326b6b476-d.jpg,,
5692471,Advances In Uml And Xml-based Software Evolution,,,,Hongji Yang,2005,illustrated edition,Idea Group Publishing,,375,0,English,Компьютеры//Программирование,,0,"9781591406211,1591406218,1591406226,1591406234",,,,,,,,,OL8854941M,,0,,,,,,,,8924361,pdf,96542D11F26FBB28D51428279841F22B,,,,0,2000-01-01 01:00:00,2016-04-03 02:51:08,254000/96542d11f26fbb28d51428279841f22b-d.jpg,,
5692468,CompTIA Network+ Deluxe Study Guide: (Exam N10-004),,,,Todd Lammle,2009,Har/Cdr St,Sybex,,895,0,English,Компьютеры//Сети,,0,"0470427485,9780470427484,9780470427477",,,,,004.6076,TK5105.5 .L3555 2009,,,OL23147923M,,0,,,,,,,T,19384424,pdf,961EF8A84ED5F9F440EC25F100762326,,,,0,2000-01-01 01:00:00,2016-04-03 02:51:08,254000/961ef8a84ed5f9f440ec25f100762326-d.jpg,,
5692469,Gene Expression Systems: Using Nature for the Art of Expression,,,,"Joseph M. Fernandez, James P. Hoeffler",1998,1st,Academic Press,,493,0,English,Наука (общее)//Научно-популярное,,0,"9780122538407,0122538404",,,,,572.8/65,QH450 .G4626 1999,,,OL397300M,,0,,,,,,,T,29621869,pdf,9635B6DF9C7DC6A4E521B7590AEB2BB0,,,,0,2000-01-01 01:00:00,2016-04-03 02:51:08,254000/9635b6df9c7dc6a4e521b7590aeb2bb0-d.jpg,,
5692466,jQuery 1.3 with PHP,,,,Kae Verens,2009,,Packt Publishing,,247,0,English,Компьютеры//Программирование//Языки программирования,,0,"1847196985,9781847196989",,,,,,,,,,,0,,,,,,,T,3916788,pdf,95A8D9CCB4BF72AFBD2D371B0FCF6C39,,,,0,2000-01-01 01:00:00,2016-04-03 02:51:08,254000/95a8d9ccb4bf72afbd2d371b0fcf6c39-d.jpg,,
5692467,Slam Dunk to Glory,,,,"David \Big Daddy D\"" Lattin""",2007,,White Stone Books,,240,0,English,,ebook3000.com,0,"1593791178,9781593791179",,,,,,,,,OL8874404M,,0,,,,,,,T,9128017,pdf,9614C5841D2B9C6CA5313518F3942E9A,,,,0,2000-01-01 01:00:00,2016-04-03 02:51:08,254000/9614c5841d2b9c6ca5313518f3942e9a-d.jpg,,
5692464,Developing Large Web Applications: Producing Code That Can Grow and Thrive,,,,Kyle Loudon,2010,1,Yahoo Press,,302,0,English,Компьютеры//Сети//Интернет,,0,"0596803028,9780596803025",,,,,,,,,OL25064005M,,0,,,,,,,T,2575917,pdf,95819B5F3EB0E4BFEECD369E7400A9B2,,,,0,2000-01-01 01:00:00,2016-04-03 02:51:08,254000/95819b5f3eb0e4bfeecd369e7400a9b2-d.jpg,,
5692465,Measurement Science for Engineers,,,,"Paul Regtien, F. van der Heijden, M. J. Korsten, W Otthius",2004,,Butterworth-Heinemann,,356,0,English,Наука (общее)//Научно-популярное,,0,"9781903996584,1903996589",,,,,620/.0044,T50 .R45 2004,,,OL18792374M,,0,,,,,,,,18147613,pdf,9586158C81BCF0CF3CCE2EEE68651567,,,,0,2000-01-01 01:00:00,2016-04-03 02:51:08,254000/9586158c81bcf0cf3cce2eee68651567-d.jpg,,
5692462,"Victory Girls, Khaki-Wackies, and Patriotutes: The Regulation of Female Sexuality during World War II",,,,Marilyn Hegarty,2007,,NYU Press,,265,0,English,История,ebook3000.com,0,"0814737048,9780814737040",,,,,306.7082/097309044,HQ18.U5 H42 2008,,,OL11354720M,,0,,,,,,,T,11033562,pdf,956BEF1C40FC08983A20B0CB70CE9719,,,,0,2000-01-01 01:00:00,2016-04-03 02:51:08,254000/956bef1c40fc08983a20b0cb70ce9719-d.jpg,,
5692463,A First Course in Fourier Analysis,,,,David W. Kammler,2008,2,Cambridge University Press,,863,0,English,Математика//Анализ,ebook3000.com,0,"9780521709798,0521709792,0521883407,9780521883405,9780511378690",,,,,,,,,OL10437006M,,0,,,,,1,,T,16630641,pdf,956C103E2DB6A87ECC4F36FE89DB7453,,,,0,2000-01-01 01:00:00,2016-04-03 02:51:08,254000/956c103e2db6a87ecc4f36fe89db7453-d.jpg,,
5692460,Liferay Portal 5.2 Systems Development,,,,Jonas X Yuan,2009,,Packt Publishing,,552,0,English,Компьютеры,,0,"1847194702,9781847194701,9781847192721",,,,,004.6,TK5105.875.I6 Y93 2008,,,OL23194296M,,0,,,,,,,T,9418629,pdf,9562598EF2F49FB8A96D7BF7FB3703F2,,,,0,2000-01-01 01:00:00,2016-04-03 02:51:08,254000/9562598ef2f49fb8a96d7bf7fb3703f2-d.jpg,,
5692461,Conservation And Recycling of Resources: New Research,,,,Christian V. Loeffe,2006,,Nova Science Publishers,,274,0,English,,ebook3000.com,0,"1600211259,9781600211256",,,,,,,,,OL12503334M,,0,,,,,1,,T,2943201,pdf,956907D3512709BD4ACC0993C8719F65,,,,0,2000-01-01 01:00:00,2016-04-03 02:51:08,254000/956907d3512709bd4acc0993c8719f65-d.jpg,,
5692457,Frommer's San Francisco Day by Day,,Frommer's Day by Day - Pocket,,Noelle Salmi,2009,2,Frommers,,196,0,English,География,,0,"0470384379,9780470384374",,,,,,,,,,,0,,,,,1,,,18905060,pdf,94C86F17CFB077C37A4FB7AFB14A4AF9,,,,0,2000-01-01 01:00:00,2016-04-03 02:51:08,254000/94c86f17cfb077c37a4fb7afb14a4af9-d.jpg,,
5692458,Ray Schalk: A Baseball Biography,,,,Brian E. Cooper,2009,,McFarland,,339,0,English,,ebook3000.com,0,"0786441488,9780786441488",,,,,"796.357092,B",GV865.S352 C66 2009,,,OL23614721M,,0,,,,,,,T,14215585,pdf,954140DFEEF5AFAA6DAEAB37AB5EFF08,,,,0,2000-01-01 01:00:00,2016-04-03 02:51:08,254000/954140dfeef5afaa6daeab37ab5eff08-d.jpg,,
5692459,A World Art History And Its Objects,,,,David Carrier,2008,,Pennsylvania State University Press,,200,0,English,История,,0,"0271034149,9780271034140",,,,,707.2/2,N380 .C38 2008,,,OL16775924M,,0,,,,1,0,,1,3175879,pdf,954D64864CEB754421D4598D6EF68EA8,,,,0,2000-01-01 01:00:00,2016-04-03 02:51:08,254000/954d64864ceb754421d4598d6ef68ea8-d.jpg,,
5692455,Programming Python,,,,Mark Lutz,2006,3,O'Reilly Media,,1740,0,English,Компьютеры//Программирование//Языки программирования,,0,"0596009259,9780596009250",,,,,,,,,OL7581207M,,0,,,,,,,T,22667300,pdf,9487D2BD841AF34BD9034639DF930683,,,,0,2000-01-01 01:00:00,2016-04-03 02:51:08,254000/9487d2bd841af34bd9034639df930683-d.jpg,,
5692456,"Work It Out, Revised Edition: Using Personality Type to Improve Team Performance",,,,"Sandra Krebs  Hirsh, Jane A.G. Kise",2006,Revised Edition,Nicholas Brealey Boston,,263,0,English,,ebook3000.com,0,"0891062122,9780891062127",,,,,650.1'3—dc22,,,,OL8218546M,,0,,,,,1,,T,2434234,pdf,94B6F1F5BA54BA94BC2601A9A9B93002,,,,0,2000-01-01 01:00:00,2016-04-03 02:51:08,254000/94b6f1f5ba54ba94bc2601a9a9b93002-d.jpg,,
5692453,Database Marketing: Analyzing and Managing Customers,,International Series in Quantitative Marketing,,"Robert C. Blattberg, Byung-Do Kim, Scott A. Neslin",2008,1,Springer,,869,0,English,Бизнес//Менеджмент//Управление проектами,,0,"0387725784,9780387725789",,,,,,,,,OL16635956M,,0,,,,,0,,T,5413352,pdf,935F2AE6803BE6EB84E72E2506B8C6E6,,,,0,2000-01-01 01:00:00,2016-04-03 02:51:08,254000/935f2ae6803be6eb84e72e2506b8c6e6-d.jpg,,
5692454,The Essential Guide to Flash CS4,,Friends of ed Adobe Learning Library,,"Cheridan Kerr, Jonathan Keats",2009,1,friends of ED,,434,0,English,Компьютеры//Сети//Интернет,,0,"1430223537,9781430223535,9781430223542",,,,,006.756,TR897.7 .K487 2009,,,OL25031396M,,0,,,,,,,T,13927710,pdf,93D87F65DFCE15D07641EFDB30074635,,,,0,2000-01-01 01:00:00,2016-04-03 02:51:08,254000/93d87f65dfce15d07641efdb30074635-d.jpg,,
5692452,Beyond Description: Singapore Space Historicity (Architext),,Architext ,,"Ryan Bishop, John Phillips, Wei-Wei Yeo",2004,New edition,Routledge,,241,0,English,История,,0,"9780203643228,9780203683903,9780415299817,0415299810,0415299829,9780415299824",,,,,307.1/216/095957,NA1530.S55 B49 2004,,,OL22584027M,,0,,,,,1,,,13713403,pdf,92C08B6924D93692650BFB940FB22EDC,,,,0,2000-01-01 01:00:00,2016-04-03 02:51:08,254000/92c08b6924d93692650bfb940fb22edc-d.jpg,,
5692450,Ubuntu Unleashed 2010 Edition: Covering 9.10 and 10.4,,,,"Andrew Hudson, Paul Hudson, Matthew Helmke, Ryan Troy",2009,5,Sams,,863,0,English,Компьютеры//Операционные системы,,0,"0672331098,9780672331091",,,,,,,,,,,0,,,,,1,,,15011896,pdf,92338F4B411C2C2B03A4B8B5FF1A50B2,,,,0,2000-01-01 01:00:00,2016-04-03 02:51:08,254000/92338f4b411c2c2b03a4b8b5ff1a50b2-d.jpg,,
5692451,"Führungswissen für Bau- und Immobilienfachleute 1: Grundlagen, Betriebswirtschaft, Unternehmensrechnung, Baubetriebsrechnung, Nachträge und Claims, Wirtschaftlichkeit, ... Unternehmensfinanzierung (German Edition)",,,,Claus Jürgen Diederichs,2004,"2., erw. u. aktualisierte Aufl.",Springer,,356,0,German,,ebook3000.com,0,"3540221700,9783540221708",,,,,,,,,OL12773184M,,0,,,,,1,,T,2817600,pdf,926954821EAAC7F9AB5F4F7E193CD3A1,,,,0,2000-01-01 01:00:00,2016-04-03 02:51:08,254000/926954821eaac7f9ab5f4f7e193cd3a1-d.jpg,,
5692448,The Coen Brothers: The Story of Tw0 American Filmmakers,,,,Josh Levine,2000,illustrated edition,ECW Press,,189,0,English,,ebook3000.com,0,"1550224247,9781550224245,9781554904242",,,,,,,,,OL8548463M,,0,,,,,1,,T,13696185,pdf,91B5EA4B0C9082396F050B27C48265CC,,,,0,2000-01-01 01:00:00,2016-04-03 02:51:08,254000/91b5ea4b0c9082396f050b27c48265cc-d.jpg,,
5692449,Purely Functional Data Structures,,,,Chris Okasaki,1998,,Cambridge University Press,,225,0,English,Компьютеры//Алгоритмы и структуры данных,,0,"9780521631242,9780511530104,0521663504,0521631246,0511530102,9780521663502",,,,,005.7/3,QA76.9.D35 O35 1998,,,OL355580M,,300,,,,0,1,,1,3642695,djvu,921668535D6E2E33544F2397B78EF2D9,,,,0,2000-01-01 01:00:00,2016-04-03 02:51:08,254000/921668535d6e2e33544f2397b78ef2d9-d.jpg,,
5692446,Cisco QOS Exam Certification Guide,,IP Telephony Self-Study,,"Wendell Odom, Michael J. Cavanaugh",2004,2,Cisco Press,,754,0,English,Компьютеры//Сети,,0,"9781587201240,1587201240",,,,,004.6,QA76.3 .O369 2005,,,OL3314095M,,0,,,,,,,,18179908,pdf,9159E7D5858B560CFF3887CBDDB7AC85,,,,0,2000-01-01 01:00:00,2016-04-03 02:51:08,254000/9159e7d5858b560cff3887cbddb7ac85-d.jpg,,
5692447,Satchmo Blows Up the World: Jazz Ambassadors Play the Cold War,,,,Penny M. Von Eschen,2004,1ST,Harvard University Press,,342,0,English,,ebook3000.com,0,"0674015010,9780674015012,9780674022607,0674022602",,,,,,,,,OL7671160M,,0,,,,,,,T,2101256,pdf,918F2896348E98A098A8BA9FDAC37832,,,,0,2000-01-01 01:00:00,2016-04-03 02:51:08,254000/918f2896348e98a098a8ba9fdac37832-d.jpg,,
5692444,Aptana RadRails: An IDE for Rails Development: A comprehensive guide to using RadRails to develop your Ruby on Rails projects in a professional and productive manner,,,,Javier Ramirez,2008,,Packt Publishing,,246,0,English,Компьютеры//Программирование,,0,"1847193986,9781847193988",,,,,,,,,,,0,,,,,,,T,5875357,pdf,911DAFC118EBA3C960503DB4BE976C5A,,,,0,2000-01-01 01:00:00,2016-04-03 02:51:08,254000/911dafc118eba3c960503db4be976c5a-d.jpg,,
5692445,Zen Cart: E-commerce Application Development: A step-by-step developer's guide,,,,Suhreed Sarkar,2008,,Packt Publishing,,322,0,English,Бизнес//Электронная коммерция,,0,"1847191177,9781847191175",,,,,,,,,,,0,,,,,,,T,11056237,pdf,9141C0879F266C8093D7A2EDDCD75E91,,,,0,2000-01-01 01:00:00,2016-04-03 02:51:08,254000/9141c0879f266c8093d7a2eddcd75e91-d.jpg,,
5692442,Digital Signal and Image Processing Using MATLAB,,Digital Signal & Image Processing Series (ISTE-DSP),,"Gérard Blanchet, Maurice Charbit",2006,illustrated edition,Wiley-ISTE,,764,0,English,Компьютеры//Программы//Системы научных расчетов,,0,"1905209134,9781905209132",,,,,,,,,OL8775640M,,0,0,0,,,,,T,6328184,pdf,904C751D1379E09E78114A0E963C781B,,,,0,2000-01-01 01:00:00,2016-04-03 02:51:08,254000/904c751d1379e09e78114a0e963c781b-d.jpg,,
5692443,Efficient Electrical Systems Design Handbook,,,,"Albert Thumann, Harry Franz",2009,1,Fairmont Press,,408,0,English,Техника//Электроника//Электротехника,ebook3000.com,0,"1439803005,0881735930,0881735949,9781439803004",,,,,621.3,TK4001 .T58 2008,,,OL22528853M,,0,,,,,,,T,4645488,pdf,90A398FF78B3263CB8BCD4EE6E31DE12,,,,0,2000-01-01 01:00:00,2016-04-03 02:51:08,254000/90a398ff78b3263cb8bcd4ee6e31de12-d.jpg,,
5692440,Seam 2.x Web Development,,,,David Salter,2009,,Packt Publishing,,300,0,English,Компьютеры//Сети//Интернет,,0,"184719592X,9781847195920",,,,,,,,,,,0,,,,,1,,T,8780335,pdf,9040ED212ADF0BB0ECC4FA4238752F78,,,,0,2000-01-01 01:00:00,2016-04-03 02:51:08,254000/9040ed212adf0bb0ecc4fa4238752f78-d.jpg,,
5692441,"Latest Advances In Atomic Cluster Collisions: Fission, Fusion, Electron, Ion And Photon Impact",,,,"Andrey V. Solov'yov, Jean-Patrick Connerade",2005,,World Scientific Publishing Company,,398,0,English,,,0,"9781860944956,1860944957",,,,,539.757,QC173.4.M48 I586 2004,,,OL3435742M,,0,,,,,,,T,17543502,pdf,90480A3B9720779B01D620DB54395B78,,,,0,2000-01-01 01:00:00,2016-04-03 02:51:08,254000/90480a3b9720779b01d620db54395b78-d.jpg,,
5692439,Pro Android,,,,"Satya Komatineni, Sayed Hashimi",2009,1,Apress,,466,0,English,Компьютеры,,0,"1430215968,9781430215967",,,,,004.165,QA76.76.A65 H377 2009,,,OL24390001M,,0,,,,,1,,T,12623500,pdf,903E4DB9A4C1B072CC5D9299F6A64B10,,,,0,2000-01-01 01:00:00,2016-04-03 02:51:08,254000/903e4db9a4c1b072cc5d9299f6a64b10-d.jpg,,
5692437,Practicing Sabermetrics: Putting the Science of Baseball Statistics to Work,,,,Gabriel B Costa,2009,,McFarland,,241,0,English,Математика//Математическая статистика,ebook3000.com,0,"0786441771,9780786441778",,,,,796.357,GV877 .C68 2009,,,OL23606910M,,0,,,,,,,T,2471655,pdf,8FCAC0883EE445118FC1DBFAED8F2C67,,,,0,2000-01-01 01:00:00,2016-04-03 02:51:08,254000/8fcac0883ee445118fc1dbfaed8f2c67-d.jpg,,
5692438,Breaded Fried Foods,,,,"Parameswarakuma Mallikarjunan, Michael O. Ngadi, Manjeet S. Chinnan",2009,1,CRC Press,,196,0,English,Техника//Пищевые производства,ebook3000.com,0,"0849314615,9780849314612",,,,,664,TP670 .M175 2009,,,OL11559405M,,0,,,,,,,T,4335088,pdf,902307E35947333D79F4D3BFD7046CD1,,,,0,2000-01-01 01:00:00,2016-04-03 02:51:08,254000/902307e35947333d79f4d3bfd7046cd1-d.jpg,,
5692435,Beginning Xcode,,Programmer to Programmer,,James Bucanek,2006,,Wrox,,714,0,English,Компьютеры//Программирование//Языки программирования,,0,"047175479X,9780471754794",,,,,,,,,OL7621120M,,0,,,,,,,,13651855,pdf,8F3A824DB4570B74E02834E247707C77,,,,0,2000-01-01 01:00:00,2016-04-03 02:51:08,254000/8f3a824db4570b74e02834e247707c77-d.jpg,,
5692436,Introduction to Polymer Analysis,,,,T. R. Crompton,2009,,iSmithers Rapra Publishing,,434,0,English,Математика//Анализ,,0,"1847353851,9781847353856,1847353843,9781847353849",,,,,,,,,,,0,,,,,1,,T,4192046,pdf,8F58CBADBE6ABB06C1F2B77F89E3158E,,,,0,2000-01-01 01:00:00,2016-04-03 02:51:08,254000/8f58cbadbe6abb06c1f2b77f89e3158e-d.jpg,,
5692433,Animal Sciences: 4,,,,Allan B. Cobb,2002,,Macmillan Library Reference,,292,0,English,Биология//Зоология,ebook3000.com,0,"9780028655604,0028655605,0028655567,0028655575,0028655583,0028655591",,,,,590.3,SF61 .A55 2002,,,OL23078145M,,0,0,0,,,,,,12319975,pdf,8EE5099F507180730C9CF0721FCB3066,,,,0,2000-01-01 01:00:00,2016-04-03 02:51:08,254000/8ee5099f507180730c9cf0721fcb3066-g.jpg,,
5692434,Networks and Grids: Technology and Theory,,"Information Technology: Transmission, Processing and Storage",,Thomas G. Robertazzi,2007,1,Springer,,286,0,English,Компьютеры//Сети,,0,"0387367586,9780387367583,9780387682358",,,,,,,,,OL10152833M,,0,,,,,,,T,14047843,pdf,8F04CB1864151C12D2967A10EDDF97ED,,,,0,2000-01-01 01:00:00,2016-04-03 02:51:08,254000/8f04cb1864151c12d2967a10eddf97ed-d.jpg,,
5692431,Communications: An International History of the Formative Years (History of Technology),,IEE History of Technology,,Russell Burns,2003,,Institution of Engineering and Technology,,652,0,English,Техника//Электроника//Телекоммуникации,ebook3000.com,0,"0863413277,9780863413278,0863413307,9780863413308",,,,,,,,,OL9576009M,,0,,,,,1,,T,6463832,pdf,8E6CE8EEFDAB3AC056FAEE738E2F1ED1,,,,0,2000-01-01 01:00:00,2016-04-03 02:51:08,254000/8e6ce8eefdab3ac056faee738e2f1ed1-d.jpg,,
5692432,Getting Started with Grails,,,,Jason Rudolph,2007,,Lulu.com,,133,0,English,Языкознание,,0,"143030782X,9781430307822",,,,,,,,,OL13489287M,,0,,,,,,,T,4103313,pdf,8EA6D65BD3145206F2EFD77E6B37CA61,,,,0,2000-01-01 01:00:00,2016-04-03 02:51:08,254000/8ea6d65bd3145206f2efd77e6b37ca61-d.jpg,,
5692429,Ultramodern Firearms,,d20 Modern Roleplaying ,,Charles Ryan,2002,,Green Ronin Publishing,,162,0,English,Техника//Военная техника//Оружие,ebook3000.com,0,"9780972359931,0972359931",,,,,,,,,OL8577874M,,0,,,,,,,,21559989,pdf,8E637ED94C96874C2807609F173FF450,,,,0,2000-01-01 01:00:00,2016-04-03 02:51:08,254000/8e637ed94c96874c2807609f173ff450-d.jpg,,
5692430,The Mechatronics Handbook,2 Volume Set,Mechatronics Handbook 2e ,,Robert H. Bishop,2002,1,CRC Press,,1229,0,English,,,0,"9780849300660,0849300665",,,,,621,TJ163.12 .M434 2002,,,OL3585389M,,0,0,0,,,,,,52753382,pdf,8E6B05B3E1655A7133CDAA63DD844E84,,,,0,2000-01-01 01:00:00,2016-04-03 02:51:08,254000/8e6b05b3e1655a7133cdaa63dd844e84-d.jpg,,
5692427,"Indian Ocean Studies: Cultural, Social, and Political Perspectives",,Routledge Indian Ocean Series,,"Shanti Moorthy, Ashraf Jamal",2009,1,Routledge,,454,0,English,,,0,"0203867432,9780415803908,041580390X,9780203867433",,,,,909/.09824,DS339.8 .I53 2009,,,OL23397439M,,0,,,,,1,,T,5348859,pdf,8D3AC9975C1F772F93FB2C1759514512,,,,0,2000-01-01 01:00:00,2016-04-03 02:51:08,254000/8d3ac9975c1f772f93fb2c1759514512-d.jpg,,
5692428,Green Building: Guidebook for Sustainable Architecture,,,,"Michael Bauer, Peter Mösle, Michael Schwarz",2009,1st Edition.,Springer,,209,0,English,Техника//Строительство,,0,"3642006345,9783642006340",,,,,720.47,NA2542.36 .B38513 2010,,,OL24123582M,,0,,,,,1,,,25034937,pdf,8D7488E5FF8F07C355B5779F15E5FF97,,,,0,2000-01-01 01:00:00,2016-04-03 02:51:08,254000/8d7488e5ff8f07c355b5779f15e5ff97-d.jpg,,
5692426,The Art of SEO: Mastering Search Engine Optimization (Theory in Practice),,Theory in Practice ,,"Eric Enge, Stephan Spencer, Rand Fishkin, Jessie Stricchiola",2009,1,O'Reilly Media,,604,0,English,Математика//Оптимизация. Исследование операций.,,0,"0596518862,9780596518868",,,,,,,,,OL24816779M,,0,,,,,,,T,12691829,pdf,8C6B049AF24EC564E5F13AAB340CFE1E,,,,0,2000-01-01 01:00:00,2016-04-03 02:51:08,254000/8c6b049af24ec564e5f13aab340cfe1e-d.jpg,,
5692424,php|architect's Zend PHP 5 Certification Study Guide,,,,"Davey Shafik, Ben Ramsey",2006,,"Marco Tabini & Associates, Inc.",,290,0,English,Компьютеры//Программирование//Языки программирования,,0,"9780973862140,0973862149",,,,,,,,,OL8580801M,,0,,,,,,,T,2710055,pdf,8C088969DAF213DA13544C79D0698329,,,,0,2000-01-01 01:00:00,2016-04-03 02:51:08,254000/8c088969daf213da13544c79d0698329-d.jpg,,
5692425,Python & XML,,,,"Christopher A. Jones, Fred L. Drake Jr",2001,1st,O'Reilly Media,,447,0,English,Компьютеры//Программирование//Языки программирования,,0,"9780596001285,0596001282",,,,,005.7/2,QA76.73.P98 J66 2002,,,OL3585130M,,0,,,,,,,1,2108780,pdf,8C1714DBEB1911B56DD4C5C9FF38D699,,,,0,2000-01-01 01:00:00,2016-04-03 02:51:08,254000/8c1714dbeb1911b56dd4c5c9ff38d699-d.jpg,,
5692422,Caching the Carbon: The Politics and Policy of Carbon Capture and Storage,,,,"James Meadowcroft, Oluf Langhelle",2010,,Edward Elgar Pub,,315,0,English,,,0,"1848444125,9781848444126",,,,,363.738746,QE516.C37 C23 2009,,,OL24123558M,,0,,,,,1,,T,9195584,pdf,8B7954141CDCE4FDAFD1D9396FA11EA1,,,,0,2000-01-01 01:00:00,2016-04-03 02:51:08,254000/8b7954141cdce4fdafd1d9396fa11ea1-d.jpg,,
5692423,Psychodynamic Therapy: A Guide to Evidence-Based Practice,,,,"Richard F. Summers, Jacques P. Barber",2009,1,The Guilford Press,,355,0,English,Медицина//Терапия,ebook3000.com,0,"9781606234433,1606234439",,,,,616.89/14,RC489.P72 S86 2010,,,OL23643332M,,0,,,,,,,,2349631,pdf,8BCA4DEE81E02443AACA598BD899CFBC,,,,0,2000-01-01 01:00:00,2016-04-03 02:51:08,254000/8bca4dee81e02443aaca598bd899cfbc-d.jpg,,
5692421,The Sustainable Network: The Accidental Answer for a Troubled Planet,,Sustainable Living Series,,Sarah Sorensen,2009,1,O'Reilly Media,,366,0,English,Компьютеры//Сети,,0,"0596157037,9780596157036",,,,,,,,,OL24412948M,,0,,,,,,,T,10894245,pdf,8B75F3F8A289F8066AD0C66A4ABE7218,,,,0,2000-01-01 01:00:00,2016-04-03 02:51:08,254000/8b75f3f8a289f8066ad0c66a4abe7218-d.jpg,,
5692419,Forschungsmethoden in Psychologie und Sozialwissenschaften - für Bachelor (German Edition),,Springer-Lehrbuch ,,"Walter Hussy, Margrit Schreier, Gerald Echterhoff",2009,1st Edition.,Springer,,322,0,German,Психология,,0,"3540959351,9783540959359",,,,,,,,,,,0,,,,,,,,10138399,pdf,8B314B056563E961FE7633D31FEE51B6,,,,0,2000-01-01 01:00:00,2016-04-03 02:51:08,254000/8b314b056563e961fe7633d31fee51b6-d.jpg,,
5692420,Allergy Frontiers:Diagnosis and Health Economics,,,,"Ruby Pawankar, Stephen T. Holgate, Lanny J. Rosenwasser",2009,1,Springer,,546,0,English,Биология//Генетика,,0,"4431982930,9784431982937,9784431983491",,,,,,,,,,,0,,,,,,,T,7542675,pdf,8B41743EF031DE82D0F19ABA837CB389,,,,0,2000-01-01 01:00:00,2016-04-03 02:51:08,254000/8b41743ef031de82d0f19aba837cb389-d.jpg,,
5692418,The European Information Society: Taking Geoinformation Science One Step Further,,Lecture Notes in Geoinformation and Cartography,,"Lars Bernard, Lars Bernard, Anders Friis-Christensen, Hardy Pundt",2008,1,Springer,,462,0,English,Наука (общее)//Научно-популярное,,0,"3540789456,9783540789451",,,,,,,,,OL17089379M,,0,,,,1,0,,1,8398544,pdf,8AC5AF4EE922D804288C5AE18BF8371E,,,,0,2000-01-01 01:00:00,2016-04-03 02:51:08,254000/8ac5af4ee922d804288c5ae18bf8371e-d.jpg,,
5692416,Globalizing Migration Regimes: New Challenges to Transnational Cooperation,,Research in Migration and Ethnic Relations,,"Stockholm Workshop on Global Migration R, Joakim Palme, Kristof Tamas",2006,,Ashgate Publishing,,347,0,English,Наука (общее)//Международные конференции и симпозиумы,ebook3000.com,0,"0754646920,9780754646921",,,,,304.82,JV6011 .S86 2006,,,OL22727806M,,0,,,,,1,,T,1208306,pdf,899DD6F615B04859FAF71F1BDB278AA1,,,,0,2000-01-01 01:00:00,2016-04-03 02:51:08,254000/899dd6f615b04859faf71f1bdb278aa1-d.jpg,,
5692417,"Computer, Network & Internet Security",,,,Brett C. Tjaden,2001,illustrated edition,ABF Content,,326,0,English,Компьютеры,,0,"9781887902632,1887902635",,,,,,,,,OL12182155M,,0,,,,,,,,14678706,pdf,8AA9158061CF94308B4216846D48468C,,,,0,2000-01-01 01:00:00,2016-04-03 02:51:08,254000/8aa9158061cf94308b4216846d48468c-d.jpg,,
5692414,Microsoft Expression Web 3 In Depth,,,,Jim Cheshire,2009,1,Que,,659,0,English,Компьютеры//Сети//Интернет,,0,"9780789739810,078973981X,2009035623",,,,,006.7/8,TK5105.8883 .C55 2010,,,OL23678336M,,0,,,,,,,T,35865723,pdf,88FA119415005239689C28297A9EDDDB,,,,0,2000-01-01 01:00:00,2016-04-03 02:51:08,254000/88fa119415005239689c28297a9edddb-d.jpg,,
5692415,"OpenGL Programming Guide: The Official Guide to Learning OpenGL, Versions 3.0 and 3.1",,,,"Dave Shreiner, The Khronos OpenGL ARB Working Group",2009,7,Addison-Wesley Professional,,1019,0,English,Образование,,0,"9780321552624,0321552628",,,,,006.6/6,T385 .O635 2009,,,OL23224112M,,0,,,,,,,T,10779532,pdf,8982702D395AAD50647F506E87DF9276,,,,0,2000-01-01 01:00:00,2016-04-03 02:51:08,254000/8982702d395aad50647f506e87df9276-d.jpg,,
5692411,How to Tell the Liars from the Statisticians,,Popular Statistics,,Robert Hooke,1983,1,CRC Press,,190,0,English,Образование,ebook3000.com,0,"0824718178,9780824718176",,,,,001.4/22,QA276.12 .H66 1983,,,OL3503236M,,600,,,,0,1,,1,1196711,djvu,87BD1F9BFEC383F56B514C05A5330583,,,,0,2000-01-01 01:00:00,2016-04-03 02:51:08,254000/87bd1f9bfec383f56b514c05a5330583-d.jpg,,
5692412,Building Ecology,,,,Peter Graham,2002,,Wiley-Blackwell,,304,0,English,Биология//Экология,ebook3000.com,0,"0632064137,9780632064137,9781405147545",,,,,624,TH880 .G73 2002,,,OL3704009M,,0,,,,,1,,T,5182257,pdf,87EBAA34FE1B509483CDC736537C4300,,,,0,2000-01-01 01:00:00,2016-04-03 02:51:08,254000/87ebaa34fe1b509483cdc736537c4300-d.jpg,,
5692413,Magento 1.3: PHP Developer's Guide,,,,Jamie Huskisson,2010,,Packt Publishing,,259,0,English,Компьютеры//Программирование//Языки программирования,,0,"1847197426,9781847197429",,,,,,,,,,,0,,,,,,,T,2877809,pdf,883708F2BEF592F5F9AB23855B12C53E,,,,0,2000-01-01 01:00:00,2016-04-03 02:51:08,254000/883708f2bef592f5f9ab23855b12c53e-d.jpg,,
5692409,"Антропология политической идентичности :самоопределение &quot;рашинз&quot; в глобал. мире, территор. развитие, транснац. рус. корпорации и идентичность Russians",,,,Ю. В. Громыко,2006,,АРКТИ,Москва,401,0,Russian,География//Россия,,0,5-350-00116-7 (В-пер.),,,32,60.561.3,,,,,,,0,,,,,,,T,2092419,pdf,878527F1A420FFB717A2B4925D5629AD,,,,0,2000-01-01 01:00:00,2016-04-03 02:51:08,254000/878527f1a420ffb717a2b4925d5629ad-g.jpg,,
5692410,Picture Yourself Networking Your Home or Small Office,,,,Dennis C. Brewer,2008,1,Course Technology PTR,,329,0,English,Компьютеры//Сети,,0,"9781598635577,1598635573,1598638270",,,,,,,,,,,0,,,,,,,T,13980499,pdf,879614169C7EAC512159A32541A24947,,,,0,2000-01-01 01:00:00,2016-04-03 02:51:08,254000/879614169c7eac512159a32541a24947-d.jpg,,
5692407,Local Cohomology: An Algebraic Introduction with Geometric Applications,,Cambridge Studies in Advanced Mathematics,,"M. P. Brodmann, R. Y. Sharp",1998,First Edition,Cambridge University Press,,429,0,English,Математика//Алгебра,ebook3000.com,0,"0521372860,9780521372862",,,,,512/.55,QA169 .B745 1998,,,OL682378M,,0,,,,,1,,,12658097,pdf,874DA600637F98E7288ECCC041C618B7,,,,0,2000-01-01 01:00:00,2016-04-03 02:51:08,254000/874da600637f98e7288eccc041c618b7-d.jpg,,
5692408,Disasters and Mental Health,,World Psychiatric Association,,"Juan José López-Ibor Jr., George Christodoulou, Mario Maj, Norman Sartorius, Ahmed Okasha",2004,1,Wiley,,288,0,English,Психология,,0,"9780470021231,0470021233",,,,,,,,,OL17155348M,,0,,,,,,,T,15214110,pdf,875C6F5945D354812CD09B9CA1FBF515,,,,0,2000-01-01 01:00:00,2016-04-03 02:51:08,254000/875c6f5945d354812cd09b9ca1fbf515-d.jpg,,
5692405,Who Owns the Sky?: The Struggle to Control Airspace from the Wright Brothers On,,,,Stuart Banner,2008,abridged edition,Harvard University Press,,360,0,English,,ebook3000.com,0,"0674030826,9780674030824",,,,,343.7309/7,KF2400 .B36 2008,,,OL16701290M,,0,,,,1,0,,1,920209,pdf,86FA8CBD2F3C7503AFB2E55680D42692,,,,0,2000-01-01 01:00:00,2016-04-03 02:51:08,254000/86fa8cbd2f3c7503afb2e55680d42692-d.jpg,,
5692406,Backbase 4 RIA Development,,,,"Ghica van Emde Boas, Sergey Ilinsky",2009,,Packt Publishing,,487,0,English,,,0,"1847199127,9781847199126",,,,,,,,,,,0,,,,,,,T,10589750,pdf,87096D91756EB4AA9628B7132DDE6D6B,,,,0,2000-01-01 01:00:00,2016-04-03 02:51:08,254000/87096d91756eb4aa9628b7132dde6d6b-d.jpg,,
5692403,"Beginning ASP.NET 3.5 in C# 2008: From Novice to Professional, Second Edition",,,,Matthew MacDonald,2007,2,Apress,,992,0,English,Образование,,0,"9781590598917,1590598911",,,,,,,,,OL8849065M,,0,,,,,,,T,26092611,pdf,86E534F9342CC001D346FFC03A9F7FE9,,,,0,2000-01-01 01:00:00,2016-04-03 02:51:08,254000/86e534f9342cc001d346ffc03a9f7fe9-d.jpg,,
5692404,Beginning CSS: Cascading Style Sheets for Web Design,,Programmer to Programmer,,Richard York,2004,1,Wrox,,472,0,English,Компьютеры//Сети//Интернет,,0,"9780764576423,0764576429",,,,,006.7,TK5105.888 .Y67 2005,,,OL21112331M,,0,,,,,,,T,16505872,pdf,86ECC9EFF464D81BC954BE5327DA4EAB,,,,0,2000-01-01 01:00:00,2016-04-03 02:51:08,254000/86ecc9eff464d81bc954be5327da4eab-d.jpg,,
5692402,Pulmonary Hypertension,,Lung Biology in Health and Disease,,"Humbert Marc, Joseph P. Lynch  III",2009,1,Informa Healthcare,,554,0,English,Медицина//Анестезиология и интенсивная терапия,,0,"1420094750,9781420094756,1616310081,9781616310080",,,,,616.2/4,RC776.P87 P8565 2009,,,OL23229813M,,0,,,,,1,,,9961746,pdf,86D658F58C0043E3ECD7A2CBD56E860B,,,,0,2000-01-01 01:00:00,2016-04-03 02:51:08,254000/86d658f58c0043e3ecd7a2cbd56e860b-d.jpg,,
5692400,Mastering Microsoft Virtualization,,,,"Tim Cerling, Jeffrey Buller",2009,1,Sybex,,579,0,English,Компьютеры//Программирование,,0,"0470449586,9780470449585",,,,,005.4/3,QA76.9.V5 M36 2009,,,OL23832919M,,0,,,,,1,,,14188003,pdf,86A41C1372EB075EA07D30385B98D269,,,,0,2000-01-01 01:00:00,2016-04-03 02:51:08,254000/86a41c1372eb075ea07d30385b98d269-d.jpg,,
5692401,Mobile Python: Rapid prototyping of applications on the mobile platform,,Symbian Press,,"Jürgen Scheible, Ville Tuulos",2007,,Wiley,,349,0,English,Компьютеры//Программирование//Языки программирования,,0,"0470515058,9780470515051,9780470518021",,,,,,,,,OL10295923M,,0,,,,,,,1,5052004,pdf,86C3A0F72964246B8BA21ACEA0029481,,,,0,2000-01-01 01:00:00,2016-04-03 02:51:08,254000/86c3a0f72964246b8ba21acea0029481-d.jpg,,
5692399,Metaprogramming Ruby,,Facets of Ruby,,Paolo Perrotta,2010,1,Pragmatic Bookshelf,,282,0,English,Компьютеры//Программирование,,0,"1934356476,9781934356470",,,,,005.133,QA76.64 .P485 2010,,,OL24915155M,,0,,,,,,,T,5966156,pdf,868BE75E3DCCD923EBD945F910421D90,,,,0,2000-01-01 01:00:00,2016-04-03 02:51:08,254000/868be75e3dccd923ebd945f910421d90-d.jpg,,
5692396,Programming Microsoft Dynamics NAV,,,,David Studebaker,2007,,Packt Publishing,,478,0,English,Компьютеры//Программирование,,0,"1904811744,9781904811749",,,,,,,,,OL12292267M,,0,,,,,1,,T,15880896,pdf,86085626D71543FF057FAA6C1A31DEEF,,,,0,2000-01-01 01:00:00,2016-04-03 02:51:08,254000/86085626d71543ff057faa6c1a31deef-d.jpg,,
5692397,Doctrine ORM for PHP,,,,"Jonathan H. Wage, Konsta Vesterinen",2009,,Sensio SA,,373,0,English,Компьютеры//Программирование//Языки программирования,,0,"9782918390039,2918390038",,,,,,,,,,,0,,,,,,,,2381511,pdf,864DFDE65454C60AE839608208AA5CD7,,,,0,2000-01-01 01:00:00,2016-04-03 02:51:08,254000/864dfde65454c60ae839608208aa5cd7-d.jpg,,
5692398,Frommer's Stockholm Day by Day,,Frommer's Day by Day - Pocket,,Mary Anne Evans,2009,1 Pap/Map,Frommers,,196,0,English,География,,0,"0470699744,9780470699744",,,,,,,,,,,0,,,,,,,,19122904,pdf,867262ADD2B1906C30C7194FF6F57C79,,,,0,2000-01-01 01:00:00,2016-04-03 02:51:08,254000/867262add2b1906c30c7194ff6f57c79-d.jpg,,
5692395,VMware VI and vSphere SDK: Managing the VMware Infrastructure and vSphere,,,,Steve Jin,2009,1,Prentice Hall,,647,0,English,Бизнес//Менеджмент//Управление проектами,,0,"9780137153633,0137153635",,,,,006.7/8,QA76.9.V5 J56 2009,,,OL23614483M,,0,,,,,,,T,3504069,pdf,84B22D17CFAE00583A7906F1B6B3B449,,,,0,2000-01-01 01:00:00,2016-04-03 02:51:08,254000/84b22d17cfae00583a7906f1b6b3b449-d.jpg,,
5692393,"Summer Pleasures, Winter Pleasures: A Hudson Valley Cookbook (Excelsior Editions)",,,,Peter G. Rose,2009,,Excelsior Editions/State University of New Yo,,159,0,English,Компьютеры//Программы//Офисные программы,ebook3000.com,0,"1438429878,9781438429878",,,,,641.59747/3,TX715 .R8337 2009,,,OL23224259M,,0,,,,,,,T,29087650,pdf,843CA4E838C5FDFDBE757AF98A4DC92D,,,,0,2000-01-01 01:00:00,2016-04-03 02:51:08,254000/843ca4e838c5fdfdbe757af98a4dc92d-d.jpg,,
5692394,PHP Cookbook: Solutions and Examples for PHP Programmers,,,,"Adam Trachtenberg, David Sklar",2006,2,O'Reilly Media,,812,0,English,Компьютеры//Программирование//Языки программирования,,0,"0596101015,9780596101015",,,,,005.13/3,QA76.73.P224 S56 2006,,,OL17915796M,,0,,,,,,,T,7966373,pdf,848DEBB27E6DD32535DAAD59C70AB28B,,,,0,2000-01-01 01:00:00,2016-04-03 02:51:08,254000/848debb27e6dd32535daad59c70ab28b-d.jpg,,
5692392,Handbook of Water Analysis,,Food Science and Technology,,Leo M.L. Nollet,2007,2,CRC Press,,786,0,English,Техника//Водоочистка,,0,"0849370337,9780849370335",,,,,628.1/61,QD142 .H36 2007,,,OL17852506M,,0,,,,,,,1,5382261,pdf,82EA19E4630A1C20DA9CD108C11310E3,,,,0,2000-01-01 01:00:00,2016-04-03 02:51:08,254000/82ea19e4630a1c20da9cd108c11310e3-d.jpg,,
5692390,Albert Einstein: Philosopher-Scientist,,Living Philosophers Volume 7,,Paul Arthur Schilpp,2001,1ST,MJF Books,,800,0,English,Общественные науки прочие//Философия,ebook3000.com,0,"1567314325,9781567314328",,,,,,,,,OL8673619M,,0,,,,,1,,,11048779,djvu,82A4AEF653CD9BBBA5001B54E15201AA,,,,0,2000-01-01 01:00:00,2016-04-03 02:51:08,254000/82a4aef653cd9bbba5001b54e15201aa-g.jpg,,
5692391,"Web Standards Solutions: The Markup and Style Handbook, Special Edition",,,,Dan Cederholm,2009,2,friends of ED,,298,0,English,Компьютеры//Сети//Интернет,,0,"1430219203,9781430219200,9781430219217",,,,,,,,,,,0,,,,,,,T,15926526,pdf,82B142CA75B0BBB19D54935BBDD0CA89,,,,0,2000-01-01 01:00:00,2016-04-03 02:51:08,254000/82b142ca75b0bbb19d54935bbdd0ca89-d.jpg,,
5692388,CCSP SNPA Official Exam Certification Guide,,,,"Greg Bastien, Earl Carter, Christian Degu, Michael Gibbs",2006,3,Cisco Press,,767,0,English,Компьютеры//Сети,,0,"9781587201523,1587201526",,,,,005.8,TK5105.59 .B368 2006,,,OL18733872M,,0,,,,,,,,9498159,pdf,823C56AA351199548F24F7AD35935BF9,,,,0,2000-01-01 01:00:00,2016-04-03 02:51:08,254000/823c56aa351199548f24f7ad35935bf9-d.jpg,,
5692389,"Agile Web Development with Rails, Third Edition",,,,"Sam Ruby, Dave Thomas, David Heinemeier Hansson",2009,3,Pragmatic Bookshelf,,731,0,English,Компьютеры//Сети//Интернет,,0,"1934356166,9781934356166",,,,,,,,,OL23719153M,,0,,,,,,,T,8892697,pdf,827D9DA292666345AC5AF2D78068BB83,,,,0,2000-01-01 01:00:00,2016-04-03 02:51:08,254000/827d9da292666345ac5af2d78068bb83-d.jpg,,
5692386,Designing Web Interfaces: Principles and Patterns for Rich Interactions,,,,"Bill Scott, Theresa Neil",2009,1,O'Reilly Media,,334,0,English,Компьютеры//Сети//Интернет,,0,"0596516258,9780596516253",,,,,,,,,OL22897718M,,0,,,,,,,1,8526348,pdf,8170C94C6CDD5716BEB27D630B49A5F1,,,,0,2000-01-01 01:00:00,2016-04-03 02:51:08,254000/8170c94c6cdd5716beb27d630b49a5f1-d.jpg,,
5692387,"The CSS Anthology: 101 Essential Tips, Tricks & Hacks",,,,Rachel Andrew,2009,3,SitePoint,,400,0,English,Компьютеры//Безопасность,,0,"0980576806,9780980576801",,,,,,,,,,,0,,,,,,,1,13975081,pdf,8205A6C9093D182C85C3BCF86E527149,,,"Andrew R. The CSS Anthology.. 101 Essential Tips, Tricks and Hacks (SitePoint, 2009)(ISBN 9780980576801)(412s).pdf",0,2000-01-01 01:00:00,2016-04-03 02:51:08,254000/8205a6c9093d182c85c3bcf86e527149-d.jpg,,
5692385,SPICE for Power Electronics and Electric Power,,Electrical and Computer Engineering,,"Muhammad H. Rashid, Hasan M. Rashid",2005,2,CRC Press,,551,0,English,Техника//Электроника,,0,"0849334187,9780849334184",,,,,621.31/7/0285,TK7881.15 .R38 2005,,,OL3426007M,,0,,,,,,,,7835392,pdf,816EB2882470095D894C798B8C3AECC4,,,,0,2000-01-01 01:00:00,2016-04-03 02:51:08,254000/816eb2882470095d894c798b8c3aecc4-d.jpg,,
5692382,Fancy Form Design,,Sitepoint,,"Jina Bolton, Derek Featherstone, Tim Connell",2009,1,SitePoint,,176,0,English,Компьютеры//Сети//Интернет,,0,"0980576849,9780980576849",,,,,,,,,,,0,,,,,,,T,11105406,pdf,7FB474AAB361D231E9C2C91E4E6AB120,,,,0,2000-01-01 01:00:00,2016-04-03 02:51:08,254000/7fb474aab361d231e9c2c91e4e6ab120-d.jpg,,
5692383,JBoss AS 5 Development,,,,Francesco Marchioni,2010,,Packt Publishing,,416,0,English,,,0,"1847196829,9781847196828",,,,,,,,,,,0,,,,,1,,T,5917184,pdf,803E0F4E6DD3D892DB87785E6B2431D0,,,,0,2000-01-01 01:00:00,2016-04-03 02:51:08,254000/803e0f4e6dd3d892db87785e6b2431d0-d.jpg,,
5692384,Game Programming for Teens,,,,Maneesh Sethi,2005,2,Course Technology PTR,,415,0,English,Компьютеры//Программирование,,0,"9781592008346,1592008348",,,,,794.8/1526,,,,OL23088745M,,0,,,,,,,T,7508757,pdf,816CF8810975573BAF137D20729C3CFA,,,,0,2000-01-01 01:00:00,2016-04-03 02:51:08,254000/816cf8810975573baf137d20729c3cfa-d.jpg,,
5692380,Pedestrian Dynamics: Mathematical Theory and Evacuation Control,,,,Pushkin Kachroo,2009,1,CRC Press,,172,0,English,Математика,ebook3000.com,0,"1439805199,9781439805190",,,,,388.4/1,HE336.P43 .K33 2009,,,OL23153130M,,0,,,,,1,,T,1862619,pdf,7F4C910E019A1A3ADF6B863429F1E7F9,,,,0,2000-01-01 01:00:00,2016-04-03 02:51:08,254000/7f4c910e019a1a3adf6b863429f1e7f9-d.jpg,,
5692381,World War I Biographies,,,,Sara Pendergast,2001,1,UXL,,200,0,English,История,ebook3000.com,0,"9780787654757,0787654752,0787654779",,,,,,,,,OL11094380M,,0,0,0,,,,,T,18285638,pdf,7F8796DA5448CFDF41D74257516C8953,,,,0,2000-01-01 01:00:00,2016-04-03 02:51:08,254000/7f8796da5448cfdf41d74257516c8953-g.jpg,,
5692378,Sports Culture: An A-Z Guide,,Routledge World Reference,,Ellis Cashmore,2003,1,Routledge,,522,0,English,Психология,,0,"0415285550,9780415285551,0415181690,9780415181693,0415223350,9780415223355",,,,,,,,,OL16996732M,,0,,,,1,0,,1,2688944,pdf,7F1F65DAD5D16268DF23C00DF192BFEB,,,,0,2000-01-01 01:00:00,2016-04-03 02:51:08,254000/7f1f65dad5d16268df23c00df192bfeb-d.jpg,,
5692379,Photoshop Elements 8 Digital Classroom,,,,AGI Creative Team,2009,Pap/Dvdr,Wiley,,435,0,English,Компьютеры//Программы//Продукты Adobe,,0,"0470566922,9780470566923",,,,,,,,,,,0,,,,,1,,T,20859740,pdf,7F3F768043EB30D3119EA38532ADED15,,,,0,2000-01-01 01:00:00,2016-04-03 02:51:08,254000/7f3f768043eb30d3119ea38532aded15-d.jpg,,
5692377,Developing Software for Symbian OS 2nd Edition: A Beginner's Guide to Creating Symbian OS v9 Smartphone Applications in C++,,Symbian Press,,Steve Babin,2007,2,Wiley,,463,0,English,Образование,,0,"0470725702,9780470725702,9780470726464",,,,,621.3845/6,TK6570.M6 B33 2007,,,OL10296138M,,0,,,,,,,T,3520768,pdf,7E69C073526D49E723EDE5FA47A96902,,,,0,2000-01-01 01:00:00,2016-04-03 02:51:08,254000/7e69c073526d49e723ede5fa47a96902-d.jpg,,
5692375,Ajax Security,,,,"Billy Hoffman, Bryan Sullivan",2007,1,Addison-Wesley Professional,,498,0,English,Компьютеры//Программирование//Языки программирования,,0,"0321491939,9780321491930",,,,,005.8,TK5105.8885.A52 H62 2008,,,OL10461093M,,0,,,,,,,T,13049756,pdf,7D8EE93A730D048EE6D7FDEF467931D2,,,,0,2000-01-01 01:00:00,2016-04-03 02:51:08,254000/7d8ee93a730d048ee6d7fdef467931d2-d.jpg,,
5692376,Pragmatic Version Control Using Subversion,,,,Mike Mason,2005,1,Pragmatic Bookshelf,,211,0,English,Компьютеры,,0,"9780974514062,0974514063",,,,,005.1,QA76.76.D47 M3653 2005,,,OL3436244M,,0,,,,,,,T,1847331,pdf,7DB7FA518D7CA652DFF00BF325BE43A4,,,,0,2000-01-01 01:00:00,2016-04-03 02:51:08,254000/7db7fa518d7ca652dff00bf325be43a4-d.jpg,,
5692373,Le Petit Prince,,Folio Junior Edition Speciale,,Antoine de Saint-Exupery,1987,,Editions Gallimard / Tardy Quercy,,48,0,French,Языкознание,ebook3000.com,0,"2070334538,9782070334537",,,,,,,,,OL17433617M,,0,,,,,1,,T,1809625,pdf,7C9D01DA37EE31C5A2AA25A113F33113,,,,0,2000-01-01 01:00:00,2016-04-03 02:51:08,254000/7c9d01da37ee31c5a2aa25a113f33113-d.jpg,,
5692374,The Encyclopedia of Drug Abuse,,Facts on File Library of Health and Living,,"Esther, M.D. Gwinnell, Christine A. Adamec",2008,1,Facts on File,,417,0,English,Образование//Энциклопедии,ebook3000.com,0,"0816063303,9780816063307",,,,,,,,,OL11360339M,,0,,,,,,,T,3125975,pdf,7D05E9016E4FA5A9829F555405BEF515,,,,0,2000-01-01 01:00:00,2016-04-03 02:51:08,254000/7d05e9016e4fa5a9829f555405bef515-d.jpg,,
5692371,The Iranian Revolution,,Pivotal Moments in History,,Brendan January,2007,,Twenty-First Century Books (CT),,164,0,English,,ebook3000.com,0,"0822575213,9780761340270",,,,,,,,,OL11425871M,,0,,,,,,,T,11189378,pdf,7BF52FA6F2AAA577397250F74DBE69B2,,,,0,2000-01-01 01:00:00,2016-04-03 02:51:08,254000/7bf52fa6f2aaa577397250f74dbe69b2-d.jpg,,
5692372,"The Shaolin Monastery: History, Religion and the Chinese Martial Arts",,,,Meir Shahar,2008,,University of Hawaii Press,,297,0,English,Религия,ebook3000.com,0,"0824831101,9780824831103,082483349X,9780824833497,9781435666481",,,,,294.3/657095118,BQ6345.T462 S52275 2008,,,OL16650484M,,0,,,,0,0,,1,5243641,pdf,7C12C2EB0533162A198BFF7281411BFF,,,,0,2000-01-01 01:00:00,2016-04-03 02:51:08,254000/7c12c2eb0533162a198bff7281411bff-d.jpg,,
5692370,Football and Philosophy: Going Deep,,The Philosophy of Popular Culture,,"Michael W. Austin, Joe Posnanski",2008,1,The University Press of Kentucky,,238,0,English,Общественные науки прочие//Философия,ebook3000.com,0,"0813124956,9780813124957",,,,,200.975,BR535 .S68 2008,,,OL16395730M,,0,,,,,,,T,1759634,pdf,7B706E52FF96C1B037F810AFCD9B48DB,,,,0,2000-01-01 01:00:00,2016-04-03 02:51:08,254000/7b706e52ff96c1b037f810afcd9b48db-d.jpg,,
5692368,IEEE Standard for a High Performance Serial Bus,,,,IEEE,1998,,Institute of Electrical & Electronics Enginee,,392,0,English,,,0,"9781559375832,1559375833",,,,,,,,,OL12093852M,,0,,,,,,,,4747493,pdf,7B36A22CE9523A1ED25BF6775A6B1BBC,,,,0,2000-01-01 01:00:00,2016-04-03 02:51:08,254000/7b36a22ce9523a1ed25bf6775a6b1bbc-d.jpg,,
5692369,The European Repository Landscape: Inventory Study into Present Type and Level of OAI Compliant Digital Repository Activities in the EU,,Surf/EU-Driver,,"Maurits van der Graaf, Kwame van Eijndhoven",2008,,Amsterdam University Press,,150,0,English,,,0,"9053564101,9789053564103",,,,,,,,,OL22799673M,,0,,,,,1,,T,1368387,pdf,7B44B670A7825669BEAFEB86B5EBA850,,,,0,2000-01-01 01:00:00,2016-04-03 02:51:08,254000/7b44b670a7825669beafeb86b5eba850-d.jpg,,
5692366,"Autogiro: The Story of \the Windmill Plane\""""",,,,George Townson,1985,First,Aero Pub Inc,,160,0,English,,ebook3000.com,0,"9780816829002,0816829004",,,,,629.133/35,TL715 .T69 1985,,,OL3027105M,,0,,,,,1,,,22517375,pdf,7B0E9976A85FA78B900313B5401EA9AB,,,,0,2000-01-01 01:00:00,2016-04-03 02:51:08,254000/7b0e9976a85fa78b900313b5401ea9ab-g.jpg,,
5692367,Физическое материаловедение карбидов,,,,"Самсонов Г.В., Упадхая Г.Ш., Нешпор В.С.,",1974,,Наукова думка,Киев,454,0,Russian,Техника//Материаловедение,,0,,,,669.01/546.261,,,,,,,,300,0,1,0,,,,,5361346,djvu,7B2859A185DFC2FFEC0CABAE3987C4FD,,,,0,2000-01-01 01:00:00,2016-04-03 02:51:08,254000/7b2859a185dfc2ffec0cabae3987c4fd-g.jpg,,
5692364,ICEfaces 1.8: Next Generation Enterprise Web Development,,,,Rainer Eschen,2009,,Packt Publishing,,291,0,English,Компьютеры//Информационные системы//ИС предприятий,,0,"1847197248,9781847197245",,,,,,,,,,,0,,,,,,,T,7190811,pdf,7A4192E6294CC0E94A8140447921C081,,,,0,2000-01-01 01:00:00,2016-04-03 02:51:08,254000/7a4192e6294cc0e94a8140447921c081-d.jpg,,
5692365,Aikido Exercises for Teaching and Training,,,,C.M. Shifflett,2009,Revised,Blue Snake Books,,247,0,English,Образование,ebook3000.com,0,"9781583942178,1583942173",,,,,,,,,OL23740491M,,0,,,,,,,T,9977998,pdf,7ABD7919EFDB1BAEBC5F6742D20BBADF,,,,0,2000-01-01 01:00:00,2016-04-03 02:51:08,254000/7abd7919efdb1baebc5f6742d20bbadf-d.jpg,,
5692362,HTML Utopia: Designing Without Tables Using CSS,,,,Rachel Andrew,2006,2,SitePoint,,519,0,English,Компьютеры//Web-дизайн,,0,"9780975240274,0975240277",,,,,,,,,OL20024561M,,0,,,,,,,T,9801866,pdf,79E8B179A3A90A49558CF873A777E443,,,,0,2000-01-01 01:00:00,2016-04-03 02:51:08,254000/79e8b179a3a90a49558cf873a777e443-d.jpg,,
5692363,The Practical Pumping Handbook,,,,Ross C Mackay,2004,,Elsevier Science,,276,0,English,,,0,"9781856174107,1856174107",,,,,621.6/9,TJ900 .M25 2004,,,OL3301500M,,0,,,,,,,T,31343723,pdf,79F75D23C4CDB8CECB91125A363CA3BD,,,,0,2000-01-01 01:00:00,2016-04-03 02:51:08,254000/79f75d23c4cdb8cecb91125a363ca3bd-d.jpg,,
5692360,Mac OS X Snow Leopard: The Missing Manual,,,,David Pogue,2009,1,Pogue Press,,914,0,English,Компьютеры//Операционные системы,,0,"0596153287,9780596153281",,,,,005.4/46,QA76.76.O63 P6344336 2009,,,OL25017225M,,0,,,,,,,1,13101774,pdf,79D333F84E9701B1C0FD938CD27A2581,,,,0,2000-01-01 01:00:00,2016-04-03 02:51:08,254000/79d333f84e9701b1c0fd938cd27a2581-d.jpg,,
5692361,Numerical Recipes in C: The Art of Scientific Computing,,,,"William H. Press, Brian P. Flannery, Saul A. Teukolsky, William T. Vetterling",1992,2,Cambridge University Press,,1187,0,English,Математика//Вычислительная математика,,0,"9780521431088,0521431085",,,,,519.4/0285/53,QA76.73.C15 N865 1992,,,OL1137768M,,0,,,,,,,,18432079,pdf,79DA2B94BDB0C3A76B6C83DE05F7EDB7,,,,0,2000-01-01 01:00:00,2016-04-03 02:51:08,254000/79da2b94bdb0c3a76b6c83de05f7edb7-d.jpg,,
5692358,"Accelerated DOM Scripting with Ajax, APIs, and Libraries",,,,"Aaron Gustafson, Jonathan Snook, Stuart Langridge, Dan Webb",2007,1,Apress,,243,0,English,Компьютеры//Программирование//Языки программирования,,0,"9781590597644,1590597648",,,,,,,,,OL22769798M,,0,,,,,,,T,3561868,pdf,78975F302ECBE3A73E0FB184167A5D43,,,,0,2000-01-01 01:00:00,2016-04-03 02:51:08,254000/78975f302ecbe3a73e0fb184167a5d43-d.jpg,,
5692359,The Essential Guide to Flash CS4 with ActionScript,,,,"Paul Milbourne, Michael Oliver, Chris Kaplan",2009,1,friends of ED,,545,0,English,Компьютеры//Мультимедиа,,0,"1430218118,9781430218111,9781430218128",,,,,006.6/96,TR897.7 .E797 2009,,,OL24023332M,,0,,,,,,,,54138123,pdf,797D9034637AA2802A3AB21910B275AE,,,,0,2000-01-01 01:00:00,2016-04-03 02:51:08,254000/797d9034637aa2802a3ab21910b275ae-d.jpg,,
5692356,Ki in Aikido,,,,C. M. Shifflett,1998,1st,Frog Books,,247,0,English,,ebook3000.com,0,"9780965342537,0965342530",,,,,613.7/148,GV1114.35 .S52 1997,,,OL1016705M,,0,,,,,,,T,8887433,pdf,7833D2A1AA2A03DC1C3F9CD891C8D1B9,,,,0,2000-01-01 01:00:00,2016-04-03 02:51:08,254000/7833d2a1aa2a03dc1c3f9cd891c8d1b9-d.jpg,,
5692357,Pro Visual Studio 2005 Team System Application Development,,,,Steve Shrimpton,2006,1,Apress,,791,0,English,Компьютеры,,0,"9781590596821,159059682X",,,,,,,,,OL17907646M,,0,,,,,,,,25471743,pdf,784AA2BB0CCE6887501C5025FAB6F24A,,,,0,2000-01-01 01:00:00,2016-04-03 02:51:08,254000/784aa2bb0cce6887501c5025fab6f24a-d.jpg,,
5692354,Mauerwerkstrockenlegung: Von den Grundlagen zur praktischen Anwendung,,Altbausanierung ,,"Michael Balak, Anton Pech",2008,"2., akt. Aufl.",Springer,,295,0,German,,,0,"3211757775,9783211757772",,,,,,,,,,,0,,,,,,,T,9248017,pdf,7807BF9142DAA1E82CCA3C0E24D5802C,,,,0,2000-01-01 01:00:00,2016-04-03 02:51:08,254000/7807bf9142daa1e82cca3c0e24d5802c-d.jpg,,
5692355,"Information Technology and Lawyers: Advanced Technology in the Legal Domain, from Challenges to Daily Routine",,,,"Arno R. Lodder, Anja Oskamp",2006,1,Springer,,204,0,English,Юридические науки//Право,ebook3000.com,0,"1402041454,9781402041457,1402041462,9781402041464",,,,,,,,,OL8371750M,,0,,,,,,,T,14852857,pdf,78209C1EEF4F6302F1EDBB86C365D3A0,,,,0,2000-01-01 01:00:00,2016-04-03 02:51:08,254000/78209c1eef4f6302f1edbb86c365d3a0-d.jpg,,
5692352,Enterprise Mac Administrator's Guide,,,,"Charles Edge, Zack Smith, Beau Hunter",2009,1,Apress,,618,0,English,Компьютеры//Информационные системы//ИС предприятий,,0,"1430224436,9781430224433,9781430224440",,,,,005.446,QA76.76.O63 E275 2009,,,OL24806516M,,0,,,,,,,T,29434856,pdf,77B7DD4AE704B703E6CFB795AA5990F9,,,,0,2000-01-01 01:00:00,2016-04-03 02:51:08,254000/77b7dd4ae704b703e6cfb795aa5990f9-d.jpg,,
5692353,RESTful Java Web Services,,,,Jose Sandoval,2009,,Packt Publishing,,257,0,English,Компьютеры//Сети//Интернет,,0,"1847196462,9781847196460",,,,,,,,,,,0,,,,,,,T,4377831,pdf,77EAE2C597AA5F3219A2CF2D8DAA1DDD,,,,0,2000-01-01 01:00:00,2016-04-03 02:51:08,254000/77eae2c597aa5f3219a2cf2d8daa1ddd-d.jpg,,
5692350,Reuters Financial Glossary,,,,Tony Parry,2003,2,Pearson Education,,241,0,English,Экономика,,0,"9781903684368,1903684366,1279431059",,,,,,,,,OL22558872M,,0,,,,,,,T,1355833,pdf,7758C8555C7A5C7BBD9787F563573670,,,,0,2000-01-01 01:00:00,2016-04-03 02:51:08,254000/7758c8555c7a5c7bbd9787f563573670-d.jpg,,
5692351,Tapestry 5: Building Web Applications: A step-by-step guide to Java Web development with the developer-friendly Apache Tapestry framework,,,,Alexander Kolesnikov,2008,,Packt Publishing,,275,0,English,Компьютеры//Сети//Интернет,,0,"1847193072,9781847193070",,,,,,,,,,,0,,,,,,,T,6891343,pdf,77A9A95C504DEDCA6A5D7EC418491432,,,,0,2000-01-01 01:00:00,2016-04-03 02:51:08,254000/77a9a95c504dedca6a5d7ec418491432-d.jpg,,
5692348,Music Therapy and Traumatic Brain Injury: A Light on a Dark Night,,,,"Simon Gilbertson, David Aldridge",2008,1,Jessica Kingsley Publishers,,161,0,English,Медицина//Терапия,ebook3000.com,0,"1843106655,9781843103028,9781853027550,9781843103738,9781843101406",,,,,615.8/5154,ML3834 .A43 2008,,,OL11959033M,,0,,,,,,,T,4811582,pdf,76FDDC7B192AC20909D47E3787B9D094,,,,0,2000-01-01 01:00:00,2016-04-03 02:51:08,254000/76fddc7b192ac20909d47e3787b9d094-d.jpg,,
5692349,The Politics of Mourning in Early China,,S U N Y Series in Chinese Philosophy and Culture,,Miranda Brown,2007,illustrated edition,State University of New York Press,,222,0,English,Общественные науки прочие//Философия,ebook3000.com,0,"0791471578,9780791471579",,,,,,,,,OL11150354M,,0,,,,,,,T,10961205,pdf,772E9797FB4C682EF66C1011C1367E4A,,,,0,2000-01-01 01:00:00,2016-04-03 02:51:08,254000/772e9797fb4c682ef66c1011c1367e4a-d.jpg,,
5692346,XMPP: The Definitive Guide: Building Real-Time Applications with Jabber Technologies,,,,"Peter Saint-Andre, Kevin Smith, Remko TronCon",2009,1,O'Reilly Media,,306,0,English,Техника//Строительство,,0,"059652126X,9780596521264",,,,,005.1,TK5105.74.J32 S25 2009,,,OL23406946M,,0,,,,1,0,,1,4701325,pdf,76C4E15618DE84FF156DC22D226774D4,,,,0,2000-01-01 01:00:00,2016-04-03 02:51:08,254000/76c4e15618de84ff156dc22d226774d4-d.jpg,,
5692347,System Architecture with XML,,The Morgan Kaufmann Series in Software Engineering and Programming,,"Berthold Daum, Udo Merten",2002,1st,Morgan Kaufmann,,481,0,English,Компьютеры//Web-дизайн,,0,"9781558607453,1558607455,0605040302543",,,,,,,,,OL8606571M,,0,,,,,,,T,3716765,pdf,76C7E7E751BA27AFBF53EAA7B1ACCF33,,,,0,2000-01-01 01:00:00,2016-04-03 02:51:08,254000/76c7e7e751ba27afbf53eaa7b1accf33-d.jpg,,
5692345,"Cold War at 30,000 Feet: The Anglo-American Fight for Aviation Supremacy",,,,Jeffrey A. Engel,2007,,Harvard University Press,,374,0,English,,ebook3000.com,0,"0674024613,9780674024618",,,,,,,,,OL7691920M,,0,,,,1,0,,1,2272411,pdf,7660B6E724619F64871E9AC3D920CD33,,,,0,2000-01-01 01:00:00,2016-04-03 02:51:08,254000/7660b6e724619f64871e9ac3d920cd33-d.jpg,,
5692343,Professional iPhone and iPod touch Programming: Building Applications for Mobile Safari,,Wrox Professional Guides,,Richard Wagner,2008,,Wrox,,313,0,English,Компьютеры//Программирование,,0,"0470251557,9780470251553",,,,,006.76,TK6570.M6 W34 2008,,,OL10295419M,,0,,,,,,,T,6557537,pdf,763A8487FE74D5C771910B5D1FB0490A,,,,0,2000-01-01 01:00:00,2016-04-03 02:51:08,254000/763a8487fe74d5c771910b5d1fb0490a-d.jpg,,
5692344,Applied Multivariate Statistical Analysis,,,,"Wolfgang Karl Härdle, Leopold Simar",2007,2nd,Springer,,455,0,English,Математика//Вероятность,,0,"3540722432,9783540722434,9783540030799",,,,,,,,,OL9053938M,,0,,,,,,,T,15404817,pdf,7646C3FFDDB053F0C7AA3A5C3F6E9EB1,,,,0,2000-01-01 01:00:00,2016-04-03 02:51:08,254000/7646c3ffddb053f0c7aa3a5c3f6e9eb1-d.jpg,,
5692340,Personal Finance For Dummies,,For Dummies  ,,Eric Tyson,2010,6°,For Dummies,,483,0,English,Образование,,0,"0470506938,3175723993,9780470506936",,,,,,,,,,,0,,,,,,,1,5957138,pdf,74A1C9C0175F7628B60D5959E8E3F7E8,,,,0,2000-01-01 01:00:00,2016-04-03 02:51:08,254000/74a1c9c0175f7628b60d5959e8e3f7e8-d.jpg,,
5692341,Programming Scala: Tackle Multi-Core Complexity on the Java Virtual Machine,,Pragmatic Programmers,,Venkat Subramaniam,2009,1,Pragmatic Bookshelf,,226,0,English,Техника,,0,"193435631X,9781934356319",,,,,005.13/3,QA76.73.J38 S847 2008,,,OL24385128M,,0,,,,0,0,,1,3674929,pdf,75822BF39F1F0225873DD28D7A4B0D95,,,,0,2000-01-01 01:00:00,2016-04-03 02:51:08,254000/75822bf39f1f0225873dd28d7a4b0d95-d.jpg,,
5692342,Using Botulinum Toxins Cosmetically: A Practical Guide,,,,"Jean Carruthers, Alastair Carruthers",2003,,Informa Healthcare,,105,0,English,Биология//Генетика,ebook3000.com,0,"1841842176,9781841842172",,,,,,,,,OL8923104M,,0,,,,,,,1,5504813,pdf,762798644756D9D162652B1ED46CB531,,,,0,2000-01-01 01:00:00,2016-04-03 02:51:08,254000/762798644756d9d162652b1ed46cb531-d.jpg,,
5692338,Acrocorinth: Excavations in 1926,,,,"Carl W. Blegen, Richard Stillwell, Oscar Broneer, Alfred Raymond Bellinger",1930,Volume III Part 1,American School of Classical Studies,,96,0,English,,ebook3000.com,0,"9780876610312,0876610319",,,,,,,,,,,0,,,,,,,T,12035450,pdf,73AD54E4DCB58A38648C90C689B36115,,,,0,2000-01-01 01:00:00,2016-04-03 02:51:08,254000/73ad54e4dcb58a38648c90c689b36115-g.jpg,,
5692339,Microsoft Expression Blend Bible,,,,"Gurdy Leete, Mary Leete",2007,,Wiley,,770,0,English,Компьютеры//Программирование,,0,"0470055030,9780470055038",,,,,,,,,OL7595457M,,0,,,,,,,1,27812206,pdf,745C09294F077AB3E80A38CCBE813851,,,,0,2000-01-01 01:00:00,2016-04-03 02:51:08,254000/745c09294f077ab3e80a38ccbe813851-d.jpg,,
5692336,Essentials of Wireless Mesh Networking,,The Cambridge Wireless Essentials Series,,Steve Methley,2009,1,Cambridge University Press,,241,0,English,Компьютеры//Сети,,0,"052187680X,9780521876803",,,,,004.6/8,TK5105.77 .M48 2009,,,OL23170266M,,0,,,,,,,T,4119946,pdf,72EC361C4EDDEA17EC3209099AA5200B,,,,0,2000-01-01 01:00:00,2016-04-03 02:51:08,254000/72ec361c4eddea17ec3209099aa5200b-d.jpg,,
5692337,"Greek Inscriptions, 1896-1927 (Corinth)",Volume VIII Part 1,Corinth ,,Benjamin D. Merritt,1931,Volume VIII Part 1,American School of Classical Studies,,186,0,English,,ebook3000.com,0,"0876610815,9780876610817",,,,,,,,,,,0,,,,,1,,T,11111921,pdf,72F6DBB917F111A7DC0884932A726EDB,,,,0,2000-01-01 01:00:00,2016-04-03 02:51:08,254000/72f6dbb917f111a7dc0884932a726edb-g.jpg,,
5692334,"African American Architects: A Biographical Dictionary, 1865-1945",,,,Dreck Spurlock Wilson,2004,1,Routledge,,855,0,English,Языкознание//Словари,,0,"0415929598,9780415929592",,,,,,,,,OL17111839M,,0,,,,,1,,T,12476158,pdf,729F82EFE2B4A806EC6D481C598BD60A,,,,0,2000-01-01 01:00:00,2016-04-03 02:51:08,254000/729f82efe2b4a806ec6d481c598bd60a-d.jpg,,
5692335,Advances in Developmental Biology: Planar Cell Polarization during Development,Volume 14,,,Paul Wassarman,2005,1,Elsevier Science,,183,0,English,Биология,,0,"0444518452,1865843830,9780444518453",,,,,,,,,OL18239568M,,0,,,,,,,T,2243455,pdf,72CAAB3ADE6768ECA108D25E4D11000B,,,,0,2000-01-01 01:00:00,2016-04-03 02:51:08,254000/72caab3ade6768eca108d25e4d11000b-d.jpg,,
5692333,Strategy-Driven Talent Management: A Leadership Imperative,,J-B SIOP Professional Practice Series,,"Rob Silzer, Ben E. Dowell",2009,annotated edition,Pfeiffer,,930,0,English,Бизнес//менеджмент,ebook3000.com,0,"0787988472,9780787988470",,,,,658.3,HF5549 .S888 2009,,,OL23235483M,,0,,,,,1,,T,3948162,pdf,7269A6B4277CAC3B731E0BA802DA243D,,,,0,2000-01-01 01:00:00,2016-04-03 02:51:08,254000/7269a6b4277cac3b731e0ba802da243d-d.jpg,,
5692330,CompTIA Security+ 2008 In Depth,,,,Mark (Mark Ciampa) Ciampa,2008,1,Course Technology PTR,,465,0,English,,ebook3000.com,0,"1598638130,9781598638134",,,,,,,,,,,0,,,,,1,,T,10172732,pdf,71CC8BD3B67E6C3FF20FB15969CBC920,,,,0,2000-01-01 01:00:00,2016-04-03 02:51:08,254000/71cc8bd3b67e6c3ff20fb15969cbc920-d.jpg,,
5692331,German Architecture for a Mass Audience,,,,Kathleen James-Chakraborty,2000,1,Routledge,,183,0,English,Искусство//Архитектура,,0,"0415173272,9780415173278,9780203449448,9780415236546,0415236541",,,,,,,,,OL16989200M,,0,,,,,1,,T,12936126,pdf,72456736D8189F1E897941F3CEFD89CB,,,,0,2000-01-01 01:00:00,2016-04-03 02:51:08,254000/72456736d8189f1e897941f3cefd89cb-d.jpg,,
5692332,OpenSUSE 11.0 and SUSE Linux Enterprise Server Bible,,,,"Roger Whittaker, Justin Davies",2008,Pap/Dvdr,Wiley,,835,0,English,Компьютеры//Информационные системы//ИС предприятий,,0,"9780470275870,2008014649",,,,,005.4/32,QA76.76.O63 W488 2008,,,OL18500823M,,0,,,,,,,T,23228725,pdf,725E9ED65002F3BC59964868F07892FE,,,,0,2000-01-01 01:00:00,2016-04-03 02:51:08,254000/725e9ed65002f3bc59964868f07892fe-d.jpg,,
5692328,Everything Counts: 52 Remarkable Ways to Inspire Excellence and Drive Results,,,,Gary Ryan Blair,2009,,Wiley,,291,0,English,Компьютеры//Программы//Офисные программы,,0,"0470504560,9780470504567",,,,,658.409,HF5386 .B53 2010,,,OL24420182M,,0,,,,,1,,T,1354867,pdf,7154EE0E3250465BD2C5E3DE0C1D59FD,,,,0,2000-01-01 01:00:00,2016-04-03 02:51:08,254000/7154ee0e3250465bd2c5e3de0c1d59fd-d.jpg,,
5692329,Learning Japanese in the Network Society,,,,Kazuko Nakajima,2002,,University of Calgary Press,,227,0,English,Образование,,0,"155238070X,9781552380703,9780585441092",,,,,495.6/8/00285,PL519 .I58 1999,,,OL3627449M,,0,,,,,1,,T,3956547,pdf,7159E818341B29DC23B0118014C7918F,,,,0,2000-01-01 01:00:00,2016-04-03 02:51:08,254000/7159e818341b29dc23b0118014c7918f-d.jpg,,
5692327,The Origin of the History of Science in Classical Antiquity (Peripatoi 19),,Peripatoi 19 ,,Leonid Zhmud,2006,1,Walter de Gruyter,,344,0,English,История,,0,"9783110179668,3110179660",,,,,,,,,OL22756916M,,0,,,,,,,T,1310727,pdf,71245E7236B9118948ACC32C9E674352,,,,0,2000-01-01 01:00:00,2016-04-03 02:51:08,254000/71245e7236b9118948acc32c9e674352-d.jpg,,
5692325,Philosophy of Technology and Engineering Sciences (Handbook of the Philosophy of Science),,Handbook of the Philosophy of Science ,,"Anthonie W.M. Meijers, Dov M. Gabbay, Paul Thagard, John Woods",2009,1st,North Holland,,1473,0,English,Техника,,0,"0444516670,9780444516671",,,,,,,,,,,0,,,,,1,,T,13863430,pdf,71064D374351CFA6A9EB217AB2416EF3,,,,0,2000-01-01 01:00:00,2016-04-03 02:51:08,254000/71064d374351cfa6a9eb217ab2416ef3-d.jpg,,
5692326,Historical Dictionary of Postwar German Literature,,Historical Dictionaries of Literature and the Arts,,William Grange,2009,,"The Scarecrow Press, Inc.",,371,0,English,История,ebook3000.com,0,"0810859653,9780810859654,9780810863149",,,,,"830.9/00914,B",PT401 .G68 2009,,,OL23079993M,,0,,,,,,,T,1144090,pdf,711C739CDF13E49A62397FB0FC400597,,,,0,2000-01-01 01:00:00,2016-04-03 02:51:08,254000/711c739cdf13e49a62397fb0fc400597-d.jpg,,
5692324,A Short Course in General Relativity,,Longman mathematical texts,,"James Foster, J. D. Nightingale",1979,,Longman Group United Kingdom,,107,0,English,Физика//Теория относительности и гравитация,ebook3000.com,0,"0582441943,9780582441941",,,,,530.1/1,QC173.6 .F67,,,OL4739796M,,0,,,,,,,,7435430,pdf,70DA9ED511F3D36D5DC3B27B35DF172D,,,,0,2000-01-01 01:00:00,2016-04-03 02:51:08,254000/70da9ed511f3d36d5dc3b27b35df172d-g.jpg,,
5692322,"Informatics in Control, Automation and Robotics",v. 1,,,"José Braz, Helder Araújo, Alves Vieira, Bruno Encarnação",2006,1,Springer,,288,0,English,Техника//Электроника//Робототехника,ebook3000.com,0,"1402041365,9781402041365,1402045433,9781402045431",,,,,,,,,OL18402221M,,0,,,,,,,,17307331,pdf,707A55568DD00EE782C04800C488B01D,,,,0,2000-01-01 01:00:00,2016-04-03 02:51:08,254000/707a55568dd00ee782c04800c488b01d-d.jpg,,
5692323,Cisco Voice over IP (CVOICE) (Authorized Self-Study Guide),,CVOICE Authorized Self-Study Guide 3rd Edition ,,Kevin Wallace,2008,3,Cisco Press,,598,0,English,Компьютеры//Сети,,0,"9781587055546,1587055546",,,,,004.69/5,TK5105.8865 .W3345 2008,,,OL16873706M,,0,,,,,,,T,7813614,pdf,709C89BAC7203C789460FC22E02072B1,,,,0,2000-01-01 01:00:00,2016-04-03 02:51:08,254000/709c89bac7203c789460fc22e02072b1-d.jpg,,
5692320,Microsoft Dynamics AX 2009 Programming: Getting Started,,,,Erlend Dalen,2009,,Packt Publishing,,347,0,English,Компьютеры//Программирование,,0,"1847197302,9781847197306",,,,,,,,,,,0,,,,,,,T,5162710,pdf,703DF9AF158B1DAC30F4638576691CA6,,,,0,2000-01-01 01:00:00,2016-04-03 02:51:08,254000/703df9af158b1dac30f4638576691ca6-d.jpg,,
5692321,Elgg Social Networking: Create and manage your own social network site using this free open-source tool,,From Technologies to Solutions,,Mayank Sharma,2008,,Packt Publishing,,197,0,English,Компьютеры//Сети,,0,"1847192807,9781847192806,9781847192813",,,,,,,,,,,0,,,,,1,,T,4364947,pdf,704A8D4481AFA505E1ADA5806DD66DC8,,,,0,2000-01-01 01:00:00,2016-04-03 02:51:08,254000/704a8d4481afa505e1ada5806dd66dc8-d.jpg,,
5692319,Frenchmen into Peasants: Modernity and Tradition in the Peopling of French Canada,,Harvard Historical Studies,,Leslie P. Choquette,1997,First Edition,Harvard University Press,,410,0,English,Языкознание,ebook3000.com,0,"0674323157,9780674323155",,,,,304.8/71044/09032,F1030 .C57 1997,,,OL1001134M,,0,,,,1,0,,1,1346922,pdf,7014F65990EEF030EA89F45BC2536F87,,,,0,2000-01-01 01:00:00,2016-04-03 02:51:08,254000/7014f65990eef030ea89f45bc2536f87-d.jpg,,
5692317,Atom Interferometry,,,,Paul R. Berman,1996,,Academic Press,,497,0,English,Наука (общее)//Научно-популярное,,0,"9780120924608,0120924609",,,,,539.7,QC411 .A86 1997,,,OL973013M,,0,,,,,,,T,23432664,pdf,6FFB23E110DC4D18F953860BE8A0F7F4,,,,0,2000-01-01 01:00:00,2016-04-03 02:51:08,254000/6ffb23e110dc4d18f953860be8a0f7f4-d.jpg,,
5692318,Newnes Dictionary of Electronics,,,,"S W Amos, Roger Amos B.Sc  B.D.  M.I.S.T.C.",2002,4th,Newnes,,399,0,English,Языкознание//Словари,ebook3000.com,0,"0750656425,9780750656429",,,,,,,,,OL7972410M,,0,,,,,1,,T,18433296,pdf,700D209FAFC09F7134BF810A87BB995C,,,,0,2000-01-01 01:00:00,2016-04-03 02:51:08,254000/700d209fafc09f7134bf810a87bb995c-d.jpg,,
5692315,Advances in Haploid Production in Higher Plants,,,,"Alisher Touraev, Alisher Touraev, Brian P. Forster, S. Mohan Jain",2008,1,Springer,,341,0,English,Биология//Растения//Ботаника,ebook3000.com,0,"1402088531,9781402088537,9781402088544",,,,,,,,,,,0,,,,,,,,15421608,pdf,6F687661F570E84288EECF8A076B2017,,,,0,2000-01-01 01:00:00,2016-04-03 02:51:08,254000/6f687661f570e84288eecf8a076b2017-d.jpg,,
5692316,"Frommer's Honolulu, Waikiki and Oahu",,Frommer's Complete,,Jeanette Foster,2009,11,Frommers,,292,0,English,География,,0,"0470497645,9780470497647",,,,,,,,,,,0,,,,,1,,,6179436,pdf,6FEA68DACB641FE5782AC28EE46A644A,,,,0,2000-01-01 01:00:00,2016-04-03 02:51:08,254000/6fea68dacb641fe5782ac28ee46a644a-d.jpg ,,
5692313,CompTIA A+ Complete Review Guide: Exam 220-701 / Exam 220-702,,,,Emmett Dulaney,2009,Pap/Cdr,Sybex,,547,0,English,Компьютеры,,0,"0470486503,9780470486504",,,,,004.165,QA76.3 .D82273 2009,,,OL23554881M,,0,,,,,,,T,11746643,pdf,6EBADD874D3328FE0A637D22C2C704A9,,,,0,2000-01-01 01:00:00,2016-04-03 02:51:08,254000/6ebadd874d3328fe0a637d22c2c704a9-d.jpg,,
5692314,Junos Enterprise Switching,,,,"Harry Reynolds, Doug Marschke",2009,1,O'Reilly Media,,752,0,English,Компьютеры//Информационные системы//ИС предприятий,,0,"059615397X,9780596153977",,,,,,,,,,,0,,,,1,0,,1,10915486,pdf,6F42AA46892D1B108AC5295906256EF6,,,,0,2000-01-01 01:00:00,2016-04-03 02:51:08,254000/6f42aa46892d1b108ac5295906256ef6-d.jpg,,
5692311,Fedora 10 and Red Hat Enterprise Linux Bible,,Bible (Wiley),,Christopher Negus,2009,Pap/Cdr/Dv,Wiley,,1132,0,English,Компьютеры//Информационные системы//ИС предприятий,,0,"0470413395,9780470413395",,,,,005.4/32,QA76.76.O63 N41823 2009,,,OL22796850M,,0,,,,,,,T,16373458,pdf,6E6305C5D96E64DD55AD16854699152F,,,,0,2000-01-01 01:00:00,2016-04-03 02:51:08,254000/6e6305c5d96e64dd55ad16854699152f-d.jpg,,
5692312,Truman Capote (Bloom's Modern Critical Views),,Bloom's Modern Critical Views ,,Harold Bloom,2009,2,Chelsea House Publications,,217,0,English,История,ebook3000.com,0,"1604133988,9781604133981",,,,,813/.54,PS3505.A59 Z884 2009,,,OL22665725M,,0,,,,,,,T,1140424,pdf,6E9626A7A8EAD288964B8352DB881543,,,,0,2000-01-01 01:00:00,2016-04-03 02:51:08,254000/6e9626a7a8ead288964b8352db881543-d.jpg,,
5692309,Mastering Microsoft Exchange Server 2007 SP1,,,,Jim McBee,2009,2nd Ed,Sybex,,1033,0,English,Компьютеры//Программирование,,0,"9780470417331,2008048403",,,,,004.692,QA76.9.C55 M26387 2009,,,OL22672343M,,0,,,,,,,T,23942980,pdf,6E12655065855D2F090462AE1653E19B,,,,0,2000-01-01 01:00:00,2016-04-03 02:51:08,254000/6e12655065855d2f090462ae1653e19b-d.jpg,,
5692310,Wireless Communications Security,,Artech House Universal Personal Communications,,"Hideki Imai, Mohammad Ghulam Rahman, Kazukuni Kobara",2005,,Artech House Publishers,,192,0,English,Техника//Электроника//Телекоммуникации,ebook3000.com,0,"9781580535205,1580535208",,,,,621.384,TK5103.2 .I43 2005,,,OL22718927M,,0,,,,,,,T,2378005,pdf,6E5067E935A90F96DC181D7FBE50069C,,,,0,2000-01-01 01:00:00,2016-04-03 02:51:08,254000/6e5067e935a90f96dc181d7fbe50069c-d.jpg,,
5692307,Fedora 11 and Red Hat Enterprise Linux Bible,,,,Christopher Negus,2009,,Wiley,,1132,0,English,Компьютеры//Информационные системы//ИС предприятий,,0,"0470485043,9780470485040",,,,,,,,,,,0,,,,,,,T,16863929,pdf,6D7F34C5F13D13C364A4EBDC0FB12C09,,,,0,2000-01-01 01:00:00,2016-04-03 02:51:08,254000/6d7f34c5f13d13c364a4ebdc0fb12c09-d.jpg,,
5692308,Drupal 5 Themes: Create a new theme for your Drupal website with a clean layout and powerful CSS styling,,,,Ric Shreves,2007,,Packt Publishing,,260,0,English,Компьютеры//Сети//Интернет,,0,"1847191827,9781847191823",,,,,005.13/3,TK5105.8885.D78 S56 2007,,,OL11916233M,,0,,,,,,,T,10508727,pdf,6DF875E8B2861239037D1D7C1AD20733,,,,0,2000-01-01 01:00:00,2016-04-03 02:51:08,254000/6df875e8b2861239037d1d7c1ad20733-d.jpg,,
5692305,Когерентные структуры в турбулентном пограничном слое,,,,"Хлопков Ю.И., Жаров В.А., Горелов С.Л.",2002,,,,129,0,Russian,"Физика//Механика//Нелинейная динамика, хаос",backwar,0,,,,,,,,,,,,0,,,,,,,,2597477,pdf,6D2F5AC0A7EA52D6A303E1C95D8243A6,,,,0,2000-01-01 01:00:00,2016-04-03 02:51:08,254000/6d2f5ac0a7ea52d6a303e1c95d8243a6-g.jpg,,
5692306,Learning Flash Cs4 Professional,,Adobe Developer Library,,Rich Shupe,2009,Annotated,Adobe Developer Library,,392,0,English,Образование,,0,"0596159765,9780596159764",,,,,006.78,TK5105.8885.F59 S48 2009,,,OL24385373M,,0,,,,,,,T,20393771,pdf,6D5BD034CBD4C7ABB82D81E674CD2A85,,,,0,2000-01-01 01:00:00,2016-04-03 02:51:08,254000/6d5bd034cbd4c7abb82d81e674cd2a85-d.jpg,,
5692304,"Smalltalk-80: Bits of History, Words of Advice (Addison-Wesley series in computer science)",,Addison-Wesley series in computer science ,,Glen Krasner,1983,,Addison-Wesley,,354,0,English,История,,0,"0201116693,9780201116694",,,,,001.64/25,QA76.8.S635 S58 1983,,,OL3164100M,,0,,,,,,,1,24497033,pdf,6CEC56EDDE7EB573C326E4376917D860,,,,0,2000-01-01 01:00:00,2016-04-03 02:51:08,254000/6cec56edde7eb573c326e4376917d860-g.jpg,,
5692302,Frommer's Provence & the Riviera,,Frommer's Complete,,Darwin Porter,2009,7,Frommers,,388,0,English,География,,0,"9780470470657,0470470658",,,,,,,,,,,0,,,,,1,,,11438404,pdf,6C149FA6A63191BC69A72BE5D5C36773,,,,0,2000-01-01 01:00:00,2016-04-03 02:51:08,254000/6c149fa6a63191bc69a72be5d5c36773-d.jpg,,
5692303,Practical Django Projects,,Expert's Voice in Web Development,,James Bennett,2009,2,Apress,,274,0,English,Компьютеры,,0,"1430219386,9781430219385",,,,,,,,,OL24983315M,,0,,,,,1,,T,5133782,pdf,6C41962DCD505726BAEE37E97EDD53E5,,,,0,2000-01-01 01:00:00,2016-04-03 02:51:08,254000/6c41962dcd505726baee37e97edd53e5-d.jpg,,
5692300,VMware vSphere 4 Administration Instant Reference,,,,"Scott Lowe, Jason W. McCarty, Matthew K. Johnson",2009,1,Sybex,,435,0,English,,,0,"0470520728,9780470520727",,,,,005.4/3,QA76.9.V5 L6735 2010,,,OL23918933M,,0,,,,,1,,T,6937128,pdf,6BBC8D76C86DD790280164279B5A71DF,,,,0,2000-01-01 01:00:00,2016-04-03 02:51:08,254000/6bbc8d76c86dd790280164279b5a71df-d.jpg,,
5692301,Samba-3 by Example: Practical Exercises to Successful Deployment,,,,John H. Terpstra,2005,2,Prentice Hall,,512,0,English,,,0,"013188221X,9780131882218",,,,,,,,,OL7338406M,,0,,,,,1,,T,4374016,pdf,6BEBC02AB8D04B399F7239249D2EF41B,,,,0,2000-01-01 01:00:00,2016-04-03 02:51:08,254000/6bebc02ab8d04b399f7239249d2ef41b-d.jpg,,
5692298,Web Analytics 2.0: The Art of Online Accountability and Science of Customer Centricity,,,,Avinash Kaushik,2009,Pap/Cdr,Sybex,,507,0,English,Наука (общее)//Научно-популярное,,0,"0470529393,9780470529393",,,,,025.04,ZA4235 .K382 2010,,,OL24305057M,,0,,,,,1,,,13375181,pdf,6B99896D7EEC7136A50A13370B8CB3F3,,,,0,2000-01-01 01:00:00,2016-04-03 02:51:08,254000/6b99896d7eec7136a50a13370b8cb3f3-d.jpg,,
5692299,BTEC First ICT Practitioners Curriculum Support Pack: Core units and selected specialist units for the BTEC First Certificate and Diploma for ICT Practitioners,,,,Sharon Yull,2007,Lslf,Newnes,,141,0,English,,ebook3000.com,0,"0750683252,9780750683258",,,,,,,,,,,0,,,,,1,,T,1623780,pdf,6BA6604465728CF54B05B5745AE64B0D,,,,0,2000-01-01 01:00:00,2016-04-03 02:51:08,254000/6ba6604465728cf54b05b5745ae64b0d-d.jpg,,
5692297,Euclid's Elements of Geometry,,,,"Euclid, J.L. Heiberg, Richard Fitzpatrick",2008,,Richard Fitzpatrick,,545,0,English,Математика//Геометрия и топология,ebook3000.com,0,"0615179843,9780615179841",,,,,,,,,,,0,,,,1,0,,1,4905759,pdf,6B2CD6A579CC3E5B3803249CC8D9863E,,,,0,2000-01-01 01:00:00,2016-04-03 02:51:08,254000/6b2cd6a579cc3e5b3803249cc8d9863e-d.jpg,,
5692295,Effective Software Testing: 50 Specific Ways to Improve Your Testing,,,,Elfriede Dustin,2002,,Addison-Wesley Professional,,203,0,English,Компьютеры//Программирование,,0,"0201794292,9780201794298",,,,,,,,,OL18182001M,,0,,,,,,,1,873397,pdf,6B09C5FF5549E8BB0621A29E59BF12FA,,,,0,2000-01-01 01:00:00,2016-04-03 02:51:08,254000/6b09c5ff5549e8bb0621a29e59bf12fa-d.jpg,,
5692296,Biosaline Agriculture and High Salinity Tolerance,,,,"Chedly Abdelly, Chedly Abdelly, MÃ¼nir Ã–ztÃ¼rk, Muhammad Ashraf, Claude Grignon",2008,1,BirkhÃ¤user Basel,,367,0,English,Общественные науки прочие//Культурология,,0,"3764385537,9783764385538",,,,,631.57,SB317.S25 B558 2008,,,OL16838700M,,0,,,,1,0,,1,5671500,pdf,6B21D77C23BB98BFB2A8D420C8AA1565,,,,0,2000-01-01 01:00:00,2016-04-03 02:51:08,254000/6b21d77c23bb98bfb2a8d420c8aa1565-d.jpg,,
5692294,Mobile and Wireless Communications: Key Technologies and Future Applications,,BT Communications Technology Series,,"Peter Smyth, Peter Smyth",2004,illustrated edition,The Institution of Engineering and Technology,,412,0,English,Техника//Электроника//Телекоммуникации,ebook3000.com,0,"0863413684,9780863413681",,,,,,,,,OL22597657M,,0,,,,,1,,T,5224758,pdf,6AEF2C20D7AB7332C3CB1954009D9828,,,,0,2000-01-01 01:00:00,2016-04-03 02:51:08,254000/6aef2c20d7ab7332c3cb1954009d9828-d.jpg,,
5692292,jQuery UI 1.7: The User Interface Library for jQuery,,,,Dan Wellman,2009,,Packt Publishing,,391,0,English,Компьютеры//Сети//Интернет,,0,"1847199720,9781847199720",,,,,,,,,,,0,,,,,,,T,13425690,pdf,6A2FAD9CABA0653354DCA0069279E20A,,,,0,2000-01-01 01:00:00,2016-04-03 02:51:08,254000/6a2fad9caba0653354dca0069279e20a-d.jpg,,
5692293,"SOA Approach to Integration: XML, Web services, ESB, and BPEL in real-world SOA projects",,,,"Poornachandra Sarang, Frank Jennings, Matjaz Juric, Ramesh Loganathan",2007,,Packt Publishing,,382,0,English,Компьютеры//Сети//Интернет,,0,"1904811175,9781904811176,9781847190116",,,,,,,,,OL12292263M,,0,,,,0,0,,1,10208112,pdf,6A8DA5995F124BD11FA6DE30A43F7EA4,,,,0,2000-01-01 01:00:00,2016-04-03 02:51:08,254000/6a8da5995f124bd11fa6de30a43f7ea4-d.jpg,,
5692291,Beginning Ruby on Rails E-Commerce: From Novice to Professional,,,,"Christian Hellsten, Jarkko Laine",2006,1,Apress,,448,0,English,Образование,,0,"9781590597361,1590597362",,,,,,,,,OL8848947M,,0,,,,,,,,15294293,pdf,6A0A789D406EC4FD7F5762154494ED63,,,,0,2000-01-01 01:00:00,2016-04-03 02:51:08,254000/6a0a789d406ec4fd7f5762154494ed63-d.jpg,,
5692289,Britain & the Onset of Modernization in Brazil 18501914,,Cambridge Latin American Studies,,Richard Graham,1968,1st ed,Cambridge University Press,,400,0,English,,,0,"9780521070782,9780511563133,0521096812,0521070783,0511563132,9780521096812",,,,,301.29/81/042,F2510 .G7,,,OL5613360M,,300,,,,0,1,,1,2919704,djvu,698D4FCCA3A0A248D107DFF2270DD66C,,,,0,2000-01-01 01:00:00,2016-04-03 02:51:08,254000/698d4fcca3a0a248d107dff2270dd66c-g.jpg,,
5692290,CCDA Official Exam Certification Guide (Exam 640-863),,,,"Anthony Bruno, Steve Jordan",2007,3,Cisco Press,,688,0,English,,,0,"9781587201776,1587201771",,,,,004.6076,QA76.3 .B7847 2007,,,OL17901186M,,0,,,,,,,,10692272,pdf,69F7D4A9AD3A52D46B33EAD4A44DC62C,,,,0,2000-01-01 01:00:00,2016-04-03 02:51:08,254000/69f7d4a9ad3a52d46b33ead4a44dc62c-d.jpg,,
5692287,Metro Area Networking,,McGraw-Hill Networking Professional,,Steven Shepard,2003,1,McGraw-Hill Professional,,258,0,English,Компьютеры//Сети,,0,"9780071399142,0071399143",,,,,004.67,TK5105.85 .S54 2003,,,OL3700420M,,0,0,0,,,,,,2342682,pdf,69050101A11E8FD1D93675257F2D7424,,,,0,2000-01-01 01:00:00,2016-04-03 02:51:08,254000/69050101a11e8fd1d93675257f2d7424-d.jpg,,
5692288,Turbulence Models and Their Application: Efficient Numerical Methods With Computer Programs,,,,Tuncer Cebeci,2004,,Horizons Pubns (AZ),,129,0,English,Математика//Вычислительная математика,ebook3000.com,0,"0966846168,9780966846164,3540402888",,,,,,,,,OL8554993M,,0,,,,,1,,,2400315,pdf,69451477D9B1CF0DCFEFCCF3E569FE91,,,,0,2000-01-01 01:00:00,2016-04-03 02:51:08,254000/69451477d9b1cf0dcfefccf3e569fe91-g.jpg,,
5692286,The Encyclopedia of Trauma and Traumatic Stress Disorders,,Facts on File Library of Health and Living,,"Ronald M., Ph.D. Doctor, Frank N. Shiromoto",2009,,Facts on File,,400,0,English,Образование//Энциклопедии,ebook3000.com,0,"0816067643,9780816067640",,,,,616.85/21003,BF175.5.P75 D63 2009,,,OL11360536M,,0,,,,,,,T,3630580,pdf,68E56CCDD103B89497CC108146BF383A,,,,0,2000-01-01 01:00:00,2016-04-03 02:51:08,254000/68e56ccdd103b89497cc108146bf383a-d.jpg,,
5692283,JSF 1.2 Components,,,,Ian Hlavats,2009,,Packt Publishing,,399,0,English,,,0,"1847197620,9781847197627",,,,,,,,,,,0,,,,,,,T,7140060,pdf,67E861E4A405DFEC5340BBB8F564D2A2,,,,0,2000-01-01 01:00:00,2016-04-03 02:51:08,254000/67e861e4a405dfec5340bbb8f564d2a2-d.jpg,,
5692284,VMware Cookbook: A Real-World Guide to Effective VMware Use,,,,"Ryan Troy, Matthew Helmke",2009,1,O'Reilly Media,,300,0,English,Компьютеры,,0,"0596157258,9780596157258",,,,,005.4/3,QA76.9.V5 T76 2010,,,OL24861502M,,0,,,,,,,T,3774129,pdf,68C23031DD0E2617B2FC2E770B59B4D2,,,,0,2000-01-01 01:00:00,2016-04-03 02:51:08,254000/68c23031dd0e2617b2fc2e770b59b4d2-d.jpg,,
5692285,Propulsion Systems for Hybrid Vehicles,,Iet Power and Energy,,J. Miller,2004,,The Institution of Engineering and Technology,,473,0,English,Техника//Транспорт,ebook3000.com,0,"0863419151,9780863419157",,,,,,,,,,,0,,,,,1,,T,3195121,pdf,68D8072A3EE16C0D19C3040BA5A48E21,,,,0,2000-01-01 01:00:00,2016-04-03 02:51:08,254000/68d8072a3ee16c0d19c3040ba5a48e21-d.jpg,,
5692281,"From Nation to Diaspora: Samuel Selvon, George Lamming And the Cultural Performance of Gender",,,,Curdella Forbes,2005,,University of the West Indies Press,,316,0,English,История,,0,"9789766401719,9766401713",,,,,,,,,OL9190585M,,0,,,,,,,T,10525506,pdf,678C7B237D54838956E0474DDAA19713,,,,0,2000-01-01 01:00:00,2016-04-03 02:51:08,254000/678c7b237d54838956e0474ddaa19713-d.jpg,,
5692282,Mentoring in Education: An International Perspective,,Monitoring Change in Education,,Cedric Cullingford,2006,,Ashgate Publishing,,236,0,English,Образование,ebook3000.com,0,"0754645770,9780754645771",,,,,371.102,LB1731.4 .M4658 2006,,,OL17880523M,,0,,,,,1,,T,1459908,pdf,679167FCC452CFDADB12F28EC6EBE0C0,,,,0,2000-01-01 01:00:00,2016-04-03 02:51:08,254000/679167fcc452cfdadb12f28ec6ebe0c0-d.jpg,,
5692279,"Seismic Design, Assessment and Retrofitting of Concrete Buildings: based on EN-Eurocode 8",,"Geotechnical, Geological, and Earthquake Engineering",,Michael N. Fardis,2009,1,Springer,,767,0,English,Физика//Геофизика,ebook3000.com,0,"1402098413,9781402098413,9781402098420",,,,,,,,,,,0,,,,,,,T,13563735,pdf,6712BB93D5978F9C9EFC02DC59C16825,,,,0,2000-01-01 01:00:00,2016-04-03 02:51:08,254000/6712bb93d5978f9c9efc02dc59c16825-d.jpg,,
5692280,The Three Stars and Other Selections: More Amazing Lists for Trivia Lovers,,,,"Jefferson Davis, Andrew Podnieks",2000,,ECW Press,,191,0,English,,ebook3000.com,0,"9781550224276,1550224271,4262000796",,,,,,,,,OL8548465M,,0,,,,,,,T,11106940,pdf,673251260C52D52B94A27D383077DC35,,,,0,2000-01-01 01:00:00,2016-04-03 02:51:08,254000/673251260c52d52b94a27d383077dc35-d.jpg,,
5692276,"sendmail, 3rd Edition",,,,"Bryan Costales, Eric Allman",2002,3,O'Reilly Media,,2056,0,English,Компьютеры,,0,"9781565928398,1565928393",,,,,004.692,HD6239.E54 C67 2002,,,OL24963714M,,0,,,,,,,T,10045097,pdf,64FFD9B7B8A4F26481E687A44E71577D,,,,0,2000-01-01 01:00:00,2016-04-03 02:51:08,254000/64ffd9b7b8a4f26481e687a44e71577d-d.jpg,,
5692277,"The Definitive Guide to Plone, Second Edition",,,,Andy McKay,2009,2,Apress,,378,0,English,,,0,"1430218932,9781430218937",,,,,,,,,,,0,,,,1,0,,1,18601984,pdf,653B994553D34D9AD505B15B1C4D7D89,,,,0,2000-01-01 01:00:00,2016-04-03 02:51:08,254000/653b994553d34d9ad505b15b1c4d7d89-d.jpg,,
5692278,"A Culture of Fact: England, 1550-1720",,,,Barbara J. Shapiro,2003,,Cornell University Press,,149,0,English,,ebook3000.com,0,"9780801436864,0801436869",,,,,942.05,DA380 .S52 2000,,,OL42299M,,0,,,,,,,,13739012,pdf,65EC16E4BD6E0E545D76F95542550B9C,,,,0,2000-01-01 01:00:00,2016-04-03 02:51:08,254000/65ec16e4bd6e0e545d76f95542550b9c-d.gif,,
5692273,RT Essentials,,,,"Jesse Vincent, Robert Spier, Dave Rolsky, Darren Chamberlain, Richard Foley S.J",2005,1,O'Reilly Media,,218,0,English,Компьютеры,,0,"9780596006686,0596006683",,,,,658.4/038/011,HD30.2 .R75 2005,,,OL17925105M,,0,,,,,,,T,2821293,pdf,646CB9D261AF6AAECBD595042E11DE01,,,,0,2000-01-01 01:00:00,2016-04-03 02:51:08,254000/646cb9d261af6aaecbd595042e11de01-d.jpg,,
5692274,Banking Principles and Practice (Dodo Press),,Dodo Press ,,E. L. Stewart Patterson,2009,,Dodo Press,,300,0,English,,ebook3000.com,0,"9781409971603,1409971600",,,,,,,,,,,0,,,,,,,1,2759939,pdf,64B25A8C55A37CA0034B0DE2B9724C43,,,,0,2000-01-01 01:00:00,2016-04-03 02:51:08,254000/64b25a8c55a37ca0034b0de2b9724c43-d.jpg,,
5692275,Beginning Joomla!,,Beginning from Novice to Professional,,Dan Rahmel,2009,2nd,Apress,,447,0,English,Компьютеры//Web-дизайн,,0,"1430216425,9781430216421,9781430216438",,,,,006.7/8,TK5105.8883 .R34 2009,,,OL24074088M,,0,,,,,,,,25799301,pdf,64B5547DC7EF505B31787BFCC5C21F87,,,,0,2000-01-01 01:00:00,2016-04-03 02:51:08,254000/64b5547dc7ef505b31787bfcc5c21f87-d.jpg,,
5692271,Instructors Guide,,,,BOOCH,1993,,Addison Wesley,,475,0,English,,,0,"9780805353419,0805353410",,,,,,,,,,,0,,,,,,,,5367269,pdf,63F9FCB1BFF1C76B4EA2B487A294E6C3,,,,0,2000-01-01 01:00:00,2016-04-03 02:51:08,254000/63f9fcb1bff1c76b4ea2b487a294e6c3-g.jpg,,
5692272,Handbook of the Sociology of Racial and Ethnic Relations,,Handbooks of Sociology and Social Research,,"Hernan Vera, Joe R. Feagin",2007,1,Springer,,494,0,English,,,0,"0387708448,9780387708447,9780387708454",,,,,,,,,OL18280635M,,0,,,,,,,T,12508395,pdf,6458DCC9F2ABE3AF2E4AEDD1C1C72380,,,,0,2000-01-01 01:00:00,2016-04-03 02:51:08,254000/6458dcc9f2abe3af2e4aedd1c1c72380-d.jpg,,
5692269,Eclipse : plug-ins,,,,"Eric Clayberg, Dan Rubel",2008,3,Addison-Wesley Professional,,857,0,English,Языкознание,,0,"9780321553461,0321553462",,,,,005.13/3,QA76.76.D47 C574 2008,,,OL22666328M,,0,,,,,,,,20907990,pdf,62F76BE56F33207B729824CFBF6A3E86,,,,0,2000-01-01 01:00:00,2016-04-03 02:51:08,254000/62f76be56f33207b729824cfbf6a3e86-d.jpg,,
5692270,Mastering Enterprise JavaBeans 3.0,,,,"Rima Patel Sriganesh, Gerald Brose, Micah Silverman",2006,,Wiley,,720,0,English,Компьютеры//Информационные системы//ИС предприятий,,0,"9780471785415,0471785415",,,,,,,,,OL7621528M,,0,,,,,,,T,9930784,pdf,6383C364A444F011BAEF2D5A9C1013EA,,,,0,2000-01-01 01:00:00,2016-04-03 02:51:08,254000/6383c364a444f011baef2d5a9c1013ea-d.jpg,,
5692268,High Performance Computing on Vector Systems 2009,,,,"Sabine Roller, Katharina Benkert, Martin Galle, Wolfgang Bez, Hiroaki Kobayashi",2009,1,Springer,,244,0,English,Компьютеры//Организация и обработка данных,,0,"364203912X,9783642039126",,,,,,,,,,,0,,,,,1,,T,17725808,pdf,62D51DDEDA9A224CAC4A332150179185,,,,0,2000-01-01 01:00:00,2016-04-03 02:51:08,254000/62d51ddeda9a224cac4a332150179185-d.jpg,,
5692266,We Are What We Celebrate: Understanding Holidays and Rituals,,,,"Amitai Etzioni, Jared Bloom",2004,,NYU Press,,260,0,English,,ebook3000.com,0,"0814722261,9781429414005,9780814722268,9780814722275,081472227X",,,,,,,,,OL15574180M,,0,,,,,1,,T,3241252,pdf,625F89B5F32C97E57D911BED069E0BA0,,,,0,2000-01-01 01:00:00,2016-04-03 02:51:08,254000/625f89b5f32c97e57d911bed069e0ba0-d.jpg,,
5692267,Great Italian and French Composers,,Dodo Press ,,George T. Ferris,2007,,Dodo Press,,193,0,English,Языкознание,ebook3000.com,0,"9781406523751,1406523755",,,,,,,,,OL11652880M,,0,,,,0,1,,1,1019733,pdf,6289C389B8B2281A0C6C01507314B9F1,,,,0,2000-01-01 01:00:00,2016-04-03 02:51:08,254000/6289c389b8b2281a0c6c01507314b9f1-d.jpg,,
5692264,Changing Ecosystems: Effects of Global Warming,,,,"Julie Kerr, Ph.D. Casper",2009,1,Facts on File,,273,0,English,"География//Метеорология, Климатология",,0,"0816072639,9780816072637",,,,,577.27/6,QH541.13 .C37 2009,,,OL22984126M,,0,,,,,1,,T,15787481,pdf,61CB996982732B77675DA639568A5280,,,,0,2000-01-01 01:00:00,2016-04-03 02:51:08,254000/61cb996982732b77675da639568a5280-d.jpg,,
5692265,An Introduction to Radio Frequency Engineering,,,,Christopher Coleman,2004,,Cambridge University Press,,334,0,English,Техника,ebook3000.com,0,"0521834813,9780521834810",,,,,,,,,OL22595403M,,0,,,,,1,,T,3681003,pdf,6227111F150D0FB9FAE7302AB2FAF6DC,,,,0,2000-01-01 01:00:00,2016-04-03 02:51:08,254000/6227111f150d0fb9fae7302ab2faf6dc-d.jpg,,
5692263,Introduction to Fiber Optics,,IDC Technology,,John Crisp,2001,2,Newnes,,228,0,English,Техника//Электроника//Волоконная оптика,,0,"9780750650304,0750650303",,,,,621.36/92,TK5103.15 .C75 2001,,,OL3966742M,,0,,,,,,,T,3292129,pdf,6191CBA369DE1712BAC104F99F7B6CD0,,,,0,2000-01-01 01:00:00,2016-04-03 02:51:08,254000/6191cba369de1712bac104f99f7b6cd0-d.jpg,,
5692261,European Journalism Education,,,,Georgios Terzis,2010,,Intellect Ltd,,541,0,English,,ebook3000.com,0,"1841502359,9781841502359",,,,,,,,,,,0,,,,,1,,,2184143,pdf,61271C8FAE2F2C212DB149D4A634CC96,,,,0,2000-01-01 01:00:00,2016-04-03 02:51:08,254000/61271c8fae2f2c212db149d4a634cc96-d.jpg,,
5692262,Broke: What Every American Business Must Do to Restore Our Financial Stability and Protect Our Future,,,,John Mumford,2009,,Wiley,,354,0,English,Бизнес,,0,"0470504617,9780470504611",,,,,658,HD70.U5 M85 2009,,,OL23535527M,,0,,,,,1,,T,2280307,pdf,612B3E739AA02595516C9C311B7E574B,,,,0,2000-01-01 01:00:00,2016-04-03 02:51:08,254000/612b3e739aa02595516c9c311b7e574b-d.jpg,,
5692258,Advanced Rails Recipes,,,,Mike Clark,2008,1,Pragmatic Bookshelf,,407,0,English,Компьютеры,,0,"0978739221,9780978739225",,,,,006.7,,,,OL23113707M,,0,,,,,,,,3559657,pdf,607BF0AC0E06998DBB34888334AECB80,,,,0,2000-01-01 01:00:00,2016-04-03 02:51:08,254000/607bf0ac0e06998dbb34888334aecb80-d.jpg,,
5692259,Analysis and Design of Marine Structures: including CD-ROM,,,,"Carlos Guedes Soares, P.K. Das",2009,1 Har/Cdr,CRC Press,,578,0,English,Математика//Анализ,,0,"0415549345,9780415549349",,,,,,,,,,,0,,,,,1,,T,18704437,pdf,60951EC5C028E48026108EA12498D0D0,,,,0,2000-01-01 01:00:00,2016-04-03 02:51:08,254000/60951ec5c028e48026108ea12498d0d0-d.jpg,,
5692260,Ruby on Rails for Microsoft Developers,,Wrox Programmer to Programmer,,Antonio Cangiano,2009,,Wrox,,484,0,English,Компьютеры//Программирование,,0,"0470374950,9780470374955",,,,,006.7/6,TK5105.888 .B3544 2007,,,OL23170289M,,0,,,,,,,T,7450724,pdf,60DF3FC90BC8285040A02C6F4CAA5003,,,,0,2000-01-01 01:00:00,2016-04-03 02:51:08,254000/60df3fc90bc8285040a02c6f4caa5003-d.jpg,,
5692256,7-Week Cycling for Fitness,,,,Chris Sidwells,2006,,Dorling Kindersley Publishers Ltd,,164,0,English,,ebook3000.com,0,"9781405311014,1405311010,0756617391",,,,,,,,,OL23053150M,,0,,,,,,,T,29742577,pdf,6073E9CB8A4CB14E6C5318691E554B4C,,,,0,2000-01-01 01:00:00,2016-04-03 02:51:08,254000/6073e9cb8a4cb14e6c5318691e554b4c-d.jpg,,
5692257,Phunny Stuph: Proofreading Exercises with a Sense of Humor,,,,M. S. Samston,2005,,"Prufrock Press, Inc.",,215,0,English,,,0,"1877673641,9781877673641",,,,,,,,,OL8657973M,,0,,,,,1,,T,902958,pdf,60773F45374240A654709C3EF9F743F6,,,,0,2000-01-01 01:00:00,2016-04-03 02:51:08,254000/60773f45374240a654709c3ef9f743f6-d.jpg,,
5692255,Reference Modeling for Business Systems Analysis,,,,"Peter Fettke, Peter Fettke; Peter Loos",2006,illustrated edition,IGI Global,,410,0,English,,,0,"9781599040547,1599040549,1599040557,1599040565",,,,,,,,,OL8900867M,,0,,,,,,,T,34301892,pdf,605D17A2093CAFC2A1B08E5CA61CC4B6,,,,0,2000-01-01 01:00:00,2016-04-03 02:51:08,254000/605d17a2093cafc2a1b08e5ca61cc4b6-d.jpg,,
5692253,Photoshop Elements 8 for Mac: The Missing Manual,,,,Barbara Brundage,2009,1,O'Reilly Media,,586,0,English,Компьютеры//Программы//Продукты Adobe,,0,"0596804962,9780596804961",,,,,006.6/86,TR267 .B789 2010,,,OL25085333M,,0,,,,,,,T,21186503,pdf,602E32D7F9AD09FCDD61204D95011F43,,,,0,2000-01-01 01:00:00,2016-04-03 02:51:08,254000/602e32d7f9ad09fcdd61204d95011f43-d.jpg,,
5692254,Post Keynesian and Ecological Economics: Confronting Environmental Issues,,,,"Richard P. F. Holt, Steven Pressman, Clive L. Spash",2010,,Edward Elgar Publishing,,339,0,English,Экономика,,0,"1847206689,9781847206688",,,,,,,,,,,0,,,,,1,,T,3297710,pdf,603571E7C61B8EF99609D603271D6B57,,,,0,2000-01-01 01:00:00,2016-04-03 02:51:08,254000/603571e7c61b8ef99609d603271d6b57-d.jpg,,
5692251,Beginning Django E-Commerce,,,,James McGaw,2009,1,Apress,,409,0,English,Бизнес//Электронная коммерция,,0,"1430225351,9781430225355,9781430225362",,,,,,,,,,,0,,,,,,,T,4990684,pdf,5F6C13A4C225B94B0B7F207C4AB95AEC,,,,0,2000-01-01 01:00:00,2016-04-03 02:51:08,254000/5f6c13a4c225b94b0b7f207c4ab95aec-d.jpg,,
5692252,The FreeBSD Handbook,,,,Jim Mock,1999,1st,Walnut Creek CDROM,,650,0,English,,,0,"9781571762412,1571762418,1571763031",,,,,,,,,OL8732143M,,0,,,,,,,,4255550,pdf,5FBA1E82F826F2A631B8AEF1702C4BD5,,,,0,2000-01-01 01:00:00,2016-04-03 02:51:08,254000/5fba1e82f826f2a631b8aef1702c4bd5-d.jpg,,
5692249,Environmental Impact of Power Generation,,,,"R.M. Harrison, HESTER, HARRISON",1999,1,Royal Society of Chemistry,,141,0,English,Биология//Экология,,0,"9780854042500,0854042504",,,,,,,,,OL16966575M,,0,,,,,,,,2420446,pdf,5F23C646A7766EFE3096FF97784B4093,,,,0,2000-01-01 01:00:00,2016-04-03 02:51:08,254000/5f23c646a7766efe3096ff97784b4093-d.jpg,,
5692250,Solar and Stellar Activity Cycles,,Cambridge Astrophysics,,Peter R. Wilson,1994,,Cambridge University Press,,292,0,English,Физика//Астрономия//Астрофизика,,0,"9780521430814,9780511564833,0521548217,052143081X,051156483X,9780521548212",,,,,523.7,QB526.C9 W55 1994,,,OL1419799M,,300,,,,,1,,1,3028046,djvu,5F32024258CC8367468F2AD1322F0F41,,,,0,2000-01-01 01:00:00,2016-04-03 02:51:08,254000/5f32024258cc8367468f2ad1322f0f41-d.jpg,,
5692247,Probability and Random Processes,,Wiley Survival Guides in Engineering and Science,,Venkatarama Krishnan,2006,1,Wiley-Interscience,,740,0,English,Математика//Вероятность,,0,"0471703540,9780471703549,9780471998280",,,,,519.2,QA273 .K74 2006,,,OL22733892M,,0,,,,,1,,T,10482799,pdf,5F05ADFD716D3DEC42533BDDCEDDF521,,,,0,2000-01-01 01:00:00,2016-04-03 02:51:08,254000/5f05adfd716d3dec42533bddceddf521-d.jpg,,
5692248,Drupal 6 Performance Tips,,,,"Trevor James, T J Holowaychuk",2010,,Packt Publishing,,239,0,English,Компьютеры//Сети//Интернет,,0,"1847195849,9781847195845",,,,,,,,,,,0,,,,,,,T,7241249,pdf,5F0C166FC7F309A5A86BE082CBA743F0,,,,0,2000-01-01 01:00:00,2016-04-03 02:51:08,254000/5f0c166fc7f309a5a86be082cba743f0-d.jpg,,
5692244,Head First Web Design,,Head First  ,,"Ethan Watrall, Jeff Siarto",2008,1,O'Reilly Media,,462,0,English,Компьютеры//Сети//Интернет,,0,"0596520301,9780596520304",,,,,006.7,TK5105.888 .W3655 2009,,,OL23693538M,,0,,,,,,,0,42337924,pdf,5ECF44F52B8FE885462043B1EFC71E62,,,,0,2000-01-01 01:00:00,2016-04-03 02:51:08,254000/5ecf44f52b8fe885462043b1efc71e62-d.jpg,,
5692245,Mathematics for Engineers and Technologists,,IIE Core Textbooks Series,,"Huw Fox, W. Bolton",2002,,Butterworth-Heinemann,,344,0,English,Математика,,0,"9780750655446,0750655445",,,,,,,,,OL7972380M,,0,,,,,,,1,13116000,pdf,5EF1FCCE4DF8401B124B5E6FC190A50D,,,,0,2000-01-01 01:00:00,2016-04-03 02:51:08,254000/5ef1fcce4df8401b124b5e6fc190a50d-d.jpg,,
5692246,Professional Android 2 Application Development,,Wrox Programmer to Programmer,,Reto Meier,2010,1,Wrox,,580,0,English,Компьютеры,,0,"0470565527,9780470565520",,,,,,,,,,,0,,,,,,,,21079335,pdf,5F0217C832F5E742476DF1C7781474E8,,,,0,2000-01-01 01:00:00,2016-04-03 02:51:08,254000/5f0217c832f5e742476df1c7781474e8-d.jpg,,
5692242,Learning XNA 3.1,,,,Aaron Reed,2008,1,O'Reilly Media,,508,0,English,Образование,,0,"0596521952,9780596521950",,,,,,,,,,,0,,,,,,,T,6037079,pdf,5E4E08A8F2AB5A66741619EFD738EBFE,,,,0,2000-01-01 01:00:00,2016-04-03 02:51:08,254000/5e4e08a8f2ab5a66741619efd738ebfe-d.jpeg,,
5692243,Architecture of Concurrent Programs,,Prentice-Hall series in automatic computation,,Per Brinch Hansen,1977,,Prentice Hall,,329,0,English,Искусство//Архитектура,,0,"9780130446282,0130446289",,,,,001.6/424,QA76.73.C65 B73 1977,,,OL4538666M,,0,,,,,,,T,10708370,pdf,5E73F6D3A53C212AC33571166DEE66BE,,,,0,2000-01-01 01:00:00,2016-04-03 02:51:08,254000/5e73f6d3a53c212ac33571166dee66be-g.jpg,,
5692240,Law and Judicial Duty,,,,Philip Hamburger,2008,1,Harvard University Press,,705,0,English,Юридические науки//Право,ebook3000.com,0,"0674031318,9780674031319",,,,,347.73/12,KF4575 .H36 2008,,,OL16523569M,,0,,,,1,0,,1,2354621,pdf,5D5246C81606628F1FB1810E8126CE2A,,,,0,2000-01-01 01:00:00,2016-04-03 02:51:08,254000/5d5246c81606628f1fb1810e8126ce2a-d.jpg,,
5692241,Practical Web 2.0 Applications with PHP,,,,Quentin Zervaas,2007,1st ed. 2008. Corr 2nd printing,Apress,,592,0,English,Компьютеры//Сети//Интернет,,0,"9781590599068,1590599063,9781430204749,1430204745",,,,,,,,,OL12369525M,,0,,,,,,,,7017000,pdf,5DF97C8E4DB3D21EBF22C20909E6D00D,,,,0,2000-01-01 01:00:00,2016-04-03 02:51:08,254000/5df97c8e4db3d21ebf22c20909e6d00d-d.jpg,,
5692238,IDC Engineering Pocket Guide 3rd Edition,,,,S. G. Mackay,2001,,IDC Techbooks,,59,0,English,Техника,,0,"9781875955091,1875955097",,,,,,,,,OL12107109M,,0,,,,,,,,740840,pdf,5CA12FBDB00F3909E4A1A6C58162B884,,,,0,2000-01-01 01:00:00,2016-04-03 02:51:08,254000/5ca12fbdb00f3909e4a1a6c58162b884-g.jpg,,
5692239,"Brown-, Green- and Blue-Water Fleets: The Influence of Geography on Naval Warfare, 1861 to the Present",,,,"Michael Lindberg, Daniel Todd",2001,,Praeger,,249,0,English,География,ebook3000.com,0,"0275964868,9780275964863",,,,,,,,,OL9804202M,,0,,,,,1,,T,15218290,pdf,5CC3A5B4AD41553C2F4D9FB929CE5A08,,,,0,2000-01-01 01:00:00,2016-04-03 02:51:08,254000/5cc3a5b4ad41553c2f4d9fb929ce5a08-d.jpg,,
5692236,Cohort Analysis,,Quantitative Applications in the Social Sciences,,Dr. Norval D. Glenn,2005,2nd,"Sage Publications, Inc",,73,0,English,Математика//Анализ,ebook3000.com,0,"0761922156,9780761922155",,,,,,,,,OL8029070M,,0,,,,,1,,T,924372,pdf,5BF362363E692BDF6DCC7F9168482E3A,,,,0,2000-01-01 01:00:00,2016-04-03 02:51:08,254000/5bf362363e692bdf6dcc7f9168482e3a-d.jpg,,
5692237,CCNA Wireless Official Exam Certification Guide  (CCNA IUWNE 640-721),,CCNA IUWNE 640-721 ,,Brandon James Carroll,2008,1,Cisco Press,,505,0,English,Компьютеры//Сети,,0,"9781587202117,1587202115",,,,,004.6/8076,TK5105.78 C37 2009,,,OL22514697M,,0,,,,,,,,43190235,pdf,5C85E6ADCEEDF988A6B4E306F4FD8051,,,,0,2000-01-01 01:00:00,2016-04-03 02:51:08,254000/5c85e6adceedf988a6b4e306f4fd8051-d.jpg,,
5692233,XML и SOAP программирование для серверов BizTalk,,,,Брайан Трэвис,,,Русская Редакция,,497,0,Russian,Компьютеры//Web-дизайн,,0,5-7502-0129-5,,,,,,,,,,,0,,,,,,,T,47173571,pdf,5B8F3FEBF404EFCA035E6CC19802763D,,,,0,2000-01-01 01:00:00,2016-04-03 02:51:08,254000/5b8f3febf404efca035e6cc19802763d-g.jpg,,
5692234,Romantics at War: Glory and Guilt in the Age of Terrorism,,,,George P. Fletcher,2002,,Princeton University Press,,270,0,English,Юридические науки//Право,ebook3000.com,0,"0691006512,9780691006512",,,,,,,,,OL7756040M,,0,,,,1,0,,1,1260824,pdf,5BB750CFDFB06E00C9FD3A0EEFD7936B,,,,0,2000-01-01 01:00:00,2016-04-03 02:51:08,254000/5bb750cfdfb06e00c9fd3a0eefd7936b-d.jpg,,
5692235,Mac OS X Snow Leopard Pocket Guide: The Ultimate Quick Guide to Mac OS X,,Pocket ref / guide,,Chris Seibold,2009,1,O'Reilly Media,,234,0,English,Компьютеры//Операционные системы,,0,"0596802722,9780596802721",,,,,,,,,,,0,,,,,,,T,4175787,pdf,5BBE4BDB815768B7AE4B96695DC89DB1,,,,0,2000-01-01 01:00:00,2016-04-03 02:51:08,254000/5bbe4bdb815768b7ae4b96695dc89db1-d.jpg,,
5692231,Frommer's Nicaragua and El Salvador (Frommer's Complete),,Frommer's Nicaragua & El Salvador ,,Charlie O'Malley,2009,1,Frommers,,388,0,English,География,,0,"0470160276,9780470160275",,,,,,,,,,,0,,,,,1,,T,7261655,pdf,5A6001A47B6CC37DA48B33655CB76459,,,,0,2000-01-01 01:00:00,2016-04-03 02:51:08,254000/5a6001a47b6cc37da48b33655cb76459-d.jpg,,
5692232,iPod: The Missing Manual,,,,"J D Biersdorfer J.D., David Pogue",2009,8,O'Reilly Media,,302,0,English,,,0,"0596804318,9780596804312",,,,,006.5,ML74.4.I48 B54 2010,,,OL24472908M,,0,,,,,,,T,9709754,pdf,5B5A281655E1C925B524B59635EE842E,,,,0,2000-01-01 01:00:00,2016-04-03 02:51:08,254000/5b5a281655e1c925b524b59635ee842e-d.jpg,,
5692230,Essential Facebook Development: Build Successful Applications for the Facebook Platform,,,,"John J. Maver, Cappy Popp",2009,1,Addison-Wesley Professional,,481,0,English,,,0,"9780321637987,0321637984",,,,,006.7/54,HM742 .M38 2010,,,OL23724904M,,0,,,,,,,T,11591901,pdf,5A4B8D3B55386FA0CB14EF372246B7C4,,,,0,2000-01-01 01:00:00,2016-04-03 02:51:08,254000/5a4b8d3b55386fa0cb14ef372246b7c4-d.jpg,,
5692228,Computer Security Handbook,,,,"Seymour Bosworth, Michel E. Kabay",2002,4,Wiley,,1224,0,English,Компьютеры,ebook3000.com,0,"9780471412588,0471412589",,,,,,,,,OL3582769M,,0,,,,,,,,13122154,pdf,59922146CD0C7BA81E404DA2CE80CE30,,,,0,2000-01-01 01:00:00,2016-04-03 02:51:08,254000/59922146cd0c7ba81e404da2ce80ce30-d.jpg,,
5692229,Build a Website for Free,,,,Mark Bell,2009,1,Que,,352,0,English,Компьютеры//Сети//Интернет,,0,"9780789739216,0789739216",,,,,006.7,TK5105.888 .B449 2009,,,OL22853249M,,0,,,,,,,,13171539,pdf,59B1278E386301721ACF2A4368660CF8,,,,0,2000-01-01 01:00:00,2016-04-03 02:51:08,254000/59b1278e386301721acf2a4368660cf8-d.jpg,,
5692226,Frommer's Panama (Frommer's Complete),,Frommer's Complete ,,Jisel Perilla,2008,2,Frommers,,356,0,English,География,,0,"0470371838,9780470371831",,,,,917,F,,,OL23113947M,,0,,,,,1,,T,34738581,pdf,5870497F11C90CBACC634FB9244330A3,,,,0,2000-01-01 01:00:00,2016-04-03 02:51:08,254000/5870497f11c90cbacc634fb9244330a3-d.jpg,,
5692227,"The American Civil War and Reconstruction: People, Politics, and Power",,America at War,,Jeff Wallenfeldt,2009,1,Rosen Education Service,,263,0,English,Образование,ebook3000.com,0,"1615300074,9781615300075",,,,,973.7,E464 .A44 2010,,,OL23687946M,,0,,,,,1,,T,6549809,pdf,5986DA55564EFDC28C5E705144C1622B,,,,0,2000-01-01 01:00:00,2016-04-03 02:51:08,254000/5986da55564efdc28c5e705144c1622b-d.jpg,,
5692224,Brownfields: Redeveloping Environmentally Distressed Properties,,,,"Harold J. Rafson, Robert N. Rafson",1999,1,McGraw-Hill Professional,,339,0,English,Биология//Экология,,0,"9780070527683,0070527687",,,,,363.739/66/0977311,HD257.5 .B76 1999,,,OL6809072M,,0,,,,,,,,2317098,pdf,5775E0AF32C4464A3319EFFB8D666F2E,,,,0,2000-01-01 01:00:00,2016-04-03 02:51:08,254000/5775e0af32c4464a3319effb8d666f2e-d.jpg,,
5692225,This Time The World,,,,George Lincoln Rockwell,2004,,Liberty Bell Publications,,198,0,English,,ebook3000.com,0,"1593640145,9781593640149",,,,,,,,,OL9660875M,,0,,,,,1,,,1075622,pdf,578BCC7CEC52BFDEC56478CC7AA25BD1,,,,0,2000-01-01 01:00:00,2016-04-03 02:51:08,254000/578bcc7cec52bfdec56478cc7aa25bd1-d.jpg,,
5692223,Styling Web Pages with CSS: Visual QuickProject Guide,,,,"Tom Negrino, Dori Smith",2009,1,Peachpit Press,,145,0,English,Компьютеры//Сети//Интернет,,0,"9780321555571,0321555570",,,,,006.7,TK5105.888 .N44 2009,,,OL23954577M,,0,,,,,,,T,5339548,pdf,5736EC0C1644C2846C40333F71BC40F7,,,,0,2000-01-01 01:00:00,2016-04-03 02:51:08,254000/5736ec0c1644c2846c40333f71bc40f7-d.jpg,,
5692221,Wireless Ad Hoc and Sensor Networks: Theory and Applications,,,,Xiang-Yang Li,2008,,Cambridge University Press,,614,0,English,Компьютеры//Сети,ebook3000.com,0,"0521865239,9780521865234,9780511424243",,,,,621.384,TK5103.2 .L546 2008,,,OL10437667M,,0,,,,,1,,T,5916237,pdf,56F8EC35C017628531799B6ED8F0451C,,,,0,2000-01-01 01:00:00,2016-04-03 02:51:08,254000/56f8ec35c017628531799b6ed8f0451c-d.jpg,,
5692222,Ultra-Fast ASP.NET: Build Ultra-Fast and Ultra-Scalable web sites using ASP.NET and SQL Server,,,,Richard Kiessig,2009,1,Apress,,488,0,English,Компьютеры//Сети//Интернет,,0,"1430223839,9781430223832",,,,,005.2/76,TK5105.8885.A26 K56 2009,,,OL24823976M,,0,,,,,,,1,5183338,pdf,56FE8627013FBAB6B745846AAFAD7B32,,,,0,2000-01-01 01:00:00,2016-04-03 02:51:08,254000/56fe8627013fbab6b745846aafad7b32-d.jpg,,
5692219,Mac OS X Hacks: 100 Industrial-Strength Tips & Tricks,,,,"Rael Dornfest, Kevin Hemenway",2003,1,O'Reilly Media,,527,0,English,Компьютеры//Безопасность,,0,"9780596004606,0596004605",,,,,005.4/465,QA76.76.O63 D675 2003,,,OL17087011M,,0,,,,,,,T,10029322,pdf,56EC938DCC7B85EF82866A78DC40CA38,,,,0,2000-01-01 01:00:00,2016-04-03 02:51:08,254000/56ec938dcc7b85ef82866a78dc40ca38-d.jpg,,
5692220,"Frommer's Washington, D.C. 2010",,Frommer's Complete,,Elise H. Ford,2009,Pap/Map,Frommers,,324,0,English,География,,0,"0470475463,9780470475461",,,,,,,,,,,0,,,,,1,,,6620029,pdf,56F09421E486D09997C7D10F4DD81F4A,,,,0,2000-01-01 01:00:00,2016-04-03 02:51:08,254000/56f09421e486d09997c7d10f4dd81f4a-d.jpg ,,
5692217,Washing in Water,,Sbl - Academia Biblica,,"Lawrence, J.",2007,illustrated edition,BRILL,,315,0,English,Техника//Водоочистка,,0,"9004146709,9789004146709",,,,,,,,,OL9085339M,,0,,,,,,,T,11556823,pdf,5679050CA12E6D70143ECC1AE43BC03E,,,,0,2000-01-01 01:00:00,2016-04-03 02:51:08,254000/5679050ca12e6d70143ecc1ae43bc03e-d.jpg,,
5692218,Practical Reporting with Ruby and Rails,,Expert's Voice in Open Source,,David Berube,2008,1,Apress,,313,0,English,Компьютеры//Программирование,,0,"1590599330,9781590599334",,,,,,,,,OL12369545M,,0,,,,,,,T,4012065,pdf,5684350FB146436A539027A8ED723179,,,,0,2000-01-01 01:00:00,2016-04-03 02:51:08,254000/5684350fb146436a539027a8ed723179-d.jpg,,
5692215,"Unlocking Your Creative Power: How to Use Your Imagination to Brighten Life, to Get Ahead",,,,Alex Osborn,2008,abridged edition,Hamilton Books,,143,0,English,Образование,ebook3000.com,0,"0761847006,9780761847007,9780761846260",,,,,,,,,OL24320148M,,0,,,,,,,T,1243534,pdf,55F601AABFF6B5133FDE121EA4C48BBF,,,,0,2000-01-01 01:00:00,2016-04-03 02:51:08,254000/55f601aabff6b5133fde121ea4c48bbf-d.jpg,,
5692216,"Inductive Dependency Parsing (Text, Speech and Language Technology)",,"Text, Speech and Language Technology ",,Joakim Nivre,2006,1,Springer,,224,0,English,,ebook3000.com,0,"1402048882,9781402048883,1402048890,9781402048890",,,,,,,,,OL8372024M,,0,,,,,,,T,16051137,pdf,5654C080EE41038BDA747366EAA3BFF6,,,,0,2000-01-01 01:00:00,2016-04-03 02:51:08,254000/5654c080ee41038bda747366eaa3bff6-d.jpg,,
5692214,Practical DWR 2 Projects,,Expert's Voice in Java,,Frank Zammetti,2008,1,Apress,,568,0,English,Компьютеры//Сети//Интернет,,0,"9781590599419,1590599411,9781430205562,1430205563",,,,,,,,,OL12369553M,,0,,,,,,,T,14454832,pdf,55E128440D83BD51EB6F7C1F3B957870,,,,0,2000-01-01 01:00:00,2016-04-03 02:51:08,254000/55e128440d83bd51eb6f7c1f3b957870-d.jpg,,
5692212,A Home in the City (UN Millennium Project),,UN Millennium Project ,,United Nations,2005,illustrated edition,"Un Millennium Project,Un Develpmnt Prgrm",,184,0,English,Техника//Строительство,ebook3000.com,0,"1844072304,9781844072309",,,,,307.3/364,HV4173 .H66 2005,,,OL22626321M,,0,,,,,,,1,1700497,pdf,55C5543672FF72EE622B63B048F32D30,,,,0,2000-01-01 01:00:00,2016-04-03 02:51:08,254000/55c5543672ff72ee622b63b048f32d30-d.jpg,,
5692213,Joomla! 1.5 Template Design,,,,Tessa Blakeley Silver,2009,2nd edition,Packt Publishing,,283,0,English,Компьютеры//Web-дизайн,,0,"1847197167,9781847197160",,,,,,,,,,,0,,,,,,,T,10489575,pdf,55C97FCC4192397D532F903D00F6D027,,,,0,2000-01-01 01:00:00,2016-04-03 02:51:08,254000/55c97fcc4192397d532f903d00f6d027-d.jpg,,
5692210,A History of Telegraphy: Its History and Technology,,I E E History of Technology Series,,K. G. Beauchamp,2001,,Institution of Engineering and Technology,,439,0,English,История,ebook3000.com,0,"9780852967928,0852967926",,,,,621.38309,TK5115 .B43 2001,,,OL3379034M,,0,,,,,1,,T,4162521,pdf,55782194B32F7AF85BF1523D0C1CC07A,,,,0,2000-01-01 01:00:00,2016-04-03 02:51:08,254000/55782194b32f7af85bf1523d0c1cc07a-d.jpg,,
5692211,Shaders for Game Programmers and Artists (Premier Press Game Development),,Premier Press Game Development ,,Sebastien St-Laurent,2004,1,Course Technology PTR,,513,0,English,,,0,"9781592000920,1592000924",,,,,,,,,OL22179291M,,0,,,,,,,T,10145554,pdf,55BFC4111B2843EF07254F882AB79AD0,,,,0,2000-01-01 01:00:00,2016-04-03 02:51:08,254000/55bfc4111b2843ef07254f882ab79ad0-d.jpg,,
5692208,The Encyclopaedia Metallica,,,,"Malcolm Dome, Jerry Ewing",2007,,Chrome Dreams,,289,0,English,Техника//Металлургия,ebook3000.com,0,"1842404032,9781842404034",,,,,,,,,OL11899951M,,0,,,,,1,,T,18477076,pdf,54A96DD51B434D085809AC64158B66C9,,,,0,2000-01-01 01:00:00,2016-04-03 02:51:08,254000/54a96dd51b434d085809ac64158b66c9-d.jpg,,
5692209,"HTML & XHTML Pocket Reference: Quick, Comprehensive, Indispensible",,Pocket Reference (O'Reilly),,Jennifer Niederst Robbins,2009,Fourth Edition,O'Reilly Media,,192,0,English,,,0,"0596805861,9780596805869",,,,,,,,,,,0,,,,,1,,T,2469399,pdf,54E582DDE0B9C07E38B91683F95F116A,,,,0,2000-01-01 01:00:00,2016-04-03 02:51:08,254000/54e582dde0b9c07e38b91683f95f116a-d.jpg,,
5692206,Rigorous Quantum Field Theory: A Festschrift for Jacques Bros,,Progress in Mathematics,,"Anne Boutet de Monvel, Detlev Buchholz, Daniel Iagolnitzer, Ugo Moschella",2006,1,Birkhäuser Basel,,323,0,English,Физика//Квантовая физика,ebook3000.com,0,"3764374330,9783764374334",,,,,,,,,OL9091022M,,0,,,,,,,T,11921559,pdf,5414BAB456F0E55D7C18DAFFE06D21E8,,,,0,2000-01-01 01:00:00,2016-04-03 02:51:08,254000/5414bab456f0e55d7c18daffe06d21e8-d.jpg,,
5692207,Methane Gas Hydrate,,Green Energy and Technology,,Ayhan Demirbas,2010,1st Edition.,Springer,,192,0,English,Техника//Топливные технологии,,0,"1848828713,9781848828711,9781848828728",,,,,,,,,,,0,,,,,1,,,1721782,pdf,5415673C064BD0027B726D2FE1D025DB,,,,0,2000-01-01 01:00:00,2016-04-03 02:51:08,254000/5415673c064bd0027b726d2fe1d025db-d.jpg,,
5692204,GlassFish Administration,,,,Xuekun Kou,2010,,Packt Publishing,,283,0,English,Компьютеры//Системное администрирование,,0,"1847196500,9781847196507",,,,,,,,,,,0,,,,,,,T,4332681,pdf,53A1D91D4B81A7972245735B65DC44E2,,,,0,2000-01-01 01:00:00,2016-04-03 02:51:08,254000/53a1d91d4b81a7972245735b65dc44e2-d.jpg,,
5692205,Practical JRuby on Rails Web 2.0 Projects: Bringing Ruby on Rails to Java (Expert's Voice in Java),,Expert's Voice in Java ,,Ola Bini,2007,1,Apress,,360,0,English,Компьютеры//Сети//Интернет,,0,"9781590598818,1590598814",,,,,,,,,OL12369514M,,0,,,,,,,T,1933391,pdf,53E6708754A7990B746FCC1E38CD7526,,,,0,2000-01-01 01:00:00,2016-04-03 02:51:08,254000/53e6708754a7990b746fcc1e38cd7526-d.jpg,,
5692202,The Definitive Guide to CentOS,,,,"Peter Membrey, Tim Verhoeven, Ralph Angenendt",2009,1,Apress,,353,0,English,,,0,"1430219300,9781430219309,9781430219316",,,,,005.4/32,QA76.76.O63 M436 2009,,,OL25044962M,,0,,,,,,,T,11425594,pdf,537DBE1C50D84A3AE9190779BC75AAED,,,,0,2000-01-01 01:00:00,2016-04-03 02:51:08,254000/537dbe1c50d84a3ae9190779bc75aaed-d.jpg,,
5692203,SPSS Survival Manual: A Step By Step Guide to Data Analysis Using SPSS for Windows (Version 10),,,,Julie Pallant,2001,1,Open University Press,,295,0,English,Компьютеры//Организация и обработка данных,,0,"9780335208906,0335208908",,,,,,,,,OL19150861M,,0,,,,,,,,30628505,pdf,538F94ECD19C03A2EC23C0445D3465BA,,,,0,2000-01-01 01:00:00,2016-04-03 02:51:08,254000/538f94ecd19c03a2ec23c0445d3465ba-d.jpg,,
5692200,Algorithms for Next Generation Networks,,Computer Communications and Networks,,"Graham Cormode, Marina Thottan",2010,1st Edition.,Springer,,469,0,English,Компьютеры//Алгоритмы и структуры данных,,0,"1848827644,9781848827646,9781848827653",,,,,,,,,OL24808273M,,0,,,,,,,T,7490822,pdf,52B59D9FC94D27FE214ECBB8CD1044CB,,,,0,2000-01-01 01:00:00,2016-04-03 02:51:08,254000/52b59d9fc94d27fe214ecbb8cd1044cb-d.jpg,,
5692201,.NET Enterprise Design with Visual Basic .NET and SQL Server 2000,,,,Jimmy Nilsson,2001,,Sams,,211,0,English,Компьютеры//Информационные системы//ИС предприятий,ebook3000.com,0,"9780672322334,0672322331",,,,,005.13/3,QA76.73.C154 F69 2002,,,OL24963785M,,0,,,,,,,,16608532,pdf,5318E16359F95EF7F125ED44F9C5206D,,,,0,2000-01-01 01:00:00,2016-04-03 02:51:08,254000/5318e16359f95ef7f125ed44f9c5206d-d.jpg,,
5692199,Real World Adobe Illustrator CS3,,,,Mordy Golding,2007,1st,Peachpit Press,,147,0,English,Компьютеры//Программы//Продукты Adobe,ebook3000.com,0,"9780321496218,0321496213",,,,,006.6869,T385 .G39327 2007,,,OL18841370M,,0,,,,,,,,40334320,pdf,52708CDA8570F6C254BE83E28F431011,,,,0,2000-01-01 01:00:00,2016-04-03 02:51:08,254000/52708cda8570f6c254be83e28f431011-d.jpg,,
5692197,"Storage Networks Explained: Basics and Application of Fibre Channel SAN, NAS, iSCSI,InfiniBand and FCoE",,,,"Ulf Troppens, Rainer Erkens, Wolfgang Mueller-Friedt, Rainer Wolafka, Nils Haustein",2009,2,Wiley,,602,0,English,Компьютеры//Сети,,0,"9780470741436,389864135X",,,,,004.6,TK5105.86 .T78 2009,,,OL23207588M,,0,,,,,,,T,7639392,pdf,51E2A3652E93AACFFF7AAA9781374753,,,,0,2000-01-01 01:00:00,2016-04-03 02:51:08,254000/51e2a3652e93aacfff7aaa9781374753-d.jpg,,
5692198,"The Works of Thomas Traherne I: Inducements to Retiredness, a Sober View of Dr Twisses His Considerations, Seeds of Eternity or the Nature of the Soul, the Kingdom of God",,,,"Jan Ross, Jan Ross",2005,,D.S.Brewer,,596,0,English,Наука (общее)//Научно-популярное,ebook3000.com,0,"9781843840374,1843840375",,,,,821/.4,PR3736.T7 A125 2005,,,OL22617512M,,0,,,,,,,T,5467430,pdf,526791DCCA33C6C8B30440485C465B50,,,,0,2000-01-01 01:00:00,2016-04-03 02:51:08,254000/526791dcca33c6c8b30440485c465b50-d.jpg,,
5692196,Managing Translation Services,,Topics in Translation,,Geoffrey Samuelsson-Brown,2006,,Multilingual Matters,,179,0,English,Бизнес//Менеджмент//Управление проектами,,0,"9781853599149,185359914X,1853599131,9781853599132",,,,,,,,,OL8980227M,,0,,,,,,,T,1609297,pdf,51C62D9326C611D82152E6948C03F1B4,,,,0,2000-01-01 01:00:00,2016-04-03 02:51:08,254000/51c62d9326c611d82152e6948c03f1b4-d.jpg,,
5692195,Check Point NG VPN-1/Firewall-1: Advanced Configuration and Troubleshooting,,,,"Barry J. Stiefel, Doug Maxwell, Kyle X. Hourihan, Cherie Amon, James Noble",2003,1,Syngress,,641,0,English,Компьютеры//Системное администрирование,,0,"9781931836975,1931836973,1928994741,1931836566,1931836701",,,,,005.8,QA76.9.A25 C44 2002,,,OL24942317M,,0,,,,,,,T,12320862,pdf,51B1B9D18AEC8FAC5040CA5D3F3BECB3,,,,0,2000-01-01 01:00:00,2016-04-03 02:51:08,254000/51b1b9d18aec8fac5040ca5d3f3becb3-d.jpg,,
5692193,Ultra-Wideband Wireless Communications and Networks,,,,"Xuemin Shen, Mohsen Guizani, Robert Caiming Qiu, Tho Le-Ngoc",2006,1,Wiley,,317,0,English,Техника//Электроника//Телекоммуникации,ebook3000.com,0,"0470011440,9780470011447",,,,,621.384,TK5103.4 .U48 2006,,,OL3413232M,,0,,,,,,,T,11637496,pdf,5100B84E150298306FF82100C1D399C8,,,,0,2000-01-01 01:00:00,2016-04-03 02:51:08,254000/5100b84e150298306ff82100c1d399c8-d.jpg,,
5692194,"WiMAX: Technologies, Performance Analysis, and QoS",,WiMAX Handbook,,"Syed A. Ahson, Mohammad Ilyas",2007,1,CRC Press,,296,0,English,Математика//Анализ,,0,"9781420045253,1420045253",,,,,621.384,TK5103.2 .A43215 2008,,,OL17256103M,,0,,,,,,,T,4175565,pdf,5114126EAC9CF268D461CAB724721A1B,,,,0,2000-01-01 01:00:00,2016-04-03 02:51:08,254000/5114126eac9cf268d461cab724721a1b-d.jpg,,
5692191,Enantiomer Separation: Fundamentals and Practical Methods,,Subcellular Biochemistry,,Fumio Toda,2005,1,Springer,,334,0,English,Химия,,0,"9781402023361,1402023367,1402023375",,,,,547/.2,QD262 .P68 2004,,,OL18506229M,,0,0,0,,,,,T,23605175,pdf,50637EAC9C62C92548181B33509F55E1,,,,0,2000-01-01 01:00:00,2016-04-03 02:51:08,254000/50637eac9c62c92548181b33509f55e1-d.jpg,,
5692192,Head First C#,,,,"Andrew Stellman, Jennifer Greene",2007,illustrated edition,O'Reilly Media,,765,0,English,Компьютеры//Программирование//Языки программирования,,0,"0596514824,9780596514822",,,,,005.13/3,QA76.73.C154 S73 2008,,,OL23088570M,,0,,,,,,,T,65418506,pdf,50924640D1B3A42CFE6ACC90F6F21FFD,,,,0,2000-01-01 01:00:00,2016-04-03 02:51:08,254000/50924640d1b3a42cfe6acc90f6f21ffd-d.jpg,,
5692190,Embedded Linux Primer: A Practical Real-World Approach,,,,Christopher Hallinan,2006,1,Prentice Hall,,542,0,English,Компьютеры//Операционные системы,,0,"0131679848,9780131679849,2006012886,0131492470,0132216353,0131963694",,,,,,,,,OL17207531M,,0,,,,,,,T,5046688,pdf,501695BE171F31BB1C327487CF0CD783,,,,0,2000-01-01 01:00:00,2016-04-03 02:51:08,254000/501695be171f31bb1c327487cf0cd783-d.jpg,,
5692188,Hello! Flex 4,,,,Peter Armstrong,2009,1,Manning Publications,,234,0,English,Языкознание,,0,"1933988762,9781933988764",,,,,,,,,,,0,,,,,,,1,7332781,pdf,4EF1B377EBD801E1592D2A5C5F0DBBE5,,,,0,2000-01-01 01:00:00,2016-04-03 02:51:08,254000/4ef1b377ebd801e1592d2a5c5f0dbbe5-d.jpg,,
5692189,ASP.NET 3.5 Website Programming: Problem - Design - Solution,,Wrox Programmer to Programmer,,Chris Love,2009,,Wrox,,652,0,English,Компьютеры//Сети//Интернет,,0,"0470187581,9780470187586",,,,,,,,,,,0,,,,,,,T,7964849,pdf,4F2F5A188D1F7D775E2B1298A91CAF3A,,,,0,2000-01-01 01:00:00,2016-04-03 02:51:08,254000/4f2f5a188d1f7d775e2b1298a91caf3a-d.jpg,,
5692186,Introduction to Dynamic Modeling of Neuro-Sensory Systems,,Biomedical Engineering,,Robert B. Northrop,2000,1,CRC Press,,477,0,English,Математика//Динамические системы,,0,"9780849308147,0849308143",,,,,,,,,OL17018446M,,0,,,,,,,,12664844,pdf,4E746DE984ED9035FDA481A3641707A4,,,,0,2000-01-01 01:00:00,2016-04-03 02:51:08,254000/4e746de984ed9035fda481a3641707a4-d.jpg,,
5692187,A Concise Coptic-English Lexicon,,Resources for Biblical Study,,Richard Smith,1999,2nd,Scholars Press,,76,0,English,Физика//Оптика,ebook3000.com,0,"9780788505614,0788505610",,,,,493/.2321,PJ2181 .S63 1999,,,OL39083M,,0,,,,,,,T,11221759,pdf,4ED529506641CA93E811F73726384F2F,,,,0,2000-01-01 01:00:00,2016-04-03 02:51:08,254000/4ed529506641ca93e811f73726384f2f-g.jpg,,
5692184,IEEE Standard for Software Maintenance,,,,,1998,Revised,Inst of Elect & Electronic,,52,0,English,Computer science,,0,"9780738103365,0738103365",,,,,,,,,OL10605078M,,0,,,,,,,,528943,pdf,4DFADDF9B0159A95B86CD43F8B5EF6A7,,,,0,2000-01-01 01:00:00,2016-04-03 02:51:08,254000/4dfaddf9b0159a95b86cd43f8b5ef6a7-g.jpg,,
5692185,"The Unofficial Guide to Washington, D.C. (Unofficial Guides)",,Unofficial Guides ,,"Joe Surkiewicz, Eve Zibart",2005,8,Wiley,,436,0,English,,ebook3000.com,0,"9780764575570,0764575570",,,,,,,,,OL8051608M,,0,,,,,,,T,20130465,pdf,4E3C500C4717029244691449D5EED476,,,,0,2000-01-01 01:00:00,2016-04-03 02:51:08,254000/4e3c500c4717029244691449d5eed476-d.jpg,,
5692182,Pro Java ME MMAPI: Mobile Media API for Java Micro Edition,,,,Vikram Goyal,2006,1,Apress,,286,0,English,Компьютеры//Программирование//Языки программирования,ebook3000.com,0,"9781590596395,1590596390",,,,,,,,,OL8848867M,,0,,,,,,,T,10962251,pdf,4D1D0225ECA07C6CD08629A42CB9E873,,,,0,2000-01-01 01:00:00,2016-04-03 02:51:08,254000/4d1d0225eca07c6cd08629a42cb9e873-d.jpg,,
5692183,Practical Computer Analysis of Switch Mode Power Supplies,,,,Johnny C. Bennett,2005,1,CRC Press,,261,0,English,Компьютеры,,0,"0824753879,9780824753870",,,,,,,,,OL8125748M,,0,,,,,,,T,7393984,pdf,4D5183579289C38BFF4D75826A7C2BAD,,,,0,2000-01-01 01:00:00,2016-04-03 02:51:08,254000/4d5183579289c38bff4d75826a7c2bad-d.jpg,,
5692180,Sams Teach Yourself Drupal in 24 Hours,,,,Jesse Feiler,2009,1,Sams,,457,0,English,Образование//Самоучители,,0,"9780672331268,0672331268",,,,,006.7,TK5105.8885.D78 F45 2010,,,OL23861877M,,0,,,,,,,,52856452,pdf,4C9A5EF85449724E2074FF64BCAB2016,,,,0,2000-01-01 01:00:00,2016-04-03 02:51:08,254000/4c9a5ef85449724e2074ff64bcab2016-d.jpg,,
5692181,Campus Network Design Fundamentals,,,,"Diane Teare, Catherine Paquet",2005,,Cisco Press,,359,0,English,Компьютеры//Сети,,0,"9781587052224,1587052229",,,,,,,,,OL8822260M,,0,,,,,,,T,3875453,pdf,4CF0A7A13C43DEB48FF2DEF9DA784220,,,,0,2000-01-01 01:00:00,2016-04-03 02:51:08,254000/4cf0a7a13c43deb48ff2def9da784220-d.jpg,,
5692178,CentOS Bible,,,,"Christopher Negus, Timothy Boronczyk",2009,1,Wiley,,983,0,English,,,0,"047048165X,9780470481653",,,,,,,,,,,0,,,,,1,,T,19120381,pdf,4C5A25572458A9597E3D675C88AD8060,,,,0,2000-01-01 01:00:00,2016-04-03 02:51:08,254000/4c5a25572458a9597e3d675c88ad8060-d.jpg,,
5692179,Todd Lammle's CCNA IOS Commands Survival Guide,,,,Todd Lammle,2007,,Sybex,,315,0,English,Наука (общее)//Научно-популярное,,0,"0470175605,9780470175606",,,,,004.6076,TK5105.5 .L356 2008,,,OL23115643M,,0,,,,,,,T,7527101,pdf,4C9353ADB117A05D3F533D8F9D094DD8,,,,0,2000-01-01 01:00:00,2016-04-03 02:51:08,254000/4c9353adb117a05d3f533d8f9d094dd8-d.jpg,,
5692176,Beginning Perl,,,,"Simon Cozens, Peter Wainwright",2000,1st,Wrox Press,,672,0,English,Компьютеры//Программирование//Языки программирования,,0,"9781861003140,1861003145",,,,,005.13/3,QA76.73.P22 C385 2000,,,OL3600016M,,0,,,,,,,T,11511938,pdf,4C2AD5B0524E12482ADE2741982F0785,,,,0,2000-01-01 01:00:00,2016-04-03 02:51:08,254000/4c2ad5b0524e12482ade2741982f0785-d.jpg,,
5692177,Human Resource Transformation: Demonstrating Strategic Leadership in the Face of Future Trends,,,,"William J. Rothwell, Robert K. Prescott, Maria W. Taylor",2008,,Nicholas Brealey Boston,,249,0,English,,ebook3000.com,0,"0891062513,9780891062516",,,,,,,,,OL11274587M,,0,,,,,1,,T,2311934,pdf,4C42773FDBD50DB1589F9996C88F3D60,,,,0,2000-01-01 01:00:00,2016-04-03 02:51:08,254000/4c42773fdbd50db1589f9996c88f3d60-d.jpg,,
5692174,AI Techniques for Game Programming,,The Premier Press Game Development Series,,Mat Buckland,2002,1,Course Technology PTR,,481,0,English,Компьютеры//Программирование,,0,"9781931841085,193184108X",,,,,,,,,OL3573879M,,0,,,,,,,T,11610371,pdf,4BF55BEA1426DD9A8788D37E141C62AB,,,,0,2000-01-01 01:00:00,2016-04-03 02:51:08,254000/4bf55bea1426dd9a8788d37e141c62ab-d.jpg,,
5692175,Pluggable Authentication Modules: The Definitive Guide to PAM for Linux SysAdmins and C Developers: A comprehensive and practical guide to PAM for Linux: how modules work and how to implement them,,,,Kenneth Geisshirt,2007,,Packt Publishing,,118,0,English,Образование,,0,"1904811329,9781904811329",,,,,,,,,OL8773697M,,0,,,,,,,T,2698085,pdf,4C171080FEAD71EEF4F1782542FD61D1,,,,0,2000-01-01 01:00:00,2016-04-03 02:51:08,254000/4c171080fead71eef4f1782542fd61d1-d.jpg,,
5692172,PHP 5 E-commerce Development,,,,Michael Peacock,2010,,Packt Publishing,,356,0,English,Компьютеры//Программирование//Языки программирования,,0,"184719964X,9781847199645",,,,,,,,,,,0,,,,,,,T,3127841,pdf,4B7923D521240E2B76A61A2D63E93F23,,,,0,2000-01-01 01:00:00,2016-04-03 02:51:08,254000/4b7923d521240e2b76a61a2d63e93f23-d.jpg,,
5692173,Ruling America: A History of Wealth and Power in a Democracy,,,,"Steve Fraser, Gary Gerstle",2005,,Harvard University Press,,379,0,English,История,ebook3000.com,0,"9780674016958,0674016955,0674017471",,,,,,,,,OL17149798M,,0,,,,,,,T,1416179,pdf,4B7F6B6A1A1276E6591200A04464618E,,,,0,2000-01-01 01:00:00,2016-04-03 02:51:08,254000/4b7f6b6a1a1276e6591200a04464618e-d.jpg,,
5692171,Head First Servlets and JSP: Passing the Sun Certified Web Component Developer Exam,,,,"Bryan Basham, Kathy Sierra, Bert Bates",2008,2,O'Reilly Media,,913,0,English,Компьютеры//Сети//Интернет,,0,"0596516681,9780596516680",,,,,005.2762,,,,OL10781035M,,0,,,,,,,T,41788332,pdf,4B60F51F35185D05B11467E71A06E53D,,,,0,2000-01-01 01:00:00,2016-04-03 02:51:08,254000/4b60f51f35185d05b11467e71a06e53d-d.jpg,,
5692170,Artificial Mind System: Kernel Memory Approach,,Studies in Computational Intelligence,,Tetsuya Hoya,2005,1,Springer,,288,0,English,Компьютеры//Кибернетика//Искусственный интеллект,,0,"3540260722,9783540260721",,,,,,,,,OL9055604M,,0,,,,,,,T,16133449,pdf,4B094BB5E3EEEE570C026F32F8BC8A28,,,,0,2000-01-01 01:00:00,2016-04-03 02:51:08,254000/4b094bb5e3eeee570c026f32f8bc8a28-d.jpg,,
5692167,CCNA Voice Official Exam Certification Guide (640-460 IIUC),,,,"Jeremy Cioara, Michael J. Cavanaugh, Kris A. Krake",2008,1 Har/Cdr,Cisco Press,,577,0,German,Компьютеры//Сети,,0,"9781587202070,1587202077",,,,,004.69/5076,TK5105.8865 .C56 2008,,,OL22529188M,,0,,,,,,,,26527898,pdf,49F6D2AE84E86358843231337E35E6B8,,,,0,2000-01-01 01:00:00,2016-04-03 02:51:08,254000/49f6d2ae84e86358843231337e35e6b8-d.jpg,,
5692168,"Decent People, Decent Company: How to Lead With Character at Work and in Life",,,,"Robert L. Turknett, Carolyn N. Turknett",2004,,Nicholas Brealey Boston,,224,0,English,Образование,ebook3000.com,0,"0891062068,9780891062066",,,,,,,,,OL8218542M,,0,,,,,1,,T,1205504,pdf,4A11DCB771FAFAF157C269C01E0DB77A,,,,0,2000-01-01 01:00:00,2016-04-03 02:51:08,254000/4a11dcb771fafaf157c269c01e0db77a-d.jpg,,
5692169,Cobit 4.1,,,,IT Governance Institute,2007,,Isaca,,213,0,English,Компьютеры,,0,"9781933284729,1933284722",,,,,,,,,OL12337460M,,0,,,,,,,,1612977,pdf,4A45D6E82441A4A346E7718436D54073,,,,0,2000-01-01 01:00:00,2016-04-03 02:51:08,254000/4a45d6e82441a4a346e7718436d54073-d.jpg,,
5692165,Managing Skin Cancer,,,,"Eggert Stockfleth, Ted Rosen, Steven Schumaak",2010,1st Edition.,Springer,,237,0,English,Бизнес//Менеджмент//Управление проектами,,0,"3540793461,9783540793465",,,,,,,,,OL25000737M,,0,,,,1,0,,1,11926094,pdf,498CAC5CD90821FFFF7184C36FE608EF,,,,0,2000-01-01 01:00:00,2016-04-03 02:51:08,254000/498cac5cd90821ffff7184c36fe608ef-d.jpg,,
5692166,Molecular Astrophysics: A Volume Honouring Alexander Dalgarno,,,,T. W. Hartquist,2005,,Cambridge University Press,,500,0,English,Физика,,0,"9780521017275,9780511564680,0521363314,0521017270,0511564686,9780521363310",,,,,523.01/96,QB462.6 .M65 1990,,,OL2197535M,,0,,,,,1,,T,3407455,djvu,49E6516A54E3914CD3811A3BB81D3FE2,,,,0,2000-01-01 01:00:00,2016-04-03 02:51:08,254000/49e6516a54e3914cd3811a3bb81d3fe2-d.jpg,,
5692163,Ontologies for Software Engineering and Software Technology,,,,"Coral Calero, Francisco Ruiz, Mario Piattini",2006,1,Springer,,344,0,English,Техника,,0,"3540345175,9783540345176",,,,,,,,,OL9056562M,,0,,,,,,,T,15527623,pdf,48C9B44F9714E6957E0A26EB945B7DF1,,,,0,2000-01-01 01:00:00,2016-04-03 02:51:08,254000/48c9b44f9714e6957e0a26eb945b7df1-d.jpg,,
5692164,UNIX. Программное окружение,,,,"Керниган Б., Пайк Р",2003,,Символ-Плюс,,416,0,Russian,Компьютеры//Операционные системы,,0,5-93286-029-4,,,,,001.64/25,QA76.6 .K495 1984,,,,,0,,,,,,,,1601984,pdf,490F1D3F0D8F41E4F9D1C94DF5913C40,,,,0,2000-01-01 01:00:00,2016-04-03 02:51:08,254000/490f1d3f0d8f41e4f9d1c94df5913c40-g.jpg,,
5692162,Visualizing Data,,,,Ben Fry,2008,1,O'Reilly Media,,384,0,English,Компьютеры//Организация и обработка данных,,0,"0596514557,9780596514556",,,,,,,,,OL10781010M,,0,,,,,,,1,6552826,pdf,4899DB619306165C8DB9ECD802F8BF06,,,,0,2000-01-01 01:00:00,2016-04-03 02:51:08,254000/4899db619306165c8db9ecd802f8bf06-d.jpg,,
5692159,Your Beautiful Wedding on Any Budget,,,,Todd Outcalt,2009,,Sourcebooks Casablanca,,239,0,English,,ebook3000.com,0,"1402217889,9781402217883",,,,,,,,,,,0,,,,1,0,,1,4039242,pdf,483E289A6FF7D162ED099F4EC37917A7,,,,0,2000-01-01 01:00:00,2016-04-03 02:51:08,254000/483e289a6ff7d162ed099f4ec37917a7-d.jpg,,
5692160,Konstruktive Getriebelehre,,,,"Leo Hagedorn, Wolfgang Thonfeld, Adrian Rankers",2009,"6., bearb. Aufl.",Springer,,278,0,German,,,0,"3642016138,9783642016134,9783642016141",,,,,,,,,,,0,,,,,,,,11363467,pdf,48615AFE2C5C72524C2B74E699529ED7,,,,0,2000-01-01 01:00:00,2016-04-03 02:51:08,254000/48615afe2c5c72524c2b74e699529ed7-d.jpg,,
