21252216,Untersuchungen über absorbierende Wolken: Inaugural-Dissertation zur Erlangung der Doktorwürde genehmigt von der Philosophischen Fakultät der Friedrich-Wilhelms-Universität zu Berlin,,,,Helmut Müller (auth.),1931,1,Springer-Verlag Berlin Heidelberg,,39,0,German,,,,"978-3-662-40502-4,978-3-662-40979-4",,,,,,,10.1007/978-3-662-40979-4,,,,0,,,,,,,1,1964736,pdf,1dde3f7aee4751413c0ac4509203ee68,,,D:\\HDD4\\!genesis\\SPR_NEW_2013-12\\bok%3A978-3-662-40979-4.pdf,0,2000-01-01 01:00:00,2016-04-03 02:51:08,1140000/1dde3f7aee4751413c0ac4509203ee68-d.jpg,,
21252217,Ortskurven der Starkstromtechnik: Einführung in ihre Theorie und Anwendung,,,,Dr.-Ing. Gerhard Hauffe (auth.),1932,1,Springer-Verlag Berlin Heidelberg,,185,0,German,,,,"978-3-662-31935-2,978-3-662-32762-3",,,,,,,10.1007/978-3-662-32762-3,,,,0,,,,,,,1,8111198,pdf,43d4d86cc596fb7909f8e711188d4e73,,,D:\\HDD4\\!genesis\\SPR_NEW_2013-12\\bok%3A978-3-662-32762-3.pdf,0,2000-01-01 01:00:00,2016-04-03 02:51:08,1137000/43d4d86cc596fb7909f8e711188d4e73-d.jpg,,
21252218,Papierprüfung: Eine Anleitung zum Untersuchen von Papier,,,,"W. Herzberg (auth.), Prof. Dr. R. Korn, Dr. B. Schulze (eds.)",1932,7,Springer-Verlag Berlin Heidelberg,,390,0,German,,,,"978-3-662-31933-8,978-3-662-32760-9",,,,,,,10.1007/978-3-662-32760-9,,,,0,,,,,,,1,15997102,pdf,e1dc6fa82bc882175597995ffd7caea9,,,D:\\HDD4\\!genesis\\SPR_NEW_2013-12\\bok%3A978-3-662-32760-9.pdf,0,2000-01-01 01:00:00,2016-04-03 02:51:08,1137000/e1dc6fa82bc882175597995ffd7caea9-d.jpg,,
21252219,Elektrotechnische Meßkunde,,,,Dr.-Ing. P. B. Arthur Linker (auth.),1932,4,Springer-Verlag Berlin Heidelberg,,632,0,German,,,,"978-3-662-35926-6,978-3-662-36756-8",,,,,,,10.1007/978-3-662-36756-8,,,,0,,,,,,,1,22177910,pdf,54e0135fc96f0bea4b74e2fbf3c6c02f,,,D:\\HDD4\\!genesis\\SPR_NEW_2013-12\\bok%3A978-3-662-36756-8.pdf,0,2000-01-01 01:00:00,2016-04-03 02:51:08,1138000/54e0135fc96f0bea4b74e2fbf3c6c02f-d.jpg,,
21252220,Die Mitogenetische Strahlung: Zugleich Zweiter Band der „Probleme der Zellteilung“,,Monographien aus dem Gesamtgebiet der Physiologie der Pflanzen und der Tiere,,Professor Dr. Alexander Gurwitsch (auth.),1932,1,Springer-Verlag Berlin Heidelberg,,395,0,German,,,,"978-3-662-24034-2,978-3-662-26146-0",,,,,,,10.1007/978-3-662-26146-0,,,,0,,,,,,,1,20978292,pdf,7ace82fe854598a4861f02843e1e4dfa,,,D:\\HDD4\\!genesis\\SPR_NEW_2013-12\\bok%3A978-3-662-26146-0.pdf,0,2000-01-01 01:00:00,2016-04-03 02:51:08,1137000/7ace82fe854598a4861f02843e1e4dfa-d.jpg,,
21252221,Kälteprozesse: Dargestellt mit Hilfe der Entropietafel,,,,Dipl.-Ing. Prof. P. Ostertag (auth.),1933,2,Springer-Verlag Berlin Heidelberg,,122,0,German,,,,"978-3-662-35738-5,978-3-662-36568-7",,,,,,,10.1007/978-3-662-36568-7,,,,0,,,,,,,1,4858631,pdf,bcb8ee44fd7e9b80dd5a3c462943340e,,,D:\\HDD4\\!genesis\\SPR_NEW_2013-12\\bok%3A978-3-662-36568-7.pdf,0,2000-01-01 01:00:00,2016-04-03 02:51:08,1138000/bcb8ee44fd7e9b80dd5a3c462943340e-d.jpg,,
21252222,Fluglehre: Vorträge über Theorie und Berechnung der Flugzeuge in Elementarer Darstellung,,,,Dr. Richard von Mises (auth.),1933,4,Springer-Verlag Berlin Heidelberg,,409,0,German,,,,"978-3-662-35891-7,978-3-662-36721-6",,,,,,,10.1007/978-3-662-36721-6,,,,0,,,,,,,1,15923066,pdf,2ec507a4874a6a02fadb345e2fdfccef,,,D:\\HDD4\\!genesis\\SPR_NEW_2013-12\\bok%3A978-3-662-36721-6.pdf,0,2000-01-01 01:00:00,2016-04-03 02:51:08,1138000/2ec507a4874a6a02fadb345e2fdfccef-d.jpg,,
21252223,Quantentheorie,,Handbuch der Physik,,"A. Rubinowicz (auth.), H. Bethe, F. Hund, N. F. Mott, W. Pauli, A. Rubinowicz, G. Wentzel, A. Smekal (eds.)",1933,2,Springer-Verlag Berlin Heidelberg,,862,0,German,,,,"978-3-642-52565-0,978-3-642-52619-0",,,,,,,10.1007/978-3-642-52619-0,,,,0,,,,,,,1,30055844,pdf,8ca2666ee0318c9165e5fc378d25c42b,,,D:\\HDD4\\!genesis\\SPR_NEW_2013-12\\bok%3A978-3-642-52619-0.pdf,0,2000-01-01 01:00:00,2016-04-03 02:51:08,1135000/8ca2666ee0318c9165e5fc378d25c42b-d.jpg,,
21252224,Molekülstruktur: Bestimmung von Molekülstrukturen mit Physikalischen Methoden,,Struktur und Eigenschaften der Materie in Einzeldarstellungen 14,,Dr. H. A. Stuart (auth.),1934,1,Springer-Verlag Berlin Heidelberg,,401,0,German,,,,"978-3-662-41956-4,978-3-662-42013-3",,,,,,,10.1007/978-3-662-42013-3,,,,0,,,,,,,1,16203677,pdf,98c429fe5ee6bde32e7c00d229b3e16d,,,D:\\HDD4\\!genesis\\SPR_NEW_2013-12\\bok%3A978-3-662-42013-3.pdf,0,2000-01-01 01:00:00,2016-04-03 02:51:08,1140000/98c429fe5ee6bde32e7c00d229b3e16d-d.jpg,,
21252225,Richtlinien für den Bau von Heissdampf-Rohrleitungen,,,,(auth.),1936,1,Springer-Verlag Berlin Heidelberg,,84,0,German,,,,"978-3-662-37384-2,978-3-662-38131-1",,,,,,,10.1007/978-3-662-38131-1,,,,0,,,,,,,1,3714266,pdf,12a694c4656116931dc3239014f370f2,,,D:\\HDD4\\!genesis\\SPR_NEW_2013-12\\bok%3A978-3-662-38131-1.pdf,0,2000-01-01 01:00:00,2016-04-03 02:51:08,1139000/12a694c4656116931dc3239014f370f2-d.jpg,,
21252226,Elektrische Schweißtechnik,,,,"Prof. Dr.-Ing. P. Schimpke, Ober-Ing. Hans A. Horn (auth.)",1935,2,Springer-Verlag Berlin Heidelberg,,285,0,German,,,,"978-3-662-37285-2,978-3-662-38017-8",,,,,,,10.1007/978-3-662-38017-8,,,,0,,,,,,,1,19547133,pdf,f07c8d8ac9b2e34969ade7cabb8baa5f,,,D:\\HDD4\\!genesis\\SPR_NEW_2013-12\\bok%3A978-3-662-38017-8.pdf,0,2000-01-01 01:00:00,2016-04-03 02:51:08,1139000/f07c8d8ac9b2e34969ade7cabb8baa5f-d.jpg,,
21252227,Die Bausteine der Körperwelt: Eine Einführung in die Atomphysik,,Verständliche Wissenschaft 25,,P. Theodor Wulf (auth.),1935,1,Springer-Verlag Berlin Heidelberg,,192,0,German,,,,"978-3-662-41978-6,978-3-662-42036-2",,,,,,,10.1007/978-3-662-42036-2,,,,0,,,,,,,1,7869374,pdf,77ec47e536b7ff7b785558e3d1bc53e1,,,D:\\HDD4\\!genesis\\SPR_NEW_2013-12\\bok%3A978-3-662-42036-2.pdf,0,2000-01-01 01:00:00,2016-04-03 02:51:08,1140000/77ec47e536b7ff7b785558e3d1bc53e1-d.jpg,,
21252228,Molekülspektren und ihre Anwendung auf Chemische Probleme,,Struktur und Eigenschaften der Materie 15,,Dr. H. Sponer (auth.),1935,1,Springer-Verlag Berlin Heidelberg,,161,0,German,,,,"978-3-642-98202-6,978-3-642-99013-7",,,,,,,10.1007/978-3-642-99013-7,,,,0,,,,,,,1,6066649,pdf,5241bf61216437ab676e3c7c3e57e1b2,,,D:\\HDD4\\!genesis\\SPR_NEW_2013-12\\bok%3A978-3-642-99013-7.pdf,0,2000-01-01 01:00:00,2016-04-03 02:51:08,1136000/5241bf61216437ab676e3c7c3e57e1b2-d.jpg,,
21252229,Dritter Band: Analysis · Grundlagen der Mathematik · Physik Verschiedenes: Nebst Einer Lebensgeschichte,,,,David Hilbert (auth.),1935,1,Springer-Verlag Berlin Heidelberg,,443,0,German,,,,"978-3-662-37657-7,978-3-662-38452-7",,,,,,,10.1007/978-3-662-38452-7,,,,0,,,,,,,1,15745851,pdf,315675d0caee44b7af381f1a1f6a575f,,,D:\\HDD4\\!genesis\\SPR_NEW_2013-12\\bok%3A978-3-662-38452-7.pdf,0,2000-01-01 01:00:00,2016-04-03 02:51:08,1139000/315675d0caee44b7af381f1a1f6a575f-d.jpg,,
21252230,"Elektrische Starkstromanlagen: Maschinen, Apparate, Schaltungen, Betrieb Kurzgefaßtes Hilfsbuch für Ingenieure und Techniker sowie zum Gebrauch an technischen Lehranstalten",,,,Dipl.-Ing. Emil Kosack (auth.),1937,8,Springer-Verlag Berlin Heidelberg,,367,0,German,,,,"978-3-662-35931-0,978-3-662-36761-2",,,,,,,10.1007/978-3-662-36761-2,,,,0,,,,,,,1,18473903,pdf,c962de3be96940204dab28727f7b528a,,,D:\\HDD4\\!genesis\\SPR_NEW_2013-12\\bok%3A978-3-662-36761-2.pdf,0,2000-01-01 01:00:00,2016-04-03 02:51:08,1138000/c962de3be96940204dab28727f7b528a-d.jpg,,
21252231,Einführung in die physikalischen Grundlagen der Rundfunktechnik,,,,Dr. Otto Franke (auth.),1937,1,Springer-Verlag Wien,,281,0,German,,,,"978-3-7091-5885-2,978-3-7091-5935-4",,,,,,,10.1007/978-3-7091-5935-4,,,,0,,,,,,,1,10845946,pdf,b694b539f5c38d50fe50d412a9be2918,,,D:\\HDD4\\!genesis\\SPR_NEW_2013-12\\bok%3A978-3-7091-5935-4.pdf,0,2000-01-01 01:00:00,2016-04-03 02:51:08,1143000/b694b539f5c38d50fe50d412a9be2918-d.jpg,,
21252232,Elektrische Kontakte: Grundlagen für den Praktiker,,,,Dr. Walther Burstyn (auth.),1937,1,Springer-Verlag Berlin Heidelberg,,87,0,German,,,,"978-3-662-42800-9,978-3-662-43080-4",,,,,,,10.1007/978-3-662-43080-4,,,,0,,,,,,,1,4097827,pdf,c0b5b2a61c556d819872a5c9de6069cf,,,D:\\HDD4\\!genesis\\SPR_NEW_2013-12\\bok%3A978-3-662-43080-4.pdf,0,2000-01-01 01:00:00,2016-04-03 02:51:08,1140000/c0b5b2a61c556d819872a5c9de6069cf-d.jpg,,
21252233,Geometrische Optik,,Ergebnisse der Mathematik und Ihrer Grenzgebiete 5,,C. Carathéodory (auth.),1937,1,Springer-Verlag Berlin Heidelberg,,"IV, 107 S.",0,German,,,,"978-3-642-89604-0,978-3-642-91460-7",,,,,,,10.1007/978-3-642-91460-7,,,,0,,,,,,,1,4248194,pdf,64eb77f0937b2b57122449e722a5ced1,,,D:\\HDD4\\!genesis\\SPR_NEW_2013-12\\bok%3A978-3-642-91460-7.pdf,0,2000-01-01 01:00:00,2016-04-03 02:51:08,1135000/64eb77f0937b2b57122449e722a5ced1-d.jpg,,
21252234,Grundlagen und Mathematische Hilfsmittel der Hochfrequenztechnik,,Lehrbuch der Drahtlosen Nachrichtentechnik 1,,"Dr. Hans Georg Möller (auth.), Dr. Hans Georg Möller (eds.)",1940,1,Springer-Verlag Berlin Heidelberg,,311,0,German,,,,"978-3-662-27179-7,978-3-662-28662-3",,,,,,,10.1007/978-3-662-28662-3,,,,0,,,,,,,1,16966587,pdf,8c401c2854d295cb35061a8e0eb8b063,,,D:\\HDD4\\!genesis\\SPR_NEW_2013-12\\bok%3A978-3-662-28662-3.pdf,0,2000-01-01 01:00:00,2016-04-03 02:51:08,1137000/8c401c2854d295cb35061a8e0eb8b063-d.jpg,,
21252235,Bergbaumechanik: Lehrbuch für bergmännische Lehranstalten Handbuch für den praktischen Bergbau,,,,Dipl.-Ing. J. Maercks (auth.),1940,2,Springer-Verlag Berlin Heidelberg,,571,0,German,,,,"978-3-662-36215-0,978-3-662-37045-2",,,,,,,10.1007/978-3-662-37045-2,,,,0,,,,,,,1,25743551,pdf,ab2cd3a87a0999dc305f1faed444291c,,,D:\\HDD4\\!genesis\\SPR_NEW_2013-12\\bok%3A978-3-662-37045-2.pdf,0,2000-01-01 01:00:00,2016-04-03 02:51:08,1139000/ab2cd3a87a0999dc305f1faed444291c-d.jpg,,
21252236,Kontinuierliche Spektren,,Struktur und Eigenschaften der Materie 20,,Dr. Wolfgang Finkelnburg (auth.),1938,1,Springer-Verlag Berlin Heidelberg,,"XI, 368 S.",0,German,,,,"978-3-642-49638-7,978-3-642-49932-6",,,,,,,10.1007/978-3-642-49932-6,,,,0,,,,,,,1,13346559,pdf,02bd67dd04eb8182a0c07dee0a9a4a1e,,,D:\\HDD4\\!genesis\\SPR_NEW_2013-12\\bok%3A978-3-642-49932-6.pdf,0,2000-01-01 01:00:00,2016-04-03 02:51:08,1135000/02bd67dd04eb8182a0c07dee0a9a4a1e-d.jpg,,
21252237,Die Pumpen: Ein Leitfaden für höhere technische Lehranstalten und zum Selbstunterricht,,,,"H. Matthießen, E. Fuchslocher (auth.)",1938,4,Springer-Verlag Berlin Heidelberg,,124,0,German,,,,"978-3-662-36033-0,978-3-662-36863-3",,,,,,,10.1007/978-3-662-36863-3,,,,0,,,,,,,1,9759173,pdf,bbcdb7eb8a743fbe1bb181703a5fecf7,,,D:\\HDD4\\!genesis\\SPR_NEW_2013-12\\bok%3A978-3-662-36863-3.pdf,0,2000-01-01 01:00:00,2016-04-03 02:51:08,1139000/bbcdb7eb8a743fbe1bb181703a5fecf7-d.jpg,,
21252238,Verbrennungsmotoren: Thermodynamische und versuchsmäßige Grundlagen unter besonderer Berücksichtigung der Flugmotoren,,,,Dr.-Ing. habil. Fritz A. F. Schmidt (auth.),1939,1,Springer-Verlag Berlin Heidelberg,,337,0,German,,,,"978-3-662-35465-0,978-3-662-36293-8",,,,,,,10.1007/978-3-662-36293-8,,,,0,,,,,,,1,11633482,pdf,a137f30be0edec798e22a30280bbe250,,,D:\\HDD4\\!genesis\\SPR_NEW_2013-12\\bok%3A978-3-662-36293-8.pdf,0,2000-01-01 01:00:00,2016-04-03 02:51:08,1138000/a137f30be0edec798e22a30280bbe250-d.jpg,,
21252239,"Chemiker-Taschenbuch: Ein Hilfsbuch für Chemiker, Physiker, Mineralogen, Hüttenmänner, Industrielle, Mediziner und Pharmazeuten",,,,"Dr. Rudolf Biedermann, Professor Dr. W. A. Roth (auth.), Professor Dr. I. Koppel (eds.)",1939,59,Springer-Verlag Berlin Heidelberg,,1471,0,German,,,,"978-3-662-37509-9,978-3-662-38276-9",,,,,,,10.1007/978-3-662-38276-9,,,,0,,,,,,,1,56995538,pdf,e843e06b603ea75e1b552e1ecb12df0e,,,D:\\HDD4\\!genesis\\SPR_NEW_2013-12\\bok%3A978-3-662-38276-9.pdf,0,2000-01-01 01:00:00,2016-04-03 02:51:08,1139000/e843e06b603ea75e1b552e1ecb12df0e-d.jpg,,
21252240,Kräfte in den Triebwerken schnellaufender Kolbenkraftmaschinen ihr Gleichgang und Massenausgleich,,Konstruktionsbücher 2,,Dipl.-Ing. G. H. Neugebauer (auth.),1939,1,Springer-Verlag Berlin Heidelberg,,125,0,German,,,,"978-3-662-41771-3,978-3-662-41918-2",,,,,,,10.1007/978-3-662-41918-2,,,,0,,,,,,,1,7604282,pdf,b6fbe91887e3414eb14564a55a502a89,,,D:\\HDD4\\!genesis\\SPR_NEW_2013-12\\bok%3A978-3-662-41918-2.pdf,0,2000-01-01 01:00:00,2016-04-03 02:51:08,1140000/b6fbe91887e3414eb14564a55a502a89-d.jpg,,
21252241,Spannungszustand und Bruchausbildung: Anschauliche Darstellung der spannungsmechanischen Grundlagen der Gestaltfestigkeit und der Gesetzmäßigkeiten der Bruchausbildung,,,,"Professor Dr. A. Thum, Dr.-Ing. K. Federn (auth.)",1939,1,Springer-Verlag Berlin Heidelberg,,85,0,German,,,,"978-3-662-35487-2,978-3-662-36315-7",,,,,,,10.1007/978-3-662-36315-7,,,,0,,,,,,,1,4678077,pdf,944f64aafe5ee22c91593b03a3f66ea8,,,D:\\HDD4\\!genesis\\SPR_NEW_2013-12\\bok%3A978-3-662-36315-7.pdf,0,2000-01-01 01:00:00,2016-04-03 02:51:08,1138000/944f64aafe5ee22c91593b03a3f66ea8-d.jpg,,
21252242,Technische Dynamik,,,,"C. B. Biezeno, R. Grammel (auth.)",1939,1,Springer-Verlag Berlin Heidelberg,,1070,0,German,,,,"978-3-662-35429-2,978-3-662-36257-0",,,,,,,10.1007/978-3-662-36257-0,,,,0,,,,,,,1,46100627,pdf,6de32655986f259e5941e22f309206ed,,,D:\\HDD4\\!genesis\\SPR_NEW_2013-12\\bok%3A978-3-662-36257-0.pdf,0,2000-01-01 01:00:00,2016-04-03 02:51:08,1138000/6de32655986f259e5941e22f309206ed-d.jpg,,
21252243,Geometrische Kristallographie und Kristalloptik: und deren Arbeitsmethoden,,,,"Dr. Franz Raaz, Dr. Hermann Tertsch (auth.)",1939,1,Springer-Verlag Berlin Heidelberg,,226,0,German,,,,"978-3-662-37486-3,978-3-662-38251-6",,,,,,,10.1007/978-3-662-38251-6,,,,0,,,,,,,1,9302241,pdf,725810e16e56c52933c7f44be14b389c,,,D:\\HDD4\\!genesis\\SPR_NEW_2013-12\\bok%3A978-3-662-38251-6.pdf,0,2000-01-01 01:00:00,2016-04-03 02:51:08,1139000/725810e16e56c52933c7f44be14b389c-d.jpg,,
21252244,Physik: Ein Lehrbuch,,,,Wilhelm H. Westphal (auth.),1939,41128,Springer-Verlag Berlin Heidelberg,,691,0,German,,,,"978-3-662-31926-0,978-3-662-32753-1",,,,,,,10.1007/978-3-662-32753-1,,,,0,,,,,,,1,27891117,pdf,0e7c26c3a0eafc7b9296c3f0aa34197d,,,D:\\HDD4\\!genesis\\SPR_NEW_2013-12\\bok%3A978-3-662-32753-1.pdf,0,2000-01-01 01:00:00,2016-04-03 02:51:08,1137000/0e7c26c3a0eafc7b9296c3f0aa34197d-d.jpg,,
21252245,Planimetrie: Mit einem Abriß über die Kegelschnitte Ein Lehr- und Übungsbuch zum Gebrauche an technischen Mittelschulen,,,,Dr. Adolf Heß (auth.),1939,5,Springer-Verlag Berlin Heidelberg,,153,0,German,,,,"978-3-662-35567-1,978-3-662-36396-6",,,,,,,10.1007/978-3-662-36396-6,,,,0,,,,,,,1,8270698,pdf,204b987785ac61ab733491323c6dc9c5,,,D:\\HDD4\\!genesis\\SPR_NEW_2013-12\\bok%3A978-3-662-36396-6.pdf,0,2000-01-01 01:00:00,2016-04-03 02:51:08,1138000/204b987785ac61ab733491323c6dc9c5-d.jpg,,
21252246,Die Elektronenröhre als physikalisches Meßgerät: Röhrenvoltmeter · Röhrengalvanometer Röhrenelektrometer,,,,Dr. Josef Schintlmeister (auth.),1943,4,Springer-Verlag Berlin Heidelberg,,198,0,German,,,,"978-3-662-37273-9,978-3-662-38002-4",,,,,,,10.1007/978-3-662-38002-4,,,,0,,,,,,,1,12142221,pdf,37bd421bf45f631c9dc2b11d0b67f9e2,,,D:\\HDD4\\!genesis\\SPR_NEW_2013-12\\bok%3A978-3-662-38002-4.pdf,0,2000-01-01 01:00:00,2016-04-03 02:51:08,1139000/37bd421bf45f631c9dc2b11d0b67f9e2-d.jpg,,
21252247,Formeln und Sätze für die Speziellen Funktionen der Mathematischen Physik,,Die Grundlehren der Mathematischen Wissenschaften 52,,"Dr. Wilhelm Magnus, Dr. Fritz Oberhettinger (auth.)",1943,1,Springer-Verlag Berlin Heidelberg,,180,0,German,,,,"978-3-662-41656-3,978-3-662-41791-1",,,,,,,10.1007/978-3-662-41791-1,,,,0,,,,,,,1,6226010,pdf,f8633f3e19ff2e21a64e017366f8cb5c,,,D:\\HDD4\\!genesis\\SPR_NEW_2013-12\\bok%3A978-3-662-41791-1.pdf,0,2000-01-01 01:00:00,2016-04-03 02:51:08,1140000/f8633f3e19ff2e21a64e017366f8cb5c-d.jpg,,
21252248,"Elektrische Starkstromanlagen: Maschinen, Apparate, Schaltungen, Betrieb",,,,Dipl.-Ing. Emil Kosack (auth.),1943,9,Springer-Verlag Berlin Heidelberg,,365,0,German,,,,"978-3-662-35932-7,978-3-662-36762-9",,,,,,,10.1007/978-3-662-36762-9,,,,0,,,,,,,1,15272473,pdf,02b11e14cc754e2bf870b698a055d6cc,,,D:\\HDD4\\!genesis\\SPR_NEW_2013-12\\bok%3A978-3-662-36762-9.pdf,0,2000-01-01 01:00:00,2016-04-03 02:51:08,1138000/02b11e14cc754e2bf870b698a055d6cc-d.jpg,,
21252249,Grundlagen der Atomphysik: Eine Einführung in das Studium der Wellenmechanik,,,,Dr. phil. habil. Hans Adolf Bauer (auth.),1943,2,Springer-Verlag Berlin Heidelberg,,334,0,German,,,,"978-3-662-36122-1,978-3-662-36952-4",,,,,,,10.1007/978-3-662-36952-4,,,,0,,,,,,,1,14464177,pdf,e66c12c73d1aed3dd5a42d2af0b38914,,,D:\\HDD4\\!genesis\\SPR_NEW_2013-12\\bok%3A978-3-662-36952-4.pdf,0,2000-01-01 01:00:00,2016-04-03 02:51:08,1139000/e66c12c73d1aed3dd5a42d2af0b38914-d.jpg,,
21252250,Die technische Physik der elektrischen Kontakte,,Technische Physik in Einzeldarstellungen 4,,Dr. Ragnar Holm (auth.),1941,1,Springer-Verlag Berlin Heidelberg,,351,0,German,,,,"978-3-662-42222-9,978-3-662-42491-9",,,,,,,10.1007/978-3-662-42491-9,,,,0,,,,,,,1,14713054,pdf,03d59dc30863900e3f1899d8fcfabb8f,,,D:\\HDD4\\!genesis\\SPR_NEW_2013-12\\bok%3A978-3-662-42491-9.pdf,0,2000-01-01 01:00:00,2016-04-03 02:51:08,1140000/03d59dc30863900e3f1899d8fcfabb8f-d.jpg,,
21252251,Planimetrie: Mit einem Abriß über die Kegelschnitte,,,,Dr. Adolf Heß (auth.),1941,6,Springer-Verlag Berlin Heidelberg,,153,0,German,,,,"978-3-662-35568-8,978-3-662-36397-3",,,,,,,10.1007/978-3-662-36397-3,,,,0,,,,,,,1,8266522,pdf,819bde397610a25ebca50d4b776f8f70,,,D:\\HDD4\\!genesis\\SPR_NEW_2013-12\\bok%3A978-3-662-36397-3.pdf,0,2000-01-01 01:00:00,2016-04-03 02:51:08,1138000/819bde397610a25ebca50d4b776f8f70-d.jpg,,
21252252,Die Pumpen: Ein Leitfaden für höhere technische Lehranstalten und zum Selbstunterricht,,,,"H. Matthießen, E. Fuchslocher (auth.)",1941,5,Springer-Verlag Berlin Heidelberg,,144,0,German,,,,"978-3-662-36032-3,978-3-662-36862-6",,,,,,,10.1007/978-3-662-36862-6,,,,0,,,,,,,1,10115913,pdf,322945c2f44d325881207910dd1e664b,,,D:\\HDD4\\!genesis\\SPR_NEW_2013-12\\bok%3A978-3-662-36862-6.pdf,0,2000-01-01 01:00:00,2016-04-03 02:51:08,1139000/322945c2f44d325881207910dd1e664b-d.jpg,,
21252253,Einführung in die Elektrizitätslehre,,,,"Dr. Phil., Dr.-Ing. E. H., Dr. Phy. E. H. R. W. Pohl (auth.)",1941,6,Springer-Verlag Berlin Heidelberg,,284,0,German,,,,"978-3-662-35981-5,978-3-662-36811-4",,,,,,,10.1007/978-3-662-36811-4,,,,0,,,,,,,1,32871899,pdf,86e741c5dd8a8dfc835e82d14a9b27b5,,,D:\\HDD4\\!genesis\\SPR_NEW_2013-12\\bok%3A978-3-662-36811-4.pdf,0,2000-01-01 01:00:00,2016-04-03 02:51:08,1139000/86e741c5dd8a8dfc835e82d14a9b27b5-d.jpg,,
21252254,Klingelnberg Technisches Hilfsbuch,,,,"Baurat Dipl.-Ing. Ernst Preger (auth.), Baurat Dipl.-Ing. Ernst Preger, Dipl.-Ing. Rudolf Reindl (eds.)",1942,11,Springer-Verlag Berlin Heidelberg,,772,0,German,,,,"978-3-662-35417-9,978-3-662-36245-7",,,,,,,10.1007/978-3-662-36245-7,,,,0,,,,,,,1,32437804,pdf,c9fa7afc7399c3555d7c08cedf3c9bdc,,,D:\\HDD4\\!genesis\\SPR_NEW_2013-12\\bok%3A978-3-662-36245-7.pdf,0,2000-01-01 01:00:00,2016-04-03 02:51:08,1138000/c9fa7afc7399c3555d7c08cedf3c9bdc-d.jpg,,
21252255,Planimetrie: Mit einem Abriß über die Kegelschnitte,,,,Dr. Adolf Heß (auth.),1942,7,Springer-Verlag Berlin Heidelberg,,152,0,German,,,,"978-3-662-35569-5,978-3-662-36398-0",,,,,,,10.1007/978-3-662-36398-0,,,,0,,,,,,,1,7131287,pdf,600e914f3228d9354e2b233f12041068,,,D:\\HDD4\\!genesis\\SPR_NEW_2013-12\\bok%3A978-3-662-36398-0.pdf,0,2000-01-01 01:00:00,2016-04-03 02:51:08,1138000/600e914f3228d9354e2b233f12041068-d.jpg,,
21252256,Elektronenmikroskopie: Bericht über Arbeiten des AEG Forschungs-Instituts 1930 bis 1941,,,,"Prof. Dr. Carl Ramsauer (auth.), Prof. Dr. Carl Ramsauer (eds.)",1942,2,Springer-Verlag Berlin Heidelberg,,176,0,German,,,,"978-3-662-40914-5,978-3-662-41398-2",,,,,,,10.1007/978-3-662-41398-2,,,,0,,,,,,,1,10185413,pdf,f276979e6e1ad8fd93e296ccf4133d74,,,D:\\HDD4\\!genesis\\SPR_NEW_2013-12\\bok%3A978-3-662-41398-2.pdf,0,2000-01-01 01:00:00,2016-04-03 02:51:08,1140000/f276979e6e1ad8fd93e296ccf4133d74-d.jpg,,
21252257,Planimetrie: Mit einem Abriß über die Kegelschnitte,,,,Dr. Adolf Heß (auth.),1944,8,Springer-Verlag Berlin Heidelberg,,150,0,German,,,,"978-3-662-35566-4,978-3-662-36395-9",,,,,,,10.1007/978-3-662-36395-9,,,,0,,,,,,,1,7072129,pdf,75e9bd94d0eab6cadbadd55011d36f0d,,,D:\\HDD4\\!genesis\\SPR_NEW_2013-12\\bok%3A978-3-662-36395-9.pdf,0,2000-01-01 01:00:00,2016-04-03 02:51:08,1138000/75e9bd94d0eab6cadbadd55011d36f0d-d.jpg,,
21252258,Klingelnberg Technisches Hilfsbuch,,,,"Baurat Dipl.-Ing. Ernst Preger (auth.), Baurat Dipl.-Ing. Ernst Preger, Dipl.-Ing. Rudolf Reindl (eds.)",1944,12,Springer-Verlag Berlin Heidelberg,,771,0,German,,,,"978-3-662-35808-5,978-3-662-36638-7",,,,,,,10.1007/978-3-662-36638-7,,,,0,,,,,,,1,45895445,pdf,a4e2e3952106495a9bb214e5c5110d15,,,D:\\HDD4\\!genesis\\SPR_NEW_2013-12\\bok%3A978-3-662-36638-7.pdf,0,2000-01-01 01:00:00,2016-04-03 02:51:08,1138000/a4e2e3952106495a9bb214e5c5110d15-d.jpg,,
21252259,100 Übungen aus der Mechanik,,,,Dr. techn. Erwin Pawelka (auth.),1948,4,Springer-Verlag Berlin Heidelberg,,192,0,German,,,,"978-3-662-35896-2,978-3-662-36726-1",,,,,,,10.1007/978-3-662-36726-1,,,,0,,,,,,,1,7031922,pdf,7fa5f53a589c1e45f635d1efe4f6b92a,,,D:\\HDD4\\!genesis\\SPR_NEW_2013-12\\bok%3A978-3-662-36726-1.pdf,0,2000-01-01 01:00:00,2016-04-03 02:51:08,1138000/7fa5f53a589c1e45f635d1efe4f6b92a-d.jpg,,
21252260,Die Idee der Relativitätstheorie: Gemeinverständlich dargestellt,,,,Hans Thirring (auth.),1948,3,Springer-Verlag Wien,,174,0,German,,,,"978-3-7091-4021-5,978-3-7091-4020-8",,,,,,,10.1007/978-3-7091-4020-8,,,,0,,,,,,,1,6821928,pdf,802a41c74c25cb6161bb1ff36296f164,,,D:\\HDD4\\!genesis\\SPR_NEW_2013-12\\bok%3A978-3-7091-4020-8.pdf,0,2000-01-01 01:00:00,2016-04-03 02:51:08,1143000/802a41c74c25cb6161bb1ff36296f164-d.jpg,,
21252261,Berechnung der Maschinenelemente,,,,Dipl.-Ing. M. ten Bosch (auth.),1951,3,Springer-Verlag Berlin Heidelberg,,545,0,German,,,,"978-3-662-27804-8,978-3-662-29304-1",,,,,,,10.1007/978-3-662-29304-1,,,,0,,,,,,,1,47320120,pdf,c0e9fc1a910ae50ec96c06f1ec957928,,,D:\\HDD4\\!genesis\\SPR_NEW_2013-12\\bok%3A978-3-662-29304-1.pdf,0,2000-01-01 01:00:00,2016-04-03 02:51:08,1137000/c0e9fc1a910ae50ec96c06f1ec957928-d.jpg,,
21252262,"Das Polarisationsmikroskop: Eine Einführung in die Mikroskopische Untersuchungsmethodik Durchsichtiger Kristalliner Stoffe für Mineralogen, Petrographen, Chemiker und Naturwissenschafter im Allgemeinen",,Lehrbücher und Monographien aus dem Gebiete der Exakten Wissenschaften 25,,Conrad Burri (auth.),1950,1,Springer Basel,,309,0,German,,,,"978-3-0348-4050-7,978-3-0348-4123-8",,,,,,,10.1007/978-3-0348-4123-8,,,,0,,,,,,,1,12393826,pdf,e026144f469ab032838acab7660c25eb,,,D:\\HDD4\\!genesis\\SPR_NEW_2013-12\\bok%3A978-3-0348-4123-8.pdf,0,2000-01-01 01:00:00,2016-04-03 02:51:08,1130000/e026144f469ab032838acab7660c25eb-d.jpg,,
21252263,Ausgewählte Kapitel aus der Physik: Nach Vorlesungen an der Technischen Hochschule in Graz: V. Teil: Aufbau der Materie,,,,K. W. Fritz Kohlrausch (auth.),1949,1,Springer-Verlag Wien,,317,0,German,,,,"978-3-211-80103-1,978-3-7091-2418-5",,,,,,,10.1007/978-3-7091-2418-5,,,,0,,,,,,,1,14769309,pdf,82ee150ea759c404745d3132641f02a5,,,D:\\HDD4\\!genesis\\SPR_NEW_2013-12\\bok%3A978-3-7091-2418-5.pdf,0,2000-01-01 01:00:00,2016-04-03 02:51:08,1143000/82ee150ea759c404745d3132641f02a5-d.jpg,,
21252264,Einführung in die sphärische Astronomie,,,,Dr. Adalbert Prey (auth.),1949,1,Springer-Verlag Wien,,324,0,German,,,,"978-3-211-80115-4,978-3-7091-2416-1",,,,,,,10.1007/978-3-7091-2416-1,,,,0,,,,,,,1,9986669,pdf,33ea6007d505da42705ab9a691bb07a8,,,D:\\HDD4\\!genesis\\SPR_NEW_2013-12\\bok%3A978-3-7091-2416-1.pdf,0,2000-01-01 01:00:00,2016-04-03 02:51:08,1143000/33ea6007d505da42705ab9a691bb07a8-d.jpg,,
21252265,Die Nahaufnahme: Leitfaden für die Makrophotographie in Wissenschaft und Technik,,,,Hans-Henning Heunert (auth.),1954,1,Springer-Verlag Berlin Heidelberg,,"VIII, 125 S. 121 Abb.",0,German,,,,"978-3-642-48453-7,978-3-642-86317-2",,,,,,,10.1007/978-3-642-86317-2,,,,0,,,,,,,1,10714839,pdf,e706d790ca97866214f8116a42cd91be,,,D:\\HDD4\\!genesis\\SPR_NEW_2013-12\\bok%3A978-3-642-86317-2.pdf,0,2000-01-01 01:00:00,2016-04-03 02:51:08,1135000/e706d790ca97866214f8116a42cd91be-d.jpg,,
21252266,Die Grundlagen der Quantenmechanik,,Die Grundlehren der Mathematischen Wissenschaften 70,,Dr. Rer. Nat. Günther Ludwig (auth.),1954,1,Springer-Verlag Berlin Heidelberg,,471,0,German,,,,"978-3-662-11921-1,978-3-662-11920-4",,,,,,,10.1007/978-3-662-11920-4,,,,0,,,,,,,1,18790289,pdf,7f15f04430c7aff7f60efb3d66eb314d,,,D:\\HDD4\\!genesis\\SPR_NEW_2013-12\\bok%3A978-3-662-11920-4.pdf,0,2000-01-01 01:00:00,2016-04-03 02:51:08,1136000/7f15f04430c7aff7f60efb3d66eb314d-d.jpg,,
21252267,Kosmische Strahlung: Vorträge Gehalten im Max-Planck-Institut für Physik Göttingen,,,,"L. Biermann, P. Budini, J. Buschmann, M. Deutschmann, E. Freese, K. Gottstein, R. Hagedorn, W. Heisenberg, F. G. Houtermans, H. Jahn, G. Lüders, R. Lüst, W. Macke, H. M. Mayer, P. Meyer, G. Molière, R. Oehme, K. Ott, W. Paul, F. Sauter, A. Schlüter, K. Symanzik, M. Teucher, C. F. v. Weizsäcker, K. Wirtz, B. Zumino (auth.), Werner Heisenberg (eds.)",1953,2,Springer-Verlag Berlin Heidelberg,,"VIII, 620 S. 256 Abb. 1 Taf.",0,German,,,,"978-3-642-48462-9,978-3-642-87230-3",,,,,,,10.1007/978-3-642-87230-3,,,,0,,,,,,,1,15897432,pdf,f82cc9efe84a17febfd1fff26eb661a6,,,D:\\HDD4\\!genesis\\SPR_NEW_2013-12\\bok%3A978-3-642-87230-3.pdf,0,2000-01-01 01:00:00,2016-04-03 02:51:08,1135000/f82cc9efe84a17febfd1fff26eb661a6-d.jpg,,
21252268,Prüfungs- und Übungsaufgaben aus der Mechanik des Punktes und des starren Körpers,,,,Karl Federhofer (auth.),1953,1,Springer-Verlag Wien,,378,0,German,,,,"978-3-7091-2105-4,978-3-7091-2104-7",,,,,,,10.1007/978-3-7091-2104-7,,,,0,,,,,,,1,11155327,pdf,7285a0b6105a9eccfdee191867261ae8,,,D:\\HDD4\\!genesis\\SPR_NEW_2013-12\\bok%3A978-3-7091-2104-7.pdf,0,2000-01-01 01:00:00,2016-04-03 02:51:08,1143000/7285a0b6105a9eccfdee191867261ae8-d.jpg,,
21252269,Lehrbuch der Technischen Mechanik für Ingenieure und Physiker: Zum Gebrauche bei Vorlesungen und zum Selbststudium,,Elementare Festigkeitslehre 2,,Dr.-Ing. Theodor Pöschl (auth.),1952,2,Springer-Verlag Berlin Heidelberg,,252,0,German,,,,"978-3-662-23374-0,978-3-662-25421-9",,,,,,,10.1007/978-3-662-25421-9,,,,0,,,,,,,1,13834491,pdf,0221816a6bf6530b233ce0f6ecf5a326,,,D:\\HDD4\\!genesis\\SPR_NEW_2013-12\\bok%3A978-3-662-25421-9.pdf,0,2000-01-01 01:00:00,2016-04-03 02:51:08,1136000/0221816a6bf6530b233ce0f6ecf5a326-d.jpg,,
21252270,Arbeiten über die Bestimmung des Gebrauchswertes von Lackfilmen durch physikalische Prüfungen,,Forschungsberichte des Wirtschafts- und Verkehrsministeriums Nordrhein-Westfalen,,Prof. Dr. rer. nat. K. Hamann (auth.),1955,1,VS Verlag für Sozialwissenschaften,,71,0,German,,,,"978-3-663-20078-9,978-3-663-20437-4",,,,,,,10.1007/978-3-663-20437-4,,,,0,,,,,,,1,4277483,pdf,0e061ca25add64860e1b013492613cd9,,,D:\\HDD4\\!genesis\\SPR_NEW_2013-12\\bok%3A978-3-663-20437-4.pdf,0,2000-01-01 01:00:00,2016-04-03 02:51:08,1143000/0e061ca25add64860e1b013492613cd9-d.jpg,,
21252271,Das Photo-Objektiv: Aufbau und Wirkungsweise der wichtigsten Markenobjektive der Weltproduktion,,,,Dr. Hans-Martin Brandt (auth.),1956,1,Vieweg+Teubner Verlag,,266,0,German,,,,"978-3-663-19850-5,978-3-663-20188-5",,,,,,,10.1007/978-3-663-20188-5,,,,0,,,,,,,1,10352567,pdf,f996463274370dcecc454d8fa7f8c3ee,,,D:\\HDD4\\!genesis\\SPR_NEW_2013-12\\bok%3A978-3-663-20188-5.pdf,0,2000-01-01 01:00:00,2016-04-03 02:51:08,1143000/f996463274370dcecc454d8fa7f8c3ee-d.jpg,,
21252272,Mathematische Methoden I / Mathematical Methods I,,Handbuch der Physik / Encyclopedia of Physics 1 / 1,,"J. Lense (auth.), S. Flügge (eds.)",1956,1,Springer-Verlag Berlin Heidelberg,,"VII, 364 S.",0,German,,,,"978-3-642-45834-7,978-3-642-45833-0",,,,,,,10.1007/978-3-642-45833-0,,,,0,,,,,,,1,12495238,pdf,0884380d7edb894d453344f5b759e4f0,,,D:\\HDD4\\!genesis\\SPR_NEW_2013-12\\bok%3A978-3-642-45833-0.pdf,0,2000-01-01 01:00:00,2016-04-03 02:51:08,1134000/0884380d7edb894d453344f5b759e4f0-d.jpg,,
21252273,Infrarot-Bibliographie,,Forschungsberichte des Wirtschaft- und Verkehrsministeriums Nordrhein-Westfalen,,Dr. phil. nat. H. Haase (auth.),1956,1,VS Verlag für Sozialwissenschaften,,126,0,German,,,,"978-3-663-20140-3,978-3-663-20502-9",,,,,,,10.1007/978-3-663-20502-9,,,,0,,,,,,,1,8119076,pdf,3a400799b5eb286e98bd15c50f0961bf,,,D:\\HDD4\\!genesis\\SPR_NEW_2013-12\\bok%3A978-3-663-20502-9.pdf,0,2000-01-01 01:00:00,2016-04-03 02:51:08,1143000/3a400799b5eb286e98bd15c50f0961bf-d.jpg,,
21252274,Betatron und Telekobalttherapie: Internationales Symposion am Czerny-Krankenhaus für Strahlenbehandlung der Universität Heidelberg Vom 1. Bis 3. Juli 1957,,,,"J. Becker, K. E. Scheer (auth.), J. Becker, K. E. Scheer (eds.)",1958,1,Springer-Verlag Berlin Heidelberg,,209,0,German,,,,"978-3-540-02251-0,978-3-642-85752-2",,,,,,,10.1007/978-3-642-85752-2,,,,0,,,,,,,1,10350743,pdf,bf5d583c5330882d17e1162ab9546432,,,D:\\HDD4\\!genesis\\SPR_NEW_2013-12\\bok%3A978-3-642-85752-2.pdf,0,2000-01-01 01:00:00,2016-04-03 02:51:08,1135000/bf5d583c5330882d17e1162ab9546432-d.jpg,,
21252275,Prüf- und Meßeinrichtungen,,Handbuch der Werkstoffprüfung 1,,"E. Siebel (auth.), E. Amedick, R. Berthold, K. H. Bußmann, H. H. Emschermann, W. Ermlich, L. Föppl, F. Förster, R. Glocker, M. Hempel, W. Hengemühle, K. Hild, A. U. Huggenberger, E. Krägeloh, H. de Laffolie, W. Lohrer, P. Melchior, E. Mönch, H. Oschatz, J. Schramm, S. Schwaigerer, W. Seith, O. Vaupel, Prof. Dr.-Ing. E. Siebel, Dipl.-Ing. N. Ludwig (eds.)",1958,2,Springer-Verlag Berlin Heidelberg,,906,0,German,,,,"978-3-662-41949-6,978-3-662-42006-5",,,,,,,10.1007/978-3-662-42006-5,,,,0,,,,,,,1,52391950,pdf,3979ffa78ac3eeeb8e662cfefb8b8dbb,,,D:\\HDD4\\!genesis\\SPR_NEW_2013-12\\bok%3A978-3-662-42006-5.pdf,0,2000-01-01 01:00:00,2016-04-03 02:51:08,1140000/3979ffa78ac3eeeb8e662cfefb8b8dbb-d.jpg,,
21252276,Auswirkung der Variationen der Primären Kosmischen Strahlung auf die Mesonen- und Nucleonenkomponente am Erdboden,,Max-Planck-Institut für Aeronomie 2,,Hermann Erbe (auth.),1959,1,Springer-Verlag Berlin Heidelberg,,39,0,German,,,,"978-3-662-34983-0,978-3-662-35318-9",,,,,,,10.1007/978-3-662-35318-9,,,,0,,,,,,,1,2764515,pdf,a730e672a7526220732771789df8eef3,,,D:\\HDD4\\!genesis\\SPR_NEW_2013-12\\bok%3A978-3-662-35318-9.pdf,0,2000-01-01 01:00:00,2016-04-03 02:51:08,1138000/a730e672a7526220732771789df8eef3-d.jpg,,
21252277,Waagen und Geräte zur Anorganischen Mikro-Gewichtsanalyse,,"Handbuch der Mikrochemischen Methoden 1, Teil 2",,"A. A. Benedetti-Pichler, Friedrich Hecht (auth.)",1959,1,Springer-Verlag Berlin Heidelberg,,311,0,German,,,,"978-3-662-35404-9,978-3-662-36232-7",,,,,,,10.1007/978-3-662-36232-7,,,,0,,,,,,,1,14936179,pdf,386bdfb85ca86a2ac43d9f519bd06408,,,D:\\HDD4\\!genesis\\SPR_NEW_2013-12\\bok%3A978-3-662-36232-7.pdf,0,2000-01-01 01:00:00,2016-04-03 02:51:08,1138000/386bdfb85ca86a2ac43d9f519bd06408-d.jpg,,
21252278,Leitfaden der Bewegungsbestrahlung: 1. Teil Physikalische und Methodische Grundlagen,,,,"Dr. Rer. Nat. H. Wichmann, Dr. Med. F. Heinzel (auth.)",1959,1,Springer-Verlag Berlin Heidelberg,,111,0,German,,,,"978-3-642-49138-2,978-3-642-87351-5",,,,,,,10.1007/978-3-642-87351-5,,,,0,,,,,,,1,5357663,pdf,1b2198b1c3cc7f5b9577a39b52909719,,,D:\\HDD4\\!genesis\\SPR_NEW_2013-12\\bok%3A978-3-642-87351-5.pdf,0,2000-01-01 01:00:00,2016-04-03 02:51:08,1135000/1b2198b1c3cc7f5b9577a39b52909719-d.jpg,,
21252279,Beiträge zur Physik und Chemie des 20. Jahrhunderts: Lise Meitner Otto Hahn Max von Laue zum 80. Geburtstag,,,,"K. Przibram (auth.), O. R. Frisch, F. A. Paneth, F. Laves, P. Rosbaud (eds.)",1959,1,Vieweg+Teubner Verlag,,297,0,German,,,,"978-3-663-19866-6,978-3-663-20204-2",,,,,,,10.1007/978-3-663-20204-2,,,,0,,,,,,,1,12430351,pdf,e8c8109eae1e88dfbfeee02cd373e773,,,D:\\HDD4\\!genesis\\SPR_NEW_2013-12\\bok%3A978-3-663-20204-2.pdf,0,2000-01-01 01:00:00,2016-04-03 02:51:08,1143000/e8c8109eae1e88dfbfeee02cd373e773-d.jpg,,
21252280,Erzeugung Sehr Tiefer Temperaturen: Gasverflüssigung und Zerlegung von Gasgemischen,,Handbuch der Kältetechnik VIII,,Dr.-Ing. Helmuth Hausen (auth.),1957,1,Springer-Verlag Berlin Heidelberg,,431,0,German,,,,"978-3-662-34296-1,978-3-662-34567-2",,,,,,,10.1007/978-3-662-34567-2,,,,0,,,,,,,1,21432600,pdf,6fa6b06c6bac18d402dd205b2e31a1da,,,D:\\HDD4\\!genesis\\SPR_NEW_2013-12\\bok%3A978-3-662-34567-2.pdf,0,2000-01-01 01:00:00,2016-04-03 02:51:08,1138000/6fa6b06c6bac18d402dd205b2e31a1da-d.jpg,,
21252281,Flammenphotometrie,,,,"Dr. rer. nat. R. Herrmann, Dr. C. Th. J. Alkemade (auth.)",1960,2,Springer-Verlag Berlin Heidelberg,,431,0,German,,,,"978-3-662-11750-7,978-3-662-11749-1",,,,,,,10.1007/978-3-662-11749-1,,,,0,,,,,,,1,14779462,pdf,304803c85fc3c83ed2fd88e5d298f6d2,,,D:\\HDD4\\!genesis\\SPR_NEW_2013-12\\bok%3A978-3-662-11749-1.pdf,0,2000-01-01 01:00:00,2016-04-03 02:51:08,1136000/304803c85fc3c83ed2fd88e5d298f6d2-d.jpg,,
21252282,Rechnen in der Chemie: Zweiter Teil: Chemisch-technisches und physikalisch-chemisches Rechnen unter Berücksichtigung der höheren Mathematik,,,,Dr. techn. Ing. Walter Wittenberger (auth.),1960,2,Springer-Verlag Berlin Heidelberg,,511,0,German,,,,"978-3-662-37497-9,978-3-662-38264-6",,,,,,,10.1007/978-3-662-38264-6,,,,0,,,,,,,1,14915863,pdf,5d59b56ab3d44ce853ec7affaff296ea,,,D:\\HDD4\\!genesis\\SPR_NEW_2013-12\\bok%3A978-3-662-38264-6.pdf,0,2000-01-01 01:00:00,2016-04-03 02:51:08,1139000/5d59b56ab3d44ce853ec7affaff296ea-d.jpg,,
21252283,Principles of Classical Mechanics and Field Theory / Prinzipien der Klassischen Mechanik und Feldtheorie,,Encyclopedia of Physics / Handbuch der Physik 2 / 3 / 1,,"J. L. Synge (auth.), S. Flügge (eds.)",1960,1,Springer-Verlag Berlin Heidelberg,,909,0,German,,,,"978-3-540-02547-4,978-3-642-45943-6",,,,,,,10.1007/978-3-642-45943-6,,,,0,,,,,,,1,32735925,pdf,728f54156b632c44eac2c559f120ddab,,,D:\\HDD4\\!genesis\\SPR_NEW_2013-12\\bok%3A978-3-642-45943-6.pdf,0,2000-01-01 01:00:00,2016-04-03 02:51:08,1134000/728f54156b632c44eac2c559f120ddab-d.jpg,,
21252284,Lehrbuch der Theoretischen Physik: Band I · Einführung,,,,Dr. phil. Siegfried Flügge (auth.),1961,1,Springer-Verlag Berlin Heidelberg,,267,0,German,,,,"978-3-642-87336-2,978-3-642-87335-5",,,,,,,10.1007/978-3-642-87335-5,,,,0,,,,,,,1,6985390,pdf,cb119111d6f1d3490aaa7bc615f294e0,,,D:\\HDD4\\!genesis\\SPR_NEW_2013-12\\bok%3A978-3-642-87335-5.pdf,0,2000-01-01 01:00:00,2016-04-03 02:51:08,1135000/cb119111d6f1d3490aaa7bc615f294e0-d.jpg,,
21252285,Die thermodynamischen Eigenschaften der Luft: im Temperaturbereich zwischen −210 °C und +1250 °C bis zu Drücken von 4500 bar,,Thermodynamische Eigenschaften der Gase und Flüssigkeiten 1,,"Professor Dr.-Ing. Hans Dieter Baehr, Dipl.-Ing. Klaus Schwier (auth.)",1961,1,Springer-Verlag Berlin Heidelberg,,145,0,German,,,,"978-3-662-23933-9,978-3-662-26045-6",,,,,,,10.1007/978-3-662-26045-6,,,,0,,,,,,,1,4605426,pdf,da6beb758cb7397a7d294ffc18b78013,,,D:\\HDD4\\!genesis\\SPR_NEW_2013-12\\bok%3A978-3-662-26045-6.pdf,0,2000-01-01 01:00:00,2016-04-03 02:51:08,1137000/da6beb758cb7397a7d294ffc18b78013-d.jpg,,
21252286,Lager und Schmierung,,Die Verbrennungskraftmaschine,,Dipl.-Ing. Kurt Milowiz (auth.),1962,1,Springer-Verlag Berlin Heidelberg,,224,0,German,,,,"978-3-662-37731-4,978-3-662-38548-7",,,,,,,10.1007/978-3-662-38548-7,,,,0,,,,,,,1,16336057,pdf,e800797f39da3ac55a911dac9a206e9f,,,D:\\HDD4\\!genesis\\SPR_NEW_2013-12\\bok%3A978-3-662-38548-7.pdf,0,2000-01-01 01:00:00,2016-04-03 02:51:08,1139000/e800797f39da3ac55a911dac9a206e9f-d.jpg,,
21252287,Elektromagnetische Induktion in einem Leitenden Homogenen Zylinder durch Äussere Magnetische und Elektrische Wechselfelder,,Mitteilungen aus dem Max-Planck-Institut für Aeronomie 13,,Joachim Meyer (auth.),1963,1,Springer-Verlag Berlin Heidelberg,,71,0,German,,,,"978-3-540-03026-3,978-3-642-86553-4",,,,,,,10.1007/978-3-642-86553-4,,,,0,,,,,,,1,2611263,pdf,fe79ec31d2f8cbff9ab3becf8916c271,,,D:\\HDD4\\!genesis\\SPR_NEW_2013-12\\bok%3A978-3-642-86553-4.pdf,0,2000-01-01 01:00:00,2016-04-03 02:51:08,1135000/fe79ec31d2f8cbff9ab3becf8916c271-d.jpg,,
21252288,Molekularakustik: Eine Einführung in die Zusammenhänge Zwischen Ultraschall und Molekülstruktur in Flüssigkeiten und Gasen,,,,Werner Schaaffs (auth.),1963,1,Springer-Verlag Berlin Heidelberg,,512,0,German,,,,"978-3-642-49141-2,978-3-642-87538-0",,,,,,,10.1007/978-3-642-87538-0,,,,0,,,,,,,1,18046810,pdf,25e761d9c35ca57e566c848983507241,,,D:\\HDD4\\!genesis\\SPR_NEW_2013-12\\bok%3A978-3-642-87538-0.pdf,0,2000-01-01 01:00:00,2016-04-03 02:51:08,1135000/25e761d9c35ca57e566c848983507241-d.jpg,,
21252289,Über die Bestimmung von Längstwellen-Ausbreitungsparametern aus Feldstärkemessungen am Erdboden,,Mitteilungen aus dem Max-Planck-Institut für Aeronomie No. 23,,J. Frisius (auth.),1965,1,Springer-Verlag Berlin Heidelberg,,57,0,German,,,,"978-3-662-34184-1,978-3-662-34454-5",,,,,,,10.1007/978-3-662-34454-5,,,,0,,,,,,,1,2990007,pdf,c57592eaaa419075475decbb99a9fffe,,,D:\\HDD4\\!genesis\\SPR_NEW_2013-12\\bok%3A978-3-662-34454-5.pdf,0,2000-01-01 01:00:00,2016-04-03 02:51:08,1138000/c57592eaaa419075475decbb99a9fffe-d.jpg,,
21252290,Probleme der Gewitterforschung: I. Das Gewitter in heutiger Sicht,,Forschungsberichte des Landes Nordrhein-Westfalen,,Prof. Dr. Hans Israël (auth.),1964,1,VS Verlag für Sozialwissenschaften,,69,0,German,,,,"978-3-663-19977-9,978-3-663-20325-4",,,,,,,10.1007/978-3-663-20325-4,,,,0,,,,,,,1,2166587,pdf,1daff15a1cd916c273662440467aa034,,,D:\\HDD4\\!genesis\\SPR_NEW_2013-12\\bok%3A978-3-663-20325-4.pdf,0,2000-01-01 01:00:00,2016-04-03 02:51:08,1143000/1daff15a1cd916c273662440467aa034-d.jpg,,
21252291,Die Anisotropien der Kosmischen Strahlung,,Mitteilungen aus dem Max-Planck-Institut für Aeronomie 16,,Erhard Kirsch (auth.),1964,1,Springer-Verlag Berlin Heidelberg,,75,0,German,,,,"978-3-540-03186-4,978-3-642-86205-2",,,,,,,10.1007/978-3-642-86205-2,,,,0,,,,,,,1,3283410,pdf,974c71482b5d4ead7a0629055c7237fd,,,D:\\HDD4\\!genesis\\SPR_NEW_2013-12\\bok%3A978-3-642-86205-2.pdf,0,2000-01-01 01:00:00,2016-04-03 02:51:08,1135000/974c71482b5d4ead7a0629055c7237fd-d.jpg,,
21252292,Ausbau eines Wechsellichtmonochromators und seine Anwendung zur Messung des Luftleuchtens Während der Dämmerung und in der Nacht,,Mitteilungen aus dem Max-Planck-Institut für Aeronomie 17,,Günther Guilino (auth.),1964,1,Springer-Verlag Berlin Heidelberg,,63,0,German,,,,"978-3-540-03187-1,978-3-642-85702-7",,,,,,,10.1007/978-3-642-85702-7,,,,0,,,,,,,1,2304972,pdf,71f19e483eddb55cf31c891b8e53f48a,,,D:\\HDD4\\!genesis\\SPR_NEW_2013-12\\bok%3A978-3-642-85702-7.pdf,0,2000-01-01 01:00:00,2016-04-03 02:51:08,1135000/71f19e483eddb55cf31c891b8e53f48a-d.jpg,,
21252293,Grundlagen Systeme Ausführung,,,,Dr.-Ing. F. Roedler (auth.),1968,15,Springer-Verlag Berlin Heidelberg,,422,0,German,,,,"978-3-662-37434-4,978-3-662-38191-5",,,,,,,10.1007/978-3-662-38191-5,,,,0,,,,,,,1,25102138,pdf,8f744d4a352117275158e2ef256bae5b,,,D:\\HDD4\\!genesis\\SPR_NEW_2013-12\\bok%3A978-3-662-38191-5.pdf,0,2000-01-01 01:00:00,2016-04-03 02:51:08,1139000/8f744d4a352117275158e2ef256bae5b-d.jpg,,
21252294,Innere Elektronik: Grundlagen der Kristallelektronik,,Technische Elektrodynamik,,Franz Ollendorff (auth.),1966,1,Springer-Verlag Berlin Heidelberg,,619,0,German,,,,"978-3-662-23005-3,978-3-662-24965-9",,,,,,,10.1007/978-3-662-24965-9,,,,0,,,,,,,1,26760263,pdf,a49a6538ddca5cfaad2d77513a47a0ba,,,D:\\HDD4\\!genesis\\SPR_NEW_2013-12\\bok%3A978-3-662-24965-9.pdf,0,2000-01-01 01:00:00,2016-04-03 02:51:08,1136000/a49a6538ddca5cfaad2d77513a47a0ba-d.jpg,,
21252295,Theoretische Physik auf der Grundlage einer allgemeinen Dynamik: Band Ia: Aufgaben und Ergänzungen zur Punktmechanik,,Heidelberger Taschenbücher,,G. Falk (auth.),1966,1,Springer-Verlag Berlin Heidelberg,,159,0,German,,,,"978-3-662-37600-3,978-3-662-38382-7",,,,,,,10.1007/978-3-662-38382-7,,,,0,,,,,,,1,5740151,pdf,2509916b1c8de94430c23c9de60c0cf7,,,D:\\HDD4\\!genesis\\SPR_NEW_2013-12\\bok%3A978-3-662-38382-7.pdf,0,2000-01-01 01:00:00,2016-04-03 02:51:08,1139000/2509916b1c8de94430c23c9de60c0cf7-d.jpg,,
21252296,Mechanik der festen Körper,,,,Heinz Parkus (auth.),1966,2,Springer-Verlag Wien,,X 368 S. 281 Abb.,0,German,,,,"978-3-211-80777-4,978-3-7091-7136-3",,,,,,,10.1007/978-3-7091-7136-3,,,,0,,,,,,,1,30655439,pdf,ce5bb66a5ca2b8e27b966e4f828fa767,,,D:\\HDD4\\!genesis\\SPR_NEW_2013-12\\bok%3A978-3-7091-7136-3.pdf,0,2000-01-01 01:00:00,2016-04-03 02:51:08,1143000/ce5bb66a5ca2b8e27b966e4f828fa767-d.jpg,,
21252297,Mechanik: Dynamik der Starren Körper und Systeme,,Lehr- und Handbücher der Ingenieurwissenschaften 6,,Hans Ziegler (auth.),1966,4,Springer Basel,,211,0,German,,,,"978-3-0348-4082-8,978-3-0348-4157-3",,,,,,,10.1007/978-3-0348-4157-3,,,,0,,,,,,,1,5510403,pdf,a8b835f669f09155aba838db3174807c,,,D:\\HDD4\\!genesis\\SPR_NEW_2013-12\\bok%3A978-3-0348-4157-3.pdf,0,2000-01-01 01:00:00,2016-04-03 02:51:08,1130000/a8b835f669f09155aba838db3174807c-d.jpg,,
21252298,Temperaturfunktionen zur Prüfung selbsttätiger Brandmeldesysteme,,Forschungsberichte des Landes Nordrhein-Westfalen,,Dr.-Ing. Heinz Luck (auth.),1966,1,VS Verlag für Sozialwissenschaften,,79,0,German,,,,"978-3-663-19997-7,978-3-663-20348-3",,,,,,,10.1007/978-3-663-20348-3,,,,0,,,,,,,1,2408900,pdf,08666cb4fc3036608e27587632d8b7a9,,,D:\\HDD4\\!genesis\\SPR_NEW_2013-12\\bok%3A978-3-663-20348-3.pdf,0,2000-01-01 01:00:00,2016-04-03 02:51:08,1143000/08666cb4fc3036608e27587632d8b7a9-d.jpg,,
21252299,Einführung in die Elektronentheorie der Metalle,,,,Dr. rer. nat. habil. Wolfram Brauer (auth.),1966,1,Vieweg+Teubner Verlag,,231,0,German,,,,"978-3-663-19870-3,978-3-663-20209-7",,,,,,,10.1007/978-3-663-20209-7,,,,0,,,,,,,1,7317844,pdf,2b7ed44a20224cc898f600c217e09af7,,,D:\\HDD4\\!genesis\\SPR_NEW_2013-12\\bok%3A978-3-663-20209-7.pdf,0,2000-01-01 01:00:00,2016-04-03 02:51:08,1143000/2b7ed44a20224cc898f600c217e09af7-d.jpg,,
21252300,Theoretische Beschreibungen des Verhaltens der Nächtlichen F — Schicht,,Mitteilungen aus dem Max-Planck-Institut für Aeronomie 26,,Perter Stubbe (auth.),1966,1,Springer-Verlag Berlin Heidelberg,,49,0,German,,,,"978-3-540-03616-6,978-3-662-30581-2",,,,,,,10.1007/978-3-662-30581-2,,,,0,,,,,,,1,1652541,pdf,6abf5858e6c44e5f17b941f2efbb7edd,,,D:\\HDD4\\!genesis\\SPR_NEW_2013-12\\bok%3A978-3-662-30581-2.pdf,0,2000-01-01 01:00:00,2016-04-03 02:51:08,1137000/6abf5858e6c44e5f17b941f2efbb7edd-d.jpg,,
21252301,Über eine Neue Ozonradiosonde und Untersuchung von Lufttransporten in der Unteren Stratosphäre,,Mitteilungen aus dem Max-Planck-Institut für Aeronomie 28,,Peter Fabian (auth.),1967,1,Springer-Verlag Berlin Heidelberg,,65,0,German,,,,"978-3-540-03928-0,978-3-642-88545-7",,,,,,,10.1007/978-3-642-88545-7,,,,0,,,,,,,1,3720929,pdf,67c2c8218a85fc60f6ac395659a1c4b9,,,D:\\HDD4\\!genesis\\SPR_NEW_2013-12\\bok%3A978-3-642-88545-7.pdf,0,2000-01-01 01:00:00,2016-04-03 02:51:08,1135000/67c2c8218a85fc60f6ac395659a1c4b9-d.jpg,,
21252302,Einführung in die Mikrowellenphysik,,Wissenschaftliche Forschungsberichte 64,,Prof. Dr. Gerhard Klages (auth.),1967,2,Springer-Verlag Berlin Heidelberg,,290,0,German,,,,"978-3-642-53341-9,978-3-642-53381-5",,,,,,,10.1007/978-3-642-53381-5,,,,0,,,,,,,1,9361460,pdf,2324975d7043b415cffcbb05d53086c8,,,D:\\HDD4\\!genesis\\SPR_NEW_2013-12\\bok%3A978-3-642-53381-5.pdf,0,2000-01-01 01:00:00,2016-04-03 02:51:08,1135000/2324975d7043b415cffcbb05d53086c8-d.jpg,,
21252303,Mechanik Geordneter und Ungeordneter Bewegungen,,,,Dr. Phil. Dr. h. c. Siegfried Flügge (auth.),1967,1,Springer-Verlag Berlin Heidelberg,,383,0,German,,,,"978-3-662-37114-5,978-3-662-37824-3",,,,,,,10.1007/978-3-662-37824-3,,,,0,,,,,,,1,8319013,pdf,dca7ecad0d43101ec6371849f64c3c0c,,,D:\\HDD4\\!genesis\\SPR_NEW_2013-12\\bok%3A978-3-662-37824-3.pdf,0,2000-01-01 01:00:00,2016-04-03 02:51:08,1139000/dca7ecad0d43101ec6371849f64c3c0c-d.jpg,,
21252304,Planimetrie: Mit einem Abriß über die Kegelschnitte,,,,Dr. Adolf Hess (auth.),1967,13,Springer-Verlag Berlin Heidelberg,,150,0,German,,,,"978-3-540-03874-0,978-3-642-87872-5",,,,,,,10.1007/978-3-642-87872-5,,,,0,,,,,,,1,12279996,pdf,5cbc82e7f2b39de35e3834b57f06edae,,,D:\\HDD4\\!genesis\\SPR_NEW_2013-12\\bok%3A978-3-642-87872-5.pdf,0,2000-01-01 01:00:00,2016-04-03 02:51:08,1135000/5cbc82e7f2b39de35e3834b57f06edae-d.jpg,,
21252305,"Symposium on Biophysics and Physiology of Biological Transport: Frascati, June 15–18, 1965. Proceedings",,,,"E. Tria, O. Barnabei (auth.), Liana Bolis, V. Capraro, K. R. Porter, J. D. Robertson (eds.)",1967,1,Springer-Verlag Berlin Heidelberg,,350,0,German,,,,"978-3-662-23148-7,978-3-662-25134-8",,,,,,,10.1007/978-3-662-25134-8,,,,0,,,,,,,1,19515304,pdf,0e56da3d4e9d5d387a4872829270e608,,,D:\\HDD4\\!genesis\\SPR_NEW_2013-12\\bok%3A978-3-662-25134-8.pdf,0,2000-01-01 01:00:00,2016-04-03 02:51:08,1136000/0e56da3d4e9d5d387a4872829270e608-d.jpg,,
21252306,Physik: Ein Lehrbuch zum Gebrauch neben Vorlesungen,,Hochschultext,,"Chr. Gerthsen, Dr. Hans O. Kneser (auth.)",1971,11,Springer-Verlag Berlin Heidelberg,,577,0,German,,,,"978-3-662-35576-3,978-3-662-36405-5",,,,,,,10.1007/978-3-662-36405-5,,,,0,,,,,,,1,25163254,pdf,7c35ae92bf661018a11c901d70657529,,,D:\\HDD4\\!genesis\\SPR_NEW_2013-12\\bok%3A978-3-662-36405-5.pdf,0,2000-01-01 01:00:00,2016-04-03 02:51:08,1138000/7c35ae92bf661018a11c901d70657529-d.jpg,,
21252307,Experimentelle Untersuchung der Nichtgleichgewichts-Expansionsströmung im Hyperschallbereich,,Forschungsberichte des Landes Nordrhein-Westfalen,,"Dr.-Ing Klaus Hans Finke, Prof. Dr. rer. nat Hans Grönig (auth.)",1971,1,VS Verlag für Sozialwissenschaften,,66,0,German,,,,"978-3-663-20007-9,978-3-663-20359-9",,,,,,,10.1007/978-3-663-20359-9,,,,0,,,,,,,1,2244956,pdf,a2d121ec39374556c34beccec468f0af,,,D:\\HDD4\\!genesis\\SPR_NEW_2013-12\\bok%3A978-3-663-20359-9.pdf,0,2000-01-01 01:00:00,2016-04-03 02:51:08,1143000/a2d121ec39374556c34beccec468f0af-d.jpg,,
21252308, e −γ-Winkelkorrelationsmessungen an Kernübergängen mit anomaler Konversion,,Forschungsberichte des Landes Nordrhein-Westfalen,,"Dipl.-Phys. Jens Voß, Prof. Dr. Erwin Bodenstedt (auth.)",1969,1,VS Verlag für Sozialwissenschaften,,40,0,German,,,,"978-3-663-19912-0,978-3-663-20255-4",,,,,,,10.1007/978-3-663-20255-4,,,,0,,,,,,,1,1350340,pdf,8673ae49d5d03a2c1b318d418dba4a19,,,D:\\HDD4\\!genesis\\SPR_NEW_2013-12\\bok%3A978-3-663-20255-4.pdf,0,2000-01-01 01:00:00,2016-04-03 02:51:08,1143000/8673ae49d5d03a2c1b318d418dba4a19-d.jpg,,
21252309,Runaway-Ströme hoher Intensität in einer toroidalen Entladung,,Forschungsberichte des Landes Nordrhein-Westfalen,,"Dr. Jürgen Drees, Dipl.-Phys. Helge Trinks (auth.)",1969,1,VS Verlag für Sozialwissenschaften,,41,0,German,,,,"978-3-663-20080-2,978-3-663-20439-8",,,,,,,10.1007/978-3-663-20439-8,,,,0,,,,,,,1,1533545,pdf,be53a78bda44dd1e7386dc359cb60e04,,,D:\\HDD4\\!genesis\\SPR_NEW_2013-12\\bok%3A978-3-663-20439-8.pdf,0,2000-01-01 01:00:00,2016-04-03 02:51:08,1143000/be53a78bda44dd1e7386dc359cb60e04-d.jpg,,
21252310,Untersuchung von Netzen mit veränderlichen Elementen,,Forschungsberichte des Landes Nordrhein-Westfalen,,Dr.-Ing. Gerhard Dickopp (auth.),1969,1,VS Verlag für Sozialwissenschaften,,70,0,German,,,,"978-3-663-19943-4,978-3-663-20288-2",,,,,,,10.1007/978-3-663-20288-2,,,,0,,,,,,,1,2433614,pdf,11b80614ce81661aa4b32e64ade53066,,,D:\\HDD4\\!genesis\\SPR_NEW_2013-12\\bok%3A978-3-663-20288-2.pdf,0,2000-01-01 01:00:00,2016-04-03 02:51:08,1143000/11b80614ce81661aa4b32e64ade53066-d.jpg,,
21252311,Thermodynamik: Zweiter Band: Gemische und chemische Reaktionen,,,,Dr.-Ing. Hans Jürgen Löffler (auth.),1969,1,Springer-Verlag Berlin Heidelberg,,234,0,German,,,,"978-3-662-36166-5,978-3-662-36996-8",,,,,,,10.1007/978-3-662-36996-8,,,,0,,,,,,,1,8952457,pdf,e70e5fb9acf1015f71d6d5464d4ecf9d,,,D:\\HDD4\\!genesis\\SPR_NEW_2013-12\\bok%3A978-3-662-36996-8.pdf,0,2000-01-01 01:00:00,2016-04-03 02:51:08,1139000/e70e5fb9acf1015f71d6d5464d4ecf9d-d.jpg,,
21252312,Numerische Tabellen für Beta-Zerfall und Elektronen-Einfang / Numerical Tables for Beta-Decay and Electron Capture,,,,"H. Behrens, J. Jänecke (auth.), H. Schopper (eds.)",1969,1,Springer-Verlag Berlin Heidelberg,,322,0,German,,,,"978-3-662-37716-1,978-3-662-38531-9",,,,,,,10.1007/978-3-662-38531-9,,,,0,,,,,,,1,31693365,pdf,e3bb43e4cf67e514ff449dd45a5f850d,,,D:\\HDD4\\!genesis\\SPR_NEW_2013-12\\bok%3A978-3-662-38531-9.pdf,0,2000-01-01 01:00:00,2016-04-03 02:51:08,1139000/e3bb43e4cf67e514ff449dd45a5f850d-d.jpg,,
21252313,Eigenschaften von Atomen und Molekeln,,,,"Professor Dr. Klaus Schäfer, Dr. Claudia Synowietz (auth.), Professor Dr. Klaus Schäfer, Dr. Claudia Synowietz (eds.)",1970,3,Springer-Verlag Berlin Heidelberg,,677,0,German,,,,"978-3-662-35993-8,978-3-662-36823-7",,,,,,,10.1007/978-3-662-36823-7,,,,0,,,,,,,1,18147565,pdf,1adbab9ec13b5603a2f616e086c87b74,,,D:\\HDD4\\!genesis\\SPR_NEW_2013-12\\bok%3A978-3-662-36823-7.pdf,0,2000-01-01 01:00:00,2016-04-03 02:51:08,1139000/1adbab9ec13b5603a2f616e086c87b74-d.jpg,,
21252314,Deutung des Begriffs ”physikalische Theorie” und axiomatische Grundlegung der Hilbertraumstruktur der Quantenmechanik durch Hauptsätze des Messens,,Lecture Notes in Physics 4,,G. Ludwig (auth.),1970,1,Springer-Verlag Berlin Heidelberg,,484,0,German,,,,"978-3-662-24271-1,978-3-662-26384-6",,,,,,,10.1007/978-3-662-26384-6,,,,0,,,,,,,1,11690442,pdf,8d02c2feae010b588592a8bec047800c,,,D:\\HDD4\\!genesis\\SPR_NEW_2013-12\\bok%3A978-3-662-26384-6.pdf,0,2000-01-01 01:00:00,2016-04-03 02:51:08,1137000/8d02c2feae010b588592a8bec047800c-d.jpg,,
21252315,Resonante Wechselwirkung elektromagnetischer Wellen mit ionisierter Materie: Untersuchungen zur unteren Hybrid-Resonanz,,Forschungsberichte des Landes Nordrhein-Westfalen,,"Bernd Lammers, Hans Schlüter (auth.)",1973,1,VS Verlag für Sozialwissenschaften,,47,0,German,,,,"978-3-531-02379-3,978-3-663-20442-8",,,,,,,10.1007/978-3-663-20442-8,,,,0,,,,,,,1,1655029,pdf,63ed9574753a778572407804fa9b3dd7,,,D:\\HDD4\\!genesis\\SPR_NEW_2013-12\\bok%3A978-3-663-20442-8.pdf,0,2000-01-01 01:00:00,2016-04-03 02:51:08,1143000/63ed9574753a778572407804fa9b3dd7-d.jpg,,
21252316,Molekularstrahl-Experimente an zweiatomigen Molekülen in angeregten Schwingungszuständen: Teil II: Verteilung der Schwingungsenergie von CsF aus den chemischen Reaktionen Cs + SF6 und SF4,,Forschungsberichte des Landes Nordrhein-Westfalen,,"Prof. Dr. rer. nat. Hans Gerhard Bennewitz, Dr. rer. nat. Rainer Haerten, Dipl.-phys. Odo Klais, Dr. rer. nat. Gerold Müller (auth.)",1973,1,VS Verlag für Sozialwissenschaften,,46,0,German,,,,"978-3-663-20098-7,978-3-663-20458-9",,,,,,,10.1007/978-3-663-20458-9,,,,0,,,,,,,1,1593540,pdf,846540679aa922638aaec4530ccf33a0,,,D:\\HDD4\\!genesis\\SPR_NEW_2013-12\\bok%3A978-3-663-20458-9.pdf,0,2000-01-01 01:00:00,2016-04-03 02:51:08,1143000/846540679aa922638aaec4530ccf33a0-d.jpg,,
21252317,Fragen der Klassischen und Relativistischen Mechanik: Vier Vorträge Gehalten in Spanien im Januar 1921,,,,T. Levi-Civit`(auth.),1973,,Springer Berlin Heidelberg,,"VI, 110 S. 13 Textfig.",0,German,,,,"978-3-540-06046-8,978-3-642-65489-3",,,,,,,10.1007/978-3-642-65489-3,,,,0,,,,,,,1,16158380,pdf,11d1276fd62357aeee0fdf34bdc7c5e4,,,D:\\HDD4\\!genesis\\SPR_NEW_2013-12\\bok%3A978-3-642-65489-3.pdf,0,2000-01-01 01:00:00,2016-04-03 02:51:08,1135000/11d1276fd62357aeee0fdf34bdc7c5e4-d.jpg,,
21252318,Ein Rechenmodell zur Beschreibung des Stratosphärischen Ozonkreislaufs,,Mitteilungen aus dem Max-Planck-Institut für Aeronomie 50,,Wolfgang Jessen (auth.),1973,1,Springer-Verlag Berlin Heidelberg,,59,0,German,,,,"978-3-540-06494-7,978-3-642-86488-9",,,,,,,10.1007/978-3-642-86488-9,,,,0,,,,,,,1,2238239,pdf,43e916f4e7b4f79c9743b326627aac5c,,,D:\\HDD4\\!genesis\\SPR_NEW_2013-12\\bok%3A978-3-642-86488-9.pdf,0,2000-01-01 01:00:00,2016-04-03 02:51:08,1135000/43e916f4e7b4f79c9743b326627aac5c-d.jpg,,
21252319,Der Rasmussen-Bericht (WASH-1400): Übersetzung der Kurzfassung,,Stellungnahmen zu Kernenergiefragen,,Norman C. Rasmussen (auth.),1975,1,Springer-Verlag Berlin Heidelberg,,40,0,German,,,,"978-3-662-37368-2,978-3-662-38114-4",,,,,,,10.1007/978-3-662-38114-4,,,,0,,,,,,,1,1270293,pdf,9dde36c2d4399ec11357c3bd6d50db9a,,,D:\\HDD4\\!genesis\\SPR_NEW_2013-12\\bok%3A978-3-662-38114-4.pdf,0,2000-01-01 01:00:00,2016-04-03 02:51:08,1139000/9dde36c2d4399ec11357c3bd6d50db9a-d.jpg,,
21252320,Philosophie der Raum-Zeit-Lehre,,Hans Reichenbach 2,,"Rolf Carnap (auth.), Andreas Kamlah, Maria Reichenbach (eds.)",1977,1,Vieweg+Teubner Verlag,,450,0,German,,,,"978-3-528-08362-5,978-3-663-13988-1",,,,,,,10.1007/978-3-663-13988-1,,,,0,,,,,,,1,22773933,pdf,0772f00e63401299bf6a8485983040d3,,,D:\\HDD4\\!genesis\\SPR_NEW_2013-12\\bok%3A978-3-663-13988-1.pdf,0,2000-01-01 01:00:00,2016-04-03 02:51:08,1142000/0772f00e63401299bf6a8485983040d3-d.jpg,,
21252321,Trocknungstechnik: Zweiter Band Trockner und Trocknungsverfahren,,,,Dr.-Ing. Karl Kröll (auth.),1978,2,Springer-Verlag Berlin Heidelberg,,680,0,German,,,,"978-3-642-61875-8,978-3-642-61874-1",,,,,,,10.1007/978-3-642-61874-1,,,,0,,,,,,,1,30995880,pdf,c34b8772ab53d7a89984bbc8846352c5,,,D:\\HDD4\\!genesis\\SPR_NEW_2013-12\\bok%3A978-3-642-61874-1.pdf,0,2000-01-01 01:00:00,2016-04-03 02:51:08,1135000/c34b8772ab53d7a89984bbc8846352c5-d.jpg,,
21252322,"Wärmeübertragung im Gegenstrom, Gleichstrom und Kreuzstrom",,,,Dr.-Ing. Dr.-Ing. E. h. Helmuth Hausen (auth.),1976,2,Springer-Verlag Berlin Heidelberg,,443,0,German,,,,"978-3-642-88687-4,978-3-642-88686-7",,,,,,,10.1007/978-3-642-88686-7,,,,0,,,,,,,1,28685922,pdf,1431f14530cf54995ff1ef8c336edefa,,,D:\\HDD4\\!genesis\\SPR_NEW_2013-12\\bok%3A978-3-642-88686-7.pdf,0,2000-01-01 01:00:00,2016-04-03 02:51:08,1135000/1431f14530cf54995ff1ef8c336edefa-d.jpg,,
21252323,Doppelgalaxien,,Forschungsberichte des Landes Nordrhein-Westfalen 3079,,"Dr. Walter Eichendorf, Prof. Dr. Michael Reinhardt (auth.)",1981,1,VS Verlag für Sozialwissenschaften,,"IV, 218 S.",0,German,,,,"978-3-322-98861-4,978-3-322-98860-7",,,,,,,10.1007/978-3-322-98860-7,,,,0,,,,,,,1,6949805,pdf,14f6337cb1010a150a04ac804e341044,,,D:\\HDD4\\!genesis\\SPR_NEW_2013-12\\bok%3A978-3-322-98860-7.pdf,0,2000-01-01 01:00:00,2016-04-03 02:51:08,1133000/14f6337cb1010a150a04ac804e341044-d.jpg,,
21252324,Phasendiagramme,,Wissenschaftliche Taschenbücher 267,,Prof. Dr. sc. nat. Peter Paufler (auth.),1981,1,Vieweg+Teubner Verlag,,179,0,German,,,,"978-3-528-06865-3,978-3-322-86071-2",,,,,,,10.1007/978-3-322-86071-2,,,,0,,,,,,,1,6972108,pdf,528ec3b5bfc06a8a87b372b30a9e5b85,,,D:\\HDD4\\!genesis\\SPR_NEW_2013-12\\bok%3A978-3-322-86071-2.pdf,0,2000-01-01 01:00:00,2016-04-03 02:51:08,1132000/528ec3b5bfc06a8a87b372b30a9e5b85-d.jpg,,
21252325,Vortex Motion: Proceedings of a colloquium held at Goettingen on the occasion of the 75th anniversary of the Aerodynamische Versuchsanstalt in November 1982,,,,"N. Didden (auth.), H. G. Hornung, E.-A. Müller (eds.)",1982,1,Vieweg+Teubner Verlag,,180,0,German,,,,"978-3-528-08536-0,978-3-663-13883-9",,,,,,,10.1007/978-3-663-13883-9,,,,0,,,,,,,1,5931853,pdf,996d7a00e5036861ed096ae3bd01c3f3,,,D:\\HDD4\\!genesis\\SPR_NEW_2013-12\\bok%3A978-3-663-13883-9.pdf,0,2000-01-01 01:00:00,2016-04-03 02:51:08,1142000/996d7a00e5036861ed096ae3bd01c3f3-d.jpg,,
21252326,Trenneffekte in Stoßwellen,,Forschungsbericht des Landes Nordrhein-Westfalen 3108,,Prof. Dr.-Ing. Alfred Erich Beylich (auth.),1982,1,VS Verlag für Sozialwissenschaften,,"IV, 108 S.",0,German,,,,"978-3-531-03108-8,978-3-322-87549-5",,,,,,,10.1007/978-3-322-87549-5,,,,0,,,,,,,1,2479411,pdf,405737230b8e74d232a0b17e201f7616,,,D:\\HDD4\\!genesis\\SPR_NEW_2013-12\\bok%3A978-3-322-87549-5.pdf,0,2000-01-01 01:00:00,2016-04-03 02:51:08,1132000/405737230b8e74d232a0b17e201f7616-d.jpg,,
21252327,Finite Elemente in der Bruchmechanik,,,,"Univ.-Doz.Dr.Mag. Hans-Peter Rossmanith (auth.), Doz. Dr. Hans-Peter Rossmanith (eds.)",1982,1,Springer-Verlag Wien,,385,0,German,,,,"978-3-7091-2298-3,978-3-7091-2297-6",,,,,,,10.1007/978-3-7091-2297-6,,,,0,,,,,,,1,11875816,pdf,21f48b86f74b8997646b612ee56eed5f,,,D:\\HDD4\\!genesis\\SPR_NEW_2013-12\\bok%3A978-3-7091-2297-6.pdf,0,2000-01-01 01:00:00,2016-04-03 02:51:08,1143000/21f48b86f74b8997646b612ee56eed5f-d.jpg,,
21252328,Numerical Methods in Laminar Flame Propagation: A GAMM-Workshop,,Notes on Numerical Fluid Mechanics 6,,"N. Peters (auth.), Norbert Peters, Jürgen Warnatz (eds.)",1982,1,Vieweg+Teubner Verlag,,"VIII, 202 S.",0,German,,,,"978-3-528-08080-8,978-3-663-14006-1",,,,,,,10.1007/978-3-663-14006-1,,,,0,,,,,,,1,5868753,pdf,b1fdbb2db615e256d0e79c51054d9fc5,,,D:\\HDD4\\!genesis\\SPR_NEW_2013-12\\bok%3A978-3-663-14006-1.pdf,0,2000-01-01 01:00:00,2016-04-03 02:51:08,1142000/b1fdbb2db615e256d0e79c51054d9fc5-d.jpg,,
21252329,"Umladung von langsamen, mehrfach geladenen Ionen in Neutralgasen",,Forschungsberichte des Landes Nordrhein-Westfalen 3151,,"Priv.-Doz. Dr. rer. nat. Bernd A. Huber, Prof. Dr. rer. nat. Klaus Wiesemann (auth.)",1982,1,VS Verlag für Sozialwissenschaften,,223,0,German,,,,"978-3-531-03151-4,978-3-663-19796-6",,,,,,,10.1007/978-3-663-19796-6,,,,0,,,,,,,1,4832010,pdf,fe1eac749d67b47c92f0509b739d0ee6,,,D:\\HDD4\\!genesis\\SPR_NEW_2013-12\\bok%3A978-3-663-19796-6.pdf,0,2000-01-01 01:00:00,2016-04-03 02:51:08,1143000/fe1eac749d67b47c92f0509b739d0ee6-d.jpg,,
21252330,Handbuch Meßtechnik und Qualitätssicherung,,,,Prof. Dr.-Ing. habil. Dietrich Hofmann (auth.),1983,1,Vieweg+Teubner Verlag,,498,0,German,,,,"978-3-528-08507-0,978-3-663-14093-1",,,,,,,10.1007/978-3-663-14093-1,,,,0,,,,,,,1,21987544,pdf,5889cf9442039de45186a3644a56e375,,,D:\\HDD4\\!genesis\\SPR_NEW_2013-12\\bok%3A978-3-663-14093-1.pdf,0,2000-01-01 01:00:00,2016-04-03 02:51:08,1142000/5889cf9442039de45186a3644a56e375-d.jpg,,
21252331,"Erklärung, Voraussage, Retrodiktion Diskrete Zustandssysteme und diskretes Analogon zur Quantenmechanik Das ontologische Problem Naturgesetze und irreale Konditionalsätze Naturalistische Auflösung des Goodman-Paradoxons",,Probleme und Resultate der Wissenschaftstheorie und Analytischen Philosophie 1 / B,,Professor Dr. Dr. Wolfgang Stegmüller (auth.),1983,2,Springer-Verlag Berlin Heidelberg,,198S.,0,German,,,,"978-3-540-11807-7,978-3-642-61769-0",,,,,,,10.1007/978-3-642-61769-0,,,,0,,,,,,,1,9489326,pdf,0fb05bb3e59ddb0e64819feae4c0c246,,,D:\\HDD4\\!genesis\\SPR_NEW_2013-12\\bok%3A978-3-642-61769-0.pdf,0,2000-01-01 01:00:00,2016-04-03 02:51:08,1135000/0fb05bb3e59ddb0e64819feae4c0c246-d.jpg,,
21252332,Auf der Suche nach dem Wirklichen: Aus der Sicht eines Physikers,,,,Bernard d’Espagnat (auth.),1983,1,Springer-Verlag Berlin Heidelberg,,197,0,German,,,,"978-3-540-12058-2,978-3-662-05908-1",,,,,,,10.1007/978-3-662-05908-1,,,,0,,,,,,,1,3678780,pdf,77598b01c28543d6bad6ee59b99bda38,,,D:\\HDD4\\!genesis\\SPR_NEW_2013-12\\bok%3A978-3-662-05908-1.pdf,0,2000-01-01 01:00:00,2016-04-03 02:51:08,1136000/77598b01c28543d6bad6ee59b99bda38-d.jpg,,
21252333,Briefe von der Elektrizität,,Edition Vieweg 2,,Benjamin Franklin (auth.),1983,1,Vieweg+Teubner Verlag,,184,0,German,,,,"978-3-528-08529-2,978-3-663-14206-5",,,,,,,10.1007/978-3-663-14206-5,,,,0,,,,,,,1,19760869,pdf,8cf813052989b3d9d12dea489dd727a9,,,D:\\HDD4\\!genesis\\SPR_NEW_2013-12\\bok%3A978-3-663-14206-5.pdf,0,2000-01-01 01:00:00,2016-04-03 02:51:08,1142000/8cf813052989b3d9d12dea489dd727a9-d.jpg,,
21252334,"Scientific Review Papers, Talks, and Books Wissenschaftliche Übersichtsartikel, Vorträge und Bücher",,Gesammelte Werke / Collected Works B,,"David C. Cassidy, Helmut Rechenberg (auth.), Dr. Walter Blum, Professor Dr. Hans-Peter Dürr, Dr. Helmut Rechenberg (eds.)",1984,1,Springer-Verlag Berlin Heidelberg,,941,0,German,,,,"978-3-642-61743-0,978-3-642-61742-3",,,,,,,10.1007/978-3-642-61742-3,,,,0,,,,,,,1,55266807,pdf,495749291cac8445d6785e4d3d1a9758,,,D:\\HDD4\\!genesis\\SPR_NEW_2013-12\\bok%3A978-3-642-61742-3.pdf,0,2000-01-01 01:00:00,2016-04-03 02:51:08,1135000/495749291cac8445d6785e4d3d1a9758-d.jpg,,
21252335,Getriebelehre mit dem Mikrocomputer (SHARP PC-1500A): mit einem Farbanhang,,Anwendung von Mikrocomputern 7,,Hans Bürde (auth.),1984,1,Vieweg+Teubner Verlag,,104,0,German,,,,"978-3-528-04283-7,978-3-322-89717-6",,,,,,,10.1007/978-3-322-89717-6,,,,0,,,,,,,1,4904137,pdf,22065b9c8f633b08acc8d30c0f9939f6,,,D:\\HDD4\\!genesis\\SPR_NEW_2013-12\\bok%3A978-3-322-89717-6.pdf,0,2000-01-01 01:00:00,2016-04-03 02:51:08,1132000/22065b9c8f633b08acc8d30c0f9939f6-d.jpg,,
21252336,Grundlagen der Statistik,,Gabler-Studientexte,,Prof. Dipl.-Ing. Klaus Fischer (auth.),1986,2,Gabler Verlag,,103 S.,0,German,,,,"978-3-409-02123-4,978-3-663-13350-6",,,,,,,10.1007/978-3-663-13350-6,,,,0,,,,,,,1,3605458,pdf,6cd2cba0702761870e8f406963e5d03c,,,D:\\HDD4\\!genesis\\SPR_NEW_2013-12\\bok%3A978-3-663-13350-6.pdf,0,2000-01-01 01:00:00,2016-04-03 02:51:08,1142000/6cd2cba0702761870e8f406963e5d03c-d.jpg,,
21252337,Physikalische Experimente mit dem Mikrocomputer: „On-Line“-Messungen mit dem Apple II im Apple-Pascal-System,,Anwendung von Mikrocomputern 16,,Klaus-Dieter Tillmann (auth.),1986,1,Vieweg+Teubner Verlag,,362 S.,0,German,,,,"978-3-528-04493-0,978-3-663-13983-6",,,,,,,10.1007/978-3-663-13983-6,,,,0,,,,,,,1,7883707,pdf,15b0e4f8d8227febb83fcebe21757d4e,,,D:\\HDD4\\!genesis\\SPR_NEW_2013-12\\bok%3A978-3-663-13983-6.pdf,0,2000-01-01 01:00:00,2016-04-03 02:51:08,1142000/15b0e4f8d8227febb83fcebe21757d4e-d.jpg,,
21252338,Die spezielle Relativitätstheorie: M.I.T. Einführungskurs Physik,,,,A. P. French (auth.),1986,2,Vieweg+Teubner Verlag,,296,0,German,,,,"978-3-528-13546-1,978-3-322-90122-4",,,,,,,10.1007/978-3-322-90122-4,,,,0,,,,,,,1,14143938,pdf,d3dc30111d6f0ebe74bf1f4856ecd80e,,,D:\\HDD4\\!genesis\\SPR_NEW_2013-12\\bok%3A978-3-322-90122-4.pdf,0,2000-01-01 01:00:00,2016-04-03 02:51:08,1132000/d3dc30111d6f0ebe74bf1f4856ecd80e-d.jpg,,
21252339,Angewandte Statistische Thermodynamik,,,,Professor Dr.-Ing. Klaus Lucas (auth.),1986,1,Springer-Verlag Berlin Heidelberg,,510,0,German,,,,"978-3-662-05752-0,978-3-662-05751-3",,,,,,,10.1007/978-3-662-05751-3,,,,0,,,,,,,1,41778413,pdf,455d5e8331ad2b0957cbca57200d7daa,,,D:\\HDD4\\!genesis\\SPR_NEW_2013-12\\bok%3A978-3-662-05751-3.pdf,0,2000-01-01 01:00:00,2016-04-03 02:51:08,1136000/455d5e8331ad2b0957cbca57200d7daa-d.jpg,,
21252340,Molecular Characterization of Composite Interfaces,,Polymer Science and Technology,,"J. L. Kardos (auth.), Hatsuo Ishida, Ganesh Kumar (eds.)",1985,2,Springer-Verlag Berlin Heidelberg,,451,0,German,,,,"978-3-662-27597-9,978-3-662-29084-2",,,,,,,10.1007/978-3-662-29084-2,,,,0,,,,,,,1,15132610,pdf,6a64dcd9b283d42d9503fda3b161bd0a,,,D:\\HDD4\\!genesis\\SPR_NEW_2013-12\\bok%3A978-3-662-29084-2.pdf,0,2000-01-01 01:00:00,2016-04-03 02:51:08,1137000/6a64dcd9b283d42d9503fda3b161bd0a-d.jpg,,
21252341,"Numerical Techniques in Continuum Mechanics: Proceedings of the Second GAMM-Seminar, Kiel, January 17 to 19, 1986",,Notes on Numerical Fluid Mechanics 16,,"Kenneth Eriksson, Claes Johnson (auth.), Wolfgang Hackbusch, Kristian Witsch (eds.)",1987,1,Vieweg+Teubner Verlag,,132,0,German,,,,"978-3-528-08091-4,978-3-322-85997-6",,,,,,,10.1007/978-3-322-85997-6,,,,0,,,,,,,1,4146002,pdf,18247cd5565685dfb1546124e2499ecb,,,D:\\HDD4\\!genesis\\SPR_NEW_2013-12\\bok%3A978-3-322-85997-6.pdf,0,2000-01-01 01:00:00,2016-04-03 02:51:08,1132000/18247cd5565685dfb1546124e2499ecb-d.jpg,,
21252342,Wärmetechnik,,,,"Dipl.-Ing. Klaus Endrullat, Dipl.-Ing. Peter Epinatjeff, Dipl.-Ing. Dieter Petzold, Prof. Dipl.-Ing. Hubertus Protz (auth.)",1987,1,Springer-Verlag Berlin Heidelberg,,458,0,German,,,,"978-3-662-07028-4,978-3-662-07027-7",,,,,,,10.1007/978-3-662-07027-7,,,,0,,,,,,,1,18124348,pdf,3170081d6214cd53605c98e3ca1ec50c,,,D:\\HDD4\\!genesis\\SPR_NEW_2013-12\\bok%3A978-3-662-07027-7.pdf,0,2000-01-01 01:00:00,2016-04-03 02:51:08,1136000/3170081d6214cd53605c98e3ca1ec50c-d.jpg,,
21252343,Numerische Untersuchung nichtlinearer dynamischer Systeme,,Hochschultext,,Prof. Dr.-Ing. habil. Edwin Kreuzer (auth.),1987,1,Springer-Verlag Berlin Heidelberg,,"194 S. 68 Abb., 5 Tab. 2 Farbtaf.",0,German,,,,"978-3-540-17317-5,978-3-642-82968-0",,,,,,,10.1007/978-3-642-82968-0,,,,0,,,,,,,1,9362474,pdf,9e383adb24f49acfa1e0ca0129e4ecd1,,,D:\\HDD4\\!genesis\\SPR_NEW_2013-12\\bok%3A978-3-642-82968-0.pdf,0,2000-01-01 01:00:00,2016-04-03 02:51:08,1135000/9e383adb24f49acfa1e0ca0129e4ecd1-d.jpg,,
21252344,PET: Grundlagen und Anwendungen der Positronen-Emissions-Tomographie,,,,"Professor Dr. Klaus Wienhard, Dr. Rainer Wagner, Professor Dr. Wolf-Dieter Heiss (auth.)",1989,1,Springer-Verlag Berlin Heidelberg,,204,0,German,,,0,"978-3-642-73844-9,978-3-642-73843-2",,,,,,,10.1007/978-3-642-73843-2,,,,0,,1,1,1,,,1,8815649,pdf,e9ea50d54ed44a4b3cf09cc7461eff94,,,A:/compressed/10.1007%2F978-3-642-73843-2.pdf,0,2000-01-01 01:00:00,2016-04-03 02:51:08,957000/e9ea50d54ed44a4b3cf09cc7461eff94-d.jpg,,
21252345,Mathematik für Physiker: Basiswissen für das Grundstudium der Experimentalphysik,,Lehrbuch Informatik,,"Dr. Klaus Weltner, Dr. Hartmut Wiesner, Dr. Paul-Bernd Heinrich, Dipl.-Phys. Peter Engelhardt, Dr. Helmut Schmidt (auth.), Dr. Klaus Weltner (eds.)",1988,8,Springer-Verlag Berlin Heidelberg,,240 S.,0,German,,,,"978-3-528-73052-9,978-3-662-25349-6",,,,,,,10.1007/978-3-662-25349-6,,,,0,,,,,,,1,9351513,pdf,2ffdce1e9ed350c01ba29aab65d4c2b7,,,D:\\HDD4\\!genesis\\SPR_NEW_2013-12\\bok%3A978-3-662-25349-6.pdf,0,2000-01-01 01:00:00,2016-04-03 02:51:08,1136000/2ffdce1e9ed350c01ba29aab65d4c2b7-d.jpg,,
21252346,"Panel Methods in Fluid Mechanics with Emphasis on Aerodynamics: Proceedings of the Third GAMM-Seminar Kiel, January 16 to 18, 1987",,Notes on Numerical Fluid Mechanics 21,,"H. W. M. Hoeijmakers (auth.), Prof. Dr.-Ing. Josel Ballmann, Prof. Dr. Richard Eppler, Prof. Dr. Wolfgang Hackbusch (eds.)",1988,1,Vieweg+Teubner Verlag,,271,0,German,,,,"978-3-528-08095-2,978-3-663-13997-3",,,,,,,10.1007/978-3-663-13997-3,,,,0,,,,,,,1,10108376,pdf,34a4f183f4615911c1ec04e7fe6f771d,,,D:\\HDD4\\!genesis\\SPR_NEW_2013-12\\bok%3A978-3-663-13997-3.pdf,0,2000-01-01 01:00:00,2016-04-03 02:51:08,1142000/34a4f183f4615911c1ec04e7fe6f771d-d.jpg,,
21252347,Mechanik — Aufgaben 1: Statik starrer Körper,,VDI-Buch,,"Professor Dipl.-Ing. Heinz Rittinghaus, Professor Dr. rer. sec. Dipl.-Ing. Heinz Dieter Motz (auth.)",1990,39,Springer-Verlag Berlin Heidelberg,,"VIII, 234 S.",0,German,,,,"978-3-662-22147-1,978-3-662-22146-4",,,,,,,10.1007/978-3-662-22146-4,,,,0,,,,,,,1,7497779,pdf,c7bb13f8b008feae71e6817fa08bdda6,,,D:\\HDD4\\!genesis\\SPR_NEW_2013-12\\bok%3A978-3-662-22146-4.pdf,0,2000-01-01 01:00:00,2016-04-03 02:51:08,1136000/c7bb13f8b008feae71e6817fa08bdda6-d.jpg,,
21252348,Strömungs- und Kolbenmaschinen: Lern- und Übungsbuch,,Viewegs Fachbücher der Technik,,"Hermann Th. Wagner, Klaus Jürgen Fischer, Joachim-Dietrich von Frommann (auth.)",1990,3,Vieweg+Teubner Verlag,,"XVI, 450 S.",0,German,,,,"978-3-528-24039-4,978-3-663-13922-5",,,,,,,10.1007/978-3-663-13922-5,,,,0,,,,,,,1,15750061,pdf,43bd76bd463cbc60c04b9ce5433c4a21,,,D:\\HDD4\\!genesis\\SPR_NEW_2013-12\\bok%3A978-3-663-13922-5.pdf,0,2000-01-01 01:00:00,2016-04-03 02:51:08,1142000/43bd76bd463cbc60c04b9ce5433c4a21-d.jpg,,
21252349,Physik aus ihrer Geschichte verstehen: Entstehung und Entwicklung naturwissenschaftlicher Denk- und Arbeitsstile in der Elektrizitätsforschung des 18. Jahrhunderts,,,,Heinz Otto Sibum (auth.),1990,1,Deutscher Universitätsverlag,,315,0,German,,,,"978-3-8244-2012-4,978-3-663-14569-1",,,,,,,10.1007/978-3-663-14569-1,,,,0,,,,,,,1,8871430,pdf,67f505b74a65dfb38da5556d684a098d,,,D:\\HDD4\\!genesis\\SPR_NEW_2013-12\\bok%3A978-3-663-14569-1.pdf,0,2000-01-01 01:00:00,2016-04-03 02:51:08,1142000/67f505b74a65dfb38da5556d684a098d-d.jpg,,
21252350,"Einführung in die Röntgenfeinstrukturanalyse: Lehrbuch für Physiker, Chemiker, Physikochemiker, Metallurgen, Kristallographen und Mineralogen im 2. Studienabschnitt",,,,Harald Krischner (auth.),1990,4,Vieweg+Teubner Verlag,,208,0,German,,,,"978-3-322-98973-4,978-3-322-98972-7",,,,,,,10.1007/978-3-322-98972-7,,,,0,,,,,,,1,9811562,pdf,24b35529d2969edcf258af5b12c3c78b,,,D:\\HDD4\\!genesis\\SPR_NEW_2013-12\\bok%3A978-3-322-98972-7.pdf,0,2000-01-01 01:00:00,2016-04-03 02:51:08,1133000/24b35529d2969edcf258af5b12c3c78b-d.jpg,,
21252351,Epsteins Physikstunde: 450 Aufgaben und Lösungen,,,,Lewis Carroll Epstein (auth.),1992,3,Birkhäuser Basel,,606,0,German,,,,"978-3-0348-6200-4,978-3-0348-6199-1",,,,,,,10.1007/978-3-0348-6199-1,,,,0,,,,,,,1,20949977,pdf,de67ea113cab641f8ed4aff520690820,,,D:\\HDD4\\!genesis\\SPR_NEW_2013-12\\bok%3A978-3-0348-6199-1.pdf,0,2000-01-01 01:00:00,2016-04-03 02:51:08,1131000/de67ea113cab641f8ed4aff520690820-d.jpg,,
21252352,"Relativität, Gruppen, Teilchen: Spezielle Relativitätstheorie als Grundlage der Feld- und Teilchenphysik",,,,"Univ.-Prof. Dr. Roman U. Sexl, Univ.-Prof. Dr. Helmuth K. Urbantke (auth.)",1992,3,Springer-Verlag Wien,,385,0,German,,,,"978-3-211-82355-2,978-3-7091-2289-1",,,,,,,10.1007/978-3-7091-2289-1,,,,0,,,,,,,1,11843547,pdf,44f59b2c3ecdcd3dd4ff4c082b1b1b16,,,D:\\HDD4\\!genesis\\SPR_NEW_2013-12\\bok%3A978-3-7091-2289-1.pdf,0,2000-01-01 01:00:00,2016-04-03 02:51:08,1143000/44f59b2c3ecdcd3dd4ff4c082b1b1b16-d.jpg,,
21252353,"Physik und Informatik — Informatik und Physik: Arbeitsgespräch, München, 21./22. November 1991",,Informatik-Fachberichte 306,,"H. Mühlenbein (auth.), D. Krönig, M. Lang (eds.)",1992,1,Springer-Verlag Berlin Heidelberg,,326 S.,0,German,,,,"978-3-540-55298-7,978-3-642-77382-2",,,,,,,10.1007/978-3-642-77382-2,,,,0,,,,,,,1,12527642,pdf,86ac24b15721289d90627e128eae4b66,,,D:\\HDD4\\!genesis\\SPR_NEW_2013-12\\bok%3A978-3-642-77382-2.pdf,0,2000-01-01 01:00:00,2016-04-03 02:51:08,1135000/86ac24b15721289d90627e128eae4b66-d.jpg,,
21252354,Quantum Mechanics on the Macintosh®,,,,"Siegmund Brandt, Hans Dieter Dahmen (auth.)",1994,2,Springer-Verlag Berlin Heidelberg,,317,0,German,,,,"978-3-540-94272-6,978-3-662-25104-1",,,,,,,10.1007/978-3-662-25104-1,,,,0,,,,,,,1,13778465,pdf,1ee0c4fe062cb48bec3f410c4422cfd7,,,D:\\HDD4\\!genesis\\SPR_NEW_2013-12\\bok%3A978-3-662-25104-1.pdf,0,2000-01-01 01:00:00,2016-04-03 02:51:08,1136000/1ee0c4fe062cb48bec3f410c4422cfd7-d.jpg,,
21252355,Was Newton nicht wußte: Chaos im Sonnensystem,,,,Ivars Peterson (auth.),1994,1,Birkhäuser Basel,,345,0,German,,,,"978-3-0348-6063-5,978-3-0348-6062-8",,,,,,,10.1007/978-3-0348-6062-8,,,,0,,,,,,,1,11314195,pdf,0b46f6d9a355672d5a48084381d921b3,,,D:\\HDD4\\!genesis\\SPR_NEW_2013-12\\bok%3A978-3-0348-6062-8.pdf,0,2000-01-01 01:00:00,2016-04-03 02:51:08,1131000/0b46f6d9a355672d5a48084381d921b3-d.jpg,,
21252356,Komplexität — das gezähmte Chaos,,,,"David Peak, Michael Frame (auth.)",1995,1,Birkhäuser Basel,,366,0,German,,,,"978-3-0348-6375-9,978-3-0348-6374-2",,,,,,,10.1007/978-3-0348-6374-2,,,,0,,,,,,,1,12504860,pdf,fbbd5eef7a469a6e40b9bd752152bfac,,,D:\\HDD4\\!genesis\\SPR_NEW_2013-12\\bok%3A978-3-0348-6374-2.pdf,0,2000-01-01 01:00:00,2016-04-03 02:51:08,1131000/fbbd5eef7a469a6e40b9bd752152bfac-d.jpg,,
21252357,Am Anfang war …: Neues vom Urknall und der Evolution des Kosmos,,,,John Gribbin (auth.),1995,1,Birkhäuser Basel,,299,0,German,,,,"978-3-7643-5005-5,978-3-0348-6370-4",,,,,,,10.1007/978-3-0348-6370-4,,,,0,,,,,,,1,9509669,pdf,65aeefe425024eaafc63a9c90aaad28a,,,D:\\HDD4\\!genesis\\SPR_NEW_2013-12\\bok%3A978-3-0348-6370-4.pdf,0,2000-01-01 01:00:00,2016-04-03 02:51:08,1131000/65aeefe425024eaafc63a9c90aaad28a-d.jpg,,
21252358,Epitaktische Schichten: Neue Strukturen und Phasenübergänge. Der Austauschfeder-Magnet: Ein neues Materialprinzip für Permanentmagnete: 383. Sitzung am 1. April 1992 in Düsseldorf,,Nordrhein-Westfälische Akademie der Wissenschaften N 410,,Hartmut Zabel (auth.),1995,1,VS Verlag für Sozialwissenschaften,,76 S.,0,German,,,,"978-3-531-08410-7,978-3-663-14435-9",,,,,,,10.1007/978-3-663-14435-9,,,,0,,,,,,,1,2945215,pdf,ab3f77cdacd701f0fb2308468282f009,,,D:\\HDD4\\!genesis\\SPR_NEW_2013-12\\bok%3A978-3-663-14435-9.pdf,0,2000-01-01 01:00:00,2016-04-03 02:51:08,1142000/ab3f77cdacd701f0fb2308468282f009-d.jpg,,
21252359,Sternstunden der Physik: Wie die Natur funktioniert,,,,Roger G. Newton (auth.),1995,1,Birkhäuser Basel,,267,0,German,,,,"978-3-0348-6005-5,978-3-0348-6004-8",,,,,,,10.1007/978-3-0348-6004-8,,,,0,,,,,,,1,10419458,pdf,7833b1efcbe0087681dbac62e77aabae,,,D:\\HDD4\\!genesis\\SPR_NEW_2013-12\\bok%3A978-3-0348-6004-8.pdf,0,2000-01-01 01:00:00,2016-04-03 02:51:08,1131000/7833b1efcbe0087681dbac62e77aabae-d.jpg,,
21252360,Viskoelastizität und mikroskopische Bewegung in dichten Polymersystemen: 399. Sitzung am 2. Februar 1994 in Düsseldorf,,Nordrhein-Westfälische Akademie der Wissenschaften 416,,Dieter Richter (auth.),1995,1,VS Verlag für Sozialwissenschaften,,46S.,0,German,,,,"978-3-531-08416-9,978-3-322-86394-2",,,,,,,10.1007/978-3-322-86394-2,,,,0,,,,,,,1,1474856,pdf,e7fbb3050be198cd6e4206310e0dd92b,,,D:\\HDD4\\!genesis\\SPR_NEW_2013-12\\bok%3A978-3-322-86394-2.pdf,0,2000-01-01 01:00:00,2016-04-03 02:51:08,1132000/e7fbb3050be198cd6e4206310e0dd92b-d.jpg,,
21252361,Programmieren mit OpenGL: 3D-Grafik und Bildverarbeitung,,,,Dr. Ute Claussen (auth.),1997,1,Springer-Verlag Berlin Heidelberg,,398 S. Mit CD-ROM.,0,German,,,,"978-3-540-57977-9,978-3-642-60339-6",,,,,,,10.1007/978-3-642-60339-6,,,,0,,,,,,,1,7582106,pdf,8e1548c9a984c254061f9b1acc8496b0,,,D:\\HDD4\\!genesis\\SPR_NEW_2013-12\\bok%3A978-3-642-60339-6.pdf,0,2000-01-01 01:00:00,2016-04-03 02:51:08,1135000/8e1548c9a984c254061f9b1acc8496b0-d.jpg,,
21252362,Computer-Animation in der Kartographie: Theorie und Praxis,,,,Doris Dransch (auth.),1997,1,Springer-Verlag Berlin Heidelberg,,471,0,German,,,,"978-3-642-64467-2,978-3-642-60586-4,3-211-83576-8,3-11-011027-X",,,,,,,10.1007/978-3-642-60586-4,,,,0,,,,,,,1,32316062,pdf,a43256ce4e0d289cda8febd820119832,,,D:\\HDD4\\!genesis\\SPR_NEW_2013-12\\bok%3A978-3-642-60586-4.pdf,0,2000-01-01 01:00:00,2016-04-03 02:51:08,1135000/a43256ce4e0d289cda8febd820119832-d.jpg,,
21252363,Kolibris und Jumbo-Jets: Die simple Kunst des Fliegens,,,,Henk Tennekes (auth.),1997,1,Birkhäuser Basel,,174,0,German,,,,"978-3-0348-6072-7,978-3-0348-6071-0",,,,,,,10.1007/978-3-0348-6071-0,,,,0,,,,,,,1,5465185,pdf,fafcb02077435d6fd050364488e6ec56,,,D:\\HDD4\\!genesis\\SPR_NEW_2013-12\\bok%3A978-3-0348-6071-0.pdf,0,2000-01-01 01:00:00,2016-04-03 02:51:08,1131000/fafcb02077435d6fd050364488e6ec56-d.jpg,,
21252364,Einführung in S und S-PLUS : Mit Aufgaben und vollständigen Lösungen,,,,Andreas Krause (auth.),1997,1,Springer-Verlag Berlin Heidelberg,,328,0,German,,,,"978-3-540-60932-2,978-3-642-60392-1",,,,,,,10.1007/978-3-642-60392-1,,,,0,,,,,,,1,7796227,pdf,aa448621e07c3d2a8d283e4c3d7efa38,,,D:\\HDD4\\!genesis\\SPR_NEW_2013-12\\bok%3A978-3-642-60392-1.pdf,0,2000-01-01 01:00:00,2016-04-03 02:51:08,1135000/aa448621e07c3d2a8d283e4c3d7efa38-d.jpg,,
21252365,Die Physik der Welterkenntnis: Auf dem Weg zum universellen Verstehen,,,,David Deutsch (auth.),1996,1,Birkhäuser Basel,,353,0,German,,,,"978-3-0348-6020-8,978-3-0348-6019-2",,,,,,,10.1007/978-3-0348-6019-2,,,,0,,,,,,,1,8987430,pdf,c63c0bcf2991b553f95303513bd6d48d,,,D:\\HDD4\\!genesis\\SPR_NEW_2013-12\\bok%3A978-3-0348-6019-2.pdf,0,2000-01-01 01:00:00,2016-04-03 02:51:08,1131000/c63c0bcf2991b553f95303513bd6d48d-d.jpg,,
21252366,Die geheimnisvollen Visionen des Herrn S.: Ein physikalisches Märchen nach Charles Dickens,,,,Robert Gilmore (auth.),1996,1,Birkhäuser Basel,,252,0,German,,,,"978-3-0348-6013-0,978-3-0348-6012-3",,,,,,,10.1007/978-3-0348-6012-3,,,,0,,,,,,,1,18827296,pdf,e187a2dfaec96474085de7ef438279b3,,,D:\\HDD4\\!genesis\\SPR_NEW_2013-12\\bok%3A978-3-0348-6012-3.pdf,0,2000-01-01 01:00:00,2016-04-03 02:51:08,1131000/e187a2dfaec96474085de7ef438279b3-d.jpg,,
21252367,Aufgaben zur Strömungslehre,,Springer-Lehrbuch,,"Prof. Dr.-Ing. Joseph H. Spurk (auth.), H. Marschall (eds.)",1996,2,Springer-Verlag Berlin Heidelberg,,XIX 551 S.,0,German,,,,"978-3-540-60333-7,978-3-662-05911-1",,,,,,,10.1007/978-3-662-05911-1,,,,0,,,,,,,1,13543243,pdf,dca4250ff2feabc25722c1d5edaf855c,,,D:\\HDD4\\!genesis\\SPR_NEW_2013-12\\bok%3A978-3-662-05911-1.pdf,0,2000-01-01 01:00:00,2016-04-03 02:51:08,1136000/dca4250ff2feabc25722c1d5edaf855c-d.jpg,,
21252368,Sherlock Holmes und der Energie-Anarchist: 12 physikalische Rätsel brillant gelöst,,,,Colin Bruce (auth.),1998,1,Birkhäuser Basel,,283,0,German,,,,"978-3-0348-6401-5,978-3-0348-6400-8",,,,,,,10.1007/978-3-0348-6400-8,,,,0,,,,,,,1,8042825,pdf,a16473306748a5ce810001b152e189a3,,,D:\\HDD4\\!genesis\\SPR_NEW_2013-12\\bok%3A978-3-0348-6400-8.pdf,0,2000-01-01 01:00:00,2016-04-03 02:51:08,1131000/a16473306748a5ce810001b152e189a3-d.jpg,,
21252369,Europäische Fossillagerstätten,,,,"Jean-Claude Gall (auth.), Dieter Meischner (eds.)",2000,1,Springer-Verlag Berlin Heidelberg,,264,0,German,,,,"978-3-642-62975-4,978-3-642-57198-5",,,,,,,10.1007/978-3-642-57198-5,,,,0,,,,,,,1,44632656,pdf,6ecfff82820ca3dafdb49d4c532aaba6,,,D:\\HDD4\\!genesis\\SPR_NEW_2013-12\\bok%3A978-3-642-57198-5.pdf,0,2000-01-01 01:00:00,2016-04-03 02:51:08,1135000/6ecfff82820ca3dafdb49d4c532aaba6-d.jpg,,
21252370,Fortschritte der Satellitengeodäsie. Mikrobiologie im Zeitalter der Genomforschung,,Nordrhein-Westfälische Akademie der Wissenschaften 453,,"Reiner Rummel, Alfred Pühler (auth.)",2000,1,VS Verlag für Sozialwissenschaften,,54,0,German,,,,"978-3-531-08453-4,978-3-663-16280-3",,,,,,,10.1007/978-3-663-16280-3,,,,0,,,,,,,1,2346498,pdf,1b46f837be5ff4d70043626a81f26bb1,,,D:\\HDD4\\!genesis\\SPR_NEW_2013-12\\bok%3A978-3-663-16280-3.pdf,0,2000-01-01 01:00:00,2016-04-03 02:51:08,1143000/1b46f837be5ff4d70043626a81f26bb1-d.jpg,,
21252371,Der kreative Kosmos: Geist und Materie aus Quanteninformation,,,,"Thomas Görnitz, Brigitte Görnitz (auth.)",2002,1,Springer Spektrum,,"VII, 372 S.",0,German,,,,"978-3-642-41750-4,978-3-642-41751-1",,,,,,,10.1007/978-3-642-41751-1,,,,0,,,,,,,1,3381342,pdf,0659ab66da537d22138f46c6fd1960f5,,,D:\\HDD4\\!genesis\\SPR_NEW_2013-12\\bok%3A978-3-642-41751-1.pdf,0,2000-01-01 01:00:00,2016-04-03 02:51:08,1134000/0659ab66da537d22138f46c6fd1960f5-d.jpg,,
21252372,"Energiehandbuch: Gewinnung, Wandlung und Nutzung von Energie",,VDI-Buch,,"Prof. Dr. Eckhard Rebhan (auth.), Prof. Dr. Eckhard Rebhan (eds.)",2002,1,Springer-Verlag Berlin Heidelberg,,1196,0,German,,,,"978-3-642-62518-3,978-3-642-55451-3",,,,,,,10.1007/978-3-642-55451-3,,,,0,,,,,,,1,27327009,pdf,423d29230662f247466a6af2d8b2223f,,,D:\\HDD4\\!genesis\\SPR_NEW_2013-12\\bok%3A978-3-642-55451-3.pdf,0,2000-01-01 01:00:00,2016-04-03 02:51:08,1135000/423d29230662f247466a6af2d8b2223f-d.jpg,,
21252373,Herausforderung Zukunft: Technischer Fortschritt und Globalisierung,,,,Michael F. Jischa (auth.),2005,2,Springer Spektrum,,"XII, 280 S. 55 Abb.",0,German,,,,"978-3-642-41885-3,978-3-642-41886-0",,,,,,,10.1007/978-3-642-41886-0,,,,0,,,,,,,1,3792841,pdf,cd605b22282f937d182c6ffa318a6dde,,,D:\\HDD4\\!genesis\\SPR_NEW_2013-12\\bok%3A978-3-642-41886-0.pdf,0,2000-01-01 01:00:00,2016-04-03 02:51:08,1134000/cd605b22282f937d182c6ffa318a6dde-d.jpg,,
21252374,50 Schlüsselideen Physik,,,,Joanne Baker (auth.),2009,1,Springer Spektrum,,208 S. 150 Abb.,0,German,,,,"978-3-8274-2119-7,978-3-8274-2169-2",,,,,,,10.1007/978-3-8274-2169-2,,,,0,,,,,,,1,2351969,pdf,71b8a8c881c7358b228b751d61c49cd5,,,D:\\HDD4\\!genesis\\SPR_NEW_2013-12\\bok%3A978-3-8274-2169-2.pdf,0,2000-01-01 01:00:00,2016-04-03 02:51:08,1143000/71b8a8c881c7358b228b751d61c49cd5-d.jpg,,
21252375,Magnetischer Kosmos: To B or not to B,,,,Ulrich von Kusserow (auth.),2013,1,Springer Spektrum,,"XVI, 311 S. 63 Abb. 32 Abb. in Farbe.",0,German,,,,"978-3-642-34756-6,978-3-642-34757-3",,,,,,,10.1007/978-3-642-34757-3,,,,0,,,,,,,1,9701707,pdf,b914f1c7b844026718d391d200969a57,,,D:\\HDD4\\!genesis\\SPR_NEW_2013-12\\bok%3A978-3-642-34757-3.pdf,0,2000-01-01 01:00:00,2016-04-03 02:51:08,1134000/b914f1c7b844026718d391d200969a57-d.jpg,,
21252376,Handbuch Robotik: Programmieren und Einsatz intelligenter Roboter,,VDI-Buch,,Matthias Haun (auth.),2013,2,Vieweg+Teubner Verlag,,"XVI, 604 S. 193 Abb. 43 Abb. in Farbe.",0,German,,,,"978-3-642-39857-5,978-3-642-39858-2",,,,,,,10.1007/978-3-642-39858-2,,,,0,,,,,,,1,13275579,pdf,8699702d5530c4d092e7aa541aef32ea,,,D:\\HDD4\\!genesis\\SPR_NEW_2013-12\\bok%3A978-3-642-39858-2.pdf,0,2000-01-01 01:00:00,2016-04-03 02:51:08,1134000/8699702d5530c4d092e7aa541aef32ea-d.jpg,,
21252377,Praktische Regeltechnik: Anwendungsorientierte Einführung für Maschinenbauer und Elektrotechniker,,VDI-Buch,,Peter F. Orlowski (auth.),2013,10,Vieweg+Teubner Verlag,,XII 489 S.,0,German,,,,"978-3-642-41232-5,978-3-642-41233-2",,,,,,,10.1007/978-3-642-41233-2,,,,0,,,,,,,1,31747411,pdf,4c6022660bf76696148b03712396f676,,,D:\\HDD4\\!genesis\\SPR_NEW_2013-12\\bok%3A978-3-642-41233-2.pdf,0,2000-01-01 01:00:00,2016-04-03 02:51:08,1134000/4c6022660bf76696148b03712396f676-d.jpg,,
21252378,"Gasturbinen und Flugantriebe: Grundlagen, Betriebsverhalten und Simulation",,VDI-Buch,,Hans Rick (auth.),2013,1,Springer Vieweg,,"XVIII, 1009 S. 616 Abb. 162 Abb. in Farbe.",0,German,,,,"978-3-540-79445-5,978-3-540-79446-2",,,,,,,10.1007/978-3-540-79446-2,,,,0,,,,,,,1,64775120,pdf,348283042ffb76952ae28ba578de52a7,,,D:\\HDD4\\!genesis\\SPR_NEW_2013-12\\bok%3A978-3-540-79446-2.pdf,0,2000-01-01 01:00:00,2016-04-03 02:51:08,1134000/348283042ffb76952ae28ba578de52a7-d.jpg,,
21252379,Entwurf eines Gesetzes über das Verfahren in Untersuchungssachen mit Geschwornen-Gerichten,,,,(auth.),1848,1,Springer-Verlag Berlin Heidelberg,,39,0,German,,,,"978-3-662-33611-3,978-3-662-34009-7",,,,,,,10.1007/978-3-662-34009-7,,,,0,,,,,,,1,2816615,pdf,d29204e13d50c81d3122e4ec781caecf,,,D:\\HDD4\\!genesis\\SPR_NEW_2013-12\\bok%3A978-3-662-34009-7.pdf,0,2000-01-01 01:00:00,2016-04-03 02:51:08,1138000/d29204e13d50c81d3122e4ec781caecf-d.jpg,,
21252380,Die Fabrikation des Papiers in Sonderheit des auf der Maschine gefertigten nebst gründlicher Auseinandersetzung der in ihr vorkommenden chemischen Processe und Anweisung zur Prüfung der angewandten Materialien,,,,Dr. L. Müller (auth.),1862,3,Springer-Verlag Berlin Heidelberg,,315,0,German,,,,"978-3-662-33682-3,978-3-662-34080-6",,,,,,,10.1007/978-3-662-34080-6,,,,0,,,,,,,1,31631664,pdf,61b8452daba7ab399ff0762f476f0a49,,,D:\\HDD4\\!genesis\\SPR_NEW_2013-12\\bok%3A978-3-662-34080-6.pdf,0,2000-01-01 01:00:00,2016-04-03 02:51:08,1138000/61b8452daba7ab399ff0762f476f0a49-d.jpg,,
21252381,Das Kupfer und seine Legirungen: Mit besonderer Berücksichtigung ihrer Anwendung in der Technik,,,,Dr. Carl Bischoff (auth.),1865,1,Springer-Verlag Berlin Heidelberg,,335,0,German,,,,"978-3-662-38868-6,978-3-662-39794-7",,,,,,,10.1007/978-3-662-39794-7,,,,0,,,,,,,1,16043173,pdf,bb893fdeb3d4f37d0bec1583d3ba4996,,,D:\\HDD4\\!genesis\\SPR_NEW_2013-12\\bok%3A978-3-662-39794-7.pdf,0,2000-01-01 01:00:00,2016-04-03 02:51:08,1139000/bb893fdeb3d4f37d0bec1583d3ba4996-d.jpg,,
21252382,"Die Eisenbahn-Fahrzeuge. Ihr bau und ihre Benutzung: Ein Handbuch für Techniker, Mechaniker und Eisenbahnbeamte",,,,F. Stoessel (auth.),1864,1,Springer-Verlag Berlin Heidelberg,,173,0,German,,,,"978-3-662-32431-8,978-3-662-33258-0",,,,,,,10.1007/978-3-662-33258-0,,,,0,,,,,,,1,10303768,pdf,13a238c28d9f16d15ccabe5f760b0960,,,D:\\HDD4\\!genesis\\SPR_NEW_2013-12\\bok%3A978-3-662-33258-0.pdf,0,2000-01-01 01:00:00,2016-04-03 02:51:08,1138000/13a238c28d9f16d15ccabe5f760b0960-d.jpg,,
21252383,"Der Sauerstoff: Vorkommen, Darstellung und Benutzung desselben zu Beleuchtungszwecken nebst einem neuen Verfahren der Sauerstoff-Beleuchtung",,,,"Dr. Joseph Philipps (auth.), Dr. Joseph Philipps (eds.)",1871,1,Springer-Verlag Berlin Heidelberg,,58,0,German,,,,"978-3-662-32513-1,978-3-662-33340-2",,,,,,,10.1007/978-3-662-33340-2,,,,0,,,,,,,1,2757974,pdf,5c0d6b115c631833ce16c2e7b9b68a3e,,,D:\\HDD4\\!genesis\\SPR_NEW_2013-12\\bok%3A978-3-662-33340-2.pdf,0,2000-01-01 01:00:00,2016-04-03 02:51:08,1138000/5c0d6b115c631833ce16c2e7b9b68a3e-d.jpg,,
21252384,Kurzer Abriss der Geschichte der elektrischen Telegraphie: Unter besonderer Bezugnahme auf die bei Gelegenheit der Wiener Weltausstellung 1873 veranstaltete historische Telegraphen-Ausstellung des Deutschen Reiches,,,,Dr. Karl Eduard Zetzsche (auth.),1874,1,Springer-Verlag Berlin Heidelberg,,78,0,German,,,,"978-3-642-98125-8,978-3-642-98936-0",,,,,,,10.1007/978-3-642-98936-0,,,,0,,,,,,,1,4564666,pdf,4b197178adfbd9adf5bb2c7ca18706ee,,,D:\\HDD4\\!genesis\\SPR_NEW_2013-12\\bok%3A978-3-642-98936-0.pdf,0,2000-01-01 01:00:00,2016-04-03 02:51:08,1136000/4b197178adfbd9adf5bb2c7ca18706ee-d.jpg,,
21252385,"Die Gewinnung der Rohstoffe aus dem Innern der Erde, von der Erdoberfläche, sowie aus dem Wasser",,"Das neue Buch der Erfindungen, Gewerbe und Industrien 3",,"Prof. Birnbaum, Prof. K. Gayer, Dr. Lindemann, Dr. R. Ludwig, J. Zöllner (auth.)",1873,6,Springer-Verlag Berlin Heidelberg,,461,0,German,,,,"978-3-662-33677-9,978-3-662-34075-2",,,,,,,10.1007/978-3-662-34075-2,,,,0,,,,,,,1,61845044,pdf,2acf52c5cdd6be0cc7037da63412654e,,,D:\\HDD4\\!genesis\\SPR_NEW_2013-12\\bok%3A978-3-662-34075-2.pdf,0,2000-01-01 01:00:00,2016-04-03 02:51:08,1138000/2acf52c5cdd6be0cc7037da63412654e-d.jpg,,
21252386,Die Lehre von den Apparaten: Eine kurze Anleitung für Post- und Telegraphen-Beamte zum Verständniss und zur richtigen Handhabung der zum Betriebe erforderlichen Telegraphen-Apparate,,,,C. Grawinkel (auth.),1876,1,Springer-Verlag Berlin Heidelberg,,122,0,German,,,,"978-3-662-32359-5,978-3-662-33186-6",,,,,,,10.1007/978-3-662-33186-6,,,,0,,,,,,,1,5754220,pdf,5aaaf9c4981b71f6500a0538e4ef6ed1,,,D:\\HDD4\\!genesis\\SPR_NEW_2013-12\\bok%3A978-3-662-33186-6.pdf,0,2000-01-01 01:00:00,2016-04-03 02:51:08,1138000/5aaaf9c4981b71f6500a0538e4ef6ed1-d.jpg,,
21252387,Die Electrische Beleuchtung,,,,Alex Bernstein (auth.),1880,1,Springer-Verlag Berlin Heidelberg,,85,0,German,,,,"978-3-642-89537-1,978-3-642-91393-8",,,,,,,10.1007/978-3-642-91393-8,,,,0,,,,,,,1,3439661,pdf,a04a85fae0f33ffb69887edc6ec0ab75,,,D:\\HDD4\\!genesis\\SPR_NEW_2013-12\\bok%3A978-3-642-91393-8.pdf,0,2000-01-01 01:00:00,2016-04-03 02:51:08,1135000/a04a85fae0f33ffb69887edc6ec0ab75-d.jpg,,
21252388,Versuche über Leistung und Brennmaterial-Verbrauch von Kleinmotoren,,,,"E. Brauer, Dr. A. Slaby (auth.)",1879,1,Springer-Verlag Berlin Heidelberg,,53,0,German,,,,"978-3-662-40704-2,978-3-662-41186-5",,,,,,,10.1007/978-3-662-41186-5,,,,0,,,,,,,1,3162698,pdf,065593a79743319072bbf032c13d169a,,,D:\\HDD4\\!genesis\\SPR_NEW_2013-12\\bok%3A978-3-662-41186-5.pdf,0,2000-01-01 01:00:00,2016-04-03 02:51:08,1140000/065593a79743319072bbf032c13d169a-d.jpg,,
21252389,Gleisberechnungen mit Tabellen und aus der Praxis entnommenen zahlreichen Beispielen,,,,"A. J. Susemihl (auth.), A. J. Susemihl (eds.)",1879,1,Springer-Verlag Berlin Heidelberg,,109,0,German,,,,"978-3-662-39103-7,978-3-662-40086-9",,,,,,,10.1007/978-3-662-40086-9,,,,0,,,,,,,1,3737400,pdf,7602070bdac951c56ebb11905fb363ea,,,D:\\HDD4\\!genesis\\SPR_NEW_2013-12\\bok%3A978-3-662-40086-9.pdf,0,2000-01-01 01:00:00,2016-04-03 02:51:08,1139000/7602070bdac951c56ebb11905fb363ea-d.jpg,,
21252390,Bericht über die neuesten Fortschritte auf dem Gebiete der Gasfeuerungen,,,,Ferdinand Steinmann (auth.),1879,1,Springer-Verlag Berlin Heidelberg,,58,0,German,,,,"978-3-662-39123-5,978-3-662-40106-4",,,,,,,10.1007/978-3-662-40106-4,,,,0,,,,,,,1,4550232,pdf,19f74f0d536b7efefa8b43ae5ef20791,,,D:\\HDD4\\!genesis\\SPR_NEW_2013-12\\bok%3A978-3-662-40106-4.pdf,0,2000-01-01 01:00:00,2016-04-03 02:51:08,1139000/19f74f0d536b7efefa8b43ae5ef20791-d.jpg,,
21252391,Die Fabrikation des Papiers in Sonderheit des auf der Maschine Gefertigten nebst Gründlicher Auseinandersetzung der in IHR Vorkommenden Chemischen Processe und Anweisung zur Prüfung der Angewandten Materialien,,,,Dr. L. Müller (auth.),1877,4,Springer-Verlag Berlin Heidelberg,,453,0,German,,,,"978-3-662-33684-7,978-3-662-34082-0",,,,,,,10.1007/978-3-662-34082-0,,,,0,,,,,,,1,28146427,pdf,d2f80ca89b2200d18c6a3d2ded42ddb9,,,D:\\HDD4\\!genesis\\SPR_NEW_2013-12\\bok%3A978-3-662-34082-0.pdf,0,2000-01-01 01:00:00,2016-04-03 02:51:08,1138000/d2f80ca89b2200d18c6a3d2ded42ddb9-d.jpg,,
21252392,Der eiserne Oberbau mit besonderer Berücksichtigung einer rationellen Schienenbefestigung für Lang- und Querschwellen,,,,Georg Schwartzkopff (auth.),1882,1,Springer-Verlag Berlin Heidelberg,,179,0,German,,,,"978-3-662-38737-5,978-3-662-39624-7",,,,,,,10.1007/978-3-662-39624-7,,,,0,,,,,,,1,8248934,pdf,a83ea632d9896b49980b7882e74b381c,,,D:\\HDD4\\!genesis\\SPR_NEW_2013-12\\bok%3A978-3-662-39624-7.pdf,0,2000-01-01 01:00:00,2016-04-03 02:51:08,1139000/a83ea632d9896b49980b7882e74b381c-d.jpg,,
21252393,"Bericht über die Smoke Abatement Exhibition, London, Winter 1881–82: An das Königlich Sächsische Ministerium des Innern in dessen Auftrage erstattet",,,,Friedrich Siemens (auth.),1882,1,Springer-Verlag Berlin Heidelberg,,143,0,German,,,,"978-3-662-39122-8,978-3-662-40105-7",,,,,,,10.1007/978-3-662-40105-7,,,,0,,,,,,,1,6586297,pdf,0581ab9e6ea2869f8a4c52e84f5c42c3,,,D:\\HDD4\\!genesis\\SPR_NEW_2013-12\\bok%3A978-3-662-40105-7.pdf,0,2000-01-01 01:00:00,2016-04-03 02:51:08,1139000/0581ab9e6ea2869f8a4c52e84f5c42c3-d.jpg,,
21252394,Die allgemeinen Fernsprecheinrichtungen der Deutschen Reichs-Post- und Telegraphen-Verwaltung,,,,C. Grawinkel (auth.),1882,1,Springer-Verlag Berlin Heidelberg,,149,0,German,,,,"978-3-662-38620-0,978-3-662-39476-2",,,,,,,10.1007/978-3-662-39476-2,,,,0,,,,,,,1,6292512,pdf,82f3a3557d5ccd11a47f956ab1e95c21,,,D:\\HDD4\\!genesis\\SPR_NEW_2013-12\\bok%3A978-3-662-39476-2.pdf,0,2000-01-01 01:00:00,2016-04-03 02:51:08,1139000/82f3a3557d5ccd11a47f956ab1e95c21-d.jpg,,
21252395,"Eine Bautechnische Studienreise nach West- und Ostpreussen: Bericht über unter Leitung des Geheimen Ober-Bauraths, Herrn L. Hagen im Jahre 1883 veranstaltete Studienreise",,,,"Friedrich Gerlach (auth.), Friedrich Gerlach (eds.)",1884,1,Springer-Verlag Berlin Heidelberg,,84,0,German,,,,"978-3-662-32228-4,978-3-662-33055-5",,,,,,,10.1007/978-3-662-33055-5,,,,0,,,,,,,1,7537944,pdf,7d60825fd6a8471c2432a4243fd58ca8,,,D:\\HDD4\\!genesis\\SPR_NEW_2013-12\\bok%3A978-3-662-33055-5.pdf,0,2000-01-01 01:00:00,2016-04-03 02:51:08,1137000/7d60825fd6a8471c2432a4243fd58ca8-d.jpg,,
21252396,"Ramie, Rheea, Chinagras und Nesselfaser: Ihre Erzeugung und Bearbeitung als Material für die Textilindustrie",,,,"C. B. Bouché, Dr. Hermann Grothe (auth.)",1884,2,Springer-Verlag Berlin Heidelberg,,164,0,German,,,,"978-3-662-31908-6,978-3-662-32735-7",,,,,,,10.1007/978-3-662-32735-7,,,,0,,,,,,,1,8787578,pdf,92a796233b312f95abd3c23782adf9ed,,,D:\\HDD4\\!genesis\\SPR_NEW_2013-12\\bok%3A978-3-662-32735-7.pdf,0,2000-01-01 01:00:00,2016-04-03 02:51:08,1137000/92a796233b312f95abd3c23782adf9ed-d.jpg,,
21252397,Lehrbuch der Telephonie und Mikrophonie: Mit besonderer Berücksichtigung der Fernsprecheinrichtungen der Deutschen Reichs-Post- und Telegraphen-Verwaltung,,,,C. Grawinkel (auth.),1884,2,Springer-Verlag Berlin Heidelberg,,301,0,German,,,,"978-3-662-38884-6,978-3-662-39810-4",,,,,,,10.1007/978-3-662-39810-4,,,,0,,,,,,,1,13693943,pdf,d503e01f0d4584f3acaf454d06426268,,,D:\\HDD4\\!genesis\\SPR_NEW_2013-12\\bok%3A978-3-662-39810-4.pdf,0,2000-01-01 01:00:00,2016-04-03 02:51:08,1139000/d503e01f0d4584f3acaf454d06426268-d.jpg,,
21252398,"Das Beckersche Verfahren zum Kochen von Speisen im Dampf- und Wasserbad, sowie die dazu erforderlichen Apparate",,,,R. Henneberg (auth.),1883,1,Springer-Verlag Berlin Heidelberg,,49,0,German,,,,"978-3-662-38902-7,978-3-662-39835-7",,,,,,,10.1007/978-3-662-39835-7,,,,0,,,,,,,1,2721999,pdf,4893941ee320fd03ee555bf4345da410,,,D:\\HDD4\\!genesis\\SPR_NEW_2013-12\\bok%3A978-3-662-39835-7.pdf,0,2000-01-01 01:00:00,2016-04-03 02:51:08,1139000/4893941ee320fd03ee555bf4345da410-d.jpg,,
21252399,Schlagwetter und kein Ende der Forschung: Ein Beitrag zur Schlagwetterfrage aus der Praxis für die Praxis,,,,B. Otto (auth.),1886,1,Springer-Verlag Berlin Heidelberg,,116,0,German,,,,"978-3-662-33461-4,978-3-662-33859-9",,,,,,,10.1007/978-3-662-33859-9,,,,0,,,,,,,1,6275676,pdf,4de47f70ef1c98871bb5e5b5c8f0cbba,,,D:\\HDD4\\!genesis\\SPR_NEW_2013-12\\bok%3A978-3-662-33859-9.pdf,0,2000-01-01 01:00:00,2016-04-03 02:51:08,1138000/4de47f70ef1c98871bb5e5b5c8f0cbba-d.jpg,,
21252400,Bericht über eine Bauwissenschaftliche Studienreise nach der Pommerschen Küste,,,,"Roth, Rothschuh (auth.)",1887,1,Springer-Verlag Berlin Heidelberg,,102,0,German,,,,"978-3-662-39116-7,978-3-662-40099-9",,,,,,,10.1007/978-3-662-40099-9,,,,0,,,,,,,1,7453379,pdf,ef510bdd477501cbc09826f61b14ce55,,,D:\\HDD4\\!genesis\\SPR_NEW_2013-12\\bok%3A978-3-662-40099-9.pdf,0,2000-01-01 01:00:00,2016-04-03 02:51:08,1139000/ef510bdd477501cbc09826f61b14ce55-d.jpg,,
21252401,"Die elektrische Haustelegraphie und die Telephonie: Handbuch für Techniker, Mechaniker und Bauschlosser",,,,"L. Scharnweber, Dr. Otto Goldschmidt (auth.)",1887,2,Springer-Verlag Berlin Heidelberg,,153,0,German,,,,"978-3-662-32429-5,978-3-662-33256-6",,,,,,,10.1007/978-3-662-33256-6,,,,0,,,,,,,1,9206120,pdf,34bf8b7989ee55d1d51ac5fc135a3bec,,,D:\\HDD4\\!genesis\\SPR_NEW_2013-12\\bok%3A978-3-662-33256-6.pdf,0,2000-01-01 01:00:00,2016-04-03 02:51:08,1138000/34bf8b7989ee55d1d51ac5fc135a3bec-d.jpg,,
21252402,"Die Verunreinigung der Gewässer, deren schädliche Folgen, nebst Mitteln zur Reinigung der Schmutzwässer: Mit dem Ehrenpreis Sr. Majestät des Königs Albert von Sachsen gekrönte Arbeit",,,,Prof. Dr. J. König (auth.),1887,1,Springer-Verlag Berlin Heidelberg,,646,0,German,,,,"978-3-662-36007-1,978-3-662-36837-4",,,,,,,10.1007/978-3-662-36837-4,,,,0,,,,,,,1,32335492,pdf,b6fe4a900ab2854b5be24cb6f139567c,,,D:\\HDD4\\!genesis\\SPR_NEW_2013-12\\bok%3A978-3-662-36837-4.pdf,0,2000-01-01 01:00:00,2016-04-03 02:51:08,1139000/b6fe4a900ab2854b5be24cb6f139567c-d.jpg,,
21252403,"Untersuchungen von natürlichen Gesteinen auf Festigkeit, specifisches Gewicht, Härtegrad, Wasseraufnahme, Cohäsionsbeschaffenheit und Wetterbeständigkeit",,Mittheilungen aus den Königlichen technischen Versuchsanstalten zu Berlin,,Dr. Böhme (auth.),1889,1,Springer-Verlag Berlin Heidelberg,,50,0,German,,,,"978-3-662-31792-1,978-3-662-32618-3",,,,,,,10.1007/978-3-662-32618-3,,,,0,,,,,,,1,4918169,pdf,8b5081ccb6526129f6f1461998b55a94,,,D:\\HDD4\\!genesis\\SPR_NEW_2013-12\\bok%3A978-3-662-32618-3.pdf,0,2000-01-01 01:00:00,2016-04-03 02:51:08,1137000/8b5081ccb6526129f6f1461998b55a94-d.jpg,,
21252404,Die bessere Ausnutzung der Gewässer und der Wasserkräfte: Auf Veranlassung des Vereines deutscher Ingenieure im Jahre 1888 in Aachen und Breslau gehaltene Vorträge,,,,O. Intze (auth.),1889,1,Springer-Verlag Berlin Heidelberg,,77,0,German,,,,"978-3-662-32459-2,978-3-662-33286-3",,,,,,,10.1007/978-3-662-33286-3,,,,0,,,,,,,1,3152856,pdf,85375560e8bd1c747d935c9b60795c28,,,D:\\HDD4\\!genesis\\SPR_NEW_2013-12\\bok%3A978-3-662-33286-3.pdf,0,2000-01-01 01:00:00,2016-04-03 02:51:08,1138000/85375560e8bd1c747d935c9b60795c28-d.jpg,,
21252405,"Anlage, Konstruktion und Einrichtung von Bleicherei- und Färberei-Lokalitäten",,,,J. Trey (auth.),1889,1,Springer-Verlag Berlin Heidelberg,,92,0,German,,,,"978-3-662-38629-3,978-3-662-39485-4",,,,,,,10.1007/978-3-662-39485-4,,,,0,,,,,,,1,4190803,pdf,ff5368016e02f820593220709ae7a0bd,,,D:\\HDD4\\!genesis\\SPR_NEW_2013-12\\bok%3A978-3-662-39485-4.pdf,0,2000-01-01 01:00:00,2016-04-03 02:51:08,1139000/ff5368016e02f820593220709ae7a0bd-d.jpg,,
21252406,Die Formulirung von Patentansprüchen und die Anfertigung von Patentbeschreibungen und -Zeichnungen,,,,Wilhelm Stercken (auth.),1890,1,Springer-Verlag Berlin Heidelberg,,79,0,German,,,,"978-3-662-39375-8,978-3-662-40431-7",,,,,,,10.1007/978-3-662-40431-7,,,,0,,,,,,,1,6053394,pdf,ca220a7fd0e07f39df3c6154a0307c43,,,D:\\HDD4\\!genesis\\SPR_NEW_2013-12\\bok%3A978-3-662-40431-7.pdf,0,2000-01-01 01:00:00,2016-04-03 02:51:08,1139000/ca220a7fd0e07f39df3c6154a0307c43-d.jpg,,
21252407,Versuche über die Beiz- und Rostsprödigkeit des Eisens und Stahls: Ausgeführt im Auftrage des Herrn Ministers der öffentlichen Arbeiten,,,,Professors A. Ledebur (auth.),1890,1,Springer-Verlag Berlin Heidelberg,,40,0,German,,,,"978-3-662-31780-8,978-3-662-32606-0",,,,,,,10.1007/978-3-662-32606-0,,,,0,,,,,,,1,5463470,pdf,5db4b9bcd73f3a485156324eee108e42,,,D:\\HDD4\\!genesis\\SPR_NEW_2013-12\\bok%3A978-3-662-32606-0.pdf,0,2000-01-01 01:00:00,2016-04-03 02:51:08,1137000/5db4b9bcd73f3a485156324eee108e42-d.jpg,,
21252408,Ausrückbare Kupplungen für Wellen und Räderwerke: Theoretische Grundlage und vergleichende Beurteilung ausgeführter Konstruktionen,,,,Ad. Ernst (auth.),1890,1,Springer-Verlag Berlin Heidelberg,,287,0,German,,,,"978-3-662-39290-4,978-3-662-40323-5",,,,,,,10.1007/978-3-662-40323-5,,,,0,,,,,,,1,29866567,pdf,e7bb23477687a4655da07cfdd0b3ca51,,,D:\\HDD4\\!genesis\\SPR_NEW_2013-12\\bok%3A978-3-662-40323-5.pdf,0,2000-01-01 01:00:00,2016-04-03 02:51:08,1139000/e7bb23477687a4655da07cfdd0b3ca51-d.jpg,,
21252409,Ueber die Herstellung von Dauermilch: unter Anlehnung an Versuche mit einem bestimmten neueren Verfahren,,Arbeiten aus dem Kaiserlichen Gesundheitsamte VII,,"Dr. R. J. Petri, Dr. Albert Maaßen (auth.)",1891,1,Springer-Verlag Berlin Heidelberg,,72,0,German,,,,"978-3-662-31816-4,978-3-662-32642-8",,,,,,,10.1007/978-3-662-32642-8,,,,0,,,,,,,1,12921703,pdf,0ab93e8faf250830a10bdd588dffefbb,,,D:\\HDD4\\!genesis\\SPR_NEW_2013-12\\bok%3A978-3-662-32642-8.pdf,0,2000-01-01 01:00:00,2016-04-03 02:51:08,1137000/0ab93e8faf250830a10bdd588dffefbb-d.jpg,,
21252410,Versuche über die Widerstandsfähigkeit ebener Platten,,,,C. Bach (auth.),1891,1,Springer-Verlag Berlin Heidelberg,,109,0,German,,,,"978-3-662-33412-6,978-3-662-33809-4",,,,,,,10.1007/978-3-662-33809-4,,,,0,,,,,,,1,10752220,pdf,17d01fedfda432f565528763d07a8ab1,,,D:\\HDD4\\!genesis\\SPR_NEW_2013-12\\bok%3A978-3-662-33809-4.pdf,0,2000-01-01 01:00:00,2016-04-03 02:51:08,1138000/17d01fedfda432f565528763d07a8ab1-d.jpg,,
21252411,"Das Wasser, seine Verwendung, Reinigung und Beurtheilung: mit besonderer Berücksichtigung der gewerblichen Abwässer",,,,Dr. Ferdinand Fischer (auth.),1891,2,Springer-Verlag Berlin Heidelberg,,292,0,German,,,,"978-3-662-38828-0,978-3-662-39746-6",,,,,,,10.1007/978-3-662-39746-6,,,,0,,,,,,,1,13709883,pdf,0fc6e08905f49a41ba1710c0c34911c9,,,D:\\HDD4\\!genesis\\SPR_NEW_2013-12\\bok%3A978-3-662-39746-6.pdf,0,2000-01-01 01:00:00,2016-04-03 02:51:08,1139000/0fc6e08905f49a41ba1710c0c34911c9-d.jpg,,
21252412,Auf Deutscher Bahn in Kleinasien: Eine Herbstfahrt,,,,Friedrich Dernburg (auth.),1892,2,Springer-Verlag Berlin Heidelberg,,207,0,German,,,,"978-3-662-33741-7,978-3-662-34139-1",,,,,,,10.1007/978-3-662-34139-1,,,,0,,,,,,,1,9032739,pdf,3974abd437e3e994298cd57d94482785,,,D:\\HDD4\\!genesis\\SPR_NEW_2013-12\\bok%3A978-3-662-34139-1.pdf,0,2000-01-01 01:00:00,2016-04-03 02:51:08,1138000/3974abd437e3e994298cd57d94482785-d.jpg,,
21252413,Leitfaden für Zuckerfabrikchemiker zur Untersuchung der in der Zuckerfabrikation vorkommenden Produkte und Hilfsstoffe,,,,Dr. E. Preuss (auth.),1892,1,Springer-Verlag Berlin Heidelberg,,129,0,German,,,,"978-3-662-31982-6,978-3-662-32809-5",,,,,,,10.1007/978-3-662-32809-5,,,,0,,,,,,,1,6388233,pdf,0b2ea68a37d86390680fef9d0f4f8aa2,,,D:\\HDD4\\!genesis\\SPR_NEW_2013-12\\bok%3A978-3-662-32809-5.pdf,0,2000-01-01 01:00:00,2016-04-03 02:51:08,1137000/0b2ea68a37d86390680fef9d0f4f8aa2-d.jpg,,
21252414,Hilfsbuch für die Elektrotechnik,,,,"C. Grawinkel, K. Strecker (auth.), C. Grawinkel, K. Strecker (eds.)",1893,3,Springer-Verlag Berlin Heidelberg,,653,0,German,,,,"978-3-662-39029-0,978-3-662-40001-2",,,,,,,10.1007/978-3-662-40001-2,,,,0,,,,,,,1,33884525,pdf,a61eb82dfea960b6b02c2645dc1d29c9,,,D:\\HDD4\\!genesis\\SPR_NEW_2013-12\\bok%3A978-3-662-40001-2.pdf,0,2000-01-01 01:00:00,2016-04-03 02:51:08,1139000/a61eb82dfea960b6b02c2645dc1d29c9-d.jpg,,
21252415,"Bericht über die am 9., 10. und 11. Februar 1893 in Berlin vorgenommenen Prüfungen feuersicherer Baukonstruktionen",,,,"Stude, Reichel (auth.), Stude, Reichel (eds.)",1893,1,Springer-Verlag Berlin Heidelberg,,56,0,German,,,,"978-3-662-39167-9,978-3-662-40162-0",,,,,,,10.1007/978-3-662-40162-0,,,,0,,,,,,,1,4802376,pdf,b0a62f51fa00aeb3a39fdc672693ad60,,,D:\\HDD4\\!genesis\\SPR_NEW_2013-12\\bok%3A978-3-662-40162-0.pdf,0,2000-01-01 01:00:00,2016-04-03 02:51:08,1139000/b0a62f51fa00aeb3a39fdc672693ad60-d.jpg,,
21252416,Berechnung der Leistung und des Dampfverbrauches der Eincylinder-Dampfmaschinen: Ein Taschenbuch zum Gebrauche in der Praxis,,,,Josef Pechan (auth.),1896,1,Springer-Verlag Berlin Heidelberg,,183,0,German,,,,"978-3-662-39174-7,978-3-662-40169-9",,,,,,,10.1007/978-3-662-40169-9,,,,0,,,,,,,1,5682964,pdf,73d209ebfcfb0395efd3c592d3540c69,,,D:\\HDD4\\!genesis\\SPR_NEW_2013-12\\bok%3A978-3-662-40169-9.pdf,0,2000-01-01 01:00:00,2016-04-03 02:51:08,1139000/73d209ebfcfb0395efd3c592d3540c69-d.jpg,,
21252417,Aichung der Binnenschiffe,,,,(auth.),1899,1,Springer-Verlag Berlin Heidelberg,,42,0,German,,,,"978-3-662-38757-3,978-3-662-39648-3",,,,,,,10.1007/978-3-662-39648-3,,,,0,,,,,,,1,1524374,pdf,6db0ea2c384b3c920e1d58872aca6f1e,,,D:\\HDD4\\!genesis\\SPR_NEW_2013-12\\bok%3A978-3-662-39648-3.pdf,0,2000-01-01 01:00:00,2016-04-03 02:51:08,1139000/6db0ea2c384b3c920e1d58872aca6f1e-d.jpg,,
21252418,Die Deutsch-Ostafrikanische Centralbahn,,,,Wilhelm Oechelhaeuser (auth.),1899,1,Springer-Verlag Berlin Heidelberg,,133,0,German,,,,"978-3-642-90209-3,978-3-642-92066-0",,,,,,,10.1007/978-3-642-92066-0,,,,0,,,,,,,1,10976393,pdf,8fc87974ed202b3dac781ea6eb543138,,,D:\\HDD4\\!genesis\\SPR_NEW_2013-12\\bok%3A978-3-642-92066-0.pdf,0,2000-01-01 01:00:00,2016-04-03 02:51:08,1135000/8fc87974ed202b3dac781ea6eb543138-d.jpg,,
21252419,Das Eisenbahn-Bauwesen für Bahnmeister und Bauaufseher: als Anleitung für den praktischen Dienst und zur Vorbereitung für das Bahnmeister-Examen,,,,A. I. Susemihl (auth.),1899,6,Springer-Verlag Berlin Heidelberg,,"VIII, 479 S.",0,German,,,,"978-3-642-50548-5,978-3-642-50858-5",,,,,,,10.1007/978-3-642-50858-5,,,,0,,,,,,,1,23481385,pdf,dd0718af37382d477fd9dfe3d19e01bc,,,D:\\HDD4\\!genesis\\SPR_NEW_2013-12\\bok%3A978-3-642-50858-5.pdf,0,2000-01-01 01:00:00,2016-04-03 02:51:08,1135000/dd0718af37382d477fd9dfe3d19e01bc-d.jpg,,
21252420,Die neuen Vorschriften in der Eisenbahn-Verkehrsordnung vom 26. Oktober 1899,,,,Dr. Th. Gerstner (auth.),1899,1,Springer-Verlag Berlin Heidelberg,,48,0,German,,,,"978-3-662-32336-6,978-3-662-33163-7",,,,,,,10.1007/978-3-662-33163-7,,,,0,,,,,,,1,4617271,pdf,59ef741aa0d8ca30c32ae7d8e194a3e4,,,D:\\HDD4\\!genesis\\SPR_NEW_2013-12\\bok%3A978-3-662-33163-7.pdf,0,2000-01-01 01:00:00,2016-04-03 02:51:08,1137000/59ef741aa0d8ca30c32ae7d8e194a3e4-d.jpg,,
21252421,Rathschläge über den Blitzschutz der Gebäude unter besonderer Berücksichtigung der landwirthschaftlichen Gebäude,,,,F. Findeisen (auth.),1899,2,Springer-Verlag Berlin Heidelberg,,247,0,German,,,,"978-3-662-40586-4,978-3-662-41064-6",,,,,,,10.1007/978-3-662-41064-6,,,,0,,,,,,,1,14086120,pdf,a4041862e315d7f68229dd7a7d6fa95e,,,D:\\HDD4\\!genesis\\SPR_NEW_2013-12\\bok%3A978-3-662-41064-6.pdf,0,2000-01-01 01:00:00,2016-04-03 02:51:08,1140000/a4041862e315d7f68229dd7a7d6fa95e-d.jpg,,
21252422,Elektrische Kraftübertragung: Ein Lehrbuch für Elektrotechniker,,,,Gisbert Kapp (auth.),1898,3,Springer-Verlag Berlin Heidelberg,,344,0,German,,,,"978-3-662-35941-9,978-3-662-36771-1",,,,,,,10.1007/978-3-662-36771-1,,,,0,,,,,,,1,13001375,pdf,d001a28b1da1ef94c0d4a1aa327ac69c,,,D:\\HDD4\\!genesis\\SPR_NEW_2013-12\\bok%3A978-3-662-36771-1.pdf,0,2000-01-01 01:00:00,2016-04-03 02:51:08,1138000/d001a28b1da1ef94c0d4a1aa327ac69c-d.jpg,,
21252423,Der Dampfkessel-Betrieb,,,,E. Schlippe (auth.),1900,3,Springer-Verlag Berlin Heidelberg,,287,0,German,,,,"978-3-662-38776-4,978-3-662-39674-2",,,,,,,10.1007/978-3-662-39674-2,,,,0,,,,,,,1,15743271,pdf,b90506cac716ea51be7764a95f0c35e4,,,D:\\HDD4\\!genesis\\SPR_NEW_2013-12\\bok%3A978-3-662-39674-2.pdf,0,2000-01-01 01:00:00,2016-04-03 02:51:08,1139000/b90506cac716ea51be7764a95f0c35e4-d.jpg,,
21252424,Maschinenkunde für den Schlachthof-Betrieb,,,,Dr. Oskar Schwarz (auth.),1901,1,Springer-Verlag Berlin Heidelberg,,168,0,German,,,,"978-3-662-31972-7,978-3-662-32799-9",,,,,,,10.1007/978-3-662-32799-9,,,,0,,,,,,,1,11369587,pdf,ca4f19c956675415cc7a3f0185da7923,,,D:\\HDD4\\!genesis\\SPR_NEW_2013-12\\bok%3A978-3-662-32799-9.pdf,0,2000-01-01 01:00:00,2016-04-03 02:51:08,1137000/ca4f19c956675415cc7a3f0185da7923-d.jpg,,
21252425,Neues Pharmazeutisches Manual,,,,Eugen Dieterich (auth.),1901,8,Springer-Verlag Berlin Heidelberg,,857,0,German,,,,"978-3-662-35595-4,978-3-662-36424-6",,,,,,,10.1007/978-3-662-36424-6,,,,0,,,,,,,1,52419411,pdf,4d4b6438206a6b10c47dae06745da324,,,D:\\HDD4\\!genesis\\SPR_NEW_2013-12\\bok%3A978-3-662-36424-6.pdf,0,2000-01-01 01:00:00,2016-04-03 02:51:08,1138000/4d4b6438206a6b10c47dae06745da324-d.jpg,,
21252426,Kondensation: Ein Lehr- und Handbuch,,,,F. J. Weiss (auth.),1901,1,Springer-Verlag Berlin Heidelberg,,405,0,German,,,,"978-3-662-35725-5,978-3-662-36555-7",,,,,,,10.1007/978-3-662-36555-7,,,,0,,,,,,,1,18010925,pdf,a23067e33b83a31683dd7753ad050b8d,,,D:\\HDD4\\!genesis\\SPR_NEW_2013-12\\bok%3A978-3-662-36555-7.pdf,0,2000-01-01 01:00:00,2016-04-03 02:51:08,1138000/a23067e33b83a31683dd7753ad050b8d-d.jpg,,
21252427,Normalien zur Prüfung von elektrischen Maschinen und Transformatoren: Von der 9. Jahresversammlung des Verbandes Deutscher Elektrotechniker in Dresden am 18. Juni 1901 probeweise auf ein Jahr angenommen,,,,G. Dettmar (auth.),1901,1,Springer-Verlag Berlin Heidelberg,,53,0,German,,,,"978-3-662-31941-3,978-3-662-32768-5",,,,,,,10.1007/978-3-662-32768-5,,,,0,,,,,,,1,1992189,pdf,b9c4ce522faa36fe14e17278035feda9,,,D:\\HDD4\\!genesis\\SPR_NEW_2013-12\\bok%3A978-3-662-32768-5.pdf,0,2000-01-01 01:00:00,2016-04-03 02:51:08,1137000/b9c4ce522faa36fe14e17278035feda9-d.jpg,,
21252428,Die Bekämpfung der Schadenfeuer: Taktische Regeln für die Brandstelle,,,,C. Krameyer (auth.),1901,3,Springer-Verlag Berlin Heidelberg,,94,0,German,,,,"978-3-662-38615-6,978-3-662-39471-7",,,,,,,10.1007/978-3-662-39471-7,,,,0,,,,,,,1,3640342,pdf,e937c2475b75f7bad6201eac95884884,,,D:\\HDD4\\!genesis\\SPR_NEW_2013-12\\bok%3A978-3-662-39471-7.pdf,0,2000-01-01 01:00:00,2016-04-03 02:51:08,1139000/e937c2475b75f7bad6201eac95884884-d.jpg,,
21252429,Die Wärmeausnutzung bei der Dampfmaschine,,,,W. Lynen (auth.),1901,1,Springer-Verlag Berlin Heidelberg,,59,0,German,,,,"978-3-662-39315-4,978-3-662-40355-6",,,,,,,10.1007/978-3-662-40355-6,,,,0,,,,,,,1,3466905,pdf,52dc92d0d33fb69faac95d6300732351,,,D:\\HDD4\\!genesis\\SPR_NEW_2013-12\\bok%3A978-3-662-40355-6.pdf,0,2000-01-01 01:00:00,2016-04-03 02:51:08,1139000/52dc92d0d33fb69faac95d6300732351-d.jpg,,
21252430,Leitfaden zum Berechnen und Entwerfen von Lüftungs- und Heizungs-Anlagen: Auf Anregung Seiner Excellenz des Herrn Ministers der öffentlichen Arbeiten,,,,"Geh. Regierungs-Rath, Professor H. Rietschel (auth.)",1902,3,Springer-Verlag Berlin Heidelberg,,275,0,German,,,,"978-3-662-40624-3,978-3-662-41104-9",,,,,,,10.1007/978-3-662-41104-9,,,,0,,,,,,,1,10227887,pdf,e49bbe2978cda314b7d79290b5f26f09,,,D:\\HDD4\\!genesis\\SPR_NEW_2013-12\\bok%3A978-3-662-41104-9.pdf,0,2000-01-01 01:00:00,2016-04-03 02:51:08,1140000/e49bbe2978cda314b7d79290b5f26f09-d.jpg,,
21252431,"Ausrichtung, Vorrichtung, Abbau, Grubenausbau",,,,(auth.),1902,1,Springer-Verlag Berlin Heidelberg,,396,0,German,,,,"978-3-642-89137-3,978-3-642-90993-1",,,,,,,10.1007/978-3-642-90993-1,,,,0,,,,,,,1,28278774,pdf,b92dab625c64b9b47cc7bd3265b22e40,,,D:\\HDD4\\!genesis\\SPR_NEW_2013-12\\bok%3A978-3-642-90993-1.pdf,0,2000-01-01 01:00:00,2016-04-03 02:51:08,1135000/b92dab625c64b9b47cc7bd3265b22e40-d.jpg,,
21252432,"Gewinnungsarbeiten, Wasserhaltung: IV",,,,"Bergassessor Wilhelm Müller, Ingenieur Stach, Bergassessor Baum (auth.)",1902,1,Springer-Verlag Berlin Heidelberg,,397,0,German,,,,"978-3-642-90160-7,978-3-642-92017-2",,,,,,,10.1007/978-3-642-92017-2,,,,0,,,,,,,1,18804483,pdf,4a6706ce8d2e9052f664e06baa170cec,,,D:\\HDD4\\!genesis\\SPR_NEW_2013-12\\bok%3A978-3-642-92017-2.pdf,0,2000-01-01 01:00:00,2016-04-03 02:51:08,1135000/4a6706ce8d2e9052f664e06baa170cec-d.jpg,,
21252433,Die Geschäfts- und Bauführung im Anschluß an die Dienstanweisung für die Lokalbaubeamten sowie das Baupolizeirecht und die für den Bautechniker wichtigsten Bestimmungen des Bürgerlichen Gesetzbuches,,,,G. Benkwitz (auth.),1902,2,Springer-Verlag Berlin Heidelberg,,143,0,German,,,,"978-3-662-32404-2,978-3-662-33231-3",,,,,,,10.1007/978-3-662-33231-3,,,,0,,,,,,,1,7250419,pdf,9014aa330c7f3bddd0f53d90c7c37b89,,,D:\\HDD4\\!genesis\\SPR_NEW_2013-12\\bok%3A978-3-662-33231-3.pdf,0,2000-01-01 01:00:00,2016-04-03 02:51:08,1138000/9014aa330c7f3bddd0f53d90c7c37b89-d.jpg,,
21252434,Untersuchungen über den Einfluss der Art und des Wechsels der Belastung auf die elastischen und bleibenden Formänderungen,,,,Dr. Ing. Otto Berner (auth.),1903,1,Springer-Verlag Berlin Heidelberg,,81,0,German,,,,"978-3-662-39078-8,978-3-662-40059-3",,,,,,,10.1007/978-3-662-40059-3,,,,0,,,,,,,1,3959430,pdf,5c5553fabc2ba858587497c9a461cb97,,,D:\\HDD4\\!genesis\\SPR_NEW_2013-12\\bok%3A978-3-662-40059-3.pdf,0,2000-01-01 01:00:00,2016-04-03 02:51:08,1139000/5c5553fabc2ba858587497c9a461cb97-d.jpg,,
21252435,Technische Anleitung zur Ausführung der polizeilichen Maß- und Gewichts-Revisionen,,,,(auth.),1903,3,Springer-Verlag Berlin Heidelberg,,41,0,German,,,,"978-3-662-33438-6,978-3-662-33835-3",,,,,,,10.1007/978-3-662-33835-3,,,,0,,,,,,,1,1768443,pdf,82970aa847b297fbf8f64126abe822e6,,,D:\\HDD4\\!genesis\\SPR_NEW_2013-12\\bok%3A978-3-662-33835-3.pdf,0,2000-01-01 01:00:00,2016-04-03 02:51:08,1138000/82970aa847b297fbf8f64126abe822e6-d.jpg,,
21252436,Untersuchungen über den Energieverlust des Wassers in Turbinenkanälen,,,,Dr.-Ing. Hermann Oesterlin (auth.),1903,1,Springer-Verlag Berlin Heidelberg,,76,0,German,,,,"978-3-662-31800-3,978-3-662-32626-8",,,,,,,10.1007/978-3-662-32626-8,,,,0,,,,,,,1,2914279,pdf,e49e8eb6555b57c1a3680a25dbb58a55,,,D:\\HDD4\\!genesis\\SPR_NEW_2013-12\\bok%3A978-3-662-32626-8.pdf,0,2000-01-01 01:00:00,2016-04-03 02:51:08,1137000/e49e8eb6555b57c1a3680a25dbb58a55-d.jpg,,
21252437,Asynchrone Generatoren für ein- und mehrphasige Wechselströme: Ihre Theorie und Wirkungsweise,,,,Clarence Feldmann (auth.),1903,1,Springer-Verlag Berlin Heidelberg,,142,0,German,,,,"978-3-662-39327-7,978-3-662-40367-9",,,,,,,10.1007/978-3-662-40367-9,,,,0,,,,,,,1,7678010,pdf,f236af3736c9fda781c8c0b80ae4ab76,,,D:\\HDD4\\!genesis\\SPR_NEW_2013-12\\bok%3A978-3-662-40367-9.pdf,0,2000-01-01 01:00:00,2016-04-03 02:51:08,1139000/f236af3736c9fda781c8c0b80ae4ab76-d.jpg,,
21252438,Fliehkraft und Beharrungsregler: Versuch einer einfachen Darstellung der Regulierungsfrage im Tolleschen Diagramm,,,,Fritz Thümmler (auth.),1903,1,Springer-Verlag Berlin Heidelberg,,154,0,German,,,,"978-3-662-32171-3,978-3-662-32998-6",,,,,,,10.1007/978-3-662-32998-6,,,,0,,,,,,,1,7252479,pdf,2d1b8d15aef908a7af07012e2c3b9851,,,D:\\HDD4\\!genesis\\SPR_NEW_2013-12\\bok%3A978-3-662-32998-6.pdf,0,2000-01-01 01:00:00,2016-04-03 02:51:08,1137000/2d1b8d15aef908a7af07012e2c3b9851-d.jpg,,
21252439,Der Automobil-Löschzug der Berufsfeuerwehr Hannover,,,,M. Reichel (auth.),1903,1,Springer-Verlag Berlin Heidelberg,,93,0,German,,,,"978-3-662-38674-3,978-3-662-39548-6",,,,,,,10.1007/978-3-662-39548-6,,,,0,,,,,,,1,3814678,pdf,f2c4f2cceee73a63aae0d3d3310cc37e,,,D:\\HDD4\\!genesis\\SPR_NEW_2013-12\\bok%3A978-3-662-39548-6.pdf,0,2000-01-01 01:00:00,2016-04-03 02:51:08,1139000/f2c4f2cceee73a63aae0d3d3310cc37e-d.jpg,,
21252440,Anleitung zur statischen Berechnung von Eisenkonstruktionen im Hochbau,,,,"H. Schloesser (auth.), Wilhelm Will (eds.)",1903,3,Springer-Verlag Berlin Heidelberg,,249,0,German,,,,"978-3-662-39403-8,978-3-662-40464-5",,,,,,,10.1007/978-3-662-40464-5,,,,0,,,,,,,1,9524470,pdf,394de64dc005e4af7399bb374fc740d0,,,D:\\HDD4\\!genesis\\SPR_NEW_2013-12\\bok%3A978-3-662-40464-5.pdf,0,2000-01-01 01:00:00,2016-04-03 02:51:08,1139000/394de64dc005e4af7399bb374fc740d0-d.jpg,,
21252441,"Die Hebezeuge: Ein Handbuch für Ingenieure, Techniker und Studirende",,,,Ad. Ernst (auth.),1903,4,Springer-Verlag Berlin Heidelberg,,28,0,German,,,,"978-3-642-89347-6,978-3-642-91203-0",,,,,,,10.1007/978-3-642-91203-0,,,,0,,,,,,,1,1410235,pdf,466a3d9161bdb5dc4906016508e2e380,,,D:\\HDD4\\!genesis\\SPR_NEW_2013-12\\bok%3A978-3-642-91203-0.pdf,0,2000-01-01 01:00:00,2016-04-03 02:51:08,1135000/466a3d9161bdb5dc4906016508e2e380-d.jpg,,
21252442,"Die Entwickelung des Niederrheinisch-Westfälischen Steinkohlen-Bergbaues in der zweiten Hälfte des 19. Jahrhunderts: III. Stollen, Schächte",,,,Bergassessor Schulz Briesen (auth.),1903,1,Springer-Verlag Berlin Heidelberg,,601,0,German,,,,"978-3-642-98924-7,978-3-642-99739-6",,,,,,,10.1007/978-3-642-99739-6,,,,0,,,,,,,1,29856691,pdf,fc2e70d7fe2a65e4a212a66723cd3d47,,,D:\\HDD4\\!genesis\\SPR_NEW_2013-12\\bok%3A978-3-642-99739-6.pdf,0,2000-01-01 01:00:00,2016-04-03 02:51:08,1136000/fc2e70d7fe2a65e4a212a66723cd3d47-d.jpg,,
21252443,Die Berechnung Elektrischer Leitungsnetze in Theorie und Praxis,,,,"Josef Herzog, Clarence Feldmann (auth.)",1903,2,Springer-Verlag Berlin Heidelberg,,416,0,German,,,,"978-3-662-36172-6,978-3-662-37002-5",,,,,,,10.1007/978-3-662-37002-5,,,,0,,,,,,,1,45600624,pdf,cf4ddd94e22f29c4651cfb71173570d5,,,D:\\HDD4\\!genesis\\SPR_NEW_2013-12\\bok%3A978-3-662-37002-5.pdf,0,2000-01-01 01:00:00,2016-04-03 02:51:08,1139000/cf4ddd94e22f29c4651cfb71173570d5-d.jpg,,
21252444,"Das Trocknen mit Luft und Dampf: Erklärungen, Formeln und Tabellen für den praktischen Gebrauch",,,,E. Hausbrand (auth.),1903,2,Springer-Verlag Berlin Heidelberg,,96,0,German,,,,"978-3-662-40765-3,978-3-662-41249-7",,,,,,,10.1007/978-3-662-41249-7,,,,0,,,,,,,1,3275098,pdf,00c088d5b49da599c4ea5576d2c5b22e,,,D:\\HDD4\\!genesis\\SPR_NEW_2013-12\\bok%3A978-3-662-41249-7.pdf,0,2000-01-01 01:00:00,2016-04-03 02:51:08,1140000/00c088d5b49da599c4ea5576d2c5b22e-d.jpg,,
21252445,Die Wirkungsweise der Rektifizier- und Destillier-Apparate mit Hilfe einfacher mathematischer Betrachtungen,,,,E. Hausbrand (auth.),1903,2,Springer-Verlag Berlin Heidelberg,,136,0,German,,,,"978-3-662-36002-6,978-3-662-36832-9",,,,,,,10.1007/978-3-662-36832-9,,,,0,,,,,,,1,4487872,pdf,af8ed3a7c3334f603c01eb4507009568,,,D:\\HDD4\\!genesis\\SPR_NEW_2013-12\\bok%3A978-3-662-36832-9.pdf,0,2000-01-01 01:00:00,2016-04-03 02:51:08,1139000/af8ed3a7c3334f603c01eb4507009568-d.jpg,,
21252446,"Bau, Einrichtung und Betrieb von öffentlichen Schlachthöfen",,,,Dr. med. Oscar Schwarz (auth.),1894,1,Springer-Verlag Berlin Heidelberg,,250,0,German,,,,"978-3-662-39246-1,978-3-662-40261-0",,,,,,,10.1007/978-3-662-40261-0,,,,0,,,,,,,1,10742047,pdf,7d609bc94a06cadb20f8c623c860e42d,,,D:\\HDD4\\!genesis\\SPR_NEW_2013-12\\bok%3A978-3-662-40261-0.pdf,0,2000-01-01 01:00:00,2016-04-03 02:51:08,1139000/7d609bc94a06cadb20f8c623c860e42d-d.jpg,,
21252447,"Steuerungstabellen für Dampfmaschinen: mit Erläuterungen nach dem Müller’schen Schieberdiagramme und mit Berücksichtigung einer Pleuelstangenlänge gleich dem fünffachen Kurbelradius, sowie beliebiger Exzenterstangenlänge für einfache und Doppel-Schiebersteuerungen",,,,Karl Reinhardt (auth.),1897,1,Springer-Verlag Berlin Heidelberg,,122,0,German,,,,"978-3-662-31857-7,978-3-662-32684-8",,,,,,,10.1007/978-3-662-32684-8,,,,0,,,,,,,1,6224894,pdf,bb1052766d507ece182f332778fb1a3e,,,D:\\HDD4\\!genesis\\SPR_NEW_2013-12\\bok%3A978-3-662-32684-8.pdf,0,2000-01-01 01:00:00,2016-04-03 02:51:08,1137000/bb1052766d507ece182f332778fb1a3e-d.jpg,,
21252448,"Die Königlich Preußischen Maschinenbauschulen ihre Ziele und ihre Berechtigungen, sowie ihre Bedeutung für die Erziehung und wirtschaftliche Förderung des deutschen Techniker-Standes: Nebst Ratschlägen für den Besuch der Maschinenbauschulen",,,,Dr. Siegfried Jakobi (auth.),1905,1,Springer-Verlag Berlin Heidelberg,,215,0,German,,,,"978-3-662-32367-0,978-3-662-33194-1",,,,,,,10.1007/978-3-662-33194-1,,,,0,,,,,,,1,6800395,pdf,15381c67eca63da175bdea8d918ece3c,,,D:\\HDD4\\!genesis\\SPR_NEW_2013-12\\bok%3A978-3-662-33194-1.pdf,0,2000-01-01 01:00:00,2016-04-03 02:51:08,1138000/15381c67eca63da175bdea8d918ece3c-d.jpg,,
21252449,Die drahtlose Telegraphie und ihr Einfluss auf den Wirtschaftsverkehr unter besonderer Berücksichtigung des Systems „Telefunken“: Mit einem Verzeichnis der Patente und Literaturangaben über drahtlose Telegraphie,,,,Dr. Eugen Nesper (auth.),1905,1,Springer-Verlag Berlin Heidelberg,,169,0,German,,,,"978-3-662-32437-0,978-3-662-33264-1",,,,,,,10.1007/978-3-662-33264-1,,,,0,,,,,,,1,7266447,pdf,ddb1ffe8cde74486ec1b3ff045030c75,,,D:\\HDD4\\!genesis\\SPR_NEW_2013-12\\bok%3A978-3-662-33264-1.pdf,0,2000-01-01 01:00:00,2016-04-03 02:51:08,1138000/ddb1ffe8cde74486ec1b3ff045030c75-d.jpg,,
21252450,Die Berechnung Elektrischer Leitungsnetze in Theorie und Praxis: Zweiter Teil: Dimensionierung der Leitungen,,,,"Josef Herzog, Clarence Feldmann (auth.)",1905,2,Springer-Verlag Berlin Heidelberg,,462,0,German,,,,"978-3-662-36171-9,978-3-662-37001-8",,,,,,,10.1007/978-3-662-37001-8,,,,0,,,,,,,1,16382670,pdf,664878bdbec28311f5b7ecacb078f29a,,,D:\\HDD4\\!genesis\\SPR_NEW_2013-12\\bok%3A978-3-662-37001-8.pdf,0,2000-01-01 01:00:00,2016-04-03 02:51:08,1139000/664878bdbec28311f5b7ecacb078f29a-d.jpg,,
21252451,"Disposition der Tagesanlagen, Dampferzeugung, Centralkondensation, Luftkompressoren, Elektrische Centralen: VIII",,,,(auth.),1905,1,Springer-Verlag Berlin Heidelberg,,744,0,German,,,,"978-3-642-50625-3,978-3-642-50935-3",,,,,,,10.1007/978-3-642-50935-3,,,,0,,,,,,,1,40960255,pdf,d1036d4fb327b73823eea4d04cf5a645,,,D:\\HDD4\\!genesis\\SPR_NEW_2013-12\\bok%3A978-3-642-50935-3.pdf,0,2000-01-01 01:00:00,2016-04-03 02:51:08,1135000/d1036d4fb327b73823eea4d04cf5a645-d.jpg,,
21252452,Sicherheitsvorschriften für die Errichtung elektrischer Starkstromanlagen,,,,(auth.),1905,1,Springer-Verlag Berlin Heidelberg,,100,0,German,,,,"978-3-662-33455-3,978-3-662-33853-7",,,,,,,10.1007/978-3-662-33853-7,,,,0,,,,,,,1,5521418,pdf,7d23541be63bce8acb0a2578f2cf550d,,,D:\\HDD4\\!genesis\\SPR_NEW_2013-12\\bok%3A978-3-662-33853-7.pdf,0,2000-01-01 01:00:00,2016-04-03 02:51:08,1138000/7d23541be63bce8acb0a2578f2cf550d-d.jpg,,
21252453,Wirtschaftlichkeit und Betriebssicherheit moderner Dampfkraftanlagen im Vergleich mit Sauggenerator-Gaskraft-Anlagen,,,,Ernst Lewicki (auth.),1904,1,Springer-Verlag Berlin Heidelberg,,55,0,German,,,,"978-3-662-31749-5,978-3-662-32575-9",,,,,,,10.1007/978-3-662-32575-9,,,,0,,,,,,,1,2650799,pdf,c8498d4a56e012e1d07b9a65c7e96346,,,D:\\HDD4\\!genesis\\SPR_NEW_2013-12\\bok%3A978-3-662-32575-9.pdf,0,2000-01-01 01:00:00,2016-04-03 02:51:08,1137000/c8498d4a56e012e1d07b9a65c7e96346-d.jpg,,
21252454,Die Anwendung hoher Ueberhitzung beim Betrieb von Dampfturbinen,,,,Ernst Lewicki (auth.),1904,1,Springer-Verlag Berlin Heidelberg,,103,0,German,,,,"978-3-642-90189-8,978-3-642-92046-2",,,,,,,10.1007/978-3-642-92046-2,,,,0,,,,,,,1,9371564,pdf,3fd6c018b4dee926da3e6a175b2c50cd,,,D:\\HDD4\\!genesis\\SPR_NEW_2013-12\\bok%3A978-3-642-92046-2.pdf,0,2000-01-01 01:00:00,2016-04-03 02:51:08,1135000/3fd6c018b4dee926da3e6a175b2c50cd-d.jpg,,
21252455,Die Wohlfahrtseinrichtungen für die Arbeiter auf den Gruben der Königlichen Bergwerksdirektion zu Saarbrücken,,,,(auth.),1904,1,Springer-Verlag Berlin Heidelberg,,129,0,German,,,,"978-3-662-33638-0,978-3-662-34036-3",,,,,,,10.1007/978-3-662-34036-3,,,,0,,,,,,,1,15820107,pdf,152713f5c53ab70c24e8e9f477df3926,,,D:\\HDD4\\!genesis\\SPR_NEW_2013-12\\bok%3A978-3-662-34036-3.pdf,0,2000-01-01 01:00:00,2016-04-03 02:51:08,1138000/152713f5c53ab70c24e8e9f477df3926-d.jpg,,
21252456,"Die Verwertung des Koksofengases, insbesondere seine Verwendung zum Gasmotorenbetriebe",,,,Bergassessor Baum (auth.),1904,1,Springer-Verlag Berlin Heidelberg,,136,0,German,,,,"978-3-642-47109-4,978-3-642-47360-9",,,,,,,10.1007/978-3-642-47360-9,,,,0,,,,,,,1,8632649,pdf,89a6c227aaa5b57a43c2913e00997f3f,,,D:\\HDD4\\!genesis\\SPR_NEW_2013-12\\bok%3A978-3-642-47360-9.pdf,0,2000-01-01 01:00:00,2016-04-03 02:51:08,1134000/89a6c227aaa5b57a43c2913e00997f3f-d.jpg,,
21252457,Die Gefahren der Elektrizität im Bergwerksbetriebe,,,,Bergassessor Baum (auth.),1904,1,Springer-Verlag Berlin Heidelberg,,144,0,German,,,,"978-3-662-32406-6,978-3-662-33233-7",,,,,,,10.1007/978-3-662-33233-7,,,,0,,,,,,,1,23017964,pdf,dc800af98a67e773801935dba222f3c9,,,D:\\HDD4\\!genesis\\SPR_NEW_2013-12\\bok%3A978-3-662-33233-7.pdf,0,2000-01-01 01:00:00,2016-04-03 02:51:08,1138000/dc800af98a67e773801935dba222f3c9-d.jpg,,
21252458,Jahrbuch der Schiffbautechnischen Gesellschaft: Zehnter Band,,,,(auth.),1909,1,Springer-Verlag Berlin Heidelberg,,624,0,German,,,,"978-3-642-90185-0,978-3-642-92042-4",,,,,,,10.1007/978-3-642-92042-4,,,,0,,,,,,,1,37450062,pdf,e7147326d7068a8c49e7b3211d71ad78,,,D:\\HDD4\\!genesis\\SPR_NEW_2013-12\\bok%3A978-3-642-92042-4.pdf,0,2000-01-01 01:00:00,2016-04-03 02:51:08,1135000/e7147326d7068a8c49e7b3211d71ad78-d.jpg,,
21252459,Die Turbinen-Versuchsstationen und die Wasserkraft-Zentralen mit hydraulischer Akkumulierungsanlage der Firma J. M. Voith in Heidenheim a. d. Brenz,,,,Dr.-Ing. h.c. Fr. Voith (auth.),1909,1,Springer-Verlag Berlin Heidelberg,,82,0,German,,,,"978-3-662-33648-9,978-3-662-34046-2",,,,,,,10.1007/978-3-662-34046-2,,,,0,,,,,,,1,6887089,pdf,9a19fd9ced727284e6ff903775e42d5f,,,D:\\HDD4\\!genesis\\SPR_NEW_2013-12\\bok%3A978-3-662-34046-2.pdf,0,2000-01-01 01:00:00,2016-04-03 02:51:08,1138000/9a19fd9ced727284e6ff903775e42d5f-d.jpg,,
21252460,"Anlasser und Regler für elektrische Motoren und Generatoren: Theorie, Konstruktion, Schaltung",,,,Rudolf Krause (auth.),1909,2,Springer-Verlag Berlin Heidelberg,,163,0,German,,,,"978-3-662-38628-6,978-3-662-39484-7",,,,,,,10.1007/978-3-662-39484-7,,,,0,,,,,,,1,17451735,pdf,9a27335691533dfaabc0bd19f1bef2b0,,,D:\\HDD4\\!genesis\\SPR_NEW_2013-12\\bok%3A978-3-662-39484-7.pdf,0,2000-01-01 01:00:00,2016-04-03 02:51:08,1139000/9a27335691533dfaabc0bd19f1bef2b0-d.jpg,,
21252461,"Verdampfen, Kondensieren und Kühlen: Erklärungen, Formeln und Tabellen für den praktischen Gebrauch",,,,E. Hausbrand (auth.),1909,4,Springer-Verlag Berlin Heidelberg,,448,0,German,,,,"978-3-662-35464-3,978-3-662-36292-1",,,,,,,10.1007/978-3-662-36292-1,,,,0,,,,,,,1,17017345,pdf,0d90c37e946983378176e9c2eb31b698,,,D:\\HDD4\\!genesis\\SPR_NEW_2013-12\\bok%3A978-3-662-36292-1.pdf,0,2000-01-01 01:00:00,2016-04-03 02:51:08,1138000/0d90c37e946983378176e9c2eb31b698-d.jpg,,
21252462,Die Berechnung der Luftpumpen für Oberflächenkondensationen unter besonderer Berücksichtigung der Turbinenkondensationen,,,,Dr.-Ing. Karl Schmidt (auth.),1909,1,Springer-Verlag Berlin Heidelberg,,155,0,German,,,,"978-3-662-33697-7,978-3-662-34095-0",,,,,,,10.1007/978-3-662-34095-0,,,,0,,,,,,,1,7320654,pdf,27c90d83bc952a7960a2e9ade2a82feb,,,D:\\HDD4\\!genesis\\SPR_NEW_2013-12\\bok%3A978-3-662-34095-0.pdf,0,2000-01-01 01:00:00,2016-04-03 02:51:08,1138000/27c90d83bc952a7960a2e9ade2a82feb-d.jpg,,
21252463,Die normalen Eigenschaften elektrischer Maschinen: Ein Datenbuch für Maschinen- und Elektroingenieure und Studierende der Elektrotechnik,,,,Dr.-Ing. Rudolf Goldschmidt (auth.),1909,1,Springer-Verlag Berlin Heidelberg,,80,0,German,,,,"978-3-662-32331-1,978-3-662-33158-3",,,,,,,10.1007/978-3-662-33158-3,,,,0,,,,,,,1,3114015,pdf,6bfd2c15c52598f4b4e3b1be06ae2cf1,,,D:\\HDD4\\!genesis\\SPR_NEW_2013-12\\bok%3A978-3-662-33158-3.pdf,0,2000-01-01 01:00:00,2016-04-03 02:51:08,1137000/6bfd2c15c52598f4b4e3b1be06ae2cf1-d.jpg,,
21252464,Analyse und Konstitutionsermittelung organischer Verbindungen,,,,Dr. Hans Meyer (auth.),1909,2,Springer-Verlag Berlin Heidelberg,,1033,0,German,,,,"978-3-662-35868-9,978-3-662-36698-1",,,,,,,10.1007/978-3-662-36698-1,,,,0,,,,,,,1,42679031,pdf,57e36ad7ed086be2bfc565b85ab017b6,,,D:\\HDD4\\!genesis\\SPR_NEW_2013-12\\bok%3A978-3-662-36698-1.pdf,0,2000-01-01 01:00:00,2016-04-03 02:51:08,1138000/57e36ad7ed086be2bfc565b85ab017b6-d.jpg,,
21252465,Die Förderung von Massengütern: II. Band. Förderer für Einzellasten,,,,Georg von Hanffstengel (auth.),1909,1,Springer-Verlag Berlin Heidelberg,,280,0,German,,,,"978-3-662-37538-9,978-3-662-38313-1",,,,,,,10.1007/978-3-662-38313-1,,,,0,,,,,,,1,14313330,pdf,78272ff7d7971a5f604565acee4e523f,,,D:\\HDD4\\!genesis\\SPR_NEW_2013-12\\bok%3A978-3-662-38313-1.pdf,0,2000-01-01 01:00:00,2016-04-03 02:51:08,1139000/78272ff7d7971a5f604565acee4e523f-d.jpg,,
21252466,Neue Methoden der Berechnung ebener und räumlicher Fachwerke,,,,Dr. ing. Dr. phil. Heinz Egerer (auth.),1909,1,Springer-Verlag Berlin Heidelberg,,105,0,German,,,,"978-3-662-38772-6,978-3-662-39669-8",,,,,,,10.1007/978-3-662-39669-8,,,,0,,,,,,,1,7975476,pdf,09fc3e9ac1e8dd7dac2241e4007810ea,,,D:\\HDD4\\!genesis\\SPR_NEW_2013-12\\bok%3A978-3-662-39669-8.pdf,0,2000-01-01 01:00:00,2016-04-03 02:51:08,1139000/09fc3e9ac1e8dd7dac2241e4007810ea-d.jpg,,
21252467,Jahrbuch der Schiffbautechnischen Gesellschaft: Neunter Band,,,,(auth.),1908,1,Springer-Verlag Berlin Heidelberg,,536,0,German,,,,"978-3-642-90186-7,978-3-642-92043-1",,,,,,,10.1007/978-3-642-92043-1,,,,0,,,,,,,1,39124570,pdf,e4720bf00c3a440494683dacdbc36b18,,,D:\\HDD4\\!genesis\\SPR_NEW_2013-12\\bok%3A978-3-642-92043-1.pdf,0,2000-01-01 01:00:00,2016-04-03 02:51:08,1135000/e4720bf00c3a440494683dacdbc36b18-d.jpg,,
21252468,Sonderabdruck für Prüfungszwecke aus dem Hilfsbuch für den Maschinenbau,,,,Fr. Freytag (auth.),1908,1,Springer-Verlag Berlin Heidelberg,,65,0,German,,,,"978-3-662-31864-5,978-3-662-32691-6",,,,,,,10.1007/978-3-662-32691-6,,,,0,,,,,,,1,3457322,pdf,5f89cb0faa61fd521be286f9e54e4c8e,,,D:\\HDD4\\!genesis\\SPR_NEW_2013-12\\bok%3A978-3-662-32691-6.pdf,0,2000-01-01 01:00:00,2016-04-03 02:51:08,1137000/5f89cb0faa61fd521be286f9e54e4c8e-d.jpg,,
21252469,Die Förderung von Massengütern: I. Band. Bau und Berechnung der stetig arbeitenden Förderer,,,,Georg von Hanffstengel (auth.),1908,1,Springer-Verlag Berlin Heidelberg,,256,0,German,,,,"978-3-662-37593-8,978-3-662-38374-2",,,,,,,10.1007/978-3-662-38374-2,,,,0,,,,,,,1,11474795,pdf,b3c30fa7cdf0e715f29ce2ef771690c1,,,D:\\HDD4\\!genesis\\SPR_NEW_2013-12\\bok%3A978-3-662-38374-2.pdf,0,2000-01-01 01:00:00,2016-04-03 02:51:08,1139000/b3c30fa7cdf0e715f29ce2ef771690c1-d.jpg,,
21252470,Handbuch des Eisenbahnmaschinenwesens: Band III. Werkstätten,,,,"E. Fränkel (auth.), Ludwig Ritter von Stockert (eds.)",1908,1,Springer-Verlag Berlin Heidelberg,,456,0,German,,,,"978-3-662-23530-0,978-3-662-25607-7",,,,,,,10.1007/978-3-662-25607-7,,,,0,,,,,,,1,33680691,pdf,e660558252d388c076859b88ed3ddcd8,,,D:\\HDD4\\!genesis\\SPR_NEW_2013-12\\bok%3A978-3-662-25607-7.pdf,0,2000-01-01 01:00:00,2016-04-03 02:51:08,1136000/e660558252d388c076859b88ed3ddcd8-d.jpg,,
21252471,Vermessung der Seeschiffe: Ausgabe 1908,,,,(auth.),1908,1,Springer-Verlag Berlin Heidelberg,,114,0,German,,,,"978-3-662-31783-9,978-3-662-32609-1",,,,,,,10.1007/978-3-662-32609-1,,,,0,,,,,,,1,5445855,pdf,c8bccb13f3f1ded6bbe71d27fa43faf6,,,D:\\HDD4\\!genesis\\SPR_NEW_2013-12\\bok%3A978-3-662-32609-1.pdf,0,2000-01-01 01:00:00,2016-04-03 02:51:08,1137000/c8bccb13f3f1ded6bbe71d27fa43faf6-d.jpg,,
21252472,Unzulässigkeit der Verbauung verliehener Grubenfelder nach österreichischem Rechte unter besonderer Berücksichtigung der Judikatur des k. k. Verwaltungsgerichtshofes,,,,Dr. Leo Lederer (auth.),1910,1,Springer-Verlag Berlin Heidelberg,,80,0,German,,,,"978-3-662-31791-4,978-3-662-32617-6",,,,,,,10.1007/978-3-662-32617-6,,,,0,,,,,,,1,2837437,pdf,812d472ceb6618ee003c632ad72d6e46,,,D:\\HDD4\\!genesis\\SPR_NEW_2013-12\\bok%3A978-3-662-32617-6.pdf,0,2000-01-01 01:00:00,2016-04-03 02:51:08,1137000/812d472ceb6618ee003c632ad72d6e46-d.jpg,,
21252473,Die Bestimmung der Querschnitte von Staumauern und Wehren aus dreieckigen Grundformen,,,,E. Link (auth.),1910,1,Springer-Verlag Berlin Heidelberg,,64,0,German,,,,"978-3-662-38613-2,978-3-662-39469-4",,,,,,,10.1007/978-3-662-39469-4,,,,0,,,,,,,1,6518921,pdf,7b904635127f68b40bdfb35ec73bb12e,,,D:\\HDD4\\!genesis\\SPR_NEW_2013-12\\bok%3A978-3-662-39469-4.pdf,0,2000-01-01 01:00:00,2016-04-03 02:51:08,1139000/7b904635127f68b40bdfb35ec73bb12e-d.jpg,,
21252474,Verringerung der Selbstkosten in Adjustagen und Lagern von Stabeisenwalzwerken,,,,Dr.-Ing. Theodor Klönne (auth.),1910,1,Springer-Verlag Berlin Heidelberg,,131,0,German,,,,"978-3-662-39023-8,978-3-662-39994-1",,,,,,,10.1007/978-3-662-39994-1,,,,0,,,,,,,1,9483794,pdf,6e77495ad5bb59c34e7727e8ac8c0d62,,,D:\\HDD4\\!genesis\\SPR_NEW_2013-12\\bok%3A978-3-662-39994-1.pdf,0,2000-01-01 01:00:00,2016-04-03 02:51:08,1139000/6e77495ad5bb59c34e7727e8ac8c0d62-d.jpg,,
21252475,Hilfsbuch für Wärme- und Kälteschutz,,,,Ingenieur Andersen (auth.),1910,1,Springer-Verlag Berlin Heidelberg,,61,0,German,,,,"978-3-662-39027-6,978-3-662-39999-6",,,,,,,10.1007/978-3-662-39999-6,,,,0,,,,,,,1,3503095,pdf,8e2b78acd9bb33189194b79e5b57f924,,,D:\\HDD4\\!genesis\\SPR_NEW_2013-12\\bok%3A978-3-662-39999-6.pdf,0,2000-01-01 01:00:00,2016-04-03 02:51:08,1139000/8e2b78acd9bb33189194b79e5b57f924-d.jpg,,
21252476,Die Eigenschaften des Kaskadenumformers und seine Anwendung,,,,Dr.-Ing. H. S. Hallo (auth.),1910,1,Springer-Verlag Berlin Heidelberg,,104,0,German,,,,"978-3-662-32435-6,978-3-662-33262-7",,,,,,,10.1007/978-3-662-33262-7,,,,0,,,,,,,1,6001003,pdf,5987a7c56dac9863a7690bcd62c78987,,,D:\\HDD4\\!genesis\\SPR_NEW_2013-12\\bok%3A978-3-662-33262-7.pdf,0,2000-01-01 01:00:00,2016-04-03 02:51:08,1138000/5987a7c56dac9863a7690bcd62c78987-d.jpg,,
21252477,Technische Messungen bei Maschinenuntersuchungen und im Betriebe: Zum Gebrauch in Maschinenlaboratorien und in der Praxis,,,,Prof. Dr.Ing. A. Gramberg (auth.),1910,2,Springer-Verlag Berlin Heidelberg,,328,0,German,,,,"978-3-662-39302-4,978-3-662-40341-9",,,,,,,10.1007/978-3-662-40341-9,,,,0,,,,,,,1,12613097,pdf,42855af3a3b026c73c224876b5a4cfe8,,,D:\\HDD4\\!genesis\\SPR_NEW_2013-12\\bok%3A978-3-662-40341-9.pdf,0,2000-01-01 01:00:00,2016-04-03 02:51:08,1139000/42855af3a3b026c73c224876b5a4cfe8-d.jpg,,
21252478,Die Ermüdung des Eisenbahnschienenmaterials,,,,Dipl.-Ing. Otto Wawrziniok (auth.),1910,1,Springer-Verlag Berlin Heidelberg,,47,0,German,,,,"978-3-662-40933-6,978-3-662-41417-0",,,,,,,10.1007/978-3-662-41417-0,,,,0,,,,,,,1,2024962,pdf,8b6e09980a890c62451fc76b4871247a,,,D:\\HDD4\\!genesis\\SPR_NEW_2013-12\\bok%3A978-3-662-41417-0.pdf,0,2000-01-01 01:00:00,2016-04-03 02:51:08,1140000/8b6e09980a890c62451fc76b4871247a-d.jpg,,
21252479,Das radiotelegraphische Praktikum an der Technischen Hochschule in Darmstadt,,,,Dipl.-Ing. H. Rein (auth.),1910,1,Springer-Verlag Berlin Heidelberg,,99,0,German,,,,"978-3-662-38842-6,978-3-662-39760-2",,,,,,,10.1007/978-3-662-39760-2,,,,0,,,,,,,1,7467338,pdf,d562fd639ab0b83b209ab36e65af9b08,,,D:\\HDD4\\!genesis\\SPR_NEW_2013-12\\bok%3A978-3-662-39760-2.pdf,0,2000-01-01 01:00:00,2016-04-03 02:51:08,1139000/d562fd639ab0b83b209ab36e65af9b08-d.jpg,,
21252480,Jahrbuch der Schiffbautechnischen Gesellschaft,,,,(auth.),1910,1,Springer-Verlag Berlin Heidelberg,,900,0,German,,,,"978-3-642-90184-3,978-3-642-92041-7",,,,,,,10.1007/978-3-642-92041-7,,,,0,,,,,,,1,54892933,pdf,1521f6084425169a63f6c2d40b8e72d8,,,D:\\HDD4\\!genesis\\SPR_NEW_2013-12\\bok%3A978-3-642-92041-7.pdf,0,2000-01-01 01:00:00,2016-04-03 02:51:08,1135000/1521f6084425169a63f6c2d40b8e72d8-d.jpg,,
21252481,Beanspruchung und Durchhang von Freileitungen: Unterlagen für Projektierung und Montage,,,,Robert Weil (auth.),1910,1,Springer-Verlag Berlin Heidelberg,,114,0,German,,,,"978-3-662-39242-3,978-3-662-40256-6",,,,,,,10.1007/978-3-662-40256-6,,,,0,,,,,,,1,4414986,pdf,35c1eaef918c1f4840163e86f700b7eb,,,D:\\HDD4\\!genesis\\SPR_NEW_2013-12\\bok%3A978-3-662-40256-6.pdf,0,2000-01-01 01:00:00,2016-04-03 02:51:08,1139000/35c1eaef918c1f4840163e86f700b7eb-d.jpg,,
21252482,Studien über mehrfach gestützte Rahmen- und Bogenträger,,,,Dipl.-Ing. Henri Marcus (auth.),1911,1,Springer-Verlag Berlin Heidelberg,,130,0,German,,,,"978-3-662-39356-7,978-3-662-40406-5",,,,,,,10.1007/978-3-662-40406-5,,,,0,,,,,,,1,7567674,pdf,ade4d572061976047fb185eb22c329fe,,,D:\\HDD4\\!genesis\\SPR_NEW_2013-12\\bok%3A978-3-662-40406-5.pdf,0,2000-01-01 01:00:00,2016-04-03 02:51:08,1139000/ade4d572061976047fb185eb22c329fe-d.jpg,,
21252483,Die belgischen Kleinbahnen: Vor der Technischen Hochschule zu Aachen zur Erlangung der Würde eines Doktor-Ingenieurs,,,,O. Kayser (auth.),1911,1,Springer-Verlag Berlin Heidelberg,,100,0,German,,,,"978-3-662-32466-0,978-3-662-33293-1",,,,,,,10.1007/978-3-662-33293-1,,,,0,,,,,,,1,6511827,pdf,86b39d2bb3c4874565ef213bc0b229bb,,,D:\\HDD4\\!genesis\\SPR_NEW_2013-12\\bok%3A978-3-662-33293-1.pdf,0,2000-01-01 01:00:00,2016-04-03 02:51:08,1138000/86b39d2bb3c4874565ef213bc0b229bb-d.jpg,,
21252484,Das Skizzieren von Maschinenteilen in Perspektive,,,,Ingenieur Carl Volk (auth.),1911,3,Springer-Verlag Berlin Heidelberg,,46,0,German,,,,"978-3-662-42311-0,978-3-662-42580-0",,,,,,,10.1007/978-3-662-42580-0,,,,0,,,,,,,1,2292483,pdf,a7c6d983ce5afd07a204d7de2eaaf37e,,,D:\\HDD4\\!genesis\\SPR_NEW_2013-12\\bok%3A978-3-662-42580-0.pdf,0,2000-01-01 01:00:00,2016-04-03 02:51:08,1140000/a7c6d983ce5afd07a204d7de2eaaf37e-d.jpg,,
21252485,Jahrbuch der Schiffbautechnischen Gesellschaft: Zwölfter Band,,,,(auth.),1911,1,Springer-Verlag Berlin Heidelberg,,522,0,German,,,,"978-3-642-90183-6,978-3-642-92040-0",,,,,,,10.1007/978-3-642-92040-0,,,,0,,,,,,,1,35810551,pdf,778513f987125c4a21cc1b478c8fdbe9,,,D:\\HDD4\\!genesis\\SPR_NEW_2013-12\\bok%3A978-3-642-92040-0.pdf,0,2000-01-01 01:00:00,2016-04-03 02:51:08,1135000/778513f987125c4a21cc1b478c8fdbe9-d.jpg,,
21252486,Untersuchung eines Zugmagneten für Gleichstrom: Dissertation,,,,Dipl.-Ing. Karl Euler (auth.),1911,1,Springer-Verlag Berlin Heidelberg,,94,0,German,,,,"978-3-662-39084-9,978-3-662-40065-4",,,,,,,10.1007/978-3-662-40065-4,,,,0,,,,,,,1,5913070,pdf,78f329151e875a924d5bf65b165d34e5,,,D:\\HDD4\\!genesis\\SPR_NEW_2013-12\\bok%3A978-3-662-40065-4.pdf,0,2000-01-01 01:00:00,2016-04-03 02:51:08,1139000/78f329151e875a924d5bf65b165d34e5-d.jpg,,
21252487,"Überseeischer Maschinenexport: Ein Leitfaden für Maschinenfabrikanten und Ingenieure, die nach Übersee gehen",,,,Hermann Scherbak (auth.),1911,1,Springer-Verlag Berlin Heidelberg,,114,0,German,,,,"978-3-662-39133-4,978-3-662-40116-3",,,,,,,10.1007/978-3-662-40116-3,,,,0,,,,,,,1,6182309,pdf,4e611f3620ac777c39d4c479fce40071,,,D:\\HDD4\\!genesis\\SPR_NEW_2013-12\\bok%3A978-3-662-40116-3.pdf,0,2000-01-01 01:00:00,2016-04-03 02:51:08,1139000/4e611f3620ac777c39d4c479fce40071-d.jpg,,
21252488,Die Gesamtorganisation der Berlin-Anhaltischen Maschinenbau-A.-G.,,,,Ingenieur Richard Blum (auth.),1911,1,Springer-Verlag Berlin Heidelberg,,47,0,German,,,,"978-3-662-40799-8,978-3-662-41283-1",,,,,,,10.1007/978-3-662-41283-1,,,,0,,,,,,,1,5286181,pdf,65bae2c16eb49fc122bede4962762d35,,,D:\\HDD4\\!genesis\\SPR_NEW_2013-12\\bok%3A978-3-662-41283-1.pdf,0,2000-01-01 01:00:00,2016-04-03 02:51:08,1140000/65bae2c16eb49fc122bede4962762d35-d.jpg,,
21252489,Über das Wesen und die wahre Größe des Verbundes zwischen Eisen und Beton,,,,Dr.-Ing. Adolf Kleinlogel (auth.),1911,1,Springer-Verlag Berlin Heidelberg,,67,0,German,,,,"978-3-662-39188-4,978-3-662-40183-5",,,,,,,10.1007/978-3-662-40183-5,,,,0,,,,,,,1,3336616,pdf,85f1d39c6195d6c267f4d67fbebaf961,,,D:\\HDD4\\!genesis\\SPR_NEW_2013-12\\bok%3A978-3-662-40183-5.pdf,0,2000-01-01 01:00:00,2016-04-03 02:51:08,1139000/85f1d39c6195d6c267f4d67fbebaf961-d.jpg,,
21252490,"Die Dampfturbine als Schiffsmotor: Vergleichsrechnung für verschiedene Systeme (Zoelly, Rateau, Curtis, Parsons, Melms-Pfenninger)",,,,Dr.-Ing. Karl Besig (auth.),1911,1,Springer-Verlag Berlin Heidelberg,,92,0,German,,,,"978-3-662-32446-2,978-3-662-33273-3",,,,,,,10.1007/978-3-662-33273-3,,,,0,,,,,,,1,9978378,pdf,5a5208447ee9817ad604a4b53ed6ebc3,,,D:\\HDD4\\!genesis\\SPR_NEW_2013-12\\bok%3A978-3-662-33273-3.pdf,0,2000-01-01 01:00:00,2016-04-03 02:51:08,1138000/5a5208447ee9817ad604a4b53ed6ebc3-d.jpg,,
21252491,Prüfung der Arbeitsgenauigkeit von Werkzeugmaschinen,,,,Dr.-Ing. Alfons Finkelstein (auth.),1911,1,Springer-Verlag Berlin Heidelberg,,38,0,German,,,,"978-3-662-31912-3,978-3-662-32739-5",,,,,,,10.1007/978-3-662-32739-5,,,,0,,,,,,,1,7515735,pdf,63dc92f087671deddb7813d0f4de3247,,,D:\\HDD4\\!genesis\\SPR_NEW_2013-12\\bok%3A978-3-662-32739-5.pdf,0,2000-01-01 01:00:00,2016-04-03 02:51:08,1137000/63dc92f087671deddb7813d0f4de3247-d.jpg,,
21252492,Anweisung für die Aufstellung und Ausführung von Dränageentwürfen,,,,(auth.),1911,4,Springer-Verlag Berlin Heidelberg,,44,0,German,,,,"978-3-662-40856-8,978-3-662-41340-1",,,,,,,10.1007/978-3-662-41340-1,,,,0,,,,,,,1,2315643,pdf,887d9d7a53d4c8aea580c9d4148e691c,,,D:\\HDD4\\!genesis\\SPR_NEW_2013-12\\bok%3A978-3-662-41340-1.pdf,0,2000-01-01 01:00:00,2016-04-03 02:51:08,1140000/887d9d7a53d4c8aea580c9d4148e691c-d.jpg,,
21252493,Das englische Eisenbahnwesen,,,,Johann Frahm (auth.),1911,1,Springer-Verlag Berlin Heidelberg,,330,0,German,,,,"978-3-642-51256-8,978-3-642-51375-6",,,,,,,10.1007/978-3-642-51375-6,,,,0,,,,,,,1,22787467,pdf,900b4e17d2d1d2dcd777151a06308c08,,,D:\\HDD4\\!genesis\\SPR_NEW_2013-12\\bok%3A978-3-642-51375-6.pdf,0,2000-01-01 01:00:00,2016-04-03 02:51:08,1135000/900b4e17d2d1d2dcd777151a06308c08-d.jpg,,
21252494,Zerkleinerungs-Vorrichtungen und Mahlanlagen,,Chemische Technologie in Einzeldarstellungen,,Carl Naske (auth.),1911,3,Springer-Verlag Berlin Heidelberg,,"XII, 344 S.",0,German,,,,"978-3-662-22734-3,978-3-662-24663-4",,,,,,,10.1007/978-3-662-24663-4,,,,0,,,,,,,1,22327040,pdf,f367ee1005c3ce54e118ee7a0a21b2b3,,,D:\\HDD4\\!genesis\\SPR_NEW_2013-12\\bok%3A978-3-662-24663-4.pdf,0,2000-01-01 01:00:00,2016-04-03 02:51:08,1136000/f367ee1005c3ce54e118ee7a0a21b2b3-d.jpg,,
21252495,Das Spülversatzverfahren,,,,Otto Pütz (auth.),1907,1,Springer-Verlag Berlin Heidelberg,,89,0,German,,,,"978-3-662-38833-4,978-3-662-39751-0",,,,,,,10.1007/978-3-662-39751-0,,,,0,,,,,,,1,4110803,pdf,0c52ae9cd08614146207e2c05d594343,,,D:\\HDD4\\!genesis\\SPR_NEW_2013-12\\bok%3A978-3-662-39751-0.pdf,0,2000-01-01 01:00:00,2016-04-03 02:51:08,1139000/0c52ae9cd08614146207e2c05d594343-d.jpg,,
21252496,Der Fabrikbetrieb: Praktische Anleitungen zur Anlage und Verwaltung von Maschinenfabriken und ähnlichen Betrieben sowie zur Kalkulation und Lohnverrechnung,,,,Albert Ballewski (auth.),1907,2,Springer-Verlag Berlin Heidelberg,,295,0,German,,,,"978-3-662-40753-0,978-3-662-41237-4",,,,,,,10.1007/978-3-662-41237-4,,,,0,,,,,,,1,13186133,pdf,0719427bd40f5d91abc9a36566142efd,,,D:\\HDD4\\!genesis\\SPR_NEW_2013-12\\bok%3A978-3-662-41237-4.pdf,0,2000-01-01 01:00:00,2016-04-03 02:51:08,1140000/0719427bd40f5d91abc9a36566142efd-d.jpg,,
21252497,Hilfsbuch für die Elektrotechnik,,,,"Dr. Karl Strecker (auth.), Dr. Karl Strecker (eds.)",1907,7,Springer-Verlag Berlin Heidelberg,,1042,0,German,,,,"978-3-662-37344-6,978-3-662-38085-7",,,,,,,10.1007/978-3-662-38085-7,,,,0,,,,,,,1,46583986,pdf,2241ede05fdf8a105ceb0bf8953e8475,,,D:\\HDD4\\!genesis\\SPR_NEW_2013-12\\bok%3A978-3-662-38085-7.pdf,0,2000-01-01 01:00:00,2016-04-03 02:51:08,1139000/2241ede05fdf8a105ceb0bf8953e8475-d.jpg,,
21252498,Die Luftseilbahnen: Ihre Konstruktion und Verwendung,,,,P. Stephan (auth.),1907,1,Springer-Verlag Berlin Heidelberg,,209,0,German,,,,"978-3-662-32355-7,978-3-662-33182-8",,,,,,,10.1007/978-3-662-33182-8,,,,0,,,,,,,1,11557627,pdf,aa3f366aad059a3a111959b77f8e06a2,,,D:\\HDD4\\!genesis\\SPR_NEW_2013-12\\bok%3A978-3-662-33182-8.pdf,0,2000-01-01 01:00:00,2016-04-03 02:51:08,1138000/aa3f366aad059a3a111959b77f8e06a2-d.jpg,,
21252499,Experimentaluntersuchungen über die Selbstinduktion in Nuten gebetteter Spulen bei hoher Frequenz,,,,Dr.-Ing. Hermann Niebuhr (auth.),1907,1,Springer-Verlag Berlin Heidelberg,,63,0,German,,,,"978-3-662-39217-1,978-3-662-40229-0",,,,,,,10.1007/978-3-662-40229-0,,,,0,,,,,,,1,7767338,pdf,e75737ff9a93f7485d61a1e5d598459b,,,D:\\HDD4\\!genesis\\SPR_NEW_2013-12\\bok%3A978-3-662-40229-0.pdf,0,2000-01-01 01:00:00,2016-04-03 02:51:08,1139000/e75737ff9a93f7485d61a1e5d598459b-d.jpg,,
21252500,Die Herstellung der Dampfkessel,,,,M. Gerbel (auth.),1907,1,Springer-Verlag Berlin Heidelberg,,89,0,German,,,,"978-3-662-32385-4,978-3-662-33212-2",,,,,,,10.1007/978-3-662-33212-2,,,,0,,,,,,,1,4578041,pdf,b87927f57d5360b4ea1b34ec4cf8c949,,,D:\\HDD4\\!genesis\\SPR_NEW_2013-12\\bok%3A978-3-662-33212-2.pdf,0,2000-01-01 01:00:00,2016-04-03 02:51:08,1138000/b87927f57d5360b4ea1b34ec4cf8c949-d.jpg,,
21252501,"Technische Untersuchungsmethoden zur Betriebskontrolle, insbesondere zur Kontrolle des Dampfbetriebes: Zugleich ein Leitfaden für die Arbeiten in den Maschinenbaulaboratorien technischer Lehranstalten",,,,Julius Brand (auth.),1907,1,Springer-Verlag Berlin Heidelberg,,438,0,German,,,,"978-3-662-35422-3,978-3-662-36250-1",,,,,,,10.1007/978-3-662-36250-1,,,,0,,,,,,,1,17292177,pdf,34dfc2b8f27159c3af70d0821f46a6f6,,,D:\\HDD4\\!genesis\\SPR_NEW_2013-12\\bok%3A978-3-662-36250-1.pdf,0,2000-01-01 01:00:00,2016-04-03 02:51:08,1138000/34dfc2b8f27159c3af70d0821f46a6f6-d.jpg,,
21252502,Brennereifragen: Kontinuierliche Gärung der Rübensäfte Kontinuierliche Destillation und Rektifikation,,Sammlung Vieweg,,D. Sidersky (auth.),1914,1,Vieweg+Teubner Verlag,,55,0,German,,,,"978-3-663-18491-1,978-3-663-18662-5",,,,,,,10.1007/978-3-663-18662-5,,,,0,,,,,,,1,5036289,pdf,49c4336192ed0e37b0cd207027f720ee,,,D:\\HDD4\\!genesis\\SPR_NEW_2013-12\\bok%3A978-3-663-18662-5.pdf,0,2000-01-01 01:00:00,2016-04-03 02:51:08,1143000/49c4336192ed0e37b0cd207027f720ee-d.jpg,,
21252503,Bau und Berechnung gewölbter Brücken und ihrer Lehrgerüste: Drei Beispiele von der badischen Murgtalbahn,,,,Dr.-Ing. Ernst Gaber (auth.),1914,1,Springer-Verlag Berlin Heidelberg,,121,0,German,,,,"978-3-662-39274-4,978-3-662-40305-1",,,,,,,10.1007/978-3-662-40305-1,,,,0,,,,,,,1,7306024,pdf,11782f6f478731d9740c539aa958407e,,,D:\\HDD4\\!genesis\\SPR_NEW_2013-12\\bok%3A978-3-662-40305-1.pdf,0,2000-01-01 01:00:00,2016-04-03 02:51:08,1139000/11782f6f478731d9740c539aa958407e-d.jpg,,
21252504,Bau- und Betriebsvorschriften für Nebenbahnähnliche Kleinbahnen mit Maschinenbetrieb,,,,(auth.),1914,1,Springer-Verlag Berlin Heidelberg,,46,0,German,,,,"978-3-662-24508-8,978-3-662-26652-6",,,,,,,10.1007/978-3-662-26652-6,,,,0,,,,,,,1,3186382,pdf,2f01175aa3e53075ffc5df570c15deea,,,D:\\HDD4\\!genesis\\SPR_NEW_2013-12\\bok%3A978-3-662-26652-6.pdf,0,2000-01-01 01:00:00,2016-04-03 02:51:08,1137000/2f01175aa3e53075ffc5df570c15deea-d.jpg,,
21252505,Ein Beitrag zur Geschichte der Großgasmaschine,,,,Dr. Wilhelm von Oechelhaeuser (auth.),1914,1,Springer-Verlag Berlin Heidelberg,,47,0,German,,,,"978-3-662-37685-0,978-3-662-38487-9",,,,,,,10.1007/978-3-662-38487-9,,,,0,,,,,,,1,3521978,pdf,7238581159b590a5f90e05340b72ef36,,,D:\\HDD4\\!genesis\\SPR_NEW_2013-12\\bok%3A978-3-662-38487-9.pdf,0,2000-01-01 01:00:00,2016-04-03 02:51:08,1139000/7238581159b590a5f90e05340b72ef36-d.jpg,,
21252506,"Massive Decken zwischen eisernen Trägern und Angaben über Tragfähigkeit, Belastungen und zulässige Beanspruchung",,,,(auth.),1914,1,Springer-Verlag Berlin Heidelberg,,182,0,German,,,,"978-3-662-23312-2,978-3-662-25352-6",,,,,,,10.1007/978-3-662-25352-6,,,,0,,,,,,,1,7211094,pdf,ca7c6ed4714d7aedd8a9a36995826d01,,,D:\\HDD4\\!genesis\\SPR_NEW_2013-12\\bok%3A978-3-662-25352-6.pdf,0,2000-01-01 01:00:00,2016-04-03 02:51:08,1136000/ca7c6ed4714d7aedd8a9a36995826d01-d.jpg,,
21252507,Zweite Denkschrift zur Reform des Patentgesetzes: Besprechung des vorläufigen Entwurfes eines Patentgesetzes,,,,(auth.),1914,1,Springer-Verlag Berlin Heidelberg,,88,0,German,,,,"978-3-662-33370-9,978-3-662-33766-0",,,,,,,10.1007/978-3-662-33766-0,,,,0,,,,,,,1,6498034,pdf,cc9553e37ece906429f8ca575a923930,,,D:\\HDD4\\!genesis\\SPR_NEW_2013-12\\bok%3A978-3-662-33766-0.pdf,0,2000-01-01 01:00:00,2016-04-03 02:51:08,1138000/cc9553e37ece906429f8ca575a923930-d.jpg,,
21252508,Technische Mechanik: Ein Lehrbuch der Statik und Dynamik für Maschinen- und Bauingenieure,,,,"Ed. Autenrieth (auth.), Prof. Dr. Ing. Max Ensslin (eds.)",1914,2,Springer-Verlag Berlin Heidelberg,,"XXIV, 636 S.",0,German,,,,"978-3-662-23003-9,978-3-662-24963-5",,,,,,,10.1007/978-3-662-24963-5,,,,0,,,,,,,1,38026370,pdf,01a8ac0d6a2af77bc71223ef90a5e7bd,,,D:\\HDD4\\!genesis\\SPR_NEW_2013-12\\bok%3A978-3-662-24963-5.pdf,0,2000-01-01 01:00:00,2016-04-03 02:51:08,1136000/01a8ac0d6a2af77bc71223ef90a5e7bd-d.jpg,,
21252509,"Fabrikorganisation, Fabrikbuchführung und Selbstkostenberechnung",,,,(auth.),1914,2,Springer-Verlag Berlin Heidelberg,,264,0,German,,,,"978-3-662-23710-6,978-3-662-25801-9",,,,,,,10.1007/978-3-662-25801-9,,,,0,,,,,,,1,14239120,pdf,ad8baeb3d480cf97d02fa3190d39a90e,,,D:\\HDD4\\!genesis\\SPR_NEW_2013-12\\bok%3A978-3-662-25801-9.pdf,0,2000-01-01 01:00:00,2016-04-03 02:51:08,1137000/ad8baeb3d480cf97d02fa3190d39a90e-d.jpg,,
21252510,"Erläuterungen zu den Normalien für Bewertung und Prüfung von elektrischen Maschinen und Transformatoren, den Normalen Bedingungen für den Anschluß von Motoren an öffentliche Elektrizitätswerke und den Normalien für die Bezeichnung von Klemmen bei Maschinen, Anlassern, Regulatoren und Transformatoren",,,,"Georg Dettmar (auth.), Georg Dettmar (eds.)",1914,4,Springer-Verlag Berlin Heidelberg,,158,0,German,,,,"978-3-662-42778-1,978-3-662-43055-2",,,,,,,10.1007/978-3-662-43055-2,,,,0,,,,,,,1,8131378,pdf,a2ea66cad6429b2896b41749b6185c46,,,D:\\HDD4\\!genesis\\SPR_NEW_2013-12\\bok%3A978-3-662-43055-2.pdf,0,2000-01-01 01:00:00,2016-04-03 02:51:08,1140000/a2ea66cad6429b2896b41749b6185c46-d.jpg,,
21252511,Jahrbuch der Wissenschaftlichen Gesellschaft für Flugtechnik: II. Band 1913/14,,,,(auth.),1914,1,Springer-Verlag Berlin Heidelberg,,240,0,German,,,,"978-3-642-52141-6,978-3-642-52151-5",,,,,,,10.1007/978-3-642-52151-5,,,,0,,,,,,,1,11338303,pdf,428bcf564c169accc98e84883c9f0684,,,D:\\HDD4\\!genesis\\SPR_NEW_2013-12\\bok%3A978-3-642-52151-5.pdf,0,2000-01-01 01:00:00,2016-04-03 02:51:08,1135000/428bcf564c169accc98e84883c9f0684-d.jpg,,
21252512,Gesammelte Veröffentlichungen,,,,Hans Goldschmidt (auth.),1914,1,Springer-Verlag Berlin Heidelberg,,471,0,German,,,,"978-3-662-32139-3,978-3-662-32966-5",,,,,,,10.1007/978-3-662-32966-5,,,,0,,,,,,,1,66154876,pdf,00a14761d588ecbf9f92c6d9d617f235,,,D:\\HDD4\\!genesis\\SPR_NEW_2013-12\\bok%3A978-3-662-32966-5.pdf,0,2000-01-01 01:00:00,2016-04-03 02:51:08,1137000/00a14761d588ecbf9f92c6d9d617f235-d.jpg,,
21252513,Ein Beitrag zur Geschichte der Grossgasmaschine,,,,Dr. Wilhelm Von Oechelhaeuser (auth.),1914,1,Springer-Verlag Berlin Heidelberg,,46,0,German,,,,"978-3-662-37684-3,978-3-662-38486-2",,,,,,,10.1007/978-3-662-38486-2,,,,0,,,,,,,1,4251213,pdf,2d407396bef9a2a6b6f1a8cc241eb945,,,D:\\HDD4\\!genesis\\SPR_NEW_2013-12\\bok%3A978-3-662-38486-2.pdf,0,2000-01-01 01:00:00,2016-04-03 02:51:08,1139000/2d407396bef9a2a6b6f1a8cc241eb945-d.jpg,,
21252514,Die Eisenbahnen in Korea: Chosen: Dschosön,,,,Landrichter Dr. Preyer (auth.),1914,1,Springer-Verlag Berlin Heidelberg,,46,0,German,,,,"978-3-662-32432-5,978-3-662-33259-7",,,,,,,10.1007/978-3-662-33259-7,,,,0,,,,,,,1,2388429,pdf,393974721543782cc7f27866c21a316c,,,D:\\HDD4\\!genesis\\SPR_NEW_2013-12\\bok%3A978-3-662-33259-7.pdf,0,2000-01-01 01:00:00,2016-04-03 02:51:08,1138000/393974721543782cc7f27866c21a316c-d.jpg,,
21252515,Die Buchhaltung für die gewerblichen Betriebe der Gemeinden: Erläutert an einem Beispiel der Buchführung eines Elektrizitätswerkes,,,,Fr. Schmidt (auth.),1914,1,Springer-Verlag Berlin Heidelberg,,70,0,German,,,,"978-3-662-38612-5,978-3-662-39468-7",,,,,,,10.1007/978-3-662-39468-7,,,,0,,,,,,,1,4938094,pdf,3f095bdbc16f4237ff13b6f222d02e12,,,D:\\HDD4\\!genesis\\SPR_NEW_2013-12\\bok%3A978-3-662-39468-7.pdf,0,2000-01-01 01:00:00,2016-04-03 02:51:08,1139000/3f095bdbc16f4237ff13b6f222d02e12-d.jpg,,
21252516,AEF Verhandlungen des Ausschusses für Einheiten und Formelgrößen in den Jahren 1907 bis 1914,,,,"Dr. Karl Strecker (auth.), Dr. Karl Strecker (eds.)",1914,1,Springer-Verlag Berlin Heidelberg,,44,0,German,,,,"978-3-662-38793-1,978-3-662-39693-3",,,,,,,10.1007/978-3-662-39693-3,,,,0,,,,,,,1,6376526,pdf,2943f3fda7453fa1dc55f5c34dc0242a,,,D:\\HDD4\\!genesis\\SPR_NEW_2013-12\\bok%3A978-3-662-39693-3.pdf,0,2000-01-01 01:00:00,2016-04-03 02:51:08,1139000/2943f3fda7453fa1dc55f5c34dc0242a-d.jpg,,
21252517,Ueber die Volumen- und Formänderungen des Stahles beim Härten: Dissertation zur Erlangung der Würde eines Doktor-Ingenieurs. Der Königlichen Technischen Hochschule zu Berlin vorgelegt am 8. Oktober 1913,,,,Dipl.-Ing. E. Hermann Schulz (auth.),1914,1,Springer-Verlag Berlin Heidelberg,,51,0,German,,,,"978-3-662-22907-1,978-3-662-24849-2",,,,,,,10.1007/978-3-662-24849-2,,,,0,,,,,,,1,3150190,pdf,cc1306fdeae71f19d9ebd5df81514ada,,,D:\\HDD4\\!genesis\\SPR_NEW_2013-12\\bok%3A978-3-662-24849-2.pdf,0,2000-01-01 01:00:00,2016-04-03 02:51:08,1136000/cc1306fdeae71f19d9ebd5df81514ada-d.jpg,,
21252518,"Normalien, Vorschriften und Leitsätze des Verbandes Deutscher Elektrotechniker eingetragener Verein",,,,"Georg Dettmar (auth.), Georg Dettmar (eds.)",1914,9,Springer-Verlag Berlin Heidelberg,,451,0,German,,,,"978-3-662-23233-0,978-3-662-25252-9",,,,,,,10.1007/978-3-662-25252-9,,,,0,,,,,,,1,49508768,pdf,0c4b8fe3dbf2560595768c4a313284ca,,,D:\\HDD4\\!genesis\\SPR_NEW_2013-12\\bok%3A978-3-662-25252-9.pdf,0,2000-01-01 01:00:00,2016-04-03 02:51:08,1136000/0c4b8fe3dbf2560595768c4a313284ca-d.jpg,,
21252519,Schubstangen und Kreuzköpfe,,Einzelkonstruktionen aus dem Maschinenbau H. 6,,Oberingenieur H. Frey (auth.),1913,1,Springer-Verlag Berlin Heidelberg,,42,0,German,,,,"978-3-662-34797-3,978-3-662-35121-5",,,,,,,10.1007/978-3-662-35121-5,,,,0,,,,,,,1,3310599,pdf,d6fe4c6dd4b400accfe3e3184f39609b,,,D:\\HDD4\\!genesis\\SPR_NEW_2013-12\\bok%3A978-3-662-35121-5.pdf,0,2000-01-01 01:00:00,2016-04-03 02:51:08,1138000/d6fe4c6dd4b400accfe3e3184f39609b-d.jpg,,
21252520,Zink und Cadmium und ihre Gewinnung aus Erzen und Nebenprodukten,,Chemische Technologie in Einzeldarstellungen,,R. G. Max Liebig (auth.),1913,1,Springer-Verlag Berlin Heidelberg,,625,0,German,,,,"978-3-662-22732-9,978-3-662-24661-0",,,,,,,10.1007/978-3-662-24661-0,,,,0,,,,,,,1,34622795,pdf,73f7a73d4d44f3b0ec7966848209031f,,,D:\\HDD4\\!genesis\\SPR_NEW_2013-12\\bok%3A978-3-662-24661-0.pdf,0,2000-01-01 01:00:00,2016-04-03 02:51:08,1136000/73f7a73d4d44f3b0ec7966848209031f-d.jpg,,
21252521,Stoffdehnung und Formänderung der Hülle von Prall-Luftschiffen: Untersuchungen im Luftschiffbau der Siemens-Schuckert-Werke,,Luftfahrt und Wissenschaft 4,,"Dr.-Ing. Rudolf Haas, Dipl. Schiffbau-Ingenieur Alexander Dietzius (auth.)",1913,1,Springer-Verlag Berlin Heidelberg,,144,0,German,,,,"978-3-662-42856-6,978-3-662-43139-9",,,,,,,10.1007/978-3-662-43139-9,,,,0,,,,,,,1,19068476,pdf,939a921440b138bcbd936bde92d3d19e,,,D:\\HDD4\\!genesis\\SPR_NEW_2013-12\\bok%3A978-3-662-43139-9.pdf,0,2000-01-01 01:00:00,2016-04-03 02:51:08,1140000/939a921440b138bcbd936bde92d3d19e-d.jpg,,
21252522,"Wärmetechnik des Gasgenerator- und Dampfkessel-Betriebes: Die Vorgänge, Untersuchungs- und Kontrollmethoden hinsichtlich Wärmeerzeugung und Wärmeverwendung im Gasgenerator- und Dampfkessel-Betrieb",,,,Paul Fuchs (auth.),1913,3,Springer-Verlag Berlin Heidelberg,,208,0,German,,,,"978-3-662-39010-8,978-3-662-39980-4",,,,,,,10.1007/978-3-662-39980-4,,,,0,,,,,,,1,7880925,pdf,7753e634878be59beeb85b9894fffe4e,,,D:\\HDD4\\!genesis\\SPR_NEW_2013-12\\bok%3A978-3-662-39980-4.pdf,0,2000-01-01 01:00:00,2016-04-03 02:51:08,1139000/7753e634878be59beeb85b9894fffe4e-d.jpg,,
21252523,Dieselmaschinen für Land- und Schiffsbetrieb,,,,"A. P. Chalkley B. Sc. (Lond.), A. M. Inst. C. E., A. I. E. E. (auth.)",1913,1,Springer-Verlag Berlin Heidelberg,,"V, 184 S.",0,German,,,,"978-3-642-49453-6,978-3-642-49732-2",,,,,,,10.1007/978-3-642-49732-2,,,,0,,,,,,,1,8196052,pdf,61a95c6566e29f6bd7801f072cbd9aa1,,,D:\\HDD4\\!genesis\\SPR_NEW_2013-12\\bok%3A978-3-642-49732-2.pdf,0,2000-01-01 01:00:00,2016-04-03 02:51:08,1135000/61a95c6566e29f6bd7801f072cbd9aa1-d.jpg,,
21252524,Eichung der Binnenschiffe,,,,(auth.),1913,1,Springer-Verlag Berlin Heidelberg,,51,0,German,,,,"978-3-662-33631-1,978-3-662-34029-5",,,,,,,10.1007/978-3-662-34029-5,,,,0,,,,,,,1,1676291,pdf,03630b9080362a7be28bf4ebf5558275,,,D:\\HDD4\\!genesis\\SPR_NEW_2013-12\\bok%3A978-3-662-34029-5.pdf,0,2000-01-01 01:00:00,2016-04-03 02:51:08,1138000/03630b9080362a7be28bf4ebf5558275-d.jpg,,
21252525,Elektrische Kranausrüstungen der Siemens-Schuckertwerke nach 25jähriger Entwickelung,,,,(auth.),1913,1,Springer-Verlag Berlin Heidelberg,,157,0,German,,,,"978-3-662-23783-0,978-3-662-25886-6",,,,,,,10.1007/978-3-662-25886-6,,,,0,,,,,,,1,21213439,pdf,71cafc89844825bfd566d92894d73486,,,D:\\HDD4\\!genesis\\SPR_NEW_2013-12\\bok%3A978-3-662-25886-6.pdf,0,2000-01-01 01:00:00,2016-04-03 02:51:08,1137000/71cafc89844825bfd566d92894d73486-d.jpg,,
21252526,Beiträge zur Berechnung der Zugkraft von Elektromagneten: Dissertation zur Erlangung der Würde eines Doktor-Ingenieurs Königl. Technischen Hochschule zu Breslau,,,,Dipl.-Ing. Paul Kalisch (auth.),1913,1,Springer-Verlag Berlin Heidelberg,,82,0,German,,,,"978-3-662-24484-5,978-3-662-26628-1",,,,,,,10.1007/978-3-662-26628-1,,,,0,,,,,,,1,3905911,pdf,6ab49eed37115042feb378abf12958ae,,,D:\\HDD4\\!genesis\\SPR_NEW_2013-12\\bok%3A978-3-662-26628-1.pdf,0,2000-01-01 01:00:00,2016-04-03 02:51:08,1137000/6ab49eed37115042feb378abf12958ae-d.jpg,,
21252527,"Bau großer Elektrizitätswerke: I. Band Richtlinien, Wirtschaftlichkeitsrechnungen und Anwendungsbeispiele",,,,Prof. Dr. G. Klingenberg (auth.),1913,1,Springer-Verlag Berlin Heidelberg,,213,0,German,,,,"978-3-662-42806-1,978-3-662-43087-3",,,,,,,10.1007/978-3-662-43087-3,,,,0,,,,,,,1,14410585,pdf,aa17ea5493b1339c69c20a372210b12d,,,D:\\HDD4\\!genesis\\SPR_NEW_2013-12\\bok%3A978-3-662-43087-3.pdf,0,2000-01-01 01:00:00,2016-04-03 02:51:08,1140000/aa17ea5493b1339c69c20a372210b12d-d.jpg,,
21252528,Die Abhängigkeit des erfolgreichen Fernsprechanrufes von der Anzahl der Verbindungsorgane: Dissertation,,,,Diplom-Ingenieur Friedrich Spiecker (auth.),1913,1,Springer-Verlag Berlin Heidelberg,,65,0,German,,,,"978-3-662-24262-9,978-3-662-26375-4",,,,,,,10.1007/978-3-662-26375-4,,,,0,,,,,,,1,2919317,pdf,f81cc7141ff4c5d09cd580b54c546642,,,D:\\HDD4\\!genesis\\SPR_NEW_2013-12\\bok%3A978-3-662-26375-4.pdf,0,2000-01-01 01:00:00,2016-04-03 02:51:08,1137000/f81cc7141ff4c5d09cd580b54c546642-d.jpg,,
21252529,Berechnung von Behältern nach neueren analytischen und graphischen Methoden: Für Studierende und Ingenieure und zum Gebrauche im Konstruktionsbureau,,,,"Dr.-Ing. Theodor Pöschl (auth.), Dr.-Ing. Theodor Pöschl, Dr.-Ing. Karl v. Terzaghi (eds.)",1913,1,Springer-Verlag Berlin Heidelberg,,86,0,German,,,,"978-3-662-39172-3,978-3-662-40167-5",,,,,,,10.1007/978-3-662-40167-5,,,,0,,,,,,,1,4633893,pdf,4377dbfb5e416bc2269689ccb637e5f6,,,D:\\HDD4\\!genesis\\SPR_NEW_2013-12\\bok%3A978-3-662-40167-5.pdf,0,2000-01-01 01:00:00,2016-04-03 02:51:08,1139000/4377dbfb5e416bc2269689ccb637e5f6-d.jpg,,
21252530,Jahrbuch der Wissenschaftlichen Gesellschaft für Flugtechnik: I. Band 1912/13,,,,(auth.),1913,1,Springer-Verlag Berlin Heidelberg,,154,0,German,,,,"978-3-662-00011-3,978-3-662-00024-3",,,,,,,10.1007/978-3-662-00024-3,,,,0,,,,,,,1,7118068,pdf,90eafa2866e5f40c4b77300f8cc3debe,,,D:\\HDD4\\!genesis\\SPR_NEW_2013-12\\bok%3A978-3-662-00024-3.pdf,0,2000-01-01 01:00:00,2016-04-03 02:51:08,1136000/90eafa2866e5f40c4b77300f8cc3debe-d.jpg,,
21252531,Mitteilungen über Forschungsarbeiten auf dem Gebiete des Ingenieurwesens,,,,Dr.-Ing. Kurt Neumann (auth.),1913,1,Springer-Verlag Berlin Heidelberg,,60,0,German,,,,"978-3-662-42218-2,978-3-662-42487-2",,,,,,,10.1007/978-3-662-42487-2,,,,0,,,,,,,1,4429074,pdf,1f4eb9f25c8b05104ea544db9184c703,,,D:\\HDD4\\!genesis\\SPR_NEW_2013-12\\bok%3A978-3-662-42487-2.pdf,0,2000-01-01 01:00:00,2016-04-03 02:51:08,1140000/1f4eb9f25c8b05104ea544db9184c703-d.jpg,,
21252532,Die Kalibergwerke im Oberelsaß: Auszug aus dem Jahresbericht der Industriellen Gesellschaft von Mülhausen i. E.,,,,(auth.),1913,1,Springer-Verlag Berlin Heidelberg,,98,0,German,,,,"978-3-662-33673-1,978-3-662-34071-4",,,,,,,10.1007/978-3-662-34071-4,,,,0,,,,,,,1,4547145,pdf,644aefc83fdbe0a2997caed0ce52dcd4,,,D:\\HDD4\\!genesis\\SPR_NEW_2013-12\\bok%3A978-3-662-34071-4.pdf,0,2000-01-01 01:00:00,2016-04-03 02:51:08,1138000/644aefc83fdbe0a2997caed0ce52dcd4-d.jpg,,
21252533,Die Schachtfördermaschinen,,Die Bergwerksmaschinen 3,,"Karl Teiwes, Prof. Dr.-Ing. E. Förster (auth.), Karl Teiwes, Prof. Dr.-Ing. E. Förster (eds.)",1913,1,Springer-Verlag Berlin Heidelberg,,451,0,German,,,,"978-3-662-34318-0,978-3-662-34589-4",,,,,,,10.1007/978-3-662-34589-4,,,,0,,,,,,,1,27673631,pdf,b2b187ba0db1bb25bb2956dd31812e28,,,D:\\HDD4\\!genesis\\SPR_NEW_2013-12\\bok%3A978-3-662-34589-4.pdf,0,2000-01-01 01:00:00,2016-04-03 02:51:08,1138000/b2b187ba0db1bb25bb2956dd31812e28-d.jpg,,
21252534,"Mitteilungen über Forschungsarbeiten auf dem Gebiete des Ingenieurwesens, insbesondere aus den Laboratorien der technischen Hochschulen",,Forschungsarbeiten auf dem Gebiete des Ingenieurwesens 142,,Prof. Dr.-Ing. G. Schlesinger (auth.),1913,1,Springer-Verlag Berlin Heidelberg,,44,0,German,,,,"978-3-662-42678-4,978-3-662-42955-6",,,,,,,10.1007/978-3-662-42955-6,,,,0,,,,,,,1,1857912,pdf,379ec22fca76fde4529602a42994816c,,,D:\\HDD4\\!genesis\\SPR_NEW_2013-12\\bok%3A978-3-662-42955-6.pdf,0,2000-01-01 01:00:00,2016-04-03 02:51:08,1140000/379ec22fca76fde4529602a42994816c-d.jpg,,
21252535,Personenbahnhöfe: Grundsätze für die Gestaltung großer Anlagen,,,,Geh. Baurat W. Cauer (auth.),1913,1,Springer-Verlag Berlin Heidelberg,,158,0,German,,,,"978-3-662-38716-0,978-3-662-39600-1",,,,,,,10.1007/978-3-662-39600-1,,,,0,,,,,,,1,5690387,pdf,c208581aa07737c1f06c8dd426ba5d83,,,D:\\HDD4\\!genesis\\SPR_NEW_2013-12\\bok%3A978-3-662-39600-1.pdf,0,2000-01-01 01:00:00,2016-04-03 02:51:08,1139000/c208581aa07737c1f06c8dd426ba5d83-d.jpg,,
21252536,Betonpfahl „System Mast“: Ein Gründungsverfahren mit „Betonpfählen in verlorener Form“,,,,H. Struif (auth.),1913,2,Springer-Verlag Berlin Heidelberg,,79,0,German,,,,"978-3-662-38779-5,978-3-662-39677-3",,,,,,,10.1007/978-3-662-39677-3,,,,0,,,,,,,1,8992753,pdf,222328937d9e34de489aba197efa529d,,,D:\\HDD4\\!genesis\\SPR_NEW_2013-12\\bok%3A978-3-662-39677-3.pdf,0,2000-01-01 01:00:00,2016-04-03 02:51:08,1139000/222328937d9e34de489aba197efa529d-d.jpg,,
21252537,Ueber den Ausfluß des Dampfes aus Mündungen,,Mitteilungen über Forschungsarbeiten auf dem Gebiete des Ingenieurwesens 144,,August Loschge (auth.),1913,1,Springer-Verlag Berlin Heidelberg,,71,0,German,,,,"978-3-662-01716-6,978-3-662-02011-1",,,,,,,10.1007/978-3-662-02011-1,,,,0,,,,,,,1,9979822,pdf,2d32a666f57ae162ec433006b7933ff6,,,D:\\HDD4\\!genesis\\SPR_NEW_2013-12\\bok%3A978-3-662-02011-1.pdf,0,2000-01-01 01:00:00,2016-04-03 02:51:08,1136000/2d32a666f57ae162ec433006b7933ff6-d.jpg,,
21252538,Verfahren und Einrichtungen zum Tiefbohren: Kurze Übersicht über das Gebiet der Tiefbohrtechnik,,,,Paul Stein (auth.),1913,2,Springer-Verlag Berlin Heidelberg,,41,0,German,,,,"978-3-662-31786-0,978-3-662-32612-1",,,,,,,10.1007/978-3-662-32612-1,,,,0,,,,,,,1,2557425,pdf,95e61fe9ac2288b42feb769d2a12ed04,,,D:\\HDD4\\!genesis\\SPR_NEW_2013-12\\bok%3A978-3-662-32612-1.pdf,0,2000-01-01 01:00:00,2016-04-03 02:51:08,1137000/95e61fe9ac2288b42feb769d2a12ed04-d.jpg,,
21252539,Die Elektrizität: ihre Erzeugung und ihre Anwendung in Industrie und Gewerbe,,,,"Arthur Wilke (auth.), Dr. Willi Hechler (eds.)",1913,6,Springer-Verlag Berlin Heidelberg,,490,0,German,,,,"978-3-662-24170-7,978-3-662-26283-2",,,,,,,10.1007/978-3-662-26283-2,,,,0,,,,,,,1,36636909,pdf,40c69d7f0426d30f4f5c65679a9d0adb,,,D:\\HDD4\\!genesis\\SPR_NEW_2013-12\\bok%3A978-3-662-26283-2.pdf,0,2000-01-01 01:00:00,2016-04-03 02:51:08,1137000/40c69d7f0426d30f4f5c65679a9d0adb-d.jpg,,
21252540,Leitfaden zum Berechnen und Entwerfen von Lüftungs- und Heizungs-Anlagen: Ein Hand- und Lehrbuch für Ingenieure und Architekten. Zweiter Teil,,,,Dr.Ing. H. Rietschel (auth.),1913,5,Springer-Verlag Berlin Heidelberg,,228,0,German,,,,"978-3-662-00256-8,978-3-662-00276-6",,,,,,,10.1007/978-3-662-00276-6,,,,0,,,,,,,1,8232497,pdf,62c9c8ca3481ef193b70979062352b4b,,,D:\\HDD4\\!genesis\\SPR_NEW_2013-12\\bok%3A978-3-662-00276-6.pdf,0,2000-01-01 01:00:00,2016-04-03 02:51:08,1136000/62c9c8ca3481ef193b70979062352b4b-d.jpg,,
21252541,Die Maschinenlehre der elektrischen Zugförderung: Eine Einführung für Studierende und Ingenieure,,,,Dr. W. Kummer (auth.),1915,1,Springer-Verlag Berlin Heidelberg,,197,0,German,,,,"978-3-662-42861-0,978-3-662-43145-0",,,,,,,10.1007/978-3-662-43145-0,,,,0,,,,,,,1,6555241,pdf,e110b1ebaa677b94dfa55559a4601e83,,,D:\\HDD4\\!genesis\\SPR_NEW_2013-12\\bok%3A978-3-662-43145-0.pdf,0,2000-01-01 01:00:00,2016-04-03 02:51:08,1140000/e110b1ebaa677b94dfa55559a4601e83-d.jpg,,
21252542,"Die Hygiene des Wassers: Gesundheitliche Bewertung, Schutz, Verbesserung und Untersuchung der Wässer",,,,Dr. Aug. Gärtner (auth.),1915,1,Vieweg+Teubner Verlag,,986,0,German,,,,"978-3-663-19898-7,978-3-663-20239-4",,,,,,,10.1007/978-3-663-20239-4,,,,0,,,,,,,1,56180872,pdf,905cc34b39fed0069e47e1ba10719b2d,,,D:\\HDD4\\!genesis\\SPR_NEW_2013-12\\bok%3A978-3-663-20239-4.pdf,0,2000-01-01 01:00:00,2016-04-03 02:51:08,1143000/905cc34b39fed0069e47e1ba10719b2d-d.jpg,,
21252543,Heizungs- und Lüftungsanlagen in Fabriken: Mit Besonderer Berücksichtigung der Abwärmeverwertung bei Wärmekraftmaschinen,,Chemische Technologie in Einzeldarstellungen,,Oberingenieur Valerius Hüttig (auth.),1915,1,Springer-Verlag Berlin Heidelberg,,413,0,German,,,,"978-3-662-33568-0,978-3-662-33966-4",,,,,,,10.1007/978-3-662-33966-4,,,,0,,,,,,,1,21494486,pdf,27ad1c5f30aca64337848ca36a3d6d5f,,,D:\\HDD4\\!genesis\\SPR_NEW_2013-12\\bok%3A978-3-662-33966-4.pdf,0,2000-01-01 01:00:00,2016-04-03 02:51:08,1138000/27ad1c5f30aca64337848ca36a3d6d5f-d.jpg,,
21252544,Die Materialbewegung in Chemisch-Technischen Betrieben,,Chemische Technologie in Einzeldarstellungen,,Dipl.-Ing. C. Michenfelder (auth.),1915,1,Springer-Verlag Berlin Heidelberg,,206,0,German,,,,"978-3-662-24049-6,978-3-662-26161-3",,,,,,,10.1007/978-3-662-26161-3,,,,0,,,,,,,1,13715339,pdf,a33578e579db22f420ef6fafc0b6eb23,,,D:\\HDD4\\!genesis\\SPR_NEW_2013-12\\bok%3A978-3-662-26161-3.pdf,0,2000-01-01 01:00:00,2016-04-03 02:51:08,1137000/a33578e579db22f420ef6fafc0b6eb23-d.jpg,,
21252545,"Erläuterungen zu den Vorschriften für die Konstruktion und Prüfung von Installationsmaterial, den Vorschriften für die Konstruktion und Prüfung von Schaltapparaten für Spannungen bis einschl 750 V und den Normalien über die Abstufung von Stromstärken und über Anschlußbolzen: Im Auftrage des Verbandes Deutscher Elektrotechniker",,,,"Georg Dettmar (auth.), Georg Dettmar (eds.)",1915,1,Springer-Verlag Berlin Heidelberg,,230,0,German,,,,"978-3-642-52157-7,978-3-642-52158-4",,,,,,,10.1007/978-3-642-52158-4,,,,0,,,,,,,1,11809304,pdf,a7fd7f110435cded774096847e1b776b,,,D:\\HDD4\\!genesis\\SPR_NEW_2013-12\\bok%3A978-3-642-52158-4.pdf,0,2000-01-01 01:00:00,2016-04-03 02:51:08,1135000/a7fd7f110435cded774096847e1b776b-d.jpg,,
21252546,Leitfaden für Gießereilaboratorien,,,,Bernhard Osann (auth.),1915,1,Springer-Verlag Berlin Heidelberg,,44,0,German,,,,"978-3-662-40626-7,978-3-662-41106-3",,,,,,,10.1007/978-3-662-41106-3,,,,0,,,,,,,1,1309536,pdf,847c510196693ebb0dcc50a730ce1345,,,D:\\HDD4\\!genesis\\SPR_NEW_2013-12\\bok%3A978-3-662-41106-3.pdf,0,2000-01-01 01:00:00,2016-04-03 02:51:08,1140000/847c510196693ebb0dcc50a730ce1345-d.jpg,,
21252547,Ratgeber für Besteller und Besitzer elektrischer Lichtanlagen,,,,Curt Fistl (auth.),1915,1,Springer-Verlag Berlin Heidelberg,,50,0,German,,,,"978-3-662-23126-5,978-3-662-25099-0",,,,,,,10.1007/978-3-662-25099-0,,,,0,,,,,,,1,1978118,pdf,f2a214884e82c4ca254521689c10d0ad,,,D:\\HDD4\\!genesis\\SPR_NEW_2013-12\\bok%3A978-3-662-25099-0.pdf,0,2000-01-01 01:00:00,2016-04-03 02:51:08,1136000/f2a214884e82c4ca254521689c10d0ad-d.jpg,,
21252548,Das Morse-Alphabet: Anleitung zum raschen Erlernen sämtlicher Morse-Zeichen; für Schul-Zwecke und Selbst-Unterricht,,,,Gustav Hochstetter (auth.),1915,1,Springer-Verlag Berlin Heidelberg,,81,0,German,,,,"978-3-662-24376-3,978-3-662-26493-5",,,,,,,10.1007/978-3-662-26493-5,,,,0,,,,,,,1,3235595,pdf,0fc9aa45d2f63d089bf6a1fd15f39e64,,,D:\\HDD4\\!genesis\\SPR_NEW_2013-12\\bok%3A978-3-662-26493-5.pdf,0,2000-01-01 01:00:00,2016-04-03 02:51:08,1137000/0fc9aa45d2f63d089bf6a1fd15f39e64-d.jpg,,
21252549,Beiträge zur Geschichte der Technik und Industrie: Jahrbuch des Vereines Deutscher Ingenieure,,,,"Professor Dr.-Ing. Hermann Fischer (auth.), Conrad Matschoss (eds.)",1915,1,Springer-Verlag Berlin Heidelberg,,192,0,German,,,,"978-3-662-39225-6,978-3-662-40239-9",,,,,,,10.1007/978-3-662-40239-9,,,,0,,,,,,,1,10413132,pdf,81380d73b5343fc767ebc2d08b1a1882,,,D:\\HDD4\\!genesis\\SPR_NEW_2013-12\\bok%3A978-3-662-40239-9.pdf,0,2000-01-01 01:00:00,2016-04-03 02:51:08,1139000/81380d73b5343fc767ebc2d08b1a1882-d.jpg,,
21252550,Chemische Technologie des Leuchtgases,,Chemische Technologie in Einzeldarstellungen,,Dipl.-Ing. Dr. Karl Th. Volkmann (auth.),1915,1,Springer-Verlag Berlin Heidelberg,,232,0,German,,,,"978-3-662-34387-6,978-3-662-34658-7",,,,,,,10.1007/978-3-662-34658-7,,,,0,,,,,,,1,10159275,pdf,325910ee53901e5ed436e92292899f28,,,D:\\HDD4\\!genesis\\SPR_NEW_2013-12\\bok%3A978-3-662-34658-7.pdf,0,2000-01-01 01:00:00,2016-04-03 02:51:08,1138000/325910ee53901e5ed436e92292899f28-d.jpg,,
21252551,Jahrbuch der Wissenschaftlichen Gesellschaft für Luftfahrt: III. Band Kriegsjahr 1914/15,,,,(auth.),1915,1,Springer-Verlag Berlin Heidelberg,,190,0,German,,,,"978-3-642-52144-7,978-3-642-52154-6",,,,,,,10.1007/978-3-642-52154-6,,,,0,,,,,,,1,9829013,pdf,cd857ffcf0734d0d7bed9b08e047fd40,,,D:\\HDD4\\!genesis\\SPR_NEW_2013-12\\bok%3A978-3-642-52154-6.pdf,0,2000-01-01 01:00:00,2016-04-03 02:51:08,1135000/cd857ffcf0734d0d7bed9b08e047fd40-d.jpg,,
21252552,"Technologie der Handweberei: Ein Lehr- und Lernbehelf für Webeschulen, gewerbliche und höhere technische Schulen, sowie zum Selbstunterrichte für Webereibeflissene",,,,Heinrich Kinzer (auth.),1916,5,Vieweg+Teubner Verlag,,127,0,German,,,,"978-3-663-15238-5,978-3-663-15801-1",,,,,,,10.1007/978-3-663-15801-1,,,,0,,,,,,,1,16523022,pdf,de1fafcbb3bdb8ea66fae4b67434972e,,,D:\\HDD4\\!genesis\\SPR_NEW_2013-12\\bok%3A978-3-663-15801-1.pdf,0,2000-01-01 01:00:00,2016-04-03 02:51:08,1142000/de1fafcbb3bdb8ea66fae4b67434972e-d.jpg,,
21252553,Die Geschwindigkeitsmesser mit Reibungsgetriebe: Ein Beitrag zu ihrer Theorie,,,,Dr.-Ing. Wilhelm Heyn (auth.),1916,1,Springer-Verlag Berlin Heidelberg,,62,0,German,,,,"978-3-662-32402-8,978-3-662-33229-0",,,,,,,10.1007/978-3-662-33229-0,,,,0,,,,,,,1,3304659,pdf,aabcb1fabcc6b9b8a4291c78a8dec67d,,,D:\\HDD4\\!genesis\\SPR_NEW_2013-12\\bok%3A978-3-662-33229-0.pdf,0,2000-01-01 01:00:00,2016-04-03 02:51:08,1138000/aabcb1fabcc6b9b8a4291c78a8dec67d-d.jpg,,
21252554,Ein kurzgefaßtes Lebensbild nebst einer Auswahl seiner Briefe: Aus Anlaß der 100 Wiederkehr seines Geburtstages,,,,"Werner Siemens (auth.), Conrad Matschoß (eds.)",1916,1,Springer-Verlag Berlin Heidelberg,,1184,0,German,,,,"978-3-662-39269-0,978-3-662-40297-9",,,,,,,10.1007/978-3-662-40297-9,,,,0,,,,,,,1,88377475,pdf,76b80a2d2d9af8801810c1a483cd6dea,,,D:\\HDD4\\!genesis\\SPR_NEW_2013-12\\bok%3A978-3-662-40297-9.pdf,0,2000-01-01 01:00:00,2016-04-03 02:51:08,1139000/76b80a2d2d9af8801810c1a483cd6dea-d.jpg,,
21252555,Jahrbuch der Wissenschaftlichen Gesellschaft für Luftfahrt: IV. Band 1916,,,,"H. Reißner, E. Schwerin (auth.)",1916,1,Springer-Verlag Berlin Heidelberg,,54,0,German,,,,"978-3-662-33539-0,978-3-662-33937-4",,,,,,,10.1007/978-3-662-33937-4,,,,0,,,,,,,1,2852236,pdf,f870e7ec1e2b93bdaff255381873ad35,,,D:\\HDD4\\!genesis\\SPR_NEW_2013-12\\bok%3A978-3-662-33937-4.pdf,0,2000-01-01 01:00:00,2016-04-03 02:51:08,1138000/f870e7ec1e2b93bdaff255381873ad35-d.jpg,,
21252556,Die Wirkungsweise der Rektifizier- und Destillier-Apparate: Mit Hilfe einfacher mathematischer Betrachtungen,,,,E. Hausbrand (auth.),1916,3,Springer-Verlag Berlin Heidelberg,,231,0,German,,,,"978-3-662-37727-7,978-3-662-38544-9",,,,,,,10.1007/978-3-662-38544-9,,,,0,,,,,,,1,13482688,pdf,6d4406080f278aef89c0af786aac4939,,,D:\\HDD4\\!genesis\\SPR_NEW_2013-12\\bok%3A978-3-662-38544-9.pdf,0,2000-01-01 01:00:00,2016-04-03 02:51:08,1139000/6d4406080f278aef89c0af786aac4939-d.jpg,,
21252557,Eine neue Methode der direkten Analyse von Wechselstromkurven: Dissertation zur Erlangung der Würde eines Doktor-Ingenieurs,,,,Dipl.-Masch.-Ing. E. T. H. Arnold Roth (auth.),1917,1,Springer-Verlag Berlin Heidelberg,,50,0,German,,,,"978-3-662-42212-0,978-3-662-42481-0",,,,,,,10.1007/978-3-662-42481-0,,,,0,,,,,,,1,2559233,pdf,52b4a3ea315c56b90ae6f926ca1476ad,,,D:\\HDD4\\!genesis\\SPR_NEW_2013-12\\bok%3A978-3-662-42481-0.pdf,0,2000-01-01 01:00:00,2016-04-03 02:51:08,1140000/52b4a3ea315c56b90ae6f926ca1476ad-d.jpg,,
21252558,Beschreibung und Betriebsvorschriften für die Dofa-Kabelwinde (80 PS) der Luft-Fahrzeug-Gesellschaft m.b.H. 1917,,,,(auth.),1917,1,Springer-Verlag Berlin Heidelberg,,55,0,German,,,,"978-3-662-39109-9,978-3-662-40092-0",,,,,,,10.1007/978-3-662-40092-0,,,,0,,,,,,,1,3813615,pdf,7d8c80bbc20ad6480512e64d34a2bca8,,,D:\\HDD4\\!genesis\\SPR_NEW_2013-12\\bok%3A978-3-662-40092-0.pdf,0,2000-01-01 01:00:00,2016-04-03 02:51:08,1139000/7d8c80bbc20ad6480512e64d34a2bca8-d.jpg,,
21252559,"Fernkraftpläne: Nahkraftwerke und Einzelkraftstätten, ihr Geltungsbereich und ihre gegenseitigen Grenzlinien",,,,Dr. Bruno Thierbach (auth.),1917,1,Springer-Verlag Berlin Heidelberg,,81,0,German,,,,"978-3-662-32175-1,978-3-662-33002-9",,,,,,,10.1007/978-3-662-33002-9,,,,0,,,,,,,1,4122599,pdf,7e5932e48367831c378ec9a6e7848205,,,D:\\HDD4\\!genesis\\SPR_NEW_2013-12\\bok%3A978-3-662-33002-9.pdf,0,2000-01-01 01:00:00,2016-04-03 02:51:08,1137000/7e5932e48367831c378ec9a6e7848205-d.jpg,,
21252560,Das Kalkbrennen im Schachtofen mit Mischfeuerung,,,,Berthold Block (auth.),1917,1,Springer-Verlag Berlin Heidelberg,,271,0,German,,,,"978-3-662-33723-3,978-3-662-34121-6",,,,,,,10.1007/978-3-662-34121-6,,,,0,,,,,,,1,15625848,pdf,1da18ea935d890a803035e146430b5f3,,,D:\\HDD4\\!genesis\\SPR_NEW_2013-12\\bok%3A978-3-662-34121-6.pdf,0,2000-01-01 01:00:00,2016-04-03 02:51:08,1138000/1da18ea935d890a803035e146430b5f3-d.jpg,,
21252561,"Beiträge zur Geschichte der Technik und Industrie: Jahrbuch des Vereines Deutscher Ingenieure, Siebenter Band",,,,"Conrad Matschoß (auth.), Conrad Matschoss (eds.)",1917,1,Springer-Verlag Berlin Heidelberg,,201,0,German,,,,"978-3-662-39226-3,978-3-662-40240-5",,,,,,,10.1007/978-3-662-40240-5,,,,0,,,,,,,1,11231852,pdf,0ee1756e6bf0af07dd868b80507a2055,,,D:\\HDD4\\!genesis\\SPR_NEW_2013-12\\bok%3A978-3-662-40240-5.pdf,0,2000-01-01 01:00:00,2016-04-03 02:51:08,1139000/0ee1756e6bf0af07dd868b80507a2055-d.jpg,,
21252562,Die österreichisch-ungarische Elektro-Industrie und das Wirtschaftsbündnis der Mittelmächte,,,,Emil Honigmann (auth.),1917,1,Springer-Verlag Berlin Heidelberg,,94,0,German,,,,"978-3-662-42232-8,978-3-662-42501-5",,,,,,,10.1007/978-3-662-42501-5,,,,0,,,,,,,1,4808057,pdf,f5ca90c9c531863e4a6c485ce9392217,,,D:\\HDD4\\!genesis\\SPR_NEW_2013-12\\bok%3A978-3-662-42501-5.pdf,0,2000-01-01 01:00:00,2016-04-03 02:51:08,1140000/f5ca90c9c531863e4a6c485ce9392217-d.jpg,,
21252563,Das Lehrlingswesen der preußisch-hessischen Staatseisenbahnverwaltung unter Berücksichtigung der Lehrlingsverhältnisse in Handwerks- und Fabrikbetrieben,,,,Dr.-Ing. Bruno Schwarze (auth.),1918,1,Springer-Verlag Berlin Heidelberg,,525,0,German,,,,"978-3-662-38867-9,978-3-662-39793-0",,,,,,,10.1007/978-3-662-39793-0,,,,0,,,,,,,1,42114162,pdf,a9d9ca3d07011c2396fbcec9cd4518f8,,,D:\\HDD4\\!genesis\\SPR_NEW_2013-12\\bok%3A978-3-662-39793-0.pdf,0,2000-01-01 01:00:00,2016-04-03 02:51:08,1139000/a9d9ca3d07011c2396fbcec9cd4518f8-d.jpg,,
21252564,Herstellen und Instandhalten Elektrischer Licht-und Kraftanlagen: Ein Leitfaden auch für Nicht-Techniker,,,,S. Frhr. V. Gaisberg (auth.),1918,8,Springer-Verlag Berlin Heidelberg,,146,0,German,,,,"978-3-662-42167-3,978-3-662-42436-0",,,,,,,10.1007/978-3-662-42436-0,,,,0,,,,,,,1,6697063,pdf,b28654f107bc04686fe98a6c31f709c4,,,D:\\HDD4\\!genesis\\SPR_NEW_2013-12\\bok%3A978-3-662-42436-0.pdf,0,2000-01-01 01:00:00,2016-04-03 02:51:08,1140000/b28654f107bc04686fe98a6c31f709c4-d.jpg,,
21252565,Der Verband Deutscher Elektrotechniker 1893–1918,,,,(auth.),1918,1,Springer-Verlag Berlin Heidelberg,,98,0,German,,,,"978-3-662-42242-7,978-3-662-42511-4",,,,,,,10.1007/978-3-662-42511-4,,,,0,,,,,,,1,7134959,pdf,65d1809af2d9bdf632afcd8caba3832e,,,D:\\HDD4\\!genesis\\SPR_NEW_2013-12\\bok%3A978-3-662-42511-4.pdf,0,2000-01-01 01:00:00,2016-04-03 02:51:08,1140000/65d1809af2d9bdf632afcd8caba3832e-d.jpg,,
21252566,Bauhygienische Erfahrungen im waldreichen Hochgebirge,,Veröffentlichungen aus dem Gebiete des Militär-Sanitätswesens,,Priv.-Doz. Dr. Th. Messerschmidt (auth.),1918,1,Springer-Verlag Berlin Heidelberg,,42,0,German,,,,"978-3-662-34982-3,978-3-662-35317-2",,,,,,,10.1007/978-3-662-35317-2,,,,0,,,,,,,1,2753649,pdf,5fdfa595f6b7a982cb745cd2877c16e1,,,D:\\HDD4\\!genesis\\SPR_NEW_2013-12\\bok%3A978-3-662-35317-2.pdf,0,2000-01-01 01:00:00,2016-04-03 02:51:08,1138000/5fdfa595f6b7a982cb745cd2877c16e1-d.jpg,,
21252567,Werkstättenbuchführung für moderne Fabrikbetriebe,,,,C. M. Lewin (auth.),1918,2,Springer-Verlag Berlin Heidelberg,,160,0,German,,,,"978-3-662-42184-0,978-3-662-42453-7",,,,,,,10.1007/978-3-662-42453-7,,,,0,,,,,,,1,8320757,pdf,f013cd174a9ac6a5e60ebaf5c979d219,,,D:\\HDD4\\!genesis\\SPR_NEW_2013-12\\bok%3A978-3-662-42453-7.pdf,0,2000-01-01 01:00:00,2016-04-03 02:51:08,1140000/f013cd174a9ac6a5e60ebaf5c979d219-d.jpg,,
21252568,Rohrnetzberechnungen in der Heiz- und Lüftungstechnik auf einheitlicher Grundlage,,,,Dr. techn. Karl Brabbée (auth.),1918,2,Springer-Verlag Berlin Heidelberg,,91,0,German,,,,"978-3-642-50466-2,978-3-642-50775-5",,,,,,,10.1007/978-3-642-50775-5,,,,0,,,,,,,1,3041144,pdf,34bc7e32505684e2814dbadf80019f9a,,,D:\\HDD4\\!genesis\\SPR_NEW_2013-12\\bok%3A978-3-642-50775-5.pdf,0,2000-01-01 01:00:00,2016-04-03 02:51:08,1135000/34bc7e32505684e2814dbadf80019f9a-d.jpg,,
21252569,Grundlegende Betrachtungen zum Eisenbeton-Schiffbau: I. Teil. Von der Technischen Hochschule zu Danzig zur Erlangung der Würde eines Doktor-Ingenieurs am 24. August 1920 genehmigte Dissertation,,,,Dipl.-Ing. Friedrich Wilhelm Ludwig Achenbach (auth.),1920,1,Springer-Verlag Berlin Heidelberg,,74,0,German,,,,"978-3-662-42179-6,978-3-662-42448-3",,,,,,,10.1007/978-3-662-42448-3,,,,0,,,,,,,1,5735518,pdf,2fa31506a6194eb085368c94ff0f3fbc,,,D:\\HDD4\\!genesis\\SPR_NEW_2013-12\\bok%3A978-3-662-42448-3.pdf,0,2000-01-01 01:00:00,2016-04-03 02:51:08,1140000/2fa31506a6194eb085368c94ff0f3fbc-d.jpg,,
21252570,"Das Trocknen mit Luft und Dampf: Erklärungen, Formeln und Tabellen für den praktischen Gebrauch",,,,E. Hausbrand (auth.),1920,5,Springer-Verlag Berlin Heidelberg,,195,0,German,,,,"978-3-662-24364-0,978-3-662-26481-2",,,,,,,10.1007/978-3-662-26481-2,,,,0,,,,,,,1,9079374,pdf,b45d106f155ec6c3336e3408328b3cdf,,,D:\\HDD4\\!genesis\\SPR_NEW_2013-12\\bok%3A978-3-662-26481-2.pdf,0,2000-01-01 01:00:00,2016-04-03 02:51:08,1137000/b45d106f155ec6c3336e3408328b3cdf-d.jpg,,
21252571,Gliedermechanik und Lähmungsprothesen: Band 1 (Physiologische Hälfte),,,,Heinrich von Recklinghausen (auth.),1920,1,Springer-Verlag Berlin Heidelberg,,655,0,German,,,,"978-3-642-50365-8,978-3-642-50674-1",,,,,,,10.1007/978-3-642-50674-1,,,,0,,,,,,,1,30160094,pdf,a3ab40c7ebcb4ceb3cb77de959555695,,,D:\\HDD4\\!genesis\\SPR_NEW_2013-12\\bok%3A978-3-642-50674-1.pdf,0,2000-01-01 01:00:00,2016-04-03 02:51:08,1135000/a3ab40c7ebcb4ceb3cb77de959555695-d.jpg,,
21252572,"Mathematisch-technische Zahlentafeln: Genehmigt zum Gebrauch bei den Reifeprüfungen an den höheren Maschinenbauschulen, Maschinen-bauschulen, Hüttenschulen und anderen Fachschulen für die Metallindustrie durch Ministerial-Erlaß vom 14. Oktober 1919",,,,"Dipl.-Ing. H. Bohde, Prof. Dr. J. Freyberg, Dipl.-Ing. Prof. L. Geusen (auth.)",1920,3,Springer-Verlag Berlin Heidelberg,,67,0,German,,,,"978-3-662-42122-2,978-3-662-42389-9",,,,,,,10.1007/978-3-662-42389-9,,,,0,,,,,,,1,8258298,pdf,06b4e160426a51f1205b7868e8376f69,,,D:\\HDD4\\!genesis\\SPR_NEW_2013-12\\bok%3A978-3-662-42389-9.pdf,0,2000-01-01 01:00:00,2016-04-03 02:51:08,1140000/06b4e160426a51f1205b7868e8376f69-d.jpg,,
21252573,Wer ist der wirklich Blinde?: Eine Frage im Interesse von Wissenschaft und Technik,,,,Dr.-Ing. L. Gümbel (auth.),1920,1,Springer-Verlag Berlin Heidelberg,,72,0,German,,,,"978-3-662-31757-0,978-3-662-32583-4",,,,,,,10.1007/978-3-662-32583-4,,,,0,,,,,,,1,6609597,pdf,a54032d4af752eae3a84a31a3700f4fe,,,D:\\HDD4\\!genesis\\SPR_NEW_2013-12\\bok%3A978-3-662-32583-4.pdf,0,2000-01-01 01:00:00,2016-04-03 02:51:08,1137000/a54032d4af752eae3a84a31a3700f4fe-d.jpg,,
21252574,Ein Neues Prinzip für Dampf- und Gasturbinen,,,,Prof. Konrad Baetz Dipl.-Ing. (auth.),1920,1,Springer-Verlag Berlin Heidelberg,,87,0,German,,,,"978-3-662-33629-8,978-3-662-34027-1",,,,,,,10.1007/978-3-662-34027-1,,,,0,,,,,,,1,5495125,pdf,312c5cda579de7c86fba5db0a7e8695f,,,D:\\HDD4\\!genesis\\SPR_NEW_2013-12\\bok%3A978-3-662-34027-1.pdf,0,2000-01-01 01:00:00,2016-04-03 02:51:08,1138000/312c5cda579de7c86fba5db0a7e8695f-d.jpg,,
21252575,"Mehrteilige Rahmen: Verfahren zur einfachen Berechnung von mehrstieligen, mehrstöckigen und mehrteiligen geschlossenen Rahmen (Rahmenbalkenträgern)",,,,Ing. Gustav Spiegel (auth.),1920,1,Springer-Verlag Berlin Heidelberg,,199,0,German,,,,"978-3-662-31962-8,978-3-662-32789-0",,,,,,,10.1007/978-3-662-32789-0,,,,0,,,,,,,1,15328359,pdf,660b19e61e9273e169ad0145fe33abff,,,D:\\HDD4\\!genesis\\SPR_NEW_2013-12\\bok%3A978-3-662-32789-0.pdf,0,2000-01-01 01:00:00,2016-04-03 02:51:08,1137000/660b19e61e9273e169ad0145fe33abff-d.jpg,,
21252576,"Technische Chemie für Maschinenbauschulen: Ein Lehr- und Hilfsbuch für Maschinen- und Elektrotechniker, sowie für den Unterricht an höheren und niederen Maschinenbauschulen und verwandten technischen Lehranstalten",,,,Prof. Dr. Siegfried Jakobi (auth.),1920,2,Springer-Verlag Berlin Heidelberg,,170,0,German,,,,"978-3-662-42059-1,978-3-662-42326-4",,,,,,,10.1007/978-3-662-42326-4,,,,0,,,,,,,1,9682086,pdf,6870f14b70cb889d286514e4afe87f40,,,D:\\HDD4\\!genesis\\SPR_NEW_2013-12\\bok%3A978-3-662-42326-4.pdf,0,2000-01-01 01:00:00,2016-04-03 02:51:08,1140000/6870f14b70cb889d286514e4afe87f40-d.jpg,,
21252577,Die Zwischenprodukte der Teerfarbenfabrikation: Ein Tabellenwerk für den Praktischen Gebrauch,,,,"Dr. Otto Lange (auth.), Dr. Otto Lange (eds.)",1920,1,Springer-Verlag Berlin Heidelberg,,676,0,German,,,,"978-3-662-23894-3,978-3-662-26006-7",,,,,,,10.1007/978-3-662-26006-7,,,,0,,,,,,,1,102287370,pdf,c88fbec320afaac1e28a8512e13c5091,,,D:\\HDD4\\!genesis\\SPR_NEW_2013-12\\bok%3A978-3-662-26006-7.pdf,0,2000-01-01 01:00:00,2016-04-03 02:51:08,1137000/c88fbec320afaac1e28a8512e13c5091-d.jpg,,
21252578,"Technologie des Scheidens, Mischens und Zerkleinerns",,,,Hugo Fischer (auth.),1920,1,Springer-Verlag Berlin Heidelberg,,352,0,German,,,,"978-3-662-33436-2,978-3-662-33833-9",,,,,,,10.1007/978-3-662-33833-9,,,,0,,,,,,,1,24455476,pdf,67a6b0df1397024f6b323d68994c7de4,,,D:\\HDD4\\!genesis\\SPR_NEW_2013-12\\bok%3A978-3-662-33833-9.pdf,0,2000-01-01 01:00:00,2016-04-03 02:51:08,1138000/67a6b0df1397024f6b323d68994c7de4-d.jpg,,
21252579,"Kleinschiffbau: Schiff, Maschine, Propeller, Gewichte und Montagedaten",,,,Dr.-Ing. Ewald Sachsenberg (auth.),1920,1,Springer-Verlag Berlin Heidelberg,,276,0,German,,,,"978-3-662-34862-8,978-3-662-35192-5",,,,,,,10.1007/978-3-662-35192-5,,,,0,,,,,,,1,18390202,pdf,a2f1f527f1384398f607ba75890303d7,,,D:\\HDD4\\!genesis\\SPR_NEW_2013-12\\bok%3A978-3-662-35192-5.pdf,0,2000-01-01 01:00:00,2016-04-03 02:51:08,1138000/a2f1f527f1384398f607ba75890303d7-d.jpg,,
21252580,Jahrbuch der Wissenschaftlichen Gesellschaft für Luftfahrt,,,,(auth.),1920,1,Springer-Verlag Berlin Heidelberg,,69,0,German,,,,"978-3-662-33540-6,978-3-662-33938-1",,,,,,,10.1007/978-3-662-33938-1,,,,0,,,,,,,1,4998063,pdf,b663c003cbe5c756bd96fb4bde92028e,,,D:\\HDD4\\!genesis\\SPR_NEW_2013-12\\bok%3A978-3-662-33938-1.pdf,0,2000-01-01 01:00:00,2016-04-03 02:51:08,1138000/b663c003cbe5c756bd96fb4bde92028e-d.jpg,,
21252581,Betriebspraxis der Baumwollstrangfärberei: Eine Einführung,,,,Fr. Eppendahl (auth.),1920,1,Springer-Verlag Berlin Heidelberg,,127,0,German,,,,"978-3-662-39061-0,978-3-662-40040-1",,,,,,,10.1007/978-3-662-40040-1,,,,0,,,,,,,1,13819492,pdf,5ec4a537509b4d8ba71a3de4ead2a34a,,,D:\\HDD4\\!genesis\\SPR_NEW_2013-12\\bok%3A978-3-662-40040-1.pdf,0,2000-01-01 01:00:00,2016-04-03 02:51:08,1139000/5ec4a537509b4d8ba71a3de4ead2a34a-d.jpg,,
21252582,Schmieden im Gesenk und Herstellung der Schmiedegesenke,,,,Dr.-Ing. W. Pockrandt (auth.),1920,2,Springer-Verlag Berlin Heidelberg,,233,0,German,,,,"978-3-662-33460-7,978-3-662-33858-2",,,,,,,10.1007/978-3-662-33858-2,,,,0,,,,,,,1,12809951,pdf,0ceee2aeee6ae20d666f7a60d44ae065,,,D:\\HDD4\\!genesis\\SPR_NEW_2013-12\\bok%3A978-3-662-33858-2.pdf,0,2000-01-01 01:00:00,2016-04-03 02:51:08,1138000/0ceee2aeee6ae20d666f7a60d44ae065-d.jpg,,
21252583,Abriß der Statik der Hochbaukonstruktionen: Für den Gebrauch an Technischen Hochschulen und in der Praxis,,,,Dr.-Ing. E. h. Max Foerster (auth.),1920,1,Springer-Verlag Berlin Heidelberg,,"VI, 152 S.",0,German,,,,"978-3-642-51945-1,978-3-642-52007-5",,,,,,,10.1007/978-3-642-52007-5,,,,0,,,,,,,1,7792398,pdf,6d58166682021bfca5decceaafff26ff,,,D:\\HDD4\\!genesis\\SPR_NEW_2013-12\\bok%3A978-3-642-52007-5.pdf,0,2000-01-01 01:00:00,2016-04-03 02:51:08,1135000/6d58166682021bfca5decceaafff26ff-d.jpg,,
21252584,Der basische Herdofenprozeß: Eine Studie,,,,Carl Dichmann (auth.),1920,2,Springer-Verlag Berlin Heidelberg,,290,0,German,,,,"978-3-662-38782-5,978-3-662-39680-3",,,,,,,10.1007/978-3-662-39680-3,,,,0,,,,,,,1,18345334,pdf,e23292eb304129495a7b963a31fb4661,,,D:\\HDD4\\!genesis\\SPR_NEW_2013-12\\bok%3A978-3-662-39680-3.pdf,0,2000-01-01 01:00:00,2016-04-03 02:51:08,1139000/e23292eb304129495a7b963a31fb4661-d.jpg,,
21252585,Die drehbare Trockentrommel für ununterbrochenen Betrieb,,Monographien zur Chemischen Apparatur,,Dr.-Ing. H. Jordan (auth.),1920,1,Springer-Verlag Berlin Heidelberg,,49,0,German,,,,"978-3-662-33687-8,978-3-662-34085-1",,,,,,,10.1007/978-3-662-34085-1,,,,0,,,,,,,1,2501451,pdf,4a780b4860de30237bd713536f0b8e5b,,,D:\\HDD4\\!genesis\\SPR_NEW_2013-12\\bok%3A978-3-662-34085-1.pdf,0,2000-01-01 01:00:00,2016-04-03 02:51:08,1138000/4a780b4860de30237bd713536f0b8e5b-d.jpg,,
21252586,Einführung in das Maschinenzeichnen,,,,Dipl.-Ing. C. Michenfelder (auth.),1920,1,Springer-Verlag Berlin Heidelberg,,81,0,German,,,,"978-3-662-33628-1,978-3-662-34026-4",,,,,,,10.1007/978-3-662-34026-4,,,,0,,,,,,,1,9212492,pdf,702681e5f0879d45ccdeb93bb81eada6,,,D:\\HDD4\\!genesis\\SPR_NEW_2013-12\\bok%3A978-3-662-34026-4.pdf,0,2000-01-01 01:00:00,2016-04-03 02:51:08,1138000/702681e5f0879d45ccdeb93bb81eada6-d.jpg,,
21252587,Technische Messungen bei Maschinenuntersuchungen und zur Betriebskontrolle: Zum Gebrauch in Maschinenlaboratorien und in der Praxis,,,,Professor Dr.-Ing. A. Gramberg (auth.),1920,4,Springer-Verlag Berlin Heidelberg,,522,0,German,,,,"978-3-662-35427-8,978-3-662-36255-6",,,,,,,10.1007/978-3-662-36255-6,,,,0,,,,,,,1,27732091,pdf,e0e935321c6c452e4311c7f70e7e7e56,,,D:\\HDD4\\!genesis\\SPR_NEW_2013-12\\bok%3A978-3-662-36255-6.pdf,0,2000-01-01 01:00:00,2016-04-03 02:51:08,1138000/e0e935321c6c452e4311c7f70e7e7e56-d.jpg,,
21252588,Wirklichkeitsblinde in Wissenschaft und Technik,,,,Eugen Meyer (auth.),1920,1,Springer-Verlag Berlin Heidelberg,,57,0,German,,,,"978-3-662-42182-6,978-3-662-42451-3",,,,,,,10.1007/978-3-662-42451-3,,,,0,,,,,,,1,3200820,pdf,a8876d4200cc80c31abb7ae1e56beb8f,,,D:\\HDD4\\!genesis\\SPR_NEW_2013-12\\bok%3A978-3-662-42451-3.pdf,0,2000-01-01 01:00:00,2016-04-03 02:51:08,1140000/a8876d4200cc80c31abb7ae1e56beb8f-d.jpg,,
21252589,"Land- und Wasserstrassen Post, Telegraph, Telephon",,Die Verkehrsmittel in volks- und Staatswirtschaft 2,,Dr. Emil Sax (auth.),1920,1,Springer-Verlag Berlin Heidelberg,,541,0,German,,,,"978-3-642-89129-8,978-3-642-90985-6",,,,,,,10.1007/978-3-642-90985-6,,,,0,,,,,,,1,60032318,pdf,b76457b67282106f931e7cf1b3e3d861,,,D:\\HDD4\\!genesis\\SPR_NEW_2013-12\\bok%3A978-3-642-90985-6.pdf,0,2000-01-01 01:00:00,2016-04-03 02:51:08,1135000/b76457b67282106f931e7cf1b3e3d861-d.jpg,,
21252590,Magnetische Ausgleichsvorgänge in elektrischen Maschinen,,,,J. Biermanns (auth.),1919,1,Springer-Verlag Berlin Heidelberg,,206,0,German,,,,"978-3-662-42125-3,978-3-662-42392-9",,,,,,,10.1007/978-3-662-42392-9,,,,0,,,,,,,1,19959982,pdf,2c6dbf99a1cb3691a9d037db0d5c6f64,,,D:\\HDD4\\!genesis\\SPR_NEW_2013-12\\bok%3A978-3-662-42392-9.pdf,0,2000-01-01 01:00:00,2016-04-03 02:51:08,1140000/2c6dbf99a1cb3691a9d037db0d5c6f64-d.jpg,,
21252591,Beiträge zur Geschichte der Technik und Industrie: Jahrbuch des Vereines Deutscher Ingenieure,,,,"Prof. Dr. L. Ambronn (auth.), Conrad Matschoss (eds.)",1919,1,Springer-Verlag Berlin Heidelberg,,184,0,German,,,,"978-3-662-39227-0,978-3-662-40241-2",,,,,,,10.1007/978-3-662-40241-2,,,,0,,,,,,,1,11734924,pdf,3f60255e50adb99c70a2bb1c9ad4c306,,,D:\\HDD4\\!genesis\\SPR_NEW_2013-12\\bok%3A978-3-662-40241-2.pdf,0,2000-01-01 01:00:00,2016-04-03 02:51:08,1139000/3f60255e50adb99c70a2bb1c9ad4c306-d.jpg,,
21252592,Ausgeführte Eisenbetonkonstruktionen: Neunundzwanzig Beispiele aus der Praxis,,,,Dipl.-Ing. Otto Hausen (auth.),1919,1,Springer-Verlag Berlin Heidelberg,,129,0,German,,,,"978-3-662-39291-1,978-3-662-40324-2",,,,,,,10.1007/978-3-662-40324-2,,,,0,,,,,,,1,10337676,pdf,3cb2c44d6f239bfdcb95d4edfc5f2d40,,,D:\\HDD4\\!genesis\\SPR_NEW_2013-12\\bok%3A978-3-662-40324-2.pdf,0,2000-01-01 01:00:00,2016-04-03 02:51:08,1139000/3cb2c44d6f239bfdcb95d4edfc5f2d40-d.jpg,,
21252593,Wegweiser durch die Arbeiten des Verbandes Deutscher Elektrotechniker (VDE): Ausgabe Juni 1919,,,,(auth.),1919,1,Springer-Verlag Berlin Heidelberg,,54,0,German,,,,"978-3-662-33390-7,978-3-662-33787-5",,,,,,,10.1007/978-3-662-33787-5,,,,0,,,,,,,1,4809328,pdf,74cfd2e81c75cf5ad9876d67eb1888b9,,,D:\\HDD4\\!genesis\\SPR_NEW_2013-12\\bok%3A978-3-662-33787-5.pdf,0,2000-01-01 01:00:00,2016-04-03 02:51:08,1138000/74cfd2e81c75cf5ad9876d67eb1888b9-d.jpg,,
21252594,"Vorläufer und Entstehen der Kammerschleuse, ihre Würdigung und Weiterentwicklung: Eine Kritisch-Technischhistorische Theorie Des „Wie“ der Entstehung und entwicklung der Kammerschleuse — Als Beitrag zur Geschichte der Technik",,,,Regierungsbaumeister Richard Wreden (auth.),1919,1,Springer-Verlag Berlin Heidelberg,,50,0,German,,,,"978-3-662-31771-6,978-3-662-32597-1",,,,,,,10.1007/978-3-662-32597-1,,,,0,,,,,,,1,2287202,pdf,3eff5e85a71b7bb18aac2efc791c35bc,,,D:\\HDD4\\!genesis\\SPR_NEW_2013-12\\bok%3A978-3-662-32597-1.pdf,0,2000-01-01 01:00:00,2016-04-03 02:51:08,1137000/3eff5e85a71b7bb18aac2efc791c35bc-d.jpg,,
21252595,Die Zentrifugalventilatoren und Zentrifugalpumpen und Ihre Antriebsmaschinen der Elektromotor und die Kleindampfturbine in der Heizungstechnik,,,,Oberingenieur Valerius Hüttig (auth.),1919,1,Springer-Verlag Berlin Heidelberg,,265,0,German,,,,"978-3-662-33635-9,978-3-662-34033-2",,,,,,,10.1007/978-3-662-34033-2,,,,0,,,,,,,1,14978044,pdf,2b6e705d41cef537be0cebb5e54051d4,,,D:\\HDD4\\!genesis\\SPR_NEW_2013-12\\bok%3A978-3-662-34033-2.pdf,0,2000-01-01 01:00:00,2016-04-03 02:51:08,1138000/2b6e705d41cef537be0cebb5e54051d4-d.jpg,,
21252596,Gründung und Finanzierung von Elektrizitätsgenossenschaften,,,,Adolf Wolterstorff (auth.),1919,1,Springer-Verlag Berlin Heidelberg,,42,0,German,,,,"978-3-662-42175-8,978-3-662-42444-5",,,,,,,10.1007/978-3-662-42444-5,,,,0,,,,,,,1,1600980,pdf,514a4402f470f8dfadf5e3ad6813869d,,,D:\\HDD4\\!genesis\\SPR_NEW_2013-12\\bok%3A978-3-662-42444-5.pdf,0,2000-01-01 01:00:00,2016-04-03 02:51:08,1140000/514a4402f470f8dfadf5e3ad6813869d-d.jpg,,
21252597,Zur Vereinheitlichung von Installations-Material für elektrische Anlagen: Haus- und Wohnungsanschlüsse,,,,"W. Klement, C. Paulus (auth.)",1919,1,Springer-Verlag Berlin Heidelberg,,227,0,German,,,,"978-3-662-42159-8,978-3-662-42428-5",,,,,,,10.1007/978-3-662-42428-5,,,,0,,,,,,,1,13911971,pdf,c4b2202d42396cb59f7d8e0c2f56d084,,,D:\\HDD4\\!genesis\\SPR_NEW_2013-12\\bok%3A978-3-662-42428-5.pdf,0,2000-01-01 01:00:00,2016-04-03 02:51:08,1140000/c4b2202d42396cb59f7d8e0c2f56d084-d.jpg,,
21252598,Lehrbuch der elektrischen Festigkeit der Isoliermaterialien,,,,Dr.-ing. A. Schwaiger (auth.),1919,1,Springer-Verlag Berlin Heidelberg,,153,0,German,,,,"978-3-662-42137-6,978-3-662-42404-9",,,,,,,10.1007/978-3-662-42404-9,,,,0,,,,,,,1,10169403,pdf,3f7cf6be9d25e1b133c0475d2960c574,,,D:\\HDD4\\!genesis\\SPR_NEW_2013-12\\bok%3A978-3-662-42404-9.pdf,0,2000-01-01 01:00:00,2016-04-03 02:51:08,1140000/3f7cf6be9d25e1b133c0475d2960c574-d.jpg,,
21252599,Die Ölfeuerungstechnik,,,,Dr.-Ing. O. A. Essich (auth.),1919,1,Springer-Verlag Berlin Heidelberg,,102,0,German,,,,"978-3-662-42234-2,978-3-662-42503-9",,,,,,,10.1007/978-3-662-42503-9,,,,0,,,,,,,1,7575227,pdf,607489baa6b69e2a01b006acf99616a0,,,D:\\HDD4\\!genesis\\SPR_NEW_2013-12\\bok%3A978-3-662-42503-9.pdf,0,2000-01-01 01:00:00,2016-04-03 02:51:08,1140000/607489baa6b69e2a01b006acf99616a0-d.jpg,,
21252600,Wirklichkeitsblinde in Wissenschaft und Technik,,,,A. Riedler (auth.),1919,1,Springer-Verlag Berlin Heidelberg,,208,0,German,,,,"978-3-662-42181-9,978-3-662-42450-6",,,,,,,10.1007/978-3-662-42450-6,,,,0,,,,,,,1,10029510,pdf,66b1405072a5a12dc1739b529556e35a,,,D:\\HDD4\\!genesis\\SPR_NEW_2013-12\\bok%3A978-3-662-42450-6.pdf,0,2000-01-01 01:00:00,2016-04-03 02:51:08,1140000/66b1405072a5a12dc1739b529556e35a-d.jpg,,
21252601,Über die Tragfähigkeit und zweckmäßige Ausgestaltung von Schiffbauversteifungsprofilen,,,,Diplom-Ingenieur Max Henning Rehder (auth.),1919,1,Springer-Verlag Berlin Heidelberg,,68,0,German,,,,"978-3-662-42047-8,978-3-662-42314-1",,,,,,,10.1007/978-3-662-42314-1,,,,0,,,,,,,1,4491298,pdf,87f74eca41409e6df5f9811498103d15,,,D:\\HDD4\\!genesis\\SPR_NEW_2013-12\\bok%3A978-3-662-42314-1.pdf,0,2000-01-01 01:00:00,2016-04-03 02:51:08,1140000/87f74eca41409e6df5f9811498103d15-d.jpg,,
21252602,"Handbuch der Hydrologie: Wesen, Nachweis, Untersuchung und Gewinnung unterirdischer Wasser: Quellen, Grundwasser, unterirdische Wasserläufe, Grundwasserfassungen",,,,E. Prinz (auth.),1919,1,Springer-Verlag Berlin Heidelberg,,463,0,German,,,,"978-3-662-40700-4,978-3-662-41182-7",,,,,,,10.1007/978-3-662-41182-7,,,,0,,,,,,,1,24876216,pdf,34e94950d9781a43b637f8e899c7ec51,,,D:\\HDD4\\!genesis\\SPR_NEW_2013-12\\bok%3A978-3-662-41182-7.pdf,0,2000-01-01 01:00:00,2016-04-03 02:51:08,1140000/34e94950d9781a43b637f8e899c7ec51-d.jpg,,
21252603,"Die Schneidstähle: Ihre Mechanik, Konstruktion u. Herstellung",,,,Dipl.-Ing. Eugen Simon (auth.),1919,2,Springer-Verlag Berlin Heidelberg,,124,0,German,,,,"978-3-662-42224-3,978-3-662-42493-3",,,,,,,10.1007/978-3-662-42493-3,,,,0,,,,,,,1,16020267,pdf,84f532a4f19526423dc950aac4d5ac08,,,D:\\HDD4\\!genesis\\SPR_NEW_2013-12\\bok%3A978-3-662-42493-3.pdf,0,2000-01-01 01:00:00,2016-04-03 02:51:08,1140000/84f532a4f19526423dc950aac4d5ac08-d.jpg,,
21252604,Einführung in die Organisation von Maschinenfabriken: unter besonderer Berücksichtigung der Selbstkostenberechnung,,,,Dipl.-Ing. Friedrich Meyenberg (auth.),1919,2,Springer-Verlag Berlin Heidelberg,,265,0,German,,,,"978-3-662-42211-3,978-3-662-42480-3",,,,,,,10.1007/978-3-662-42480-3,,,,0,,,,,,,1,26966308,pdf,4dc55466f26e0cac18589770e44fa4f8,,,D:\\HDD4\\!genesis\\SPR_NEW_2013-12\\bok%3A978-3-662-42480-3.pdf,0,2000-01-01 01:00:00,2016-04-03 02:51:08,1140000/4dc55466f26e0cac18589770e44fa4f8-d.jpg,,
21252605,Neues Pharmazeutisches Manual,,,,"Eugen Dieterich (auth.), Professor Dr. Karl Dieterich (eds.)",1919,12,Springer-Verlag Berlin Heidelberg,,788,0,German,,,,"978-3-662-35594-7,978-3-662-36423-9",,,,,,,10.1007/978-3-662-36423-9,,,,0,,,,,,,1,77121869,pdf,392622cbda624e6b42897efa5316c795,,,D:\\HDD4\\!genesis\\SPR_NEW_2013-12\\bok%3A978-3-662-36423-9.pdf,0,2000-01-01 01:00:00,2016-04-03 02:51:08,1138000/392622cbda624e6b42897efa5316c795-d.jpg,,
21252606,Die Chemie der Brennstoffe vom Standpunkt der Feuerungstechnik,,Monographien zur Feuerungstechnik,,Hugo Richard Trenkler (auth.),1919,1,Springer-Verlag Berlin Heidelberg,,45,0,German,,,,"978-3-662-33695-3,978-3-662-34093-6",,,,,,,10.1007/978-3-662-34093-6,,,,0,,,,,,,1,3163145,pdf,a2d96d2fea7c555ba5d64e8e6337f350,,,D:\\HDD4\\!genesis\\SPR_NEW_2013-12\\bok%3A978-3-662-34093-6.pdf,0,2000-01-01 01:00:00,2016-04-03 02:51:08,1138000/a2d96d2fea7c555ba5d64e8e6337f350-d.jpg,,
21252607,Das Schleifen der Metalle,,Werkstattbücher 5,,Dr.-Ing. Bertold Buxbaum (auth.),1921,1,Springer-Verlag Berlin Heidelberg,,71,0,German,,,,"978-3-662-41982-3,978-3-662-42040-9",,,,,,,10.1007/978-3-662-42040-9,,,,0,,,,,,,1,9264209,pdf,50253b275d398ec830d63a9ac2929682,,,D:\\HDD4\\!genesis\\SPR_NEW_2013-12\\bok%3A978-3-662-42040-9.pdf,0,2000-01-01 01:00:00,2016-04-03 02:51:08,1140000/50253b275d398ec830d63a9ac2929682-d.jpg,,
21252608,Differentialgleichungen unter Berücksichtigung der praktischen Anwendung in der Technik mit zahlreichen Beispielen und Aufgaben versehen,,Aus Natur und Geisteswelt 589,,"Dr. Martin Lindow (auth.), Dr. Martin Lindow (eds.)",1921,1,Vieweg+Teubner Verlag,,109,0,German,,,,"978-3-663-15487-7,978-3-663-16059-5",,,,,,,10.1007/978-3-663-16059-5,,,,0,,,,,,,1,8659942,pdf,dae4df456e10788b8a20edd3e3c8a1ed,,,D:\\HDD4\\!genesis\\SPR_NEW_2013-12\\bok%3A978-3-663-16059-5.pdf,0,2000-01-01 01:00:00,2016-04-03 02:51:08,1142000/dae4df456e10788b8a20edd3e3c8a1ed-d.jpg,,
21252609,"Elektromotoren: Ein Leitfaden zum Gebrauch für Studierende, Betriebsleiter und Elektromonteure",,,,Dr.-Ing. Johann Grabscheid (auth.),1921,1,Springer-Verlag Berlin Heidelberg,,74,0,German,,,,"978-3-662-32210-9,978-3-662-33037-1",,,,,,,10.1007/978-3-662-33037-1,,,,0,,,,,,,1,4811126,pdf,fb01772bda937bdd3fd4f006f13c041c,,,D:\\HDD4\\!genesis\\SPR_NEW_2013-12\\bok%3A978-3-662-33037-1.pdf,0,2000-01-01 01:00:00,2016-04-03 02:51:08,1137000/fb01772bda937bdd3fd4f006f13c041c-d.jpg,,
21252610,"Die Nebenproduktenkokerei in Südrussland: Entwicklung, Stand, Organisation und Aussichten der Russischen Teerkokerei",,,,Ing. L. Litinsky (auth.),1921,1,Vieweg+Teubner Verlag,,49,0,German,,,,"978-3-663-15517-1,978-3-663-16089-2",,,,,,,10.1007/978-3-663-16089-2,,,,0,,,,,,,1,5199589,pdf,c293a06d3415ea33788aadc08262f319,,,D:\\HDD4\\!genesis\\SPR_NEW_2013-12\\bok%3A978-3-663-16089-2.pdf,0,2000-01-01 01:00:00,2016-04-03 02:51:08,1142000/c293a06d3415ea33788aadc08262f319-d.jpg,,
21252611,Städtebau,,Handbibliothek für Bauingenieure,,"Otto Blum, G. Schimpff, W. Schmidt (auth.)",1921,1,Springer-Verlag Berlin Heidelberg,,486,0,German,,,,"978-3-662-35500-8,978-3-662-36328-7",,,,,,,10.1007/978-3-662-36328-7,,,,0,,,,,,,1,35634911,pdf,b536f32001a167436d7811b3ee25130d,,,D:\\HDD4\\!genesis\\SPR_NEW_2013-12\\bok%3A978-3-662-36328-7.pdf,0,2000-01-01 01:00:00,2016-04-03 02:51:08,1138000/b536f32001a167436d7811b3ee25130d-d.jpg,,
21252612,Technische Thermodynamik: Erster Band Die für Maschinenbau wichtigsten Lehren nebst technischen Anwendungen,,,,Prof. Dipl.-Ing. W. Schüle (auth.),1921,4,Springer-Verlag Berlin Heidelberg,,577,0,German,,,,"978-3-662-35423-0,978-3-662-36251-8",,,,,,,10.1007/978-3-662-36251-8,,,,0,,,,,,,1,23944856,pdf,a237b486fea40a587c96f630c87ccc41,,,D:\\HDD4\\!genesis\\SPR_NEW_2013-12\\bok%3A978-3-662-36251-8.pdf,0,2000-01-01 01:00:00,2016-04-03 02:51:08,1138000/a237b486fea40a587c96f630c87ccc41-d.jpg,,
21252613,Lehrgang der Härtetechnik,,,,"J. Schiefer, E. Grün (auth.)",1921,8,Springer-Verlag Berlin Heidelberg,,220,0,German,,,,"978-3-662-26995-4,978-3-662-28473-5",,,,,,,10.1007/978-3-662-28473-5,,,,0,,,,,,,1,9566958,pdf,e19fe961836cb082495120e7466c560f,,,D:\\HDD4\\!genesis\\SPR_NEW_2013-12\\bok%3A978-3-662-28473-5.pdf,0,2000-01-01 01:00:00,2016-04-03 02:51:08,1137000/e19fe961836cb082495120e7466c560f-d.jpg,,
21252614,Eisenbahn-Hochbauten: II. Teil. Eisenbahnwesen,,Handbibliothek für Bauingenieure 6,,C. Cornelius (auth.),1921,1,Springer-Verlag Berlin Heidelberg,,135,0,German,,,,"978-3-642-47145-2,978-3-642-47432-3",,,,,,,10.1007/978-3-642-47432-3,,,,0,,,,,,,1,10351266,pdf,e6421cd7f64c3a207302c6b98567b125,,,D:\\HDD4\\!genesis\\SPR_NEW_2013-12\\bok%3A978-3-642-47432-3.pdf,0,2000-01-01 01:00:00,2016-04-03 02:51:08,1134000/e6421cd7f64c3a207302c6b98567b125-d.jpg,,
21252615,Entwurf und Verwendung der Schmiedegesenke und Abgratstanzen: Beitrag zur Kenntnis des Gesenkschmiedens unter Brettfallhämmern und Kurbelpressen,,,,Hermann Hoffmeister Dipl.-Ing. (auth.),1921,1,Springer-Verlag Berlin Heidelberg,,58,0,German,,,,"978-3-662-23743-4,978-3-662-25842-2",,,,,,,10.1007/978-3-662-25842-2,,,,0,,,,,,,1,2680143,pdf,170352864edcc1957b1b61bc3f49b40e,,,D:\\HDD4\\!genesis\\SPR_NEW_2013-12\\bok%3A978-3-662-25842-2.pdf,0,2000-01-01 01:00:00,2016-04-03 02:51:08,1137000/170352864edcc1957b1b61bc3f49b40e-d.jpg,,
21252616,Grundbegriffe des Städtebaues: Erster Band,,,,K. A. Hoepfner (auth.),1921,1,Springer-Verlag Berlin Heidelberg,,227,0,German,,,,"978-3-642-89858-7,978-3-642-91715-8",,,,,,,10.1007/978-3-642-91715-8,,,,0,,,,,,,1,17088310,pdf,571f263c5635af6212911d25e189f4f4,,,D:\\HDD4\\!genesis\\SPR_NEW_2013-12\\bok%3A978-3-642-91715-8.pdf,0,2000-01-01 01:00:00,2016-04-03 02:51:08,1135000/571f263c5635af6212911d25e189f4f4-d.jpg,,
21252617,Wasserkraftausnutzung und Wasserkraftmaschinen,,Aus Natur und Geisteswelt 732,,Dr.-Ing. F. Lawaczeck (auth.),1921,1,Vieweg+Teubner Verlag,,137,0,German,,,,"978-3-663-15196-8,978-3-663-15759-5",,,,,,,10.1007/978-3-663-15759-5,,,,0,,,,,,,1,9743596,pdf,5935227d3573d749348de006dfd496fe,,,D:\\HDD4\\!genesis\\SPR_NEW_2013-12\\bok%3A978-3-663-15759-5.pdf,0,2000-01-01 01:00:00,2016-04-03 02:51:08,1142000/5935227d3573d749348de006dfd496fe-d.jpg,,
21252618,Außergewöhnliche Druck- und Temperatursteigerungen bei Dieselmotoren: Eine Untersuchung,,,,Dipl.-Ing. Richard Colell (auth.),1921,1,Springer-Verlag Berlin Heidelberg,,79,0,German,,,,"978-3-662-39287-4,978-3-662-40320-4",,,,,,,10.1007/978-3-662-40320-4,,,,0,,,,,,,1,4648885,pdf,5a2cd29abb84a218998cb4f2041b0818,,,D:\\HDD4\\!genesis\\SPR_NEW_2013-12\\bok%3A978-3-662-40320-4.pdf,0,2000-01-01 01:00:00,2016-04-03 02:51:08,1139000/5a2cd29abb84a218998cb4f2041b0818-d.jpg,,
21252619,Technische Thermodynamik: Erster Band Die für den Maschinenbau wichtigsten Lehren nebst technischen Anwendungen,,,,Prof. Dipl.-Ing. W. Schüle (auth.),1921,4,Springer-Verlag Berlin Heidelberg,,577,0,German,,,,"978-3-662-37571-6,978-3-662-38350-6",,,,,,,10.1007/978-3-662-38350-6,,,,0,,,,,,,1,31075140,pdf,0655263d484d755f6c1bf4c34bed3a3e,,,D:\\HDD4\\!genesis\\SPR_NEW_2013-12\\bok%3A978-3-662-38350-6.pdf,0,2000-01-01 01:00:00,2016-04-03 02:51:08,1139000/0655263d484d755f6c1bf4c34bed3a3e-d.jpg,,
21252620,Vorschriften und Normen des Verbandes Deutscher Elektrotechniker,,,,"Prof. Dr.-Ing. e. h. Georg Dettmar (auth.), Prof. Dr.-Ing. e. h. Georg Dettmar (eds.)",1921,10,Springer-Verlag Berlin Heidelberg,,408,0,German,,,,"978-3-662-22793-0,978-3-662-24726-6",,,,,,,10.1007/978-3-662-24726-6,,,,0,,,,,,,1,31014087,pdf,7f70b77446c18b3d6d2e6bb79242a434,,,D:\\HDD4\\!genesis\\SPR_NEW_2013-12\\bok%3A978-3-662-24726-6.pdf,0,2000-01-01 01:00:00,2016-04-03 02:51:08,1136000/7f70b77446c18b3d6d2e6bb79242a434-d.jpg,,
21252621,"Die Künstliche Seide, ihre Herstellung, Eigenschaften und Verwendung",,,,Dr. K. Süvern (auth.),1921,4,Springer-Verlag Berlin Heidelberg,,700,0,German,,,,"978-3-662-24061-8,978-3-662-26173-6",,,,,,,10.1007/978-3-662-26173-6,,,,0,,,,,,,1,55947131,pdf,9e044db602a85da9af448a2824111d84,,,D:\\HDD4\\!genesis\\SPR_NEW_2013-12\\bok%3A978-3-662-26173-6.pdf,0,2000-01-01 01:00:00,2016-04-03 02:51:08,1137000/9e044db602a85da9af448a2824111d84-d.jpg,,
21252622,Die Maschinenelemente,,Aus Natur und Geisteswelt,,"Richard Vater (auth.), Dr. Fritz Schmidt (eds.)",1921,17,Vieweg+Teubner Verlag,,129,0,German,,,,"978-3-663-15521-8,978-3-663-16093-9",,,,,,,10.1007/978-3-663-16093-9,,,,0,,,,,,,1,14192304,pdf,f84cd90fbab75cbf88efe9eac948cd17,,,D:\\HDD4\\!genesis\\SPR_NEW_2013-12\\bok%3A978-3-663-16093-9.pdf,0,2000-01-01 01:00:00,2016-04-03 02:51:08,1142000/f84cd90fbab75cbf88efe9eac948cd17-d.jpg,,
21252623,Untersuchung einer Wagerecht-Stoßmaschine mit elektrischem Einzelantrieb und Riemenzwischengliedern,,,,"Dr.-Ing. G. Schlesinger, Dr. techn. M. Kurrein (auth.)",1921,1,Springer-Verlag Berlin Heidelberg,,37,0,German,,,,"978-3-662-42262-5,978-3-662-42531-2",,,,,,,10.1007/978-3-662-42531-2,,,,0,,,,,,,1,4696316,pdf,706c196ce8bb5cbc0a05eec049aed06f,,,D:\\HDD4\\!genesis\\SPR_NEW_2013-12\\bok%3A978-3-662-42531-2.pdf,0,2000-01-01 01:00:00,2016-04-03 02:51:08,1140000/706c196ce8bb5cbc0a05eec049aed06f-d.jpg,,
21252624,"Gaswirtschaft: Ein Beitrag zur Prüfung der Wirtschaftlichkeit der Nebenproduktengewinnung, des Gasbetriebes für Stahlwerke und Kraftwerke und der Gasfernversorgung",,,,Rich. F. Starke (auth.),1921,1,Springer-Verlag Berlin Heidelberg,,"VII, 176 S.",0,German,,,,"978-3-662-23666-6,978-3-662-25752-4",,,,,,,10.1007/978-3-662-25752-4,,,,0,,,,,,,1,8556498,pdf,ef4c523a64ccc232fd1108904488306f,,,D:\\HDD4\\!genesis\\SPR_NEW_2013-12\\bok%3A978-3-662-25752-4.pdf,0,2000-01-01 01:00:00,2016-04-03 02:51:08,1137000/ef4c523a64ccc232fd1108904488306f-d.jpg,,
21252625,Die Vereinheitlichung der U-Schwimmdocks,,Jahrbuch der Schiffbautechnischen Gesellschaft 23,,Kurt Roeser (auth.),1922,1,Springer-Verlag Berlin Heidelberg,,64,0,German,,,,"978-3-662-27388-3,978-3-662-28875-7",,,,,,,10.1007/978-3-662-28875-7,,,,0,,,,,,,1,3160093,pdf,ebc129c77290a74504d07676f2fe0d68,,,D:\\HDD4\\!genesis\\SPR_NEW_2013-12\\bok%3A978-3-662-28875-7.pdf,0,2000-01-01 01:00:00,2016-04-03 02:51:08,1137000/ebc129c77290a74504d07676f2fe0d68-d.jpg,,
21252626,Ingenieur-Mathematik: Lehrbuch der höheren Mathematik für die technischen Berufe,,,,Dr. ing. Dr. phil. Heinz Egerer (auth.),1922,1,Springer-Verlag Berlin Heidelberg,,728,0,German,,,,"978-3-662-34868-0,978-3-662-35198-7",,,,,,,10.1007/978-3-662-35198-7,,,,0,,,,,,,1,27540879,pdf,6332a527eff062182ffa03def174fc5a,,,D:\\HDD4\\!genesis\\SPR_NEW_2013-12\\bok%3A978-3-662-35198-7.pdf,0,2000-01-01 01:00:00,2016-04-03 02:51:08,1138000/6332a527eff062182ffa03def174fc5a-d.jpg,,
21252627,Die Elektrotechnik und die elektromotorischen Antriebe: Ein elementares Lehrbuch für technische Lehranstalten und zum Selbstunterricht,,,,Dipl.-Ing. Wilhelm Lehmann (auth.),1922,1,Springer-Verlag Berlin Heidelberg,,459,0,German,,,,"978-3-662-36109-2,978-3-662-36939-5",,,,,,,10.1007/978-3-662-36939-5,,,,0,,,,,,,1,20866707,pdf,9e848763061ae363787956c8ce19bad3,,,D:\\HDD4\\!genesis\\SPR_NEW_2013-12\\bok%3A978-3-662-36939-5.pdf,0,2000-01-01 01:00:00,2016-04-03 02:51:08,1139000/9e848763061ae363787956c8ce19bad3-d.jpg,,
21252628,Bau und Berechnung der Verbrennungskraftmaschinen: Eine Einführung,,,,Franz Seufert (auth.),1922,3,Springer-Verlag Berlin Heidelberg,,129,0,German,,,,"978-3-662-42805-4,978-3-662-43086-6",,,,,,,10.1007/978-3-662-43086-6,,,,0,,,,,,,1,5764466,pdf,dc97898696a1ed9fc85f665e515e7243,,,D:\\HDD4\\!genesis\\SPR_NEW_2013-12\\bok%3A978-3-662-43086-6.pdf,0,2000-01-01 01:00:00,2016-04-03 02:51:08,1140000/dc97898696a1ed9fc85f665e515e7243-d.jpg,,
21252629,Die betriebswirtschaftliche Organisation in Speditionsgroßbetrieben,,,,Ludwig Pontow (auth.),1922,1,Springer-Verlag Berlin Heidelberg,,"IV, 128 S.",0,German,,,,"978-3-642-90257-4,978-3-642-92114-8",,,,,,,10.1007/978-3-642-92114-8,,,,0,,,,,,,1,7696061,pdf,7b61a3cfcf2b941dd34022a4d3a88660,,,D:\\HDD4\\!genesis\\SPR_NEW_2013-12\\bok%3A978-3-642-92114-8.pdf,0,2000-01-01 01:00:00,2016-04-03 02:51:08,1135000/7b61a3cfcf2b941dd34022a4d3a88660-d.jpg,,
21252630,Trockene Kokskühlung mit Verwertung der Koksglut,,Monographien zur Feuerungstechnik,,L. Litinsky (auth.),1922,1,Springer-Verlag Berlin Heidelberg,,55,0,German,,,,"978-3-662-33433-1,978-3-662-33830-8",,,,,,,10.1007/978-3-662-33830-8,,,,0,,,,,,,1,3887998,pdf,83e0ab89128fcf05ef9e30626584351f,,,D:\\HDD4\\!genesis\\SPR_NEW_2013-12\\bok%3A978-3-662-33830-8.pdf,0,2000-01-01 01:00:00,2016-04-03 02:51:08,1138000/83e0ab89128fcf05ef9e30626584351f-d.jpg,,
21252631,Beiträge zur Kenntnis des Schleichens der Drehstrom-Asynchronmotoren: Dissertation zur Erlangung der Würde eines Doktor-Ingenieurs der Technischen Hochschule zu Berlin,,,,Dipl.-Ing. Erich Wandeberg (auth.),1922,1,Springer-Verlag Berlin Heidelberg,,50,0,German,,,,"978-3-662-24471-5,978-3-662-26615-1",,,,,,,10.1007/978-3-662-26615-1,,,,0,,,,,,,1,5403622,pdf,15f074044885f7d1d51414cd3ae0db79,,,D:\\HDD4\\!genesis\\SPR_NEW_2013-12\\bok%3A978-3-662-26615-1.pdf,0,2000-01-01 01:00:00,2016-04-03 02:51:08,1137000/15f074044885f7d1d51414cd3ae0db79-d.jpg,,
21252632,Graphische Thermodynamik und Berechnen der Verbrennungs-Maschinen und Turbinen,,,,M. Seiliger (auth.),1922,1,Springer-Verlag Berlin Heidelberg,,262,0,German,,,,"978-3-662-42706-4,978-3-662-42983-9",,,,,,,10.1007/978-3-662-42983-9,,,,0,,,,,,,1,12378962,pdf,c7ad7da1a6548a2cfcf095436f82270a,,,D:\\HDD4\\!genesis\\SPR_NEW_2013-12\\bok%3A978-3-662-42983-9.pdf,0,2000-01-01 01:00:00,2016-04-03 02:51:08,1140000/c7ad7da1a6548a2cfcf095436f82270a-d.jpg,,
21252633,Naturwissenschaft und Technik der Gegenwart: Eine Akademische Rede mit Zusätzen,,"Abhandlungen und Vorträge aus dem Gebiete der Mathematik, Naturwissenschaft und Technik 8",,Richard von Mises (auth.),1922,1,Vieweg+Teubner Verlag,,39,0,German,,,,"978-3-663-15292-7,978-3-663-15860-8",,,,,,,10.1007/978-3-663-15860-8,,,,0,,,,,,,1,4919864,pdf,47f99c3866961a1ae9954f6072d2a8ff,,,D:\\HDD4\\!genesis\\SPR_NEW_2013-12\\bok%3A978-3-663-15860-8.pdf,0,2000-01-01 01:00:00,2016-04-03 02:51:08,1142000/47f99c3866961a1ae9954f6072d2a8ff-d.jpg,,
21252634,Differentialrechnung unter Berücksichtigung der praktischen Anwendung in der Technik mit zahlreichen Beispielen und Aufgaben versehen,,Aus Natur und Geisteswelt,,Dr. Martin Lindow (auth.),1922,4,Vieweg+Teubner Verlag,,119,0,German,,,,"978-3-663-15485-3,978-3-663-16057-1",,,,,,,10.1007/978-3-663-16057-1,,,,0,,,,,,,1,9387115,pdf,ef1dfc2b1fd05c08c11b0ec432c8aacf,,,D:\\HDD4\\!genesis\\SPR_NEW_2013-12\\bok%3A978-3-663-16057-1.pdf,0,2000-01-01 01:00:00,2016-04-03 02:51:08,1142000/ef1dfc2b1fd05c08c11b0ec432c8aacf-d.jpg,,
21252635,"Wahl, Projektierung und Betrieb von Kraftanlagen: Ein Hilfsbuch für Ingenieure Betriebsleiter, Fabrikbesitzer",,,,Friedrich Barth (auth.),1922,3,Springer-Verlag Berlin Heidelberg,,568,0,German,,,,"978-3-662-39013-9,978-3-662-39983-5",,,,,,,10.1007/978-3-662-39983-5,,,,0,,,,,,,1,23667820,pdf,5f5a65dc9c35c687643083ff4ec42bbf,,,D:\\HDD4\\!genesis\\SPR_NEW_2013-12\\bok%3A978-3-662-39983-5.pdf,0,2000-01-01 01:00:00,2016-04-03 02:51:08,1139000/5f5a65dc9c35c687643083ff4ec42bbf-d.jpg,,
21252636,Kupolofenbetrieb,,Werkstattbücher 10,,Carl Irresberger (auth.),1922,1,Springer-Verlag Wien,,57,0,German,,,,"978-3-7091-2434-5,978-3-7091-2435-2",,,,,,,10.1007/978-3-7091-2435-2,,,,0,,,,,,,1,3639940,pdf,c27cc98987aef1af5b4af6c00b3662f7,,,D:\\HDD4\\!genesis\\SPR_NEW_2013-12\\bok%3A978-3-7091-2435-2.pdf,0,2000-01-01 01:00:00,2016-04-03 02:51:08,1143000/c27cc98987aef1af5b4af6c00b3662f7-d.jpg,,
21252637,Die Werkstoffe für den Dampfkesselbau: Eigenschaften und Verhalten bei der Herstellung Weiterverarbeitung und im Betriebe,,,,Dr.-Ing. Kurt Meerbach (auth.),1922,1,Springer-Verlag Berlin Heidelberg,,210,0,German,,,,"978-3-662-32250-5,978-3-662-33077-7",,,,,,,10.1007/978-3-662-33077-7,,,,0,,,,,,,1,10721841,pdf,f9134004e49d5f979d2b7d41ea063fb7,,,D:\\HDD4\\!genesis\\SPR_NEW_2013-12\\bok%3A978-3-662-33077-7.pdf,0,2000-01-01 01:00:00,2016-04-03 02:51:08,1137000/f9134004e49d5f979d2b7d41ea063fb7-d.jpg,,
21252638,Sicherungsanlagen im Eisenbahnbetriebe: Auf Grund gemeinsamer Vorarbeit mit Dr.-Ing. M. Oder weiland Professor an der Technischen Hochschule zu Danzig,,Handbibliothek für Bauingenieure 2/7,,Dr.-Ing. W. Cauer (auth.),1922,1,Springer-Verlag Berlin Heidelberg,,482,0,German,,,,"978-3-662-34219-0,978-3-662-34490-3",,,,,,,10.1007/978-3-662-34490-3,,,,0,,,,,,,1,29963246,pdf,4326e17a3bfde7d2daada7c8caeec1f5,,,D:\\HDD4\\!genesis\\SPR_NEW_2013-12\\bok%3A978-3-662-34490-3.pdf,0,2000-01-01 01:00:00,2016-04-03 02:51:08,1138000/4326e17a3bfde7d2daada7c8caeec1f5-d.jpg,,
21252639,"Schaltungen von Gleich- und Wechselstromanlagen: Dynamomaschinen, Motoren und Transformatoren, Lichtanlagen, Kraftwerke und Umformerstationen Ein Lehr- und Hilfsbuch",,,,Dipl.-Ing. Emil Kosack (auth.),1922,1,Springer-Verlag Berlin Heidelberg,,171,0,German,,,,"978-3-662-42089-8,978-3-662-42356-1",,,,,,,10.1007/978-3-662-42356-1,,,,0,,,,,,,1,8441885,pdf,468e86308c6d5d6bb0127978532fc4be,,,D:\\HDD4\\!genesis\\SPR_NEW_2013-12\\bok%3A978-3-662-42356-1.pdf,0,2000-01-01 01:00:00,2016-04-03 02:51:08,1140000/468e86308c6d5d6bb0127978532fc4be-d.jpg,,
21252640,Der elektrische Landwirt: Ein Merkbüchlein in Frage und Antwort,,,,Dipl.-Ing. A. Vietze (auth.),1922,1,Springer-Verlag Berlin Heidelberg,,50,0,German,,,,"978-3-662-38736-8,978-3-662-39623-0",,,,,,,10.1007/978-3-662-39623-0,,,,0,,,,,,,1,3068268,pdf,f6554d04ab60bca08f8257dcd73deb13,,,D:\\HDD4\\!genesis\\SPR_NEW_2013-12\\bok%3A978-3-662-39623-0.pdf,0,2000-01-01 01:00:00,2016-04-03 02:51:08,1139000/f6554d04ab60bca08f8257dcd73deb13-d.jpg,,
21252641,Statik der Vierendeelträger,,,,Dr. -Ing. Karl Kriso (auth.),1922,1,Springer-Verlag Berlin Heidelberg,,298,0,German,,,,"978-3-662-34785-0,978-3-662-35106-2",,,,,,,10.1007/978-3-662-35106-2,,,,0,,,,,,,1,9655696,pdf,8b18f41affee88e160950b2eb257381b,,,D:\\HDD4\\!genesis\\SPR_NEW_2013-12\\bok%3A978-3-662-35106-2.pdf,0,2000-01-01 01:00:00,2016-04-03 02:51:08,1138000/8b18f41affee88e160950b2eb257381b-d.jpg,,
21252642,Der elektrische Landwirt: Ein Merkbüchlein in Frage und Antwort,,,,Dipl.-Ing. A. Vietze (auth.),1922,6,Springer-Verlag Berlin Heidelberg,,50,0,German,,,,"978-3-662-27680-8,978-3-662-29170-2",,,,,,,10.1007/978-3-662-29170-2,,,,0,,,,,,,1,3763536,pdf,d9c095c5ec0583ecdf99d21189f1eb58,,,D:\\HDD4\\!genesis\\SPR_NEW_2013-12\\bok%3A978-3-662-29170-2.pdf,0,2000-01-01 01:00:00,2016-04-03 02:51:08,1137000/d9c095c5ec0583ecdf99d21189f1eb58-d.jpg,,
21252643,"Die Verordnung über die schiedsgerichtliche Erhöhung von Preisen bei der Lieferung von elektrischer Arbeit, Gas und Leitungswasser: vom 1. Februar 1919/9. Juni 1922 nebst den zugehörigen weiteren Bestimmungen",,,,"Paul Ziekursch, Dr. R. Kauffmann (auth.)",1922,2,Springer-Verlag Berlin Heidelberg,,160,0,German,,,,"978-3-662-32261-1,978-3-662-33088-3",,,,,,,10.1007/978-3-662-33088-3,,,,0,,,,,,,1,10045252,pdf,170871e4e7e1a5903631639698c15399,,,D:\\HDD4\\!genesis\\SPR_NEW_2013-12\\bok%3A978-3-662-33088-3.pdf,0,2000-01-01 01:00:00,2016-04-03 02:51:08,1137000/170871e4e7e1a5903631639698c15399-d.jpg,,
21252644,Leitfaden der Baustoffkunde,,Teubners Technische Leitfäden,,Dr. Ing. E. h. M. Foerster (auth.),1922,1,Vieweg+Teubner Verlag,,230,0,German,,,,"978-3-663-19334-0,978-3-663-19472-9",,,,,,,10.1007/978-3-663-19472-9,,,,0,,,,,,,1,16357176,pdf,e4299fbfedf47fa99e5d893530932e23,,,D:\\HDD4\\!genesis\\SPR_NEW_2013-12\\bok%3A978-3-663-19472-9.pdf,0,2000-01-01 01:00:00,2016-04-03 02:51:08,1143000/e4299fbfedf47fa99e5d893530932e23-d.jpg,,
21252645,Beobachtungsbuch für markscheiderische Messungen,,,,"G. Schulte, W. Löhr (auth.), G. Schulte, W. Löhr (eds.)",1922,4,Springer-Verlag Berlin Heidelberg,,153,0,German,,,,"978-3-642-51251-3,978-3-642-51370-1",,,,,,,10.1007/978-3-642-51370-1,,,,0,,,,,,,1,8659086,pdf,de2f7d91fc64af1ab0cc81ff232dd29e,,,D:\\HDD4\\!genesis\\SPR_NEW_2013-12\\bok%3A978-3-642-51370-1.pdf,0,2000-01-01 01:00:00,2016-04-03 02:51:08,1135000/de2f7d91fc64af1ab0cc81ff232dd29e-d.jpg,,
21252646,Bau und Berechnung der Verbrennungskraftmaschinen: Eine Einführung,,,,Dipl.-Ing. Franz Seufert (auth.),1922,5,Springer-Verlag Berlin Heidelberg,,145,0,German,,,,"978-3-642-51914-7,978-3-642-51976-5",,,,,,,10.1007/978-3-642-51976-5,,,,0,,,,,,,1,6015346,pdf,692232b234a14e35de48f0010e68873a,,,D:\\HDD4\\!genesis\\SPR_NEW_2013-12\\bok%3A978-3-642-51976-5.pdf,0,2000-01-01 01:00:00,2016-04-03 02:51:08,1135000/692232b234a14e35de48f0010e68873a-d.jpg,,
21252647,Eisenbahnwagenbau: Erläuternde Beschreibung der verschiedenen Einrichtungen der Eisenbahnwagen unter Berücksichtigung der Eisenbahn-Bau- und Betriebs-Ordnung und der technischen Vereinbarungen des Vereins deutscher Eisenbahnverwaltungen,,Bücherei des Verbandes deutscher Eisenbahnfachschulen (E. V.) 5,,F. Behnke (auth.),1922,1,Vieweg+Teubner Verlag,,87,0,German,,,,"978-3-663-15466-2,978-3-663-16037-3",,,,,,,10.1007/978-3-663-16037-3,,,,0,,,,,,,1,9529268,pdf,bc891cb1e825284e727ffd122abed33d,,,D:\\HDD4\\!genesis\\SPR_NEW_2013-12\\bok%3A978-3-663-16037-3.pdf,0,2000-01-01 01:00:00,2016-04-03 02:51:08,1142000/bc891cb1e825284e727ffd122abed33d-d.jpg,,
21252648,Vereinfachte Schornsteinberechnung,,,,O. Hoffmann (auth.),1922,1,Springer-Verlag Berlin Heidelberg,,41,0,German,,,,"978-3-662-33421-8,978-3-662-33818-6",,,,,,,10.1007/978-3-662-33818-6,,,,0,,,,,,,1,2413778,pdf,8409d8606d2ec24e41f42d69655493f5,,,D:\\HDD4\\!genesis\\SPR_NEW_2013-12\\bok%3A978-3-662-33818-6.pdf,0,2000-01-01 01:00:00,2016-04-03 02:51:08,1138000/8409d8606d2ec24e41f42d69655493f5-d.jpg,,
21252649,Kompendium der Statik der Baukonstruktionen: Zweiter Band Die statisch unbestimmten Systeme,,,,Dr.-Ing. J. Pirlet (auth.),1923,1,Springer-Verlag Wien,,326,0,German,,,,"978-3-7091-3118-3,978-3-7091-3125-1",,,,,,,10.1007/978-3-7091-3125-1,,,,0,,,,,,,1,38622429,pdf,7feef75a751b3c63ca821b9a504399cb,,,D:\\HDD4\\!genesis\\SPR_NEW_2013-12\\bok%3A978-3-7091-3125-1.pdf,0,2000-01-01 01:00:00,2016-04-03 02:51:08,1143000/7feef75a751b3c63ca821b9a504399cb-d.jpg,,
21252650,G.H.A. Kröhnkes Taschenbuch zum Abstecken von Bögen auf Eisenbahn- und Weglinien,,,,R. Seifert (auth.),1923,16,Vieweg+Teubner Verlag,,128,0,German,,,,"978-3-663-15239-2,978-3-663-15803-5",,,,,,,10.1007/978-3-663-15803-5,,,,0,,,,,,,1,7098269,pdf,c06586f3f4c9442dce371687e125314b,,,D:\\HDD4\\!genesis\\SPR_NEW_2013-12\\bok%3A978-3-663-15803-5.pdf,0,2000-01-01 01:00:00,2016-04-03 02:51:08,1142000/c06586f3f4c9442dce371687e125314b-d.jpg,,
21252651,Der Eingelenkbogen für massive Straßenbrücken: Eine statisch-wirtschaftliche Untersuchung,,,,Dipl.-Ingenieur Ernst Burgdorfer (auth.),1923,1,Springer-Verlag Berlin Heidelberg,,"VIII, 160 S.",0,German,,,,"978-3-662-27681-5,978-3-662-29171-9",,,,,,,10.1007/978-3-662-29171-9,,,,0,,,,,,,1,12798713,pdf,0ae14bb6bcf0681d19a2ac553718459b,,,D:\\HDD4\\!genesis\\SPR_NEW_2013-12\\bok%3A978-3-662-29171-9.pdf,0,2000-01-01 01:00:00,2016-04-03 02:51:08,1137000/0ae14bb6bcf0681d19a2ac553718459b-d.jpg,,
21252652,Kreisevolventen und Ganze Algebraische Funktionen,,Mathematisch-Physikalische Bibliothek,,Dr. H. Onnen Sr. (auth.),1923,1,Vieweg+Teubner Verlag,,55,0,German,,,,"978-3-663-15334-4,978-3-663-15902-5",,,,,,,10.1007/978-3-663-15902-5,,,,0,,,,,,,1,5400179,pdf,1a7313495e8199eb279eb7bffd1a4b2b,,,D:\\HDD4\\!genesis\\SPR_NEW_2013-12\\bok%3A978-3-663-15902-5.pdf,0,2000-01-01 01:00:00,2016-04-03 02:51:08,1142000/1a7313495e8199eb279eb7bffd1a4b2b-d.jpg,,
21252653,Regeln für die Bewertung und Prüfung von Transformatoren (R.E.T. 1923),,,,(auth.),1923,1,Springer-Verlag Berlin Heidelberg,,38,0,German,,,,"978-3-662-33472-0,978-3-662-33870-4",,,,,,,10.1007/978-3-662-33870-4,,,,0,,,,,,,1,2921412,pdf,14eda8d9141b60c6beeb0056b14dc33c,,,D:\\HDD4\\!genesis\\SPR_NEW_2013-12\\bok%3A978-3-662-33870-4.pdf,0,2000-01-01 01:00:00,2016-04-03 02:51:08,1138000/14eda8d9141b60c6beeb0056b14dc33c-d.jpg,,
21252654,"Werkstattbau: Anordnung, Gestaltung und Einrichtung von Werkanlagen Nach Massgabe der Betriebserfordernisse",,,,Dr.-Ing. Carl Theodor Buff (auth.),1923,2,Springer-Verlag Berlin Heidelberg,,237,0,German,,,,"978-3-642-47143-8,978-3-642-47428-6",,,,,,,10.1007/978-3-642-47428-6,,,,0,,,,,,,1,16539626,pdf,f632e135a22c6cb989ba2d985585c503,,,D:\\HDD4\\!genesis\\SPR_NEW_2013-12\\bok%3A978-3-642-47428-6.pdf,0,2000-01-01 01:00:00,2016-04-03 02:51:08,1134000/f632e135a22c6cb989ba2d985585c503-d.jpg,,
21252655,"Der Aufbau der Eisen- und eisenverarbeitenden Industrie-Konzerne Deutschlands: Ursachen, Formen und Wirkungen des Zusammenschlusses unter besonderer Berücksichtigung der Maschinen-Industrie",,,,Dr.-Ing. Arnold Troß (auth.),1923,1,Springer-Verlag Berlin Heidelberg,,231,0,German,,,,"978-3-662-38786-3,978-3-662-39684-1",,,,,,,10.1007/978-3-662-39684-1,,,,0,,,,,,,1,16055715,pdf,ecf240ed964279920aba53a31ac14357,,,D:\\HDD4\\!genesis\\SPR_NEW_2013-12\\bok%3A978-3-662-39684-1.pdf,0,2000-01-01 01:00:00,2016-04-03 02:51:08,1139000/ecf240ed964279920aba53a31ac14357-d.jpg,,
21252656,Die Pumpen: Ein Leitfaden für höhere Maschinenbauschulen und zum Selbstunterricht,,,,"H. Matthießen, E. Fuchslocher (auth.)",1923,1,Springer-Verlag Berlin Heidelberg,,92,0,German,,,,"978-3-662-42852-8,978-3-662-43135-1",,,,,,,10.1007/978-3-662-43135-1,,,,0,,,,,,,1,6147908,pdf,5d15b0bcd4868e36d8c4f3def08268cc,,,D:\\HDD4\\!genesis\\SPR_NEW_2013-12\\bok%3A978-3-662-43135-1.pdf,0,2000-01-01 01:00:00,2016-04-03 02:51:08,1140000/5d15b0bcd4868e36d8c4f3def08268cc-d.jpg,,
21252657,Der Eingelenkbogen für massive Straßenbrücken: Eine statisch-wirtschaftliche Untersuchung,,,,Dr.sc.techn. Ernst Burgdorfer (auth.),1923,1,Springer-Verlag Berlin Heidelberg,,176,0,German,,,,"978-3-662-38738-2,978-3-662-39625-4",,,,,,,10.1007/978-3-662-39625-4,,,,0,,,,,,,1,8857792,pdf,8c4ae46b7fd4d4b93415ef2aa9c29d6f,,,D:\\HDD4\\!genesis\\SPR_NEW_2013-12\\bok%3A978-3-662-39625-4.pdf,0,2000-01-01 01:00:00,2016-04-03 02:51:08,1139000/8c4ae46b7fd4d4b93415ef2aa9c29d6f-d.jpg,,
21252658,Regeln für die Bewertung und Prüfung von elektrischen Maschinen (R.E.M. 1923): Vorschriften und Normen des Verbandes Deutscher Elektrotechniker,,,,(auth.),1923,1,Springer-Verlag Berlin Heidelberg,,41,0,German,,,,"978-3-662-33473-7,978-3-662-33871-1",,,,,,,10.1007/978-3-662-33871-1,,,,0,,,,,,,1,1873392,pdf,ef6a63e16690577e2f1cc5a30325294f,,,D:\\HDD4\\!genesis\\SPR_NEW_2013-12\\bok%3A978-3-662-33871-1.pdf,0,2000-01-01 01:00:00,2016-04-03 02:51:08,1138000/ef6a63e16690577e2f1cc5a30325294f-d.jpg,,
21252659,Kolben- und Turbo-Kompressoren: Theorie und Konstruktion,,,,P. Ostertag (auth.),1923,3,Springer-Verlag Berlin Heidelberg,,313,0,German,,,,"978-3-662-40656-4,978-3-662-41136-0",,,,,,,10.1007/978-3-662-41136-0,,,,0,,,,,,,1,24710858,pdf,069dd4394baac3127d361686791a6c76,,,D:\\HDD4\\!genesis\\SPR_NEW_2013-12\\bok%3A978-3-662-41136-0.pdf,0,2000-01-01 01:00:00,2016-04-03 02:51:08,1140000/069dd4394baac3127d361686791a6c76-d.jpg,,
21252660,Wärmewirtschaftsfragen,,Monographien zur Feuerungstechnik 5,,L. Litinsky (auth.),1923,1,Springer-Verlag Berlin Heidelberg,,197,0,German,,,,"978-3-662-33391-4,978-3-662-33788-2",,,,,,,10.1007/978-3-662-33788-2,,,,0,,,,,,,1,8969960,pdf,850f4e6aefb06175138d18c1716837c3,,,D:\\HDD4\\!genesis\\SPR_NEW_2013-12\\bok%3A978-3-662-33788-2.pdf,0,2000-01-01 01:00:00,2016-04-03 02:51:08,1138000/850f4e6aefb06175138d18c1716837c3-d.jpg,,
21252661,Grundzüge der Starkstromtechnik: Für Unterricht und Praxis,,,,Dr.-Ing. K. Hoerner (auth.),1923,1,Springer-Verlag Berlin Heidelberg,,267,0,German,,,,"978-3-662-35506-0,978-3-662-36334-8",,,,,,,10.1007/978-3-662-36334-8,,,,0,,,,,,,1,15878991,pdf,05b99171197ad338c13b94e2aff74a36,,,D:\\HDD4\\!genesis\\SPR_NEW_2013-12\\bok%3A978-3-662-36334-8.pdf,0,2000-01-01 01:00:00,2016-04-03 02:51:08,1138000/05b99171197ad338c13b94e2aff74a36-d.jpg,,
21252662,Allgemeine Maschinenlehre: Vorlesungen Über Arbeitsgewinnung und Kraftmaschinen,,,,Hugo Fischer (auth.),1923,1,Springer-Verlag Berlin Heidelberg,,236,0,German,,,,"978-3-662-33745-5,978-3-662-34143-8",,,,,,,10.1007/978-3-662-34143-8,,,,0,,,,,,,1,15695363,pdf,20ca27e1ddbfaf52aa15beb4c9a90384,,,D:\\HDD4\\!genesis\\SPR_NEW_2013-12\\bok%3A978-3-662-34143-8.pdf,0,2000-01-01 01:00:00,2016-04-03 02:51:08,1138000/20ca27e1ddbfaf52aa15beb4c9a90384-d.jpg,,
21252663,Organisation und Betriebsführung der Betontiefbaustellen,,,,Dr.-Ing. A. Agatz (auth.),1923,1,Springer-Verlag Berlin Heidelberg,,97,0,German,,,,"978-3-662-31347-3,978-3-662-31552-1",,,,,,,10.1007/978-3-662-31552-1,,,,0,,,,,,,1,8763561,pdf,759fdb5131aa9ae44706d0a6f27f1f80,,,D:\\HDD4\\!genesis\\SPR_NEW_2013-12\\bok%3A978-3-662-31552-1.pdf,0,2000-01-01 01:00:00,2016-04-03 02:51:08,1137000/759fdb5131aa9ae44706d0a6f27f1f80-d.jpg,,
21252664,Die Schachtfördermaschinen: Erster Teil Die Grundlagen des Fördermaschinenwesens,,Die Bergwerksmaschinen,,"Dr. Fritz Schmidt (auth.), Dr. Fritz Schmidt, Ernst Förster (eds.)",1923,2,Springer-Verlag Berlin Heidelberg,,219,0,German,,,,"978-3-662-34319-7,978-3-662-34590-0",,,,,,,10.1007/978-3-662-34590-0,,,,0,,,,,,,1,14693038,pdf,8168e0e59e2099be1536eec73e7a2eb3,,,D:\\HDD4\\!genesis\\SPR_NEW_2013-12\\bok%3A978-3-662-34590-0.pdf,0,2000-01-01 01:00:00,2016-04-03 02:51:08,1138000/8168e0e59e2099be1536eec73e7a2eb3-d.jpg,,
21252665,Werkstoffprüfung für Maschinen- und Eisenbau,,,,"Dr. G. Schulze, Dipl.-Ing. E. Vollhardt (auth.)",1923,1,Springer-Verlag Berlin Heidelberg,,197,0,German,,,,"978-3-662-39006-1,978-3-662-39976-7",,,,,,,10.1007/978-3-662-39976-7,,,,0,,,,,,,1,8997262,pdf,7b48834ba1fbdf7dd6f7470320002fef,,,D:\\HDD4\\!genesis\\SPR_NEW_2013-12\\bok%3A978-3-662-39976-7.pdf,0,2000-01-01 01:00:00,2016-04-03 02:51:08,1139000/7b48834ba1fbdf7dd6f7470320002fef-d.jpg,,
21252666,Teilkopfarbeiten,,Werkstattbücher,,Dr.-Ing. W. Pockrandt (auth.),1923,7,Springer-Verlag Berlin Heidelberg,,51,0,German,,,,"978-3-662-37566-2,978-3-662-38345-2",,,,,,,10.1007/978-3-662-38345-2,,,,0,,,,,,,1,4034173,pdf,cdae72266a59575d00593b9e9ae8fe79,,,D:\\HDD4\\!genesis\\SPR_NEW_2013-12\\bok%3A978-3-662-38345-2.pdf,0,2000-01-01 01:00:00,2016-04-03 02:51:08,1139000/cdae72266a59575d00593b9e9ae8fe79-d.jpg,,
21252667,Die moderne Stanzerei: Ein Buch für die Praxis mit Aufgaben und Lösungen,,,,Eugen Kaczmarek (auth.),1923,1,Springer-Verlag Berlin Heidelberg,,52,0,German,,,,"978-3-662-40893-3,978-3-662-41377-7",,,,,,,10.1007/978-3-662-41377-7,,,,0,,,,,,,1,2962317,pdf,c8b8d01fff427cd00f5c8ac091d59482,,,D:\\HDD4\\!genesis\\SPR_NEW_2013-12\\bok%3A978-3-662-41377-7.pdf,0,2000-01-01 01:00:00,2016-04-03 02:51:08,1140000/c8b8d01fff427cd00f5c8ac091d59482-d.jpg,,
21252668,Die Praxis des Eisenhüttenchemikers: Anleitung zur chemischen Untersuchung des Eisens und der Eisenerze,,,,Dr. Carl Krug (auth.),1923,2,Springer-Verlag Berlin Heidelberg,,213,0,German,,,,"978-3-662-36040-8,978-3-662-36870-1",,,,,,,10.1007/978-3-662-36870-1,,,,0,,,,,,,1,17217810,pdf,35dc908ac81b275c189c813d5b801ec1,,,D:\\HDD4\\!genesis\\SPR_NEW_2013-12\\bok%3A978-3-662-36870-1.pdf,0,2000-01-01 01:00:00,2016-04-03 02:51:08,1139000/35dc908ac81b275c189c813d5b801ec1-d.jpg,,
21252669,"Eisen im Hochbau: Ein Taschenbuch mit Zeichnungen, Zusammenstellungen, technischen Vorschriften und Angaben über die Verwendung von Eisen im Hochbau",,,,"A.-G. Stahlwerks-Verband (auth.), A.-G. Stahlwerks-Verband (eds.)",1924,6,Springer-Verlag Berlin Heidelberg,,608,0,German,,,,"978-3-642-50631-4,978-3-642-50941-4",,,,,,,10.1007/978-3-642-50941-4,,,,0,,,,,,,1,38138084,pdf,16ce50f1404964ddb00fcb323f45ce11,,,D:\\HDD4\\!genesis\\SPR_NEW_2013-12\\bok%3A978-3-642-50941-4.pdf,0,2000-01-01 01:00:00,2016-04-03 02:51:08,1135000/16ce50f1404964ddb00fcb323f45ce11-d.jpg,,
21252670,Vorschriften für die Errichtung und den Betrieb elektrischer Starkstromanlagen nebst Ausführungsregeln,,,,(auth.),1924,1,Springer-Verlag Berlin Heidelberg,,59,0,German,,,,"978-3-662-27989-2,978-3-662-29497-0",,,,,,,10.1007/978-3-662-29497-0,,,,0,,,,,,,1,2729791,pdf,cd2c4244380074b7adf9837378427f1e,,,D:\\HDD4\\!genesis\\SPR_NEW_2013-12\\bok%3A978-3-662-29497-0.pdf,0,2000-01-01 01:00:00,2016-04-03 02:51:08,1137000/cd2c4244380074b7adf9837378427f1e-d.jpg,,
21252671,Das Kalkbrennen: Mit Besonderer Berücksichtigung des Schachtofens mit Mischfeuerung und die Gewinnung von Kohlensäurehaltigen Gasen,,,,Berthold Block (auth.),1924,2,Springer-Verlag Berlin Heidelberg,,528,0,German,,,,"978-3-662-33722-6,978-3-662-34120-9",,,,,,,10.1007/978-3-662-34120-9,,,,0,,,,,,,1,33176248,pdf,96b90ca3160fc61a6c8c334eb2fc4cdd,,,D:\\HDD4\\!genesis\\SPR_NEW_2013-12\\bok%3A978-3-662-34120-9.pdf,0,2000-01-01 01:00:00,2016-04-03 02:51:08,1138000/96b90ca3160fc61a6c8c334eb2fc4cdd-d.jpg,,
21252672,"Die Ventilatoren: Berechnung, Entwurf und Anwendung",,,,Dr. sc. techn. E. Wiesmann (auth.),1924,1,Springer-Verlag Berlin Heidelberg,,204,0,German,,,,"978-3-662-36011-8,978-3-662-36841-1",,,,,,,10.1007/978-3-662-36841-1,,,,0,,,,,,,1,7570734,pdf,0eb3a8af1750fa43425bdfbae9556fba,,,D:\\HDD4\\!genesis\\SPR_NEW_2013-12\\bok%3A978-3-662-36841-1.pdf,0,2000-01-01 01:00:00,2016-04-03 02:51:08,1139000/0eb3a8af1750fa43425bdfbae9556fba-d.jpg,,
21252673,Großgasversorgung: Technik und Wirtschaft der Fernleitung der Gase unter hohem Druck als Grundlage für eine Großgasverwertung der Kohlenenergie in Deutschland mit zentraler Gaserzeugung in den Steinkohlen- und Braunkohlen-Revieren,,Monographien zur Feuerungstechnik 6,,Rich. F. Starke (auth.),1924,1,Springer-Verlag Berlin Heidelberg,,276 S.,0,German,,,,"978-3-642-90426-4,978-3-642-92283-1",,,,,,,10.1007/978-3-642-92283-1,,,,0,,,,,,,1,10369837,pdf,0604c246e89866d77be78ca25fa07070,,,D:\\HDD4\\!genesis\\SPR_NEW_2013-12\\bok%3A978-3-642-92283-1.pdf,0,2000-01-01 01:00:00,2016-04-03 02:51:08,1135000/0604c246e89866d77be78ca25fa07070-d.jpg,,
21252674,Modelltischlerei: Erster Teil: Allgemeines. Einfachere Modelle,,Werkstattbücher 14,,Richard Löwer (auth.),1924,1,Springer-Verlag Berlin Heidelberg,,58,0,German,,,,"978-3-662-41762-1,978-3-662-41907-6",,,,,,,10.1007/978-3-662-41907-6,,,,0,,,,,,,1,3683877,pdf,4778aee4690865fb058dc0a3aeccab6b,,,D:\\HDD4\\!genesis\\SPR_NEW_2013-12\\bok%3A978-3-662-41907-6.pdf,0,2000-01-01 01:00:00,2016-04-03 02:51:08,1140000/4778aee4690865fb058dc0a3aeccab6b-d.jpg,,
21252675,Die Theorie elastischer Gewebe und ihre Anwendung auf die Berechnung biegsamer Platten: Unter besonderer Berücksichtigung der trägerlosen Pilzdecken,,,,Dr.-Ing. H. Marcus (auth.),1924,2,Springer-Verlag Berlin Heidelberg,,381,0,German,,,,"978-3-662-37732-1,978-3-662-38549-4",,,,,,,10.1007/978-3-662-38549-4,,,,0,,,,,,,1,44026822,pdf,23dd40c7ce6ce14a109fbf6e04505315,,,D:\\HDD4\\!genesis\\SPR_NEW_2013-12\\bok%3A978-3-662-38549-4.pdf,0,2000-01-01 01:00:00,2016-04-03 02:51:08,1139000/23dd40c7ce6ce14a109fbf6e04505315-d.jpg,,
21252676,Höchstdruckdampf: Eine Untersuchung über die wirtschaftlichen und technischen Aussichten der Erzeugung und Verwertung von Dampf sehr hoher Spannung in Großbetrieben,,,,Dr.-Ing. Friedrich Münzinger (auth.),1924,1,Springer-Verlag Berlin Heidelberg,,154,0,German,,,,"978-3-662-27123-0,978-3-662-28606-7",,,,,,,10.1007/978-3-662-28606-7,,,,0,,,,,,,1,9422820,pdf,bb74da08a384078754cd6660802f16b1,,,D:\\HDD4\\!genesis\\SPR_NEW_2013-12\\bok%3A978-3-662-28606-7.pdf,0,2000-01-01 01:00:00,2016-04-03 02:51:08,1137000/bb74da08a384078754cd6660802f16b1-d.jpg,,
21252677,Die Rechenmaschinen und das Maschinenrechnen,,,,Dipl.-Ing. K. Lenz (auth.),1924,2,Vieweg+Teubner Verlag,,128,0,German,,,,"978-3-663-15504-1,978-3-663-16076-2",,,,,,,10.1007/978-3-663-16076-2,,,,0,,,,,,,1,9523247,pdf,ba23042e5e6af909d75e46dfa54f580e,,,D:\\HDD4\\!genesis\\SPR_NEW_2013-12\\bok%3A978-3-663-16076-2.pdf,0,2000-01-01 01:00:00,2016-04-03 02:51:08,1142000/ba23042e5e6af909d75e46dfa54f580e-d.jpg,,
21252678,Maschinenuntersuchungen und das Verhalten der Maschinen im Betriebe: Ein Handbuch für Betriebsleiter ein Leitfaden zum Gebrauch bei Abnahmeversuchen und für den Unterricht an Maschinenlaboratorien,,,,Professor Dr.-Ing. A. Gramberg (auth.),1924,3,Springer-Verlag Berlin Heidelberg,,625,0,German,,,,"978-3-662-38847-1,978-3-662-39767-1",,,,,,,10.1007/978-3-662-39767-1,,,,0,,,,,,,1,28535470,pdf,45f9d293972cc1a1b299848c7357787d,,,D:\\HDD4\\!genesis\\SPR_NEW_2013-12\\bok%3A978-3-662-39767-1.pdf,0,2000-01-01 01:00:00,2016-04-03 02:51:08,1139000/45f9d293972cc1a1b299848c7357787d-d.jpg,,
21252679,Anleitung zur Berechnung einer Dampfmaschine: Ein Hilfsbuch für den Unterricht im Entwerfen von Dampfmaschinen,,,,R. Graßmann (auth.),1924,4,Springer-Verlag Berlin Heidelberg,,665,0,German,,,,"978-3-662-38626-2,978-3-662-39482-3",,,,,,,10.1007/978-3-662-39482-3,,,,0,,,,,,,1,32595187,pdf,230c4858e943bbae404c9deca10b49d4,,,D:\\HDD4\\!genesis\\SPR_NEW_2013-12\\bok%3A978-3-662-39482-3.pdf,0,2000-01-01 01:00:00,2016-04-03 02:51:08,1139000/230c4858e943bbae404c9deca10b49d4-d.jpg,,
21252680,Die Jacquardweberei,,,,Ing. Prof. Heinrich Kinzer (auth.),1924,5,Vieweg+Teubner Verlag,,148,0,German,,,,"978-3-663-15237-8,978-3-663-15800-4",,,,,,,10.1007/978-3-663-15800-4,,,,0,,,,,,,1,9849861,pdf,b9db215f34dc199acdb05f6061df4269,,,D:\\HDD4\\!genesis\\SPR_NEW_2013-12\\bok%3A978-3-663-15800-4.pdf,0,2000-01-01 01:00:00,2016-04-03 02:51:08,1142000/b9db215f34dc199acdb05f6061df4269-d.jpg,,
21252681,Haus der Elektrotechnik,,,,(auth.),1924,1,Springer-Verlag Berlin Heidelberg,,44,0,German,,,,"978-3-662-27141-4,978-3-662-28624-1",,,,,,,10.1007/978-3-662-28624-1,,,,0,,,,,,,1,2294969,pdf,6628d4365b4fd14e24d2247cbbd58e21,,,D:\\HDD4\\!genesis\\SPR_NEW_2013-12\\bok%3A978-3-662-28624-1.pdf,0,2000-01-01 01:00:00,2016-04-03 02:51:08,1137000/6628d4365b4fd14e24d2247cbbd58e21-d.jpg,,
21252682,Der Niederfrequenz-Verstärker,,Bibliothek des Radio-Amateurs 11,,Otto Kappelmayer (auth.),1924,1,Springer-Verlag Berlin Heidelberg,,91,0,German,,,,"978-3-662-27662-4,978-3-662-29152-8",,,,,,,10.1007/978-3-662-29152-8,,,,0,,,,,,,1,10407496,pdf,ca98093c1004ed2f4be0444a33aae627,,,D:\\HDD4\\!genesis\\SPR_NEW_2013-12\\bok%3A978-3-662-29152-8.pdf,0,2000-01-01 01:00:00,2016-04-03 02:51:08,1137000/ca98093c1004ed2f4be0444a33aae627-d.jpg,,
21252683,Fachkunde für Maschinenbauerklassen an gewerblichen Berufsschulen: III. Teil Kraftmaschinen,,Lehrmittel für gewerbliche Berufsschulen,,"Uhrmann, Schuth (auth.)",1924,2,Vieweg+Teubner Verlag,,90,0,German,,,,"978-3-663-15429-7,978-3-663-16000-7",,,,,,,10.1007/978-3-663-16000-7,,,,0,,,,,,,1,7228771,pdf,3e72b13734ac15ec25caa2d3ed3ac10d,,,D:\\HDD4\\!genesis\\SPR_NEW_2013-12\\bok%3A978-3-663-16000-7.pdf,0,2000-01-01 01:00:00,2016-04-03 02:51:08,1142000/3e72b13734ac15ec25caa2d3ed3ac10d-d.jpg,,
21252684,Feuerungsuntersuchungen des Vereins für Feuerungsbetrieb und Rauchbekämpfung in Hamburg,,,,F. Haier (auth.),1906,1,Springer-Verlag Berlin Heidelberg,,183,0,German,,,,"978-3-642-89790-0,978-3-642-91647-2",,,,,,,10.1007/978-3-642-91647-2,,,,0,,,,,,,1,6406790,pdf,2bedf1ce4a4ae24b2a8def8f6c59fdf5,,,D:\\HDD4\\!genesis\\SPR_NEW_2013-12\\bok%3A978-3-642-91647-2.pdf,0,2000-01-01 01:00:00,2016-04-03 02:51:08,1135000/2bedf1ce4a4ae24b2a8def8f6c59fdf5-d.jpg,,
21252685,Technisches Zeichnen aus der Vorstellung mit Rücksicht auf die Herstellung in der Werkstatt,,,,Rudolf Krause (auth.),1906,1,Springer-Verlag Berlin Heidelberg,,73,0,German,,,,"978-3-662-31841-6,978-3-662-32668-8",,,,,,,10.1007/978-3-662-32668-8,,,,0,,,,,,,1,8033299,pdf,b5a872649fc0cf350d96622a991cd638,,,D:\\HDD4\\!genesis\\SPR_NEW_2013-12\\bok%3A978-3-662-32668-8.pdf,0,2000-01-01 01:00:00,2016-04-03 02:51:08,1137000/b5a872649fc0cf350d96622a991cd638-d.jpg,,
21252686,Die Preisstellung beim Verkaufe Elektrischer Energie,,,,Gustav Siegel (auth.),1906,1,Springer-Verlag Berlin Heidelberg,,200,0,German,,,,"978-3-662-32317-5,978-3-662-33144-6",,,,,,,10.1007/978-3-662-33144-6,,,,0,,,,,,,1,9656440,pdf,fc2b4fa6b2b985d1c684b75443c9b849,,,D:\\HDD4\\!genesis\\SPR_NEW_2013-12\\bok%3A978-3-662-33144-6.pdf,0,2000-01-01 01:00:00,2016-04-03 02:51:08,1137000/fc2b4fa6b2b985d1c684b75443c9b849-d.jpg,,
21252687,"Die Eisenbahnen: Allgemeine Bestimmungen — Verwaltung der Staatseisenbahnen, Staatsaufsicht über Privateisenbahnen — Beamte und Arbeiter — Finanzen, Steuern — Eisenbahnbau, Grunderwerb und Rechtsverhältnisse des Grundeigentums — Eisenbahnbetrieb — Eisenbahnverkehr — Verpflichtungen der Eisenbahnen im Interesse der Landesverteidigung — Post- und Telegraphenwesen — Zollwesen, Handelsverträge",,Handbuch der Gesetzgebung in Preußen und dem Deutschen Reiche 19,,K. Fritsch (auth.),1906,1,Springer-Verlag Berlin Heidelberg,,991,0,German,,,,"978-3-642-50589-8,978-3-642-50899-8",,,,,,,10.1007/978-3-642-50899-8,,,,0,,,,,,,1,62049800,pdf,427c89daa548cfa39efc8f4bd547d386,,,D:\\HDD4\\!genesis\\SPR_NEW_2013-12\\bok%3A978-3-642-50899-8.pdf,0,2000-01-01 01:00:00,2016-04-03 02:51:08,1135000/427c89daa548cfa39efc8f4bd547d386-d.jpg,,
21252688,Werkstättenbuchführung für moderne Fabrikbetriebe,,,,C. M. Lewin (auth.),1906,1,Springer-Verlag Berlin Heidelberg,,164,0,German,,,,"978-3-662-42664-7,978-3-662-42941-9",,,,,,,10.1007/978-3-662-42941-9,,,,0,,,,,,,1,7545526,pdf,d46f7cd1d01b3f0e46dfce13583e02a2,,,D:\\HDD4\\!genesis\\SPR_NEW_2013-12\\bok%3A978-3-662-42941-9.pdf,0,2000-01-01 01:00:00,2016-04-03 02:51:08,1140000/d46f7cd1d01b3f0e46dfce13583e02a2-d.jpg,,
21252689,Die Zentrifugalpumpen mit besonderer Berücksichtigung der Schaufelschnitte,,,,Dipl.-Ing. Fritz Neumann (auth.),1906,1,Springer-Verlag Berlin Heidelberg,,208,0,German,,,,"978-3-662-37725-3,978-3-662-38542-5",,,,,,,10.1007/978-3-662-38542-5,,,,0,,,,,,,1,8451776,pdf,503b37bd8287702303d57b0061f5a40e,,,D:\\HDD4\\!genesis\\SPR_NEW_2013-12\\bok%3A978-3-662-38542-5.pdf,0,2000-01-01 01:00:00,2016-04-03 02:51:08,1139000/503b37bd8287702303d57b0061f5a40e-d.jpg,,
21252690,Hilfsbuch für Dampfmaschinen-Techniker,,,,"Josef Hrabák (auth.), Josef Hrabák (eds.)",1906,4,Springer-Verlag Berlin Heidelberg,,271,0,German,,,,"978-3-662-33561-1,978-3-662-33959-6",,,,,,,10.1007/978-3-662-33959-6,,,,0,,,,,,,1,23169360,pdf,40e7f0bbec36e17b4cbfbeaa916f34d7,,,D:\\HDD4\\!genesis\\SPR_NEW_2013-12\\bok%3A978-3-662-33959-6.pdf,0,2000-01-01 01:00:00,2016-04-03 02:51:08,1138000/40e7f0bbec36e17b4cbfbeaa916f34d7-d.jpg,,
21252691,Die Pumpen: Berechnung und Ausführung der für die Förderung von Flüssigkeiten gebräuchlichen Maschinen,,,,"K. Hartmann, J. O. Knoke, H. Berg (auth.)",1906,3,Springer-Verlag Berlin Heidelberg,,655,0,German,,,,"978-3-662-40842-1,978-3-662-41326-5",,,,,,,10.1007/978-3-662-41326-5,,,,0,,,,,,,1,34287874,pdf,25a027ebdcca614dcf4ab22b43165fa5,,,D:\\HDD4\\!genesis\\SPR_NEW_2013-12\\bok%3A978-3-662-41326-5.pdf,0,2000-01-01 01:00:00,2016-04-03 02:51:08,1140000/25a027ebdcca614dcf4ab22b43165fa5-d.jpg,,
21252692,Der Grubenausbau,,,,Hans Bansen (auth.),1906,1,Springer-Verlag Berlin Heidelberg,,279,0,German,,,,"978-3-662-38726-9,978-3-662-39613-1",,,,,,,10.1007/978-3-662-39613-1,,,,0,,,,,,,1,17899228,pdf,0836098b5c2c6d28841ab6743ed4ba3b,,,D:\\HDD4\\!genesis\\SPR_NEW_2013-12\\bok%3A978-3-662-39613-1.pdf,0,2000-01-01 01:00:00,2016-04-03 02:51:08,1139000/0836098b5c2c6d28841ab6743ed4ba3b-d.jpg,,
21252693,Elektrische und magnetische Messungen und Messinstrumente,,,,"H. S. Hallo, H. W. Land (auth.)",1906,1,Springer-Verlag Berlin Heidelberg,,533,0,German,,,,"978-3-662-35929-7,978-3-662-36759-9",,,,,,,10.1007/978-3-662-36759-9,,,,0,,,,,,,1,16986625,pdf,b13a8011ed3a77e15baed080ae82d0e8,,,D:\\HDD4\\!genesis\\SPR_NEW_2013-12\\bok%3A978-3-662-36759-9.pdf,0,2000-01-01 01:00:00,2016-04-03 02:51:08,1138000/b13a8011ed3a77e15baed080ae82d0e8-d.jpg,,
21252694,Beitrag zur Bestimmung der Formveränderung gekröpfter Kurbelwellen,,,,Georg Duffing (auth.),1906,1,Springer-Verlag Berlin Heidelberg,,54,0,German,,,,"978-3-662-39234-8,978-3-662-40248-1",,,,,,,10.1007/978-3-662-40248-1,,,,0,,,,,,,1,3560482,pdf,e3c47fed93af0c58668d6e2b2d996ea5,,,D:\\HDD4\\!genesis\\SPR_NEW_2013-12\\bok%3A978-3-662-40248-1.pdf,0,2000-01-01 01:00:00,2016-04-03 02:51:08,1139000/e3c47fed93af0c58668d6e2b2d996ea5-d.jpg,,
21252695,Einführung in die Festigkeitslehre nebst Aufgaben aus dem Maschinenbau und der Baukonstruktion: Ein Lehrbuch für Maschinenbauschulen und andere technische Lehranstalten sowie zum Selbstunterricht und für die Praxis,,,,Ernst Wehnert (auth.),1906,1,Springer-Verlag Berlin Heidelberg,,251,0,German,,,,"978-3-662-35975-4,978-3-662-36805-3",,,,,,,10.1007/978-3-662-36805-3,,,,0,,,,,,,1,9926821,pdf,77892097e168935b768fc65e83733a46,,,D:\\HDD4\\!genesis\\SPR_NEW_2013-12\\bok%3A978-3-662-36805-3.pdf,0,2000-01-01 01:00:00,2016-04-03 02:51:08,1139000/77892097e168935b768fc65e83733a46-d.jpg,,
21252696,Jahrbuch der Schiffbautechnischen Gesellschaft: Siebenter Band,,,,(auth.),1906,1,Springer-Verlag Berlin Heidelberg,,725,0,German,,,,"978-3-642-47096-7,978-3-642-47334-0",,,,,,,10.1007/978-3-642-47334-0,,,,0,,,,,,,1,43932182,pdf,4703fecc6c676925cda00ad25ef206d7,,,D:\\HDD4\\!genesis\\SPR_NEW_2013-12\\bok%3A978-3-642-47334-0.pdf,0,2000-01-01 01:00:00,2016-04-03 02:51:08,1134000/4703fecc6c676925cda00ad25ef206d7-d.jpg,,
21252697,Praktisches Arbeiten im Brauereilaboratorium: Kurze Anleitung mit Beispielen und Berechnungen zusammengestellt,,,,Dr. Carl Kipke (auth.),1906,1,Springer-Verlag Berlin Heidelberg,,101,0,German,,,,"978-3-662-31916-1,978-3-662-32743-2",,,,,,,10.1007/978-3-662-32743-2,,,,0,,,,,,,1,3441802,pdf,a9ccda241040ea0c984eede9950b8f64,,,D:\\HDD4\\!genesis\\SPR_NEW_2013-12\\bok%3A978-3-662-32743-2.pdf,0,2000-01-01 01:00:00,2016-04-03 02:51:08,1137000/a9ccda241040ea0c984eede9950b8f64-d.jpg,,
21252698,"Die Lokomotivantriebe bei Einphasenwechselstrom: Eine Untersuchung über Zusammenhänge von Motordimensionierung, Getriebeanordnung und Grenzleistung bei Einphasen-Vollbahnlokomotiven",,,,Dr.-Ing. Engelbert Wist (auth.),1925,1,Springer-Verlag Berlin Heidelberg,,105,0,German,,,,"978-3-662-32356-4,978-3-662-33183-5",,,,,,,10.1007/978-3-662-33183-5,,,,0,,,,,,,1,6058143,pdf,6f472aaa784172e02df19e7b41de6c18,,,D:\\HDD4\\!genesis\\SPR_NEW_2013-12\\bok%3A978-3-662-33183-5.pdf,0,2000-01-01 01:00:00,2016-04-03 02:51:08,1138000/6f472aaa784172e02df19e7b41de6c18-d.jpg,,
21252699,Die hydraulischen Einrichtungen des Maschinen-Laboratoriums der Staatl. Württ. Höheren Maschinenbauschule in Eßlingen am Neckar: Mit einem Anhang Die Messung kleinster Wassergeschwindigkeiten mit dem hydrometrischen Flügel,,,,Prof. Dr.-Ing. A. Staus (auth.),1925,1,Springer-Verlag Berlin Heidelberg,,63,0,German,,,,"978-3-662-31423-4,978-3-662-31630-6",,,,,,,10.1007/978-3-662-31630-6,,,,0,,,,,,,1,3332476,pdf,22c8f6d69e5e36551051083cec4996c6,,,D:\\HDD4\\!genesis\\SPR_NEW_2013-12\\bok%3A978-3-662-31630-6.pdf,0,2000-01-01 01:00:00,2016-04-03 02:51:08,1137000/22c8f6d69e5e36551051083cec4996c6-d.jpg,,
21252700,Verkehr und Betrieb der Eisenbahnen,,Handbibliothek für Bauingenieure 8,,"Dr.-Ing. Otto Blum, Dr.-Ing. G. Jacobi, Dr.-Ing. Kurt Risch (auth.)",1925,1,Springer-Verlag Berlin Heidelberg,,428,0,German,,,,"978-3-662-41939-7,978-3-662-41995-3",,,,,,,10.1007/978-3-662-41995-3,,,,0,,,,,,,1,26787997,pdf,205c76ef60f00261c49a0d77fea5ce9c,,,D:\\HDD4\\!genesis\\SPR_NEW_2013-12\\bok%3A978-3-662-41995-3.pdf,0,2000-01-01 01:00:00,2016-04-03 02:51:08,1140000/205c76ef60f00261c49a0d77fea5ce9c-d.jpg,,
21252701,"Die Neuordnung des bundesstaatlichen Eisenbahndienstes in Österreich: Eine Studie über ihren Werdegang und ihre bisherige Durchführung, über die ihr anhaftenden Mängel und die Unerläßlichkeit ihrer Abänderung",,,,Dr. Alfred Buschman (auth.),1925,1,Springer-Verlag Wien,,149,0,German,,,,"978-3-7091-2147-4,978-3-7091-2191-7",,,,,,,10.1007/978-3-7091-2191-7,,,,0,,,,,,,1,11226532,pdf,2ed5d6346f5f50b146d5362079ffe520,,,D:\\HDD4\\!genesis\\SPR_NEW_2013-12\\bok%3A978-3-7091-2191-7.pdf,0,2000-01-01 01:00:00,2016-04-03 02:51:08,1143000/2ed5d6346f5f50b146d5362079ffe520-d.jpg,,
21252702,"Die Gaufrage: Das Einpressen von Mustern in Textilien, Papier, Leder, Kunstleder, Zelluloid, Gummi, Glas, Holz und verwandte Stoffe",,,,Wilhelm Kleinewefers (auth.),1925,1,Springer-Verlag Berlin Heidelberg,,124,0,German,,,,"978-3-662-32407-3,978-3-662-33234-4",,,,,,,10.1007/978-3-662-33234-4,,,,0,,,,,,,1,6160985,pdf,1efecf5f5310023116f297b27044f2eb,,,D:\\HDD4\\!genesis\\SPR_NEW_2013-12\\bok%3A978-3-662-33234-4.pdf,0,2000-01-01 01:00:00,2016-04-03 02:51:08,1138000/1efecf5f5310023116f297b27044f2eb-d.jpg,,
21252703,Fachkunde für Maschinenbauerklassen an gewerblichen Berufsschulen: I. Teil: Rohstoffkunde,,Lehrmittel für gewerbliche Berufsschulen 2,,"K. Uhrmann, F. Schuth (auth.)",1925,5,Vieweg+Teubner Verlag,,89,0,German,,,,"978-3-663-15432-7,978-3-663-16003-8",,,,,,,10.1007/978-3-663-16003-8,,,,0,,,,,,,1,8974403,pdf,d562e67f776d738cdedd3fdf2dd27725,,,D:\\HDD4\\!genesis\\SPR_NEW_2013-12\\bok%3A978-3-663-16003-8.pdf,0,2000-01-01 01:00:00,2016-04-03 02:51:08,1142000/d562e67f776d738cdedd3fdf2dd27725-d.jpg,,
21252704,Jahrbuch der Schiffbautechnischen Gesellschaft: Fünfundzwanzigster Band,,,,(auth.),1925,1,Springer-Verlag Berlin Heidelberg,,392,0,German,,,,"978-3-642-90169-0,978-3-642-92026-4",,,,,,,10.1007/978-3-642-92026-4,,,,0,,,,,,,1,28248844,pdf,663ba10fbd010ceb4c4ae307202159e7,,,D:\\HDD4\\!genesis\\SPR_NEW_2013-12\\bok%3A978-3-642-92026-4.pdf,0,2000-01-01 01:00:00,2016-04-03 02:51:08,1135000/663ba10fbd010ceb4c4ae307202159e7-d.jpg,,
21252705,"Wahl, Projektierung und Betrieb von Kraftanlagen: Ein Hilfsbuch für Ingenieure, Betriebsleiter, Fabrikbesitzer",,,,Dipl.-Ingenieur Friedrich Barth (auth.),1925,4,Springer-Verlag Berlin Heidelberg,,547,0,German,,,,"978-3-662-39015-3,978-3-662-39985-9",,,,,,,10.1007/978-3-662-39985-9,,,,0,,,,,,,1,26607320,pdf,792476416e4561456fbcfbb966981fa1,,,D:\\HDD4\\!genesis\\SPR_NEW_2013-12\\bok%3A978-3-662-39985-9.pdf,0,2000-01-01 01:00:00,2016-04-03 02:51:08,1139000/792476416e4561456fbcfbb966981fa1-d.jpg,,
21252706,Schaltungsbuch für Radio-Amateure,,Bibliothek des Radio-Amateurs,,Karl Treyse (auth.),1925,2,Springer-Verlag Berlin Heidelberg,,64,0,German,,,,"978-3-662-35516-9,978-3-662-36344-7",,,,,,,10.1007/978-3-662-36344-7,,,,0,,,,,,,1,3506993,pdf,02bc1052f1aecc5459b77c71a0ddcb10,,,D:\\HDD4\\!genesis\\SPR_NEW_2013-12\\bok%3A978-3-662-36344-7.pdf,0,2000-01-01 01:00:00,2016-04-03 02:51:08,1138000/02bc1052f1aecc5459b77c71a0ddcb10-d.jpg,,
21252707,Der Einblase- und Einspritzvorgang bei Dieselmaschinen: Der Einfluß der Oberflächenspannung auf die Zerstäubung,,,,Dr.-Ing. Heinrich Triebnigg (auth.),1925,1,Springer-Verlag Wien,,149,0,German,,,,"978-3-7091-2342-3,978-3-7091-2360-7",,,,,,,10.1007/978-3-7091-2360-7,,,,0,,,,,,,1,6505852,pdf,7f5ac3e8f6cf53d853faeb7742625f59,,,D:\\HDD4\\!genesis\\SPR_NEW_2013-12\\bok%3A978-3-7091-2360-7.pdf,0,2000-01-01 01:00:00,2016-04-03 02:51:08,1143000/7f5ac3e8f6cf53d853faeb7742625f59-d.jpg,,
21252708,"Baukunde für Maschinentechniker: Lehrbuch für Technische Lehr-Anstalten der Eisen- und Metallindustrie, Sowie zum Selbstunterricht",,,,Dipl. Ing. A. Weiske (auth.),1925,2,Vieweg+Teubner Verlag,,109,0,German,,,,"978-3-663-15642-0,978-3-663-16217-9",,,,,,,10.1007/978-3-663-16217-9,,,,0,,,,,,,1,8326362,pdf,91e7fe50a3f09c537c7a9e73d33872bc,,,D:\\HDD4\\!genesis\\SPR_NEW_2013-12\\bok%3A978-3-663-16217-9.pdf,0,2000-01-01 01:00:00,2016-04-03 02:51:08,1143000/91e7fe50a3f09c537c7a9e73d33872bc-d.jpg,,
21252709,"Das Verhalten von Eisen, Rotguß und Messing gegenüber den in Kaliabwässern enthaltenen Salzen und Salzgemischen bei gewöhnlicher Temperatur und bei den im Dampfkessel herrschenden Temperaturen und Drücken: Untersuchungen auf Veranlassung des Reichsgesundheitsamtes ausgeführt",,,,Professor Dr.-Ing. e. h. O. Bauer (auth.),1925,1,Springer-Verlag Berlin Heidelberg,,68,0,German,,,,"978-3-662-27701-0,978-3-662-29191-7",,,,,,,10.1007/978-3-662-29191-7,,,,0,,,,,,,1,4273661,pdf,2b31249cd8607001238a07f57ad24c13,,,D:\\HDD4\\!genesis\\SPR_NEW_2013-12\\bok%3A978-3-662-29191-7.pdf,0,2000-01-01 01:00:00,2016-04-03 02:51:08,1137000/2b31249cd8607001238a07f57ad24c13-d.jpg,,
21252710,Innen-Antenne und Rahmen-Antenne,,Bibliothek des Radio-Amateurs 15,,Friedrich Dietsche (auth.),1925,1,Springer-Verlag Berlin Heidelberg,,69,0,German,,,,"978-3-662-31364-0,978-3-662-31569-9",,,,,,,10.1007/978-3-662-31569-9,,,,0,,,,,,,1,7232702,pdf,4fedf72a3de949829de407ac58f350ef,,,D:\\HDD4\\!genesis\\SPR_NEW_2013-12\\bok%3A978-3-662-31569-9.pdf,0,2000-01-01 01:00:00,2016-04-03 02:51:08,1137000/4fedf72a3de949829de407ac58f350ef-d.jpg,,
21252711,Dictionary of Technological Terms Used in Electrical Communication / Wörterbuch der Elektrischen Nachrichtentechnik,,,,"O. Sattelberg (auth.), O. Sattelberg (eds.)",1925,1,Springer-Verlag Berlin Heidelberg,,303,0,German,,,,"978-3-662-31745-7,978-3-662-32571-1",,,,,,,10.1007/978-3-662-32571-1,,,,0,,,,,,,1,14059695,pdf,be301e34ed73ab79b6eb81be10da4ee2,,,D:\\HDD4\\!genesis\\SPR_NEW_2013-12\\bok%3A978-3-662-32571-1.pdf,0,2000-01-01 01:00:00,2016-04-03 02:51:08,1137000/be301e34ed73ab79b6eb81be10da4ee2-d.jpg,,
21252712,Fachkunde für Maschinenbauerklassen an gewerblichen Berufsschulen: II. Teil: Arbeitskunde,,Lehrmittel für gewerbliche Berufsschulen,,Studiendirektor Ing. Otto Stolzenberg (auth.),1925,4,Vieweg+Teubner Verlag,,130,0,German,,,,"978-3-663-15433-4,978-3-663-16004-5",,,,,,,10.1007/978-3-663-16004-5,,,,0,,,,,,,1,10838248,pdf,829f932968181ef2e75d93f8ef17807a,,,D:\\HDD4\\!genesis\\SPR_NEW_2013-12\\bok%3A978-3-663-16004-5.pdf,0,2000-01-01 01:00:00,2016-04-03 02:51:08,1142000/829f932968181ef2e75d93f8ef17807a-d.jpg,,
21252713,Reflex-Empfänger,,Bibliothek des Radio-Amateurs,,Paul Adorján (auth.),1925,1,Springer-Verlag Berlin Heidelberg,,64,0,German,,,,"978-3-662-38650-7,978-3-662-39508-0",,,,,,,10.1007/978-3-662-39508-0,,,,0,,,,,,,1,2565375,pdf,7f153f1ff9bd89a82880d84f46d27291,,,D:\\HDD4\\!genesis\\SPR_NEW_2013-12\\bok%3A978-3-662-39508-0.pdf,0,2000-01-01 01:00:00,2016-04-03 02:51:08,1139000/7f153f1ff9bd89a82880d84f46d27291-d.jpg,,
21252714,"Wirkungsweise der Motorzähler und Meßwandler mit besonderer Berücksichtigung der Blind-, Misch- und Scheinverbrauchsmessung: Für Betriebsleiter von Elektrizitätswerken, Zählertechniker und Studierende",,,,Dr. Ing. Dr. Ing. e. h. J. A. Möllinger (auth.),1925,2,Springer-Verlag Berlin Heidelberg,,249,0,German,,,,"978-3-662-38965-2,978-3-662-39920-0",,,,,,,10.1007/978-3-662-39920-0,,,,0,,,,,,,1,8713656,pdf,4210f1b7b41f188ef607abc3f84e97be,,,D:\\HDD4\\!genesis\\SPR_NEW_2013-12\\bok%3A978-3-662-39920-0.pdf,0,2000-01-01 01:00:00,2016-04-03 02:51:08,1139000/4210f1b7b41f188ef607abc3f84e97be-d.jpg,,
21252715,Praktischer Rahmen-Empfang,,Bibliothek des Radio-Amateurs 5,,Max Baumgart (auth.),1925,2,Springer-Verlag Berlin Heidelberg,,89,0,German,,,,"978-3-642-98852-3,978-3-642-99667-2",,,,,,,10.1007/978-3-642-99667-2,,,,0,,,,,,,1,4423839,pdf,83227ab5bfcdeef9686e066f76ba7875,,,D:\\HDD4\\!genesis\\SPR_NEW_2013-12\\bok%3A978-3-642-99667-2.pdf,0,2000-01-01 01:00:00,2016-04-03 02:51:08,1136000/83227ab5bfcdeef9686e066f76ba7875-d.jpg,,
21252716,Wie lernt man morsen?,,Bibliothek des Radio-Amateurs 10,,Julius Albrecht (auth.),1925,2,Springer-Verlag Berlin Heidelberg,,49,0,German,,,,"978-3-662-30625-3,978-3-662-30692-5",,,,,,,10.1007/978-3-662-30692-5,,,,0,,,,,,,1,2782062,pdf,c4c936ce90c3bbca7c12a676ee7829fc,,,D:\\HDD4\\!genesis\\SPR_NEW_2013-12\\bok%3A978-3-662-30692-5.pdf,0,2000-01-01 01:00:00,2016-04-03 02:51:08,1137000/c4c936ce90c3bbca7c12a676ee7829fc-d.jpg,,
21252717,Störungen an Kältemaschinen: insbesondere deren Ursachen und Beseitigung,,,,Eduard Reif (auth.),1925,2,Springer-Verlag Berlin Heidelberg,,129,0,German,,,,"978-3-662-33444-7,978-3-662-33842-1",,,,,,,10.1007/978-3-662-33842-1,,,,0,,,,,,,1,7436178,pdf,1d50015a62864d0b223ac9bfae4a22dd,,,D:\\HDD4\\!genesis\\SPR_NEW_2013-12\\bok%3A978-3-662-33842-1.pdf,0,2000-01-01 01:00:00,2016-04-03 02:51:08,1138000/1d50015a62864d0b223ac9bfae4a22dd-d.jpg,,
21252718,Erläuterungen zu den Vorschriften für die Errichtung und den Betrieb elektrischer Starkstromanlagen einschließlich Bergwerksvorschriften und zu den Merkblättern für Starkstromanlagen in der Landwirtschaft,,,,"Dr. C. L. Weber (auth.), Dr. C. L. Weber (eds.)",1925,14,Springer-Verlag Berlin Heidelberg,,297,0,German,,,,"978-3-662-27278-7,978-3-662-28765-1",,,,,,,10.1007/978-3-662-28765-1,,,,0,,,,,,,1,32276156,pdf,b8356da7b8ab28cbe77595c624725a62,,,D:\\HDD4\\!genesis\\SPR_NEW_2013-12\\bok%3A978-3-662-28765-1.pdf,0,2000-01-01 01:00:00,2016-04-03 02:51:08,1137000/b8356da7b8ab28cbe77595c624725a62-d.jpg,,
21252719,Der Bau der Starrluftschiffe: Ein Leitfaden für Konstrukteure und Statiker,,,,Johannes Schwengler (auth.),1925,1,Springer-Verlag Berlin Heidelberg,,108,0,German,,,,"978-3-662-38781-8,978-3-662-39679-7",,,,,,,10.1007/978-3-662-39679-7,,,,0,,,,,,,1,6202360,pdf,8cf2294005e7c55c5a7b06c0d9c656d3,,,D:\\HDD4\\!genesis\\SPR_NEW_2013-12\\bok%3A978-3-662-39679-7.pdf,0,2000-01-01 01:00:00,2016-04-03 02:51:08,1139000/8cf2294005e7c55c5a7b06c0d9c656d3-d.jpg,,
21252720,Linienführung: II. Teil. Eisenbahnwesen und Städtebau,,Handbibliothek für Bauingenieure 2,,"Erich Giese, Otto Blum, Kurt Risch (auth.)",1925,1,Springer-Verlag Berlin Heidelberg,,443,0,German,,,,"978-3-642-89102-1,978-3-642-90958-0",,,,,,,10.1007/978-3-642-90958-0,,,,0,,,,,,,1,34146585,pdf,78bcebc63b75d4e1be9a7ea2e306074a,,,D:\\HDD4\\!genesis\\SPR_NEW_2013-12\\bok%3A978-3-642-90958-0.pdf,0,2000-01-01 01:00:00,2016-04-03 02:51:08,1135000/78bcebc63b75d4e1be9a7ea2e306074a-d.jpg,,
21252721,Festigkeit der Schiffe,,,,Dr. phil. W. Dahlmann (auth.),1925,1,Springer-Verlag Berlin Heidelberg,,205,0,German,,,,"978-3-662-39212-6,978-3-662-40224-5",,,,,,,10.1007/978-3-662-40224-5,,,,0,,,,,,,1,7689544,pdf,69ec283d0d41f29896c90a9a43b1fd1f,,,D:\\HDD4\\!genesis\\SPR_NEW_2013-12\\bok%3A978-3-662-40224-5.pdf,0,2000-01-01 01:00:00,2016-04-03 02:51:08,1139000/69ec283d0d41f29896c90a9a43b1fd1f-d.jpg,,
21252722,Verkehr und Betrieb der Eisenbahnen,,"Handbibliothek für Bauingenieure 2, 8",,"Dr.-Ing. Otto Blum, G. Jacobi, Kurt Risch (auth.)",1925,1,Springer-Verlag Berlin Heidelberg,,434,0,German,,,,"978-3-662-39066-5,978-3-662-40045-6",,,,,,,10.1007/978-3-662-40045-6,,,,0,,,,,,,1,28893248,pdf,c45f21ec2396b28bc4587301fd5485bc,,,D:\\HDD4\\!genesis\\SPR_NEW_2013-12\\bok%3A978-3-662-40045-6.pdf,0,2000-01-01 01:00:00,2016-04-03 02:51:08,1139000/c45f21ec2396b28bc4587301fd5485bc-d.jpg,,
21252723,"Die elastischen Platten: Die Grundlagen und Verfahren zur Berechnung ihrer Formänderungen und Spannungen, sowie die Anwendungen der Theorie der ebenen zweidimensionalen elastischen Systeme auf praktische Aufgaben",,,,Dr.-Ing. A. Nádai (auth.),1925,1,Springer-Verlag Berlin Heidelberg,,335,0,German,,,,"978-3-662-11488-9,978-3-662-11487-2",,,,,,,10.1007/978-3-662-11487-2,,,,0,,,,,,,1,13258372,pdf,d4890e7f154f95176071e8f1c08425ae,,,D:\\HDD4\\!genesis\\SPR_NEW_2013-12\\bok%3A978-3-662-11487-2.pdf,0,2000-01-01 01:00:00,2016-04-03 02:51:08,1136000/d4890e7f154f95176071e8f1c08425ae-d.jpg,,
21252724,Hilfsbuch für die Schiffsführung,,,,"Johannes Müller, Joseph Krauß (auth.)",1925,2,Springer-Verlag Berlin Heidelberg,,605,0,German,,,,"978-3-662-39028-3,978-3-662-40000-5",,,,,,,10.1007/978-3-662-40000-5,,,,0,,,,,,,1,27764017,pdf,db330c4975b9127272ceda3dae48f0dd,,,D:\\HDD4\\!genesis\\SPR_NEW_2013-12\\bok%3A978-3-662-40000-5.pdf,0,2000-01-01 01:00:00,2016-04-03 02:51:08,1139000/db330c4975b9127272ceda3dae48f0dd-d.jpg,,
21252725,Angewandte darstellende Geometrie insbesondere für Maschinenbauer: Ein methodisches Lehrbuch für die Schule sowie zum Selbstunterricht,,,,Karl Keiser (auth.),1925,1,Springer-Verlag Berlin Heidelberg,,"IV, 159 S.",0,German,,,,"978-3-642-51901-7,978-3-642-51963-5",,,,,,,10.1007/978-3-642-51963-5,,,,0,,,,,,,1,6206446,pdf,2041b38f26f5bc3b4660ccc90321a884,,,D:\\HDD4\\!genesis\\SPR_NEW_2013-12\\bok%3A978-3-642-51963-5.pdf,0,2000-01-01 01:00:00,2016-04-03 02:51:08,1135000/2041b38f26f5bc3b4660ccc90321a884-d.jpg,,
21252726,Die Differentialgleichungen des Ingenieurs: Darstellung der für Ingenieure und Physiker wichtigsten gewöhnlichen und partiellen Differentialgleichungen einschließlich der Näherungsverfahren und mechanischen Hilfsmittel Mit besonderen Abschnitten über Variationsrechnung und Integralgleichungen,,,,Prof. Dr. Wilhelm Hort (auth.),1925,2,Springer-Verlag Berlin Heidelberg,,719,0,German,,,,"978-3-662-40944-2,978-3-662-41428-6",,,,,,,10.1007/978-3-662-41428-6,,,,0,,,,,,,1,27588566,pdf,33ef8b3cec5306d37f324f790b535ba6,,,D:\\HDD4\\!genesis\\SPR_NEW_2013-12\\bok%3A978-3-662-41428-6.pdf,0,2000-01-01 01:00:00,2016-04-03 02:51:08,1140000/33ef8b3cec5306d37f324f790b535ba6-d.jpg,,
21252727,Wörterbuch der Elektrischen Nachrichtentechnik / Dictionary of Technological Terms Used in Electrical Communication: Zweiter Teil Deutsch-Englisch / Part Second German-English,,,,O. Sattelberg (auth.),1926,1,Springer-Verlag Berlin Heidelberg,,330,0,German,,,,"978-3-662-31746-4,978-3-662-32572-8",,,,,,,10.1007/978-3-662-32572-8,,,,0,,,,,,,1,42569590,pdf,824385f2411beadf7dc7fe7a18d09096,,,D:\\HDD4\\!genesis\\SPR_NEW_2013-12\\bok%3A978-3-662-32572-8.pdf,0,2000-01-01 01:00:00,2016-04-03 02:51:08,1137000/824385f2411beadf7dc7fe7a18d09096-d.jpg,,
21252728,Erfinden und Konstruieren: Ein Beitrag zum Verständnis und zur Bewertung,,,,Dr.-Ing. G. J. Meyer (auth.),1926,2,Springer-Verlag Berlin Heidelberg,,89,0,German,,,,"978-3-662-32201-7,978-3-662-33028-9",,,,,,,10.1007/978-3-662-33028-9,,,,0,,,,,,,1,5514955,pdf,ab6c57cdac54ae46cdbb9c061d2b8e52,,,D:\\HDD4\\!genesis\\SPR_NEW_2013-12\\bok%3A978-3-662-33028-9.pdf,0,2000-01-01 01:00:00,2016-04-03 02:51:08,1137000/ab6c57cdac54ae46cdbb9c061d2b8e52-d.jpg,,
21252729,Druckrohrleitungen: Berechnungs- und Konstruktionsgrundlagen der Rohrleitungen für Wasserkraft- und Wasserversorgungsanlagen,,,,Dr.-Ing. Felix Bundschu (auth.),1926,1,Springer-Verlag Berlin Heidelberg,,68,0,German,,,,"978-3-662-33632-8,978-3-662-34030-1",,,,,,,10.1007/978-3-662-34030-1,,,,0,,,,,,,1,3415101,pdf,eb3a21da9105b036de6f13e65a292aa0,,,D:\\HDD4\\!genesis\\SPR_NEW_2013-12\\bok%3A978-3-662-34030-1.pdf,0,2000-01-01 01:00:00,2016-04-03 02:51:08,1138000/eb3a21da9105b036de6f13e65a292aa0-d.jpg,,
21252730,Grundriss der Hydraulik,,,,Hofrat Dr. Philipp Forchheimer (auth.),1926,2,Vieweg+Teubner Verlag,,147,0,German,,,,"978-3-663-15380-1,978-3-663-15951-3",,,,,,,10.1007/978-3-663-15951-3,,,,0,,,,,,,1,14959985,pdf,a399a47cdc0a3033d16804f5448f765e,,,D:\\HDD4\\!genesis\\SPR_NEW_2013-12\\bok%3A978-3-663-15951-3.pdf,0,2000-01-01 01:00:00,2016-04-03 02:51:08,1142000/a399a47cdc0a3033d16804f5448f765e-d.jpg,,
21252731,Neue Riementheorie: nebst Anleitung zum Berechnen von Riemen,,,,G. Schulze-Pillot (auth.),1926,1,Springer-Verlag Berlin Heidelberg,,101,0,German,,,,"978-3-662-38771-9,978-3-662-39668-1",,,,,,,10.1007/978-3-662-39668-1,,,,0,,,,,,,1,5294804,pdf,fc5eeea7d3efd6f18812c22ca78101bb,,,D:\\HDD4\\!genesis\\SPR_NEW_2013-12\\bok%3A978-3-662-39668-1.pdf,0,2000-01-01 01:00:00,2016-04-03 02:51:08,1139000/fc5eeea7d3efd6f18812c22ca78101bb-d.jpg,,
21252732,Fachkunde für Maschinenbauerklassen an gewerblichen Berufsschulen: III. Teil: Kraftmaschinen,,,,"K. Uhrmann, F. Schuth (auth.)",1926,4,Vieweg+Teubner Verlag,,97,0,German,,,,"978-3-663-17078-5,978-3-663-18094-4",,,,,,,10.1007/978-3-663-18094-4,,,,0,,,,,,,1,8250079,pdf,e19629fb4363286a3cba70bbe6df9af5,,,D:\\HDD4\\!genesis\\SPR_NEW_2013-12\\bok%3A978-3-663-18094-4.pdf,0,2000-01-01 01:00:00,2016-04-03 02:51:08,1143000/e19629fb4363286a3cba70bbe6df9af5-d.jpg,,
21252733,"Die Getriebe der Textiltechnik: Ein Beitrag zur Kinematik für Maschineningenieure, Textiltechniker, Fabrikanten und Studierende der Textilindustrie",,,,Dr.-Ing. Oscar Thiering (auth.),1926,1,Springer-Verlag Berlin Heidelberg,,140,0,German,,,,"978-3-662-32395-3,978-3-662-33222-1",,,,,,,10.1007/978-3-662-33222-1,,,,0,,,,,,,1,6917275,pdf,060759b7588ecf1404e6dd824a326429,,,D:\\HDD4\\!genesis\\SPR_NEW_2013-12\\bok%3A978-3-662-33222-1.pdf,0,2000-01-01 01:00:00,2016-04-03 02:51:08,1138000/060759b7588ecf1404e6dd824a326429-d.jpg,,
21252734,Aussendung und Empfang elektrischer Wellen,,,,"Professor, Dr.-Ing. und Dr.-Ing. e. h. Reinhold Rüdenberg (auth.)",1926,1,Springer-Verlag Berlin Heidelberg,,75,0,German,,,,"978-3-662-39289-8,978-3-662-40322-8",,,,,,,10.1007/978-3-662-40322-8,,,,0,,,,,,,1,4246921,pdf,057e861004466de73c60ea4737d9185a,,,D:\\HDD4\\!genesis\\SPR_NEW_2013-12\\bok%3A978-3-662-40322-8.pdf,0,2000-01-01 01:00:00,2016-04-03 02:51:08,1139000/057e861004466de73c60ea4737d9185a-d.jpg,,
21252735,Die kurzen Wellen: Sende- und Empfangsschaltungen,,Bibliothek des Radio-Amateurs,,Robert Wunder (auth.),1926,1,Springer-Verlag Berlin Heidelberg,,112,0,German,,,,"978-3-662-32360-1,978-3-662-33187-3",,,,,,,10.1007/978-3-662-33187-3,,,,0,,,,,,,1,5283839,pdf,e62d13d34a794d8d30ac1543275b3f00,,,D:\\HDD4\\!genesis\\SPR_NEW_2013-12\\bok%3A978-3-662-33187-3.pdf,0,2000-01-01 01:00:00,2016-04-03 02:51:08,1138000/e62d13d34a794d8d30ac1543275b3f00-d.jpg,,
21252736,Grundzüge der Schmiertechnik: Gestaltung und Berechnung vollkommen geschmierter Maschinenteile auf Grund der hydrodynamischen Theorie,,,,E. Falz (auth.),1926,1,Springer-Verlag Berlin Heidelberg,,303,0,German,,,,"978-3-662-40724-0,978-3-662-41206-0",,,,,,,10.1007/978-3-662-41206-0,,,,0,,,,,,,1,11913256,pdf,58053ad79c3b89dfe5394ada66871ee4,,,D:\\HDD4\\!genesis\\SPR_NEW_2013-12\\bok%3A978-3-662-41206-0.pdf,0,2000-01-01 01:00:00,2016-04-03 02:51:08,1140000/58053ad79c3b89dfe5394ada66871ee4-d.jpg,,
21252737,Allgemeine Anordnung und Verwendung,,,,Dr.-Ing. e. h. H. Aumund (auth.),1926,2,Springer-Verlag Berlin Heidelberg,,"XIX, 448 S.",0,German,,,,"978-3-642-50388-7,978-3-642-50697-0",,,,,,,10.1007/978-3-642-50697-0,,,,0,,,,,,,1,34646383,pdf,d427552ed79cf526e5ada54d037a56b2,,,D:\\HDD4\\!genesis\\SPR_NEW_2013-12\\bok%3A978-3-642-50697-0.pdf,0,2000-01-01 01:00:00,2016-04-03 02:51:08,1135000/d427552ed79cf526e5ada54d037a56b2-d.jpg,,
21252738,Die Elektrischen Maschinen: Einführung in Ihre Theorie und Praxis,,,,Dr.-Ing. M. Liwschitz (auth.),1926,1,Vieweg+Teubner Verlag,,367,0,German,,,,"978-3-663-15547-8,978-3-663-16119-6",,,,,,,10.1007/978-3-663-16119-6,,,,0,,,,,,,1,19175403,pdf,41f30528035c2f55e01acc5760f739ce,,,D:\\HDD4\\!genesis\\SPR_NEW_2013-12\\bok%3A978-3-663-16119-6.pdf,0,2000-01-01 01:00:00,2016-04-03 02:51:08,1142000/41f30528035c2f55e01acc5760f739ce-d.jpg,,
21252739,"Material- und Zeitaufwand bei Bauarbeiten: Einhundertneun Tabellen zur Ermittlung der Kosten von Erd-, Maurer-, Zimmerer-, Dachdecker-, Spengler- (Klempner-), Tischler-, Glaser-, Hafner- (Ofensetzer-), Maler- und Anstreicher-Arbeiten",,,,Arnold Ilkow (auth.),1926,2,Springer-Verlag Berlin Heidelberg,,70,0,German,,,,"978-3-662-31352-7,978-3-662-31557-6",,,,,,,10.1007/978-3-662-31557-6,,,,0,,,,,,,1,3962772,pdf,9dc8ebe8dcd1bfb23e19495a8b48da42,,,D:\\HDD4\\!genesis\\SPR_NEW_2013-12\\bok%3A978-3-662-31557-6.pdf,0,2000-01-01 01:00:00,2016-04-03 02:51:08,1137000/9dc8ebe8dcd1bfb23e19495a8b48da42-d.jpg,,
21252740,"Wetterfunk, Bildfunk, Television: (Drahtloses Fernsehen)",,,,Dr. Gustav Eichhorn (auth.),1926,1,Vieweg+Teubner Verlag,,93,0,German,,,,"978-3-663-15189-0,978-3-663-15752-6",,,,,,,10.1007/978-3-663-15752-6,,,,0,,,,,,,1,4628614,pdf,84ad92d1e2f34b195f6fb39e4f5f03fe,,,D:\\HDD4\\!genesis\\SPR_NEW_2013-12\\bok%3A978-3-663-15752-6.pdf,0,2000-01-01 01:00:00,2016-04-03 02:51:08,1142000/84ad92d1e2f34b195f6fb39e4f5f03fe-d.jpg,,
21252741,"Räumen: Anwendung, Konstruktion und Herstellung der Räumnadeln. Fehler beim Räumen",,Werkstattbücher 26,,Leonhard Knoll (auth.),1926,1,Springer-Verlag Wien,,60,0,German,,,,"978-3-7091-5208-9,978-3-7091-5356-7",,,,,,,10.1007/978-3-7091-5356-7,,,,0,,,,,,,1,4970974,pdf,f22369e3b8f4e3f3689509bdf3c23aef,,,D:\\HDD4\\!genesis\\SPR_NEW_2013-12\\bok%3A978-3-7091-5356-7.pdf,0,2000-01-01 01:00:00,2016-04-03 02:51:08,1143000/f22369e3b8f4e3f3689509bdf3c23aef-d.jpg,,
21252742,Allgemeine Mechanik der Elektrizität,,,,Dr. J. Frenkel (auth.),1926,1,Springer-Verlag Wien,,375,0,German,,,,"978-3-7091-9759-2,978-3-7091-5020-7",,,,,,,10.1007/978-3-7091-5020-7,,,,0,,,,,,,1,21583558,pdf,a17ee054c9cb3aae634b69363b72e471,,,D:\\HDD4\\!genesis\\SPR_NEW_2013-12\\bok%3A978-3-7091-5020-7.pdf,0,2000-01-01 01:00:00,2016-04-03 02:51:08,1143000/a17ee054c9cb3aae634b69363b72e471-d.jpg,,
21252743,Untersuchung über die Verbrennung methanhaltiger Gasgemische: Die Wasserdruckmomente der Drehschaufeln von Zentripetal-Francis-Turbinen,,Forschungsarbeiten auf dem Gebiete des Ingenieurwesens 117,,"Dr.-Ing. Willy Bucher, Professor Dr. R. Camerer (auth.)",1912,1,Springer-Verlag Berlin Heidelberg,,71,0,German,,,,"978-3-662-01708-1,978-3-662-02003-6",,,,,,,10.1007/978-3-662-02003-6,,,,0,,,,,,,1,5797080,pdf,aba9d300db86b6fc1f5ecd812768e47d,,,D:\\HDD4\\!genesis\\SPR_NEW_2013-12\\bok%3A978-3-662-02003-6.pdf,0,2000-01-01 01:00:00,2016-04-03 02:51:08,1136000/aba9d300db86b6fc1f5ecd812768e47d-d.jpg,,
21252744,Mitteilungen aus dem Telegraphen-Versuchsamt des Reichs-Postamts: VI,,,,Ober-Telegraphen-Ingenieur Dr. Strecker (auth.),1912,1,Springer-Verlag Berlin Heidelberg,,120,0,German,,,,"978-3-642-50432-7,978-3-642-50741-0",,,,,,,10.1007/978-3-642-50741-0,,,,0,,,,,,,1,10633194,pdf,c05659fba0aa789c9d57ddee66a8ddb9,,,D:\\HDD4\\!genesis\\SPR_NEW_2013-12\\bok%3A978-3-642-50741-0.pdf,0,2000-01-01 01:00:00,2016-04-03 02:51:08,1135000/c05659fba0aa789c9d57ddee66a8ddb9-d.jpg,,
21252745,Die Einphasen-Motoren nach den deutschen Patentschriften: Mit Sachverzeichnissen der Deutschen Reichs-Patente über Einphasen- und Mehrphasen-Kommutator-Motoren,,,,Dr.-Ing. Erich Dyhr (auth.),1912,1,Springer-Verlag Berlin Heidelberg,,192,0,German,,,,"978-3-662-32434-9,978-3-662-33261-0",,,,,,,10.1007/978-3-662-33261-0,,,,0,,,,,,,1,9871816,pdf,cf1140dbfa22ae74b251496048c1a8f2,,,D:\\HDD4\\!genesis\\SPR_NEW_2013-12\\bok%3A978-3-662-33261-0.pdf,0,2000-01-01 01:00:00,2016-04-03 02:51:08,1138000/cf1140dbfa22ae74b251496048c1a8f2-d.jpg,,
21252746,Die Theorie der Pfahlgründungen,,,,Ingenieur Richard Kafka (auth.),1912,1,Springer-Verlag Berlin Heidelberg,,76,0,German,,,,"978-3-662-39321-5,978-3-662-40361-7",,,,,,,10.1007/978-3-662-40361-7,,,,0,,,,,,,1,3045782,pdf,df450e397810a9ec987b9c9c70179b85,,,D:\\HDD4\\!genesis\\SPR_NEW_2013-12\\bok%3A978-3-662-40361-7.pdf,0,2000-01-01 01:00:00,2016-04-03 02:51:08,1139000/df450e397810a9ec987b9c9c70179b85-d.jpg,,
21252747,Materialzuführungsvorrichtungen an Exzenter- und Ziehpressen,,,,Dr.-Ing. Christian Gugel (auth.),1912,1,Springer-Verlag Berlin Heidelberg,,123,0,German,,,,"978-3-662-33496-6,978-3-662-33894-0",,,,,,,10.1007/978-3-662-33894-0,,,,0,,,,,,,1,7174115,pdf,c00f2c8ec374de1ff62e7a9b231688c9,,,D:\\HDD4\\!genesis\\SPR_NEW_2013-12\\bok%3A978-3-662-33894-0.pdf,0,2000-01-01 01:00:00,2016-04-03 02:51:08,1138000/c00f2c8ec374de1ff62e7a9b231688c9-d.jpg,,
21252748,Jahrbuch der Schiffbautechnischen Gesellschaft: Dreizehnter Band,,,,(auth.),1912,1,Springer-Verlag Berlin Heidelberg,,623,0,German,,,,"978-3-642-90182-9,978-3-642-92039-4",,,,,,,10.1007/978-3-642-92039-4,,,,0,,,,,,,1,34347469,pdf,95ccd690fd7a85190b8fff6f95898f38,,,D:\\HDD4\\!genesis\\SPR_NEW_2013-12\\bok%3A978-3-642-92039-4.pdf,0,2000-01-01 01:00:00,2016-04-03 02:51:08,1135000/95ccd690fd7a85190b8fff6f95898f38-d.jpg,,
21252749,Die Kalkulation im Metallgewerbe und Maschinenbau: Mit 100 praktischen Beispielen und Zeichnungen,,,,Ingenieur Ernst Pieschel (auth.),1912,1,Springer-Verlag Berlin Heidelberg,,177,0,German,,,,"978-3-662-32372-4,978-3-662-33199-6",,,,,,,10.1007/978-3-662-33199-6,,,,0,,,,,,,1,9290539,pdf,24e81fbb8ce92e432840d50fb2e85d4d,,,D:\\HDD4\\!genesis\\SPR_NEW_2013-12\\bok%3A978-3-662-33199-6.pdf,0,2000-01-01 01:00:00,2016-04-03 02:51:08,1138000/24e81fbb8ce92e432840d50fb2e85d4d-d.jpg,,
21252750,Die Erschließung des Luftmeers: Luftschiffahrt und Flugtechnik in ihrer Entwicklung und ihrem heutigen Stande,,,,Arthur Kirchhoff (auth.),1912,2,Springer-Verlag Berlin Heidelberg,,250,0,German,,,,"978-3-662-33685-4,978-3-662-34083-7",,,,,,,10.1007/978-3-662-34083-7,,,,0,,,,,,,1,15152807,pdf,8ade2e7e257924691a3a58098c6c41b2,,,D:\\HDD4\\!genesis\\SPR_NEW_2013-12\\bok%3A978-3-662-34083-7.pdf,0,2000-01-01 01:00:00,2016-04-03 02:51:08,1138000/8ade2e7e257924691a3a58098c6c41b2-d.jpg,,
21252751,Die belgischen Vizinalbahnen,,,,C. de Burlet (auth.),1912,1,Springer-Verlag Berlin Heidelberg,,57,0,German,,,,"978-3-662-40948-0,978-3-662-41432-3",,,,,,,10.1007/978-3-662-41432-3,,,,0,,,,,,,1,2427482,pdf,2f5b393d061a474f395cc1ea8d4be800,,,D:\\HDD4\\!genesis\\SPR_NEW_2013-12\\bok%3A978-3-662-41432-3.pdf,0,2000-01-01 01:00:00,2016-04-03 02:51:08,1140000/2f5b393d061a474f395cc1ea8d4be800-d.jpg,,
21252752,"Der praktische Faßeichmeister: Ein Hand- und Hilfsbuch für Eichmeister, Brauereibesitzer, Küfer usw",,,,"Dr. Plato (auth.), Dr. Plato (eds.)",1912,1,Springer-Verlag Berlin Heidelberg,,64,0,German,,,,"978-3-662-38676-7,978-3-662-39550-9",,,,,,,10.1007/978-3-662-39550-9,,,,0,,,,,,,1,4831988,pdf,2e4a755f7b8391f13c1e19248b48a055,,,D:\\HDD4\\!genesis\\SPR_NEW_2013-12\\bok%3A978-3-662-39550-9.pdf,0,2000-01-01 01:00:00,2016-04-03 02:51:08,1139000/2e4a755f7b8391f13c1e19248b48a055-d.jpg,,
21252753,Jahrbuch der Motorluftschiff-Studiengesellschaft: Fünfter Band,,,,"Geh. Regierungsrat Dr. R. Assmann, Professor Dr. L. Prandtl, Dr.-Ing. O. Föppl, Paul Daimler (auth.)",1912,1,Springer-Verlag Berlin Heidelberg,,220,0,German,,,,"978-3-662-33541-3,978-3-662-33939-8",,,,,,,10.1007/978-3-662-33939-8,,,,0,,,,,,,1,16248921,pdf,512a8c4793f025ad63f8c0d763220479,,,D:\\HDD4\\!genesis\\SPR_NEW_2013-12\\bok%3A978-3-662-33939-8.pdf,0,2000-01-01 01:00:00,2016-04-03 02:51:08,1138000/512a8c4793f025ad63f8c0d763220479-d.jpg,,
21252754,Die Grundlagen der deutschen Material- und Bauvorschriften für Dampfkessel,,,,Professor R. Baumann (auth.),1912,1,Springer-Verlag Berlin Heidelberg,,132,0,German,,,,"978-3-662-33675-5,978-3-662-34073-8",,,,,,,10.1007/978-3-662-34073-8,,,,0,,,,,,,1,5266830,pdf,5a843bfc4d649e956ba1abcc43f27bb3,,,D:\\HDD4\\!genesis\\SPR_NEW_2013-12\\bok%3A978-3-662-34073-8.pdf,0,2000-01-01 01:00:00,2016-04-03 02:51:08,1138000/5a843bfc4d649e956ba1abcc43f27bb3-d.jpg,,
21252755,Versuche über den Arbeitsbedarf und die Widerstände beim Blechbiegen: auf dem Gebiete des Ingenieurwesens,,Forschungsarbeiten auf dem Gebiete des Ingenieurwesens 113,,Dr.-Ing. Franz Walther (auth.),1912,1,Springer-Verlag Berlin Heidelberg,,"III, 70 S.",0,German,,,,"978-3-662-01689-3,978-3-662-01984-9",,,,,,,10.1007/978-3-662-01984-9,,,,0,,,,,,,1,5631142,pdf,541f3c5f6794696928dcfae26c5dfc3d,,,D:\\HDD4\\!genesis\\SPR_NEW_2013-12\\bok%3A978-3-662-01984-9.pdf,0,2000-01-01 01:00:00,2016-04-03 02:51:08,1136000/541f3c5f6794696928dcfae26c5dfc3d-d.jpg,,
21252756,Alles elektrisch!: Ein Wegweiser für Haus und Gewerbe,,,,H. Zipp (auth.),1912,1,Springer-Verlag Berlin Heidelberg,,49,0,German,,,,"978-3-662-38747-4,978-3-662-39634-6",,,,,,,10.1007/978-3-662-39634-6,,,,0,,,,,,,1,3495015,pdf,e931faf04a25bd1724d6961798c48923,,,D:\\HDD4\\!genesis\\SPR_NEW_2013-12\\bok%3A978-3-662-39634-6.pdf,0,2000-01-01 01:00:00,2016-04-03 02:51:08,1139000/e931faf04a25bd1724d6961798c48923-d.jpg,,
21252757,Einführung in die Markscheidekunde: Mit besonderer Berücksichtigung des Steinkohlenbergbaus,,,,Markscheider Dr. L. Mintrop (auth.),1912,1,Springer-Verlag Berlin Heidelberg,,230,0,German,,,,"978-3-662-42814-6,978-3-662-43096-5",,,,,,,10.1007/978-3-662-43096-5,,,,0,,,,,,,1,10363338,pdf,ba607438bc5ba8508f7bcc014caec199,,,D:\\HDD4\\!genesis\\SPR_NEW_2013-12\\bok%3A978-3-662-43096-5.pdf,0,2000-01-01 01:00:00,2016-04-03 02:51:08,1140000/ba607438bc5ba8508f7bcc014caec199-d.jpg,,
21252758,"Elektrische Energieversorgung ländlicher Bezirke: Bedingungen und gegenwärtiger Stand der Elektrizitätsversorgung von Landwirtschaft, Landindustrie und ländlichem Kleingewerbe",,,,Walter Reisser (auth.),1912,1,Springer-Verlag Berlin Heidelberg,,104,0,German,,,,"978-3-662-32214-7,978-3-662-33041-8",,,,,,,10.1007/978-3-662-33041-8,,,,0,,,,,,,1,10861621,pdf,a96150f422718302dd981f23199a4c35,,,D:\\HDD4\\!genesis\\SPR_NEW_2013-12\\bok%3A978-3-662-33041-8.pdf,0,2000-01-01 01:00:00,2016-04-03 02:51:08,1137000/a96150f422718302dd981f23199a4c35-d.jpg,,
21252759,Filtern und Pressen zum Trennen von Flüssigkeiten und Festen Stoffen,,Chemische Technologie in Einzeldarstellungen,,"F. A. Bühler (auth.), Prof. Dr. Ernst Jänecke (eds.)",1912,2,Springer-Verlag Berlin Heidelberg,,184,0,German,,,,"978-3-662-33599-4,978-3-662-33997-8",,,,,,,10.1007/978-3-662-33997-8,,,,0,,,,,,,1,14245948,pdf,5a3771d8670e2b9ba5b1535c0cee32e5,,,D:\\HDD4\\!genesis\\SPR_NEW_2013-12\\bok%3A978-3-662-33997-8.pdf,0,2000-01-01 01:00:00,2016-04-03 02:51:08,1138000/5a3771d8670e2b9ba5b1535c0cee32e5-d.jpg,,
21252760,Kolben: I. Dampfmaschinen- und Gebläsekolben. II. Gasmaschinen- und Pumpenkolben,,Einzelkonstruktionen aus dem Maschinenbau 2,,"Ingenieur C. Volk, A. Eckardt (auth.)",1912,1,Springer-Verlag Berlin Heidelberg,,85,0,German,,,,"978-3-662-35727-9,978-3-662-36557-1",,,,,,,10.1007/978-3-662-36557-1,,,,0,,,,,,,1,6384370,pdf,7a88e337b3d13ff7af77a6568d81fd26,,,D:\\HDD4\\!genesis\\SPR_NEW_2013-12\\bok%3A978-3-662-36557-1.pdf,0,2000-01-01 01:00:00,2016-04-03 02:51:08,1138000/7a88e337b3d13ff7af77a6568d81fd26-d.jpg,,
21252761,Handbuch der Fräserei: Kurzgefaßtes Lehr- und Nachschlagebuch für den allgemeinen Gebrauch in Bureau und Werkstatt,,,,"Emil Jurthe, Otto Mietzschke (auth.), Emil Jurthe, Otto Mietzschke (eds.)",1912,3,Springer-Verlag Berlin Heidelberg,,304,0,German,,,,"978-3-662-35494-0,978-3-662-36322-5",,,,,,,10.1007/978-3-662-36322-5,,,,0,,,,,,,1,12970447,pdf,2ff371ed8c01d4d97c90718329a2083d,,,D:\\HDD4\\!genesis\\SPR_NEW_2013-12\\bok%3A978-3-662-36322-5.pdf,0,2000-01-01 01:00:00,2016-04-03 02:51:08,1138000/2ff371ed8c01d4d97c90718329a2083d-d.jpg,,
21252762,Das Pendeln bei Gleichstrommotoren mit Wendepolen,,,,Karl Humburg (auth.),1912,1,Springer-Verlag Berlin Heidelberg,,85,0,German,,,,"978-3-642-89891-4,978-3-642-91748-6",,,,,,,10.1007/978-3-642-91748-6,,,,0,,,,,,,1,3792271,pdf,e74d59bd552e3eea1b4f7c9b5951035c,,,D:\\HDD4\\!genesis\\SPR_NEW_2013-12\\bok%3A978-3-642-91748-6.pdf,0,2000-01-01 01:00:00,2016-04-03 02:51:08,1135000/e74d59bd552e3eea1b4f7c9b5951035c-d.jpg,,
21252763,Ölfeuerung für Lokomotiven mit besonderer Berücksichtigung der Versuche mit Teerölzusatzfeuerung bei den preußischen Staatsbahnen: Nach einem im Verein Deutscher Maschinen-Ingenieure zu Berlin gehaltenen Vortrage,,,,Regierungsbaumeister L. Sussmann (auth.),1912,1,Springer-Verlag Berlin Heidelberg,,84,0,German,,,,"978-3-662-31937-6,978-3-662-32764-7",,,,,,,10.1007/978-3-662-32764-7,,,,0,,,,,,,1,5437670,pdf,9e514aa4ab37a403244fd4e41e1f800c,,,D:\\HDD4\\!genesis\\SPR_NEW_2013-12\\bok%3A978-3-662-32764-7.pdf,0,2000-01-01 01:00:00,2016-04-03 02:51:08,1137000/9e514aa4ab37a403244fd4e41e1f800c-d.jpg,,
21252764,Federn und ihre Schnelle Berechnung,,,,Camille Reynal (auth.),1929,1,Springer-Verlag Berlin Heidelberg,,163,0,German,,,,"978-3-662-33602-1,978-3-662-34000-4",,,,,,,10.1007/978-3-662-34000-4,,,,0,,,,,,,1,5768086,pdf,0f5f210d75101f9d9c405f970f939202,,,D:\\HDD4\\!genesis\\SPR_NEW_2013-12\\bok%3A978-3-662-34000-4.pdf,0,2000-01-01 01:00:00,2016-04-03 02:51:08,1138000/0f5f210d75101f9d9c405f970f939202-d.jpg,,
21252765,Die deutschen Eisenbetonbestimmungen von 1925 zum bequemen Gebrauch für die Entwurfsbearbeitung nach Konstruktionsgliedern geordnet und ausgelegt,,,,Dr.-Ing. Ernst Rausch (auth.),1929,1,Springer-Verlag Berlin Heidelberg,,98,0,German,,,,"978-3-662-31431-9,978-3-662-31638-2",,,,,,,10.1007/978-3-662-31638-2,,,,0,,,,,,,1,4944915,pdf,d685549664b21553dccb8b32a3f87d3e,,,D:\\HDD4\\!genesis\\SPR_NEW_2013-12\\bok%3A978-3-662-31638-2.pdf,0,2000-01-01 01:00:00,2016-04-03 02:51:08,1137000/d685549664b21553dccb8b32a3f87d3e-d.jpg,,
21252766,"Erddrucktafeln: Zeichnerische Zusammenstellung der Größe des Erddrucks auf Stützmauern, analytisch errechnet nach Poncelet",,,,Dr.-Ing. Otto Syffert (auth.),1929,1,Springer-Verlag Berlin Heidelberg,,43,0,German,,,,"978-3-662-32204-8,978-3-662-33031-9",,,,,,,10.1007/978-3-662-33031-9,,,,0,,,,,,,1,3415549,pdf,f1aaea58a94e4ee711556967f0ab11d2,,,D:\\HDD4\\!genesis\\SPR_NEW_2013-12\\bok%3A978-3-662-33031-9.pdf,0,2000-01-01 01:00:00,2016-04-03 02:51:08,1137000/f1aaea58a94e4ee711556967f0ab11d2-d.jpg,,
21252767,Richtlinien für den Bau und Betrieb von Krankenanstalten: Aufgestellt vom Gutachterausschuss für das Öffentliche Krankenhauswesen in den Jahren 1925–1928,,,,(auth.),1929,1,Springer-Verlag Berlin Heidelberg,,"V, 113 S.",0,German,,,,"978-3-642-98920-9,978-3-642-99735-8",,,,,,,10.1007/978-3-642-99735-8,,,,0,,,,,,,1,5107368,pdf,9ac87d8f4d0509411287e6779bcbc375,,,D:\\HDD4\\!genesis\\SPR_NEW_2013-12\\bok%3A978-3-642-99735-8.pdf,0,2000-01-01 01:00:00,2016-04-03 02:51:08,1136000/9ac87d8f4d0509411287e6779bcbc375-d.jpg,,
21252768,Neuzeitliche Automobil-Wertung: Auswertung der I. ADAC-Gebrauchs- und Wirtschaftlichkeitsfahrt 1928,,,,(auth.),1929,1,Springer-Verlag Berlin Heidelberg,,171,0,German,,,,"978-3-642-50435-8,978-3-642-50744-1",,,,,,,10.1007/978-3-642-50744-1,,,,0,,,,,,,1,8124479,pdf,6b2856dcd2e9d03ab3f09a52f36b74b4,,,D:\\HDD4\\!genesis\\SPR_NEW_2013-12\\bok%3A978-3-642-50744-1.pdf,0,2000-01-01 01:00:00,2016-04-03 02:51:08,1135000/6b2856dcd2e9d03ab3f09a52f36b74b4-d.jpg,,
21252769,Freies Skizzieren ohne und nach Modell für Maschinenbauer: Ein Lehr- und Aufgabenbuch für den Unterricht,,,,Karl Keiser (auth.),1929,4,Springer-Verlag Berlin Heidelberg,,77,0,German,,,,"978-3-642-89938-6,978-3-642-91795-0",,,,,,,10.1007/978-3-642-91795-0,,,,0,,,,,,,1,6272731,pdf,44c5fc2949a9b72f5584e5bd1c499be3,,,D:\\HDD4\\!genesis\\SPR_NEW_2013-12\\bok%3A978-3-642-91795-0.pdf,0,2000-01-01 01:00:00,2016-04-03 02:51:08,1135000/44c5fc2949a9b72f5584e5bd1c499be3-d.jpg,,
21252770,Die Grundbautechnik und ihre maschinellen Hilfsmittel,,,,"Dipl.-Ing. G. Hetzell, Dipl.-Ing. O. Wundram (auth.)",1929,1,Springer-Verlag Berlin Heidelberg,,"VI, 399 S.",0,German,,,,"978-3-642-51284-1,978-3-642-51403-6",,,,,,,10.1007/978-3-642-51403-6,,,,0,,,,,,,1,26323994,pdf,b129b91cb9893843fc2f6e5af4c265c0,,,D:\\HDD4\\!genesis\\SPR_NEW_2013-12\\bok%3A978-3-642-51403-6.pdf,0,2000-01-01 01:00:00,2016-04-03 02:51:08,1135000/b129b91cb9893843fc2f6e5af4c265c0-d.jpg,,
21252771,Kompensierte und synchronisierte Asynchronmotoren,,,,Dr. sc. techn. H. F. Schait (auth.),1929,1,Springer-Verlag Berlin Heidelberg,,112,0,German,,,,"978-3-662-38917-1,978-3-662-39857-9",,,,,,,10.1007/978-3-662-39857-9,,,,0,,,,,,,1,5248282,pdf,53eefd620d80d2e4ca155ac3164c55b9,,,D:\\HDD4\\!genesis\\SPR_NEW_2013-12\\bok%3A978-3-662-39857-9.pdf,0,2000-01-01 01:00:00,2016-04-03 02:51:08,1139000/53eefd620d80d2e4ca155ac3164c55b9-d.jpg,,
21252772,Turbo-Ceblase und — Kompressoren,,,,"Bruno Eck, W. J. Kearton (auth.)",1929,1,Springer-Verlag Berlin Heidelberg,,307,0,German,,,,"978-3-642-98712-0,978-3-642-99527-9",,,,,,,10.1007/978-3-642-99527-9,,,,0,,,,,,,1,15989861,pdf,6998f7d4bd07d8b5cdad6bfdd96b38fb,,,D:\\HDD4\\!genesis\\SPR_NEW_2013-12\\bok%3A978-3-642-99527-9.pdf,0,2000-01-01 01:00:00,2016-04-03 02:51:08,1136000/6998f7d4bd07d8b5cdad6bfdd96b38fb-d.jpg,,
21252773,Das Wasserschloß bei Hochdruckspeicheranlagen: Unter besonderer Berücksichtigung des Kammerwasserschlosses mit Überfall,,,,Dr.-Ing. Otto Streck (auth.),1929,1,Springer-Verlag Berlin Heidelberg,,85,0,German,,,,"978-3-662-38827-3,978-3-662-39745-9",,,,,,,10.1007/978-3-662-39745-9,,,,0,,,,,,,1,4865074,pdf,4128d4e1fa358142f0f784c15c437824,,,D:\\HDD4\\!genesis\\SPR_NEW_2013-12\\bok%3A978-3-662-39745-9.pdf,0,2000-01-01 01:00:00,2016-04-03 02:51:08,1139000/4128d4e1fa358142f0f784c15c437824-d.jpg,,
21252774,Über das dielektrische Verhalten von Niederspannungskondensatoren mit geschichteter Papierisolation,,,,Dipl.-Ing. F. A. Schäfer (auth.),1929,1,Springer-Verlag Berlin Heidelberg,,36,0,German,,,,"978-3-662-40536-9,978-3-662-41013-4",,,,,,,10.1007/978-3-662-41013-4,,,,0,,,,,,,1,2563981,pdf,1a316c18b2701cc8ff3b8cdaaeb71570,,,D:\\HDD4\\!genesis\\SPR_NEW_2013-12\\bok%3A978-3-662-41013-4.pdf,0,2000-01-01 01:00:00,2016-04-03 02:51:08,1140000/1a316c18b2701cc8ff3b8cdaaeb71570-d.jpg,,
21252775,"Die Maschinenelemente: Ein Lehr- und Handbuch für Studierende, Konstrukteure und Ingenieure",,,,Dr.-Ing. Felix Rötscher (auth.),1929,1,Springer-Verlag Berlin Heidelberg,,777,0,German,,,,"978-3-662-37225-8,978-3-662-37949-3",,,,,,,10.1007/978-3-662-37949-3,,,,0,,,,,,,1,64457224,pdf,bd32e251ba45b89fd7392834ae49104f,,,D:\\HDD4\\!genesis\\SPR_NEW_2013-12\\bok%3A978-3-662-37949-3.pdf,0,2000-01-01 01:00:00,2016-04-03 02:51:08,1139000/bd32e251ba45b89fd7392834ae49104f-d.jpg,,
21252776,Erlebnisse,,,,Wilhelm Exner (auth.),1929,1,Springer-Verlag Berlin Heidelberg,,267,0,German,,,,"978-3-662-40871-1,978-3-662-41355-5",,,,,,,10.1007/978-3-662-41355-5,,,,0,,,,,,,1,9729815,pdf,ac4ec56ff735952972175801ef13a85c,,,D:\\HDD4\\!genesis\\SPR_NEW_2013-12\\bok%3A978-3-662-41355-5.pdf,0,2000-01-01 01:00:00,2016-04-03 02:51:08,1140000/ac4ec56ff735952972175801ef13a85c-d.jpg,,
21252777,Anwendungen der Michellschen Widerstandstheorie,,,,Dipl.-Ing. Georg Weinblum (auth.),1929,1,Springer-Verlag Berlin Heidelberg,,50,0,German,,,,"978-3-662-31473-9,978-3-662-31680-1",,,,,,,10.1007/978-3-662-31680-1,,,,0,,,,,,,1,3278898,pdf,19f3778aa054324ec1187a8642ce27ad,,,D:\\HDD4\\!genesis\\SPR_NEW_2013-12\\bok%3A978-3-662-31680-1.pdf,0,2000-01-01 01:00:00,2016-04-03 02:51:08,1137000/19f3778aa054324ec1187a8642ce27ad-d.jpg,,
21252778,"Der Dampfbetrieb: Leitfaden für Betriebsingenieure, Werkführer und Heizer",,,,"E. Höhn (auth.), E. Höhn (eds.)",1929,3,Springer-Verlag Berlin Heidelberg,,244,0,German,,,,"978-3-662-36198-6,978-3-662-37028-5",,,,,,,10.1007/978-3-662-37028-5,,,,0,,,,,,,1,12557185,pdf,c923a8769b8420de45ffb081cb932fda,,,D:\\HDD4\\!genesis\\SPR_NEW_2013-12\\bok%3A978-3-662-37028-5.pdf,0,2000-01-01 01:00:00,2016-04-03 02:51:08,1139000/c923a8769b8420de45ffb081cb932fda-d.jpg,,
21252779,Arbeiten aus dem Elektrotechnischen Institut der Technischen Hochschule Aachen: Band III: 1928,,,,"W. Rogowski, K. Baumgart (auth.), Prof. Dr.-Ing. W. Rogowski (eds.)",1929,1,Springer-Verlag Berlin Heidelberg,,227,0,German,,,,"978-3-662-39384-0,978-3-662-40440-9",,,,,,,10.1007/978-3-662-40440-9,,,,0,,,,,,,1,15033876,pdf,bb9e2cce4abc44d388a24f803d7cfd7e,,,D:\\HDD4\\!genesis\\SPR_NEW_2013-12\\bok%3A978-3-662-40440-9.pdf,0,2000-01-01 01:00:00,2016-04-03 02:51:08,1139000/bb9e2cce4abc44d388a24f803d7cfd7e-d.jpg,,
21252780,Elektrische Gleichrichter und Ventile,,,,Professor Dr.-Ing. A. Güntherschulze (auth.),1929,2,Springer-Verlag Berlin Heidelberg,,337,0,German,,,,"978-3-662-40917-6,978-3-662-41401-9",,,,,,,10.1007/978-3-662-41401-9,,,,0,,,,,,,1,16732485,pdf,51ea6acef19fad4dcf054830d7c0158a,,,D:\\HDD4\\!genesis\\SPR_NEW_2013-12\\bok%3A978-3-662-41401-9.pdf,0,2000-01-01 01:00:00,2016-04-03 02:51:08,1140000/51ea6acef19fad4dcf054830d7c0158a-d.jpg,,
21252781,Die Rechtskunde des Ingenieurs und Kaufmanns: Ein Handbuch für Technik Industrie und Handel,,,,Dr. jur. Richard Blum (auth.),1929,3,Springer-Verlag Berlin Heidelberg,,758,0,German,,,,"978-3-662-40840-7,978-3-662-41324-1",,,,,,,10.1007/978-3-662-41324-1,,,,0,,,,,,,1,34536787,pdf,d70b010f04f96fb6c312727c7b9bbdbd,,,D:\\HDD4\\!genesis\\SPR_NEW_2013-12\\bok%3A978-3-662-41324-1.pdf,0,2000-01-01 01:00:00,2016-04-03 02:51:08,1140000/d70b010f04f96fb6c312727c7b9bbdbd-d.jpg,,
21252782,Vorlesungen über Maschinenelemente,,,,Dipl.-Ing. M. ten Bosch (auth.),1929,1,Springer-Verlag Berlin Heidelberg,,429,0,German,,,,"978-3-662-35408-7,978-3-662-36236-5",,,,,,,10.1007/978-3-662-36236-5,,,,0,,,,,,,1,24039426,pdf,bca21cc8dff5680040984f3a30e5ffb0,,,D:\\HDD4\\!genesis\\SPR_NEW_2013-12\\bok%3A978-3-662-36236-5.pdf,0,2000-01-01 01:00:00,2016-04-03 02:51:08,1138000/bca21cc8dff5680040984f3a30e5ffb0-d.jpg,,
21252783,Berechnung und Verhalten von Wasserrohrkesseln: Ein graphisches Verfahren zum raschen Berechnen von Dampfkesseln nebst einer Untersuchung über ihr Verhalten im Betriebe,,,,Friedrich Münzinger (auth.),1929,1,Springer-Verlag Berlin Heidelberg,,177,0,German,,,,"978-3-662-39173-0,978-3-662-40168-2",,,,,,,10.1007/978-3-662-40168-2,,,,0,,,,,,,1,8133486,pdf,0bc014e560d9374c343346d3dfa9b96d,,,D:\\HDD4\\!genesis\\SPR_NEW_2013-12\\bok%3A978-3-662-40168-2.pdf,0,2000-01-01 01:00:00,2016-04-03 02:51:08,1139000/0bc014e560d9374c343346d3dfa9b96d-d.jpg,,
21252784,Das Motorrad Aufbau und Arbeitsweise: Leicht Fasslich Dargestellt,,,,Ing. Fritz Meitner (auth.),1929,1,Springer-Verlag Wien,,263,0,German,,,,"978-3-7091-2346-1,978-3-7091-2364-5",,,,,,,10.1007/978-3-7091-2364-5,,,,0,,,,,,,1,14371106,pdf,21244553f32866e2705e220d25b26d59,,,D:\\HDD4\\!genesis\\SPR_NEW_2013-12\\bok%3A978-3-7091-2364-5.pdf,0,2000-01-01 01:00:00,2016-04-03 02:51:08,1143000/21244553f32866e2705e220d25b26d59-d.jpg,,
21252785,"Die Wandstärkenberechnung druckbeanspruchter Gefäße aus Schweißstahl-, Flußstahl-, Kupfer- und Aluminiumblech im Apparatebau: Mit Berücksichtigung der Werkstoff- und Bauvorschriften für Landdampfkessel vom Oktober 1926, ihres Nachtrages vom April 1927 und der hierzu vom Deutschen Dampfkessel- ausschuß herausgegebenen Erläuterungen",,Monographien zur Chemischen Apparatur,,Ingenieur Hans Melhardt (auth.),1929,1,Springer-Verlag Berlin Heidelberg,,65,0,German,,,,"978-3-662-33642-7,978-3-662-34040-0",,,,,,,10.1007/978-3-662-34040-0,,,,0,,,,,,,1,2294804,pdf,617d72e83f0b839017afd6fef3f151b7,,,D:\\HDD4\\!genesis\\SPR_NEW_2013-12\\bok%3A978-3-662-34040-0.pdf,0,2000-01-01 01:00:00,2016-04-03 02:51:08,1138000/617d72e83f0b839017afd6fef3f151b7-d.jpg,,
21252786,Der Einfluß mangelhafter elektrischer Anlagen auf die Feuersicherheit besonders in der Landwirtschaft,,,,K. Schneidermann (auth.),1929,5,Springer-Verlag Berlin Heidelberg,,35,0,German,,,,"978-3-662-38774-0,978-3-662-39672-8",,,,,,,10.1007/978-3-662-39672-8,,,,0,,,,,,,1,3149637,pdf,4e32285735d503055296ad4a64e74747,,,D:\\HDD4\\!genesis\\SPR_NEW_2013-12\\bok%3A978-3-662-39672-8.pdf,0,2000-01-01 01:00:00,2016-04-03 02:51:08,1139000/4e32285735d503055296ad4a64e74747-d.jpg,,
21252787,Theorie der Rahmenwerke auf neuer Grundlage: Mit Anwendungsbeispielen,,,,Dr.-Ing. L. Mann (auth.),1927,1,Springer-Verlag Berlin Heidelberg,,133,0,German,,,,"978-3-662-31837-9,978-3-662-32663-3",,,,,,,10.1007/978-3-662-32663-3,,,,0,,,,,,,1,6270343,pdf,bd36e5222c821f60fac2d59693686e8f,,,D:\\HDD4\\!genesis\\SPR_NEW_2013-12\\bok%3A978-3-662-32663-3.pdf,0,2000-01-01 01:00:00,2016-04-03 02:51:08,1137000/bd36e5222c821f60fac2d59693686e8f-d.jpg,,
21252788,Wärmetechnische Grundlagen der Industrieöfen: Eine Einführung in die Wärmelehre und Gedrängte Übersicht über die Verschiedenen Arten von Brennstoffen und Ihre Verwertung,,,,Hofrat Ing. Hans v. Jüptner (auth.),1927,1,Springer-Verlag Berlin Heidelberg,,276,0,German,,,,"978-3-662-33392-1,978-3-662-33789-9",,,,,,,10.1007/978-3-662-33789-9,,,,0,,,,,,,1,11342411,pdf,776e23179187ed228002515ed81bb82a,,,D:\\HDD4\\!genesis\\SPR_NEW_2013-12\\bok%3A978-3-662-33789-9.pdf,0,2000-01-01 01:00:00,2016-04-03 02:51:08,1138000/776e23179187ed228002515ed81bb82a-d.jpg,,
21252789,Grundlagen des Aufzugsbaues: Mit Berücksichtigung der Aufzugsverordnung vom Jahre 1926,,,,Dr. M. Paetzold (auth.),1927,1,Springer-Verlag Berlin Heidelberg,,180,0,German,,,,"978-3-662-40728-8,978-3-662-41210-7",,,,,,,10.1007/978-3-662-41210-7,,,,0,,,,,,,1,12086927,pdf,ff04bd405fd9386f8a93d08269a14761,,,D:\\HDD4\\!genesis\\SPR_NEW_2013-12\\bok%3A978-3-662-41210-7.pdf,0,2000-01-01 01:00:00,2016-04-03 02:51:08,1140000/ff04bd405fd9386f8a93d08269a14761-d.jpg,,
21252790,"Wirkerei und Strickerei, Netzen und Filetstrickerei, Maschinenflechten U. Maschinenklöppeln, Flecht- Und Klöppelmaschinen, Samt, Plüsch, Künstliche Pelze, Die Herstellung Der Teppiche, Stickmaschinen",,"Technologie der Textilfasern 2, 3",,"Fachschulrat Carl Aberle, Walter Krumme, Dipl. Ing. Prof. H. Glafey, H. Sautter, Dipl. Ing. R. Glafey (auth.)",1927,1,Springer-Verlag Berlin Heidelberg,,"VIII, 620 S.",0,German,,,,"978-3-662-27957-1,978-3-662-29465-9",,,,,,,10.1007/978-3-662-29465-9,,,,0,,,,,,,1,38328495,pdf,346cd2d33e7ae5ecf95d56f384540e6a,,,D:\\HDD4\\!genesis\\SPR_NEW_2013-12\\bok%3A978-3-662-29465-9.pdf,0,2000-01-01 01:00:00,2016-04-03 02:51:08,1137000/346cd2d33e7ae5ecf95d56f384540e6a-d.jpg,,
21252791,"Material- und Zeitaufwand bei Bauarbeiten: 127 Tabellen zur Ermittlung der Kosten von Erd-, Maurer-, Putz-, Estrich- und Fliesen-, Asphalt-, Dichtungs- (Isolierungs-), Beton- und Eisenbeton-, Zimmerer-, Dachdecker-, Spengler- (Klempner-), Tischler-(Schreiner-), Beschlag-, Glaser-, Maler-, Anstreicher-, Klebe-, Hafner-(Ofen- und Herdsetzer-), Entwässerungs-, Brunnenmacher-Arbeiten",,,,Arnold Ilkow (auth.),1927,3,Springer-Verlag Berlin Heidelberg,,72,0,German,,,,"978-3-662-31353-4,978-3-662-31558-3",,,,,,,10.1007/978-3-662-31558-3,,,,0,,,,,,,1,5040603,pdf,cfb4c069c35626e615107d140a7ee241,,,D:\\HDD4\\!genesis\\SPR_NEW_2013-12\\bok%3A978-3-662-31558-3.pdf,0,2000-01-01 01:00:00,2016-04-03 02:51:08,1137000/cfb4c069c35626e615107d140a7ee241-d.jpg,,
21252792,Oberbau und Gleisverbindungen: II. Teil. Eisenbahnwesen und Städtebau,,Handbibliothek für Bauingenieure 4,,Dr.-Ing. Adolf Bloss (auth.),1927,1,Springer-Verlag Berlin Heidelberg,,183,0,German,,,,"978-3-642-98795-3,978-3-642-99610-8",,,,,,,10.1007/978-3-642-99610-8,,,,0,,,,,,,1,14043718,pdf,dd9bca931cc80eca5ba8808f3bf79755,,,D:\\HDD4\\!genesis\\SPR_NEW_2013-12\\bok%3A978-3-642-99610-8.pdf,0,2000-01-01 01:00:00,2016-04-03 02:51:08,1136000/dd9bca931cc80eca5ba8808f3bf79755-d.jpg,,
21252793,Die rationelle Bewirtschaftung des Betons: Erfahrungen mit Gußbeton beim Bau der Nordkaje des Hafens II in Bremen,,,,Dr.-Ing. Arnold Agatz (auth.),1927,1,Springer-Verlag Berlin Heidelberg,,129,0,German,,,,"978-3-642-50607-9,978-3-642-50917-9",,,,,,,10.1007/978-3-642-50917-9,,,,0,,,,,,,1,5875687,pdf,09c66e916944fcbbda2de400ce30cc4d,,,D:\\HDD4\\!genesis\\SPR_NEW_2013-12\\bok%3A978-3-642-50917-9.pdf,0,2000-01-01 01:00:00,2016-04-03 02:51:08,1135000/09c66e916944fcbbda2de400ce30cc4d-d.jpg,,
21252794,Betriebswirtschaftslehre in Verbindung mit Recht und Technik des Handels: Eine Einführung,,,,Dr. Paul Echardt (auth.),1927,1,Vieweg+Teubner Verlag,,211,0,German,,,,"978-3-663-15634-5,978-3-663-16209-4",,,,,,,10.1007/978-3-663-16209-4,,,,0,,,,,,,1,19560566,pdf,1d2a95a8f0ad6c9adf0657af0bc0117f,,,D:\\HDD4\\!genesis\\SPR_NEW_2013-12\\bok%3A978-3-663-16209-4.pdf,0,2000-01-01 01:00:00,2016-04-03 02:51:08,1143000/1d2a95a8f0ad6c9adf0657af0bc0117f-d.jpg,,
21252795,Die Schachtfördermaschinen: Die Dampffördermaschinen,,Die Bergwerksmaschinen,,Dr. Fritz Schmidt (auth.),1927,2,Springer-Verlag Berlin Heidelberg,,302,0,German,,,,"978-3-662-34320-3,978-3-662-34591-7",,,,,,,10.1007/978-3-662-34591-7,,,,0,,,,,,,1,19820022,pdf,55d6de4805cfb54b5bca9b208b891431,,,D:\\HDD4\\!genesis\\SPR_NEW_2013-12\\bok%3A978-3-662-34591-7.pdf,0,2000-01-01 01:00:00,2016-04-03 02:51:08,1138000/55d6de4805cfb54b5bca9b208b891431-d.jpg,,
21252796,Handbuch der Eisen- und Stahlgießerei: Zweiter Band: Formen und Gießen,,,,"Professor Dr.-Ing. e. h. O. Bauer, Professor Dr. Dr.-Ing. e. h. L. Beck, Ing. Georg Buzek, T. Cremer, Dr.-Ing. K. Daeves, Dr.-Ing. K. Dornhecker, Dr.-Ing. R. Durrer, Obering. M. Escher, Dipl.-Ing. G. Fiek, Professor Dipl.-Ing. G. Hellenthal, Oberbergrat J. Hornung, Ing. C. Irresberger, Professor Dipl.-Ing. U. Lohse, Professor Dr.-Ing. P. Oberhoffer, Dr.-Ing. M. Philips, Dr.-Ing. E. Schüz, Dr.-Ing. C. Schwarz, Dr.-Ing. A. Stadeler, Dr.-Ing. R. Stotz, Obering. L. Treuheit, Dipl.Ing. S. J. Waldmann, Ingenieur Fr. Wernicke, Professor A. Widmaier, Dipl.-Ing. H. Witte, Ing. C. Irresberger (auth.), Dr.-Ing. C. Geiger (eds.)",1927,2,Springer-Verlag Berlin Heidelberg,,598,0,German,,,,"978-3-662-33571-0,978-3-662-33969-5",,,,,,,10.1007/978-3-662-33969-5,,,,0,,,,,,,1,49942195,pdf,4973c23dc7641b8b2f6c24e860ee31be,,,D:\\HDD4\\!genesis\\SPR_NEW_2013-12\\bok%3A978-3-662-33969-5.pdf,0,2000-01-01 01:00:00,2016-04-03 02:51:08,1138000/4973c23dc7641b8b2f6c24e860ee31be-d.jpg,,
21252797,Einführung in die Höhere Mathematik: Unter besonderer Berücksichtigung der Bedürfnisse des Ingenieurs,,,,Dr. phil. Fritz Wicke (auth.),1927,1,Springer-Verlag Berlin Heidelberg,,931,0,German,,,,"978-3-662-35974-7,978-3-662-36804-6",,,,,,,10.1007/978-3-662-36804-6,,,,0,,,,,,,1,34695280,pdf,b4021833b1a3650492b38761c9d217c1,,,D:\\HDD4\\!genesis\\SPR_NEW_2013-12\\bok%3A978-3-662-36804-6.pdf,0,2000-01-01 01:00:00,2016-04-03 02:51:08,1139000/b4021833b1a3650492b38761c9d217c1-d.jpg,,
21252798,Vorrichtungen im Maschinenbau: nebst Anwendungsbeispielen aus der Praxis,,,,Otto Lich (auth.),1927,2,Springer-Verlag Berlin Heidelberg,,512,0,German,,,,"978-3-662-27990-8,978-3-662-29498-7",,,,,,,10.1007/978-3-662-29498-7,,,,0,,,,,,,1,33127507,pdf,5fd7f2cb97060a3671e8a16a0d194742,,,D:\\HDD4\\!genesis\\SPR_NEW_2013-12\\bok%3A978-3-662-29498-7.pdf,0,2000-01-01 01:00:00,2016-04-03 02:51:08,1137000/5fd7f2cb97060a3671e8a16a0d194742-d.jpg,,
21252799,"Mathematisch-technische Zahlentafeln: Genehmigt zum Gebrauch bei den Reifeprüfungen an den höheren Masehinenbauschulen, Maschinen-bauschulen, Hüttenschulen und anderen Fachschulen für die Metallindustrie",,,,"Dipl. Ing. H. Bohde, Prof. Dr. J. Freyberg, Dipl. Ing. Prof. L. Geusen (auth.)",1927,5,Springer-Verlag Berlin Heidelberg,,70,0,German,,,,"978-3-662-38844-0,978-3-662-39762-6",,,,,,,10.1007/978-3-662-39762-6,,,,0,,,,,,,1,4269269,pdf,9c11598950247e4e1a7a3dc7d8745539,,,D:\\HDD4\\!genesis\\SPR_NEW_2013-12\\bok%3A978-3-662-39762-6.pdf,0,2000-01-01 01:00:00,2016-04-03 02:51:08,1139000/9c11598950247e4e1a7a3dc7d8745539-d.jpg,,
21252800,Die Gewöhnlichen und Partiellen Differenzengleichungen der Baustatik,,,,"Ing. Dr. Fr. Bleich, Ing. Dr. E. Melan (auth.)",1927,1,Springer-Verlag Wien,,360,0,German,,,,"978-3-7091-2151-1,978-3-7091-2195-5",,,,,,,10.1007/978-3-7091-2195-5,,,,0,,,,,,,1,15517476,pdf,ee4bd193e5dc65643b836353fc49525e,,,D:\\HDD4\\!genesis\\SPR_NEW_2013-12\\bok%3A978-3-7091-2195-5.pdf,0,2000-01-01 01:00:00,2016-04-03 02:51:08,1143000/ee4bd193e5dc65643b836353fc49525e-d.jpg,,
21252801,Der neuzeitliche Straßenbau: Aufgaben und Technik,,Handbibliothek für Bauingenieure 10,,E. Neumann Dr.-Ing. (auth.),1927,1,Springer-Verlag Berlin Heidelberg,,419,0,German,,,,"978-3-642-89107-6,978-3-642-90963-4",,,,,,,10.1007/978-3-642-90963-4,,,,0,,,,,,,1,21698620,pdf,9b4bb40f0407e99c3f18bab2435563a6,,,D:\\HDD4\\!genesis\\SPR_NEW_2013-12\\bok%3A978-3-642-90963-4.pdf,0,2000-01-01 01:00:00,2016-04-03 02:51:08,1135000/9b4bb40f0407e99c3f18bab2435563a6-d.jpg,,
21252802,Bau und Berechnung der Verbrennungskraftmaschinen: Eine Einführung,,,,Dipl.-Ing. Franz Seufert (auth.),1927,5,Springer-Verlag Berlin Heidelberg,,146,0,German,,,,"978-3-662-39275-1,978-3-662-40306-8",,,,,,,10.1007/978-3-662-40306-8,,,,0,,,,,,,1,6487020,pdf,35c57be96e19f22600bd3685a3b2137c,,,D:\\HDD4\\!genesis\\SPR_NEW_2013-12\\bok%3A978-3-662-40306-8.pdf,0,2000-01-01 01:00:00,2016-04-03 02:51:08,1139000/35c57be96e19f22600bd3685a3b2137c-d.jpg,,
21252803,"Neuzeitliche freitragende Dacheindeckungen: Versuche, Theorie und praktische Anwendungen zum Behelf für Ingenieure, Architekten, Baubehörden und Baugeschäfte",,,,Dr.-Ing. Luz David (auth.),1927,1,Springer-Verlag Berlin Heidelberg,,73,0,German,,,,"978-3-662-31947-5,978-3-662-32774-6",,,,,,,10.1007/978-3-662-32774-6,,,,0,,,,,,,1,4380545,pdf,aeea202dd81a7a6d15a64e7dd04e9102,,,D:\\HDD4\\!genesis\\SPR_NEW_2013-12\\bok%3A978-3-662-32774-6.pdf,0,2000-01-01 01:00:00,2016-04-03 02:51:08,1137000/aeea202dd81a7a6d15a64e7dd04e9102-d.jpg,,
21252804,Chauffeurkurs: Leichtverständliche Vorbereitung zur Chauffeurprüfung,,,,Karl Blau (auth.),1927,7,Springer-Verlag Berlin Heidelberg,,244,0,German,,,,"978-3-662-38989-8,978-3-662-39957-6",,,,,,,10.1007/978-3-662-39957-6,,,,0,,,,,,,1,9402681,pdf,526be0678eb0c8e563253fc1d91eb709,,,D:\\HDD4\\!genesis\\SPR_NEW_2013-12\\bok%3A978-3-662-39957-6.pdf,0,2000-01-01 01:00:00,2016-04-03 02:51:08,1139000/526be0678eb0c8e563253fc1d91eb709-d.jpg,,
21252805,"Bemessungstafeln für Eisenbetonkonstruktionen: Tafeln zum Ablesen der Momente, der Bewehrungen für einfach und doppelt bewehrte Platten, Balken und Plattenbalken bei Verwendung von gewöhnlichem und hochwertigem Zement und Eisen bzw. Stahl, mit Berücksichtigung der Spannungen im Steg, und Tafeln für das sofortige Ablesen von Stützenquerschnitten und Bewehrungen auch bei Knickgefahr",,,,Baurat Paul Göldel (auth.),1927,1,Springer-Verlag Berlin Heidelberg,,232,0,German,,,,"978-3-662-36217-4,978-3-662-37047-6",,,,,,,10.1007/978-3-662-37047-6,,,,0,,,,,,,1,8948783,pdf,b2e02c9c79d2eb3623ec12ef1ae05ddc,,,D:\\HDD4\\!genesis\\SPR_NEW_2013-12\\bok%3A978-3-662-37047-6.pdf,0,2000-01-01 01:00:00,2016-04-03 02:51:08,1139000/b2e02c9c79d2eb3623ec12ef1ae05ddc-d.jpg,,
21252806,Ist Gußbeton wirtschaftlich?: Untersuchungen über die Wirtschaftlichkeit von Gußbeton gegenüber Stampfbeton,,,,Dr.-Ing. L. Baumeister (auth.),1927,1,Springer-Verlag Berlin Heidelberg,,110,0,German,,,,"978-3-662-32057-0,978-3-662-32884-2",,,,,,,10.1007/978-3-662-32884-2,,,,0,,,,,,,1,6642208,pdf,229e76b186ad5b41e8db49ec95bba092,,,D:\\HDD4\\!genesis\\SPR_NEW_2013-12\\bok%3A978-3-662-32884-2.pdf,0,2000-01-01 01:00:00,2016-04-03 02:51:08,1137000/229e76b186ad5b41e8db49ec95bba092-d.jpg,,
21252807,Die Luftvorwärmung im Dampfkesselbetrieb,,Monographien zur Feuerungstechnik,,Dipl.-Ing. Wilhelm Gumz (auth.),1927,1,Springer-Verlag Berlin Heidelberg,,199,0,German,,,,"978-3-662-33668-7,978-3-662-34066-0",,,,,,,10.1007/978-3-662-34066-0,,,,0,,,,,,,1,9264254,pdf,c878295f25f93f461dad0930e027c09b,,,D:\\HDD4\\!genesis\\SPR_NEW_2013-12\\bok%3A978-3-662-34066-0.pdf,0,2000-01-01 01:00:00,2016-04-03 02:51:08,1138000/c878295f25f93f461dad0930e027c09b-d.jpg,,
21252808,Differentialrechnung unter Berücksichtigung der praktischen Anwendung in der Technik mit zahlreichen Beispielen und Aufgaben versehen,,Aus Natur und Geisteswelt 387,,Dr. Martin Lindow (auth.),1927,5,Vieweg+Teubner Verlag,,120,0,German,,,,"978-3-663-15486-0,978-3-663-16058-8",,,,,,,10.1007/978-3-663-16058-8,,,,0,,,,,,,1,9495617,pdf,ef5232be21ed92088669efb0a9c6e3ff,,,D:\\HDD4\\!genesis\\SPR_NEW_2013-12\\bok%3A978-3-663-16058-8.pdf,0,2000-01-01 01:00:00,2016-04-03 02:51:08,1142000/ef5232be21ed92088669efb0a9c6e3ff-d.jpg,,
21252809,Die Berechnung elektrischer Leitungsnetze in Theorie und Praxis,,,,Clarence Feldmann (auth.),1927,4,Springer-Verlag Berlin Heidelberg,,569,0,German,,,,"978-3-662-36170-2,978-3-662-37000-1",,,,,,,10.1007/978-3-662-37000-1,,,,0,,,,,,,1,19763264,pdf,b8a68bf06a7ed1fa7b76d630fcb94b3e,,,D:\\HDD4\\!genesis\\SPR_NEW_2013-12\\bok%3A978-3-662-37000-1.pdf,0,2000-01-01 01:00:00,2016-04-03 02:51:08,1139000/b8a68bf06a7ed1fa7b76d630fcb94b3e-d.jpg,,
21252810,Die Beseitigung der beim Tauch- und Spritzlackieren entstehenden Dämpfe: Im auftrag des Technischen Ausschusses der Deutschen Gesellschaft fϋr Gewerbehygiene bearbeitet,,Schriften aus dem Gesamtgebiet der Gewerbehygiene N. F. 18,,"Wenzel, Alvensleben, Witt (auth.), Wenzel, Alvensleben, Witt (eds.)",1927,1,Springer-Verlag Berlin Heidelberg,,45,0,German,,,,"978-3-662-40947-3,978-3-662-41431-6",,,,,,,10.1007/978-3-662-41431-6,,,,0,,,,,,,1,4475090,pdf,cad1258e07da85abb5c47ab7891c5804,,,D:\\HDD4\\!genesis\\SPR_NEW_2013-12\\bok%3A978-3-662-41431-6.pdf,0,2000-01-01 01:00:00,2016-04-03 02:51:08,1140000/cad1258e07da85abb5c47ab7891c5804-d.jpg,,
21252811,Der Bauratgeber: Handbuch für das gesamte Baugewerbe und seine Grenzgebiete,,,,Ing. Leopold Herzka (auth.),1927,8,Springer-Verlag Berlin Heidelberg,,829,0,German,,,,"978-3-662-36202-0,978-3-662-37032-2",,,,,,,10.1007/978-3-662-37032-2,,,,0,,,,,,,1,37516538,pdf,70fcba526de2ab4a4761eb178f702c57,,,D:\\HDD4\\!genesis\\SPR_NEW_2013-12\\bok%3A978-3-662-37032-2.pdf,0,2000-01-01 01:00:00,2016-04-03 02:51:08,1139000/70fcba526de2ab4a4761eb178f702c57-d.jpg,,
21252812,Die Wärmeübertragung: Ein Lehr- und Nachschlagebuch für den praktischen Gebrauch,,,,Dipl.-Ing. M. ten Bosch (auth.),1927,2,Springer-Verlag Berlin Heidelberg,,318,0,German,,,,"978-3-662-36005-7,978-3-662-36835-0",,,,,,,10.1007/978-3-662-36835-0,,,,0,,,,,,,1,13459568,pdf,e966ef7c305eb4e1f919fc68aec9ea62,,,D:\\HDD4\\!genesis\\SPR_NEW_2013-12\\bok%3A978-3-662-36835-0.pdf,0,2000-01-01 01:00:00,2016-04-03 02:51:08,1139000/e966ef7c305eb4e1f919fc68aec9ea62-d.jpg,,
21252813,Schwingungstechnik. Ein Handbuch für Ingenieure: Grundlagen. Die Eigenschwingungen eingliedriger Systeme,,,,Dr.-Ing. Ernst Lehr (auth.),1930,1,Springer-Verlag Berlin Heidelberg,,322,0,German,,,,"978-3-662-31876-8,978-3-662-32703-6",,,,,,,10.1007/978-3-662-32703-6,,,,0,,,,,,,1,15409796,pdf,31acbfd674dc730680abb4a3b7411f03,,,D:\\HDD4\\!genesis\\SPR_NEW_2013-12\\bok%3A978-3-662-32703-6.pdf,0,2000-01-01 01:00:00,2016-04-03 02:51:08,1137000/31acbfd674dc730680abb4a3b7411f03-d.jpg,,
21252814,Eiserne Gittermaste für Starkstrom-Freileitungen: Berechnung und Beispiele,,,,Wilhelm Taenzer (auth.),1930,1,Springer-Verlag Berlin Heidelberg,,72,0,German,,,,"978-3-662-31394-7,978-3-662-31601-6",,,,,,,10.1007/978-3-662-31601-6,,,,0,,,,,,,1,5824948,pdf,00eb59d71de0411b634d2855f57db1d1,,,D:\\HDD4\\!genesis\\SPR_NEW_2013-12\\bok%3A978-3-662-31601-6.pdf,0,2000-01-01 01:00:00,2016-04-03 02:51:08,1137000/00eb59d71de0411b634d2855f57db1d1-d.jpg,,
21252815,Das Anreißen in Maschinenbau-Werkstätten,,Werkstattbücher,,Ing. F. Klautke (auth.),1930,2,Springer-Verlag Berlin Heidelberg,,46,0,German,,,,"978-3-662-31450-0,978-3-662-31657-3",,,,,,,10.1007/978-3-662-31657-3,,,,0,,,,,,,1,3315484,pdf,052d192b9804f14a9bcfe8fd29173016,,,D:\\HDD4\\!genesis\\SPR_NEW_2013-12\\bok%3A978-3-662-31657-3.pdf,0,2000-01-01 01:00:00,2016-04-03 02:51:08,1137000/052d192b9804f14a9bcfe8fd29173016-d.jpg,,
21252816,"Betriebs-Chemie für Maschinenbauer und Elektrotechniker: Ein Lehr- und Hilfsbuch zur Einführung in die Werkstoffkunde für Maschinen- und Elektrotechniker sowie für den Unterricht an höheren Maschinenbauschulen, Maschinenbauschulen Betriebsfachschulen und elektrotechnischen Lehranstalten",,,,Dipl.-Ing. Prof. Dr. S. Jakobi (auth.),1930,3,Springer-Verlag Berlin Heidelberg,,168,0,German,,,,"978-3-662-35851-1,978-3-662-36681-3",,,,,,,10.1007/978-3-662-36681-3,,,,0,,,,,,,1,10584794,pdf,d50c31532026d644e62e362cdbce4d0f,,,D:\\HDD4\\!genesis\\SPR_NEW_2013-12\\bok%3A978-3-662-36681-3.pdf,0,2000-01-01 01:00:00,2016-04-03 02:51:08,1138000/d50c31532026d644e62e362cdbce4d0f-d.jpg,,
21252817,Die Beseitigung der beim Tauch- und Spritzlackieren entstehenden Dämpfe: Im Auftrag des Technischen Ausschusses der Deutschen Gesellschaft für Gewerbehygiene bearbeitet,,Schriften aus dem Gesamtgebiet der Gewerbehygiene 18,,"Wenzel, Alvensleben, Dr. Witt (auth.)",1930,2,Springer-Verlag Berlin Heidelberg,,55,0,German,,,,"978-3-662-34354-8,978-3-662-34625-9",,,,,,,10.1007/978-3-662-34625-9,,,,0,,,,,,,1,3115487,pdf,c9ab26d63f4520c29b6d238ef27dd908,,,D:\\HDD4\\!genesis\\SPR_NEW_2013-12\\bok%3A978-3-662-34625-9.pdf,0,2000-01-01 01:00:00,2016-04-03 02:51:08,1138000/c9ab26d63f4520c29b6d238ef27dd908-d.jpg,,
21252818,Der Wasserbau: Ein Handbuch für Studium und Praxis,,,,Ing. Dr. Techn. Armin Schoklitsch (auth.),1930,1,Springer-Verlag Berlin Heidelberg,,499,0,German,,,,"978-3-662-42717-0,978-3-662-42994-5",,,,,,,10.1007/978-3-662-42994-5,,,,0,,,,,,,1,28155108,pdf,ada001e66eecec204b248d2275d573c1,,,D:\\HDD4\\!genesis\\SPR_NEW_2013-12\\bok%3A978-3-662-42994-5.pdf,0,2000-01-01 01:00:00,2016-04-03 02:51:08,1140000/ada001e66eecec204b248d2275d573c1-d.jpg,,
21252819,Kreiselmaschinen: Einführung in Eigenart und Berechnung der rotierenden Kraft- und Arbeitsmaschinen,,,,Dipl.-Ing. Hermann Schaefer (auth.),1930,1,Springer-Verlag Berlin Heidelberg,,138,0,German,,,,"978-3-662-35712-5,978-3-662-36542-7",,,,,,,10.1007/978-3-662-36542-7,,,,0,,,,,,,1,6996706,pdf,77429f230082998b8a252ab4e863f2ff,,,D:\\HDD4\\!genesis\\SPR_NEW_2013-12\\bok%3A978-3-662-36542-7.pdf,0,2000-01-01 01:00:00,2016-04-03 02:51:08,1138000/77429f230082998b8a252ab4e863f2ff-d.jpg,,
21252820,Die maschinentechnischen Bauformen und das Skizzieren in Perspektive: Das Skizzieren von Maschinenteilen in Perspektive,,,,Dipl.-Ing. Carl Volk (auth.),1930,1,Springer-Verlag Berlin Heidelberg,,56,0,German,,,,"978-3-642-90501-8,978-3-642-92358-6",,,,,,,10.1007/978-3-642-92358-6,,,,0,,,,,,,1,2125161,pdf,9359ce993150bc2374c8b44858340986,,,D:\\HDD4\\!genesis\\SPR_NEW_2013-12\\bok%3A978-3-642-92358-6.pdf,0,2000-01-01 01:00:00,2016-04-03 02:51:08,1135000/9359ce993150bc2374c8b44858340986-d.jpg,,
21252821,Schnitte und Stanzen. Ein Lehr- und Nachschlagebuch für Studium und Praxis: Zweiter Band: Biegestanzen und Biege-Verbundwerkzeuge,,,,Ernst Göhre (auth.),1930,1,Springer-Verlag Berlin Heidelberg,,239,0,German,,,,"978-3-642-51924-6,978-3-642-51986-4",,,,,,,10.1007/978-3-642-51986-4,,,,0,,,,,,,1,11202235,pdf,b4e038de96fb82456579ccac290d62e0,,,D:\\HDD4\\!genesis\\SPR_NEW_2013-12\\bok%3A978-3-642-51986-4.pdf,0,2000-01-01 01:00:00,2016-04-03 02:51:08,1135000/b4e038de96fb82456579ccac290d62e0-d.jpg,,
21252822,Sperrwerke und Bremsen,,Einzelkonstruktionen aus dem Maschinenbau H. 7,,Dipl.-Ing. Richard Hänchen (auth.),1930,1,Springer-Verlag Berlin Heidelberg,,101,0,German,,,,"978-3-662-40573-4,978-3-662-41473-6",,,,,,,10.1007/978-3-662-41473-6,,,,0,,,,,,,1,7552658,pdf,1d4e72fd074eeacd5f1cb1ab1777b0ce,,,D:\\HDD4\\!genesis\\SPR_NEW_2013-12\\bok%3A978-3-662-41473-6.pdf,0,2000-01-01 01:00:00,2016-04-03 02:51:08,1140000/1d4e72fd074eeacd5f1cb1ab1777b0ce-d.jpg,,
21252823,Arbeiten aus dem Elektrotechnischen Institut der Badischen Technischen Hochschule Fridericiana zu Karlsruhe: V. Band. 1927–1929,,,,"Dr.-Ing. Herbert Weißheimer (auth.), Prof. Dr.-Ing. Rudolf Richter (eds.)",1930,1,Springer-Verlag Berlin Heidelberg,,258,0,German,,,,"978-3-662-39387-1,978-3-662-40443-0",,,,,,,10.1007/978-3-662-40443-0,,,,0,,,,,,,1,11138300,pdf,7407bd5900ae1cd441c92827da8e07c9,,,D:\\HDD4\\!genesis\\SPR_NEW_2013-12\\bok%3A978-3-662-40443-0.pdf,0,2000-01-01 01:00:00,2016-04-03 02:51:08,1139000/7407bd5900ae1cd441c92827da8e07c9-d.jpg,,
21252824,Die Entropietafel für Luft und ihre Verwendung zur Berechnung der Kolben- und Turbo-Kompressoren,,,,P. Ostertag (auth.),1930,3,Springer-Verlag Berlin Heidelberg,,54,0,German,,,,"978-3-662-36108-5,978-3-662-36938-8",,,,,,,10.1007/978-3-662-36938-8,,,,0,,,,,,,1,3768382,pdf,f303dcf5cfcf06631210de7c3a2231a2,,,D:\\HDD4\\!genesis\\SPR_NEW_2013-12\\bok%3A978-3-662-36938-8.pdf,0,2000-01-01 01:00:00,2016-04-03 02:51:08,1139000/f303dcf5cfcf06631210de7c3a2231a2-d.jpg,,
21252825,"Die Ventilatoren: Berechnung, Entwurf und Anwendung",,,,Dr. sc. techn. E. Wiesmann (auth.),1930,2,Springer-Verlag Berlin Heidelberg,,320,0,German,,,,"978-3-662-36010-1,978-3-662-36840-4",,,,,,,10.1007/978-3-662-36840-4,,,,0,,,,,,,1,12310009,pdf,a2cf09d46f1c61baf48469222a957d81,,,D:\\HDD4\\!genesis\\SPR_NEW_2013-12\\bok%3A978-3-662-36840-4.pdf,0,2000-01-01 01:00:00,2016-04-03 02:51:08,1139000/a2cf09d46f1c61baf48469222a957d81-d.jpg,,
21252826,Bergbahnen,,Handbibliothek für Bauingenieure 9,,"O. Ammann, C. v. Gruenewaldt (auth.)",1930,1,Springer-Verlag Berlin Heidelberg,,189,0,German,,,,"978-3-662-40816-2,978-3-662-41300-5",,,,,,,10.1007/978-3-662-41300-5,,,,0,,,,,,,1,13014496,pdf,d56c38a1502b80d2866a79e6eb28a148,,,D:\\HDD4\\!genesis\\SPR_NEW_2013-12\\bok%3A978-3-662-41300-5.pdf,0,2000-01-01 01:00:00,2016-04-03 02:51:08,1140000/d56c38a1502b80d2866a79e6eb28a148-d.jpg,,
21252827,Vorrichtungen zum staubfreien Umfüllen und Verpacken staubförmiger Stoffe,,,,(auth.),1930,1,Springer-Verlag Berlin Heidelberg,,53,0,German,,,,"978-3-662-42665-4,978-3-662-42942-6",,,,,,,10.1007/978-3-662-42942-6,,,,0,,,,,,,1,2430950,pdf,9d2c8712a02929fa3e936054a51c002f,,,D:\\HDD4\\!genesis\\SPR_NEW_2013-12\\bok%3A978-3-662-42942-6.pdf,0,2000-01-01 01:00:00,2016-04-03 02:51:08,1140000/9d2c8712a02929fa3e936054a51c002f-d.jpg,,
21252828,Kraft- und Wärmewirtschaft in der Industrie,,,,Oberbaurat Ing. M. Gerbel (auth.),1930,3,Springer-Verlag Berlin Heidelberg,,349,0,German,,,,"978-3-662-35716-3,978-3-662-36546-5",,,,,,,10.1007/978-3-662-36546-5,,,,0,,,,,,,1,13369878,pdf,3d3b012afd14d3acf09765842a5a555f,,,D:\\HDD4\\!genesis\\SPR_NEW_2013-12\\bok%3A978-3-662-36546-5.pdf,0,2000-01-01 01:00:00,2016-04-03 02:51:08,1138000/3d3b012afd14d3acf09765842a5a555f-d.jpg,,
21252829,Der Vorrichtungsbau: III Wirtschaftliche Herstellung und Ausnutzung der Vorrichtungen,,Werkstattbücher 42,,Fritz Grünhagen (auth.),1930,1,Springer-Verlag Berlin Heidelberg,,55,0,German,,,,"978-3-662-41684-6,978-3-662-41821-5",,,,,,,10.1007/978-3-662-41821-5,,,,0,,,,,,,1,3528084,pdf,f43e996116add86e7c636a72c5c9b58b,,,D:\\HDD4\\!genesis\\SPR_NEW_2013-12\\bok%3A978-3-662-41821-5.pdf,0,2000-01-01 01:00:00,2016-04-03 02:51:08,1140000/f43e996116add86e7c636a72c5c9b58b-d.jpg,,
21252830,Die Pumpen: Ein Leitfaden für höhere Maschinenbauschulen und zum Selbstunterricht,,,,"H. Matthießen, E. Fuchslocher (auth.)",1928,2,Springer-Verlag Berlin Heidelberg,,97,0,German,,,,"978-3-662-42851-1,978-3-662-43134-4",,,,,,,10.1007/978-3-662-43134-4,,,,0,,,,,,,1,6115838,pdf,bf47d5021013c268b371084c66b2087f,,,D:\\HDD4\\!genesis\\SPR_NEW_2013-12\\bok%3A978-3-662-43134-4.pdf,0,2000-01-01 01:00:00,2016-04-03 02:51:08,1140000/bf47d5021013c268b371084c66b2087f-d.jpg,,
21252831,Grundbegriffe des Städtebaues: Zweiter Band,,,,K. A. Hoepfner (auth.),1928,1,Springer-Verlag Berlin Heidelberg,,212,0,German,,,,"978-3-642-89857-0,978-3-642-91714-1",,,,,,,10.1007/978-3-642-91714-1,,,,0,,,,,,,1,11505929,pdf,81210521c68f165f95591b86fbf73467,,,D:\\HDD4\\!genesis\\SPR_NEW_2013-12\\bok%3A978-3-642-91714-1.pdf,0,2000-01-01 01:00:00,2016-04-03 02:51:08,1135000/81210521c68f165f95591b86fbf73467-d.jpg,,
21252832,"Der Kesselbaustoff: Abriß dessen was der Dampfkessel-Überwachungs-Ingenieur von der Herstellung, den Eigentümlichkeiten und der Prüfweise des Baustoffs wissen muß",,,,Dr. Ing. Max Moser (auth.),1928,3,Springer-Verlag Berlin Heidelberg,,68,0,German,,,,"978-3-662-38681-1,978-3-662-39555-4",,,,,,,10.1007/978-3-662-39555-4,,,,0,,,,,,,1,5338872,pdf,6794783a1d1f1c129d5a1440a669aa9b,,,D:\\HDD4\\!genesis\\SPR_NEW_2013-12\\bok%3A978-3-662-39555-4.pdf,0,2000-01-01 01:00:00,2016-04-03 02:51:08,1139000/6794783a1d1f1c129d5a1440a669aa9b-d.jpg,,
21252833,Der Einfluß des cos φ auf die Tarifgestaltung der Elektrizitätswerke: Unter besonderer Berücksichtigung großstädtischer Verhältnisse,,,,Dipl.-Ing. Hans Nissel (auth.),1928,1,Springer-Verlag Berlin Heidelberg,,65,0,German,,,,"978-3-662-38775-7,978-3-662-39673-5",,,,,,,10.1007/978-3-662-39673-5,,,,0,,,,,,,1,2987336,pdf,f5690a33c166bf5af98703aeec65f61e,,,D:\\HDD4\\!genesis\\SPR_NEW_2013-12\\bok%3A978-3-662-39673-5.pdf,0,2000-01-01 01:00:00,2016-04-03 02:51:08,1139000/f5690a33c166bf5af98703aeec65f61e-d.jpg,,
21252834,Der praktische Dachdecker: Ein Nachschlage- und Kalkulationsbuch für das gesamte Baugewerbe,,,,Johann Meyer (auth.),1928,2,Springer-Verlag Wien,,183,0,German,,,,"978-3-7091-2339-3,978-3-7091-2357-7",,,,,,,10.1007/978-3-7091-2357-7,,,,0,,,,,,,1,12498268,pdf,3f82747494601d0e8084e86aa0160157,,,D:\\HDD4\\!genesis\\SPR_NEW_2013-12\\bok%3A978-3-7091-2357-7.pdf,0,2000-01-01 01:00:00,2016-04-03 02:51:08,1143000/3f82747494601d0e8084e86aa0160157-d.jpg,,
21252835,AEF Verhandlungen des Ausschusses für Einheiten und Formelgrößen in den Jahren 1907 bis 1927,,,,J. Wallot (auth.),1928,1,Springer-Verlag Berlin Heidelberg,,52,0,German,,,,"978-3-662-38792-4,978-3-662-39692-6",,,,,,,10.1007/978-3-662-39692-6,,,,0,,,,,,,1,4210476,pdf,24ec9059d7ace5350b359a2e27de8d86,,,D:\\HDD4\\!genesis\\SPR_NEW_2013-12\\bok%3A978-3-662-39692-6.pdf,0,2000-01-01 01:00:00,2016-04-03 02:51:08,1139000/24ec9059d7ace5350b359a2e27de8d86-d.jpg,,
21252836,Abmessungen von Hoch- und Martinöfen,,,,Michael Pavloff (auth.),1928,1,Springer-Verlag Berlin Heidelberg,,161,0,German,,,,"978-3-662-33747-9,978-3-662-34145-2",,,,,,,10.1007/978-3-662-34145-2,,,,0,,,,,,,1,7323672,pdf,b18d5b2bbe4f2840849021aca78f8b77,,,D:\\HDD4\\!genesis\\SPR_NEW_2013-12\\bok%3A978-3-662-34145-2.pdf,0,2000-01-01 01:00:00,2016-04-03 02:51:08,1138000/b18d5b2bbe4f2840849021aca78f8b77-d.jpg,,
21252837,Vereinfachung und Verbesserung des Radioempfanges: Rundfunkautomatik,,Bibliothek des Radio-Amateurs,,Erich Schwandt (auth.),1928,1,Springer-Verlag Berlin Heidelberg,,128,0,German,,,,"978-3-662-31787-7,978-3-662-32613-8",,,,,,,10.1007/978-3-662-32613-8,,,,0,,,,,,,1,6204619,pdf,dc062af8c5d037d76f475377ff652112,,,D:\\HDD4\\!genesis\\SPR_NEW_2013-12\\bok%3A978-3-662-32613-8.pdf,0,2000-01-01 01:00:00,2016-04-03 02:51:08,1137000/dc062af8c5d037d76f475377ff652112-d.jpg,,
21252838,"Der Vorrichtungsbau: I Einteilung, Einzelheiten und konstruktive Grundsätze",,Werkstattbücher 35,,Fritz Grünhagen (auth.),1928,1,Springer-Verlag Berlin Heidelberg,,67,0,German,,,,"978-3-662-41688-4,978-3-662-41825-3",,,,,,,10.1007/978-3-662-41825-3,,,,0,,,,,,,1,4382282,pdf,6366285134f3ef825ff177d639d984bf,,,D:\\HDD4\\!genesis\\SPR_NEW_2013-12\\bok%3A978-3-662-41825-3.pdf,0,2000-01-01 01:00:00,2016-04-03 02:51:08,1140000/6366285134f3ef825ff177d639d984bf-d.jpg,,
21252839,Lehrbuch der zeitgemäßen Vorkalkulation im Maschinenbau,,,,Ingenieur Friedrich Kresta (auth.),1928,2,Springer-Verlag Berlin Heidelberg,,309,0,German,,,,"978-3-662-40632-8,978-3-662-41112-4",,,,,,,10.1007/978-3-662-41112-4,,,,0,,,,,,,1,15888352,pdf,543ca33ae0c05b8687952c5e1812e57b,,,D:\\HDD4\\!genesis\\SPR_NEW_2013-12\\bok%3A978-3-662-41112-4.pdf,0,2000-01-01 01:00:00,2016-04-03 02:51:08,1140000/543ca33ae0c05b8687952c5e1812e57b-d.jpg,,
21252840,Die Werkstoffe für den bau Chemischer Apparate,,Chemische Technologie in Einzeldarstellungen,,Dr. A. Fürth (auth.),1928,1,Springer-Verlag Berlin Heidelberg,,249,0,German,,,,"978-3-662-33640-3,978-3-662-34038-7",,,,,,,10.1007/978-3-662-34038-7,,,,0,,,,,,,1,15727736,pdf,cf7cc2ac65d0bb82336e7d31781b273c,,,D:\\HDD4\\!genesis\\SPR_NEW_2013-12\\bok%3A978-3-662-34038-7.pdf,0,2000-01-01 01:00:00,2016-04-03 02:51:08,1138000/cf7cc2ac65d0bb82336e7d31781b273c-d.jpg,,
21252841,Die Entwicklung der englischen Eisenbahnen nach dem Kriege: Inaugural-Dissertation zur Erlangung der staatswissenschaftlichen Doktorwürde genehmigt von der Philosophischen Fakultät der Universität zu Berlin,,,,Artur Spering (auth.),1928,1,Springer-Verlag Berlin Heidelberg,,81,0,German,,,,"978-3-662-40935-0,978-3-662-41419-4",,,,,,,10.1007/978-3-662-41419-4,,,,0,,,,,,,1,4774359,pdf,d231dad879e3147f382018d41c372249,,,D:\\HDD4\\!genesis\\SPR_NEW_2013-12\\bok%3A978-3-662-41419-4.pdf,0,2000-01-01 01:00:00,2016-04-03 02:51:08,1140000/d231dad879e3147f382018d41c372249-d.jpg,,
21252842,Über wärmetechnische Vorgänge der Kohlenstaubfeuerung: unter besonderer Berücksichtigung ihrer Verwendung für Lokomotivkessel,,,,Dr.-Ing. Fritz Hinz (auth.),1928,1,Springer-Verlag Berlin Heidelberg,,85,0,German,,,,"978-3-662-31306-0,978-3-662-31511-8",,,,,,,10.1007/978-3-662-31511-8,,,,0,,,,,,,1,5171565,pdf,df5a2c73f2e5918da13eff9e353b38a6,,,D:\\HDD4\\!genesis\\SPR_NEW_2013-12\\bok%3A978-3-662-31511-8.pdf,0,2000-01-01 01:00:00,2016-04-03 02:51:08,1137000/df5a2c73f2e5918da13eff9e353b38a6-d.jpg,,
21252843,Erläuterungen zu den Vorschriften für die Errichtung und den Betrieb elektrischer Starkstromanlagen einschließlich Bergwerksvorschriften und zu den Bestimmungen für Starkstromanlagen in der Landwirtschaft,,,,"Dr. C. L. Weber (auth.), Dr. C. L. Weber (eds.)",1928,15,Springer-Verlag Berlin Heidelberg,,343,0,German,,,,"978-3-662-27280-0,978-3-662-28767-5",,,,,,,10.1007/978-3-662-28767-5,,,,0,,,,,,,1,41533034,pdf,e065964f9ca9c7cce01794551e613484,,,D:\\HDD4\\!genesis\\SPR_NEW_2013-12\\bok%3A978-3-662-28767-5.pdf,0,2000-01-01 01:00:00,2016-04-03 02:51:08,1137000/e065964f9ca9c7cce01794551e613484-d.jpg,,
21252844,Meßtechnik für Radio-Amateure,,Bibliothek des Radio-Amateurs 1,,Dr. Eugen Nesper (auth.),1928,4,Springer-Verlag Berlin Heidelberg,,132,0,German,,,,"978-3-662-26947-3,978-3-662-28420-9",,,,,,,10.1007/978-3-662-28420-9,,,,0,,,,,,,1,9157549,pdf,ab899225f8130346f1beabdc9af22d98,,,D:\\HDD4\\!genesis\\SPR_NEW_2013-12\\bok%3A978-3-662-28420-9.pdf,0,2000-01-01 01:00:00,2016-04-03 02:51:08,1137000/ab899225f8130346f1beabdc9af22d98-d.jpg,,
21252845,Gutachten über die Elektrifizierung der Strecke Wien —Salzburg: Erstattet an den Herrn Bundesminister für Handel und Verkehr von dem hiezu bestellten Sachverständigenkollegium,,,,Robert Findeis (auth.),1928,1,Springer-Verlag Wien,,158,0,German,,,,"978-3-7091-9761-5,978-3-7091-5022-1",,,,,,,10.1007/978-3-7091-5022-1,,,,0,,,,,,,1,11463355,pdf,b8190b76d8c6cacb54f87c2a27f6ba78,,,D:\\HDD4\\!genesis\\SPR_NEW_2013-12\\bok%3A978-3-7091-5022-1.pdf,0,2000-01-01 01:00:00,2016-04-03 02:51:08,1143000/b8190b76d8c6cacb54f87c2a27f6ba78-d.jpg,,
21252846,Der Brunnenbau,,,,Franz Bösenkopf (auth.),1928,1,Springer-Verlag Wien,,189,0,German,,,,"978-3-7091-2343-0,978-3-7091-2361-4",,,,,,,10.1007/978-3-7091-2361-4,,,,0,,,,,,,1,11025299,pdf,bb35c525aca2dd3475ec5912ec07efa7,,,D:\\HDD4\\!genesis\\SPR_NEW_2013-12\\bok%3A978-3-7091-2361-4.pdf,0,2000-01-01 01:00:00,2016-04-03 02:51:08,1143000/bb35c525aca2dd3475ec5912ec07efa7-d.jpg,,
21252847,H. Rietschels Leitfaden der Heiz- und Lüftungstechnik,,,,Prof. Dr.-Ing. Heinrich Gröber (auth.),1928,8,Springer-Verlag Berlin Heidelberg,,338,0,German,,,,"978-3-662-40721-9,978-3-662-41203-9",,,,,,,10.1007/978-3-662-41203-9,,,,0,,,,,,,1,19003266,pdf,e2f00b3d26de1c1e557ec6cd579ddd99,,,D:\\HDD4\\!genesis\\SPR_NEW_2013-12\\bok%3A978-3-662-41203-9.pdf,0,2000-01-01 01:00:00,2016-04-03 02:51:08,1140000/e2f00b3d26de1c1e557ec6cd579ddd99-d.jpg,,
21252848,Die Dachdeckerarbeiten: Ein Nachschlage- und Kalkulationsbuch für das gesamte Baugewerbe,,,,Johann Meyer (auth.),1928,2,Springer-Verlag Berlin Heidelberg,,81,0,German,,,,"978-3-662-31432-6,978-3-662-31639-9",,,,,,,10.1007/978-3-662-31639-9,,,,0,,,,,,,1,6560341,pdf,353a006dc56581da5ffb139751c29740,,,D:\\HDD4\\!genesis\\SPR_NEW_2013-12\\bok%3A978-3-662-31639-9.pdf,0,2000-01-01 01:00:00,2016-04-03 02:51:08,1137000/353a006dc56581da5ffb139751c29740-d.jpg,,
21252849,Der Einfluß des cos φ auf die Tarifgestaltung der Elektrizitätswerke unter besonderer Berücksichtigung großstädtischer Verhältnisse,,,,Dipl.-Ing. Hans Nissel (auth.),1928,1,Springer-Verlag Berlin Heidelberg,,59,0,German,,,,"978-3-662-31446-3,978-3-662-31653-5",,,,,,,10.1007/978-3-662-31653-5,,,,0,,,,,,,1,2703489,pdf,47e0795a0c895e3051e04d4cb8153f4d,,,D:\\HDD4\\!genesis\\SPR_NEW_2013-12\\bok%3A978-3-662-31653-5.pdf,0,2000-01-01 01:00:00,2016-04-03 02:51:08,1137000/47e0795a0c895e3051e04d4cb8153f4d-d.jpg,,
21252850,"Funktionenlehre und Elemente der Differential- und Integralrechnung: Lehrbuch und Aufgabensammlung für Technische Fachschulen (Höhere Maschinenbauschulen usw.), zur Vorbereitung für die Mathematischen Vorlesungen der Technischen Hochschulen, sowie für Höhere Lehranstalten und zum Selbstunterricht",,,,"Dr. Heinrich Grünbaum (auth.), Dipl.-Ing. Prof. Dr. Siegfried Jakobi (eds.)",1928,7,Vieweg+Teubner Verlag,,200,0,German,,,,"978-3-663-15418-1,978-3-663-15989-6",,,,,,,10.1007/978-3-663-15989-6,,,,0,,,,,,,1,15481143,pdf,27e52e2d3e4bab7f03714a19acc66370,,,D:\\HDD4\\!genesis\\SPR_NEW_2013-12\\bok%3A978-3-663-15989-6.pdf,0,2000-01-01 01:00:00,2016-04-03 02:51:08,1142000/27e52e2d3e4bab7f03714a19acc66370-d.jpg,,
21252851,Psychotechnische Berufseignungsprüfung von Gießereifacharbeitern,,Bücher der industriellen Psychotechnik 4,,Dr.-Ing. Wilhelm Bültmann (auth.),1928,1,Springer-Verlag Berlin Heidelberg,,84,0,German,,,,"978-3-662-40589-5,978-3-662-41067-7",,,,,,,10.1007/978-3-662-41067-7,,,,0,,,,,,,1,2694737,pdf,cb6c5afba3fb09acdfe7f84e5f479318,,,D:\\HDD4\\!genesis\\SPR_NEW_2013-12\\bok%3A978-3-662-41067-7.pdf,0,2000-01-01 01:00:00,2016-04-03 02:51:08,1140000/cb6c5afba3fb09acdfe7f84e5f479318-d.jpg,,
21252852,Moderne Warenhaus-Organisation,,,,"Paul M. Mazur (auth.), Fritz Neisser (eds.)",1928,1,Springer-Verlag Berlin Heidelberg,,334,0,German,,,,"978-3-662-34833-8,978-3-662-35163-5",,,,,,,10.1007/978-3-662-35163-5,,,,0,,,,,,,1,25099035,pdf,58b672909794752c8c789bcd87b60e7f,,,D:\\HDD4\\!genesis\\SPR_NEW_2013-12\\bok%3A978-3-662-35163-5.pdf,0,2000-01-01 01:00:00,2016-04-03 02:51:08,1138000/58b672909794752c8c789bcd87b60e7f-d.jpg,,
21252853,"Energiewirtschaftliche Untersuchungen in 15 Molkereibetrieben: Sonderabdruck aus Milchwirtschaftliche Forschungen Bd. 6, H. 1/3",,Arbeiten des Reichskuratoriums für Technik in der Landwirtschaft (Unterausschuß für Molkereiwesen),,"Prof. Dr. B. Lichtenberger, Dipl.-Ing. Kuhlig (auth.)",1928,1,Springer-Verlag Berlin Heidelberg,,41,0,German,,,,"978-3-662-31393-0,978-3-662-31600-9",,,,,,,10.1007/978-3-662-31600-9,,,,0,,,,,,,1,2076302,pdf,724b3488a7d03b55731d7132795b739c,,,D:\\HDD4\\!genesis\\SPR_NEW_2013-12\\bok%3A978-3-662-31600-9.pdf,0,2000-01-01 01:00:00,2016-04-03 02:51:08,1137000/724b3488a7d03b55731d7132795b739c-d.jpg,,
21252854,Wärme- und Kälteverluste Isolierter Rohrleitungen und Wände: Tabellarische Zusammenstellung für die Praxis,,,,(auth.),1928,1,Springer-Verlag Berlin Heidelberg,,249,0,German,,,,"978-3-662-27978-6,978-3-662-29486-4",,,,,,,10.1007/978-3-662-29486-4,,,,0,,,,,,,1,25343874,pdf,ac80494fd1e0c3f020bcb22300935bb8,,,D:\\HDD4\\!genesis\\SPR_NEW_2013-12\\bok%3A978-3-662-29486-4.pdf,0,2000-01-01 01:00:00,2016-04-03 02:51:08,1137000/ac80494fd1e0c3f020bcb22300935bb8-d.jpg,,
21252855,"Regeneratoren Rekuperatoren, Winderhitzer: Die Wärmerückgewinnung in Industriellen Ofenanlagen",,,,Dr.-Ing. Werner Heiligenstaedt (auth.),1931,1,Springer-Verlag Berlin Heidelberg,,355,0,German,,,,"978-3-662-33471-3,978-3-662-33869-8",,,,,,,10.1007/978-3-662-33869-8,,,,0,,,,,,,1,16897228,pdf,ba79e6eddf093ac619f197a76565f3be,,,D:\\HDD4\\!genesis\\SPR_NEW_2013-12\\bok%3A978-3-662-33869-8.pdf,0,2000-01-01 01:00:00,2016-04-03 02:51:08,1138000/ba79e6eddf093ac619f197a76565f3be-d.jpg,,
21252856,Richtiges Messen in Dampf- und Feuerungsbetrieben,,,,(auth.),1931,1,Springer-Verlag Wien,,58,0,German,,,,"978-3-7091-5289-8,978-3-7091-5437-3",,,,,,,10.1007/978-3-7091-5437-3,,,,0,,,,,,,1,1599192,pdf,6d817b517aac31ff9223f69ec12088ef,,,D:\\HDD4\\!genesis\\SPR_NEW_2013-12\\bok%3A978-3-7091-5437-3.pdf,0,2000-01-01 01:00:00,2016-04-03 02:51:08,1143000/6d817b517aac31ff9223f69ec12088ef-d.jpg,,
21252857,Grundzüge der Schmiertechnik: Berechnung und Gestaltung vollkommen geschmierter gleitender Maschinenteile,,,,Erich Falz (auth.),1931,2,Springer-Verlag Berlin Heidelberg,,340,0,German,,,,"978-3-662-32104-1,978-3-662-32931-3",,,,,,,10.1007/978-3-662-32931-3,,,,0,,,,,,,1,14772014,pdf,7f77b38f7e7f12ce39ef26872c54b6c1,,,D:\\HDD4\\!genesis\\SPR_NEW_2013-12\\bok%3A978-3-662-32931-3.pdf,0,2000-01-01 01:00:00,2016-04-03 02:51:08,1137000/7f77b38f7e7f12ce39ef26872c54b6c1-d.jpg,,
21252858,"Handbuch der Eisen- und Stahlgießerei: Betriebswissenschaft Ban von Gießereianlagen, Nachträge",,,,"Ernst Brütsch (auth.), Professor Dr. P. Aulich, Professor Dr.-Ing. e. h. O. Bauer, Professor Dr. Dr.-Ing. e. h. L. Beck, Dr.-Ing. H. Bitter, E. Brütsch, Ing. Georg Buzek, T. Cremer, Dr.-Ing. K. Daeves, Werkschulleiter F. Dellwig, Dr.-Ing. K. Dornhecker, Professor Dr.-Ing. R. Durrer, Obering. M. Escher, Professor Dipl.-Ing. G. Fiek, Professor Dipl.-Ing. G. Hellenthal, Oberbergrat J. Hornung, Ing. C. Irresberger, Obering. Dr.-Ing. Th. Klingenstein, Gießereiingenieur H. Kopp, Professor Dipl.-Ing. U. Lohse, Dipl.-Ing. Fr. Märtens, Berat. Ing. Joh. Mehrtens, Dr.-Ing. M. Philips, Direktor Dr.-Ing. E. Schüz, Dr.-Ing. C. Schwarz, Dr.-Ing. A. Stadeler, Dr.-Ing. R. Stotz, Obering. H. Tillmann, Werksdirektor L. Treuheit, Dr.-Ing. P. Uebbing, Dipl.-Ing. S. J. Waldmann, Ingenieur Fr. Wernicke, Professor A. Widmaier, Dipl.-Ing. H. Witte, Dr.-Ing. C. Geiger (eds.)",1931,2,Springer-Verlag Berlin Heidelberg,,637,0,German,,,,"978-3-540-01138-5,978-3-662-11958-7",,,,,,,10.1007/978-3-662-11958-7,,,,0,,,,,,,1,48160773,pdf,b6ec7f046f055fd97f870163642e95ae,,,D:\\HDD4\\!genesis\\SPR_NEW_2013-12\\bok%3A978-3-662-11958-7.pdf,0,2000-01-01 01:00:00,2016-04-03 02:51:08,1136000/b6ec7f046f055fd97f870163642e95ae-d.jpg,,
21252859,Fortschritte im Hochbau und deren Anwendbarkeit im österreichischen Bauwesen,,,,Privatdozent Ing. Dr. techn. Sepp Heidinger (auth.),1931,1,Springer-Verlag Berlin Heidelberg,,128,0,German,,,,"978-3-662-27243-5,978-3-662-28729-3",,,,,,,10.1007/978-3-662-28729-3,,,,0,,,,,,,1,7315183,pdf,2eaa8abd3b02963783b170af1b7cede8,,,D:\\HDD4\\!genesis\\SPR_NEW_2013-12\\bok%3A978-3-662-28729-3.pdf,0,2000-01-01 01:00:00,2016-04-03 02:51:08,1137000/2eaa8abd3b02963783b170af1b7cede8-d.jpg,,
21252860,"Handbuch der Ziehtechnik: Planung und Ausführung, Werkstoffe, Werkzeuge und Maschinen",,,,Dr.-Ing. Walter Sellin (auth.),1931,1,Springer-Verlag Berlin Heidelberg,,375,0,German,,,,"978-3-662-32088-4,978-3-662-32915-3",,,,,,,10.1007/978-3-662-32915-3,,,,0,,,,,,,1,30873697,pdf,bc615a731974249ef9acdc391273abd8,,,D:\\HDD4\\!genesis\\SPR_NEW_2013-12\\bok%3A978-3-662-32915-3.pdf,0,2000-01-01 01:00:00,2016-04-03 02:51:08,1137000/bc615a731974249ef9acdc391273abd8-d.jpg,,
21252861,Kesselbetrieb: Sammlung von Betriebserfahrungen,,,,(auth.),1931,2,Springer-Verlag Berlin Heidelberg,,304,0,German,,,,"978-3-662-37213-5,978-3-662-37936-3",,,,,,,10.1007/978-3-662-37936-3,,,,0,,,,,,,1,12979470,pdf,ab293619e4f2217b0ef3d0158dd69093,,,D:\\HDD4\\!genesis\\SPR_NEW_2013-12\\bok%3A978-3-662-37936-3.pdf,0,2000-01-01 01:00:00,2016-04-03 02:51:08,1139000/ab293619e4f2217b0ef3d0158dd69093-d.jpg,,
21252862,Feuerungstechnisches Rechnen,,Monographien zur Feuerungstechnik,,Dipl.-Ing. Wilhelm Gumz (auth.),1931,1,Springer-Verlag Berlin Heidelberg,,138,0,German,,,,"978-3-662-35897-9,978-3-662-36727-8",,,,,,,10.1007/978-3-662-36727-8,,,,0,,,,,,,1,7127379,pdf,889b0c00145b943924b97d72e7651a87,,,D:\\HDD4\\!genesis\\SPR_NEW_2013-12\\bok%3A978-3-662-36727-8.pdf,0,2000-01-01 01:00:00,2016-04-03 02:51:08,1138000/889b0c00145b943924b97d72e7651a87-d.jpg,,
21252863,Wissenschaftliche Anwendungen der Photographie: Erster Teil: Stereophotographie · Astrophotographie das Projektionswesen,,Handbuch der Wissenschaftlichen und Angewandten Photographie 6,,"L. E. W. van Albada (auth.), L. E. W. van Albada, W. E. Bernheimer, Ch. R. Davidson, F. Paul Liesegang (eds.)",1931,1,Springer-Verlag Wien,,299,0,German,,,,"978-3-7091-5973-6,978-3-7091-6007-7",,,,,,,10.1007/978-3-7091-6007-7,,,,0,,,,,,,1,13536175,pdf,96fbaeed580dfd5444026e4304debe7c,,,D:\\HDD4\\!genesis\\SPR_NEW_2013-12\\bok%3A978-3-7091-6007-7.pdf,0,2000-01-01 01:00:00,2016-04-03 02:51:08,1143000/96fbaeed580dfd5444026e4304debe7c-d.jpg,,
21252864,Verdampfen Kondensieren und Kühlen,,,,E. Hausbrand (auth.),1931,7,Springer-Verlag Berlin Heidelberg,,380,0,German,,,,"978-3-662-35462-9,978-3-662-36290-7",,,,,,,10.1007/978-3-662-36290-7,,,,0,,,,,,,1,14784953,pdf,717401db148708df2e5fdda3f08bec20,,,D:\\HDD4\\!genesis\\SPR_NEW_2013-12\\bok%3A978-3-662-36290-7.pdf,0,2000-01-01 01:00:00,2016-04-03 02:51:08,1138000/717401db148708df2e5fdda3f08bec20-d.jpg,,
21252865,Praktische Getriebelehre: Erster Band,,,,Dr.-Ing. K. Rauh (auth.),1931,1,Springer-Verlag Berlin Heidelberg,,156,0,German,,,,"978-3-662-35549-7,978-3-662-36378-2",,,,,,,10.1007/978-3-662-36378-2,,,,0,,,,,,,1,14092986,pdf,e41c607deb945608ea04dc0279abaf7d,,,D:\\HDD4\\!genesis\\SPR_NEW_2013-12\\bok%3A978-3-662-36378-2.pdf,0,2000-01-01 01:00:00,2016-04-03 02:51:08,1138000/e41c607deb945608ea04dc0279abaf7d-d.jpg,,
21252866,"Die Niederspannungs- und Hochspannungs-Leitungsanlagen: Entwurf, Berechnung, elektrische und mechanische Ausführung",,,,Dipl.-Ing. Herbert Kyser (auth.),1932,3,Springer-Verlag Berlin Heidelberg,,506,0,German,,,,"978-3-662-36136-8,978-3-662-36966-1",,,,,,,10.1007/978-3-662-36966-1,,,,0,,,,,,,1,20070113,pdf,c8095211080a3a49ceda80f691112bef,,,D:\\HDD4\\!genesis\\SPR_NEW_2013-12\\bok%3A978-3-662-36966-1.pdf,0,2000-01-01 01:00:00,2016-04-03 02:51:08,1139000/c8095211080a3a49ceda80f691112bef-d.jpg,,
21252867,Der Hochofen,,,,E. Diepschlag (auth.),1932,1,Springer-Verlag Berlin Heidelberg,,324,0,German,,,,"978-3-662-33711-0,978-3-662-34109-4",,,,,,,10.1007/978-3-662-34109-4,,,,0,,,,,,,1,15236513,pdf,2b1d96f469984cb05a9b29d36952fee3,,,D:\\HDD4\\!genesis\\SPR_NEW_2013-12\\bok%3A978-3-662-34109-4.pdf,0,2000-01-01 01:00:00,2016-04-03 02:51:08,1138000/2b1d96f469984cb05a9b29d36952fee3-d.jpg,,
21252868,"Bemessungstafeln für Eisenbetonkonstruktionen: Tafeln zur Bemessung von Eisenbetonquerschnitten auf reine Biegung, auf mittigen Druck und auf Biegung mit Längskraft",,,,Paul Göldel (auth.),1932,2,Springer-Verlag Berlin Heidelberg,,358,0,German,,,,"978-3-662-36218-1,978-3-662-37048-3",,,,,,,10.1007/978-3-662-37048-3,,,,0,,,,,,,1,16599820,pdf,707cdbe2bad660eccb28867e4c59eb1c,,,D:\\HDD4\\!genesis\\SPR_NEW_2013-12\\bok%3A978-3-662-37048-3.pdf,0,2000-01-01 01:00:00,2016-04-03 02:51:08,1139000/707cdbe2bad660eccb28867e4c59eb1c-d.jpg,,
21252869,Lamésche - Mathieusche - und Verwandte Funktionen in Physik und Technik,,Ergebnisse der Mathematik und Ihrer Grenzgebiete 3,,M. J. O. Strutt (auth.),1932,1,Springer-Verlag Berlin Heidelberg,,125,0,German,,,,"978-3-642-90449-3,978-3-642-92306-7",,,,,,,10.1007/978-3-642-92306-7,,,,0,,,,,,,1,5501445,pdf,d1da4d8c662ebdc8044e55ec4ffac2c3,,,D:\\HDD4\\!genesis\\SPR_NEW_2013-12\\bok%3A978-3-642-92306-7.pdf,0,2000-01-01 01:00:00,2016-04-03 02:51:08,1135000/d1da4d8c662ebdc8044e55ec4ffac2c3-d.jpg,,
21252870,Lamesche - Mathieusche - und verwandte Funktionen in Physik und Technik,,Ergebnisse der Mathematik und Ihrer Grenzgebiete 3,,M. J. O. Strutt (auth.),1932,1,Springer-Verlag Berlin Heidelberg,,125,0,German,,kolxo3,72,"978-3-642-90449-3,978-3-642-92306-7,3642904491",,,,,,,10.1007/978-3-642-92306-7,,,,600,,,,,,,1,1834645,djvu,d55fa37648693091bdd7efe331d0e18c,,,"G:\\!genesis\\_add\\!woodhead\\kolxo372\\M_Mathematics\\MC_Calculus\\MCsf_Special functions\\Strutt M.J.O. Lamesche - Mathieusche - und verwandte Funktionen in Physik und Technik (Springer, 1932)(de)(600dpi)(T)(125s)_MCsf_.djvu",0,2000-01-01 01:00:00,2016-04-03 02:51:08,1288000/d55fa37648693091bdd7efe331d0e18c-d.jpg,,
21252871,Kurzer Leitfaden der Bergbaukunde,,,,"Dr.-Ing. eh. F. Heise, Dr.-Ing. eh. F. Herbst (auth.)",1932,3,Springer-Verlag Berlin Heidelberg,,257,0,German,,,,"978-3-662-35706-4,978-3-662-36536-6",,,,,,,10.1007/978-3-662-36536-6,,,,0,,,,,,,1,12748742,pdf,f1c5a93d4e55c7f3954adeda7d20705e,,,D:\\HDD4\\!genesis\\SPR_NEW_2013-12\\bok%3A978-3-662-36536-6.pdf,0,2000-01-01 01:00:00,2016-04-03 02:51:08,1138000/f1c5a93d4e55c7f3954adeda7d20705e-d.jpg,,
21252872,Die Getriebe für Normdrehzahlen: Neue Rechnungswege und Hilfstafeln für den Konstrukteur,,,,Dr.-Ing. Ruthard Germar (auth.),1932,1,Springer-Verlag Berlin Heidelberg,,101,0,German,,,,"978-3-662-32394-6,978-3-662-33221-4",,,,,,,10.1007/978-3-662-33221-4,,,,0,,,,,,,1,5685662,pdf,1fed0e8ac198a7ce717baab0cd210b1a,,,D:\\HDD4\\!genesis\\SPR_NEW_2013-12\\bok%3A978-3-662-33221-4.pdf,0,2000-01-01 01:00:00,2016-04-03 02:51:08,1138000/1fed0e8ac198a7ce717baab0cd210b1a-d.jpg,,
21252873,Technologisches Wörterbuch: Erster Band: Deutsch - Englisch - Französisch,,,,"Hoyer, Kreuter (auth.), Dr.-Ing. E. h. Alfred Schlomann (eds.)",1932,6,Springer-Verlag Berlin Heidelberg,,807,0,German,,,,"978-3-642-98542-3,978-3-642-99356-5",,,,,,,10.1007/978-3-642-99356-5,,,,0,,,,,,,1,53950050,pdf,e21a213c81d57c33f49acdba96dfe3b5,,,D:\\HDD4\\!genesis\\SPR_NEW_2013-12\\bok%3A978-3-642-99356-5.pdf,0,2000-01-01 01:00:00,2016-04-03 02:51:08,1136000/e21a213c81d57c33f49acdba96dfe3b5-d.jpg,,
21252874,Die moderne Parfumerie: Eine Anleitung und Sammlung von Vorschriften zur Herstellung sämtlicher Parfumerien und Kosmetika,,,,"Dr. Fred Winter, H. Mann (auth.)",1932,4,Springer-Verlag Berlin Heidelberg,,549,0,German,,,,"978-3-662-36051-4,978-3-662-36881-7",,,,,,,10.1007/978-3-662-36881-7,,,,0,,,,,,,1,23733192,pdf,106848092fddad3324f3c707b39cd9b8,,,D:\\HDD4\\!genesis\\SPR_NEW_2013-12\\bok%3A978-3-662-36881-7.pdf,0,2000-01-01 01:00:00,2016-04-03 02:51:08,1139000/106848092fddad3324f3c707b39cd9b8-d.jpg,,
21252875,Festigkeit und Formänderung: I. Die einfachen Fälle der Festigkeit,,Werkstattbücher,,Dr.-Ing. Kurt Lachmann (auth.),1932,2,Springer-Verlag Berlin Heidelberg,,68,0,German,,,,"978-3-662-37275-3,978-3-662-38004-8",,,,,,,10.1007/978-3-662-38004-8,,,,0,,,,,,,1,3736335,pdf,fafb0ec17c30444c01e86851f57d18df,,,D:\\HDD4\\!genesis\\SPR_NEW_2013-12\\bok%3A978-3-662-38004-8.pdf,0,2000-01-01 01:00:00,2016-04-03 02:51:08,1139000/fafb0ec17c30444c01e86851f57d18df-d.jpg,,
21252876,Die Methode der Festpunkte zur Berechnung der statisch unbestimmten Konstruktionen mit zahlreichen Beispielen aus der Praxis insbesondere ausgeführten Eisenbetontragwerken,,,,"Dr.-Ing. Ernst Suter (auth.), Dipl.-Ing. O. Baumann, Dipl.-Ing. F. Häusler (eds.)",1932,2,Springer-Verlag Berlin Heidelberg,,437,0,German,,,,"978-3-642-89226-4,978-3-642-91082-1",,,,,,,10.1007/978-3-642-91082-1,,,,0,,,,,,,1,17601859,pdf,8dc9050685f83d810bd8cac7fcceb127,,,D:\\HDD4\\!genesis\\SPR_NEW_2013-12\\bok%3A978-3-642-91082-1.pdf,0,2000-01-01 01:00:00,2016-04-03 02:51:08,1135000/8dc9050685f83d810bd8cac7fcceb127-d.jpg,,
21252877,Glasschmelzöfen,,,,Dr.-Ing. Julius Lamort (auth.),1932,1,Springer-Verlag Berlin Heidelberg,,195,0,German,,,,"978-3-662-33574-1,978-3-662-33972-5",,,,,,,10.1007/978-3-662-33972-5,,,,0,,,,,,,1,8363453,pdf,b27091778235f94d355a1d1096bec00c,,,D:\\HDD4\\!genesis\\SPR_NEW_2013-12\\bok%3A978-3-662-33972-5.pdf,0,2000-01-01 01:00:00,2016-04-03 02:51:08,1138000/b27091778235f94d355a1d1096bec00c-d.jpg,,
21252878,Die Theoretischen Grundlagen der Photographischen Prozesse,,,,"W. Meidinger (auth.), Dr. Walter Meidinger (eds.)",1932,1,Springer-Verlag Berlin Heidelberg,,523,0,German,,,,"978-3-662-40884-1,978-3-662-41368-5",,,,,,,10.1007/978-3-662-41368-5,,,,0,,,,,,,1,31667460,pdf,f5425d2e337e25d33325f972e5f97b3d,,,D:\\HDD4\\!genesis\\SPR_NEW_2013-12\\bok%3A978-3-662-41368-5.pdf,0,2000-01-01 01:00:00,2016-04-03 02:51:08,1140000/f5425d2e337e25d33325f972e5f97b3d-d.jpg,,
21252879,Die Luftstickstoff-Industrie: mit Berücksichtigung der chilenischen Industrie und des Kokereistickstoffs,,Chemische Technologie in Einzeldarstellungen,,Dr.-Ing. Bruno Waeser (auth.),1932,2,Springer-Verlag Berlin Heidelberg,,532,0,German,,,,"978-3-662-34328-9,978-3-662-34599-3",,,,,,,10.1007/978-3-662-34599-3,,,,0,,,,,,,1,29338384,pdf,adac9362e48881c7f102e88a463b6a36,,,D:\\HDD4\\!genesis\\SPR_NEW_2013-12\\bok%3A978-3-662-34599-3.pdf,0,2000-01-01 01:00:00,2016-04-03 02:51:08,1138000/adac9362e48881c7f102e88a463b6a36-d.jpg,,
21252880,Auskunftsbuch für die vorschriftsgemäße Unterhaltung und Betriebsführung von Starkstromanlagen,,,,Dr.-Ing. C. h. G. Dettmar (auth.),1932,2,Springer-Verlag Berlin Heidelberg,,295,0,German,,,,"978-3-662-36227-3,978-3-662-37057-5",,,,,,,10.1007/978-3-662-37057-5,,,,0,,,,,,,1,16524359,pdf,1db0db5c31b0378f80e0f54f0fc96a09,,,D:\\HDD4\\!genesis\\SPR_NEW_2013-12\\bok%3A978-3-662-37057-5.pdf,0,2000-01-01 01:00:00,2016-04-03 02:51:08,1139000/1db0db5c31b0378f80e0f54f0fc96a09-d.jpg,,
21252881,Bedarf und Dargebot: Neuere Methoden der elektrizitäts- und wasserwirtschaftlichen Betriebslehre,,,,Dr.-Ing. Dr.-techn. h. c. Adolf Ludin (auth.),1932,1,Springer-Verlag Berlin Heidelberg,,46,0,German,,,,"978-3-662-39241-6,978-3-662-40255-9",,,,,,,10.1007/978-3-662-40255-9,,,,0,,,,,,,1,2695235,pdf,7e92d503802e8ed03fc5b9c1cede6514,,,D:\\HDD4\\!genesis\\SPR_NEW_2013-12\\bok%3A978-3-662-40255-9.pdf,0,2000-01-01 01:00:00,2016-04-03 02:51:08,1139000/7e92d503802e8ed03fc5b9c1cede6514-d.jpg,,
21252882,Die Staubbeseitigung und Geräuschbekämpfung in Schotterbetrieben: Im Auftrage des Technischen Ausschusses der Deutschen Gesellschaft für Gewerbehygiene,,Schriften aus dem Gesamtgebiet der Gewerbehygiene 41,,"O. Wittgen (auth.), O. Wittgen (eds.)",1932,1,Springer-Verlag Berlin Heidelberg,,62,0,German,,,,"978-3-662-34315-9,978-3-662-34586-3",,,,,,,10.1007/978-3-662-34586-3,,,,0,,,,,,,1,4174453,pdf,38637af0f341d24aff43051624020001,,,D:\\HDD4\\!genesis\\SPR_NEW_2013-12\\bok%3A978-3-662-34586-3.pdf,0,2000-01-01 01:00:00,2016-04-03 02:51:08,1138000/38637af0f341d24aff43051624020001-d.jpg,,
21252883,"Die Technik des Kühlschrankes: Einführung in die Kältetechnik für Käufer und Verkäufer von Kühlschränken, Gas- und Elektrizitätswerke, Architekten und das Nahrungsmittelgewerbe",,,,Dipl.-Ing. P. Scholl (auth.),1932,1,Springer-Verlag Berlin Heidelberg,,73,0,German,,,,"978-3-662-36017-0,978-3-662-36847-3",,,,,,,10.1007/978-3-662-36847-3,,,,0,,,,,,,1,4346974,pdf,674848cc23cc2fd7f2695d408b194b9d,,,D:\\HDD4\\!genesis\\SPR_NEW_2013-12\\bok%3A978-3-662-36847-3.pdf,0,2000-01-01 01:00:00,2016-04-03 02:51:08,1139000/674848cc23cc2fd7f2695d408b194b9d-d.jpg,,
21252884,Die Kreiselpumpen,,,,C. Pfleiderer (auth.),1932,2,Springer-Verlag Berlin Heidelberg,,474,0,German,,,,"978-3-662-42862-7,978-3-662-43146-7",,,,,,,10.1007/978-3-662-43146-7,,,,0,,,,,,,1,22822463,pdf,f7cc19ab3e91672da744dabb4fe15fde,,,D:\\HDD4\\!genesis\\SPR_NEW_2013-12\\bok%3A978-3-662-43146-7.pdf,0,2000-01-01 01:00:00,2016-04-03 02:51:08,1140000/f7cc19ab3e91672da744dabb4fe15fde-d.jpg,,
21252885,Vermessungskunde,,Handbibliothek für Bauingenieure 4,,Dr.-Ing. M. Näbauer (auth.),1932,2,Springer-Verlag Berlin Heidelberg,,414,0,German,,,,"978-3-662-41938-0,978-3-662-41994-6",,,,,,,10.1007/978-3-662-41994-6,,,,0,,,,,,,1,21884814,pdf,7f99fc88b12f35d034d7d1278a3a4194,,,D:\\HDD4\\!genesis\\SPR_NEW_2013-12\\bok%3A978-3-662-41994-6.pdf,0,2000-01-01 01:00:00,2016-04-03 02:51:08,1140000/7f99fc88b12f35d034d7d1278a3a4194-d.jpg,,
21252886,Elektrische Hochleistungsübertragung auf weite Entfernung,,,,"R. Rüdenberg (auth.), Prof. Dr.-Ing. u. Dr.-Ing. e. h. Reinhold Rüdenberg (eds.)",1932,1,Springer-Verlag Berlin Heidelberg,,377,0,German,,,,"978-3-662-34907-6,978-3-662-35241-0",,,,,,,10.1007/978-3-662-35241-0,,,,0,,,,,,,1,12700093,pdf,49040518d79bd38379c4fc10211354e1,,,D:\\HDD4\\!genesis\\SPR_NEW_2013-12\\bok%3A978-3-662-35241-0.pdf,0,2000-01-01 01:00:00,2016-04-03 02:51:08,1138000/49040518d79bd38379c4fc10211354e1-d.jpg,,
21252887,"Lehrbuch der Glasbläserei einschließlich der Anfertigung der Aräometer, Barometer, Thermometer, maßanalytischenGeräte, Vakuumröhren und Quecksilberluftpumpen: Mit Anleitungen für die Messung des Vakuums, der Quecksilberdampflampen, Justierung der Instrumente, Arbeiten an der Hochvakuumpumpe und die Behandlung des Quecksilbers",,Technisch-Gewerbliche Bücher 7,,Kommerzialrat Carl Woytacek (auth.),1932,2,Springer-Verlag Berlin Heidelberg,,335,0,German,,,,"978-3-662-34260-2,978-3-662-34531-3",,,,,,,10.1007/978-3-662-34531-3,,,,0,,,,,,,1,15607704,pdf,703b67c3db2727ceb302cdaf94836415,,,D:\\HDD4\\!genesis\\SPR_NEW_2013-12\\bok%3A978-3-662-34531-3.pdf,0,2000-01-01 01:00:00,2016-04-03 02:51:08,1138000/703b67c3db2727ceb302cdaf94836415-d.jpg,,
21252888,"Die Beiz-, Lackier- und Polierverfahren für Holz ihre Gesundheitsgefahren und deren Verhütung: Im Auftrag des Technischen Ausschusses der Deutschen Gesellschaft für Gewerbehygiene",,Schriften aus dem Gesamtgebiet der Gewerbehygiene 40,,"Oberregierungs- und -gewerberat J. Wenzel (auth.), J. Wenzel (eds.)",1932,1,Springer-Verlag Berlin Heidelberg,,52,0,German,,,,"978-3-662-34356-2,978-3-662-34627-3",,,,,,,10.1007/978-3-662-34627-3,,,,0,,,,,,,1,3043823,pdf,75eb406a27041f0bdbaf672e73766c0d,,,D:\\HDD4\\!genesis\\SPR_NEW_2013-12\\bok%3A978-3-662-34627-3.pdf,0,2000-01-01 01:00:00,2016-04-03 02:51:08,1138000/75eb406a27041f0bdbaf672e73766c0d-d.jpg,,
21252889,"Die Niederspannungs- und Hochspannungs-Leitungsanlagen: Entwurf, Berechnung, elektrische und mechanische Ausführung",,,,Dipl.-Ing. Herbert Kyser (auth.),1932,1,Springer-Verlag Berlin Heidelberg,,506,0,German,,,,"978-3-642-90155-3,978-3-642-92012-7",,,,,,,10.1007/978-3-642-92012-7,,,,0,,,,,,,1,23973957,pdf,1d741ce01993f533673831c070ae2345,,,D:\\HDD4\\!genesis\\SPR_NEW_2013-12\\bok%3A978-3-642-92012-7.pdf,0,2000-01-01 01:00:00,2016-04-03 02:51:08,1135000/1d741ce01993f533673831c070ae2345-d.jpg,,
21252890,Gedanken zu Einer Weltanschauung vom Standpunkte des Ingenieurs,,,,Professor Dr. A. Stodola (auth.),1932,2,Springer-Verlag Berlin Heidelberg,,124,0,German,,,,"978-3-662-32148-5,978-3-662-32975-7",,,,,,,10.1007/978-3-662-32975-7,,,,0,,,,,,,1,21221368,pdf,046ec216338d825537ca735856fc4fda,,,D:\\HDD4\\!genesis\\SPR_NEW_2013-12\\bok%3A978-3-662-32975-7.pdf,0,2000-01-01 01:00:00,2016-04-03 02:51:08,1137000/046ec216338d825537ca735856fc4fda-d.jpg,,
21252891,"Die Elektrizitätstarife: Nachfrage und Gestehungskosten elektrischer Arbeit, Aufbau und Anwendung der Tarife",,,,"Dr.-Ing. Gustav Siegel, Dr.-Ing. Hans Nissel (auth.)",1935,3,Springer-Verlag Berlin Heidelberg,,331,0,German,,,,"978-3-540-01212-2,978-3-642-92509-2",,,,,,,10.1007/978-3-642-92509-2,,,,0,,,,,,,1,14561702,pdf,38d1f4f0725c96eba216069c081c2d5d,,,D:\\HDD4\\!genesis\\SPR_NEW_2013-12\\bok%3A978-3-642-92509-2.pdf,0,2000-01-01 01:00:00,2016-04-03 02:51:08,1135000/38d1f4f0725c96eba216069c081c2d5d-d.jpg,,
21252892,"Färberei- und textilchemische Untersuchungen: Anleitung zur chemischen und koloristischen Untersuchung und Bewertung der Rohstoffe, Hilfsmittel und Erzeugnisse der Textilveredelungsindustrie",,,,Dr. Paul Heermann (auth.),1935,6,Springer-Verlag Berlin Heidelberg,,412,0,German,,,,"978-3-662-35900-6,978-3-662-36730-8",,,,,,,10.1007/978-3-662-36730-8,,,,0,,,,,,,1,30677350,pdf,8f9239b8b243578f2f9fb4a2ab968beb,,,D:\\HDD4\\!genesis\\SPR_NEW_2013-12\\bok%3A978-3-662-36730-8.pdf,0,2000-01-01 01:00:00,2016-04-03 02:51:08,1138000/8f9239b8b243578f2f9fb4a2ab968beb-d.jpg,,
21252893,Theorie und Berechnung vollwandiger Bogenträger bei Berücksichtigung des Einflusses der Systemverformung,,,,Dr.-Ing. Bernhard Fritz (auth.),1934,1,Springer-Verlag Berlin Heidelberg,,152,0,German,,,,"978-3-662-35802-3,978-3-662-36632-5",,,,,,,10.1007/978-3-662-36632-5,,,,0,,,,,,,1,5208953,pdf,5b6a40edc3821e0054d6dc0371a18e39,,,D:\\HDD4\\!genesis\\SPR_NEW_2013-12\\bok%3A978-3-662-36632-5.pdf,0,2000-01-01 01:00:00,2016-04-03 02:51:08,1138000/5b6a40edc3821e0054d6dc0371a18e39-d.jpg,,
21252894,"Rohrhydraulik: Allgemeine Grundlagen, Forschung, Praktische Berechnung und Ausführung von Rohrleitungen",,,,Dr.-Ing. Hugo Richter (auth.),1934,1,Springer-Verlag Berlin Heidelberg,,268,0,German,,,,"978-3-662-40582-6,978-3-662-41060-8",,,,,,,10.1007/978-3-662-41060-8,,,,0,,,,,,,1,11294992,pdf,d06ad63e1c98cb1a700cb0811887eba8,,,D:\\HDD4\\!genesis\\SPR_NEW_2013-12\\bok%3A978-3-662-41060-8.pdf,0,2000-01-01 01:00:00,2016-04-03 02:51:08,1140000/d06ad63e1c98cb1a700cb0811887eba8-d.jpg,,
21252895,Handbuch der Hydrologie: Zweiter Band: Quellen (Süßwasser- und Mineralquellen),,,,"E. Prinz, Dr.-Ing. R. Kampe (auth.)",1934,1,Springer-Verlag Berlin Heidelberg,,299,0,German,,,,"978-3-662-40701-1,978-3-662-41183-4",,,,,,,10.1007/978-3-662-41183-4,,,,0,,,,,,,1,12913627,pdf,14e729dad86a97db5ff962ea42b3fd04,,,D:\\HDD4\\!genesis\\SPR_NEW_2013-12\\bok%3A978-3-662-41183-4.pdf,0,2000-01-01 01:00:00,2016-04-03 02:51:08,1140000/14e729dad86a97db5ff962ea42b3fd04-d.jpg,,
21252896,Zahnräder,,Einzelkonstruktionen aus dem Maschinenbau,,"Dr. A. Schiebel (auth.), Ing. Dr. techn. R. Königer (eds.)",1934,3,Springer-Verlag Berlin Heidelberg,,128,0,German,,,,"978-3-662-37195-4,978-3-662-37916-5",,,,,,,10.1007/978-3-662-37916-5,,,,0,,,,,,,1,10946461,pdf,2047a658118ea97ac681f7159b14da43,,,D:\\HDD4\\!genesis\\SPR_NEW_2013-12\\bok%3A978-3-662-37916-5.pdf,0,2000-01-01 01:00:00,2016-04-03 02:51:08,1139000/2047a658118ea97ac681f7159b14da43-d.jpg,,
21252897,Die Statik im Eisenbetonbau: Ein Lehr- und Handbuch der Baustatik,,,,Dr.-Ing. Kurt Beyer (auth.),1934,2,Springer-Verlag Berlin Heidelberg,,421,0,German,,,,"978-3-662-40886-5,978-3-662-41370-8",,,,,,,10.1007/978-3-662-41370-8,,,,0,,,,,,,1,22736352,pdf,32f1622476d86bcde5056605461a340d,,,D:\\HDD4\\!genesis\\SPR_NEW_2013-12\\bok%3A978-3-662-41370-8.pdf,0,2000-01-01 01:00:00,2016-04-03 02:51:08,1140000/32f1622476d86bcde5056605461a340d-d.jpg,,
21252898,"Anweisung für die Planung, Ausführung und Unterhaltung von Dränanlagen",,,,(auth.),1934,5,Springer-Verlag Berlin Heidelberg,,85,0,German,,,,"978-3-662-35853-5,978-3-662-36683-7",,,,,,,10.1007/978-3-662-36683-7,,,,0,,,,,,,1,3454809,pdf,a83313264ff5229cebac523009676cec,,,D:\\HDD4\\!genesis\\SPR_NEW_2013-12\\bok%3A978-3-662-36683-7.pdf,0,2000-01-01 01:00:00,2016-04-03 02:51:08,1138000/a83313264ff5229cebac523009676cec-d.jpg,,
21252899,"Dampfkessel-Speisepumpen: Bemessung, Ausführung, Antrieb und Regelung",,,,Ing. Karl Grün (auth.),1934,1,Springer-Verlag Wien,,148,0,German,,,,"978-3-7091-2347-8,978-3-7091-2365-2",,,,,,,10.1007/978-3-7091-2365-2,,,,0,,,,,,,1,7694713,pdf,3f3646979729a55e28cc75827813c388,,,D:\\HDD4\\!genesis\\SPR_NEW_2013-12\\bok%3A978-3-7091-2365-2.pdf,0,2000-01-01 01:00:00,2016-04-03 02:51:08,1143000/3f3646979729a55e28cc75827813c388-d.jpg,,
21252900,Anleitungen zum Arbeiten im Elektrotechnischen Laboratorium,,,,E. Orlich (auth.),1934,3,Springer-Verlag Berlin Heidelberg,,105,0,German,,,,"978-3-662-35856-6,978-3-662-36686-8",,,,,,,10.1007/978-3-662-36686-8,,,,0,,,,,,,1,4890985,pdf,57a30e7e040e67fe023813b278655c5a,,,D:\\HDD4\\!genesis\\SPR_NEW_2013-12\\bok%3A978-3-662-36686-8.pdf,0,2000-01-01 01:00:00,2016-04-03 02:51:08,1138000/57a30e7e040e67fe023813b278655c5a-d.jpg,,
21252901,Der Straßenbau der Vereinigten Staaten von Amerika unter Berücksichtigung der Nutzanwendung für Deutschland,,,,"F. Knipping, K. Gölz Dr.-Ing., Reg.-Baum. a. D., H. Mittmeyer Dipl.-Ing. (auth.)",1934,1,Springer-Verlag Berlin Heidelberg,,"VIII, 282 S.",0,German,,,,"978-3-642-51264-3,978-3-642-51383-1",,,,,,,10.1007/978-3-642-51383-1,,,,0,,,,,,,1,13737765,pdf,25b807e0e126647822bc2840b420a6de,,,D:\\HDD4\\!genesis\\SPR_NEW_2013-12\\bok%3A978-3-642-51383-1.pdf,0,2000-01-01 01:00:00,2016-04-03 02:51:08,1135000/25b807e0e126647822bc2840b420a6de-d.jpg,,
21252902,Tuchherstellung und Tuchmusterung die Herstellung des Wollfilzes,,Technologie der Textilfasern,,"Dr. E. Krahn (auth.), W. Biester, Oberstud. Dir. I. R. J. Hirschberg, Oberstud. Dir. H. Klingsöhr, Dr. E. Krahn (eds.)",1934,1,Springer-Verlag Berlin Heidelberg,,233,0,German,,,,"978-3-642-47120-9,978-3-642-47382-1",,,,,,,10.1007/978-3-642-47382-1,,,,0,,,,,,,1,11791768,pdf,035cde6280e144decd0b39d738b67b0b,,,D:\\HDD4\\!genesis\\SPR_NEW_2013-12\\bok%3A978-3-642-47382-1.pdf,0,2000-01-01 01:00:00,2016-04-03 02:51:08,1134000/035cde6280e144decd0b39d738b67b0b-d.jpg,,
21252903,Grundlagen und Entwicklung der Energiewirtschaft Österreichs: Offizieller Bericht des Österreichischen Nationalkomitees der Weltkraftkonferenz,,,,Ing. Dr. Oskar Vas (auth.),1933,1,Springer-Verlag Wien,,89,0,German,,,,"978-3-7091-2137-5,978-3-7091-2181-8",,,,,,,10.1007/978-3-7091-2181-8,,,,0,,,,,,,1,5298868,pdf,7cb9fdcff4dfeecf4baa874117da8c93,,,D:\\HDD4\\!genesis\\SPR_NEW_2013-12\\bok%3A978-3-7091-2181-8.pdf,0,2000-01-01 01:00:00,2016-04-03 02:51:08,1143000/7cb9fdcff4dfeecf4baa874117da8c93-d.jpg,,
21252904,Taschenbuch für Schnitt- und Stanzwerkzeuge und dafür bewährte Böhler-Werkzeugstähle,,,,Dr.-Ing. G. Oehler (auth.),1933,1,Springer-Verlag Berlin Heidelberg,,137,0,German,,,,"978-3-662-42754-5,978-3-662-43031-6",,,,,,,10.1007/978-3-662-43031-6,,,,0,,,,,,,1,4302376,pdf,b9e38a02f023e5f4f2dfc3f3014985ed,,,D:\\HDD4\\!genesis\\SPR_NEW_2013-12\\bok%3A978-3-662-43031-6.pdf,0,2000-01-01 01:00:00,2016-04-03 02:51:08,1140000/b9e38a02f023e5f4f2dfc3f3014985ed-d.jpg,,
21252905,"Die Luftvorwärmung im Dampfkesselbetrieb: Eine Studie über den Bau, die Berechnung und den Betrieb von Luftvorwärmern und über wirtschaftliche Abwärmeverwertung im Dampfkesselbetrieb",,Monographien zur Feuerungstechnik,,Dipl.-Ing. Wilhelm Gumz (auth.),1933,2,Springer-Verlag Berlin Heidelberg,,336,0,German,,,,"978-3-662-33667-0,978-3-662-34065-3",,,,,,,10.1007/978-3-662-34065-3,,,,0,,,,,,,1,14332410,pdf,0604ea8b072eee125c5d165fc43468d3,,,D:\\HDD4\\!genesis\\SPR_NEW_2013-12\\bok%3A978-3-662-34065-3.pdf,0,2000-01-01 01:00:00,2016-04-03 02:51:08,1138000/0604ea8b072eee125c5d165fc43468d3-d.jpg,,
21252906,Die Elektrotechnik und die elektromotorischen Antriebe: Ein elementares Lehrbuch für technische Lehranstalten und zum Selbstunterricht,,,,Dipl.-Ing. W. Lehmann (auth.),1933,2,Springer-Verlag Berlin Heidelberg,,311,0,German,,,,"978-3-662-36129-0,978-3-662-36959-3",,,,,,,10.1007/978-3-662-36959-3,,,,0,,,,,,,1,24638475,pdf,e7deaa42ac75d51d92c75a691b58e45d,,,D:\\HDD4\\!genesis\\SPR_NEW_2013-12\\bok%3A978-3-662-36959-3.pdf,0,2000-01-01 01:00:00,2016-04-03 02:51:08,1139000/e7deaa42ac75d51d92c75a691b58e45d-d.jpg,,
21252907,Wissenschaftliche Anwendungen der Photographie: Ƶweiter Teil: Mikrophotographie,,,,"T. Péterfi (auth.), T. Péterfi (eds.)",1933,1,Springer-Verlag Wien,,443,0,German,,,,"978-3-7091-5186-0,978-3-7091-5334-5",,,,,,,10.1007/978-3-7091-5334-5,,,,0,,,,,,,1,21884604,pdf,0de7facd8b508672720070cdbc585bf1,,,D:\\HDD4\\!genesis\\SPR_NEW_2013-12\\bok%3A978-3-7091-5334-5.pdf,0,2000-01-01 01:00:00,2016-04-03 02:51:08,1143000/0de7facd8b508672720070cdbc585bf1-d.jpg,,
21252908,Über die Umformung von Drehstrom in Einphasenstrom mit Umrichtern: Von der Technischen Hochschule zu Karlsruhe zur Erlangung der Würde eines Doktor-Ingenieurs genehmigte Dissertation,,,,Raphael Feinberg (auth.),1933,1,Springer-Verlag Berlin Heidelberg,,40,0,German,,,,"978-3-662-31314-5,978-3-662-31519-4",,,,,,,10.1007/978-3-662-31519-4,,,,0,,,,,,,1,2808936,pdf,eb105c0cbdfd920f70a9cb89ea8e3957,,,D:\\HDD4\\!genesis\\SPR_NEW_2013-12\\bok%3A978-3-662-31519-4.pdf,0,2000-01-01 01:00:00,2016-04-03 02:51:08,1137000/eb105c0cbdfd920f70a9cb89ea8e3957-d.jpg,,
21252909,Physikalische Hydrodynamik: Mit Anwendung auf die Dynamische Meteorologie,,,,"V. Bjerknes, J. Bjerknes, H. Solberg, T. Bergeron (auth.)",1933,1,Springer-Verlag Berlin Heidelberg,,815,0,German,,,,"978-3-642-52562-9,978-3-642-52616-9",,,,,,,10.1007/978-3-642-52616-9,,,,0,,,,,,,1,27165416,pdf,a3aa59cdd4dd55593f98eeb9ffd44854,,,D:\\HDD4\\!genesis\\SPR_NEW_2013-12\\bok%3A978-3-642-52616-9.pdf,0,2000-01-01 01:00:00,2016-04-03 02:51:08,1135000/a3aa59cdd4dd55593f98eeb9ffd44854-d.jpg,,
21252910,"Mathematisch-technische Zahlentafeln: Vorgeschrieben zum Gebrauch im Unterricht und bei den Prüfungen an den Höheren Technischen Staatslehranstalten für Maschinenwesen und Elektrotechnik, Technischen Staatslehranstalten für Maschinenwesen und Hüttenwesen und anderen Fachschulen für die Metallindustrie",,,,"Oberstudienrat i. R., Dipl.-Ing. H. Bohde (auth.)",1937,8,Springer-Verlag Berlin Heidelberg,,109,0,German,,,,"978-3-662-35621-0,978-3-662-36451-2",,,,,,,10.1007/978-3-662-36451-2,,,,0,,,,,,,1,6383464,pdf,a6ac3b2522f9c366388c9b2a122c3384,,,D:\\HDD4\\!genesis\\SPR_NEW_2013-12\\bok%3A978-3-662-36451-2.pdf,0,2000-01-01 01:00:00,2016-04-03 02:51:08,1138000/a6ac3b2522f9c366388c9b2a122c3384-d.jpg,,
21252911,Städtebau: II. Teil. Eisenbahnwesen und Städtebau. 1. Band,,Handbibliothek für Bauingenieure 1,,Dr.-Ing. Otto Blum (auth.),1937,2,Springer-Verlag Berlin Heidelberg,,"VIII, 244 S.",0,German,,,,"978-3-642-98792-2,978-3-642-99607-8",,,,,,,10.1007/978-3-642-99607-8,,,,0,,,,,,,1,14160535,pdf,da27d604c67670280e58f43115f792b3,,,D:\\HDD4\\!genesis\\SPR_NEW_2013-12\\bok%3A978-3-642-99607-8.pdf,0,2000-01-01 01:00:00,2016-04-03 02:51:08,1136000/da27d604c67670280e58f43115f792b3-d.jpg,,
21252912,Hilfsbuch für raum- und außenklimatische Messungen: Mit besonderer Berücksichtigung des Katathermometers,,,,"Dr. phil. habil. Franz Bradtke, Dr. Walther Liese (auth.)",1937,1,Springer-Verlag Berlin Heidelberg,,109,0,German,,,,"978-3-662-40689-2,978-3-662-41171-1",,,,,,,10.1007/978-3-662-41171-1,,,,0,,,,,,,1,4273189,pdf,66df50b715392a35e3525e086a714bfc,,,D:\\HDD4\\!genesis\\SPR_NEW_2013-12\\bok%3A978-3-662-41171-1.pdf,0,2000-01-01 01:00:00,2016-04-03 02:51:08,1140000/66df50b715392a35e3525e086a714bfc-d.jpg,,
21252913,Praktische Anwendung der Baugrunduntersuchungen bei Entwurf und Beurteilung von Erdbauten und Gründungen,,,,Dr.-Ing. habil. W. Loos (auth.),1937,3,Springer-Verlag Berlin Heidelberg,,213,0,German,,,,"978-3-662-35553-4,978-3-662-36382-9",,,,,,,10.1007/978-3-662-36382-9,,,,0,,,,,,,1,8222170,pdf,6b8473ee34fb7551879aefb0139e2f72,,,D:\\HDD4\\!genesis\\SPR_NEW_2013-12\\bok%3A978-3-662-36382-9.pdf,0,2000-01-01 01:00:00,2016-04-03 02:51:08,1138000/6b8473ee34fb7551879aefb0139e2f72-d.jpg,,
21252914,Handbuch des Maschinenwesens beim Baubetrieb: Dritter Band Die Geräte für Erd- und Felsbewegungen,,,,"Dr. Georg Garbotz VDI (auth.), Dr. Georg Garbotz VDI (eds.)",1937,1,Springer-Verlag Berlin Heidelberg,,665,0,German,,,,"978-3-662-32086-0,978-3-662-32913-9",,,,,,,10.1007/978-3-662-32913-9,,,,0,,,,,,,1,43262908,pdf,297a787eb2ec2ddf32797a87f455cfbf,,,D:\\HDD4\\!genesis\\SPR_NEW_2013-12\\bok%3A978-3-662-32913-9.pdf,0,2000-01-01 01:00:00,2016-04-03 02:51:08,1137000/297a787eb2ec2ddf32797a87f455cfbf-d.jpg,,
21252915,Die Wirtschaftlichkeit der Stromversorgung des Haushalts: Dissertation zur Erlangung der Würde eines Doktor-Ingenieurs der Technischen Hochschule Berlin,,,,Willi Willing Dipl.-Ing. (auth.),1937,1,Springer-Verlag Berlin Heidelberg,,62,0,German,,,,"978-3-662-31396-1,978-3-662-31603-0",,,,,,,10.1007/978-3-662-31603-0,,,,0,,,,,,,1,7176730,pdf,941f272f83a551117e1327227223a67a,,,D:\\HDD4\\!genesis\\SPR_NEW_2013-12\\bok%3A978-3-662-31603-0.pdf,0,2000-01-01 01:00:00,2016-04-03 02:51:08,1137000/941f272f83a551117e1327227223a67a-d.jpg,,
21252916,"Preisermittlung und Veranschlagen von Hoch-, Tief- und Eisenbetonbauten: Ein Hilfs- und Nachschlagebuch zum Veranschlagen von Erd-, Straßen-, Wasser- und Brücken-, Eisenbeton-, Maurer- und Zimmer-Arbeiten",,,,Dr.-Ing. Ludwig Baumeister (auth.),1938,7,Springer-Verlag Berlin Heidelberg,,439,0,German,,,,"978-3-662-26840-7,978-3-662-28306-6",,,,,,,10.1007/978-3-662-28306-6,,,,0,,,,,,,1,15537588,pdf,4cb07e7a39ffc50ebf07cae1270bbffd,,,D:\\HDD4\\!genesis\\SPR_NEW_2013-12\\bok%3A978-3-662-28306-6.pdf,0,2000-01-01 01:00:00,2016-04-03 02:51:08,1137000/4cb07e7a39ffc50ebf07cae1270bbffd-d.jpg,,
21252917,Praktisches Handbuch der gesamten Schweißtechnik,,,,"Prof. Dr.-Ing. P. Schimpke (auth.), Prof. Dr.-Ing. P. Schimpke, Ober-Ing. Hans A. Horn (eds.)",1938,3,Springer-Verlag Berlin Heidelberg,,309,0,German,,,,"978-3-662-37488-7,978-3-662-38253-0",,,,,,,10.1007/978-3-662-38253-0,,,,0,,,,,,,1,17098349,pdf,fbd323034def46a40c63fe8804897775,,,D:\\HDD4\\!genesis\\SPR_NEW_2013-12\\bok%3A978-3-662-38253-0.pdf,0,2000-01-01 01:00:00,2016-04-03 02:51:08,1139000/fbd323034def46a40c63fe8804897775-d.jpg,,
21252918,Handbuch der chemisch-technischen Apparate maschinellen Hilfsmittel und Werkstoffe: Ein lexikalisches Nachschlagewerk für Chemiker und Ingenieure,,,,"Rabald, Singer, Thormann, Bähr, Hirschbrich (auth.), Dr. A. J. Kieser (eds.)",1938,1,Springer-Verlag Berlin Heidelberg,,100,0,German,,,,"978-3-642-48536-7,978-3-642-48603-6",,,,,,,10.1007/978-3-642-48603-6,,,,0,,,,,,,1,7518543,pdf,77cfbcc522b3aa22990ccd317f9230d1,,,D:\\HDD4\\!genesis\\SPR_NEW_2013-12\\bok%3A978-3-642-48603-6.pdf,0,2000-01-01 01:00:00,2016-04-03 02:51:08,1134000/77cfbcc522b3aa22990ccd317f9230d1-d.jpg,,
21252919,Handbuch für Produktions- und Vielstahlbänke,,,,Wilhelm Heinemann (auth.),1938,1,Springer-Verlag Berlin Heidelberg,,76,0,German,,,,"978-3-642-98592-8,978-3-642-99407-4",,,,,,,10.1007/978-3-642-99407-4,,,,0,,,,,,,1,12841322,pdf,0f55eefbf049f659ec47634269003eb2,,,D:\\HDD4\\!genesis\\SPR_NEW_2013-12\\bok%3A978-3-642-99407-4.pdf,0,2000-01-01 01:00:00,2016-04-03 02:51:08,1136000/0f55eefbf049f659ec47634269003eb2-d.jpg,,
21252920,Messen und Prüfen von Gewinden,,Werkstattbücher 65,,Ing. Karl Kress (auth.),1938,1,Springer-Verlag Berlin Heidelberg,,67,0,German,,,,"978-3-662-40613-7,978-3-662-41093-6",,,,,,,10.1007/978-3-662-41093-6,,,,0,,,,,,,1,5592455,pdf,f551171ede30662125fa3f8949609157,,,D:\\HDD4\\!genesis\\SPR_NEW_2013-12\\bok%3A978-3-662-41093-6.pdf,0,2000-01-01 01:00:00,2016-04-03 02:51:08,1140000/f551171ede30662125fa3f8949609157-d.jpg,,
21252921,Berechnung des Eisenbetons gegen Verdrehung (Torsion) und Abscheren,,,,"Dr.-Ing., Dr. techn. Ernst Rausch (auth.)",1938,2,Springer-Verlag Berlin Heidelberg,,93,0,German,,,,"978-3-662-36216-7,978-3-662-37046-9",,,,,,,10.1007/978-3-662-37046-9,,,,0,,,,,,,1,3858423,pdf,b106857af21636a6cea8a949861b76c6,,,D:\\HDD4\\!genesis\\SPR_NEW_2013-12\\bok%3A978-3-662-37046-9.pdf,0,2000-01-01 01:00:00,2016-04-03 02:51:08,1139000/b106857af21636a6cea8a949861b76c6-d.jpg,,
21252922,Grundlagen für die Messung von Stirnrädern mit gerader Evolventenverzahnung,,,,Prof. Dr. G. Berndt (auth.),1938,1,Springer-Verlag Berlin Heidelberg,,168,0,German,,,,"978-3-662-40726-4,978-3-662-41208-4",,,,,,,10.1007/978-3-662-41208-4,,,,0,,,,,,,1,6404904,pdf,adc8fdd2cb770213fb6842d87a56a6cb,,,D:\\HDD4\\!genesis\\SPR_NEW_2013-12\\bok%3A978-3-662-41208-4.pdf,0,2000-01-01 01:00:00,2016-04-03 02:51:08,1140000/adc8fdd2cb770213fb6842d87a56a6cb-d.jpg,,
21252923,"Taschenbuch zum Abstecken von Kreisbogen mit und ohne Übergangsbogen für Eisenbahnen, Straßen und Kanäle",,,,"O. Sarrazin, H. Oberbeck (auth.)",1938,1,Springer-Verlag Berlin Heidelberg,,313,0,German,,,,"978-3-662-35432-2,978-3-662-36260-0",,,,,,,10.1007/978-3-662-36260-0,,,,0,,,,,,,1,8209215,pdf,69013e9874f462da336b1fc882f2fee0,,,D:\\HDD4\\!genesis\\SPR_NEW_2013-12\\bok%3A978-3-662-36260-0.pdf,0,2000-01-01 01:00:00,2016-04-03 02:51:08,1138000/69013e9874f462da336b1fc882f2fee0-d.jpg,,
21252924,Elektrische Kraftwerke und Netze,,,,Dr. Ing. Th. Buchhold (auth.),1938,1,Springer-Verlag Berlin Heidelberg,,440,0,German,,,,"978-3-662-35940-2,978-3-662-36770-4",,,,,,,10.1007/978-3-662-36770-4,,,,0,,,,,,,1,19486337,pdf,c3d9743b87cef269dbabf96fa278e8a4,,,D:\\HDD4\\!genesis\\SPR_NEW_2013-12\\bok%3A978-3-662-36770-4.pdf,0,2000-01-01 01:00:00,2016-04-03 02:51:08,1138000/c3d9743b87cef269dbabf96fa278e8a4-d.jpg,,
21252925,Der Wärme- und Kälteschutz in der Industrie,,,,Dr.-Ing. habil. J. S. Cammerer (auth.),1938,2,Springer-Verlag Berlin Heidelberg,,323,0,German,,,,"978-3-662-36185-6,978-3-662-37015-5",,,,,,,10.1007/978-3-662-37015-5,,,,0,,,,,,,1,10528604,pdf,668b72dd689bbd062f74989c21603b5f,,,D:\\HDD4\\!genesis\\SPR_NEW_2013-12\\bok%3A978-3-662-37015-5.pdf,0,2000-01-01 01:00:00,2016-04-03 02:51:08,1139000/668b72dd689bbd062f74989c21603b5f-d.jpg,,
21252926,Blätter für Geschichte der Technik,,,,"(auth.), O. Ö. Prof. Dr. K. Holey (eds.)",1938,1,Springer-Verlag Wien,,147,0,German,,,,"978-3-7091-2348-5,978-3-7091-2366-9",,,,,,,10.1007/978-3-7091-2366-9,,,,0,,,,,,,1,8337682,pdf,e11dc772b3d2c02908a4cb47477431d2,,,D:\\HDD4\\!genesis\\SPR_NEW_2013-12\\bok%3A978-3-7091-2366-9.pdf,0,2000-01-01 01:00:00,2016-04-03 02:51:08,1143000/e11dc772b3d2c02908a4cb47477431d2-d.jpg,,
21252927,Die Wasserwerkstatt,,Handbuch der Gerbereichemie und Lederfabrikation 1 / 2,,"Dr. Ing. Wilhelm Ackermann (auth.), W. Ackermann, D. Balányi, E. A. Bohne, K. Grafe, H. Herfeld, A. Miekeley, G. Schuck, W. Grassmann (eds.)",1938,1,Springer-Verlag Wien,,529,0,German,,,,"978-3-7091-2317-1,978-3-7091-2316-4",,,,,,,10.1007/978-3-7091-2316-4,,,,0,,,,,,,1,20846720,pdf,1599c883168b72811f598ce5591ccebd,,,D:\\HDD4\\!genesis\\SPR_NEW_2013-12\\bok%3A978-3-7091-2316-4.pdf,0,2000-01-01 01:00:00,2016-04-03 02:51:08,1143000/1599c883168b72811f598ce5591ccebd-d.jpg,,
21252928,Bedeutung des „Vorherigen Zustands“ für die Begutachtung der Folgen von Betriebsunfällen,,Hefte zur Unfallheilkunde,,Dr. P. Reckzeh (auth.),1938,1,Springer-Verlag Berlin Heidelberg,,48,0,German,,,,"978-3-662-39240-9,978-3-662-40254-2",,,,,,,10.1007/978-3-662-40254-2,,,,0,,,,,,,1,1938962,pdf,1fc258bf91d8443d01a1f7594dd0e9fe,,,D:\\HDD4\\!genesis\\SPR_NEW_2013-12\\bok%3A978-3-662-40254-2.pdf,0,2000-01-01 01:00:00,2016-04-03 02:51:08,1139000/1fc258bf91d8443d01a1f7594dd0e9fe-d.jpg,,
21252929,Technik der Verbandstoffherstellung,,,,August Lohmann (auth.),1939,1,Springer-Verlag Berlin Heidelberg,,121,0,German,,,,"978-3-662-35430-8,978-3-662-36258-7",,,,,,,10.1007/978-3-662-36258-7,,,,0,,,,,,,1,4426415,pdf,930ed93d363b8ba2ae726220e406ef33,,,D:\\HDD4\\!genesis\\SPR_NEW_2013-12\\bok%3A978-3-662-36258-7.pdf,0,2000-01-01 01:00:00,2016-04-03 02:51:08,1138000/930ed93d363b8ba2ae726220e406ef33-d.jpg,,
21252930,Moderne Kurzwellen-Empfangstechnik,,,,Dr. M. J. O. Strutt (auth.),1939,1,Springer-Verlag Berlin Heidelberg,,252,0,German,,,,"978-3-662-40609-0,978-3-662-41087-5",,,,,,,10.1007/978-3-662-41087-5,,,,0,,,,,,,1,10166849,pdf,8db678559bb1511439e4aee7fec0544e,,,D:\\HDD4\\!genesis\\SPR_NEW_2013-12\\bok%3A978-3-662-41087-5.pdf,0,2000-01-01 01:00:00,2016-04-03 02:51:08,1140000/8db678559bb1511439e4aee7fec0544e-d.jpg,,
21252931,Treibstoffe für Verbrennungsmotoren,,,,Dr.-Ing. Franz Spausta (auth.),1939,1,Springer-Verlag Wien,,359,0,German,,,,"978-3-7091-5161-7,978-3-7091-5309-3",,,,,,,10.1007/978-3-7091-5309-3,,,,0,,,,,,,1,11686322,pdf,d9c42050fd806ebb07c4f5e6a8413f16,,,D:\\HDD4\\!genesis\\SPR_NEW_2013-12\\bok%3A978-3-7091-5309-3.pdf,0,2000-01-01 01:00:00,2016-04-03 02:51:08,1143000/d9c42050fd806ebb07c4f5e6a8413f16-d.jpg,,
21252932,Klingelnberg Technisches Hilfsbuch,,,,"Baurat Dipl.-Ing. Ernst Preger (auth.), Baurat Dipl.-Ing. Ernst Preger, Dipl.-Ing. Rudolf Reindl (eds.)",1939,9,Springer-Verlag Berlin Heidelberg,,725,0,German,,,,"978-3-662-37208-1,978-3-662-37931-8",,,,,,,10.1007/978-3-662-37931-8,,,,0,,,,,,,1,34889954,pdf,8fa1c327a147038b399b66e396d807c3,,,D:\\HDD4\\!genesis\\SPR_NEW_2013-12\\bok%3A978-3-662-37931-8.pdf,0,2000-01-01 01:00:00,2016-04-03 02:51:08,1139000/8fa1c327a147038b399b66e396d807c3-d.jpg,,
21252933,Die Prüfung der metallischen Werkstoffe,,Handbuch der Werkstoffprüfung 2,,"U. Dehlinger (auth.), K. Bungardt, E. Damerow, U. Dehlinger, R. Fricke, A. Fry, P. de Haller, W. Hengemühle, R. Hinzmann, F. Körber, A. Krisch, W. Kuntze, R. Mailänder, A. Pomp, J. Schramm, Fr. Schwerd, W. Seith, E. Siebel, W. Steurer, A. Thum, F. Wever (eds.)",1939,1,Springer-Verlag Berlin Heidelberg,,760,0,German,,,,"978-3-662-35758-3,978-3-662-36588-5",,,,,,,10.1007/978-3-662-36588-5,,,,0,,,,,,,1,45072739,pdf,f575185ef78993819804b82eb368080f,,,D:\\HDD4\\!genesis\\SPR_NEW_2013-12\\bok%3A978-3-662-36588-5.pdf,0,2000-01-01 01:00:00,2016-04-03 02:51:08,1138000/f575185ef78993819804b82eb368080f-d.jpg,,
21252934,Gestaltung von Wälzlagerungen,,Konstruktionsbücher 4,,Wilhelm Jürgensmeyer (auth.),1939,1,Springer-Verlag Berlin Heidelberg,,97,0,German,,,,"978-3-662-30661-1,978-3-662-30732-8",,,,,,,10.1007/978-3-662-30732-8,,,,0,,,,,,,1,6893324,pdf,6b705ecfe2af062edd0241b58eed408f,,,D:\\HDD4\\!genesis\\SPR_NEW_2013-12\\bok%3A978-3-662-30732-8.pdf,0,2000-01-01 01:00:00,2016-04-03 02:51:08,1137000/6b705ecfe2af062edd0241b58eed408f-d.jpg,,
21252935,Untersuchungen über die Auriga-Dunkelwolke: Inaugural-Dissertation zur Erlangung des Doktorgrades genehmigt von der Mathematisch-Naturwissenschaftlichen Fakultät der Friedrich-Wilhelms-Universität zu Berlin,,,,Georg Hartwig (auth.),1939,1,Springer-Verlag Berlin Heidelberg,,59,0,German,,,,"978-3-662-31301-5,978-3-662-31506-4",,,,,,,10.1007/978-3-662-31506-4,,,,0,,,,,,,1,3269501,pdf,116ca3c7115fcf3f4bca644f51fc9a98,,,D:\\HDD4\\!genesis\\SPR_NEW_2013-12\\bok%3A978-3-662-31506-4.pdf,0,2000-01-01 01:00:00,2016-04-03 02:51:08,1137000/116ca3c7115fcf3f4bca644f51fc9a98-d.jpg,,
21252936,Handbuch der chemisch-technischen Apparate maschinellen Hilfsmittel und Werkstoffe: Ein lexikalisches Nachschlagewerk für Chemiker und Ingenieure,,,,"Dr. A. J. Kieser (auth.), Dr. A. J. Kieser (eds.)",1941,1,Springer-Verlag Berlin Heidelberg,,101,0,German,,,,"978-3-662-32100-3,978-3-662-32927-6",,,,,,,10.1007/978-3-662-32927-6,,,,0,,,,,,,1,7192997,pdf,a477358dac967a48ea2dc2d18e8b1199,,,D:\\HDD4\\!genesis\\SPR_NEW_2013-12\\bok%3A978-3-662-32927-6.pdf,0,2000-01-01 01:00:00,2016-04-03 02:51:08,1137000/a477358dac967a48ea2dc2d18e8b1199-d.jpg,,
21252937,Versuche mit Nietverbindungen,,Berichte des Deutschen Ausschusses für Stahlbau H. 12,,Otto Graf (auth.),1941,1,Springer-Verlag Berlin Heidelberg,,52,0,German,,,,"978-3-662-35460-5,978-3-662-36288-4",,,,,,,10.1007/978-3-662-36288-4,,,,0,,,,,,,1,5079659,pdf,9a797411d0d2fc3637887ed5a604b98a,,,D:\\HDD4\\!genesis\\SPR_NEW_2013-12\\bok%3A978-3-662-36288-4.pdf,0,2000-01-01 01:00:00,2016-04-03 02:51:08,1138000/9a797411d0d2fc3637887ed5a604b98a-d.jpg,,
21252938,Blei und Bleilegierungen: Metallkunde und Technologie,,Reine und angewandte Metallkunde in Einzeldarstellungen 6,,Dr.-Ing. habil. Wilhelm Hofmann (auth.),1941,1,Springer-Verlag Berlin Heidelberg,,304,0,German,,,,"978-3-662-30684-0,978-3-662-30755-7",,,,,,,10.1007/978-3-662-30755-7,,,,0,,,,,,,1,15944346,pdf,ef0860868214dd1037b89f7ecc642389,,,D:\\HDD4\\!genesis\\SPR_NEW_2013-12\\bok%3A978-3-662-30755-7.pdf,0,2000-01-01 01:00:00,2016-04-03 02:51:08,1137000/ef0860868214dd1037b89f7ecc642389-d.jpg,,
21252939,Gesetzmäßigkeiten beim Einbau von Schrauben insbesondere von Kopfschrauben,,,,Dr.-Ing. Nikolaus Theophanopoulos (auth.),1941,1,Springer-Verlag Berlin Heidelberg,,92,0,German,,,,"978-3-662-42712-5,978-3-662-42989-1",,,,,,,10.1007/978-3-662-42989-1,,,,0,,,,,,,1,3565637,pdf,8cd45e266e9f2dff1b5a015f1611249d,,,D:\\HDD4\\!genesis\\SPR_NEW_2013-12\\bok%3A978-3-662-42989-1.pdf,0,2000-01-01 01:00:00,2016-04-03 02:51:08,1140000/8cd45e266e9f2dff1b5a015f1611249d-d.jpg,,
21252940,Die Prüfung nichtmetallischer Baustoffe,,Handbuch der Werkstoffprüfung,,"Otto Graf (auth.), E. Brenner, A. Dietzel, K. Egner, W. Eißner, W. Erdmann, R. Grün, G. Haegermann, H. Hecht, A. Hummel, F. Kaufmann, F. Keil, A. Kieslinger, F. Kollmann, R. Korn, Th. Kristen, J. Liese, H. Mallison, E. Mörath, R. Nacken, F. de Quervain, H. Reiher, W. Rodel, K. Stöcke, R. Trendelenburg, A. Voellmy, H. Wagner, K. Walz, F. Weise, Otto Graf (eds.)",1941,1,Springer-Verlag Berlin Heidelberg,,828,0,German,,,,"978-3-662-35759-0,978-3-662-36589-2",,,,,,,10.1007/978-3-662-36589-2,,,,0,,,,,,,1,40639526,pdf,275eac0767d495a348547d0d18d4626c,,,D:\\HDD4\\!genesis\\SPR_NEW_2013-12\\bok%3A978-3-662-36589-2.pdf,0,2000-01-01 01:00:00,2016-04-03 02:51:08,1138000/275eac0767d495a348547d0d18d4626c-d.jpg,,
21252941,Moderne Mehrgitter-Elektronenröhren: Bau · Arbeitsweise · Eigenschaften Elektrophysikalische Grundlagen,,,,Dr. M. J. O. Strutt (auth.),1940,2,Springer-Verlag Berlin Heidelberg,,292,0,German,,,,"978-3-642-98185-2,978-3-642-98996-4",,,,,,,10.1007/978-3-642-98996-4,,,,0,,,,,,,1,12203427,pdf,21ced23720d621ed67abacd7126765a2,,,D:\\HDD4\\!genesis\\SPR_NEW_2013-12\\bok%3A978-3-642-98996-4.pdf,0,2000-01-01 01:00:00,2016-04-03 02:51:08,1136000/21ced23720d621ed67abacd7126765a2-d.jpg,,
21252942,Prüf- und Meßeinrichtungen,,Handbuch der Werkstoffprüfung,,"Erich Siebel (auth.), R. Berthold, A. Eichinger, W. Ermlich, G. Fiek, L. Föppl, R. Glocker, E. Lehr, O. Vaupel, Professor Dr.-Ing. Erich Siebel (eds.)",1940,1,Springer-Verlag Berlin Heidelberg,,672,0,German,,,,"978-3-662-35760-6,978-3-662-36590-8",,,,,,,10.1007/978-3-662-36590-8,,,,0,,,,,,,1,86302624,pdf,b88a4c56b5ebabc76dac9aed0cd46dfc,,,D:\\HDD4\\!genesis\\SPR_NEW_2013-12\\bok%3A978-3-662-36590-8.pdf,0,2000-01-01 01:00:00,2016-04-03 02:51:08,1138000/b88a4c56b5ebabc76dac9aed0cd46dfc-d.jpg,,
21252943,Versuche und Feststellungen zur Entwicklung der geschweißten Brücken,,Berichte des Deutschen Ausschusses für Stahlbau 11,,Otto Graf (auth.),1940,1,Springer-Verlag Wien,,121,0,German,,,,"978-3-7091-9745-5,978-3-7091-9992-3",,,,,,,10.1007/978-3-7091-9992-3,,,,0,,,,,,,1,13281671,pdf,3204d8785b5e5c45116b5a2882258f83,,,D:\\HDD4\\!genesis\\SPR_NEW_2013-12\\bok%3A978-3-7091-9992-3.pdf,0,2000-01-01 01:00:00,2016-04-03 02:51:08,1143000/3204d8785b5e5c45116b5a2882258f83-d.jpg,,
21252944,"Färberei- und textilchemische Untersuchungen: Anleitung zur chemischen und koloristischen Untersuchung und Bewertung der Rohstoffe, Hilfsmittel und Erzeugnisse der Textilveredlungsindustrie",,,,Dr. Paul Heermann (auth.),1940,7,Springer-Verlag Berlin Heidelberg,,428,0,German,,,,"978-3-662-35902-0,978-3-662-36732-2",,,,,,,10.1007/978-3-662-36732-2,,,,0,,,,,,,1,16782246,pdf,80e1b774d97e5e4c629606b4c81af273,,,D:\\HDD4\\!genesis\\SPR_NEW_2013-12\\bok%3A978-3-662-36732-2.pdf,0,2000-01-01 01:00:00,2016-04-03 02:51:08,1138000/80e1b774d97e5e4c629606b4c81af273-d.jpg,,
21252945,"Stanztechnik: Erster Teil, Schnittechnik, Technologie des Schneidens Überblick über die zugehörigen Maschinen",,Werkstattbücher,,Dipl.-Ing. Erich Krabbe (auth.),1940,2,Springer-Verlag Berlin Heidelberg,,71,0,German,,,,"978-3-662-37376-7,978-3-662-38122-9",,,,,,,10.1007/978-3-662-38122-9,,,,0,,,,,,,1,3692651,pdf,1a9b5c3ef94ecd464ebf8aab2390ff22,,,D:\\HDD4\\!genesis\\SPR_NEW_2013-12\\bok%3A978-3-662-38122-9.pdf,0,2000-01-01 01:00:00,2016-04-03 02:51:08,1139000/1a9b5c3ef94ecd464ebf8aab2390ff22-d.jpg,,
21252946,Elastizität und Festigkeit im Rohrleitungsbau: Statische Berechnung der Rohrleitungen und ihrer Einzelteile,,,,Helmut von Jürgensonn VDI (auth.),1940,1,Springer-Verlag Berlin Heidelberg,,364,0,German,,,,"978-3-662-35942-6,978-3-662-36772-8",,,,,,,10.1007/978-3-662-36772-8,,,,0,,,,,,,1,12365157,pdf,96a3b0617a02d9b116cb631205f1c86c,,,D:\\HDD4\\!genesis\\SPR_NEW_2013-12\\bok%3A978-3-662-36772-8.pdf,0,2000-01-01 01:00:00,2016-04-03 02:51:08,1138000/96a3b0617a02d9b116cb631205f1c86c-d.jpg,,
21252947,Prüf- und Meßeinrichtungen,,Handbuch der Werkstoffprüfung 1,,"Erich Siebel (auth.), R. Berthold, A. Eichinger, W. Ermlich, G. Fiek, L. Föppl, R. Glocker, E. Lehr, O. Vaupel, Professor Dr.-Ing. E. Siebel (eds.)",1940,1,Springer-Verlag Berlin Heidelberg,,672,0,German,,,,"978-3-662-35536-7,978-3-662-36364-5",,,,,,,10.1007/978-3-662-36364-5,,,,0,,,,,,,1,32683058,pdf,df8672a6ad7149b4c357bbb816be7927,,,D:\\HDD4\\!genesis\\SPR_NEW_2013-12\\bok%3A978-3-662-36364-5.pdf,0,2000-01-01 01:00:00,2016-04-03 02:51:08,1138000/df8672a6ad7149b4c357bbb816be7927-d.jpg,,
21252948,Der Vorrichtungsbau: III Wirtschaftliche Herstellung und Ausnutzung der Vorrichtungen,,Werkstattbücher,,Fritz Grünhagen (auth.),1940,2,Springer-Verlag Berlin Heidelberg,,58,0,German,,,,"978-3-662-37087-2,978-3-662-37795-6",,,,,,,10.1007/978-3-662-37795-6,,,,0,,,,,,,1,5002161,pdf,ece22a540a19a8e2ffe16f5a9ea698a3,,,D:\\HDD4\\!genesis\\SPR_NEW_2013-12\\bok%3A978-3-662-37795-6.pdf,0,2000-01-01 01:00:00,2016-04-03 02:51:08,1139000/ece22a540a19a8e2ffe16f5a9ea698a3-d.jpg,,
21252949,"Die elektrische Ausgestaltung des Kraftwerkes und der Übertragung, Stromerzeugung, Schalt- und Sicherungsanlagen für Kraftwerk und Netz, Entwurfsgestaltung, Betrieb und Wirtschaftlichkeit",,,,Dipl.-Ing. Herbert Kyser (auth.),1940,3,Springer-Verlag Berlin Heidelberg,,625,0,German,,,,"978-3-662-37274-6,978-3-662-38003-1",,,,,,,10.1007/978-3-662-38003-1,,,,0,,,,,,,1,26191857,pdf,44124ed417adc40fad7f79cb222533cd,,,D:\\HDD4\\!genesis\\SPR_NEW_2013-12\\bok%3A978-3-662-38003-1.pdf,0,2000-01-01 01:00:00,2016-04-03 02:51:08,1139000/44124ed417adc40fad7f79cb222533cd-d.jpg,,
21252950,Aufgaben und Lösungen aus der Gleich- und Wechselstromtechnik: Ein Übungsbuch für den Unterricht an technischen Hoch- und Fachschulen sowie zum Selbststudium,,,,"Prof. H. Vieweger, Obering. W. Vieweger (auth.)",1940,11,Springer-Verlag Berlin Heidelberg,,357,0,German,,,,"978-3-662-35828-3,978-3-662-36658-5",,,,,,,10.1007/978-3-662-36658-5,,,,0,,,,,,,1,18585216,pdf,59dc1b85990fcf6b5d7ab2064ed71d5a,,,D:\\HDD4\\!genesis\\SPR_NEW_2013-12\\bok%3A978-3-662-36658-5.pdf,0,2000-01-01 01:00:00,2016-04-03 02:51:08,1138000/59dc1b85990fcf6b5d7ab2064ed71d5a-d.jpg,,
21252951,Taschenbuch für Druckluft-Betrieb,,,,"Civilingenieur Chr. P. Hansen (auth.), Civilingenieur Chr. P. Hansen (eds.)",1936,6,Springer-Verlag Berlin Heidelberg,,334,0,German,,,,"978-3-662-35433-9,978-3-662-36261-7",,,,,,,10.1007/978-3-662-36261-7,,,,0,,,,,,,1,12283820,pdf,364356f2dac451cd2614720ae9e5f98f,,,D:\\HDD4\\!genesis\\SPR_NEW_2013-12\\bok%3A978-3-662-36261-7.pdf,0,2000-01-01 01:00:00,2016-04-03 02:51:08,1138000/364356f2dac451cd2614720ae9e5f98f-d.jpg,,
21252952,Die Anwendung dynamischer Baugrunduntersuchungen,,Veröffentlichungen des Instituts der Deutschen Forschungsgesellschaft für Bodenmechanik (Degebo) an der Technischen Hochschule Berlin 4,,L. Erlenbach (auth.),1936,1,Springer-Verlag Berlin Heidelberg,,"III, 52 S.",0,German,,,,"978-3-662-27623-5,978-3-662-29110-8",,,,,,,10.1007/978-3-662-29110-8,,,,0,,,,,,,1,5074189,pdf,3f437929520d1a5e88425e93df55d1ed,,,D:\\HDD4\\!genesis\\SPR_NEW_2013-12\\bok%3A978-3-662-29110-8.pdf,0,2000-01-01 01:00:00,2016-04-03 02:51:08,1137000/3f437929520d1a5e88425e93df55d1ed-d.jpg,,
21252953,Freiformschmiede: Dritter Teil: Einrichtung und Werkzeuge der Schmiede,,Werkstattbücher 56,,Ing. A. Stodt (auth.),1936,2,Springer-Verlag Wien,,55,0,German,,,,"978-3-7091-2468-0,978-3-7091-2470-3",,,,,,,10.1007/978-3-7091-2470-3,,,,0,,,,,,,1,4068837,pdf,20c49c41426f0936a69be3c867b1c38d,,,D:\\HDD4\\!genesis\\SPR_NEW_2013-12\\bok%3A978-3-7091-2470-3.pdf,0,2000-01-01 01:00:00,2016-04-03 02:51:08,1143000/20c49c41426f0936a69be3c867b1c38d-d.jpg,,
21252954,Berechnung und Ausschaltung von Saisonschwankungen,,Beiträge Zur Konjunkturforschung 9,,A. Wald (auth.),1936,1,Springer-Verlag Wien,,"VIII, 144 S.",0,German,,,,"978-3-7091-9539-0,978-3-7091-9786-8",,,,,,,10.1007/978-3-7091-9786-8,,,,0,,,,,,,1,4537580,pdf,41eb25da08d12c28abe7fe9def62ebea,,,D:\\HDD4\\!genesis\\SPR_NEW_2013-12\\bok%3A978-3-7091-9786-8.pdf,0,2000-01-01 01:00:00,2016-04-03 02:51:08,1143000/41eb25da08d12c28abe7fe9def62ebea-d.jpg,,
21252955,Viktor Kaplan,,,,Dr. Techn. Alfred Lechner (auth.),1936,1,Springer-Verlag Berlin Heidelberg,,66,0,German,,,,"978-3-662-40713-4,978-3-662-41195-7",,,,,,,10.1007/978-3-662-41195-7,,,,0,,,,,,,1,2964844,pdf,3e51832b5aa689d9e37e2c61a9ee1386,,,D:\\HDD4\\!genesis\\SPR_NEW_2013-12\\bok%3A978-3-662-41195-7.pdf,0,2000-01-01 01:00:00,2016-04-03 02:51:08,1140000/3e51832b5aa689d9e37e2c61a9ee1386-d.jpg,,
21252956,"Bau und Betrieb des Kraftwerkes: Die maschinellen Einrichtungen für Dampf, Rohöl, Gas und Wasser Vorarbeiten, Entwurfsgestaltung und Betriebsführung",,,,Dipl.-Ing. Herbert Kyser (auth.),1936,3,Springer-Verlag Berlin Heidelberg,,584,0,German,,,,"978-3-662-36135-1,978-3-662-36965-4",,,,,,,10.1007/978-3-662-36965-4,,,,0,,,,,,,1,26051445,pdf,49eb26b64758cf9baa24a7e19577c02a,,,D:\\HDD4\\!genesis\\SPR_NEW_2013-12\\bok%3A978-3-662-36965-4.pdf,0,2000-01-01 01:00:00,2016-04-03 02:51:08,1139000/49eb26b64758cf9baa24a7e19577c02a-d.jpg,,
21252957,Die Wärmeübertragung: Ein Lehr- und Nachschlagebuch für den praktischen Gebrauch,,,,Dipl.-Ing. M. ten Bosch (auth.),1936,3,Springer-Verlag Berlin Heidelberg,,295,0,German,,,,"978-3-662-33641-0,978-3-662-34039-4",,,,,,,10.1007/978-3-662-34039-4,,,,0,,,,,,,1,11702420,pdf,141c6fd9f2a901c3b16c4001babeba51,,,D:\\HDD4\\!genesis\\SPR_NEW_2013-12\\bok%3A978-3-662-34039-4.pdf,0,2000-01-01 01:00:00,2016-04-03 02:51:08,1138000/141c6fd9f2a901c3b16c4001babeba51-d.jpg,,
21252958,Grundlagen des Aufzugsbaues: Nachtrag und Anhang: Änderungen der „Technischen Grundsätze für den Bau von Aufzügen“ seit 1926,,,,"Dr. M. Paetzold, Dipl.-Ing. Fritz Köhler (auth.)",1936,1,Springer-Verlag Berlin Heidelberg,,44,0,German,,,,"978-3-662-40727-1,978-3-662-41209-1",,,,,,,10.1007/978-3-662-41209-1,,,,0,,,,,,,1,4251124,pdf,c32406c67db4ed14d81e32a565237263,,,D:\\HDD4\\!genesis\\SPR_NEW_2013-12\\bok%3A978-3-662-41209-1.pdf,0,2000-01-01 01:00:00,2016-04-03 02:51:08,1140000/c32406c67db4ed14d81e32a565237263-d.jpg,,
21252959,Schiedsverfahren,,,,(auth.),1942,1,Springer-Verlag Berlin Heidelberg,,517,0,German,,,,"978-3-662-37378-1,978-3-662-38124-3",,,,,,,10.1007/978-3-662-38124-3,,,,0,,,,,,,1,28796563,pdf,7981fc36877733c7c400645409303e73,,,D:\\HDD4\\!genesis\\SPR_NEW_2013-12\\bok%3A978-3-662-38124-3.pdf,0,2000-01-01 01:00:00,2016-04-03 02:51:08,1139000/7981fc36877733c7c400645409303e73-d.jpg,,
21252960,Nebeneinflüsse bei der Berechnung von Hängebrücken nach der Theorie II. Ordnung. Modellversuche. Allegemeine Grundlagen und Anwendung,,Forschungshefte aus dem Gebiete des Stahlbaues 5,,"o. Prof. Dr.-Ing. K. Klöppel, Dr.-Ing K. H. Lie (auth.)",1942,1,Springer-Verlag Berlin Heidelberg,,63,0,German,,,,"978-3-662-34245-9,978-3-662-34516-0",,,,,,,10.1007/978-3-662-34516-0,,,,0,,,,,,,1,4363180,pdf,9031dc53791057b6d7d1297a9adae66d,,,D:\\HDD4\\!genesis\\SPR_NEW_2013-12\\bok%3A978-3-662-34516-0.pdf,0,2000-01-01 01:00:00,2016-04-03 02:51:08,1138000/9031dc53791057b6d7d1297a9adae66d-d.jpg,,
21252961,Analyse der Metalle: Schiedsverfahren,,,,(auth.),1942,1,Springer-Verlag Berlin Heidelberg,,517,0,German,,,,"978-3-662-35869-6,978-3-662-36699-8",,,,,,,10.1007/978-3-662-36699-8,,,,0,,,,,,,1,22624862,pdf,678018fe091129e6cfc2c181e3296cc5,,,D:\\HDD4\\!genesis\\SPR_NEW_2013-12\\bok%3A978-3-662-36699-8.pdf,0,2000-01-01 01:00:00,2016-04-03 02:51:08,1138000/678018fe091129e6cfc2c181e3296cc5-d.jpg,,
21252962,Jahrbuch der AEG-Forschung: Neunter Band,,,,"A. Recknagel (auth.), W. Petersen, C. Ramsauer, H. Backe (eds.)",1942,1,Springer-Verlag Berlin Heidelberg,,63,0,German,,,,"978-3-662-26976-3,978-3-662-28454-4",,,,,,,10.1007/978-3-662-28454-4,,,,0,,,,,,,1,5389424,pdf,12ec1f8ea0ba67f47820042eae868594,,,D:\\HDD4\\!genesis\\SPR_NEW_2013-12\\bok%3A978-3-662-28454-4.pdf,0,2000-01-01 01:00:00,2016-04-03 02:51:08,1137000/12ec1f8ea0ba67f47820042eae868594-d.jpg,,
21252963,"Rechnen an spanabhebenden Werkzeugmaschinen: Ein Lehr- und Handbuch für Betriebsingenieure, Betriebsleiter Werkmeister und vorwärtsstrebende Facharbeiter der metallverarbeitenden Industrie",,,,Franz Riegel (auth.),1942,2,Springer-Verlag Berlin Heidelberg,,177,0,German,,,,"978-3-662-35527-5,978-3-662-36355-3",,,,,,,10.1007/978-3-662-36355-3,,,,0,,,,,,,1,13546177,pdf,fa2522eb1f4bf8eeabc2feefe832928c,,,D:\\HDD4\\!genesis\\SPR_NEW_2013-12\\bok%3A978-3-662-36355-3.pdf,0,2000-01-01 01:00:00,2016-04-03 02:51:08,1138000/fa2522eb1f4bf8eeabc2feefe832928c-d.jpg,,
21252964,Der Vorrichtungsbau,,Werkstattbücher,,Fritz Klautke (auth.),1942,4,Springer-Verlag Berlin Heidelberg,,67,0,German,,,,"978-3-662-37363-7,978-3-662-38109-0",,,,,,,10.1007/978-3-662-38109-0,,,,0,,,,,,,1,5387080,pdf,214e15d6cc3b5005ecca8bb4418c9db6,,,D:\\HDD4\\!genesis\\SPR_NEW_2013-12\\bok%3A978-3-662-38109-0.pdf,0,2000-01-01 01:00:00,2016-04-03 02:51:08,1139000/214e15d6cc3b5005ecca8bb4418c9db6-d.jpg,,
21252965,"Einführung in die Mechanik, Akustik und Wärmelehre",,,,Robert Wichard Pohl (auth.),1942,5,Springer-Verlag Berlin Heidelberg,,340,0,German,,,,"978-3-662-35964-8,978-3-662-36794-0",,,,,,,10.1007/978-3-662-36794-0,,,,0,,,,,,,1,17791572,pdf,1617ee132544dd1228d406d549c1a7ad,,,D:\\HDD4\\!genesis\\SPR_NEW_2013-12\\bok%3A978-3-662-36794-0.pdf,0,2000-01-01 01:00:00,2016-04-03 02:51:08,1139000/1617ee132544dd1228d406d549c1a7ad-d.jpg,,
21252966,Ingenieure: Gedanken über Technik und Ingenieure,,,,Friedrich Münzinger (auth.),1942,2,Springer-Verlag Berlin Heidelberg,,204,0,German,,,,"978-3-662-35740-8,978-3-662-36570-0",,,,,,,10.1007/978-3-662-36570-0,,,,0,,,,,,,1,7925082,pdf,f13ae62d05813c452eb968ab491cd136,,,D:\\HDD4\\!genesis\\SPR_NEW_2013-12\\bok%3A978-3-662-36570-0.pdf,0,2000-01-01 01:00:00,2016-04-03 02:51:08,1138000/f13ae62d05813c452eb968ab491cd136-d.jpg,,
21252967,"Innenräumen: Anwendung, Konstruktion und Herstellung der Räumnadeln. Fehler beim Räumen",,"Werkstattbücher für Betriebsbeamte, Konstrukteure und Facharbeiter 26",,Leonhard Knoll VDI (auth.),1942,2,Springer-Verlag Berlin Heidelberg,,66,0,German,,,,"978-3-662-41967-0,978-3-662-42025-6",,,,,,,10.1007/978-3-662-42025-6,,,,0,,,,,,,1,5253748,pdf,c26e70fffdc4c68a8382532469fc89ac,,,D:\\HDD4\\!genesis\\SPR_NEW_2013-12\\bok%3A978-3-662-42025-6.pdf,0,2000-01-01 01:00:00,2016-04-03 02:51:08,1140000/c26e70fffdc4c68a8382532469fc89ac-d.jpg,,
21252968,Material- und Zeitaufwand bei Bauarbeiten: Hilfsbuch zur Ermittlung und Überprüfung der Kosten im Baugewerbe,,,,Dipl.-Ing. Arnold Ilkow (auth.),1942,5,Springer-Verlag Wien,,88,0,German,,,,"978-3-7091-2124-5,978-3-7091-2168-9",,,,,,,10.1007/978-3-7091-2168-9,,,,0,,,,,,,1,5137606,pdf,76f36f0d62a7c701c9813e655a6a5ea2,,,D:\\HDD4\\!genesis\\SPR_NEW_2013-12\\bok%3A978-3-7091-2168-9.pdf,0,2000-01-01 01:00:00,2016-04-03 02:51:08,1143000/76f36f0d62a7c701c9813e655a6a5ea2-d.jpg,,
21252969,"Der Dreher als Rechner: Wechselräder-, Kegel- und Arbeitszeitberechnungen in einfacher und anschaulicher Darstellung, zum Selbstunterricht und für die Praxis",,Werkstattbücher 63,,E. Busch (auth.),1942,3,Springer-Verlag Berlin Heidelberg,,67,0,German,,,,"978-3-662-42739-2,978-3-662-43016-3",,,,,,,10.1007/978-3-662-43016-3,,,,0,,,,,,,1,3847312,pdf,8b6e0270612511ae54cc1df9ff00200f,,,D:\\HDD4\\!genesis\\SPR_NEW_2013-12\\bok%3A978-3-662-43016-3.pdf,0,2000-01-01 01:00:00,2016-04-03 02:51:08,1140000/8b6e0270612511ae54cc1df9ff00200f-d.jpg,,
21252970,Elektrische Schweißtechnik,,,,"Prof. Dr.-Ing. Paul Schimpke, Ober-Ing. Hans A. Horn (auth.)",1943,3,Springer-Verlag Berlin Heidelberg,,324,0,German,,,,"978-3-662-37628-7,978-3-662-38415-2",,,,,,,10.1007/978-3-662-38415-2,,,,0,,,,,,,1,22061930,pdf,6bc71e17be9135125799506616464c50,,,D:\\HDD4\\!genesis\\SPR_NEW_2013-12\\bok%3A978-3-662-38415-2.pdf,0,2000-01-01 01:00:00,2016-04-03 02:51:08,1139000/6bc71e17be9135125799506616464c50-d.jpg,,
21252971,Die Pumpen: Ein Leitfaden für Ingenieurschulen und zum Selbstunterricht,,,,Eugen Fuchslocher (auth.),1943,6,Springer-Verlag Berlin Heidelberg,,144,0,German,,,,"978-3-662-36031-6,978-3-662-36861-9",,,,,,,10.1007/978-3-662-36861-9,,,,0,,,,,,,1,8734525,pdf,1f49693f542ff508dcddb1c5a6d65008,,,D:\\HDD4\\!genesis\\SPR_NEW_2013-12\\bok%3A978-3-662-36861-9.pdf,0,2000-01-01 01:00:00,2016-04-03 02:51:08,1139000/1f49693f542ff508dcddb1c5a6d65008-d.jpg,,
21252972,Stufengetriebe an Werkzeugmaschinen mit kreisender Hauptbewegung,,Werkstattbücher 55,,Dipl.-Ing. Hans Rögnitz (auth.),1944,2,Springer-Verlag Berlin Heidelberg,,66,0,German,,,,"978-3-662-41737-9,978-3-662-41878-9",,,,,,,10.1007/978-3-662-41878-9,,,,0,,,,,,,1,5603531,pdf,e8463a7d2b44498d25d15d07e3c71bdc,,,D:\\HDD4\\!genesis\\SPR_NEW_2013-12\\bok%3A978-3-662-41878-9.pdf,0,2000-01-01 01:00:00,2016-04-03 02:51:08,1140000/e8463a7d2b44498d25d15d07e3c71bdc-d.jpg,,
21252973,Das Löten,,Werkstattbücher 28,,Dr. Walther Burstyn (auth.),1944,3,Springer-Verlag Berlin Heidelberg,,52,0,German,,,,"978-3-662-41696-9,978-3-662-41833-8",,,,,,,10.1007/978-3-662-41833-8,,,,0,,,,,,,1,3340119,pdf,3b4dd134c866e8581a22aa66cc3ccc3b,,,D:\\HDD4\\!genesis\\SPR_NEW_2013-12\\bok%3A978-3-662-41833-8.pdf,0,2000-01-01 01:00:00,2016-04-03 02:51:08,1140000/3b4dd134c866e8581a22aa66cc3ccc3b-d.jpg,,
21252974,Gebirgsdruck und Tunnelbau,,,,Ladislaus von Rabcewicz (auth.),1944,1,Springer-Verlag Wien,,92,0,German,,,,"978-3-7091-2325-6,978-3-7091-2332-4",,,,,,,10.1007/978-3-7091-2332-4,,,,0,,,,,,,1,4314133,pdf,46c4b9bed42589e3420dd3c35028d6e7,,,D:\\HDD4\\!genesis\\SPR_NEW_2013-12\\bok%3A978-3-7091-2332-4.pdf,0,2000-01-01 01:00:00,2016-04-03 02:51:08,1143000/46c4b9bed42589e3420dd3c35028d6e7-d.jpg,,
21252975,Klingelnberg Technisches Hilfsbuch,,,,"Baurat Dipl.-Ing. Ernst Preger (auth.), Baurat Dipl.-Ing. Ernst Preger, Dipl.-Ing. Rudolf Reindl (eds.)",1944,12,Springer-Verlag Berlin Heidelberg,,771,0,German,,,,"978-3-662-37209-8,978-3-662-37932-5",,,,,,,10.1007/978-3-662-37932-5,,,,0,,,,,,,1,45974566,pdf,282dedc5fd04505cc7a8e0a7301f5669,,,D:\\HDD4\\!genesis\\SPR_NEW_2013-12\\bok%3A978-3-662-37932-5.pdf,0,2000-01-01 01:00:00,2016-04-03 02:51:08,1139000/282dedc5fd04505cc7a8e0a7301f5669-d.jpg,,
21252976,Lehrbuch der Technischen Mechanik starrer Systeme: Zum Vorlesungsgebrauch und zum Selbststudium,,,,Dr. Karl Wolf (auth.),1947,3,Springer-Verlag Wien,,380,0,German,,,,"978-3-7091-3930-1,978-3-7091-3929-5",,,,,,,10.1007/978-3-7091-3929-5,,,,0,,,,,,,1,26541082,pdf,f0b29909726273178c15b3e52f64f224,,,D:\\HDD4\\!genesis\\SPR_NEW_2013-12\\bok%3A978-3-7091-3929-5.pdf,0,2000-01-01 01:00:00,2016-04-03 02:51:08,1143000/f0b29909726273178c15b3e52f64f224-d.jpg,,
21252977,Gasturbinenkraftwerke: Ihre Aussichten für die Elektrizitätsversorgung,,,,Dozent Dr. techn. Ludwig Musil (auth.),1947,1,Springer-Verlag Wien,,115,0,German,,,,"978-3-211-80033-1,978-3-7091-2405-5",,,,,,,10.1007/978-3-7091-2405-5,,,,0,,,,,,,1,14971978,pdf,e29ff88954f9c01ad41ddf6633765288,,,D:\\HDD4\\!genesis\\SPR_NEW_2013-12\\bok%3A978-3-7091-2405-5.pdf,0,2000-01-01 01:00:00,2016-04-03 02:51:08,1143000/e29ff88954f9c01ad41ddf6633765288-d.jpg,,
21252978,Die Dynamik der Verbrennungskraftmaschine,,"Die Verbrennungskraftmaschine 8, 2",,Dr.-Ing. Hans Schrön (auth.),1947,2,Springer-Verlag Berlin Heidelberg,,"VIII, 202 S.",0,German,,,,"978-3-662-27573-3,978-3-662-29060-6",,,,,,,10.1007/978-3-662-29060-6,,,,0,,,,,,,1,26621439,pdf,e36afff7e1b5994394387878bfa8d923,,,D:\\HDD4\\!genesis\\SPR_NEW_2013-12\\bok%3A978-3-662-29060-6.pdf,0,2000-01-01 01:00:00,2016-04-03 02:51:08,1137000/e36afff7e1b5994394387878bfa8d923-d.jpg,,
21252979,Neue Verfahren in der Technik der chemischen Veredlung der Textilfasern: Hilfsmittel in der Textilindustrie,,,,Dr. Louis Diserens (auth.),1948,1,Springer Basel,,738,0,German,,,,"978-3-0348-4060-6,978-3-0348-4134-4",,,,,,,10.1007/978-3-0348-4134-4,,,,0,,,,,,,1,22130710,pdf,c3612c8af564f40e9a467cb4b9c462c5,,,D:\\HDD4\\!genesis\\SPR_NEW_2013-12\\bok%3A978-3-0348-4134-4.pdf,0,2000-01-01 01:00:00,2016-04-03 02:51:08,1130000/c3612c8af564f40e9a467cb4b9c462c5-d.jpg,,
21252980,Ortsfeste und Schiffsdieselmotoren,,Die Verbrennungskraftmaschine 12,,Dipl.-Ing. F. Mayr (auth.),1948,2,Springer-Verlag Berlin Heidelberg,,338,0,German,,,,"978-3-662-30646-8,978-3-662-30715-1",,,,,,,10.1007/978-3-662-30715-1,,,,0,,,,,,,1,37308333,pdf,c2407bf68193377cb3ddc887adcb7abb,,,D:\\HDD4\\!genesis\\SPR_NEW_2013-12\\bok%3A978-3-662-30715-1.pdf,0,2000-01-01 01:00:00,2016-04-03 02:51:08,1137000/c2407bf68193377cb3ddc887adcb7abb-d.jpg,,
21252981,Blätter für Technikgeschichte,,Forschungsinstitut für Technikgeschichte in Wien 10,,"Oberingenieur Kurt von Lössl (auth.), Ministerialrat Dipl-Ing. V. Schütƶenhofer (eds.)",1948,1,Springer-Verlag Wien,,98,0,German,,,,"978-3-211-80044-7,978-3-7091-2312-6",,,,,,,10.1007/978-3-7091-2312-6,,,,0,,,,,,,1,7269688,pdf,cb42288b4b9ca982640c2636a1dfc488,,,D:\\HDD4\\!genesis\\SPR_NEW_2013-12\\bok%3A978-3-7091-2312-6.pdf,0,2000-01-01 01:00:00,2016-04-03 02:51:08,1143000/cb42288b4b9ca982640c2636a1dfc488-d.jpg,,
21252982,H. Rietschels Lehrbuch der Heiz- und Lüftungstechnik,,,,"Prof. Dr.-Ing. Heinrich Gröber, Dr. habil. F. Bradtke (auth.)",1948,12,Springer-Verlag Berlin Heidelberg,,410,0,German,,,,"978-3-662-23391-7,978-3-662-25438-7",,,,,,,10.1007/978-3-662-25438-7,,,,0,,,,,,,1,30483383,pdf,0e9f429440e6e4be49aed2fe80af27b4,,,D:\\HDD4\\!genesis\\SPR_NEW_2013-12\\bok%3A978-3-662-25438-7.pdf,0,2000-01-01 01:00:00,2016-04-03 02:51:08,1136000/0e9f429440e6e4be49aed2fe80af27b4-d.jpg,,
21252983,Stanztechnik: Vierter Teil: Formstanzen,,Werkstattbücher,,Dr.-Ing. Walter Sellin (auth.),1949,2,Springer-Verlag Berlin Heidelberg,,63,0,German,,,,"978-3-662-27245-9,978-3-662-28731-6",,,,,,,10.1007/978-3-662-28731-6,,,,0,,,,,,,1,5389437,pdf,691d732c9fd431ed825779fc8a20a819,,,D:\\HDD4\\!genesis\\SPR_NEW_2013-12\\bok%3A978-3-662-28731-6.pdf,0,2000-01-01 01:00:00,2016-04-03 02:51:08,1137000/691d732c9fd431ed825779fc8a20a819-d.jpg,,
21252984,Technisches Rechnen: Zweiter Teil: Zeichnerische Darstellung als Rechenhilfsmittel (Graphisches Rechnen) mit Beispielen aus der Technik und ihren Hilfswissenschaften,,Werkstattbücher 90,,Dr. phil. Vollrat Happach (auth.),1949,3,Springer-Verlag Berlin Heidelberg,,67,0,German,,,,"978-3-540-01436-2,978-3-642-88369-9",,,,,,,10.1007/978-3-642-88369-9,,,,0,,,,,,,1,4168045,pdf,aed9801319244ecdd680d632b2b3b8a1,,,D:\\HDD4\\!genesis\\SPR_NEW_2013-12\\bok%3A978-3-642-88369-9.pdf,0,2000-01-01 01:00:00,2016-04-03 02:51:08,1135000/aed9801319244ecdd680d632b2b3b8a1-d.jpg,,
21252985,"Gewässerkundliche Grundlagen der Anlagen und Projekte der Vorarlberger Illwerke Aktiengesellschaft, Bregenz",,Schriftenreihe des Österreichischen Wasserwirtschaftsverbandes H. 17,,Dipl.-Ing. Dr. techn. Alois Kieser (auth.),1949,1,Springer-Verlag Berlin Heidelberg,,40,0,German,,,,"978-3-662-40523-9,978-3-662-41000-4",,,,,,,10.1007/978-3-662-41000-4,,,,0,,,,,,,1,1963250,pdf,68d84057ca37b6de9f6e3f371801bcf7,,,D:\\HDD4\\!genesis\\SPR_NEW_2013-12\\bok%3A978-3-662-41000-4.pdf,0,2000-01-01 01:00:00,2016-04-03 02:51:08,1140000/68d84057ca37b6de9f6e3f371801bcf7-d.jpg,,
21252986,Die Verwendung der Kunststoffe in der Textilveredlung,,,,Dr. Franz Weiss (auth.),1949,1,Springer-Verlag Wien,,196,0,German,,,,"978-3-211-80125-3,978-3-7091-2408-6",,,,,,,10.1007/978-3-7091-2408-6,,,,0,,,,,,,1,11316387,pdf,f7750a1c29065d2ed32315d06a0712e0,,,D:\\HDD4\\!genesis\\SPR_NEW_2013-12\\bok%3A978-3-7091-2408-6.pdf,0,2000-01-01 01:00:00,2016-04-03 02:51:08,1143000/f7750a1c29065d2ed32315d06a0712e0-d.jpg,,
21252987,Chemie und chemische Technologie,,,,Dr. Techn. Dipl.-Ing. Willi Machu (auth.),1949,1,Springer-Verlag Wien,,777,0,German,,,,"978-3-7091-2396-6,978-3-7091-2395-9",,,,,,,10.1007/978-3-7091-2395-9,,,,0,,,,,,,1,36734580,pdf,bd9a157812908b9c3fd79f326b8ff9fa,,,D:\\HDD4\\!genesis\\SPR_NEW_2013-12\\bok%3A978-3-7091-2395-9.pdf,0,2000-01-01 01:00:00,2016-04-03 02:51:08,1143000/bd9a157812908b9c3fd79f326b8ff9fa-d.jpg,,
21252988,Dampfkraft: Berechnung und Verhalten von Wasserrohrkesseln Erzeugung von Kraft und Wärme. Ein Handbuch für den Praktischen Gebrauch,,,,Friedrich Münzinger (auth.),1949,3,Springer-Verlag Berlin Heidelberg,,"XII, 551 S.",0,German,,,,"978-3-642-53057-9,978-3-642-53056-2",,,,,,,10.1007/978-3-642-53056-2,,,,0,,,,,,,1,54114411,pdf,73b61d64f249f1e97509b9de0c5ffa7a,,,D:\\HDD4\\!genesis\\SPR_NEW_2013-12\\bok%3A978-3-642-53056-2.pdf,0,2000-01-01 01:00:00,2016-04-03 02:51:08,1135000/73b61d64f249f1e97509b9de0c5ffa7a-d.jpg,,
21252989,Praktische Energiewirtschaftslehre,,,,Dr.-Ing. Ludwig Musil (auth.),1949,1,Springer-Verlag Wien,,286,0,German,,,,"978-3-211-80113-0,978-3-7091-2417-8",,,,,,,10.1007/978-3-7091-2417-8,,,,0,,,,,,,1,26192056,pdf,d8dc8fc7d465b65d551a3754aaad8698,,,D:\\HDD4\\!genesis\\SPR_NEW_2013-12\\bok%3A978-3-7091-2417-8.pdf,0,2000-01-01 01:00:00,2016-04-03 02:51:08,1143000/d8dc8fc7d465b65d551a3754aaad8698-d.jpg,,
21252990,Amerikanischer Talsperrenbau,,Schriftenreihe des Österreichischen Wasserwirtschaftsverbandes 24,,Dipl.-Ing. Dr. Josef Fritsch (auth.),1952,1,Springer-Verlag Wien,,56,0,German,,,,"978-3-211-80290-8,978-3-7091-3991-2",,,,,,,10.1007/978-3-7091-3991-2,,,,0,,,,,,,1,3119140,pdf,316a2e1e8b6e32b19f2b92b683677c8d,,,D:\\HDD4\\!genesis\\SPR_NEW_2013-12\\bok%3A978-3-7091-3991-2.pdf,0,2000-01-01 01:00:00,2016-04-03 02:51:08,1143000/316a2e1e8b6e32b19f2b92b683677c8d-d.jpg,,
21252991,Meßtechnik für Funkingenieure,,,,Prof. Dipl.-Ing. Dr. techn. Friedrich Benz (auth.),1952,1,Springer-Verlag Wien,,533,0,German,,,,"978-3-7091-2414-7,978-3-7091-2413-0",,,,,,,10.1007/978-3-7091-2413-0,,,,0,,,,,,,1,23851570,pdf,89b85f9d92d6a74c072890b082d66e69,,,D:\\HDD4\\!genesis\\SPR_NEW_2013-12\\bok%3A978-3-7091-2413-0.pdf,0,2000-01-01 01:00:00,2016-04-03 02:51:08,1143000/89b85f9d92d6a74c072890b082d66e69-d.jpg,,
21252992,Geologie des Neuen Semmeringtunnel,,Österr. Akademie der Wissenschaften 109 / 2,,Walter J. Schmidt (auth.),1952,1,Springer-Verlag Wien,,85 S.,0,German,,,,"978-3-211-86122-6,978-3-7091-5509-7",,,,,,,10.1007/978-3-7091-5509-7,,,,0,,,,,,,1,4975426,pdf,29b7f43de32f0c56f01b3d00f3e35771,,,D:\\HDD4\\!genesis\\SPR_NEW_2013-12\\bok%3A978-3-7091-5509-7.pdf,0,2000-01-01 01:00:00,2016-04-03 02:51:08,1143000/29b7f43de32f0c56f01b3d00f3e35771-d.jpg,,
21252993,Untersuchungen über die zweckmäßige Wicklungsart von Leinengarnkreuzspulen unter Berücksichtigung der Anwendung hoher Geschwindigkeiten des Garnes: Vorversuche für Zetteln und Schären von Leinengarnen auf Hochleistungsmaschinen,,Forschungsberichte des Wirtschafts- und Verkehrsministeriums Nordrhein-Westfalen,,(auth.),1952,1,VS Verlag für Sozialwissenschaften,,48 S.,0,German,,,,"978-3-663-12799-4,978-3-663-14282-9",,,,,,,10.1007/978-3-663-14282-9,,,,0,,,,,,,1,4993029,pdf,a88f9bc6d33a7692f98819bcdd5fea36,,,D:\\HDD4\\!genesis\\SPR_NEW_2013-12\\bok%3A978-3-663-14282-9.pdf,0,2000-01-01 01:00:00,2016-04-03 02:51:08,1142000/a88f9bc6d33a7692f98819bcdd5fea36-d.jpg,,
21252994,Das Naßspinnen von Bastfasergarnen mit chemischen Zusätzen zum Spinnbad,,Forschungsberichte des Wirtschafts- und Verkehrsministeriums Nordrhein-Westfalen,,Dipl.-Ing. W. Rohs (auth.),1952,1,VS Verlag für Sozialwissenschaften,,52 S.,0,German,,,,"978-3-663-12835-9,978-3-663-14480-9",,,,,,,10.1007/978-3-663-14480-9,,,,0,,,,,,,1,2561745,pdf,8f9bd1214159448e08e66bd3507d82d5,,,D:\\HDD4\\!genesis\\SPR_NEW_2013-12\\bok%3A978-3-663-14480-9.pdf,0,2000-01-01 01:00:00,2016-04-03 02:51:08,1142000/8f9bd1214159448e08e66bd3507d82d5-d.jpg,,
21252995,Elektrochemie: Theoretische Grundlagen und Anwendungen,,,,Dr. Giulio Milaƶƶo (auth.),1952,1,Springer-Verlag Wien,,433,0,German,,,,"978-3-7091-7575-0,978-3-7091-7574-3",,,,,,,10.1007/978-3-7091-7574-3,,,,0,,,,,,,1,14993707,pdf,0a8729891636bc92435d401ae7d788e6,,,D:\\HDD4\\!genesis\\SPR_NEW_2013-12\\bok%3A978-3-7091-7574-3.pdf,0,2000-01-01 01:00:00,2016-04-03 02:51:08,1143000/0a8729891636bc92435d401ae7d788e6-d.jpg,,
21252996,"Hilfsbuch für raum- und außenklimatische Messungen: Für hygienische, gesundheitstechnische und arbeitsmedizinische Zwecke",,,,"Franz Bradtke, Walther Liese (auth.)",1952,1,Springer-Verlag Berlin Heidelberg,,115,0,German,,,,"978-3-662-37345-3,978-3-662-38086-4",,,,,,,10.1007/978-3-662-38086-4,,,,0,,,,,,,1,4514779,pdf,db4fbfcb830eec34f222dac78f2451ed,,,D:\\HDD4\\!genesis\\SPR_NEW_2013-12\\bok%3A978-3-662-38086-4.pdf,0,2000-01-01 01:00:00,2016-04-03 02:51:08,1139000/db4fbfcb830eec34f222dac78f2451ed-d.jpg,,
21252997,Handformerei: Ausgewählte Beispiele aus der Praxis für die Praxis,,Werkstattbücher 70,,Fr. Naumann (auth.),1950,2,Springer-Verlag Berlin Heidelberg,,59,0,German,,,,"978-3-540-01516-1,978-3-642-86984-6",,,,,,,10.1007/978-3-642-86984-6,,,,0,,,,,,,1,3513267,pdf,c7b3859d9ea4b84c85f0d78de309c64e,,,D:\\HDD4\\!genesis\\SPR_NEW_2013-12\\bok%3A978-3-642-86984-6.pdf,0,2000-01-01 01:00:00,2016-04-03 02:51:08,1135000/c7b3859d9ea4b84c85f0d78de309c64e-d.jpg,,
21252998,"Maschinenelemente Entwerfen, Berechnen und Gestalten im Maschinenbau: Grundlagen, Verbindungen, Lager Wellen und Zubehör",,,,Dr.-Ing. G. Niemann (auth.),1950,6,Springer-Verlag Berlin Heidelberg,,318,0,German,,,,"978-3-662-37582-2,978-3-662-38362-9",,,,,,,10.1007/978-3-662-38362-9,,,,0,,,,,,,1,26433746,pdf,6258c4663cd129b568201caf02d44f9c,,,D:\\HDD4\\!genesis\\SPR_NEW_2013-12\\bok%3A978-3-662-38362-9.pdf,0,2000-01-01 01:00:00,2016-04-03 02:51:08,1139000/6258c4663cd129b568201caf02d44f9c-d.jpg,,
21252999,"Maschinenelemente: Entwerfen, Berechnen und Gestalten im Maschinenbau",,,,Dr.-Ing. G. Niemann (auth.),1950,1,Springer-Verlag Berlin Heidelberg,,318,0,German,,,,"978-3-662-37437-5,978-3-662-38194-6",,,,,,,10.1007/978-3-662-38194-6,,,,0,,,,,,,1,22382986,pdf,d52e65d0b73cf094ef18ade2c1a4cda0,,,D:\\HDD4\\!genesis\\SPR_NEW_2013-12\\bok%3A978-3-662-38194-6.pdf,0,2000-01-01 01:00:00,2016-04-03 02:51:08,1139000/d52e65d0b73cf094ef18ade2c1a4cda0-d.jpg,,
21253000,Handbuch der Holzkonservierung,,,,"Mahlke-Troschel (auth.), Prof. Dr. Johannes Liese (eds.)",1950,3,Springer-Verlag Berlin Heidelberg,,583,0,German,,,,"978-3-662-21988-1,978-3-662-21987-4",,,,,,,10.1007/978-3-662-21987-4,,,,0,,,,,,,1,23795491,pdf,4982ccfe5e065d813d507423503de5b1,,,D:\\HDD4\\!genesis\\SPR_NEW_2013-12\\bok%3A978-3-662-21987-4.pdf,0,2000-01-01 01:00:00,2016-04-03 02:51:08,1136000/4982ccfe5e065d813d507423503de5b1-d.jpg,,
21253001,"Maschinenelemente: Entwerfen, Berechnen und Gestalten im Maschinenbau. Ein Lehr- und Arbeitsbuch. Erster Band: Grundlagen, Verbindungen, Lager Wellen und Zubehör",,,,Dr.-Ing. Gustav Niemann (auth.),1950,6,Springer-Verlag Berlin Heidelberg,,"VIII, 310 S.",0,German,,,,"978-3-662-26965-7,978-3-662-28442-1",,,,,,,10.1007/978-3-662-28442-1,,,,0,,,,,,,1,27009994,pdf,9540611c58a1ffdce91048b92c076670,,,D:\\HDD4\\!genesis\\SPR_NEW_2013-12\\bok%3A978-3-662-28442-1.pdf,0,2000-01-01 01:00:00,2016-04-03 02:51:08,1137000/9540611c58a1ffdce91048b92c076670-d.jpg,,
21253002,Über den Einfluß hochfester Stähle auf Gewichtsersparnis und Bauart im Stahlbrückenbau,,Forschungshefte aus dem Gebiete des Stahlbaues 7,,Dr.-Ing. Otfried Erdmann (auth.),1950,1,Springer-Verlag Berlin Heidelberg,,88,0,German,,,,"978-3-540-01458-4,978-3-642-88542-6",,,,,,,10.1007/978-3-642-88542-6,,,,0,,,,,,,1,5322233,pdf,fa1d3b9c9f53f212536449f91fbada46,,,D:\\HDD4\\!genesis\\SPR_NEW_2013-12\\bok%3A978-3-642-88542-6.pdf,0,2000-01-01 01:00:00,2016-04-03 02:51:08,1135000/fa1d3b9c9f53f212536449f91fbada46-d.jpg,,
21253003,Kurze Ƶusammenfassung der Elektrizitätslehre: Eine Einführung des rationalisierten Giorgischen Maßsystems,,,,Dipl.-Ing. P. Cornelius (auth.),1951,1,Springer-Verlag Berlin Heidelberg,,"VIII, 92 S. 3 Abb.",0,German,,,,"978-3-662-23410-5,978-3-662-25462-2",,,,,,,10.1007/978-3-662-25462-2,,,,0,,,,,,,1,6775414,pdf,69e3bd27a3c101259e52b3973a474a10,,,D:\\HDD4\\!genesis\\SPR_NEW_2013-12\\bok%3A978-3-662-25462-2.pdf,0,2000-01-01 01:00:00,2016-04-03 02:51:08,1136000/69e3bd27a3c101259e52b3973a474a10-d.jpg,,
21253004,Die neuzeitlichen Textilveredlungs-Verfahren der Kunstfasern: Die Patentliteratur und das Schrifttum von 1939–1949/50,,,,"Dr.-Ing. F. Weber, Dipl.-Ing. A. Martina (auth.)",1951,1,Springer-Verlag Wien,,807,0,German,,,,"978-3-211-80234-2,978-3-7091-2424-6",,,,,,,10.1007/978-3-7091-2424-6,,,,0,,,,,,,1,46504622,pdf,877780f9c5449ce06c7dbf733bda05b4,,,D:\\HDD4\\!genesis\\SPR_NEW_2013-12\\bok%3A978-3-7091-2424-6.pdf,0,2000-01-01 01:00:00,2016-04-03 02:51:08,1143000/877780f9c5449ce06c7dbf733bda05b4-d.jpg,,
21253005,Der elektrische Antrieb von Werkzeugmaschinen,,Werkstattbücher 54,,Dipl.-Ing. H. Birett (auth.),1951,2,Springer-Verlag Berlin Heidelberg,,64,0,German,,,,"978-3-540-01591-8,978-3-642-86125-3",,,,,,,10.1007/978-3-642-86125-3,,,,0,,,,,,,1,3983712,pdf,04df42463bf7439fd2cbfccb0aca433f,,,D:\\HDD4\\!genesis\\SPR_NEW_2013-12\\bok%3A978-3-642-86125-3.pdf,0,2000-01-01 01:00:00,2016-04-03 02:51:08,1135000/04df42463bf7439fd2cbfccb0aca433f-d.jpg,,
21253006,Vom älteren Flußbau in Österreich,,Schriftenreihe des Österreichischen Wasserwirtschaftsverbandes 20,,Dipl.-Ing. F. Baumann (auth.),1951,1,Springer-Verlag Wien,,51,0,German,,,,"978-3-211-80226-7,978-3-7091-2446-8",,,,,,,10.1007/978-3-7091-2446-8,,,,0,,,,,,,1,3619363,pdf,ce6036a77df4be3161f12138a0331570,,,D:\\HDD4\\!genesis\\SPR_NEW_2013-12\\bok%3A978-3-7091-2446-8.pdf,0,2000-01-01 01:00:00,2016-04-03 02:51:08,1143000/ce6036a77df4be3161f12138a0331570-d.jpg,,
21253007,"Vorlesungen über Baustatik: Statisch bestimmte Systeme — Spannungsberechnung, Elastische Formänderungen — Stabilitätsprobleme — Seile",,Lehr- und Handbücher der Ingenieurwissenschaften 1,,Dr. sc. techn. Fritz Stüssi (auth.),1953,2,Springer Basel,,368,0,German,,,,"978-3-0348-4031-6,978-3-0348-4102-3",,,,,,,10.1007/978-3-0348-4102-3,,,,0,,,,,,,1,12457833,pdf,8fcc043dd25f9f51e7808c182cd94a48,,,D:\\HDD4\\!genesis\\SPR_NEW_2013-12\\bok%3A978-3-0348-4102-3.pdf,0,2000-01-01 01:00:00,2016-04-03 02:51:08,1130000/8fcc043dd25f9f51e7808c182cd94a48-d.jpg,,
21253008,Blätter für Technikgeschichte,,Blätter für Technikgeschichte 15,,"Sektionschef i. R. Dipl.-Ing. Egbert Salcher (auth.), Dr. Phil. Josef Nagler (eds.)",1953,1,Springer-Verlag Wien,,121,0,German,,,,"978-3-211-80298-4,978-3-7091-2291-4",,,,,,,10.1007/978-3-7091-2291-4,,,,0,,,,,,,1,5777255,pdf,76208e8de2fb1186959cd792d5ec6918,,,D:\\HDD4\\!genesis\\SPR_NEW_2013-12\\bok%3A978-3-7091-2291-4.pdf,0,2000-01-01 01:00:00,2016-04-03 02:51:08,1143000/76208e8de2fb1186959cd792d5ec6918-d.jpg,,
21253009,Spannen im Maschinenbau: Verfahren und Werkzeuge zum Aufspannen der Werkstücke auf den Maschinen,,Werkstattbücher 51,,Dipl.-Ing. K. Deuring (auth.),1953,2,Springer-Verlag Berlin Heidelberg,,67,0,German,,,,"978-3-540-01760-8,978-3-642-88218-0",,,,,,,10.1007/978-3-642-88218-0,,,,0,,,,,,,1,5035908,pdf,39c3ba58acd18687ec0810adce11e1c1,,,D:\\HDD4\\!genesis\\SPR_NEW_2013-12\\bok%3A978-3-642-88218-0.pdf,0,2000-01-01 01:00:00,2016-04-03 02:51:08,1135000/39c3ba58acd18687ec0810adce11e1c1-d.jpg,,
21253010,Schnittechnik: Erster Teil Schnittechnik. Technologie des Schneidens Die Stanzerei,,Werkstattbücher,,Dipl.-Ing. Erich Krabbe VDI (auth.),1953,3,Springer-Verlag Berlin Heidelberg,,60,0,German,,,,"978-3-662-23094-7,978-3-662-25062-4",,,,,,,10.1007/978-3-662-25062-4,,,,0,,,,,,,1,4514683,pdf,d19a79ee9fc985a3c166a547b4b7a3fd,,,D:\\HDD4\\!genesis\\SPR_NEW_2013-12\\bok%3A978-3-662-25062-4.pdf,0,2000-01-01 01:00:00,2016-04-03 02:51:08,1136000/d19a79ee9fc985a3c166a547b4b7a3fd-d.jpg,,
21253011,Die Nibelungenbrücke in Worms am Rhein: Festschrift zur Einweihung und Verkehrsübergabe der neuen Strassenbrücke über den Rhein am 30. April 1953,,,,(auth.),1953,1,Springer-Verlag Berlin Heidelberg,,85,0,German,,,,"978-3-662-01473-8,978-3-662-01472-1",,,,,,,10.1007/978-3-662-01472-1,,,,0,,,,,,,1,4733068,pdf,d5e803df36f64fcc9553cbd60411bebb,,,D:\\HDD4\\!genesis\\SPR_NEW_2013-12\\bok%3A978-3-662-01472-1.pdf,0,2000-01-01 01:00:00,2016-04-03 02:51:08,1136000/d5e803df36f64fcc9553cbd60411bebb-d.jpg,,
21253012,Untersuchungen an prägegemusterten und vorgelochten Blechen: Aus den Arbeiten des Instituts für Werkzeugmaschinen an der Technischen Hochschule Hannover,,,,Gerhard Oehler (auth.),1953,1,VS Verlag für Sozialwissenschaften,,44,0,German,,,,"978-3-663-03293-9,978-3-663-04482-6",,,,,,,10.1007/978-3-663-04482-6,,,,0,,,,,,,1,2763660,pdf,bc45ff3117767892e0226b7d1060f5ba,,,D:\\HDD4\\!genesis\\SPR_NEW_2013-12\\bok%3A978-3-663-04482-6.pdf,0,2000-01-01 01:00:00,2016-04-03 02:51:08,1141000/bc45ff3117767892e0226b7d1060f5ba-d.jpg,,
21253013,Thermodynamische Grundlagen,,Handbuch der Kältetechnik 2,,"Dr.-Ing. Dr. phil. nat. h. c. Rudolf Plank (auth.), Dr.-Ing. Dr. phil. nat. h. c. Rudolf Plank (eds.)",1953,1,Springer-Verlag Berlin Heidelberg,,403,0,German,,,,"978-3-642-88487-0,978-3-642-88486-3",,,,,,,10.1007/978-3-642-88486-3,,,,0,,,,,,,1,19750434,pdf,b008e45171f562cd7a999c44abdaa3f1,,,D:\\HDD4\\!genesis\\SPR_NEW_2013-12\\bok%3A978-3-642-88486-3.pdf,0,2000-01-01 01:00:00,2016-04-03 02:51:08,1135000/b008e45171f562cd7a999c44abdaa3f1-d.jpg,,
21253014,Wicklungen Elektrischer Maschinen: Und Ihre Herstellung,,,,Dr.-Ing. Habil. F. Heiles (auth.),1953,2,Springer-Verlag Berlin Heidelberg,,281,0,German,,,,"978-3-662-13434-4,978-3-662-13433-7",,,,,,,10.1007/978-3-662-13433-7,,,,0,,,,,,,1,16159768,pdf,98f224cc5c585cda544005c3e8f8661e,,,D:\\HDD4\\!genesis\\SPR_NEW_2013-12\\bok%3A978-3-662-13433-7.pdf,0,2000-01-01 01:00:00,2016-04-03 02:51:08,1136000/98f224cc5c585cda544005c3e8f8661e-d.jpg,,
21253015,Forschungsarbeiten auf dem Gebiet der Veredlung von Aluminium-Oberflächen,,Forschungsberichte des Wirtschafts- und Verkehrsministeriums Nordrhein-Westfalen,,(auth.),1954,1,VS Verlag für Sozialwissenschaften,,45,0,German,,,,"978-3-663-03652-4,978-3-663-04841-1",,,,,,,10.1007/978-3-663-04841-1,,,,0,,,,,,,1,2988534,pdf,884351ace359d15103959e75f9a23967,,,D:\\HDD4\\!genesis\\SPR_NEW_2013-12\\bok%3A978-3-663-04841-1.pdf,0,2000-01-01 01:00:00,2016-04-03 02:51:08,1141000/884351ace359d15103959e75f9a23967-d.jpg,,
21253016,Die Praxis der Färberei: Erfahrungen Reƶepturen und Winke,,,,"Dr.-Ing. F. Weber, Dr. phil. F. Gasser (auth.)",1954,1,Springer-Verlag Wien,,868,0,German,,,,"978-3-7091-2385-0,978-3-7091-2384-3",,,,,,,10.1007/978-3-7091-2384-3,,,,0,,,,,,,1,39399013,pdf,190d942650aced55a7dbb4ad2fcc8ed0,,,D:\\HDD4\\!genesis\\SPR_NEW_2013-12\\bok%3A978-3-7091-2384-3.pdf,0,2000-01-01 01:00:00,2016-04-03 02:51:08,1143000/190d942650aced55a7dbb4ad2fcc8ed0-d.jpg,,
21253017,Verbindungselemente der Feinwerktechnik,,Konstruktionsbücher 14,,Obering. Hermann Pöschl (auth.),1954,1,Springer-Verlag Berlin Heidelberg,,116,0,German,,,,"978-3-540-01825-4,978-3-662-13365-1",,,,,,,10.1007/978-3-662-13365-1,,,,0,,,,,,,1,5539967,pdf,c1c7bb1897cf2ae1b3af828ffdc03544,,,D:\\HDD4\\!genesis\\SPR_NEW_2013-12\\bok%3A978-3-662-13365-1.pdf,0,2000-01-01 01:00:00,2016-04-03 02:51:08,1136000/c1c7bb1897cf2ae1b3af828ffdc03544-d.jpg,,
21253018,Zur genaueren Berechnung der Fahrbahn-Längsträger stählerner Eisenbahnbrücken,,Forschungshefte aus dem Gebiete des Stahlbaues 10,,Dr.-Ing. Camillo Popp (auth.),1954,1,Springer-Verlag Berlin Heidelberg,,74,0,German,,,,"978-3-540-01798-1,978-3-642-88744-4",,,,,,,10.1007/978-3-642-88744-4,,,,0,,,,,,,1,4676309,pdf,22d130572867eadc2492c14eed076f22,,,D:\\HDD4\\!genesis\\SPR_NEW_2013-12\\bok%3A978-3-642-88744-4.pdf,0,2000-01-01 01:00:00,2016-04-03 02:51:08,1135000/22d130572867eadc2492c14eed076f22-d.jpg,,
21253019,"Schneiden, Flachstanzen und zugehörige Werkzeuge und Maschinen",,,,Eugen Kaczmarek (auth.),1954,4,Springer-Verlag Berlin Heidelberg,,"VIII, 178 S.",0,German,,,,"978-3-642-52910-8,978-3-642-52909-2",,,,,,,10.1007/978-3-642-52909-2,,,,0,,,,,,,1,9510486,pdf,9fbeca3dd4c2c3d03ae4c1c3c57f1b34,,,D:\\HDD4\\!genesis\\SPR_NEW_2013-12\\bok%3A978-3-642-52909-2.pdf,0,2000-01-01 01:00:00,2016-04-03 02:51:08,1135000/9fbeca3dd4c2c3d03ae4c1c3c57f1b34-d.jpg,,
21253020,Das Verhalten von Silikasteinen im Siemens-Martin-Ofengewölbe,,Forschungsberichte des Wirtschafts- und Verkehrsministeriums Nordrhein-Westfalen,,(auth.),1954,1,VS Verlag für Sozialwissenschaften,,61,0,German,,,,"978-3-663-19989-2,978-3-663-20339-1",,,,,,,10.1007/978-3-663-20339-1,,,,0,,,,,,,1,3474559,pdf,6aea661dc47d459f3764c569e8ca5f0d,,,D:\\HDD4\\!genesis\\SPR_NEW_2013-12\\bok%3A978-3-663-20339-1.pdf,0,2000-01-01 01:00:00,2016-04-03 02:51:08,1143000/6aea661dc47d459f3764c569e8ca5f0d-d.jpg,,
21253021,Die Patentliteratur und das Schrifttum von 1950–1953,,,,"Dr.-Ing. F. Weber, Dr.-Ing. A. Martina (auth.)",1954,1,Springer-Verlag Berlin Heidelberg,,398,0,German,,,,"978-3-662-37176-3,978-3-662-37891-5",,,,,,,10.1007/978-3-662-37891-5,,,,0,,,,,,,1,22662577,pdf,4033443782135fe017893a0f2a6d9108,,,D:\\HDD4\\!genesis\\SPR_NEW_2013-12\\bok%3A978-3-662-37891-5.pdf,0,2000-01-01 01:00:00,2016-04-03 02:51:08,1139000/4033443782135fe017893a0f2a6d9108-d.jpg,,
21253022,Hohe Drehzahlen durch Schnellfrequenz-Antrieb,,Werkstattbücher 84,,"Fritz Beinert, Hans Birett (auth.)",1954,2,Springer-Verlag Berlin Heidelberg,,67,0,German,,,,"978-3-540-01860-5,978-3-642-87009-5",,,,,,,10.1007/978-3-642-87009-5,,,,0,,,,,,,1,4821701,pdf,aeffcf31cf4170f172a08c6ff5c68100,,,D:\\HDD4\\!genesis\\SPR_NEW_2013-12\\bok%3A978-3-642-87009-5.pdf,0,2000-01-01 01:00:00,2016-04-03 02:51:08,1135000/aeffcf31cf4170f172a08c6ff5c68100-d.jpg,,
21253023,Grundzüge der Zerspanungslehre: Theorie und Praxis der Zerspanung für Bau und Betrieb von Werkzeugmaschinen,,,,Dr.-Ing. habil. Max Kronenberg (auth.),1954,2,Springer-Verlag Berlin Heidelberg,,456,0,German,,,,"978-3-662-39088-7,978-3-662-40069-2",,,,,,,10.1007/978-3-662-40069-2,,,,0,,,,,,,1,19971383,pdf,0e500ea02a7ed66c6d1ea93de14372d6,,,D:\\HDD4\\!genesis\\SPR_NEW_2013-12\\bok%3A978-3-662-40069-2.pdf,0,2000-01-01 01:00:00,2016-04-03 02:51:08,1139000/0e500ea02a7ed66c6d1ea93de14372d6-d.jpg,,
21253024,"Untersuchungsarbeiten zur Verbesserung des Leinenwebstuhles III: aus dem Techn.-Wissenschaftl. Büro für die Bastfaserindustrie, Bielefeld",,Forschungsberichte des Wirtschafts- und Verkehrsministeriums Nordrhein-Westfalen,,"Dipl.-Ing. W. Rohs, Text.-Ing. H. Griese (auth.)",1955,1,VS Verlag für Sozialwissenschaften,,78,0,German,,,,"978-3-663-19919-9,978-3-663-20263-9",,,,,,,10.1007/978-3-663-20263-9,,,,0,,,,,,,1,4659366,pdf,a93275be6fabcc3c48890fcac5449339,,,D:\\HDD4\\!genesis\\SPR_NEW_2013-12\\bok%3A978-3-663-20263-9.pdf,0,2000-01-01 01:00:00,2016-04-03 02:51:08,1143000/a93275be6fabcc3c48890fcac5449339-d.jpg,,
21253025,Gestaltung von Fahrzeuggetrieben,,Konstruktionsbücher 15,,Dr.-Ing. Hans Reichenbächer (auth.),1955,1,Springer-Verlag Berlin Heidelberg,,163,0,German,,,,"978-3-642-99851-5,978-3-642-99850-8",,,,,,,10.1007/978-3-642-99850-8,,,,0,,,,,,,1,7345569,pdf,23314931c3fec8a0ab643c513a07198a,,,D:\\HDD4\\!genesis\\SPR_NEW_2013-12\\bok%3A978-3-642-99850-8.pdf,0,2000-01-01 01:00:00,2016-04-03 02:51:08,1136000/23314931c3fec8a0ab643c513a07198a-d.jpg,,
21253026,"Preisermittlung und Veranschlagen von Hoch-, Tief- und Stahlbetonbauten: Ein Hilfs- und Nachschlagebuch zum Veranschlagen von Erd-, Straßen-, Wasser-, Brücken-, Stahlbeton-, Maurer- und Zimmererarbeiten",,,,Dr.-Ing. Ludwig Baumeister (auth.),1955,11,Springer-Verlag Berlin Heidelberg,,551,0,German,,,,"978-3-642-52651-0,978-3-642-52650-3",,,,,,,10.1007/978-3-642-52650-3,,,,0,,,,,,,1,24209467,pdf,a2462a5fc8bdb090eb6ec2b081a8e61f,,,D:\\HDD4\\!genesis\\SPR_NEW_2013-12\\bok%3A978-3-642-52650-3.pdf,0,2000-01-01 01:00:00,2016-04-03 02:51:08,1135000/a2462a5fc8bdb090eb6ec2b081a8e61f-d.jpg,,
21253027,Stahlleichtbau von Maschinen,,Konstruktionsbücher 1,,"Dipl.-Ing. K. Bobek, Dr.-Ing. A. Heiß, Dr.-Ing. Fr. Schmidt (auth.)",1955,2,Springer-Verlag Berlin Heidelberg,,190,0,German,,,,"978-3-642-49083-5,978-3-642-94654-7",,,,,,,10.1007/978-3-642-94654-7,,,,0,,,,,,,1,11719783,pdf,68fb48c6e419322f60a5dde30ab88fff,,,D:\\HDD4\\!genesis\\SPR_NEW_2013-12\\bok%3A978-3-642-94654-7.pdf,0,2000-01-01 01:00:00,2016-04-03 02:51:08,1135000/68fb48c6e419322f60a5dde30ab88fff-d.jpg,,
21253028,Induktionshärten,,Werkstattbücher 116,,Dipl.-Ing. Erich Höhne (auth.),1955,1,Springer-Verlag Berlin Heidelberg,,72,0,German,,,,"978-3-540-01972-5,978-3-642-87060-6",,,,,,,10.1007/978-3-642-87060-6,,,,0,,,,,,,1,4346980,pdf,1b9000cb0cbd578b135a3170362c102b,,,D:\\HDD4\\!genesis\\SPR_NEW_2013-12\\bok%3A978-3-642-87060-6.pdf,0,2000-01-01 01:00:00,2016-04-03 02:51:08,1135000/1b9000cb0cbd578b135a3170362c102b-d.jpg,,
21253029,Knickung verwundener Stäbe unter Druck: Von der Eidgenössischen Technischen Hochschule in Zürich zur Erlangung der Würde eines Doktors der Mathematik genehmigte Promotionsarbeit,,,,Erich Hui (auth.),1955,1,Springer-Verlag Berlin Heidelberg,,39,0,German,,,,"978-3-662-23441-9,978-3-662-25495-0",,,,,,,10.1007/978-3-662-25495-0,,,,0,,,,,,,1,1945447,pdf,fdd5cfabb3721231a06eccca60df928c,,,D:\\HDD4\\!genesis\\SPR_NEW_2013-12\\bok%3A978-3-662-25495-0.pdf,0,2000-01-01 01:00:00,2016-04-03 02:51:08,1136000/fdd5cfabb3721231a06eccca60df928c-d.jpg,,
21253030,"Tiefziehtechnik: Formstanzen, Gummi-Pressen, Tiefziehen",,Werkstattbücher 25,,Dr.-Ing. Walter Sellin (auth.),1955,4,Springer-Verlag Berlin Heidelberg,,79,0,German,,,,"978-3-642-53177-4,978-3-642-53176-7",,,,,,,10.1007/978-3-642-53176-7,,,,0,,,,,,,1,6004251,pdf,98281c8a687fdc48cc0a407ba8563ee2,,,D:\\HDD4\\!genesis\\SPR_NEW_2013-12\\bok%3A978-3-642-53176-7.pdf,0,2000-01-01 01:00:00,2016-04-03 02:51:08,1135000/98281c8a687fdc48cc0a407ba8563ee2-d.jpg,,
21253031,Entwicklung und Ausnutzung neuerer mathematischer Maschinen. Rechenautomaten im Dienste der Technik,,Arbeitsgemeinschaft für Forschung des Landes Nordrhein-Westfalen 45,,"John von Neumann, Eduard Stiefel (auth.)",1955,1,VS Verlag für Sozialwissenschaften,,68,0,German,,,,"978-3-663-00492-9,978-3-663-02405-7",,,,,,,10.1007/978-3-663-02405-7,,,,0,,,,,,,1,3737065,pdf,fd436b6fa67ac842dc24e2f3caed06be,,,D:\\HDD4\\!genesis\\SPR_NEW_2013-12\\bok%3A978-3-663-02405-7.pdf,0,2000-01-01 01:00:00,2016-04-03 02:51:08,1140000/fd436b6fa67ac842dc24e2f3caed06be-d.jpg,,
21253032,Lehrbuch der Bergwerksmaschinen: Kraft- und Arbeitsmaschinen,,,,Dipl.-Ing. C. Hoffmann (auth.),1956,5,Springer-Verlag Berlin Heidelberg,,"XII, 487 S.",0,German,,,,"978-3-662-23396-2,978-3-662-25443-1",,,,,,,10.1007/978-3-662-25443-1,,,,0,,,,,,,1,32638403,pdf,295fcafe18fc35b9f5daea4d9321edf3,,,D:\\HDD4\\!genesis\\SPR_NEW_2013-12\\bok%3A978-3-662-25443-1.pdf,0,2000-01-01 01:00:00,2016-04-03 02:51:08,1136000/295fcafe18fc35b9f5daea4d9321edf3-d.jpg,,
21253033,Fernsehtechnik: Erster Teil: Grundlagen des Elektronischen Fernsehens,,Lehrbuch der Drahtlosen Nachrichtentechnik 1,,"Professor Dr. F. Schröter (auth.), Fritz Schröter, R. Theile, G. Wendt (eds.)",1956,1,Springer-Verlag Berlin Heidelberg,,"XV, 772 S.",0,German,,,,"978-3-662-23704-5,978-3-662-25793-7",,,,,,,10.1007/978-3-662-25793-7,,,,0,,,,,,,1,39592115,pdf,8698d6d8789ccc44796bd903766e0569,,,D:\\HDD4\\!genesis\\SPR_NEW_2013-12\\bok%3A978-3-662-25793-7.pdf,0,2000-01-01 01:00:00,2016-04-03 02:51:08,1137000/8698d6d8789ccc44796bd903766e0569-d.jpg,,
21253034,Die Kältemittel,,Handbuch der Kältetechnik 4,,"J. Kuprianoff, Rudolf Plank, H. Steinle (auth.), J. Kuprianoff, Rudolf Plank, H. Steinle (eds.)",1956,1,Springer-Verlag Berlin Heidelberg,,509,0,German,,,,"978-3-642-86287-8,978-3-642-86286-1",,,,,,,10.1007/978-3-642-86286-1,,,,0,,,,,,,1,23395792,pdf,f3e1d887bc4a39229afa7b00d1087d86,,,D:\\HDD4\\!genesis\\SPR_NEW_2013-12\\bok%3A978-3-642-86286-1.pdf,0,2000-01-01 01:00:00,2016-04-03 02:51:08,1135000/f3e1d887bc4a39229afa7b00d1087d86-d.jpg,,
21253035,Antennen und Ausbreitung,,Lehrbuch der Drahtlosen Nachrichtentechnik,,"Professor Dr. H. Lassen (auth.), K. Fränz, H. Lassen (eds.)",1956,2,Springer-Verlag Berlin Heidelberg,,341,0,German,,,,"978-3-662-24544-6,978-3-662-26691-5",,,,,,,10.1007/978-3-662-26691-5,,,,0,,,,,,,1,15156325,pdf,0aca6fe2db83a6a7be90e7f16851f85c,,,D:\\HDD4\\!genesis\\SPR_NEW_2013-12\\bok%3A978-3-662-26691-5.pdf,0,2000-01-01 01:00:00,2016-04-03 02:51:08,1137000/0aca6fe2db83a6a7be90e7f16851f85c-d.jpg,,
21253036,Untersuchungen zur Verbesserung des Leinenwebstuhles IV. Die Wirkung verschiedener Kettbaumbremsen auf die Verwebung von Leinengarnen,,Forschungsberichte des Wirtschafts- und Verkehrsministeriums Nordrhein-Westfalen,,(auth.),1956,1,VS Verlag für Sozialwissenschaften,,64,0,German,,,,"978-3-663-19921-2,978-3-663-20265-3",,,,,,,10.1007/978-3-663-20265-3,,,,0,,,,,,,1,4774209,pdf,f99093febfe5c1cf08d56a24b839dbd0,,,D:\\HDD4\\!genesis\\SPR_NEW_2013-12\\bok%3A978-3-663-20265-3.pdf,0,2000-01-01 01:00:00,2016-04-03 02:51:08,1143000/f99093febfe5c1cf08d56a24b839dbd0-d.jpg,,
21253037,Das Verbinden von Metallen durch Kunstharzkleber: Teil I: Eigenschaften und Verwendung der Metallklebstoffe,,Forschungsberichte des Wirtschafts- und Verkehrsministeriums Nordrhein-Westfalen,,Prof. Dr.-Ing. habil. K. Krekeler (auth.),1956,1,VS Verlag für Sozialwissenschaften,,47,0,German,,,,"978-3-663-19990-8,978-3-663-20340-7",,,,,,,10.1007/978-3-663-20340-7,,,,0,,,,,,,1,3837710,pdf,da0d6f2e6a5d28e50dfb8438a3801b40,,,D:\\HDD4\\!genesis\\SPR_NEW_2013-12\\bok%3A978-3-663-20340-7.pdf,0,2000-01-01 01:00:00,2016-04-03 02:51:08,1143000/da0d6f2e6a5d28e50dfb8438a3801b40-d.jpg,,
21253038,"Der Dreher als Rechner: Wechselräder-, Kegel-, Schnittgeschwindigkeits- und Arbeitszeitberechnungen in einfacher und anschaulicher Darstellung zum Selbstunterricht und für die Praxis",,Werkstattbücher 63,,"Dr.-Ing. H. Haake, Ing. O. Lattermann (auth.)",1957,5,Springer-Verlag Berlin Heidelberg,,72,0,German,,,,"978-3-540-02230-5,978-3-642-86124-6",,,,,,,10.1007/978-3-642-86124-6,,,,0,,,,,,,1,4544815,pdf,ae86fd312376b7f5d9813572e0c81f14,,,D:\\HDD4\\!genesis\\SPR_NEW_2013-12\\bok%3A978-3-642-86124-6.pdf,0,2000-01-01 01:00:00,2016-04-03 02:51:08,1135000/ae86fd312376b7f5d9813572e0c81f14-d.jpg,,
21253039,Das Reduktionsverfahren der Baustatik: unter besonderer Berücksichtigung der Programmierbarkeit für digitale Rechenautomaten,,,,Diplom-Mathematiker Dr.-Ing. Sigurd Falk (auth.),1957,1,Springer-Verlag Berlin Heidelberg,,55,0,German,,,,"978-3-662-24369-5,978-3-662-26486-7",,,,,,,10.1007/978-3-662-26486-7,,,,0,,,,,,,1,3675329,pdf,d94e9a6692e3aade3e3fa48f24d21587,,,D:\\HDD4\\!genesis\\SPR_NEW_2013-12\\bok%3A978-3-662-26486-7.pdf,0,2000-01-01 01:00:00,2016-04-03 02:51:08,1137000/d94e9a6692e3aade3e3fa48f24d21587-d.jpg,,
21253040,Die Prüfung nichtmetallischer Baustoffe,,Handbuch der Werkstoffprüfung 3,,"O. Graf (auth.), K. Alberti, W. Albrecht, G. Blunk, E. Brandenberger, E. Brenner, H. Broese van Groenou, F. Burgstaller, K. Egner, K. Gösele, Otto Graf, G. Haegermann, R. Haug, H. Hecht, A. Hummel, F. Kaufmann, F. Keil, A. Kieslinger, R. Köhler, F. Kollmann, Th. Kristen, W. Küch, J. Löffler, H. Mallison, H. Mayer-Wegelin, H. Muhs, K. Obenauer, F. de Quervain, W. Rodel, G. Rodloff, W. Schüle, W. Schwaderer, H. Seekamp, H. zur Strassen, A. Voellmy, K. Walz, D. Wapler, G. Weil, H. Zycha (eds.)",1957,2,Springer-Verlag Berlin Heidelberg,,1057,0,German,,,,"978-3-662-41674-7,978-3-662-41811-6",,,,,,,10.1007/978-3-662-41811-6,,,,0,,,,,,,1,48469620,pdf,6b2b77f8f62ad4f4f054dba90c88013a,,,D:\\HDD4\\!genesis\\SPR_NEW_2013-12\\bok%3A978-3-662-41811-6.pdf,0,2000-01-01 01:00:00,2016-04-03 02:51:08,1140000/6b2b77f8f62ad4f4f054dba90c88013a-d.jpg,,
21253041,Neue Forschungs- und Entwicklungsrichtungen im Fernsehen. Der gegenwärtige Stand der Filmtechnik,,Arbeitsgemeinschaft für Forschung des Landes Nordrhein-Westfalen 58,,"Fritz Schröter, Albert Narath (auth.)",1957,1,VS Verlag für Sozialwissenschaften,,111,0,German,,,,"978-3-663-00881-1,978-3-663-02794-2",,,,,,,10.1007/978-3-663-02794-2,,,,0,,,,,,,0,4464640,pdf,5cb395425737a0afcb95df00127f34ce,,,D:\\HDD4\\!genesis\\SPR_NEW_2013-12\\bok%3A978-3-663-02794-2.pdf,0,2000-01-01 01:00:00,2016-04-03 02:51:08,1141000/5cb395425737a0afcb95df00127f34ce-d.jpg,,
21253042,Untersuchung von Elektrowärmegeräten für Laienbedienung hinsichtlich Sicherheit und Gebrauchsfähigkeit: II. Temperaturen an und in schmiegsamen Elektrogeräten,,Forschungsberichte des Wirtschafts- und Verkehrsministeriums Nordrhein-Westfalen,,Prof. Dr.-Ing. Harald Müller (auth.),1958,1,VS Verlag für Sozialwissenschaften,,70,0,German,,,,"978-3-663-19945-8,978-3-663-20290-5",,,,,,,10.1007/978-3-663-20290-5,,,,0,,,,,,,1,4835853,pdf,a377e2cd01ae3dc20ca188ad329d724e,,,D:\\HDD4\\!genesis\\SPR_NEW_2013-12\\bok%3A978-3-663-20290-5.pdf,0,2000-01-01 01:00:00,2016-04-03 02:51:08,1143000/a377e2cd01ae3dc20ca188ad329d724e-d.jpg,,
21253043,Untersuchungen der Beschleunigungsverhältnisse eines Zweitakt-Hochleistungs-Dieseltriebwerks mit achsparallelen Zylindern und gegenläufigen Kolben,,Forschungsberichte des Wirtschafts- und Verkehrsministeriums Nordrhein-Westfalen 428,,Dr.-Ing. Johann Endres (auth.),1958,1,VS Verlag für Sozialwissenschaften,,60 S.,0,German,,,,"978-3-663-03814-6,978-3-663-05003-2",,,,,,,10.1007/978-3-663-05003-2,,,,0,,,,,,,1,4045626,pdf,0dfda040a800315fc1bec08110a1ee5c,,,D:\\HDD4\\!genesis\\SPR_NEW_2013-12\\bok%3A978-3-663-05003-2.pdf,0,2000-01-01 01:00:00,2016-04-03 02:51:08,1141000/0dfda040a800315fc1bec08110a1ee5c-d.jpg,,
21253044,Höhere Technische Mechanik: Nach Vorlesungen,,,,Dr.-Ing. István Szabó (auth.),1958,2,Springer-Verlag Berlin Heidelberg,,510,0,German,,,,"978-3-662-23505-8,978-3-662-25576-6",,,,,,,10.1007/978-3-662-25576-6,,,,0,,,,,,,1,22112778,pdf,a149e0f3bf3b661a1fcc2a2401f097f2,,,D:\\HDD4\\!genesis\\SPR_NEW_2013-12\\bok%3A978-3-662-25576-6.pdf,0,2000-01-01 01:00:00,2016-04-03 02:51:08,1136000/a149e0f3bf3b661a1fcc2a2401f097f2-d.jpg,,
21253045,Wasserstrahlpumpen zur Förderung von Flüssigkeiten,,,,"Dr. techn. Ferdinand Schulz, Dr. techn. Karl Heinz Fasol (auth.)",1958,1,Springer-Verlag Wien,,82,0,German,,,,"978-3-211-80497-1,978-3-7091-2307-2",,,,,,,10.1007/978-3-7091-2307-2,,,,0,,,,,,,1,4151727,pdf,8f1a527e096ccfc3030c0de3f3139d41,,,D:\\HDD4\\!genesis\\SPR_NEW_2013-12\\bok%3A978-3-7091-2307-2.pdf,0,2000-01-01 01:00:00,2016-04-03 02:51:08,1143000/8f1a527e096ccfc3030c0de3f3139d41-d.jpg,,
21253046,Blätter für Technikgeschichte,,Blätter für Technikgeschichte 20,,"Dr. Ing. Franz Kirnbauer (auth.), Dr. Phil. Josef Nagler (eds.)",1958,1,Springer-Verlag Wien,,198,0,German,,,,"978-3-211-80469-8,978-3-7091-2315-7",,,,,,,10.1007/978-3-7091-2315-7,,,,0,,,,,,,1,14837428,pdf,324d6dcca9486b2c3391c2ca7707b8c5,,,D:\\HDD4\\!genesis\\SPR_NEW_2013-12\\bok%3A978-3-7091-2315-7.pdf,0,2000-01-01 01:00:00,2016-04-03 02:51:08,1143000/324d6dcca9486b2c3391c2ca7707b8c5-d.jpg,,
21253047,Nordbrücke Düsseldorf,,,,Professor Friedrich Tamms (auth.),1958,1,Springer-Verlag Berlin Heidelberg,,190,0,German,,,,"978-3-642-52671-8,978-3-642-52670-1",,,,,,,10.1007/978-3-642-52670-1,,,,0,,,,,,,1,33773088,pdf,0f74f3516350d844450d29d1c8b21bdc,,,D:\\HDD4\\!genesis\\SPR_NEW_2013-12\\bok%3A978-3-642-52670-1.pdf,0,2000-01-01 01:00:00,2016-04-03 02:51:08,1135000/0f74f3516350d844450d29d1c8b21bdc-d.jpg,,
21253048,Über das Verhalten von schlanken Stäben und dünnen Platten konstanten Querschnitts im elastischen Bereich bei zeitlich veränderlicher Längsbelastung,,Deutsche Versuchsanstalt für Luftfahrt E. V.,,G. Kotowski (auth.),1958,1,VS Verlag für Sozialwissenschaften,,68 S.,0,German,,,,"978-3-663-03079-9,978-3-663-04268-6",,,,,,,10.1007/978-3-663-04268-6,,,,0,,,,,,,1,3130313,pdf,9783c03750789404f911dafab8868e08,,,D:\\HDD4\\!genesis\\SPR_NEW_2013-12\\bok%3A978-3-663-04268-6.pdf,0,2000-01-01 01:00:00,2016-04-03 02:51:08,1141000/9783c03750789404f911dafab8868e08-d.jpg,,
21253049,Arbeitstechnische und arbeitsphysiologische Untersuchungen zur Erleichterung der Maurerarbeit,,Forschungsberichte des Landes Nordrhein-Westfalen 734,,"Dr. Ing. Harri Adam (auth.), Dr. Ing. Harri Adam (eds.)",1959,1,VS Verlag für Sozialwissenschaften,,58 S.,0,German,,,,"978-3-663-03521-3,978-3-663-04710-0",,,,,,,10.1007/978-3-663-04710-0,,,,0,,,,,,,1,4204429,pdf,0276ff7d44a39f6effc8fa11ae1bfc62,,,D:\\HDD4\\!genesis\\SPR_NEW_2013-12\\bok%3A978-3-663-04710-0.pdf,0,2000-01-01 01:00:00,2016-04-03 02:51:08,1141000/0276ff7d44a39f6effc8fa11ae1bfc62-d.jpg,,
21253050,"Planen und Auswerten von Versuchen: Eine Einführung für Naturwissenschafter, Mediziner und Ingenieure",,Lehrbücher und Monographien aus dem Gebiete der Exakten Wissenschaften 13,,Arthur Linder (auth.),1959,2,Springer Basel,,184,0,German,,,,"978-3-0348-4043-9,978-3-0348-4115-3",,,,,,,10.1007/978-3-0348-4115-3,,,,0,,,,,,,1,7962065,pdf,968701304b1b181d24b54db987ddee65,,,D:\\HDD4\\!genesis\\SPR_NEW_2013-12\\bok%3A978-3-0348-4115-3.pdf,0,2000-01-01 01:00:00,2016-04-03 02:51:08,1130000/968701304b1b181d24b54db987ddee65-d.jpg,,
21253051,Technischer Fortschritt und Produktionsvollzug in der Tuchweberei: Der Weg zur Automatisierung,,,,Hansjakob Krebs (auth.),1959,1,VS Verlag für Sozialwissenschaften,,213,0,German,,,,"978-3-663-19998-4,978-3-663-20349-0",,,,,,,10.1007/978-3-663-20349-0,,,,0,,,,,,,1,7930886,pdf,c0f0b8904cfc1c400283318d4b189021,,,D:\\HDD4\\!genesis\\SPR_NEW_2013-12\\bok%3A978-3-663-20349-0.pdf,0,2000-01-01 01:00:00,2016-04-03 02:51:08,1143000/c0f0b8904cfc1c400283318d4b189021-d.jpg,,
21253052,Die Anwendbarkeit von Sonden zur Prüfung der Festigkeitseigenschaften des Baugrundes,,Forschungsberichte des Landes Nordrhein-Westfalen,,"Dr.-Ing. Ernst Menzenbach D.I.C. (auth.), Dr.-Ing. Ernst Menzenbach D.I.C. (eds.)",1959,1,VS Verlag für Sozialwissenschaften,,218 S.,0,German,,,,"978-3-663-12832-8,978-3-663-14466-3",,,,,,,10.1007/978-3-663-14466-3,,,,0,,,,,,,1,8663040,pdf,5ded577d3b2b4a4476c608aee6df56a3,,,D:\\HDD4\\!genesis\\SPR_NEW_2013-12\\bok%3A978-3-663-14466-3.pdf,0,2000-01-01 01:00:00,2016-04-03 02:51:08,1142000/5ded577d3b2b4a4476c608aee6df56a3-d.jpg,,
21253053,Der neuzeitliche Straßenbau: Aufgaben und Technik,,Handbibliothek für Bauingenieure,,"Erwin Neumann Dr.-Ing. Dr.-Ing. E. h. (auth.), F. Freising, R. Jelinek, K. Keil, H. H. Kress, K. W. Ostwald, W. Reichelt, T. Rosin, E. Vordermeier (eds.)",1959,4,Springer-Verlag Berlin Heidelberg,,670,0,German,,,,"978-3-662-30564-5,978-3-662-30563-8",,,,,,,10.1007/978-3-662-30563-8,,,,0,,,,,,,1,35796868,pdf,a2161add115f74e3481f9569b0b7b216,,,D:\\HDD4\\!genesis\\SPR_NEW_2013-12\\bok%3A978-3-662-30563-8.pdf,0,2000-01-01 01:00:00,2016-04-03 02:51:08,1137000/a2161add115f74e3481f9569b0b7b216-d.jpg,,
21253054,Kraftwerksatlas mit Kennwerten von 200 Kraftwerken 98 Kraftwerksbeschreibungen und 6 Ausführungsbeispielen,,Große Dampfkraftwerke 1,,Karl Schröder (auth.),1959,1,Springer-Verlag Berlin Heidelberg,,1088,0,German,,,,"978-3-642-52091-4,978-3-642-52090-7",,,,,,,10.1007/978-3-642-52090-7,,,,0,,,,,,,1,83575546,pdf,62c138c4144e36f42ea944a3db5da009,,,D:\\HDD4\\!genesis\\SPR_NEW_2013-12\\bok%3A978-3-642-52090-7.pdf,0,2000-01-01 01:00:00,2016-04-03 02:51:08,1135000/62c138c4144e36f42ea944a3db5da009-d.jpg,,
21253055,Verformungseinflüsse bei der Feilenherstellung,,Forschungsberichte des Landes Nordrhein-Westfalen 781,,(auth.),1959,1,VS Verlag für Sozialwissenschaften,,67 S.,0,German,,,,"978-3-663-03869-6,978-3-663-05058-2",,,,,,,10.1007/978-3-663-05058-2,,,,0,,,,,,,1,3766627,pdf,9fbd9c8fc9be3ab5e010aeadf693a9a6,,,D:\\HDD4\\!genesis\\SPR_NEW_2013-12\\bok%3A978-3-663-05058-2.pdf,0,2000-01-01 01:00:00,2016-04-03 02:51:08,1141000/9fbd9c8fc9be3ab5e010aeadf693a9a6-d.jpg,,
21253056,Die Fernrohre und Entfernungsmesser,,,,"Albert König Dr. Phil., Dr.-Ing. E.H., Horst Köhler Dr. Rer. Nat. (auth.)",1959,3,Springer-Verlag Berlin Heidelberg,,484,0,German,,,,"978-3-642-49124-5,978-3-642-86260-1",,,,,,,10.1007/978-3-642-86260-1,,,,0,,,,,,,1,21798937,pdf,3c2767b1ea9efa14305d31b48e2aa53d,,,D:\\HDD4\\!genesis\\SPR_NEW_2013-12\\bok%3A978-3-642-86260-1.pdf,0,2000-01-01 01:00:00,2016-04-03 02:51:08,1135000/3c2767b1ea9efa14305d31b48e2aa53d-d.jpg,,
21253057,Untersuchungen über das Drehschlagbohren,,Forschungsberichte des Landes Nordrhein-Westfalen 712,,(auth.),1959,1,VS Verlag für Sozialwissenschaften,,58,0,German,,,,"978-3-663-03824-5,978-3-663-05013-1",,,,,,,10.1007/978-3-663-05013-1,,,,0,,,,,,,1,2756520,pdf,62b71be841cb8aab11ac8c4ddd0977cf,,,D:\\HDD4\\!genesis\\SPR_NEW_2013-12\\bok%3A978-3-663-05013-1.pdf,0,2000-01-01 01:00:00,2016-04-03 02:51:08,1141000/62b71be841cb8aab11ac8c4ddd0977cf-d.jpg,,
21253058,Belastungskurven und Dauerlinien in der elektrischen Energiewirtschaft,,Enzyklopädie der Energiewirtschaft 2,,"Dr.-Ing. Dr. jur. Max Wolf, Dr.-Ing. Hellmuth Junge (auth.)",1959,1,Springer-Verlag Berlin Heidelberg,,593,0,German,,,,"978-3-662-41707-2,978-3-662-41845-1",,,,,,,10.1007/978-3-662-41845-1,,,,0,,,,,,,1,35552739,pdf,c36fdd0f65af793f3f38576969185dda,,,D:\\HDD4\\!genesis\\SPR_NEW_2013-12\\bok%3A978-3-662-41845-1.pdf,0,2000-01-01 01:00:00,2016-04-03 02:51:08,1140000/c36fdd0f65af793f3f38576969185dda-d.jpg,,
21253059,Untersuchungen über die Stromzuführung und den elektrischen Antrieb beim Vermessungskreisel,,Forschungsberichte des Landes Nordrhein-Westfalen 686,,Dr.-Ing. Dietrich Wartenberg (auth.),1959,1,VS Verlag für Sozialwissenschaften,,42,0,German,,,,"978-3-663-03840-5,978-3-663-05029-2",,,,,,,10.1007/978-3-663-05029-2,,,,0,,,,,,,1,2234777,pdf,f0b34dae024735c0907ca1116eae6ebd,,,D:\\HDD4\\!genesis\\SPR_NEW_2013-12\\bok%3A978-3-663-05029-2.pdf,0,2000-01-01 01:00:00,2016-04-03 02:51:08,1141000/f0b34dae024735c0907ca1116eae6ebd-d.jpg,,
21253060,Schwingungen: Eine Einführung in die theoretische Behandlung von Schwingungsproblemen,,,,Professor Dr. rer. nat. Dr.-Ing. E. h. Kurt Magnus (auth.),1961,4,Vieweg+Teubner Verlag,,255,0,German,,,,"978-3-519-22302-3,978-3-663-10702-6",,,,,,,10.1007/978-3-663-10702-6,,,,0,,,,,,,1,10475902,pdf,79b1669162a3d6a079731f746c2beb19,,,D:\\HDD4\\!genesis\\SPR_NEW_2013-12\\bok%3A978-3-663-10702-6.pdf,0,2000-01-01 01:00:00,2016-04-03 02:51:08,1141000/79b1669162a3d6a079731f746c2beb19-d.jpg,,
21253061,Die thermodynamischen Eigenschaften der Luft im Temperaturbereich zwischen −210°C und +1250°C bis zu Drücken von 4500 bar,,Thermodynamische Eigenschaften der Gase und Flüssigkeiten,,"Dr.-Ing. Hans Dieter Baehr, Dipl.-Ing. Klaus Schwier (auth.)",1961,1,Springer-Verlag Berlin Heidelberg,,145,0,German,,,,"978-3-540-02759-1,978-3-642-51613-9",,,,,,,10.1007/978-3-642-51613-9,,,,0,,,,,,,1,5472785,pdf,b5aa3c82d53ed116d0b62433c4e2b595,,,D:\\HDD4\\!genesis\\SPR_NEW_2013-12\\bok%3A978-3-642-51613-9.pdf,0,2000-01-01 01:00:00,2016-04-03 02:51:08,1135000/b5aa3c82d53ed116d0b62433c4e2b595-d.jpg,,
21253062,Betriebsverhalten einer Versuchsgasturbine kleiner Leistung,,Forschungsberichte des Landes Nordrhein-Westfalen 953,,"Prof. Dr.-Ing. Karl Leist, Dipl.-Ing. Heinrich Ostenrath (auth.)",1961,1,VS Verlag für Sozialwissenschaften,,44,0,German,,,,"978-3-663-03561-9,978-3-663-04750-6",,,,,,,10.1007/978-3-663-04750-6,,,,0,,,,,,,1,3403358,pdf,12c21e21e166309398559f6c8ad0e771,,,D:\\HDD4\\!genesis\\SPR_NEW_2013-12\\bok%3A978-3-663-04750-6.pdf,0,2000-01-01 01:00:00,2016-04-03 02:51:08,1141000/12c21e21e166309398559f6c8ad0e771-d.jpg,,
21253063,Die Einwirkung des Lärms auf den Menschen. Geräuschmessungen an Verkehrsflugzeugen und ihre hörpsychologische Bewertung,,Arbeitsgemeinschaft für Forschung des Landes Nordrhein-Westfalen 94,,"Gunther Lehmann, Franz Joseph Meister (auth.)",1961,1,VS Verlag für Sozialwissenschaften,,200 S.,0,German,,,,"978-3-663-03092-8,978-3-663-04281-5",,,,,,,10.1007/978-3-663-04281-5,,,,0,,,,,,,1,9587939,pdf,9da5c7799b4931f57468fbcc430ef4b5,,,D:\\HDD4\\!genesis\\SPR_NEW_2013-12\\bok%3A978-3-663-04281-5.pdf,0,2000-01-01 01:00:00,2016-04-03 02:51:08,1141000/9da5c7799b4931f57468fbcc430ef4b5-d.jpg,,
21253064,Die Beziehung zwischen der Garnungleichmäßigkeit und dem Warenbild textiler Flächengebilde,,Forschungsberichte des Landes Nordrhein-Westfalen 1002,,"Prof. Dr.-Ing. Walther Wegener, Dr.-Ing. Hans Peuker (auth.)",1961,1,VS Verlag für Sozialwissenschaften,,131 S.,0,German,,,,"978-3-663-03420-9,978-3-663-04609-7",,,,,,,10.1007/978-3-663-04609-7,,,,0,,,,,,,1,8887997,pdf,20ddbb63fbf230f0c7cb962049aee418,,,D:\\HDD4\\!genesis\\SPR_NEW_2013-12\\bok%3A978-3-663-04609-7.pdf,0,2000-01-01 01:00:00,2016-04-03 02:51:08,1141000/20ddbb63fbf230f0c7cb962049aee418-d.jpg,,
21253065,Einfluß der Spülkanalabmessungen auf den Ladungswechsel kurbelkastengespülter Zweitakt-Motoren,,Forschungsberichte des Landes Nordrhein-Westfalen 989,,Dr.-Ing. Werner Wilhelm (auth.),1961,1,VS Verlag für Sozialwissenschaften,,103 S.,0,German,,,,"978-3-663-03592-3,978-3-663-04781-0",,,,,,,10.1007/978-3-663-04781-0,,,,0,,,,,,,1,8856852,pdf,0eccf5aa4d53dd1ca2a903e06a7782ed,,,D:\\HDD4\\!genesis\\SPR_NEW_2013-12\\bok%3A978-3-663-04781-0.pdf,0,2000-01-01 01:00:00,2016-04-03 02:51:08,1141000/0eccf5aa4d53dd1ca2a903e06a7782ed-d.jpg,,
21253066,Technische und wirtschaftliche Aspekte der Automatisierung. Arbeitswissenschaftliche Aspekte der Automatisierung,,Arbeitsgemeinschaft für Forschung des Landes Nordrhein-Westfalen 96,,"Herwart Opitz, Joseph Mathieu (auth.)",1961,1,VS Verlag für Sozialwissenschaften,,88,0,German,,,,"978-3-663-03129-1,978-3-663-04318-8",,,,,,,10.1007/978-3-663-04318-8,,,,0,,,,,,,1,3640510,pdf,5ee020dfa6b9c41127cf15ef2a472712,,,D:\\HDD4\\!genesis\\SPR_NEW_2013-12\\bok%3A978-3-663-04318-8.pdf,0,2000-01-01 01:00:00,2016-04-03 02:51:08,1141000/5ee020dfa6b9c41127cf15ef2a472712-d.jpg,,
21253067,Ein zweites Steinzeitalter?: Gesteinshüttenkunde früher und heute,,Arbeitsgemeinschaft für Forschung des Landes Nordrhein-Westfalen 84a,,Hans-Ernst Schwiete (auth.),1961,1,VS Verlag für Sozialwissenschaften,,87,0,German,,,,"978-3-663-00374-8,978-3-663-02287-9",,,,,,,10.1007/978-3-663-02287-9,,,,0,,,,,,,1,4414728,pdf,9fa3dffaf8dee75c9346428cacf702e4,,,D:\\HDD4\\!genesis\\SPR_NEW_2013-12\\bok%3A978-3-663-02287-9.pdf,0,2000-01-01 01:00:00,2016-04-03 02:51:08,1140000/9fa3dffaf8dee75c9346428cacf702e4-d.jpg,,
21253068,Beton als Strahlenschutz für Kernreaktoren,,Forschungsberichte des Landes Nordrhein-Westfalen 1047,,"Prof. Dr.-Ing. habil. Kurt Walz, Dr.-Ing. Gerd Wischers (auth.)",1961,1,VS Verlag für Sozialwissenschaften,,55 S.,0,German,,,,"978-3-663-03560-2,978-3-663-04749-0",,,,,,,10.1007/978-3-663-04749-0,,,,0,,,,,,,1,4043786,pdf,d1bd2b634fc801b2bb96f85ea8bec928,,,D:\\HDD4\\!genesis\\SPR_NEW_2013-12\\bok%3A978-3-663-04749-0.pdf,0,2000-01-01 01:00:00,2016-04-03 02:51:08,1141000/d1bd2b634fc801b2bb96f85ea8bec928-d.jpg,,
21253069,Mitteilungen aus den Forschungslaboratorien der Agfa Leverkusen-München,,"Mitteilungen aus den Forschungslaboratorien der Agfa-Gevaert AG, Leverkusen-München 3",,"E. Klein, R. Matejec (auth.)",1961,1,Springer-Verlag Berlin Heidelberg,,354,0,German,,,,"978-3-662-22173-0,978-3-662-22172-3",,,,,,,10.1007/978-3-662-22172-3,,,,0,,,,,,,1,18477286,pdf,e39bd84830565fd73dd586ec28b9dd59,,,D:\\HDD4\\!genesis\\SPR_NEW_2013-12\\bok%3A978-3-662-22172-3.pdf,0,2000-01-01 01:00:00,2016-04-03 02:51:08,1136000/e39bd84830565fd73dd586ec28b9dd59-d.jpg,,
21253070,Neuere Probleme der Messtechnik,,Nachrichtentechnische Fachberichte 20,,"P. Kartaschoff, J. Bonami, J. de Prins (auth.), Dipl.-Ing. J. Wosnik (eds.)",1961,1,Vieweg+Teubner Verlag,,"VI, 54 S.",0,German,,,,"978-3-663-00882-8,978-3-663-02795-9",,,,,,,10.1007/978-3-663-02795-9,,,,0,,,,,,,1,7536559,pdf,9a81fb39bd02e51e4e7f7eef4495f8cb,,,D:\\HDD4\\!genesis\\SPR_NEW_2013-12\\bok%3A978-3-663-02795-9.pdf,0,2000-01-01 01:00:00,2016-04-03 02:51:08,1141000/9a81fb39bd02e51e4e7f7eef4495f8cb-d.jpg,,
21253071,Stanztechnik: Zweiter Teil: Die Bauteile des Schnittes,,Werkstattbücher 57,,Dipl.-Ing. Erich Krabbe VDI (auth.),1961,3,Springer-Verlag Berlin Heidelberg,,65,0,German,,,,"978-3-662-24236-0,978-3-662-26349-5",,,,,,,10.1007/978-3-662-26349-5,,,,0,,,,,,,1,4312885,pdf,246a34ad85c02b3635dcb7dc5cef3d5b,,,D:\\HDD4\\!genesis\\SPR_NEW_2013-12\\bok%3A978-3-662-26349-5.pdf,0,2000-01-01 01:00:00,2016-04-03 02:51:08,1137000/246a34ad85c02b3635dcb7dc5cef3d5b-d.jpg,,
21253072,Betriebsanalysen: Erster Teil,,,,(auth.),1961,2,Springer-Verlag Berlin Heidelberg,,1585,0,German,,,,"978-3-642-85580-1,978-3-642-85579-5",,,,,,,10.1007/978-3-642-85579-5,,,,0,,,,,,,1,78651556,pdf,15c3c13ea927b81b59e824fb30e980dc,,,D:\\HDD4\\!genesis\\SPR_NEW_2013-12\\bok%3A978-3-642-85579-5.pdf,0,2000-01-01 01:00:00,2016-04-03 02:51:08,1135000/15c3c13ea927b81b59e824fb30e980dc-d.jpg,,
21253073,Grundlagen der Regelungstechnik: Ein Lehrbuch für Studierende und Ingenieure,,Regelungstechnik in Einzeldarstellungen,,"Eduard Pestel Prof. Dr.-Ing., Eckhard Kollmann Dipl.-Ing. (auth.)",1961,1,Vieweg+Teubner Verlag,,334,0,German,,,,"978-3-663-04075-0,978-3-663-05521-1",,,,,,,10.1007/978-3-663-05521-1,,,,0,,,,,,,1,10576871,pdf,a462717d860936ac3db1f1e7464a0065,,,D:\\HDD4\\!genesis\\SPR_NEW_2013-12\\bok%3A978-3-663-05521-1.pdf,0,2000-01-01 01:00:00,2016-04-03 02:51:08,1141000/a462717d860936ac3db1f1e7464a0065-d.jpg,,
21253074,Untersuchung von Zahnradgetrieben und Zahnradbearbeitungsmaschinen in Zusammenarbeit mit der Industrie,,Forschungsberichte des Landes Nordrhein-Westfelen 898,,"Prof. Dr.-Ing. Herwart Opitz, Dipl.-Ing. Herbert de Jong (auth.)",1960,1,VS Verlag für Sozialwissenschaften,,60 S.,0,German,,,,"978-3-663-03809-2,978-3-663-04998-2",,,,,,,10.1007/978-3-663-04998-2,,,,0,,,,,,,1,3720920,pdf,e5b28103f5180852020bd7bc7da06188,,,D:\\HDD4\\!genesis\\SPR_NEW_2013-12\\bok%3A978-3-663-04998-2.pdf,0,2000-01-01 01:00:00,2016-04-03 02:51:08,1141000/e5b28103f5180852020bd7bc7da06188-d.jpg,,
21253075,Arbeiten mit Preß-Formmaschinen unter Normal-Bedingungen und bei hohen spezifischen Preßdrücken,,Forschungsberichte des Landes Nordrhein-Westfalen 887,,Baurat Dipl.-Ing. Waldemar Gesell (auth.),1960,1,VS Verlag für Sozialwissenschaften,,142 S.,0,German,,,,"978-3-663-03518-3,978-3-663-04707-0",,,,,,,10.1007/978-3-663-04707-0,,,,0,,,,,,,1,9552594,pdf,2924897e45e325a501b511a32942c726,,,D:\\HDD4\\!genesis\\SPR_NEW_2013-12\\bok%3A978-3-663-04707-0.pdf,0,2000-01-01 01:00:00,2016-04-03 02:51:08,1141000/2924897e45e325a501b511a32942c726-d.jpg,,
21253076,Ersatz von Quarzsand als Strahlmittel,,Forschungsberichte des Landes Nordrhein-Westfalen 801,,Baurat Dipl.-Ing. Waldemar Gesell (auth.),1960,1,VS Verlag für Sozialwissenschaften,,67 S.,0,German,,,,"978-3-663-03638-8,978-3-663-04827-5",,,,,,,10.1007/978-3-663-04827-5,,,,0,,,,,,,1,3815127,pdf,fde688402c151387e07cab424c0aab71,,,D:\\HDD4\\!genesis\\SPR_NEW_2013-12\\bok%3A978-3-663-04827-5.pdf,0,2000-01-01 01:00:00,2016-04-03 02:51:08,1141000/fde688402c151387e07cab424c0aab71-d.jpg,,
21253077,Aufkohlung und Härtung von Sintereisen-Werkstoffen,,Forschungsberichte des Landes Nordrhein-Westfalen 799,,Dipl.-Ing. Helmut Weiss (auth.),1960,1,VS Verlag für Sozialwissenschaften,,64 S.,0,German,,,,"978-3-663-03526-8,978-3-663-04715-5",,,,,,,10.1007/978-3-663-04715-5,,,,0,,,,,,,1,6001832,pdf,5ffc5a65daa6230c67003914ee04787c,,,D:\\HDD4\\!genesis\\SPR_NEW_2013-12\\bok%3A978-3-663-04715-5.pdf,0,2000-01-01 01:00:00,2016-04-03 02:51:08,1141000/5ffc5a65daa6230c67003914ee04787c-d.jpg,,
21253078,Berechnung und Gestaltung von Metallfedern,,Konstruktionsbücher 3,,Dipl.-Ing. Siegfried Gross (auth.),1960,3,Springer-Verlag Berlin Heidelberg,,161,0,German,,,,"978-3-642-48956-3,978-3-642-48955-6",,,,,,,10.1007/978-3-642-48955-6,,,,0,,,,,,,1,8962778,pdf,b07e1b84d73acbc0096da80775a614c5,,,D:\\HDD4\\!genesis\\SPR_NEW_2013-12\\bok%3A978-3-642-48955-6.pdf,0,2000-01-01 01:00:00,2016-04-03 02:51:08,1134000/b07e1b84d73acbc0096da80775a614c5-d.jpg,,
21253079,Fräsmaschinen im Betrieb,,Werkstattbücher 120,,Dipl.-Ing. Hans H. Klein (auth.),1960,1,Springer-Verlag Berlin Heidelberg,,65,0,German,,,,"978-3-540-02617-4,978-3-642-86768-2",,,,,,,10.1007/978-3-642-86768-2,,,,0,,,,,,,1,4188839,pdf,fe5e8e1a6ca4237334cb942de6b01cde,,,D:\\HDD4\\!genesis\\SPR_NEW_2013-12\\bok%3A978-3-642-86768-2.pdf,0,2000-01-01 01:00:00,2016-04-03 02:51:08,1135000/fe5e8e1a6ca4237334cb942de6b01cde-d.jpg,,
21253080,Ermittlung der Vorgänge beim Benetzen und Trocknen von Fäden unter besonderer Berücksichtigung der Arbeitsweise von Schlichtmaschinen,,Forschungsberichte des Landes Nordrhein-Westfalen 917,,"Oberingenieur Herbert Stein, Ingenieur Gerhard Hoischen (auth.)",1960,1,VS Verlag für Sozialwissenschaften,,81 S.,0,German,,,,"978-3-663-03636-4,978-3-663-04825-1",,,,,,,10.1007/978-3-663-04825-1,,,,0,,,,,,,1,6559734,pdf,a5b8ad4ded34c33885bd4ca5c83cf5ef,,,D:\\HDD4\\!genesis\\SPR_NEW_2013-12\\bok%3A978-3-663-04825-1.pdf,0,2000-01-01 01:00:00,2016-04-03 02:51:08,1141000/a5b8ad4ded34c33885bd4ca5c83cf5ef-d.jpg,,
21253081,"Der offene, kreuzende Scherschnitt an Blechen",,Forschungsberichte des Landes Nordrhein-Westfalen 916,,Dipl.-Ing. Hans-Joachim Crasemann (auth.),1960,1,VS Verlag für Sozialwissenschaften,,137,0,German,,,,"978-3-663-03390-5,978-3-663-04579-3",,,,,,,10.1007/978-3-663-04579-3,,,,0,,,,,,,1,10314182,pdf,4ff6ea187c4fcef4b58db17065cbb57c,,,D:\\HDD4\\!genesis\\SPR_NEW_2013-12\\bok%3A978-3-663-04579-3.pdf,0,2000-01-01 01:00:00,2016-04-03 02:51:08,1141000/4ff6ea187c4fcef4b58db17065cbb57c-d.jpg,,
21253082,Die geschränkte Kurbelschleife: II. Die Harmonische Analyse,,Forschungsberichte des Landes Nordrhein-Westfalen,,"Prof. Dr.-Ing. Walther Meyer zur Capellen, Dipl.-Ing. Walter Rath (auth.)",1960,1,VS Verlag für Sozialwissenschaften,,67,0,German,,,,"978-3-663-19955-7,978-3-663-20301-8",,,,,,,10.1007/978-3-663-20301-8,,,,0,,,,,,,1,4723447,pdf,ea4080fbb50f9e9b8cb37ba0236363e2,,,D:\\HDD4\\!genesis\\SPR_NEW_2013-12\\bok%3A978-3-663-20301-8.pdf,0,2000-01-01 01:00:00,2016-04-03 02:51:08,1143000/ea4080fbb50f9e9b8cb37ba0236363e2-d.jpg,,
21253083,Untersuchungen über Bodenverfestigung des Untergrunds zur Feststellung der technischen und wirtschaftlichen Auswirkungen auf den Unterbau bzw. auf die Straßenbetonfahrbahnplatten sowie Untersuchungen flexibler Deckenkonstruktionen auf verschiedenen Unterbauarten,,Forschungsberichte des Landes Nordrhein-Westfalen 903,,"Prof. Dr.-Ing. Bernhard Renfert, Baurat Dipl.-Ing. Karl Heisig, Dipl.-Ing. Josef Thelen (auth.)",1960,1,VS Verlag für Sozialwissenschaften,,130,0,German,,,,"978-3-663-07636-0,978-3-663-07638-4",,,,,,,10.1007/978-3-663-07638-4,,,,0,,,,,,,1,5578407,pdf,7bdc87e08cebc9beda87cad9799fe016,,,D:\\HDD4\\!genesis\\SPR_NEW_2013-12\\bok%3A978-3-663-07638-4.pdf,0,2000-01-01 01:00:00,2016-04-03 02:51:08,1141000/7bdc87e08cebc9beda87cad9799fe016-d.jpg,,
21253084,Vorschlag zur Vereinheitlichung der Hauptabmessungen an handelsüblichen Zahnradgetrieben,,Forschungsberichte des Landes Nordrhein-Westfalen 894,,Baudirektor Dr.-Ing. Wolfram Lindner (auth.),1960,1,VS Verlag für Sozialwissenschaften,,104 S.,0,German,,,,"978-3-663-03897-9,978-3-663-05086-5",,,,,,,10.1007/978-3-663-05086-5,,,,0,,,,,,,1,3886841,pdf,6ca5a67a8f4cd5cbcb7b8d7188880563,,,D:\\HDD4\\!genesis\\SPR_NEW_2013-12\\bok%3A978-3-663-05086-5.pdf,0,2000-01-01 01:00:00,2016-04-03 02:51:08,1141000/6ca5a67a8f4cd5cbcb7b8d7188880563-d.jpg,,
21253085,Getriebe,,,,Dr.-Ing. G. Niemann (auth.),1960,1,Springer-Verlag Berlin Heidelberg,,322,0,German,,,,"978-3-662-26966-4,978-3-662-28443-8",,,,,,,10.1007/978-3-662-28443-8,,,,0,,,,,,,1,20602195,pdf,0fdc88d9493208357351e3f4e7045bbc,,,D:\\HDD4\\!genesis\\SPR_NEW_2013-12\\bok%3A978-3-662-28443-8.pdf,0,2000-01-01 01:00:00,2016-04-03 02:51:08,1137000/0fdc88d9493208357351e3f4e7045bbc-d.jpg,,
21253086,Untersuchungen über den Ablauf der Arbeitsvorgänge bei Schlagmaschinen in Baumwoll- und Zellwollaufbereitungsanlagen,,Forschungsberichte des Landes Nordrhein-Westfalen 847,,"Herbert Stein, Ing. Martin Eidelsburger (auth.)",1960,1,VS Verlag für Sozialwissenschaften,,57 S.,0,German,,,,"978-3-663-03969-3,978-3-663-05158-9",,,,,,,10.1007/978-3-663-05158-9,,,,0,,,,,,,1,3890142,pdf,b379960d5b8ba23a229a62305e831a6e,,,D:\\HDD4\\!genesis\\SPR_NEW_2013-12\\bok%3A978-3-663-05158-9.pdf,0,2000-01-01 01:00:00,2016-04-03 02:51:08,1141000/b379960d5b8ba23a229a62305e831a6e-d.jpg,,
21253087,H. Rietschels Lehrbuch der Heiz- und Lüftungstechnik,,,,"Dr.-Ing. Wilhelm Raiß, Dr.-Ing. F. Roedler (auth.)",1960,14,Springer-Verlag Berlin Heidelberg,,621,0,German,,,,"978-3-662-23520-1,978-3-662-25593-3",,,,,,,10.1007/978-3-662-25593-3,,,,0,,,,,,,1,16432692,pdf,f57c6eb1dbdde9ecddda2eedd7e4b261,,,D:\\HDD4\\!genesis\\SPR_NEW_2013-12\\bok%3A978-3-662-25593-3.pdf,0,2000-01-01 01:00:00,2016-04-03 02:51:08,1136000/f57c6eb1dbdde9ecddda2eedd7e4b261-d.jpg,,
21253088,Untersuchungen an Zahnradbearbeitungsmaschinen,,Forschungsberichte des Landes Nordrhein-Westfalen 806,,"Prof. Dr.-Ing. Herwart Opitz, Dr.-Ing. Rolf Piekenbrink (auth.)",1960,1,VS Verlag für Sozialwissenschaften,,96,0,German,,,,"978-3-663-03812-2,978-3-663-05001-8",,,,,,,10.1007/978-3-663-05001-8,,,,0,,,,,,,1,10491473,pdf,f5f8d16b0266ec3155f273ec47622036,,,D:\\HDD4\\!genesis\\SPR_NEW_2013-12\\bok%3A978-3-663-05001-8.pdf,0,2000-01-01 01:00:00,2016-04-03 02:51:08,1141000/f5f8d16b0266ec3155f273ec47622036-d.jpg,,
21253089,Stand und Aufgaben der Weitverkehrstechnik: The State of and Problem Concerning Telecommunication,,Nachrichtentechnische Fachberichte 19,,"H. Faßbender (auth.), Dipl.-Ing. J. Wosnik (eds.)",1960,1,Vieweg+Teubner Verlag,,"IV, 165 S.",0,German,,,,"978-3-663-04020-0,978-3-663-05466-5",,,,,,,10.1007/978-3-663-05466-5,,,,0,,,,,,,1,15636094,pdf,2e555d441ccdb344bbff5520a53dab5e,,,D:\\HDD4\\!genesis\\SPR_NEW_2013-12\\bok%3A978-3-663-05466-5.pdf,0,2000-01-01 01:00:00,2016-04-03 02:51:08,1141000/2e555d441ccdb344bbff5520a53dab5e-d.jpg,,
21253090,Untersuchungen an Baumwollkarden zwecks Ermittlung der Fehlerursachen für Dickeschwankungen,,Forschungsberichte des Landes Nordrhein-Westfalen 846,,"Oberingenieur Herbert Stein, Ing. Martin Eidelsburger (auth.)",1960,1,VS Verlag für Sozialwissenschaften,,49 S.,0,German,,,,"978-3-663-03810-8,978-3-663-04999-9",,,,,,,10.1007/978-3-663-04999-9,,,,0,,,,,,,1,3421703,pdf,7841ac2a6788e72c1cbc885a16669790,,,D:\\HDD4\\!genesis\\SPR_NEW_2013-12\\bok%3A978-3-663-04999-9.pdf,0,2000-01-01 01:00:00,2016-04-03 02:51:08,1141000/7841ac2a6788e72c1cbc885a16669790-d.jpg,,
21253091,Untersuchung der Verzugsvorgänge an den Streckwerken verschiedener Spinnereimaschinen,,Forschungsberichte des Landes Nordrhein-Westfalen 97,,(auth.),1960,1,VS Verlag für Sozialwissenschaften,,46,0,German,,,,"978-3-663-03789-7,978-3-663-04978-4",,,,,,,10.1007/978-3-663-04978-4,,,,0,,,,,,,1,2604537,pdf,280a9f53649c889e092e8fc74a80d767,,,D:\\HDD4\\!genesis\\SPR_NEW_2013-12\\bok%3A978-3-663-04978-4.pdf,0,2000-01-01 01:00:00,2016-04-03 02:51:08,1141000/280a9f53649c889e092e8fc74a80d767-d.jpg,,
21253092,Die Fahrdynamik und das Arbeitsspiel gleisloser Erdbaugeräte als Kalkulationsgrundlagen für die Bodenförderung und ihre Kosten,,Forschungsberichte des Landes Nordrhein-Westfalen 695,,Dr.-Ing. Walter Herding (auth.),1960,1,VS Verlag für Sozialwissenschaften,,180 S.,0,German,,,,"978-3-663-03437-7,978-3-663-04626-4",,,,,,,10.1007/978-3-663-04626-4,,,,0,,,,,,,1,10595287,pdf,83185bac99bcf8233b6b1848a6d82ac9,,,D:\\HDD4\\!genesis\\SPR_NEW_2013-12\\bok%3A978-3-663-04626-4.pdf,0,2000-01-01 01:00:00,2016-04-03 02:51:08,1141000/83185bac99bcf8233b6b1848a6d82ac9-d.jpg,,
21253093,Systeme mit Nichtlinearen oder Gesteuerten Elementen / Systems with Non-Linear or Controllable Elements,,Nachrichtentechnische Fachberichte,,"W. Bader (auth.), Dipl.-Ing. J. Wosnik (eds.)",1960,1,Vieweg+Teubner Verlag,,"IV, 102 S.",0,German,,,,"978-3-663-03170-3,978-3-663-04359-1",,,,,,,10.1007/978-3-663-04359-1,,,,0,,,,,,,1,9643133,pdf,91d7b0110f7c6055ef54e444c739d4f1,,,D:\\HDD4\\!genesis\\SPR_NEW_2013-12\\bok%3A978-3-663-04359-1.pdf,0,2000-01-01 01:00:00,2016-04-03 02:51:08,1141000/91d7b0110f7c6055ef54e444c739d4f1-d.jpg,,
21253094,Beitrag zur Verbesserung der Arbeitswirksamkeit in Konstruktionsbüros,,Forschungsberichte des Landes Nordrhein-Westfalen 854,,"Prof. Dr.-Ing. Joseph Mathieu, Dipl.-Ing. Franz Hildebrandt (auth.)",1960,1,VS Verlag für Sozialwissenschaften,,66 S.,0,German,,,,"978-3-663-03544-2,978-3-663-04733-9",,,,,,,10.1007/978-3-663-04733-9,,,,0,,,,,,,1,4825068,pdf,ec4e87b2123b58215e5e9e94aadc10cd,,,D:\\HDD4\\!genesis\\SPR_NEW_2013-12\\bok%3A978-3-663-04733-9.pdf,0,2000-01-01 01:00:00,2016-04-03 02:51:08,1141000/ec4e87b2123b58215e5e9e94aadc10cd-d.jpg,,
21253095,Die Anwendung der Kälte in der Lebensmittelindustrie,,Handbuch der Kältetechnik 10,,"(auth.), H. Engerth, W. Fischer, J. Gutschmidt, W. Heimann, G. Kaess, E. Kallert, H. Kessler, J. Kuprianoff, K. F. Leopold, K. Linge, R. Plank, W. Tamm (eds.)",1960,1,Springer-Verlag Berlin Heidelberg,,710,0,German,,,,"978-3-642-86207-6,978-3-642-86206-9",,,,,,,10.1007/978-3-642-86206-9,,,,0,,,,,,,1,39022957,pdf,d20e087c747d8d5502782026ea0d55ce,,,D:\\HDD4\\!genesis\\SPR_NEW_2013-12\\bok%3A978-3-642-86206-9.pdf,0,2000-01-01 01:00:00,2016-04-03 02:51:08,1135000/d20e087c747d8d5502782026ea0d55ce-d.jpg,,
21253096,"Feuerfestkunde: Herstellung, Eigenschaften und Verwendung feuerfester Baustoffe",,,,"Friedrich Harders, Sigismund Kienow (auth.)",1960,1,Springer-Verlag Berlin Heidelberg,,999,0,German,,,,"978-3-662-11742-2,978-3-662-11741-5",,,,,,,10.1007/978-3-662-11741-5,,,,0,,,,,,,1,52012077,pdf,78019f22ec79ba886c89eb265feb1831,,,D:\\HDD4\\!genesis\\SPR_NEW_2013-12\\bok%3A978-3-662-11741-5.pdf,0,2000-01-01 01:00:00,2016-04-03 02:51:08,1136000/78019f22ec79ba886c89eb265feb1831-d.jpg,,
21253097,I. Die Versuchskokerei des Steinkohlenbergbauvereins II. Der Einfluß der Heizzugtemperatur auf die Hochtemperaturverkokung im Horizontalkammerofen bei Schüttbetrieb,,Forschungsberichte des Landes Nordrhein-Westfalen 1218,,"Prof. Dr.-Ing. Dr. rer. nat. h. c. Wilhelm Reerink, Dr. rer. nat. Kurt-Günther Beck, Dr.-Ing. Wilhelm Weskamp (auth.)",1963,1,VS Verlag für Sozialwissenschaften,,110,0,German,,,,"978-3-663-06142-7,978-3-663-07055-9",,,,,,,10.1007/978-3-663-07055-9,,,,0,,,,,,,1,3250194,pdf,6f8c8d153265944238a7ca152be39dd8,,,D:\\HDD4\\!genesis\\SPR_NEW_2013-12\\bok%3A978-3-663-07055-9.pdf,0,2000-01-01 01:00:00,2016-04-03 02:51:08,1141000/6f8c8d153265944238a7ca152be39dd8-d.jpg,,
21253098,Werkstoffgemäße Dimensionierungs-Größen für den Entwurf von Bauteilen aus kunstharzgebundenen Glasfasern: Teil I und II,,Forschungsberichte des Landes Nordrhein-Westfalen 1253,,"Dipl.-Ing. Alfred Puck, Dipl.-Ing. Horst Wurtinger (auth.)",1963,1,VS Verlag für Sozialwissenschaften,,149,0,German,,,,"978-3-663-06698-9,978-3-663-07611-7",,,,,,,10.1007/978-3-663-07611-7,,,,0,,,,,,,1,3563874,pdf,5c91ae44e3af0788768292ca1e3d3200,,,D:\\HDD4\\!genesis\\SPR_NEW_2013-12\\bok%3A978-3-663-07611-7.pdf,0,2000-01-01 01:00:00,2016-04-03 02:51:08,1141000/5c91ae44e3af0788768292ca1e3d3200-d.jpg,,
21253099,Das Herstellen von Außenborden an Blechteilen zwischen Stempel und Ring,,Forschungsberichte des Landes Nordrhein-Westfalen,,"Prof. Dr.-Ing., Dr.-Ing. E. h. Otto Kienzle, Dr.-Ing. Kurt Haverbeck (auth.)",1963,1,VS Verlag für Sozialwissenschaften,,102 S.,0,German,,,,"978-3-663-06010-9,978-3-663-06923-2",,,,,,,10.1007/978-3-663-06923-2,,,,0,,,,,,,1,3195277,pdf,decc668b0dc1c7e94fa6af5be08ee2ad,,,D:\\HDD4\\!genesis\\SPR_NEW_2013-12\\bok%3A978-3-663-06923-2.pdf,0,2000-01-01 01:00:00,2016-04-03 02:51:08,1141000/decc668b0dc1c7e94fa6af5be08ee2ad-d.jpg,,
21253100,Elektrische Maschinen: Zweiter Band: Synchronmaschinen und Einankerumformer,,,,"Dr.-Ing. Rudolf Richter, Dr.-Ing. Robert Brüderlink (auth.)",1963,3,Springer Basel,,737,0,German,,,,"978-3-0348-4065-1,978-3-0348-4139-9",,,,,,,10.1007/978-3-0348-4139-9,,,,0,,,,,,,1,29936074,pdf,e54781db7dcfd572e4c39f3be88626e1,,,D:\\HDD4\\!genesis\\SPR_NEW_2013-12\\bok%3A978-3-0348-4139-9.pdf,0,2000-01-01 01:00:00,2016-04-03 02:51:08,1130000/e54781db7dcfd572e4c39f3be88626e1-d.jpg,,
21253101,Die Drehmaschinen: Drehbänke und verwandte Werkzeugmaschinen. Grundlagen · Bauteile · Bauarten,,,,Dr.-Ing. Carl Heinz Stau (auth.),1963,1,Springer-Verlag Berlin Heidelberg,,299,0,German,,,,"978-3-662-01097-6,978-3-662-01096-9",,,,,,,10.1007/978-3-662-01096-9,,,,0,,,,,,,1,19841852,pdf,2cdc52332ab116ec60bb4e80a2223c28,,,D:\\HDD4\\!genesis\\SPR_NEW_2013-12\\bok%3A978-3-662-01096-9.pdf,0,2000-01-01 01:00:00,2016-04-03 02:51:08,1136000/2cdc52332ab116ec60bb4e80a2223c28-d.jpg,,
21253102,Untersuchung an Meßsteuerungen,,Forschungsberichte des Landes Nordrhein-Westfalen 1148,,"Prof. Dr.-Ing. Dr. h. c. Herwart Opitz, Dozent Dr.-Ing. Janez Peklenik (auth.)",1963,1,VS Verlag für Sozialwissenschaften,,111 S.,0,German,,,,"978-3-663-06448-0,978-3-663-07361-1",,,,,,,10.1007/978-3-663-07361-1,,,,0,,,,,,,1,3731315,pdf,571d814dd910c50294b98538eb313882,,,D:\\HDD4\\!genesis\\SPR_NEW_2013-12\\bok%3A978-3-663-07361-1.pdf,0,2000-01-01 01:00:00,2016-04-03 02:51:08,1141000/571d814dd910c50294b98538eb313882-d.jpg,,
21253103,Enzyklopädische Abhandlung über ausgeführte Strahltriebwerke,,Forschungsberichte des Landes Nordrhein-Westfalen 1128,,"Prof. Dr.-Ing. Karl Leist, Dipl.-Ing. Hans Georg Wiening (auth.)",1963,1,VS Verlag für Sozialwissenschaften,,632 S.,0,German,,,,"978-3-663-06288-2,978-3-663-07201-0",,,,,,,10.1007/978-3-663-07201-0,,,,0,,,,,,,1,32762585,pdf,6bcbed2b60f7e4adb86ddbd803ccaf63,,,D:\\HDD4\\!genesis\\SPR_NEW_2013-12\\bok%3A978-3-663-07201-0.pdf,0,2000-01-01 01:00:00,2016-04-03 02:51:08,1141000/6bcbed2b60f7e4adb86ddbd803ccaf63-d.jpg,,
21253104,"Grundlagen, Verbindungen, Lager, Wellen und Zubehör",,,,Dr.-Ing. Gustav Niemann (auth.),1963,6,Springer-Verlag Berlin Heidelberg,,318,0,German,,,,"978-3-662-26967-1,978-3-662-28444-5",,,,,,,10.1007/978-3-662-28444-5,,,,0,,,,,,,1,26139024,pdf,44ea2be14af28be7ade7e8253339704a,,,D:\\HDD4\\!genesis\\SPR_NEW_2013-12\\bok%3A978-3-662-28444-5.pdf,0,2000-01-01 01:00:00,2016-04-03 02:51:08,1137000/44ea2be14af28be7ade7e8253339704a-d.jpg,,
21253105,Föttinger-Kupplungen und Föttinger-Getriebe: Konstruktion und Berechnung,,Konstruktionsbücher 21,,Dipl.-Ing. Ernst Kickbusch (auth.),1963,1,Springer-Verlag Berlin Heidelberg,,235,0,German,,,,"978-3-642-52435-6,978-3-642-52434-9",,,,,,,10.1007/978-3-642-52434-9,,,,0,,,,,,,1,9745636,pdf,b1a3949e84ac566519d2a0ca8cf34f9f,,,D:\\HDD4\\!genesis\\SPR_NEW_2013-12\\bok%3A978-3-642-52434-9.pdf,0,2000-01-01 01:00:00,2016-04-03 02:51:08,1135000/b1a3949e84ac566519d2a0ca8cf34f9f-d.jpg,,
21253106,Untersuchungen über die Warmfestigkeit von Hartlötverbindungen,,Forschungsberichte des Landes Nordrhein-Westfalen 1083,,"Prof. Dr.-Ing. Franz Bollenrath, Ahmed Ali Salem El-Sabbagh (auth.)",1963,1,VS Verlag für Sozialwissenschaften,,87 S.,0,German,,,,"978-3-663-06566-1,978-3-663-07479-3",,,,,,,10.1007/978-3-663-07479-3,,,,0,,,,,,,1,2783271,pdf,db491f81a4c7b3a52e6960c56749f392,,,D:\\HDD4\\!genesis\\SPR_NEW_2013-12\\bok%3A978-3-663-07479-3.pdf,0,2000-01-01 01:00:00,2016-04-03 02:51:08,1141000/db491f81a4c7b3a52e6960c56749f392-d.jpg,,
21253107,Betriebswirtschaftslehre der industriellen Erzeugung,,Die Wirtschaftswissenschaften No. 8 = Lfg. 21,,Dr. Karl Wilhelm Hennig (auth.),1963,4,Gabler Verlag,,138,0,German,,,,"978-3-663-18766-0,978-3-663-19013-4",,,,,,,10.1007/978-3-663-19013-4,,,,0,,,,,,,1,7394589,pdf,bbe0b6fc0a8f7984e048a0699b049468,,,D:\\HDD4\\!genesis\\SPR_NEW_2013-12\\bok%3A978-3-663-19013-4.pdf,0,2000-01-01 01:00:00,2016-04-03 02:51:08,1143000/bbe0b6fc0a8f7984e048a0699b049468-d.jpg,,
21253108,Transistoren bei großer Aussteuerung,,Nachrichtentechnische Fachberichte 27,,"R. Wiesner (auth.), Dipl.-Ing. J. Wosnik (eds.)",1963,1,Vieweg+Teubner Verlag,,95,0,German,,,,"978-3-663-03173-4,978-3-663-04362-1",,,,,,,10.1007/978-3-663-04362-1,,,,0,,,,,,,1,9554408,pdf,2bce81e3837f6e37e93993aabc0ca012,,,D:\\HDD4\\!genesis\\SPR_NEW_2013-12\\bok%3A978-3-663-04362-1.pdf,0,2000-01-01 01:00:00,2016-04-03 02:51:08,1141000/2bce81e3837f6e37e93993aabc0ca012-d.jpg,,
21253109,H. Rietschels Lehrbuch der Heiz- und Lüftungstechnik,,,,"Dr.-Ing. Wilhelm Raiß, Dr.-Ing. F. Roedler (auth.)",1963,2,Springer-Verlag Berlin Heidelberg,,621,0,German,,,,"978-3-662-37405-4,978-3-662-38155-7",,,,,,,10.1007/978-3-662-38155-7,,,,0,,,,,,,1,47723718,pdf,9fd8657501cb7aeab6fdb188c1c46ba9,,,D:\\HDD4\\!genesis\\SPR_NEW_2013-12\\bok%3A978-3-662-38155-7.pdf,0,2000-01-01 01:00:00,2016-04-03 02:51:08,1139000/9fd8657501cb7aeab6fdb188c1c46ba9-d.jpg,,
21253110,Untersuchungen über Fasermischungen in der Bastfaserwergspinnerei,,Forschungsberichte des Landes Nordrhein-Westfalen 1333,,"Dipl.-Ing. Waldemar Rohs, Dipl.-Ing. Rudolf Otto (auth.)",1963,1,VS Verlag für Sozialwissenschaften,,40,0,German,,,,"978-3-663-06570-8,978-3-663-07483-0",,,,,,,10.1007/978-3-663-07483-0,,,,0,,,,,,,1,1606052,pdf,301f22072bb0c1db0b5b6c04b8721f57,,,D:\\HDD4\\!genesis\\SPR_NEW_2013-12\\bok%3A978-3-663-07483-0.pdf,0,2000-01-01 01:00:00,2016-04-03 02:51:08,1141000/301f22072bb0c1db0b5b6c04b8721f57-d.jpg,,
21253111,Verbesserung der Wirtschaftlichkeit und des Warenausfalls durch zusätzliche Befeuchtung der verarbeiteten Garne in der Leinen- und Halbleinenweberei,,Forschungsberichte des Landes Nordrhein-Westfalen 1167,,Text.-Ing. Hugo Griese (auth.),1962,1,VS Verlag für Sozialwissenschaften,,44,0,German,,,,"978-3-663-06594-4,978-3-663-07507-3",,,,,,,10.1007/978-3-663-07507-3,,,,0,,,,,,,1,1813850,pdf,4bfcf3dd11345a7189c0b25d1292d244,,,D:\\HDD4\\!genesis\\SPR_NEW_2013-12\\bok%3A978-3-663-07507-3.pdf,0,2000-01-01 01:00:00,2016-04-03 02:51:08,1141000/4bfcf3dd11345a7189c0b25d1292d244-d.jpg,,
21253112,Die Kinetik der Wirkung von Effektoren auf Stationäre Fermentsysteme,,,,Hans-Dieter Ohlenbusch (auth.),1962,1,Springer-Verlag Berlin Heidelberg,,41,0,German,,,,"978-3-540-02892-5,978-3-642-86290-8",,,,,,,10.1007/978-3-642-86290-8,,,,0,,,,,,,1,1505681,pdf,cd082e401fb42dda704805cfaacfb860,,,D:\\HDD4\\!genesis\\SPR_NEW_2013-12\\bok%3A978-3-642-86290-8.pdf,0,2000-01-01 01:00:00,2016-04-03 02:51:08,1135000/cd082e401fb42dda704805cfaacfb860-d.jpg,,
21253113,"Forschung und Prüfung: 75 Jahre Physikalisch-Technische, Bundesanstalt/Reichsanstalt",,,,"H. Moser (auth.), H. Moser (eds.)",1962,1,Vieweg+Teubner Verlag,,195,0,German,,,,"978-3-663-15425-9,978-3-663-15996-4",,,,,,,10.1007/978-3-663-15996-4,,,,0,,,,,,,1,5232567,pdf,6021ad7997c2a315f739e8b35a48f677,,,D:\\HDD4\\!genesis\\SPR_NEW_2013-12\\bok%3A978-3-663-15996-4.pdf,0,2000-01-01 01:00:00,2016-04-03 02:51:08,1142000/6021ad7997c2a315f739e8b35a48f677-d.jpg,,
21253114,Handbuch des Wasserbaues: Zweiter Band,,,,Dipl.-Ing. Dr. techn. Dr.-Ing. H. C. Armin Schoklitsch (auth.),1962,3,Springer-Verlag Wien,,603,0,German,,,,"978-3-7091-8089-1,978-3-7091-8088-4",,,,,,,10.1007/978-3-7091-8088-4,,,,0,,,,,,,1,50682318,pdf,e19259c909ffae8b59dd000f4f7847f6,,,D:\\HDD4\\!genesis\\SPR_NEW_2013-12\\bok%3A978-3-7091-8088-4.pdf,0,2000-01-01 01:00:00,2016-04-03 02:51:08,1143000/e19259c909ffae8b59dd000f4f7847f6-d.jpg,,
21253115,Beitrag zur Verschleißbeurteilung beim Schneiden von Stahlfeinblechen,,Forschungsberichte des Landes Nordrhein-Westfalen 1091,,Dr.-Ing. Kurt Buchmann (auth.),1962,1,VS Verlag für Sozialwissenschaften,,129,0,German,,,,"978-3-663-06213-4,978-3-663-07126-6",,,,,,,10.1007/978-3-663-07126-6,,,,0,,,,,,,1,10733665,pdf,6531cdba1b6cb2ca947d90c1e4817a6e,,,D:\\HDD4\\!genesis\\SPR_NEW_2013-12\\bok%3A978-3-663-07126-6.pdf,0,2000-01-01 01:00:00,2016-04-03 02:51:08,1141000/6531cdba1b6cb2ca947d90c1e4817a6e-d.jpg,,
21253116,Die Edelstähle,,,,Franz Rapatz (auth.),1962,5,Springer-Verlag Berlin Heidelberg,,1047,0,German,,,,"978-3-642-86236-6,978-3-642-86235-9",,,,,,,10.1007/978-3-642-86235-9,,,,0,,,,,,,1,51726513,pdf,81ec8193e975315c96a9a34565734910,,,D:\\HDD4\\!genesis\\SPR_NEW_2013-12\\bok%3A978-3-642-86235-9.pdf,0,2000-01-01 01:00:00,2016-04-03 02:51:08,1135000/81ec8193e975315c96a9a34565734910-d.jpg,,
21253117,Die Lehre vom Kraftwerksbau,,Große Dampfkraftwerke,,Karl Schröder (auth.),1962,1,Springer-Verlag Berlin Heidelberg,,755,0,German,,,,"978-3-662-23627-7,978-3-662-25706-7",,,,,,,10.1007/978-3-662-25706-7,,,,0,,,,,,,1,26736833,pdf,044eb0112abb0a0b62c6a0db7bfec55c,,,D:\\HDD4\\!genesis\\SPR_NEW_2013-12\\bok%3A978-3-662-25706-7.pdf,0,2000-01-01 01:00:00,2016-04-03 02:51:08,1137000/044eb0112abb0a0b62c6a0db7bfec55c-d.jpg,,
21253118,Die Talsperren Österreichs: Statistik 1961,,„Statistik der Österreichischen Talsperren“ 12,,Helmut Simmler (auth.),1962,1,Springer-Verlag Wien,,183,0,German,,,,"978-3-7091-5547-9,978-3-7091-5546-2",,,,,,,10.1007/978-3-7091-5546-2,,,,0,,,,,,,1,6434336,pdf,a3a5ad410879071994f9bb618f73f94d,,,D:\\HDD4\\!genesis\\SPR_NEW_2013-12\\bok%3A978-3-7091-5546-2.pdf,0,2000-01-01 01:00:00,2016-04-03 02:51:08,1143000/a3a5ad410879071994f9bb618f73f94d-d.jpg,,
21253119,Blei und Bleilegierungen: Metallkunde und Technologie,,Reine und angewandte Metallkunde in Einzeldarstellungen 6,,Dr.-Ing. habil. Wilhelm Hofmann (auth.),1962,2,Springer-Verlag Berlin Heidelberg,,529,0,German,,,,"978-3-642-49119-1,978-3-642-85809-3",,,,,,,10.1007/978-3-642-85809-3,,,,0,,,,,,,1,22583569,pdf,5cf8bb30eb943ba4e42e4a860e2cf33f,,,D:\\HDD4\\!genesis\\SPR_NEW_2013-12\\bok%3A978-3-642-85809-3.pdf,0,2000-01-01 01:00:00,2016-04-03 02:51:08,1135000/5cf8bb30eb943ba4e42e4a860e2cf33f-d.jpg,,
21253120,Untersuchungen über die Verschlackung von Schamotte-Pfannensteinen,,Forschungsberichte des Landes Nordrhein-Westfalen 1299,,"Prof. Dr.-phil. nat. habil. Hans-Ernst Schwiete, Dr.-Ing. Helmut Neises (auth.)",1964,1,VS Verlag für Sozialwissenschaften,,131,0,German,,,,"978-3-663-06565-4,978-3-663-07478-6",,,,,,,10.1007/978-3-663-07478-6,,,,0,,,,,,,1,4492434,pdf,d15f3a20e2d4f88b0beefb0dbafd3259,,,D:\\HDD4\\!genesis\\SPR_NEW_2013-12\\bok%3A978-3-663-07478-6.pdf,0,2000-01-01 01:00:00,2016-04-03 02:51:08,1141000/d15f3a20e2d4f88b0beefb0dbafd3259-d.jpg,,
21253121,Beitrag zur Arbeitsweise von Sandslingern,,Forschungsberichte des Landes Nordrhein-Westfalen 1309,,Oberbaurat Dipl.-Ing. Waldermar Gesell (auth.),1964,1,VS Verlag für Sozialwissenschaften,,151,0,German,,,,"978-3-663-06200-4,978-3-663-07113-6",,,,,,,10.1007/978-3-663-07113-6,,,,0,,,,,,,1,5081030,pdf,383c4e59697ff8b11a33708c636c0eb4,,,D:\\HDD4\\!genesis\\SPR_NEW_2013-12\\bok%3A978-3-663-07113-6.pdf,0,2000-01-01 01:00:00,2016-04-03 02:51:08,1141000/383c4e59697ff8b11a33708c636c0eb4-d.jpg,,
21253122,Chemisch-technische Grundlage der Aufbereitung von kunststoffhaltigem Altpapier: Teil A und B,,Forschungsberichte des Landes Nordrhein-Westfalen,,Dipl.-Ing. Heinz Mack (auth.),1964,1,VS Verlag für Sozialwissenschaften,,58,0,German,,,,"978-3-663-20012-3,978-3-663-20366-7",,,,,,,10.1007/978-3-663-20366-7,,,,0,,,,,,,1,1484193,pdf,a315244f2ff3b0fb5038c01247bee069,,,D:\\HDD4\\!genesis\\SPR_NEW_2013-12\\bok%3A978-3-663-20366-7.pdf,0,2000-01-01 01:00:00,2016-04-03 02:51:08,1143000/a315244f2ff3b0fb5038c01247bee069-d.jpg,,
21253123,Vakuum-Metallurgie auf dem Gebiet der Nichteisen-Metalle. Anwendung der Vakuumbehandlung bei der Stahlerzeugung,,Arbeitsgemeinschaft für Forschung des Landes Nordrhein-Westfalen 126,,"Helmut Winterhager, Rudolf Spolders (auth.)",1964,1,VS Verlag für Sozialwissenschaften,,116 S.,0,German,,,,"978-3-663-01066-1,978-3-663-02979-3",,,,,,,10.1007/978-3-663-02979-3,,,,0,,,,,,,1,7000806,pdf,1512bb031743748022c4808b1ea8ffa9,,,D:\\HDD4\\!genesis\\SPR_NEW_2013-12\\bok%3A978-3-663-02979-3.pdf,0,2000-01-01 01:00:00,2016-04-03 02:51:08,1141000/1512bb031743748022c4808b1ea8ffa9-d.jpg,,
21253124,Stollen- und Tunnelbau: Eine Einführung in die Praxis des modernen Felshohlbaues,,,,Dipl.-Ing. Dr. techn. Walter Zanoskar (auth.),1964,2,Springer-Verlag Wien,,"XII, 306 S. 122 Abb.",0,German,,,,"978-3-7091-8117-1,978-3-7091-8116-4",,,,,,,10.1007/978-3-7091-8116-4,,,,0,,,,,,,1,18201717,pdf,e1721ea13fdd9828755530a1ab95fed1,,,D:\\HDD4\\!genesis\\SPR_NEW_2013-12\\bok%3A978-3-7091-8116-4.pdf,0,2000-01-01 01:00:00,2016-04-03 02:51:08,1143000/e1721ea13fdd9828755530a1ab95fed1-d.jpg,,
21253125,Stanztechnik: Dritter Teil: Grundsätze für den Aufbau der Schnittwerkzeuge,,"Werkstattbücher für Betriebsfachleute, Konstrukteure und Studierende 59",,Dipl.-Ing. Erich Krabbe (auth.),1965,2,Springer-Verlag Berlin Heidelberg,,68,0,German,,,,"978-3-662-23593-5,978-3-662-25672-5",,,,,,,10.1007/978-3-662-25672-5,,,,0,,,,,,,1,4899538,pdf,bb19869d1b58b262192e6632728b4309,,,D:\\HDD4\\!genesis\\SPR_NEW_2013-12\\bok%3A978-3-662-25672-5.pdf,0,2000-01-01 01:00:00,2016-04-03 02:51:08,1137000/bb19869d1b58b262192e6632728b4309-d.jpg,,
21253126,Untersuchungen über die Herstellbarkeit und Eigenschaften einfacher Holzspan-Formteile insbesondere für den Möbelbau,,Forschungsberichte des Landes Nordrhein-Westfalen 1472,,"Dr.-Ing. Wilhelm Klauditz, Dr. rer. nat. Günther Stegmann, Obering. Wolfgang Kratz (auth.)",1965,1,VS Verlag für Sozialwissenschaften,,66 S.,0,German,,,,"978-3-663-06554-8,978-3-663-07467-0",,,,,,,10.1007/978-3-663-07467-0,,,,0,,,,,,,1,2245938,pdf,218eb80a236f2ef20bc9a01a19a71fae,,,D:\\HDD4\\!genesis\\SPR_NEW_2013-12\\bok%3A978-3-663-07467-0.pdf,0,2000-01-01 01:00:00,2016-04-03 02:51:08,1141000/218eb80a236f2ef20bc9a01a19a71fae-d.jpg,,
21253127,Betriebs-Handbuch BHR 64 für Pittler-Revolverdrehbänke,,,,(auth.),1965,8,Springer-Verlag Berlin Heidelberg,,302,0,German,,,,"978-3-642-92895-6,978-3-642-92894-9",,,,,,,10.1007/978-3-642-92894-9,,,,0,,,,,,,1,9700546,pdf,7f3123d31b9affee3ec8735ada3f040f,,,D:\\HDD4\\!genesis\\SPR_NEW_2013-12\\bok%3A978-3-642-92894-9.pdf,0,2000-01-01 01:00:00,2016-04-03 02:51:08,1135000/7f3123d31b9affee3ec8735ada3f040f-d.jpg,,
21253128,Der Einfluß des Blechwerkstoffes und der Verzinkungsbedingungen auf die Eigenschaften verzinkter Bleche und Bänder,,Forschungsberichte des Landes Nordrhein-Westfalen 1486,,Dr. rer. nat. Dietrich Horstmann (auth.),1965,1,VS Verlag für Sozialwissenschaften,,38,0,German,,,,"978-3-663-06037-6,978-3-663-06950-8",,,,,,,10.1007/978-3-663-06950-8,,,,0,,,,,,,1,1972509,pdf,6bbf0885f0157218203e4341d0a21e1c,,,D:\\HDD4\\!genesis\\SPR_NEW_2013-12\\bok%3A978-3-663-06950-8.pdf,0,2000-01-01 01:00:00,2016-04-03 02:51:08,1141000/6bbf0885f0157218203e4341d0a21e1c-d.jpg,,
21253129,Stanztechnik: Formstanzen,,Werkstattbücher,,Dr.-Ing. Walter Sellin (auth.),1965,3,Springer-Verlag Berlin Heidelberg,,69,0,German,,,,"978-3-662-42199-4,978-3-662-42468-1",,,,,,,10.1007/978-3-662-42468-1,,,,0,,,,,,,1,4033421,pdf,8d1ffec57c1279c477d55bd952ecd68c,,,D:\\HDD4\\!genesis\\SPR_NEW_2013-12\\bok%3A978-3-662-42468-1.pdf,0,2000-01-01 01:00:00,2016-04-03 02:51:08,1140000/8d1ffec57c1279c477d55bd952ecd68c-d.jpg,,
21253130,Neue Verfahren in der Technik der chemischen Veredlung der Textilfasern: Hilfsmittel in der Textilindustrie,,,,"Dr. Paul Fink, Dr. Louis Frossard (auth.)",1965,1,Springer Basel,,596,0,German,,,,"978-3-0348-4059-0,978-3-0348-4133-7",,,,,,,10.1007/978-3-0348-4133-7,,,,0,,,,,,,1,16967495,pdf,0441b173518e986f7aaf8450b12f5d5e,,,D:\\HDD4\\!genesis\\SPR_NEW_2013-12\\bok%3A978-3-0348-4133-7.pdf,0,2000-01-01 01:00:00,2016-04-03 02:51:08,1130000/0441b173518e986f7aaf8450b12f5d5e-d.jpg,,
21253131,"Untersuchungen über die Zusammenhänge zwischen der Dehnungsprüfung von Textilien am laufenden Faden und am fest eingespannten Prüfgut sowie über die Möglichkeiten des Vergleichens von Ergebnissen, die nach beiden Methoden gefunden wurden",,Forschungsberichte des Landes Nordrhein-Westfalen 1779,,"Obering. Herbert Stein, Dipl.-Phys. Siegfried Hobe (auth.)",1967,1,VS Verlag für Sozialwissenschaften,,53 S.,0,German,,,,"978-3-663-06567-8,978-3-663-07480-9",,,,,,,10.1007/978-3-663-07480-9,,,,0,,,,,,,1,1940927,pdf,e270d4c599de1e1c24bc8539977ae25d,,,D:\\HDD4\\!genesis\\SPR_NEW_2013-12\\bok%3A978-3-663-07480-9.pdf,0,2000-01-01 01:00:00,2016-04-03 02:51:08,1141000/e270d4c599de1e1c24bc8539977ae25d-d.jpg,,
21253132,Automation und Computer in der Industrie. Raumzuordnung und Raumform von Büro- und Fabrikgebäuden,,Arbeitsgemeinschaft für Forschung des Landes Nordrhein-Westfalen 170,,"John Flavell Coales, Ludwig Pack (auth.)",1967,1,VS Verlag für Sozialwissenschaften,,77,0,German,,,,"978-3-663-00418-9,978-3-663-02331-9",,,,,,,10.1007/978-3-663-02331-9,,,,0,,,,,,,1,2727865,pdf,cd0c69fa0eb5c0c18cba1251bd8f6f75,,,D:\\HDD4\\!genesis\\SPR_NEW_2013-12\\bok%3A978-3-663-02331-9.pdf,0,2000-01-01 01:00:00,2016-04-03 02:51:08,1140000/cd0c69fa0eb5c0c18cba1251bd8f6f75-d.jpg,,
21253133,Das Verhalten und der Verschleiß hochwertiger Schamottesteine im Hochofenschacht und Hochofenrast,,Forschungsberichte des Landes Nordrhein-Westfalen 1778,,"Prof. Dr.-Ing. Kamillo Konopicky, Gerald Routschka, Dr.-Ing. Hans Lehmann, Dr. rer. nat. Ingeborg Patzak (auth.)",1967,1,VS Verlag für Sozialwissenschaften,,98,0,German,,,,"978-3-663-06023-9,978-3-663-06936-2",,,,,,,10.1007/978-3-663-06936-2,,,,0,,,,,,,1,3559589,pdf,a54390ef5306d4f7572b7e9c12ce84d0,,,D:\\HDD4\\!genesis\\SPR_NEW_2013-12\\bok%3A978-3-663-06936-2.pdf,0,2000-01-01 01:00:00,2016-04-03 02:51:08,1141000/a54390ef5306d4f7572b7e9c12ce84d0-d.jpg,,
21253134,Beheizung von Horizontalkammeröfen bei der Steinkohlenverkokung mit Austauschgasen,,Forschungsberichte des Landes Nordrhein-Westfalen 1807,,"Dr. rer. nat. Kurt-Günther Beck, Dr.-Ing. Wilhelm Weskamp, Ing. Erich Schierholz (auth.)",1967,1,VS Verlag für Sozialwissenschaften,,73 S.,0,German,,,,"978-3-663-06193-9,978-3-663-07106-8",,,,,,,10.1007/978-3-663-07106-8,,,,0,,,,,,,1,2024340,pdf,cbcdece014c43724f9f92d3db4c26a36,,,D:\\HDD4\\!genesis\\SPR_NEW_2013-12\\bok%3A978-3-663-07106-8.pdf,0,2000-01-01 01:00:00,2016-04-03 02:51:08,1141000/cbcdece014c43724f9f92d3db4c26a36-d.jpg,,
21253135,Untersuchungen über die Fertigungsgenauigkeit beim Walzfräsen von Stirnrädern,,Forschungsberichte des Landes Nordrhein-Westfalen 1817,,"Prof. Dr.-Ing. Dr. h. c. Herwart Opitz, Dr.-Ing. Walter Eggert, Dipl.-Ing. Hans Ingo Faulstich (auth.)",1967,1,VS Verlag für Sozialwissenschaften,,85 S.,0,German,,,,"978-3-663-06549-4,978-3-663-07462-5",,,,,,,10.1007/978-3-663-07462-5,,,,0,,,,,,,1,2697981,pdf,ac291a23dc1da42f08b8232ff136d792,,,D:\\HDD4\\!genesis\\SPR_NEW_2013-12\\bok%3A978-3-663-07462-5.pdf,0,2000-01-01 01:00:00,2016-04-03 02:51:08,1141000/ac291a23dc1da42f08b8232ff136d792-d.jpg,,
21253136,Untersuchung der Verschleißreaktionen bei der Bearbeitung von Stahl mit Schnellarbeitsstahlwerkzeugen,,Forschungsberichte des Landes Nordrhein-Westfalen 1796,,"Prof. Dr.-Ing. Dr. h. c. Herwart Opitz, Dr.-Ing. Wolfgang Schilling (auth.)",1967,1,VS Verlag für Sozialwissenschaften,,103,0,German,,,,"978-3-663-06461-9,978-3-663-07374-1",,,,,,,10.1007/978-3-663-07374-1,,,,0,,,,,,,1,3705455,pdf,889c72b85f6caf4b4697f54c73f4d4bf,,,D:\\HDD4\\!genesis\\SPR_NEW_2013-12\\bok%3A978-3-663-07374-1.pdf,0,2000-01-01 01:00:00,2016-04-03 02:51:08,1141000/889c72b85f6caf4b4697f54c73f4d4bf-d.jpg,,
21253137,Plastomechanik der Umformung metallischer Werkstoffe: Erster Band,,,,"Dr. rer. nat. Horst Lippmann, Dr.-Ing. Oskar Mahrenholtz (auth.)",1967,1,Springer-Verlag Berlin Heidelberg,,417,0,German,,,,"978-3-642-87885-5,978-3-642-87884-8",,,,,,,10.1007/978-3-642-87884-8,,,,0,,,,,,,1,15648989,pdf,98ef53f5ae8bc97d398354a732cf88ca,,,D:\\HDD4\\!genesis\\SPR_NEW_2013-12\\bok%3A978-3-642-87884-8.pdf,0,2000-01-01 01:00:00,2016-04-03 02:51:08,1135000/98ef53f5ae8bc97d398354a732cf88ca-d.jpg,,
21253138,Beitrag zu den Grundlagen des Walzens in Streckkalibern,,Forschungsberichte des Landes Nordrhein-Westfalen 1775,,"Dr.-Ing. Oskar Pawelski, Dr.-Ing. Eberhard Neuschütz (auth.)",1967,1,VS Verlag für Sozialwissenschaften,,102,0,German,,,,"978-3-663-06194-6,978-3-663-07107-5",,,,,,,10.1007/978-3-663-07107-5,,,,0,,,,,,,1,3827830,pdf,41e84ffdc544a8dbf443b09cf2916d9d,,,D:\\HDD4\\!genesis\\SPR_NEW_2013-12\\bok%3A978-3-663-07107-5.pdf,0,2000-01-01 01:00:00,2016-04-03 02:51:08,1141000/41e84ffdc544a8dbf443b09cf2916d9d-d.jpg,,
21253139,Berechnung und Gestaltung von Wellen,,Konstruktionsbücher 10,,Dr.-Ing. F. Schmidt (auth.),1967,2,Springer-Verlag Berlin Heidelberg,,113,0,German,,,,"978-3-540-03890-0,978-3-662-21664-4",,,,,,,10.1007/978-3-662-21664-4,,,,0,,,,,,,1,5542066,pdf,a919cb9e3440903c327526ae6ba9da35,,,D:\\HDD4\\!genesis\\SPR_NEW_2013-12\\bok%3A978-3-662-21664-4.pdf,0,2000-01-01 01:00:00,2016-04-03 02:51:08,1136000/a919cb9e3440903c327526ae6ba9da35-d.jpg,,
21253140,Untersuchung günstiger Längen-Breitenverhältnisse für Flachwasserschiffe im unterkritischen Fahrbereich,,Forschungsberichte des Landes Nordrhein-Westfalen 1832,,"Prof. Dipl.-Ing. Wilbelm Sturtzel, Priv.-Doz. Dr.-Ing. Hermann Schmidt-Stiebitz (auth.)",1967,1,VS Verlag für Sozialwissenschaften,,50,0,German,,,,"978-3-663-06472-5,978-3-663-07385-7",,,,,,,10.1007/978-3-663-07385-7,,,,0,,,,,,,1,1265330,pdf,7bde43965b4548639c19c8c9a2f71dd0,,,D:\\HDD4\\!genesis\\SPR_NEW_2013-12\\bok%3A978-3-663-07385-7.pdf,0,2000-01-01 01:00:00,2016-04-03 02:51:08,1141000/7bde43965b4548639c19c8c9a2f71dd0-d.jpg,,
21253141,Verformungserscheinungen an der Oberfläche biegewechselbeanspruchter austenitischer Stahlproben bei Raumtemperatur,,Forschungsberichte des Landes Nordrhein-Westfalen,,Dr. phil. nat. Max Hempel (auth.),1967,1,VS Verlag für Sozialwissenschaften,,71,0,German,,,,"978-3-663-12798-7,978-3-663-14277-5",,,,,,,10.1007/978-3-663-14277-5,,,,0,,,,,,,1,3102258,pdf,2946faf003708f7e7c7b4c8edb222f40,,,D:\\HDD4\\!genesis\\SPR_NEW_2013-12\\bok%3A978-3-663-14277-5.pdf,0,2000-01-01 01:00:00,2016-04-03 02:51:08,1142000/2946faf003708f7e7c7b4c8edb222f40-d.jpg,,
21253142,Der Gegenstromwärmeaustausch in Wirbelbetten,,Forschungsberichte des Landes Nordrhein-Westfalen 1746,,"Dipl.-Phys. Franz-Rudolf Block, Prof. Dr.-Ing. Dr.-Ing. E. h. Hermann Schenck, Prof. Dr.-Ing. Werner Wenzel (auth.)",1967,1,VS Verlag für Sozialwissenschaften,,94,0,German,,,,"978-3-663-06043-7,978-3-663-06956-0",,,,,,,10.1007/978-3-663-06956-0,,,,0,,,,,,,1,2820251,pdf,6e5a069aa5a1805c1dea9a43cca6df2d,,,D:\\HDD4\\!genesis\\SPR_NEW_2013-12\\bok%3A978-3-663-06956-0.pdf,0,2000-01-01 01:00:00,2016-04-03 02:51:08,1141000/6e5a069aa5a1805c1dea9a43cca6df2d-d.jpg,,
21253143,Untersuchung der Steifigkeit von Lagern für Hauptspindeln in Werkzeugmaschinen,,Forschungsberichte des Landes Nordrhein-Westfalen 1784,,"Prof. Dr.-Ing. Dr. h. c. Herwart Opitz, Dr.-Ing. Dietrich Günther, Dipl.-Ing. Heinrich Kunkel, Dipl.-Ing. Martin Hoffmann, Dipl.-Ing. Reinhard Böttcher (auth.)",1967,1,VS Verlag für Sozialwissenschaften,,104,0,German,,,,"978-3-663-06459-6,978-3-663-07372-7",,,,,,,10.1007/978-3-663-07372-7,,,,0,,,,,,,1,4509178,pdf,d1d8f7a20224f0cb18b5e4d7f929fbf8,,,D:\\HDD4\\!genesis\\SPR_NEW_2013-12\\bok%3A978-3-663-07372-7.pdf,0,2000-01-01 01:00:00,2016-04-03 02:51:08,1141000/d1d8f7a20224f0cb18b5e4d7f929fbf8-d.jpg,,
21253144,Beitrag zum Ultraschallpunktschweißen von Metallen,,Forschungsberichte des landes Nordrhein-Westfalen 1854,,"Prof. Dr.-Ing. Friedrich Eichhorn, Dipl.-Ing. Paul Drews (auth.)",1967,1,VS Verlag für Sozialwissenschaften,,80,0,German,,,,"978-3-663-06198-4,978-3-663-07111-2",,,,,,,10.1007/978-3-663-07111-2,,,,0,,,,,,,1,2867130,pdf,871f6e993117a1213672530020b3e158,,,D:\\HDD4\\!genesis\\SPR_NEW_2013-12\\bok%3A978-3-663-07111-2.pdf,0,2000-01-01 01:00:00,2016-04-03 02:51:08,1141000/871f6e993117a1213672530020b3e158-d.jpg,,
21253145,Untersuchung bei der Feinbearbeitung,,Forschungsberichte des Landes Nordrhein-Westfalen 1750,,"Prof. Dr.-Ing. Dr. h. c. Herwart Opitz, Dr.-Ing. Alfred Ledergerber, Dr.-Ing. Tschol-Hi Kang, Dipl.-Ing. Reinhard Derenthal (auth.)",1967,1,VS Verlag für Sozialwissenschaften,,63 S.,0,German,,,,"978-3-663-06449-7,978-3-663-07362-8",,,,,,,10.1007/978-3-663-07362-8,,,,0,,,,,,,1,2547098,pdf,ecb0fb74d373c0dcc2c3b31e26b17bd1,,,D:\\HDD4\\!genesis\\SPR_NEW_2013-12\\bok%3A978-3-663-07362-8.pdf,0,2000-01-01 01:00:00,2016-04-03 02:51:08,1141000/ecb0fb74d373c0dcc2c3b31e26b17bd1-d.jpg,,
21253146,Werkstoffe der Elektrotechnik: Physikalische Grundlagen der technischen Anwendungen,,,,"H. P. J. Wijn, P. Dullenkopf (auth.)",1967,1,Springer-Verlag Berlin Heidelberg,,158,0,German,,,,"978-3-642-88698-0,978-3-642-88697-3",,,,,,,10.1007/978-3-642-88697-3,,,,0,,,,,,,1,6118356,pdf,5d9fbc142956950e20975195f58b8cc8,,,D:\\HDD4\\!genesis\\SPR_NEW_2013-12\\bok%3A978-3-642-88697-3.pdf,0,2000-01-01 01:00:00,2016-04-03 02:51:08,1135000/5d9fbc142956950e20975195f58b8cc8-d.jpg,,
21253147,I. Teil Resonanzfrequenzmessungen an in Wasser und aggressiven Lösungen gelagerten Mörtelprismen. II. Teil Der Einfluß der Porosität auf die Aggressivbeständigkeit von Zementmörtelprismen,,Forschungsberichte des Landes Nordrhein-Westfalen 1720,,"Prof. Dr. phil. nat. habil. Hans-Ernst Schwiete, Dr.-Ing. Udo Ludwig, Dr.-Ing. Hans-Peter Lühr (auth.)",1967,1,VS Verlag für Sozialwissenschaften,,242 S.,0,German,,,,"978-3-663-06671-2,978-3-663-07584-4",,,,,,,10.1007/978-3-663-07584-4,,,,0,,,,,,,1,10420109,pdf,699c5b9f283fa038d46a4e12edb45c40,,,D:\\HDD4\\!genesis\\SPR_NEW_2013-12\\bok%3A978-3-663-07584-4.pdf,0,2000-01-01 01:00:00,2016-04-03 02:51:08,1141000/699c5b9f283fa038d46a4e12edb45c40-d.jpg,,
21253148,Der Wissenschaftliche Dokumentationsfilm und die Encyclopaedia Cinematographica,,Der Wissenschaftliche Film,,Prof. Dr.-Ing. Gotthard Wolf (auth.),1967,1,Springer-Verlag Berlin Heidelberg,,214,0,German,,,,"978-3-662-01577-3,978-3-662-01576-6",,,,,,,10.1007/978-3-662-01576-6,,,,0,,,,,,,1,7415345,pdf,685f916b7ca0cb6daf0a30e9ee9dd560,,,D:\\HDD4\\!genesis\\SPR_NEW_2013-12\\bok%3A978-3-662-01576-6.pdf,0,2000-01-01 01:00:00,2016-04-03 02:51:08,1136000/685f916b7ca0cb6daf0a30e9ee9dd560-d.jpg,,
21253149,"Umwandlungen in warmfesten Stählen, Versuch einer Gleichgewichtsdarstellung der Karbidphasen",,Forschungsberichte des Landes Nordrhein-Westfalen 1819,,"Prof. Dr. phil. Adolf Rose, Dr.-Ing. Leo Rademacher (auth.)",1967,1,VS Verlag für Sozialwissenschaften,,142,0,German,,,,"978-3-663-06447-3,978-3-663-07360-4",,,,,,,10.1007/978-3-663-07360-4,,,,0,,,,,,,1,6091960,pdf,945f103bccf668d75d4bcc1eac943457,,,D:\\HDD4\\!genesis\\SPR_NEW_2013-12\\bok%3A978-3-663-07360-4.pdf,0,2000-01-01 01:00:00,2016-04-03 02:51:08,1141000/945f103bccf668d75d4bcc1eac943457-d.jpg,,
21253150,Untersuchungen über die technische Ausnutzung von Werkzeugmaschinen und Ermittlung von Werkstückcharakteristiken zur Auslegung und Auswahl von Werkzeugmaschinen,,Forschungsberichte des Landes Nordrhein-Westfalen 1770,,"Prof. Dr.-Ing. Dr. h. c. Herwart Opitz, Priv.-Doz. Dr.-Ing. Jobst Herrmann, Dr.-Ing. Walter Eversheim (auth.)",1966,1,VS Verlag für Sozialwissenschaften,,66,0,German,,,,"978-3-663-06564-7,978-3-663-07477-9",,,,,,,10.1007/978-3-663-07477-9,,,,0,,,,,,,1,2416942,pdf,c36bea1c2a5f7782532749320e702498,,,D:\\HDD4\\!genesis\\SPR_NEW_2013-12\\bok%3A978-3-663-07477-9.pdf,0,2000-01-01 01:00:00,2016-04-03 02:51:08,1141000/c36bea1c2a5f7782532749320e702498-d.jpg,,
21253151,Versuche zur Erhöhung der Feuerstandfestigkeit sowie zur Bestimmung der zulässigen Gewichtsbelastung der Ziegel beim Brand,,Forschungsberichte des Landes Nordrhein-Westfalen 1692,,Obering. Gerhard Piltz (auth.),1966,1,VS Verlag für Sozialwissenschaften,,58 S.,0,German,,,,"978-3-663-06610-1,978-3-663-07523-3",,,,,,,10.1007/978-3-663-07523-3,,,,0,,,,,,,1,1693447,pdf,9e6cf6f3672a10a9f5daf28b469d07ac,,,D:\\HDD4\\!genesis\\SPR_NEW_2013-12\\bok%3A978-3-663-07523-3.pdf,0,2000-01-01 01:00:00,2016-04-03 02:51:08,1141000/9e6cf6f3672a10a9f5daf28b469d07ac-d.jpg,,
21253152,Die »gerichtete Erstarrung« als Voraussetzung zur Herstellung dichter Gußstücke,,Forschungsberichte des Landes Nordrhein-Westfalen 1615,,"Prof. Dr.-Ing. Wilhelm Patterson, Dozent Dr.-Ing. Siegfried Engler (auth.)",1966,1,VS Verlag für Sozialwissenschaften,,41,0,German,,,,"978-3-663-06058-1,978-3-663-06971-3",,,,,,,10.1007/978-3-663-06971-3,,,,0,,,,,,,1,1700046,pdf,43518374d54132728faa82cb2a4660f7,,,D:\\HDD4\\!genesis\\SPR_NEW_2013-12\\bok%3A978-3-663-06971-3.pdf,0,2000-01-01 01:00:00,2016-04-03 02:51:08,1141000/43518374d54132728faa82cb2a4660f7-d.jpg,,
21253153,Einführung in den Wärme- und Stoffaustausch,,,,Dr.-Ing. habil. Ernst R. G. Eckert (auth.),1966,3,Springer-Verlag Berlin Heidelberg,,325,0,German,,,,"978-3-642-86494-0,978-3-642-86493-3",,,,,,,10.1007/978-3-642-86493-3,,,,0,,,,,,,1,16362187,pdf,f7caa3e8696d873c5c276621890694f1,,,D:\\HDD4\\!genesis\\SPR_NEW_2013-12\\bok%3A978-3-642-86493-3.pdf,0,2000-01-01 01:00:00,2016-04-03 02:51:08,1135000/f7caa3e8696d873c5c276621890694f1-d.jpg,,
21253154,Über die Metallgehalte in den Schlacken des Bleischachtofenprozesses und ihr Verhalten im elektrischen Feld,,Forschungsberichte des Landes Nordrhein-Westfalen 1753,,"Prof. Dr.-Ing. Helmut Winterhager, Dr.-Ing. Roland Kammel (auth.)",1966,1,VS Verlag für Sozialwissenschaften,,55,0,German,,,,"978-3-663-06436-7,978-3-663-07349-9",,,,,,,10.1007/978-3-663-07349-9,,,,0,,,,,,,1,2526892,pdf,433905bea94f131b8d61a94b17b7f438,,,D:\\HDD4\\!genesis\\SPR_NEW_2013-12\\bok%3A978-3-663-07349-9.pdf,0,2000-01-01 01:00:00,2016-04-03 02:51:08,1141000/433905bea94f131b8d61a94b17b7f438-d.jpg,,
21253155,Die Faltvorbereitung von ein- und mehrlagigen Vollpappen und die Rillung von Wellpappen,,Forschungsberichte des Landes Nordrhein-Westfalen 1679,,Dr.-Ing. habil. Hans Klingelhöffer (auth.),1966,1,VS Verlag für Sozialwissenschaften,,44,0,German,,,,"978-3-663-06092-5,978-3-663-07005-4",,,,,,,10.1007/978-3-663-07005-4,,,,0,,,,,,,1,1940048,pdf,c02930efe92133c485d0c99d66b26b67,,,D:\\HDD4\\!genesis\\SPR_NEW_2013-12\\bok%3A978-3-663-07005-4.pdf,0,2000-01-01 01:00:00,2016-04-03 02:51:08,1141000/c02930efe92133c485d0c99d66b26b67-d.jpg,,
21253156,Untersuchungen zum Buckelschweißen von Stahlblechen unter Verwendung verschiedener Buckeltypen,,Forschungsberichte des Landes Nordrhein-Westfalen 1526,,"Prof. Dr.-Ing. Alfred H. Henning, Prof. Dr.-Ing. habil. Karl Krekeler, Dipl.-Ing. Alfried Meyer (auth.)",1966,1,VS Verlag für Sozialwissenschaften,,51,0,German,,,,"978-3-663-06573-9,978-3-663-07486-1",,,,,,,10.1007/978-3-663-07486-1,,,,0,,,,,,,1,2230275,pdf,7aca7f32e74297fe2c2a268a633d7ce8,,,D:\\HDD4\\!genesis\\SPR_NEW_2013-12\\bok%3A978-3-663-07486-1.pdf,0,2000-01-01 01:00:00,2016-04-03 02:51:08,1141000/7aca7f32e74297fe2c2a268a633d7ce8-d.jpg,,
21253157,Gestaltung gezogener Blechteile,,Konstruktionsbücher 11,,Dr.-Ing. habil. Gerhard Oehler (auth.),1966,2,Springer-Verlag Berlin Heidelberg,,157,0,German,,,,"978-3-540-03586-2,978-3-642-94968-5",,,,,,,10.1007/978-3-642-94968-5,,,,0,,,,,,,1,10296988,pdf,5d2eaa2c5f501a9e2327e69b409b3080,,,D:\\HDD4\\!genesis\\SPR_NEW_2013-12\\bok%3A978-3-642-94968-5.pdf,0,2000-01-01 01:00:00,2016-04-03 02:51:08,1135000/5d2eaa2c5f501a9e2327e69b409b3080-d.jpg,,
21253158,Untersuchungen über den Einsatz von Hartmetallen beim Schrupp- und Schlichtfräsen von Stahl mit Messerköpfen,,Forschungsberichte des Landes Nordrhein-Westfalen 1676,,"Prof. Dr.-Ing. Dr. h. c. Herwart Opitz, Dr.-Ing. Wilfried Lehwald, Dipl.-Ing. Wolf-Dieter Neumann (auth.)",1966,1,VS Verlag für Sozialwissenschaften,,67,0,German,,,,"978-3-663-06535-7,978-3-663-07448-9",,,,,,,10.1007/978-3-663-07448-9,,,,0,,,,,,,1,2264948,pdf,94065b708b4be0a57bd227fcf4ebce99,,,D:\\HDD4\\!genesis\\SPR_NEW_2013-12\\bok%3A978-3-663-07448-9.pdf,0,2000-01-01 01:00:00,2016-04-03 02:51:08,1141000/94065b708b4be0a57bd227fcf4ebce99-d.jpg,,
21253159,"Der Durchmesser, ein Merkmal der Garnungleichmäßigkeit, und seine Auswirkung auf das Gewebeaussehen",,Forschungsberichte des Landes Nordrhein-Westfalen 1651,,"Prof. Dr.-Ing. Dr.-Ing. E. h. Walther Wegener, Dr.-Ing. Gerhard Egbers (auth.)",1966,1,VS Verlag für Sozialwissenschaften,,79,0,German,,,,"978-3-663-06029-1,978-3-663-06942-3",,,,,,,10.1007/978-3-663-06942-3,,,,0,,,,,,,1,3100153,pdf,d8401d0ea66e4ae06be6d66076bd70b5,,,D:\\HDD4\\!genesis\\SPR_NEW_2013-12\\bok%3A978-3-663-06942-3.pdf,0,2000-01-01 01:00:00,2016-04-03 02:51:08,1141000/d8401d0ea66e4ae06be6d66076bd70b5-d.jpg,,
21253160,Untersuchung des Festigkeits- und Verschleißverhaltens von Polyamidzahnrädern zur Schaffung von Berechnungs- und Konstruktionsunterlagen,,Forschungsberichte des Landes Nordrhein-Westfalen 1769,,"Prof. Dr.-Ing. Alfred H. Henning, Dipl.-Ing. Siegfried Joisten (auth.)",1966,1,VS Verlag für Sozialwissenschaften,,89,0,German,,,,"978-3-663-06469-5,978-3-663-07382-6",,,,,,,10.1007/978-3-663-07382-6,,,,0,,,,,,,1,2368342,pdf,bb70d2be1fc0414d449058fad429b460,,,D:\\HDD4\\!genesis\\SPR_NEW_2013-12\\bok%3A978-3-663-07382-6.pdf,0,2000-01-01 01:00:00,2016-04-03 02:51:08,1141000/bb70d2be1fc0414d449058fad429b460-d.jpg,,
21253161,Der Überschall-Luftverkehr: Grundlangen der Technik und des Betriebes von Überschall-Verkehrsflugzeugen für den gewerblichen Luftverkehr,,Forschungsberichte des Landes Nordrhein-Westfalen,,"Prof. Dr.-Ing. Edgar Rößger, Dipl.-Ing. Günther Sögtrop (auth.)",1966,1,VS Verlag für Sozialwissenschaften,,123,0,German,,,,"978-3-663-19972-4,978-3-663-20320-9",,,,,,,10.1007/978-3-663-20320-9,,,,0,,,,,,,1,3571980,pdf,a99080903d24a1dfe21b0e0ad699bb0a,,,D:\\HDD4\\!genesis\\SPR_NEW_2013-12\\bok%3A978-3-663-20320-9.pdf,0,2000-01-01 01:00:00,2016-04-03 02:51:08,1143000/a99080903d24a1dfe21b0e0ad699bb0a-d.jpg,,
21253162,Zusammenwirken von Schraubenbetätigungswerkzeugen und Schrauben,,Forschungsberichte des Landes Nordrhein-Westfalen 1607,,"Dr.-Ing. Eginhard Barz, Ing. Karl Oberwinter (auth.)",1966,1,VS Verlag für Sozialwissenschaften,,84,0,German,,,,"978-3-663-06720-7,978-3-663-07633-9",,,,,,,10.1007/978-3-663-07633-9,,,,0,,,,,,,1,3474939,pdf,fc44fe10004ad4816f6d6b14539e9e3e,,,D:\\HDD4\\!genesis\\SPR_NEW_2013-12\\bok%3A978-3-663-07633-9.pdf,0,2000-01-01 01:00:00,2016-04-03 02:51:08,1141000/fc44fe10004ad4816f6d6b14539e9e3e-d.jpg,,
21253163,Untersuchungen über die Auslaufgefährlichkeit von Flözen der steilen Lagerung innerhalb des Rheinisch-Westfälischen Steinkohlenbezirks,,Forschungsberichte des Landes Nordrhein-Westfalen 1671,,Dipl.-Ing. Werner Dürrfeld (auth.),1966,1,VS Verlag für Sozialwissenschaften,,141 S.,0,German,,,,"978-3-663-06544-9,978-3-663-07457-1",,,,,,,10.1007/978-3-663-07457-1,,,,0,,,,,,,1,4156911,pdf,24b2b4e47ed102d07e5bb97c35dd71c8,,,D:\\HDD4\\!genesis\\SPR_NEW_2013-12\\bok%3A978-3-663-07457-1.pdf,0,2000-01-01 01:00:00,2016-04-03 02:51:08,1141000/24b2b4e47ed102d07e5bb97c35dd71c8-d.jpg,,
21253164,Untersuchungen an schneidenden Zangen,,Forschungsberichte des Landes Nordrhein-Westfalen 1632,,"Dr.-Ing. Eginhard Barz, Dipl-Ing. Ulrich Niemann (auth.)",1966,1,VS Verlag für Sozialwissenschaften,,88,0,German,,,,"978-3-663-06499-2,978-3-663-07412-0",,,,,,,10.1007/978-3-663-07412-0,,,,0,,,,,,,1,3119767,pdf,7715ef4204eb22588c62041a590d0832,,,D:\\HDD4\\!genesis\\SPR_NEW_2013-12\\bok%3A978-3-663-07412-0.pdf,0,2000-01-01 01:00:00,2016-04-03 02:51:08,1141000/7715ef4204eb22588c62041a590d0832-d.jpg,,
21253165,Automatisierung der Werkzeugmaschine für die spanabhebende Bearbeitung,,Forschungsberichte des Landes Nordrhein-Westfalen 1575,,"Prof. Dr.-Ing. Dr. h. c. Herwart Opitz, Dipl.-Ing. Maßberg, Dipl.-Ing. Derichs, Dipl.-Ing. Schmitt, Dipl.-Ing. Möbius (auth.)",1966,1,VS Verlag für Sozialwissenschaften,,123,0,German,,,,"978-3-663-06186-1,978-3-663-07099-3",,,,,,,10.1007/978-3-663-07099-3,,,,0,,,,,,,1,5416639,pdf,939c5d0f5f3beb7818d15bb0c23302e3,,,D:\\HDD4\\!genesis\\SPR_NEW_2013-12\\bok%3A978-3-663-07099-3.pdf,0,2000-01-01 01:00:00,2016-04-03 02:51:08,1141000/939c5d0f5f3beb7818d15bb0c23302e3-d.jpg,,
21253166,Untersuchungen über die Gründe von Abweichungen in der Fadenlänge gleichartiger und unter gleichen Voraussetzungen hergestellter Garnkörper,,Forschungsberichte des Landes Nordrhein-Westfalen 1675,,"Obering. Herbert Stein, Dipl.-Phys. Siegfried Hobe (auth.)",1966,1,VS Verlag für Sozialwissenschaften,,62 S.,0,German,,,,"978-3-663-06552-4,978-3-663-07465-6",,,,,,,10.1007/978-3-663-07465-6,,,,0,,,,,,,1,2013239,pdf,c421f39c0cb325807dd5121641196496,,,D:\\HDD4\\!genesis\\SPR_NEW_2013-12\\bok%3A978-3-663-07465-6.pdf,0,2000-01-01 01:00:00,2016-04-03 02:51:08,1141000/c421f39c0cb325807dd5121641196496-d.jpg,,
21253167,Triebwerke schnellaufender Verbrennungsmotoren: Grundlagen zur Berechnung und Konstruktion,,Konstruktionsbücher 22,,Dipl.-Ing. O. R. Lang (auth.),1966,1,Springer-Verlag Berlin Heidelberg,,165,0,German,,,,"978-3-540-03587-9,978-3-642-94969-2",,,,,,,10.1007/978-3-642-94969-2,,,,0,,,,,,,1,10530656,pdf,5b891d778b2b6c46b73ff3d3da421b0e,,,D:\\HDD4\\!genesis\\SPR_NEW_2013-12\\bok%3A978-3-642-94969-2.pdf,0,2000-01-01 01:00:00,2016-04-03 02:51:08,1135000/5b891d778b2b6c46b73ff3d3da421b0e-d.jpg,,
21253168,Vergleich zwischen kalt und warm umgeformten Böden,,Forschungsberichte des Landes Nordrhein-Westfalen 1613,,Prof. Dr.-Ing. habil. Gerhard Oehler (auth.),1966,1,VS Verlag für Sozialwissenschaften,,108 S.,0,German,,,,"978-3-663-06603-3,978-3-663-07516-5",,,,,,,10.1007/978-3-663-07516-5,,,,0,,,,,,,1,4328469,pdf,07c5b86ee5ab94c4c0671c8f2faa5945,,,D:\\HDD4\\!genesis\\SPR_NEW_2013-12\\bok%3A978-3-663-07516-5.pdf,0,2000-01-01 01:00:00,2016-04-03 02:51:08,1141000/07c5b86ee5ab94c4c0671c8f2faa5945-d.jpg,,
21253169,Der Einfluß verschiedener Liefergeschwindigkeiten an der Ringspinnmaschine auf die Laufeigenschaften und das Ungleichmäßigkeitsverhalten von Garnen,,Forschungsberichte des Landes Nordrhein-Westfalen 1707,,"Prof. Dr.-Ing. Dr.-Ing. E. h. Walther Wegener, Dipl.-Ing. Burkhard Wulfhorst (auth.)",1966,1,VS Verlag für Sozialwissenschaften,,76 S.,0,German,,,,"978-3-663-06038-3,978-3-663-06951-5",,,,,,,10.1007/978-3-663-06951-5,,,,0,,,,,,,1,2367708,pdf,1cc2cff972822059b55e147213199ada,,,D:\\HDD4\\!genesis\\SPR_NEW_2013-12\\bok%3A978-3-663-06951-5.pdf,0,2000-01-01 01:00:00,2016-04-03 02:51:08,1141000/1cc2cff972822059b55e147213199ada-d.jpg,,
21253170,"Vergleich und Abgrenzung der Einsatzmöglichkeit der Abkantpressen, der Abkantmaschinen und der Profilwalzmaschinen für Biege-Profil-Formungen",,,,Prof. Dr.-Ing. habil. Gerhard Oehler (auth.),1966,1,VS Verlag für Sozialwissenschaften,,109,0,German,,,,"978-3-663-06601-9,978-3-663-07514-1",,,,,,,10.1007/978-3-663-07514-1,,,,0,,,,,,,1,4409515,pdf,51fb4e1e1902108f995ec5dc3f79c034,,,D:\\HDD4\\!genesis\\SPR_NEW_2013-12\\bok%3A978-3-663-07514-1.pdf,0,2000-01-01 01:00:00,2016-04-03 02:51:08,1141000/51fb4e1e1902108f995ec5dc3f79c034-d.jpg,,
21253171,"Die Berechnung elastischer Gründungsbalken auf nachgiebigem Untergrund: Vergleichende Untersuchungen über den Einfluß der Steifigkeit der Hochbaukonstruktion, der Plattensteifigkeit und einer Überkragung auf die inneren Beanspruchungen der Grundplatte",,Forschungsberichte des Landes Nordrhein-Westfalen 1515,,"Prof. Dr. ir. Dr.-Ing. E. h. Edward de Beer, Dr.-Ing. Heinz Graßhoff, Dr.-Ing. Manfred Kany (auth.)",1966,1,VS Verlag für Sozialwissenschaften,,318 S.,0,German,,,,"978-3-663-06070-3,978-3-663-06983-6",,,,,,,10.1007/978-3-663-06983-6,,,,0,,,,,,,1,8306549,pdf,78bfc37c100690d995e5dd63bb3c3c23,,,D:\\HDD4\\!genesis\\SPR_NEW_2013-12\\bok%3A978-3-663-06983-6.pdf,0,2000-01-01 01:00:00,2016-04-03 02:51:08,1141000/78bfc37c100690d995e5dd63bb3c3c23-d.jpg,,
21253172,Aussichten der europäischen Flugzeugproduktion. Entwicklung der Festigkeitsrechnung und Festigkeitsversuche im Flugzeugbau seit 1925,,Arbeitsgemeinschaft für Forschung des Landes Nordrhein-Westfalen 158,,"Giuseppe Gabrielli, Karl Thalau (auth.)",1966,1,VS Verlag für Sozialwissenschaften,,104,0,German,,,,"978-3-663-02997-7,978-3-663-04185-6",,,,,,,10.1007/978-3-663-04185-6,,,,0,,,,,,,1,3792421,pdf,094b30c2f7d4f1cae3bca865dc216960,,,D:\\HDD4\\!genesis\\SPR_NEW_2013-12\\bok%3A978-3-663-04185-6.pdf,0,2000-01-01 01:00:00,2016-04-03 02:51:08,1141000/094b30c2f7d4f1cae3bca865dc216960-d.jpg,,
21253173,Die Grenzen der Umformung dünner Bleche mittels elastischer Druckmittel,,Forschungsberichte des Landes Nordrhein-Westfalen 1737,,Prof. Dr.-Ing. habil. Gerhard Oehler (auth.),1966,1,VS Verlag für Sozialwissenschaften,,78 S.,0,German,,,,"978-3-663-06096-3,978-3-663-07009-2",,,,,,,10.1007/978-3-663-07009-2,,,,0,,,,,,,1,2493741,pdf,2346fcd73b51dc81c37b7d5ba6b15e1c,,,D:\\HDD4\\!genesis\\SPR_NEW_2013-12\\bok%3A978-3-663-07009-2.pdf,0,2000-01-01 01:00:00,2016-04-03 02:51:08,1141000/2346fcd73b51dc81c37b7d5ba6b15e1c-d.jpg,,
21253174,Untersuchungen zum Elektro-Schlacke-Schweißen von Blechen geringer Wanddicke,,Forschungsberichte des Landes Nordrhein-Westfalen 1703,,"Prof. Dr.-Ing. Alfred H. Henning, Prof. Dr.-Ing. habil. Karl Krekeler, Dipl.-Ing. Rochus Gronwald (auth.)",1966,1,VS Verlag für Sozialwissenschaften,,53,0,German,,,,"978-3-663-06574-6,978-3-663-07487-8",,,,,,,10.1007/978-3-663-07487-8,,,,0,,,,,,,1,2514599,pdf,0bdb478cf901afca887fa0fa05cb3fee,,,D:\\HDD4\\!genesis\\SPR_NEW_2013-12\\bok%3A978-3-663-07487-8.pdf,0,2000-01-01 01:00:00,2016-04-03 02:51:08,1141000/0bdb478cf901afca887fa0fa05cb3fee-d.jpg,,
21253175,Zur Berechnung gekoppelter Eigenfrequenzen von Schaufeln axialer Turbomaschinen,,Forschungsberichte des Landes Nordrhein-Westfalen 1776,,"Dipl.-Ing. Otto Kirch, Prof. Dr.-Ing. Karl Lürenbaum (auth.)",1966,1,VS Verlag für Sozialwissenschaften,,75 S.,0,German,,,,"978-3-663-06708-5,978-3-663-07621-6",,,,,,,10.1007/978-3-663-07621-6,,,,0,,,,,,,1,1938717,pdf,cc4f5f02c65d46a39522675e6c7d7924,,,D:\\HDD4\\!genesis\\SPR_NEW_2013-12\\bok%3A978-3-663-07621-6.pdf,0,2000-01-01 01:00:00,2016-04-03 02:51:08,1141000/cc4f5f02c65d46a39522675e6c7d7924-d.jpg,,
21253176,"Vergleichende Untersuchungen an Streichgarnen, die mit der Ringspinnmaschine und mit dem Selfaktor ausgesponnen wurden",,Forschungsberichte des Landes Nordrhein-Westfalen 1636,,"Prof. Dr.-Ing. Dr.-Ing. E. h. Walther Wegener, Dr.-Ing. Hans Peuker (auth.)",1966,1,VS Verlag für Sozialwissenschaften,,135,0,German,,,,"978-3-663-06606-4,978-3-663-07519-6",,,,,,,10.1007/978-3-663-07519-6,,,,0,,,,,,,1,5972190,pdf,2ab89c6a9c029f772b87b3bf1054d7e8,,,D:\\HDD4\\!genesis\\SPR_NEW_2013-12\\bok%3A978-3-663-07519-6.pdf,0,2000-01-01 01:00:00,2016-04-03 02:51:08,1141000/2ab89c6a9c029f772b87b3bf1054d7e8-d.jpg,,
21253177,Untersuchungen der Spannungsverhältnisse sowie der Eigenschaften von Kräuselgarnen bei verschiedenen Einstellungen der Falschdrahtzwirnmaschinen,,Forschungsberichte des Landes Nordrhein-Westfalen 1748,,Prof. Dr.-Ing. Dr.-Ing. E. h. Walther Wegener (auth.),1966,1,VS Verlag für Sozialwissenschaften,,92,0,German,,,,"978-3-663-06508-1,978-3-663-07421-2",,,,,,,10.1007/978-3-663-07421-2,,,,0,,,,,,,1,2790130,pdf,d75dd446db750f3837c7fe479e760f0e,,,D:\\HDD4\\!genesis\\SPR_NEW_2013-12\\bok%3A978-3-663-07421-2.pdf,0,2000-01-01 01:00:00,2016-04-03 02:51:08,1141000/d75dd446db750f3837c7fe479e760f0e-d.jpg,,
21253178,Einführung in die Elektrotechnik höherer Frequenzen: Zweiter Band Elektromagnetische Felder und Wellen,,,,H. H. Meinke (auth.),1966,2,Springer-Verlag Berlin Heidelberg,,300,0,German,,,,"978-3-540-03356-1,978-3-642-92904-5",,,,,,,10.1007/978-3-642-92904-5,,,,0,,,,,,,1,14864842,pdf,c65b35e766d674a5faa4c1222729929b,,,D:\\HDD4\\!genesis\\SPR_NEW_2013-12\\bok%3A978-3-642-92904-5.pdf,0,2000-01-01 01:00:00,2016-04-03 02:51:08,1135000/c65b35e766d674a5faa4c1222729929b-d.jpg,,
21253179,Grundlagenforschung über die technische Nutzbarmachung von geringwertigem Wald- und Abfallholz — Nutzbarmachung von Eichenholz zur Herstellung von Holzspanwerkstoffen,,Forschungsberichte des Landes Nordrhein-Westfalen 1662,,"Dr. rer. nat. Günther Stegmann, Dipl.-Forsting. Jaroslav Durst (auth.)",1966,1,VS Verlag für Sozialwissenschaften,,39,0,German,,,,"978-3-663-06334-6,978-3-663-07247-8",,,,,,,10.1007/978-3-663-07247-8,,,,0,,,,,,,1,1763228,pdf,545af9757d837af0b4d469bac5c26d78,,,D:\\HDD4\\!genesis\\SPR_NEW_2013-12\\bok%3A978-3-663-07247-8.pdf,0,2000-01-01 01:00:00,2016-04-03 02:51:08,1141000/545af9757d837af0b4d469bac5c26d78-d.jpg,,
21253180,Volumendefizit und Lunkerung bei der Erstarrung von Metallen,,Forschungsberichte des Landes Nordrhein-Westfalen 1591,,"Prof. Dr.-Ing. Wilhelm Patterson, Dozent Dr.-Ing. Siegfried Engler (auth.)",1966,1,VS Verlag für Sozialwissenschaften,,60,0,German,,,,"978-3-663-06612-5,978-3-663-07525-7",,,,,,,10.1007/978-3-663-07525-7,,,,0,,,,,,,1,2504362,pdf,d1855a493e9aaed344cec5c22c28593a,,,D:\\HDD4\\!genesis\\SPR_NEW_2013-12\\bok%3A978-3-663-07525-7.pdf,0,2000-01-01 01:00:00,2016-04-03 02:51:08,1141000/d1855a493e9aaed344cec5c22c28593a-d.jpg,,
21253181,Kältemaschinen: Kaltgasmaschinen und Kaltdampfmaschinen,,Handbuch der Kältetechnik 5,,"Dr. P. Graßmann (auth.), K. Bach, P. Grassmann, R. Göldner, K. Linge, A. Neuenschwander, R. Plank, L. Váhl (eds.)",1966,1,Springer-Verlag Berlin Heidelberg,,460,0,German,,,,"978-3-642-87160-3,978-3-642-87159-7",,,,,,,10.1007/978-3-642-87159-7,,,,0,,,,,,,1,26566740,pdf,c2ae9ac6d135c1b9ac8f622c473b0b91,,,D:\\HDD4\\!genesis\\SPR_NEW_2013-12\\bok%3A978-3-642-87159-7.pdf,0,2000-01-01 01:00:00,2016-04-03 02:51:08,1135000/c2ae9ac6d135c1b9ac8f622c473b0b91-d.jpg,,
21253182,Untersuchung der Zusammenhänge zwischen dem Aufbau von Schleifscheiben und dem Arbeitsergebnis,,Forschungsberichte des Landes Nordrhein-Westfalen 1943,,"Professor Dr.-Ing. Dr. h. c. Herwart Opitz, Dr.-Ing. Otto Daude (auth.)",1968,1,VS Verlag für Sozialwissenschaften,,62,0,German,,,,"978-3-663-06465-7,978-3-663-07378-9",,,,,,,10.1007/978-3-663-07378-9,,,,0,,,,,,,1,2012186,pdf,ace68efa6f74315b1969fb492dce2cda,,,D:\\HDD4\\!genesis\\SPR_NEW_2013-12\\bok%3A978-3-663-07378-9.pdf,0,2000-01-01 01:00:00,2016-04-03 02:51:08,1141000/ace68efa6f74315b1969fb492dce2cda-d.jpg,,
21253183,Internationales Wörterbuch der Lederwirtschaft / International Dictionary of the Leather and Allied Trades / Dictionnaire International des Cuirs et Peaux et de leurs Dérivés / Vocabulario Internacional de la Industria y del Comercio de Cueros / Vocabolario Internazionale dell’Industria e del Commercio del Cuoio / Международный кожевенно-технический словарь: Deutsch — Englisch — Französisch — Spanisch — Italienisch — Russisch / German — English — French — Spanish — Italian / Allemand — Anglais — Français — Espagnol — Italien / Alemán — Inglés — Francés — Español — Italiano / Tedesco — Inglese — Francese — Spagnolo — Italiano / на немецком — английском — французском — испанском итальянском — русском языках,,,,Walter Freudenberg (auth.),1968,2,Springer-Verlag Berlin Heidelberg,,278,0,German,,,,"978-3-662-23470-9,978-3-662-25533-9",,,,,,,10.1007/978-3-662-25533-9,,,,0,,,,,,,1,30986586,pdf,365aae09e2d57874223340b59c64a157,,,D:\\HDD4\\!genesis\\SPR_NEW_2013-12\\bok%3A978-3-662-25533-9.pdf,0,2000-01-01 01:00:00,2016-04-03 02:51:08,1136000/365aae09e2d57874223340b59c64a157-d.jpg,,
21253184,"Handbuch der chemischen Untersuchung der Textilfaserstoffe: Untersuchung der Faserfremdkörper, der chemisch veränderten Faserstoffe und der damit verbundenen Veredlungseffekte II",,,,Prof. Dr. phil. Herbert M. Ulrich (auth.),1968,1,Springer-Verlag Wien,,582,0,German,,,,"978-3-7091-7969-7,978-3-7091-7968-0",,,,,,,10.1007/978-3-7091-7968-0,,,,0,,,,,,,1,23419712,pdf,482c2f4b0b5c7e4345f7d5a3e931bf17,,,D:\\HDD4\\!genesis\\SPR_NEW_2013-12\\bok%3A978-3-7091-7968-0.pdf,0,2000-01-01 01:00:00,2016-04-03 02:51:08,1143000/482c2f4b0b5c7e4345f7d5a3e931bf17-d.jpg,,
21253185,Integrierte Datenverarbeitung: Aufbau eines Systems der Datenerfassung und -verarbeitung am Beispiel eines metallurgischen Großbetriebes,,Reihe Automatisierungstechnik 64,,"Gerhard Brenk, Günther Eichner (auth.)",1968,2,Vieweg+Teubner Verlag,,77,0,German,,,,"978-3-663-00683-1,978-3-663-02596-2",,,,,,,10.1007/978-3-663-02596-2,,,,0,,,,,,,1,3049478,pdf,801feeba87853ba9202eb3db7c608293,,,D:\\HDD4\\!genesis\\SPR_NEW_2013-12\\bok%3A978-3-663-02596-2.pdf,0,2000-01-01 01:00:00,2016-04-03 02:51:08,1141000/801feeba87853ba9202eb3db7c608293-d.jpg,,
21253186,Untersuchungen über das Läppen von Stirn- und Kegelrädern,,Forschungsberichte des Landes Nordrhein-Westfalen 1966,,"Prof. Dr. -Ing. Dr. h. c. D. Sc. Herwart Opitz, Dipl. -Ing. Peter Sulies, Dipl. -Ing. Christian Grünberger (auth.)",1968,1,VS Verlag für Sozialwissenschaften,,46,0,German,,,,"978-3-663-06514-2,978-3-663-07427-4",,,,,,,10.1007/978-3-663-07427-4,,,,0,,,,,,,1,1878244,pdf,4a42ffac94beae65f025fc998e243006,,,D:\\HDD4\\!genesis\\SPR_NEW_2013-12\\bok%3A978-3-663-07427-4.pdf,0,2000-01-01 01:00:00,2016-04-03 02:51:08,1141000/4a42ffac94beae65f025fc998e243006-d.jpg,,
21253187,Regelungstechnik für Praktiker: Formeln — Kurven — Tabellen,,Reihe Automatisierungstechnik 50,,Gunter Schwarze (auth.),1968,2,Vieweg+Teubner Verlag,,92 S.,0,German,,,,"978-3-663-03985-3,978-3-663-05431-3",,,,,,,10.1007/978-3-663-05431-3,,,,0,,,,,,,1,7879160,pdf,f8a2103540dec640920348769c577d22,,,D:\\HDD4\\!genesis\\SPR_NEW_2013-12\\bok%3A978-3-663-05431-3.pdf,0,2000-01-01 01:00:00,2016-04-03 02:51:08,1141000/f8a2103540dec640920348769c577d22-d.jpg,,
21253188,"Der Vorrichtungsbau: Zweiter Teil: Typische allgemein verwendbare Vorrichtungen (Konstruktive Grundsätze, Beispiele, Fehler)",,Werkstattbücher,,Heinrich Mauri (auth.),1968,7,Springer-Verlag Berlin Heidelberg,,72,0,German,,,,"978-3-662-39190-7,978-3-662-40185-9",,,,,,,10.1007/978-3-662-40185-9,,,,0,,,,,,,1,6351034,pdf,1fabc114da51e3ba7041085e9683a125,,,D:\\HDD4\\!genesis\\SPR_NEW_2013-12\\bok%3A978-3-662-40185-9.pdf,0,2000-01-01 01:00:00,2016-04-03 02:51:08,1139000/1fabc114da51e3ba7041085e9683a125-d.jpg,,
21253189,Der Aufgabenkreis des Betriebs-Ingenieurs,,Werkstattbücher 106,,Dipl.-Ing. J. Paul (auth.),1968,2,Springer-Verlag Berlin Heidelberg,,67,0,German,,,,"978-3-540-04383-6,978-3-642-86114-7",,,,,,,10.1007/978-3-642-86114-7,,,,0,,,,,,,1,3363350,pdf,7e841e8b87a148f969200db96bce1f23,,,D:\\HDD4\\!genesis\\SPR_NEW_2013-12\\bok%3A978-3-642-86114-7.pdf,0,2000-01-01 01:00:00,2016-04-03 02:51:08,1135000/7e841e8b87a148f969200db96bce1f23-d.jpg,,
21253190,Meßtechnische Untersuchungen über die vom Aufwindeprozeß beim Streckzwirnverfahren herrührenden Veränderungen der Kraft-Dehnungs-Eigenschaften und der Oberflächenbeschaffenheit von vollsynthetischen Fadenmaterialien,,Forschungsberichte des Landes Nordrhein-Westfalen 1881,,"Obering. Herbert Stein, Ing. (grad.) Herbert van der Weyden (auth.)",1968,1,VS Verlag für Sozialwissenschaften,,56,0,German,,,,"978-3-663-06386-5,978-3-663-07299-7",,,,,,,10.1007/978-3-663-07299-7,,,,0,,,,,,,1,3368944,pdf,572b07afc10b699654c7b02bdeb1c07b,,,D:\\HDD4\\!genesis\\SPR_NEW_2013-12\\bok%3A978-3-663-07299-7.pdf,0,2000-01-01 01:00:00,2016-04-03 02:51:08,1141000/572b07afc10b699654c7b02bdeb1c07b-d.jpg,,
21253191,"Über die Wechselwirkung der Glas- bzw. Schmelzphase in schmelzgegossenen Wannensteinen mit technischen Bleisilikat-, Borosilikat- und Natronkalkgläsern bei hohen Temperaturen",,Forschungsberichte des Landes Nordrhein-Westfalen 1885,,"Prof. Dr. phil. nat. habil. Hans-Ernst Schwiete, Dr.-Ing. Naresh Bikash Dasgupta (auth.)",1968,1,VS Verlag für Sozialwissenschaften,,119,0,German,,,,"978-3-663-06440-4,978-3-663-07353-6",,,,,,,10.1007/978-3-663-07353-6,,,,0,,,,,,,1,5372429,pdf,19903fbabeb75c8b537f38acbf781b83,,,D:\\HDD4\\!genesis\\SPR_NEW_2013-12\\bok%3A978-3-663-07353-6.pdf,0,2000-01-01 01:00:00,2016-04-03 02:51:08,1141000/19903fbabeb75c8b537f38acbf781b83-d.jpg,,
21253192,"Bending and Torsion of thin walled Beams with variable, open Cross Sections",,,,Dr. sc. techn. Suresh Lonkar (auth.),1968,1,Springer Basel,,79,0,German,,,,"978-3-0348-4069-9,978-3-0348-4143-6",,,,,,,10.1007/978-3-0348-4143-6,,,,0,,,,,,,1,1413265,pdf,8f4861b4f5fc6d248fbca3f7e134af58,,,D:\\HDD4\\!genesis\\SPR_NEW_2013-12\\bok%3A978-3-0348-4143-6.pdf,0,2000-01-01 01:00:00,2016-04-03 02:51:08,1130000/8f4861b4f5fc6d248fbca3f7e134af58-d.jpg,,
21253193,Rechner in industriellen Prozessen,,Reihe Automatisierungstechnik 78,,Heinrich Krebs (auth.),1968,1,Vieweg+Teubner Verlag,,91 S.,0,German,,,,"978-3-663-00970-2,978-3-663-02883-3",,,,,,,10.1007/978-3-663-02883-3,,,,0,,,,,,,1,3344028,pdf,9ca9aaddea13c821b03a5d6091396c86,,,D:\\HDD4\\!genesis\\SPR_NEW_2013-12\\bok%3A978-3-663-02883-3.pdf,0,2000-01-01 01:00:00,2016-04-03 02:51:08,1141000/9ca9aaddea13c821b03a5d6091396c86-d.jpg,,
21253194,Simulationsmodelle für ökonomisch-organisatorische Probleme,,,,"Dipl.-Math. Dr. rer. oec. Dieter Schreiter, Dipl.-Math. Dietrich Schubert, Dipl.-Math. Johannes Frotscher, Dipl.-Math. Rainer Weber (auth.), Dr. phil. Christa Hülm (eds.)",1968,1,VS Verlag für Sozialwissenschaften,,215,0,German,,,,"978-3-663-01002-9,978-3-663-02915-1",,,,,,,10.1007/978-3-663-02915-1,,,,0,,,,,,,1,14689294,pdf,fb48f4c5c1b0136eef3cfc8d2823fd21,,,D:\\HDD4\\!genesis\\SPR_NEW_2013-12\\bok%3A978-3-663-02915-1.pdf,0,2000-01-01 01:00:00,2016-04-03 02:51:08,1141000/fb48f4c5c1b0136eef3cfc8d2823fd21-d.jpg,,
21253195,"Stanzereitechnik: Erster Teil. Begriffe, Technologie des Schneidens. Die Stanzerei",,Werkstattbücher,,Dipl.-Ing. Erich Krabbe VDI (auth.),1968,4,Springer-Verlag Berlin Heidelberg,,73,0,German,,,,"978-3-662-39237-9,978-3-662-40251-1",,,,,,,10.1007/978-3-662-40251-1,,,,0,,,,,,,1,5360910,pdf,61b4d5991998bcdc0d101a8327c64174,,,D:\\HDD4\\!genesis\\SPR_NEW_2013-12\\bok%3A978-3-662-40251-1.pdf,0,2000-01-01 01:00:00,2016-04-03 02:51:08,1139000/61b4d5991998bcdc0d101a8327c64174-d.jpg,,
21253196,Massenkräfte bei Kopplung von Gelenk- und Rädertrieben,,Forschungsberichte des Landes Nordrhein-Westfalen 1958,,Dr.-Ing. F. Heinrich Lehn (auth.),1968,1,VS Verlag für Sozialwissenschaften,,91,0,German,,,,"978-3-663-06374-2,978-3-663-07287-4",,,,,,,10.1007/978-3-663-07287-4,,,,0,,,,,,,1,3959098,pdf,e9fa9a71dea111dfa9479e7635fe204a,,,D:\\HDD4\\!genesis\\SPR_NEW_2013-12\\bok%3A978-3-663-07287-4.pdf,0,2000-01-01 01:00:00,2016-04-03 02:51:08,1141000/e9fa9a71dea111dfa9479e7635fe204a-d.jpg,,
21253197,Mehrfachregelungen,,Reihe Automatisierungstechnik 59,,"Hans Fuchs, Wolfgang Weller (auth.)",1968,1,Vieweg+Teubner Verlag,,64,0,German,,,,"978-3-663-03157-4,978-3-663-04346-1",,,,,,,10.1007/978-3-663-04346-1,,,,0,,,,,,,1,8603584,pdf,71eaf8551610272a4bcf257e7197c20d,,,D:\\HDD4\\!genesis\\SPR_NEW_2013-12\\bok%3A978-3-663-04346-1.pdf,0,2000-01-01 01:00:00,2016-04-03 02:51:08,1141000/71eaf8551610272a4bcf257e7197c20d-d.jpg,,
21253198,Untersuchungen zur Erstarrung von Temperguß,,Forschungsberichte des Landes Nordrhein-Westfalen 1858,,"Prof. Dr.-Ing. Wilhelm Patterson, Dr.-Ing. Reinhard Döpp (auth.)",1968,1,VS Verlag für Sozialwissenschaften,,120,0,German,,,,"978-3-663-06583-8,978-3-663-07496-0",,,,,,,10.1007/978-3-663-07496-0,,,,0,,,,,,,1,3462954,pdf,958360d607619478853aaad2133cf892,,,D:\\HDD4\\!genesis\\SPR_NEW_2013-12\\bok%3A978-3-663-07496-0.pdf,0,2000-01-01 01:00:00,2016-04-03 02:51:08,1141000/958360d607619478853aaad2133cf892-d.jpg,,
21253199,Elektronik und Radioelektrizität,,,,G. Thalmann (auth.),1968,1,Springer Basel,,357,0,German,,,,"978-3-0348-4055-2,978-3-0348-4128-3",,,,,,,10.1007/978-3-0348-4128-3,,,,0,,,,,,,1,10233754,pdf,3a3878a0c86ad4d3c0559004470cfd92,,,D:\\HDD4\\!genesis\\SPR_NEW_2013-12\\bok%3A978-3-0348-4128-3.pdf,0,2000-01-01 01:00:00,2016-04-03 02:51:08,1130000/3a3878a0c86ad4d3c0559004470cfd92-d.jpg,,
21253200,Die physikalischen und chemischen Grundlagen der Keramik,,,,"Hermann Salmang, Dr. rer. nat. Horst Scholze (auth.)",1968,5,Springer-Verlag Berlin Heidelberg,,459,0,German,,,,"978-3-662-37260-9,978-3-662-37988-2",,,,,,,10.1007/978-3-662-37988-2,,,,0,,,,,,,1,19451544,pdf,20467289abcb1cd2a5f82b026004b645,,,D:\\HDD4\\!genesis\\SPR_NEW_2013-12\\bok%3A978-3-662-37988-2.pdf,0,2000-01-01 01:00:00,2016-04-03 02:51:08,1139000/20467289abcb1cd2a5f82b026004b645-d.jpg,,
21253201,Untersuchung von zeitlichen Reaktionsabläufen in Gasen,,Forschungsberichte des Landes Nordrhein-Westfalen,,"Prof. Dr. sc. techn. Fritz Schultz-Grunow, Dr.-Ing. Sigmar Wittig (auth.)",1969,1,VS Verlag für Sozialwissenschaften,,57,0,German,,,,"978-3-663-19942-7,978-3-663-20287-5",,,,,,,10.1007/978-3-663-20287-5,,,,0,,,,,,,1,1518626,pdf,2e01222cba6110e787bc9a61f8ddb5d3,,,D:\\HDD4\\!genesis\\SPR_NEW_2013-12\\bok%3A978-3-663-20287-5.pdf,0,2000-01-01 01:00:00,2016-04-03 02:51:08,1143000/2e01222cba6110e787bc9a61f8ddb5d3-d.jpg,,
21253202,Untersuchungen über Grenzflächenreaktionen zwischen Zementklinker und feuerfestem Mauerwerk,,Forschungsberichte des Landes Nordrhein-Westfalen,,"Prof. Dr. phil. nat. habil. Hans-Ernst Schwiete, Dr.-Ing. Aleksander Majdič (auth.)",1969,1,VS Verlag für Sozialwissenschaften,,62,0,German,,,,"978-3-663-19930-4,978-3-663-20274-5",,,,,,,10.1007/978-3-663-20274-5,,,,0,,,,,,,1,2473972,pdf,b478622e26d70432f009bd42fcdd8340,,,D:\\HDD4\\!genesis\\SPR_NEW_2013-12\\bok%3A978-3-663-20274-5.pdf,0,2000-01-01 01:00:00,2016-04-03 02:51:08,1143000/b478622e26d70432f009bd42fcdd8340-d.jpg,,
21253203,Blätter für Technikgeschichte,,Blätter für Technikgeschichte 31,,"Dr. Gottfried Hohenauer (auth.), Dipl.-Ing. Rolf Niederhuemer (eds.)",1969,1,Springer-Verlag Wien,,168,0,German,,,,"978-3-211-81005-7,978-3-7091-2279-2",,,,,,,10.1007/978-3-7091-2279-2,,,,0,,,,,,,1,6873665,pdf,c515ed2946d83cb3c439e30c2f5672ca,,,D:\\HDD4\\!genesis\\SPR_NEW_2013-12\\bok%3A978-3-7091-2279-2.pdf,0,2000-01-01 01:00:00,2016-04-03 02:51:08,1143000/c515ed2946d83cb3c439e30c2f5672ca-d.jpg,,
21253204,Zündung kondensierter Oberflächen,,Forschungsberichte des Landes Nordrhein-Westfalen,,"Prof. Dr. sc. techn. Fritz Schultz-Grunow, Dr.-Ing. Ching Ming Chang (auth.)",1969,1,VS Verlag für Sozialwissenschaften,,94,0,German,,,,"978-3-663-19910-6,978-3-663-20253-0",,,,,,,10.1007/978-3-663-20253-0,,,,0,,,,,,,1,3071216,pdf,ab1e2b8037399cd9fd0c6cdf4d574320,,,D:\\HDD4\\!genesis\\SPR_NEW_2013-12\\bok%3A978-3-663-20253-0.pdf,0,2000-01-01 01:00:00,2016-04-03 02:51:08,1143000/ab1e2b8037399cd9fd0c6cdf4d574320-d.jpg,,
21253205,Elektroerosive Bearbeitung,,Forschungsberichte des Landes Nordrhein-Westfalen,,"Prof. Dr.-Ing. Dr. h. c. Herwart Opitz, Dr.-Ing. Bernd Schumacher, Dipl.-Ing. Ernst Kracht (auth.)",1969,1,VS Verlag für Sozialwissenschaften,,40,0,German,,,,"978-3-663-20041-3,978-3-663-20397-1",,,,,,,10.1007/978-3-663-20397-1,,,,0,,,,,,,1,1337346,pdf,1428d2fc80ce35337a14ecd48eb71104,,,D:\\HDD4\\!genesis\\SPR_NEW_2013-12\\bok%3A978-3-663-20397-1.pdf,0,2000-01-01 01:00:00,2016-04-03 02:51:08,1143000/1428d2fc80ce35337a14ecd48eb71104-d.jpg,,
21253206,"Zusammenhänge zwischen Einzelfehlern, Einflanken-Wälzfehler und Tragbild evolventenverzahnter Stirnräder",,Forschungsberichte des Landes Nordrhein-Westfalen,,"Prof. Dr.-Ing. Dres. h. c. Herwart Opitz, Dr.-Ing. Hans-Ingo Faulstich (auth.)",1969,1,VS Verlag für Sozialwissenschaften,,91,0,German,,,,"978-3-663-19905-2,978-3-663-20247-9",,,,,,,10.1007/978-3-663-20247-9,,,,0,,,,,,,1,3048677,pdf,426c60e0df867ac486c0d765a6417fe1,,,D:\\HDD4\\!genesis\\SPR_NEW_2013-12\\bok%3A978-3-663-20247-9.pdf,0,2000-01-01 01:00:00,2016-04-03 02:51:08,1143000/426c60e0df867ac486c0d765a6417fe1-d.jpg,,
21253207,Korrosionsverhalten rostbeständiger Stähle unter der Einwirkung von Spülmittellösungen,,Forschungsberichte des Landes Nordrhein-Westfalen 2057,,"Direktor Dipl.-Ing. Hans Stüdemann, Dipl.-Ing. Hans-Volkert Lange, Rudolf Grube (auth.)",1969,1,VS Verlag für Sozialwissenschaften,,69,0,German,,,,"978-3-663-00725-8,978-3-663-02638-9",,,,,,,10.1007/978-3-663-02638-9,,,,0,,,,,,,1,1980842,pdf,406bd86554cf0a88038d45d8473a131a,,,D:\\HDD4\\!genesis\\SPR_NEW_2013-12\\bok%3A978-3-663-02638-9.pdf,0,2000-01-01 01:00:00,2016-04-03 02:51:08,1141000/406bd86554cf0a88038d45d8473a131a-d.jpg,,
21253208,Gummifedern: Berechnung und Gestaltung,,Konstruktionsbücher 7,,Dr.-Ing. E. F. Göbel (auth.),1969,3,Springer-Verlag Berlin Heidelberg,,155,0,German,,,,"978-3-540-04584-7,978-3-662-26796-7",,,,,,,10.1007/978-3-662-26796-7,,,,0,,,,,,,1,7850511,pdf,0f6121ea98cbb8d6572c45c9b78b917b,,,D:\\HDD4\\!genesis\\SPR_NEW_2013-12\\bok%3A978-3-662-26796-7.pdf,0,2000-01-01 01:00:00,2016-04-03 02:51:08,1137000/0f6121ea98cbb8d6572c45c9b78b917b-d.jpg,,
21253209,Automatik · Zubehör · Inbetriebnahme Geräuschbekämpfung Kälteanlagen · Wärmepumpen,,Handbuch der Kältetechnik 6 / A,,"Oberbaurat a. D. Dipl.-Ing. E. Roling (auth.), Dr. Dipl.-Ing. H. L. v. Cube, Dipl.-Ing. H. R. Hege, Dr.-Ing. H. Loewer, Dipl.-Ing. D. Metzenauer, Dipl.-Ing. ETH. A. Ostertag, Dipl.-Ing. J. Philippsen, Obering K. Preisendanz, Oberbaurat a. D. Dipl.-Ing. E. Roling, Dr. rer. nat. H. Steinle, Obering. H. Wahl (eds.)",1969,1,Springer-Verlag Berlin Heidelberg,,586,0,German,,,,"978-3-662-30382-5,978-3-662-30381-8",,,,,,,10.1007/978-3-662-30381-8,,,,0,,,,,,,1,30766481,pdf,0869c3fbc034dda3c878c64f861370e9,,,D:\\HDD4\\!genesis\\SPR_NEW_2013-12\\bok%3A978-3-662-30381-8.pdf,0,2000-01-01 01:00:00,2016-04-03 02:51:08,1137000/0869c3fbc034dda3c878c64f861370e9-d.jpg,,
21253210,Die Hysterese unbehandelter und thermisch vorbehandelter Polyamid 6-Fäden,,Forschungsberichte des Landes Nordrhein-Westfalen,,"Prof. Dr.-Ing. Dr.-Ing. E. h. Walther Wegener F. T. I., Dipl.-Ing. Rolf Guse (auth.)",1969,1,VS Verlag für Sozialwissenschaften,,42,0,German,,,,"978-3-663-20127-4,978-3-663-20488-6",,,,,,,10.1007/978-3-663-20488-6,,,,0,,,,,,,1,1634061,pdf,d934b1822b654f86e18daacc1350aae8,,,D:\\HDD4\\!genesis\\SPR_NEW_2013-12\\bok%3A978-3-663-20488-6.pdf,0,2000-01-01 01:00:00,2016-04-03 02:51:08,1143000/d934b1822b654f86e18daacc1350aae8-d.jpg,,
21253211,Asynchronmaschinen: Sriptum für Elektrotechniker und Maschinenbauer ab 4. Semester,,,,"Heinz Jordan, Michael Weis (auth.)",1969,1,Vieweg+Teubner Verlag,,231,0,German,,,,"978-3-663-19872-7,978-3-663-20211-0",,,,,,,10.1007/978-3-663-20211-0,,,,0,,,,,,,1,6729797,pdf,8a721faa9bc09c573718f0de407d8719,,,D:\\HDD4\\!genesis\\SPR_NEW_2013-12\\bok%3A978-3-663-20211-0.pdf,0,2000-01-01 01:00:00,2016-04-03 02:51:08,1143000/8a721faa9bc09c573718f0de407d8719-d.jpg,,
21253212,Untersuchung des Kurzhubhonens,,Forschungsberichte des Landes Nordrhein-Westfalen,,"Prof. Dr.-Ing. Dr. h. c. Herwart Opitz, Dr.-Ing. Reinhard Derenthal (auth.)",1969,1,VS Verlag für Sozialwissenschaften,,55,0,German,,,,"978-3-663-19951-9,978-3-663-20296-7",,,,,,,10.1007/978-3-663-20296-7,,,,0,,,,,,,1,2159662,pdf,36b3fec1800437fc98389488d76c5c70,,,D:\\HDD4\\!genesis\\SPR_NEW_2013-12\\bok%3A978-3-663-20296-7.pdf,0,2000-01-01 01:00:00,2016-04-03 02:51:08,1143000/36b3fec1800437fc98389488d76c5c70-d.jpg,,
21253213,Lehrbuch der Statik: Theorie und ihre Anwendungen. Erster Band: Grundlagen und fundamentale Berechnungsverfahren,,,,Dr.-Ing. Dr. techn. h. c. Konrad Sattler (auth.),1969,1,Springer-Verlag Berlin Heidelberg,,"XXXIV, 782 S. In 2 Bänden nicht einzeln erhaeltlich.",0,German,,,,"978-3-662-23375-7,978-3-662-25422-6",,,,,,,10.1007/978-3-662-25422-6,,,,0,,,,,,,1,29370144,pdf,287544424dec3a7f9d2873c0df1072aa,,,D:\\HDD4\\!genesis\\SPR_NEW_2013-12\\bok%3A978-3-662-25422-6.pdf,0,2000-01-01 01:00:00,2016-04-03 02:51:08,1136000/287544424dec3a7f9d2873c0df1072aa-d.jpg,,
21253214,Elektronenstrahl-Oszillografie in der Automatisierungstechnik,,Reihe Automatisierungstechnik 85,,Rudi Kautsch (auth.),1969,1,Vieweg+Teubner Verlag,,93,0,German,,,,"978-3-322-98104-2,978-3-322-98757-0",,,,,,,10.1007/978-3-322-98757-0,,,,0,,,,,,,1,6122354,pdf,0fa9654a8d04914280d598e2ba906b8d,,,D:\\HDD4\\!genesis\\SPR_NEW_2013-12\\bok%3A978-3-322-98757-0.pdf,0,2000-01-01 01:00:00,2016-04-03 02:51:08,1133000/0fa9654a8d04914280d598e2ba906b8d-d.jpg,,
21253215,Das Zonenschmelzen von weichmagnetischen Stählen und sein Einfluß auf den Verlauf der Konzentration und die Ausbildung des Makrogefüges in Stäben bis 60 mm Durchmesser,,Forschungsberichte des Landes Nordrhein-Westfalen,,"Prof. Dr.-Ing. habil. Wilhelm Anton Fischer, Dr.-Ing. Helmut Frye (auth.)",1969,1,VS Verlag für Sozialwissenschaften,,52,0,German,,,,"978-3-663-12834-2,978-3-663-14477-9",,,,,,,10.1007/978-3-663-14477-9,,,,0,,,,,,,1,2304517,pdf,3fb42f300df80b176e234b21f78563e8,,,D:\\HDD4\\!genesis\\SPR_NEW_2013-12\\bok%3A978-3-663-14477-9.pdf,0,2000-01-01 01:00:00,2016-04-03 02:51:08,1142000/3fb42f300df80b176e234b21f78563e8-d.jpg,,
