21515217,Modern Banking,,,,Shelagh Heffernan,2005,,John Wiley & Sons,"Chichester, West Sussex, England; Hoboken, NJ",739,0,English,305,,0,"0470095008,9780470095003,9780470020043",,,,,332.1,HG1601 .H438 2005,,,OL3434509M,,0,,,,,1,1,1,8202466,pdf,43D55CCAB8EDBB124BB73B7413601D32,,,,0,2000-01-01 01:00:00,2016-04-03 02:51:08,223000/43d55ccab8edbb124bb73b7413601d32-d.jpg,,
21515218,Working Identity: Unconventional Strategies for Reinventing Your Career,,,,Herminia Ibarra,2003,,Harvard Business Press,,219,0,English,305,,0,"9781578517787,1578517788",,,,,,,,,OL8754213M,,0,,,,,,1,1,857498,pdf,479CB29FA0A165F37BC5441C5909930E,,,,0,2000-01-01 01:00:00,2016-04-03 02:51:08,223000/479cb29fa0a165f37bc5441c5909930e-d.jpg,,
21515219,Mechanisms of Morphogenesis,,,,Jamie Davies,2005,1,Elsevier Academic Press,Amsterdam; Boston,385,0,English,12,duansci.com,0,"012204651X,9780122046513,9780080454436",,,,,571/.833,QH491 .D38 2005,,,OL22718678M,,0,,,,,1,1,1,6334665,pdf,784AEA650B7FF75281F26267D4B4B679,,,,0,2000-01-01 01:00:00,2016-04-03 02:51:08,226000/784aea650b7ff75281f26267d4b4b679-d.jpg,,
21515220,Ecology in agriculture,,Physiological ecology,,Louise E. Jackson,1997,1st,Academic Press,"San Diego, Calif",487,0,English,31,duansci.com,0,"9780123782601,0123782600",,,,,630/.1/577,S589.7 .E255 1997,,,OL679375M,,0,,,,,,1,1,26911545,pdf,9534F50E81034CEB800F6E14C5C2C7DA,,,,0,2000-01-01 01:00:00,2016-04-03 02:51:08,226000/9534f50e81034ceb800f6e14c5c2c7da-d.jpg,,
21515221,Principles of Macroeconomics (Canadian Edition),,,,N. Gregory Mankiw,2002,2 Canadian,South-Western Educational Publishing,,181,0,English,305,,0,"9780030340598,0030340594,0792336607,0471858455,0070500983",,,,,330/.01/5195,HB3730 .P54 1991,,,OL1873070M,,0,,,,,,,1,23490342,pdf,4B256D85177F963445DB8C04B5DAB588,,,,0,2000-01-01 01:00:00,2016-04-03 02:51:08,223000/4b256d85177f963445db8c04b5dab588-d.jpg,,
21515222,Leadership,,"10 minute guide, Management series 3",,Liz O'Leary,2000,2nd ed,Macmillan USA,"Indianapolis, IN",192,0,English,305,,0,"9780028636115,0028636112",,,,,,,,,OL7269127M,,0,,,,,,,,189553,chm,4FA49FC38608FC9F364D3426D1E29477,,,,0,2000-01-01 01:00:00,2016-04-03 02:51:08,223000/4fa49fc38608fc9f364d3426d1e29477-d.jpg,,
21515223,A History of Money and Banking in the United States: The Colonial Era to World War II,,,,Murray N. Rothbard,2002,,Ludwig Von Mises Inst,,510,0,English,64,Kolxo3,0,"0945466331,9780945466338",,,,,332.1/0973,HG2461 .R68 2002,,,OL3703560M,,0,,,,,1,1,1,1286553,pdf,50148138D5800ACC80FFF8C1C99AAF8F,,,"G_Economics/GH_Historical/Rothbard M.N. A history of money and banking in the United States (Mises Institute, 2005)(ISBN 0945466331)(O)(510s)_GH_.pdf",0,2000-01-01 01:00:00,2016-04-03 02:51:08,223000/50148138d5800acc80fff8c1c99aaf8f-d.jpg,,
21515224,"Ecological Geography of the Sea, Second Edition",,,,Alan R. Longhurst,2006,2,Academic Press,,575,0,English,32,duansci.com,0,"0124555217,1865843830,9780124555211",,,,,,,,,OL17211416M,,0,,,,,,,1,17666638,pdf,6D1DE48EED6EA741C0CE9DDAE1CC7E00,,,,0,2000-01-01 01:00:00,2016-04-03 02:51:08,226000/6d1de48eed6ea741c0ce9ddae1cc7e00-d.jpg,,
21515225,Атлас руководящих форм ископаемых фаун СССР. Том IX. Верхний отдел юрской системы,,,,"Берг Л.С., Бодылевский В.И., Бульванкер Э.З.",1949,,ГОСУДАРСТВЕННОЕ ИЗДАТЕЛЬСТВО ГЕОЛОГИЧЕСКОЙ ЛИТЕРАТУРЫ,,435,0,Russian,,,0,,,,,,,,,,,,0,0,1,,,,,1,60259356,pdf,AFD0DC1E34BA4BBA291563F1973F3483,,,,0,2000-01-01 01:00:00,2016-04-03 02:51:08,226000/afd0dc1e34ba4bba291563f1973f3483.jpg,,
21515226,"Advances in Virus Research, Volume 55",,,,"Karl Maramorosch, Frederick A. Murphy, Aaron J. Shatkin",2000,1st,Academic Press,,628,0,English,12,duansci.com,0,"9780120398553,0120398559,9780080524535",,B0017I3JZW,,,,,,,OL10070748M,,0,,,,,1,,,6474305,pdf,6F29BE87136FA266B775F89C54774E06,,no,,0,2000-01-01 01:00:00,2016-04-03 02:51:08,,,
21515227,New Era Value Investing: A Disciplined Approach to Buying Value and Growth Stocks,,,,Nancy Tengler,2003,1,Wiley,,241,0,English,305,,0,"9780471266082,0471266086",,,,,,,,,OL7614284M,,0,,,,,,1,1,1444914,pdf,5229A5AC581D01930C0AD3BD108C6B21,,,,0,2000-01-01 01:00:00,2016-04-03 02:51:08,223000/5229a5ac581d01930c0ad3bd108c6b21-d.jpg,,
21515228,"Advances in Immunology, Vol. 97",,,,Frederick W. Alt (Ed.),2008,1st,Academic Press,,1-295,0,English,156,duansci.com,0,978-0-12-374324-4,0065-2776,,,,,,10.1016/S0065-2776,,,,0,,,,,,1,1,5828156,pdf,53EEAB5623F2D785AC3B70681EF14DCA,,,,0,2000-01-01 01:00:00,2016-04-03 02:51:08,226000/53eeab5623f2d785ac3b70681ef14dca-d.jpg,,
21515229,Hurdle: The Book on Business Planning,,,,Tim Berry,1999,,Palo Alto Software,,302,0,English,1,,0,"9780966489125,0966489128",,,,,658.401,,,,OL24937290M,,0,,,,,,,1,2268028,pdf,5412C627C015421100E6DAC238BD6213,,,,0,2000-01-01 01:00:00,2016-04-03 02:51:08,223000/5412c627c015421100e6dac238bd6213-d.jpg,,
21515230,Bioimpedance and Bioelectricity Basics (Biomedical Engineering),,Biomedical Engineering,,"S. Grimnes, O. G. Martinsen",2000,1,Academic Press,,375,0,English,210,duansci.com,0,"9780123032607,0123032601",,,,,,,,,OL7326941M,,0,,,,,,,1,25213490,pdf,1EDD6FB04B411B97E0E2A65EA6F640A6,,,,0,2000-01-01 01:00:00,2016-04-03 02:51:08,226000/1edd6fb04b411b97e0e2a65ea6f640a6-d.jpg,,
21515231,Social Learning In Animals: The Roots of Culture,,,,"Cecilia M. Heyes, Bennett G. Galef  Jr.",1996,1,Academic Press,,433,0,English,183,duansci.com,0,"9780122739651,0122739655",,,,,591.51,QL775 .S645 1996,,,OL7326826M,,0,,,,,,,1,18775814,pdf,2720E30164DD00323B1F084AB67D5E05,,,,0,2000-01-01 01:00:00,2016-04-03 02:51:08,226000/2720e30164dd00323b1f084ab67d5e05-d.jpg,,
21515232,"Advances in Marine Biology, Vol. 50",,,,"Alan J. Southward, Craig M. Young, Lee A. Fuiman (Eds.)",2006,1st,Academic Press,,1-434,0,English,12,duansci.com,0,978-0-12-026151-2,0065-2881,,,,,,,,,,0,0,0,,,,,1,6068578,pdf,34E3C202C852A727AD1E23108A31E02C,,,,0,2000-01-01 01:00:00,2016-04-03 02:51:08,226000/34e3c202c852a727ad1e23108a31e02c-d.jpg,,
21515233,Атлас литолого-палеогеографических карт юрского и мелового периодов Западно-Сибирской равнины в масштабе 1 : 5000000 + Объяснительная записка,,,,Корепанова О.В.,1976,,Западно-Сибирский научно-исследовательский геологоразведочный нефтяной институт (ЗапСибНИГНИ),,68,0,Russian,32,,0,,,,551.8:551.762:553.98(571.1),,,,,,,,0,1,1,,,,1,1,41667042,pdf,7CCA81762E19728959B7D61D8F54765E,,,,0,2000-01-01 01:00:00,2016-04-03 02:51:08,226000/7cca81762e19728959b7d61d8f54765e.jpg,,
21515234,"Atlas of Chick Development, Second Edition",,,,"Ruth Bellairs, Mark Osmond",2005,2,Academic Press,,495,0,English,12,duansci.com,0,"0120847914,9780120847914,9780080454757",,,,,,,,,OL18261056M,,0,,,,,1,1,1,38111640,pdf,3BD6C3A44D6F3C471B7F4AA6EEF9A4FF,,,,0,2000-01-01 01:00:00,2016-04-03 02:51:08,226000/3bd6c3a44d6f3c471b7f4aa6eef9a4ff-d.jpg,,
21515235,"Digital Economy:: Impacts, Influences and Challenges",,,,"Harbhajan Kehal, Varinder P. Singh",2004,,Idea Group Publishing,,425,0,English,305,,0,"9781591403630,1591403634,1591403642,1591403650",,,,,,,,,OL17130332M,,0,,,,,,1,1,4704590,pdf,57F23F47A8F67D946DD3B2102793DF4B,,,,0,2000-01-01 01:00:00,2016-04-03 02:51:08,223000/57f23f47a8f67d946dd3b2102793df4b-d.jpg,,
21515236,Business Rules Applied: Building Better Systems Using the Business Rules Approach,,,,Barbara von Halle,2001,,Wiley,,495,0,English,1,,0,"9780471412939,0471412937",,,,,,,,,OL18136175M,,0,,,,,,,1,9920976,pdf,5CA84C3CDD14D005BE08332270B5A0B8,,,,0,2000-01-01 01:00:00,2016-04-03 02:51:08,223000/5ca84c3cdd14d005be08332270b5a0b8-d.jpg,,
21515237,Principles of Nucleic Acid Structure,,,,Stephen Neidle,2008,1st ed,Elsevier; Academic Press,"Amsterdam :, Boston",302,0,English,12,duansci.com,0,"0123695074,1865843830,9780123695079",,,,,,,,,OL10071881M,,0,,,,,,1,1,5958304,pdf,03D3BD1EA9D141AF1DB919A33FFBF2BB,,,,0,2000-01-01 01:00:00,2016-04-03 02:51:08,226000/03d3bd1ea9d141af1db919a33ffbf2bb-d.jpg,,
21515238,The Leadership Challenge Workbook,,,,"James M. Kouzes, Barry Z. Posner",2003,1st ed,Jossey-Bass,San Francisco,137,0,English,305,,0,"9780787968212,0787968218",,,,,658.4/092,HD57.7 .K6815 2003,,,OL3705308M,,0,,,,,,1,1,1192656,pdf,5D461FA099DD5CD1059871A3290CA67A,,,,0,2000-01-01 01:00:00,2016-04-03 02:51:08,223000/5d461fa099dd5cd1059871a3290ca67a-d.jpg,,
21515239,How to Negotiate Effectively (''Sunday Times'' Creating Success),,Sunday Times: Creating Success,,David Oliver,2002,,Kogan Page,,137,0,English,183,,0,"9780749438906,0749438908",,,,,,,,,OL7967386M,,0,,,,,,,1,661369,pdf,5F49CF0F00D853986DEB1A0CD7E5E413,,,,0,2000-01-01 01:00:00,2016-04-03 02:51:08,223000/5f49cf0f00d853986deb1a0cd7e5e413-d.jpg,,
21515240,"Currency Strategy: A Practitioner's Guide to Currency Trading, Hedging and Forecasting",,,,Callum Henderson,2002,1,Wiley,,235,0,English,305,,0,"9780470846841,0470846844",,,,,332.45,,,,OL17074888M,,0,,,,,,,1,1720734,pdf,62F06C7199691392AFB709BFA4C64885,,,,0,2000-01-01 01:00:00,2016-04-03 02:51:08,223000/62f06c7199691392afb709bfa4c64885-d.jpg,,
21515241,Numerical Computation of Internal and External Flows (Electronic & Electrical Engineering Research Studies) (v. 1),,Electronic & Electrical Engineering Research Studies v. 1,,Ch Hirsch,1990,,John Wiley & Sons,,524,0,English,120,,0,"9780471917625,0471917621",,,,,620.1/064,TA357 .H574 1988,,,OL2393540M,,0,,,,,,,1,15209736,pdf,737F389775CB16D39F59EF441267F5A7,,,,0,2000-01-01 01:00:00,2016-04-03 02:51:08,226000/737f389775cb16d39f59ef441267f5a7.jpg,,
21515242,A guide to the project management body of knowledge,,PMBOK Guides,,Project Management Institute,2004,3rd ed,"Project Management Institute, Inc","Newtown Square, Pa",380,0,English,7,,0,"9781930699458,193069945X,1930699506",,,,,,,,,OL17210661M,,0,,,,,,,,5761052,chm,66591EB70D1C10034F2CA3876164F4C1,,,,0,2000-01-01 01:00:00,2016-04-03 02:51:08,223000/66591eb70d1c10034f2ca3876164f4c1-d.jpg,,
21515243,Ageless Marketing: Strategies for Reaching the Hearts and Minds of the New Customer Majority,,,,"David B. Wolfe, Robert Snyder",2003,,Kaplan Business,,384,0,English,305,,0,"0793177553,9780793177554",,,,,658.8/348,HF5415.32 .W65 2003,,,OL17153429M,,0,,,,,1,,,2518599,chm,66FD2E17C221A0B8385A32E0D22610F6,,,,0,2000-01-01 01:00:00,2016-04-03 02:51:08,223000/66fd2e17c221a0b8385a32e0d22610f6-d.jpg,,
21515244,The Strategic Electronic Day Trader,,,,Robert Deel,2000,1,Wiley,New York,111,0,English,250,,0,"0471254886,9780471254881",,,,,,,,,OL7614165M,,0,,,,,,,1,7206802,pdf,677FEF4B5CDE1FBBC321A521BB7CD9D1,,,,0,2000-01-01 01:00:00,2016-04-03 02:51:08,223000/677fef4b5cde1fbbc321a521bb7cd9d1-d.jpg,,
21515245,Harvard business essentials: managing change and transition,,The Harvard business essentials series,,"Richard Luecke, Harvard Business School Press",2003,1,Harvard Business School Press,"Boston, Mass",148,0,English,7,,0,"9781578518746,1578518741",,,,,658.1/6,HD58.8 .L836 2003,,,OL18657041M,,0,,,,,,1,1,798544,pdf,67CAF3D3ECBDA92D34BE26B90665BE44,,,,0,2000-01-01 01:00:00,2016-04-03 02:51:08,223000/67caf3d3ecbda92d34be26b90665be44-d.jpg,,
21515246,"Cover Letter Magic, 2nd Edition",,,,"Wendy S. Enelow, Louise Kursmark",2004,2,Jist Publishing,,433,0,English,305,,0,"9781563709869,1563709864",,,,,,,,,OL20943918M,,0,,,,,,1,1,9154320,pdf,67F8B026872B442962150E4A06C8951F,,,,0,2000-01-01 01:00:00,2016-04-03 02:51:08,223000/67f8b026872b442962150e4a06c8951f-d.jpg,,
21515247,Six Sigma Team Dynamics: The Elusive Key to Project Success,,,,"George Eckes, Sandra Derickson",2003,1,John Wiley,New York,287,0,English,305,,0,"9780471222774,0471222771",,,,,,,,,OL7613605M,,0,,,,,,,1,2123623,pdf,6BD88DA29A0B5537113087775A3D30DB,,,,0,2000-01-01 01:00:00,2016-04-03 02:51:08,223000/6bd88da29a0b5537113087775a3d30db-d.jpg,,
21515248,"Valuation: Measuring and Managing the Value of Companies, 3rd Edition",,,,"McKinsey & Company Inc., Tom Copeland, Tim Koller, Jack Murrin",2000,3,"John Wiley & Sons, Inc.",,508,0,English,7,,0,"0471361909,9780471361909,9780471436720",,,,,,,,,OL15480769M,,0,,,,,1,,1,16959566,pdf,6CF124C083DAEA3A57D05775C5E1E6F7,,,,0,2000-01-01 01:00:00,2016-04-03 02:51:08,223000/6cf124c083daea3a57d05775c5e1e6f7-d.jpg,,
21515249,The Jossey-Bass Academic Administrator's Guide to Budgets and Financial Management (Jossey-Bass Academic Administrator's Guides),,Jossey-Bass Academic Administrator's Guides,,Margaret J. Barr,2002,1,Jossey-Bass,,134,0,English,6,,0,"9780787959579,078795957X",,,,,,,,,OL8148735M,,0,,,,,,,1,922128,pdf,6E15FEC26EE4CA85B7D0919249FCCC91,,,,0,2000-01-01 01:00:00,2016-04-03 02:51:08,223000/6e15fec26ee4ca85b7d0919249fccc91-d.jpg,,
21515250,The Right Stock at the Right Time: Prospering in the Coming Good Years,,,,Larry Williams,2003,1st,Wiley,,238,0,English,305,,0,"9780471430513,047143051X",,,,,,,,,OL18188423M,,0,0,0,,,,,1,1571189,pdf,6FE9A800CAB8EDFDA19F3765C3618BC4,,,,0,2000-01-01 01:00:00,2016-04-03 02:51:08,223000/6fe9a800cab8edfda19f3765c3618bc4-d.jpg,,
21515251,A Mathematician Plays the Stock Market,,,,John Allen Paulos,2003,,Basic Books,New York,226,0,English,113,,0,"9781567318289,0465054803",,,,,332.63/2042,HG4515.15 .P38 2003,,,OL24753466M,,0,,,,,,1,1,9720831,pdf,741AF05E73BDE5DDE4B5CC604DEC1FF6,,,,0,2000-01-01 01:00:00,2016-04-03 02:51:08,223000/741af05e73bde5dde4b5cc604dec1ff6-d.jpg,,
21515252,How to Think Like the World's Greatest High-Tech Titans,,The leader's edge,,Erika Brown,2001,,McGraw Hill,New York,115,0,English,183,,0,"0071360689,9780071360685,9780071374446",,,,,,,10.1036/0071374442,,OL24281818M,,0,,,,,1,,1,1432371,pdf,762D07570BA1B709DB6B84425D85C4A8,,,,0,2000-01-01 01:00:00,2016-04-03 02:51:08,223000/762d07570ba1b709db6b84425d85c4a8-d.jpg,,
21515253,"Leading in Tough Times: The Manager¿s Guide to Responsibility, Trust and Motivation",,,,"Richard S. Deems, Terri A. Deems",2003,,Human Resource Development Press,,200,0,English,305,,0,"0874257220,9780874257229,9781423716464",,,,,658.4/092,HD38.2 .D428 2003,,,OL3327974M,,0,,,,,1,,,3814165,chm,770E2C354E0A8961EAF27B9B41283013,,,,0,2000-01-01 01:00:00,2016-04-03 02:51:08,223000/770e2c354e0a8961eaf27b9b41283013-d.jpg,,
21515254,The McKinsey Way: Using the Techniques of the World's Top Strategic Consultants to Help You and Your Business,,,,Ethan Rasiel,1999,1,McGraw-Hill,,207,0,English,1,,0,"0070534489,9780070534483,9780071368834",,,,,658.4/012,HD69.C6 R38 1999,10.1036/0071368833,,OL24288583M,,0,,,,,1,1,1,846606,pdf,78301EF4AD28FEE4F7ECEB4E6F0559A5,,,,0,2000-01-01 01:00:00,2016-04-03 02:51:08,223000/78301ef4ad28fee4f7eceb4e6f0559a5-d.jpg,,
21515255,The Investor's Anthology: Original Ideas from the Industry's Greatest Minds (Wiley Investment Series),,Wiley Investment Series,,"Charles D. Ellis, James R. Vertin, Charles D. Ellis, James R. Vertin",1997,,John Wiley & Sons,,68,0,English,305,,0,"9780471176053,0471176052",,,,,332.6,HG4910 .E463 1997,,,OL1006350M,,0,,,,,,,1,660525,pdf,7A972433736B42C4949605DC66545BB4,,,,0,2000-01-01 01:00:00,2016-04-03 02:51:08,223000/7a972433736b42c4949605dc66545bb4-d.jpg,,
21515256,The Many Facets of Leadership,,Financial Times Prentice Hall books,,"Marshall Goldsmith, Vijay Govindarajan, Beverly Kaye, Albert A. Vicere",2003,,Financial Times/Prentice Hall,"Upper Saddle River, NJ",448,0,English,305,,0,"0131005332,9780131005334,9780131517301",,,,,,,,,OL18138032M,,0,,,,,1,,,1125914,chm,7D6BA459E633BC32C506AF85A03A1AC0,,,,0,2000-01-01 01:00:00,2016-04-03 02:51:08,223000/7d6ba459e633bc32c506af85a03a1ac0-d.jpg,,
21515257,Inside the FDA: The Business and Politics Behind the Drugs We Take and the Food We Eat,,,,Fran Hawthorne,2005,1,Wiley,,353,0,English,1,,0,"9780471610915,0471610917",,,,,,,,,OL7619356M,,0,,,,,,,1,1883412,pdf,809963E7F057FB1B0C611201FE4F1940,,,,0,2000-01-01 01:00:00,2016-04-03 02:51:08,223000/809963e7f057fb1b0c611201fe4f1940-d.jpg,,
21515258,Predict Market Swings With Technical Analysis,,,,Michael McDonald,2002,1st,Wiley,,217,0,English,305,,0,"0471205966,9780471271574,9780471205968",,,,,332.63/2042,HG4637 .M38 2002,,,OL3581512M,,0,,,,,1,1,1,1286251,pdf,80C2E68BE37DA16C8DDD27656703C3A1,,,,0,2000-01-01 01:00:00,2016-04-03 02:51:08,223000/80c2e68be37da16c8ddd27656703c3a1-d.jpg,,
21515259,Six Sigma Team Dynamics: The Elusive Key to Project Success,,,,"George Eckes, Sandra Derickson",2003,1,John Wiley,New York,287,0,English,305,,0,"9780471222774,0471222771",,,,,,,,,OL7613605M,,0,,,,,,,1,2191232,pdf,8319818F73C9CF605DC518E13E3BD4FB,,,,0,2000-01-01 01:00:00,2016-04-03 02:51:08,223000/8319818f73c9cf605dc518e13e3bd4fb-d.jpg,,
21515260,Information technology project management: providing measurable organizational value,,,,Jack T. Marchewka,2003,Bk&CD-Rom,Wiley,"Hoboken, NJ",330,0,English,7,,0,"9780471392033,0471392030,0471426261",,,,,658.4038011,HD69.P75 M367 2003,,,OL3777951M,,0,,,,,,,1,10838931,pdf,83893F00DC1AB30C3C933B303572E268,,,,0,2000-01-01 01:00:00,2016-04-03 02:51:08,223000/83893f00dc1ab30c3c933b303572e268-d.jpg,,
21515261,Harvard business essentials: managing change and transition,,The Harvard business essentials series,,"Richard Luecke, Harvard Business School Press",2003,1,Harvard Business School Press,"Boston, Mass",136,0,English,7,,0,"9781578518746,1578518741",,,,,658.1/6,HD58.8 .L836 2003,,,OL18657041M,,0,,,,,,1,1,697468,pdf,85940BAD4B48C5C7D191249BA34DA7D8,,,,0,2000-01-01 01:00:00,2016-04-03 02:51:08,223000/85940bad4b48c5c7d191249ba34da7d8-d.jpg,,
21515262,Trend Forecasting with Technical Analysis: Unleashing the Hidden Power of Intermarket Analysis to Beat the Market (Trade Secrets Series),,Trade Secrets Series,,Louis B. Mendelsohn,2000,,Marketplace Books,,123,0,English,305,,0,"1883272912,9781883272913",,,,,,,,,OL8685499M,,0,,,,,,,1,1181968,pdf,8627515D5A696486036F6EF8A6ED1298,,,,0,2000-01-01 01:00:00,2016-04-03 02:51:08,223000/8627515d5a696486036f6ef8a6ed1298-d.jpg,,
21515263,"Decision Making Support Systems: Achievements, Trends and Challenges for the New Decade",,,,"Manuel Mora, Guisseppi A. Forgionne, Jatinder N. D. Gupta",2002,,IGI Global,,438,0,English,305,,0,"9781591400455,1591400457,1591400805",,,,,,,,,OL17061669M,,0,,,,,,,1,16080884,pdf,87D319D4C652A3F4E51786D069E28B1A,,,,0,2000-01-01 01:00:00,2016-04-03 02:51:08,223000/87d319d4c652a3f4e51786d069e28b1a-d.jpg,,
21515264,Six Sigma for Everyone,,,,George Eckes,2003,1,Wiley,"Hoboken, N.J",143,0,English,305,,0,"9780471281566,0471281565",,,,,,,,,OL7614522M,,0,,,,,,1,1,655251,pdf,8C3A7A48DDFC1E88B8DB0F10316242CC,,,,0,2000-01-01 01:00:00,2016-04-03 02:51:08,223000/8c3a7a48ddfc1e88b8db0f10316242cc-d.jpg,,
21515265,Information Security and Ethics: Social and Organizational Issues,,,,Marian Quigley,2004,,IRM Press,,335,0,English,305,,0,"9781591402336,9781591402862,1591402336,1591402867,9781591402343",,,,,,,,,OL8854726M,,0,,,,,1,,0,3516907,pdf,8FFB33A16CC2E4EABBA09E62AA035E1A,,,,0,2000-01-01 01:00:00,2016-04-03 02:51:08,223000/8ffb33a16cc2e4eabba09e62aa035e1a-d.jpg,,
21515266,Credit Repair,,,,"Robin Leonard, Deanne Loonin, Kathleen Michon",2002,6th ed,Nolo,"Berkeley, Calif",249,0,English,305,,0,"0873378423,9780873378420",,,,,,,,,OL23263763M,,0,0,0,,,1,1,1,3706361,pdf,937AF627410926F857A32125DFDC9A81,,,,0,2000-01-01 01:00:00,2016-04-03 02:51:08,223000/937af627410926f857a32125dfdc9a81-d.jpg,,
21515267,Blue Ocean Strategy: How to Create Uncontested Market Space and Make Competition Irrelevant,,,,"W. Chan Kim, Renée Mauborgne",2005,1,Harvard Business Press,,257,0,English,183,,0,"9781591396192,1591396190",,,,,,,,,OL17149535M,,0,,,,,,,1,2764069,pdf,96098BDF94831B5A8C85ED4A5AD46AA5,,,,0,2000-01-01 01:00:00,2016-04-03 02:51:08,223000/96098bdf94831b5a8c85ed4a5ad46aa5-d.jpg,,
21515268,The Undergroundtrader.com Guide to Electronic Trading: Day Trading Techniques of a Master Guerrilla Trader,,,,Jea Yu,2000,,McGraw-Hill,New York,135,0,English,250,,0,"9780071360166,0071360166",,,,,,,,,OL9629298M,,0,,,,,,,1,4247163,pdf,96C5827C16A0E506173C225646790B4F,,,,0,2000-01-01 01:00:00,2016-04-03 02:51:08,223000/96c5827c16a0e506173c225646790b4f-d.jpg,,
21515269,Doing Business in 2005: Obstacles to Growth,,,,World Bank,2004,1,A World Bank Publication,,163,0,English,1,,0,"9780821357484,0821357484",,,,,,,,,OL17155562M,,0,,,,,,,1,2091872,pdf,995482EEDF48646790363B4285D2578C,,,,0,2000-01-01 01:00:00,2016-04-03 02:51:08,223000/995482eedf48646790363b4285d2578c-d.jpg,,
21515270,Making Enterprise Risk Management Pay Off: How Leading Companies Implement Risk Management,,,,"Thomas L. Barton, William G. Shenkir, Paul L. Walker",2002,,FT Press,,272,0,English,79,,0,"9780130087546,0130087548",,,,,,,,,OL3582817M,,0,,,,,,,,2850646,chm,99ECE75DED5042E4E04D0F0D37B8CF05,,,,0,2000-01-01 01:00:00,2016-04-03 02:51:08,223000/99ece75ded5042e4e04d0f0d37b8cf05-d.jpg,,
21515271,Critical Thinking: Tools for Taking Charge of Your Professional and Personal Life,,,,"Richard W. Paul, Linda Elder",2002,,FT Press,,411,0,English,305,,0,"9780130647603,0130647608",,,,,,,,,OL17047188M,,0,,,,,,,1,4082559,pdf,9B05719F64C8FE4201AECCEC1B89A98F,,,,0,2000-01-01 01:00:00,2016-04-03 02:51:08,223000/9b05719f64c8fe4201aeccec1b89a98f-d.jpg,,
21515272,Generating Buy-In: Mastering the Language of Leadership,,,,Mark S. Walton,2003,,AMACOM,,128,0,English,305,,0,"0814407889,9780814407882,9780814427668",,,,,658.45,,,,OL22020206M,,0,,,,,1,,,243286,chm,9D3690E20D44578F790E6DF312F96391,,,,0,2000-01-01 01:00:00,2016-04-03 02:51:08,223000/9d3690e20d44578f790e6df312f96391-d.jpg,,
21515273,Organizational Consulting: How to Be an Effective Internal Change Agent,,,,Alan Weiss,2003,1,Wiley,,273,0,English,183,,0,"9780471263784,0471263788",,,,,,,,,OL7614238M,,0,,,,,,1,1,1304318,pdf,A3F617210E11E7622C44FD092C0DE7AD,,,,0,2000-01-01 01:00:00,2016-04-03 02:51:08,223000/a3f617210e11e7622c44fd092c0de7ad-d.jpg,,
21515274,Valuespace: Winning the Battle for Market Leadership Lessons from the World's Most Admired Companies,,,,"Banwari Mittal, Jagdish N. Sheth",2001,,McGraw-Hill,,282,0,English,305,,0,"9780071382694,0071382690,0071375279",,,,,,,10.1036/0071382690,,OL24285754M,,0,,,,,,,1,1980965,pdf,A58E93B31DE465AE6A43B4570B2FBB9F,,,,0,2000-01-01 01:00:00,2016-04-03 02:51:08,223000/a58e93b31de465ae6a43b4570b2fbb9f.jpg,,
21515275,Strategic Planning for Public Relations,,,,Ronald D. Smith,2005,2nd ed,Lawrence Erlbaum Associates,"Mahwah, N.J",403,0,English,5,,0,"9780805852394,0805852395",,,,,659.2,HM1221 .S77 2005,,,OL3294002M,,0,,,,,,,1,32821289,pdf,A7DBF64E481B96B320612E1259076E8A,,,,0,2000-01-01 01:00:00,2016-04-03 02:51:08,223000/a7dbf64e481b96b320612e1259076e8a-d.jpg,,
21515276,The power of Six Sigma: an inspiring tale of how Six Sigma is transforming the way we work,,,,Subir Chowdhury,2001,1,Dearborn Trade,Chicago,5,0,English,305,,0,"9780793144341,0793144345",,,,,,,,,OL15513710M,,0,,,,,,,1,58701,pdf,A83FCC4F83E77DFB9C264398A650A564,,,,0,2000-01-01 01:00:00,2016-04-03 02:51:08,223000/a83fcc4f83e77dfb9c264398a650a564-d.jpg,,
21515277,101 Option Trading Secrets,,,,Kenneth R. Trester,2003,,Institute for Options Research,,336,0,English,305,,0,"9780960491445,0960491449",,,,,,,,,OL8514703M,,0,,,,,,,1,3305164,pdf,ACA5448AE9D4C8FFFD0141694BD25C84,,,,0,2000-01-01 01:00:00,2016-04-03 02:51:08,223000/aca5448ae9d4c8fffd0141694bd25c84-d.jpg,,
21515278,"The Fast Forward MBA Pocket Reference, Second Edition",,,,Paul A. Argenti,2002,2,Wiley,,337,0,English,,,0,"9780471222828,0471222828,0471348546,0471238295,0471256986,0471325465,0471345482",,,,,332.024,HG179 .M37418 1999,,,OL15611270M,,0,,,,,,,1,2116721,pdf,B1E682FAA88BC97C1AA6B26C4703233B,,,,0,2000-01-01 01:00:00,2016-04-03 02:51:08,223000/b1e682faa88bc97c1aa6b26c4703233b-d.jpg,,
21515279,Finance: A Fine Art,,,,Michel Fleuriet,2003,,Wiley,,299,0,English,305,,0,"9780470847671,0470847670",,,,,330,HG4521 .F61424 2003,,,OL3703339M,,0,,,,,,1,1,1414788,pdf,B30EC5EB4B92537577827C73DD2CC6E7,,,,0,2000-01-01 01:00:00,2016-04-03 02:51:08,223000/b30ec5eb4b92537577827c73dd2cc6e7-d.jpg,,
21515280,Negotiating Skills for Managers,,,,"Steven Cohen, Stephen Cohen",2002,,McGraw-Hill,,44,0,English,305,,0,"9780071415453,0071415459,0071387579",,,,,658.4/052,HD58.6 .C63 2002,10.1036/0071387579,,OL24310227M,,0,,,,,,1,1,1205850,pdf,B364EE47B56B387414716125B482E6C0,,,,0,2000-01-01 01:00:00,2016-04-03 02:51:08,223000/b364ee47b56b387414716125b482e6c0-d.jpg,,
21515281,Loopholes of the Rich: How the Rich Legally Make More Money and Pay Less Tax,,,,Diane Kennedy,2004,Revised,Wiley,,333,0,English,305,,0,"9780471711780,0471711780",,,,,658.15/3,HJ4653.C7 K46 2005,,,OL23050917M,,0,,,,,,,1,2927598,pdf,B3EBF3B8E6797FF327F5891E9C5927C9,,,,0,2000-01-01 01:00:00,2016-04-03 02:51:08,223000/b3ebf3b8e6797ff327f5891e9c5927c9-d.jpg,,
21515282,"Six Sigma and Beyond: Design for Six Sigma, Volume VI",,,,"D.H. Stamatis, D. H. Stamatis",2002,1,CRC Press,,824,0,English,305,,0,"9781574443158,1574443151",,,,,,,,,OL8741565M,,0,,,,,,,,5581592,chm,B5EE77166228E6EE190FA6D059F2EA4A,,,,0,2000-01-01 01:00:00,2016-04-03 02:51:08,223000/b5ee77166228e6ee190fa6d059f2ea4a-d.jpg,,
21515283,Secure Your Financial Future Investing in Real Estate,,,,"Martin Stone, Spencer Strauss",2003,,Dearborn Trade Publishing,[U. S. A.],226,0,English,305,,0,"9780793161294,0793161290,8006219621",,,,,332.63/24,HD1382.5 .S76 2003,,,OL17153260M,,0,,,,,,1,1,1741252,pdf,BFB6270AA81C79FEF5CF4C82C3815817,,,,0,2000-01-01 01:00:00,2016-04-03 02:51:08,223000/bfb6270aa81c79fef5cf4c82c3815817-d.jpg,,
21515284,"The Saint, the Surfer, and the CEO: A Remarkable Story About Living Your Heart's Desires",,,,Robin Sharma,2003,,Hay House,,224,0,English,305,,0,"1401900593,9781401900595",,,,,813.54,,,,OL22150515M,,0,,,,,1,,,317297,chm,C00A55AE5FE18BD4F7B2D02A6C785A7D,,,,0,2000-01-01 01:00:00,2016-04-03 02:51:08,223000/c00a55ae5fe18bd4f7b2d02a6c785a7d-d.jpg,,
21515285,"Atmospheric and Space Flight Dynamics: Modeling and Simulation with MATLAB® and Simulink® (Modeling and Simulation in Science, Engineering and Technology)",,"Modeling and Simulation in Science, Engineering and Technology",,Ashish Tewari,2006,1,Birkhäuser Boston,,567,0,English,210,,0,"9780817644376,0817644377",,,,,,,,,OL8074865M,,0,,,,,1,1,1,8818998,pdf,E75EE9F3F6DB5DEBCEC59E94651E0554,,,,0,2000-01-01 01:00:00,2016-04-03 02:51:08,226000/e75ee9f3f6db5debcec59e94651e0554-d.jpg,,
21515286,Finance: A Fine Art,,,,Michel Fleuriet,2003,,Wiley,,300,0,English,305,,0,"9780470847671,0470847670",,,,,330,HG4521 .F61424 2003,,,OL3703339M,,0,,,,,,1,1,1412707,pdf,C0F67080FA487C7B6FCA7D758676E394,,,,0,2000-01-01 01:00:00,2016-04-03 02:51:08,223000/c0f67080fa487c7b6fca7d758676e394-d.jpg,,
21515287,Modeling and simulation of aerospace vehicle dynamics,,AIAA education series,,P. Zipfel,2007,2nd ed,American Institute of Aeronautics and Astronautics,"Reston, Va",607,0,English,244,,0,"9781563478758,1563478757",,,,,,,,,OL8644179M,,0,,,,,,1,1,20858922,pdf,626B59E3FF2FF52819C20BAE4EABF982,,,,0,2000-01-01 01:00:00,2016-04-03 02:51:08,226000/626b59e3ff2ff52819c20bae4eabf982-d.jpg,,
21515288,Classification of Developmental Language Disorders: Theoretical Issues and Clinical Implications,,,,"Ludo Verhoeven, Hans van Balkom",2003,illustrated edition,Psychology Press,,466,0,English,161,,0,"9780805841220,0805841229,0805841237",,,,,,,,,OL22542875M,,0,,,,,,1,1,2908305,pdf,C2665A33D650925B343E3A9F66639499,,,,0,2000-01-01 01:00:00,2016-04-03 02:51:08,223000/c2665a33d650925b343e3a9f66639499-d.jpg,,
21515289,"Sales And Marketing Resumes for $100,000 Careers (Sales & Marketing Resumes for $100,000 Careers)",,"Sales & Marketing Resumes for $100,000 Careers",,Louise M. Kursmark,2004,2,Jist Publishing,,351,0,English,305,,0,"9781593570132,1593570139",,,,,,,,,OL8873483M,,0,,,,,,,0,24686526,pdf,C3F26A282754E6A317F02DF119FC78ED,,,,0,2000-01-01 01:00:00,2016-04-03 02:51:08,223000/c3f26a282754e6a317f02df119fc78ed-d.jpg,,
21515290,Hiring Independent Contractors: The Employer's Legal Guide (Working With Independent Contractors),,Working With Independent Contractors,,"Stephen Fishman, Amy Delpo",2003,4th,NOLO,,304,0,English,305,,0,"9780873379182,0873379187",,,,,346.7302/4,KF898 .F57 2003,,,OL3682654M,,0,,,,,,,,4752039,chm,C9232856CD2E0B95AE5FD567F9794878,,,,0,2000-01-01 01:00:00,2016-04-03 02:51:08,223000/c9232856cd2e0b95ae5fd567f9794878-d.jpg,,
21515291,Fearless Interviewing: How to Win the Job by Communicating with Confidence,,,,Marky Stein,2003,,McGraw-Hill Publishing Co.,,193,0,English,183,,0,"9780071415729,0071415726,0071408843",,,,,658.3/1124,HF5549.5.I6 S728 2003,10.1036/0071415726,,OL22138969M,,0,,,,,,1,1,1181768,pdf,C93B1686F3BCD186829DFB11CE92268A,,,,0,2000-01-01 01:00:00,2016-04-03 02:51:08,223000/c93b1686f3bcd186829dfb11ce92268a-d.jpg,,
21515292,"Handbook of Psychology, 12 Volume Set",,,,Irving B. Weiner,2003,1,Wiley,,610,0,English,,,0,"9780471176695,0471176699,0471383201,0471385131,0471384038,0471392626,0471384046",,,,,150,BF121 .H1955 2003,,,OL3567432M,,0,,,,,,1,1,5492273,pdf,C95FBF3BAC84E16D6E9634650BE7B103,,,,0,2000-01-01 01:00:00,2016-04-03 02:51:08,223000/c95fbf3bac84e16d6e9634650be7b103-d.jpg,,
21515293,Trading with DiNapoli Levels: The Practical Application of Fibonacci Analysis to Investment Markets,,,,"Joe DiNapoli, Lee Winfield, David Winfield",1997,,"Coast Investment Software, Incorporated",,319,0,English,305,,0,"1891159046,9781891159046",,,,,,,,,OL12209727M,,0,,,,,1,,1,2395541,pdf,CD291A8402F947D2627AF67E1B85C853,,,,0,2000-01-01 01:00:00,2016-04-03 02:51:08,223000/cd291a8402f947d2627af67e1b85c853.jpg,,
21515294,Practice Made Perfect: The Discipline of Business Management for Financial Advisors,,,,"Mark C. Tibergien, Rebecca Pomering",2005,,Bloomberg Press,,250,0,English,6,,0,"9781576601723,1576601722",,,,,332.024/0068,HG179.5 .T53 2005,,,OL17921355M,,0,,,,,,,1,1752891,pdf,CFC62E0227B84C97C1E83486B00A2A65,,,,0,2000-01-01 01:00:00,2016-04-03 02:51:08,223000/cfc62e0227b84c97c1e83486b00a2a65-d.jpg,,
21515295,"Valuation: Measuring and Managing the Value of Companies, 3rd Edition",,,,"McKinsey & Company Inc., Tom Copeland, Tim Koller, Jack Murrin",2000,3,"John Wiley & Sons, Inc.",,508,0,English,7,,0,"9780471361909,0471361909,0471397490",,,,,,,,,OL15480769M,,0,,,,,,,1,16950447,pdf,D1ACBE83A576DCF3976102A5E413A3BF,,,,0,2000-01-01 01:00:00,2016-04-03 02:51:08,223000/d1acbe83a576dcf3976102a5e413a3bf-d.jpg,,
21515296,Finance: A Fine Art,,,,Michel Fleuriet,2003,,Wiley,,299,0,English,305,,0,"9780470847671,0470847670",,,,,330,HG4521 .F61424 2003,,,OL3703339M,,0,,,,,,1,1,1097261,pdf,D3A5501C1CF59C2D0F5DD4F1291DCB76,,,,0,2000-01-01 01:00:00,2016-04-03 02:51:08,223000/d3a5501c1cf59c2d0f5dd4f1291dcb76-d.jpg,,
21515297,Managing Yourself: Coach Yourself To Optimum Emotional Intelligence,,,,Paul Morgan,2002,,Momentum Wcze,,185,0,English,7,,0,"9781843040231,1843040239,1279431059",,,,,,,,,OL8928529M,,0,,,,,,,1,900623,pdf,D5EDFE1B250D9EAE19B01D7C6D58570E,,,,0,2000-01-01 01:00:00,2016-04-03 02:51:08,223000/d5edfe1b250d9eae19b01d7c6d58570e-d.jpg,,
21515298,"Fundamentals of Corporate Finance (Mcgraw-Hill/Irwin Series in Finance, Insurance, and Real Estate)",,"Mcgraw-Hill/Irwin Series in Finance, Insurance, and Real Estate",,"Stephen A. Ross, Randolph Westerfield, Bradford D. Jordan",2002,6th,McGraw-Hill Companies,,920,0,English,305,,0,"9780072469745,0072469749,007246982X,0072469870,0071151028",,,,,658.15,HG4026,,,OL22815324M,,0,,,,,,1,1,10192653,pdf,D7A24FD40072D5A4C135EB7EE37FF6F9,,,,0,2000-01-01 01:00:00,2016-04-03 02:51:08,223000/d7a24fd40072d5a4c135eb7ee37ff6f9.jpg,,
21515299,You Can Pass the CPA Exam: Get Motivated!,,,,Debra R. Hopkins,2000,2,Wiley,,235,0,English,305,,0,"047137010X,9780471370109",,,,,"657/.076,657.61076",HF5661 .H58 2000,,,OL24224714M,,0,,,,,1,,1,1952730,pdf,D9C9BAC3FA0D6E862BA35C0DFE5B9E71,,,,0,2000-01-01 01:00:00,2016-04-03 02:51:08,223000/d9c9bac3fa0d6e862ba35c0dfe5b9e71-d.jpg,,
21515300,The Power of Self-Esteem: An Inspiring Look At Our Most Important Psychological Resource,,,,Nathaniel Branden,1992,,HCI,,60,0,English,305,,0,"9781558742130,1558742131",,,,,158/.1,BF697.5.S46 B74 1992,,,OL1558722M,,0,,,,,,,1,3318524,pdf,DD2ADA917EC443477D03BC3974859463,,,,0,2000-01-01 01:00:00,2016-04-03 02:51:08,223000/dd2ada917ec443477d03bc3974859463-d.jpg,,
21515301,Harvard business essentials: managing change and transition,,The Harvard business essentials series,,"Richard Luecke, Harvard Business School Press",2003,1,Harvard Business School Press,"Boston, Mass",147,0,English,7,,0,"9781578518746,1578518741",,,,,658.1/6,HD58.8 .L836 2003,,,OL18657041M,,0,,,,,,1,1,738407,pdf,DD5C6EBFF31E371611FEE304DE2CEFE5,,,,0,2000-01-01 01:00:00,2016-04-03 02:51:08,223000/dd5c6ebff31e371611fee304de2cefe5-d.jpg,,
21515302,Experiments With People: Revelations From Social Psychology,,,,"Robert P. Abelson, Kurt P. Frey, Aiden P. Gregg",2003,illustrated edition,Psychology Press,,374,0,English,305,,0,"9780805828962,0805828966,0805828974",,,,,,,,,OL7937190M,,0,,,,,,1,1,21968347,pdf,DF2309069FC2314174AB39F4BF292D74,,,,0,2000-01-01 01:00:00,2016-04-03 02:51:08,223000/df2309069fc2314174ab39f4bf292d74-d.jpg,,
21515303,The Professional Services Firm Bible,,,,"John Baschab, Jon Piot",2005,,John Wiley & Sons,"Hoboken, NJ",570,0,English,305,,0,"9780471660484,0471660485",,,,,,,,,OL7619799M,,0,,,,,,,1,4386630,pdf,DF8DF852A7AAE645B800117A5F6C5295,,,,0,2000-01-01 01:00:00,2016-04-03 02:51:08,223000/df8df852a7aae645b800117a5f6c5295-d.jpg,,
21515304,"Focal Point: A Proven System to Simplify Your Life, Double Your Productivity, and Achieve All Your Goals",,,,Brian Tracy,2001,illustrated edition,AMACOM,,112,0,English,305,,0,"9780814471296,0814471293",,,,,158,BF637.S8 T635 2002,,,OL23273481M,,0,,,,,,,1,809829,pdf,E29427E239551426733C3779DB4FC69F,,,,0,2000-01-01 01:00:00,2016-04-03 02:51:08,223000/e29427e239551426733c3779db4fc69f-d.jpg,,
21515305,How to Think Like Benjamin Graham and Invest Like Warren Buffett,,,,Lawrence A. Cunningham,2001,1st,McGraw-Hill Companies,,289,0,English,183,,0,"0071369929,9780071369923,9780071381048",,,,,,,10.1036/007138104X,,OL24296091M,,0,,,,,1,,1,1184484,pdf,E29C00356450AD3ED533BDE9D5BF917C,,,,0,2000-01-01 01:00:00,2016-04-03 02:51:08,223000/e29c00356450ad3ed533bde9d5bf917c-d.jpg,,
21515306,The Techniques of Inner Leadership: Making Inner Leadership Work,,,,Gilbert W. Fairholm,2003,,Praeger Publishers,,328,0,English,305,,0,"9780275980344,0275980340",,,,,,,,,OL9886381M,,0,,,,,,,,598394,chm,E2FCC98DDA2709674F19759183A1664D,,,,0,2000-01-01 01:00:00,2016-04-03 02:51:08,223000/e2fcc98dda2709674f19759183a1664d-d.jpg,,
21515307,The Leadership Challenge Workbook,,,,"James M. Kouzes, Barry Z. Posner",2003,1st ed,Jossey-Bass,San Francisco,138,0,English,305,,0,"9780787968212,0787968218",,,,,658.4/092,HD57.7 .K6815 2003,,,OL3705308M,,0,,,,,,1,1,1894790,pdf,E36815D0D0413F4DEE57E1CAA196176F,,,,0,2000-01-01 01:00:00,2016-04-03 02:51:08,223000/e36815d0d0413f4dee57e1caa196176f-d.jpg,,
21515308,"The Fast Forward MBA Pocket Reference, Second Edition",,,,Paul A. Argenti,2002,2,Wiley,,337,0,English,,,0,"9780471222828,0471222828,0471348546,0471238295,0471256986,0471325465,0471345482",,,,,332.024,HG179 .M37418 1999,,,OL15611270M,,0,,,,,,,1,2116721,pdf,E46A105F1CE0DCA0F116FE6ACFE3BFDA,,,,0,2000-01-01 01:00:00,2016-04-03 02:51:08,223000/e46a105f1ce0dca0f116fe6acfe3bfda-d.jpg,,
21515309,High-Value IT Consulting: 12 Keys to a Thriving Practice,,,,"Sanjiv Purba, Bob Delaney",2003,1,McGraw-Hill Osborne Media,,465,0,English,305,,0,"9780072226256,0072226250",,,,,004/.023/73,HD69.C6 P87 2003,,,OL3778511M,,0,,,,,,,1,12687843,pdf,E4A960A4641570C94BC3E7DB1F8AC1EF,,,,0,2000-01-01 01:00:00,2016-04-03 02:51:08,223000/e4a960a4641570c94bc3e7db1f8ac1ef-d.jpg,,
21515310,The 7 Irrefutable Rules of Small Business Growth,,,,Steven S. Little,2005,1,J. Wiley,"Hoboken, N.J",257,0,English,1,,0,"9780471707608,0471707600",,,,,,,,,OL7620372M,,0,,,,,,,0,2055917,pdf,E4E522349AF3FAE0401C8C09F6160729,,,John.Wiley.&.Sons - The.7.Irrefutable.Rules.of.Small.Business.Growth (2005.ISBN.0471707600).pdf,0,2000-01-01 01:00:00,2016-04-03 02:51:08,223000/e4e522349af3fae0401c8c09f6160729-d.jpg,,
21515311,"Resizing the Organization: Managing Layoffs, Divestitures, and Closings (J-B SIOP Professional Practice Series)",,J-B SIOP Professional Practice Series,,"Kenneth De Meuse, Mitchell Lee Marks",2003,1,Pfeiffer,,415,0,English,7,,0,"9780787958916,0787958913",,,,,,,,,OL8148714M,,0,,,,,,,1,3078831,pdf,E54D78DE52A0BBA06A449951EE22D1C2,,,,0,2000-01-01 01:00:00,2016-04-03 02:51:08,223000/e54d78de52a0bba06a449951ee22d1c2-d.jpg,,
21515312,The agile manager's guide to understanding financial statements,,The agile manager series,,Joseph T. Straub,1997,,Velocity Business Pub,"Bristol, Vt",96,0,English,305,,0,"0965919358,9780965919357",,,,,657/.3,HF5681.B2 S833 1997,,,OL713488M,,0,,,,,1,1,1,535062,pdf,E78F9BC2B07741C9724F49DDC58141B5,,,,0,2000-01-01 01:00:00,2016-04-03 02:51:08,223000/e78f9bc2b07741c9724f49ddc58141b5-d.jpg,,
21515313,Trading to Win: The Psychology of Mastering the Markets (Wiley Trading),,Wiley Trading,,Ari Kiev,1998,,Wiley,,133,0,English,305,,0,"0471248428,9780471248422",,,,,332.024/01,HG4521 .K455 1998,,,OL360440M,,0,,,,0,0,,1,2560774,pdf,E85DE36080DEB37FF3EB3EFA10B201FA,,,Reallyusefulebooks Wiley - 1998 - Trading To Win The Psychology Of Mastering The Markets - Isbn 0471248428 - 266S.pdf,0,2000-01-01 01:00:00,2016-04-03 02:51:08,223000/e85de36080deb37ff3eb3efa10b201fa-d.jpg,,
21515314,Doing Business with China,,Global market briefing,,"Li Yong, Jonathan Reuvid",2003,4th ed,Kogan Page,London; Sterling VA,650,0,English,1,,0,"9780749439118,0749439114",,,,,,,,,OL9357097M,,0,,,,,,,,8584382,chm,E91714CFF2318DE804B3371386BC02A7,,,,0,2000-01-01 01:00:00,2016-04-03 02:51:08,223000/e91714cff2318de804b3371386bc02a7-d.jpg,,
21515315,Getting Yours: It's Not Too Late to Have the Wealth You Want,,,,"Bambi Holzer, Elaine Floyd",2001,1,Wiley,,273,0,English,305,,0,"9780471411277,0471411272",,,,,,,,,OL7616824M,,0,,,,,,,1,1497773,pdf,E9AC1A164C8973DA56E5E757B7D02D45,,,,0,2000-01-01 01:00:00,2016-04-03 02:51:08,223000/e9ac1a164c8973da56e5e757b7d02d45-d.jpg,,
21515316,The Complete Idiot's Guide to Small Business for Canadians,,,,Larry Easto,2002,,Pearson Education Canada,,323,0,English,183,,0,"0130900788,9780130900784",,,,,,,,,,,0,,,,,,,1,17246558,pdf,EB76B5CC1276A06DB5DE9B67004C9968,,,,0,2000-01-01 01:00:00,2016-04-03 02:51:08,223000/eb76b5cc1276a06db5de9b67004c9968-d.jpg,,
21515317,Fearless Interviewing: How to Win the Job by Communicating with Confidence,,,,Marky Stein,2002,1,McGraw-Hill,,193,0,English,183,,0,"0071408843,9780071408844,9780071415729",,,,,658.3/1124,HF5549.5.I6 S728 2003,10.1036/0071415726,,OL22138969M,,0,,,,,1,1,1,1212470,pdf,EEB9E5CD513EA95AF7AC928D20D24B6A,,,,0,2000-01-01 01:00:00,2016-04-03 02:51:08,223000/eeb9e5cd513ea95af7ac928d20d24b6a-d.jpg,,
21515318,Spiritual Marketing: A Proven 5-Step Formula for Easily Creating Wealth from the Inside Out,,,,"Joe Vitale, Bob Proctor",2002,,Authorhouse,,136,0,English,305,,0,"9780759614314,0759614318",,,,,,,,,OL8008297M,,0,,,,,,,1,371806,pdf,F2D72202484740416ADDF3BEF68923BF,,,,0,2000-01-01 01:00:00,2016-04-03 02:51:08,223000/f2d72202484740416addf3bef68923bf-d.jpg,,
21515319,Ultimate selling power: how to create and enjoy a multimillion dollar sales career,,,,Ken Lloyd,2008,,Career Press,"Franklin Lakes, NJ",286,0,English,305,,0,"1564146413,9781564146410,9780585428338",,,,,,,,,OL9320268M,,0,,,,,1,1,1,1382627,pdf,F3222E9CAF8180635C8CB9094F4886E3,,,,0,2000-01-01 01:00:00,2016-04-03 02:51:08,223000/f3222e9caf8180635c8cb9094f4886e3-d.jpg,,
21515320,The Portable MBA in Finance and Accounting,,The portable MBA series,,"John Leslie Livingstone, Theodore Grossman",2002,3rd ed,J. Wiley,New York,672,0,English,2,,0,"9780471061854,0471061859",,,,,658.15,HG4026 .P665 2002,,,OL3970267M,,0,,,,,,,1,3643946,pdf,F611C87312BF09C4F8E1AA25F3DF4CD7,,,,0,2000-01-01 01:00:00,2016-04-03 02:51:08,223000/f611c87312bf09c4f8e1aa25f3df4cd7-d.jpg,,
21515321,"Kiplinger's Practical Guide to Your Money, Revised and Updated: Keep More of It, Make it Grow, Enjoy It, Protect It, Pass It On",,,,Ted Miller,2002,Rev&Updtd,Kiplinger Books,,571,0,English,305,,0,"9780938721932,0938721933",,,,,,,,,OL8417485M,,0,,,,,,,1,1883036,pdf,F7924E6E8863DCBE634F106DEFEB0DF9,,,,0,2000-01-01 01:00:00,2016-04-03 02:51:08,223000/f7924e6e8863dcbe634f106defeb0df9-d.jpg,,
21515322,Investment blunders of the rich and famous-- and what you can learn from them,,Financial Times Prentice Hall books,,John R. Nofsinger,2002,1st,Financial Times/Prentice Hall,"Upper Saddle River, NJ",336,0,English,183,,0,"9780130668417,0130668419",,,,,,,,,OL7332901M,,0,,,,,,,,983756,chm,F8CB6A803339C700BF8D8667F073CB37,,,,0,2000-01-01 01:00:00,2016-04-03 02:51:08,223000/f8cb6a803339c700bf8d8667f073cb37-d.jpg,,
21515323,Motley Fool Money Guide,,,,"Selena Maranjian, David Gardner",2001,,Motley Fool,,422,0,English,305,,0,"9781892547118,1892547112",,,,,,,,,OL8719711M,,0,,,,,,,1,1714571,pdf,FA28CA10F53C34DC0DE664738209B497,,,,0,2000-01-01 01:00:00,2016-04-03 02:51:08,223000/fa28ca10f53c34dc0de664738209b497-d.jpg,,
21515324,MBA In A Day: What You Would Learn At Top-Tier Business Schools (If You Only Had The Time!),,If You Only Had The Time!,,Steven Stralser,2004,,Wiley,,323,0,English,183,,0,"0471680540,9780471680543,9780471691242",,,,,,,,,OL24264330M,,0,,,,,1,,0,1650349,pdf,FCC99AAE8008EA62153730D556E8B984,,,,0,2000-01-01 01:00:00,2016-04-03 02:51:08,223000/fcc99aae8008ea62153730d556e8b984-d.jpg,,
21515325,PCR primer design,,Methods in molecular biology 402,,Anton Yuryev,2007,1,Humana Press,"Totowa, N.J",413,0,English,12,,0,"158829725X,9781588297259,9781597455282,1597455288",,,,,,,,,OL12325709M,,0,0,0,,,,1,1,8593015,pdf,84B90B625F2DA717707A3EB6096C32C4,,,Methods in Molecular Biology Vol 402 - Pcr Primer Design.pdf,0,2000-01-01 01:00:00,2016-04-03 02:51:08,223000/84b90b625f2da717707a3eb6096c32c4-d.jpg,,
21515326,Modeling and simulation of aerospace vehicle dynamics,,AIAA education series,,Peter H. Zipfel,2000,1,American Institute of Aeronautics and Astronautics,"Reston, VA",557,0,English,244,,0,"9781563474569,1563474565",,,,,,,,,OL17004014M,,0,,,,,,,1,7048592,pdf,4D3EF556E0E06A2B2F4DF232E7906C26,,,,0,2000-01-01 01:00:00,2016-04-03 02:51:08,226000/4d3ef556e0e06a2b2f4df232e7906c26-d.jpg,,
21515327,Nano-Physics & Bio-Electronics: A New Odyssey,,,,"T. Chakraborty, F. Peeters, U. Sivan",2002,1,Elsevier Science,,363,0,English,264,,0,"9780444509932,0444509933",,,,,,,,,OL10260286M,,0,,,,,,,1,20831454,pdf,A05A08DA815657F69ED488243D7BE85A,,,,0,2000-01-01 01:00:00,2016-04-03 02:51:08,223000/a05a08da815657f69ed488243d7be85a-d.jpg,,
21515328,"ADV IN MICROBIAL PHYSIOLOGY VOL 19 APL, Volume 19 (v. 19)",,,,Author Unknown,1980,,Academic Press,,387,0,English,19,,0,"0120277194,0120277190,9780120277193,9780080579795",,B000IXTZZU,,,,,,,OL10070500M,,0,0,0,,,1,,1,20658587,pdf,B3F23E639292D408288C30937A40F42D,,,,0,2000-01-01 01:00:00,2016-04-03 02:51:08,223000/b3f23e639292d408288c30937a40f42d-d.jpg,,
21515329,Eye Wonder: Rain Forest,,,,Helen Sharman,2001,1st,DK CHILDREN,,48,0,English,,,0,"0789478536,9780789478535",,,,,578.734,QH86 .G734 2001,,,OL17919613M,,0,,,,,,,1,35516916,pdf,81CDDAF0FACFF1245E2ED57ED25582C4,,,,0,2000-01-01 01:00:00,2016-04-03 02:51:08,223000/81cddaf0facff1245e2ed57ed25582c4-d.jpg,,
21515330,"Pacific Symposium on Biocomputing 2008: Kohala Coast, Hawaii, USA 4-8 January 2008",,,,"Russ B. Altman, A. Keith Dunker, Lawrence Hunter, Tiffany Murray, Teri E. Klein",2008,,World Scientific Publishing Company,,684,0,English,185,,0,"9789812776082,9812776087",,,,,,,,,,,0,0,0,,,,1,1,44782569,pdf,6D35730726E17F8CFD3001109428692F,,,,0,2000-01-01 01:00:00,2016-04-03 02:51:08,223000/6d35730726e17f8cfd3001109428692f-d.jpg,,
21515331,Vermeidung des Earnings Management der Umsatzerlöse : eine ökonomische Analyse der internationalen Rechnungslegungsnormen,,Rechnungswesen und Unternehmensüberwachung; Gabler Edition Wissenschaft,,Christian Herold,2006,,Wiesbaden Dt. Univ.-Verl.,,261,0,German,,usenet,to 2012-06,"3835002740,9783835002746",,,,,,,,,,,0,,,,,,,1,14335321,pdf,5174e2f8add685de71faa8be2098a546,,,I:\\usenet_ger\\Vermeidung.des.Earnings.Management.der.Umsatzerloese.[Springer].[2006].[g50914].pdf,0,2000-01-01 01:00:00,2016-04-03 02:51:08,884000/5174e2f8add685de71faa8be2098a546-d.jpg,,
21515332,Biological networks,,Complex systems and interdisciplinary science 3,,"Frantois Kopos, Frantois Kopos",2007,1,World Scientific,"[Hackensack], NJ",531,0,English,99,,0,"9789812706959,981270695X",,,,,570.285,QH324.2 .B58 2007,,,OL13169972M,,0,0,0,,,,1,1,21547230,pdf,8E4108898173C1C1EB55985E4DD0B9BC,,,,0,2000-01-01 01:00:00,2016-04-03 02:51:08,223000/8e4108898173c1c1eb55985e4dd0b9bc-d.jpg,,
21515333,Biomathematics: Modelling and Simulation,,,,J. C. Misra,2006,1,World Scientific Publishing Company,,525,0,English,113,duansci.com_Biology,0,"9789812381101,9812381104",,,,,,,,,OL17206611M,,0,0,0,,,,,1,23223060,pdf,39290B0F2D28FB9AD5B1EBBC298EAB8A,,,,0,2000-01-01 01:00:00,2016-04-03 02:51:08,223000/39290b0f2d28fb9ad5b1ebbc298eab8a-d.jpg,,
21515334,Сопротивление материалов. Краткий курс,,,,Агамиров,2003,,,,129,0,Russian,276,torrents.ru tech collections 2009-11-14,0,,,,,,,,,,,,0,,,,,1,1,0,9577661,pdf,80D4D2B0AF5BDBE5BE89F1EEBF38B17C,,,"D:/!Genesis/!!ForLG/1569003-/Сопротивление материалов/ Агамиров - Сопротивление материалов. Краткий курс, 2003.pdf",0,2000-01-01 01:00:00,2016-04-03 02:51:08,223000/80d4d2b0af5bdbe5be89f1eebf38b17c.jpg,,
21515335,Ассоциативные нейроподобные структуры,,,,КУССУЛЬ Э.М,1992,,наукова думка,,,0,Russian,275,torrents.ru tech collections 2009-11-14,,,,,,,,,,,,,0,,,,,,,,122352,zip,EFF03EF3DD1A41854A865D8021B4EC1F,,,D:\\!Genesis\\!!ForLG\\527462-Теория хаоса и иже с ней\\Haos\\ Ассоциативные нейроподобные структуры.zip,0,2000-01-01 01:00:00,2016-04-03 02:51:08,,,
21515336,Бифуркация рождения цикла и её приложения,,,,"Марсден Дж., Мак-Кракен М.",,,,,366,0,Russian,275,torrents.ru tech collections 2009-11-14,,,,,,,,,,,,,0,,,,,,,0,15790393,pdf,618EDF116E389AC6AFD57FF4AB270DF7,,,D:\\!Genesis\\!!ForLG\\527462-Теория хаоса и иже с ней\\Haos\\ Бифуркация рождения цикла и её приложения..pdf,0,2000-01-01 01:00:00,2016-04-03 02:51:08,223000/618edf116e389ac6afd57ff4ab270df7.jpg,,
21515337,Анизотропия и оптика,,Проблемы науки и технического прогресса,,Жевандров Н.Д.,1974,,Наука,Москва,167,0,Russian,264,torrents.ru tech collections 2009-11-14,0,,,,,,,,,,,,0,,,,,,,0,3091049,djvu,2877D7823A5C96670FABEC1D7F4F92F8,6bb1f5fa5fe1ccbe863c7d37d99b174f,no,D:!Genesis!!ForLG2319748-Сборник книг для физиков #4Оптика и атомная физика Жевандров - Оптика.djvu,0,2000-01-01 01:00:00,2016-04-03 02:51:08,223000/2877d7823a5c96670fabec1d7f4f92f8.jpg,,
21515338,Знакомство с нелинейной динамикой,,,,В.С. Анищенко,2002,,Институт компьютерных исследований,,145,0,Russian,275,torrents.ru tech collections 2009-11-14,,,,,,,,,,,,,0,,,,,,,0,12465076,pdf,1C2448A11FC105B175AE1CFA917197E8,,,D:\\!Genesis\\!!ForLG\\527462-Теория хаоса и иже с ней\\Haos\\ Знакомство с нелинейной динамикой. 2002..pdf,0,2000-01-01 01:00:00,2016-04-03 02:51:08,223000/1c2448a11fc105b175ae1cfa917197e8.jpg,,
21515339,Краткий исторический очерк лесоразведения в южно-русских степях,,,"Лесной журнал, 1887 , вып. 6",Н.Срединский,,,,,14,0,Russian,64,torrents.ru tech collections 2009-11-14,,,,,,,,,,,,,0,,,,,,,0,878617,pdf,4B5C08F691225BC5B522C8266DA7B831,,ban,"D:\\!Genesis\\!!ForLG\\1355119-(Лесоводство) Коллекция книг и статьи о лесе конца 19 - пер.по\\ Н.Срединский. Краткий исторический очерк лесоразведения в южно-русских степях. Лесной журнал, 1887 , вып. 6.pdf",0,2000-01-01 01:00:00,2016-04-03 02:51:08,223000/4b5c08f691225bc5b522c8266da7b831.jpg,,
21515340,Регулярная и стохастическая динамика,,,,"Лихтенберг А., Либерман М. ",,,,,536,0,Russian,275,torrents.ru tech collections 2009-11-14,,,,,,,,,,,,,0,,,,,,,0,5736404,djvu,739DD75A7FA611AFB6F2FA24190D1786,feebd9219927610f2eddde44fa4a92bd,no,D:\\!Genesis\\!!ForLG\\527462-Теория хаоса и иже с ней\\Haos\\ Регулярная и стохастическая динамика..djvu,0,2000-01-01 01:00:00,2016-04-03 02:51:08,223000/739dd75a7fa611afb6f2fa24190d1786.jpg,,
21515341,Хаос и интегрируемость в нелинейной динамике,,,,Табор М.,,,,,331,0,Russian,275,torrents.ru tech collections 2009-11-14,,,,,,,,,,,,,0,,,,,,,0,3396528,djvu,5EE1013AD0898B8D0DB396B54994E3EB,c2871d9364b4ec6dc5c2d1017a233593,no,D:\\!Genesis\\!!ForLG\\527462-Теория хаоса и иже с ней\\Haos\\ Хаос и интегрируемость в нелинейной динамике.djvu,0,2000-01-01 01:00:00,2016-04-03 02:51:08,223000/5ee1013ad0898b8d0db396b54994e3eb.jpg,,
21515342,A User Guide to Successfully Fighting Traffic Tickets,,Pay no Fine,,,,,,,93,0,English,,torrents.ru tech collections 2009-11-14,,,,,,,,,,,,,0,,,,,,,1,325523,pdf,1FE7B3B267F97A4C98E54EAF60861974,,,D:\\!Genesis\\!!ForLG\\-=  UNSORTED BOOKS  =-\\EBOOK COLLECTION (PART14) [CSI][h33t]\\! - Pay no Fine - A User Guide to Successfully Fighting Traffic Tickets.pdf,0,2000-01-01 01:00:00,2016-04-03 02:51:08,223000/1fe7b3b267f97a4c98e54eaf60861974.jpg,,
21515343,,,,"Communications of the ACM - July 1998 - Vol. 41, No. 7",,1998,,,,,0,English,75,torrents.ru tech collections 2009-11-14,0,,,,,,,,,,,periodic,0,,,,,1,,,6667755,rar,A4F6D10FD4364E0022AC9C646A7FF044,,ban,"D:/!Genesis/!!ForLG/1991178Цифровые водяные знаки/article/!Communications of the ACM - July 1998 - Vol. 41, No. 7.rar",0,2000-01-01 01:00:00,2016-04-03 02:51:08,223000/A4F6D10FD4364E0022AC9C646A7FF044-g.jpg,,
21515344,Multimedia and Security Workshop at ACM Multimedia 98. Bristol,,,,"Dittmann, Jana; Horster, Patrik; Steinmetz, Ralf; Wohlmacher, Petra (Eds.)",,,,,135,0,English,185,torrents.ru tech collections 2009-11-14,,,,,,,,,,,,,0,,,,,,,1,2544588,pdf,4980D156496DA6015590CD414A2B8AC9,,,D:\\!Genesis\\!!ForLG\\1991178Цифровые водяные знаки\\article\\!Multimedia and Security Workshop at ACM Multimedia 98. Bristol.pdf,0,2000-01-01 01:00:00,2016-04-03 02:51:08,223000/4980d156496da6015590cd414a2b8ac9.jpg,,
21515345,Learn Spanish,1,,,Pimsleur,,,,,20,0,English,183,torrents.ru tech collections 2009-11-14,,,,,,,,,,,,,0,,,,,,1,1,284638,pdf,29B0537CC9494653C69160148635F4E9,,,D:\\!Genesis\\!!ForLG\\-=  UNSORTED BOOKS  =-\\Non-Fiction\\Hobby\\( EBOOK - PDF - ENG ) Pimsleur - Learn Spanish I.pdf,0,2000-01-01 01:00:00,2016-04-03 02:51:08,223000/29b0537cc9494653c69160148635f4e9.jpg,,
21515346,Электронные и Ионные приборы,,,,Григорьев ,1954,,Связьиздат,,420,0,Russian,250,torrents.ru tech collections 2009-11-14,,,,,,,,,,,,,0,,,,,,,0,8543100,djvu,4D0A9566E8050D3BE7D5BA9D766B7AC2,98fddb4f3a437f3d4a1ba9fd8717502a,no,D:\\!Genesis\\!!ForLG\\1716302-Подборка книг по вакуумной и плазменной электронике\\(!!!)Григорьев - Электронные и Ионные приборы.djvu,0,2000-01-01 01:00:00,2016-04-03 02:51:08,223000/4d0a9566e8050d3be7d5ba9d766b7ac2.jpg,,
21515347,"Wavelets, Approximation, and Statistical Applications",,Lecture Notes in Statistics,,"Haerdle W., Kerkyacharian G., Picard D. ",2000,,Springer,,286,0,English,118,torrents.ru tech collections 2009-11-14,,,,,,,,,,,,,0,,,,,,,1,7086421,pdf,A3E0022D6AD3C470EFC4D2D2233EAFEC,,,"D:\\!Genesis\\!!ForLG\\!!!3\\(2000-04) (Springer) Wavelets, Approximation, and Statistical Applications - Lecture Notes in Statistics.pdf",0,2000-01-01 01:00:00,2016-04-03 02:51:08,223000/a3e0022d6ad3c470efc4d2d2233eafec.jpg,,
21515348,Convex Analysis and Non Linear Optimization,,,,Borwein-Lewis,2000,,Springer,,310,0,English,136,torrents.ru tech collections 2009-11-14,,,,,,,,,,,,,0,,,,,,,1,1310852,pdf,7A4CFD8075E9E9FCEE366A500E2EF692,,,D:\\!Genesis\\!!ForLG\\!!!3\\(Book) Borwein-Lewis - 2000- Convex Analysis and Non Linear Optimization - Springer Verlag [+Notes].pdf,0,2000-01-01 01:00:00,2016-04-03 02:51:08,223000/7a4cfd8075e9e9fcee366a500e2ef692.jpg,,
21515349,The Laplace Transform: Theory and Applications,,Undergraduate Texts in Mathematics,,Joel L. Schiff,1999,,Springer,,152,0,English,113,torrents.ru tech collections 2009-11-14,0,"0387986987,9780387986982",,,,,,,,,,,0,,,,,,,0,21983031,pdf,BA2930A87B8C367D11900FB522ED2411,,,"D:/!Genesis/!!ForLG/!!!3/(Book) Schiff, J.L. 1999 The Laplace Tranform - Springer (UTM).pdf",0,2000-01-01 01:00:00,2016-04-03 02:51:08,223000/ba2930a87b8c367d11900fb522ed2411-d.jpg,,
21515350,"Real variables, Lebesque measure with applications to Fourier series",,Schaum's outline,,Spiegel M.R.,1990,,Mcgraw-Hill,,201,0,English,117,torrents.ru tech collections 2009-11-14,,,,,,,,,,,,,0,,,,,,,0,8872294,pdf,BC5260860CB0FC8752BBD47BD1FE13F0,,,"D:\\!Genesis\\!!ForLG\\!!!3\\(Book) Spiegel M.R. - 1990 - Real variables, Lebesque measure with applications to Fourier series - McGraw Hill (Schaums outline).pdf",0,2000-01-01 01:00:00,2016-04-03 02:51:08,223000/bc5260860cb0fc8752bbd47bd1fe13f0.jpg,,
21515351,Creative Homemaking Guide to Casserole,,,,Rachel Paxton,,,,,14,0,English,49,torrents.ru tech collections 2009-11-14,,,,,,,,,,,,,0,,,,,,,1,34867,pdf,AD39069D1A770FF4C49884E16190F37F,,,D:\\!Genesis\\!!ForLG\\-=  UNSORTED BOOKS  =-\\Non-Fiction\\Food and Cooking\\Recipes\\Cookbooks\\(Cooking) Creative Homemaking Guide to Casseroles (pdf).pdf,0,2000-01-01 01:00:00,2016-04-03 02:51:08,223000/ad39069d1a770ff4c49884e16190f37f.jpg,,
21515352,Culinary Herbs,,,,,,,,,,0,English,49,torrents.ru tech collections 2009-11-14,,,,,,,,,,,,,0,,,,,,,,114462,rar,88706FC74EA68B5C54C7669D48B1DC54,,,D:\\!Genesis\\!!ForLG\\-=  UNSORTED BOOKS  =-\\Non-Fiction\\Food and Cooking\\Recipes\\(Cooking) Culinary Herbs.rar,0,2000-01-01 01:00:00,2016-04-03 02:51:08,,,
21515353,Pedro's Cookbook - Brazilian Recipes,,,,Rachel Paxton,,,,,,0,English,49,torrents.ru tech collections 2009-11-14,,,,,,,,,,,,,0,,,,,,,,42496,doc,69ED14332E6CECBEA14E9718C8160056,,,D:\\!Genesis\\!!ForLG\\-=  UNSORTED BOOKS  =-\\Non-Fiction\\Food and Cooking\\Recipes\\Cookbooks\\(Cooking) Pedros Cookbook - Brazilian Recipes.doc,0,2000-01-01 01:00:00,2016-04-03 02:51:08,,,
21515354,The Joys of an Herb Garden at Home,,,,Mellow Gold,,,,,,0,English,49,torrents.ru tech collections 2009-11-14,,,,,,,,,,,,,0,,,,,,,,54769,zip,71C3195A16DFAA1F67CD86F5BD4969C4,,,D:\\!Genesis\\!!ForLG\\-=  UNSORTED BOOKS  =-\\Non-Fiction\\Food and Cooking\\Recipes\\(Cooking) The Joys of an Herb Garden at Home.zip,0,2000-01-01 01:00:00,2016-04-03 02:51:08,,,
21515355,100 Sauce Recipes,,,,,,,,,,0,English,49,torrents.ru tech collections 2009-11-14,,,,,,,,,,,,,0,,,,,,,,23181,pdb,70CEC661ACE52D6E64BE3DA176A98899,,,D:\\!Genesis\\!!ForLG\\-=  UNSORTED BOOKS  =-\\Non-Fiction\\Food and Cooking\\Recipes\\Cookbooks\\(E Book) - 100 Sauce Recipes.pdb,0,2000-01-01 01:00:00,2016-04-03 02:51:08,,,
21515356,14000 drinks and how to make them,,,,,,,,,,0,English,49,torrents.ru tech collections 2009-11-14,,,,,,,,,,,,,0,,,,,,,,5764071,zip,15B4C5E2C8370C068B9FE095A3C5B281,,,D:\\!Genesis\\!!ForLG\\-=  UNSORTED BOOKS  =-\\Non-Fiction\\Food and Cooking\\Recipes\\Cookbooks\\(eBook - drinks - recipes) - 14000 drinks and how to make them.zip,0,2000-01-01 01:00:00,2016-04-03 02:51:08,,,
21515357,Book of Lies,,,,Aleister Crowley,1973,,Krishna Pr,,212,0,English,209,torrents.ru tech collections 2009-11-14,,"9780879681159,0879681152",,,,,828/.9/1209,PR6005.R7 B6 1974,,,OL21283882M,,0,,,,,,,1,316070,pdf,5E694664DBBF0DFB0F4E426FBE8C8CA2,,,"D:\\!Genesis\\!!ForLG\\-=  UNSORTED BOOKS  =-\\Non-Fiction\\Mythology\\The Occult\\(ebook - english) Crowley, Aleister - Book of Lies.pdf",0,2000-01-01 01:00:00,2016-04-03 02:51:08,223000/5e694664dbbf0dfb0f4e426fbe8c8ca2.jpg,,
21515358,hatha yoga pradipika,,,,,,,,,102,0,English,163,torrents.ru tech collections 2009-11-14,,,,,,,,,,,,,0,,,,,,1,1,319255,pdf,4E8FE7D1B94E7FDC3EE5772D39046898,,,D:\\!Genesis\\!!ForLG\\-=  UNSORTED BOOKS  =-\\Non-Fiction\\Diet and Fitness\\yoga\\(ebook - english) meditation - hatha yoga pradipika.pdf,0,2000-01-01 01:00:00,2016-04-03 02:51:08,223000/4e8fe7d1b94e7fdc3ee5772d39046898.jpg,,
21515359,the yoga system,,,,sri swami sivananda,,,,,52,0,English,163,torrents.ru tech collections 2009-11-14,,,,,,,,,,,,,0,,,,,,1,1,214794,pdf,FB4F0C9AA8AA57E06D8F786750288017,,,D:\\!Genesis\\!!ForLG\\-=  UNSORTED BOOKS  =-\\Non-Fiction\\Diet and Fitness\\yoga\\(ebook - english) meditation - sri swami sivananda - the yoga system.pdf,0,2000-01-01 01:00:00,2016-04-03 02:51:08,223000/fb4f0c9aa8aa57e06d8f786750288017.jpg,,
21515360,Yoga and Yoga Discipline,,,,"Swami Chidvilasananda, David Katz",1996,,Siddha Yoga Publications,,22,0,English,163,torrents.ru tech collections 2009-11-14,,"9780911307443,0911307443",,,,,294.5/44,BL1237.36 .C559 1996,,,OL8298596M,,0,,,,,,,0,67157,pdf,3EF40677B7DD640A85CC0CBA30A0293F,,,D:\\!Genesis\\!!ForLG\\-=  UNSORTED BOOKS  =-\\Non-Fiction\\Diet and Fitness\\yoga\\(ebook - english) Meditation - Yoga and Yoga Discipline.pdf,0,2000-01-01 01:00:00,2016-04-03 02:51:08,223000/3ef40677b7dd640a85cc0cba30a0293f-d.jpg,,
21515361,introduction to yoga,,,,,,,zip publishing,,26,0,English,163,torrents.ru tech collections 2009-11-14,,,,,,,,,,,,,0,,,,,,,1,133120,pdf,1227B626D7E8979DD503ABBED1CC3E53,,,D:\\!Genesis\\!!ForLG\\-=  UNSORTED BOOKS  =-\\Non-Fiction\\Diet and Fitness\\yoga\\(ebook - english) meditation - zip publishing - introduction to yoga.pdf,0,2000-01-01 01:00:00,2016-04-03 02:51:08,223000/1227b626d7e8979dd503abbed1cc3e53.jpg,,
21515362,Cambridge English Grammar In Use (Intermediate Answers),,,,,,,Cambridge University Press,,,0,English,314,torrents.ru tech collections 2009-11-14,,,,,,,,,,,,,0,,,,,,,,723570,rtf,1907C70CA441B4A6701BF38A59B6EFD0,,,D:\\!Genesis\\!!ForLG\\!!!3\\(Ebook - Grammer) Cambridge English Grammar In Use (Intermediate Answers).doc,0,2000-01-01 01:00:00,2016-04-03 02:51:08,,,
21515363,"Organizzazione Aziendale, Manuale Corso Universitario Completo Della",,,,,2004,,Mcgraw-Hill,,286,0,Italian,,torrents.ru tech collections 2009-11-14,,,,,,,,,,,,,0,,,,,,,1,3091331,pdf,9F5089EF32FE67CC002DBBFAEA6E884C,,,"D:\\!Genesis\\!!ForLG\\!!!3\\(Ebook - Ita - Economia) A A V V - Organizzazione Aziendale, Manuale Corso Universitario Completo Della Mcgraw Hill 2004 (Pdf).pdf",0,2000-01-01 01:00:00,2016-04-03 02:51:08,223000/9f5089ef32fe67cc002dbbfaea6e884c.jpg,,
21515364,42 Movement Form,,,,Tai Chi Yang ,,,,,24,0,English,163,torrents.ru tech collections 2009-11-14,,,,,,,,,,,,,0,,,,,,,0,771204,pdf,23D721E37622AD4BD7E42BE33DCDD929,,,D:\\!Genesis\\!!ForLG\\-=  UNSORTED BOOKS  =-\\Non-Fiction\\Diet and Fitness\\yoga\\(Ebook - Martial Arts) Tai Chi Yang 42 Movement Form.pdf,0,2000-01-01 01:00:00,2016-04-03 02:51:08,223000/23d721e37622ad4bd7e42be33dcdd929.jpg,,
21515365,Magick Without Tears,,,,Aleister Crowley,1993,,Kersken-Canbaz,,359,0,English,111,torrents.ru tech collections 2009-11-14,,,,B001FQZL6G,,,,,,,,,0,,,,,,,1,660051,pdf,BDB6708F0913968ED9EB1CC21D142769,,,D:\\!Genesis\\!!ForLG\\-=  UNSORTED BOOKS  =-\\Non-Fiction\\Mythology\\(ebook - occult) Aleister Crowley - Magick Without Tears.pdf,0,2000-01-01 01:00:00,2016-04-03 02:51:08,223000/bdb6708f0913968ed9eb1cc21d142769.jpg,,
21515366,Mortadello,,,,Crowley,1992,Facsimile edition,Mandrake Press,,64,0,English,111,torrents.ru tech collections 2009-11-14,,"9781872736174,1872736173",,,,,,,,,OL8652986M,,0,,,,,,,0,3259573,pdf,32288A46FA15F4BF1C82EB1ACA1711E3,,,D:\\!Genesis\\!!ForLG\\-=  UNSORTED BOOKS  =-\\Non-Fiction\\Mythology\\(Ebook - Occult) Aleister Crowley - Mortadello.pdf,0,2000-01-01 01:00:00,2016-04-03 02:51:08,223000/32288a46fa15f4bf1c82eb1aca1711e3.jpg,,
21515367,The Heart of the Master,,,,Aleister Crowley,,,,,22,0,English,209,torrents.ru tech collections 2009-11-14,,,,,,,,,,,,,0,,,,,,,1,53338,pdf,EFF759A5E4E5E1B49E66B76F95FE0E51,,,D:\\!Genesis\\!!ForLG\\-=  UNSORTED BOOKS  =-\\Non-Fiction\\Mythology\\The Occult\\(ebook - occult) Aleister Crowley - The Heart of the Master.pdf,0,2000-01-01 01:00:00,2016-04-03 02:51:08,223000/eff759a5e4e5e1b49e66b76f95fe0e51.jpg,,
21515368,Heptameron or Magical Elements,,,,"Peter; Turner, Robert Abano",2004,,Ouroboros Press,,23,0,English,209,torrents.ru tech collections 2009-11-14,,"9780966295030,096629503X",,,,,,,,,OL8553212M,,0,,,,,,1,1,251176,pdf,74B3B35543C7589300CD9577967C036E,,,D:\\!Genesis\\!!ForLG\\-=  UNSORTED BOOKS  =-\\Non-Fiction\\Mythology\\The Occult\\(ebook - occult) Heptameron.pdf,0,2000-01-01 01:00:00,2016-04-03 02:51:08,223000/74b3b35543c7589300cd9577967c036e.jpg,,
21515369,Ad hoc-Publizität und Zwischenberichterstattung im deutschen Corporate Governance-System : eine Analyse vor dem Hintergrund europäischer Harmonisierungsbestrebungen,,"Gabler Edition Wissenschaft : Schriften zu Wirtschaftsprüfung, Steuerlehre und Controlling; Gabler Edition Wissenschaft., Schriften zu Wirtschaftsprüfung, Steuerlehre und Controlling",,Eva Griewel,2006,,Deutscher Universitäts-Verlag,Wiesbaden,542,0,German,,usenet,to 2012-06,"9783835093454,3835093452",,,,,,,,,,,0,,,,,,,1,21810296,pdf,431b73514760aaa8bdc9c2869962a6f5,,,I:\\usenet_ger\\Ad.hoc-Publizitaet.und.Zwischenberichterstattung.im.deutschen.Corporate.Governance-System.[Springer].[2006].[j65g50].pdf,0,2000-01-01 01:00:00,2016-04-03 02:51:08,882000/431b73514760aaa8bdc9c2869962a6f5-g.jpg,,
21515370,The Fourth Book of Occult Philosophy,,,,Henry Cornelius Agrippa,2010,,"Kessinger Publishing, LLC",,34,0,English,209,torrents.ru tech collections 2009-11-14,,"9781161349900,1161349901",,,,,,,,,,,0,,,,,,,1,237012,pdf,4C25B94F8DA681EADAA90EBA01447B26,,,D:\\!Genesis\\!!ForLG\\-=  UNSORTED BOOKS  =-\\Non-Fiction\\Mythology\\The Occult\\(ebook - occult) The Fourth Book of Occult Philosophy by Hen.pdf,0,2000-01-01 01:00:00,2016-04-03 02:51:08,223000/4c25b94f8da681eadaa90eba01447b26-d.jpg,,
21515371,The Necronomicon,,,,"Abdul Alhazred, H. P. Lovecraft, Aleister Crowley, Simon",1980,2nd,Avon,,141,0,English,111,torrents.ru tech collections 2009-11-14,0,"0380751925,9780380751921",,,,,,,,,,,0,,,,,,,1,736897,pdf,DB6A9E88EAEBCDA0EA31199E7DE787BD,,,D:/!Genesis/!!ForLG/-=  UNSORTED BOOKS  =-/Non-Fiction/Mythology/(ebook - occult) The Necronomicon - Call of Cthulhu - Related Texts.pdf,0,2000-01-01 01:00:00,2016-04-03 02:51:08,223000/db6a9e88eaebcda0ea31199e7de787bd-d.jpg,,
21515372,US Army TC 9-524 Machinist Manual,,,,,,,,,,0,English,210,torrents.ru tech collections 2009-11-14,,,,,,,,,,,,,0,,,,,,,,7167258,zip,6E1960B2EB1E9AAD3872D2D16BD7B4FE,,,D:\\!Genesis\\!!ForLG\\-=  UNSORTED BOOKS  =-\\Non-Fiction\\Science\\Engineering Texts\\(eBook - PDF) - US Army TC 9-524 Machinist Manual.zip,0,2000-01-01 01:00:00,2016-04-03 02:51:08,223000/6E1960B2EB1E9AAD3872D2D16BD7B4FE-g.jpg,,
21515373,Alexandrian Book of Shadows (WICCA),,,,SEKHET SOPHIA. LAYOUT & HTML BY ATHO,,,,,102,0,English,111,torrents.ru tech collections 2009-11-14,,,,,,,,,,,,,0,,,,,,,1,758105,pdf,AEC73CBA7E100B5FF3DACFCBB1015CA5,,,D:\\!Genesis\\!!ForLG\\-=  UNSORTED BOOKS  =-\\Non-Fiction\\Mythology\\(ebook - PDF) Alexandrian Book of Shadows (WICCA).pdf,0,2000-01-01 01:00:00,2016-04-03 02:51:08,223000/aec73cba7e100b5ff3dacfcbb1015ca5.jpg,,
21515374,More Lost Books of the Bible: The Secrets of Enoch & The Apocalypse of Baruch,,,,"R.H., Charles",2006,,Apocryphile Press,,32,0,English,64,torrents.ru tech collections 2009-11-14,,1933993197,,,,,,,,,OL8832536M,,0,,,,,,,1,136649,pdf,3386935EFA755347DBF25844F9AEDB9D,,,D:\\!Genesis\\!!ForLG\\-=  UNSORTED BOOKS  =-\\Non-Fiction\\History\\(ebook - pdf) lost books of the bible - book of the secrets of.pdf,0,2000-01-01 01:00:00,2016-04-03 02:51:08,223000/3386935efa755347dbf25844f9aedb9d-d.jpg,,
21515375,PHP5 and MySQL Bible,,,,"Tim Converse, Joyce Park, Clark Morgan",2004,1,Wiley,,1083,0,English,76,torrents.ru tech collections 2009-11-14,,0-7645-5746-7,,,,,005.2/762,QA76.73.P224 C66 2004,,,OL3313929M,,0,,,,,,,1,18366957,pdf,F5EB321B7C9BD761D86067CA4E4CA9E8,,,D:\\!Genesis\\!!ForLG\\!!!3\\(ebook - PDF)[informatica][Mcgraw-Hill] Biblia - Php 5 And Mysql (2004).pdf,0,2000-01-01 01:00:00,2016-04-03 02:51:08,223000/f5eb321b7c9bd761d86067ca4e4ca9e8-d.jpg,,
21515376,PHP5 and MySQL Bible,,,,"Tim Converse, Joyce Park, Clark Morgan",2004,1,Wiley,,1084,0,English,76,torrents.ru tech collections 2009-11-14,,0-7645-5746-7,,,,,005.2/762,QA76.73.P224 C66 2004,,,OL3313929M,,0,,,,,,,1,18292194,pdf,9080C6093C964EDEBD95CFADB04AF08E,,,D:\\!Genesis\\!!ForLG\\!!!3\\(ebook - PDF)[informatica][Mcgraw-Hill] Biblia - Php 5 And Mysql (2005).pdf,0,2000-01-01 01:00:00,2016-04-03 02:51:08,223000/9080c6093c964edebd95cfadb04af08e-d.jpg,,
21515377,Fearless Inerviewing How To Win The Job By Communicating With Confidence,,,,Marky Stein,2002,1,McGraw-Hill,,193,0,English,183,torrents.ru tech collections 2009-11-14,,"9780071408844,0071408843",,,,,658.3/1124,HF5549.5.I6 S728 2003,10.1036/0071415726,,OL22138969M,,0,,,,,,1,1,1182177,pdf,5C7F92D7DB53F6F39E54CCE84825E2D7,,,D:\\!Genesis\\!!ForLG\\!!!3\\(eBook - Resume) Mcgraw Hill - Fearless Inerviewing How To Win The Job By Communicating With Confidence.pdf,0,2000-01-01 01:00:00,2016-04-03 02:51:08,223000/5c7f92d7db53f6f39e54cce84825e2d7-d.jpg,,
21515378,Computational methods for fluid dynamics,,,,"Ferziger J.H., Peric M. ",2001,3,Springer,,431,0,English,120,torrents.ru tech collections 2009-11-14,,,,,,,,,,,,,0,,,,,,,0,24484445,pdf,CF0AFF31D86DA23B17E1BB1FB598B23C,,,"D:\\!Genesis\\!!ForLG\\!!!3\\(e-book CFD) - Ferziger J.H., Peric M. Computational methods for fluid dynamics_Springer, 3ed, 2001.pdf",0,2000-01-01 01:00:00,2016-04-03 02:51:08,223000/cf0aff31d86da23b17e1bb1fb598b23c.jpg,,
21515379,Psychological Types,,,,Dr Carl Jung,2008,,MacMay,,53,0,English,198,torrents.ru tech collections 2009-11-14,,,,B0016LNXJW,,,,,,,,,0,,,,,,,1,177732,pdf,03F5D8A0DA329237E72A5C1DE591BBEE,,,D:\\!Genesis\\!!ForLG\\-=  UNSORTED BOOKS  =-\\Non-Fiction\\Psychology\\(eBook PDF) Psychology - Carl Jung - Psychological Types.pdf,0,2000-01-01 01:00:00,2016-04-03 02:51:08,223000/03f5d8a0da329237e72a5c1de591bbee.jpg,,
21515380,Atkin's Diet - Recipe's,,,,Salmon-Stuffed Zucchini,,,,,,0,English,49,torrents.ru tech collections 2009-11-14,,,,,,,,,,,,,0,,,,,,,,41472,doc,EBB55C2EE2B1CA6300256EA450851FC1,,,D:\\!Genesis\\!!ForLG\\-=  UNSORTED BOOKS  =-\\Non-Fiction\\Food and Cooking\\Recipes\\(eBook) - Atkins Diet - Recipes.doc,0,2000-01-01 01:00:00,2016-04-03 02:51:08,,,
21515381,Barbecue Recipes,,,,,,,VJJE Publ,,30,0,English,49,torrents.ru tech collections 2009-11-14,,,,,,,,,,,,,0,,,,,,1,1,152039,pdf,45DE69821209D87495AC86C4F2223B9F,,,D:\\!Genesis\\!!ForLG\\-=  UNSORTED BOOKS  =-\\Non-Fiction\\Food and Cooking\\Recipes\\(ebook) - Barbecue Recipes.pdf,0,2000-01-01 01:00:00,2016-04-03 02:51:08,223000/45de69821209d87495ac86c4f2223b9f.jpg,,
21515382,Mind Power Manual,,Mind Seduction,,Amargi Hillier,2009,1,AmericanRubles.com,,61,0,English,41,torrents.ru tech collections 2009-11-14,,,,B002DR2X6W,,,,,,,,,0,,,,,,,0,438755,pdf,2D462087A41567CDA882C6748CD21325,,,D:\\!Genesis\\!!ForLG\\-=  UNSORTED BOOKS  =-\\Non-Fiction\\Hobby\\(eBook) - Mind Power Manual.pdf,0,2000-01-01 01:00:00,2016-04-03 02:51:08,223000/2d462087a41567cda882c6748cd21325.jpg,,
21515383,African Socialism - An Anarchist Critique,,,,"Mbah,  Igarlay",,,,,11,0,English,192,torrents.ru tech collections 2009-11-14,,,,,,,,,,,,,0,,,,,,,1,101378,pdf,1D572B057B3ED7CB21C7DC8481825EF5,,,D:\\!Genesis\\!!ForLG\\-=  UNSORTED BOOKS  =-\\Non-Fiction\\Political\\(E-Book) African Socialism - An Anarchist Critique.pdf,0,2000-01-01 01:00:00,2016-04-03 02:51:08,223000/1d572b057b3ed7cb21c7dc8481825ef5.jpg,,
21515384,"Anarchism, From Theory to Practice",,,,"Daniel Guérin, Mary Klopper, Noam Chomsky",1970,Fourth Printing,Monthly Review Press,,39,0,English,192,torrents.ru tech collections 2009-11-14,,"9780853451754,0853451753",,,,,,,,,OL17339396M,,0,,,,,,,1,346553,pdf,9E251D8313AEF980ED36D7F0DA688283,,,"D:\\!Genesis\\!!ForLG\\-=  UNSORTED BOOKS  =-\\Non-Fiction\\Political\\(E-Book) Anarchism, From Theory to Practice, by Daniel Guerin.pdf",0,2000-01-01 01:00:00,2016-04-03 02:51:08,223000/9e251d8313aef980ed36d7f0da688283-d.jpg,,
21515385,MiFID-Kompendium: Praktischer Leitfaden für Finanzdienstleister,,,,"Andreas von Böhlen, Jens Kan (auth.)",2008,1,Springer-Verlag Berlin Heidelberg,Berlin,382,0,German,,usenet,to 2012-06,"9783540788164,3540788166",,,,,,,10.1007/978-3-540-78816-4,,,,0,,,,,,,1,10379621,pdf,1e52c3c92e9fec9e1326204d49f128fe,,,I:\\usenet_ger\\MiFID-Kompendium.[Springer].[2008].[u27133].pdf,0,2000-01-01 01:00:00,2016-04-03 02:51:08,884000/1e52c3c92e9fec9e1326204d49f128fe-g.jpg,,
21515386,"Art & Meaning of Magic, the",,Sangreal,,Israel Regardie,1969,Revised edition,Helios Bk.Service (Pubns.) Ltd,,35,0,English,209,torrents.ru tech collections 2009-11-14,,"9780900448034,0900448032",,,,,133.4,,,,OL21531999M,,0,,,,,,,1,102491,pdf,DAEF946AFE2E539581C3A9EA424C1319,,,"D:\\!Genesis\\!!ForLG\\-=  UNSORTED BOOKS  =-\\Non-Fiction\\Occult\\(E-Book) Art & Meaning of Magic, the - Israel Regardie.pdf",0,2000-01-01 01:00:00,2016-04-03 02:51:08,223000/daef946afe2e539581c3a9ea424c1319.jpg,,
21515387,Atheist Quotes,,,,,,,,,,0,English,205,torrents.ru tech collections 2009-11-14,,,,,,,,,,,,,0,,,,,,,,59392,doc,266867414961AF146ED7DB516154DB88,,,D:\\!Genesis\\!!ForLG\\-=  UNSORTED BOOKS  =-\\Non-Fiction\\Philosophy and Religion\\(E-Book) Atheist Quotes.doc,0,2000-01-01 01:00:00,2016-04-03 02:51:08,,,
21515388,Bible errors,,,,,,,,,,0,English,205,torrents.ru tech collections 2009-11-14,,,,,,,,,,,,,0,,,,,,,,75776,doc,EB1AE56C902401FB807AD31A77D5C995,,,D:\\!Genesis\\!!ForLG\\-=  UNSORTED BOOKS  =-\\Non-Fiction\\Philosophy and Religion\\(E-Book) Bible errors.doc,0,2000-01-01 01:00:00,2016-04-03 02:51:08,,,
21515389,"Book of Enoch, the",,,,,,,,,69,0,English,209,torrents.ru tech collections 2009-11-14,,,,,,,,,,,,,0,,,,,,,1,192385,pdf,8F35A5D3A8A6C7098C46E7E738CD852E,,,"D:\\!Genesis\\!!ForLG\\-=  UNSORTED BOOKS  =-\\Non-Fiction\\Occult\\(E-Book) Book of Enoch, the.pdf",0,2000-01-01 01:00:00,2016-04-03 02:51:08,223000/8f35a5d3a8a6c7098c46e7e738cd852e.jpg,,
21515390,"Book of the Damned, the",,,,Charles Fort,2009,,Public Domain Books,,263,0,English,209,torrents.ru tech collections 2009-11-14,,,,B002RKS648,,,,,,,,,0,,,,,,,1,600855,pdf,A9032A050FF27DCBDF9E6FFF05836D79,,,"D:\\!Genesis\\!!ForLG\\-=  UNSORTED BOOKS  =-\\Non-Fiction\\Occult\\(E-Book) Book of the Damned, the.pdf",0,2000-01-01 01:00:00,2016-04-03 02:51:08,223000/a9032a050ff27dcbdf9e6fff05836d79.jpg,,
21515391,Profit over People,,,,Noam Chomsky,2003,,Seven Stories Press,,73,0,English,192,torrents.ru tech collections 2009-11-14,,,,B001PUQWYM,,,,,,,,,0,,,,,,,1,691903,pdf,4817E4BD56462B2C1D526519C6920DE6,,,"D:\\!Genesis\\!!ForLG\\-=  UNSORTED BOOKS  =-\\Non-Fiction\\Political\\(E-Book) Chomsky, Noam - Profit over People.pdf",0,2000-01-01 01:00:00,2016-04-03 02:51:08,223000/4817e4bd56462b2c1d526519c6920de6.jpg,,
21515392,"Wars of Terror, New Political Science",,,,"Chomsky, Noam",,,,,17,0,English,181,torrents.ru tech collections 2009-11-14,,,,,,,,,,,,,0,,,,,,,1,175596,pdf,5792619B6D1D980D4C7F291554E97EEE,,,"D:\\!Genesis\\!!ForLG\\-=  UNSORTED BOOKS  =-\\Non-Fiction\\Political\\(E-Book) Chomsky, Noam - Wars of Terror, New Political Science.pdf",0,2000-01-01 01:00:00,2016-04-03 02:51:08,223000/5792619b6d1d980d4c7f291554e97eee.jpg,,
21515393,Year 501 The Conquest Continues,,,,Noam Chomsky,1999,,South End Press,,329,0,English,192,torrents.ru tech collections 2009-11-14,,"9780896084445,0896084442",,,,,327.73,E840 .C494 1993,,,OL1732914M,,0,,,,,,1,1,1648957,pdf,A18265480EB5D3722969547F0C2023F2,,,"D:\\!Genesis\\!!ForLG\\-=  UNSORTED BOOKS  =-\\Non-Fiction\\Political\\(E-Book) Chomsky, Noam - Year 501 The Conquest Continues.pdf",0,2000-01-01 01:00:00,2016-04-03 02:51:08,223000/a18265480eb5d3722969547f0c2023f2-d.jpg,,
21515394,THE DOCTRINE OF THE MEAN,,,,Confucius,2010,,"Kessinger Publishing, LLC",,13,0,English,205,torrents.ru tech collections 2009-11-14,,"9781161461527,1161461523",,,,,,,,,,,0,,,,,,,1,27707,pdf,31B4DA00C609C11DFCA4B1F4C4660022,,,D:\\!Genesis\\!!ForLG\\-=  UNSORTED BOOKS  =-\\Non-Fiction\\Philosophy and Religion\\(E-Book) Confucius - THE DOCTRINE OF THE MEAN.pdf,0,2000-01-01 01:00:00,2016-04-03 02:51:08,223000/31b4da00c609c11dfca4b1f4c4660022-d.jpg,,
21515395,Sex Secrets,,,,"DeAngelo, David",,,,,11,0,English,201,torrents.ru tech collections 2009-11-14,,,,,,,,,,,,,0,,,,,,,1,31859,pdf,E089F4F6144E01999708BB7FF763F8F6,,,"D:\\!Genesis\\!!ForLG\\-=  UNSORTED BOOKS  =-\\Non-Fiction\\Sexual advice\\(E-Book) DeAngelo, David - Sex Secrets.pdf",0,2000-01-01 01:00:00,2016-04-03 02:51:08,223000/e089f4f6144e01999708bb7ff763f8f6.jpg,,
21515396,Digital Design with CPLD Applications and VHDL 2000,,,,Delmar Thomson,2000,,,,841,0,English,87,torrents.ru tech collections 2009-11-14,,,,,,,,,,,,,0,,,,,,1,1,9032432,pdf,AA927545AB0F886C41100C738478B166,,,D:\\!Genesis\\!!ForLG\\!!!3\\(eBook) Delmar Thomson - Digital Design with CPLD Applications and VHDL 2000(1).pdf,0,2000-01-01 01:00:00,2016-04-03 02:51:08,223000/aa927545ab0f886c41100c738478b166.jpg,,
21515397,Digital Design With Cpld Applications And Vhdl 2000,,,,Delmar Thomson,2000,,,,841,0,English,254,torrents.ru tech collections 2009-11-14,,,,,,,,,,,,,0,,,,,,1,1,9032432,pdf,4FA1C5A5F9E5C464ED746E9F94CB95AA,,,D:\\!Genesis\\!!ForLG\\!!!3\\(Ebook) Delmar Thomson - Digital Design With Cpld Applications And Vhdl 2000.pdf,0,2000-01-01 01:00:00,2016-04-03 02:51:08,223000/4fa1c5a5f9e5c464ed746e9f94cb95aa.jpg,,
21515398,Logica simbolica,,,,Gheorghe Enescu,1971,,Editura Ştiinţifică,,218,0,Romanian,,,0,,,,,,,,,,,,0,,,,,,,0,1380165,djvu,7d602f01cf32f7a2ed333a902cc768f9,488ebcb01198ba4b7efd07ad67360ede,no,Gheorghe Enescu - Logica simbolica,0,2000-01-01 01:00:00,2016-04-03 02:51:08,881000/7d602f01cf32f7a2ed333a902cc768f9-g.jpg,,
21515399,"The 8051 Microcontroller Architecture, Programming and Applications",,,,Delmar Thomson,,,,,256,0,English,254,torrents.ru tech collections 2009-11-14,,,,,,,,,,,,,0,,,,,,,0,6902065,pdf,18974E7967257DA3291EE017F620E7D2,,,"D:\\!Genesis\\!!ForLG\\!!!3\\(eBook) Delmar Thomson - The 8051 Microcontroller Architecture, Programming and Applications 199.pdf",0,2000-01-01 01:00:00,2016-04-03 02:51:08,223000/18974e7967257da3291ee017f620e7d2.jpg,,
21515400,"The 8051 Microcontroller Architecture, Programming And Applications",,,,Delmar Thomson,1991,,,,256,0,English,254,torrents.ru tech collections 2009-11-14,,,,,,,,,,,,,0,,,,,,,0,6911164,pdf,B602D559B4A5BED5E609AEFA10844E3C,,,"D:\\!Genesis\\!!ForLG\\!!!3\\(Ebook) Delmar Thomson - The 8051 Microcontroller Architecture, Programming And Applications 1991(2).pdf",0,2000-01-01 01:00:00,2016-04-03 02:51:08,223000/b602d559b4a5bed5e609aefa10844e3c.jpg,,
21515401,"Principles of Philosophy, the",,,,Rene Descartes,2010,,"Kessinger Publishing, LLC",,43,0,English,205,torrents.ru tech collections 2009-11-14,,"9781161474404,1161474404",,,,,,,,,,,0,,,,,,1,1,112977,pdf,FAAFCD801E2B869940302D2432AE3D8A,,,"D:\\!Genesis\\!!ForLG\\-=  UNSORTED BOOKS  =-\\Non-Fiction\\Philosophy and Religion\\(E-Book) Descartes, Rene - Principles of Philosophy, the.pdf",0,2000-01-01 01:00:00,2016-04-03 02:51:08,223000/faafcd801e2b869940302d2432ae3d8a-d.jpg,,
21515402,Relativity - The Special and General Theory,,,,"Einstein, Albert ",,,,,86,0,English,281,torrents.ru tech collections 2009-11-14,,,,,,,,,,,,,0,,,,,,,1,256288,pdf,CC2BF271F2869A46A874D884AE7A13D1,,,"D:\\!Genesis\\!!ForLG\\-=  UNSORTED BOOKS  =-\\Non-Fiction\\Science\\(E-Book) Einstein, Albert - Relativity - The Special and General Theory.pdf",0,2000-01-01 01:00:00,2016-04-03 02:51:08,223000/cc2bf271f2869a46a874d884ae7a13d1.jpg,,
21515403,The Internet Encyclopedia of Philosophy,,,,,1998,,,,3898,0,English,195,torrents.ru tech collections 2009-11-14,0,,,,,,,,,,,,0,,,,,,1,1,16478871,pdf,205ACBCE0FADBC0FDC3EA2A77FD9E186,,,D:/!Genesis/!!ForLG/-=  UNSORTED BOOKS  =-/Non-Fiction/Philosophy and Religion/(E-Book) Encyclopedia of Philosophy.pdf,0,2000-01-01 01:00:00,2016-04-03 02:51:08,223000/205acbce0fadbc0fdc3ea2a77fd9e186.jpg,,
21515404,"Hacker Crackdown, the",,,,Bruce Sterling,1993,1st Edition.,Viking/Penguin Group,,352,0,English,77,torrents.ru tech collections 2009-11-14,,"9780670849000,0670849006",,,,,,,,,OL22246764M,,0,,,,,,,,347447,lit,EB64C208C043203D0DE752B762BDEFBD,,,"D:\\!Genesis\\!!ForLG\\-=  UNSORTED BOOKS  =-\\Non-Fiction\\Hacker related\\(E-Book) Hacker Crackdown, the.lit",0,2000-01-01 01:00:00,2016-04-03 02:51:08,223000/eb64c208c043203d0de752b762bdefbd-d.jpg,,
21515405,Philosophy of History,,,,Hegel,,,,,45,0,English,205,torrents.ru tech collections 2009-11-14,,,,,,,,,,,,,0,,,,,,1,1,127215,pdf,12B1A83F8E833D0164309FF2D1374BCC,,,D:\\!Genesis\\!!ForLG\\-=  UNSORTED BOOKS  =-\\Non-Fiction\\Philosophy and Religion\\(E-Book) Hegel - Philosophy of History.pdf,0,2000-01-01 01:00:00,2016-04-03 02:51:08,223000/12b1a83f8e833d0164309ff2d1374bcc.jpg,,
21515406,Philosophy of Mind,,,,Hegel,,,,,78,0,English,205,torrents.ru tech collections 2009-11-14,,,,,,,,,,,,,0,,,,,,1,1,218441,pdf,1DFBAEE4BD40D060B8CBCF2DBA34BA8B,,,D:\\!Genesis\\!!ForLG\\-=  UNSORTED BOOKS  =-\\Non-Fiction\\Philosophy and Religion\\(E-Book) Hegel - Philosophy of Mind.pdf,0,2000-01-01 01:00:00,2016-04-03 02:51:08,223000/1dfbaee4bd40d060b8cbcf2dba34ba8b.jpg,,
21515407,Philosophy of Nature,,,,Hegel,,,,,35,0,English,181,torrents.ru tech collections 2009-11-14,,,,,,,,,,,,,0,,,,,,1,1,82910,pdf,661BD92A0DD490BB5B262D8A0B7AB13E,,,D:\\!Genesis\\!!ForLG\\-=  UNSORTED BOOKS  =-\\Non-Fiction\\Philosophy and Religion\\(E-Book) Hegel - Philosophy of Nature.pdf,0,2000-01-01 01:00:00,2016-04-03 02:51:08,223000/661bd92a0dd490bb5b262d8a0b7ab13e.jpg,,
21515408,Philosophy of Right ,,Philosophical Classics,,"Georg W. F. Hegel, S. W. Dyde",2005,,Dover Publications,,281,0,English,205,torrents.ru tech collections 2009-11-14,,"9780486445632,9781573921053,0486445631,157392105X",,,,,320/.01/1,K230.H43 G7813 2005,,,OL3420418M,,0,,,,,1,,1,797519,pdf,7A422023D0C7D9D58691DED5C41B52F0,,,D:\\!Genesis\\!!ForLG\\-=  UNSORTED BOOKS  =-\\Non-Fiction\\Philosophy and Religion\\(E-Book) Hegel - Philosophy of Right.pdf,0,2000-01-01 01:00:00,2016-04-03 02:51:08,223000/7a422023d0c7d9d58691ded5c41b52f0-d.jpg,,
21515409,Philosophy of Spirit,,,,Hegel,,,,,41,0,English,205,torrents.ru tech collections 2009-11-14,,,,,,,,,,,,,0,,,,,,1,1,99806,pdf,B68BA4D35C83F8FBC3A0EEDB74FF75BB,,,D:\\!Genesis\\!!ForLG\\-=  UNSORTED BOOKS  =-\\Non-Fiction\\Philosophy and Religion\\(E-Book) Hegel - Philosophy of Spirit.pdf,0,2000-01-01 01:00:00,2016-04-03 02:51:08,223000/b68ba4d35c83f8fbc3a0eedb74ff75bb.jpg,,
21515410,History of China,,,,,,,,,124,0,English,64,torrents.ru tech collections 2009-11-14,,,,,,,,,,,,,0,,,,,,1,1,1190066,pdf,FA58001B1E96454455B3FFC6B2EAB85B,,,D:\\!Genesis\\!!ForLG\\-=  UNSORTED BOOKS  =-\\Non-Fiction\\History\\(E-Book) History of China.pdf,0,2000-01-01 01:00:00,2016-04-03 02:51:08,223000/fa58001b1e96454455b3ffc6b2eab85b.jpg,,
21515411,History of the Russian Revolution,vol 1,,,Trotsky,,,,,360,0,English,64,torrents.ru tech collections 2009-11-14,,,,,,,,,,,,,0,,,,,,,1,1068013,pdf,1D1D1C144EA3A9CFF8D9D57975DF672E,,,D:\\!Genesis\\!!ForLG\\-=  UNSORTED BOOKS  =-\\Non-Fiction\\History\\(E-Book) History of the Russian Revolution - Trotsky - vol 1.pdf,0,2000-01-01 01:00:00,2016-04-03 02:51:08,223000/1d1d1c144ea3a9cff8d9d57975df672e.jpg,,
21515412,History of the Russian Revolution,vol 2,,,Trotsky,,,,,268,0,English,64,torrents.ru tech collections 2009-11-14,,,,,,,,,,,,,0,,,,,,,1,817746,pdf,86CD06B076F11EE94831694707946A84,,,D:\\!Genesis\\!!ForLG\\-=  UNSORTED BOOKS  =-\\Non-Fiction\\History\\(E-Book) History of the Russian Revolution - Trotsky - vol 2.pdf,0,2000-01-01 01:00:00,2016-04-03 02:51:08,223000/86cd06b076f11ee94831694707946a84.jpg,,
21515413,History of the Russian Revolution,vol 3,,,Trotsky,,,,,333,0,English,64,torrents.ru tech collections 2009-11-14,,,,,,,,,,,,,0,,,,,,,1,1005144,pdf,18D93DC3C23FBDA4D90BD654E4A10AC9,,,D:\\!Genesis\\!!ForLG\\-=  UNSORTED BOOKS  =-\\Non-Fiction\\History\\(E-Book) History of the Russian Revolution - Trotsky - vol 3.pdf,0,2000-01-01 01:00:00,2016-04-03 02:51:08,223000/18d93dc3c23fbda4d90bd654e4a10ac9.jpg,,
21515414,Principles of Psychology,Vol. 01,,,"James, William",,,,,461,0,English,198,torrents.ru tech collections 2009-11-14,,,,,,,,,,,,,0,,,,,,,1,2190011,pdf,AF13130EF9C19FDCC25F1BB695019061,,,"D:\\!Genesis\\!!ForLG\\-=  UNSORTED BOOKS  =-\\Non-Fiction\\Psychology\\(E-Book) James, William - Principles of Psychology Vol. 01.pdf",0,2000-01-01 01:00:00,2016-04-03 02:51:08,223000/af13130ef9c19fdcc25f1bb695019061.jpg,,
21515415,Kama Sutra,,,,,,,,,134,0,English,198,torrents.ru tech collections 2009-11-14,,,,,,,,,,,,,0,,,,,,,1,325256,pdf,86BD9BF3562DA1AFF16A1C6D9DC8C2C4,,,D:\\!Genesis\\!!ForLG\\-=  UNSORTED BOOKS  =-\\Non-Fiction\\Sexual advice\\(E-Book) Kama Sutra.pdf,0,2000-01-01 01:00:00,2016-04-03 02:51:08,223000/86bd9bf3562da1aff16a1c6d9dc8c2c4.jpg,,
21515416,Learn How To Draw,,,,,,,,,133,0,English,183,torrents.ru tech collections 2009-11-14,,,,,,,,,,,,,0,,,,,,1,1,2375957,pdf,5DF0FF91B5A3BD706E21BDFF8E89A435,,,D:\\!Genesis\\!!ForLG\\-=  UNSORTED BOOKS  =-\\Non-Fiction\\Drawing\\(E-Book) Learn How To Draw.pdf,0,2000-01-01 01:00:00,2016-04-03 02:51:08,223000/5df0ff91b5a3bd706e21bdff8e89a435.jpg,,
21515417,Japanese Phrase book,,Lonely Planet,,Taylor,1989,,,,64,0,English,314,torrents.ru tech collections 2009-11-14,,,,,,,,,,,,,0,,,,,,,1,5598682,pdf,33301913EF876FF6859285B0BEEBF55B,,,D:\\!Genesis\\!!ForLG\\-=  UNSORTED BOOKS  =-\\Non-Fiction\\Language\\(E-book) Learn Japanese (in English).pdf,0,2000-01-01 01:00:00,2016-04-03 02:51:08,223000/33301913ef876ff6859285b0beebf55b.jpg,,
21515418,What is to be Done,,,,V. I. Lenin,1969,Revised,International Publishers,,137,0,English,192,torrents.ru tech collections 2009-11-14,,"9780717802180,0717802183",,,,,,,,,,,0,,,,,,,1,447488,pdf,95D6BCA41B4503D7429C891882404D50,,,D:\\!Genesis\\!!ForLG\\-=  UNSORTED BOOKS  =-\\Non-Fiction\\Political\\(E-Book) Lenin - What is to be Done.pdf,0,2000-01-01 01:00:00,2016-04-03 02:51:08,223000/95d6bca41b4503d7429c891882404d50-d.jpg,,
21515419,Low Fat Recipe,,,,,,,VJJE Publishing Co.,,60,0,English,49,torrents.ru tech collections 2009-11-14,,,,,,,,,,,,,0,,,,,,1,1,199525,pdf,5D1C35B8FBAD7EC1C6F0EE2F555594AB,,,D:\\!Genesis\\!!ForLG\\-=  UNSORTED BOOKS  =-\\Non-Fiction\\Food and Cooking\\Recipes\\(ebook) Low Fat Recipe.pdf.pdf,0,2000-01-01 01:00:00,2016-04-03 02:51:08,223000/5d1c35b8fbad7ec1c6f0ee2f555594ab.jpg,,
21515420,Fundamentals of Psychology,,,,"Macdougall, William ",,,,,18,0,English,198,torrents.ru tech collections 2009-11-14,,,,,,,,,,,,,0,,,,,,,1,57174,pdf,013F0A89619F4130E79333094B636233,,,"D:\\!Genesis\\!!ForLG\\-=  UNSORTED BOOKS  =-\\Non-Fiction\\Psychology\\(E-Book) Macdougall, William - Fundamentals of Psychology - b.pdf",0,2000-01-01 01:00:00,2016-04-03 02:51:08,223000/013f0a89619f4130e79333094b636233.jpg,,
21515421,The Prince,,,,Niccolo Machiavelli,2006,,Public Domain Books,,51,0,English,192,torrents.ru tech collections 2009-11-14,,,,B000JML9AY,,,,,,,,,0,,,,,,,1,143561,pdf,A52D11027665268E71732D8743BE7E71,,,"D:\\!Genesis\\!!ForLG\\-=  UNSORTED BOOKS  =-\\Non-Fiction\\Political\\(E-Book) Machiavelli, Niccolo -  The Prince.pdf",0,2000-01-01 01:00:00,2016-04-03 02:51:08,223000/a52d11027665268e71732d8743be7e71.jpg,,
21515422,Sex ,,,,"Madonna, Steven Meisel, Glenn O'Brien, Steven Meisel, Glenn O'Brien",1992,,Warner Books,,64,0,English,201,torrents.ru tech collections 2009-11-14,,"9780446517324,0446517321,8440631170,9788440631176",,,,,779/.28,ML420.M1387 A3 1992,,,OL1750728M,,0,,,,,1,,0,6743225,pdf,0B4B7915F2B22D2DE39022A70F815672,,,D:\\!Genesis\\!!ForLG\\-=  UNSORTED BOOKS  =-\\Non-Fiction\\Sexual advice\\(E-Book) Madonna - Book of Sex.pdf,0,2000-01-01 01:00:00,2016-04-03 02:51:08,223000/0b4b7915f2b22d2de39022a70f815672-d.jpg,,
21515423,Poverty of Philosophy,,,,Karl Marx,2010,,Nabu Press,,119,0,English,205,torrents.ru tech collections 2009-11-14,,"9781177047487,1177047489",,,,,,,,,,,0,,,,,,1,1,417922,pdf,39F06F3954EBE4731910AAD328D8D505,,,"D:\\!Genesis\\!!ForLG\\-=  UNSORTED BOOKS  =-\\Non-Fiction\\Philosophy and Religion\\(E-Book) Marx, Karl - Poverty of Philosophy.pdf",0,2000-01-01 01:00:00,2016-04-03 02:51:08,223000/39f06f3954ebe4731910aad328d8d505-d.jpg,,
21515424,Communist Manifesto,,The World's Classics,,"Karl Marx, Friedrich Engels, David McLellan",1992,,"Oxford University Press, USA",,47,0,English,205,torrents.ru tech collections 2009-11-14,,"9780192829542,0192829548",,,,,335.42/2,HX39.5 .A5213 1998,,,OL1561295M,,0,,,,,,,1,255501,pdf,20EB3326C2D4017258C3C2B4519247EB,,,"D:\\!Genesis\\!!ForLG\\-=  UNSORTED BOOKS  =-\\Non-Fiction\\Philosophy and Religion\\(E-Book) Marx, Karl & Engels, Friedrich - Communist Manifesto.pdf",0,2000-01-01 01:00:00,2016-04-03 02:51:08,223000/20eb3326c2d4017258c3c2b4519247eb-d.jpg,,
21515425,a Theory of Human Motivation,,,,Maslow,,,,,21,0,English,205,torrents.ru tech collections 2009-11-14,,,,,,,,,,,,,0,,,,,,,1,66705,pdf,651EAA8D2D3B1608E8F858109F423908,,,D:\\!Genesis\\!!ForLG\\-=  UNSORTED BOOKS  =-\\Non-Fiction\\Philosophy and Religion\\(E-Book) Maslow - a Theory of Human Motivation.pdf,0,2000-01-01 01:00:00,2016-04-03 02:51:08,223000/651eaa8d2d3b1608e8f858109f423908.jpg,,
21515426,Dude Wheres My Country 3.0,,,,Michael Moore,2003,1ST,Warner Books,,274,0,English,192,torrents.ru tech collections 2009-11-14,,"0446532231,9780446532235",,,,,973.931,E902 .M65 2003,,,OL23271264M,,0,,,,,1,1,1,2537763,pdf,A6E5B8BF6517C603A7C48DC2F4B463F1,,,"D:\\!Genesis\\!!ForLG\\-=  UNSORTED BOOKS  =-\\Non-Fiction\\Political\\(E-Book) Moore, Michael - Dude Wheres My Country 3.0.pdf",0,2000-01-01 01:00:00,2016-04-03 02:51:08,223000/a6e5b8bf6517c603a7c48dc2f4b463f1-d.jpg,,
21515427,Polynesian Mythology,,,,George Grey,1970,,Taplinger,,118,0,English,111,torrents.ru tech collections 2009-11-14,,,,B00124VPPM,,,,,,,,,0,,,,,,,1,370157,pdf,D3E7E6680BF9ED82A1044D345B55EE14,,,D:\\!Genesis\\!!ForLG\\-=  UNSORTED BOOKS  =-\\Non-Fiction\\Mythology\\(ebook) Polynesian Mythology.pdf,0,2000-01-01 01:00:00,2016-04-03 02:51:08,223000/d3e7e6680bf9ed82a1044d345b55ee14.jpg,,
21515428,The 8051 Microcontroller,,,,,1995,2,Prentice Hall ,,213,0,English,254,torrents.ru tech collections 2009-11-14,,,,,,,,,,,,,0,,,,,,,0,6232464,pdf,07718ECB5A1C157F2979F522A58CB70C,,,D:\\!Genesis\\!!ForLG\\!!!3\\(Ebook) Prentice Hall - The 8051 Microcontroller 2Nd Edition 1995.pdf,0,2000-01-01 01:00:00,2016-04-03 02:51:08,223000/07718ecb5a1c157f2979f522a58cb70c.jpg,,
21515429,Recipes - Olive Garden Recipes,,,,,,,,,,0,English,49,torrents.ru tech collections 2009-11-14,,,,,,,,,,,,,0,,,,,,,,5588,zip,D51CD4EAEBA33AF90640C261D52830D7,,ban,D:\\!Genesis\\!!ForLG\\-=  UNSORTED BOOKS  =-\\Non-Fiction\\Food and Cooking\\Recipes\\Cookbooks\\(eBook) Recipes - Olive Garden Recipes.zip,0,2000-01-01 01:00:00,2016-04-03 02:51:08,,,
21515430,The Geometry of Infinite-Dimensional Groups,,Ergebnisse der Mathematik und ihrer Grenzgebiete. 3. Folge A Series of Modern Surveys in Mathematics 51,,"Boris Khesin, Robert Wendt",2008,,Springer,,312,0,English,121,torrents.ru tech collections 2009-11-14,,"3540772626,9783540772620",,,,,,,,xZvLBvqN8fsC,,,0,,,,,1,,1,4578143,pdf,C19C2FFBA920E0841C277F91647E0B1A,,,D:\\!Genesis\\!!ForLG\\!!!3\\(eBook) Springer - The Geometry of Infinite-Dimensional Groups (2009).pdf,0,2000-01-01 01:00:00,2016-04-03 02:51:08,223000/c19c2ffba920e0841c277f91647e0b1a.jpg,,
21515431,Microwave Resonators and Filters for Wireless Communication,,Springer Series in Advanced Microelectronics,,"M. Makimoto, S. Yamashita",2001,1st Edition.,Springer,,168,0,English,260,torrents.ru tech collections 2009-11-14,0,"9783642087004,3642087000",,,,,,,,,,,0,,,,,,,0,2550382,pdf,826917DBE523FAEB8D9E7A5E50B53477,a41d2c36f14bf6a79fa563f8dcc334a4,no,"D:/!Genesis/!!ForLG/!!!3/(ebook) Springer-Microwave Resonators and Filters for Wireless Communication, 2001 (M.Makimoto,S.Yamashita)(162s).pdf",0,2000-01-01 01:00:00,2016-04-03 02:51:08,223000/826917dbe523faeb8d9e7a5e50b53477-d.jpg,,
21515432,Art Of War,,Cathedral Classics,,Sun Tzu,2010,,Aziloth Books,,43,0,English,205,torrents.ru tech collections 2009-11-14,,"9781907523175,1907523170",,,,,,,,,,,0,,,,,,,1,70021,pdf,79930DFA74DA9E76CECB94ACDE7794CC,,,D:\\!Genesis\\!!ForLG\\-=  UNSORTED BOOKS  =-\\Non-Fiction\\Philosophy and Religion\\(E-Book) Sun Tzu- Art Of War.pdf,0,2000-01-01 01:00:00,2016-04-03 02:51:08,223000/79930dfa74da9e76cecb94acde7794cc-d.jpg,,
21515433,Verilog Digital Design Synthesis,,,,Samir Palnitkar,1996,,SunSoft Press,,399,0,English,69,torrents.ru tech collections 2009-11-14,,,,B000OIJUR2,,,,,,,,,0,,,,,,1,1,9474542,pdf,1F40277DA4DACE873C78A920B392E860,,,(ebook) SunSoft Press - Verilog Digital Design Synthesis (Palmitkar)(clean).pdf,0,2000-01-01 01:00:00,2016-04-03 02:51:08,223000/1f40277da4dace873c78a920b392e860.jpg,,
21515434,Tao Te Ching,,,,,,,,,59,0,English,205,torrents.ru tech collections 2009-11-14,,,,,,,,,,,,,0,,,,,,,1,123772,pdf,118A40D9F0023C1438CF4910D7CA3B71,,,"D:\\!Genesis\\!!ForLG\\-=  UNSORTED BOOKS  =-\\Non-Fiction\\Philosophy and Religion\\(E-Book) Tao Te Ching, the.pdf",0,2000-01-01 01:00:00,2016-04-03 02:51:08,223000/118a40d9f0023c1438cf4910d7ca3b71.jpg,,
21515435,Trading Info & Tips,,,,David Bowden,,,,,63,0,English,10,torrents.ru tech collections 2009-11-14,,,,,,,,,,,,,0,,,,,,,1,413621,pdf,364E6D167A6A575571849A620630A10B,,,D:\\!Genesis\\!!ForLG\\-=  UNSORTED BOOKS  =-\\Non-Fiction\\Job and Business\\(E-Book) Trading - David Bowdens Trading  Info & Tips.pdf,0,2000-01-01 01:00:00,2016-04-03 02:51:08,223000/364e6d167a6a575571849a620630a10b.jpg,,
21515436,Patterns in Three Centuries of Stock Market,,Journal of business vol 66 no 2,,Goetzmann W,,,,,23,0,English,10,torrents.ru tech collections 2009-11-14,,,,,,,,,,,,,0,,,,,,,0,1959645,pdf,1F073FDE95C86E0925D439B8A74ED635,,,D:\\!Genesis\\!!ForLG\\-=  UNSORTED BOOKS  =-\\Non-Fiction\\Job and Business\\(E-Book) Trading - Patterns in Three Centuries of Stock Market .pdf,0,2000-01-01 01:00:00,2016-04-03 02:51:08,223000/1f073fde95c86e0925d439b8a74ed635.jpg,,
21515437,My life,,,,Trotsky,1930,,,,471,0,English,64,torrents.ru tech collections 2009-11-14,,,,,,,,,,,,,0,,,,,,,1,1396984,pdf,D996F67453ED79F20CFEC2C9BEDD20B9,,,D:\\!Genesis\\!!ForLG\\-=  UNSORTED BOOKS  =-\\Non-Fiction\\History\\(E-Book) Trotsky - My life - 1930.pdf,0,2000-01-01 01:00:00,2016-04-03 02:51:08,223000/d996f67453ed79f20cfec2c9bedd20b9.jpg,,
21515438,Wood shop plans,,,,,,,,,12,0,English,41,torrents.ru tech collections 2009-11-14,,,,,,,,,,,,,0,,,,,,1,1,2241668,pdf,1C407FE016D4378099F23E0459DA0B01,,,D:\\!Genesis\\!!ForLG\\-=  UNSORTED BOOKS  =-\\Non-Fiction\\Hobby\\(eBook.Woodworking) Wood shop plans.pdf,0,2000-01-01 01:00:00,2016-04-03 02:51:08,223000/1c407fe016d4378099f23e0459da0b01.jpg,,
21515439,Programming Microsoft Visual C# 2005 - The Language,,Pro Developer,,Donis Marshall,2006,,Microsoft Press,,704,0,English,87,torrents.ru tech collections 2009-11-14,,"9780735621817,0735621810",,,,,,,,,OL7891191M,,0,,,,,,,,46871044,rtf,96113A1C0144F42B9F20259A825C9866,,,"D:\\!Genesis\\!!ForLG\\!!!3\\(En) Programming Microsoft Visual C# 2005 - The Language (Ms Press , 2006).rtf",0,2000-01-01 01:00:00,2016-04-03 02:51:08,223000/96113a1c0144f42b9f20259a825c9866-d.jpg,,
21515440,"Art, Evolution, and the Consciousness of History",,,,A. C. Danto,,,Jstor,,12,0,English,64,torrents.ru tech collections 2009-11-14,,,,,,,,,,,,,0,,,,,,,0,1791012,pdf,34B9694D16DD7FA375148B9CE83BB66E,,,"D:\\!Genesis\\!!ForLG\\!!!3\\(ENG E-book) JSTOR - A. C. Danto - Art, Evolution, and the Consciousness of History.pdf",0,2000-01-01 01:00:00,2016-04-03 02:51:08,223000/34b9694d16dd7fa375148b9ce83bb66e.jpg,,
21515441,Disease Control in the Home Vegetable Garden,,,,,,,Univ of tennesey,,20,0,English,151,torrents.ru tech collections 2009-11-14,,,,,,,,,,,,,0,,,,,,,1,235236,pdf,9CC4979A22BB422F4717DDB81F9EAB70,,,D:\\!Genesis\\!!ForLG\\-=  UNSORTED BOOKS  =-\\Non-Fiction\\Home and Gardening\\HOME HOUSE GARDEN\\Gardening\\(gardening) Disease Control in the Home Vegetable Garden.pdf,0,2000-01-01 01:00:00,2016-04-03 02:51:08,223000/9cc4979a22bb422f4717ddb81f9eab70.jpg,,
21515442,"Growing Currants, Gooseberries, and Elderberries",,"University of Wisconsin--Extension, Cooperative Extension",,Teryl R Roper,1998,,"University of Wisconsin--Extension, Cooperative Extension ;",,12,0,English,56,torrents.ru tech collections 2009-11-14,,,,B0006R27XA,,,,,,,,,0,,,,,,,0,1096512,pdf,423634E81D6FEF24545B5473A5A102C0,,,"D:\\!Genesis\\!!ForLG\\-=  UNSORTED BOOKS  =-\\Non-Fiction\\Home and Gardening\\HOME HOUSE GARDEN\\Gardening\\(gardening) Growing Currants, Gooseberries, and Elderberries.pdf",0,2000-01-01 01:00:00,2016-04-03 02:51:08,223000/423634e81d6fef24545b5473a5a102c0.jpg,,
21515443,Growing Raspberries,,,,"BRIAN R. SMITH , DANIEL L. MAHR , PATRICIA S. MC MANUS , TERYL R. ROPER",,,,,24,0,English,56,torrents.ru tech collections 2009-11-14,,,,,,,,,,,,,0,,,,,,,0,758409,pdf,073646F06FF553D4BE4E7B9228FC9ED5,,,D:\\!Genesis\\!!ForLG\\-=  UNSORTED BOOKS  =-\\Non-Fiction\\Home and Gardening\\HOME HOUSE GARDEN\\Gardening\\(gardening) Growing Raspberries.pdf,0,2000-01-01 01:00:00,2016-04-03 02:51:08,223000/073646f06ff553d4be4e7b9228fc9ed5.jpg,,
21515444,Growing vegetables at home: Questions and answers ,,Wisconsin. University. Cooperative Extension Programs. A,,O. B Combs,1976,Revised,"Cooperative Extension Programs, University of Wisconsin",,44,0,English,56,torrents.ru tech collections 2009-11-14,,,,"B0006WHAN2,B0006YSSSG",,,,,,,,,0,,,,,1,,0,1395660,pdf,FEE801D483D32F1A4F45A8C174F18C2F,,,D:\\!Genesis\\!!ForLG\\-=  UNSORTED BOOKS  =-\\Non-Fiction\\Home and Gardening\\HOME HOUSE GARDEN\\Gardening\\(Gardening) Growing Vegetables At Home - Questions And Answers.pdf,0,2000-01-01 01:00:00,2016-04-03 02:51:08,223000/fee801d483d32f1a4f45a8c174f18c2f.jpg,,
21515445,Growing Vegetables In Home Gardens,,,,,,,Univ of tennesey,,24,0,English,56,torrents.ru tech collections 2009-11-14,,,,,,,,,,,,,0,,,,,,,1,252467,pdf,281F3ECF2D2F7E36B6DE490091170436,,,D:\\!Genesis\\!!ForLG\\-=  UNSORTED BOOKS  =-\\Non-Fiction\\Home and Gardening\\HOME HOUSE GARDEN\\Gardening\\(Gardening) Growing Vegetables In Home Gardens.pdf,0,2000-01-01 01:00:00,2016-04-03 02:51:08,223000/281f3ecf2d2f7e36b6de490091170436.jpg,,
21515446,Idaho Master Gardener Handbook,,,,Robert R. Tripepi et al,2005,,Univ of Idaho,,392,0,English,,torrents.ru tech collections 2009-11-14,,,,,,,,,,,,,0,,,,,,,1,17695676,pdf,0116140742C8A67ACF72209173465DCF,,,D:\\!Genesis\\!!ForLG\\-=  UNSORTED BOOKS  =-\\Non-Fiction\\Home and Gardening\\HOME HOUSE GARDEN\\Gardening\\(Gardening) Idaho Master Gardener Handbook (2005).pdf,0,2000-01-01 01:00:00,2016-04-03 02:51:08,223000/0116140742c8a67acf72209173465dcf.jpg,,
21515447,Sumer and The Sumerians,v1,,,H Crawford,,,,,,0,English,181,torrents.ru tech collections 2009-11-14,,,,,,,,,,,,,0,,,,,,,,2592907,zip,465D3D13355062EDD992AA45B801CAEF,,,D:\\!Genesis\\!!ForLG\\-=  UNSORTED BOOKS  =-\\Non-Fiction\\History\\history\\(History)_Sumer_and_The_Sumerians_by_H_Crawford_TEXT-PIC_v1.zip,0,2000-01-01 01:00:00,2016-04-03 02:51:08,,,
21515448,,,,Security And Privacy Magazine Vol1 No1 January February 2003,,2003,,IEEE,,87,0,English,,torrents.ru tech collections 2009-11-14,0,,,,,,,,,,,periodic,0,,,,,1,,1,4487191,pdf,E4685E57423C74C77E8F86F664E2AA7A,,ban,D:/!Genesis/!!ForLG/!!!3/(Ieee) Security And Privacy Magazine Vol1 No1 January February 2003-Een.pdf,0,2000-01-01 01:00:00,2016-04-03 02:51:08,223000/e4685e57423c74c77e8f86f664e2aa7a.jpg,,
21515449,Sirdar - Dolls Clothes Booklet - Baby Doll,,,,,,,Pony,,16,0,English,,torrents.ru tech collections 2009-11-14,,,,,,,,,,,,,0,,,,,,,0,6867205,pdf,74D52DCA7AAA56EC94041D154CA68560,,,D:\\!Genesis\\!!ForLG\\!!!3\\(Knitting) Dolls Clothes Booklet - Baby Doll.pdf,0,2000-01-01 01:00:00,2016-04-03 02:51:08,223000/74d52dca7aaa56ec94041d154ca68560.jpg,,
21515450,Rejuvenezca y viva mas tiempo,,,,Deepak Chopra,,,Editorial Norma,,124,0,Spanish,,torrents.ru tech collections 2009-11-14,,,,,,,,,,,,,0,,,,,,,0,1883328,pdf,0B4A0FBAB88E6FA5EA06C6E320BCE3CE,,,D:\\!Genesis\\!!ForLG\\!!!3\\(Literatura) (Salud) (Medicina) (Espanol E-Book) Deepak Chopra - Rejuvenezca y viva mas tiempo (Editorial Norma).pdf,0,2000-01-01 01:00:00,2016-04-03 02:51:08,223000/0b4a0fbab88e6fa5ea06c6e320bce3ce.jpg,,
21515451,Microsoft SQL Server 2008 a Beginner's Guide,,Osborne,,Dusan Ptkovc,2008,,McGraw-Hill Osborne Media,,744,0,English,183,torrents.ru tech collections 2009-11-14,,"0-07-154639-1,0-07-154638-3",,B001E3QCHM,,,,,10.1036/0071546383,,,,0,,,,,,,1,5652381,pdf,51C17C52DAFB9B611AF9EFBFCD34DF0F,,,D:\\!Genesis\\!!ForLG\\!!!3\\(McGraw - HillOsborne) Microsoft SQL Server 2008 a Beginners Guide.pdf,0,2000-01-01 01:00:00,2016-04-03 02:51:08,223000/51c17c52dafb9b611af9efbfcd34df0f.jpg,,
21515452,Microsoft Office Excel 2003 Inside Out,,,,,2003,,MS Press,,,0,English,87,torrents.ru tech collections 2009-11-14,,,,,,,,,,,,,0,,,,,,,,17626847,rar,5FB8E1325900AE3A02474CB0C650A176,,,D:\\!Genesis\\!!ForLG\\!!!3\\(MS Press) - Microsoft Office Excel 2003 Inside Out.rar,0,2000-01-01 01:00:00,2016-04-03 02:51:08,,,
21515453,Cisco LAN Switch Configuration Exam Certification Guide,,,,Kevin Downes and Tim Boyles,1999,,"Sybex, Cisco press",,673,0,English,101,torrents.ru tech collections 2009-11-14,,,,,,,,,,,,,0,,,,,,1,1,7648799,pdf,EAFA371C7F43E61D81DBDDFB77ABABAD,,,D:\\!Genesis\\!!ForLG\\!!!3\\(Network - Sybex) Cisco LAN Switch Configuration Exam Certification Guide.pdf,0,2000-01-01 01:00:00,2016-04-03 02:51:08,223000/eafa371c7f43e61d81dbddfb77ababad.jpg,,
21515454,From Womb to Womb - Metamorphosis of a Mother,,,,,,,Buddha Dharma Education Association Inc.,,23,0,English,111,torrents.ru tech collections 2009-11-14,,,,,,,,,,,,,0,,,,,,,0,144215,pdf,48E03D7CCD8AA97C97FB0FCBA32E7B60,,,D:\\!Genesis\\!!ForLG\\-=  UNSORTED BOOKS  =-\\Non-Fiction\\Mythology\\(pdf) - Buddhist eBook - From Womb to Womb - Metamorphosis of a Mother.pdf,0,2000-01-01 01:00:00,2016-04-03 02:51:08,223000/48e03d7ccd8aa97c97fb0fcba32e7b60.jpg,,
21515455,THE WORD (The Eightfold Path),,Forgotten Books,,,2007,,Forgotten Books,,34,0,English,111,torrents.ru tech collections 2009-11-14,,"9781605061061,1605061069",,,,,,,,,,,0,,,,,,1,1,99968,pdf,D72347C375074DC75565295C2895EDC3,,,D:\\!Genesis\\!!ForLG\\-=  UNSORTED BOOKS  =-\\Non-Fiction\\Mythology\\(pdf) - Buddhist eBook - THE WORD (The Eightfold Path).pdf,0,2000-01-01 01:00:00,2016-04-03 02:51:08,223000/d72347c375074dc75565295c2895edc3-d.jpg,,
21515456,Repair - CompTIA A+,,,,,,,Sybex,,,0,English,,torrents.ru tech collections 2009-11-14,,,,,,,,,,,,,0,,,,,,,0,46833591,pdf,ED2906724F0CA3309E68BCD910E2B7A9,,,D:\\!Genesis\\!!ForLG\\!!!3\\(SYBEX) Computer - Repair - CompTIA A+.pdf,0,2000-01-01 01:00:00,2016-04-03 02:51:08,,,
21515457,Architecture in France,,,,Philip Jodidio,2006,,Taschen,,188,0,English,58,torrents.ru tech collections 2009-11-14,,"9783822852576,3822852570",,,,,,,,,OL8946055M,,0,,,,,,1,0,145914658,pdf,C6835E7816A741E5CD1B0E1FDDFB4980,,,D:\\!Genesis\\!!ForLG\\1587283-Philip Jodidio - Сборник 11 книг\\(Taschen) Architecture In France Philip Jodidio.pdf,0,2000-01-01 01:00:00,2016-04-03 02:51:08,223000/c6835e7816a741e5cd1b0e1fddfb4980-d.jpg,,
21515458,Architecture in Japan ,,Architecture Taschen,,Philip Jodidio,2006,,Taschen,,181,0,English,58,torrents.ru tech collections 2009-11-14,,"9783822839881,3822839884",,,,,,,,,OL8945855M,,0,,,,,,,0,100981905,pdf,82B19D045897A4397A4409D3674D42CB,,,D:\\!Genesis\\!!ForLG\\1587283-Philip Jodidio - Сборник 11 книг\\(Taschen) Architecture in Japan Philip Jodidio.pdf,0,2000-01-01 01:00:00,2016-04-03 02:51:08,223000/82b19d045897a4397a4409d3674d42cb-d.jpg,,
21515459,Building A New Millennium,,Specials,,Philip Jodidio,1999,,Taschen,,477,0,English,236,torrents.ru tech collections 2009-11-14,,"9783822863909,3822863904",,,,,,,,,OL16954717M,,0,,,,,,1,0,621382729,pdf,CF6A83490319EBE567DAA077C0DEA012,,,D:\\!Genesis\\!!ForLG\\1587283-Philip Jodidio - Сборник 11 книг\\(Taschen) Building A New Millennium (Philip Jodidio).pdf,0,2000-01-01 01:00:00,2016-04-03 02:51:08,223000/cf6a83490319ebe567daa077c0dea012-d.jpg,,
21515460,Philip Jodidio,,,,Norman Foster ,,,Taschen,,45,0,English,58,torrents.ru tech collections 2009-11-14,,"382288071X,9783822880715",,,,,720/.92,NA997.F65 J63 1997,,,OL6885940M,,0,,,,,,1,0,17787430,pdf,D89CA5AE29EFE84F9A0370C2EA91D08B,,,D:\\!Genesis\\!!ForLG\\1587283-Philip Jodidio - Сборник 11 книг\\(Taschen) Norman Foster - Philip Jodidio.pdf,0,2000-01-01 01:00:00,2016-04-03 02:51:08,223000/d89ca5ae29efe84f9a0370c2ea91d08b.jpg,,
21515461,Santiago Calatrava,,Taschen Basic Architecture,,Philip Jodidio,1998,,Taschen,,164,0,English,58,torrents.ru tech collections 2009-11-14,,"3822878839,9783822878835",,,,,720/.92,NA1313.C35 J63 1998,,,OL6886051M,,0,,,,,,,0,199646062,pdf,EBBCDF2A10C4C100B4C54A29CF48993F,,,D:\\!Genesis\\!!ForLG\\1587283-Philip Jodidio - Сборник 11 книг\\(Taschen) Santiago Calatrava.pdf,0,2000-01-01 01:00:00,2016-04-03 02:51:08,223000/ebbcdf2a10c4c100b4c54a29cf48993f-d.jpg,,
21515462,On the Use of Leading Indicators to Predict Cyclical Turning Points,,,,Alan.Greenspan,1973,,Jstor,,47,0,English,10,torrents.ru tech collections 2009-11-14,,,,,,,,,,,,,0,,,,,,,0,4121186,pdf,BAA315C797311C63F79BB140B39CE34C,,,"D:\\!Genesis\\!!ForLG\\!!!3\\(Trading)GREENSPAN_On_the_Use_of_Leading_Indicators_to_Predict_Cyclical_Turning_Points_(Alan.Greenspan,1973,jstor.org_[pdf].pdf",0,2000-01-01 01:00:00,2016-04-03 02:51:08,223000/baa315c797311c63f79bb140b39ce34c.jpg,,
21515463,Data Mining In Finance Advances In Relational And Hybrid Method,,s (The Springer International Series In Engineering And Computer Science),,,2000,,Springer,,323,0,English,86,torrents.ru tech collections 2009-11-14,,,,,,,,,,,,,0,,,,,,1,1,22468291,pdf,8EAF3562FB5A9F15BAA1C98B77AB46AD,,,D:\\!Genesis\\!!ForLG\\!!!3\\[2000] - Data Mining In Finance Advances In Relational And Hybrid Methods (The Springer International Series In Engineering And Computer Science).pdf,0,2000-01-01 01:00:00,2016-04-03 02:51:08,223000/8eaf3562fb5a9f15baa1c98b77ab46ad.jpg,,
21515464,An Introduction to HTML and JavaScript for Scientists and Engineers,,,,David R. Brooks,2007,,Springer,London,206,0,English,92,torrents.ru tech collections 2009-11-14,,"9781846286568,1846286565",,,,,,,,,OL8962655M,,0,,,,,,1,1,3630059,pdf,8C87F7CAD33F657C83B47B39F3E9DCFC,,,D:\\!Genesis\\!!ForLG\\!!!3\\[2007] - An Introduction to HTML and JavaScript for Scientists and Engineers - [Springer] - [1846286565].pdf,0,2000-01-01 01:00:00,2016-04-03 02:51:08,223000/8c87f7cad33f657c83b47b39f3e9dcfc-d.jpg,,
21515465,Intrusion Detection Systems,,Advances in information security 38,,"Roberto Pietro, Luigi V. Mancini",2008,,Springer,New York,256,0,English,77,torrents.ru tech collections 2009-11-14,,"9780387772653,0387772650,9780387772660,0387772669",,,,,,,,,,,0,,,,,,,1,2947463,pdf,52D2E9838AAFACA7A3856D40C2434FB7,,,D:\\!Genesis\\!!ForLG\\!!!3\\[2008] - Intrusion Detection Systems (Advances in Information Security) - [Springer] - [0387772650].pdf,0,2000-01-01 01:00:00,2016-04-03 02:51:08,223000/52d2e9838aafaca7a3856d40c2434fb7-d.jpg,,
21515466,"MCITP SQL Server 2005 Database Developer All-in-One Exam Guide (Exams 70-431, 70-441 & 70-442) (All-in-One)",,,,Darril Gibson,2008,1,McGraw-Hill Osborne Media,,932,0,English,86,torrents.ru tech collections 2009-11-14,,"0-07-164376-1,0-07-154669-3",,B00190VF3Q,,,,,10.1036/0071546693,,,,0,,,,,,,1,22753783,pdf,82F928802844228069F3F74E9535737E,,,"D:\\!Genesis\\!!ForLG\\!!!3\\[2008] - MCITP SQL Server 2005 Database Developer All-in-One Exam Guide (Exams 70-431, 70-441 & 70-442) (All-in-One) - [McGraw-Hill Osborne Media].pdf",0,2000-01-01 01:00:00,2016-04-03 02:51:08,223000/82f928802844228069f3f74e9535737e.jpg,,
21515467,Microsoft Windows Server 2008 A Beginner's Guide,,Network Professional's Library,,Marty Matthews,2008,,Mcgraw-Hill,,609,0,English,183,torrents.ru tech collections 2009-11-14,,"9780072263510,0072263512",,,,,005.4/476,QA76.76.O63 M37177 2008,10.1036/0072263512,,OL19141694M,,0,,,,,,,1,21742687,pdf,226EC17ED0CE96CCDB364C99A7A5C6D6,,,D:\\!Genesis\\!!ForLG\\!!!3\\[2008] - Microsoft Windows Server 2008 A Beginners Guide (Network Professionals Library) - [McGraw-Hill Osborne Media] - [0072263512].pdf,0,2000-01-01 01:00:00,2016-04-03 02:51:08,223000/226ec17ed0ce96ccdb364c99a7a5c6d6-d.jpg,,
21515468,OCA Oracle Database 11g Administration I Exam Guide (Exam 1Z0-052),,,,John Watson,2008,,McGraw-Hill Osborne Media,,757,0,English,86,torrents.ru tech collections 2009-11-14,,"9780071591027,0071591028",,,,,005.7575,QA76.3 .W35655 2008,10.1036/0071591028,,OL20637802M,,0,,,,,,,1,17925286,pdf,B8711FC2A672A22106D46464CBA2F24E,,,D:\\!Genesis\\!!ForLG\\!!!3\\[2008] - OCA Oracle Database 11g Administration I Exam Guide (Exam 1Z0-052) - [McGraw-Hill Osborne Media] - [0071591028].pdf,0,2000-01-01 01:00:00,2016-04-03 02:51:08,223000/b8711fc2a672a22106d46464cba2f24e-d.jpg,,
21515469,Schaum's Outline of Principles of Computer Science,,Schaum's outline series,,"Paul Tymann, Carl Reynolds",2008,,McGraw-Hill,New York,225,0,English,69,torrents.ru tech collections 2009-11-14,,"9780071460514,0071460519",,,,,,,10.1036/0071460519,,OL9836783M,,0,,,,,,,1,1805343,pdf,A06456AEC96BA14A28DD99CECB815841,,,D:\\!Genesis\\!!ForLG\\!!!3\\[2008] - Schaums Outline of Principles of Computer Science (Schaums Outlines) - [McGraw-Hill] - [0071460519].pdf,0,2000-01-01 01:00:00,2016-04-03 02:51:08,223000/a06456aec96ba14a28dd99cecb815841-d.jpg,,
21515470,An Essay Concerning Human Understanding. Knowledge and Opinion,Book IV,,,John Locke,2004,,,,94,0,English,195,torrents.ru tech collections 2009-11-14,,,,,,,,,,,,,0,,,,,,,1,546346,pdf,7DEC62F6F229A086417610D243684DD6,,,D:\\!Genesis\\!!ForLG\\-=  UNSORTED BOOKS  =-\\[b] Bennett J.(ed) An Essay Concerning Human Understanding by John Locke. Book IV. Knowledge and Opinion (2004)(T)(94s).pdf,0,2000-01-01 01:00:00,2016-04-03 02:51:08,223000/7dec62f6f229a086417610d243684dd6.jpg,,
21515471,Mindware An Introduction To The Philosophy Of Cognitive Science,,,,Clark A. ,2001,,OUP,,112,0,English,181,torrents.ru tech collections 2009-11-14,,,,,,,,,,,,,0,,,,,,,0,11912531,djvu,F4754993E53D28127745DB0EA0EF6860,6b60d3803389aea44f8c5efbbb4875d0,no,"D:\\!Genesis\\!!ForLG\\-=  UNSORTED BOOKS  =-\\[b] Clark A. Mindware An Introduction To The Philosophy Of Cognitive Science  (OUP,2001)(S)(L)(112s).djvu",0,2000-01-01 01:00:00,2016-04-03 02:51:08,223000/f4754993e53d28127745db0ea0ef6860.jpg,,
21515472,The Intentional Stance,,Bradford Books,,Daniel C. Dennett,1989,,The MIT Press,,200,0,English,165,torrents.ru tech collections 2009-11-14,,"9780262540537,0262540533",,,,,,,,,OL9506759M,,0,,,,,,,0,20314959,pdf,1701E2423C0BEC625F2F2D204BEEBBB7,,,"D:\\!Genesis\\!!ForLG\\-=  UNSORTED BOOKS  =-\\[b] Dennett D.C. The Intentional Stance (MIT,1987)(S)(L)(200s).pdf",0,2000-01-01 01:00:00,2016-04-03 02:51:08,223000/1701e2423c0bec625f2f2d204beebbb7-d.jpg,,
21515473,Wittgenstein's Lectures on the Foundations of Mathematics,,,,Diamond C.(ed) ,1976,,Harvester,,296,0,English,113,torrents.ru tech collections 2009-11-14,,,,,,,,,,,,,0,,,,,,,0,1421392,djvu,54793A4A8D24100B6182A3A8355C5188,3774cfbd5e33ce483cc9929954668658,no,"D:\\!Genesis\\!!ForLG\\-=  UNSORTED BOOKS  =-\\[b] Diamond C.(ed) Wittgensteins Lectures on the Foundations of Mathematics (Harvester,1976)(S)(296s).djvu",0,2000-01-01 01:00:00,2016-04-03 02:51:08,223000/54793a4a8d24100b6182a3a8355c5188.jpg,,
21515474,"Hegel, Nietzsche, and Philosophy: Thinking Freedom ",,Modern European Philosophy,,Will Dudley,2002,,Cambridge University Press,,335,0,English,195,torrents.ru tech collections 2009-11-14,,"052181250X,9780521812504,9780511021022",,,,,,,,0OZ8lBdgnlcC,OL7755390M,missing copyright page,0,,,,0,0,,1,2961725,pdf,24193F3AF8A3918EB598E7F06EDB125C,,,"D:\\!Genesis\\!!ForLG\\!!!3\\[b] Dudley W. Hegel, Nietzsche, and Philosophy- Thinking Freedom (CUP,2004)(T)(335s).pdf",0,2000-01-01 01:00:00,2016-04-03 02:51:08,223000/24193f3af8a3918eb598e7f06edb125c-d.jpg,,
21515475,Information and Self-Organization- A Macroscopic Approach to Complex Systems,,,,Haken H. ,2005,,Springer,,244,0,English,,torrents.ru tech collections 2009-11-14,,,,,,,,,,,,,0,,,,,,1,1,2056730,pdf,884AC616C2D31F5488971432E7B1E92D,,,"D:\\!Genesis\\!!ForLG\\!!!3\\[b] Haken H. Information and Self-Organization- A Macroscopic Approach to Complex Systems (Springer,2005)(T)(244s).pdf",0,2000-01-01 01:00:00,2016-04-03 02:51:08,223000/884ac616c2d31f5488971432e7b1e92d.jpg,,
21515476,Conceptions of Truth,,,,Kunne W.,2003,,Clarendon,,263,0,English,,torrents.ru tech collections 2009-11-14,,,,,,,,,,,,,0,,,,,,,1,2674734,pdf,D908CE5CEC9E6BEA3F65F821848FCA22,,,"D:\\!Genesis\\!!ForLG\\-=  UNSORTED BOOKS  =-\\[b] Kunne W. Conceptions of Truth (Clarendon,2003)(T)(263s).pdf",0,2000-01-01 01:00:00,2016-04-03 02:51:08,223000/d908ce5cec9e6bea3f65f821848fca22.jpg,,
21515477,Philosophical Papers ,,Stanley Rosen's Copy,,"J.L. Austin, J.O. Urmson, G.J. Warnock",1970,2nd,Oxford University Press,,294,0,English,195,torrents.ru tech collections 2009-11-14,,"0198243464,9780198243465",,B0045VNXZY,,,192,B1618 .A8 1970,,,OL5691087M,,0,,,,,,,0,1679504,djvu,96C87C702E7E7D9AAAD1EF0CAE161047,a358855ef11ab655d2e3c957afa7f93d,no,"D:\\!Genesis\\!!ForLG\\-=  UNSORTED BOOKS  =-\\[b] Urmson J.O., Warnock G.J.(eds) Austins Philosophical Papers (2ed,Clarendon,1970)(S)(294s).djvu",0,2000-01-01 01:00:00,2016-04-03 02:51:08,223000/96c87c702e7e7d9aaad1ef0cae161047.jpg,,
21515478,Introduction to C++ Programming and Graphics,,,,Constantine Pozrikidis,2007,1,Springer,,372,0,English,92,torrents.ru tech collections 2009-11-14,,"0-387-68992-3,0-387-68993-1,978-0-387-68992-0,978-0-387-68993-7",,,,,,,,,OL7447708M,,0,,,,,,,1,3825799,pdf,1056CB5ADA96658D9C6E02DBCBCDCED8,,,"D:\\!Genesis\\!!ForLG\\!!!3\\[Book - eng] Introduction to C++ Programming and Graphics (C. Pozrikidis - Springer 2007, 383pp) ISBN 0-387-68992-3.pdf",0,2000-01-01 01:00:00,2016-04-03 02:51:08,223000/1056cb5ada96658d9c6e02dbcbcdced8-d.jpg,,
21515479,Essential Grammar in Use Supplementary Exercises,,,,"Naylor, Murphy",1996,,,,114,0,English,314,torrents.ru tech collections 2009-11-14,,,,,,,,,,,,,0,,,,,,1,0,5821559,pdf,217D78A9E64B2F251579A00D918098DD,,,D:\\!Genesis\\!!ForLG\\!!!3\\[Cambrige] Essential Grammar in Use Supplementary Exercises - 1996.pdf,0,2000-01-01 01:00:00,2016-04-03 02:51:08,223000/217d78a9e64b2f251579a00d918098dd.jpg,,
21515480,toxicant (d20 guide to poisons),,,,,2003,,Mad Kaiser Games,,77,0,English,302,torrents.ru tech collections 2009-11-14,,,,,,,,,,,,,0,,,,,,1,1,1916166,pdf,62B02803CEB05985DB435FF4345BCD50,,,D:\\!Genesis\\!!ForLG\\!Drugs\\[chemistry drugs poisons] toxicant (d20 guide to poisons).pdf,0,2000-01-01 01:00:00,2016-04-03 02:51:08,223000/62b02803ceb05985db435ff4345bcd50.jpg,,
21515481,CISSP Certification All in One Exam Guide,,,,,2007,4,Mcgraw-Hill,,1188,0,English,,torrents.ru tech collections 2009-11-14,,"978-0-07-149786-2,978-0-07-149788-6,978-0-07-149787-9,0-07-149786-2,0-07-149788-9,0-07-149787-0",,,,,,,,,,,0,,,,,,,1,21872534,pdf,249C955085085B0A3605DA01293778ED,,,D:\\!Genesis\\!!ForLG\\!!!3\\[CISSP].McGraw.Hill.CISSP.Certification.All.in.One.Exam.Guide.4th.Edition.Nov.2007.eBook-BBL.pdf,0,2000-01-01 01:00:00,2016-04-03 02:51:08,223000/249c955085085b0a3605da01293778ed.jpg,,
21515482,Reference Design and Safety Guidelines for the HVAC Designers,,,,,,,ASHRAE,,219,0,English,238,torrents.ru tech collections 2009-11-14,,,,,,,,,,,,,0,,,,,,,1,930012,pdf,18A33BB4F2B391FA5074372DFBE27063,,,D:\\!Genesis\\!!ForLG\\!!!\\hvac\\[Coffee Project] Reference Design and Safety Guidelines for the HVAC Designers.pdf,0,2000-01-01 01:00:00,2016-04-03 02:51:08,223000/18a33bb4f2b391fa5074372dfbe27063.jpg,,
21515483,Lectii de filosofie vol. 1,,,,Jean Beaufret,1999,,Amarcord,,343,0,Romanian,,,0,,,,,,,,,,,,0,,,,,,,,3513806,djvu,40be262eda6f2530c3d606ddd7c9dbbd,8f5693b537202d5e9c2b70c30b57de16,no,Jean Beaufret - Lectii de filosofie vol. 1.djvu,0,2000-01-01 01:00:00,2016-04-03 02:51:08,881000/40be262eda6f2530c3d606ddd7c9dbbd-g.jpg,,
21515484,CONSPIRATORS HIERARCHY - THE STORY OF THE COMMITTEE OF 300 (R),,,,Coleman,,,,,169,0,English,64,torrents.ru tech collections 2009-11-14,,,,,,,,,,,,,0,,,,,,,1,850706,pdf,4A92FD2FB4DAE3F773DB0B7742CF0F65,,,D:\\!Genesis\\!!ForLG\\-=  UNSORTED BOOKS  =-\\EBOOK COLLECTION (PART14) [CSI][h33t]\\[conspiracy] Coleman - CONSPIRATORS HIERARCHY - THE STORY OF THE COMMITTEE OF 300 (R).pdf,0,2000-01-01 01:00:00,2016-04-03 02:51:08,223000/4a92fd2fb4dae3f773db0b7742cf0f65.jpg,,
21515485,"Project Mkultra, The CIAs Program Of Research In Behavioral Modification",,,,JOINT HEARING,1977,,,,238,0,English,,torrents.ru tech collections 2009-11-14,,,,,,,,,,,,,0,,,,,,1,1,481988,pdf,C1F6A5FC9E4927B1CCFAC42590140D81,,,"D:\\!Genesis\\!!ForLG\\-=  UNSORTED BOOKS  =-\\EBOOK COLLECTION (PART14) [CSI][h33t]\\[conspiracy] Project Mkultra, The CIAs Program Of Research In Behavioral Modification.pdf",0,2000-01-01 01:00:00,2016-04-03 02:51:08,223000/c1f6a5fc9e4927b1ccfac42590140d81.jpg,,
21515486,The Illuminati Formula Used to Create an Undetectable Total Mind Controlled Slave,,,,Fritz Springmeier,1996,,Springmeier & Wheeler,,573,0,English,209,torrents.ru tech collections 2009-11-14,,,,B0006QXVU4,,,,,,,,,0,,,,,,1,1,2019381,pdf,7FB103D1F6930EB61B8EC587C9E89A74,,,D:\\!Genesis\\!!ForLG\\-=  UNSORTED BOOKS  =-\\EBOOK COLLECTION (PART14) [CSI][h33t]\\[conspiracy] The Illuminati Formula Used to Create an Undetectable Total Mind Controlled Slave.pdf,0,2000-01-01 01:00:00,2016-04-03 02:51:08,223000/7fb103d1f6930eb61b8ec587c9e89a74.jpg,,
21515487,The Secret Team - The CIA and Its Allies in Control of the United States and the World,,,,Col. Fletcher L. Prouty,2003,,The Thinker's Library,,481,0,English,64,torrents.ru tech collections 2009-11-14,,"9789676904959,9676904953",,,,,,,,,,,0,,,,,,,1,1327104,pdf,08516675F0402AF02B53EBC620D4C2F4,,,D:\\!Genesis\\!!ForLG\\-=  UNSORTED BOOKS  =-\\EBOOK COLLECTION (PART14) [CSI][h33t]\\[conspiracy] The Secret Team - The CIA and Its Allies in Control of the United States and the World.pdf,0,2000-01-01 01:00:00,2016-04-03 02:51:08,223000/08516675f0402af02b53ebc620d4c2f4.jpg,,
21515488,SCJP Sun Certified Programmer for Java 5 Study Guide (Exam 310-055),,,,,2006,,Mcgraw-Hill,,924,0,English,92,torrents.ru tech collections 2009-11-14,,,,,,,,,,,,,0,,,,,,1,1,12209166,pdf,DC875E16188C52DCB0F0D95171B0331B,,,D:\\!Genesis\\!!ForLG\\!!!3\\[eBook - ENG] McGraw-Hill - SCJP Sun Certified Programmer for Java 5 Study Guide (Exam 310-055) - 2006.pdf,0,2000-01-01 01:00:00,2016-04-03 02:51:08,223000/dc875e16188c52dcb0f0d95171b0331b.jpg,,
21515489,McDonalds Recipes,,,,,,,,,,0,English,49,torrents.ru tech collections 2009-11-14,,,,,,,,,,,,,0,,,,,,,,37657,zip,859D855C7DA9F3DDDF7A434AF42FE8C7,,,D:\\!Genesis\\!!ForLG\\-=  UNSORTED BOOKS  =-\\Non-Fiction\\Food and Cooking\\Cookbook Megapost\\Cookbook Megapost\\[eBook - Food - DOC] McDonalds Recipes.zip,0,2000-01-01 01:00:00,2016-04-03 02:51:08,,,
21515490,Spider-Man - The Sinister Six Combo,v1,,,"Castro, Adam-Troy",,,,,,0,English,,torrents.ru tech collections 2009-11-14,,,,,,,,,,,,,0,,,,,,,,837479,rar,6AE79798B24B07D62AEABC590BF69F46,,,"D:\\!Genesis\\!!ForLG\\-=  UNSORTED BOOKS  =-\\[Ebook] Castro,_Adam-Troy_-_Spider-Man_-_The_Sinister_Six_Combo_(v1)_[html].rar",0,2000-01-01 01:00:00,2016-04-03 02:51:08,,,
21515491,The Secret History Of the USA,,,,,,,,,91,0,English,64,torrents.ru tech collections 2009-11-14,,,,,,,,,,,,,0,,,,,,,1,314228,pdf,21FAA637FFBA4E69B4B36494604C08E6,,,D:\\!Genesis\\!!ForLG\\-=  UNSORTED BOOKS  =-\\EBOOK COLLECTION (PART14) [CSI][h33t]\\[ebook] Politics - Conspiracy - The Secret History Of the USA.pdf,0,2000-01-01 01:00:00,2016-04-03 02:51:08,223000/21faa637ffba4e69b4b36494604c08e6.jpg,,
21515492,Facility Piping Systems Handbook,Ch 2,,,,2002,,Mcgraw-Hill,,93,0,English,232,torrents.ru tech collections 2009-11-14,,,,,,,,,,,,,0,,,,,,,1,961855,pdf,24F53E787E812607EF53BF2BEA96461C,,,D:\\!Genesis\\!!ForLG\\!!!3\\[eBook].[mechanics].[Facility Piping Systems Handbook].[mcgraw.hill].[2002].[02-22].pdf,0,2000-01-01 01:00:00,2016-04-03 02:51:08,223000/24f53e787e812607ef53bf2bea96461c.jpg,,
21515493,Eurocode 3. Design of steel structures,Part 1.1,,,,2001,,,,61,0,English,,torrents.ru tech collections 2009-11-14,,,,,,,,,,,,,0,,,,,,,1,958309,pdf,F65E1446E0004204219C09F4CF4CAC00,,,D:\\!Genesis\\!!ForLG\\!!!\\[ENG]Eurocode 3 Дизайн стальных конструкций Part 1.1.pdf,0,2000-01-01 01:00:00,2016-04-03 02:51:08,223000/f65e1446e0004204219c09f4cf4cac00.jpg,,
21515494,Financial Analysis Tools And Techniques A Guide For Managers,,,,"ERICH A. HELFERT, D.B.A.",,,Mcgraw-Hill,,510,0,English,305,torrents.ru tech collections 2009-11-14,,"0-07-139541-5,0-07-137834-0",,,,,,,10.1036/0071395415,,,,0,,,,,,,1,3546738,pdf,E42A80458D6CD59100AEA1827F37D819,,,D:\\!Genesis\\!!ForLG\\!!!3\\[Finance] Mcgraw Hill - Financial Analysis Tools And Techniques A Guide For Managers Ebook-Fly.PDF,0,2000-01-01 01:00:00,2016-04-03 02:51:08,223000/e42a80458d6cd59100aea1827f37d819.jpg,,
21515495,Automatyczna regul systemow went i klimat,,,,B.Zawada,,,,,62,0,Polish,238,torrents.ru tech collections 2009-11-14,,,,,,,,,,,,,0,,,,,,,0,16056226,pdf,0488DF71F11851BBD050FAD7D9922795,,,D:\\!Genesis\\!!ForLG\\!!!\\hvac\\[HVAC]B.Zawada-Automatyczna_regul_systemow_went_i_klimat.(osloskop.net).pdf,0,2000-01-01 01:00:00,2016-04-03 02:51:08,223000/0488df71f11851bbd050fad7d9922795.jpg,,
21515496,HAP42 Manual,,,,,2003,,Carrier Corporation   ,,148,0,Polish,238,torrents.ru tech collections 2009-11-14,,,,,,,,,,,,,0,,,,,,,1,965470,pdf,4D528E61D1BDE0D354F6839CE9862BF6,,,D:\\!Genesis\\!!ForLG\\!!!\\hvac\\[HVAC]HAP42.Manual.(osloskop.net).pdf,0,2000-01-01 01:00:00,2016-04-03 02:51:08,223000/4d528e61d1bde0d354f6839ce9862bf6.jpg,,
21515497,Instalacji Ogrzewczych,,WYMAGANIA TECHNICZNE COBRTI INSTAL -06,,,,,ZALECANE DO STOSOWANIA PRZEZ  ,,44,0,Polish,238,torrents.ru tech collections 2009-11-14,,82-886995-09-6,,,,,,,,,,,0,,,,,,,1,2011767,pdf,1CC8C0073BE45ADADDB115E3112D20B1,,,D:\\!Genesis\\!!ForLG\\!!!\\hvac\\[HVAC]WTWiO-06-Instalacji_Ogrzewczych.pdf,0,2000-01-01 01:00:00,2016-04-03 02:51:08,223000/1cc8c0073be45adaddb115e3112d20b1.jpg,,
21515498,Elements of applied bifurcation theory,,,,YURI A. KUZNETSOV,2004,,Springer-Verlag New York Inc.,,614,0,English,275,torrents.ru tech collections 2009-11-14,,,,B000N5GQGO,,,,,,,,,0,,,,,,,1,4354400,pdf,472233D16E7F6C4FF8877D63461ABBBA,,,"D:\\!Genesis\\!!ForLG\\!!!3\\[Kun95] Y. A. Kuznetsov. Elements of applied bifurcation theory. Springer,1995.pdf",0,2000-01-01 01:00:00,2016-04-03 02:51:08,223000/472233d16e7f6c4ff8877d63461abbba.jpg,,
21515499,Ten Days that Shook the World,,Penguin Classics,,"John Reed, Vladimir Ilyich Lenin, A. J. P. Taylor",2007,,Penguin Classics,,228,0,English,,torrents.ru tech collections 2009-11-14,,"9780141442129,0141442123",,,,,,,,,OL7359984M,,0,,,,,,1,1,511121,pdf,290DBA6F786A374BEB47DD77B3BDAE78,,,"D:\\!Genesis\\!!ForLG\\-=  UNSORTED BOOKS  =-\\[Literature] - Reed, John - Ten Days that Shook the World.pdf",0,2000-01-01 01:00:00,2016-04-03 02:51:08,223000/290dba6f786a374beb47dd77b3bdae78-d.jpg,,
21515500,Discourse and Truth- The Problematization of Parrhesia,,,,Foucault M. ,1983,,Berkeley,,66,0,English,64,torrents.ru tech collections 2009-11-14,,,,,,,,,,,,,0,,,,,,,1,406942,pdf,3A98E096309B9D0E45018BCF143B4A3A,,,"D:\\!Genesis\\!!ForLG\\-=  UNSORTED BOOKS  =-\\[Ln] Foucault M. Discourse and Truth- The Problematization of Parrhesia (Berkeley,1983)(T)(66s).pdf",0,2000-01-01 01:00:00,2016-04-03 02:51:08,223000/3a98e096309b9d0e45018bcf143b4a3a.jpg,,
21515501,"Information theory, inference, and learning algorithms",,,,MacKay D J C,,,Cambridge University Press,,650,0,English,183,torrents.ru tech collections 2009-11-14,,,,,,,,,,,,,0,,,,,,1,1,11282963,pdf,CF0F547DE5B24D86B59902C7AA7B362B,,,"D:\\!Genesis\\!!ForLG\\!!!3\\[MacKay D J C][Information theory, inference, and learning algorithms][CUP].pdf",0,2000-01-01 01:00:00,2016-04-03 02:51:08,223000/cf0f547de5b24d86b59902c7aa7b362b.jpg,,
21515502,The Art And Science Of Cooking With Cannabis,,,,Adam Gottlieb,1993,,Unknown,,74,0,English,181,torrents.ru tech collections 2009-11-14,,"0914171550,9780914171553",,B002A49V5O,,,641.6379,TX819.M25 G688 1993,,,OL24934122M,,0,,,,,,,0,19699806,pdf,66322ABBE866CDC4ADF75743A54DA0BD,,,D:\\!Genesis\\!!ForLG\\!Drugs\\[Marijuana]The Art And Science Of Cooking With Cannabis.pdf,0,2000-01-01 01:00:00,2016-04-03 02:51:08,223000/66322abbe866cdc4adf75743a54da0bd.jpg,,
21515503,Differential Equations Demystified,,,,Steven Krantz,2004,1,McGraw-Hill Professional,,335,0,English,113,torrents.ru tech collections 2009-11-14,,"9780071440257,0071440259",,,,,,,10.1036/0071440259,,OL7300599M,,0,,,,,,1,1,4947488,pdf,9F5EB085A491F9F381CDFFB09E815307,,,D:\\!Genesis\\!!ForLG\\!!!3\\[McGraw-Hill] - [Schaum] - Differential Equations Demystified (2006).pdf,0,2000-01-01 01:00:00,2016-04-03 02:51:08,223000/9f5eb085a491f9f381cdffb09e815307-d.jpg,,
21515504,Human Anatomy,,,,,2001,,Mcgraw-Hill,,855,0,Italian,148,torrents.ru tech collections 2009-11-14,,,,,,,,,,,,,0,,,,,,1,1,95948519,pdf,75266793A72C42AE9CF049BA998385E5,,,D:\\!Genesis\\!!ForLG\\!!!3\\[Med ITA] Anatomia McGraw-Hill Human Anatomy 2001.pdf,0,2000-01-01 01:00:00,2016-04-03 02:51:08,223000/75266793a72c42ae9cf049ba998385e5.jpg,,
21515505,Samurai 1550-1600,,Warrior,,"Anthony Bryant, Angus McBride",,,Osprey,,24,0,English,64,torrents.ru tech collections 2009-11-14,,"9781855323452,1855323451",,,,,,,,,OL8992833M,,0,,,,,,,0,9035695,pdf,688FBE7D82D2952CC6EC5B231872570A,,,D:\\!Genesis\\!!ForLG\\-=  UNSORTED BOOKS  =-\\Non-Fiction\\History\\history\\[OSPREY] Samurai 1550-1600.pdf,0,2000-01-01 01:00:00,2016-04-03 02:51:08,223000/688fbe7d82d2952cc6ec5b231872570a-d.jpg,,
21515506,Optical scanning holography with Matlab,,,,Ting-Chung Poon,2010,1st Edition.,Springer,,157,0,English,279,torrents.ru tech collections 2009-11-14,,"9781441942265,1441942262",,,,,,,,,,,0,,,,,,1,1,8405067,pdf,5C7E40461FE1321776E282C52AACC0FE,,,"Poon T-C. Optical scanning holography with Matlab (Springer, 2007)(ISBN 0387368264)(157s).pdf",0,2000-01-01 01:00:00,2016-04-03 02:51:08,223000/5c7e40461fe1321776e282c52aacc0fe-d.jpg,,
21515507,"Psilocybe Cubensis-Handbuch der Zucht, Anwendung und Erkenntnistheorie-Zauberpilze",,,,,,,,,220,0,English,,torrents.ru tech collections 2009-11-14,,,,,,,,,,,,,0,,,,,,1,1,32085233,pdf,1910F25682FB2726A74D431FA26CE973,,,"D:\\!Genesis\\!!ForLG\\!Drugs\\[Psilocybin DE]Psilocybe Cubensis-Handbuch der Zucht, Anwendung und Erkenntnistheorie-Zauberpilze.pdf",0,2000-01-01 01:00:00,2016-04-03 02:51:08,223000/1910f25682fb2726a74d431fa26ce973.jpg,,
21515508,Introduction To Fungi,,,,,,,,,68,0,English,302,torrents.ru tech collections 2009-11-14,,,,,,,,,,,,,0,,,,,,,1,9182979,pdf,E8439CFF15A150CAE0B05E707B8020F4,,,D:\\!Genesis\\!!ForLG\\!Drugs\\[Psilocybin] Introduction To Fungi.pdf,0,2000-01-01 01:00:00,2016-04-03 02:51:08,223000/e8439cff15a150cae0b05e707b8020f4.jpg,,
21515509,Indoor mushrooms growing technique,,,,Jarrold D.H.,,,,,29,0,English,302,torrents.ru tech collections 2009-11-14,,,,,,,,,,,,,0,,,,,,1,1,7907891,pdf,D6D37F41ACB8B58086370452C2A02341,,,D:\\!Genesis\\!!ForLG\\!Drugs\\[Psilocybin]Magic Mushrooms-A New Indoor Growing Technique[www.erowid.org].pdf,0,2000-01-01 01:00:00,2016-04-03 02:51:08,223000/d6d37f41acb8b58086370452c2a02341.jpg,,
21515510,Magic Mushrooms Around The World,,,,Gartz,1997,,,,134,0,English,302,torrents.ru tech collections 2009-11-14,,,,,,,,,,,,,0,,,,,,,1,12493398,pdf,FEC6ADD5D3A8ED06587C2107D2EA26A9,,,D:\\!Genesis\\!!ForLG\\!Drugs\\[Psilocybin]Magic.Mushrooms.Around.The.World-Gartz-1997.pdf,0,2000-01-01 01:00:00,2016-04-03 02:51:08,223000/fec6add5d3a8ed06587c2107d2ea26a9.jpg,,
21515511,Psilocybinhaltige Pilze,,,,Dr. V. Kindt,,,,,21,0,English,302,torrents.ru tech collections 2009-11-14,,,,,,,,,,,,,0,,,,,,,1,1810417,pdf,CC34987EC30F695CD8543BF4ACBC161B,,,D:\\!Genesis\\!!ForLG\\!Drugs\\[Psilocybin]Psilocybinhaltige Pilze.PDF,0,2000-01-01 01:00:00,2016-04-03 02:51:08,223000/cc34987ec30f695cd8543bf4acbc161b.jpg,,
21515512,Sacred Mushroom of Visions-Teonanacatl- A Sourc on the Psilocybin Mushroom,,,,Ralph Metzner,,,,,304,0,English,302,torrents.ru tech collections 2009-11-14,,"9781594770449,1594770441",,,,,154.4,BF209.H36 T46 2006,,,OL3399580M,,0,,,,,,,0,42365034,pdf,30E594CFF71559E7732489D4B5F0FAD7,,,D:\\!Genesis\\!!ForLG\\!Drugs\\[Psilocybin]Sacred Mushroom of Visions-Teonanacatl- A Sourcebook on the Psilocybin Mushroom-Metzner-1594770441.pdf,0,2000-01-01 01:00:00,2016-04-03 02:51:08,223000/30e594cff71559e7732489d4b5f0fad7-d.jpg,,
21515513,The Psilocybin Mushroom Image Guide,,,,,,,,,105,0,English,302,torrents.ru tech collections 2009-11-14,,,,,,,,,,,,,0,,,,,,1,1,7589934,pdf,507FEE5B2C9A5ACB56142E423644CD1D,,,D:\\!Genesis\\!!ForLG\\!Drugs\\[Psilocybin]The Psilocybin Mushroom Image Guide[www.erowid.org].pdf,0,2000-01-01 01:00:00,2016-04-03 02:51:08,223000/507fee5b2c9a5acb56142e423644cd1d.jpg,,
21515514,The Psilocybin Producers Guide,,,,Adam Gottlieb,1976,,Kistone Press,,19,0,English,302,torrents.ru tech collections 2009-11-14,,,,B00072MEAK,,,,,,,,,0,,,,,,1,1,48722,pdf,8316974D13FE9480411E5AE4EF4BECC4,,,"D:\\!Genesis\\!!ForLG\\!Drugs\\[Psilocybin]The Psilocybin Producers Guide,Gottlieb.pdf",0,2000-01-01 01:00:00,2016-04-03 02:51:08,223000/8316974d13fe9480411e5ae4ef4becc4.jpg,,
21515515,Christ and the Sacred Mushroom,,,,David York,1970,,,,19,0,English,302,torrents.ru tech collections 2009-11-14,0,,,,,,,,,,,,0,,,,,,,1,5054320,pdf,E85556798CE6620A88B0568B605101BB,,,"D:/!Genesis/!!ForLG/!Drugs/[psilocybin]York, David - Christ and the Sacred Mushroom.pdf",0,2000-01-01 01:00:00,2016-04-03 02:51:08,223000/e85556798ce6620a88b0568b605101bb.jpg,,
21515516,Enzyklopadie der psychoaktiven,,,,"Pflanzen, Ratsch",,,,,684,0,German,302,torrents.ru tech collections 2009-11-14,,,,,,,,,,,,,0,,,,,,1,1,5892550,pdf,79EAC16BB0E2FD109F5DA56AD9043488,,,D:\\!Genesis\\!!ForLG\\!Drugs\\[Psychedelics DE]Enzyklopadie.der.psychoaktiven.Pflanzen-Ratsch.pdf,0,2000-01-01 01:00:00,2016-04-03 02:51:08,223000/79eac16bb0e2fd109f5da56ad9043488.jpg,,
21515517,The Psychedelic Experience: A Manual Based on the Tibetan Book of the Dead,,,,"Timothy Francis Leary, Ralph Metzner, Richard Alpert",,,,,61,0,English,302,torrents.ru tech collections 2009-11-14,0,,,,,,,,,,,,0,,,,,,,1,186695,pdf,AB0AE96C6F7C4EEB61A67F98FED1D45A,,,"D:/!Genesis/!!ForLG/!Drugs/[Psychedelics]The Psychedelic Experience-Leary,Metzner,Alpert.pdf",0,2000-01-01 01:00:00,2016-04-03 02:51:08,223000/ab0ae96c6f7c4eeb61a67f98fed1d45a.jpg,,
21515518,The Semantic Conception of Truth- and Foundations of Semantics,,,,Tarski A.,1944,,STOR,,37,0,English,,torrents.ru tech collections 2009-11-14,,,,,,,,,,,,,0,,,,,,,0,4134024,pdf,2F7A64C5C34D35D7413505A7B53C49DC,,,"D:\\!Genesis\\!!ForLG\\-=  UNSORTED BOOKS  =-\\[r] Tarski A. The Semantic Conception of Truth- and Foundations of Semantics (STOR,1944)(T)(37s).pdf",0,2000-01-01 01:00:00,2016-04-03 02:51:08,223000/2f7a64c5c34d35d7413505a7b53c49dc.jpg,,
21515519,Mathematical Olympiad Challenges,,,,"Titu Andreescu, Răzvan Gelca (auth.)",2009,2,Birkhäuser Basel,,283,0,English,113,torrents.ru tech collections 2009-11-14,,"978-0-8176-4528-1,978-0-8176-4611-0",,,,,,,10.1007/978-0-8176-4611-0,,OL8074887M,,0,,,,,,,1,2972121,pdf,EDE76C84783191CE0A63B0F783E63984,,,D:\\!Genesis\\!!ForLG\\!!!3\\[Springer - Birkhauser] - Mathematical.Olympiad.Challenges.2nd.Edition.Feb.2009.eBook-ELOHiM.pdf,0,2000-01-01 01:00:00,2016-04-03 02:51:08,223000/ede76c84783191ce0a63b0f783e63984-d.jpg,,
21515520,Measure Theory and Probability Theory ,,Springer Texts in Statistics,,"Krishna B. Athreya, Soumendra N. Lahiri",2006,1,Springer,,618,0,English,119,torrents.ru tech collections 2009-11-14,,"0-387-32903-X,0-387-35434-4,978-0387-32903-1",,,,,,,,,OL7445438M,,0,,,,,,1,1,5184788,pdf,B046D8BCBB172BB96ACBBF7D834B469B,,,D:\\!Genesis\\!!ForLG\\!!!3\\[Springer] - [STS] - Measure Theory And Probability Theory (2009).pdf,0,2000-01-01 01:00:00,2016-04-03 02:51:08,223000/b046d8bcbb172bb96acbbf7d834b469b-d.jpg,,
21515521,Measure Theory and Probability Theory ,,Springer Texts in Statistics,,"Krishna B. Athreya, Soumendra N. Lahiri",2006,1,Springer,,618,0,English,119,torrents.ru tech collections 2009-11-14,,"0-387-32903-X,0-387-35434-4,978-0387-32903-1",,,,,,,,,OL7445438M,,0,,,,,,1,1,4405082,pdf,92806F1CDF510853300E6F19E87F7F16,,,D:\\!Genesis\\!!ForLG\\!!!3\\[Springer] - [STS] - Measure Theory And Probability Theory (2010).pdf,0,2000-01-01 01:00:00,2016-04-03 02:51:08,223000/92806f1cdf510853300e6f19e87f7f16-d.jpg,,
21515522,Springer Handbook of Robotics,,,,"Bruno Siciliano, Oussama Khatib",2008,1,Springer,,1628,0,English,,torrents.ru tech collections 2009-11-14,,"354023957X,9783540239574",,,,,629.892,TJ211 .S67 2008,,,OL17029171M,,0,,,,,,,1,89391910,pdf,0BFF4F807106EBA80DFEDFB5DE4D76AC,,,D:\\!Genesis\\!!ForLG\\!!!3\\[Springer]Springer.Handbook.of.Robotics.(2008).pdf,0,2000-01-01 01:00:00,2016-04-03 02:51:08,223000/0bff4f807106eba80dfedfb5de4d76ac-d.jpg,,
21515523,Can Technical Analysis Still Beat Random Systems?,,,,Rudolf Wittmer,,,,,22,0,English,10,torrents.ru tech collections 2009-11-14,,,,,,,,,,,,,0,,,,,,,1,1162641,pdf,85E7B726F76A5466C5D2F9D49320F0B0,,,D:\\!Genesis\\!!ForLG\\Business & Finance\\Technical Analysis\\[Trading eBook] Can Technical Analysis Still Beat Random Systems.pdf,0,2000-01-01 01:00:00,2016-04-03 02:51:08,223000/85e7b726f76a5466c5d2f9d49320f0b0.jpg,,
21515524,Candlestick Charting Explained,,,,Gregory Morris,2006,,McGraw-Hill,,155,0,English,10,torrents.ru tech collections 2009-11-14,,,,B0036BIOQM,,,,,,,,,0,,,,,,,1,22603361,pdf,9855ACAE3C0B09EF30AE4B52FC01A140,,,D:\\!Genesis\\!!ForLG\\Business & Finance\\Technical Analysis\\[Trading eBook] Candlestick Charting Explained - Greg Morris.pdf,0,2000-01-01 01:00:00,2016-04-03 02:51:08,223000/9855acae3c0b09ef30ae4b52fc01a140.jpg,,
21515525,Technical Analysis for Short-Term Traders,,,,,2000,,Springer,,149,0,English,10,torrents.ru tech collections 2009-11-14,,"9781931611138,1931611130",,,,,,,,,,,0,,,,,,,1,2156565,pdf,3E8139903F76CA8863B810DEDA02B3E7,,,"D:\\!Genesis\\!!ForLG\\Business & Finance\\Technical Analysis\\[Trading eBook] Pring, Martin J. - Technical Analysis for Short-Term Traders.pdf",0,2000-01-01 01:00:00,2016-04-03 02:51:08,223000/3e8139903f76ca8863b810deda02b3e7.jpg,,
21515526,Secrets To Peak Performance Fitness Bodybuilding,,,,Garrett J. Braunreiter,2000,,World Peak Performance Center,,614,0,English,290,torrents.ru tech collections 2009-11-14,,,,,,,,,,,,,0,,,,,,,0,5891409,pdf,43FFCA29BBB9D994E63A822FFB2658FB,,,D:\\!Genesis\\!!ForLG\\-=  UNSORTED BOOKS  =-\\Non-Fiction\\Diet and Fitness\\Weightlifting Books\\_ebook_-_pdf__-_Secrets_To_Peak_Performance_Fitness__Bodybuilding_.pdf,0,2000-01-01 01:00:00,2016-04-03 02:51:08,223000/43ffca29bbb9d994e63a822ffb2658fb.jpg,,
21515527,A Very Short Introduction to Everything,,,,Oxford University Press,2006,,Oxford University Press,,144,0,English,183,torrents.ru tech collections 2009-11-14,,"0199208190,9780199208197",,,,,,,,,,,0,,,,,1,,1,4302883,pdf,E50CE2B945C9B6A31081AF115D3F50B5,,,Everything A Very Short Introduction.pdf,0,2000-01-01 01:00:00,2016-04-03 02:51:08,223000/e50ce2b945c9b6a31081af115d3f50b5-d.jpg,,
21515528,Classics. A Very Short Introduction,,Very Short Introductions,,John Henderson Mary Beard,2000,,Oxford University Press,,163,0,English,183,torrents.ru tech collections 2009-11-14,,"9780195682502,0195682505",,,,,,,,,,,0,,,,,,,1,3062313,pdf,73357CCEACE5C1542646865E7845D940,,,Classics_-_A_Very_Short_Introduction.pdf,0,2000-01-01 01:00:00,2016-04-03 02:51:08,223000/73357cceace5c1542646865e7845d940.jpg,,
21515529,Our Oriental Heritage,Volume 1,,,Will Durant,1963,,Simon & Schuster,,1190,0,English,64,torrents.ru tech collections 2009-11-14,,"9780965000727,0965000729",,,,,,,,,OL8528106M,,0,,,,,,,1,4208275,pdf,0E8C27B34AFBFDA8F212DF1BE92CC7CE,,,D:\\!Genesis\\!!ForLG\\History\\Will Durant - Story of Civilization\\01. Our Oriental Heritage.pdf,0,2000-01-01 01:00:00,2016-04-03 02:51:08,223000/0e8c27b34afbfda8f212df1be92cc7ce-d.jpg,,
21515530,Социальная сеть знаний,,,,Дубова,,,,,,0,Russian,99,torrents.ru tech collections 2009-11-14,,,,,,,,,,,,,0,,,,,,,,49198,rar,CECB75D96EE5C9F4696C6206D5E71F8C,,,D:\\!Genesis\\!!ForLG\\1735447-Личный сборник книг по математке\\Искусственный интеллект\\01_Статьи.rar,0,2000-01-01 01:00:00,2016-04-03 02:51:08,,,
21515531,Medieval Britain: A Very Short Introduction,,,,"John Gillingham, Ralph A. Griffiths",2002,,"Oxford University Press, USA",,192,0,English,64,torrents.ru tech collections 2009-11-14,,"019285402X,9780192854025",,B000W14PTE,,,941.03,DA175 .G57 2000,,,OL3656833M,,0,,,,,1,,1,4691052,pdf,ADCB92D923E4FD3FEF8817240910EE6A,,,"History - Medieval Britain - A Very Short Introduction - (John Gillingham, Ralph A. Griffiths) Oxford University Press 2000.pdf",0,2000-01-01 01:00:00,2016-04-03 02:51:08,223000/adcb92d923e4fd3fef8817240910ee6a-d.jpg,,
21515532,Abbriviations on ships,,,,,,,,,11,0,English,248,torrents.ru tech collections 2009-11-14,,,,,,,,,,,,,0,,,,,,,1,108082,pdf,3AAC31FE0F56EC5224DF886143374CFE,,,D:\\!Genesis\\!!ForLG\\2186873-[Судомеханик] Литература для судовых механиков - (часть 1)\\04-English&Guides\\01-Abbriviations_on_ships.pdf,0,2000-01-01 01:00:00,2016-04-03 02:51:08,223000/3aac31fe0f56ec5224df886143374cfe.jpg,,
21515533,Судовые холодильные установки и системы кондиционирования,,,,Лалаев,1981,,Транспорт,,125,0,Russian,238,torrents.ru tech collections 2009-11-14,,,,,,,,,,,,,0,,,,,,1,0,14553494,pdf,7284B0F2045AE5CCD3F667F38466CE66,,,D:\\!Genesis\\!!ForLG\\2186873-[Судомеханик] Литература для судовых механиков - (часть 1)\\03-Reefer_Engineer\\01-Lalayev_Holodilnie- Ustanovki.pdf,0,2000-01-01 01:00:00,2016-04-03 02:51:08,223000/7284b0f2045ae5ccd3f667f38466ce66.jpg,,
21515534,International encyclopaedia of social science- Cohabitation - Ethics in Experimentation,vol 2,,,Darity W.,,,Macmillan,,637,0,English,188,torrents.ru tech collections 2009-11-14,,,,,,,,,,,,,0,,,,,,,1,6302816,pdf,F104D7C8E77544D969F5147BB66B2070,,,D:\\!Genesis\\!!ForLG\\Encyclopedia\\International Encyclopedia of Social Sciences\\02 - Cohabitation - Ethics in Experimentation.pdf,0,2000-01-01 01:00:00,2016-04-03 02:51:08,223000/f104d7c8e77544d969f5147bb66b2070.jpg,,
21515535,Story of civilization. The Life of Greece,vol 2,,,Durant Will ,,,Simon & Shustler,,828,0,English,64,torrents.ru tech collections 2009-11-14,,,,,,,,,,,,,0,,,,,,,1,48629402,pdf,32AAF087FBA7C379FDF5EEDE5E12B310,,,D:\\!Genesis\\!!ForLG\\History\\Will Durant - Story of Civilization\\02. The Life of Greece.pdf,0,2000-01-01 01:00:00,2016-04-03 02:51:08,223000/32aaf087fba7c379fdf5eede5e12b310.jpg,,
21515536,Традиции внутренних школ УШУ,,,,Малявин,1993,,,,79,0,Russian,160,torrents.ru tech collections 2009-11-14,,,,,,,,,,,,,0,,,,,,,1,757686,pdf,99D58678698BA71C366E876F9902F9BB,,,D:\\!Genesis\\!!ForLG\\921601-Книги по Тайцзи и Цигун\\PDF\\02_Малявин_Традиции внутренних школ.pdf,0,2000-01-01 01:00:00,2016-04-03 02:51:08,223000/99d58678698ba71c366e876f9902f9bb.jpg,,
21515537,Marx: A Very Short Introduction,,,,Peter Singer,2001,,"Oxford University Press, USA",,120,0,English,183,torrents.ru tech collections 2009-11-14,,"0192854054,9780192854056",,,,,335.4/092,B3305.M74 S57 2000,,,OL3966403M,,0,,,,,,,1,2232399,pdf,A6D3297272E14F297DA9AA8F2464850D,,,D:\\!Genesis\\!!ForLG\\Oxford\\Oxford University - 124 Very Short Introductions\\028 Marx.pdf,0,2000-01-01 01:00:00,2016-04-03 02:51:08,223000/a6d3297272e14f297da9aa8f2464850d-d.jpg,,
21515538,Неисправности электрических машин,,,,Гемне,,,,,90,0,Russian,210,torrents.ru tech collections 2009-11-14,,,,,,,,,,,,нет 1-20 стр.,0,,,,,,1,0,40151114,pdf,A4FFBD2EF0091F422F98B4AA673C26E8,,,D:\\!Genesis\\!!ForLG\\2186873-[Судомеханик] Литература для судовых механиков - (часть 1)\\02-Electric Engineer\\02-Gemke-Neispr_El_machin.pdf,0,2000-01-01 01:00:00,2016-04-03 02:51:08,223000/a4ffbd2ef0091f422f98b4aa673c26e8.jpg,,
21515539,Course Refrigerating Engineering,,,,,,,ROVC,,482,0,English,210,torrents.ru tech collections 2009-11-14,,,,,,,,,,,,,0,,,,,,,0,23809224,pdf,6EF4F69433AA653C97134E08FFD16BAF,,,D:\\!Genesis\\!!ForLG\\2186873-[Судомеханик] Литература для судовых механиков - (часть 1)\\03-Reefer_Engineer\\02-Refrigerating Engineering.pdf,0,2000-01-01 01:00:00,2016-04-03 02:51:08,223000/6ef4f69433aa653c97134e08ffd16baf.jpg,,
21515540,Судовые двигатели внутреннего сгорания,,,,"Ржепецкий, Сударева",1984,,Судостроение,,86,0,Russian,248,torrents.ru tech collections 2009-11-14,,,,,,,,,,,,,0,,,,,,1,0,8888319,pdf,5DF70B92E4DB65D16D822A7B0976AFD1,,,D:\\!Genesis\\!!ForLG\\2186873-[Судомеханик] Литература для судовых механиков - (часть 1)\\01-Engineer\\02-Rzhpetskiy_SDVS.pdf,0,2000-01-01 01:00:00,2016-04-03 02:51:08,223000/5df70b92e4db65d16d822a7b0976afd1.jpg,,
21515541,"International encyclopaedia of social science - Ethnic Conflict - Inequality,Gender",vol 3,,,Darrity W,,2,Macmillan,,627,0,English,188,torrents.ru tech collections 2009-11-14,,,,,,,,,,,,,0,,,,,,,1,6046965,pdf,B8B39C302405CAC0194DF96B33345A02,,,"D:\\!Genesis\\!!ForLG\\Encyclopedia\\International Encyclopedia of Social Sciences\\03 - Ethnic Conflict - Inequality,Gender.pdf",0,2000-01-01 01:00:00,2016-04-03 02:51:08,223000/b8b39c302405cac0194df96b33345a02.jpg,,
21515542,Сложные колебания в простых системах,,,,Анищенко В.С.,,,,,313,0,Russian,272,torrents.ru tech collections 2009-11-14,,,,,,,,,,,,,0,,,,,,,0,16095504,pdf,9E72192A02D330B391151D33EEED8084,,,"D:\\!Genesis\\!!ForLG\\1624002-Хаос, солитоны, фракталы\\03 Анищенко В.С. Сложные колебания в простых системах.pdf",0,2000-01-01 01:00:00,2016-04-03 02:51:08,223000/9e72192a02d330b391151d33eeed8084.jpg,,
21515543,Транзисторы строчной развертки. Даташиты,,,,,,,,,,0,Russian,253,torrents.ru tech collections 2009-11-14,,,,,,,,,,,,,0,,,,,,,,13709020,rar,E681EE3D623D0318F6583C0366345BB0,,,D:\\!Genesis\\!!ForLG\\1506519-Электронные книги и справочники по ремонту отечественных и имп\\03 -Транзисторы строчной развертки.rar,0,2000-01-01 01:00:00,2016-04-03 02:51:08,223000/E681EE3D623D0318F6583C0366345BB0-g.jpg,,
21515544,Caesar and Christ: A History of Roman Civilization and of Christianity from Their Beginnings to A.D. 325 ,vol3 ,Story of Civilization,,Will Durant,1994,,MJF Books,,900,0,English,64,torrents.ru tech collections 2009-11-14,,"1567310141,9781567310146",,,,,909,CB53 .D85 1963,,,OL20684354M,,0,,,,0,0,,1,3287220,pdf,742DD5AFFBF3D9F7B290EBD7FED6DAAC,,,D:\\!Genesis\\!!ForLG\\History\\Will Durant - Story of Civilization\\03. Caesar and Christ.pdf,0,2000-01-01 01:00:00,2016-04-03 02:51:08,223000/742dd5affbf3d9f7b290ebd7fed6daac-d.gif,,
21515545,8 упражнений цигун,,,,Ван Лин ,2003,,Феникс,,129,0,Russian,160,torrents.ru tech collections 2009-11-14,,,,,,,,,,,,,0,,,,,,,0,6926888,pdf,3755C90F0BE8A0735B523EF8337BDEDA,,,D:\\!Genesis\\!!ForLG\\921601-Книги по Тайцзи и Цигун\\PDF\\03_Ван Лин 8 упражнений цигун.pdf,0,2000-01-01 01:00:00,2016-04-03 02:51:08,223000/3755c90f0be8a0735b523ef8337bdeda.jpg,,
21515546,Правила технической эксплуатации судовых паровых котлов,,,,,1962,,Морской транспорт,,89,0,Russian,210,torrents.ru tech collections 2009-11-14,,,,,,,,,,,,,0,,,,,,1,0,6943850,pdf,B43E9B899C77DA8AD63743BEA1FD2E49,,,D:\\!Genesis\\!!ForLG\\2186873-[Судомеханик] Литература для судовых механиков - (часть 1)\\01-Engineer\\03-Pravila_Tech_ekspl_kotlov.pdf,0,2000-01-01 01:00:00,2016-04-03 02:51:08,223000/b43e9b899c77da8ad63743bea1fd2e49.jpg,,
21515547,Краткий иллюстрированный русско-английский словарь по машиностроению. 2795 терминов,,,,Шварц,1980,,Русский язык,,221,0,Russian,210,torrents.ru tech collections 2009-11-14,,,,,,,,,,,,,0,,,,,,1,0,9200442,pdf,9C473DDE637BC92F9B58BEB31C78E94A,,,D:\\!Genesis\\!!ForLG\\2186873-[Судомеханик] Литература для судовых механиков - (часть 1)\\04-English&Guides\\03-Shvarts-Slovar_RE_tech_illustr.pdf,0,2000-01-01 01:00:00,2016-04-03 02:51:08,223000/9c473dde637bc92f9b58beb31c78e94a.jpg,,
21515548,"International encyclopaedia of social science - Inequality,Income - Marxism,Black",vol 4,,,,,2,Macmillan,,642,0,English,188,torrents.ru tech collections 2009-11-14,,,,,,,,,,,,,0,,,,,,,1,6367458,pdf,43E1CDCF97950F3F5C78859353A1947D,,,"D:\\!Genesis\\!!ForLG\\Encyclopedia\\International Encyclopedia of Social Sciences\\04 - Inequality,Income - Marxism,Black.pdf",0,2000-01-01 01:00:00,2016-04-03 02:51:08,223000/43e1cdcf97950f3f5c78859353a1947d.jpg,,
21515549,Опрокидывающиеся солитоны,,,,Богоявленский О.И.,1991,,Наука,,321,0,Russian,275,torrents.ru tech collections 2009-11-14,,,,,,,,,,,,,0,,,,,,,0,12693547,pdf,20D09D99E2D6F2664C501167126A29DD,,,"D:\\!Genesis\\!!ForLG\\1624002-Хаос, солитоны, фракталы\\04 Богоявленский О.И. Опрокидывающиеся солитоны.pdf",0,2000-01-01 01:00:00,2016-04-03 02:51:08,223000/20d09d99e2d6f2664c501167126a29dd.jpg,,
21515550,"The Age of Faith: A History of Medieval Civilization-Christian, Islamic, and Judaic-From Constantine to Dante : A.D. 325-1300 ",vol 4,"The Story of Civilization, 4 Vol 4",,Will Durant,1997,First Edition,MJF Books,,1527,0,English,64,torrents.ru tech collections 2009-11-14,,"156731015X,9781567310153",,,,,909,CB53 .D85 1963,,,OL20684354M,,0,,,,0,0,,1,5617587,pdf,C58A4407F63EB3F469D93D7D2664FB68,,,D:\\!Genesis\\!!ForLG\\History\\Will Durant - Story of Civilization\\04. The Age of Faith.pdf,0,2000-01-01 01:00:00,2016-04-03 02:51:08,223000/c58a4407f63eb3f469d93d7d2664fb68-d.jpg,,
21515551,Безопасность и надежность реакторных установок,,,,Солонин,,,МГТУ им Баумана,,59,0,Russian,223,torrents.ru tech collections 2009-11-14,0,,,,,,,,,,,,0,,,,,,,1,482126,pdf,77511E842998C5C601EBF1143B930875,,,"D:\\!Genesis\\!!ForLG\\1903296-Сборник литературы по атомной энергетики [PDF,DJVU,DOC]\\04_Солонин - Безопасность и надежность РУ.pdf",0,2000-01-01 01:00:00,2016-04-03 02:51:08,223000/77511e842998c5c601ebf1143b930875.jpg,,
21515552,Краткий справочник судового электромеханика,,,,"Сытов, Исупов",1968,,Транспорт,,145,0,Russian,250,torrents.ru tech collections 2009-11-14,,,,,,,,,,,,,0,,,,,,1,0,9948099,pdf,88424FE4427B2E163E923585E69A27E9,,,D:\\!Genesis\\!!ForLG\\2186873-[Судомеханик] Литература для судовых механиков - (часть 1)\\02-Electric Engineer\\04-Isupov-Krat_sprav_sud_el_mekh.pdf,0,2000-01-01 01:00:00,2016-04-03 02:51:08,223000/88424fe4427b2e163e923585e69a27e9.jpg,,
21515553,Судовые вспомогательные и утилизационные котлы,,,,Хряпченков,,,,,148,0,Russian,248,torrents.ru tech collections 2009-11-14,,,,,,,,,,,,,0,,,,,,1,0,14021874,pdf,5443D4F1D717C6E87F40742BDA49F7E9,,,D:\\!Genesis\\!!ForLG\\2186873-[Судомеханик] Литература для судовых механиков - (часть 1)\\01-Engineer\\04-Khryapchenkov_Sud_vspom_kotly.pdf,0,2000-01-01 01:00:00,2016-04-03 02:51:08,223000/5443d4f1d717c6e87f40742bda49f7e9.jpg,,
21515554,Учебник английского,,,,"Парахина, Чернухин",,,,,80,0,Russian,183,torrents.ru tech collections 2009-11-14,,,,,,,,,,,,нет 1-181 стр,0,,,,,,1,0,8324207,pdf,2769B6D6431900C8964E4375452167ED,,,D:\\!Genesis\\!!ForLG\\2186873-[Судомеханик] Литература для судовых механиков - (часть 1)\\04-English&Guides\\04-Parahina-Ucheb_English.pdf,0,2000-01-01 01:00:00,2016-04-03 02:51:08,223000/2769b6d6431900c8964e4375452167ed.jpg,,
21515555,Полугерметичные судовые компрессоры,,,,,,,,,32,0,Russian,232,torrents.ru tech collections 2009-11-14,0,,,,,,,,,,,,0,,,,,,,1,407734,pdf,02801213F0FE3FFA536B5D8AC8D554D3,,,D:/!Genesis/!!ForLG/2186873-[Судомеханик] Литература для судовых механиков - (часть 1)/03-Reefer_Engineer/04-Vint_Kompressor_Bitzer.pdf,0,2000-01-01 01:00:00,2016-04-03 02:51:08,223000/02801213f0fe3ffa536b5d8ac8d554d3.jpg,,
21515556,International encyclopaedia of social science - Masculinity - Nyerere,vol 5,,,Darrity W,,,,,556,0,English,188,torrents.ru tech collections 2009-11-14,,,,,,,,,,,,,0,,,,,,,1,5327483,pdf,F212A721A0C6AABAE68AF53155BC40BA,,,D:\\!Genesis\\!!ForLG\\Encyclopedia\\International Encyclopedia of Social Sciences\\05 - Masculinity - Nyerere.pdf,0,2000-01-01 01:00:00,2016-04-03 02:51:08,223000/f212a721a0c6aabae68af53155bc40ba.jpg,,
21515557,The Story of Civilization: The Renaissance ,vol 5,,,Will Durant,1992,,MJF Books,,864,0,English,64,torrents.ru tech collections 2009-11-14,,"1567310168,9781567310160",,,,,909,CB53 .D85 1963,,,OL20684354M,,0,,,,0,0,,1,3253867,pdf,F2018BF56CB8C5109EF5D888BBBA0212,,,D:\\!Genesis\\!!ForLG\\History\\Will Durant - Story of Civilization\\05. The Renaissance.pdf,0,2000-01-01 01:00:00,2016-04-03 02:51:08,223000/f2018bf56cb8c5109ef5d888bbba0212-d.jpg,,
21515558,Russian Literature: A Very Short Introduction ,,Very Short Introductions,,Catriona Kelly,2001,,"Oxford University Press, USA",,184,0,English,37,torrents.ru tech collections 2009-11-14,,"0192801449,9780192801449",,,,,891.709,PG2950 .K45 2001,,,OL3947995M,,0,,,,,,1,1,4567121,pdf,89CD80E8EF3AF9F4612FCF9A842F6D54,,,History - Russian Literature - A Very Short Introduction - (Catriona Kelly) Oxford University Press 2001(1).pdf,0,2000-01-01 01:00:00,2016-04-03 02:51:08,223000/89cd80e8ef3af9f4612fcf9a842f6d54-d.jpg,,
21515559,Russell. Very short Introduction,,Very Short Introductions,,A. C. Grayling,2002,,"Oxford University Press, USA",,164,0,English,183,torrents.ru tech collections 2009-11-14,,"9780192802583,0192802585",,,,,"192,B",B1649.R94 G743 2002,,,OL3658400M,,0,,,,,,,1,2318802,pdf,C6684A5EF1F033C907430A858271F86A,,,059. RUSSELL - A Very Short Introduction - Grayling.pdf,0,2000-01-01 01:00:00,2016-04-03 02:51:08,223000/c6684a5ef1f033c907430a858271f86a-d.jpg,,
21515560,Русско-английский словарь для судовых механиков,,,,Войтенко,1997,,Негоциант,,47,0,Russian,316,torrents.ru tech collections 2009-11-14,,,,,,,,,,,,,0,,,,,,,0,5100204,pdf,83D88FFCF2602E10D68A39A970D55E67,,,D:\\!Genesis\\!!ForLG\\2186873-[Судомеханик] Литература для судовых механиков - (часть 1)\\04-English&Guides\\05-Vojtenko-Slov_RE_for_Engineer.pdf,0,2000-01-01 01:00:00,2016-04-03 02:51:08,223000/83d88ffcf2602e10d68a39a970d55e67.jpg,,
21515561,Судовые двигатели и их эксплуатация,,,,"Возницкий, Михеев",1990,2,Транспорт,,181,0,Russian,210,torrents.ru tech collections 2009-11-14,,,,,,,,,,,,,0,,,,,,1,0,24427758,pdf,E3E15FBF1DDEB47C8D0B59A6ACCD3FF1,,,D:\\!Genesis\\!!ForLG\\2186873-[Судомеханик] Литература для судовых механиков - (часть 1)\\01-Engineer\\05-Voznitskiy-Sud_dvigateli.pdf,0,2000-01-01 01:00:00,2016-04-03 02:51:08,223000/e3e15fbf1ddeb47c8d0b59a6accd3ff1.jpg,,
21515562,Словарь-справочник по настройке судового электрооборудования,,,,Захаров,1987,,Судостроение,,111,0,Russian,250,torrents.ru tech collections 2009-11-14,,,,,,,,,,,,,0,,,,,,1,0,12556973,pdf,761205A7F67867B85D1570E062E97F50,,,D:\\!Genesis\\!!ForLG\\2186873-[Судомеханик] Литература для судовых механиков - (часть 1)\\02-Electric Engineer\\05-Zaharov-Slovar_spravochnik_po_nastr.pdf,0,2000-01-01 01:00:00,2016-04-03 02:51:08,223000/761205a7f67867b85d1570e062e97f50.jpg,,
21515563,"International encyclopaedia of social science - Oaxaca,Ronald - Quotas,Trade",,,,Darrity W,,2,,,674,0,English,188,torrents.ru tech collections 2009-11-14,,,,,,,,,,,,,0,,,,,,,1,7141857,pdf,1657BACDFC5C9332A4EF5CD4D76CAB02,,,"D:\\!Genesis\\!!ForLG\\Encyclopedia\\International Encyclopedia of Social Sciences\\06 - Oaxaca,Ronald - Quotas,Trade.pdf",0,2000-01-01 01:00:00,2016-04-03 02:51:08,223000/1657bacdfc5c9332a4ef5cd4d76cab02.jpg,,
21515564,The Reformation ,,The Story of Civilization,,Will Durant,1980,1St Edition,Simon & Schuster,,1233,0,English,64,torrents.ru tech collections 2009-11-14,,"0671610503,9780671610500",,B0006DADCG,,,,,,,OL7660268M,,0,,,,0,0,,1,4589679,pdf,3AC89BA05191720DD4BFBC9A06447DB6,,,D:\\!Genesis\\!!ForLG\\History\\Will Durant - Story of Civilization\\06. The Reformation.pdf,0,2000-01-01 01:00:00,2016-04-03 02:51:08,223000/3ac89ba05191720dd4bfbc9a06447db6-d.jpg,,
21515565,"Чай и его история, свойства и употребление",,,,Похлебкин ,,,,,121,0,Russian,64,torrents.ru tech collections 2009-11-14,,,,,,,,,,,,,0,,,,,,,1,1353706,pdf,FBFCFFC2562FD1701E098B4979369C4F,,,D:\\!Genesis\\!!ForLG\\921601-Книги по Тайцзи и Цигун\\PDF\\06_Похлебкин_Чай и его история.pdf,0,2000-01-01 01:00:00,2016-04-03 02:51:08,223000/fbfcffc2562fd1701e098b4979369c4f.jpg,,
21515566,Clausewitz. A Very Short Introduction,,Very Short Introductions,,Michael Howard,2002,1,"Oxford University Press, USA",,96,0,English,183,torrents.ru tech collections 2009-11-14,,"0192802577,9780192802576,0192876082,9780192876089,0192876074,9780192876072,9780191539176",,B001QCXW9M,,,355/.02/0924,"U21.2 .H657 1983,U21.2 H65",,,OL21434341M,,0,,,,0,0,,1,2313909,pdf,6F054E1310993220F2016DD82A7ACE1E,,,D:\\!Genesis\\!!ForLG\\Oxford\\Oxford University - 124 Very Short Introductions\\061 Clausewitz.pdf,0,2000-01-01 01:00:00,2016-04-03 02:51:08,223000/6f054e1310993220f2016dd82a7ace1e-d.jpg,,
21515567,The Russian Revolution. A Very Short Introduction,,Very Short Introductions,,S. A. Smith,2002,,"Oxford University Press, USA",,192,0,English,37,torrents.ru tech collections 2009-11-14,,"9780192853950,0192853953",,,,,947.084/1,DK265 .S5294 2002,,,OL3585818M,,0,,,,,,,0,10283085,pdf,A2C2D18E22A466FF3301DFC5987A7723,,,D:\\!Genesis\\!!ForLG\\Oxford\\Oxford University - 124 Very Short Introductions\\063 The Russian Revolution.pdf,0,2000-01-01 01:00:00,2016-04-03 02:51:08,223000/a2c2d18e22a466ff3301dfc5987a7723-d.jpg,,
21515568,Philosophy of Science: A Very Short Introduction,,,,Samir Okasha,2002,1st,"Oxford University Press, USA",,160,0,English,195,torrents.ru tech collections 2009-11-14,0,"0192802836,9780192802835",,,,,,,,,,,0,,,,,,,1,68923778,pdf,26DEF6CDD6F315B4F4EAA23D448DA894,,,D:/!Genesis/!!ForLG/Oxford/Oxford University - 124 Very Short Introductions/067 Philosophy of Science.pdf,0,2000-01-01 01:00:00,2016-04-03 02:51:08,223000/26def6cdd6f315b4f4eaa23d448da894-d.jpg,,
21515569,Справочник электромеханика по судовым электрическим машинам,,,,"Берков, Васильев и др",1979,,Маяк,,114,0,Russian,210,torrents.ru tech collections 2009-11-14,,,,,,,,,,,,,0,,,,,,1,0,9133190,pdf,62A05EF84AD9E68650FCF046F19D67B7,,,D:\\!Genesis\\!!ForLG\\2186873-[Судомеханик] Литература для судовых механиков - (часть 1)\\02-Electric Engineer\\06-Berkov-Spav_el_mekh_sud_el_machin.pdf,0,2000-01-01 01:00:00,2016-04-03 02:51:08,223000/62a05ef84ad9e68650fcf046f19d67b7.jpg,,
21515570,Обнаружение и устранение дефектов судовых двигателей,,,,Маренков,,,,,112,0,Russian,248,torrents.ru tech collections 2009-11-14,,,,,,,,,,,,,0,,,,,,1,0,13225909,pdf,047B9476BC9C10DCBF713EB08D5DBBD9,,,D:\\!Genesis\\!!ForLG\\2186873-[Судомеханик] Литература для судовых механиков - (часть 1)\\01-Engineer\\06-Marenkov_Obnar_defektov_sud_dvig.pdf,0,2000-01-01 01:00:00,2016-04-03 02:51:08,223000/047b9476bc9c10dcbf713eb08d5dbbd9.jpg,,
21515571,Maida Heatter's book of great chocolate desserts,,,,Maida Heatter,2006,1,Andrews McMeel Publishing,,312,0,English,,AvaxHome,0,"0740758160,9780740758164",,,,,,,,,,,0,,,,,,,,4041172,epub,95681fb392df0627b4e240a5c1f08a17,,,Maida Heatter__039;s book of great chocolate desserts,0,2000-01-01 01:00:00,2016-04-03 02:51:08,881000/95681fb392df0627b4e240a5c1f08a17-d.jpg,,
21515572,Англо-русский морской словарь. 50000 слов,,,,Фаворов,1973,,Советская Энциклопедия,,425,0,Russian,322,torrents.ru tech collections 2009-11-14,,,,,,,,,,,,,0,,,,,,1,0,48162722,pdf,6CF8E562E95BB3A19FA5F8D8510F447D,,,D:\\!Genesis\\!!ForLG\\2186873-[Судомеханик] Литература для судовых механиков - (часть 1)\\04-English&Guides\\06-Slov_ER_Tech_Mor.pdf,0,2000-01-01 01:00:00,2016-04-03 02:51:08,223000/6cf8e562e95bb3a19fa5f8d8510f447d.jpg,,
21515573,International Encyclopaedia of Social Science,Vol. 7,,,William A. Darity Jr.,2008,2nd,Macmillan Reference USA,,681,0,English,194,torrents.ru tech collections 2009-11-14,0,,,,,,,,,,,,0,,,,,,,1,6282347,pdf,24D4B15EBFA8FE9E2036009D1B5CEA0E,,,"D:/!Genesis/!!ForLG/Encyclopedia/International Encyclopedia of Social Sciences/07 - Rabin,Yitzhak - Sociology,Micro.pdf",0,2000-01-01 01:00:00,2016-04-03 02:51:08,223000/24d4b15ebfa8fe9e2036009d1b5cea0e.jpg,,
21515574,Стохастичность динамических систем,,,,Заславский Г.М,1984,,наука,,273,0,Russian,123,torrents.ru tech collections 2009-11-14,,,,,,,,,,,,,0,,,,,,,0,12956867,pdf,AA5049CC2C8484D4EDE6852F4E81B2FD,,,"D:\\!Genesis\\!!ForLG\\1624002-Хаос, солитоны, фракталы\\07 Заславский Г.М. Стохастичность динамических систем.pdf",0,2000-01-01 01:00:00,2016-04-03 02:51:08,223000/aa5049cc2c8484d4ede6852f4e81b2fd.jpg,,
21515575,Story of civilization. The Age of Reason Begins,,,,Will Durant,1997,,MJF Books,,857,0,English,64,torrents.ru tech collections 2009-11-14,,"1567310184,9781567310184",,,,,909,CB53 .D85 1963,,,OL20684354M,,0,,,,0,0,,1,3162985,pdf,AA17207A69D11CA3CA92D969B3807C14,,,D:\\!Genesis\\!!ForLG\\History\\Will Durant - Story of Civilization\\07. The Age of Reason Begins.pdf,0,2000-01-01 01:00:00,2016-04-03 02:51:08,223000/aa17207a69d11ca3ca92d969b3807c14-d.jpg,,
21515576,Справочник судового электромеханика и электрика,,,,Роджеро,1986,2,Транспорт,,317,0,Russian,250,torrents.ru tech collections 2009-11-14,,,,,,,,,,,,,0,,,,,,1,0,23210157,pdf,5C223F93D21B0BE984A3F89E6D8956ED,,,D:\\!Genesis\\!!ForLG\\2186873-[Судомеханик] Литература для судовых механиков - (часть 1)\\02-Electric Engineer\\07-Rodjero-Sprav_sud_el_mech_i_elec.pdf,0,2000-01-01 01:00:00,2016-04-03 02:51:08,223000/5c223f93d21b0be984a3f89e6d8956ed.jpg,,
21515577,Русско-английский морской технический словарь,,,,,,,,,299,0,Russian,210,torrents.ru tech collections 2009-11-14,,,,,,,,,,,,,0,,,,,,1,0,20169256,pdf,18ADAAA18DCCC87DF23E2D802E7E9F45,,,D:\\!Genesis\\!!ForLG\\2186873-[Судомеханик] Литература для судовых механиков - (часть 1)\\04-English&Guides\\07-Slov_RE_Mor.pdf,0,2000-01-01 01:00:00,2016-04-03 02:51:08,223000/18adaaa18dccc87df23e2d802e7e9f45.jpg,,
21515578,Справочник судового механика по рулевым приводам,,,,"Васильев, Горин, Мирошниченко",1982,,Маяк,,101,0,Russian,210,torrents.ru tech collections 2009-11-14,,,,,,,,,,,,,0,,,,,,1,0,7762561,pdf,00C0792D3716BE4F9F95C0FD79043F72,,,D:\\!Genesis\\!!ForLG\\2186873-[Судомеханик] Литература для судовых механиков - (часть 1)\\01-Engineer\\07-Vasilev-Spravochnik_rulevym_privodam.pdf,0,2000-01-01 01:00:00,2016-04-03 02:51:08,223000/00c0792d3716be4f9f95c0fd79043f72.jpg,,
21515579,"International encyclopaedia of social science - Sociology,Parsonian - Vulnerability",,,,David L. Sills,1972,Popular ed,Collier Macmillan Ltd,,658,0,English,194,torrents.ru tech collections 2009-11-14,,"9780029753507,0029753503",,,,,300.3,,,,OL22974861M,,0,,,,,,,1,6313359,pdf,BED8777D6FFA75AC760DE8F34173337E,,,"D:\\!Genesis\\!!ForLG\\Encyclopedia\\International Encyclopedia of Social Sciences\\08 - Sociology,Parsonian - Vulnerability.pdf",0,2000-01-01 01:00:00,2016-04-03 02:51:08,223000/bed8777d6ffa75ac760de8f34173337e.jpg,,
21515580,Слабый хаос и квазирегулярные структуры,,,,"Заславский Г.М., Сагдеев Р.З., Усиков Д.А., Черников А.А. ",,,,,236,0,Russian,275,torrents.ru tech collections 2009-11-14,,,,,,,,,,,,,0,,,,,,,0,9515935,pdf,0B5E6B5D77A1717189989E6099081D22,,,"D:\\!Genesis\\!!ForLG\\1624002-Хаос, солитоны, фракталы\\08 Заславский Г.М., Сагдеев Р.З., Усиков Д.А., Черников А.А. Слабый хаос и квазирегулярные структуры.pdf",0,2000-01-01 01:00:00,2016-04-03 02:51:08,223000/0b5e6b5d77a1717189989e6099081d22.jpg,,
21515581,The Age of Louis XIV ,,The Story of Civilization VIII,,"Will Durant, Ariel Durant",1980,FIRST EDITIION,Simon & Schuster,,948,0,English,64,torrents.ru tech collections 2009-11-14,,"0671012150,9780671012151",,B000JWBE9U,,,,,,,OL7644424M,,0,,,,0,0,,1,3487431,pdf,2610B578770BF84B050923CF4C84E777,,,D:\\!Genesis\\!!ForLG\\History\\Will Durant - Story of Civilization\\08. The Age of Louis XIV.pdf,0,2000-01-01 01:00:00,2016-04-03 02:51:08,223000/2610b578770bf84b050923cf4c84e777-d.jpg,,
21515582,"Словарь справочник для судовых механиков и мотористов, работающих под иностранным флагом",,,,"Артюшенко, Братко, Бойкова и др.",1997,,Драккар,,141,0,Russian,271,torrents.ru tech collections 2009-11-14,,,,,,,,,,,,,0,,,,,,1,0,6224875,pdf,3C2A6934C725B7D177D328647A04FC92,,,D:\\!Genesis\\!!ForLG\\2186873-[Судомеханик] Литература для судовых механиков - (часть 1)\\04-English&Guides\\08_Slov_sprav_forEng&Oilers.pdf,0,2000-01-01 01:00:00,2016-04-03 02:51:08,223000/3c2a6934c725b7d177d328647a04fc92.jpg,,
21515583,Modern Ireland. A Very Short Introduction,,Very Short Introductions,,Senia Paseta,2003,,"Oxford University Press, USA",,184,0,English,183,torrents.ru tech collections 2009-11-14,,"0192801678,9780192801678",,,,,941.508,DA950 .P37 2003,,,OL3579127M,,0,,,,,1,,1,2012942,pdf,AFDD172FBFC9047037CEC6FE82B653AB,,,Modern_Ireland_Very_Short_Introduction.pdf,0,2000-01-01 01:00:00,2016-04-03 02:51:08,223000/afdd172fbfc9047037cec6fe82b653ab-d.jpg,,
21515584,Cold War. A Very Short Introduction,,Very Short Introductions,,Robert J. McMahon,2003,,"Oxford University Press, USA",,201,0,English,183,torrents.ru tech collections 2009-11-14,,"9780192801784,0192801783",,,,,909.82/5,D843 .M337 2003,,,OL3682279M,,0,,,,,,,1,3369201,pdf,A296C482A66A7641E82E2CBE50746BF8,,,The Cold War_A Very Short Introduction_2003.pdf,0,2000-01-01 01:00:00,2016-04-03 02:51:08,223000/a296c482a66a7641e82e2cbe50746bf8-d.jpg,,
21515585,Краткий справочник судового механика,,,,"Малиновский, Фока и др.",,,,,85,0,Russian,271,torrents.ru tech collections 2009-11-14,,,,,,,,,,,,,0,,,,,,1,0,5704925,pdf,14E2D9DAFD9E3B33169F36C1BF4AE64E,,,D:\\!Genesis\\!!ForLG\\2186873-[Судомеханик] Литература для судовых механиков - (часть 1)\\01-Engineer\\08-Kratkiy_Sprav_sud_melh.pdf,0,2000-01-01 01:00:00,2016-04-03 02:51:08,223000/14e2d9dafd9e3b33169f36c1bf4ae64e.jpg,,
21515586,Судовые электрические приборы управления,,,,Токарев,1988,,Транспорт,,106,0,Russian,6,torrents.ru tech collections 2009-11-14,,,,,,,,,,,,,0,,,,,,1,0,13160556,pdf,BC4A969979F82448A2A1B4D3A3FBC07F,,,D:\\!Genesis\\!!ForLG\\2186873-[Судомеханик] Литература для судовых механиков - (часть 1)\\02-Electric Engineer\\08-Tokarev-Sud_El_pribory_uprav.pdf,0,2000-01-01 01:00:00,2016-04-03 02:51:08,223000/bc4a969979f82448a2a1b4d3a3fbc07f.jpg,,
21515587,International encyclopaedia of social science - Wage&Price Control - Z-Test Index,,,,Darrity W,,,macmillan,,530,0,English,188,torrents.ru tech collections 2009-11-14,,,,,,,,,,,,,0,,,,,,,1,4649563,pdf,D3E982CE3B432E5FA232FB054CC0F961,,,D:\\!Genesis\\!!ForLG\\Encyclopedia\\International Encyclopedia of Social Sciences\\09 - Wage&Price Control - Z-Test Index.pdf,0,2000-01-01 01:00:00,2016-04-03 02:51:08,223000/d3e982ce3b432e5fa232fb054cc0f961.jpg,,
21515588,Введение в нелинейную физику,,,,"Заславский Г.М., Сагдеев Р.З.",1988,,Наука,,372,0,Russian,264,torrents.ru tech collections 2009-11-14,,,,,,,,,,,,,0,,,,,,,0,41852401,pdf,E358BC221CC1D98BA849D15EC797B6A1,,,"D:\\!Genesis\\!!ForLG\\1624002-Хаос, солитоны, фракталы\\09 Заславский Г.М., Сагдеев Р.З. Введение в нелинейную физику.pdf",0,2000-01-01 01:00:00,2016-04-03 02:51:08,223000/e358bc221cc1d98ba849d15ec797b6a1.jpg,,
21515589,"The Age of Voltaire: A History of Civilization in Western Europe from 1715 to 1756, with Special Emphasis on the Conflict between Religion and Philosophy ",,The Story of Civilization IX,,"Will Durant, Ariel Durant",1980,First Edition,Simon & Schuster,,1058,0,English,64,torrents.ru tech collections 2009-11-14,,"0671013254,9780671013257",,B0025QKZFC,,,,,,,OL7644426M,,0,,,,0,0,,1,3885790,pdf,DED8DC6731203012EBD226DC94CA6F55,,,D:\\!Genesis\\!!ForLG\\History\\Will Durant - Story of Civilization\\09. The Age of Voltaire.pdf,0,2000-01-01 01:00:00,2016-04-03 02:51:08,223000/ded8dc6731203012ebd226dc94ca6f55-d.jpg,,
21515590,Английский язык. Учебное пособие для инжинеров-судомехаников,,,,Пивненко,1986,,ВШ,,100,0,Russian,183,torrents.ru tech collections 2009-11-14,,,,,,,,,,,,,0,,,,,,,0,21667590,pdf,6F2963BD28EA2AB17EAE7A5D194DB832,,,D:\\!Genesis\\!!ForLG\\2186873-[Судомеханик] Литература для судовых механиков - (часть 1)\\04-English&Guides\\09_Pivnenko-English_For_Engineers.pdf,0,2000-01-01 01:00:00,2016-04-03 02:51:08,223000/6f2963bd28ea2ab17eae7a5d194db832.jpg,,
21515591,Дао Медитации,,,,Чжоу Цзунхуа ,1999,,София,,178,0,Russian,160,torrents.ru tech collections 2009-11-14,,,,,,,,,,,,,0,,,,,,,0,1491570,djvu,22E68E72927797EBFD4F2E3E9F52AF8B,193814a40cb485fb84b136129fe4f401,no,D:\\!Genesis\\!!ForLG\\921601-Книги по Тайцзи и Цигун\\DJVU\\09_Чжоу_Цзунхуа_Дао Медитации.djvu,0,2000-01-01 01:00:00,2016-04-03 02:51:08,223000/22e68e72927797ebfd4f2e3e9f52af8b.jpg,,
21515592,Engels. A Very Short Introduction,,Very Short Introductions,,Terrell Carver,2003,First Paper,"Oxford University Press, USA",,129,0,English,183,torrents.ru tech collections 2009-11-14,,"0192804669,9780192804662",,,,,,,,,OL7383360M,,0,,,,,1,,1,1822482,pdf,504C06801AAB0A5A10EEC50D62A3773F,,,D:\\!Genesis\\!!ForLG\\Oxford\\Oxford University - 124 Very Short Introductions\\091 Engels.pdf,0,2000-01-01 01:00:00,2016-04-03 02:51:08,223000/504c06801aab0a5a10eec50d62a3773f-d.jpg,,
21515593,Справочник судовой механики в 2-х тт,том 1,,,Грицай,1973,,Транспорт,,356,0,Russian,271,torrents.ru tech collections 2009-11-14,,,,,,,,,,,,,0,,,,,,1,0,32915102,pdf,ED73A04A40BB36257D4B9290A7592CB6,,,D:\\!Genesis\\!!ForLG\\2186873-[Судомеханик] Литература для судовых механиков - (часть 1)\\01-Engineer\\09-Gricay-Spravochnik_tom1.pdf,0,2000-01-01 01:00:00,2016-04-03 02:51:08,223000/ed73a04a40bb36257d4b9290a7592cb6.jpg,,
21515594,Множества и отношения,,,,,,,,,74,0,Russian,113,torrents.ru tech collections 2009-11-14,,,,,,,,,,,,,0,,,,,,,1,580708,pdf,598F9CB3CCF94536691DF0C7CB30E4E2,,,D:\\!Genesis\\!!ForLG\\1735447-Личный сборник книг по математке\\дискретная математика\\1 Множества и отношения.PDF,0,2000-01-01 01:00:00,2016-04-03 02:51:08,223000/598f9cb3ccf94536691df0c7cb30e4e2.jpg,,
21515595,On The Origin of Species,,,,Charles Darwin,2009,,Public Domain Books,,516,0,English,201,torrents.ru tech collections 2009-11-14,,,,B002RKSV2U,,,,,,,,,0,,,,,,,1,22917662,pdf,9B998CC15FE8472DC08E3B5A9FCEBF63,,,D:\\!Genesis\\!!ForLG\\25 Greatest Science Books of All Time\\1. Charles Darwin - On The Origin of Species (1859).pdf,0,2000-01-01 01:00:00,2016-04-03 02:51:08,223000/9b998cc15fe8472dc08e3b5a9fcebf63.jpg,,
21515596,The Origin of Species (1859),,,,Charles Darwin,1992,,Pickering & Chatto (Publishers) Ltd,,422,0,English,201,torrents.ru tech collections 2009-11-14,,1851963057,,,,,575,QH366.2,,,OL21944132M,,0,,,,,,,1,2173224,pdf,5E38DC35F6107930D2BBAE9497E655A3,,,Biology - Darwin - Origin Of The Species.pdf,0,2000-01-01 01:00:00,2016-04-03 02:51:08,223000/5e38dc35f6107930d2bbae9497e655a3.jpg,,
21515597,Arbeitsmarktintegration : Grundsicherung - Fallmanagement - Zeitarbeit - Arbeitsvermittlung,,,,Franz Egle,2008,"2., überarb. und erw. Aufl",Gabler,Wiesbaden,520,0,German,,usenet,to 2012-06,"9783834906779,3834906778",,,,,,,,,,,0,,,,,,,1,6775151,pdf,e969b0e9a29f6c6963d1bdd2d2198756,,,I:\\usenet_ger\\Arbeitsmarktintegration.[Springer].[2008].[p4j2t3].pdf,0,2000-01-01 01:00:00,2016-04-03 02:51:08,882000/e969b0e9a29f6c6963d1bdd2d2198756-d.jpg,,
21515598,The Interpretation of Dreams,,,,Sigmund Freud,1900,,,,328,0,English,198,torrents.ru tech collections 2009-11-14,,,,,,,,,,,,,0,,,,,,,1,1041687,pdf,3BF2B6E41E2FF8794584AAC5D81E2EAA,,,D:\\!Genesis\\!!ForLG\\25 Greatest Science Books of All Time\\Honorable Mentions\\1. Sigmund Freud - The Interpretation of Dreams (1900).pdf,0,2000-01-01 01:00:00,2016-04-03 02:51:08,223000/3bf2b6e41e2ff8794584aac5d81e2eaa.jpg,,
21515599,Справочник по надежности,том 1,,,"Грант-Иресон В., Левин Б. (пер)",1969,,Мир,,338,0,Russian,,torrents.ru tech collections 2009-11-14,,,,,,,,,,,,,0,,,,,,,0,5656863,djvu,619EB87E44CF882D6F5A62F32B9E2925,e122f69ac8f52fd2bf8c2f144aab6385,no,D:\\!Genesis\\!!ForLG\\1823766-Подборка книг по Теории надежности машин\\1.djvu,0,2000-01-01 01:00:00,2016-04-03 02:51:08,223000/619eb87e44cf882d6f5a62f32b9e2925.jpg,,
21515600,USMLE 1. lecture notes. Kaplan Anatomy (2006-2007),,,,,2007,,Kaplan,,501,0,English,147,torrents.ru tech collections 2009-11-14,,,,,,,,,,,,,0,,,,,,1,0,510161777,pdf,9AC08CB183F306A172C4D1C1776089CF,,,D:\\!Genesis\\!!ForLG\\853229-Лекции к экзамену USMLE  Kaplan Medical USMLE Step 1 2004-2006\\1.Kaplan Anatomy (2006-2007).pdf,0,2000-01-01 01:00:00,2016-04-03 02:51:08,223000/9ac08cb183f306a172c4d1c1776089cf.jpg,,
21515601,10 Wooden Boats You Can Build,,The Woodenboat Series,,Peter H. Spectre,1995,,Wooden Boat Publications,,191,0,English,248,torrents.ru tech collections 2009-11-14,0,"9780937822340,0937822345",,,,,623.8/207,VM321 .A132 1995,,,OL803413M,,0,,,,,,,0,287573012,pdf,9E7B996C00B628F421E43D5818014C58,4cfc5a31d8a5ee6213038cfcf75d8ea8,no,D:\\!Genesis\\!!ForLG\\2157878-Boat Builders E-Book Collection v2.0\\10 Wooden Boats You Can Build.pdf,0,2000-01-01 01:00:00,2016-04-03 02:51:08,223000/9e7b996c00b628f421e43d5818014c58-d.jpg,,
21515602,Симметрии топология и резонансы в гамильтоновой механике,,,,Козлов В.В.,1995,,,,430,0,Russian,121,torrents.ru tech collections 2009-11-14,,,,,,,,,,,,,0,,,,,,,0,20638265,pdf,31F02C21E6FB6A68C979841B6FBF71AD,,,"D:\\!Genesis\\!!ForLG\\1624002-Хаос, солитоны, фракталы\\10 Козлов В.В. Симметрии топология и резонансы в гамильтоновой механике.pdf",0,2000-01-01 01:00:00,2016-04-03 02:51:08,223000/31f02c21e6fb6a68c979841b6fbf71ad.jpg,,
21515603,One Two Three... Infinty. Facts & speculations in science,,,,George Gamow ,1988,,,,361,0,English,,torrents.ru tech collections 2009-11-14,,,,,,,,,,,,,0,,,,,,,0,15025013,pdf,252304D40D956B92F17B7DC2D3A52B22,,,D:\\!Genesis\\!!ForLG\\25 Greatest Science Books of All Time\\10. George Gamow - One Two Three... Infinty (1947)(1988).pdf,0,2000-01-01 01:00:00,2016-04-03 02:51:08,223000/252304d40d956b92f17b7dc2d3a52b22.jpg,,
21515604,STORY OF CIVILIZATION 10. Rousseau and Revolution,Volume 10,,,Will and Ariel Durant,1967,,The Easton Press,,1469,0,English,64,torrents.ru tech collections 2009-11-14,,"067163058X,9780671630584",,B000DZC21W,,,,,,,OL7660630M,,0,,,,,,,1,5386374,pdf,032933E2ECAE128D9EF771C6B1233BD2,,,D:\\!Genesis\\!!ForLG\\History\\Will Durant - Story of Civilization\\10. Rousseau and Revolution.pdf,0,2000-01-01 01:00:00,2016-04-03 02:51:08,223000/032933e2ecae128d9ef771c6b1233bd2.jpg,,
21515605,Электротехнологические установки,,,,А.Д. Свенчанский,1982,,Энергоиздат,,400,0,Russian,261,torrents.ru tech collections 2009-11-14,,,,,,,,,,,,,0,,,,,,1,0,18999929,pdf,23878E3A28A3FBC266A0B586AFCE4805,,,"D:\\!Genesis\\!!ForLG\\2246000-Коллекция книг по электроснабжению, сетям и подстанциям\\10. А.Д. Свенчанский - Электротехнологические установки.pdf",0,2000-01-01 01:00:00,2016-04-03 02:51:08,223000/23878e3a28a3fbc266a0b586afce4805.jpg,,
21515606,Алхимия Пьяных Бессмертных. 8 последовательностей Люй Дунбиня,,,,Люй Дунбинь,2004,,,,40,0,Russian,160,torrents.ru tech collections 2009-11-14,,,,,,,,,,,,,0,,,,,,,1,924957,pdf,F2E4FDD483CA7E992B34F413D3581EC3,,,D:\\!Genesis\\!!ForLG\\921601-Книги по Тайцзи и Цигун\\PDF\\10_Алхимия Пьяных Бессмертных.pdf,0,2000-01-01 01:00:00,2016-04-03 02:51:08,223000/f2e4fdd483ca7e992b34f413d3581ec3.jpg,,
21515607,100 Boat Designs Reviewed,,Woodenboat,,Peter H. Spectre,1997,,Wooden Boat Publications,,274,0,English,248,torrents.ru tech collections 2009-11-14,,"0937822442,9780937822449",,,,,,,,,OL8415719M,,0,,,,,1,,1,23351754,pdf,81808AF624B27EB52EA3952CDB5A33DC,,,D:\\!Genesis\\!!ForLG\\2157878-Boat Builders E-Book Collection v2.0\\100 Boat Designs Reviewed.pdf,0,2000-01-01 01:00:00,2016-04-03 02:51:08,223000/81808af624b27eb52ea3952cdb5a33dc-d.jpg,,
21515608,100 EKG Problems,,,,"David Adlam, John R. Hampton DM  MA  DPhil  FRCP  FFPM  FESC, Jo Hampton",1997,1st,Churchill Livingstone,,205,0,English,159,torrents.ru tech collections 2009-11-14,,"9780443056789,0443056781",,,,,616.1/207547/076,RC683.5.E5 H296 1997,,,OL661749M,,0,,,,,,,,49108165,rar,98550BB1F350A6EC09187AF3FB9FF953,,,D:\\!Genesis\\!!ForLG\\1808490-Подборка материалов по Электрокардиографии\\100 EKG Problems (John R. Hampton).rar,0,2000-01-01 01:00:00,2016-04-03 02:51:08,223000/98550bb1f350a6ec09187af3fb9ff953-d.jpg,,
21515609,Сверхзвуковая аэродинамика. Принципы и приложения,,,,Т.Карман,1948,,ИЛ,,103,0,Russian,264,torrents.ru tech collections 2009-11-14,,,,,,,,,,,,,0,,,,,,,0,4534445,pdf,15625B8D886A86D60B2B8E6FE18AA0F0,,,"D:\\!Genesis\\!!ForLG\\513911-РХД (RCD) - CD Гидроаэромеханика, Электронная библиотека РХД\\100 Т.Карман. Сверхзвуковая аэродинамика. Принципы и приложения. 100 стр. М.- Иностранная литература, 1948.pdf",0,2000-01-01 01:00:00,2016-04-03 02:51:08,223000/15625b8d886a86d60b2b8e6fe18aa0f0.jpg,,
21515610,100+3. Сборник шахматных-задач-миниатюр чувашсаких авторов,,,,"Соловьев, Сучков",1989,,,,38,0,Russian,113,torrents.ru tech collections 2009-11-14,,,,,,,,,,,,,0,,,,,,,1,2763552,pdf,4C6B515EB294498D9FF586F3E4051CFD,,,"D:\\!Genesis\\!!ForLG\\873138-Шахматы Большая Подборка шахматной литературы\\FOREIGN\\RUSSIAN\\100+3 Chess Problems [Solovev & Suchkov, 1989 - Russian].pdf",0,2000-01-01 01:00:00,2016-04-03 02:51:08,223000/4c6b515eb294498d9ff586f3e4051cfd.jpg,,
21515611,1000 PhotoShop Tricks,,,,,,,,,326,0,English,59,torrents.ru tech collections 2009-11-14,,,,,,,,,,,,,0,,,,,,1,1,34407604,pdf,8FF63BA218BB9799EB239B3AD118E9BD,,,D:\\!Genesis\\!!ForLG\\-=  UNSORTED BOOKS  =-\\Non-Fiction\\Photography\\Photo stuff\\1000 PhotoShop Tricks.pdf,0,2000-01-01 01:00:00,2016-04-03 02:51:08,223000/8ff63ba218bb9799eb239b3ad118e9bd.jpg,,
21515612,1001 секрет телемастера,,,,Рязанов М.,,2,НИТ,,280,0,Russian,239,torrents.ru tech collections 2009-11-14,,,,,,,,,,,,,0,,,,,,,0,10668091,djvu,DB357F2231F23B1CE0DD17C199110EC3,f3a2460ac6871cb9bffeffdcced5a564,no,D:\\!Genesis\\!!ForLG\\Remont\\1001 секрет телемастера.djvu,0,2000-01-01 01:00:00,2016-04-03 02:51:08,223000/db357f2231f23b1ce0dd17c199110ec3.jpg,,
21515613,1001 секрет телемастера,кн. 2,,,Рязанов М.,,2,НИТ,,215,0,Russian,239,torrents.ru tech collections 2009-11-14,,,,,,,,,,,,,0,,,,,,,0,6522167,djvu,346D38DD655BBF92947A8F1ED6152119,ccf7162ef7252f4435697e42bf39f141,no,D:\\!Genesis\\!!ForLG\\Remont\\1001 секрет_2 телемастера.djvu,0,2000-01-01 01:00:00,2016-04-03 02:51:08,223000/346d38dd655bbf92947a8f1ed6152119.jpg,,
21515614,101 Outer Space Projects for the Evil Genius,,,,DAVE PROCHNOW,2007,,MGH,,321,0,English,212,torrents.ru tech collections 2009-11-14,,"0071485481,9780071485487",,,,,,,10.1036/0071485481,,OL7301895M,,0,,,,,,,1,91619686,pdf,1C94646AD6414A720949902016168658,,,"D:\\!Genesis\\!!ForLG\\Home Repair, How-To &  Do-It-Yourself\\Evil Genius Books\\101 Outer Space Projects for the Evil Genius.pdf",0,2000-01-01 01:00:00,2016-04-03 02:51:08,223000/1c94646ad6414a720949902016168658.jpg,,
21515615,103 Topics in Current Chemistry. Preparative Organic Photochemistry,,,,"R Margaretha , J.-M. Lehn ",1982,,Springer,,,0,English,300,torrents.ru tech collections 2009-11-14,,,,,,,,,,,,,0,,,,,,,,3257733,rar,BCF9C6A0D91E1D975431BFF441496A41,,,D:\\!Genesis\\!!ForLG\\2088735-Фотохимия\\103.Preparative Organic Photochemistry.rar,0,2000-01-01 01:00:00,2016-04-03 02:51:08,223000/BCF9C6A0D91E1D975431BFF441496A41-g.jpg,,
21515616,Dada and Surrealism. A Very Short Introduction,,,,David Hopkins,,,OUP,,206,0,English,183,torrents.ru tech collections 2009-11-14,,,,,,,,,,,,,0,,,,,,,1,2722842,pdf,919A3714CFC36F435A7BE03010D3CBFE,,,D:\\!Genesis\\!!ForLG\\Oxford\\Oxford University - 124 Very Short Introductions\\105 Dada and Surrealism.pdf,0,2000-01-01 01:00:00,2016-04-03 02:51:08,223000/919a3714cfc36f435a7be03010d3cbfe.jpg,,
21515617,Christian Art.. A Very Short Introduction,,,,Beth Williamson,2004,,Oxford University Press,,145,0,English,183,torrents.ru tech collections 2009-11-14,,"019280328X,9780192803283",,B000SIZN9C,,,,,,,OL7383299M,,0,,,,,,,1,4540467,pdf,590E8FCE0057E1A22FE8CDEBE0A46C44,,,Christian Art - A Very Short Introduction (Oxford).pdf,0,2000-01-01 01:00:00,2016-04-03 02:51:08,223000/590e8fce0057e1a22fe8cdebe0a46c44.jpg,,
21515618,Справочник судового механика,том 2,,,Грицай,1974,,Транспорт,,341,0,Russian,271,torrents.ru tech collections 2009-11-14,,,,,,,,,,,,,0,,,,,,1,0,35272960,pdf,F06C5D2BBA6EE022E18FF87397B41DA3,,,D:\\!Genesis\\!!ForLG\\2186873-[Судомеханик] Литература для судовых механиков - (часть 1)\\01-Engineer\\10-Gricay-Spravochnik_tom2.pdf,0,2000-01-01 01:00:00,2016-04-03 02:51:08,223000/f06c5d2bba6ee022e18ff87397b41da3.jpg,,
21515619,Understanding Filipino Seaman,,,,,1991,,Our Lady of Manaoag Publishers,,21,0,English,248,torrents.ru tech collections 2009-11-14,,"9789712600043,9712600041",,,,,,,,,OL13156835M,,0,,,,,,,1,463994,pdf,0CAA67A6D0C87CC5F772A9E9778E1F34,,,D:\\!Genesis\\!!ForLG\\2186873-[Судомеханик] Литература для судовых механиков - (часть 1)\\04-English&Guides\\10-Understanding Filipino Seaman.pdf,0,2000-01-01 01:00:00,2016-04-03 02:51:08,223000/0caa67a6d0c87cc5f772a9e9778e1f34-d.jpg,,
21515620,Математические аспекты классической и небесной механики,,Итоги науки и техники,,"Арнольд В.И., Козлов В.В., Нейштадт А.И. ",1985,,ВНИИТИ,,306,0,Russian,137,torrents.ru tech collections 2009-11-14,,,,,,,,,,,,,0,,,,,,,0,14224595,pdf,B857EBA8173EE280E30A1C9EF997C2D1,,,"D:\\!Genesis\\!!ForLG\\1624002-Хаос, солитоны, фракталы\\11 Арнольд В.И., Козлов В.В., Нейштадт А.И. Математические аспекты классической и небесной механики.pdf",0,2000-01-01 01:00:00,2016-04-03 02:51:08,223000/b857eba8173ee280e30a1c9ef997c2d1.jpg,,
21515621,The Double Helix,,,,James D. Watson,2001,1st,Touchstone,,81,0,English,12,torrents.ru tech collections 2009-11-14,,"074321630X,9780743216302",,,,,,,,,OL18290353M,,0,,,,,1,,1,653872,pdf,937AED82CA24FC871B70DB18FD2DE4B0,,,D:\\!Genesis\\!!ForLG\\25 Greatest Science Books of All Time\\11. James D. Watson - The Double Helix (1968).pdf,0,2000-01-01 01:00:00,2016-04-03 02:51:08,223000/937aed82ca24fc871b70db18fd2de4b0-d.jpg,,
21515622,STORY OF CIVILIZATION 11. The Age of Napoleon,vol 11,,,"Durant, Will & Ariel ",1975,,World Library,,1115,0,English,64,torrents.ru tech collections 2009-11-14,,"1567310222,9781567310221",,,,,909,CB53 .D85 1963,,,OL20684354M,,0,,,,,,,1,4133900,pdf,5E028CE37803AD9F2566FB882E860F05,,,D:\\!Genesis\\!!ForLG\\History\\Will Durant - Story of Civilization\\11. The Age of Napoleon.pdf,0,2000-01-01 01:00:00,2016-04-03 02:51:08,223000/5e028ce37803ad9f2566fb882e860f05.jpg,,
21515623,Справочник мастера,,,,Плетнев Д,2005,,ОАО МГЭСК,,110,0,Russian,,torrents.ru tech collections 2009-11-14,,,,,,,,,,,,,0,,,,,,,0,13584169,pdf,6698427D89104B2A4D6EE245D37A10F4,,,"D:\\!Genesis\\!!ForLG\\2246000-Коллекция книг по электроснабжению, сетям и подстанциям\\11. Справочник мастера ОАО МГЭСК.pdf",0,2000-01-01 01:00:00,2016-04-03 02:51:08,223000/6698427d89104b2a4d6ee245d37a10f4.jpg,,
21515624,Hieroglyphs. A Very Short Introduction,,Very Short Introductions,,Penelope Wilson,2005,,"Oxford University Press, USA",,144,0,English,183,torrents.ru tech collections 2009-11-14,,"0192805029,9780192805027,9781435605497",,,,,,,,,OL7383376M,,0,,,,,1,,1,3722060,pdf,B9B722E412A89A119525867F10F2E63E,,,History - Hieroglyphs - A Very Short Introduction - (Penelope Wilson) Oxford University Press 2003.pdf,0,2000-01-01 01:00:00,2016-04-03 02:51:08,223000/b9b722e412a89a119525867f10f2e63e-d.jpg,,
21515625,Ancient Egypt. A Very Short Introduction,,,,Ian Shaw,,,OUP,,209,0,English,64,torrents.ru tech collections 2009-11-14,,,,,,,,,,,,,0,,,,,,1,1,3869759,pdf,B94069EE653C728062F570B6DA445CB9,,,D:\\!Genesis\\!!ForLG\\Oxford\\Oxford University - 124 Very Short Introductions\\113 Ancient Egypt.pdf,0,2000-01-01 01:00:00,2016-04-03 02:51:08,223000/b94069ee653c728062f570b6da445cb9.jpg,,
21515626,Medical Ethics. A Very Short Introduction,,Very Short Introductions,,Tony Hope,2004,1st,"Oxford University Press, USA",,168,0,English,147,torrents.ru tech collections 2009-11-14,,"9780192802828,0192802828",,,,,,,,,OL17141348M,,0,,,,,,,1,3264908,pdf,A2D81B7201195586F6F8DFDCA0D9AF27,,,D:\\!Genesis\\!!ForLG\\Oxford\\Oxford University - 124 Very Short Introductions\\114 Medical Ethics.pdf,0,2000-01-01 01:00:00,2016-04-03 02:51:08,223000/a2d81b7201195586f6f8dfdca0d9af27-d.jpg,,
21515627,Kafka. A Very Short Introduction,,,,Ritchie Robertson,,,OUP,,150,0,English,183,torrents.ru tech collections 2009-11-14,,,,,,,,,,,,,0,,,,,,,1,2410407,pdf,B6761B15C513E2AE570D2F894605D3ED,,,History - Kafka - A Very Short Introduction - (Ritchie Robertson) Oxford University Press 2004.pdf,0,2000-01-01 01:00:00,2016-04-03 02:51:08,223000/b6761b15c513e2ae570d2f894605d3ed.jpg,,
21515628,Christianity.. A Very Short Introduction,,A Very Short Introduction 119,,Linda Woodhead,2005,,"Oxford University Press, USA",,182,0,English,183,torrents.ru tech collections 2009-11-14,,"0192803220,9780192803221",,,,,,,,,OL7383297M,,0,,,,,,,1,4256724,pdf,19F367DAC5890CBB13FB6CFD243B46E2,,,Christianity A Very Short Introduction.pdf,0,2000-01-01 01:00:00,2016-04-03 02:51:08,223000/19f367dac5890cbb13fb6cfd243b46e2.jpg,,
21515629,Силовые дизели,,,,"Годин, Квалкин, Богданов",,,Транспорт,,429,0,Russian,248,torrents.ru tech collections 2009-11-14,,,,,,,,,,,,,0,,,,,,1,0,33721287,pdf,B7233D14D1A33291F592B154C4599143,,,D:\\!Genesis\\!!ForLG\\2186873-[Судомеханик] Литература для судовых механиков - (часть 1)\\01-Engineer\\11-Gogin_Sudovye_diseli.pdf,0,2000-01-01 01:00:00,2016-04-03 02:51:08,223000/b7233d14d1a33291f592b154c4599143.jpg,,
21515630,Справочник по физике и технике,,,,Енохович А.С.,1983,2-е,Просвещение,,255,0,Russian,264,torrents.ru tech collections 2009-11-14,0,,,,,,,,,,,,0,,,,,1,1,0,9465700,pdf,2D2FC12377D84AEC94B6D0F75C932A72,,,D:/!Genesis/!!ForLG/2186873-[Судомеханик] Литература для судовых механиков - (часть 1)/04-English&Guides/11-Sprav_po_physics_technics.pdf,0,2000-01-01 01:00:00,2016-04-03 02:51:08,223000/2d2fc12377d84aec94b6d0f75c932a72.jpg,,
21515631,What is Life,,,,"Erwin Schrodinger, Roger Penrose",1992,,Cambridge University Press,,31,0,English,264,torrents.ru tech collections 2009-11-14,,"9780521427081,0521427088",,,,,574/.01,QH331 .S357 1992,,,OL1548875M,,0,,,,,,,1,284104,pdf,B162DEF3AC805A2AEDC3DCAC4445A91E,,,D:\\!Genesis\\!!ForLG\\25 Greatest Science Books of All Time\\12. Erwin Schrodinger - What is Life (1944).pdf,0,2000-01-01 01:00:00,2016-04-03 02:51:08,223000/b162def3ac805a2aedc3dcac4445a91e-d.jpg,,
21515632,Справочник по наладке электрооборудования промышленных предприятий,,,,М.Г. Зименков,1983,3,Энергоатомиздат,,480,0,Russian,210,torrents.ru tech collections 2009-11-14,,,,,,,,,,,,,0,,,,,,1,0,38427800,pdf,ADEE5C55F9B44EAA9235B218D4172FF3,,,"D:\\!Genesis\\!!ForLG\\2246000-Коллекция книг по электроснабжению, сетям и подстанциям\\12. М.Г. Зименков - Справочник по наладке электрооборудования промышленных предприятий.pdf",0,2000-01-01 01:00:00,2016-04-03 02:51:08,223000/adee5c55f9b44eaa9235b218d4172ff3.jpg,,
21515633,Modern Art. A Very Short Introduction,,Very Short Introductions,,David Cottington,2005,,"Oxford University Press, USA",,168,0,English,183,torrents.ru tech collections 2009-11-14,,"9780192803641,0192803646",,,,,,,,,OL7383313M,,0,,,,,,,1,3766192,pdf,8D61A4F0978CE7DC61C88126F9159A12,,,History - Modern Art - A Very Short Introduction - (David Cottington) Oxford University Press 2005.pdf,0,2000-01-01 01:00:00,2016-04-03 02:51:08,223000/8d61a4f0978ce7dc61c88126f9159a12-d.jpg,,
21515634,Chess Problems,,,,J. W. Abbott,1887,,J. Wade,,51,0,English,46,torrents.ru tech collections 2009-11-14,,,,B0008AOSUU,,,,,,,,,0,,,,,,,1,112619,pdf,E292098B5E5907F8B78CA919E58861EE,,,"D:\\!Genesis\\!!ForLG\\873138-Шахматы Большая Подборка шахматной литературы\\PROBLEMS\\121 Chess Problems [J. W. Abbott, 1887].pdf",0,2000-01-01 01:00:00,2016-04-03 02:51:08,223000/e292098b5e5907f8b78ca919e58861ee.jpg,,
21515635,The Spanish Civil War: A Very Short Introduction ,,Very Short Introductions,,Helen Graham,2005,,"Oxford University Press, USA",,193,0,English,183,torrents.ru tech collections 2009-11-14,,"9780192803771,9781429459631,0192803778",,,,,946.081,DP269 .G6462 2005,,,OL3300445M,,0,,,,,1,,1,3715773,pdf,A05262BE5596F11DF26757192B2A9400,,,History - The Spanish Civil War - A Very Short Introduction - (Helen Graham) Oxford University Press 2005.pdf,0,2000-01-01 01:00:00,2016-04-03 02:51:08,223000/a05262be5596f11df26757192b2a9400-d.jpg,,
21515636,1234 Modern End Game Studies With Appendix Containing 24 Additional Studies ,,,,Melissa A. Sutherland,1968,New edition,Dover Publications,,380,0,English,46,torrents.ru tech collections 2009-11-14,,"9780486218847,0486218848",,B000J2NZQU,,,,,,,OL7635090M,,0,,,,,1,1,0,15476859,pdf,539B8059732C648B27083FC145FA4358,,,"D:\\!Genesis\\!!ForLG\\873138-Шахматы Большая Подборка шахматной литературы\\ENDGAMES\\1234 Modern End-Game Studies [Sutherland, Lommer, 1938].pdf",0,2000-01-01 01:00:00,2016-04-03 02:51:08,223000/539b8059732c648b27083fc145fa4358.jpg,,
21515637,The Marquis de Sade: A Very Short Introduction ,,Very Short Introductions,,John Phillips,2005,,"Oxford University Press, USA",,144,0,English,183,torrents.ru tech collections 2009-11-14,,"0192804693,9780192804693",,,,,843/.6,PQ2063.S3 P46 2005,,,OL3439946M,,0,,,,,,,1,4287236,pdf,5EE0833BCC12EB8642A7411886B220B2,,,History - The Marquis De Sade - A Very Short Introduction - (John Phillips) Oxford University Press 2005.pdf,0,2000-01-01 01:00:00,2016-04-03 02:51:08,223000/5ee0833bcc12eb8642a7411886b220b2-d.jpg,,
21515638,Habermas. A Very Short Introduction,,Very Short Introductions,,Gordon Finlayson,2005,,"Oxford University Press, USA",,181,0,English,183,torrents.ru tech collections 2009-11-14,,"9780192840950,0192840959",,,,,193,B3258.H324 F583 2005,,,OL3436425M,,0,,,,,,,1,2034228,pdf,99BCA4CD80297A5031FD266FF0DEFB9D,,,History - Habermas - A Very Short Introduction - (James Gordon Finlayson) Oxford University Press 2005.pdf,0,2000-01-01 01:00:00,2016-04-03 02:51:08,223000/99bca4cd80297a5031fd266ff0defb9d-d.jpg,,
21515639,Dinosaurs. A Very Short Introduction,,Very Short Introductions,,David Norman,2005,Later Printing,"Oxford University Press, USA",,190,0,English,,torrents.ru tech collections 2009-11-14,,"0192804197,9780192804198,9781429459648",,,,,,,,,OL7383338M,,0,,,,,,,1,5204059,pdf,665FF1CF5313C3E6D475925C0F85864B,,,History - Dinosaurs - A Very Short Introduction - (David Norman) Oxford University Press 2005.pdf,0,2000-01-01 01:00:00,2016-04-03 02:51:08,223000/665ff1cf5313c3e6d475925c0f85864b-d.jpg,,
21515640,Renaissance Art. A Very Short Introduction,,Very Short Introductions,,Geraldine A. Johnson,2005,illustrated edition,"Oxford University Press, USA",,177,0,English,183,torrents.ru tech collections 2009-11-14,,"0192803549,9780192803542",,,,,,,,,OL7383308M,,0,,,,,,,1,5044338,pdf,2AAC58F838A4A8CC9D0C65AB7E89FA07,,,History - Renaissance Art - A Very Short Introduction - (Geraldine A. Johnson) Oxford University Press 2005.pdf,0,2000-01-01 01:00:00,2016-04-03 02:51:08,223000/2aac58f838a4a8cc9d0c65ab7e89fa07-d.jpg,,
21515641,129Topics in Current Chemistry. Photochemistry and Organic Synthesis,,,,,1985,,Springer,,,0,English,300,torrents.ru tech collections 2009-11-14,,,,,,,,,,,,,0,,,,,,,,13656218,rar,4B2FA5EDB338BCA4F5923633F75C9536,,,D:\\!Genesis\\!!ForLG\\2088735-Фотохимия\\129.Photochemistry and Organic Synthesis.rar,0,2000-01-01 01:00:00,2016-04-03 02:51:08,223000/4B2FA5EDB338BCA4F5923633F75C9536-g.jpg,,
21515642,LessonsInElectricCircuits - DC,Volume I,,,TonyR.Kuphaldt,2008,5,,,560,0,English,256,torrents.ru tech collections 2009-11-14,,,,,,,,,,,,,0,,,,,,1,1,4823533,pdf,6E0ADDE69708118EDD8A9A64BD99F127,,,D:\\!Genesis\\!!ForLG\\Electronics\\12969650-Digital-Communication.pdf,0,2000-01-01 01:00:00,2016-04-03 02:51:08,223000/6e0adde69708118edd8a9a64bd99f127.jpg,,
21515643,Регулятор частотыт вращения типа UG8,,,,,,,,,61,0,Russian,248,torrents.ru tech collections 2009-11-14,,,,,,,,,,,,,0,,,,,,,1,2017181,pdf,C90229E11300EFD7ECF2460337022EB5,,,D:\\!Genesis\\!!ForLG\\2186873-[Судомеханик] Литература для судовых механиков - (часть 1)\\01-Engineer\\12-Regulyator_UG8.pdf,0,2000-01-01 01:00:00,2016-04-03 02:51:08,223000/c90229e11300efd7ecf2460337022eb5.jpg,,
21515644,Основы электроснабжения промышленных предприятий,,,,"А.А. Федоров, В.В. Каменева",1984,,Энергоатомиздат,,472,0,Russian,210,torrents.ru tech collections 2009-11-14,,,,,,,,,,,,,0,,,,,,,0,33052419,pdf,96FB525CB5CCB06BF504BDF7AA6E614D,,,"D:\\!Genesis\\!!ForLG\\2246000-Коллекция книг по электроснабжению, сетям и подстанциям\\13. А.А. Федоров, В.В. Каменева - Основы электроснабжения промышленных предприятий.pdf",0,2000-01-01 01:00:00,2016-04-03 02:51:08,223000/96fb525cb5ccb06bf504bdf7aa6e614d.jpg,,
21515645,Перспективные ядерные топливные циклы и реакторы нового поколения,,,,Бойко,2005,,ТПУ,,246,0,Russian,243,torrents.ru tech collections 2009-11-14,,,,,,,,,,,,,0,,,,,,,0,23210991,djvu,E135A6D6F38D9C058D2150670E9E0621,aed0c65b1f281434773dd73215a1d5e4,no,"D:\\!Genesis\\!!ForLG\\1903296-Сборник литературы по атомной энергетики [PDF,DJVU,DOC]\\13_Бойко - Перспективные ядерные топливные циклы и реакторы нового поколения.djvu",0,2000-01-01 01:00:00,2016-04-03 02:51:08,223000/e135a6d6f38d9c058d2150670e9e0621.jpg,,
21515646,Правила соревнований по туйшоу,,,,"Креймер, Рыжов",2000,4,,,10,0,Russian,160,torrents.ru tech collections 2009-11-14,,,,,,,,,,,,,0,,,,,,,1,251032,pdf,6D904752EE9792A7166E66A8432C903A,,,D:\\!Genesis\\!!ForLG\\921601-Книги по Тайцзи и Цигун\\PDF\\13_Правила соревнований по туйшоу.pdf,0,2000-01-01 01:00:00,2016-04-03 02:51:08,223000/6d904752ee9792a7166e66a8432c903a.jpg,,
21515647,Buddhist Ethics. A Very Short Introduction,,Very Short Introductions,,Damien Keown,2005,,"Oxford University Press, USA",,167,0,English,205,torrents.ru tech collections 2009-11-14,,"9780192804570,019280457X",,,,,294.3/5,BJ1289 .K438 2005,,,OL3436424M,,0,,,,,,,1,2671157,pdf,606571D31EC9C4E5675747076209033F,,,History - Buddhist Ethics - A Very Short Introduction - (Damien Keown) Oxford University Press 2005.pdf,0,2000-01-01 01:00:00,2016-04-03 02:51:08,223000/606571d31ec9c4e5675747076209033f-d.jpg,,
21515648,Tragedy. A Very Short Introduction,,Very Short Introductions,,Adrian Poole,2005,,"Oxford University Press, USA",,161,0,English,183,torrents.ru tech collections 2009-11-14,,"9780192802354,0192802356",,,,,809/.9162,PN1892 .P66 2005,,,OL3404250M,,0,,,,,,,1,3113786,pdf,F6021F842D7F26F4F6518A874F7B8AD2,,,History - Tragedy - A Very Short Introduction - (Adrian Poole) Oxford University Press 2005.pdf,0,2000-01-01 01:00:00,2016-04-03 02:51:08,223000/f6021f842d7f26f4f6518a874f7b8ad2-d.jpg,,
21515649,EC1258 Digital Electronics Laboratory Manual-REC(2),,,,,,,,,94,0,English,250,torrents.ru tech collections 2009-11-14,,,,,,,,,,,,,0,,,,,,1,1,768754,pdf,45D9A406444D2E13B7100C42BD300A56,,,D:\\!Genesis\\!!ForLG\\Electronics\\13143037-EC1258-Digital-Electronics-Laboratory-Manual-REC(2).pdf,0,2000-01-01 01:00:00,2016-04-03 02:51:08,223000/45d9a406444d2e13b7100c42bd300a56.jpg,,
21515650,Sikhism. A Very Short Introduction,,Very Short Introductions,,Eleanor Nesbitt,2005,,"Oxford University Press, USA",,177,0,English,183,torrents.ru tech collections 2009-11-14,,"0192806017,9780192806017",,,,,294.6,BL2018 .N47 2005,,,OL3404879M,,0,,,,,,,1,3178523,pdf,2D7554BBFFFDB3D36C608891B5122EAB,,,"Sikhism, A Very Short Introduction (Very Short Introductions) (Eleanor Nesbitt) 0192806017.pdf",0,2000-01-01 01:00:00,2016-04-03 02:51:08,223000/2d7554bbfffdb3d36c608891b5122eab-d.jpg,,
21515651,World Trade Organization. A Very Short Introduction,,Very Short Introductions,,Amrita Narlikar,2005,,"Oxford University Press, USA",,176,0,English,183,torrents.ru tech collections 2009-11-14,,"9780192806086,0192806084",,,,,,,,,OL7383419M,,0,,,,,,,1,3132493,pdf,67B89A6B20E904287261E501D578EB75,,,History - The World Trade Organization - A Very Short Introduction - (Amrita Narlikar) Oxford University Press 2005.pdf,0,2000-01-01 01:00:00,2016-04-03 02:51:08,223000/67b89a6b20e904287261e501d578eb75-d.jpg,,
21515652,Vikings. A Very Short Introduction,,,,Julian D. Richards,2005,,OUP,,169,0,English,183,torrents.ru tech collections 2009-11-14,,"0192806076,9780192806079",,,,,,,,,OL7383418M,,0,,,,,,,1,3943000,pdf,1CD46E99D084578758F8673B624FA8F5,,,D:\\!Genesis\\!!ForLG\\Oxford\\Oxford University - 124 Very Short Introductions\\137 Vikings.pdf,0,2000-01-01 01:00:00,2016-04-03 02:51:08,223000/1cd46e99d084578758f8673b624fa8f5.jpg,,
21515653,Fossils. A Very Short Introduction,,,,Keith Thomson,2005,,OUP,,160,0,English,181,torrents.ru tech collections 2009-11-14,,"0192805045,9780192805041",,,,,,,,,OL7383377M,,0,,,,,,,1,3176864,pdf,EC05F9A0C80E382E7302C75192E585BA,,,History - Fossils - A Very Short Introduction - (Keith Thomson) Oxford University Press 2005.pdf,0,2000-01-01 01:00:00,2016-04-03 02:51:08,223000/ec05f9a0c80e382e7302c75192e585ba.jpg,,
21515654,Journalism. A Very Short Introduction,,Very Short Introductions,,Ian Hargreaves,2005,,"Oxford University Press, USA",,174,0,English,,torrents.ru tech collections 2009-11-14,,"9780192806567,0192806564",,,,,,,,,OL7383448M,,0,,,,,,1,1,3777242,pdf,98322BEAF9EDC77D9A7A353D241DD626,,,History - Journalism - A Very Short Introduction - (Ian Hargreaves) Oxford University Press 2005.pdf,0,2000-01-01 01:00:00,2016-04-03 02:51:08,223000/98322beaf9edc77d9a7a353d241dd626-d.jpg,,
21515655,Судовые вспомогательные системы и механизмы,,,,"Харин, Декин, Писков, Занько",1992,,Транспорт,,162,0,Russian,248,torrents.ru tech collections 2009-11-14,,,,,,,,,,,,,0,,,,,,1,0,16945352,pdf,3DB4E2EFFF53420ED31729599A74E337,,,D:\\!Genesis\\!!ForLG\\2186873-[Судомеханик] Литература для судовых механиков - (часть 1)\\01-Engineer\\13-Harin-Sudovye_vspomogatelnye.pdf,0,2000-01-01 01:00:00,2016-04-03 02:51:08,223000/3db4e2efff53420ed31729599a74e337.jpg,,
21515656,Справочник по электроснабжению и электрооборудованию,Том 1,,,Федоров А.А.,,,,,568,0,Russian,250,torrents.ru tech collections 2009-11-14,,,,,,,,,,,,,0,,,,,,1,0,34284549,pdf,0BA5CBD08F44759E5A6151ABAF41CA5A,,,"D:\\!Genesis\\!!ForLG\\2246000-Коллекция книг по электроснабжению, сетям и подстанциям\\14. А.А. Федоров - Справочник по электроснабжению и электрооборудованию. Том 1.pdf",0,2000-01-01 01:00:00,2016-04-03 02:51:08,223000/0ba5cbd08f44759e5a6151abaf41ca5a.jpg,,
21515657,TAIJIQUAN AND THE SEARCH FOR THE LITTLE OLD CHINESE MAN: RITUALIZING RACE THROUGH MARTIAL ARTS. Dissertation,,,,"Adam Dean Frank, BA, MA ",2003,,,,410,0,English,160,torrents.ru tech collections 2009-11-14,,,,,,,,,,,,,0,,,,,,1,1,1858584,pdf,0A984D85BA31AAAE1476DDEEF8AF289D,,,D:\\!Genesis\\!!ForLG\\921601-Книги по Тайцзи и Цигун\\PDF\\14_Диссертация на английском.pdf,0,2000-01-01 01:00:00,2016-04-03 02:51:08,223000/0a984d85ba31aaae1476ddeef8af289d.jpg,,
21515658,The Crusades,,A Very Short Introduction,,Christopher Tyerman,2004,,OUP,,185,0,English,183,torrents.ru tech collections 2009-11-14,,"0-19-280655-6,978-0-19-280655-0",,,,,,,,,OL7383447M,,0,,,,,,,1,5505482,pdf,A075A4CBC0EC382DDC7EE8E23D724D35,,,History - The Crusades - A Very Short Introduction - (Christopher Tyerman) Oxford University Press 2005.pdf,0,2000-01-01 01:00:00,2016-04-03 02:51:08,223000/a075a4cbc0ec382ddc7ee8e23d724d35-d.jpg,,
21515659,Feminism: A Very Short Introduction ,,Very Short Introductions,,Margaret Walters,2006,,"Oxford University Press, USA",,160,0,English,183,torrents.ru tech collections 2009-11-14,,"0-19-280510-X,978-0-19-280510-2",,,,,305.4209,HQ1206 .W24 2005,,,OL3409740M,,0,,,,,,1,1,2799108,pdf,AFCF0BEA38D63FF06F9C15633949A8D8,,,Feminism - A Very Short Introduction.pdf,0,2000-01-01 01:00:00,2016-04-03 02:51:08,223000/afcf0bea38d63ff06f9c15633949a8d8-d.jpg,,
21515660,Dead Sea Scrolls. A Very Short Introduction,,Very Short Introductions,,Timothy Lim,2006,,"Oxford University Press, USA",,153,0,English,183,torrents.ru tech collections 2009-11-14,,"0192806599,9780192806598,9781429421508",,,,,,,,,OL7383451M,,0,,,,,1,,1,2498935,pdf,270C00591352C381CB0AE37D8F780FEA,,,History - The Dead Sea Scrolls - A Very Short Introduction - (Timothy H. Lim) Oxford University Press 2005.pdf,0,2000-01-01 01:00:00,2016-04-03 02:51:08,223000/270c00591352c381cb0ae37d8f780fea-d.jpg,,
21515661,Global Catastrophes: A Very Short Introduction ,,Very Short Introductions,,Bill McGuire,2009,,"Oxford University Press, USA",,153,0,English,183,torrents.ru tech collections 2009-11-14,,"0192804936,9780192804938",,,,,363.34,GB5018 .M34 2006,,,OL3412753M,,0,,,,,,,1,3242701,pdf,B08DB6F6680E0FCB57865504CF05D2F3,,,D:\\!Genesis\\!!ForLG\\Oxford\\Oxford University - 124 Very Short Introductions\\145 Global Catastrophes.pdf,0,2000-01-01 01:00:00,2016-04-03 02:51:08,223000/b08db6f6680e0fcb57865504cf05d2f3-d.jpg,,
21515662,The Renaissance,,A Very Short Introduction,,Jerry Brotton,2006,,OUP,,160,0,English,183,torrents.ru tech collections 2009-11-14,,"0-19-280163-5,978-0-19-280163-0",,,,,940.21 B76r 2005,CB361 .B73 2005,,,OL18399673M,,0,,,,,,,1,4185487,pdf,DE00E173E02D0A10A311872D1FAE4496,,,History - The Renaissance - A Very Short Introduction - (Jerry Brotton) Oxford University Press 2006.pdf,0,2000-01-01 01:00:00,2016-04-03 02:51:08,223000/de00e173e02d0a10a311872d1fae4496-d.jpg,,
21515663,Anglicanism. A Very Short Introduction,,,,Mark Chapman,2006,,OUP,,169,0,English,183,torrents.ru tech collections 2009-11-14,,"0192806939,9780192806932",,,,,,,,,OL7383471M,,0,,,,,,,1,2063969,pdf,652F2DF88F90C1EC015B948F318726FA,,,Anglicanism A Very Short Introduction.pdf,0,2000-01-01 01:00:00,2016-04-03 02:51:08,223000/652f2df88f90c1ec015b948f318726fa.jpg,,
21515664,BP Marine Lubricants,,,,,,,,,85,0,English,248,torrents.ru tech collections 2009-11-14,,,,,,,,,,,,,0,,,,,,,0,8819938,pdf,0376086F6935917168D0B181551795A6,,,D:\\!Genesis\\!!ForLG\\2186873-[Судомеханик] Литература для судовых механиков - (часть 1)\\01-Engineer\\14-BP_Marine_Lubricants.pdf,0,2000-01-01 01:00:00,2016-04-03 02:51:08,223000/0376086f6935917168d0b181551795a6.jpg,,
21515665,Голоморфная динамика: Вводные лекции,,,,Милнор Дж.,2000,,РХД,Ижевск,321,0,Russian,183,torrents.ru tech collections 2009-11-14,0,,,,517,,,,,,,,0,,,,,,,0,28564077,pdf,0139ADD5C4A4BF4BB9A44667E58D8AC4,,,"D:!Genesis!!ForLG1624002-Хаос, солитоны, фракталы15 Милнор Дж. Голоморфная динамика.pdf",0,2000-01-01 01:00:00,2016-04-03 02:51:08,223000/0139add5c4a4bf4bb9a44667e58d8ac4.jpg,,
21515666,The First Three Minutes - A Moderm View of the Origin of the Universe,,,,Steven Weinberg,1977,,,,168,0,English,269,torrents.ru tech collections 2009-11-14,,,,,,,,,,,,,0,,,,,,,1,1841779,pdf,8B6BFAE49C9851DDA7F4B7C82B548B11,,,D:\\!Genesis\\!!ForLG\\25 Greatest Science Books of All Time\\15. Steven Weinberg - The First Three Minutes - A Moderm View of the Origin of the Universe (1977).pdf,0,2000-01-01 01:00:00,2016-04-03 02:51:08,223000/8b6bfae49c9851dda7f4b7c82b548b11.jpg,,
21515667,Справочник по электроснабжению и электрооборудованию,Том 2,,,Федоров А.А.,,,,,592,0,Russian,250,torrents.ru tech collections 2009-11-14,,,,,,,,,,,,,0,,,,,,1,0,31340499,pdf,5C7C419343482422AB7A82E49EEAE992,,,"D:\\!Genesis\\!!ForLG\\2246000-Коллекция книг по электроснабжению, сетям и подстанциям\\15. А.А. Федоров - Справочник по электроснабжению и электрооборудованию. Том 2.pdf",0,2000-01-01 01:00:00,2016-04-03 02:51:08,223000/5c7c419343482422ab7a82e49eeae992.jpg,,
21515668,"Экономика, организация и планирование на АЭС",,,,"Болдырев, Гительман, Сиданов",1986,,Энергоатомиздат,,255,0,Russian,305,torrents.ru tech collections 2009-11-14,,,,,,,,,,,,,0,,,,,,,0,4885362,djvu,8FA3F9164660CBC1EBD2D564B8BEF3EE,57e786daf4836f82d81498c45be58972,no,"D:\\!Genesis\\!!ForLG\\1903296-Сборник литературы по атомной энергетики [PDF,DJVU,DOC]\\15_Болдырев - Экономика, организация и планирование на АЭС.djvu",0,2000-01-01 01:00:00,2016-04-03 02:51:08,223000/8fa3f9164660cbc1ebd2d564b8bef3ee.jpg,,
21515669,The First World War: A Very Short Introduction ,,Very Short Introductions,,Michael Howard,2007,,"Oxford University Press, USA",,161,0,English,64,torrents.ru tech collections 2009-11-14,,"0199205590,9780199205592,9781429470261",,B001C6SC9W,,,940.3,D521 .H645 2007,,,OL24878364M,,0,,,,,1,,1,1938513,pdf,979A094E5C9BE9670BCCE93FA6FB82CC,,,OUP.VSI.The First World War - A Very Short Introduction.Michael Howard.2002.pdf,0,2000-01-01 01:00:00,2016-04-03 02:51:08,223000/979a094e5c9be9670bcce93fa6fb82cc-d.jpg,,
21515670,Fundamentalism. A Very Short Introduction,,,,Malise Ruthven,2007,,Oxford University Press,,177,0,English,183,torrents.ru tech collections 2009-11-14,,,,B003CYCUQI,,,,,,,,,0,,,,,,,1,3885043,pdf,89CD486EFCAB6364539B6DA4F1EADDD6,,,History - Fundamentalism - A Very Short Introduction - (Malise Ruthven) Oxford University Press 2007.pdf,0,2000-01-01 01:00:00,2016-04-03 02:51:08,223000/89cd486efcab6364539b6da4f1eaddd6.jpg,,
21515671,International Migration. A Very Short Introduction,,Very Short Introductions,,Khalid Koser,2007,,"Oxford University Press, USA",,153,0,English,183,torrents.ru tech collections 2009-11-14,,"9780199298013,0199298017",,,,,,,,,OL7405608M,,0,,,,,,,1,2377909,pdf,7CCE934ACEC24E34FC42C50CD9BD995B,,,D:\\!Genesis\\!!ForLG\\Oxford\\Oxford University - 124 Very Short Introductions\\157 International Migration.pdf,0,2000-01-01 01:00:00,2016-04-03 02:51:08,223000/7cce934acec24e34fc42c50cd9bd995b-d.jpg,,
21515672,15900 HVAC Instrumentation and Controls,,,,,,,,,16,0,English,238,torrents.ru tech collections 2009-11-14,,,,,,,,,,,,,0,,,,,,,1,494532,pdf,2BD4036924B73863280F655ADCFAF871,,,D:\\!Genesis\\!!ForLG\\hvac\\15900_HVAC Instrumentation and Controls.pdf,0,2000-01-01 01:00:00,2016-04-03 02:51:08,223000/2bd4036924b73863280f655adcfaf871.jpg,,
21515673,Religia doar in limitele ratiunii,,,,Immanuel Kant,2007,,ALL,,361,0,Romanian,,,0,,,,,,,,,,,,0,,,,,,,,13019927,pdf,52be6410983b2fbfdfa3d4e8c577da8e,62aca542f2ca43f9c02bef4989616c80,no,Immanuel Kant - Religia doar in limitele ratiunii.pdf,0,2000-01-01 01:00:00,2016-04-03 02:51:08,881000/52be6410983b2fbfdfa3d4e8c577da8e-g.jpg,,
21515674,Engine Daihatsu. Operating & maitenance manual for Daihatsu diesel engine model PS-26,,,,,,,,,151,0,English,248,torrents.ru tech collections 2009-11-14,,,,,,,,,,,,,0,,,,,,,0,49958964,pdf,EB79D3276CDFB9E346E5E3BCAF816BE9,,,D:\\!Genesis\\!!ForLG\\2186873-[Судомеханик] Литература для судовых механиков - (часть 1)\\01-Engineer\\15-Engine Daihatsu.pdf,0,2000-01-01 01:00:00,2016-04-03 02:51:08,223000/eb79d3276cdfb9e346e5e3bcaf816be9.jpg,,
21515675,The World's Sixteen Crucified Saviors. Or Christianity Before Christ,,,,"Kersey Graves, Acharya S.",2001,6th Rev,Adventures Unlimited Press,6,176,0,English,102,torrents.ru tech collections 2009-11-14,,"093281395X,9780932813954",,,,,,,,,OL8387034M,,0,,,,0,1,1,1,1536911,pdf,C6C8D728F8E294FC8DFF7CB8D2329D5A,,,D:\\!Genesis\\!!ForLG\\-=  UNSORTED BOOKS  =-\\EBOOK COLLECTION (NEW) [CSI][h33t]\\16 Crucified Saviors.pdf,0,2000-01-01 01:00:00,2016-04-03 02:51:08,223000/c6c8d728f8e294fc8dff7cb8d2329d5a-d.jpg,,
21515676,Foundations Of Quantum Mechanics,,,,Jauch J. M.,1968,,,,155,0,English,269,torrents.ru tech collections 2009-11-14,,,,,,,,,,,,,0,,,,,,,0,5285072,djvu,33D61BC6504A9A7045393ECE39CA3EDF,c7b0e29f5257ef9a85bf0ade8eb06fc7,no,D:\\!Genesis\\!!ForLG\\1295551-Quantum &amp; Computational Chemistry e-Books\\16 Jauch J. M. - Foundations Of Quantum Mechanics (1968).djvu,0,2000-01-01 01:00:00,2016-04-03 02:51:08,223000/33d61bc6504a9a7045393ece39ca3edf.jpg,,
21515677,Хаотические колебания,,,,Мун Ф.,,,,,312,0,Russian,272,torrents.ru tech collections 2009-11-14,,,,,,,,,,,,,0,,,,,,,0,21832887,pdf,44062A091E6746A441F0005E7644475F,,,"D:\\!Genesis\\!!ForLG\\1624002-Хаос, солитоны, фракталы\\16 Мун Ф. Хаотические колебания.pdf",0,2000-01-01 01:00:00,2016-04-03 02:51:08,223000/44062a091e6746a441f0005e7644475f.jpg,,
21515678,Silent Spring,,,,"Rachel Carson, Al Gore, Lois and Louis darling",1994,,Houghton Mifflin Company,,155,0,English,,torrents.ru tech collections 2009-11-14,,"9780395683293,0395683297",,,,,363.73/84,QH545.P4 C38 1994,,,OL834171M,,0,,,,,,1,1,991170,pdf,00BE1508D5070A246BCE64943D2F50E4,,,D:\\!Genesis\\!!ForLG\\25 Greatest Science Books of All Time\\16. Rachel Carson - Silent Spring (1962).pdf,0,2000-01-01 01:00:00,2016-04-03 02:51:08,223000/00be1508d5070a246bce64943d2f50e4-d.gif,,
21515679,Иглоукалывание,,,,"Хоанг Бао Тяу, Ла Куанг Ниеп",1988,,Медицина,,336,0,Russian,160,torrents.ru tech collections 2009-11-14,,5-225-00299-4,,,,,,,,,,,0,,,,,,1,1,30479792,pdf,E6CBD09577F802ACDACA9C236DE58487,,,D:\\!Genesis\\!!ForLG\\921601-Книги по Тайцзи и Цигун\\PDF\\16_Иглоукалывание.pdf,0,2000-01-01 01:00:00,2016-04-03 02:51:08,223000/e6cbd09577f802acdaca9c236de58487.jpg,,
21515680,African History. A Very Short Introduction,,Very Short Introductions,,"John Parker, Richard Rathbone",2007,,"Oxford University Press, USA",,185,0,English,64,torrents.ru tech collections 2009-11-14,,"9780192802484,0192802488",,,,,960,DT20 .P37 2007,,,OL23109186M,,0,,,,,,,1,5237734,pdf,1ED7F6AAE60EC7DDA6F1923107C6D783,,,African History A Very Short Introduction.pdf,0,2000-01-01 01:00:00,2016-04-03 02:51:08,223000/1ed7f6aae60ec7dda6f1923107c6d783-d.jpg,,
21515681,Теория вихрей,,,,А.Пуанкаре. ,2000,,НИЦ РХД,,161,0,Russian,264,torrents.ru tech collections 2009-11-14,,,,,,,,,,,,,0,,,,,,,0,7617581,pdf,EB65A9686A17C0B94BFE88302E27B54D,,,"D:\\!Genesis\\!!ForLG\\513911-РХД (RCD) - CD Гидроаэромеханика, Электронная библиотека РХД\\160 А.Пуанкаре. Теория вихрей. 160 стр. Ижевск- НИЦ РХД, 2000.pdf",0,2000-01-01 01:00:00,2016-04-03 02:51:08,223000/eb65a9686a17c0b94bfe88302e27b54d.jpg,,
21515682,Classical Mythology,,A Very Short Introduction,,Helen Morales,2007,,OUP,,167,0,English,183,torrents.ru tech collections 2009-11-14,,"0192804766,978-0-19-280476-1",,,,,,,,,OL10127583M,,0,,,,,,,1,4589939,pdf,C125343EA1BB42AC312AC6B078CE85F2,,,History - Classical Mythology - A Very Short Introduction - (Helen Morales) Oxford University Press 2007.pdf,0,2000-01-01 01:00:00,2016-04-03 02:51:08,223000/c125343ea1bb42ac312ac6b078ce85f2-d.jpg,,
21515683,American Political Parties and Elections. A Very Short Introduction,,Very Short Introductions,,L. Sandy Maisel,2007,,"Oxford University Press, USA",,192,0,English,64,torrents.ru tech collections 2009-11-14,,"9780195301229,0195301226",,,,,324.973,JK1965 .M34 2007,,,OL17566208M,,0,,,,,,,1,2336238,pdf,5D7F239B2EBEE9D6AD82EB6E21998C89,,,History - American Political Parties and Elections - A Very Short Introduction - (L. Sandy Maisel) Oxford University Press 2007.pdf,0,2000-01-01 01:00:00,2016-04-03 02:51:08,223000/5d7f239b2ebee9d6ad82eb6e21998c89-d.jpg,,
21515684,Shipboard Water Treatment manual,,,,,,4,,,25,0,English,213,torrents.ru tech collections 2009-11-14,,,,,,,,,,,,,0,,,,,,,0,8104858,pdf,B6806F33D046011068172A119F9BD4BA,,,D:\\!Genesis\\!!ForLG\\2186873-[Судомеханик] Литература для судовых механиков - (часть 1)\\01-Engineer\\16-Ship_Water_Treatment.pdf,0,2000-01-01 01:00:00,2016-04-03 02:51:08,223000/b6806f33d046011068172a119f9bd4ba.jpg,,
21515685,From Classical to Quantum Mechanics,,,,Giampiero Esposito et al.,2004,,CUP,,609,0,English,269,torrents.ru tech collections 2009-11-14,,"978-0-511-18490-1,0-511-18490-5,978-0-521-83324-0,0-521-83324-8",,,,,,,,,,,0,,,,,,,1,8183550,pdf,AED319C604886D8909F1329B3B528A9B,,,D:\\!Genesis\\!!ForLG\\1295551-Quantum &amp; Computational Chemistry e-Books\\17 Giampiero Esposito et al. - From Classical to Quantum Mechanics (2004).pdf,0,2000-01-01 01:00:00,2016-04-03 02:51:08,223000/aed319c604886d8909f1329b3b528a9b.jpg,,
21515686,17 money making candlestick formations,,,,,,,,,19,0,English,1,torrents.ru tech collections 2009-11-14,,,,,,,,,,,,,0,,,,,,,1,74197,pdf,A8C4457DEF0D0CDEE8D278BAEA3860EE,,,D:\\!Genesis\\!!ForLG\\Business & Finance\\Technical Analysis\\17 money making candlestick formations.pdf,0,2000-01-01 01:00:00,2016-04-03 02:51:08,223000/a8c4457def0d0cdee8d278baea3860ee.jpg,,
21515687,17 первенство СССР по шахматам,,,,,,,,,317,0,Russian,46,torrents.ru tech collections 2009-11-14,,,,,,,,,,,,,0,,,,,,,0,8754216,djvu,B7F24B15092776186D2D875F5CE4B95F,c038a4f7c532ab2a748af972a1f78e66,no,D:\\!Genesis\\!!ForLG\\2004628-Шахматы. 375 книг в формате DJVU\\17 первенство СССР по шахматам.djvu,0,2000-01-01 01:00:00,2016-04-03 02:51:08,223000/b7f24b15092776186d2d875f5ce4b95f.jpg,,
21515688,Солитоны,,,,"Булафф, Кодри",1983,,Мир,,409,0,Russian,275,torrents.ru tech collections 2009-11-14,,,,,,,,,,,,,0,,,,,,,0,17395867,pdf,39BCFC0987A586090B705CBD8AE6BC0D,,,"D:\\!Genesis\\!!ForLG\\1624002-Хаос, солитоны, фракталы\\17 Солитоны.pdf",0,2000-01-01 01:00:00,2016-04-03 02:51:08,223000/39bcfc0987a586090b705cbd8ae6bc0d.jpg,,
21515689,The Mismeasure of Man,,Revised & Expanded,,Stephen Jay Gould,1996,,W. W. Norton & Company,,417,0,English,,torrents.ru tech collections 2009-11-14,,"0393314251,9780393314250",,,,,153.9/3/09,BF431 .G68 1996,,,OL16659666M,Revised edition - missing last page,0,,,,,,,1,7931413,pdf,02F0FA1EACBCE6953DDC02F11F7CE6B2,,,D:\\!Genesis\\!!ForLG\\25 Greatest Science Books of All Time\\17. Stephen Jay Gould - The Mismeasure of Man (1981) - Revised edition - missing last page.pdf,0,2000-01-01 01:00:00,2016-04-03 02:51:08,223000/02f0fa1eacbce6953ddc02f11f7ce6b2-d.jpg,,
21515690,Садовый дом строим сами,,,,,,,,,110,0,Russian,236,torrents.ru tech collections 2009-11-14,,,,,,,,,,,,,0,,,,,,,0,1064579,djvu,66DC0309DF689040168AA7A9C2043F53,3a136a20a721044745a368f88e64fb9e,no,D:\\!Genesis\\!!ForLG\\!!!\\17. Садовый дом строим сами.djvu,0,2000-01-01 01:00:00,2016-04-03 02:51:08,223000/66dc0309df689040168aa7a9c2043f53.jpg,,
21515691,К вопрсу о положении рабочих на лесопильне Архангельской губернии,,,,,,,,,40,0,Russian(Old),30,torrents.ru tech collections 2009-11-14,,,,,,,,,,,,,0,,,,,,,0,2353298,pdf,12CCAFE1C290C98ABD81EC5075694D4C,,,D:\\!Genesis\\!!ForLG\\1355119-(Лесоводство) Коллекция книг и статьи о лесе конца 19 - пер.по\\17.pdf,0,2000-01-01 01:00:00,2016-04-03 02:51:08,223000/12ccafe1c290c98abd81ec5075694d4c.jpg,,
21515692,Bestsellers. A Very Short Introduction,,Very Short Introductions,,John Sutherland,2007,,"Oxford University Press, USA",,145,0,English,183,torrents.ru tech collections 2009-11-14,,"9780199214891,0199214891",,,,,,,,,OL10145748M,,0,,,,,,,1,2930245,pdf,4EC01C03749722E757B6E5F491A65D75,,,Literature - Bestsellers - A Very Short Introduction - (John Sutherland) Oxford University Press 2007.pdf,0,2000-01-01 01:00:00,2016-04-03 02:51:08,223000/4ec01c03749722e757b6e5f491a65d75-d.jpg,,
21515693,Chess Brilliancies,,,,Wenman,1947,,Isaac Pitman,,208,0,English,46,torrents.ru tech collections 2009-11-14,,,,,,,,,,,,,0,,,,,,1,0,19162965,pdf,81C0A054346E0FB325B8753B0749E5A5,,,"D:\\!Genesis\\!!ForLG\\873138-Шахматы Большая Подборка шахматной литературы\\GENERAL\\175 Chess Brilliancies [Wenman, 1947].pdf",0,2000-01-01 01:00:00,2016-04-03 02:51:08,223000/81c0a054346e0fb325b8753b0749e5a5.jpg,,
21515694,Modern China. A Very Short Introduction,,Very Short Introductions,,Rana Mitter,2008,,"Oxford University Press, USA",,169,0,English,183,torrents.ru tech collections 2009-11-14,,"9780199228027,0199228027",,,,,,,,,OL10145978M,,0,,,,,,,1,2064511,pdf,54F017DECA66DCF6C15D15307D35FBE4,,,History - Modern China - A Very Short Introduction - (Rana Mitter) Oxford University Press 2008.pdf,0,2000-01-01 01:00:00,2016-04-03 02:51:08,223000/54f017deca66dcf6c15d15307d35fbe4-d.jpg,,
21515695,The Quakers. A Very Short Introduction,,,,Pink Dandelion,2008,,OUP,,164,0,English,183,torrents.ru tech collections 2009-11-14,,"0199206791,9780199206797",,,,,289.6,BX7731.3 .D36 2008,,,OL10145588M,,0,,,,,,,1,2620076,pdf,FF297A6B3FA9E5962DBE49E9756C24FA,,,D:\\!Genesis\\!!ForLG\\Oxford\\Oxford University - 124 Very Short Introductions\\177 The Quakers.pdf,0,2000-01-01 01:00:00,2016-04-03 02:51:08,223000/ff297a6b3fa9e5962dbe49e9756c24fa.jpg,,
21515696,Quantum Mechanics Demystified,,,,David McMahon,2005,,MGH,,407,0,English,183,torrents.ru tech collections 2009-11-14,,"0071455469,9780071455466",,,,,530.12,QC174.12 .M379 2005,10.1036/0071455469,,OL3426656M,,0,,,,,,,1,10111057,pdf,63694321BB954193AB752F680FED2737,,,D:\\!Genesis\\!!ForLG\\1295551-Quantum &amp; Computational Chemistry e-Books\\18 David McMahon - Quantum Mechanics Demystified (2006).pdf,0,2000-01-01 01:00:00,2016-04-03 02:51:08,223000/63694321bb954193ab752f680fed2737.jpg,,
21515697,Введение в теорию солитонов,,,,Новокшенов Ю.В. ,2002,,РХД,,97,0,Russian,275,torrents.ru tech collections 2009-11-14,,,,,,,,,,,,,0,,,,,,,0,6206975,pdf,878AAAEF22D6D40581946949AFD7DBFA,,,"D:\\!Genesis\\!!ForLG\\1624002-Хаос, солитоны, фракталы\\18 Новокшенов Ю.В. Введение в теорию солитонов.pdf",0,2000-01-01 01:00:00,2016-04-03 02:51:08,223000/878aaaef22d6d40581946949afd7dbfa.jpg,,
21515698,The decline of the traditional pension : a comparative study of threats to retirement security,,,,G  A Mackenzie,2010,1,Cambridge University Press,Cambridge ; New York,293,0,English,,,,"9780521518475,0521518474",,,,,,,,,,,0,,,,,,,1,2157497,pdf,1178cbcc39048c8bd2ad7ba378b553b4,,,"H:\\library.nu\\cbo1\\Mackenzie G.A.(. The Decline of the Traditional Pension (CUP, 2010)(ISBN 9780521518475)(O)(293s).pdf",0,2000-01-01 01:00:00,2016-04-03 02:51:08,880000/1178cbcc39048c8bd2ad7ba378b553b4-d.jpg,,
21515699,18 первенство СССР по шахматам. Сборник партий,,,,Чигорин,1952,,ФИС,,341,0,Russian,46,torrents.ru tech collections 2009-11-14,,,,,,,,,,,,,0,,,,,,,0,6745805,djvu,7B6801559C9C7352C51C1E203A29D7F5,99780beeb6ed92f87d7bd1c9b554e310,no,D:\\!Genesis\\!!ForLG\\2004628-Шахматы. 375 книг в формате DJVU\\18 первенство СССР по шахматам.djvu,0,2000-01-01 01:00:00,2016-04-03 02:51:08,223000/7b6801559c9c7352c51c1e203a29d7f5.jpg,,
21515700,О Будущности лесов Архангельской губернии в связи с существующими примемами лесного хозяйства,,,,,,,,,18,0,Russian,260,torrents.ru tech collections 2009-11-14,,,,,,,,,,,,,0,,,,,,,0,1364632,pdf,A84F30E6021218C7083170A979E69E55,,,D:\\!Genesis\\!!ForLG\\1355119-(Лесоводство) Коллекция книг и статьи о лесе конца 19 - пер.по\\18.pdf,0,2000-01-01 01:00:00,2016-04-03 02:51:08,223000/a84f30e6021218c7083170a979e69e55.jpg,,
21515701,The Old Testament. A Very Short Introduction,,Very Short Introductions,,Michael Coogan,2008,,"Oxford University Press, USA",,161,0,English,205,torrents.ru tech collections 2009-11-14,,"9780195305050,0195305051",,,,,,,,,OL10134947M,,0,,,,,,,1,4598776,pdf,9793DDF5DC07187E4D4E789B404CF207,,,Religion - The Old Testament - A Very Short Introduction - (Michael D Coogan) Oxford University Press 2008.pdf,0,2000-01-01 01:00:00,2016-04-03 02:51:08,223000/9793ddf5dc07187e4d4e789b404cf207-d.jpg,,
21515702,Mormonism: A Very Short Introduction ,,Very Short Introductions,,Richard Lyman Bushman,2008,,"Oxford University Press, USA",,145,0,English,183,torrents.ru tech collections 2009-11-14,,"0195310306,9780195310306",,B002WTCABE,,,289.3,BX8635.3 .B87 2008,,,OL10135005M,,0,,,,,,,1,4109056,pdf,6C9849119B2AB12261AFA165E7D83B26,,,D:\\!Genesis\\!!ForLG\\Oxford\\Oxford University - 124 Very Short Introductions\\183 Mormonism.pdf,0,2000-01-01 01:00:00,2016-04-03 02:51:08,223000/6c9849119b2ab12261afa165e7d83b26-d.jpg,,
21515703,Альбом течений жидкости и газа,,,,М.Ван-Дайк,1986,,Мир,,185,0,Russian,264,torrents.ru tech collections 2009-11-14,,,,,,,,,,,,,0,,,,,,,0,45016516,pdf,C063D96FFD8A58CA4B6FE0A71B706DFB,,,"D:\\!Genesis\\!!ForLG\\513911-РХД (RCD) - CD Гидроаэромеханика, Электронная библиотека РХД\\184 М.Ван-Дайк. Альбом течений жидкости и газа. 184 стр. М.- Мир, 1986.pdf",0,2000-01-01 01:00:00,2016-04-03 02:51:08,223000/c063d96ffd8a58ca4b6fe0a71b706dfb.jpg,,
21515704,PRINCIPLES Of SQUAD INSTRUCTION for the BROADSWORD,,,,A. J. Corbesier,2010,,Budge Press,,48,0,English,99,torrents.ru tech collections 2009-11-14,,"9781446014462,1446014460",,,,,,,,,,,0,,,,,,,1,404380,pdf,4C8EE1E3FD19E43068E2D457C8BB78B4,,,D:\\!Genesis\\!!ForLG\\1528206-Подборка старых книг по фехтованию\\1869cutlass.pdf,0,2000-01-01 01:00:00,2016-04-03 02:51:08,223000/4c8ee1e3fd19e43068e2d457c8bb78b4-d.jpg,,
21515705,19 первенство СССР по шахматам,,,,,1953,,ФИС,,277,0,Russian,46,torrents.ru tech collections 2009-11-14,,,,,,,,,,,,,0,,,,,,,0,5797870,djvu,9F4BCBA8C9FCAECE80999DDD308882B4,c9edb3ffa87537fd0cfcc991f132f8b3,no,D:\\!Genesis\\!!ForLG\\2004628-Шахматы. 375 книг в формате DJVU\\19 первенство СССР по шахматам.djvu,0,2000-01-01 01:00:00,2016-04-03 02:51:08,223000/9f4bcba8c9fcaece80999ddd308882b4.jpg,,
21515706,Кинетика и регулирование Ядерных реакторов,,,,Дементьев,1986,,Энергоатомиздат,,137,0,Russian,262,torrents.ru tech collections 2009-11-14,,,,,,,,,,,,,0,,,,,,,0,5042627,djvu,1347771A23013C9B8136C284A7A16E59,15181a91be095ad66793498acc04c9bd,no,"D:\\!Genesis\\!!ForLG\\1903296-Сборник литературы по атомной энергетики [PDF,DJVU,DOC]\\19_Дементьев - Кинетика и регулирование ЯР.djvu",0,2000-01-01 01:00:00,2016-04-03 02:51:08,223000/1347771a23013c9b8136c284a7a16e59.jpg,,
21515707,Освоение скважин- Справочное пособие,,,,"Булатов, Качмар, Макаренкт",1999,,Недра,,467,0,Russian,,torrents.ru tech collections 2009-11-14,,,,,,,,,,,,,0,,,,,,,0,3560647,djvu,452D1BDC90C91EE3666A73345CE30B28,63ae56a4b2adb9eecfa09c630cb63b8d,no,D:\\!Genesis\\!!ForLG\\2372608-[Нефть и Газ Добыча нефти] Подборка книг по добыче и разработк\\19_Освоение скважин- Справочное пособие.djvu,0,2000-01-01 01:00:00,2016-04-03 02:51:08,223000/452d1bdc90c91ee3666a73345ce30b28.jpg,,
21515708,San Pietroburgo 1914,,,,"Angelini, Martelli, Ticozzi",1914,,La Societa Scacchistica Novarese ,,99,0,English,46,torrents.ru tech collections 2009-11-14,,,,,,,,,,,,,0,,,,,,,1,3778653,pdf,69A0485A6237BB655896CA96E11E6BC6,,,"D:\\!Genesis\\!!ForLG\\873138-Шахматы Большая Подборка шахматной литературы\\GENERAL\\1914 San Pietroburgo [Angelini, Martelli, Ticozzi] .pdf",0,2000-01-01 01:00:00,2016-04-03 02:51:08,223000/69a0485a6237bb655896ca96e11e6bc6.jpg,,
21515709,Citizenship. A Very Short Introduction,,Very Short Introductions,,Richard Bellamy,2008,,"Oxford University Press, USA",,153,0,English,183,torrents.ru tech collections 2009-11-14,,"9780192802538,0192802534",,,,,323.6,JF801 .B454 2008,,,OL17008573M,,0,,,,,,,1,3265878,pdf,1BF878F4B8D40E4BD536CF7A1C5A7A12,,,Citizenship_A Very Short Introduction_2008.pdf,0,2000-01-01 01:00:00,2016-04-03 02:51:08,223000/1bf878f4b8d40e4bd536cf7a1c5a7a12-d.jpg,,
21515710,Battle Royale 1924 New York chess tournament,,,,Steven Lopez,,,,,128,0,English,46,torrents.ru tech collections 2009-11-14,,,,,,,,,,,,,0,,,,,,,1,1262201,pdf,2E2D688294533B6FF143C94762975A1E,,,D:\\!Genesis\\!!ForLG\\873138-Шахматы Большая Подборка шахматной литературы\\GENERAL\\1924 New York - Battle Royale [Steven Lopez].pdf,0,2000-01-01 01:00:00,2016-04-03 02:51:08,223000/2e2d688294533b6ff143c94762975a1e.jpg,,
21515711,1930 Scarborough International Tournament,,,,Harry Golombek,1962,,,,52,0,English,46,torrents.ru tech collections 2009-11-14,,,,,,,,,,,,,0,,,,,,,1,2403614,pdf,7E82ABD3AA7CB3D2C9C78196C5337210,,,"D:\\!Genesis\\!!ForLG\\873138-Шахматы Большая Подборка шахматной литературы\\GENERAL\\1930 Scarborough International Tournament [Harry Golombek, 1962].PDF",0,2000-01-01 01:00:00,2016-04-03 02:51:08,223000/7e82abd3aa7cb3d2c9c78196c5337210.jpg,,
21515712,Самодельная астрономическая труба из очковых стекол,,,,Чикин,1932,,Технико-теоретическое изд,,62,0,Russian,264,torrents.ru tech collections 2009-11-14,,,,,,,,,,,,,0,,,,,,1,0,6149277,pdf,F292B61962394F16C373910BCE6C036E,,,D:\\!Genesis\\!!ForLG\\2305682-Библиотека астрономической литературы\\Телескопостроение и оптика\\1932_Самодельная астрономическая труба из очковых стекол..pdf,0,2000-01-01 01:00:00,2016-04-03 02:51:08,223000/f292b61962394f16c373910bce6c036e.jpg,,
21515713,Jeff Duntemann's Drive-By Wi-Fi Guide,,,,Jeff Duntemann,2003,,Paraglyph Press,,,0,English,99,torrents.ru tech collections 2009-11-14,,"9781932111743,1932111743",,,,,,,,,OL8807028M,,0,,,,,,,,13211716,chm,DE8DF496F34041EB033576B0F1F52DBA,,,"D:\\!Genesis\\!!ForLG\\!!!3\\1932111743 - Jeff Duntemanns Drive-By Wi-Fi Guide (Paraglyph Press, 2003).chm",0,2000-01-01 01:00:00,2016-04-03 02:51:08,223000/de8df496f34041eb033576b0f1f52dba-d.jpg,,
21515714,1938 AVRO Chess Tournament,,British Chess Magazine,,,,,,,31,0,English,46,torrents.ru tech collections 2009-11-14,,,,,,,,,,,,,0,,,,,,1,0,3805840,pdf,57C35CC75383EA9398685FAF060AF6B4,,,D:\\!Genesis\\!!ForLG\\873138-Шахматы Большая Подборка шахматной литературы\\GENERAL\\1938 AVRO Chess Tournament [British Chess Magazine].pdf,0,2000-01-01 01:00:00,2016-04-03 02:51:08,223000/57c35cc75383ea9398685faf060af6b4.jpg,,
21515715,Torneo Internazionale Zurigo,,,,David Bronstein,1953,,,,248,0,italian,46,torrents.ru tech collections 2009-11-14,,,,,,,,,,,,,0,,,,,,,1,2374701,pdf,FD0CBEF3A2421E2BDD6716B883E56A46,,,"D:\\!Genesis\\!!ForLG\\873138-Шахматы Большая Подборка шахматной литературы\\FOREIGN\\ITALIAN\\1953 Torneo Internazionale Zurigo [David Bronstein, 1953 - Italian].pdf",0,2000-01-01 01:00:00,2016-04-03 02:51:08,223000/fd0cbef3a2421e2bdd6716b883e56a46.jpg,,
21515716,1960 Tal-Botvinnik Match,,,,Mikhail Tal,1973,,Bell-Lucas,,112,0,English,46,torrents.ru tech collections 2009-11-14,,,,B0006WZNBS,,,,,,,,,0,,,,,,,0,7503220,pdf,DEEF5CFFD8DAA2DDE040CA0201811BEE,,,"D:\\!Genesis\\!!ForLG\\873138-Шахматы Большая Подборка шахматной литературы\\GENERAL\\1960 Tal-Botvinnik Match [Mikhail Tal, 1960].pdf",0,2000-01-01 01:00:00,2016-04-03 02:51:08,223000/deef5cffd8daa2dde040ca0201811bee.jpg,,
21515717,Школа шахматной игры,,,,Кобленц,1963,,,,346,0,Russian,46,torrents.ru tech collections 2009-11-14,,,,,,,,,,,,,0,,,,,,,0,4894000,djvu,0B73514218C195D60C457593C385CF74,6914b28014642515469864423b8a5cba,no,D:\\!Genesis\\!!ForLG\\1612870-Книги по шахматам Chess books\\Шахматные учебники и самоучители\\1962_Alexander.Koblents_School.of.a.chess.game.djvu,0,2000-01-01 01:00:00,2016-04-03 02:51:08,223000/0b73514218c195d60c457593c385cf74.jpg,,
21515718,Scotland. AVeryShortIntroduction,,Very Short Introductions,,Rab Houston,2009,,"Oxford University Press, USA",,193,0,English,183,torrents.ru tech collections 2009-11-14,,"9780199230792,019923079X",,,,,941.1,DA760 .H686 2008,,,OL23059711M,,0,,,,,,,1,3711172,pdf,332FE22952636F86BA144194846ACA76,,,D:\\!Genesis\\!!ForLG\\Oxford\\Oxford University - 124 Very Short Introductions\\197 Scotland.pdf,0,2000-01-01 01:00:00,2016-04-03 02:51:08,223000/332fe22952636f86ba144194846aca76-d.jpg,,
21515719,Senate Hearing on MKULTRA,,,,U.S. Senate,1977,,,,121,0,English,,torrents.ru tech collections 2009-11-14,,,,,,,,,,,,,0,,,,,,,1,1091390,pdf,9C3443042E1C941FA27475DFE69015FF,,,D:\\!Genesis\\!!ForLG\\-=  UNSORTED BOOKS  =-\\EBOOK COLLECTION (PART6) [CSI][h33t]\\1977 Senate Hearing on MKULTRA.pdf,0,2000-01-01 01:00:00,2016-04-03 02:51:08,223000/9c3443042e1c941fa27475dfe69015ff.jpg,,
21515720,Эстетика шахмат,,,,Линдер,1981,,,,241,0,Russian,46,torrents.ru tech collections 2009-11-14,,,,,,,,,,,,,0,,,,,,,0,5968397,djvu,0E705873F447CA05D82BD1CD17C53C4F,d4e8b6d86483ad6a97440a4c9c797d10,no,D:\\!Genesis\\!!ForLG\\1807893-Шахматная библиотека webchess.ru\\Шахматный калейдоскоп\\1981_Linder.djvu,0,2000-01-01 01:00:00,2016-04-03 02:51:08,223000/0e705873f447ca05d82bd1cd17c53c4f.jpg,,
21515721,Kasparov-Karpov 5th Match 1990,,,,Nicola Ciancarini,1991,,,"Lyon, New York ",49,0,English,46,torrents.ru tech collections 2009-11-14,,,,,,,,,,,,,0,,,,,,,0,273513,pdf,A285A0293EE6065C198B5E13BA9DA0D0,,,"D:\\!Genesis\\!!ForLG\\873138-Шахматы Большая Подборка шахматной литературы\\GENERAL\\1990 Kasparov-Karpov 5th Match - Lyon, New York [Nicola Ciancarini, 1991].pdf",0,2000-01-01 01:00:00,2016-04-03 02:51:08,223000/a285a0293ee6065c198b5e13ba9da0d0.jpg,,
21515722,Алгебры Группы и кольца,,,,,,,,,68,0,Russian,181,torrents.ru tech collections 2009-11-14,,,,,,,,,,,,,0,,,,,,,1,385397,pdf,3A9AA98E87954C4C5EECCC1E0B365176,,,D:\\!Genesis\\!!ForLG\\1735447-Личный сборник книг по математке\\дискретная математика\\2 Алгебры Группы и кольца.PDF,0,2000-01-01 01:00:00,2016-04-03 02:51:08,223000/3a9aa98e87954c4c5eeccc1e0b365176.jpg,,
21515723,Journal of Researches (aka Voyage of the Beagle),,,,Charles Darwin,1845,2,,,540,0,English,,torrents.ru tech collections 2009-11-14,,,,,,,,,,,,,0,,,,,,,1,22344316,pdf,F897D2344DF81C65073793B50DD56535,,,D:\\!Genesis\\!!ForLG\\25 Greatest Science Books of All Time\\2. Charles Darwin - Journal of Researches (aka Voyage of the Beagle) - 2nd edition (1845).pdf,0,2000-01-01 01:00:00,2016-04-03 02:51:08,223000/f897d2344df81c65073793b50dd56535.jpg,,
21515724,The Voyage of the Beagle,,,,Charles Darwin,2008,,MobileReference,,733,0,English,201,torrents.ru tech collections 2009-11-14,,,,B001EW521K,,,,,,,,,0,,,,,,,1,3990517,pdf,FCCF5508433203CDDE8CB135853E05DC,,,D:\\!Genesis\\!!ForLG\\25 Greatest Science Books of All Time\\2. Charles Darwin - The Voyage of the Beagle (1839).pdf,0,2000-01-01 01:00:00,2016-04-03 02:51:08,223000/fccf5508433203cdde8cb135853e05dc.jpg,,
21515725,Справочник по надежности,том 2,,,Грант-Иресон,1970,,Мир,,304,0,Russian,,torrents.ru tech collections 2009-11-14,,,,,,,,,,,,,0,,,,,,,0,6189204,djvu,B14C1231FF8DE3146412CC9C132599D9,d5536fe95bcc5ee1214fb6832332798e,no,D:\\!Genesis\\!!ForLG\\1823766-Подборка книг по Теории надежности машин\\2.djvu,0,2000-01-01 01:00:00,2016-04-03 02:51:08,223000/b14c1231ff8de3146412cc9c132599d9.jpg,,
21515726,USMLE step 1. Lecture notes. Physiology,,,,Robert B. Dunn,2008,2208 Edition,Kaplan,,517,0,English,147,torrents.ru tech collections 2009-11-14,,,,B0016N28UA,,,,,,,,,0,,,,,,1,0,17019420,pdf,B53A771EE43EB37E899A45A0B4B6D482,,,D:\\!Genesis\\!!ForLG\\853229-Лекции к экзамену USMLE  Kaplan Medical USMLE Step 1 2004-2006\\2.Physiology 2007.pdf,0,2000-01-01 01:00:00,2016-04-03 02:51:08,223000/b53a771ee43eb37e899a45a0b4b6d482.jpg,,
21515727,20 первенство СССР по шахматам,,,,,1954,,ФИС,,273,0,Russian,46,torrents.ru tech collections 2009-11-14,,,,,,,,,,,,,0,,,,,,,0,8655441,djvu,CD7EF4233D9926DE99D0B6706912A906,b58751b48bd8b9687825be7dfe2cc29a,no,D:\\!Genesis\\!!ForLG\\2004628-Шахматы. 375 книг в формате DJVU\\20 первенство СССР по шахматам.djvu,0,2000-01-01 01:00:00,2016-04-03 02:51:08,223000/cd7ef4233d9926de99d0b6706912a906.jpg,,
21515728,The Feynman Lectures on Physics 3 Volume Set) Set v,Volumes 1 - 3 ,,,Richard Phillips Feynman,1970,,Addison Wesley Longman,,1376,0,English,264,torrents.ru tech collections 2009-11-14,,"0201021153,9780201021158",,,,,,,,,OL7406290M,,0,,,,,1,1,1,63760607,pdf,793942BED131DC6D773DBE202C0DCC2D,,,D:\\!Genesis\\!!ForLG\\25 Greatest Science Books of All Time\\20. Feynman et al. - The Feynman Lectures on Physics Volumes 1 - 3 (1963).pdf,0,2000-01-01 01:00:00,2016-04-03 02:51:08,223000/793942bed131dc6d773dbe202c0dcc2d-d.gif,,
21515729,Группово-выборочные рубки,,,,,,,,,17,0,Russian,30,torrents.ru tech collections 2009-11-14,,,,,,,,,,,,,0,,,,,,,0,1020904,pdf,F397595EB261271CD841FD0FB74F7F48,,,D:\\!Genesis\\!!ForLG\\1355119-(Лесоводство) Коллекция книг и статьи о лесе конца 19 - пер.по\\20.pdf,0,2000-01-01 01:00:00,2016-04-03 02:51:08,223000/f397595eb261271cd841fd0fb74f7f48.jpg,,
21515730,Повышение эффективности разработки нефтяных месторождений на основе ограничения движения вод в пластах,,,,Газизов,1999,,Недра,,279,0,Russian,38,torrents.ru tech collections 2009-11-14,,,,,,,,,,,,,0,,,,,,,0,2068163,djvu,85ED82955CE42C793E631DD222B03AD4,,,D:\\!Genesis\\!!ForLG\\2372608-[Нефть и Газ Добыча нефти] Подборка книг по добыче и разработк\\20_Повышение эффективности разработки нефтяных месторождений на основе ограничения движения вод в.djv,0,2000-01-01 01:00:00,2016-04-03 02:51:08,223000/85ed82955ce42c793e631dd222b03ad4.jpg,,
21515731,A Collection Of 200 Chess Problems ,,,,"Francis Healey, Percy Healey",2009,,"Kessinger Publishing, LLC",,81,0,English,46,torrents.ru tech collections 2009-11-14,,1120231124,,,,,,,,,,,0,,,,,,,1,122253,pdf,B41F3028A0C80F1E7A1F7A89258DDAC6,,,"D:\\!Genesis\\!!ForLG\\873138-Шахматы Большая Подборка шахматной литературы\\PROBLEMS\\200 Chess Problems [Frank Healey, 1866].pdf",0,2000-01-01 01:00:00,2016-04-03 02:51:08,223000/b41f3028a0c80f1e7a1f7a89258ddac6-d.jpg,,
21515732,200 Perplexing Chess Puzzles,,,,Martin Greif,1997,,,,73,0,English,46,torrents.ru tech collections 2009-11-14,,,,,,,,,,,,,0,,,,,,1,1,7151332,pdf,6312402D9B24C0E09C9FA271958FE575,,,"D:\\!Genesis\\!!ForLG\\873138-Шахматы Большая Подборка шахматной литературы\\PROBLEMS\\200 Perplexing Chess Puzzles [Martin Greif, 1997].pdf",0,2000-01-01 01:00:00,2016-04-03 02:51:08,223000/6312402d9b24c0e09c9fa271958fe575.jpg,,
21515733,200 фотографий штор,Часть 2,,,,,,,,201,0,Russian,63,torrents.ru tech collections 2009-11-14,,,,,,,,,,,,,0,,,,,,,0,16245557,pdf,C84CB519E5AE55584A47D50E2F555568,,,"D:\\!Genesis\\!!ForLG\\!!!\\Дизайн, элементы дизайна\\200 фотографий штор_Часть 2.pdf",0,2000-01-01 01:00:00,2016-04-03 02:51:08,223000/c84cb519e5ae55584a47d50e2f555568.jpg,,
21515734,2000 Sarajevo Tournament Book (first 5 rounds only ),,,,,2000,,www.kasparovchess.com,,25,0,English,46,torrents.ru tech collections 2009-11-14,,,,,,,,,,,,,0,,,,,,,1,139482,pdf,085DA92F15EB2234D68DB0FEA2E71EFD,,,D:\\!Genesis\\!!ForLG\\873138-Шахматы Большая Подборка шахматной литературы\\GENERAL\\2000 Sarajevo Tournament Book (first 5 rounds only ) [www.kasparovchess.com].pdf,0,2000-01-01 01:00:00,2016-04-03 02:51:08,223000/085da92f15eb2234d68db0fea2e71efd.jpg,,
21515735,2001 Astana Tournament Book,,,,,2001,,www.kasparovchess.com,,52,0,English,46,torrents.ru tech collections 2009-11-14,,,,,,,,,,,,,0,,,,,,1,1,357785,pdf,5322D4DD28822702E94619218E372F7E,,,D:\\!Genesis\\!!ForLG\\873138-Шахматы Большая Подборка шахматной литературы\\GENERAL\\2001 Astana Tournament Book [www.kasparovchess.com].pdf,0,2000-01-01 01:00:00,2016-04-03 02:51:08,223000/5322d4dd28822702e94619218e372f7e.jpg,,
21515736,2001 Corus Tournament Book,,,,,2001,,www.kasparovchess.com,,39,0,English,46,torrents.ru tech collections 2009-11-14,,,,,,,,,,,,,0,,,,,,1,1,514476,pdf,AE7C817A6ECA80CE3686310CB0D36252,,,D:\\!Genesis\\!!ForLG\\873138-Шахматы Большая Подборка шахматной литературы\\GENERAL\\2001 Corus Tournament Book [www.kasparovchess.com].pdf,0,2000-01-01 01:00:00,2016-04-03 02:51:08,223000/ae7c817a6eca80ce3686310cb0d36252.jpg,,
21515737,2001 Dortmund Tournament Book,,,,,2001,,www.kasparovchess.com,,57,0,English,46,torrents.ru tech collections 2009-11-14,,,,,,,,,,,,,0,,,,,,1,1,920227,pdf,F3DA30CA3C2D9B0F738A0E6A1CFFAE22,,,D:\\!Genesis\\!!ForLG\\873138-Шахматы Большая Подборка шахматной литературы\\GENERAL\\2001 Dortmund Tournament Book [www.kasparovchess.com].pdf,0,2000-01-01 01:00:00,2016-04-03 02:51:08,223000/f3da30ca3c2d9b0f738a0e6a1cffae22.jpg,,
21515738,2001 Linares,,,,,2001,,www.kasparovchess.com,,46,0,English,46,torrents.ru tech collections 2009-11-14,,,,,,,,,,,,,0,,,,,,1,1,395306,pdf,8E8C779B1708EF2DE64B4B002E9A6D99,,,D:\\!Genesis\\!!ForLG\\873138-Шахматы Большая Подборка шахматной литературы\\GENERAL\\2001 Linares [www.kasparovchess.com].pdf,0,2000-01-01 01:00:00,2016-04-03 02:51:08,223000/8e8c779b1708ef2de64b4b002e9a6d99.jpg,,
21515739,Odyssey Essentials Japanese,,,,Kanji,2001,,,,,0,English,314,torrents.ru tech collections 2009-11-14,,,,,,,,,,,,broken,0,,,,,,,,230129664,iso,71E9310EEA460DB315EA529B32F63BE6,,ban,D:\\!Genesis\\!!ForLG\\Language Learning\\2001.Kanji.Odyssey-Essentials-Japanese-Kanji.iso,0,2000-01-01 01:00:00,2016-04-03 02:51:08,,,
21515740,BusinessWeek Guide to the Best Business Schools,,"Business Week Guide to the Best Business Schools, 7th ed",,"Betsy Gruber, Margaret Littman, Jennifer Merritt",2001,7th,McGraw-Hill Companies,,520,0,English,1,torrents.ru tech collections 2009-11-14,,"9780071378246,0071378243",,,,,,,10.1036/0071382410,,OL18163221M,,0,,,,,,,1,6669487,pdf,DB195F19EF9210E640695A14CBCD390A,,,D:\\!Genesis\\!!ForLG\\!!!3\\2001-[McGraw Hill]-BusinessWeek Guide to the Best Business Schools Ebook-FLY.pdf,0,2000-01-01 01:00:00,2016-04-03 02:51:08,223000/db195f19ef9210e640695a14cbcd390a-d.jpg,,
21515741,All of Statistics A Concise Course in Statistical Inference,,,,Larry Wasserman,2004,,Springer,,458,0,English,131,torrents.ru tech collections 2009-11-14,0,,,B003ZOSHTO,,,,,,,,,0,,,,,,,1,47124192,pdf,B7DE66EBC9BCF050413AC7638380F22C,,,D:/!Genesis/!!ForLG/!!!3/2004 All of Statistics A Concise Course in Statistical Inference - Springer.pdf,0,2000-01-01 01:00:00,2016-04-03 02:51:08,223000/b7de66ebc9bcf050413ac7638380f22c.jpg,,
21515742,2004 Russian Superfinal Chess Championship Report,,,,,2004,,www.chesscafe.com,,66,0,English,37,torrents.ru tech collections 2009-11-14,,,,,,,,,,,,,0,,,,,,,1,3135699,pdf,369AD914A7AA18573F62A5B2718D2445,,,D:\\!Genesis\\!!ForLG\\873138-Шахматы Большая Подборка шахматной литературы\\GENERAL\\2004 Russian Superfinal Chess Championship Report [www.chesscafe.com].pdf,0,2000-01-01 01:00:00,2016-04-03 02:51:08,223000/369ad914a7aa18573f62a5b2718d2445.jpg,,
21515743,2005 US Chess Championship (Reportage),,,,,2005,,,,104,0,English,46,torrents.ru tech collections 2009-11-14,,,,,,,,,,,,,0,,,,,,,1,3634416,pdf,EBADE8F08D8152D750310CD7F19B4C07,,,D:\\!Genesis\\!!ForLG\\873138-Шахматы Большая Подборка шахматной литературы\\GENERAL\\2005 US Chess Championship (Reportage).pdf,0,2000-01-01 01:00:00,2016-04-03 02:51:08,223000/ebade8f08d8152d750310cd7f19b4c07.jpg,,
21515744,World Team Chess Championship Israel Report,,,,Alon Greenfeld,2005,,,,96,0,English,46,torrents.ru tech collections 2009-11-14,,,,,,,,,,,,,0,,,,,,1,1,5247317,pdf,B8A90120D2A293FFB01867A5CFE41D7D,,,"D:\\!Genesis\\!!ForLG\\873138-Шахматы Большая Подборка шахматной литературы\\GENERAL\\2005 World Team Chess Championship Israel Report [Alon Greenfeld, 2005].pdf",0,2000-01-01 01:00:00,2016-04-03 02:51:08,223000/b8a90120d2a293ffb01867a5cfe41d7d.jpg,,
21515745,Мои великие предшественники,том 1,,,"Каспаров Г., Плисецкий Д.",2005,,,,562,0,Russian,46,torrents.ru tech collections 2009-11-14,,,,,,,,,,,,,0,,,,,,,0,20557864,pdf,CD1D579AD320BA0048315357F6C1B6CD,,,D:\\!Genesis\\!!ForLG\\242275-Литература о шахматах\\ru-board\\2005_Kasparov_MGP_Vol_1_RUS.pdf,0,2000-01-01 01:00:00,2016-04-03 02:51:08,223000/cd1d579ad320ba0048315357f6c1b6cd.jpg,,
21515746,Мои великие предшественники,том 2,,,"Каспаров Г., Плисецкий Д.",2005,,,,529,0,Russian,46,torrents.ru tech collections 2009-11-14,,,,,,,,,,,,,0,,,,,,,0,5086977,djvu,5764C7DCE1BDBEBE42C72DBDD418F64C,09144501e780d4e9945d584f9c9d6135,no,D:\\!Genesis\\!!ForLG\\242275-Литература о шахматах\\ru-board\\2005_Kasparov_MGP_Vol_2_RUS.djvu,0,2000-01-01 01:00:00,2016-04-03 02:51:08,223000/5764c7dce1bdbebe42c72dbdd418f64c.jpg,,
21515747,Мои великие предшественники,том 3,,,"Каспаров Г., Плисецкий Д.",2005,,,,385,0,Russian,46,torrents.ru tech collections 2009-11-14,,,,,,,,,,,,,0,,,,,,,0,6322948,djvu,4D1A8C807F39EA67B47572138841548E,ce19313578982208165b663b50d78934,no,D:\\!Genesis\\!!ForLG\\242275-Литература о шахматах\\ru-board\\2005_Kasparov_MGP_Vol_3_RUS.djvu,0,2000-01-01 01:00:00,2016-04-03 02:51:08,223000/4d1a8c807f39ea67b47572138841548e.jpg,,
21515748,Мои великие предшественники,том 3,,,"Каспаров Г., Плисецкий Д.",2005,,,,434,0,Russian,46,torrents.ru tech collections 2009-11-14,,,,,,,,,,,,,0,,,,,,,0,16975830,pdf,22F9D2F7FA7B73AA23C0C97E841F6BCA,,,D:\\!Genesis\\!!ForLG\\242275-Литература о шахматах\\ru-board\\2005_Kasparov_MGP_Vol_3_RUS.pdf,0,2000-01-01 01:00:00,2016-04-03 02:51:08,223000/22f9d2f7fa7b73aa23c0c97e841f6bca.jpg,,
21515749,Lincoln. A Very Short Introduction,,Very Short Introductions,,Allen C. Guelzo,2009,,"Oxford University Press, USA",,161,0,English,183,torrents.ru tech collections 2009-11-14,,"9780195367805,0195367804",,,,,"973.7092,B",E457.2 .G874 2009,,,OL22560450M,,0,,,,,,,1,1945472,pdf,896571C77EB649CA24DC05B25E1011D7,,,History - Lincoln - A Very Short Introduction - (Allen C. Guelzo) Oxford University Press 2009.pdf,0,2000-01-01 01:00:00,2016-04-03 02:51:08,223000/896571c77eb649ca24dc05b25e1011d7-d.jpg,,
21515750,Аэродинамика. Избранные темы в их историческом развитии,,,,Т.Карман,2001,,РХД,,209,0,Russian,64,torrents.ru tech collections 2009-11-14,,,,,,,,,,,,,0,,,,,,,0,21548464,pdf,7A245368AC30E749626F347824746F25,,,"D:\\!Genesis\\!!ForLG\\513911-РХД (RCD) - CD Гидроаэромеханика, Электронная библиотека РХД\\208 Т.Карман. Аэродинамика. Избранные темы в их историческом развитии. 208 стр. Ижевск- НИЦ РХД, 2001.pdf",0,2000-01-01 01:00:00,2016-04-03 02:51:08,223000/7a245368ac30e749626f347824746f25.jpg,,
21515751,21 первенство СССР по шахматам. Сборник партий,,,,,1955,,ФИС,,409,0,Russian,46,torrents.ru tech collections 2009-11-14,,,,,,,,,,,,,0,,,,,,,0,8107576,djvu,55DBDAFC414255F684256B3F1BC9F7A6,f1a582df7f3c205d9237855cf1bc6371,no,D:\\!Genesis\\!!ForLG\\2004628-Шахматы. 375 книг в формате DJVU\\21 первенство СССР по шахматам.djvu,0,2000-01-01 01:00:00,2016-04-03 02:51:08,223000/55dbdafc414255f684256b3f1bc9f7a6.jpg,,
21515752,Избранные труды в 3 тт,т1,,,Пуанкаре А.,1971,,Наука,,773,0,Russian,275,torrents.ru tech collections 2009-11-14,,,,,,,,,,,,,0,,,,,,,0,31150863,pdf,2E255D8D20FE6A05C1BEB7B486737024,,,"D:\\!Genesis\\!!ForLG\\1624002-Хаос, солитоны, фракталы\\21 Пуанкаре А. Избранные труды т.1.pdf",0,2000-01-01 01:00:00,2016-04-03 02:51:08,223000/2e255d8d20fe6a05c1beb7b486737024.jpg,,
21515753,Богата ли Сибирь ценными лесами,,,,,,,,,15,0,Russian,30,torrents.ru tech collections 2009-11-14,,,,,,,,,,,,,0,,,,,,,0,1017549,pdf,0970DEDFC19FDD97CE2AEF63D48AE972,,,D:\\!Genesis\\!!ForLG\\1355119-(Лесоводство) Коллекция книг и статьи о лесе конца 19 - пер.по\\21.pdf,0,2000-01-01 01:00:00,2016-04-03 02:51:08,223000/0970dedfc19fdd97ce2aef63d48ae972.jpg,,
21515754,Канальный ядерный энергетический реактор,,,,"Доллежаль, Емельянов",1980,,Атомиздат,,208,0,Russian,262,torrents.ru tech collections 2009-11-14,0,,,,,,,,,,,,0,,,,,,,0,5483641,djvu,C0EEA94730334340888B63FC3CD53F47,074565e74ff270b39ffca4c6b4bbb519,no,"D:!Genesis!!ForLG1903296-Сборник литературы по атомной энергетики [PDF,DJVU,DOC]21_Доллежаль_Емильянов - Канальный ядерный энергетический реактор.djvu",0,2000-01-01 01:00:00,2016-04-03 02:51:08,223000/c0eea94730334340888b63fc3cd53f47.jpg,,
21515755,22 первенство СССР по шахматам,,,,,1956,,ФИС,,273,0,Russian,46,torrents.ru tech collections 2009-11-14,,,,,,,,,,,,,0,,,,,,,0,5566539,djvu,D836DEC26CD3F0C9058058D9E3BA63A5,0669ddc1a0042775949298817c910409,no,D:\\!Genesis\\!!ForLG\\2004628-Шахматы. 375 книг в формате DJVU\\22 первенство СССР по шахматам.djvu,0,2000-01-01 01:00:00,2016-04-03 02:51:08,223000/d836dec26cd3f0c9058058d9e3ba63a5.jpg,,
21515756,Избранные труды в 3х тт,т2,,,Пуанкаре А.,1972,,Наука,,359,0,Russian,275,torrents.ru tech collections 2009-11-14,,,,,,,,,,,,,0,,,,,,,0,13862847,pdf,F83EBF1F0172E2873C0264DAC0E3FE76,,,"D:\\!Genesis\\!!ForLG\\1624002-Хаос, солитоны, фракталы\\22 Пуанкаре А. Избранные труды т.2.pdf",0,2000-01-01 01:00:00,2016-04-03 02:51:08,223000/f83ebf1f0172e2873c0264dac0e3fe76.jpg,,
21515757,Критические параметры систем с делящимися веществами и ядерная безопасность,,,,Дубовский и др,1966,,Атомиздат,,57,0,Russian,262,torrents.ru tech collections 2009-11-14,,,,,,,,,,,,,0,,,,,,,0,2159412,djvu,72CF87254B6F6092BB7FB5DC019EEF17,4b19bea9ada46b97f623ac2a6c5a3ad8,no,"D:\\!Genesis\\!!ForLG\\1903296-Сборник литературы по атомной энергетики [PDF,DJVU,DOC]\\22_Дубовский и др - Критические параметры систем с делящимися веществами и ядерная безопасность.djvu",0,2000-01-01 01:00:00,2016-04-03 02:51:08,223000/72cf87254b6f6092bb7fb5dc019eef17.jpg,,
21515758,Гидро- и аэромеханика,том 1,,,"Л.Прандтль, О.Титьенс. ",1933,,Гос. изд. технико-теоретической литературы,"М., Л.",224,0,Russian,264,torrents.ru tech collections 2009-11-14,,,,,,,,,,,,,0,,,,,,,0,16516110,pdf,9AA9C9209CB376EBD4C53A4697EDCC0A,,,"D:\\!Genesis\\!!ForLG\\513911-РХД (RCD) - CD Гидроаэромеханика, Электронная библиотека РХД\\224 Л.Прандтль, О.Титьенс. Гидро- и аэромеханика. т.1. 224 стр. М., Л.- Гос. изд. технико-теоретической литературы , 1933.pdf",0,2000-01-01 01:00:00,2016-04-03 02:51:08,223000/9aa9c9209cb376ebd4c53a4697edcc0a.jpg,,
21515759,Boats You Can Build,,,,The Editors of (compilers) Popular Mechanics Magazine,1950,,Popular Mechanics,,190,0,English,90,torrents.ru tech collections 2009-11-14,,,,B000F8TZTE,,,,,,,,,0,,,,,,,0,199576368,pdf,5C21F14BDBF94A8B135F4F1DDB4D9AD2,,,D:\\!Genesis\\!!ForLG\\2157878-Boat Builders E-Book Collection v2.0\\23 Boats You Can Build - Popular Mechanics - 1950.pdf,0,2000-01-01 01:00:00,2016-04-03 02:51:08,223000/5c21f14bdbf94a8b135f4f1ddb4d9ad2.jpg,,
21515760,UNDER A LUCKY STAR. ,,,,Roy Chapman Andrews.,1945,Presumed 1st Edition & Printing,Blue Ribbon Books,,298,0,English,,torrents.ru tech collections 2009-11-14,,,,B000IZGHPE,,,,,,,,,0,,,,,1,,0,6830881,pdf,C1CA5283AD7DA0BAA07C77B91AFC411B,,,D:\\!Genesis\\!!ForLG\\25 Greatest Science Books of All Time\\23. Roy Chapman Andrews - Under a Lucky Star (1943)(1945).pdf,0,2000-01-01 01:00:00,2016-04-03 02:51:08,223000/c1ca5283ad7da0baa07c77b91afc411b.jpg,,
21515761,Quantum Mechanics,vol.1,,,C. Cohen-Tannoudji et al. ,2006,,,,887,0,English,269,torrents.ru tech collections 2009-11-14,,,,,,,,,,,,,0,,,,,,,0,98626807,pdf,C711AF962F3E1D4F651EE96A93D80330,,,"D:\\!Genesis\\!!ForLG\\1295551-Quantum &amp; Computational Chemistry e-Books\\24 C. Cohen-Tannoudji et al. - Quantum Mechanics, vol.1 (2006).pdf",0,2000-01-01 01:00:00,2016-04-03 02:51:08,223000/c711af962f3e1d4f651ee96a93d80330.jpg,,
21515762,УПРОЩЁННЫЙ КОМПЛЕКС 24 формы Ян,,,,,,,,,,0,Russian,160,torrents.ru tech collections 2009-11-14,,,,,,,,,,,,,0,,,,,,,,500184,chm,D4BA06E98B4515C648278C7B040E81AA,,,D:\\!Genesis\\!!ForLG\\921601-Книги по Тайцзи и Цигун\\CHM\\24 формы Ян.chm,0,2000-01-01 01:00:00,2016-04-03 02:51:08,223000/D4BA06E98B4515C648278C7B040E81AA-g.jpg,,
21515763,Micrographia Some Physiological Descriptions of Minute Bodies Made by Magnifying Glasses with Observations and Inquiries Thereupon ,,,,Robert Hooke,2006,,Hard Press,,284,0,English,130,torrents.ru tech collections 2009-11-14,,"1406914827,9781406914825",,B003YJF6D0,,,,,,,OL11683596M,,0,,,,,,1,1,14598878,pdf,15BFB6D9B8825226F27C5ECC6449F97B,,,D:\\!Genesis\\!!ForLG\\25 Greatest Science Books of All Time\\24. Robert Hooke - Micrographia (1665).pdf,0,2000-01-01 01:00:00,2016-04-03 02:51:08,223000/15bfb6d9b8825226f27c5ecc6449f97b-d.jpg,,
21515764,Разработка малопродуктивных нефтяных месторождений,,,,"Лысенк, Грайфер",2001,,Недра,,284,0,Russian,38,torrents.ru tech collections 2009-11-14,,,,,,,,,,,,,0,,,,,,,0,1225288,djvu,451ED9FBE87ED61AF5113893FFC3BEE8,a02a1b2865cebbe0db25b2f89ea2a08c,no,D:\\!Genesis\\!!ForLG\\2372608-[Нефть и Газ Добыча нефти] Подборка книг по добыче и разработк\\24_Разработка малопродуктивных нефтяных месторождений.djvu,0,2000-01-01 01:00:00,2016-04-03 02:51:08,223000/451ed9fbe87ed61af5113893ffc3bee8.jpg,,
21515765,Чьжун Юань Цигун. 2 ступени,,,,"Минтан, Мартынова",,,,,356,0,Russian,160,torrents.ru tech collections 2009-11-14,,,,,,,,,,,,,0,,,,,,,0,2783811,djvu,A14132B3A0E767988E7C7E8F1FA84F68,,,D:\\!Genesis\\!!ForLG\\921601-Книги по Тайцзи и Цигун\\DJVU\\24_Сюи_Минтан_Цигун_2ступени.djvu,0,2000-01-01 01:00:00,2016-04-03 02:51:08,223000/a14132b3a0e767988e7c7e8f1fa84f68.jpg,,
21515766,Гидродинамика. Методы. Факты. Подобие,,,,Г.Биркгоф,1963,,Иностранная литература,,245,0,Russian,264,torrents.ru tech collections 2009-11-14,,,,,,,,,,,,,0,,,,,,,0,11413860,pdf,E10BDDE3B984AE62055EB7C5EEF41CE9,,,"D:\\!Genesis\\!!ForLG\\513911-РХД (RCD) - CD Гидроаэромеханика, Электронная библиотека РХД\\246 Г.Биркгоф. Гидродинамика. Методы. Факты. Подобие. 246 стр. М.- Иностранная литература, 1963.pdf",0,2000-01-01 01:00:00,2016-04-03 02:51:08,223000/e10bdde3b984ae62055eb7c5eef41ce9.jpg,,
21515767,25 Ways To Suppress Truth - The Rules of Disinformation,,,,Michael Sweeney,,,,,14,0,English,,torrents.ru tech collections 2009-11-14,,,,,,,,,,,,,0,,,,,,,1,81107,pdf,463767E915B754516AEE1A289393EBAD,,,D:\\!Genesis\\!!ForLG\\-=  UNSORTED BOOKS  =-\\EBOOK COLLECTION (PART6) [CSI][h33t]\\25 Ways To Suppress Truth - The Rules of Disinformation - Michael Sweeney.pdf,0,2000-01-01 01:00:00,2016-04-03 02:51:08,223000/463767e915b754516aee1a289393ebad.jpg,,
21515768,Gaia: A New Look at Life on Earth,,,,James Lovelock,2000,,"Oxford University Press, USA",,176,0,English,38,torrents.ru tech collections 2009-11-14,0,"0192862189,9780192862181",,,,,,,,,,,0,,,,,,,0,13979206,pdf,1AB697B895D3D2557DFC11D3DD2ED393,,,D:/!Genesis/!!ForLG/25 Greatest Science Books of All Time/25. James Lovelock - Gaia - A New Look at Life on Earth (1979)(2000).pdf,0,2000-01-01 01:00:00,2016-04-03 02:51:08,223000/1ab697b895d3d2557dfc11d3dd2ed393-d.jpg,,
21515769,256 Problemes Choisis,,,,Johan Scheel,2001,,,,146,0,French,46,torrents.ru tech collections 2009-11-14,,,,,,,,,,,,,0,,,,,,,0,402440,pdf,4676754A792F77AE8BCBB92FC3DA6018,,,"D:\\!Genesis\\!!ForLG\\873138-Шахматы Большая Подборка шахматной литературы\\FOREIGN\\FRENCH\\256 Problemes Choisis [Johan Scheel, 2001 - French].pdf",0,2000-01-01 01:00:00,2016-04-03 02:51:08,223000/4676754a792f77ae8bcbb92fc3da6018.jpg,,
21515770,Математические основы классической механики жидкости,,,,Дж.Серрин,1963,,Изд. иностранной литературы,,257,0,Russian,137,torrents.ru tech collections 2009-11-14,,,,,,,,,,,,,0,,,,,,,0,19226739,pdf,D735D64100AE2966EF41677809BE771C,,,"D:\\!Genesis\\!!ForLG\\513911-РХД (RCD) - CD Гидроаэромеханика, Электронная библиотека РХД\\256 Дж.Серрин. Математические основы классической механики жидкости. 256 стр. М.- Изд. иностранной литературы, 1963.pdf",0,2000-01-01 01:00:00,2016-04-03 02:51:08,223000/d735d64100ae2966ef41677809be771c.jpg,,
21515771,Introduction to Quantum Mechanics,,,,"Linus Pauling, E. Bright Wilson Jr.",1935,,,,479,0,English,269,torrents.ru tech collections 2009-11-14,,,,,,,,,,,,,0,,,,,,,1,18441276,pdf,82DA2F8BBA71DD37BDA23BC3FB2037FB,,,"D:\\!Genesis\\!!ForLG\\1295551-Quantum &amp; Computational Chemistry e-Books\\26 Linus Pauling, E. Bright Wilson Jr. - Introduction to Quantum Mechanics (1935).pdf",0,2000-01-01 01:00:00,2016-04-03 02:51:08,223000/82da2f8bba71dd37bda23bc3fb2037fb.jpg,,
21515772,"Фракталы,хаос, степенные законы",,,,М.Шредер,2001,,РХД,,529,0,Russian,275,torrents.ru tech collections 2009-11-14,,,,,,,,,,,,,0,,,,,,,0,44846252,pdf,3317ECCEC4DCA771AB59AED549CC788D,,,"D:\\!Genesis\\!!ForLG\\1624002-Хаос, солитоны, фракталы\\26 М.Шредер Фракталы,хаос, степенные законы.pdf",0,2000-01-01 01:00:00,2016-04-03 02:51:08,223000/3317eccec4dca771ab59aed549cc788d.jpg,,
21515773,26 Справочник по добыче нефти,,,,"Андреев, Уразаков",2000,,Недра,,371,0,Russian,225,torrents.ru tech collections 2009-11-14,,,,,,,,,,,,,0,,,,,,,0,2683990,djvu,1AF896D944A885D585BDD927D32998C6,7ac4b85da469b428c292653fc2569191,no,D:\\!Genesis\\!!ForLG\\2372608-[Нефть и Газ Добыча нефти] Подборка книг по добыче и разработк\\26_Справочник по добыче нефти.djvu,0,2000-01-01 01:00:00,2016-04-03 02:51:08,223000/1af896d944a885d585bdd927d32998c6.jpg,,
21515774,Теория вихрей,,,,Г.Вилля,1936,,ОНТИ - Глав. ред. общетехнической литературы,,267,0,Russian,264,torrents.ru tech collections 2009-11-14,,,,,,,,,,,,,0,,,,,,,0,14276300,pdf,1D1B660362C01D1A8E90B809D4D757FC,,,"D:\\!Genesis\\!!ForLG\\513911-РХД (RCD) - CD Гидроаэромеханика, Электронная библиотека РХД\\266 Г.Вилля. Теория вихрей. 266 стр. М., Л.- ОНТИ - Глав. ред. общетехнической литературы, 1936.pdf",0,2000-01-01 01:00:00,2016-04-03 02:51:08,223000/1d1b660362c01d1a8e90b809d4d757fc.jpg,,
21515775,The Fundamental Principles of Quantum Mechanics,,International Series in Physics,,Edwin C. Kemble,1937,1ST,McGraw-Hill,,611,0,English,269,torrents.ru tech collections 2009-11-14,,,,B000EVKH26,,,,,,,,,0,,,,,,,1,18264270,djvu,D8EF7DAB112D7614E6D9197E81F9FA79,,,D:\\!Genesis\\!!ForLG\\1295551-Quantum &amp; Computational Chemistry e-Books\\27 Edwin C. Kemble - The Fundamental Principles of Quantum Mechanics (1937).djvu,0,2000-01-01 01:00:00,2016-04-03 02:51:08,223000/d8ef7dab112d7614e6d9197e81f9fa79.jpg,,
21515776,Солитоны и нелинейные волновые уравнения,,,,"Додд Р., Эйлбек, Гиббон, Моррис",1988,,Мир,,695,0,Russian,113,torrents.ru tech collections 2009-11-14,,,,,,,,,,,,,0,,,,,,,0,25788271,pdf,6863AA249888B6EF4586D32B52ABF205,,,"D:\\!Genesis\\!!ForLG\\1624002-Хаос, солитоны, фракталы\\28 Додд Р. и др. Солитоны и нелинейные волновые уравнения.pdf",0,2000-01-01 01:00:00,2016-04-03 02:51:08,223000/6863aa249888b6ef4586d32b52abf205.jpg,,
21515777,"Китайская картина мира. Язык, культура ментальность",,,,Аоушан,2004,,Языки славянской культуры,,232,0,Russian,314,torrents.ru tech collections 2009-11-14,,,,,,,,,,,,,0,,,,,,,0,1237591,djvu,657E4B565BF5E4DE0D9CB4F002918215,53dba76df7b6a2dc3b6e68793ec5106e,no,D:\\!Genesis\\!!ForLG\\921601-Книги по Тайцзи и Цигун\\DJVU\\28_Китайская картина мира.djvu,0,2000-01-01 01:00:00,2016-04-03 02:51:08,223000/657e4b565bf5e4de0d9cb4f002918215.jpg,,
21515778,Отрывные течения,том 2,,,П.Чжен,1973,,Мир,,281,0,Russian,264,torrents.ru tech collections 2009-11-14,,,,,,,,,,,,,0,,,,,,,0,11179358,pdf,9FDE8B358DBAC53477B0BB70B9A20564,,,"D:\\!Genesis\\!!ForLG\\513911-РХД (RCD) - CD Гидроаэромеханика, Электронная библиотека РХД\\280 П.Чжен. Отрывные течения. т.2. 280 стр. М.- Мир, 1973.pdf",0,2000-01-01 01:00:00,2016-04-03 02:51:08,223000/9fde8b358dbac53477b0bb70b9a20564.jpg,,
21515779,Лесохозяйственные письма из северных окраин,,,,,,,,,21,0,Russian,30,torrents.ru tech collections 2009-11-14,,,,,,,,,,,,,0,,,,,,,0,1251097,pdf,F69DAA3E031930BA8D78269D63331028,,,D:\\!Genesis\\!!ForLG\\1355119-(Лесоводство) Коллекция книг и статьи о лесе конца 19 - пер.по\\29.pdf,0,2000-01-01 01:00:00,2016-04-03 02:51:08,223000/f69daa3e031930ba8d78269d63331028.jpg,,
21515780,Арматура атомных электростанций: Справочное пособие,,,,"Д.Ф.Гуревич, В.В.Ширяев, И.X.Пайкин.",1982,,Энергоиздат,М.,312,0,Russian,250,torrents.ru tech collections 2009-11-14,,,,,,,,,,,,"Scan, Djvuing: ???; Scan, OCR, SpellCheck, Formatting Doc: Хас, 2009",0,,,,,,,0,8846954,djvu,0DE75B3A833F3A89C96C03543D2004CE,ed1fe2a3625caf96e3c251a6b5fe1cf9,no,"D:\\!Genesis\\!!ForLG\\1903296-Сборник литературы по атомной энергетики [PDF,DJVU,DOC]\\29_Гуревич_Ширяев_Пайкин - Арматура атомных электростанций .djvu",0,2000-01-01 01:00:00,2016-04-03 02:51:08,223000/0de75b3a833f3a89c96c03543d2004ce-d.jpg,,
21515781,Лекции по гидроаэромеханике,,,,С.В.Валландер,1978,,"Изд. ЛГУ, ",Л.,298,0,Russian,183,torrents.ru tech collections 2009-11-14,,,,,,,,,,,,,0,,,,,,,0,10636098,pdf,20983C1511080F767A7CFEDC14350919,,,"D:\\!Genesis\\!!ForLG\\513911-РХД (RCD) - CD Гидроаэромеханика, Электронная библиотека РХД\\296 С.В.Валландер. Лекции по гидроаэромеханике. 296 стр. Л.- Изд. ЛГУ, 1978.pdf",0,2000-01-01 01:00:00,2016-04-03 02:51:08,223000/20983c1511080f767a7cfedc14350919.jpg,,
21515782,Результаты испытаний тепловоза 2ТЭ121,,,,Добрынина,,,,,106,0,Russian,242,torrents.ru tech collections 2009-11-14,,,,,,,,,,,,,0,,,,,,,0,4412912,djvu,ED449DBE36DB3BFD98DA4F4AD99C3FF6,1142df583572e5da1ea5f30b3f60634d,no,D:\\!Genesis\\!!ForLG\\252690-Сборник книг по железнодорожному транспорту\\2ТЭ121-результаты испытаний.djvu,0,2000-01-01 01:00:00,2016-04-03 02:51:08,223000/ed449dbe36db3bfd98da4f4ad99c3ff6.jpg,,
21515783,3 Полукольца и булевы множества,,,,,,,,,53,0,Russian,113,torrents.ru tech collections 2009-11-14,,,,,,,,,,,,,0,,,,,,,1,447035,pdf,389DDF54ABA878552C65A06EE5B16F8D,,,D:\\!Genesis\\!!ForLG\\1735447-Личный сборник книг по математке\\дискретная математика\\3 Полукольца и булевы множества.PDF,0,2000-01-01 01:00:00,2016-04-03 02:51:08,223000/389ddf54aba878552c65a06ee5b16f8d.jpg,,
21515784,The Mathematical Principles of Natural Philosophy (1687),,,,"Isaac Newton, Translated by Motte",1846,,,,594,0,English,113,torrents.ru tech collections 2009-11-14,,,,,,,,,,,,,0,,,,,,,1,40561274,pdf,5C820FEAE3E2B49093EC1CC60305FFB7,,,D:\\!Genesis\\!!ForLG\\25 Greatest Science Books of All Time\\3. Isaac Newton - The Mathematical Principles of Natural Philosophy (1687) - Translated by Motte (1846).pdf,0,2000-01-01 01:00:00,2016-04-03 02:51:08,223000/5c820feae3e2b49093ec1cc60305ffb7.jpg,,
21515785,Справочник по надежности,том 3,,,Грант-Иресон,1970,,Мир,,378,0,Russian,,torrents.ru tech collections 2009-11-14,,,,,,,,,,,,,0,,,,,,,0,5528758,djvu,A3561029453754166E0643EE45447B7B,bf89c99ccc55a21945cd3d9172a62ee5,no,D:\\!Genesis\\!!ForLG\\1823766-Подборка книг по Теории надежности машин\\3.djvu,0,2000-01-01 01:00:00,2016-04-03 02:51:08,223000/a3561029453754166e0643ee45447b7b.jpg,,
21515786,USMLE step 1 Lecture notes 3.Kaplan biochemistry (2006-2007),,,,,2007,,kaplan,,422,0,English,147,torrents.ru tech collections 2009-11-14,,,,,,,,,,,,,0,,,,,,1,0,411371353,pdf,12B6F6D0BC5EFFA84111B28561F0587F,,,D:\\!Genesis\\!!ForLG\\853229-Лекции к экзамену USMLE  Kaplan Medical USMLE Step 1 2004-2006\\3.Kaplan biochemistry (2006-2007).pdf,0,2000-01-01 01:00:00,2016-04-03 02:51:08,223000/12b6f6d0bc5effa84111b28561f0587f.jpg,,
21515787,Телевизоры ближнего зарубежья,,ЗАРУБЕЖНАЯ ЭЛЕКТРОНИКА 6,,"Лукин, Шерстюк",,,НИТ,,198,0,Russian,253,torrents.ru tech collections 2009-11-14,,,,,,,,,,,,,0,,,,,,,0,4916788,djvu,CC71A171362C0DD15785DBFBE0D17904,c500fca9502358bb5c7c8b05eb72bb68,no,D:\\!Genesis\\!!ForLG\\1506519-Электронные книги и справочники по ремонту отечественных и имп\\30 - Телевизоры ближнего зарубежья (ЗАРУБ_ЭЛЕКТРОНИКА).djvu,0,2000-01-01 01:00:00,2016-04-03 02:51:08,223000/cc71a171362c0dd15785dbfbe0d17904.jpg,,
21515788,The Everything Freezer Meals Cookbook,,Everything (Cooking),,"Candace Anderson, Nicole Cormier",2010,,Adams Media,,304,0,English,49,,0,"1440506124,9781440506123",,,,,,,,,,,0,,,,,,,,1284103,epub,85b51108165d013a255638459712117a,,,freezer_meals_cookbook_candace_anderson,0,2000-01-01 01:00:00,2016-04-03 02:51:08,881000/85b51108165d013a255638459712117a-d.jpg,,
21515789,Случайность и хаос,,,,Рюэль Д. ,2001,,РХД,,193,0,Russian,275,torrents.ru tech collections 2009-11-14,,,,,,,,,,,,,0,,,,,,,0,16399873,pdf,53D864A1A6A6AB5C67559C74F31CC6B0,,,"D:\\!Genesis\\!!ForLG\\1624002-Хаос, солитоны, фракталы\\30 Рюэль Д. Случайность и хаос.pdf",0,2000-01-01 01:00:00,2016-04-03 02:51:08,223000/53d864a1a6a6ab5c67559c74f31cc6b0.jpg,,
21515790,Лесохозяйственные письма из северной окраины,,,,,,,,,40,0,Russian,30,torrents.ru tech collections 2009-11-14,,,,,,,,,,,,,0,,,,,,,0,2441329,pdf,816645FFDEA8B2CBFAC08190CA903064,,,D:\\!Genesis\\!!ForLG\\1355119-(Лесоводство) Коллекция книг и статьи о лесе конца 19 - пер.по\\30.pdf,0,2000-01-01 01:00:00,2016-04-03 02:51:08,223000/816645ffdea8b2cbfac08190ca903064.jpg,,
21515791,Справочник по гидравлическим сопротивлениям,,,,Идельчик,1975,2,Машиностроение,,560,0,Russian,210,torrents.ru tech collections 2009-11-14,,,,,,,,,,,,,0,,,,,,,0,49258212,djvu,975DE27B1DA7DDE42E0A8E323BE75548,96e08ee31bb85b83676d943197e97f53,no,"D:\\!Genesis\\!!ForLG\\1903296-Сборник литературы по атомной энергетики [PDF,DJVU,DOC]\\30_Идельчик - Справочник по гидравлическим сопротивлениям .djvu",0,2000-01-01 01:00:00,2016-04-03 02:51:08,223000/975de27b1da7dde42e0a8e323be75548.jpg,,
21515792,300 шахматных игр,,,,"Сигберт, Тарраш",1988,,,,433,0,Russian,46,torrents.ru tech collections 2009-11-14,,,,,,,,,,,,,0,,,,,,,0,12005947,pdf,6309E16B16ED36E15E5925532BEE2446,,,"D:\\!Genesis\\!!ForLG\\873138-Шахматы Большая Подборка шахматной литературы\\FOREIGN\\RUSSIAN\\300 Chess Games [Siegbert Tarrasch, reprinted 1988 - Russian].pdf",0,2000-01-01 01:00:00,2016-04-03 02:51:08,223000/6309e16b16ed36e15e5925532bee2446.jpg,,
21515793,300 избранных партий Алехина,,,,Панов В.,1954,,ФИС,,639,0,Russian,46,torrents.ru tech collections 2009-11-14,,,,,,,,,,,,,0,,,,,,,1,64284353,pdf,36DF8C4526837D8C1585E2079224DF42,,,"D:\\!Genesis\\!!ForLG\\873138-Шахматы Большая Подборка шахматной литературы\\FOREIGN\\RUSSIAN\\300 Selected Games of Alekhine [Vassily Panov, 1954 - Russian].pdf",0,2000-01-01 01:00:00,2016-04-03 02:51:08,223000/36df8c4526837d8c1585e2079224df42.jpg,,
21515794,Секреты китайской медициныю. 300 вопросов о цигун,,,,"Линь Хоушен, Ло Пэйюй ",1995,,наука,,,0,Russian,160,torrents.ru tech collections 2009-11-14,,,,,,,,,,,,,0,,,,,,,,1609800,chm,96E2DDD3FE6FCFE879FF178BE73832CA,,,D:\\!Genesis\\!!ForLG\\921601-Книги по Тайцзи и Цигун\\CHM\\300 вопросов о цигун.chm,0,2000-01-01 01:00:00,2016-04-03 02:51:08,,,
21515795,Отрывные течения,т.1,,,П.Чжен,1972,,Мир,,301,0,Russian,264,torrents.ru tech collections 2009-11-14,,,,,,,,,,,,,0,,,,,,,0,13111212,pdf,B977AFDB1684C8325C514B5ED4D42961,,,"D:\\!Genesis\\!!ForLG\\513911-РХД (RCD) - CD Гидроаэромеханика, Электронная библиотека РХД\\300 П.Чжен. Отрывные течения. т.1. 300 стр. М.- Мир, 1972.pdf",0,2000-01-01 01:00:00,2016-04-03 02:51:08,223000/b977afdb1684c8325c514b5ed4d42961.jpg,,
21515796,303 Tricky Chess Tactics ,,,,"Fred Wilson, Bruce Albertson",1999,1st,Cardoza,,96,0,English,46,torrents.ru tech collections 2009-11-14,,"1580420109,9781580420105",,B003JH0V14,,,794.1/2,GV1449.5 .W55 1999,,,OL393721M,,0,,,,,1,1,1,6783224,pdf,F7D17C863EF82D919D889F2E59F7233F,,,D:\\!Genesis\\!!ForLG\\873138-Шахматы Большая Подборка шахматной литературы\\GENERAL\\303 Tricky Chess Tactics [Fred Wilson & Bruce Alberston 1999].pdf,0,2000-01-01 01:00:00,2016-04-03 02:51:08,223000/f7d17c863ef82d919d889f2e59f7233f-d.jpg,,
21515797,31 - Плазменные панели,,,,"Покровский, Прибытков, Прокофьев",,,Горячая линия-телеком,,88,0,Russian,264,torrents.ru tech collections 2009-11-14,,,,,,,,,,,,,0,,,,,,1,0,27156128,pdf,3A0F19E31AC4104ADCEA6BB5C32B3516,,,D:\\!Genesis\\!!ForLG\\1506519-Электронные книги и справочники по ремонту отечественных и имп\\31 - Плазменные панели.pdf,0,2000-01-01 01:00:00,2016-04-03 02:51:08,223000/3a0f19e31ac4104adcea6bb5c32b3516.jpg,,
21515798,Гидро- и аэромеханика,т.2,,,"Л.Прандтль, О.Титьенс",1935,,ОНТИ НКТП СССР,"М., Л.",313,0,Russian,264,torrents.ru tech collections 2009-11-14,,,,,,,,,,,,,0,,,,,,,0,18400862,pdf,4B96C26C6BD84694FA4C06F8A268CCD1,,,"D:\\!Genesis\\!!ForLG\\513911-РХД (RCD) - CD Гидроаэромеханика, Электронная библиотека РХД\\312 Л.Прандтль, О.Титьенс. Гидро- и аэромеханика. т.2. 312 стр. М., Л.- ОНТИ НКТП СССР, 1935.pdf",0,2000-01-01 01:00:00,2016-04-03 02:51:08,223000/4b96c26c6bd84694fa4c06f8a268ccd1.jpg,,
21515799,320 Danske Skakopgaver (1902),,,,Jespersen,2005,,,,151,0,Polish,46,torrents.ru tech collections 2009-11-14,,,,,,,,,,,,,0,,,,,,,1,359336,pdf,AE728758CFFD9FB3B333754185EFAE3C,,,"D:\\!Genesis\\!!ForLG\\873138-Шахматы Большая Подборка шахматной литературы\\PROBLEMS\\320 Danske Skakopgaver [Jespersen, 1902].pdf",0,2000-01-01 01:00:00,2016-04-03 02:51:08,223000/ae728758cffd9fb3b333754185efae3c.jpg,,
21515800,Отрывные течения,т.3,,,П.Чжен,1973,,Мир,,336,0,Russian,264,torrents.ru tech collections 2009-11-14,,,,,,,,,,,,,0,,,,,,,0,16934003,pdf,18BB64B099C0216C2E333152BBED47C2,,,"D:\\!Genesis\\!!ForLG\\513911-РХД (RCD) - CD Гидроаэромеханика, Электронная библиотека РХД\\334 П.Чжен. Отрывные течения. т.3. 334 стр. М.- Мир, 1973.pdf",0,2000-01-01 01:00:00,2016-04-03 02:51:08,223000/18bb64b099c0216c2e333152bbed47c2.jpg,,
21515801,Теплогидравлический расчет ТВС быстрых реакторов с жидкометаллическим охлаждением,,,,Жуков Кириллов Матюхин,1985,,Энергоатомиздат,,73,0,Russian,265,torrents.ru tech collections 2009-11-14,,,,,,,,,,,,,0,,,,,,,0,3655774,djvu,3B8BAA82BE682253D02ABBF92A4DEBB4,deec65615a23641782e85780135408a1,no,"D:\\!Genesis\\!!ForLG\\1903296-Сборник литературы по атомной энергетики [PDF,DJVU,DOC]\\34_Жуков_Кириллов_Матюхин - Теплогидравлический расчет ТВС быстрых реакторов с жидкометаллическим охлаждением .djvu",0,2000-01-01 01:00:00,2016-04-03 02:51:08,223000/3b8baa82be682253d02abbf92a4debb4.jpg,,
21515802,Циньна. Методические указания,,,,,1990,,Нефрит,,26,0,Russian,160,torrents.ru tech collections 2009-11-14,,,,,,,,,,,,,0,,,,,,,0,640189,djvu,31425AAB6E5FF77731FCD6D11B6A9FFB,a83689895dc95c1d51617d18885737dd,no,D:\\!Genesis\\!!ForLG\\921601-Книги по Тайцзи и Цигун\\DJVU\\35_Цинь на.djvu,0,2000-01-01 01:00:00,2016-04-03 02:51:08,223000/31425aab6e5ff77731fcd6d11b6a9ffb.jpg,,
21515803,Brilliant and Instructive Endgames,,,,Troitzky,1961,,Dover,,99,0,English,46,torrents.ru tech collections 2009-11-14,,,,,,,,,,,,,0,,,,,,1,0,7296361,pdf,93A5EF14CC352C19D1C49F8908D72ECE,,,"D:\\!Genesis\\!!ForLG\\873138-Шахматы Большая Подборка шахматной литературы\\ENDGAMES\\360 Brilliant and Instructive Endgames [Troitzky, 1961].pdf",0,2000-01-01 01:00:00,2016-04-03 02:51:08,223000/93a5ef14cc352c19d1c49f8908d72ece.jpg,,
21515804,Fuelless Engine 1-50Hp,,,,,,,Creative Science & Research,,28,0,English,243,torrents.ru tech collections 2009-11-14,,,,,,,,,,,,,0,,,,,,,1,1481784,pdf,0FCA53DFBB55BD3344DBD8294E1E902F,,,D:\\!Genesis\\!!ForLG\\-=  UNSORTED BOOKS  =-\\EBOOK COLLECTION (ADDITIONAL) [CSI][h33t]\\Creative Science & Research Documents\\362 - Fuelless Engine 1-50Hp.pdf,0,2000-01-01 01:00:00,2016-04-03 02:51:08,223000/0fca53dfbb55bd3344dbd8294e1e902f.jpg,,
21515805,Fuelless Engine 50-350Hp,,,,,,,Creative Science & Research,,36,0,English,243,torrents.ru tech collections 2009-11-14,,,,,,,,,,,,,0,,,,,,,1,2276798,pdf,826F3D5222ACA18671585B08DAD90ED5,,,D:\\!Genesis\\!!ForLG\\-=  UNSORTED BOOKS  =-\\EBOOK COLLECTION (ADDITIONAL) [CSI][h33t]\\Creative Science & Research Documents\\362 - Fuelless Engine 50-350Hp.pdf,0,2000-01-01 01:00:00,2016-04-03 02:51:08,223000/826f3d5222aca18671585b08dad90ed5.jpg,,
21515806,Capacitor Step-Up Transformer,,,,,,,Creative Science & Research,,30,0,English,210,torrents.ru tech collections 2009-11-14,,,,,,,,,,,,,0,,,,,,,1,954077,pdf,890E9679481732BB2A318F5BEFE4E64A,,,D:\\!Genesis\\!!ForLG\\EBOOK COLLECTION (ADDITIONAL) [CSI][h33t]\\Creative Science & Research Documents\\363 - Capacitor Step-Up Transformer.pdf,0,2000-01-01 01:00:00,2016-04-03 02:51:08,223000/890e9679481732bb2a318f5befe4e64a.jpg,,
21515807,Foreign Dishes,,,,,,,,,53,0,English,49,torrents.ru tech collections 2009-11-14,,,,,,,,,,,,,0,,,,,,,1,100554,pdf,CEB5B3762E76DB02237EEA2C011D8E01,,,D:\\!Genesis\\!!ForLG\\-=  UNSORTED BOOKS  =-\\Non-Fiction\\Food and Cooking\\Recipes\\57 Cooking e-Books\\365 Foreign Dishes.pdf,0,2000-01-01 01:00:00,2016-04-03 02:51:08,223000/ceb5b3762e76db02237eea2c011d8e01.jpg,,
21515808,Free Electricity From The Sky,,,,,,,Creative Science & Research,,12,0,English,210,torrents.ru tech collections 2009-11-14,,,,,,,,,,,,,0,,,,,,,0,4454850,pdf,3B61CAB33F6D2F208196F37CD37B4040,,,D:\\!Genesis\\!!ForLG\\-=  UNSORTED BOOKS  =-\\EBOOK COLLECTION (ADDITIONAL) [CSI][h33t]\\Creative Science & Research Documents\\371 - Free Electricity From The Sky.pdf,0,2000-01-01 01:00:00,2016-04-03 02:51:08,223000/3b61cab33f6d2f208196f37cd37b4040.jpg,,
21515809,Free Energy from the Sky,,,,,,,Creative Science & Research,,12,0,English,210,torrents.ru tech collections 2009-11-14,,,,,,,,,,,,,0,,,,,,,1,1372076,pdf,B1F66725B2835FAAE4637736694E94A7,,,D:\\!Genesis\\!!ForLG\\-=  UNSORTED BOOKS  =-\\EBOOK COLLECTION (ADDITIONAL) [CSI][h33t]\\Creative Science & Research Documents\\371 - Free Energy from the Sky.pdf,0,2000-01-01 01:00:00,2016-04-03 02:51:08,223000/b1f66725b2835faae4637736694e94a7.jpg,,
21515810,Tesla Coil,,,,,,,Creative Science & Research,,14,0,English,225,torrents.ru tech collections 2009-11-14,,,,,,,,,,,,,0,,,,,,,1,475301,pdf,0BA2DA4CD561C2F51E59BE2B126FB4C3,,,D:\\!Genesis\\!!ForLG\\-=  UNSORTED BOOKS  =-\\EBOOK COLLECTION (ADDITIONAL) [CSI][h33t]\\Creative Science & Research Documents\\372 - Tesla Coil.pdf,0,2000-01-01 01:00:00,2016-04-03 02:51:08,223000/0ba2da4cd561c2f51e59be2b126fb4c3.jpg,,
21515811,100kv from a Bike Generator,,,,,,,Creative Science & Research,,10,0,English,210,torrents.ru tech collections 2009-11-14,,,,,,,,,,,,,0,,,,,,,1,637621,pdf,000276B5BCB4D9DAFBA1FB1B0560C913,,,D:\\!Genesis\\!!ForLG\\-=  UNSORTED BOOKS  =-\\EBOOK COLLECTION (ADDITIONAL) [CSI][h33t]\\Creative Science & Research Documents\\373 - 100kv from a Bike Generator.pdf,0,2000-01-01 01:00:00,2016-04-03 02:51:08,223000/000276b5bcb4d9dafba1fb1b0560c913.jpg,,
21515812,Permanent Magnet Motor,,,,,,,Creative Science & Research,,15,0,English,287,torrents.ru tech collections 2009-11-14,,,,,,,,,,,,,0,,,,,,,1,1208079,pdf,7F8A1720682560D9FB527656041BFCE3,,,D:\\!Genesis\\!!ForLG\\-=  UNSORTED BOOKS  =-\\EBOOK COLLECTION (ADDITIONAL) [CSI][h33t]\\Creative Science & Research Documents\\376 - Permanent Magnet Motor.pdf,0,2000-01-01 01:00:00,2016-04-03 02:51:08,223000/7f8a1720682560d9fb527656041bfce3.jpg,,
21515813,Reuse Flourescent Bulbs,,,,,,,Creative Science & Research,,14,0,English,210,torrents.ru tech collections 2009-11-14,,,,,,,,,,,,,0,,,,,,,1,532359,pdf,F533ACBC868F037301F6165BF7535896,,,D:\\!Genesis\\!!ForLG\\-=  UNSORTED BOOKS  =-\\EBOOK COLLECTION (ADDITIONAL) [CSI][h33t]\\Creative Science & Research Documents\\377 - Reuse Flourescent Bulbs.pdf,0,2000-01-01 01:00:00,2016-04-03 02:51:08,223000/f533acbc868f037301f6165bf7535896.jpg,,
21515814,50000 Vdc Power Supply,,,,,,,Creative Science & Research,,12,0,English,210,torrents.ru tech collections 2009-11-14,,,,,,,,,,,,,0,,,,,,,1,730887,pdf,656A40CA332CE2EB06F3EAC8F75C0EB4,,,D:\\!Genesis\\!!ForLG\\-=  UNSORTED BOOKS  =-\\EBOOK COLLECTION (ADDITIONAL) [CSI][h33t]\\Creative Science & Research Documents\\378 - 50000 Vdc Power Supply.pdf,0,2000-01-01 01:00:00,2016-04-03 02:51:08,223000/656a40ca332ce2eb06f3eac8f75c0eb4.jpg,,
21515815,Группово-выборочные рубки,,,,,,,,,17,0,Russian,30,torrents.ru tech collections 2009-11-14,,,,,,,,,,,,,0,,,,,,,0,1020521,pdf,0D8089EB8789087A605E3BC4929FF0D6,,,D:\\!Genesis\\!!ForLG\\1355119-(Лесоводство) Коллекция книг и статьи о лесе конца 19 - пер.по\\38.pdf,0,2000-01-01 01:00:00,2016-04-03 02:51:08,223000/0d8089eb8789087a605e3bc4929ff0d6.jpg,,
21515816,Make your own Light Bulbs,,,,,,,Creative Science & Research,,10,0,English,210,torrents.ru tech collections 2009-11-14,,,,,,,,,,,,,0,,,,,,,1,344813,pdf,209DD9AE66A4C2E7DA7DE66D629C29B6,,,D:\\!Genesis\\!!ForLG\\-=  UNSORTED BOOKS  =-\\EBOOK COLLECTION (ADDITIONAL) [CSI][h33t]\\Creative Science & Research Documents\\386 - Make your own Light Bulbs.pdf,0,2000-01-01 01:00:00,2016-04-03 02:51:08,223000/209dd9ae66a4c2e7da7de66d629c29b6.jpg,,
21515817,К вопросу о возобновлении лесо-степных насаждений,,,,,,,,,32,0,Russian,30,torrents.ru tech collections 2009-11-14,,,,,,,,,,,,,0,,,,,,,0,2016494,pdf,FC9A2A00082B4425BC485FA2072C34C3,,,D:\\!Genesis\\!!ForLG\\1355119-(Лесоводство) Коллекция книг и статьи о лесе конца 19 - пер.по\\39.pdf,0,2000-01-01 01:00:00,2016-04-03 02:51:08,223000/fc9a2a00082b4425bc485fa2072c34c3.jpg,,
21515818,Механика жидкости,,,,Х.Рауз,1967,,М.- Изд. литературы по строительству,,393,0,Russian,264,torrents.ru tech collections 2009-11-14,,,,,,,,,,,,,0,,,,,,,0,15855304,pdf,867E997F7133D202167F959B2175CD67,,,"D:\\!Genesis\\!!ForLG\\513911-РХД (RCD) - CD Гидроаэромеханика, Электронная библиотека РХД\\392 Х.Рауз. Механика жидкости. 392 стр. М.- Изд. литературы по строительству, 1967.pdf",0,2000-01-01 01:00:00,2016-04-03 02:51:08,223000/867e997f7133d202167f959b2175cd67.jpg,,
21515819,Homemade Batteries,,,,,,,Creative Science & Research,,15,0,English,210,torrents.ru tech collections 2009-11-14,,,,,,,,,,,,,0,,,,,,,1,783710,pdf,785DDFF9F7E0F822301BC789397D1E46,,,D:\\!Genesis\\!!ForLG\\-=  UNSORTED BOOKS  =-\\EBOOK COLLECTION (ADDITIONAL) [CSI][h33t]\\Creative Science & Research Documents\\396 - Homemade Batteries.pdf,0,2000-01-01 01:00:00,2016-04-03 02:51:08,223000/785ddff9f7e0f822301bc789397d1e46.jpg,,
21515820,Третья проблема Гильберта,,,,Болтянский,1977,,Наука,,209,0,Russian,113,torrents.ru tech collections 2009-11-14,,,,,,,,,,,,,0,,,,,,,1,3063996,djvu,F1D1C5FCD0DA087CBF2CF7708DA9D6F8,,,D:\\!Genesis\\!!ForLG\\1735447-Личный сборник книг по математке\\Геометрия\\3problem.djvu,0,2000-01-01 01:00:00,2016-04-03 02:51:08,223000/f1d1c5fcd0da087cbf2cf7708da9d6f8.jpg,,
21515821,3й Международный шахматный турнир 1936,,,,,1937,,ФИС,,329,0,Russian,46,torrents.ru tech collections 2009-11-14,,,,,,,,,,,,,0,,,,,,,0,3528639,djvu,535F50EFCA23B96589FEE15A2919E847,b6f68730068cbc5957a55bbd38fae1f0,no,D:\\!Genesis\\!!ForLG\\2004628-Шахматы. 375 книг в формате DJVU\\3й Международный Турнир 1936.djvu,0,2000-01-01 01:00:00,2016-04-03 02:51:08,223000/535f50efca23b96589fee15a2919e847.jpg,,
21515822,Dialogue Concerning the Two Chief World Systems (1632) - Translated by Drake - Abridged by S. E. Sciortino,,,,Galileo Galilei,1953,,,,100,0,English,12,torrents.ru tech collections 2009-11-14,,,,,,,,,,,,,0,,,,,,,1,1134640,pdf,890F56B461CAC27456988B0B38929BE1,,,D:\\!Genesis\\!!ForLG\\25 Greatest Science Books of All Time\\4. Galileo Galilei - Dialogue Concerning the Two Chief World Systems (1632) - Translated by Drake (1953) - Abridged by S. E. Sciortino.pdf,0,2000-01-01 01:00:00,2016-04-03 02:51:08,223000/890f56b461cac27456988b0b38929be1.jpg,,
21515823,Проектирование электрической части станций и подстанций,,,,"Ю.Б. Гук, В.В. Кантан С.С. Петрова",1985,,Энергоатомиздат,,310,0,Russian,210,torrents.ru tech collections 2009-11-14,,,,,,,,,,,,,0,,,,,,1,0,15423531,pdf,6C5D34309B74FE524F1272A2D0278F61,,,"D:\\!Genesis\\!!ForLG\\2246000-Коллекция книг по электроснабжению, сетям и подстанциям\\4. Ю.Б. Гук, В.В. Кантан С.С. Петрова - Проектирование электрической части станций и подстанций.pdf",0,2000-01-01 01:00:00,2016-04-03 02:51:08,223000/6c5d34309b74fe524f1272a2d0278f61.jpg,,
21515824,USMLE step 1. lecture notes. 4.Kaplan pathology (2006-2007),,,,,2007,,,,352,0,English,147,torrents.ru tech collections 2009-11-14,,,,,,,,,,,,,0,,,,,,1,0,331072552,pdf,DD4A4CF695F0EBB2082143856E7FC37D,,,D:\\!Genesis\\!!ForLG\\853229-Лекции к экзамену USMLE  Kaplan Medical USMLE Step 1 2004-2006\\4.Kaplan pathology (2006-2007).pdf,0,2000-01-01 01:00:00,2016-04-03 02:51:08,223000/dd4a4cf695f0ebb2082143856e7fc37d.jpg,,
21515825,40 Instructional Chess Games,,,,Ponentz,2002,,,,22,0,English,46,torrents.ru tech collections 2009-11-14,,,,,,,,,,,,,0,,,,,,,0,352858,pdf,371DF4F1DC05DA580119200A443B144F,,,"D:\\!Genesis\\!!ForLG\\873138-Шахматы Большая Подборка шахматной литературы\\GENERAL\\40 Instructional Chess Games [Ponentz, 2002].pdf",0,2000-01-01 01:00:00,2016-04-03 02:51:08,223000/371df4f1dc05da580119200a443b144f.jpg,,
21515826,Air Engine,,,,,,,Creative Science & Research,,14,0,English,210,torrents.ru tech collections 2009-11-14,,,,,,,,,,,,,0,,,,,,,1,989900,pdf,D9083D2EE4B1A020D9257D6456A9388D,,,D:\\!Genesis\\!!ForLG\\-=  UNSORTED BOOKS  =-\\EBOOK COLLECTION (ADDITIONAL) [CSI][h33t]\\Creative Science & Research Documents\\400 - Air Engine.pdf,0,2000-01-01 01:00:00,2016-04-03 02:51:08,223000/d9083d2ee4b1a020d9257d6456a9388d.jpg,,
21515827,Механика,,,,Г.Кирхгоф,1962,,Изд. АН СССР,,405,0,Russian,264,torrents.ru tech collections 2009-11-14,,,,,,,,,,,,,0,,,,,,,0,17306741,pdf,E5A65E16E9B399B0CC2491C4B64DE2B3,,,"D:\\!Genesis\\!!ForLG\\513911-РХД (RCD) - CD Гидроаэромеханика, Электронная библиотека РХД\\404 Г.Кирхгоф. Механика. 404 стр. М.- Изд. АН СССР, 1962.pdf",0,2000-01-01 01:00:00,2016-04-03 02:51:08,223000/e5a65e16e9b399b0cc2491c4b64de2b3.jpg,,
21515828,Windmills,,,,,,,Creative Science & Research,,27,0,English,210,torrents.ru tech collections 2009-11-14,,,,,,,,,,,,,0,,,,,,,1,1491152,pdf,59A77EDB65CB108EF6E194AD7DCC5296,,,D:\\!Genesis\\!!ForLG\\-=  UNSORTED BOOKS  =-\\EBOOK COLLECTION (ADDITIONAL) [CSI][h33t]\\Creative Science & Research Documents\\412 - Windmills.pdf,0,2000-01-01 01:00:00,2016-04-03 02:51:08,223000/59a77edb65cb108ef6e194ad7dcc5296.jpg,,
21515829,Проблемы гидродинамики и их математические модели,,,,"М.А.Лаврентьев, Б.В.Шабат",1973,,Наука,,416,0,Russian,137,torrents.ru tech collections 2009-11-14,,,,,,,,,,,,,0,,,,,,,0,15859867,pdf,27C72416B3BA165650D16A20A098FE63,,,"D:\\!Genesis\\!!ForLG\\513911-РХД (RCD) - CD Гидроаэромеханика, Электронная библиотека РХД\\416 М.А.Лаврентьев, Б.В.Шабат. Проблемы гидродинамики и их математические модели. 416 стр. М.- Наука, 1973.pdf",0,2000-01-01 01:00:00,2016-04-03 02:51:08,223000/27c72416b3ba165650d16a20a098fe63.jpg,,
21515830,Алгебраические многообразия,,,,Бальдассарри,1961,,ИЛ,,313,0,Russian,113,torrents.ru tech collections 2009-11-14,,,,,,,,,,,,,0,,,,,,,0,2823657,djvu,DBEF87DF24FF162794B05EE369283F82,17c61c24792f7fc2e02bdd8780cd16bb,no,D:\\!Genesis\\!!ForLG\\2244180-\\Physics & Mathematics\\mathmatics\\Topology\\4327210a6ff50688a8d569cb96b36200.djvu,0,2000-01-01 01:00:00,2016-04-03 02:51:08,223000/dbef87df24ff162794b05ee369283f82.jpg,,
21515831,Памяткники письменности восттока 20 Книга правителя области Шан,,,,,1993,,Ладомир,,197,0,Russian,160,torrents.ru tech collections 2009-11-14,,,,,,,,,,,,,0,,,,,,,1,16298634,djvu,FDA8F46D1593C8D4AAA1954500208BB7,,,D:\\!Genesis\\!!ForLG\\921601-Книги по Тайцзи и Цигун\\DJVU\\44_Книга правителя области Шан.djvu,0,2000-01-01 01:00:00,2016-04-03 02:51:08,223000/fda8f46d1593c8d4aaa1954500208bb7.jpg,,
21515832,Контроль и пути улучшения технического состояния скважин,,,,"Будников, Булатов, Петерсон и др.",2001,,Недра,,301,0,Russian,210,torrents.ru tech collections 2009-11-14,,,,,,,,,,,,,0,,,,,,,0,2654767,djvu,03DC0048AEA78048624C65CC06905B3A,4b1a686b3904c0eb54d077bbfefe3773,no,D:\\!Genesis\\!!ForLG\\2372608-[Нефть и Газ Добыча нефти] Подборка книг по добыче и разработк\\44_Контроль и пути улучшения технического состояния скважин.djvu,0,2000-01-01 01:00:00,2016-04-03 02:51:08,223000/03dc0048aea78048624c65cc06905b3a.jpg,,
21515833,Free Energy from the Earth,,,,,,,Creative Science & Research,,22,0,English,38,torrents.ru tech collections 2009-11-14,,,,,,,,,,,,,0,,,,,,,1,1993333,pdf,A65B30B2D9D7036DC49CB23AD1AA228E,,,D:\\!Genesis\\!!ForLG\\-=  UNSORTED BOOKS  =-\\EBOOK COLLECTION (ADDITIONAL) [CSI][h33t]\\Creative Science & Research Documents\\459 - Free Energy from the Earth.pdf,0,2000-01-01 01:00:00,2016-04-03 02:51:08,223000/a65b30b2d9d7036dc49cb23ad1aa228e.jpg,,
21515834,46 Science Fair Projects for the Evil Genius,,,,"B. Bonnet, D. Keen",2009,,Mcgraw-Hill,,209,0,English,181,torrents.ru tech collections 2009-11-14,,"0-07-160028-0,0-07-160027-2",,,,,,,10.1036/0071600272,,,,0,,,,,,,1,2323222,pdf,C55C048FDD7D2FE87AD39C36F8CEE0AF,,,"D:\\!Genesis\\!!ForLG\\!!!3\\46 Science Fair Projects for the Evil Genius - B. Bonnet, D. Keen (McGraw-Hill, 2009) WW.pdf",0,2000-01-01 01:00:00,2016-04-03 02:51:08,223000/c55c048fdd7d2fe87ad39c36f8cee0af.jpg,,
21515835,Атомные электрические станции,,,,Маргулова,1978,,,,358,0,Russian,262,torrents.ru tech collections 2009-11-14,,,,,,,,,,,,,0,,,,,,,0,4696808,djvu,9CB1B732E3FB94B9B3ADAED1458CF674,b936f17d3193f421578ee2e360cb8f1d,no,"D:\\!Genesis\\!!ForLG\\1903296-Сборник литературы по атомной энергетики [PDF,DJVU,DOC]\\46_Маргулова - Атомные электрические станции (1978) .djvu",0,2000-01-01 01:00:00,2016-04-03 02:51:08,223000/9cb1b732e3fb94b9b3adaed1458cf674.jpg,,
21515836,Кинетика ядерных реакторов,,,,Копосов,2005,,МГТУ им Баумана,,68,0,Russian,262,torrents.ru tech collections 2009-11-14,,,,,,,,,,,,,0,,,,,,1,0,5759906,pdf,AD464FDF156CA487C9237827FC889D6D,,,"D:\\!Genesis\\!!ForLG\\1903296-Сборник литературы по атомной энергетики [PDF,DJVU,DOC]\\47_Копосов - Кинетика ядерных реакторов.pdf",0,2000-01-01 01:00:00,2016-04-03 02:51:08,223000/ad464fdf156ca487c9237827fc889d6d.jpg,,
21515837,Корейские салаты,,,,,2000,,Лабиринт,,25,0,Russian,49,torrents.ru tech collections 2009-11-14,,5-7811-0176-4,,,,,,,,,,,0,,,,,,,0,1173725,djvu,FAF064E326F3EF967DA2C1BB61187BFC,d286807f6fac2454f32ffa95cbaba46c,no,D:\\!Genesis\\!!ForLG\\921601-Книги по Тайцзи и Цигун\\DJVU\\48_Корейские салаты.djvu,0,2000-01-01 01:00:00,2016-04-03 02:51:08,223000/faf064e326f3ef967da2c1bb61187bfc-d.jpg,,
21515838,Выпуклые фигуры,,Библиотека математического кружка. Выпуск 04,,"Яглом И.М., Болтянский В.Г.",1951,,Гостехиздат,,345,0,Russian,113,torrents.ru tech collections 2009-11-14,0,,,,,,,,,,,,0,,,,,,,1,4717997,djvu,6A95A03FA219F89D00294B5440EDBC5B,,,D:/!Genesis/!!ForLG/1735447-Личный сборник книг по математке/Геометрия/4-figures(1).djvu,0,2000-01-01 01:00:00,2016-04-03 02:51:08,223000/6a95a03fa219f89d00294b5440edbc5b.jpg,,
21515839,Теория графов,,,,,,,,,111,0,Russian,140,torrents.ru tech collections 2009-11-14,,,,,,,,,,,,,0,,,,,,,1,740801,pdf,07A78758564C17617818E67E9BE7842B,,,D:\\!Genesis\\!!ForLG\\1735447-Личный сборник книг по математке\\дискретная математика\\5 Теория графов.PDF,0,2000-01-01 01:00:00,2016-04-03 02:51:08,223000/07a78758564c17617818e67e9be7842b.jpg,,
21515840,On the Revolutions of Heavenly Spheres - Translated by Rosen,Book 1 ,,,Nicolaus Copernicus,1543,,,,75,0,English,,torrents.ru tech collections 2009-11-14,,"0801845157,9780801845154",,,,,520,QB41 .C7613 1992,,,OL1714075M,,0,,,,,,,1,389423,pdf,8C0C1FCD7BBA2C63023E6C3920BC0787,,,D:\\!Genesis\\!!ForLG\\25 Greatest Science Books of All Time\\5. Nicolaus Copernicus - On the Revolutions of Heavenly Spheres (1543) - Book 1 - Translated by Rosen.pdf,0,2000-01-01 01:00:00,2016-04-03 02:51:08,223000/8c0c1fcd7bba2c63023e6c3920bc0787.jpg,,
21515841,A Brief History Of Time,,,,Stephen Hawking ,1988,,,,177,0,English,64,torrents.ru tech collections 2009-11-14,,,,,,,,,,,,,0,,,,,,,1,524157,pdf,25DEF59158126ED623A9261CBA6499BD,,,D:\\!Genesis\\!!ForLG\\25 Greatest Science Books of All Time\\Honorable Mentions\\5. Stephen Hawking - A Brief History Of Time (1988).pdf,0,2000-01-01 01:00:00,2016-04-03 02:51:08,223000/25def59158126ed623a9261cba6499bd.jpg,,
21515842,USNLE step 1 Lecture notes. 5.Kaplan Pharmacology (2006-2007),,,,,2007,,Kaplan,,355,0,English,302,torrents.ru tech collections 2009-11-14,,,,,,,,,,,,,0,,,,,,1,0,326142124,pdf,C671DF0ABD6A3AB7CB60970612BB933F,,,D:\\!Genesis\\!!ForLG\\853229-Лекции к экзамену USMLE  Kaplan Medical USMLE Step 1 2004-2006\\5.Kaplan Pharmacology (2006-2007).pdf,0,2000-01-01 01:00:00,2016-04-03 02:51:08,223000/c671df0abd6a3ab7cb60970612bb933f.jpg,,
21515843,50 лекций по хирургии,,,,В.C. Савельев,2003,,MEDIA MEDICA,,407,0,Russian,183,torrents.ru tech collections 2009-11-14,0,,,,,,,,,,,,0,,,,,,,,9895936,doc,7752D347074D51E76FEA0310DB05CBAC,,,D:/!Genesis/!!ForLG/1946695-Книги по хирургическим болезням/50 лекций по хирургии_B.C. Савельева.doc,0,2000-01-01 01:00:00,2016-04-03 02:51:08,,,
21515844,500 Famous Games,,,,,,,,,,0,English,46,torrents.ru tech collections 2009-11-14,,,,,,,,,,,,,0,,,,,,,,318048,rar,E9B4EC5156DC342910E72AB3B2E4AC9A,,,D:\\!Genesis\\!!ForLG\\1612870-Книги по шахматам Chess books\\Electronic Chess Books\\Chess\\500 Famous Games.rar,0,2000-01-01 01:00:00,2016-04-03 02:51:08,,,
21515845,500 Master Games of Chess ,,,,"Dr. S. Tartakower, J. du Mont",1975,,Dover Publications,,353,0,English,46,torrents.ru tech collections 2009-11-14,,"0486232085,9780486232089",,B0000CI75I,,,794.1/52,GV1452 .T3 1975,,,OL5190829M,,0,,,,,,1,0,9558299,pdf,0557B8A873003E845D1BD5D4608C67B9,,,"D:\\!Genesis\\!!ForLG\\873138-Шахматы Большая Подборка шахматной литературы\\GENERAL\\500 Master Games of Chess [Saviely Tartakower & Julius du Mont, 1952].pdf",0,2000-01-01 01:00:00,2016-04-03 02:51:08,223000/0557b8a873003e845d1bd5d4608c67b9-d.jpg,,
21515846,Дом - практические рекомендации,,,,Емельянов,2006,,Бук-пресс,,729,0,Russian,215,torrents.ru tech collections 2009-11-14,,,,,,,,,,,,,0,,,,,,1,1,1766602,pdf,7EB187CA6DA73B4FB6ECFA1309CD40ED,,,D:\\!Genesis\\!!ForLG\\!!!\\51. Дом - практические рекомендации.pdf,0,2000-01-01 01:00:00,2016-04-03 02:51:08,223000/7eb187ca6da73b4fb6ecfa1309cd40ed.jpg,,
21515847,Динамика вязкой несжимаемой жидкости,,,,Н.А.Слезкин,1955,,Гос. изд. технико-теоретической литературы,,521,0,Russian,264,torrents.ru tech collections 2009-11-14,,,,,,,,,,,,,0,,,,,,,0,19102487,pdf,72AF030D13C0BDEDEB8177F6A18E5741,,,"D:\\!Genesis\\!!ForLG\\513911-РХД (RCD) - CD Гидроаэромеханика, Электронная библиотека РХД\\520 Н.А.Слезкин. Динамика вязкой несжимаемой жидкости. 520 стр. М.- Гос. изд. технико-теоретической литературы, 1955.pdf",0,2000-01-01 01:00:00,2016-04-03 02:51:08,223000/72af030d13c0bdedeb8177f6a18e5741.jpg,,
21515848,Планировка кухни. Советы профессионалов,,,,,,,,,65,0,Russian,49,torrents.ru tech collections 2009-11-14,,,,,,,,,,,,,0,,,,,,1,0,14927296,pdf,ACFA35F52DB72230822B89DC04E40573,,,D:\\!Genesis\\!!ForLG\\!!!\\55. Планировка кухни.pdf,0,2000-01-01 01:00:00,2016-04-03 02:51:08,223000/acfa35f52db72230822b89dc04e40573.jpg,,
21515849,55 Никифоров Куличенко Жихарев - Обезвреживание жидких радиоактивных отходов,,,,,,,,,93,0,Russian,256,torrents.ru tech collections 2009-11-14,,,,,,,,,,,,,0,,,,,,,0,2615353,djvu,51188538FBEFFD35D8FEDA44F3B8B762,f0f554b0cf5233620cfdb915fed9df6e,no,"D:\\!Genesis\\!!ForLG\\1903296-Сборник литературы по атомной энергетики [PDF,DJVU,DOC]\\55_Никифоров_Куличенко_Жихарев - Обезвреживание жидких радиоактивных отходов .djvu",0,2000-01-01 01:00:00,2016-04-03 02:51:08,223000/51188538fbeffd35d8feda44f3b8b762.jpg,,
21515850,Энциклопедия цвета,,,,Стармер А.,,,Арт-Родник,,257,0,Russian,188,torrents.ru tech collections 2009-11-14,,,,,,,,,,,,,0,,,,,,,0,17870753,pdf,F0580855FB3EEB7F7F47E8017925D8DA,,,D:\\!Genesis\\!!ForLG\\!!!\\56. Энциклопедия цвета.pdf,0,2000-01-01 01:00:00,2016-04-03 02:51:08,223000/f0580855fb3eeb7f7f47e8017925d8da.jpg,,
21515851,Гидроаэромеханика,,,,Л.Прандтль,2000,,РХД,,575,0,Russian,264,torrents.ru tech collections 2009-11-14,0,,,,,,,,,,,,0,,,,,,,0,46190723,pdf,928DEF754EC96CCF0B88C527227B5FAC,9B89B99CB6361E775F97B48B9F816F25,no,"D:/!Genesis/!!ForLG/513911-РХД (RCD) - CD Гидроаэромеханика, Электронная библиотека РХД/576 Л.Прандтль. Гидроаэромеханика. 576 стр. Ижевск- НИЦ РХД,  2000.pdf",0,2000-01-01 01:00:00,2016-04-03 02:51:08,223000/928def754ec96ccf0b88c527227b5fac.jpg,,
21515852,579 - 5000 Watt Inverter,,,,,,,Creative Science & Research,,41,0,English,210,torrents.ru tech collections 2009-11-14,,,,,,,,,,,,,0,,,,,,,1,1358836,pdf,AAFA20AC4A54DCC415F92255ABEF1549,,,D:\\!Genesis\\!!ForLG\\-=  UNSORTED BOOKS  =-\\EBOOK COLLECTION (ADDITIONAL) [CSI][h33t]\\Creative Science & Research Documents\\579 - 5000 Watt Inverter.pdf,0,2000-01-01 01:00:00,2016-04-03 02:51:08,223000/aafa20ac4a54dcc415f92255abef1549.jpg,,
21515853,Теоретическая гидромеханика,часть 1,,,"Н.Е.Кочин, И.А.Кибель, Н.В.Розе",1963,,Физматгиз,,585,0,Russian,264,torrents.ru tech collections 2009-11-14,,,,,,,,,,,,,0,,,,,,,0,18860339,pdf,151105890B31B1686077F2FA2003BCD7,,,"D:\\!Genesis\\!!ForLG\\513911-РХД (RCD) - CD Гидроаэромеханика, Электронная библиотека РХД\\584 Н.Е.Кочин, И.А.Кибель, Н.В.Розе. Теоретическая гидромеханика, часть 1. 584 стр. М.- Физматгиз, 1963.pdf",0,2000-01-01 01:00:00,2016-04-03 02:51:08,223000/151105890b31b1686077f2fa2003bcd7.jpg,,
21515854,Основы инженерных методов расчетов защиты от ионизирующих излучений ядерных энергетических установок,,,,Перевезенцев,1994,,МГТУ им Баумана,,33,0,Russian,262,torrents.ru tech collections 2009-11-14,,,,,,,,,,,,,0,,,,,,,0,1385917,djvu,4B8B5018045691B62B83109CCC3DD061,08de020370852cd3b806546ef4a71930,no,"D:\\!Genesis\\!!ForLG\\1903296-Сборник литературы по атомной энергетики [PDF,DJVU,DOC]\\59_Перевезенцев - Основы инженерных методов расчетов защиты от ионизирующих излучений ядерных энергетических установок .djvu",0,2000-01-01 01:00:00,2016-04-03 02:51:08,223000/4b8b5018045691b62b83109ccc3dd061.jpg,,
21515855,5 минут на размышление,,,,,1950,,изд. Культурно-просветительской литературы,,328,0,Russian,,torrents.ru tech collections 2009-11-14,,,,,,,,,,,,,0,,,,,,,1,5447673,djvu,F279EF7B5D0674F424F9E3943A046C8A,,,D:\\!Genesis\\!!ForLG\\1673251-Математические головоломки\\5minyt_na_razmyshlenie.djvu,0,2000-01-01 01:00:00,2016-04-03 02:51:08,223000/f279ef7b5d0674f424f9e3943a046c8a.jpg,,
21515856,Aristotle - Physics (c. 350 BC) - Translated by Hardie and Gaye,,,,,1930,,,,135,0,English,264,torrents.ru tech collections 2009-11-14,,,,,,,,,,,,,0,,,,,,,1,396272,pdf,33F47F440C00E64FEBBF3E5CF1E5943D,,,D:\\!Genesis\\!!ForLG\\25 Greatest Science Books of All Time\\6. Aristotle - Physics (c. 350 BC) - Translated by Hardie and Gaye (1930).pdf,0,2000-01-01 01:00:00,2016-04-03 02:51:08,223000/33f47f440c00e64febbf3e5cf1e5943d.jpg,,
21515857,Электромагнитные переходные процессы в электрических системах ,,,,С.А. Ульянов,1970,,Энергия,,519,0,Russian,287,torrents.ru tech collections 2009-11-14,,,,,,,,,,,,,0,,,,,,1,0,18261696,pdf,0B7D9201AE0B77D5B9A5F8BE685ADE17,,,"D:\\!Genesis\\!!ForLG\\2246000-Коллекция книг по электроснабжению, сетям и подстанциям\\6. С.А. Ульянов - Электромагнитные переходные процессы в электрических системах - .pdf",0,2000-01-01 01:00:00,2016-04-03 02:51:08,223000/0b7d9201ae0b77d5b9a5f8be685ade17.jpg,,
21515858,USMLE step 1. 6.Microbiology Immunology 2007,,,,,2007,,kaplan,,491,0,English,156,torrents.ru tech collections 2009-11-14,,,,,,,,,,,,,0,,,,,,1,0,17318395,pdf,6286261390380C3DC40826A50E69B558,,,D:\\!Genesis\\!!ForLG\\853229-Лекции к экзамену USMLE  Kaplan Medical USMLE Step 1 2004-2006\\6.Microbiology  Immunology 2007.pdf,0,2000-01-01 01:00:00,2016-04-03 02:51:08,223000/6286261390380c3dc40826a50e69b558.jpg,,
21515859,Ядерные энергетические установки,,,,Петров,1956,,Госэнергоиздат,,129,0,Russian,262,torrents.ru tech collections 2009-11-14,,,,,,,,,,,,,0,,,,,,,0,3092792,djvu,FA4F5054EC8A17BAD45671D61470F0F6,75b0ca2dc163fcd64efd7e05d9a07723,no,"D:\\!Genesis\\!!ForLG\\1903296-Сборник литературы по атомной энергетики [PDF,DJVU,DOC]\\60_Петров - Ядерные энергетические установки .djvu",0,2000-01-01 01:00:00,2016-04-03 02:51:08,223000/fa4f5054ec8a17bad45671d61470f0f6.jpg,,
21515860,Монтаж систем водоснабжения и канализации (справочник),1 часть,,,Перешивкин,1988,4,Стройиздат,,372,0,Russian,117,torrents.ru tech collections 2009-11-14,,5-274-00045-2,,,,,,,,,,,0,,,,,,,1,4527368,djvu,73DBB1489E91269E750B15DB648FA47A,,,"D:\\!Genesis\\!!ForLG\\!!!\\60-1. Монтаж систем водоснабжения и канализации (1 часть, справочник).djvu",0,2000-01-01 01:00:00,2016-04-03 02:51:08,223000/73dbb1489e91269e750b15db648fa47a.jpg,,
21515861,Монтаж систем водоснабжения и канализации (справочник),2 часть,,,Перешивкин,1988,4,Стройиздат,,284,0,Russian,117,torrents.ru tech collections 2009-11-14,,,,,,,,,,,,,0,,,,,,,1,3256667,djvu,CAEDDEF7F2DF81470B494DCEFA41D08E,,,"D:\\!Genesis\\!!ForLG\\!!!\\60-2. Монтаж систем водоснабжения и канализации (2 часть, справочник).djvu",0,2000-01-01 01:00:00,2016-04-03 02:51:08,223000/caeddef7f2df81470b494dcefa41d08e.jpg,,
21515862,Теплообмен в ядерных энергетических установках,,,,Петухов Генин Ковалев,1974,,Атомиздат,,408,0,Russian,262,torrents.ru tech collections 2009-11-14,,,,,,,,,,,,,0,,,,,,,0,31531105,pdf,08C298F192191EEF72C47B73141CCEA1,,,"D:\\!Genesis\\!!ForLG\\1903296-Сборник литературы по атомной энергетики [PDF,DJVU,DOC]\\61_Петухов_Генин_Ковалев - Теплообмен в ядерных энергетических установках .pdf",0,2000-01-01 01:00:00,2016-04-03 02:51:08,223000/08c298f192191eef72c47b73141ccea1.jpg,,
21515863,Парогенераторные установки атомных электростанций,,,,Рассохин,1987,,Энергоатомиздат,,195,0,Russian,262,torrents.ru tech collections 2009-11-14,,,,,,,,,,,,,0,,,,,,,0,7447743,djvu,C0711C6B68F1AD23B4536B38C5DF471A,c89e53c28e4a56aa217401aabb43ebbd,no,"D:\\!Genesis\\!!ForLG\\1903296-Сборник литературы по атомной энергетики [PDF,DJVU,DOC]\\64_Рассохин - Парогенераторные установки атомных электростанций .djvu",0,2000-01-01 01:00:00,2016-04-03 02:51:08,223000/c0711c6b68f1ad23b4536b38c5df471a.jpg,,
21515864,Реакторы ВВЭР-1000 для атомных электростанций,,,,"Резепов, Денисов, Кирилюк, Драгунов, Рыжов",,,,,333,0,Russian,262,torrents.ru tech collections 2009-11-14,,,,,,,,,,,,,0,,,,,,,0,3808042,djvu,2DDE2F04178A4686469FD30B1CC4D95A,e6e8431b5350f8eee15d0a992088c8a4,no,"D:\\!Genesis\\!!ForLG\\1903296-Сборник литературы по атомной энергетики [PDF,DJVU,DOC]\\65_Резепов_Денисов_Кирилюк_Драгунов_Рыжов - Реакторы ВВЭР-1000 для атомных электростанций .djvu",0,2000-01-01 01:00:00,2016-04-03 02:51:08,223000/2dde2f04178a4686469fd30b1cc4d95a.jpg,,
21515865,Теоретическая гидродинамика,,,,Л.М.Милн-Томсон,1964,,Мир,,661,0,Russian,264,torrents.ru tech collections 2009-11-14,,,,,,,,,,,,,0,,,,,,,0,29821626,pdf,2D64549D27170CB98CCCE42EB90C5FF3,,,"D:\\!Genesis\\!!ForLG\\513911-РХД (RCD) - CD Гидроаэромеханика, Электронная библиотека РХД\\660 Л.М.Милн-Томсон. Теоретическая гидродинамика. 660 стр. М.- Мир, 1964.pdf",0,2000-01-01 01:00:00,2016-04-03 02:51:08,223000/2d64549d27170cb98ccce42eb90c5ff3.jpg,,
21515866,Механика жидкости и газа,,,,Л.Г.Лойцянский,1950,,Гос. изд. технико-теоретической литературы,"М.,Л.",679,0,Russian,264,torrents.ru tech collections 2009-11-14,,,,,,,,,,,,,0,,,,,,,0,27456244,pdf,D64E61367AD245704CAA4F799B01869C,,,"D:\\!Genesis\\!!ForLG\\513911-РХД (RCD) - CD Гидроаэромеханика, Электронная библиотека РХД\\676 Л.Г.Лойцянский. Механика жидкости и газа. 676 стр. М.,Л.- Гос. изд. технико-теоретической литературы, 1950.pdf",0,2000-01-01 01:00:00,2016-04-03 02:51:08,223000/d64e61367ad245704caa4f799b01869c.jpg,,
21515867,АЭС,,,,Ширков,,,,,56,0,Russian,262,torrents.ru tech collections 2009-11-14,,,,,,,,,,,,,0,,,,,,,0,3771791,djvu,B49723A229356689FD04EBC02CA844E0,7343677e542db5bfeda571e27c0a945b,no,"D:\\!Genesis\\!!ForLG\\1903296-Сборник литературы по атомной энергетики [PDF,DJVU,DOC]\\69_Ширков - АЭС.djvu",0,2000-01-01 01:00:00,2016-04-03 02:51:08,223000/b49723a229356689fd04ebc02ca844e0.jpg,,
21515868,The Elegant Universe,,,,Brian Greene,2003,,W. W. Norton & Company,,189,0,English,266,torrents.ru tech collections 2009-11-14,,"9780393058581,0393058581",,,,,,,,,OL7452002M,,0,,,,,,,1,3223361,pdf,BDF12E54C00F58AC6A95859983561159,,,D:\\!Genesis\\!!ForLG\\25 Greatest Science Books of All Time\\Honorable Mentions\\7. Brian Green - The Elegant Universe (1999).pdf,0,2000-01-01 01:00:00,2016-04-03 02:51:08,223000/bdf12e54c00f58ac6a95859983561159-d.jpg,,
21515869,Электрические аппараты,,,,А.А. Чунихин,1988,,Энергоатомиздат,,720,0,Russian,210,torrents.ru tech collections 2009-11-14,,,,,,,,,,,,,0,,,,,,1,0,35674869,pdf,E407A7038073D1F4DFF2D3DDBE99FC0E,,,"D:\\!Genesis\\!!ForLG\\2246000-Коллекция книг по электроснабжению, сетям и подстанциям\\7. А.А. Чунихин - Электрические аппараты.pdf",0,2000-01-01 01:00:00,2016-04-03 02:51:08,223000/e407a7038073d1f4dff2d3ddbe99fc0e.jpg,,
21515870,USMLE step 1. 7.Behavioral Science,,,,,2007,,Kapkan,,210,0,English,181,torrents.ru tech collections 2009-11-14,,,,,,,,,,,,,0,,,,,,1,0,9289582,pdf,5076A0521EE12F6BF721E7A11ED1C3B6,,,D:\\!Genesis\\!!ForLG\\853229-Лекции к экзамену USMLE  Kaplan Medical USMLE Step 1 2004-2006\\7.Behavioral Science 2007.pdf,0,2000-01-01 01:00:00,2016-04-03 02:51:08,223000/5076a0521ee12f6bf721e7a11ed1c3b6.jpg,,
21515871,700 Chess Problems,,,,Mrs.W.J.BAIRD,2009,,CRC Press,,297,0,English,46,torrents.ru tech collections 2009-11-14,,,,B002ZRQURS,,,,,,,,,0,,,,,,,1,721808,pdf,7AA8F0B3DA8636912F867D8FBE1DC4FC,,,"D:\\!Genesis\\!!ForLG\\873138-Шахматы Большая Подборка шахматной литературы\\PROBLEMS\\700 Chess Problems [Baird, 1902].pdf",0,2000-01-01 01:00:00,2016-04-03 02:51:08,223000/7aa8f0b3da8636912f867d8fbe1dc4fc.jpg,,
21515872,70-431 70-443 70-444 All-In-One Mcitp Sql Server 2005 Database Administration Exam Guide,,,,,2008,,Mcgraw-Hill,,787,0,English,86,torrents.ru tech collections 2009-11-14,,"0-07-159563-5,0-07-149609-2",,,,,,,,,,,0,,,,,,,1,15420900,pdf,6BCD77FAD08730A3E81674C87B191F66,,,D:\\!Genesis\\!!ForLG\\!!!3\\70-431 70-443 70-444 All-In-One Mcitp Sql Server 2005 Database Administration Exam Guide - Mcgraw-Hill 2008.pdf,0,2000-01-01 01:00:00,2016-04-03 02:51:08,223000/6bcd77fad08730a3e81674c87b191f66.jpg,,
21515873,Коттедж. Строительство и отделка,,,,Р. Майер,,,,,,0,Russian,236,torrents.ru tech collections 2009-11-14,,,,,,,,,,,,,0,,,,,,,,10652033,rar,C1B842916ECB4C3B546DB7620D427411,,,D:\\!Genesis\\!!ForLG\\!!!\\71. Коттедж. Строительство и отделка (Р. Майер).rar,0,2000-01-01 01:00:00,2016-04-03 02:51:08,,,
21515874,Энциклопедия строительства и ремонта,,,,,,,,,,0,Russian,188,torrents.ru tech collections 2009-11-14,,,,,,,,,,,,,0,,,,,,,,18985058,rar,1FDB28A5F763DD7124842A25EEF71F57,,,D:\\!Genesis\\!!ForLG\\!!!\\72. Энциклопедия строительства и ремонта.rar,0,2000-01-01 01:00:00,2016-04-03 02:51:08,,,
21515875,Теоретическая гидромеханика,часть 2,,,"Н.Е.Кочин, И.А.Кибель, Н.В.Розе",1963,,Физматгиз,,729,0,Russian,264,torrents.ru tech collections 2009-11-14,,,,,,,,,,,,,0,,,,,,,0,24196639,pdf,26D224736ABBAFD0234D06D938DD9F98,,,"D:\\!Genesis\\!!ForLG\\513911-РХД (RCD) - CD Гидроаэромеханика, Электронная библиотека РХД\\728 Н.Е.Кочин, И.А.Кибель, Н.В.Розе. Теоретическая гидромеханика, часть 2. 728 стр. М.- Физматгиз, 1963.pdf",0,2000-01-01 01:00:00,2016-04-03 02:51:08,223000/26d224736abbafd0234d06d938dd9f98.jpg,,
21515876,Конструирование и расчет элементов главного корпуса электростанций (Методические указания у курсовому и дипломному проектированию),,,,Соколов,1996,,,,39,0,Russian,210,torrents.ru tech collections 2009-11-14,,,,,,,,,,,,,0,,,,,,,1,1002904,pdf,94D334A969C1A0A7636F19A65AA987CF,,,"D:\\!Genesis\\!!ForLG\\1903296-Сборник литературы по атомной энергетики [PDF,DJVU,DOC]\\73_Соколов - Конструирование и расчет элементов главного корпуса электростанций (Методические указания у курсовому и дипломному проектированию) .pdf",0,2000-01-01 01:00:00,2016-04-03 02:51:08,223000/94d334a969c1a0a7636f19a65aa987cf.jpg,,
21515877,Теоретическая физика- Гидродинамика,том 6,,,"Л.Д.Ландау, Е.М.Лифшиц",1986,,Наука,,737,0,Russian,264,torrents.ru tech collections 2009-11-14,,,,,,,,,,,,,0,,,,,,,0,33078468,pdf,4F28FBB23BB0FA49FBAD73EDB0CCF517,,,"D:\\!Genesis\\!!ForLG\\513911-РХД (RCD) - CD Гидроаэромеханика, Электронная библиотека РХД\\736 Л.Д.Ландау, Е.М.Лифшиц. Теоретическая физика- Гидродинамика.   т.6. 736 стр. М.- Наука, 1986.том 6-й из 10-ти.pdf",0,2000-01-01 01:00:00,2016-04-03 02:51:08,223000/4f28fbb23bb0fa49fbad73edb0ccf517.jpg,,
21515878,Capacitors That Recharge Themselves,,,,,,,Creative Science & Research,,10,0,English,210,torrents.ru tech collections 2009-11-14,,,,,,,,,,,,,0,,,,,,,1,541964,pdf,9783BD4F613BCA751044CCA3AE70436D,,,D:\\!Genesis\\!!ForLG\\-=  UNSORTED BOOKS  =-\\EBOOK COLLECTION (ADDITIONAL) [CSI][h33t]\\Creative Science & Research Documents\\757 - Capacitors That Recharge Themselves.pdf,0,2000-01-01 01:00:00,2016-04-03 02:51:08,223000/9783bd4f613bca751044cca3ae70436d.jpg,,
21515879,Сборник лекций по ТЯРу,,,,,,,,,310,0,Russian,183,torrents.ru tech collections 2009-11-14,,,,,,,,,,,,,0,,,,,,1,1,7595608,pdf,5CA13D0BF07E8E14ECCB6151BCFB3327,,,"D:\\!Genesis\\!!ForLG\\1903296-Сборник литературы по атомной энергетики [PDF,DJVU,DOC]\\76_Сборник лекций по ТЯРу.pdf",0,2000-01-01 01:00:00,2016-04-03 02:51:08,223000/5ca13d0bf07e8e14eccb6151bcfb3327.jpg,,
21515880,Гидродинамика. Собрание сочинений,том 2,,,Н.Е.Жуковский,1949,,Гос. изд. технико-теоретической литературы,,761,0,Russian,102,torrents.ru tech collections 2009-11-14,,,,,,,,,,,,,0,,,,,,,0,23978559,pdf,20C8AFD69575966466C01D09CE3FA2F1,,,"D:\\!Genesis\\!!ForLG\\513911-РХД (RCD) - CD Гидроаэромеханика, Электронная библиотека РХД\\765 Н.Е.Жуковский. Гидродинамика. Собрание сочинений, том 2. 765 стр. М.- М.,Л.- Гос. изд. технико-теоретической литературы,1949.pdf",0,2000-01-01 01:00:00,2016-04-03 02:51:08,223000/20c8afd69575966466c01d09ce3fa2f1.jpg,,
21515881,Эффекты реактивности в энергетических реакторах,,,,Украинцев,,,,,60,0,Russian,262,torrents.ru tech collections 2009-11-14,,,,,,,,,,,,,0,,,,,,,1,998274,pdf,C3A18BB7130F40E53F38CB494F6846ED,,,"D:\\!Genesis\\!!ForLG\\1903296-Сборник литературы по атомной энергетики [PDF,DJVU,DOC]\\77_Украинцев - Эффекты реактивности в энергетических реакторах .pdf",0,2000-01-01 01:00:00,2016-04-03 02:51:08,223000/c3a18bb7130f40e53f38cb494f6846ed.jpg,,
21515882,Chess Miniatures In Three,,,,E. Wallis,1908,,E. Wallis,,173,0,English,46,torrents.ru tech collections 2009-11-14,,,,B001E8SYT6,,,,,,,,,0,,,,,,,1,3268394,pdf,3DA0EA172A792B127765F122448040EE,,,"D:\\!Genesis\\!!ForLG\\873138-Шахматы Большая Подборка шахматной литературы\\PROBLEMS\\777 Chess Miniatures In Three [Wallis, 1908].pdf",0,2000-01-01 01:00:00,2016-04-03 02:51:08,223000/3da0ea172a792b127765f122448040ee.jpg,,
21515883,Реакторы на быстрых нейтронах,,,,"Усынин, Кусмарцев",1985,,Энергоатомиздат,,143,0,Russian,262,torrents.ru tech collections 2009-11-14,,,,,,,,,,,,,0,,,,,,,0,7161881,djvu,A2F827A4C30E8C9D2158EBCFDCE45F8C,c5a7869e9835037642decd05c9398a8d,no,"D:\\!Genesis\\!!ForLG\\1903296-Сборник литературы по атомной энергетики [PDF,DJVU,DOC]\\78_Усынин_Кусмарцев - Реакторы на быстрых нейтронах .djvu",0,2000-01-01 01:00:00,2016-04-03 02:51:08,223000/a2f827a4c30e8c9d2158ebcfdce45f8c.jpg,,
21515884,Введение в динамику жидкости,,,,Дж.Бэтчелор,1973,,Мир,,779,0,Russian,264,torrents.ru tech collections 2009-11-14,,,,,,,,,,,,,0,,,,,,,0,48669002,pdf,789ACD474F6F4D8A4D4B3A6A4CF60E78,,,"D:\\!Genesis\\!!ForLG\\513911-РХД (RCD) - CD Гидроаэромеханика, Электронная библиотека РХД\\792 Дж.Бэтчелор. Введение в динамику жидкости. 792 стр. М.- Мир, 1973.pdf",0,2000-01-01 01:00:00,2016-04-03 02:51:08,223000/789acd474f6f4d8a4d4b3a6a4cf60e78.jpg,,
21515885,Конденсаторные установки промышленных предприятий,,,,В.П. Ильяшов,,,,,153,0,Russian,210,torrents.ru tech collections 2009-11-14,,,,,,,,,,,,,0,,,,,,1,0,14395321,pdf,8132E67072593E94E37DFB7ACDEF3000,,,"D:\\!Genesis\\!!ForLG\\2246000-Коллекция книг по электроснабжению, сетям и подстанциям\\8. В.П. Ильяшов - Конденсаторные установки промышленных предприятий.pdf",0,2000-01-01 01:00:00,2016-04-03 02:51:08,223000/8132e67072593e94e37dfb7acdef3000.jpg,,
21515886,USMLE step 1. 8.Kaplan Qbook Step 1,,,,,2007,,Kaplan,,441,0,English,147,torrents.ru tech collections 2009-11-14,,,,,,,,,,,,,0,,,,,,1,0,32066694,pdf,2385D8F51E968BB3C44B70084BF9A88E,,,D:\\!Genesis\\!!ForLG\\853229-Лекции к экзамену USMLE  Kaplan Medical USMLE Step 1 2004-2006\\8.Kaplan Qbook Step 1.pdf,0,2000-01-01 01:00:00,2016-04-03 02:51:08,223000/2385d8f51e968bb3c44b70084bf9a88e.jpg,,
21515887,8051 Interfacing and Applications,,,,,1991,,ALE,,78,0,English,254,torrents.ru tech collections 2009-11-14,,,,,,,,,,,,,0,,,,,,,0,3368055,pdf,64DA8F0EBD7442B9B55A5519B74A9D97,,,"D:\\!Genesis\\!!ForLG\\1513206-Подборка книг по микроконтроллерам, ПЛИС, САПР, справочники\\Микроконтроллеры\\x51\\8051 Interfacing and Applications (1991).pdf",0,2000-01-01 01:00:00,2016-04-03 02:51:08,223000/64da8f0ebd7442b9b55a5519b74a9d97.jpg,,
21515888,Основы вихревой теории,,,,Г.Гельмгольц,2002,,Ижевск- Институт компьютерных исследований,,83,0,Russian,264,torrents.ru tech collections 2009-11-14,,,,,,,,,,,,,0,,,,,,,0,5454957,pdf,4D8121DCFBB3F93139D2CD6F53C80194,,,"D:\\!Genesis\\!!ForLG\\513911-РХД (RCD) - CD Гидроаэромеханика, Электронная библиотека РХД\\82 Г.Гельмгольц. Основы вихревой теории. 82 стр. М., Ижевск- Институт компьютерных исследований, 2002.pdf",0,2000-01-01 01:00:00,2016-04-03 02:51:08,223000/4d8121dcfbb3f93139d2cd6f53c80194.jpg,,
21515889,Физика реакторов,,,,Цвайфель,,,,,279,0,Russian,264,torrents.ru tech collections 2009-11-14,,,,,,,,,,,,,0,,,,,,,0,3583740,djvu,1D57FEB782BA5A27B5D349BE3E12483B,694ea64f2a98dd5f07a3d249770243ec,no,"D:\\!Genesis\\!!ForLG\\1903296-Сборник литературы по атомной энергетики [PDF,DJVU,DOC]\\82_Цвайфель - Физика реакторов .djvu",0,2000-01-01 01:00:00,2016-04-03 02:51:08,223000/1d57feb782ba5a27b5d349be3e12483b.jpg,,
21515890,Сборник статей по проекту ВВЭР СКД. Водоохлаждаемые реакторы на воде сверхкритических параметров,,,,,,,,,313,0,Russian,262,torrents.ru tech collections 2009-11-14,,,,,,,,,,,,,0,,,,,,1,1,43701380,pdf,922F757831F2F76D71BA34BAB48B2CD5,,,"D:\\!Genesis\\!!ForLG\\1903296-Сборник литературы по атомной энергетики [PDF,DJVU,DOC]\\83_Сборник статей по проекту ВВЭР СКД.pdf",0,2000-01-01 01:00:00,2016-04-03 02:51:08,223000/922f757831f2f76d71ba34bab48b2cd5.jpg,,
21515891,Методы решения уравнений переноса нейтронов,,,,Сироткин,,,,,33,0,Russian,113,torrents.ru tech collections 2009-11-14,,,,,,,,,,,,,0,,,,,,,1,1100432,djvu,E0385E41B22C0D56BC907681865379AC,,,"D:\\!Genesis\\!!ForLG\\1903296-Сборник литературы по атомной энергетики [PDF,DJVU,DOC]\\84_Сироткин - Методы решения уравнений переноса нейтронов.djvu",0,2000-01-01 01:00:00,2016-04-03 02:51:08,223000/e0385e41b22c0d56bc907681865379ac.jpg,,
21515892,Методика нейтронно-физического расчета быстрых реакторов,,,,Кузьмин,,,Creative Science & Research,,,0,Russian,262,torrents.ru tech collections 2009-11-14,,,,,,,,,,,,,0,,,,,,,,4804096,doc,1D15E79A8808E6501E0F74E9FDB85418,,,"D:\\!Genesis\\!!ForLG\\1903296-Сборник литературы по атомной энергетики [PDF,DJVU,DOC]\\85_Кузьмин - Методика нейтронно-физического расчета быстрых реакторов.doc",0,2000-01-01 01:00:00,2016-04-03 02:51:08,,,
21515893,Fuelless Heater,,,,,,,Creative Science & Research,,27,0,English,243,torrents.ru tech collections 2009-11-14,,,,,,,,,,,,,0,,,,,,,0,2384646,pdf,5B6897B7D3F5E3FAAF905F59483AF6C6,,,D:\\!Genesis\\!!ForLG\\-=  UNSORTED BOOKS  =-\\EBOOK COLLECTION (ADDITIONAL) [CSI][h33t]\\Creative Science & Research Documents\\878 - Fuelless Heater a.pdf,0,2000-01-01 01:00:00,2016-04-03 02:51:08,223000/5b6897b7d3f5e3faaf905f59483af6c6.jpg,,
21515894,Fuelless Heater,,,,,,,,,25,0,English,243,torrents.ru tech collections 2009-11-14,,,,,,,,,,,,,0,,,,,,,1,782898,pdf,F573C92195CED83F3C71A9FA5F19EAE4,,,D:\\!Genesis\\!!ForLG\\-=  UNSORTED BOOKS  =-\\EBOOK COLLECTION (ADDITIONAL) [CSI][h33t]\\Creative Science & Research Documents\\878 - Fuelless Heater.pdf,0,2000-01-01 01:00:00,2016-04-03 02:51:08,223000/f573c92195ced83f3c71a9fa5f19eae4.jpg,,
21515895,Расчет парогенераторов для АЭС,2 часть,,,Новиков Радовский,2001,,МИФИ,,57,0,Russian,262,torrents.ru tech collections 2009-11-14,,,,,,,,,,,,,0,,,,,,,0,12448294,djvu,4A64C12B3C4DD76E95E74682879586CC,,,"D:\\!Genesis\\!!ForLG\\1903296-Сборник литературы по атомной энергетики [PDF,DJVU,DOC]\\88_Новиков_Радовский - Расчет парогенераторов для АЭС (2 части).djvu",0,2000-01-01 01:00:00,2016-04-03 02:51:08,223000/4a64c12b3c4dd76e95e74682879586cc.jpg,,
21515896,Тепловые циклы и схемы АЭС,,,,"Новиков, Радовский",,,,,16,0,Russian,262,torrents.ru tech collections 2009-11-14,,,,,,,,,,,,,0,,,,,,,0,19290822,djvu,285A801B57991BF8023964140F62B521,,,"D:\\!Genesis\\!!ForLG\\1903296-Сборник литературы по атомной энергетики [PDF,DJVU,DOC]\\89_Новиков_Радовский - Тепловые циклы и схемы АЭС.djvu",0,2000-01-01 01:00:00,2016-04-03 02:51:08,223000/285a801b57991bf8023964140f62b521.jpg,,
21515897,Диффузия и замедление нейтронов в неразмножающих средах,,,,Хромов Кашутин,1982,,МИФИ,,54,0,Russian,262,torrents.ru tech collections 2009-11-14,,,,,,,,,,,,,0,,,,,,1,0,112457254,pdf,9C606227387677713ED8F264D3FEEB2A,,,"D:\\!Genesis\\!!ForLG\\1903296-Сборник литературы по атомной энергетики [PDF,DJVU,DOC]\\90_Хромов_Кашутин - Диффузия и замедление нейтронов в неразмножающих средах.pdf",0,2000-01-01 01:00:00,2016-04-03 02:51:08,223000/9c606227387677713ed8f264d3feeb2a.jpg,,
21515898,Теория переноса нейтронов,,,,"Хромов, Кашутин ",,,,,33,0,Russian,262,torrents.ru tech collections 2009-11-14,,,,,,,,,,,,,0,,,,,,,0,25384855,djvu,1E221180F96121DF0B2663A00BB0656E,,,"D:\\!Genesis\\!!ForLG\\1903296-Сборник литературы по атомной энергетики [PDF,DJVU,DOC]\\91_Хромов_Кашутин - Теория переноса нейтронов.djvu",0,2000-01-01 01:00:00,2016-04-03 02:51:08,223000/1e221180f96121df0b2663a00bb0656e.jpg,,
21515899,911 and the Impossible - (WTC BUSH BINLADEN FBI CIA),,,,,,,,,93,0,English,102,torrents.ru tech collections 2009-11-14,,,,,,,,,,,,,0,,,,,,,1,4174159,pdf,A84223C548B3FDE461E94B7FC1008C85,,,D:\\!Genesis\\!!ForLG\\-=  UNSORTED BOOKS  =-\\EBOOK COLLECTION (PART4) [CSI][h33t]\\911 and the Impossible - (WTC BUSH BINLADEN FBI CIA).pdf,0,2000-01-01 01:00:00,2016-04-03 02:51:08,223000/a84223c548b3fde461e94b7fc1008c85.jpg,,
21515900,Радиация Жизнь Разум,,,,"В.А., Боровик А.С., Малышевский В.С.",2001,,,,,0,Russian,262,torrents.ru tech collections 2009-11-14,,,,,,,,,,,,,0,,,,,,,,673280,doc,DF66717B025BC5B86442D480E57392F8,,,"D:\\!Genesis\\!!ForLG\\1903296-Сборник литературы по атомной энергетики [PDF,DJVU,DOC]\\92_Ян Гора Лесси - Радиация Жизнь Разум.doc",0,2000-01-01 01:00:00,2016-04-03 02:51:08,,,
21515901,Гидродинамика,,,,Г.Ламб,1947,,"М., Л.- Гос. изд. технико-теоретической литературы",,930,0,Russian,264,torrents.ru tech collections 2009-11-14,,,,,,,,,,,,,0,,,,,,,0,33646354,pdf,8585CF805CBFA0CFFC32B484D13B08C3,,,"D:\\!Genesis\\!!ForLG\\513911-РХД (RCD) - CD Гидроаэромеханика, Электронная библиотека РХД\\928 Г.Ламб. Гидродинамика. 928 стр. М., Л.- Гос. изд. технико-теоретической литературы, 1947.pdf",0,2000-01-01 01:00:00,2016-04-03 02:51:08,223000/8585cf805cbfa0cffc32b484d13b08c3.jpg,,
21515902,Ядерное электричество,,,,Ян Гора Лесси,2002,,Ростиздат,,,0,Russian,262,torrents.ru tech collections 2009-11-14,,,,,,,,,,,,,0,,,,,,,,1783808,doc,0685955F3CF1CD4983A878E49C225F46,,,"D:\\!Genesis\\!!ForLG\\1903296-Сборник литературы по атомной энергетики [PDF,DJVU,DOC]\\93_Ян Гора Лесси - Ядерное электричество.doc",0,2000-01-01 01:00:00,2016-04-03 02:51:08,,,
21515903,Полиномиальный метод решения диффузионных уравнений в гексагональной геометрии,,,,Батурин Зимин,,,,,14,0,Russian,113,torrents.ru tech collections 2009-11-14,,,,,,,,,,,,,0,,,,,,,1,290820,pdf,E4F05FF286BA468396655A72E67A639A,,,"D:\\!Genesis\\!!ForLG\\1903296-Сборник литературы по атомной энергетики [PDF,DJVU,DOC]\\95_Батурин_Зимин - Полиномиальный метод решения диффузионных уравнений.pdf",0,2000-01-01 01:00:00,2016-04-03 02:51:08,223000/e4f05ff286ba468396655a72e67a639a.jpg,,
21515904,Физические основы безопасности ЯР,,,,Наумов,,,,,129,0,Russian,262,torrents.ru tech collections 2009-11-14,,,,,,,,,,,,без картинок,0,,,,,,1,1,875516,pdf,E89FECE6B1373B72946F19FE080855DA,,,"D:\\!Genesis\\!!ForLG\\1903296-Сборник литературы по атомной энергетики [PDF,DJVU,DOC]\\98_Наумов - Физические основы безопасности ЯР (без картинок).pdf",0,2000-01-01 01:00:00,2016-04-03 02:51:08,223000/e89fece6b1373b72946f19fe080855da.jpg,,
21515905,Программы и программные комплексы применяемые при проектировании ЯЭУ,,,,Кавун,,,,,109,0,Russian,262,torrents.ru tech collections 2009-11-14,,,,,,,,,,,,,0,,,,,,,1,1099271,pdf,6DB46258898BB15058F65EC91D44B8E8,,,"D:\\!Genesis\\!!ForLG\\1903296-Сборник литературы по атомной энергетики [PDF,DJVU,DOC]\\99_Кавун - Программы и программные комплексы применяемые при проектировании ЯЭУ.pdf",0,2000-01-01 01:00:00,2016-04-03 02:51:08,223000/6db46258898bb15058f65ec91d44b8e8.jpg,,
21515906,Геометрические приложения понятия о центре тяжести,,Библиотека математического кружка. Выпуск 09,,Балк М.Б.,1959,,Гостехиздат,Москва,233,0,Russian,121,torrents.ru tech collections 2009-11-14,0,,,,,,,,,,,,0,,,,,,,1,2899445,djvu,EA13664FAE259A3716A170A4736A9DA8,,,D:/!Genesis/!!ForLG/1735447-Личный сборник книг по математке/Геометрия/9-tyazh(1).djvu,0,2000-01-01 01:00:00,2016-04-03 02:51:08,223000/ea13664fae259a3716a170a4736a9da8.jpg,,
21515907,"A Biographical Dictionary of Ancient, Medieval, and Modern Freethinkers",,,,Joseph McCabe,1945,,Haldeman-julius Publications,,128,0,English,64,torrents.ru tech collections 2009-11-14,,,,B001FSW40A,,,,,,,,,0,,,,,,,1,402176,pdf,E047421AF69223956DD3CEF0852CBBBF,,,"D:\\!Genesis\\!!ForLG\\-=  UNSORTED BOOKS  =-\\EBOOK COLLECTION (PART11) [CSI][h33t]\\A Biographical Dictionary of Ancient, Medieval, and Modern Freethinkers.pdf",0,2000-01-01 01:00:00,2016-04-03 02:51:08,223000/e047421af69223956dd3cef0852cbbbf.jpg,,
21515908,A Byte of Python 1.92,,,,Swaroop C. H.,2009,,,,118,0,English,92,torrents.ru tech collections 2009-11-14,,,,,,,,,,,,,0,,,,,,1,1,618554,pdf,810E5705871BCBB751DAAD7AD0DF69AE,,,D:\\!Genesis\\!!ForLG\\2436308-\\A Byte of Python 1.92 [Swaroop C. H.] (2009).pdf,0,2000-01-01 01:00:00,2016-04-03 02:51:08,223000/810e5705871bcbb751daad7ad0df69ae.jpg,,
21515909,A Candid History of the Jesuits,,,,Joseph McCabe,2010,,Nabu Press,,458,0,English,64,torrents.ru tech collections 2009-11-14,,"9781177806947,1177806940",,,,,,,,,,,0,,,,,,,1,26488763,pdf,8AEA15EB64CC9D436580CA6E47206EB0,,,D:\\!Genesis\\!!ForLG\\-=  UNSORTED BOOKS  =-\\EBOOK COLLECTION (PART5) [CSI][h33t]\\HISTORY OF THE JESUITS\\A Candid History of the Jesuits by Joseph McCabe.pdf,0,2000-01-01 01:00:00,2016-04-03 02:51:08,223000/8aea15eb64cc9d436580ca6e47206eb0-d.jpg,,
21515910,A Colour Atlas of Plant Structure,,,,Bryan B. Bowes,1999,,Manson Publishing Ltd,,190,0,English,29,torrents.ru tech collections 2009-11-14,,"9781874545163,1874545162",,,,,,,,,OL8655273M,,0,,,,,,1,0,46812455,pdf,C5495508F460C9602D8B53D84A7F2101,,,"D:\\!Genesis\\!!ForLG\\2085927-Биология, биофизика, анатомия, болезни растений\\A Colour Atlas of Plant Structure, p.190.pdf",0,2000-01-01 01:00:00,2016-04-03 02:51:08,223000/c5495508f460c9602d8b53d84a7f2101-d.jpg,,
21515911,A Companion To Astronomy And Astrophysics,,,,Lang,2006,,Springer,,382,0,English,,torrents.ru tech collections 2009-11-14,,,,,,,,,,,,,0,,,,,,,1,5085347,pdf,8923CB574F5A34E96E12087B69387650,,,"D:\\!Genesis\\!!ForLG\\!!!3\\A Companion To Astronomy And Astrophysics, Lang, Springer 2006.pdf",0,2000-01-01 01:00:00,2016-04-03 02:51:08,223000/8923cb574f5a34e96e12087b69387650.jpg,,
21515912,A Complete Handbook of Nature Cures,,,,H. K. Bakhru,2003,,Jaico Pub House,,265,0,English,181,torrents.ru tech collections 2009-11-14,,"8172242298,9788172242299",,,,,,,,,OL9080556M,sirerip,0,,,,,,1,1,1324690,pdf,FEFFE7C772D3834BF80EBE15C87C5F8E,,,D:\\!Genesis\\!!ForLG\\-=  UNSORTED BOOKS  =-\\EBOOK COLLECTION (PART11) [CSI][h33t]\\A Complete Handbook of Nature Cures.pdf,0,2000-01-01 01:00:00,2016-04-03 02:51:08,223000/feffe7c772d3834bf80ebe15c87c5f8e.jpg,,
21515913,A Computational Introduction To Number Theory and Algebra,,,,Victor Shoup,2004,,,,518,0,English,120,torrents.ru tech collections 2009-11-14,,,,,,,,,,,,,0,,,,,,1,1,2953744,pdf,514759F48C003DBC1B2CC4D4365E52F8,,,D:\\!Genesis\\!!ForLG\\Криптография\\A Computational Introduction To Number Theory and Algebra (2004) - Victor Shoup.pdf,0,2000-01-01 01:00:00,2016-04-03 02:51:08,223000/514759f48c003dbc1b2cc4d4365e52f8.jpg,,
21515914,A Defence of Free-Thinking in Mathematics,,,,George Berkeley,,,,,22,0,English,113,torrents.ru tech collections 2009-11-14,,,,,,,,,,,,,0,,,,,,,1,443282,pdf,5A2A806053794DAA9F7D952F25762B8A,,,D:\\!Genesis\\!!ForLG\\-=  UNSORTED BOOKS  =-\\A Defence of Free-Thinking in Mathematics By George Berkeley.pdf,0,2000-01-01 01:00:00,2016-04-03 02:51:08,223000/5a2a806053794daa9f7d952f25762b8a.jpg,,
21515915,Ничья!,,,,Верховский,1979,,ФИС,,114,0,Russian,46,torrents.ru tech collections 2009-11-14,,,,,,,,,,,,,0,,,,,,,1,9487896,pdf,870B4A54584DB6E3E6DE731EC9E9E47F,,,"D:\\!Genesis\\!!ForLG\\873138-Шахматы Большая Подборка шахматной литературы\\FOREIGN\\RUSSIAN\\A Draw! [L. Verkhovsky, 1979, Russian].pdf",0,2000-01-01 01:00:00,2016-04-03 02:51:08,223000/870b4a54584db6e3e6de731ec9e9e47f.jpg,,
21515916,A FEW REASONS FOR DOUBTING THE INSPIRATIONS OF THE BIBLE,,,,Robert G. Ingersoll,1997,,American Atheist Press,,17,0,English,205,torrents.ru tech collections 2009-11-14,,"9781578849505,1578849500",,,,,,,,,OL12245934M,,0,,,,,,,1,54602,pdf,03986F87075730E10A5B64E8A6D24CD1,,,D:\\!Genesis\\!!ForLG\\-=  UNSORTED BOOKS  =-\\Non-Fiction\\Philosophy and Religion\\Religion\\Atheism\\A FEW REASONS FOR DOUBTING THE INSPIRATIONS OF THE BIBLE by Robert Green Ingersoll.pdf,0,2000-01-01 01:00:00,2016-04-03 02:51:08,223000/03986f87075730e10a5b64e8a6d24cd1-d.jpg,,
21515917,A First Course In Discrete Mathematics,,,,I Anderson,2001,2,Springer,,199,0,English,113,torrents.ru tech collections 2009-11-14,,,,,,,,,,,,,0,,,,,,,0,7004259,pdf,005EADFC0B35A5524FAD7C29FAA50216,,,"D:\\!Genesis\\!!ForLG\\!!!3\\A First Course In Discrete Mathematics 2Nd Ed - I Anderson (Springer, 2001).pdf",0,2000-01-01 01:00:00,2016-04-03 02:51:08,223000/005eadfc0b35a5524fad7c29faa50216.jpg,,
21515918,"A First Course in Logic: An Introduction to Model Theory, Proof Theory, Computability, and Complexity",,Oxford Texts in Logic,,Shawn Hedman,2004,,"Oxford University Press, USA",,452,0,English,130,torrents.ru tech collections 2009-11-14,0,"0-19-852980-5,0-19-852981-3,9780198529804",,,,,160,QA9 .H36 2004,,,,,0,,,,,,,1,7127855,pdf,A6DA72123E292EEDE0621E5477C8DC1B,384EDF9C6FA8B9124ED2BDDEC534136B,no,"D:/!Genesis/!!ForLG/!!!3/A First Course In Logic - (Model, Proof Theory, Computability, And Complexity) - Shawn Hedman (Oup, 2006).pdf",0,2000-01-01 01:00:00,2016-04-03 02:51:08,223000/a6da72123e292eede0621e5477c8dc1b-d.jpg,,
21515919,A First Course In Probability (Solution Manual),,,,Sheldon Ross,,7,Prentice Hall ,,147,0,English,119,torrents.ru tech collections 2009-11-14,,,,,,,,,,,,,0,,,,,,1,1,1027149,pdf,E4FC064BA29374E9187C8EC915BE678C,,,D:\\!Genesis\\!!ForLG\\!!!3\\A First Course In Probability 7Ed (Solution Manual Prentice Hall 147S) Sheldon Ross.pdf,0,2000-01-01 01:00:00,2016-04-03 02:51:08,223000/e4fc064ba29374e9187c8ec915be678c.jpg,,
21515920,A Glimpse of the Great Secret Society,,,,,1880,,,,341,0,English,64,torrents.ru tech collections 2009-11-14,,,,,,,,,,,,,0,,,,,,,1,19953878,pdf,8544B1431405707E92EB145374C1B070,,,D:\\!Genesis\\!!ForLG\\-=  UNSORTED BOOKS  =-\\EBOOK COLLECTION (PART5) [CSI][h33t]\\HISTORY OF THE JESUITS\\A Glimpse of the Great Secret Society.pdf,0,2000-01-01 01:00:00,2016-04-03 02:51:08,223000/8544b1431405707e92eb145374c1b070.jpg,,
21515921,A Grammar Of Biblical Aramaic,,,,Torah Jewish Israel,1961,,,,108,0,English,314,torrents.ru tech collections 2009-11-14,,,,,,,,,,,,,0,,,,,,,0,3237176,pdf,7538D2A6323920E60D1BB4F1BFBBA17F,,,D:\\!Genesis\\!!ForLG\\-=  UNSORTED BOOKS  =-\\A Grammar Of Biblical Aramaic - Torah Jewish Israel.pdf,0,2000-01-01 01:00:00,2016-04-03 02:51:08,223000/7538d2a6323920e60d1bb4f1bfbba17f.jpg,,
21515922,A Guide to Chess Endings,,,,"Max Euwe, David Hooper",1976,,Dover Publications,,122,0,English,46,torrents.ru tech collections 2009-11-14,,"0486233324,9780486233321",,,,,794.1/24,GV1450.7 .E8 1976,,,OL5212825M,,0,,,,0,1,,0,8485901,pdf,78674BDEE4973F8421FD44751F9C964C,,,"D:\\!Genesis\\!!ForLG\\873138-Шахматы Большая Подборка шахматной литературы\\ENDGAMES\\A Guide to Chess Endings [Max Euwe & David Hoper, 1959].pdf",0,2000-01-01 01:00:00,2016-04-03 02:51:08,223000/78674bdee4973f8421fd44751f9c964c-d.jpg,,
21515923,A Hand Book For The Mechanical HVAC Designer,,,,,1999,2,Loren Cook,,107,0,English,264,torrents.ru tech collections 2009-11-14,,,,,,,,,,,,,0,,,,,,1,1,519107,pdf,5ACE495991A68923693725E19859F15E,,,D:\\!Genesis\\!!ForLG\\hvac\\A Hand Book For The Mechanical HVAC Designer.pdf,0,2000-01-01 01:00:00,2016-04-03 02:51:08,223000/5ace495991a68923693725e19859f15e.jpg,,
21515924,"A History of Philosophy, Volume 3: Late Medieval and Renaissance Philosophy: Ockham, Francis Bacon, and the Beginning of the Modern World",vol 3,,,Frederick Copleston,1993,New edition,Image,,246,0,English,64,torrents.ru tech collections 2009-11-14,0,0385468458,,,,,,,,,OL7439951M,,0,,,,,1,1,1,8035220,pdf,5C5C38D04A24796B56EF80A45EFD3A53,,,"D:/!Genesis/!!ForLG/-=  UNSORTED BOOKS  =-/Academic books/Theology, philosophy and the history of ideas/Copleston History of Philosophy/A History of Philosophy 3.pdf",0,2000-01-01 01:00:00,2016-04-03 02:51:08,223000/5c5c38d04a24796b56ef80a45efd3a53-d.jpg,,
21515925,A Little Cook Book for a Little Girl,,,,Caroline French Benton,2010,,General Books LLC,,70,0,English,49,torrents.ru tech collections 2009-11-14,,"9781153584340,1153584344",,,,,,,,,,,0,,,,,,,1,115720,pdf,688092FD1AD06714B4D8E102BBC600C4,,,D:\\!Genesis\\!!ForLG\\-=  UNSORTED BOOKS  =-\\Non-Fiction\\Food and Cooking\\Recipes\\57 Cooking e-Books\\A Little Cook Book for a Little Girl.pdf,0,2000-01-01 01:00:00,2016-04-03 02:51:08,223000/688092fd1ad06714b4d8e102bbc600c4-d.jpg,,
21515926,A Magnificent Menagerie Of Mischievous Magic,,,,Robin C. Ashmore and Michele Batter,,,,,,0,English,,torrents.ru tech collections 2009-11-14,,,,,,,,,,,,,0,,,,,,,,39424,doc,CD070BFBED1C73FB2E89E9199777C7EF,,,D:\\!Genesis\\!!ForLG\\-=  UNSORTED BOOKS  =-\\A Magnificent Menagerie Of Mischievous Magic.doc,0,2000-01-01 01:00:00,2016-04-03 02:51:08,,,
21515927,A New Kind Of Science,,,,S. Wolfram,,,Wolfram media,,1305,0,English,181,torrents.ru tech collections 2009-11-14,0,"1579550088,9781579550080",,,,,500,,,,,,0,,,,,,,0,87163542,pdf,C3C9A59DF30FFE31EC9EC396171A680A,004d4d16b888a1ee44fa4930f205c593,no,D:/!Genesis/!!ForLG/1951296-Огромнейшая коллекция книг по ФИЗИКЕ/Modern Physics/theoretical Physics/A New Kind Of Science - S. Wolfram.pdf,0,2000-01-01 01:00:00,2016-04-03 02:51:08,223000/c3c9a59df30ffe31ec9ec396171a680a.jpg,,
21515928,"A NEW, Short, and Easy METHOD of Fencing",,,,"Earl Marischal,",,,,,,0,English,295,torrents.ru tech collections 2009-11-14,,,,,,,,,,,,,0,,,,,,,,764928,doc,C9E41EF454593F4193ECC59E0EB02DFA,,,D:\\!Genesis\\!!ForLG\\1528206-Подборка старых книг по фехтованию\\A NEW.doc,0,2000-01-01 01:00:00,2016-04-03 02:51:08,,,
21515929,A Practical Approach to Analyzing Focal Lesions in the Liver,,,,"Duan Li, and Lucy E. Hann",,,,,14,0,English,,torrents.ru tech collections 2009-11-14,,,,,,,,,,,,,0,,,,,,,1,1906772,pdf,17B3F2A32055C6E89B0448AF79D06897,,,D:\\!Genesis\\!!ForLG\\!!!3\\A Practical Approach to Analyzing Focal Lesions in the Liver.pdf,0,2000-01-01 01:00:00,2016-04-03 02:51:08,223000/17b3f2a32055c6e89b0448af79d06897.jpg,,
21515930,A Primer of Chess,,,,Jose R. Capablanca,2002,,Mariner Books,,281,0,English,46,torrents.ru tech collections 2009-11-14,,"9780156028073,0156028077",,,,,,,,,OL7365596M,,0,,,,,,1,0,24244429,pdf,F54AB878E654CD718FC4E669C6C9FD76,,,"D:\\!Genesis\\!!ForLG\\873138-Шахматы Большая Подборка шахматной литературы\\GENERAL\\A Primer of Chess [Jose R. Capablanca, 1935] .pdf",0,2000-01-01 01:00:00,2016-04-03 02:51:08,223000/f54ab878e654cd718fc4e669c6c9fd76-d.jpg,,
21515931,A Primer on Scientific Programming with Python,,Texts in Computational Science and Engineering 6,,Hans Petter Langtangen (auth.),2009,,Springer Berlin Heidelberg,,726,0,English,92,torrents.ru tech collections 2009-11-14,,"978-3-642-02474-0,978-3-642-02475-7",,,,,,,10.1007/978-3-642-02475-7,,,,0,,,,,,1,1,7155726,pdf,E0E0049060922AB7E0D88605C3F0D227,,,"D:\\!Genesis\\!!ForLG\\!!!3\\A Primer on Scientific Programming with Python (Springer, 2009).pdf",0,2000-01-01 01:00:00,2016-04-03 02:51:08,223000/e0e0049060922ab7e0d88605c3f0d227.jpg,,
21515932,A Primer on Scientific Programming with Python,,Texts in Computational Science and Engineering 6,,Hans Petter Langtangen (auth.),2009,1,Springer Berlin Heidelberg,,726,0,English,92,torrents.ru tech collections 2009-11-14,,"3642024742,9783642024740",,,,,005.1/17,QA76.73.P98 L34 2009,10.1007/978-3-642-02475-7,,OL25007975M,,0,,,,1,0,1,1,7151234,pdf,74D4FA5079E45C06364F7B5B4F755475,,,"D:\\!Genesis\\!!ForLG\\!!!3\\A Primer on Scientific Programming with Python (Springer, 2009, 3642024742).pdf",0,2000-01-01 01:00:00,2016-04-03 02:51:08,223000/74d4fa5079e45c06364f7b5b4f755475-d.jpg,,
21515933,A Primer on Scientific Programming with Python,,Texts in Computational Science and Engineering 6,,Hans Petter Langtangen (auth.),2009,,Springer Berlin Heidelberg,,726,0,English,92,torrents.ru tech collections 2009-11-14,,"978-3-642-02474-0,978-3-642-02475-7",,,,,,,10.1007/978-3-642-02475-7,,,,0,,,,,,1,1,6492434,pdf,F58B6BE3A3E74DE225BDA9F46FC2FB46,,,D:\\!Genesis\\!!ForLG\\2436308-\\A Primer on Scientific Programming with Python [Hans Petter Langtangen] (2009).pdf,0,2000-01-01 01:00:00,2016-04-03 02:51:08,223000/f58b6be3a3e74de225bda9f46fc2fb46.jpg,,
21515934,"A Smaller Classical Dictionary Of Biography, Mythology And Geography",,,,William Smith,2010,,Nabu Press,,471,0,English,32,torrents.ru tech collections 2009-11-14,,"9781143107924,1143107926",,,,,,,,,,,0,,,,,,,1,46278954,pdf,74A2B0634C5FCD22D967BC4F07C45971,,,"D:\\!Genesis\\!!ForLG\\!!!3\\A Smaller Classical Dictionary Of Biography, Mythology And Geography.pdf",0,2000-01-01 01:00:00,2016-04-03 02:51:08,223000/74a2b0634c5fcd22d967bc4f07c45971-d.jpg,,
21515935,A study of Fischer - Spassky Title Match,,,,,,,www.courseworkbank.co.uk,,14,0,English,46,torrents.ru tech collections 2009-11-14,,,,,,,,,,,,,0,,,,,,,1,47567,pdf,D19F6F2C1CD69DED82DB6024BD7CEBC0,,,D:\\!Genesis\\!!ForLG\\873138-Шахматы Большая Подборка шахматной литературы\\GENERAL\\A study of Fischer - Spassky Title Match [www.courseworkbank.co.uk ].pdf,0,2000-01-01 01:00:00,2016-04-03 02:51:08,223000/d19f6f2c1cd69ded82db6024bd7cebc0.jpg,,
21515936,A Treatise on the Game of Chess,,,,John Cochrane,1882,,,,386,0,English,46,torrents.ru tech collections 2009-11-14,,,,,,,,,,,,,0,,,,,,,0,11518628,pdf,D11921E5819FF24DD1DB263CC499138F,,,"D:\\!Genesis\\!!ForLG\\873138-Шахматы Большая Подборка шахматной литературы\\GENERAL\\A Treatise on the Game of Chess [John Cochrane, 1822].pdf",0,2000-01-01 01:00:00,2016-04-03 02:51:08,223000/d11921e5819ff24dd1db263cc499138f.jpg,,
21515937,A Walk To Remember,,,,Nicholas Sparks,2004,,Grand Central Publishing,,224,0,English,112,torrents.ru tech collections 2009-11-14,,"9780446693806,0446693804",,,,,,,,,OL23243570M,,0,,,,,,,,838753,lit,3A7045DBE588E731852733591BD796E1,,,D:\\!Genesis\\!!ForLG\\-=  UNSORTED BOOKS  =-\\young-adult fiction\\Nicholas Sparks\\A Walk To Remember\\A Walk To Remember .lit,0,2000-01-01 01:00:00,2016-04-03 02:51:08,223000/3a7045dbe588e731852733591bd796e1-d.jpg,,
21515938,Задачи - шахматные миниатюры,,,,"Тишков, Чепижный",1987,,ФИС,,338,0,Russian,113,torrents.ru tech collections 2009-11-14,,,,,,,,,,,,,0,,,,,,,0,7131740,pdf,8727AEAF8BA8071A60038B000C458BA6,,,"D:\\!Genesis\\!!ForLG\\731301-Книги по шахматной композиции\\A. A. Tishkov, V. I. Chepizhny - Miniature Chess Problems (1987, Russian).pdf",0,2000-01-01 01:00:00,2016-04-03 02:51:08,223000/8727aeaf8ba8071a60038b000c458ba6.jpg,,
21515939,One Hundred Chess Problems,,,,A. Cyril Pearson,1883,3,,,140,0,English,46,torrents.ru tech collections 2009-11-14,,,,,,,,,,,,,0,,,,,,,1,9469004,pdf,1ACB70A16C6BD241832D2D32A0BEEA8A,,,"D:\\!Genesis\\!!ForLG\\731301-Книги по шахматной композиции\\A. Cyril Pearson - One Hundred Chess Problems (3rd edition, 1883).pdf",0,2000-01-01 01:00:00,2016-04-03 02:51:08,223000/1acb70a16c6bd241832d2d32a0beea8a.jpg,,
21515940,Современный шахматный этюд,,,,Гербстманн А.О,1937,,,,189,0,Russian,46,torrents.ru tech collections 2009-11-14,,,,,,,,,,,,,0,,,,,,,0,5613711,djvu,4836F485B3C07CDF1FBD9C06F4316F9F,ad7444b9959daf1e0ed0e60986c5ba52,no,"D:\\!Genesis\\!!ForLG\\731301-Книги по шахматной композиции\\A. O. Herbstmann - The Modern Chess Study (1937, Russian).djvu",0,2000-01-01 01:00:00,2016-04-03 02:51:08,223000/4836f485b3c07cdf1fbd9c06f4316f9f.jpg,,
21515941,Этюды,,,,Гурвич А.,1961,,ФИС,,193,0,Russian,289,torrents.ru tech collections 2009-11-14,,,,,,,,,,,,,0,,,,,,,0,4239675,djvu,560DB3F0FCD9EEADB4F92E7D6F950D79,cbfdb29e20f7e5178315aced5d40eadd,no,"D:\\!Genesis\\!!ForLG\\!!!3\\A. S. Gurevich - Chess Studies (1961, Russian).djvu",0,2000-01-01 01:00:00,2016-04-03 02:51:08,223000/560db3f0fcd9eeadb4f92e7d6f950d79.jpg,,
21515942,Combinatorial Optimization,3 Volumes,,,A. Schrijver,2004,,Springer,,222,0,English,126,torrents.ru tech collections 2009-11-14,,,,,,,,,,,,,0,,,,,,,1,1275421,pdf,7424101C9606C8381BC1DF24DDD7EE92,,,"D:\\!Genesis\\!!ForLG\\!!!3\\A. Schrijver. Combinatorial Optimization (3 Volumes). Springer Verlag, 2004.pdf",0,2000-01-01 01:00:00,2016-04-03 02:51:08,223000/7424101c9606c8381bc1df24ddd7ee92.jpg,,
21515943,OPERATING SYSTEM CONCEPTS,,,,"Abraham Silberschatz, Peter Baer Galvin",1998,5,Wiley,,890,0,English,69,torrents.ru tech collections 2009-11-14,0,"9780201591132,0201591138",,,,,005.4/3,QA76.76.O63 S5583 1998,,,,,0,,,,,,,1,29455378,djvu,1DA4A4B19494D6E06BA825024B68229C,b62d8f620f6d4488fead93e80ac62675,no,"D:/!Genesis/!!ForLG/576081-[Физика и математика] Небольшая подборка книг/Computer science/os/A. Silberschatz, P. B. Galvin, OPERATING SYSTEM CONCEPTS  .djv",0,2000-01-01 01:00:00,2016-04-03 02:51:08,223000/1da4a4b19494d6e06ba825024b68229c-d.jpg,,
21515944,360 Brilliant and Instructive Endgames,,,,A. A.Troitzky,1968,,Dover,,194,0,English,46,torrents.ru tech collections 2009-11-14,,"0486219593,9780486219592",,,,,794.1,,,,OL15055728M,,0,,,,,,,0,4800027,djvu,6B8D801F0B2BD94F41EFF8DFBFB92E2C,40fb1fe531f0aa9e7b1caf32604026bc,no,D:\\!Genesis\\!!ForLG\\242275-Литература о шахматах\\ru-board\\A._A.Troitzky_-_360_Brilliant_and_Instructive_Endgames.djvu,0,2000-01-01 01:00:00,2016-04-03 02:51:08,223000/6b8d801f0b2bd94f41eff8dfbfb92e2c.jpg,,
21515945,A Global Economy without a Global Government,,,,Hwa A. Lim,,,,,18,0,English,147,torrents.ru tech collections 2009-11-14,,,,,,,,,,,,,0,,,,,,,1,136823,pdf,727508D60F15DC2A9CD004A926ACF606,,,D:\\!Genesis\\!!ForLG\\-=  UNSORTED BOOKS  =-\\EBOOK COLLECTION (PART14) [CSI][h33t]\\A.Global.Economy.without.a.Global.Government.PDF,0,2000-01-01 01:00:00,2016-04-03 02:51:08,223000/727508d60f15dc2a9cd004a926acf606.jpg,,
21515946,A learner's guide to programming using the Python language (CODE),,,,David Griffiths,2009,,,,,0,English,183,torrents.ru tech collections 2009-11-14,,,,,,,,,,,,,0,,,,,,,,20588489,zip,AA9B7B73B2AD6F17C881CD3F4F30ED11,,,D:\\!Genesis\\!!ForLG\\2436308-\\A.learners.guide.to.programming.using.the.Python.language.David.Griffiths.2009 (CODE).zip,0,2000-01-01 01:00:00,2016-04-03 02:51:08,,,
21515947,Handbook of applied cryptography,,,,A.Menezes,,,,,746,0,English,,torrents.ru tech collections 2009-11-14,,,,,,,,,,,,,0,,,,,,,0,3990103,djvu,CC2E406EC7A2F9C74A79864A9AF521E4,,,"D:\\!Genesis\\!!ForLG\\1991178Цифровые водяные знаки\\book\\A.Menezes,_ Handbook of applied cryptography.djvu",0,2000-01-01 01:00:00,2016-04-03 02:51:08,223000/cc2e406ec7a2f9c74a79864a9af521e4.jpg,,
21515948,A rhetoric of argument,,,,"Jeanne Fahnestock, Marie Secor, Richard L. Larson",1982,,McGraw-Hill Companies,,398,0,English,,torrents.ru tech collections 2009-11-14,,"9780075548263,0075548267",,,,,,,,,OL9971440M,,0,,,,,,1,1,14066779,pdf,14CFA8366BA0FDF47057A4C9A60AB577,,,D:\\!Genesis\\!!ForLG\\-=  UNSORTED BOOKS  =-\\A.rhetoric.of.argument(398s)(300dpi)Jeanne Fahnestock. Marie Secor.pdf,0,2000-01-01 01:00:00,2016-04-03 02:51:08,223000/14cfa8366ba0fdf47057a4c9a60ab577.jpg,,
21515949,Design of masonry structures,,,,A.W.Hendry etc,1997,,,,,0,English,236,torrents.ru tech collections 2009-11-14,,,,,,,,,,,,,0,,,,,,,,6028086,rar,8284C5D3FB63408A7021B9B7E40F3640,,,D:\\!Genesis\\!!ForLG\\1735541-Книги по строительству Часть 2 (1961-2008)\\Каменные и армокаменные конструкции\\A.W.Hendry etc. Design of masonry structures_1997en.rar,0,2000-01-01 01:00:00,2016-04-03 02:51:08,223000/8284C5D3FB63408A7021B9B7E40F3640-g.jpg,,
21515950,Masonry wall construction,,,,"A.W.Hendry, F.M.Khalaf",2001,,T & F,,,0,English,236,torrents.ru tech collections 2009-11-14,,,,,,,,,,,,,0,,,,,,,,5087848,rar,1016AF91F386C574AEA74D423A99735E,,,"D:\\!Genesis\\!!ForLG\\1735541-Книги по строительству Часть 2 (1961-2008)\\Каменные и армокаменные конструкции\\A.W.Hendry, F.M.Khalaf. Masonry wall construction_2001en.rar",0,2000-01-01 01:00:00,2016-04-03 02:51:08,223000/1016AF91F386C574AEA74D423A99735E-g.jpg,,
21515951,A manual of yacht and boat sailing,,,,"Dixon Kemp, Brooke Heckstall Smith",2010,,"Kessinger Publishing, LLC",,805,0,English,248,torrents.ru tech collections 2009-11-14,,"9781161858266,1161858261",,,,,,,,,,,0,,,,,,,1,27722673,pdf,1299E656F536D61A80688BAB9804AFF4,,,D:\\!Genesis\\!!ForLG\\Boats & Boating\\A_manual_of_yacht_and_boat_sailing.pdf,0,2000-01-01 01:00:00,2016-04-03 02:51:08,223000/1299e656f536d61a80688bab9804aff4-d.jpg,,
21515952,A Treatise on the Construction Rigging,,,,Tyrrel E. Biddle,1883,,University of Michigan Library,,155,0,English,248,torrents.ru tech collections 2009-11-14,,,,B002ZRQC4Y,,,,,,,,,0,,,,,,,1,3767979,pdf,5BF51940AD718325F9AE51F3CDEDABD5,,,D:\\!Genesis\\!!ForLG\\2157878-Boat Builders E-Book Collection v2.0\\A_Treatise_on_the_Construction__Rigging_.pdf,0,2000-01-01 01:00:00,2016-04-03 02:51:08,223000/5bf51940ad718325f9ae51f3cdedabd5.jpg,,
21515953,AACS Introduction and Common Cryptographic Elements,,,,,,,,,82,0,English,82,torrents.ru tech collections 2009-11-14,,,,,,,,,,,,,0,,,,,,,1,549667,pdf,DC889A68F1597DBDE45BA9EB85B8D8BC,,,D:\\!Genesis\\!!ForLG\\1991178Цифровые водяные знаки\\article\\AACS Introduction and Common Cryptographic Elements.pdf,0,2000-01-01 01:00:00,2016-04-03 02:51:08,223000/dc889a68f1597dbde45ba9eb85b8d8bc.jpg,,
21515954,Flatland,,Oxford World Classics,,Edwin A. Abbott,2010,,Bibliolis Books,,167,0,English,181,torrents.ru tech collections 2009-11-14,,"9781907727337,1907727337",,,,,,,,,,,0,,,,,,,1,879999,pdf,57A1C4C80AB126A6E8ABE316D8B6BDD0,,,"D:\\!Genesis\\!!ForLG\\Oxford\\Oxford Worlds Classics\\Abbott, Flatland (Oxford World Classics).pdf",0,2000-01-01 01:00:00,2016-04-03 02:51:08,223000/57a1c4c80ab126a6e8abe316d8b6bdd0-d.jpg,,
21515955,,,,Новости в неотложной помощи в кардиологии том 16 номер 4,,2006,,,,28,0,Russian,,torrents.ru tech collections 2009-11-14,0,,,,,,,,,,,periodic,0,,,,,1,,1,870062,pdf,1C604D879C931752432A9D6C384758F2,,ban,D:/!Genesis/!!ForLG/1123761-Библиотека по анестезиологии/ABC 2005-2006.pdf,0,2000-01-01 01:00:00,2016-04-03 02:51:08,223000/1c604d879c931752432a9d6c384758f2.jpg,,
21515956,"Insect Stings and Bites: Basic Information About Bees, Wasps, and Ants",,,,,,,,,10,0,English,293,torrents.ru tech collections 2009-11-14,,,,,,,,,,,,,0,,,,,,,1,1195768,pdf,0501B7A01F8B2C2FA8B8155AAE1BFF12,,,"D:\\!Genesis\\!!ForLG\\2129019-Библиотека книг по выживанию и рукопашному бою\\About Bees, Wasps, and Ants.pdf",0,2000-01-01 01:00:00,2016-04-03 02:51:08,223000/0501b7a01f8b2c2fa8b8155aae1bff12.jpg,,
21515957,Методы квантовой теории поля в статистической физике,,,,"Абрикосов А.А., Горьков Л.П., Дзялошинский И.Е.",,,,,446,0,Russian,119,torrents.ru tech collections 2009-11-14,0,,,,,,,,,,,,0,,,,,,,1,25643011,pdf,F356840B2495519E9B9CD7A9E6EC7774,,,D:!Genesis!!ForLG1525583-[Физика] - Книги по всем разделам физии Часть 2Abrikosov.pdf,0,2000-01-01 01:00:00,2016-04-03 02:51:08,223000/f356840b2495519e9b9cd7a9e6ec7774.jpg,,
21515958,A Wavelet Tour of Signal Processing,,,,Mallat S,,2,Academic press,,668,0,English,118,torrents.ru tech collections 2009-11-14,,0-12-466606-X,,,,,,,,,,,0,,,,,,,1,32167733,pdf,65F44077C5FC1AA13FC6F1B5382137FA,,,D:\\!Genesis\\!!ForLG\\!!!3\\Academic press - A Wavelet Tour of Signal Processing.pdf,0,2000-01-01 01:00:00,2016-04-03 02:51:08,223000/65f44077c5fc1aa13fc6f1b5382137fa.jpg,,
21515959,Methods Of Modern Mathematical Physics,vol 1-4,,,,,,Academic press,,,0,English,113,torrents.ru tech collections 2009-11-14,,,,,,,,,,,,,0,,,,,,,,40685106,rar,F7AFE5B7760202D5905BD35AA579184C,,,D:\\!Genesis\\!!ForLG\\!!!3\\Academic Press - Methods Of Modern Mathematical Physics.rar,0,2000-01-01 01:00:00,2016-04-03 02:51:08,,,
21515960,Wireless Sensor and Actuator Networks Technologies,,,,"Roberto Verdone, Davide Dardari, Gianluca Mazzini, Andrea Conti",2008,,Academic Press,,364,0,English,99,torrents.ru tech collections 2009-11-14,,"9780123725394,0123725399",,,,,,,,,OL10071938M,,0,,,,,,,1,5088984,pdf,18746FC68E157CD43F371B500FACCFC6,,,D:\\!Genesis\\!!ForLG\\!!!3\\Academic Press - Wireless Sensor and Actuator Networks Technologies 2008.pdf,0,2000-01-01 01:00:00,2016-04-03 02:51:08,223000/18746fc68e157cd43f371b500faccfc6-d.jpg,,
21515961,Optical Fiber Telecommunications IV-B Systems and Impairments,,Optics and Photonics,,"Ivan P. Kaminow, Tingye Li",2002,4,Academic Press,,1050,0,English,252,torrents.ru tech collections 2009-11-14,,"9780123951731,0123951739",,,,,621.382/7,TK5103.59 .O6815 2002,,,OL22468080M,,0,,,,,,,1,29029153,pdf,739BE302D3746A95155C13344241109E,,,D:\\!Genesis\\!!ForLG\\!!!3\\Academic Press Optical Fiber Telecommunications IV-B Systems and Impairments.pdf,0,2000-01-01 01:00:00,2016-04-03 02:51:08,223000/739be302d3746a95155c13344241109e-d.jpg,,
21515962,Linear Algebra Exploring Analytic Geometry with Mathematica,,,,DonaldL.Vossler,,,Academic press,,883,0,English,113,torrents.ru tech collections 2009-11-14,,,,,,,,,,,,,0,,,,,,,1,2890525,pdf,CD7FEB259402BB753612F4675E21D57E,,,D:\\!Genesis\\!!ForLG\\!!!3\\Academic Press_Linear Algebra Exploring Analytic Geometry with Mathematica.pdf,0,2000-01-01 01:00:00,2016-04-03 02:51:08,223000/cd7feb259402bb753612f4675e21d57e.jpg,,
21515963,Accommodating Cultural Diversity ,,Applied Legal Philosophy,,"Tierneyq, Stephen Tierney",2007,,Ashgate Publishing,,251,0,English,192,torrents.ru tech collections 2009-11-14,,"0754626032,9780754626039",,,,,,,,,OL7990305M,,0,,,,,,1,1,816237,pdf,E67055B42A2CB84A486ED06AAF515B09,,,D:\\!Genesis\\!!ForLG\\Law & Politics\\Accomodating cultural diversity.pdf,0,2000-01-01 01:00:00,2016-04-03 02:51:08,223000/e67055b42a2cb84a486ed06aaf515b09-d.jpg,,
21515964,"P-51, P-51A, A-36 Mustang",,Pod Lupa 01,,,,,Ace Publication ,,35,0,English,245,torrents.ru tech collections 2009-11-14,,,,,,,,,,,,,0,,,,,,,0,19437508,pdf,9A27924430B1BF06754972098528EA45,,,"D:\\!Genesis\\!!ForLG\\!!!3\\Ace Publication Pod Lupa No 01 P-51, P-51A, A-36 Mustang.pdf",0,2000-01-01 01:00:00,2016-04-03 02:51:08,223000/9a27924430b1bf06754972098528ea45.jpg,,
21515965,"Acetrader Forex, Foreign Exchange, Currency, Technical Analysis, Elliot Wave Theory, Trading Guide",,,,,,,,,19,0,English,10,torrents.ru tech collections 2009-11-14,,,,,,,,,,,,,0,,,,,,1,1,1040363,pdf,05B668B03EEF7F13B8BB953B5BC339AF,,,"D:\\!Genesis\\!!ForLG\\!!!3\\Acetrader Forex, Foreign Exchange, Currency, Technical Analysis, Elliot Wave Theory, Trading Guide(2).pdf",0,2000-01-01 01:00:00,2016-04-03 02:51:08,223000/05b668b03eef7f13b8bb953b5bc339af.jpg,,
21515966,aci detaling manual,,,,Ronald D. Flach,2004,,MERICAN CONCRETE INSTITUTE,,206,0,English,236,torrents.ru tech collections 2009-11-14,,,,,,,,,,,,,0,,,,,,,1,12865587,pdf,EB87A4150DF70CCFAC39B403D88CCEA4,,,D:\\!Genesis\\!!ForLG\\1986805-Сборник литературы Бетонные и железобетонные конструкции\\aci detaling manual (2004).pdf,0,2000-01-01 01:00:00,2016-04-03 02:51:08,223000/eb87a4150df70ccfac39b403d88ccea4.jpg,,
21515967,Acm - Physical Layer Design For A Spread Spectrum Wireless Lan,,,,GuoliangLi,1996,,,,114,0,English,181,torrents.ru tech collections 2009-11-14,,,,,,,,,,,,,0,,,,,,,1,1239182,pdf,78C328C269DDC7A2CE7367F970BD317F,,,D:\\!Genesis\\!!ForLG\\!!!3\\Acm - Physical Layer Design For A Spread Spectrum Wireless Lan.pdf,0,2000-01-01 01:00:00,2016-04-03 02:51:08,223000/78c328c269ddc7a2ce7367f970bd317f.jpg,,
21515968,,,,ACM Transactions on Algorithms Vol 2 Issue 1 Jan 2006,,2006,,,,134,0,English,,torrents.ru tech collections 2009-11-14,0,,,,,,,,,,,periodic,0,,,,,1,,1,2984487,pdf,BEBB80C414BD4B4B29D2F17119CE6035,,ban,D:/!Genesis/!!ForLG/!!!3/ACM Transactions on Algorithms Vol 2 Issue 1 Jan 2006.pdf,0,2000-01-01 01:00:00,2016-04-03 02:51:08,223000/bebb80c414bd4b4b29d2f17119ce6035.jpg,,
21515969,Acm Turing Award Lectures,,,,,2002,,"Association for Computing Machinery, Inc. ",,351,0,English,,torrents.ru tech collections 2009-11-14,,,,,,,,,,,,,0,,,,,,,1,47355468,pdf,A52310036635E7F2AAA2B0657EB7F210,,,D:\\!Genesis\\!!ForLG\\!!!3\\Acm Turing Award Lectures.pdf,0,2000-01-01 01:00:00,2016-04-03 02:51:08,223000/a52310036635e7f2aaa2b0657eb7f210.jpg,,
21515970,"Conception, Evolution, And Application Of Functional Programming Languages",,,,PAUL  HUDAK ,,,ACM,,53,0,English,87,torrents.ru tech collections 2009-11-14,,,,,,,,,,,,,0,,,,,,,1,5187834,pdf,BD60D904AFDD9F12FFD32D5F9AFA278A,,,"D:\\!Genesis\\!!ForLG\\!!!3\\ACM, Conception, Evolution, And Application Of Functional Programming Languages.pdf",0,2000-01-01 01:00:00,2016-04-03 02:51:08,223000/bd60d904afdd9f12ffd32d5f9afa278a.jpg,,
21515971,"Artificial Life For Graphics, Animation, Multimedia And Virtual Reality (Reduced)",,Synthesis Lectures on Computer Graphics and Animation,,"Demitri Terzopoulos, Brian Barsky",2007,,Morgan & Claypool Publishers,,386,0,English,84,torrents.ru tech collections 2009-11-14,,"9781598292169,1598292161",,,,,,,,,OL12496482M,,0,,,,,,,1,16307805,pdf,539D8556687337BD98BF62B687317D1F,,,"D:\\!Genesis\\!!ForLG\\!!!3\\ACM.-.Artificial.Life.For.Graphics,.Animation,.Multimedia.And.Virtual.Reality.(Reduced).pdf",0,2000-01-01 01:00:00,2016-04-03 02:51:08,223000/539d8556687337bd98bf62b687317d1f.jpg,,
21515972,Relational model,,,,F.  CODD ,1970,,,,11,0,English,,torrents.ru tech collections 2009-11-14,,,,,,,,,,,,,0,,,,,,,1,1273686,pdf,AB4B2E73F96D926513D58B4EC972CD3C,,,D:\\!Genesis\\!!ForLG\\!!!3\\ACM_Codd_Relational_model_1970.pdf,0,2000-01-01 01:00:00,2016-04-03 02:51:08,223000/ab4b2e73f96d926513d58b4ec972cd3c.jpg,,
21515973,ACP Medicine,,,,"Dale, David C.; Federman, Daniel D.",2007,,,,,0,English,147,torrents.ru tech collections 2009-11-14,,,,,,,,,,,,,0,,,,,,,,200933424,chm,705BCCF36479D4B4252F7713D4E0210C,,,"D:\\!Genesis\\!!ForLG\\870192-Медицинская литература на английском языке (16 книг)\\ACP Medicine, 2007 Edition.chm",0,2000-01-01 01:00:00,2016-04-03 02:51:08,,,
21515974,LA Actitud Mental Positiva: UN Camino Hacia El Exito/Success Through an Positive Mental Attitude ,,,,"Napoleon Hill, W. Clement Stone",1984,,Grijalbo Mondadori Sa,,116,0,English,,torrents.ru tech collections 2009-11-14,,8425313279,,,,,,,,,OL13223016M,,0,,,,,,,1,1207743,pdf,ECA3E2257E4EE64C156B1BCBED9A34CF,,,"D:\\!Genesis\\!!ForLG\\!!!3\\Actitud Mental Positiva, La (un camino hacia el exito) - Napoleon Hill, W. Clement Stone - Prentice Hall.pdf",0,2000-01-01 01:00:00,2016-04-03 02:51:08,223000/eca3e2257e4ee64c156b1bcbed9a34cf.jpg,,
21515975,Activated Carbon for Distilling Purposes Handbook,,,,Gert Strand,,,,,28,0,English,,torrents.ru tech collections 2009-11-14,,,,,,,,,,,,,0,,,,,,,0,660875,pdf,59399BDBD8331F4D0594BA68717ED005,,,D:\\!Genesis\\!!ForLG\\!Drugs\\Activated Carbon for Distilling Purposes Handbook.pdf,0,2000-01-01 01:00:00,2016-04-03 02:51:08,223000/59399bdbd8331f4d0594ba68717ed005.jpg,,
21515976,"Восприятие, сознание, память. Размышления биолога",,,,Адам Д.,1983,,Мир,,75,0,Russian,165,torrents.ru tech collections 2009-11-14,,,,,,,,,,,,,0,,,,,,,1,1744921,djvu,D7D6D14C611701EDC82372717AED430B,,,"D:\\!Genesis\\!!ForLG\\1656828-Сборник книг по неврологии и нейропсихологии\\Adam_D._Vosprijatie,_soznanie,_pamyat._Razmyshlenija_biologa_(Mir,_1983)(ru)(75s).djvu",0,2000-01-01 01:00:00,2016-04-03 02:51:08,223000/d7d6d14c611701edc82372717aed430b.jpg,,
21515977,Adaptive Blind Signal and Image Processing,,,,"Chichocki, Amari",,,Wiley,,,0,English,118,torrents.ru tech collections 2009-11-14,,,,,,,,,,,,,0,,,,,,,,28334369,rar,E0BE202951CB7FC580337C4F60E945C9,,,"D:\\!Genesis\\!!ForLG\\1541894-Новая подборка книг по цифровой обработке сигналов, распознава\\Adaptive Blind Signal and Image Processing.rar",0,2000-01-01 01:00:00,2016-04-03 02:51:08,223000/E0BE202951CB7FC580337C4F60E945C9-g.jpg,,
21515978,Adaptive Digital Filters lecture,,,,,,,,,,0,English,118,torrents.ru tech collections 2009-11-14,,,,,,,,,,,,,0,,,,,,,,1543110,rar,FF228160F66459F0B8AD7383B7794984,,,"D:\\!Genesis\\!!ForLG\\1541894-Новая подборка книг по цифровой обработке сигналов, распознава\\Adaptive Digital Filters lecture.rar",0,2000-01-01 01:00:00,2016-04-03 02:51:08,,,
21515979,Введение в адаптивные фильтры,,,,"Грант, Коуэн",,,,,146,0,Russian,256,torrents.ru tech collections 2009-11-14,,,,,,,,,,,,,0,,,,,,,0,20697221,pdf,6FC9B50DBCB43FA7FEF85DD7528AEA22,,,"D:\\!Genesis\\!!ForLG\\1679581-Подборка книг по дисциплинам РТС, РЦС, СПР, ЦОС\\Adaptive filters.pdf",0,2000-01-01 01:00:00,2016-04-03 02:51:08,223000/6fc9b50dbcb43fa7fef85dd7528aea22.jpg,,
21515980,"Adaptive Image Processing, A Computational Intelligence",,,,,2000,,CRC,,0,0,English,120,torrents.ru tech collections 2009-11-14,0,,,,,,,,,,,,0,,,,,,,,4037396,rar,7AC2F491174838E799195B4C7AB1707C,468025F4938A878D0527E19AAE7A9095,no,"D:/!Genesis/!!ForLG/1541894-Новая подборка книг по цифровой обработке сигналов, распознава/Adaptive Image Processing, A Computational Intelligence.rar",0,2000-01-01 01:00:00,2016-04-03 02:51:08,223000/7AC2F491174838E799195B4C7AB1707C-g.jpg,,
21515981,Adaptive filtering and Change Detection,,,,Fredrik Gustafsson ,,,Wiley,,,0,English,118,torrents.ru tech collections 2009-11-14,,,,,,,,,,,,,0,,,,,,,,15926744,rar,80F8231992182DF9C8632CF3291052DD,,,"D:\\!Genesis\\!!ForLG\\1541894-Новая подборка книг по цифровой обработке сигналов, распознава\\Adaptive_filtering_and_Change_Detection.rar",0,2000-01-01 01:00:00,2016-04-03 02:51:08,223000/80F8231992182DF9C8632CF3291052DD-g.jpg,,
21515982,"ADC Standards (HVAC, Flexible,American Duct Council)",,,,,1996,3,ADC,,28,0,English,238,torrents.ru tech collections 2009-11-14,,,,,,,,,,,,,0,,,,,,,0,8173579,pdf,1FB9FEF1D738A4BADEC818BA6F75A723,,,"D:\\!Genesis\\!!ForLG\\hvac\\ADC_Standards(HVAC, Flexible,American Duct Council).pdf",0,2000-01-01 01:00:00,2016-04-03 02:51:08,223000/1fb9fef1d738a4badec818ba6f75a723.jpg,,
21515983,Advanced Linux Networking,,,,,,,Addison Wesley,,540,0,English,85,torrents.ru tech collections 2009-11-14,,,,,,,,,,,,,0,,,,,,,1,8619214,pdf,EED5C3A8A8F386F1629B7BBAF9316BF2,,,D:\\!Genesis\\!!ForLG\\!!!3\\Addison Wesley - Advanced Linux Networking.pdf,0,2000-01-01 01:00:00,2016-04-03 02:51:08,223000/eed5c3a8a8f386f1629b7bbaf9316bf2.jpg,,
21515984,C++ Network Programming Volume II - Systematic Reuse with ACE and Frameworks,,,,"Douglas C. Schmidt, Stephen D. Huston",2002,,Addison Wesley,,,0,English,99,torrents.ru tech collections 2009-11-14,,,,,,,,,,,,,0,,,,,,,,2262334,chm,DB19230F4F1DB2E1F2C7343423B4D2B5,,,D:\\!Genesis\\!!ForLG\\!!!3\\Addison Wesley - C++ Network Programming Volume II - Systematic Reuse with ACE and Frameworks.chm,0,2000-01-01 01:00:00,2016-04-03 02:51:08,223000/DB19230F4F1DB2E1F2C7343423B4D2B5-g.jpg,,
21515985,Effective & More Effective C++,,,,ScotMeyers,1995,,"Addison-Wesley,1995",,648,0,English,92,torrents.ru tech collections 2009-11-14,,,,B0032V0DTC,,,,,,,,,0,,,,,,1,1,14767062,pdf,3D8EAEE6995F7DE7C8DF63FFCE21BDAD,,,D:\\!Genesis\\!!ForLG\\!!!3\\Addison Wesley - Effective & More Effective C++.pdf,0,2000-01-01 01:00:00,2016-04-03 02:51:08,223000/3d8eaee6995f7de7c8df63ffce21bdad.jpg,,
21515986,Effective Java Programming Language Guide,,,,Bloch J.,2001,,Addison Wesley,,,0,English,92,torrents.ru tech collections 2009-11-14,,,,,,,,,,,,,0,,,,,,,,423578,chm,D5281EF037304762E4D4167CDCB36A42,,,D:\\!Genesis\\!!ForLG\\!!!3\\Addison Wesley - Effective Java. Programming Language Guide.chm,0,2000-01-01 01:00:00,2016-04-03 02:51:08,223000/D5281EF037304762E4D4167CDCB36A42-g.jpg,,
21515987,Essential Windows Communication Foundation (WCF) For NET Framework 3 5,,,,"Resnick, Crain, Bowen",,,Addison Wesley,,605,0,English,260,torrents.ru tech collections 2009-11-14,,,,,,,,,,,,,0,,,,,,1,1,8989044,pdf,42E71CF194861E5917D1AFC5E81FE24F,,,D:\\!Genesis\\!!ForLG\\!!!3\\Addison Wesley - Essential Windows Communication Foundation (WCF). For.NET Framework 3.5.pdf,0,2000-01-01 01:00:00,2016-04-03 02:51:08,223000/42e71cf194861e5917d1afc5e81fe24f.jpg,,
21515988,ISA System Architecture ,,,,"MindShare Inc., Don Anderson, Tom Shanley",1995,3,Addison-Wesley Professional,,544,0,English,58,torrents.ru tech collections 2009-11-14,,"0201409968,9780201409963",,B0025V3KFO,,,,,,,OL876575M,,0,,,,,,,0,22546644,pdf,1AC32D3A94D42AEADC4F9B02BC473DA8,,,D:\\!Genesis\\!!ForLG\\!!!3\\Addison Wesley - MindShare - ISA System Architecture.pdf,0,2000-01-01 01:00:00,2016-04-03 02:51:08,223000/1ac32d3a94d42aeadc4f9b02bc473da8-d.jpg,,
21515989,Structured Programming With Goto Statements,,,,"Knuth, Donald E",,,Addison Wesley,,41,0,English,87,torrents.ru tech collections 2009-11-14,,,,,,,,,,,,,0,,,,,,,1,3024029,pdf,BAAB8568793B2D1032D79F34A18B5BC5,,,"D:\\!Genesis\\!!ForLG\\!!!3\\Addison Wesley - Structured Programming With Goto Statements - Knuth, Donald E.pdf",0,2000-01-01 01:00:00,2016-04-03 02:51:08,223000/baab8568793b2d1032d79f34a18b5bc5.jpg,,
21515990,"TCP-IP Illustrated, The Protocols",Volume 1,,,,,,Addison Wesley,,847,0,English,99,torrents.ru tech collections 2009-11-14,,,,,,,,,,,,,0,,,,,,,0,12566305,pdf,CFD41DAA1564A59781656827FFF8F236,,,"D:\\!Genesis\\!!ForLG\\!!!3\\Addison Wesley - TCP-IP Illustrated, Volume 1, The Protocols.pdf",0,2000-01-01 01:00:00,2016-04-03 02:51:08,223000/cfd41daa1564a59781656827fff8f236.jpg,,
21515991,UML Distilled,,,,Martin Fowler,2003,3rd Ed,Addison Wesley,,,0,English,91,torrents.ru tech collections 2009-11-14,,,,,,,,,,,,,0,,,,,,,,1598177,chm,48C57BB84B02DCA01CD795BDC09A3CC2,,,"D:\\!Genesis\\!!ForLG\\!!!3\\Addison Wesley - UML Distilled, 3rd Ed.chm",0,2000-01-01 01:00:00,2016-04-03 02:51:08,223000/48C57BB84B02DCA01CD795BDC09A3CC2-g.jpg,,
21515992,Visual Basic 6 lernen+,,,,Dirk Abels,1999,,Addison Wesley Verlag,,369,0,English,87,torrents.ru tech collections 2009-11-14,,"9783827313713,3827313716",,,,,,,,,,,0,,,,,,,0,3640728,pdf,43F88E5A4375881CA2F4086D102076F4,,,D:\\!Genesis\\!!ForLG\\!!!3\\Addison Wesley - Visual Basic 6 lernen+.pdf,0,2000-01-01 01:00:00,2016-04-03 02:51:08,223000/43f88e5a4375881ca2f4086d102076f4-d.jpg,,
21515993,A Developers Guide To Data Modeling For Sql Server,,,,"Johnson, Johns",2008,,Addison Wesley,,299,0,English,86,torrents.ru tech collections 2009-11-14,,"978-0-321-49764-2,0-321-49764-3",,,,,,,,,,,0,,,,,,,1,2786852,pdf,C1B8F02697E44998C6BA308664F44F2E,,,D:\\!Genesis\\!!ForLG\\!!!3\\Addison Wesley A Developers Guide To Data Modeling For Sql Server Jul 2008.pdf,0,2000-01-01 01:00:00,2016-04-03 02:51:08,223000/c1b8f02697e44998c6ba308664f44f2e.jpg,,
21515994,C++ Coding Standards 101 Rules Guidelines,,,,AndreiAlexandrescu,2004,,"Addison-Wesley,2004",,659,0,English,92,torrents.ru tech collections 2009-11-14,,,,B0032VC1UQ,,,,,,,,,0,,,,,,,1,2204006,pdf,F766CC48172FDE0570E73638244D3AE2,,,"D:\\!Genesis\\!!ForLG\\!!!3\\Addison.Wesley,.C++.Coding.Standards.101.Rules.Guidelines.(2004).LiB.pdf",0,2000-01-01 01:00:00,2016-04-03 02:51:08,223000/f766cc48172fde0570e73638244d3ae2.jpg,,
21515995,C++ Common Knowledge Essential Intermediate Programming,,,,Stephen C. Dewhurst,2005,,Addison Wesley,,,0,English,92,torrents.ru tech collections 2009-11-14,,,,,,,,,,,,,0,,,,,,,,920704,chm,74304354CD25947472E5FDB2F125C4D4,,,"D:\\!Genesis\\!!ForLG\\!!!3\\Addison.Wesley,.C++.Common.Knowledge.Essential.Intermediate.Programming.(2005).LotB.chm",0,2000-01-01 01:00:00,2016-04-03 02:51:08,223000/74304354CD25947472E5FDB2F125C4D4-g.jpg,,
21515996,Refactoring Databases: Evolutionary Database Design ,,Addison-Wesley Signature Series,,"Scott W. Ambler, Pramodkumar J. Sadalage",2006,,Addison-Wesley Professional,,,0,English,86,torrents.ru tech collections 2009-11-14,,"0321293533,9780321293534",,,,,005.74,QA76.9.D26 A52 2006,,,OL3415746M,,0,,,,,1,,,3367978,chm,9123F258C2B0FF81C2AE7759D48BDB33,,,"D:\\!Genesis\\!!ForLG\\!!!3\\Addison.Wesley,.Refactoring.Databases.Evolutionary.Database.Design.(2006).BBL.chm",0,2000-01-01 01:00:00,2016-04-03 02:51:08,223000/9123f258c2b0ff81c2ae7759d48bdb33-d.jpg,,
21515997,"The C++ Standard Library, A Tutorial and Reference",,,,Josuttis,,,Addison Wesley,,642,0,English,92,torrents.ru tech collections 2009-11-14,,,,,,,,,,,,,0,,,,,,,1,4805949,pdf,598261DD8BF323F05F51ACDEDAB4871D,,,"D:\\!Genesis\\!!ForLG\\!!!3\\Addison.Wesley.-.The.C++.Standard.Library,.A.Tutorial.and.Reference.pdf",0,2000-01-01 01:00:00,2016-04-03 02:51:08,223000/598261dd8bf323f05f51acdedab4871d.jpg,,
21515998,Applying Domain Driven Design and Patterns With Examples in C Sharp and dot NET,,,,Jimmy Nilsson,2006,,Addison-Wesley Professional,,573,0,English,79,torrents.ru tech collections 2009-11-14,,"9780321268204,0321268202",,,,,,,,,OL9422984M,,0,,,,,,,0,4450720,pdf,A1CE451EC82C96089B23EBE53A2CFCD5,,,D:\\!Genesis\\!!ForLG\\!!!3\\Addison.Wesley.Applying.Domain.Driven.Design.and.Patterns.With.Examples.in.C.Sharp.and.dot.NET.pdf,0,2000-01-01 01:00:00,2016-04-03 02:51:08,223000/a1ce451ec82c96089b23ebe53a2cfcd5-d.jpg,,
21515999,Efficient C++ Performance Programming Techniques,,,,"Dov Bulka, David Mayhew",1999,,Addison-Wesley Professional,,336,0,English,92,torrents.ru tech collections 2009-11-14,,"9780201379501,0201379503",,,,,,,,,OL16956812M,,0,,,,,,,,906973,chm,3AEB7F9E6E8AB4C1E475421D10D1B6BD,,,D:\\!Genesis\\!!ForLG\\!!!3\\Addison.Wesley.Efficient.C++ Performance Programming Techniques.chm,0,2000-01-01 01:00:00,2016-04-03 02:51:08,223000/3aeb7f9e6e8ab4c1e475421d10d1b6bd-d.jpg,,
21516000,Addison Wesley-C Network Programming ACE-2002,v2,,,Schmidt,2002,,Addison Wesley,,,0,English,99,torrents.ru tech collections 2009-11-14,,,,,,,,,,,,,0,,,,,,,,9825280,ppt,98669F6F1D5016B281D36C74AA340947,,,D:\\!Genesis\\!!ForLG\\!!!3\\Addison_Wesley-C _Network_Programming_ACE-2002-v2.ppt,0,2000-01-01 01:00:00,2016-04-03 02:51:08,,,
21516001,Addison Wesley-C++ Network Programming ACE-2002,v2,,,Schmidt,2002,,Addison Wesley,,,0,English,99,torrents.ru tech collections 2009-11-14,,,,,,,,,,,,,0,,,,,,,,9822208,ppt,6F5D305DF749522359CD4FACAE3D31D8,,,D:\\!Genesis\\!!ForLG\\!!!3\\Addison_Wesley-C++_Network_Programming_ACE-2002-v2--3111CAF3074D3D4BCAFCE5F40F0878E6--.ppt,0,2000-01-01 01:00:00,2016-04-03 02:51:08,,,
21516002,The Feynman Lectures on Physics,Vol 2,,,,1964,,Addison Wesley,,536,0,English,264,torrents.ru tech collections 2009-11-14,,,,,,,,,,,,,0,,,,,,1,0,34785013,pdf,D1DBB11081C26913D957411DF85CA330,,,D:\\!Genesis\\!!ForLG\\!!!3\\Addison-Wesley-The Feynman Lectures on Physics-Vol.2-Complete[1964-ENG].pdf,0,2000-01-01 01:00:00,2016-04-03 02:51:08,223000/d1dbb11081c26913d957411df85ca330.jpg,,
21516003,"Historic Bridges - Evaluation, Preservation, and Management",,,,Hojjat Adeli,2008,1,CRC Press,,302,0,English,64,torrents.ru tech collections 2009-11-14,,"9781420079951,1420079956",,,,,624.2028/8,TG23 .H57 2008,,,OL16637988M,,0,,,,,,,1,14647471,pdf,2DEA254BC31C1AD69914F044E3062F31,,,"D:\\!Genesis\\!!ForLG\\-=  UNSORTED BOOKS  =-\\Archaeology\\Adeli (ed) - Historic Bridges - Evaluation, Preservation, and Management.pdf",0,2000-01-01 01:00:00,2016-04-03 02:51:08,223000/2dea254bc31c1ad69914f044e3062f31-d.jpg,,
21516004,Имуннология,,,,Адельман Д.,,,,,,0,Russian,156,torrents.ru tech collections 2009-11-14,,,,,,,,,,,,,0,,,,,,,,4280832,doc,409242FA11A516AEB2F95F58A16354F9,,,D:\\!Genesis\\!!ForLG\\1619846-Иммунология (минимум для университета)\\Adelman_D._Immunologiya_(ru).doc,0,2000-01-01 01:00:00,2016-04-03 02:51:08,,,
21516005,Zero-Knowledge Watermark Detection and Proof of Ownership,,,,Adelsbach Sadeghi,,,,,16,0,English,75,torrents.ru tech collections 2009-11-14,,,,,,,,,,,,,0,,,,,,1,1,249138,pdf,43D2D331F85615144D8BC68FF46E242A,,,D:\\!Genesis\\!!ForLG\\1991178Цифровые водяные знаки\\article\\!Watermark2\\Adelsbach Sadeghi - Zero-Knowledge Watermark Detection and Proof of Ownership.pdf,0,2000-01-01 01:00:00,2016-04-03 02:51:08,223000/43d2d331f85615144d8bc68ff46e242a.jpg,,
21516006,adivinacion tarot mancias quiromancia suenos adivina mes a mes menomancia,,,,,,,,,,0,Spanish,,torrents.ru tech collections 2009-11-14,,,,,,,,,,,,,0,,,,,,,,2162514,rar,172EFB9BCA10EA6128ED4BD74EF3E590,,,D:\\!Genesis\\!!ForLG\\!!!3\\adivinacion tarot mancias quiromancia suenos adivina mes a mes menomancia(1).rar,0,2000-01-01 01:00:00,2016-04-03 02:51:08,223000/172EFB9BCA10EA6128ED4BD74EF3E590-g.jpg,,
21516007,Теория геометрических построений,,,,Адлер,1940,3,,,233,0,Russian,121,torrents.ru tech collections 2009-11-14,,,,,,,,,,,,,0,,,,,,,1,4482814,djvu,13C9E2C364494E2839BE257AA54037DB,,,D:\\!Genesis\\!!ForLG\\1735447-Личный сборник книг по математке\\Геометрия\\adler.djvu,0,2000-01-01 01:00:00,2016-04-03 02:51:08,223000/13c9e2c364494e2839be257aa54037db.jpg,,
21516008,Adobe Acrobat - How To Create Pdf Files 4 Print & Press,,,,,,,Adobe ,,86,0,English,183,torrents.ru tech collections 2009-11-14,,,,,,,,,,,,,0,,,,,,,1,8767887,pdf,08687A78784788F43AD7E25343C73B4C,,,D:\\!Genesis\\!!ForLG\\!!!3\\Adobe Acrobat - How To Create Pdf Files 4 Print & Press.pdf,0,2000-01-01 01:00:00,2016-04-03 02:51:08,223000/08687a78784788f43ad7e25343c73b4c.jpg,,
21516009,Adobe Flex 2 - Programming ActionScript 3.0,,,,,,,Adobe Press,,514,0,English,87,torrents.ru tech collections 2009-11-14,,,,,,,,,,,,,0,,,,,,1,1,3890180,pdf,38BCF3FB361AF7F5B44D9D9F97AC6BAB,,,D:\\!Genesis\\!!ForLG\\!!!3\\Adobe Flex 2 - Adobe Press - Programming ActionScript 3.0.pdf,0,2000-01-01 01:00:00,2016-04-03 02:51:08,223000/38bcf3fb361af7f5b44d9d9f97ac6bab.jpg,,
21516010,JavaScript Reference Guide,,,,,,,Adobe Press,,336,0,English,92,torrents.ru tech collections 2009-11-14,,,,,,,,,,,,,0,,,,,,1,1,3599728,pdf,ECF34CC3A355959299FFB496DFCB9C68,,,D:\\!Genesis\\!!ForLG\\!!!3\\Adobe Press - JavaScript Reference Guide.pdf,0,2000-01-01 01:00:00,2016-04-03 02:51:08,223000/ecf34cc3a355959299ffb496dfcb9c68.jpg,,
21516011,PDF Workflow Overview,,,,,,,Adobe Press,,10,0,English,,torrents.ru tech collections 2009-11-14,,,,,,,,,,,,,0,,,,,,1,1,1270944,pdf,69C0308C7B498D57C212BDCB0D5E0BE6,,,D:\\!Genesis\\!!ForLG\\!!!3\\Adobe Press - PDF Workflow Overview.pdf,0,2000-01-01 01:00:00,2016-04-03 02:51:08,223000/69c0308c7b498d57c212bdcb0d5e0be6.jpg,,
21516012,Adobe Premiere Pro 2.0 Classroom In A Book,,,,,2006,,Adobe Press,,,0,English,95,torrents.ru tech collections 2009-11-14,,,,,,,,,,,,broken,0,,,,,,,,25533239,chm,7A54A490EB52C0A8E76102E6EC1FC074,,ban,D:\\!Genesis\\!!ForLG\\!!!3\\Adobe Press Adobe Premiere Pro 2.0 Classroom In A Book Feb 2006 2.chm,0,2000-01-01 01:00:00,2016-04-03 02:51:08,,,
21516013,Extending Acrobat Forms With Javascript (Decrypted),,,,,,,Adobe Press,,281,0,English,92,torrents.ru tech collections 2009-11-14,,,,,,,,,,,,,0,,,,,,1,0,35602977,pdf,A4BB839B85CDE9704BB4EABCDA43DFA6,,,D:\\!Genesis\\!!ForLG\\!!!3\\Adobe Press Extending Acrobat Forms With Javascript (Decrypted).pdf,0,2000-01-01 01:00:00,2016-04-03 02:51:08,223000/a4bb839b85cde9704bb4eabcda43dfa6.jpg,,
21516014,Adobe Acrobat 7 Tips and Tricks The 150 Best,,,,,2005,,Adobe Press,,,0,English,95,torrents.ru tech collections 2009-11-14,,,,,,,,,,,,,0,,,,,,,,26201313,chm,2888893E6F701563A204DCA411B980C1,,,D:\\!Genesis\\!!ForLG\\!!!3\\Adobe.Press.Adobe.Acrobat.7.Tips.and.Tricks.The.150.Best.Jan.2005.eBook-LiB.chm,0,2000-01-01 01:00:00,2016-04-03 02:51:08,,,
21516015,Extending Acrobat Forms with JavaScript,,,,John Deubert,2003,,Adobe Press,,281,0,English,92,torrents.ru tech collections 2009-11-14,,"9780321172389,0321172388",,,,,005.7/2,QA76.9.F48 D48 2003,,,OL3705112M,,0,,,,,,1,0,37053194,pdf,F498036CD8D4186D3BA081402A58A3B7,,,D:\\!Genesis\\!!ForLG\\!!!3\\Adobe.Press.Extending.Acrobat.Forms.with.JavaScript.pdf,0,2000-01-01 01:00:00,2016-04-03 02:51:08,223000/f498036cd8d4186d3ba081402a58a3b7-d.jpg,,
21516016,History of Dogma,,,,Adolf von Harnack,2010,,Nabu Press,,2397,0,English,64,torrents.ru tech collections 2009-11-14,,"9781171912224,1171912226",,,,,,,,,,,0,,,,,,,1,10508697,pdf,FD14F43CA63496D579206311599006EB,,,"D:\\!Genesis\\!!ForLG\\-=  UNSORTED BOOKS  =-\\Adolf Harnack, History of Dogma.pdf",0,2000-01-01 01:00:00,2016-04-03 02:51:08,223000/fd14f43ca63496d579206311599006eb-d.jpg,,
21516017,Advanced Signal Processing Handbook,,,,Stergios Stergiopoulos,2001,,CRC,,,0,English,118,torrents.ru tech collections 2009-11-14,,,,,,,,,,,,,0,,,,,,,,54913243,rar,8A3F98E5F7DEA61A2FEADEF02E433D45,,,"D:\\!Genesis\\!!ForLG\\1541894-Новая подборка книг по цифровой обработке сигналов, распознава\\Advanced Signal Processing Handbook.rar",0,2000-01-01 01:00:00,2016-04-03 02:51:08,223000/8A3F98E5F7DEA61A2FEADEF02E433D45-g.jpg,,
21516018,Advanced Course in Yogi Philosophy and Oriental Occultism,,,,Yogi Ramacharaka,1980,,Yoga Publication Society,,358,0,English,209,torrents.ru tech collections 2009-11-14,,"0911662022,9780911662023",,,,,,,,,OL8318110M,,0,,,,0,1,,1,11717651,pdf,87BDD48FD809669C717BC0B2BDB7E8F8,,,D:\\!Genesis\\!!ForLG\\-=  UNSORTED BOOKS  =-\\Non-Fiction\\Philosophy and Religion\\Advanced_Course_in_Yogi_Philosophy_and_Oriental_Occultism.pdf,0,2000-01-01 01:00:00,2016-04-03 02:51:08,223000/87bdd48fd809669c717bc0b2bdb7e8f8-d.jpg,,
21516019,"Advances in Genetics, Vol. 49",,,,"Jeffrey C. Hall, Jay C. Dunlap, Theodore Friedmann (Eds.)",2003,1st,Academic Press,,1-193,0,English,22,torrents.ru tech collections 2009-11-14,0,978-0-12-017649-6,0065-2660,,,,,,,,,,0,,,,,1,,1,2413991,pdf,3A787908C839E4606DE05A47452FEEAA,,,"D:/!Genesis/!!ForLG/1808213-Коллекция Книг по Генетике/Advances in Genetics, v.49, 2003, p.201.pdf",0,2000-01-01 01:00:00,2016-04-03 02:51:08,223000/3a787908c839e4606de05a47452feeaa-d.jpg,,
21516020,Genetic Dissection of Complex Traits,,Advances in Genetics 60,,D. C. Rao and C. Charles Gu (Eds.),2008,,"Acadrmic Prrss,2000",,1-760,0,English,22,torrents.ru tech collections 2009-11-14,,978-0-12-373883-7,0065-2660,B003ZPK7OQ,,,616.042,QH431.A1 A3 vol. 60,,,OL10071998M,,0,,,,,,,1,9045988,pdf,E3EEB6DD35FE4C36728993961343F5F2,,,"D:\\!Genesis\\!!ForLG\\1808213-Коллекция Книг по Генетике\\Advances in Genetics, v.60. Genetic Dissection of Complex Traits, 2008, p.750.pdf",0,2000-01-01 01:00:00,2016-04-03 02:51:08,223000/e3eeb6dd35fe4c36728993961343f5f2.jpg,,
21516021,Adventures Beyond The Boydy - How to Experience Out-of-Body Travel,,,,William Buhlman,,,,,161,0,English,102,torrents.ru tech collections 2009-11-14,0,,,,,,,,,,,text - no cover. over versions are better.,0,,,,,,,1,758210,pdf,9DFFA31D1CDF9B765C6424A015655E7E,0E93FD4994798A36F93D6809D5B18FFA,no,"D:/!Genesis/!!ForLG/-=  UNSORTED BOOKS  =-/EBOOK COLLECTION (PART11) [CSI][h33t]/Adventures Beyond The Body, Astral Projection - William Buhlman.pdf",0,2000-01-01 01:00:00,2016-04-03 02:51:08,223000/9dffa31d1cdf9b765c6424a015655e7e.jpg,,
21516022,Affinity Capillary Electrophoresis in Pharmaceutics and Biopharmaceutics,,,,"Neubert, Ruttinger",2003,,,,,0,English,302,torrents.ru tech collections 2009-11-14,,,,,,,,,,,,,0,,,,,,,,2932494,rar,FCD2042A8240B2C40A861CDEA73DD436,,,"D:\\!Genesis\\!!ForLG\\1866973-Химия, Технология, Производство и Фармакология Лекарственных С\\Affinity Capillary Electrophoresis in Pharmaceutics and Biopharmaceutics, 2003.rar",0,2000-01-01 01:00:00,2016-04-03 02:51:08,223000/FCD2042A8240B2C40A861CDEA73DD436-g.jpg,,
21516023,African Tales,,,,,,,,,24,0,English,111,torrents.ru tech collections 2009-11-14,,,,,,,,,,,,,0,,,,,,,1,70327,pdf,83605B53277A04A857E4C0FB33D2F4D6,,,D:\\!Genesis\\!!ForLG\\-=  UNSORTED BOOKS  =-\\Non-Fiction\\Mythology\\African Tales.pdf,0,2000-01-01 01:00:00,2016-04-03 02:51:08,223000/83605b53277a04a857e4c0fb33d2f4d6.jpg,,
21516024,Aftonbladets Problemturneringar 1898-1904,,,,,2007,,CUP,,87,0,English,46,torrents.ru tech collections 2009-11-14,,,,,,,,,,,,,0,,,,,,,1,183271,pdf,2305946BE4F9C2A2CE277298C6862A24,,,D:\\!Genesis\\!!ForLG\\873138-Шахматы Большая Подборка шахматной литературы\\PROBLEMS\\Aftonbladets Problemturneringar 1898-1904 (1906).pdf,0,2000-01-01 01:00:00,2016-04-03 02:51:08,223000/2305946be4f9c2a2ce277298c6862a24.jpg,,
21516025,Agents structures & international relations,,Cambridge Studies in International Relations,,Colin Wight,2006,1,Cambridge University Press,,361,0,English,192,torrents.ru tech collections 2009-11-14,,"052185752X,9780521857529,9780511250460",,,,,,,,,OL7766976M,,0,,,,,1,1,1,2579170,pdf,309AD6E6AC0278EBB99955436932B602,,,D:\\!Genesis\\!!ForLG\\Law & Politics\\International Relations Theory\\Agents structures & international relations.pdf,0,2000-01-01 01:00:00,2016-04-03 02:51:08,223000/309ad6e6ac0278ebb99955436932b602-d.jpg,,
21516026,"Watermarking relational data framework, algorithms and analysis",,VLDB Journal,,"RakeshAgrawal,PeterJ.Haas,JerryKiernan",2003,,,,13,0,English,71,torrents.ru tech collections 2009-11-14,,,,,,,,,10.1007/s00778-003-0097-X,,,,0,,,,,,,1,223174,pdf,14B31C017C0CCE47CA24EEDF0158D1DF,,,"D:\\!Genesis\\!!ForLG\\1991178Цифровые водяные знаки\\article\\!Watermark2\\Agrawal Haas Kiernan - Watermarking relational data framework, algorithms and analysis.PDF",0,2000-01-01 01:00:00,2016-04-03 02:51:08,223000/14b31c017c0cce47ca24eedf0158d1df.jpg,,
21516027,Applications of Nonlinear Fiber Optics,,Quantum Electronics-Principles and Applications,,Govind P. Agrawal,1989,,Academic Pr,,473,0,English,252,torrents.ru tech collections 2009-11-14,,"9780120451401,0120451409",,,,,535.8/9,QC448 .A38 1989,,,OL2055966M,,0,,,,,,1,1,4795449,pdf,BE415D8DDBEC69F6D2A3E42D9561B7CA,,,"D:\\!Genesis\\!!ForLG\\!!!3\\Agrawal, Applications of Nonlinear Fiber Optics (2001 by ACADEMIC PRESS).pdf",0,2000-01-01 01:00:00,2016-04-03 02:51:08,223000/be415d8ddbec69f6d2a3e42d9561b7ca.jpg,,
21516028,Digital Historical Documents,,,,William Wilson,,,,,150,0,English,64,torrents.ru tech collections 2009-11-14,,,,,,,,,,,,,0,,,,,,,1,13067067,pdf,833FD4205746A1845CBB8A89A6777A70,,,D:\\!Genesis\\!!ForLG\\1528206-Подборка старых книг по фехтованию\\agrippa.pdf,0,2000-01-01 01:00:00,2016-04-03 02:51:08,223000/833fd4205746a1845cbb8a89a6777a70.jpg,,
21516029,A Method for Combating Random Geometric Attack on Image Watermarking,,,,,,,,,10,0,English,121,torrents.ru tech collections 2009-11-14,,,,,,,,,,,,,0,,,,,,,1,65806,pdf,47C3CEB5123222E1E2CEAF79C6537F99,,,D:\\!Genesis\\!!ForLG\\1991178Цифровые водяные знаки\\article\\!Watermark2\\Agung Sweeney - A Method for Combating Random Geometric Attack on Image Watermarking.pdf,0,2000-01-01 01:00:00,2016-04-03 02:51:08,223000/47c3ceb5123222e1e2ceaf79c6537f99.jpg,,
21516030,Public-Key Steganography,,,,Ahn Hopper ,,,,,20,0,English,75,torrents.ru tech collections 2009-11-14,,,,,,,,,,,,,0,,,,,,,1,331594,pdf,583A06D92AABE57EF5FA4CC07A929E3B,,,D:\\!Genesis\\!!ForLG\\1991178Цифровые водяные знаки\\article\\!Watermark2\\Ahn Hopper - Public-Key Steganography.pdf,0,2000-01-01 01:00:00,2016-04-03 02:51:08,223000/583a06d92aabe57ef5fa4cc07a929e3b.jpg,,
21516031,Air Conditioning and Refrigeration CHRONOLOGY,,,,,,,,,19,0,English,238,torrents.ru tech collections 2009-11-14,,,,,,,,,,,,,0,,,,,,,1,271833,pdf,BA15DED8BAB9B5580083E92DF9703FAE,,,"D:\\!Genesis\\!!ForLG\\2255368-Подборка [ХОЛОДИЛЬНАЯ ТЕХНИКА+ крио+кондиц] рабочие тела, маши\\ИСТОРИЯ, Словари\\Air Conditioning and Refrigeration C H R O N O L O G Y.pdf",0,2000-01-01 01:00:00,2016-04-03 02:51:08,223000/ba15ded8bab9b5580083e92df9703fae.jpg,,
21516032,Aircraft Performance and Design,,,,"Anderson, Jr., UMD",1999,,Mcgraw-Hill,,302,0,English,64,torrents.ru tech collections 2009-11-14,,,,,,,,,,,,,0,,,,,,,0,38185864,pdf,B4C77F6CAE21F7C995A720BEC7F017C7,,,"D:\\!Genesis\\!!ForLG\\!!!3\\Aircraft Performance and Design, Anderson, Jr., UMD, McGraw-Hill,1999.pdf",0,2000-01-01 01:00:00,2016-04-03 02:51:08,223000/b4c77f6cae21f7c995a720bec7f017c7.jpg,,
21516033,"Linguistics, An Introduction to Language and Communication",,,,Adrian Akmajian,1986,,See notes,,309,0,English,260,torrents.ru tech collections 2009-11-14,,,,B001DNEZYK,,,,,,,,,0,,,,,,,0,24267467,pdf,695E08C266AE0119AAFE6F4CE5AB6DEC,,,"D:\\!Genesis\\!!ForLG\\-=  UNSORTED BOOKS  =-\\Akmajian - Linguistics, An Introduction to Language and Communication.pdf",0,2000-01-01 01:00:00,2016-04-03 02:51:08,223000/695e08c266ae0119aafe6f4ce5ab6dec.jpg,,
21516034,C++ Programming HOW-TO,,,,Al Dev (Alavoor Vasudevan) ,,,,,69,0,English,92,torrents.ru tech collections 2009-11-14,,,,,,,,,,,,,0,,,,,,1,1,254571,pdf,CDC8D496C71C74CA91FB1327162D5CC4,,,"D:\\!Genesis\\!!ForLG\\576081-[Физика и математика] Небольшая подборка книг\\Computer science\\C ++, C#\\Al Dev (Alavoor Vasudevan) C++ Programming HOW-TO.pdf",0,2000-01-01 01:00:00,2016-04-03 02:51:08,223000/cdc8d496c71c74ca91fb1327162d5cc4.jpg,,
21516035,C-C++ Beautifier HOW-TO,,,,Al Dev (Alavoor Vasudevan) ,,,,,12,0,English,92,torrents.ru tech collections 2009-11-14,,,,,,,,,,,,,0,,,,,,1,1,59229,pdf,F7BA717D023435F432BDBBB971345FB3,,,"D:\\!Genesis\\!!ForLG\\576081-[Физика и математика] Небольшая подборка книг\\Computer science\\C ++, C#\\Al Dev (Alavoor Vasudevan) C-C++ Beautifier HOW-TO.pdf",0,2000-01-01 01:00:00,2016-04-03 02:51:08,223000/f7ba717d023435f432bdbbb971345fb3.jpg,,
21516036,The Cipher Manuscript - necronomicon,,,,Al Azif,,,,,20,0,English,205,torrents.ru tech collections 2009-11-14,,,,,,,,,,,,,0,,,,,,,1,90701,pdf,5CC9A4BF8C52E575580B2458F709E041,,,D:\\!Genesis\\!!ForLG\\-=  UNSORTED BOOKS  =-\\Non-Fiction\\Philosophy and Religion\\Religion\\Occult\\al_azif_-_necronomicon.pdf,0,2000-01-01 01:00:00,2016-04-03 02:51:08,223000/5cc9a4bf8c52e575580b2458f709e041.jpg,,
21516037,The Cross of Cards,,,,Alan Watts,,,,,,0,English,205,torrents.ru tech collections 2009-11-14,,,,,,,,,,,,,0,,,,,,,,51200,doc,612F08E821799EE6D082AE5ABC06A9B9,,,D:\\!Genesis\\!!ForLG\\-=  UNSORTED BOOKS  =-\\Non-Fiction\\Philosophy and Religion\\Religion\\Alan Watts\\Alan Watts - The Cross of Cards.doc,0,2000-01-01 01:00:00,2016-04-03 02:51:08,,,
21516038,Проблемы современной теории шахмат,,,,Алаторцев,1960,,ФИС,,336,0,Russian,46,torrents.ru tech collections 2009-11-14,,,,,,,,,,,,,0,,,,,,,0,1822720,djvu,9892307F71F3D2A9F3A19B7C6ABC4DC7,,,D:\\!Genesis\\!!ForLG\\1807893-Шахматная библиотека webchess.ru\\Мастерская шахматиста\\Alatortsev-Problems_of_the_modern_chess_theory.djvu,0,2000-01-01 01:00:00,2016-04-03 02:51:08,223000/9892307f71f3d2a9f3a19b7c6abc4dc7.jpg,,
21516039,Molecular Biology Of The Cell,,,,"Alberts, Johnson, Levis, Raff",2002,4,Garland Science,,3786,0,English,12,torrents.ru tech collections 2009-11-14,,"0815332181,9780815332183",,,,,,,,,OL21074168M,,0,,,,,,1,1,95000440,pdf,3E8CFF10A833E7051DAB709BBAEB05CA,,,D:\\!Genesis\\!!ForLG\\Biology\\Molecular Biology\\Alberts - Molecular Biology Of The Cell 4th Ed.pdf,0,2000-01-01 01:00:00,2016-04-03 02:51:08,223000/3e8cff10a833e7051dab709bbaeb05ca.jpg,,
21516040,New Dialectics and Political Economy,,Political Science & International Relations,,Robert Albritton,2003,1St Edition,Palgrave Macmillan,,239,0,English,305,torrents.ru tech collections 2009-11-14,,"9780333999332,0333999339",,,,,335.4/112,HB97.5 .N49 2003,,,OL10560475M,,0,,,,,,1,1,723313,pdf,E8C49DD102AFF1504FE20289A4A46E35,,,D:\\!Genesis\\!!ForLG\\Politics economics and law\\Albritton - Simoulidis (eds) - New Dialectics and Political Economy.pdf,0,2000-01-01 01:00:00,2016-04-03 02:51:08,223000/e8c49dd102aff1504fe20289a4a46e35-d.jpg,,
21516041,Alchohol Distillation Principles Equipment Relationships and Safety,,,,"Eric Kvaalen, Philip C. Wankat",,,,,27,0,English,302,torrents.ru tech collections 2009-11-14,,,,,,,,,,,,,0,,,,,,,1,269288,pdf,8F7A7CE6119E9272CA4AA732652B7CCE,,,D:\\!Genesis\\!!ForLG\\!Drugs\\Alchohol Distillation Principles Equipment Relationships and Safety.pdf,0,2000-01-01 01:00:00,2016-04-03 02:51:08,223000/8f7a7ce6119e9272ca4aa732652b7cce.jpg,,
21516042,Epistemology-The big questions,,Philosophy: The Big Questions,,Linda Martín Alcoff,1991,1,Wiley-Blackwell,,448,0,English,195,torrents.ru tech collections 2009-11-14,0,0631205802,,,,,,,,,OL16932902M,,0,,,,,,,0,27609653,pdf,2A6472EFE82C516546C9E255A1EB588F,,,"D:/!Genesis/!!ForLG/-=  UNSORTED BOOKS  =-/Academic books/Theology, philosophy and the history of ideas/Alcoff (ed) - Epistemology-The big questions.pdf",0,2000-01-01 01:00:00,2016-04-03 02:51:08,223000/2a6472efe82c516546c9e255a1eb588f.jpg,,
21516043,На пути к высшим шахматным достижениям,,,,Алехин А.,1991,,ФИС,,449,0,Russian,46,torrents.ru tech collections 2009-11-14,,,,,,,,,,,,,0,,,,,,,0,5036126,djvu,82BDF2FE1DC30F37E34DF5EE39132BC8,46a31fb84fef88bb0879cf876b683b4b,no,D:\\!Genesis\\!!ForLG\\242275-Литература о шахматах\\ru-board\\Alehin_na_puti.djvu,0,2000-01-01 01:00:00,2016-04-03 02:51:08,223000/82bdf2fe1dc30f37e34df5ee39132bc8.jpg,,
21516044,Book Of The Law,,,,Aleister Crowley,,,,,18,0,English,313,torrents.ru tech collections 2009-11-14,,,,,,,,,,,,,0,,,,,,,1,44362,pdf,386909B0D21C81BF8501C4C84A3707EE,,,"D:\\!Genesis\\!!ForLG\\-=  UNSORTED BOOKS  =-\\Non-Fiction\\Philosophy and Religion\\Religion\\Occult\\Crowley, Aleister\\Aleister Crowley - Book Of The Law.pdf",0,2000-01-01 01:00:00,2016-04-03 02:51:08,223000/386909b0d21c81bf8501c4c84a3707ee.jpg,,
21516045,Cocaine,,,,Aleister Crowley,,,,,18,0,English,302,torrents.ru tech collections 2009-11-14,,,,,,,,,,,,,0,,,,,,1,1,6808524,pdf,2416294F931DE373562341903F60C56F,,,D:\\!Genesis\\!!ForLG\\!Drugs\\Aleister Crowley - Cocaine.pdf,0,2000-01-01 01:00:00,2016-04-03 02:51:08,223000/2416294f931de373562341903f60c56f.jpg,,
21516046,Of The Nature Of The Gods,,,,Aleister Crowley,,,,,,0,English,181,torrents.ru tech collections 2009-11-14,,,,,,,,,,,,,0,,,,,,,,16942,txt,8AA311B69CC7568E3E207A62494826C1,,,D:\\!Genesis\\!!ForLG\\-=  UNSORTED BOOKS  =-\\Non-Fiction\\Philosophy and Religion\\Religion\\Aleister Crowley\\Aleister Crowley - Of The Nature Of The Gods.doc,0,2000-01-01 01:00:00,2016-04-03 02:51:08,,,
21516047,Gilles De Rais: The Banned Lecture,,,,Aleister Crowley,2008,,Black Moon Publishing,,24,0,English,209,torrents.ru tech collections 2009-11-14,,1890399027,,,,,,,,,,,0,,,,,,,,31232,doc,F50998CF617D42BDE8D0602BFEDF787C,,,D:\\!Genesis\\!!ForLG\\-=  UNSORTED BOOKS  =-\\Non-Fiction\\Mythology\\The Occult\\Aleister Crowley - The Banned Lecture.doc,0,2000-01-01 01:00:00,2016-04-03 02:51:08,223000/f50998cf617d42bde8d0602bfedf787c-d.jpg,,
21516048,The diary of a drug Fiend,,,,Aleister Crowley,1970,Edition Not Stated,University Books,,23,0,English,302,torrents.ru tech collections 2009-11-14,,,,B002H0JQF6,,,,,,,,,0,,,,,,,1,234436,pdf,B740516941ACE56668610B06C67F41B3,,,D:\\!Genesis\\!!ForLG\\!Drugs\\Aleister Crowley - The diary of a drug Fiend .pdf,0,2000-01-01 01:00:00,2016-04-03 02:51:08,223000/b740516941ace56668610b06c67f41b3.jpg,,
21516049,Goetia,,,,"S.L. MacGregor Mathers, Aleister Crowley",2010,,CreateSpace,,50,0,English,205,torrents.ru tech collections 2009-11-14,,"9781453712962,1453712968",,,,,,,,,,,0,,,,,,,1,615836,pdf,C344062F56EB37336DD453415645E9AF,,,"D:\\!Genesis\\!!ForLG\\-=  UNSORTED BOOKS  =-\\Non-Fiction\\Philosophy and Religion\\Religion\\Occult\\Crowley, Aleister\\Aleister Crowley & Mathers - Goetia.pdf",0,2000-01-01 01:00:00,2016-04-03 02:51:08,223000/c344062f56eb37336dd453415645e9af-d.jpg,,
21516050,107 Great Chess Battles 1939-1945,,Dover Books on Chess,,Alexander Alekhine,2010,,Dover Publications,,288,0,English,46,torrents.ru tech collections 2009-11-14,,"9780486271040,0486271048",,,,,794.1/57,GV1452 .A38 1992,,,OL1711086M,,0,,,,,,,,31150,rar,BD1156E73F6FF008C3F51DD89A801095,,,D:\\!Genesis\\!!ForLG\\1612870-Книги по шахматам Chess books\\Electronic Chess Books\\Chess\\Alekhine - 107 Great Chess Battles 1939-1945.rar,0,2000-01-01 01:00:00,2016-04-03 02:51:08,223000/bd1156e73f6ff008c3f51dd89a801095-d.gif,,
21516051,"Международный турнир памяти Алехина (Москва,1956)",,,,Панов В.Н.,1958,,Физкультура и спорт,Москва,226,0,Russian,46,torrents.ru tech collections 2009-11-14,0,,,,,75.581,,,,,,,0,,,,,,,0,4809535,pdf,F0BB7D297765C20016AD1A71F29F8CCB,,,"D:\\!Genesis\\!!ForLG\\873138-Шахматы Большая Подборка шахматной литературы\\FOREIGN\\RUSSIAN\\Alekhine International Chess Tournaments [Panov, 1956 - Russian].pdf",0,2000-01-01 01:00:00,2016-04-03 02:51:08,223000/f0bb7d297765c20016ad1a71f29f8ccb.jpg,,
21516052,Alekhine vs. Euwe Return Match 1937,,,,M. M Botvinnik,1973,,Chess Digest,,52,0,English,46,torrents.ru tech collections 2009-11-14,,,,B0006WXKB8,,,,,,,,,0,,,,,,1,0,5254748,pdf,DCD8395DF9E86630EA74BB0A89C58809,,,"D:\\!Genesis\\!!ForLG\\873138-Шахматы Большая Подборка шахматной литературы\\GENERAL\\Alekhine vs. Euwe Return Match 1937 [Botvinnik, 1939].pdf",0,2000-01-01 01:00:00,2016-04-03 02:51:08,223000/dcd8395df9e86630ea74bb0a89c58809.jpg,,
21516053,Alekhine vs.Bogoljubow 1934 Match,,,,"Fred Reinfeld, Reuben Fine",1967,,,,57,0,English,46,torrents.ru tech collections 2009-11-14,,,,,,,,,,,,,0,,,,,,1,0,2296580,pdf,2C825D5959BE9590FA2C97D26F60DA71,,,"D:\\!Genesis\\!!ForLG\\873138-Шахматы Большая Подборка шахматной литературы\\GENERAL\\Alekhine vs.Bogoljubow 1934 Match [Fred Reinfeld, Reuben Fine, 1967].pdf",0,2000-01-01 01:00:00,2016-04-03 02:51:08,223000/2c825d5959be9590fa2c97d26f60da71.jpg,,
21516054,Шахматное наследие Алехина,том 1,,,Котов А.,1982,,ФИС,,385,0,Russian,46,torrents.ru tech collections 2009-11-14,,,,,,,,,,,,,0,,,,,,,1,38573374,pdf,6A75922CF8E05026B5BBBF29DB0D3D95,,,"D:\\!Genesis\\!!ForLG\\873138-Шахматы Большая Подборка шахматной литературы\\FOREIGN\\RUSSIAN\\Alekhines Chess Heritage, Vol.1 [Alexander Kotov, 1982 - Russian].pdf",0,2000-01-01 01:00:00,2016-04-03 02:51:08,223000/6a75922cf8e05026b5bbbf29db0d3d95.jpg,,
21516055,Шахматное наследие Алехина,том 2,,,Котов А.,1982,,фИС,,401,0,Russian,46,torrents.ru tech collections 2009-11-14,,,,,,,,,,,,,0,,,,,,,1,39073076,pdf,394FB2962D59137878C8DD6131B20665,,,"D:\\!Genesis\\!!ForLG\\873138-Шахматы Большая Подборка шахматной литературы\\FOREIGN\\RUSSIAN\\Alekhines Chess Heritage, Vol.2 [Alexander Kotov, 1982 - Russian].pdf",0,2000-01-01 01:00:00,2016-04-03 02:51:08,223000/394fb2962d59137878c8dd6131b20665.jpg,,
21516056,Alekhine's Defence B02-05,,,,Nigel Davies & Andrew Martin,2004,,,,28,0,English,46,torrents.ru tech collections 2009-11-14,,,,,,,,,,,,,0,,,,,,,0,191719,pdf,29539829286423CAC6F607FB8A1BC26E,,,"D:\\!Genesis\\!!ForLG\\873138-Шахматы Большая Подборка шахматной литературы\\OPENINGS - CHESSPUBLISHING.COM\\Alekhines Defence B02-05 [Nigel Davies & Andrew Martin, 2004].pdf",0,2000-01-01 01:00:00,2016-04-03 02:51:08,223000/29539829286423cac6f607fb8a1bc26e.jpg,,
21516057,Подъемно-транспортные машины,1,,,Александров,1985,6,ВШ,,125,0,Russian,210,torrents.ru tech collections 2009-11-14,,,,,,,,,,,,,0,,,,,,,1,4167307,djvu,E02E47EDEF588C932F0101DF4BC27A32,,,"D:\\!Genesis\\!!ForLG\\1357079-Подборка книг для конструкторов, технологов, механиков и рабоч\\Конструктор\\Подъемно-транспортные машины\\Aleksandrov1.djvu",0,2000-01-01 01:00:00,2016-04-03 02:51:08,223000/e02e47edef588c932f0101df4bc27a32.jpg,,
21516058,Подъемно-транспортные машины,2,,,Александров,1985,6,ВШ,,133,0,Russian,210,torrents.ru tech collections 2009-11-14,,,,,,,,,,,,,0,,,,,,,1,4337576,djvu,4D0ABDE4260B4EB6E34F5007234B64E8,,,"D:\\!Genesis\\!!ForLG\\1357079-Подборка книг для конструкторов, технологов, механиков и рабоч\\Конструктор\\Подъемно-транспортные машины\\Aleksandrov2.djvu",0,2000-01-01 01:00:00,2016-04-03 02:51:08,223000/4d0abde4260b4eb6e34f5007234b64e8.jpg,,
21516059,Подъемно-транспортные машины,3,,,Александров,1985,6,ВШ,,132,0,Russian,210,torrents.ru tech collections 2009-11-14,,,,,,,,,,,,,0,,,,,,,1,4240846,djvu,ED77BC0CCE441B9C61EE0DB092667679,,,"D:\\!Genesis\\!!ForLG\\1357079-Подборка книг для конструкторов, технологов, механиков и рабоч\\Конструктор\\Подъемно-транспортные машины\\Aleksandrov3.djvu",0,2000-01-01 01:00:00,2016-04-03 02:51:08,223000/ed77bc0cce441b9c61ee0db092667679.jpg,,
21516060,Подъемно-транспортные машины,4,,,Александров,1985,6,ВШ,,130,0,Russian,210,torrents.ru tech collections 2009-11-14,,,,,,,,,,,,,0,,,,,,,1,4143569,djvu,E633F4B5A76ADA2DE24E037508F936A5,,,"D:\\!Genesis\\!!ForLG\\1357079-Подборка книг для конструкторов, технологов, механиков и рабоч\\Конструктор\\Подъемно-транспортные машины\\Aleksandrov4.djvu",0,2000-01-01 01:00:00,2016-04-03 02:51:08,223000/e633f4b5a76ada2de24e037508f936a5.jpg,,
21516061,Энциклопедия элементарной математики,том 5,,,"Александров, Маркусевич, Хинчин",1966,,,,625,0,Russian,113,torrents.ru tech collections 2009-11-14,,,,,,,,,,,,,0,,,,,,,1,3880308,djvu,C51979D61C99B630E7252BD113AEED21,,,D:\\!Genesis\\!!ForLG\\2244180-\\Physics & Mathematics\\mathmatics\\элементарная математика\\AleksandrovMarkushevichHinchin_EncElMat5_1966ru.djvu,0,2000-01-01 01:00:00,2016-04-03 02:51:08,223000/c51979d61c99b630e7252bd113aeed21.jpg,,
21516062,Рассчет и моделирование аппаратов криогенных установок,,,,Алексеев,1987,,,,279,0,Russian,249,torrents.ru tech collections 2009-11-14,,0074-0-0016-0,,,,,,,,,,,0,,,,,,,1,3281622,djvu,2BD0D5A5E9B3C194493F77EDBB7E08CA,,,D:\\!Genesis\\!!ForLG\\2239566-Подборка книг по криогенной технике\\alekseev_raschet_i_modelirovanie_apparatov_kriogennih_ustanovok 1987.djvu,0,2000-01-01 01:00:00,2016-04-03 02:51:08,223000/2bd0d5a5e9b3c194493f77edbb7e08ca.jpg,,
21516063,Ales And Beer - Home Brew In Practice,,,,Humbrey Wakefield,,,,,18,0,English,49,torrents.ru tech collections 2009-11-14,,,,,,,,,,,,,0,,,,,,,1,46445,pdf,3A441830D8E1C18F8BDCFFBB97324704,,,D:\\!Genesis\\!!ForLG\\-=  UNSORTED BOOKS  =-\\Non-Fiction\\Food and Cooking\\Cookbooks And Recipes\\Cookbooks And Recipes\\Cookbooks\\Ales And Beer - Home Brew In Practice By Humbrey Wakefield.pdf,0,2000-01-01 01:00:00,2016-04-03 02:51:08,223000/3a441830d8e1c18f8bdcffbb97324704.jpg,,
21516064,L'Escrime du sabre a cheval,,,,Allesandri,,,,,,0,English,311,torrents.ru tech collections 2009-11-14,,,,,,,,,,,,,0,,,,,,,,14939056,rar,1CB5B1C4D03D7CC08BFD76D126E81699,,,D:\\!Genesis\\!!ForLG\\1528206-Подборка старых книг по фехтованию\\alessandri.rar,0,2000-01-01 01:00:00,2016-04-03 02:51:08,,,
21516065,911 - Decent into Tyranny,,,,Alex Jones,2002,,Hearthstone Publishing,,156,0,English,102,torrents.ru tech collections 2009-11-14,,,,,,,,,,,,,0,,,,,,1,1,1058976,pdf,B40CB02AC75A7B668CDEC6544E0CC90A,,,D:\\!Genesis\\!!ForLG\\-=  UNSORTED BOOKS  =-\\EBOOK COLLECTION (PART1) [CSI][h33t]\\Alex Jones ebook - 911 - Decent into Tyranny.pdf,0,2000-01-01 01:00:00,2016-04-03 02:51:08,223000/b40cb02ac75a7b668cdec6544e0cc90a.jpg,,
21516066,Fundamentals of Electric Circuits,,,,Alexander ,,3,,,,0,English,256,torrents.ru tech collections 2009-11-14,,,,,,,,,,,,,0,,,,,,,,14424143,rar,A1986C5EBFBDED9EEA17837D8124E7B8,,,D:\\!Genesis\\!!ForLG\\Electronics\\Alexander - Fundamentals of Electric Circuits 3e HQ.rar,0,2000-01-01 01:00:00,2016-04-03 02:51:08,,,
21516067,Fundamentals of Electric Circuits,,,,Alexander ,,3,,,,0,English,256,torrents.ru tech collections 2009-11-14,,,,,,,,,,,,,0,,,,,,,,10587244,rar,DAA0D10CC5A1005E66CD7B56BD5EE5D4,,,D:\\!Genesis\\!!ForLG\\Electronics\\Alexander - Fundamentals of Electric Circuits 3rd Ed.rar,0,2000-01-01 01:00:00,2016-04-03 02:51:08,223000/DAA0D10CC5A1005E66CD7B56BD5EE5D4-g.jpg,,
21516068,Signal Processing First,,,,"James H. McClellan, Ronald W. Schafer, Mark A. Yoder",2003,,Prentice Hall,,258,0,English,,,0,"0130909998,9780130909992",,,,,,,,,,2-2 color scan,0,,,,,1,,0,140281216,pdf,b94ad81519a16192532a64e39f845136,5713eaa6457d182bc92b191326511784,no,SignalProcessingFirst-McclellanSchaferYoder,0,2000-01-01 01:00:00,2016-04-03 02:51:08,881000/b94ad81519a16192532a64e39f845136-d.jpg,,
21516069,Знаменитые шахматные композиции,,,,Грин А.,1973,,ФИС,,89,0,Russian,46,torrents.ru tech collections 2009-11-14,,,,,,,,,,,,,0,,,,,,,0,2968093,djvu,B580C4465E415546B32EB2BFCF3562E4,cca82b14e34cde0452083ccaa5cd9f71,no,"D:\\!Genesis\\!!ForLG\\731301-Книги по шахматной композиции\\Alexander Grin - Famous Chess Compositions (1973, Russian).djvu",0,2000-01-01 01:00:00,2016-04-03 02:51:08,223000/b580c4465e415546b32eb2bfcf3562e4.jpg,,
21516070,Избранные шахматные задачи и этюды,,,,А. Гуляев,1956,,,,89,0,Russian,113,torrents.ru tech collections 2009-11-14,,,,,,,,,,,,,0,,,,,,,0,1118034,djvu,FF7D1D8237919BBC58AFBD9D02F31D27,1e829f83af6b2ce5282cdbede1fa4bc7,no,"D:\\!Genesis\\!!ForLG\\873138-Шахматы Большая Подборка шахматной литературы\\All-new chess ebooks\\Alexander Gulyaev - Selected Chess Problems and Studies (1956, Russian).djvu",0,2000-01-01 01:00:00,2016-04-03 02:51:08,223000/ff7d1d8237919bbc58afbd9d02f31d27.jpg,,
21516071,Living Water: Viktor Schauberger and the Secrets of Natural Energy ,,Viktor Schauberger and the Secrets of Natural Energy,,Olof Alexandersson,2002,2nd,Newleaf,,155,0,English,102,torrents.ru tech collections 2009-11-14,,"0717133907,9780717133901",,B000ZMDDTS,,,,,,,OL7836230M,,0,,,,,1,,1,2574175,pdf,5C3CFCC3B3BD3CFB11B12A4A6F11C612,,,D:\\!Genesis\\!!ForLG\\-=  UNSORTED BOOKS  =-\\EBOOK COLLECTION (PART2) [CSI][h33t]\\Alexandersson - Living Water - Viktor Schauberger and the Secrets of Natural Energy (1990).pdf,0,2000-01-01 01:00:00,2016-04-03 02:51:08,223000/5c3cfcc3b3bd3cfb11b12a4a6f11c612-d.jpg,,
21516072,Сборник шахматных задач на построение,,,,Александров,1950,,Учпедгиз,,177,0,Russian,113,torrents.ru tech collections 2009-11-14,,,,,,,,,,,,,0,,,,,,,1,2881509,djvu,0D94DEBF1FA080A020FB5354D1AA1D44,,,D:\\!Genesis\\!!ForLG\\1735447-Личный сборник книг по математке\\Геометрия\\alexandrov.djvu,0,2000-01-01 01:00:00,2016-04-03 02:51:08,223000/0d94debf1fa080a020fb5354d1aa1d44.jpg,,
21516073,L'arte di ben mannigiare La Spada,,,,alfieri,,,,,228,0,English,295,torrents.ru tech collections 2009-11-14,,,,,,,,,,,,,0,,,,,,,1,22810376,pdf,C705A241E83F32E190DDB425EDA969F8,,,D:\\!Genesis\\!!ForLG\\1528206-Подборка старых книг по фехтованию\\alfieri.pdf,0,2000-01-01 01:00:00,2016-04-03 02:51:08,223000/c705a241e83f32e190ddb425eda969f8.jpg,,
21516074,Der Mensch,,,,Alfred Witte,,,Witte-Verlag,,0,0,German,,torrents.ru tech collections 2009-11-14,0,,,,,,,,,,,,0,,,,,,,,6368438,rar,7EE9BCE6276F2BD34600B92FABFDD641,,,D:/!Genesis/!!ForLG/862325-Библиотека Ихтика Теоретическое Естествознание (489 книг)/Alfred Witte - DER MENSCH.rar,0,2000-01-01 01:00:00,2016-04-03 02:51:08,,,
21516075,Cold Steel a Practikal treatise of the sabre,,,,Alfred Hutton,1889,,,,189,0,English,295,torrents.ru tech collections 2009-11-14,,,,,,,,,,,,,0,,,,,,,1,11728027,pdf,94374D9DEFB37E9A6858FB9D6A916F6B,,,D:\\!Genesis\\!!ForLG\\1528206-Подборка старых книг по фехтованию\\AlfredHutton_ColdSteel.pdf,0,2000-01-01 01:00:00,2016-04-03 02:51:08,223000/94374d9defb37e9a6858fb9d6a916f6b.jpg,,
21516076,Your Basement Fallout Shelter,,Blueprint fo Survival 1,,Unstated,1960,,Alger Press,,31,0,English,102,torrents.ru tech collections 2009-11-14,,,,B000GU0OK0,,,,,,,,,0,,,,,,,0,1135858,pdf,E93F24F0629AF157B1393751235CDE07,,,D:\\!Genesis\\!!ForLG\\-=  UNSORTED BOOKS  =-\\EBOOK COLLECTION (PART11) [CSI][h33t]\\Alger Press - Your Basement Fallout Shelter.pdf,0,2000-01-01 01:00:00,2016-04-03 02:51:08,223000/e93f24f0629af157b1393751235cde07.jpg,,
21516077,"Excavations at the Perhistoric Mound of Chogna Bonut, Khuzestan, IRan",,The Oriental Institute of the University of Chicago,,Abbas Alizadeh,2003,,The Oriental Institute of the University of Chicago,,232,0,English,64,torrents.ru tech collections 2009-11-14,,"1885923236,9781885923233",,,,,,,,,OL8705023M,,0,,,,,1,,0,6952006,pdf,4147B587012E1FD208C7A4F7AB134027,,,"D:\\!Genesis\\!!ForLG\\-=  UNSORTED BOOKS  =-\\Archaeology\\Alizadeh - Excavations at the Perhistoric Mound of Chogna Bonut, Khuzestan, IRan.pdf",0,2000-01-01 01:00:00,2016-04-03 02:51:08,223000/4147b587012e1fd208c7a4f7ab134027.jpg,,
21516078,"Excavations at Tall-e Bakun a: Seasons of 1932 And 1937, the Origins of State Organizations University of Chicago Oriental Institute Publications) ... Institute of the University of Chicago",,,,Abbas Ailzadeh,2006,,The Oriental Institute of the University of Chicago,,356,0,English,64,torrents.ru tech collections 2009-11-14,,"1885923368,9781885923363",,,,,,,,,OL19680100M,,0,,,,,1,,0,8513399,pdf,0F9C66C719DAFE460052312B8CDFF1B8,,,"D:\\!Genesis\\!!ForLG\\-=  UNSORTED BOOKS  =-\\Archaeology\\Alizadeh - The Origins of State Organizations in Prehistoric Highland Fars, Southern Iran.pdf",0,2000-01-01 01:00:00,2016-04-03 02:51:08,223000/0f9c66c719dafe460052312b8cdff1b8-d.jpg,,
21516079,All About Women - The Encyclopedia of Seduction,,,,Giuseppe Notte. ,2005,,,,73,0,English,188,torrents.ru tech collections 2009-11-14,,,,,,,,,,,,,0,,,,,,,0,1270302,pdf,2D6D0ABC205A3B9DDDDFF0F4D2E4E927,,,D:\\!Genesis\\!!ForLG\\!!!3\\Encyclopedia\\All About Women - The Encyclopedia of Seduction.pdf,0,2000-01-01 01:00:00,2016-04-03 02:51:08,223000/2d6d0abc205a3b9ddddff0f4d2e4e927.jpg,,
21516080,All of Statistics - A Concise Course in Statistical Inference,,,,Larry Wasserman,2004,,Springer,,736,0,English,131,torrents.ru tech collections 2009-11-14,,,,,,,,,,,,,0,,,,,,1,1,9139957,pdf,B9E6052395BA047BD154EA45130026FC,,,"D:\\!Genesis\\!!ForLG\\!!!3\\All of Statistics - A Concise Course in Statistical Inference_Larry Wasserman (Springer 2004 errata, Rcode, 736s).pdf",0,2000-01-01 01:00:00,2016-04-03 02:51:08,223000/b9e6052395ba047bd154ea45130026fc.jpg,,
21516081,A True History of Witchcraft,,,,Allen Greenfield,2010,,LittleWhiteEbook.com,,25,0,English,64,torrents.ru tech collections 2009-11-14,,,,B003F76DDS,,,,,,,,,0,,,,,,,1,66067,pdf,5742FF8293286479E3D36AFE6EBD198D,,,D:\\!Genesis\\!!ForLG\\-=  UNSORTED BOOKS  =-\\EBOOK COLLECTION (PART11) [CSI][h33t]\\Allen Greenfield - A True History of Witchcraft.pdf,0,2000-01-01 01:00:00,2016-04-03 02:51:08,223000/5742ff8293286479e3d36afe6ebd198d.jpg,,
21516082,concept of traits and personality,,,,Gordon W. Allport,1927,,,,11,0,English,198,torrents.ru tech collections 2009-11-14,,,,,,,,,,,,,0,,,,,,,1,37374,pdf,90C091457E5BE2046CC7584437593113,,,D:\\!Genesis\\!!ForLG\\-=  UNSORTED BOOKS  =-\\Non-Fiction\\Psychology\\Psychology 1\\allport - concept of traits and personality.pdf,0,2000-01-01 01:00:00,2016-04-03 02:51:08,223000/90c091457e5be2046cc7584437593113.jpg,,
21516083,The Complete Idiot's Guide to American History,,Lifestyle Paperback,,Alan Axelrod,2005,,"Commercial Press, Ltd.",,259,0,English,183,torrents.ru tech collections 2009-11-14,,"9789570520064,957052006X",,,,,,,,,OL23067573M,,0,,,,,,1,1,1064380,pdf,51606BEB933E80F5A574CA1A4979EB7D,,,D:\\!Genesis\\!!ForLG\\-=  UNSORTED BOOKS  =-\\Non-Fiction\\History\\history\\Alpha Books - The Complete Idiots Guide to American History - Alan Axelrod(2000).pdf,0,2000-01-01 01:00:00,2016-04-03 02:51:08,223000/51606beb933e80f5a574ca1a4979eb7d-d.jpg,,
21516084,"4000 Jahre Algebra - Geschichte, Kulturen, Menschen",,,,"Alten, Naini",,,,,667,0,German,114,torrents.ru tech collections 2009-11-14,,,,,,,,,,,,,0,,,,,,,1,36514053,pdf,BDA0989F63D94E05E36DAF9028BE7AB5,,,"D:\\!Genesis\\!!ForLG\\2042608-[немецкий] 130 Mathematikbuecher  130 учебников по математике!\\Alten, Naini - 4000 Jahre Algebra - Geschichte, Kulturen, Menschen.pdf",0,2000-01-01 01:00:00,2016-04-03 02:51:08,223000/bda0989f63d94e05e36daf9028be7ab5.jpg,,
21516085,Altered Egos How the Brain Creates the Self,,,,Todd E. Feinberg,2001,1st,"Oxford University Press, USA",,205,0,English,,torrents.ru tech collections 2009-11-14,,"9780195136258,019513625X,0195152425,9780195152425",,,,,,,,,OL7389206M,,0,,,,0,1,,1,2424348,chm,3CEFA329ED9D1C1C1E555E3584175B67,,,D:\\!Genesis\\!!ForLG\\-=  UNSORTED BOOKS  =-\\Altered Egos How the Brain Creates the Self 019513625X.CHM,0,2000-01-01 01:00:00,2016-04-03 02:51:08,223000/3cefa329ed9d1c1c1e555e3584175b67-d.jpg,,
21516086,For Marx ,,,,"Louis Althusser, Ben Brewster",1985,,Verso,,242,0,English,,torrents.ru tech collections 2009-11-14,,"9780902308794,0902308793",,,,,193,,,,OL21319223M,,0,,,,,1,,1,1117889,pdf,9F192A5529EE2CB668CEB413E25E0989,,,D:\\!Genesis\\!!ForLG\\-=  UNSORTED BOOKS  =-\\Althusser - For Marx.pdf,0,2000-01-01 01:00:00,2016-04-03 02:51:08,223000/9f192a5529ee2cb668ceb413e25e0989.jpg,,
21516087,Web Copy That Sells,,,,Maria Veloso,2004,1st,AMACOM,,240,0,English,100,torrents.ru tech collections 2009-11-14,,"9780814472491,0814472494",,,,,,,,,OL8043312M,,0,,,,,,,0,3383864,pdf,336F66F7B56CF6F40F0FF311248A2DF9,,,D:\\!Genesis\\!!ForLG\\!!!3\\AMACOM.Web.Copy.That.Sells.eBook-TLFeBOOK.pdf,0,2000-01-01 01:00:00,2016-04-03 02:51:08,223000/336f66f7b56cf6f40f0ff311248a2df9-d.jpg,,
21516088,Your Successful Project Management Career,,,,Cagle R,,,AMACOM.,,224,0,English,7,torrents.ru tech collections 2009-11-14,,,,,,,,,,,,,0,,,,,,,0,2444540,pdf,A854744185919EC81133EF2BE1BAA8EF,,,D:\\!Genesis\\!!ForLG\\!!!3\\AMACOM.Your.Successful.Project.Management.Career.eBook-TLFeBOOK.pdf,0,2000-01-01 01:00:00,2016-04-03 02:51:08,223000/a854744185919ec81133ef2be1baa8ef.jpg,,
21516089,Imagining the End,,,,"Abbas Amanat, Magnus Bernhardsson",2002,,I. B. Tauris,,434,0,English,195,torrents.ru tech collections 2009-11-14,,"9781860647246,1860647243",,,,,,,,,OL17034799M,,0,,,,,,,1,4501400,pdf,1FFFACD3A0C08B895092F90A4B164BD4,,,"D:\\!Genesis\\!!ForLG\\-=  UNSORTED BOOKS  =-\\Academic books\\Theology, philosophy and the history of ideas\\Amanat - Bernhradsson (ed) - Imagining the End.pdf",0,2000-01-01 01:00:00,2016-04-03 02:51:08,223000/1fffacd3a0c08b895092f90a4b164bd4-d.jpg,,
21516090,Amateur telescope makingю,Book free,,,Ingalis ,1953,,Scientific american,,327,0,English,264,torrents.ru tech collections 2009-11-14,,,,,,,,,,,,,0,,,,,,,0,54406799,pdf,65030A3345B8B92E1BFED919A10B629E,,,D:\\!Genesis\\!!ForLG\\2010988-\\Amateur telescope makingю Book free.pdf,0,2000-01-01 01:00:00,2016-04-03 02:51:08,223000/65030a3345b8b92e1bfed919a10b629e.jpg,,
21516091,Amazing Plastic Still Clever Method of Making Spirit,,,,,2002,,,,16,0,English,302,torrents.ru tech collections 2009-11-14,,,,,,,,,,,,,0,,,,,,,1,676715,pdf,5BEE847CA76694E9E4CDDE5DE73011E2,,,D:\\!Genesis\\!!ForLG\\!Drugs\\Amazing Plastic Still Clever Method of Making Spirit.pdf,0,2000-01-01 01:00:00,2016-04-03 02:51:08,223000/5bee847ca76694e9e4cdde5de73011e2.jpg,,
21516092,America - Descending Into Darkness,,,,Brian Harring ,,,TBR,,367,0,English,64,torrents.ru tech collections 2009-11-14,,2003093001,,,,,,,,,,,0,,,,,,,1,2296943,pdf,40A9F226DAC4DA1153A786864CFA48B0,,,D:\\!Genesis\\!!ForLG\\-=  UNSORTED BOOKS  =-\\EBOOK COLLECTION (PART8) [CSI][h33t]\\America - Descending Into Darkness.pdf,0,2000-01-01 01:00:00,2016-04-03 02:51:08,223000/40a9f226dac4da1153a786864cfa48b0.jpg,,
21516093,American Chess-Nuts,,,,"W R. Henry, Charles Alexander Gilberg",1868,,Nabu Press,,217,0,English,64,torrents.ru tech collections 2009-11-14,,"9781146952446,1146952449",,,,,,,,,,,0,,,,,,,1,380862,pdf,ACC307951BE3DC5D102C62EE0FFC91F4,,,"D:\\!Genesis\\!!ForLG\\873138-Шахматы Большая Подборка шахматной литературы\\PROBLEMS\\American Chess-Nuts [Cook, Henry and Gilberg, 1868].pdf",0,2000-01-01 01:00:00,2016-04-03 02:51:08,223000/acc307951be3dc5d102c62ee0ffc91f4-d.jpg,,
21516094,Israeli Spy Operations On U.S Soil,,,,,2005,,American Free Press ,,12,0,English,225,torrents.ru tech collections 2009-11-14,,,,,,,,,,,,,0,,,,,,,1,679695,pdf,157633B7EF8BCAB846F774C1FFEBCB93,,,"D:\\!Genesis\\!!ForLG\\-=  UNSORTED BOOKS  =-\\EBOOK COLLECTION (PART2) [CSI][h33t]\\American Free Press - Israeli Spy Operations On U.S Soil (January 10, 2005).pdf",0,2000-01-01 01:00:00,2016-04-03 02:51:08,223000/157633b7ef8bcab846f774c1ffebcb93.jpg,,
21516095,American Practical Navigator - Bowditch,,,,Nathaniel Bowditch,2010,,Paradise Cay Publications,,896,0,English,65,torrents.ru tech collections 2009-11-14,,"9780939837540,0939837544",,,,,,,,,OL8419584M,,0,,,,,,,,22576560,rar,72627C55BA5AB1CD67FED465087C3EBC,,,D:\\!Genesis\\!!ForLG\\2157878-Boat Builders E-Book Collection v2.0\\American Practical Navigator - Bowditch.rar,0,2000-01-01 01:00:00,2016-04-03 02:51:08,223000/72627c55ba5ab1cd67fed465087c3ebc-d.jpg,,
21516096,An Abridged History of the United States,,,,WILLIAM  M. BRINTON ,,,,,255,0,English,64,torrents.ru tech collections 2009-11-14,,,,,,,,,,,,,0,,,,,,,1,1062900,pdf,0E19D1DED883155A59B764575FBCC027,,,D:\\!Genesis\\!!ForLG\\-=  UNSORTED BOOKS  =-\\Non-Fiction\\History\\history\\An Abridged History of the United States.pdf,0,2000-01-01 01:00:00,2016-04-03 02:51:08,223000/0e19d1ded883155a59b764575fbcc027.jpg,,
21516097,An Introduction to Game Theory,,,,Martin J. Osborne,2003,,"Oxford University Press, USA",,685,0,English,141,torrents.ru tech collections 2009-11-14,0,"0195128958,9780195128956,0195128958",,,,,519.3,QA269 .O78 2004,,,OL22494642M,,0,,,,,,,1,6582307,pdf,136871436344DAF0B16D60FCEA1F3D37,,,D:\\!Genesis\\!!ForLG\\!!!3\\An Introduction To Game Theory(M Osborne 2000)(685s).pdf,0,2000-01-01 01:00:00,2016-04-03 02:51:08,223000/136871436344daf0b16d60fcea1f3d37-d.jpg,,
21516098,An Introduction to Partial Differential Equations,,Texts in Applied Mathematics,,"Michael Renardy, Robert C. Rogers",2010,2nd ed.,Springer,,449,0,English,113,torrents.ru tech collections 2009-11-14,,"9781441918208,1441918205",,,,,,,,,,,0,,,,,,1,1,8192404,pdf,E6D4891C24F3B99A66F8A4D8A2091EA9,,,"D:\\!Genesis\\!!ForLG\\!!!3\\An Introduction to Partial Differential Equations 2ed_Michael Renardy, Robert C. Rogers (Springer TAM 13 2004 449s).pdf",0,2000-01-01 01:00:00,2016-04-03 02:51:08,223000/e6d4891c24f3b99a66f8a4d8a2091ea9-d.jpg,,
21516099,An Opening Repertoire for Black,,,,Drazen Marovic & Bruno Parma,1987,,B T Batsford Ltd,,78,0,English,46,torrents.ru tech collections 2009-11-14,,"0713456469,9780713456462",,,,,794.1/22,GV1450,,,OL21668439M,,0,,,,,,1,0,7919335,pdf,6789FF7E40C990DAD1956D2C95A6C98C,,,D:\\!Genesis\\!!ForLG\\873138-Шахматы Большая Подборка шахматной литературы\\OPENINGS\\An Opening Repertoire for Black [Drazen Marovic & Bruno Parma 1978].pdf,0,2000-01-01 01:00:00,2016-04-03 02:51:08,223000/6789ff7e40c990dad1956d2c95a6c98c.jpg,,
21516100,An Opening Repertoire for the Attacking Player,,Batsford Chess Library,,Raymond Keene,1995,First Edition,Henry Holt & Co (P),,85,0,English,46,torrents.ru tech collections 2009-11-14,,"9780805035827,0805035826",,,,,794.1/22,GV1450 .L45 1994,,,OL1130411M,,0,,,,,,,0,58544560,pdf,5237A84D8D39A96A783D39A4F1EBCF19,,,"D:\\!Genesis\\!!ForLG\\873138-Шахматы Большая Подборка шахматной литературы\\OPENINGS\\An Opening Repertoire for the Attacking Player [Keene & Levy, 1977].pdf",0,2000-01-01 01:00:00,2016-04-03 02:51:08,223000/5237a84d8d39a96a783d39a4f1ebcf19.jpg,,
21516101,Anatoly Karpov on the Net,,,,I M Irina Krush ,,,www.smartchess.com,,371,0,English,46,torrents.ru tech collections 2009-11-14,,,,,,,,,,,,,0,,,,,,1,1,2204381,pdf,81FF930FE8C56D39232535282CD91A4E,,,D:\\!Genesis\\!!ForLG\\873138-Шахматы Большая Подборка шахматной литературы\\GENERAL\\Anatoly Karpov on the Net [www.smartchess.com].pdf,0,2000-01-01 01:00:00,2016-04-03 02:51:08,223000/81ff930fe8c56d39232535282cd91a4e.jpg,,
21516102,Anatomy of the rat,,transactions of american philosophical society,,,1968,,Hafner Publishing,,,0,English,147,torrents.ru tech collections 2009-11-14,,,,,,,,,,,,,0,,,,,,,,4570414,rar,75FFE211358E2E0CFE49E4AB75E0B771,,,D:\\!Genesis\\!!ForLG\\211673-Несколько книг для студентов-медиков\\Anatomy of the rat.rar,0,2000-01-01 01:00:00,2016-04-03 02:51:08,,,
21516103,Атлас анатомии человека для художников,,,,Кузнецов,2002,,Феникс,,166,0,Russian,59,torrents.ru tech collections 2009-11-14,,,,,,,,,,,,,0,,,,,,,0,26529927,djvu,FFBF8BB149C4549ADB12E302A02D4662,,,D:\\!Genesis\\!!ForLG\\1596222-Атласы Анатомии\\anatomy_kuznetsov.djvu,0,2000-01-01 01:00:00,2016-04-03 02:51:08,223000/ffbf8bb149c4549adb12e302a02d4662.jpg,,
21516104,Ancient And Modern Ships. Wooden Sailing Ships,Part 1,,,,1906,,,,196,0,English,64,torrents.ru tech collections 2009-11-14,,,,,,,,,,,,,0,,,,,,,1,18899264,pdf,78E134E6842443931943E439233CD48F,,,D:\\!Genesis\\!!ForLG\\!!!3\\Ancient And Modern Ships Part 1 Wooden Sailing Ships 1906.pdf,0,2000-01-01 01:00:00,2016-04-03 02:51:08,223000/78e134e6842443931943e439233cd48f.jpg,,
21516105,Ancient Civilizations RL. Almanac,Vol. 2,,,Knight J,,,Thomson-Gale,,205,0,English,64,torrents.ru tech collections 2009-11-14,,,,,,,,,,,,no image,0,,,,,,,1,3426963,pdf,EE439EA8DA10189EB92E6E8F7C8E060D,,,D:\\!Genesis\\!!ForLG\\!!!3\\gale ecyclopedies\\History\\Ancient Civilizations\\Ancient Civilizations RL. Vol. 2. Almanac.pdf,0,2000-01-01 01:00:00,2016-04-03 02:51:08,223000/ee439ea8da10189eb92e6e8f7c8e060d.jpg,,
21516106,Ancient Civilizations RL. Cumulative Index,Vol. 4,,,Knight J,,,Thomson-Gale,,27,0,English,64,torrents.ru tech collections 2009-11-14,,,,,,,,,,,,no image,0,,,,,,,1,247465,pdf,DAF02078819FFD3B410FCB3D263D9256,,,D:\\!Genesis\\!!ForLG\\!!!3\\gale ecyclopedies\\History\\Ancient Civilizations\\Ancient Civilizations RL. Vol. 4. Cumulative Index.pdf,0,2000-01-01 01:00:00,2016-04-03 02:51:08,223000/daf02078819ffd3b410fcb3d263d9256.jpg,,
21516107,Ancient language greek WWG greek grammar,,,,William W. Goodwin,,,,,488,0,English,64,torrents.ru tech collections 2009-11-14,,,,,,,,,,,,,0,,,,,,,1,17332953,pdf,9C991E0A24C0EA2EBD404C4678C785C7,,,D:\\!Genesis\\!!ForLG\\-=  UNSORTED BOOKS  =-\\Ancient.language.greek.WWG.greek.grammar.pdf,0,2000-01-01 01:00:00,2016-04-03 02:51:08,223000/9c991e0a24c0ea2ebd404c4678c785c7.jpg,,
21516108,Качественная теория динамических систем второго порядка,,,,"Андронов, Леонтович, Гордон",1966,,Наука,,568,0,Russian,123,torrents.ru tech collections 2009-11-14,,,,,,,,,,,,,0,,,,,,,0,8763781,djvu,D7C56BD0EB3386B66120E5F3AB0AA5DA,,,D:\\!Genesis\\!!ForLG\\2244180-\\Physics & Mathematics\\mathmatics\\обыкновенные дифференциальные уравнения\\andronov.djv,0,2000-01-01 01:00:00,2016-04-03 02:51:08,223000/d7c56bd0eb3386b66120e5f3ab0aa5da.jpg,,
21516109,Angelo broadsword,,,,,,,,,24,0,English,295,torrents.ru tech collections 2009-11-14,,,,,,,,,,,,,0,,,,,,,1,27337728,pdf,C24CCA615C1B68E82F557503303F64BB,,,D:\\!Genesis\\!!ForLG\\1528206-Подборка старых книг по фехтованию\\angelo broadsword.pdf,0,2000-01-01 01:00:00,2016-04-03 02:51:08,223000/c24cca615c1b68e82f557503303f64bb.jpg,,
21516110,Аналитическая геометрия,,,,Троицкий Е,,,,,118,0,Russian,121,torrents.ru tech collections 2009-11-14,,,,,,,,,,,,,0,,,,,,,1,819385,pdf,A19B98D4384475E7519721C9A415AE9D,,,D:\\!Genesis\\!!ForLG\\2244180-\\Physics & Mathematics\\mathmatics\\аналитическая геометрия и векторная алгебра\\angeom.pdf,0,2000-01-01 01:00:00,2016-04-03 02:51:08,223000/a19b98d4384475e7519721c9a415ae9d.jpg,,
21516111,"Animal Legends and Creation. Legends from Australia (Aboriginal), Iceland and canada",,,,,,,,,10,0,English,181,torrents.ru tech collections 2009-11-14,,,,,,,,,,,,,0,,,,,,,1,81714,pdf,5FB0C674423DED6F389F75B6C5AF2857,,,D:\\!Genesis\\!!ForLG\\-=  UNSORTED BOOKS  =-\\Non-Fiction\\Mythology\\Animal Legends and Creation.pdf,0,2000-01-01 01:00:00,2016-04-03 02:51:08,223000/5fb0c674423ded6f389f75b6c5af2857.jpg,,
21516112,Journal of abnormal psychology,,,,,,,,,344,0,English,,torrents.ru tech collections 2009-11-14,,,,,,,,,,,,,0,,,,,,,1,987247,pdf,0BDCCBE557164A12B1D436A079541CB4,,,D:\\!Genesis\\!!ForLG\\-=  UNSORTED BOOKS  =-\\Non-Fiction\\Psychology\\anon - journal of abnormal psychology.pdf,0,2000-01-01 01:00:00,2016-04-03 02:51:08,223000/0bdccbe557164a12b1d436a079541cb4.jpg,,
21516113,The JPEG Lossless Standards,,,,"Rashid Ansari, Nasir Memon",1999,,,,24,0,English,181,torrents.ru tech collections 2009-11-14,,,,,,,,,,,,,0,,,,,,,1,217461,pdf,22BA334B7E86D8B2742020D72DBC5C82,,,D:\\!Genesis\\!!ForLG\\1991178Цифровые водяные знаки\\article\\!Watermark2\\Ansari Memon - The JPEG Lossless Standards.PDF,0,2000-01-01 01:00:00,2016-04-03 02:51:08,223000/22ba334b7e86d8b2742020d72dbc5c82.jpg,,
21516114,,,,ANSYS Solutions 2005 1 1,,2005,,,,44,0,Russian,,torrents.ru tech collections 2009-11-14,0,,,,,,,,,,,periodic,0,,,,,1,,1,2163506,pdf,B04EC8E4DE49BF40617EF8DBE370ABCD,,ban,D:/!Genesis/!!ForLG/1598542-Коллекция книг по авиационным двигателям/САУД/ANSYS_Solutions_2005_1_1.pdf,0,2000-01-01 01:00:00,2016-04-03 02:51:08,223000/b04ec8e4de49bf40617ef8dbe370abcd.jpg,,
21516115,,,,ANSYS Solutions 2005 1 2,,2005,,,,52,0,English,,torrents.ru tech collections 2009-11-14,0,,,,,,,,,,,periodic,0,,,,,1,,1,3771817,pdf,BC3A888CC4425AAA74D3C5BB475BD617,,ban,D:/!Genesis/!!ForLG/1598542-Коллекция книг по авиационным двигателям/САУД/ANSYS_Solutions_2005_1_2.pdf,0,2000-01-01 01:00:00,2016-04-03 02:51:08,223000/bc3a888cc4425aaa74d3c5bb475bd617.jpg,,
21516116,Get The Edge - Personal Journal (includes Personal Power Classic Journal),,Also Includes Personal Power Classic Journal,,Anthony Robbins,2001,,"Robbins Research International, Inc.",,95,0,English,,torrents.ru tech collections 2009-11-14,,,,B002FWOFH0,,,,,,,,,0,,,,,,,0,37854780,pdf,6932F0094C8E2E349B02798EE906E438,,,D:\\!Genesis\\!!ForLG\\!!!3\\Anthony Robbins - Get The Edge - Personal Journal (includes Personal Power Classic Journal).pdf,0,2000-01-01 01:00:00,2016-04-03 02:51:08,223000/6932f0094c8e2e349b02798ee906e438.jpg,,
21516117,antioxidants in human health,,,,Parke D,,,,,,0,English,147,torrents.ru tech collections 2009-11-14,,,,,,,,,,,,,0,,,,,,,,1910984,rar,835E81BF0B80DAE5534467D2D35F1FD9,,,D:\\!Genesis\\!!ForLG\\-=  UNSORTED BOOKS  =-\\Non-Fiction\\Medical\\antioxidants in human health.rar,0,2000-01-01 01:00:00,2016-04-03 02:51:08,223000/835E81BF0B80DAE5534467D2D35F1FD9-g.jpg,,
21516118,Antiviral Effects of Ibogaine and Hepatitis,,,,Lotsof,,,,,,0,English,,torrents.ru tech collections 2009-11-14,,,,,,,,,,,,,0,,,,,,,,1294848,ppt,075DEA85B17CEB71F5F2047C9C32CFD5,,no,D:\\!Genesis\\!!ForLG\\!Drugs\\Antiviral Effects of Ibogaine and Hepatitis - Lotsof.ppt,0,2000-01-01 01:00:00,2016-04-03 02:51:08,,,
21516119,The Satanic Bible,,,,Anton Szandor Lavey,1969,,Avon,,100,0,English,,torrents.ru tech collections 2009-11-14,,"0380015390,9780380015399",,,,,,,,,OL17546374M,,0,,,,,1,,1,350730,pdf,B58606247D15E62DD3763194601C9C57,,,D:\\!Genesis\\!!ForLG\\-=  UNSORTED BOOKS  =-\\EBOOK COLLECTION (PART14) [CSI][h33t]\\Antoine LaVey - The Satanic Bible.pdf,0,2000-01-01 01:00:00,2016-04-03 02:51:08,223000/b58606247d15e62dd3763194601c9c57-d.jpg,,
21516120,The Best Enemy Money Can Buy,,,,Antony C. Sutton,1986,,Liberty House Pr,,158,0,English,102,torrents.ru tech collections 2009-11-14,,"0937765015,9780937765012",,B001DOP854,,,355.8/2/0947,UF535.S65 S87 1986,,,OL2724834M,,0,,,,,,,1,642438,pdf,83ACBD543332D2509B6FAD1C10CB837D,,,D:\\!Genesis\\!!ForLG\\-=  UNSORTED BOOKS  =-\\EBOOK COLLECTION (ADDITIONAL) [CSI][h33t]\\Antony Sutton\\Antony Sutton - The Best Enemy Money Can Buy.pdf,0,2000-01-01 01:00:00,2016-04-03 02:51:08,223000/83acbd543332d2509b6fad1c10cb837d-d.jpg,,
21516121,Wall Street & The Bolshevik Revolution,,,,Antony Cyril Sutton,1981,,Veritas Publications,,83,0,English,102,torrents.ru tech collections 2009-11-14,,"0959463127,089968324X,9780959463125,9780899683249",,,,,,,,,OL8276878M,,0,,,,,,,1,369023,pdf,023EF2F8EE94D283818F7C2367850E37,,,D:\\!Genesis\\!!ForLG\\-=  UNSORTED BOOKS  =-\\EBOOK COLLECTION (ADDITIONAL) [CSI][h33t]\\Antony Sutton\\Antony Sutton - Wall Street & The Bolshevik Revolution.pdf,0,2000-01-01 01:00:00,2016-04-03 02:51:08,223000/023ef2f8ee94d283818f7c2367850e37-d.jpg,,
21516122,Wall Street and FDR,,,,Antony C. Sutton,1993,,Lightyear Press,,177,0,English,102,torrents.ru tech collections 2009-11-14,,"9780899683256,0899683258",,,,,,,,,OL9887524M,,0,,,,,,,1,467609,pdf,7841C9C5BC26BB18321D515602C4C3A4,,,D:\\!Genesis\\!!ForLG\\-=  UNSORTED BOOKS  =-\\EBOOK COLLECTION (ADDITIONAL) [CSI][h33t]\\Antony Sutton\\Antony Sutton - Wall Street and FDR (1975).pdf,0,2000-01-01 01:00:00,2016-04-03 02:51:08,223000/7841c9c5bc26bb18321d515602c4c3a4-d.jpg,,
21516123,Wall Street and The Rise of Hitler,,Wall Street And...Trilogy,,Antony C. Sutton,1999,,Buccaneer Books,,148,0,English,102,torrents.ru tech collections 2009-11-14,,"9781568497266,1568497261",,,,,,,,,OL8689649M,,0,,,,,,,1,635275,pdf,6BC0A5D60248097D533CEC2BBAC38E97,,,D:\\!Genesis\\!!ForLG\\-=  UNSORTED BOOKS  =-\\EBOOK COLLECTION (ADDITIONAL) [CSI][h33t]\\Antony Sutton\\Antony Sutton - Wall Street and The Rise of Hitler.pdf,0,2000-01-01 01:00:00,2016-04-03 02:51:08,223000/6bc0a5d60248097d533cec2bbac38e97-d.jpg,,
21516124,Оздоровительная апифитопродукция,,,,Куликова Л,,,,,65,0,Russian,163,torrents.ru tech collections 2009-11-14,,,,,,,,,,,,,0,,,,,,,1,1575916,djvu,8B06A12E3B2D48ED924838F3A74FD8BE,,,"D:\\!Genesis\\!!ForLG\\1785412-Книги про мед, 2\\api_zdorovie.djvu",0,2000-01-01 01:00:00,2016-04-03 02:51:08,223000/8b06a12e3b2d48ed924838f3a74fd8be.jpg,,
21516125,apostles and agitators Italy's marxist revolutionary tradition,,,,Richard Drake,2003,,Harvard University Press,,286,0,English,,torrents.ru tech collections 2009-11-14,,"9780674010369,0674010361",,,,,,,,,OL7670873M,,0,,,,,,,0,1057109,pdf,58155F871A1B38F374B93D7E24004E10,,,D:\\!Genesis\\!!ForLG\\-=  UNSORTED BOOKS  =-\\apostles and agitators Italys marxist revolutionary tradition.pdf,0,2000-01-01 01:00:00,2016-04-03 02:51:08,223000/58155f871a1b38f374b93d7e24004e10-d.jpg,,
21516126,Appartment buildings T,,,,,,,,,,0,English,236,torrents.ru tech collections 2009-11-14,,,,,,,,,,,,,0,,,,,,,,152576885,rar,A386560E38D1CE31E852DC9C6A230635,,,D:\\!Genesis\\!!ForLG\\1474279-книги по архитектуре\\Appartment buildings T.rar,0,2000-01-01 01:00:00,2016-04-03 02:51:08,223000/A386560E38D1CE31E852DC9C6A230635-g.jpg,,
21516127,Thinking It Through: An Introduction to Contemporary Philosophy,,,,Kwame Anthony Appiah,2003,illustrated edition,"Oxford University Press, USA",,425,0,English,195,torrents.ru tech collections 2009-11-14,0,0195160282,,,,,,,,,OL7390520M,,0,,,,,,,1,5282682,pdf,55046FACB0EC91FB4C78AF841CD844E5,,,"D:/!Genesis/!!ForLG/-=  UNSORTED BOOKS  =-/Academic books/Theology, philosophy and the history of ideas/Appiah - Thinking It Through.pdf",0,2000-01-01 01:00:00,2016-04-03 02:51:08,223000/55046facb0ec91fb4c78af841cd844e5-d.jpg,,
21516128,Apple - Aperture Digital Photography Fundamentals,,,,,2005,,APPLE,,47,0,English,63,torrents.ru tech collections 2009-11-14,,,,,,,,,,,,,0,,,,,,1,1,3358305,pdf,A14B4474DA9BDB40234E43AB29F79F01,,,D:\\!Genesis\\!!ForLG\\!!!3\\Apple - Aperture Digital Photography Fundamentals - 2005.pdf,0,2000-01-01 01:00:00,2016-04-03 02:51:08,223000/a14b4474da9bdb40234e43ab29f79f01.jpg,,
21516129,Apple - Inside Cocoa- Object-Oriented Programming And The Objective-C Language,,,,editors,2000,,Apple Computor Inc./,,194,0,English,87,torrents.ru tech collections 2009-11-14,,,,B000OS8NCU,,,,,,,,,0,,,,,,1,1,1599258,pdf,9DB61AE58B0094A4E360ADADFCF70826,,,D:\\!Genesis\\!!ForLG\\!!!3\\Apple - Inside Cocoa- Object-Oriented Programming And The Objective-C Language (2000-12).pdf,0,2000-01-01 01:00:00,2016-04-03 02:51:08,223000/9db61ae58b0094a4e360adadfcf70826.jpg,,
21516130,Mac Osx Server - Administrator's Guide,,,,,2002,,APPLE,,622,0,English,101,torrents.ru tech collections 2009-11-14,,,,,,,,,,,,,0,,,,,,1,1,8209655,pdf,041739D12419EF7C4247AF73B939125F,,,D:\\!Genesis\\!!ForLG\\!!!3\\Apple - Mac Osx Server - Administrators Guide.pdf,0,2000-01-01 01:00:00,2016-04-03 02:51:08,223000/041739d12419ef7c4247af73b939125f.jpg,,
21516131,30 GB iPod with Video Playback Black Manual,,,,,,,APPLE,,70,0,Spanish,,torrents.ru tech collections 2009-11-14,,,,,,,,,,,,,0,,,,,,1,1,1142698,pdf,1BB92C73C5EF52F39662B1F24542870B,,,D:\\!Genesis\\!!ForLG\\!!!3\\Apple 30 GB iPod with Video Playback Black Manual (Espanhol).pdf,0,2000-01-01 01:00:00,2016-04-03 02:51:08,223000/1bb92c73c5ef52f39662b1f24542870b.jpg,,
21516132,30 GB iPod with Video Playback Black Manual,,,,,,,APPLE,,69,0,English,,torrents.ru tech collections 2009-11-14,,,,,,,,,,,,,0,,,,,,1,1,1282055,pdf,28FD7CC5F376C7242CC42811E15D774B,,,D:\\!Genesis\\!!ForLG\\!!!3\\Apple 30 GB iPod with Video Playback Black Manual.pdf,0,2000-01-01 01:00:00,2016-04-03 02:51:08,223000/28fd7cc5f376c7242cc42811e15d774b.jpg,,
21516133,Cider Vinegar Miracle Health System,,,,Bragg,2008,,Bragg Health Sciences,,137,0,English,,torrents.ru tech collections 2009-11-14,,0-87790-501-0,,B002BLAFYC,,,,,,,,,0,,,,,,1,1,4774219,pdf,5F11B85FEAFF4187265021F027567CA5,,,D:\\!Genesis\\!!ForLG\\!!!3\\Apple Cider Vinegar Miracle Health System - Paul Bragg.pdf,0,2000-01-01 01:00:00,2016-04-03 02:51:08,223000/5f11b85feaff4187265021f027567ca5.jpg,,
21516134,Apple Human Interface Guidelines,,,,Inc. Apple Computer,1987,,Addison-Wesley (C),,334,0,English,,torrents.ru tech collections 2009-11-14,,"9780201177534,0201177536",,,,,,,,,OL22993826M,,0,,,,,,,1,14002172,pdf,49DBE1CD9B7DA88630419B554734829C,,,"D:\\!Genesis\\!!ForLG\\!!!3\\Apple Human Interface Guidelines [eBook, English, Computers, Programming, Mac, OS X, Verified by Ghost] - Apple 2005-06-04.pdf",0,2000-01-01 01:00:00,2016-04-03 02:51:08,223000/49dbe1cd9b7da88630419b554734829c.jpg,,
21516135,Apple iBook G3 12 inch Service Manuals (Ibook Original),,,,,,,APPLE,,86,0,English,,torrents.ru tech collections 2009-11-14,,,,,,,,,,,,,0,,,,,,1,1,1073447,pdf,418E77EA1B6B3A701F413BBE6A640D37,,,D:\\!Genesis\\!!ForLG\\!!!3\\Apple iBook G3 12 inch Service Manuals (Ibook Original).pdf,0,2000-01-01 01:00:00,2016-04-03 02:51:08,223000/418e77ea1b6b3a701f413bbe6a640d37.jpg,,
21516136,iMac G3 2002MultilingualUserGuide,,,,,2002,,APPLE,,38,0,English,,torrents.ru tech collections 2009-11-14,,,,,,,,,,,,,0,,,,,,,1,8297952,pdf,1C851E021975021FEC362F854B1B7E1E,,,D:\\!Genesis\\!!ForLG\\!!!3\\Apple iMac G3_2002MultilingualUserGuide.PDF,0,2000-01-01 01:00:00,2016-04-03 02:51:08,223000/1c851e021975021fec362f854b1b7e1e.jpg,,
21516137,Imac g5 (20-Inch) Service Manual,,,,,,,APPLE,,172,0,English,,torrents.ru tech collections 2009-11-14,,,,,,,,,,,,,0,,,,,,1,1,23160551,pdf,069FE145CF61BDB610B3ABAD71425F18,,,D:\\!Genesis\\!!ForLG\\!!!3\\Apple Imac g5 (20-Inch) Service Manual.pdf,0,2000-01-01 01:00:00,2016-04-03 02:51:08,223000/069fe145cf61bdb610b3abad71425f18.jpg,,
21516138,Intel iMac hardware service manual,,,,,,,APPLE,,184,0,English,,torrents.ru tech collections 2009-11-14,,,,,,,,,,,,,0,,,,,,1,1,16173748,pdf,C87F8BDECEC5CD7A9E55897488F908A7,,,D:\\!Genesis\\!!ForLG\\!!!3\\Apple Intel iMac hardware service manual.pdf,0,2000-01-01 01:00:00,2016-04-03 02:51:08,223000/c87f8bdecec5cd7a9e55897488f908a7.jpg,,
21516139,Apple LaserWriter 10 600 A-3 Plus Service Source,,,,,,,APPLE,,351,0,English,264,torrents.ru tech collections 2009-11-14,,,,,,,,,,,,,0,,,,,,1,1,8551154,pdf,33860E5968B618F514572BE98411E91D,,,D:\\!Genesis\\!!ForLG\\!!!3\\Apple LaserWriter 10 600 A-3 Plus Service Source.pdf,0,2000-01-01 01:00:00,2016-04-03 02:51:08,223000/33860e5968b618f514572be98411e91d.jpg,,
21516140,Pie Slices,,,,G. Galstad,,,APPLE,,,0,English,49,torrents.ru tech collections 2009-11-14,,,,,,,,,,,,,0,,,,,,,,1695,rtf,6B0E6F431F9826E2F132DAA30E1A896F,,ban,D:\\!Genesis\\!!ForLG\\-=  UNSORTED BOOKS  =-\\Non-Fiction\\Food and Cooking\\Recipes\\COOK BOOKS\\Cook Books - Recipes\\Dessert\\Apple Pie Slices.rtf,0,2000-01-01 01:00:00,2016-04-03 02:51:08,,,
21516141,Technical Manual Macbook-Pro-17,,,,,,,APPLE,,176,0,English,,torrents.ru tech collections 2009-11-14,,,,,,,,,,,,,0,,,,,,1,1,29286170,pdf,5395D6859402B98AA36D0F024C67DA3C,,,D:\\!Genesis\\!!ForLG\\!!!3\\Apple Technical Manual Macbook-Pro-17.pdf,0,2000-01-01 01:00:00,2016-04-03 02:51:08,223000/5395d6859402b98aa36d0f024c67da3c.jpg,,
21516142,Service Manuals (August 2006),,,,,2006,,APPLE,,142,0,English,,torrents.ru tech collections 2009-11-14,,,,,,,,,,,,,0,,,,,,1,1,29751782,pdf,7ACF72023EEDA088EA73037AD33DFE61,,,D:\\!Genesis\\!!ForLG\\!!!3\\Apple.Service.Manuals.(August.2006).-.Mac.Pro.pdf,0,2000-01-01 01:00:00,2016-04-03 02:51:08,223000/7acf72023eeda088ea73037ad33dfe61.jpg,,
21516143,Component AV Cable,,,,,,,APPLE,,16,0,English,,torrents.ru tech collections 2009-11-14,,,,,,,,,,,,,0,,,,,,,1,1097653,pdf,3CAF3D2BD1CAC34054EB9774F1AB0F44,,,D:\\!Genesis\\!!ForLG\\!!!3\\Apple_Component_AV_Cable.pdf,0,2000-01-01 01:00:00,2016-04-03 02:51:08,223000/3caf3d2bd1cac34054eb9774f1ab0f44.jpg,,
21516144,Applied Finite Element Analysis,,,,Larry J. Segerlind,,,Wiley,,222,0,English,120,torrents.ru tech collections 2009-11-14,,,,,,,,,,,,,0,,,,,,,0,9768978,pdf,055ADA3C85ED9DFDA69D7A2BAB6934C0,,,"D:\\!Genesis\\!!ForLG\\2332009-[Математика, ENG] Метод конечных элементов (МКЭ)  Finite Eleme\\Applied Finite Element Analysis - Larry J. Segerlind.pdf",0,2000-01-01 01:00:00,2016-04-03 02:51:08,223000/055ada3c85ed9dfda69d7a2bab6934c0.jpg,,
21516145,"Applied Statistics Using Spss, Statistica, Matlab And R",,,,Joaquim P. Marques de Sá,2007,,Springer,,,0,English,131,torrents.ru tech collections 2009-11-14,,"9783540719717,3540719717",,,,,,,,,OL21896677M,,0,,,,,,,,5453312,doc,C0E4EF74DEEAC4063853968F38E6A414,,,"D:\\!Genesis\\!!ForLG\\!!!3\\Applied Statistics Using Spss, Statistica, Matlab And R, Springer (2007), 3540719717.doc",0,2000-01-01 01:00:00,2016-04-03 02:51:08,223000/c0e4ef74deeac4063853968f38e6a414-d.jpg,,
21516146,Applied Microsoft .NET Framework Programming,,Pro-Developer,,Jeffrey Richter,2002,,Microsoft Press,,500,0,English,87,torrents.ru tech collections 2009-11-14,0,735614229,,,,,,,,,,,0,,,,,,,1,4576932,pdf,6C0FCECEE994DA080F5631B5DC0E82AB,,,D:/!Genesis/!!ForLG/!!!3/Applied.Microsoft..NET.Framework.Programming.(Microsoft.Press.2002).pdf,0,2000-01-01 01:00:00,2016-04-03 02:51:08,223000/6c0fcecee994da080f5631b5dc0e82ab.jpg,,
21516147,Beginning Java Google App Engine,,,,"Kyle Roche, Jeff Douglas",2009,1st Edition.,Apress,,265,0,English,100,torrents.ru tech collections 2009-11-14,,"978-1-4302-2553-9,978-1-4302-2554-6",,B003U890SM,,,,,,,,,0,,,,,,1,1,2530346,pdf,83227DF85D67EAAE69EA7EBF87065E25,,,D:\\!Genesis\\!!ForLG\\!!!3\\Apress - Beginning Java Google App Engine (December 2009) (ATTiCA).pdf,0,2000-01-01 01:00:00,2016-04-03 02:51:08,223000/83227df85d67eaae69ea7ebf87065e25.jpg,,
21516148,Coders At Work,,At Work,,Peter Seibel,2009,,Apress,,634,0,English,,torrents.ru tech collections 2009-11-14,0,"978-1-4302-1948-4,978-1-4302-1949-1",,,,,,,,,,,0,,,,,1,,1,2119369,pdf,D48B517C401573AFC31C0114CA6C3EE4,,,D:/!Genesis/!!ForLG/!!!3/Apress - Coders At Work (2009) (Elements Attica).pdf,0,2000-01-01 01:00:00,2016-04-03 02:51:08,223000/d48b517c401573afc31c0114ca6c3ee4.jpg,,
21516149,Foundations of CentOS Linux,,,,"Chivas Sicam, Ryan Baclit",2009,1,Apress,,530,0,English,85,torrents.ru tech collections 2009-11-14,,"9781430219644,1430219645",,,,,,,,,,,0,,,,,,1,1,9907245,pdf,C63FB7770F3F8E7D657BE24B25C18D3F,,,D:\\!Genesis\\!!ForLG\\!!!3\\Apress - Foundations of CentOS Linux (November 2009) (ATTiCA).pdf,0,2000-01-01 01:00:00,2016-04-03 02:51:08,223000/c63fb7770f3f8e7d657be24b25c18d3f-d.jpg,,
21516150,Pro Silverlight 3 in VB,,,,Matthew MacDonald,2009,2nd ed.,Apress,,818,0,English,84,torrents.ru tech collections 2009-11-14,,"9781430224273,1430224274",,,,,,,,,OL24908922M,,0,,,,,,,1,11780713,pdf,E123CBC6FC9A9C4F14A77782C7237964,,,D:\\!Genesis\\!!ForLG\\!!!3\\Apress - Pro Silverlight 3 in VB (November 2009) (ATTiCA).pdf,0,2000-01-01 01:00:00,2016-04-03 02:51:08,223000/e123cbc6fc9a9c4f14a77782c7237964-d.jpg,,
21516151,Python 3 For Absolute Beginners,,,,Matthew MacDonald ,2009,,Apress ,,310,0,English,183,torrents.ru tech collections 2009-11-14,,"978-1-4302-1632-2,978-1-4302-1633-9",,,,,,,,,,,0,,,,,,1,1,1589396,pdf,00AE9A5742F0C28C4AD481FAD95F6C8F,,,D:\\!Genesis\\!!ForLG\\!!!3\\Apress - Python 3 For Absolute Beginners (October 2009) (Attica).pdf,0,2000-01-01 01:00:00,2016-04-03 02:51:08,223000/00ae9a5742f0c28c4ad481fad95f6c8f.jpg,,
21516152,Expert Dot NET Micro Framework,,Expert's Voice in .NET,,Jens KÃ¼hner,2009,2,Apress,,503,0,English,92,torrents.ru tech collections 2009-11-14,,"9781430223870,1430223871",,,,,,,,,OL24099761M,,0,,,,,,1,1,6164758,pdf,49AB4307CBE23FE54CF555CD45681145,,,D:\\!Genesis\\!!ForLG\\!!!3\\Apress Expert Dot NET Micro Framework 2nd Edition (09-2009) (ATTiCA).pdf,0,2000-01-01 01:00:00,2016-04-03 02:51:08,223000/49ab4307cbe23fe54cf555cd45681145-d.jpg,,
21516153,PHP for Absolute Beginners,,,,Jason Lengstorf,2009,,Apress ,,409,0,English,183,torrents.ru tech collections 2009-11-14,,"978-1-4302-2473-0,978-1-4302-2474-7",,,,,,,,,,,0,,,,,,1,1,4537416,pdf,D47D45C4DBC04C99868701C63DD88D39,,,D:\\!Genesis\\!!ForLG\\!!!3\\APress PHP for Absolute Beginners (09-2009) (ATTiCA).pdf,0,2000-01-01 01:00:00,2016-04-03 02:51:08,223000/d47d45c4dbc04c99868701c63dd88d39.jpg,,
21516154,TextPattern Solutions PHP-Based Content Management Made Easy,,,,"Kevin Potts, Robert Sable, and Nathan Smith ",,,Apress ,,538,0,English,6,torrents.ru tech collections 2009-11-14,,"978-1-59059-832-0,1-59059-832-6",,,,,,,,,,,0,,,,,,,1,12084881,pdf,ECA6EF7DD6D79F38168CDEC1302B1781,,,D:\\!Genesis\\!!ForLG\\!!!3\\APress TextPattern Solutions PHP-Based Content Management Made Easy.pdf,0,2000-01-01 01:00:00,2016-04-03 02:51:08,223000/eca6ef7dd6d79f38168cdec1302b1781.jpg,,
21516155,Php Solutions - Dynamic Web Design Made Easy,,,,David Powers,2006,1st ed. 2006. Corr. 3rd printing,friends of ED,,486,0,English,100,torrents.ru tech collections 2009-11-14,,"978-1-59059-731-6,1-59059-731-1",,B001UQYMNO,,,,,,,,,0,,,,,,,1,9344952,pdf,8E8B9A365F76D73F79C6EC7D1DFCC996,,,"D:\\!Genesis\\!!ForLG\\!!!3\\Apress, Php Solutions - Dynamic Web Design Made Easy (2006).pdf",0,2000-01-01 01:00:00,2016-04-03 02:51:08,223000/8e8b9a365f76d73f79c6ec7d1dfcc996.jpg,,
21516156,PHP Solutions Dynamic Web Design Made Easy,,,,David Powers,2006,,Apress ,,486,0,English,100,torrents.ru tech collections 2009-11-14,,"978-1-59059-731-6,1-59059-731-1",,,,,,,,,,,0,,,,,,,1,7887494,pdf,E3C25038E976375CC5704A44537FE65B,,,"D:\\!Genesis\\!!ForLG\\!!!3\\Apress, PHP Solutions Dynamic Web Design Made Easy (2006) BM OEF 8.0.pdf",0,2000-01-01 01:00:00,2016-04-03 02:51:08,223000/e3c25038e976375cc5704a44537fe65b.jpg,,
21516157,Beginning ASP NET E Commerce In C Sharp From Novice To Professional,,Expert's Voice in .NET,,"Cristian Darie, Karli Watson",2009,1,Apress,,716,0,English,183,torrents.ru tech collections 2009-11-14,,"9781430210740,1430210745",,,,,,,,,,,0,,,,,,,1,17418395,pdf,3DF4A6997F6A1A52E2D0558F71EB4307,,,D:\\!Genesis\\!!ForLG\\!!!3\\Apress.Beginning.ASP.NET.E.Commerce.In.C.Sharp.From.Novice.To.Professional.Mar.2009.eBook-ELOHiM.pdf,0,2000-01-01 01:00:00,2016-04-03 02:51:08,223000/3df4a6997f6a1a52e2d0558f71eb4307-d.jpg,,
21516158,Beginning GIMP From Novice To Professional,,,,Akkana Peck,2006,1,Apress,,572,0,English,183,torrents.ru tech collections 2009-11-14,,"978-1-4302-1070-2,978-1-4302-1069-6",,B001CUM348,,,,,,,,,0,,,,,,1,1,30336453,pdf,BEA6417CFFB86317C6B263E5D5CC2F09,,,D:\\!Genesis\\!!ForLG\\!!!3\\Apress.Beginning.GIMP.From.Novice.To.Professional.2nd.Edition.Jan.2009.eBook-ELOHiM.pdf,0,2000-01-01 01:00:00,2016-04-03 02:51:08,223000/bea6417cffb86317c6b263e5d5cc2f09.jpg,,
21516159,Beginning Visual Web Developer 2005 Express From Novice to Professional,,,,"Rick Delorme, Paul Sarknas",2005,,Apress ,,353,0,English,183,torrents.ru tech collections 2009-11-14,,1-59059-482-7,,,,,,,,,,,0,,,,,,,1,15507305,pdf,C15830AAA88A0CEF736D9DB41967C224,,,D:\\!Genesis\\!!ForLG\\!!!3\\Apress.Beginning.Visual.Web.Developer.2005.Express.From.Novice.to.Professional.Dec.2005.pdf,0,2000-01-01 01:00:00,2016-04-03 02:51:08,223000/c15830aaa88a0cef736d9db41967c224.jpg,,
21516160,Practical Common Lisp,,,,Peter Seibel ,2005,,Apress ,,,0,English,92,Kolxo3,,,,,,,,,,,,,0,,,,,,,,2198847,chm,248E7798D603B814BA85A730F61772B3,,,"Cs_Computer science/CsPl_Programming languages/Lisp/Seibel P. Practical Common Lisp (Apress, 2005)(ISBN 1590592395).chm",0,2000-01-01 01:00:00,2016-04-03 02:51:08,223000/248E7798D603B814BA85A730F61772B3-g.jpg,,
21516161,Pro Mapping In BizTalk Server 2009,,,,Jim Dawson and John Wainwright,2009,,Apress ,,469,0,English,101,torrents.ru tech collections 2009-11-14,,"978-1-4302-1857-9,978-1-4302-1858-6",,,,,,,,,,,0,,,,,,,1,9830139,pdf,92567630CA7CD638F0C0CCAD10F996B3,,,D:\\!Genesis\\!!ForLG\\!!!3\\Apress.Pro.Mapping.In.BizTalk.Server.2009.Mar.2009.eBook-ELOHiM.pdf,0,2000-01-01 01:00:00,2016-04-03 02:51:08,223000/92567630ca7cd638f0c0ccad10f996b3.jpg,,
21516162,"A Fishkeeper's Guide to Aquarium Plants: A Superbly Illustrated Guide to Growing Healthy Aquarium Plants, Featuring over 60 Species",,,,Barry James,1991,,Voyageur Press (MN),,59,0,English,29,torrents.ru tech collections 2009-11-14,,1564651738,,,,,,,,,OL8661199M,,0,,,,,,,0,19920225,pdf,50DA75E5E56B64415DDE9CF08B0C3875,,,D:\\!Genesis\\!!ForLG\\-=  UNSORTED BOOKS  =-\\Aquarium Plants - Barry James - Tetra Press.pdf,0,2000-01-01 01:00:00,2016-04-03 02:51:08,223000/50da75e5e56b64415dde9cf08b0c3875-d.jpg,,
21516163,archives of suicide research,,"ArchivesofSuicideResearch 5: 81–89,1999.",,,1995,,Kluwer Academic,,10,0,English,198,torrents.ru tech collections 2009-11-14,,,,B0000EHSJC,,,,,,,,,0,,,,,,,1,56842,pdf,ED9AD353080BF86613632E9A581EE90F,,,D:\\!Genesis\\!!ForLG\\-=  UNSORTED BOOKS  =-\\Non-Fiction\\Psychology\\Psychology 1\\archives of suicide research.pdf,0,2000-01-01 01:00:00,2016-04-03 02:51:08,223000/ed9ad353080bf86613632e9a581ee90f.jpg,,
21516164,"Argumentation, Study of Effective Reasoning. Guild 2",,,,Zarefsky,,,Teaching Company,,31,0,English,,torrents.ru tech collections 2009-11-14,,,,,,,,,,,,,0,,,,,,,0,10426686,pdf,0BD8EF5D9C0E27B29CCD3FFF3DC0B411,,,"D:\\!Genesis\\!!ForLG\\-=  UNSORTED BOOKS  =-\\Argumentation, Study of Effective Reasoning (Zarefsky) Teaching Company (TTC) Guildebook 2.pdf",0,2000-01-01 01:00:00,2016-04-03 02:51:08,223000/0bd8ef5d9c0e27b29ccd3fff3dc0b411.jpg,,
21516165,Геометрические построения на плоскости,,,,Б. И. АРГУНОВ и М. Б. БАЛК ,1957,,,,269,0,Russian,121,torrents.ru tech collections 2009-11-14,,,,,,,,,,,,,0,,,,,,,1,1027304,djvu,795607FFFAE2E3AA43EDD81C178834AC,,,D:\\!Genesis\\!!ForLG\\2244180-\\Physics & Mathematics\\mathmatics\\элементарная математика\\ArgunovBalk1957ru.djvu,0,2000-01-01 01:00:00,2016-04-03 02:51:08,223000/795607fffae2e3aa43edd81c178834ac.jpg,,
21516166,Western attitudes toward death,,,,Philippe Ariés,1972,,Marion Boyars,,62,0,English,195,torrents.ru tech collections 2009-11-14,,"9780714525518,0714525510",,,,,,,,,OL7799098M,,0,,,,,,,0,26532588,pdf,EA4056DB29EFDC4FF4370C5CF54B4600,,,"D:\\!Genesis\\!!ForLG\\-=  UNSORTED BOOKS  =-\\Academic books\\Theology, philosophy and the history of ideas\\Aries - Western attitudes toward death.pdf",0,2000-01-01 01:00:00,2016-04-03 02:51:08,223000/ea4056db29efdc4ff4370c5cf54b4600-d.jpg,,
21516167,Categories,,,,Aristotle,2004,,EbooksLib,,24,0,English,195,torrents.ru tech collections 2009-11-14,,,,B000FC2JMU,,,,,,,,,0,,,,,,,0,68784,pdf,9CA845A2F6C1EEEA5C5E9E482BAE9121,,,D:\\!Genesis\\!!ForLG\\-=  UNSORTED BOOKS  =-\\EBOOK COLLECTION (ADDITIONAL) [CSI][h33t]\\Aristotle\\Aristotle - Categories.pdf,0,2000-01-01 01:00:00,2016-04-03 02:51:08,223000/9ca845a2f6c1eeea5c5e9e482bae9121.jpg,,
21516168,"Handbuch Kundenmanagement: Anforderungen, Prozesse, Zufriedenheit, Bindung und Wert von Kunden",,,,"Armin Töpfer (auth.), Prof. Dr. Armin Töpfer (eds.)",2008,3,Springer-Verlag Berlin Heidelberg,Berlin ; Heidelberg,1013,0,German,,usenet,to 2012-06,"9783540220626,3540220623,9783540499244,3540499245",,,,,,,10.1007/978-3-540-49924-4,,,,0,,,,,,,1,17632310,pdf,23d64087425c91a7de45d2a79721aeb5,,,I:\\usenet_ger\\Handbuch.Kundenmanagement.[Springer].[2008].[u1wt55].pdf,0,2000-01-01 01:00:00,2016-04-03 02:51:08,883000/23d64087425c91a7de45d2a79721aeb5-d.jpg,,
21516169,History Of Animals,,,,Aristotle,,,,,207,0,English,64,torrents.ru tech collections 2009-11-14,,,,,,,,,,,,,0,,,,,,,0,574762,pdf,B7420F7BD0D1E8364B0E22EC6ADF895A,,,D:\\!Genesis\\!!ForLG\\-=  UNSORTED BOOKS  =-\\EBOOK COLLECTION (ADDITIONAL) [CSI][h33t]\\Aristotle\\Aristotle - History Of Animals.pdf,0,2000-01-01 01:00:00,2016-04-03 02:51:08,223000/b7420f7bd0d1e8364b0e22ec6adf895a.jpg,,
21516170,Nicomachean Ethics,,Philosophical Library Series,,"Aristotle, Joe Sachs",2002,,Focus Publishing/R. Pullins Company,,174,0,English,195,torrents.ru tech collections 2009-11-14,,"9781585100354,1585100358",,,,,,,,,OL18769358M,,0,,,,,,,1,389264,pdf,5C981B915AAA6EB0BFC8D8D5D024D068,,,D:\\!Genesis\\!!ForLG\\-=  UNSORTED BOOKS  =-\\EBOOK COLLECTION (ADDITIONAL) [CSI][h33t]\\Aristotle\\Aristotle - Nicomachean Ethics.Pdf,0,2000-01-01 01:00:00,2016-04-03 02:51:08,223000/5c981b915aaa6eb0bfc8d8d5d024d068-d.jpg,,
21516171,On Interpretation,,,,Aristotle,,,,,15,0,English,195,torrents.ru tech collections 2009-11-14,,,,,,,,,,,,,0,,,,,,,0,44913,pdf,36651BA9EC77CF60B3DCA5AD7DF3350E,,,D:\\!Genesis\\!!ForLG\\-=  UNSORTED BOOKS  =-\\EBOOK COLLECTION (ADDITIONAL) [CSI][h33t]\\Aristotle\\Aristotle - On Interpretation.pdf,0,2000-01-01 01:00:00,2016-04-03 02:51:08,223000/36651ba9ec77cf60b3dca5ad7df3350e.jpg,,
21516172,On Sense And The Sensible,,,,Aristotle,2010,,"Kessinger Publishing, LLC",,22,0,English,195,torrents.ru tech collections 2009-11-14,,"9781161446081,1161446087",,,,,,,,,,,0,,,,,,,0,66751,pdf,CA58CC42D2C880FB367E8EA4E919FAAC,,,D:\\!Genesis\\!!ForLG\\-=  UNSORTED BOOKS  =-\\EBOOK COLLECTION (ADDITIONAL) [CSI][h33t]\\Aristotle\\Aristotle - On Sense And The Sensible.pdf,0,2000-01-01 01:00:00,2016-04-03 02:51:08,223000/ca58cc42d2c880fb367e8ea4e919faac-d.jpg,,
21516173,On Sophistical Refutations,,,,Aristotle,2010,,ReadaClassic.com,,36,0,English,195,torrents.ru tech collections 2009-11-14,,"9781611042382,1611042380",,,,,,,,,,,0,,,,,,,0,105418,pdf,D5A9397FC0F94051AA9B8396C50858BE,,,D:\\!Genesis\\!!ForLG\\-=  UNSORTED BOOKS  =-\\EBOOK COLLECTION (ADDITIONAL) [CSI][h33t]\\Aristotle\\Aristotle - On Sophistical Refutations.pdf,0,2000-01-01 01:00:00,2016-04-03 02:51:08,223000/d5a9397fc0f94051aa9b8396c50858be-d.jpg,,
21516174,On The Gait Of Animals,,,,Aristotle,2010,,"Kessinger Publishing, LLC",,13,0,English,23,torrents.ru tech collections 2009-11-14,,"9781161446173,1161446176",,,,,,,,,,,0,,,,,,,0,40079,pdf,D608B0DE094D90DD57616878A08F9FE4,,,D:\\!Genesis\\!!ForLG\\-=  UNSORTED BOOKS  =-\\EBOOK COLLECTION (ADDITIONAL) [CSI][h33t]\\Aristotle\\Aristotle - On The Gait Of Animals.pdf,0,2000-01-01 01:00:00,2016-04-03 02:51:08,223000/d608b0de094d90dd57616878a08f9fe4-d.jpg,,
21516175,On The Parts Of The Animals,,,,Aristotle,2009,,Cybraria LLC,,92,0,English,23,torrents.ru tech collections 2009-11-14,,,,B001V9K22A,,,,,,,,,0,,,,,,,0,265198,pdf,A80E823190D28FDF671D2AC050D2E88F,,,D:\\!Genesis\\!!ForLG\\-=  UNSORTED BOOKS  =-\\EBOOK COLLECTION (ADDITIONAL) [CSI][h33t]\\Aristotle\\Aristotle - On The Parts Of The Animals.pdf,0,2000-01-01 01:00:00,2016-04-03 02:51:08,223000/a80e823190d28fdf671d2ac050d2e88f.jpg,,
21516176,On The Soul,,,,Aristotle,,,,,46,0,English,195,torrents.ru tech collections 2009-11-14,,,,,,,,,,,,,0,,,,,,,0,137334,pdf,877B098965DDFB77E8A7A503B8A3687A,,,D:\\!Genesis\\!!ForLG\\-=  UNSORTED BOOKS  =-\\EBOOK COLLECTION (ADDITIONAL) [CSI][h33t]\\Aristotle\\Aristotle - On The Soul.pdf,0,2000-01-01 01:00:00,2016-04-03 02:51:08,223000/877b098965ddfb77e8a7a503b8a3687a.jpg,,
21516177,Poetics,,,,"Aristotle, S.H. Butcher",2008,,Cosimo Classics,,25,0,English,195,torrents.ru tech collections 2009-11-14,,"9781605203553,1605203556",,,,,,,,,,,0,,,,,,,0,73822,pdf,D777FBB0AAC65FFFAE25EF8D60E75B6B,,,D:\\!Genesis\\!!ForLG\\-=  UNSORTED BOOKS  =-\\EBOOK COLLECTION (ADDITIONAL) [CSI][h33t]\\Aristotle\\Aristotle - Poetics.pdf,0,2000-01-01 01:00:00,2016-04-03 02:51:08,223000/d777fbb0aac65fffae25ef8d60e75b6b-d.jpg,,
21516178,Prior Analytics and Posterior Analytics,,,,"Aristotle, A. J. Jenkinson, G. R. G. Mure",2006,,Digireads.com,,54,0,English,195,torrents.ru tech collections 2009-11-14,,1420927442,,,,,,,,,OL8490270M,,0,,,,,,,0,154302,pdf,A1992DDDCF6E8F5D4FBAE78D80022A00,,,D:\\!Genesis\\!!ForLG\\-=  UNSORTED BOOKS  =-\\EBOOK COLLECTION (ADDITIONAL) [CSI][h33t]\\Aristotle\\Aristotle - Posterior Analytics.pdf,0,2000-01-01 01:00:00,2016-04-03 02:51:08,223000/a1992dddcf6e8f5d4fbae78d80022a00-d.jpg,,
21516179,"Aristotle, Prior Analytics",,,,"Aristotle, Robin Smith",1989,,Hackett Publishing Company,,73,0,English,195,torrents.ru tech collections 2009-11-14,,0872200647,,,,,,,,,,,0,,,,,,,0,197067,pdf,FB25F804C990099B5A741A43BD9FC110,,,D:\\!Genesis\\!!ForLG\\-=  UNSORTED BOOKS  =-\\EBOOK COLLECTION (ADDITIONAL) [CSI][h33t]\\Aristotle\\Aristotle - Prior Analytics.pdf,0,2000-01-01 01:00:00,2016-04-03 02:51:08,223000/fb25f804c990099b5a741a43bd9fc110-d.jpg,,
21516180,The Athenian Constitution,,,,Aristotle,2009,,Public Domain Books,,73,0,English,195,torrents.ru tech collections 2009-11-14,,,,B002RKTFOI,,,,,,,,,0,,,,,,,1,131092,pdf,A49239F270CA6F4224C1A6A8A2211B0F,,,D:\\!Genesis\\!!ForLG\\-=  UNSORTED BOOKS  =-\\EBOOK COLLECTION (ADDITIONAL) [CSI][h33t]\\Aristotle\\Aristotle - The Athenian Constitution.Pdf,0,2000-01-01 01:00:00,2016-04-03 02:51:08,223000/a49239f270ca6f4224c1a6a8a2211b0f.jpg,,
21516181,"On Youth And Old Age, On Life And Death, On Breathing",,,,Aristotle,2009,,"Kessinger Publishing, LLC",,26,0,English,181,torrents.ru tech collections 2009-11-14,,141913891X,,,,,,,,,OL8471689M,,0,,,,,,,1,55405,pdf,AA29742438D0FB7BD7BC3560E5F0A0B8,,,D:\\!Genesis\\!!ForLG\\-=  UNSORTED BOOKS  =-\\EBOOK COLLECTION (ADDITIONAL) [CSI][h33t]\\Aristotle\\Aristotle - Youth And Old Age.Pdf,0,2000-01-01 01:00:00,2016-04-03 02:51:08,223000/aa29742438d0fb7bd7bc3560e5f0a0b8-d.jpg,,
21516182,,,,Архив патологии 1 2006,,,,Медицина,,65,0,Russian,,torrents.ru tech collections 2009-11-14,0,,,,,,,,,,,periodic,0,,,,,1,,1,2545246,pdf,640613C6253C661552098EA9166C5727,,ban,D:/!Genesis/!!ForLG/430227-Библиотека по ПАТОЛОГИЧЕСКОЙ АНАТОМИИ И ПАТОЛОГИЧЕСКОЙ ФИЗИОЛОГ/Пособия и лекции/arkhiv patologii_1_06.pdf,0,2000-01-01 01:00:00,2016-04-03 02:51:08,223000/640613c6253c661552098ea9166c5727.jpg,,
21516183,,,,Архив патологии 3 2005,,2005,,Медицина,,84,0,Russian,,torrents.ru tech collections 2009-11-14,0,,,,,,,,,,,periodic,0,,,,,1,,1,6262873,pdf,66D660C8E432B949176E492DD76CA148,,ban,D:/!Genesis/!!ForLG/430227-Библиотека по ПАТОЛОГИЧЕСКОЙ АНАТОМИИ И ПАТОЛОГИЧЕСКОЙ ФИЗИОЛОГ/Пособия и лекции/arkhiv patologii_3_2005.pdf,0,2000-01-01 01:00:00,2016-04-03 02:51:08,223000/66d660c8e432b949176e492dd76ca148.jpg,,
21516184,Armenian Language Competencies for Peace Corps Volunteers in Armenia,,,,Vartan Vartanian,1992,,Peace corps,,176,0,English,314,torrents.ru tech collections 2009-11-14,,,,B0006RKDHC,,,,,,,,,0,,,,,,,0,1871993,pdf,FEEF7C09F969EE24102B9A6A5F4EA45B,,,D:\\!Genesis\\!!ForLG\\Language Learning\\Armenian\\Armenian Language Competencies for Peace Corps Volunteers in Armenia.pdf,0,2000-01-01 01:00:00,2016-04-03 02:51:08,223000/feef7c09f969ee24102b9a6a5f4ea45b.jpg,,
21516185,Программа подготовки Лэнса Армстронга,,,,"Армстронг, Кармайкл",,,,,251,0,Russian,292,torrents.ru tech collections 2009-11-14,,,,,,,,,,,,,0,,,,,,,0,14551087,pdf,5EBB5AD354523CB4400EE7F4D28601A4,,,"D:\\!Genesis\\!!ForLG\\1622442-Книги по ремонту велосипедамаунтинбайка (Mountain Bike, MTB) -\\Armstrong.pdf",0,2000-01-01 01:00:00,2016-04-03 02:51:08,223000/5ebb5ad354523cb4400ee7f4d28601a4.jpg,,
21516186,Army manual of the bayonet,,,,,1913,,,,,0,English,67,torrents.ru tech collections 2009-11-14,,,,,,,,,,,,,0,,,,,,,,531362,rar,4E8C921229583292687E1C554F505017,,,D:\\!Genesis\\!!ForLG\\1528206-Подборка старых книг по фехтованию\\army manual of the bayonet 1913.rar,0,2000-01-01 01:00:00,2016-04-03 02:51:08,,,
21516187,Army Ops manual Alien Operations,,,,,1954,,,,25,0,English,67,torrents.ru tech collections 2009-11-14,,,,,,,,,,,,,0,,,,,,,0,5804343,pdf,392C66A54F4C6AC84116CA5AA78E9381,,,D:\\!Genesis\\!!ForLG\\-=  UNSORTED BOOKS  =-\\EBOOK COLLECTION (PART14) [CSI][h33t]\\Army Ops manual Alien Operations.pdf,0,2000-01-01 01:00:00,2016-04-03 02:51:08,223000/392c66a54f4c6ac84116ca5aa78e9381.jpg,,
21516188,Army Research Institute - Combat Leaders' Guide,,,,,1997,,ARMY RESEARCH INSTITUTE INFANTRY FORCES RESEARCH UNIT,,229,0,English,67,torrents.ru tech collections 2009-11-14,,,,,,,,,,,,,0,,,,,,,1,370492,pdf,6EDFA9FE1829CAF276520FC48C9B64BA,,,D:\\!Genesis\\!!ForLG\\-=  UNSORTED BOOKS  =-\\EBOOK COLLECTION (PART11) [CSI][h33t]\\Army Research Institute - Combat Leaders Guide.pdf,0,2000-01-01 01:00:00,2016-04-03 02:51:08,223000/6edfa9fe1829caf276520fc48c9b64ba.jpg,,
21516189,Гроссмейстер Нимцович,,Выдающиеся шахматисты мира,,Р. Кин,1986,,ФИС,,289,0,Russian,46,torrents.ru tech collections 2009-11-14,,,,,,,,,,,,,0,,,,,,,1,25103469,pdf,9CDD86E2FFD8FE1E056A383FD2F66097,,,"D:\\!Genesis\\!!ForLG\\873138-Шахматы Большая Подборка шахматной литературы\\FOREIGN\\RUSSIAN\\Aron Nimzowitsch - A Reappraisal [Raymond Keene, 1986 - Russian].pdf",0,2000-01-01 01:00:00,2016-04-03 02:51:08,223000/9cdd86e2ffd8fe1e056a383fd2f66097.jpg,,
21516190,Aron Nimzowitsch - A Reappraisal,,,,Raymond Keene,2003,Subsequent,Batsford,,178,0,English,46,torrents.ru tech collections 2009-11-14,,"9780713484380,0713484381",,,,,,,,,OL7796077M,,0,,,,,,1,0,11581994,pdf,7DFF8D1E18400B115B94DB912B1B5300,,,"D:\\!Genesis\\!!ForLG\\873138-Шахматы Большая Подборка шахматной литературы\\GENERAL\\Aron Nimzowitsch - A Reappraisal [Raymond Keene, 1986].pdf",0,2000-01-01 01:00:00,2016-04-03 02:51:08,223000/7dff8d1e18400b115b94db912b1b5300-d.jpg,,
21516191,Art Of Attack In Chess,,,,Vladimir Vukovic,1999,1st,Everyman Chess,,350,0,English,46,torrents.ru tech collections 2009-11-14,,"9781857444001,1857444000",,,,,,,,,OL22987450M,,0,,,,,,,0,15008228,pdf,FE71ECD1B3063EC1884076CFBF910D81,,,D:\\!Genesis\\!!ForLG\\873138-Шахматы Большая Подборка шахматной литературы\\GENERAL\\Art Of Attack In Chess [Vladimir Vukovic].pdf,0,2000-01-01 01:00:00,2016-04-03 02:51:08,223000/fe71ecd1b3063ec1884076cfbf910d81-d.jpg,,
21516192,Art of True Healing,,,,"Israel Regardie, Marc Allen",1997,,New World Library,,20,0,English,102,torrents.ru tech collections 2009-11-14,,"9781577310129,1577310128",,,,,615.8/52,RZ401 .R37 1997,,,OL1003346M,,0,,,,,,1,1,53542,pdf,7B5827130546BC31139C7E0113BE9BB0,,,D:\\!Genesis\\!!ForLG\\-=  UNSORTED BOOKS  =-\\EBOOK COLLECTION (PART11) [CSI][h33t]\\Art of True Healing.pdf,0,2000-01-01 01:00:00,2016-04-03 02:51:08,223000/7b5827130546bc31139c7e0113be9bb0-d.jpg,,
21516193,Art of Wheelbuilding,,,,Gerd Schraner,1999,,Buonpane Pubns,,103,0,English,292,torrents.ru tech collections 2009-11-14,,"9780964983533,0964983532",,,,,,,,,OL8528072M,,0,,,,,,,1,5879775,pdf,A94473DED74230E11872026D016A381B,,,"D:\\!Genesis\\!!ForLG\\1622442-Книги по ремонту велосипедамаунтинбайка (Mountain Bike, MTB) -\\Art of Wheelbuilding .pdf",0,2000-01-01 01:00:00,2016-04-03 02:51:08,223000/a94473ded74230e11872026d016a381b-d.jpg,,
21516194,Tracking Article Indication - by Dennis Helm - Dog Tracking; Tracking Dog; Dog Training; Schutzhund; Combat Tracking,,,,Dennis Helm,2008,,Panda's Place,,35,0,English,44,torrents.ru tech collections 2009-11-14,,0979745837,,,,,,,,,,,0,,,,,,,,303104,doc,14B43BA5D11D4F805A3668CB1FB771A5,,,D:\\!Genesis\\!!ForLG\\1444791-Tracking Подборка статей про обучение собаки следовой работе н\\Article Indication by Dennis Helms.doc,0,2000-01-01 01:00:00,2016-04-03 02:51:08,223000/14b43ba5d11d4f805a3668cb1fb771a5-d.jpg,,
21516195,Artificial Intelligence - Hardcore AI for Computer Games and Animation,,,,JohnDavidFunge,1998,,,,162,0,English,69,torrents.ru tech collections 2009-11-14,,,,,,,,,,,,,0,,,,,,,1,19537249,pdf,2D21E052E12E8B3B5F7E9A8B766E1551,,,"D:\\!Genesis\\!!ForLG\\1590249--Подборка книг по Искусственному Интеллекту(+всё, что с ним свя\\Artificial_Intelligence_-_Hardcore_AI_for_Computer_Games_and_Animation.pdf",0,2000-01-01 01:00:00,2016-04-03 02:51:08,223000/2d21e052e12e8b3b5f7e9a8b766e1551.jpg,,
21516196,Физика твердого тела,том 1,,,"Ашкрофт, Мермин",,,,,458,0,Russian,286,torrents.ru tech collections 2009-11-14,,,,,,,,,,,,,0,,,,,,,1,24529306,pdf,31637B61CA6DD62D7E5D0A6937D4DD0F,,,D:\\!Genesis\\!!ForLG\\1525583-[Физика] - Книги по всем разделам физии Часть 2\\Ashkroft1.pdf,0,2000-01-01 01:00:00,2016-04-03 02:51:08,223000/31637b61ca6dd62d7e5d0a6937d4dd0f.jpg,,
21516197,Физика твердого тела,том 2,,,"Ашкрофт, Мермин",,,,,486,0,Russian,286,torrents.ru tech collections 2009-11-14,,,,,,,,,,,,,0,,,,,,,1,26258646,pdf,3588B29C45FADE2CB636AA3C6EC74B53,,,D:\\!Genesis\\!!ForLG\\1525583-[Физика] - Книги по всем разделам физии Часть 2\\Ashkroft2.pdf,0,2000-01-01 01:00:00,2016-04-03 02:51:08,223000/3588b29c45fade2cb636aa3c6ec74b53.jpg,,
21516198,ASHRAE 2000 HVAC Systems and Equipment Handbook,,,,,2000,,Humana Press,,701,0,English,238,torrents.ru tech collections 2009-11-14,,"9781883413828,1883413826",,,,,,,,,,,0,,,,,,1,1,29533376,pdf,3963F7239D438884B768FAA992DC15B8,,,D:\\!Genesis\\!!ForLG\\!!!\\hvac\\ASHRAE HVAC Handbook\\ASHRAE 2000 HVAC Systems and Equipment Handbook.pdf,0,2000-01-01 01:00:00,2016-04-03 02:51:08,223000/3963f7239d438884b768faa992dc15b8.jpg,,
21516199,ASHRAE 2001 HVAC Fundamentals Handbook,,,,,2001,,,,892,0,English,238,torrents.ru tech collections 2009-11-14,,,,,,,,,,,,,0,,,,,,1,1,67658031,pdf,538FAB206C0F30C986BE2EFEDD9C9A95,,,D:\\!Genesis\\!!ForLG\\!!!\\hvac\\ASHRAE HVAC Handbook\\ASHRAE 2001 HVAC Fundamentals Handbook.pdf,0,2000-01-01 01:00:00,2016-04-03 02:51:08,223000/538fab206c0f30c986be2efedd9c9a95.jpg,,
21516200,Religia doar in limitele ratiunii,,,,Immanuel Kant,2007,,ALL,,361,0,Romanian,,,0,,,,,,,,,,,,0,,,,,,,,3087660,djvu,5499e690f19f3c789b32002e492611d0,d891c706edae84b5028e5e0406b5dc58,no,Immanuel Kant - Religia doar in limitele ratiunii.djvu,0,2000-01-01 01:00:00,2016-04-03 02:51:08,881000/5499e690f19f3c789b32002e492611d0-g.jpg,,
21516201,ASHRAE 2004 HVAC Handbook,,,,,2004,,,,,0,English,238,torrents.ru tech collections 2009-11-14,,,,,,,,,,,,,0,,,,,,,,266627424,iso,DDB865D8DFFF6CF25E6747EB89359E4E,,,D:\\!Genesis\\!!ForLG\\!!!\\hvac\\ASHRAE HVAC Handbook\\ASHRAE 2004 HVAC Handbook.iso,0,2000-01-01 01:00:00,2016-04-03 02:51:08,,,
21516202,Ashrae Standarts. Methods of testing to determine the termal performance Solar Collectors,,,,,1991,,,,45,0,English,238,torrents.ru tech collections 2009-11-14,,,,,,,,,,,,,0,,,,,,,0,3548993,pdf,076EB1B760EBE56E5EED92DB58982ED6,,,D:\\!Genesis\\!!ForLG\\hvac\\Ashrae And Solar Collectors.pdf,0,2000-01-01 01:00:00,2016-04-03 02:51:08,223000/076eb1b760ebe56e5eed92db58982ed6.jpg,,
21516203,ASHRAE Applications excerpt - Vibration Isolation,,,,,,,,,12,0,English,238,torrents.ru tech collections 2009-11-14,,,,,,,,,,,,,0,,,,,,,0,2037546,pdf,F7C40C12102C215B6D6C75C698E81D94,,,D:\\!Genesis\\!!ForLG\\hvac\\ASHRAE Applications excerpt - Vibration Isolation.pdf,0,2000-01-01 01:00:00,2016-04-03 02:51:08,223000/f7c40c12102c215b6d6c75c698e81d94.jpg,,
21516204,ASHRAE DE-93-12-3 -Energy Requirements and Potential Savings for Heated Indoor Swimming Pools,,,,,,,,,11,0,English,238,torrents.ru tech collections 2009-11-14,,,,,,,,,,,,,0,,,,,,,1,1238656,pdf,62298DDD7D9855FE987A5F698148DEB9,,,D:\\!Genesis\\!!ForLG\\hvac\\ASHRAE DE-93-12-3 -Energy_Requirements_and_Potential_Savings_for_Heated_Indoor_Swimming_Pools.pdf,0,2000-01-01 01:00:00,2016-04-03 02:51:08,223000/62298ddd7d9855fe987a5f698148deb9.jpg,,
21516205,ASHRAE Standard 62-1999 - Ventilation for Acceptable Indoor Air Quality,,"Ashrae Standards, No 62, 1999",,,1999,,Amer Society of Heating,,121,0,English,238,torrents.ru tech collections 2009-11-14,,"9789990777871,999077787X",,,,,,,,,OL13246299M,,0,,,,,,,1,1151757,pdf,DB70A90F27697489FBD51C531248D0EE,,,D:\\!Genesis\\!!ForLG\\hvac\\ASHRAE Standard 62-1999 - Ventilation for Acceptable Indoor Air Quality.pdf,0,2000-01-01 01:00:00,2016-04-03 02:51:08,224000/db70a90f27697489fbd51c531248d0ee.jpg,,
21516206,Critica ratiunii practice,,,,Immanuel Kant,1972,,Editura Ştiinţifică,,378,0,Romanian,,,0,,,,,,,,,,,,0,,,,,,,,19193024,pdf,d20531d1121d2cf6a51e4f8c89452c9c,,,Immanuel Kant - Critica ratiunii practice.pdf,0,2000-01-01 01:00:00,2016-04-03 02:51:08,881000/d20531d1121d2cf6a51e4f8c89452c9c-g.jpg,,
21516207,ASHRAE Standard 93-1986 (RA 91) Methods of Testing to Determine the Thermal Performance of Solar Collectors,,,,,1986,,,,45,0,English,238,torrents.ru tech collections 2009-11-14,,,,,,,,,,,,,0,,,,,,,1,3536222,pdf,51AA9ACE7C1C3494C61587FAC188C90D,,,D:\\!Genesis\\!!ForLG\\hvac\\ASHRAE Standard 93-1986 (RA 91) Methods of Testing to Determine the Thermal Performance of Solar Collectors.pdf,0,2000-01-01 01:00:00,2016-04-03 02:51:08,224000/51aa9ace7c1c3494c61587fac188c90d.jpg,,
21516208,ASHRAE 4146..Rates of Evaporation from Swimming Pools in Active Use,,,,,,,,,10,0,English,238,torrents.ru tech collections 2009-11-14,,,,,,,,,,,,,0,,,,,,1,1,1171647,pdf,527F70C95F7D7D860B1374575866BB30,,,D:\\!Genesis\\!!ForLG\\hvac\\ASHRAE_4146..Rates_of_Evaporation_from_Swimming_Pools_in_Active_Use.pdf,0,2000-01-01 01:00:00,2016-04-03 02:51:08,224000/527f70c95f7d7d860b1374575866bb30.jpg,,
21516209,ASHRAE Standard140 DOE22-eQUEST Results,,,,,,,,,37,0,English,238,torrents.ru tech collections 2009-11-14,,,,,,,,,,,,,0,,,,,,,1,337549,pdf,3C34BF8F5B5CE2936318903786201CCA,,,D:\\!Genesis\\!!ForLG\\!!!\\hvac\\ASHRAE_Standard140_DOE22-eQUEST_Results.pdf,0,2000-01-01 01:00:00,2016-04-03 02:51:08,224000/3c34bf8f5b5ce2936318903786201cca.jpg,,
21516210,Changing the Inertial Mass of a Charged Particle,,Journal of the Physical Society of Japan vol 62 no 5,,A.K.T. Assis.,1993,,,,,0,English,288,torrents.ru tech collections 2009-11-14,,,,,,,,,,,,,0,,,,,,,,126464,doc,4501865E0F4C8A3F77C4CEACC51D75A9,,,"D:\\!Genesis\\!!ForLG\\2138730-Классическая электродинамика\\mass\\Assis,1993,RusText.doc",0,2000-01-01 01:00:00,2016-04-03 02:51:08,,,
21516211,Astral Dreamscape Manipulation,,,,,2000,,,,21,0,English,102,torrents.ru tech collections 2009-11-14,,,,,,,,,,,,,0,,,,,,,1,114353,pdf,7119C6B51A8D642260CB800389D13CB1,,,D:\\!Genesis\\!!ForLG\\-=  UNSORTED BOOKS  =-\\EBOOK COLLECTION (PART11) [CSI][h33t]\\Astral Dreamscape Manipulation.pdf,0,2000-01-01 01:00:00,2016-04-03 02:51:08,224000/7119c6b51a8d642260cb800389d13cb1.jpg,,
21516212,Astronomy - Galaxies and the Expanding Universe,,,,,,,,,226,0,English,264,torrents.ru tech collections 2009-11-14,,,,,,,,,,,,,0,,,,,,1,1,7608273,pdf,42A7650D976FC3160AD3A1428916D4FD,,,D:\\!Genesis\\!!ForLG\\-=  UNSORTED BOOKS  =-\\Non-Fiction\\Science\\astronomy\\Astronomy - Galaxies and the Expanding Universe.pdf,0,2000-01-01 01:00:00,2016-04-03 02:51:08,224000/42a7650d976fc3160ad3a1428916d4fd.jpg,,
21516213,Astronomy - Sirius - Brightest Diamond in the Night Sky,,Springer Praxis Books / Popular Astronomy,,Jay B. Holberg,2007,1,Springer,,263,0,English,264,torrents.ru tech collections 2009-11-14,,"9780387489414,038748941X",,,,,,,,,OL7445921M,,0,,,,,,,1,17966648,pdf,DCCB6E42F73BECA99D25BA69865AC317,,,D:\\!Genesis\\!!ForLG\\!!!3\\Astronomy - Sirius - Brightest Diamond in the Night Sky - (Jay B. Holberg) Springer 2007.pdf,0,2000-01-01 01:00:00,2016-04-03 02:51:08,224000/dccb6e42f73beca99d25ba69865ac317-d.jpg,,
21516214,Asymmetric induction in organic photochemistry via the solid-state ionic chiral auxiliary approach,,,,"John R.Scheffer, Wujiong Xia",2005,,Springer,,30,0,English,300,torrents.ru tech collections 2009-11-14,,,,,,,,,10.1007/b101000,,,,0,,,,,,,1,485653,pdf,3401E70486BF146173426CD4DE6BA666,,,D:\\!Genesis\\!!ForLG\\2088735-Фотохимия\\Asymmetric induction in organic photochemistry via the solid-state ionic chiral auxiliary approach.pdf,0,2000-01-01 01:00:00,2016-04-03 02:51:08,224000/3401e70486bf146173426cd4de6ba666.jpg,,
21516215,Natural Language Watermarking and Tamperproofing,,,,"Atallah, Raskin, Hempelmann, Karahan, Sion, Topkara, Triezenberg",,,,,17,0,English,75,torrents.ru tech collections 2009-11-14,,,,,,,,,,,,,0,,,,,,1,1,240958,pdf,A2AB572B0BA0CE6FDF83AAF0AE22274F,,,D:\\!Genesis\\!!ForLG\\1991178Цифровые водяные знаки\\article\\!Watermark2\\Atallah Raskin Hempelmann Karahan Sion Topkara Triezenberg - Natural Language Watermarking and Tamperproofing.pdf,0,2000-01-01 01:00:00,2016-04-03 02:51:08,224000/a2ab572b0ba0ce6fdf83aaf0ae22274f.jpg,,
21516216,Watermarking non-media content,,,,"Atallah, Sion, Prabhakar",,,,,,0,English,75,torrents.ru tech collections 2009-11-14,,,,,,,,,,,,,0,,,,,,,,539072,rar,C151487B5B3682FA4319555A387AD600,,,D:\\!Genesis\\!!ForLG\\1991178Цифровые водяные знаки\\article\\!Watermark2\\Atallah Sion Prabhakar - Watermarking non-media content.rar,0,2000-01-01 01:00:00,2016-04-03 02:51:08,224000/C151487B5B3682FA4319555A387AD600-g.jpg,,
