21681217,Keys to Raising a Deaf Child ,,Parenting Keys,,"Virginia Frazier-Maiwald, Lenore M. Williams",1999,,Barron's Educational Series,,219,0,English,,,,"0764107232,9780764107238",,,,,649/.1512,HV2391 .F7 1999,,,OL387448M,,0,,,,,,,1,961527,pdf,4317BAD922C4EC6BDDCE306A97D77AFB,,,"4317bad922c4ec6bddce306a97d77afb~0764107232,9780764107238.pdf",0,2000-01-01 01:00:00,2016-04-03 02:51:08,388000/4317bad922c4ec6bddce306a97d77afb-d.jpg,,
21681218,Hollywood censurado ,,,,Gregory D. Black,1998,,Cambridge University Press,,384,0,English,,,,"8483230356,9788483230350",,,,,,,,,OL9144354M,,0,,,,,1,,1,26750397,pdf,4317F7A6BE2946126A31158A7C59DB3D,,,"4317f7a6be2946126a31158a7c59db3d~8483230356,9788483230350.pdf",0,2000-01-01 01:00:00,2016-04-03 02:51:08,388000/4317f7a6be2946126a31158a7c59db3d-d.jpg,,
21681219,"Assessment of Effects of Chemical Contaminants in Dredged Material on Marine: Ecosystems and Human Health,",volume 6,Deltares Select Series,,C.A. Schipper,2009,,IOS Press,,164,0,English,296,,,"160750085X,9781607500858",,,,,,,,,,,0,,,,,1,1,1,2161072,pdf,4318A1052A19FEAF596DD2B99D628BAB,,,"4318a1052a19feaf596dd2b99d628bab~160750085X,9781607500858.pdf",0,2000-01-01 01:00:00,2016-04-03 02:51:08,388000/4318a1052a19feaf596dd2b99d628bab-d.jpg,,
21681220,Transparency and Accountability in Science and Politics: The Awareness Principle,,,,Kjell Andersson,2008,,Palgrave Macmillan,,272,0,English,181,,,"0230542174,9780230542174,9780230227767",,,,,338.9/26,Q175.5 .A534 2008,,,OL16754291M,,0,,,,1,0,1,1,919094,pdf,4319F1EB28B484DE1A153E303297DCFA,,,"4319f1eb28b484de1a153e303297dcfa~0230542174,9780230542174,9780230227767.pdf",0,2000-01-01 01:00:00,2016-04-03 02:51:08,388000/4319f1eb28b484de1a153e303297dcfa-d.jpg,,
21681221,Chaos of Disciplines,,,,Andrew Abbott,2001,1,University Of Chicago Press,,248,0,English,275,,,"0226001008,9780226001005,0226001016,9780226001012",,,,,301/.01,HM585 .A23 2001,,,OL6791543M,,0,,,,,,1,1,11970858,pdf,4320A7B55CB70F129615F98EF1BADAC4,,,"4320a7b55cb70f129615f98ef1badac4~0226001008,9780226001005,0226001016,9780226001012.pdf",0,2000-01-01 01:00:00,2016-04-03 02:51:08,388000/4320a7b55cb70f129615f98ef1badac4-d.jpg,,
21681222,"Irma: A Chicago Woman's Story, 1871-1966",,,,Ellen Fitzsimmons Steinberg,2004,,University Of Iowa Press,,256,0,English,,,,"9780877458968,0877458960,0877458944,9780877458944",,,,,"977.3/11004924/0092,B",F548.9.J5 F73 2004,,,OL3691860M,,0,,,,,1,,1,942566,pdf,4320B8A8BBC4C529DE257E20911F5228,,,"4320b8a8bbc4c529de257e20911f5228~9780877458968,0877458960,0877458944,9780877458944.pdf",0,2000-01-01 01:00:00,2016-04-03 02:51:08,388000/4320b8a8bbc4c529de257e20911f5228-g.jpg,,
21681223,The Language and Logic of the Bible: The Road to Reformation,,,,G. R. Evans,1985,1,Cambridge University Press,,224,0,English,130,,,"9780521305488,9780521092937,9780511555237,0521305489,0521092930,0511555237",,,,,220/.09,BS480 .E83 1985,,,OL3024418M,,0,,,,,1,,1,1202743,djvu,4320EA99AF67A309A3CFC5302C0DD91E,,,"4320ea99af67a309a3cfc5302c0dd91e~9780521305488,9780521092937,9780511555237,0521305489,0521092930,0511555237.djvu",0,2000-01-01 01:00:00,2016-04-03 02:51:08,388000/4320ea99af67a309a3cfc5302c0dd91e-g.jpg,,
21681224,"The Key Elements of Classroom Management: Managing Time and Space, Student Behavior, and Instructional Strategies",,,,"Joyce McLeod, Jan Fisher, Ginny Hoover",2003,,Association for Supervision & Curriculum Deve,,195,0,English,7,,,"0871207877,9780871207876,9780871208668",,,,,,,,,OL8346965M,,0,,,,,1,1,1,1557660,pdf,4321C9C154650398C863829F9C5BCFA4,,,"4321c9c154650398c863829f9c5bcfa4~0871207877,9780871207876,9780871208668.pdf",0,2000-01-01 01:00:00,2016-04-03 02:51:08,388000/4321c9c154650398c863829f9c5bcfa4-d.jpg,,
21681225,Sport Policy and Governance: Local perspectives,,,,Neil King,2009,,Butterworth-Heinemann,,320,0,English,,,,"0750685476,9780750685474",,,,,796.09427/53,GV706.35 .K56 2009,,,OL22849619M,,0,,,,,1,,1,1216527,pdf,4321D7C2025AA343E526BFC847DEA964,,,"4321d7c2025aa343e526bfc847dea964~0750685476,9780750685474.pdf",0,2000-01-01 01:00:00,2016-04-03 02:51:08,388000/4321d7c2025aa343e526bfc847dea964-d.jpg,,
21681226,Hazardous Metals in the Environment,,Techniques and Instrumentation in Analytical Chemistry 12,,M. Stoeppler (Eds.),1992,,Elsevier Science,,"iii-x, 1-541",0,English,,,,"0444890785,9780444890788,9780080875606",0167-9244,,,,628.5/2,TD196.M4 H28 1992,,,OL1709730M,,0,,,,,1,,1,32784703,pdf,4322B7C8AA4BF43411453BF0BBB70150,,,"4322b7c8aa4bf43411453bf0bbb70150~0444890785,9780444890788,9780080875606.pdf",0,2000-01-01 01:00:00,2016-04-03 02:51:08,388000/4322b7c8aa4bf43411453bf0bbb70150-d.jpg,,
21681227,"Sustainable Site Design: Criteria, Process, and Case Studies for Integrating Site and Region in Landscape Design",,,,"Claudia Dinep, Kristin Schwab",2009,1,Wiley,,291,0,English,,,,"0470187832,9780470187838",,,,,712,SB472.45 .D45 2010,,,OL23223938M,,0,,,,,,,1,44097245,pdf,4322CB9E305EA01D117701A71CD44CB2,,,"4322cb9e305ea01d117701a71cd44cb2~0470187832,9780470187838.pdf",0,2000-01-01 01:00:00,2016-04-03 02:51:08,388000/4322cb9e305ea01d117701a71cd44cb2-d.jpg,,
21681228,Economic Rationalism in Canberra: A Nation-Building State Changes its Mind,,,,Michael Pusey,1989,,Cambridge University Press,,324,0,English,305,,,"0521336619,9780521336611",,,,,338.994,HC603 .P87 1991,,,OL2026964M,,0,,,,,,,1,9351428,pdf,4322F744B7C53BAE16F3282BA9E1FF62,,,"4322f744b7c53bae16f3282ba9e1ff62~0521336619,9780521336611.pdf",0,2000-01-01 01:00:00,2016-04-03 02:51:08,388000/4322f744b7c53bae16f3282ba9e1ff62-d.jpg,,
21681229,History As Propaganda: Tibetan Exiles versus the People's Republic of China,,,,John Powers,2004,,"Oxford University Press, USA",,224,0,English,64,,,"0195174267,9780195174267,9781423761839",,,,,,,,,OL22625154M,,0,,,,0,0,,1,1543034,pdf,4323F1B46F7EC97E8872FB6E7097B978,,,"4323f1b46f7ec97e8872fb6e7097b978~0195174267,9780195174267,9781423761839.pdf",0,2000-01-01 01:00:00,2016-04-03 02:51:08,388000/4323f1b46f7ec97e8872fb6e7097b978-d.jpg,,
21681230,Government Confronts Culture: The Struggle for Local Democracy in Southern Africa ,,States and Societies,,Bruce Fuller,1999,1,Routledge,,384,0,English,,,,"0815330804,9780815330806",,,,,,,,,OL8048001M,,0,,,,,1,1,1,2494044,pdf,4324D55DED61DE420E93994CD5C0963B,,,"4324d55ded61de420e93994cd5c0963b~0815330804,9780815330806.pdf",0,2000-01-01 01:00:00,2016-04-03 02:51:08,388000/4324d55ded61de420e93994cd5c0963b-d.jpg,,
21681231,The Future of Environmental Criticism: Environmental Crisis and Literary Imagination ,,Blackwell Manifestos,,Lawrence Buell,2005,Twenty-Sixth an,Wiley-Blackwell,,208,0,English,31,,,"140512475X,9781405124751,9781405151979",,,,,809/.933556,PS169.E25 B837 2005,,,OL3391829M,,0,,,,,,1,1,854431,pdf,4325DCF7F2930AD35207229E991F1865,,,"4325dcf7f2930ad35207229e991f1865~140512475X,9781405124751,9781405151979.pdf",0,2000-01-01 01:00:00,2016-04-03 02:51:08,388000/4325dcf7f2930ad35207229e991f1865-d.jpg,,
21681232,The Merchants of Death,,,,H.C. Englebrecht,2007,1ST,Ludwig von Mises Institute,,334,0,English,,,,,,B0012N43SO,,,,,,,,,0,,,,,1,,1,27028416,pdf,4327C6024A44E84F6A58463E94277D8E,,,4327c6024a44e84f6a58463e94277d8e~B0012N43SO.pdf,0,2000-01-01 01:00:00,2016-04-03 02:51:08,388000/4327c6024a44e84f6a58463e94277d8e-d.jpg,,
21681233,Traveling Light: A Novel ,,P.S.,,Katrina Kittle,2008,,Harper Perennial,,336,0,English,,,,"0061451371,9780061451379,9780061671036",,,,,813/.54,PS3561.I864 T73 2008,,,OL18008579M,,0,,,,,1,,1,794680,pdf,4327F702E9E52613A66FA418F8AF8C76,,,"4327f702e9e52613a66fa418f8af8c76~0061451371,9780061451379,9780061671036.pdf",0,2000-01-01 01:00:00,2016-04-03 02:51:08,388000/4327f702e9e52613a66fa418f8af8c76-d.jpg,,
21681234,Reforming Fiscal and Economic Management in Afghanistan ,,Directions in Development,,"Michael Carnahan, Nick Manning, Bontjer Richard",2004,,World Bank,,176,0,English,305,,,"0821357867,9780821357866,9781417526192",,,,,,,,,OL15469056M,,0,,,,,1,,1,912203,pdf,4327FE4752D62F3F396492ED8D13221E,,,"4327fe4752d62f3f396492ed8d13221e~0821357867,9780821357866,9781417526192.pdf",0,2000-01-01 01:00:00,2016-04-03 02:51:08,388000/4327fe4752d62f3f396492ed8d13221e-d.jpg,,
21681235,Regulating the Health Professions,,,,"Professor Judith Allsop, Professor Mike Saks",2003,1,Sage Publications Ltd,,166,0,English,,,,"0761967400,9780761967408,9781412931298",,,,,,,,,OL22520293M,,0,,,,,,,1,991462,pdf,4330B9160F6106FE5861E24BE410BB6A,,,"4330b9160f6106fe5861e24be410bb6a~0761967400,9780761967408,9781412931298.pdf",0,2000-01-01 01:00:00,2016-04-03 02:51:08,388000/4330b9160f6106fe5861e24be410bb6a-d.jpg,,
21681236,Theory And Practice In Old Testament Ethics ,,Journal for the Study of the Old Testament Supplement Series,,"J. W. Rogerson, M. Daniel Carroll R.",2004,,"T. & T. Clark Publishers, Ltd.",,166,0,English,,,,"9780826443977,9780826471659,082647165X",,,,,,,,,OL9700558M,,0,,,,0,1,,1,3375064,pdf,4330C8F6280DF60AC57B870AED2A31B6,,,"4330c8f6280df60ac57b870aed2a31b6~9780826443977,9780826471659,082647165X.pdf",0,2000-01-01 01:00:00,2016-04-03 02:51:08,388000/4330c8f6280df60ac57b870aed2a31b6-d.jpg,,
21681237,"Authentic New Orleans: Tourism, Culture, and Race in the Big Easy",,,,Kevin Gotham,2007,,NYU Press,,288,0,English,,,,"0814731864,9780814731864,0814731856,9780814731857,9780814732069",,,,,306.09763,HT325 .G68 2007,,,OL11354699M,,0,,,,,1,1,1,2157380,pdf,4330CD33AF2610198FBA3FF740A92A7F,,,"4330cd33af2610198fba3ff740a92a7f~0814731864,9780814731864,0814731856,9780814731857,9780814732069.pdf",0,2000-01-01 01:00:00,2016-04-03 02:51:08,388000/4330cd33af2610198fba3ff740a92a7f-d.jpg,,
21681238,"Presenting Analysis, Context & Criticism on Commonly Studied Short Stories",,"Short Stories for Students, Vol. 15",,Carol Ullmann,2002,,Gale,,304,0,English,117,,,"0787642673,9780787642679",,,,,,,,,OL8146173M,,0,,,,,,1,1,5656139,pdf,4332C2C22C0B32D63124A9797E160383,,,"4332c2c22c0b32d63124a9797e160383~0787642673,9780787642679.pdf",0,2000-01-01 01:00:00,2016-04-03 02:51:08,388000/4332c2c22c0b32d63124a9797e160383-d.jpg,,
21681239,Am Ufer DES Rio Piedra Saa Ich Und Weinte,,,,Paulo Coehlo,2000,,Imprint unknown,,240,0,German,,,,"3257231466,9783257231465",,,,,,,,,OL9021599M,,0,,,,,,1,1,779327,pdf,4332C512C62F63B54A74B3517CDE0C5A,,,"4332c512c62f63b54a74b3517cde0c5a~3257231466,9783257231465.pdf",0,2000-01-01 01:00:00,2016-04-03 02:51:08,388000/4332c512c62f63b54a74b3517cde0c5a-d.jpg,,
21681240,Gebrauchsanweisung für Spanien.,,,,Paul Ingendaay,2002,,Piper,,156,0,German,,,,"3492275184,9783492275187",,,,,,,,,OL12742149M,,0,,,,,,1,1,562422,pdf,4333F8B04B48B4E26AC3EDFDDA80F6EB,,,"4333f8b04b48b4e26ac3edfdda80f6eb~3492275184,9783492275187.pdf",0,2000-01-01 01:00:00,2016-04-03 02:51:08,388000/4333f8b04b48b4e26ac3edfdda80f6eb-d.jpg,,
21681241,The Good Fight Continues: World War II Letters From the Abraham Lincoln Brigade,,,,"Michael Nash, Melvin Small, Peter Carroll",2006,,NYU Press,,300,0,English,64,,,"0814716601,9780814716601,9781435600300",,,,,,,,,OL8044736M,,0,,,,,1,,1,1215753,pdf,4335D981035FB79C5D13059965AF30B2,,,"4335d981035fb79c5d13059965af30b2~0814716601,9780814716601,9781435600300.pdf",0,2000-01-01 01:00:00,2016-04-03 02:51:08,388000/4335d981035fb79c5d13059965af30b2-d.jpg,,
21681242,"Annual Review of Gerontology and Geriatrics, Vol. 7",,,,K. Warner Schaie,1987,1st,Springer,,352,0,English,,,0,"0826130860,9780826130860,9780826197580",,,,,,,,,,,0,,,,,1,,1,19295764,pdf,4335E46862364DAD0F7CB801A82EB62F,,,"4335e46862364dad0f7cb801a82eb62f~0826130860,9780826130860,9780826197580.pdf",0,2000-01-01 01:00:00,2016-04-03 02:51:08,388000/4335e46862364dad0f7cb801a82eb62f-d.jpg,,
21681243,Jesus according to Paul ,,Understanding Jesus Today,,Victor Paul Furnish,1994,,Cambridge University Press,,144,0,English,,,,"0521458242,9780521458245",,,,,232/.09/015,BT198 .F95 1993,,,OL1402268M,,0,,,,,,,1,3219509,pdf,4336BE75B06AC2A562B505AA5BC126E9,,,"4336be75b06ac2a562b505aa5bc126e9~0521458242,9780521458245.pdf",0,2000-01-01 01:00:00,2016-04-03 02:51:08,388000/4336be75b06ac2a562b505aa5bc126e9-d.jpg,,
21681244,Prisoners' Work and Vocational Training,,,,Frances H. Simon,1999,,Routledge,,288,0,English,,,,"9780415146777,0415146771,0415146763,9780415146760,9780203979358",,,,,365/.65/0941,HV8931.G7 S56 1999,,,OL373411M,,0,,,,,1,1,1,1816209,pdf,4337A2C821FDF7AE2C0A528D74CFA194,,,"4337a2c821fdf7ae2c0a528d74cfa194~9780415146777,0415146771,0415146763,9780415146760,9780203979358.pdf",0,2000-01-01 01:00:00,2016-04-03 02:51:08,388000/4337a2c821fdf7ae2c0a528d74cfa194-d.jpg,,
21681245,Ensign Flandry ,,"Saga of Dominic Flandry, Book 1",,"Poul Anderson, Michael Whelan",1979,,Ace Books,,141,0,English,,,,"9780441207244,0441207243,1596870303,9781596870307,0727803387,9780727803382",,B0007DTTQG,,,823/.9/1F,,,,OL21656449M,,0,,,,,1,,1,979998,pdf,4338D8620A0508E8B852D78835EE7568,,,"4338d8620a0508e8b852d78835ee7568~9780441207244,0441207243,1596870303,9781596870307,0727803387,9780727803382,B0007DTTQG.pdf",0,2000-01-01 01:00:00,2016-04-03 02:51:08,388000/4338d8620a0508e8b852d78835ee7568-d.jpg,,
21681246,"Current Topics in Developmental Biology, Vol. 33",,,,"Roger A. Pedersen, Gerald P. Schatten (Eds.)",1996,1st,Academic Press,,"ii-xii, 1-307",0,English,12,,0,"0121531333,9780121531331,9780080584560",0070-2153,,,,,,,,,,0,,,,,1,,1,18608615,pdf,4341B21F3975CB7639BC4D0D46426256,,,"4341b21f3975cb7639bc4d0d46426256~0121531333,9780121531331,9780080584560.pdf",0,2000-01-01 01:00:00,2016-04-03 02:51:08,388000/4341b21f3975cb7639bc4d0d46426256-d.jpg,,
21681247,Justice ,,Peter Decker & Rina Lazarus Novels,,Faye Kellerman,1996,,Avon,,480,0,English,,,,"0380724987,9780380724987,9780061477287",,,,,813.54,PS3561.E3864 J87 1996x,,,OL24261236M,,0,,,,,1,,1,971204,pdf,4342BD28EF77B2A6DDCE12E3EBDD1C0A,,,"4342bd28ef77b2a6ddce12e3ebdd1c0a~0380724987,9780380724987,9780061477287.pdf",0,2000-01-01 01:00:00,2016-04-03 02:51:08,388000/4342bd28ef77b2a6ddce12e3ebdd1c0a-d.jpg,,
21681248,Goodbye Judge Lynch: The End Of A Lawless Era In Wyoming's Big Horn Basin,,,,John W. Davis,2005,,University of Oklahoma Press,,266,0,English,313,,,"0806136707,9780806136707,9780806181035",,,,,,,,,OL7940080M,,0,,,,,1,1,1,11769694,pdf,4343E52B229178E285C6443707875C6C,,,"4343e52b229178e285c6443707875c6c~0806136707,9780806136707,9780806181035.pdf",0,2000-01-01 01:00:00,2016-04-03 02:51:08,388000/4343e52b229178e285c6443707875c6c-d.jpg,,
21681249,The Topology of 4-Manifolds ,,"Lecture Notes in Mathematics / Nankai Institute of Mathematics, Tianjin, P.R. China",,Robion C. Kirby,1989,,Springer,,114,0,English,113,,,"3540511482,9783540511489",,,,,,,,,,,0,,,,,,,0,4789137,pdf,4344E7341EF9AC892B99E385B38CAA95,,,"4344e7341ef9ac892b99e385b38caa95~3540511482,9783540511489.pdf",0,2000-01-01 01:00:00,2016-04-03 02:51:08,388000/4344e7341ef9ac892b99e385b38caa95-d.jpg,,
21681250,Down Syndrome: Neurobehavioural Specificity,,,,"Jean-Adolphe Rondal PhD, Juan Perera",2006,1,Wiley,,234,0,English,,,,"0470019484,9780470019481",,,,,,,,,OL17204587M,,0,,,,,,,1,2583861,pdf,4345D372F38FDCF887E81F720599FA48,,,"4345d372f38fdcf887e81f720599fa48~0470019484,9780470019481.pdf",0,2000-01-01 01:00:00,2016-04-03 02:51:08,388000/4345d372f38fdcf887e81f720599fa48-d.jpg,,
21681251,Applied Differential Geometry,,,,William L. Burke,1985,,Cambridge University Press,,436,0,English,121,,,"0521269296,9780521269292",,,,,516.3/6,QA641,,,OL21496146M,,0,,,,,,,0,3006019,pdf,4346E0F193F5460FCC9C730FDED4DF6C,,,"4346e0f193f5460fcc9c730fded4df6c~0521269296,9780521269292.pdf",0,2000-01-01 01:00:00,2016-04-03 02:51:08,388000/4346e0f193f5460fcc9c730fded4df6c-d.jpg,,
21681252,As You Desire,,,,Connie Brockway,1997,,Dell,,400,0,English,,,,"0440221994,9780440221999",,,,,,,,,OL24877121M,,0,,,,,1,,,606109,lit,4347A203B55BD69645C05771783245B0,,,"4347a203b55bd69645c05771783245b0~0440221994,9780440221999.lit",0,2000-01-01 01:00:00,2016-04-03 02:51:08,388000/4347a203b55bd69645c05771783245b0-d.jpg,,
21681253,Energy Portfolios,,,,"U. Aswathanarayana, Rao S. Divi",2009,1,CRC Press,,362,0,English,,,,"0415469856,9780415469852,9780203876602",,,,,333.79,TJ163.24 .E548 2009,,,OL23147981M,,0,,,,1,0,1,1,12320898,pdf,4347AD80F88938A6E66F7D7F364307DF,,,"4347ad80f88938a6e66f7d7f364307df~0415469856,9780415469852,9780203876602.pdf",0,2000-01-01 01:00:00,2016-04-03 02:51:08,388000/4347ad80f88938a6e66f7d7f364307df-d.jpg,,
21681254,The Name of the Mother: Writing Illegitimacy,,,,Marie Maclean,1994,1,Routledge,,282,0,English,,,,"9780415106863,0415106869,0203204824,9780203204825,9780585460093",,,,,809/.89287,PN51 .M2 1994,,,OL1424423M,,0,,,,1,0,1,1,1166617,pdf,4350A4D8A9204802769707A2939D9368,,,"4350a4d8a9204802769707a2939d9368~9780415106863,0415106869,0203204824,9780203204825,9780585460093.pdf",0,2000-01-01 01:00:00,2016-04-03 02:51:08,388000/4350a4d8a9204802769707a2939d9368-d.jpg,,
21681255,Beyond Pedagogies of Exclusion in Diverse Childhood Contexts: Transnational Challenges ,,Critical Culstural Studies of Childhood,,"Beth Blue Swadener, Carl A. Grant, Soula Mitakidou, Evangelia Tressou",2009,,Palgrave Macmillan,,288,0,English,183,,,"0230612849,9780230612846,0230622925,9780230622920",,,,,379.2/6,LC213 .B49 2009,,,OL23043104M,,0,,,,,,1,1,1533696,pdf,4350B3254D7A247513B9EADFE4080B05,,,"4350b3254d7a247513b9eadfe4080b05~0230612849,9780230612846,0230622925,9780230622920.pdf",0,2000-01-01 01:00:00,2016-04-03 02:51:08,388000/4350b3254d7a247513b9eadfe4080b05-d.jpg,,
21681256,The Evelyn Wood Seven-Day Speed Reading and Learning Program,,,,Stanley D. Frank,1997,,Soundelux Audio Publishing,,213,0,English,183,,,"1559352582,9781559352581",,,,,,,,,OL9755692M,,0,,,,,1,,0,7853244,pdf,4352A60AA806B9D981042B89CDB3F561,,,"4352a60aa806b9d981042b89cdb3f561~1559352582,9781559352581.pdf",0,2000-01-01 01:00:00,2016-04-03 02:51:08,388000/4352a60aa806b9d981042b89cdb3f561-d.jpg,,
21681257,"Improved Test Scores, Attitudes, and Behaviors in America's Schools: Supervisors' Success Stories",,,,"Thomas C. DeBello, Rita Dunn",1999,,Praeger,,248,0,English,,,,"0897896874,9780897896870,9780313002168",,,,,,,,,OL18094717M,,0,,,,,,1,1,1172046,pdf,4352D64F2C7B2C063AE10CF3734198E2,,,"4352d64f2c7b2c063ae10cf3734198e2~0897896874,9780897896870,9780313002168.pdf",0,2000-01-01 01:00:00,2016-04-03 02:51:08,388000/4352d64f2c7b2c063ae10cf3734198e2-d.jpg,,
21681258,Our Women Are Free: Gender and Ethnicity in the Hindukush,,,,Wynne R. Maggi,2001,,University of Michigan Press,,288,0,English,,,,"0472097830,0472067834",,,,,305.42/09581,DS380.K34 M34 2001,,,OL3949848M,,0,,,,,,,0,3894408,pdf,4352F45CEC9860603AFD0964F3727283,,,"4352f45cec9860603afd0964f3727283~0472097830,0472067834.pdf",0,2000-01-01 01:00:00,2016-04-03 02:51:08,388000/4352f45cec9860603afd0964f3727283-d.jpg,,
21681259,Homogeneous Turbulence Dynamics,,,,"Pierre Sagaut, Claude Cambon",2008,,Cambridge University Press,,480,0,English,,,,"0521855489,9780521855488,9780511409783",,,,,620.1/064,TA357.5.T87 S269 2008,,,OL16637861M,,0,,,,,1,,1,5355072,pdf,4352F74415EA8E98CC92740A6094F745,,,"4352f74415ea8e98cc92740a6094f745~0521855489,9780521855488,9780511409783.pdf",0,2000-01-01 01:00:00,2016-04-03 02:51:08,388000/4352f74415ea8e98cc92740a6094f745-d.jpg,,
21681260,Past Climate Variability in South America and Surrounding Regions: From the Last Glacial Maximum to the Holocene ,,Developments in Paleoenvironmental Research 14,,"Florence Sylvestre (auth.), Francoise Vimeux, Florence Sylvestre, Myriam Khodri (eds.)",2009,1,Springer Netherlands,,418,0,English,36,,,"9048126711,9789048126712",,,,,,,10.1007/978-90-481-2672-9,,,,0,,,,,1,,1,23772108,pdf,4353F10287318800919F34B185F9C237,,,"4353f10287318800919f34b185f9c237~9048126711,9789048126712.pdf",0,2000-01-01 01:00:00,2016-04-03 02:51:08,388000/4353f10287318800919f34b185f9c237-d.jpg,,
21681261,"Couple's Guide to Money, The: How to Make the Most of Your Financial Power as a Couple",,,,Linda Gough,2004,,Allen & Unwin,,240,0,English,183,,,"9781865089492,1865089494",,,,,,,,,,,0,,,,,1,1,1,834566,pdf,4354E3EAAFBACDDC346CE6BA849F0A6B,,,"4354e3eaafbacddc346ce6ba849f0a6b~9781865089492,1865089494.pdf",0,2000-01-01 01:00:00,2016-04-03 02:51:08,388000/4354e3eaafbacddc346ce6ba849f0a6b-g.jpg,,
21681262,Legend in Green Velvet,,,,Elizabeth Peters,2002,,Avon,,352,0,English,,,,"0380731185,9780380731183,9780061158131",,,,,,,,,OL24260590M,,0,,,,,1,,1,719583,pdf,4355A33A55DB8A851C93A2602A6271DA,,,"4355a33a55db8a851c93a2602a6271da~0380731185,9780380731183,9780061158131.pdf",0,2000-01-01 01:00:00,2016-04-03 02:51:08,388000/4355a33a55db8a851c93a2602a6271da-d.jpg,,
21681263,Retreat from Death: A Soldier on the Somme,,,,"George Herbert Hill, Richard Holmes",2005,2nd,Tauris Parke Paperbacks,,480,0,English,,,,"1850437548,9781850437543,9781423729082",,,,,,,,,OL8968033M,,0,,,,,1,,1,18477337,pdf,4355F52925CC533032515EED9D2D0E81,,,"4355f52925cc533032515eed9d2d0e81~1850437548,9781850437543,9781423729082.pdf",0,2000-01-01 01:00:00,2016-04-03 02:51:08,388000/4355f52925cc533032515eed9d2d0e81-d.jpg,,
21681264,Wedding Papercrafts,,,,North Light Books,2004,,North Light Books,,128,0,English,,,,"1558706534,9781558706538,9781600612381",,,,,,,,,OL24294393M,,0,,,,1,0,1,1,9399953,pdf,4356AE414DE42BBFD4B7472F4553B816,,,"4356ae414de42bbfd4b7472f4553b816~1558706534,9781558706538,9781600612381.pdf",0,2000-01-01 01:00:00,2016-04-03 02:51:08,388000/4356ae414de42bbfd4b7472f4553b816-d.jpg,,
21681265,"Cognition, Computation, and Consciousness",,,,"Masao Ito, Yasushi Miyashita, Edmund T. Rolls",1997,1,"Oxford University Press, USA",,284,0,English,120,,,"0198524145,9780198524144,9780585484181",,,,,153,BF311 .C54872 1997,,,OL1001471M,,0,,,,,1,,1,16864965,pdf,4356E7229EBDFCEAFB15C4D4A9AD9DEA,,,"4356e7229ebdfceafb15c4d4a9ad9dea~0198524145,9780198524144,9780585484181.pdf",0,2000-01-01 01:00:00,2016-04-03 02:51:08,388000/4356e7229ebdfceafb15c4d4a9ad9dea-d.jpg,,
21681266,Conservation of Fish and Shellfish Resources: Managing Diversity,,,,"J. E. Thorpe, Graham A.E. Gall, Jim E. Lannan, Colin E. Nash",1995,1,Academic Press,,206,0,English,7,,,"0126906858,9780126906851,9780080529813",,,,,,,,,OL9471568M,,0,,,,,1,,1,12921697,pdf,4357CF8F0A3CC3A85DD09FAEB8B264EE,,,"4357cf8f0a3cc3a85dd09faeb8b264ee~0126906858,9780126906851,9780080529813.pdf",0,2000-01-01 01:00:00,2016-04-03 02:51:08,388000/4357cf8f0a3cc3a85dd09faeb8b264ee-d.jpg,,
21681267,Escape From Kathmandu,,,,Kim Stanley Robinson,1990,,Tor Books,,352,0,English,,,,"0812500598,9780812500592",,,,,,,,,OL20330429M,,0,,,,,1,,1,669487,pdf,4357FE81AA53C8A9AC9C2DB7ED95C3E3,,,"4357fe81aa53c8a9ac9c2db7ed95c3e3~0812500598,9780812500592.pdf",0,2000-01-01 01:00:00,2016-04-03 02:51:08,388000/4357fe81aa53c8a9ac9c2db7ed95c3e3-g.jpg,,
21681268,Resiliency Enhancement,,,,Elaine Norman,2000,0,Columbia University Press,,320,0,English,,,,"0231118007,9780231118002,9780231505918",,,,,,,,,OL17005317M,,0,,,,,1,,1,1746117,pdf,4358BB8D2E48D48346660A8E22DBDCE2,,,"4358bb8d2e48d48346660a8e22dbdce2~0231118007,9780231118002,9780231505918.pdf",0,2000-01-01 01:00:00,2016-04-03 02:51:08,388000/4358bb8d2e48d48346660a8e22dbdce2-d.jpg,,
21681269,Biological Resource Centers: Knowledge Hubs for the Life Sciences,,,,Scott Stern,2004,,Brookings Institution Press,,128,0,English,12,,,"0815781490,9780815781493,9780815797548",,,,,,,,,OL8050341M,,0,,,,,,1,1,1156602,pdf,4359C41456AB2C8A4DF421038479206F,,,"4359c41456ab2c8a4df421038479206f~0815781490,9780815781493,9780815797548.pdf",0,2000-01-01 01:00:00,2016-04-03 02:51:08,388000/4359c41456ab2c8a4df421038479206f-d.jpg,,
21681270,Management of Solid Health-care Waste at Primary Health Care Centres: A Decision-making Guide,,,,WHO Department of Water  Sanitation and Health,2005,1,World Health Organization,,57,0,English,213,,,"9789241592741,9241592745",,,,,,,,,OL12898550M,,0,,,,,1,,1,462531,pdf,4360FE7E34F56F0EBC0A6F8F0F4A20A5,,,"4360fe7e34f56f0ebc0a6f8f0f4a20a5~9789241592741,9241592745.pdf",0,2000-01-01 01:00:00,2016-04-03 02:51:08,388000/4360fe7e34f56f0ebc0a6f8f0f4a20a5-g.jpg,,
21681271,The Ecology of Insect Overwintering,,,,"S. R. Leather, K. F. A. Walters, J. S. Bale",1993,,Cambridge University Press,,268,0,English,31,,,"0521417589,9780521417587,0521556708,9780521556705,9780511525834",,,,,595.7/0543,QL463 .L43 1993,,,OL1561878M,,0,,,,,1,,1,6713574,pdf,4361D88332AC9ADD5D760805A7EC097C,,,"4361d88332ac9add5d760805a7ec097c~0521417589,9780521417587,0521556708,9780521556705,9780511525834.pdf",0,2000-01-01 01:00:00,2016-04-03 02:51:08,388000/4361d88332ac9add5d760805a7ec097c-d.jpg,,
21681272,Shadowfever,,Fever 5,,Karen Marie Moning,2011,,Delacorte Press,,608,0,English,,,,9780385341677,,,,,813/.6,PS3613.O527 S53 2011,,,OL24549490M,,0,,,,,,,1,1047943,epub,4362AF075C9E9502CD0F898A06F4CFA6,,,4362af075c9e9502cd0f898a06f4cfa6~9780385341677.epub,0,2000-01-01 01:00:00,2016-04-03 02:51:08,388000/4362af075c9e9502cd0f898a06f4cfa6-d.jpg,,
21681273,The Cultural Uses of the Caesars on the English Renaissance Stage ,,Studies in Performance and Early Modern Drama,,Lisa Hopkins,2008,,Ashgate,,168,0,English,314,,,"0754662632,9780754662631",,,,,822.0514,PR127 .H65 2008,,,OL16811876M,,0,,,,,1,1,1,628062,pdf,4363B2D8989616E6A0D95BA069C371B8,,,"4363b2d8989616e6a0d95ba069c371b8~0754662632,9780754662631.pdf",0,2000-01-01 01:00:00,2016-04-03 02:51:08,388000/4363b2d8989616e6a0d95ba069c371b8-d.jpg,,
21681274,Portable Surgical Mentor: A Handbook of Protocol for Interns and Residents in Surgery,,,,"Larry D. Florman, H.C. Jr Polk",2005,1,Springer,,155,0,English,,,,"0387261397,9780387261393",,,,,,,,,OL9716807M,,0,,,,0,0,1,1,955524,pdf,4363EED01F53F3A5DEBF3AAF56971658,,,"4363eed01f53f3a5debf3aaf56971658~0387261397,9780387261393.pdf",0,2000-01-01 01:00:00,2016-04-03 02:51:08,388000/4363eed01f53f3a5debf3aaf56971658-d.jpg,,
21681275,CobiT ,,,,Fabrice Garnier de Labareyre,2009,,EYROLLES (ï¿½DITIONS),,258,0,French,,,,"2212124279,9782212124279,9782212852271",,,,,,,,,,,0,,,,,1,,1,4970406,pdf,4364C088EC447A28B7426CE2DD794C30,,,"4364c088ec447a28b7426ce2dd794c30~2212124279,9782212124279,9782212852271.pdf",0,2000-01-01 01:00:00,2016-04-03 02:51:08,388000/4364c088ec447a28b7426ce2dd794c30-d.jpg,,
21681276,Deformations of Algebraic Schemes ,,Grundlehren der mathematischen Wissenschaften,,Edoardo Sernesi,2006,1,Springer,,342,0,English,114,,,"3540306080,9783540306153,9783540306085",,,,,,,,,OL9056130M,,0,,,,,1,,1,1566042,pdf,4364ED9412C4B367D82C21729D5D682E,,,"4364ed9412c4b367d82c21729d5d682e~3540306080,9783540306153,9783540306085.pdf",0,2000-01-01 01:00:00,2016-04-03 02:51:08,388000/4364ed9412c4b367d82c21729d5d682e-d.jpg,,
21681277,Cardiogenic Shock ,,American Heart Association Clinical Series,,"Judith S. Hochman, E. Magnus Ohman MD",2009,1,Wiley-Blackwell,,288,0,English,161,,,"1405179260,9781405179263",,,,,616.1/207575,RC685.C18 C368 2009,,,OL22696707M,,0,,,,,,1,1,9725249,pdf,4365CA849CCD6B106D19F4AEF46E57C5,,,"4365ca849ccd6b106d19f4aef46e57c5~1405179260,9781405179263.pdf",0,2000-01-01 01:00:00,2016-04-03 02:51:08,388000/4365ca849ccd6b106d19f4aef46e57c5-d.jpg,,
21681278,"Real and Complex Singularities: Proceedings of the Australian-Japanese Workshop, University of Sydney, Australia, 5-8 September 2005",,,,"Laurentiu Paunescu, Adam Harris, Toshizumi Fukui, Satoshi Koike",2007,,World Scientific Publishing Company,,459,0,English,179,,,"9812705511,9789812705518,9789812706898",,,,,,,,,OL22752625M,,0,,,,,1,,1,20394141,pdf,4366D0F7612BD349B2C0C6794BF0A21A,,,"4366d0f7612bd349b2c0c6794bf0a21a~9812705511,9789812705518,9789812706898.pdf",0,2000-01-01 01:00:00,2016-04-03 02:51:08,388000/4366d0f7612bd349b2c0c6794bf0a21a-d.jpg,,
21681279,Generatingfunctionology,,,,Herbert S. Wilf,2006,3,"A K Peters, Ltd.",,252,0,English,117,,,"1568812795,9781568812793",,,,,515/.55,QA353.G44 W55 2005,,,OL3430106M,,600,,,,,,,1,1438712,djvu,4373FE39A76C069D3168C2F8846A4874,,,"4373fe39a76c069d3168c2f8846a4874~1568812795,9781568812793.djvu",0,2000-01-01 01:00:00,2016-04-03 02:51:08,388000/4373fe39a76c069d3168c2f8846a4874-d.jpg,,
21681280,"Continuous Delivery: Reliable Software Releases through Build, Test, and Deployment Automation ",,Addison-Wesley Signature Series Fowler,,"Jez Humble, David Farley",2010,1,Addison-Wesley Professional,,497,0,English,87,,,"0321601912,9780321601919",,,,,,,,,OL25154801M,,0,,,,,,1,1,14446216,pdf,4376E5099E1E1FA8E1A86AED0A5E1C91,,,"4376e5099e1e1fa8e1a86aed0a5e1c91~0321601912,9780321601919.pdf",0,2000-01-01 01:00:00,2016-04-03 02:51:08,388000/4376e5099e1e1fa8e1a86aed0a5e1c91-d.jpg,,
21681281,The Adapted Mind: Evolutionary Psychology and the Generation of Culture,,,,"Jerome H. Barkow, Leda Cosmides, John Tooby",1995,,"Oxford University Press, USA",,679,0,English,198,,,"0195101073,9780195101072,0195060237,9780195060232,9780195356472",,,,,155.7,BF711 .A33 1992,,,OL1546068M,,0,,,,0,1,,1,48994123,pdf,4377C788EA137350EC7ABB7A72BD9807,,,"4377c788ea137350ec7abb7a72bd9807~0195101073,9780195101072,0195060237,9780195060232,9780195356472.pdf",0,2000-01-01 01:00:00,2016-04-03 02:51:08,388000/4377c788ea137350ec7abb7a72bd9807-d.jpg,,
21681282,A Region in Turmoil: South Asian Conflicts since 1947 ,,Reaktion Books - Contemporary Worlds,,Rob Johnson,2005,,Reaktion Books,,272,0,English,225,,,"1861892578,9781861892577",,,,,,,,,OL22629837M,,0,,,,1,0,1,1,16834481,pdf,4377F18511CB423EC0709BF1BB1E7058,,,"4377f18511cb423ec0709bf1bb1e7058~1861892578,9781861892577.pdf",0,2000-01-01 01:00:00,2016-04-03 02:51:08,388000/4377f18511cb423ec0709bf1bb1e7058-d.jpg,,
21681283,"Landmarks in Earth Reinforcement: Proceedings of the International Symposium on Earth Reinforcement, Fukuoka, Kyushi, Japan, 14-16 November 2001",volume 2,,,Ochiai,2001,1,Taylor & Francis,,412,0,English,185,,,"9789026518652,902651865X,9780585461571",,,,,624.1/52,TA710 .I59695 2001,,,OL22469391M,,0,,,,,1,,1,77370661,pdf,4378C752915980A2683E4ECEB603CB31,,,"4378c752915980a2683e4eceb603cb31~9789026518652,902651865X,9780585461571.pdf",0,2000-01-01 01:00:00,2016-04-03 02:51:08,388000/4378c752915980a2683e4eceb603cb31-g.jpg,,
21681284,Prehospital Trauma Care,,,,"Eldar Soreide, Christopher M. Grande",2001,1,Informa Healthcare,,816,0,English,,,,"0824705378,9780824705374,9780585407937",,,,,,,,,OL9772845M,,0,,,,,1,,1,11685875,pdf,4383CBABE3C629A2B4CF079D145F0C58,,,"4383cbabe3c629a2b4cf079d145f0c58~0824705378,9780824705374,9780585407937.pdf",0,2000-01-01 01:00:00,2016-04-03 02:51:08,388000/4383cbabe3c629a2b4cf079d145f0c58-d.jpg,,
21681285,Heavenly Worship,,,,Peter Todd,2005,,Destiny Image Europe,,112,0,English,,,,"8889127120,9788889127124",,,,,,,,,OL9074656M,,0,,,,,,1,1,390165,pdf,4385CAEEC11A7DBB2CDF794C60A45D68,,,"4385caeec11a7dbb2cdf794c60a45d68~8889127120,9788889127124.pdf",0,2000-01-01 01:00:00,2016-04-03 02:51:08,388000/4385caeec11a7dbb2cdf794c60a45d68-d.jpg,,
21681286,China's Peasants: The Anthropology of a Revolution,,,,"Sulamith Heins Potter, Jack M. Potter",1990,,Cambridge University Press,,376,0,English,14,,,"9780521355216,9780511607783,052135787X,0521355214,0511607784,9780521357876",,,,,305.5/633/0951,HN733.5 .P68 1990,,,OL2209054M,,0,,,,,1,,1,13671298,pdf,4385ED5D2CFAD340DF4EE7E1DBACC966,,,"4385ed5d2cfad340df4ee7e1dbacc966~9780521355216,9780511607783,052135787X,0521355214,0511607784,9780521357876.pdf",0,2000-01-01 01:00:00,2016-04-03 02:51:08,388000/4385ed5d2cfad340df4ee7e1dbacc966-d.jpg,,
21681287,Advances in Crystal Growth Inhibition Technologies,,,,Zahid Amjad,2000,1,Springer,,278,0,English,213,,,"0306464993,9780306464997,9780306469244",,,,,,,,,OL9885034M,,0,,,,,1,,1,3626918,pdf,4387B7AF88BEB3DE774C77C20E360D05,,,"4387b7af88beb3de774c77c20e360d05~0306464993,9780306464997,9780306469244.pdf",0,2000-01-01 01:00:00,2016-04-03 02:51:08,388000/4387b7af88beb3de774c77c20e360d05-d.jpg,,
21681288,The Cambridge handbook of psychology and economic behaviour,,Cambridge handbooks in psychology,,Alan Lewis (editor),2008,1,Cambridge University Press,,587,0,English,181,,0,"0521856655, 9780521856652, 1107654157, 9781107654150, 0511393466, 9780511393464",,,,,330.019-dc22,HB74 .P8 B78 2006,10.1017/CBO9780511490118,UKcG5H0zXwYC,,,0,,,,,0,1,1,8031425,pdf,4387D08765B8A31FE3A24D54E25C48FE,4592E7205BF41893BDC1CC3BB9236570,no,"4387d08765b8a31fe3a24d54e25c48fe~0521856655,9780521856652,9780511394881.pdf",0,2000-01-01 01:00:00,2016-04-03 02:51:08,304000/4592e7205bf41893bdc1cc3bb9236570-d.jpg,,
21681289,If This Is a Man ,,Arabic,,Primo Levi,2009,,Editions Le Manuscrit - manuscrit.com -,,191,0,English,,,,"2304025706,9782304025705",,,,,,,,,,,0,,,,,1,,0,867625,pdf,4387E882306426DEA534730D66A04FAB,,,"4387e882306426dea534730d66a04fab~2304025706,9782304025705.pdf",0,2000-01-01 01:00:00,2016-04-03 02:51:08,388000/4387e882306426dea534730d66a04fab-d.jpg,,
21681290,Black Boy ,,Cliffs Notes,,Carl Senna,1971,,Cliffs Notes,,56,0,English,,,,"0822002426,9780822002420,9780822070276",,,,,813.09,PS3545.R815Z5  S4,,,OL24201804M,,0,,,,,1,1,1,359035,pdf,4388C9728AAAC67331C786E54CF94C9B,,,"4388c9728aaac67331c786e54cf94c9b~0822002426,9780822002420,9780822070276.pdf",0,2000-01-01 01:00:00,2016-04-03 02:51:08,388000/4388c9728aaac67331c786e54cf94c9b-d.jpg,,
21681291,Schabbat: Das Judentum fur Nichtjuden verstandlich gemacht ,,,,Lea Fleischmann,1994,,Rasch und Rohring Verlag,,199,0,German,,,,"3891365187,9783891365182",,,,,296,BM561 .F555 1994,,,OL865996M,,0,,,,,,1,1,605194,pdf,4392A6C5AB455797D844FC04D7B9C523,,,"4392a6c5ab455797d844fc04d7b9c523~3891365187,9783891365182.pdf",0,2000-01-01 01:00:00,2016-04-03 02:51:08,388000/4392a6c5ab455797d844fc04d7b9c523-d.jpg,,
21681292,New Handbook of Counseling Supervision,,,,L. DiAnne Borders; Lori L. Brown,2005,2,Lawrence Erlbaum Associates,,168,0,English,,,,"0805853685,9780805853681,9781410613202",,,,,158/.3,BF637.C6 B597 2005,,,OL3311323M,,0,,,,,,1,1,804261,pdf,4393EAB9BFA6ECAB9CB5F5E1C7398286,,,"4393eab9bfa6ecab9cb5f5e1c7398286~0805853685,9780805853681,9781410613202.pdf",0,2000-01-01 01:00:00,2016-04-03 02:51:08,388000/4393eab9bfa6ecab9cb5f5e1c7398286-d.jpg,,
21681293,"Energy: Resources, Technologies & The Environment ",,Iet Renewable Energy Series,,Christian Ngo,2010,,Institution of Engineering and Technology,,145,0,English,,,,"1849191522,9781849191524",,,,,,,,,,,0,,,,,,1,1,2297475,pdf,4394D74B44C1D56B0C7CE26BC1E9AF20,,,"4394d74b44c1d56b0c7ce26bc1e9af20~1849191522,9781849191524.pdf",0,2000-01-01 01:00:00,2016-04-03 02:51:08,388000/4394d74b44c1d56b0c7ce26bc1e9af20-d.jpg,,
21681294,Lordship and Literature: John Gower and the Politics of the Great Household ,,Oxford English Monographs,,Elliot Kendall,2008,,"Oxford University Press, USA",,314,0,English,,,,"0199542643,9780199542642,9780191562198",,,,,821/.1,PR1984.C63 K46 2008,,,OL16871447M,,0,,,,0,0,1,1,1291991,pdf,4395EA52A7B8A0F4BEE8E6776B5B5753,,,"4395ea52a7b8a0f4bee8e6776b5b5753~0199542643,9780199542642,9780191562198.pdf",0,2000-01-01 01:00:00,2016-04-03 02:51:08,388000/4395ea52a7b8a0f4bee8e6776b5b5753-d.jpg,,
21681295,The Future of the Wild: Radical Conservation for a Crowded World,,,,Jonathan S. Adams,2007,1,Beacon Press,,296,0,English,,,,"0807085375,9780807085370,9781435604230",,,,,,,,,OL7945267M,,0,,,,,1,,1,1132050,pdf,4396E37D5BFDCCB261E0C79044125DE8,,,"4396e37d5bfdccb261e0c79044125de8~0807085375,9780807085370,9781435604230.pdf",0,2000-01-01 01:00:00,2016-04-03 02:51:08,388000/4396e37d5bfdccb261e0c79044125de8-d.jpg,,
21681296,Frogs ,,Clarendon commentaries on Aristophanes,,"Aristophanes, Sir Kenneth Dover",1993,,"Oxford University Press, USA",,398,0,English,,,,"0198147732,9780198147732",,,,,882/.01,PA3875 .R3 1993,,,OL1711079M,,0,,,,,,,0,32545882,pdf,4396F121E8565E2B51F76EC4EEF27830,,,"4396f121e8565e2b51f76ec4eef27830~0198147732,9780198147732.pdf",0,2000-01-01 01:00:00,2016-04-03 02:51:08,388000/4396f121e8565e2b51f76ec4eef27830-g.jpg,,
21681297,"Reputation, Celebrity and Defamation Law",,,,"David Rolph, Fiona Beveridge, Samantha Velluti",2008,,Ashgate,,244,0,English,313,,,"0754671240,9780754671244,9780754690276",,,,,,,,,OL16799743M,,0,,,,,1,1,1,1119442,pdf,4396F7135B11B286BD98A77AF4A6B442,,,"4396f7135b11b286bd98a77af4a6b442~0754671240,9780754671244,9780754690276.pdf",0,2000-01-01 01:00:00,2016-04-03 02:51:08,388000/4396f7135b11b286bd98a77af4a6b442-d.jpg,,
21681298,"Topics in Neuroendocrinology, Vol. 38",,,,,1972,,Elsevier Science,,362,0,English,19,,0,"044441049X,9780444410498",,,,,,,,,,,0,,,,,1,,1,22279465,pdf,4397D02E03552C2A8DD89CEBE8CF7702,,,"4397d02e03552c2a8dd89cebe8cf7702~044441049X,9780444410498.pdf",0,2000-01-01 01:00:00,2016-04-03 02:51:08,388000/4397d02e03552c2a8dd89cebe8cf7702-d.jpg,,
21681299,Sources et évolution de la physique quantique: Textes fondateurs,,,,"Bruno Escoubès, José Leite Lopez",2005,,EDP SCIENCES,,316,0,French,,,0,"2868838154,9782868838155,9782759802357",,,,,,,,,,,0,,,,,1,,1,15101960,pdf,4397EB708E999CE26F2CED32139B1381,,,"4397eb708e999ce26f2ced32139b1381~2868838154,9782868838155,9782759802357.pdf",0,2000-01-01 01:00:00,2016-04-03 02:51:08,388000/4397eb708e999ce26f2ced32139b1381-d.jpg,,
21681300,Analisi di Rasch e questionari di misura: Applicazioni in medicina e scienze sociali ,,,,"Massimo Penta, Carlyne Arnould, Céline Decruynaere, Luigi Tesio",2008,1,Springer,,172,0,Italian,,,,"9788847007703,8847007704",,,,,,,,,,,0,,,,,1,1,1,1773809,pdf,4398E4F98A58CAF54D29D95B8E1FC606,,,"4398e4f98a58caf54d29d95b8e1fc606~9788847007703,8847007704.pdf",0,2000-01-01 01:00:00,2016-04-03 02:51:08,388000/4398e4f98a58caf54d29d95b8e1fc606-d.jpg,,
21681301,China-US Relations Transformed: Perspectives & Strategic Interactions ,,Routledge Contemporary China,,Suisheng Zhao,2008,1,Routledge,,256,0,English,,,,"0415438675,9780415438674,9780203934784",,,,,327.51073,E183.8.C5 C5373 2008,,,OL10206654M,,0,,,,,1,1,1,1075430,pdf,4399FC150E03C074C921FC185A67F6AB,,,"4399fc150e03c074c921fc185a67f6ab~0415438675,9780415438674,9780203934784.pdf",0,2000-01-01 01:00:00,2016-04-03 02:51:08,388000/4399fc150e03c074c921fc185a67f6ab-d.jpg,,
21681302,Ausgezählt,,,,Horst Eckert,2002,,Grafit,,425,0,German,,,,"3894252650,9783894252656",,,,,,,,,OL19610116M,,0,,,,,,,1,1351670,pdf,4401C72ABC3324898991EB0914496760,,,"4401c72abc3324898991eb0914496760~3894252650,9783894252656.pdf",0,2000-01-01 01:00:00,2016-04-03 02:51:08,388000/4401c72abc3324898991eb0914496760-d.jpg,,
21681303,I Dare ,,Liaden Universe Novel Series,,"Sharon Lee, Steve Miller",2007,,"Meisha Merlin Publishing, Inc.",,480,0,English,,,,"1892065037,9781892065032,1892065126,9781892065124",,,,,,,,,OL8718356M,,0,,,,,,1,1,2383977,pdf,4401CD6E9EE76C93D00F44B4B0F62B8E,,,"4401cd6e9ee76c93d00f44b4b0f62b8e~1892065037,9781892065032,1892065126,9781892065124.pdf",0,2000-01-01 01:00:00,2016-04-03 02:51:08,388000/4401cd6e9ee76c93d00f44b4b0f62b8e-d.jpg,,
21681304,"Developmental Problems of Childhood and Adolescence: Prevention, Treatment and Training",,,,Martin Herbert,2005,,Wiley-Blackwell,,333,0,English,,,,"1405115920,9781405115926",,,,,618.92/8588,RJ135 .H56 2005,,,OL18489862M,,0,,,,,,,1,1144483,pdf,4402D8E117ED9B1759DD0C0801EEF1FB,,,"4402d8e117ed9b1759dd0c0801eef1fb~1405115920,9781405115926.pdf",0,2000-01-01 01:00:00,2016-04-03 02:51:08,388000/4402d8e117ed9b1759dd0c0801eef1fb-d.jpg,,
21681305,Topos anneles et schemas relatifs. Ergebnisse der Mathematik und ihrer Grenzgebiete. 2. Folge,,Ergebnisse der Mathematik und ihrer Grenzgebiete 64,,Monique Hakim,1972,1,Springer,,172,0,French,113,,,"3540055738,0387055738",,,,,,,,2HogAQAAIAAJ,OL21841439M,,0,,,,,1,,1,2031660,djvu,4402F05E2F09CDD417202BAE001FCB53,,,"4402f05e2f09cdd417202bae001fcb53~3540055738,0387055738.djvu",0,2000-01-01 01:00:00,2016-04-03 02:51:08,388000/4402f05e2f09cdd417202bae001fcb53-g.jpg,,
21681306,Anti-anxiety Drugs ,,Drugs: the Straight Facts,,"Donna Toufexis, David J. Triggle, Sayamwong Emwill Hammack, D. J. Triggle",2006,,Chelsea House Publications,,124,0,English,302,,,"0791085562,9780791085561,9781438101910",,,,,615/.7882,RM333 .T68 2005,,,OL3405657M,,0,,,,,1,,1,1936069,pdf,4403B436743A24AB1BDE9DC105CDF2A7,,,"4403b436743a24ab1bde9dc105cdf2a7~0791085562,9780791085561,9781438101910.pdf",0,2000-01-01 01:00:00,2016-04-03 02:51:08,388000/4403b436743a24ab1bde9dc105cdf2a7-d.jpg,,
21681307,Archaeology and Preservation of Gendered Landscapes,,,,"Suzanne M. Spencer-Wood, Sherene Baugher (auth.), Sherene Baugher, Suzanne M. Spencer-Wood (eds.)",2010,1,Springer-Verlag New York,,392,0,English,64,,,"1441915001,9781441915009",,,,,,,10.1007/978-1-4419-1501-6,,,,0,,,,,1,1,1,7386586,pdf,4404AB6EEC1B5CFFF969A255D7EB5D52,,,"4404ab6eec1b5cfff969a255d7eb5d52~1441915001,9781441915009.pdf",0,2000-01-01 01:00:00,2016-04-03 02:51:08,388000/4404ab6eec1b5cfff969a255d7eb5d52-d.jpg,,
21681308,A Companion to Aristotle ,,Blackwell Companions to Philosophy,,Georgios Anagnostopoulos,2009,,Wiley-Blackwell,,667,0,English,,,,"1405122234,9781405122238",,,,,185,B485 .C59 2009,,,OL19288289M,,0,,,,1,0,1,1,2574693,pdf,4404E790D68B30AE24BDED7FC5525F50,,,"4404e790d68b30ae24bded7fc5525f50~1405122234,9781405122238.pdf",0,2000-01-01 01:00:00,2016-04-03 02:51:08,388000/4404e790d68b30ae24bded7fc5525f50-d.jpg,,
21681309,From Jane Austen to Joseph Conrad: Essays Collected in Memory of James T.Hillhouse,,,,"R.C. Rathburn, M. Steinmann",1967,2nd Edition,University of Minnesota Press,,340,0,English,,,,"0816604533,9780816604531,9780816664115",,,,,,,,,,,0,,,,,1,,1,16562903,pdf,4405E3CCD3F0F021A1361B56446A8196,,,"4405e3ccd3f0f021a1361b56446a8196~0816604533,9780816604531,9780816664115.pdf",0,2000-01-01 01:00:00,2016-04-03 02:51:08,388000/4405e3ccd3f0f021a1361b56446a8196-g.jpg,,
21681310,"Infrared Detectors, ",,,,Antonio Rogalski,2010,2,CRC Press,,900,0,English,,,,"142007671X,9781420076714",,,,,621.36/2,TA1570 .R63 2011,,,OL11817434M,,0,,,,,,1,1,48643960,pdf,4406AA6E1105B7DDE8E381FCAB4410BF,,,"4406aa6e1105b7dde8e381fcab4410bf~142007671X,9781420076714.pdf",0,2000-01-01 01:00:00,2016-04-03 02:51:08,388000/4406aa6e1105b7dde8e381fcab4410bf-d.jpg,,
21681311,"Gravitation, Cosmology, and Cosmic-Ray Physics ",,Physics Through the 1990s: A Series,,"Cosmology, and Cosmic-Ray Physics Panel on Gravitation, Physics Survey Committee, Board on Physics and Astronomy, National Research Council",1986,,National Academies Press,,192,0,English,264,,,"9780309035798,0309035791,9780309568074",,,,,531/.14,QC178 .G64 1986,,,OL2549669M,,0,,,,,1,,1,3141720,pdf,4406CC85FD0D7E552A42C67C99150DA9,,,"4406cc85fd0d7e552a42c67c99150da9~9780309035798,0309035791,9780309568074.pdf",0,2000-01-01 01:00:00,2016-04-03 02:51:08,388000/4406cc85fd0d7e552a42c67c99150da9-d.jpg,,
21681312,Early Mamluk Diplomacy: Treaties of Baybars and Qalawun With Christian Rulers ,,"Islamic History and Civilization. Studies and Texts, Vol",,P. M. Holt,1995,,Brill Academic Publishers,,161,0,English,,,,"9004102469,9789004102460",,,,,327.4017/671,DS38.7 .H65 1995,,,OL1271759M,,0,,,,,1,,1,8126323,pdf,4406DD6CC7E36157E2A2ADF505569B7C,,,"4406dd6cc7e36157e2a2adf505569b7c~9004102469,9789004102460.pdf",0,2000-01-01 01:00:00,2016-04-03 02:51:08,388000/4406dd6cc7e36157e2a2adf505569b7c-d.gif,,
21681313,Play in Early Childhood: From Birth to Six Years,,,,"Jackie Harding, Liz Meldon-Smith, Mary D. Sheridan",2001,2,Routledge,,64,0,English,,,,"9780203061275,9780203272244,9780415186933,0203061276,0415186935",,,,,155.418,,,,OL18389871M,,0,,,,,1,1,1,2994426,pdf,4407EDD3DA5B2BA96671EA9A48EF2993,,,"4407edd3da5b2ba96671ea9a48ef2993~9780203061275,9780203272244,9780415186933,0203061276,0415186935.pdf",0,2000-01-01 01:00:00,2016-04-03 02:51:08,388000/4407edd3da5b2ba96671ea9a48ef2993-d.jpg,,
21681314,Strategic Planning for Project Management Using a Project Management Maturity Model,,,,Harold Kerzner,1997,1,Wiley,,71,0,English,7,,,"0471400394,9780471400394",,,,,,,,,OL7616658M,,0,,,,,,,0,4703833,pdf,4412AF6A48F7BE4F998F9902CE86AE67,,,"4412af6a48f7be4f998f9902ce86ae67~0471400394,9780471400394.pdf",0,2000-01-01 01:00:00,2016-04-03 02:51:08,388000/4412af6a48f7be4f998f9902ce86ae67-d.jpg,,
21681315,The Northern Ireland Question: The Peace Process and the Belfast Agreement,,,,"Brian Barton, Patrick Roche",2009,1,Palgrave Macmillan,,299,0,English,,,,"0230203809,9780230203808",,,,,941.60824,DA990.U46 N6736 2009,,,OL17052201M,,0,,,,,1,1,1,1843649,pdf,4412C81F78F890F40ED17AAF39C56DD9,,,"4412c81f78f890f40ed17aaf39c56dd9~0230203809,9780230203808.pdf",0,2000-01-01 01:00:00,2016-04-03 02:51:08,388000/4412c81f78f890f40ed17aaf39c56dd9-d.jpg,,
21681316,This Is How It Happened ,,not a love story,,Jo Barrett,2008,,William Morrow Paperbacks,,320,0,English,,,,"0061241105,9780061241109,9780061571824",,,,,813/.6,PS3602.A77749 T47 2007,,,OL20008371M,,0,,,,,1,,1,735319,pdf,4412EB8BF12B1B505FF27712E87DD4D4,,,"4412eb8bf12b1b505ff27712e87dd4d4~0061241105,9780061241109,9780061571824.pdf",0,2000-01-01 01:00:00,2016-04-03 02:51:08,388000/4412eb8bf12b1b505ff27712e87dd4d4-d.jpg,,
21681317,Making Sexual Decisions: The Ultimate Teen Guide ,,It Happened to Me the Ultimate Teen Guide,,L. Kris Gowen,2003,,"The Scarecrow Press, Inc.",,248,0,English,201,,,"0810846470,9780810846470,9780585461663",,,,,,,,,OL7996782M,,0,,,,,1,,1,31410979,pdf,4413CDAE080B387874F31BD1AEA98BA3,,,"4413cdae080b387874f31bd1aea98ba3~0810846470,9780810846470,9780585461663.pdf",0,2000-01-01 01:00:00,2016-04-03 02:51:08,388000/4413cdae080b387874f31bd1aea98ba3-d.jpg,,
21681318,Creating Citizens: Political Education and Liberal Democracy ,,Oxford Political Theory,,Eamonn Callan,1997,,"Oxford University Press, USA",,272,0,English,183,,,"0198292589,9780198292586,9780191521980",,,,,370.11/5,LC1091 .C24 1997,,,OL668646M,,0,,,,,1,,1,1075167,pdf,4413E4B291926383BAB1F670685B5C54,,,"4413e4b291926383bab1f670685b5c54~0198292589,9780198292586,9780191521980.pdf",0,2000-01-01 01:00:00,2016-04-03 02:51:08,388000/4413e4b291926383bab1f670685b5c54-d.jpg,,
21681319,Microwave and Wireless Synthesizers: Theory and Design,,,,Ulrich L. Rohde,1997,,Wiley-Interscience,,656,0,English,99,,,"0471520195,9780471520191",,,,,621.3815/486,TK7872.F73 R62 1997,,,OL966456M,,0,,,,,1,,1,76549970,pdf,4414AF414F145FD272F96B6EC977744C,,,"4414af414f145fd272f96b6ec977744c~0471520195,9780471520191.pdf",0,2000-01-01 01:00:00,2016-04-03 02:51:08,388000/4414af414f145fd272f96b6ec977744c-d.jpg,,
21681320,Analysis of Faulted Power Systems ,,IEEE Press Series on Power Engineering,,Paul M. Anderson,1995,Har/Dskt,Wiley-IEEE Press,,532,0,English,117,,,0780311450,,,,,,,,,,,0,,,,,,1,1,49756252,pdf,4414D7C5775292A88D5F75DD6DB804B3,,,4414d7c5775292a88d5f75dd6db804b3~0780311450.pdf,0,2000-01-01 01:00:00,2016-04-03 02:51:08,388000/4414d7c5775292a88d5f75dd6db804b3-d.jpg,,
21681321,Jurisprudence ,,Essential,,"Austin Chinhengo, Austin M Chinhengo, Nicholas Bourne",2000,2,Routledge-Cavendish,,150,0,English,,,,"1859411487,9781859411483",,,,,,,,,OL12045112M,,0,,,,,1,1,1,571283,pdf,4415CBA41B43AC85FFCF9E79B5CDAA31,,,"4415cba41b43ac85ffcf9e79b5cdaa31~1859411487,9781859411483.pdf",0,2000-01-01 01:00:00,2016-04-03 02:51:08,388000/4415cba41b43ac85ffcf9e79b5cdaa31-d.jpg,,
21681322,Lepton Dipole Moments ,,Advanced Series on Directions in High Energy Physics Volume 20,,"B. Lee Roberts, B. Lee Roberts, William J. Marciano",2009,,World Scientific Publishing Company,,772,0,English,264,,,"9814271837,9789814271837",,,,,,,,,,,0,,,,,,,1,14822705,pdf,4418A645A3D4587CFA4C43E27C6D2714,,,"4418a645a3d4587cfa4c43e27c6d2714~9814271837,9789814271837.pdf",0,2000-01-01 01:00:00,2016-04-03 02:51:08,388000/4418a645a3d4587cfa4c43e27c6d2714-d.jpg,,
21681323,Morphology and Language History: In Honour of Harold Koch,,Current Issues in Linguistic Theory 298,,"Claire Bowern, Bethwyn Evans, Luisa Miceli (Eds.)",2008,1st,John Benjamins,,364,0,English,64,,0,"9789027248145,9027248141,9789027290960,9027290962",,,,,415,P241 .M6525 2008,,,,,0,,,,,1,,1,2764376,pdf,4418BD4A5E6A63F8252AF8BFB9F61244,,,"4418bd4a5e6a63f8252af8bfb9f61244~9789027248145,9027248141,9789027290960,9027290962.pdf",0,2000-01-01 01:00:00,2016-04-03 02:51:08,388000/4418bd4a5e6a63f8252af8bfb9f61244-d.jpg,,
21681324,The Agaria,,,,"Verrier Elwin, Sarat Chandra Roy",1992,,"Oxford University Press, USA",,348,0,English,,,,"0195629620,9780195629620",,B0007IUGEK,,,,,,,OL10135958M,,0,,,,,1,,1,31142078,pdf,4418FE9727708FC89C80E42248130E2A,,,"4418fe9727708fc89c80e42248130e2a~0195629620,9780195629620,B0007IUGEK.pdf",0,2000-01-01 01:00:00,2016-04-03 02:51:08,388000/4418fe9727708fc89c80e42248130e2a-g.jpg,,
21681325,Gebrauchsanweisung für Deutschland.,,,,"Maxim Gorski, Heinz Birg",1999,,Piper,,138,0,German,,,,"3492049826,9783492049825",,,,,,,,,OL22224093M,,0,,,,,,1,1,832387,pdf,4419FACA1A82165F705A176A79DD8863,,,"4419faca1a82165f705a176a79dd8863~3492049826,9783492049825.pdf",0,2000-01-01 01:00:00,2016-04-03 02:51:08,388000/4419faca1a82165f705a176a79dd8863-d.jpg,,
21681326,The Ethics of Protocells: Moral and Social Implications of Creating Life in the Laboratory ,,Basic Bioethics,,"Mark A. Bedau, Emily C. Parke",2009,1,The MIT Press,,392,0,English,,,,"0262012626,0262512696,9780262012621,9780262512695",,,,,174/.957,TP248.23 .E862 2009,,,OL22543296M,,0,,,,,1,1,1,1193685,pdf,4420B9D40D6C038327734ED24064DC3C,,,"4420b9d40d6c038327734ed24064dc3c~0262012626,0262512696,9780262012621,9780262512695.pdf",0,2000-01-01 01:00:00,2016-04-03 02:51:08,388000/4420b9d40d6c038327734ed24064dc3c-d.jpg,,
21681327,Empire of Difference: The Ottomans in Comparative Perspective,,,,Karen Barkey,2008,,Cambridge University Press,,358,0,English,,,,"0521887402,9780521887403,9780511415135",,,,,956/.015,DR531 .B37 2008,,,OL16471755M,,0,,,,,1,1,1,1885991,pdf,4420CAC7439E61A13BD1D5E0E3AD1A8F,,,"4420cac7439e61a13bd1d5e0e3ad1a8f~0521887402,9780521887403,9780511415135.pdf",0,2000-01-01 01:00:00,2016-04-03 02:51:08,388000/4420cac7439e61a13bd1d5e0e3ad1a8f-d.jpg,,
21681328,Space-Time Structure ,,Cambridge Science Classics,,Erwin Schrödinger,1985,,Cambridge University Press,,119,0,English,212,,,"0521315204,9780521315203",,,,,531/.14,QC173.6,,,OL21529905M,,0,,,,,1,,0,5511283,pdf,4421EE23878D28CFA1ADFB0B50E0D5F0,,,"4421ee23878d28cfa1adfb0b50e0d5f0~0521315204,9780521315203.pdf",0,2000-01-01 01:00:00,2016-04-03 02:51:08,388000/4421ee23878d28cfa1adfb0b50e0d5f0-d.jpg,,
21681329,Archaelogical Chemistry: Analytical Techniques and Archaeological Interpretation ,,Acs Symposium Volume 968,,"Michael D. Glascock, Robert J. Speakman, Rachel S. Popelka-Filcoff",2007,,"Oxford University Press, USA",,581,0,English,296,,,"9780841274136,0841274134",,,,,,,,,OL11527794M,,600,,,,1,1,,1,24983473,pdf,4421F16B25CBD3222AAD3A9389D61DEC,,,"4421f16b25cbd3222aad3a9389d61dec~9780841274136,0841274134.pdf",0,2000-01-01 01:00:00,2016-04-03 02:51:08,388000/4421f16b25cbd3222aad3a9389d61dec-d.jpg,,
21681330,Modernity and the Hegemony of Vision,,,,David Michael Levin,1993,1ST,University of California Press,,408,0,English,,,,"0520079736,9780520079731,9780585233840",,,,,128/.3,B846 .M63 1993,,,OL1394299M,,0,,,,,,,1,2095591,pdf,4422E0C6B487A361BD45EBA03948422D,,,"4422e0c6b487a361bd45eba03948422d~0520079736,9780520079731,9780585233840.pdf",0,2000-01-01 01:00:00,2016-04-03 02:51:08,388000/4422e0c6b487a361bd45eba03948422d-d.jpg,,
21681331,Encounter with God ,,Academic Paperback,,"James Ian H. McDonald, Duncan B. Forrester, Gian Tellini",2004,2nd,T&T Clark Int'l,,254,0,English,,,,"056708258X,9780567082589",,,,,,,,,OL10638827M,,0,,,,,1,,1,13084419,pdf,4422E093191B2C5CBE793F70450B4ACF,,,"4422e093191b2c5cbe793f70450b4acf~056708258X,9780567082589.pdf",0,2000-01-01 01:00:00,2016-04-03 02:51:08,388000/4422e093191b2c5cbe793f70450b4acf-d.jpg,,
21681332,"World History: Ideologies, Structures, and Identities",,,,"Philip Pomper, Richard H. Elphick, Richard T. Vann",1998,,Wiley-Blackwell,,296,0,English,64,,,"0631208984,9780631208983",,,,,901,D16.8 .W73 1998,,,OL698239M,,0,,,,,,,0,26381566,pdf,4423D7B3063E7A1642BD3788714A290F,,,"4423d7b3063e7a1642bd3788714a290f~0631208984,9780631208983.pdf",0,2000-01-01 01:00:00,2016-04-03 02:51:08,388000/4423d7b3063e7a1642bd3788714a290f-d.jpg,,
21681333,Dying and Death: Inter-Disciplinary Perspectives. ,,"At the Interface, Probing the Bounderies",,Asa Kasher,2007,1,Rodopi,,232,0,English,12,,,"9042022450,9789042022454,9781435612143",,,,,,,,,OL12805049M,,0,,,,,1,,1,1212916,pdf,4424CB21F4EA862ED9D1AC605F711F72,,,"4424cb21f4ea862ed9d1ac605f711f72~9042022450,9789042022454,9781435612143.pdf",0,2000-01-01 01:00:00,2016-04-03 02:51:08,388000/4424cb21f4ea862ed9d1ac605f711f72-d.jpg,,
21681334,Comparison Methods and Stability Theory ,,Lecture Notes in Pure and Applied Mathematics,,Liu,1994,1,CRC Press,,352,0,English,125,,,"082479270X,9780824792701,9780585356839",,,,,515/.35,QA370 .C62 1994,,,OL1095834M,,0,,,,,,,0,12047898,pdf,4425EB4F8FCAEAABFB719A049DE1BAF3,,,"4425eb4f8fcaeaabfb719a049de1baf3~082479270X,9780824792701,9780585356839.pdf",0,2000-01-01 01:00:00,2016-04-03 02:51:08,388000/4425eb4f8fcaeaabfb719a049de1baf3-d.jpg,,
21681335,"Religion, Literature, and Politics in Post-Reformation England, 1540-1688",,,,"Donna B. Hamilton, Richard Strier",1996,,Cambridge University Press,,296,0,English,205,,,"9780511518928,0521474566,0521060877,0511518927,9780521060875,9780521474566",,,,,942.05,BR756 .R45 1996,,,OL1276331M,,0,,,,,1,,1,1732183,djvu,4426E719E4F0DE5BF014E8ED4CA43705,,,"4426e719e4f0de5bf014e8ed4ca43705~9780511518928,0521474566,0521060877,0511518927,9780521060875,9780521474566.djvu",0,2000-01-01 01:00:00,2016-04-03 02:51:08,388000/4426e719e4f0de5bf014e8ed4ca43705-d.jpg,,
21681336,The Gay Archipelago: Sexuality and Nation in Indonesia,,,,Tom Boellstorff,2005,,Princeton University Press,,320,0,English,201,,,"0691123330,9780691123332",,,,,306.76/6/09598,HQ76.3.I5 B64 2005,,,OL3392518M,,0,,,,,,,1,41032079,pdf,4426F67A11C1F116EC3F2B65000B5F63,,,"4426f67a11c1f116ec3f2b65000b5f63~0691123330,9780691123332.pdf",0,2000-01-01 01:00:00,2016-04-03 02:51:08,388000/4426f67a11c1f116ec3f2b65000b5f63-d.jpg,,
21681337,Osteopathic Diagnosis,,,,"Emanuel Sammut, Patrick Searle-Barnes",1998,,Nelson Thornes,,272,0,English,,,,"0748732969,9780748732968",,,,,,,,,OL7964620M,,0,,,,,1,,1,7480434,pdf,4428EF4236935D5FDE461CD06323CF00,,,"4428ef4236935d5fde461cd06323cf00~0748732969,9780748732968.pdf",0,2000-01-01 01:00:00,2016-04-03 02:51:08,388000/4428ef4236935d5fde461cd06323cf00-d.jpg,,
21681338,Can God and Caesar Coexist?: Balancing Religious Freedom and International Law,,,,Robert F. Drinan S.J.,2004,,Yale University Press,,272,0,English,313,,,"0300100868,9780300100860",,,,,,,,,OL9741769M,,0,,,,,,1,1,907935,pdf,4432C22D2EE5FE697FFF078C0BCEE753,,,"4432c22d2ee5fe697fff078c0bcee753~0300100868,9780300100860.pdf",0,2000-01-01 01:00:00,2016-04-03 02:51:08,388000/4432c22d2ee5fe697fff078c0bcee753-d.jpg,,
21681339,The Vent and Seep Biota: Aspects from Microbes to Ecosystems ,,Topics in Geobiology 33,,"Steffen Kiel, Paul A. Tyler (auth.), Steffen Kiel (eds.)",2010,1,Springer Netherlands,,490,0,English,,,,"9789048195718,9048195713",,,,,,,10.1007/978-90-481-9572-5,,,,0,,,,,,,1,24717485,pdf,4433BD194675CA0E28B53DDB5FDF188E,,,"4433bd194675ca0e28b53ddb5fdf188e~9789048195718,9048195713.pdf",0,2000-01-01 01:00:00,2016-04-03 02:51:08,388000/4433bd194675ca0e28b53ddb5fdf188e-d.jpg,,
21681340,Supply Chain for Liquids: Out of the Box Approaches to Liquid Logistics ,,Resource Management,,Wally Klatch,2005,1,CRC Press,,480,0,English,,,,"0849328535,9780849328534,9781420031300",,,,,660/.042/0685,HD38.5 .K525 2005,,,OL19086320M,,0,,,,,,,1,18125573,pdf,4436A541AAC6F59DE546ACDAF72D7C92,,,"4436a541aac6f59de546acdaf72d7c92~0849328535,9780849328534,9781420031300.pdf",0,2000-01-01 01:00:00,2016-04-03 02:51:08,388000/4436a541aac6f59de546acdaf72d7c92-d.jpg,,
21681341,A Woman's Place: A Novel,,,,Barbara Delinsky,1997,1st,Harpercollins,,368,0,English,,,,"0060175060,9780060175061,9780060880903,9780061095054,0061095052",,,,,813/.54,PS3554.E4427 W67 1997,,,OL1002004M,,0,,,,,1,,1,931234,pdf,4436C7DC07BD71D81A8EC2EE900CF568,,,"4436c7dc07bd71d81a8ec2ee900cf568~0060175060,9780060175061,9780060880903,9780061095054,0061095052.pdf",0,2000-01-01 01:00:00,2016-04-03 02:51:08,388000/4436c7dc07bd71d81a8ec2ee900cf568-d.jpg,,
21681342,More Than Words: An Introduction to Communication,,,,"Graeme Burton, Richard Dimbleby",1998,3,Routledge,,296,0,English,260,,,"9780415170062,9780415170079,0415170060,0415170079,9780203010747",,,,,302.2,P90 .D53 1998,,,OL691746M,,0,,,,,1,1,1,2289830,pdf,4436D554CC9F390AC0B587EEEB9FE845,,,"4436d554cc9f390ac0b587eeeb9fe845~9780415170062,9780415170079,0415170060,0415170079,9780203010747.pdf",0,2000-01-01 01:00:00,2016-04-03 02:51:08,388000/4436d554cc9f390ac0b587eeeb9fe845-d.jpg,,
21681343,Mastering phpMyAdmin 3.1 for Effective MySQL Management,,,,Marc Delisle,2009,4th edition,Packt Publishing,,352,0,English,6,,,"1847197868,9781847197863",,,,,,,,,,,0,,,,,1,,0,10247818,pdf,4437D852C23A5C2914E2AAD23C04F81C,,,"4437d852c23a5c2914e2aad23c04f81c~1847197868,9781847197863.pdf",0,2000-01-01 01:00:00,2016-04-03 02:51:08,388000/4437d852c23a5c2914e2aad23c04f81c-d.jpg,,
21681344,Die Rückkehr der Samurai: Japans Wirtschaft nach der Krise,,,,Albrecht Rothacher,2007,,Springer Berlin Heidelberg,,274,0,German,,,0,"3540451129,978-3-540-45112-9,978-3-540-46960-5",,,,,,,,,,,0,,,,,,1,1,1218424,pdf,4439F7F1BBA6334A055B2556CBCA00F5,,,"4439f7f1bba6334a055b2556cbca00f5~3540451129,9783540451129,9783540469605.pdf",0,2000-01-01 01:00:00,2016-04-03 02:51:08,388000/4439f7f1bba6334a055b2556cbca00f5-d.jpg,,
21681345,The Future of the Natural Gas Market in Southeast Europe,,,,Franz Gerner,2010,,World Bank Publications,,412,0,English,,,,"0821378643,9780821378649,9780821379981",,,,,382/.4228509496,HD9581.B312 F88 2009,10.1596/978-0-8213-7864-9,,OL23861633M,,0,,,,,,1,1,6901111,pdf,4440E65BF2C8066B13DA7C90492676D6,,,"4440e65bf2c8066b13da7c90492676d6~0821378643,9780821378649,9780821379981.pdf",0,2000-01-01 01:00:00,2016-04-03 02:51:08,388000/4440e65bf2c8066b13da7c90492676d6-d.jpg,,
21681346,Surviving Your Divorce: A Guide to Canadian Family Law,,,,Michael G. Cochrane,2007,4,Wiley,,320,0,English,313,,,"047083952X,9780470839522,9780470156407",,,,,,,,,OL24247310M,,0,,,,,,,1,1773795,pdf,4441B4DB3E3E68ECD123A28A4BB2289D,,,"4441b4db3e3e68ecd123a28a4bb2289d~047083952X,9780470839522,9780470156407.pdf",0,2000-01-01 01:00:00,2016-04-03 02:51:08,388000/4441b4db3e3e68ecd123a28a4bb2289d-d.jpg,,
21681347,"Distorting the Law: Politics, Media, and the Litigation Crisis ",,Chicago Series in Law and Society,,"William Haltom, Michael McCann",2004,1,University Of Chicago Press,,332,0,English,313,,,"0226314642,9780226314648,0226314634,9780226314631",,,,,346.7303,KF380 .H35 2004,,,OL3288779M,,0,,,,,1,1,1,1759639,pdf,4441D73CAD4651AD80A08D2FBF6D588E,,,"4441d73cad4651ad80a08d2fbf6d588e~0226314642,9780226314648,0226314634,9780226314631.pdf",0,2000-01-01 01:00:00,2016-04-03 02:51:08,388000/4441d73cad4651ad80a08d2fbf6d588e-d.jpg,,
21681348,Plate Tectonics: Unraveling the Mysteries of the Earth ,,The Living Earth,,Jon Erickson,2001,2 Revised,Facts on File,,320,0,English,38,,,"0816043272,9780816043279,9781438109688",,,,,551.1/36,QE511.4 .E75 2001,,,OL6789261M,,0,,,,,,,1,17379498,pdf,4442BA18E62C849C062CC625CEF7D5AD,,,"4442ba18e62c849c062cc625cef7d5ad~0816043272,9780816043279,9781438109688.pdf",0,2000-01-01 01:00:00,2016-04-03 02:51:08,388000/4442ba18e62c849c062cc625cef7d5ad-d.jpg,,
21681349,Studies on Continuing Vocational Training in Germany: An Empirical Assessment ,,ZEW Economic Studies,,Anja Kuckulenz,2007,1,Physica-Verlag HD,,217,0,English,264,,,"3790819670,9783790819670,9783790819687",,,,,658.5/124,HD5715.5.G4 K83 2007,,,OL16474303M,,0,,,,,1,,1,1110837,pdf,4443AEF1777C1700F87B1BC5ADF91A4D,,,"4443aef1777c1700f87b1bc5adf91a4d~3790819670,9783790819670,9783790819687.pdf",0,2000-01-01 01:00:00,2016-04-03 02:51:08,388000/4443aef1777c1700f87b1bc5adf91a4d-d.jpg,,
21681350,"Occasions of Identity: A Study in the Metaphysics of Persistence, Change, and Sameness",,,,André Gallois,1998,,"Oxford University Press, USA",,312,0,English,264,,,"0198237448,9780198237440",,,,,111/.82,BD236 .G35 1998,,,OL677892M,,0,,,,,,,0,10826504,pdf,4445A8275508D6F747088AF3886CC154,,,"4445a8275508d6f747088af3886cc154~0198237448,9780198237440.pdf",0,2000-01-01 01:00:00,2016-04-03 02:51:08,388000/4445a8275508d6f747088af3886cc154-d.jpg,,
21681351,Encounters in My Travels: Thoughts Along the Way ,,Value Inquiry Book Series 174,,Dixie Lee Harris,2006,,Editions Rodopi B.V.,,151,0,English,,,,"9042017880,9789042017887,9781423791959",,,,,,,,,OL9099788M,,0,,,,,1,1,1,861348,pdf,4446AA8205654AAAB84EF5BAA005CAC1,,,"4446aa8205654aaab84ef5baa005cac1~9042017880,9789042017887,9781423791959.pdf",0,2000-01-01 01:00:00,2016-04-03 02:51:08,388000/4446aa8205654aaab84ef5baa005cac1-d.jpg,,
21681352,Red Wolf: A Novel,,,,Liza Marklund,2011,,Atria,,400,0,English,,,,"1451602065,9781451602067",,,,,,,,,OL24589747M,,0,,,,,,,,478032,epub,4451C4969757089AB361E28871FAACCB,,,"4451c4969757089ab361e28871faaccb~1451602065,9781451602067.epub",0,2000-01-01 01:00:00,2016-04-03 02:51:08,388000/4451c4969757089ab361e28871faaccb-d.jpg,,
21681353,Principles of General Management: The Art and Science of Getting Results Across Organizational Boundaries,,,,"John L. Colley Jr., Prof. Jacqueline L. Doyle, Prof. Robert D. Hardie, Prof. George W. Logan, Wallace Stettinius",2007,,Yale University Press,,488,0,English,181,,,"0300117094,9780300117097,9780300134919",,,,,658,HD31 .P737 2007,,,OL17173199M,,0,,,,,1,,1,1348949,pdf,4451F18C4F26DBD1B2A73C6C8515C0EF,,,"4451f18c4f26dbd1b2a73c6c8515c0ef~0300117094,9780300117097,9780300134919.pdf",0,2000-01-01 01:00:00,2016-04-03 02:51:08,388000/4451f18c4f26dbd1b2a73c6c8515c0ef-d.jpg,,
21681354,Structural Models in Anthropology ,,Cambridge Studies in Social and Cultural Anthropology,,"Per Hage, Frank Harary",1984,,Cambridge University Press,,220,0,English,14,,,"0521273110,9780521273114",,,,,306/.01/5115,GN362 .H33 1983,,,OL3165596M,,0,,,,,,,1,5455877,pdf,4453E14918095E585F7182717C64DF5B,,,"4453e14918095e585f7182717c64df5b~0521273110,9780521273114.pdf",0,2000-01-01 01:00:00,2016-04-03 02:51:08,388000/4453e14918095e585f7182717c64df5b-d.jpg,,
21681355,Trade to Win: Proven Strategies to Make Money ,,Wiley Trading,,"Thomas L. Busby, Patsy Busby Dow",2008,,Wiley,,192,0,English,10,,,"0470285346,9780470285343,9780470420966",,,,,332.64/5,HG4521 .B84 2009,,,OL16900088M,,0,,,,,,,1,3170626,pdf,4454BA73D74C01CE0A6A17152DC18EF6,,,"4454ba73d74c01ce0a6a17152dc18ef6~0470285346,9780470285343,9780470420966.pdf",0,2000-01-01 01:00:00,2016-04-03 02:51:08,388000/4454ba73d74c01ce0a6a17152dc18ef6-d.jpg,,
21681356,Greek Resurrection Beliefs and the Success of Christianity,,,,Dag Øistein Endsjø,2009,,Palgrave Macmillan,,285,0,English,,,,"0230617298,9780230617292",,,,,236/.809,BL505 .E53 2009,,,OL23043068M,,0,,,,,1,1,1,1659057,pdf,4456F0D92FA014CC2BFF0A455D730015,,,"4456f0d92fa014cc2bff0a455d730015~0230617298,9780230617292.pdf",0,2000-01-01 01:00:00,2016-04-03 02:51:08,388000/4456f0d92fa014cc2bff0a455d730015-d.jpg,,
21681357,Building Brand Value the Playboy Way,,,,Susan Gunelius,2009,,Palgrave Macmillan,,256,0,English,236,,,"023057789X,9780230577893,9780230245600,9780230239586",,,,,338.7/61051,PN4900.P5 .G86 2009,,,OL23935897M,,0,,,,,,,,343100,epub,4457B707D3C78D4BA7FD1763D84242D9,,,"4457b707d3c78d4ba7fd1763d84242d9~023057789X,9780230577893,9780230245600,9780230239586.epub",0,2000-01-01 01:00:00,2016-04-03 02:51:08,388000/4457b707d3c78d4ba7fd1763d84242d9-d.jpg,,
21681358,Central Auditory Pathway Disorders,,,,Kimitaka Kaga,2009,1,Springer,,154,0,English,,,,"9784431266549,4431266542",,,,,,,,,OL12410856M,,0,,,,1,0,1,1,3943291,pdf,4457F7E63BDD7E7E2175FAA113817631,,,"4457f7e63bdd7e7e2175faa113817631~9784431266549,4431266542.pdf",0,2000-01-01 01:00:00,2016-04-03 02:51:08,388000/4457f7e63bdd7e7e2175faa113817631-d.jpg,,
21681359,A Companion to Horace ,,Blackwell Companions to the Ancient World,,Gregson Davis,2010,,Wiley-Blackwell,,485,0,English,,,,"140515540X,9781405155403,1444319191,9781444319194",,,,,910.285,GA102.4.E4 C73 2010,,,OL23687601M,,0,,,,0,0,1,1,3735992,pdf,4458A53FE49454EEDBCB2D449CCA9C8F,,,"4458a53fe49454eedbcb2d449cca9c8f~140515540X,9781405155403,1444319191,9781444319194.pdf",0,2000-01-01 01:00:00,2016-04-03 02:51:08,388000/4458a53fe49454eedbcb2d449cca9c8f-d.jpg,,
21681360,"Culture and Performance: The Challenge of Ethics, Politics and Feminist Theory",,,,Vikki Bell,2007,English Ed,Berg Publishers,,224,0,English,,,,"1845201043,9781845201043,1845201051,9781845201050,9781847885449",,,,,,,,,OL22749994M,,0,,,,,1,1,1,612458,pdf,4459BCD39EC7ACF421EB34FFAD612B10,,,"4459bcd39ec7acf421eb34ffad612b10~1845201043,9781845201043,1845201051,9781845201050,9781847885449.pdf",0,2000-01-01 01:00:00,2016-04-03 02:51:08,388000/4459bcd39ec7acf421eb34ffad612b10-d.jpg,,
21681361,Space Based Radar: Theory & Applications,,,,"S Pillai, Ke Yong Li, Braham Himed",2007,1,McGraw-Hill Professional,,434,0,English,212,,,"0071497560,9780071497565,9780071595926",,,,,621.3848/3,TL3285 .P55 2008,10.1036/0071497560,,OL20008510M,,0,,,,,1,1,1,4005406,pdf,4460E95719ED996B58247C92972FDA45,,,"4460e95719ed996b58247c92972fda45~0071497560,9780071497565,9780071595926.pdf",0,2000-01-01 01:00:00,2016-04-03 02:51:08,388000/4460e95719ed996b58247c92972fda45-d.jpg,,
21681362,"Continental rifts:evolution, structure, tectonics",,Developments in Geotectonics 25,,K.H. Olsen (Eds.),2006,,Elsevier Science,,3-466,0,English,,,,"0444895663,9780444895660,9780080529837",0419-0254,,,,551.8/7,QE606 .C684 1995,,,OL535657M,,0,,,,,1,,1,50839741,pdf,4461C8A0C017CA0CEEEBF21E7FD6CDA2,,,"4461c8a0c017ca0ceeebf21e7fd6cda2~0444895663,9780444895660,9780080529837.pdf",0,2000-01-01 01:00:00,2016-04-03 02:51:08,388000/4461c8a0c017ca0ceeebf21e7fd6cda2-d.jpg,,
21681363,The Hamburger: A History ,,Icons of America,,Mr. Josh Ozersky,2008,,Yale University Press,,160,0,English,64,,,"0300117582,9780300117585,0300144490,9780300144499,0300144458,9780300144451,030015125X,9780300151251",,,,,641.8/4,TX749.5.B43 O94 2008,,,OL10319341M,,0,,,,,1,1,1,697901,pdf,4463ED1EC2250782F1A6D59A5047E704,,,"4463ed1ec2250782f1a6d59a5047e704~0300117582,9780300117585,0300144490,9780300144499,0300144458,9780300144451,030015125X,9780300151251.pdf",0,2000-01-01 01:00:00,2016-04-03 02:51:08,388000/4463ed1ec2250782f1a6d59a5047e704-d.jpg,,
21681364,Smoothed Finite Element Methods,,,,G.R. Liu,2010,1,CRC Press,,694,0,English,120,,,"1439820279,9781439820278",,,,,,,,,,,0,,,,,,,1,24209154,pdf,4464D0B5303D45464572C3EBF4F856BC,,,"4464d0b5303d45464572c3ebf4f856bc~1439820279,9781439820278.pdf",0,2000-01-01 01:00:00,2016-04-03 02:51:08,388000/4464d0b5303d45464572c3ebf4f856bc-d.jpg,,
21681365,White Stone Day,,,,John MacLachlan Gray,2005,First Edition,Minotaur Books,,304,0,English,,,,0312282931,,,,,,,,,,,0,,,,,,,,254940,epub,4466A1C3B2564AFE86E0ECC194A10A0E,,,4466a1c3b2564afe86e0ecc194a10a0e~0312282931.epub,0,2000-01-01 01:00:00,2016-04-03 02:51:08,388000/4466a1c3b2564afe86e0ecc194a10a0e-d.jpg,,
21681366,Doing Management Research: A Comprehensive Guide,,,,"Raymond-Alain Thietart, Samantha Wauchope",2001,1,Sage Publications Ltd,,432,0,English,6,,,"0761965165,9780761965169,9781412933629",,,,,,,,,,,0,,,,,,,1,3137675,pdf,4466B6FDCC2D55D927DD552A876CD95F,,,"4466b6fdcc2d55d927dd552a876cd95f~0761965165,9780761965169,9781412933629.pdf",0,2000-01-01 01:00:00,2016-04-03 02:51:08,388000/4466b6fdcc2d55d927dd552a876cd95f-d.jpg,,
21681367,Mastering Statistical Process Control: A Handbook for Performance Improvement Using SPC Cases,,,,Tim Stapenhurst,2005,1,Butterworth-Heinemann,,456,0,English,,,,"0750665297,9780750665292,9781423723417",,,,,658.562015195,TS156.8 .S7513 2005,,,OL3438188M,,0,,,,,,,1,6550899,pdf,4466CB4C73EA8C8E30E26037CD969AF6,,,"4466cb4c73ea8c8e30e26037cd969af6~0750665297,9780750665292,9781423723417.pdf",0,2000-01-01 01:00:00,2016-04-03 02:51:08,388000/4466cb4c73ea8c8e30e26037cd969af6-d.jpg,,
21681368,Sensation Seeking And Risky Behavior,,,,Marvin Zuckerman,2006,1,American Psychological Association (APA),,309,0,English,,,,"1591477387,9781591477389",,,,,,,,,OL22757681M,,0,,,,,,1,1,18625230,pdf,4470F5F1ADC15F0E1DDAF0391E48DD82,,,"4470f5f1adc15f0e1ddaf0391e48dd82~1591477387,9781591477389.pdf",0,2000-01-01 01:00:00,2016-04-03 02:51:08,388000/4470f5f1adc15f0e1ddaf0391e48dd82-d.jpg,,
21681369,The Paradise Snare ,,"Star Wars, The Han Solo Trilogy 1 Book 1",,A.C. Crispin,1997,,Bantam Books,,320,0,English,,,,"0553574159,9780553574159",,,,,,,,,OL7829796M,,0,,,,,1,,,171474,lit,4470FB7B4765E4B7099430448665906A,,,"4470fb7b4765e4b7099430448665906a~0553574159,9780553574159.lit",0,2000-01-01 01:00:00,2016-04-03 02:51:08,388000/4470fb7b4765e4b7099430448665906a-d.jpg,,
21681370,Supplementary Feeding of Sheep and Beef Cattle,,,,David Hinton,2007,2Rev Ed,Landlinks Press,,104,0,English,64,,,"0643092765,9780643092761,9780643094376",,,,,,,,,,,0,,,,,1,,1,3017848,pdf,4472FB820D71B8F5720A67463AF19252,,,"4472fb820d71b8f5720a67463af19252~0643092765,9780643092761,9780643094376.pdf",0,2000-01-01 01:00:00,2016-04-03 02:51:08,388000/4472fb820d71b8f5720a67463af19252-d.jpg,,
21681371,3D Cell-Based Biosensors in Drug Discovery Programs: Microtissue Engineering for High Throughput Screening,,,,William S. Kisaalita,2010,1,CRC Press,,404,0,English,210,,,"1420073494,9781420073492",,,,,,,,,OL11817341M,,0,,,,,,,1,5708232,pdf,4474FADD1A996810DCF9BBF1F0C22674,,,"4474fadd1a996810dcf9bbf1f0c22674~1420073494,9781420073492.pdf",0,2000-01-01 01:00:00,2016-04-03 02:51:08,388000/4474fadd1a996810dcf9bbf1f0c22674-d.jpg,,
21681372,Security Design Consulting: The Business of Security System Design,,,,Brian Gouin,2007,,Butterworth-Heinemann,,352,0,English,1,,,"0750676884,9780750676885,9780080493053",,,,,,,,,,,0,,,,,,,1,7513655,pdf,4475EFAA9C0C13B594A8E649AB99F20D,,,"4475efaa9c0c13b594a8e649ab99f20d~0750676884,9780750676885,9780080493053.pdf",0,2000-01-01 01:00:00,2016-04-03 02:51:08,388000/4475efaa9c0c13b594a8e649ab99f20d-d.jpg,,
21681373,Traditional and Analytical Philosophy: Lectures on the Philosophy of Language,,,,"Ernst Tugendhat, P. A. Gorner",1982,,Cambridge University Press,,450,0,English,195,,,"0521222362,9780521222365",,,,,149/.943,B808.5 .T8313 1982,,,OL4269414M,,600,,,,,,,0,9309083,pdf,4477D374293057F09599C9C24498980F,,,"4477d374293057f09599c9c24498980f~0521222362,9780521222365.pdf",0,2000-01-01 01:00:00,2016-04-03 02:51:08,388000/4477d374293057f09599c9c24498980f-g.jpg,,
21681374,Essential Results of Functional Analysis ,,Chicago Lectures in Mathematics,,Robert J. Zimmer,1990,1,University Of Chicago Press,,168,0,English,117,,,"0226983382,9780226983387",,,,,515,QA320 .Z58 1990,,,OL2206834M,,0,,,,,1,1,1,3899415,pdf,4478AC97C08314CF304B3D9231C103BA,,,"4478ac97c08314cf304b3d9231c103ba~0226983382,9780226983387.pdf",0,2000-01-01 01:00:00,2016-04-03 02:51:08,388000/4478ac97c08314cf304b3d9231c103ba-d.jpg,,
21681375,"Philosophy of Physics,",volume Part A ,Handbook of the Philosophy of Science,,"Jeremy Butterfield, John Earman, Dov M. Gabbay, John Woods, Paul Thagard",2006,,North Holland,,1524,0,English,264,,,"0444530010,9780444530011,9780444515605,0444515607,9780444530028,0444530029",,,,,,,,,OL17207123M,,0,,,,,,1,1,10325531,pdf,4478B9AD05F0DD9EF19A48DB91B8A8C8,,,"4478b9ad05f0dd9ef19a48db91b8a8c8~0444530010,9780444530011,9780444515605,0444515607,9780444530028,0444530029.pdf",0,2000-01-01 01:00:00,2016-04-03 02:51:08,388000/4478b9ad05f0dd9ef19a48db91b8a8c8-d.jpg,,
21681376,New Perspectives in Caribbean Tourism ,,Routledge Advances in Tourism,,"Marcella Daye, Donna Chambers, Sherma Roberts",2008,1,Routledge,,278,0,English,,,,"0415958385,9780415958387,9780203931271",,,,,338.4/791729,G155.C35 N49 2008,,,OL10208793M,,0,,,,,1,1,1,2436742,pdf,4478CC3433ACE9CAA6A3C61C23006E09,,,"4478cc3433ace9caa6a3c61c23006e09~0415958385,9780415958387,9780203931271.pdf",0,2000-01-01 01:00:00,2016-04-03 02:51:08,388000/4478cc3433ace9caa6a3c61c23006e09-d.jpg,,
21681377,Writing the Trail: Five Women's Frontier Narratives,,,,Deborah Lawrence,2006,,University Of Iowa Press,,170,0,English,,,,"1587295091,9781587295096,9781587297304",,,,,,,,,OL8824031M,,0,,,,,1,,1,1134627,pdf,4479E2DA6F481ECF2C0046271D5B1E7C,,,"4479e2da6f481ecf2c0046271d5b1e7c~1587295091,9781587295096,9781587297304.pdf",0,2000-01-01 01:00:00,2016-04-03 02:51:08,388000/4479e2da6f481ecf2c0046271d5b1e7c-d.jpg,,
21681378,"Republicanism: History, Theory, Practice",,,,"Christian Nadeau, Daniel Weinstock",2004,1,Routledge,,194,0,English,64,,,"0714684805,9780714684802",,,,,321.8/6,JC421 .R44 2004,,,OL22592126M,,0,,,,,,1,1,4314565,pdf,4480A55D58EEE88B622766A55A1E2319,,,"4480a55d58eee88b622766a55a1e2319~0714684805,9780714684802.pdf",0,2000-01-01 01:00:00,2016-04-03 02:51:08,388000/4480a55d58eee88b622766a55a1e2319-d.jpg,,
21681379,"The Digital Hand, Vol 3: How Computers Changed the Work of American Public Sector Industries",,,,James W. Cortada,2007,1,"Oxford University Press, USA",,496,0,English,69,,,"0195165861,9780195165869,9781435631465",,,,,,,,,OL17247026M,,0,,,,,1,,1,2863868,pdf,4480B28E98E98D8317AD748E07F0CCF6,,,"4480b28e98e98d8317ad748e07f0ccf6~0195165861,9780195165869,9781435631465.pdf",0,2000-01-01 01:00:00,2016-04-03 02:51:08,388000/4480b28e98e98d8317ad748e07f0ccf6-d.jpg,,
21681380,The Companions of Doctor Who: K9 and Company ,,A Target book,,Terence Dudley,1987,1St Edition,W. H. Allen & Co.,,160,0,English,,,,0426203097,,,,,,,,,,,0,,,,,,,1,1408859,pdf,4481BAED344FE421DD83E440EA432121,,,4481baed344fe421dd83e440ea432121~0426203097.pdf,0,2000-01-01 01:00:00,2016-04-03 02:51:08,388000/4481baed344fe421dd83e440ea432121-g.jpg,,
21681381,Discrete Mathematics and Its Applications,,,,Kenneth H. Rosen,1998,4th,McGraw-Hill Science/Engineering/Math,,720,0,English,113,,,"9780072899054,0072899050",,,,,511,QA39.2 .R654 1999,,,OL381881M,,0,,,,0,1,,0,15862716,pdf,4482A64C98A0C8764635776BE7B28C52,,,"4482a64c98a0c8764635776be7b28c52~9780072899054,0072899050.pdf",0,2000-01-01 01:00:00,2016-04-03 02:51:08,388000/4482a64c98a0c8764635776be7b28c52-d.jpg,,
21681382,An Ordinary Man ,,Isis Hardcover Large Print,,"Paul Rusesabagina, Tom Zoellner",2008,,ISIS Large Print Books,,248,0,English,,,,"0753194066,9780753194065",,,,,,,,,,,0,,,,,,,,622725,epub,4482AB9469433694B53E20766D463D74,,,"4482ab9469433694b53e20766d463d74~0753194066,9780753194065.epub",0,2000-01-01 01:00:00,2016-04-03 02:51:08,388000/4482ab9469433694b53e20766d463d74-d.jpg,,
21681383,Digital Image Processing with Application to Digital Cinema,,,,KS Thyagarajan,2006,,Focal Press,,399,0,English,60,,,"0240807294,9780240807294,9781423763680",,,,,,,,,OL9386890M,,0,,,,1,0,,1,10024370,pdf,4485A0BE8493D8DA61288BFC9059D603,,,"4485a0be8493d8da61288bfc9059d603~0240807294,9780240807294,9781423763680.pdf",0,2000-01-01 01:00:00,2016-04-03 02:51:08,388000/4485a0be8493d8da61288bfc9059d603-d.jpg,,
21681384,Grey Information: Theory and Practical Applications ,,Advanced Information and Knowledge Processing,,"Sifeng Liu, Yi Lin",2005,1st Edition.,Springer,,504,0,English,,,,"1852339950,9781852339951,9781846283420",,,,,,,,,OL8974533M,,0,,,,,,,1,2948204,pdf,4485B64477A8DA91EF0475FE7AC1377E,,,"4485b64477a8da91ef0475fe7ac1377e~1852339950,9781852339951,9781846283420.pdf",0,2000-01-01 01:00:00,2016-04-03 02:51:08,388000/4485b64477a8da91ef0475fe7ac1377e-d.jpg,,
21681385,"Moveable Feasts: The History, Science, and Lore of Food",,,,Gregory McNamee,2006,,Praeger,,216,0,English,64,,,"0275989313,9780275989316,9780313064173",,,,,641.3,TX353 .M395 2007,,,OL10289685M,,0,,,,,,,1,1969538,pdf,4486C2D091D03AA83838221457CAD7BD,,,"4486c2d091d03aa83838221457cad7bd~0275989313,9780275989316,9780313064173.pdf",0,2000-01-01 01:00:00,2016-04-03 02:51:08,388000/4486c2d091d03aa83838221457cad7bd-d.jpg,,
21681386,Hermeneutics and Hindu Thought: Toward a Fusion of Horizons,,,,"Rita Sherma, Rita Sherma, Arvind Sharma",2008,1,Springer,,255,0,English,,,,"140208191X,9781402081910,1402081928,9781402081927",,,,,,,,,OL17064763M,,0,,,,,,,1,2800226,pdf,4486EF77998D0E60A21837F89940E8EE,,,"4486ef77998d0e60a21837f89940e8ee~140208191X,9781402081910,1402081928,9781402081927.pdf",0,2000-01-01 01:00:00,2016-04-03 02:51:08,388000/4486ef77998d0e60a21837f89940e8ee-d.jpg,,
21681387,Meno and Other Dialogues ,,Oxford World's Classics,,"Plato, Robin Waterfield",2005,,"Oxford University Press, USA",,244,0,English,,,,"9780191516801,9780192804259,0192804251",,,,,,,,,OL17173995M,,0,,,,0,0,1,1,2247698,pdf,4487ABAA694A22C33EB79E81B02A50D0,,,"4487abaa694a22c33eb79e81b02a50d0~9780191516801,9780192804259,0192804251.pdf",0,2000-01-01 01:00:00,2016-04-03 02:51:08,388000/4487abaa694a22c33eb79e81b02a50d0-d.jpg,,
21681388,Velocity Speed with Direction...professional Career of Gen Jerome F. O'Malley,,,,"Aloysius G. & Patricai A. Casey, Photos",2007,,Air University Press,,298,0,English,183,,,"1585661694,9781585661695,9781435622050",,,,,,,,,OL16638895M,,0,,,,,1,,1,7739775,pdf,4487ADBF61AA38329CB7D7BB5CF05706,,,"4487adbf61aa38329cb7d7bb5cf05706~1585661694,9781585661695,9781435622050.pdf",0,2000-01-01 01:00:00,2016-04-03 02:51:08,388000/4487adbf61aa38329cb7d7bb5cf05706-g.jpg,,
21681389,"El Metodo Sedona / The Sedona Method: La Clave Para Lograr el Exito, Las Paz y el Bienestar Emocional Duradero / Your Key to Lasting Happiness, ... and Emotional Well-Being ",,,,Hale Dwoskin,2003,Tra,Editorial Sirio,,378,0,Spanish,,,,"8478084762,9788478084760",,,,,,,,,OL13310627M,,0,,,,,1,,1,1599657,pdf,4487C9AB0C9364137DD42B5D531DC459,,,"4487c9ab0c9364137dd42b5d531dc459~8478084762,9788478084760.pdf",0,2000-01-01 01:00:00,2016-04-03 02:51:08,388000/4487c9ab0c9364137dd42b5d531dc459-d.jpg,,
21681390,The Philosophy of International Law,,,,"Samantha Besson, John Tasioulas",2010,,"Oxford University Press, USA",,624,0,English,313,,,"0199208573,9780199208579,0199208581,9780199208586",,,,,,,,,OL24522900M,,0,,,,,1,1,1,4013363,pdf,4488C61DFE73838F7FDCF09F5956C025,,,"4488c61dfe73838f7fdcf09f5956c025~0199208573,9780199208579,0199208581,9780199208586.pdf",0,2000-01-01 01:00:00,2016-04-03 02:51:08,388000/4488c61dfe73838f7fdcf09f5956c025-d.jpg,,
21681391,Interactive Multimedia in Education and Training,,,,"Sanjaya Mishra, Ramesh C. Sharma",2004,,IGI Global,,417,0,English,183,,,"1591403944,9781591403944,1591403936,9781591403937",,,,,,,,,OL15570403M,,0,,,,,0,,1,5057419,pdf,4490B2424FFACA52BE28FB2EACECB06D,,,"4490b2424ffaca52be28fb2eacecb06d~1591403944,9781591403944,1591403936,9781591403937.pdf",0,2000-01-01 01:00:00,2016-04-03 02:51:08,388000/4490b2424ffaca52be28fb2eacecb06d-d.jpg,,
21681392,Effective Techniques for Application Development with Visual FoxPro 6.0,,,,"Steve Sawyer, Jim Booth, Stephen P. Dingle",1998,,Hentzenwerke Publishing,,414,0,English,94,,,"0965509370,9780965509374",,,,,,,,,OL8530104M,,0,,,,,1,,,1306757,chm,4492F5CB03E7099DC45C158817ADE658,,,"4492f5cb03e7099dc45c158817ade658~0965509370,9780965509374.chm",0,2000-01-01 01:00:00,2016-04-03 02:51:08,388000/4492f5cb03e7099dc45c158817ade658-d.jpg,,
21681393,The Newlyweds' Guide to Investing & Personal Finance,,,,"Carrie Coghill Martin, Evan M. Pattak, Carrie Coghill Martin",2001,,Career Press,,224,0,English,305,,,"1564145735,9781564145734,9780585417295",,,,,,,,,OL8646939M,,0,,,,,,1,1,1579250,pdf,4495C9B09595A8773CAD7732AC42AC13,,,"4495c9b09595a8773cad7732ac42ac13~1564145735,9781564145734,9780585417295.pdf",0,2000-01-01 01:00:00,2016-04-03 02:51:08,388000/4495c9b09595a8773cad7732ac42ac13-d.jpg,,
21681394,Singular Integral Operators,,,,"Solomon G. Mikhlin, Siegfried Prößdorf, A. Böttcher, R. Lehmann",1987,1,Springer,,524,0,English,142,,,"3540159673,9783540159674,0387159673,9780387159676,3055000293,9783055000294",,,,,515.7/23,QA329.6 .M5413 1986b,,,OL2467766M,,600,,,,0,1,,1,7398170,djvu,4496B157C1AB42C2AE1B78470BBC8B0E,,,"4496b157c1ab42c2ae1b78470bbc8b0e~3540159673,9783540159674,0387159673,9780387159676,3055000293,9783055000294.djvu",0,2000-01-01 01:00:00,2016-04-03 02:51:08,388000/4496b157c1ab42c2ae1b78470bbc8b0e-d.jpg,,
21681395,Opium ,,Drugs: The Straight Facts,,Thomas Santella,2006,,Chelsea House Publications,,112,0,English,302,,,"0791085473,9780791085479,9781438102139",,,,,,,,,OL8159948M,,0,,,,,1,,1,4147328,pdf,4497FD6208D078E2CBEA85DBFEF364D5,,,"4497fd6208d078e2cbea85dbfef364d5~0791085473,9780791085479,9781438102139.pdf",0,2000-01-01 01:00:00,2016-04-03 02:51:08,388000/4497fd6208d078e2cbea85dbfef364d5-d.jpg,,
21681396,Recent Advances in Memetic Algorithms ,,Studies in Fuzziness and Soft Computing,,"William E. Hart, Natalio Krasnogor, J.E. Smith",2004,1,Springer,,408,0,German,71,,,"3540229043,9783540229049,9783540323631",,,,,,,,,OL9054934M,,0,,,,,1,,1,22671131,pdf,4499CE3330F1A82FDE1EA98216334EC2,,,"4499ce3330f1a82fde1ea98216334ec2~3540229043,9783540229049,9783540323631.pdf",0,2000-01-01 01:00:00,2016-04-03 02:51:08,388000/4499ce3330f1a82fde1ea98216334ec2-d.jpg,,
21681397,"Be Very Afraid: The Cultural Response to Terror, Pandemics, Environmental Devastation, Nuclear Annihilation, and Other Threats",,,,Robert Wuthnow,2010,,"Oxford University Press, USA",,305,0,English,31,,,"0199730873,9780199730872",,,,,303.48/5,HV551.2 .W88 2010,,,OL23712328M,,0,,,,0,1,1,1,3463101,pdf,4500F0DF021087E730B69082908619E0,,,"4500f0df021087e730b69082908619e0~0199730873,9780199730872.pdf",0,2000-01-01 01:00:00,2016-04-03 02:51:08,388000/4500f0df021087e730b69082908619e0-d.jpg,,
21681398,Uniforms of the Soldiers of Fortune,,,,"Leroy Thompson, Ken MacSwan",1985,1st,Blandford Press,,159,0,English,,,,"9780713713282,0713713283",,,,,355.3/5,UB321,,,OL21671141M,,0,,,,,1,,0,21339649,pdf,4501CC01CAFCE0341FE78B28F9820967,,,"4501cc01cafce0341fe78b28f9820967~9780713713282,0713713283.pdf",0,2000-01-01 01:00:00,2016-04-03 02:51:08,388000/4501cc01cafce0341fe78b28f9820967-g.jpg,,
21681399,The Acquisition of Intensifiers: Emphatic Reflexives in English and German Child Language ,,Studies on Language Acquisition,,Insa Gulzow,2006,,Mouton de Gruyter,,294,0,English,314,,,"3110185911,9783110185911",,,,,435/.6,PF3315.R4 G85 2006,,,OL22730167M,,0,,,,,,,1,927487,pdf,4503FEF8985899623DC1516683E1B722,,,"4503fef8985899623dc1516683e1b722~3110185911,9783110185911.pdf",0,2000-01-01 01:00:00,2016-04-03 02:51:08,388000/4503fef8985899623dc1516683e1b722-d.jpg,,
21681400,Germany in the Eighteenth-Century: The Social Backgound of the Literary Revival,,,,W.H. Bruford,1935,,Cambridge University Press,,362,0,English,,,,"0521092590,9780521092593",,,,,309.14305,,,,OL22619648M,,0,,,,,,,1,12505225,pdf,4507EBB0AB7A5C72B7C49F81991BDB87,,,"4507ebb0ab7a5c72b7c49f81991bdb87~0521092590,9780521092593.pdf",0,2000-01-01 01:00:00,2016-04-03 02:51:08,388000/4507ebb0ab7a5c72b7c49f81991bdb87-d.jpg,,
21681401,Erfindungen (die unsere Welt veränderten),,"Was ist was?, Bd.35",,"Paul E. Blackwood, Irvin Robbin, Anne-Lies Ihme, Gerd Werner",1966,,Tessloff,,50,0,German,,,,"3788602759,9783788602758",,,,,,,,,OL12914272M,,0,,,,,,,1,16344274,pdf,4508D3932E9D22C8EE277543CE909BD4,,,"4508d3932e9d22c8ee277543ce909bd4~3788602759,9783788602758.pdf",0,2000-01-01 01:00:00,2016-04-03 02:51:08,388000/4508d3932e9d22c8ee277543ce909bd4-d.jpg,,
21681402,Carry on Understudies: Theatre and Sexual Politics,,,,Michelene Wandor,1986,,Routledge,,224,0,English,201,,,"9780710208170,0710208170,9780710209375,0710209371,0203450779,9780203450772,9780203459522",,,,,792/.09/09352042,PN2595.13.W65 W36 1986,,,OL2548143M,,0,,,,,1,1,1,1121470,pdf,4509B568FC5D642778D00C2AD26A36C8,,,"4509b568fc5d642778d00c2ad26a36c8~9780710208170,0710208170,9780710209375,0710209371,0203450779,9780203450772,9780203459522.pdf",0,2000-01-01 01:00:00,2016-04-03 02:51:08,388000/4509b568fc5d642778d00c2ad26a36c8-g.jpg,,
21681403,The Attractive Empire: Transnational Film Culture in Imperial Japan,,,,Michael Baskett,2008,1,University of Hawaii Press,,216,0,English,,,,"0824831632,9780824831639",,,,,791.430952,PN1993.5.J3 B38 2008,,,OL16789864M,,0,,,,,1,,1,3063974,pdf,4510DB63F09991429EC8400498E3FAED,,,"4510db63f09991429ec8400498e3faed~0824831632,9780824831639.pdf",0,2000-01-01 01:00:00,2016-04-03 02:51:08,388000/4510db63f09991429ec8400498e3faed-d.jpg,,
21681404,Writing from Start to Finish: A Six-Step Guide,,,,Kate Grenville,2002,,Allen & Unwin,,224,0,English,,,,"1865085146,9781865085142,9781741150469",,,,,,,,,OL24287973M,,0,,,,,1,,1,1789721,pdf,4511DD43CE3ABCF7A3C9A946F88DC5C3,,,"4511dd43ce3abcf7a3c9a946f88dc5c3~1865085146,9781865085142,9781741150469.pdf",0,2000-01-01 01:00:00,2016-04-03 02:51:08,388000/4511dd43ce3abcf7a3c9a946f88dc5c3-d.jpg,,
21681405,Tales of the Yanomami: Daily Life in the Venezuelan Forest,,Canto Original Series,,Jacques Lizot,1991,,Cambridge University Press,,216,0,English,,,0,"0521406722,9780521406727",,,,,,,,,,,0,,,,,,,1,23806863,pdf,4515A05B0C4D26068F69858D7AB8D115,,,"4515a05b0c4d26068f69858d7ab8d115~0521406722,9780521406727.pdf",0,2000-01-01 01:00:00,2016-04-03 02:51:08,388000/4515a05b0c4d26068f69858d7ab8d115-d.jpg,,
21681406,Protecting Life on Earth: An Introduction to the Science of Conservation,,,,"Michael P. Marchetti, Peter B. Moyle",2010,1,University of California Press,,233,0,English,181,,,"0520264320,9780520264328",,,,,578.68,QL82 .M358 2010,,,OL23988813M,,0,,,,,,1,1,7844293,pdf,4515D49CF671EBC51F7BB3AFA50CF431,,,"4515d49cf671ebc51f7bb3afa50cf431~0520264320,9780520264328.pdf",0,2000-01-01 01:00:00,2016-04-03 02:51:08,388000/4515d49cf671ebc51f7bb3afa50cf431-d.jpg,,
21681407,The transforming God,,,,Tyron L. Inbody,1997,1st,Westminster John Knox Press,,244,0,English,,,,"0664257119,9780664257118,9780585288819",,,,,231/.8,BT732.7 .I55 1997,,,OL999040M,,0,,,,,,1,1,1333124,pdf,4515D2558D557A823708D663F8F015F1,,,"4515d2558d557a823708d663f8f015f1~0664257119,9780664257118,9780585288819.pdf",0,2000-01-01 01:00:00,2016-04-03 02:51:08,388000/4515d2558d557a823708d663f8f015f1-d.jpg,,
21681408,Understanding Early Childhood: Issues and Controversies,,,,Helen Penn,2004,1,Open University Press,,216,0,English,,,,"0335211348,9780335211340,9780335227433",,,,,305.231,,,,OL10561797M,,0,,,,,1,,1,1308332,pdf,4519DEF16CC01A7B5CA0AEED42801AF5,,,"4519def16cc01a7b5ca0aeed42801af5~0335211348,9780335211340,9780335227433.pdf",0,2000-01-01 01:00:00,2016-04-03 02:51:08,388000/4519def16cc01a7b5ca0aeed42801af5-d.jpg,,
21681409,Routledge Philosophy GuideBook to Heidegger and Being and Time ,,Routledge Philosophy GuideBooks,,Stephen Mulhall,1996,,Routledge,,224,0,English,195,,,"9780203196557,9780415100922,9780415100939,9780415357197,9780415357203,0415100925,0415100933,0415357195,0415357209,9780203003084",,,,,111,B3279.H48 S46654 2005,,,OL22709411M,,0,,,,,1,1,1,868055,pdf,4519E97BB0A4ED6F9697276D0678209E,,,"4519e97bb0a4ed6f9697276d0678209e~9780203196557,9780415100922,9780415100939,9780415357197,9780415357203,0415100925,0415100933,0415357195,0415357209,9780203003084.pdf",0,2000-01-01 01:00:00,2016-04-03 02:51:08,388000/4519e97bb0a4ed6f9697276d0678209e-d.jpg,,
21681410,Adventures of Tom Sawyer ,,,,Mark Twain,2006,Webster's French Thesaurus Edition ,"ICON Group International, Inc.",,270,0,English,314,,,"0497256525,9780497256524,9781423780472",,,,,,,,,OL7652865M,,0,,,,,1,,1,2193654,pdf,4521B8BAF41BD963794759E4AB231DF6,,,"4521b8baf41bd963794759e4ab231df6~0497256525,9780497256524,9781423780472.pdf",0,2000-01-01 01:00:00,2016-04-03 02:51:08,388000/4521b8baf41bd963794759e4ab231df6-d.jpg,,
21681411,Understanding Truth,,,,Scott Soames,1998,,"Oxford University Press, USA",,283,0,English,,,,"0195123352,9780195123357,9781423760153",,,,,121,BC171 .S63 1999,,,OL691415M,,0,,,,0,1,1,0,31104696,pdf,4523E1F0E51C3C72CBE68836DAB767DF,,,"4523e1f0e51c3c72cbe68836dab767df~0195123352,9780195123357,9781423760153.pdf",0,2000-01-01 01:00:00,2016-04-03 02:51:08,388000/4523e1f0e51c3c72cbe68836dab767df-d.jpg,,
21681412,Toni Morrison's Beloved ,,Bloom's Guides,,Harold Bloom,2003,,Chelsea House Publications,,130,0,English,64,,,"0791075702,9780791075708",,,,,813/.54,PS3563.O8749 B433 2004,,,OL3675738M,,0,,,,,1,1,1,687544,pdf,4524DB4D87291765DB88C1A010D3589A,,,"4524db4d87291765db88c1a010d3589a~0791075702,9780791075708.pdf",0,2000-01-01 01:00:00,2016-04-03 02:51:08,388000/4524db4d87291765db88c1a010d3589a-d.jpg,,
21681413,Morse Theory ,,Annals of Mathematic Studies AM-51,,John Milnor,1963,1St Edition,Princeton University Press,,160,0,English,121,,,"0691080089,9780691080086",,,,,,,,,OL18115304M,,0,,,,,,,1,1654249,djvu,4524F04D67538243C23B4B7F49952B38,,,"4524f04d67538243c23b4b7f49952b38~0691080089,9780691080086.djvu",0,2000-01-01 01:00:00,2016-04-03 02:51:08,388000/4524f04d67538243c23b4b7f49952b38-d.jpg,,
21681414,Easy Ways to Lower Your Taxes: Simple Strategies Every Taxpayer Should Know ,,USA Today/Nolo Series,,"Sandra Block, Stephen Fishman J.D.",2008,1,NOLO,,288,0,English,,,,"1413309135,9781413309133",,,,,343.7305/2,KF6297 .F67 2008,,,OL16819987M,,0,,,,,,1,1,7742374,pdf,4525ADCEFE9951132061CB1C08EDD360,,,"4525adcefe9951132061cb1c08edd360~1413309135,9781413309133.pdf",0,2000-01-01 01:00:00,2016-04-03 02:51:08,388000/4525adcefe9951132061cb1c08edd360-d.jpg,,
21681415,"Marxism after Modernity: Politics, Technology and Social Transformation",,,,Ross Abbinnett,2007,First Edition,Palgrave Macmillan,,256,0,English,,,,"1403941246,9781403941244,9780230627543",,,,,,,,,OL18278121M,,0,,,,,1,1,1,807152,pdf,4525D6EE17EFBDEAC43DD9473F89362D,,,"4525d6ee17efbdeac43dd9473f89362d~1403941246,9781403941244,9780230627543.pdf",0,2000-01-01 01:00:00,2016-04-03 02:51:08,388000/4525d6ee17efbdeac43dd9473f89362d-d.jpg,,
21681416,Disposer de la nature ,,,,Igor Babou,,,l'Harmattan,,216,0,French,,,,"2296101054,9782296101050",,,,,,,,,OL24803253M,,0,,,,,1,,1,13145455,pdf,4527CB7C393F733A2467483D6DD6CE8D,,,"4527cb7c393f733a2467483d6dd6ce8d~2296101054,9782296101050.pdf",0,2000-01-01 01:00:00,2016-04-03 02:51:08,388000/4527cb7c393f733a2467483d6dd6ce8d-d.jpg,,
21681417,Perimeter Security,,,,Michael Arata,2005,1,McGraw-Hill Professional,,354,0,English,210,,,"0071460284,9780071460286,9780071589161",,,,,,,10.1036/0071460284,,OL24246311M,,0,,,,,1,,1,3401180,pdf,4529EC234A84C3232D580355BF25233C,,,"4529ec234a84c3232d580355bf25233c~0071460284,9780071460286,9780071589161.pdf",0,2000-01-01 01:00:00,2016-04-03 02:51:08,388000/4529ec234a84c3232d580355bf25233c-d.jpg,,
21681418,PCs Just the Steps For Dummies ,,For Dummies Computer/Tech,,Nancy C. Muir,2006,,For Dummies,,240,0,English,183,,,"0471757942,9780471757948,9780470037829",,,,,004.16,QA76.5 .M767 2006,,,OL22650351M,,0,,,,,,,1,9981487,pdf,4530B0F2046138BB69CB0DE11A551BF6,,,"4530b0f2046138bb69cb0de11a551bf6~0471757942,9780471757948,9780470037829.pdf",0,2000-01-01 01:00:00,2016-04-03 02:51:08,388000/4530b0f2046138bb69cb0de11a551bf6-d.jpg,,
21681419,"Television Across Asia: TV Industries, Programme Formats and Globalisation ",,"Media, Culture and Social Change in Asia Series",,"Michael Keane, Albert Moran",2003,1,Routledge,,238,0,English,,,,"9780415309059,0415309050,0203180518,9780203180518,9780203354100",,,,,384.55/32/095,HE8700.9.A78 T44 2004,,,OL22553411M,,0,,,,,1,1,1,3203276,pdf,4530EC7E69631EE8CD8E2F5A6DE8453F,,,"4530ec7e69631ee8cd8e2f5a6de8453f~9780415309059,0415309050,0203180518,9780203180518,9780203354100.pdf",0,2000-01-01 01:00:00,2016-04-03 02:51:08,388000/4530ec7e69631ee8cd8e2f5a6de8453f-d.jpg,,
21681420,Advances in Pharmacology,,Advances in Pharmacology 2,,Silvio Garattini and Parkhurst A. Shore (Eds.),1963,,Academic Press,,"ii-v, 1-392",0,English,19,,,978-0-12-032902-1,1054-3589,,,,,,,,,,0,,,,,1,,1,23204606,pdf,4531D4662804AAA43D1C8356485EA668,,,"4531d4662804aaa43d1c8356485ea668~9780080580920,9780120329021,0120329026.pdf",0,2000-01-01 01:00:00,2016-04-03 02:51:08,388000/4531d4662804aaa43d1c8356485ea668-d.jpg,,
21681421,A History of Christianity in India: 1707-1858 ,Vol 2 ,,,Stephen Neill,1985,,Cambridge University Press,,592,0,English,64,,,"9780521303767,9780511520563,0521893321,0521303761,0511520565,9780521893329",,,,,209/.54,BR1155 .N392 1985,,,OL2866171M,,0,,,,,1,,1,3906499,djvu,4532B5D759A36D510905045F4BA9954B,,,"4532b5d759a36d510905045f4ba9954b~9780521303767,9780511520563,0521893321,0521303761,0511520565,9780521893329.djvu",0,2000-01-01 01:00:00,2016-04-03 02:51:08,388000/4532b5d759a36d510905045f4ba9954b-d.gif,,
21681422,"English Dramatic Interludes, 1300-1580: A Reference Guide",,,,Darryll Grantley,2004,,Cambridge University Press,,444,0,English,,,,"0521820782,9780521820783,9780511195785",,,,,016.822/041,"Z2014.D7 G73 2004,PR643.I57 G73 2004",,,OL22579433M,,0,,,,,1,1,1,2644251,pdf,4534C2CD4CDEB8FE85CB022E2492820A,,,"4534c2cd4cdeb8fe85cb022e2492820a~0521820782,9780521820783,9780511195785.pdf",0,2000-01-01 01:00:00,2016-04-03 02:51:08,388000/4534c2cd4cdeb8fe85cb022e2492820a-d.jpg,,
21681423,Philosophy of Science: Contemporary Readings ,,Routledge Contemporary Readings in Philosophy,,"Yuri Balashov, Alex Rosenberg",2002,1,Routledge,,531,0,English,195,,,"0415257816,9780415257817,0415257824,9780415257824",,,,,,,,,OL18168586M,,300,,,,,,,0,2885321,djvu,4534D16E4E5C1969BB5B411BF5F67973,c64a42a6ae49fce27009f01112b0c27f,no,"4534d16e4e5c1969bb5b411bf5f67973~0415257816,9780415257817,0415257824,9780415257824.djvu",0,2000-01-01 01:00:00,2016-04-03 02:51:08,388000/4534d16e4e5c1969bb5b411bf5f67973-d.jpg,,
21681424,"Bacchylides: Politics, Performance, Poetic Tradition ",,Oxford Classical Monographs,,David Fearn,2007,1,"Oxford University Press, USA",,400,0,English,,,,"0199215502,9780199215508,9780191526961",,,,,,,,,OL10145772M,,0,,,,,1,1,1,1776162,pdf,4535C0238DA293F4EE32061CA11C564A,,,"4535c0238da293f4ee32061ca11c564a~0199215502,9780199215508,9780191526961.pdf",0,2000-01-01 01:00:00,2016-04-03 02:51:08,388000/4535c0238da293f4ee32061ca11c564a-d.jpg,,
21681425,Cultural Codes: Makings of a Black Music Philosophy,,,,William C. Banfield,2010,,"The Scarecrow Press, Inc.",,255,0,English,195,,,"0810872862,9780810872868,9780810872875",,,,,780.89/96073,ML3479 .B364 2010,,,OL23713119M,,0,,,,,,1,1,1916375,pdf,4539EAE560A00981160BC3B96801108A,,,"4539eae560a00981160bc3b96801108a~0810872862,9780810872868,9780810872875.pdf",0,2000-01-01 01:00:00,2016-04-03 02:51:08,388000/4539eae560a00981160bc3b96801108a-d.jpg,,
21681426,Egg Bioscience and Biotechnology,,,,Yoshinori Mine Ph.D,2008,,Wiley-Interscience,,366,0,English,17,,,"0470039981,9780470039984,9780470181232",,,,,660.6,TP248.65.E35 E32 2007,,,OL10278530M,,0,,,,,1,,1,2718222,pdf,4540E3B418CFCD6D6703E7EC250667AB,,,"4540e3b418cfcd6d6703e7ec250667ab~0470039981,9780470039984,9780470181232.pdf",0,2000-01-01 01:00:00,2016-04-03 02:51:08,388000/4540e3b418cfcd6d6703e7ec250667ab-d.jpg,,
21681427,99 Jumpstarts for Kids' Science Research,,,,"Peggy J. Whitley, Susan W. Goodwin",2005,,Libraries Unlimited,,264,0,English,181,,,"159158261X,9781591582618",,,,,507.8,Q182.3 .W52 2005,,,OL3414681M,,0,,,,,1,1,1,24104666,pdf,4542D864D9BD3C705D11A2F243690C7F,,,"4542d864d9bd3c705d11a2f243690c7f~159158261X,9781591582618.pdf",0,2000-01-01 01:00:00,2016-04-03 02:51:08,388000/4542d864d9bd3c705d11a2f243690c7f-d.jpg,,
21681428,The Abingdon Preaching Annual 2004,,,,David N. Mosser,2003,2004#2004#e.,Abingdon Press,,444,0,English,,,,"0687027012,9780687027019",,,,,,,,,OL7723904M,,0,,,,,1,1,1,1316809,pdf,4542EA66516C9B3C29C52CAA6E7D75F7,,,"4542ea66516c9b3c29c52caa6e7d75f7~0687027012,9780687027019.pdf",0,2000-01-01 01:00:00,2016-04-03 02:51:08,388000/4542ea66516c9b3c29c52caa6e7d75f7-d.jpg,,
21681429,Economic Development and Multilateral Trade Cooperation ,,World Bank Trade and Development Series,,"Simon J. Evenett, Bernard M. Hoekman",2005,,World Bank Publications,,500,0,English,305,,,"0821360639,9780821360637,9780821360644",,,,,382/.92,HD87 .E255 2005,10.1596/978-0-8213-6063-7,,OL3422844M,,0,,,,,1,,1,2547409,pdf,4542FF17FE9EB940AAA0A6E1EBB3020A,,,"4542ff17fe9eb940aaa0a6e1ebb3020a~0821360639,9780821360637,9780821360644.pdf",0,2000-01-01 01:00:00,2016-04-03 02:51:08,388000/4542ff17fe9eb940aaa0a6e1ebb3020a-d.jpg,,
21681430,"Handbook of Psychology, Experimental Psychology",volume 4,,,"Alice F. Healy, Robert W. Proctor, Irving B. Weiner",2004,,Wiley,,714,0,English,,,,"047166667X,9780471666677",,,,,,,,,OL7619855M,,0,,,,,1,1,1,5233343,pdf,4543B38DE67676F5C83FAF8BEFCDC687,,,"4543b38de67676f5c83faf8befcdc687~047166667X,9780471666677.pdf",0,2000-01-01 01:00:00,2016-04-03 02:51:08,388000/4543b38de67676f5c83faf8befcdc687-d.jpg,,
21681431,"Film Directing Fundamentals, : See Your Film Before Shooting",,,,Nicholas Proferes,2004,2,Focal Press,,296,0,English,210,,,"0240805623,9780240805627,9781423708247",,,,,791.4302/33,PN1995.9.P7 P758 2005,,,OL23240947M,,0,,,,,1,,1,4197266,pdf,4543FD36CA6DAC3653335DF06B0DA96C,,,"4543fd36ca6dac3653335df06b0da96c~0240805623,9780240805627,9781423708247.pdf",0,2000-01-01 01:00:00,2016-04-03 02:51:08,388000/4543fd36ca6dac3653335df06b0da96c-d.jpg,,
21681432,Von der Dynamik sozialer Rollen beim Wissensmanagement,,,,Isa Jahnke,2006,,Deutscher UniversitStsvlg,,334,0,German,6,,,"3835060309,9783835060302",,,,,,,,,,,0,,,,0,0,1,1,17649833,pdf,4544D28D69C8E1920517C79955406333,,,"4544d28d69c8e1920517c79955406333~3835060309,9783835060302.pdf",0,2000-01-01 01:00:00,2016-04-03 02:51:08,388000/4544d28d69c8e1920517c79955406333-d.jpg,,
21681433,The Alibi Man,,,,Tami Hoag,2008,,Bantam Books,,448,0,English,,,,0553583603,,,,,,,,,,,0,,,,,,,,474373,epub,4544E25EA43E462022F66EB8711DDA49,,,4544e25ea43e462022f66eb8711dda49~0553583603.epub,0,2000-01-01 01:00:00,2016-04-03 02:51:08,388000/4544e25ea43e462022f66eb8711dda49-d.jpg,,
21681434,"Songs, Roars, and Rituals: Communication in Birds, Mammals, and Other Animals",,,,"Lesley J. Rogers, Gisela Kaplan",2002,,Harvard University Press,,220,0,English,260,,,"0674008278,0674000587,9780674008274",,,,,,,,,OL7670725M,,0,,,,,,,1,3700028,pdf,4547C037CB588825D6FCF5D0669CF361,,,"4547c037cb588825d6fcf5d0669cf361~0674008278,0674000587,9780674008274.pdf",0,2000-01-01 01:00:00,2016-04-03 02:51:08,388000/4547c037cb588825d6fcf5d0669cf361-d.jpg,,
21681435,Japanese Multinationals in Asia: Regional Operations in Comparative Perspective ,,Japan Business and Economics Series,,Dennis J. Encarnation,1999,First,"Oxford University Press, USA",,304,0,English,,,,"0195120655,9780195120653,9780195353013",,,,,338.8/895205,HG5702 .I576 1999,,,OL363468M,,0,,,,,1,1,1,16635687,pdf,4548D64EA4DF73044C784DEFE21D3EAD,,,"4548d64ea4df73044c784defe21d3ead~0195120655,9780195120653,9780195353013.pdf",0,2000-01-01 01:00:00,2016-04-03 02:51:08,388000/4548d64ea4df73044c784defe21d3ead-d.jpg,,
21681436,Microsoft Project 2010 Step by Step ,,Step By Step Microsoft,,"Carl Chatfield, Timothy Johnson D.",2010,1,Microsoft Press,,505,0,English,87,,,"0735626952,9780735626959",,,,,658.4040285536,HD69.P75 C4653 2010,,,OL25032248M,,0,,,,,,,1,38225684,pdf,4549C3B300B73FA48893DC347E55FEFC,,,"4549c3b300b73fa48893dc347e55fefc~0735626952,9780735626959.pdf",0,2000-01-01 01:00:00,2016-04-03 02:51:08,388000/4549c3b300b73fa48893dc347e55fefc-d.jpg,,
21681437,Drifting - Architecture and Migrancy ,,Architext,,Stephen Cairns,2003,1,Routledge,,320,0,English,58,,,"9780415283601,0415283604,0203402022,9780203402023,9780203410745",,,,,720/.1/03,NA2543.S6 D75 2004,,,OL17115051M,,0,,,,,1,1,1,6090511,pdf,4551E2E2088DB9118DBB9F44EF997BBA,,,"4551e2e2088db9118dbb9f44ef997bba~9780415283601,0415283604,0203402022,9780203402023,9780203410745.pdf",0,2000-01-01 01:00:00,2016-04-03 02:51:08,388000/4551e2e2088db9118dbb9f44ef997bba-d.jpg,,
21681438,Die volle Wahrheit. Ein weiteres Abenteuer von der bizarren Scheibenwelt.,,,,Terry Pratchett,2001,,Goldmann,,206,0,German,236,,,"3442545188,9783442545186",,,,,,,,,OL9035774M,,0,,,,,1,,1,1115841,pdf,4552AAD0CEAB043108EBFAA5B9FBF6C6,,,"4552aad0ceab043108ebfaa5b9fbf6c6~3442545188,9783442545186.pdf",0,2000-01-01 01:00:00,2016-04-03 02:51:08,388000/4552aad0ceab043108ebfaa5b9fbf6c6-d.jpg,,
21681439,Elsevier's Dictionary of Information Security,,,,"G. Manoilov, B. Radichkova",2007,Mul,Elsevier Science,,772,0,English,322,,,"0444517707,9780444517708,9780080488806",,,,,,,,,OL7530885M,,0,,,,,,1,1,4420441,pdf,4552C55F9F15897835DC6280E9A053BF,,,"4552c55f9f15897835dc6280e9a053bf~0444517707,9780444517708,9780080488806.pdf",0,2000-01-01 01:00:00,2016-04-03 02:51:08,388000/4552c55f9f15897835dc6280e9a053bf-d.jpg,,
21681440,The Struggle Over Work: The 'End of Work' and Employment Alternatives in Post-Industrial Societies ,,Routledge Frontiers of Political Economy,,Shaun Wilson,2004,1,Routledge,,248,0,English,,,,"0415305500,9780415305501",,,,,331/.01,HD4901 .W53 2004,,,OL22590566M,,0,,,,,1,1,1,951497,pdf,4552CB83EAFFED30941839105B84D4BA,,,"4552cb83eaffed30941839105b84d4ba~0415305500,9780415305501.pdf",0,2000-01-01 01:00:00,2016-04-03 02:51:08,388000/4552cb83eaffed30941839105b84d4ba-d.jpg,,
21681441,An Introduction to Dyslexia for Parents and Professionals,,,,Alan M. Hultquist,2006,1,Jessica Kingsley Pub,,112,0,English,,,,"184310833X,9781843108337,9781846425271",,,,,,,,,OL8929276M,,0,,,,,,1,1,328957,pdf,4552CF5888A66B35FC9B189DF56805F2,,,"4552cf5888a66b35fc9b189df56805f2~184310833X,9781843108337,9781846425271.pdf",0,2000-01-01 01:00:00,2016-04-03 02:51:08,388000/4552cf5888a66b35fc9b189df56805f2-d.jpg,,
21681442,Convention: A Philosophical Study,,,,David Lewis,2002,,Wiley-Blackwell,,232,0,English,195,,,"0631232567,9780631232568,9780470692967",,,,,,,,,OL7610773M,,0,,,,,1,,0,8613540,pdf,4553F8A3872AFB36E65F15E182F10421,,,"4553f8a3872afb36e65f15e182f10421~0631232567,9780631232568,9780470692967.pdf",0,2000-01-01 01:00:00,2016-04-03 02:51:08,388000/4553f8a3872afb36e65f15e182f10421-d.jpg,,
21681443,"Egypt, Trunk of the Tree, Vol. 2: The Consequences",,,,Simson Najovits,2004,illustrated edition,Algora Publishing,,368,0,English,,,,"087586256X,9780875862569,9780585492353",,,,,,,,,OL8090046M,,0,,,,,,,1,3170971,pdf,4554E493D04A907730DDDF9E154D6FCC,,,"4554e493d04a907730dddf9e154d6fcc~087586256X,9780875862569,9780585492353.pdf",0,2000-01-01 01:00:00,2016-04-03 02:51:08,388000/4554e493d04a907730dddf9e154d6fcc-d.jpg,,
21681444,Picture Yourself Learning Microsoft Office 2010,,,,Diane (Diane Koers) Koers,2010,2,Course Technology PTR,,512,0,English,183,,,"9781435455931,1435455932,9781598638905,1598638904",,,,,,,,,,,0,,,,,,,1,32930760,pdf,4555AF0AA55092B29F87190D666BF25A,,,"4555af0aa55092b29f87190d666bf25a~9781435455931,1435455932,9781598638905,1598638904.pdf",0,2000-01-01 01:00:00,2016-04-03 02:51:08,388000/4555af0aa55092b29f87190d666bf25a-d.jpg,,
21681445,Marketing-Trends: Innovative Konzepte für Ihren Markterfolg,,,,"Anja Förster, Peter Kreuz",2006,,Gabler,,213,0,German,,,,"3834900443,9783834900449",,,,,,,,,,,0,,,,,,1,1,1180826,pdf,4556A14C788663CC7F671A47ED6FE156,,,"4556a14c788663cc7f671a47ed6fe156~3834900443,9783834900449.pdf",0,2000-01-01 01:00:00,2016-04-03 02:51:08,388000/4556a14c788663cc7f671a47ed6fe156-d.jpg,,
21681446,"Carnitine - A Medical Dictionary, Bibliography, and Annotated Research Guide to Internet References",,,,Health Publica Icon Health Publications,2003,,ICON Health Publications,,368,0,English,100,,,"0597838100,9780597838101,9780585494128",,,,,,,,,OL7582329M,,0,,,,,,,1,5612447,pdf,4556D7C7E58AE3D73A534CE5170CCFB3,,,"4556d7c7e58ae3d73a534ce5170ccfb3~0597838100,9780597838101,9780585494128.pdf",0,2000-01-01 01:00:00,2016-04-03 02:51:08,388000/4556d7c7e58ae3d73a534ce5170ccfb3-d.jpg,,
21681447,Book of the Judges,,Journal for the Study of the Old Testament Supplement Series 46,,Barry G. Webb,1987,,Continuum International Publishing Group - Sheffie,,280,0,English,,,,"1850750351,9781850750352,1850750343,9781850750345,1556359322,9781556359323",,,,,222/.3206,BS1305.2 W35 1987,,,OL11947629M,,300,,,,,,,1,12610596,pdf,4556D631CBA4789AC1C69253C0955814,,,"4556d631cba4789ac1c69253c0955814~1850750351,9781850750352,1850750343,9781850750345,1556359322,9781556359323.pdf",0,2000-01-01 01:00:00,2016-04-03 02:51:08,388000/4556d631cba4789ac1c69253c0955814-g.jpg,,
21681448,"Ad-Hoc, Mobile, and Wireless Networks: Second International Conference, ADHOC-NOW 2003, Montreal, Canada, October 8-10, 2003, Proceedings ",,Lecture Notes in Computer Science,,"Samuel Pierre, Michel Barbeau, Evangelos Kranakis",2003,1,Springer,,293,0,German,185,,,"3540202609,9783540202608",,,,,,,10.1007/b14230,,OL9662955M,,0,,,,,,,1,3852119,pdf,4557B0A5B4BA097CAB922802766FD5ED,,,"4557b0a5b4ba097cab922802766fd5ed~3540202609,9783540202608.pdf",0,2000-01-01 01:00:00,2016-04-03 02:51:08,388000/4557b0a5b4ba097cab922802766fd5ed-d.jpg,,
21681449,Return on Investment in der Personalentwicklung: Der 5-Stufen-Evaluationsprozess,,,,"Jack J. Phillips, Frank C. Schirmer (auth.)",2008,2,Springer-Verlag Berlin Heidelberg,Berlin,282,0,German,,usenet,to 2012-06,"9783540794301,3540794301",,,,,,,10.1007/978-3-540-79430-1,,,,0,,,,,,,1,3898494,pdf,83b82c7763d0daeed99e83ea97e90fb2,,,I:\\usenet_ger\\Return.on.Investment.in.der.Personalentwicklung.[Springer].[2008].[r120t0].pdf,0,2000-01-01 01:00:00,2016-04-03 02:51:08,884000/83b82c7763d0daeed99e83ea97e90fb2-g.jpg,,
21681450,Visions of Politics ,Volume 3 ,,,Quentin Skinner,2002,,Cambridge University Press,,404,0,English,64,,,"0521813689,9780521813686",,,,,,,,,OL7755464M,,0,,,,,,,1,3522456,pdf,4557C24BB5FB5A637C5C0CFB40F1903D,,,"4557c24bb5fb5a637c5c0cfb40f1903d~0521813689,9780521813686.pdf",0,2000-01-01 01:00:00,2016-04-03 02:51:08,388000/4557c24bb5fb5a637c5c0cfb40f1903d-d.jpg,,
21681451,Adventures of the Dialectic ,,SPEP,,"Maurice Merleau-Ponty, Joseph J. Bien",1973,1,Northwestern University Press,,237,0,English,,,,"0810105969,9780810105966,0435826875,9780435826871,0810104040,9780810104044",,,,,335.4/11,B809.8 .M4413,,,OL21218099M,,0,,,,,1,1,1,16825209,pdf,4557EBA8C825A203B22A8BFEA869B817,,,"4557eba8c825a203b22a8bfea869b817~0810105969,9780810105966,0435826875,9780435826871,0810104040,9780810104044.pdf",0,2000-01-01 01:00:00,2016-04-03 02:51:08,388000/4557eba8c825a203b22a8bfea869b817-d.jpg,,
21681452,"Advances in Catalysis, Vol. 6",,,,"W.G. Frankenburg, V.I. Komarewsky, E.K. Rideal (Eds.)",1954,,Academic Press,,"iii-x, 1-467",0,English,19,,0,978-0-12-007806-6,0360-0564,,,,,,,,,,0,,,,,1,,1,24669083,pdf,4557FD3C5B2FD79492207CA96B547870,,,"4557fd3c5b2fd79492207ca96b547870~9780080565101,9780120078066,0120078066.pdf",0,2000-01-01 01:00:00,2016-04-03 02:51:08,388000/4557fd3c5b2fd79492207ca96b547870-d.jpg,,
21681453,Time and the Technosphere: The Law of Time in Human Affairs,,,,José Argüelles,2002,,Bear & Company,,289,0,English,313,,,"1879181991,9781879181991",,,,,,,,,OL8676413M,,0,,,,,,1,1,9586486,pdf,4558DCC2F772D98AC411EDC215F005E1,,,"4558dcc2f772d98ac411edc215f005e1~1879181991,9781879181991.pdf",0,2000-01-01 01:00:00,2016-04-03 02:51:08,388000/4558dcc2f772d98ac411edc215f005e1-d.jpg,,
21681454,"Captivity and Imprisonment in Medieval Europe, C. 1000-C. 1300 ",,Medieval Culture and Society,,Jean Dunbabin,2003,,Palgrave Macmillan,,208,0,English,64,,,"0333647149,9780333647141,9781403940278",,,,,,,,,OL15542188M,,0,,,,1,0,1,1,1175203,pdf,4559B6B6CBC1ACBAEFAB02A44074F389,,,"4559b6b6cbc1acbaefab02a44074f389~0333647149,9780333647141,9781403940278.pdf",0,2000-01-01 01:00:00,2016-04-03 02:51:08,388000/4559b6b6cbc1acbaefab02a44074f389-d.jpg,,
21681455,The Philosophy of Science: Science and Objectivity,,,,Dr S George Couvalis,1997,,Sage Publications Ltd,,217,0,English,181,,,"0761951016,9780761951018,0761951008,9780761951001",,,,,,,,,OL8030121M,,0,,,,0,1,1,1,4138930,pdf,4560C03F32F22806B0B284134496746D,,,"4560c03f32f22806b0b284134496746d~0761951016,9780761951018,0761951008,9780761951001.pdf",0,2000-01-01 01:00:00,2016-04-03 02:51:08,388000/4560c03f32f22806b0b284134496746d-d.jpg,,
21681456,Left Main Coronary Artery Disease: A Practical Guide for the Interventional Cardiologist,,,,"Corrado Tamburino, M.E. Di Salvo, A. La Manna, D. Capodanno",2009,1,Springer,,128,0,English,151,,,"8847014298,9788847014299",,,,,,,10.1007/978-88-4701430-5,,,,0,,,,,1,1,1,3322695,pdf,4561E5664DFBA15504FBE035EC7DBBB6,,,"4561e5664dfba15504fbe035ec7dbbb6~8847014298,9788847014299.pdf",0,2000-01-01 01:00:00,2016-04-03 02:51:08,388000/4561e5664dfba15504fbe035ec7dbbb6-d.jpg,,
21681457,Classification of Developmental Language Disorders: Theoretical Issues and Clinical Implications,,,,"Ludo Verhoeven, Hans van Balkom",2003,,Psychology Press,,464,0,English,161,,,"0805841229,9780805841220,9781410609021",,,,,,,,,OL9339675M,,0,,,,,,1,1,2719561,pdf,4561F82B373263446AEE787EF840138A,,,"4561f82b373263446aee787ef840138a~0805841229,9780805841220,9781410609021.pdf",0,2000-01-01 01:00:00,2016-04-03 02:51:08,388000/4561f82b373263446aee787ef840138a-d.jpg,,
21681458,Literacy and Development: Ethnographic Perspectives ,,Literacies,,Brian V. Street,2001,1,Routledge,,239,0,English,,,,"0415234506,9780415234504,0415234514,9780415234511,9780203245415",,,,,,,,,OL17011914M,,0,,,,1,0,1,1,3255727,pdf,4562BE8B82DE73576E5FD08075483BDF,,,"4562be8b82de73576e5fd08075483bdf~0415234506,9780415234504,0415234514,9780415234511,9780203245415.pdf",0,2000-01-01 01:00:00,2016-04-03 02:51:08,388000/4562be8b82de73576e5fd08075483bdf-d.jpg,,
21681459,"Language, Ideology and Point of View ",,Interface,,Paul Simpson,1993,,Routledge,,216,0,English,,,,"9780415071079,0415071070,9780415071062,0415071062,0203136861,9780203136867,9780203312612",,,,,415,P301.5.P65 S56 1993,,,OL1723819M,,0,,,,,1,1,1,1244879,pdf,4562DF33884DF524249EDA5243E36E83,,,"4562df33884df524249eda5243e36e83~9780415071079,0415071070,9780415071062,0415071062,0203136861,9780203136867,9780203312612.pdf",0,2000-01-01 01:00:00,2016-04-03 02:51:08,388000/4562df33884df524249eda5243e36e83-d.jpg,,
21681460,The Pivotal Year: How Freshmen Can Become Sophomores,,,,Robert L. Marshall,2003,,ScarecrowEducation,,120,0,English,,,,"0810847167,9780810847163,9780585479859",,,,,,,,,OL11321109M,,0,,,,,1,,1,5724651,pdf,4562F655A8998501B5C0125B21865E82,,,"4562f655a8998501b5c0125b21865e82~0810847167,9780810847163,9780585479859.pdf",0,2000-01-01 01:00:00,2016-04-03 02:51:08,388000/4562f655a8998501b5c0125b21865e82-d.jpg,,
21681461,Touchdown!: Achieving Your Greatness on the Playing Field of Business and Life ,,,,Kevin Elko,2009,1,FT Press,,192,0,English,1,,,"0137019602,9780137019601",,B002BR4952,,,650.1,HF5386 .E388 2010,,,OL23235548M,,0,,,,,1,1,1,1348970,pdf,4563AE422FAFA9D42A8B949F15C17F61,,,"4563ae422fafa9d42a8b949f15c17f61~0137019602,9780137019601,B002BR4952.pdf",0,2000-01-01 01:00:00,2016-04-03 02:51:08,388000/4563ae422fafa9d42a8b949f15c17f61-d.jpg,,
21681462,"Auction Theory, ",,,,Vijay Krishna,2009,2,Academic Press,,336,0,English,136,,,"0123745071,9780123745071",,,,,381/.1701,HF5476 .K75 2010,,,OL23614658M,,0,,,,,1,,1,2731899,pdf,4563B3CC15BBDA519804B86F8F2CDF4F,,,"4563b3cc15bbda519804b86f8f2cdf4f~0123745071,9780123745071.pdf",0,2000-01-01 01:00:00,2016-04-03 02:51:08,388000/4563b3cc15bbda519804b86f8f2cdf4f-d.jpg,,
21681463,Verbal Complexes,,,,"Hilda Koopman, Anna Szabolcsi",2000,,The MIT Press,,262,0,English,,,,"0262112531,9780262112536,0262611546,9780262611541,9781423730842",,,,,415,PB145 .K66 2000,,,OL6781992M,,0,,,,,1,,1,3425256,pdf,4563EBC7EBE6BDA39428EF810287A42F,,,"4563ebc7ebe6bda39428ef810287a42f~0262112531,9780262112536,0262611546,9780262611541,9781423730842.pdf",0,2000-01-01 01:00:00,2016-04-03 02:51:08,388000/4563ebc7ebe6bda39428ef810287a42f-d.jpg,,
21681464,Multinationals and Foreign Investment in Economic Development ,,International Economic Association,,Edward M. Graham,2005,,Palgrave Macmillan,,256,0,English,305,,,"1403949409,9781403949400,9780230522954",,,,,332.67/3/091724,HG5993 .I572 2002,,,OL20023957M,,0,,,,1,0,1,1,825303,pdf,4566C490398E51088C2A7A3FAA8AAACB,,,"4566c490398e51088c2a7a3faa8aaacb~1403949409,9781403949400,9780230522954.pdf",0,2000-01-01 01:00:00,2016-04-03 02:51:08,388000/4566c490398e51088c2a7a3faa8aaacb-d.jpg,,
21681465,Eighteenth-Century Satire: Essays on Text and Context from Dryden to Peter Pindar,,,,Howard D. Weinbrot,2007,,Cambridge University Press,,276,0,English,,,,"0521034094,9780511553561,9780521325134,9780521034098",,,,,,,,,OL7715035M,,0,,,,,1,,1,6494676,pdf,4566EBD12CB931FF65D50157BE9E7188,,,"4566ebd12cb931ff65d50157be9e7188~0521034094,9780511553561,9780521325134,9780521034098.pdf",0,2000-01-01 01:00:00,2016-04-03 02:51:08,388000/4566ebd12cb931ff65d50157be9e7188-d.jpg,,
21681466,Opportunities in Direct Marketing,,,,Anne Basye,2008,1,McGraw-Hill,,160,0,English,,,,"0071493085,9780071493086,9780071641906",,,,,,,10.1036/0071493085,,OL9964720M,,0,,,,,,,1,922752,pdf,4567AE95DCEC3B70F9757F3A351D78AA,,,"4567ae95dcec3b70f9757f3a351d78aa~0071493085,9780071493086,9780071641906.pdf",0,2000-01-01 01:00:00,2016-04-03 02:51:08,388000/4567ae95dcec3b70f9757f3a351d78aa-d.jpg,,
21681467,Anti-Liberalism 2000: The Rise of New Millennium Collectivism ,,"Occasional Paper, 115",,"David Henderson, G. C. Harcourt, Geoffrey Owen",2001,,Inst of Economic Affairs,,56,0,English,,,,"0255364970,9780255364973",,,,,,,,,OL10229339M,,0,,,,,1,,1,287238,pdf,4567BF27CCF491EF0DD5BC448AEBFA61,,,"4567bf27ccf491ef0dd5bc448aebfa61~0255364970,9780255364973.pdf",0,2000-01-01 01:00:00,2016-04-03 02:51:08,388000/4567bf27ccf491ef0dd5bc448aebfa61-d.jpg,,
21681468,"Illuminating the Border of French and Flemish Manuscripts, 1270-1310 ",,Studies in Medieval History and Culture,,Lisa Moore Hunt,2006,1,Routledge,,264,0,English,64,,,"0415977606,9780415977609,9780203944011",,,,,745.6/70944,ND3334 .H86 2006,,,OL22740654M,,0,,,,1,1,,1,6919981,pdf,4567E224278D478359F79D0AB2B7F304,,,"4567e224278d478359f79d0ab2b7f304~0415977606,9780415977609,9780203944011.pdf",0,2000-01-01 01:00:00,2016-04-03 02:51:08,388000/4567e224278d478359f79d0ab2b7f304-d.jpg,,
21681469,The Relentless Pursuit of Success,,,,Yu Minhong,2006,1st,Cengage Learning,,164,0,English,,,,"9814195480,9789814195485",,,,,158.1,BF637.S8 Y79 2007,,,OL23396315M,,0,,,,,,,1,3299979,pdf,4568D1E7EDFF371BC467353EDA35B565,,,"4568d1e7edff371bc467353eda35b565~9814195480,9789814195485.pdf",0,2000-01-01 01:00:00,2016-04-03 02:51:08,388000/4568d1e7edff371bc467353eda35b565-d.jpg,,
21681470,1001 Inventions: Muslim Heritage in Our World,,,,"Salim  T.S. Al-Hassani, Sir Roland Jackson",2007,2,1001 Inventions,,366,0,English,,,,"0955242614,9780955242618",,,,,609.1767,BP190.5.S3 A15 2007,,,OL25188937M,complete,0,,,,,,,1,22168051,djvu,4569AF1CF1034441B06D74DD68655704,,,"4569af1cf1034441b06d74dd68655704~0955242614,9780955242618.djvu",0,2000-01-01 01:00:00,2016-04-03 02:51:08,388000/4569af1cf1034441b06d74dd68655704-d.jpg,,
21681471,The Economic Function of Futures Markets,,,,Jeffrey C. Williams,1986,,Cambridge University Press,,272,0,English,305,,,"9780521265911,9780511571848,0521389348,0521265916,0511571844,9780521389341",,,,,332.64/4,HG6024.A3 W54 1986,,,OL21379280M,,0,,,,,1,,1,5263817,pdf,4569C469275E6F61D52B84588E50EFDA,,,"4569c469275e6f61d52b84588e50efda~9780521265911,9780511571848,0521389348,0521265916,0511571844,9780521389341.pdf",0,2000-01-01 01:00:00,2016-04-03 02:51:08,388000/4569c469275e6f61d52b84588e50efda-g.jpg,,
21681472,Natural Law in Jurisprudence and Politics ,,Cambridge Studies in Philosophy and Law,,Mark C. Murphy,2006,First Edition,Cambridge University Press,,204,0,English,313,,,"0521859301,9780521859301",,,,,340/.112,K460 .M87 2006,,,OL22728429M,,0,,,,,,,1,1149672,pdf,4571DEF33E4E46AE104E2B7139EE516E,,,"4571def33e4e46ae104e2b7139ee516e~0521859301,9780521859301.pdf",0,2000-01-01 01:00:00,2016-04-03 02:51:08,388000/4571def33e4e46ae104e2b7139ee516e-d.jpg,,
21681473,Zuwanderung und Arbeitsmarkt: Deutschland und Dänemark im Vergleich ,,,,"Klaus F. Zimmermann, Holger Hinte, Yuichi Mori",2004,1,Springer,,321,0,German,,,,"354023179X,9783540268406,9783540231790",,,,,,,,,OL9459742M,,0,,,,,0,1,1,1784995,pdf,4574B29C42D69B7991CF9B075F193817,,,"4574b29c42d69b7991cf9b075f193817~354023179X,9783540268406,9783540231790.pdf",0,2000-01-01 01:00:00,2016-04-03 02:51:08,388000/4574b29c42d69b7991cf9b075f193817-d.jpg,,
21681474,Consumption in the Age of Affluence: The World of Food,,,,"Ben Fine, Michael Heasman, Judith Wright",1996,1,Routledge,,320,0,English,229,,,"9780415131551,0415131553,0203011465,9780203011461",,,,,339.4/86413,HD9000.5 .F52 1996,,,OL1269239M,,0,,,,,1,1,1,3140441,pdf,4574B29D536882C7A2ECAA99E202868B,,,"4574b29d536882c7a2ecaa99e202868b~9780415131551,0415131553,0203011465,9780203011461.pdf",0,2000-01-01 01:00:00,2016-04-03 02:51:08,388000/4574b29d536882c7a2ecaa99e202868b-d.jpg,,
21681475,Wetland and Riparian Areas of the Intermountain West: Ecology and Management ,,Peter T. Flawn Series in Natural Resource Management and Conservation,,"Mark C. McKinstry, Wayne A. Hubert, Stanley H. Anderson",2004,,University of Texas Press,,335,0,English,6,,,"0292702485,9780292702486,9780292798434",,,,,,,,,OL17128072M,,0,,,,,1,,1,1965843,pdf,4575A22451A90B566FB362E27F58BBDA,,,"4575a22451a90b566fb362e27f58bbda~0292702485,9780292702486,9780292798434.pdf",0,2000-01-01 01:00:00,2016-04-03 02:51:08,388000/4575a22451a90b566fb362e27f58bbda-d.jpg,,
21681476,Projekt Saucer Resurrection,,,,W.A. Harbinson,1999,,New English Library,,480,0,English,195,,,"0340715448,9780340715444,034071543X,9780340715437,1419630989,9781419630989",,B0015Q9RP2,,,,,,,OL10628568M,,0,,,,,1,,1,3112048,pdf,4575D71F46218752EF627D0E093AEC72,,,"4575d71f46218752ef627d0e093aec72~0340715448,9780340715444,034071543X,9780340715437,B0015Q9RP2,1419630989,9781419630989.pdf",0,2000-01-01 01:00:00,2016-04-03 02:51:08,388000/4575d71f46218752ef627d0e093aec72-d.jpg,,
21681477,Einführung in die Halbleiter-Schaltungstechnik,,Springer-Lehrbuch,,Holger Göbel,2006,"2., bearb. und erw. Aufl",Springer,Berlin [u.a.],365,0,German,,usenet,to 2012-06,"9783540340294,9783540340300,3540340300,3540340297",,,,,,,,,,,0,,,,,,,1,4543979,pdf,376e4eeb4f54d025ac69542a5db73088,,,I:\\usenet_ger\\Einfuehrung.in.die.Halbleiter-Schaltungstechnik.[Springer].[2006].[n474p2].pdf,0,2000-01-01 01:00:00,2016-04-03 02:51:08,883000/376e4eeb4f54d025ac69542a5db73088-d.jpg,,
21681478,Random Networks for Communication: From Statistical Physics to Information Systems ,,Cambridge Series in Statistical and Probabilistic Mathematics,,"Massimo Franceschetti, Ronald Meester",2008,1,Cambridge University Press,,216,0,English,264,,,"0521854423,9780521854429,9780511378553",,,,,621.3821,TK5105.5 .F697 2007,,,OL10437478M,,0,,,,,1,,1,1931883,pdf,4576DAEC0B4FA925F316ED1F076CA51B,,,"4576daec0b4fa925f316ed1f076ca51b~0521854423,9780521854429,9780511378553.pdf",0,2000-01-01 01:00:00,2016-04-03 02:51:08,388000/4576daec0b4fa925f316ed1f076ca51b-d.jpg,,
21681479,Made in Britain: The Best of Quintessentially British Companies,,,,James Fielding,2007,,Summersdale Publishers,,252,0,English,,,,"1840246057,9781840246056",,,,,338.70941,HF3506 .F54 2007,,,OL16703863M,,0,,,,,1,,1,8064004,pdf,4576E82B470632AC17AF911789049962,,,"4576e82b470632ac17af911789049962~1840246057,9781840246056.pdf",0,2000-01-01 01:00:00,2016-04-03 02:51:08,388000/4576e82b470632ac17af911789049962-d.jpg,,
21681480,Tongues of Angels: Concept of Angelic Languages in Classical Jewish & Christian Texts ,,Wissenschaftliche Untersuchungen Zum Neuen Testament 2,,John C. Poirier,2010,,Mohr Siebeck,,249,0,English,,,,"3161505697,9783161505690",,,,,,,,,,,600,,,,,,,1,4077002,pdf,4576EA20CDE531742F97A89F23CA607E,,,"4576ea20cde531742f97a89f23ca607e~3161505697,9783161505690.pdf",0,2000-01-01 01:00:00,2016-04-03 02:51:08,388000/4576ea20cde531742f97a89f23ca607e-d.jpg,,
21681481,Historical Dictionary of the Russo-Japanese War ,,"Historical Dictionaries of War, Revolution, and Civil Unrest",,Rotem Kowner,2006,,"The Scarecrow Press, Inc.",,640,0,English,64,,,"0810849275,9780810849273,9780810865082",,,,,952.03/1,DS517 .K68 2005,,,OL3397287M,,0,,,,,,,1,3113836,pdf,4578B9D66C02CCD35C08A9F0B0FD637A,,,"4578b9d66c02ccd35c08a9f0b0fd637a~0810849275,9780810849273,9780810865082.pdf",0,2000-01-01 01:00:00,2016-04-03 02:51:08,388000/4578b9d66c02ccd35c08a9f0b0fd637a-d.jpg,,
21681482,The End of Organization Theory?: Language As a Tool in Action Research and Organizational Development ,,Pragmatics & Beyond New,,"Rosina Marquez Reiter, Maria Elena Placencia",2004,,John Benjamins Pub Co,,399,0,English,,,,"9027217742,9789027217745,9780585461731",,,,,,,,,OL18427931M,,0,,,,,1,,1,408692,pdf,4578FCE940FEE6D5E204B01326FF4A7C,,,"4578fce940fee6d5e204b01326ff4a7c~9027217742,9789027217745,9780585461731.pdf",0,2000-01-01 01:00:00,2016-04-03 02:51:08,388000/4578fce940fee6d5e204b01326ff4a7c-d.jpg,,
21681483,Return From The Stars ,,Helen and Kurt Wolff Books,,Stanislaw Lem,1989,,Mariner Books,,229,0,English,,,,"0156765934,9780156765930",,,,,,,,,OL7366179M,,0,,,,,1,,1,673090,pdf,4581D1CB0C137BEA88D2F1D4FF15CEF6,,,"4581d1cb0c137bea88d2f1d4ff15cef6~0156765934,9780156765930.pdf",0,2000-01-01 01:00:00,2016-04-03 02:51:08,388000/4581d1cb0c137bea88d2f1d4ff15cef6-d.jpg,,
21681484,"Teachers for Rural Schools: Experiences in Lesotho, Malawi, Mozambique, Tanzania, and Uganda ",,Africa Human Development,,"Aidan Mulkeen, Aidan Mulkeen, Dandan Chen",2008,,World Bank Publications,,136,0,English,,,,"0821374796,9780821374795,9780821374801",,,,,371.100967,LC5148.A32 T43 2008,10.1596/978-0-8213-7479-5,,OL16474834M,,0,,,,,1,,1,901323,pdf,4582BFD0ECA832A61403E55B1C6C4AFE,,,"4582bfd0eca832a61403e55b1c6c4afe~0821374796,9780821374795,9780821374801.pdf",0,2000-01-01 01:00:00,2016-04-03 02:51:08,388000/4582bfd0eca832a61403e55b1c6c4afe-d.jpg,,
21681485,Integration or Separation?: A Strategy for Racial Equality,,,,Roy L. Brooks,1996,,Harvard University Press,,360,0,English,,,,"0674132955,9780674132955,9996547086,9789996547089,0674456459,9780674456457",,,,,323.1/196073,E185.615 .B729 1996,,,OL7692807M,,0,,,,1,0,1,1,19163554,pdf,4586BE0C09F8A9EE648C1AC14461E435,,,"4586be0c09f8a9ee648c1ac14461e435~0674132955,9780674132955,9996547086,9789996547089,0674456459,9780674456457.pdf",0,2000-01-01 01:00:00,2016-04-03 02:51:08,388000/4586be0c09f8a9ee648c1ac14461e435-d.jpg,,
21681486,Fabien M : La Reine morte,,,,Stalner,1996,,Dargaud,,60,0,French,,,,"2205043145,9782205043143",,,,,,,,,OL12450968M,,0,,,,,,,0,33151798,pdf,4586D0AFF7F7C03B04B0B30C76476637,,,"4586d0aff7f7c03b04b0b30c76476637~2205043145,9782205043143.pdf",0,2000-01-01 01:00:00,2016-04-03 02:51:08,388000/4586d0aff7f7c03b04b0b30c76476637-g.jpg,,
21681487,"Policing Gender, Class And Family In Britain, 1850-1940",,,,Linda Mahood,1995,1,Routledge,,224,0,English,,,,"1857281888,9781857281880,9780203993668",,,,,365.4209411,,,,OL22244522M,,0,,,,,1,,1,1295672,pdf,4586D8571DEF2121E40031B42266C639,,,"4586d8571def2121e40031b42266c639~1857281888,9781857281880,9780203993668.pdf",0,2000-01-01 01:00:00,2016-04-03 02:51:08,388000/4586d8571def2121e40031b42266c639-d.jpg,,
21681488,The Justice of God: A Fresh Look at the Old Doctrine of Justification by Faith,,,,"James D. G. Dunn, Alan M. Suggate",1994,,Wm. B. Eerdmans Publishing Company,,87,0,English,,,,"0802807976,9780802807977",,,,,234/.7,BT764.2 .D86 1994,,,OL1092361M,,0,,,,,,,1,3613109,pdf,4588FA3F6F212B6E73F7EA617BF0CF84,,,"4588fa3f6f212b6e73f7ea617bf0cf84~0802807976,9780802807977.pdf",0,2000-01-01 01:00:00,2016-04-03 02:51:08,388000/4588fa3f6f212b6e73f7ea617bf0cf84-d.jpg,,
21681489,Safeguarding Children: A Shared Responsibility ,,Wiley Child Protection & Policy Series,,"Hedy Cleaver, Pat Cawson, Sarah Gorin, Steve Walker",2009,,Wiley,,300,0,English,,,,"0470518731,9780470518731,047051874X,9780470518748",,,,,362.7,HV713 .S224 2008,,,OL10295977M,,0,,,,1,0,,0,1425408,pdf,4588FD987DA196384E07FC0CA0EA9878,,,"4588fd987da196384e07fc0ca0ea9878~0470518731,9780470518731,047051874X,9780470518748.pdf",0,2000-01-01 01:00:00,2016-04-03 02:51:08,388000/4588fd987da196384e07fc0ca0ea9878-d.jpg,,
21681490,King of Foxes ,,Conclave of Shadows 2,,Raymond E Feist,2005,,Voyager,,384,0,English,,,,"0006483585,9780006483588",,,,,,,,,OL7259257M,,0,,,,,,,,368432,lit,4590D934F1BBB78D422D4537D5492B2E,,,"4590d934f1bbb78d422d4537d5492b2e~0006483585,9780006483588.lit",0,2000-01-01 01:00:00,2016-04-03 02:51:08,388000/4590d934f1bbb78d422d4537d5492b2e-d.jpg,,
21681491,"Business Process Management, : Practical Guidelines to Successful Implementations",,,,"John Jeston, Johan Nelis",2008,2,Butterworth-Heinemann,,504,0,English,6,,,"0750686561,9780750686563,0080557368,9780080557366",,,,,,,,,OL9533077M,,0,,,,,,,1,5166264,pdf,4591DDEEDBD3396AB13B58A3A1402AA9,,,"4591ddeedbd3396ab13b58a3a1402aa9~0750686561,9780750686563,0080557368,9780080557366.pdf",0,2000-01-01 01:00:00,2016-04-03 02:51:08,388000/4591ddeedbd3396ab13b58a3a1402aa9-d.jpg,,
21681492,The Smallest Giant: An Actor's Life,,,,Michael Craig,2005,,Allen & Unwin,,272,0,English,,,,"1741145651,9781741145656",,,,,,,,,OL8907770M,,0,,,,,,,1,930765,pdf,4592EE747DBA3617B6E7041BCC5E0B1F,,,"4592ee747dba3617b6e7041bcc5e0b1f~1741145651,9781741145656.pdf",0,2000-01-01 01:00:00,2016-04-03 02:51:08,388000/4592ee747dba3617b6e7041bcc5e0b1f-d.jpg,,
21681493,Cuba in Revolution: A History Since the Fifties ,,Reaktion Books - Contemporary Worlds,,Antoni Kapcia,2008,,Reaktion Books,,272,0,English,64,,,"9781861894021,1861894023",,,,,972,F,,,OL23114128M,,0,,,,1,0,,1,751322,pdf,4593EF0C597012CEE94FB844CBCFEF65,,,"4593ef0c597012cee94fb844cbcfef65~9781861894021,1861894023.pdf",0,2000-01-01 01:00:00,2016-04-03 02:51:08,388000/4593ef0c597012cee94fb844cbcfef65-d.jpg,,
21681494,Formalized Music: Thought and Mathematics in Composition ,,"Harmonologia Series, No 6",,Iannis Xenakis,2001,2nd,Pendragon Pr,,403,0,English,113,,,"1576470792,9781576470794",,,,,781.3,,,,OL22122823M,,0,,,,,,1,1,71502649,pdf,4594BC01E14DFC37C181BFCC08F35553,,,"4594bc01e14dfc37c181bfcc08f35553~1576470792,9781576470794.pdf",0,2000-01-01 01:00:00,2016-04-03 02:51:08,388000/4594bc01e14dfc37c181bfcc08f35553-d.jpg,,
21681495,"Advertising and Consumer Citizenship: Gender, Images and Rights ",,Transformations,,Anne M. Cronin,2001,1,Routledge,,192,0,English,5,,,"0415223245,9780415223249,9780203991893",,,,,659.1/042,HF5822 .C76 2000,,,OL21095865M,,0,,,,,1,1,1,3512666,pdf,4597BC0B25BCFCBC2CC1B4EC55DC03B9,,,"4597bc0b25bcfcbc2cc1b4ec55dc03b9~0415223245,9780415223249,9780203991893.pdf",0,2000-01-01 01:00:00,2016-04-03 02:51:08,388000/4597bc0b25bcfcbc2cc1b4ec55dc03b9-d.jpg,,
21681496,Japan: The Childless Society?: The Crisis of Motherhood,,,,Muriel Jolivet,1997,1,Routledge,,256,0,English,,,,"0415146461,9780415146463,9780203975329",,,,,306.874/3/0952,HQ759 .J6813 1997,,,OL21416078M,,0,,,,,1,1,1,2682094,pdf,4598B5EF5D01AD40EF43286C365FE5D7,,,"4598b5ef5d01ad40ef43286c365fe5d7~0415146461,9780415146463,9780203975329.pdf",0,2000-01-01 01:00:00,2016-04-03 02:51:08,388000/4598b5ef5d01ad40ef43286c365fe5d7-d.jpg,,
21681497,"The Media, Politics and Public Life",,,,Geoffrey Craig,2004,,Allen & Unwin Academic,,240,0,English,,,,"1741141249,9781741141245,9781741152203",,,,,,,,,OL8907635M,,0,,,,,,1,1,892243,pdf,4598B6FEA6110627008FE0C66B0E219C,,,"4598b6fea6110627008fe0c66b0e219c~1741141249,9781741141245,9781741152203.pdf",0,2000-01-01 01:00:00,2016-04-03 02:51:08,388000/4598b6fea6110627008fe0c66b0e219c-d.jpg,,
21681498,The Return of Religion in France: From Democratisation to Postmetaphysics,,,,Enda McCaffrey,2009,,Palgrave Macmillan,,256,0,English,264,,,"0230205194,9780230205192",,,,,,,,,OL24084998M,,0,,,,,1,1,1,1378570,pdf,4599D8F68A558C475D87DAD98A94C9EA,,,"4599d8f68a558c475d87dad98a94c9ea~0230205194,9780230205192.pdf",0,2000-01-01 01:00:00,2016-04-03 02:51:08,388000/4599d8f68a558c475d87dad98a94c9ea-d.jpg,,
21681499,Small Clinical Trials: Issues and Challenges ,,Compass Series,,"Committee on Strategies for Small-Number-Participant Clinical Research Trials, Board on Health Sciences Policy",2001,1,National Academies Press,,222,0,English,161,,,"0309073332,9780309073332",,,,,610/.72/4,R853.C55 S58 2001,,,OL17017721M,,0,,,,,,1,1,1038130,pdf,4599F6889C468E93A10F36312A0549FD,,,"4599f6889c468e93a10f36312a0549fd~0309073332,9780309073332.pdf",0,2000-01-01 01:00:00,2016-04-03 02:51:08,388000/4599f6889c468e93a10f36312a0549fd-d.jpg,,
21681500,How to Avoid Falling in Love with a Jerk,,,,John Van Epp,2008,1,McGraw-Hill,,336,0,English,183,,,"0071548424,9780071548427,9780071642491",,,,,646.7/7,HQ801 .V275 2007,10.1036/0071548424,,OL18503176M,,0,,,,,1,,1,1399139,pdf,4602C6974AF50DB898FBC5E2EFFBEC66,,,"4602c6974af50db898fbc5e2effbec66~0071548424,9780071548427,9780071642491.pdf",0,2000-01-01 01:00:00,2016-04-03 02:51:08,388000/4602c6974af50db898fbc5e2effbec66-d.jpg,,
21681501,The Illusions of Postmodernism,,,,Terry Eagleton,1996,,Wiley-Blackwell,,160,0,English,314,,,"0631203230,9780631203230,9780631224945",,,,,149,B831.2 .E18 1997,,,OL971324M,,0,,,,,,,1,568846,pdf,4602E99423EB0AAF3DE9E9FD8B54A146,,,"4602e99423eb0aaf3de9e9fd8b54a146~0631203230,9780631203230,9780631224945.pdf",0,2000-01-01 01:00:00,2016-04-03 02:51:08,388000/4602e99423eb0aaf3de9e9fd8b54a146-d.jpg,,
21681502,Titus Andronicus ,,,,William Shakespeare,2006,Webster's Chinese-Traditional Thesaurus Edition ,"ICON Group International, Inc.",,132,0,English,314,,,"049790229X,9780497902292",,,,,,,,,OL10416597M,,0,,,,,1,,1,1156211,pdf,4603A0B9C83E6C9486E11C78CF3BF8BF,,,"4603a0b9c83e6c9486e11c78cf3bf8bf~049790229X,9780497902292.pdf",0,2000-01-01 01:00:00,2016-04-03 02:51:08,388000/4603a0b9c83e6c9486e11c78cf3bf8bf-d.jpg,,
21681503,Frommer's Portable Big Island of Hawaii,,,,Jeanette Foster,2007,5,Frommers,,180,0,English,32,,,"9780470165478,9780470255728,0470165472",,,,,919.6910442,,,,OL10294178M,,0,,,,,,,1,3173829,pdf,4606ED80F1A1C7EE7B50A8A51133BF97,,,"4606ed80f1a1c7ee7b50a8a51133bf97~9780470165478,9780470255728,0470165472.pdf",0,2000-01-01 01:00:00,2016-04-03 02:51:08,388000/4606ed80f1a1c7ee7b50a8a51133bf97-d.jpg,,
21681504,"Oil in the Sea III: Inputs, Fates, and Effects ",No. 3 ,,,"Fates, and Effects Committee on Oil in the Sea: Inputs, National Research Council",2003,,National Academies Press,,280,0,English,225,,,"0309084385,9780309084383,9780309505512",,,,,,,,,OL10358545M,,0,,,,,1,,1,27986358,pdf,4610B38427DB32A4D00A9C38576C8CC5,,,"4610b38427db32a4d00a9c38576c8cc5~0309084385,9780309084383,9780309505512.pdf",0,2000-01-01 01:00:00,2016-04-03 02:51:08,388000/4610b38427db32a4d00a9c38576c8cc5-d.jpg,,
21681505,Holzbau,,,,Francois Colling,2008,,Vieweg+Teubner Verlag,,316,0,German,,,,"383480259X,9783834802590",,,,,,,,,,,0,,,,,,1,1,6356842,pdf,4611C4287684E6626232CE16316EB773,,,"4611c4287684e6626232ce16316eb773~383480259X,9783834802590.pdf",0,2000-01-01 01:00:00,2016-04-03 02:51:08,388000/4611c4287684e6626232ce16316eb773-d.jpg,,
21681506,Theories of World Governance: A Study in the History of Ideas,,,,Cornelius F. Murphy,1999,,Catholic University of America Press,,196,0,English,64,,,"0813209552,9780813209555,0813209374,9780813209371",,,,,,,,,OL9678280M,,0,,,,,1,,0,16227408,pdf,4612BE1C097F6F948067011C9190B9C7,,,"4612be1c097f6f948067011c9190b9c7~0813209552,9780813209555,0813209374,9780813209371.pdf",0,2000-01-01 01:00:00,2016-04-03 02:51:08,388000/4612be1c097f6f948067011c9190b9c7-g.jpg,,
21681507,Ethics: Origin and Development,,,,Peter Kropotkin,2002,,University Press of the Pacific,,368,0,English,195,,,"141020281X,9781410202819,1428620141,9781428620148,0548111642,9780548111642",,,,,,,,,OL10514432M,,0,,,,,1,1,1,1230482,pdf,4613B1CA721B652E875D1C9125747C54,,,"4613b1ca721b652e875d1c9125747c54~141020281X,9781410202819,1428620141,9781428620148,0548111642,9780548111642.pdf",0,2000-01-01 01:00:00,2016-04-03 02:51:08,388000/4613b1ca721b652e875d1c9125747c54-d.jpg,,
21681508,Zen & Psychotherapy: Integrating Traditional and Nontraditional Approaches,,,,"Christopher J. Mruk PhD, Joan Hartzell RN  MA",2003,,Springer Publishing Company,,264,0,English,172,,,"0826120342,9780826120342,9780826120335",,,,,,,,,OL8165738M,,0,,,,,1,,1,14508226,pdf,4614D331B536ECE89BD06F8C8BB5AE55,,,"4614d331b536ece89bd06f8c8bb5ae55~0826120342,9780826120342,9780826120335.pdf",0,2000-01-01 01:00:00,2016-04-03 02:51:08,388000/4614d331b536ece89bd06f8c8bb5ae55-d.jpg,,
21681509,Marine Ecotourism: Issues And Experience ,,"Aspects of Tourism, 7",,Brian Garrod,2003,,Multilingual Matters,,266,0,English,,,,"1873150423,9781873150429,9781873150436",,,,,,,,,OL9360380M,,0,,,,,1,,1,1452127,pdf,4617A299A9BAC31CD53C425FD40A3D17,,,"4617a299a9bac31cd53c425fd40a3d17~1873150423,9781873150429,9781873150436.pdf",0,2000-01-01 01:00:00,2016-04-03 02:51:08,388000/4617a299a9bac31cd53c425fd40a3d17-d.jpg,,
21681510,Advanced Cleaning Product Formulations,Vol. 5,,,Ernest W. Flick,2007,,William Andrew,,250,0,English,225,,,"081551431X,9780815514312,9780080946672",,,,,668.1,TP990.F56 1989,,,OL8048839M,,0,,,,,1,,1,6061114,pdf,4618D8C5997D6933D1364F357FDFD07F,,,"4618d8c5997d6933d1364f357fdfd07f~081551431X,9780815514312,9780080946672.pdf",0,2000-01-01 01:00:00,2016-04-03 02:51:08,388000/4618d8c5997d6933d1364f357fdfd07f-d.jpg,,
21681511,"Making Science Social: The Conferences of Theophraste Renaudot, 1633-1642 ",,Series for Science and Culture,,Kathleen Anne Wellman,2003,,University of Oklahoma Press,,461,0,English,181,,,"0806135026,9780806135021,9780806180717",,,,,,,,,OL7939990M,,0,,,,,1,,1,1763750,pdf,4620F9CE556F6FE666ABDE3C850FADA1,,,"4620f9ce556f6fe666abde3c850fada1~0806135026,9780806135021,9780806180717.pdf",0,2000-01-01 01:00:00,2016-04-03 02:51:08,388000/4620f9ce556f6fe666abde3c850fada1-d.jpg,,
21681512,Noa Noa: The Tahitian Journal ,,Fine Art Series,,Paul Gauguin,1985,,Dover Publications,,96,0,English,,,,"0486248593,9780486248592",,,,,"759.4,B",ND553.G27 A2 1985,,,OL2858397M,,0,,,,,1,,1,345328,pdf,4621CCB6D75E461CBFC29E13E57825E8,,,"4621ccb6d75e461cbfc29e13e57825e8~0486248593,9780486248592.pdf",0,2000-01-01 01:00:00,2016-04-03 02:51:08,388000/4621ccb6d75e461cbfc29e13e57825e8-d.jpg,,
21681513,Java Pitfalls: Time-Saving Solutions and Workarounds to Improve Programs,,,,"Michael C. Daconta, Eric Monk, J. Paul Keller, Keith Bohnenberger",2000,1,Wiley,,336,0,English,92,,,"0471361747,9780471361749",,,,,,,,,OL16975108M,,0,,,,,1,,,618527,chm,4622C69BCE89D7B1EA24CB79C0EEEABD,,,"4622c69bce89d7b1ea24cb79c0eeeabd~0471361747,9780471361749.chm",0,2000-01-01 01:00:00,2016-04-03 02:51:08,388000/4622c69bce89d7b1ea24cb79c0eeeabd-d.jpg,,
21681514,Atlas of the Newborn; Experimental Psychology,volume 4,,,"Arnold J. Rudolph M.D., Arnold J. Rudolph MD, Arnold J. Rudolph MD ",1997,1,pmph usa,,155,0,English,198,,,"9780585322476,9781550090345,1550090348",,,,,,,,,OL11988076M,,0,,,,,1,,0,44666690,pdf,4627FC70F31FD8B65186458390F456B0,,,"4627fc70f31fd8b65186458390f456b0~9780585322476,9781550090345,1550090348.pdf",0,2000-01-01 01:00:00,2016-04-03 02:51:08,388000/4627fc70f31fd8b65186458390f456b0-d.jpg,,
21681515,Blast Waves ,,Shock Wave and High Pressure Phenomena,,Charles E. Needham (auth.),2010,1,Springer-Verlag Berlin Heidelberg,,320,0,English,264,,,"3642052878,9783642052873",,,,,,,10.1007/978-3-642-05288-0,,,,0,,,,0,0,,1,6972595,pdf,4628C3AE0208A3DA7DF30D8679104713,,,"4628c3ae0208a3da7df30d8679104713~3642052878,9783642052873.pdf",0,2000-01-01 01:00:00,2016-04-03 02:51:08,388000/4628c3ae0208a3da7df30d8679104713-d.jpg,,
21681516,Conflict Prevention: Path to Peace or Grand Illusion ,,Foundations Of Peace,,United Nations,2003,,United Nations,,312,0,English,236,,,"9280810812,9789280810813,9780585485607",,,,,,,,,OL17080188M,,0,,,,,,1,1,1417637,pdf,4635A43633C16C4332DBD34E57885D8C,,,"4635a43633c16c4332dbd34e57885d8c~9280810812,9789280810813,9780585485607.pdf",0,2000-01-01 01:00:00,2016-04-03 02:51:08,388000/4635a43633c16c4332dbd34e57885d8c-d.jpg,,
21681517,Lean Lexicon: A Graphical Glossary for Lean Thinkers,,,,"Lean Enterprise Institute, Chet Marchwinski, John Shook",2006,,Lean Enterprise Institute,,112,0,English,,,,"0966784367,9780966784367",,,,,658.5,TS155 .L3275 2003,,,OL3707734M,,0,,,,,1,1,1,27673684,pdf,4638CAAA1D56DF2C6692AC881F59FEBA,,,"4638caaa1d56df2c6692ac881f59feba~0966784367,9780966784367.pdf",0,2000-01-01 01:00:00,2016-04-03 02:51:08,388000/4638caaa1d56df2c6692ac881f59feba-d.jpg,,
21681518,"The Expanding Universe: Astronomy's 'Great Debate', 1900-1931",,,,Arthur Eddington,1920,1ST,Cambridge University Press,,138,0,English,264,,,"9780521048668,9780511564208,0521349761,0521048664,0511564201,9780521349765",,,,,523.1/8,QB991.E94 E33 1987,,,OL2394302M,,0,,,,,1,,1,4345571,pdf,4639DD290EDF8744FB50F1112DF0564D,,,"4639dd290edf8744fb50f1112df0564d~9780521048668,9780511564208,0521349761,0521048664,0511564201,9780521349765.pdf",0,2000-01-01 01:00:00,2016-04-03 02:51:08,388000/4639dd290edf8744fb50f1112df0564d-g.jpg,,
21681519,"Advances in Ecological Research, Vol. 18",,,,"M. Begon, A.H. Fitter, E.D. Ford, A. Macfadyen (Eds.)",1988,,Academic Press,,"iii-viii, 1-330",0,English,31,,0,978-0-12-013918-7,0065-2504,,,,574.5,QH541,,,,,0,,,,,1,,1,16834788,pdf,4642AED1DBDBA2DAA6A8ACD1ED8C6046,,,"4642aed1dbdba2daa6a8acd1ed8c6046~9780080567020,9780120139187,0120139189.pdf",0,2000-01-01 01:00:00,2016-04-03 02:51:08,388000/4642aed1dbdba2daa6a8acd1ed8c6046-d.jpg,,
21681520,A Great Wall: Six Presidents and China,,,,Patrick Tyler,2000,,PublicAffairs,,506,0,English,64,,,"1586480057,9781586480059,9781429487719",,,,,327.73051,E183.8.C5 T93 1999,,,OL22423898M,,0,,,,1,1,1,1,85083023,pdf,4645D1C254207B55212F463B9091895E,,,"4645d1c254207b55212f463b9091895e~1586480057,9781586480059,9781429487719.pdf",0,2000-01-01 01:00:00,2016-04-03 02:51:08,388000/4645d1c254207b55212f463b9091895e-d.jpg,,
21681521,The Rebuilding of Greater Russia: Putin's Foreign Policy Towards the CIS Countries ,,Routledge Contemporary Russia and Eastern Europe Series,,Bertil Nygren,2007,1,Routledge,,352,0,English,37,,,"0415436001,9780415436007,9780203939901",,,,,327.47,DK293 .N94 2007,,,OL10206504M,,0,,,,,1,1,1,1458388,pdf,4646B5DEF1C5A8D40C94185A946149E2,,,"4646b5def1c5a8d40c94185a946149e2~0415436001,9780415436007,9780203939901.pdf",0,2000-01-01 01:00:00,2016-04-03 02:51:08,388000/4646b5def1c5a8d40c94185a946149e2-d.jpg,,
21681522,"Ramona Quimby, Age 8 ",,Avon Camelot Books,,"Beverly Cleary, Tracy Dockray",1992,,HarperCollins,,208,0,English,,,,"0380709562,9780380709564,0688004776,9780688004774,9780061685521",,,,,,,,,OL17218938M,,0,,,,,1,,1,2013024,pdf,4647E9F345FB22BBE8449FBAE0F0F08D,,,"4647e9f345fb22bbe8449fbae0f0f08d~0380709562,9780380709564,0688004776,9780688004774,9780061685521.pdf",0,2000-01-01 01:00:00,2016-04-03 02:51:08,388000/4647e9f345fb22bbe8449fbae0f0f08d-d.jpg,,
21681523,Copperhead Gore: Benjamin Wood's Fort Lafayette and Civil War America,,,,Menahem Blondheim,2006,,Indiana University Press,,312,0,English,,,,"0253347378,9780253347374,9780253111906",,,,,813/.4,PS3349.W3 F67 2006,,,OL3410632M,,0,,,,,,1,1,2139606,pdf,4649EC6E094B52D48FE79FEDE215340B,,,"4649ec6e094b52d48fe79fede215340b~0253347378,9780253347374,9780253111906.pdf",0,2000-01-01 01:00:00,2016-04-03 02:51:08,388000/4649ec6e094b52d48fe79fede215340b-d.jpg,,
21681524,The Green Office Manual: A Guide to Responsible Practice,,,,Wastebusters Ltd.,2000,2nd,Earthscan Publications Ltd.,,306,0,English,94,,,"1853836796,9781853836794,9780585395418",,,,,658.408,HF5547 .W374 2000,,,OL3656644M,,0,,,,,1,,1,125315623,pdf,4649F7316616F8C2AE5A49B29F1B5888,,,"4649f7316616f8c2ae5a49b29f1b5888~1853836796,9781853836794,9780585395418.pdf",0,2000-01-01 01:00:00,2016-04-03 02:51:08,388000/4649f7316616f8c2ae5a49b29f1b5888-d.jpg,,
21681525,The Plant Cell Wall ,,Annual Plant Reviews,,Jocelyn K. C. Rose,2003,Volume 8,WileyBlackwell,,400,0,English,29,,,"1841273287,9781841273280,9781405147736",,,,,571.62,,,,OL20173884M,,0,,,,,1,,1,4567142,pdf,4658D679DE97932552145F08C0E65B84,,,"4658d679de97932552145f08c0e65b84~1841273287,9781841273280,9781405147736.pdf",0,2000-01-01 01:00:00,2016-04-03 02:51:08,388000/4658d679de97932552145f08c0e65b84-d.jpg,,
21681526,Acts of Faith,,,,Erich Segal,1993,,Bantam,,560,0,English,,,,"0553560700,9780553560701",,,,,,,,,,,0,,,,,1,,1,3083572,pdf,4658E5595B3D69FE4799A85BC35A687D,,,"4658e5595b3d69fe4799a85bc35a687d~0553560700,9780553560701.pdf",0,2000-01-01 01:00:00,2016-04-03 02:51:08,388000/4658e5595b3d69fe4799a85bc35a687d-d.jpg,,
21681527,"Management, Quality and Economics in Building",,,,"A. Bezelga, P.S. Brandon",1990,1,Spon Press,,1696,0,English,305,,,"0419174702,9780419174707,9780203973486",,,,,658.202,,,,OL22079728M,,0,,,,,,1,1,16480490,pdf,4659CB1DFEFFD681ADFEAE2A79DE2342,,,"4659cb1dfeffd681adfeae2a79de2342~0419174702,9780419174707,9780203973486.pdf",0,2000-01-01 01:00:00,2016-04-03 02:51:08,388000/4659cb1dfeffd681adfeae2a79de2342-d.jpg,,
21681528,Drive: 9 Ways to Motivate Your Kids to Achieve,,,,Janine Walker Caffrey,2008,,Da Capo Press,,240,0,English,41,,,"0738211605,9780738211602,9780786721849",,,,,,,,,OL10605298M,,0,,,,,1,,1,585969,pdf,4660AF35FEDAFAD84962A5A2B357C5BA,,,"4660af35fedafad84962a5a2b357c5ba~0738211605,9780738211602,9780786721849.pdf",0,2000-01-01 01:00:00,2016-04-03 02:51:08,388000/4660af35fedafad84962a5a2b357c5ba-d.jpg,,
21681529,Empowering Teachers with Technology: Making It Happen,,,,Michael T. Romano,2003,,ScarecrowEducation,,176,0,English,,,,"0810846292,9780810846296,9780585457949",,,,,,,,,OL15555787M,,0,,,,,1,,1,8578546,pdf,4660E724E7B54995BAA09251BC4BB7A0,,,"4660e724e7b54995baa09251bc4bb7a0~0810846292,9780810846296,9780585457949.pdf",0,2000-01-01 01:00:00,2016-04-03 02:51:08,388000/4660e724e7b54995baa09251bc4bb7a0-d.jpg,,
21681530,Yucatan Pocket Adventures ,,New Pocket Adventure,,"Bruce Conord, June Conord",2005,,Hunter Publishing (NJ),,308,0,English,32,,,"1588435091,9781588435095",,,,,917.26504841,,,,OL23077318M,,0,,,,,,1,1,4285328,pdf,4665B76D13C42E06B50D027CA82E5BCB,,,"4665b76d13c42e06b50d027ca82e5bcb~1588435091,9781588435095.pdf",0,2000-01-01 01:00:00,2016-04-03 02:51:08,388000/4665b76d13c42e06b50d027ca82e5bcb-d.jpg,,
21681531,Reindeer Management in Northernmost Europe: Linking Practical and Scientific Knowledge in Social-Ecological Systems ,,Ecological Studies,,"Prof. Dr. Bruce C. Forbes, Prof. Dr. Manfred Bölter, Prof. Dr. Ludger Müller-Wille, Prof. Dr. Janne Hukkinen, Dr. Felix Müller, Dr. Nicolas Gunslay, Prof. Dr. Yulian Konstantinov (eds.)",2006,1,Springer-Verlag Berlin Heidelberg,,400,0,English,6,,,"3540260870,9783540260875",,,,,,,10.1007/3-540-31392-3,,OL9055614M,,0,,,,0,0,1,1,5051259,pdf,4667AB8CDDD15BB3BF97C3B34038D6E5,,,"4667ab8cddd15bb3bf97c3b34038d6e5~3540260870,9783540260875.pdf",0,2000-01-01 01:00:00,2016-04-03 02:51:08,388000/4667ab8cddd15bb3bf97c3b34038d6e5-d.jpg,,
21681532,"Contemporary Sport, Leisure and Ergonomics",,,,"Thomas Reilly, Greg Atkinson",2009,1,Routledge,,384,0,English,210,,,"0415472725,9780415472722,0203892453,9780203892459",,,,,613.7/1,RC1235 .C66 2009,,,OL23150100M,,0,,,,,1,1,1,5293996,pdf,4667EC2748A093671411D0802F5574BB,,,"4667ec2748a093671411d0802f5574bb~0415472725,9780415472722,0203892453,9780203892459.pdf",0,2000-01-01 01:00:00,2016-04-03 02:51:08,388000/4667ec2748a093671411d0802f5574bb-d.jpg,,
21681533,Interactive Web-Based Virtual Reality with Java 3D ,,Premier Reference Source,,"Chi Chung Ko, Chang Dong Cheng, Chi Chung Ko, Chang Dong Cheng",2008,1,IGI Global,,492,0,English,100,,,"1599047896,9781599047898,9781599047911",,,,,006.8,QA76.73.J38 K595 2008,,,OL16638137M,,0,,,,,1,,1,5986698,pdf,4668EA7F4CB515C71B1F49B0FB1AA263,,,"4668ea7f4cb515c71b1f49b0fb1aa263~1599047896,9781599047898,9781599047911.pdf",0,2000-01-01 01:00:00,2016-04-03 02:51:08,388000/4668ea7f4cb515c71b1f49b0fb1aa263-d.jpg,,
21681534,Annual World Bank Conference on Development Economics 2003: The New Reform Agenda,,,,"Boris Pleskovic, Nicholas Stern",2003,,A World Bank Publication,,320,0,English,179,,,"0821353861,9780821353868,9780585465630",,,,,,,,,,,0,,,,,1,,1,1284272,pdf,4671F44F72F9C85A4EEF446F7FB46229,,,"4671f44f72f9c85a4eef446f7fb46229~0821353861,9780821353868,9780585465630.pdf",0,2000-01-01 01:00:00,2016-04-03 02:51:08,388000/4671f44f72f9c85a4eef446f7fb46229-d.jpg,,
21681535,Lonely Hearts Killer ,,Found in Translation,,Tomoyuki Hoshino,2009,Tra,PM Press,,288,0,English,,,,"1604860847,9781604860849",,,,,,,,,,,0,,,,1,0,1,1,824556,pdf,4672E431D05B01B4EBB85D22AD69382D,,,"4672e431d05b01b4ebb85d22ad69382d~1604860847,9781604860849.pdf",0,2000-01-01 01:00:00,2016-04-03 02:51:08,388000/4672e431d05b01b4ebb85d22ad69382d-d.jpg,,
21681536,Part of Nature: Self-Knowledge in Spinoza's Ethics,,,,Genevieve Lloyd,1994,,Cornell University Press,,182,0,English,195,,,"0801429994,9780801429996",,,,,170,B3974 .L56 1994,,,OL1079845M,,0,,,,,1,,0,2441954,djvu,4677D5BA30C89ABD07E61A3AFF23FD34,11135650a874fba508ae7e8efd501f67,no,"4677d5ba30c89abd07e61a3aff23fd34~0801429994,9780801429996.djvu",0,2000-01-01 01:00:00,2016-04-03 02:51:08,388000/4677d5ba30c89abd07e61a3aff23fd34-g.jpg,,
21681537,Much Ado About Nothing ,,,,William Shakespeare,2006,Webster's Thesaurus Edition ,"ICON Group International, Inc.",,184,0,English,314,,,"0497253534,9780497253530",,,,,,,,,OL7652828M,,0,,,,,1,,1,1445517,pdf,4678EABD3586AEBCF38C7C165AE1496A,,,"4678eabd3586aebcf38c7c165ae1496a~0497253534,9780497253530.pdf",0,2000-01-01 01:00:00,2016-04-03 02:51:08,388000/4678eabd3586aebcf38c7c165ae1496a-d.jpg,,
21681538,"Smart Women Protect Their Assets: Essential Information for Every Woman About Wills, Trusts, and More",,,,Wynne A. Whitman,2008,1,FT Press,,224,0,English,,,,"0132360403,9780132360401",,B001MSMUCA,,,332.024/0160820973,KF750.Z9 W52 2008,,,OL16927348M,,0,,,,,1,,1,1495648,pdf,4679B68D2DCB9C30184B245C8F15AB2D,,,"4679b68d2dcb9c30184b245c8f15ab2d~0132360403,9780132360401,B001MSMUCA.pdf",0,2000-01-01 01:00:00,2016-04-03 02:51:08,388000/4679b68d2dcb9c30184b245c8f15ab2d-d.jpg,,
21681539,Overcoming Multiple Sclerosis: An Evidence-Based Guide to Recovery,,,,Professor George Jelinek,2010,,Allen & Unwin,,394,0,English,,,,"1742371795,9781742371795",,,,,616.834,RC377 .J45 2010,,,OL25055182M,,0,,,,1,0,1,1,1656041,pdf,4680F79BE6CF1E1E3CE374265EE1C7C1,,,"4680f79be6cf1e1e3ce374265ee1c7c1~1742371795,9781742371795.pdf",0,2000-01-01 01:00:00,2016-04-03 02:51:08,388000/4680f79be6cf1e1e3ce374265ee1c7c1-d.jpg,,
21681540,Key Concepts for Understanding Curriculum ,,Teachers' Library,,Colin J Marsh,2004,3,Routledge,,292,0,English,,,,"041531917X,9780415319171,0415319188,9780415319188,020332689X,9780203326893",,,,,,,,,OL10203357M,,0,,,,,1,1,1,2495929,pdf,4682A868AAAEF4FE029BE9CA021E4C44,,,"4682a868aaaef4fe029be9ca021e4c44~041531917X,9780415319171,0415319188,9780415319188,020332689X,9780203326893.pdf",0,2000-01-01 01:00:00,2016-04-03 02:51:08,388000/4682a868aaaef4fe029be9ca021e4c44-d.jpg,,
21681541,The Anatomy of Neoplatonism,,,,A. C. Lloyd,1998,,"Oxford University Press, USA",,208,0,English,148,,,"9780198238065,0198238061,0198242298,9780198242291,9780191519628",,,,,186/.4,B517 .A52 1990,,,OL2212970M,,0,,,,,1,,1,846071,pdf,4682D75D9612C61177EC930D7DDF29F8,,,"4682d75d9612c61177ec930d7ddf29f8~9780198238065,0198238061,0198242298,9780198242291,9780191519628.pdf",0,2000-01-01 01:00:00,2016-04-03 02:51:08,388000/4682d75d9612c61177ec930d7ddf29f8-d.jpg,,
21681542,Essentials Of Environmental Toxicology,,,,William Hughes,1996,1,CRC Press,,176,0,English,31,,,"1560324694,9781560324690",,,,,615.9/02,RA1226 .H84 1996,,,OL977112M,,0,,,,,1,1,1,8366283,pdf,4687EAAFE02EE3A254868F14CA73D53A,,,"4687eaafe02ee3a254868f14ca73d53a~1560324694,9781560324690.pdf",0,2000-01-01 01:00:00,2016-04-03 02:51:08,388000/4687eaafe02ee3a254868f14ca73d53a-d.jpg,,
21681543,The Philosophy of Mind: An Introduction,,,,"Peter Smith, O. R. Jones",1986,,Cambridge University Press,,304,0,English,195,,,"052132078X,9780521320788",,,,,128/.2,BD418.3 .S65 1986,,,OL2716460M,,0,,,,,,,1,7553395,pdf,4688ADE9DF5C083D420E25F6479CD5E6,,,"4688ade9df5c083d420e25f6479cd5e6~052132078X,9780521320788.pdf",0,2000-01-01 01:00:00,2016-04-03 02:51:08,388000/4688ade9df5c083d420e25f6479cd5e6-d.jpg,,
21681544,Teaching to the Brain's Natural Learning Systems,,,,Barbara K. Given,2002,,Association for Supervision & Curriculum Deve,,163,0,English,183,,,"0871205696,9780871205698,9780871207388",,,,,,,,,OL8346935M,,0,,,,,1,,0,14389032,pdf,4689CC5D7CE4355F796C54C192945BDF,,,"4689cc5d7ce4355f796c54c192945bdf~0871205696,9780871205698,9780871207388.pdf",0,2000-01-01 01:00:00,2016-04-03 02:51:08,388000/4689cc5d7ce4355f796c54c192945bdf-d.jpg,,
21681545,Wilhelm II and the Germans: A Study in Leadership,,,,Thomas A. Kohut,1991,First,"Oxford University Press, USA",,352,0,English,,,,"0195061721,9780195061727,9781423737216",,,,,"943.08/4/092,B",DD229 .K54 1991,,,OL1881814M,,0,,,,,,1,1,24697914,pdf,4690B59C8C5DB0EB0D8D8E9A5D578835,,,"4690b59c8c5db0eb0d8d8e9a5d578835~0195061721,9780195061727,9781423737216.pdf",0,2000-01-01 01:00:00,2016-04-03 02:51:08,388000/4690b59c8c5db0eb0d8d8e9a5d578835-d.jpg,,
21681546,Outsourcing Training and Development: Factors for Success,,,,Judith Hale,2005,,Pfeiffer,,192,0,English,6,,,"0787978973,9780787978976,9780787982898",,,,,658.3/124,HD2365 .H35 2006,,,OL24275844M,,0,,,,,,,1,1045883,pdf,4692DCAA048BE660D97CFD6F6AC3E295,,,"4692dcaa048be660d97cfd6f6ac3e295~0787978973,9780787978976,9780787982898.pdf",0,2000-01-01 01:00:00,2016-04-03 02:51:08,388000/4692dcaa048be660d97cfd6f6ac3e295-d.jpg,,
21681547,International Handbook of Internet Research,,,,"Naomi S. Baron (auth.), Jeremy Hunsinger, Lisbeth Klastrup, Matthew Allen (eds.)",2010,1,Springer Netherlands,,622,0,English,100,,,"1402097883,9781402097881",,,,,,,10.1007/978-1-4020-9789-8,,,,0,,,,,0,1,1,11109590,pdf,4694EBBF299F9B98C077FD8C280F807A,,,"4694ebbf299f9b98c077fd8c280f807a~1402097883,9781402097881.pdf",0,2000-01-01 01:00:00,2016-04-03 02:51:08,388000/4694ebbf299f9b98c077fd8c280f807a-d.jpg,,
21681548,Biogeochemical Cycling of Mineral-Forming Elements,,Studies in Environmental Science 3,,P.A. Trudinger and D.J. Swaine (Eds.),1979,,Elsevier Science Ltd,,"iii-viii, 1-612",0,English,296,,,"0444417451,9780444417459,9780080874623",0166-1116,,,,574.5/2,QH344 .B56,,,OL4732617M,,0,,,,,1,,1,36115825,pdf,4695D2E96984599E18F53A8D753CB3E3,,,"4695d2e96984599e18f53a8d753cb3e3~0444417451,9780444417459,9780080874623.pdf",0,2000-01-01 01:00:00,2016-04-03 02:51:08,388000/4695d2e96984599e18f53a8d753cb3e3-d.jpg,,
21681549,Ancient Greek Civilization CD Course The Teaching Company ,,The Great Courses,,Jeremy McInerney,1998,,The Teaching Company,,132,0,English,183,,,1565853202,,,,,,,,,,,0,,,,,1,1,1,1650691,pdf,4697C178B16D4E7EBEB883BCC27043C5,,,4697c178b16d4e7ebeb883bcc27043c5~1565853202.pdf,0,2000-01-01 01:00:00,2016-04-03 02:51:08,388000/4697c178b16d4e7ebeb883bcc27043c5-d.jpg,,
21681550,Anafilassi in pediatria ,,,,"Mauro Calvani, Fabio Cardinale, Alberto Martelli, Maria A. Muraro, Neri Pucci, Francesco Savino",2007,1st Edition.,Springer,,118,0,Italian,,,,"8847006201,9788847006218,9788847006201",,,,,,,,,OL13430743M,,0,,,,,1,,1,850108,pdf,4698F77D1D5E48092B2CA0071C19BF19,,,"4698f77d1d5e48092b2ca0071c19bf19~8847006201,9788847006218,9788847006201.pdf",0,2000-01-01 01:00:00,2016-04-03 02:51:08,388000/4698f77d1d5e48092b2ca0071c19bf19-d.jpg,,
21681551,Preparing Research Articles ,,Pocket Guides to Social Work Research Methods,,Bruce A. Thyer,2008,1,"Oxford University Press, USA",,104,0,English,,,,"0195323378,9780195323375,9781435633391",,,,,808/.0663,HM569 .T49 2008,,,OL10135137M,,0,,,,,1,,1,351569,pdf,4699BA73195F13F0930ADFB32B248B8D,,,"4699ba73195f13f0930adfb32b248b8d~0195323378,9780195323375,9781435633391.pdf",0,2000-01-01 01:00:00,2016-04-03 02:51:08,388000/4699ba73195f13f0930adfb32b248b8d-d.jpg,,
21681552,Trace Quantitative Analysis by Mass Spectrometry,,,,"Robert K. Boyd, Cecilia Basic, Robert A. Bethem",2008,1,Wiley,,734,0,English,117,,,"0470057718,9780470057711",,,,,543/.65,QD272.S6 B69 2008,,,OL16970192M,,0,,,,,,,1,41459684,pdf,40017F38C0970273F28A06FDA281F255,,,"40017f38c0970273f28a06fda281f255~0470057718,9780470057711.pdf",0,2000-01-01 01:00:00,2016-04-03 02:51:08,388000/40017f38c0970273f28a06fda281f255-d.jpg,,
21681553,Habermas: A Very Short Introduction ,,Very Short Introductions,,Gordon Finlayson,2005,,"Oxford University Press, USA",,184,0,English,195,,,"0192840959,9780192840950",,,,,193,B3258.H324 F583 2005,,,OL3436425M,,0,,,,,,,1,1847454,pdf,40028DF99504780172D3D7BB5D897094,,,"40028df99504780172d3d7bb5d897094~0192840959,9780192840950.pdf",0,2000-01-01 01:00:00,2016-04-03 02:51:08,388000/40028df99504780172d3d7bb5d897094-d.jpg,,
21681554,The First World War: A Very Short Introduction ,,Very Short Introductions,,Michael Howard,2007,,"Oxford University Press, USA",,156,0,English,64,,,"0199205590,9780199205592,9781429470261",,,,,940.3,D521 .H645 2007,,,OL24878364M,,0,,,,,1,,1,1710748,pdf,40047E6D12711730247CA57AE3DEF1D6,,,"40047e6d12711730247ca57ae3def1d6~0199205590,9780199205592,9781429470261.pdf",0,2000-01-01 01:00:00,2016-04-03 02:51:08,388000/40047e6d12711730247ca57ae3def1d6-d.jpg,,
21681555,Master Potter and the Mountain of Fire,,,,Jill Austin,2005,,Destiny Image Publishers,,304,0,English,,,,"076842190X,9780768421903",,,,,813/.6,PS3601.U86 M368 2003,,,OL3320389M,,0,,,,,,1,1,1149343,pdf,40090F7EF9B208AB100A55BF249786B3,,,"40090f7ef9b208ab100a55bf249786b3~076842190X,9780768421903.pdf",0,2000-01-01 01:00:00,2016-04-03 02:51:08,388000/40090f7ef9b208ab100a55bf249786b3-d.jpg,,
21681556,The Complete Poetical Works of Henry Wadsworth Longfellow,,,,Henry Wadsworth Longfellow,1993,,Buccaneer Books,,689,0,English,,,,089968291X,,,,,,,,,OL8276866M,,0,,,,,1,,1,19213453,pdf,40093C67C23CBDCA9B910153E96FD2A0,,,40093c67c23cbdca9b910153e96fd2a0~089968291X.pdf,0,2000-01-01 01:00:00,2016-04-03 02:51:08,388000/40093c67c23cbdca9b910153e96fd2a0-d.jpg,,
21681557,Risky Lessons: Sex Education and Social Inequality ,,Series in Childhood Studies,,Jessica Fields,2008,,Rutgers University Press,,224,0,English,183,,,"0813543347,9780813544991,9780813543345,9780813543352,0813543355",,,,,613.9071/20973,HQ53 .F53 2008,,,OL17069373M,,0,,,,,,,1,923858,pdf,40097BD7F80DF9B6CD58934B337EFD96,,,"40097bd7f80df9b6cd58934b337efd96~0813543347,9780813544991,9780813543345,9780813543352,0813543355.pdf",0,2000-01-01 01:00:00,2016-04-03 02:51:08,388000/40097bd7f80df9b6cd58934b337efd96-d.jpg,,
21681558,"Logic and Its Applications: Fourth Indian Conference, ICLA 2011, Delhi, India, January 5-11, 2011, Proceedings ",,Lecture Notes in Computer Science / Lecture Notes in Artificial Intelligence,,"Mohua Banerjee, Anil Seth",2011,1st Edition.,Springer,,231,0,English,185,,,"3642180256,9783642180255",,,,,,,10.1007/978-3-642-18026-2,,,,0,,,,,,1,1,2369453,pdf,40100E322AB2759307A128F2520C8A63,,,"40100e322ab2759307a128f2520c8a63~3642180256,9783642180255.pdf",0,2000-01-01 01:00:00,2016-04-03 02:51:08,388000/40100e322ab2759307a128f2520c8a63-d.jpg,,
21681559,Friends And Lovers,,Friends and Lovers 1,,Diana Palmer,1995,,Mira,,251,0,English,,,,"1551660768,9781551660769",,,,,,,,,OL8552968M,,0,,,,,,,1,697990,pdf,40131D2AD79AF2221F91027853121D8B,,,"40131d2ad79af2221f91027853121d8b~1551660768,9781551660769.pdf",0,2000-01-01 01:00:00,2016-04-03 02:51:08,388000/40131d2ad79af2221f91027853121d8b-d.jpg,,
21681560,On Civil Procedure ,,Cambridge Studies in International and Comparative Law,,J. A. Jolowicz,2000,,Cambridge University Press,,444,0,English,,,,"9780511549540,0521584191,0511549547,9780521584197",,,,,347.41/05,KD7325 .J65 2000,,,OL33288M,,0,,,,,1,,1,1433887,pdf,40142CB86AAEADD9D5637F292E899BDE,,,"40142cb86aaeadd9d5637f292e899bde~9780511549540,0521584191,0511549547,9780521584197.pdf",0,2000-01-01 01:00:00,2016-04-03 02:51:08,388000/40142cb86aaeadd9d5637f292e899bde-d.jpg,,
21681561,The Limits of Thought: Discussions between J. Krishnamurti and David Bohm,,,,"David Bohm, J. Krishnamurti, Ray McCoy",1999,,Routledge,,144,0,English,,,,"0415193982,9780415193986,9780203260401",,,,,181/.4,B5134.K754 A5 1999,,,OL24800834M,,0,,,,,1,1,1,2710833,pdf,40150E38B7887B5DFDA22F04F29292B0,,,"40150e38b7887b5dfda22f04f29292b0~0415193982,9780415193986,9780203260401.pdf",0,2000-01-01 01:00:00,2016-04-03 02:51:08,388000/40150e38b7887b5dfda22f04f29292b0-d.jpg,,
21681562,A Handbook for Social Science Field Research: Essays & Bibliographic Sources on Research Design and Methods,,,,"Ellen Perecman, Dr. Sara R. Curran",2006,1,"Sage Publications, Inc",,280,0,English,181,,,"141291681X,9781412916813,1412916801,9781412916806",,,,,300/.72/3,H62 .H24528 2006,,,OL22724014M,,0,,,,,,1,1,2387158,pdf,40186FF74C71FB16BDEF71D859F894F3,,,"40186ff74c71fb16bdef71d859f894f3~141291681X,9781412916813,1412916801,9781412916806.pdf",0,2000-01-01 01:00:00,2016-04-03 02:51:08,388000/40186ff74c71fb16bdef71d859f894f3-d.jpg,,
21681563,Icons of Crime Fighting: Relentless Pursuers of Justice ,2 volumes,Greenwood Icons,,Jeffrey B. Bumgarner,2008,,Greenwood,,712,0,English,311,,,"031334129X,9780313341298,9781567206739",,,,,363.2092/273,HV8138 .I36 2008,,,OL16840028M,,0,,,,,1,1,1,5010631,pdf,40237B672247E1B17D8E964AD685D6F3,,,"40237b672247e1b17d8e964ad685d6f3~031334129X,9780313341298,9781567206739.pdf",0,2000-01-01 01:00:00,2016-04-03 02:51:08,388000/40237b672247e1b17d8e964ad685d6f3-d.jpg,,
21681564,Motivation for Achievement: Possibilities for Teaching and Learning,,,,M. Kay Alderman,2003,2,Routledge,,360,0,English,183,,,"0805843094,9780805843095,9781410609571",,,,,370.15/4,LB1065 .A477 2004,,,OL3675538M,,0,,,,,1,1,1,16778449,pdf,40260ABC85D2A4FDE4F9A6D162181E47,,,"40260abc85d2a4fde4f9a6d162181e47~0805843094,9780805843095,9781410609571.pdf",0,2000-01-01 01:00:00,2016-04-03 02:51:08,388000/40260abc85d2a4fde4f9a6d162181e47-d.jpg,,
21681565,Lectures on Kant's Political Philosophy,,,,"Hannah Arendt, Ronald Beiner",1989,,University Of Chicago Press,,182,0,English,195,,,"0226025950,9780226025957",,,,,,,,,OL18223077M,,0,,,,,1,,1,8973805,pdf,40274B4701AD3C25065FA39CA38A34F7,,,"40274b4701ad3c25065fa39ca38a34f7~0226025950,9780226025957.pdf",0,2000-01-01 01:00:00,2016-04-03 02:51:08,388000/40274b4701ad3c25065fa39ca38a34f7-d.jpg,,
21681566,Pharmaceutical Dosage Forms: Tablets: Unit Operations and Mechanical Properties,volume 1,,,Larry L. Augsburger,2008,3,Informa Healthcare,,656,0,English,302,,,0849390141,,,,,,,,,,,0,,,,,1,,0,88559835,pdf,40279DB097E58E356FBC9AE479C6EF95,,,40279db097e58e356fbc9ae479c6ef95~0849390141.pdf,0,2000-01-01 01:00:00,2016-04-03 02:51:08,388000/40279db097e58e356fbc9ae479c6ef95-d.jpg,,
21681567,Galaxy Blues,,,,Allen Steele,2008,,Ace Hardcover,,336,0,English,,,,"0441015646,9780441015641",,,,,813/.54,PS3569.T338425 G36 2008,,,OL10256220M,,0,,,,,1,,1,2128783,pdf,40291CCAD5E96AD8331B298C5A634B1E,,,"40291ccad5e96ad8331b298c5a634b1e~0441015646,9780441015641.pdf",0,2000-01-01 01:00:00,2016-04-03 02:51:08,388000/40291ccad5e96ad8331b298c5a634b1e-d.jpg,,
21681568,"Language Complexity: Typology, contact, change ",,Studies in Language Companion Series,,"Matti Miestamo, Kaius Sinnemaki, Fred Karlsson",2008,94,John Benjamins Publishing Company,,375,0,English,,,,"9027231044,9789027231048",,,,,410,P204 .L25 2008,,,OL16744437M,,0,,,,,,1,1,2547397,pdf,40342CD584E7D8C7A7E67C0630781868,,,"40342cd584e7d8c7a7e67c0630781868~9027231044,9789027231048.pdf",0,2000-01-01 01:00:00,2016-04-03 02:51:08,388000/40342cd584e7d8c7a7e67c0630781868-d.jpg,,
21681569,Fundamentals of Semiconductors: Physics and Materials Properties ,,Advanced Texts in Physics,,"Peter Y. Yu, Manuel Cardona",2004,3rd,Springer,,639,0,English,264,,,"3540413235,9783540413233",,,,,537.6/22,QC611 .Y88 2001,,,OL3941979M,,0,,,,,1,1,1,5112396,pdf,40346AE250BC163AB7C29FAD6A846B20,,,"40346ae250bc163ab7c29fad6a846b20~3540413235,9783540413233.pdf",0,2000-01-01 01:00:00,2016-04-03 02:51:08,388000/40346ae250bc163ab7c29fad6a846b20-d.jpg,,
21681570,"Collector\s Edition #58: CRUISE TO A WEDDING""",,,,Betty Neels,1998,New Ed,Harlequin Mills & Boon,,224,0,English,,,,"0263806790,9780263806793",,,,,,,,,,,0,,,,,1,,,257034,lit,40347ABAE4EBA0475A409C408CAF4BCA,,,"40347abae4eba0475a409c408caf4bca~0263806790,9780263806793.lit",0,2000-01-01 01:00:00,2016-04-03 02:51:08,388000/40347ABAE4EBA0475A409C408CAF4BCA-g.jpg,,
21681571,Friends Starter & 1 ,,FRND,,"Anna Walewska, Diane Hall",2002,,Longman,,96,0,English,,,,"058277375X,9780582773752",,,,,,,,,OL10695280M,,0,,,,,1,1,0,14932257,pdf,40348AE76D8F2A23CB627CAB5C43CFF1,,,"40348ae76d8f2a23cb627cab5c43cff1~058277375X,9780582773752.pdf",0,2000-01-01 01:00:00,2016-04-03 02:51:08,388000/40348ae76d8f2a23cb627cab5c43cff1-d.jpg,,
21681572,Compaq Visual Fortran: A Guide to Creating Windows Applications,,,,Norman Lawrence PhD  MEd,2002,1st,Digital Press,,484,0,English,85,,,"1555582494,9781555582494",,,,,005.133,,,,OL22121537M,,0,,,,,,1,0,10762356,pdf,40353FA3A26D9598F6A3E73D97352065,,,"40353fa3a26d9598f6a3e73d97352065~1555582494,9781555582494.pdf",0,2000-01-01 01:00:00,2016-04-03 02:51:08,388000/40353fa3a26d9598f6a3e73d97352065-d.jpg,,
21681573,The Wi-Fi Experience: Everyone's Guide to 802.11b Wireless Networking,,,,"Harold Davis, Richard Mansfield",2001,,Que,,176,0,English,99,,,"0789726629,9780789726629,9780768655209",,,,,,,,,OL8157504M,,0,,,,,1,,1,1959870,pdf,40391CA480DB10289FF82CCD7E8D0190,,,"40391ca480db10289ff82ccd7e8d0190~0789726629,9780789726629,9780768655209.pdf",0,2000-01-01 01:00:00,2016-04-03 02:51:08,388000/40391ca480db10289ff82ccd7e8d0190-d.jpg,,
21681574,Widow to Widow: How the Bereaved Help One Another ,,"Series in Death, Dying and Bereavement",,Phyllis R. Silverman,2004,2,Routledge,,240,0,English,,,,"0415947499,9780415947497,9780203020975",,,,,,,,,OL7497307M,,0,,,,,1,,1,928319,pdf,40409C577A545BFF98807597C8FDE456,,,"40409c577a545bff98807597c8fde456~0415947499,9780415947497,9780203020975.pdf",0,2000-01-01 01:00:00,2016-04-03 02:51:08,388000/40409c577a545bff98807597c8fde456-d.jpg,,
21681575,Texts and the Self in the Twelfth Century ,,Cambridge Studies in Medieval Literature,,Sarah Spence,1997,,Cambridge University Press,,182,0,English,64,,,"0521572797,9780521572798,0521024471,9780521024471,9780511518805",,,,,809/.93384,PN682.S34 S64 1996,,,OL7714114M,,0,,,,,1,,1,4437147,pdf,40410A13EA5DFA013B27292680622EFE,,,"40410a13ea5dfa013b27292680622efe~0521572797,9780521572798,0521024471,9780521024471,9780511518805.pdf",0,2000-01-01 01:00:00,2016-04-03 02:51:08,388000/40410a13ea5dfa013b27292680622efe-d.jpg,,
21681576,El Nombre De La Rosa/The Name Of The Rose,,,,Umberto Eco,1985,,Sites/Lumen Books,,552,0,Spanish,,,,"8426411487,9788426411488",,,,,,,,,OL22903093M,,0,,,,,,1,1,1838307,pdf,40412B284D06B3A701885FF4711C84C2,,,"40412b284d06b3a701885ff4711c84c2~8426411487,9788426411488.pdf",0,2000-01-01 01:00:00,2016-04-03 02:51:08,388000/40412b284d06b3a701885ff4711c84c2-d.jpg,,
21681577,Market Microstructure: Intermediaries and the Theory of the Firm,,,,Daniel F. Spulber,1999,,Cambridge University Press,,404,0,English,1,,,"0521650259,9780521659789,9780521650250,0521659787,9780511625930",,,,,,,,,OL373016M,,0,,,,,1,,1,7065313,pdf,40415A5099633A840BEFE069AB24068E,,,"40415a5099633a840befe069ab24068e~0521650259,9780521659789,9780521650250,0521659787,9780511625930.pdf",0,2000-01-01 01:00:00,2016-04-03 02:51:08,388000/40415a5099633a840befe069ab24068e-d.jpg,,
21681578,Stigum's Money Market,,,,"Marcia Stigum, Anthony Crescenzi",2007,4,McGraw-Hill,,1200,0,English,,,,"0071448454,9780071448451",,,,,,,10.1036/0071448454,,OL21577494M,,0,,,,,,,1,12230949,pdf,40449C33283415A92B5E0C880011EE79,,,"40449c33283415a92b5e0c880011ee79~0071448454,9780071448451.pdf",0,2000-01-01 01:00:00,2016-04-03 02:51:08,388000/40449c33283415a92b5e0c880011ee79-d.jpg,,
21681579,Reading the Popular,,,,John Fiske,1989,New edition,Routledge,,240,0,English,,,,"041507875X,9780415078757,9780203132111",,,,,,,,,OL16249974M,,0,,,,,1,,1,3768571,pdf,40466B9EA7215A793BA505DC4561B30A,,,"40466b9ea7215a793ba505dc4561b30a~041507875X,9780415078757,9780203132111.pdf",0,2000-01-01 01:00:00,2016-04-03 02:51:08,388000/40466b9ea7215a793ba505dc4561b30a-d.jpg,,
21681580,Critical Race Theory in Education: All God's Children Got a Song,,,,"Adrienne D. Dixson, Celia K. Rousseau",2006,1,Routledge,,224,0,English,183,,,"0415952921,9780415952927,9780203957042",,,,,,,,,OL24309276M,,0,,,,,1,,1,4876746,pdf,40468B85C1C25F91827889448D7D02E7,,,"40468b85c1c25f91827889448d7d02e7~0415952921,9780415952927,9780203957042.pdf",0,2000-01-01 01:00:00,2016-04-03 02:51:08,388000/40468b85c1c25f91827889448d7d02e7-d.jpg,,
21681581,"Advances in Organometallic Chemistry, Vol. 32",,,,"F.G.A. Stone, Robert West (Eds.)",1991,,Academic Press,,"iii-iv, 1-408",0,English,19,,0,978-0-12-031132-3,0065-3055,,,,,,,,,,0,,,,,1,,1,15373435,pdf,40542C84C8B74FF4B576C79C0141F85C,,,"40542c84c8b74ff4b576c79c0141f85c~0120311321,9780120311323,9780080580333.pdf",0,2000-01-01 01:00:00,2016-04-03 02:51:08,388000/40542c84c8b74ff4b576c79c0141f85c-d.jpg,,
21681582,The Cambridge Dictionary of Philosophy,,,,Robert Audi,1999,2,Cambridge University Press,,1039,0,English,195,,,"0521637228,9780521637220",,,,,,,,,,,0,,,,,,1,1,8477122,pdf,40589C62D0B38124663AA403ADE3D821,,,"40589c62d0b38124663aa403ade3d821~0521637228,9780521637220.pdf",0,2000-01-01 01:00:00,2016-04-03 02:51:08,388000/40589c62d0b38124663aa403ade3d821-d.jpg,,
21681583,Rosemary's Baby,,,,Ira Levin,1997,,Signet,,320,0,English,,,,"0451194004,9780451194008",,,,,,,,,OL7574014M,,0,,,,,1,,,253688,lit,40593A8E2E134B45187FDB15BA2AD87F,,,"40593a8e2e134b45187fdb15ba2ad87f~0451194004,9780451194008.lit",0,2000-01-01 01:00:00,2016-04-03 02:51:08,388000/40593a8e2e134b45187fdb15ba2ad87f-d.jpg,,
21681584,Mississippi: The WPA Guide to the Magnolia State,,,,"Works Progress Administration, Robert S. McElvaine",2009,,University Press of Mississippi,,577,0,English,,,,"160473292X,9781604732924",,,,,976.2,F341 .F45 2009,,,OL23192875M,,0,,,,,,1,1,35717829,pdf,40596AFFAEBF9E4C38BCA11B77D6A93E,,,"40596affaebf9e4c38bca11b77d6a93e~160473292X,9781604732924.pdf",0,2000-01-01 01:00:00,2016-04-03 02:51:08,388000/40596affaebf9e4c38bca11b77d6a93e-d.jpg,,
21681585,"Mathematical Applications and Modelling: Yearbook 2010, Association of Mathematics Educators",,,,"Berinderjeet Kaur, Berinderjeet Kaur, Jaguthsing Dindyal",2010,,World Scientific Publishing Company,,351,0,English,113,,,"9814313335,9789814313339",,,,,,,,,,,0,,,,,,,1,15736678,pdf,40612D19C651A9BA95A7A665A1E1E438,,,"40612d19c651a9ba95a7a665a1e1e438~9814313335,9789814313339.pdf",0,2000-01-01 01:00:00,2016-04-03 02:51:08,388000/40612d19c651a9ba95a7a665a1e1e438-d.jpg,,
21681586,Ornamental Origami: Exploring 3D Geometric Designs,,,,Meenakshi Mukerji,2008,,A K Peters,,154,0,English,121,,,"1568814453,9781568814452",,,,,736/.982,TT870 .M822 2008,,,OL16946077M,,0,,,,,1,,0,22369552,pdf,40632CB32DBC10BA18AE2A06CD342D24,,,"40632cb32dbc10ba18ae2a06cd342d24~1568814453,9781568814452.pdf",0,2000-01-01 01:00:00,2016-04-03 02:51:08,388000/40632cb32dbc10ba18ae2a06cd342d24-d.jpg,,
21681587,Waffen-ss Camouflage Uniforms And Post-war Derivatives ,,Europa Militaria Series,,Daniel Peterson,2003,,Crowood Press (UK),,64,0,English,64,,,"1861264747,9781861264749",,,,,,,,,OL8629437M,,0,,,,,1,,0,20744464,pdf,40638A8F6346C5C406F82D140039E109,,,"40638a8f6346c5c406f82d140039e109~1861264747,9781861264749.pdf",0,2000-01-01 01:00:00,2016-04-03 02:51:08,388000/40638a8f6346c5c406f82d140039e109-d.jpg,,
21681588,The Field of Solar Physics: Review and Recommendations for Ground-Based Solar Research,,,,"Committee on Solar Physics, National Research Council",1989,,National Academies Press,,72,0,English,264,,,"0309040825,9780309040822,9780585085470",,,,,523.7,QB521 .N37 1989,,,OL10357028M,,0,,,,,1,,0,2924517,pdf,40640B50B8251951F3BA2AAE1F6C9F4D,,,"40640b50b8251951f3ba2aae1f6c9f4d~0309040825,9780309040822,9780585085470.pdf",0,2000-01-01 01:00:00,2016-04-03 02:51:08,388000/40640b50b8251951f3ba2aae1f6c9f4d-d.jpg,,
21681589,Fair Value Accounting Fraud: New Global Risks and Detection Techniques,,,,Gerard M. Zack,2009,,Wiley,,250,0,English,2,,,"0470478586,9780470478585",,,,,657/.3,HF5681.B2 Z234 2009,,,OL23202334M,,0,,,,,1,,1,1487030,pdf,40694E8652F19082CA0F09D35DD1AAF4,,,"40694e8652f19082ca0f09d35dd1aaf4~0470478586,9780470478585.pdf",0,2000-01-01 01:00:00,2016-04-03 02:51:08,388000/40694e8652f19082ca0f09d35dd1aaf4-d.jpg,,
21681590,"Public Key Cryptography - PKC 2007: 10th International Conference on Practice and Theory in Public-Key Cryptography, Beijing, China, April 16-20, ... Computer Science / Security and Cryptology)",,,,"Tatsuaki Okamoto, Xiaoyun Wang",2007,1,Springer,,491,0,English,185,,,"3540716769,9783540716761,9783540716778",,,,,,,,,OL12810367M,,0,,,,,1,,1,4827631,pdf,40716C5C76AF0BA4D7040BC72FEE81CF,,,"40716c5c76af0ba4d7040bc72fee81cf~3540716769,9783540716761,9783540716778.pdf",0,2000-01-01 01:00:00,2016-04-03 02:51:08,388000/40716c5c76af0ba4d7040bc72fee81cf-d.jpg,,
21681591,The Development of attention: Research and Theory,,Advances in Psychology 69,,James T. Enns (Eds.),1990,1,North-Holland,,"iii-xv, 3-569",0,English,,,,978-0-444-88332-2,0166-4115,,,,153.7/33,BF321 .D48 1990,,,OL1879000M,,0,,,,,1,,1,30184014,pdf,40721E5DC9329938F22C9096E5076F19,,,"40721e5dc9329938f22c9096e5076f19~9780080867236,9780444883322,0444883320.pdf",0,2000-01-01 01:00:00,2016-04-03 02:51:08,388000/40721e5dc9329938f22c9096e5076f19-d.jpg,,
21681592,The Wolf and the Dove,,,,Kathleen E. Woodiwiss,1974,,Avon,,512,0,English,,,,"0380007789,9780380007783,9780060532062",,,,,,,,,OL21333814M,,0,,,,,,,1,2332257,pdf,40732E1466319E5ED2B687489AE0C9FE,,,"40732e1466319e5ed2b687489ae0c9fe~0380007789,9780380007783,9780060532062.pdf",0,2000-01-01 01:00:00,2016-04-03 02:51:08,388000/40732e1466319e5ed2b687489ae0c9fe-d.jpg,,
21681593,I.R.S. Corporate America,,,,"Vrancken, Desberg, Coquelicot",2005,,Lombard,,48,0,French,,,,"2803620715,9782803620715",,,,,,,,,,,0,,,,,1,1,0,18631280,pdf,40738FE3788194CD45A9E8A20B168C1F,,,"40738fe3788194cd45a9e8a20b168c1f~2803620715,9782803620715.pdf",0,2000-01-01 01:00:00,2016-04-03 02:51:08,388000/40738fe3788194cd45a9e8a20b168c1f-d.jpg,,
21681594,Kate Chopin ,,Bloom's Modern Critical Views,,Harold Bloom,2007,Updated,Chelsea House Publications,,235,0,English,64,,,"0791093697,9780791093696",,,,,813/.4,PS1294.C63 Z73 2007,,,OL17951056M,,0,,,,,,,1,1235637,pdf,40809D3D18B892694F54E911C6ED07CD,,,"40809d3d18b892694f54e911c6ed07cd~0791093697,9780791093696.pdf",0,2000-01-01 01:00:00,2016-04-03 02:51:08,388000/40809d3d18b892694f54e911c6ed07cd-d.jpg,,
21681595,Berserk in the Antarctic,,,,David Mercy,2006,1,Summersdale Publishers,,272,0,English,,,0,"1840244798,9781840244793,9781423747475",,,,,,,,,,,0,,,,,,1,1,1597082,pdf,40832CDE14810168677D9F2A72999EFE,,,"40832cde14810168677d9f2a72999efe~1840244798,9781840244793,9781423747475.pdf",0,2000-01-01 01:00:00,2016-04-03 02:51:08,388000/40832cde14810168677d9f2a72999efe-d.jpg,,
21681596,Die Verbesserung des Menschen: Tatsächliche und rechtliche Aspekte der wunscherfüllenden Medizin ,,MedR Schriftenreihe Medizinrecht,,"Ministerialdirigent Dr. jur. Wolfram H. Eberbach (auth.), Albrecht Wienke, Wolfram Eberbach, Hans-Jürgen Kramer, Kathrin Janke (eds.)",2009,1,Springer-Verlag Berlin Heidelberg,,181,0,German,,,,"3642008828,9783642008825",1431-1151,,,,,,10.1007/978-3-642-00883-2,2b9lN4--gJYC,,,0,,,,1,0,1,1,1018859,pdf,40842D8E479A11431E5687DBE9E365AA,,,"40842d8e479a11431e5687dbe9e365aa~3642008828,9783642008825.pdf",0,2000-01-01 01:00:00,2016-04-03 02:51:08,388000/40842d8e479a11431e5687dbe9e365aa-d.jpg,,
21681597,Timekeeper Conspiracy ,,"Timewars , No. 2",,Simon Hawke,1986,,Ace,,248,0,English,,,,"044181137X,9780441811373",,,,,,,,,OL7526991M,,0,,,,,1,,1,641259,pdf,40887A036BE91EFA6EAE2DD40331BC2C,,,"40887a036be91efa6eae2dd40331bc2c~044181137X,9780441811373.pdf",0,2000-01-01 01:00:00,2016-04-03 02:51:08,388000/40887a036be91efa6eae2dd40331bc2c-g.jpg,,
21681598,The Physical Basis of Biochemistry: The Foundations of Molecular Biophysics,,,,Peter R. Bergethon (auth.),2010,2,Springer-Verlag New York,,950,0,English,264,,,"1441963235,9781441963239",,,,,,,10.1007/978-1-4419-6324-6,,OL25045533M,,0,,,,,,1,1,40767361,pdf,40893B8FD15D5D4656AEAF16209BFD9B,,,"40893b8fd15d5d4656aeaf16209bfd9b~1441963235,9781441963239.pdf",0,2000-01-01 01:00:00,2016-04-03 02:51:08,388000/40893b8fd15d5d4656aeaf16209bfd9b-d.jpg,,
21681599,Makers of Modern Strategy from Machiavelli to the Nuclear Age,,,,Peter Paret,1986,Revised,Princeton Univ Pr,,952,0,English,,,,"0691092354,9780691092355",,,,,355/.02,U162 .M25 1986,,,OL21365037M,,0,,,,,,,0,52369461,pdf,40895F450BA7E3E2595ED0B9AD42D4B3,,,"40895f450ba7e3e2595ed0b9ad42d4b3~0691092354,9780691092355.pdf",0,2000-01-01 01:00:00,2016-04-03 02:51:08,388000/40895f450ba7e3e2595ed0b9ad42d4b3-g.jpg,,
21681600,Control Engineering: An Introductory Course,,,,"Jacqueline Wilkie, Michael A. Johnson, Reza Katebi",2002,,Palgrave,,750,0,English,210,,,"033377129X,9780333771297",,,,,,,,,OL9387388M,,0,,,,,,,1,7630050,chm,40898D9D00836F21E1781ACACDEC687C,,,"40898d9d00836f21e1781acacdec687c~033377129X,9780333771297.chm",0,2000-01-01 01:00:00,2016-04-03 02:51:08,388000/40898d9d00836f21e1781acacdec687c-d.jpg,,
21681601,"ACLS , Advanced Cardiac Life Support Review: Pearls of Wisdom",,,,"Michael Zevitz, Scott Plantz, William Gossman",2007,3,McGraw-Hill/Appleton & Lange,,173,0,English,29,,,"0071492577,9780071492577,9780071595001",,,,,,,10.1036/0071492577,,OL21897113M,,0,,,,,1,,1,6323075,pdf,40900EE1E8F811D216BF63703E0CE0CA,,,"40900ee1e8f811d216bf63703e0ce0ca~0071492577,9780071492577,9780071595001.pdf",0,2000-01-01 01:00:00,2016-04-03 02:51:08,388000/40900ee1e8f811d216bf63703e0ce0ca-d.jpg,,
21681602,Science and Its Role in the National Marine Fisheries Service,,,,National Research Council,2002,,National Academies Press,,98,0,English,181,,,"0309084628,9780309084628,9780309502368",,,,,,,,,OL3701846M,,0,,,,,1,,1,3304883,pdf,40918BC06FF41DA5D1281F6F10686B8F,,,"40918bc06ff41da5d1281f6f10686b8f~0309084628,9780309084628,9780309502368.pdf",0,2000-01-01 01:00:00,2016-04-03 02:51:08,388000/40918bc06ff41da5d1281f6f10686b8f-d.jpg,,
21681603,Impairment & Disability),,,,"Sheila McLean, Laura Williamson",2007,1,Routledge-Cavendish,,216,0,English,,,,"1844720411,9781844720415,9780203944981",,,,,,,,,OL18286557M,,0,,,,,,,1,1374274,pdf,40923BCB370EBEC5E0C4D051A3A91A87,,,"40923bcb370ebec5e0c4d051a3a91a87~1844720411,9781844720415,9780203944981.pdf",0,2000-01-01 01:00:00,2016-04-03 02:51:08,388000/40923bcb370ebec5e0c4d051a3a91a87-d.jpg,,
21681604,Consequences of Contact: Language Ideologies and Sociocultural Transformations in Pacific Societies,,,,"Miki Makihara, Bambi B. Schieffelin",2007,,"Oxford University Press, USA",,248,0,English,,,,"0195324986,9780195324983,0195324978,9780195324976,9781435673168",,,,,,,,,OL10135147M,,0,,,,,1,1,1,1731514,pdf,40925D37CF631208D28B06F48CE17CAC,,,"40925d37cf631208d28b06f48ce17cac~0195324986,9780195324983,0195324978,9780195324976,9781435673168.pdf",0,2000-01-01 01:00:00,2016-04-03 02:51:08,388000/40925d37cf631208d28b06f48ce17cac-d.jpg,,
21681605,Aquinas on Friendship ,,Oxford Philosophical Monographs,,Daniel Schwartz,2007,,"Oxford University Press, USA",,216,0,English,195,,,"0199205396,9780199205394,9781435621206",,,,,177.6092,BJ1533.F8 S36 2007,,,OL22748010M,,0,,,,,1,1,1,1371409,pdf,40938A836B17E689E94A7DDDA4633057,,,"40938a836b17e689e94a7ddda4633057~0199205396,9780199205394,9781435621206.pdf",0,2000-01-01 01:00:00,2016-04-03 02:51:08,388000/40938a836b17e689e94a7ddda4633057-d.jpg,,
21681606,"Medium-Chain Acyl-Coenzyme A Dehydrogenase Deficiency - A Bibliography and Dictionary for Physicians, Patients, and Genome Researchers",,,,Philip M. Parker,2007,,"ICON Group International, Inc",,110,0,English,303,,,"0497112558,9780497112554,9781429496834",,,,,,,,,,,0,,,,,1,,1,1216563,pdf,40971CBDA064E338B8E6A92C7867AE22,,,"40971cbda064e338b8e6a92c7867ae22~0497112558,9780497112554,9781429496834.pdf",0,2000-01-01 01:00:00,2016-04-03 02:51:08,388000/40971cbda064e338b8e6a92c7867ae22-d.jpg,,
21681607,The Heinie Prize ,,"Rotten School, No. 6",,"R.l. Stine, Trip Park",2006,,HarperCollins,,128,0,English,,,,"0060788143,9780060788148,9780061907708",,,,,,,,,OL24272482M,,0,,,,,1,,1,3091897,pdf,40991B495D76DD625618E23B5254AB46,,,"40991b495d76dd625618e23b5254ab46~0060788143,9780060788148,9780061907708.pdf",0,2000-01-01 01:00:00,2016-04-03 02:51:08,388000/40991b495d76dd625618e23b5254ab46-d.jpg,,
21681608,George Fox - An Autobiography,,,,George Fox,2007,,"NuVision Publications, LLC",,264,0,English,,,,"1595479686,9781595479686",,,,,,,,,OL12439329M,,0,,,,,1,1,1,959534,pdf,40998BE8AD184CB994B587799DE0D747,,,"40998be8ad184cb994b587799de0d747~1595479686,9781595479686.pdf",0,2000-01-01 01:00:00,2016-04-03 02:51:08,388000/40998be8ad184cb994b587799de0d747-d.jpg,,
21681609,Termination Dust,,,,Sue Henry,1996,,Avon,,320,0,English,,,,"0380724065,9780380724062,9780061368738",,,,,,,,,OL24297796M,,0,,,,,1,,1,1296955,pdf,41006E7D94BB54C21AE864B15FDED0DE,,,"41006e7d94bb54c21ae864b15fded0de~0380724065,9780380724062,9780061368738.pdf",0,2000-01-01 01:00:00,2016-04-03 02:51:08,388000/41006e7d94bb54c21ae864b15fded0de-d.jpg,,
21681610,Through the Looking Glass ,,,,Lewis Carroll,2006,Webster's Thesaurus Edition ,"ICON Group International, Inc.",,168,0,English,198,,,"0497252945,9780497252946",,,,,,,,,OL7652772M,,0,,,,,1,,1,1523787,pdf,41023C79BFB66D8D975A8EF0AA2F3179,,,"41023c79bfb66d8d975a8ef0aa2f3179~0497252945,9780497252946.pdf",0,2000-01-01 01:00:00,2016-04-03 02:51:08,388000/41023c79bfb66d8d975a8ef0aa2f3179-d.jpg,,
21681611,jQuery 1.3 with PHP,,,,Kae Verens,2009,,Packt Publishing,,248,0,English,92,,,"1847196985,9781847196989",,,,,,,,,,,0,,,,,1,,1,5192729,pdf,41028C1CA339DEE1F484E7AC7316525F,,,"41028c1ca339dee1f484e7ac7316525f~1847196985,9781847196989.pdf",0,2000-01-01 01:00:00,2016-04-03 02:51:08,388000/41028c1ca339dee1f484e7ac7316525f-d.jpg,,
21681612,Designing Professional Development in Literacy: A Framework for Effective Instruction ,,Solving Problems in the Teaching of Literacy,,"Catherine A. Rosemary Phd, Kathleen A. Roskos PhD, Leslie K. Landreth, Ronald Gallimore",2007,1,The Guilford Press,,180,0,English,,,,"1593854315,9781593854317,9781593857271",,,,,,,,,OL9745710M,,0,,,,,1,,1,3015823,pdf,41049F389127E654A133988F3F208368,,,"41049f389127e654a133988f3f208368~1593854315,9781593854317,9781593857271.pdf",0,2000-01-01 01:00:00,2016-04-03 02:51:08,388000/41049f389127e654a133988f3f208368-d.jpg,,
21681613,Hormone Replacement Therapy ,,Contemporary Endocrinology,,A. Wayne Meikle,1999,1st,Humana Press,,439,0,English,172,,,"0896036014,9780896036017,9781592597000",,,,,616.4/061,RM288 .H67 1999,,,OL32127M,,0,,,,,1,,1,3500146,pdf,41062D83F1E53AE0A44831A42A843C64,,,"41062d83f1e53ae0a44831a42a843c64~0896036014,9780896036017,9781592597000.pdf",0,2000-01-01 01:00:00,2016-04-03 02:51:08,388000/41062d83f1e53ae0a44831a42a843c64-d.jpg,,
21681614,The Symbolic Species: The Co-Evolution of Language and the Brain,,,,Terrence W. Deacon,1997,1st,W. W. Norton & Company,,265,0,English,,,,"0393038386,9780393038385",,,,,153.6,QP399 .D43 1997,,,OL992645M,,0,,,,,,,1,53777724,pdf,41062E5F1CBF45AAB0CA9BC2148348AF,,,"41062e5f1cbf45aab0ca9bc2148348af~0393038386,9780393038385.pdf",0,2000-01-01 01:00:00,2016-04-03 02:51:08,388000/41062e5f1cbf45aab0ca9bc2148348af-d.jpg,,
21681615,The Things of the World: A Social Phenomenology,,,,James A. Aho,1998,,Praeger,,184,0,English,,,,"0275962474,9780275962470,0275962482,9780275962487",,,,,301,HM24 .A453 1998,,,OL363329M,,0,,,,,1,1,1,7283044,pdf,41075C72D0AD739C5413B378EA53451C,,,"41075c72d0ad739c5413b378ea53451c~0275962474,9780275962470,0275962482,9780275962487.pdf",0,2000-01-01 01:00:00,2016-04-03 02:51:08,388000/41075c72d0ad739c5413b378ea53451c-d.jpg,,
21681616,Explaining ,,Leverhulme Primary Project Classroom Skills,,"Dr George A Brown, George Brown, Ted Wragg",1993,,Routledge,,64,0,English,,,,"0415083877,9780415083874,9780203138588",,,,,371.1/02,LB1027 .W65 1993,,,OL1717143M,,0,,,,,1,1,1,1400064,pdf,41079BE75701CCC8F6586547EC6F9C5B,,,"41079be75701ccc8f6586547ec6f9c5b~0415083877,9780415083874,9780203138588.pdf",0,2000-01-01 01:00:00,2016-04-03 02:51:08,388000/41079be75701ccc8f6586547ec6f9c5b-d.jpg,,
21681617,The Indian Way,,,,John M. Koller,1982,,Prentice Hall,,406,0,English,,,,"0023658002,9780023658006",,,,,294,BL2001.2 .K64,,,OL4262616M,,0,,,,,1,,0,32740836,pdf,41088BF4775413D27C8748F7D8F8551A,,,"41088bf4775413d27c8748f7d8f8551a~0023658002,9780023658006.pdf",0,2000-01-01 01:00:00,2016-04-03 02:51:08,388000/41088bf4775413d27c8748f7d8f8551a-d.jpg,,
21681618,Analog Behavioral Modeling with the Verilog-A Language,,,,"Dan FitzPatrick, Ira Miller",1997,1st,Springer,,232,0,English,,,,"9780306479182,9780792380443,0792380444",,,,,621.381/01/135369,TK7885.7 .F58 1998,,,OL686194M,,0,,,,,1,,1,6415764,pdf,41099B9ED50E2E532DE541E479607E86,,,"41099b9ed50e2e532de541e479607e86~9780306479182,9780792380443,0792380444.pdf",0,2000-01-01 01:00:00,2016-04-03 02:51:08,388000/41099b9ed50e2e532de541e479607e86-d.jpg,,
21681619,The Courage To Be a Single Mother: Becoming Whole Again After Divorce,,,,Sheila Ellison,2001,Becoming Whole Again After Divorce.,HarperOne,,272,0,English,,,,"0062516523,9780062516527,9780061840067",,,,,,,,,OL24267146M,,0,,,,,1,,1,701478,pdf,41104B0B052FBC26E073DF1B029EA912,,,"41104b0b052fbc26e073df1b029ea912~0062516523,9780062516527,9780061840067.pdf",0,2000-01-01 01:00:00,2016-04-03 02:51:08,388000/41104b0b052fbc26e073df1b029ea912-d.jpg,,
21681620,"Demographic Collapse: Indian Peru, 1520-1620 ",,Cambridge Latin American Studies,,Noble David Cook,2004,,Cambridge University Press,,324,0,English,,,,"0521523141,9780511572715,0521239958,0511572719,9780521239950,9780521523141",,,,,304.6/2/0985,F3429.3.P68 C66,,,OL4264080M,,0,,,,,1,,1,8145130,pdf,41117DD2590919A664F4D6F8D392899E,,,"41117dd2590919a664f4d6f8d392899e~0521523141,9780511572715,0521239958,0511572719,9780521239950,9780521523141.pdf",0,2000-01-01 01:00:00,2016-04-03 02:51:08,388000/41117dd2590919a664f4d6f8d392899e-d.jpg,,
21681621,Perfect Phrases for Real Estate Agents & Brokers ,,Perfect Phrases Series,,Dan Hamilton,2008,1,McGraw-Hill,,288,0,English,314,,,"0071588353,9780071588355,9780071641715",,,,,333.301/4,HD1375 .H324 2009,,,OL17008391M,,0,,,,,1,,1,681969,pdf,41146CFC8B384F587AD938506FB3CD73,,,"41146cfc8b384f587ad938506fb3cd73~0071588353,9780071588355,9780071641715.pdf",0,2000-01-01 01:00:00,2016-04-03 02:51:08,388000/41146cfc8b384f587ad938506fb3cd73-d.jpg,,
21681622,Cell Proliferation and Apoptosis,,,,"H. Mehmet, David Hughes, Huseyin Mehmet",2002,1,Taylor & Francis,,344,0,English,,,,"1859961932,9781859961933",,,,,,,,,OL17114849M,,0,,,,,,,1,6828431,pdf,41197C4CEAD22D52616205D6A5852092,,,"41197c4cead22d52616205d6a5852092~1859961932,9781859961933.pdf",0,2000-01-01 01:00:00,2016-04-03 02:51:08,388000/41197c4cead22d52616205d6a5852092-d.jpg,,
21681623,The Cognitive Neuroscience of Human Communication,,,,Vesna Mildner,2007,1,Psychology Press,,382,0,English,260,,,"0805854355,9780805854350,0203838106",,,,,612.8/233,QP360.5 .M53 2006,,,OL3425907M,,0,,,,,,1,1,4516316,pdf,41219D176B97D37DD82DCB92689AE9EE,,,"41219d176b97d37dd82dcb92689ae9ee~0805854355,9780805854350,0203838106.pdf",0,2000-01-01 01:00:00,2016-04-03 02:51:08,388000/41219d176b97d37dd82dcb92689ae9ee-d.jpg,,
21681624,"Managing Facilitated Processes: A Guide for Facilitators, Managers, Consultants, Event Planners, Trainers and Educators ",,Jossey-Bass Business & Management,,"Dorothy Strachan, Marian Pitters",2009,,Jossey-Bass,,208,0,English,7,,,"0470182679,9780470182673,9780470438039",,,,,1,HM751 .S772 2009,,,OL22842299M,,0,,,,,1,,1,2481931,pdf,41242D66EA06B6D9FD8680F1E40FEC06,,,"41242d66ea06b6d9fd8680f1e40fec06~0470182679,9780470182673,9780470438039.pdf",0,2000-01-01 01:00:00,2016-04-03 02:51:08,388000/41242d66ea06b6d9fd8680f1e40fec06-d.jpg,,
21681625,SCHOOL LEADERSHIP THAT WORKS: From Research to Results,,,,"Robert J. Marzano, Timothy Waters, Brian A. Mcnulty",2005,,Association for Supervision & Curriculum Deve,,194,0,English,99,,,"9781416602279,9781416603122,1416602275",,,,,,,,,OL8457631M,,0,,,,,1,1,1,2145546,pdf,41259DF8858CE6F310A503A301C66F50,,,"41259df8858ce6f310a503a301c66f50~9781416602279,9781416603122,1416602275.pdf",0,2000-01-01 01:00:00,2016-04-03 02:51:08,388000/41259df8858ce6f310a503a301c66f50-d.jpg,,
21681626,American Commodities in an Age of Empire,,,,Mona Domosh,2006,New Ed,Routledge,,208,0,English,64,,,"0415945720,9780415945721,9780203954850",,,,,337.73,HF1455 .D66 2006,,,OL20907617M,,0,,,,,1,,1,9808606,pdf,41267A4184D29BE1A6378A18E6F2F3B7,,,"41267a4184d29be1a6378a18e6f2f3b7~0415945720,9780415945721,9780203954850.pdf",0,2000-01-01 01:00:00,2016-04-03 02:51:08,388000/41267a4184d29be1a6378a18e6f2f3b7-d.jpg,,
21681627,Making Sense of Television: The Psychology of Audience Interpretation ,,International Series in Social Psychology,,Sonia Livingstone,1998,2,Routledge,,224,0,English,198,,,"041518536X,9780415185363,0080367607,9780080367606",,,,,302.23/45,PN1992.6 .L56 1990,,,OL2214968M,,0,,,,,,,1,14869357,pdf,41282EF337F52B35DD8C320927870632,,,"41282ef337f52b35dd8c320927870632~041518536X,9780415185363,0080367607,9780080367606.pdf",0,2000-01-01 01:00:00,2016-04-03 02:51:08,388000/41282ef337f52b35dd8c320927870632-d.jpg,,
21681628,Ecologie comportementale: Cours et questions de reflexion,,,,Etienne Danchin; Luc-Alain Giraldeau; Frank Cezilly,2005,,Dunod,,637,0,French,31,,,"2100054996,9782100054992",,,,,591.5,QL751,,,OL22168546M,,0,,,,1,0,1,1,10044462,pdf,41286B2F43FA77C38203AD0FF7CE9621,,,"41286b2f43fa77c38203ad0ff7ce9621~2100054996,9782100054992.pdf",0,2000-01-01 01:00:00,2016-04-03 02:51:08,388000/41286b2f43fa77c38203ad0ff7ce9621-d.jpg,,
21681629,Awful Gestures,,,,Adrienne Weiss,2002,,Insomniac Press,,59,0,English,,,,"1894663128,9781894663120",,,,,811/.6,PR9199.4.W44 A96 2001,,,OL3544744M,,0,,,,,,1,1,1076292,pdf,41317CEAF88FED8A78514E3F097C7847,,,"41317ceaf88fed8a78514e3f097c7847~1894663128,9781894663120.pdf",0,2000-01-01 01:00:00,2016-04-03 02:51:08,388000/41317ceaf88fed8a78514e3f097c7847-d.jpg,,
21681630,Cut Costs Not Corners: A Practical Guide to Staying Competitive and Improving Profits,,,,Colin Barrow,2010,,Kogan Page,,184,0,English,183,,,"074945976X,9780749459765,0749459778,9780749459772",,,,,658.15/52,HD47.3 .B36 2010,,,OL23971852M,,0,,,,,,1,1,1165806,pdf,41333FF79844343753170663153DF91F,,,"41333ff79844343753170663153df91f~074945976X,9780749459765,0749459778,9780749459772.pdf",0,2000-01-01 01:00:00,2016-04-03 02:51:08,388000/41333ff79844343753170663153df91f-d.jpg,,
21681631,Building Type Basics for Museums,,,,Arthur Rosenblatt,2001,,Wiley,,288,0,English,236,,,"0471349151,9780471349150",,,,,,,,,OL7615510M,,0,,,,,,,1,23063672,chm,41346CDFBE5857B182495B28A7420FA9,,,"41346cdfbe5857b182495b28a7420fa9~0471349151,9780471349150.chm",0,2000-01-01 01:00:00,2016-04-03 02:51:08,388000/41346cdfbe5857b182495b28a7420fa9-d.jpg,,
21681632,MacBest. Roman. ,,Fantasy .,,Terry Pratchett,1992,,Heyne,,318,0,German,236,,,"3453054083,9783453054080",,,,,,,,,OL9040686M,,0,,,,,,,1,1560131,pdf,41359CF16CC72A39B08214066030AB9C,,,"41359cf16cc72a39b08214066030ab9c~3453054083,9783453054080.pdf",0,2000-01-01 01:00:00,2016-04-03 02:51:08,388000/41359cf16cc72a39b08214066030ab9c-d.jpg,,
21681633,"The Resurgence of East Asia: 500, 150 and 50 Year Perspectives ",,Asia's Transformations,,Giovanni Arrighi,2003,1,Routledge,,368,0,English,,,,"0415316375,9780415316378",,,,,330.95/03,HC460.5 .R475 2003,,,OL22533478M,,0,,,,,1,,1,26840795,pdf,41410E58236BD56FD62D0E0AB2955C64,,,"41410e58236bd56fd62d0e0ab2955c64~0415316375,9780415316378.pdf",0,2000-01-01 01:00:00,2016-04-03 02:51:08,388000/41410e58236bd56fd62d0e0ab2955c64-d.jpg,,
21681634,Seafood Enzymes: Utilization and Influence on Postharvest Seafood Quality ,,Food Science and Technology,,"Norman F. Haard, Benjamin K. Simpson",2000,1,CRC Press,,681,0,English,229,,,"082470326X,9780824703264,9780585379753",,,,,,,,,OL18139992M,,0,,,,0,1,,1,10823478,pdf,41416C50DCDDA4EEC68177501CD125B4,,,"41416c50dcdda4eec68177501cd125b4~082470326X,9780824703264,9780585379753.pdf",0,2000-01-01 01:00:00,2016-04-03 02:51:08,388000/41416c50dcdda4eec68177501cd125b4-d.jpg,,
21681635,Memory: Organization and Locus of Change,,,,"Larry R. Squire, Norman M. Weinberger, Gary Lynch, James L. McGaugh",1992,,"Oxford University Press, USA",,448,0,English,,,,"0195069218,9780195069211",,,,,612.8/2,QP406 .M457 1991,,,OL1537696M,,0,,,,,,1,1,34902717,pdf,41428A4835917CA59388CDE2F6FE646A,,,"41428a4835917ca59388cde2f6fe646a~0195069218,9780195069211.pdf",0,2000-01-01 01:00:00,2016-04-03 02:51:08,388000/41428a4835917ca59388cde2f6fe646a-d.jpg,,
21681636,Agents and Lives,,,,S. L. Goldberg,2009,1,Cambridge University Press,,352,0,English,,,,"0521112443,9780521112444,0521394686,9780521394680",,,,,820.9,PR21 .G65 1993,,,OL1706188M,,0,,,,,,,1,8838936,pdf,41449BBEE360E07C79F7DEFE7A9AFD40,,,"41449bbee360e07c79f7defe7a9afd40~0521112443,9780521112444,0521394686,9780521394680.pdf",0,2000-01-01 01:00:00,2016-04-03 02:51:08,388000/41449bbee360e07c79f7defe7a9afd40-d.jpg,,
21681637,A Short History of Society: The Making of the Modern World,,,,Mary Evans,2006,1,Open University Press,,144,0,English,64,,,"0335220673,9780335220670,9780335229727",,,,,,,,,OL10562245M,,0,,,,,1,,1,834571,pdf,41480F0BE863E3C75B62CDF1A7E18EB1,,,"41480f0be863e3c75b62cdf1a7e18eb1~0335220673,9780335220670,9780335229727.pdf",0,2000-01-01 01:00:00,2016-04-03 02:51:08,388000/41480f0be863e3c75b62cdf1a7e18eb1-d.jpg,,
21681638,The Social Psychology of the Classroom ,,Routledge Research in Education,,Elisha Babad,2009,1,Routledge,,276,0,English,198,,,"0415999294,9780415999298",,,,,371.102/4019,LB3013 .B23 2009,,,OL23174618M,,0,,,,,,1,1,2405048,pdf,41493F12E00C8CC5191D301B58F4047F,,,"41493f12e00c8cc5191d301b58f4047f~0415999294,9780415999298.pdf",0,2000-01-01 01:00:00,2016-04-03 02:51:08,388000/41493f12e00c8cc5191d301b58f4047f-d.jpg,,
21681639,Russian Policy towards China and Japan: The Yeltsin and Putin Periods ,,BASEES/Curzon Series on Russian & East European Studies,,Natasha Kuhrt,2008,1,Routledge,,240,0,English,37,,,"0415305780,9780415305785,9780203716885",,,,,327.47051,DK68.7.C5 K84 2007,,,OL19863641M,,0,,,,,1,1,1,1090752,pdf,41514E53F475DD16E4FC0DE1E35D21F6,,,"41514e53f475dd16e4fc0de1e35d21f6~0415305780,9780415305785,9780203716885.pdf",0,2000-01-01 01:00:00,2016-04-03 02:51:08,388000/41514e53f475dd16e4fc0de1e35d21f6-d.jpg,,
21681640,The Art of Humour in the Teatro Breve and Comedias of Calderón de la Barca ,,Monografías A,,Ted L.L. Bergman,2003,,Tamesis Books,,255,0,Spanish,,,,"9781846150227,9781855660960,1855660962",,,,,862/.3,PQ6317.H85 B47 2003,,,OL3672962M,,0,,,,,1,1,1,1231187,pdf,41515E6D3859E99E3EEA0D5CFBBF7C8D,,,"41515e6d3859e99e3eea0d5cfbbf7c8d~9781846150227,9781855660960,1855660962.pdf",0,2000-01-01 01:00:00,2016-04-03 02:51:08,388000/41515e6d3859e99e3eea0d5cfbbf7c8d-d.jpg,,
21681641,Electrochemistry of Silicon and Its Oxide,,,,Xiaoge Gregory Zhang,2001,1st,Springer,,522,0,English,296,,,"0306465418,9780306465413,9780306479212",,,,,,,,,OL17028309M,,0,,,,,1,,1,25131487,pdf,41519FA309CBCDFA859E6DAF91A06295,,,"41519fa309cbcdfa859e6daf91a06295~0306465418,9780306465413,9780306479212.pdf",0,2000-01-01 01:00:00,2016-04-03 02:51:08,388000/41519fa309cbcdfa859e6daf91a06295-d.jpg,,
21681642,Chinese Theories Of Reading And Writing: A Route To Hermeneutics And Open Poetics ,,S U N Y Series in Chinese Philosophy and Culture,,Ming Dong Gu,2005,,State University of New York Press,,334,0,English,195,,,"0791464237,9780791464236,0791464245,9780791464243,9781423744092",,,,,,,,,OL7803416M,,0,,,,,1,1,1,6857619,pdf,41529A46F08D30669A8B9CDECC8A948A,,,"41529a46f08d30669a8b9cdecc8a948a~0791464237,9780791464236,0791464245,9780791464243,9781423744092.pdf",0,2000-01-01 01:00:00,2016-04-03 02:51:08,388000/41529a46f08d30669a8b9cdecc8a948a-d.jpg,,
21681643,Flex 3 with Java,,,,Satish Kore,2009,,Packt Publishing,,304,0,English,92,,,"1847195342,9781847195340",,,,,,,,QffDPwAACAAJ,,,0,,,,1,0,,1,2913929,pdf,41536C26D1290E161C0F070A367EDE74,,,"41536c26d1290e161c0f070a367ede74~1847195342,9781847195340.pdf",0,2000-01-01 01:00:00,2016-04-03 02:51:08,388000/41536c26d1290e161c0f070a367ede74-d.jpg,,
21681644,Delta de venus 13-20 ,,,,Anais Nin,2008,,Alianza Editorial Sa,,352,0,Spanish,,,,"8420667889,9788420667881",,,,,,,,,,,0,,,,,1,,1,717558,pdf,41541DB7197CAA591A928B343464BAB2,,,"41541db7197caa591a928b343464bab2~8420667889,9788420667881.pdf",0,2000-01-01 01:00:00,2016-04-03 02:51:08,388000/41541db7197caa591a928b343464bab2-d.jpg,,
21681645,Examples and Counterexamples in Graph Theory,,,,"Michael Capobianco, John C. Molluzzo",1978,,Elsevier Science Ltd,,270,0,English,140,,,"0444002553,9780444002556",,,,,511/.5,QA166 .C36,,1OjuAAAAMAAJ,OL4556670M,,0,,,,0,1,,1,14513961,pdf,41551AFB82757D55DD09AB1AA3955AD3,,,"41551afb82757d55dd09ab1aa3955ad3~0444002553,9780444002556.pdf",0,2000-01-01 01:00:00,2016-04-03 02:51:08,388000/41551afb82757d55dd09ab1aa3955ad3-g.jpg,,
21681646,Handbook of Hospitality Strategic Management ,,Handbooks of Hospitality Management,,"Michael Olsen, Jinlin Zhao",2008,,Butterworth-Heinemann,,512,0,English,,,,"0080450792,9780080450797,9780080914343",,,,,,,,,,,0,,,,,1,,1,2005637,pdf,41567BAC954BF51C6048315205BA721B,,,"41567bac954bf51c6048315205ba721b~0080450792,9780080450797,9780080914343.pdf",0,2000-01-01 01:00:00,2016-04-03 02:51:08,388000/41567bac954bf51c6048315205ba721b-d.jpg,,
21681647,Developmental Biology of Fern Gametophytes ,,Developmental and Cell Biology Series,,V. Raghavan,1989,,Cambridge University Press,,384,0,English,12,,,"9780511529757,052133022X,0521017254,0511529759,9780521017251,9780521330220",,,,,587/.31043,QK521 .R34 1989,,,OL2045862M,,0,,,,,1,,1,19733982,pdf,41572CD68A9E22BA5D0BB123708115DE,,,"41572cd68a9e22ba5d0bb123708115de~9780511529757,052133022X,0521017254,0511529759,9780521017251,9780521330220.pdf",0,2000-01-01 01:00:00,2016-04-03 02:51:08,388000/41572cd68a9e22ba5d0bb123708115de-d.jpg,,
21681648,The Apprentice Property Master,,,,Paul Torrisi,2008,,Spring Hill,,198,0,English,,,,"1905862180,9781905862184,9781848032958",,,,,,,,,,,0,,,,,1,1,1,804778,pdf,41576B9AA77CC4DF222AF0F65028B7F1,,,"41576b9aa77cc4df222af0f65028b7f1~1905862180,9781905862184,9781848032958.pdf",0,2000-01-01 01:00:00,2016-04-03 02:51:08,388000/41576b9aa77cc4df222af0f65028b7f1-d.jpg,,
21681649,Saliva Tree,,,,Brian Wilson Aldiss,2001,,House of Stratus,,200,0,English,,,,"9780755100835,0755100832",,,,,,,,,OL7992334M,,0,,,,,1,,1,233454,pdf,41576FC671966F52A65A48EE2127AAB8,,,"41576fc671966f52a65a48ee2127aab8~9780755100835,0755100832.pdf",0,2000-01-01 01:00:00,2016-04-03 02:51:08,388000/41576fc671966f52a65a48ee2127aab8-d.jpg,,
21681650,"Autism Spectrum Disorders in Infants and Toddlers: Diagnosis, Assessment, and Treatment",,,,"Katarzyna Chawarska PhD, PhD Ami Klin PhD, MD Fred  R. Volkmar MD, Michael D. Powers PsyD",2008,1,The Guilford Press,,348,0,English,,,,"1593856490,9781593856496,9781606230046",,,,,,,,,OL12432392M,,0,,,,,1,,1,1534296,pdf,41582D72A96B077D8766848504A4C125,,,"41582d72a96b077d8766848504a4c125~1593856490,9781593856496,9781606230046.pdf",0,2000-01-01 01:00:00,2016-04-03 02:51:08,388000/41582d72a96b077d8766848504a4c125-d.jpg,,
21681651,Loomis's Essentials of Toxicology,,,,"Ted A. Loomis, A. Wallace Hayes",1996,4,Academic Press,,282,0,English,,,,"0124556256,9780124556256,9780080535630",,,,,615.9,RA1211 .L6 1996,,,OL804891M,,0,,,,,1,,1,7585081,pdf,41587F4D6E545DC6931849C9474878F6,,,"41587f4d6e545dc6931849c9474878f6~0124556256,9780124556256,9780080535630.pdf",0,2000-01-01 01:00:00,2016-04-03 02:51:08,388000/41587f4d6e545dc6931849c9474878f6-d.jpg,,
21681652,Life in the Universe: An Assessment of U.S. and International Programs in Astrobiology,,,,National Research Council,2003,,National Academy Press,,48,0,English,12,,,"0309084962,9780309084963,9780309512602",,,,,576.8/39/072073,QH325 .L6935 2003,,XW1_AtpTrWYC,OL10358578M,,0,,,,,1,,1,831084,pdf,41592EC10684AB0D0141F85C82141FF9,,,"41592ec10684ab0d0141f85c82141ff9~0309084962,9780309084963,9780309512602.pdf",0,2000-01-01 01:00:00,2016-04-03 02:51:08,388000/41592ec10684ab0d0141f85c82141ff9-d.jpg,,
21681653,A Nation by Design: Immigration Policy in the Fashioning of America,,,,Aristide R. Zolberg,2008,,Harvard University Press,,672,0,English,,,,"0674030745,9780674030749,0674022181,9780674022188,9780674045460",,B002J4UYLU,,,325.73,JV6483 .Z65 2006,,,OL22725205M,,0,,,,,1,,1,1999130,pdf,41603B2BDEBFC6B0DB3CE0CD057571CE,,,"41603b2bdebfc6b0db3ce0cd057571ce~0674030745,9780674030749,0674022181,9780674022188,B002J4UYLU,9780674045460.pdf",0,2000-01-01 01:00:00,2016-04-03 02:51:08,388000/41603b2bdebfc6b0db3ce0cd057571ce-d.jpg,,
21681654,"How to Write Essays: A step-by-step guide for all levels, with sample essays",,,,Don Shiach,2007,,How To Books,,163,0,English,183,,,"1845281640,9781845281649,9781848030565",,,,,,,,,OL11911722M,,0,,,,,1,,1,1696810,pdf,41611AB08100B57F5CBE6A4DCE0DD145,,,"41611ab08100b57f5cbe6a4dce0dd145~1845281640,9781845281649,9781848030565.pdf",0,2000-01-01 01:00:00,2016-04-03 02:51:08,388000/41611ab08100b57f5cbe6a4dce0dd145-d.jpg,,
21681655,Touching the World,,,,Paul John Eakin,1992,,Princeton University Press,,268,0,English,,,,"0691068208,9780691068206,9781400811434",,,,,818/.50809,PS366.A88 E27 1992,,,OL1555327M,,0,,,,,1,,1,1095572,pdf,41645A6B94318FD8ECE39833EAAB92E6,,,"41645a6b94318fd8ece39833eaab92e6~0691068208,9780691068206,9781400811434.pdf",0,2000-01-01 01:00:00,2016-04-03 02:51:08,388000/41645a6b94318fd8ece39833eaab92e6-d.jpg,,
21681656,"Geographic Information Science: 6th International Conference, GIScience 2010, Zurich, Switzerland, September 14-17, 2010. Proceedings ",,"Lecture Notes ... Applications, incl. Internet/Web, and HCI",,"Sara Irina Fabrikant, Tumasch Reichenbacher, Marc van Kreveld, Christoph Schlieder",2010,1st Edition.,Springer,,337,0,English,185,,,"3642152996,9783642152993",,,,,,,,,OL25202206M,,0,,,,,,1,1,14165977,pdf,41659C6EE162A5CFB7790A781714298A,,,"41659c6ee162a5cfb7790a781714298a~3642152996,9783642152993.pdf",0,2000-01-01 01:00:00,2016-04-03 02:51:08,388000/41659c6ee162a5cfb7790a781714298a-d.jpg,,
21681657,"Advances in Librarianship, Vol. 28",,,,Danuta A. Nitecki,2004,,Emerald Group Publishing,,224,0,English,,,0,"0120246287,9780120246281",,,,,,,,,,,0,,,,,1,1,1,1520635,pdf,41669E27DE88A905ACD7D18A8F2A5A37,,,"41669e27de88a905acd7d18a8f2a5a37~0120246287,9780120246281.pdf",0,2000-01-01 01:00:00,2016-04-03 02:51:08,388000/41669e27de88a905acd7d18a8f2a5a37-d.jpg,,
21681658,Challenging Moral Particularism ,,Routledge Studies in Ethics and Moral Theory,,"Matjaz Potrc, Vojko Strahovnik, Mark Noriss Lance",2008,,Routledge,,232,0,English,,,,"041596377X,9780415963770,9780203937785",,,,,170,BJ1012 .C4535 2008,,,OL10209004M,,0,,,,,1,1,1,1302269,pdf,41673CAEF6DFC4379FB2DEFFBDD32273,,,"41673caef6dfc4379fb2deffbdd32273~041596377X,9780415963770,9780203937785.pdf",0,2000-01-01 01:00:00,2016-04-03 02:51:08,388000/41673caef6dfc4379fb2deffbdd32273-d.jpg,,
21681659,Handbook of College Science Teaching PB205X ,,,,Joel J. Mintzes,2006,,National Science Teachers Association,,416,0,English,183,,,"0873552601,9780873552608,9781933531908",,,,,,,,,OL11117049M,,0,,,,,,1,1,4358248,pdf,41691D585ABDF4F64CCD62B34C0687CA,,,"41691d585abdf4f64ccd62b34c0687ca~0873552601,9780873552608,9781933531908.pdf",0,2000-01-01 01:00:00,2016-04-03 02:51:08,388000/41691d585abdf4f64ccd62b34c0687ca-d.jpg,,
21681660,From Peirce to Skolem: A Neglected Chapter in the History of Logic,,Studies in the History and Philosophy of Mathematics 4,,Geraldine Brady (Eds.),2000,1,North Holland,,1-468,0,English,64,,,"044450334X,9780444503343,9780080532028",0928-2017,,,,511.3/09034,QA9 .B73 2000,,,OL6789778M,,0,,,,,,,1,21445841,pdf,41697CE7AABB72CEEDC49FB20301E144,,,"41697ce7aabb72ceedc49fb20301e144~044450334X,9780444503343,9780080532028.pdf",0,2000-01-01 01:00:00,2016-04-03 02:51:08,388000/41697ce7aabb72ceedc49fb20301e144-d.jpg,,
21681661,"Race, Ethnicity, and Language Data: Standardization for Health Care Quality Improvement",,,,"Subcommittee on Standardized Collection of Race/Ethnicity Data for Healthcare Quality Improvement, Institute of Medicine, Cheryl Ulmer, Bernadette McFadden, David R. Nerenz",2009,,National Academies Press,,286,0,English,86,,,"0309140129,9780309140126",,,,,362.108900973,RA563.M56 R3255 2009,,,OL24480166M,,0,,,,,,1,1,2590104,pdf,41708CB6CED488E530C9BF70D957BF60,,,"41708cb6ced488e530c9bf70d957bf60~0309140129,9780309140126.pdf",0,2000-01-01 01:00:00,2016-04-03 02:51:08,388000/41708cb6ced488e530c9bf70d957bf60-d.jpg,,
21681662,Dwelling Place: A Plantation Epic,,,,Erskine Clarke,2005,1St Edition,Yale University Press,,624,0,English,29,,,"0300108672,9780300108675,030012256X,9780300122565,9780300133288",,,,,"305.896/0730758733/09034,B",F292.L6 C58 2005,,,OL22718655M,,0,,,,,1,1,1,3122096,pdf,41738B3C7E8B73FF19F0B1BEEE60EC79,,,"41738b3c7e8b73ff19f0b1beee60ec79~0300108672,9780300108675,030012256X,9780300122565,9780300133288.pdf",0,2000-01-01 01:00:00,2016-04-03 02:51:08,388000/41738b3c7e8b73ff19f0b1beee60ec79-d.jpg,,
21681663,"Hybrid Learning: Third International Conference, ICHL 2010, Beijing, China, August 16-18, 2010, Proceedings ",,Lecture Notes in Computer Science / Theoretical Computer Science and General Issues,,"Philip Tsang, Simon K.S. Cheung, Victor S.K. Lee, Ronghuai Huang",2010,1st Edition.,Springer,,549,0,English,183,,,"3642146562,9783642146565",,,,,,,10.1007/978-3-642-14657-2,,OL25249747M,,0,,,,,,1,1,11327849,pdf,41740A9C598B47B6CA433DE27F222DCA,,,"41740a9c598b47b6ca433de27f222dca~3642146562,9783642146565.pdf",0,2000-01-01 01:00:00,2016-04-03 02:51:08,388000/41740a9c598b47b6ca433de27f222dca-d.jpg,,
21681664,Aging and the Religious Dimension,,,,"L. Eugene Thomas, Susan A. Eisenhandler",1994,First Edition,Auburn House,,272,0,English,205,,,"0865692106,9780865692107",,,,,261.8/3426,BL65.A46 A55 1994,,,OL1401179M,,0,,,,1,0,1,1,13559863,pdf,41757AB1F2BB935B8CF91633EF1D323F,,,"41757ab1f2bb935b8cf91633ef1d323f~0865692106,9780865692107.pdf",0,2000-01-01 01:00:00,2016-04-03 02:51:08,388000/41757ab1f2bb935b8cf91633ef1d323f-d.jpg,,
21681665,Everyday Language and Everyday Life,,,,Richard Hoggart,2003,,Transaction Publishers,,181,0,English,,,,"0765801760,9780765801760,9781412800211",,,,,306.44/0942,PE1074.8 .H64 2003,,,OL22540222M,,0,,,,,1,,1,551687,pdf,41789C77E0E2B2409E45C6330BB5833F,,,"41789c77e0e2b2409e45c6330bb5833f~0765801760,9780765801760,9781412800211.pdf",0,2000-01-01 01:00:00,2016-04-03 02:51:08,388000/41789c77e0e2b2409e45c6330bb5833f-d.jpg,,
21681666,Berichte zu Tierarzneimitteln 2009: Gesundheitl. Bewertung von pharmakologisch wirksamen Substanzen; Lebensmittelsicherheit von Rückständen von ... BVL-Reporte,,,,Peter Brandt,2009,1st Edition.,Birkhäuser Basel,,71,0,German,173,,,"3034602944,9783034602945",,,,,,,,,,,0,,,,0,0,1,1,13869141,pdf,41797F7E9D30CC7A6C0570B9CD8C76DD,,,"41797f7e9d30cc7a6c0570b9cd8c76dd~3034602944,9783034602945.pdf",0,2000-01-01 01:00:00,2016-04-03 02:51:08,388000/41797f7e9d30cc7a6c0570b9cd8c76dd-d.jpg,,
21681667,Marx's Theory of Alienation,,,,Istvan Meszaros,2006,5,Merlin Press,,356,0,English,,,,0850365546,,,,,,,,,,,0,,,,,1,,0,9251452,djvu,41801DD04E7C3C15DEAC47DCBDE7F681,353f15bb3d2d15e4cbe18a0196c86c27,no,41801dd04e7c3c15deac47dcbde7f681~0850365546.djvu,0,2000-01-01 01:00:00,2016-04-03 02:51:08,388000/41801dd04e7c3c15deac47dcbde7f681-d.jpg,,
21681668,Wireless Internet Opportunity for Developing Countries ,,Ict Task Force Series,,United Nations,2004,,United Nations,,376,0,English,100,,,"0974760706,9780974760704,9781417548637",,,,,,,,,OL9306865M,,0,,,,,1,,1,9990992,pdf,41812A5F5E8D225F080F6F69BB86AEDD,,,"41812a5f5e8d225f080f6f69bb86aedd~0974760706,9780974760704,9781417548637.pdf",0,2000-01-01 01:00:00,2016-04-03 02:51:08,388000/41812a5f5e8d225f080f6f69bb86aedd-d.jpg,,
21681669,Organic Laser Diodes: Modelling and Simulation,,,,Christian Gärtner,2009,,KIT Scientific Publishing,,192,0,English,264,,,"3866443455,9783866443457",,,,,,,,,,,0,,,,,1,,1,2137042,pdf,41826CB751ECA9C9956DA275C22CDE78,,,"41826cb751eca9c9956da275c22cde78~3866443455,9783866443457.pdf",0,2000-01-01 01:00:00,2016-04-03 02:51:08,388000/41826cb751eca9c9956da275c22cde78-d.jpg,,
21681670,Success Made Simple: An Inside Look at Why Amish Businesses Thrive,,,,"Erik Wesner, Donald B. Kraybill",2010,,Jossey-Bass,,256,0,English,1,,,"0470442379,9780470442371,0470597305,9780470597309",,,,,658.4/09,HF5386 .W443 2010,,,OL23962398M,,0,,,,,1,,1,1002486,pdf,41830E4E346848B1425048E17A65DF5B,,,"41830e4e346848b1425048e17a65df5b~0470442379,9780470442371,0470597305,9780470597309.pdf",0,2000-01-01 01:00:00,2016-04-03 02:51:08,388000/41830e4e346848b1425048e17a65df5b-d.jpg,,
21681671,Volvox: A Search for the Molecular and Genetic Origins of Multicellularity and Cellular Differentiation ,,Developmental and Cell Biology Series,,David L. Kirk,2005,,Cambridge University Press,,400,0,English,22,,,"0521019141,9780521019149,0521452074,9780521452076",,,,,579.8/32,QK569.V9 K57 1998,,,OL1001079M,,0,,,,,,,1,27710948,pdf,41883FF3E3EE80530204C018EE4D17EA,,,"41883ff3e3ee80530204c018ee4d17ea~0521019141,9780521019149,0521452074,9780521452076.pdf",0,2000-01-01 01:00:00,2016-04-03 02:51:08,388000/41883ff3e3ee80530204c018ee4d17ea-d.jpg,,
21681672,"Locality, Regeneration and Divers c ities: Advances in Art and Urban Futures",Volume 1 ,,,Sarah Bennett,2000,,Intellect Ltd,,158,0,English,,,,"1841500755,9781841500751",,,,,,,,,OL8920181M,,0,,,,,,1,1,2788840,pdf,41903D8B3C330AFCDB0D7E22DBA1DFB0,,,"41903d8b3c330afcdb0d7e22dba1dfb0~1841500755,9781841500751.pdf",0,2000-01-01 01:00:00,2016-04-03 02:51:08,388000/41903d8b3c330afcdb0d7e22dba1dfb0-d.jpg,,
21681673,Les dieux de la Grèce,,,,Walter F. (Walter Friedrich) Otto,1993,,Payot,,330,0,French,,,,"2228881503,9782228881500",,,,,,,,,OL12464477M,,0,,,,,,1,0,36952171,pdf,41912F41ACD07715233EDDC91A697135,,,"41912f41acd07715233eddc91a697135~2228881503,9782228881500.pdf",0,2000-01-01 01:00:00,2016-04-03 02:51:08,388000/41912f41acd07715233eddc91a697135-g.jpg,,
21681674,Colonial Land Policies in Palestine 1917-1936 ,,Oxford Historical Monographs,,Martin Bunton,2007,,"Oxford University Press, USA",,220,0,English,,,,"0199211086,9780199211081,9781429488747",,,,,,,,,OL22749623M,,0,,,,,1,,1,929308,pdf,41921A571C0B112575A42492750B8F08,,,"41921a571c0b112575a42492750b8f08~0199211086,9780199211081,9781429488747.pdf",0,2000-01-01 01:00:00,2016-04-03 02:51:08,388000/41921a571c0b112575a42492750b8f08-d.jpg,,
21681675,The Antitrust Laws: A Primer,,,,"John H. Shenefield, Irwin M. Stelzer",2001,4th Edition,Aei Press,,202,0,English,313,,,"084474154X,9780844741543",,,,,343.73/0721,KF1650 .S53 2001,,,OL3951294M,,0,,,,,1,,1,696668,pdf,41941D7E784B1CFE2A442503E0DB6781,,,"41941d7e784b1cfe2a442503e0db6781~084474154X,9780844741543.pdf",0,2000-01-01 01:00:00,2016-04-03 02:51:08,388000/41941d7e784b1cfe2a442503e0db6781-d.jpg,,
21681676,Living Vegetarian For Dummies,,,,Suzanne Havala Hobbs,2009,2,For Dummies,,384,0,English,183,,,"0470523026,9780470523025",,,,,,,,,,,0,,,,,,,1,3741247,pdf,41980FD850812D40858EAAE8B3017637,,,"41980fd850812d40858eaae8b3017637~0470523026,9780470523025.pdf",0,2000-01-01 01:00:00,2016-04-03 02:51:08,388000/41980fd850812d40858eaae8b3017637-d.jpg,,
21681677,"The Gothic Body: Sexuality, Materialism, and Degeneration at the Fin de Siècle ",,Cambridge Studies in Nineteenth-Century Literature and Culture,,Kelly Hurley,2004,Reissue,Cambridge University Press,,220,0,English,201,,,"0521607116,0521552591,9780521552592,9780521607117,9780511519161",,,,,823/.0872909,PR878.T3 H87 1996,,,OL7746123M,,0,,,,,1,,1,4728949,pdf,41986DD4E4B54927201E79769FF50AD3,,,"41986dd4e4b54927201e79769ff50ad3~0521607116,0521552591,9780521552592,9780521607117,9780511519161.pdf",0,2000-01-01 01:00:00,2016-04-03 02:51:08,388000/41986dd4e4b54927201e79769ff50ad3-d.jpg,,
21681678,"Entitlement Politics: Medicare and Medicaid, 1995-2001 ",,Social Institutions and Social Change,,David Smith,2002,,Aldine Transaction,,432,0,English,,,,"0202307182,9780202307183,9780585485065",,,,,,,,,OL7409436M,,0,,,,,1,,1,25442019,pdf,42010FF9EB0F2F83AA42228F3043E078,,,"42010ff9eb0f2f83aa42228f3043e078~0202307182,9780202307183,9780585485065.pdf",0,2000-01-01 01:00:00,2016-04-03 02:51:08,388000/42010ff9eb0f2f83aa42228f3043e078-d.jpg,,
21681679,Cluster Model Interrelation With Modern Physical Concepts,,,,"G. V. Kozlov, G. E. Zaikov",2009,,Nova Science Publishers,,104,0,English,264,,,"160692222X,9781606922224,9781607416845",,,,,547/.7,QC173.4.P65 K69 2009,,,OL22671907M,,0,,,,,,,1,1675428,pdf,42013EB462E3595C99F520A94E70E71E,,,"42013eb462e3595c99f520a94e70e71e~160692222X,9781606922224,9781607416845.pdf",0,2000-01-01 01:00:00,2016-04-03 02:51:08,388000/42013eb462e3595c99f520a94e70e71e-d.jpg,,
21681680,Advances in Engineering Fluid Mechanics: Multiphase Reactor and Polymerization System Hydr ,,Advances in Engineering Fluid Mechanics Series,,Nicholas P Cheremisinoff Consulting Engineer,1996,1ST,Gulf Professional Publishing,,772,0,English,210,,,"0884154971,9780884154976,9780080526294",,,,,668.9,TP1092 .M85 1996,,,OL814384M,,0,,,,,1,,1,32535910,pdf,42030EBB3016E7F7AA1BACDB5E121950,,,"42030ebb3016e7f7aa1bacdb5e121950~0884154971,9780884154976,9780080526294.pdf",0,2000-01-01 01:00:00,2016-04-03 02:51:08,388000/42030ebb3016e7f7aa1bacdb5e121950-d.jpg,,
21681681,"Adaptive Multimedia Retrieval:User, Context, and Feedback: 4th International Workshop, AMR 2006, Geneva, Switzerland, July, 27-28, 2006, Revised ... Applications, incl. Internet/Web, and HCI)",,,,"Stéphane Marchand-Maillet, Eric Bruno",2007,1,Springer,,269,0,English,185,,,"3540715444,9783540715450,9783540715443",,,,,,,,,OL9578171M,,0,,,,,,1,1,5278070,pdf,42050C077FC1CDE0F5986518B6677372,,,"42050c077fc1cde0f5986518b6677372~3540715444,9783540715450,9783540715443.pdf",0,2000-01-01 01:00:00,2016-04-03 02:51:08,388000/42050c077fc1cde0f5986518b6677372-d.jpg,,
21681682,Transformative Education: Personal Construct Approaches ot Practice and Research,,,,"Maureen Pope, Pamela Denicolo",2001,1,Wiley,,220,0,English,183,,,"9781861562012,1861562012,141750322X,9781417503223",,,,,,,,,OL9504363M,,0,,,,,1,,1,813348,pdf,42051F2B6D1E65D088156ACDC598977A,,,"42051f2b6d1e65d088156acdc598977a~9781861562012,1861562012,141750322X,9781417503223.pdf",0,2000-01-01 01:00:00,2016-04-03 02:51:08,388000/42051f2b6d1e65d088156acdc598977a-d.jpg,,
21681683,Nursing Perspectives on Quality of Life ,,Routledge Essentials for Nurses,,Peter Draper,1997,1,Routledge,,200,0,English,,,,"0415141699,9780415141697,9780203992760",,,,,610.73/01,RT84.5 .D73 1997,,,OL16918399M,,0,,,,,1,,1,1272275,pdf,42139ECB58996346EC956A93B70A8AE2,,,"42139ecb58996346ec956a93b70a8ae2~0415141699,9780415141697,9780203992760.pdf",0,2000-01-01 01:00:00,2016-04-03 02:51:08,388000/42139ecb58996346ec956a93b70a8ae2-d.jpg,,
21681684,"Money, Land and Trade: An Economic History of the Muslim Mediterranean ",,The Islamic Mediterranean,,Nelly Hanna,2002,,I. B. Tauris,,288,0,English,305,,,"1860646999,9781860646997,9781417519774",,,,,330.917/67/0091822,HC499 .M65 2001,,,OL3762489M,,0,,,,,1,1,1,2554557,pdf,42141BBBBFB9D39A69E9B4F5E374816F,,,"42141bbbbfb9d39a69e9b4f5e374816f~1860646999,9781860646997,9781417519774.pdf",0,2000-01-01 01:00:00,2016-04-03 02:51:08,388000/42141bbbbfb9d39a69e9b4f5e374816f-d.jpg,,
21681685,Patristic evidence for Jewish-Christian sects ,,Supplements to Novum Testamentum,,Albertus Frederik Johannes Klijn,1973,,Brill,,323,0,English,,,,"9004037632,9789004037632",,,,,273/.1,BT1319 .K55,,,OL5087165M,,600,,,,,,1,1,7716292,pdf,42164FA01A473701335A31546693ED32,,,"42164fa01a473701335a31546693ed32~9004037632,9789004037632.pdf",0,2000-01-01 01:00:00,2016-04-03 02:51:08,388000/42164fa01a473701335a31546693ed32-g.jpg,,
21681686,Humaniora: Medizin - Recht - Geschichte: Festschrift für Adolf Laufs zum 70. Geburtstag ,,,,"Bernd-Rüdiger Kern, Elmar Wadle, Klaus-Peter Schroeder, Christian Katzenmeier",2005,1,Springer,,1233,0,English,,,,"3540284397,9783540284390,9783540285144",,,,,,,,,OL9601292M,,0,,,,,1,1,1,6194828,pdf,42184DAA9248E7E24A13FA8EE05EC27E,,,"42184daa9248e7e24a13fa8ee05ec27e~3540284397,9783540284390,9783540285144.pdf",0,2000-01-01 01:00:00,2016-04-03 02:51:08,388000/42184daa9248e7e24a13fa8ee05ec27e-d.jpg,,
21681687,Transcultural Caring: The Dynamics of Contemporary Nursing,,,,Dr Marilyn Ray,2009,1,F.A. Davis Company,,345,0,English,,,,"0803608098,9780803608092",,,,,610.73,RT86.54 .R39 2010,,,OL23643329M,,0,,,,,,,1,2648904,pdf,42228A1FDEDED2F095FB68D374A70BCC,,,"42228a1fdeded2f095fb68d374a70bcc~0803608098,9780803608092.pdf",0,2000-01-01 01:00:00,2016-04-03 02:51:08,388000/42228a1fdeded2f095fb68d374a70bcc-d.jpg,,
21681688,Comparative Democratic Politics: A Guide to Contemporary Theory and Research,,,,Dr. Hans Keman,2002,1,Sage Publications Ltd,,326,0,English,,,,"0761954767,9780761954767,9781412932615",,,,,321.8,JC423 .C66 2002,,,OL3326426M,,0,,,,,,,1,1729353,pdf,42299E5254ECB368FC6106B54DE80B30,,,"42299e5254ecb368fc6106b54de80b30~0761954767,9780761954767,9781412932615.pdf",0,2000-01-01 01:00:00,2016-04-03 02:51:08,388000/42299e5254ecb368fc6106b54de80b30-d.jpg,,
21681689,Du droit a la philosophie ,,Collection La Philosophie en effet,,Jacques Derrida,1990,,Galilée,,661,0,French,195,,,"2718603828,9782718603827",,,,,101,B2430.D483 D8 1990,,,OL1619012M,,0,,,,,,,1,2596599,pdf,42301F118A30DCF8CBA9ABE3912EF178,,,"42301f118a30dcf8cba9abe3912ef178~2718603828,9782718603827.pdf",0,2000-01-01 01:00:00,2016-04-03 02:51:08,388000/42301f118a30dcf8cba9abe3912ef178-g.jpg,,
21681690,How to Work a Room: Your Essential Guide to Savvy Socializing,,,,Susan Roane,2007,Revised,Harper Paperbacks,,336,0,English,183,,,"0061238678,9780061238673",,,,,,,,,OL7289375M,,0,,,,,1,,1,1892335,pdf,42314E6F9CB56A1A0D058082549C33EB,,,"42314e6f9cb56a1a0d058082549c33eb~0061238678,9780061238673.pdf",0,2000-01-01 01:00:00,2016-04-03 02:51:08,388000/42314e6f9cb56a1a0d058082549c33eb-d.jpg,,
21681691,Operetta: A Theatrical History ,,Routledge Studies in Musical Genres,,Richard Traubner,2003,Revised,Routledge,,496,0,English,64,,,"9780415966412,0415966418,0203509021,9780203509029,9780203605172",,,,,,,,,OL7497840M,,0,,,,,1,1,1,13327548,pdf,42338A7C15D2177111B3E600130919C7,,,"42338a7c15d2177111b3e600130919c7~9780415966412,0415966418,0203509021,9780203509029,9780203605172.pdf",0,2000-01-01 01:00:00,2016-04-03 02:51:08,388000/42338a7c15d2177111b3e600130919c7-d.jpg,,
21681692,"Health Technology Assessment and Health Policy-Making in Europe: Current Status, Challenges and Potential ",,Observatory Studies Series,,"M.V. Garrido, F.B. Kristensen, C.P. Nielsen, R. Busse",2009,,World Health Organization,,195,0,English,,,,"9789289042932,9789289042963,9289042931",,,,,610.28,R855.5.E85 H42 2008,,,OL24480425M,,0,,,,,,,1,1259603,pdf,42382D2526560E85EA98BB3D1B46FD4D,,,"42382d2526560e85ea98bb3d1b46fd4d~9789289042932,9789289042963,9289042931.pdf",0,2000-01-01 01:00:00,2016-04-03 02:51:08,388000/42382d2526560e85ea98bb3d1b46fd4d-d.jpg,,
21681693,Community Quality-of-Life Indicators: Best Cases II ,,Social Indicators Research Series,,"M. Joseph Sirgy, D. Rahtz, David Swain",2006,1,Springer,,332,0,English,,,,"1402046243,9781402046247,9781402046254",,,,,,,,,OL8371923M,,0,,,,,1,1,1,4780143,pdf,42391F5184361F4364A2F5E43D840455,,,"42391f5184361f4364a2f5e43d840455~1402046243,9781402046247,9781402046254.pdf",0,2000-01-01 01:00:00,2016-04-03 02:51:08,388000/42391f5184361f4364a2f5e43d840455-d.jpg,,
21681694,Corporate Social Responsibility and the Shaping of Global Public Policy ,,Political Evolution and Institutional Change,,Matthew J. Hirschland,2006,,Palgrave Macmillan,,224,0,English,,,,"1403974535,9781403974532",,,,,,,,,OL22754937M,,0,,,,,1,1,1,688190,pdf,42421E107E5CCDC970433BBC15F709B6,,,"42421e107e5ccdc970433bbc15f709b6~1403974535,9781403974532.pdf",0,2000-01-01 01:00:00,2016-04-03 02:51:08,388000/42421e107e5ccdc970433bbc15f709b6-d.jpg,,
21681695,m-Profits: Making Money from 3G Services,,,,Tomi T. Ahonen,2002,,Wiley,,328,0,English,,,,"0470847751,9780470847756,9780470855119",,,,,,,,,OL7597910M,,0,,,,,,1,1,2165276,pdf,42425C0B4CE92EF99E420B764383A05C,,,"42425c0b4ce92ef99e420b764383a05c~0470847751,9780470847756,9780470855119.pdf",0,2000-01-01 01:00:00,2016-04-03 02:51:08,388000/42425c0b4ce92ef99e420b764383a05c-d.jpg,,
21681696,Methods for Exodus ,,Methods in Biblical Interpretation,,Thomas B. Dozeman PhD,2010,1,Cambridge University Press,,268,0,English,,,,"0521883679,9780521883672,0521710014,9780521710015",,,,,224/.406,BS1245.52 M48 2010,,,OL23535222M,,0,,,,,,1,1,1718586,pdf,42426C08D9C338D8409B4AE86BCDA425,,,"42426c08d9c338d8409b4ae86bcda425~0521883679,9780521883672,0521710014,9780521710015.pdf",0,2000-01-01 01:00:00,2016-04-03 02:51:08,388000/42426c08d9c338d8409b4ae86bcda425-d.jpg,,
21681697,Education in the Twenty-First Century,,,,Edward P. Lazear,2002,,Hoover Institution Press,,192,0,English,183,,,"0817928928,9780817928926",,,,,,,,,OL9343591M,,0,,,,,1,,1,676543,pdf,42444FFA13DF63376E606ADB373B1F60,,,"42444ffa13df63376e606adb373b1f60~0817928928,9780817928926.pdf",0,2000-01-01 01:00:00,2016-04-03 02:51:08,388000/42444ffa13df63376e606adb373b1f60-d.jpg,,
21681698,Drug Use and Abuse,,,,"Stephen A.(Stephen A. Maisto) Maisto, Mark Galizio, Gerard J. Connors",2007,5,Wadsworth Publishing,,498,0,English,302,,,"049509207X,9780495092070",,,,,,,,,OL24021268M,,0,,,,,,,0,105761662,pdf,42456F778E38991FC8B7219D73395B3A,,,"42456f778e38991fc8b7219d73395b3a~049509207X,9780495092070.pdf",0,2000-01-01 01:00:00,2016-04-03 02:51:08,388000/42456f778e38991fc8b7219d73395b3a-d.jpg,,
21681699,ReVamped ,,"Void City, Book 2",,J. F. Lewis,2009,Original,Gallery,,388,0,English,,,,"1439102287,9781439102282",,,,,813/.6,PS3612.E9648 R48 2009,,,OL22515532M,,0,,,,,,,,352575,lit,42491F7BF4EC0BC18C5EB01EF1765818,,,"42491f7bf4ec0bc18c5eb01ef1765818~1439102287,9781439102282.lit",0,2000-01-01 01:00:00,2016-04-03 02:51:08,388000/42491f7bf4ec0bc18c5eb01ef1765818-d.jpg,,
21681700,British English a to Zed ,,Writers Reference,,"Norman W. Schur, Richard Ehrlich, Eugene H. Ehrlich, Eugene H. Ehrlich",2007,3,Facts on File,,481,0,English,314,,,"9781438125558,9780816064557,0816064555",,,,,423/.1,PE1704 .S38 2007,,,OL21478305M,,0,,,,,0,,1,1266538,pdf,42517C0AC6F02EEADC6488ABF8F97CB3,,,"42517c0ac6f02eeadc6488abf8f97cb3~9781438125558,9780816064557,0816064555.pdf",0,2000-01-01 01:00:00,2016-04-03 02:51:08,388000/42517c0ac6f02eeadc6488abf8f97cb3-d.jpg,,
21681701,Redlining To Reinvestment ,,Conflicts in Urban and Regional Development,,Gregory Squires,1992,,Temple University Press,,288,0,English,,,,"9780877229858,9781439901656,0877229856",,,,,,,,,OL8111055M,,0,,,,,1,,1,28949711,pdf,42529A7BA88E83AE3E2C23ADA76821BA,,,"42529a7ba88e83ae3e2c23ada76821ba~9780877229858,9781439901656,0877229856.pdf",0,2000-01-01 01:00:00,2016-04-03 02:51:08,388000/42529a7ba88e83ae3e2c23ada76821ba-d.jpg,,
21681702,VMware Cookbook: A Real-World Guide to Effective VMware Use,,,,"Ryan Troy, Matthew Helmke",2009,1,O'Reilly Media,,304,0,English,69,,,"9780596157258,0596157258",,,,,005.4/3,QA76.9.V5 T76 2010,,,OL24861502M,,0,,,,,1,,1,3621801,pdf,42541DCF50372AE5905B6ED69C720055,,,"42541dcf50372ae5905b6ed69c720055~9780596157258,0596157258.pdf",0,2000-01-01 01:00:00,2016-04-03 02:51:08,388000/42541dcf50372ae5905b6ed69c720055-d.jpg,,
21681703,"Mathemagic: Magic, Puzzles and Games with Numbers",,,,Royal V. Heath,1953,,Dover Publications,,128,0,English,143,,,"0486201104,9780486201108",,,,,,,,,OL15055441M,,0,,,,,,,1,3417145,pdf,42553BDC733F4AA37AB69838B47877B1,,,"42553bdc733f4aa37ab69838b47877b1~0486201104,9780486201108.pdf",0,2000-01-01 01:00:00,2016-04-03 02:51:08,388000/42553bdc733f4aa37ab69838b47877b1-d.jpg,,
21681704,Energy Security: Visions from Asia and Europe,,,,Antonio Marquina,2008,,Palgrave Macmillan,,304,0,English,,,,"0230219705,9780230219700",,,,,333.79094,HD9502.E852 M37 2008,,,OL16925615M,,0,,,,1,0,1,1,1336760,pdf,42555AB4ED7844A89AFE7A75783501C2,,,"42555ab4ed7844a89afe7a75783501c2~0230219705,9780230219700.pdf",0,2000-01-01 01:00:00,2016-04-03 02:51:08,388000/42555ab4ed7844a89afe7a75783501c2-d.jpg,,
21681705,Representing Men ,,Arnold Publication,,Kenneth MacKinnon,2003,,Bloomsbury USA,,256,0,English,,,,"0340808330,9780340808337,9781417531776",,,,,"305.31,305.31",P94.5.M44 M33 2003,,,OL22536062M,,0,,,,,1,,1,7554319,pdf,42564D4B00FE6C234D992FBE56AE29EE,,,"42564d4b00fe6c234d992fbe56ae29ee~0340808330,9780340808337,9781417531776.pdf",0,2000-01-01 01:00:00,2016-04-03 02:51:08,388000/42564d4b00fe6c234d992fbe56ae29ee-d.jpg,,
21681706,"Emmanuel Levinas: Ethics, Justice, and the Human Beyond Being ",,Studies in Philosophy,,Lis Thomas,2004,,Routledge,,216,0,English,195,,,"0415971241,9780415971249",,,,,,,,,OL7498066M,,0,,,,,1,1,1,1304582,pdf,42579E5190DB17C01302A4F3767861CC,,,"42579e5190db17c01302a4f3767861cc~0415971241,9780415971249.pdf",0,2000-01-01 01:00:00,2016-04-03 02:51:08,388000/42579e5190db17c01302a4f3767861cc-d.jpg,,
21681707,Population and Food: Global Trends and Future Prospects ,,Global Environmental Change Series,,Tim Dyson,1996,1,Routledge,,256,0,English,229,,,"041511974X,9780415119740",,,,,363.8,HD9000.5 .D97 1996,,,OL801834M,,0,,,,,1,1,1,2047140,pdf,42615F16339BAFF9C676D26C5C950B38,,,"42615f16339baff9c676d26c5c950b38~041511974X,9780415119740.pdf",0,2000-01-01 01:00:00,2016-04-03 02:51:08,388000/42615f16339baff9c676d26c5c950b38-d.jpg,,
21681708,Das Harvard - Konzept,,,,"Roger Fisher, William L. Ury, Bruce M. Patton",,,,,268,0,German,,,,"3593374404,9783593374406",,,,,,,,,,,0,,,,,,,1,6112315,pdf,42624F35834BAD358D31E644755D6846,,,"42624f35834bad358d31e644755d6846~3593374404,9783593374406.pdf",0,2000-01-01 01:00:00,2016-04-03 02:51:08,388000/42624f35834bad358d31e644755d6846-d.jpg,,
21681709,Forensic Anthropology ,,Inside Forensic Science,,"Bradley J., Ph.D. Adams",2006,1,Chelsea House Publications,,128,0,English,171,,,"0791091988,9780791091982,9781438103792",,,,,614/.17,GN69.8 .A33 2007,,,OL11149435M,,0,,,,,1,,1,4992552,pdf,42681A48B8C9BC5634A447FDE323506C,,,"42681a48b8c9bc5634a447fde323506c~0791091988,9780791091982,9781438103792.pdf",0,2000-01-01 01:00:00,2016-04-03 02:51:08,388000/42681a48b8c9bc5634a447fde323506c-d.jpg,,
21681710,International Residential Code for One- and Two-Family Dwellings 2006,,,,International Code Council (ICC)) International Code Council,2006,1,ICC (distributed by Cengage Learning),,618,0,English,101,,,"1580012531,9781580012539",,,,,,,,,OL18397437M,,0,,,,,1,1,1,48978322,pdf,42690FE8C2D491498A5F4D979DE3FECE,,,"42690fe8c2d491498a5f4d979de3fece~1580012531,9781580012539.pdf",0,2000-01-01 01:00:00,2016-04-03 02:51:08,388000/42690fe8c2d491498a5f4d979de3fece-d.jpg,,
21681711,Real American Ethics: Taking Responsibility for Our Country,,,,Albert Borgmann,2007,,University Of Chicago Press,,232,0,English,,,,"0226066347,9780226066349",,,,,,,,,OL17208438M,,0,,,,,,1,1,1241061,pdf,42731FF08F4CC53F3B53EA3DF5BB9285,,,"42731ff08f4cc53f3b53ea3df5bb9285~0226066347,9780226066349.pdf",0,2000-01-01 01:00:00,2016-04-03 02:51:08,388000/42731ff08f4cc53f3b53ea3df5bb9285-d.jpg,,
21681712,Eshbach's Handbook of Engineering Fundamentals,,,,Myer Kutz,2009,5,Wiley,,1320,0,English,210,,,"0470085789,9780470085783",,,,,620,TA151 .E8 2009,,,OL22552104M,,0,,,,,,1,1,20447210,pdf,42740FC1ABF564FA4533606D770FAC1A,,,"42740fc1abf564fa4533606d770fac1a~0470085789,9780470085783.pdf",0,2000-01-01 01:00:00,2016-04-03 02:51:08,388000/42740fc1abf564fa4533606d770fac1a-d.jpg,,
21681713,Non-Neoplastic Advanced Lung Disease ,,Lung Biology in Health and Disease,,Janet Maurer,2003,1,Informa Healthcare,,808,0,English,151,,,"9780824740771,9780824748531,0824740777",,,,,,,,,OL9406088M,,0,,,,,1,,1,11373171,pdf,42779A72C4E9DE44830D4C480F69AD9A,,,"42779a72c4e9de44830d4c480f69ad9a~9780824740771,9780824748531,0824740777.pdf",0,2000-01-01 01:00:00,2016-04-03 02:51:08,388000/42779a72c4e9de44830d4c480f69ad9a-d.jpg,,
21681714,Dostoyevsky and the Process of Literary Creation ,,Cambridge Studies in Russian Literature,,"Jacques Catteau, Audrey Littlewood",1989,1st ed,Cambridge University Press,,568,0,English,,,,"052132436X,9780521324366,0521022789,9780521022781",,,,,891.73/3,,,,OL15058457M,,0,,,,,1,,1,3794520,djvu,42821A93CB18E9613CC0423996384FC8,,,"42821a93cb18e9613cc0423996384fc8~052132436X,9780521324366,0521022789,9780521022781.djvu",0,2000-01-01 01:00:00,2016-04-03 02:51:08,388000/42821a93cb18e9613cc0423996384fc8-d.jpg,,
21681715,"Photoshop for Video, ",,DV Expert Series,,Richard Harrington,2007,3,Focal Press,,426,0,English,95,,,"0240809262,9780240809267,9780080489544",,,,,,,,3iSc_0m9cFkC,OL9381083M,,0,,,,,0,,1,48533528,pdf,42840E5E77C4B2042DABB6BE4AB7A5DB,,,"42840e5e77c4b2042dabb6be4ab7a5db~0240809262,9780240809267,9780080489544.pdf",0,2000-01-01 01:00:00,2016-04-03 02:51:08,388000/42840e5e77c4b2042dabb6be4ab7a5db-d.jpg,,
21681716,Restructuring Large Housing Estates in Europe,,,,"Stephen Hall, Ronald Van Kempen, Karien Dekker, Ivan Tosics",2005,,Policy Press,,400,0,English,,,,"1861347766,9781861347763,9781847421456",,,,,,,,,OL18254326M,,0,,,,,1,,1,2148368,pdf,42865CA29DEF110D671FA9CA45B3E534,,,"42865ca29def110d671fa9ca45b3e534~1861347766,9781861347763,9781847421456.pdf",0,2000-01-01 01:00:00,2016-04-03 02:51:08,388000/42865ca29def110d671fa9ca45b3e534-d.jpg,,
21681717,"Learning XNA 4.0: Game Development for the PC, Xbox 360, and Windows Phone 7",,,,Aaron Reed,2010,1,O'Reilly Media,,540,0,English,183,,,"1449394620,9781449394622",,,,,,,,,,,0,,,,,,,1,6681353,pdf,42878DDE5B03A2EDE8D09DCD6DA8B12B,,,"42878dde5b03a2ede8d09dcd6da8b12b~1449394620,9781449394622.pdf",0,2000-01-01 01:00:00,2016-04-03 02:51:08,388000/42878dde5b03a2ede8d09dcd6da8b12b-d.jpg,,
21681718,Do the Math #2: The Writing on the Wall,,,,Wendy Lichtman,2008,,Greenwillow Books,,224,0,English,,,,"006122958X,9780061229589,0061229598,9780061229596",,,,,,,,,OL18498365M,,0,,,,,1,,1,916767,pdf,42914DA35BCC75A9751B59E178FDA132,,,"42914da35bcc75a9751b59e178fda132~006122958X,9780061229589,0061229598,9780061229596.pdf",0,2000-01-01 01:00:00,2016-04-03 02:51:08,388000/42914da35bcc75a9751b59e178fda132-d.jpg,,
21681719,Women's Rights ,,Introducing Issues With Opposing Viewpoints,,Lauri S. Friedman,2009,,Greenhaven,,143,0,English,12,,,"0737744863,9780737744866",,,,,305.48/697,HQ1236 .W652526 2009,,,OL23606557M,,0,,,,1,0,,1,6069948,pdf,42988DC06B3279045A46005F53A7765E,,,"42988dc06b3279045a46005f53a7765e~0737744863,9780737744866.pdf",0,2000-01-01 01:00:00,2016-04-03 02:51:08,388000/42988dc06b3279045a46005f53a7765e-d.jpg,,
21681720,Make Your Mission Statement Work. ,,How to,,Marianne Talbot,2003,2nd,How to Books,,171,0,English,,,,"1857038207,9781857038200",,,,,,,,,OL8998149M,,0,,,,,,,1,1186776,pdf,42996AB72AC832226302F7567F2CDC13,,,"42996ab72ac832226302f7567f2cdc13~1857038207,9781857038200.pdf",0,2000-01-01 01:00:00,2016-04-03 02:51:08,388000/42996ab72ac832226302f7567f2cdc13-d.jpg,,
21681721,The Sentry ,,Joe Pike,,Robert Crais,2011,1,Putnam Adult,,320,0,English,,,,"0399157077,9780399157073",,,,,813/.54,PS3553.R264 S46 2011,,,OL24412694M,,0,,,,,,,1,265990,epub,43009BBB43D9B4FDBC3462E7D9AB841D,,,"43009bbb43d9b4fdbc3462e7d9ab841d~0399157077,9780399157073.epub",0,2000-01-01 01:00:00,2016-04-03 02:51:08,388000/43009bbb43d9b4fdbc3462e7d9ab841d-d.jpg,,
21681722,Cancer Drugs ,,Drugs: the Straight Facts,,Judy Matray-devoti,2007,1,Chelsea House Publications,,112,0,English,166,,,"0791085546,9780791085547,9781438101972",,,,,616.99/4061,RC271.C5 M17 2007,,,OL17170488M,,0,,,,,1,,1,3374036,pdf,43017D1204FB73D6919C92A6218D9944,,,"43017d1204fb73d6919c92a6218d9944~0791085546,9780791085547,9781438101972.pdf",0,2000-01-01 01:00:00,2016-04-03 02:51:08,388000/43017d1204fb73d6919c92a6218d9944-d.jpg,,
21681723,"Christ, Ethics and Tragedy: Essays in Honour of Donald MacKinnon",,,,Kenneth Surin,1989,,Cambridge University Press,,220,0,English,,,,"052134137X,9780521341370",,,,,230,BX4827.M244 C48 1989,,,OL2042193M,,0,,,,,,,1,5271547,pdf,43021F8E2490F8B7E0FD089AFEC5571B,,,"43021f8e2490f8b7e0fd089afec5571b~052134137X,9780521341370.pdf",0,2000-01-01 01:00:00,2016-04-03 02:51:08,388000/43021f8e2490f8b7e0fd089afec5571b-d.jpg,,
21681724,The Passion Test: The Effortless Path to Discovering Your Destiny,,,,"Janet Bray Attwood, Chris Attwood",2006,,1stWorld Publishing,,258,0,English,,,,"1595408355,9781595408358",,,,,,,,,OL8881978M,,0,,,,,1,,0,1886777,pdf,43025BAEFE54B641099BB4ED1D41A38F,,,"43025baefe54b641099bb4ed1d41a38f~1595408355,9781595408358.pdf",0,2000-01-01 01:00:00,2016-04-03 02:51:08,388000/43025baefe54b641099bb4ed1d41a38f-d.jpg,,
21681725,Protecting Ideas ,,Point/Counterpoint,,"David L., Jr. Hudson",2005,,Chelsea House Publications,,120,0,English,,,,"0791086461,9780791086469,9781438106168",,,,,,,,,OL11149229M,,0,,,,,1,,1,1652783,pdf,43031B3A1A0F865C211BCF90651C3A86,,,"43031b3a1a0f865c211bcf90651c3a86~0791086461,9780791086469,9781438106168.pdf",0,2000-01-01 01:00:00,2016-04-03 02:51:08,388000/43031b3a1a0f865c211bcf90651c3a86-d.jpg,,
21681726,ESP in European Higher Education: Integrating Language and Content ,,Aila Applied Linguistics,,"Inmaculada Fortanet-Gomez, Christine A. Raisanen",2008,4,John Benjamins Publishing Co,,285,0,English,183,,,"9789027205209,9027205205,9789027291165",,,,,428.0071/1,PE1068.E92 .E87 2008,,,OL16725992M,,0,,,,,1,1,1,2149685,pdf,43036BC49E4AEA9E197A3A664C91EB4A,,,"43036bc49e4aea9e197a3a664c91eb4a~9789027205209,9027205205,9789027291165.pdf",0,2000-01-01 01:00:00,2016-04-03 02:51:08,388000/43036bc49e4aea9e197a3a664c91eb4a-d.jpg,,
21681727,New Perspectives in Special Education: A Six-country Study of Integration,,,,"Cor Meijer, Sip Jan Pijl, Seamus Hegarty",1996,Reprint,Routledge,,176,0,English,183,,,"0415083370,9780415083379,9780203136485",,,,,,,,,OL22573705M,,0,,,,,1,1,1,1066553,pdf,43059E32A8E3D45A0E886C1C92E1DDB3,,,"43059e32a8e3d45a0e886c1c92e1ddb3~0415083370,9780415083379,9780203136485.pdf",0,2000-01-01 01:00:00,2016-04-03 02:51:08,388000/43059e32a8e3d45a0e886c1c92e1ddb3-d.jpg,,
21681728,Japanese for Everyone: A Functional Approach to Daily Communication,,,,Susumu Nagara Ph.D.,1990,,Japan Publications Trading,,390,0,English,260,,,"0870408534,9780870408533",,,,,,,,,OL18760163M,,0,,,,,,,0,35779020,pdf,43082D3A459DA4D4648AAA4A41123250,,,"43082d3a459da4d4648aaa4a41123250~0870408534,9780870408533.pdf",0,2000-01-01 01:00:00,2016-04-03 02:51:08,388000/43082d3a459da4d4648aaa4a41123250-d.jpg,,
21681729,Handbook of Antitrust Economics,,,,Paolo Buccirossi,2008,,The MIT Press,,796,0,English,305,,,"0262524775,9780262524773,0262026279,9780262026277,9781435643253",,,,,338.8,HD2746.5 .H3584 2007,,,OL10236799M,,0,,,,,1,1,1,3401110,pdf,43104C3A8AFED6CEA99F29581AC8DABC,,,"43104c3a8afed6cea99f29581ac8dabc~0262524775,9780262524773,0262026279,9780262026277,9781435643253.pdf",0,2000-01-01 01:00:00,2016-04-03 02:51:08,388000/43104c3a8afed6cea99f29581ac8dabc-d.jpg,,
21681730,Legal Aspects of Health Information Management,,,,Dana C. McWay,1996,1,Delmar Cengage Learning,,320,0,English,6,,,"0827355769,9780827355767,9780585418612",,,,,"344.73/041,347.30441",KF3827.R4 M395 1997,,,OL971591M,,0,,,,,1,,1,26563845,pdf,43111DDED18D2263C225D569E1E3C299,,,"43111dded18d2263c225d569e1e3c299~0827355769,9780827355767,9780585418612.pdf",0,2000-01-01 01:00:00,2016-04-03 02:51:08,388000/43111dded18d2263c225d569e1e3c299-d.jpg,,
21681731,Skeletal Muscle As a Response Target: The Link Between Growth and Metabolism ,,Hormone Research,,"M. B. Ranke, V. Popovic-brkic",2007,1,Not Avail,,105,0,English,,,,"3805582447,9783805582445,9783318014402",,,,,,,10.1159/000096616,,OL12931972M,,0,,,,,1,,1,10656506,pdf,43127FE54D9CA85534228525D5A46610,,,"43127fe54d9ca85534228525d5a46610~3805582447,9783805582445,9783318014402.pdf",0,2000-01-01 01:00:00,2016-04-03 02:51:08,388000/43127fe54d9ca85534228525d5a46610-d.jpg,,
21681732,Rediscoveries and Reformulations: Humanistic Methodologies for International Studies ,,Cambridge Studies in International Relations,,Hayward R. Alker,1996,,Cambridge University Press,,488,0,English,,,,"0521461308,9780521461306",,,,,320/.01,JA71 .A474 1996,,,OL786666M,,0,,,,,,,1,14308304,pdf,43135C40552CEFF06DF8FBCBEE9735A4,,,"43135c40552ceff06df8fbcbee9735a4~0521461308,9780521461306.pdf",0,2000-01-01 01:00:00,2016-04-03 02:51:08,388000/43135c40552ceff06df8fbcbee9735a4-d.jpg,,
21681733,Creating a National Framework for Cybersecurity ,,An Analysis of Issues and Options,,Eric A. Fischer,2009,,Nova Science Publishers,,92,0,English,,,,"1604565594,9781604565591,9781607412021",,,,,363.325/9004,HV6432 .F574 2008,,,OL16699234M,,0,,,,,,1,1,816419,pdf,43139C286E4093D4BC5E604416E5F958,,,"43139c286e4093d4bc5e604416e5f958~1604565594,9781604565591,9781607412021.pdf",0,2000-01-01 01:00:00,2016-04-03 02:51:08,388000/43139c286e4093d4bc5e604416e5f958-d.jpg,,
21681734,Histoire De La Philosophique Islamique ,,Collection Folio/essais,,Henry Corbin,1986,[Nouv. ed.],Editions Flammarion,,546,0,French,195,,,"9782070323531,2070323536",,,,,,,,,OL18434844M,,0,,,,,1,,0,4011926,djvu,43139EE4170C50DCDC18E617AC53FA62,cd0711c9daff1c78a5f9f34861d250d9,no,"43139ee4170c50dcdc18e617ac53fa62~9782070323531,2070323536.djvu",0,2000-01-01 01:00:00,2016-04-03 02:51:08,388000/43139ee4170c50dcdc18e617ac53fa62-d.jpg,,
21681735,Barbara Kingsolver ,,Great Writers,,"Linda Wagner-Martin, David King Dunaway",2004,,Chelsea House Publications,,142,0,English,,,,"9780791078464,9781438122113,0791078469",,,,,813/.54,PS3561.I496 Z95 2004,,,OL3290605M,,0,,,,,1,,1,414102,pdf,43154D10CACC99725BAB51FF982F9718,,,"43154d10cacc99725bab51ff982f9718~9780791078464,9781438122113,0791078469.pdf",0,2000-01-01 01:00:00,2016-04-03 02:51:08,388000/43154d10cacc99725bab51ff982f9718-d.jpg,,
21681736,A History of Christian-Muslim Relations ,,New Edinburgh Islamic Surveys,,Hugh Goddard,2000,,Edinburgh University Press,,256,0,English,64,,,"074861009X,9780748610099",,,,,,,,,OL20725907M,,0,,,,,,,1,13530925,pdf,43164C4ABFAC005F5432454BA9140C4A,,,"43164c4abfac005f5432454ba9140c4a~074861009X,9780748610099.pdf",0,2000-01-01 01:00:00,2016-04-03 02:51:08,388000/43164c4abfac005f5432454ba9140c4a-d.jpg,,
21681737,Performing Leadership,,,,"Edward Peck, Helen Dickinson",2009,1,Palgrave Macmillan,,232,0,English,,,,"0230218113,9780230218116",,,,,658.4/092,HD57.7 .P435 2009,,,OL23862153M,Nack cover,0,,,,,,1,1,1013146,pdf,43175CB3CB13FA87D82BCFE659AB1546,,,"43175cb3cb13fa87d82bcfe659ab1546~0230218113,9780230218116.pdf",0,2000-01-01 01:00:00,2016-04-03 02:51:08,388000/43175cb3cb13fa87d82bcfe659ab1546-d.jpg,,
21681738,The Myth of a Gentile Galilee ,,Society for New Testament Studies Monograph Series,,Mark A. Chancey,2002,1,Cambridge University Press,,248,0,English,,,,"0521814871,9780521814874,9780511016653",,,,,933,DS110.G2 C53 2002,,,OL3954105M,,0,,,,,1,1,1,1082062,pdf,43190F699A7100B9E24971AD6C331504,,,"43190f699a7100b9e24971ad6c331504~0521814871,9780521814874,9780511016653.pdf",0,2000-01-01 01:00:00,2016-04-03 02:51:08,388000/43190f699a7100b9e24971ad6c331504-d.jpg,,
21681739,"Statistical Physics: Statics, Dynamics and Remormalization",,,,Leo P. Kadanoff,2000,,World Scientific Publishing Company,,450,0,English,282,,,"9810237588,9789810237585",,,,,530.13,QC174.8 .K34 1999,,,OL381295M,,0,,,,,,,0,25062112,pdf,43196AB7C0CF87DDC7A8FB5EC39BD02D,,,"43196ab7c0cf87ddc7a8fb5ec39bd02d~9810237588,9789810237585.pdf",0,2000-01-01 01:00:00,2016-04-03 02:51:08,388000/43196ab7c0cf87ddc7a8fb5ec39bd02d-d.jpg,,
21681740,The Dream of Perpetual Motion ,,Playaway Adult Fiction,,Dexter Palmer,2010,1,St. Martin's Press,,352,0,English,,,,"0312558155,9780312558154",,,,,813/.6,PS3616.A33885 D74 2010,,,OL23833800M,,0,,,,,,,1,599481,epub,43203B5256D3EB3E284EC5DA3458F3CE,,,"43203b5256d3eb3e284ec5da3458f3ce~0312558155,9780312558154.epub",0,2000-01-01 01:00:00,2016-04-03 02:51:08,388000/43203b5256d3eb3e284ec5da3458f3ce-d.jpg,,
21681741,Textbook of Diabetes ,,"Holt, Textbook of Diabetes fomer Pickup",,"Richard I. G. Holt, Clive Cockram, Allan Flyvbjerg, Barry J. Goldstein",2010,4,Wiley-Blackwell,,1144,0,English,155,,,"1405191813,9781405191814",,,,,616.4/62,RC660 .T467 2010,,,OL24468230M,,0,,,,,,1,1,29578885,pdf,43221E5D9228272531812D3168F0C7D4,,,"43221e5d9228272531812d3168f0c7d4~1405191813,9781405191814.pdf",0,2000-01-01 01:00:00,2016-04-03 02:51:08,388000/43221e5d9228272531812d3168f0c7d4-d.jpg,,
21681742,Conceptual Modelling in Information Systems Engineering,,,,"John Krogstie, Andreas Lothe Opdahl, Sjaak Brinkkemper",2007,1,Springer,,14,0,English,210,,,"3540726764,9783540726760,9783540726777",,,,,3,QA76.9.S88 C6645 2007,,,OL12810486M,,0,,,,,1,,1,3225762,pdf,43223CA70274C76E862D61777E14829B,,,"43223ca70274c76e862d61777e14829b~3540726764,9783540726760,9783540726777.pdf",0,2000-01-01 01:00:00,2016-04-03 02:51:08,388000/43223ca70274c76e862d61777e14829b-d.jpg,,
21681743,"Machines As the Measure of Men: Science, Technology, and Ideologies of Western Dominance ",,Cornell Studies in Comparative History,,Michael Adas,1990,,Cornell University Press,,448,0,English,210,,,"0801497604,9780801497605,9780801423031,0801423031",,,,,609,T15 .A33 1989,,,OL2183096M,,0,,,,,1,,1,37990781,pdf,43243D296BE28A2444D53A56E17509C5,,,"43243d296be28a2444d53a56e17509c5~0801497604,9780801497605,9780801423031,0801423031.pdf",0,2000-01-01 01:00:00,2016-04-03 02:51:08,388000/43243d296be28a2444d53a56e17509c5-d.jpg,,
21681744,Insect Symbiosis ,,Contemporary Topics in Entomology,,"Kostas Bourtzis, Thomas A. Miller",2003,1,CRC Press,,368,0,English,12,,,"0849312868,9780849312861,9780203009918",,,,,,,,,OL22522627M,,0,,,,,1,1,1,11352104,pdf,43251B7256A63375105BA9C90F36696D,,,"43251b7256a63375105ba9c90f36696d~0849312868,9780849312861,9780203009918.pdf",0,2000-01-01 01:00:00,2016-04-03 02:51:08,388000/43251b7256a63375105ba9c90f36696d-d.jpg,,
21681745,Pleistocene History of the Lower Thames Valley,,,,Philip L. Gibbard,1994,,Cambridge University Press,,237,0,English,64,,,"0521402093,9780521402095",,,,,551.7/92/09422,QE697 .G386 1994,,,OL1421360M,,0,,,,,,1,1,15663021,pdf,43291F05DFCE4C79B7C8BF508F615F7F,,,"43291f05dfce4c79b7c8bf508f615f7f~0521402093,9780521402095.pdf",0,2000-01-01 01:00:00,2016-04-03 02:51:08,388000/43291f05dfce4c79b7c8bf508f615f7f-d.jpg,,
21681746,An Introduction to GCC: For the GNU Compilers GCC and G++,,,,"Brian J. Gough, Richard M. Stallman",2004,,Network Theory Ltd.,,124,0,English,90,,,"0954161793,9780954161798",,,,,,,,,OL8479055M,,0,,,,,,,1,539007,pdf,43296F4D8877B9B0901931FB9AAD3D1F,,,"43296f4d8877b9b0901931fb9aad3d1f~0954161793,9780954161798.pdf",0,2000-01-01 01:00:00,2016-04-03 02:51:08,388000/43296f4d8877b9b0901931fb9aad3d1f-d.jpg,,
21681747,Five Lessons on the Psychoanalytic Theory of Jacques Lacan ,,Suny Series in Psychoanalysis and Culture,,"Juan-David Nasio, Francois Raffoul, David Pettigrew",1998,,State University of New York Press,,166,0,English,,,,"0791438325,9780791438329,9780585093161",,,,,150.19/5/092,BF109.L28 N3713 1998,,,OL688862M,,0,,,,,1,,1,596300,pdf,43307EA0116FDEA0505E83C0565A0873,,,"43307ea0116fdea0505e83c0565a0873~0791438325,9780791438329,9780585093161.pdf",0,2000-01-01 01:00:00,2016-04-03 02:51:08,388000/43307ea0116fdea0505e83c0565a0873-d.gif,,
21681748,The Aqueous Chemistry of the Elements,,,,"George K. Schweitzer, Lester L. Pesterfield",2010,,"Oxford University Press, USA",,447,0,English,296,,,"019539335X,9780195393354",,,,,541/.3422,QD544.3 .S39 2010,,,OL23186487M,,0,,,,1,0,1,1,8759028,pdf,43323A1F9AD342D0EA803E88A17F8BD4,,,"43323a1f9ad342d0ea803e88a17f8bd4~019539335X,9780195393354.pdf",0,2000-01-01 01:00:00,2016-04-03 02:51:08,388000/43323a1f9ad342d0ea803e88a17f8bd4-d.jpg,,
21681749,"Oratio Obliqua, Oratio Recta: An Essay on Metarepresentation ",,Representation and Mind,,FranÃ§ois Recanati,2000,,The MIT Press,,380,0,English,,,,"0262181991,9780262181990",,,,,401/.9,P325.5.C63 R47 2000,,,OL59470M,,0,,,,,,1,1,1695778,pdf,43332BFC5AF68C62B79902CFE3A4F148,,,"43332bfc5af68c62b79902cfe3a4f148~0262181991,9780262181990.pdf",0,2000-01-01 01:00:00,2016-04-03 02:51:08,388000/43332bfc5af68c62b79902cfe3a4f148-g.jpg,,
21681750,Researching the Margins: Strategies for Ethical and Rigorous Research With Marginalised Communities,,,,"Marian Pitts, Anthony Smith",2007,1st,Palgrave Macmillan,,225,0,English,,,,"1403918112,9781403918116,9780230224476",,,,,300.72,H62 .R46177 2007,,,OL11642487M,,0,,,,1,0,1,1,887713,pdf,43337C971AD2E6BADA6EA76E2D493DDE,,,"43337c971ad2e6bada6ea76e2d493dde~1403918112,9781403918116,9780230224476.pdf",0,2000-01-01 01:00:00,2016-04-03 02:51:08,388000/43337c971ad2e6bada6ea76e2d493dde-d.jpg,,
21681751,"Thalassemia - A Medical Dictionary, Bibliography, and Annotated Research Guide to Internet References",,,,ICON Health Publications,2004,,ICON Health Publications,,308,0,English,100,,,"0597846529,9780597846526,9781417537969",,,,,,,,,OL10915167M,,0,,,,,,,1,4891300,pdf,43353A30D6A04B5A630E611A1C1ECE73,,,"43353a30d6a04b5a630e611a1c1ece73~0597846529,9780597846526,9781417537969.pdf",0,2000-01-01 01:00:00,2016-04-03 02:51:08,388000/43353a30d6a04b5a630e611a1c1ece73-d.jpg,,
21681752,Mind & Context: Adult Second Language Acquisition,,,,Cristina Sanz,2005,,Georgetown University Press,,348,0,English,,,,"1589010701,9781589010703,9781435627437",,,,,418,P118.2 .M56 2005,,,OL22720413M,,0,,,,,1,,1,1401796,pdf,43397CA65D09C893ADC0B2111FCC3C36,,,"43397ca65d09c893adc0b2111fcc3c36~1589010701,9781589010703,9781435627437.pdf",0,2000-01-01 01:00:00,2016-04-03 02:51:08,388000/43397ca65d09c893adc0b2111fcc3c36-d.jpg,,
21681753,The Zinn Reader: Writings on Disobedience and Democracy,,,,Howard Zinn,2003,,Seven Stories Press,,672,0,English,62,,,"1888363541,1888363533,9781888363548",,,,,973,E178.6 .Z552 1997,,,OL678416M,,0,,,,,,,1,1235617,epub,43416A227EAB26A3083D923B684E81DB,,,"43416a227eab26a3083d923b684e81db~1888363541,1888363533,9781888363548.epub",0,2000-01-01 01:00:00,2016-04-03 02:51:08,388000/43416a227eab26a3083d923b684e81db-d.jpg,,
21681754,The Imperfect Union,,,,Peter E. Quint,1997,,Princeton University Press,,496,0,English,,,,"0691086567,9780691086569,9781400813063",,,,,342.43,KK5096 .Q56 1997,,,OL1000460M,,0,,,,,1,,1,1773479,pdf,43421F2B8D00E6B753A8BDDCB9320771,,,"43421f2b8d00e6b753a8bddcb9320771~0691086567,9780691086569,9781400813063.pdf",0,2000-01-01 01:00:00,2016-04-03 02:51:08,388000/43421f2b8d00e6b753a8bddcb9320771-d.jpg,,
21681755,Epistemic Luck,,,,Duncan Pritchard,2005,,"Oxford University Press, USA",,298,0,English,195,,,"019928038X,9780199280384",,,,,,,,,OL22617410M,,300,,,,,,,1,1681306,djvu,43488F2F6722167AF1092B7EA9F00995,,,"43488f2f6722167af1092b7ea9f00995~019928038X,9780199280384.djvu",0,2000-01-01 01:00:00,2016-04-03 02:51:08,388000/43488f2f6722167af1092b7ea9f00995-d.jpg,,
21681756,The Physician as Patient: A Clinical Handbook for Mental Health Professionals,,,,"Michael F. Myers, Glen O. Gabbard",2008,1,"American Psychiatric Publishing, Inc.",,252,0,English,,,,"1585623121,9781585623129,9781585628780",,,,,616.89/14,RC451.4.P5 M94 2008,,,OL12316384M,,0,,,,,,1,1,1441007,pdf,43497AA5F764092AD5CEBF784FB5E69D,,,"43497aa5f764092ad5cebf784fb5e69d~1585623121,9781585623129,9781585628780.pdf",0,2000-01-01 01:00:00,2016-04-03 02:51:08,388000/43497aa5f764092ad5cebf784fb5e69d-d.jpg,,
21681757,The Carrie Diaries,,,,Candace Bushnell,2010,,Balzer + Bray,,400,0,English,,,,"0061728918,9780061728914",,,,,,,,nhJXIhn0y6MC,OL24053339M,,0,,,,1,0,,1,478556,epub,43512F28C328CEC0C1EFE5A63496E277,,,"43512f28c328cec0c1efe5a63496e277~0061728918,9780061728914.epub",0,2000-01-01 01:00:00,2016-04-03 02:51:08,388000/43512f28c328cec0c1efe5a63496e277-d.jpg,,
21681758,Introduction to Modern Optics,,,,Grant R. Fowles,1989,2,Dover Publications,,336,0,English,264,,0,"0486659577,9780486659572",,,,,535/.2,QC395.2 .F68 1989,,,,,0,,,,,,,0,63849133,pdf,43521CEA525B5946A45092C2446E0FE7,f144e13f995a28a3e0b75305ec91e0f8,no,"43521cea525b5946a45092c2446e0fe7~0486659577,9780486659572.pdf",0,2000-01-01 01:00:00,2016-04-03 02:51:08,388000/43521cea525b5946a45092c2446e0fe7-d.jpg,,
21681759,Vida En Comunidad / Life in Community ,,Nueva Alianza Minor,,Dietrich Bonhoeffer,2005,9 Tra,Ediciones Sigueme,,120,0,Spanish,,,,"8430108939,9788430108930",,,,,,,,,OL13230329M,,0,,,,,,,1,5785686,pdf,43523D05DBBC835E19A7D2EDB12AE144,,,"43523d05dbbc835e19a7d2edb12ae144~8430108939,9788430108930.pdf",0,2000-01-01 01:00:00,2016-04-03 02:51:08,388000/43523d05dbbc835e19a7d2edb12ae144-d.jpg,,
21681760,North Korea Under Kim Jong Il: From Consolidation to Systemic Dissonance,,,,Sung Chull Kim,2006,,State University of New York Press,,277,0,English,,,,"0791469271,9780791469279,079146928X,9780791469286",,,,,,,,,OL7803678M,,0,,,,1,0,1,1,949261,pdf,43525C220FC9E05873054B6B06521C1C,,,"43525c220fc9e05873054b6b06521c1c~0791469271,9780791469279,079146928X,9780791469286.pdf",0,2000-01-01 01:00:00,2016-04-03 02:51:08,388000/43525c220fc9e05873054b6b06521c1c-d.jpg,,
21681761,"Hemochromatosis - A Bibliography and Dictionary for Physicians, Patients, and Genome Researchers",,,,Philip M. Parker,2007,,"ICON Group International, Inc",,250,0,English,264,,,"0497112280,9780497112288,9781429497459",,,,,,,,,,,0,,,,,1,,1,1788156,pdf,43535ECC975665D35E06FE4DD6F6E1A1,,,"43535ecc975665d35e06fe4dd6f6e1a1~0497112280,9780497112288,9781429497459.pdf",0,2000-01-01 01:00:00,2016-04-03 02:51:08,388000/43535ecc975665d35e06fe4dd6f6e1a1-d.jpg,,
21681762,TRANSACTIONAL ANALYSIS IN PSYCHOTHERAPY,,,,ERIC BERNE,2001,,Souvenir Press Ltd,,0,0,English,,,0,"0285647768,9780285647763",,,,,,,,,,,0,,0,,0,1,0,0,5349748,pdf,43547AB8369307F7AE47472DEF439DD0,,,"43547ab8369307f7ae47472def439dd0~0285647768,9780285647763.pdf",0,2000-01-01 01:00:00,2016-04-03 02:51:08,388000/43547ab8369307f7ae47472def439dd0-d.jpg,,
21681763,From Beacon Hill to the Crystal Palace: The 1851 Travel Diary of a Working-Class Woman,,,,"Lorenza Stevens Berbineau, Karen L. Kilcup",2002,,University Of Iowa Press,,160,0,English,,,,"0877457948,9780877457947,9781587294129",,,,,914.04/285,D919 .B47 2002,,,OL22467238M,,0,,,,,1,,1,621429,pdf,43551C4112A3ED057E8DCB1B1D074412,,,"43551c4112a3ed057e8dcb1b1d074412~0877457948,9780877457947,9781587294129.pdf",0,2000-01-01 01:00:00,2016-04-03 02:51:08,388000/43551c4112a3ed057e8dcb1b1d074412-d.jpg,,
21681764,Sampling Methods: Exercises and Solutions,,,,"Pascal Ardilly, Yves Tillé",2005,1,Springer,,394,0,English,,,,"0387261273,9780387261270",,,,,,,,,OL7444938M,,0,,,,,,1,1,2685053,pdf,43555F3D22817FFFBFD0ABFB355BFD7E,,,"43555f3d22817fffbfd0abfb355bfd7e~0387261273,9780387261270.pdf",0,2000-01-01 01:00:00,2016-04-03 02:51:08,388000/43555f3d22817fffbfd0abfb355bfd7e-d.jpg,,
21681765,Management Strategies in Antithrombotic Therapy,,,,"Arman Askari, Michael Lincoff, Adrian Messerli",2008,1,Wiley-Interscience,,366,0,English,6,,,"0470319380,9780470319383",,,,,616.1/42,RC694.3 .A77 2007,,,OL10295745M,,0,,,,,,1,1,3691624,pdf,43567ADA761A07E4F857F1B2867D4854,,,"43567ada761a07e4f857f1b2867d4854~0470319380,9780470319383.pdf",0,2000-01-01 01:00:00,2016-04-03 02:51:08,388000/43567ada761a07e4f857f1b2867d4854-d.jpg,,
21681766,A Classified Bibliography of the Septuagint ,,Arbeiten Zur Geschichte Des Antiken Judentums Und Des Urchristentums,,"Sebastian P. Brock, Charles Theodore Fritsch, Sidney Jellicoe, Sebastian P. Brock, Charles Theodore Fritsch, Sidney Jellicoe",1997,,Brill Academic Pub,,235,0,English,,,,"9004035966,9789004035966",,,,,016.221/48,Z7772.A1 B7,,,OL5087972M,,0,,,,,,1,1,3222765,pdf,43595DC0FF8C6BC76DD6763DFB175A98,,,"43595dc0ff8c6bc76dd6763dfb175a98~9004035966,9789004035966.pdf",0,2000-01-01 01:00:00,2016-04-03 02:51:08,388000/43595dc0ff8c6bc76dd6763dfb175a98-g.jpg,,
21681767,"How to Say It: Marketing with New Media: A Guide to Promoting Your Small Business Using Websites, E-zines, Blogs, and Podcasts",,,,"Lena Claxton, Alison Woo",2008,1,Prentice Hall Press,,240,0,English,183,,,"0735204322,9780735204324",,,,,658.8/72,HF5415.1265 .C578 2008,,,OL16775933M,,0,,,,,1,,1,2263170,pdf,43596AC8856E8B3F1C0563FE2C03AF90,,,"43596ac8856e8b3f1c0563fe2c03af90~0735204322,9780735204324.pdf",0,2000-01-01 01:00:00,2016-04-03 02:51:08,388000/43596ac8856e8b3f1c0563fe2c03af90-d.jpg,,
21681768,Workplace Justice Without Unions,,,,"Hoyt N. Wheeler, Brian S. Klaas, Douglas M. Mahony",2004,,W. E. Upjohn Institute,,231,0,English,,,,"0880993138,9780880993135,9781417550029",,,,,,,,,OL8136234M,,0,,,,,1,,1,746028,pdf,43598BADD0AEE854BD17A8927EE346E5,,,"43598badd0aee854bd17a8927ee346e5~0880993138,9780880993135,9781417550029.pdf",0,2000-01-01 01:00:00,2016-04-03 02:51:08,388000/43598badd0aee854bd17a8927ee346e5-d.jpg,,
21681769,Chemistry: Notable Research and Discoveries ,,Frontiers of Science,,"Kyle, Ph.d. Kirkland",2010,1,Facts on File,,216,0,English,296,,,"9780816074402,0816074402",,,,,540,QD40 .K485 2010,,,OL23536088M,,0,,,,,,1,1,5777067,pdf,43619B3976B9280B2EB41D665C18B2DC,,,"43619b3976b9280b2eb41d665c18b2dc~9780816074402,0816074402.pdf",0,2000-01-01 01:00:00,2016-04-03 02:51:08,388000/43619b3976b9280b2eb41d665c18b2dc-d.jpg,,
21681770,The Calvo Clause: A problem of inter-American and international law and diplomacy,,,,Donald R Shea,1955,,Oxford U.P,,232,0,English,,,,"0816669376,9780816669370",,B0000CJD9V,,,,,,,,,0,,,,,1,1,1,17653949,pdf,43624BA94C20824B883AA1C50DB36864,,,"43624ba94c20824b883aa1c50db36864~B0000CJD9V,0816669376,9780816669370.pdf",0,2000-01-01 01:00:00,2016-04-03 02:51:08,388000/43624ba94c20824b883aa1c50db36864-d.jpg,,
21681771,Jack Kerouac ,,Great Writers,,"Jenn McKee, Toby Thompson",2004,,Chelsea House Publications,,140,0,English,,,,"9780791078457,9781438122144,0791078450",,,,,"813/.54,B",PS3521.E735 Z774 2004,,,OL3290677M,,0,,,,,1,,1,382272,pdf,43624DF883E1C60A53AF66D9D86FE9EF,,,"43624df883e1c60a53af66d9d86fe9ef~9780791078457,9781438122144,0791078450.pdf",0,2000-01-01 01:00:00,2016-04-03 02:51:08,388000/43624df883e1c60a53af66d9d86fe9ef-d.jpg,,
21681772,The European Parliament's Role in Closer Eu Integration,,,,Richard Corbett,1998,,St. Martin's Press,,424,0,English,,,,"9780312211035,9780333722527,0312211031,0333722523,0333949382,9780333949382,9781403920003",,,,,341.24/24,JN36 .C69 1998,,,OL20161739M,,0,,,,,1,1,1,1099090,pdf,43627F77B6FAE55511495344F691D774,,,"43627f77b6fae55511495344f691d774~9780312211035,9780333722527,0312211031,0333722523,0333949382,9780333949382,9781403920003.pdf",0,2000-01-01 01:00:00,2016-04-03 02:51:08,388000/43627f77b6fae55511495344f691d774-g.jpg,,
21681773,Sustainable Land Management: Learning from the Past for the Future,,,,"H. Eswaran, S. Berberoğlu, C. Cangir, D. Boyraz, C. Zucca (auth.), Selim Kapur, Hari Eswaran, Winfried E.H. Blum (eds.)",2011,1,Springer-Verlag Berlin Heidelberg,,415,0,English,183,,,"364214781X,9783642147814,9783642147821",,,,,,,10.1007/978-3-642-14782-1,,,,0,,,,,,1,1,14959658,pdf,43658F9018BF1EEE4A71C17236D490F3,,,"43658f9018bf1eee4a71c17236d490f3~364214781X,9783642147814,9783642147821.pdf",0,2000-01-01 01:00:00,2016-04-03 02:51:08,388000/43658f9018bf1eee4a71c17236d490f3-d.jpg,,
21681774,Shakespeare and Renaissance Politics ,,Arden Shakespeare: Arden Critical Companions,,Andrew Hadfield,2003,1st,Arden Shakespeare,,328,0,English,195,,,"1903436176,9781903436172",,,,,,,,,OL22546184M,,0,,,,,1,,0,13552579,pdf,43670E67E5B05DF35AA70EE20CBC84FB,,,"43670e67e5b05df35aa70ee20cbc84fb~1903436176,9781903436172.pdf",0,2000-01-01 01:00:00,2016-04-03 02:51:08,388000/43670e67e5b05df35aa70ee20cbc84fb-d.jpg,,
21681775,Einführung in die Getriebelehre : Analyse und Synthese ungleichmässig übersetzender Getriebe,,Lehrbuch Maschinenbau,,Hanfried Kerle; Reinhard Pittschellis; Burkhard Corves,2007,"3., bearb. und erg. Aufl",Teubner,Wiesbaden,321,0,German,,usenet,to 2012-06,"383510070X,9783835100701",,,,,,,,,,,0,,,,,,,1,24578646,pdf,f82263a1d1ba80c8611c9c17ad5d913f,,,I:\\usenet_ger\\Einfuehrung.in.die.Getriebelehre.[Springer].[2007].[h14h46].pdf,0,2000-01-01 01:00:00,2016-04-03 02:51:08,883000/f82263a1d1ba80c8611c9c17ad5d913f-d.jpg,,
21681776,Adult Programs in the Library ,,Ala Programming Guides,,Brett W. Lear,2001,,ALA Editions,,156,0,English,,,,"0838908101,9780838908105,9780838999509",,,,,027.6/2,Z711.92.A32 L43 2002,,,OL3949784M,,0,,,,,1,,1,4173864,pdf,43672E5C055423027251364D0295D1E3,,,"43672e5c055423027251364d0295d1e3~0838908101,9780838908105,9780838999509.pdf",0,2000-01-01 01:00:00,2016-04-03 02:51:08,388000/43672e5c055423027251364d0295d1e3-d.jpg,,
21681777,Practical Guide To Evidence,,,,Allen,2001,2,Routledge Cavendish,,438,0,English,,,,"1859416047,9781859416044",,,,,,,,,OL9325933M,,0,,,,,1,1,1,2834559,pdf,43679FF818F4CE34CF27B1BC47CD1374,,,"43679ff818f4ce34cf27b1bc47cd1374~1859416047,9781859416044.pdf",0,2000-01-01 01:00:00,2016-04-03 02:51:08,388000/43679ff818f4ce34cf27b1bc47cd1374-d.jpg,,
21681778,Requiem pour un Bleu,,"Les Tuniques Bleues, tome 46",,Willy Lambil,2003,,Dupuis,,48,0,French,,,,"2800133260,9782800133263",,,,,,,,,OL8940618M,,0,,,,,1,1,0,28174539,pdf,43681C8386E47DB3EE4EDD15ECC23049,,,"43681c8386e47db3ee4edd15ecc23049~2800133260,9782800133263.pdf",0,2000-01-01 01:00:00,2016-04-03 02:51:08,388000/43681c8386e47db3ee4edd15ecc23049-d.jpg,,
21681779,As Psychology ,,Instant Revision,,Claire Meldrum,,,Collins,,128,0,English,198,,,"0007126077,9780007144310,9780007126071",,,,,,,,,OL7262260M,,0,,,,,,,1,4081266,pdf,43690D9904FE770CD8E931FA23DFC82C,,,"43690d9904fe770cd8e931fa23dfc82c~0007126077,9780007144310,9780007126071.pdf",0,2000-01-01 01:00:00,2016-04-03 02:51:08,388000/43690d9904fe770cd8e931fa23dfc82c-d.jpg,,
21681780,Fevre Dream,,,,George R.R. Martin,2004,,Bantam,,368,0,English,,,,"0553383051,9780553383058,9780553900989",,,,,813/.54,PS3563.A7239 F4 2004,,,OL24299775M,,0,,,,,,,1,674290,epub,43727A9809F954649A8C4C5DCC81B0DE,,,"43727a9809f954649a8c4c5dcc81b0de~0553383051,9780553383058,9780553900989.epub",0,2000-01-01 01:00:00,2016-04-03 02:51:08,388000/43727a9809f954649a8c4c5dcc81b0de-d.jpg,,
21681781,"Promise, Trust and Evolution: Managing the Commons of South Asia",,,,"Rucha Ghate, Narpat Jodha, Pranab Mukhopadhyay",2008,,"Oxford University Press, USA",,368,0,English,7,,,"0199213836,9780199213832,9781435652927",,,,,333.2,HD1289.S64 P76 2008,,,OL10145727M,,0,,,,,1,1,1,1587368,pdf,43749E97232032BEE76CEEF67C727E65,,,"43749e97232032bee76ceef67c727e65~0199213836,9780199213832,9781435652927.pdf",0,2000-01-01 01:00:00,2016-04-03 02:51:08,388000/43749e97232032bee76ceef67c727e65-d.jpg,,
21681782,Silent Accomplice: The Untold Story of France's Role in the Rwandan Genocide,,,,Andrew Wallis,2007,,I. B. Tauris,,257,0,English,,,,"1845112474,9781845112479,9781435615922",,,,,,,,,OL17213448M,,0,,,,0,0,,1,936893,pdf,43751AEA646373AEA56C0F21C8A8FB0B,,,"43751aea646373aea56c0f21c8a8fb0b~1845112474,9781845112479,9781435615922.pdf",0,2000-01-01 01:00:00,2016-04-03 02:51:08,388000/43751aea646373aea56c0f21c8a8fb0b-d.jpg,,
21681783,Convergence in Shareholder Law ,,International Corporate Law and Financial Market Regulation,,Mathias M. Siems,2008,1,Cambridge University Press,,522,0,English,313,,,"0521876753,9780521876759,9780511394553",,,,,,,,,OL10438171M,,0,,,,,1,,1,2063296,pdf,43762EA935B6B413D83B2143B72574D7,,,"43762ea935b6b413d83b2143b72574d7~0521876753,9780521876759,9780511394553.pdf",0,2000-01-01 01:00:00,2016-04-03 02:51:08,388000/43762ea935b6b413d83b2143b72574d7-d.jpg,,
21681784,Gary Soto ,,Who Wrote That?,,"Dennis Abrams, Kyle Zimmer",2008,1,Chelsea House Publications,,120,0,English,,,,"0791095290,9780791095294,1438123744,9781438123745",,,,,"811/.54,B",PS3569.O72 Z53 2008,,,OL11149558M,,0,,,,,,1,1,3284615,pdf,43773AF9BD0086DF1D48A05FFCD6BCC2,,,"43773af9bd0086df1d48a05ffcd6bcc2~0791095290,9780791095294,1438123744,9781438123745.pdf",0,2000-01-01 01:00:00,2016-04-03 02:51:08,388000/43773af9bd0086df1d48a05ffcd6bcc2-d.jpg,,
21681785,"Advances in Pharmacology, Vol. 39",,,,"J.Thomas August, M.W. Anders, Ferid Murad, Joseph Coyle (Eds.)",1997,1st,Academic Press,,"ii-xiv, 1-505",0,English,181,,0,978-0-12-032940-3,1054-3589,,,,,,,,,,0,,,,,1,,1,29910506,pdf,43774B3AE39B09117311A8E16B5B29EA,,,"43774b3ae39b09117311a8e16b5b29ea~9780080581316,9780120329403,0120329409.pdf",0,2000-01-01 01:00:00,2016-04-03 02:51:08,388000/43774b3ae39b09117311a8e16b5b29ea-d.jpg,,
21681786,Exposures from the Uranium Series With Emphasis on Radon and Its Daughters ,,N C R P Report,,National Council on Radiation Protection & Measurement,1984,,Natl Council on Radiation,,131,0,English,,,,"0913392677,9780913392676,9781435629455",,,,,363.1/79,RA569 .N353 1984,,,OL2841537M,,0,,,,,1,,1,5605430,pdf,43798D0ADD46AFE441A16BA26963D85F,,,"43798d0add46afe441a16ba26963d85f~0913392677,9780913392676,9781435629455.pdf",0,2000-01-01 01:00:00,2016-04-03 02:51:08,388000/43798d0add46afe441a16ba26963d85f-g.jpg,,
21681787,Exploring Environmental Change Using an Integrative Method ,,Environmental Problems & Social Dynamics,,Mark Lemon,1999,1,CRC Press,,264,0,English,31,,,"9056991930,9789056991937",,,,,,,,,OL18140517M,,0,,,,,,1,1,10103626,pdf,43810E83D152D7AC5E4F1237673593F4,,,"43810e83d152d7ac5e4f1237673593f4~9056991930,9789056991937.pdf",0,2000-01-01 01:00:00,2016-04-03 02:51:08,388000/43810e83d152d7ac5e4f1237673593f4-d.jpg,,
21681788,Planning and Learning by Analogical Reasoning ,,Lecture Notes in Computer Science / Lecture Notes in Artificial Intelligence,,Manuela M. Veloso,1994,1,Springer,,194,0,English,183,,,"3540588116,9783540588115",,,,,006.3/1,Q325.5 .V45 1994,10.1007/3-540-58811-6,,OL1117778M,,0,,,,,1,,1,9988951,pdf,43810EB0A7978C3400600E0B9B9005A5,,,"43810eb0a7978c3400600e0b9b9005a5~3540588116,9783540588115.pdf",0,2000-01-01 01:00:00,2016-04-03 02:51:08,388000/43810eb0a7978c3400600e0b9b9005a5-d.jpg,,
21681789,Juvenile Delinquency,,,,Donald J. Shoemaker,2008,,"Rowman & Littlefield Publishers, Inc.",,462,0,English,,,,"0742547078,9780742547070,074254706X,9780742547063,9780742565807",,,,,364.36,HV9069 .S524 2008,,,OL19968702M,,0,,,,,,,1,2351387,pdf,43818C75F9D4FB1450C35B201D390868,,,"43818c75f9d4fb1450c35b201d390868~0742547078,9780742547070,074254706X,9780742547063,9780742565807.pdf",0,2000-01-01 01:00:00,2016-04-03 02:51:08,388000/43818c75f9d4fb1450c35b201d390868-d.jpg,,
21681790,"Foot Pain - A Medical Dictionary, Bibliography, and Annotated Research Guide to Internet References",,,,Health Publica Icon Health Publications,2004,,ICON Health Publications,,88,0,English,100,,,"0597839166,9780597839160,9780585493145",,,,,,,,,OL7582434M,,0,,,,,,,1,654872,pdf,43827DCF3CB2E5A96ADC33307A969398,,,"43827dcf3cb2e5a96adc33307a969398~0597839166,9780597839160,9780585493145.pdf",0,2000-01-01 01:00:00,2016-04-03 02:51:08,388000/43827dcf3cb2e5a96adc33307a969398-d.jpg,,
21681791,Entropy and Information Theory,,,,Robert M. Gray (auth.),2011,2,Springer US,,409,0,English,282,,,"1441979697,9781441979698",,,,,,,10.1007/978-1-4419-7970-4,,,,0,,,,,,1,1,2706985,pdf,43839A62987DB3F2E85EEDF6F8C2EA84,,,"43839a62987db3f2e85eedf6f8c2ea84~1441979697,9781441979698.pdf",0,2000-01-01 01:00:00,2016-04-03 02:51:08,388000/43839a62987db3f2e85eedf6f8c2ea84-d.jpg,,
21681792,"Crime Prevention: Theory, Policy And Practice",,,,Daniel Gilling,1997,1,Routledge,,240,0,English,311,,,"1857284909,9781857284904,9780203995419",,,,,364.4,HV7431 .G434 1997,,,OL1012768M,,0,,,,,,1,1,1482187,pdf,43850F6C39406A44529F1314CA3F1095,,,"43850f6c39406a44529f1314ca3f1095~1857284909,9781857284904,9780203995419.pdf",0,2000-01-01 01:00:00,2016-04-03 02:51:08,388000/43850f6c39406a44529f1314ca3f1095-d.jpg,,
21681793,The Science and Technology of Materials in Automotive Engines,,,,Hiroshi Yamagata,2005,1,CRC Press,,318,0,English,181,,,"9780849325854,0849325854,9781855737426,1855737426,1845690850,9781845690854",,,,,,,,,OL11912780M,,0,,,,,1,,1,6670395,pdf,43933F0137B8A08131106FDDE0AB5831,,,"43933f0137b8a08131106fdde0ab5831~9780849325854,0849325854,9781855737426,1855737426,1845690850,9781845690854.pdf",0,2000-01-01 01:00:00,2016-04-03 02:51:08,388000/43933f0137b8a08131106fdde0ab5831-g.jpg,,
21681794,Professional SharePoint 2010 Administration,,,,"Todd Klindt, Shane Young, Steve Caravajal",2010,,Wrox,,842,0,English,101,,,"0470533331,9780470533338",,,,,,,,,,,0,,,,,,,1,45429348,pdf,43952C41D43DBD79EB4CFDDEC22D48B3,,,"43952c41d43dbd79eb4cfddec22d48b3~0470533331,9780470533338.pdf",0,2000-01-01 01:00:00,2016-04-03 02:51:08,388000/43952c41d43dbd79eb4cfddec22d48b3-d.jpg,,
21681795,Maintaining Minority Languages in Transnational Contexts: Australian and European Perspectives ,,Palgrave Studies in Minority Languages and Communities,,"Anne Pauwels, Joanne Winter, Joseph Lo Bianco",2007,First Edition,Palgrave Macmillan,,224,0,English,,,,"0230019196,9780230019195,9780230206397",,,,,,,,,OL10194193M,,0,,,,,1,,1,546939,pdf,44025C33C4EFF52E14D95C9E8EC30D82,,,"44025c33c4eff52e14d95c9e8ec30d82~0230019196,9780230019195,9780230206397.pdf",0,2000-01-01 01:00:00,2016-04-03 02:51:08,388000/44025c33c4eff52e14d95c9e8ec30d82-d.jpg,,
21681796,Argument Encoding in Japanese Conversation,,,,Mitsuaki Shimojo,2005,,Palgrave Macmillan,,272,0,English,,,,"9780230505384,9781403937056,1403937052",,,,,495.6/0141,PL640.5 .S56 2004,,,OL11642582M,,0,,,,1,0,1,1,912336,pdf,44047DDA0307778AC8BFACD33F977ECE,,,"44047dda0307778ac8bfacd33f977ece~9780230505384,9781403937056,1403937052.pdf",0,2000-01-01 01:00:00,2016-04-03 02:51:08,388000/44047dda0307778ac8bfacd33f977ece-d.jpg,,
21681797,Connecting With Kids Through Stories: Using Narratives To Facilitate Attachment In Adopted Children,,,,"Denise B. Lacher, Todd Nichols, Joanne C. May",2005,,Jessica Kingsley Publishers,,143,0,English,,,,"184310797X,9781843107972,9781846421082",,,,,,,,,OL8929258M,,0,,,,,,,1,630875,pdf,44089F6C552F29FED9A75EC7BB86831D,,,"44089f6c552f29fed9a75ec7bb86831d~184310797X,9781843107972,9781846421082.pdf",0,2000-01-01 01:00:00,2016-04-03 02:51:08,388000/44089f6c552f29fed9a75ec7bb86831d-d.jpg,,
21681798,Customer Relationships ,,Express Exec,,Roger Cartwright,2003,,Capstone,,118,0,English,,,,"1841124524,9781841124520,9781841125053",,,,,,,,,OL12566926M,,0,,,,,1,,1,1021805,pdf,44114F37BCBA0815E91D62271B35A258,,,"44114f37bcba0815e91d62271b35a258~1841124524,9781841124520,9781841125053.pdf",0,2000-01-01 01:00:00,2016-04-03 02:51:08,388000/44114f37bcba0815e91d62271b35a258-d.jpg,,
21681799,Handbook of Research on E-government Readiness for Information and Service Exchange: Utilizing Progressive Information Communication Technologies ... Government Research ,,Aegr Book Series,,"Hakikur Rahman, Hakikur Rahman",2009,1,Information Science Reference,,588,0,English,,,,"1605666718,9781605666716",,,,,352.3/802854678,JF1525.A8 H3619 2010,,,OL23057662M,,0,,,,,0,1,1,11101167,pdf,44120F37539C06B8A54BFDDCBCF30650,,,"44120f37539c06b8a54bfddcbcf30650~1605666718,9781605666716.pdf",0,2000-01-01 01:00:00,2016-04-03 02:51:08,388000/44120f37539c06b8a54bfddcbcf30650-d.jpg,,
21681800,Painless American History ,,Barron's Painless Series,,Curt Lader,1999,,Barron's Educational Series,,338,0,English,64,,,"0764106201,9780764106200",,,,,973,E178.2 .L2 1999,,,OL387193M,,0,,,,,,,1,2553635,pdf,44168D5A88172B22288A03B5CE1CE7AE,,,"44168d5a88172b22288a03b5ce1ce7ae~0764106201,9780764106200.pdf",0,2000-01-01 01:00:00,2016-04-03 02:51:08,388000/44168d5a88172b22288a03b5ce1ce7ae-d.gif,,
21681801,Blood Legacy: The House of Alexander,,,,Kerri Hawkins,2005,,Red Raptor Productions,,251,0,English,,,,"0976623102,9780976623106,2940011081859,0011081856",,B001HZYC2E,,,,,,,OL8588378M,,0,,,,,,,,287510,epub,44194F23A0178FA0F608D0AD14EE7F21,,,"44194f23a0178fa0f608d0ad14ee7f21~0976623102,9780976623106,B001HZYC2E,2940011081859,0011081856.epub",0,2000-01-01 01:00:00,2016-04-03 02:51:08,388000/44194f23a0178fa0f608d0ad14ee7f21-d.jpg,,
21681802,Frontiers of Developmental Psychopathology ,,Series in Developmental Psychological Science,,"Mark F. Lenzenweger, Jeffery J. Haugaard",1996,1St Edition,"Oxford University Press, USA",,256,0,English,,,,"0195090012,9780195090017,9780195358223",,,,,616.89/071,RC454.4 .F76 1996,,,OL1098637M,,0,,,,,1,1,1,15004304,pdf,44216FED4D368653D73420D3A9D44AB3,,,"44216fed4d368653d73420d3a9d44ab3~0195090012,9780195090017,9780195358223.pdf",0,2000-01-01 01:00:00,2016-04-03 02:51:08,388000/44216fed4d368653d73420d3a9d44ab3-d.jpg,,
21681803,Expertise in Second Language Teaching and Learning,,,,Keith Johnson,2005,,Palgrave Macmillan,,288,0,English,183,,,"1403920966,9781403920966,9780230523470",,,,,418/.0071,P118.2 .E96 2005,,,OL3427076M,,0,,,,1,0,1,1,801640,pdf,44221E3DE24D102A12B6F7208F3992E7,,,"44221e3de24d102a12b6f7208f3992e7~1403920966,9781403920966,9780230523470.pdf",0,2000-01-01 01:00:00,2016-04-03 02:51:08,388000/44221e3de24d102a12b6f7208f3992e7-d.jpg,,
21681804,The Words of Making: The Osserian Saga: Book Two,,,,David Forbes,2007,,Eos,,496,0,English,,,,"0060820322,9780060820329,9780061535604",,,,,,,,,OL23717028M,,0,,,,,1,,1,2482082,pdf,44228C7E1FC9AFA3347206B8D27C36C8,,,"44228c7e1fc9afa3347206b8d27c36c8~0060820322,9780060820329,9780061535604.pdf",0,2000-01-01 01:00:00,2016-04-03 02:51:08,388000/44228c7e1fc9afa3347206b8d27c36c8-d.jpg,,
21681805,Activity-based Cost Management: An Executive's Guide,,,,Gary Cokins,2001,1,Wiley,,384,0,English,6,,,"047144328X,9780471443285",,,,,,,,,OL7617304M,,0,,,,,,,1,2377232,pdf,44284C2EE0D7E877A2D349DA901DF332,,,"44284c2ee0d7e877a2d349da901df332~047144328X,9780471443285.pdf",0,2000-01-01 01:00:00,2016-04-03 02:51:08,388000/44284c2ee0d7e877a2d349da901df332-d.jpg,,
21681806,"Advances in Organometallic Chemistry, Vol. 12",,,,"F.G.A. Stone, Robert West (Eds.)",1974,,Academic Press,,"ii-xi, 1-457",0,English,19,,0,978-0-12-031112-5,0065-3055,,,,,,,,,,0,,,,,1,,1,19466854,pdf,44287F7F7A415BE1CF74270A78D52D2A,,,"44287f7f7a415be1cf74270a78d52d2a~0120311127,9780120311125,9780080580135.pdf",0,2000-01-01 01:00:00,2016-04-03 02:51:08,388000/44287f7f7a415be1cf74270a78d52d2a-d.jpg,,
21681807,Handbook of Acid-Base Indicators,,,,R. W. Sabnis,2007,,CRC Press,,416,0,English,,,,"0849382181,9780849382185,9780849382192",,,,,,,,,OL11560402M,,0,,,,,1,1,1,3028587,pdf,44319E177F245A77B19BAEB3B02C987E,,,"44319e177f245a77b19baeb3b02c987e~0849382181,9780849382185,9780849382192.pdf",0,2000-01-01 01:00:00,2016-04-03 02:51:08,388000/44319e177f245a77b19baeb3b02c987e-d.jpg,,
21681808,"Advances in the Study of Behavior, Vol. 2",,,,"Daniel S. Lehrman, Robert A. Hinde, Evelyn Shaw (Eds.)",1969,,Academic Press,,"ii-vii, 1-396",0,English,19,,0,978-0-12-004502-0,0065-3454,,,,591.5,QL750,,,,,0,,,,,1,,1,17971565,pdf,44325C7552D22BA9AD4E985D9FD9D9B9,,,"44325c7552d22ba9ad4e985d9fd9d9b9~0120045028,9780120045020,9780080582634.pdf",0,2000-01-01 01:00:00,2016-04-03 02:51:08,388000/44325c7552d22ba9ad4e985d9fd9d9b9-d.jpg,,
21681809,"Trilingualism in Family, School and Community ",,Bilingual Education and Bilingualism,,"Charlotte Hoffmann, Jehannes Ytsma",2003,,Multilingual Matters,,248,0,English,,,,"1853596930,9781853596940,9781853596933",,,,,306.44/6,P115 .T75 2004,,,OL3674343M,,0,,,,,,1,1,1609455,pdf,44353AC8F7BD89F36342A224542FA90A,,,"44353ac8f7bd89f36342a224542fa90a~1853596930,9781853596940,9781853596933.pdf",0,2000-01-01 01:00:00,2016-04-03 02:51:08,388000/44353ac8f7bd89f36342a224542fa90a-d.jpg,,
21681810,A Primer For Critics,,,,George Boas,1947,,The Johns Hopkins Press,,176,0,English,,,,,,B000FMOUZE,,,,,,,,,0,,,,,,,1,11053203,pdf,44353CE144079C54293F5C37E0B3F88A,,,44353ce144079c54293f5c37e0b3f88a~B000FMOUZE.pdf,0,2000-01-01 01:00:00,2016-04-03 02:51:08,388000/44353ce144079c54293f5c37e0b3f88a-g.jpg,,
21681811,Interpretations of Renaissance Humanism ,,Brill's Studies in Intellectual History Brill's Studies in Itellectual History,,Angelo Mazzocco,2006,,Brill Academic Publishers,,324,0,English,,,,"900415244X,9789004152441",,,,,,,,,OL9085651M,,0,,,,,,,1,5042602,pdf,44370ED7E935291C276154400CA2B827,,,"44370ed7e935291c276154400ca2b827~900415244X,9789004152441.pdf",0,2000-01-01 01:00:00,2016-04-03 02:51:08,388000/44370ed7e935291c276154400ca2b827-d.jpg,,
21681812,Classic Knits for Boy Dolls,,,,Marjory Fainges,2000,,Simon & Schuster Australia,,60,0,English,,,,"0743204506,9780743204507",,,,,,,,,OL7926706M,,0,,,,,1,,0,9864271,pdf,44378CA71BAFE58A286A1F7352E99898,,,"44378ca71bafe58a286a1f7352e99898~0743204506,9780743204507.pdf",0,2000-01-01 01:00:00,2016-04-03 02:51:08,388000/44378ca71bafe58a286a1f7352e99898-d.jpg,,
21681813,The Official Patient's Sourcebook on Mycosis Fungoides and the Sezary Syndrome: A Revised and Updated Directory for the Internet Age,,,,Icon Health Publications,2002,,Icon Health Publications,,376,0,English,100,,,"0597834644,9780597834646,9780585435411",,,,,,,,,OL7582005M,,0,,,,,1,,1,837358,pdf,44378F8E8DD93656C33ADA7B54B8B91B,,,"44378f8e8dd93656c33ada7b54b8b91b~0597834644,9780597834646,9780585435411.pdf",0,2000-01-01 01:00:00,2016-04-03 02:51:08,388000/44378f8e8dd93656c33ada7b54b8b91b-d.jpg,,
21681814,CIM Revision Cards: Managing Marketing Performance,,,,marketing Knowledge,2005,,Butterworth-Heinemann,,127,0,English,7,,,"0750667680,9780750667685,9780080501284",,,,,,,,,,,0,,,,,,1,1,552224,pdf,44400A28C40BA6434D53102EFE63B410,,,"44400a28c40ba6434d53102efe63b410~0750667680,9780750667685,9780080501284.pdf",0,2000-01-01 01:00:00,2016-04-03 02:51:08,388000/44400a28c40ba6434d53102efe63b410-d.jpg,,
21681815,The Origins of the European Legal Order ,,Cambridge Studies in Internati,,"Maurizio Lupoi, Adrian Belton",2000,,Cambridge University Press,,656,0,English,,,,"0521621070,9780521621076",,,,,349.4,KJ147 .L8713 2000,,,OL349034M,,0,,,,,,,1,20001982,pdf,44406B566DF6D34717224D80EA0E27BD,,,"44406b566df6d34717224d80ea0e27bd~0521621070,9780521621076.pdf",0,2000-01-01 01:00:00,2016-04-03 02:51:08,388000/44406b566df6d34717224d80ea0e27bd-d.jpg,,
21681816,Fall On Your Knees ,,Oprah's Book Club,,Ann-Marie MacDonald,2002,1st Scribner Paperback Fiction Ed,Touchstone,,512,0,English,,,,"0743237188,9780743237185",,B003BWL0SA,,,,,,,OL18382123M,,0,,,,,,,,402437,epub,44410CDE9E4EC5782EA68104FF06323D,,,"44410cde9e4ec5782ea68104ff06323d~0743237188,9780743237185,B003BWL0SA.epub",0,2000-01-01 01:00:00,2016-04-03 02:51:08,388000/44410cde9e4ec5782ea68104ff06323d-d.jpg,,
21681817,U.S. History II ,,Cliffs Quick Review,,"Paul Soifer, Abraham Hoffman",1999,,Cliffs Notes,,208,0,English,64,,,"0764585371,9780764585371,9780764523953",,,,,,,,,OL24252415M,,0,,,,,1,,1,660069,pdf,44430F75BFB8A5DE287552D85F504665,,,"44430f75bfb8a5de287552d85f504665~0764585371,9780764585371,9780764523953.pdf",0,2000-01-01 01:00:00,2016-04-03 02:51:08,388000/44430f75bfb8a5de287552d85f504665-d.jpg,,
21681818,Philosophy in the Tragic Age of the Greeks,,,,"Friedrich Wilhelm Nietzsche, Marianne Cowan",1996,,Gateway Editions,,117,0,English,195,,,"0895267101,9780895267108",,,,,,,,,OL22279664M,,0,,,,,,,1,3115235,pdf,44437D01080BA6548AE7149BA47A0279,,,"44437d01080ba6548ae7149ba47a0279~0895267101,9780895267108.pdf",0,2000-01-01 01:00:00,2016-04-03 02:51:08,388000/44437d01080ba6548ae7149ba47a0279-d.jpg,,
21681819,"Participatory Action Research Approaches and Methods: Connecting People, Participation and Place ",,Routledge Studies in Human Geography,,"Sara Kindon, Rachel Pain, Mike Kesby",2007,1,Routledge,,287,0,English,,,,"0415405505,9780415405508,9780203933671",,,,,302/.1401,HM711 .P37 2007,,,OL10205151M,,0,,,,1,0,1,1,2975106,pdf,44485EEF59B2BEC84B88CF63BD14AC7F,,,"44485eef59b2bec84b88cf63bd14ac7f~0415405505,9780415405508,9780203933671.pdf",0,2000-01-01 01:00:00,2016-04-03 02:51:08,388000/44485eef59b2bec84b88cf63bd14ac7f-d.jpg,,
21681820,"The Romanians and the Turkic Nomads North of the Danube Delta from the Tenth to the Mid-Thirteenth Century East Central and Eastern Europe in the Middle Ages, 450-1450 ",,,,Victor Spinei,2009,,Brill,,565,0,English,,,,"9004175369,9789004175365",,,,,949.8/3013,DR281.D25 S65 2009,,,OL23186389M,,0,,,,1,0,1,1,6036889,pdf,44490E1845949A1F94AEEA41492041E6,,,"44490e1845949a1f94aeea41492041e6~9004175369,9789004175365.pdf",0,2000-01-01 01:00:00,2016-04-03 02:51:08,388000/44490e1845949a1f94aeea41492041e6-d.jpg,,
21681821,Aspects of Teaching Secondary Mathematics: Perspectives on Practice,,,,Linda Haggarty,2004,,Routledge,,312,0,English,113,,,"9780415266413,0415266416,020316587X,9780203165874",,,,,510/.71/2,QA14.G7 A77 2002,,,OL24271982M,,0,,,,,,1,1,5166979,pdf,44505AAC60A2676035212E3C02D3367E,,,"44505aac60a2676035212e3c02d3367e~9780415266413,0415266416,020316587X,9780203165874.pdf",0,2000-01-01 01:00:00,2016-04-03 02:51:08,388000/44505aac60a2676035212e3c02d3367e-d.jpg,,
21681822,Notre Dame De Paris ,,,,Victor Hugo,1973,,Gallimard,,702,0,French,,,,"2070422526,9782070422524",,,,,,,,,OL22737552M,,0,,,,,1,,1,2488441,pdf,44540FE49EFDE29C10EEC465C7B2CE3D,,,"44540fe49efde29c10eec465c7b2ce3d~2070422526,9782070422524.pdf",0,2000-01-01 01:00:00,2016-04-03 02:51:08,388000/44540fe49efde29c10eec465c7b2ce3d-d.jpg,,
21681823,Explorations in Applied Linguistics ,v. 1 ,,,H. G. Widdowson,1979,,Oxford Univ Pr (Sd),,284,0,English,314,,,"0194370801,9780194370806",,,,,418/.007,P51 .W487,,,OL4173693M,,0,,,,,,1,1,1186922,pdf,44546A1BD03D0DCC1BE8A9151D5688DD,,,"44546a1bd03d0dcc1be8a9151d5688dd~0194370801,9780194370806.pdf",0,2000-01-01 01:00:00,2016-04-03 02:51:08,388000/44546a1bd03d0dcc1be8a9151d5688dd-d.jpg,,
21681824,Network Coding Fundamentals ,,Foundations and Trends in Networking,,"Christina Fragouli, Emina Soljanin",2007,,Now Publishers Inc,,152,0,English,99,,,"1601980329,9781601980328,9781601980335",,,,,,,10.1561/1300000003,,OL12553908M,,0,,,,,1,1,1,1083708,pdf,44550A87007C48C178CF85C86F78DE40,,,"44550a87007c48c178cf85c86f78de40~1601980329,9781601980328,9781601980335.pdf",0,2000-01-01 01:00:00,2016-04-03 02:51:08,388000/44550a87007c48c178cf85c86f78de40-d.jpg,,
21681825,The Political Economy of Reform in Central Asia: Uzbekistan under Authoritarianism ,,Central Asia Research Forum,,Martin C. Spechler,2008,1,Routledge,,192,0,English,,,,"041577554X,9780415775540,9780203928486",,,,,338.9587,HC421.7 .S64 2008,,,OL10208061M,,0,,,,,1,1,1,2424309,pdf,44558DF824536EAECA32A88BB5FD6FD0,,,"44558df824536eaeca32a88bb5fd6fd0~041577554X,9780415775540,9780203928486.pdf",0,2000-01-01 01:00:00,2016-04-03 02:51:08,388000/44558df824536eaeca32a88bb5fd6fd0-d.jpg,,
21681826,Breed to Come,,,,Andre Norton,2001,,Onyx Books,,246,0,English,,,,"9780451452665,0451452666",,,,,,,,,,,0,,,,,1,,1,591991,pdf,44566F75BD907B78D80694999E55399F,,,"44566f75bd907b78d80694999e55399f~9780451452665,0451452666.pdf",0,2000-01-01 01:00:00,2016-04-03 02:51:08,388000/44566f75bd907b78d80694999e55399f-g.jpg,,
21681827,International Comparisons of Household Saving ,,National Bureau of Economic Research Project Report,,James M. Poterba,1994,1,University Of Chicago Press,,286,0,English,305,,,"0226676218,9780226676210,9780226676289",,,,,339.4/3,HC79.S3 I54 1994,,,OL1097871M,,0,,,,,1,,1,12129969,pdf,44571B1D4F6C33751CCA92660644AFD0,,,"44571b1d4f6c33751cca92660644afd0~0226676218,9780226676210,9780226676289.pdf",0,2000-01-01 01:00:00,2016-04-03 02:51:08,388000/44571b1d4f6c33751cca92660644afd0-d.jpg,,
21681828,"The Fenian Ideal and Irish Nationalism, 1882-1916 ",,Irish Historical Monographs,,M.J. Kelly,2006,,Boydell Press,,292,0,English,,,,"1843832046,9781843832041,1843834456,9781843834458,9781846154652",,,,,,,,,OL17234170M,,0,,,,,1,1,1,941431,pdf,44577CDF74B7561CA89889CF1F54639B,,,"44577cdf74b7561ca89889cf1f54639b~1843832046,9781843832041,1843834456,9781843834458,9781846154652.pdf",0,2000-01-01 01:00:00,2016-04-03 02:51:08,388000/44577cdf74b7561ca89889cf1f54639b-d.jpg,,
21681829,Webster's English to Portuguese Brazilian Crossword Puzzles: Level 4,,,,Philip M. Parker,2006,Bilingual,"ICON Group International, Inc",,120,0,English,100,,,"0497255006,9780497255008,9781423772781",,,,,,,,,OL10370286M,,0,,,,,1,,1,1063749,pdf,44577FE80CB01A0609ADE062A9176F5F,,,"44577fe80cb01a0609ade062a9176f5f~0497255006,9780497255008,9781423772781.pdf",0,2000-01-01 01:00:00,2016-04-03 02:51:08,388000/44577fe80cb01a0609ade062a9176f5f-d.jpg,,
21681830,Socio-Religious Reform Movements in British India ,,The New Cambridge History of India,,Kenneth W. Jones,1990,,Cambridge University Press,,255,0,English,205,,,"9780521249867,0521249864",,,,,"954 s,306/.6/0954","DS436 .N47 1987 pt. 3 vol. 1,BL2007.5 .N47 19",,,OL2052613M,,0,,,,,1,,1,19805623,pdf,44602DC623E927CDAF7983BFB79CCFFE,,,"44602dc623e927cdaf7983bfb79ccffe~9780521249867,0521249864.pdf",0,2000-01-01 01:00:00,2016-04-03 02:51:08,388000/44602dc623e927cdaf7983bfb79ccffe-d.jpg,,
21681831,"Must Global Politics Constrain Democracy? Great-Power Realism, Democratic Peace, and Democratic Internationalism",,,,Alan Gilbert,1999,,Princeton University Press,,256,0,English,,,,"0691001812,9780691001814,9781400811762",,,,,327.1/01,JZ1242 .B54 1999,,,OL31589M,,0,,,,,1,,1,1985402,pdf,44606EE2B2274901162A939D2129D58C,,,"44606ee2b2274901162a939d2129d58c~0691001812,9780691001814,9781400811762.pdf",0,2000-01-01 01:00:00,2016-04-03 02:51:08,388000/44606ee2b2274901162a939d2129d58c-d.jpg,,
21681832,Aida ,,Opera Journeys Libretto Series,,Burton D. Fisher,2001,,Opera Journeys,,56,0,English,62,,,"1930841876,9781930841871,9780585427010",,,,,,,,,OL8800757M,,0,,,,,1,,1,262497,pdf,44612B28A9E7164B474359A3A0F66424,,,"44612b28a9e7164b474359a3a0f66424~1930841876,9781930841871,9780585427010.pdf",0,2000-01-01 01:00:00,2016-04-03 02:51:08,388000/44612b28a9e7164b474359a3a0f66424-d.jpg,,
21681833,100 Q&A About Heart Attack and Related Cardiac Problems ,,100 Questions & Answers,,Edward K. Chung,2003,1,Jones & Bartlett Learning,,164,0,English,159,,,"0763712949,9780763712945,9780763764777",,,,,616.1/23,RC685.C6,,,OL22067907M,,0,,,,,1,,1,1378444,pdf,44623BBEEC355CBE86D409031ED6089A,,,"44623bbeec355cbe86d409031ed6089a~0763712949,9780763712945,9780763764777.pdf",0,2000-01-01 01:00:00,2016-04-03 02:51:08,388000/44623bbeec355cbe86d409031ed6089a-d.jpg,,
21681834,"Topics in Multivariate Approximation and Interpolation, Vol. 12",,,,"Kurt Jetter, Martin Buhmann, Werner Haussmann, Robert Schaback, Joachim Stoeckler",2006,,Elsevier Science,,356,0,English,117,,0,"0444518444,9780444518446,9780080462042",,,,,519.5/35,QA278 .T667 2006,,,,,0,,,,,1,1,1,25028394,pdf,44625CA1FAD6531E8958309319F2C405,,,"44625ca1fad6531e8958309319f2c405~0444518444,9780444518446,9780080462042.pdf",0,2000-01-01 01:00:00,2016-04-03 02:51:08,388000/44625ca1fad6531e8958309319f2c405-d.jpg,,
21681835,Wealth and Poverty in the Book of Proverbs ,,JSOT Supplement,,Whybray,1990,,Sheffield Academic Press,,132,0,English,,,,"1850752648,9781850752646,1441153748,9781441153746",,,,,,,,,OL9565535M,,300,,,,,,1,1,5996339,pdf,44676C7D7183052A305E83341D7DB028,,,"44676c7d7183052a305e83341d7db028~1850752648,9781850752646,1441153748,9781441153746.pdf",0,2000-01-01 01:00:00,2016-04-03 02:51:08,388000/44676c7d7183052a305e83341d7db028-d.jpg,,
21681836,The Story of Space Station Mir,,,,David M Harland,2005,1,Praxis,,424,0,English,212,,,"0387230114,9780387230115",,,,,,,,,OL7444467M,,0,,,,,1,1,1,29433063,pdf,44690EEAB3F9FA2DE2AD465DB1474835,,,"44690eeab3f9fa2de2ad465db1474835~0387230114,9780387230115.pdf",0,2000-01-01 01:00:00,2016-04-03 02:51:08,388000/44690eeab3f9fa2de2ad465db1474835-d.jpg,,
21681837,Watership Down,,,,Richard Adams,1976,,Avon,,496,0,English,,,,0380002930,,,,,,,,,,,0,,,,,,,,414456,epub,44695F7B903C739638DBE062C8F1A408,,,44695f7b903c739638dbe062c8f1a408~0380002930.epub,0,2000-01-01 01:00:00,2016-04-03 02:51:08,388000/44695f7b903c739638dbe062c8f1a408-d.jpg,,
21681838,Computation and Visualization for Understanding Dynamics in Geographic Domains: A Research Agenda,,,,"May Yuan, Kathleen S. Hornsby",2007,1,CRC Press,,120,0,English,120,,,"1420060325,9781420060324,9781420060331",,,,,,,,,OL11816761M,,0,,,,,1,,1,6444665,pdf,44711F1DC4DA7CF0B36771CC210BD0C2,,,"44711f1dc4da7cf0b36771cc210bd0c2~1420060325,9781420060324,9781420060331.pdf",0,2000-01-01 01:00:00,2016-04-03 02:51:08,388000/44711f1dc4da7cf0b36771cc210bd0c2-d.jpg,,
21681839,Of God Who Comes to Mind ,,Meridian: Crossing Aesthetics,,"Emmanuel Levinas, Bettina Bergo",1998,1,Stanford University Press,,228,0,English,195,,,"0804730946,9780804730945",,,,,212,BD331 .L45813 1998,,,OL701125M,,0,,,,,1,,0,13361693,pdf,44776B4CA5578997F79249FFC4E26951,,,"44776b4ca5578997f79249ffc4e26951~0804730946,9780804730945.pdf",0,2000-01-01 01:00:00,2016-04-03 02:51:08,388000/44776b4ca5578997f79249ffc4e26951-d.gif,,
21681840,Intergenerational Justice: Rights and Responsibilities in an Intergenerational Polity ,,Routledge Studies in Contemporary Philosophy,,Janna Thompson,2009,1,Routledge,,198,0,English,195,,,"0415996287,9780415996280,9780203878682",,,,,320.01/1,JC578 .T47 2009,,,OL23015136M,,0,,,,,1,,0,7677949,pdf,44777B48005C98A832376A9E8105F224,,,"44777b48005c98a832376a9e8105f224~0415996287,9780415996280,9780203878682.pdf",0,2000-01-01 01:00:00,2016-04-03 02:51:08,388000/44777b48005c98a832376a9e8105f224-d.jpg,,
21681841,"Paul, Judaism, and the Gentiles: A Sociological Approach ",,Society for New Testament Studies Monograph Series,,Francis Watson,1989,,Cambridge University Press,,260,0,English,194,,,"0521388074,9780511555138,9780521325738,9780521388078",,,,,,,,,OL22026556M,,0,,,,,1,,1,1544131,djvu,44783FC8588523205BD244CD1B4E58A5,,,"44783fc8588523205bd244cd1b4e58a5~0521388074,9780511555138,9780521325738,9780521388078.djvu",0,2000-01-01 01:00:00,2016-04-03 02:51:08,388000/44783fc8588523205bd244cd1b4e58a5-d.jpg,,
21681842,Cup of Joe,,,,Teri Wilson,2009,,White Rose Publishing,,260,0,English,,,,"1601547080,9781601547088",,B003CT333W,,,,,,,,,0,,,,,,,,224617,epub,44794C879B8ECCFE68B80DC88B2AB719,,,"44794c879b8eccfe68b80dc88b2ab719~1601547080,9781601547088,B003CT333W.epub",0,2000-01-01 01:00:00,2016-04-03 02:51:08,388000/44794c879b8eccfe68b80dc88b2ab719-d.jpg,,
21681843,Silas Marner ,,,,George Eliot,2006,Webster's Korean Thesaurus Edition ,"ICON Group International, Inc.",,258,0,English,,,,"0497913747,9780497913748,9781423795643",,,,,,,,,OL9681225M,,0,,,,,1,,1,2494471,pdf,44801E9E8C0FAE30CE7B8CDF6E9C5F8E,,,"44801e9e8c0fae30ce7b8cdf6e9c5f8e~0497913747,9780497913748,9781423795643.pdf",0,2000-01-01 01:00:00,2016-04-03 02:51:08,388000/44801e9e8c0fae30ce7b8cdf6e9c5f8e-d.jpg,,
21681844,A Commentary on Horace: Odes,Bk. 3 ,,,"R. G. M. Nisbet, Niall Rudd",2004,,"Oxford University Press, USA",,418,0,English,,,,"0199263140,9780199263141",,,,,874/.01,PA6411 .N57 2004,,,OL22588060M,,0,,,,,,1,1,3651547,pdf,44804FFB250B2CF09941957F5E98B0BA,,,"44804ffb250b2cf09941957f5e98b0ba~0199263140,9780199263141.pdf",0,2000-01-01 01:00:00,2016-04-03 02:51:08,388000/44804ffb250b2cf09941957f5e98b0ba-d.jpg,,
21681845,Existential Psychology and Sport: Theory and Application,,,,Mark Nesti,2004,1,Routledge,,160,0,English,198,,,"0415281423,9780415281423",,,,,796.01,GV706.4 .N46 2004,,,OL22598233M,,0,,,,,1,1,1,807814,pdf,44835C43F941849167B7464069DA5A0D,,,"44835c43f941849167b7464069da5a0d~0415281423,9780415281423.pdf",0,2000-01-01 01:00:00,2016-04-03 02:51:08,388000/44835c43f941849167b7464069da5a0d-d.jpg,,
21681846,Advances in Digital Government ,,Advances in Database Systems,,"William J. McIver Jr., Ahmed K. Elmagarmid",2002,1st,Kluwer,,352,0,English,,,,"1402070675,9781402070679,9780306473746",,,,,352.3/8/0285,JF1525.A8 A38 2002,,,OL20645057M,,0,,,,,1,,1,2661053,pdf,44838F6162FDD338574A271349A4A856,,,"44838f6162fdd338574a271349a4a856~1402070675,9781402070679,9780306473746.pdf",0,2000-01-01 01:00:00,2016-04-03 02:51:08,388000/44838f6162fdd338574a271349a4a856-d.jpg,,
21681847,The Handbook: The Third Doctor ,,Doctor Who Library,,"David J. Howe, Stephen James Walker",1996,,London Bridge (Mm),,256,0,English,,,,"0426204867,9780426204862",,,,,,,,,OL7506261M,,0,,,,,,1,0,14393820,pdf,44852A226D09523F7CC205A18F3C345E,,,"44852a226d09523f7cc205a18f3c345e~0426204867,9780426204862.pdf",0,2000-01-01 01:00:00,2016-04-03 02:51:08,388000/44852a226d09523f7cc205a18f3c345e-d.jpg,,
21681848,Rapid Chinese ,v. 2 ,,,Earworms Learning,2008,,Earworms,,20,0,English,,,,"1905443145,9781905443147",,,,,,,,,OL9476592M,,0,,,,,1,,1,535971,pdf,44869FCD9D3DAC656F4E8DCB0FF2C123,,,"44869fcd9d3dac656f4e8dcb0ff2c123~1905443145,9781905443147.pdf",0,2000-01-01 01:00:00,2016-04-03 02:51:08,388000/44869fcd9d3dac656f4e8dcb0ff2c123-d.jpg,,
21681849,The Regulation School,,,,Robert Boyer,1990,,Columbia University Press,,150,0,English,,,,"9780231065481,0231065485",,,,,338.944/009/048,HC276.3 .B6913 1990,,,OL2188959M,,0,,,,,1,,0,9828155,pdf,44878AB0B9E3752AAF6212EB0F433073,,,"44878ab0b9e3752aaf6212eb0f433073~9780231065481,0231065485.pdf",0,2000-01-01 01:00:00,2016-04-03 02:51:08,388000/44878ab0b9e3752aaf6212eb0f433073-g.jpg,,
21681850,Leadership - Best Practices und Trends,,,,NA,2006,,Gabler,,321,0,German,,,,"3834900796,9783834900791",,,,,,,,,,,0,,,,,,,1,3039293,pdf,44885BD2FF3C3B27EC418CD7AF0B9284,,,"44885bd2ff3c3b27ec418cd7af0b9284~3834900796,9783834900791.pdf",0,2000-01-01 01:00:00,2016-04-03 02:51:08,388000/44885bd2ff3c3b27ec418cd7af0b9284-d.jpg,,
21681851,Laser shock peening Performance and process simulation,,,,"K. Ding, L. Ye",2006,1,CRC Press,,162,0,English,264,,,"9780849334443,0849334446,1855739291,9781855739291,9781845691097",,,,,,,,,OL8260099M,,0,,,,,1,1,1,2463351,pdf,44889DF3F64049628AD02E550C426CED,,,"44889df3f64049628ad02e550c426ced~9780849334443,0849334446,1855739291,9781855739291,9781845691097.pdf",0,2000-01-01 01:00:00,2016-04-03 02:51:08,388000/44889df3f64049628ad02e550c426ced-g.jpg,,
21681852,Mythology ,,Eyewitness,,"Neil Philip, Clare Hibbert",2004,,Dorling Kindersley Publishers Ltd,,65,0,English,111,,,"1405302976,9781405302975",,,,,,,,,OL8406780M,,0,,,,,,,0,11125455,pdf,44894BC096808ECFC7B1D446B46F5606,,,"44894bc096808ecfc7b1d446b46f5606~1405302976,9781405302975.pdf",0,2000-01-01 01:00:00,2016-04-03 02:51:08,388000/44894bc096808ecfc7b1d446b46f5606-d.jpg,,
21681853,The World from 1450 to 1700 ,,The New Oxford World History,,John E. Wills Jr.,2009,,"Oxford University Press, USA",,192,0,English,,,,"0195337972,9780195337976,0199713804,9780199713806",,,,,909.08,D228 .W53 2009,,,OL23164956M,,0,,,,,,1,1,3946203,pdf,44931AEE2CB97CA1EC00A3D6386FEB6B,,,"44931aee2cb97ca1ec00a3d6386feb6b~0195337972,9780195337976,0199713804,9780199713806.pdf",0,2000-01-01 01:00:00,2016-04-03 02:51:08,388000/44931aee2cb97ca1ec00a3d6386feb6b-d.jpg,,
21681854,Performance Evaluation and Benchmarking of Intelligent Systems,,,,"Robert N. Lass, Evan A. Sultanik (auth.), Raj Madhavan, Edward Tunstel, Elena Messina (eds.)",2009,1,Springer US,,338,0,English,,,,"1441904913,9781441904911,144190493X,9781441904935",,,,,,,10.1007/978-1-4419-0492-8,,,,0,,,,,1,1,1,14859514,pdf,44931AF8EA8863A243A02229CF0E3072,,,"44931af8ea8863a243a02229cf0e3072~1441904913,9781441904911,144190493X,9781441904935.pdf",0,2000-01-01 01:00:00,2016-04-03 02:51:08,388000/44931af8ea8863a243a02229cf0e3072-d.jpg,,
21681855,Addiction for Nurses,,,,G. Hussein Rassool,2010,1,Wiley-Blackwell,,234,0,English,,,,"1405187468,9781405187466,9781444327823",,,,,,,,,,,0,,,,,,1,1,1426103,pdf,44938F1DB4DCF6A69C1AAC59C480EC7E,,,"44938f1db4dcf6a69c1aac59c480ec7e~1405187468,9781405187466,9781444327823.pdf",0,2000-01-01 01:00:00,2016-04-03 02:51:08,388000/44938f1db4dcf6a69c1aac59c480ec7e-d.jpg,,
21681856,Biologische Bodensanierung Methodenbuch,,,,VCH,1994,,Wiley-VCH Verlag GmbH,,284,0,German,12,,,"3527300589,9783527300587",,,,,,,,,OL12766938M,,0,,,,,1,1,1,15326654,pdf,44956A3108FACB786921A649BC4C2D52,,,"44956a3108facb786921a649bc4c2d52~3527300589,9783527300587.pdf",0,2000-01-01 01:00:00,2016-04-03 02:51:08,388000/44956a3108facb786921a649bc4c2d52-g.jpg,,
21681857,Instruction That Measures Up: Successful Teaching in the Age of Accountability,,,,W. James Popham,2009,,Association for Supervision & Curriculum Deve,,174,0,English,183,,,"9781416607649,1416607641,141660894X,9781416608943",,,,,371.102,LB2838 .P63 2009,,,OL23169722M,,0,,,,,1,1,1,2426397,pdf,44966B2FD04D07665830E61BC858D3BD,,,"44966b2fd04d07665830e61bc858d3bd~9781416607649,1416607641,141660894X,9781416608943.pdf",0,2000-01-01 01:00:00,2016-04-03 02:51:08,388000/44966b2fd04d07665830e61bc858d3bd-d.jpg,,
21681858,"The Last Stand: Custer, Sitting Bull, and the Battle of the Little Bighorn",,,,Nathaniel Philbrick,2010,1St Edition,Viking Adult,,496,0,English,,,,"0670021725,9780670021727,9781410426512,1410426513",,B003QKAJ2U,,,973.8/2,E83.876 .P47 2010,,,OL23872743M,,0,,,,,,,,1700417,epub,44966C6F60647F34DB32E3EA314C0644,,,"44966c6f60647f34db32e3ea314c0644~0670021725,9780670021727,9781410426512,1410426513,B003QKAJ2U.epub",0,2000-01-01 01:00:00,2016-04-03 02:51:08,388000/44966c6f60647f34db32e3ea314c0644-d.jpg,,
21681859,La sociologie de Anthony Giddens ,,,,Jean Nizet,2007,REPERES,LA DECOUVERTE,,117,0,French,194,,,"2707151904,9782707151902",,,,,,,,,,,0,,,,,1,,0,12226785,pdf,44967E44F920B7BD8AB221F332D0D731,,,"44967e44f920b7bd8ab221f332d0d731~2707151904,9782707151902.pdf",0,2000-01-01 01:00:00,2016-04-03 02:51:08,388000/44967e44f920b7bd8ab221f332d0d731-d.jpg,,
21681860,A Year and a Day: A Novel,,,,Leslie Pietrzyk,2005,,Harper Perennial,,368,0,English,,,,"0060554665,9780060554668,9780061724268",,,,,,,,,OL24251328M,,0,,,,,1,,1,901042,pdf,44996B47A21BCEA25AB6D42B5DB3B425,,,"44996b47a21bcea25ab6d42b5db3b425~0060554665,9780060554668,9780061724268.pdf",0,2000-01-01 01:00:00,2016-04-03 02:51:08,388000/44996b47a21bcea25ab6d42b5db3b425-d.jpg,,
21681861,The Costs of Climate Protection: A Guide for the Perplexed,,,,Robert Repetto,1997,,World Resources Institute,,55,0,English,36,,,"1569732221,9781569732229",,,,,,,,,OL704476M,,0,,,,,,,1,4361204,pdf,45007F3E606FD389B78549708372F4D8,,,"45007f3e606fd389b78549708372f4d8~1569732221,9781569732229.pdf",0,2000-01-01 01:00:00,2016-04-03 02:51:08,388000/45007f3e606fd389b78549708372f4d8-g.jpg,,
21681862,Principles and Practice of Dialysis ,,Principles & Practice of Dialysis,,William L. Henrich,2009,Fourth,Lippincott Williams & Wilkins,,752,0,English,,,,"0781781639,9780781781633",,,,,617.4/61059,RC901.7.H45 P75 2009,,,OL23153414M,,0,,,,,1,,,42052591,chm,45015B4FF37478800C3957E0C8CFF0F8,,,"45015b4ff37478800c3957e0c8cff0f8~0781781639,9780781781633.chm",0,2000-01-01 01:00:00,2016-04-03 02:51:08,388000/45015b4ff37478800c3957e0c8cff0f8-d.jpg,,
21681863,Living Opera,,,,Joshua Jampol,2010,,"Oxford University Press, USA",,345,0,English,,,,"0195381386,9780195381382",,,,,782.1092/2,ML1700 .J35 2010,,,OL23614841M,,0,,,,1,0,1,1,2193726,pdf,45028D6D787D290734AF7A44ECBD0DBA,,,"45028d6d787d290734af7a44ecbd0dba~0195381386,9780195381382.pdf",0,2000-01-01 01:00:00,2016-04-03 02:51:08,388000/45028d6d787d290734af7a44ecbd0dba-d.jpg,,
21681864,Small Objects from the Pnyx II ,,Hesperia Supplement,,"Lucy Talcott, Barbara Philippaki, G. Roger Edwards, Virginia R. Grace",1956,Volume X,American School of Classical Studies,,189,0,English,,,,"0876615108,9780876615102",,,,,,,,,,,0,,,,,1,1,1,62416950,pdf,45031B47E99858512A8BAA3A8A3ED167,,,"45031b47e99858512a8baa3a8a3ed167~0876615108,9780876615102.pdf",0,2000-01-01 01:00:00,2016-04-03 02:51:08,388000/45031b47e99858512a8baa3a8a3ed167-g.jpg,,
21681865,The Theory of Interest as Determined By Impatience to Spend Income and Opportunity to Spend It,,,,Irving Fisher,1930,First Edition,MacMillan,,601,0,English,,,,,,B000JZX698,,,,,,,,,0,,,,,1,,1,24723495,pdf,45034AFB1324936B8992579D08240EEE,,,45034afb1324936b8992579d08240eee~B000JZX698.pdf,0,2000-01-01 01:00:00,2016-04-03 02:51:08,388000/45034afb1324936b8992579d08240eee-g.jpg,,
21681866,Scientific Frontiers in Developmental Toxicology and Risk Assessment,,,,"Committee on Developmental Toxicology, Board on Environmental Studies and Toxicology, National Research Council",2000,,National Academies Press,,354,0,English,31,,,"0309070864,9780309070867,9780309501767",,,,,,,,,OL10358298M,,0,,,,,1,,1,3352022,pdf,45088F5884812701F38DAFEA4FD9999D,,,"45088f5884812701f38dafea4fd9999d~0309070864,9780309070867,9780309501767.pdf",0,2000-01-01 01:00:00,2016-04-03 02:51:08,388000/45088f5884812701f38dafea4fd9999d-d.jpg,,
21681867,The Best of Everything,,,,Kimberla Lawson Roby,2009,1,William Morrow,,288,0,English,,,,"0061443069,9780061443060,9780061764004",,,,,813/.54,PS3568.O3189 B474 2008,,,OL16841335M,,0,,,,,1,,1,884903,pdf,45104F4E50DEBAB5161BC61E2A4E1F9C,,,"45104f4e50debab5161bc61e2a4e1f9c~0061443069,9780061443060,9780061764004.pdf",0,2000-01-01 01:00:00,2016-04-03 02:51:08,388000/45104f4e50debab5161bc61e2a4e1f9c-d.jpg,,
21681868,The Fictional Republic: Horatio Alger and American Political Discourse,,,,Carol Nackenoff,1994,1ST,"Oxford University Press, USA",,13,0,English,,,,"019507923X,9780195079234,9781423764861",,,,,813/.4,PS1029.A3 Z73 1994,,,OL1410035M,,0,,,,,1,,1,26193577,pdf,45115E706BAE2BD9FBD5B7FE955CBC27,,,"45115e706bae2bd9fbd5b7fe955cbc27~019507923X,9780195079234,9781423764861.pdf",0,2000-01-01 01:00:00,2016-04-03 02:51:08,388000/45115e706bae2bd9fbd5b7fe955cbc27-d.jpg,,
21681869,A critical review of the 1999 literature preceded by three chapters on current heterocyclic topics,,Progress in Heterocyclic Chemistry 12,,Gordon W. Gribble and Thomas L. Gilchrist (Eds.),2000,1st,Pergamon,,1-375,0,English,296,,,"0080438822,9780080438825,9780080539867",0959-6380,,,,,,,,OL9438016M,,0,,,,0,1,,1,16298965,pdf,45157FDC872BC411FB6D48FAACDB0E18,,,"45157fdc872bc411fb6d48faacdb0e18~0080438822,9780080438825,9780080539867.pdf",0,2000-01-01 01:00:00,2016-04-03 02:51:08,388000/45157fdc872bc411fb6d48faacdb0e18-d.jpg,,
21681870,Complementary and Alternative Medicine and Multiple Sclerosis,,,,M.D. Allen C. Bowling Ph.D,2006,2nd,Demos Health,,275,0,English,147,,,"1932603549,9781932603545,9781934559536",,,,,616.8/3406,RC377 .B68 2007,,,OL17889623M,,0,,,,0,1,,1,2659524,pdf,45158B229F8BC3FEF2835E62E3EA92A0,,,"45158b229f8bc3fef2835e62e3ea92a0~1932603549,9781932603545,9781934559536.pdf",0,2000-01-01 01:00:00,2016-04-03 02:51:08,388000/45158b229f8bc3fef2835e62e3ea92a0-d.jpg,,
21681871,Empire of Lies,,,,Andrew Klavan,2008,1,Houghton Mifflin Harcourt,,400,0,English,,,,9780151012237,,,,,813'.54—dc22 2007033052,,,,OL10100589M,,0,,,,,,,1,401902,epub,45203FC9A080C9282723C1120B3BA7C8,,,45203fc9a080c9282723c1120b3ba7c8~9780151012237.epub,0,2000-01-01 01:00:00,2016-04-03 02:51:08,388000/45203fc9a080c9282723c1120b3ba7c8-d.jpg,,
21681872,The Treatment of Obsessions ,,Cognitive Behaviour Therapy: Science and Practice Series,,S. J. (Stanley J.) Rachman,2003,1st,Oxford University Press,,162,0,English,,,,"0198515375,9781423705680,9780198515371",,,,,616.85/22706,RC533 .R33 2003,,,OL3702297M,,0,,,,,1,1,1,602782,pdf,45210E18213FB4F30B78971DC45985E7,,,"45210e18213fb4f30b78971dc45985e7~0198515375,9781423705680,9780198515371.pdf",0,2000-01-01 01:00:00,2016-04-03 02:51:08,388000/45210e18213fb4f30b78971dc45985e7-d.jpg,,
21681873,"Organizing Bronze Age Societies: The Mediterranean, Central Europe, and Scandanavia Compared",,,,"Timothy Earle, Kristian Kristiansen",2010,,Cambridge University Press,,329,0,English,,,,"0521764661,9780521764667,0521748356,9780521748353",,,,,936/.01,GN778.22.I8 O74 2011,,,OL23988982M,,0,,,,,,1,1,5290888,pdf,45242BFDAF28E45F0D2D7C6B82A2B538,,,"45242bfdaf28e45f0d2d7c6b82a2b538~0521764661,9780521764667,0521748356,9780521748353.pdf",0,2000-01-01 01:00:00,2016-04-03 02:51:08,388000/45242bfdaf28e45f0d2d7c6b82a2b538-d.jpg,,
21681874,Twentieth Century Neurology: The British Contribution,,,,Clifford F. Rose,2002,,World Scientific Publishing Company,,313,0,English,165,,,"1860942458,9781860942457,9781848161665",,,,,616.8/0941/0904,RC339.G7 T94 2001,,,OL3581536M,,0,,,,,1,,1,17168221,pdf,45255B1118F3ACFEDB1F71F2D71F5F04,,,"45255b1118f3acfedb1f71f2d71f5f04~1860942458,9781860942457,9781848161665.pdf",0,2000-01-01 01:00:00,2016-04-03 02:51:08,388000/45255b1118f3acfedb1f71f2d71f5f04-d.jpg,,
21681875,A Guide to Hellenistic Literature ,,Blackwell Guides to Classical Literature,,Kathryn Gutzwiller,2007,,Wiley-Blackwell,,276,0,English,314,,,"0631233210,9780631233213",,,,,,,,,OL7610806M,,0,,,,,,,1,5499668,pdf,45262D0705D8132C422B6112034A376F,,,"45262d0705d8132c422b6112034a376f~0631233210,9780631233213.pdf",0,2000-01-01 01:00:00,2016-04-03 02:51:08,388000/45262d0705d8132c422b6112034a376f-d.jpg,,
21681876,Adrift in China,,Summersdale Travel,,Simon Myers,2002,1,Summersdale Publishers,,224,0,English,,,0,"1840242175,9781840242171,9781423747062",,,,,,,,,,,0,,,,,,1,1,1316668,pdf,45280DF6AC1E07A2BAD9436CD3096D25,,,"45280df6ac1e07a2bad9436cd3096d25~1840242175,9781840242171,9781423747062.pdf",0,2000-01-01 01:00:00,2016-04-03 02:51:08,388000/45280df6ac1e07a2bad9436cd3096d25-d.jpg,,
21681877,Access 2002 professional.,,,,Gerhard Brosius,2002,,Addison Wesley Verlag,,922,0,German,94,,,"3827319676,9783827319678",,,,,,,,,,,0,,,,,,1,1,11341146,pdf,45282B291BF9D5A2480E6A95CF925BF4,,,"45282b291bf9d5a2480e6a95cf925bf4~3827319676,9783827319678.pdf",0,2000-01-01 01:00:00,2016-04-03 02:51:08,388000/45282b291bf9d5a2480e6a95cf925bf4-d.jpg,,
21681878,"CSET English 105, 106, 107 Teacher Certification Test Prep Study Guide ",,XAM CSET,,Sharon Wynne,2008,,XAMOnline.com,,258,0,English,314,,,"158197261X,9781581972610",,,,,,,,,,,0,,,,,1,1,1,3513078,pdf,45284C0B61ACFC4C74CE581200585D56,,,"45284c0b61acfc4c74ce581200585d56~158197261X,9781581972610.pdf",0,2000-01-01 01:00:00,2016-04-03 02:51:08,388000/45284c0b61acfc4c74ce581200585d56-d.jpg,,
21681879,Joe Mauser Mercenary From Tomorrow,,,,"Mack Reynolds, Michael Banks",1986,,Baen,,280,0,English,,,,"0671655701,9780671655709",,,,,,,,,OL7661236M,,0,,,,,1,,1,378901,pdf,45309DE07301BDAEC92DE1ADAE5B7BB3,,,"45309de07301bdaec92de1adae5b7bb3~0671655701,9780671655709.pdf",0,2000-01-01 01:00:00,2016-04-03 02:51:08,388000/45309de07301bdaec92de1adae5b7bb3-d.jpg,,
21681880,QuickBooks 2007 QuickSteps,,,,Cindy Fox,2007,1,McGraw-Hill Osborne Media,,232,0,English,,,,"0071487670,9780071487672,9780071508698",,,,,657/.9042/0285536,HF5679 .F69 2007,10.1036/0071487670,,OL23109638M,,0,,,,,1,,1,13381804,pdf,45341C4B0E1872237CEB5BCA98A12716,,,"45341c4b0e1872237ceb5bca98a12716~0071487670,9780071487672,9780071508698.pdf",0,2000-01-01 01:00:00,2016-04-03 02:51:08,388000/45341c4b0e1872237ceb5bca98a12716-d.jpg,,
21681881,Julio Cortazar ,,Bloom's Modern Critical Views,,Harold Bloom,2005,,Chelsea House Publications,,300,0,English,64,,,"0791081346,9780791081341",,,,,863/.64,PQ7797.C7145 Z5947 2004,,,OL22618695M,,0,,,,,,,1,2148121,pdf,45360D35A6EE3FE2D74321B1F4D3AF35,,,"45360d35a6ee3fe2d74321b1f4d3af35~0791081346,9780791081341.pdf",0,2000-01-01 01:00:00,2016-04-03 02:51:08,388000/45360d35a6ee3fe2d74321b1f4d3af35-d.jpg,,
21681882,The Rise of the Corporate Economy in Southeast Asia ,,Routledge Studies in the Growth Economies of Asia,,Rajeswary Ampalavanar Brown,2007,,Routledge,,416,0,English,,,,"0415395593,9780415395595,9780203966433",,,,,338.6/440959,HD2901 .B764 2006,,,OL20402897M,,0,,,,,1,1,1,2610489,pdf,45393D131B2BD76596BC10C6D051BACB,,,"45393d131b2bd76596bc10c6d051bacb~0415395593,9780415395595,9780203966433.pdf",0,2000-01-01 01:00:00,2016-04-03 02:51:08,388000/45393d131b2bd76596bc10c6d051bacb-d.jpg,,
21681883,What is life?: The physical aspect of the living cell,,,,Erwin Schrodinger,1946,,The Macmillan company,,91,0,English,264,,,,,B0007IV9WS,,,,,,,,,0,,,,,1,,1,702306,pdf,45433B74D43C9B573F78D5F16A9B5F8F,,,45433b74d43c9b573f78d5f16a9b5f8f~B0007IV9WS.pdf,0,2000-01-01 01:00:00,2016-04-03 02:51:08,388000/45433b74d43c9b573f78d5f16a9b5f8f-g.jpg,,
21681884,Women in the Khrushchev Era ,,Studies in Russian & East Euro,,"Melanie Ilic, Susan E. Reid, Lynne Attwood",2004,,Palgrave Macmillan,,224,0,English,,,,"1403920435,9781403920430,9780230523432",,,,,305.42/0947,HQ1662 .W575 2004,,,OL22587657M,,0,,,,1,0,1,1,1105486,pdf,45451BBFB55FA28BD39C3BE772C59DE8,,,"45451bbfb55fa28bd39c3be772c59de8~1403920435,9781403920430,9780230523432.pdf",0,2000-01-01 01:00:00,2016-04-03 02:51:08,388000/45451bbfb55fa28bd39c3be772c59de8-d.jpg,,
21681885,Learning Math With Calculators: Activities for Grades 3-8,,,,"Len Sparrow, Paul Swan",2001,,Math Solutions,,104,0,English,183,,,"0941355357,9780941355353",,,,,,,,,OL11541119M,,0,,,,,,1,1,437286,pdf,45461E2F73D19E12193002A075FEC674,,,"45461e2f73d19e12193002a075fec674~0941355357,9780941355353.pdf",0,2000-01-01 01:00:00,2016-04-03 02:51:08,388000/45461e2f73d19e12193002a075fec674-d.jpg,,
21681886,Algebra through problem solving ,,The Allyn and Bacon series: topics in contemporary mathematics,,Abraham P Hillman,1966,,Allyn and Bacon,,129,0,English,114,,,,,B0007DX4UI,,,,,,,,,0,,,,,1,,1,934338,pdf,45465A7E0F2FBC6E762FC37D7C4D27A5,,,45465a7e0f2fbc6e762fc37d7c4d27a5~B0007DX4UI.pdf,0,2000-01-01 01:00:00,2016-04-03 02:51:08,388000/45465a7e0f2fbc6e762fc37d7c4d27a5-g.jpg,,
21681887,Jasmine and Stars: Reading More Than Lolita in Tehran ,,Islamic Civilization and Muslim Networks,,Fatemeh Keshavarz,2007,,The University of North Carolina Press,,188,0,English,,,,"0807831093,9780807883754,9780807831090,0807859575,9780807859575",,,,,,,,,OL24249392M,,0,,,,0,0,1,1,871749,pdf,45469FDEDECF9DA1B4A2D0E4E7A5771A,,,"45469fdedecf9da1b4a2d0e4e7a5771a~0807831093,9780807883754,9780807831090,0807859575,9780807859575.pdf",0,2000-01-01 01:00:00,2016-04-03 02:51:08,388000/45469fdedecf9da1b4a2d0e4e7a5771a-d.jpg,,
21681888,Improving the Quality of Cancer Clinical Trials: Workshop Summary,,,,"Margie Patlak, Sharyl Nass",2008,1,National Academies Press,,136,0,English,185,,,"0309116686,9780309116688,9780309116695",,,,,,,,,OL23160061M,,0,,,,,1,,1,4373086,pdf,45504D3B3E75F311BFF1884F5E0CD35A,,,"45504d3b3e75f311bff1884f5e0cd35a~0309116686,9780309116688,9780309116695.pdf",0,2000-01-01 01:00:00,2016-04-03 02:51:08,388000/45504d3b3e75f311bff1884f5e0cd35a-d.jpg,,
21681889,Frankenstein ,,,,Mary Shelley,2006,Webster's Chinese-Traditional Thesaurus Edition ,"ICON Group International, Inc.",,246,0,English,,,,"0497901684,9780497901684",,,,,,,,,OL10416555M,,0,,,,,1,,1,2252065,pdf,45505E276F2732E7D7E0EC17AACBD058,,,"45505e276f2732e7d7e0ec17aacbd058~0497901684,9780497901684.pdf",0,2000-01-01 01:00:00,2016-04-03 02:51:08,388000/45505e276f2732e7d7e0ec17aacbd058-d.jpg,,
21681890,Americans All!: Foreign-born Soldiers in World War I ,,Williams-Ford Texas A&M University Military History Series,,Dr. Nancy Gentile Ford,2001,,TAMU Press,,214,0,English,64,,,"158544118X,9781585441181,9781585449095",,,,,,,,,OL8816700M,,0,,,,,1,,1,2395844,pdf,45512D663AE141A73EB37B54D265B5EC,,,"45512d663ae141a73eb37b54d265b5ec~158544118X,9781585441181,9781585449095.pdf",0,2000-01-01 01:00:00,2016-04-03 02:51:08,388000/45512d663ae141a73eb37b54d265b5ec-d.jpg,,
21681891,Reading 1922: A Return to the Scene of the Modern,,,,Michael North,2001,,"Oxford University Press, USA",,288,0,English,,,,"0195151631,9780195151633,9780195303247",,,,,,,,,OL7390029M,,0,,,,,,,1,3307475,pdf,45515ADF04468799060324A5E8FAF434,,,"45515adf04468799060324a5e8faf434~0195151631,9780195151633,9780195303247.pdf",0,2000-01-01 01:00:00,2016-04-03 02:51:08,388000/45515adf04468799060324a5e8faf434-d.jpg,,
21681892,Pro Spring,,,,"Rob Harrop, Jan Machacek",2005,1,Apress,,832,0,English,,,,"1590594614,9781590594612,9781430200048",,,,,,,,,OL8848734M,,0,,,,1,0,1,1,6399324,pdf,45543BE99F6BF0326F80E0A358B01F45,,,"45543be99f6bf0326f80e0a358b01f45~1590594614,9781590594612,9781430200048.pdf",0,2000-01-01 01:00:00,2016-04-03 02:51:08,388000/45543be99f6bf0326f80e0a358b01f45-d.jpg,,
21681893,The Geometry of Supermanifolds ,,Mathematics and Its Applications,,"C. Bartocci, U. Bruzzo, Daniel Hernández-Ruipérez",1991,1,Springer,,264,0,English,113,,,"0792314409,9780792314400",,,,,514/.3,QA614.44 .B37 1991,,,OL1549506M,,0,,,,,,1,0,10622784,pdf,45558DF279C2DBBEA9C994804C3861CE,,,"45558df279c2dbbea9c994804c3861ce~0792314409,9780792314400.pdf",0,2000-01-01 01:00:00,2016-04-03 02:51:08,388000/45558df279c2dbbea9c994804c3861ce-d.jpg,,
21681894,"Sir Robert Peel: Statesmanship, Power and Party ",,Lancaster Pamphlets,,Eric J. Evans,2006,2,Routledge,,128,0,English,64,,,"0415366151,9780415366151,9780203018743",,,,,"941.081/092,B",DA536.P3 E84 2006,,,OL3412185M,,0,,,,,1,1,1,1512074,pdf,45558F53E428C7BDFD96280860BB3767,,,"45558f53e428c7bdfd96280860bb3767~0415366151,9780415366151,9780203018743.pdf",0,2000-01-01 01:00:00,2016-04-03 02:51:08,388000/45558f53e428c7bdfd96280860bb3767-d.jpg,,
21681895,Conspiracy in Death,,In Death 08,,J. D. Robb,1999,,Berkley,,400,0,English,,,,"0425168131,9780425168134",,,,,,,,,OL3547372M,,0,,,,,,,1,1058920,pdf,45570E7DF2066312A11B5722544E9DAB,,,"45570e7df2066312a11b5722544e9dab~0425168131,9780425168134.pdf",0,2000-01-01 01:00:00,2016-04-03 02:51:08,388000/45570e7df2066312a11b5722544e9dab-d.jpg,,
21681896,Fibers and Composites ,,World of Carbon,,Pierre Delhaes,2003,1,CRC Press,,260,0,English,,,,"0415308267,9780415308267",,,,,620.193,TA418.9.C6 F53 2003,,,OL22538185M,,0,,,,,,1,1,6949109,pdf,45622BBE7E5BC6F761A95554274FA3C0,,,"45622bbe7e5bc6f761a95554274fa3c0~0415308267,9780415308267.pdf",0,2000-01-01 01:00:00,2016-04-03 02:51:08,388000/45622bbe7e5bc6f761a95554274fa3c0-d.jpg,,
21681897,Serials Cataloging Handbook: An Illustrative Guide to the Use of Aacr2R and Lc Rule Interpretations,,,,"Carol Liheng, Winnie S. Chan",1998,2 Sub,American Library Association,,455,0,English,,,,"0838907326,9780838907320,9780585370538",,,,,025.3/432,Z695.7 .L56 1998,,,OL343697M,,0,,,,,1,,0,21068827,pdf,45626EFE7987B43A9D7D0F425DCD3C1C,,,"45626efe7987b43a9d7d0f425dcd3c1c~0838907326,9780838907320,9780585370538.pdf",0,2000-01-01 01:00:00,2016-04-03 02:51:08,388000/45626efe7987b43a9d7d0f425dcd3c1c-d.jpg,,
21681898,Machinic Deconstruction: Literature / Politics / Technics ,,LUP Dissertaties,,Bram Ieven,2007,,Leiden University Press,,258,0,English,210,,,"9087280297,9789087280291",,,,,,,,,,,0,,,,,,,1,1204290,pdf,45650BC20CF37A71221312F59C8F1B14,,,"45650bc20cf37a71221312f59c8f1b14~9087280297,9789087280291.pdf",0,2000-01-01 01:00:00,2016-04-03 02:51:08,388000/45650bc20cf37a71221312f59c8f1b14-d.jpg,,
21681899,Silicon Quantum Integrated Circuits: Silicon-Germanium Heterostructure Devices: Basics and Realisations ,,NanoScience and Technology,,"E. Kasper, D.J. Paul",2005,1,Springer,,361,0,German,269,,,"354022050X,9783540220503,9783540263821",,,,,621.3815,T174.7 .K37 2005,,,OL3316894M,,0,,,,,1,1,1,5722082,pdf,45663F5019E16811D86C495FDA7DE648,,,"45663f5019e16811d86c495fda7de648~354022050X,9783540220503,9783540263821.pdf",0,2000-01-01 01:00:00,2016-04-03 02:51:08,388000/45663f5019e16811d86c495fda7de648-d.jpg,,
21681900,Introduction to Stateflow with Applications,,,,Steven T. Karris,2007,1,Orchard Publications,,520,0,English,6,,,"1934404071,9781934404089,9781934404072",,,,,,,,,OL12341508M,,0,,,,,1,,1,7241465,pdf,45669A1D6453CEFB8967F0DCC749918E,,,"45669a1d6453cefb8967f0dcc749918e~1934404071,9781934404089,9781934404072.pdf",0,2000-01-01 01:00:00,2016-04-03 02:51:08,388000/45669a1d6453cefb8967f0dcc749918e-d.jpg,,
21681901,Beauty Imagined: A History of the Global Beauty Business,,,,Geoffrey Jones,2010,,"Oxford University Press, USA",,416,0,English,64,,,"0199556490,9780199556496",,,,,338.76685509,HD9970.5.C672 J66 2010,,,OL24478232M,,0,,,,1,0,1,1,5862464,pdf,45673C281AC26FD045C2B992229211DE,,,"45673c281ac26fd045c2b992229211de~0199556490,9780199556496.pdf",0,2000-01-01 01:00:00,2016-04-03 02:51:08,388000/45673c281ac26fd045c2b992229211de-d.jpg,,
21681902,Power in the Highest Degree: Professionals and the Rise of a New Mandarin Order,,,,"Charles Derber, William A. Schwartz, Yale Magrass",1990,First Edition,"Oxford University Press, USA",,288,0,English,,,,"0195037782,9780195037784,9781423738404",,,,,305.5/53,HD8038.A1 D47 1990,,,OL21135177M,,0,,,,,,1,1,19446073,pdf,45677CC5E7E93960442238AF8E31351E,,,"45677cc5e7e93960442238af8e31351e~0195037782,9780195037784,9781423738404.pdf",0,2000-01-01 01:00:00,2016-04-03 02:51:08,388000/45677cc5e7e93960442238af8e31351e-d.jpg,,
21681903,Territorial Rights ,,Law and Philosophy Library,,Springer,2006,1,Springer,,142,0,English,195,,,"1402038224,9781402038235,9781402038228",,,,,,,,,OL8371626M,,0,,,,,1,1,1,591767,pdf,45702A7E21721D294BFB2EF548BE3CD0,,,"45702a7e21721d294bfb2ef548be3cd0~1402038224,9781402038235,9781402038228.pdf",0,2000-01-01 01:00:00,2016-04-03 02:51:08,388000/45702a7e21721d294bfb2ef548be3cd0-d.jpg,,
21681904,Competencies for Advanced Nursing Practice ,,A Hodder Arnold Publication,,"Sue Hinchliff, Rosemary Rogers",2008,1,"Oxford University Press, USA",,448,0,English,,,,"0340927682,9780340927687",,,,,610.73,RT41 .C7448 2008,,,OL23956029M,,0,,,,,,1,1,1219153,pdf,45704C3453E1EF16495E87F10CB6EA73,,,"45704c3453e1ef16495e87f10cb6ea73~0340927682,9780340927687.pdf",0,2000-01-01 01:00:00,2016-04-03 02:51:08,388000/45704c3453e1ef16495e87f10cb6ea73-d.jpg,,
21681905,Testing Teacher Candidates: The Role of Licensure Tests in Improving Teacher Quality,,,,"Committee on Assessment and Teacher Quality, Center for Education, Board on Testing and Assessment, National Research Council, Karen J. Mitchell, David Z. Robinson, Barbara S. Plake, Kaeli T. Knowles",2001,,National Academies Press,,360,0,English,,,,"0309074207,9780309512961,9780309074209",,,,,,,,,OL10358401M,,0,,,,,,1,1,1902070,pdf,45712EF92C4420A8C474B0CC7F522C49,,,"45712ef92c4420a8c474b0cc7f522c49~0309074207,9780309512961,9780309074209.pdf",0,2000-01-01 01:00:00,2016-04-03 02:51:08,388000/45712ef92c4420a8c474b0cc7f522c49-d.jpg,,
21681906,Gender and Elections: Shaping the Future of American Politics,,,,"Susan J. Carroll, Richard L. Fox",2005,,Cambridge University Press,,240,0,English,,,,"0521844924,9780521844925,9780511140600",,,,,324.973/0931,HQ1236.5.U6 G444 2006,,,OL3410258M,,0,,,,,1,1,1,3107224,pdf,45727E27DE90DA5B7D10D4E0C12DF4B4,,,"45727e27de90da5b7d10d4e0c12df4b4~0521844924,9780521844925,9780511140600.pdf",0,2000-01-01 01:00:00,2016-04-03 02:51:08,388000/45727e27de90da5b7d10d4e0c12df4b4-d.jpg,,
21681907,Faschismus,,,,Richard Saage,2007,,VS Verlag fnr Sozialw.,,239,0,German,,,,"3531153870,9783531153872",,,,,,,,,,,0,,,,,,,1,1175376,pdf,45748B1F3DC175A18346628CAABD38B1,,,"45748b1f3dc175a18346628caabd38b1~3531153870,9783531153872.pdf",0,2000-01-01 01:00:00,2016-04-03 02:51:08,388000/45748b1f3dc175a18346628caabd38b1-d.jpg,,
21681908,Legacy ,,Doctor Who-the New Adventures,,Gary Russell,1994,,London Bridge (Mm),,320,0,English,,,,0426204123,,,,,,,,,,,0,,,,,,,1,407902,pdf,45757AABDB89E1951C8B450BEACB4C5B,,,45757aabdb89e1951c8b450beacb4c5b~0426204123.pdf,0,2000-01-01 01:00:00,2016-04-03 02:51:08,388000/45757aabdb89e1951c8b450beacb4c5b-d.jpg,,
21681909,Inside Japanese Classrooms: The Heart of Education ,,Reference Books in International Education,,Nancy Sato,2003,1,Routledge,,320,0,English,183,,,"0815321155,9780815321156",,,,,,,,,OL11358007M,,0,,,,,1,1,1,1673008,pdf,45772F0A5988D0D022AC9D5C0D681474,,,"45772f0a5988d0d022ac9d5c0d681474~0815321155,9780815321156.pdf",0,2000-01-01 01:00:00,2016-04-03 02:51:08,388000/45772f0a5988d0d022ac9d5c0d681474-d.jpg,,
21681910,"Advances in Grid and Pervasive Computing: Second International Conference, GPC 2007, Paris, France, May 2-4, 2007, Proceedings ",,Lecture Notes in ... Computer Science and General Issues,,"Christophe Cérin, Kuan-Ching Li",2007,1,Springer,,759,0,English,185,,,"3540723595,9783540723592,9783540723608",,,,,,,,,OL12810422M,,0,,,,,1,,1,12288996,pdf,45810AC581B4BC5C9D7B720244137C78,,,"45810ac581b4bc5c9d7b720244137c78~3540723595,9783540723592,9783540723608.pdf",0,2000-01-01 01:00:00,2016-04-03 02:51:08,388000/45810ac581b4bc5c9d7b720244137c78-d.jpg,,
21681911,Handbook of Strategic Planning for Nonprofit Organizations,,,,Espy,1986,,Praeger Publishers,,145,0,English,,,,"0275923428,9780275923426",,B000PY3HZ6,,,658.1/148,HD62.6 .E86 1986,,,OL21364877M,"page viii, 7, 14, 29 &amp; 101 missing",0,,,,,,1,1,7394685,pdf,45825D38EABB40DCABA3A742B03D9A4F,,,"45825d38eabb40dcaba3a742b03d9a4f~0275923428,9780275923426,B000PY3HZ6.pdf",0,2000-01-01 01:00:00,2016-04-03 02:51:08,388000/45825d38eabb40dcaba3a742b03d9a4f-d.jpg,,
21681912,Narrating Class in American Fiction ,,American Literature Readings in the 21st Century,,William Dow,2008,,Palgrave Macmillan,,288,0,English,,,,"0230609821,9780230609822",,,,,813/.309355,PS374.S68 D69 2009,,,OL16839255M,,0,,,,1,0,1,1,1529649,pdf,45834EA15FBFD2CE49F70DD8D879EE02,,,"45834ea15fbfd2ce49f70dd8d879ee02~0230609821,9780230609822.pdf",0,2000-01-01 01:00:00,2016-04-03 02:51:08,388000/45834ea15fbfd2ce49f70dd8d879ee02-d.jpg,,
21681913,Basic Gas Chromatography,,,,"Harold M. McNair, James M. Miller",2009,2,Wiley-Interscience,,256,0,English,31,,,"9780470439548,0470439548",,,,,543/.85,QD79.C45 M425 2009,,,OL23197854M,,0,,,,,,1,1,9025791,pdf,45841F1A2A1CEDE386B111E8B1DBA7E7,,,"45841f1a2a1cede386b111e8b1dba7e7~9780470439548,0470439548.pdf",0,2000-01-01 01:00:00,2016-04-03 02:51:08,388000/45841f1a2a1cede386b111e8b1dba7e7-d.jpg,,
21681914,Our Mr. Wrenn; the romantic adventures of a gentle man,,,,Sinclair Lewis,2010,,Nabu Press,,270,0,English,,,,"1171646488,9781171646488",,,,,,,,,,,0,,,,,,,1,252769,epub,45863B126B3EA40E325AE8744E92D95E,,,"45863b126b3ea40e325ae8744e92d95e~1171646488,9781171646488.epub",0,2000-01-01 01:00:00,2016-04-03 02:51:08,388000/45863b126b3ea40e325ae8744e92d95e-d.jpg,,
21681915,The Secret Life of a Satanist: The Authorized Biography of Anton LaVey,,,,Blanche Barton,1992,,Feral House,,262,0,English,,,,"0922915121,9780922915125",,,,,,,,,OL454384M,,0,,,,,1,1,1,2854719,pdf,45881C78C3DDD5EA54D85B20836C3123,,,"45881c78c3ddd5ea54d85b20836c3123~0922915121,9780922915125.pdf",0,2000-01-01 01:00:00,2016-04-03 02:51:08,388000/45881c78c3ddd5ea54d85b20836c3123-d.jpg,,
21681916,Concise Guide to Psychopharmacology ,,Concise Guides,,"Lauren B. Marangell, James M. Martinez",2006,2,American Psychiatric Publishing,,260,0,English,302,,,"1585622559,9781585626472,9781585622559",,,,,615/.78,RM315 .C596 2006,,,OL3418860M,,0,,,,,,1,1,1653727,pdf,45882C1A38C5B6678ED92EEF2ADE57A7,,,"45882c1a38c5b6678ed92eef2ade57a7~1585622559,9781585626472,9781585622559.pdf",0,2000-01-01 01:00:00,2016-04-03 02:51:08,388000/45882c1a38c5b6678ed92eef2ade57a7-d.jpg,,
21681917,The Cambridge Companion to Bertrand Russell ,,Cambridge Companions to Philosophy,,Nicholas Griffin,2003,,Cambridge University Press,,570,0,English,,,,"0521636345,9780521636346,0521631785,9780521631785,9780511077586",,,,,192,B1649.R94 C36 2003,,OGMDtwAACAAJ,OL22492518M,,0,,,,1,0,1,1,2587833,pdf,45893C62A7015F9D0B63221A380CB221,,,"45893c62a7015f9d0b63221a380cb221~0521636345,9780521636346,0521631785,9780521631785,9780511077586.pdf",0,2000-01-01 01:00:00,2016-04-03 02:51:08,388000/45893c62a7015f9d0b63221a380cb221-d.jpg,,
21681918,Proterozoic East Gondwana: Supercontinent Assembly and Breakup ,,Geological Society Special Publication No. 206,,"Masaru Yoshida, Masaru Yoshida, B. F. Windley, S. Dasgupta",2003,,Geological Society of London,,440,0,English,,,,"1862391254,9781862391253,9781423730606",,,,,551.7/15,QE511.5 .P76 2003,,,OL3769960M,,0,,,,,1,,1,57235809,pdf,45895CDF40A4BBA9776439ECF962C2A3,,,"45895cdf40a4bba9776439ecf962c2a3~1862391254,9781862391253,9781423730606.pdf",0,2000-01-01 01:00:00,2016-04-03 02:51:08,388000/45895cdf40a4bba9776439ecf962c2a3-d.jpg,,
21681919,A Twenty-First Century Guide to Aldersonian Marketing Thought,,,,"Ben Wooliscroft, Robert D. Tamilia, Stanley J. Shapiro",2005,1,Springer,,581,0,English,,,,"0387261753,9780387261751,9780387281810",,,,,,,,,OL3438125M,,0,,,,,1,,1,1683242,pdf,45909EC58CAF2CD90CAAAC600A068EEB,,,"45909ec58caf2cd90caaac600a068eeb~0387261753,9780387261751,9780387281810.pdf",0,2000-01-01 01:00:00,2016-04-03 02:51:08,388000/45909ec58caf2cd90caaac600a068eeb-d.jpg,,
21681920,"The Postwar Struggle for Civil Rights: African Americans in San Francisco, 1945-1975 ",,Studies in African American History and Culture,,Paul T. Miller,2009,1,Routledge,,184,0,English,,,,"0415806011,9780415806015",,,,,323.1196/073079461,F869.S39 N46 2009,,,OL23230040M,,0,,,,,1,1,1,2254158,pdf,45924DF8137F4CF836E45E2FBBF5464B,,,"45924df8137f4cf836e45e2fbbf5464b~0415806011,9780415806015.pdf",0,2000-01-01 01:00:00,2016-04-03 02:51:08,388000/45924df8137f4cf836e45e2fbbf5464b-d.jpg,,
21681921,The Seductive Computer: Why IT Systems Always Fail,,,,Derek Partridge (auth.),2011,1,Springer-Verlag London,,323,0,English,69,,,"1849964971,9781849964975",,,,,,,10.1007/978-1-84996-498-2,,OL25004102M,,0,,,,,,,1,4610019,pdf,45951E7473CE8E7178E7F45A288076E6,,,"45951e7473ce8e7178e7f45a288076e6~1849964971,9781849964975.pdf",0,2000-01-01 01:00:00,2016-04-03 02:51:08,388000/45951e7473ce8e7178e7f45a288076e6-d.jpg,,
21681922,"Crossover Queries: Dwelling with Negatives, Embodying Philosophy's Others ",,Perspectives in Continental Philosophy,,Edith Wyschogrod,2006,3,Fordham University Press,,589,0,English,195,,,"0823226069,9781429478984,9780823226061,0823226077,9780823226078",,,,,,,,,OL22733913M,,0,,,,,0,,1,3051511,pdf,45955BC50BC0712F65462EC7A4A6D11C,,,"45955bc50bc0712f65462ec7a4a6d11c~0823226069,9781429478984,9780823226061,0823226077,9780823226078.pdf",0,2000-01-01 01:00:00,2016-04-03 02:51:08,388000/45955bc50bc0712f65462ec7a4a6d11c-d.jpg,,
21681923,A Brief History of Brazil,,,,Teresa A. Meade,2009,2,Facts on File,,305,0,English,64,,,"0816077886,9780816077885,0816077894,9780816077892",,,,,981,F2521 .M517 2009,,,OL23668722M,,0,,,,0,0,,1,6286002,pdf,45958A244CF6109F14649D9AAEF5FC25,,,"45958a244cf6109f14649d9aaef5fc25~0816077886,9780816077885,0816077894,9780816077892.pdf",0,2000-01-01 01:00:00,2016-04-03 02:51:08,388000/45958a244cf6109f14649d9aaef5fc25-d.jpg,,
21681924,Knowledge Management in the Intelligence Enterprise ,,Artech House Information Warfare Library,,Edward Waltz,2003,,Artech House Publishers,,376,0,English,79,,,"1580534945,9781580534949,9781580534864",,,,,,,,,OL8780248M,,0,,,,,1,1,1,2317834,pdf,45971FDAF03DB701F2B78C00B577D877,,,"45971fdaf03db701f2b78c00b577d877~1580534945,9781580534949,9781580534864.pdf",0,2000-01-01 01:00:00,2016-04-03 02:51:08,388000/45971fdaf03db701f2b78c00b577d877-d.jpg,,
21681925,In Search of Understanding: The Case for Constructivist Classrooms,,,,"Jacqueline Grennon Brooks, Martin G. Brooks",1999,Revised,Association for Supervision & Curriculum Deve,,136,0,English,,,,"0871203588,9780871203588,9780871205384",,,,,370.15/2,LB1590.3 .B75 1999,,,OL530239M,,0,,,,,1,1,1,1225104,pdf,45982C77F9304B2C17747418395FF85A,,,"45982c77f9304b2c17747418395ff85a~0871203588,9780871203588,9780871205384.pdf",0,2000-01-01 01:00:00,2016-04-03 02:51:08,388000/45982c77f9304b2c17747418395ff85a-d.jpg,,
21681926,Manual Therapy for the Thorax: A Biomechanical Approach,,,,Diane Lee,1994,,,,156,0,English,264,,,"1550563254,9781550563252",,,,,617.5/4062,,,,OL14761074M,,0,,,,,,1,1,20646796,pdf,45987B0D80AB42062B0AE424255358CD,,,"45987b0d80ab42062b0ae424255358cd~1550563254,9781550563252.pdf",0,2000-01-01 01:00:00,2016-04-03 02:51:08,388000/45987b0d80ab42062b0ae424255358cd-g.jpg,,
21681927,Remaking the Labour Party: From Gaitskell to Blair,,,,Tudor Jones,1996,1,Routledge,,208,0,English,,,,"0415125499,9780415125499,9780203977057",,,,,324.24107,JN1129.L32 J68 1996,,,OL988160M,,0,,,,,1,1,1,1447424,pdf,46014AA99CC1680949B5FB05B7DBC652,,,"46014aa99cc1680949b5fb05b7dbc652~0415125499,9780415125499,9780203977057.pdf",0,2000-01-01 01:00:00,2016-04-03 02:51:08,388000/46014aa99cc1680949b5fb05b7dbc652-d.jpg,,
21681928,Professionalism and Accounting Rules ,,Routledge New Works in Accounting History,,Brian P. West,2003,annotated edition,Routledge,,256,0,English,2,,,"9780415285698,0415285690,0203380622,9780203380628,9780203389126",,,,,657,HF5635 .W516 2003,,,OL15952255M,,0,,,,,1,1,1,788341,pdf,46048FB1E03C365EDB1A1C9A73AA440B,,,"46048fb1e03c365edb1a1c9a73aa440b~9780415285698,0415285690,0203380622,9780203380628,9780203389126.pdf",0,2000-01-01 01:00:00,2016-04-03 02:51:08,388000/46048fb1e03c365edb1a1c9a73aa440b-d.jpg,,
21681929,Que Se Yo de la Biblia: Todo lo Que Necesitas Saber Acerca del Libro Sagrado ,,,,Kenneth C. Davis,2005,,Rayo,,528,0,English,64,,,"9780060820794,9780061494727,0060820799",,,,,,,,,OL24253304M,,0,,,,,1,,1,1548927,pdf,46109DCC5F0DCA749C6232F2CD2907F2,,,"46109dcc5f0dca749c6232f2cd2907f2~9780060820794,9780061494727,0060820799.pdf",0,2000-01-01 01:00:00,2016-04-03 02:51:08,388000/46109dcc5f0dca749c6232f2cd2907f2-d.jpg,,
21681930,Canon EOS Digital Photography Photo Workshop,,,,Serge Timacheff,2008,Pap/DVD,Wiley,,321,0,English,185,,,"0470114347,9780470114346,9780470386033",,,,,,,,,OL7596220M,,0,,,,0,0,,1,26331851,pdf,46121CBB05C16F21AFD51DF954BFF8AA,,,"46121cbb05c16f21afd51df954bff8aa~0470114347,9780470114346,9780470386033.pdf",0,2000-01-01 01:00:00,2016-04-03 02:51:08,388000/46121cbb05c16f21afd51df954bff8aa-d.jpg,,
21681931,Romantic Medicine and John Keats,,,,Hermione de Almeida,1990,First,"Oxford University Press, USA",,432,0,English,147,,,"0195063074,9780195063073,9781423737254",,,,,821/.7,PR4838.M4 D4 1991,,,OL2226765M,,0,,,,,,1,1,26986338,pdf,46143EB8AAF891BFE3AF56BCD2ABCD18,,,"46143eb8aaf891bfe3af56bcd2abcd18~0195063074,9780195063073,9781423737254.pdf",0,2000-01-01 01:00:00,2016-04-03 02:51:08,388000/46143eb8aaf891bfe3af56bcd2abcd18-d.jpg,,
21681932,Photography in Archaeology and Conservation ,,Cambridge Manuals in Archaeology,,Peter G. Dorrell,1995,2,Cambridge University Press,,284,0,English,63,,,"0521455545,9780521455541",,,,,930.1/028,CC79.P46 D67 1994,,,OL1434959M,,0,,,,,,,1,54002094,pdf,46143EFDB512537B66BD5C2E7A424CD9,,,"46143efdb512537b66bd5c2e7a424cd9~0521455545,9780521455541.pdf",0,2000-01-01 01:00:00,2016-04-03 02:51:08,388000/46143efdb512537b66bd5c2e7a424cd9-d.jpg,,
21681933,Pro LCS: Live Communications Server Administration,,,,"Rui Maximo, Andrew Edney",2007,1,Apress,,383,0,English,260,,,"1590598369,9781590598368",,,,,,,,,OL8849033M,,0,,,,,1,,1,22046141,pdf,46198F4CCBF46404BAB02EB4E1864218,,,"46198f4ccbf46404bab02eb4e1864218~1590598369,9781590598368.pdf",0,2000-01-01 01:00:00,2016-04-03 02:51:08,388000/46198f4ccbf46404bab02eb4e1864218-d.jpg,,
21681934,Mathematik für das Ingenieurstudium,,,,"Jürgen Koch, Martin Stämpfle",2010,"1., aktualisierte Auflage",Carl Hanser Verlag GmbH & CO. KG,,677,0,German,96,,0,"3446422161,9783446422162",,,,,,,,,,,0,,,,1,,1,1,17744534,pdf,a0f9320eb7d0360b718bbfeca38dd032,,,Mathematik für das Ingenieurstudium,0,2000-01-01 01:00:00,2016-04-03 02:51:08,880000/a0f9320eb7d0360b718bbfeca38dd032-d.jpg,,
21681935,Reporting Test Results for Students with Disabilities and English-Language Learners: Summary of a Workshop,,,,"National Research Council, Judith Anderson Koenig",2002,,National Academies Press,,102,0,English,183,,,"0309084725,9780309084727,9780309500067",,,,,371.9/043,LB3060.8 .R47 2002,,,OL10358563M,,0,,,,,1,,1,3674295,pdf,46234D7DBD5F0E1D356EED2378A96C5A,,,"46234d7dbd5f0e1d356eed2378a96c5a~0309084725,9780309084727,9780309500067.pdf",0,2000-01-01 01:00:00,2016-04-03 02:51:08,388000/46234d7dbd5f0e1d356eed2378a96c5a-d.jpg,,
21681936,A Handbook of Radioactivity Measurements Procedures: With Nuclear Data for Some Biomedically Important Radionuclides ,,N C R P Report,,National Council on Radiation Protection and Measurements,1985,2nd,Natl Council on Radiation,,592,0,English,,,,"0913392715,9780913392713,9781435629233",,,,,539.7/7,QC795.42 .H36 1985,,,OL2862543M,,0,,,,,1,,1,25821927,pdf,46247AB9E862CD03F14BF2E81C0CE3D3,,,"46247ab9e862cd03f14bf2e81c0ce3d3~0913392715,9780913392713,9781435629233.pdf",0,2000-01-01 01:00:00,2016-04-03 02:51:08,388000/46247ab9e862cd03f14bf2e81c0ce3d3-g.jpg,,
21681937,From Egg to Embryo: Regional Specification in Early Development ,,Developmental and Cell Biology Series,,J. M. W. Slack,1991,2,Cambridge University Press,,352,0,English,,,,"0521409438,9780521409438,0521401089,9780521401081,9780511525322",,,,,591.3/3,QL955 .S54 1990,,,OL1851130M,,0,,,,,1,,1,15862520,pdf,46272D42801D08889B6D7774BB49D8F4,,,"46272d42801d08889b6d7774bb49d8f4~0521409438,9780521409438,0521401089,9780521401081,9780511525322.pdf",0,2000-01-01 01:00:00,2016-04-03 02:51:08,388000/46272d42801d08889b6d7774bb49d8f4-d.jpg,,
21681938,British Writers: Supplement ,,British Writers Supplements,,Jay Parini,2007,13,Charles Scribners & Sons,,570,0,English,,,,"0684315181,9780684315188",,,,,"820.9,B",PR85 .B688 Suppl. 13,,,OL11133185M,,0,,,,,1,1,1,9956456,pdf,46307C7CDC4123F5AE5EF69A8F3AAA09,,,"46307c7cdc4123f5ae5ef69a8f3aaa09~0684315181,9780684315188.pdf",0,2000-01-01 01:00:00,2016-04-03 02:51:08,388000/46307c7cdc4123f5ae5ef69a8f3aaa09-d.jpg,,
21681939,The Drama Of Leadership,,,,Robert J. Starratt,1993,1,Routledge,,192,0,English,,,,"9780750700917,9780750700924,0750700912,0750700920,020320977X,9780203209776,9780203289556",,,,,303.3/4,HM141 .S823 1993,,,OL1733338M,,0,,,,,1,1,1,1201954,pdf,46315D9FD33D62CA74014BE02F8F45E7,,,"46315d9fd33d62ca74014be02f8f45e7~9780750700917,9780750700924,0750700912,0750700920,020320977X,9780203209776,9780203289556.pdf",0,2000-01-01 01:00:00,2016-04-03 02:51:08,388000/46315d9fd33d62ca74014be02f8f45e7-d.jpg,,
21681940,Decomposition Techniques in Mathematical Programming: Engineering and Science Applications,,,,"Antonio J. Conejo, Enrique Castillo, Roberto Minguez, Raquel Garcia-Bertrand",2006,1,Springer,,541,0,English,113,,,"9783540276852,9783540276869,3540276858",,,,,,,,,OL22729528M,,0,,,,,1,,1,2732261,pdf,46349FE763A1E4ADC911C087D5A090B3,,,"46349fe763a1e4adc911c087d5a090b3~9783540276852,9783540276869,3540276858.pdf",0,2000-01-01 01:00:00,2016-04-03 02:51:08,388000/46349fe763a1e4adc911c087d5a090b3-d.jpg,,
21681941,Surgical Options for the Management of Congestive Heart Failure ,,Cardiology,,Malek G. Massad,2004,1,Not Avail,,156,0,English,6,,,"9783805577397,3805577397,9781417523740",,,,,,,10.1159/000075979,,OL12931658M,,0,,,,,,,1,2490245,pdf,46422C0D2FB0EC4B742E00E1A67E0983,,,"46422c0d2fb0ec4b742e00e1a67e0983~9783805577397,3805577397,9781417523740.pdf",0,2000-01-01 01:00:00,2016-04-03 02:51:08,388000/46422c0d2fb0ec4b742e00e1a67e0983-d.jpg,,
21681942,Anglo-Norman Studies VI: Proceedings of the battle Conference 1983,,,,"R. Allen Brown, R. Allen Brown",1990,,Boydell Press,,260,0,English,179,,,"0851151973,9780851151977,9781846151880",,,,,,,,,OL8266739M,,0,,,,,1,,1,48244484,pdf,46431C950C94A699B09A116898F7B4DD,,,"46431c950c94a699b09a116898f7b4dd~0851151973,9780851151977,9781846151880.pdf",0,2000-01-01 01:00:00,2016-04-03 02:51:08,388000/46431c950c94a699b09a116898f7b4dd-d.jpg,,
21681943,Football and Philosophy: Going Deep ,,The Philosophy of Popular Culture,,"Michael W. Austin, Joe Posnanski",2008,1,The University Press of Kentucky,,240,0,English,195,,,"0813124956,9780813124957,9780813172989",,,,,200.975,BR535 .S68 2008,,,OL16395730M,,0,,,,,1,,1,985707,pdf,46462A96BCC95D1068988FAF6202CD16,,,"46462a96bcc95d1068988faf6202cd16~0813124956,9780813124957,9780813172989.pdf",0,2000-01-01 01:00:00,2016-04-03 02:51:08,388000/46462a96bcc95d1068988faf6202cd16-d.jpg,,
21681944,Safety and Health Essentials: OSHA Compliance for Small Businesses,,,,"William Martin, James Walters",2001,1st,Butterworth-Heinemann,,356,0,English,1,,,"0750671270,9780750671279,9780080516509",,,,,658.0220684,,,,OL18347310M,,0,,,,,1,,1,23260420,pdf,46474A9F2860A507BF9165EAF675C676,,,"46474a9f2860a507bf9165eaf675c676~0750671270,9780750671279,9780080516509.pdf",0,2000-01-01 01:00:00,2016-04-03 02:51:08,388000/46474a9f2860a507bf9165eaf675c676-d.jpg,,
21681945,"Seesaw 25: Proceedings of the International Conference on the Seesaw Mechanism, Institut Henri Poincare, Paris 10-11 June, 2004",,,,"J. Orloff, S. Lavignac, International Conference on the Seesaw M, Michel Cribier, Michel Cribier",2005,,World Scientific Publishing Company,,280,0,English,185,,,"9812561110,9789812561114,9789812702210",,,,,,,,,OL22633884M,,0,,,,,,1,1,14993899,pdf,46517BEEEF0015FB3DAE9A637B40F1B5,,,"46517beeef0015fb3dae9a637b40f1b5~9812561110,9789812561114,9789812702210.pdf",0,2000-01-01 01:00:00,2016-04-03 02:51:08,388000/46517beeef0015fb3dae9a637b40f1b5-d.jpg,,
21681946,Ressourcenorientierte Arbeitswirtschaft : konzeptionelle Voraussetzungen für einen effizienten Einsatz von Personalvermögen in Unternehmen,,Gabler Edition Wissenschaft,,Matthias Langner,2007,,Deutscher Universitäts-Verlag,Wiesbaden,357,0,German,,usenet,to 2012-06,"9783835054509,3835054503",,,,,,,,,,,0,,,,,,,1,2348019,pdf,bd676aea3bf15ea8d4d53aa9c475effa,,,I:\\usenet_ger\\Ressourcenorientierte.Arbeitswirtschaft.[Springer].[2007].[g8n260].pdf,0,2000-01-01 01:00:00,2016-04-03 02:51:08,884000/bd676aea3bf15ea8d4d53aa9c475effa-g.jpg,,
21681947,Military Advantage,,,,Lynn Vincent,2001,,"Learningexpress, Llc",,208,0,English,67,,,"1576853632,9781576853634",,,,,,,,,OL8749285M,,0,,,,,1,,1,1163565,pdf,46583CD8CA0362ED093B133FC529C3B3,,,"46583cd8ca0362ed093b133fc529c3b3~1576853632,9781576853634.pdf",0,2000-01-01 01:00:00,2016-04-03 02:51:08,388000/46583cd8ca0362ed093b133fc529c3b3-d.jpg,,
21681948,Never Resist Temptation,,,,Miranda Neville,2009,,Avon,,384,0,English,,,,"0061715913,9780061715914,9780061773235",,,,,813,PS,,,OL23124491M,,0,,,,,1,,1,1180242,pdf,46596DDC633F84A47095C63622E363B9,,,"46596ddc633f84a47095c63622e363b9~0061715913,9780061715914,9780061773235.pdf",0,2000-01-01 01:00:00,2016-04-03 02:51:08,388000/46596ddc633f84a47095c63622e363b9-d.jpg,,
21681949,The Soviet World of American Communism ,,Annals of Communism Series,,"Mr. Harvey Klehr, John Earl Haynes",1998,,Yale University Press,,416,0,English,189,,,"0300071507,9780300071504,9780585351889",,,,,324.273/75/09041,JK2391.C5 K563 1998,,,OL672097M,,0,,,,,1,,1,18381239,pdf,46648A71E43D03456BCBE0D2DA09EAAD,,,"46648a71e43d03456bcbe0d2da09eaad~0300071507,9780300071504,9780585351889.pdf",0,2000-01-01 01:00:00,2016-04-03 02:51:08,388000/46648a71e43d03456bcbe0d2da09eaad-d.jpg,,
21681950,Between Good and Ghetto: African American Girls and Inner City Violence ,,Rutgers Series in Childhood Studies,,Nikki Jones,2009,,Rutgers University Press,,224,0,English,,,,"0813546141,9780813546148,081354615X,9780813546155",,,,,305.23089/96073,HT164.U6 J66 2010,,,OL23053687M,,0,,,,1,0,,1,550906,pdf,46667A47276257324795CC8F2042E185,,,"46667a47276257324795cc8f2042e185~0813546141,9780813546148,081354615X,9780813546155.pdf",0,2000-01-01 01:00:00,2016-04-03 02:51:08,388000/46667a47276257324795cc8f2042e185-d.jpg,,
21681951,Political Development,,,,Damien Kingsbury,2007,1,Routledge,,248,0,English,189,,,"0415401879,9780415401876,9780203947081",,,,,320.1,JA66 .K56 2007,,,OL10204988M,,0,,,,,1,1,1,865416,pdf,46669F2DCEAC8F679F74F28EE4E8D001,,,"46669f2dceac8f679f74f28ee4e8d001~0415401879,9780415401876,9780203947081.pdf",0,2000-01-01 01:00:00,2016-04-03 02:51:08,388000/46669f2dceac8f679f74f28ee4e8d001-d.jpg,,
21681952,After Tragedy and Triumph: Essays in Modern Jewish Thought and the American Experience,,,,Michael Berenbaum,2009,1,Cambridge University Press,,224,0,English,,,,"0521099927,9780521099929,052138057X,9780521380577,9780511555374",,,,,940.53/18,D804.3 .B46 1990,,,OL1876100M,,0,,,,,1,,1,1170089,djvu,46790F847428F31BE5484861674F8261,,,"46790f847428f31be5484861674f8261~0521099927,9780521099929,052138057X,9780521380577,9780511555374.djvu",0,2000-01-01 01:00:00,2016-04-03 02:51:08,388000/46790f847428f31be5484861674f8261-d.jpg,,
21681953,Expert .NET Delivery Using NAnt and CruiseControl.NET ,,Expert's Voice in .NET,,Marc Holmes,2005,1,Apress,,400,0,English,92,,,"1590594851,9781590594858,9781430200239",,,,,005.1,QA76.76.I55 H6 2005,,,OL3396224M,,0,,,,,1,,1,9851842,pdf,46816F1A00C88EB1E039415C0479C7D7,,,"46816f1a00c88eb1e039415c0479c7d7~1590594851,9781590594858,9781430200239.pdf",0,2000-01-01 01:00:00,2016-04-03 02:51:08,388000/46816f1a00c88eb1e039415c0479c7d7-d.jpg,,
21681954,Wetland Birds: Habitat Resources and Conservation Implications ,,,,Milton W. Weller,1999,,Cambridge University Press,,316,0,English,6,,,"9780521633260,9780521633628,0521633265,0521633621,0511011369,9780511011368",,,,,598.1768,QL698.95 .W45 1999,,,OL361812M,,0,,,,,1,,1,3280677,pdf,46832B632D30A82466390DE85743B750,,,"46832b632d30a82466390de85743b750~9780521633260,9780521633628,0521633265,0521633621,0511011369,9780511011368.pdf",0,2000-01-01 01:00:00,2016-04-03 02:51:08,388000/46832b632d30a82466390de85743b750-d.jpg,,
21681955,The Micronauts: The Time Traveler Trilogy,2 Tomos,,,Steve Lyons,2004,,I Books,,288,0,English,,,,"0743479173,9780743479172,1591762480",,,,,,,,,OL24314579M,,0,,,,,1,,1,1015962,pdf,46843EB91DCDC49840DA4B0059BFE1D5,,,"46843eb91dcdc49840da4b0059bfe1d5~0743479173,9780743479172,1591762480.pdf",0,2000-01-01 01:00:00,2016-04-03 02:51:08,388000/46843eb91dcdc49840da4b0059bfe1d5-d.jpg,,
21681956,The Female Body and the Law,,,,Zillah R. Eisenstein,1989,,Univ of California Pr,,245,0,English,313,,,"0520063090,9780520063099",,,,,"346.7301/34,347.306134",KF4758 .E38 1988,,,OL2050305M,,0,,,,,,,1,44068591,pdf,46893B0C422566E11BC15CD9A93463AC,,,"46893b0c422566e11bc15cd9a93463ac~0520063090,9780520063099.pdf",0,2000-01-01 01:00:00,2016-04-03 02:51:08,388000/46893b0c422566e11bc15cd9a93463ac-g.jpg,,
21681957,Notre parti est pris,,,,Reid Malcolm,2009,Hors-collection,,,361,0,French,,,,"2763788068,9782763788067",,,,,,,,,,,0,,,,,,1,1,7551180,pdf,46933EFF123B407F639E24985F853E10,,,"46933eff123b407f639e24985f853e10~2763788068,9782763788067.pdf",0,2000-01-01 01:00:00,2016-04-03 02:51:08,388000/46933eff123b407f639e24985f853e10-g.jpg,,
21681958,Wordsworth's Reading 1770-1799,,,,Duncan Wu,1993,,Cambridge University Press,,240,0,English,,,,"0521416000,9780521416009,0521037409,9780521037402,9780511519147",,,,,821/.7,PR5892.B6 W8 1993,,,OL1714919M,,0,,,,,1,,1,5968529,pdf,46985CBA197821BD7F2853535AB953C1,,,"46985cba197821bd7f2853535ab953c1~0521416000,9780521416009,0521037409,9780521037402,9780511519147.pdf",0,2000-01-01 01:00:00,2016-04-03 02:51:08,388000/46985cba197821bd7f2853535ab953c1-d.jpg,,
21681959,Learning Citizenship: Practical Teaching Strategies for Secondary Schools,,,,"Paul Clarke, Jenny Wales",2004,1,Routledge,,184,0,English,183,,,"0415335345,9780415335348,9780203426746",,,,,373/.01/1,LC1091 W35 2004,,,OL3291423M,,0,,,,,1,1,1,1772153,pdf,400717C1B62516219A58ACF0D782235D,,,"400717c1b62516219a58acf0d782235d~0415335345,9780415335348,9780203426746.pdf",0,2000-01-01 01:00:00,2016-04-03 02:51:08,388000/400717c1b62516219a58acf0d782235d-d.jpg,,
21681960,When Ways of Life Collide: Multiculturalism and Its Discontents in the Netherlands,,,,"Paul M. Sniderman, Louk Hagendoorn",2009,,Princeton University Press,,176,0,English,,,,"0691141010,9780691141015,0691129061,9780691129068",,,,,,,,,OL7759339M,,0,,,,,1,1,1,864593,pdf,400854DD5852DFF637C868A8604C08D1,,,"400854dd5852dff637c868a8604c08d1~0691141010,9780691141015,0691129061,9780691129068.pdf",0,2000-01-01 01:00:00,2016-04-03 02:51:08,388000/400854dd5852dff637c868a8604c08d1-d.jpg,,
21681961,Purnell's History of the Second World War : Menace at Sea * Struggle for the Sealanes * The RAF Hits Back * Night Raid,volume 1 No. 11,,,Purnell,1972,,BPC Publishing Ltd.,,32,0,English,64,,,,,B000LDI2AG,,,,,,,,,0,,,,,,,0,54413032,pdf,401091E3F67A49D1D46AF49BF854D142,,,401091e3f67a49d1d46af49bf854d142~B000LDI2AG.pdf,0,2000-01-01 01:00:00,2016-04-03 02:51:08,388000/401091e3f67a49d1d46af49bf854d142-g.jpg,,
21681962,"The Last Lone Inventor: A Tale of Genius, Deceit, and the Birth of Television",,,,Evan I. Schwartz,2002,1st,HarperCollins,,356,0,English,,,,"0066210690,9780066210698,9780060085216,0060085215",,,,,,,,,OL24250512M,,0,,,,1,0,1,1,1508067,pdf,401394F1DBE03BBD9A0983994AF41F80,,,"401394f1dbe03bbd9a0983994af41f80~0066210690,9780066210698,9780060085216,0060085215.pdf",0,2000-01-01 01:00:00,2016-04-03 02:51:08,388000/401394f1dbe03bbd9a0983994af41f80-d.jpg,,
21681963,Between Betrothal and Bedding ,,The Northern World,,Mia Korpiola,2009,,Brill,,437,0,English,,,,"9004173293,9789004173293",,,,,346.48501/6,KKV542 .K67 2009,,,OL22665346M,,0,,,,,1,1,1,3445883,pdf,401571A26AEE88E70DF2E38B9DE6BDDD,,,"401571a26aee88e70df2e38b9de6bddd~9004173293,9789004173293.pdf",0,2000-01-01 01:00:00,2016-04-03 02:51:08,388000/401571a26aee88e70df2e38b9de6bddd-d.jpg,,
21681964,Ion Beams in Nanoscience and Technology ,,Particle Acceleration and Detection,,"Daniel J. White, Harry J. Whitlow (auth.), Ragnar Hellborg, Harry J. Whitlow, Yanwen Zhang (eds.)",2010,1,Springer-Verlag Berlin Heidelberg,,457,0,English,224,,,"9783642006234,3642006221,9783642006227",,,,,,,10.1007/978-3-642-00623-4,,,,0,,,,,,1,1,9126731,pdf,401762E37D941A2D36CBEACE813529C2,,,"401762e37d941a2d36cbeace813529c2~9783642006234,3642006221,9783642006227.pdf",0,2000-01-01 01:00:00,2016-04-03 02:51:08,388000/401762e37d941a2d36cbeace813529c2-d.jpg,,
21681965,A House Built on Sand: Exposing Postmodernist Myths About Science,,,,Noretta Koertge,2000,,"Oxford University Press, USA",,336,0,English,181,,,"0195117263,9780195117264,0195117255,9780195117257",,,,,501,Q172 .H68 1998,,,OL699720M,,0,,,,,1,1,1,2934969,pdf,401931B5CC51893C97E16D846C2837A2,,,"401931b5cc51893c97e16d846c2837a2~0195117263,9780195117264,0195117255,9780195117257.pdf",0,2000-01-01 01:00:00,2016-04-03 02:51:08,388000/401931b5cc51893c97e16d846c2837a2-d.jpg,,
21681966,Die Schuldrechtsklausur: Kernprobleme der vertraglichen Schuldverhältnisse in der Fallbearbeitung ,,Tutorium Jura,,"Rechtsanwalt Dr. iur. Peter Balzer, Rechtsanwalt Dr. iur. Stefan Kröll, Dipl.-Jur. Dipl.-Kfm. Bernd Scholl (auth.)",2008,"2., aktualisierte u. erw. Aufl.",Springer Berlin Heidelberg,,358,0,German,,,,"3540759174,9783540759171",,,,,,,10.1007/978-3-540-75918-8,,,,0,,,,0,0,1,1,2857254,pdf,401998D982539CB81FDBC5BB42DB2E03,,,"401998d982539cb81fdbc5bb42db2e03~3540759174,9783540759171.pdf",0,2000-01-01 01:00:00,2016-04-03 02:51:08,388000/401998d982539cb81fdbc5bb42db2e03-d.jpg,,
21681967,Bhabha and His Magnificent Obsessions ,,Vignettes in Physics,,G. Venkataraman,1995,,Sangam Books Ltd,,234,0,English,264,,,"0863115551,9780863115554",,,,,,,,,OL9809119M,,0,,,,,,,1,2196465,djvu,402173E5BFEA9B7FED96355B9578287F,,,"402173e5bfea9b7fed96355b9578287f~0863115551,9780863115554.djvu",0,2000-01-01 01:00:00,2016-04-03 02:51:08,388000/402173e5bfea9b7fed96355b9578287f-g.jpg,,
21681968,Forbidden Knowledge: The Gap Into Vision,,,,Stephen R. Donaldson,1992,,Spectra,,480,0,English,64,,,"0553297600,9780553297607",,,,,,,,,OL7825494M,,0,,,,,,,1,408790,epub,402286EB23FE20507FEE4682D08BAE7A,,,"402286eb23fe20507fee4682d08bae7a~0553297600,9780553297607.epub",0,2000-01-01 01:00:00,2016-04-03 02:51:08,388000/402286eb23fe20507fee4682d08bae7a-d.jpg,,
21681969,"Calcium Channel Blockers - A Medical Dictionary, Bibliography, and Annotated Research Guide to Internet References",,,,ICON Health Publications,2004,,ICON Health Publications,,240,0,English,100,,,"0497001977,9780497001971,9781417546213",,,,,,,,,OL7651857M,,0,,,,,1,,1,2923740,pdf,402463E4E002DBE942F1A853555A306D,,,"402463e4e002dbe942f1a853555a306d~0497001977,9780497001971,9781417546213.pdf",0,2000-01-01 01:00:00,2016-04-03 02:51:08,388000/402463e4e002dbe942f1a853555a306d-d.jpg,,
21681970,Overcoming Depression: A Cognitive Therapy Approach Workbook ,,Treatments That Work,,"Mark Gilson, Arthur Freeman, M. Jane Yates, Sharon Morgillo Freeman",2009,2,"Oxford University Press, USA",,208,0,English,172,,,"019537102X,9780195371024,9780199707911",,,,,,,,,OL24037847M,,0,,,,,1,,1,727444,pdf,402687B04FB4C08EC48EB2B50601915E,,,"402687b04fb4c08ec48eb2b50601915e~019537102X,9780195371024,9780199707911.pdf",0,2000-01-01 01:00:00,2016-04-03 02:51:08,388000/402687b04fb4c08ec48eb2b50601915e-d.jpg,,
21681971,Audel Plumbers Pocket Manual,,,,"Rex Miller, Mark Richard Miller, Joseph P. Almond Sr.",2004,All New 10th Edition,Audel,,464,0,English,236,,,"0764569953,9780764569951,9780764576546",,,,,696/.1,TH6125 .M56 2004,,,OL24260245M,,0,,,,,1,,1,4471478,pdf,403228AD6E4A8D7073923A3B576C9BA1,,,"403228ad6e4a8d7073923a3b576c9ba1~0764569953,9780764569951,9780764576546.pdf",0,2000-01-01 01:00:00,2016-04-03 02:51:08,388000/403228ad6e4a8d7073923a3b576c9ba1-d.jpg,,
21681972,Social Institutions and Economic Development A Tribute to Kurt Martin,,,,Valpy FitzGerald,2002,1,Springer,,197,0,English,305,,,"1402008945,9781402008948,9780306481598",,,,,,,,,OL17062327M,,0,,,,,1,,1,3348661,pdf,403681BA1B54979632E4C3E1756290B0,,,"403681ba1b54979632e4c3e1756290b0~1402008945,9781402008948,9780306481598.pdf",0,2000-01-01 01:00:00,2016-04-03 02:51:08,388000/403681ba1b54979632e4c3e1756290b0-d.jpg,,
21681973,The Texture of Industry: An Archaeological View of the Industrialization of North America,,,,"Robert B. Gordon, Patrick M. Malone",1997,,"Oxford University Press, USA",,457,0,English,130,,,"0195111419,9780195111415,9780585351995",,,,,,,,,OL7388091M,,0,,,,1,1,1,1,48632377,pdf,403768B25793D76419DD65FCBA495348,,,"403768b25793d76419dd65fcba495348~0195111419,9780195111415,9780585351995.pdf",0,2000-01-01 01:00:00,2016-04-03 02:51:08,388000/403768b25793d76419dd65fcba495348-d.jpg,,
21681974,The End of the History of Art?,,,,"Hans Belting, Christopher S. Wood",1987,,Univ of Chicago Pr (Tx),,120,0,English,64,,,"0226042170,9780226042176",,,,,709/.04/5,N380 .B4413 1987,,,OL2730861M,,0,,,,,1,,0,3260454,djvu,403860CBCCB7486B3E2370A114701792,e24c1a519d2278c2015306380415dfed,no,"403860cbccb7486b3e2370a114701792~0226042170,9780226042176.djvu",0,2000-01-01 01:00:00,2016-04-03 02:51:08,388000/403860cbccb7486b3e2370a114701792-g.jpg,,
21681975,The Enigma of Capital: And the Crises of Capitalism,,,,David Harvey,2010,2,"Oxford University Press, USA",,305,0,English,189,,,"0199758719,9780199758715",,,,,330.122,HB95 .H368 2010,,,OL24604474M,,0,,,,,,1,1,2282497,pdf,403885D768100A41119B7F2DF57556EF,,,"403885d768100a41119b7f2df57556ef~0199758719,9780199758715.pdf",0,2000-01-01 01:00:00,2016-04-03 02:51:08,388000/403885d768100a41119b7f2df57556ef-d.jpg,,
21681976,"Basil of Caesarea, Gregory of Nyssa, and the Transformation of Divine Simplicity ",,Oxford Early Christian Studies,,Andrew Radde-Gallwitz,2009,,"Oxford University Press, USA",,272,0,English,,,,"0199574111,9780199574117",,,,,231.4,BT148 .R33 2009,,,OL23926635M,,0,,,,1,0,1,1,2012476,pdf,404406FE4CC61BDD0457B0D8CE7848CD,,,"404406fe4cc61bdd0457b0d8ce7848cd~0199574111,9780199574117.pdf",0,2000-01-01 01:00:00,2016-04-03 02:51:08,388000/404406fe4cc61bdd0457b0d8ce7848cd-d.jpg,,
21681977,ERISA: Principles of Employee Benefit Law,,,,Peter Wiedenbeck,2010,,"Oxford University Press, USA",,480,0,English,313,,,"9780195387674,0195387678",,,,,344.7301/252,KF3512 .W533 2010,,,OL23688402M,,0,,,,,,,1,1943784,pdf,404626DF064F9F2B6DBE07D9E243B983,,,"404626df064f9f2b6dbe07d9e243b983~9780195387674,0195387678.pdf",0,2000-01-01 01:00:00,2016-04-03 02:51:08,388000/404626df064f9f2b6dbe07d9e243b983-d.jpg,,
21681978,Building Without Borders: Sustainable Construction for the Global Village ,,Natural Building Series,,Joe Kennedy,2004,,New Society Publishers,,288,0,English,236,,,"0865714819,9780865714816",,,,,,,,,OL17125823M,,0,,,,,1,,1,6072564,pdf,404689B534D97D4C9278B766CD3CE370,,,"404689b534d97d4c9278b766cd3ce370~0865714819,9780865714816.pdf",0,2000-01-01 01:00:00,2016-04-03 02:51:08,388000/404689b534d97d4c9278b766cd3ce370-d.jpg,,
21681979,Political Economy of Soil Erosion in Developing Countries ,,Longman Development Studies,,Piers M. Blaikie,1985,,Longman Publishing Group,,188,0,English,225,,,"0582300894,9780582300897",,,,,333.76/13,HD1131 .B55 1985,,,OL2839091M,,0,,,,,,1,1,12821857,pdf,404727AD5F4560FB569E0A76935F30FB,,,"404727ad5f4560fb569e0a76935f30fb~0582300894,9780582300897.pdf",0,2000-01-01 01:00:00,2016-04-03 02:51:08,388000/404727ad5f4560fb569e0a76935f30fb-g.jpg,,
21681980,Always Looking Up: The Adventures of an Incurable Optimist,,,,Michael J. Fox,2009,1ST,Hyperion,,289,0,English,,,,9781401303389,,,,,"790.4302/8092,B",PN2308.F69 A3 2009,,,OL22853392M,,0,,,,,,1,1,1807846,pdf,404862F1321B1B43B61DEF1106650284,,,404862f1321b1b43b61def1106650284~9781401303389.pdf,0,2000-01-01 01:00:00,2016-04-03 02:51:08,388000/404862f1321b1b43b61def1106650284-d.jpg,,
21681981,Practical English Language Teaching: PELT Young Learners,,,,"Caroline Linse, David Nunan",2005,1,English as a Second Language,,224,0,English,183,,,"9780073103082,007310308X",,,,,,,,,,,0,,,,,1,,0,12999207,pdf,404950A184EA8043703760E97AAD1DE1,,,"404950a184ea8043703760e97aad1de1~9780073103082,007310308X.pdf",0,2000-01-01 01:00:00,2016-04-03 02:51:08,388000/404950a184ea8043703760e97aad1de1-g.jpg,,
21681982,Vampire: His Kith and Kin,,,,Montague Summers,2003,,"Kessinger Publishing, LLC",,376,0,English,,,,"0766176037,9780766176034",,,,,,,,,OL8061237M,,0,,,,,,,1,1414014,pdf,404976E576390F103FAD1C3892493C3D,,,"404976e576390f103fad1c3892493c3d~0766176037,9780766176034.pdf",0,2000-01-01 01:00:00,2016-04-03 02:51:08,388000/404976e576390f103fad1c3892493c3d-d.jpg,,
21681983,The Express Picture Dictionary for Young Learners: Activity Book,,,,Elizabeth Gray,2000,,Express Publishing,,110,0,English,183,,,"1842166107,9781842166109",,,,,,,,,OL12572829M,,0,,,,,,,0,18480667,pdf,405808BCFD0E2FDDF56B1FE87963C660,,,"405808bcfd0e2fddf56b1fe87963c660~1842166107,9781842166109.pdf",0,2000-01-01 01:00:00,2016-04-03 02:51:08,388000/405808bcfd0e2fddf56b1fe87963c660-g.jpg,,
21681984,Webster's English to French Crossword Puzzles: Level 20,,,,Philip M. Parker,2006,Bilingual,"ICON Group International, Inc.",,118,0,English,100,,,"0497253925,9780497253929,9781423770893",,,,,,,,,OL10370181M,,0,,,,,1,,1,864847,pdf,405844EEE371211071938DD58334C598,,,"405844eee371211071938dd58334c598~0497253925,9780497253929,9781423770893.pdf",0,2000-01-01 01:00:00,2016-04-03 02:51:08,388000/405844eee371211071938dd58334c598-d.jpg,,
21681985,Conversing with Cage,,,,Richard Kostelanetz,2002,2,Routledge,,352,0,English,,,,"0415937922,9780415937924",,,,,,,,,OL18275343M,,0,,,,,1,1,1,2410424,pdf,406188E758ADF643186E47412071E9E4,,,"406188e758adf643186e47412071e9e4~0415937922,9780415937924.pdf",0,2000-01-01 01:00:00,2016-04-03 02:51:08,388000/406188e758adf643186e47412071e9e4-d.jpg,,
21681986,Resource and Environmental Economics ,,Cambridge Surveys of Economic Literature,,Anthony C. Fisher,1981,1,Cambridge University Press,,304,0,English,305,,,"9780521243063,9780511572081,0521285941,0521243068,0511572085,9780521285940",,,,,333.7,HC59 .F558,,,OL21286476M,,0,,,,,1,,1,6746949,pdf,406281F995167C6EFC2E7F5720223E7E,,,"406281f995167c6efc2e7f5720223e7e~9780521243063,9780511572081,0521285941,0521243068,0511572085,9780521285940.pdf",0,2000-01-01 01:00:00,2016-04-03 02:51:08,388000/406281f995167c6efc2e7f5720223e7e-d.jpg,,
21681987,Opposing Europe?: The Comparative Party Politics of Euroscepticism: Comparative and Theoretical Perspectives,volume 2,,,"Aleks Szczerbiak, Paul Taggart",2008,,"Oxford University Press, USA",,360,0,English,,,,"019925835X,9780199258352,9781435673014",,,,,324.2094,JN30 .O67 2008,,,OL10146257M,,0,,,,,1,,1,1011007,pdf,406481FBCD007D0D1DAD4B78DBA547DC,,,"406481fbcd007d0d1dad4b78dba547dc~019925835X,9780199258352,9781435673014.pdf",0,2000-01-01 01:00:00,2016-04-03 02:51:08,388000/406481fbcd007d0d1dad4b78dba547dc-d.jpg,,
21681988,The Million-Dollar Financial Services Practice: A Proven System for Becoming a Top Producer,,,,David J. Mullen Jr.,2007,,AMACOM,,352,0,English,183,,,"0814480527,9780814480526,9780814409688",,,,,,,,,OL11353643M,,0,,,,,1,,1,1033835,pdf,406715C72A00B41846F601883E2CD989,,,"406715c72a00b41846f601883e2cd989~0814480527,9780814480526,9780814409688.pdf",0,2000-01-01 01:00:00,2016-04-03 02:51:08,388000/406715c72a00b41846f601883e2cd989-d.jpg,,
21681989,Classical and Quantum Computation ,,Graduate Studies in Mathematics,,"A. Yu. Kitaev, A. H. Shen, M. N. Vyalyi",2002,,Amer Mathematical Society,,258,0,English,120,,,"0821832298,9780821832295",,,,,510,,,,OL19086384M,,300,,,,0,1,1,1,3088828,djvu,407219F2F35FDFE165277A586D8E15F3,,,"407219f2f35fdfe165277a586d8e15f3~0821832298,9780821832295.djvu",0,2000-01-01 01:00:00,2016-04-03 02:51:08,388000/407219f2f35fdfe165277a586d8e15f3-d.jpg,,
21681990,"Science of Coercion: Communication Research and Psychological Warfare, 1945-1960",,,,Christopher Simpson,1996,1ST,"Oxford University Press, USA",,224,0,English,181,,,"0195102924,9780195102925,9781429406697",,,,,,,,,OL7387814M,,0,,,,,,,1,10856588,pdf,407599DA1EB0ED843DF49DC42A0BBFE2,,,"407599da1eb0ed843df49dc42a0bbfe2~0195102924,9780195102925,9781429406697.pdf",0,2000-01-01 01:00:00,2016-04-03 02:51:08,388000/407599da1eb0ed843df49dc42a0bbfe2-d.jpg,,
21681991,La reina en el palacio de las corrientes de aire [Import] ,,Spanish Translation,,Stieg Larsson,2009,Tra,Destino,,854,0,Spanish,,,,9788423341610,,,,,,,,,OL23978443M,,0,,,,,,,0,6524926,pdf,407627D03F6390E004796A37D9DCCD3E,,,407627d03f6390e004796a37d9dccd3e~9788423341610.pdf,0,2000-01-01 01:00:00,2016-04-03 02:51:08,388000/407627d03f6390e004796a37d9dccd3e-d.jpg,,
21681992,"The Hostess: Hospitality, Femininity, and the Expropriation of Identity",,,,Tracy McNulty,2006,1,Univ Of Minnesota Press,,336,0,English,,,,"9780816647408,9780816698127,0816647402",,,,,177/.1,BJ2021 .M36 2007,,,OL17939769M,,0,,,,,1,,1,2128320,pdf,407929D576FE57AC5ACF2AA5CECB9435,,,"407929d576fe57ac5acf2aa5cecb9435~9780816647408,9780816698127,0816647402.pdf",0,2000-01-01 01:00:00,2016-04-03 02:51:08,388000/407929d576fe57ac5acf2aa5cecb9435-d.jpg,,
21681993,"Feline Dentistry: Oral Assessment, Treatment, and Preventative Care",,,,Jan Bellows,2010,1,Wiley-Blackwell,,326,0,English,170,,,"0813816130,9780813816135",,,,,636.8/08976,SF867 .B447 2010,,,OL23668198M,,0,,,,1,0,,1,55727420,pdf,408620F0D4A1B3BAFCA0C46A6FE2408E,,,"408620f0d4a1b3bafca0c46a6fe2408e~0813816130,9780813816135.pdf",0,2000-01-01 01:00:00,2016-04-03 02:51:08,388000/408620f0d4a1b3bafca0c46a6fe2408e-d.jpg,,
21681994,"Vascular Surgery: Principles and Practice, ",,,,"Robert W. Hobson, Samuel Wilson, Frank J. Veith",2003,3,Informa Healthcare,,1318,0,English,175,,,"0824708199,9780824708191",,,,,617/.413,RD598.5 .V388 2004,,,OL3317680M,,0,,,,,,1,1,36401117,pdf,409388D4E77B376F47CC303089616BE9,,,"409388d4e77b376f47cc303089616be9~0824708199,9780824708191.pdf",0,2000-01-01 01:00:00,2016-04-03 02:51:08,388000/409388d4e77b376f47cc303089616be9-d.jpg,,
21681995,Social Support Measurement and Intervention: A Guide for Health and Social Scientists,,,,"Sheldon Cohen, Lynn G. Underwood, Benjamin H. Gottlieb",2000,1,"Oxford University Press, USA",,368,0,English,,,,"019512670X,9780195126709,9780198029229",,,,,,,,,OL16988007M,,0,,,,,1,1,1,20939616,pdf,409602EA473379260162B541775CCB67,,,"409602ea473379260162b541775ccb67~019512670X,9780195126709,9780198029229.pdf",0,2000-01-01 01:00:00,2016-04-03 02:51:08,388000/409602ea473379260162b541775ccb67-d.jpg,,
21681996,Gun Control ,,Library in a Book,,Harry Henderson,2005,Revised,Facts on File,,316,0,English,302,,,"0816056609,9780816056606",,,,,344.7305/33,KF3941 .H46 2005,,,OL3306244M,,0,,,,,1,,1,1218098,pdf,410322C696A60CEE13E06C1D98C5B753,,,"410322c696a60cee13e06c1d98c5b753~0816056609,9780816056606.pdf",0,2000-01-01 01:00:00,2016-04-03 02:51:08,388000/410322c696a60cee13e06c1d98c5b753-d.jpg,,
21681997,"Islam, Secularism and Nationalism in Modern Turkey: Who is a Turk? ",,Routledge Studies in Middle Eastern History,,Soner Cagaptay,2006,annotated edition,Routledge,,256,0,English,,,,"0415384583,9780415384582,9780203968925",,,,,305.8/009561,DR590 .C257 2005,,,OL3398808M,,0,,,,,1,1,1,1696580,pdf,411053FF0F3D7882FEBE9415BA9929BC,,,"411053ff0f3d7882febe9415ba9929bc~0415384583,9780415384582,9780203968925.pdf",0,2000-01-01 01:00:00,2016-04-03 02:51:08,388000/411053ff0f3d7882febe9415ba9929bc-d.jpg,,
21681998,Chlorophyll a Fluorescence in Aquatic Sciences: Methods and Applications ,,Developments in Applied Phycology 4,,"Jeff Cosgrove, Michael A. Borowitzka (auth.), David J. Suggett, Ondrej Prášil, Michael A. Borowitzka (eds.)",2010,1,Springer Netherlands,,326,0,English,,,,"9048192676,9789048192687,9789048192670",,,,,,,10.1007/978-90-481-9268-7,,,,0,,,,,,,1,12601623,pdf,411080C5E936E265A12DA1323D473251,,,"411080c5e936e265a12da1323d473251~9048192676,9789048192687,9789048192670.pdf",0,2000-01-01 01:00:00,2016-04-03 02:51:08,388000/411080c5e936e265a12da1323d473251-d.jpg,,
21681999,Linux All-in-One Desk Reference For Dummies ,,For Dummies Computer/Tech,,Naba Barkakati,2006,2,For Dummies,,840,0,English,183,,,"0471752622,9780471793137,9780471752622",,,,,005.446,,,,OL23072416M,,0,,,,,1,,1,7981092,pdf,411293BD60D4A3552030984AC7B2A11A,,,"411293bd60d4a3552030984ac7b2a11a~0471752622,9780471793137,9780471752622.pdf",0,2000-01-01 01:00:00,2016-04-03 02:51:08,388000/411293bd60d4a3552030984ac7b2a11a-d.jpg,,
21682000,Dream Theater Metropolis: Scenes from a Memory ,,Authentic Guitar-Tab,,John Petrucci,2000,,"Alfred Publishing Co., Inc.",,172,0,English,22,,,"0769296521,9780769296524",,,,,,,,,OL8067217M,,0,,,,,1,,1,6093747,pdf,411345AE8D6D9ACBF73DB8CD54B05646,,,"411345ae8d6d9acbf73db8cd54b05646~0769296521,9780769296524.pdf",0,2000-01-01 01:00:00,2016-04-03 02:51:08,388000/411345ae8d6d9acbf73db8cd54b05646-d.jpg,,
21682001,"SAP für Java-Entwickler: Konzepte, Schnittstellen, Technologien ",,,,Till Jeske,2005,Xpert.press ,Springer,,278,0,English,92,,,"3540237879,9783540237877,9783540288923",,,,,,,,,OL12773401M,,0,,,,,1,,1,2495995,pdf,411346AB24ED7F63EF29B74B91A0C3B0,,,"411346ab24ed7f63ef29b74b91a0c3b0~3540237879,9783540237877,9783540288923.pdf",0,2000-01-01 01:00:00,2016-04-03 02:51:08,388000/411346ab24ed7f63ef29b74b91a0c3b0-d.jpg,,
21682002,The Earth Inside and Out: Some Major Contributions to Geology in the Twentieth Century ,,Geological Society Special Publication Number 192 No. 192,,"D. R. Oldroyd, D. R. Oldroyd",2003,,Geological Society of London,,368,0,English,38,,,"1862390967,9781862390966,9781423711568",,,,,551.0904,QE11 .E25 2002,,,OL3645756M,,0,,,,,1,1,1,34341026,pdf,411387E471275218EEBC5E013E25EEAA,,,"411387e471275218eebc5e013e25eeaa~1862390967,9781862390966,9781423711568.pdf",0,2000-01-01 01:00:00,2016-04-03 02:51:08,388000/411387e471275218eebc5e013e25eeaa-d.jpg,,
21682003,Effective Behaviour Management in the Primary Classroom,,,,"Fiona Shelton, Simon Brownhill",2008,1,Open University Press,,184,0,English,6,,,"9780335225415,0335225411,0335225403,9780335225408",,,,,,,,,,,0,,,,,1,1,1,27257658,pdf,411462A8896F063D44B4118EFC76FDBD,,,"411462a8896f063d44b4118efc76fdbd~9780335225415,0335225411,0335225403,9780335225408.pdf",0,2000-01-01 01:00:00,2016-04-03 02:51:08,388000/411462a8896f063d44b4118efc76fdbd-d.jpg,,
21682004,"Integrating Health Promotion and Mental Health: An Introduction to Policies, Principles, and Practices",,,,Vikki L. Vandiver,2008,1,"Oxford University Press, USA",,417,0,English,,,,"0195167724,9780195167726,9780199721702",,,,,362.1,RA790 .V343 2009,,,OL10133576M,,0,,,,0,0,1,1,2262483,pdf,411854C3516B762CBCF0C3D2794A5092,,,"411854c3516b762cbcf0c3d2794a5092~0195167724,9780195167726,9780199721702.pdf",0,2000-01-01 01:00:00,2016-04-03 02:51:08,388000/411854c3516b762cbcf0c3d2794a5092-d.jpg,,
21682005,The Teacher's Survival Guide: Real Classroom Dilemmas and Practical Solutions,,,,Marc R. Major,2008,,Rowman & Littlefield Education,,360,0,English,,,,"1578868165,9781578868162,1578868157,9781578868155",,,,,371.1,LB1025.3 .M3364 2008,,,OL16523964M,,0,,,,,1,,1,1893792,pdf,411905BBB79B66D2C73DD344D0F807FE,,,"411905bbb79b66d2c73dd344d0f807fe~1578868165,9781578868162,1578868157,9781578868155.pdf",0,2000-01-01 01:00:00,2016-04-03 02:51:08,388000/411905bbb79b66d2c73dd344d0f807fe-d.jpg,,
21682006,Venom,,,,Dorothy Horsfield,2007,,University of Hawaii Press,,312,0,English,,,,"1740761790,9781740761796,9781740762113",,,,,,,,,OL12559440M,,0,,,,,1,,1,655692,pdf,411995D290F951C18C1EF3CBF352E9ED,,,"411995d290f951c18c1ef3cbf352e9ed~1740761790,9781740761796,9781740762113.pdf",0,2000-01-01 01:00:00,2016-04-03 02:51:08,388000/411995d290f951c18c1ef3cbf352e9ed-g.jpg,,
21682007,"Health Promotion: Philosophy, Prejudice and Practice",,,,Dr. David Seedhouse,2004,2,Wiley,,320,0,English,195,,,"0470847336,9780470847336,9780470091555",,,,,613/.01,RA427.8 .S44 2004,,,OL3689565M,,0,,,,,,,1,3528214,pdf,412149A2B026B922155E3290CBDA6EB0,,,"412149a2b026b922155e3290cbda6eb0~0470847336,9780470847336,9780470091555.pdf",0,2000-01-01 01:00:00,2016-04-03 02:51:08,388000/412149a2b026b922155e3290cbda6eb0-d.jpg,,
21682008,The Yoruba Diaspora In The Atlantic World,,,,"Toyin Falola, Matt D. Childs",2005,,Indiana University Press,,472,0,English,,,,"0253217164,9780253217165,9780253003010",,,,,970/.00496333,E29.Y67 Y67 2004,,,OL22621385M,,0,,,,,1,1,1,4977323,pdf,412203C2897B8D96AF8193C6FEB0ED91,,,"412203c2897b8d96af8193c6feb0ed91~0253217164,9780253217165,9780253003010.pdf",0,2000-01-01 01:00:00,2016-04-03 02:51:08,388000/412203c2897b8d96af8193c6feb0ed91-d.jpg,,
21682009,"High Tech, High Touch: Library Customer Service Through Technology",,,,"Lynn Jurewicz, Todd Cutler",2003,,American Library Association,,142,0,English,,,,"9780838908600,9780838998526,0838908608",,,,,025.5/24,Z674.75.I58 J87 2003,,,OL3674929M,,0,,,,,,1,1,1249060,pdf,412208C535EF100327A1BA98995884E1,,,"412208c535ef100327a1ba98995884e1~9780838908600,9780838998526,0838908608.pdf",0,2000-01-01 01:00:00,2016-04-03 02:51:08,388000/412208c535ef100327a1ba98995884e1-d.jpg,,
21682010,Brandjam: Humanizing Brands Through Emotional Design.,,,,Marc Gobe,2007,1,Allworth Press,,288,0,English,,,,"1581154682,9781581154689,9781581156225",,,,,,,,,OL17228481M,,0,,,,,1,,1,6448940,pdf,412323C3AB211E9392DFC30CA509A9C7,,,"412323c3ab211e9392dfc30ca509a9c7~1581154682,9781581154689,9781581156225.pdf",0,2000-01-01 01:00:00,2016-04-03 02:51:08,388000/412323c3ab211e9392dfc30ca509a9c7-d.jpg,,
21682011,"Joomla! Template Design: Create your own professional-quality templates with this fast, friendly guide: A complete guide for web designers to all ... Joomla! 1.0.8 PHP Content Management System",,,,Tessa Blakeley Silver,2007,,Packt Publishing,,232,0,English,100,,,"1847191444,9781847191441",,,,,,,,,OL9799745M,,0,,,,,1,,1,8432987,pdf,412498F5E9EE691AD3D171C35A2B2618,,,"412498f5e9ee691ad3d171c35a2b2618~1847191444,9781847191441.pdf",0,2000-01-01 01:00:00,2016-04-03 02:51:08,388000/412498f5e9ee691ad3d171c35a2b2618-d.jpg,,
21682012,Decisions and Elections: Explaining the Unexpected,,,,Donald G. Saari,2001,,Cambridge University Press,,254,0,English,117,,,"0521808162,9780521808163",,,,,658.4/03,HB846.8 .S25 2001,,,OL3947712M,,0,,,,,,,1,6269276,pdf,413136E0B249D042E5A123B5CA9A98F6,,,"413136e0b249d042e5a123b5ca9a98f6~0521808162,9780521808163.pdf",0,2000-01-01 01:00:00,2016-04-03 02:51:08,388000/413136e0b249d042e5a123b5ca9a98f6-d.jpg,,
21682013,Remembering the Early Modern Voyage: English Narratives in the Age of European Expansion ,,Early Modern Cultural Studies,,Mary C. Fuller,2008,,Palgrave Macmillan,,261,0,English,314,,,"0230603254,9780230603257",,,,,,,,,OL10194809M,,0,,,,,,1,1,1974427,pdf,413582C184BE352A70E45736030359C4,,,"413582c184be352a70e45736030359c4~0230603254,9780230603257.pdf",0,2000-01-01 01:00:00,2016-04-03 02:51:08,388000/413582c184be352a70e45736030359c4-d.jpg,,
21682014,WEE MALKIE Large Print,,,,Frances Mary Hendry,2007,,Pollinger in Print,,240,0,English,,,,"1905665199,9781905665198,9781429494489",,,,,,,,,OL8776696M,,0,,,,,1,,1,455723,pdf,413604FDB218D8F177D082411D210756,,,"413604fdb218d8f177d082411d210756~1905665199,9781905665198,9781429494489.pdf",0,2000-01-01 01:00:00,2016-04-03 02:51:08,388000/413604fdb218d8f177d082411d210756-d.jpg,,
21682015,Multiprotocol Network Design and Troubleshooting,,,,Chris Brenton,1997,1st,Sybex,,821,0,English,99,,,"0782120822,9780782120820",,,,,004.6/2,TK5105.55 .B74 1997,,,OL706782M,,0,,,,,1,,1,18977261,pdf,413751CD3D88DEFAAF35285A97405383,,,"413751cd3d88defaaf35285a97405383~0782120822,9780782120820.pdf",0,2000-01-01 01:00:00,2016-04-03 02:51:08,388000/413751cd3d88defaaf35285a97405383-d.jpg,,
21682016,"Atlanta and Environs: A Chronicle of Its People and Events : Years of Change and Challenge, 1940-1976",,,,"Franklin M. Garrett, Harold H. Martin",1987,,University of Georgia Press,,632,0,English,,,,"0820309133,9780820309132",,,,,975.8231,F294.A8 G3,,,OL16247996M,,0,,,,,,1,1,31874147,pdf,413867B8BF6F859E6352D0C0B561B954,,,"413867b8bf6f859e6352d0c0b561b954~0820309133,9780820309132.pdf",0,2000-01-01 01:00:00,2016-04-03 02:51:08,388000/413867b8bf6f859e6352d0c0b561b954-d.jpg,,
21682017,"Time & Matter: Proceedings of the International Colloquium on the Science of Time, Venice, Italy, 11-17 August 2002",,,,"I. I. Bigi, Martin Faessler",2006,,World Scientific Publishing Company,,336,0,English,181,,,"9812566341,9789812566348,9789812774392",,,,,,,,,OL13169517M,,0,,,,,1,,1,18016251,pdf,415019EDD4F211AC1046A442CDF5200C,,,"415019edd4f211ac1046a442cdf5200c~9812566341,9789812566348,9789812774392.pdf",0,2000-01-01 01:00:00,2016-04-03 02:51:08,388000/415019edd4f211ac1046a442cdf5200c-d.jpg,,
21682018,Water and Wastewater System Analysis,,Developments in Water Science 34,,David Stephenson (Eds.),1988,,Elsevier Science Ltd,,"ii-v, 1-221",0,English,213,,,"044442945X,9780444429452,9780080870250",0167-5648,,,,333.91,TD370 .S74 1988,,,OL2528217M,,0,,,,,1,,1,2755662,pdf,415577D357F86A44BB4008F2768E9E1F,,,"415577d357f86a44bb4008f2768e9e1f~044442945X,9780444429452,9780080870250.pdf",0,2000-01-01 01:00:00,2016-04-03 02:51:08,388000/415577d357f86a44bb4008f2768e9e1f-d.jpg,,
21682019,US Foreign Policy After the Cold War: Global Hegemon or Reluctant Sheriff?,,,,Fraser Cameron,2005,2,Routledge,,256,0,English,,,,"0415358647,9780415358644,9780203006573",,,,,327.73/009/049,E840 .C345 2005,,,OL22716192M,,0,,,,,1,1,1,1491017,pdf,415758B653A4A412F5183365A7AA89F2,,,"415758b653a4a412f5183365a7aa89f2~0415358647,9780415358644,9780203006573.pdf",0,2000-01-01 01:00:00,2016-04-03 02:51:08,388000/415758b653a4a412f5183365a7aa89f2-d.jpg,,
21682020,Explaining in the Primary School ,,Successful Teaching Series,,"Ted Wragg, George A Brown",2001,2,Routledge,,96,0,English,,,,"0415249554,9780415249553,9780203450154",,,,,,,,,OL17024384M,,0,,,,,1,1,1,3954629,pdf,416064A92D2C4B3B43635522213236B7,,,"416064a92d2c4b3b43635522213236b7~0415249554,9780415249553,9780203450154.pdf",0,2000-01-01 01:00:00,2016-04-03 02:51:08,388000/416064a92d2c4b3b43635522213236b7-d.jpg,,
21682021,The Russian Province After Communism: Enterprise Continuity and Change,,,,"Vincent Edwards, Gennady Polonsky, Avgust Polonsky",1999,,Palgrave Macmillan,,216,0,English,79,,,"0333734106,9780333734100,9780333983232",,,,,330.94747086,,,,OL22612830M,,0,,,,1,0,1,1,738622,pdf,416156F2A8DBFEC985FB12D6DD0102D2,,,"416156f2a8dbfec985fb12d6dd0102d2~0333734106,9780333734100,9780333983232.pdf",0,2000-01-01 01:00:00,2016-04-03 02:51:08,388000/416156f2a8dbfec985fb12d6dd0102d2-g.jpg,,
21682022,Relationship Marketing in Professional Services: A Study of Agency-Client Dynamics in the Advertising Sector ,,Routledge Advances in Management and Business Studies,,Aino Halinen,1996,1,Routledge,,392,0,English,5,,,"9780415146074,0415146070,0203025512,6610332061,9786610332069,9780203025512",,,,,659.1/068/8,HF5415.55 .H35 1997,,,OL7484164M,,0,,,,,1,1,1,2351495,pdf,416326D143E4DBCB1E690BC2077FB13B,,,"416326d143e4dbcb1e690bc2077fb13b~9780415146074,0415146070,0203025512,6610332061,9786610332069,9780203025512.pdf",0,2000-01-01 01:00:00,2016-04-03 02:51:08,388000/416326d143e4dbcb1e690bc2077fb13b-d.jpg,,
21682023,Flexibility and Stability in the Innovating Economy,,,,"Maureen McKelvey, Magnus Holmén",2006,,"Oxford University Press, USA",,320,0,English,,,,"0199290474,9780199290475,9781435624054",,,,,338/.064,HC79.T4 F584 2006,,,OL22728618M,,0,,,,,1,1,1,2158778,pdf,416564C021FBF89E786E6C08D12C82BC,,,"416564c021fbf89e786e6c08d12c82bc~0199290474,9780199290475,9781435624054.pdf",0,2000-01-01 01:00:00,2016-04-03 02:51:08,388000/416564c021fbf89e786e6c08d12c82bc-d.jpg,,
21682024,Isaac Israeli: A Neoplatonic Philosopher of the Early Tenth Century,,,,"Isaac Israeli, Alexander Altmann, Samuel M. Stern, Alfred L. Ivry",2009,,University Of Chicago Press,,256,0,English,195,,,"0226016137,9780226016139",,,,,181/.06,B759.I82 E5 2009,,,OL23197891M,,0,,,,,,1,1,13019582,pdf,416568D5EB7E6E2B9563D918D3601FBE,,,"416568d5eb7e6e2b9563d918d3601fbe~0226016137,9780226016139.pdf",0,2000-01-01 01:00:00,2016-04-03 02:51:08,388000/416568d5eb7e6e2b9563d918d3601fbe-d.jpg,,
21682025,Surface Impedance Boundary Conditions: A Comprehensive Approach,,,,"Sergey V. Yuferev, Nathan Ida",2009,1,CRC Press,,410,0,English,,,,"1420044893,9781420044898",,,,,537.6/2,QC665.S3 Y84 2010,,,OL11816463M,,0,,,,,1,,1,4988850,pdf,416964E40A03365B8D823CC26E60B88C,,,"416964e40a03365b8d823cc26e60b88c~1420044893,9781420044898.pdf",0,2000-01-01 01:00:00,2016-04-03 02:51:08,388000/416964e40a03365b8d823cc26e60b88c-d.jpg,,
21682026,WarCraft: Of Blood and Honor,,,,Chris Metzen,2001,,Pocket Books,,53,0,English,,,,"0743418972,9780743418973",,,,,,,,,,,0,,,,,,,1,159119,pdf,417091E917E3AC6D26DBA02D9F1630DC,,,"417091e917e3ac6d26dba02d9f1630dc~0743418972,9780743418973.pdf",0,2000-01-01 01:00:00,2016-04-03 02:51:08,388000/417091e917e3ac6d26dba02d9f1630dc-d.jpg,,
21682027,Sports in America 1900 - 1919,,,,"James, Jr. Buckley, John Walters, Larry Keith",2010,2,Chelsea House Publications,,112,0,English,,,,"1604134488,9781604134483,1438128118,9781438128115",,,,,796.097309041,GV581 .B83 2010,,,OL23223429M,,0,,,,,,1,1,8371361,pdf,417217EFC5FA36E3BA033DB73AB88475,,,"417217efc5fa36e3ba033db73ab88475~1604134488,9781604134483,1438128118,9781438128115.pdf",0,2000-01-01 01:00:00,2016-04-03 02:51:08,388000/417217efc5fa36e3ba033db73ab88475-d.jpg,,
21682028,SME Cluster Development: A Dynamic View of Survival Clusters in Developing Countries,,,,Mario Davide Parrilli,2007,First Edition,Palgrave Macmillan,,224,0,English,,,,"023000797X,9780230007970,9780230801509",,,,,,,,,OL10194011M,,0,,,,1,0,,1,537887,pdf,417337ED0CE9F6BEE5910E124653F003,,,"417337ed0ce9f6bee5910e124653f003~023000797X,9780230007970,9780230801509.pdf",0,2000-01-01 01:00:00,2016-04-03 02:51:08,388000/417337ed0ce9f6bee5910e124653f003-d.jpg,,
21682029,"A History of the Abbey of Bury St Edmunds, 1182-1256: Samson of Tottington to Edmund of Walpole ",,Studies in the History of Medieval Religion,,Antonia Gransden,2007,,Boydell Press,,398,0,English,64,,,"1843833247,9781843833246",,,,,,,,,OL11906970M,,0,,,,,1,,1,2473965,pdf,417420BF7B508A36AAF5B338BB23A3BC,,,"417420bf7b508a36aaf5b338bb23a3bc~1843833247,9781843833246.pdf",0,2000-01-01 01:00:00,2016-04-03 02:51:08,388000/417420bf7b508a36aaf5b338bb23a3bc-d.jpg,,
21682030,Groundwork: Local Black Freedom Movements in America,,,,"Komozi Woodard, Charles Payne, Jeanne Theoharis",2005,,NYU Press,,344,0,English,189,,,"081478285X,9780814782859,9781435600447",,,,,,,,,OL17144599M,,0,,,,,1,,1,1644174,pdf,417519F4769E6213E8E4C4DAA75AB9C5,,,"417519f4769e6213e8e4c4daa75ab9c5~081478285X,9780814782859,9781435600447.pdf",0,2000-01-01 01:00:00,2016-04-03 02:51:08,388000/417519f4769e6213e8e4c4daa75ab9c5-d.jpg,,
21682031,City of the Dead ,,Resident Evil 3,,S.D. Perry,1999,,Pocket,,352,0,English,,,,"0671024418,9780671024413",,,,,,,,,OL3667472M,,0,,,,,,1,1,955146,pdf,417730DE7CE68D45727E7E780B4E8682,,,"417730de7ce68d45727e7e780b4e8682~0671024418,9780671024413.pdf",0,2000-01-01 01:00:00,2016-04-03 02:51:08,388000/417730de7ce68d45727e7e780b4e8682-d.jpg,,
21682032,Catastrophe: Risk and Response,,,,Richard A. Posner,2004,,"Oxford University Press, USA",,336,0,English,305,,,"0195178130,9781423721895,9780195178135",,,,,,,,,OL7391373M,,0,,,,,1,1,1,1097505,pdf,417948FF9BE30BA9D6BA1EC66302CFA3,,,"417948ff9be30ba9d6ba1ec66302cfa3~0195178130,9781423721895,9780195178135.pdf",0,2000-01-01 01:00:00,2016-04-03 02:51:08,388000/417948ff9be30ba9d6ba1ec66302cfa3-d.jpg,,
21682033,The Semantics of Generics in Dutch and Related Languages ,,Linguistik Aktuell / Linguistics Today,,Albert Oosterhof,2008,,John Benjamins Publishing Co,,286,0,English,314,,,"9789027255051,9027255059,9789027290731",,,,,439.3101/43,PF585 .O67 2008,,,OL16444506M,,0,,,,,1,1,1,3014972,pdf,418284D5207E3EADB6E9EE1CC79FF60A,,,"418284d5207e3eadb6e9ee1cc79ff60a~9789027255051,9027255059,9789027290731.pdf",0,2000-01-01 01:00:00,2016-04-03 02:51:08,388000/418284d5207e3eadb6e9ee1cc79ff60a-d.jpg,,
21682034,Ecce Homo: How One Becomes What One Is ,,Oxford World's Classics,,"Friedrich Nietzsche, Duncan Large",2007,,"Oxford University Press, USA",,160,0,English,195,,,"019283228X,9780192832283,9780191517792",,,,,193,B3316.N54 A3413 2007,,,OL17173942M,,0,,,,,1,1,1,1017481,pdf,419136A76A245B7D0032F65AD5D19940,,,"419136a76a245b7d0032f65ad5d19940~019283228X,9780192832283,9780191517792.pdf",0,2000-01-01 01:00:00,2016-04-03 02:51:08,388000/419136a76a245b7d0032f65ad5d19940-g.jpg,,
21682035,"Sleep Needs, Patterns and Difficulties of Adolescents: Summary of a Workshop",,,,"Forum on Adolescence, Youth, and Families Board on Children, National Research Council, Institute of Medicine, Mary G. Graham",2000,,National Academies Press,,64,0,English,185,,,"0309071771,9780309071772,9780309513937",,,,,612.8/21/0835,QP425 .S676 2000,,,OL10358324M,,0,,,,,1,,1,273561,pdf,419627C658726DC6B9E22D4F7006FE0D,,,"419627c658726dc6b9e22d4f7006fe0d~0309071771,9780309071772,9780309513937.pdf",0,2000-01-01 01:00:00,2016-04-03 02:51:08,388000/419627c658726dc6b9e22d4f7006fe0d-d.jpg,,
21682036,Mythe et justice dans la pensée grecque,,,,"Stamatios Tzitzis, Maria Protopapas-Marneli, Bjarne Melkevik",2009,,PU Laval,,359,0,French,,,0,"2763787673,9782763787671",,,,,,,,,,,0,,,,1,0,1,1,1883595,pdf,419812FCE5D4C44BB24078928B2C32DB,,,"419812fce5d4c44bb24078928b2c32db~2763787673,9782763787671.pdf",0,2000-01-01 01:00:00,2016-04-03 02:51:08,388000/419812fce5d4c44bb24078928b2c32db-d.jpg,,
21682037,Sacrifice: Its Nature and Functions,,,,"Henri Hubert, Marcel Mauss, W. D. Halls",1981,New edition,University Of Chicago Press,,171,0,English,181,,,"0226356795,9780226356792",,,,,291.3/4,BL570,,,OL21194467M,,300,,,,0,1,1,1,1120928,djvu,419861CFC50C54E14FDC44312D2DB2B8,,,"419861cfc50c54e14fdc44312d2db2b8~0226356795,9780226356792.djvu",0,2000-01-01 01:00:00,2016-04-03 02:51:08,388000/419861cfc50c54e14fdc44312d2db2b8-d.jpg,,
21682038,The Secret Sharer ,,,,Joseph Conrad,2006,Webster's Chinese-Traditional Thesaurus Edition ,"ICON Group International, Inc.",,64,0,English,,,,"0497901552,9780497901554,9781429409773",,,,,,,,,OL9686219M,,0,,,,,1,,1,842140,pdf,419930A79FAD8C02AF63374CF4CD1B0E,,,"419930a79fad8c02af63374cf4cd1b0e~0497901552,9780497901554,9781429409773.pdf",0,2000-01-01 01:00:00,2016-04-03 02:51:08,388000/419930a79fad8c02af63374cf4cd1b0e-d.jpg,,
21682039,High Probability trading,,,,Marcel Link,2003,1,McGraw-Hill,,288,0,English,119,,,"0071381562,9780071381567,9780071429016",,,,,,,10.1036/0071429018,,OL24292725M,,0,,,,,,,1,1517379,pdf,419944BB55DAEAA9CDDF4C4EABDF8F66,,,"419944bb55daeaa9cddf4c4eabdf8f66~0071381562,9780071381567,9780071429016.pdf",0,2000-01-01 01:00:00,2016-04-03 02:51:08,388000/419944bb55daeaa9cddf4c4eabdf8f66-d.jpg,,
21682040,"King Henry VI, Part II ",,,,William Shakespeare,2006,Webster's German Thesaurus Edition ,"ICON Group International, Inc.",,182,0,English,314,,,"0497258536,9780497258535,9781423777243",,,,,,,,,OL10370485M,,0,,,,,1,,1,1387888,pdf,419957EE04BC556AC70BC425F1662626,,,"419957ee04bc556ac70bc425f1662626~0497258536,9780497258535,9781423777243.pdf",0,2000-01-01 01:00:00,2016-04-03 02:51:08,388000/419957ee04bc556ac70bc425f1662626-d.jpg,,
21682041,"How to Prepare for the GRE with CD-ROM , Barron's How to Prepare for the Gre Graduate Record Examination ",,,,"Sharon Weiner Green, Ira Wolf Ph.D.",2008,16,Barron's Educational Series,,537,0,English,183,,,"0764178784,9780764178788",,,,,378.1/662,LB2367.4 .G747 2005b,,,OL3479234M,,0,,,,0,1,,0,7888012,pdf,420512ED53E272410735F5513BCD3393,,,"420512ed53e272410735f5513bcd3393~0764178784,9780764178788.pdf",0,2000-01-01 01:00:00,2016-04-03 02:51:08,388000/420512ed53e272410735f5513bcd3393-d.jpg,,
21682042,"Mastery of Anxiety and Panic for Adolescents Riding the Wave, Therapist Guide ",,Programs That Work,,"Donna B Pincus, Jill T Ehrenreich, Sara G Mattis",2008,1,"Oxford University Press, USA",,176,0,English,172,,,"0195335805,9780195335804,9781435657328",,,,,616.85/223,RC535 .P56 2008,,,OL16811530M,,0,,,,,1,,1,621692,pdf,420581E033BAA99799ADC3CBD8C1DE0D,,,"420581e033baa99799adc3cbd8c1de0d~0195335805,9780195335804,9781435657328.pdf",0,2000-01-01 01:00:00,2016-04-03 02:51:08,388000/420581e033baa99799adc3cbd8c1de0d-d.jpg,,
21682043,Relation Algebras by Games,,Studies in Logic and the Foundations of Mathematics 147,,"R. Hirsch, I. Hodkinson",2002,1,North Holland,,710,0,English,114,,,"0444509321,9780444509321,9780080540450",0049-237X,,,,511/.3,QA10 .H57 2002,,,OL3561279M,,0,,,,,1,,1,29044854,pdf,420623B671780BBF3A2FF2B45380AA93,,,"420623b671780bbf3a2ff2b45380aa93~0444509321,9780444509321,9780080540450.pdf",0,2000-01-01 01:00:00,2016-04-03 02:51:08,388000/420623b671780bbf3a2ff2b45380aa93-d.jpg,,
21682044,Mafalda 1 ,,,,"Quino (Joaquin Salvador Lavado), Quino, Quino",2010,Spanish,De la Flor,,128,0,Spanish,,,,"9505156014,9789505156016",,,,,,,,,OL9137837M,,0,,,,,,1,0,7617911,pdf,421296AD6265B5444F8DE4A52FB6A21E,,,"421296ad6265b5444f8de4a52fb6a21e~9505156014,9789505156016.pdf",0,2000-01-01 01:00:00,2016-04-03 02:51:08,388000/421296ad6265b5444f8de4a52fb6a21e-d.jpg,,
21682045,Quality Management for the Technology Sector,,,,"Joseph Berk Joe Berk is a consultant working in the field of quality management and especially in the technology  military and munitions sectors., Susan Berk",2000,,Butterworth-Heinemann,,304,0,English,67,,,"0750673168,9780750673167,9780080515519",,,,,,,,,OL15307233M,,0,,,,,1,,1,16072854,pdf,421330B960FC7A8D789BDC4B1AB26815,,,"421330b960fc7a8d789bdc4b1ab26815~0750673168,9780750673167,9780080515519.pdf",0,2000-01-01 01:00:00,2016-04-03 02:51:08,388000/421330b960fc7a8d789bdc4b1ab26815-d.jpg,,
21682046,Ergometrie: Belastungsuntersuchungen in Klinik und Praxis ,,,,"Herbert Löllgen, Erland Erdmann, Anselm K. Gitt",2009,3. Aufl.,Springer,,505,0,German,,,,"3540927298,9783540927297",,,,,,,,,,,0,,,,,1,1,1,5171758,pdf,421656FAC050D430DAA5781E3464095B,,,"421656fac050d430daa5781e3464095b~3540927298,9783540927297.pdf",0,2000-01-01 01:00:00,2016-04-03 02:51:08,388000/421656fac050d430daa5781e3464095b-d.jpg,,
21682047,The Oxford Guide to Practical Lexicography,,,,"B. T. Sue Atkins, Michael Rundell",2008,,"Oxford University Press, USA",,552,0,English,183,,,"9780191557217,9780199277704,9780199277711,0199277702",,,,,413.028,P327 .A88 2008,,,OL16797971M,,0,,,,,1,1,1,3182686,pdf,421711EB887FB6597F9C94970A9E526A,,,"421711eb887fb6597f9c94970a9e526a~9780191557217,9780199277704,9780199277711,0199277702.pdf",0,2000-01-01 01:00:00,2016-04-03 02:51:08,388000/421711eb887fb6597f9c94970a9e526a-d.jpg,,
21682048,Both Sides of the Border: Transboundary Environmental Management Issues Facing Mexico and the United States ,,The Economics of Non-Market Goods and Resources,,"Linda Fernandez, Richard T. Carson",2002,1,Springer,,512,0,English,6,,,"1402071264,9781402071263,9780306479618",,,,,,,,,OL18139422M,,0,,,,,1,1,1,15604136,pdf,421914BCB6644F08279DB76D60117BCB,,,"421914bcb6644f08279db76d60117bcb~1402071264,9781402071263,9780306479618.pdf",0,2000-01-01 01:00:00,2016-04-03 02:51:08,388000/421914bcb6644f08279db76d60117bcb-d.jpg,,
21682049,Germany and Austria 1814-2000: Modern History for Moden Languages ,,Modern History for Modern Languages,,Mark Allinson,2002,annotated edition,A Hodder Arnold Publication,,225,0,English,64,,,"0340760214,9780340760215,0340760222,9780340760222",,,,,943.08,DD17 .A734 2002,,,OL3658395M,,0,,,,,,1,1,3464408,pdf,421975A9E57BB6DC349A1C170A058EAC,,,"421975a9e57bb6dc349a1c170a058eac~0340760214,9780340760215,0340760222,9780340760222.pdf",0,2000-01-01 01:00:00,2016-04-03 02:51:08,388000/421975a9e57bb6dc349a1c170a058eac-d.jpg,,
21682050,Climate Trading: Development of Greenhouse Gas Markets ,,Finance and Capital Markets Series,,Debbie Stowell,2005,First Edition,Palgrave Macmillan,,263,0,English,36,,,"1403916160,9781403916167",,,,,,,,,OL8399218M,,0,,,,,,1,1,1284916,pdf,422431D1DC5C9082301181770E68F02D,,,"422431d1dc5c9082301181770e68f02d~1403916160,9781403916167.pdf",0,2000-01-01 01:00:00,2016-04-03 02:51:08,388000/422431d1dc5c9082301181770e68f02d-d.jpg,,
21682051,Racial Categorization of Multiracial Children in Schools,,Critical Studies in Education and Culture Series,,Jane A. Chiong,1998,,Praeger,,176,0,English,,,,"0897894995,9780897894999",,,,,371.829,LC3621 .C53 1998,,,OL693732M,,0,,,,,,,1,1485841,pdf,422462B2E0F4FC94794EC7A04F6C5F51,,,"422462b2e0f4fc94794ec7a04f6c5f51~0897894995,9780897894999.pdf",0,2000-01-01 01:00:00,2016-04-03 02:51:08,388000/422462b2e0f4fc94794ec7a04f6c5f51-d.jpg,,
21682052,When Demons Walk ,,Sianim,,Patricia Briggs,1998,17th Prtg,Ace,,288,0,English,,,,"0441005349,9780441005345,0606158677,9780606158671",,,,,,,,,OL7524060M,,0,,,,,1,1,1,1383207,pdf,422620AE071B90FC58803F3270EBFB60,,,"422620ae071b90fc58803f3270ebfb60~0441005349,9780441005345,0606158677,9780606158671.pdf",0,2000-01-01 01:00:00,2016-04-03 02:51:08,388000/422620ae071b90fc58803f3270ebfb60-d.jpg,,
21682053,Drugs for the Geriatric Patient,,,,Ronald I. Shorr MD  MS,2007,1 Har/Dol,Saunders,,1408,0,English,302,,,"9781416002086,1416002081",,,,,,,,,OL22760089M,,0,,,,,1,1,1,6009525,pdf,422804BAB7D8EB8BA6BD858FCE8B47B7,,,"422804bab7d8eb8ba6bd858fce8b47b7~9781416002086,1416002081.pdf",0,2000-01-01 01:00:00,2016-04-03 02:51:08,388000/422804bab7d8eb8ba6bd858fce8b47b7-d.jpg,,
21682054,Capital and Interest,,,,Eugen Von Bohm-Bawerk,2004,,Cosmo Publications,,281,0,English,,,,"8177554751,9788177554755",,,,,,,,,OL9875435M,,0,,,,,1,1,1,3705416,pdf,423185C35F072B7B9053C1BDC99F3CBD,,,"423185c35f072b7b9053c1bdc99f3cbd~8177554751,9788177554755.pdf",0,2000-01-01 01:00:00,2016-04-03 02:51:08,388000/423185c35f072b7b9053c1bdc99f3cbd-g.jpg,,
21682055,Moving Objects Databases ,,The Morgan Kaufmann Series in Data Management Systems,,"Ralf Hartmut GÃ¼ting, Markus Schneider",2005,,Morgan Kaufmann,,416,0,English,86,,,"0120887991,9780120887996,9780080470757",,,,,005.74,QA76.9.D3 G874 2005,,,OL3437282M,,0,,,,,1,,1,2759860,pdf,423731E92F163441DC5805CBC44F5AF4,,,"423731e92f163441dc5805cbc44f5af4~0120887991,9780120887996,9780080470757.pdf",0,2000-01-01 01:00:00,2016-04-03 02:51:08,388000/423731e92f163441dc5805cbc44f5af4-d.jpg,,
21682056,Historical Muscat ,,Handbook of Oriental Studies,,"Peterson, E.",2006,,BRILL,,152,0,English,64,,,"9004152660,9789004152663,9781435657854",,,,,953.53,DS247.4.M87 P48 2007,,,OL17174529M,,0,,,,,,1,1,22013831,pdf,423793A4ECB78F19FA99C17A87F5AB78,,,"423793a4ecb78f19fa99c17a87f5ab78~9004152660,9789004152663,9781435657854.pdf",0,2000-01-01 01:00:00,2016-04-03 02:51:08,388000/423793a4ecb78f19fa99c17a87f5ab78-d.jpg,,
21682057,The Ethics of Human Cloning,,,,"Leon R. Kass, James K. Wilson",1998,1st,Aei Press,,122,0,English,,,,"0844740500,9780844740508",,,,,174/.25,QH442.2 .K37 1998,,,OL358277M,,0,,,,,1,,1,206582,pdf,424214D76CE1AD8EEBC8F0AD8EAA5A08,,,"424214d76ce1ad8eebc8f0ad8eaa5a08~0844740500,9780844740508.pdf",0,2000-01-01 01:00:00,2016-04-03 02:51:08,388000/424214d76ce1ad8eebc8f0ad8eaa5a08-d.jpg,,
21682058,When a Butterfly Sneezes: A Guide for Helping Kids Explore Interconnections in Our World Through Favorite Stories ,Vol 1 ,"Systems Thinking for Kids, Big and Small",,Linda Booth Sweeney,2001,,Pegasus Communications,,128,0,English,,,,"1883823528,9781883823528",,,,,,,,,OL8700020M,,0,,,,,1,,0,36921638,pdf,424823EEB2EBE2D432AD08F3A22E68D6,,,"424823eeb2ebe2d432ad08f3a22e68d6~1883823528,9781883823528.pdf",0,2000-01-01 01:00:00,2016-04-03 02:51:08,388000/424823eeb2ebe2d432ad08f3a22e68d6-d.jpg,,
21682059,Handbook of Research on Distributed Medical Informatics and E-Health ,,Handbook of Research On...,,"Athina A. Lazakidou, Athina A. Lazakidou, Konstantinos M. Siassiakos",2008,1,Medical Information Science Reference,,600,0,English,,,,"1605660027,9781605660028,9781605660035",,,,,610.285,R119.95 .H36 2009,,,OL16753256M,,0,,,,,0,,1,8931191,pdf,425181C2764139B667EE20E7C38BBD89,,,"425181c2764139b667ee20e7c38bbd89~1605660027,9781605660028,9781605660035.pdf",0,2000-01-01 01:00:00,2016-04-03 02:51:08,388000/425181c2764139b667ee20e7c38bbd89-d.jpg,,
21682060,Education and Psychology in Interaction: Working With Uncertainty in Interconnected Fields ,,Routledge Research in Education,,Brahm Norwich,2000,1,Routledge,,272,0,English,183,,,"0415224314,9780415224314,9780203249260",,,,,,,,,OL7487264M,,0,,,,,1,1,1,893471,pdf,425213C9DCE2EE4F827E8BC6BF0B89A9,,,"425213c9dce2ee4f827e8bc6bf0b89a9~0415224314,9780415224314,9780203249260.pdf",0,2000-01-01 01:00:00,2016-04-03 02:51:08,388000/425213c9dce2ee4f827e8bc6bf0b89a9-d.jpg,,
21682061,Vers un capitalisme féminin,,,,Rafik Smati,2010,,,,135,0,French,,,0,"2212545541,9782212545548",,,,,,,,,OL24415630M,,0,,,,,1,1,1,1772816,pdf,425738CC2E6562512C66AB825B17EABD,,,"425738cc2e6562512c66ab825b17eabd~2212545541,9782212545548.pdf",0,2000-01-01 01:00:00,2016-04-03 02:51:08,388000/425738cc2e6562512c66ab825b17eabd-d.jpg,,
21682062,Soviet Policy towards South Asia since 1970 ,,"Cambridge Russian, Soviet and Post-Soviet Studies",,Linda Racioppi,1994,,Cambridge University Press,,249,0,English,,,,"0521414571,9780521055024,9780521414579,0521055024,9780511521881",,,,,327.47054,DS341.3.S65 R33 1994,,,OL1410313M,,0,,,,,0,,1,5726667,pdf,426161EC48FCE13918430B23311B6A5F,,,"426161ec48fce13918430b23311b6a5f~0521414571,9780521055024,9780521414579,0521055024,9780511521881.pdf",0,2000-01-01 01:00:00,2016-04-03 02:51:08,388000/426161ec48fce13918430b23311b6a5f-d.jpg,,
21682063,Grundbegriffe der Handlungsformen der EU: entwickelt am Beschluss als praxisgenerierter Handlungsform des Unions- und Gemeinschaftsrechts,,"Beiträge zum ausländischen öffentlichen Recht und Völkerrecht, Band 184",,Jürgen Bast,2006,,Springer Berlin Heidelberg,,485,0,German,,,0,"3540344721,978-3-540-34472-8,978-3-540-34473-5",,,,,,,,,,,0,,,,,1,1,1,14109434,pdf,426166D88D4711D9DC9E49F2C1197F18,,,"426166d88d4711d9dc9e49f2c1197f18~3540344721,9783540344728.pdf",0,2000-01-01 01:00:00,2016-04-03 02:51:08,388000/426166d88d4711d9dc9e49f2c1197f18-d.jpg,,
21682064,Post-Earthquake Rehabilitation and Reconstruction,,,,"F.Y. Cheng, Y.Y. Wang",1996,1st,Pergamon,,484,0,English,38,,,"0080428258,9780080428253,9780080539300",,,,,363.3/495,HV553 .P67 1996,,,OL988781M,,0,,,,,1,,1,28915425,pdf,426245DD46005AC1F41750370C56D9F2,,,"426245dd46005ac1f41750370c56d9f2~0080428258,9780080428253,9780080539300.pdf",0,2000-01-01 01:00:00,2016-04-03 02:51:08,388000/426245dd46005ac1f41750370c56d9f2-d.jpg,,
21682065,Rebirth and Renewal ,,Bloom's Literary Themes,,"Harold Bloom, Blake Hobby",2009,1,Chelsea House Publications,,250,0,English,,,,"0791098052,9780791098059",,,,,809/.9338,PN56.R37 R43 2009,,,OL22560860M,,0,,,,,1,1,1,971189,pdf,426380A294B230A2289ADAA0A453E037,,,"426380a294b230a2289adaa0a453e037~0791098052,9780791098059.pdf",0,2000-01-01 01:00:00,2016-04-03 02:51:08,388000/426380a294b230a2289adaa0a453e037-d.jpg,,
21682066,From Prague to Paris: A Critique of Structuralist and Post-Structuralist Thought,,,,J. G. Merquior,1987,,Verso Books,,296,0,English,,,,"9780860918608,0860918602",,,,,149/.96,B841.4 .M47 1986,,,OL2326467M,,0,,,,,1,,0,45274676,pdf,426470DFC9C185ED4EC745AB502B2628,,,"426470dfc9c185ed4ec745ab502b2628~9780860918608,0860918602.pdf",0,2000-01-01 01:00:00,2016-04-03 02:51:08,388000/426470dfc9c185ed4ec745ab502b2628-d.jpg,,
21682067,German Bombers of WWI in action,,Aircraft No. 173,,"Peter Cooksley, Ernesto Cumpian, Don Greer",2000,1st,Squadron/Signal Publications,,50,0,English,,,,"9780897474160,0897474163",,,,,,,,,OL8266908M,,0,,,,,1,1,0,8444664,djvu,426539F71E7F3455BC22392C9CEAC15A,,,"426539f71e7f3455bc22392c9ceac15a~9780897474160,0897474163.djvu",0,2000-01-01 01:00:00,2016-04-03 02:51:08,388000/426539f71e7f3455bc22392c9ceac15a-d.jpg,,
21682068,Global Trends in Sustainable Energy Investment 2008: Analysis of Trends and Issues in the Financing of Renewable Energy and Energy Efficiency,,,,United Nations,2009,,United Nations,,68,0,English,305,,,"928072939X,9789280729399",,,,,,,,,,,0,,,,,,1,1,2436619,pdf,426603B6A695928E49FCA43ED99CEAB1,,,"426603b6a695928e49fca43ed99ceab1~928072939X,9789280729399.pdf",0,2000-01-01 01:00:00,2016-04-03 02:51:08,388000/426603b6a695928e49fca43ed99ceab1-d.jpg,,
21682069,The Evolution of the Euclidean Elements: A Study of the Theory of Incommensurable Magnitudes and its Significance for Early Greek Geometry ,,Synthese Historical Library,,W.R. Knorr,1974,1,Springer,,385,0,English,121,,,"9027705097,9789027705099",,,,,516/.2,QA31 .K59,,,OL5192074M,,0,,,,,,,1,16802570,pdf,426734C605342D2A095E14F8B4D1BF51,,,"426734c605342d2a095e14f8b4d1bf51~9027705097,9789027705099.pdf",0,2000-01-01 01:00:00,2016-04-03 02:51:08,388000/426734c605342d2a095e14f8b4d1bf51-d.jpg,,
21682070,Laser Capture in Microscopy and Microdissection,,Methods in Enzymology 356,,P. Michael Conn,2002,1,Academic Press,,395,0,English,264,,,"9780080497013,9780121822590,0121822591",0076-6879,,,,,,,,OL18179250M,,0,,,,0,0,,1,24605953,pdf,426761EF3160C04564E9DA4FD601C40E,,,"426761ef3160c04564e9da4fd601c40e~9780080497013,9780121822590,0121822591.pdf",0,2000-01-01 01:00:00,2016-04-03 02:51:08,388000/426761ef3160c04564e9da4fd601c40e-d.jpg,,
21682071,The Gilded Age: A History in Documents ,,Pages from History,,Janette Thomas Greenwood,2003,,"Oxford University Press, USA",,192,0,English,64,,,"0195166388,9780195166385,9781423775256",,,,,,,,,OL7390718M,,0,,,,,1,,1,20776811,pdf,426936FB39FFB5DD4F6FD3D4AD4FBDE3,,,"426936fb39ffb5dd4f6fd3d4ad4fbde3~0195166388,9780195166385,9781423775256.pdf",0,2000-01-01 01:00:00,2016-04-03 02:51:08,388000/426936fb39ffb5dd4f6fd3d4ad4fbde3-d.jpg,,
21682072,"George Herbert Mead: Self, Language and the World",,,,David L. Miller,1973,,University of Texas Press,,318,0,English,,,,"0292727003,9780292727007",,,,,191,B945.M464 M53 1973,,,OL5284414M,,0,,,,,,1,1,951869,pdf,426975DB40DEBC984BE2CB4A557B909D,,,"426975db40debc984be2cb4a557b909d~0292727003,9780292727007.pdf",0,2000-01-01 01:00:00,2016-04-03 02:51:08,388000/426975db40debc984be2cb4a557b909d-g.jpg,,
21682073,"Bactrim - A Medical Dictionary, Bibliography, and Annotated Research Guide to Internet References",,,,ICON Health Publications,2004,,ICON Health Publications,,80,0,English,100,,,"0597843465,9780597843464,9781417512652",,,,,,,,,OL7582766M,,0,,,,,,,1,860922,pdf,427550B6122A23A90FB0AE31AF93FAC6,,,"427550b6122a23a90fb0ae31af93fac6~0597843465,9780597843464,9781417512652.pdf",0,2000-01-01 01:00:00,2016-04-03 02:51:08,388000/427550b6122a23a90fb0ae31af93fac6-d.jpg,,
21682074,Discourse Function & Syntactic Form in Natural Language Generation ,,Outstanding Dissertations in Linguistics,,Cassandre Creswell,2004,annotated edition,Routledge,,200,0,English,314,,,"0415971047,9780415971041,9780203487129",,,,,410/.285,P98 .C74 2004,,,OL22607764M,,0,,,,,1,1,1,1818162,pdf,427931F175863515F7954FAA0E6BCED4,,,"427931f175863515f7954faa0e6bced4~0415971047,9780415971041,9780203487129.pdf",0,2000-01-01 01:00:00,2016-04-03 02:51:08,388000/427931f175863515f7954faa0e6bced4-d.jpg,,
21682075,Remembering the Kanji: A Systematic Guide to Reading Japanese Characters ,Vol. 2,,,James W. Heisig,2008,,University of Hawaii Press,,397,0,English,10,,,"0824831667,9780824831660,9781435666641",,,,,,,,,OL11450484M,,0,,,,,1,,1,4222402,pdf,428378D281610ADBB76BCEAF8159AC70,,,"428378d281610adbb76bceaf8159ac70~0824831667,9780824831660,9781435666641.pdf",0,2000-01-01 01:00:00,2016-04-03 02:51:08,388000/428378d281610adbb76bceaf8159ac70-d.jpg,,
21682076,Marine Structural Design,,,,Yong Bai,2003,1,Elsevier Science,,626,0,English,210,,,"0080439217,9780080439211,9780080535838",,,,,,,,,OL9588172M,,0,,,,,1,,1,27789124,pdf,428966BD7BD53F4B2CA16BF937ABADB6,,,"428966bd7bd53f4b2ca16bf937abadb6~0080439217,9780080439211,9780080535838.pdf",0,2000-01-01 01:00:00,2016-04-03 02:51:08,388000/428966bd7bd53f4b2ca16bf937abadb6-d.jpg,,
21682077,"Oecd Economic Surveys By Country, 2003-2004: Poland",,,,Organization for Economic Cooperation &,2004,,Organization for Economic Cooperation & Devel,,132,0,English,289,,,"9264016082,9789264016088",,,,,,,,,OL12900746M,,0,,,,,1,1,1,1182444,pdf,429343D4D0E84FF49D658B61B0928AC0,,,"429343d4d0e84ff49d658b61b0928ac0~9264016082,9789264016088.pdf",0,2000-01-01 01:00:00,2016-04-03 02:51:08,388000/429343d4d0e84ff49d658b61b0928ac0-g.jpg,,
21682078,Particulate Colloids,,Shifting the Focus 14,,Daniel Wedgwood,2005,,Elsevier Science,,312,0,English,,,,"0080445772,9780080445779,9780080457314",,,,,401.41,P299.F63 W438 2005,,,OL22766194M,,0,,,,,,1,1,8040753,pdf,429532A47C9AF176CF553496E2AAE530,,,"429532a47c9af176cf553496e2aae530~0080445772,9780080445779,9780080457314.pdf",0,2000-01-01 01:00:00,2016-04-03 02:51:08,388000/429532a47c9af176cf553496e2aae530-d.jpg,,
21682079,"The Hazards of Urban Life in Late Stalinist Russia: Health, Hygiene, and Living Standards, 1943-1953",,,,Donald Filtzer,2010,,Cambridge University Press,,410,0,English,37,,,"0521113733,9780521113731",,,,,363.720947/091732,HN524 .F556 2010,,,OL24011096M,,0,,,,,,,1,2632025,pdf,429587C0C6C3272A45CBB73702A7623A,,,"429587c0c6c3272a45cbb73702a7623a~0521113733,9780521113731.pdf",0,2000-01-01 01:00:00,2016-04-03 02:51:08,388000/429587c0c6c3272a45cbb73702a7623a-d.jpg,,
21682080,Cellular Organelles,,Principles of Medical Biology 2,,E.Edward Bittar and Neville Bittar (Eds.),1995,1,Elsevier Science,,1-287,0,English,115,,,"9780080531496,9781559388047,1559388048",1569-2582,,,,574.87/34,QH581.2 .C453 1995,,,OL791808M,,0,,,,,1,,1,15843823,pdf,429636C7FF70B53FACB02F2308741E56,,,"429636c7ff70b53facb02f2308741e56~9780080531496,9781559388047,1559388048.pdf",0,2000-01-01 01:00:00,2016-04-03 02:51:08,388000/429636c7ff70b53facb02f2308741e56-d.jpg,,
21682081,Interregionalism and International Relations: A Stepping Stone to Global Governance? ,,Routledge Advances in International Relations and Global Politics,,"Jürgen Rüland, Heiner Hänggi, Ralf Roloff",2005,,Routledge,,384,0,English,,,,"0415360579,9780415360579,9780203008324",,,,,327.1,JZ1320.7.I57 I57 2005,,,OL22708865M,,0,,,,,1,1,1,1407436,pdf,430045EA986177B13B00C1888FEE2E96,,,"430045ea986177b13b00c1888fee2e96~0415360579,9780415360579,9780203008324.pdf",0,2000-01-01 01:00:00,2016-04-03 02:51:08,388000/430045ea986177b13b00c1888fee2e96-d.jpg,,
21682082,"Whiteness, Otherness, and the Individualism Paradox from Huck to Punk",,,,Daniel S. Traber,2007,First Edition,Palgrave Macmillan,,216,0,English,,,,"1403976147,9781403976147",,,,,,,,,OL22750568M,,0,,,,1,0,1,1,680084,pdf,430103F769C011964DA2D9F070AF43D7,,,"430103f769c011964da2d9f070af43d7~1403976147,9781403976147.pdf",0,2000-01-01 01:00:00,2016-04-03 02:51:08,388000/430103f769c011964da2d9f070af43d7-d.jpg,,
21682083,Algebra and Trigonometry,,,,Michael Sullivan,2007,8th,Prentice Hall,,1178,0,English,114,,,"0132329034,9780132329033",,,,,512/.13,QA154.3 .S73 2008,,,OL16352379M,,0,,,,,,1,1,72332948,pdf,430112FBCB0D655419F1FA2A696A61CA,,,"430112fbcb0d655419f1fa2a696a61ca~0132329034,9780132329033.pdf",0,2000-01-01 01:00:00,2016-04-03 02:51:08,388000/430112fbcb0d655419f1fa2a696a61ca-d.jpg,,
21682084,The French Revolution and Empire: The Quest for a Civic Order,,,,Donald M. G. Sutherland,2003,,Wiley-Blackwell,,434,0,English,314,,,"0631233636,9780631233633",,,,,944.04,DC148 .S856 2003,,,OL3553371M,,0,,,,,,1,1,1607811,pdf,430257C2D3476918BBC2D9348826D50F,,,"430257c2d3476918bbc2d9348826d50f~0631233636,9780631233633.pdf",0,2000-01-01 01:00:00,2016-04-03 02:51:08,388000/430257c2d3476918bbc2d9348826d50f-d.jpg,,
21682085,Making Sense of Lung Function Tests: A Hands-On Guide ,,Arnold Publication,,"Jonathan Dakin, Elena Kourteli, Robert Winter",2003,1,A Hodder Arnold Publication,,168,0,English,,,,"0340763191,9780340763193",,,,,,,,,OL10630471M,,0,,,,,,1,1,2582904,pdf,430913E67983486DAC6F6F5A2D32A7EF,,,"430913e67983486dac6f6f5a2d32a7ef~0340763191,9780340763193.pdf",0,2000-01-01 01:00:00,2016-04-03 02:51:08,388000/430913e67983486dac6f6f5a2d32a7ef-d.jpg,,
21682086,A History of Wine in America: From Prohibition to the Present,,,,Thomas Pinney,2005,1,University of California Press,,548,0,English,64,,,"0520241762,9780520241763,9781423727590",,,,,,,,,OL7711886M,,0,,,,,1,1,1,3596138,pdf,430988D0A100C45DB597A32B2DD0BA36,,,"430988d0a100c45db597a32b2dd0ba36~0520241762,9780520241763,9781423727590.pdf",0,2000-01-01 01:00:00,2016-04-03 02:51:08,388000/430988d0a100c45db597a32b2dd0ba36-d.jpg,,
21682087,Chocolate: Food of the Gods ,,Contributions in Intercultural and Comparative Studies,,Alex Szogyi,1997,,Praeger,,240,0,English,229,,,"0313305064,9780313305061",,,,,641.3/374,TX415 .C43 1997,,,OL667057M,,0,,,,1,0,1,1,13852548,pdf,431670E87B67D97C41DD93364EDF657A,,,"431670e87b67d97c41dd93364edf657a~0313305064,9780313305061.pdf",0,2000-01-01 01:00:00,2016-04-03 02:51:08,388000/431670e87b67d97c41dd93364edf657a-d.jpg,,
21682088,Prehospital Trauma Care,,,,"Eldar Soreide, Christopher M. Grande",2001,1,Informa Healthcare,,816,0,English,,,,"0824705378,9780824705374,9780585407937",,,,,,,,,OL9772845M,,0,,,,,1,,1,11685874,pdf,431713A6A2516B18F683BC8C5010D25B,,,"431713a6a2516b18f683bc8c5010d25b~0824705378,9780824705374,9780585407937.pdf",0,2000-01-01 01:00:00,2016-04-03 02:51:08,388000/431713a6a2516b18f683bc8c5010d25b-d.jpg,,
21682089,Fundamentos de Matemática Elementar: Combinatória... - 2 Grau,,,,Samuel Hazzan,2004,7,Atual,,184,0,Portuguese,126,,,"8535704612,9788535704617",,,,,,,,,OL13403597M,,0,,,,,1,,1,3663218,pdf,431727CFCFF7684A08EC387E7596B752,,,"431727cfcff7684a08ec387e7596b752~8535704612,9788535704617.pdf",0,2000-01-01 01:00:00,2016-04-03 02:51:08,388000/431727cfcff7684a08ec387e7596b752-g.jpg,,
21682090,Queer Images: A History of Gay and Lesbian Film in America ,,Genre and Beyond,,Harry M. Benshoff,2005,,"Rowman & Littlefield Publishers, Inc.",,336,0,English,64,,,"0742519716,9780742519718,0742519724,9780742519725,9780742568570",,,,,,,,,OL23240420M,,0,,,,,,1,1,3979380,pdf,431758F5233F99160F0FA9F31D513803,,,"431758f5233f99160f0fa9f31d513803~0742519716,9780742519718,0742519724,9780742519725,9780742568570.pdf",0,2000-01-01 01:00:00,2016-04-03 02:51:08,388000/431758f5233f99160f0fa9f31d513803-d.jpg,,
21682091,Clinical Manual of Prevention in Mental Health,,,,"Michael T. Compton, Michael T. Compton",2009,1,"American Psychiatric Publishing, Inc.",,439,0,English,161,,,"1585623474,9781585623471",,,,,362.2/0425,RA790.5 .C547 2010,,,OL23631598M,,0,,,,0,0,1,1,2820646,pdf,431860F8A96D957FE0F4A72374E1BF6A,,,"431860f8a96d957fe0f4a72374e1bf6a~1585623474,9781585623471.pdf",0,2000-01-01 01:00:00,2016-04-03 02:51:08,388000/431860f8a96d957fe0f4a72374e1bf6a-d.jpg,,
21682092,"Sex Marks the Spot: 69 Racy, Risky, Amazing Places for Intimate Adventure",,,,Jennifer Hague,2009,,Sourcebooks Casablanca,,128,0,English,,,,"1402218303,9781402218309",,,,,306.77,HQ31 .H227 2009,,,OL23575910M,,0,,,,,1,1,1,7076890,pdf,431910D4732A9A9F4483A2A0AA58E94D,,,"431910d4732a9a9f4483a2a0aa58e94d~1402218303,9781402218309.pdf",0,2000-01-01 01:00:00,2016-04-03 02:51:08,388000/431910d4732a9a9f4483a2a0aa58e94d-d.jpg,,
21682093,Understanding the Small Family Business ,,Routledge Studies in Small Business,,Denise Fletcher,2002,1,Routledge,,240,0,English,1,,,"0415250536,9780415250535,9780203241431",,,,,338.642,,,,OL22031095M,,0,,,,,1,1,1,1366543,pdf,432345EEC4608D1FD950D892DC5988D2,,,"432345eec4608d1fd950d892dc5988d2~0415250536,9780415250535,9780203241431.pdf",0,2000-01-01 01:00:00,2016-04-03 02:51:08,388000/432345eec4608d1fd950d892dc5988d2-d.jpg,,
21682094,"The Rise of the Office Clerk in Literary Culture, 1880-1939",,,,Jonathan Wild,2006,,Palgrave Macmillan,,232,0,English,94,,,"1403945268,9781403945266,9780230514669",,,,,823/.809352865137,PR888.C58 W55 2005,,,OL22718314M,,0,,,,1,0,1,1,965985,pdf,432421CA759DAD1E49D1AFEA3CF95F27,,,"432421ca759dad1e49d1afea3cf95f27~1403945268,9781403945266,9780230514669.pdf",0,2000-01-01 01:00:00,2016-04-03 02:51:08,388000/432421ca759dad1e49d1afea3cf95f27-d.jpg,,
21682095,Stromatolites,,Developments in Sedimentology 20,,M.R. Walter (Eds.),1976,,Elsevier Science Ltd,,"iii-vii, 1-790",0,English,,,,"9780444413765,0444413766,9780080869322",0070-4571,,,,561/.93,QE955 .S82,,,OL4886917M,,0,,,,,,,1,56632879,pdf,432636B4FB5FFBD31F5BFE446737F09A,,,"432636b4fb5ffbd31f5bfe446737f09a~9780444413765,0444413766,9780080869322.pdf",0,2000-01-01 01:00:00,2016-04-03 02:51:08,388000/432636b4fb5ffbd31f5bfe446737f09a-d.jpg,,
21682096,"Mississippi Politics: The Struggle for Power, 1976-2008, ",,,,"Jere Nash, Andy Taggart, John Grisham",2009,2,University Press of Mississippi,,448,0,English,,,,"9781604732665,1604732660",,,,,976.2/063,F345.N373 2009,,,OL23181108M,,0,,,,,,1,1,3337176,pdf,432996A9C83B462B6311A61F87456911,,,"432996a9c83b462b6311a61f87456911~9781604732665,1604732660.pdf",0,2000-01-01 01:00:00,2016-04-03 02:51:08,388000/432996a9c83b462b6311a61f87456911-d.jpg,,
21682097,American Cinema of the 1960s: Themes and Variations ,,Screen Decades,,Barry K. Grant,2008,,Rutgers University Press,,296,0,English,65,,,"0813542189,9780813542188,9780813544717",,,,,791.430973/09046,PN1993.5.U6 A8576 2008,,,OL11349907M,,0,,,,,1,1,1,2999939,pdf,433102CB72E8790045034A4BD3F40D64,,,"433102cb72e8790045034a4bd3f40d64~0813542189,9780813542188,9780813544717.pdf",0,2000-01-01 01:00:00,2016-04-03 02:51:08,388000/433102cb72e8790045034a4bd3f40d64-d.jpg,,
21682098,Ten Stupid Things Couples Do to Mess Up Their Relationships,,,,Laura C. Schlessinger,2003,,Harper Paperbacks,,288,0,English,,,,"0060512601,9780060512606,9780060754518",,,,,,,,,OL24253977M,,0,,,,,1,,1,928606,pdf,433311E45C579AB4AC909D0EA5EA660F,,,"433311e45c579ab4ac909d0ea5ea660f~0060512601,9780060512606,9780060754518.pdf",0,2000-01-01 01:00:00,2016-04-03 02:51:08,388000/433311e45c579ab4ac909d0ea5ea660f-d.jpg,,
21682099,People - States - Territories: The Political Geographies of British State Transformation ,,RGS-IBG Book Series,,Rhys Jones,2007,,Wiley-Blackwell,,232,0,English,,,,"1405140348,9781405140348,9781405182096",,,,,,,,,OL22753467M,,0,,,,,1,,1,1353436,pdf,433700A2442E3FA08E0F6B5EC7B50C55,,,"433700a2442e3fa08e0f6b5ec7b50c55~1405140348,9781405140348,9781405182096.pdf",0,2000-01-01 01:00:00,2016-04-03 02:51:08,388000/433700a2442e3fa08e0f6b5ec7b50c55-d.jpg,,
21682100,Multiple Streams of Coaching Income,,,,Andrea J. Lee,2005,,MP Press,,325,0,English,,,,"0972894039,9780972894036",,,,,,,,,OL8579716M,,0,,,,,1,1,1,6705251,pdf,434283F1524F1A69C57354AE20CF8DC7,,,"434283f1524f1a69c57354ae20cf8dc7~0972894039,9780972894036.pdf",0,2000-01-01 01:00:00,2016-04-03 02:51:08,388000/434283f1524f1a69c57354ae20cf8dc7-d.jpg,,
21682101,EKC 2009 Proceedings of the EU-Korea Conference on Science and Technology,,Springer Proceedings in Physics 135,,"Changduk Kong (auth.), Joung Hwan Lee, Habin Lee, Jung-Sik Kim (eds.)",2010,1,Springer-Verlag Berlin Heidelberg,,315,0,English,185,,,"3642136230,9783642136238",,,,,,,10.1007/978-3-642-13624-5,,,,0,,,,,,1,1,9701036,pdf,434345CC76B0C050D12B2689828461B0,,,"434345cc76b0c050d12b2689828461b0~3642136230,9783642136238.pdf",0,2000-01-01 01:00:00,2016-04-03 02:51:08,388000/434345cc76b0c050d12b2689828461b0-d.jpg,,
21682102,Frommer's Europe,,,,"Darwin Porter, Danforth Prince, Suzanne Rowan Kelleher, Joseph S. Lieber, Herbert Bailey Livesey, George McDonald, Sherry Marker, Hana Mastrini, Sascha Segan, Christina Shea",2004,8th,Frommer's,,1088,0,English,32,,,"0764568914,9780764568916",,,,,914.04,D909 .F9 2004b,,,OL18397149M,,0,,,,,1,1,1,19668683,pdf,434791B6AC4167416F7E7933E9571CBF,,,"434791b6ac4167416f7e7933e9571cbf~0764568914,9780764568916.pdf",0,2000-01-01 01:00:00,2016-04-03 02:51:08,388000/434791b6ac4167416f7e7933e9571cbf-d.jpg,,
21682103,MCSE Readiness Review Exam 70-029: Designing and Implementing Databases with Microsoft SQL Server 7,,,,"Microsoft Press, Robert Sheldon",2000,,Microsoft Press,,450,0,English,181,,,"0735606730,9780735606739,9780585392851",,,,,,,,,OL7890641M,,0,,,,,1,,1,52594147,pdf,435033EB260D1F867F2506F48CEDF3A7,,,"435033eb260d1f867f2506f48cedf3a7~0735606730,9780735606739,9780585392851.pdf",0,2000-01-01 01:00:00,2016-04-03 02:51:08,388000/435033eb260d1f867f2506f48cedf3a7-d.jpg,,
21682104,"Corporate Reputation and the News Media: Agenda-setting within Business News Coverage in Developed, Emerging, and Frontier Markets ",,Routledge Communication Series,,Craig E. Carroll,2010,1,Routledge,,480,0,English,,,,"0415871522,9780415871525,0415871530,9780415871532,0203868587,9780203868584",,,,,659.2,HD58.7 .C6437 2010,,,OL24080061M,,0,,,,,,1,1,4307476,pdf,435184DD164A423F740285EA31B3FC85,,,"435184dd164a423f740285ea31b3fc85~0415871522,9780415871525,0415871530,9780415871532,0203868587,9780203868584.pdf",0,2000-01-01 01:00:00,2016-04-03 02:51:08,388000/435184dd164a423f740285ea31b3fc85-d.jpg,,
21682105,"Winning the White House 2008: The Gallup Poll, Public Opinion, and the Presidency",,,,"Frank Newport, Jeffrey M. Jones, Lydia Saad, Alec M. Gallup, Fred L. Israel",2009,1,Facts on File,,448,0,English,,,,"0816075662,9780816075669,081607903X,9780816079032,9781438126876",,,,,324.973/0931,JK526 2008 .W56 2009,,,OL22665091M,,0,,,,,,1,1,17338152,pdf,435201F994D9702C3664BBCA33BFCEEE,,,"435201f994d9702c3664bbca33bfceee~0816075662,9780816075669,081607903X,9780816079032,9781438126876.pdf",0,2000-01-01 01:00:00,2016-04-03 02:51:08,388000/435201f994d9702c3664bbca33bfceee-d.jpg,,
21682106,Vibrations of mechanical systems with regular structure ,,Foundations of Engineering Mechanics,,"Ludmilla Banakh, Mark Kempner (auth.)",2010,1,Springer-Verlag Berlin Heidelberg,,252,0,English,272,,,"3642031250,9783642031250",,,,,,,10.1007/978-3-642-03126-7,,,,0,,,,,,,1,3837918,pdf,435469BAC7093F7D6515321873E20A2A,,,"435469bac7093f7d6515321873e20a2a~3642031250,9783642031250.pdf",0,2000-01-01 01:00:00,2016-04-03 02:51:08,388000/435469bac7093f7d6515321873e20a2a-d.jpg,,
21682107,Law and Nature ,,Cambridge Studies in Law and Society,,David Delaney,2003,,Cambridge University Press,,452,0,English,313,,,"0521831261,9780521831260,9780511063008",,,,,,,,,OL22546840M,,0,,,,0,1,1,1,1599032,pdf,435475CB4D0722D5EDAB50EE8A177DE3,,,"435475cb4d0722d5edab50ee8a177de3~0521831261,9780521831260,9780511063008.pdf",0,2000-01-01 01:00:00,2016-04-03 02:51:08,388000/435475cb4d0722d5edab50ee8a177de3-d.jpg,,
21682108,Women in Science Fiction and Fantasy:,volume 2: Entries,,,Robin Anne Reid,2008,,Greenwood,,408,0,English,181,,,"0313335923,9780313335921",,,,,809.3/8762082,PS374.S35 W63 2008,,,OL18736507M,,0,,,,,,1,1,2152328,pdf,435719D6176A1ED3AEF1E589C3854336,,,"435719d6176a1ed3aef1e589c3854336~0313335923,9780313335921.pdf",0,2000-01-01 01:00:00,2016-04-03 02:51:08,388000/435719d6176a1ed3aef1e589c3854336-d.jpg,,
21682109,Wikipedia,,,,Dan O'Sullivan,2009,,Ashgate,,200,0,English,,,,"9780754674337,0754674339",,,,,30,AE100 .O88 2009,,,OL23223582M,,0,,,,,,1,1,2209090,pdf,436945E7BF8ABBCC833B4913F6D19E86,,,"436945e7bf8abbcc833b4913f6d19e86~9780754674337,0754674339.pdf",0,2000-01-01 01:00:00,2016-04-03 02:51:08,388000/436945e7bf8abbcc833b4913f6d19e86-d.jpg,,
21682110,"A Bitter Peace: Washington, Hanoi, and the Making of the Paris Agreement",,,,Pierre Asselin,2002,,The University of North Carolina Press,,304,0,English,,,,"0807827517,9780807827512,9780807861233",,,,,959.704/31,DS559.7 .A87 2002,,,OL3553481M,,0,,,,,1,,1,1160224,pdf,437075EA0002918B07EFE2DD2B9F5ED9,,,"437075ea0002918b07efe2dd2b9f5ed9~0807827517,9780807827512,9780807861233.pdf",0,2000-01-01 01:00:00,2016-04-03 02:51:08,388000/437075ea0002918b07efe2dd2b9f5ed9-d.jpg,,
21682111,Doctors Serving People: Restoring Humanism to Medicine through Student Community Service ,,Critical Issues in Health and Medicine,,"Edward J. Eckenfels, Joseph F. O'Donnell",2008,,Rutgers University Press,,240,0,English,147,,,"0813543150,9780813543154,9780813545097",,,,,362.12,RA445 .E26 2008,,,OL17045178M,,0,,,,,,,1,598637,pdf,437604DA06C330ACF7BF989BFA519115,,,"437604da06c330acf7bf989bfa519115~0813543150,9780813543154,9780813545097.pdf",0,2000-01-01 01:00:00,2016-04-03 02:51:08,388000/437604da06c330acf7bf989bfa519115-d.jpg,,
21682112,Transition to a low-carbon economy: Public goals and corporate practices,,,,OECD Organisation for Economic Co-operation and Development,2010,,OECD Publishing,,116,0,English,7,,,9789264090224,,,,,,,10.1787/9789264090231-en,,,,0,,,,,,,1,1575543,pdf,437657AC2DC4DDCBF1BC46FFB1FF95A5,,,437657ac2dc4ddcbf1bc46ffb1ff95a5~9789264090224.pdf,0,2000-01-01 01:00:00,2016-04-03 02:51:08,388000/437657ac2dc4ddcbf1bc46ffb1ff95a5-d.jpg,,
21682113,Palace Politics: How the Ruling Party Brought Crisis to Mexico,,,,Jonathan Schlefer,2008,,University of Texas Press,,312,0,English,,,,"029271758X,9780292717589,0292717571,9780292717572,9780292794474",,,,,,,,,OL10293653M,,0,,,,,1,,1,3961587,pdf,437681E8329B98D7DB0C8C225520EC45,,,"437681e8329b98d7db0c8c225520ec45~029271758X,9780292717589,0292717571,9780292717572,9780292794474.pdf",0,2000-01-01 01:00:00,2016-04-03 02:51:08,388000/437681E8329B98D7DB0C8C225520EC45-g.jpg,,
21682114,The Analysis of Cross-Classified Categorical Data,,,,Stephen E. Fienberg,2007,2nd,Springer,,216,0,English,86,,,"0387728244,9780387728247,9780387728254",,,,,,,,,OL9682960M,,0,,,,,1,,1,6803849,pdf,438207C96CE9FA0B6DA91F79F4BAA9C0,,,"438207c96ce9fa0b6da91f79f4baa9c0~0387728244,9780387728247,9780387728254.pdf",0,2000-01-01 01:00:00,2016-04-03 02:51:08,388000/438207c96ce9fa0b6da91f79f4baa9c0-d.jpg,,
21682115,"Human-Computer Interaction: Second IFIP TC 13 Symposium, HCIS 2010, Held as Part of WCC 2010, Brisbane, Australia, September 20-23, 2010, Proceedings ... in Information and Communication Technology)",,,,"Peter Forbrig, Fabio Paternó, Annelise Mark Pejtersen",2010,1st Edition.,Springer,,328,0,English,185,,,"3642152309,9783642152306",,,,,,,,,,,0,,,,,,1,1,7055345,pdf,438589D1430B0503AFBA5D8A4EAD7BE7,,,"438589d1430b0503afba5d8a4ead7be7~3642152309,9783642152306.pdf",0,2000-01-01 01:00:00,2016-04-03 02:51:08,388000/438589d1430b0503afba5d8a4ead7be7-d.jpg,,
21682116,"Goals, No-Goals and Own Goals: A Debate on Goal Directed and Intentional Behaviour",,,,A. Montefiore,1989,1,Routledge,,320,0,English,,,,"0044453418,9780044453413",,,,,128/.4,B105.A35 G63 1989,,,OL2055628M,,0,,,,,1,,0,311608611,pdf,438848C9F547F92BEA170660C9D1C798,,,"438848c9f547f92bea170660c9d1c798~0044453418,9780044453413.pdf",0,2000-01-01 01:00:00,2016-04-03 02:51:08,388000/438848c9f547f92bea170660c9d1c798-g.jpg,,
21682117,Understanding User-Web Interactions via Web Analytics ,,"Synthesis Lectures on Information Concepts, Retrieval, and Services",,Bernard J. (Jim) Jansen,2009,1,Morgan and Claypool Publishers,,117,0,English,100,,,"9781598298512,1598298518",,,,,,,10.2200/S00191ED1V01Y200904ICR006,,,,0,,,,1,0,,1,1489049,pdf,438889F197F7C4E2C170BCD124C64569,,,"438889f197f7c4e2c170bcd124c64569~9781598298512,1598298518.pdf",0,2000-01-01 01:00:00,2016-04-03 02:51:08,388000/438889f197f7c4e2c170bcd124c64569-d.jpg,,
21682118,The Luxembourg Run,,,,Stanley Ellin,1979,,Ballantine Books,,279,0,English,,,,"0345280164,9780345280169,0394496469,9780394496467,0224015494,9780224015493,0708904874,9780708904879",,,,,823/.9/1F,,,,OL14967220M,,0,,,,,1,1,1,1766867,pdf,438964B86695EE7F3C03537DBF64BE03,,,"438964b86695ee7f3c03537dbf64be03~0345280164,9780345280169,0394496469,9780394496467,0224015494,9780224015493,0708904874,9780708904879.pdf",0,2000-01-01 01:00:00,2016-04-03 02:51:08,388000/438964b86695ee7f3c03537dbf64be03-d.jpg,,
21682119,Frontiers of Numerical Analysis: Durham 2004 ,,Universitext,,"James Blowey, Alan Craig",2005,1,Springer,,266,0,English,120,,,"3540239219,9783540239215",,,,,518,QA297 .L59 2004,,,OL3480575M,,0,,,,,,,1,2694102,pdf,439311AE07E6627795A0826B77E902C8,,,"439311ae07e6627795a0826b77e902c8~3540239219,9783540239215.pdf",0,2000-01-01 01:00:00,2016-04-03 02:51:08,388000/439311ae07e6627795a0826b77e902c8-d.jpg,,
21682120,Culture and Customs of Sweden ,,Culture and Customs of Europe,,Byron J. Nordstrom,2010,,Greenwood,,200,0,English,,,,"0313343713,9780313343711",,,,,,,,,,,0,,,,,,1,1,2030062,pdf,439376DB16BB6F8FD1EA9261E87FAF17,,,"439376db16bb6f8fd1ea9261e87faf17~0313343713,9780313343711.pdf",0,2000-01-01 01:00:00,2016-04-03 02:51:08,388000/439376db16bb6f8fd1ea9261e87faf17-d.jpg,,
21682121,Historical Dictionary of Cyprus ,,Historical Dictionaries of Europe,,Farid Mirbagheri,2009,,"The Scarecrow Press, Inc.",,288,0,English,64,,,"0810855267,9780810855267,0810862980,9780810862982",,,,,956.93003,DS54.A28 M57 2009,,,OL22659393M,,0,,,,,,1,1,1048421,pdf,440763A5E0D6F72EEC83DA5E9A368289,,,"440763a5e0d6f72eec83da5e9a368289~0810855267,9780810855267,0810862980,9780810862982.pdf",0,2000-01-01 01:00:00,2016-04-03 02:51:08,388000/440763a5e0d6f72eec83da5e9a368289-d.jpg,,
21682122,Binding Violence: Literary Visions of Political Origins,,,,Moira Fradinger,2010,,Stanford University Press,,352,0,English,,,,"0804763305,9780804763301",,,,,809/.933552,PN56.V53 F73 2010,,,OL23622620M,,0,,,,,,1,1,2180777,pdf,441040B820BE7A3969CB50AEADB58CAA,,,"441040b820be7a3969cb50aeadb58caa~0804763305,9780804763301.pdf",0,2000-01-01 01:00:00,2016-04-03 02:51:08,388000/441040b820be7a3969cb50aeadb58caa-d.jpg,,
21682123,52 Activities for Improving Cross-Cultural Communication: N/A,,,,"Donna M. Stringer, Patricia A. Cassiday",2009,,Nicholas Brealey Publishing,,252,0,English,260,,,"193193083X,9781931930833",,B003E9RMNC,,,303.48/2,HM1211 .S775 2009,,,OL23223338M,,0,,,,1,0,1,1,3234716,pdf,441593BB496E55A00AE03D4C2427753C,,,"441593bb496e55a00ae03d4c2427753c~193193083X,9781931930833,B003E9RMNC.pdf",0,2000-01-01 01:00:00,2016-04-03 02:51:08,388000/441593bb496e55a00ae03d4c2427753c-d.jpg,,
21682124,Islam and Early Modern English Literature: The Politics of Romance from Spenser to Milton ,,Early Modern Cultural Studies,,Benedict S. Robinson,2007,First Edition,Palgrave Macmillan,,248,0,English,314,,,"1403977933,9781403977939,9780230607439",,,,,,,,,OL8400973M,,0,,,,1,0,1,1,1061130,pdf,441869FBA28DF225E744424962B68AA8,,,"441869fba28df225e744424962b68aa8~1403977933,9781403977939,9780230607439.pdf",0,2000-01-01 01:00:00,2016-04-03 02:51:08,388000/441869fba28df225e744424962b68aa8-d.jpg,,
21682125,Hand and Brain: The Neurophysiology and Psychology of Hand Movements,,,,"Patrick Haggard, J. Randall Flanagan",1996,,Academic Press,,513,0,English,198,,,"9780080532745,9780127594408,012759440X",,,,,612.8,QP334 .H36 1996,,,OL7329475M,,0,,,,,1,1,1,30178059,pdf,442196DC61D41601A2F66E4481767453,,,"442196dc61d41601a2f66e4481767453~9780080532745,9780127594408,012759440X.pdf",0,2000-01-01 01:00:00,2016-04-03 02:51:08,388000/442196dc61d41601a2f66e4481767453-d.jpg,,
21682126,Causation: A Realist Approach,,,,Michael Tooley,1988,,"Oxford University Press, USA",,366,0,English,195,,,"0198249624,9780198249627",,,,,122,BD541 .T66 1987,,,OL2398215M,,800,,,,,1,,1,2930051,djvu,442342BC24934E9F35D959BAF6C57812,,,"442342bc24934e9f35d959baf6c57812~0198249624,9780198249627.djvu",0,2000-01-01 01:00:00,2016-04-03 02:51:08,388000/442342bc24934e9f35d959baf6c57812-d.jpg,,
21682127,Beezus and Ramona,,,,"Beverly Cleary, Tracy Dockray",1990,,HarperCollins,,176,0,English,,,,"038070918X,9780380709182,0688210767,9780688210762,9780061684906",,,,,,,,,OL21112615M,,0,,,,,1,,1,3212956,pdf,442426AD0CF788D8EC4FBEFC20FB8C10,,,"442426ad0cf788d8ec4fbefc20fb8c10~038070918X,9780380709182,0688210767,9780688210762,9780061684906.pdf",0,2000-01-01 01:00:00,2016-04-03 02:51:08,388000/442426ad0cf788d8ec4fbefc20fb8c10-d.jpg,,
21682128,"Understanding Pathogen Behaviour Virulence, Stress Response and Resistance",,,,Mansel Griffiths,2005,1,CRC Press,,611,0,English,,,,"9780849334269,9781855739536,0849334268,1855739534",,,,,,,,,OL8993837M,,0,,,,,1,1,1,7859644,pdf,442662B4A3461DBA64B91230FF88B89C,,,"442662b4a3461dba64b91230ff88b89c~9780849334269,9781855739536,0849334268,1855739534.pdf",0,2000-01-01 01:00:00,2016-04-03 02:51:08,388000/442662b4a3461dba64b91230ff88b89c-g.jpg,,
21682129,City of Quartz: Excavating the Future in Los Angeles ,,,,"Mike Davis, Robert Morrow",2006,New Edition ,Verso,,441,0,English,,,,"1844675688,9781844675685",,,,,,,,,OL17202312M,,0,,,,,1,1,0,53167153,pdf,442823F3AB7B549C36DB0E0B9E5FA971,,,"442823f3ab7b549c36db0e0b9e5fa971~1844675688,9781844675685.pdf",0,2000-01-01 01:00:00,2016-04-03 02:51:08,388000/442823f3ab7b549c36db0e0b9e5fa971-d.jpg,,
21682130,Angela Carter's Nights at the Circus: A Routledge Study Guide ,,Routledge Guides to Literature,,Helen Stoddart,2007,1,Routledge,,152,0,English,,,,"0415350115,9780415350112,9780203312070",,,,,823/.914,PR6053.A73 N53 2007,,,OL17552985M,,0,,,,,1,1,1,1952093,pdf,443041FC5D9335EBBFEB5BC16FC6F63F,,,"443041fc5d9335ebbfeb5bc16fc6f63f~0415350115,9780415350112,9780203312070.pdf",0,2000-01-01 01:00:00,2016-04-03 02:51:08,388000/443041fc5d9335ebbfeb5bc16fc6f63f-d.jpg,,
21682131,Rise Again: A Zombie Thriller,,,,Ben Tripp,2010,Original,Gallery,,384,0,English,,,,"1439165165,9781439165164,9781439165188",,,,,813/.6,PS3620.R569 R57 2010,,,OL24489563M,,0,,,,,,,1,516205,epub,443079ABAB4DB89AF553123B7C264A88,,,"443079abab4db89af553123b7c264a88~1439165165,9781439165164,9781439165188.epub",0,2000-01-01 01:00:00,2016-04-03 02:51:08,388000/443079abab4db89af553123b7c264a88-d.jpg,,
21682132,Unemployment in the New Europe ,,Cambridge Studies in Comparative Politics,,Nancy Bermeo,2001,1,Cambridge University Press,,376,0,English,,,,"0521802415,9780521802413",,,,,339.5/094,HD5764.A6 U484 2001,,,OL22427658M,,0,,,,,,,1,3196904,pdf,443593E15430DF13D7E21D8AA4905C9D,,,"443593e15430df13d7e21d8aa4905c9d~0521802415,9780521802413.pdf",0,2000-01-01 01:00:00,2016-04-03 02:51:08,388000/443593e15430df13d7e21d8aa4905c9d-d.jpg,,
21682133,Resisting Bondage in Indian Ocean Africa and Asia ,,Routledge Studies in Slave and Post Slave Societies,,"Edward A. Alpers, Gwyn Campbell, Michael Salman",2006,1,Routledge,,128,0,English,,,,"041577151X,9780415771511,9780203968246",,,,,,,,,OL10207784M,,0,,,,,1,1,1,1020699,pdf,443722A2EF9075F10FA43F99289CDB9B,,,"443722a2ef9075f10fa43f99289cdb9b~041577151X,9780415771511,9780203968246.pdf",0,2000-01-01 01:00:00,2016-04-03 02:51:08,388000/443722a2ef9075f10fa43f99289cdb9b-d.jpg,,
21682134,"Britain, Southeast Asia and the Onset of the Cold War, 1945-1950",,,,Nicholas Tarling,1998,,Cambridge University Press,,502,0,English,,,,"0521632617,9780521632614,0521033365,9780521033367,9780511552342",,,,,327.41059,DS525.9.G7 T369 1998,,,OL354370M,,0,,,,,1,,1,8115770,pdf,443765FDA19B5C738ECFBF9902C31CA5,,,"443765fda19b5c738ecfbf9902c31ca5~0521632617,9780521632614,0521033365,9780521033367,9780511552342.pdf",0,2000-01-01 01:00:00,2016-04-03 02:51:08,388000/443765fda19b5c738ecfbf9902c31ca5-d.jpg,,
21682135,Nominalism and Its Aftermath: The Philosophy of Nelson Goodman ,,Synthese Library 343,,"Dr. Dena Shottenkirk (auth.), Dr. Dena Shottenkirk (eds.)",2009,1,Springer Netherlands,,174,0,English,195,,,"1402099304,9781402099304",,,,,191,B945.G624 S56 2009,10.1007/978-1-4020-9931-1,,OL23649068M,,0,,,,,,,1,1606191,pdf,443816B2E967558752196E6D49CC1F41,,,"443816b2e967558752196e6d49cc1f41~1402099304,9781402099304.pdf",0,2000-01-01 01:00:00,2016-04-03 02:51:08,388000/443816b2e967558752196e6d49cc1f41-d.jpg,,
21682136,Throughput Accounting: A Guide to Constraint Management,,,,Steven M. Bragg,2007,,Wiley,,192,0,English,2,,,"0471251097,9780471251095,9780470130537",,,,,,,,,OL9388158M,,0,,,,,1,,1,890733,pdf,444265D733BD2AE946E10516FA03714B,,,"444265d733bd2ae946e10516fa03714b~0471251097,9780471251095,9780470130537.pdf",0,2000-01-01 01:00:00,2016-04-03 02:51:08,388000/444265d733bd2ae946e10516fa03714b-d.jpg,,
21682137,Blake et Mortimer: Le secret de l'Espadon,tome 2,,,Edgar Pierre Jacobs,1996,,Blake et Mortimer,,55,0,French,,,,"9782870970041,2870970048",,,,,,,,,OL8986221M,,0,,,,,1,,0,12703070,pdf,444301CF2C0966313525AE939C1EAC91,,,"444301cf2c0966313525ae939c1eac91~9782870970041,2870970048.pdf",0,2000-01-01 01:00:00,2016-04-03 02:51:08,388000/444301cf2c0966313525ae939c1eac91-d.jpg,,
21682138,The Power of the Written Tradition ,,Smithsonian Series in Ethnographic Inquiry,,GOODY JACK,2000,,Smithsonian,,224,0,English,,,,"1560989629,9781560989622",,,,,302.2/244,P211 .G664 2000,,,OL44933M,,0,,,,,,,1,839841,pdf,444407BA55359D791DC7A64160F70D1E,,,"444407ba55359d791dc7a64160f70d1e~1560989629,9781560989622.pdf",0,2000-01-01 01:00:00,2016-04-03 02:51:08,388000/444407ba55359d791dc7a64160f70d1e-d.jpg,,
21682139,Tissue Engineering,,,,"John P. Fisher, Antonios G. Mikos, Joseph D. Bronzino",2007,1,CRC Press,,600,0,English,210,,,"0849390265,9780849390265,9781420008333",,,,,610.28,R857.T55 T548 2007,,,OL17853636M,,0,,,,,1,,1,10560125,pdf,444550BE4287EDDF1475E0BD58980916,,,"444550be4287eddf1475e0bd58980916~0849390265,9780849390265,9781420008333.pdf",0,2000-01-01 01:00:00,2016-04-03 02:51:08,388000/444550be4287eddf1475e0bd58980916-d.jpg,,
21682140,Contact Dermatitis,,,,"Jean-Marie Lachapelle (auth.), Jeanne Duus Johansen, Peter J. Frosch, Jean-Pierre Lepoittevin (eds.)",2011,5,Springer-Verlag Berlin Heidelberg,,1252,0,English,154,,,"3642038263,9783642038273,9783642038266",,,,,,,10.1007/978-3-642-03827-3,,,,0,,,,,,1,1,43945300,pdf,444571D29E95A95336A71F9D7D0E630F,,,"444571d29e95a95336a71f9d7d0e630f~3642038263,9783642038273,9783642038266.pdf",0,2000-01-01 01:00:00,2016-04-03 02:51:08,388000/444571d29e95a95336a71f9d7d0e630f-d.jpg,,
21682141,Transporters as Targets for Drugs ,,Topics in Medicinal Chemistry,,"Matilda Bingham, Susan Napier (auth.), Susan Napier, Matilda Bingham (eds.)",2009,1,Springer-Verlag Berlin Heidelberg,,254,0,English,289,,,"3540879110,9783540879121,9783540879114",,,,,,,10.1007/978-3-540-87912-1,,,,0,,,,1,0,1,1,3668941,pdf,444756B097F06EC47B56619C84A26372,,,"444756b097f06ec47b56619c84a26372~3540879110,9783540879121,9783540879114.pdf",0,2000-01-01 01:00:00,2016-04-03 02:51:08,388000/444756b097f06ec47b56619c84a26372-d.jpg,,
21682142,Making Urban Transport Sustainable ,,Global Issues,,"Nicholas Low, Brendan Gleeson",2003,,Palgrave Macmillan,,304,0,English,289,,,"0333981987,9780333981986,9780230523838",,,,,,,,,OL15556884M,,0,,,,1,0,1,1,1873005,pdf,444918F75C9A44157901FFE05B89E95C,,,"444918f75c9a44157901ffe05b89e95c~0333981987,9780333981986,9780230523838.pdf",0,2000-01-01 01:00:00,2016-04-03 02:51:08,388000/444918f75c9a44157901ffe05b89e95c-d.jpg,,
21682143,The Nation,,,,,,,Nation,,40,0,English,,,,,,B000CNEFRE,,,,,,,,,0,,,,,1,,1,2118367,pdf,445253FD1682E920FF8C1B9A40E8893A,,,445253fd1682e920ff8c1b9a40e8893a~B000CNEFRE.pdf,0,2000-01-01 01:00:00,2016-04-03 02:51:08,388000/445253fd1682e920ff8c1b9a40e8893a-d.jpg,,
21682144,Public Policy Issues Research Trends,,,,Sophie J. Evans,2008,,Nova Science Publishers,,315,0,English,,,,"1600218733,9781600218736,9781606926055",,,,,320.6,H97 .P825 2008,,,OL16717279M,,0,,,,,,1,1,1584124,pdf,445354AAA2599852E4F763FE8E8B5386,,,"445354aaa2599852e4f763fe8e8b5386~1600218733,9781600218736,9781606926055.pdf",0,2000-01-01 01:00:00,2016-04-03 02:51:08,388000/445354aaa2599852e4f763fe8e8b5386-d.jpg,,
21682145,"Sodium Channels, Pain, and Analgesia ",,Progress in Inflammation Research,,"Kevin Coward, Mark D. Baker",2005,1,Birkhäuser Basel,,199,0,German,,,,"3764370629,9783764370626,9783764374112",,,,,,,,,OL9503925M,,0,,,,,1,,1,2076365,pdf,445387A0135CB00AC52926F3E4A704F9,,,"445387a0135cb00ac52926f3e4a704f9~3764370629,9783764370626,9783764374112.pdf",0,2000-01-01 01:00:00,2016-04-03 02:51:08,388000/445387a0135cb00ac52926f3e4a704f9-d.jpg,,
21682146,Idiomatic Creativity: A Cognitive-Linguistic Model of Idiom-Representation And Idiom-Variation in English ,,Human Cognitive Processing,,Andreas Langlotz,2006,,John Benjamins Publishing Co,,340,0,English,314,,,"902722370X,9789027223708,9789027293763",,,,,,,,,OL9095040M,,0,,,,,1,1,1,1732631,pdf,445640BDD100EF2BB7E3E64611E9CD81,,,"445640bdd100ef2bb7e3e64611e9cd81~902722370X,9789027223708,9789027293763.pdf",0,2000-01-01 01:00:00,2016-04-03 02:51:08,388000/445640bdd100ef2bb7e3e64611e9cd81-d.jpg,,
21682147,Barthes and the Empire of Signs ,,Postmodern Encounters,,Peter Trifonas,1997,,Totem Books,,80,0,English,,,,"1840462779,9781840462777",,,,,,,,,OL8915819M,,0,,,,,1,1,1,286658,pdf,445798A39B65717413DD84E473E09B55,,,"445798a39b65717413dd84e473e09b55~1840462779,9781840462777.pdf",0,2000-01-01 01:00:00,2016-04-03 02:51:08,388000/445798a39b65717413dd84e473e09b55-d.jpg,,
21682148,Historia de la Revolucion de Nueva Espana ,,"Clasicos del la Historia de Mexico, Tome 2",,Teresa de Mier,1986,,Instituto Cultural Helenico Fondo Cultura Economica Mexico,,500,0,Spanish,64,,,"9681623401,9789681623401,9781417504275",,,,,,,,,OL16266799M,,0,,,,,1,,1,20250391,pdf,445939EAFF71AF988B2E146CD756C27A,,,"445939eaff71af988b2e146cd756c27a~9681623401,9789681623401,9781417504275.pdf",0,2000-01-01 01:00:00,2016-04-03 02:51:08,388000/445939eaff71af988b2e146cd756c27a-d.jpg,,
21682149,An Imaginary Tale: The Story of i [the square root of minus one],,,,Paul J. Nahin,1998,,Princeton University Press,,270,0,English,119,,,"0691027951,9780691027951,9780691127989,0691127980",,,,,515/.9,QA255 .N34 1998,,,OL18286211M,,400,,,,0,1,,1,1941345,djvu,446140A48167B948C4CF8897C7B55D7E,,,"446140a48167b948c4cf8897c7b55d7e~0691027951,9780691027951,9780691127989,0691127980.djvu",0,2000-01-01 01:00:00,2016-04-03 02:51:08,388000/446140a48167b948c4cf8897c7b55d7e-d.jpg,,
21682150,The Gripping Hand,,,,Larry Niven and Jerry Pournelle,1994,First Edition,Pocket Books,,286,0,English,,,,,,"B001ZR3B5I;,B0017GH4D2;,B002JHSW5W;",,,,,,,,,0,,,,,,1,1,1246664,pdf,446470B2E16E237EB593D893EB192EB4,,,"446470b2e16e237eb593d893eb192eb4~B001ZR3B5I,B0017GH4D2,B002JHSW5W,B002J833SM,B0025I3P7K,B0028QAJN2,0671795740,9780671795740.pdf",0,2000-01-01 01:00:00,2016-04-03 02:51:08,388000/446470b2e16e237eb593d893eb192eb4-g.jpg,,
21682151,Psycholinguistics: An International Handbook Handba1/4cher Zur Sprach- Und Kommunikationswissenschaft / H,,,,Gert Tickheit,2003,Bilingual,de Gruyter Mouton,,947,0,German,,,,"3110114240,9783110114249,9783110194043,311019404X",,,,,,,,,OL22024856M,,0,,,,,,1,1,7296445,pdf,446489FFC71411A1666869E14B817150,,,"446489ffc71411a1666869e14b817150~3110114240,9783110114249,9783110194043,311019404X.pdf",0,2000-01-01 01:00:00,2016-04-03 02:51:08,388000/446489ffc71411a1666869e14b817150-d.jpg,,
21682152,Generalized Inverses of Linear Transformations ,,Classics in Applied Mathematics,,"Stephen L. Campbell, Carl D. Meyer",2008,,Society for Industrial and Applied Mathematics,,292,0,English,114,,,"0898716713,9780898716719",,,,,512.9/434,QA188 .C36 2009,,,OL22659355M,,0,,,,,1,1,1,6449961,pdf,446538D716DB69C568D9DA8D819C4D6D,,,"446538d716db69c568d9da8d819c4d6d~0898716713,9780898716719.pdf",0,2000-01-01 01:00:00,2016-04-03 02:51:08,388000/446538d716db69c568d9da8d819c4d6d-d.jpg,,
21682153,The Cambridge Companion to Harold Pinter ,,Cambridge Companions to Literature,,Peter Raby,2009,2nd,Cambridge University Press,,346,0,English,,,,"0521713730,9780521886093,9780521713733,0521886090",,,,,822/.914,PR6066.I53 Z6255 2009,,,OL22685113M,,0,,,,,,1,1,4930864,pdf,446612DD900F27231AAEDCDB687F3156,,,"446612dd900f27231aaedcdb687f3156~0521713730,9780521886093,9780521713733,0521886090.pdf",0,2000-01-01 01:00:00,2016-04-03 02:51:08,388000/446612dd900f27231aaedcdb687f3156-d.jpg,,
21682154,Net-Centric Approaches to Intelligence and National Security ,,Kluwer International Series in Engineering and Computer Science,,"Roy Ladner, Frederick E. Petry",2005,1,Springer,,178,0,English,100,,,"0387242953,9780387242958,9780387261768",,,,,327.12/0285,UG479 .N48 2005,,,OL22714450M,,0,,,,,1,,1,10282368,pdf,446637E5DA9BB4F9C6BDE821C95C33AD,,,"446637e5da9bb4f9c6bde821c95c33ad~0387242953,9780387242958,9780387261768.pdf",0,2000-01-01 01:00:00,2016-04-03 02:51:08,388000/446637e5da9bb4f9c6bde821c95c33ad-d.jpg,,
21682155,OECD Economic Surveys: China 2005,,,,OECD Organisation for Economic Co-operation and Develop,2005,,OECD Publishing,,206,0,English,6,,,"926401182X,9789264011823,9789264011830",,,,,,,,,OL9126128M,,0,,,,,1,,1,1993857,pdf,446738D24A07D4675D65F4C8E9B5C8E3,,,"446738d24a07d4675d65f4c8e9b5c8e3~926401182X,9789264011823,9789264011830.pdf",0,2000-01-01 01:00:00,2016-04-03 02:51:08,388000/446738d24a07d4675d65f4c8e9b5c8e3-d.jpg,,
21682156,Market Evolution: How to Profit in Today's Changing Financial Markets,,,,Jeffrey Kleintop,2006,1,Wiley,,214,0,English,183,,,"0471769207,9780471769200,9780470039045",,,,,332.6,HG4521 .K567 2006,,,OL24273002M,,0,,,,,,,1,2130187,pdf,446904FDC04832FC3DC1FFA1AF2E79EF,,,"446904fdc04832fc3dc1ffa1af2e79ef~0471769207,9780471769200,9780470039045.pdf",0,2000-01-01 01:00:00,2016-04-03 02:51:08,388000/446904fdc04832fc3dc1ffa1af2e79ef-d.jpg,,
21682157,Computational Intelligence in Reliability Engineering ,,Studies in Computational Intelligence,,"Gregory Levitin, Gregory Levitin",2006,1,Springer,,412,0,English,120,,,"3540373675,9783540373681,9783540373674",,,,,620.00452028563,TA169 .C645 2007,,,OL23155923M,,0,,,,,1,1,1,4981020,pdf,447241B1150B01F71B814E68419CA196,,,"447241b1150b01f71b814e68419ca196~3540373675,9783540373681,9783540373674.pdf",0,2000-01-01 01:00:00,2016-04-03 02:51:08,388000/447241b1150b01f71b814e68419ca196-d.jpg,,
21682158,Self Assembly: The Science of Things That Put Themselves Together,,,,John A. Pelesko,2007,,Chapman and Hall/CRC,,336,0,English,181,,,"1584886870,9781584886877,9781584886884",,,,,620/.5,,,,OL17900634M,,0,,,,,1,,1,5703606,pdf,447257FDE8E2DC27E89F495605F341C6,,,"447257fde8e2dc27e89f495605f341c6~1584886870,9781584886877,9781584886884.pdf",0,2000-01-01 01:00:00,2016-04-03 02:51:08,388000/447257fde8e2dc27e89f495605f341c6-d.jpg,,
21682159,Totally Fabulous,,,,Michelle Radford,2009,,HarperTeen,,256,0,English,,,,"0061285315,9780061285318",,B002BD2V3S,,,,,,,OL22541497M,,0,,,,,1,,1,1348786,pdf,447279FBCBC3ACCF32AE1528E28EE0E7,,,"447279fbcbc3accf32ae1528e28ee0e7~0061285315,9780061285318,B002BD2V3S.pdf",0,2000-01-01 01:00:00,2016-04-03 02:51:08,388000/447279fbcbc3accf32ae1528e28ee0e7-d.jpg,,
21682160,Firestorm ,,Eve Duncan,,Iris Johansen,2005,,Bantam,,368,0,English,,,,"9780553586497,0553586491,0553803409",,,,,813/.54,PS3560.O275 F57 2004,,,OL22172290M,,0,,,,,1,,1,1160728,pdf,447684EE59D53ADEC2B2AC58BEE788EE,,,"447684ee59d53adec2b2ac58bee788ee~9780553586497,0553586491,0553803409.pdf",0,2000-01-01 01:00:00,2016-04-03 02:51:08,388000/447684ee59d53adec2b2ac58bee788ee-d.jpg,,
21682161,"Cryptorchidism - A Medical Dictionary, Bibliography, and Annotated Research Guide to Internet References",,,,ICON Health Publications,2004,,ICON Health Publications,,140,0,English,100,,,"0497003163,9780497003166,9781417548187",,,,,,,,,OL7651976M,,0,,,,,,,1,1292274,pdf,447685D32F9F21EED765BB0420DC52F9,,,"447685d32f9f21eed765bb0420dc52f9~0497003163,9780497003166,9781417548187.pdf",0,2000-01-01 01:00:00,2016-04-03 02:51:08,388000/447685d32f9f21eed765bb0420dc52f9-d.jpg,,
21682162,"Planting Flowers, Pulling Weeds: Identifying Your Most Profitable Customers",,,,"Janet Rubio, Patrick Laughlin",2002,1st,Wiley,,288,0,English,29,,,"0471035130,9780471035138,9780471213048",,,,,,,,,OL24301802M,,0,,,,,,,1,734955,pdf,447947CAA82499D8BA1918B335BBCE59,,,"447947caa82499d8ba1918b335bbce59~0471035130,9780471035138,9780471213048.pdf",0,2000-01-01 01:00:00,2016-04-03 02:51:08,389000/447947caa82499d8ba1918b335bbce59-d.jpg,,
21682163,"Yuganta, The End of an Epoch",,,,Irawati Karve,2010,,Orient Longman,,200,0,English,,,,"9788125032281,8125032282",,,,,,,,,OL9718998M,,0,,,,,,,1,526206,pdf,447977ADD535127D5AFCC4A1BE2319D1,,,"447977add535127d5afcc4a1be2319d1~9788125032281,8125032282.pdf",0,2000-01-01 01:00:00,2016-04-03 02:51:08,389000/447977add535127d5afcc4a1be2319d1-g.jpg,,
21682164,"French Inside Out: The Worldwide Development of the French Language in the Past, the Present and the Future",,,,Henriette Walter,1993,1,Routledge,,292,0,English,314,,,"0415076706,9780415076708,0203168305,9780203168301,9780203284209",,,,,440.9,,,,OL22522106M,,0,,,,,1,1,1,2181011,pdf,448050A9E1A1F1B94D9F46C76A2A9E75,,,"448050a9e1a1f1b94d9f46c76a2a9e75~0415076706,9780415076708,0203168305,9780203168301,9780203284209.pdf",0,2000-01-01 01:00:00,2016-04-03 02:51:08,389000/448050a9e1a1f1b94d9f46c76a2a9e75-d.jpg,,
21682165,Biosorbents for Metal Ions,,,,"D A John Wase, John Wase",1997,1,Informa Healthcare,,238,0,English,,,,"0748404317,9780748404315,9780203483046",,,,,628.5/2,TD427.M44 B56 1997,,,OL295958M,,0,,,,,1,1,1,3612981,pdf,448369D44DB3074441A0CB9DD52AB640,,,"448369d44db3074441a0cb9dd52ab640~0748404317,9780748404315,9780203483046.pdf",0,2000-01-01 01:00:00,2016-04-03 02:51:08,389000/448369d44db3074441a0cb9dd52ab640-d.jpg,,
21682166,North Point North: New and Selected Poems,,,,John Koethe,2003,,Harper Perennial,,272,0,English,,,,"0060935278,9780060935276,9780061798559",,,,,,,,,OL7285255M,,0,,,,,1,,1,456478,pdf,448411EEF19C3D6F7596774CAC4B9303,,,"448411eef19c3d6f7596774cac4b9303~0060935278,9780060935276,9780061798559.pdf",0,2000-01-01 01:00:00,2016-04-03 02:51:08,389000/448411eef19c3d6f7596774cac4b9303-d.jpg,,
21682167,"Food Poisoning, Policy and Politics : Corned Beef and Typhoid in Britain in the 1960s",,,,David F. Smith,2005,,Boydell Press,,348,0,English,229,,,"1843831384,9781843831389,9781846153952",,,,,,,,,OL22629802M,,0,,,,,1,,1,1345455,pdf,448657DB1D3E747B75034CAEF1650F2B,,,"448657db1d3e747b75034caef1650f2b~1843831384,9781843831389,9781846153952.pdf",0,2000-01-01 01:00:00,2016-04-03 02:51:08,389000/448657db1d3e747b75034caef1650f2b-d.jpg,,
21682168,Synthetic worlds: the business and culture of online games,,,,Edward Castronova,2005,,University of Chicago Press,,346,0,English,1,,0,"0226096262, 9780226096261, 0226096270, 9780226096278, 0226096319, 9780226096315",,,,,794.8′14678—dc22,GV1469.15.C43 2005,,0OHVdwE5Kb0C,,,0,,,,,0,0,1,1414144,pdf,448957D02D371E5882E404E24534AF52,C6590A50BC1B63E240F515880064A785,no,"448957d02d371e5882e404e24534af52~0226096262,9780226096261.pdf",0,2000-01-01 01:00:00,2016-04-03 02:51:08,389000/448957D02D371E5882E404E24534AF52-d.jpg,,
21682169,Themes from G. E. Moore: New Essays in Epistemology and Ethics,,,,"Susana Nuccetelli, Gary Seay",2008,,"Oxford University Press, USA",,340,0,English,,,,"0199281726,9780199281725,9780191535925",,,,,,,,,OL10146447M,,0,,,,,1,1,1,1544282,pdf,450071FBE4F57D5DE35F42380F109C68,,,"450071fbe4f57d5de35f42380f109c68~0199281726,9780199281725,9780191535925.pdf",0,2000-01-01 01:00:00,2016-04-03 02:51:08,389000/450071fbe4f57d5de35f42380f109c68-d.jpg,,
21682170,Europe and Ethnicity: The First World War and Contemporary Ethnic Conflict,,,,"Seamus Dunn, T.G. Fraser",1996,1,Routledge,,232,0,English,64,,,"0415119952,9780415119955,9780203993538",,,,,323.1/4/0904,D523,,,OL22316916M,,0,,,,,1,1,1,1293762,pdf,450127AF6AAA535FE3FA6C937CD3451A,,,"450127af6aaa535fe3fa6c937cd3451a~0415119952,9780415119955,9780203993538.pdf",0,2000-01-01 01:00:00,2016-04-03 02:51:08,389000/450127af6aaa535fe3fa6c937cd3451a-d.jpg,,
21682171,Against the Stream: A Buddhist Manual for Spiritual Revolutionaries,,,,Noah Levine,2007,,HarperOne,,192,0,English,205,,,"006073664X,9780060736644,9780061436987",,,,,,,,,OL24252354M,,0,,,,,1,,1,2042886,pdf,450189A91C99DCB829717748976688E9,,,"450189a91c99dcb829717748976688e9~006073664X,9780060736644,9780061436987.pdf",0,2000-01-01 01:00:00,2016-04-03 02:51:08,389000/450189a91c99dcb829717748976688e9-d.jpg,,
21682172,Molecular Organic Materials: From Molecules to Crystalline Solids,,,,Jordi Fraxedas,2006,,Cambridge University Press,,357,0,English,300,,,"0521834465,9780521834469,0521067448,9780521067447,9780511525216",,,,,,,,,OL22727794M,,0,,,,1,1,1,1,10210669,pdf,450220BB3127655699B37B40A172EF55,,,"450220bb3127655699b37b40a172ef55~0521834465,9780521834469,0521067448,9780521067447,9780511525216.pdf",0,2000-01-01 01:00:00,2016-04-03 02:51:08,389000/450220bb3127655699b37b40a172ef55-d.jpg,,
21682173,The Pirate Round: Book Three of the Brethren of the Coast,,,,James L. Nelson,2003,,Harper Paperbacks,,384,0,English,,,,"0060539267,9780060539269,9780061364990",,,,,,,,,OL24272909M,,0,,,,,1,,1,1311541,pdf,450317D01D815FFFA001E450C9451828,,,"450317d01d815fffa001e450c9451828~0060539267,9780060539269,9780061364990.pdf",0,2000-01-01 01:00:00,2016-04-03 02:51:08,389000/450317d01d815fffa001e450c9451828-d.jpg,,
21682174,"Computer Modeling in Bioengineering: Theoretical Background, Examples and Software",,,,"Milos Kojic, Nenad Filipovic, Boban Stojanovic, Nikola Kojic",2008,,Wiley,,466,0,English,210,,,"0470060352,9780470060353,9780470751756",,,,,610.28,R858 .C6415 2008,,,OL16444436M,,0,,,,,,1,1,10646992,pdf,450662A7591E753E59F7E32BCA852E89,,,"450662a7591e753e59f7e32bca852e89~0470060352,9780470060353,9780470751756.pdf",0,2000-01-01 01:00:00,2016-04-03 02:51:08,389000/450662a7591e753e59f7e32bca852e89-d.jpg,,
21682175,The A-Z of Facilities Property Management,,,,David M. Martin,2008,,Thorogood,,416,0,English,6,,,"1854183133,9781854183132,9781854184337",,,,,,,,,OL11968371M,,0,,,,,1,1,1,1582100,pdf,450709C556FFF59AA1E5E043C029D3CF,,,"450709c556fff59aa1e5e043c029d3cf~1854183133,9781854183132,9781854184337.pdf",0,2000-01-01 01:00:00,2016-04-03 02:51:08,389000/450709c556fff59aa1e5e043c029d3cf-d.jpg,,
21682176,Site Engineers Manual,,,,David Doran,2003,,Whittles Publishing,,320,0,English,,,,"1870325249,9781870325240",,,,,624,,,,OL12070273M,,0,,,,,,,1,8836853,pdf,450940E79FB1871AB1580264EEC130B9,,,"450940e79fb1871ab1580264eec130b9~1870325249,9781870325240.pdf",0,2000-01-01 01:00:00,2016-04-03 02:51:08,389000/450940e79fb1871ab1580264eec130b9-d.jpg,,
21682177,"The Chinese Hsinhai Revolution: G. E. Morrison and Anglo-Japanese Relations, 1897-1920",,,,Eiko Woodhouse,2003,,Routledge,,288,0,English,,,,"0415322626,9780415322621,9780203493885",,,,,951/.036,DS774 .W63 2004,,,OL22566412M,,0,,,,,1,1,1,2708767,pdf,451509A2A267677DC56EFC0EE106DE44,,,"451509a2a267677dc56efc0ee106de44~0415322626,9780415322621,9780203493885.pdf",0,2000-01-01 01:00:00,2016-04-03 02:51:08,389000/451509a2a267677dc56efc0ee106de44-d.jpg,,
21682178,"Fools Rush In: Steve Case, Jerry Levin, and the Unmaking of AOL Time Warner",,,,Nina Munk,2005,,Harper Paperbacks,,368,0,English,,,,"0060540354,9780060540357,9780061498770",,,,,,,,,OL24257723M,,0,,,,,1,,1,1097815,pdf,451525A3ED771EAD2CE0248A6738CC86,,,"451525a3ed771ead2ce0248a6738cc86~0060540354,9780060540357,9780061498770.pdf",0,2000-01-01 01:00:00,2016-04-03 02:51:08,389000/451525a3ed771ead2ce0248a6738cc86-d.jpg,,
21682179,"Access controlled: the shaping of power, rights, and rule in cyberspace",,Information revolution and global politics,,"Ronald J. Deibert, John G. Palfrey, Rafal Rohozinski, Jonathan Zittrain, Miklos Haraszti",2010,1,The MIT Press,,656,0,English,94,,0,"0262514354,9780262514354,0262014343,9780262014342",,,,,005.8,HM851 .A254 2010,,ZojiQG4irWEC,,,0,,,,1,0,1,1,7353125,pdf,451732B31F02288A7EF5F94622EBC995,,,"451732b31f02288a7ef5f94622ebc995~0262514354,9780262514354,0262014343,9780262014342.pdf",0,2000-01-01 01:00:00,2016-04-03 02:51:08,389000/451732b31f02288a7ef5f94622ebc995-d.jpg,,
21682180,The Blackwell Companion to the Sociology of Culture ,,Blackwell Companions to Sociology,,"Mark Jacobs, Nancy Weiss Hanrahan",2005,,Wiley-Blackwell,,520,0,English,,,,"0631231749,9781405137287,9780631231745,1405188375,9781405188371",,,,,306,HM621 .B58 2005,,,OL22608731M,,0,,,,,,1,1,2729993,pdf,451756B22060251D8EEDC761B46EED09,,,"451756b22060251d8eedc761b46eed09~0631231749,9781405137287,9780631231745,1405188375,9781405188371.pdf",0,2000-01-01 01:00:00,2016-04-03 02:51:08,389000/451756b22060251d8eedc761b46eed09-d.jpg,,
21682181,Accounting and Financial Management: Developments in the International Hospitality Industry,,,,"Peter Harris, Marco Mongiello",2006,1,Butterworth-Heinemann,,352,0,English,2,,,"075066729X,9780750667296,9780080492483",,,,,657.837,HF5686.H75 A235 2006,,,OL22650750M,,0,,,,,1,,1,2587432,pdf,452211E404F828F3186D470828467F4C,,,"452211e404f828f3186d470828467f4c~075066729X,9780750667296,9780080492483.pdf",0,2000-01-01 01:00:00,2016-04-03 02:51:08,389000/452211e404f828f3186d470828467f4c-d.jpg,,
21682182,"The Postcolonial Question: Common Skies, Divided Horizons",,,,"Iain Chambers, Lidia Curti",1996,1,Routledge,,288,0,English,,,,"0415108578,9780415108577,0415108586,9780415108584,9780203138328",,,,,305.8,GN495.6 .P67 1996,,,OL1269358M,,0,,,,,1,1,1,2721768,pdf,452528F882CCE87134EE0A7AAF96FDCB,,,"452528f882cce87134ee0a7aaf96fdcb~0415108578,9780415108577,0415108586,9780415108584,9780203138328.pdf",0,2000-01-01 01:00:00,2016-04-03 02:51:08,389000/452528f882cce87134ee0a7aaf96fdcb-d.jpg,,
21682183,Geschichte Frankreichs.,,,,Peter C. Hartmann,1999,,C.H.Beck,,132,0,German,,,,"3406447244,9783406447242",,,,,,,,,OL9026358M,,0,,,,,,,1,1015762,pdf,452561FF95A0CA3996593A4EC1FFF570,,,"452561ff95a0ca3996593a4ec1fff570~3406447244,9783406447242.pdf",0,2000-01-01 01:00:00,2016-04-03 02:51:08,389000/452561ff95a0ca3996593a4ec1fff570-d.jpg,,
21682184,Four to Score ,,"Stephanie Plum, No. 4",,Janet Evanovich,1998,1998,St. Martin's Paperbacks,,338,0,English,110,,,"0312966970,9780312966973",,,,,813/.54,PS3555.V2126 F6 1999,,,OL24207622M,,0,,,,,,,,316829,lit,452686AB807BAB60392AB84C2F1120BD,,,"452686ab807bab60392ab84c2f1120bd~0312966970,9780312966973.lit",0,2000-01-01 01:00:00,2016-04-03 02:51:08,389000/452686ab807bab60392ab84c2f1120bd-d.jpg,,
21682185,British Virgin Islands Alive Guide,,,,"Harriet Greenberg, Douglas Greenberg",2005,,Hunter Publishing,,192,0,English,,,,"1588435075,9781588435538,9781588435071",,,,,,,,,OL8829132M,,0,,,,,,1,1,1979667,pdf,452964D94526DF12770F908866B21CDE,,,"452964d94526df12770f908866b21cde~1588435075,9781588435538,9781588435071.pdf",0,2000-01-01 01:00:00,2016-04-03 02:51:08,389000/452964d94526df12770f908866b21cde-d.jpg,,
21682186,Le philosophe et le réel : entretiens avec Jean-Jacques Rosat,,,,"Jacques Bouveresse, Jean-Jacques Rosat",1998,,Hachette Littérature,,135,0,French,195,,,"2012790143,9782012790148",,,,,,,,,OL8833708M,,0,,,,,,,0,11308400,pdf,452978EBB06E8194B261272398397F8B,,,"452978ebb06e8194b261272398397f8b~2012790143,9782012790148.pdf",0,2000-01-01 01:00:00,2016-04-03 02:51:08,389000/452978ebb06e8194b261272398397f8b-d.jpg,,
21682187,Einführung in die Festigkeitslehre : Lehr- und Übungsbuch ; mit 49 Tabellen,,Studium,,Volker Läpple,2008,"2., verb. und erw. Aufl",Vieweg + Teubner,Wiesbaden,429,0,German,,usenet,to 2012-06,"9783834804266,3834804266,9783834894960,3834894966",,,,,,,,,,,0,,,,,,,1,17255573,pdf,0be2109b077baf4620586436543b3178,,,I:\\usenet_ger\\Einfuehrung.in.die.Festigkeitslehre.[Springer].[2008].[p73l95].pdf,0,2000-01-01 01:00:00,2016-04-03 02:51:08,883000/0be2109b077baf4620586436543b3178-d.jpg,,
21682188,On Island Time: Kayaking the Caribbean,,,,Scott B. Williams,2005,,University Press of Mississippi,,254,0,English,,,,"1578067464,9781578067466",,,,,,,,,OL8752805M,,0,,,,,1,1,1,1413319,pdf,453128E654C41782F97AE38FC98BC5FE,,,"453128e654c41782f97ae38fc98bc5fe~1578067464,9781578067466.pdf",0,2000-01-01 01:00:00,2016-04-03 02:51:08,389000/453128e654c41782f97ae38fc98bc5fe-d.jpg,,
21682189,The Silver Wolf ,,"Legends of the Wolves, Book 1",,Alice Borchardt,1999,,Ballantine Books,,159,0,English,,,,"0345423615,9780345423610",,,,,,,,,,text missing after chapter 15,0,,,,,0,,1,458026,pdf,453315E58872C491F96F6079B316BFD6,,,"453315e58872c491f96f6079b316bfd6~0345423615,9780345423610.pdf",0,2000-01-01 01:00:00,2016-04-03 02:51:08,389000/453315e58872c491f96f6079b316bfd6-d.jpg,,
21682190,"A History of Japan, : From Stone Age to Superpower",,,,Kenneth G. Henshall,2004,2nd,Palgrave Macmillan,,279,0,English,64,,,"1403912726,9781403912725,9780230502925",,,,,952,DS835 .H386 2004,,,OL21113221M,,0,,,,1,0,1,1,1007121,pdf,453446C608169AFBCC98B03C0261DD57,,,"453446c608169afbcc98b03c0261dd57~1403912726,9781403912725,9780230502925.pdf",0,2000-01-01 01:00:00,2016-04-03 02:51:08,389000/453446c608169afbcc98b03c0261dd57-d.jpg,,
21682191,World Food: Production and Use,,,,"Alfred R. Conklin, Thomas Stilwell",2007,,Wiley-Interscience,,445,0,English,229,,,"0470043822,9780470043820",,,,,338.1/9,TX354 .C65 2007,,,OL10278587M,,0,,,,,,,1,16508428,pdf,453513A4CB340F4D4C19BC319EC80425,,,"453513a4cb340f4d4c19bc319ec80425~0470043822,9780470043820.pdf",0,2000-01-01 01:00:00,2016-04-03 02:51:08,389000/453513a4cb340f4d4c19bc319ec80425-d.jpg,,
21682192,The Jews of the Middle East and North Africa in Modern Times,,,,"Reeva Spector Simon, Michael Menachem Laskier, Sara Reguer",2003,,Columbia University Press,,432,0,English,,,,"0231107978,9780231107976,9780231507592",,,,,,,,,OL18223271M,,0,,,,,1,,1,18654546,pdf,453782F55C0F19CC377165FC974BDFDF,,,"453782f55c0f19cc377165fc974bdfdf~0231107978,9780231107976,9780231507592.pdf",0,2000-01-01 01:00:00,2016-04-03 02:51:08,389000/453782f55c0f19cc377165fc974bdfdf-d.jpg,,
21682193,Opportunities to Address Clinical Research Workforce Diversity Needs for 2010,,,,"Committee on Opportunities to Address Clinical Research Workforce Diversity Needs for 2010, Committee on Women in Science and Engineering, National Research Council, Jong-on Hahm, Alexander Ommaya",2006,,National Academies Press,,146,0,English,161,,,"0309092485,9780309092487,9780309533058",,,,,,,,,OL10358879M,,0,,,,,1,,1,496169,pdf,454285D65ABCEEE17357705B476356F8,,,"454285d65abceee17357705b476356f8~0309092485,9780309092487,9780309533058.pdf",0,2000-01-01 01:00:00,2016-04-03 02:51:08,389000/454285d65abceee17357705b476356f8-d.jpg,,
21682194,Ashes of Midnight ,,"The Midnight Breed, Book 6",,Lara Adrian,2009,Original,Dell,,368,0,English,110,,,"0440244501,9780440244509",,,,,,,,,OL24087134M,,0,,,,,1,,1,554736,pdf,455345F378C2FB22618A45587723F60F,,,"455345f378c2fb22618a45587723f60f~0440244501,9780440244509.pdf",0,2000-01-01 01:00:00,2016-04-03 02:51:08,389000/455345f378c2fb22618a45587723f60f-d.jpg,,
21682195,Commerce and Social Standing in Ancient Rome,,,,John H. D'Arms,1981,,Harvard University Press,,224,0,English,64,,,"0674144759,9780674144750",,,,,306/.3,HF377 .D37,,,OL4110982M,,0,,,,,1,,0,8861590,pdf,455390E04233BBD157E2D44B9FFCC3DE,,,"455390e04233bbd157e2d44b9ffcc3de~0674144759,9780674144750.pdf",0,2000-01-01 01:00:00,2016-04-03 02:51:08,389000/455390e04233bbd157e2d44b9ffcc3de-g.jpg,,
21682196,Tropical Africa ,,Routledge Introductions to Development,,Tony Binns,1993,1,Routledge,,208,0,English,,,,"041504801X,9780415048019,9780203132548",,,,,,,,,OL7481516M,,0,,,,,1,1,1,3667234,pdf,455636D50AB2ADEA43F493FC51937C29,,,"455636d50ab2adea43f493fc51937c29~041504801X,9780415048019,9780203132548.pdf",0,2000-01-01 01:00:00,2016-04-03 02:51:08,389000/455636d50ab2adea43f493fc51937c29-d.jpg,,
21682197,Operations Research: A Model-Based Approach,,,,"H. A. Eiselt, Carl-Louis Sandblom (auth.)",2010,1st Edition.,Springer Berlin Heidelberg,,453,0,English,,,,"3642103251,9783642103254",,,,,,,10.1007/978-3-642-10326-1,B9mpCdlPsuQC,,,0,,,,0,0,1,1,6020790,pdf,455947A1ACA9B10B8701F445E05014F8,,,"455947a1aca9b10b8701f445e05014f8~3642103251,9783642103254.pdf",0,2000-01-01 01:00:00,2016-04-03 02:51:08,389000/455947a1aca9b10b8701f445e05014f8-d.jpg,,
21682198,Números e Numerais: Tópicos de História da Matemática para Uso em...,,,,,1992,1,Atual,,78,0,Portuguese,64,,,"9788570564580,8570564589",,,,,,,,,OL13405094M,,0,,,,,1,1,0,1794721,pdf,456866C6EB3A4340F21E2BC4BF220755,,,"456866c6eb3a4340f21e2bc4bf220755~9788570564580,8570564589.pdf",0,2000-01-01 01:00:00,2016-04-03 02:51:08,389000/456866c6eb3a4340f21e2bc4bf220755-g.jpg,,
21682199,Webster's Korean to English Crossword Puzzles: Level 13,,,,Philip M. Parker,2006,,"ICON Group International, Inc",,120,0,English,100,,,"0497254670,9780497254674,9781423772118",,,,,,,,,OL10370253M,,0,,,,,1,,1,1295013,pdf,457017D3AA80CF365C24FED86E0AD9BD,,,"457017d3aa80cf365c24fed86e0ad9bd~0497254670,9780497254674,9781423772118.pdf",0,2000-01-01 01:00:00,2016-04-03 02:51:08,389000/457017d3aa80cf365c24fed86e0ad9bd-d.jpg,,
21682200,Ant Encounters: Interaction Networks and Colony Behavior ,,Primers in Complex Systems,,Deborah M. Gordon,2010,,Princeton University Press,,184,0,English,99,,,"0691138796,9780691138794",,,,,595.79/61782,QL568.F7 G635 2010,,,OL23687112M,,0,,,,,,1,1,678627,pdf,457087B8BBCA55CE199FE6619D21F92B,,,"457087b8bbca55ce199fe6619d21f92b~0691138796,9780691138794.pdf",0,2000-01-01 01:00:00,2016-04-03 02:51:08,389000/457087b8bbca55ce199fe6619d21f92b-d.jpg,,
21682201,"Goodbye, Darwin",,,,"Cavan, Terrill, G.R.C., Lewis",2006,,Apodis Publishing Inc.,,220,0,English,,,,"0973804726,9780973804720",,,,,,,,,OL8580750M,,0,,,,,1,1,1,1371960,pdf,457787B51D054FD96AFF11430F52CED6,,,"457787b51d054fd96aff11430f52ced6~0973804726,9780973804720.pdf",0,2000-01-01 01:00:00,2016-04-03 02:51:08,389000/457787b51d054fd96aff11430f52ced6-d.jpg,,
21682202,Solar Dynamics and its Effects on the Heliosphere and Earth ,,Space Sciences Series of ISSI,,"D.N. Baker, B. Klecker, S.J. Schwartz, R. Schwenn, Rudolf von Steiger",2007,1,Springer,,372,0,English,38,,,"0387695311,9780387695310,9780387695327",,,,,,,10.1007/s11214-006-9112-z,,OL7447725M,,0,,,,,1,,1,7375533,pdf,457847DB67A1FCC6ADDD245EA5D8AF4A,,,"457847db67a1fcc6addd245ea5d8af4a~0387695311,9780387695310,9780387695327.pdf",0,2000-01-01 01:00:00,2016-04-03 02:51:08,389000/457847db67a1fcc6addd245ea5d8af4a-d.jpg,,
21682203,"Collaborative Computing: Networking, Applications and Worksharing: 4th International Conference, CollaborateCom 2008, Orlando, FL, USA, November ... and Telecommunications Engineering)",,,,"Elisa Bertino, James B. D. Joshi",2009,1,Springer,,833,0,English,210,,,"3642033539,9783642033537",,,,,,,,,OL24478155M,,0,,,,,,1,1,18311594,pdf,458096C9A6E651F617AD17D529DD598A,,,"458096c9a6e651f617ad17d529dd598a~3642033539,9783642033537.pdf",0,2000-01-01 01:00:00,2016-04-03 02:51:08,389000/458096c9a6e651f617ad17d529dd598a-d.jpg,,
21682204,Mastering Microsoft Windows Small Business Server 2008,,,,Steven Johnson,2010,,Sybex,,408,0,English,87,,,"0470503726,9780470503720",,,,,,,,,,,0,,,,,1,,1,8365438,pdf,458707F3DE39E1859D6F57F67075DA67,,,"458707f3de39e1859d6f57f67075da67~0470503726,9780470503720.pdf",0,2000-01-01 01:00:00,2016-04-03 02:51:08,389000/458707f3de39e1859d6f57f67075da67-d.jpg,,
21682205,Handbuch Medienmanagement ,,,,Christian Scholz,2006,1,Springer,,995,0,German,,,,"354023540X,9783540235408,9783540328797",,,,,,,,,OL12773336M,,0,,,,,1,1,1,5369922,pdf,458708CA80DA8C9659C5EB44C1AF0FB5,,,"458708ca80da8c9659c5eb44c1af0fb5~354023540X,9783540235408,9783540328797.pdf",0,2000-01-01 01:00:00,2016-04-03 02:51:08,389000/458708ca80da8c9659c5eb44c1af0fb5-d.jpg,,
21682206,Stroke Prevention by the Practitioner ,,Cerebrovascular Diseases,,Julien Bogousslavsky,2003,2 Revised,Not Avail,,72,0,English,,,,"9780585471679,9783805575690,3805575696",,,,,,,10.1159/000069674,,OL12931544M,,0,,,,,,,1,2063450,pdf,458714BF5917478F138CE1CF5051C6B0,,,"458714bf5917478f138ce1cf5051c6b0~9780585471679,9783805575690,3805575696.pdf",0,2000-01-01 01:00:00,2016-04-03 02:51:08,389000/458714bf5917478f138ce1cf5051c6b0-d.jpg,,
21682207,Contemporary Arab Thought: Studies in Post-1967 Arab Intellectual History,,,,Ibrahim M. Abu-Rabi,2003,,Pluto Press,,512,0,English,64,,,"0745321704,9781435661998,9780745321707,0745321690,9780745321691",,,,,,,,,OL17117798M,,0,,,,,1,1,1,2673943,pdf,458816E90EC519F85EF2D2308DAA3E9A,,,"458816e90ec519f85ef2d2308daa3e9a~0745321704,9781435661998,9780745321707,0745321690,9780745321691.pdf",0,2000-01-01 01:00:00,2016-04-03 02:51:08,389000/458816e90ec519f85ef2d2308daa3e9a-d.jpg,,
21682208,Interpreting Japanese Society: Anthropological Approaches,,,,Joy Hendry,1998,2,Routledge,,291,0,English,14,,,"0415172683,9780415172684,0415172675,0203125053,0203012690",,,,,952.04,DS822.5 .I586 1998,,,OL696414M,,0,,,,,,1,1,2691380,pdf,459321C7E2EF606B1E35F4DD4613C5AE,,,"459321c7e2ef606b1e35f4dd4613c5ae~0415172683,9780415172684,0415172675,0203125053,0203012690.pdf",0,2000-01-01 01:00:00,2016-04-03 02:51:08,389000/459321c7e2ef606b1e35f4dd4613c5ae-d.jpg,,
21682209,Visual Perception: An Introduction,,,,"Michael T. Swanston, Nicholas J. Wade",2001,2,Psychology Press,,294,0,English,,,,"9781841692036,9781841692043,1841692034,1841692042,0203573900,0203496310,9780203496312",,,,,152.14,BF241 .W32 2001,,,OL3940315M,,0,,,,,1,1,1,7813254,pdf,459962FB7122612E80BEFE3BD270B792,,,"459962fb7122612e80befe3bd270b792~9781841692036,9781841692043,1841692034,1841692042,0203573900,0203496310,9780203496312.pdf",0,2000-01-01 01:00:00,2016-04-03 02:51:08,389000/459962fb7122612e80befe3bd270b792-d.jpg,,
21682210,Learning Oracle PL/SQL,,,,Bill Pribyl,2001,1,O'Reilly Media,,450,0,English,183,,,"0596001800,9780596001803",,,,,005.7585,,,,OL22036109M,,0,,,,,1,,,1264644,chm,461200ADEB04941744CABB56FD00B16D,,,"461200adeb04941744cabb56fd00b16d~0596001800,9780596001803.chm",0,2000-01-01 01:00:00,2016-04-03 02:51:08,389000/461200adeb04941744cabb56fd00b16d-d.jpg,,
21682211,Support Groups for Older People Who Have Been Abused: Beyond Existing ,,Violence and Abuse,,Jacki Pritchard,2003,1,Jessica Kingsley Publishers,,224,0,English,138,,,"1843101025,9781843101024,9781417501953",,,,,,,,,OL9544713M,,0,,,,,,1,1,958622,pdf,461429AD6D923C18732FCAFE312DF348,,,"461429ad6d923c18732fcafe312df348~1843101025,9781843101024,9781417501953.pdf",0,2000-01-01 01:00:00,2016-04-03 02:51:08,389000/461429ad6d923c18732fcafe312df348-d.jpg,,
21682212,Beyond Monotheism: A Theology of Multiplicity,,,,Laurel C. Schneider,2007,,Routledge,,263,0,English,,,,"9780415941907,9780415941914,0415941903,0415941911,9780203944714",,,,,211/.3,BL221 .S36 2007,,,OL10208477M,,0,,,,1,0,1,1,1838153,pdf,461442B4F7F70FDFD3B2955FEB2167FC,,,"461442b4f7f70fdfd3b2955feb2167fc~9780415941907,9780415941914,0415941903,0415941911,9780203944714.pdf",0,2000-01-01 01:00:00,2016-04-03 02:51:08,389000/461442b4f7f70fdfd3b2955feb2167fc-d.jpg,,
21682213,Thermodynamics for the Practicing Engineer ,,Essential Engineering Calculations Series,,"Louis Theodore, Francesco Ricci, Timothy Vanvliet",2009,,Wiley-AIChE,,435,0,English,282,,,"0470444681,9780470444689",,,,,621.402/1,TJ265 .T455 2009,,,OL23217941M,,0,,,,1,0,1,1,2592580,pdf,461879A7FC5C43E0880D726B0761F6F0,,,"461879a7fc5c43e0880d726b0761f6f0~0470444681,9780470444689.pdf",0,2000-01-01 01:00:00,2016-04-03 02:51:08,389000/461879a7fc5c43e0880d726b0761f6f0-d.jpg,,
21682214,Mobilizing Islam,,,,Carrie Rosefsky Wickham,2002,0,Columbia University Press,,300,0,English,,,,"0231125720,9780231125727,9780231500838",,,,,,,,,OL9641420M,,0,,,,,,,1,930534,pdf,462163A4726C60428CC9D96D7E5091B7,,,"462163a4726c60428cc9d96d7e5091b7~0231125720,9780231125727,9780231500838.pdf",0,2000-01-01 01:00:00,2016-04-03 02:51:08,389000/462163a4726c60428cc9d96d7e5091b7-d.jpg,,
21682215,Severe Emotional Disturbance in Children and Adolescents: Psychotherapy in Applied Contexts,,,,Denis Flynn,2004,1,Routledge,,258,0,English,172,,,"1583912118,9781583912119,9780203463468",,,,,618.92/8914,RJ504 .F59 2004,,,OL3680597M,,0,,,,,1,,1,1632561,pdf,462641A877095F6FBC8660D254E48E5D,,,"462641a877095f6fbc8660d254e48e5d~1583912118,9781583912119,9780203463468.pdf",0,2000-01-01 01:00:00,2016-04-03 02:51:08,389000/462641a877095f6fbc8660d254e48e5d-d.jpg,,
21682216,Daisy Miller,,,,Henry James,2003,,Wildside Press,,164,0,English,110,,,"1592243002,9781592243006",,,,,,,,,,,0,,,,,1,,1,819856,pdf,463636B7F4E0E603F6489F176525F77C,,,"463636b7f4e0e603f6489f176525f77c~1592243002,9781592243006.pdf",0,2000-01-01 01:00:00,2016-04-03 02:51:08,389000/463636b7f4e0e603f6489f176525f77c-d.jpg,,
