21739217,Thirdspace: Journeys to Los Angeles and Other Real-and-Imagined Places,,,,Edward W. Soja,1996,1,,,352,0,English,,,до 2011-01,"1557866759,9781557866752",,,,,304.2/3,HM206 .S633 1996,,,OL793835M,,0,,,,,1,,1,11547508,djvu,F8EA2DC0934A2F98B5E9FDBF2DCD94F5,,,D:\\!genesis\\library.nu\\f8\\_38452.f8ea2dc0934a2f98b5e9fdbf2dcd94f5.djvu,0,2000-01-01 01:00:00,2016-04-03 02:51:08,445000/f8ea2dc0934a2f98b5e9fdbf2dcd94f5-d.jpg,,
21739218,Introduction a l'Islam,,,,Youcef al-Qaradawi,,,,,426,0,French,205,,до 2011-01,9772655675,,,,,,,,,,,0,,,,,1,,0,24006628,pdf,F83B0A93DA0751E0D267062428CF66BE,,,D:\\!genesis\\library.nu\\f8\\_38353.f83b0a93da0751e0d267062428cf66be.pdf,0,2000-01-01 01:00:00,2016-04-03 02:51:08,445000/f83b0a93da0751e0d267062428cf66be-g.jpg,,
21739219,Power to the Edge: Command and Control in the Information Age (Information Age Transformation Series),,,,"David S. Alberts, Richard E. Hayes",2003,,,,11,0,English,,,до 2011-01,"1893723135,9781893723139",,,,,,,,,OL8722032M,,0,,,,,1,,1,3320889,pdf,F86C789092F9B168D3E6A8ADF275BFAA,,,D:\\!genesis\\library.nu\\f8\\_38090.f86c789092f9b168d3e6a8adf275bfaa.pdf,0,2000-01-01 01:00:00,2016-04-03 02:51:08,445000/f86c789092f9b168d3e6a8adf275bfaa-d.jpg,,
21739220,The Economic Institutions of Capitalism,,,,Oliver E. Williamson,1998,,,,468,0,English,305,,до 2011-01,"068486374X,9780684863740",,,,,,,,,OL7722582M,,0,,,,,1,1,1,18888327,pdf,F84FE9BA1A7ABC2D5C9219327AB1268A,,,D:\\!genesis\\library.nu\\f8\\_37797.f84fe9ba1a7abc2d5c9219327ab1268a.pdf,0,2000-01-01 01:00:00,2016-04-03 02:51:08,445000/f84fe9ba1a7abc2d5c9219327ab1268a-d.jpg,,
21739221,Creating Adaptive Policies: A Guide for Policymaking in an Uncertain World,,,,Darren Swanson,2009,,,,188,0,English,192,,до 2011-01,"8132101472,9788132101475",,,,,320.6,HC79.E5 C7275 2009,,,OL23606390M,,0,,,,,1,,1,1479546,pdf,F86EF98F79BF2217F8426EA8DD8BF37D,,,D:\\!genesis\\library.nu\\f8\\_37678.f86ef98f79bf2217f8426ea8dd8bf37d.pdf,0,2000-01-01 01:00:00,2016-04-03 02:51:08,445000/f86ef98f79bf2217f8426ea8dd8bf37d-d.jpg,,
21739222,"CIMA Official Learning System Fundamentals of Business Maths, Fourth Edition",,,,Graham Eaton,2009,4,,,528,0,English,183,,до 2011-01,"1856177831,9781856177832",,,,,,,,,,,0,,,,,1,,1,5610579,pdf,F80B5CC97DC7DFC4AD0D9E4F69002F32,,,D:\\!genesis\\library.nu\\f8\\_37241.f80b5cc97dc7dfc4ad0d9e4f69002f32.pdf,0,2000-01-01 01:00:00,2016-04-03 02:51:08,445000/f80b5cc97dc7dfc4ad0d9e4f69002f32-d.jpg,,
21739223,Soviet Workers and Late Stalinism: Labour and the Restoration of the Stalinist System after World War II,,,,Donald Filtzer,2002,,,,296,0,English,67,,до 2011-01,"0521815037,9780521815031,9780511042553",,,,,331.110947,HD8526.5 .F538 2002,,,OL3656438M,,0,,,,,1,1,1,1165916,pdf,F8693E00199599737D7C7DF121170C5C,,,D:\\!genesis\\library.nu\\f8\\_3654.f8693e00199599737d7c7df121170c5c.pdf,0,2000-01-01 01:00:00,2016-04-03 02:51:08,445000/f8693e00199599737d7c7df121170c5c-d.jpg,,
21739224,Genomic Imprinting,,Advances in Experimental Medicine and Biology 626,,Jon F. Wilkins,2008,1,,,142,0,English,178,,до 2011-01,"9780387775753,0387775757",,,,,572.8/65,QH450 .G4662 2008,,,OL16673017M,,0,,,,,1,,1,1821456,pdf,F83E9283517C0D73D7CBE88E05F2C2ED,,,D:\\!genesis\\library.nu\\f8\\_36519.f83e9283517c0d73d7cbe88e05f2c2ed.pdf,0,2000-01-01 01:00:00,2016-04-03 02:51:08,445000/f83e9283517c0d73d7cbe88e05f2c2ed-d.jpg,,
21739225,"The Middle Ages : An Encyclopedia for Students, Volume 1",,,,William C. Jordan,1996,,,,249,0,English,64,,до 2011-01,"0684804832,9780684804835",,,,,909.0703,,,,OL22933312M,,0,,,,,1,,1,22930926,pdf,F834B57F00597A6997EA018126A1BBCB,,,D:\\!genesis\\library.nu\\f8\\_35685.f834b57f00597a6997ea018126a1bbcb.pdf,0,2000-01-01 01:00:00,2016-04-03 02:51:08,445000/f834b57f00597a6997ea018126a1bbcb-g.jpg,,
21739226,"Literacies, Global and Local (AILA Applied Linguistics Series (Aals), Volume 2)",,,,"Mastin Prinsloo (Editor), Mike Baynham (Editor)",2008,,,,218,0,English,137,,до 2011-01,"9027205183,9789027205186,9789027291189",,,,,302.2/244,P40.5.L58 L58 2007,,,OL18017196M,,0,,,,,1,1,1,2957899,pdf,F8AE59E7E9BF09064ADB6710A8AD0A35,,,D:\\!genesis\\library.nu\\f8\\_35456.f8ae59e7e9bf09064adb6710a8ad0a35.pdf,0,2000-01-01 01:00:00,2016-04-03 02:51:08,445000/f8ae59e7e9bf09064adb6710a8ad0a35-d.jpg,,
21739227,The World's Youth: Adolescence in Eight Regions of the Globe,,,,"B. Bradford Brown, Reed W. Larson, T. S. Saraswathi",2002,,,,382,0,English,,,до 2011-01,"052180910X,9780521809108,9780511042027",,,,,,,,,OL17062210M,,0,,,,,1,1,1,1344805,pdf,F816086D5E68AE1CC26AA365A6532934,,,D:\\!genesis\\library.nu\\f8\\_3544.f816086d5e68ae1cc26aa365a6532934.pdf,0,2000-01-01 01:00:00,2016-04-03 02:51:08,445000/f816086d5e68ae1cc26aa365a6532934-d.jpg,,
21739228,Politics of Mining: What They Don't Teach You in School,,,,Deepak Malhotra,2001,,"Society for Mining, Metallurgy, and Exploration, Inc.",,158,0,English,192,,до 2011-01,"0873352025,9780873352024",,,,,,,,,OL9819874M,,0,,,,1,0,,1,968663,pdf,F8E28B2F093F447EEB09D9E62A279023,,,D:\\!genesis\\library.nu\\f8\\_35427.f8e28b2f093f447eeb09d9e62a279023.pdf,0,2000-01-01 01:00:00,2016-04-03 02:51:08,445000/f8e28b2f093f447eeb09d9e62a279023-d.jpg,,
21739229,Castelio against Calvin or Conscience against Violence,,,,Stefan Zweig,1951,,,,238,0,English,,,до 2011-01,,,B0006EUMJE,,,,,,,,,0,,,,,1,,1,2016356,pdf,F8AEF8BDB86A7D4C3C374E50D251C1F9,,,D:\\!genesis\\library.nu\\f8\\_35345.f8aef8bdb86a7d4c3c374e50d251c1f9.pdf,0,2000-01-01 01:00:00,2016-04-03 02:51:08,445000/f8aef8bdb86a7d4c3c374e50d251c1f9-d.jpg,,
21739230,"Green manor, tome 2 : L'Inconvenient d'etre mort",,,,"Vehlmann, Bodart",,,,,49,0,French,,,до 2011-01,"2800136006,9782800136004",,,,,,,,,,,0,,,,,1,,0,19360680,pdf,F869381BA73BB5DCFAF64F303706E3FB,,,D:\\!genesis\\library.nu\\f8\\_35321.f869381ba73bb5dcfaf64f303706e3fb.pdf,0,2000-01-01 01:00:00,2016-04-03 02:51:08,445000/f869381ba73bb5dcfaf64f303706e3fb-g.jpg,,
21739231,NASA Aeronautics Research: An Assessment,,,,"Committee for the Assessment of NASA's Aeronautics Research Program, National Research Council",2008,,,,122,0,English,,,до 2011-01,"9780309119139,9780309119146,0309119138",,,,,,,,,OL23629886M,,0,,,,,1,,1,654594,pdf,F8DF0A751B157159CE2465142474FA32,,,D:\\!genesis\\library.nu\\f8\\_34920.f8df0a751b157159ce2465142474fa32.pdf,0,2000-01-01 01:00:00,2016-04-03 02:51:08,445000/f8df0a751b157159ce2465142474fa32-d.jpg,,
21739232,Resampling-Based Multiple Testing: Examples and Methods for p-Value Adjustment (Wiley Series in Probability and Statistics),,,,"Peter H. Westfall, S. Stanley Young",1993,1,,,360,0,English,,,до 2011-01,"0471557617,9780471557616",,,,,519.5/4,QA278.8 .W47 1993,,,OL1719324M,,0,,,,,1,,0,19006051,pdf,F881E603E437990ADB9106083C47FC78,,,D:\\!genesis\\library.nu\\f8\\_34836.f881e603e437990adb9106083c47fc78.pdf,0,2000-01-01 01:00:00,2016-04-03 02:51:08,445000/f881e603e437990adb9106083c47fc78-d.jpg,,
21739233,Profit and Loss,,,,Ludwig Von Mises,2008,,,,57,0,English,,,до 2011-01,978-1-933550-36-7,,B001N3FB02,,,,,,,,,0,,,,,1,1,1,158173,pdf,F8CA51644BE4E894C657F5052AB22871,,,D:\\!genesis\\library.nu\\f8\\_34736.f8ca51644be4e894c657f5052ab22871.pdf,0,2000-01-01 01:00:00,2016-04-03 02:51:08,445000/f8ca51644be4e894c657f5052ab22871-d.jpg,,
21739234,The Best Way to Go - Decodable Book 20 Grade 1,,,,Tami Morton illustrated by Jill McDonald,2006,,,,12,0,English,,,до 2011-01,"0153641053,9780153641053",,,,,,,,,,,0,,,,,1,1,1,454701,pdf,F82F6EDC2E3645140CCA675BFB6C148D,,,D:\\!genesis\\library.nu\\f8\\_34192.f82f6edc2e3645140cca675bfb6c148d.pdf,0,2000-01-01 01:00:00,2016-04-03 02:51:08,445000/f82f6edc2e3645140cca675bfb6c148d-g.jpg,,
21739235,"Uterine Cancer: Screening, Diagnosis, and Treatment",,Current Clinical Oncology,,"Celeste L. Pearce, Karine Chung, Anna H. Wu, Malcolm C. Pike (auth.), Esther Oliva, Franco Muggia (eds.)",2009,1,Humana Press,,290,0,English,166,,до 2011-01,"1588297365,9781588297365",,,,,,,10.1007/978-1-60327-044-1,,OL12325713M,,0,,,,,1,,1,4487002,pdf,F8978C002097A0D8CF66C3D37094F290,,,D:\\!genesis\\library.nu\\f8\\_33757.f8978c002097a0d8cf66c3d37094f290.pdf,0,2000-01-01 01:00:00,2016-04-03 02:51:08,445000/f8978c002097a0d8cf66c3d37094f290-d.jpg,,
21739236,Unleashing India's Innovation: Toward Sustainable and Inclusive Growth,,,,Mark Dutz,2007,,,,224,0,English,,,до 2011-01,"0821371975,9780821371978,9780821371985",,,,,338.954/07,HC435.3 .U55 2007,10.1596/978-0-8213-7197-8,,OL11417011M,,0,,,,,1,,1,7949429,pdf,F839B3FFB7F37322EDB425AC86AA28ED,,,D:\\!genesis\\library.nu\\f8\\_33115.f839b3ffb7f37322edb425ac86aa28ed.pdf,0,2000-01-01 01:00:00,2016-04-03 02:51:08,445000/f839b3ffb7f37322edb425ac86aa28ed-d.jpg,,
21739237,Success Built to Last: Creating a Life that Matters,,,,"Jerry Porras, Stewart Emery, Mark Thompson",2006,1,,,304,0,English,,,до 2011-01,"013228751X,9780132287517,9780132055055",,,,,650.1,HF5386 .P757 2007,,,OL17169911M,,0,,,,,1,1,1,2871977,pdf,F8E34455728063E1721645B98979FAB8,,,D:\\!genesis\\library.nu\\f8\\_32702.f8e34455728063e1721645b98979fab8.pdf,0,2000-01-01 01:00:00,2016-04-03 02:51:08,445000/f8e34455728063e1721645b98979fab8-d.jpg,,
21739238,Mistress and Maid (Jiaohong ji) by Meng Chengshun,,,,Cyril Birch,2001,,,,288,0,English,,,до 2011-01,"0231121687,9780231121682,9780231504317",,,,,895.1/246,PL2698.M44 C4713 2000,,y-FzAyzcgoEC,OL18121691M,,0,,,,,1,1,1,3273031,pdf,F87ABEB2AB2CACE8887B25300363E371,,,D:\\!genesis\\library.nu\\f8\\_32236.f87abeb2ab2cace8887b25300363e371.pdf,0,2000-01-01 01:00:00,2016-04-03 02:51:08,445000/f87abeb2ab2cace8887b25300363e371-d.jpg,,
21739239,"Suetonius Vol.II The Lives of the Caesars, II: Claudius. Nero. Galba, Otho, and Vitellius. Vespasian. Titus, Domitian. Lives of Illustrious Men: Grammarians and Rhetoricians. (Loeb Classical Library)",,,,Suetonius,1914,Revised,,,576,0,English,314,,до 2011-01,"0674995651,9780674995659",,,,,"920.037,B",PA6701.E14 R65 1997,,,OL101982M,,0,,,,,1,,1,51236200,pdf,F8EF6AB8C65300740211A54CF15F3567,,,D:\\!genesis\\library.nu\\f8\\_31812.f8ef6ab8c65300740211a54cf15f3567.pdf,0,2000-01-01 01:00:00,2016-04-03 02:51:08,445000/f8ef6ab8c65300740211a54cf15f3567-d.jpg,,
21739240,Data Abstraction and Structures Using C++,,,,Mark R. Headington,1996,1st,,,194,0,English,116,,до 2011-01,"0763702951,9780763702953,9780585295015",,,,,005.7/3,QA76.73.C153,,,OL22452239M,,0,,,,,1,,1,11765309,djvu,F80738B2B077117F7B23F8743BAC156E,,,D:\\!genesis\\library.nu\\f8\\_31632.f80738b2b077117f7b23f8743bac156e.djvu,0,2000-01-01 01:00:00,2016-04-03 02:51:08,445000/f80738b2b077117f7b23f8743bac156e-g.jpg,,
21739241,Die Bedeutung der Rhetorik für Melanchthons Interpretation profaner und biblischer Texte,,Nachrichten der Akademie der Wissenschaften in Göttingen. 1: Philologisch-historische Klasse,,Carl Joachim Classen,1998,,Vandenhoeck & Ruprecht,,40,0,German,,,до 2011-01,,,,,,,,,,,,400,,,,,,,1,2563182,pdf,F8D326E37CE53E2221FBFC57784077F0,,,D:\\!genesis\\library.nu\\f8\\_315899.f8d326e37ce53e2221fbfc57784077f0.pdf,0,2000-01-01 01:00:00,2016-04-03 02:51:08,445000/f8d326e37ce53e2221fbfc57784077f0-g.jpg,,
21739242,Disasters and Dilemmas: Strategies for Real-Life Decision Making,,,,Adam Morton,1991,First Edition,Basil Blackwell,,219,0,English,,,до 2011-01,"063116216X,9780631162162",,,,,153.8/3,BF448 .M67 1991,,,OL1876948M,,600,,,,,,,1,12190504,pdf,F85A222028329DC866CC91A7175E7FC2,,,D:\\!genesis\\library.nu\\f8\\_315847.f85a222028329dc866cc91a7175e7fc2.pdf,0,2000-01-01 01:00:00,2016-04-03 02:51:08,445000/f85a222028329dc866cc91a7175e7fc2-g.jpg,,
21739243,Quantum Groups and Their Primitive Ideals (Ergebnisse der Mathematik und ihrer Grenzgebiete. 3. Folge   A Series of Modern Surveys in Mathematics),,Ergebnisse der Mathematik und ihrer Grenzgebiete,,Anthony Joseph,1994,1,Springer,,390,0,English,113,,до 2011-01,"3540570578,9783540570578",,,,,512/.55,QC20.7.G76 J67 1995,,,OL1097129M,,0,,,,,,1,0,5282505,pdf,F8F9A0C2512ADE76C3C86A30DB2C09E5,,,D:\\!genesis\\library.nu\\f8\\_315699.f8f9a0c2512ade76c3c86a30db2c09e5.pdf,0,2000-01-01 01:00:00,2016-04-03 02:51:08,445000/f8f9a0c2512ade76c3c86a30db2c09e5-d.jpg,,
21739244,Здоровье в исправительных учреждениях,,,,"Редакторы: Lars Moller, Heino Stover, Ralf Jurgens, Alex Gatherer, Haik Nikogosian",,,,,218,0,Russian,,,до 2011-01,9789289071819,,,,,,,,,,,0,,,,,1,,1,3838071,pdf,F8F2408E30B421A47E5550327FEE04DD,,,D:\\!genesis\\library.nu\\f8\\_31485.f8f2408e30b421a47e5550327fee04dd.pdf,0,2000-01-01 01:00:00,2016-04-03 02:51:08,445000/f8f2408e30b421a47e5550327fee04dd-g.jpg,,
21739245,Steps to Small Business Start-Up,,,,"Linda Pinson, Jerry Jinnett",2006,6,Kaplan Business,,274,0,English,1,,до 2011-01,"141953727X,9781419537271",,,,,658.1/11,HD62.5 .P565  2006,,,OL17155418M,,0,,,,,,,0,40817878,pdf,F8E39DF57E45E45C6B7937AEA1BEBCA5,,,D:\\!genesis\\library.nu\\f8\\_314093.f8e39df57e45e45c6b7937aea1bebca5.pdf,0,2000-01-01 01:00:00,2016-04-03 02:51:08,445000/f8e39df57e45e45c6b7937aea1bebca5-d.jpg,,
21739246,"Advances in Visual Computing: 6th International Symposium, ISVC 2010, Las Vegas, NV, USA, November 29-December 1, 2010, Proceedings, Part I (Lecture ... Vision, Pattern Recognition, and Graphics)",,,,"Richard Boyle, Bahram Parvin, Darko Koracin, Ronald Chung, Riad Hammoud, Muhammad Hussain, Kar-Han Tan, Roger Crawfis, Daniel Thalmann, David Kao, Lisa Avila",2010,1st Edition.,Springer,,808,0,English,178,,до 2011-01,"3642172881,9783642172885",,,,,,,,,OL25176869M,,0,,,,,,1,1,27805552,pdf,F87C9853B843C97511BEBD55CB8CE4CA,,,D:\\!genesis\\library.nu\\f8\\_313983.f87c9853b843c97511bebd55cb8ce4ca.pdf,0,2000-01-01 01:00:00,2016-04-03 02:51:08,445000/f87c9853b843c97511bebd55cb8ce4ca-d.jpg,,
21739247,Taking Charge of Organizational Conflict: A Guide to Managing Anger and Confrontation,,,,David Cowan,2003,2nd,Personhood Press,,200,0,English,7,,до 2011-01,"1932181113,9781932181111",,,,,,,,,OL9458007M,,0,,,,,,,1,1005343,pdf,F851893153F6AA8D53DFE97F4A985F96,,,D:\\!genesis\\library.nu\\f8\\_313976.f851893153f6aa8d53dfe97f4a985f96.pdf,0,2000-01-01 01:00:00,2016-04-03 02:51:08,445000/f851893153f6aa8d53dfe97f4a985f96-d.jpg,,
21739248,Butterfly McQueen Remembered,,,,Stephen Bourne,2007,,"The Scarecrow Press, Inc.",,176,0,English,,,до 2011-01,"081086018X,9780810860186",,,,,,,,,OL11321211M,,0,,,,,,1,1,3368387,pdf,F88FBAABF6A585A8F6ECB128ED460F04,,,D:\\!genesis\\library.nu\\f8\\_313836.f88fbaabf6a585a8f6ecb128ed460f04.pdf,0,2000-01-01 01:00:00,2016-04-03 02:51:08,445000/f88fbaabf6a585a8f6ecb128ed460f04-d.jpg,,
21739249,It's All In The Jeans,,,,Tory Richards,2008,,Whiskey Creek Press,,220,0,English,,,до 2011-01,"1603131639,9781603131636",,,,,,,,,,,0,,,,,,,1,685978,pdf,F8CEE125D5C7A2225AA1AC1CB9D2D7BF,,,D:\\!genesis\\library.nu\\f8\\_313604.f8cee125d5c7a2225aa1ac1cb9d2d7bf.pdf,0,2000-01-01 01:00:00,2016-04-03 02:51:08,445000/f8cee125d5c7a2225aa1ac1cb9d2d7bf-d.jpg,,
21739250,"Ad-Hoc, Mobile and Wireless Networks: 9th International Conference, ADHOC-NOW 2010, Edmonton, AB, Canada, August 20-22, 2010, Proceedings (Lecture ... Networks and Telecommunications)",,Lecture Notes in Computer Science 6288,,"Ioanis Nikolaidis, Kui Wu",2010,1st Edition.,Springer,,228,0,English,99,,до 2011-01,"3642147844,9783642147845",,,,,,,10.1007/978-3-642-14785-2,,,,0,,,,,,1,1,4230775,pdf,F8687661016052CB8B99A2D78CBB508B,,,D:\\!genesis\\library.nu\\f8\\_313494.f8687661016052cb8b99a2d78cbb508b.pdf,0,2000-01-01 01:00:00,2016-04-03 02:51:08,445000/f8687661016052cb8b99a2d78cbb508b-d.jpg,,
21739251,3D Modeling and Animation: Synthesis and Analysis Techniques for the Human Body,,,,"Nikos Sarris, Michael G. Strintzis",2004,,IRM Press,,407,0,English,148,,до 2011-01,"1931777985,9781931777988,1931777993",,,,,,,,,OL8805115M,,0,,,,,,,1,7643485,pdf,F8DF073DF4565B3CFA427CE72F49F1EC,,,D:\\!genesis\\library.nu\\f8\\_312561.f8df073df4565b3cfa427ce72f49f1ec.pdf,0,2000-01-01 01:00:00,2016-04-03 02:51:08,445000/f8df073df4565b3cfa427ce72f49f1ec-d.jpg,,
21739252,Communications in Mathematical Physics - Volume 233,233,,,M. Aizenman (Chief Editor),2003,,Springer,,560,0,English,137,,до 2011-01,,,,,,,,10.1007/s00220-002-0773-5,,,,0,,,,,,1,1,4784511,pdf,F8EFBC0749F3CE1D958599F50AA84D52,,,D:\\!genesis\\library.nu\\f8\\_312090.f8efbc0749f3ce1d958599f50aa84d52.pdf,0,2000-01-01 01:00:00,2016-04-03 02:51:08,445000/f8efbc0749f3ce1d958599f50aa84d52-g.jpg,,
21739253,Symmetrische Funktionen (Herbstsemester 2009),,,,"Karin Baur, Soumaia Ghandour",2009,,,,49,0,German,,,0,,,,,,,,,,,Lecture notes downloaded from author's website,0,,,,,,,1,341895,pdf,d712361953a570003f7312d75532504a,,,Baur-SymmPoly,0,2000-01-01 01:00:00,2016-04-03 02:51:08,885000/d712361953a570003f7312d75532504a-g.jpg,,
21739254,Western Stock Ranching (Minnesota Archive Editions),,,,Mont H. Saunderson,1950,Minnesota Archive Editions,Univ Of Minnesota Press,,264,0,English,,,до 2011-01,"081665865X,9780816658657,0816600635,9780816600632",,,,,,,,,,,0,,,,,,,1,15352511,pdf,F8428B90E4190E94E065ED679DB109AC,,,D:\\!genesis\\library.nu\\f8\\_312083.f8428b90e4190e94e065ed679db109ac.pdf,0,2000-01-01 01:00:00,2016-04-03 02:51:08,445000/f8428b90e4190e94e065ed679db109ac-d.jpg,,
21739255,Wicked Prey,,,,John Sandford,2010,,Berkley,,368,0,English,,,до 2011-01,"184739471X,9781847394712",,,,,,,,,,,0,,,,,,,1,317062,epub,F8354036D8C1F29C373EFC6AB9DAC346,,,D:\\!genesis\\library.nu\\f8\\_311961.f8354036d8c1f29c373efc6ab9dac346.epub,0,2000-01-01 01:00:00,2016-04-03 02:51:08,445000/f8354036d8c1f29c373efc6ab9dac346-d.jpg,,
21739256,Zur fraglichen Stunde,,,,Dorothy L. Sayers,1980,,Wunderlich,,755,0,German,,,до 2011-01,"3805203381,9783805203388",,,,,,,,,,,0,,,,,,1,1,3065655,pdf,F8122681AC3C62CD10CEC6CCC35F111B,,,D:\\!genesis\\library.nu\\f8\\_311282.f8122681ac3c62cd10cec6ccc35f111b.pdf,0,2000-01-01 01:00:00,2016-04-03 02:51:08,445000/f8122681ac3c62cd10cec6ccc35f111b-g.jpg,,
21739257,Breaking Silence: The Case That Changed the Face of Human Rights (Advancing Human Rights),,Advancing Human Rights,,Richard Alan White,2004,,Georgetown University Press,,314,0,English,,,до 2011-01,"1589012240,9781589012240",,,,,,,,,,,0,,,,,,,1,13575539,pdf,F837A51E9C495A1B75A73594BE691A4A,,,D:\\!genesis\\library.nu\\f8\\_310796.f837a51e9c495a1b75a73594be691a4a.pdf,0,2000-01-01 01:00:00,2016-04-03 02:51:08,445000/f837a51e9c495a1b75a73594be691a4a-d.jpg,,
21739258,Early Warming: Crisis and Response in the Climate-Changed North,,,,Nancy Lord,2011,,Counterpoint,,256,0,English,36,,до 2011-01,"1582434492,9781582434490",,,,,304.2/509798,GF504.A4 L67 2011,,,OL25106824M,,0,,,,,,1,1,6621222,pdf,F814024813F2874D84FDE6CCF5FEB2F3,,,D:\\!genesis\\library.nu\\f8\\_310746.f814024813f2874d84fde6ccf5feb2f3.pdf,0,2000-01-01 01:00:00,2016-04-03 02:51:08,445000/f814024813f2874d84fde6ccf5feb2f3-d.jpg,,
21739259,Chess Tips for the Improving Player,,,,Amatzia Avni,2008,,Quality Chess UK LLP,,192,0,English,46,,до 2011-01,"9185779032,9789185779031",,,,,,,,,,,0,,,,,,1,0,15138911,pdf,F87D6373C2F150C35E7DC41BB231F575,,,D:\\!genesis\\library.nu\\f8\\_310655.f87d6373c2f150c35e7dc41bb231f575.pdf,0,2000-01-01 01:00:00,2016-04-03 02:51:08,445000/f87d6373c2f150c35e7dc41bb231f575-d.jpg,,
21739260,Gertrud,,,,Hermann Hesse,1983,,Suhrkamp Verlag,,251,0,German,,,до 2011-01,"3518373900,9783518373903",,,,,,,,,OL21838796M,,0,,,,,,1,1,1232369,pdf,F86F8D511A7AE14206803269BA637ED9,,,D:\\!genesis\\library.nu\\f8\\_310591.f86f8d511a7ae14206803269ba637ed9.pdf,0,2000-01-01 01:00:00,2016-04-03 02:51:08,445000/f86f8d511a7ae14206803269ba637ed9-d.jpg,,
21739261,Beyond Sovereign Territory: The Space of Ecopolitics (Borderlines series),,Borderlines,,Thom Kuehls,1996,1,Univ Of Minnesota Press,,188,0,English,212,,до 2011-01,"0816624682,9780816624683",,,,,363.7,GE170 .K84 1996,,,OL795394M,,0,,,,,,1,1,8868437,pdf,F8359A8EB2ABA1AB3571235BACC75621,,,D:\\!genesis\\library.nu\\f8\\_310244.f8359a8eb2aba1ab3571235bacc75621.pdf,0,2000-01-01 01:00:00,2016-04-03 02:51:08,445000/f8359a8eb2aba1ab3571235bacc75621-d.jpg,,
21739262,Visualizing Immunity,,Current Topics in Microbiology and Immunology 334,,"Andrew Bullen, Rachel S. Friedman, Matthew F. Krummel (auth.), Michael Dustin, Dorian McGavern (eds.)",2009,1,Springer-Verlag Berlin Heidelberg,,292,0,English,,,до 2011-01,"3540938621,9783540938620",,,,,,,10.1007/978-3-540-93864-4,,,,0,,,,,,1,1,2987070,pdf,F8A68BDC9B077B057EB3AE120CB9E4F0,,,D:\\!genesis\\library.nu\\f8\\_309959.f8a68bdc9b077b057eb3ae120cb9e4f0.pdf,0,2000-01-01 01:00:00,2016-04-03 02:51:08,445000/f8a68bdc9b077b057eb3ae120cb9e4f0-d.jpg,,
21739263,Manual of Soil Laboratory Testing: Soil Classification and Compaction Tests Pt. 1,,,,K.H. Head,2006,3Rev Ed,Whittles Publishing,,416,0,English,137,,до 2011-01,"1904445365,9781904445364",,,,,,,,,,,0,,,,,,,0,65440192,pdf,F8FF63A5724502B66EB84FB452771F79,,,D:\\!genesis\\library.nu\\f8\\_309784.f8ff63a5724502b66eb84fb452771f79.pdf,0,2000-01-01 01:00:00,2016-04-03 02:51:08,445000/f8ff63a5724502b66eb84fb452771f79-d.jpg,,
21739264,The Case for Gold: A Minority Report of the U.S. Gold Commission,,,,"Ron Paul, Lewis Lehrman",1982,1st,,,227,0,English,,,до 2011-01,"0932790313,9780932790316",,,,,332.4/52,HG297 .P34 1982,,,OL3494794M,,0,,,,,1,1,1,11059963,pdf,F8888CE3AB36FBEA36E717F5462D45EC,,,D:\\!genesis\\library.nu\\f8\\_30969.f8888ce3ab36fbea36e717f5462d45ec.pdf,0,2000-01-01 01:00:00,2016-04-03 02:51:08,445000/f8888ce3ab36fbea36e717f5462d45ec-d.jpg,,
21739265,Pan and the Nightmare,,,,Wilhelm Heinrich Roscher,1972,,Spring Publications,,88,0,English,,,до 2011-01,,,,,,,,,,,,0,,,,,,,0,14286041,pdf,F853932CECEDEC0031F844D16A68EC2C,,,D:\\!genesis\\library.nu\\f8\\_309634.f853932cecedec0031f844d16a68ec2c.pdf,0,2000-01-01 01:00:00,2016-04-03 02:51:08,445000/f853932cecedec0031f844d16a68ec2c-g.jpg,,
21739266,"Das Unternehmen Krieg. Paramilitars, Warlords und Privatarmeen als Akteure der Neuen Kriegsordnung",,,,"Dario Azzellini, Boris Kanzleiter",2003,,Assoziation a,,204,0,German,67,,до 2011-01,"3935936176,9783935936170",,,,,,,,,,,0,,,,,,1,1,1168582,pdf,F858F685F7FFA82BFB18509B0D1C78EC,,,D:\\!genesis\\library.nu\\f8\\_309125.f858f685f7ffa82bfb18509b0d1c78ec.pdf,0,2000-01-01 01:00:00,2016-04-03 02:51:08,445000/f858f685f7ffa82bfb18509b0d1c78ec-d.jpg,,
21739267,Solange es hell ist,,,,Agatha Christie,2000,,"Scherz Verlag, Frankfurt",,207,0,German,314,,до 2011-01,"3502517371,9783502517375",,,,,,,,,OL12745622M,,0,,,,,,1,1,1015801,pdf,F878A02D7ECD22A10F5FB7EBDE300D52,,,D:\\!genesis\\library.nu\\f8\\_308779.f878a02d7ecd22a10f5fb7ebde300d52.pdf,0,2000-01-01 01:00:00,2016-04-03 02:51:08,445000/f878a02d7ecd22a10f5fb7ebde300d52-d.jpg,,
21739268,Ariel. Motivos de Proteo,,Colección Clásica Nro. 3,,Jose Enrique Rodo,,,Fundación Biblioteca Ayacucho,,324,0,Spanish,,,до 2011-01,,,,,,,,,,,,0,,,,,,1,0,12934340,pdf,F867C4A90A2E7B907A800C82E3E367C4,,,D:\\!genesis\\library.nu\\f8\\_308709.f867c4a90a2e7b907a800c82e3e367c4.pdf,0,2000-01-01 01:00:00,2016-04-03 02:51:08,445000/f867c4a90a2e7b907a800c82e3e367c4-g.jpg,,
21739269,La Voz Y El Fenomeno,,,,Jacques Derrida,1967,,Pre-Textos,,176,0,Spanish,,,до 2011-01,8485081692,,,,,,,,,OL13326349M,,0,,,,,,,1,4023624,pdf,F8F119D7ACC878C6084435E47E4360DF,,,D:\\!genesis\\library.nu\\f8\\_308564.f8f119d7acc878c6084435e47e4360df.pdf,0,2000-01-01 01:00:00,2016-04-03 02:51:08,445000/f8f119d7acc878c6084435e47e4360df-g.jpg,,
21739270,"Human-Computer Etiquette: Cultural Expectations and the Design Implications They Place on Computers and Technology (Supply Chain Integration Modeling, Optimization, and Applications)",,,,"Caroline C. Hayes, Christopher A. Miller",2010,1,Auerbach Publications,,383,0,English,69,,до 2011-01,"1420069454,9781420069457",,,,,,,,,OL11817152M,index missing,0,,,,,,,1,5852309,pdf,F88F3B044D6F03362C2B51E8F7BCAF6A,,,D:\\!genesis\\library.nu\\f8\\_308420.f88f3b044d6f03362c2b51e8f7bcaf6a.pdf,0,2000-01-01 01:00:00,2016-04-03 02:51:08,445000/f88f3b044d6f03362c2b51e8f7bcaf6a-d.jpg,,
21739271,Introduction to Combinatorics (Chapman and Hall Mathematics Series),,,,Alan Slomson,1997,1,,,270,0,English,113,,до 2011-01,"9780412353703,0412353709",,,,,511/.6,QA164 .S57 1991,,,OL1866104M,,0,,,,,1,1,1,1527981,djvu,F85330EA0CBB9B233D9BF2F74ED92260,,,D:\\!genesis\\library.nu\\f8\\_30820.f85330ea0cbb9b233d9bf2f74ed92260.djvu,0,2000-01-01 01:00:00,2016-04-03 02:51:08,445000/f85330ea0cbb9b233d9bf2f74ed92260-d.jpg,,
21739272,"Decade of Transition: Eisenhower, Kennedy, and the origins of the American-Israeli alliance",,,,Abraham Ben-Zvi,1998,0,Columbia University Press,,234,0,English,,,до 2011-01,"0231112637,9780231112635,0231112629,9780231112628",,,,,327.7305694,E183.8.I7 B45 1998,,,OL346183M,,0,,,,,,1,1,736237,pdf,F88B79B0D07BF5264153064B79AAAE42,,,D:\\!genesis\\library.nu\\f8\\_308070.f88b79b0d07bf5264153064b79aaae42.pdf,0,2000-01-01 01:00:00,2016-04-03 02:51:08,445000/f88b79b0d07bf5264153064b79aaae42-d.jpg,,
21739273,Ergonomics for Rehabilitation Professionals,,,,Shrawan Kumar,2009,1,CRC Press,,640,0,English,210,,до 2011-01,"0849381460,9780849381461",,,,,617/.03,RM930 .E74 2009,,,OL11560383M,,0,,,,,,,1,7807675,pdf,F82F9AD7CD1DAF503F337067A80B0DD4,,,D:\\!genesis\\library.nu\\f8\\_307583.f82f9ad7cd1daf503f337067a80b0dd4.pdf,0,2000-01-01 01:00:00,2016-04-03 02:51:08,445000/f82f9ad7cd1daf503f337067a80b0dd4-d.jpg,,
21739274,Siegecraft: Two Tenth-Century Instructional Manuals by Heron of Byzantium (Dumbarton Oaks Studies),,,,Denis Sullivan,2000,,Harvard University Press,,359,0,English,183,,до 2011-01,"0884022706,9780884022701",,,,,355.4/4,UG443 .S54 2000,,,OL22187571M,,0,,,,,,,1,953254,pdf,F8391D6CBF50341DDC9F90802658E62F,,,D:\\!genesis\\library.nu\\f8\\_307218.f8391d6cbf50341ddc9f90802658e62f.pdf,0,2000-01-01 01:00:00,2016-04-03 02:51:08,445000/f8391d6cbf50341ddc9f90802658e62f-d.jpg,,
21739275,Wheels of Fortune: The History of Speculation from Scandal to Respectability,,,,Charles R. Geisst,2002,1,Wiley,,368,0,English,64,,до 2011-01,"0471212229,9780471212225",,,,,,,,,OL7613429M,,0,,,,,,1,1,1983759,pdf,F80E3C8D68B8DD26878CF9F86292F48E,,,D:\\!genesis\\library.nu\\f8\\_307117.f80e3c8d68b8dd26878cf9f86292f48e.pdf,0,2000-01-01 01:00:00,2016-04-03 02:51:08,445000/f80e3c8d68b8dd26878cf9f86292f48e-d.jpg,,
21739276,Budget Theory in the Public Sector,,,,"Aman Khan, W. Bartley Hildreth",2002,,Quorum Books,,314,0,English,,,до 2011-01,"1567202810,9781567202816",,,,,,,,,OL17068131M,,0,,,,,,,1,2111799,pdf,F8FB040BC9E3856EB7DA7F5D2D26CFCD,,,D:\\!genesis\\library.nu\\f8\\_306875.f8fb040bc9e3856eb7da7f5d2d26cfcd.pdf,0,2000-01-01 01:00:00,2016-04-03 02:51:08,445000/f8fb040bc9e3856eb7da7f5d2d26cfcd-d.jpg,,
21739277,"Shadow of the Giant (Ender, Book 8)",,,,Orson Scott Card,2006,,Tor Science Fiction,,,0,English,,,до 2011-01,,,,,,,,,,,,0,,,,,,,,298329,epub,F8EB0F5EC3AFE820361C5A6C39F9909A,,,D:\\!genesis\\library.nu\\f8\\_306530.f8eb0f5ec3afe820361c5a6c39f9909a.epub,0,2000-01-01 01:00:00,2016-04-03 02:51:08,445000/F8EB0F5EC3AFE820361C5A6C39F9909A-g.jpg,,
21739278,Congregations in Conflict: Cultural Models of Local Religious Life,,,,Penny Edgell Becker,1999,0,,,280,0,English,205,,до 2011-01,"0521594448,9780521594448,9780511019555",,,,,306.6/5/0973,BR526 .B43 1999,,,OL121611M,,0,,,,,1,1,1,1570848,pdf,F8B8467757BE7FD52C088733F29CF2B4,,,D:\\!genesis\\library.nu\\f8\\_3059.f8b8467757be7fd52c088733f29cf2b4.pdf,0,2000-01-01 01:00:00,2016-04-03 02:51:08,445000/f8b8467757be7fd52c088733f29cf2b4-d.jpg,,
21739279,Unfinished Projects: Decolonization and the Philosophy of Jean-Paul Sartre,,,,Paige Arthur,2010,,Verso,,262,0,English,195,,до 2011-01,"1844673987,9781844673988,9781844673995,1844673995",,,,,,,,,,,600,,,,,,1,1,4698242,pdf,F8AE26E556DAAF4E3F08B6D1ED98FA5A,,,D:\\!genesis\\library.nu\\f8\\_305821.f8ae26e556daaf4e3f08b6d1ed98fa5a.pdf,0,2000-01-01 01:00:00,2016-04-03 02:51:08,445000/f8ae26e556daaf4e3f08b6d1ed98fa5a-d.jpg,,
21739280,Working Abroad  European Perspectives,,,,August   G. Minke,2010,,,,78,0,English,,,до 2011-01,,,,,,,,,,,,0,,,,,,,0,3720934,pdf,F844E9A2885F84BB15E522AEAEFC5244,,,D:\\!genesis\\library.nu\\f8\\_305768.f844e9a2885f84bb15e522aeaefc5244.pdf,0,2000-01-01 01:00:00,2016-04-03 02:51:08,445000/f844e9a2885f84bb15e522aeaefc5244-g.jpg,,
21739281,Milestones in Geology (Geological Society Memoir No. 16),,,,M. J. Le Bas,1995,First,Geological Society Publishing House,,272,0,English,38,,до 2011-01,"1897799241,9781897799246",,,,,,,,,OL12227005M,,0,,,,,,1,1,12293280,pdf,F8FC153376B221DF62C9572E5D6148B2,,,D:\\!genesis\\library.nu\\f8\\_305726.f8fc153376b221df62c9572e5d6148b2.pdf,0,2000-01-01 01:00:00,2016-04-03 02:51:08,445000/f8fc153376b221df62c9572e5d6148b2-g.jpg,,
21739282,"Christmas in Legend and Story, Illustrated Edition",,,,"Elva S. Smith, Alice I. Hazeltine",2009,Ill,Yesterday's Classics,,240,0,English,,,до 2011-01,"1599153874,9781599153872",,,,,,,,,,,0,,,,,,,1,1007529,epub,F8D126EE8C8FF16543DE447A770BD49D,,,D:\\!genesis\\library.nu\\f8\\_305572.f8d126ee8c8ff16543de447a770bd49d.epub,0,2000-01-01 01:00:00,2016-04-03 02:51:08,445000/f8d126ee8c8ff16543de447a770bd49d-d.jpg,,
21739283,Die Wut und der Stolz,,,,Oriana Fallaci,2002,,List,,138,0,German,,,до 2011-01,"3471775587,9783471775585",,,,,,,,,OL9043166M,,0,,,,,,,1,1296028,pdf,F89BBA774D353ACA9536BFD62C2F4067,,,D:\\!genesis\\library.nu\\f8\\_305337.f89bba774d353aca9536bfd62c2f4067.pdf,0,2000-01-01 01:00:00,2016-04-03 02:51:08,445000/f89bba774d353aca9536bfd62c2f4067-d.jpg,,
21739284,Oracle Database 10g PL SQL Programming,,,,"Scott  Urman, Ron Hardman, Michael McLaughlin",2004,1st,McGraw-Hill Osborne Media,,895,0,English,116,,до 2011-01,"0072230665,9780072230666",,,,,005.7585,QA76.9.D3 U7585 2004,10.1036/0072230665,,OL3436527M,,0,,,,,,1,1,11093533,pdf,F82B43137547F66399F0F6154A14E6CE,,,D:\\!genesis\\library.nu\\f8\\_305238.f82b43137547f66399f0f6154a14e6ce.pdf,0,2000-01-01 01:00:00,2016-04-03 02:51:08,445000/f82b43137547f66399f0f6154a14e6ce-d.jpg,,
21739285,"Combinatorial Geometry in the Plane (translation of Kombinatorische Geometrie in der Ebene, with a new  chapter supplied by the translator)",,,,"Hugo Hadwiger, Hans Debrunner (translated by V. Klee)",1964,,,,113,0,English,121,,до 2011-01,"9780249790115,0249790114",,"B0000CM5HF,B000NREZTM,B000OQ2XFU,B001P4V798",,,,,,,OL14822788M,,0,,,,,1,,1,2593044,djvu,F8F805AC37E6D0CB5C4FC1E2043FF358,,,D:\\!genesis\\library.nu\\f8\\_30435.f8f805ac37e6d0cb5c4fc1e2043ff358.djvu,0,2000-01-01 01:00:00,2016-04-03 02:51:08,445000/f8f805ac37e6d0cb5c4fc1e2043ff358-g.jpg,,
21739286,شناخت گاوها در بورس : اصول سرمایه گذاری در بازار سرمایه,,,,"اميرحسين اسماعيل پور , عبدالرضا رمضان زاده",2006,,دانش پژوهان جوان,,120,0,Persian,,,до 2011-01,964768584X,,,,,,,,,,,0,,,,,,1,1,2909838,pdf,F8A136C7410EB717C3B373BC8066EEE1,,,D:\\!genesis\\library.nu\\f8\\_303989.f8a136c7410eb717c3b373bc8066eee1.pdf,0,2000-01-01 01:00:00,2016-04-03 02:51:08,445000/f8a136c7410eb717c3b373bc8066eee1-g.jpg,,
21739287,Silver in Organic Chemistry,,,,Michael Harmata,2010,1,Wiley,,423,0,English,296,,до 2011-01,"0470466111,9780470466117",,,,,547/.05654,QD412.A3 S55 2010,,,OL24494351M,,0,,,,,,1,1,3877620,pdf,F8969499B8849D3BA7782B70603E3873,,,D:\\!genesis\\library.nu\\f8\\_303595.f8969499b8849d3ba7782b70603e3873.pdf,0,2000-01-01 01:00:00,2016-04-03 02:51:08,445000/f8969499b8849d3ba7782b70603e3873-d.jpg,,
21739288,Economics and Sociology,,,,Richard Swedberg,1990,,Princeton University Press,,183,0,English,305,,до 2011-01,"0691003769,9780691003764",,,,,300,HM35 .S93 1990,,,OL2192181M,,0,,,,,,1,1,24828182,pdf,F88A7A1670310DCD696AE0C151CC59CA,,,D:\\!genesis\\library.nu\\f8\\_303513.f88a7a1670310dcd696ae0c151cc59ca.pdf,0,2000-01-01 01:00:00,2016-04-03 02:51:08,445000/f88a7a1670310dcd696ae0c151cc59ca-d.jpg,,
21739289,Unter Glatzen,,,,Christiane Tramitz,2001,,Droemer Knaur,,279,0,German,,,до 2011-01,"3426272423,9783426272428",,,,,,,,,OL12702310M,,0,,,,,,1,1,627913,pdf,F8A7D83546FB961D035301AFA7A1E8E0,,,D:\\!genesis\\library.nu\\f8\\_303082.f8a7d83546fb961d035301afa7a1e8e0.pdf,0,2000-01-01 01:00:00,2016-04-03 02:51:08,445000/f8a7d83546fb961d035301afa7a1e8e0-d.jpg,,
21739290,"The Battle of the Labyrinth (Percy Jackson and the Olympians, Book 4)",,"Percy Jackson and the Olympians'', 4",,Rick Riordan,2009,Reprint,Hyperion Book CH,,131,0,English,,,до 2011-01,"1423101499,9781423101499",,,,,,,,,OL24087694M,missing front material,0,,,,,,,1,1954485,pdf,F8ACE9F2803D64C2AD43C8A04A8DEA07,,,D:\\!genesis\\library.nu\\f8\\_302919.f8ace9f2803d64c2ad43c8a04a8dea07.pdf,0,2000-01-01 01:00:00,2016-04-03 02:51:08,445000/f8ace9f2803d64c2ad43c8a04a8dea07-d.jpg,,
21739291,"Clinical Periodontology and Implant Dentistry 5th Edition, 2 Volumes",,,,"Jan Lindhe, Niklaus P. Lang, Thorkild Karring",2008,5,Wiley-Blackwell,,1448,0,English,161,,до 2011-01,"1405160993,9781405160995",,,,,617.6/32,RK361 .C54 2008,,,OL11650468M,,0,,,,,,,1,106298627,pdf,F86936CC8673EEF80D0BB3577D6E697B,,,D:\\!genesis\\library.nu\\f8\\_302552.f86936cc8673eef80d0bb3577d6e697b.pdf,0,2000-01-01 01:00:00,2016-04-03 02:51:08,445000/f86936cc8673eef80d0bb3577d6e697b-d.jpg,,
21739292,International Standardisation Of Fruit And Vegetables: Avocados - Avocats - Aguacates (Paltas),,International Standards for Fruit and Vegetables,,OECD,2004,illustrated edition,OECD Publishing,,130,0,English,,,до 2011-01,"9264019790,9789264019799,9789264019805",,,,,,,,,OL12900817M,,0,,,,,,1,1,4129441,pdf,F8C86F995D889C93BFD911E20EBFD5B2,,,D:\\!genesis\\library.nu\\f8\\_302525.f8c86f995d889c93bfd911e20ebfd5b2.pdf,0,2000-01-01 01:00:00,2016-04-03 02:51:08,445000/f8c86f995d889c93bfd911e20ebfd5b2-g.jpg,,
21739293,New Scientist Magazine - 1 May 2010,206,,,Reed Business Information Ltd,2010,,Reed Business Information,,60,0,English,181,,до 2011-01,,,,,,,,10.1038/nature08,,,periodic,0,,,,,,,1,5552249,pdf,F87A6A22FB5C93F37940FE640B5F7512,,ban,D:\\!genesis\\library.nu\\f8\\_302426.f87a6a22fb5c93f37940fe640b5f7512.pdf,0,2000-01-01 01:00:00,2016-04-03 02:51:08,445000/f87a6a22fb5c93f37940fe640b5f7512-g.jpg,,
21739294,Crkveni kanoni- sinopsis,,,,Zoran Durovic,,,,,66,0,Serbian,,,до 2011-01,,,,,,,,,,,,0,,,,,,,1,360802,pdf,F8FC5041B362552ED1B3FC161FD8D0B2,,,D:\\!genesis\\library.nu\\f8\\_301033.f8fc5041b362552ed1b3fc161fd8d0b2.pdf,0,2000-01-01 01:00:00,2016-04-03 02:51:08,445000/f8fc5041b362552ed1b3fc161fd8d0b2-g.jpg,,
21739295,Aesthetic Rejuvenation: A Regional Approach,,,,"Ranella Hirsch, Neil Sadick, Joel Cohen",2008,1,,,256,0,English,,,до 2011-01,"0071494952,9780071494953,9780071641296",,,,,,,,,OL24308120M,,0,,,,,1,,1,5391673,pdf,F8BE7B9D802C13C4E6DF253D6739B175,,,D:\\!genesis\\library.nu\\f8\\_30083.f8be7b9d802c13c4e6df253d6739b175.pdf,0,2000-01-01 01:00:00,2016-04-03 02:51:08,445000/f8be7b9d802c13c4e6df253d6739b175-d.jpg,,
21739296,Disrespect: The Normative Foundations of Critical Theory,,,,Axel Honneth,2007,1,Polity,,296,0,English,196,,до 2011-01,"0745629059,9780745629056",,,,,,,,,OL7956482M,,0,,,,,,,0,10596818,pdf,F81B41F30B8C78767080233DC5D989DC,,,D:\\!genesis\\library.nu\\f8\\_300181.f81b41f30b8c78767080233dc5d989dc.pdf,0,2000-01-01 01:00:00,2016-04-03 02:51:08,445000/f81b41f30b8c78767080233dc5d989dc-d.jpg,,
21739297,A Holy People: Jewish And Christian Perspectives on Religious Communal Identity (Jewish and Christian Perspectives Series),,Jewish and Christian Perspectives Series 12,,"Marcel Poorthuis, Joshua Schwartz",2006,,Brill Academic Publishers,,413,0,English,205,,до 2011-01,"9004150528,9789004150522",,,,,231.7/6,BM645.H58 H65 2006,,,OL22732989M,,0,,,,,,1,1,2664158,pdf,F8DA22252D6AE71FBBEB492EBBA46388,,,D:\\!genesis\\library.nu\\f8\\_299429.f8da22252d6ae71fbbeb492ebba46388.pdf,0,2000-01-01 01:00:00,2016-04-03 02:51:08,445000/f8da22252d6ae71fbbeb492ebba46388-d.jpg,,
21739298,Capire la mente cattolica,,,,"Lombardi Vallauri, Edoardo",2007,,"Le Lettere, Firenze",,57,0,Italian,,,до 2011-01,,,,,,,,,,,,300,,,,,,,0,6071010,pdf,F868E5562BAAFE4090DD8CA6D86A883D,,,D:\\!genesis\\library.nu\\f8\\_299376.f868e5562baafe4090dd8ca6d86a883d.pdf,0,2000-01-01 01:00:00,2016-04-03 02:51:08,445000/f868e5562baafe4090dd8ca6d86a883d-g.jpg,,
21739299,The Project Physics Course: Reader Unit 5: Models of the Atom,,,,"Gerald Holton, F. James Rutherford, Fletcher G. Watson",,,,,260,0,English,132,,до 2011-01,,,,,,,,,,,,0,,,,,,,1,13514694,pdf,F8EF4A5DC2E6153267C2D3C6A1E5C465,,,D:\\!genesis\\library.nu\\f8\\_299368.f8ef4a5dc2e6153267c2d3c6a1e5c465.pdf,0,2000-01-01 01:00:00,2016-04-03 02:51:08,445000/f8ef4a5dc2e6153267c2d3c6a1e5c465-g.jpg,,
21739300,"Inorganic Syntheses, Volume 24",,Inorganic Syntheses vol.24,,Jean'ne M. Shreeve,1986,1,John Wiley & Sons,,401,0,English,299,,до 2011-01,"0471834416,9780471834410",,,,,,,,,OL10337673M,,0,,,,,,,1,3425379,djvu,F8CC1D0C7985690349D32D97C12FFDC7,,,D:\\!genesis\\library.nu\\f8\\_299290.f8cc1d0c7985690349d32d97c12ffdc7.djvu,0,2000-01-01 01:00:00,2016-04-03 02:51:08,445000/f8cc1d0c7985690349d32d97c12ffdc7-d.jpg,,
21739301,发展社会学,,,,英 安德鲁·韦伯斯特,,,,,170,0,Chinese(PRC),,,до 2011-01,,,,,,,,,,,,0,,,,,,,0,4320488,pdf,F8160B7E13C25080A7B96D6965E60808,,,D:/!genesis/library.nu/f8/_298139.f8160b7e13c25080a7b96d6965e60808.pdf,0,2000-01-01 01:00:00,2016-04-03 02:51:08,445000/f8160b7e13c25080a7b96d6965e60808-g.jpg,,
21739302,Inversive Geometry,,,,Frank Morley and F. V. Morley,1933,,,,283,0,English,121,,до 2011-01,,,"B00177AD5M,B000L4X476",,,,,,,,,0,,,,,1,,1,2120474,djvu,F84122D998942AC243D6E203B2A94392,,,D:\\!genesis\\library.nu\\f8\\_29808.f84122d998942ac243d6e203b2a94392.djvu,0,2000-01-01 01:00:00,2016-04-03 02:51:08,445000/f84122d998942ac243d6e203b2a94392-g.jpg,,
21739303,Morton Deutsch: A Life and Legacy of Mediation and Conflict Resolution,,,,Erica Frydenberg,2005,,Australian Academic Press,,250,0,English,,,до 2011-01,"9781875378937,1875378936",,,,,,,,,,,0,,,,,,,1,3883144,pdf,F80D35900C026AE33C3B27C28258293C,,,D:\\!genesis\\library.nu\\f8\\_297859.f80d35900c026ae33c3b27c28258293c.pdf,0,2000-01-01 01:00:00,2016-04-03 02:51:08,445000/f80d35900c026ae33c3b27c28258293c-g.jpg,,
21739304,"Holistic Nursing: A Handbook for Practice, 4th Edition",,,,"Barbara Montgomery Dossey, Lynn Keegan, Cathie E. Guzzetta",2004,4,Jones & Bartlett Publishers,,973,0,English,,,до 2011-01,"0763731838,9780763731830",,,,,,,,,OL8037177M,,0,,,,,,1,1,4093192,pdf,F82A1851C2A74C0ACBD1CECC4347BE92,,,D:\\!genesis\\library.nu\\f8\\_297811.f82a1851c2a74c0acbd1cecc4347be92.pdf,0,2000-01-01 01:00:00,2016-04-03 02:51:08,445000/f82a1851c2a74c0acbd1cecc4347be92-d.jpg,,
21739305,"Solutions Focus, 2nd Edition: Making Coaching and Change S.I.M.P.L.E.",,,,"Paul Z. Jackson, Mark McKergow",2006,2nd Edition,Intercultural Press,,286,0,English,,,до 2011-01,"1904838065,9781904838067",,,,,,,,,OL9311821M,not,0,,,,,,1,1,1218456,pdf,F8808706F41F3BD3622E11042F25AB12,,,D:\\!genesis\\library.nu\\f8\\_297423.f8808706f41f3bd3622e11042f25ab12.pdf,0,2000-01-01 01:00:00,2016-04-03 02:51:08,445000/f8808706f41f3bd3622e11042f25ab12-d.jpg,,
21739306,"The Knowledge Economy, Language and Culture",,,,Glyn Williams,2010,,Multilingual Matters,,258,0,English,314,,до 2011-01,"1847692516,9781847692511,1847692508,9781847692504",,,,,303.48/33,HD30.2 .W535 2010,,,OL24050317M,,0,,,,,,,1,1176688,pdf,F880E187A34F6D94096E0E79250494C8,,,D:\\!genesis\\library.nu\\f8\\_297397.f880e187a34f6d94096e0e79250494c8.pdf,0,2000-01-01 01:00:00,2016-04-03 02:51:08,445000/f880e187a34f6d94096e0e79250494c8-d.jpg,,
21739307,Comunicacao Mediada por Computador  CMC - Identidades e Genero: Teoria e Metodo,,,,Adriana Braga (Org.),2005,,LabCom,,267,0,Portuguese(Portugal),137,,до 2011-01,,,,,,,,,,,,0,,,,,,,0,1104675,pdf,F8BECD119B5BEEA0E87FFC4FAB7E7234,,,D:\\!genesis\\library.nu\\f8\\_297224.f8becd119b5beea0e87ffc4fab7e7234.pdf,0,2000-01-01 01:00:00,2016-04-03 02:51:08,445000/f8becd119b5beea0e87ffc4fab7e7234-g.jpg,,
21739308,The Story of the Harp in Wales,,,,Osian Ellis,1992,,University of Wales Press,,100,0,English,,,до 2011-01,"0708311040,9780708311042",,,,,,,,,OL9600696M,,0,,,,,,1,1,4082852,pdf,F8F01C9D6CAB57A50A421CF881A530A3,,,D:\\!genesis\\library.nu\\f8\\_296316.f8f01c9d6cab57a50a421cf881a530a3.pdf,0,2000-01-01 01:00:00,2016-04-03 02:51:08,445000/f8f01c9d6cab57a50a421cf881a530a3-d.jpg,,
21739309,The Widows of Eastwick   ,,,,John Updike,2008,,Knopf Doubleday Publishing Group,,,0,English,,,до 2011-01,"9780307270535,030727053X",,,,,,,,,OL24272378M,,0,,,,,,,,439408,lit,F81B44257EEC450FC37DAC19B0790A50,,,D:\\!genesis\\library.nu\\f8\\_296136.f81b44257eec450fc37dac19b0790a50.lit,0,2000-01-01 01:00:00,2016-04-03 02:51:08,445000/F81B44257EEC450FC37DAC19B0790A50-g.jpg,,
21739310,Scientific American Special Edition 2005 - Mind,,,,Scientfic American,,,,,96,0,English,181,,до 2011-01,,,,,,,,,,,,0,,,,,,1,1,4288237,pdf,F868AAEF1D2C4A452356062634C7C354,,,D:\\!genesis\\library.nu\\f8\\_295897.f868aaef1d2c4a452356062634c7c354.pdf,0,2000-01-01 01:00:00,2016-04-03 02:51:08,445000/f868aaef1d2c4a452356062634c7c354-g.jpg,,
21739311,Le miel : Un livre gourmand,,,,"Sylvie Girard-Lagorce, Laurence Du Tilly",2005,,Minerva,,160,0,French,,,до 2011-01,"2830708172,9782830708172",,,,,,,,,,,0,,,,,,,1,22498495,pdf,F8D6AC7283581D250E6E975063D1FD25,,,D:\\!genesis\\library.nu\\f8\\_295684.f8d6ac7283581d250e6e975063d1fd25.pdf,0,2000-01-01 01:00:00,2016-04-03 02:51:08,445000/f8d6ac7283581d250e6e975063d1fd25-d.jpg,,
21739312,Chemistry of Opioids,,Topics in Current Chemistry 299,,"Noritaka Chida (auth.), Hiroshi Nagase (eds.)",2011,1,Springer-Verlag Berlin Heidelberg,,314,0,English,296,,до 2011-01,"3642181066,9783642181061",,,,,,,10.1007/978-3-642-18107-8,,,,0,,,,,,1,1,3559116,pdf,F80132305D90A270A8D7EDB7C342132F,,,D:\\!genesis\\library.nu\\f8\\_295267.f80132305d90a270a8d7edb7c342132f.pdf,0,2000-01-01 01:00:00,2016-04-03 02:51:08,445000/f80132305d90a270a8d7edb7c342132f-d.jpg,,
21739313,ФСБ взрывает Россию,,,,"Александр Литвиненко, Юрий Фельштинский",2004,,LIBERTY PUBLISHING HOUSE,,0,0,Russian,,,до 2011-01,1932686045,,,,,,,,,,,0,,,,,,,,1127810,chm,F8B9160ED7633A3DEA2BFA25D97EAF0D,,,D:/!genesis/library.nu/f8/_294757.f8b9160ed7633a3dea2bfa25d97eaf0d.chm,0,2000-01-01 01:00:00,2016-04-03 02:51:08,,,
21739314,Wedding Cakes and Cultural History,,,,"Simon Charsley, Simon R. Charsley",1992,1,Routledge,,176,0,English,64,,до 2011-01,"0415026490,9780415026499",,,,,392/.5,GT2797 .C44 1992,,,OL1545135M,,0,,,,,,,1,5109729,pdf,F8338876BB591F41CA03AA90721D180D,,,D:\\!genesis\\library.nu\\f8\\_294408.f8338876bb591f41ca03aa90721d180d.pdf,0,2000-01-01 01:00:00,2016-04-03 02:51:08,445000/f8338876bb591f41ca03aa90721d180d-d.jpg,,
21739315,Hitler and the Germans (The Collected Works of Eric Voegelin),,,,"Eric Voegelin, Brendan Purcell",2003,,University of Missouri,,296,0,English,64,,до 2011-01,"0826214665,9780826214669",,,,,,,,,OL8166414M,,0,,,,,,,1,1313569,pdf,F8B3CFBC8D808434BAED6430BEBAE647,,,D:\\!genesis\\library.nu\\f8\\_294277.f8b3cfbc8d808434baed6430bebae647.pdf,0,2000-01-01 01:00:00,2016-04-03 02:51:08,445000/f8b3cfbc8d808434baed6430bebae647-d.jpg,,
21739316,Trading Systems and Methods (Wiley Trading),,,,Perry J. Kaufman,1998,3,Wiley,,705,0,English,309,,до 2011-01,"0471148792,9780471148791",,,,,332.64/4,HG6046 .K34 1998,,,OL364214M,"missing pgs 32, 33, 190, 191, 392, 393 coverted from djvu",0,,,,,,1,1,25760488,pdf,F807DBA934E79D5E8D94023AD242EE8F,,,D:\\!genesis\\library.nu\\f8\\_293638.f807dba934e79d5e8d94023ad242ee8f.pdf,0,2000-01-01 01:00:00,2016-04-03 02:51:08,445000/f807dba934e79d5e8d94023ad242ee8f-d.jpg,,
21739317,Entertaining Mr Sloane (Modern Plays),,,,Joe Orton,2001,,,,112,0,English,,,до 2011-01,0413413403,,,,,,,,,,,0,,,,,1,,0,2253358,pdf,F84F8F412BEBE79E4ADD409AD4313CE1,,,D:\\!genesis\\library.nu\\f8\\_29356.f84f8f412bebe79e4add409ad4313ce1.pdf,0,2000-01-01 01:00:00,2016-04-03 02:51:08,445000/f84f8f412bebe79e4add409ad4313ce1-d.jpg,,
21739318,Luminal Darkness: Imaginal Gleanings from Zoharic Literature,,,,Elliot Wolfson,2006,,Oneworld Publications,,320,0,English,108,,до 2011-01,"1851684751,9781851684755",,,,,,,,,OL17227451M,,0,,,,,,,1,2089573,pdf,F8F4FAA25C7378F26BADD4EDED07F615,,,D:\\!genesis\\library.nu\\f8\\_293378.f8f4faa25c7378f26badd4eded07f615.pdf,0,2000-01-01 01:00:00,2016-04-03 02:51:08,445000/f8f4faa25c7378f26badd4eded07f615-d.jpg,,
21739319,Professional Photographer UK - February 2011,,,,professionalphotographer.co.uk,2011,,,,116,0,English,59,,до 2011-01,,,,,,,,,,,,0,,,,,,,1,73035135,pdf,F869BB06C4FA0C11282ADE4929C52F20,,,D:\\!genesis\\library.nu\\f8\\_293311.f869bb06c4fa0c11282ade4929c52f20.pdf,0,2000-01-01 01:00:00,2016-04-03 02:51:08,445000/f869bb06c4fa0c11282ade4929c52f20-g.jpg,,
21739320,Enrico Fermi: The Master Scientist,,,,Jay Orear,2004,,The Internet-First University Press,,171,0,English,,,до 2011-01,,,,,,,,,,,,0,,,,,,,0,3918747,pdf,F8E2A0F22A7A05B1FC99E49F185A2794,,,D:\\!genesis\\library.nu\\f8\\_292768.f8e2a0f22a7a05b1fc99e49f185a2794.pdf,0,2000-01-01 01:00:00,2016-04-03 02:51:08,445000/f8e2a0f22a7a05b1fc99e49f185a2794-g.jpg,,
21739321,"Detective Conan, tome 5   FRENCH",,,,Gosho Aoyama,1997,,,,87,0,French,,,до 2011-01,2871291497,,,,,,,,,OL8986271M,,0,,,,,1,1,0,30696743,pdf,F874E71DE8678F6D1115D8153342FCE3,,,D:\\!genesis\\library.nu\\f8\\_29271.f874e71de8678f6d1115d8153342fce3.pdf,0,2000-01-01 01:00:00,2016-04-03 02:51:08,445000/f874e71de8678f6d1115d8153342fce3-d.jpg,,
21739322,"Patrologia Pacifica. Selected Papers Presented to the Western Pacific Rim Patristics Society 3rd Annual Conference (Nagoya, Japan, September 29 - October 1, 2006) and other patristic studies - Scrinium 4",,,,"Vladimir Baranov, Dmitri Birjukov, Basile Lourie...",2008,,,,497,0,English,183,,до 2011-01,"978-5-90141-068-4,5-90141-068-8",,,,,,,,,,,0,,,,,,1,1,3552578,pdf,F87B05C0F54248110BB7043C685A2CA2,,,D:\\!genesis\\library.nu\\f8\\_292668.f87b05c0f54248110bb7043c685a2ca2.pdf,0,2000-01-01 01:00:00,2016-04-03 02:51:08,445000/f87b05c0f54248110bb7043c685a2ca2-g.jpg,,
21739323,Matrices and Quadratic Forms,,,,John Bowers,2001,1st,Butterworth-Heinemann,,187,0,English,,,до 2011-01,"0340691387,9780340691380",,,,,512.9/434,QA188 .B69 2000,,,OL4022872M,,0,,,,,,,1,3635183,djvu,F8D9227FFDC0AB4203A876BB05BF6DDC,,,D:\\!genesis\\library.nu\\f8\\_292644.f8d9227ffdc0ab4203a876bb05bf6ddc.djvu,0,2000-01-01 01:00:00,2016-04-03 02:51:08,445000/f8d9227ffdc0ab4203a876bb05bf6ddc-d.jpg,,
21739324,"The Marino Mission: One Girl, One Mission, One Thousand Words; 1,000 Need-to-Know *SAT Vocabulary Words",,,,Karen B. Chapman,2005,1,Wiley Publishing,,336,0,English,322,,до 2011-01,0764578316,,,,,,,,,,,0,,,,,,,1,3395950,pdf,F886E88CE971C91993707948C756C469,,,D:\\!genesis\\library.nu\\f8\\_292361.f886e88ce971c91993707948c756c469.pdf,0,2000-01-01 01:00:00,2016-04-03 02:51:08,445000/f886e88ce971c91993707948c756c469-d.jpg,,
21739325,The Jews of Iran in the Nineteenth Century (Brill's Series in Jewish Studies. 40),,,,David Yeroushalmi,2009,annotated edition,,,440,0,English,183,,до 2011-01,9004152881,,,,,,,,,,,0,,,,,,1,1,2370314,pdf,F8DE3C0AD7EB619B912FFAE26CDE1346,,,D:\\!genesis\\library.nu\\f8\\_291711.f8de3c0ad7eb619b912ffae26cde1346.pdf,0,2000-01-01 01:00:00,2016-04-03 02:51:08,445000/f8de3c0ad7eb619b912ffae26cde1346-d.jpg,,
21739326,Practice Tests for the KET: Student's Book,,,,"Elizabeth Gray, Neil O'Sullivan",2000,,Express Publishing UK Ltd,,90,0,English,,,до 2011-01,"1842169165,9781842169162",,,,,,,,,OL12572919M,,0,,,,,,1,0,17514933,pdf,F8439D6838BB04096A31E6FE3152A8CA,,,D:\\!genesis\\library.nu\\f8\\_290760.f8439d6838bb04096a31e6fe3152a8ca.pdf,0,2000-01-01 01:00:00,2016-04-03 02:51:08,445000/f8439d6838bb04096a31e6fe3152a8ca-d.jpg,,
21739327,Guillaume Balay - Method for Trumpet,,,,Guillaume Balay,,,"Leduc, Paris",,84,0,English,,,до 2011-01,,,,,,,,,,,,0,,,,,,1,0,14230578,pdf,F81391766C6C6555F0483C75947A4B94,,,D:\\!genesis\\library.nu\\f8\\_290462.f81391766c6c6555f0483c75947a4b94.pdf,0,2000-01-01 01:00:00,2016-04-03 02:51:08,445000/f81391766c6c6555f0483c75947a4b94-g.jpg,,
21739328,Real Vampires Get Lucky,,,,Gerry Bartlett,2009,,Berkley,,187,0,English,,,до 2011-01,"0425232689,9780425232682",,,,,,,,,,,0,,,,,,,1,884570,pdf,F82DF9C1AA5CFDC01CB8B9D0A2F23CF1,,,D:\\!genesis\\library.nu\\f8\\_290447.f82df9c1aa5cfdc01cb8b9d0a2f23cf1.pdf,0,2000-01-01 01:00:00,2016-04-03 02:51:08,445000/f82df9c1aa5cfdc01cb8b9d0a2f23cf1-d.jpg,,
21739329,The r-Process: The Astrophysical Origin of the Heavy Elements and Related Rare Isotope Accelerator Physics (Proceedings from the Institute for Nuclear Theory 13),,Proceedings from the Institute for Nuclear Theory 13,,"Yong-Zhong Qian, Ernst Rehm, Hendrik Schatz, Friedrich-Karl Thielemann",2004,,World Scientific Publishing Company,,259,0,English,132,,до 2011-01,"9812560327,9789812560322",,,,,,,,,OL17977245M,,0,,,,,,,1,5078447,pdf,F89E7EF5FA9151B53958FBF38BFF6157,,,D:\\!genesis\\library.nu\\f8\\_290112.f89e7ef5fa9151b53958fbf38bff6157.pdf,0,2000-01-01 01:00:00,2016-04-03 02:51:08,445000/f89e7ef5fa9151b53958fbf38bff6157-d.jpg,,
21739330,Post-scriptum aux miettes philosophiques,,,,Soren Kierkegaard,2002,,Gallimard,,510,0,French,195,,до 2011-01,"2070765857,9782070765850",,,,,,,,,OL8840932M,,0,,,,,,,1,2101214,pdf,F80C4DF15AE6BE01F7C1981A8D0184A2,,,D:\\!genesis\\library.nu\\f8\\_290029.f80c4df15ae6be01f7c1981a8d0184a2.pdf,0,2000-01-01 01:00:00,2016-04-03 02:51:08,445000/f80c4df15ae6be01f7c1981a8d0184a2-d.jpg,,
21739331,What Is Cinema? Vol. 1,,,,Andre Bazin,2004,1,University of California Press,,207,0,English,60,,до 2011-01,"0520242270,9780520242272",,,,,791.43,PN1994 .B3513 2004,,,OL3305871M,,0,,,,,,1,1,21196663,pdf,F819B5BCC7B70C79BE09B4787404B3D9,,,D:\\!genesis\\library.nu\\f8\\_289557.f819b5bcc7b70c79be09b4787404b3d9.pdf,0,2000-01-01 01:00:00,2016-04-03 02:51:08,445000/f819b5bcc7b70c79be09b4787404b3d9-d.jpg,,
21739332,Heterosyncrasies: Female Sexuality When Normal Wasn't,,,,Karma Lochrie,2005,1,Univ Of Minnesota Press,,208,0,English,201,,до 2011-01,"0816645981,9780816645985",,,,,306.7/094/0902,HQ1147.E85 L63 2005,,,OL3299540M,,0,,,,,,1,1,1343081,pdf,F805109DEC2DE87B2CB4351350B0D8DE,,,D:\\!genesis\\library.nu\\f8\\_289086.f805109dec2de87b2cb4351350b0d8de.pdf,0,2000-01-01 01:00:00,2016-04-03 02:51:08,445000/f805109dec2de87b2cb4351350b0d8de-d.jpg,,
21739333,Intentions in the Experience of Meaning,,,,"Raymond W. Gibbs, Jr.",1999,1,,,424,0,English,,,до 2011-01,"052157630X,0521572452,9780521572453,9780511039720",,,,,121/.68,BF463.M4 G53 1999,,,OL387637M,,0,,,,,1,,1,1192587,pdf,F856F4FAB88E5C09E42242F2CB0AFF85,,,D:\\!genesis\\library.nu\\f8\\_2890.f856f4fab88e5c09e42242f2cb0aff85.pdf,0,2000-01-01 01:00:00,2016-04-03 02:51:08,445000/f856f4fab88e5c09e42242f2cb0aff85-d.jpg,,
21739334,Economic Foundations of Symmetric Programming,,,,Quirino Paris,2010,,Cambridge University Press,,570,0,English,305,,до 2011-01,"0521194725,9780521194723,052112302X,9780521123020",,,,,338.501/519703,HB172 .P225 2010,,,OL24553139M,,0,,,,,,1,1,2368705,pdf,F8CB816629FA35B1EB7BA00F453E8720,,,D:\\!genesis\\library.nu\\f8\\_288723.f8cb816629fa35b1eb7ba00f453e8720.pdf,0,2000-01-01 01:00:00,2016-04-03 02:51:08,445000/f8cb816629fa35b1eb7ba00f453e8720-d.jpg,,
21739335,Social Origins of Dictatorship and Democracy: Lord and Peasant in the Making of the Modern World,,,,"Barrington Moore, Jr.",1973,,Penguin Books,,575,0,English,189,,до 2011-01,"0140600167,9780140600162",,,,,,,,,,,0,,,,,,1,1,11186722,pdf,F8E52476A69DBCE0E80BA132BA856766,,,D:\\!genesis\\library.nu\\f8\\_288539.f8e52476a69dbce0e80ba132ba856766.pdf,0,2000-01-01 01:00:00,2016-04-03 02:51:08,445000/f8e52476a69dbce0e80ba132ba856766-g.jpg,,
21739336,"Die dritte imperiale Figur (Quellentexte zur Konservativen Revolution, Rote Reihe: Die Nationalrevolutionare, Band 6)",,,,Ernst Niekisch,1935,,Widerstands-Verlag Berlin,,229,0,German,,,до 2011-01,,,,,,,,,,,,0,,,,,,,1,2395626,pdf,F84118F67FD1C1C1A9FA7E60F8D7D538,,,D:\\!genesis\\library.nu\\f8\\_288515.f84118f67fd1c1c1a9fa7e60f8d7d538.pdf,0,2000-01-01 01:00:00,2016-04-03 02:51:08,445000/f84118f67fd1c1c1a9fa7e60f8d7d538-g.jpg,,
21739337,Group Theory and Hopf Algebra: Lectures for Physicists,,,,"A. P. Balachandran, S. G. Jo, G. Marmo",2010,1,World Scientific Publishing Company,,268,0,English,132,,до 2011-01,"9814322202,9789814322201",,,,,,,,,,,0,,,,,,1,0,6229679,pdf,F89E6A55BC0B1E65F9AFE0B6AEC0BA63,,,D:\\!genesis\\library.nu\\f8\\_288493.f89e6a55bc0b1e65f9afe0b6aec0ba63.pdf,0,2000-01-01 01:00:00,2016-04-03 02:51:08,445000/f89e6a55bc0b1e65f9afe0b6aec0ba63-d.jpg,,
21739338,The Facts on File Companion to the British Short Story: Companion to the British Short Story (Companion to Literature Series),,,,Andrew Maunder,2007,1,Facts on File,,544,0,English,,,до 2011-01,"081605990X,9780816059904",,,,,,,,,OL11360169M,,0,,,,,,1,1,4497860,pdf,F8E855E40B5CBEAB7067375B98B21D18,,,D:\\!genesis\\library.nu\\f8\\_288460.f8e855e40b5cbeab7067375b98b21d18.pdf,0,2000-01-01 01:00:00,2016-04-03 02:51:08,445000/f8e855e40b5cbeab7067375b98b21d18-d.jpg,,
21739339,Waiwai: Religion and society of an Amazonian tribe (Nationalmuseets skrifter.Etnografisk R?kke),,Nationalmuseets skrifter. Etnografisk række,,Niels Fock,1963,,National Museum,,316,0,English,205,,до 2011-01,,,B0007IYUAG,,,,,,,,,0,,,,,,,1,8309997,pdf,F8E4C343A93DD68617B3D25DEB3DAC64,,,D:\\!genesis\\library.nu\\f8\\_288344.f8e4c343a93dd68617b3d25deb3dac64.pdf,0,2000-01-01 01:00:00,2016-04-03 02:51:08,445000/f8e4c343a93dd68617b3d25deb3dac64-d.jpg,,
21739340,On Humour (Thinking in Action),,,,Simon Critchley,2002,1st,Routledge,,72,0,English,,,до 2011-01,"0415251206,9780415251204",,,,,128/.3,PN6147 .C75 2002,,,OL3559550M,,300,,,,,,,0,7175220,djvu,F87B5AC5B818C7D32FB908554DB8B6BF,,,D:\\!genesis\\library.nu\\f8\\_287671.f87b5ac5b818c7d32fb908554db8b6bf.djvu,0,2000-01-01 01:00:00,2016-04-03 02:51:08,445000/f87b5ac5b818c7d32fb908554db8b6bf-d.jpg,,
21739341,"New Paradigm for Re-engineering Education: Globalization,Localization and Individualization (Education in the Asia-Pacific Region: Issues, Concerns and ... Region: Issues, Concerns and Prospects)",,,,Yin Cheong Cheng,2005,1,,,505,0,English,210,,до 2011-01,"1402036191,9781402036194,9781402036200",,,,,,,,,OL9423937M,,0,,,,,1,,1,13316721,pdf,F84771DD42BA1F889B0906FB212EE0BE,,,D:\\!genesis\\library.nu\\f8\\_28750.f84771dd42ba1f889b0906fb212ee0be.pdf,0,2000-01-01 01:00:00,2016-04-03 02:51:08,445000/f84771dd42ba1f889b0906fb212ee0be-d.jpg,,
21739342,Women's Rights and Religious Practice: Claims in Conflict (York Studies on Women and Men),,,,Alison L. Boden,2008,First Edition,,,272,0,English,183,,до 2011-01,"0230551440,9780230551442,9780230590069",,,,,,,,,OL10194629M,,0,,,,,1,1,1,892590,pdf,F84A20BD9CE31B357D33453EA93990AD,,,D:\\!genesis\\library.nu\\f8\\_28666.f84a20bd9ce31b357d33453ea93990ad.pdf,0,2000-01-01 01:00:00,2016-04-03 02:51:08,445000/f84a20bd9ce31b357d33453ea93990ad-d.jpg,,
21739343,"Dictionary of the Middle Ages. Vol. 11. Scandinavian languages - Textiles, Islamic",11,,,"Joseph R. Strayer, editor in chief",1988,,"New York, Charles Scribner's Sons, ",,735,0,English,64,,до 2011-01,"0684182777,9780684182773",,,,,,,,,OL15958374M,,0,,,,,,,0,82314901,pdf,F8D3912B51DC0729CA098AC75EEA6BB2,,,D:\\!genesis\\library.nu\\f8\\_286130.f8d3912b51dc0729ca098ac75eea6bb2.pdf,0,2000-01-01 01:00:00,2016-04-03 02:51:08,445000/f8d3912b51dc0729ca098ac75eea6bb2-g.jpg,,
21739344,European Readmission Policy,,Immigration and Asylum Law and Policy in Europe 16,,Nils Coleman,2009,,Brill,,409,0,English,192,,до 2011-01,"9004165541,9789004165540",,,,,342.2408/2,KJE6044 .C65 2009,,,OL22658829M,,0,,,,,,,1,8182522,pdf,F81014145736F75349A633A563ECB7A6,,,D:\\!genesis\\library.nu\\f8\\_285888.f81014145736f75349a633a563ecb7a6.pdf,0,2000-01-01 01:00:00,2016-04-03 02:51:08,445000/f81014145736f75349a633a563ecb7a6-d.jpg,,
21739345,"Der Koran, Bd.8, Suren 10-15",8,,,Adel Th. Khoury,1997,,Gütersloher Verlagshaus,,419,0,German,,,до 2011-01,"3579003437,9783579003436",,,,,,,,,OL17135917M,,0,,,,,,,0,20928431,pdf,F84DC7ACF9E99B1F59A95F1594A42D0A,,,D:\\!genesis\\library.nu\\f8\\_285532.f84dc7acf9e99b1f59a95f1594a42d0a.pdf,0,2000-01-01 01:00:00,2016-04-03 02:51:08,445000/f84dc7acf9e99b1f59a95f1594a42d0a-g.jpg,,
21739346,"Writing History, Constructing Religion",,,,"James G. Crossley, Christian Karner",2005,,Ashgate Publishing,,242,0,English,64,,до 2011-01,"0754651835,9780754651833",,,,,201/.69,BL65.H5 W75 2005,,,OL22712780M,,0,,,,,,1,1,830993,pdf,F8E1464788A37B311E969370917D3EBB,,,D:\\!genesis\\library.nu\\f8\\_285368.f8e1464788a37b311e969370917d3ebb.pdf,0,2000-01-01 01:00:00,2016-04-03 02:51:08,445000/f8e1464788a37b311e969370917d3ebb-d.jpg,,
21739347,iPhone. Das Missing Manual,,,,"David Pogue, Christian Hieber",2010,,O'Reilly,,418,0,German,,,до 2011-01,"3897219557,9783897219557",,,,,,,,,,,0,,,,,,1,1,19922387,pdf,F8560827B6B92FE608165A62C127A08C,,,D:\\!genesis\\library.nu\\f8\\_284982.f8560827b6b92fe608165a62c127a08c.pdf,0,2000-01-01 01:00:00,2016-04-03 02:51:08,445000/f8560827b6b92fe608165a62c127a08c-d.jpg,,
21739348,"Food Limitation and the Structure of Zooplankton Communities: Proceedings of an International Symposium, West Germany, 1984 (Advances in Limnology S)",,,,W. Lampert,1985,,Lubrecht & Cramer Ltd,,497,0,English,178,,до 2011-01,"3510470192,9783510470198",,,,,,,,,OL12748896M,,0,,,,,,,0,21123963,pdf,F888DFE87A9513EF086D9BCC3DB08BF7,,,D:\\!genesis\\library.nu\\f8\\_284335.f888dfe87a9513ef086d9bcc3db08bf7.pdf,0,2000-01-01 01:00:00,2016-04-03 02:51:08,445000/f888dfe87a9513ef086d9bcc3db08bf7-g.jpg,,
21739349,Advances in Fluid Mechanics VIII (Wit Transactions on Engineering Sciences),,,,"M Rahman, C. A. (editors) Brebbia",2010,1,WIT Press,,609,0,English,210,,до 2011-01,"184564476X,9781845644765",,,,,,,,,,,0,,,,,,1,1,21583237,pdf,F8E30E0C37170A65C746A48C8582B014,,,D:\\!genesis\\library.nu\\f8\\_284242.f8e30e0c37170a65c746a48c8582b014.pdf,0,2000-01-01 01:00:00,2016-04-03 02:51:08,445000/f8e30e0c37170a65c746a48c8582b014-d.jpg,,
21739350,The Fat Studies Reader,,,,"Sondra Solovay, Marilyn Wann",2009,,NYU Press,,394,0,English,183,,до 2011-01,"0814776302,9780814776308",,,,,362.196/398,RA645.O23 F55 2009,,,OL23223547M,,0,,,,,,1,1,2577319,pdf,F8C21743F6FBF068BD3DA6AAB3726BE9,,,D:\\!genesis\\library.nu\\f8\\_284039.f8c21743f6fbf068bd3da6aab3726be9.pdf,0,2000-01-01 01:00:00,2016-04-03 02:51:08,445000/f8c21743f6fbf068bd3da6aab3726be9-d.jpg,,
21739351,Der Gandolfo - Anschlag,,,,Robert Ludlum,1999,,Heyne Verlag,,299,0,German,,,до 2011-01,"3453153790,9783453153790",,,,,,,,,,,0,,,,,,1,1,1134192,pdf,F84F597CAB7B28664F777642CC99F498,,,D:\\!genesis\\library.nu\\f8\\_283294.f84f597cab7b28664f777642cc99f498.pdf,0,2000-01-01 01:00:00,2016-04-03 02:51:08,445000/f84f597cab7b28664f777642cc99f498-g.jpg,,
21739352,"Austrian Army of the Napoleonic Wars (2) : Cavalry (Men at Arms Series, 181)",,,,Philip Haythornthwaite,1986,,Osprey Publishing,,48,0,English,67,,до 2011-01,,,,,,,,,,,,0,,,,,,1,0,31309542,pdf,F82B65978A0AFA7F17DD5D39BD79754D,,,D:\\!genesis\\library.nu\\f8\\_283123.f82b65978a0afa7f17dd5d39bd79754d.pdf,0,2000-01-01 01:00:00,2016-04-03 02:51:08,445000/f82b65978a0afa7f17dd5d39bd79754d-g.jpg,,
21739353,Teaming for Quality: The Right Way for the Right Reasons,,,,H. David Shuster,1999,,Project Management Institute,,252,0,English,,,до 2011-01,"188041063X,9781880410639",,,,,,,,,OL8679116M,,0,,,,,,,1,7115095,pdf,F84C5E9AE290EB3C55ED515291D366E0,,,D:\\!genesis\\library.nu\\f8\\_282966.f84c5e9ae290eb3c55ed515291d366e0.pdf,0,2000-01-01 01:00:00,2016-04-03 02:51:08,445000/f84c5e9ae290eb3c55ed515291d366e0-d.jpg,,
21739354,Achieving 100% Compliance of Policies and Procedures,,,,"Stephen Page, MBA, PMP, CSQE",2010,5th Edition,Process Improvement Publishing,,359,0,English,137,,до 2011-01,"1929065493,9781929065493",,,,,,,,,OL22761322M,,0,,,,,,,1,5098577,pdf,F8B63F59E2C8F5764F1C229D32999805,,,D:\\!genesis\\library.nu\\f8\\_282792.f8b63f59e2c8f5764f1c229d32999805.pdf,0,2000-01-01 01:00:00,2016-04-03 02:51:08,445000/f8b63f59e2c8f5764f1c229d32999805-d.jpg,,
21739355,"Law and Revolution, II: The Impact of the Protestant Reformations on the Western Legal Tradition (v. 2)",,,,Harold J. Berman,2006,,Belknap Press of Harvard University Press,,537,0,English,313,,до 2011-01,"0674022300,9780674022300",,,,,,,,,OL7691737M,,0,,,,,,1,1,2223179,pdf,F86550791D34AEE75C8017B617C3BF65,,,D:\\!genesis\\library.nu\\f8\\_282482.f86550791d34aee75c8017b617c3bf65.pdf,0,2000-01-01 01:00:00,2016-04-03 02:51:08,445000/f86550791d34aee75c8017b617c3bf65-d.jpg,,
21739356,Filozofija nauke: Kratak uvod,,,,Samir Okasha,2004,,Šahinpašić,,178,0,Croatian,,,до 2011-01,"9958410869,9789958410864",,,,,,,,,,,0,,,,,1,1,1,2309042,pdf,F802B899611513532C6BA8C4AE062765,,,D:/!genesis/library.nu/f8/_282383.f802b899611513532c6ba8c4ae062765.pdf,0,2000-01-01 01:00:00,2016-04-03 02:51:08,445000/f802b899611513532c6ba8c4ae062765-g.jpg,,
21739357,"The Muscular Ideal: Psychological, Social, and Medical Perspectives",,,,"J. Kevin Thompson, Guy Cafri",2007,1,,,265,0,English,198,,до 2011-01,"9781591477921,1591477921",,,,,,,,,OL22753802M,"missing pages: 206, 207",0,,,,,1,1,1,14422965,pdf,F8DF69AA32A56FEC0DA7D29B12968ADA,,,D:\\!genesis\\library.nu\\f8\\_28231.f8df69aa32a56fec0da7d29b12968ada.pdf,0,2000-01-01 01:00:00,2016-04-03 02:51:08,445000/f8df69aa32a56fec0da7d29b12968ada-d.jpg,,
21739358,"LaTeX 2011. Composicion, graficos, diseno editorial, Inkscape y Beamer",,,,"Walter Mora F., Alexander Borbon A.",,,,,293,0,Spanish,137,,до 2011-01,9789977662275,,,,,,,,,,,0,,,,,,1,1,14040471,pdf,F81A056232C47F9075162FC7DE4DC5AF,,,D:\\!genesis\\library.nu\\f8\\_282028.f81a056232c47f9075162fc7de4dc5af.pdf,0,2000-01-01 01:00:00,2016-04-03 02:51:08,445000/f81a056232c47f9075162fc7de4dc5af-g.jpg,,
21739359,"Comprehensive Handbook of Iodine: Nutritional, Biochemical, Pathological and Therapeutic Aspects, 1st Edition",,,,"Victor R. Preedy, Gerard N. Burrow MD, Ronald Ross Watson",2009,1,Academic Press,,1328,0,English,296,,до 2011-01,"0123741351,9780123741356",,,,,,,,,,,0,,,,,,1,1,41598987,pdf,F88C3A034E31E20958CAC32269313BDC,,,D:\\!genesis\\library.nu\\f8\\_281888.f88c3a034e31e20958cac32269313bdc.pdf,0,2000-01-01 01:00:00,2016-04-03 02:51:08,445000/f88c3a034e31e20958cac32269313bdc-d.jpg,,
21739360,"Innovation, Inclusion, and Integration: From Transition to Convergence in Eastern Europe and the Former Soviet Union",,,,Pradeep Mitra,2008,,,,162,0,English,,,до 2011-01,"0821375385,9780821375389,9780821375396",,,,,330.947,HC244 .M546 2008,10.1596/978-0-8213-7538-9,,OL16702068M,,0,,,,,1,1,1,2112742,pdf,F85DF397DA0391F050078804BCB29113,,,D:\\!genesis\\library.nu\\f8\\_28169.f85df397da0391f050078804bcb29113.pdf,0,2000-01-01 01:00:00,2016-04-03 02:51:08,445000/f85df397da0391f050078804bcb29113-d.jpg,,
21739361,Gypsy: The Art of the Tease (Icons of America),,,,Rachel Shteir,2009,First Edition,Yale University Press,,233,0,English,,,до 2011-01,"0300120400,9780300120400",,,,,"792.702/8092,B",PN2287.L29 S58 2009,,,OL22529172M,,0,,,,,,1,1,613814,pdf,F8BB8D15DFB09656192049003F3313D0,,,D:\\!genesis\\library.nu\\f8\\_281647.f8bb8d15dfb09656192049003f3313d0.pdf,0,2000-01-01 01:00:00,2016-04-03 02:51:08,445000/f8bb8d15dfb09656192049003f3313d0-d.jpg,,
21739362,"Terrestrial Paleoecology & Global Change (Russian Academic Monographs, 1)",,,,V. Krassilov,2003,,Pensoft Pub,,472,0,English,,,до 2011-01,"9546421537,9789546421531",,,,,,,,,OL13055915M,,0,,,,,,,1,37363702,pdf,F8D5263E46819ADBD4D6B7E5B983C99C,,,D:\\!genesis\\library.nu\\f8\\_281559.f8d5263e46819adbd4d6b7e5b983c99c.pdf,0,2000-01-01 01:00:00,2016-04-03 02:51:08,445000/f8d5263e46819adbd4d6b7e5b983c99c-d.jpg,,
21739363,Abelian Groups and Modules (Lecture Notes in Pure and Applied Mathematics),,,,"K.M. Rangaswamy, David Arnold",1996,First Edition,CRC Press,,432,0,English,113,,до 2011-01,"0824797892,9780824797898",,,,,512/.2,QA180 .A227 1996,,,OL985911M,,0,,,,,,,0,21132314,pdf,F8A72971CC6F60A5BEB0FA56D7080C4B,,,D:\\!genesis\\library.nu\\f8\\_281473.f8a72971cc6f60a5beb0fa56d7080c4b.pdf,0,2000-01-01 01:00:00,2016-04-03 02:51:08,445000/f8a72971cc6f60a5beb0fa56d7080c4b-d.jpg,,
21739364,Maximising Your Memory: How to Train Yourself to Remember More (How to Books (Midpoint)),,,,Peter Marshall,1997,,How to Books,,144,0,English,,,до 2011-01,"1857032349,9781857032345",,,,,,,,,OL12007476M,,0,,,,,,,,391011,chm,F8DAED8242C64F9B9081529B75416308,,,D:\\!genesis\\library.nu\\f8\\_280275.f8daed8242c64f9b9081529b75416308.chm,0,2000-01-01 01:00:00,2016-04-03 02:51:08,445000/f8daed8242c64f9b9081529b75416308-d.jpg,,
21739365,The Ring of Earth,,Young Samurai 4,,Chris Bradford,2010,,Puffin Books,,,0,English,38,,до 2011-01,"9780141961613,0141961619",,,,,,,,,,,0,,,,,,,1,3846258,epub,F8B75595D31D519C95669819A9159E6C,,,D:\\!genesis\\library.nu\\f8\\_279549.f8b75595d31d519c95669819a9159e6c.epub,0,2000-01-01 01:00:00,2016-04-03 02:51:08,445000/F8B75595D31D519C95669819A9159E6C-g.jpg,,
21739366,Infrastructure Productivity Evaluation,,SpringerBriefs in Economics 1,,"Walter Manshanden, Wouter Jonkhoff (auth.), Wouter Jonkhoff, Walter Manshanden (eds.)",2011,1,Springer-Verlag New York,,96,0,English,,,до 2011-01,"1441981004,9781441981004",,,,,,,10.1007/978-1-4419-8101-1,,OL25056810M,,0,,,,,,1,1,2690780,pdf,F8448160DADECC0ED14EEAEB6BC711AF,,,D:\\!genesis\\library.nu\\f8\\_279083.f8448160dadecc0ed14eeaeb6bc711af.pdf,0,2000-01-01 01:00:00,2016-04-03 02:51:08,445000/f8448160dadecc0ed14eeaeb6bc711af-d.jpg,,
21739367,You Can Love A Stranger (Harlequin Romance),,,,Charlotte Lamb,1988,,,,187,0,English,,,до 2011-01,0373029500,,,,,,,,,,,0,,,,,,,,279354,lit,F81F9C4EBA463AC2B14EC02D98CBB996,,,D:\\!genesis\\library.nu\\f8\\_278743.f81f9c4eba463ac2b14ec02d98cbb996.lit,0,2000-01-01 01:00:00,2016-04-03 02:51:08,445000/F81F9C4EBA463AC2B14EC02D98CBB996-g.jpg,,
21739368,The Almohads: The Rise of an Islamic Empire (Library of Middle East History),,,,Allen J. Fromherz,2010,,I. B. Tauris,,288,0,English,64,,до 2011-01,"1845116518,9781845116514",,,,,961.02,DT199 .F76 2010,,,OL24886453M,,0,,,,,,1,1,1674527,pdf,F8E51F3D23A3D49372CD5B12A37890B7,,,D:\\!genesis\\library.nu\\f8\\_278287.f8e51f3d23a3d49372cd5b12a37890b7.pdf,0,2000-01-01 01:00:00,2016-04-03 02:51:08,445000/f8e51f3d23a3d49372cd5b12a37890b7-d.jpg,,
21739369,"Migration in the 21st Century: Rights, Outcomes, and Policy (Regions and Cities)",,Regions and Cities,,"Thomas N. Maloney, Kim Korinek",2010,1,Routledge,,305,0,English,192,,до 2011-01,"0415779146,9780415779142,0203845129,9780203845127",,,,,325.73,JV6475 .M54 2010,,,OL24123780M,,0,,,,,,1,1,2861127,pdf,F8A19FD2BFC7A69CD4CBE9B6B9E9F8D3,,,D:\\!genesis\\library.nu\\f8\\_278075.f8a19fd2bfc7a69cd4cbe9b6b9e9f8d3.pdf,0,2000-01-01 01:00:00,2016-04-03 02:51:08,445000/f8a19fd2bfc7a69cd4cbe9b6b9e9f8d3-d.jpg,,
21739370,Violence and Security on Campus: From Preschool through College,,,,"James Alan Fox, Harvey Burstein",2010,1,Praeger,,289,0,English,,,до 2011-01,"0313362688,9780313362682,7803133626",,,,,371.7/82,LB3013.3 .F69 2010,,,OL24002744M,,0,,,,,,1,1,1759223,pdf,F8A873E07F255B55D5C5D4161829267E,,,D:\\!genesis\\library.nu\\f8\\_277740.f8a873e07f255b55d5c5d4161829267e.pdf,0,2000-01-01 01:00:00,2016-04-03 02:51:08,445000/f8a873e07f255b55d5c5d4161829267e-d.jpg,,
21739371,EXPERIMENTS IN MODERN ELECTRONICS,,,,LEACH-BREWER,1990,3,Kendall Hunt Publishing,,393,0,English,250,,до 2011-01,"0757531741,9780757531743",,,,,,,,,OL8005222M,,0,,,,,,1,1,75389842,pdf,F8FB1DDF758F67153676A1844A2D787A,,,D:\\!genesis\\library.nu\\f8\\_277639.f8fb1ddf758f67153676a1844a2d787a.pdf,0,2000-01-01 01:00:00,2016-04-03 02:51:08,445000/f8fb1ddf758f67153676a1844a2d787a-d.jpg,,
21739372,معماي هويدا,,,,دكتر عباس ميلاني,1385,چاپ هفدهم,اختران,,552,0,Persian,,,до 2011-01,"9789647514590,9647514591",,,,,,,,,,,0,,,,,,,0,24725346,djvu,F859D40D27D594D64998F89F99BEBFB3,,,D:\\!genesis\\library.nu\\f8\\_277305.f859d40d27d594d64998f89f99bebfb3.djvu,0,2000-01-01 01:00:00,2016-04-03 02:51:08,445000/f859d40d27d594d64998f89f99bebfb3-g.jpg,,
21739373,Writing Winning Business Proposals,,,,"Richard Freed, Shervin Freed, Joe Romano",2010,3,McGraw-Hill,,320,0,English,1,,до 2011-01,"0071742328,9780071742320,9780071742337",,,,,808/.06665,HF5718.5 .F74 2011,,,OL24539430M,,0,,,,,,,1,4710527,pdf,F8F7B07E1A0F78088B4818CE4B798BEF,,,D:\\!genesis\\library.nu\\f8\\_276921.f8f7b07e1a0f78088b4818ce4b798bef.pdf,0,2000-01-01 01:00:00,2016-04-03 02:51:08,445000/f8f7b07e1a0f78088b4818ce4b798bef-d.jpg,,
21739374,Technologiemanagement: Handbuch Produktion und Management 2,,VDI-Buch,,"Günther Schuh (auth.), Günther Schuh, Sascha Klappert (eds.)",2011,2,Springer-Verlag Berlin Heidelberg,,400,0,German,210,,до 2011-01,"3642125298,9783642125294",,,,,,,10.1007/978-3-642-12530-0,,,,0,,,,,,1,1,22788278,pdf,F8EFF5BDEC5EA49BD7F07987369DA692,,,D:\\!genesis\\library.nu\\f8\\_276604.f8eff5bdec5ea49bd7f07987369da692.pdf,0,2000-01-01 01:00:00,2016-04-03 02:51:08,445000/f8eff5bdec5ea49bd7f07987369da692-d.jpg,,
21739375,Twitterville: How Businesses Can Thrive in the New Global Neighborhoods,,,,Shel Israel,2009,,Portfolio Hardcover,,320,0,English,1,,до 2011-01,"1591842794,9781591842798",,,,,658.8/72,HD9696.8.U64 T955 2009,,,OL23554235M,,0,,,,,,,0,32121606,pdf,F8EEADDEDED3B98AE229491F2460164D,,,D:\\!genesis\\library.nu\\f8\\_276542.f8eeaddeded3b98ae229491f2460164d.pdf,0,2000-01-01 01:00:00,2016-04-03 02:51:08,445000/f8eeaddeded3b98ae229491f2460164d-d.jpg,,
21739376,The Castaways: A Novel,,,,Elin Hilderbrand,2009,,"Little, Brown and Company",,400,0,English,,,до 2011-01,9780316076319,,,,,,,,,OL24263598M,,0,,,,,,,1,669617,epub,F810573BD223F97CE831A72E0ADC33B9,,,D:\\!genesis\\library.nu\\f8\\_276348.f810573bd223f97ce831a72e0adc33b9.epub,0,2000-01-01 01:00:00,2016-04-03 02:51:08,445000/F810573BD223F97CE831A72E0ADC33B9-g.jpg,,
21739377,La transcripcion castellana de los nombres propios griegos,,Publicaciones De La Sociedad Española De Estudios Clásicos 4,,Manuel Fernandez Galiano,1969,,Sociedad española de estudios clásicos Madrid,,78,0,Spanish,,,до 2011-01,,,,,,,,,,,,0,,,,,,,1,56561020,pdf,F8CAAB259B1BBE4B08E006FCF0E71D05,,,D:\\!genesis\\library.nu\\f8\\_276325.f8caab259b1bbe4b08e006fcf0e71d05.pdf,0,2000-01-01 01:00:00,2016-04-03 02:51:08,445000/f8caab259b1bbe4b08e006fcf0e71d05-g.jpg,,
21739378,Cities of the Mediterranean: From the Ottomans to the Present Day,,,,"Biray Kolluoglu, Meltem Toksoz",2010,,I. B. Tauris,,257,0,English,,,до 2011-01,"1848851278,9781848851276",,,,,307.76091822,HT145.M47 C58 2010,,,OL24792182M,,0,,,,,,1,1,3249392,pdf,F85643E077DCD02DA01E96F846BB7B63,,,D:\\!genesis\\library.nu\\f8\\_275941.f85643e077dcd02da01e96f846bb7b63.pdf,0,2000-01-01 01:00:00,2016-04-03 02:51:08,445000/f85643e077dcd02da01e96f846bb7b63-d.jpg,,
21739379,"Benjamin Graham, the Father of Financial Analysis",,,,"Irving Kahn, Robert D. Milne",,,,,58,0,English,305,,до 2011-01,"9781934667057,1934667056",,B002DGCB1U,,,,,,,,,0,,,,,,1,1,2667293,pdf,F81DE9455219FC9D5B406B091CF440E3,,,D:\\!genesis\\library.nu\\f8\\_275877.f81de9455219fc9d5b406b091cf440e3.pdf,0,2000-01-01 01:00:00,2016-04-03 02:51:08,445000/f81de9455219fc9d5b406b091cf440e3-g.jpg,,
21739380,Das Lichtkleid JHWHs: Untersuchungen zur Gestalthaftigkeit Gottes im Alten Testament und seiner altorientalischen Umwelt (Forschungen zum Alten Testament),,Forschungen zum Alten Testament; 15,,Thomas Podella,1996,,J.C.B. Mohr,,340,0,German,,,до 2011-01,"3161465989,9783161465987",,,,,221.6/7,BS1192.6 .P63 1996,,,,,0,,,,,,,1,16216735,pdf,F81083F5922042C6D2966D2553CDE982,,,D:/!genesis/library.nu/f8/_275819.f81083f5922042c6d2966d2553cde982.pdf,0,2000-01-01 01:00:00,2016-04-03 02:51:08,445000/f81083f5922042c6d2966d2553cde982-g.jpg,,
21739381,Hardcore Windows XP,,,,Joli Ballew,2005,1,McGraw-Hill Osborne Media,,270,0,English,85,,до 2011-01,"0072258659,9780072258653",,,,,,,10.1036/007146963X,,OL7302584M,,0,,,,,,,1,5622865,pdf,F847C262782975DF94BC0E8EEDF18366,,,D:\\!genesis\\library.nu\\f8\\_275645.f847c262782975df94bc0e8eedf18366.pdf,0,2000-01-01 01:00:00,2016-04-03 02:51:08,445000/f847c262782975df94bc0e8eedf18366-d.jpg,,
21739382,Pancreas and Islet Transplantation,,,,"Nadey Hakim, Robert Stratta, Derek Gray",2002,1,,,384,0,English,,,до 2011-01,"0192632558,9780192632555,9781417599769",,,,,,,,,OL7382582M,,0,,,,,1,,1,3610184,pdf,F88439947B74D9819443F45876F84950,,,D:\\!genesis\\library.nu\\f8\\_27416.f88439947b74d9819443f45876f84950.pdf,0,2000-01-01 01:00:00,2016-04-03 02:51:08,445000/f88439947b74d9819443f45876f84950-d.jpg,,
21739383,Quimica analitica,,,,James Gardiner Dick,1979,,El manual moderno,,197,0,Spanish,,,до 2011-01,"9684260806,9789684260801",,,,,,,,,,,0,,,,,,1,0,35432336,pdf,F802DF16C2EA5841F7F77ED70E6145C8,,,D:\\!genesis\\library.nu\\f8\\_273699.f802df16c2ea5841f7f77ed70e6145c8.pdf,0,2000-01-01 01:00:00,2016-04-03 02:51:08,445000/f802df16c2ea5841f7f77ed70e6145c8-g.jpg,,
21739384,Prenatal Medicine,,,,"M.G. van Vugt John, Lee P. Shulman",2006,1,Informa Healthcare,,649,0,English,147,,до 2011-01,"0824728440,9780824728441",,,,,618.3/2075,RG628 .P744 2006,,,OL21895633M,,0,,,,,,1,1,8942240,pdf,F875075C20DDA01542DC769ABE67A451,,,D:\\!genesis\\library.nu\\f8\\_273625.f875075c20dda01542dc769abe67a451.pdf,0,2000-01-01 01:00:00,2016-04-03 02:51:08,445000/f875075c20dda01542dc769abe67a451-d.jpg,,
21739385,Thr3e,,,,Ted Dekker,2003,,Thomas Nelson,,400,0,English,,,до 2011-01,"9780849943720,084994449X,1595541373,1595541926,9780849945120",,,,,,,,,OL24238200M,,0,,,,,,,1,1183550,epub,F8F7FA552E6906255B2FFD82AC9042E3,,,D:\\!genesis\\library.nu\\f8\\_273492.f8f7fa552e6906255b2ffd82ac9042e3.epub,0,2000-01-01 01:00:00,2016-04-03 02:51:08,445000/f8f7fa552e6906255b2ffd82ac9042e3-d.jpg,,
21739386,"Immanuel Kant, Kritik der praktischen Vernunft",,,,Otfried Hoffe,2002,,Akademie-Verlag,,231,0,German,,,до 2011-01,"3050035765,9783050035765",,,,,193,B2774 .I66 2002,,,OL22601401M,,0,,,,,,,0,22779863,pdf,F8D08EF60C34C95505B006C9CCDEE00A,,,D:\\!genesis\\library.nu\\f8\\_273210.f8d08ef60c34c95505b006c9ccdee00a.pdf,0,2000-01-01 01:00:00,2016-04-03 02:51:08,445000/f8d08ef60c34c95505b006c9ccdee00a-d.jpg,,
21739387,Costs of Disarmament--Disarming the Costs: Nuclear Arms Control and Nuclear Rearmament,,,,Susan Willett,2003,,United Nations,,175,0,English,67,,до 2011-01,"9290451548,9789290451549,9781417548026",,,,,327.1/747/0947,HC110.D4 W55 2003,,,OL3361641M,,0,,,,,,1,1,1348779,pdf,F80721A3EC7F3F87B74F21B35CA7D404,,,D:\\!genesis\\library.nu\\f8\\_272726.f80721a3ec7f3f87b74f21b35ca7d404.pdf,0,2000-01-01 01:00:00,2016-04-03 02:51:08,445000/f80721a3ec7f3f87b74f21b35ca7d404-g.jpg,,
21739388,Nature Biotechnology 09 2010 (magazine journal; September 2010),28,,,Andrew Marshall,2010,,,,121,0,English,17,,до 2011-01,,,,,,,,,,,periodic,0,,,,,,,1,11121485,pdf,F8458847A467A12A4DAF27F3D77A18F8,,ban,D:\\!genesis\\library.nu\\f8\\_272418.f8458847a467a12a4daf27f3d77a18f8.pdf,0,2000-01-01 01:00:00,2016-04-03 02:51:08,445000/f8458847a467a12a4daf27f3d77a18f8-g.jpg,,
21739389,Introduction to the Finite Element Method,,,,J. N. Reddy,1993,2,McGraw-Hill Science Engineering Math,,704,0,English,,,до 2011-01,"0070513554,9780070513556",,,,,620/.001/51535,TA347.F5 R4 1993,,,OL1725525M,,0,,,,,,,1,23006872,pdf,F83DFC2720F9F3C30C950A7F39CCCFCE,,,D:\\!genesis\\library.nu\\f8\\_272402.f83dfc2720f9f3c30c950a7f39cccfce.pdf,0,2000-01-01 01:00:00,2016-04-03 02:51:08,445000/f83dfc2720f9f3c30c950a7f39cccfce-d.jpg,,
21739390,Introduccion al Algebra,,,,A. I. Kostrikin,1983,,Editorial Mir,,439,0,Spanish,114,,до 2011-01,,,,,,,,,,,,0,,,,,,,0,82239985,pdf,F81B536FA2EDD89DE30D4A047A311F82,,,D:\\!genesis\\library.nu\\f8\\_272100.f81b536fa2edd89de30d4a047a311f82.pdf,0,2000-01-01 01:00:00,2016-04-03 02:51:08,445000/f81b536fa2edd89de30d4a047a311f82-g.jpg,,
21739391,New Age and Neopagan Religions in America,,Columbia contemporary American religion series,,Sarah M. Pike,2004,1,Columbia University Press,,220,0,English,205,,до 2011-01,"0231124023,9780231124027",,,,,,,,2DoK_bUwSR0C,,,0,,,,,,1,1,3187076,pdf,F87B9E10992F8F62640A076B4D38DF4C,,,D:/!genesis/library.nu/f8/_271335.f87b9e10992f8f62640a076b4d38df4c.pdf,0,2000-01-01 01:00:00,2016-04-03 02:51:08,445000/f87b9e10992f8f62640a076b4d38df4c-d.jpg,,
21739392,Fremde als Ordnungshüter?: Die Polizei in der Zuwanderungsgesellschaft Deutschland,,,,"Daniela Hunold, Daniela Klimke, Rafael Behr, Rüdiger Lautmann",2010,,Vs Verlag,,249,0,German,,,до 2011-01,"3531171712,9783531171715",,,,,,,,,OL25076083M,,0,,,,,,1,1,1206793,pdf,F80FF5A28F8E80551F78C361778367C6,,,D:\\!genesis\\library.nu\\f8\\_271213.f80ff5a28f8e80551f78c361778367c6.pdf,0,2000-01-01 01:00:00,2016-04-03 02:51:08,445000/f80ff5a28f8e80551f78c361778367c6-g.jpg,,
21739393,"Oxhide Ingots, Copper Production, and the Mediterranean Trade in Copper and Other Metals in the Bronze Age (Master's Thesis)",,,,Michael Rice Jones,2007,,,,448,0,English,,,до 2011-01,,,,,,,,,,,,0,,,,,,,1,1828050,pdf,F897C67B2BE8F7C6A42AFA6908AD4737,,,D:\\!genesis\\library.nu\\f8\\_270378.f897c67b2be8f7c6a42afa6908ad4737.pdf,0,2000-01-01 01:00:00,2016-04-03 02:51:08,445000/f897c67b2be8f7c6a42afa6908ad4737-g.jpg,,
21739394,Infectious Diseases of Wild Birds,,,,"Nancy J. Thomas, D. Bruce Hunter, Carter T. Atkinson",2007,1,Wiley-Blackwell,,496,0,English,150,,до 2011-01,"0813828120,9780813828121",,,,,636.5/08969,SF994 .I54 2007,,,OL17985357M,,0,,,,,,1,1,7016493,pdf,F87CB439CF50FA29B73D4B089773FC54,,,D:\\!genesis\\library.nu\\f8\\_270344.f87cb439cf50fa29b73d4b089773fc54.pdf,0,2000-01-01 01:00:00,2016-04-03 02:51:08,445000/f87cb439cf50fa29b73d4b089773fc54-d.jpg,,
21739395,Poetry into Song: Performance and Analysis of Lieder,,,,"Deborah Stein, Robert Spillman",2010,,"Oxford University Press, USA",,432,0,English,117,,до 2011-01,"0199754306,9780199754304",,,,,,,,,,,0,,,,,,1,1,19940971,pdf,F85E2123EF91F82BD264FBDAD5F99CB0,,,D:\\!genesis\\library.nu\\f8\\_270004.f85e2123ef91f82bd264fbdad5f99cb0.pdf,0,2000-01-01 01:00:00,2016-04-03 02:51:08,445000/f85e2123ef91f82bd264fbdad5f99cb0-d.jpg,,
21739396,The Media Effect: How the News Influences Politics and Government (Democracy and the News),,Democracy and the News,,Jim Willis,2007,annotated edition,Praeger,,178,0,English,181,,до 2011-01,"0275994961,9780275994969",,,,,,,,,OL10289921M,,0,,,,,,1,1,801834,pdf,F8BEB540361BB708291ED44C4CFACE6E,,,D:\\!genesis\\library.nu\\f8\\_269885.f8beb540361bb708291ed44c4cface6e.pdf,0,2000-01-01 01:00:00,2016-04-03 02:51:08,445000/f8beb540361bb708291ed44c4cface6e-d.jpg,,
21739397,Ηθική,,ευμενείς έλεγχοι,,"Spinoza Baruch de (Σπινόζα), Βανταράκης Ευάγγελος (μετάφραση)",2009,,Εκκρεμές,,549,0,Greek,,,до 2011-01,9789607651723,,,,,,,,,,,0,,,,,,,0,27372063,pdf,F8FF51BD6D574164C349A1B94447D42E,,,D:\\!genesis\\library.nu\\f8\\_269625.f8ff51bd6d574164c349a1b94447d42e.pdf,0,2000-01-01 01:00:00,2016-04-03 02:51:08,445000/f8ff51bd6d574164c349a1b94447d42e-g.jpg,,
21739398,Psychology for the Classroom: Constructivism and Social Learning,,,,"Alan Pritchard, John Woollard",2010,,Routledge,,120,0,English,236,,до 2011-01,"0415494796,9780415494793",,,,,370.15/23,LB1590.3 .P77 2010,,,OL23832855M,,0,,,,,,,1,2047336,pdf,F8593F10D57065E8D0BB52DFE07CF7D9,,,D:\\!genesis\\library.nu\\f8\\_268647.f8593f10d57065e8d0bb52dfe07cf7d9.pdf,0,2000-01-01 01:00:00,2016-04-03 02:51:08,445000/f8593f10d57065e8d0bb52dfe07cf7d9-d.jpg,,
21739399,Winterkartoffelknodel: Ein Provinzkrimi,,,,Rita Falk,2010,,Deutscher Taschenbuch Verlag,,233,0,German,,,до 2011-01,"3423248106,9783423248105",,,,,,,,,,,0,,,,,,,1,931193,pdf,F88F236E411A6F192AED346303744063,,,D:\\!genesis\\library.nu\\f8\\_268215.f88f236e411a6f192aed346303744063.pdf,0,2000-01-01 01:00:00,2016-04-03 02:51:08,445000/f88f236e411a6f192aed346303744063-g.jpg,,
21739400,Scientific American Mind: Your Sexual Brain (Special Editions),,,,Scientific American,,,,,83,0,English,181,,до 2011-01,,,,,,,,,,,,0,,,,,,,1,6848921,pdf,F8A770DE420F865EC91EB6DB1F4C83B8,,,D:\\!genesis\\library.nu\\f8\\_268199.f8a770de420f865ec91eb6db1f4c83b8.pdf,0,2000-01-01 01:00:00,2016-04-03 02:51:08,445000/f8a770de420f865ec91eb6db1f4c83b8-g.jpg,,
21739401,Lux Perpetua,,,,Franz Cumont,1949,,Librairie orientaliste Paul Geuthner,,580,0,French,,,до 2011-01,,,,,,,,,,,,0,,,,,,,1,17856088,pdf,F849B6FD7468D50BA9369B5C7CE5B066,,,D:\\!genesis\\library.nu\\f8\\_267442.f849b6fd7468d50ba9369b5c7ce5b066.pdf,0,2000-01-01 01:00:00,2016-04-03 02:51:08,445000/f849b6fd7468d50ba9369b5c7ce5b066-g.jpg,,
21739402,The Transformative Power of Performance: A New Aesthetics,,,,Erika Fischer-Lichte,2008,,Routledge,,241,0,English,,,до 2011-01,"0203894987,9780203894989",,,,,,,,,,,0,,,,,,,1,1598554,pdf,F86EA7B4031C81AE33502160DF6DFC14,,,D:\\!genesis\\library.nu\\f8\\_267046.f86ea7b4031c81ae33502160df6dfc14.pdf,0,2000-01-01 01:00:00,2016-04-03 02:51:08,445000/f86ea7b4031c81ae33502160df6dfc14-g.jpg,,
21739403,Reviews of Tertiary Education: Czech Republic,,,,OECD,2009,,,,127,0,English,183,,до 2011-01,9789264049079,,,,,,,,,,,0,,,,,,1,1,1018885,pdf,F8910458A6A992414ACF68C662DFC2AE,,,D:\\!genesis\\library.nu\\f8\\_266966.f8910458a6a992414acf68c662dfc2ae.pdf,0,2000-01-01 01:00:00,2016-04-03 02:51:08,445000/f8910458a6a992414acf68c662dfc2ae-g.jpg,,
21739404,Linear Algebra,,,,Paul Dawkins,,,,,342,0,English,114,,до 2011-01,,,,,,,,,,,,0,,,,,,1,1,2145006,pdf,F80184F9FBB932AF8D8F65156857E115,,,D:\\!genesis\\library.nu\\f8\\_266821.f80184f9fbb932af8d8f65156857e115.pdf,0,2000-01-01 01:00:00,2016-04-03 02:51:08,445000/f80184f9fbb932af8d8f65156857e115-g.jpg,,
21739405,Ensuring That Army Infrastructure Meets Strategic Needs,,,,"Ellen M. Pint, Beth E. Lachman, Justin L. Adams, William M. Hix",2008,,,,64,0,English,,,до 2011-01,"083304401X,9780833044013",,,,,,,,,,,0,,,,,1,,1,3620407,pdf,F85039225153BF398348CF730DE1743C,,,D:\\!genesis\\library.nu\\f8\\_26679.f85039225153bf398348cf730de1743c.pdf,0,2000-01-01 01:00:00,2016-04-03 02:51:08,445000/f85039225153bf398348cf730de1743c-g.jpg,,
21739406,The UFO enigma (Report),,,,Marcia S Smith,1983,,"Congressional Research Service, Library of Congress",,142,0,English,,,до 2011-01,,,B00072SBYS,,,,,,,,,0,,,,,,1,0,9512455,pdf,F8CF1490C06B2741B2895C9EF51FA771,,,D:\\!genesis\\library.nu\\f8\\_266382.f8cf1490c06b2741b2895c9ef51fa771.pdf,0,2000-01-01 01:00:00,2016-04-03 02:51:08,445000/f8cf1490c06b2741b2895c9ef51fa771-g.jpg,,
21739407,As If Silent and Absent: Bonds of Enslavement in the Islamic Middle East,,,,Prof. Ehud R. Toledano,2007,,Yale University Press,,271,0,English,205,,до 2011-01,"0300114613,9780300114614",,,,,,,,,OL9734348M,,0,,,,,,,1,1159729,pdf,F892A21FB55EF76785EB5ECBFDA2FD58,,,D:\\!genesis\\library.nu\\f8\\_266158.f892a21fb55ef76785eb5ecbfda2fd58.pdf,0,2000-01-01 01:00:00,2016-04-03 02:51:08,445000/f892a21fb55ef76785eb5ecbfda2fd58-d.jpg,,
21739408,8th Grade Reading Comprehension Success,,,,Elizabeth Chesla,2001,,"LearningExpress, LLC",,190,0,English,137,,до 2011-01,"1576853918,9781576853917",,,,,,,,,OL8749299M,,0,,,,,,,1,1184163,pdf,F8EA8A2EF76C7FFF0C43F765D7B2470F,,,D:\\!genesis\\library.nu\\f8\\_265649.f8ea8a2ef76c7fff0c43f765d7b2470f.pdf,0,2000-01-01 01:00:00,2016-04-03 02:51:08,445000/f8ea8a2ef76c7fff0c43f765d7b2470f-d.jpg,,
21739409,"Perry Rhodan, der Erbe des Universums. Nr. 26. Duell der Mutanten",,Zyklus: Die Dritte Macht,,Clark Darlton,1962,,Moewig Verlag,,39,0,German,,,до 2011-01,,,B0000BMSIY,,,,,,,,,0,,,,,,1,1,384051,pdf,F81D80FAD4CBEE09049F7B980C18AA76,,,D:\\!genesis\\library.nu\\f8\\_265290.f81d80fad4cbee09049f7b980c18aa76.pdf,0,2000-01-01 01:00:00,2016-04-03 02:51:08,445000/f81d80fad4cbee09049f7b980c18aa76-g.jpg,,
21739410,Getting a Cut: A Contextual Understanding of Commission Systems,,,,Richard Seltzer,2010,,Lexington Books,,164,0,English,,,до 2011-01,"0739144391,9780739144398,9780739144411",,,,,331.2/164,HD4926 .S45 2010,,,OL24438834M,,0,,,,,,,1,695376,pdf,F8361E9827F8BF36CF868B89A55E9EC3,,,D:\\!genesis\\library.nu\\f8\\_265189.f8361e9827f8bf36cf868b89a55e9ec3.pdf,0,2000-01-01 01:00:00,2016-04-03 02:51:08,445000/f8361e9827f8bf36cf868b89a55e9ec3-d.jpg,,
21739411,Danh sách trúng tuyển NV 2ĐHSP,,,,Đại học Sư phạm Hà Nội,,,,,16,0,Vietnamese,,,до 2011-01,,,,,,,,,,,,0,,,,,,,1,426744,pdf,F81EB4F65EC97C0063FDFB62119D2B5F,,,D:\\!genesis\\library.nu\\f8\\_265003.f81eb4f65ec97c0063fdfb62119d2b5f.pdf,0,2000-01-01 01:00:00,2016-04-03 02:51:08,445000/f81eb4f65ec97c0063fdfb62119d2b5f-g.jpg,,
21739412,Constitution of India,,,,"Dr. B R Ambedkar, Acharya Kriplani, Pandit Nehru, Pandit Govind Ballabh Pant, Maulana Azad, Sardar Patel and Dr Rajendra Prasad",,,,,471,0,English,,,до 2011-01,,,,,,,,,,,,0,,,,,,,1,1149414,pdf,F89B290F96EECF5D810446A2224AEF6F,,,D:\\!genesis\\library.nu\\f8\\_264748.f89b290f96eecf5d810446a2224aef6f.pdf,0,2000-01-01 01:00:00,2016-04-03 02:51:08,445000/f89b290f96eecf5d810446a2224aef6f-g.jpg,,
21739413,Mathematical Foundations for Electromagnetic Theory (IEEE Press Series on Electromagnetic Wave Theory),,,,Donald G. Dudley,1994,1,Wiley-IEEE Press,,263,0,English,137,,до 2011-01,0780310225,,,,,,,,,,,0,,,,,,1,1,14978149,pdf,F8A4435CB46FAAF624A36380FC3F0F80,,,D:\\!genesis\\library.nu\\f8\\_264555.f8a4435cb46faaf624a36380fc3f0f80.pdf,0,2000-01-01 01:00:00,2016-04-03 02:51:08,445000/f8a4435cb46faaf624a36380fc3f0f80-d.jpg,,
21739414,"Preparation of Catalysts VScientific Bases for the Preparation of Heterogeneous Catalysts, Proceedings of the Fifth International Symposium",,Studies in Surface Science and Catalysis 63,,"G. Poncelet, P.A. Jacobs, P. Grange and B. Delmon (Eds.)",1991,,Elsevier Science & Technology,,"iii-xiv, 1-748",0,English,,,до 2011-01,"0444886168,9780444886163",0167-2991,,,,541.3/95,QD505 .I613 1990,,,OL10261246M,,0,,,,,,,1,30839560,pdf,F8077EB8D97C9DFA3FCDC071D0D46E0C,,,D:\\!genesis\\library.nu\\f8\\_264386.f8077eb8d97c9dfa3fcdc071d0d46e0c.pdf,0,2000-01-01 01:00:00,2016-04-03 02:51:08,445000/f8077eb8d97c9dfa3fcdc071d0d46e0c-d.jpg,,
21739415,I vecchi e i giovani,,,,Luigi Pirandello,1993,,,,549,0,Italian,,,до 2011-01,"9788804365488,880436548X",,,,,,,,,OL16547116M,,0,,,,,1,,1,1936478,pdf,F88D07B3AECD7A52EB617985E6BCCA41,,,D:\\!genesis\\library.nu\\f8\\_26428.f88d07b3aecd7a52eb617985e6bcca41.pdf,0,2000-01-01 01:00:00,2016-04-03 02:51:08,445000/f88d07b3aecd7a52eb617985e6bcca41-g.jpg,,
21739416,Servant of the Empire,,Empire Trilogy 2,,"Raymond E. Feist, Janny Wurts",1996,,Spectra Books,,704,0,English,,,до 2011-01,"0553292455,9780553292459",,,,,,,,,,,0,,,,,,,,697343,lit,F8565D96AAFDCF41458017F1608E6ECE,,,D:/!genesis/library.nu/f8/_263839.f8565d96aafdcf41458017f1608e6ece.lit,0,2000-01-01 01:00:00,2016-04-03 02:51:08,445000/f8565d96aafdcf41458017f1608e6ece-d.jpg,,
21739417,Head First EJB (Brain-Friendly Study Guides; Enterprise JavaBeans),,,,"Kathy Sierra, Bert Bates",2003,1,OReilly Media,,695,0,English,183,,до 2011-01,"0596005717,9780596005719",,,,,005.13/3,QA76.3 .S468 2003,,,OL3326326M,,0,,,,,,1,1,15696036,pdf,F83066FF81F6431B56953CBFF3139840,,,D:\\!genesis\\library.nu\\f8\\_263546.f83066ff81f6431b56953cbff3139840.pdf,0,2000-01-01 01:00:00,2016-04-03 02:51:08,445000/f83066ff81f6431b56953cbff3139840-d.jpg,,
21739418,الأصولية بين الغرب والإسلام,,,,محمد عمارة,1998,,دار الشروق,,94,0,Arabic,,,до 2011-01,,,,,,,,,,,,0,,,,,,,0,3886772,pdf,F8111D8A447A010E54C679B1194BA20A,,,D:\\!genesis\\library.nu\\f8\\_263459.f8111d8a447a010e54c679b1194ba20a.pdf,0,2000-01-01 01:00:00,2016-04-03 02:51:08,445000/f8111d8a447a010e54c679b1194ba20a-g.jpg,,
21739419,The Blue Castle,,,,L. M. Montgomery,,,,,194,0,English,,,до 2011-01,,,,,,,,,,,,0,,,,,,,1,875839,pdf,F8B60DDCF14D8A75BD33CD5FFEF401F8,,,D:\\!genesis\\library.nu\\f8\\_262528.f8b60ddcf14d8a75bd33cd5ffef401f8.pdf,0,2000-01-01 01:00:00,2016-04-03 02:51:08,445000/f8b60ddcf14d8a75bd33cd5ffef401f8-g.jpg,,
21739420,La Inspiracion y el Canon de las Escrituras: Historia y Teologia,,Cuadernos Bíblicos,,Andre Paul; Nicolas Darrical (tr.),1985,,Verbo Divino,,54,0,Spanish,64,,до 2011-01,,,,,,,,,,,,0,,,,,,1,1,3603754,pdf,F894C86E4B6DB17EA310ECC69F37BA75,,,D:\\!genesis\\library.nu\\f8\\_261908.f894c86e4b6db17ea310ecc69f37ba75.pdf,0,2000-01-01 01:00:00,2016-04-03 02:51:08,445000/f894c86e4b6db17ea310ecc69f37ba75-g.jpg,,
21739421,Classical Arabic Philology and Poetry: A Bibliographical Handbook of Important Editions from 1960 to 2000 (Handbook of Oriental Studies - Handbuch Der Orientalistik),,Handbook of Oriental Studies. Section 1 The Near and Middle East 63,,Reinhard Weipert,2002,,Brill Academic Publishers,,288,0,English,183,,до 2011-01,"9004123423,9789004123427,9789047401247",,,,,016.4927,Z7052 .W45 2002,,,OL3948497M,,0,,,,,,1,1,11974997,pdf,F80F9244E8F1EF7D54F9B7F7CF77ED43,,,D:\\!genesis\\library.nu\\f8\\_261499.f80f9244e8f1ef7d54f9b7f7cf77ed43.pdf,0,2000-01-01 01:00:00,2016-04-03 02:51:08,445000/f80f9244e8f1ef7d54f9b7f7cf77ed43-d.jpg,,
21739422,Divination in Ancient Israel and Its Near Eastern Environment: A Socio-Historical Investigation (Journal for the Study of the Old Testament Suppleme),,,,Frederick H. Cryer,1994,,Sheffield Academic Press,,368,0,English,64,,до 2011-01,"1850753539,9781850753537",,,,,291.3/2/0933,BL613 .C78 1994,,,OL1214897M,,0,,,,,,,1,17166312,pdf,F8A96D31C5D501C51FF6513A522C9E49,,,D:\\!genesis\\library.nu\\f8\\_260850.f8a96d31c5d501c51ff6513a522c9e49.pdf,0,2000-01-01 01:00:00,2016-04-03 02:51:08,445000/f8a96d31c5d501c51ff6513a522c9e49-d.jpg,,
21739423,Anti-Capitalism: A Marxist Introduction,,,,Alfredo Saad-Filho,2002,First Edition,Pluto Press,,267,0,English,,,до 2011-01,"9780745318936,0745318932",,,,,330.12/2,HB501 .A642 2003,,,OL18479882M,,0,,,,,,,1,24536676,pdf,F85B9B3A4A9FC4B58AE8D9E0CC6DCE15,,,D:\\!genesis\\library.nu\\f8\\_260621.f85b9b3a4a9fc4b58ae8d9e0cc6dce15.pdf,0,2000-01-01 01:00:00,2016-04-03 02:51:08,445000/f85b9b3a4a9fc4b58ae8d9e0cc6dce15-d.jpg,,
21739424,Ancient Egyptian Chronology (Handbook of Oriental Studies Handbuch der Orientalistik),,Handbook of Oriental Studies. Section 1 The Near and Middle East 83,,"Erik Hornung, Rolf Krauss, David A. Warburton",2006,,Brill Academic Publishers,,530,0,English,183,,до 2011-01,"9004113851,9789004113855",,,,,,,,,OL9083979M,,0,,,,,,1,1,2426015,pdf,F8E714FE9295A789DAEC2598C1220580,,,D:\\!genesis\\library.nu\\f8\\_260395.f8e714fe9295a789daec2598c1220580.pdf,0,2000-01-01 01:00:00,2016-04-03 02:51:08,445000/f8e714fe9295a789daec2598c1220580-d.jpg,,
21739425,"Life in the World's Oceans: Diversity, Distribution, and Abundance",,,,Alasdair McIntyre,2010,1,Wiley-Blackwell,,383,0,English,,,до 2011-01,"1405192976,9781405192972",,,,,577.7,QH541.5.S3 L54 2010,,,OL24098813M,,0,,,,,,,1,27090517,pdf,F8BFF0E6F10E361523851E181D1C5207,,,D:\\!genesis\\library.nu\\f8\\_260275.f8bff0e6f10e361523851e181d1c5207.pdf,0,2000-01-01 01:00:00,2016-04-03 02:51:08,445000/f8bff0e6f10e361523851e181d1c5207-d.jpg,,
21739426,"Para que Vivas Mejor la Misa (coleccion CRECER, 4)",,,,Victor Manuel Fernandez,2007,,San Pablo,,212,0,Spanish,,,до 2011-01,"9508617853,9789508617859",,,,,,,,,OL13000361M,,600,,,,,,1,1,1177854,djvu,F85A6C336510D0A473442CB7F1DF13FB,,,D:\\!genesis\\library.nu\\f8\\_260196.f85a6c336510d0a473442cb7f1df13fb.djvu,0,2000-01-01 01:00:00,2016-04-03 02:51:08,445000/f85a6c336510d0a473442cb7f1df13fb-d.jpg,,
21739427,Contract Theory in Historical Context,,Brill s Studies in Intellectual History 187,,Deborah Baumgold,2010,,Brill Academic Publishers,,209,0,English,64,,до 2011-01,"9004184252,9789004184251",,,,,320.1/1,JC336 .B38 2010,,,OL24050217M,,0,,,,,,,1,1679497,pdf,F8733540B5C2F266D0312E5C50E1F3AF,,,D:\\!genesis\\library.nu\\f8\\_260118.f8733540b5c2f266d0312e5c50e1f3af.pdf,0,2000-01-01 01:00:00,2016-04-03 02:51:08,445000/f8733540b5c2f266d0312e5c50e1f3af-d.jpg,,
21739428,The EU and Civil Society in the Georgia-Abkhazia Conflict,,,,Nicu Popescu,,,,,35,0,English,,,до 2011-01,,,,,,,,,,,,0,,,,,,,1,308365,pdf,F8F835264BA76E7DC655B73563356782,,,D:\\!genesis\\library.nu\\f8\\_259904.f8f835264ba76e7dc655b73563356782.pdf,0,2000-01-01 01:00:00,2016-04-03 02:51:08,445000/f8f835264ba76e7dc655b73563356782-g.jpg,,
21739429,Technical Guidance for screening contaminated Sediments,,,,"George E. Pataki ,  John P. Cahill",,,,,45,0,English,210,,до 2011-01,,,,,,,,,,,,0,,,,,,1,1,161153,pdf,F82A4E58E6D6B1F65D0A32007C7BA055,,,D:\\!genesis\\library.nu\\f8\\_259819.f82a4e58e6d6b1f65d0a32007c7ba055.pdf,0,2000-01-01 01:00:00,2016-04-03 02:51:08,445000/f82a4e58e6d6b1f65d0a32007c7ba055-g.jpg,,
21739430,Deleuze and Language,,"Language, Discourse, Society",,Jean-Jacques Lecercle,2002,,Palgrave Macmillan,,284,0,English,314,,до 2011-01,"1403900361,9781403900364",,,,,401,P85.D45 L43 2002,,,OL3560795M,,0,,,,,,1,1,2198963,pdf,F830E09991497589BFDFC02F86D8BA65,,,D:\\!genesis\\library.nu\\f8\\_259675.f830e09991497589bfdfc02f86d8ba65.pdf,0,2000-01-01 01:00:00,2016-04-03 02:51:08,445000/f830e09991497589bfdfc02f86d8ba65-d.jpg,,
21739431,"Cardiac CT, PET and MR",,,,"Vasken Dilsizian, Gerald M Pohost",2006,1,Wiley-Blackwell,,264,0,English,159,,до 2011-01,"1405124474,9781405124478",,,,,616.1/0757,RC683.5.I42 C33 2006,,,OL3415755M,,0,,,,,,1,0,52860576,pdf,F88DFDFFF25F3F03DD037199310CAB3F,,,D:\\!genesis\\library.nu\\f8\\_259565.f88dfdfff25f3f03dd037199310cab3f.pdf,0,2000-01-01 01:00:00,2016-04-03 02:51:08,445000/f88dfdfff25f3f03dd037199310cab3f-d.jpg,,
21739432,A Grammar of Mapuche (Mouton Grammar Library),,,,"Smeets, Ineke",2008,1,Walter de Gruyter,,587,0,English,314,,до 2011-01,"3110195585,9783110195583",,,,,498/.72,PM5463 .S64 2008,,,OL16515679M,,0,,,,,,,1,2266441,pdf,F82303C07F176AEEF37135D4AECFC0D6,,,D:\\!genesis\\library.nu\\f8\\_259241.f82303c07f176aeef37135d4aecfc0d6.pdf,0,2000-01-01 01:00:00,2016-04-03 02:51:08,445000/f82303c07f176aeef37135d4aecfc0d6-d.jpg,,
21739433,Нелинейная теория крыла и ее приложения,,,,"Т.О.Аубакиров, С.М.Белоцерковский, А.И.Желанников, М.И.Ништ",1997,,Гылым; Алматы,,449,0,Russian,,,до 2011-01,5628020605,,,,,,,,,,,0,,,,,,,1,8638413,djvu,F88AAA6C0EC095EA775F8328A128BD23,,,D:\\!genesis\\library.nu\\f8\\_259105.f88aaa6c0ec095ea775f8328a128bd23.djvu,0,2000-01-01 01:00:00,2016-04-03 02:51:08,445000/f88aaa6c0ec095ea775f8328a128bd23-g.jpg,,
21739434,Estado Nacional y conformacion de una alianza dominante en la Argentina agroexportadora,,,,Graciela Inda,2006,,Libronauta,,209,0,Spanish,,,до 2011-01,9879499220,,,,,,,,,,,0,,,,,,1,1,1074711,pdf,F8799A82729D0696E053DEFCB8C1BD58,,,D:\\!genesis\\library.nu\\f8\\_258638.f8799a82729d0696e053defcb8c1bd58.pdf,0,2000-01-01 01:00:00,2016-04-03 02:51:08,445000/f8799a82729d0696e053defcb8c1bd58-g.jpg,,
21739435,Southeast Asia: Patterns of security cooperation,,,,Carl Thayer,,,,,76,0,English,,,до 2011-01,,,,,,,,,,,,0,,,,,,,1,1194477,pdf,F855068DECFF1428D82BD226D1F39A14,,,D:\\!genesis\\library.nu\\f8\\_257884.f855068decff1428d82bd226d1f39a14.pdf,0,2000-01-01 01:00:00,2016-04-03 02:51:08,445000/f855068decff1428d82bd226d1f39a14-g.jpg,,
21739436,Rescuing Rose,,,,Isabel Wolff,2004,,Red Dress Ink,,448,0,English,,,до 2011-01,"0373250487,9780373250486",,,,,823/.914,PR6073.O355 R47 2004,,,OL3326182M,,0,,,,,,,,451847,lit,F8F638D6C3BF656AB4012B8D17201196,,,D:\\!genesis\\library.nu\\f8\\_257229.f8f638d6c3bf656ab4012b8d17201196.lit,0,2000-01-01 01:00:00,2016-04-03 02:51:08,445000/f8f638d6c3bf656ab4012b8d17201196-d.jpg,,
21739437,Explaining Christian Origins and Early Judaism: Contributions from Cognitive and Social Science (Biblical Interpretation Series),,Biblical Interpretation Series,,"Petri Luomanen, Ilkka Pyysiainen, Risto Uro",2007,,Brill Academic Publishers,,337,0,English,181,,до 2011-01,"9004163298,9789004163294",,,,,,,,,OL12799379M,,0,,,,,,,1,4605136,pdf,F87CC103143400AADC19363A15D6235B,,,D:\\!genesis\\library.nu\\f8\\_256524.f87cc103143400aadc19363a15d6235b.pdf,0,2000-01-01 01:00:00,2016-04-03 02:51:08,445000/f87cc103143400aadc19363a15d6235b-d.jpg,,
21739438,The Alzheimer's Project: Momentum in Science,,,,"John Hoffman, Susan Froemke",2009,1,PublicAffairs,,224,0,English,,,до 2011-01,9781586487560,,,,,616.8/31,RC523 .H64 2009,,,OL23186477M,,0,,,,,,,1,7727410,pdf,F80BEF1CC7665DC17087AD5C268498D1,,,D:\\!genesis\\library.nu\\f8\\_256443.f80bef1cc7665dc17087ad5c268498d1.pdf,0,2000-01-01 01:00:00,2016-04-03 02:51:08,445000/f80bef1cc7665dc17087ad5c268498d1-d.jpg,,
21739439,Bloodstream,,,,Tess Gerritsen,1999,,Pocket,,,0,English,,,до 2011-01,,,,,,,,,,,,0,,,,,,,1,356898,lit,F8200BF53E8F9C812040BF54C4DB4490,,,D:\\!genesis\\library.nu\\f8\\_256154.f8200bf53e8f9c812040bf54c4db4490.lit,0,2000-01-01 01:00:00,2016-04-03 02:51:08,445000/F8200BF53E8F9C812040BF54C4DB4490-g.jpg,,
21739440,Operations Strategy in Action: A Guide to the Theory and Practice of Implementation,,,,"Kim Hua Tan, Rupert L. Matthews",2009,,Edward Elgar Pub,,223,0,English,,,до 2011-01,"1847207774,9781847207777",,,,,658.4012,HD30.28 .T358 2009,,,OL23977931M,,0,,,,,,1,1,1467206,pdf,F8880C4349B58F3E7B70E342E20B7679,,,D:\\!genesis\\library.nu\\f8\\_256083.f8880c4349b58f3e7b70e342e20b7679.pdf,0,2000-01-01 01:00:00,2016-04-03 02:51:08,445000/f8880c4349b58f3e7b70e342e20b7679-d.jpg,,
21739441,"New Perspectives on Crime and Criminal Justice: Special Issue (Studies in Law, Politics and Society) (Studies in Law, Politics, and Society)",,,,Austin Sarat,2009,Special,Emerald Group Publishing Limited,,248,0,English,183,,до 2011-01,"1848556527,9781848556522",,,,,,,,,,,0,,,,,,,1,1348345,pdf,F82571F71807739837ED4AE1F88CBAA3,,,D:\\!genesis\\library.nu\\f8\\_256073.f82571f71807739837ed4ae1f88cbaa3.pdf,0,2000-01-01 01:00:00,2016-04-03 02:51:08,445000/f82571f71807739837ed4ae1f88cbaa3-d.jpg,,
21739442,Otmica,,,,Mark Gimenez,,,,,420,0,Croatian,,,до 2011-01,,,,,,,,,,,,0,,,,,,,1,1759141,pdf,F8611A9EA8968ECC24B30DE4EB2E6362,,,D:/!genesis/library.nu/f8/_256066.f8611a9ea8968ecc24b30de4eb2e6362.pdf,0,2000-01-01 01:00:00,2016-04-03 02:51:08,445000/f8611a9ea8968ecc24b30de4eb2e6362-g.jpg,,
21739443,"Guide to Patterns and Usage in English, 2nd Edition",,,,Albert Sydney Hornby,1975,2nd Revised,Oxford University Press,,128,0,English,314,,до 2011-01,"0194313182,9780194313186",,,,,428/.2/4,PE1460 .H64 1975,,,OL5245578M,,0,,,,,,,1,23637560,pdf,F8C9D92A7401149FE1BF70055A188817,,,D:\\!genesis\\library.nu\\f8\\_255987.f8c9d92a7401149fe1bf70055a188817.pdf,0,2000-01-01 01:00:00,2016-04-03 02:51:08,445000/f8c9d92a7401149fe1bf70055a188817-g.jpg,,
21739444,Beyond the Shadows (The Night Angel Trilogy),,The Night Angel Trilogy,,Brent Weeks,2008,,Orbit,,553,0,English,,,до 2011-01,9780316040273,,,,,,,,,,,0,,,,,,,1,675442,epub,F87CC0F28D53664E2A10BBA4C1198BC3,,,D:\\!genesis\\library.nu\\f8\\_255445.f87cc0f28d53664e2a10bba4c1198bc3.epub,0,2000-01-01 01:00:00,2016-04-03 02:51:08,445000/F87CC0F28D53664E2A10BBA4C1198BC3-g.jpg,,
21739445,Pocket Supersex,,,,Tracey Cox,2004,,,,96,0,English,,,до 2011-01,0756605164,,,,,,,,,,,0,,,,,,1,0,22682682,pdf,F8EF1CD194968390894411A30980C0FF,,,D:\\!genesis\\library.nu\\f8\\_254666.f8ef1cd194968390894411a30980c0ff.pdf,0,2000-01-01 01:00:00,2016-04-03 02:51:08,445000/f8ef1cd194968390894411a30980c0ff-d.jpg,,
21739446,Pseudo-Differential Operators and Related Topics,,Operator Theory: Advances and Applications 164,,"Paolo Boggiatto, Luigi Rodino, Joachim Toft, Man Wah Wong",2006,1,Birkhäuser Basel,,246,0,English,142,,до 2011-01,"3764375132,9783764375133",,,,,515/.7242,QA329.7 .I58 2004,,,OL3431523M,,0,,,,,,1,1,1921366,pdf,F81E5EB7AD162E97E42A2D666E582000,,,D:\\!genesis\\library.nu\\f8\\_254362.f81e5eb7ad162e97e42a2d666e582000.pdf,0,2000-01-01 01:00:00,2016-04-03 02:51:08,445000/f81e5eb7ad162e97e42a2d666e582000-d.jpg,,
21739447,The Bar and Beverage Book,,,,"Costas Katsigris, Chris Thomas",2006,4,Wiley,,755,0,English,,,до 2011-01,"0471647993,9780471647997",,,,,641.8/74,TX950.7 .K37 2007,,,OL21095348M,,0,,,,,,1,1,18676814,pdf,F8B1FB4F532B96A666256DD4F06ED95F,,,D:\\!genesis\\library.nu\\f8\\_254316.f8b1fb4f532b96a666256dd4f06ed95f.pdf,0,2000-01-01 01:00:00,2016-04-03 02:51:08,445000/f8b1fb4f532b96a666256dd4f06ed95f-d.jpg,,
21739448,"Mobile Networks and Management: First International Conference, MONAMI 2009, Athens, Greece, October 13-14, 2009. Revised Selected Papers (Lecture Notes ... and Telecommunications Engineering)",,,,"Kostas Pentikousis, Oliver Blume, Ramon Aguero Calvo, Symeon Papavassiliou",2010,1st Edition.,Springer,,166,0,English,210,,до 2011-01,"364211816X,9783642118166",,,,,,,,,,,0,,,,,,1,1,2597378,pdf,F898A414CA076CCDF93B06065FCF4829,,,D:\\!genesis\\library.nu\\f8\\_254280.f898a414ca076ccdf93b06065fcf4829.pdf,0,2000-01-01 01:00:00,2016-04-03 02:51:08,445000/f898a414ca076ccdf93b06065fcf4829-d.jpg,,
21739449,Studies in Combinatorics (MAA Studies in Mathematics),,MAA Studies in Mathematics 17,,Gian-Carlo Rota,1979,,Mathematical Association of America,,273,0,English,183,,до 2011-01,"0883851172,9780883851173",,,,,,,,,OL8191803M,,0,,,,,,,1,3345335,djvu,F81C3F3D90C24A8531F2D033429F2E61,,,D:\\!genesis\\library.nu\\f8\\_254145.f81c3f3d90c24a8531f2d033429f2e61.djvu,0,2000-01-01 01:00:00,2016-04-03 02:51:08,445000/f81c3f3d90c24a8531f2d033429f2e61-d.jpg,,
21739450,Vertical Labyrinth: Individuation in Jungian Psychology (Studies in Jungian Psychology By Jungian Analysts),,Studies in Jungian psychology by Jungian analysts 20,,Aldo Carotenuto,1985,,Inner City Books,,161,0,English,183,,до 2011-01,"0919123198,9780919123199,0585121435,9780585121437",,,,,616.89/17/0926,RC509.8 .C3713 1985,,,OL2604532M,,0,,,,,,,1,672691,pdf,F82FFF708469D8B3CEAEBD9361559637,,,D:\\!genesis\\library.nu\\f8\\_253239.f82fff708469d8b3ceaebd9361559637.pdf,0,2000-01-01 01:00:00,2016-04-03 02:51:08,445000/f82fff708469d8b3ceaebd9361559637-d.jpg,,
21739451,Queste,,Septimus Heap 04,,Angie Sage,2009,,Katherine Tegen Books,,608,0,English,,,до 2011-01,"0060882077,9780060882075,9780061672088",,,,,,,,,OL18340441M,,0,,,,,1,,1,2646335,pdf,F822557046487E3BE138D86CFD94A74A,,,D:\\!genesis\\library.nu\\f8\\_25308.f822557046487e3be138d86cfd94a74a.pdf,0,2000-01-01 01:00:00,2016-04-03 02:51:08,445000/f822557046487e3be138d86cfd94a74a-d.jpg,,
21739452,Digital Communications,,,,John Proakis,2000,4,McGraw-Hill Science Engineering Math,,936,0,English,234,,до 2011-01,"0072321113,9780072321111",,,,,,,,,OL18159209M,,0,,,,,,,0,25608152,pdf,F86168BD6DB68FD25245BEE95530777D,,,D:\\!genesis\\library.nu\\f8\\_252881.f86168bd6db68fd25245bee95530777d.pdf,0,2000-01-01 01:00:00,2016-04-03 02:51:08,445000/f86168bd6db68fd25245bee95530777d-d.jpg,,
21739453,Depressionen. Erkennen und Behandeln,,(Beck Wissen),,Rainer Tolle,2000,,C.H. Beck,,113,0,German,,,до 2011-01,"3406447392,9783406447396",,,,,,,,,,,0,,,,,,1,1,513087,pdf,F895B31CCE8B0C19C88AA40F15D91B84,,,D:/!genesis/library.nu/f8/_252757.f895b31cce8b0c19c88aa40f15d91b84.pdf,0,2000-01-01 01:00:00,2016-04-03 02:51:08,445000/f895b31cce8b0c19c88aa40f15d91b84-d.jpg,,
21739454,hakin9 - 2004 - 1,,,,hakin9 team,2004,,hakin9.org,,84,0,French,64,,до 2011-01,,,,,,,,,,,,0,,,,,,,0,4682751,pdf,F800CB4FBC749092F59AD5DBDFFD69C8,,,D:\\!genesis\\library.nu\\f8\\_252032.f800cb4fbc749092f59ad5dbdffd69c8.pdf,0,2000-01-01 01:00:00,2016-04-03 02:51:08,446000/f800cb4fbc749092f59ad5dbdffd69c8-g.jpg,,
21739455,The View from the Helm: Leading the American University during an Era of Change,,,,James J. Duderstadt,2007,,University of Michigan Press,,416,0,English,,,до 2011-01,"978-0-472-11590-7,0-472-11590-1",,,,,,,,,,,0,,,,,,1,1,1162588,pdf,F8DE4D09F8F22074CEE190CC46533907,,,D:\\!genesis\\library.nu\\f8\\_251612.f8de4d09f8f22074cee190cc46533907.pdf,0,2000-01-01 01:00:00,2016-04-03 02:51:08,446000/f8de4d09f8f22074cee190cc46533907-g.jpg,,
21739456,An Introduction to Non-Classical Logic,,,,Graham Priest,2001,1,Cambridge University Press,,264,0,English,130,,до 2011-01,"052179434X,9780521794343,0521790980,9780521790987",,,,,,,,,OL7754089M,,300,,,,,,1,1,2511347,djvu,F87ABA28B49D654F25370AA6A220FD41,,,D:\\!genesis\\library.nu\\f8\\_251556.f87aba28b49d654f25370aa6a220fd41.djvu,0,2000-01-01 01:00:00,2016-04-03 02:51:08,446000/f87aba28b49d654f25370aa6a220fd41-d.jpg,,
21739457,Christianity: The First Two Thousand Years,,,,David L. Edwards,2001,,Continuum,,673,0,English,205,,до 2011-01,0-304-70469-5,,,,,,,,,,,0,,,,,,1,1,43801724,pdf,F8A2730FFCBC9AFCDCD593F9F4A4A9AB,,,D:\\!genesis\\library.nu\\f8\\_251503.f8a2730ffcbc9afcdcd593f9f4a4a9ab.pdf,0,2000-01-01 01:00:00,2016-04-03 02:51:08,446000/f8a2730ffcbc9afcdcd593f9f4a4a9ab-g.jpg,,
21739458,Measurement for the Social Sciences: The C-OAR-SE Method and Why It Must Replace Psychometrics,,,,John R. Rossiter (auth.),2011,1,Springer-Verlag New York,,169,0,English,189,,до 2011-01,"978-1-4419-7157-9,978-1-4419-7158-6",,,,,,,10.1007/978-1-4419-7158-6,,,,0,,,,,,1,1,1416904,pdf,F8CE998869929DE5F7072347958D2B8D,,,D:\\!genesis\\library.nu\\f8\\_251329.f8ce998869929de5f7072347958d2b8d.pdf,0,2000-01-01 01:00:00,2016-04-03 02:51:08,446000/f8ce998869929de5f7072347958d2b8d-g.jpg,,
21739459,Lohn der Angst.,,,,Georges Arnaud,1985,,Verlag Tribüne Berlin,,249,0,German,,,до 2011-01,,,,,,,,,,,,0,,,,,,,1,1802472,pdf,F88500C79CCB775DE883A31160F5AC91,,,D:\\!genesis\\library.nu\\f8\\_251234.f88500c79ccb775de883a31160f5ac91.pdf,0,2000-01-01 01:00:00,2016-04-03 02:51:08,446000/f88500c79ccb775de883a31160f5ac91-g.jpg,,
21739460,simplify Diat: Einfach besser essen und schlank bleiben,,,,Dagmar von Cramm,2010,,Campus Verlag,,248,0,German,,,до 2011-01,"3593390639,9783593390635",,,,,,,,,,,0,,,,,,1,1,6922025,pdf,F85C6CC6BD730621195153C116DAB166,,,D:\\!genesis\\library.nu\\f8\\_251160.f85c6cc6bd730621195153c116dab166.pdf,0,2000-01-01 01:00:00,2016-04-03 02:51:08,446000/f85c6cc6bd730621195153c116dab166-d.jpg,,
21739461,Canon EOS 500D: Das Kamerahandbuch,,,,"Holger Haarmeyer, Christian Westphalen",2009,,Galileo Press,,381,0,German,,,до 2011-01,"3836214555,9783836214551",,,,,,,,,,,0,,,,,,,1,32234651,pdf,F8458C975F3A844380AF295778E830BA,,,D:\\!genesis\\library.nu\\f8\\_251139.f8458c975f3a844380af295778e830ba.pdf,0,2000-01-01 01:00:00,2016-04-03 02:51:08,446000/f8458c975f3a844380af295778e830ba-g.jpg,,
21739462,"They Used to Call Us Witches: Chilean Exiles, Culture, and Feminism",,,,Julie Shayne,2010,,Lexington Books,,320,0,English,,,до 2011-01,"0739118498,9780739118498,9780739144138,0739118501,9780739118504",,,,,305.48/969140896883071133,HQ1236.5.C5 S53 2010,,,OL23833272M,,0,,,,,,,1,22174160,pdf,F88F446FEE728DECF70150E43301F96D,,,D:\\!genesis\\library.nu\\f8\\_250982.f88f446fee728decf70150e43301f96d.pdf,0,2000-01-01 01:00:00,2016-04-03 02:51:08,446000/f88f446fee728decf70150e43301f96d-d.jpg,,
21739463,Commentary on the Seven Catholic Epistles of Bede the Venerable,,Cistercian Studies,,Bede the Venerable; Dom David Hurst,1985,,Cistercian Publications,,282,0,English,,,до 2011-01,0-87907-882-0,,,,,,,,,,,600,,,,,,,1,5237774,pdf,F898BBB955D2980FC96D1496A81CD1F3,,,D:\\!genesis\\library.nu\\f8\\_250787.f898bbb955d2980fc96d1496a81cd1f3.pdf,0,2000-01-01 01:00:00,2016-04-03 02:51:08,446000/f898bbb955d2980fc96d1496a81cd1f3-g.jpg,,
21739464,"To Change the World: The Irony, Tragedy, and Possibility of Christianity in the Late Modern World",,,,James Davison Hunter,2010,,"Oxford University Press, USA",,369,0,English,205,,до 2011-01,978-0-19-973080-3,,,,,,,,,,,0,,,,,,1,1,4840998,pdf,F87824482504F3E5CA9194BE1468AA23,,,D:\\!genesis\\library.nu\\f8\\_250319.f87824482504f3e5ca9194be1468aa23.pdf,0,2000-01-01 01:00:00,2016-04-03 02:51:08,446000/f87824482504f3e5ca9194be1468aa23-g.jpg,,
21739465,"Statistics in Plain English, 2nd Edition",,,,Timothy C. Urdan,2005,,Psychology Press,,199,0,English,314,,до 2011-01,0-8058-5241-7,,,,,,,,,,,0,,,,,,,1,12352036,pdf,F84F372252B8253F223DBA12CF11138C,,,D:\\!genesis\\library.nu\\f8\\_250159.f84f372252b8253f223dba12cf11138c.pdf,0,2000-01-01 01:00:00,2016-04-03 02:51:08,446000/f84f372252b8253f223dba12cf11138c-g.jpg,,
21739466,Helping Working Families: The Earned Income Tax Credit,,,,"Saul D. Hoffman, Laurence S. Seidman",2002,,,,245,0,English,,,до 2011-01,"0880992549,9780880992541,9780585441559",,,,,,,,,OL9798918M,,0,,,,,1,,1,1535455,pdf,F8E436BA156063FAAF4E42255CB1191C,,,D:\\!genesis\\library.nu\\f8\\_23956.f8e436ba156063faaf4e42255cb1191c.pdf,0,2000-01-01 01:00:00,2016-04-03 02:51:08,446000/f8e436ba156063faaf4e42255cb1191c-d.jpg,,
21739467,Spatio-Temporal Image Processing: Theory and Scientific Applications (Lecture Notes in Computer Science),,,,Bernd Jahne,1993,1,,,208,0,English,69,,до 2011-01,"3540574182,9783540574187",,,,,551.47/00285/642,TA1637 .J36 1993,10.1007/3-540-57418-2,,OL1424395M,,0,,,,,1,,1,19350594,pdf,F86DF2B71A6207458967C2E455D4FB68,,,D:\\!genesis\\library.nu\\f8\\_23934.f86df2b71a6207458967c2e455d4fb68.pdf,0,2000-01-01 01:00:00,2016-04-03 02:51:08,446000/f86df2b71a6207458967c2e455d4fb68-d.jpg,,
21739468,A Dark and Hungry God Arises,,,,Stephen R. Donaldson,1993,First Edition,,,528,0,English,,,до 2011-01,"0553562606,9780553562606",,,,,,,,,OL22945984M,,0,,,,,1,,1,1647436,pdf,F8AF180F2881B1D40AB2A0DD4D10F97C,,,D:\\!genesis\\library.nu\\f8\\_23793.f8af180f2881b1d40ab2a0dd4d10f97c.pdf,0,2000-01-01 01:00:00,2016-04-03 02:51:08,446000/f8af180f2881b1d40ab2a0dd4d10f97c-d.jpg,,
21739469,Reasoning and Revision in Hybrid Representation Systems (Lecture Notes in Computer Science),,,,Bernhard Nebel,1990,1,,,282,0,English,69,,до 2011-01,"3540524436,9783540524434",,,,,006.3,Q335 .N43 1990,10.1007/BFb0016445,,OL1857451M,,0,,,,,1,,1,21436247,pdf,F84D4E0AEAD82AE455707FF4E5978E06,,,D:\\!genesis\\library.nu\\f8\\_23714.f84d4e0aead82ae455707ff4e5978e06.pdf,0,2000-01-01 01:00:00,2016-04-03 02:51:08,446000/f84d4e0aead82ae455707ff4e5978e06-d.jpg,,
21739470,Taking Psychology and Law into the Twenty-First Century (Perspectives in Law & Psychology),,,,James R.P. Ogloff,2002,1,,,438,0,English,198,,до 2011-01,"0306467607,9780306467608,9780306479441",,,,,,,,,OL17053332M,,0,,,,,1,,1,4304381,pdf,F8AD71486752E4D556D54F4BCE77C6A9,,,D:\\!genesis\\library.nu\\f8\\_23206.f8ad71486752e4d556d54f4bce77c6a9.pdf,0,2000-01-01 01:00:00,2016-04-03 02:51:08,446000/f8ad71486752e4d556d54f4bce77c6a9-d.jpg,,
21739471,Multi-Sensor Data Fusion: An Introduction,,,,H.B. Mitchell,2007,1,,,296,0,English,116,,до 2011-01,"3540714634,9783540714637",,,,,,,,,OL9063647M,,0,,,,,1,,1,5342633,pdf,F8BF352FE075C690B2C214B7CA94EF54,,,D:\\!genesis\\library.nu\\f8\\_22924.f8bf352fe075c690b2c214b7ca94ef54.pdf,0,2000-01-01 01:00:00,2016-04-03 02:51:08,446000/f8bf352fe075c690b2c214b7ca94ef54-d.jpg,,
21739472,"Biblia patristica: Index des citations et allusions bibliques dans la litterature patristique 4. Eusebe de Cesaree, Cyrille de Jerusalem, Epiphane de Salamine",,,,"J. Allenbach, A. Benoit, D.A. bertrand, A. Hanriot-Coustet, P. Maraval, A. Pautler, P. Prigent",,,,,165,0,French,,,до 2011-01,,,,,,,,,,,,0,,,,,,,0,4962508,pdf,F828843BF91623F9346569B83A1BF292,,,D:\\!genesis\\library.nu\\f8\\_219289.f828843bf91623f9346569b83a1bf292.pdf,0,2000-01-01 01:00:00,2016-04-03 02:51:08,446000/f828843bf91623f9346569b83a1bf292-g.jpg,,
21739473,CCSP: Secure PIX and Secure VPN Study Guide (642-521 and 642-511),,,,"Wade Edwards, Tom Lancaster, Eric Quinn, Jason Rohm, Bryant Tow, Wade Edwards , Tom Lancaster",,,,,571,0,English,183,,до 2011-01,0-7821-4287-7,,,,,,,,,,,0,,,,,,,1,11780078,pdf,F8803B624B50A93BD760D921B3D0FF49,,,D:\\!genesis\\library.nu\\f8\\_218875.f8803b624b50a93bd760d921b3d0ff49.pdf,0,2000-01-01 01:00:00,2016-04-03 02:51:08,446000/f8803b624b50a93bd760d921b3d0ff49-g.jpg,,
21739474,The Strength of a Nation - Six Years of Australians Fighting for the Nation and Defending the Homefront in WWII,,,,Michael McKernan,,,,,528,0,English,,,до 2011-01,,,,,,,,,,,,0,,,,,,1,1,2277765,pdf,F816C94485BB13C45CA62E7E0207A6CF,,,D:\\!genesis\\library.nu\\f8\\_218348.f816c94485bb13c45ca62e7e0207a6cf.pdf,0,2000-01-01 01:00:00,2016-04-03 02:51:08,446000/f816c94485bb13c45ca62e7e0207a6cf-g.jpg,,
21739475,Potato: A History of the Propitious Esculent,,,,John Reader,,,,,332,0,English,64,,до 2011-01,978-0-300-14109-2,,,,,,,,,,,0,,,,,,1,1,2564191,pdf,F8B52E4910FC82C4EA84F5F1D9DF796C,,,D:\\!genesis\\library.nu\\f8\\_218230.f8b52e4910fc82c4ea84f5f1d9df796c.pdf,0,2000-01-01 01:00:00,2016-04-03 02:51:08,446000/f8b52e4910fc82c4ea84f5f1d9df796c-g.jpg,,
21739476,The Encyclopedia of Sexually Transmitted Diseases (Facts on File Library of Health and Living),,,,"Jennifer, M.D. Shoquist, Diane Stafford",,,,,353,0,English,150,,до 2011-01,0-8160-4881-9,,,,,,,,,,,0,,,,,,1,1,1382204,pdf,F8F213B2850EF96664C033F447C89AAA,,,D:\\!genesis\\library.nu\\f8\\_218067.f8f213b2850ef96664c033f447c89aaa.pdf,0,2000-01-01 01:00:00,2016-04-03 02:51:08,446000/f8f213b2850ef96664c033f447c89aaa-g.jpg,,
21739477,Building Conflict Competent Teams (J-B CCL (Center for Creative Leadership)),,,,"Craig E. Runde, Tim A. Flanagan",,,,,254,0,English,137,,до 2011-01,978-0-470-18947-4,,,,,,,,,,,0,,,,,,,1,1132747,pdf,F803719EA4477DD0AD5948112F84372B,,,D:\\!genesis\\library.nu\\f8\\_217749.f803719ea4477dd0ad5948112f84372b.pdf,0,2000-01-01 01:00:00,2016-04-03 02:51:08,446000/f803719ea4477dd0ad5948112f84372b-g.jpg,,
21739478,States of Injury: Power and Freedom in Late Modernity,,,,Wendy Brown,1995,,Princeton University Press,,203,0,English,,,до 2011-01,"069102989X,9780691029894,0691029903,9780691029900",,,,,303.3,JA74 .B724 1995,,,OL1099305M,,0,,,,,,,0,2884301,pdf,F818D472B5BEB192C5D817FDE36C361D,,,D:\\!genesis\\library.nu\\f8\\_217455.f818d472b5beb192c5d817fde36c361d.pdf,0,2000-01-01 01:00:00,2016-04-03 02:51:08,446000/f818d472b5beb192c5d817fde36c361d-d.gif,,
21739479,The Sacred and Profane Love Machine (Penguin Books),,,,Iris Murdoch,1984,,,,368,0,English,210,,до 2011-01,"0140041117,9780140041118",,,,,823/.9/14,"PZ4.M974 Sac 1976,PR6063.U7 Sac 1976",,,OL4608124M,,0,,,,,,,,329111,epub,F849F58616CA95BE64FA23EB52A98001,,,D:\\!genesis\\library.nu\\f8\\_216894.f849f58616ca95be64fa23eb52a98001.epub,0,2000-01-01 01:00:00,2016-04-03 02:51:08,446000/f849f58616ca95be64fa23eb52a98001-d.jpg,,
21739480,"Double Trouble: Black Mayors, Black Communities, and the Call for a Deep Democracy (Transgressing Boundaries: Studies in Black Politics and Black Communities)",,,,J. Phillip Thompson III,2005,,,,360,0,English,183,,до 2011-01,"9780195177336,0195177339",,B003Q9B4Z2,,,352.23/216/08996073,E185.615 .T554 2005,,,OL22721090M,,0,,,,,,1,1,1728007,pdf,F832ECFD3400C690CC974C23D620A21E,,,D:\\!genesis\\library.nu\\f8\\_216676.f832ecfd3400c690cc974c23d620a21e.pdf,0,2000-01-01 01:00:00,2016-04-03 02:51:08,446000/f832ecfd3400c690cc974c23d620a21e-d.jpg,,
21739481,Biochemistry (Sixth edition),,,,"Mary K. Campbell, Shawn O. Farrell",2007,6,,,832,0,English,296,,до 2011-01,"0495390410,9780495390411",,,,,,,,,OL23143731M,,0,,,,,,1,1,33207174,pdf,F889C08A6AA7991FF41066D0F211F775,,,D:\\!genesis\\library.nu\\f8\\_216351.f889c08a6aa7991ff41066d0f211f775.pdf,0,2000-01-01 01:00:00,2016-04-03 02:51:08,446000/f889c08a6aa7991ff41066d0f211f775-d.jpg,,
21739482,Middle School General Music: The Best Part of Your Day,,,,Elizabeth Ann McAnally,2010,,,,110,0,English,62,,до 2011-01,"1607093138,9781607093138,9781607093152",,,,,780.71/2,MT10 .M382 2009,,,OL23677907M,,0,,,,,,1,1,588032,pdf,F81BDF88D8638D67A4367094C4B083A6,,,D:\\!genesis\\library.nu\\f8\\_215916.f81bdf88d8638d67a4367094c4b083a6.pdf,0,2000-01-01 01:00:00,2016-04-03 02:51:08,446000/f81bdf88d8638d67a4367094c4b083a6-d.jpg,,
21739483,Top 10 Paris (Eyewitness Top 10 Travel Guides),,Eyewitness Top 10 Travel Guides,,"Mike Gerrard, Donna Dailey",2010,1 Pap/Map,Dorling Kindersley Publishing,,194,0,English,35,,до 2011-01,"0756660629,9780756660628",,,,,,,,,,,0,,,,,,1,1,14003549,pdf,F8EF9408AC21ACE00F25EB8E62176B73,,,D:\\!genesis\\library.nu\\f8\\_215890.f8ef9408ac21ace00f25eb8e62176b73.pdf,0,2000-01-01 01:00:00,2016-04-03 02:51:08,446000/f8ef9408ac21ace00f25eb8e62176b73-d.jpg,,
21739484,Miniature Schnauzers Are the Best! (The Best Dogs Ever),,,,Elaine Landau,2010,,,,32,0,English,,,до 2011-01,"158013565X,9781580135658,9780761359722",,,,,636.755,SF429.M58 L36 2010,,,OL23207966M,,0,,,,,,,1,11319482,pdf,F89D8C6B20C670E2E328E076692C075C,,,D:\\!genesis\\library.nu\\f8\\_215814.f89d8c6b20c670e2e328e076692c075c.pdf,0,2000-01-01 01:00:00,2016-04-03 02:51:08,446000/f89d8c6b20c670e2e328e076692c075c-d.jpg,,
21739485,The Balkan Wars,,,,"Valery Kolev, Christina Koulouri (eds)",,,,,129,0,English,,,до 2011-01,"9608685753,9789608896376",,,,,,,,,OL23393649M,,0,,,,,,1,1,8211763,pdf,F86ED01E583D46FCA15F948BDB2C4A0A,,,D:\\!genesis\\library.nu\\f8\\_215519.f86ed01e583d46fca15f948bdb2c4a0a.pdf,0,2000-01-01 01:00:00,2016-04-03 02:51:08,446000/f86ed01e583d46fca15f948bdb2c4a0a-g.jpg,,
21739486,From Complexity to Life: On The Emergence of Life and Meaning,,,,Niels Henrik Gregersen,2002,,,,256,0,English,137,,до 2011-01,"9780195150704,9780195186369,0195150708",,,,,,,,,OL17060706M,,0,,,,,1,1,1,1966182,pdf,F87E23AF6393E419541AF9264985EB17,,,D:\\!genesis\\library.nu\\f8\\_21523.f87e23af6393e419541af9264985eb17.pdf,0,2000-01-01 01:00:00,2016-04-03 02:51:08,446000/f87e23af6393e419541af9264985eb17-d.jpg,,
21739487,Textual Promiscuities: Eighteenth-Century Critical Rewriting,,,,Antoinette Marie Sol,2002,,,,243,0,English,196,,до 2011-01,"0838755003,9780838755006,9780585439341",,,,,843/.6,PQ1993.L22 L69 2002,,,OL3947819M,,0,,,,,,1,1,1521635,pdf,F8CF1B5921435149B38758254ADE0591,,,D:\\!genesis\\library.nu\\f8\\_214723.f8cf1b5921435149b38758254ade0591.pdf,0,2000-01-01 01:00:00,2016-04-03 02:51:08,446000/f8cf1b5921435149b38758254ade0591-g.jpg,,
21739488,"Dictionnaire Etymologique De La Langue Grecque, Histoire Des Mots (4 Parts in 5 Vols.)",,,,Pierre Chantraine,1968,,,,1387,0,French,322,,до 2011-01,,,B001NQJH36,,,,,,,,,0,,,,,,1,0,74108426,djvu,F82758BF3A9CFBE36CA1E333D722617E,40382dff16a83b7b724d8f490aa58c31,no,D:\\!genesis\\library.nu\\f8\\_214567.f82758bf3a9cfbe36ca1e333d722617e.djvu,0,2000-01-01 01:00:00,2016-04-03 02:51:08,446000/f82758bf3a9cfbe36ca1e333d722617e-g.jpg,,
21739489,Fluid Resuscitation: State of the Science for Treating Combat Casualties and Civilian Injuries,,,,"Committee on Fluid Resuscitation for Combat Casualties, Institute of Medicine",1999,1,,,208,0,English,181,,до 2011-01,"9780309064811,9780585084947,0309064813",,,,,,,,,OL10358045M,,0,,,,,,,1,3780208,pdf,F8526C2A047AA0E6507C0849BA2E80AE,,,D:\\!genesis\\library.nu\\f8\\_214556.f8526c2a047aa0e6507c0849ba2e80ae.pdf,0,2000-01-01 01:00:00,2016-04-03 02:51:08,446000/f8526c2a047aa0e6507c0849ba2e80ae-d.jpg,,
21739490,Introduction to Pharmacology,,,,Mannfred A. Hollinger,2002,2,,,432,0,English,173,,до 2011-01,"0415280338,9780415280334",,,,,615/.1,RM300 .H65 2003,,,OL3569673M,,0,,,,,,,1,6444110,pdf,F893807083A95A79E46D2E55EC203341,,,D:\\!genesis\\library.nu\\f8\\_214269.f893807083a95a79e46d2e55ec203341.pdf,0,2000-01-01 01:00:00,2016-04-03 02:51:08,446000/f893807083a95a79e46d2e55ec203341-d.jpg,,
21739491,Living Donor Kidney Transplantation,,,,"Jonas Wadstrom, Robert Gaston",2005,1,,,208,0,English,,,до 2011-01,"1841843164,9781841843162,9781435626751",,,,,617.4610592,RD575 .L59 2005,,,OL12571165M,,0,,,,,,,1,1754975,pdf,F8C37E73B299065A43719AF68C6B4072,,,D:\\!genesis\\library.nu\\f8\\_214199.f8c37e73b299065a43719af68c6b4072.pdf,0,2000-01-01 01:00:00,2016-04-03 02:51:08,446000/f8c37e73b299065a43719af68c6b4072-d.jpg,,
21739492,Dead Sea,,,,Brian Keene,2007,,,,337,0,English,,,до 2011-01,"084395860X,9780843958607",,,,,,,,,OL20751839M,,0,,,,,,,,249052,epub,F84918084CD47264E7F5C4174D108C56,,,D:\\!genesis\\library.nu\\f8\\_213305.f84918084cd47264e7f5c4174d108c56.epub,0,2000-01-01 01:00:00,2016-04-03 02:51:08,446000/f84918084cd47264e7f5c4174d108c56-d.jpg,,
21739493,China's Economy,,,,"Wu Li, Sui Fumin",2010,1st,,,148,0,English,,,до 2011-01,"9814319740,9789814319744",,,,,,,,,,,0,,,,,,1,1,5837703,pdf,F84E8D4F0EE09F89238EF5D1A466FEE3,,,D:\\!genesis\\library.nu\\f8\\_212939.f84e8d4f0ee09f89238ef5d1a466fee3.pdf,0,2000-01-01 01:00:00,2016-04-03 02:51:08,446000/f84e8d4f0ee09f89238ef5d1a466fee3-d.jpg,,
21739494,Algorithm-Architecture Matching for Signal and Image Processing: Best papers from Design and Architectures for Signal and Image Processing 2007 & 2008 & 2009,,Lecture Notes in Electrical Engineering 73,,"Xiaolin Chen, Nishan Canagarajah, Jose L. Nunez-Yanez (auth.), Guy Gogniat, Dragomir Milojevic, Adam Morawiec, Ahmet Erdogan (eds.)",2011,1,Springer Netherlands,,296,0,English,210,,до 2011-01,"9048199646,9789048199648",,,,,,,10.1007/978-90-481-9965-5,,,,0,,,,,,1,1,7725516,pdf,F85EEE3EFC2DE821288EC6801ECED0F4,,,D:\\!genesis\\library.nu\\f8\\_212929.f85eee3efc2de821288ec6801eced0f4.pdf,0,2000-01-01 01:00:00,2016-04-03 02:51:08,446000/f85eee3efc2de821288ec6801eced0f4-d.jpg,,
21739495,Vergottlichung - Das Ziel des Menschenlebens,,,,Archimandrit Georgios,,,,,91,0,German,,,до 2011-01,9789607553287,,,,,,,,,,,0,,,,,,,1,406267,pdf,F8D41BFF354512BAD810D84D7284A283,,,D:\\!genesis\\library.nu\\f8\\_212785.f8d41bff354512bad810d84d7284a283.pdf,0,2000-01-01 01:00:00,2016-04-03 02:51:08,446000/f8d41bff354512bad810d84d7284a283-g.jpg,,
21739496,The Ends of War (Social Text),,,,"Randy Martin, Rosalind C.Morris, Gilberto  Rosas, Leerom  Medovoi, Kennan Ferguson, Jonathan MichaelFeldman, Ashley Dawson, Jean Franco",2007,,,,188,0,English,67,,до 2011-01,"0822366797,9780822366799",,,,,,,10.1215/01642472-2006-023,,OL11422669M,,0,,,,,,,1,1347683,pdf,F828D14D08ADA4FB9A66A899C564311D,,,D:\\!genesis\\library.nu\\f8\\_212639.f828d14d08ada4fb9a66a899c564311d.pdf,0,2000-01-01 01:00:00,2016-04-03 02:51:08,446000/f828d14d08ada4fb9a66a899c564311d-d.jpg,,
21739497,"Deutsche Geschichte, Bd.7 - Vom Deutschen Reich zum Deutschen Bund",,,,Karl Otmar Freiherr von Aretin,1993,,,,221,0,German,64,,до 2011-01,"3525335830,9783525335833",,,,,,,,,OL15270837M,,0,,,,,,,1,1289436,pdf,F8125A77CF14FFC4F479B498599EB5A6,,,D:\\!genesis\\library.nu\\f8\\_212553.f8125a77cf14ffc4f479b498599eb5a6.pdf,0,2000-01-01 01:00:00,2016-04-03 02:51:08,446000/f8125a77cf14ffc4f479b498599eb5a6-d.jpg,,
21739498,Serving Their Country: American Indian Politics and Patriotism in the Twentieth Century,,,,Paul C. Rosier,2009,1,,,368,0,English,192,,до 2011-01,"0674036107,9780674036109",,,,,323.1197,E98.T77 R67 2009,,,OL23235429M,,0,,,,,,1,1,1062185,pdf,F8B9F70E6B60B5FB3F332426903CF3F4,,,D:\\!genesis\\library.nu\\f8\\_212301.f8b9f70e6b60b5fb3f332426903cf3f4.pdf,0,2000-01-01 01:00:00,2016-04-03 02:51:08,446000/f8b9f70e6b60b5fb3f332426903cf3f4-d.jpg,,
21739499,"Oxford Handbook of Respiratory Medicine, 2nd edition (Oxford Handbooks Series)",,,,"Stephen Chapman, Grace Robinson, John Stradling, Sophie West",2009,2nd,,,880,0,English,183,,до 2011-01,"0199545162,9780199545162",,,,,,,,,OL24539869M,,0,,,,,,,,20295068,chm,F8148D4C37FBE1F162E849BDC5A3ECBF,,,D:\\!genesis\\library.nu\\f8\\_212272.f8148d4c37fbe1f162e849bdc5a3ecbf.chm,0,2000-01-01 01:00:00,2016-04-03 02:51:08,446000/f8148d4c37fbe1f162e849bdc5a3ecbf-d.jpg,,
21739500,Fossils (Science Matters),,,,Megan Lappi,2004,,,,24,0,English,181,,до 2011-01,"1590362136,9781590362136,9781605969732,1605969737,1605969753,9781605969756",,,,,560,QE714.5 .L3572 2010,,,OL23980799M,,0,,,,,,1,1,6861698,pdf,F82F2FF9A9B74C89A3B5D89E7C7E16C7,,,D:\\!genesis\\library.nu\\f8\\_212127.f82f2ff9a9b74c89a3b5d89e7c7e16c7.pdf,0,2000-01-01 01:00:00,2016-04-03 02:51:08,446000/f82f2ff9a9b74c89a3b5d89e7c7e16c7-g.jpg,,
21739501,Mangrove Dynamics and Management in North Brazil,,Ecological Studies 211,,"U. Saint-Paul, H. Schneider (auth.), Ulrich Saint-Paul, Horacio Schneider (eds.)",2010,1,Springer-Verlag Berlin Heidelberg,,402,0,English,183,,до 2011-01,"9783642134579,3642134564,9783642134562",,,,,,,10.1007/978-3-642-13457-9,,,,0,,,,,,,1,9446625,pdf,F8DC04CF59E8E29DBAD8115FF06F30C8,,,D:\\!genesis\\library.nu\\f8\\_212013.f8dc04cf59e8e29dbad8115ff06f30c8.pdf,0,2000-01-01 01:00:00,2016-04-03 02:51:08,446000/f8dc04cf59e8e29dbad8115ff06f30c8-d.jpg,,
21739502,Hangman: A Decker Lazarus Novel,,,,Faye Kellerman,2010,1,,,432,0,English,,,до 2011-01,"0061702560,0061979325,0061702617,9780061702617,9780061979323,9780061702563",,B003SE769I,,,,,,,,,0,,,,,,,,520494,epub,F893B3A383996C58809C051E9A4D381F,,,D:\\!genesis\\library.nu\\f8\\_211742.f893b3a383996c58809c051e9a4d381f.epub,0,2000-01-01 01:00:00,2016-04-03 02:51:08,446000/f893b3a383996c58809c051e9a4d381f-d.jpg,,
21739503,Narrative Impact: Social and Cognitive Foundations,,,,"Melanie C. Green, Jeffrey J. Strange, Timothy C. Brock",2002,1 edition,,,400,0,English,189,,до 2011-01,"080583124X,9780805831245,9781410606648",,,,,808,PN3383.N35 N37 2002,,,OL3568675M,,0,,,,,,,1,25288875,pdf,F8D0CB0DF888EF8E5B78EADC17B37377,,,D:\\!genesis\\library.nu\\f8\\_211193.f8d0cb0df888ef8e5b78eadc17b37377.pdf,0,2000-01-01 01:00:00,2016-04-03 02:51:08,446000/f8d0cb0df888ef8e5b78eadc17b37377-d.jpg,,
21739504,Photoshop-Basiswissen : Edition DOCMA / 20 Bilder drucken : [Fotos farbsicher im Tinten- und Offsetdruck ausgeben],,,,Hans D Baumann; Christoph Künne,2007,,Addison-Wesley,München,112,0,German,,usenet,to 2012-06,"9783827326041,3827326044",,,,,,,,,,,0,,,,,,,1,23496665,pdf,56534f59425ac550513678db10dc07c5,,,I:\\usenet_ger\\Photoshop - 20. Bilder drucken.pdf,0,2000-01-01 01:00:00,2016-04-03 02:51:08,884000/56534f59425ac550513678db10dc07c5-d.jpg,,
21739505,"Soundings in Atlantic History: Latent Structures and Intellectual Currents, 1500-1830",,,,"Bernard Bailyn, Patricia L. Denault, Stephen D. Behrendt, Linda Heywood, John Thornton, David Hancock, Wim Klooster, J. Gabriel MartA­nez-Serna, Rosalind Beiler, Jorge CaA±izares-Esguerra, Neil Safier, Londa Schiebinger, Mark A. Peterson, Beatriz DA?vilo, Emma Rothschild",2009,1,,,640,0,English,64,,до 2011-01,"0674032764,9780674032767",,,,,909/.09821,D210 .S68 2009,,,OL22842749M,,0,,,,,,1,1,2116771,pdf,F8A3AF3F391245AF3A055BCBE2249718,,,D:\\!genesis\\library.nu\\f8\\_210572.f8a3af3f391245af3a055bcbe2249718.pdf,0,2000-01-01 01:00:00,2016-04-03 02:51:08,446000/f8a3af3f391245af3a055bcbe2249718-d.jpg,,
21739506,Sports Data Mining,,Integrated Series in Information Systems 26,,"Robert P. Schumaker, Osama K. Solieman, Hsinchun Chen (auth.)",2010,1,Springer US,,138,0,English,116,,до 2011-01,"144196729X,9781441967299,9781441967305",,,,,,,10.1007/978-1-4419-6730-5,,,,0,,,,,,,1,2440754,pdf,F8FBE621270C929D1985873ADFF216C5,,,D:\\!genesis\\library.nu\\f8\\_210251.f8fbe621270c929d1985873adff216c5.pdf,0,2000-01-01 01:00:00,2016-04-03 02:51:08,446000/f8fbe621270c929d1985873adff216c5-d.jpg,,
21739507,Aksi massa,,,,Tan Malaka.,,,,,123,0,Indonesian,,,до 2011-01,"9789799588852,9799588855",,,,,,,,,,,0,,,,,,1,1,577154,pdf,F8BD61A50B435F79B7683CC803D5CCF8,,,D:\\!genesis\\library.nu\\f8\\_210248.f8bd61a50b435f79b7683cc803d5ccf8.pdf,0,2000-01-01 01:00:00,2016-04-03 02:51:08,446000/f8bd61a50b435f79b7683cc803d5ccf8-g.jpg,,
21739508,环境化学（第3版）,,,,何燧源、金云云、何方,,,,,415,0,Chinese,,,до 2011-01,"7562810354,9787562810353",,,,,,,,,,,0,,,,,,,1,15196208,pdf,F861F81005789060B1D18AB114F48FA9,,,D:\\!genesis\\library.nu\\f8\\_210219.f861f81005789060b1d18ab114f48fa9.pdf,0,2000-01-01 01:00:00,2016-04-03 02:51:08,446000/f861f81005789060b1d18ab114f48fa9-g.jpg,,
21739509,"Health Sciences Literature Review Made Easy: The Matrix Method, Third Edition",,,,Judith Garrard,2010,3,,,250,0,English,108,,до 2011-01,"0763771864,9780763771867,9781449618681",,,,,610.72,R118.6 .G37 2011,,,OL24013814M,,0,,,,,,1,1,1115629,pdf,F85A76B39BC7794927BD0136E045ADB8,,,D:\\!genesis\\library.nu\\f8\\_209957.f85a76b39bc7794927bd0136e045adb8.pdf,0,2000-01-01 01:00:00,2016-04-03 02:51:08,446000/f85a76b39bc7794927bd0136e045adb8-d.jpg,,
21739510,The Face of Old Testament Studies: A Survey of Contemporary Approaches,,,,"David W. Baker, Bill T. Arnold",1999,,,,512,0,English,183,,до 2011-01,"0801022150,9780801022159,0851117740,9780851117744,080102871X,9780801028717",,,,,,,,,OL7845469M,,0,,,,,,1,1,86137724,pdf,F822DF3F1689A275CD717679F4FAD93C,,,D:\\!genesis\\library.nu\\f8\\_209893.f822df3f1689a275cd717679f4fad93c.pdf,0,2000-01-01 01:00:00,2016-04-03 02:51:08,446000/f822df3f1689a275cd717679f4fad93c-d.jpg,,
21739511,Between Description and Interpretation: The Hermeneutic Turn in Phenomenology,,,,Andrzej Wiercinski (ed.),,,,,291,0,English,,,до 2011-01,"0952533359,9780952533351",,,,,,,,,,,0,,,,,,,1,1351179,pdf,F864620578D0B4C644DBC386825E21B9,,,D:\\!genesis\\library.nu\\f8\\_209718.f864620578d0b4c644dbc386825e21b9.pdf,0,2000-01-01 01:00:00,2016-04-03 02:51:08,446000/f864620578d0b4c644dbc386825e21b9-g.jpg,,
21739512,The 5-Minute Neurology Consult (The 5-Minute Consult Series),,,,"D. Joanne Lynn, Herbert B Newton, Alexander D Rae-Grant",2003,1,,,488,0,English,165,,до 2011-01,"9780683307238,0683307231",,,,,616.8,RC346 .L96 2004,,,OL17887663M,,0,,,,,,,,10985993,chm,F8358850BB044F5B0DA64BB27CEF8F69,,,D:\\!genesis\\library.nu\\f8\\_209634.f8358850bb044f5b0da64bb27cef8f69.chm,0,2000-01-01 01:00:00,2016-04-03 02:51:08,446000/f8358850bb044f5b0da64bb27cef8f69-d.gif,,
21739513,"The Taste of Germany,  Contemporary German Cuisine for All Seasons",,,,The German Agricultural Marketing Board  Contributors,2006,,The German Agricultural Marketing Board,,65,0,English,,,до 2011-01,,,R20090604F,,,,,,,,,0,,,,,,1,1,3832676,pdf,F8DE63448A9D1A3A777709AF190A3521,,,D:\\!genesis\\library.nu\\f8\\_209216.f8de63448a9d1a3a777709af190a3521.pdf,0,2000-01-01 01:00:00,2016-04-03 02:51:08,446000/f8de63448a9d1a3a777709af190a3521-g.jpg,,
21739514,Patentmanagement: Innovationen erfolgreich nutzen und schützen,,,,"Oliver Gassmann, Martin A. Bader",2006,"2., aktualisierte Aufl.",,Dordrecht,367,0,German,,,до 2011-01,"3540689729,9783540689720,9783540689737",,,,,,,,,,,0,,,,,,,1,5128607,pdf,F8B26BC8CC854D27264F9FA7CC0F807F,,,D:/!genesis/library.nu/f8/_209151.f8b26bc8cc854d27264f9fa7cc0f807f.pdf,0,2000-01-01 01:00:00,2016-04-03 02:51:08,446000/f8b26bc8cc854d27264f9fa7cc0f807f-d.jpg,,
21739515,"Sacrifice Your Love: Psychoanalysis, Historicism, Chaucer",,,,Louise Olga Fradenburg,2002,1,,,344,0,English,64,,до 2011-01,"0816636451,9780816636457",,,,,821/.1,PR1933.P679 F73 2002,,,OL3939498M,,0,,,,,,1,1,3233804,pdf,F85A84CB7F772C02C98EB6F8A5C12D48,,,D:\\!genesis\\library.nu\\f8\\_208671.f85a84cb7f772c02c98eb6f8a5c12d48.pdf,0,2000-01-01 01:00:00,2016-04-03 02:51:08,446000/f85a84cb7f772c02c98eb6f8a5c12d48-d.jpg,,
21739516,Journalism For Women,,,,Arnold Bennett,2004,,,,48,0,English,181,,до 2011-01,"1419127985,9781419127984",,,,,,,,,OL8471181M,,0,,,,,1,,1,385557,pdf,F8E7F1EFCDB5E4468F9D336BD2DE8F59,,,D:\\!genesis\\library.nu\\f8\\_20761.f8e7f1efcdb5e4468f9d336bd2de8f59.pdf,0,2000-01-01 01:00:00,2016-04-03 02:51:08,446000/f8e7f1efcdb5e4468f9d336bd2de8f59-d.jpg,,
21739517,Liturgia del quotidiano. Celebrazioni laiche di vita,,,,Stefano Sodaro,,,,,156,0,Italian,,,до 2011-01,"8890339489,9788890339486",,,,,,,,,,,0,,,,,,,1,949148,pdf,F828A6C9D60B5879F7DE18A75E08DFE6,,,D:\\!genesis\\library.nu\\f8\\_206735.f828a6c9d60b5879f7de18a75e08dfe6.pdf,0,2000-01-01 01:00:00,2016-04-03 02:51:08,446000/f828a6c9d60b5879f7de18a75e08dfe6-g.jpg,,
21739518,English for Professional and Academic Purposes. (Utrecht Studies in Language and Communication),,,,"Inmaculada Fortanet-Gomez, Juan C. Palmer-Silveira, Miguel F. Ruiz-Garrido",2010,,,,246,0,English,314,,до 2011-01,"9042029552,9789042029552,9789042029569",,,,,401.41,PE1422 .E55 2010,,,OL24525059M,,0,,,,,,1,1,3590101,pdf,F82DE7E27EC83F15DF2A52F72ED6A8C8,,,D:\\!genesis\\library.nu\\f8\\_206278.f82de7e27ec83f15df2a52f72ed6a8c8.pdf,0,2000-01-01 01:00:00,2016-04-03 02:51:08,446000/f82de7e27ec83f15df2a52f72ed6a8c8-d.jpg,,
21739519,Grammatik der deutschen Sprache. Bertelsmann Wörterbuch. Sprachsystem und Sprachgebrauch,,,,"Lutz Götze, Ernest W. B. Hess-Lüttich",1999,,Bertelsmann Lexikon Verlag,,702,0,German,,,до 2011-01,"3577104651,978-3-577-10465-4",,,,,,,,,,,0,,,,,,1,1,39338965,pdf,F86349570E760C26C2C095F4BF108D9B,,,D:/!genesis/library.nu/f8/_205754.f86349570e760c26c2c095f4bf108d9b.pdf,0,2000-01-01 01:00:00,2016-04-03 02:51:08,446000/f86349570e760c26c2c095f4bf108d9b-d.jpg,,
21739520,Das Konfessionelle Zeitalter: Europa zwischen Mittelalter und Moderne,,,,Harm Klueting,,,,,484,0,German,,,до 2011-01,"3896783378,9783896783370",,,,,,,,,OL16845970M,,0,,,,,,,1,6297985,pdf,F83F9F1ECEE722308789AA14D4FB63F4,,,D:\\!genesis\\library.nu\\f8\\_205536.f83f9f1ecee722308789aa14d4fb63f4.pdf,0,2000-01-01 01:00:00,2016-04-03 02:51:08,446000/f83f9f1ecee722308789aa14d4fb63f4-g.jpg,,
21739521,Muslim Societies and the Challenge of Secularization: An Interdisciplinary Approach,,Muslims in Global Societies Series 1,,"Gabriele Marranci (auth.), Gabriele Marranci (eds.)",2010,1,Springer Netherlands,,264,0,English,,,до 2011-01,"9048133610,9789048133628,9789048133611",,,,,322.1088297,BP190.5.S35 M875 2010,10.1007/978-90-481-3362-8,,OL24905922M,,0,,,,,,1,1,4032804,pdf,F87264336909B1421FE039C774D4FA01,,,D:\\!genesis\\library.nu\\f8\\_205524.f87264336909b1421fe039c774d4fa01.pdf,0,2000-01-01 01:00:00,2016-04-03 02:51:08,446000/f87264336909b1421fe039c774d4fa01-d.jpg,,
21739522,Billy the Kid (Legends of the Wild West),,,,Adam Woog,2010,1,,,104,0,English,,,до 2011-01,"1604135964,9781604135961,1438134487,9781438134482",,,,,"364.15/52092,B",F786.B54 W66 2010,,,OL24080897M,,0,,,,,,1,1,6914300,pdf,F856DFFAF8F25F75E0CBFBA2CE162D33,,,D:\\!genesis\\library.nu\\f8\\_205229.f856dffaf8f25f75e0cbfba2ce162d33.pdf,0,2000-01-01 01:00:00,2016-04-03 02:51:08,446000/f856dffaf8f25f75e0cbfba2ce162d33-d.jpg,,
21739523,"Advanced Internet Based Systems and Applications: Second International Conference on Signal-Image Technology and Internet-Based Systems, SITIS 2006, Hammamet, ... Applications, incl. Internet Web, and HCI)",,,,"Ernesto Damiani, Kokou Yetongnon, Richard Chbeir, Albert Dipanda",2009,1,,,381,0,English,137,,до 2011-01,"364201349X,9783642013492",,,,,,,,,,,0,,,,,,1,1,10220165,pdf,F88F84A5F8F86847D231F99C9BE0505F,,,D:\\!genesis\\library.nu\\f8\\_205063.f88f84a5f8f86847d231f99c9be0505f.pdf,0,2000-01-01 01:00:00,2016-04-03 02:51:08,446000/f88f84a5f8f86847d231f99c9be0505f-d.jpg,,
21739524,Planning and Budgeting for the Agile Enterprise: A driver-based budgeting toolkit,,,,Richard Barrett,2007,1,,,240,0,English,78,,до 2011-01,"0750683279,9780750683272,9780080547497",,,,,,,,,OL10809535M,,0,,,,,,,1,1841418,pdf,F819DD5597551F94B96DE858A65F2315,,,D:\\!genesis\\library.nu\\f8\\_204921.f819dd5597551f94b96de858a65f2315.pdf,0,2000-01-01 01:00:00,2016-04-03 02:51:08,446000/f819dd5597551f94b96de858a65f2315-d.jpg,,
21739525,Handbook of Parkinson's Disease 4th Edition (Neurological Disease and Therapy),,,,"Rajesh Pahwa (Editor), Kelly E. Lyons (Editor)",2007,4,,,520,0,English,165,,до 2011-01,"9780849376214,9781420019995,0849376211",,,,,616.8/33,RC382 .H36 2007,,,OL17847128M,,0,,,,,1,,1,7820139,pdf,F872CEA3D2ABF8E4428ECF081B5B00B6,,,D:\\!genesis\\library.nu\\f8\\_20425.f872cea3d2abf8e4428ecf081b5b00b6.pdf,0,2000-01-01 01:00:00,2016-04-03 02:51:08,446000/f872cea3d2abf8e4428ecf081b5b00b6-d.jpg,,
21739526,Alain L. Locke: The Biography of a Philosopher,,,,"Leonard Harris, Charles Molesworth",2008,1,,,448,0,English,18,,до 2011-01,"0226317765,9780226317762,0226317773,9780226317779,0226317803,9780226317809",,,,,191,E185.97.L79 H37 2009,,,OL16973337M,,0,,,,,,1,1,2914406,pdf,F8844C2B8876CDA349F9C39454514283,,,D:\\!genesis\\library.nu\\f8\\_204063.f8844c2b8876cda349f9c39454514283.pdf,0,2000-01-01 01:00:00,2016-04-03 02:51:08,446000/f8844c2b8876cda349f9c39454514283-d.jpg,,
21739527,"Tek Adam: Mustafa Kemal, 1922-1938 (Cilt 3)",,,,Sevket Sureyya Aydemir,,,,,268,0,Turkish,64,,до 2011-01,"9789751406729,9751406722",,,,,,,,,,,0,,,,,,,0,10318091,pdf,F8C4F019E61304BBF15FF904D5A5A8D4,,,D:\\!genesis\\library.nu\\f8\\_203644.f8c4f019e61304bbf15ff904d5a5a8d4.pdf,0,2000-01-01 01:00:00,2016-04-03 02:51:08,446000/f8c4f019e61304bbf15ff904d5a5a8d4-g.jpg,,
21739528,The world Market for crude cottonseed oil a 2005 global trade perspective,,,,Philip M. Parker,,,,,39,0,English,225,,до 2011-01,"9781417570829,1417570822",,,,,,,,,,,0,,,,,,1,1,551972,pdf,F8AA3F0E6F62BE3E6B59BDC87AE9A5C4,,,D:\\!genesis\\library.nu\\f8\\_203428.f8aa3f0e6f62be3e6b59bdc87ae9a5c4.pdf,0,2000-01-01 01:00:00,2016-04-03 02:51:08,446000/f8aa3f0e6f62be3e6b59bdc87ae9a5c4-g.jpg,,
21739529,Бабусина пригода. П'єса. Для дошкільного віку,,,,Олександр Олесь,1993,,Веселка,Київ,31,0,Ukrainian,,chytanka.com.ua,0,,,,,,,,,,,,0,,,,,,,0,11271535,djvu,efd52220d64129a046fa72cbdcbbd73a,,,babusyna-prygoda13122011,0,2000-01-01 01:00:00,2016-04-03 02:51:08,882000/efd52220d64129a046fa72cbdcbbd73a-g.jpg,,
21739530,Gluten-Free for a Healthy Life: Nutritional Advice and Recipes for Those Suffering from Celiac Disease and Other Gluten-Related Disorders,,,,Kimberly A. Tessmer,2003,1,,,192,0,English,150,,до 2011-01,"156414688X,9781564146885,9780585469843",,,,,,,,,OL8647020M,,0,,,,,,,1,1601764,pdf,F84E3ED5E652E7600DEDB21CC6E68B58,,,D:\\!genesis\\library.nu\\f8\\_203167.f84e3ed5e652e7600dedb21cc6e68b58.pdf,0,2000-01-01 01:00:00,2016-04-03 02:51:08,446000/f84e3ed5e652e7600dedb21cc6e68b58-d.jpg,,
21739531,"Goddesses, Whores, Wives, and Slaves: Women in Classical Antiquity",,,,Sarah Pomeroy,1995,,,,304,0,English,64,,до 2011-01,080521030X,,,,,305.42/0938,HQ1134 .P64 1995,,,OL834488M,,0,,,,,,,0,15847045,pdf,F8C1E78A31004EE5ACD58A3A2F040EDF,,,D:\\!genesis\\library.nu\\f8\\_203070.f8c1e78a31004ee5acd58a3a2f040edf.pdf,0,2000-01-01 01:00:00,2016-04-03 02:51:08,446000/f8c1e78a31004ee5acd58a3a2f040edf-d.jpg,,
21739532,Microwave Scattering and Emission Models for Users (Artech House Remote Sensing),,,,"Adrian K. Fung, K. S. Chen",2009,1 Har/Dvdr,,,430,0,English,250,,до 2011-01,"1608070379,9781608070374",,,,,,,,,,,0,,,,,,1,1,5065976,pdf,F875D4877770738C0FD4851D2F9B32A3,,,D:\\!genesis\\library.nu\\f8\\_202386.f875d4877770738c0fd4851d2f9b32a3.pdf,0,2000-01-01 01:00:00,2016-04-03 02:51:08,446000/f875d4877770738c0fd4851d2f9b32a3-d.jpg,,
21739533,"Language, Names, and Information (The Blackwell   Brown Lectures in Philosophy)",,,,Frank Jackson,2010,1,,,176,0,English,314,,до 2011-01,"1405161582,9781405161589",,,,,121/.68,P302 .J323 2010,,,OL24110098M,,0,,,,,,1,1,732898,pdf,F8A42710EE0CBAE0179B47A7D1659344,,,D:\\!genesis\\library.nu\\f8\\_201849.f8a42710ee0cbae0179b47a7d1659344.pdf,0,2000-01-01 01:00:00,2016-04-03 02:51:08,446000/f8a42710ee0cbae0179b47a7d1659344-d.jpg,,
21739534,"Reflexivity and Development Economics: Methodology, Policy and Practice",,,,Daniel Gay,2009,,,,224,0,English,305,,до 2011-01,"0230220169,9780230220164",,,,,338.9001,HC685 .G39 2009,,,OL23935861M,,0,,,,,,1,1,870122,pdf,F8E6A7A8C418BFB1190D365C9CB6C713,,,D:\\!genesis\\library.nu\\f8\\_201627.f8e6a7a8c418bfb1190d365c9cb6c713.pdf,0,2000-01-01 01:00:00,2016-04-03 02:51:08,446000/f8e6a7a8c418bfb1190d365c9cb6c713-d.jpg,,
21739535,Spellbinders: Hairy Tree Man Level 1,,,,Andrew Wright,1992,,,,24,0,English,,,до 2011-01,"0194242595,9780194242592",,,,,,,,,OL10129245M,,0,,,,,,,0,6959060,pdf,F86FCF1501148469D94ACE7AC5D36493,,,D:\\!genesis\\library.nu\\f8\\_201549.f86fcf1501148469d94ace7ac5d36493.pdf,0,2000-01-01 01:00:00,2016-04-03 02:51:08,446000/f86fcf1501148469d94ace7ac5d36493-d.jpg,,
21739536,"Canadian Family Law, 10th Edition",,,,Malcolm C. Kronby,2010,10,,,432,0,English,41,,до 2011-01,"0470736828,9780470736821,0470676396,9780470676394",,,,,,,,,,,0,,,,,,1,1,3448815,pdf,F88EB8A38552952BEF69BB868C63D138,,,D:\\!genesis\\library.nu\\f8\\_201096.f88eb8a38552952bef69bb868c63d138.pdf,0,2000-01-01 01:00:00,2016-04-03 02:51:08,446000/f88eb8a38552952bef69bb868c63d138-d.jpg,,
21739537,"Post Modern State and the World Order,  2nd Edition",,,,Robert Cooper,2000,2nd,,,55,0,English,,,до 2011-01,"9781841800103,1841800104",,,,,,,,,OL9347013M,,0,,,,,,,1,222264,pdf,F8F2BBAC4CF563F9B78AC57BED3601E8,,,D:\\!genesis\\library.nu\\f8\\_200718.f8f2bbac4cf563f9b78ac57bed3601e8.pdf,0,2000-01-01 01:00:00,2016-04-03 02:51:08,446000/f8f2bbac4cf563f9b78ac57bed3601e8-d.jpg,,
21739538,The Greek Atomists and Epicurus,,,,Cyril Bailey,1964,,,,619,0,English,,,до 2011-01,,,B0007DK1ZO,,,,,,,,,0,,,,,,,0,22238727,pdf,F84C00BAE5A734BD607D360CC5BAF96B,,,D:\\!genesis\\library.nu\\f8\\_200708.f84c00bae5a734bd607d360cc5baf96b.pdf,0,2000-01-01 01:00:00,2016-04-03 02:51:08,446000/f84c00bae5a734bd607d360cc5baf96b-g.jpg,,
21739539,"The Learning Region: Foundations, State of the Art, Future",,,,"Roel Rutten, Frans Boekema",2007,,,,301,0,English,183,,до 2011-01,"1843769387,9781843769385,9781847205537",,,,,330,HT388 .L4 2007,,,OL11906810M,,0,,,,,,1,1,1215544,pdf,F842EDB369FF5EC313EE9C496672A9C7,,,D:\\!genesis\\library.nu\\f8\\_200015.f842edb369ff5ec313ee9c496672a9c7.pdf,0,2000-01-01 01:00:00,2016-04-03 02:51:08,446000/f842edb369ff5ec313ee9c496672a9c7-d.jpg,,
21739540,Food Quality Assurance: Principles and Practices,,,,Inteaz Alli,2003,1,,,176,0,English,,,до 2011-01,"1566769302,9781566769303,0203484886,9780203484883,9780203617960",,,,,,,,,OL18204857M,,0,,,,,,1,1,2091078,pdf,F8BF8913C37802D49040865907FAC498,,,D:\\!genesis\\library.nu\\f8\\_199840.f8bf8913c37802d49040865907fac498.pdf,0,2000-01-01 01:00:00,2016-04-03 02:51:08,446000/f8bf8913c37802d49040865907fac498-d.jpg,,
21739541,Branching Morphogenesis (Molecular Biology Intelligence Unit),,,,Jamie Davies,2005,1,,,246,0,English,27,,до 2011-01,"0387256156,9780387256153,9781423735106",,,,,571.833,QH491.B72 2005,,,OL7444835M,,0,,,,,1,1,1,19094230,pdf,F89E77DBD5C8A9545F6842FD25520E7F,,,D:\\!genesis\\library.nu\\f8\\_19937.f89e77dbd5c8a9545f6842fd25520e7f.pdf,0,2000-01-01 01:00:00,2016-04-03 02:51:08,446000/f89e77dbd5c8a9545f6842fd25520e7f-d.jpg,,
21739542,Ni arte ni parte  Nothing To Do With Me  Humor-Comic   Spanish,,,,Quino,2010,,,,78,0,Spanish,,,до 2011-01,"950515612X,9789505156122",,,,,,,,,OL9137847M,,0,,,,,1,,0,36233672,pdf,F83527B75E3C5A989B63295101304DA7,,,D:\\!genesis\\library.nu\\f8\\_19913.f83527b75e3c5a989b63295101304da7.pdf,0,2000-01-01 01:00:00,2016-04-03 02:51:08,446000/f83527b75e3c5a989b63295101304da7-d.jpg,,
21739543,Wench: A Novel,,,,Dolen Perkins-Valdez,2010,,,,304,0,English,,,до 2011-01,"006170654X,9780061706547",,,,,,,,,,,0,,,,,,,1,914377,pdf,F85AA4099B920836B801D7C1708DEED0,,,D:\\!genesis\\library.nu\\f8\\_198987.f85aa4099b920836b801d7c1708deed0.pdf,0,2000-01-01 01:00:00,2016-04-03 02:51:08,446000/f85aa4099b920836b801d7c1708deed0-d.jpg,,
21739544,Modern Philosophy: From 1500 Ce to the Present (The History of Philosophy),,,,Brian Duignan,2010,,,,223,0,English,64,,до 2011-01,"1615301453,9781615301454,161530245X,9781615302451",,,,,190,B791 .M655 2011,,,OL25074056M,,0,,,,,,1,1,4685680,pdf,F8DA14907BDD5B3F9EB08DB6665D8878,,,D:\\!genesis\\library.nu\\f8\\_198341.f8da14907bdd5b3f9eb08db6665d8878.pdf,0,2000-01-01 01:00:00,2016-04-03 02:51:08,446000/f8da14907bdd5b3f9eb08db6665d8878-d.jpg,,
21739545,Beginning Microsoft Word 2010,,,,"Ty Anderson, Guy Hart-Davis",2010,1,,,384,0,English,94,,до 2011-01,"1430229527,9781430229520,9781430229537",,,,,,,,,,,0,,,,,,1,1,11936723,pdf,F895CE69FBB344C12310691FE6D99AEB,,,D:\\!genesis\\library.nu\\f8\\_198242.f895ce69fbb344c12310691fe6d99aeb.pdf,0,2000-01-01 01:00:00,2016-04-03 02:51:08,446000/f895ce69fbb344c12310691fe6d99aeb-d.jpg,,
21739546,Evaluation of Library and Information Services (Aslib Know How Guides),,,,John Crawford,2010,2nd,,,135,0,English,,,до 2011-01,"0851424430,9780851424439,0203403428,9780203403426,9780203412503",,,,,,,,,OL11598320M,,0,,,,,,1,1,810541,pdf,F85355ACED759B7A3626302E7AD65704,,,D:\\!genesis\\library.nu\\f8\\_197997.f85355aced759b7a3626302e7ad65704.pdf,0,2000-01-01 01:00:00,2016-04-03 02:51:08,446000/f85355aced759b7a3626302e7ad65704-d.jpg,,
21739547,Μαθήματα Θεωρίας Πιθανοτήτων,,,,Γκαρούτσος Γ.,,,,,219,0,Greek,,,до 2011-01,"9608550030,9789608250031",,,,,,,,,,,0,,,,,,1,0,4925542,pdf,F8563DFDA3A7DF6B6024962A06DF7637,,,D:\\!genesis\\library.nu\\f8\\_197732.f8563dfda3a7df6b6024962a06df7637.pdf,0,2000-01-01 01:00:00,2016-04-03 02:51:08,446000/f8563dfda3a7df6b6024962a06df7637-g.jpg,,
21739548,"Convergence and Divergence of National Financial Systems: Evidence from the Gold Standards, 1871-1971 (Financial History)",,,,"Patrice Baubeau, Anders Ogren",2010,,,,306,0,English,64,,до 2011-01,"185196648X,9781851966486,1851966692,9781851966691",,,,,,,,,,,0,,,,,,1,1,3447080,pdf,F8AC576B1D5B82936B17A9386682D637,,,D:\\!genesis\\library.nu\\f8\\_197483.f8ac576b1d5b82936b17a9386682d637.pdf,0,2000-01-01 01:00:00,2016-04-03 02:51:08,446000/f8ac576b1d5b82936b17a9386682d637-d.jpg,,
21739549,The Color of Welfare: How Racism Undermined the War on Poverty,,,,Jill Quadagno,1996,,,,272,0,English,67,,до 2011-01,"0195101227,9780195101225,9780195079197,0195079191",,,,,305.5/69/0973,HN59 .Q28 1994,,,OL1430492M,,0,,,,,,,0,5425259,pdf,F83EC232E21629BCCE0E65BBF93AA613,,,D:\\!genesis\\library.nu\\f8\\_197385.f83ec232e21629bcce0e65bbf93aa613.pdf,0,2000-01-01 01:00:00,2016-04-03 02:51:08,446000/f83ec232e21629bcce0e65bbf93aa613-d.jpg,,
21739550,"Cellular Technologies for Emerging Markets: 2G, 3G and Beyond",,,,Ajay R. Mishra,2010,1,,,326,0,English,,,до 2011-01,"0470779470,9780470779477,0470666242,9780470666241",,,,,384.5/35,TK5103.2 .M567 2010,,,OL24098810M,,0,,,,,,1,1,3796611,pdf,F83E1B74C9ACD773BD2C9B6F780C1FF4,,,D:\\!genesis\\library.nu\\f8\\_197158.f83e1b74c9acd773bd2c9b6f780c1ff4.pdf,0,2000-01-01 01:00:00,2016-04-03 02:51:08,446000/f83e1b74c9acd773bd2c9b6f780c1ff4-d.jpg,,
21739551,"Connecting Like Jesus: Practices for Healing, Teaching, and Preaching",,,,"Tony Campolo, Mary Albert Darling",2010,1,,,240,0,English,203,,до 2011-01,"0470431024,9780470431023,9780470730683,0470730684",,,,,253,BV4597.53.C64 C37 2010,,,OL24013870M,,0,,,,,,,1,1115955,pdf,F846DEF372F4D92F02632BB362C9CE5B,,,D:\\!genesis\\library.nu\\f8\\_197102.f846def372f4d92f02632bb362c9ce5b.pdf,0,2000-01-01 01:00:00,2016-04-03 02:51:08,446000/f846def372f4d92f02632bb362c9ce5b-d.jpg,,
21739552,Forbes Best Business Mistakes: How Today's Top Business Leaders Turned Missteps into Success,,,,Bob Sellers,2010,1,,,224,0,English,1,,до 2011-01,"0470598778,9780470598771,9780470768310",,,,,658.4/03,HD30.23 .S447 2010,,,OL24566151M,,0,,,,,,,1,3373125,pdf,F854B6294C3082C40F55FFE8D6C88D54,,,D:\\!genesis\\library.nu\\f8\\_197094.f854b6294c3082c40f55ffe8d6c88d54.pdf,0,2000-01-01 01:00:00,2016-04-03 02:51:08,446000/f854b6294c3082c40f55ffe8d6c88d54-d.jpg,,
21739553,Homoopathie bei Ruckenschmerzen: unter Berucksichtigung der anthroposophischen Medizin,,,,Johannes Wilkens,,,,,102,0,German,,,до 2011-01,"3830453868,9783830453864",,,,,,,,,,,0,,,,,,,0,32964706,pdf,F8DE2385CBBAA0420F1C32F692E3354E,,,D:\\!genesis\\library.nu\\f8\\_196714.f8de2385cbbaa0420f1c32f692e3354e.pdf,0,2000-01-01 01:00:00,2016-04-03 02:51:08,446000/f8de2385cbbaa0420f1c32f692e3354e-d.jpg,,
21739554,Authentic Professional Learning: Making a Difference Through Learning at Work,,Professional and Practice-based Learning 2,,Ann Webster-Wright (auth.),2010,1,Springer Netherlands,,260,0,English,183,,до 2011-01,"9048139465,9789048139460,9789048139477",,,,,,,10.1007/978-90-481-3947-7,,OL25032279M,,0,,,,,,1,1,4080881,pdf,F8488AB6393555BCE4029B906FA0F968,,,D:\\!genesis\\library.nu\\f8\\_195790.f8488ab6393555bce4029b906fa0f968.pdf,0,2000-01-01 01:00:00,2016-04-03 02:51:08,446000/f8488ab6393555bce4029b906fa0f968-d.jpg,,
21739555,First Children's Encyclopedia (First Reference),,,,Penny Smith; et al,2010,,,,304,0,English,188,,до 2011-01,"1405352736,9781405352734",,,,,,,,,,,0,,,,,,1,1,16435813,pdf,F842A9EF50B19C052C034009FF66723B,,,D:\\!genesis\\library.nu\\f8\\_195689.f842a9ef50b19c052c034009ff66723b.pdf,0,2000-01-01 01:00:00,2016-04-03 02:51:08,446000/f842a9ef50b19c052c034009ff66723b-d.jpg,,
21739556,"Massage For Dummies, Second Edition",,,,"Steve Capellini, Michel Van Welden",2010,2,,,368,0,English,305,,до 2011-01,"9780470587386,0470587385",,,,,,,,,,,0,,,,,,,1,8005536,pdf,F84E04ED753A4B2CB5D13CD70D897F5F,,,D:\\!genesis\\library.nu\\f8\\_195671.f84e04ed753a4b2cb5d13cd70d897f5f.pdf,0,2000-01-01 01:00:00,2016-04-03 02:51:08,446000/f84e04ed753a4b2cb5d13cd70d897f5f-d.jpg,,
21739557,"Schools or Markets? Commercialism, Privatization, and School-Business Partnerships",,,,Deron R. Boyles,2004,1,,,272,0,English,1,,до 2011-01,"0805852034,9780805852035,9781410611642",,,,,,,,,OL18218858M,,0,,,,,,1,1,17980715,pdf,F8E88245E26580D1D9E1C022F7929171,,,D:\\!genesis\\library.nu\\f8\\_195269.f8e88245e26580d1d9e1c022f7929171.pdf,0,2000-01-01 01:00:00,2016-04-03 02:51:08,446000/f8e88245e26580d1d9e1c022f7929171-d.jpg,,
21739558,Ozzy Ozone: Defender of Our Planet - Ozzy Goes Polar  for Kids,,,,United Nations Environment Programme (UNEP),,,,,16,0,English,,,до 2011-01,9280728423,,,,,,,,,,,0,,,,,1,,0,1707202,pdf,F88BC6E4F61647383A1FA41F95D02661,,,D:\\!genesis\\library.nu\\f8\\_19506.f88bc6e4f61647383a1fa41f95d02661.pdf,0,2000-01-01 01:00:00,2016-04-03 02:51:08,446000/f88bc6e4f61647383a1fa41f95d02661-g.jpg,,
21739559,Ensuring Inequality: The Structural Transformation of the African American Family,,,,Donna L. Franklin,1997,1,,,251,0,English,41,,до 2011-01,"0195100786,9780195100785,9780585330884",,,,,306.85/089/96073,E185.86 .F68 1997,,,OL971161M,,0,,,,,,1,1,15757608,pdf,F8379DEFBC486491E3E9285D23476D17,,,D:\\!genesis\\library.nu\\f8\\_194936.f8379defbc486491e3e9285d23476d17.pdf,0,2000-01-01 01:00:00,2016-04-03 02:51:08,446000/f8379defbc486491e3e9285d23476d17-d.jpg,,
21739560,"Testimony of a Bosnian (Eastern European Series, 14)",,,,Naza Tanovic-Miller,2001,1st,,,304,0,English,,,до 2011-01,"1585441139,9781585441136,9781585449132",,,,,949.703,DR1313.3 .T36 2001,,,OL6777683M,,0,,,,,,,1,16990504,pdf,F8536C5DA2B7AD5A7C21EFA1E858995A,,,D:\\!genesis\\library.nu\\f8\\_194873.f8536c5da2b7ad5a7c21efa1e858995a.pdf,0,2000-01-01 01:00:00,2016-04-03 02:51:08,446000/f8536c5da2b7ad5a7c21efa1e858995a-d.jpg,,
21739561,"Who Shall Live?: Health, Economics, and Social Choice (Economic Ideas Leading to the 21st Century , Vol 3)",,,,Victor R. Fuchs,1998,Exp Sub,,,278,0,English,305,,до 2011-01,"9810232012,9789810232016,9789812385536",,,,,338.4/73621/0973,RA410.53 .F82 1998,,,OL358125M,,0,,,,,,1,0,14501239,pdf,F82F094701873BD7E0C8C058D921FC36,,,D:\\!genesis\\library.nu\\f8\\_194693.f82f094701873bd7e0c8c058d921fc36.pdf,0,2000-01-01 01:00:00,2016-04-03 02:51:08,446000/f82f094701873bd7e0c8c058d921fc36-d.jpg,,
21739562,AutoCAD 2006 and AutoCAD LT 2006: No Experience Required,,,,David Frey,2005,,,,688,0,English,97,,до 2011-01,"0782144144,9780782144147,9781429477062",,,,,,,,,OL8096715M,,0,,,,,,,1,19381846,pdf,F81DCAECA36DE21CAF1A28CBBBE0504F,,,D:\\!genesis\\library.nu\\f8\\_194522.f81dcaeca36de21caf1a28cbbbe0504f.pdf,0,2000-01-01 01:00:00,2016-04-03 02:51:08,446000/f81dcaeca36de21caf1a28cbbbe0504f-d.jpg,,
21739563,"The South Aegean Active Volcanic Arc: Present Knowledge and Future Perspectives, Milos Conferences",,Developments in Volcanology 7,,Michael Fytikas and Georges E. Vougioukalakis (Eds.),2005,,"Elsevier, Academic Press",,1-381,0,English,,,до 2011-01,"0444520465,9780444520463,9780080457574",1871-644X,,,,551.21/09495/8,QE511.2 .S85 2003,,,OL3428643M,,0,,,,,,1,1,50352786,pdf,F8CCDEB8108599F6676E3265AD419CF0,,,D:\\!genesis\\library.nu\\f8\\_194440.f8ccdeb8108599f6676e3265ad419cf0.pdf,0,2000-01-01 01:00:00,2016-04-03 02:51:08,446000/f8ccdeb8108599f6676e3265ad419cf0-d.jpg,,
21739564,Legal Handbook for Pharmacy Technicians,,,,"Diane L. Darvey, Pharm.D., JD",2008,1,,,160,0,English,,,до 2011-01,"158528159X,9781585281596",,,,,344.7304/16,KF2915.P4 D37 2008,,,OL12315238M,,0,,,,,,,1,1645108,pdf,F8DD61F2FF9078F2A8A3A0E6DB6CA453,,,D:\\!genesis\\library.nu\\f8\\_194179.f8dd61f2ff9078f2a8a3a0e6db6ca453.pdf,0,2000-01-01 01:00:00,2016-04-03 02:51:08,446000/f8dd61f2ff9078f2a8a3a0e6db6ca453-d.jpg,,
21739565,"The Letters of Thomas Babington MacAulay: Volume 5, January 1849-December 1855",,,,Thomas MacAulay,2008,1,,,500,0,English,,,до 2011-01,"0521089018,9780521089012",,,,,,,,,,,0,,,,,,,1,14120087,pdf,F878E0919F2FF291817E6AE2AACDDC8A,,,D:\\!genesis\\library.nu\\f8\\_193861.f878e0919f2ff291817e6ae2aacddc8a.pdf,0,2000-01-01 01:00:00,2016-04-03 02:51:08,446000/f878e0919f2ff291817e6ae2aacddc8a-d.jpg,,
21739566,Symbolic Structures: An Exploration of the Culture of the Dowayos,,,,Nigel Barley,2009,1,,,136,0,English,,,до 2011-01,"052110534X,9780521105347",,,,,,,,,,,0,,,,,,,1,14193791,pdf,F82AD97DA5B5CAD4316718F777FDD81B,,,D:\\!genesis\\library.nu\\f8\\_193409.f82ad97da5b5cad4316718f777fdd81b.pdf,0,2000-01-01 01:00:00,2016-04-03 02:51:08,446000/f82ad97da5b5cad4316718f777fdd81b-d.jpg,,
21739567,Insects and related pests of house plants PB 1137,,,,"Ralph E Webb   U.S. Dept. of Agriculture, Science and Education Administration",,,,,8,0,English,29,,до 2011-01,R20070715A,,R20070715A,,,,,,,,,0,,,,,1,,1,224606,pdf,F82A38C87391CEDCD331F5A1BB988CBF,,,D:\\!genesis\\library.nu\\f8\\_19327.f82a38c87391cedcd331f5a1bb988cbf.pdf,0,2000-01-01 01:00:00,2016-04-03 02:51:08,446000/f82a38c87391cedcd331f5a1bb988cbf-g.jpg,,
21739568,Promoting Democracy and the Rule of Law: American and European Strategies (Governance and Limited Statehood),,,,"Amichai Magen, Thomas Risse, Michael McFaul",2009,,,,320,0,English,313,,до 2011-01,"0230220061,9780230220065",,,,,327.1/1,JZ1480 .P76 2009,,,OL23929430M,,0,,,,,,1,1,1520442,pdf,F8D736480E2D43CF7668A6CB4B504207,,,D:\\!genesis\\library.nu\\f8\\_193204.f8d736480e2d43cf7668a6cb4b504207.pdf,0,2000-01-01 01:00:00,2016-04-03 02:51:08,446000/f8d736480e2d43cf7668a6cb4b504207-d.jpg,,
21739569,Psychotherapy for Children and Adolescents: Evidence-Based Treatments and Case Examples,,,,Weisz John R.,2004,1,,,544,0,English,172,,до 2011-01,"0521576725,9780521576727",,,,,,,,,OL7746990M,,0,,,,,,,1,3545698,pdf,F8B15F0D3104DBC68EE3F401226B2FFC,,,D:\\!genesis\\library.nu\\f8\\_192734.f8b15f0d3104dbc68ee3f401226b2ffc.pdf,0,2000-01-01 01:00:00,2016-04-03 02:51:08,446000/f8b15f0d3104dbc68ee3f401226b2ffc-d.jpg,,
21739570,"Saints And Sons: The Making And Remaking Of The Rashidi Ahmadi Sufi Order, 1799-2000 (Social, Economic and Political Studies of the Middle East and Asia)",,,,Mark Sedgwick,2005,,,,255,0,English,64,,до 2011-01,"9004140131,9789004140134,9789047406075",,,,,,,,,OL9085009M,,0,,,,,,,1,2186527,pdf,F8C03BE50F1FD3D7CF04E91F4BFE61DC,,,D:\\!genesis\\library.nu\\f8\\_192013.f8c03be50f1fd3d7cf04e91f4bfe61dc.pdf,0,2000-01-01 01:00:00,2016-04-03 02:51:08,446000/f8c03be50f1fd3d7cf04e91f4bfe61dc-d.jpg,,
21739571,Political Empowerment Of Women: The Netherlands And Other Countries (Nijhoff Law Specials),,,,Monique Leyenaar,2004,,,,320,0,English,313,,до 2011-01,"9004140999,9789004140998,9781429427432",,,,,,,,,OL3438277M,,0,,,,,,1,1,993271,pdf,F84A6AFB63CB5A746A10D27559F1A7C7,,,D:\\!genesis\\library.nu\\f8\\_191930.f84a6afb63cb5a746a10d27559f1a7c7.pdf,0,2000-01-01 01:00:00,2016-04-03 02:51:08,446000/f84a6afb63cb5a746a10d27559f1a7c7-d.jpg,,
21739572,Incivilities: Regulating Offensive Behaviour (Studies in Penal Theory and Penal Ethics),,,,"Andrew Von Hirsch, AP Simester",2006,,,,293,0,English,183,,до 2011-01,"1841134996,9781841134994,9781847312839",,,,,,,,,OL8918292M,,0,,,,,,1,1,1249825,pdf,F8C5C449990A87B54CA593B92E27295D,,,D:\\!genesis\\library.nu\\f8\\_191268.f8c5c449990a87b54ca593b92e27295d.pdf,0,2000-01-01 01:00:00,2016-04-03 02:51:08,446000/f8c5c449990a87b54ca593b92e27295d-d.jpg,,
21739573,Advertising and Identity in Europe: The I of the Beholder,,,,Patricia Odber,2000,1,,,160,0,English,5,,до 2011-01,"1841500372,9781841500379,9781841508726",,,,,,,,,OL3581616M,,0,,,,,,1,1,614850,pdf,F88F0598ABED3E1B4B0B2DBC46BDDED1,,,D:\\!genesis\\library.nu\\f8\\_191252.f88f0598abed3e1b4b0b2dbc46bdded1.pdf,0,2000-01-01 01:00:00,2016-04-03 02:51:08,446000/f88f0598abed3e1b4b0b2dbc46bdded1-d.jpg,,
21739574,Jury Trials And Plea Bargaining: A True History,,,,"Michael McConville, Chester L. Mirsky",2005,,,,364,0,English,64,,до 2011-01,"184113516X,9781841135168,9781847312051",,,,,,,,,OL22622335M,,0,,,,,,,1,4077936,pdf,F87647081D940F23C5E26733D593A0D8,,,D:\\!genesis\\library.nu\\f8\\_191143.f87647081d940f23c5e26733d593a0d8.pdf,0,2000-01-01 01:00:00,2016-04-03 02:51:08,446000/f87647081d940f23c5e26733d593a0d8-d.jpg,,
21739575,Dreams in Group Psychotherapy: Theory and Technique (International Library of Group Analysis 18),,,,"Claudio Neri, Malcolm Pines, Robi Friedman",2008,1,,,304,0,English,114,,до 2011-01,"1853029238,9781853029233,9780585480107",,,,,,,,,OL17052713M,,0,,,,,,,1,1191708,pdf,F87FBC2D01CA79C870D7A0F8B1A965C9,,,D:\\!genesis\\library.nu\\f8\\_191118.f87fbc2d01ca79c870d7a0f8b1a965c9.pdf,0,2000-01-01 01:00:00,2016-04-03 02:51:08,446000/f87fbc2d01ca79c870d7a0f8b1a965c9-d.jpg,,
21739576,Read Reflect Respond a (Read Reflect Respond),,,,Joanne Suter,2006,,,,64,0,English,,,до 2011-01,"1599050005,9781599050003",,,,,,,,,OL12498944M,,0,,,,,,1,1,1469800,pdf,F89FB29473A942D7071676BCC793FE70,,,D:\\!genesis\\library.nu\\f8\\_190000.f89fb29473a942d7071676bcc793fe70.pdf,0,2000-01-01 01:00:00,2016-04-03 02:51:08,446000/f89fb29473a942d7071676bcc793fe70-d.jpg,,
21739577,"The MIT Encyclopedia of the Japanese Economy, 2nd Edition",,,,Robert C. Hsu,1999,second edition,,,550,0,English,188,,до 2011-01,"0262082802,9780262082808,9780585388120",,,,,330.952/003,HC462.9 .H73 1999,,,OL34995M,,0,,,,,1,,0,8057240,djvu,F8C6D3A7D4DE47E8F29453BA78953030,3789bb772612e474ea03d04494645ccf,no,D:\\!genesis\\library.nu\\f8\\_18999.f8c6d3a7d4de47e8f29453ba78953030.djvu,0,2000-01-01 01:00:00,2016-04-03 02:51:08,446000/f8c6d3a7d4de47e8f29453ba78953030-d.jpg,,
21739578,Delivering Rights: How the Human Rights Act Is Working (The Justice Series: Putting Rights into Practice),,,,"Jeffrey L. Jowell, Jonathan Cooper",2003,,,,207,0,English,,,до 2011-01,"184113287X,9781841132877,9781847311757",,,,,,,,,OL8918181M,,0,,,,,,1,1,726852,pdf,F8A546089D2D8DC2D4C08E50AAFD4EB9,,,D:\\!genesis\\library.nu\\f8\\_189707.f8a546089d2d8dc2d4c08e50aafd4eb9.pdf,0,2000-01-01 01:00:00,2016-04-03 02:51:08,446000/f8a546089d2d8dc2d4c08e50aafd4eb9-d.jpg,,
21739579,"Dialogue and History: Constructing South India, 1795-1895",,,,Eugene F. Irschick,1994,,,,280,0,English,64,,до 2011-01,"0520084055,9780520084056,9780585339931",,,,,954/.8031,DS484.7 .I77 1994,,,OL1402284M,,0,,,,,1,1,1,874206,pdf,F8E4B98F5A6649470D02EC54CA8CAB72,,,D:\\!genesis\\library.nu\\f8\\_18963.f8e4b98f5a6649470d02ec54ca8cab72.pdf,0,2000-01-01 01:00:00,2016-04-03 02:51:08,446000/f8e4b98f5a6649470d02ec54ca8cab72-d.jpg,,
21739580,An Introduction to Number Theory (Graduate Texts in Mathematics),,,,"G. Everest, Thomas Ward,",2006,,,,302,0,English,113,,до 2011-01,"1852339179,9781852339173",,,,,512.7,QA241 .E94 2005,,,OL3480252M,,0,,,,,1,,1,2179469,djvu,F8D48AC579BA3624EA64F90FAB5BF446,,,D:\\!genesis\\library.nu\\f8\\_18962.f8d48ac579ba3624ea64f90fab5bf446.djvu,0,2000-01-01 01:00:00,2016-04-03 02:51:08,446000/f8d48ac579ba3624ea64f90fab5bf446-d.jpg,,
21739581,Why Dogs Stopped Flying,,,,Kenneth Brewer,2006,1,,,56,0,English,,,до 2011-01,"0874216451,9780874216455,9780874215403",,,,,,,,,OL8382006M,,0,,,,,,1,1,584976,pdf,F83A352288DB5E6AFE9F1B9928DC01E7,,,D:\\!genesis\\library.nu\\f8\\_188803.f83a352288db5e6afe9f1b9928dc01e7.pdf,0,2000-01-01 01:00:00,2016-04-03 02:51:08,446000/f83a352288db5e6afe9f1b9928dc01e7-d.jpg,,
21739582,"Living with Rheumatoid Arthritis, 2nd Edition (Johns Hopkins Press Health Book)",,,,"Tammi L. Shlotzhauer, James L. McGuire",2003,2nd,,,312,0,English,,,до 2011-01,"9780801871474,0801871476,0801871468,9780801871467,9780801881602",,,,,,,,,OL9400543M,,0,,,,,,1,1,836808,pdf,F810A549284578A8DF1179D8D1EE0C73,,,D:\\!genesis\\library.nu\\f8\\_188330.f810a549284578a8df1179d8d1ee0c73.pdf,0,2000-01-01 01:00:00,2016-04-03 02:51:08,446000/f810a549284578a8df1179d8d1ee0c73-d.jpg,,
21739583,The Hidden Power of Prayer and Fasting,,,,Mahesh Chavda,1998,,,,176,0,English,,,до 2011-01,"0768420172,9780768420173",,,,,,,,,OL6891167M,,0,,,,,,1,1,419445,pdf,F8D9A8E5072C0799570A7EE6DBBFBEC5,,,D:\\!genesis\\library.nu\\f8\\_188087.f8d9a8e5072c0799570a7ee6dbbfbec5.pdf,0,2000-01-01 01:00:00,2016-04-03 02:51:08,446000/f8d9a8e5072c0799570a7ee6dbbfbec5-d.jpg,,
21739584,Scoring from Second: Writers on Baseball,,,,"Lee K. Abbott, Philip F. Deaver, Philip F. Deaver",2007,,,,332,0,English,305,,до 2011-01,"0803259913,9780803259911,9780803206953",,,,,,,,,OL7905590M,,0,,,,,,1,1,4317129,pdf,F8DE8190CAD425C1B94CF68874EB72CE,,,D:\\!genesis\\library.nu\\f8\\_187991.f8de8190cad425c1b94cf68874eb72ce.pdf,0,2000-01-01 01:00:00,2016-04-03 02:51:08,446000/f8de8190cad425c1b94cf68874eb72ce-d.jpg,,
21739585,A Good Little School,,,,Carole G. Basile,2004,,,,168,0,English,,,до 2011-01,"0791458911,9780791458914,079145892X,9780791458921,9781423739272",,,,,,,,,OL9672705M,,0,,,,,,1,1,993699,pdf,F842AACF94B6E8C398F4CE18052C35FF,,,D:\\!genesis\\library.nu\\f8\\_187971.f842aacf94b6e8c398f4ce18052c35ff.pdf,0,2000-01-01 01:00:00,2016-04-03 02:51:08,446000/f842aacf94b6e8c398f4ce18052c35ff-d.jpg,,
21739586,"Leucovorin - A Medical Dictionary, Bibliography, and Annotated Research Guide to Internet References",,,,ICON Health Publications,2004,,,,180,0,English,59,,до 2011-01,"0497006529,9780497006525,9781417584659",,,,,,,,,OL7652312M,,0,,,,,,1,1,2735965,pdf,F88CC5DE405C44428B71703DB5E4E4CD,,,D:\\!genesis\\library.nu\\f8\\_187039.f88cc5de405c44428b71703db5e4e4cd.pdf,0,2000-01-01 01:00:00,2016-04-03 02:51:08,446000/f88cc5de405c44428b71703db5e4e4cd-d.jpg,,
21739587,"Suzy Gershman's Born to Shop New York, 12th Ed: The Ultimate Guide for People Who Love to Shop",,,,"Suzy Gershman, Sarah Lahey",2008,12,,,336,0,English,,,до 2011-01,"9780470257142,0470257148,9780470405703",,,,,917.4710444,,,,OL23105926M,,0,,,,,,,1,2132457,pdf,F8F6B431DCF993CDB3499F0DDDBF786D,,,D:\\!genesis\\library.nu\\f8\\_186400.f8f6b431dcf993cdb3499f0dddbf786d.pdf,0,2000-01-01 01:00:00,2016-04-03 02:51:08,446000/f8f6b431dcf993cdb3499f0dddbf786d-d.jpg,,
21739588,"Patrons and Adversaries: Nobles and Villagers in Italian Politics, 1640-1760",,,,Caroline Castiglione,2005,,,,272,0,English,64,,до 2011-01,"0195173864,9780195173864,9781423746089",,,,,,,,,OL9610306M,,0,,,,,,1,1,2326496,pdf,F89DF229B2F0F9C99EC149213ABF91C4,,,D:\\!genesis\\library.nu\\f8\\_186357.f89df229b2f0f9c99ec149213abf91c4.pdf,0,2000-01-01 01:00:00,2016-04-03 02:51:08,446000/f89df229b2f0f9c99ec149213abf91c4-d.jpg,,
21739589,"Flexibilite, securite d'emploi et flexicurite : Les enjeux et defis",,,,"Diane-Gabrielle Tremblay, Paul Bernard, Philippe Bernoux, Claire Burlat, Collectif",2008,,PUQ,,370,0,French,,,до 2011-01,"276051546X,9782760515468,9782760519756",,,,,331.259/6,HD5708.4 F55 2008,,,OL24001039M,,0,,,,,,1,1,4279651,pdf,F8461F2D338D3F684974356F257EE302,,,D:\\!genesis\\library.nu\\f8\\_185228.f8461f2d338d3f684974356f257ee302.pdf,0,2000-01-01 01:00:00,2016-04-03 02:51:08,446000/f8461f2d338d3f684974356f257ee302-g.jpg,,
21739590,"Policy, People, and the New Professional: De-professionalisation and Re-professionalisation in Care and Welfare (Amsterdam University Press - Care and Welfare Series)",,,,"Jan Willem Duyvendak, Trudie Knijn, Monique Kremer",2006,,,,192,0,English,192,,до 2011-01,"9053568859,9789053568859,9781423785323",,,,,,,,,OL12808350M,,0,,,,,,1,1,1348443,pdf,F85386B6A1EBA2E5AA967F77951684B7,,,D:\\!genesis\\library.nu\\f8\\_185075.f85386b6a1eba2e5aa967f77951684b7.pdf,0,2000-01-01 01:00:00,2016-04-03 02:51:08,446000/f85386b6a1eba2e5aa967f77951684b7-d.jpg,,
21739591,Disinformation: American Multinationals at War Against Europe,,,,Remi Kauffer,2001,1,,,344,0,English,67,,до 2011-01,"1892941503,9781892941503,9781892941299",,,,,338.8/897304,HD2944 .K3813 2001,,,OL6777853M,,0,,,,,,1,1,1214091,pdf,F888776792E97D3D483F9034E6A3CCE9,,,D:\\!genesis\\library.nu\\f8\\_185005.f888776792e97d3d483f9034e6a3cce9.pdf,0,2000-01-01 01:00:00,2016-04-03 02:51:08,446000/f888776792e97d3d483f9034e6a3cce9-d.jpg,,
21739592,Dresden Teamwork Concept for Medical High Risk Organizations,,,,Axel R. Heller,2008,1,,,168,0,English,147,,до 2011-01,"1606923072,9781606923078,9781608764167",,,,,362.11068,RA971.38 .H47 2009,,,OL22541963M,,0,,,,,,1,1,4713991,pdf,F8FD3DBD1CF194228C0AD3CE5BBB638C,,,D:\\!genesis\\library.nu\\f8\\_184886.f8fd3dbd1cf194228c0ad3ce5bbb638c.pdf,0,2000-01-01 01:00:00,2016-04-03 02:51:08,446000/f8fd3dbd1cf194228c0ad3ce5bbb638c-d.jpg,,
21739593,"Research, Standard Setting, and Global Financial Reporting (Foundations and Trends in Accounting)",,,,Mary Barth,2007,,,,112,0,English,305,,до 2011-01,"1601980086,9781601980083,9781601980090",,,,,,,10.1561/1400000002,,OL8904836M,,0,,,,,,1,1,611761,pdf,F8327B417DA0472B6D3E184955315DA0,,,D:\\!genesis\\library.nu\\f8\\_184665.f8327b417da0472b6d3e184955315da0.pdf,0,2000-01-01 01:00:00,2016-04-03 02:51:08,446000/f8327b417da0472b6d3e184955315da0-d.jpg,,
21739594,"Quality of Life, Balance of Power and Nuclear Weapons: A Statistical Yearbook for Statesmen and Citizens (2008)",,,,Alexander V. Avakov,2008,,,,312,0,English,,,до 2011-01,"9780875865942,9780875865959,9780875865966,0875865941,087586595X",,,,,306.09/0511021,HC59.3 .A83 2008,,,OL16474736M,,0,,,,,,,1,1038472,pdf,F89456A56B4D42E3A9093968E0487F04,,,D:\\!genesis\\library.nu\\f8\\_184345.f89456a56b4d42e3a9093968e0487f04.pdf,0,2000-01-01 01:00:00,2016-04-03 02:51:08,446000/f89456a56b4d42e3a9093968e0487f04-d.jpg,,
21739595,"From Civil to Political Religion: The Intersection of Culture, Religion and Politics",,,,Marcela Cristi,2001,,,,300,0,English,192,,до 2011-01,"0889203687,9780889203686,9780585456850",,,,,322’.1,,,,OL8212736M,,0,,,,,,,1,1065943,pdf,F87DF0796BCAA23FFF58ECF3B2DFE4C8,,,D:\\!genesis\\library.nu\\f8\\_184299.f87df0796bcaa23fff58ecf3b2dfe4c8.pdf,0,2000-01-01 01:00:00,2016-04-03 02:51:08,446000/f87df0796bcaa23fff58ecf3b2dfe4c8-d.jpg,,
21739596,Redesigning Innovative Healthcare Operation and the Role of Knowledge Management,,,,"M. Saito, N. Wickramasinghe, M. Fujii, E. Geisler",2009,1,,,322,0,English,,,до 2011-01,"1605662844,9781605662848",,,,,362.1068,RA971.2 .S25 2010,,,OL23174827M,,0,,,,,,1,1,4502249,pdf,F8B07855E8EBD046D620A3112B33013E,,,D:\\!genesis\\library.nu\\f8\\_184203.f8b07855e8ebd046d620a3112b33013e.pdf,0,2000-01-01 01:00:00,2016-04-03 02:51:08,446000/f8b07855e8ebd046d620a3112b33013e-d.jpg,,
21739597,Asphalt Materials and Mix Design Manual,,,,Irving Kett,1999,,,,259,0,English,,,до 2011-01,"0815514255,9780815514251,9780815516248",,,,,620.1/96,TE275 .K48 1998,,,OL702258M,,0,,,,,,,1,8035584,pdf,F814AD4206E54FE8C9C4D7E492264A2E,,,D:\\!genesis\\library.nu\\f8\\_183855.f814ad4206e54fe8c9c4d7e492264a2e.pdf,0,2000-01-01 01:00:00,2016-04-03 02:51:08,446000/f814ad4206e54fe8c9c4d7e492264a2e-d.jpg,,
21739598,Cured of Cancer: From childhood to adulthood quality of Survival (UvA Dissertations),,,,"Langeveld, Nelia E.",2003,,,,188,0,English,166,,до 2011-01,"9789048503704,9789053566664,905356666X",,,,,,,,,OL12808284M,,0,,,,,,,1,2072635,pdf,F80CEF229D90AF308FA9AA63E2CF8A4F,,,D:\\!genesis\\library.nu\\f8\\_183525.f80cef229d90af308fa9aa63e2cf8a4f.pdf,0,2000-01-01 01:00:00,2016-04-03 02:51:08,446000/f80cef229d90af308fa9aa63e2cf8a4f-d.jpg,,
21739599,The Rough Guide to Barcelona 8 (Rough Guide Travel Guides),,,,"Jules Brown, Rough Guides",2009,8,,,316,0,English,35,,до 2011-01,"1848360207,9781848360204",,,,,,,,,,,0,,,,,,1,1,10857709,pdf,F8ECF022D8BC050ACCC92DEC64CDD3AC,,,D:\\!genesis\\library.nu\\f8\\_183457.f8ecf022d8bc050accc92dec64cdd3ac.pdf,0,2000-01-01 01:00:00,2016-04-03 02:51:08,446000/f8ecf022d8bc050accc92dec64cdd3ac-d.jpg,,
21739600,"Clinical Ethics:  A Practical Approach to Ethical Decisions in Clinical Medicine, Seventh Edition",,,,"Albert Jonsen, Mark Siegler, William Winslade",2010,7,,,240,0,English,147,,до 2011-01,"0071634142,9780071634144",,,,,174.2,R724 .J66 2010,,,OL24029026M,,0,,,,,,,1,877622,chm,F83C60B4AECB28C24FED45DDC2E382A2,,,D:\\!genesis\\library.nu\\f8\\_182606.f83c60b4aecb28c24fed45ddc2e382a2.chm,0,2000-01-01 01:00:00,2016-04-03 02:51:08,446000/f83c60b4aecb28c24fed45ddc2e382a2-d.jpg,,
21739601,Surviving Prescribing: A Practical Guide,,,,Shulman,2007,,,,252,0,English,,,до 2011-01,"1901346935,9781901346930",,,,,,,,,OL12258539M,,0,,,,,,1,1,2552090,pdf,F807D587E36D15CCB05E45F9108F8AEE,,,D:\\!genesis\\library.nu\\f8\\_182334.f807d587e36d15ccb05e45f9108f8aee.pdf,0,2000-01-01 01:00:00,2016-04-03 02:51:08,446000/f807d587e36d15ccb05e45f9108f8aee-d.jpg,,
21739602,Trusted Platform Module Basics: Using TPM in Embedded Systems (Embedded Technology),,,,Steven L. Kinney,2006,,,,368,0,English,,,до 2011-01,"0750679603,9780750679602,9780080465166",,,,,,,,,,,0,,,,,,,1,9450665,pdf,F8FFDD515BC51678F18E7E0E95B5EFF4,,,D:\\!genesis\\library.nu\\f8\\_181951.f8ffdd515bc51678f18e7e0e95b5eff4.pdf,0,2000-01-01 01:00:00,2016-04-03 02:51:08,446000/f8ffdd515bc51678f18e7e0e95b5eff4-d.jpg,,
21739603,The Brahui Language (Languages of Asia and Africa),,,,Mikhail Sergeevich Andronov,1980,,,,110,0,English,314,,до 2011-01,,,B0006E59HO,,,,,,,,,0,,,,,,1,0,5666949,pdf,F879B2902C8833914EDFA91DFF4E2C03,,,D:\\!genesis\\library.nu\\f8\\_181703.f879b2902c8833914edfa91dff4e2c03.pdf,0,2000-01-01 01:00:00,2016-04-03 02:51:08,446000/f879b2902c8833914edfa91dff4e2c03-g.jpg,,
21739604,Basics Photography: Composition,,,,David Prakel,2006,,,,175,0,English,137,,до 2011-01,"2940373043,9782940373048",,,,,,,,,OL9012364M,,0,,,,,,1,1,27417142,pdf,F804E5C75AF0DFB382E408D3D6DE88E5,,,D:\\!genesis\\library.nu\\f8\\_181700.f804e5c75af0dfb382e408d3d6de88e5.pdf,0,2000-01-01 01:00:00,2016-04-03 02:51:08,446000/f804e5c75af0dfb382e408d3d6de88e5-d.jpg,,
21739605,White Wolf Of The Hartz Mountains,,,,Frederick Marryat,2004,,,,48,0,English,,,до 2011-01,"1419187864,9781419187865",,,,,,,,,OL11794265M,,0,,,,,1,,0,45853,pdf,F85143734EBDCD9565FF199A330EC14C,,,D:\\!genesis\\library.nu\\f8\\_18076.f85143734ebdcd9565ff199a330ec14c.pdf,0,2000-01-01 01:00:00,2016-04-03 02:51:08,446000/f85143734ebdcd9565ff199a330ec14c-d.jpg,,
21739606,Interservice Rivalry and Airpower in the Vietnam War,,,,Ian Horwood,2006,,,,158,0,English,,,до 2011-01,"0160772761,9780160772764",,,,,,,,,OL7381282M,,0,,,,,1,,1,761267,pdf,F8DA338F196CEC4D964B577E83B05E14,,,D:\\!genesis\\library.nu\\f8\\_18053.f8da338f196cec4d964b577e83b05e14.pdf,0,2000-01-01 01:00:00,2016-04-03 02:51:08,446000/f8da338f196cec4d964b577e83b05e14-d.jpg,,
21739607,Using Aspect-Oriented Programming for Trustworthy Software Development,,,,Vladimir O. Safonov,2008,1,,,338,0,English,87,,до 2011-01,"0470138173,9780470138175,9780470283103",,,,,005.1,QA76.64 .S253 2008,,,OL16364339M,,0,,,,,,1,1,2062143,pdf,F8782E41A3E444BDE4DD9DF1E79CA91E,,,D:\\!genesis\\library.nu\\f8\\_180341.f8782e41a3e444bde4dd9df1e79ca91e.pdf,0,2000-01-01 01:00:00,2016-04-03 02:51:08,446000/f8782e41a3e444bde4dd9df1e79ca91e-d.jpg,,
21739608,Molecular Nutrition and Genomics: Nutrition and the Ascent of Humankind,,,,Mark Lucock (Author),2006,1,Wiley-Liss,,154,0,English,,,до 2011-01,"9780470081594,9780470129371,0470081597",,,,,612.3,QP144.G45 L83 2007,,,OL10279004M,,0,,,,,,,1,5097336,pdf,F8AC3668C8A6E1814006323D0F607A55,,,D:\\!genesis\\library.nu\\f8\\_179918.f8ac3668c8a6e1814006323d0f607a55.pdf,0,2000-01-01 01:00:00,2016-04-03 02:51:08,446000/f8ac3668c8a6e1814006323d0f607a55-d.jpg,,
21739609,From the Boiler Room to the Living Room: The Financial Services Revolution and What it Means to You and Your Clients,,,,"Mitch Anthony, Richard Wagner",2008,1,,,240,0,English,305,,до 2011-01,"0470255099,9780470255094,9780470378441",,,,,332.1,HG179.5 .A577 2008,,,OL16504942M,,0,,,,,,,1,1542600,pdf,F8E3DDB00D5882E3EFF4F17A368E4018,,,D:\\!genesis\\library.nu\\f8\\_179815.f8e3ddb00d5882e3eff4f17a368e4018.pdf,0,2000-01-01 01:00:00,2016-04-03 02:51:08,446000/f8e3ddb00d5882e3eff4f17a368e4018-d.jpg,,
21739610,CFO as Business Integrator,,,,Cedric Read Hans-Dieter Scheuermann The mySAP Financials Team,2003,1,,,382,0,English,1,,до 2011-01,"047085149X,9780470851494,9780470862452",,,,,,,,,OL24307746M,,0,,,,,,1,1,7639015,pdf,F8A010E6797244D2D45E4C8D0861C2D3,,,D:\\!genesis\\library.nu\\f8\\_179186.f8a010e6797244d2d45e4c8d0861c2d3.pdf,0,2000-01-01 01:00:00,2016-04-03 02:51:08,446000/f8a010e6797244d2d45e4c8d0861c2d3-d.jpg,,
21739611,Viral Therapy of Cancer,,,,K. J. Harrington,2008,1,,,432,0,English,166,,до 2011-01,"0470019220,9780470019221",,,,,616.99/406,RC271.V567 V52 2007,,,OL10278267M,,0,,,,,,,1,7717852,pdf,F8D33973A8A2E983F1E9ABDB847F7499,,,D:\\!genesis\\library.nu\\f8\\_178967.f8d33973a8a2e983f1e9abdb847f7499.pdf,0,2000-01-01 01:00:00,2016-04-03 02:51:08,446000/f8d33973a8a2e983f1e9abdb847f7499-d.jpg,,
21739612,Tolley's Managing a Diverse Workforce,,,,"Nikki Booth, Clare Robson, Jacqui Welham, Fosters Solicitors of Norwich",2005,,,,233,0,English,7,,до 2011-01,"0406971498,9780406971494",,,,,,,,,OL7477551M,,0,,,,,,1,1,12852161,pdf,F864366377C43B9DA64501F5ACF62386,,,D:\\!genesis\\library.nu\\f8\\_178472.f864366377c43b9da64501f5acf62386.pdf,0,2000-01-01 01:00:00,2016-04-03 02:51:08,446000/f864366377c43b9da64501f5acf62386-d.jpg,,
21739613,Strategic Career Management: Developing your talent (The HR Series),,,,Jane Yarnall,2007,,,,264,0,English,,,до 2011-01,"0750683694,9780750683692,9780080551722",,,,,,,,,OL10809548M,,0,,,,,,,1,1468663,pdf,F865422E1B0054DD46D08BAC56E71663,,,D:\\!genesis\\library.nu\\f8\\_178389.f865422e1b0054dd46d08bac56e71663.pdf,0,2000-01-01 01:00:00,2016-04-03 02:51:08,446000/f865422e1b0054dd46d08bac56e71663-d.jpg,,
21739614,Understanding Mobile Human-Computer Interaction (Information Systems Series (ISS)),,,,Steve Love,2005,,,,224,0,English,69,,до 2011-01,"0750663529,9780750663526,9780080455808",,,,,,,,,OL17628247M,,0,,,,,,1,1,1014198,pdf,F80B6D7A89294CB3B37868591D88AEDD,,,D:\\!genesis\\library.nu\\f8\\_178203.f80b6d7a89294cb3b37868591d88aedd.pdf,0,2000-01-01 01:00:00,2016-04-03 02:51:08,446000/f80b6d7a89294cb3b37868591d88aedd-d.jpg,,
21739615,Tensegrity: Structural Systems for the Future,,,,RenA© Motro,2006,,,,280,0,English,,,до 2011-01,"1903996376,9781903996379,9781417526697",,,,,624.1775,TA660.D6,,,OL22016834M,,0,,,,,,,1,25439325,pdf,F810E2D00FEDC39FEA209B9C0B70379E,,,D:\\!genesis\\library.nu\\f8\\_177906.f810e2d00fedc39fea209b9c0b70379e.pdf,0,2000-01-01 01:00:00,2016-04-03 02:51:08,446000/f810e2d00fedc39fea209b9c0b70379e-d.jpg,,
21739616,Frog and Toad Are Friends (I Can Read Book 2),,,,Arnold Lobel,1979,FIRST EDITIION,,,64,0,English,,,до 2011-01,"0064440206,9780064440202,9780061794131",,,,,,,,,OL24953005M,,0,,,,,,1,1,3395328,pdf,F8B1764357D9CC45D80697F00B024949,,,D:\\!genesis\\library.nu\\f8\\_177606.f8b1764357d9cc45d80697f00b024949.pdf,0,2000-01-01 01:00:00,2016-04-03 02:51:08,446000/f8b1764357d9cc45d80697f00b024949-d.jpg,,
21739617,Oracle RMAN 11g Backup and Recovery (Osborne ORACLE Press Series),,,,"Robert Freeman, Matthew Hart",2010,1,,,688,0,English,76,,до 2011-01,"0071628606,9780071628600",,,,,,,,,,,0,,,,,,1,1,14093350,pdf,F8F49DF78F4B268EC9F403D12E5F2AF0,,,D:\\!genesis\\library.nu\\f8\\_177571.f8f49df78f4b268ec9f403d12e5f2af0.pdf,0,2000-01-01 01:00:00,2016-04-03 02:51:08,446000/f8f49df78f4b268ec9f403d12e5f2af0-d.jpg,,
21739618,"Performance Management: Integrating Strategy Execution, Methodologies, Risk, and Analytics (Wiley and SAS Business Series)",,,,Gary Cokins,2009,1,,,272,0,English,,,до 2011-01,"0470449985,9780470449981,0470471174,9780470471173",,,,,658.4/013,HF5549.5.P35 C65 2009,,,OL22695742M,,0,,,,,,,1,2231303,pdf,F89EED2FF490AA662E473B8B99DBB9D7,,,D:\\!genesis\\library.nu\\f8\\_177411.f89eed2ff490aa662e473b8b99dbb9d7.pdf,0,2000-01-01 01:00:00,2016-04-03 02:51:08,446000/f89eed2ff490aa662e473b8b99dbb9d7-d.jpg,,
21739619,Taoist Meditation: The Mao-Shan Tradition of Great Purity (S U N Y Series in Chinese Philosophy and Culture),,,,"Isabelle Robinet, Julian F. Pas, Norman J. Girardot",1993,,,,285,0,English,195,,до 2011-01,"0791413608,9780791413609,9780585068299",,,,,299/.51443,BL1923 .R6313 1993,,,OL1719913M,,0,,,,,,1,1,2985353,pdf,F85F3A5DAAA437B1624FDE30413A49FA,,,D:\\!genesis\\library.nu\\f8\\_177271.f85f3a5daaa437b1624fde30413a49fa.pdf,0,2000-01-01 01:00:00,2016-04-03 02:51:08,446000/f85f3a5daaa437b1624fde30413a49fa-d.jpg,,
21739620,Journey through Genius: The Great Theorems of Mathematics,,,,William Dunham,1991,,,,320,0,English,113,,до 2011-01,"9780140147391,9780471500308,014014739X,0471500305",,,,,510/.9 ,QA21  .D78 1990,,,OL18299437M,,0,,,,,,,1,6886371,pdf,F8C311F9CA0A041EAC77F0B90F76A40A,,,D:\\!genesis\\library.nu\\f8\\_176881.f8c311f9ca0a041eac77f0b90f76a40a.pdf,0,2000-01-01 01:00:00,2016-04-03 02:51:08,446000/f8c311f9ca0a041eac77f0b90f76a40a-d.jpg,,
21739621,Privacy-Preserving Data Mining:  Models and Algorithms ,,Advances in Database Systems 34,,"Charu C. Aggarwal, Philip S. Yu (auth.), Charu C. Aggarwal, Philip S. Yu (eds.)",2008,1,Springer US,,514,0,English,178,,до 2011-01,"0387709916,9780387709918,9780387709925",,,,,,,10.1007/978-0-387-70992-5,,,,0,,,,,,,1,5555002,pdf,F8965CBB1EAD25BB460B0C6976BD33C9,,,D:\\!genesis\\library.nu\\f8\\_176835.f8965cbb1ead25bb460b0c6976bd33c9.pdf,0,2000-01-01 01:00:00,2016-04-03 02:51:08,446000/f8965cbb1ead25bb460b0c6976bd33c9-d.jpg,,
21739622,The Invisible Poor: A Portrait of Rural Poverty in Argentina (World Bank Working Papers),,,,"Gabriel Demombynes, Dorte Verner",2010,,,,135,0,English,,,до 2011-01,"0821382071,9780821382073,9780821382097",,,,,,,10.1596/978-0-8213-8207-3,,,,0,,,,,,1,1,2839136,pdf,F8F096E2053A383D4616356FF9174CB7,,,D:\\!genesis\\library.nu\\f8\\_176596.f8f096e2053a383d4616356ff9174cb7.pdf,0,2000-01-01 01:00:00,2016-04-03 02:51:08,446000/f8f096e2053a383d4616356ff9174cb7-d.jpg,,
21739623,#QUALITYtweet Book01: 140 Bite-Sized Ideas to Deliver Quality in Every Project,,,,Tanmay Vora,2009,,,,112,0,English,,,до 2011-01,"1607730642,9781607730644,9781607730651",,,,,,,,,OL24310720M,,0,,,,,,,1,613468,pdf,F8C611DCBF86F9E6D7363DB36F998FFA,,,D:\\!genesis\\library.nu\\f8\\_176571.f8c611dcbf86f9e6d7363db36f998ffa.pdf,0,2000-01-01 01:00:00,2016-04-03 02:51:08,446000/f8c611dcbf86f9e6d7363db36f998ffa-d.jpg,,
21739624,Third Generation Photovoltaics: Advanced Solar Conversions (Springer Series in Photonics),,,,Martin A. Green M. a. Green,2005,,,,172,0,English,,,до 2011-01,"9783540265627,9783540265634,9783540401377,3540265627,3540401377",,,,,,,,,OL9055694M,,0,,,,,,1,1,1530047,pdf,F84E1B11F108109EC5C49AE91441BB1B,,,D:\\!genesis\\library.nu\\f8\\_176411.f84e1b11f108109ec5c49ae91441bb1b.pdf,0,2000-01-01 01:00:00,2016-04-03 02:51:08,446000/f84e1b11f108109ec5c49ae91441bb1b-d.jpg,,
21739625,Current Protocols in Protein Science,,,,COLIGAN,,,,,3845,0,English,17,,до 2011-01,"0-471-11184-8,0-471-14098-8",,,,,,,10.1002/0471140864.psf0res07,,,,0,,,,,1,,1,67793865,pdf,F8B2462994A8FA57D449A8BC3BD0F8C5,,,D:\\!genesis\\library.nu\\f8\\_17633.f8b2462994a8fa57d449a8bc3bd0f8c5.pdf,0,2000-01-01 01:00:00,2016-04-03 02:51:08,446000/f8b2462994a8fa57d449a8bc3bd0f8c5-g.jpg,,
21739626,"Psychologie, 2. Auflage",,,,David G. Myers,2008,2. erw. u. aktualisierte Aufl.,Springer,,1075,0,German,198,,до 2011-01,"9783540790327,3540790322",,,,,,,,,,,0,,,,,,,1,52934120,pdf,F81299C03B193AD22FF12B875197AB01,,,D:\\!genesis\\library.nu\\f8\\_176289.f81299c03b193ad22ff12b875197ab01.pdf,0,2000-01-01 01:00:00,2016-04-03 02:51:08,446000/f81299c03b193ad22ff12b875197ab01-d.jpg,,
21739627,Essential Readings in Biosemiotics: Anthology and Commentary,,Biosemiotics 3,,Donald Favareau (auth.),2009,1,Springer Netherlands,,880,0,English,18,,до 2011-01,"1402096496,9781402096495",,,,,,,10.1007/978-1-4020-9650-1,,,,0,,,,,,,1,16890111,pdf,F8F3564A75975B869DAB130EE998E73E,,,D:\\!genesis\\library.nu\\f8\\_176218.f8f3564a75975b869dab130ee998e73e.pdf,0,2000-01-01 01:00:00,2016-04-03 02:51:08,446000/f8f3564a75975b869dab130ee998e73e-d.jpg,,
21739628,Beyond Florence: The Contours of Medieval and Early Modern Italy,,,,"Paula Findlen, Michelle Fontaine, Duane J. Osheim (Editors)   Stanford University Press",2002,1,,,344,0,English,64,,до 2011-01,"9780804739344,9781417501373,080473934X",,,,,945,,,,OL22072144M,,0,,,,,1,,1,3018884,pdf,F843B888805DAAB18FD3267DC23EF9F5,,,D:\\!genesis\\library.nu\\f8\\_17603.f843b888805daab18fd3267dc23ef9f5.pdf,0,2000-01-01 01:00:00,2016-04-03 02:51:08,446000/f843b888805daab18fd3267dc23ef9f5-d.jpg,,
21739629,ベルグソン全集〈6〉道徳と宗教の二源泉,,,,ベルグソン,,,,,392,0,Japanese,,,до 2011-01,"9784560025208,9784560450062,4560025207",,,,,,,,,,,0,,,,,1,,0,53735719,pdf,F81A7E2C32C8488376694D4AA42F4785,,,D:\\!genesis\\library.nu\\f8\\_174632.f81a7e2c32c8488376694d4aa42f4785.pdf,0,2000-01-01 01:00:00,2016-04-03 02:51:08,446000/f81a7e2c32c8488376694d4aa42f4785-g.jpg,,
21739630,Kulturen des Wissens im 18. Jahrhundert (German Edition),,,,"Schneider, Ulrich Johannes",2008,,,,682,0,German,,,до 2011-01,"3110198223,9783110212402,9783110198225",,,,,,,,,,,0,,,,,1,,1,8888333,pdf,F88FD0BA1E8F4B93EFAC20AB47A28358,,,D:\\!genesis\\library.nu\\f8\\_174184.f88fd0ba1e8f4b93efac20ab47a28358.pdf,0,2000-01-01 01:00:00,2016-04-03 02:51:08,446000/f88fd0ba1e8f4b93efac20ab47a28358-d.jpg,,
21739631,Mid-Winter Numbers of Waterbirds in Bulgaria (1977-2001: Results from 25 Years of Mid-Winter Counts Carried Out at the Most Important Bulgarian Wetlands,,,,"Tanyo Michev, Lyubomir Profirov",2003,,,,167,0,English,64,,до 2011-01,"9546421758,9789546421753,9781435642836",,,,,,,,,OL13055922M,,0,,,,,1,,1,9246671,pdf,F8AA072167DA069AC5BE7D40504411EA,,,D:\\!genesis\\library.nu\\f8\\_174020.f8aa072167da069ac5be7d40504411ea.pdf,0,2000-01-01 01:00:00,2016-04-03 02:51:08,446000/f8aa072167da069ac5be7d40504411ea-d.jpg,,
21739632,Ancilla Calliopeae: Ein Repertorium Der Neulateinischen Epik Frankreichs (1500-1700) (Mittellateinische Studien Und Texte) (German Edition),,,,Ludwig Braun,2006,,,,757,0,German,64,,до 2011-01,"9004162429,9789047422488,9789004162426",,,,,,,,,OL12799325M,,0,,,,,1,,1,3047153,pdf,F83E963FD30DF4BA4F3D491FCAD23123,,,D:\\!genesis\\library.nu\\f8\\_173965.f83e963fd30df4ba4f3d491fcad23123.pdf,0,2000-01-01 01:00:00,2016-04-03 02:51:08,446000/f83e963fd30df4ba4f3d491fcad23123-g.jpg,,
21739633,An Engineering Archive,,,,"Ernest Shannon, D.E. Winterbone, D.E. Winterbone, Keith Moore",1997,,,,646,0,English,210,,до 2011-01,"9781860580536,186058053X,1860580521,9781860580529,9780585477534",,,,,,,,,OL12053736M,,0,,,,,1,,1,50868473,pdf,F8ABD1C5589C6E8A8D3FB306A875EB71,,,D:\\!genesis\\library.nu\\f8\\_173792.f8abd1c5589c6e8a8d3fb306a875eb71.pdf,0,2000-01-01 01:00:00,2016-04-03 02:51:08,446000/f8abd1c5589c6e8a8d3fb306a875eb71-g.jpg,,
21739634,Sexual Politics of Desire and Belonging. (Approaches to Translation Studies),,,,"Nick Rumens, Alejandro Cervantes-Carson",2007,,,,300,0,English,183,,до 2011-01,"9042022396,9789042022393,9781435612136",,,,,,,,,OL12805044M,,0,,,,,1,,1,2374180,pdf,F86AFA2A0931F14CA1D713E5F58D0C15,,,D:\\!genesis\\library.nu\\f8\\_173621.f86afa2a0931f14ca1d713e5f58d0c15.pdf,0,2000-01-01 01:00:00,2016-04-03 02:51:08,446000/f86afa2a0931f14ca1d713e5f58d0c15-d.jpg,,
21739635,Le bebe en garderie (French Edition),,,,Jocelyne Martin,1992,,,,419,0,French,,,до 2011-01,"9782760507067,2760507068,9781435683006",,,,,362.712 M,,,,OL1468345M,,0,,,,,1,,1,5614167,pdf,F8FB91B08C4E3AC25156B32F68866999,,,D:\\!genesis\\library.nu\\f8\\_173328.f8fb91b08c4e3ac25156b32f68866999.pdf,0,2000-01-01 01:00:00,2016-04-03 02:51:08,446000/f8fb91b08c4e3ac25156b32f68866999-d.jpg,,
21739636,Baltic Yearbook of International Law,,,,Ineta Ziemele,2003,,,,368,0,English,313,,до 2011-01,"9004137467,9789004137462,9781423755425",,,,,,,,,OL9084853M,,0,,,,,1,,1,3490707,pdf,F8F9B3EF8312B4361116455B011793AC,,,D:\\!genesis\\library.nu\\f8\\_173323.f8f9b3ef8312b4361116455b011793ac.pdf,0,2000-01-01 01:00:00,2016-04-03 02:51:08,446000/f8f9b3ef8312b4361116455b011793ac-d.jpg,,
21739637,出版のためのテキスト実践技法 (執筆篇) (単行本),,,,西谷 能英,,,,,130,0,Japanese,,,до 2011-01,"9784624000219,4624000218,9784624950071",,,,,,,,,,,0,,,,,1,,1,2193280,pdf,F8ABC7A04AD9E52CA67250FC42E3AB05,,,D:\\!genesis\\library.nu\\f8\\_172997.f8abc7a04ad9e52ca67250fc42e3ab05.pdf,0,2000-01-01 01:00:00,2016-04-03 02:51:08,446000/f8abc7a04ad9e52ca67250fc42e3ab05-g.jpg,,
21739638,Welfare Policy Under New Labour: Views from Inside Westminster,,,,"Hugh Bochel, Andrew Defty",2007,1,,,208,0,English,192,,до 2011-01,"1861347901,9781861347909,9781847421746",,,,,,,,,OL22746571M,,0,,,,,1,,1,1017503,pdf,F8FECCDAD6132ED492392C2B2A1B61AF,,,D:\\!genesis\\library.nu\\f8\\_172567.f8feccdad6132ed492392c2b2a1b61af.pdf,0,2000-01-01 01:00:00,2016-04-03 02:51:08,446000/f8feccdad6132ed492392c2b2a1b61af-d.jpg,,
21739639,Shifts in Compensating Work-Related Injuries and Diseases (Tort and Insurance Law),,,,"Esther F. D. Engelhard, Ton Hartlief, Ton Hartlief, Renaat I. R. Hoop, Saskia Klosse, Saskia Klosse,",2007,1,,,245,0,English,137,,до 2011-01,321171555X,,,,,,,,,OL12677790M,,0,,,,,1,,1,1420736,pdf,F8A0BC5E284CC14DCD40763FF9C915E2,,,D:\\!genesis\\library.nu\\f8\\_172425.f8a0bc5e284cc14dcd40763ff9c915e2.pdf,0,2000-01-01 01:00:00,2016-04-03 02:51:08,446000/f8a0bc5e284cc14dcd40763ff9c915e2-d.jpg,,
21739640,The Ninth Karmapa's Ocean of Definitive Meaning,,,,Khenchen Thrangu Rinpoche,2003,,,,139,0,English,,,до 2011-01,"1559392029,9781559392020",,,,,294.3/4435,BQ7699.M34 T47 2003,,,OL3677539M,,0,,,,,1,1,1,1018635,pdf,F87F1D9D0B29609A2020AF9F37B0C50A,,,D:\\!genesis\\library.nu\\f8\\_172177.f87f1d9d0b29609a2020af9f37b0c50a.pdf,0,2000-01-01 01:00:00,2016-04-03 02:51:08,446000/f87f1d9d0b29609a2020af9f37b0c50a-d.jpg,,
21739641,"Designers' Guide to EN 1991-1-4 Eurocode 1: Actions on Structures, General Actions: Wind Actions (Eurocode Designers' Guide) (Pt. 1-4)",,,,N. Cook,2007,,,,112,0,English,,,до 2011-01,"0727731521,9780727731524",,,,,624.17502184,,,,OL10591718M,,0,,,,,1,,0,19334884,pdf,F8C9A1D0E80CFBD3A69A33932D3D49E1,,,D:\\!genesis\\library.nu\\f8\\_171917.f8c9a1d0e80cfbd3a69a33932d3d49e1.pdf,0,2000-01-01 01:00:00,2016-04-03 02:51:08,446000/f8c9a1d0e80cfbd3a69a33932d3d49e1-d.jpg,,
21739642,Forensic Psychiatry: Influences of Evil,,,,Tom Mason,2005,1,,,400,0,English,,,до 2011-01,"1588294498,9781588294494,9781597450065",,,,,613/.15,RA1151 .F6585 2006,,,OL22721028M,,0,,,,,1,,1,1349747,pdf,F8C8FAE40861AD78C7133DB4C8CEC1D5,,,D:\\!genesis\\library.nu\\f8\\_171817.f8c8fae40861ad78c7133db4c8cec1d5.pdf,0,2000-01-01 01:00:00,2016-04-03 02:51:08,446000/f8c8fae40861ad78c7133db4c8cec1d5-d.jpg,,
21739643,Transparency in a New Global Order: Unveiling Organizational Visions,,,,"Christina Garsten, Monica Lindh De Montoya",2008,,,,297,0,English,,,до 2011-01,"1845423259,9781845423254,9781848441354",,,,,327.06,JZ1324 .T73 2008,,,OL11912136M,,0,,,,,1,,1,980859,pdf,F8A927890BC03783169FC24E75878C38,,,D:\\!genesis\\library.nu\\f8\\_171327.f8a927890bc03783169fc24e75878c38.pdf,0,2000-01-01 01:00:00,2016-04-03 02:51:08,446000/f8a927890bc03783169fc24e75878c38-d.jpg,,
21739644,"The Fire, the Star and the Cross: Minority Religions in Medieval and Early Modern Iran (International Library of Iranian Studies)",,,,Aptin Khanbaghi,2006,annotated edition,,,224,0,English,183,,до 2011-01,"1845110560,9781845110567,9781423787761",,,,,,,,,OL22722098M,,0,,,,0,0,,1,2602451,pdf,F88D997C881395F9E2C0D48ACDF65CA5,,,D:\\!genesis\\library.nu\\f8\\_171066.f88d997c881395f9e2c0d48acdf65ca5.pdf,0,2000-01-01 01:00:00,2016-04-03 02:51:08,446000/f88d997c881395f9e2c0d48acdf65ca5-d.jpg,,
21739645,Uncovering the Hidden Harvest: Valuation Methods for Woodland and Forest Resources (Earthscan People Plants International Conservation Series),,,,"Bruce M. Campbell, Marty Luckert",2001,,,,278,0,English,38,,до 2011-01,"1853838098,9781853838095,9781417522446",,,,,634.9/8,SD393 .U48 2001,,,OL3938021M,,0,,,,,1,,1,3044878,pdf,F80346FAA9C32B642E30A7D44701EA8A,,,D:\\!genesis\\library.nu\\f8\\_171011.f80346faa9c32b642e30a7d44701ea8a.pdf,0,2000-01-01 01:00:00,2016-04-03 02:51:08,446000/f80346faa9c32b642e30a7d44701ea8a-d.jpg,,
21739646,Boys of Few Words: Raising Our Sons to Communicate and Connect,,,,Adam J. Cox,2005,1,,,337,0,English,,,до 2011-01,"1593852185,9781593852184,9781593859534,9781593852085,1593852088",,,,,649/.132,HQ775 .C68 2006,,,OL3399944M,,0,,,,,1,,1,1063006,pdf,F8C1F5BEA6C5A2ADF450A071ED805B45,,,D:\\!genesis\\library.nu\\f8\\_170974.f8c1f5bea6c5a2adf450a071ed805b45.pdf,0,2000-01-01 01:00:00,2016-04-03 02:51:08,446000/f8c1f5bea6c5a2adf450a071ed805b45-d.jpg,,
21739647,The Fugitive Race: Minority Writers Resisting Whiteness,,,,Stephen P. Knadler,2002,,,,256,0,English,,,до 2011-01,"1578065062,9781578065066,9781417506989",,,,,810.9/920693,PS153.M56 K59 2002,,,OL3552512M,,0,,,,,1,,1,15511897,pdf,F892F645A3E746D73F854E989459A9A7,,,D:\\!genesis\\library.nu\\f8\\_170574.f892f645a3e746d73f854e989459a9a7.pdf,0,2000-01-01 01:00:00,2016-04-03 02:51:08,446000/f892f645a3e746d73f854e989459a9a7-d.jpg,,
21739648,Cool Careers for Girls in Construction,,,,Ceel Pasternak,2000,,,,125,0,English,236,,до 2011-01,"1570231354,9781570231353,9780585320793",,,,,624/.023,TH159 .P37 2000,,,OL23046740M,,0,,,,,1,,1,10202928,pdf,F8C8A73D6F72F9CA6305CC01F7F8B581,,,D:\\!genesis\\library.nu\\f8\\_170427.f8c8a73d6f72f9ca6305cc01f7f8b581.pdf,0,2000-01-01 01:00:00,2016-04-03 02:51:08,446000/f8c8a73d6f72f9ca6305cc01f7f8b581-d.jpg,,
21739649,"How to Cook a Dragon: Living, Loving, and Eating in China",,,,Linda Furiya,2008,Original,,,256,0,English,,,до 2011-01,"158005255X,9781580052559,9780786727063",,,,,"641.5092,B",TX649.F86 A3 2008,,,OL16871316M,,0,,,,,1,,1,2616666,pdf,F8F185143E3CA378C585848E2798787A,,,D:\\!genesis\\library.nu\\f8\\_170304.f8f185143e3ca378c585848e2798787a.pdf,0,2000-01-01 01:00:00,2016-04-03 02:51:08,446000/f8f185143e3ca378c585848e2798787a-d.jpg,,
21739650,Advances in Dendritic Macromolecules : 1995 (Advances in Dendritic Macromolecules) (Advances in Dendritic Macromolecules),,,,G.R. Newkome,1995,,,,216,0,English,178,,до 2011-01,"1559389397,9781559389396,9780080552651",,,,,,,,,OL12094536M,,0,,,,,1,,1,8144759,pdf,F828A1620A00EA688593EFD79A5E5F32,,,D:\\!genesis\\library.nu\\f8\\_170150.f828a1620a00ea688593efd79a5e5f32.pdf,0,2000-01-01 01:00:00,2016-04-03 02:51:08,446000/f828a1620a00ea688593efd79a5e5f32-d.jpg,,
21739651,Encyclopedia of the Undead: A Field Guide to Creatures That Cannot Rest in Peace,,,,Bob Curran,2009,,,,312,0,English,188,,до 2011-01,"1564148416,9781564148414,9781435659155",,,,,398/.45,GR830.V3 C87 2006,,,OL3430809M,,0,,,,,1,,1,6191190,pdf,F8C8FCC318964C697A6CD33911B87918,,,D:\\!genesis\\library.nu\\f8\\_170037.f8c8fcc318964c697a6cd33911b87918.pdf,0,2000-01-01 01:00:00,2016-04-03 02:51:08,446000/f8c8fcc318964c697a6cd33911b87918-d.jpg,,
21739652,The Education of a Typographer,,,,Steven Heller,2004,,,,256,0,English,183,,до 2011-01,"1581153481,9781581153484,9781581155273",,,,,686.2/2,Z250 .E295 2004,,,OL3289248M,,0,,,,,1,,1,2900750,pdf,F82EB6BE265783115439BBEA4912D287,,,D:\\!genesis\\library.nu\\f8\\_169930.f82eb6be265783115439bbea4912d287.pdf,0,2000-01-01 01:00:00,2016-04-03 02:51:08,446000/f82eb6be265783115439bbea4912d287-d.jpg,,
21739653,Computer Architecture And Organization,,,,Ian East,1990,1,,,416,0,English,69,,до 2011-01,"0273030388,9780273030386",,,,,4,QA76.5 .E37 1990,,,OL10285168M,,0,,,,1,0,,1,4495882,pdf,F847A81F360A37938F6ACA253A62D214,,,D:\\!genesis\\library.nu\\f8\\_169891.f847a81f360a37938f6aca253a62d214.pdf,0,2000-01-01 01:00:00,2016-04-03 02:51:08,446000/f847a81f360a37938f6aca253a62d214-d.jpg,,
21739654,"Can Lightning Strike the Same Place Twice?: And Other Questions About Earth, Weather, and the Environment (Is That a Fact?)",,,,Joanne Mattern,2010,,,,40,0,English,38,,до 2011-01,"0822590816,9780822590811",,,,,550,Q163 .M45 2010,,,OL23392104M,,0,,,,,1,1,1,13268205,pdf,F8AAD5F86BF220D33FA04B8F692CF5BE,,,D:\\!genesis\\library.nu\\f8\\_169078.f8aad5f86bf220d33fa04b8f692cf5be.pdf,0,2000-01-01 01:00:00,2016-04-03 02:51:08,446000/f8aad5f86bf220d33fa04b8f692cf5be-d.jpg,,
21739655,The Self and Its Emotions (Studies in Emotion and Social Interaction),,,,Kristjan Kristjansson,2010,,,,289,0,English,183,,до 2011-01,"0521114780,9780521114783",,,,,126,BF697 .K75 2010,,,OL23735914M,,0,,,,1,0,1,1,1418194,pdf,F87203A7AE73FDFCFD2F2D2AAB2D54BD,,,D:\\!genesis\\library.nu\\f8\\_168849.f87203a7ae73fdfcfd2f2d2aab2d54bd.pdf,0,2000-01-01 01:00:00,2016-04-03 02:51:08,446000/f87203a7ae73fdfcfd2f2d2aab2d54bd-d.jpg,,
21739656,Government and Research: Thirty Years of Evolution (Higher Education Dynamics),,,,"Maurice Kogan, Mary Henkel, Steve Hanney",2006,1,,,255,0,English,183,,до 2011-01,"1402044445,9781402044441,9781402044465",,,,,,,,,OL8371863M,,0,,,,,1,,1,1028207,pdf,F8EA168A710B3EE04798B361AFB335E7,,,D:\\!genesis\\library.nu\\f8\\_167899.f8ea168a710b3ee04798b361afb335e7.pdf,0,2000-01-01 01:00:00,2016-04-03 02:51:08,446000/f8ea168a710b3ee04798b361afb335e7-d.jpg,,
21739657,"Competing Visions of World Order: Global Moments and Movements, 1880s-1930s (Palgrave Macmillan Series in Transnational History)",,,,"Sebastian Conrad, Dominic Sachsenmaier",2007,First Edition,,,276,0,English,64,,до 2011-01,"140397988X,9781403979889,9780230604285",,,,,,,,,OL22754982M,,0,,,,,1,,1,1082854,pdf,F834241891AF82358D35F30570FF3514,,,D:\\!genesis\\library.nu\\f8\\_167849.f834241891af82358d35f30570ff3514.pdf,0,2000-01-01 01:00:00,2016-04-03 02:51:08,446000/f834241891af82358d35f30570ff3514-d.jpg,,
21739658,Chronicles Of Faith,,,,Martia Graham Goodson,1991,,,,240,0,English,,,до 2011-01,"0817304592,9780817304591,9780817382834",,,,,"378.1/11,B",LC2851.T817 P28 1991,,,OL2186809M,,0,,,,,1,,1,14978747,pdf,F810732F68878C01ED6ACE414F69F209,,,D:\\!genesis\\library.nu\\f8\\_167538.f810732f68878c01ed6ace414f69f209.pdf,0,2000-01-01 01:00:00,2016-04-03 02:51:08,446000/f810732f68878c01ed6ace414f69f209-g.jpg,,
21739659,The Conquests of Genghis Khan (Pivotal Moments in History),,,,Alison Behnke,2008,,,,160,0,English,64,,до 2011-01,"0822575191,9780822575191,9780761340256",,,,,950/.21,DS19 .B44 2008,,,OL11425869M,,0,,,,,1,,1,10194987,pdf,F80E04C6AB94488C33ECC989B86A341A,,,D:\\!genesis\\library.nu\\f8\\_167497.f80e04c6ab94488c33ecc989b86a341a.pdf,0,2000-01-01 01:00:00,2016-04-03 02:51:08,446000/f80e04c6ab94488c33ecc989b86a341a-d.jpg,,
21739660,Marion Butler and American Populism,,,,James L. Hunt,2003,1St Edition,,,352,0,English,,,до 2011-01,"0807827703,9780807827703,9780807862506",,,,,"328.73/092,B",E748.B8894 H86 2003,,,OL3555758M,,0,,,,,1,,1,2149891,pdf,F8BE08FAE51B77F48FA842951E7D7618,,,D:\\!genesis\\library.nu\\f8\\_166667.f8be08fae51b77f48fa842951e7d7618.pdf,0,2000-01-01 01:00:00,2016-04-03 02:51:08,446000/f8be08fae51b77f48fa842951e7d7618-d.jpg,,
21739661,The Innovation Killer: How What We Know Limits What We Can Imagine -- and What Smart Companies Are Doing About It,,,,Cynthia Barton Rabe,2006,,,,240,0,English,137,,до 2011-01,"0814408834,9780814408834,9780814429624",,,,,,,,,OL8043087M,,0,,,,,1,,1,1176730,pdf,F85E6FDAEB47020C649D8C008C092147,,,D:\\!genesis\\library.nu\\f8\\_166603.f85e6fdaeb47020c649d8c008c092147.pdf,0,2000-01-01 01:00:00,2016-04-03 02:51:08,446000/f85e6fdaeb47020c649d8c008c092147-d.jpg,,
21739662,A Nation within a Nation: Amiri Baraka  (LeRoi Jones) and Black Power Politics,,,,Komozi Woodard,1999,,,,352,0,English,192,,до 2011-01,"0807824577,9780807824573,9780807876176",,,,,"818/.5409,B",E185.97.B23 W66 1999,,,OL362632M,,0,,,,,1,,1,29987766,pdf,F84093784BF44E9ECE6B118FEB523E0C,,,D:\\!genesis\\library.nu\\f8\\_166482.f84093784bf44e9ece6b118feb523e0c.pdf,0,2000-01-01 01:00:00,2016-04-03 02:51:08,446000/f84093784bf44e9ece6b118feb523e0c-d.jpg,,
21739663,"Resurgent Voices in Latin America: Indigenous Peoples, Political Mobilization, and Religious Change",,,,"Edward L. Cleary, Timothy J. Steigenga",2003,,,,280,0,English,205,,до 2011-01,"0813534607,9780813534602,9780813536392",,,,,,,,,OL9343498M,,0,,,,,1,,1,861697,pdf,F8979768E5B84B854E3B936B5D4325EF,,,D:\\!genesis\\library.nu\\f8\\_165999.f8979768e5b84b854e3b936b5d4325ef.pdf,0,2000-01-01 01:00:00,2016-04-03 02:51:08,446000/f8979768e5b84b854e3b936b5d4325ef-d.jpg,,
21739664,"Eastertown: A Novel (Literature of the American West, V. 11)",,,,Max Crawford,2003,,,,446,0,English,108,,до 2011-01,"0806134879,9780806134871,9780806179759",,,,,813/.54,PS3553.R293 E19 2003,,,OL22531724M,,0,,,,,1,,1,1209841,pdf,F8B0F6FA229BAE2B4A00ADB7BF248503,,,D:\\!genesis\\library.nu\\f8\\_165981.f8b0f6fa229bae2b4a00adb7bf248503.pdf,0,2000-01-01 01:00:00,2016-04-03 02:51:08,446000/f8b0f6fa229bae2b4a00adb7bf248503-d.jpg,,
21739665,"State Formation: Anthropological Perspectives (Anthropology, Culture and Society)",,,,"Christian Krohn-Hansen, Knut G. Nustad",2005,,,,280,0,English,14,,до 2011-01,"074532441X,9780745324418,0745324428,9780745324425",,,,,306.2,GN492 .S83 2002,,,OL22715459M,,0,,,,,1,,1,885676,pdf,F889C038F6B3615EFECC2F93B8DC1F92,,,D:\\!genesis\\library.nu\\f8\\_165339.f889c038f6b3615efecc2f93b8dc1f92.pdf,0,2000-01-01 01:00:00,2016-04-03 02:51:08,446000/f889c038f6b3615efecc2f93b8dc1f92-d.jpg,,
21739666,Taiwan (Modern World Nations),,,,Christopher L. Salter,2004,,,,116,0,English,,,до 2011-01,"0791079147,9780791079140,9781438105444",,,,,,,,,OL11149097M,,0,,,,,1,,1,3423142,pdf,F84026DB4AC6C183291C914A16289D46,,,D:\\!genesis\\library.nu\\f8\\_165328.f84026db4ac6c183291c914a16289d46.pdf,0,2000-01-01 01:00:00,2016-04-03 02:51:08,446000/f84026db4ac6c183291c914a16289d46-d.jpg,,
21739667,Thomas More: And His Struggles of Conscience (Makers of the Middle Ages and Renaissance),,,,Samuel Willard Crompton,2006,,,,140,0,English,64,,до 2011-01,"0791086364,9780791086360,9781438104232",,,,,"942.05/2/092,B",DA334.M8 C86 2005,,,OL3393248M,,0,,,,,1,,1,5312838,pdf,F8CE44F01765702775DA5524329FAE43,,,D:\\!genesis\\library.nu\\f8\\_165206.f8ce44f01765702775da5524329fae43.pdf,0,2000-01-01 01:00:00,2016-04-03 02:51:08,446000/f8ce44f01765702775da5524329fae43-d.jpg,,
21739668,Senegal (Modern World Nations),,,,"Janet H. Gritzner, Charles F. Gritzner",2005,,,,126,0,English,,,до 2011-01,"0791080234,9780791080238,9781438105390",,,,,966.3,DT549.22 .G75 2005,,,OL3294058M,,0,,,,,1,,1,4394981,pdf,F8706016CACC3520525007C21FEC3E24,,,D:\\!genesis\\library.nu\\f8\\_165015.f8706016cacc3520525007c21fec3e24.pdf,0,2000-01-01 01:00:00,2016-04-03 02:51:08,446000/f8706016cacc3520525007c21fec3e24-d.jpg,,
21739669,The Integration of Major League Baseball: A Team by Team History,,,,Rick Swaine,2009,,,,279,0,English,64,,до 2011-01,"0786439033,9780786439034,9780786453344",,,,,796.357093,GV863.A1 S95 2009,,,OL23055320M,,0,,,,,1,,1,3487918,pdf,F830E53650412FAC3E5E2ED73DC39619,,,D:\\!genesis\\library.nu\\f8\\_164920.f830e53650412fac3e5e2ed73dc39619.pdf,0,2000-01-01 01:00:00,2016-04-03 02:51:08,446000/f830e53650412fac3e5e2ed73dc39619-d.jpg,,
21739670,Reading Virginia Woolf,,,,Julia Briggs,2006,,,,240,0,English,,,до 2011-01,"9780748624348,0748624341,074862435X,9780748624355,9780748626953",,,,,,,,,OL22731582M,,0,,,,,1,,1,717058,pdf,F81E746F207C7E445577B9C7C0DFD6E7,,,D:\\!genesis\\library.nu\\f8\\_164706.f81e746f207c7e445577b9c7c0dfd6e7.pdf,0,2000-01-01 01:00:00,2016-04-03 02:51:08,446000/f81e746f207c7e445577b9c7c0dfd6e7-d.jpg,,
21739671,The Red Badge of Courage (Webster's Chinese-Traditional Thesaurus Edition),,,,Stephen Crane,2006,,,,176,0,English,322,,до 2011-01,"0497901846,9780497901844",,,,,,,,,,,0,,,,,1,,1,1676509,pdf,F874B2FD0D0E918058A22AD143DECCA4,,,D:\\!genesis\\library.nu\\f8\\_164635.f874b2fd0d0e918058a22ad143decca4.pdf,0,2000-01-01 01:00:00,2016-04-03 02:51:08,446000/f874b2fd0d0e918058a22ad143decca4-d.jpg,,
21739672,Evidence and Evolution: The Logic Behind the Science,,,,Elliott Sober,2008,1,,,412,0,English,130,,до 2011-01,"0521871883,9780521871884,9780511395048,9780521692748,0521692741,9780511393686",,,,,576.8,QH360.5 .S625 2008,,,OL10436547M,,0,,,,,1,,1,1745520,pdf,F8295B3301584CF7B0A0167069C020FB,,,D:\\!genesis\\library.nu\\f8\\_164591.f8295b3301584cf7b0a0167069c020fb.pdf,0,2000-01-01 01:00:00,2016-04-03 02:51:08,446000/f8295b3301584cf7b0a0167069c020fb-d.jpg,,
21739673,"The Final Victim of the Blacklist: John Howard Lawson, Dean of the Hollywood Ten",,,,Gerald Horne,2006,1,,,384,0,English,313,,до 2011-01,"0520248600,9780520248601,9781429408219,0520243722,9780520243729",,,,,,,,,OL22751407M,,0,,,,,1,,1,1585453,pdf,F8E2B6186125F896998E54DC669A5CAE,,,D:\\!genesis\\library.nu\\f8\\_164571.f8e2b6186125f896998e54dc669a5cae.pdf,0,2000-01-01 01:00:00,2016-04-03 02:51:08,446000/f8e2b6186125f896998e54dc669a5cae-d.jpg,,
21739674,Post-Mortem: Justice at Last for Yvette Budram,,,,Jon Wells,2009,1,,,288,0,English,,,до 2011-01,"0470155477,9780470155479",,,,,,,,,,,0,,,,,1,,1,3575512,pdf,F876DACABC81B6C79CBEA8F42BB58F6D,,,D:\\!genesis\\library.nu\\f8\\_163840.f876dacabc81b6c79cbea8f42bb58f6d.pdf,0,2000-01-01 01:00:00,2016-04-03 02:51:08,446000/f876dacabc81b6c79cbea8f42bb58f6d-d.jpg,,
21739675,Squawk!: How to Stop Making Noise and Start Getting Results,,,,Travis Bradberry,2008,1,HarperCollins Publishers,,140,0,English,,,до 2011-01,"0061562343,9780061562341,9780061701184",,,,,658,HD30.3 .B686 2008,,,OL19141761M,,0,,,,0,0,,1,6435201,pdf,F8BBADD73BFCD5DF4D66C01BC53823AB,,,D:\\!genesis\\library.nu\\f8\\_1637.f8bbadd73bfcd5df4d66c01bc53823ab.pdf,0,2000-01-01 01:00:00,2016-04-03 02:51:08,446000/f8bbadd73bfcd5df4d66c01bc53823ab-d.jpg,,
21739676,Eating Disorders For Dummies (For Dummies (Health & Fitness)),,,,Susan Schulherr,2008,1,,,384,0,English,187,,до 2011-01,"0470225491,9780470225493,9780470379363",,,,,616.8526,RC552.E18 S38 2008,,,OL10295110M,,0,,,,,,,1,2126902,pdf,F808D24898D4EC694CDE9FFDAF3DBFDF,,,D:\\!genesis\\library.nu\\f8\\_163466.f808d24898d4ec694cde9ffdaf3dbfdf.pdf,0,2000-01-01 01:00:00,2016-04-03 02:51:08,446000/f808d24898d4ec694cde9ffdaf3dbfdf-d.jpg,,
21739677,Connections: Patterns of Discovery,,,,"H. Peter Alesso, Craig F. Smith",2008,1,,,224,0,English,,,до 2011-01,"0470118814,9780470118818,9780470191521",,,,,4,T58.5 .A54 2008,,,OL10279582M,,0,,,,,1,,1,1089133,pdf,F8F88C3C68551CF29CB02A1F9368477A,,,D:\\!genesis\\library.nu\\f8\\_163338.f8f88c3c68551cf29cb02a1f9368477a.pdf,0,2000-01-01 01:00:00,2016-04-03 02:51:08,446000/f8f88c3c68551cf29cb02a1f9368477a-d.jpg,,
21739678,Marine Ecologonomics: The Ecology and Economics of Marine Natural Resources Management,,Developments in Environmental Economics 6,,Aleksandr V. Souvorov (Eds.),1999,1,"Elsevier, Academic Press",,1-218,0,English,305,,до 2011-01,"0444826599,9780444826596,9780080535814",0927-5207,,,,,,,,OL9366226M,,0,,,,,1,,1,13204492,pdf,F88ABA27D61F8E0225AA5A28B1C47822,,,D:\\!genesis\\library.nu\\f8\\_162948.f88aba27d61f8e0225aa5a28b1c47822.pdf,0,2000-01-01 01:00:00,2016-04-03 02:51:08,446000/f88aba27d61f8e0225aa5a28b1c47822-d.jpg,,
21739679,Numerical Modelling of Marine Hydrodynamics: Applications to Dynamic Physical Processes,,Elsevier Oceanography Series 26,,Hans-Gerhard Ramming and Zygmunt Kowalik (Eds.),1978,,"Elsevier, Academic Press",,"ii-xii, 1-368",0,English,120,,до 2011-01,"0444418490,9780444418494,9780080870632",0422-9894,,,,551.4/7/00184,GC203 .R35,,,OL4419880M,,0,,,,,1,,1,11774012,pdf,F85493D8445A8C5B080FD3BCAF60E7AD,,,D:\\!genesis\\library.nu\\f8\\_162507.f85493d8445a8c5b080fd3bcaf60e7ad.pdf,0,2000-01-01 01:00:00,2016-04-03 02:51:08,446000/f85493d8445a8c5b080fd3bcaf60e7ad-d.jpg,,
21739680,Soliton Management in Periodic Systems,,,,Boris A. Malomed,2005,1,,,192,0,English,,,до 2011-01,"0387256350,9780387256351,9780387293349",,,,,,,,,OL7444841M,,0,,,,,1,,1,10009092,pdf,F89E8D198DD0590F8AF18151C114F7A0,,,D:\\!genesis\\library.nu\\f8\\_162279.f89e8d198dd0590f8af18151c114f7a0.pdf,0,2000-01-01 01:00:00,2016-04-03 02:51:08,446000/f89e8d198dd0590f8af18151c114f7a0-d.jpg,,
21739681,Religion in Schools: Controversies around the World (Greenwood Folklore Handbooks S),,,,R. Murray Thomas,2006,,,,248,0,English,205,,до 2011-01,"0275990613,9780275990619,9780313080951",,,,,,,,,OL9740885M,,0,,,,,1,,1,1394340,pdf,F85CAD299FBC25D85818AE9DF26928C7,,,D:\\!genesis\\library.nu\\f8\\_162160.f85cad299fbc25d85818ae9df26928c7.pdf,0,2000-01-01 01:00:00,2016-04-03 02:51:08,446000/f85cad299fbc25d85818ae9df26928c7-d.jpg,,
21739682,"The Butlerian Jihad (Legends of Dune, Book 1)",,,,Brian Herbert Kevin J. Anderson,2002,1,,,624,0,English,,,до 2011-01,"0765301571,9780765301574",,,,,813/.54,PS3558.E617 D89 2003,,,OL3562132M,,0,,,,,1,,,624547,lit,F813EF0B55006BF8ADDFA0EE0426FC4C,,,D:\\!genesis\\library.nu\\f8\\_16182.f813ef0b55006bf8addfa0ee0426fc4c.lit,0,2000-01-01 01:00:00,2016-04-03 02:51:08,446000/f813ef0b55006bf8addfa0ee0426fc4c-d.jpg,,
21739683,"Maya Intellectual Renaissance: Identity, Representation, and Leadership (Linda Schele Series in Maya and Pre-Columbian Studies)",,,,Victor D. Montejo,2005,,,,260,0,English,183,,до 2011-01,"0292709390,0292706847,9780292706842,9780292709393,9780292797055",,,,,,,,,OL9449734M,,0,,,,,1,,1,2246055,pdf,F857D790AA4D8BE31D340FB26728A971,,,D:\\!genesis\\library.nu\\f8\\_161785.f857d790aa4d8be31d340fb26728a971.pdf,0,2000-01-01 01:00:00,2016-04-03 02:51:08,446000/f857d790aa4d8be31d340fb26728a971-d.jpg,,
21739684,"Before They Could Vote: American Women's Autobiographical Writing, 1819-1919 (Wisconsin Studies in Autobiography)",,,,"Sidonie A. Smith, Julia Watson",2006,1,,,470,0,English,64,,до 2011-01,"0299220508,9780299220501,9780299220532",,,,,,,,,OL10317293M,,0,,,,,1,,1,1219660,pdf,F88076A09F5556B5D76A5F80313339C1,,,D:\\!genesis\\library.nu\\f8\\_161492.f88076a09f5556b5d76a5f80313339c1.pdf,0,2000-01-01 01:00:00,2016-04-03 02:51:08,446000/f88076a09f5556b5d76a5f80313339c1-d.jpg,,
21739685,Managing Water Resources: Past and Present: The Linacre Lectures 2002,,,,"Julie Trottier, Paul Slack",2005,,,,186,0,English,7,,до 2011-01,"0199267642,9780199267644,9781435610040",,,,,,,,,OL15597509M,,0,,,,,1,,1,10998915,pdf,F86CF2F5F0FBFCAE6E9231CAE564ED94,,,D:\\!genesis\\library.nu\\f8\\_161259.f86cf2f5f0fbfcae6e9231cae564ed94.pdf,0,2000-01-01 01:00:00,2016-04-03 02:51:08,446000/f86cf2f5f0fbfcae6e9231cae564ed94-d.jpg,,
21739686,The Tenth Muse: Writing about Cinema in the Modernist Period,,,,Laura Marcus,2008,,,,584,0,English,60,,до 2011-01,"0199230277,9780199230273,9780191528088",,,,,791.43015,PN1995 .M2755 2007,,,OL10146032M,,0,,,,,1,,1,3940314,pdf,F8769BDA799B7732319A45C5A14AF491,,,D:\\!genesis\\library.nu\\f8\\_161178.f8769bda799b7732319a45c5a14af491.pdf,0,2000-01-01 01:00:00,2016-04-03 02:51:08,446000/f8769bda799b7732319a45c5a14af491-d.jpg,,
21739687,Reconstructing Evolution: New Mathematical and Computational Advances,,,,"Olivier Gascuel, Mike Steel",2007,First Edition,,,300,0,English,236,,до 2011-01,"0199208220,9780199208227,9781429498562",,,,,576.8015118,QH371.3.M37 R436 2007,,,OL10145608M,,0,,,,,1,,1,3539756,pdf,F864F4081CB76C8D43A0D349E183B568,,,D:\\!genesis\\library.nu\\f8\\_161121.f864f4081cb76c8d43a0d349e183b568.pdf,0,2000-01-01 01:00:00,2016-04-03 02:51:08,446000/f864f4081cb76c8d43a0d349e183b568-d.jpg,,
21739688,Family Talk: Discourse and Identity in Four American Families,,,,"Deborah Tannen, Shari Kendall, Cynthia Gordon",2007,,,,344,0,English,41,,до 2011-01,"0195313887,9780195313888,9781435605909",,,,,,,,,OL7392954M,,0,,,,,1,,1,987664,pdf,F888C03A834497008F4B80035C445816,,,D:\\!genesis\\library.nu\\f8\\_160593.f888c03a834497008f4b80035c445816.pdf,0,2000-01-01 01:00:00,2016-04-03 02:51:08,446000/f888c03a834497008f4b80035c445816-d.jpg,,
21739689,"Microeconomics: Optimization, Experiments, and Behavior",,,,John P. Burkett,2006,,,,352,0,English,305,,до 2011-01,"0195189620,9780195189629",,,,,338.5,HB172 .B875 2006,,,OL3427178M,,0,,,,,1,,1,1774023,pdf,F8CEAA8A08B04F432B19B5CA589C91EE,,,D:\\!genesis\\library.nu\\f8\\_160411.f8ceaa8a08b04f432b19b5ca589c91ee.pdf,0,2000-01-01 01:00:00,2016-04-03 02:51:08,446000/f8ceaa8a08b04f432b19b5ca589c91ee-d.jpg,,
21739690,Reflections on Human Development,,,,Mahbub ul Haq,1995,,,,288,0,English,,,до 2011-01,"0195101936,9780195101935,9781423759287",,,,,306.3,HN25 .H364 1995,,,OL782453M,,0,,,,,1,,1,13170433,pdf,F89649C177806A0D019287E65099945A,,,D:\\!genesis\\library.nu\\f8\\_160244.f89649c177806a0d019287e65099945a.pdf,0,2000-01-01 01:00:00,2016-04-03 02:51:08,446000/f89649c177806a0d019287e65099945a-d.jpg,,
21739691,The Planetary Scientist's Companion,,,,"Katharina Lodders, Bruce Fegley",1998,,,,400,0,English,,,до 2011-01,"0195116941,9780195116946,9781423759836",,,,,523.2,QB601 .L84 1998,,,OL700200M,,0,,,,,1,,1,12448022,pdf,F8F768AA0CFB0289C3387D5F4F3A226D,,,D:\\!genesis\\library.nu\\f8\\_159969.f8f768aa0cfb0289c3387d5f4f3a226d.pdf,0,2000-01-01 01:00:00,2016-04-03 02:51:08,446000/f8f768aa0cfb0289c3387d5f4f3a226d-d.jpg,,
21739692,The Raft of Odysseus: The Ethnographic Imagination of Homer's Odyssey,,,,Carol Dougherty,2001,,,,256,0,English,59,,до 2011-01,"0195130367,9780195130362,9780195351453",,,,,883/.01,PA4167 .D68 2001,,,OL6785500M,,0,,,,,1,,1,13233107,pdf,F8F69B5B5BAEAE4683F2D25CCD8EC59F,,,D:\\!genesis\\library.nu\\f8\\_159798.f8f69b5b5baeae4683f2d25ccd8ec59f.pdf,0,2000-01-01 01:00:00,2016-04-03 02:51:08,446000/f8f69b5b5baeae4683f2d25ccd8ec59f-d.jpg,,
21739693,"The Voyage of the 'Dawn Treader' (The Chronicles of Narnia, Book 5)",,,,C. S. Lewis,1994,,,,195,0,English,,,до 2011-01,"0064405028,9780064405027",,,,,,,,,,,0,,,,0,0,,1,3915726,pdf,F8966538393AF05ABAC61E82259BEACA,,,D:\\!genesis\\library.nu\\f8\\_159271.f8966538393af05abac61e82259beaca.pdf,0,2000-01-01 01:00:00,2016-04-03 02:51:08,446000/f8966538393af05abac61e82259beaca-d.jpg,,
21739694,Untouched,,,,Anna Campbell,2007,,,,384,0,English,,,до 2011-01,"0061234923,9780061234927,9780061554018",,,,,,,,,OL24247569M,,0,,,,,1,,1,1469982,pdf,F8FFE1CD0941D74F4D86AB70CD4B2A84,,,D:\\!genesis\\library.nu\\f8\\_159244.f8ffe1cd0941d74f4d86ab70cd4b2a84.pdf,0,2000-01-01 01:00:00,2016-04-03 02:51:08,446000/f8ffe1cd0941d74f4d86ab70cd4b2a84-d.jpg,,
21739695,The Analysis of Burned Human Remains,,,,"Christopher W. Schmidt, Steven Symes",2008,1,,,296,0,English,117,,до 2011-01,"9780080559285,9780123725103,0123725100",,,,,,,,,OL10071930M,,0,,,,,1,,1,17460265,pdf,F8EF09A734ACA70760251E4838A7ABB3,,,D:\\!genesis\\library.nu\\f8\\_159211.f8ef09a734aca70760251e4838a7abb3.pdf,0,2000-01-01 01:00:00,2016-04-03 02:51:08,446000/f8ef09a734aca70760251e4838a7abb3-d.jpg,,
21739696,"Exploring Complementary and Alternative Medicine (The Richard and Hinda Rosenthal Lectures, 2001)",,,,Institute of Medicine,2003,,,,52,0,English,137,,до 2011-01,"0309085039,9780309085038,9780309500920",,,,,615/.328,R733 .I563 2003,,,OL3706948M,,0,,,,,1,,1,1717176,pdf,F85498351837F9FF7A91F19D739A3BC0,,,D:\\!genesis\\library.nu\\f8\\_15888.f85498351837f9ff7a91f19d739a3bc0.pdf,0,2000-01-01 01:00:00,2016-04-03 02:51:08,446000/f85498351837f9ff7a91f19d739a3bc0-d.jpg,,
21739697,"Rich and Thin: How to Slim Down, Shrink Debt, and Turn Calories Into Cash",,,,"Deborah McNaughton, Melinda Weinstein",2007,1,,,200,0,English,,,до 2011-01,"0071494146,9780071494144,9780071510578",,,,,332.024,HG179 .M2515 2007,10.1036/0071494146,,OL17564523M,,0,,,,,1,,1,1202804,pdf,F868F653B5EEE9D7BF82944B69AD7146,,,D:\\!genesis\\library.nu\\f8\\_158874.f868f653b5eee9d7bf82944b69ad7146.pdf,0,2000-01-01 01:00:00,2016-04-03 02:51:08,446000/f868f653b5eee9d7bf82944b69ad7146-d.jpg,,
21739698,Gallium Arsenide Ic Applications Handbook,,,,"Dennis G. Fisher, I. J. Bahl",1995,,,,369,0,English,137,,до 2011-01,"0122577353,9780122577352,9780080532295",,,,,621.381/32,TK7876 .G35 1995,,,OL794888M,,0,,,,,1,,1,30150520,pdf,F80F6C4E62AACB105552EF520F544682,,,D:\\!genesis\\library.nu\\f8\\_158638.f80f6c4e62aacb105552ef520f544682.pdf,0,2000-01-01 01:00:00,2016-04-03 02:51:08,446000/f80f6c4e62aacb105552ef520f544682-d.jpg,,
21739699,"Canoe and Kayak Building the Light and Easy Way: How to Build Tough, Super-Safe Boats in Kevlar, Carbon, or Fiberglass",,,,Sam Rizzetta,2009,1,,,256,0,English,248,,до 2011-01,"0071597352,9780071597357,9780071597364",,,,,623.82/9,VM353 .R59 2009,,,OL22685238M,,0,,,,,1,,1,17109990,pdf,F81883959AB3C6B0B2CB3E356A28B5AF,,,D:\\!genesis\\library.nu\\f8\\_1582.f81883959ab3c6b0b2cb3e356a28b5af.pdf,0,2000-01-01 01:00:00,2016-04-03 02:51:08,446000/f81883959ab3c6b0b2cb3e356a28b5af-d.jpg,,
21739700,The Upper Class,,,,"Hobson Brown, Taylor Materne, Caroline Says",2007,,,,288,0,English,,,до 2011-01,"0060850825,9780060850821,9780061831805",,,,,,,,,OL23125759M,,0,,,,,1,,1,1137443,pdf,F81FA5721EED61CB82912E747AE1F8FE,,,D:\\!genesis\\library.nu\\f8\\_158143.f81fa5721eed61cb82912e747ae1f8fe.pdf,0,2000-01-01 01:00:00,2016-04-03 02:51:08,446000/f81fa5721eed61cb82912e747ae1f8fe-d.jpg,,
21739701,Surgical Consent: Bioethics and Cochlear Implantation,,,,Linda Komesaroff,2007,1st,,,208,0,English,18,,до 2011-01,"1563683490,9781563683497,9781563683879",,,,,174/.96178822,RF305 .S85 2007,,,OL12136444M,,0,,,,,1,,1,676171,pdf,F87EB6AF8C55E8D1D666E64813807387,,,D:\\!genesis\\library.nu\\f8\\_157584.f87eb6af8c55e8d1d666e64813807387.pdf,0,2000-01-01 01:00:00,2016-04-03 02:51:08,446000/f87eb6af8c55e8d1d666e64813807387-d.jpg,,
21739702,"Narratives of Place, Culture and Identity",,,,Anastasia Christou,2006,,,,264,0,English,,,до 2011-01,"9781429472661,9789053568781,9053568786",,,,,,,,,OL12808348M,,0,,,,,1,,1,1053918,pdf,F80A603590FF7BED19154B2D94CB0705,,,D:\\!genesis\\library.nu\\f8\\_157170.f80a603590ff7bed19154b2d94cb0705.pdf,0,2000-01-01 01:00:00,2016-04-03 02:51:08,446000/f80a603590ff7bed19154b2d94cb0705-d.jpg,,
21739703,The Death of Christian Culture,,,,John Senior,2008,,,,192,0,English,205,,до 2011-01,"1932528156,9781932528152,9781932528510",,,,,261.5,BR115.C5 S46 2008,,,OL16882033M,,0,,,,,1,,1,2053021,pdf,F8B96E19CEFD67B54D57398507B47500,,,D:\\!genesis\\library.nu\\f8\\_157151.f8b96e19cefd67b54d57398507b47500.pdf,0,2000-01-01 01:00:00,2016-04-03 02:51:08,446000/f8b96e19cefd67b54d57398507b47500-d.jpg,,
21739704,El fraude de subvenciones de la union Europea (Spanish Edition),,,,Javier Valls Prieto,2009,,,,256,0,Spanish,,,до 2011-01,"9788497726894,8497726898",,,,,,,,,,,0,,,,,1,,1,845985,pdf,F8AA6C4CF2EAA6811F8748C35F46AA0C,,,D:\\!genesis\\library.nu\\f8\\_157114.f8aa6c4cf2eaa6811f8748c35f46aa0c.pdf,0,2000-01-01 01:00:00,2016-04-03 02:51:08,446000/f8aa6c4cf2eaa6811f8748c35f46aa0c-d.jpg,,
21739705,Isaiah Berlin: A Value Pluralist and Humanist View of Human Nature and the Meaning of Life (Currents of Encounter 27) (Currents of Encounter: Studies on the Contact Between Christ),,,,Connie Aarsbergen-Ligtvoet,2006,,,,210,0,English,183,,до 2011-01,"9042019298,9789042019294,9781423790884",,,,,,,,,OL22730508M,,0,,,,,1,,1,642527,pdf,F8BE13E479B2C3FB74D0F94DD5A91F81,,,D:\\!genesis\\library.nu\\f8\\_156986.f8be13e479b2c3fb74d0f94dd5a91f81.pdf,0,2000-01-01 01:00:00,2016-04-03 02:51:08,446000/f8be13e479b2c3fb74d0f94dd5a91f81-d.jpg,,
21739706,A Pipe for February: A Novel (American Indian Literature and Critical Studies Series),,,,Charles H. Red Corn,2002,,,,270,0,English,183,,до 2011-01,"0806134542,9780806134543,9780806180380",,,,,813/.6,PS3618.E426 P57 2002,,,OL3558766M,,0,,,,,1,,1,657470,pdf,F8C36C2C1100D58543C080BEFB8A0CDD,,,D:\\!genesis\\library.nu\\f8\\_156712.f8c36c2c1100d58543c080befb8a0cdd.pdf,0,2000-01-01 01:00:00,2016-04-03 02:51:08,446000/f8c36c2c1100d58543c080befb8a0cdd-d.jpg,,
21739707,Free School Teaching: A Journey into Radical Progressive Education,,,,Kristan Accles Morrison,2007,1,,,187,0,English,183,,до 2011-01,"0791471470,9780791471470,9781429498302",,,,,,,,,OL11150352M,,0,,,,,1,,1,979134,pdf,F8A12C09E84607E8C9BC0D63A5E0DFDB,,,D:\\!genesis\\library.nu\\f8\\_156651.f8a12c09e84607e8c9bc0d63a5e0dfdb.pdf,0,2000-01-01 01:00:00,2016-04-03 02:51:08,446000/f8a12c09e84607e8c9bc0d63a5e0dfdb-d.jpg,,
21739708,"Lost in the Lights: Sports, Dreams, and Life",,,,Paul Hemphill,2003,1,,,192,0,English,,,до 2011-01,"9780817313166,0817313168,9780817382841",,,,,813/.54,PS3558.E4793 L67 2003,,,OL22525396M,,0,,,,,1,,1,643283,pdf,F81DE3039E24C6990C0A405E95367C00,,,D:\\!genesis\\library.nu\\f8\\_156619.f81de3039e24c6990c0a405e95367c00.pdf,0,2000-01-01 01:00:00,2016-04-03 02:51:08,446000/f81de3039e24c6990c0a405e95367c00-g.jpg,,
21739709,Tolerance and Empathy in Today's Classroom: Building Positive Relationships within the Citizenship Curriculum for 9 to 14 Year Olds (Lucky Duck Books),,,,Andrew Hammond,2006,Pap/Cdr,,,208,0,English,,,до 2011-01,"1412913071,141291308X,9781412913089,9781847878489",,,,,,,,,OL9731105M,,0,,,,,1,,1,926321,pdf,F8E60CA4B7DEB927BE4ADE535B7F0DAB,,,D:\\!genesis\\library.nu\\f8\\_156537.f8e60ca4b7deb927be4ade535b7f0dab.pdf,0,2000-01-01 01:00:00,2016-04-03 02:51:08,446000/f8e60ca4b7deb927be4ade535b7f0dab-d.jpg,,
21739710,Life Under Slavery (Slavery in the Americas),,,,Deborah H. Deford,2006,,,,112,0,English,,,до 2011-01,"0816061351,9780816061358,9781438106519",,,,,306.3/620973,E443 .D44 2006,,,OL3418304M,,0,,,,,1,,1,3271907,pdf,F8DFB8E7313766D31148D33AADCD9501,,,D:\\!genesis\\library.nu\\f8\\_156063.f8dfb8e7313766d31148d33aadcd9501.pdf,0,2000-01-01 01:00:00,2016-04-03 02:51:08,446000/f8dfb8e7313766d31148d33aadcd9501-d.jpg,,
21739711,Drop-Dead Blonde,,,,"Nancy Martin, Elaine Viets, Denise Swanson, Victoria Laurie",2005,First Thus,,,352,0,English,,,до 2011-01,"0451214447,9780451214447,9780786561957",,,,,,,,,OL3475519M,,0,,,,,1,,1,962570,pdf,F854937832ABB42C991E596C38A592C5,,,D:\\!genesis\\library.nu\\f8\\_155577.f854937832abb42c991e596c38a592c5.pdf,0,2000-01-01 01:00:00,2016-04-03 02:51:08,446000/f854937832abb42c991e596c38a592c5-d.jpg,,
21739712,"Ataxia-Telangiectasia - A Bibliography and Dictionary for Physicians, Patients, and Genome Researchers",,,,Philip M. Parker,2007,,,,178,0,English,132,,до 2011-01,"0497113368,9780497113360,9781429496018",,,,,,,,,,,0,,,,,1,,1,1429681,pdf,F8165939FA2C66784F86B9768824EDF2,,,D:\\!genesis\\library.nu\\f8\\_155566.f8165939fa2c66784f86b9768824edf2.pdf,0,2000-01-01 01:00:00,2016-04-03 02:51:08,446000/f8165939fa2c66784f86b9768824edf2-d.jpg,,
21739713,"Prader-Willi Syndrome - A Bibliography and Dictionary for Physicians, Patients, and Genome Researchers",,,,Philip M. Parker,2007,,,,170,0,English,132,,до 2011-01,"0497112787,9780497112783,9781429496605",,,,,,,,,,,0,,,,,1,,1,1395798,pdf,F87C36A93101DADCCBBF10F9E9F9DDF0,,,D:\\!genesis\\library.nu\\f8\\_155533.f87c36a93101dadccbbf10f9e9f9ddf0.pdf,0,2000-01-01 01:00:00,2016-04-03 02:51:08,446000/f87c36a93101dadccbbf10f9e9f9ddf0-d.jpg,,
21739714,The Value-Added Employee: 31 Competencies to Make Yourself Irresistible to Any Company,,,,"EDWARD J. CRIPE, Richard S. Mansfield",2001,2,,,194,0,English,137,,до 2011-01,"0750674512,9780750674515,9780080520391",,,,,,,,,OL9540400M,,0,,,,,1,,1,1341176,pdf,F8FD411EDF5DB79AD31A1417C8D6A343,,,D:\\!genesis\\library.nu\\f8\\_155477.f8fd411edf5db79ad31a1417c8d6a343.pdf,0,2000-01-01 01:00:00,2016-04-03 02:51:08,446000/f8fd411edf5db79ad31a1417c8d6a343-d.jpg,,
21739715,Thus Spoke Zarathustra (Cambridge Texts in the History of Philosophy),,,,Friedrich Nietzsche,2006,,,,316,0,English,64,,до 2011-01,"9780521602617,0521602610,0521841712,9780521841719",,,,,,,,,OL17200635M,,0,,,,,1,,1,838009,pdf,F869AEB5B1F9E2F19B54774EBF84943A,,,D:\\!genesis\\library.nu\\f8\\_155061.f869aeb5b1f9e2f19b54774ebf84943a.pdf,0,2000-01-01 01:00:00,2016-04-03 02:51:08,446000/f869aeb5b1f9e2f19b54774ebf84943a-d.jpg,,
21739716,Regression With Social Data: Modeling Continuous and Limited Response Variables (Wiley Series in Probability and Statistics),,,,Alfred DeMaris,2004,1,,,560,0,English,116,,до 2011-01,"0471223379,9780471223375,9780471677550",,,,,,,,,OL22600201M,,0,,,,,1,1,1,4964951,pdf,F8F2A9E8073079881D8CDCC2C8FBA39A,,,D:\\!genesis\\library.nu\\f8\\_15478.f8f2a9e8073079881d8cdcc2c8fba39a.pdf,0,2000-01-01 01:00:00,2016-04-03 02:51:08,446000/f8f2a9e8073079881d8cdcc2c8fba39a-d.jpg,,
21739717,Telling the Little Secrets: American Jewish Writing since the 1980s,,,,Janet Handler Burstein,2006,annotated edition,,,280,0,English,,,до 2011-01,"0299212408,9780299212407,9780299212438",,,,,810.9/8924/0904,PS153.J4 B868 2005,,,OL10317252M,,0,,,,,1,,1,777477,pdf,F8F58B01044777D47A325582511D8113,,,D:\\!genesis\\library.nu\\f8\\_154716.f8f58b01044777d47a325582511d8113.pdf,0,2000-01-01 01:00:00,2016-04-03 02:51:08,446000/f8f58b01044777d47a325582511d8113-d.jpg,,
21739718,Sleepless,,,,Terri Clark,2008,,,,288,0,English,,,до 2011-01,"0061375969,9780061375965,9780061828942",,,,,,,,,,,0,,,,,1,,1,727347,pdf,F8F293AB4ED779533005D5970BCA827C,,,D:\\!genesis\\library.nu\\f8\\_154713.f8f293ab4ed779533005d5970bca827c.pdf,0,2000-01-01 01:00:00,2016-04-03 02:51:08,446000/f8f293ab4ed779533005d5970bca827c-d.jpg,,
21739719,Homeland: And Other Stories,,,,Barbara Kingsolver,1990,,,,256,0,English,,,до 2011-01,"9780060917012,9780061433320,9781568497242,0060917016,1568497245",,,,,,,,,OL14421911M,,0,,,,0,1,,1,744761,pdf,F82FFE91AE10C528C139C477FEB53DC5,,,D:\\!genesis\\library.nu\\f8\\_154338.f82ffe91ae10c528c139c477feb53dc5.pdf,0,2000-01-01 01:00:00,2016-04-03 02:51:08,446000/f82ffe91ae10c528c139c477feb53dc5-d.jpg,,
21739720,An Introduction to Efficacy in Diagnostic Radiology and Nuclear Medicine: (Justification of Medical Radiation Exposure) (Ncrp Commentary),,,,National Council on Radiation Protection and Measurements,1995,,,,29,0,English,147,,до 2011-01,"0929600452,9780929600451,9781435630819",,,,,616.07/57,RC78 .N37 1995a,,,OL792047M,,0,,,,,1,,1,1879857,pdf,F8422BB7A484183AFC4A9BCDB9DCAEEF,,,D:\\!genesis\\library.nu\\f8\\_153640.f8422bb7a484183afc4a9bcdb9dcaeef.pdf,0,2000-01-01 01:00:00,2016-04-03 02:51:08,446000/f8422bb7a484183afc4a9bcdb9dcaeef-g.jpg,,
21739721,Legionnaire's Disease (Deadly Diseases and Epidemics),,,,"Laurel, M.D. Shader",2006,,,,79,0,English,150,,до 2011-01,"0791088855,9780791088852,9781438101514",,,,,616.2/41,RC152.7 .Z66 2005,,,OL3410600M,,0,,,,,1,,1,1221582,pdf,F80F62B9484ECCB1CA6CF1B2FBDD00C3,,,D:\\!genesis\\library.nu\\f8\\_153418.f80f62b9484eccb1ca6cf1b2fbdd00c3.pdf,0,2000-01-01 01:00:00,2016-04-03 02:51:08,446000/f80f62b9484eccb1ca6cf1b2fbdd00c3-d.jpg,,
21739722,Amateur Athletics (Point Counterpoint),,,,Alan Marzilli,2004,,,,112,0,English,,,до 2011-01,"9780791079218,9781438105895,079107921X",,,,,,,,,OL8159770M,,0,,,,,1,,1,1150060,pdf,F8DF2AEBB5ED8656EC0ECE72216DF091,,,D:\\!genesis\\library.nu\\f8\\_153386.f8df2aebb5ed8656ec0ece72216df091.pdf,0,2000-01-01 01:00:00,2016-04-03 02:51:08,446000/f8df2aebb5ed8656ec0ece72216df091-d.jpg,,
21739723,Avian Flu (Deadly Diseases and Epidemics),,,,"Jeffrey N. Sfakianos, I. Edward Alcamo",2006,1,,,88,0,English,150,,до 2011-01,"0791086755,9780791086759,0791095479,9780791095478,9781438101330",,,,,614.5/18,RA644.I6 S453 2005,,,OL3405654M,,0,,,,,1,,1,2447196,pdf,F804BCEFA208BB87F19CCC61391FE818,,,D:\\!genesis\\library.nu\\f8\\_153381.f804bcefa208bb87f19ccc61391fe818.pdf,0,2000-01-01 01:00:00,2016-04-03 02:51:08,446000/f804bcefa208bb87f19ccc61391fe818-d.jpg,,
21739724,Happy About Knowing What to Expect in 2007: Getting a Handle on the Year Ahead,,,,"Mitchell, Levy",2006,,,,164,0,English,,,до 2011-01,"1600050344,9781600050343",,,,,,,,,OL8902789M,,0,,,,,1,,1,459936,pdf,F8964613EC63B85264B4C4D2899EDE71,,,D:\\!genesis\\library.nu\\f8\\_153017.f8964613ec63b85264b4c4d2899ede71.pdf,0,2000-01-01 01:00:00,2016-04-03 02:51:08,446000/f8964613ec63b85264b4c4d2899ede71-d.jpg,,
21739725,Commentary on the United Nations Convention on the Rights of the Child.Article 3: The Best Interests of the Child (v. 3),,,,"Freeman, M.",2007,,,,80,0,English,,,до 2011-01,"9004148612,9789004148611,9789047419105",,,,,,,,,OL12799040M,,0,,,,,1,,1,774309,pdf,F81D13DF711F670CC55F2EA5FAC6C291,,,D:\\!genesis\\library.nu\\f8\\_152870.f81d13df711f670cc55f2ea5fac6c291.pdf,0,2000-01-01 01:00:00,2016-04-03 02:51:08,446000/f81d13df711f670cc55f2ea5fac6c291-d.jpg,,
21739726,Lorsque Socrate a tort,,,,Andrei Cornea,2009,Zï¿½tï¿½sis,,,160,0,French,,,до 2011-01,"9781441609656,9782763788036,2763788033",,,,,,,,,,,0,,,,,1,,1,541419,pdf,F859D2F05E2457A6203D1D1951395CBC,,,D:\\!genesis\\library.nu\\f8\\_152748.f859d2f05e2457a6203d1d1951395cbc.pdf,0,2000-01-01 01:00:00,2016-04-03 02:51:08,446000/f859d2f05e2457a6203d1d1951395cbc-d.jpg,,
21739727,Whose University Is It?,,,,"Douwe Breimer, Frans Saris",2006,,,,80,0,English,,,до 2011-01,"9085553415,9789085553410,9781423785422",,,,,,,,,OL12852541M,,0,,,,,1,,1,1539311,pdf,F87A0C41520C80B0DF13CCC793E24A30,,,D:\\!genesis\\library.nu\\f8\\_152449.f87a0c41520c80b0df13ccc793e24a30.pdf,0,2000-01-01 01:00:00,2016-04-03 02:51:08,446000/f87a0c41520c80b0df13ccc793e24a30-d.jpg,,
21739728,"Vile France: Fear, Duplicity, Cowardice and Cheese",,,,Denis Boyles,2005,,,,168,0,English,,,до 2011-01,"1594030529,9781594030529,9781594031236",,,,,,,,,OL8875271M,,0,,,,,1,,1,590180,pdf,F80DE2B2BCE7FCAE867F8D00E67BB856,,,D:\\!genesis\\library.nu\\f8\\_152394.f80de2b2bce7fcae867f8d00e67bb856.pdf,0,2000-01-01 01:00:00,2016-04-03 02:51:08,446000/f80de2b2bce7fcae867f8d00e67bb856-d.jpg,,
21739729,Exit Right: Achieving a Golden Goodbye by Realising the Maximum Value for Your Business,,,,Barrie Pearson,2004,,,,224,0,English,1,,до 2011-01,"1854182390,9781854182395,9781417596058",,,,,,,,,,,0,,,,,1,,1,410470,pdf,F8F04F8C66301D6A7E430C0EAE55B4C4,,,D:\\!genesis\\library.nu\\f8\\_152355.f8f04f8c66301d6a7e430c0eae55b4c4.pdf,0,2000-01-01 01:00:00,2016-04-03 02:51:08,446000/f8f04f8c66301d6a7e430c0eae55b4c4-d.jpg,,
21739730,Cantos de la manana Morning songs (Coleccion Clasicos De La Literatura Latinoamericana Carrascalejo De La Jara),,,,Delmira Agustini,2003,,,,76,0,Spanish,,,до 2011-01,"9781413510652,9781423702566,1413510655",,,,,,,,,,,0,,,,,1,,1,259648,pdf,F85D9A15EF05FB2128F6009D7CF6516E,,,D:\\!genesis\\library.nu\\f8\\_152142.f85d9a15ef05fb2128f6009d7cf6516e.pdf,0,2000-01-01 01:00:00,2016-04-03 02:51:08,446000/f85d9a15ef05fb2128f6009d7cf6516e-g.jpg,,
21739731,"Air Pollution Control Equipment and Services in Brazil: A Strategic Reference, 2006",,,,Philip M. Parker,2007,,,,106,0,English,,,до 2011-01,"049735831X,9780497358310,9781429499293",,,,,,,,,,,0,,,,,1,,1,466004,pdf,F8141133D504897ACAAA463EDB5A0607,,,D:\\!genesis\\library.nu\\f8\\_151712.f8141133d504897acaaa463edb5a0607.pdf,0,2000-01-01 01:00:00,2016-04-03 02:51:08,446000/f8141133d504897acaaa463edb5a0607-d.jpg,,
21739732,Tigers (Jane Goodall's Animal World),,,,Ruth Ashby,1990,,,,30,0,English,23,,до 2011-01,"9780689713934,9781588242655,0689713932",,,,,599.74/428,QL737.C23 A84 1990b,,,OL2227827M,,0,,,,,1,,1,377770,pdf,F893D9B53AF526A2982928189971A7A1,,,D:\\!genesis\\library.nu\\f8\\_151569.f893d9b53af526a2982928189971a7a1.pdf,0,2000-01-01 01:00:00,2016-04-03 02:51:08,446000/f893d9b53af526a2982928189971a7a1-g.jpg,,
21739733,"Spanish in Contact: Policy, Social and Linguistic Inquiries (Impact: Studies in Language and Society)",,,,"Kim Potowski, Richard Cameron",2007,,,,398,0,English,314,,до 2011-01,"9789027218612,9027218617,9789027292469",,,,,460,PC4074 .S63 2007,,,OL12801285M,,0,,,,,1,,1,2360546,pdf,F8B44059898F9095ABB2B2822B89F9B1,,,D:\\!genesis\\library.nu\\f8\\_150736.f8b44059898f9095abb2b2822b89f9b1.pdf,0,2000-01-01 01:00:00,2016-04-03 02:51:08,446000/f8b44059898f9095abb2b2822b89f9b1-d.jpg,,
21739734,The Forgotten Garden,,,,Kate Morton,2008,,,,512,0,English,,,до 2011-01,"1741149983,9781741149982",,,,,823/.92,PR9619.4.M74 F67 2008,,,OL23997407M,,0,,,,,1,,1,2804453,pdf,F83D3DDDD215C20305B35CFEF56C4E9C,,,D:\\!genesis\\library.nu\\f8\\_150593.f83d3dddd215c20305b35cfef56c4e9c.pdf,0,2000-01-01 01:00:00,2016-04-03 02:51:08,446000/f83d3dddd215c20305b35cfef56c4e9c-g.jpg,,
21739735,"Juan Bautista De Anza: Basque Explorer in the New World, 1693-1740 (The Basque Series)",,,,Donald T. Garate,2003,,University of Nevada Press,,349,0,English,64,,до 2011-01,"0874175054,9780874175059,9780874175608",,,,,"979/.01/092,B",F799 .A74 2003,,,OL18918731M,,0,,,,0,0,,1,1864236,pdf,F8E432D0DCCDD21AFBC43D275DBBD4A0,,,D:\\!genesis\\library.nu\\f8\\_150260.f8e432d0dccdd21afbc43d275dbbd4a0.pdf,0,2000-01-01 01:00:00,2016-04-03 02:51:08,446000/f8e432d0dccdd21afbc43d275dbbd4a0-d.jpg,,
21739736,Lohengrin (Opera Journeys Mini Guide Series),,,,Burton D. Fisher,2000,,,,36,0,English,,,до 2011-01,"1930841310,9781930841314,9780585426884",,,,,,,,,OL8800718M,,0,,,,,1,,1,122067,pdf,F8DC3501814F80E272E8068CE37D1884,,,D:\\!genesis\\library.nu\\f8\\_149616.f8dc3501814f80e272e8068ce37d1884.pdf,0,2000-01-01 01:00:00,2016-04-03 02:51:08,446000/f8dc3501814f80e272e8068ce37d1884-d.jpg,,
21739737,Nitride Semiconductor Devices: Principles and Simulation,,,,Joachim Piprek (Editor),2007,1,,,519,0,English,256,,до 2011-01,"3527406670,9783527406678,9783527610716",,,,,621.38152,,,,OL22753503M,,0,,,,,1,,1,8530422,pdf,F8E588702D4843DB22F9932DFBEAA698,,,D:\\!genesis\\library.nu\\f8\\_149465.f8e588702d4843db22f9932dfbeaa698.pdf,0,2000-01-01 01:00:00,2016-04-03 02:51:08,446000/f8e588702d4843db22f9932dfbeaa698-d.jpg,,
21739738,Saltwater people: The waves of memory,,,,Nonie Sharp,2002,,,,306,0,English,272,,до 2011-01,"1865087297,9781865087290,9781741150360",,,,,,,,,OL3374848M,,0,,,,,1,,1,3263625,pdf,F8594DE81622E7ED73B0BD88DECEFA3A,,,D:\\!genesis\\library.nu\\f8\\_149416.f8594de81622e7ed73b0bd88decefa3a.pdf,0,2000-01-01 01:00:00,2016-04-03 02:51:08,446000/f8594de81622e7ed73b0bd88decefa3a-d.jpg,,
21739739,Biodeterioration des Materiaux  French,,,,"C. Lemaitre, N. Pebere, D. Festy",,,,,321,0,French,18,,до 2011-01,"2868833292,9782868833297,9782759802371",,,,,,,,,,,0,,,,,1,,1,16966600,pdf,F8D993EE57C739DEDE4839FD56F415EF,,,D:\\!genesis\\library.nu\\f8\\_149374.f8d993ee57c739dede4839fd56f415ef.pdf,0,2000-01-01 01:00:00,2016-04-03 02:51:08,446000/f8d993ee57c739dede4839fd56f415ef-g.jpg,,
21739740,"Industrial Project Management: Concepts, Tools, and Techniques (Industrial Innovation)",,,,"Adedeji B. Badiru, Abidemi Badiru, Adetokunboh Badiru",2007,1,,,320,0,English,7,,до 2011-01,"0849387736,9780849387739,9780849387722",,,,,,,,,OL11560476M,,0,,,,,1,,1,2430083,pdf,F8218419E937D5DB76D93ECAE97A522D,,,D:\\!genesis\\library.nu\\f8\\_148585.f8218419e937d5db76d93ecae97a522d.pdf,0,2000-01-01 01:00:00,2016-04-03 02:51:08,446000/f8218419e937d5db76d93ecae97a522d-d.jpg,,
21739741,Prion Biology and Diseases (Cold Spring Harbor Monograph Series),,,,Stanley B. Prusiner (Editor),1999,1,,,794,0,English,18,,до 2011-01,"0879695471,9780879695477,9780879696566",,,,,,,,,OL15467381M,,0,,,,,1,,1,4793751,pdf,F84E5DC504580CE46D3372F67B67C7C6,,,D:\\!genesis\\library.nu\\f8\\_148553.f84e5dc504580ce46d3372f67b67c7c6.pdf,0,2000-01-01 01:00:00,2016-04-03 02:51:08,446000/f84e5dc504580ce46d3372f67b67c7c6-d.jpg,,
21739742,Learn Arts & Letters 7.0: The Offical Guide (Wordware Arts & Letters Library),,,,Joli Ballew,2002,,,,523,0,English,57,,до 2011-01,"1556229690,9781556229695,9780585431482",,,,,,,,,OL12029859M,,0,,,,,1,,1,12117773,pdf,F8A1C493240D4C657A6D2D338C23C3D4,,,D:\\!genesis\\library.nu\\f8\\_148513.f8a1c493240d4c657a6d2d338c23c3d4.pdf,0,2000-01-01 01:00:00,2016-04-03 02:51:08,446000/f8a1c493240d4c657a6d2d338c23c3d4-d.jpg,,
21739743,Venture into Cultures: A Resource Book of Multicultural Materials and Programs (Venture Into Cultures),,,,"Ethnic and Multicultural Information Exchange Round Table, Olga R. Kuharets",2001,2,,,125,0,English,,,до 2011-01,"0838935133,9780838935132,9780838998779",,,,,011.62,Z688.M84 V46 2001,,,OL3942670M,,0,,,,,1,,1,2073739,pdf,F8848AD2F72F97330C91470E56E48D60,,,D:\\!genesis\\library.nu\\f8\\_148449.f8848ad2f72f97330c91470e56e48d60.pdf,0,2000-01-01 01:00:00,2016-04-03 02:51:08,446000/f8848ad2f72f97330c91470e56e48d60-d.jpg,,
21739744,Reason in Revolt: Dialectical Philosophy and Modern Science. Volume 1,,,,"Ted Grant, Alan Woods,",2002,,,,268,0,English,195,,до 2011-01,"0875861563,9780875861562,9780875861708",,,,,335.4/112,HX541 .G736 2002,,,OL3556779M,,0,,,,,1,,1,1532722,pdf,F89A88C565B9529B8F39815B1A6DFCE7,,,D:\\!genesis\\library.nu\\f8\\_148346.f89a88c565b9529b8f39815b1a6dfce7.pdf,0,2000-01-01 01:00:00,2016-04-03 02:51:08,446000/f89a88c565b9529b8f39815b1a6dfce7-d.jpg,,
21739745,Between Grass And Sky: Where I Live And Work (Environmental Arts and Humanities),,,,Linda M. Hasselstrom,2002,,,,232,0,English,57,,до 2011-01,"0874175224,9780874175226,9780874175523",,,,,"818/.5409,B",PS3558.A7257 Z4636 2002,,,OL3553163M,,0,,,,,1,,1,1109317,pdf,F8846DAFB624968B0A343E85F2F08E2F,,,D:\\!genesis\\library.nu\\f8\\_148038.f8846dafb624968b0a343e85f2f08e2f.pdf,0,2000-01-01 01:00:00,2016-04-03 02:51:08,446000/f8846dafb624968b0a343e85f2f08e2f-d.jpg,,
21739746,Climate Change: An Integrated Perspective (ADVANCES IN GLOBAL CHANGE RESEARCH Volume 1),,,,Jan Rotmans,1999,1,,,420,0,English,36,,до 2011-01,"0792359968,9780792359968,9780306479823",,,,,,,,,OL7809045M,,0,,,,,1,,1,11787448,pdf,F895003564767E2C2FF5D7642B220465,,,D:\\!genesis\\library.nu\\f8\\_147741.f895003564767e2c2ff5d7642b220465.pdf,0,2000-01-01 01:00:00,2016-04-03 02:51:08,446000/f895003564767e2c2ff5d7642b220465-d.jpg,,
21739747,Public Expenditure Review of Armenia (World Bank Country Study),,,,"Lev M. Freinkman, P. Safarian",2003,,,,198,0,English,183,,до 2011-01,"0821355848,9780821355848,9780585472911",,,,,,,,,OL16097873M,,0,,,,,1,,1,1330957,pdf,F8D7182C755B83093D5501DE999734A4,,,D:\\!genesis\\library.nu\\f8\\_147674.f8d7182c755b83093d5501de999734a4.pdf,0,2000-01-01 01:00:00,2016-04-03 02:51:08,446000/f8d7182c755b83093d5501de999734a4-d.jpg,,
21739748,Rural Poverty Alleviation in Brazil: Toward an Integrated Strategy (World Bank Country Study),,,,World Bank Group,2003,,,,280,0,English,183,,до 2011-01,"0821352067,9780821352069,9780585472959",,,,,,,,,OL15397519M,,0,,,,,1,,1,1858745,pdf,F8684081A987C41E795F3CF33A046122,,,D:\\!genesis\\library.nu\\f8\\_147098.f8684081a987c41e795f3cf33a046122.pdf,0,2000-01-01 01:00:00,2016-04-03 02:51:08,446000/f8684081a987c41e795f3cf33a046122-d.jpg,,
21739749,Portrait of the Mother-Artist: Class and Creativity in Contemporary American Fiction,,,,Nancy Gerber,2003,,,,116,0,English,,,до 2011-01,"9780585463216,9780739105443,0739105442",,,,,813/.5093520431,PS374.M547 G47 2003,,,OL22576149M,,0,,,,,1,,1,6975531,pdf,F89795FE20E51A3CF226EC28CC2F6AEE,,,D:\\!genesis\\library.nu\\f8\\_146905.f89795fe20e51a3cf226ec28cc2f6aee.pdf,0,2000-01-01 01:00:00,2016-04-03 02:51:08,446000/f89795fe20e51a3cf226ec28cc2f6aee-g.jpg,,
21739750,"Public Lands and Political Meaning: Ranchers, the Government, and the Property between Them",,,,Karen R. Merrill,2002,,,,293,0,English,,,до 2011-01,"0520228626,9780520228627,9780585419770",,,,,333.74/0973,KF5605 .M47 2002,,,OL3938262M,,0,,,,,1,,1,1041031,pdf,F87030C2587218203F05CEDAE69820AC,,,D:\\!genesis\\library.nu\\f8\\_146785.f87030c2587218203f05cedae69820ac.pdf,0,2000-01-01 01:00:00,2016-04-03 02:51:08,446000/f87030c2587218203f05cedae69820ac-d.jpg,,
21739751,"The Waldensian Dissent: Persecution and Survival, c.1170-c.1570",,Cambridge Medieval Textbooks,,Gabriel Audisio,1999,,,,252,0,English,293,,до 2011-01,"9780521559843,0521559847,9780511017186,9780521550291,0521550297",,,,,273/.6,BX4881.2 .A8313 1999,,,OL386743M,,0,,,,,1,,1,1283447,pdf,F859641D09635127A3D3E6E5A7AA9580,,,D:\\!genesis\\library.nu\\f8\\_146687.f859641d09635127a3d3e6e5a7aa9580.pdf,0,2000-01-01 01:00:00,2016-04-03 02:51:08,446000/f859641d09635127a3d3e6e5a7aa9580-d.jpg,,
21739752,Numismatics,,,,Philip Grierson,1975,,Oxford University Press,,222,0,English,,,до 2011-01,"0198850980,9780198850984,0198880987,9780198880981",,,,,737.4,CJ75 .G74,,,OL5250705M,,0,,,,1,1,1,1,17965247,pdf,F8ED96EB0748908A69CB8153705F21DA,,,D:\\!genesis\\library.nu\\f8\\_146434.f8ed96eb0748908a69cb8153705f21da.pdf,0,2000-01-01 01:00:00,2016-04-03 02:51:08,446000/f8ed96eb0748908a69cb8153705f21da-d.jpg,,
21739753,"The Commitment: Love, Sex, Marriage, and My Family",,,,Dan Savage,2005,First Edition,,,336,0,English,41,,до 2011-01,"0525949070,9780525949077,9780786561513",,,,,,,,,OL7771111M,,0,,,,,1,,1,756333,pdf,F89254AFF55FD767C20ECDC6D8AD19E7,,,D:\\!genesis\\library.nu\\f8\\_146236.f89254aff55fd767c20ecdc6d8ad19e7.pdf,0,2000-01-01 01:00:00,2016-04-03 02:51:08,446000/f89254aff55fd767c20ecdc6d8ad19e7-d.jpg,,
21739754,The Brains of Earth,,,,Jack Vance,1975,,,,108,0,English,38,,до 2011-01,"9780234770559,0234770554",,B002JCM08M,,,813/.5/4,"PZ4.V2215 Br3,PS3572.A424 Br3",,,OL4591984M,,0,,,,,1,,1,882554,pdf,F8874E963F73964846854EE7B1E657A3,,,D:\\!genesis\\library.nu\\f8\\_146131.f8874e963f73964846854ee7b1e657a3.pdf,0,2000-01-01 01:00:00,2016-04-03 02:51:08,446000/f8874e963f73964846854ee7b1e657a3-g.jpg,,
21739755,Robert Ludlum's The Bourne Deception,,,,"Eric Van Lustbader, Robert Ludlum",2009,1st,,,423,0,English,,,до 2011-01,"0446539821,9780446539821,9780446551489",,,,,813/.54,PS3562.U752 R64 2009,,,OL22796759M,,0,,,,,1,,1,2062381,pdf,F8814E2A1D27DB30374BE041BC2D9F72,,,D:\\!genesis\\library.nu\\f8\\_145887.f8814e2a1d27db30374be041bc2d9f72.pdf,0,2000-01-01 01:00:00,2016-04-03 02:51:08,446000/f8814e2a1d27db30374be041bc2d9f72-d.jpg,,
21739756,Survey Measurement of Work Disability: Summary of a Workshop,,,,Nancy A. Mathiowetz,2002,,,,97,0,English,,,до 2011-01,"0309068991,9780309068994,9780309516631",,,,,,,,,OL10358214M,,0,,,,,1,,1,325019,pdf,F8D8029D92612992C1BB1DF03C295C2D,,,D:\\!genesis\\library.nu\\f8\\_144831.f8d8029d92612992c1bb1df03c295c2d.pdf,0,2000-01-01 01:00:00,2016-04-03 02:51:08,446000/f8d8029d92612992c1bb1df03c295c2d-d.jpg,,
21739757,Pearl River Junction: The Sons of Daniel Shaye,,,,Robert J. Randisi,2006,,,,320,0,English,,,до 2011-01,"0060583649,9780060583644,9780061372148",,,,,,,,,OL24255628M,,0,,,,,1,,1,1144646,pdf,F8FA308AF2836D8F8935F422FA511C09,,,D:\\!genesis\\library.nu\\f8\\_1447.f8fa308af2836d8f8935f422fa511c09.pdf,0,2000-01-01 01:00:00,2016-04-03 02:51:08,446000/f8fa308af2836d8f8935f422fa511c09-d.jpg,,
21739758,"How to Pass the Police Selection System: Practise for the Psychometric Tests and Succeed at the Assessment Centres, 3rd Edition",,,,"Harry Tolley, Billy Hodge, Catherine Tolley",2010,3rd Revised edition,,,176,0,English,,,до 2011-01,"0749457120,9780749457129",,,,,,,,,,,0,,,,,1,1,1,501714,pdf,F8DA93EBA66A3D292621C559F58E1497,,,D:\\!genesis\\library.nu\\f8\\_144523.f8da93eba66a3d292621c559f58e1497.pdf,0,2000-01-01 01:00:00,2016-04-03 02:51:08,446000/f8da93eba66a3d292621c559f58e1497-d.jpg,,
21739759,Acre,,,,Thomas Philipp,2002,,,,208,0,English,,,до 2011-01,"0231123264,9780231123266,9780231506038",,,,,956.94/5,DS110.A3 P55 2002,,,OL17037252M,,0,,,,,1,,1,2265331,pdf,F8D60FAEA197744B1E0598E2F13EA275,,,D:\\!genesis\\library.nu\\f8\\_144409.f8d60faea197744b1e0598e2f13ea275.pdf,0,2000-01-01 01:00:00,2016-04-03 02:51:08,446000/f8d60faea197744b1e0598e2f13ea275-g.jpg,,
21739760,Nuclear Receptors: A Practical Approach,,,,Didier Picard,1999,2,,,285,0,English,,,до 2011-01,"0199637423,9780199637423,9780585483726",,,,,573.4/48845,QP572.S7 S757 1999,,,OL21036931M,,0,,,,,1,,1,15709462,pdf,F86280ABD67C40F8AB446FD5F9AFA24A,,,D:\\!genesis\\library.nu\\f8\\_144216.f86280abd67c40f8ab446fd5f9afa24a.pdf,0,2000-01-01 01:00:00,2016-04-03 02:51:08,446000/f86280abd67c40f8ab446fd5f9afa24a-d.jpg,,
21739761,Sustainable Industrial Design and Waste Management: Cradle-to-Cradle for Sustainable Development,,,,Salah El Haggar,2007,1,,,424,0,English,,,до 2011-01,"0123736234,9780123736239,9780080550145",,,,,,,,,OL7327507M,,0,,,,,1,,1,2941167,pdf,F86BC69BC369A28172C1F044C5CB796A,,,D:\\!genesis\\library.nu\\f8\\_144014.f86bc69bc369a28172c1f044c5cb796a.pdf,0,2000-01-01 01:00:00,2016-04-03 02:51:08,446000/f86bc69bc369a28172c1f044c5cb796a-d.jpg,,
21739762,The Problem of the Essential Indexical: and Other Essays,,,,John Perry,1993,,,,352,0,English,,,до 2011-01,"0195049993,9780195049992,9781423763734",,,,,121/.68,B105.M4 P47 1993,,,OL1728939M,,0,,,,,1,,1,18488883,pdf,F8907BB201F993BE876C463D14848E00,,,D:\\!genesis\\library.nu\\f8\\_144004.f8907bb201f993be876c463d14848e00.pdf,0,2000-01-01 01:00:00,2016-04-03 02:51:08,446000/f8907bb201f993be876c463d14848e00-d.jpg,,
21739763,The Lincoln Lawyer,,Mikey Haller 1,,Michael Connelly,2005,,,,516,0,English,313,,до 2011-01,"0446616451,9780446616454,0316734934",,,,,813/.54,PS3553.O51165 L56 2005,,,OL23274008M,,0,,,,,1,,1,784763,pdf,F8647D9EC88373EF1DB63F9A171384FB,,,D:\\!genesis\\library.nu\\f8\\_14382.f8647d9ec88373ef1db63f9a171384fb.pdf,0,2000-01-01 01:00:00,2016-04-03 02:51:08,446000/f8647d9ec88373ef1db63f9a171384fb-d.jpg,,
21739764,Whose Disease?: Whose Disease? (Whose Disease?),,,,Hugh McLaughlin,2003,,,,109,0,English,150,,до 2011-01,"1570596883,9781570596889,9781417523559",,,,,,,,,OL12198686M,,0,,,,,1,1,1,350739,pdf,F88AFA0778C8C2B127AD5EE5F41A4657,,,D:\\!genesis\\library.nu\\f8\\_14346.f88afa0778c8c2b127ad5ee5f41a4657.pdf,0,2000-01-01 01:00:00,2016-04-03 02:51:08,446000/f88afa0778c8c2b127ad5ee5f41a4657-g.jpg,,
21739765,Criminal Justice (Cliffs Quick Review),,,,Dennis Hoffman,2000,1,,,80,0,English,311,,до 2011-01,"0764585614,9780764585616,9780764523731",,,,,,,,,OL24250412M,,0,,,,,1,,1,1119735,pdf,F8B69DA5A3C70C1B650CC0DE468D3C48,,,D:\\!genesis\\library.nu\\f8\\_143348.f8b69da5a3c70c1b650cc0de468d3c48.pdf,0,2000-01-01 01:00:00,2016-04-03 02:51:08,446000/f8b69da5a3c70c1b650cc0de468d3c48-d.jpg,,
21739766,The Hollywood I Knew: A Memoir: 1916-1988 (Scarecrow Filmmakers Series),,,,Herbert Coleman,2003,,,,416,0,English,64,,до 2011-01,"0810841207,9780810841208,9780585463902",,,,,"791.43/0233/092,B",PN1998.3.C666 A3 2003,,,OL3554598M,,0,,,,,1,,1,19222735,pdf,F895729FF5CA3DDD1BE4B733A729783E,,,D:\\!genesis\\library.nu\\f8\\_143319.f895729ff5ca3ddd1be4b733a729783e.pdf,0,2000-01-01 01:00:00,2016-04-03 02:51:08,446000/f895729ff5ca3ddd1be4b733a729783e-d.jpg,,
21739767,"Centrifugal Pumps: Design and Application, Second Edition",,,,Val S. Lobanoff Robert R. Ross,1992,2,,,640,0,English,137,,до 2011-01,"087201200X,9780872012004,9780585470412",,,,,621.6/7,TJ919 .L52 1992,,,OL1560330M,,0,,,,,1,,1,69297724,pdf,F85E62A5D62C9AB43CDFDC56B7FE08CE,,,D:\\!genesis\\library.nu\\f8\\_142671.f85e62a5d62c9ab43cdfdc56b7fe08ce.pdf,0,2000-01-01 01:00:00,2016-04-03 02:51:08,446000/f85e62a5d62c9ab43cdfdc56b7fe08ce-d.jpg,,
21739768,Protein Expression: A Practical Approach (Practical Approach Series),,,,"S. J. Higgins (Editor), B. D. Hames (Editor)",1999,1,,,304,0,English,17,,до 2011-01,"0199636230,9780199636235,9780585484174,0199636249,9780199636242",,,,,547/.750459,QH450.5 .P76 1999,,,OL384731M,,0,,,,,1,,1,15411171,pdf,F8DE3C32BE65A4018444F89AD260537B,,,D:\\!genesis\\library.nu\\f8\\_140696.f8de3c32be65a4018444f89ad260537b.pdf,0,2000-01-01 01:00:00,2016-04-03 02:51:08,446000/f8de3c32be65a4018444f89ad260537b-d.jpg,,
21739769,Little Prince,,,,Antoine de Saint-Exupery,1991,,,,96,0,English,,,до 2011-01,"9780749707231,0749707232",,,,,,,,,,,0,,,,,1,1,1,5193226,pdf,F81729FF0D6935441B63983A9FABC8C3,,,D:\\!genesis\\library.nu\\f8\\_14063.f81729ff0d6935441b63983a9fabc8c3.pdf,0,2000-01-01 01:00:00,2016-04-03 02:51:08,446000/f81729ff0d6935441b63983a9fabc8c3-d.jpg,,
21739770,Nanocrystalline Materials,,,,A A Rempel A I Gusev,2003,First Edition,,,351,0,English,224,,до 2011-01,"1898326266,9781898326267,9781423723073",,,,,,,,,OL21964825M,,0,,,,,1,,1,3788769,pdf,F86C8BCE359644947AA462EB6CDF288F,,,D:\\!genesis\\library.nu\\f8\\_140347.f86c8bce359644947aa462eb6cdf288f.pdf,0,2000-01-01 01:00:00,2016-04-03 02:51:08,446000/f86c8bce359644947aa462eb6cdf288f-d.jpg,,
21739771,Thieves' Latin (Iowa Poetry Prize),,,,Peter Jay Shippy,2003,,,,100,0,English,,,до 2011-01,"0877458405,9780877458401,9781587294389",,,,,811/.6,PS3619.H58 T48 2003,,,OL22522569M,,0,,,,,1,,1,364405,pdf,F85FA6FECF7EAFB17AD65386B92E0C84,,,D:\\!genesis\\library.nu\\f8\\_140041.f85fa6fecf7eafb17ad65386b92e0c84.pdf,0,2000-01-01 01:00:00,2016-04-03 02:51:08,446000/f85fa6fecf7eafb17ad65386b92e0c84-d.jpg,,
21739772,Mycotoxin Protocols (Methods in Molecular Biology Vol 157),,,,"Mary W. Trucksess, Albert E. Pohland",2001,1st,Humana Press,,256,0,English,27,,до 2011-01,"9780896036239,9781592590643,0896036235",,,,,,,,WNS_rIYtEjEC,OL9720729M,,0,,,,0,0,,1,1072255,pdf,F8489F90338652FDFD2B72A7F35E99E3,,,D:\\!genesis\\library.nu\\f8\\_140003.f8489f90338652fdfd2b72a7f35e99e3.pdf,0,2000-01-01 01:00:00,2016-04-03 02:51:08,446000/f8489f90338652fdfd2b72a7f35e99e3-d.jpg,,
21739773,L12 Ordered Alloys,,Dislocations in Solids 10,,F.R.N. Nabarro and M.S. Duesbery (Eds.),1996,1,"Elsevier, Academic Press",,1-622,0,English,,,до 2011-01,"0444823700,9780444823700,9780080535319",1572-4859,,,,548.842,,,,OL22213636M,,0,,,,,1,,1,51825653,pdf,F8606E20D446DDE3A462530B0FC7EDC7,,,D:\\!genesis\\library.nu\\f8\\_139934.f8606e20d446dde3a462530b0fc7edc7.pdf,0,2000-01-01 01:00:00,2016-04-03 02:51:08,446000/f8606e20d446dde3a462530b0fc7edc7-d.jpg,,
21739774,Years,,,,Virginia Woolf,2002,,,,462,0,English,,,до 2011-01,"0795310420,9780795310423",,,,,,,,,OL24282221M,,0,,,,,1,,1,1438775,pdf,F89340598BC20BE17772C6D684E5091F,,,D:\\!genesis\\library.nu\\f8\\_139762.f89340598bc20be17772c6d684e5091f.pdf,0,2000-01-01 01:00:00,2016-04-03 02:51:08,446000/f89340598bc20be17772c6d684e5091f-d.jpg,,
21739775,"Introduction to Naval Architecture, 3rd edition",,,,E. C. Tupper,1996,3,,,420,0,English,58,,до 2011-01,"0750625295,9780750625296,9780585470702",,,,,623.8/1,VM156 .M78 1996,,,OL585029M,,0,,,,,1,,1,38361883,pdf,F8D23CA5F7B75677C12143757B7801D2,,,D:\\!genesis\\library.nu\\f8\\_139531.f8d23ca5f7b75677c12143757b7801d2.pdf,0,2000-01-01 01:00:00,2016-04-03 02:51:08,446000/f8d23ca5f7b75677c12143757b7801d2-d.jpg,,
21739776,Lung Biology in Health & Disease Volume 157 Respiratory-Circulatory Interactions in Health & Disease,,,,"Steven M. Scharf, Michael R. Pinsky, Shelly Magder",2001,1st,,,961,0,English,18,,до 2011-01,"9780585407180,9780824704742,0824704746",,,,,,,,,OL22459874M,,0,,,,,1,,1,5730762,pdf,F8D3CE0D37119604B88F39E900A4BA4C,,,D:\\!genesis\\library.nu\\f8\\_139145.f8d3ce0d37119604b88f39e900a4ba4c.pdf,0,2000-01-01 01:00:00,2016-04-03 02:51:08,446000/f8d3ce0d37119604b88f39e900a4ba4c-d.jpg,,
21739777,100 Questions & Answers About Multiple Sclerosis (100 Questions Series),,,,William Sheremata,2006,1,,,160,0,English,,,до 2011-01,"0763747637,9780763747633,9781429492621",,,,,616.8/34,RC377 .S55 2006,,,OL3419545M,,0,,,,,1,,1,1003121,pdf,F872D39AF78CD3BED31F66E0A0A58F13,,,D:\\!genesis\\library.nu\\f8\\_139109.f872d39af78cd3bed31f66e0a0a58f13.pdf,0,2000-01-01 01:00:00,2016-04-03 02:51:08,446000/f872d39af78cd3bed31f66e0a0a58f13-d.jpg,,
21739778,Copyright for Administrators,,,,Carol Simpson,2008,,,,144,0,English,,,до 2011-01,"1586833235,9781586833237",,,,,346.7304/82,KF3020 .S56 2008,,,OL16752684M,,0,,,,1,0,1,1,641920,pdf,F8F0EB4CDC1A51C0ED4C85B5BB838C20,,,D:\\!genesis\\library.nu\\f8\\_138661.f8f0eb4cdc1a51c0ed4c85b5bb838c20.pdf,0,2000-01-01 01:00:00,2016-04-03 02:51:08,446000/f8f0eb4cdc1a51c0ed4c85b5bb838c20-d.jpg,,
21739779,The Cambridge Introduction to Jean Rhys (Cambridge Introductions to Literature),,,,Elaine Savory,2009,1,,,162,0,English,108,,до 2011-01,"0521873665,9780521873666,9780511719608,0521695430,9780521695435",,,,,823/.912,PR6035.H96 Z858 2009,,,OL10436643M,,0,,,,1,0,,1,970585,pdf,F853E1334DF856BE0F561970511C272B,,,D:\\!genesis\\library.nu\\f8\\_138508.f853e1334df856be0f561970511c272b.pdf,0,2000-01-01 01:00:00,2016-04-03 02:51:08,446000/f853e1334df856be0f561970511c272b-d.jpg,,
21739780,Level 3 Practice exams for the 2010 CFA exam. Volume 1,,,,Kaplan Schweser,2009,,,,334,0,English,,,до 2011-01,1427794715,,,,,,,,,,,0,,,,,1,,0,41831977,pdf,F8E914D7D9D6995E7DF91436179BC87A,,,D:\\!genesis\\library.nu\\f8\\_138334.f8e914d7d9d6995e7df91436179bc87a.pdf,0,2000-01-01 01:00:00,2016-04-03 02:51:08,446000/f8e914d7d9d6995e7df91436179bc87a-g.jpg,,
21739781,The Technicolor Time Machine,,,,Harry Harrison,1991,,,,256,0,English,210,,до 2011-01,"0812516079,9780812516074",,,,,,,,,OL9482966M,,0,,,,,1,,1,524741,pdf,F811B10F4451FFD90EF95BBA6AAB3689,,,D:\\!genesis\\library.nu\\f8\\_138225.f811b10f4451ffd90ef95bba6aab3689.pdf,0,2000-01-01 01:00:00,2016-04-03 02:51:08,446000/f811b10f4451ffd90ef95bba6aab3689-g.jpg,,
21739782,Andromeda Gun,,,,John Boyd,1978,,,,172,0,English,,,до 2011-01,"042502878X,9780425028780",,,,,,,,,OL7500631M,,0,,,,,1,,1,590251,pdf,F8564C2EF21B2DAC5E08B703D100F40B,,,D:\\!genesis\\library.nu\\f8\\_138200.f8564c2ef21b2dac5e08b703d100f40b.pdf,0,2000-01-01 01:00:00,2016-04-03 02:51:08,446000/f8564c2ef21b2dac5e08b703d100f40b-g.jpg,,
21739783,Cinismos: Retrato De Los Filosofos Llamados Perros,,,,Michel Onfray,2002,,,,240,0,Spanish,,,до 2011-01,"9789501265279,9501265277",,,,,,,,,OL12959564M,,0,,,,,1,,1,14330182,pdf,F82F1550DDA78ACB84A2ED42DDF165F2,,,D:\\!genesis\\library.nu\\f8\\_138045.f82f1550dda78acb84a2ed42ddf165f2.pdf,0,2000-01-01 01:00:00,2016-04-03 02:51:08,446000/f82f1550dda78acb84a2ed42ddf165f2-d.jpg,,
21739784,Captain Mugford Or Our Salt and Fresh Water Tutors,,,,H. G. W. Kingston,2007,,,,160,0,English,,,до 2011-01,"1435357108,9781435357105",,,,,,,,,OL11986124M,,0,,,,,1,,1,693850,pdf,F865A1FA9C0E7387BA2765DA595362DF,,,D:\\!genesis\\library.nu\\f8\\_137782.f865a1fa9c0e7387ba2765da595362df.pdf,0,2000-01-01 01:00:00,2016-04-03 02:51:08,446000/f865a1fa9c0e7387ba2765da595362df-d.jpg,,
21739785,Verhaltensauffallige Kinder und Jugendliche,,,,"Christine Ettrich, Klaus-Udo Ettrich",2006,1,,,250,0,English,,,до 2011-01,"9783540333432,9783540333449,3540333436",,,,,,,,,OL12773995M,,0,,,,,0,1,1,4032285,pdf,F82AB70EBBA3B92F954A25D5A6DCD4F2,,,D:\\!genesis\\library.nu\\f8\\_137620.f82ab70ebba3b92f954a25d5a6dcd4f2.pdf,0,2000-01-01 01:00:00,2016-04-03 02:51:08,446000/f82ab70ebba3b92f954a25d5a6dcd4f2-d.jpg,,
21739786,Love by the Numbers: How to Find Great Love or Reignite the Love You Have Through the Power of Numerology,,,,Glynis McCants,2009,,,,352,0,English,143,,до 2011-01,"1402224494,9781402224492,1402244622,9781402244629",,,,,133.3/35,BF1623.P9 .M38 2009,,,OL23392430M,,0,,,,1,0,,1,3534917,pdf,F89D2B10F56CEE3A1A7CDE9443CF6863,,,D:\\!genesis\\library.nu\\f8\\_137163.f89d2b10f56cee3a1a7cde9443cf6863.pdf,0,2000-01-01 01:00:00,2016-04-03 02:51:08,446000/f89d2b10f56cee3a1a7cde9443cf6863-d.jpg,,
21739787,The Cambridge Companion to Caryl Churchill (Cambridge Companions to Literature),,,,"Elaine Aston, Elin Diamond",2010,1,,,211,0,English,,,до 2011-01,"0521728940,9780521728942,9780521493222,0521493226",,,,,822.914,PR6053.H786 Z636 2009,,,OL25092611M,,0,,,,1,0,1,1,1118563,pdf,F874CFA2AC2CD74F1A7F30E84323DC5E,,,D:\\!genesis\\library.nu\\f8\\_137153.f874cfa2ac2cd74f1a7f30e84323dc5e.pdf,0,2000-01-01 01:00:00,2016-04-03 02:51:08,446000/f874cfa2ac2cd74f1a7f30e84323dc5e-d.jpg,,
21739788,The Rise of Free Trade Imperialism: Classical Political Economy the Empire of Free Trade and Imperialism 1750-1850,,,,Bernard Semmel,1970,1st Ed.,,,260,0,English,64,,до 2011-01,"0521077257,0511562225,0521548152,9780511562228,9780521077255,9780521548151",,,,,382/.71/0942,,,,OL22217687M,,0,,,,,1,,1,6966621,pdf,F8501E796B28A8CE52D87BD5F605320C,,,D:\\!genesis\\library.nu\\f8\\_136103.f8501e796b28a8ce52d87bd5f605320c.pdf,0,2000-01-01 01:00:00,2016-04-03 02:51:08,446000/f8501e796b28a8ce52d87bd5f605320c-d.jpg,,
21739789,The World of Private Banking (Studies in Banking and Financial History),,,,"Philip Cottrell, Youssef Cassis with Monika Pohle Fraser, Iain L. Fraser",2009,,,,328,0,English,64,,до 2011-01,"1859284329,9781859284322",,,,,332.1/23,HG1978 .W67 2009,,,OL12044718M,,0,,,,,1,1,1,3496992,pdf,F8D355260C81EDD84D752C05F0354138,,,D:\\!genesis\\library.nu\\f8\\_136014.f8d355260c81edd84d752c05f0354138.pdf,0,2000-01-01 01:00:00,2016-04-03 02:51:08,446000/f8d355260c81edd84d752c05f0354138-d.jpg,,
21739790,"Digital Modulation Techniques, Second Edition (Artech House Telecommunications Library)",,,,Fuqin Xiong,2006,2,,,1046,0,English,305,,до 2011-01,"1580538630,9781580538633,9781580538640",,,,,621.3815/36,TK5103.7 .X65 2006,,,OL17157003M,,0,,,,,1,,1,13024956,pdf,F8F816553107FE51C021A94F38CE1A49,,,D:\\!genesis\\library.nu\\f8\\_135788.f8f816553107fe51c021a94f38ce1a49.pdf,0,2000-01-01 01:00:00,2016-04-03 02:51:08,446000/f8f816553107fe51c021a94f38ce1a49-d.jpg,,
21739791,Internet Commerce Development,,,,Craig Standing,2000,1st,,,252,0,English,100,,до 2011-01,"1580530516,9781580530514,9781580534338",,,,,658/.054678,HF5548.32 .S73 2000,,,OL50130M,,0,,,,,1,1,1,4232537,pdf,F896A91F138563C511A34EB44A79EEAF,,,D:\\!genesis\\library.nu\\f8\\_135630.f896a91f138563c511a34eb44a79eeaf.pdf,0,2000-01-01 01:00:00,2016-04-03 02:51:08,446000/f896a91f138563c511a34eb44a79eeaf-d.jpg,,
21739792,"J. Stalin Works (1924, Volume 6)",,,,Joseph Stalin,1953,,,,452,0,English,64,,до 2011-01,,,B000B9L6TE,,,,,,,,,0,,,,,1,,1,2643500,pdf,F8BE1836FC342B6EF6CEB2C3C7A61D24,,,D:\\!genesis\\library.nu\\f8\\_134538.f8be1836fc342b6ef6ceb2c3c7a61d24.pdf,0,2000-01-01 01:00:00,2016-04-03 02:51:08,446000/f8be1836fc342b6ef6ceb2c3c7a61d24-g.jpg,,
21739793,Rational Emotive Behaviour Therapy: Theoretical Developments (Advancing Theory Intherapy),,,,Windy Dryden,2003,,,,272,0,English,172,,до 2011-01,"1583912738,9781583912737,0203695577,9780203695579,9780203698273",,,,,,,,,OL22523156M,,0,,,,,1,,1,1349446,pdf,F8173464C0789CDFD9B7E62A662615BB,,,D:\\!genesis\\library.nu\\f8\\_134406.f8173464c0789cdfd9b7e62a662615bb.pdf,0,2000-01-01 01:00:00,2016-04-03 02:51:08,446000/f8173464c0789cdfd9b7e62a662615bb-d.jpg,,
21739794,Alternative Materials for the Reinforcement and Prestressing of Concrete,,,,J.l. Clarke,1993,1st ed,,,224,0,English,,,до 2011-01,"0751400076,9780751400076,9780203166666",,,,,620.1/37,TA683.42 .A57 1993,,,OL1394249M,,0,,,,,1,1,1,4278559,pdf,F82C6E6D640DB50DE0498BD71806D054,,,D:\\!genesis\\library.nu\\f8\\_134055.f82c6e6d640db50de0498bd71806d054.pdf,0,2000-01-01 01:00:00,2016-04-03 02:51:08,446000/f82c6e6d640db50de0498bd71806d054-d.jpg,,
21739795,The Best Years of Their Lives?: Pupil's Experiences of School,,,,Ced Cullingford,2002,1,,,222,0,English,,,до 2011-01,"0749437952,9780749437954",,,,,373.01,LB1117 .C815 2002,,,OL3701170M,,0,,,,,1,1,1,1186910,pdf,F894BB106667C0D3D2BEF25C6EF88823,,,D:\\!genesis\\library.nu\\f8\\_133735.f894bb106667c0d3d2bef25c6ef88823.pdf,0,2000-01-01 01:00:00,2016-04-03 02:51:08,446000/f894bb106667c0d3d2bef25c6ef88823-d.jpg,,
21739796,Linguistic Landscape: Expanding the Scene,,,,Elana Shohamy,2008,1,,,392,0,English,,,до 2011-01,"0415988721,9780415988728,9780203930960",,,,,418,P129 .L43 2008,,,OL10209284M,,0,,,,,1,1,1,13781988,pdf,F81E7D557CF86A32D5F0DA38E45CB4FC,,,D:\\!genesis\\library.nu\\f8\\_133471.f81e7d557cf86a32d5f0da38e45cb4fc.pdf,0,2000-01-01 01:00:00,2016-04-03 02:51:08,446000/f81e7d557cf86a32d5f0da38e45cb4fc-g.jpg,,
21739797,"European Cities, Planning Systems and Property Markets",,,,J.n. Berry,1994,,,,417,0,English,,,до 2011-01,"0419189408,9780419189404",,,,,711.4094,,,,OL22190552M,,0,,,,,1,1,1,3728948,pdf,F86BBE0FDD3EB58FFB5781BF82239E49,,,D:\\!genesis\\library.nu\\f8\\_133423.f86bbe0fdd3eb58ffb5781bf82239e49.pdf,0,2000-01-01 01:00:00,2016-04-03 02:51:08,446000/f86bbe0fdd3eb58ffb5781bf82239e49-d.jpg,,
21739798,Voicing the Popular: On the Subjects of Popular Music,,,,Richard Middleton,2006,1,,,352,0,English,62,,до 2011-01,"0415975905,9780415975902,9780203959510",,,,,781.6409,ML3470 .M53 2006,,,OL3415135M,,0,,,,,1,1,1,3177740,pdf,F8E16D4A44EFD10206AF4D34D78B892E,,,D:\\!genesis\\library.nu\\f8\\_133367.f8e16d4a44efd10206af4d34d78b892e.pdf,0,2000-01-01 01:00:00,2016-04-03 02:51:08,446000/f8e16d4a44efd10206af4d34d78b892e-d.jpg,,
21739799,Changing Relationships (Routledge Advances in Sociology),,,,Malcolm Brynin,2008,,,,260,0,English,178,,до 2011-01,"0415965233,9780415965231,9780203884591",,,,,306.87,HM1106 .C484 2009,,,OL10209061M,,0,,,,,1,1,1,3144401,pdf,F8E18D8398EBFD76837CAEAC32FA70C5,,,D:\\!genesis\\library.nu\\f8\\_133265.f8e18d8398ebfd76837caeac32fa70c5.pdf,0,2000-01-01 01:00:00,2016-04-03 02:51:08,446000/f8e18d8398ebfd76837caeac32fa70c5-d.jpg,,
21739800,The Video Game Theory Reader 2,,,,Bernard Perron,2008,1,Routledge,,453,0,English,141,,до 2011-01,"0415962838,9780415962834,041596282X,9780415962827",,,,,794.8,GV1469.3 .V57 2008,,,OL16991669M,,0,,,,1,0,,1,3441996,pdf,F8AC08E1EF5EF0FE41000298CD2F22D0,,,D:\\!genesis\\library.nu\\f8\\_133247.f8ac08e1ef5ef0fe41000298cd2f22d0.pdf,0,2000-01-01 01:00:00,2016-04-03 02:51:08,446000/f8ac08e1ef5ef0fe41000298cd2f22d0-d.jpg,,
21739801,"Coming out, Coming in: Nurturing the Well-Being and Inclusion of Gay youth in Mainstream Society",,,,Linda Goldman,2007,1,,,320,0,English,,,до 2011-01,"0415958245,9780415958240,9781435609051",,,,,306.76/60835,HQ76.27.Y68 G65 2007,,,OL10208780M,,0,,,,,1,1,1,7948222,pdf,F824323577E47B1284683B705B6B4D6A,,,D:\\!genesis\\library.nu\\f8\\_133234.f824323577e47b1284683b705b6b4d6a.pdf,0,2000-01-01 01:00:00,2016-04-03 02:51:08,446000/f824323577e47b1284683b705b6b4d6a-d.jpg,,
21739802,"Moral Responsibility, Authenticity, and Education (Routledge International Studies in the Philosophy of Education)",,,,Ishtiyaque Haji; Stefaan E. Cuypers,2008,1,,,258,0,English,183,,до 2011-01,"9780203895146,9780415964685,0415964687,0203895142",,,,,370.11/4,BJ1451 .H35 2008,,,OL10209031M,,0,,,,,1,1,1,2318241,pdf,F8C021A6E9782FAA145E3F13B77C260B,,,D:\\!genesis\\library.nu\\f8\\_132956.f8c021a6e9782faa145e3f13b77c260b.pdf,0,2000-01-01 01:00:00,2016-04-03 02:51:08,446000/f8c021a6e9782faa145e3f13b77c260b-d.jpg,,
21739803,Violence in Courtly Medieval Literature: A Casebook (Routledge Medieval Casebooks),,,,Albrecht Classen,2004,1,,,360,0,English,108,,до 2011-01,"0415971012,9780415971010,9780203341322",,,,,809/.933552,PN682.V55 V58 2004,,,OL3681823M,,0,,,,,1,1,1,2864170,pdf,F83B2611490C955B9B2C8353F72F5FC6,,,D:\\!genesis\\library.nu\\f8\\_132947.f83b2611490c955b9b2c8353f72f5fc6.pdf,0,2000-01-01 01:00:00,2016-04-03 02:51:08,446000/f83b2611490c955b9b2c8353f72f5fc6-d.jpg,,
21739804,Courting Communities: Black Female Nationalism and 'Syncre-Nationalism' in the Nineteenth-Century North (Studies in African American History and Culture),,,,Kathy L. Glass,2006,1,,,168,0,English,64,,до 2011-01,"0415979056,9780415979054,9780203960523",,,,,,,,,OL7498402M,,0,,,,,1,,1,886493,pdf,F8D2132F4CF68FB70DD595F7F1C9BF6C,,,D:\\!genesis\\library.nu\\f8\\_132899.f8d2132f4cf68fb70dd595f7f1c9bf6c.pdf,0,2000-01-01 01:00:00,2016-04-03 02:51:08,446000/f8d2132f4cf68fb70dd595f7f1c9bf6c-d.jpg,,
21739805,"Voices of Bereavement: A Casebook for Grief Counselors (The Series in Death, Dying, and Bereavement)",,,,Joan Beder,2004,1,,,240,0,English,,,до 2011-01,"9780415946148,9780415946155,041594614X,0415946158,0203503058,9780203503058",,,,,,,,,OL24253489M,,0,,,,,1,1,1,6663347,pdf,F86C213E4C53D2DC2849A55578B974B0,,,D:\\!genesis\\library.nu\\f8\\_132735.f86c213e4c53d2dc2849a55578b974b0.pdf,0,2000-01-01 01:00:00,2016-04-03 02:51:08,446000/f86c213e4c53d2dc2849a55578b974b0-g.jpg,,
21739806,"Knowledge Economies: Innovation, Organization and Location (Routledge Studies in Global Competition)",,,,Wilfred Dolfsma,2008,1,,,176,0,English,305,,до 2011-01,"9780203929698,9780415416658,0415416655",,,,,330,HD53 .D65 2008,,,OL10205535M,,0,,,,,1,1,1,1139120,pdf,F8E6221FB57611AD6B7308B043EBE5B7,,,D:\\!genesis\\library.nu\\f8\\_131824.f8e6221fb57611ad6b7308b043ebe5b7.pdf,0,2000-01-01 01:00:00,2016-04-03 02:51:08,446000/f8e6221fb57611ad6b7308b043ebe5b7-d.jpg,,
21739807,"Multimodal Pedagogies in Diverse Classrooms: Representation, Rights and Resources",,,,Pippa Stein,2007,1,,,192,0,English,203,,до 2011-01,"0415401658,9780415401654,9780203935804",,,,,370.117,LC1099 .S736 2008,,,OL10204977M,,0,,,,,1,,1,1820788,pdf,F801168A4C6D45DFFC1A3AFCDB2D95AA,,,D:\\!genesis\\library.nu\\f8\\_131416.f801168a4c6d45dffc1a3afcdb2d95aa.pdf,0,2000-01-01 01:00:00,2016-04-03 02:51:08,446000/f801168a4c6d45dffc1a3afcdb2d95aa-d.jpg,,
21739808,Studying Using the Web: The Student's Guide to Using the Ultimate Information Resource (Routledge Study Guides),,,,Brian Clegg,2006,1,,,176,0,English,183,,до 2011-01,"0415403723,9780415403726,9780203967096,041540374X,9780415403740",,,,,,,,,OL7494526M,,0,,,,,1,1,1,1256201,pdf,F85A33C3F4385F6BCC156505887CF918,,,D:\\!genesis\\library.nu\\f8\\_130920.f85a33c3f4385f6bcc156505887cf918.pdf,0,2000-01-01 01:00:00,2016-04-03 02:51:08,446000/f85a33c3f4385f6bcc156505887cf918-d.jpg,,
21739809,Application of Solution Protein Chemistry to Biotechnology (Protein Science),,,,Roger L. Lundblad,2009,1,,,452,0,English,17,,до 2011-01,"1420073419,9781420073416",,,,,660.6/3,TP248.65.P76 L86 2009,,,OL11817336M,,0,,,,1,0,,1,4996276,pdf,F84E9E579BFB118DCB9C383D4A89116F,,,D:\\!genesis\\library.nu\\f8\\_129956.f84e9e579bfb118dcb9c383d4a89116f.pdf,0,2000-01-01 01:00:00,2016-04-03 02:51:08,446000/f84e9e579bfb118dcb9c383d4a89116f-d.jpg,,
21739810,Queering Tourism - Paradoxical Performances of Gay Pride Parades (Routledge Studies in Human Geography),,,,Lynda Johnston,2005,1,,,160,0,English,183,,до 2011-01,"0415298008,9780415298001,9780203963807",,,,,306.76/6,HQ76.96 .J64 2005,,,OL22635949M,,0,,,,,1,1,1,1745570,pdf,F8755C36CD171FFF94495CAA14197510,,,D:\\!genesis\\library.nu\\f8\\_129700.f8755c36cd171fff94495caa14197510.pdf,0,2000-01-01 01:00:00,2016-04-03 02:51:08,446000/f8755c36cd171fff94495caa14197510-d.jpg,,
21739811,"Sport, Culture and Society: An Introduction",,,,Grant Jarvie,2006,,,,432,0,English,289,,до 2011-01,"0415306469,9780415306461,9780203970003",,,,,306.4/83,GV706.5 .J383 2005,,,OL3401010M,,0,,,,,1,1,1,2582903,pdf,F8ED577A2A8B93E184E26A2972562DAE,,,D:\\!genesis\\library.nu\\f8\\_129621.f8ed577a2a8b93e184e26a2972562dae.pdf,0,2000-01-01 01:00:00,2016-04-03 02:51:08,446000/f8ed577a2a8b93e184e26a2972562dae-d.jpg,,
21739812,New Catholic Feminism: Theology And Theory,,,,Tina Beattie,2006,1,,,224,0,English,,,до 2011-01,"0203500679,9780203500675,0203600959,9780203600955,0415301475,9780415301473,0415301483,9780415301480",,,,,230/.2/082,BX1795.F44 B43 2006,,,OL22717818M,,0,,,,,1,1,1,2755284,pdf,F83BDED4003B0D61816DF27B2D84A2DE,,,D:\\!genesis\\library.nu\\f8\\_129532.f83bded4003b0d61816df27b2d84a2de.pdf,0,2000-01-01 01:00:00,2016-04-03 02:51:08,446000/f83bded4003b0d61816df27b2d84a2de-d.jpg,,
21739813,Les Mots - Modes D'Emploi (French Edition),,,,"R Galisson, J Moreau, Robert Galisson",,,,,68,0,French,,,до 2011-01,"2190332710,9782190332710",,,,,,,,,OL12447774M,,0,,,,,1,1,1,1949610,pdf,F8A3D741BDF94BFE6F774F70665DBD1B,,,D:\\!genesis\\library.nu\\f8\\_129330.f8a3d741bdf94bfe6f774f70665dbd1b.pdf,0,2000-01-01 01:00:00,2016-04-03 02:51:08,446000/f8a3d741bdf94bfe6f774f70665dbd1b-g.jpg,,
21739814,State of the World: Towards a Sustainable Global Economy: Ideas and Opportunities for Sustainable Economies (2007),,,,Worldwatch Institute,2007,Rev Ed,,,288,0,English,305,,до 2011-01,"9781435634602,9781844074983,1844074986",,,,,,,,,,,0,,,,,1,,1,1891026,pdf,F83B3BACCA932274AD5EEBAAF8B40DA0,,,D:\\!genesis\\library.nu\\f8\\_128936.f83b3bacca932274ad5eebaaf8b40da0.pdf,0,2000-01-01 01:00:00,2016-04-03 02:51:08,446000/f83b3bacca932274ad5eebaaf8b40da0-d.jpg,,
21739815,"Reviews in Computational Chemistry, Volume 9",,,,"Kenneth B. Lipkowitz, Donald B. Boyd",1996,1,,,282,0,English,296,,до 2011-01,"0471186392,9780471186397",,,,,,,,,OL7613018M,,0,,,,,1,1,1,15978581,pdf,F8C17FDC97B4ACD3E567DA916FACD787,,,D:\\!genesis\\library.nu\\f8\\_128639.f8c17fdc97b4acd3e567da916facd787.pdf,0,2000-01-01 01:00:00,2016-04-03 02:51:08,446000/f8c17fdc97b4acd3e567da916facd787-d.jpg,,
21739816,Tipps und Tricks fur den Augenarzt: Problemlosungen von A - Z,,,,Dieter Schmidt,2008,1,,,464,0,German,,,до 2011-01,"3540487174,9783540487173",,,,,,,,,OL12775517M,,0,,,,,1,,1,7147158,pdf,F8E7EA2981B9CD36FF7BF1CEE5FBDFF2,,,D:\\!genesis\\library.nu\\f8\\_128597.f8e7ea2981b9cd36ff7bf1cee5fbdff2.pdf,0,2000-01-01 01:00:00,2016-04-03 02:51:08,446000/f8e7ea2981b9cd36ff7bf1cee5fbdff2-d.jpg,,
21739817,Computer Aided Methods in Optimal Design and Operations (Series on Computers and Operations Research),,,,"I. D. L. Bogle, J. Zilinskas",2006,,,,236,0,English,69,,до 2011-01,"981256909X,9789812569097,9789812772954",,,,,,,,,OL9197610M,,0,,,,,1,,1,12064903,pdf,F89184DE9C996D04F828A8A0E55D0D43,,,D:\\!genesis\\library.nu\\f8\\_128400.f89184de9c996d04f828a8a0e55d0d43.pdf,0,2000-01-01 01:00:00,2016-04-03 02:51:08,446000/f89184de9c996d04f828a8a0e55d0d43-d.jpg,,
21739818,Truth and Meaning: Essays in Semantics,,,,"Gareth Evans, John McDowell",1999,,,,448,0,English,,,до 2011-01,"019825007X,9780198250074",,,,,,,,,OL7398270M,,0,,,,,1,1,1,5062622,pdf,F88406A8547DF358A3C4C68FF68D0876,,,D:\\!genesis\\library.nu\\f8\\_128332.f88406a8547df358a3c4c68ff68d0876.pdf,0,2000-01-01 01:00:00,2016-04-03 02:51:08,446000/f88406a8547df358a3c4c68ff68d0876-d.jpg,,
21739819,The Philosophy of Donald Davidson,,,,Lewis Edwin Hahn,1999,,,,768,0,English,195,,до 2011-01,"9780812693980,0812693981,081269399X,9780812693997",,,,,,,,,OL8019028M,,0,,,,,1,,0,13770393,djvu,F881EBA79D0EDB1BB1C3DE3586FCE704,079d920499f83eee0674a33211f7c544,no,D:\\!genesis\\library.nu\\f8\\_128004.f881eba79d0edb1bb1c3de3586fce704.djvu,0,2000-01-01 01:00:00,2016-04-03 02:51:08,446000/f881eba79d0edb1bb1c3de3586fce704-d.jpg,,
21739820,Principia Ethica,,,,George Edward Moore,1959,,,,154,0,English,,,до 2011-01,,,B001309T0I,,,,,,,,,0,,,,,1,,1,613332,pdf,F8B7624D7EE0E0B5DC283062ECB4311C,,,D:\\!genesis\\library.nu\\f8\\_127733.f8b7624d7ee0e0b5dc283062ecb4311c.pdf,0,2000-01-01 01:00:00,2016-04-03 02:51:08,446000/f8b7624d7ee0e0b5dc283062ecb4311c-g.jpg,,
21739821,The Philosophy of Management: Early Sociology of Business and Management (The Making of Sociology),,,,Oliver Sheldon,2003,Reprint,,,320,0,English,194,,до 2011-01,"0415279844,9780415279840",,,,,,,,,OL7489804M,,0,,,,,1,1,1,1362747,pdf,F87236380A0F82E62AE108541EA244FA,,,D:\\!genesis\\library.nu\\f8\\_127309.f87236380a0f82e62ae108541ea244fa.pdf,0,2000-01-01 01:00:00,2016-04-03 02:51:08,446000/f87236380a0f82e62ae108541ea244fa-d.jpg,,
21739822,Enhancing Stability and Professional Development Using Distance Learning,,,,Henry A.  Leonard,2001,,,,62,0,English,183,,до 2011-01,"0833029827,9780833029829",,,,,,,,,OL9518925M,,0,,,,,1,,0,3137513,pdf,F8EFFD75C3E3DCCB8CEA8397E651CD10,,,D:\\!genesis\\library.nu\\f8\\_126935.f8effd75c3e3dccb8cea8397e651cd10.pdf,0,2000-01-01 01:00:00,2016-04-03 02:51:08,446000/f8effd75c3e3dccb8cea8397e651cd10-d.jpg,,
21739823,Examining child Care need Among Military Families,,,,Susan M. Gates,2006,1,,,114,0,English,67,,до 2011-01,"0833039024,9780833039026",,,,,362.71/208835500973,UB403 .G37 2006,,,OL19338097M,,0,,,,,1,,1,544206,pdf,F84FDC43A180442E32145F10ABFDE1C5,,,D:\\!genesis\\library.nu\\f8\\_126856.f84fdc43a180442e32145f10abfde1c5.pdf,0,2000-01-01 01:00:00,2016-04-03 02:51:08,446000/f84fdc43a180442e32145f10abfde1c5-d.jpg,,
21739824,Raising Standards in Literacy (Language and Literacy Inaction),,,,Ros Fisher,2002,,,,288,0,English,314,,до 2011-01,"9780203166222,9780203281314,9780415263504,0203166221,0415263506,0415263514,9780415263511",,,,,372.6,LB1576 .R33 2002,,,OL19059904M,,0,,,,,1,1,1,2809451,pdf,F8484D9521231ADCCE8E5181D64A4274,,,D:\\!genesis\\library.nu\\f8\\_126770.f8484d9521231adcce8e5181d64a4274.pdf,0,2000-01-01 01:00:00,2016-04-03 02:51:08,446000/f8484d9521231adcce8e5181d64a4274-d.jpg,,
21739825,Enterprise Security: The Manager's Defense Guide,,,,David Leon Clark,2002,1,,,288,0,English,78,,до 2011-01,"020171972X,9780201719727",,,,,005.8,QA76.9.A25 C54 2003,,,OL22441259M,,0,,,,,1,,1,2478570,pdf,F8963146077A3565634A3B2B63749976,,,D:\\!genesis\\library.nu\\f8\\_126220.f8963146077a3565634a3b2b63749976.pdf,0,2000-01-01 01:00:00,2016-04-03 02:51:08,446000/f8963146077a3565634a3b2b63749976-d.jpg,,
21739826,"Fallschirmjager: German Paratroopers from Glory to Defeat, 1939-1945 (Warrior Series)",,,,I. M. Baxter,2002,,,,55,0,English,64,,до 2011-01,"9623616864,9789623616867",,,,,,,,,OL9160426M,,0,,,,,1,,0,19926424,pdf,F82CDCED2A24F77E5B17CBF74E52474C,,,D:\\!genesis\\library.nu\\f8\\_126178.f82cdced2a24f77e5b17cbf74e52474c.pdf,0,2000-01-01 01:00:00,2016-04-03 02:51:08,446000/f82cdced2a24f77e5b17cbf74e52474c-g.jpg,,
21739827,Solid-Phase Organic Synthesis,,,,Kevin Burgess,1999,1,,,296,0,English,300,,до 2011-01,"0471318256,9780471458456,9780471318255",,,,,,,,,OL17003864M,,0,,,,,1,,1,27386407,pdf,F88D21D5ECFE2F756D4D1D1E01232DF8,,,D:\\!genesis\\library.nu\\f8\\_126102.f88d21d5ecfe2f756d4d1d1e01232df8.pdf,0,2000-01-01 01:00:00,2016-04-03 02:51:08,446000/f88d21d5ecfe2f756d4d1d1e01232df8-d.jpg,,
21739828,Critical Realism: Essential Readings (Critical Realism: Interventions),,,,"Roy Bhaskar, Margaret Archer, Andrew Collier, Tony Lawson, Alan Norrie",1998,1,,,784,0,English,196,,до 2011-01,"0415196329,9780415196321,0415196310,9780415196314",,,,,149/.2,B835 .C75 1998,,,OL358888M,,0,,,,,1,1,1,5448640,pdf,F87F148052A0FBD1678E53340266AD94,,,D:\\!genesis\\library.nu\\f8\\_125345.f87f148052a0fbd1678e53340266ad94.pdf,0,2000-01-01 01:00:00,2016-04-03 02:51:08,446000/f87f148052a0fbd1678e53340266ad94-d.jpg,,
21739829,Podstawy techniki cyfrowej,,,,Andrzej Skorupski,,,,,162,0,Polish,,,до 2011-01,"8320613906,9788320613902",,,,,,,,,,,0,,,,,1,,0,16009299,pdf,F8545FE79C867354773C18329BD3D1EE,,,D:\\!genesis\\library.nu\\f8\\_125319.f8545fe79c867354773c18329bd3d1ee.pdf,0,2000-01-01 01:00:00,2016-04-03 02:51:08,446000/f8545fe79c867354773c18329bd3d1ee-g.jpg,,
21739830,"Collected Works, Vol. 30: Marx: 1861-1863",,Karl Marx and Frederick Engels. Collected Works 30,,"Karl Marx, Frederick Engels",1989,,International Publishers,,538,0,English,,,до 2011-01,"0717805301,9780717805303",,,,,,,,,,,0,,,,,1,,0,91011313,pdf,F8E109D1EFAFB3B50D620F8A8BD64F8A,,,D:/!genesis/library.nu/f8/_125093.f8e109d1efafb3b50d620f8a8bd64f8a.pdf,0,2000-01-01 01:00:00,2016-04-03 02:51:08,446000/f8e109d1efafb3b50d620f8a8bd64f8a-g.jpg,,
21739831,Land and Economy In Ancient Palestine,,,,Jack Pastor,1997,1,Routledge,,271,0,English,64,,до 2011-01,"0415159601,9780415159609,9780203319536",,,,,333.3/095694,HD129 .P37 1997,,,OL1002391M,,0,,,,1,0,1,1,2083025,pdf,F85CFE2BCADA27956AB33FA126097791,,,D:\\!genesis\\library.nu\\f8\\_124256.f85cfe2bcada27956ab33fa126097791.pdf,0,2000-01-01 01:00:00,2016-04-03 02:51:08,446000/f85cfe2bcada27956ab33fa126097791-d.jpg,,
21739832,Learning to Teach Modern Foreign Languages in the Secondary School: A Companion to School Experience (Learning to Teach Subjects in the Secondary School Series),,,,N. Pachler,1997,First Edition,,,416,0,English,314,,до 2011-01,"9780203243480,9780203470190,9780203992364,9780415162814,9780415240208,0203470192,0415162815,0415240204",,,,,418/.0071/2,PB35 .P13 1997,,,OL672675M,,0,,,,,1,1,1,2971385,pdf,F80D0B9F9E5D48868958BCE2AC9F4360,,,D:\\!genesis\\library.nu\\f8\\_124253.f80d0b9f9e5d48868958bce2ac9f4360.pdf,0,2000-01-01 01:00:00,2016-04-03 02:51:08,446000/f80d0b9f9e5d48868958bce2ac9f4360-d.jpg,,
21739833,Happenings and Other Acts (Worlds of Performance),,,,M. Sandford,1995,,,,320,0,English,,,до 2011-01,"9780415099356,9780415099363,0415099358,0415099366,0203204344,9780203204344,9780203288023",,,,,792/.022,PN3203 .H34 1995,,,OL1077479M,,0,,,,,1,1,1,6206827,pdf,F875BA5F5EB9A14F33EB27FA6E294E08,,,D:\\!genesis\\library.nu\\f8\\_124227.f875ba5f5eb9a14f33eb27fa6e294e08.pdf,0,2000-01-01 01:00:00,2016-04-03 02:51:08,446000/f875ba5f5eb9a14f33eb27fa6e294e08-g.jpg,,
21739834,The Politics of Public Expenditure,,,,M. Mullard,1993,2,Routledge,,293,0,English,192,,до 2011-01,"0415102227,9780415102223,9780203992326",,,,,336.3/9/0941,HJ7764 .M85 1993,,,OL1165244M,,0,,,,1,0,1,1,2549243,pdf,F89E3BD481EE97A0A5771E54E6ECCD56,,,D:\\!genesis\\library.nu\\f8\\_124134.f89e3bd481ee97a0a5771e54e6eccd56.pdf,0,2000-01-01 01:00:00,2016-04-03 02:51:08,446000/f89e3bd481ee97a0a5771e54e6eccd56-d.jpg,,
21739835,Developing quality systems in education,,,,Geoff Doherty,1994,,,,352,0,English,183,,до 2011-01,"0415098297,9780415098298,0203423666,9780203423660,9780203302446",,,,,371.2/00941,LB2900.5 .Q35 1994,,,OL1435634M,,0,,,,,1,1,1,2973764,pdf,F88EA632D79086EBBFF19CC2FEF26FE6,,,D:\\!genesis\\library.nu\\f8\\_124116.f88ea632d79086ebbff19cc2fef26fe6.pdf,0,2000-01-01 01:00:00,2016-04-03 02:51:08,446000/f88ea632d79086ebbff19cc2fef26fe6-d.jpg,,
21739836,Own or Other Culture,,,,Judith Okely,1996,,,,256,0,English,,,до 2011-01,"0415115124,9780415115124,9780203973790",,,,,301,GN34.3.F53 O44 1996,,,OL793373M,,0,,,,,1,,1,2426695,pdf,F87530CB36AB8D338F3E278F96DCB54C,,,D:\\!genesis\\library.nu\\f8\\_124022.f87530cb36ab8d338f3e278f96dcb54c.pdf,0,2000-01-01 01:00:00,2016-04-03 02:51:08,446000/f87530cb36ab8d338f3e278f96dcb54c-d.jpg,,
21739837,"Immigration, Race and Ethnicity in Contemporary France",,,,A. Hargreaves,1995,1,,,288,0,English,,,до 2011-01,"9780415118163,0415118166,0415118174,9780415118170,9780203294208",,,,,305.8/00944,JV7925 .H375 1995,,,OL1274605M,,0,,,,,1,1,1,1444274,pdf,F82779DF21E8C3441E7FC98C9F13DF3E,,,D:\\!genesis\\library.nu\\f8\\_123978.f82779df21e8c3441e7fc98c9f13df3e.pdf,0,2000-01-01 01:00:00,2016-04-03 02:51:08,446000/f82779df21e8c3441e7fc98c9f13df3e-d.jpg,,
21739838,"Feminist Review: Journal, Issue 42 (''Feminist Review'' Journal)",,,,Feminist Review,1993,1,,,128,0,English,181,,до 2011-01,"0415080266,9780415080262,9780203990698",,,,,,,,,OL21395088M,periodic,0,,,,,1,,1,7647378,pdf,F81CD9E46BAF2745A17D43F576EFC6D4,,ban,D:\\!genesis\\library.nu\\f8\\_123822.f81cd9e46baf2745a17d43f576efc6d4.pdf,0,2000-01-01 01:00:00,2016-04-03 02:51:08,446000/f81cd9e46baf2745a17d43f576efc6d4-d.jpg,,
21739839,Understanding Scotland: The Sociology of a Stateless Nation (International Library of Sociology),,,,David McCrone,1992,1,,,256,0,English,194,,до 2011-01,"9780415067485,0415067480,0415067472,9780415067478,0203414926,9780203414927,9780585455761",,,,,306/.09411,HN398.S3 M38 1992,,,OL1554636M,,0,,,,,1,1,1,1327277,pdf,F82A2A3F015B9E691E44A664BB6D4603,,,D:\\!genesis\\library.nu\\f8\\_123563.f82a2a3f015b9e691e44a664bb6d4603.pdf,0,2000-01-01 01:00:00,2016-04-03 02:51:08,446000/f82a2a3f015b9e691e44a664bb6d4603-g.jpg,,
21739840,"Immobilien-Portfoliomanagement für die öffentliche Hand : Ziele, Nutzen und Vorgehen in der Praxis auf der Basis von Benchmarks",,Gabler Edition Wissenschaft,,Stephan Seilheimer,2007,,Deutscher Universitäts-Verlag,Wiesbaden,246,0,German,,usenet,to 2012-06,"9783835095090,3835095099",,,,,,,,,,,0,,,,,,,1,22189470,pdf,fce7ca144049135d96509e166cda53ca,,,I:\\usenet_ger\\Immobilien-Portfoliomanagement.fuer.die.oeffentliche.Hand.[Springer].[2007].[p62433].pdf,0,2000-01-01 01:00:00,2016-04-03 02:51:08,883000/fce7ca144049135d96509e166cda53ca-g.jpg,,
21739841,"Psychic Equilibrium and Psychic Change: Selected Papers of Betty Joseph (New Library of Psychoanalysis, 9)",,,,M. Feldman,1989,1,,,230,0,English,198,,до 2011-01,"9780415041164,0415041163,0203359089,9780203359082,9780203375846",,,,,616.89/17,RC504 .J67 1989,,,OL2186382M,,0,,,,,1,1,1,2086827,pdf,F8A1C9EB0806711307C29C08130E6818,,,D:\\!genesis\\library.nu\\f8\\_123335.f8a1c9eb0806711307c29c08130e6818.pdf,0,2000-01-01 01:00:00,2016-04-03 02:51:08,446000/f8a1c9eb0806711307c29c08130e6818-g.jpg,,
21739842,Artistic Techniques with Adobe Photoshop and Corel Painter: A Guide for Photographers,,,,Deborah Ferro,2005,,,,128,0,English,59,,до 2011-01,"1584281650,9781584281658",,,,,,,,,OL8793088M,,0,,,,,1,1,1,5176671,pdf,F820F424250170285493648C11666F97,,,D:\\!genesis\\library.nu\\f8\\_123134.f820f424250170285493648c11666f97.pdf,0,2000-01-01 01:00:00,2016-04-03 02:51:08,446000/f820f424250170285493648c11666f97-d.jpg,,
21739843,Theory and Research on Small Groups (Social Psychological Applications to Social Issues),,,,"R. Scott Tindale, Linda Heath, John Edwards, Emil J. Posavac, Fred B. Bryant, Judith Myers, Yolanda",1998,1,,,300,0,English,137,,до 2011-01,"0306471442,0306456796,9780306471445,9780306456794",,,,,302.3/4,HM133 .T47 1998,,,OL693712M,,0,,,,,,,1,2454203,pdf,F8D2D21B42D871FDC41EE499A7E3058E,,,D:\\!genesis\\library.nu\\f8\\_122881.f8d2d21b42d871fdc41ee499a7e3058e.pdf,0,2000-01-01 01:00:00,2016-04-03 02:51:08,446000/f8d2d21b42d871fdc41ee499a7e3058e-d.jpg,,
21739844,An Introduction to Queueing Theory: Modeling and Analysis in Applications,,Statistics for Industry and Technology,,U. Narayan Bhat (auth.),2008,1,Birkhäuser Basel,,268,0,English,137,,до 2011-01,"0817647244,9780817647247,9780817647254",,,,,,,10.1007/978-0-8176-4725-4,,OL23206271M,,0,,,,1,0,1,1,1143890,pdf,F8E80FA3AF83EF1033E082007EDD2BB4,,,D:\\!genesis\\library.nu\\f8\\_122441.f8e80fa3af83ef1033e082007edd2bb4.pdf,0,2000-01-01 01:00:00,2016-04-03 02:51:08,446000/f8e80fa3af83ef1033e082007edd2bb4-d.jpg,,
21739845,Mycorrhizas - Functional Processes and Ecological Impact,,,,"David Atkinson (auth.), Concepción Azcón-Aguilar, Jose Miguel Barea, Silvio Gianinazzi, Vivienne Gianinazzi-Pearson (eds.)",2009,1,Springer-Verlag Berlin Heidelberg,,239,0,English,31,,до 2011-01,"3540879773,9783540879770",,,,,631.4/6,SB106.M83 M94 2009,10.1007/978-3-540-87978-7,,OL23533142M,,0,,,,1,0,1,1,2411377,pdf,F80168B9C4F47EB1E7E643CF7E9A928B,,,D:\\!genesis\\library.nu\\f8\\_122287.f80168b9c4f47eb1e7e643cf7e9a928b.pdf,0,2000-01-01 01:00:00,2016-04-03 02:51:08,446000/f80168b9c4f47eb1e7e643cf7e9a928b-d.jpg,,
21739846,"The Cipher: A Novel of Crosspointe, Book 1",,,,Diana Pharaoh Francis,2007,,,,432,0,English,,,до 2011-01,"1429555963,0451461797,9780451461797",,,,,813/.6,PS3606.R3644 C57 2007,,,OL10273702M,,0,,,,,1,,1,1666832,pdf,F8591C3345D8642AF41370DD430180E2,,,D:\\!genesis\\library.nu\\f8\\_122178.f8591c3345d8642af41370dd430180e2.pdf,0,2000-01-01 01:00:00,2016-04-03 02:51:08,446000/f8591c3345d8642af41370dd430180e2-d.jpg,,
21739847,Posthumanity: Merger & Embodiment,,,,Edited by Adam W. Ruch and Ewan Kirkland,,,,,234,0,English,,,до 2011-01,9781848880184,,,,,,,,,,,0,,,,,1,1,1,1911262,pdf,F8F1E5DCBB679AA77C9430CBC9BE5776,,,D:\\!genesis\\library.nu\\f8\\_122086.f8f1e5dcbb679aa77c9430cbc9be5776.pdf,0,2000-01-01 01:00:00,2016-04-03 02:51:08,446000/f8f1e5dcbb679aa77c9430cbc9be5776-g.jpg,,
21739848,The Partnership Model in Human Services: Sociological Foundations and Practices (Clinical Sociology: Research and Practice),,,,Rosalyn Benjamin Darling,2000,1,,,325,0,English,194,,до 2011-01,"0306462745,9780306471803,9780306462740",,,,,,,,,OL9725060M,,0,,,,1,0,1,1,1212693,pdf,F85B725FB0748FE35BC6B5CB31E17301,,,D:\\!genesis\\library.nu\\f8\\_121810.f85b725fb0748fe35bc6b5cb31e17301.pdf,0,2000-01-01 01:00:00,2016-04-03 02:51:08,446000/f85b725fb0748fe35bc6b5cb31e17301-d.jpg,,
21739849,"SAS For Dummies, 2nd Edition",,,,"Stephen McDaniel, Chris Hemedinger",2010,2,,,384,0,English,187,,до 2011-01,"0470539682,9780470539682",,,,,,,,,,,0,,,,,1,,1,10596058,pdf,F889ED32C39C080EEACB5A00DF3492E1,,,D:\\!genesis\\library.nu\\f8\\_121782.f889ed32c39c080eeacb5a00df3492e1.pdf,0,2000-01-01 01:00:00,2016-04-03 02:51:08,446000/f889ed32c39c080eeacb5a00df3492e1-d.jpg,,
21739850,Non-Violent Resistance: A New Approach to Violent and Self-destructive Children,,,,Haim Omer,2004,1,,,230,0,English,,,до 2011-01,"0521829488,9780521829489,0521536235,9780521536233,9780511550652",,,,,,,,,OL22583882M,,0,,,,,1,,1,758098,pdf,F8458A2A7E99FEB89907E5375866A87B,,,D:\\!genesis\\library.nu\\f8\\_121291.f8458a2a7e99feb89907e5375866a87b.pdf,0,2000-01-01 01:00:00,2016-04-03 02:51:08,446000/f8458a2a7e99feb89907e5375866a87b-d.jpg,,
21739851,"Dismembering the Body Politic: Partisan Politics in England's Towns, 1650-1730 (Cambridge Studies in Early Modern British History)",,,,Paul D. Halliday,1998,,,,416,0,English,64,,до 2011-01,"0521552532,9780521552530,0521526043,9780521526043,9780511549380",,,,,306.2/0942/09032,JN191 .H34 1998,,,OL672431M,,0,,,,,1,,1,8027042,pdf,F8B8DA73CD5D66989AEB089140369F79,,,D:\\!genesis\\library.nu\\f8\\_121221.f8b8da73cd5d66989aeb089140369f79.pdf,0,2000-01-01 01:00:00,2016-04-03 02:51:08,446000/f8b8da73cd5d66989aeb089140369f79-d.jpg,,
21739852,True Love and Bartholomew: Rebels on the Burmese Border,,,,Jonathan Falla,2006,1,,,428,0,English,,,до 2011-01,"0521399203,9780521399203,0521390192,9780521390194,9780511521065",,,,,959.1/00495,DS528.2.K35 F35 1990,,,OL1871492M,,0,,,,,1,,1,12625300,pdf,F87CB6776F4151B15835442505E4F441,,,D:\\!genesis\\library.nu\\f8\\_121211.f87cb6776f4151b15835442505e4f441.pdf,0,2000-01-01 01:00:00,2016-04-03 02:51:08,446000/f87cb6776f4151b15835442505e4f441-d.jpg,,
21739853,The Hudson River Estuary,,,,"Jeffrey S. Levinton, John R. Waldman",2006,,,,488,0,English,,,до 2011-01,"0521844789,9780521844789,9780511550539",,,,,577.7/86/097473,QH104.5.H83 H83 2006,,,OL22725307M,,0,,,,,1,,1,23190254,pdf,F8038BBF37BD2DF94C1CF88AF41F3C7D,,,D:\\!genesis\\library.nu\\f8\\_121168.f8038bbf37bd2df94c1cf88af41f3c7d.pdf,0,2000-01-01 01:00:00,2016-04-03 02:51:08,446000/f8038bbf37bd2df94c1cf88af41f3c7d-d.jpg,,
21739854,Die Geometrie der Wolken,,,,Giles Foden,,,,,744,0,German,121,,до 2011-01,"3351032927,9783351032920",,,,,,,,,,,0,,,,,1,1,1,2345417,pdf,F849C1B3B9E190109A1178196D1EADAF,,,D:\\!genesis\\library.nu\\f8\\_121057.f849c1b3b9e190109a1178196d1eadaf.pdf,0,2000-01-01 01:00:00,2016-04-03 02:51:08,446000/f849c1b3b9e190109a1178196d1eadaf-g.jpg,,
21739855,Anglo-Saxon Medicine,,Cambridge Studies in Anglo-Saxon England,,Malcolm Laurence Cameron,1993,,Cambridge University Press,,224,0,English,183,,до 2011-01,"0521405211,9780521405218,0521031222,9780521031226,9780511518706",,,,,615.8/99/09,R141 .C35 1993,,,,,0,,,,,1,,1,5005092,pdf,F8518DFC5EF28246131605731688238D,,,D:/!genesis/library.nu/f8/_120533.f8518dfc5ef28246131605731688238d.pdf,0,2000-01-01 01:00:00,2016-04-03 02:51:08,446000/f8518dfc5ef28246131605731688238d-d.jpg,,
21739856,Contemporary Russian Satire: A Genre Study (Cambridge Studies in Russian Literature),,,,Karen L. Ryan-Hayes,1996,,,,303,0,English,183,,до 2011-01,"0521475155,9780521475150,0521026261,9780521026260,9780511519635",,,,,891.77/4409,PG3026.S3 R94 1995,,,OL1271049M,,0,,,,,1,,1,5321450,pdf,F8B406947853B7BFF12D2508DD5EE6D0,,,D:\\!genesis\\library.nu\\f8\\_120531.f8b406947853b7bff12d2508dd5ee6d0.pdf,0,2000-01-01 01:00:00,2016-04-03 02:51:08,446000/f8b406947853b7bff12d2508dd5ee6d0-d.jpg,,
21739857,Images of Community in Old English Poetry (Cambridge Studies in Anglo-Saxon England),,,,Hugh Magennis,1996,,,,221,0,English,183,,до 2011-01,"0521495660,9780521495660,0521031842,9780521031844,9780511518744",,,,,829/.1,PR203 .M24 1996,,,OL7714835M,,0,,,,,1,,1,5095335,pdf,F81F2310084474EB6BA6D01A6007039B,,,D:\\!genesis\\library.nu\\f8\\_120527.f81f2310084474eb6ba6d01a6007039b.pdf,0,2000-01-01 01:00:00,2016-04-03 02:51:08,446000/f81f2310084474eb6ba6d01a6007039b-d.jpg,,
21739858,Putting Skeptics in their Place: The Nature of Skeptical Arguments and Their Role in Philosophical Inquiry (Cambridge Studies in Philosophy),,,,John Greco,2000,,,,280,0,English,183,,до 2011-01,"052177263X,9780521772631,0521045533,9780521045537,9780511527418",,,,,,,,,OL7752979M,,0,,,,,1,,1,5632723,pdf,F8C7C47C5575C242F09A687F88C911DB,,,D:\\!genesis\\library.nu\\f8\\_120427.f8c7c47c5575c242f09a687f88c911db.pdf,0,2000-01-01 01:00:00,2016-04-03 02:51:08,446000/f8c7c47c5575c242f09a687f88c911db-d.jpg,,
21739859,"Grundriss Staatliche Finanzpolitik, 2. Auflage",,,,Stefan Bajohr,2007,,,,274,0,German,,,до 2011-01,"3531155261,9783531155265",,,,,,,,,,,0,,,,,1,1,1,1821834,pdf,F80BB2B6CCAFFEA560040F3073DA7533,,,D:\\!genesis\\library.nu\\f8\\_120393.f80bb2b6ccaffea560040f3073da7533.pdf,0,2000-01-01 01:00:00,2016-04-03 02:51:08,446000/f80bb2b6ccaffea560040f3073da7533-d.jpg,,
21739860,Functional Foods: Concept to Product (Woodhead Publishing in Food Science and Technology),,,,"Glenn R. Gibson, Christine M Williams",2000,1,,,356,0,English,181,,до 2011-01,"9780849308512,0849308518,1855735032,9781855735033,9781855736436",,,,,,,,,OL12001081M,,0,,,,,1,1,1,1964791,pdf,F8C9BE71D65E324EC0F383F035C4B638,,,D:\\!genesis\\library.nu\\f8\\_119872.f8c9be71d65e324ec0f383f035c4b638.pdf,0,2000-01-01 01:00:00,2016-04-03 02:51:08,446000/f8c9be71d65e324ec0f383f035c4b638-d.jpg,,
21739861,"Biscuit, Cracker, and Cookie Recipes for the Food Industry",,,,Duncan J.R. Manley,2001,1,,,189,0,English,137,,до 2011-01,"9780849312205,0849312205,1855735431,9781855735439,9781855736269",,,,,,,,,OL8258975M,,0,,,,,1,1,1,782058,pdf,F82789342939B4148D0A628CAE7C32F8,,,D:\\!genesis\\library.nu\\f8\\_119449.f82789342939b4148d0a628cae7c32f8.pdf,0,2000-01-01 01:00:00,2016-04-03 02:51:08,446000/f82789342939b4148d0a628cae7c32f8-d.jpg,,
21739862,Antioxidants in Foods: Practical Applications,,,,"J. Pokorny, N. Yanishlieva, M. Gordon",2001,1,,,288,0,English,137,,до 2011-01,"9780849312229,0849312221,185573463X,9781855734630,9781855736160",,,,,,,,,OL21085889M,,0,,,,,1,1,1,2320585,pdf,F869649AD3F822E676E6C1B022CC4ACA,,,D:\\!genesis\\library.nu\\f8\\_119318.f869649ad3f822e676e6c1b022cc4aca.pdf,0,2000-01-01 01:00:00,2016-04-03 02:51:08,446000/f869649ad3f822e676e6c1b022cc4aca-d.jpg,,
21739863,Luther's Pine: An Autobiography,,,,John N. Molony,2004,,,,302,0,English,18,,до 2011-01,"174076126X,9781740761260,9781740761451",,,,,,,,,,,0,,,,,1,,1,940826,pdf,F81C95F97E8D613F7A3AEF4F8A3309CB,,,D:\\!genesis\\library.nu\\f8\\_119175.f81c95f97e8d613f7a3aef4f8a3309cb.pdf,0,2000-01-01 01:00:00,2016-04-03 02:51:08,446000/f81c95f97e8d613f7a3aef4f8a3309cb-d.jpg,,
21739864,The use of electrochemical scanning tunnelling microscopy (EC-STM) in corrosion analysis: Reference material and procedural guidelines (EFC 44) (European Federation of Corrosion Publications),,,,"R Lindstrom, V. Maurice, L Klein, P. Marcus",2006,,,,32,0,English,296,,до 2011-01,"9781420051193,1420051199,1845692357,9781845692353,9781845692568",,,,,620.11223,,,,OL22757475M,,0,,,,,1,1,1,1875668,pdf,F818A602610C1DB9183873BA76F99CB3,,,D:\\!genesis\\library.nu\\f8\\_118882.f818a602610c1db9183873ba76f99cb3.pdf,0,2000-01-01 01:00:00,2016-04-03 02:51:08,446000/f818a602610c1db9183873ba76f99cb3-d.jpg,,
21739865,Pro Hibernate 3 (Expert's Voice),,,,Jeff Linwood Dave Minter,2005,1,,,242,0,English,92,,до 2011-01,"1590595114,9781590595114,9781430200420",,,,,,,,,OL8848765M,,0,,,,,1,,1,1495488,pdf,F85464CAA1753559C1B0504B3A055ACF,,,D:\\!genesis\\library.nu\\f8\\_118671.f85464caa1753559c1b0504b3a055acf.pdf,0,2000-01-01 01:00:00,2016-04-03 02:51:08,446000/f85464caa1753559c1b0504b3a055acf-d.jpg,,
21739866,The Real MCTS MCITP Exam 70-642 Prep Kit: Independent and Complete Self-Paced Solutions,,,,Brien Posey,2008,,,,800,0,English,137,,до 2011-01,"1597492469,9781597492461,9780080570365",,,,,005.4476,QA76.76.O63 R428 2008,,,OL16946166M,,0,,,,,1,,1,13049102,pdf,F8F139B26E584E618EE69A93FE0FD747,,,D:\\!genesis\\library.nu\\f8\\_118663.f8f139b26e584e618ee69a93fe0fd747.pdf,0,2000-01-01 01:00:00,2016-04-03 02:51:08,446000/f8f139b26e584e618ee69a93fe0fd747-d.jpg,,
21739867,Pro Spring,,,,Rob Harrop,2005,1,,,832,0,English,,,до 2011-01,"1590594614,9781590594612,9781430200048",,,,,,,,,OL8848734M,,0,,,,,1,1,1,6417829,pdf,F8C565AB6524FC800C1E666824CA20EF,,,D:\\!genesis\\library.nu\\f8\\_118592.f8c565ab6524fc800c1e666824ca20ef.pdf,0,2000-01-01 01:00:00,2016-04-03 02:51:08,446000/f8c565ab6524fc800c1e666824ca20ef-d.jpg,,
21739868,The Focal Easy Guide to Adobe Audition 2.0 (Focal Easy Guide),,,,Antony Brown,2006,1,,,152,0,English,95,,до 2011-01,"0240520181,9780240520186,9780080462530",,,,,006.5,ML74.4.A36 B76 2006,,,OL22650829M,,0,,,,,1,,1,3135156,pdf,F89E17CD76461CFBBA8150A7A25259A2,,,D:\\!genesis\\library.nu\\f8\\_117632.f89e17cd76461cfbba8150a7a25259a2.pdf,0,2000-01-01 01:00:00,2016-04-03 02:51:08,446000/f89e17cd76461cfbba8150a7a25259a2-d.jpg,,
21739869,Geschlecht und digitale Medien,,,,Anja Tigges,2008,,,,164,0,German,,,до 2011-01,"3925143394,9783531157078",,,,,,,,,OL16713262M,,0,,,,,1,1,1,1389533,pdf,F86A552C92F07E0E212E257C47305067,,,D:\\!genesis\\library.nu\\f8\\_116455.f86a552c92f07e0e212e257c47305067.pdf,0,2000-01-01 01:00:00,2016-04-03 02:51:08,446000/f86a552c92f07e0e212e257c47305067-g.jpg,,
21739870,Demographics of the U.S: Trends and Projections (Demographics of the Us),,,,Cheryl Russell,2002,2,,,452,0,English,59,,до 2011-01,"9781423766148,9781885070487,1885070489",,,,,,,,,OL8702788M,,0,,,,,1,,1,1271158,pdf,F831F27A7DE1E86EF95FAD3692DDCBF0,,,D:\\!genesis\\library.nu\\f8\\_116339.f831f27a7de1e86ef95fad3692ddcbf0.pdf,0,2000-01-01 01:00:00,2016-04-03 02:51:08,446000/f831f27a7de1e86ef95fad3692ddcbf0-g.jpg,,
21739871,Mr. & Mrs. Fitzwilliam Darcy: Two Shall Become One (Mr & Mrs Fitzwilliam Darcy),,,,Sharon Lathan,2009,1,,,309,0,English,,,до 2011-01,"1402215231,9781402215230",,,,,813/.6,PS3612.A869 T86 2009,,,OL23160673M,,0,,,,,1,,1,1404051,pdf,F80EF8689EA52DF438F47F0D8437B9D2,,,D:\\!genesis\\library.nu\\f8\\_116330.f80ef8689ea52df438f47f0d8437b9d2.pdf,0,2000-01-01 01:00:00,2016-04-03 02:51:08,446000/f80ef8689ea52df438f47f0d8437b9d2-d.jpg,,
21739872,"Moving Histories of Class and Community: Identity, Place and Belonging in Contemporary England (Identity Studies in the Social Sciences)",,,,"Ben Rogaly, Becky Taylor",2009,First Edition,,,240,0,English,64,,до 2011-01,"0230219934,9780230219939",,,,,305.50942,HN398.N6156 R65 2009,,,OL23713608M,,0,,,,1,0,1,1,1210711,pdf,F8A441F3FBAFD6BDD447C9133EB23DFB,,,D:\\!genesis\\library.nu\\f8\\_116008.f8a441f3fbafd6bdd447c9133eb23dfb.pdf,0,2000-01-01 01:00:00,2016-04-03 02:51:08,446000/f8a441f3fbafd6bdd447c9133eb23dfb-d.jpg,,
21739873,Advances in Food Biochemistry,,,,Fatih Yildiz,2009,1,,,521,0,English,296,,до 2011-01,"0849374995,9780849374999",,,,,664,TP248.65.F66 A355 2010,,,OL11560266M,,0,,,,1,0,,1,4225402,pdf,F8C965A2142BF7DA3021FD97C7E45D40,,,D:\\!genesis\\library.nu\\f8\\_115819.f8c965a2142bf7da3021fd97c7e45d40.pdf,0,2000-01-01 01:00:00,2016-04-03 02:51:08,446000/f8c965a2142bf7da3021fd97c7e45d40-d.jpg,,
21739874,Origins of Objectivity,,,,Tyler Burge,2010,,,,656,0,English,,,до 2011-01,"0199581401,9780199581405",,,,,,,,,,,0,,,,,1,1,1,2377189,pdf,F8D0D097A7828B63E020AFFC0226529A,,,D:\\!genesis\\library.nu\\f8\\_115801.f8d0d097a7828b63e020affc0226529a.pdf,0,2000-01-01 01:00:00,2016-04-03 02:51:08,446000/f8d0d097a7828b63e020affc0226529a-d.jpg,,
21739875,From the Closed World to the Infinite Universe,,,,Alexandre Koyre,1957,,,,313,0,English,,,до 2011-01,,,B0007DL9KA,,,,,,,,,0,,,,,1,,1,6395003,pdf,F8C51F102297EEF8E6EF2A3F0FA41A26,,,D:\\!genesis\\library.nu\\f8\\_115448.f8c51f102297eef8e6ef2a3f0fa41a26.pdf,0,2000-01-01 01:00:00,2016-04-03 02:51:08,446000/f8c51f102297eef8e6ef2a3f0fa41a26-g.jpg,,
21739876,From Vienna to Chicago and Back: Essays on Intellectual History and Political Thought in Europe and America,,,,Gerald Stourzh,2007,,,,384,0,English,64,,до 2011-01,"0226776360,9780226776361",,,,,320.092,JA84.E9 S75 2007,,,OL10193075M,,0,,,,1,0,1,1,2390610,pdf,F81330F07E7E7762796B6CE7EFE75F41,,,D:\\!genesis\\library.nu\\f8\\_115419.f81330f07e7e7762796b6ce7efe75f41.pdf,0,2000-01-01 01:00:00,2016-04-03 02:51:08,446000/f81330f07e7e7762796b6ce7efe75f41-d.jpg,,
21739877,Perversion and the Social Relation  (Series: SIC 4),,,,"Molly Anne Rothenberg, Slavoj Zizek, Dennis A. Foster",2003,,,,234,0,English,189,,до 2011-01,"0822330970,9780822330974,0822330857,9780822330851",,,,,809/.933538,PN56.S53 P47 2003,,,OL22532557M,,600,,,,,1,1,1,4997592,pdf,F8A9E3B2191F39BDAD3364506C6C94D1,,,D:\\!genesis\\library.nu\\f8\\_114927.f8a9e3b2191f39bdad3364506c6c94d1.pdf,0,2000-01-01 01:00:00,2016-04-03 02:51:08,446000/f8a9e3b2191f39bdad3364506c6c94d1-d.jpg,,
21739878,"Belfast: Segregation, Violence and the City (Contemporary Irish Studies)",,,,"Peter Shirlow, Brendan Murtagh",2006,,,,216,0,English,183,,до 2011-01,"0745324819,9780745324814,0745324800,9780745324807",,,,,,,,,OL22739731M,,0,,,,,1,,1,1364670,pdf,F8605D1F3E1251633868B4C207317DDC,,,D:\\!genesis\\library.nu\\f8\\_11448.f8605d1f3e1251633868b4c207317ddc.pdf,0,2000-01-01 01:00:00,2016-04-03 02:51:08,446000/f8605d1f3e1251633868b4c207317ddc-d.jpg,,
21739879,Environmental Monitoring and Characterization,,,,"Janick Artiola, Ian L. Pepper, Mark L. Brusseau,",2004,1,,,410,0,English,31,,до 2011-01,"0120644770,9780120644773,9780080491271",,,,,,,,,OL7325522M,,0,,,,,1,,1,48431075,pdf,F8AE87E2309B9BEF367CFEDD3320CCEE,,,D:\\!genesis\\library.nu\\f8\\_114201.f8ae87e2309b9bef367cfedd3320ccee.pdf,0,2000-01-01 01:00:00,2016-04-03 02:51:08,446000/f8ae87e2309b9bef367cfedd3320ccee-d.jpg,,
21739880,G Proteins,,Methods in Neurosciences,,Patrick C. Roche,1996,,"Elsevier, Academic Press",,410,0,English,165,,до 2011-01,"0121852997,9780121852993,9780080532271",1043-9471,,,,,,,,,,0,,,,,1,,1,25531532,pdf,F8AD080F9117F296001CC8188B9BD4A1,,,D:/!genesis/library.nu/f8/_114189.f8ad080f9117f296001cc8188b9bd4a1.pdf,0,2000-01-01 01:00:00,2016-04-03 02:51:08,446000/f8ad080f9117f296001cc8188b9bd4a1-d.jpg,,
21739881,Nonhuman Primates in Biomedical Research: Biology & Management Volume I (American College of Laboratory Animal Medicine),,,,"B. Taylor Bennett, Christian R. Abee",1995,1st,,,428,0,English,18,,до 2011-01,"0120886618,9780120886616,9780080537641",,,,,636.9/8,SF407.P7 N66 1995,,,OL1122378M,,0,,,,,1,,1,57611199,pdf,F89D5FA9B2498C9E50D80274659EA3C9,,,D:\\!genesis\\library.nu\\f8\\_114169.f89d5fa9b2498c9e50d80274659ea3c9.pdf,0,2000-01-01 01:00:00,2016-04-03 02:51:08,446000/f89d5fa9b2498c9e50d80274659ea3c9-d.jpg,,
21739882,"Extended Defects in Semiconductors: Electronic Properties, Device Effects and Structures",,,,"D. B. Holt, B. G. Yacobi",2007,1,,,644,0,English,250,,до 2011-01,"0521819342,9780521819343,9780511279287",,,,,,,,,OL10437299M,,0,,,,,1,1,1,14865630,pdf,F8EF8CB292CDA589231274556D92ACA6,,,D:\\!genesis\\library.nu\\f8\\_11414.f8ef8cb292cda589231274556d92aca6.pdf,0,2000-01-01 01:00:00,2016-04-03 02:51:08,446000/f8ef8cb292cda589231274556d92aca6-d.jpg,,
21739883,"Health Care in the United States: Organization, Management, and Policy",,,,Howard P Greenwald,2010,1,,,400,0,English,192,,до 2011-01,"0787995479,9780787995478",,,,,362.10973,RA395.A3 G74 2010,,,OL24054614M,,0,,,,,1,1,1,2482005,pdf,F8563FB25A99AC1404E73EC247CE7970,,,D:\\!genesis\\library.nu\\f8\\_113917.f8563fb25a99ac1404e73ec247ce7970.pdf,0,2000-01-01 01:00:00,2016-04-03 02:51:08,446000/f8563fb25a99ac1404e73ec247ce7970-d.jpg,,
21739884,May '68 and Its Afterlives,,,,Kristin Ross,2002,1,,,250,0,English,,,до 2011-01,"0226727971,9780226727974",,,,,944/.36,DC412 .R67 2002,,,OL3954065M,,0,,,,1,0,1,1,1104998,pdf,F8BEDDC99E09F1C6F8248FB591E58D2D,,,D:\\!genesis\\library.nu\\f8\\_113740.f8beddc99e09f1c6f8248fb591e58d2d.pdf,0,2000-01-01 01:00:00,2016-04-03 02:51:08,446000/f8beddc99e09f1c6f8248fb591e58d2d-d.jpg,,
21739885,Life Under the Jolly Roger: Reflections on Golden Age Piracy,,,,Gabriel Kuhn,2010,,,,288,0,English,,,до 2011-01,"1604860529,9781604860528",,,,,910.45,G535 .K79 2010,,,OL24424425M,,0,,,,0,0,1,1,1384173,pdf,F87F6727C9738F412A600848D21FA187,,,D:\\!genesis\\library.nu\\f8\\_113590.f87f6727c9738f412a600848d21fa187.pdf,0,2000-01-01 01:00:00,2016-04-03 02:51:08,446000/f87f6727c9738f412a600848d21fa187-d.jpg,,
21739886,Nuclear North Korea: A Debate on Engagement Strategies,,,,"Victor D. Cha, David C. Kang",2003,First Edition,,,279,0,English,,,до 2011-01,"0231131283,9780231131285,0231131291,9780231131292,9780231505338",,,,,,,,,OL9832610M,,0,,,,1,1,1,1,1116565,pdf,F8856582F176CD9403DB5482235EDD1B,,,D:\\!genesis\\library.nu\\f8\\_113184.f8856582f176cd9403db5482235edd1b.pdf,0,2000-01-01 01:00:00,2016-04-03 02:51:08,446000/f8856582f176cd9403db5482235edd1b-d.jpg,,
21739887,"Central Pain Syndrome: Pathophysiology, diagnosis and management",,,,"Sergio Canavero, Vincenzo Bonicalzi",2007,1,,,396,0,English,132,,до 2011-01,"0521866928,9780521866927",,,,,,,,,OL22748407M,,0,,,,,1,1,1,12321623,pdf,F8A87C6FC253C855E4AC2E3152EC5436,,,D:\\!genesis\\library.nu\\f8\\_11268.f8a87c6fc253c855e4ac2e3152ec5436.pdf,0,2000-01-01 01:00:00,2016-04-03 02:51:08,446000/f8a87c6fc253c855e4ac2e3152ec5436-d.jpg,,
21739888,Overqualified,,,,Joey Comeau,2009,1st,,,96,0,English,,,до 2011-01,"1550228587,9781550228588",,,,,,,,,OL24583981M,,0,,,,,1,1,1,2129398,pdf,F80F1BAA4B82DFEA85D880913A1C6B28,,,D:\\!genesis\\library.nu\\f8\\_112437.f80f1baa4b82dfea85d880913a1c6b28.pdf,0,2000-01-01 01:00:00,2016-04-03 02:51:08,446000/f80f1baa4b82dfea85d880913a1c6b28-d.jpg,,
21739889,"A Priest in Hell: Gangs, Murderers and Snitching in a California Jail",,,,Randall Radic,2009,,,,288,0,English,,,до 2011-01,"1550228692,9781550228694",,,,,,,,,,,0,,,,,1,1,1,1022723,pdf,F83A6D387DE93EB003638AB7F50F5D03,,,D:\\!genesis\\library.nu\\f8\\_112321.f83a6d387de93eb003638ab7f50f5d03.pdf,0,2000-01-01 01:00:00,2016-04-03 02:51:08,446000/f83a6d387de93eb003638ab7f50f5d03-d.jpg,,
21739890,"Pacific Essays: Terrorism, the Pacific Hemisphere, Globalization, & Peace Studies (Constructive Peace Studies)",,,,Johan Galtung,2005,,,,240,0,English,236,,до 2011-01,"0745320031,9781435660694,9780745320021,0745320023,9780745320038",,,,,,,,,OL7955527M,,0,,,,,1,1,1,657906,pdf,F8D09B6CDAC950E45167F4260F007428,,,D:\\!genesis\\library.nu\\f8\\_11209.f8d09b6cdac950e45167f4260f007428.pdf,0,2000-01-01 01:00:00,2016-04-03 02:51:08,446000/f8d09b6cdac950e45167f4260f007428-d.jpg,,
21739891,Silicon Epitaxy,,Semiconductors and Semimetals 72,,"Danilo Crippa, Daniel L. Rode and Maurizio Masi (Eds.)",2001,1st,"Elsevier, Academic Press",,1-491,0,English,256,,до 2011-01,"012752181X,9780127521817,9780080541006",0080-8784,,,,,,,,OL10073184M,,0,,,,,1,,1,23884806,pdf,F8B11F168A8A0074C2DDA927E4CB28B3,,,D:\\!genesis\\library.nu\\f8\\_111949.f8b11f168a8a0074c2dda927e4cb28b3.pdf,0,2000-01-01 01:00:00,2016-04-03 02:51:08,446000/f8b11f168a8a0074c2dda927e4cb28b3-d.jpg,,
21739892,,,Advances in Applied Mechanics 34,,Erik van der Giessen and Theodore Y. Wu (Eds.),1997,1st,"Elsevier, Academic Press",,"ii-x, 1-439",0,English,178,,до 2011-01,978-0-12-002034-8,0065-2156,,,,,,,,OL9797260M,,0,,,,,1,,1,6615687,pdf,F824117FA809DB7EE1CA9C92ADC13FDC,,,D:\\!genesis\\library.nu\\f8\\_111772.f824117fa809db7ee1ca9c92adc13fdc.pdf,0,2000-01-01 01:00:00,2016-04-03 02:51:08,446000/f824117fa809db7ee1ca9c92adc13fdc-d.jpg,,
21739893,,,Advances in Carbohydrate Chemistry 8,,Claude S. Hudson and Melville L. Wolfrom (Eds.),1953,,"Elsevier, Academic Press",,"iii-xvii, 1-408",0,English,296,,до 2011-01,978-0-12-007208-8,0096-5332,,,,,,,,OL10069970M,,0,,,,,1,,1,22005729,pdf,F84774AD2FB82BEB8434B76E5DCAA0D0,,,D:\\!genesis\\library.nu\\f8\\_111271.f84774ad2fb82beb8434b76e5dcaa0d0.pdf,0,2000-01-01 01:00:00,2016-04-03 02:51:08,446000/f84774ad2fb82beb8434b76e5dcaa0d0-d.jpg,,
21739894,State Resistance to Globalisation in Cuba,,,,Antonio Carmona Baez,2004,,,,288,0,English,,,до 2011-01,"9780745321462,9781435661448,0745321461",,,,,,,,,OL10729322M,,0,,,,,1,1,1,1021326,pdf,F83DC6A00CEEE7A28660264558772EB2,,,D:\\!genesis\\library.nu\\f8\\_11102.f83dc6a00ceee7a28660264558772eb2.pdf,0,2000-01-01 01:00:00,2016-04-03 02:51:08,446000/f83dc6a00ceee7a28660264558772eb2-d.jpg,,
21739895,Handbuch Erwachsenenbildung  Weiterbildung 4. Auflage,,,,"Rudolf Tippelt, Aiga von Hippel",,,,,1105,0,German,,,до 2011-01,"3531171585,9783531171586",,,,,,,,,,,0,,,,0,0,1,1,5882634,pdf,F8129BF9D4D09AC78DC5AB3EDEE7C989,,,D:\\!genesis\\library.nu\\f8\\_111019.f8129bf9d4d09ac78dc5ab3edee7c989.pdf,0,2000-01-01 01:00:00,2016-04-03 02:51:08,446000/f8129bf9d4d09ac78dc5ab3edee7c989-d.jpg,,
21739896,"Leo the Great and the Spiritual Rebuilding of a Universal Rome (Vigiliae Christianae, Supplements)",,,,Susan Wessel,2008,,,,422,0,English,,,до 2011-01,"9004170529,9789004170520",,,,,270.2092,BX1047 .W47 2008,,,OL16943472M,,0,,,,,1,,1,2334551,pdf,F840583EBB5DF8D9C20F4F2CA9E93556,,,D:\\!genesis\\library.nu\\f8\\_110992.f840583ebb5df8d9c20f4f2ca9e93556.pdf,0,2000-01-01 01:00:00,2016-04-03 02:51:08,446000/f840583ebb5df8d9c20f4f2ca9e93556-d.jpg,,
21739897,Soziologie der Behinderung: Eine Einfuhrung,,,,Jorg Michael Kastl,,,,,264,0,German,,,до 2011-01,"3531160427,9783531160429",,,,,,,,,,,0,,,,,1,1,1,3145501,pdf,F84FF99C323E454AE7A085D5A1AE8C64,,,D:\\!genesis\\library.nu\\f8\\_110687.f84ff99c323e454ae7a085d5a1ae8c64.pdf,0,2000-01-01 01:00:00,2016-04-03 02:51:08,446000/f84ff99c323e454ae7a085d5a1ae8c64-g.jpg,,
21739898,Les Pommes de terre,,,,Alex Barker & Sally Mansfield,2000,,,,256,0,French,,,до 2011-01,"2841981568,9782841981564",,,,,,,,,OL12615004M,,0,,,,,1,1,1,25202899,pdf,F846A23505CDD3E0FA46B1E0C47A4B0F,,,D:\\!genesis\\library.nu\\f8\\_110465.f846a23505cdd3e0fa46b1e0c47a4b0f.pdf,0,2000-01-01 01:00:00,2016-04-03 02:51:08,446000/f846a23505cdd3e0fa46b1e0c47a4b0f-d.jpg,,
21739899,World Atlas of Holocene Sea-Level Changes,,Elsevier Oceanography Series 58,,Paolo Antonio Pirazzoli (Eds.),1991,,"Elsevier, Academic Press",,"iii-vii, 1-300",0,English,59,,до 2011-01,"0444890866,9780444890863,9780080870960",0422-9894,,,,551.4/58,GC89 .P53 1991,,,OL1546359M,,0,,,,1,0,1,1,16394639,pdf,F8DDA48AAEF80A7DB73D57EB1B304DFE,,,D:\\!genesis\\library.nu\\f8\\_110418.f8dda48aaef80a7db73d57eb1b304dfe.pdf,0,2000-01-01 01:00:00,2016-04-03 02:51:08,446000/f8dda48aaef80a7db73d57eb1b304dfe-d.jpg,,
21739900,Capital Ideas: The IMF and the Rise of Financial Liberalization,,,,Jeffrey M. Chwieroth,2009,,,,352,0,English,305,,до 2011-01,"0691142319,9780691142319,0691142327,9780691142326",,,,,332.1,HG3881.5.I58 C49 2010,,,OL23631660M,,0,,,,,1,1,1,1112056,pdf,F8B3EC95E76534B9236B141DAEFDB110,,,D:\\!genesis\\library.nu\\f8\\_110166.f8b3ec95e76534b9236b141daefdb110.pdf,0,2000-01-01 01:00:00,2016-04-03 02:51:08,446000/f8b3ec95e76534b9236b141daefdb110-d.jpg,,
21739901,"Armenian: Modern Eastern Armenian (London Oriental and African Language Library, V. 14)",,,,Jasmine Dum-Tragut,2009,,,,757,0,English,314,,до 2011-01,"9027238146,9789027238146",,,,,491/.9925,PK8463 .T73 2009,,,OL23725378M,,0,,,,,1,,1,3628337,pdf,F895D65F31252208C52BEC7DF01EC369,,,D:\\!genesis\\library.nu\\f8\\_109895.f895d65f31252208c52bec7df01ec369.pdf,0,2000-01-01 01:00:00,2016-04-03 02:51:08,446000/f895d65f31252208c52bec7df01ec369-d.jpg,,
21739902,Krishna : The Supreme Personality of Godhead (Deluxe Edition),,,,Sri Srimad A.C. Bhaktivedanta Swami Prabhupada,2004,,,,863,0,English,,,до 2011-01,"089213352X,9780892133529",,,,,,,,,OL8230240M,,0,,,,,1,,1,8678587,pdf,F834B19FD0AB6D6348A1C8E5EB74F58C,,,D:\\!genesis\\library.nu\\f8\\_109269.f834b19fd0ab6d6348a1c8e5eb74f58c.pdf,0,2000-01-01 01:00:00,2016-04-03 02:51:08,446000/f834b19fd0ab6d6348a1c8e5eb74f58c-g.jpg,,
21739903,"A Future For Marxism?: Althusser, the Analytical Turn and the Revival of Socialist Theory",,,,Andrew Levine,2003,,,,192,0,English,189,,до 2011-01,"9780745319872,9780745319889,0745319874,0745319882",,,,,335.4,HX44.5 .L45 2003,,,OL3702851M,,0,,,,,1,1,1,729607,pdf,F87DB03B64C379CE7AAF575D0F477B7A,,,D:\\!genesis\\library.nu\\f8\\_10880.f87db03b64c379ce7aaf575d0f477b7a.pdf,0,2000-01-01 01:00:00,2016-04-03 02:51:08,446000/f87db03b64c379ce7aaf575d0f477b7a-d.jpg,,
21739904,"State, Power, Socialism",,,,Nicos Poulantzas,2001,,,,269,0,English,189,,до 2011-01,"1859842747,9781859842744",,,,,,,,,OL8624172M,,0,,,,,1,1,1,13633260,pdf,F8E2CCD49EC34FBD5EC9FBFE9ECDCF5D,,,D:\\!genesis\\library.nu\\f8\\_108789.f8e2ccd49ec34fbd5ec9fbfe9ecdcf5d.pdf,0,2000-01-01 01:00:00,2016-04-03 02:51:08,446000/f8e2ccd49ec34fbd5ec9fbfe9ecdcf5d-d.jpg,,
21739905,"Politics, Sociology, and Social Theory: Encounters with Classical and Contemporary Social Thought",,,,Anthony Giddens,1995,1,Stanford University Press,,156,0,English,194,,до 2011-01,"0804726248,9780804726245,0804726221,9780804726221",,,,,301/.01,HM24 .G4475 1995,,,OL818251M,,0,,,,0,1,,0,17823762,pdf,F82E269921D54D7F5B8B6AD613E163F9,,,D:\\!genesis\\library.nu\\f8\\_108115.f82e269921d54d7f5b8b6ad613e163f9.pdf,0,2000-01-01 01:00:00,2016-04-03 02:51:08,446000/f82e269921d54d7f5b8b6ad613e163f9-d.jpg,,
21739906,Mycotoxins in Feedstuffs,,,,Martin Weidenborner,2007,1,Springer,,305,0,English,,,до 2011-01,"0387464115,9780387464114",,,,,,,,,OL10152867M,,0,,,,1,0,1,1,2587582,pdf,F8433363C7C6BCBB1D10B7531BDCDF66,,,D:\\!genesis\\library.nu\\f8\\_107512.f8433363c7c6bcbb1d10b7531bdcdf66.pdf,0,2000-01-01 01:00:00,2016-04-03 02:51:08,446000/f8433363c7c6bcbb1d10b7531bdcdf66-d.jpg,,
21739907,Bacterial Infections of Humans: Epidemiology and Control,,,,"Alfred S. Evans (auth.), Philip S. Brachman, Elias Abrutyn (eds.)",2009,4,Springer US,,1600,0,English,177,,до 2011-01,"0387098429,9780387098425",,,,,530.1/2,QC174.12 .P3813 1980,10.1007/978-0-387-09843-2,,OL23702877M,,0,,,,0,0,,1,101557277,pdf,F81CB2803F222A093C986CACE399E1C9,,,D:\\!genesis\\library.nu\\f8\\_107213.f81cb2803f222a093c986cace399e1c9.pdf,0,2000-01-01 01:00:00,2016-04-03 02:51:08,446000/f81cb2803f222a093c986cace399e1c9-d.jpg,,
21739908,Three Days to Never,,,,Tim Powers,2007,,,,416,0,English,,,до 2011-01,"0380798379,9780380798377,9780061555602,0380976536,9780380976539",,,,,,,,,OL17204383M,,0,,,,,1,1,1,5834802,pdf,F81741FEAC13B224AE08566F536EFA6D,,,D:\\!genesis\\library.nu\\f8\\_107144.f81741feac13b224ae08566f536efa6d.pdf,0,2000-01-01 01:00:00,2016-04-03 02:51:08,446000/f81741feac13b224ae08566f536efa6d-d.jpg,,
21739909,The Return of the Political (Phronesis),,,,Chantal Mouffe,1993,,,,162,0,English,,,до 2011-01,"0860914860,9780860914860,0860916510,9780860916512",,,,,320,JC423 .M737 1993,,,OL1424674M,,0,,,,,1,,1,6206942,pdf,F8BDAA7867CBFEDDCC2E3110F0489A1B,,,D:\\!genesis\\library.nu\\f8\\_107065.f8bdaa7867cbfeddcc2e3110f0489a1b.pdf,0,2000-01-01 01:00:00,2016-04-03 02:51:08,446000/f8bdaa7867cbfeddcc2e3110f0489a1b-g.jpg,,
21739910,Granular Materials: Fundamentals and Applications,,,,"S. Joseph Antony, W. Hoyle, Yulong Ding",2004,1,,,380,0,English,137,,до 2011-01,"0854045864,9780854045860",,,,,620.43,TA418.78 .G667 2004,,,OL22586227M,,0,,,,,1,,1,27478962,pdf,F805F4D1590331AA283771DDD450B7E2,,,D:\\!genesis\\library.nu\\f8\\_106888.f805f4d1590331aa283771ddd450b7e2.pdf,0,2000-01-01 01:00:00,2016-04-03 02:51:08,446000/f805f4d1590331aa283771ddd450b7e2-d.jpg,,
21739911,چوب بدستهای ورزیل,,,,گوهر مراد,1350,چاپ دوم,مرواريد,,122,0,Persian,,,до 2011-01,,,,,,,,,,,,0,,,,,1,,0,577322,djvu,F8CD4CBE1586B337A62A3311A2F6CF70,,,D:\\!genesis\\library.nu\\f8\\_106683.f8cd4cbe1586b337a62a3311a2f6cf70.djvu,0,2000-01-01 01:00:00,2016-04-03 02:51:08,446000/f8cd4cbe1586b337a62a3311a2f6cf70-g.jpg,,
21739912,Americans and the Unconscious,,,,Robert C. Fuller,1986,,,,257,0,English,65,,до 2011-01,"0195040279,9780195040272",,,,,150/.973,BF315 .F84 1986,,,OL2549744M,,0,,,,1,1,,1,11613733,pdf,F8BF0F243E41FB765A475C989358EAF5,,,D:\\!genesis\\library.nu\\f8\\_106516.f8bf0f243e41fb765a475c989358eaf5.pdf,0,2000-01-01 01:00:00,2016-04-03 02:51:08,446000/f8bf0f243e41fb765a475c989358eaf5-d.jpg,,
21739913,,,International Review of Cytology 105,,"G.H. Bourne, K.W. Jeon and M. Friedlander (Eds.)",1986,1,"Elsevier, Academic Press",,"ii-iv, 1-337",0,English,26,,до 2011-01,"0123645050,9780123645050,9780080586427",0074-7696,,,,,,,,OL10071774M,,0,,,,,1,1,1,20311711,pdf,F84693D0811100D74AF6238F4B70E6B3,,,D:\\!genesis\\library.nu\\f8\\_106097.f84693d0811100d74af6238f4b70e6b3.pdf,0,2000-01-01 01:00:00,2016-04-03 02:51:08,446000/f84693d0811100d74af6238f4b70e6b3-d.jpg,,
21739914,Hausdorff Gaps and Limits,,Studies in Logic and the Foundations of Mathematics 132,,"Ryszard Frankiewicz, Pawel Zbierski",1994,,"Elsevier, Academic Press",,310,0,English,183,,до 2011-01,"044489490X,9780444894908,9780080887081",0049-237X,,,,514/.32,QA611.23 .F73 1994,,,OL1079303M,,300,,,,0,1,,1,1689993,djvu,F80239214F31660E466C830A563670D6,,,D:\\!genesis\\library.nu\\f8\\_104608.f80239214f31660e466c830a563670d6.djvu,0,2000-01-01 01:00:00,2016-04-03 02:51:08,446000/f80239214f31660e466c830a563670d6-d.jpg,,
21739915,Slave Religion: The ''Invisible Institution'' in the Antebellum South,,,,Albert J. Raboteau,2004,Updated,,,414,0,English,205,,до 2011-01,"0195174135,9780195174137,0195024389,9780195024388,0195174127,9780195174120",,,,,299/.6/0975,BR563.N4 R25,,,OL4720273M,,0,,,,,0,1,1,20253397,pdf,F8D5F2347BFDA418AD1B60B1BD417524,,,D:\\!genesis\\library.nu\\f8\\_10453.f8d5f2347bfda418ad1b60b1bd417524.pdf,0,2000-01-01 01:00:00,2016-04-03 02:51:08,446000/f8d5f2347bfda418ad1b60b1bd417524-d.jpg,,
21739916,"Sex signs: Every woman's astrological and psychological guide to love, men, sex, anger and personal power",,,,Judith Bennett,1998,revised & updated,St. Martin's Griffin,,368,0,English,198,,до 2011-01,"0312187564,9780312187569",,,,,,,,,,,0,,,,,1,1,1,3270199,djvu,F828AA98DD183E83771728A0C168494B,,,D:/!genesis/library.nu/f8/_104333.f828aa98dd183e83771728a0c168494b.djvu,0,2000-01-01 01:00:00,2016-04-03 02:51:08,446000/f828aa98dd183e83771728a0c168494b-d.jpg,,
21739917,Oxford Studies in Ancient Philosophy: Volume XII: 1994 (Oxford Studies in Ancient Philosophy),,,,C. C. W. Taylor,1995,,,,284,0,English,183,,до 2011-01,"0198235275,9780198235279",,,,,180,,,,OL22722339M,,0,,,,0,1,1,0,13476401,pdf,F846CBC90E8BCDF51D13F66DC3B6C1B3,,,D:\\!genesis\\library.nu\\f8\\_104229.f846cbc90e8bcdf51d13f66dc3b6c1b3.pdf,0,2000-01-01 01:00:00,2016-04-03 02:51:08,446000/f846cbc90e8bcdf51d13f66dc3b6c1b3-d.jpg,,
21739918,Erotische Massage. Mit dem Zauber des Tantra  GERMAN,,,,"Kenneth Ray Stubbs, Louise-Andree Saulnier",2003,,,,155,0,German,,,до 2011-01,"3442164729,9783442164721",,,,,,,,,OL12709312M,,0,,,,0,0,,1,5749131,pdf,F81E0EB33D17D7E657546D45A3FBF881,,,D:\\!genesis\\library.nu\\f8\\_102873.f81e0eb33d17d7e657546d45a3fbf881.pdf,0,2000-01-01 01:00:00,2016-04-03 02:51:08,446000/f81e0eb33d17d7e657546d45a3fbf881-d.jpg,,
21739919,Business Services in European Economic Growth,,,,"Luis Rubalcaba, Henk Kox",2007,First Edition,,,304,0,English,305,,до 2011-01,"0230002021,9780230002029",,,,,,,,,OL10193746M,,0,,,,1,0,1,1,1277340,pdf,F8CDB63214E5D18F50986DD636966880,,,D:\\!genesis\\library.nu\\f8\\_102762.f8cdb63214e5d18f50986dd636966880.pdf,0,2000-01-01 01:00:00,2016-04-03 02:51:08,446000/f8cdb63214e5d18f50986dd636966880-d.jpg,,
21739920,Adamu: Luciferian Tantra and Sex Magick,,,,Michael W. Ford,2006,,,,196,0,English,201,,до 2011-01,"1411690656,9781411690653",,,,,,,,,OL8430981M,,0,,,,0,0,,1,5324254,pdf,F8E94F94C682F2E016D0269EE8B90090,,,D:\\!genesis\\library.nu\\f8\\_102132.f8e94f94c682f2e016d0269ee8b90090.pdf,0,2000-01-01 01:00:00,2016-04-03 02:51:08,446000/f8e94f94c682f2e016d0269ee8b90090-d.jpg,,
21739921,"Philosophical Analysis in the Twentieth Century, Volume 2: The Age of Meaning",,,,Scott Soames,2003,,,,502,0,English,117,,до 2011-01,"0691115745,9780691115740,0691123128,9780691123127",,,,,,,,,OL20744533M,,0,,,,1,0,1,1,1416389,pdf,F89D44758E205EFDADC8DA528D0415B8,,,D:\\!genesis\\library.nu\\f8\\_101769.f89d44758e205efdadc8da528d0415b8.pdf,0,2000-01-01 01:00:00,2016-04-03 02:51:08,446000/f89d44758e205efdadc8da528d0415b8-d.jpg,,
21739922,Pro Hadoop,,,,Jason Venner,2009,1,,,442,0,English,,,до 2011-01,"1430219424,9781430219422",,,,,,,,,,,0,,,,1,0,1,1,3149625,pdf,F867CEB5AAAD401F177CD32B88C233BC,,,D:\\!genesis\\library.nu\\f8\\_100907.f867ceb5aaad401f177cd32b88c233bc.pdf,0,2000-01-01 01:00:00,2016-04-03 02:51:08,446000/f867ceb5aaad401f177cd32b88c233bc-d.jpg,,
21739923,Cours de mathematiques de Gustave Choquet,,,,Gustave Choquet,,,,,449,0,French,113,,до 2011-01,"9782729810658,272981065X",,,,,,,,,,,600,,,,0,1,1,1,5384668,djvu,F7032696CD41A2307199A79040A7F411,,,D:\\!genesis\\library.nu\\f7\\_99896.f7032696cd41a2307199a79040a7f411.djvu,0,2000-01-01 01:00:00,2016-04-03 02:51:08,446000/f7032696cd41a2307199a79040a7f411-d.jpg,,
21739924,"An Introduction to Homogenization (Oxford Lecture Series in Mathematics and Its Applications, 17)",,,,"Doina Cioranescu, Patrizia Donato",2000,First Edition,,,271,0,English,183,,до 2011-01,"0198565542,9780198565543",,,,,515/.35,QA377 .C56 1999,,,OL41541M,,0,,,,0,1,,1,8041518,pdf,F7B809F0966B29DF281D85922BBFBA70,,,D:\\!genesis\\library.nu\\f7\\_99895.f7b809f0966b29df281d85922bbfba70.pdf,0,2000-01-01 01:00:00,2016-04-03 02:51:08,446000/f7b809f0966b29df281d85922bbfba70-d.jpg,,
21739925,Dimension Theory,,North-Holland mathematical library 19,,Ryszard Engelking,1979,,"Elsevier, Academic Press",,316,0,English,137,,до 2011-01,"9780444851765,0444851763",0924-6509,,,,514/.3,QA611.3 .E5313 1978,,,OL4724811M,,0,,,,0,0,1,1,4732869,pdf,F7170F5432DE17870A48290FA72A6489,,,D:\\!genesis\\library.nu\\f7\\_99887.f7170f5432de17870a48290fa72a6489.pdf,0,2000-01-01 01:00:00,2016-04-03 02:51:08,446000/f7170f5432de17870a48290fa72a6489-d.jpg,,
21739926,"The Theory of Determinants in the Historical Order of Development, Volume 2",,,,Sir Thomas Muir,2005,,,,489,0,English,64,,до 2011-01,"9781418184711,1418184713",,,,,,,,,,,300,,,,0,1,,1,7329454,djvu,F7E2542D8E2FCF0CC906C1B34DFEE7DD,,,D:\\!genesis\\library.nu\\f7\\_99751.f7e2542d8e2fcf0cc906c1b34dfee7dd.djvu,0,2000-01-01 01:00:00,2016-04-03 02:51:08,446000/f7e2542d8e2fcf0cc906c1b34dfee7dd-d.jpg,,
21739927,A-Rod: The Many Lives of Alex Rodriguez,,,,Selena Roberts,2009,1St Edition,,,272,0,English,,,до 2011-01,"0061791644,9780061791642,0061791652,9780061791659,0061899364,9780061899362,0061899399,9780061899393,0061899402,9780061899409",,,,,"796.357092,B",GV865.R62 R634 2009,,,OL24074109M,,0,,,,,1,,1,1713176,pdf,F7A46C4AF067B6DDF632C639FD65853D,,,D:\\!genesis\\library.nu\\f7\\_99187.f7a46c4af067b6ddf632c639fd65853d.pdf,0,2000-01-01 01:00:00,2016-04-03 02:51:08,446000/f7a46c4af067b6ddf632c639fd65853d-d.jpg,,
21739928,Trading Options at Expiration: Strategies and Models for Winning the Endgame,,,,Jeff Augen,2009,1,,,174,0,English,309,,до 2011-01,"0135058724,9780135058725",,,,,332.63/2283,HG6024.A3 A9226 2009,,,OL22696347M,,0,,,,1,0,,1,672330,pdf,F73678EDD40638F797651B3B0C1734BB,,,D:\\!genesis\\library.nu\\f7\\_98726.f73678edd40638f797651b3b0c1734bb.pdf,0,2000-01-01 01:00:00,2016-04-03 02:51:08,446000/f73678edd40638f797651b3b0c1734bb-d.jpg,,
21739929,The Prince (Oxford World's Classics),,,,Niccolo Machiavelli,2005,,,,185,0,English,183,,до 2011-01,"019280426X,9780192804266,9780191516818",,,,,,,,,OL22720883M,,0,,,,0,0,,1,1465380,pdf,F7C569649DA3F350024E374B69F73FFC,,,D:\\!genesis\\library.nu\\f7\\_98681.f7c569649da3f350024e374b69f73ffc.pdf,0,2000-01-01 01:00:00,2016-04-03 02:51:08,446000/f7c569649da3f350024e374b69f73ffc-d.jpg,,
21739930,The Sea-Gull (Webster's Spanish Thesaurus Edition),,,,Anton Chekhov,2006,,,,106,0,English,322,,до 2011-01,"0497258730,9780497258733,9781423777557",,,,,,,,,OL9408864M,,0,,,,0,0,,1,841752,pdf,F72D9680B3C7A04BF49BF2A6E11E3D0C,,,D:\\!genesis\\library.nu\\f7\\_98665.f72d9680b3c7a04bf49bf2a6e11e3d0c.pdf,0,2000-01-01 01:00:00,2016-04-03 02:51:08,446000/f72d9680b3c7a04bf49bf2a6e11e3d0c-d.jpg,,
21739931,Methods in Bioengineering: Stem Cell Bioengineering (The Artech House Methods in Bioengineering Series),,,,Biju Parekkadan,2009,1,,,208,0,English,210,,до 2011-01,"1596934026,9781596934023",,,,,,,,,,,0,,,,1,0,,1,7571940,pdf,F7636BD6A1ABB5879D4549DC279DA10D,,,D:\\!genesis\\library.nu\\f7\\_98343.f7636bd6a1abb5879d4549dc279da10d.pdf,0,2000-01-01 01:00:00,2016-04-03 02:51:08,446000/f7636bd6a1abb5879d4549dc279da10d-d.jpg,,
21739932,Innovation and the Communications Revolution,,,,John Bray,2002,,,,336,0,English,234,,до 2011-01,"0852962185,9780852962183",,,,,621.382,TK5102.2 .B73 2002,,,OL22510619M,,0,,,,,1,1,1,3526956,pdf,F73F5AE7E757A0E474D9DA63B0B9EEBE,,,D:\\!genesis\\library.nu\\f7\\_98160.f73f5ae7e757a0e474d9da63b0b9eebe.pdf,0,2000-01-01 01:00:00,2016-04-03 02:51:08,446000/f73f5ae7e757a0e474d9da63b0b9eebe-d.jpg,,
21739933,This Fleeting World: A Short History of Humanity,,,,David Christian,2007,1st,,,120,0,English,64,,до 2011-01,"1933782048,9781933782041",,,,,,,,,OL9822815M,,0,,,,,1,1,1,8727462,pdf,F7138A903F7FC9000C83AE95DAEE06B9,,,D:\\!genesis\\library.nu\\f7\\_98049.f7138a903f7fc9000c83ae95daee06b9.pdf,0,2000-01-01 01:00:00,2016-04-03 02:51:08,446000/f7138a903f7fc9000c83ae95daee06b9-d.jpg,,
21739934,"The Hard Way Up   The Veiled World (Ace Double, 31755)",,,,"A. Bertram Chandler, Robert Lory",1972,1st,,,256,0,English,,,до 2011-01,,,B000KZ5JEM,,,,,,,,,0,,,,,1,1,1,570776,pdf,F7B793B97BB4B3212F825470D9C2D6C4,,,D:\\!genesis\\library.nu\\f7\\_9710.f7b793b97bb4b3212f825470d9c2d6c4.pdf,0,2000-01-01 01:00:00,2016-04-03 02:51:08,446000/f7b793b97bb4b3212f825470d9c2d6c4-d.jpg,,
21739935,Researching Higher Education (Society for Research Into Higher Education),,,,Malcolm Tight,2003,1,,,288,0,English,183,,до 2011-01,"0335211186,0335211178,9780335228089,9780335211180,9780335211173",,,,,,,,,OL9542427M,,0,,,,,1,,1,1275255,pdf,F70776FB47CEA08B3614E6131A2C8C62,,,D:\\!genesis\\library.nu\\f7\\_9366.f70776fb47cea08b3614e6131a2c8c62.pdf,0,2000-01-01 01:00:00,2016-04-03 02:51:08,446000/f70776fb47cea08b3614e6131a2c8c62-d.jpg,,
21739936,Representation And Objects of Thought in Medieval Philosophy (Ashgate Studies in Medieval Philosophy),,,,Henrik Lagerlund,2007,,,,156,0,English,183,,до 2011-01,"9780754651260,0754651266,9780754686583",,,,,,,,,OL17220077M,,0,,,,,1,1,1,1667742,pdf,F7DAEA43B2535A2198CE669BD72B7259,,,D:\\!genesis\\library.nu\\f7\\_8726.f7daea43b2535a2198ce669bd72b7259.pdf,0,2000-01-01 01:00:00,2016-04-03 02:51:08,446000/f7daea43b2535a2198ce669bd72b7259-d.jpg,,
21739937,"Record Label Marketing, Second Edition",,,,"Tom Hutchison, Paul Allen, Amy Macy",2009,2,,,448,0,English,4,,до 2011-01,"0240812387,9780240812380",,,,,780.68/8,ML3790 .H985 2009,,,OL23554893M,,0,,,,,1,1,1,6389914,pdf,F7906E39BB0A19B7A7F30F5F051FDF57,,,D:\\!genesis\\library.nu\\f7\\_83239.f7906e39bb0a19b7a7f30f5f051fdf57.pdf,0,2000-01-01 01:00:00,2016-04-03 02:51:08,446000/f7906e39bb0a19b7a7f30f5f051fdf57-d.jpg,,
21739938,"Time, Space, and Metaphysics",,,,Bede Rundle,2009,,,,288,0,English,132,,до 2011-01,"0199575118,9780199575114",,,,,114,BD632 .R86 2009,,,OL23534889M,,0,,,,,1,1,1,1135421,pdf,F70B80E223DAC7B2BD8008B54D9138F3,,,D:\\!genesis\\library.nu\\f7\\_83082.f70b80e223dac7b2bd8008b54d9138f3.pdf,0,2000-01-01 01:00:00,2016-04-03 02:51:08,446000/f70b80e223dac7b2bd8008b54d9138f3-d.jpg,,
21739939,Rematerializing Shakespeare: Authority and Representation on the Early Modern English Stage,,,,"Bryan Reynolds, William West",2005,,,,256,0,English,314,,до 2011-01,"9780230505032,9781403991201,1403991200",,,,,822.3/3,PR3095 .R46 2005,,,OL22712844M,,0,,,,1,0,1,1,1185585,pdf,F721CEED7A67E998D709A2E29CECB412,,,D:\\!genesis\\library.nu\\f7\\_80439.f721ceed7a67e998d709a2e29cecb412.pdf,0,2000-01-01 01:00:00,2016-04-03 02:51:08,446000/f721ceed7a67e998d709a2e29cecb412-d.jpg,,
21739940,The Fall of Milosevic: The October 5th Revolution,,,,"Dragan Bujosevic, Ivan Radovanovic",2003,1,,,192,0,English,,,до 2011-01,"140396064X,9781403960641",,,,,,,,,OL17081028M,,0,,,,1,0,1,1,1551651,pdf,F7C05CD2EBB935176B5366CC6D463116,,,D:\\!genesis\\library.nu\\f7\\_80104.f7c05cd2ebb935176b5366cc6d463116.pdf,0,2000-01-01 01:00:00,2016-04-03 02:51:08,446000/f7c05cd2ebb935176b5366cc6d463116-d.jpg,,
21739941,The Future of Political Islam,,,,Graham E. Fuller,2003,,,,272,0,English,205,,до 2011-01,"1403961360,9781403961365,9781403978608",,,,,,,,,OL8400120M,,0,,,,1,0,1,1,1430003,pdf,F74F8A06281420CE1018862223CC734F,,,D:\\!genesis\\library.nu\\f7\\_80091.f74f8a06281420ce1018862223cc734f.pdf,0,2000-01-01 01:00:00,2016-04-03 02:51:08,446000/f74f8a06281420ce1018862223cc734f-d.jpg,,
21739942,"U.S. Foreign Policy Towards Apartheid South Africa, 1948-1994: Conflict of Interests",,,,Alex Thomson,2008,,,,260,0,English,64,,до 2011-01,"1403972273,9781403972279",,,,,,,,,OL11642752M,,0,,,,1,0,1,1,2088514,pdf,F761958430EADE2ED7B6E643249D8770,,,D:\\!genesis\\library.nu\\f7\\_79981.f761958430eade2ed7b6e643249d8770.pdf,0,2000-01-01 01:00:00,2016-04-03 02:51:08,446000/f761958430eade2ed7b6e643249d8770-d.jpg,,
21739943,Rip It Up: The Black Experience in Rock N Roll,,,,Kandia Crazy Horse,2004,1st,,,256,0,English,,,до 2011-01,"140396243X,9781403962430",,,,,,,,,OL18153544M,,0,,,,1,0,1,1,1207700,pdf,F7717FBE94DE4F3B5B210C2C42660AAA,,,D:\\!genesis\\library.nu\\f7\\_79877.f7717fbe94de4f3b5b210c2c42660aaa.pdf,0,2000-01-01 01:00:00,2016-04-03 02:51:08,446000/f7717fbe94de4f3b5b210c2c42660aaa-d.jpg,,
21739944,Jane Austen's Philosophy of the Virtues,,,,Sarah Emsley,2005,First Edition,,,216,0,English,,,до 2011-01,"1403969663,9781403969668,9781403978288",,,,,,,,,OL22710955M,,0,,,,1,0,,1,897427,pdf,F7C193040E5AAFF4EFF66B5DBFEEF273,,,D:\\!genesis\\library.nu\\f7\\_79611.f7c193040e5aaff4eff66b5dbfeef273.pdf,0,2000-01-01 01:00:00,2016-04-03 02:51:08,446000/f7c193040e5aaff4eff66b5dbfeef273-d.jpg,,
21739945,Internationalism and Nationalism in European Political Thought (Palgrave MacMillan History of International Thought),,,,Carsten Holbraad,2003,1,,,272,0,English,64,,до 2011-01,"1403961239,9781403961235,9781403982315",,,,,,,,,OL8400114M,,0,,,,1,0,,1,730651,pdf,F736482D79B4389186CF71975DABFABD,,,D:\\!genesis\\library.nu\\f7\\_79605.f736482d79b4389186cf71975dabfabd.pdf,0,2000-01-01 01:00:00,2016-04-03 02:51:08,446000/f736482d79b4389186cf71975dabfabd-d.jpg,,
21739946,The Inclusive Society?: Social Exclusion and New Labour,,,,Ruth Levitas,2005,2,,,296,0,English,189,,до 2011-01,"140394427X,9781403944276",,,,,,,,,OL22621628M,,0,,,,1,0,1,1,1182125,pdf,F74F251BD41C7C696EEAB7A4AFD39BEA,,,D:\\!genesis\\library.nu\\f7\\_79437.f74f251bd41c7c696eeab7a4afd39bea.pdf,0,2000-01-01 01:00:00,2016-04-03 02:51:08,446000/f74f251bd41c7c696eeab7a4afd39bea-d.jpg,,
21739947,Key Concepts in Drama and Performance (Palgrave Key Concepts),,,,Kenneth Pickering,2005,,,,256,0,English,,,до 2011-01,"1403934363,9781403934369,9780230802704",,,,,,,,,OL22621629M,,0,,,,1,0,1,1,831324,pdf,F7D61B4BF894B1C5A64B4CDB00668B7B,,,D:\\!genesis\\library.nu\\f7\\_79185.f7d61b4bf894b1c5a64b4cdb00668b7b.pdf,0,2000-01-01 01:00:00,2016-04-03 02:51:08,446000/f7d61b4bf894b1c5a64b4cdb00668b7b-d.jpg,,
21739948,Victorian Travel Writing and Imperial Violence: British Writing of Africa 1855-1902 (Palgrave Studies in Nineteenth-Century Writing and Culture),,,,Laura Franey,2004,,,,256,0,English,64,,до 2011-01,"1403905088,9781403905086,9780230510036",,,,,828/.809355,PR129.A35 F73 2003,,,OL22553447M,,0,,,,1,0,1,1,827160,pdf,F7B4440A239B39BB799333EF11E19EFB,,,D:\\!genesis\\library.nu\\f7\\_78956.f7b4440a239b39bb799333ef11e19efb.pdf,0,2000-01-01 01:00:00,2016-04-03 02:51:08,446000/f7b4440a239b39bb799333ef11e19efb-d.jpg,,
21739949,European Financial Reporting: Adapting to a Changing World,,,,John Flower,2004,,,,250,0,English,305,,до 2011-01,"0333685180,9780333685181,9780230536715",,,,,,,,,OL10554786M,,0,,,,1,0,1,1,1809252,pdf,F74045E5543126A93DB32077731D46B7,,,D:\\!genesis\\library.nu\\f7\\_77966.f74045e5543126a93db32077731d46b7.pdf,0,2000-01-01 01:00:00,2016-04-03 02:51:08,446000/f74045e5543126a93db32077731d46b7-d.jpg,,
21739950,How Hysterical: Identification and Resistance in the Bible and Film,,,,Erin Runions,2003,1,,,240,0,English,,,до 2011-01,"0312295723,9780312295721,9781403973566",,,,,7891.43/6822,PN56.S48 R86 2003,,,OL3566981M,,0,,,,1,0,1,1,1141165,pdf,F771BC3AFDB34BAF94D2B23126E7C7E4,,,D:\\!genesis\\library.nu\\f7\\_77538.f771bc3afdb34baf94d2b23126e7c7e4.pdf,0,2000-01-01 01:00:00,2016-04-03 02:51:08,446000/f771bc3afdb34baf94d2b23126e7c7e4-d.jpg,,
21739951,"Hybrid Sovereignty in the Arab Middle East: The Cases of Kuwait, Jordan, and Iraq (The Middle East in Focus)",,,,Gokhan Bacik,2007,1st,,,288,0,English,,,до 2011-01,"0230600409,9780230600409,9780230610347",,,,,,,,,OL10194707M,,0,,,,1,0,1,1,2495032,pdf,F74B2C460192A84C765D034251C6A85F,,,D:\\!genesis\\library.nu\\f7\\_77478.f74b2c460192a84c765d034251c6a85f.pdf,0,2000-01-01 01:00:00,2016-04-03 02:51:08,446000/f74b2c460192a84c765d034251c6a85f-d.jpg,,
21739952,Poverty and Social Assistance in Transition Countries,,,,"Jeanine Braithwaite, Christiaan Grootaert, Branko Milanovic",2000,,,,208,0,English,189,,до 2011-01,"0312224362,9780312224363,9780312292799",,,,,,,,,OL10387562M,,0,,,,1,0,,1,643429,pdf,F73C32244B50EF0102520D3230439CFC,,,D:\\!genesis\\library.nu\\f7\\_77468.f73c32244b50ef0102520d3230439cfc.pdf,0,2000-01-01 01:00:00,2016-04-03 02:51:08,446000/f73c32244b50ef0102520d3230439cfc-d.jpg,,
21739953,"Coleridge, the Bible, and Religion (Nineteenth-Century Major Lives and Letters)",,,,Jeffrey W. Barbeau,2007,1st,,,248,0,English,205,,до 2011-01,"0230601340,9780230601345,9780230610262",,,,,,,,,OL10194761M,,0,,,,1,0,1,1,1097225,pdf,F748C3A9920C0A9FACD3B36BC8EEB707,,,D:\\!genesis\\library.nu\\f7\\_77383.f748c3a9920c0a9facd3b36bc8eeb707.pdf,0,2000-01-01 01:00:00,2016-04-03 02:51:08,446000/f748c3a9920c0a9facd3b36bc8eeb707-d.jpg,,
21739954,Republicanism and Anticlerical Nationalism in Spain,,,,Enrique A. Sanabria,2009,,,,272,0,English,,,до 2011-01,"0230613314,9780230613317",,,,,946/.074,DP233 .S26 2009,,,OL22515352M,,0,,,,1,0,1,1,3160833,pdf,F71CB97A975E9410825D1DE054747258,,,D:\\!genesis\\library.nu\\f7\\_77364.f71cb97a975e9410825d1de054747258.pdf,0,2000-01-01 01:00:00,2016-04-03 02:51:08,446000/f71cb97a975e9410825d1de054747258-d.jpg,,
21739955,Ideologies of Marginality in Brazilian Hip Hop,,,,Derek Pardue,2008,1,,,224,0,English,,,до 2011-01,"023060465X,9780230604650,9780230613409",,,,,,,,,OL10194855M,,0,,,,1,0,1,1,1519996,pdf,F7A9C6E97DB20B7F8E39EC673FE16F62,,,D:\\!genesis\\library.nu\\f7\\_77363.f7a9c6e97db20b7f8e39ec673fe16f62.pdf,0,2000-01-01 01:00:00,2016-04-03 02:51:08,446000/f7a9c6e97db20b7f8e39ec673fe16f62-d.jpg,,
21739956,Transcultural Experiments: Russian and American Models of Creative Communication,,,,"Ellen E. Berry, Mikhail N. Epstein",1999,1,,,352,0,English,37,,до 2011-01,"0312218087,9780312218089,9780312299712",,,,,302.2,P94.6 .B475 1999,,,OL32570M,,0,,,,1,0,1,1,900157,pdf,F745C29AA1331AD444E0CA08761E2BC0,,,D:\\!genesis\\library.nu\\f7\\_77310.f745c29aa1331ad444e0ca08761e2bc0.pdf,0,2000-01-01 01:00:00,2016-04-03 02:51:08,446000/f745c29aa1331ad444e0ca08761e2bc0-d.jpg,,
21739957,Climate Change and Economic Development: SEA Regional Modelling and Analysis,,,,"Sardar M.N. Islam, Jamie Sanderson",2007,,,,208,0,English,305,,до 2011-01,"0230542794,9780230542792,9780230590120",,,,,,,,,OL10194561M,,0,,,,1,0,1,1,887887,pdf,F71771E267CC83E94D816EF40685C629,,,D:\\!genesis\\library.nu\\f7\\_76996.f71771e267cc83e94d816ef40685c629.pdf,0,2000-01-01 01:00:00,2016-04-03 02:51:08,446000/f71771e267cc83e94d816ef40685c629-d.jpg,,
21739958,Manifeste pour le droit a l'information : De la manipulation a la legislation,,,,Claude-Jean Devirieux,2009,Hors-collection,,,186,0,French,,,до 2011-01,"2760523659,9782760523654",,,,,,,,,OL24025398M,,0,,,,1,0,1,1,1126101,pdf,F72E048019AB3925C0A2C26C34ADC548,,,D:\\!genesis\\library.nu\\f7\\_76701.f72e048019ab3925c0a2c26c34adc548.pdf,0,2000-01-01 01:00:00,2016-04-03 02:51:08,446000/f72e048019ab3925c0a2c26c34adc548-d.jpg,,
21739959,Ethernet : The Definitive Guide,,,,Charles E. Spurgeon,2000,1,,,520,0,English,,,до 2011-01,"1565926609,9781565926608,9781565929524",,,,,004.6/8,TK5105.8.E83 S67 2000,,,OL59033M,,0,,,,,1,,1,8424231,pdf,F7D7250931309656483166FC51D6CCE8,,,D:\\!genesis\\library.nu\\f7\\_76137.f7d7250931309656483166fc51d6cce8.pdf,0,2000-01-01 01:00:00,2016-04-03 02:51:08,446000/f7d7250931309656483166fc51d6cce8-d.jpg,,
21739960,"Fiscal Federalism and Political Decentralization: Lessons from Spain, Germany and Canada (Studies in Fiscal Federalism and State-Local Finance)",,,,"Nuria Bosch, Jose M. Duran",2008,,,,257,0,English,183,,до 2011-01,"1847204678,9781847204677,9781848442719",,,,,,,,,OL22557035M,,0,,,,,1,1,1,1404190,pdf,F73BB900C9AB990957307659F2D5B537,,,D:\\!genesis\\library.nu\\f7\\_76117.f73bb900c9ab990957307659f2d5b537.pdf,0,2000-01-01 01:00:00,2016-04-03 02:51:08,446000/f73bb900c9ab990957307659f2d5b537-d.jpg,,
21739961,,,Advances in Organometallic Chemistry 23,,F.G.A. Stone and Robert West (Eds.),1984,,"Elsevier, Academic Press",,"ii-vii, 1-324",0,English,296,,до 2011-01,978-0-12-031123-1,0065-3055,,,,,,,,OL10070551M,,0,,,,,1,,1,13668489,pdf,F723F174A5A646288596BA0784A4F9C1,,,D:\\!genesis\\library.nu\\f7\\_75713.f723f174a5a646288596ba0784a4f9c1.pdf,0,2000-01-01 01:00:00,2016-04-03 02:51:08,446000/f723f174a5a646288596ba0784a4f9c1-d.jpg,,
21739962,Re-thinking Socio-economic Rights in an Insecure World,,,,Nsongurua Udombana and Violeta Besirevic ; with an introduction by Wiktor Osiatynski,,,,,184,0,English,305,,до 2011-01,"9789638656988,9781429422246,9638656980",,,,,323,JC571 .R477 2006,,,OL16241491M,,0,,,,,0,1,1,888795,pdf,F7D898519BD2338532CFCA455BB48996,,,D:\\!genesis\\library.nu\\f7\\_75288.f7d898519bd2338532cfca455bb48996.pdf,0,2000-01-01 01:00:00,2016-04-03 02:51:08,446000/f7d898519bd2338532cfca455bb48996-g.jpg,,
21739963,Modern Aspects of Electrochemistry   Volume 41 (Modern Aspects of Electrochemistry),,,,Constantinos Vayenas,2007,1,,,320,0,English,296,,до 2011-01,"0387461078,9780387461083,9780387461076",,,,,,,,,OL7445878M,,0,,,,,0,,1,5143432,pdf,F7D6730B45F98D01A5D546AB1F8CC6F5,,,D:\\!genesis\\library.nu\\f7\\_75143.f7d6730b45f98d01a5d546ab1f8cc6f5.pdf,0,2000-01-01 01:00:00,2016-04-03 02:51:08,446000/f7d6730b45f98d01a5d546ab1f8cc6f5-d.jpg,,
21739964,Social Implications and Challenges of E-Business,,,,Feng Li,2007,1,,,350,0,English,1,,до 2011-01,"1599041057,9781599041056,9781599041070",,,,,,,,,OL12498857M,,0,,,,,0,,1,4711190,pdf,F7443C03ED7D0DA40D282F7A7802474D,,,D:\\!genesis\\library.nu\\f7\\_74511.f7443c03ed7d0da40d282f7a7802474d.pdf,0,2000-01-01 01:00:00,2016-04-03 02:51:08,446000/f7443c03ed7d0da40d282f7a7802474d-d.jpg,,
21739965,"Radio Production, Fifth Edition",,,,Robert McLeish,2005,5,,,368,0,English,256,,до 2011-01,"0240519728,9780240519722,9780080468471",,,,,,,,,OL3480086M,,0,,,,1,0,1,1,3432368,pdf,F7EEB686B7AC8131D93D4148B2A6BC81,,,D:\\!genesis\\library.nu\\f7\\_74269.f7eeb686b7ac8131d93d4148b2a6bc81.pdf,0,2000-01-01 01:00:00,2016-04-03 02:51:08,446000/f7eeb686b7ac8131d93d4148b2a6bc81-d.jpg,,
21739966,"Architectural Design with SketchUp: Component-Based Modeling, Plugins, Rendering, and Scripting",,,,Alexander Schreyer,2012,1,Wiley,,322,0,English,,,0,"1118123093,9781118123096,9781118376522,9781118376546,9781118385968,9781118385975,9781118385982,9781118567876,9781118567760",,,,,,,,,,,0,,,,,,,1,44362434,pdf,2fbfa94810c2f92c191609ca69d8330f,,,"Architectural Design with SketchUp. Component-Based Modeling, Plugins, Rendering, and Scripting - 1118123093",0,2000-01-01 01:00:00,2016-04-03 02:51:08,881000/2fbfa94810c2f92c191609ca69d8330f-d.jpg,,
21739967,"The Medium Format Advantage, Second Edition",,,,Ernst Wildi,2001,2,,,304,0,English,305,,до 2011-01,"0240804589,9780240804583,9781429483445",,,,,,,,,OL9439643M,,0,,,,,0,,1,23850941,pdf,F7E83A8D2E282888F7396F7BFE779ABB,,,D:\\!genesis\\library.nu\\f7\\_74244.f7e83a8d2e282888f7396f7bfe779abb.pdf,0,2000-01-01 01:00:00,2016-04-03 02:51:08,446000/f7e83a8d2e282888f7396f7bfe779abb-d.jpg,,
21739968,Light and Lens: Photography in the Digital Age,,,,Robert Hirsch,2007,,Focal Press,,416,0,English,59,,до 2011-01,"9780080549934,9780240808550,024080855X",,,,,775,TR267 .H57 2007,,,OL10200987M,,0,,,,,0,,1,69392074,pdf,F723646D63DB8BDF8FA0443A29A35C9B,,,D:\\!genesis\\library.nu\\f7\\_74185.f723646d63db8bdf8fa0443a29a35c9b.pdf,0,2000-01-01 01:00:00,2016-04-03 02:51:08,446000/f723646d63db8bdf8fa0443a29a35c9b-d.jpg,,
21739969,"Grammar of the Shot, Second Edition",,,,"Roy Thompson, Christopher J. Bowen",2009,2,,,392,0,English,305,,до 2011-01,"0240521218,9780240521213,9780080927053",,,,,,,,,OL23232239M,,0,,,,,0,,1,5072413,pdf,F7EF9561BDCF95E9D236DAB581A2AFF9,,,D:\\!genesis\\library.nu\\f7\\_74176.f7ef9561bdcf95e9d236dab581a2aff9.pdf,0,2000-01-01 01:00:00,2016-04-03 02:51:08,446000/f7ef9561bdcf95e9d236dab581a2aff9-d.jpg,,
21739970,"Langford's Starting Photography: The Guide to Great Images with Digital or Film, Fifth Edition",,,,"Philip Andrews, Michael Langford,",2007,5,,,368,0,English,59,,до 2011-01,"0240520564,9780240520568,9780080471211",,,,,,,,,OL9881045M,,0,,,,,0,1,1,24122028,pdf,F7E3E56885B9CCD9C45863C7812A6D4D,,,D:\\!genesis\\library.nu\\f7\\_74031.f7e3e56885b9ccd9c45863c7812a6d4d.pdf,0,2000-01-01 01:00:00,2016-04-03 02:51:08,446000/f7e3e56885b9ccd9c45863c7812a6d4d-d.jpg,,
21739971,The Exercise of Public Authority by International Institutions: Advancing International Institutional Law,,Beiträge zum ausländischen öffentlichen Recht und Völkerrecht 210,,"Armin Bogdandy, Rüdiger Wolfrum, Jochen Bernstorff, Philipp Dann, Matthias Goldmann",2010,1,Springer-Verlag Berlin Heidelberg,,1008,0,English,313,,до 2011-01,"3642045308,978-3-642-04530-1,978-3-642-04531-8",,,,,,,10.1007/978-3-642-04531-8,,,,0,,,,0,0,1,1,6778324,pdf,F72A0984E0DBF58E733046FBD45A6716,,,D:/!genesis/library.nu/f7/_73469.f72a0984e0dbf58e733046fbd45a6716.pdf,0,2000-01-01 01:00:00,2016-04-03 02:51:08,446000/f72a0984e0dbf58e733046fbd45a6716-d.jpg,,
21739972,Jangan Main-Main (dengan Kelaminmu),,,,Djenar Maesa Ayu,2004,,,,122,0,Indonesian,,,до 2011-01,"9789792206708,9792206701",,,,,,,,,,,0,,,,,1,,1,315924,pdf,F7B95B12ADC1846CE7A94731ADACD75A,,,D:/!genesis/library.nu/f7/_73448.f7b95b12adc1846ce7a94731adacd75a.pdf,0,2000-01-01 01:00:00,2016-04-03 02:51:08,446000/f7b95b12adc1846ce7a94731adacd75a-g.jpg,,
21739973,Creditor Protection in Private Companies: Anglo-German Perspectives for a European Legal Discourse (International Corporate Law and Financial Market Regulation),,,,Thomas Bachner,2009,1,,,352,0,English,305,,до 2011-01,"0521895383,9780521895385,9780511517945",,,,,346.07/7,K1330 .B33 2009,,,OL22796761M,,0,,,,,1,1,1,2289367,pdf,F7967212B4D8C7311CC53D6D6B912339,,,D:\\!genesis\\library.nu\\f7\\_7339.f7967212b4d8c7311cc53d6d6b912339.pdf,0,2000-01-01 01:00:00,2016-04-03 02:51:08,446000/f7967212b4d8c7311cc53d6d6b912339-d.jpg,,
21739974,Das Potential der Leere,,,,Osho,,,,,433,0,German,,,до 2011-01,"3933556082,9783933556080",,,,,,,,,,,0,,,,,1,1,1,2095412,pdf,F70ED90097736BA20EDE4C0F42BDABB9,,,D:\\!genesis\\library.nu\\f7\\_73168.f70ed90097736ba20ede4c0f42bdabb9.pdf,0,2000-01-01 01:00:00,2016-04-03 02:51:08,446000/f70ed90097736ba20ede4c0f42bdabb9-d.jpg,,
21739975,The Dying Earth,,,,Jack Vance,1972,1st UK paperback,,,144,0,English,38,,до 2011-01,"9780583120913,0583120911,0671441841,9780671441845",,,,,,,,,OL7647655M,,0,,,,,1,,1,220534,pdf,F7FD651048A6C237FD3A5842E23FAB39,,,D:\\!genesis\\library.nu\\f7\\_73100.f7fd651048a6c237fd3a5842e23fab39.pdf,0,2000-01-01 01:00:00,2016-04-03 02:51:08,446000/f7fd651048a6c237fd3a5842e23fab39-d.jpg,,
21739976,"Probiotika: Mikrookologie, Mikrobiologie, Qualitat, Sicherheit und gesundheitliche Effekte",,,,"Jurgen Schulze, Ulrich Sonnenborn, Tobias Olschlager, Wolfgang Kruis",2008,,,,193,0,German,18,,до 2011-01,"3830453566,9783830453567",,,,,,,,,,,0,,,,,1,,0,57564705,pdf,F7369D8B72C9E4DEB25DC75A01F1BFD7,,,D:\\!genesis\\library.nu\\f7\\_72799.f7369d8b72c9e4deb25dc75a01f1bfd7.pdf,0,2000-01-01 01:00:00,2016-04-03 02:51:08,446000/f7369d8b72c9e4deb25dc75a01f1bfd7-d.jpg,,
21739977,The Orange Order: A Contemporary Northern Irish History,,,,Eric P. Kaufmann,2007,,,,400,0,English,64,,до 2011-01,"0199208484,9780199208487,9781429490030",,,,,941.6,HS1550.G7 O724 2007,,,OL17567396M,,0,,,,,1,1,1,6268858,pdf,F7EC3B14190DCDAE7E780B517C8D8204,,,D:\\!genesis\\library.nu\\f7\\_72333.f7ec3b14190dcdae7e780b517c8d8204.pdf,0,2000-01-01 01:00:00,2016-04-03 02:51:08,446000/f7ec3b14190dcdae7e780b517c8d8204-d.jpg,,
21739978,"Modeling, Rationality, Morality, and Evolution (Vancouver Studies in Cognitive Science, vol. 7)",,,,Peter Danielson,1998,,,,480,0,English,183,,до 2011-01,"0195125509,9780195125504,9780585220918,9780195125498,0195125495,9780195352276",,,,,110,BJ1031 .M63 1998,,,OL366663M,,0,,,,,1,1,1,29169491,pdf,F7D3B13E63833951169B6E52009ABA11,,,D:\\!genesis\\library.nu\\f7\\_71519.f7d3b13e63833951169b6e52009aba11.pdf,0,2000-01-01 01:00:00,2016-04-03 02:51:08,446000/f7d3b13e63833951169b6e52009aba11-d.jpg,,
21739979,"Cloud Computing: Implementation, Management, and Security",,,,"John Rittinghouse, James Ransome",2009,1,,,340,0,English,137,,до 2011-01,"1439806802,9781439806807",,,,,006.7/8,TK5105.88813 .R58 2010,,,OL23622162M,,0,,,,,1,,1,5302280,pdf,F755A3CBA5267A9A2AF7103740A2CBE5,,,D:\\!genesis\\library.nu\\f7\\_70798.f755a3cba5267a9a2af7103740a2cbe5.pdf,0,2000-01-01 01:00:00,2016-04-03 02:51:08,446000/f755a3cba5267a9a2af7103740a2cbe5-d.jpg,,
21739980,История руссов. Держава Владимира Великого,,Неведомая Русь,,Сергей Лесной,2012,,Вече,,288,0,Russian,64,AvaxHome,0,978-5-4444-0224-5,,,,,,,,,,,0,,,,1,1,1,1,23228135,pdf,d409d8c4c196c7587a66dbb8f780335c,,,История руссов. Держава Владимира Великого,0,2000-01-01 01:00:00,2016-04-03 02:51:08,885000/e067c895e7945db5bf8782b3c8bd43e3-d.jpg,,
21739981,Rome (Eyewitness Travel Guides),,Eyewitness Travel Guides,,DK Publishing,2006,,Dorling Kindersley Publishing,,454,0,English,35,,до 2011-01,"075661550X,9780756615505",1542-1554,,,,,,,,OL7995124M,,0,,,,,1,1,1,46806990,pdf,F71C8D82942580508D2A10DB1004BD8D,,,D:\\!genesis\\library.nu\\f7\\_70538.f71c8d82942580508d2a10db1004bd8d.pdf,0,2000-01-01 01:00:00,2016-04-03 02:51:08,446000/f71c8d82942580508d2a10db1004bd8d-d.jpg,,
21739982,Time: From Earth Rotation to Atomic Physics,,,,"P. Kenneth Seidelmann, Dennis D. McCarthy",2009,1,,,373,0,English,132,,до 2011-01,"3527407804,9783527407804",,,,,,,,,,,0,,,,,1,1,1,7658153,pdf,F7AB4C9EA4D79E886823066ED5C2067A,,,D:\\!genesis\\library.nu\\f7\\_70481.f7ab4c9ea4d79e886823066ed5c2067a.pdf,0,2000-01-01 01:00:00,2016-04-03 02:51:08,446000/f7ab4c9ea4d79e886823066ed5c2067a-d.jpg,,
21739983,"Humanism and Renaissance Historiography (History Series (Hambledon Press), V. 21.)",,,,E. B. Fryde,1983,,,,244,0,English,64,,до 2011-01,"0907628249,9780907628248",,,,,907/.2045,D13.5.I8 F78 1983,,,OL3242164M,,0,,,,,1,1,1,15561933,pdf,F7AF74049BFD2F8C01E81B066965AF04,,,D:\\!genesis\\library.nu\\f7\\_70323.f7af74049bfd2f8c01e81b066965af04.pdf,0,2000-01-01 01:00:00,2016-04-03 02:51:08,446000/f7af74049bfd2f8c01e81b066965af04-d.jpg,,
21739984,Counterfactuals and Causal Inference: Methods and Principles for Social Research (Analytical Methods for Social Research),,,,"Stephen L. Morgan, Christopher Winship",2007,1,,,334,0,English,189,,до 2011-01,"0521856159,9780521856157,9780511350122",,,,,300.72,H62 .M646 2007,,,OL17558836M,,0,,,,,1,,1,2787671,pdf,F789AD9E4D316D31A6100EB333772FAD,,,D:\\!genesis\\library.nu\\f7\\_7031.f789ad9e4d316d31a6100eb333772fad.pdf,0,2000-01-01 01:00:00,2016-04-03 02:51:08,446000/f789ad9e4d316d31a6100eb333772fad-d.jpg,,
21739985,"Childhood in Nineteenth-Century France: Work, Health and Education among the 'Classes Populaires'",,,,Colin Heywood,1988,,,,366,0,English,183,,до 2011-01,"9780521350389,9780511523359,0521892775,0521350387,0511523351,9780521892773",,,,,305.2/3/0944,HQ792.F7 H39 1988,,,OL2527371M,,0,,,,,1,,1,2766927,djvu,F7E1A96D80E0ECEB6036414AD26EEEF2,,,D:\\!genesis\\library.nu\\f7\\_69900.f7e1a96d80e0eceb6036414ad26eeef2.djvu,0,2000-01-01 01:00:00,2016-04-03 02:51:08,446000/f7e1a96d80e0eceb6036414ad26eeef2-d.jpg,,
21739986,Living with Uncertainty: The Moral Significance of Ignorance (Cambridge Studies in Philosophy),,,,Michael J. Zimmerman,2008,1,,,234,0,English,183,,до 2011-01,"0521894913,0511481500,9780511481505,9780521894913",,,,,170/.42,BJ37 .Z49 2008,,,OL16856808M,,0,,,,,0,,1,882623,pdf,F7F8A1E8992E572041D09D9E0B834BEA,,,D:\\!genesis\\library.nu\\f7\\_69739.f7f8a1e8992e572041d09d9e0b834bea.pdf,0,2000-01-01 01:00:00,2016-04-03 02:51:08,446000/f7f8a1e8992e572041d09d9e0b834bea-d.jpg,,
21739987,Wideband Low Noise Amplifiers Exploiting Thermal Noise Cancellation,,,,Federico Bruccoleri and Eric A. M. Klumperink and Bram Nauta,2005,1,,,182,0,English,,,до 2011-01,"1402031874,9781402031885,9781402031878",,,,,,,,,OL3435058M,,0,,,,,1,1,1,8283238,pdf,F7DC876422DB5BE68158235DC3C6C427,,,D:\\!genesis\\library.nu\\f7\\_69282.f7dc876422db5be68158235dc3c6c427.pdf,0,2000-01-01 01:00:00,2016-04-03 02:51:08,446000/f7dc876422db5be68158235dc3c6c427-d.jpg,,
21739988,"Opportunistic Infections: Toxoplasma, Sarcocystis, and Microsporidia (World Class Parasites)",,,,"David S. Lindsay, Louis M. Weiss",2004,1,,,256,0,English,157,,до 2011-01,"1402078145,9781402078149,9781402078460",,,,,616.9/36,RC186.T75 O66 2004,,,,,0,,,,,1,,1,5947173,pdf,F704455C5D7EFEFA7488ADCEF5BA40AA,,,D:/!genesis/library.nu/f7/_68079.f704455c5d7efefa7488adcef5ba40aa.pdf,0,2000-01-01 01:00:00,2016-04-03 02:51:08,446000/f704455c5d7efefa7488adcef5ba40aa-d.jpg,,
21739989,"Product Engineering: Tools and Methods Based on Virtual Reality (Intelligent Systems, Control and Automation: Science and Engineering)",,,,"Doru Talaba, Angelos Amditis",2008,1,,,566,0,English,210,,до 2011-01,"1402081995,9781402081996",,,,,,,,,OL17064886M,,0,,,,,1,,1,86448475,pdf,F7CDEB26637D17F3BDF986C2ABF087B1,,,D:\\!genesis\\library.nu\\f7\\_67955.f7cdeb26637d17f3bdf986c2abf087b1.pdf,0,2000-01-01 01:00:00,2016-04-03 02:51:08,446000/f7cdeb26637d17f3bdf986c2abf087b1-d.jpg,,
21739990,Growing Food: A Guide to Food Production,,,,Tony Winch,2006,1,Springer,,342,0,English,,,до 2011-01,"1402048270,9781402049750,9781402048272,1402066244,9781402066245",,,,,,,,,OL8372007M,,0,,,,0,0,1,1,2145913,pdf,F78071BD1DE80BBD4FDE6E0ED11A4771,,,D:\\!genesis\\library.nu\\f7\\_67476.f78071bd1de80bbd4fde6e0ed11a4771.pdf,0,2000-01-01 01:00:00,2016-04-03 02:51:08,446000/f78071bd1de80bbd4fde6e0ed11a4771-d.jpg,,
21739991,Jewish Martyrs in the Pagan and Christian Worlds,,,,Shmuel Shepkaru,2005,,,,428,0,English,205,,до 2011-01,"0521842816,9780521842815,9780511345258",,,,,,,,,OL18191753M,,0,,,,,1,,1,3698992,pdf,F738A963D860A312AA3A683C10D7568B,,,D:\\!genesis\\library.nu\\f7\\_6537.f738a963d860a312aa3a683c10d7568b.pdf,0,2000-01-01 01:00:00,2016-04-03 02:51:08,446000/f738a963d860a312aa3a683c10d7568b-d.jpg,,
21739992,Geological Disposal: Building Confidence Using Multiple Lines Of Evidence,,Radioactive Waste Management,,Organisation for Economic Co-Operation and Development,2004,,Organization for Economic Cooperation and Development,,204,0,English,38,,до 2011-01,"9264015922,9789264015920",,,,,,,,Q-ONwjPPvegC,OL12900743M,,0,,,,,1,1,1,5320272,pdf,F73FEB5ED5615A25AFFB0F0178AC7F53,,,D:\\!genesis\\library.nu\\f7\\_65283.f73feb5ed5615a25affb0f0178ac7f53.pdf,0,2000-01-01 01:00:00,2016-04-03 02:51:08,446000/f73feb5ed5615a25affb0f0178ac7f53-g.jpg,,
21739993,AS Level Law,,,,Andrew Mitchell,2003,1,,,468,0,English,313,,до 2011-01,"185941785X,9781859417850",,,,,,,,,OL9408791M,,0,,,,,1,1,1,25958635,pdf,F79D91DCFEAB98AFBB30609602F9F45E,,,D:\\!genesis\\library.nu\\f7\\_65163.f79d91dcfeab98afbb30609602f9f45e.pdf,0,2000-01-01 01:00:00,2016-04-03 02:51:08,446000/f79d91dcfeab98afbb30609602f9f45e-d.jpg,,
21739994,Developing a Cross-Cultural Law Curriculum (Legal Education Series),,,,"There O'Donnell, Anthony O'Donnell, Richard Johnstone",1997,1,,,146,0,English,183,,до 2011-01,"1876213310,9781876213312",,,,,,,,,OL450244M,,0,,,,,1,1,1,939597,pdf,F7BB4A915417B9AA08378024D9DC0738,,,D:\\!genesis\\library.nu\\f7\\_64930.f7bb4a915417b9aa08378024d9dc0738.pdf,0,2000-01-01 01:00:00,2016-04-03 02:51:08,446000/f7bb4a915417b9aa08378024d9dc0738-d.jpg,,
21739995,Aviones de coleccion: modelos realistas en papiroflexia,,,,Jose Maria Chaquet Ulldemolins.,2005,unknown,,,96,0,Spanish,245,,до 2011-01,"8484123251,9788484123255",,,,,,,,,,,0,,,,,1,1,0,18860154,pdf,F71EEBE1316A5F78BE624A41CEA4AA8B,,,D:\\!genesis\\library.nu\\f7\\_64450.f71eebe1316a5f78be624a41cea4aa8b.pdf,0,2000-01-01 01:00:00,2016-04-03 02:51:08,446000/f71eebe1316a5f78be624a41cea4aa8b-g.jpg,,
21739996,Integration II: Chapters 7-9 (Elements of Mathematics),,,,Nicolas Bourbaki,2004,1,,,333,0,English,113,,до 2011-01,"9783540205852,3540205853",,,,,515/.43,QA308 .B68 2004,,,OL19290436M,,0,,,,,1,,0,2824268,djvu,F72C1046E98754B52BCABA9F3E643568,,,D:\\!genesis\\library.nu\\f7\\_64272.f72c1046e98754b52bcaba9f3e643568.djvu,0,2000-01-01 01:00:00,2016-04-03 02:51:08,446000/f72c1046e98754b52bcaba9f3e643568-d.jpg,,
21739997,Prisonization: Individual and Institutional Factors Affecting Inmate Conduct (Criminal Justice (LFB Scholarly Publishing LLC)) (Criminal Justice (Lfb Scholarly Publishing Llc).),,,,Wayne Gillespie,2002,,,,184,0,English,311,,до 2011-01,"1931202524,9781931202527,9781593320300",,,,,365/.6,HV9471 .G555 2003,,,OL21661662M,,0,,,,,1,1,1,1071258,pdf,F712A84CDD603A9245D4BF777028E85A,,,D:\\!genesis\\library.nu\\f7\\_64208.f712a84cdd603a9245d4bf777028e85a.pdf,0,2000-01-01 01:00:00,2016-04-03 02:51:08,446000/f712a84cdd603a9245d4bf777028e85a-d.jpg,,
21739998,Single-case and Small-n Experimental Designs: A Practical Guide To Randomization Tests,,,,"John B. Todman, Pat Dugard",2001,1,,,272,0,English,,,до 2011-01,"0805835547,9780805835540,9780585376530",,,,,,,,,OL7937462M,,0,,,,,1,,1,1652697,pdf,F738DFEC4523D9F56075353169C5429D,,,D:\\!genesis\\library.nu\\f7\\_64187.f738dfec4523d9f56075353169c5429d.pdf,0,2000-01-01 01:00:00,2016-04-03 02:51:08,446000/f738dfec4523d9f56075353169c5429d-d.jpg,,
21739999,Qualitative Research In Education: Focus and Methods,,Explorations in Ethnography,,Robert Sherman,1988,1st,Psychology Press,,232,0,English,183,,до 2011-01,"1850003815,9781850003816",,,,,370/.7/8,LB1028 .Q355 1988,,,,,0,,,,,1,,1,1455612,pdf,F77ED603F767E29930E8015D187D19EB,,,D:/!genesis/library.nu/f7/_63911.f77ed603f767e29930e8015d187d19eb.pdf,0,2000-01-01 01:00:00,2016-04-03 02:51:08,446000/f77ed603f767e29930e8015d187d19eb-d.jpg,,
21740000,Execution,,,,Geoffrey Abbott,2005,,,,288,0,English,,,до 2011-01,"184024433X,9781840244335,9781423711698",,,,,,,,,OL24283964M,,0,,,,,1,1,1,1677955,pdf,F730D7E14F2CA2DFC745145F1989E7F2,,,D:\\!genesis\\library.nu\\f7\\_63890.f730d7e14f2ca2dfc745145f1989e7f2.pdf,0,2000-01-01 01:00:00,2016-04-03 02:51:08,446000/f730d7e14f2ca2dfc745145f1989e7f2-d.jpg,,
21740001,An Atlas of Differential Diagnosis in Neoplastic Hematopathology,,,,"Wojciech Gorczyca, James Weisberger, Foxwell Nathan Emmons",2004,1st,CRC Press,,424,0,English,,,до 2011-01,184214247X,,,,,,,,,,,0,,,,,1,1,1,16633119,pdf,F753ED7B06E66ABD33BA5FB52B72F5B4,,,D:/!genesis/library.nu/f7/_63486.f753ed7b06e66abd33ba5fb52b72f5b4.pdf,0,2000-01-01 01:00:00,2016-04-03 02:51:08,446000/f753ed7b06e66abd33ba5fb52b72f5b4-d.jpg,,
21740002,Making the Most of Your Retirement,,,,Keith Hughes,1989,2nd Revised edition,,,96,0,English,,,до 2011-01,"1850919232,9781850919230",,,,,,,,,OL11948801M,,0,,,,,1,1,1,444612,pdf,F7A5E0427181DB5EE46F413A5E8C43F9,,,D:\\!genesis\\library.nu\\f7\\_63414.f7a5e0427181db5ee46f413a5e8c43f9.pdf,0,2000-01-01 01:00:00,2016-04-03 02:51:08,446000/f7a5e0427181db5ee46f413a5e8c43f9-g.jpg,,
21740003,In Pursuit of Psychic Change: The Betty Joseph Workshop (New Library of Psychoanalysis (Unnumbered).),,,,E. Hargreaves,2004,,,,224,0,English,198,,до 2011-01,"9781583918234,158391823X,9780203691281,0203647181,0203691288,1583918221,9780203647189",,,,,616.89/17,RC504 .I495 2004,,,OL22576817M,,0,,,,,1,1,1,2552399,pdf,F7CBBED910B9A769E12C30B8BC3AEDE5,,,D:\\!genesis\\library.nu\\f7\\_63132.f7cbbed910b9a769e12c30b8bc3aede5.pdf,0,2000-01-01 01:00:00,2016-04-03 02:51:08,446000/f7cbbed910b9a769e12c30b8bc3aede5-d.jpg,,
21740004,Finding and Knowing: The Psychology of Digital Information Use,,,,Clare Davies,2005,,,,344,0,English,198,,до 2011-01,"0851424546,9780851424545",,,,,,,,,OL17193280M,,0,,,,,1,,1,2198015,pdf,F7B0E3AFFF82C4C2AB69AD7066E4AD02,,,D:\\!genesis\\library.nu\\f7\\_63072.f7b0e3afff82c4c2ab69ad7066e4ad02.pdf,0,2000-01-01 01:00:00,2016-04-03 02:51:08,446000/f7b0e3afff82c4c2ab69ad7066e4ad02-d.jpg,,
21740005,"Great Britain, Germany and the Soviet Union: Rapallo and after, 1922-1934",,Royal Historical Society Studies in History New Series,,Stephanie C. Salzmann,2003,,Boydell Press,,211,0,English,64,,до 2011-01,"0861932609,9780861932603,9780585490908",,,,,327.41043,DA578 .S33 2003,,v42v72cfil0C,OL3553914M,,0,,,,1,0,1,1,917483,pdf,F798ED4E9F07C00201B100EEABF546DD,,,D:\\!genesis\\library.nu\\f7\\_62823.f798ed4e9f07c00201b100eeabf546dd.pdf,0,2000-01-01 01:00:00,2016-04-03 02:51:08,446000/f798ed4e9f07c00201b100eeabf546dd-d.jpg,,
21740006,The Easy Step by Step Guide to Writing Advertising Copy (Easy Step by Step Guides),,,,Pamela Brooks,2002,,,,102,0,English,5,,до 2011-01,"0953985636,9780953985630,9781423746157",,,,,,,,,OL24314833M,,0,,,,,1,1,1,3333555,pdf,F7884A0BE3267E4CF237B6D13AB49C54,,,D:\\!genesis\\library.nu\\f7\\_62595.f7884a0be3267e4cf237b6d13ab49c54.pdf,0,2000-01-01 01:00:00,2016-04-03 02:51:08,446000/f7884a0be3267e4cf237b6d13ab49c54-d.jpg,,
21740007,Climate Change in Prehistory: The End of the Reign of Chaos,,,,William James Burroughs,2005,,,,372,0,English,64,,до 2011-01,"9780521824095,0521824095,0521070104,9780521070102,9780511115455",,,,,,,,,OL22622791M,,0,,,,,1,1,1,3931250,pdf,F7662251BDC9D1F992CECD4EB3FAD3F9,,,D:\\!genesis\\library.nu\\f7\\_6135.f7662251bdc9d1f992cecd4eb3fad3f9.pdf,0,2000-01-01 01:00:00,2016-04-03 02:51:08,446000/f7662251bdc9d1f992cecd4eb3fad3f9-d.jpg,,
21740008,Ringworld's Children,,,,Larry Niven,2004,First Edition,,,288,0,English,,,до 2011-01,"0765301679,9780765301673",,,,,813/.54,PS3564.I9 R57 2004,,,OL3681371M,,0,,,,,1,1,1,1033055,pdf,F78B2F8965DD40484FFDEC12D08727C6,,,D:\\!genesis\\library.nu\\f7\\_61143.f78b2f8965dd40484ffdec12d08727c6.pdf,0,2000-01-01 01:00:00,2016-04-03 02:51:08,446000/f78b2f8965dd40484ffdec12d08727c6-d.jpg,,
21740009,"Structure of Slavery in Indian Ocean Africa and Asia (Studies in Slave and Post-Slave Societies and Cultures,)",,,,Gwyn Campbell,2003,1,,,256,0,English,183,,до 2011-01,"0714683884,9780714683881,9780203011256",,,,,306.3/62/091824,HT1430 .S67 2004,,,OL22725417M,,0,,,,,1,1,1,1607137,pdf,F777753210CF1D969FA8D4EB178CAD14,,,D:\\!genesis\\library.nu\\f7\\_60045.f777753210cf1d969fa8d4eb178cad14.pdf,0,2000-01-01 01:00:00,2016-04-03 02:51:08,446000/f777753210cf1d969fa8d4eb178cad14-d.jpg,,
21740010,Irish Political Studies Data Yearbook 2002,,,,Karin Gilland,2003,,,,108,0,English,183,,до 2011-01,"0714684112,9780714684116",,,,,,,,,OL22584205M,,0,,,,,1,1,1,1952937,pdf,F74052C4B41AAD05FB6FCD0A901AE62E,,,D:\\!genesis\\library.nu\\f7\\_59554.f74052c4b41aad05fb6fcd0a901ae62e.pdf,0,2000-01-01 01:00:00,2016-04-03 02:51:08,446000/f74052c4b41aad05fb6fcd0a901ae62e-d.jpg,,
21740011,A Concise Companion to Feminist Theory (Concise Companions to Literature and Culture),,,,Mary Eagleton,2003,1,,,288,0,English,,,до 2011-01,"0631224025,9781405143073,9780631224020,0631224033,9780631224037",,,,,305.42/01,HQ1190 .C666 2003,,,OL22533670M,,0,,,,,1,1,1,876365,pdf,F723CA0FCBABACBCCFE75FD24AD62A7C,,,D:\\!genesis\\library.nu\\f7\\_59077.f723ca0fcbabacbccfe75fd24ad62a7c.pdf,0,2000-01-01 01:00:00,2016-04-03 02:51:08,446000/f723ca0fcbabacbccfe75fd24ad62a7c-d.jpg,,
21740012,Computing in Architectural Practice,,,,C. Woodward,1998,,,,194,0,English,137,,до 2011-01,"0419213104,9780419213109,9780203989463",,,,,,,,,OL7499605M,,0,,,,,1,,1,4314171,pdf,F781978366F198E453973A98E01908ED,,,D:\\!genesis\\library.nu\\f7\\_58731.f781978366f198e453973a98e01908ed.pdf,0,2000-01-01 01:00:00,2016-04-03 02:51:08,446000/f781978366f198e453973a98e01908ed-d.jpg,,
21740013,Case Studies in Post Construction Liability and Insurance (CIB Programme),,,,Anthony Lavers,1999,1,,,352,0,English,236,,до 2011-01,"0419245707,9780419245704,9780203980934",,,,,,,,,OL16949460M,,0,,,,,1,1,1,1724934,pdf,F7891D69145294E185474F2A037699A7,,,D:\\!genesis\\library.nu\\f7\\_58423.f7891d69145294e185474f2a037699a7.pdf,0,2000-01-01 01:00:00,2016-04-03 02:51:08,446000/f7891d69145294e185474f2a037699a7-d.jpg,,
21740014,"Caribbean Spanish in the Metropolis: Spanish Language among Cubans, Dominicans and Puerto Ricans in the New York City Area (Latino Communities)",,,,Edwin M. Lamboy,2004,1,,,142,0,English,314,,до 2011-01,"0415949254,9780415949255,9780203002018",,,,,467/.97471,PC4829.N44 L36 2004,,,OL3290386M,,0,,,,,1,,1,1446757,pdf,F789D59CD1E3A36A1DE03927CD425463,,,D:\\!genesis\\library.nu\\f7\\_58349.f789d59cd1e3a36a1de03927cd425463.pdf,0,2000-01-01 01:00:00,2016-04-03 02:51:08,446000/f789d59cd1e3a36a1de03927cd425463-d.jpg,,
21740015,The First Lady of Hollywood: A Biography of Louella Parsons,,,,Samantha Barbas,2005,1,,,426,0,English,18,,до 2011-01,"0520242130,9780520242135,9781423717324",,,,,"070.4/4979143/092,B",PN4874.P35 B37 2005,,,OL3396239M,,0,,,,,1,1,1,1923370,pdf,F7709C836190FA8B899AC4EFD306AD89,,,D:\\!genesis\\library.nu\\f7\\_58021.f7709c836190fa8b899ac4efd306ad89.pdf,0,2000-01-01 01:00:00,2016-04-03 02:51:08,446000/f7709c836190fa8b899ac4efd306ad89-d.jpg,,
21740016,"Buddha Is Hiding: Refugees, Citizenship, the New America (Public Anthropology, 5)",,,,Aihwa Ong,2003,1,,,352,0,English,206,,до 2011-01,"9780520229983,9781417522798,0520229983,0520238249,9780520238244",,,,,,,,,OL7711228M,,0,,,,,1,1,1,2245777,pdf,F77AEC84B4F6BBF8BC8DD4BCE741E2D1,,,D:\\!genesis\\library.nu\\f7\\_57791.f77aec84b4f6bbf8bc8dd4bce741e2d1.pdf,0,2000-01-01 01:00:00,2016-04-03 02:51:08,446000/f77aec84b4f6bbf8bc8dd4bce741e2d1-g.jpg,,
21740017,"Seasonal Patterns of Stress, Immune Function, and Disease",,,,"Randy J. Nelson (Author), Gregory E. Demas (Author), Sabra L. Klein (Author), Lance J. Kriegsfeld (A",2002,1,Cambridge University Press,,309,0,English,150,,до 2011-01,"052159068X,9780521590686,9780511065859",,,,,,,,ul8nOaaQW9gC,OL17040609M,,0,,,,1,0,1,1,3296054,pdf,F77B0F79E4BEAF7CDDB89AAC9CCC9BDC,,,D:\\!genesis\\library.nu\\f7\\_5737.f77b0f79e4beaf7cddb89aac9ccc9bdc.pdf,0,2000-01-01 01:00:00,2016-04-03 02:51:08,446000/f77b0f79e4beaf7cddb89aac9ccc9bdc-d.jpg,,
21740018,"The New North American Studies: Culture, Writing and the Politics of Re Cognition",,,,W. Siemerling,2005,1,,,224,0,English,183,,до 2011-01,"0415335981,9780415335980",,,,,810.9/358,PS25 .S55 2004,,,OL22604401M,,0,,,,,1,1,1,3518371,pdf,F7BAD30533DC8CF4C9C22A6A055EE9B3,,,D:\\!genesis\\library.nu\\f7\\_57332.f7bad30533dc8cf4c9c22a6a055ee9b3.pdf,0,2000-01-01 01:00:00,2016-04-03 02:51:08,446000/f7bad30533dc8cf4c9c22a6a055ee9b3-d.jpg,,
21740019,China's Industrial Policies and the Global Business Revolution  The Case of the Domestic Appliance Industry (Routledgecurzon Studies on the Chinese Economy),,,,Ling Liu,2005,,,,208,0,English,183,,до 2011-01,"0415355605,9780415355605,9780203001998",,,,,338.4/76838/095109049,HD3616.C63 L58 2005,,,OL22631253M,,0,,,,,1,1,1,1517425,pdf,F74D4049BF1F5605BC136E0A688EF8F3,,,D:\\!genesis\\library.nu\\f7\\_57329.f74d4049bf1f5605bc136e0a688ef8f3.pdf,0,2000-01-01 01:00:00,2016-04-03 02:51:08,446000/f74d4049bf1f5605bc136e0a688ef8f3-d.jpg,,
21740020,Back and Bed: Ergonomic Aspects of Sleeping,,,,Bart Haex,2004,1,,,280,0,English,210,,до 2011-01,"0415332974,9780415332972,9780203022306",,,,,684.1/5,QP425 .H17 2005,,,OL22611423M,,0,,,,,1,1,1,5408530,pdf,F7697A3BEEAE30E95B89F9C1096E1F1F,,,D:\\!genesis\\library.nu\\f7\\_57221.f7697a3beeae30e95b89f9c1096e1f1f.pdf,0,2000-01-01 01:00:00,2016-04-03 02:51:08,446000/f7697a3beeae30e95b89f9c1096e1f1f-d.jpg,,
21740021,Playwriting: A Practical Guide,,,,Noel Greig,2005,,,,224,0,English,,,до 2011-01,"041531044X,9780415310444",,,,,808.2/2,PN1661,,,OL22147946M,,0,,,,,1,1,1,736701,pdf,F7F6F08B4A8EC09125D6FFB219DCD344,,,D:\\!genesis\\library.nu\\f7\\_56962.f7f6f08b4a8ec09125d6ffb219dcd344.pdf,0,2000-01-01 01:00:00,2016-04-03 02:51:08,446000/f7f6f08b4a8ec09125d6ffb219dcd344-d.jpg,,
21740022,Security as Practice: Discourse Analysis and the Bosnian War (The New International Relations),,,,Lene Hansen,2006,New edition,,,288,0,English,67,,до 2011-01,"9780415335751,0415335752,0415326532,9780203236338,9780203390337,0203236335,9780203180570",,,,,327.1/01,JZ1253.5 .H36 2006,,,OL22722682M,,0,,,,,1,1,1,1783363,pdf,F70403C6BEE8225B7B0482474FDE9FE4,,,D:\\!genesis\\library.nu\\f7\\_56778.f70403c6bee8225b7b0482474fde9fe4.pdf,0,2000-01-01 01:00:00,2016-04-03 02:51:08,446000/f70403c6bee8225b7b0482474fde9fe4-d.jpg,,
21740023,Researching Your Own Practice: The Discipline of Noticing,,,,John Mason,2002,,,,288,0,English,,,до 2011-01,"9780203471876,9780415248617,9780585455709,0203471873,0415248612,0415248620,9780415248624",,,,,,,,,OL9565168M,,0,,,,,1,1,1,1067889,pdf,F71A1F264CE427863179826918E26C99,,,D:\\!genesis\\library.nu\\f7\\_56487.f71a1f264ce427863179826918e26c99.pdf,0,2000-01-01 01:00:00,2016-04-03 02:51:08,446000/f71a1f264ce427863179826918e26c99-d.jpg,,
21740024,Teaching Literacy Effectively in the Primary School (Language and Literacy in Action),,,,"Richard Fox , David Wray , Jane Medwell , Louise Poulson",2002,,,,184,0,English,314,,до 2011-01,"9780203165638,9780203280379,9780415237765,0203165632,0415237769",,,,,372.6/0941,LB1576 .W695 2001,,,OL3941695M,,0,,,,,1,1,1,1425615,pdf,F75356A256F314C54BEC0B1C8B0AFD78,,,D:\\!genesis\\library.nu\\f7\\_55964.f75356a256f314c54bec0b1c8b0afd78.pdf,0,2000-01-01 01:00:00,2016-04-03 02:51:08,446000/f75356a256f314c54bec0b1c8b0afd78-d.jpg,,
21740025,Party Systems and Voter Alignments Revisited (Routledge Advances in International Relations and Politics),,,,Stein Kuhnle,2000,2nd Revised edition,,,336,0,English,178,,до 2011-01,"0415237203,9780415237208,0203469321,9780203469323,9780203244432",,,,,,,,,OL16995390M,,0,,,,,1,1,1,2304269,pdf,F761D21E8F75A93BEFEFAF07BC8A283A,,,D:\\!genesis\\library.nu\\f7\\_55952.f761d21e8f75a93befefaf07bc8a283a.pdf,0,2000-01-01 01:00:00,2016-04-03 02:51:08,446000/f761d21e8f75a93befefaf07bc8a283a-d.jpg,,
21740026,Feminist Visions of Development: Gender Analysis and Policy (Routledge Studies in Development Economics),,,,Ruth Pearson,1998,,,,304,0,English,305,,до 2011-01,"9780415157902,0415157900,0415142342,9780415142342,9780203980460",,,,,305.42,HQ1240 .F464 1998,,,OL698317M,,0,,,,,1,1,1,1677305,pdf,F77797E7947F31B66D86E54DB72D2DC9,,,D:\\!genesis\\library.nu\\f7\\_54900.f77797e7947f31b66d86e54db72d2dc9.pdf,0,2000-01-01 01:00:00,2016-04-03 02:51:08,446000/f77797e7947f31b66d86e54db72d2dc9-d.jpg,,
21740027,"Central Banking in Developing Countries: Objectives, Activities and Independence",,,,Alvaro Almeida,1996,1,,,208,0,English,,,до 2011-01,"0415145333,9780415145343,9780415145336,0415145341",,,,,332.1/1/091724,HG3550 .F79 1996,,,OL7484137M,,0,,,,,1,1,1,1601934,pdf,F75BF26D961A1E16F68EBBB41D64D4AF,,,D:\\!genesis\\library.nu\\f7\\_54397.f75bf26d961a1e16f68ebbb41d64d4af.pdf,0,2000-01-01 01:00:00,2016-04-03 02:51:08,446000/f75bf26d961a1e16f68ebbb41d64d4af-d.jpg,,
21740028,Nation and Identity (Ideas),,,,Ross Poole,1999,1,,,224,0,English,,,до 2011-01,"0415126223,9780415126229",,,,,,,,,OL7483488M,,0,,,,,1,1,1,1198729,pdf,F7A4BAB76A381E155489055B83B0D383,,,D:\\!genesis\\library.nu\\f7\\_54078.f7a4bab76a381e155489055b83b0d383.pdf,0,2000-01-01 01:00:00,2016-04-03 02:51:08,446000/f7a4bab76a381e155489055b83b0d383-d.jpg,,
21740029,The New Italian Republic,,,,Simon Parker,1996,,Routledge,,334,0,English,,,до 2011-01,"0415121612,9780415121613",,,,,320.45/09/045,JN5451 .N45 1996,,,OL788387M,,0,,,,1,1,1,1,1525235,pdf,F764DF92644F34F76C30DF72F4AF749E,,,D:\\!genesis\\library.nu\\f7\\_53709.f764df92644f34f76c30df72f4af749e.pdf,0,2000-01-01 01:00:00,2016-04-03 02:51:08,446000/f764df92644f34f76c30df72f4af749e-d.jpg,,
21740030,Literature and the Political Imagination,,,,John Horton,1996,1,,,272,0,English,108,,до 2011-01,"9780415129145,0415129141,041512915X",,,,,809/.93358,PN51 .L525 1996,,,OL799655M,,0,,,,,1,1,1,2317259,pdf,F7B5610CDFAD15A9408150AFFA0AB2A3,,,D:\\!genesis\\library.nu\\f7\\_53692.f7b5610cdfad15a9408150affa0ab2a3.pdf,0,2000-01-01 01:00:00,2016-04-03 02:51:08,446000/f7b5610cdfad15a9408150affa0ab2a3-g.jpg,,
21740031,International Politics in Europe,,,,G. Wyn Rees,1993,1,,,208,0,English,192,,до 2011-01,"041508282X,9780415082822,0415082838,9780415082839,9780203161623",,,,,940.55/9,D2009 .I64 1993,,,OL1739462M,,0,,,,,1,1,1,809401,pdf,F75F12AFD56195E3F607B2060A5AA28D,,,D:\\!genesis\\library.nu\\f7\\_53687.f75f12afd56195e3f607b2060a5aa28d.pdf,0,2000-01-01 01:00:00,2016-04-03 02:51:08,446000/f75f12afd56195e3f607b2060a5aa28d-d.jpg,,
21740032,Challenging Medicine,,,,Jonathon Gabe,1994,1,,,232,0,English,147,,до 2011-01,"041508816X,9780415088169",,,,,306.4/61,RA418.3.G7 C48 1994,,,OL1434768M,,0,,,,,1,1,1,1511144,pdf,F703F318D21869380B581CE947188F30,,,D:\\!genesis\\library.nu\\f7\\_53684.f703f318d21869380b581ce947188f30.pdf,0,2000-01-01 01:00:00,2016-04-03 02:51:08,446000/f703f318d21869380b581ce947188f30-d.jpg,,
21740033,"The Rocket's Shadow (Rick Brant Electronic Adventure, 1)",,,,John Blaine,1947,,,,209,0,English,250,,до 2011-01,,,B0007DVK1S,,,,,,,,,0,,,,,1,,1,822073,pdf,F7540A78D6C4819A93E5009BAA7C7226,,,D:\\!genesis\\library.nu\\f7\\_5339.f7540a78d6c4819a93e5009baa7c7226.pdf,0,2000-01-01 01:00:00,2016-04-03 02:51:08,446000/f7540a78d6c4819a93e5009baa7c7226-d.jpg,,
21740034,India and Southeast Asia: Indian Perceptions and Policies (International Politics in Asia Series),,,,Mohammed Ayoob,1990,1,,,176,0,English,192,,до 2011-01,"0415038944,9780415038942,9780203325551",,,,,327.54,DS525.9.U6 A96 1990,,,OL2191648M,,0,,,,,1,1,1,748468,pdf,F7F6F15292AD178D9A980127180D2B5E,,,D:\\!genesis\\library.nu\\f7\\_53103.f7f6f15292ad178d9a980127180d2b5e.pdf,0,2000-01-01 01:00:00,2016-04-03 02:51:08,446000/f7f6f15292ad178d9a980127180d2b5e-d.jpg,,
21740035,"The Psychology of Personal Constructs, Vol. 1",,,,George Kelly,1992,New Ed,,,424,0,English,236,,до 2011-01,"9780203325858,9780415037976,0415037972,0203405978,9780203405970,9780585451480",,,,,155.2,BF698.9.P47 K44 1991,,,OL1878754M,,0,,,,,1,1,1,4472818,pdf,F74515044D54C696E1B1CAE8567A770A,,,D:\\!genesis\\library.nu\\f7\\_52913.f74515044d54c696e1b1cae8567a770a.pdf,0,2000-01-01 01:00:00,2016-04-03 02:51:08,446000/f74515044d54c696e1b1cae8567a770a-d.jpg,,
21740036,Lincoln in American Memory,,,,Merrill D. Peterson,1995,,,,496,0,English,,,до 2011-01,"0195096452,9780195096453,9781423740643",,,,,973.7092,,,,OL14959156M,,0,,,,,1,1,1,37406635,pdf,F74CFBE867C1B3B292D9014DA88ABC93,,,D:\\!genesis\\library.nu\\f7\\_52748.f74cfbe867c1b3b292d9014da88abc93.pdf,0,2000-01-01 01:00:00,2016-04-03 02:51:08,446000/f74cfbe867c1b3b292d9014da88abc93-d.jpg,,
21740037,Artificial Intelligence: Mirrors for the Mind (Milestones in Discovery and Invention),,,,Harry Henderson,2007,,,,176,0,English,81,,до 2011-01,"0816057494,9780816057498,9781604130591",,,,,,,,,OL11360053M,,0,,,,,1,,1,3578231,pdf,F7E18C81887472F8C8DB42D078E1E5A5,,,D:\\!genesis\\library.nu\\f7\\_51957.f7e18c81887472f8c8db42d078e1e5a5.pdf,0,2000-01-01 01:00:00,2016-04-03 02:51:08,446000/f7e18c81887472f8c8db42d078e1e5a5-d.jpg,,
21740038,Alexander Graham Bell and the Telephone: The Invention That Changed Communication (Milestones in American History),,,,Samuel Willard Crompton,2008,Library Binding,,,114,0,English,64,,до 2011-01,"1604130040,9781604130041,9781438104324",,,,,"621.385092,B",TK6143.B4 C76 2009,,,OL12557543M,,0,,,,,1,,1,3207623,pdf,F76311A8117660B098A060E7A4F80E8F,,,D:\\!genesis\\library.nu\\f7\\_51853.f76311a8117660b098a060e7a4f80e8f.pdf,0,2000-01-01 01:00:00,2016-04-03 02:51:08,446000/f76311a8117660b098a060e7a4f80e8f-d.jpg,,
21740039,Dynamical Cognitive Science (Bradford Books),,,,Lawrence M. Ward,2001,,The MIT Press,,371,0,English,181,,до 2011-01,"0262232170,9780262232173,9780585436654",,,,,153,BF311.W2695 2001,,g1ZMAoWGYesC,OL17034453M,,0,,,,,1,,1,2024632,pdf,F7CC61A731346D1732C25A79E6668F23,,,D:\\!genesis\\library.nu\\f7\\_51286.f7cc61a731346d1732c25a79e6668f23.pdf,0,2000-01-01 01:00:00,2016-04-03 02:51:08,446000/f7cc61a731346d1732c25a79e6668f23-d.jpg,,
21740040,Mary Wollstonecraft Shelley (Bloom's Modern Critical Views),,,,Harold Bloom,2008,New,,,198,0,English,196,,до 2011-01,"079109619X,9780791096192,9781438113326",,,,,823/.7,PR5398 .M253 2008,,,OL18687658M,,0,,,,,1,1,1,1320574,pdf,F7222CC2DE2D5C3A52FBEE5264BA617A,,,D:\\!genesis\\library.nu\\f7\\_51173.f7222cc2de2d5c3a52fbee5264ba617a.pdf,0,2000-01-01 01:00:00,2016-04-03 02:51:08,446000/f7222cc2de2d5c3a52fbee5264ba617a-d.jpg,,
21740041,"UFOs and Aliens (Mysteries, Legends, and Unexplained Phenomena)",,,,Preston Dennett,2008,1,,,152,0,English,,,до 2011-01,"0791093840,9780791093849,9781438118321",,,,,,,,,OL11149475M,,0,,,,,1,1,1,2767823,pdf,F7F411639740DB3B84AB34D8FC9319B2,,,D:\\!genesis\\library.nu\\f7\\_51164.f7f411639740db3b84ab34d8fc9319b2.pdf,0,2000-01-01 01:00:00,2016-04-03 02:51:08,446000/f7f411639740db3b84ab34d8fc9319b2-d.jpg,,
21740042,Quantum Computing without Magic: Devices (Scientific and Engineering Computation),,,,Zdzislaw Meglicki,2008,,,,444,0,English,210,,до 2011-01,"9780262135061,9781435665644,026213506X",,,,,004.1,QA76.889 .M44 2008,,,OL17099069M,,0,,,,,1,1,1,3275958,pdf,F71A175F61AA8F8EED03998E85D881D1,,,D:\\!genesis\\library.nu\\f7\\_50688.f71a175f61aa8f8eed03998e85d881d1.pdf,0,2000-01-01 01:00:00,2016-04-03 02:51:08,446000/f71a175f61aa8f8eed03998e85d881d1-d.jpg,,
21740043,"Zukunftsorientierter Wandel im Krankenhausmanagement: Outsourcing, IT-Nutzenpotenziale, Kooperationsformen, Changemanagement",,,,"Heinz Lohmann (auth.), Ingo Behrendt, Hans-Joachim König, Ulrich Krystek (eds.)",2009,1,Springer-Verlag Berlin Heidelberg,,389,0,German,,,до 2011-01,"3642009344,9783642009341",,,,,,,10.1007/978-3-642-00935-8,,,,0,,,,,1,1,1,2944373,pdf,F78897C6493566B020868FA1CEFD015A,,,D:\\!genesis\\library.nu\\f7\\_50659.f78897c6493566b020868fa1cefd015a.pdf,0,2000-01-01 01:00:00,2016-04-03 02:51:08,446000/f78897c6493566b020868fa1cefd015a-d.jpg,,
21740044,Offshoring von Zentralbereichen: Von den Erfahrungen deutscher und amerikanischer Unternehmen lernen  German,,,,"Thomas Hutzschenreuter, Stephan Dresel, Wolfgang Ressler",2007,1,,,217,0,German,,,до 2011-01,"3540719342,9783540719342",,,,,,,,,OL12810397M,,0,,,,,1,1,1,2421290,pdf,F7D1426E149F331D5F50ACD7A553CB8D,,,D:\\!genesis\\library.nu\\f7\\_50380.f7d1426e149f331d5f50acd7a553cb8d.pdf,0,2000-01-01 01:00:00,2016-04-03 02:51:08,446000/f7d1426e149f331d5f50acd7a553cb8d-d.jpg,,
21740045,"The Cold Universe: Saas-Fee Advanced Course 32, 2002. Swiss Society for Astrophysics and Astronomy (Saas-Fee Advanced Courses)",,Saas-Fee Advanced Courses,,"A.W. Blain, F. Combes, B.T. Draine",2004,1,Springer,,311,0,English,132,,до 2011-01,"354040838X,9783540408383",,,,,523.1/125,QB791 .B53 2004,,A6ceYPsxsSEC,OL19290511M,,0,,,,,1,1,1,8328227,pdf,F7AB761F8B4A0F394795CB3F87AA6C48,,,D:\\!genesis\\library.nu\\f7\\_50174.f7ab761f8b4a0f394795cb3f87aa6c48.pdf,0,2000-01-01 01:00:00,2016-04-03 02:51:08,446000/f7ab761f8b4a0f394795cb3f87aa6c48-d.jpg,,
21740046,Grundkurs orthopadisch-unfallchirurgische Begutachtung,,,,"K. Weise, M. Schiltenwolf",2008,1,,,308,0,German,,,до 2011-01,"9783540341000,9783540341017,3540341005",,,,,,,,,OL12774096M,,0,,,,,1,1,1,3159523,pdf,F714FFF20AC9689963117F970D214C90,,,D:\\!genesis\\library.nu\\f7\\_50120.f714fff20ac9689963117f970d214c90.pdf,0,2000-01-01 01:00:00,2016-04-03 02:51:08,446000/f714fff20ac9689963117f970d214c90-d.jpg,,
21740047,Leibniz and the English-Speaking World,,The New Synthese Historical Library 62,,"Pauline Phemister (Editor), Stuart Brown (Editor)",2007,1,,,262,0,English,64,,до 2011-01,"1402052421,9781402052439,9781402052422",,,,,,,,,,,0,,,,,1,,1,2104683,pdf,F7F1576FFA221D534C1B300E0B669C5C,,,D:/!genesis/library.nu/f7/_49873.f7f1576ffa221d534c1b300e0b669c5c.pdf,0,2000-01-01 01:00:00,2016-04-03 02:51:08,446000/f7f1576ffa221d534c1b300e0b669c5c-d.jpg,,
21740048,Good Choice!: Supporting Independent Reading and Response K-6,,,,Tony Stead,2008,,,,248,0,English,,,до 2011-01,"9781571108050,9781571107329,1571107320",,,,,372.4,LB1573 .S826 2008,,,OL16928483M,,0,,,,,1,1,1,6397405,pdf,F749434314D8B6D7CEF6164EC128AD9F,,,D:\\!genesis\\library.nu\\f7\\_49817.f749434314d8b6d7cef6164ec128ad9f.pdf,0,2000-01-01 01:00:00,2016-04-03 02:51:08,446000/f749434314d8b6d7cef6164ec128ad9f-g.jpg,,
21740049,"Data Engineering: Mining, Information and Intelligence",,International Series in Operations Research & Management Science 132,,"Terry M. Talley, John R. Talburt, Yupo Chan (auth.), Yupo Chan, John Talburt, Terry M. Talley (eds.)",2010,1,Springer US,,447,0,English,210,,до 2011-01,"1441901752,9781441901750",,,,,,,10.1007/978-1-4419-0176-7,,,,0,,,,,1,1,1,12129065,pdf,F75F643047A15D1E70817B9E3BBF9D06,,,D:\\!genesis\\library.nu\\f7\\_49763.f75f643047a15d1e70817b9e3bbf9d06.pdf,0,2000-01-01 01:00:00,2016-04-03 02:51:08,446000/f75f643047a15d1e70817b9e3bbf9d06-d.jpg,,
21740050,Hot-Wiring Your Creative Process: Strategies for print and new media designers (VOICES),,,,Curt Cloninger,2006,,,,264,0,English,,,до 2011-01,"0321350243,9780321487650,9780321350244",,,,,,,,,OL9687120M,,0,,,,,1,1,1,18223512,pdf,F709643987F6C765B530036EBAB2E3A5,,,D:\\!genesis\\library.nu\\f7\\_49616.f709643987f6c765b530036ebab2e3a5.pdf,0,2000-01-01 01:00:00,2016-04-03 02:51:08,446000/f709643987f6c765b530036ebab2e3a5-d.jpg,,
21740051,The Neuroimmunological Basis of Behavior and Mental Disorders,,,,"William A. Banks, Jessica L. Lynch, Tulin O. Price (auth.), Allan Siegel, Steven S. Zalcman (eds.)",2009,1,Springer US,,438,0,English,156,,до 2011-01,"0387848509,9780387848501",,,,,616.89079,QP356.47 .N483 2009,10.1007/978-0-387-84851-8,,OL23235070M,,0,,,,,1,1,1,4507044,pdf,F79FADD579AF9E1E915BBFB9322193FE,,,D:\\!genesis\\library.nu\\f7\\_49538.f79fadd579af9e1e915bbfb9322193fe.pdf,0,2000-01-01 01:00:00,2016-04-03 02:51:08,446000/f79fadd579af9e1e915bbfb9322193fe-d.jpg,,
21740052,Observation and Experiment in the Natural and Social Sciences (Boston Studies in the Philosophy of Science),,,,Maria Carla Galavotti,2003,1,,,368,0,English,183,,до 2011-01,"1402012519,9781402012518,9780306481239",,,,,501,Q175 .O24 2003,,,OL3686534M,,0,,,,1,0,1,1,3342450,pdf,F7C363B66C21939D7659C2AB20F1B1D0,,,D:\\!genesis\\library.nu\\f7\\_49492.f7c363b66c21939d7659c2ab20f1b1d0.pdf,0,2000-01-01 01:00:00,2016-04-03 02:51:08,446000/f7c363b66c21939d7659c2ab20f1b1d0-d.jpg,,
21740053,Orion Among the Stars,,,,Ben Bova,1996,,,,320,0,English,,,до 2011-01,"0812535111,9780812535112",,,,,,,,,OL19314290M,,0,,,,,1,,1,740231,pdf,F7BE9425FBABF0EEDE2A2B44EB0EAFB1,,,D:\\!genesis\\library.nu\\f7\\_4937.f7be9425fbabf0eede2a2b44eb0eafb1.pdf,0,2000-01-01 01:00:00,2016-04-03 02:51:08,446000/f7be9425fbabf0eede2a2b44eb0eafb1-d.jpg,,
21740054,The Hot Shoe Diaries: Big Light from Small Flashes (Voices That Matter),,,,Joe McNally,2009,1,,,320,0,English,,,до 2011-01,"0321580141,9780321580146",,,,,778.72,TR606 .M385 2009,,lODtTQGqmjAC,OL23136057M,,0,,,,,1,1,1,32552691,pdf,F7AEC5B54D0078E0AA32B04512EBBF2A,,,D:\\!genesis\\library.nu\\f7\\_49301.f7aec5b54d0078e0aa32b04512ebbf2a.pdf,0,2000-01-01 01:00:00,2016-04-03 02:51:08,446000/f7aec5b54d0078e0aa32b04512ebbf2a-d.jpg,,
21740055,Islam and Early Modern English Literature: The Politics of Romance from Spenser to Milton (Early Modern Cultural Studies),,,,Benedict S. Robinson,2007,First Edition,,,248,0,English,183,,до 2011-01,"1403977933,9781403977939,9780230607439",,,,,,,,,OL8400973M,,0,,,,,1,1,1,767003,pdf,F7DAEFB631CD03FCA88580D9EC018C39,,,D:\\!genesis\\library.nu\\f7\\_49131.f7daefb631cd03fca88580d9ec018c39.pdf,0,2000-01-01 01:00:00,2016-04-03 02:51:08,446000/f7daefb631cd03fca88580d9ec018c39-d.jpg,,
21740056,"Cinema, Law, and the State in Asia",,,,"Corey K. Creekmur, Mark Sidel",2007,First Edition,,,252,0,English,60,,до 2011-01,"1403977518,9781403977519",,,,,343.509/9,KM717 .C56 2007,,,OL22683598M,,0,,,,,1,1,1,737727,pdf,F74A897D6AA9C631DFA2A7F33780CC5D,,,D:\\!genesis\\library.nu\\f7\\_49030.f74a897d6aa9c631dfa2a7f33780cc5d.pdf,0,2000-01-01 01:00:00,2016-04-03 02:51:08,446000/f74a897d6aa9c631dfa2a7f33780cc5d-d.jpg,,
21740057,Something to Live For: Finding Your Way in the Second Half of Life,,,,"Richard J Leider, David A Shapiro",2008,,,,166,0,English,305,,до 2011-01,"1576754561,9781576754566,9781576759035",,,,,646.7/9,BJ1691 .L39 2008,,,OL16796008M,,0,,,,,1,,1,793701,pdf,F7B5254DFCF1CE8AFB09E818DDB08D16,,,D:\\!genesis\\library.nu\\f7\\_48131.f7b5254dfcf1ce8afb09e818ddb08d16.pdf,0,2000-01-01 01:00:00,2016-04-03 02:51:08,446000/f7b5254dfcf1ce8afb09e818ddb08d16-d.jpg,,
21740058,Boundary Integral Equations on Contours with Peaks (Operator Theory: Advances and Applications),,,,"Vladimir Maz'ya, Alexander Soloviev",2009,1st Edition.,Birkhäuser Basel,,356,0,English,113,,до 2011-01,"3034601700,9783034601702",,,,,,,,,,,0,,,,,1,1,1,2702696,pdf,F722850D7BCC349E8A62AC8FEF79C689,,,D:\\!genesis\\library.nu\\f7\\_48024.f722850d7bcc349e8a62ac8fef79c689.pdf,0,2000-01-01 01:00:00,2016-04-03 02:51:08,446000/f722850d7bcc349e8a62ac8fef79c689-d.jpg,,
21740059,Marked in Your Flesh: Circumcision from Ancient Judea to Modern America,,,,Leonard B. Glick,2006,,,,384,0,English,64,,до 2011-01,"0195315944,9780195315943,019517674X,9780195176742,9781435618596",,,,,,,,,OL22630445M,,0,,,,,1,1,1,2305212,pdf,F7D80B0B36EA37AC75F079EE9B12604B,,,D:\\!genesis\\library.nu\\f7\\_47922.f7d80b0b36ea37ac75f079ee9b12604b.pdf,0,2000-01-01 01:00:00,2016-04-03 02:51:08,446000/f7d80b0b36ea37ac75f079ee9b12604b-d.jpg,,
21740060,Leopold Lugones--Selected Writings (Library of Latin America),,,,"Leopoldo Lugones, Sergio Waisman",2008,,,,152,0,English,,,до 2011-01,"0195174054,9780195174052,9780199721283",,,,,868/.6208,PQ7797.L85 A2 2008,,,OL10133672M,,0,,,,,1,1,1,514587,pdf,F7A48B882B69FA93638057C7831EA431,,,D:\\!genesis\\library.nu\\f7\\_47709.f7a48b882b69fa93638057c7831ea431.pdf,0,2000-01-01 01:00:00,2016-04-03 02:51:08,446000/f7a48b882b69fa93638057c7831ea431-d.jpg,,
21740061,Avian Invasions: The Ecology and Evolution of Exotic Birds (Oxford Avian Biology),,,,"Tim M. Blackburn, Julie L. Lockwood, Phillip Cassey",2009,,,,320,0,English,183,,до 2011-01,"0199232547,9780199232543",,,,,598.162,QL677.79.I58 B53 2009,,,OL23207879M,,0,,,,,1,1,1,2148484,pdf,F716F8A8258364D509966DF2E29B18BA,,,D:\\!genesis\\library.nu\\f7\\_47670.f716f8a8258364d509966df2e29b18ba.pdf,0,2000-01-01 01:00:00,2016-04-03 02:51:08,446000/f716f8a8258364d509966df2e29b18ba-d.jpg,,
21740062,Crime Is Not the Problem: Lethal Violence in America (Studies in Crime and Public Policy),,,,"Franklin E. Zimring, Gordon Hawkins",1999,1,,,288,0,English,183,,до 2011-01,"0195131053,9780195131055",,,,,,,,,OL7388918M,,0,,,,,1,1,1,18801703,pdf,F7C65434BA90D4DB59AE2CAF8A458223,,,D:\\!genesis\\library.nu\\f7\\_47421.f7c65434ba90d4db59ae2caf8a458223.pdf,0,2000-01-01 01:00:00,2016-04-03 02:51:08,446000/f7c65434ba90d4db59ae2caf8a458223-d.jpg,,
21740063,Revising Herself: Women's Identity from College to Midlife,,,,Ruthellen Josselson,1996,1St Edition,,,320,0,English,,,до 2011-01,"0195108396,9780195108392,0195121155,9780195121155",,,,,155.6/33,HQ1206 .J673 1996,,,OL7388476M,,0,,,,,1,1,1,18192180,pdf,F775E87BAFB7B11371FB3F00DEDB661D,,,D:\\!genesis\\library.nu\\f7\\_47418.f775e87bafb7b11371fb3f00dedb661d.pdf,0,2000-01-01 01:00:00,2016-04-03 02:51:08,446000/f775e87bafb7b11371fb3f00dedb661d-d.jpg,,
21740064,Dray Prescott 15 - Secret Scorpio,,,,Alan Burt Akers,1977,First Edition,,,134,0,English,,,до 2011-01,"0879973447,9780879973445",,B000KP45CO,,,,,,,OL8131919M,,0,,,,,1,,1,692483,pdf,F789EC666128EC573F39DE6D6311F1CE,,,D:\\!genesis\\library.nu\\f7\\_46301.f789ec666128ec573f39de6d6311f1ce.pdf,0,2000-01-01 01:00:00,2016-04-03 02:51:08,446000/f789ec666128ec573f39de6d6311f1ce-d.jpg,,
21740065,"Qabalah, Qliphoth and Goetic Magic",,,,Thomas Karlsson,2009,2nd,,,240,0,English,,,до 2011-01,"0972182012,9780972182010",,,,,,,,,,,0,,,,,1,,0,16080121,pdf,F752F569E0617B3794D9FDC14C7A5AFF,,,D:\\!genesis\\library.nu\\f7\\_46016.f752f569e0617b3794d9fdc14c7a5aff.pdf,0,2000-01-01 01:00:00,2016-04-03 02:51:08,446000/f752f569e0617b3794d9fdc14c7a5aff-d.jpg,,
21740066,The Guardians of the Flame,,,,Joel Rosenberg,2003,First Edition,,,720,0,English,,,до 2011-01,"0743435893,9780743435895",,,,,813/.54,PS3568.O786 G83 2003,,,OL3564207M,,0,,,,,1,,1,745786,pdf,F7B3E20F9C6646CC8EA1578D84819788,,,D:\\!genesis\\library.nu\\f7\\_45793.f7b3e20f9c6646cc8ea1578d84819788.pdf,0,2000-01-01 01:00:00,2016-04-03 02:51:08,446000/f7b3e20f9c6646cc8ea1578d84819788-d.jpg,,
21740067,Technophobia!: Science Fiction Visions of Posthuman Technology,,,,Daniel Dinello,2006,,,,341,0,English,210,,до 2011-01,"0292709862,9780292709867,0292709544,9780292709546,9780292796645",,,,,809.3/876209356,PN3433.6 .D56 2005,,,OL3403934M,,0,,,,,1,,1,3873990,pdf,F75E6C2BA48393497C7FCBA5CA6B0603,,,D:\\!genesis\\library.nu\\f7\\_44707.f75e6c2ba48393497c7fcba5ca6b0603.pdf,0,2000-01-01 01:00:00,2016-04-03 02:51:08,446000/f75e6c2ba48393497c7fcba5ca6b0603-d.jpg,,
21740068,"Art and Archaeology of Challuabamba, Ecuador",,,,"Terence Grieder, James D. Farmer, David V. Hill, Peter W. Stahl, Douglas H. Ubelaker",2009,,,,241,0,English,66,,до 2011-01,"0292718926,9780292718920,9780292793712",,,,,986.6/24,F3722.1.C2 G75 2008,,,OL22551345M,,0,,,,,1,1,1,5934935,pdf,F7CA5F08E04E9BF19E30E01931322A8B,,,D:\\!genesis\\library.nu\\f7\\_44492.f7ca5f08e04e9bf19e30e01931322a8b.pdf,0,2000-01-01 01:00:00,2016-04-03 02:51:08,446000/f7ca5f08e04e9bf19e30e01931322a8b-d.jpg,,
21740069,Autumn Lover,,,,Elizabeth Lowell,1996,,,,416,0,English,,,до 2011-01,"0380769557,9780380769551,9780061189593",,,,,,,,,OL20939298M,,0,,,,,1,,1,1051546,pdf,F7F3256BA1146939307F9B5A67FAD644,,,D:\\!genesis\\library.nu\\f7\\_44481.f7f3256ba1146939307f9b5a67fad644.pdf,0,2000-01-01 01:00:00,2016-04-03 02:51:08,446000/f7f3256ba1146939307f9b5a67fad644-d.jpg,,
21740070,The Question Of Sacrifice (Studies in Continental Thought),,,,Dennis King Keenan,2005,,,,232,0,English,183,,до 2011-01,"0253345820,9780253345820,9780253110565",,,,,177/.7,BJ1533.S4 K44 2005,,,OL3297217M,,0,,,,,1,1,1,2499387,pdf,F7A33996901D80C034F2D85392C989BA,,,D:\\!genesis\\library.nu\\f7\\_44415.f7a33996901d80c034f2d85392c989ba.pdf,0,2000-01-01 01:00:00,2016-04-03 02:51:08,446000/f7a33996901d80c034f2d85392c989ba-d.jpg,,
21740071,Going Wireless: Transform Your Business with Mobile Technology,,,,Jaclyn Easton,2002,,,,272,0,English,99,,до 2011-01,"0066213363,9780066213361,9780060085247",,,,,,,,,OL15508471M,,0,,,,,1,1,1,1196672,pdf,F70B986F14E3C02BA741FB3726349C00,,,D:\\!genesis\\library.nu\\f7\\_43697.f70b986f14e3c02ba741fb3726349c00.pdf,0,2000-01-01 01:00:00,2016-04-03 02:51:08,446000/f70b986f14e3c02ba741fb3726349c00-d.jpg,,
21740072,Duchess By Night,,,,Eloisa James,2008,mass market,,,384,0,English,46,,до 2011-01,"0061245577,9780061245572,1410416364,9781410416360,9780061690594",,B0010SKTOS,,,813/.54,PS3560.A3796 D826 2009,,,OL23091482M,,0,,,,,1,,1,1646617,pdf,F7A344445A36D746C26ECDC9D29FD327,,,D:\\!genesis\\library.nu\\f7\\_43464.f7a344445a36d746c26ecdc9d29fd327.pdf,0,2000-01-01 01:00:00,2016-04-03 02:51:08,446000/f7a344445a36d746c26ecdc9d29fd327-d.jpg,,
21740073,"Masters and Commanders: How Four Titans Won the War in the West, 1941-1945",,,,Andrew Roberts,2009,1,,,720,0,English,64,,до 2011-01,"0061228575,9780061228575,0713999691,9780713999693,9780061874475",,B001NLL37E,,,940.5400922,D736 .R63 2008,,,OL23188654M,,0,,,,,1,,1,12303837,pdf,F70BA317AB587130970D181BD8914E3B,,,D:\\!genesis\\library.nu\\f7\\_43152.f70ba317ab587130970d181bd8914e3b.pdf,0,2000-01-01 01:00:00,2016-04-03 02:51:08,446000/f70ba317ab587130970d181bd8914e3b-d.jpg,,
21740074,The Political Economy of Power Sector Reform: The Experiences of Five Major Developing Countries,,,,"David G. Victor, Thomas C. Heller",2007,,,,352,0,English,,,до 2011-01,"0521865026,9780521865029,9780511349805",,,,,333.793/2091724,HD9685.D452 P65 2006,,,OL22746458M,,0,,,,,1,1,1,1890993,pdf,F792C6D8E24C54A352AC1E3BEF2903AA,,,D:\\!genesis\\library.nu\\f7\\_4286.f792c6d8e24c54a352ac1e3bef2903aa.pdf,0,2000-01-01 01:00:00,2016-04-03 02:51:08,446000/f792c6d8e24c54a352ac1e3bef2903aa-d.jpg,,
21740075,"The World of Eldaterra, Volume One: The Dragon Conspiracy",,,,P. R. Moredun,2006,,,,320,0,English,,,до 2011-01,"0060766654,9780060766658,0060766638,9780060766634,0060766646,9780060766641",,"B0020Q3FMC,B000H2MU86",,,,,,,OL3300775M,,0,,,,,1,,1,2087103,pdf,F7961869810DDFE78CB0E1BF4DD69A71,,,D:\\!genesis\\library.nu\\f7\\_42588.f7961869810ddfe78cb0e1bf4dd69a71.pdf,0,2000-01-01 01:00:00,2016-04-03 02:51:08,446000/f7961869810ddfe78cb0e1bf4dd69a71-d.jpg,,
21740076,It's All Right Now: A Novel (P.S.),,,,Charles Chadwick,2006,,,,704,0,English,,,до 2011-01,"0060742879,9780060742874,9780061551024",,,,,,,,,OL24252522M,,0,,,,,1,,1,2064277,pdf,F71F688F475D226AC94AEB3611CF88D7,,,D:\\!genesis\\library.nu\\f7\\_42436.f71f688f475d226ac94aeb3611cf88d7.pdf,0,2000-01-01 01:00:00,2016-04-03 02:51:08,446000/f71f688f475d226ac94aeb3611cf88d7-d.jpg,,
21740077,American Soldier,,,,"General Tommy Franks, Malcolm McConnell",2004,1ST,,,608,0,English,65,,до 2011-01,"0060731583,9780060731588,9780060789367",,,,,"355/.0092,B",E840.5.F73 A3 2004,,,OL24266750M,,0,,,,,1,,1,6672642,pdf,F7AC1CC7B8FE5F7F6B7ED7801740CA04,,,D:\\!genesis\\library.nu\\f7\\_42273.f7ac1cc7b8fe5f7f6b7ed7801740ca04.pdf,0,2000-01-01 01:00:00,2016-04-03 02:51:08,446000/f7ac1cc7b8fe5f7f6b7ed7801740ca04-d.jpg,,
21740078,Verpacktes Leben - Verpackte Technik,,,,"Udo Kuppers, Helmut Tributsch",2004,illustrated edition,,,274,0,German,,,до 2011-01,"3527304436,9783527304431",,,,,,,,,OL12767062M,,0,,,,1,1,1,1,17916281,pdf,F7D2D5638C7AB48799D8A458922A8294,,,D:\\!genesis\\library.nu\\f7\\_41875.f7d2d5638c7ab48799d8a458922a8294.pdf,0,2000-01-01 01:00:00,2016-04-03 02:51:08,446000/f7d2d5638c7ab48799d8a458922a8294-d.jpg,,
21740079,The Song of Hugh Glass,,,,John G. Neihardt,2008,,,,134,0,English,,,до 2011-01,"1438425627,9781438425627",,,,,811/.52,PS3527.E35 S6 2008,,,OL22659313M,,0,,,,,1,1,1,2932953,pdf,F75A18FCD92C238B805D4A4C08EA1B4E,,,D:\\!genesis\\library.nu\\f7\\_41131.f75a18fcd92c238b805d4a4c08ea1b4e.pdf,0,2000-01-01 01:00:00,2016-04-03 02:51:08,446000/f75a18fcd92c238b805d4a4c08ea1b4e-d.jpg,,
21740080,High Performance Computing for Dummies,,,,Douglas Eadline,,,,,52,0,English,137,,до 2011-01,9780470490082,,,,,,,,,,,0,,,,,1,,1,896536,pdf,F7A55307734D7C72AE370D8278B03F28,,,D:\\!genesis\\library.nu\\f7\\_40930.f7a55307734d7c72ae370d8278b03f28.pdf,0,2000-01-01 01:00:00,2016-04-03 02:51:08,446000/f7a55307734d7c72ae370d8278b03f28-g.jpg,,
21740081,"Ethics in Practice, 2nd Edition (Blackwell Philosophy Anthologies)",,,,Hugh LaFollette,2002,2,,,704,0,English,195,,до 2011-01,"0631228349,9780631228349",,,,,170,,,,OL18396305M,,0,,,,0,1,1,1,40041696,pdf,F7E821DB4E6305DCB1C95B092C4DBCF1,,,D:\\!genesis\\library.nu\\f7\\_40427.f7e821db4e6305dcb1c95b092c4dbcf1.pdf,0,2000-01-01 01:00:00,2016-04-03 02:51:08,446000/f7e821db4e6305dcb1c95b092c4dbcf1-d.jpg,,
21740082,Standards der Zukunft  Wohnbau neu gedacht (German Edition),,,,Roland Burgard,2008,1,,,233,0,German,,,до 2011-01,"321174813X,9783211748138",,,,,,,,,,,0,,,,,1,1,1,18564733,pdf,F73E43A84C0931F10C5FD97B2C1F2F91,,,D:\\!genesis\\library.nu\\f7\\_40147.f73e43a84c0931f10c5fd97b2c1f2f91.pdf,0,2000-01-01 01:00:00,2016-04-03 02:51:08,446000/f73e43a84c0931f10c5fd97b2c1f2f91-d.jpg,,
21740083,The Mountain Men: The Song of Three Friends; The Song of Hugh Glass; The Song of Jed Smith (A Cycle of the West 1),,,,John G. Neihardt,2008,Reprint,,,113,0,English,,,до 2011-01,"1438425562,9781438425566",,,,,811/.54,PS3527.E35 C8 2009,,,OL22666032M,,0,,,,,1,1,1,9152689,pdf,F7DC22E3C80F2043E921C4528C3FBE73,,,D:\\!genesis\\library.nu\\f7\\_40051.f7dc22e3c80f2043e921c4528c3fbe73.pdf,0,2000-01-01 01:00:00,2016-04-03 02:51:08,446000/f7dc22e3c80f2043e921c4528c3fbe73-d.jpg,,
21740084,Combating Money Laundering and the Financing of Terrorism: A Comprehensive Training Guide,,,,"World Bank, International Monetary Fund",2009,Workbook,,,774,0,English,137,,до 2011-01,"0821375695,9780821375693",,,,,332.1068/4,HV8079.M64 C56 2009,10.1596/978-0-8213-7569-3,,OL23180829M,,0,,,,,1,1,1,2432079,pdf,F7B27B9A7DD25623DB19DB6D1232A9FD,,,D:\\!genesis\\library.nu\\f7\\_39751.f7b27b9a7dd25623db19db6d1232a9fd.pdf,0,2000-01-01 01:00:00,2016-04-03 02:51:08,446000/f7b27b9a7dd25623db19db6d1232a9fd-d.jpg,,
21740085,"Shaking the Invisible Hand: Complexity, Choices and Critiques",,,,Basil John Moore,2006,,,,512,0,English,137,,до 2011-01,"1403999465,9781403999467",,,,,339,HB172.5 .M6523 2005,,,OL22726255M,,0,,,,,1,1,1,2493509,pdf,F77CB01D1F1F037E7C72ECF10058EAE1,,,D:\\!genesis\\library.nu\\f7\\_39724.f77cb01d1f1f037e7c72ecf10058eae1.pdf,0,2000-01-01 01:00:00,2016-04-03 02:51:08,446000/f77cb01d1f1f037e7c72ecf10058eae1-d.jpg,,
21740086,Consommer autrement : La reforme ecologique des modes de vie,,,,"Michelle Dobre, Salvador Juan",,,,,320,0,French,31,,до 2011-01,"2296102328,9782296102323",,,,,,,,,,,0,,,,,1,,1,14063729,pdf,F7459A0434B9C59E64FE572DA567D56B,,,D:\\!genesis\\library.nu\\f7\\_39265.f7459a0434b9c59e64fe572da567d56b.pdf,0,2000-01-01 01:00:00,2016-04-03 02:51:08,446000/f7459a0434b9c59e64fe572da567d56b-g.jpg,,
21740087,Raffinage du petrole (le). tome 3 - Procedes de Transformation,,,,Pierre LEPRINCE,,,,,357,0,French,,,до 2011-01,"2710807300,9782710807308",,,,,665.5/38,TP690 .R34 1994,,,OL829650M,,0,,,,,1,,0,103515464,pdf,F71D82C7BB49B14810E4EBD4364498AA,,,D:\\!genesis\\library.nu\\f7\\_39163.f71d82c7bb49b14810e4ebd4364498aa.pdf,0,2000-01-01 01:00:00,2016-04-03 02:51:08,446000/f71d82c7bb49b14810e4ebd4364498aa-g.jpg,,
21740088,Strengthening Forensic Science in the United States: A Path Forward,,,,National Research Council,2009,,,,350,0,English,,,до 2011-01,"9780309131315,0309131316,0309131359,9780309131353",,,,,363.250973,HV8073 .S7347 2009,,,OL23186991M,,0,,,,,1,1,1,3626858,pdf,F77620E73763CA6D37BA060A263F102D,,,D:\\!genesis\\library.nu\\f7\\_39114.f77620e73763ca6d37ba060a263f102d.pdf,0,2000-01-01 01:00:00,2016-04-03 02:51:08,446000/f77620e73763ca6d37ba060a263f102d-d.jpg,,
21740089,"Left Behind: Religion, Technology and Flight from the Flesh",,,,Arthur Kroker; Stephen Pfohl,2007,,,,320,0,English,205,,до 2011-01,"9780920393420,092039342X",,,,,709/.04/001,N6494P66 K76 1986,,,OL16442710M,,0,,,,,1,,1,3853804,pdf,F71995438881F4E0504DD407A9CAA140,,,D:\\!genesis\\library.nu\\f7\\_39094.f71995438881f4e0504dd407a9caa140.pdf,0,2000-01-01 01:00:00,2016-04-03 02:51:08,446000/f71995438881f4e0504dd407a9caa140-g.jpg,,
21740090,Towards an understanding of the changing structure of financial intermediation: An evolutionary theory of institutional survival (SUERF studies),,,,Joseph Bisignano,1998,,,,90,0,English,183,,до 2011-01,"9051430264,9789051430264",,,,,,,,,OL471279M,,0,,,,,1,,1,459560,pdf,F7477430DCAF2751743BC8AECD687AD3,,,D:\\!genesis\\library.nu\\f7\\_38862.f7477430dcaf2751743bc8aecd687ad3.pdf,0,2000-01-01 01:00:00,2016-04-03 02:51:08,446000/f7477430dcaf2751743bc8aecd687ad3-g.jpg,,
21740091,The Theory of Financial Intermediation: An Essay On what It Does (Not) Explain,,,,"Bert Scholtens, Dick van Wensveen",,,,,59,0,English,305,,до 2011-01,"3902109157,9783902109156",,,,,,,,,OL15579522M,,0,,,,,1,,1,184460,pdf,F7FCD754ABB57007C4B224E777351EDB,,,D:\\!genesis\\library.nu\\f7\\_38839.f7fcd754abb57007c4b224e777351edb.pdf,0,2000-01-01 01:00:00,2016-04-03 02:51:08,446000/f7fcd754abb57007c4b224e777351edb-g.jpg,,
21740092,"Marxism, Maoism, and Utopianism: Eight Essays",,,,Maurice J. Meisner,1982,1st,,,224,0,English,,,до 2011-01,"0299084205,9780299084202",,,,,335.43/45,HX418.5.M33,,,OL21239472M,,0,,,,,1,,0,14525638,pdf,F7F5D3A49F256E805166F71A7459B089,,,D:\\!genesis\\library.nu\\f7\\_38735.f7f5d3a49f256e805166f71a7459b089.pdf,0,2000-01-01 01:00:00,2016-04-03 02:51:08,446000/f7f5d3a49f256e805166f71a7459b089-d.jpg,,
21740093,Moral Repair: Reconstructing Moral Relations after Wrongdoing,,,,Margaret Urban Walker,2006,1,,,262,0,English,236,,до 2011-01,"0521810884,9780521810883,9780511250255",,,,,,,,,OL7755282M,,0,,,,,1,1,1,1388853,pdf,F75D4125028EDEF6A531CE07A16F5548,,,D:\\!genesis\\library.nu\\f7\\_3806.f75d4125028edef6a531ce07a16f5548.pdf,0,2000-01-01 01:00:00,2016-04-03 02:51:08,446000/f75d4125028edef6a531ce07a16f5548-d.jpg,,
21740094,Brilliant 4: Pupil's Book (Children's courses),,,,Jeanne Perrett,2002,,,,64,0,English,,,до 2011-01,"9780333937846,0333937848",,,,,,,,,OL10558706M,,0,,,,,1,1,0,19286613,pdf,F77F353F3ACC80A37828B57BDB61B839,,,D:\\!genesis\\library.nu\\f7\\_37870.f77f353f3acc80a37828b57bdb61b839.pdf,0,2000-01-01 01:00:00,2016-04-03 02:51:08,446000/f77f353f3acc80a37828b57bdb61b839-d.jpg,,
21740095,Algebra fur Einsteiger. Von der Gleichungsauflosung zur Galois-Theorie,,,,Jorg Bewersdorff,2007,,,,224,0,German,114,,до 2011-01,"9783834800954,3834800953",,,,,,,,,,,0,,,,,1,,1,1296600,pdf,F70DA9EA40E67CBCC56D2A5B33AE0160,,,D:\\!genesis\\library.nu\\f7\\_377.f70da9ea40e67cbcc56d2a5b33ae0160.pdf,0,2000-01-01 01:00:00,2016-04-03 02:51:08,446000/f70da9ea40e67cbcc56d2a5b33ae0160-d.jpg,,
21740096,Cleaner Energy Cooler Climate: Developing Sustainable Energy Solutions for South Africa,,,,Harald Winkler,2009,,,,280,0,English,263,,до 2011-01,"0796922306,9780796922304",,,,,,,,,OL23930699M,,0,,,,,1,,0,2365769,pdf,F7E4FF55FBD33B6BBB12216E928A9EB2,,,D:\\!genesis\\library.nu\\f7\\_36404.f7e4ff55fbd33b6bbb12216e928a9eb2.pdf,0,2000-01-01 01:00:00,2016-04-03 02:51:08,446000/f7e4ff55fbd33b6bbb12216e928a9eb2-d.jpg,,
21740097,Well Testing (SPE textbook series),,,,John Lee,1982,,,,159,0,English,,,до 2011-01,"0895203170,9780895203175",,,,,622/.338/0287,TN871 .L373 1982,,,OL3197969M,,0,,,,,1,,0,13893733,pdf,F744D79E5790A9BAB60B3ED2D24CE521,,,D:\\!genesis\\library.nu\\f7\\_36061.f744d79e5790a9bab60b3ed2d24ce521.pdf,0,2000-01-01 01:00:00,2016-04-03 02:51:08,446000/f744d79e5790a9bab60b3ed2d24ce521-g.jpg,,
21740098,"Mens Magna, tome 2 : L'Aigle d'Egypte",,,,"Guillaume Sorel, Francois Froideval",1997,,,,48,0,French,,,до 2011-01,"2877646343,9782877646345",,,,,,,,,OL12641620M,,0,,,,,1,,0,14508161,pdf,F7D079011A4AF7CD3D16E00F2E077DC7,,,D:\\!genesis\\library.nu\\f7\\_35465.f7d079011a4af7cd3d16e00f2e077dc7.pdf,0,2000-01-01 01:00:00,2016-04-03 02:51:08,446000/f7d079011a4af7cd3d16e00f2e077dc7-d.jpg,,
21740099,Beyond Good and Evil: Prelude to a Philosophy of the Future (Cambridge Texts in the History of Philosophy),,,,Friedrich Nietzsche,2001,1,,,230,0,English,64,,до 2011-01,"9780511066641,9780521770781,9780521779135,0521770785,0521779138",,,,,,,,,OL17039212M,,0,,,,,1,1,1,887823,pdf,F7D5E5FE05903EFC521C956918F98220,,,D:\\!genesis\\library.nu\\f7\\_3515.f7d5e5fe05903efc521c956918f98220.pdf,0,2000-01-01 01:00:00,2016-04-03 02:51:08,446000/f7d5e5fe05903efc521c956918f98220-d.jpg,,
21740100,The Discourse of the Syncope: Logodaedalus (Meridian: Crossing Aesthetics),,,,Jean-Luc Nancy,2007,,,,200,0,English,,,до 2011-01,"0804753547,9780804753548,9780804753531,0804753539",,,,,193,B53 .N2513 2008,,,OL11275221M,,0,,,,,1,,1,2320208,pdf,F7275D90B58FD499A3D72A3CDB5517D5,,,D:\\!genesis\\library.nu\\f7\\_35082.f7275d90b58fd499a3d72a3cdb5517d5.pdf,0,2000-01-01 01:00:00,2016-04-03 02:51:08,446000/f7275d90b58fd499a3d72a3cdb5517d5-d.jpg,,
21740101,"Synchronization of Mechanical Systems (Nonlinear Science, 46)",,,,"Henk Nijmeije, Alejandro Rodriguez-Angeles",2003,,,,220,0,English,271,,до 2011-01,"981238605X,9789812386052,9789812794970",,,,,,,,,OL22577908M,,0,,,,,1,1,1,8158670,pdf,F729D2A5F4A55D0EE50E031B3D4D613D,,,D:\\!genesis\\library.nu\\f7\\_34892.f729d2a5f4a55d0ee50e031b3d4d613d.pdf,0,2000-01-01 01:00:00,2016-04-03 02:51:08,446000/f729d2a5f4a55d0ee50e031b3d4d613d-d.jpg,,
21740102,"Zoonomia, Vol. I, Or, the Laws of Organic Life",,,,Erasmus Darwin,2007,,,,368,0,English,300,,до 2011-01,"1406818356,9781406818352",,,,,,,,,OL11681487M,,0,,,,,1,,1,50157464,pdf,F76CCB300619FCE9469238527380B0D0,,,D:\\!genesis\\library.nu\\f7\\_34784.f76ccb300619fce9469238527380b0d0.pdf,0,2000-01-01 01:00:00,2016-04-03 02:51:08,446000/f76ccb300619fce9469238527380b0d0-d.jpg,,
21740103,Les tisanes,,,,Richard Craze,,,,,77,0,French,,,до 2011-01,"9782876773110,2876773112",,,,,,,,,,,0,,,,,1,1,0,6435430,pdf,F70A4B44570EF3CDDC0C9096C1F96C40,,,D:\\!genesis\\library.nu\\f7\\_34376.f70a4b44570ef3cddc0c9096c1f96c40.pdf,0,2000-01-01 01:00:00,2016-04-03 02:51:08,446000/f70a4b44570ef3cddc0c9096c1f96c40-g.jpg,,
21740104,Tadpole Pals - Decodable Book 23 Grade 1,,,,Nancy Furstinger illustrated by Mike Reed,2006,,,,12,0,English,,,до 2011-01,"0153641088,9780153641084",,,,,,,,,,,0,,,,,1,1,1,900339,pdf,F77DA3BC6031FF4BDAC5272FB29BFBFA,,,D:\\!genesis\\library.nu\\f7\\_34195.f77da3bc6031ff4bdac5272fb29bfbfa.pdf,0,2000-01-01 01:00:00,2016-04-03 02:51:08,446000/f77da3bc6031ff4bdac5272fb29bfbfa-g.jpg,,
21740105,"Les Bidochon, Tome 11 : Matin, midi et soir suivi de matin, midi et soir",,,,Binet,2008,,,,51,0,French,,,до 2011-01,"2858158304,9782858158300",,,,,,,,,,,0,,,,,1,,0,11817236,pdf,F7D0FE2D87B7D8B4244543274A9D1343,,,D:\\!genesis\\library.nu\\f7\\_33960.f7d0fe2d87b7d8b4244543274a9d1343.pdf,0,2000-01-01 01:00:00,2016-04-03 02:51:08,446000/f7d0fe2d87b7d8b4244543274a9d1343-d.jpg,,
21740106,Algebraic Number Theory,,,,Edwin Weiss,1998,Unabridged,,,288,0,English,114,,до 2011-01,"0486401898,9780486401898",,,,,512/.74,QA247 .W4 1998,,,OL348543M,,0,,,,,1,,1,10904645,djvu,F7ACA4131EBAD1AA1B2745318F866D15,,,D:\\!genesis\\library.nu\\f7\\_33713.f7aca4131ebad1aa1b2745318f866d15.djvu,0,2000-01-01 01:00:00,2016-04-03 02:51:08,446000/f7aca4131ebad1aa1b2745318f866d15-d.jpg,,
21740107,Bourdieu: A Critical Reader (Blackwell Critical Reader),,,,Richard Shusterman,1999,,Blackwell Publishers,,286,0,English,196,,до 2011-01,"0631188177,0631188185",,,,,,,,,OL7609179M,,0,,,,0,1,1,1,2010053,djvu,F7E06ABE73AD2745455FE371F896E169,,,D:\\!genesis\\library.nu\\f7\\_33500.f7e06abe73ad2745455fe371f896e169.djvu,0,2000-01-01 01:00:00,2016-04-03 02:51:08,446000/f7e06abe73ad2745455fe371f896e169-d.jpg,,
21740108,The Armies Of India,,,,Major A. C. Lovett,2006,,,,292,0,English,,,до 2011-01,"1846645891,9781846645891",,,,,,,,,OL8963861M,,0,,,,,1,,0,10502780,djvu,F72E7A375B296E410303333ED53522CA,f543e6aad7bc9061978783c1e4e78a59,no,D:\\!genesis\\library.nu\\f7\\_33337.f72e7a375b296e410303333ed53522ca.djvu,0,2000-01-01 01:00:00,2016-04-03 02:51:08,446000/f72e7a375b296e410303333ed53522ca-d.jpg,,
21740109,Демократия в многосоставных обществах: сравнительное исследование,,,,А. Лейпхарт ; перевод с английского Б. И. Макаренко ;научные редакторы перевода А. М. Салмин и Г. В. Каменская ; (редакционный совет В. И. Бахмин и др.).,,,,,290,0,Russian,,,до 2011-01,5756702083,,,,,,,,,,,0,,,,,1,,0,5525922,pdf,F7DE69E434BABB5A7BE7414612A1C895,,,D:\\!genesis\\library.nu\\f7\\_33252.f7de69e434babb5a7be7414612a1c895.pdf,0,2000-01-01 01:00:00,2016-04-03 02:51:08,446000/f7de69e434babb5a7be7414612a1c895-g.jpg,,
21740110,Der Besuch der alten Dame,,,,"Durrenmatt, Friedrich",,,,,152,0,German,,,до 2011-01,"3257208359,9783257208351",,,,,438,PT2607.U493 B4 1985,,,OL19408273M,,0,,,,,1,1,1,1695846,pdf,F7235A50AAE4570A5EB846CA1864CE21,,,D:\\!genesis\\library.nu\\f7\\_32596.f7235a50aae4570a5eb846ca1864ce21.pdf,0,2000-01-01 01:00:00,2016-04-03 02:51:08,446000/f7235a50aae4570a5eb846ca1864ce21-d.gif,,
21740111,The I Ching: The Book of Changes - Republication of 2nd edition (1899) ( Sacred Books of the East Vol XVI),,,,"James Legge, Translator",1963,2,,,448,0,English,,,до 2011-01,"9780486210629,0486210626",,,,,,,,,OL7634957M,,0,,,,,1,,1,20023937,pdf,F72CBF56820F1BCBC3D7DE1E26FA519C,,,D:\\!genesis\\library.nu\\f7\\_32399.f72cbf56820f1bcbc3d7de1e26fa519c.pdf,0,2000-01-01 01:00:00,2016-04-03 02:51:08,446000/f72cbf56820f1bcbc3d7de1e26fa519c-d.jpg,,
21740112,"The Papacy and the Levant, 1204-1571 (Vol.3) The Sixteenth Century",,,,Kenneth M. Setton,1984,,,,576,0,English,64,,до 2011-01,"9780871691613,0871691612",,,,,,,,,OL22246274M,,0,,,,,1,,0,35646874,pdf,F7289A2C4A9FB875B243D0E3CC3A0C7E,,,D:\\!genesis\\library.nu\\f7\\_32369.f7289a2c4a9fb875b243d0e3cc3a0c7e.pdf,0,2000-01-01 01:00:00,2016-04-03 02:51:08,446000/f7289a2c4a9fb875b243d0e3cc3a0c7e-d.jpg,,
21740113,Alexandrian Christianity (Library of Christian Classics),,,,Henry Chadwick,1977,,,,480,0,English,205,,до 2011-01,"0664241530,9780664241537",,,,,,,,,OL22221418M,,0,,,,,1,1,1,17099315,pdf,F7E41041ED2A165ADF8F96FD7BFFD63D,,,D:\\!genesis\\library.nu\\f7\\_32092.f7e41041ed2a165adf8f96fd7bffd63d.pdf,0,2000-01-01 01:00:00,2016-04-03 02:51:08,446000/f7e41041ed2a165adf8f96fd7bffd63d-d.jpg,,
21740114,"Down Came A Blackbird (The Sidhe Trilogy, Book 2)",,,,Barbara Karmazin,2002,,,,276,0,English,,,до 2011-01,"1931761043,9781931761048",,,,,,,,,OL8804988M,,0,,,,,1,,1,405291,pdf,F754599D91DB8C8359E08A9CE5684963,,,D:\\!genesis\\library.nu\\f7\\_31633.f754599d91db8c8359e08a9ce5684963.pdf,0,2000-01-01 01:00:00,2016-04-03 02:51:08,446000/f754599d91db8c8359e08a9ce5684963-d.jpg,,
21740115,"Pass Trinity student's book ( Grades 7,8 ) with ISE II revisions",,,,"Laura Clyde, Shannon West",,,,,111,0,English,,,до 2011-01,8853004118,,,,,,,,,,,0,,,,,,,0,154675188,pdf,F74C47DDEF48241FB793BB41F4032FE2,,,D:\\!genesis\\library.nu\\f7\\_315567.f74c47ddef48241fb793bb41f4032fe2.pdf,0,2000-01-01 01:00:00,2016-04-03 02:51:08,446000/f74c47ddef48241fb793bb41f4032fe2-g.jpg,,
21740116,Outsourcing in the wood product manufacturing sector : a combined customer and supplier perspective,,,,Daniel Nordigarden.,,,,,293,0,English,,,до 2011-01,9789185895328,,,,,,,,,,,0,,,,,1,,1,1794411,pdf,F7816592105D94D8625387F30D650586,,,D:\\!genesis\\library.nu\\f7\\_31547.f7816592105d94d8625387f30d650586.pdf,0,2000-01-01 01:00:00,2016-04-03 02:51:08,446000/f7816592105d94d8625387f30d650586-g.jpg,,
21740117,An economic analysis of regulation by conditional permits,,,,Erik Lenntorp.,,,,,,0,English,305,,до 2011-01,9185497088,,,,,,,,,,,0,,,,,1,,0,299194,pdf,F7D2BB6F2F46DD32E401B3E104A0DAD9,,,D:\\!genesis\\library.nu\\f7\\_31432.f7d2bb6f2f46dd32e401b3e104a0dad9.pdf,0,2000-01-01 01:00:00,2016-04-03 02:51:08,,,
21740118,The Crooked Letter,,Books of the Cataclysm 1,,Sean Williams,2004,,,,519,0,English,,,до 2011-01,"9780732279257,9781591024385,9781591026440,0732279259,1591024382,159102644X",,,,,,,,,OL12371926M,,0,,,,,0,,1,1398572,pdf,F70145DF14C601DF90DE3DD24C7825AE,,,D:\\!genesis\\library.nu\\f7\\_31347.f70145df14c601df90de3dd24c7825ae.pdf,0,2000-01-01 01:00:00,2016-04-03 02:51:08,446000/f70145df14c601df90de3dd24c7825ae-d.jpg,,
21740119,"Entertainment for Education. Digital Techniques and Systems: 5th International Conference on E-learning and Games, Edutainment 2010, Changchun, China, ... Applications, incl. Internet Web, and HCI)",,Lecture Notes in Computer Science 6249,,"Xiaopeng Zhang, Shaochun Zhong, Zhigeng Pan, Kevin Wong, Ruwei Yun",2010,1st Edition.,Springer,,650,0,English,183,,до 2011-01,"3642145329,9783642145322",,,,,,,10.1007/978-3-642-14533-9,,,,0,,,,,,1,1,17890160,pdf,F7D9F49776C6A731CDCEB18871353E83,,,D:\\!genesis\\library.nu\\f7\\_313462.f7d9f49776c6a731cdceb18871353e83.pdf,0,2000-01-01 01:00:00,2016-04-03 02:51:08,446000/f7d9f49776c6a731cdceb18871353e83-d.jpg,,
21740120,Transactions on Data Hiding and Multimedia Security V (Lecture Notes in Computer Science   Transactions on Data Hiding and Multimedia Security),,Lecture Notes in Computer Science 6010,,Yun Q. Shi,2010,1st Edition.,Springer,,138,0,English,69,,до 2011-01,"3642142974,9783642142970",,,,,,,10.1007/978-3-642-14298-7,,,,0,,,,,,1,1,3649586,pdf,F73D6E2C11741E8938BE65F8B34FAD6C,,,D:\\!genesis\\library.nu\\f7\\_313431.f73d6e2c11741e8938be65f8b34fad6c.pdf,0,2000-01-01 01:00:00,2016-04-03 02:51:08,446000/f73d6e2c11741e8938be65f8b34fad6c-d.jpg,,
21740121,You're Addicted to You: Why It's So Hard to Change - And What You Can Do about It (BK Life),,,,Noah Blumenthal,2007,,Berrett-Koehler Publishers,,163,0,English,,,до 2011-01,"1576754278,9781576754276",,,,,158.1,BF637.C4 B56 2007,,,OL17552850M,,0,,,,,,1,1,1282639,pdf,F71EEFABB0E1CC663A33C90A97E562E0,,,D:\\!genesis\\library.nu\\f7\\_312926.f71eefabb0e1cc663a33c90a97e562e0.pdf,0,2000-01-01 01:00:00,2016-04-03 02:51:08,446000/f71eefabb0e1cc663a33c90a97e562e0-d.jpg,,
21740122,"Protecting Emergency Responders, Volume 4: Personal Protective Equipment Guidelines for Structural Collapse Events",,,,"Nicholas Castle, Elizabeth M. Sloss , J, Henry H. Willis",2006,1,,,128,0,English,,,до 2011-01,"0833039075,9780833039071,9780833041029",,,,,,,,,OL18829169M,,0,,,,,1,,1,498252,pdf,F7E72CC1EF073E88F206DE15ADEFA363,,,D:\\!genesis\\library.nu\\f7\\_31290.f7e72cc1ef073e88f206de15adefa363.pdf,0,2000-01-01 01:00:00,2016-04-03 02:51:08,446000/f7e72cc1ef073e88f206de15adefa363-d.jpg,,
21740123,Cell,,,,Stephen King,2006,,Simon & Schuster Adult Publishing Group,,384,0,English,,,до 2011-01,"9780743292337,0743292332",,,,,,,,,OL15571085M,,0,,,,,,,1,353437,epub,F7A826A6543016F361854D31AD94A549,,,D:\\!genesis\\library.nu\\f7\\_312843.f7a826a6543016f361854d31ad94a549.epub,0,2000-01-01 01:00:00,2016-04-03 02:51:08,446000/f7a826a6543016f361854d31ad94a549-d.jpg,,
21740124,Essai sur la propagation de l’alphabet phenicien dans l’ancien monde – vol. 2,2,,,F. Lenormant,1872,,"Maisonneuve, Paris",,213,0,French,,,до 2011-01,,,,,,,,,,,,0,,,,,,,1,9056462,pdf,F76DE46541E3A0E60867F330E226F4A2,,,D:\\!genesis\\library.nu\\f7\\_312785.f76de46541e3a0e60867f330e226f4a2.pdf,0,2000-01-01 01:00:00,2016-04-03 02:51:08,446000/f76de46541e3a0e60867f330e226f4a2-g.jpg,,
21740125,Toward an Ethics and Etiquette for Electronic Mail,,,,"Norman Zalmon Shapiro, Robert H. Anderson",1985,,,,35,0,English,250,,до 2011-01,"083300669X,9780833006691",,,,,174/.9384,HE6239.E54 S5 1985,,,OL2536182M,,0,,,,,1,,0,1864391,pdf,F7CBED043A8920A2BECEF5A634099AA1,,,D:\\!genesis\\library.nu\\f7\\_31239.f7cbed043a8920a2becef5a634099aa1.pdf,0,2000-01-01 01:00:00,2016-04-03 02:51:08,446000/f7cbed043a8920a2becef5a634099aa1-d.jpg,,
21740126,Neuropsychological Neurology: The Neurocognitive Impairments of Neurological Disorders,,,,A. J. Larner,2008,1,,,248,0,English,198,,до 2011-01,"0521717922,9780521717922,9780511457258",,,,,616.8,RC553.C64 L37 2008,,,OL18008264M,,0,,,,,1,1,1,1980854,pdf,F799CD10D6E5E653378B0A69F6DDA22D,,,D:\\!genesis\\library.nu\\f7\\_3122.f799cd10d6e5e653378b0a69f6dda22d.pdf,0,2000-01-01 01:00:00,2016-04-03 02:51:08,446000/f799cd10d6e5e653378b0a69f6dda22d-d.jpg,,
21740127,Completing the picture : fragments and back again,,,,by Martin Karresand.,,,,,132,0,English,137,,до 2011-01,9789173939157,,,,,,,,,,,0,,,,,1,,1,9679210,pdf,F753C31FA5A54314026DE288533E0568,,,D:\\!genesis\\library.nu\\f7\\_31217.f753c31fa5a54314026de288533e0568.pdf,0,2000-01-01 01:00:00,2016-04-03 02:51:08,446000/f753c31fa5a54314026de288533e0568-g.jpg,,
21740128,Phonemics: A Technique for Reducing Languages to Writing,,,,Kenneth L. Pike,1947,,The University of Michigan Press,,279,0,English,314,,до 2011-01,,,,,,,,,,,,300,,,,,,1,1,21122712,pdf,F78CE544E1795A3E4AAA01FF9BECB0D1,,,D:\\!genesis\\library.nu\\f7\\_311948.f78ce544e1795a3e4aaa01ff9becb0d1.pdf,0,2000-01-01 01:00:00,2016-04-03 02:51:08,446000/f78ce544e1795a3e4aaa01ff9becb0d1-g.jpg,,
21740129,Maximus the Confessor and his Companions: Documents from Exile (Oxford Early Christian Texts),,,,"Pauline Allen, Bronwen Neil",2003,,"Oxford University Press, USA",,200,0,English,183,,до 2011-01,"0198299915,9780198299912",,,,,270.2/092,BT1430 .M39 2002,,,OL3956482M,,0,,,,,,,1,32492747,pdf,F704C97169DDD6515ED9BA5266739E69,,,D:\\!genesis\\library.nu\\f7\\_311358.f704c97169ddd6515ed9ba5266739e69.pdf,0,2000-01-01 01:00:00,2016-04-03 02:51:08,446000/f704c97169ddd6515ed9ba5266739e69-d.jpg,,
21740130,A Discovery of Witches,,,,Deborah Harkness,2011,First Edition,Viking Adult,,283,0,English,,,до 2011-01,"0670022411,9780670022410",,,,,813/.6,PS3608.A7436 D57 2011,,,OL24423822M,,0,,,,,,,1,1891431,pdf,F74B83AA7F45522E89C552FA2D36AC9F,,,D:\\!genesis\\library.nu\\f7\\_311208.f74b83aa7f45522e89c552fa2d36ac9f.pdf,0,2000-01-01 01:00:00,2016-04-03 02:51:08,446000/f74b83aa7f45522e89c552fa2d36ac9f-d.jpg,,
21740131,Foundation ActionScript 3.0 for Flash and Flex (Foundations),,,,Darren Richardson (with Paul Milbourne),2009,1,friendsofED,,601,0,English,,,до 2011-01,"1430219181,9781430219187",,,,,,,,,OL24861489M,,0,,,,,,,1,5064271,pdf,F7AEFAF95806988357F60829F25D1F0E,,,D:\\!genesis\\library.nu\\f7\\_310613.f7aefaf95806988357f60829f25d1f0e.pdf,0,2000-01-01 01:00:00,2016-04-03 02:51:08,446000/f7aefaf95806988357f60829f25d1f0e-d.jpg,,
21740132,The Social Semantic Web,,,,"John G. Breslin, Alexandre Passant, Stefan Decker (auth.)",2009,1,Springer-Verlag Berlin Heidelberg,,300,0,English,100,,до 2011-01,"3642011713,9783642011719",,,,,,,10.1007/978-3-642-01172-6,,,,0,,,,,,1,1,26740658,pdf,F7F216E2E820AD3FEFA4D6E168B2EC3A,,,D:\\!genesis\\library.nu\\f7\\_310601.f7f216e2e820ad3fefa4d6e168b2ec3a.pdf,0,2000-01-01 01:00:00,2016-04-03 02:51:08,446000/f7f216e2e820ad3fefa4d6e168b2ec3a-d.jpg,,
21740133,Shadow,,,,Anne Logston,2005,,,,172,0,English,,,до 2011-01,"159426161X,9781594261619",,,,,,,,,OL8876030M,,0,,,,,1,,1,331855,pdf,F7CE824C1DCC7BD27C492DDB8AC5B32E,,,D:\\!genesis\\library.nu\\f7\\_31009.f7ce824c1dcc7bd27c492ddb8ac5b32e.pdf,0,2000-01-01 01:00:00,2016-04-03 02:51:08,446000/f7ce824c1dcc7bd27c492ddb8ac5b32e-d.jpg,,
21740134,Money Pitcher: Chief Bender And the Tragedy of Indian Assimilation,,,,William C. Kashatus,2006,,Pennsylvania State University Press,,216,0,English,,,до 2011-01,"0271028629,9780271028620",,,,,"796.357092,B",GV865.B36 K37 2006,,,OL22726694M,,0,,,,,,1,1,1603913,pdf,F7E525328F96CCDAB157474A87357A0B,,,D:\\!genesis\\library.nu\\f7\\_310004.f7e525328f96ccdab157474a87357a0b.pdf,0,2000-01-01 01:00:00,2016-04-03 02:51:08,446000/f7e525328f96ccdab157474a87357a0b-d.jpg,,
21740135,The Weiser Concise Guide to Herbal Magick,,,,Judith Hawkins-Tillirson,2007,,Weiser Books,,125,0,English,173,,до 2011-01,"1578634113,9781578634118",,,,,133.4/3,BF1572.P43 H39 2007,,,OL12245510M,,0,,,,,,,0,76517600,pdf,F75DFE3C2B9EBBC9F5319735C6CFFAF7,,,D:\\!genesis\\library.nu\\f7\\_309889.f75dfe3c2b9ebbc9f5319735c6cffaf7.pdf,0,2000-01-01 01:00:00,2016-04-03 02:51:08,446000/f75dfe3c2b9ebbc9f5319735c6cffaf7-d.jpg,,
21740136,Λούλου (μια νεανική παρεκτροπή),,,,Herman Hesse,,,,,106,0,Greek,,,до 2011-01,,,,,,,,,,,,0,,,,,,1,0,3096538,pdf,F7C62932FB4243E4952582BC0EE494CC,,,D:\\!genesis\\library.nu\\f7\\_309863.f7c62932fb4243e4952582bc0ee494cc.pdf,0,2000-01-01 01:00:00,2016-04-03 02:51:08,446000/f7c62932fb4243e4952582bc0ee494cc-g.jpg,,
21740137,Blackout,,,,Gianluca Morozzi,2004,,Guanda,,,0,Italian,,,до 2011-01,9788860883131,,,,,,,,,,,0,,,,,,,,335238,epub,F7379DA5DE781E86FEC2D78E3751AE2A,,,D:\\!genesis\\library.nu\\f7\\_309681.f7379da5de781e86fec2d78e3751ae2a.epub,0,2000-01-01 01:00:00,2016-04-03 02:51:08,446000/F7379DA5DE781E86FEC2D78E3751AE2A-g.jpg,,
21740138,"Preventive Nutrition, 3rd Edition: The Comprehensive Guide for Health Professionals",,Nutrition and Health,,"Adrianne Bendich, Richhard J. Deckelbaum",2005,3rd,Humana Press,,985,0,English,137,,до 2011-01,"1588294455,9781588294456",,,,,,,,,OL18223784M,,0,,,,,,1,1,7033967,pdf,F798320F375379B2C594748D276ADA94,,,D:\\!genesis\\library.nu\\f7\\_308515.f798320f375379b2c594748d276ada94.pdf,0,2000-01-01 01:00:00,2016-04-03 02:51:08,446000/f798320f375379b2c594748d276ada94-d.jpg,,
21740139,Aesthetics in Sartre and Camus. The Challenge of Freedom (Dialoghi Dialogues: Literatur Und Kultur Italiens Und Frankreichs),,"Dialoghi (Frankfurt am Main, Germany), v. 13",,Wittmann Heiner,2009,,Peter Lang,,168,0,English,,,до 2011-01,"3631586930,9783631586938",,,,,,,,,OL24385564M,,600,,,,,,1,1,2476742,djvu,F70B4954CFDDBCB93A9B83F184AB5F04,,,D:\\!genesis\\library.nu\\f7\\_308205.f70b4954cfddbcb93a9b83f184ab5f04.djvu,0,2000-01-01 01:00:00,2016-04-03 02:51:08,446000/f70b4954cfddbcb93a9b83f184ab5f04-d.jpg,,
21740140,"Die Bankenfalle. Wie wir geschropft, verlassen & verkauft werden",,,,Peter Kruck,2007,,Signum,,171,0,German,,,до 2011-01,"3854363850,9783854363859",,,,,,,,,,,0,,,,,,1,1,832387,pdf,F7661C6F686E506E08B1D483FD51ECC9,,,D:\\!genesis\\library.nu\\f7\\_308050.f7661c6f686e506e08b1d483fd51ecc9.pdf,0,2000-01-01 01:00:00,2016-04-03 02:51:08,446000/f7661c6f686e506e08b1d483fd51ecc9-g.jpg,,
21740141,Encyclopedia of Clinical Pharmacy,,,,Joseph T. DiPiro,2002,illustrated edition,Marcel Dekker,,933,0,English,161,,до 2011-01,"0824706080,9780824706081",,,,,615/.03,RS51 .E48 2003,,,OL3704152M,,0,,,,,,1,1,92575510,pdf,F7A1A570F9BAC0233268C6C6049D12A9,,,D:\\!genesis\\library.nu\\f7\\_307005.f7a1a570f9bac0233268c6c6049d12a9.pdf,0,2000-01-01 01:00:00,2016-04-03 02:51:08,446000/f7a1a570f9bac0233268c6c6049d12a9-g.jpg,,
21740142,Physical Properties of Macromolecules,,,,Laurence A. Belfiore,2010,1,John Wiley & Sons,,802,0,English,132,,до 2011-01,"0470228938,9780470228937",,,,,547.7045,QC173.4.P65 B45 2010,,,OL23230003M,,0,,,,,,1,1,14100649,pdf,F7D771135E564428D27AF3AB56BCF372,,,D:\\!genesis\\library.nu\\f7\\_305243.f7d771135e564428d27af3ab56bcf372.pdf,0,2000-01-01 01:00:00,2016-04-03 02:51:08,446000/f7d771135e564428d27af3ab56bcf372-d.jpg,,
21740143,Del principio di contraddizione in Aristotele,,,,Jan Lukasiewicz,,,,,90,0,Italian,,,до 2011-01,9788874620029,,,,,,,,,,,0,,,,,1,1,0,4164709,pdf,F7E548C5437F50DE4D4998C01A110D6D,,,D:\\!genesis\\library.nu\\f7\\_30517.f7e548c5437f50de4d4998c01a110d6d.pdf,0,2000-01-01 01:00:00,2016-04-03 02:51:08,446000/f7e548c5437f50de4d4998c01a110d6d-g.jpg,,
21740144,"Science (Science magazine), Vol 330, Issue 6004, Pages 547-714; 2010 October 29",,,,Bruce Alberts (ed.),,,,,131,0,English,181,,до 2011-01,,,,,,,,10.1126/science.1195818,,,periodic,0,,,,,,,1,11860353,djvu,F75713B707263A66551ADBB2A5F464E6,,ban,D:\\!genesis\\library.nu\\f7\\_305122.f75713b707263a66551adbb2a5f464e6.djvu,0,2000-01-01 01:00:00,2016-04-03 02:51:08,446000/f75713b707263a66551adbb2a5f464e6-g.jpg,,
21740145,"Trends in Applied Intelligent Systems, 23rd International Conference on Industrial Engineering and Other Applications of Applied Intelligent Systems, IEA AIE 2010, Cordoba, Spain, June 1-4, 2010, Proceedings, Part I",,Lecture Notes in Artificial Intelligence 6096,,"Nicolas Garcia-Pedrajas, Francisco Herrera, Colin Fyfe, Jose Manuel Benitez, Moonis Ali",2010,1st Edition.,Springer,,806,0,English,210,,до 2011-01,"3642130216,9783642130212",,,,,,,,,,,0,,,,,,1,1,13510606,pdf,F75E1719F91E12E44F3464B68ADA9944,,,D:\\!genesis\\library.nu\\f7\\_304084.f75e1719f91e12e44f3464b68ada9944.pdf,0,2000-01-01 01:00:00,2016-04-03 02:51:08,446000/f75e1719f91e12e44f3464b68ada9944-d.jpg,,
21740146,La grande revolution culturelle proletarienne en Chine 1,,,,Editions en langues etrangeres,,,,,42,0,French,,,до 2011-01,,,,,,,,,,,,0,,,,,,,0,5537331,pdf,F7DDF6409B9CFB65CC295F89B6CF3C3D,,,D:\\!genesis\\library.nu\\f7\\_304062.f7ddf6409b9cfb65cc295f89b6cf3c3d.pdf,0,2000-01-01 01:00:00,2016-04-03 02:51:08,446000/f7ddf6409b9cfb65cc295f89b6cf3c3d-g.jpg,,
21740147,The Humanist Controversy and Other Texts,,,,Louis Althusser,2003,,Verso,,288,0,English,,,до 2011-01,"1859844081,9781859844083",,,,,,,,,OL17094801M,,0,,,,,,1,1,26285318,pdf,F71FFA36E5C1A41B40E11002C3DD3C54,,,D:\\!genesis\\library.nu\\f7\\_303821.f71ffa36e5c1a41b40e11002c3dd3c54.pdf,0,2000-01-01 01:00:00,2016-04-03 02:51:08,446000/f71ffa36e5c1a41b40e11002c3dd3c54-d.jpg,,
21740148,Beyond Practical Virtue: A Defense of Liberal Democracy Through Literature,,,,Joel A. Johnson,2007,1,,,208,0,English,108,,до 2011-01,"0826217117,9780826217110,9780826265791",,,,,813/.409358,PS374.L42 J65 2007,,,OL17567667M,,0,,,,,1,1,1,966608,pdf,F7CBB434CBC7D3384F563B55B0CBB683,,,D:\\!genesis\\library.nu\\f7\\_30318.f7cbb434cbc7d3384f563b55b0cbb683.pdf,0,2000-01-01 01:00:00,2016-04-03 02:51:08,446000/f7cbb434cbc7d3384f563b55b0cbb683-d.jpg,,
21740149,Handbook of Electrostatic Processes,,,,"Jen-Shih Chang, Arnold J. Kelly, Joseph M. Crowley",1995,1,CRC Press,,780,0,English,,,до 2011-01,"0824792548,9780824792541",,,,,621.3,QC571 .H25 1995,,,OL1119942M,,0,,,,,,1,1,61610486,pdf,F7A10DCECD7E2E165FD2AE340F85E290,,,D:\\!genesis\\library.nu\\f7\\_302888.f7a10dcecd7e2e165fd2ae340f85e290.pdf,0,2000-01-01 01:00:00,2016-04-03 02:51:08,446000/f7a10dcecd7e2e165fd2ae340f85e290-d.jpg,,
21740150,Handbook on Secondary Particle Production And Transport by High-energy Heavy Ions,,,,"Takashi Nakamura, Lawrence Heilbronn",2006,,World Scientific Publishing Company,,237,0,English,289,,до 2011-01,"9812565582,9789812565587",,,,,,,,,OL9197380M,,0,,,,,,1,1,10275841,pdf,F7545750C8576A3AD4454B41A44EEAAF,,,D:\\!genesis\\library.nu\\f7\\_302544.f7545750c8576a3ad4454b41a44eeaaf.pdf,0,2000-01-01 01:00:00,2016-04-03 02:51:08,446000/f7545750c8576a3ad4454b41a44eeaaf-d.jpg,,
21740151,I'm Just Here for the Food: Version 2.0,,,,Alton Brown,2006,Har/Mgt,"Stewart, Tabori & Chang",,321,0,English,,,до 2011-01,"158479559X,9781584795599",,,,,641.5,TX651 .B728 2006,,,OL17942264M,,0,,,,,,1,1,29622730,pdf,F7AFFE85267CE2B950EC6C56371B0217,,,D:\\!genesis\\library.nu\\f7\\_302395.f7affe85267ce2b950ec6c56371b0217.pdf,0,2000-01-01 01:00:00,2016-04-03 02:51:08,446000/f7affe85267ce2b950ec6c56371b0217-d.jpg,,
21740152,"How to Write Like Chekhov: Advice and Inspiration, Straight from His Own Letters and Work",,,,Anton Chekhov,2008,1st Da Capo Press Ed,Da Capo Press,,253,0,English,,,до 2011-01,"1569242593,9781569242599",,,,,808/.02,PG3456.A13 B78 2008,,,OL21812541M,,0,,,,,,1,1,812581,pdf,F75D9D2DAD3C681FF8C1E9EE466F29D2,,,D:\\!genesis\\library.nu\\f7\\_301973.f75d9d2dad3c681ff8c1e9ee466f29d2.pdf,0,2000-01-01 01:00:00,2016-04-03 02:51:08,446000/f75d9d2dad3c681ff8c1e9ee466f29d2-d.jpg,,
21740153,Pro Tools Overdrive!,,,,Matthew Donner,2005,1,Course Technology PTR,,297,0,English,,,до 2011-01,"1592006256,9781592006250",,,,,,,,,OL8859544M,,0,,,,,,1,1,15476645,pdf,F7BF7303569F66E5E847CA4652CEDD54,,,D:\\!genesis\\library.nu\\f7\\_301563.f7bf7303569f66e5e847ca4652cedd54.pdf,0,2000-01-01 01:00:00,2016-04-03 02:51:08,446000/f7bf7303569f66e5e847ca4652cedd54-d.jpg,,
21740154,"Tracking Environmental Change Using Lake Sediments - Volume 3: Terrestrial, Algal, and Siliceous Indicators (Developments in Paleoenvironmental Research)",,Tracking Environmental Change Using Lake Sediments 3,,"John P. Smol, H. John B. Birks, William M. Last",2002,1,Springer,,398,0,English,,,до 2011-01,"1402006810,9781402006814,0306476681",,,,,,,,,OL17072886M,,0,,,,,,1,1,14002996,pdf,F7A8832D2D307B36D30161ED319601CF,,,D:\\!genesis\\library.nu\\f7\\_301433.f7a8832d2d307b36d30161ed319601cf.pdf,0,2000-01-01 01:00:00,2016-04-03 02:51:08,446000/f7a8832d2d307b36d30161ed319601cf-d.jpg,,
21740155,OECD Banking Statistics: Methodological Country Notes 2010,,,,OECD,2011,,OECD Publishing,,200,0,English,130,,до 2011-01,"9264089896,9789264089891,9789264089907",,,,,,,10.1787/9789264089907-en,,,,0,,,,,,1,1,2588741,pdf,F72F490B1E4F088CC3DCFD830B849B00,,,D:\\!genesis\\library.nu\\f7\\_301144.f72f490b1e4f088cc3dcfd830b849b00.pdf,0,2000-01-01 01:00:00,2016-04-03 02:51:08,446000/f72f490b1e4f088cc3dcfd830b849b00-d.jpg,,
21740156,The Hidden Christ,,,,Christoph Friedrich Blumhardt,,,,,72,0,English,,,до 2011-01,,,,,,,,,,,,0,,,,,,1,1,324487,pdf,F756877EB75382798B7F3AF17DD50F67,,,D:\\!genesis\\library.nu\\f7\\_300727.f756877eb75382798b7f3af17dd50f67.pdf,0,2000-01-01 01:00:00,2016-04-03 02:51:08,446000/f756877eb75382798b7f3af17dd50f67-g.jpg,,
21740157,Олтин зангламас,,,,Шу?рат,1995,,Шарқ,,256,0,Uzbek,,,до 2011-01,,,,,,,,,,,,0,,,,,,,0,19100084,pdf,F70AAAFA695529E194C0D67A759FF689,,,D:\\!genesis\\library.nu\\f7\\_300372.f70aaafa695529e194c0d67a759ff689.pdf,0,2000-01-01 01:00:00,2016-04-03 02:51:08,446000/f70aaafa695529e194c0d67a759ff689-g.jpg,,
21740158,CURED I - LENT Late Effects of Cancer Treatment on Normal Tissues (Medical Radiology   Radiation Oncology),,,,"Philip Rubin, L.S. Constine, Lawrence B. Marks, Paul Okunieff",2007,1,Springer,,166,0,English,166,,до 2011-01,"3540490698,9783540490692",,,,,616.99/40642,RC271.R3 L37 2008,,,OL18864307M,,0,,,,,,1,1,4419445,pdf,F7C8A70740A47994AAC4ED490D7C1F03,,,D:\\!genesis\\library.nu\\f7\\_299922.f7c8a70740a47994aac4ed490d7c1f03.pdf,0,2000-01-01 01:00:00,2016-04-03 02:51:08,446000/f7c8a70740a47994aac4ed490d7c1f03-d.jpg,,
21740159,Cursillo de Mitologia,,,,Argos (Roberto Cadavid Misas),,,,,147,0,Spanish,,,до 2011-01,9586381188,,,,,,,,,,,0,,,,,,1,1,5753692,pdf,F76A6EA9AF78546D1D4EBFD52F528912,,,D:\\!genesis\\library.nu\\f7\\_299616.f76a6ea9af78546d1d4ebfd52f528912.pdf,0,2000-01-01 01:00:00,2016-04-03 02:51:08,446000/f76a6ea9af78546d1d4ebfd52f528912-g.jpg,,
21740160,Pace: The 12-Minute Fitness Revolution,,,,Al Sears M.D.,2010,,Wellness Research And Consulting,,298,0,English,,,до 2011-01,"0979470382,9780979470387",,,,,,,,,,,0,,,,,,,1,3814526,pdf,F7CD3EA17B69CC0FA7C7364FC162E3DE,,,D:\\!genesis\\library.nu\\f7\\_299136.f7cd3ea17b69cc0fa7c7364fc162e3de.pdf,0,2000-01-01 01:00:00,2016-04-03 02:51:08,446000/f7cd3ea17b69cc0fa7c7364fc162e3de-d.jpg,,
21740161,Bad Love (Alex Delaware 08),,,,Jonathan Kellerman,2003,,Ballantine Books,,,0,English,,,до 2011-01,,,,,,,,,,,,0,,,,,,,,294074,lit,F742C1E588C501367F2129E6CA2E7734,,,D:\\!genesis\\library.nu\\f7\\_298751.f742c1e588c501367f2129e6ca2e7734.lit,0,2000-01-01 01:00:00,2016-04-03 02:51:08,446000/F742C1E588C501367F2129E6CA2E7734-g.jpg,,
21740162,Kaiserkult in Kleinasien: Die Entwicklung der kultisch-religiosen Kaiserverehrung in der romischen Provinz Asia von Augustus bis Antoninus Pius (Novum Testamentum et Orbis Antiquus   Studien zur Umwelt des Neuen Testaments 63),,Novum Testamentum et Orbis Antiquus - Studien zur Umwelt des Neuen Testaments (NTOA) 63,,Thomas Witulski,2007,,Vandenhoeck & Ruprecht \\/ Academic Press Fribourg,,213,0,German,183,,до 2011-01,"352553986X,9783525539866",,,,,,,,,OL19222055M,,400,,,,,,1,1,12757977,pdf,F7149F53D5E49566DDC891DD891F377B,,,D:\\!genesis\\library.nu\\f7\\_298567.f7149f53d5e49566ddc891dd891f377b.pdf,0,2000-01-01 01:00:00,2016-04-03 02:51:08,446000/f7149f53d5e49566ddc891dd891f377b-d.jpg,,
21740163,Ο Αστερίξ στους Βρετανούς,,Μιά περιπέτεια του ηρωικού Astérix (Αστερίξ),,"Albert Uderzo, Rene Goscinny",2006,,Μαμούθ Comix,,49,0,Greek,,,до 2011-01,"9603211028,9789603211020",,,,,,,,,,,0,,,,,,,0,39548691,pdf,F7D1F57810ED4C55799664A4705627B6,,,D:\\!genesis\\library.nu\\f7\\_298310.f7d1f57810ed4c55799664a4705627b6.pdf,0,2000-01-01 01:00:00,2016-04-03 02:51:08,446000/f7d1f57810ed4c55799664a4705627b6-g.jpg,,
21740164,Meyler's Side Effects of Cardiovascular Drugs (Meylers Side Effects),,,,Jeffrey K. Aronson MA DPhil MBChB FRCP FBPharmacolS FFPM(Hon),2009,1,Elsevier Science,,840,0,English,159,,до 2011-01,"0444532684,9780444532688",,,,,,,,,,,0,,,,,,,1,6082522,pdf,F7C10A92E1EA13D3BA38EB994FAF2986,,,D:\\!genesis\\library.nu\\f7\\_298304.f7c10a92e1ea13d3ba38eb994faf2986.pdf,0,2000-01-01 01:00:00,2016-04-03 02:51:08,446000/f7c10a92e1ea13d3ba38eb994faf2986-d.jpg,,
21740165,"Ubungsbuch Mathematik fur Fachschule Technik und Berufskolleg, 2. Auflage: Anwendungsorientierte Aufgaben mit ausfuhrlichen Losungen",,,,"Heinz Rapp, Jorg Matthias Rapp",2011,,Vieweg+Teubner,,340,0,German,113,,до 2011-01,"3834814776,9783834814777",,,,,,,,,,,0,,,,,,1,1,2747089,pdf,F79B498FC00122B8127570452A0BDF79,,,D:\\!genesis\\library.nu\\f7\\_298109.f79b498fc00122b8127570452a0bdf79.pdf,0,2000-01-01 01:00:00,2016-04-03 02:51:08,446000/f79b498fc00122b8127570452a0bdf79-g.jpg,,
21740166,Dialectic of Action,,,,George T Rozos,1994,1st,Hestia Publishers & Booksellers,,512,0,English,,,до 2011-01,"9600505845,9789600505849",,,,,128/.4,B105.A35 R69 1994,,,OL905537M,,0,,,,,,1,1,81073190,pdf,F7D23B14095D5B0841B310B4DF99A52C,,,D:\\!genesis\\library.nu\\f7\\_297601.f7d23b14095d5b0841b310b4df99a52c.pdf,0,2000-01-01 01:00:00,2016-04-03 02:51:08,446000/f7d23b14095d5b0841b310b4df99a52c-g.jpg,,
21740167,"Applied Mathematical Demography, Third Edition (Statistics for Biology and Health)",,Statistics for Biology and Health,,"N. Keyfitz, Hal Caswell",2005,3rd,Springer,,581,0,English,137,,до 2011-01,"0387225374,9780387225371",,,,,,,,,OL7444422M,,0,,,,,,,1,3226455,pdf,F706B92FD45A33DCA1AE2D648ED9D1BA,,,D:\\!genesis\\library.nu\\f7\\_297543.f706b92fd45a33dca1ae2d648ed9d1ba.pdf,0,2000-01-01 01:00:00,2016-04-03 02:51:08,446000/f706b92fd45a33dca1ae2d648ed9d1ba-d.jpg,,
21740168,I Am No One You Know: Stories,,,,Joyce Carol Oates,2004,1st,Ecco,,304,0,English,,,до 2011-01,"0060592885,9780060592882",,,,,813/.54,PS3565.A8 I13 2004,,,OL3690983M,,0,,,,,,1,1,2181378,pdf,F78DC260BD454ABEB7F40C51DFB31FB0,,,D:\\!genesis\\library.nu\\f7\\_297490.f78dc260bd454abeb7f40c51dfb31fb0.pdf,0,2000-01-01 01:00:00,2016-04-03 02:51:08,446000/f78dc260bd454abeb7f40c51dfb31fb0-d.jpg,,
21740169,Chemistry of Zeolites and Related Porous Materials: Synthesis and Structure,,,,"Ruren Xu, Wenqin Pang, Jihong Yu, Qisheng Huo, Jiesheng Chen",2007,1,Wiley-Interscience,,695,0,English,296,,до 2011-01,"0470822333,9780470822333",,,,,666/.86,TP245.S5 C52 2007,,,OL10296258M,,0,,,,,,1,1,11979893,pdf,F7595C3756E6B1359D4B45E0140EC275,,,D:\\!genesis\\library.nu\\f7\\_297037.f7595c3756e6b1359d4b45e0140ec275.pdf,0,2000-01-01 01:00:00,2016-04-03 02:51:08,446000/f7595c3756e6b1359d4b45e0140ec275-d.jpg,,
21740170,فكرة الافريقية الاسيوية في ضوء مؤتمر باندونغ,,سلسلة مشكلات الحضارة,,مالك بن نبي,2001,الاولى - معادة,دار الفكر - دمشق,,272,0,Arabic,,,до 2011-01,,,,,,,,,,,,0,,,,,,,0,8595079,pdf,F74D9D5D18756783C436CE9698972CF0,,,D:\\!genesis\\library.nu\\f7\\_296434.f74d9d5d18756783c436ce9698972cf0.pdf,0,2000-01-01 01:00:00,2016-04-03 02:51:08,446000/f74d9d5d18756783c436ce9698972cf0-g.jpg,,
21740171,The Mark of the Beast,,,,Debra Hassig,2000,1,,,252,0,English,,,до 2011-01,"041592894X,9780415928946",,,,,,,,,OL7496340M,,0,,,,,,,0,17798079,pdf,F7F616ABEFE06202C5920C58C200E01F,,,D:\\!genesis\\library.nu\\f7\\_296405.f7f616abefe06202c5920c58c200e01f.pdf,0,2000-01-01 01:00:00,2016-04-03 02:51:08,446000/f7f616abefe06202c5920c58c200e01f-d.jpg,,
21740172,"Calculus for Business Economics & the Social & Life Sciences, Brief 10th Edition",,,,Gerald_Bradley,2009,10th edition,"Boston:McGrawHill,2009",,806,0,English,305,,до 2011-01,"0073532312,9780073532318",,,,,515,QA303.2 .H64 2010,,,OL22528814M,,0,,,,,,1,1,13566659,pdf,F7760CA31AA015B5E6E737F0911CD34C,,,D:\\!genesis\\library.nu\\f7\\_295823.f7760ca31aa015b5e6e737f0911cd34c.pdf,0,2000-01-01 01:00:00,2016-04-03 02:51:08,446000/f7760ca31aa015b5e6e737f0911cd34c-d.jpg,,
21740173,The Leadership Illusion: The Importance of Context and Connections,,,,"Tony Hall, Karen Janman",2009,First Edition,Palgrave Macmillan,,200,0,English,,,до 2011-01,"0230516564,9780230516564",,,,,,,,,OL10194337M,,0,,,,,,,,581861,epub,F77E1E4B2293533508CE70E8C71E7CE4,,,D:\\!genesis\\library.nu\\f7\\_295713.f77e1e4b2293533508ce70e8c71e7ce4.epub,0,2000-01-01 01:00:00,2016-04-03 02:51:08,446000/f77e1e4b2293533508ce70e8c71e7ce4-d.jpg,,
21740174,Quality of Life and Technology Assessment (Monograph of the Council on Health Care Technology),,,,"Council on Health Care Technology, Institute of Medicine",1989,,,,132,0,English,59,,до 2011-01,"0309040981,9780309040983,9780585154039",,,,,,,,,OL10357040M,,0,,,,,1,,1,1215506,pdf,F74AD273804C6EF4A7FAF82C881095BD,,,D:\\!genesis\\library.nu\\f7\\_29564.f74ad273804c6ef4a7faf82c881095bd.pdf,0,2000-01-01 01:00:00,2016-04-03 02:51:08,446000/f74ad273804c6ef4a7faf82c881095bd-d.jpg,,
21740175,Rethinking physical and rehabilitation medicine: New technologies induce new learning strategies (Collection de L'Academie Europeenne de Medecine de Readaptation),,Collection de L'Académie Européenne de Médecine de Réadaptation,,"Jean-Pierre Didier, Emmanuel Bigand",2010,1st Edition.,Springer,,269,0,English,183,,до 2011-01,"2817800338,9782817800332,2817800346,9782817800349",,,,,,,,,,,0,,,,,,1,1,1993896,pdf,F7DCDF0BAEC590533095792BD0BD2793,,,D:\\!genesis\\library.nu\\f7\\_295244.f7dcdf0baec590533095792bd0bd2793.pdf,0,2000-01-01 01:00:00,2016-04-03 02:51:08,446000/f7dcdf0baec590533095792bd0bd2793-d.jpg,,
21740176,Poppy: The Genus Papaver (Medicinal and Aromatic Plants - Industrial Profiles),,,,Jeno Bernath,1999,1,CRC Press,,357,0,English,147,,до 2011-01,"9057022710,9789057022715",,,,,583/.35,SB295.O65 P66 1998,,,OL3630101M,,0,,,,,,1,1,13077690,pdf,F7CCB1ED8ADEB7E1B68E4BBAAC48D346,,,D:\\!genesis\\library.nu\\f7\\_295073.f7ccb1ed8adeb7e1b68e4bbaac48d346.pdf,0,2000-01-01 01:00:00,2016-04-03 02:51:08,446000/f7ccb1ed8adeb7e1b68e4bbaac48d346-d.jpg,,
21740177,"The Zen of Fish: The Story of Sushi, from Samurai to Supermarket",,,,Trevor Corson,2007,First Edition,HarperCollins,,384,0,English,,,до 2011-01,"0060883502,9780060883508",,,,,641.6/92,TX747 .C772 2007,,,OL24961250M,,0,,,,,,,1,2405897,pdf,F79D2DB2B968B13F6EF29389D37847D5,,,D:\\!genesis\\library.nu\\f7\\_295055.f79d2db2b968b13f6ef29389d37847d5.pdf,0,2000-01-01 01:00:00,2016-04-03 02:51:08,446000/f79d2db2b968b13f6ef29389d37847d5-d.jpg,,
21740178,The Pregnancy Shock,,,,Lynne Graham,2010,,"Harlequin Mills & Boon Limited,",,,0,English,,,до 2011-01,9781408919156,,,,,,,,,,,0,,,,,,,1,188319,epub,F791B0D426211C02CEBD96AADF60A16D,,,D:\\!genesis\\library.nu\\f7\\_295010.f791b0d426211c02cebd96aadf60a16d.epub,0,2000-01-01 01:00:00,2016-04-03 02:51:08,446000/F791B0D426211C02CEBD96AADF60A16D-g.jpg,,
21740179,The Danish Resources c. 1000-1550 (The Northern World),,The Northern World 34,,"Nils Hybel, Bjorn Poulsen",2007,,BRILL,,475,0,English,64,,до 2011-01,"9004161929,9789004161924",,,,,330.9489/01,DL146 .H93 2007,,,OL12799300M,,0,,,,,,1,1,4024197,pdf,F781FE28999F7AA0AB3E949CB282AD8A,,,D:\\!genesis\\library.nu\\f7\\_294654.f781fe28999f7aa0ab3e949cb282ad8a.pdf,0,2000-01-01 01:00:00,2016-04-03 02:51:08,446000/f781fe28999f7aa0ab3e949cb282ad8a-d.jpg,,
21740180,A Guide for Beginning Elementary Teachers: From Getting Hired to Staying Inspired,,,,"Donna Donoghue, Esther Collins, Sally Wakefield",2005,,Libraries Unlimited,,140,0,English,,,до 2011-01,"1594690057,9781594690051",,,,,370/.23/73,LB1776.2 .D66 2005,,,OL19291854M,,0,,,,,,1,1,9129462,pdf,F77DD010ADEB25E7259CF1D8040ACDB3,,,D:\\!genesis\\library.nu\\f7\\_294244.f77dd010adeb25e7259cf1d8040acdb3.pdf,0,2000-01-01 01:00:00,2016-04-03 02:51:08,446000/f77dd010adeb25e7259cf1d8040acdb3-d.jpg,,
21740181,Clinical Manual of Couples and Family Therapy,,,,"Gabor I. Keitner, Alison M. Heru, Ira D. Glick",2009,1,"American Psychiatric Publishing, Inc.",,337,0,English,161,,до 2011-01,"1585622907,9781585622900",,,,,616.89/156,RC488.5 .K445 2010,,,OL23678184M,,0,,,,,,1,1,2000589,pdf,F7634EBA619E713C3A82E3FD8DAE79EB,,,D:\\!genesis\\library.nu\\f7\\_293877.f7634eba619e713c3a82e3fd8dae79eb.pdf,0,2000-01-01 01:00:00,2016-04-03 02:51:08,446000/f7634eba619e713c3a82e3fd8dae79eb-d.jpg,,
21740182,Experienced Cognition,,,,Richard A. Carlson,1997,1,,,368,0,English,,,до 2011-01,"0805817328,9780805817324,9780585226347",,,,,153,BF311 .C2775 1997,,,OL671224M,,0,,,,,1,,1,1246930,pdf,F75FBF0978632F14E566E808D916D646,,,D:\\!genesis\\library.nu\\f7\\_29378.f75fbf0978632f14e566e808d916d646.pdf,0,2000-01-01 01:00:00,2016-04-03 02:51:08,446000/f75fbf0978632f14e566e808d916d646-d.jpg,,
21740183,Microsoft Outlook 2010. Das Handbuch,,,,Thomas Joos,2010,,Microsoft Press,,836,0,German,94,,до 2011-01,"386645144X,9783866451445",,,,,,,,,,,0,,,,,,1,1,66673029,pdf,F74B806FCB332F7B6C1084466D5CC88D,,,D:\\!genesis\\library.nu\\f7\\_293694.f74b806fcb332f7b6c1084466d5cc88d.pdf,0,2000-01-01 01:00:00,2016-04-03 02:51:08,446000/f74b806fcb332f7b6c1084466d5cc88d-g.jpg,,
21740184,Getting a Handel on Messiah,,,,David W. Barber,1994,,Sound And Vision,,104,0,English,,,до 2011-01,"0920151175,9780920151174",,,,,,,,,OL8352814M,,0,,,,,,1,1,1530623,pdf,F77C5BA8BA99AB5562068538390D3EF9,,,D:\\!genesis\\library.nu\\f7\\_293495.f77c5ba8ba99ab5562068538390d3ef9.pdf,0,2000-01-01 01:00:00,2016-04-03 02:51:08,446000/f77c5ba8ba99ab5562068538390d3ef9-d.jpg,,
21740185,THE PSYCHOLOGY OF LAW,,,,John Monahan,1982,,,,37,0,English,,,до 2011-01,,,,,,,,,,,,0,,,,,,,0,2106828,pdf,F78607EF1F421DAA71AE587255469DFD,,,D:\\!genesis\\library.nu\\f7\\_293489.f78607ef1f421daa71ae587255469dfd.pdf,0,2000-01-01 01:00:00,2016-04-03 02:51:08,446000/f78607ef1f421daa71ae587255469dfd-g.jpg,,
21740186,Reachable Stars: Patterns in the Ethnoastronomy of Eastern North America,,,,George E. Lankford,2007,1,University Alabama Press,,320,0,English,265,,до 2011-01,"081735428X,9780817354282,0817315683,9780817315689",,,,,,,,,OL17238699M,,0,,,,,,1,1,1367520,pdf,F71AE7D0D55B18C96DCADF3C36EEF4E6,,,D:\\!genesis\\library.nu\\f7\\_293474.f71ae7d0d55b18c96dcadf3c36eef4e6.pdf,0,2000-01-01 01:00:00,2016-04-03 02:51:08,446000/f71ae7d0d55b18c96dcadf3c36eef4e6-d.jpg,,
21740187,Guidelines for Preventive Activities in General Practice (Res Book),,,,The Royal Australian College of General Practitioners,2009,,,,98,0,English,,,до 2011-01,0-86906-212-3,,,,,,,,,,,0,,,,,,1,1,441921,pdf,F7D83EB093847E9A8E0115350321EB00,,,D:\\!genesis\\library.nu\\f7\\_293419.f7d83eb093847e9a8e0115350321eb00.pdf,0,2000-01-01 01:00:00,2016-04-03 02:51:08,446000/f7d83eb093847e9a8e0115350321eb00-g.jpg,,
21740188,"Aeration: Principles and Practice, Volume 11 (Water Quality Management Library)",,,,"James Mueller, William C. Boyle, Ing. H. Johannes Popel",2002,1,CRC Press,,368,0,English,,,до 2011-01,"1566769485,9781566769488",,,,,,,,,OL17047414M,,0,,,,,,1,1,31638512,pdf,F76DF70F79530EC5440C02E86BF5D8DF,,,D:\\!genesis\\library.nu\\f7\\_293113.f76df70f79530ec5440c02e86bf5d8df.pdf,0,2000-01-01 01:00:00,2016-04-03 02:51:08,446000/f76df70f79530ec5440c02e86bf5d8df-d.jpg,,
21740189,Symbolic Logic: A First Course,,,,Gary M. Hardegree,1999,3,Mcgraw-Hill College,,461,0,English,130,,до 2011-01,"0072390271,9780072390278",,,,,,,,,OL7303315M,"missing front matter (title page, copyright page, contents, …)",0,,,,,,,1,1507216,pdf,F747C954064367300AF9FFE48E1B2633,,,D:\\!genesis\\library.nu\\f7\\_292952.f747c954064367300af9ffe48e1b2633.pdf,0,2000-01-01 01:00:00,2016-04-03 02:51:08,446000/f747c954064367300af9ffe48e1b2633-g.jpg,,
21740190,Bupleurum Species: Scientific Evaluation and Clinical Applications,,Traditional Herbal Medicines for Modern Times,7,Sheng-Li Pan,2006,1,"CRC Press, Taylor & Francis","London, New York",272,0,English,137,,до 2011-01,"0849392659,9780849392658",,,,,615/.321,RM666.B855 B87 2006,,,,,0,,,,0,,0,1,9731260,pdf,F71678904F3F1CC9E2FD903914656329,,,D:/!genesis/library.nu/f7/_292906.f71678904f3f1cc9e2fd903914656329.pdf,0,2000-01-01 01:00:00,2016-04-03 02:51:08,446000/f71678904f3f1cc9e2fd903914656329-d.jpg,,
21740191,Toxicology and Clinical Pharmacology of Herbal Products (Forensic Science and Medicine),,,,Melanie Johns Cupp,2000,1st,Humana Press,,325,0,English,,,до 2011-01,"0896037916,9780896037915",,,,,,,,,OL9579068M,,0,,,,,,,1,1310158,pdf,F7B05D21576745E6CDAD16AB84D51CD8,,,D:\\!genesis\\library.nu\\f7\\_292895.f7b05d21576745e6cdad16ab84d51cd8.pdf,0,2000-01-01 01:00:00,2016-04-03 02:51:08,446000/f7b05d21576745e6cdad16ab84d51cd8-d.jpg,,
21740192,,,Advances in Heterocyclic Chemistry 90,,Alan R. Katritzky (Eds.),2006,1,Academic Press,,1-350,0,English,296,,до 2011-01,978-0-12-020790-9,0065-2725,,,,,,10.1016/S0065-2725,,OL7325170M,,0,,,,,,1,1,2796476,pdf,F7AFBF1B0F95D9D237E73697306C0AF1,,,D:\\!genesis\\library.nu\\f7\\_292431.f7afbf1b0f95d9d237e73697306c0af1.pdf,0,2000-01-01 01:00:00,2016-04-03 02:51:08,446000/f7afbf1b0f95d9d237e73697306c0af1-d.jpg,,
21740193,The History of Information Security: A Comprehensive Handbook,,,,"Karl Maria Michael de Leeuw, Jan Bergstra",2007,,Elsevier Science,,860,0,English,64,,до 2011-01,"0444516085,9780444516084",,,,,,,,,OL10260369M,TOC missing,0,,,,,,1,1,116427257,pdf,F74CB5C035A0C91C6945CB77810A505F,,,D:\\!genesis\\library.nu\\f7\\_292320.f74cb5c035a0c91c6945cb77810a505f.pdf,0,2000-01-01 01:00:00,2016-04-03 02:51:08,446000/f74cb5c035a0c91c6945cb77810a505f-d.jpg,,
21740194,Bacterial Sensors: Synthetic Design and Application Principles (Synthesis Lectures on Synthetic Biology),,,,Jan Roelof van der Meer,2010,1,Morgan & Claypool Publishers,,168,0,English,137,,до 2011-01,"1598299115,9781598299113",,,,,,,10.2200/S00312ED1V01Y201011SBI002,,,,0,,,,,,1,1,2451172,pdf,F7F8A5C57757D7D9CF70D00872192097,,,D:\\!genesis\\library.nu\\f7\\_292186.f7f8a5c57757d7d9cf70d00872192097.pdf,0,2000-01-01 01:00:00,2016-04-03 02:51:08,446000/f7f8a5c57757d7d9cf70d00872192097-d.jpg,,
21740195,An Exceptionally Simple Theory of Everything,,,,A. Garrett Lisi,,,,,31,0,English,,,до 2011-01,,,,,,,,,,,,0,,,,,,,1,624033,pdf,F7DC17C282AC797959C7900C8839AAC7,,,D:\\!genesis\\library.nu\\f7\\_291939.f7dc17c282ac797959c7900c8839aac7.pdf,0,2000-01-01 01:00:00,2016-04-03 02:51:08,446000/f7dc17c282ac797959c7900c8839aac7-g.jpg,,
21740196,Seeing is Believing,,,,Carter Dickson (John Dickson Carr),,,,,159,0,English,,,до 2011-01,,,,,,,,,,,,0,,,,,,,1,709086,pdf,F70016F0BD050C5ADB6320ABCBDA4CE4,,,D:\\!genesis\\library.nu\\f7\\_291811.f70016f0bd050c5adb6320abcbda4ce4.pdf,0,2000-01-01 01:00:00,2016-04-03 02:51:08,446000/f70016f0bd050c5adb6320abcbda4ce4-g.jpg,,
21740197,Mijn Mercedes is niet te koop,,,,Jeroen van Bergeijk,2006,,Augustus,,,0,Dutch,,,до 2011-01,"9046702774,9789046702772",,,,,,,,,,,0,,,,,,,,476139,epub,F76F5BC82E2CCA367EECA99B21A149C5,,,D:\\!genesis\\library.nu\\f7\\_291366.f76f5bc82e2cca367eeca99b21a149c5.epub,0,2000-01-01 01:00:00,2016-04-03 02:51:08,446000/F76F5BC82E2CCA367EECA99B21A149C5-g.jpg,,
21740198,Design of Image Processing Embedded Systems Using Multidimensional Data Flow,,Embedded Systems,,"Joachim Keinert, Jürgen Teich (auth.)",2011,1,Springer-Verlag New York,,314,0,English,116,,до 2011-01,1441971815,,,,,,,10.1007/978-1-4419-7182-1,,,,0,,,,,,1,1,9877511,pdf,F79018B0AE401FA278DCFAB51AA0C29B,,,D:\\!genesis\\library.nu\\f7\\_291310.f79018b0ae401fa278dcfab51aa0c29b.pdf,0,2000-01-01 01:00:00,2016-04-03 02:51:08,446000/f79018b0ae401fa278dcfab51aa0c29b-d.jpg,,
21740199,التحليل الرياضي: التوابع ذات متغيرات حقيقية متعددة، الجزء الأول,,,,ج. شيلوف,,,ديوان المطبوعات الجامعية-الجزائر,,728,0,Arabic,,,до 2011-01,,,,,,,,,,,,0,,,,,,1,0,12620587,pdf,F77CED47E5F8F5D4FF77BDD4B3A79505,,,D:\\!genesis\\library.nu\\f7\\_291089.f77ced47e5f8f5d4ff77bdd4b3a79505.pdf,0,2000-01-01 01:00:00,2016-04-03 02:51:08,446000/f77ced47e5f8f5d4ff77bdd4b3a79505-g.jpg,,
21740200,Less Than Zero,,,,Bret Easton Ellis,2010,,Picador,,,0,English,,,до 2011-01,,,,,,,,,,,,0,,,,,,,,132710,epub,F78C5251B20FBB2ED5377ED2A62B236F,,,D:\\!genesis\\library.nu\\f7\\_290942.f78c5251b20fbb2ed5377ed2a62b236f.epub,0,2000-01-01 01:00:00,2016-04-03 02:51:08,446000/F78C5251B20FBB2ED5377ED2A62B236F-g.jpg,,
21740201,Man and Woman: An Inside Story,,,,Donald W. Pfaff  PhD,2010,1,"Oxford University Press, USA",,233,0,English,,,до 2011-01,"0195388844,9780195388848",,,,,155.3/3,BF692.2 .P43 2011,,,OL24468421M,,0,,,,,,1,1,7206323,pdf,F73366CB80D73825C8B739CA600FC4C9,,,D:\\!genesis\\library.nu\\f7\\_290764.f73366cb80d73825c8b739ca600fc4c9.pdf,0,2000-01-01 01:00:00,2016-04-03 02:51:08,446000/f73366cb80d73825c8b739ca600fc4c9-d.jpg,,
21740202,Resumen - Secretos de las negociaciones poderosas,,,,Roger Dawson,,,,,3,0,Spanish,,,до 2011-01,,,,,,,,,,,,0,,,,,,,1,68154,pdf,F7ADFAE3BFBD7E8F64BF32E23830C523,,,D:\\!genesis\\library.nu\\f7\\_290646.f7adfae3bfbd7e8f64bf32e23830c523.pdf,0,2000-01-01 01:00:00,2016-04-03 02:51:08,446000/f7adfae3bfbd7e8f64bf32e23830c523-g.jpg,,
21740203,"Midnight Man (Midnight Series, Book 1)",,,,Lisa Marie Rice,2004,,"Ellora's Cave Publishing, Inc",,220,0,English,,,до 2011-01,"1419950509,9781419950506",,,,,,,,,OL8484225M,,0,,,,,,,1,573159,pdf,F71AFAB435B1A3D7C6044C535CC5C4C1,,,D:\\!genesis\\library.nu\\f7\\_290481.f71afab435b1a3d7c6044c535cc5c4c1.pdf,0,2000-01-01 01:00:00,2016-04-03 02:51:08,446000/f71afab435b1a3d7c6044c535cc5c4c1-d.jpg,,
21740204,U.S. Imperialism and Revolution in the Philippines,,,,E. San Juan Jr.,2007,First Edition,,,296,0,English,,,до 2011-01,"1403983763,9781403983763,9780230607033",,,,,959.9/031,DS685 .S22 2007,,,OL19568002M,,0,,,,,1,1,1,1294399,pdf,F728619047247747C43CE2C59143C007,,,D:\\!genesis\\library.nu\\f7\\_29042.f728619047247747c43ce2c59143c007.pdf,0,2000-01-01 01:00:00,2016-04-03 02:51:08,446000/f728619047247747c43ce2c59143c007-d.jpg,,
21740205,Neues Theologisches Worterbuch,,,,Herbert Vorgrimler,2000,2. Aufl,Verlag Herder,,698,0,German,,,до 2011-01,"3451273403,9783451273407",,,,,230/.2/03,BR95 .V67 2000,,,OL3999999M,,0,,,,,,1,1,4974193,pdf,F7269CD4A81221534AEE6DD2CCFB4FF8,,,D:\\!genesis\\library.nu\\f7\\_290419.f7269cd4a81221534aee6dd2ccfb4ff8.pdf,0,2000-01-01 01:00:00,2016-04-03 02:51:08,446000/f7269cd4a81221534aee6dd2ccfb4ff8-d.jpg,,
21740206,Parzival and Titurel (Oxford World's Classics),,,,Wolfram von Eschenbach,2006,,"Oxford University Press, USA",,452,0,English,183,,до 2011-01,"0192806157,9780192806154",,,,,,,,,OL7383424M,,0,,,,,,1,1,1393108,pdf,F71822E0E59B07A4ED0961AA564823F1,,,D:\\!genesis\\library.nu\\f7\\_289971.f71822e0e59b07a4ed0961aa564823f1.pdf,0,2000-01-01 01:00:00,2016-04-03 02:51:08,446000/f71822e0e59b07a4ed0961aa564823f1-d.jpg,,
21740207,The BBC News Styleguide,,,,John Allen,,,,,92,0,English,181,,до 2011-01,,,,,,,,,,,,0,,,,,,,1,282573,pdf,F7660FC154900465CCC101A34F141F5E,,,D:\\!genesis\\library.nu\\f7\\_289308.f7660fc154900465ccc101a34f141f5e.pdf,0,2000-01-01 01:00:00,2016-04-03 02:51:08,446000/f7660fc154900465ccc101a34f141f5e-g.jpg,,
21740208,No and Me,,,,Delphine de Vigan,2010,,Bloomsbury USA Children's Books,,256,0,English,,,до 2011-01,"1599904799,9781599904795",,,,,,,,,OL23909023M,,0,,,,,,,1,1565913,pdf,F787D6C73C2D9EA2FE3B35125F9B6F80,,,D:\\!genesis\\library.nu\\f7\\_289207.f787d6c73c2d9ea2fe3b35125f9b6f80.pdf,0,2000-01-01 01:00:00,2016-04-03 02:51:08,446000/f787d6c73c2d9ea2fe3b35125f9b6f80-d.jpg,,
21740209,The Philidor Files: Detailed Coverage of a Dynamic Opening (Everyman Chess),,,,Christian Bauer,2007,1st,Everyman Chess,,304,0,English,46,,до 2011-01,"1857444361,9781857444360",,,,,,,,,OL9000001M,,0,,,,,,,0,2592383,djvu,F7C7DBAEA182EC4FA56C933FA424218B,b3f4146f543bf03c3ccf237f952d5155,no,D:\\!genesis\\library.nu\\f7\\_289133.f7c7dbaea182ec4fa56c933fa424218b.djvu,0,2000-01-01 01:00:00,2016-04-03 02:51:08,446000/f7c7dbaea182ec4fa56c933fa424218b-d.jpg,,
21740210,Asterix et les Goths,,,,Rene Goscinny,2004,,,,47,0,French,,,до 2011-01,2012101356,,,,,,,,,,,0,,,,,1,,0,15784310,pdf,F7C7075314090FFDE0C5039F566B7E5C,,,D:\\!genesis\\library.nu\\f7\\_28894.f7c7075314090ffde0c5039f566b7e5c.pdf,0,2000-01-01 01:00:00,2016-04-03 02:51:08,446000/f7c7075314090ffde0c5039f566b7e5c-d.jpg,,
21740211,An Introduction to Childhood Studies,,,,Mary Jane Kehily,2008,2,Open University Press,,244,0,English,183,,до 2011-01,"0335228704,9780335228706",,,,,,,,,,,0,,,,,,,1,1175859,pdf,F77A340E6010F663A5EF6AEBBCC5F0E3,,,D:\\!genesis\\library.nu\\f7\\_288887.f77a340e6010f663a5ef6aebbcc5f0e3.pdf,0,2000-01-01 01:00:00,2016-04-03 02:51:08,446000/f77a340e6010f663a5ef6aebbcc5f0e3-d.jpg,,
21740212,Como Ganar a Tu Papa Al Ajedrez (Spanish Edition),,,,Murray Chandler,2002,,Gambit Publications,,128,0,Spanish,,,до 2011-01,"1901983641,9781901983647",,,,,,,,,OL8764351M,,0,,,,,,,0,3765695,pdf,F74EBE80AAB7BCBFF248B38F8C260126,,,D:\\!genesis\\library.nu\\f7\\_288858.f74ebe80aab7bcbff248b38f8c260126.pdf,0,2000-01-01 01:00:00,2016-04-03 02:51:08,446000/f74ebe80aab7bcbff248b38f8c260126-d.jpg,,
21740213,The Dystonia Patient: A Guide to Practical Management,,,,Michael S. Okun,2009,1,Demos Medical Publishing,,283,0,English,,,до 2011-01,"1933864621,9781933864624",,,,,616.8/3,RC935.D8 .D975 2009,,,OL22672192M,,0,,,,,,,1,1333508,pdf,F760D8EA54230C5F44CAE7378ABDA83C,,,D:\\!genesis\\library.nu\\f7\\_288773.f760d8ea54230c5f44cae7378abda83c.pdf,0,2000-01-01 01:00:00,2016-04-03 02:51:08,446000/f760d8ea54230c5f44cae7378abda83c-d.jpg,,
21740214,"iWoz: Computer Geek to Cult Icon: How I Invented the Personal Computer, Co-Founded Apple, and Had Fun Doing It",,,,Steve Wozniak,2007,First Edition first Printing,W. W. Norton & Company,,288,0,English,69,,до 2011-01,"9780393061437,9780393330434,0393061434",,,,,,,,,OL17205556M,,0,,,,,,,1,4143133,epub,F71DEA6AE0554B7672C901B54248EF23,,,D:\\!genesis\\library.nu\\f7\\_287908.f71dea6ae0554b7672c901b54248ef23.epub,0,2000-01-01 01:00:00,2016-04-03 02:51:08,446000/F71DEA6AE0554B7672C901B54248EF23-g.jpg,,
21740215,"Naturally Ventilated Buildings: Building for the senses, the economy and society",,,,Derek Clements-Croome,1998,1st ed,Spon Press,,198,0,English,305,,до 2011-01,"0419215204,9780419215202",,,,,697.9/2,TH7674 .N38 1997,,,OL283764M,,0,,,,,,1,1,2178389,pdf,F763C9582A2FA16E3F2EA12617D5C6CC,,,D:\\!genesis\\library.nu\\f7\\_287229.f763c9582a2fa16e3f2ea12617d5c6cc.pdf,0,2000-01-01 01:00:00,2016-04-03 02:51:08,446000/f763c9582a2fa16e3f2ea12617d5c6cc-d.jpg,,
21740216,Two Minds: Intuition and Analysis in the History of Economic Thought,,,,Roger Frantz,2004,1,Springer,,178,0,English,64,,до 2011-01,"0387240691,0387239340,0387232567",,,,,,,,,OL7444499M,,0,,,,,,,1,11472197,pdf,F7DB9E0503FEC017B7F0868A9A8C9970,,,D:\\!genesis\\library.nu\\f7\\_286903.f7db9e0503fec017b7f0868a9a8c9970.pdf,0,2000-01-01 01:00:00,2016-04-03 02:51:08,446000/f7db9e0503fec017b7f0868a9a8c9970-d.jpg,,
