5573159,First course in abstract algebra: with applications,,,,Joseph J. Rotman,2005,3,Prentice Hall,,629,0,English,Математика//Алгебра,kolxoz,21,"9780131862678,0131862677",,,,,512/.02,QA162 .R68 2006,,,OL3428809M,,0,,,,,1,,1,4504596,pdf,9F33AADCB6591CB3D8575E8F971A0131,,,"M_Mathematics/MA_Algebra/MAa_Abstract algebra/Rotman J.J. First course in abstract algebra.. with applications (3ed., PH, 2005)(ISBN 0131862677)(629s)_MAa_.pdf",0,2000-01-01 01:00:00,2016-04-03 02:51:08,3000/9f33aadcb6591cb3d8575e8f971a0131-d.jpg,,
5573158,Extremal combinatorial problems and their applications,,Mathematics and Its Applications,,"B.S. Stechkin, V.I. Baranov",1995,1,Springer,,205,0,English,Математика//Комбинаторика,kolxoz,18,"0792336313,9780792336310,9780585296029",,,,,511/.66,QA164 .B36713 1995,,,OL794517M,,300,,,,,1,,1,1705330,djvu,9F2BCC91D395D58CCA08AF2B5F58876B,,,"M_Mathematics/MA_Algebra/MAc_Combinatorics/Stechkin B., Baranov V. Extremal combinatorial problems and their applications (Kluwer, 1995)(T)(ISBN 0792336313)(205s)_MAc_.djvu",0,2000-01-01 01:00:00,2016-04-03 02:51:08,3000/9f2bcc91d395d58cca08af2b5f58876b-d.jpg,,
5573157,Graphs,,North-Holland Mathematical Library,,C. Berge,1989,3,North Holland,,424,0,English,Математика//Дискретная математика,kolxoz,14,"0444876030,9780444876034",,,,,511/.5,QA166 .B389513 1985,,,OL2856145M,,300,,1,,,1,,1,3694422,djvu,9EF02FE66816A7EFB8E004E5472D9B17,,,"M_Mathematics/MA_Algebra/MAc_Combinatorics/Berge C. Graphs (3rd ed., Elsevier, 1991)(K)(T)(ISBN 0444876030)(424s)_MAc_.djvu",0,2000-01-01 01:00:00,2016-04-03 02:51:08,3000/9ef02fe66816a7efb8e004e5472d9b17.jpg,,
5573156,Rational points,,Aspects of Mathematics,,"Gerd Faltings, Gisbert Wuestholz, et al",1992,3rd,Friedrich Vieweg & Sohn Verlag,Bonn,330,0,English,Математика//Алгебра,kolxoz,14,"3528285931,9783528285937",,,,,516.3/5,QA564 .R37 1992,,,OL1349763M,,300,,,,,1,,1,1747370,djvu,9E710687D42E4024DEAA624047294DC8,,,"M_Mathematics/MA_Algebra/MAg_Algebraic geometry/Faltings G., Wuestholz G., et al. Rational points (Proc.Bonn 1983, Vieweg, 1992)(T)(ISBN 3528285931)(330s)_MAg_.djvu",0,2000-01-01 01:00:00,2016-04-03 02:51:08,3000/9e710687d42e4024deaa624047294dc8-d.jpg,,
5573155,Differential Galois theory,,Mathematics and Its Applications,,J. F. Pommaret,1983,1,Routledge,,766,0,English,Математика//Алгебра,kolxoz,18,"0677056702,9780677056708",,,,,515.3/53,QA374 .P63 1983,,,OL4260654M,,300,,1,,,1,,1,4299543,djvu,9E1FE4DCD09B6B619F00DD1CB8C83A02,,,M_Mathematics/MA_Algebra/MAd_Differential algebra/Pommaret J.F. Differential Galois theory (1983)(KA)(T)(ISBN 0677056702)(766s)_MAd_.djvu,0,2000-01-01 01:00:00,2016-04-03 02:51:08,3000/9e1fe4dcd09b6b619f00dd1cb8c83a02.jpg,,
5573154,Семинар ГЛОБУС 2,,,,"Цфасман М.А., Прасолов В.В.",2005,,МЦНМО,,216,0,Russian,Математика,kolxoz,13,5-94057-064-X,,,,,,,,,,,600,,,,,,,,2552600,djvu,9E153C14E2A772678B2911A5269FA95C,,,"M_Mathematics/Cfasman M.A., Prasolov V.V. Seminar GLOBUS 2 (MCNMO, 2005)(ru)(600dpi)(T)(216s).djvu",0,2000-01-01 01:00:00,2016-04-03 02:51:08,3000/9e153c14e2a772678b2911a5269fa95c.jpg,,
5573153,"Selected papers of Richard von Mises (Probability and Statistics, General)",Volume 2,,,,1964,,,,577,0,English,Математика//Математическая статистика,kolxoz,19,,,,,,,,,,,,600,,,,,,,T,7335024,djvu,9D632D7B9A4306839898D1603569975B,,,"M_Mathematics/Selected papers of Richard von Mises (Vol. 2, Probability and Statistics, General) (1964)(600dpi)(T)(577s).djvu",0,2000-01-01 01:00:00,2016-04-03 02:51:08,3000/9d632d7b9a4306839898d1603569975b.jpg,,
5573152,A first course in noncommutative rings,,"Graduate Texts in Mathematics, Vol 131",,T.Y. Lam,1991,,Springer-Verlag,,209,0,English,Математика//Алгебра,kolxoz,8,"0387975233,9780387975238",,,,,512/.4,QA251.4 .L36 1991,,,OL2029614M,,300,,,1,,1,,,5563093,djvu,9D2E4B05A7455C010C24A95BA1F26722,,,"M_Mathematics/MA_Algebra/MAa_Abstract algebra/Lam T.Y. A first course in noncommutative rings (Springer, 1991)(ISBN 0387975233)(L)(T)(209s).djvu",0,2000-01-01 01:00:00,2016-04-03 02:51:08,3000/9d2e4b05a7455c010c24a95ba1f26722-d.jpg,,
5573151,Comprehensive mathematics for computer scientists 2,,Universitext ,,"Guerino Mazzola, Gérard Milmeister, Jody Weissmann",2004,1,Springer,,350,0,English,Математика,kolxoz,19,"3540208615,9783540208617",,,,,,,,,OL3313729M,,0,,,,,1,,1,2792716,pdf,9C201C7E25399CFB728DDC5916EB7CCE,,,"M_Mathematics/Mazzola G., Milmeister G., Weissmann J. Comprehensive mathematics for computer scientists 2 (Springer, 2005)(ISBN 3540208615)(350s)_M_.pdf",0,2000-01-01 01:00:00,2016-04-03 02:51:08,3000/9c201c7e25399cfb728ddc5916eb7cce-d.jpg,,
5573150,Algebraic geometry,,,,Daniel Bump,1998,,World Scientific Publishing Company,,219,0,English,Математика//Геометрия и топология,kolxoz,18,"9789810235611,9810235615,9789812386342",,,,,516.3/5,QA564 .B775 1998,,,OL379975M,,300,,,,,1,,1,2027198,djvu,9BB3D039DE15776C1DBF515F129F3F42,,,"M_Mathematics/MA_Algebra/MAg_Algebraic geometry/Bump D. Algebraic geometry (WS, 1998)(T)(ISBN 9810235615)(219s)_MAg_.djvu",0,2000-01-01 01:00:00,2016-04-03 02:51:08,3000/9bb3d039de15776c1dbf515f129f3f42-d.jpg,,
5573149,Enumerative combinatorics(conservative),,Discrete Mathematics and Its Applications,,Charalambos A. Charalambides,2002,1,Chapman and Hall/CRC,,624,0,English,Математика//Комбинаторика,kolxoz,18,"1584882905,9781584882909",,,,,,,,,OL8795302M,,300,,1,,,1,,1,4442495,djvu,9BA89E1E07B2AE331BB0975B2C8BBD9F,,,"Charalambides C. Enumerative combinatorics (DMA, CRC, 2002)(ISBN 1584882905)(624s).djvu",0,2000-01-01 01:00:00,2016-04-03 02:51:08,3000/9ba89e1e07b2ae331bb0975b2c8bbd9f-d.jpg,,
5573148,Synthetic differential geometry,,London Mathematical Society Lecture Note Series,,Anders Kock,1981,,Cambridge University Press,,160,0,English,Математика//Геометрия и топология,kolxoz,14,"9780521241380,0521241383",,,,,516.3/6,QA641 .K73 1981,,,OL4260460M,,300,,,1,,1,,,1841290,djvu,9BA5410ABF11F08CABD05C298BC26BF8,,,"M_Mathematics/MA_Algebra/MAct_Category theory/Kock A. Synthetic differential geometry (CUP, 1981)(L)(T)(ISBN 0521241383)(160s)_MAct_.djvu",0,2000-01-01 01:00:00,2016-04-03 02:51:08,3000/9ba5410abf11f08cabd05c298bc26bf8.jpg,,
5573147,Rings with generalized identities,,Pure and Applied Mathematics,,"Konstant J. Beidar, Wallace S. Martindale, Alexander A. Mikhalev",1995,1,CRC Press,,531,0,English,Математика//Алгебра,kolxoz,14,"0824793250,9780824793258,9780585400303",,,,,512/.4,QA251.3 .B45 1996,,,OL804217M,,150,,,,,1,,1,4205000,djvu,9AFCB6CF9F7E9A6864D492D7FC3BB2BD,,,"M_Mathematics/MA_Algebra/MAa_Abstract algebra/Beidar K.I., Martindale W.S., Mikhalev A.V. Rings with generalized identities (M.Dekker1995)(ISBN 0824793250)(150dpi)(T)(531s)_MAa_.djvu",0,2000-01-01 01:00:00,2016-04-03 02:51:08,3000/9afcb6cf9f7e9a6864d492d7fc3bb2bd-d.jpg,,
5573146,Jordan pairs,,LNM0460,,Ottmar Loos,1975,,Springer-Verlag,,234,0,English,Математика//Алгебра,kolxoz,21,"9780387071664,0-387-07166-0",,,,,"510/.8 s,512/.24","QA3 .L28 no. 460,QA252.5 .L28 no. 460",,,OL5189765M,,300,,,,,,,,1216073,djvu,9ACC73BDB8CE194CEE3A0C6061D4B448,,,"M_Mathematics/MA_Algebra/MAa_Abstract algebra/Loos O. Jordan pairs (LNM0460, Springer, 1975)(T)(234s)_MAa_.djvu",0,2000-01-01 01:00:00,2016-04-03 02:51:08,3000/9acc73bdb8ce194cee3a0c6061d4b448.jpg,,
5573145,A primer of algebraic D-modules,,London Mathematical Society Student Texts,,S. C. Coutinho,1995,,Cambridge University Press,,219,0,English,Математика//Алгебра,kolxoz,18,"0521551196,9780521551199",,,,,512/.4,QA614.3 .C68 1995,,,OL1275067M,,300,,1,,,1,,T,1142911,djvu,9AA8AE097B0DF63CFA5B6C8E8DC00548,,,"M_Mathematics/MA_Algebra/MAd_Differential algebra/Coutinho S.C. A primer of algebraic D-modules (Cambridge, 1995)(KA)(T)(ISBN 0521551196)(219s)_MAd_.djvu",0,2000-01-01 01:00:00,2016-04-03 02:51:08,3000/9aa8ae097b0df63cfa5b6c8e8dc00548-d.jpg,,
5573144,Handbook of categorical algebra. Basic category theory,Volume 1,Encyclopedia of Mathematics and its Applications,,Francis Borceux,1994,,Cambridge University Press,,358,0,English,Математика//Алгебра,kolxoz,18,"0521441781,9780521441780",,,,,512/.55,QA169 .B67 1994,,,OL1395853M,,600,,1,,,1,,1,2855009,djvu,9A8F349A6E9F229C2A228417B012DBF0,,,"M_Mathematics/MA_Algebra/MAa_Abstract algebra/Borceux F. Handbook of categorical algebra. Vol. 1. Basic category theory (CUP, 1994)(K)(600dpi)(T)(ISBN 0521441781)(358s)_MAa_.djvu",0,2000-01-01 01:00:00,2016-04-03 02:51:08,3000/9a8f349a6e9f229c2a228417b012dbf0-d.jpg,,
5573143,Прикладная комбинаторная математика (сборник переводов),,,,Беккенбах. (ред.),1968,,Мир,,362,0,Russian,Математика,kolxoz,14,,,,,,,,,,,,300,,,,,,,T,3669249,djvu,9A31EBAC8EE7F482C0C01B6A356A8D19,,,"M_Mathematics/MA_Algebra/MAc_Combinatorics/Bekkenbah (red.). Prikladnaja kombinatornaja matematika (sbornik perevodov)(Mir, 1968)(ru)(T)(362s)_MAc_.djvu",0,2000-01-01 01:00:00,2016-04-03 02:51:08,3000/9a31ebac8ee7f482c0c01b6a356a8d19.jpg,,
5573142,Introduction to differential algebra,,,,Kaplansky I.,1957,,Paris,,31,0,English,Математика//Алгебра,kolxoz,8,,,,,,,,,,,,300,,,1,,,,,816514,djvu,9A00FA30800762E05FDAD3E76DBFF646,,,"M_Mathematics/MA_Algebra/MAd_Differential algebra/Kaplansky I. Introduction to differential algebra (Paris, 1957)(L)(T)(31s).djvu",0,2000-01-01 01:00:00,2016-04-03 02:51:08,3000/9a00fa30800762e05fdad3e76dbff646.jpg,,
5573141,Algebraic Curves. An Introduction to Algebraic Geometry,,,,Fulton W.,1969,,Addison~Wesley,,234,0,English,Математика//Геометрия и топология,kolxoz,18,,,,,,,,,,,,300,,1,,,,,T,2012122,djvu,99DF862354163EB67E2285C3A971425B,,,"M_Mathematics/MA_Algebra/MAg_Algebraic geometry/Fulton W. Algebraic Curves. An Introduction to Algebraic Geometry (Addison-Wesley, 1969)(T)(K)(300dpi)(234s)_MAg_.djvu",0,2000-01-01 01:00:00,2016-04-03 02:51:08,3000/99df862354163eb67e2285c3a971425b.jpg,,
5573140,La theorie de Fredholm,,BSMF 84,,Grothendieck.,1956,,,,67,0,French,Математика//Алгебра,kolxoz,8,,,,,,,,,,,,600,,,,,,,,2284581,djvu,99A8B041864AD34DD862769962076F36,,,"M_Mathematics/MA_Algebra/MAg_Algebraic geometry/Grothendieck. La theorie de Fredholm (BSMF 84, 1956)(fr)(600dpi)(T)(67s).djvu",0,2000-01-01 01:00:00,2016-04-03 02:51:08,3000/99a8b041864ad34dd862769962076f36.jpg,,
5573139,"On quaternions and octonions: their geometry, arithmetic and symmetry",,,,"John Horton Conway, Derek Smith",2003,1st,A K Peters/CRC Press,,169,0,English,Математика//Геометрия и топология,kolxoz,21,"9781568811345,1568811349",,,,,,,,,OL17077799M,,300,,1,,,1,,T,945033,djvu,98CEF04354CB47E2B1C868621E701BBA,,,"M_Mathematics/MA_Algebra/MAa_Abstract algebra/Conway J.H., Smith D.A. On quaternions and octonions.. their geometry, arithmetic and symmetry (AK Peters, 2003)(ISBN 1568811349)(K)(T)(O)(169s)_MAa_.djvu",0,2000-01-01 01:00:00,2016-04-03 02:51:08,3000/98cef04354cb47e2b1c868621e701bba-d.jpg,,
5573138,Galois Theories,,Cambridge Studies in Advanced Mathematics,,"Francis Borceux, George Janelidze",2001,1,Cambridge University Press,,353,0,English,Математика//Алгебра,kolxoz,18,"0521803098,9780521803090",,,,,,,,,OL7754794M,,600,,1,,,1,,1,2343084,djvu,9814E0380342516C097B185EFB81586F,,,"Borceux F., Janelidze G. Galois theories (CSAM 72, CUP, 2001)(ISBN 0521803098)(353s).djvu",0,2000-01-01 01:00:00,2016-04-03 02:51:08,3000/9814e0380342516c097b185efb81586f-d.jpg,,
5573137,Lectures on D-modules,,,,Ginzburg V.,1998,,,,103,0,English,Математика//Алгебра,kolxoz,8,,,,,,,,,,,,300,,,,,,,,999012,djvu,97F3B03DB5E2FAC792C0F75E442A70FF,,,M_Mathematics/MA_Algebra/MAg_Algebraic geometry/Ginzburg V. Lectures on D-modules (1998)(T)(103s).djvu,0,2000-01-01 01:00:00,2016-04-03 02:51:08,3000/97f3b03db5e2fac792c0f75e442a70ff.jpg,,
5573136,Vorlesungen ueber die Entwicklung der Mathematik im 19. Jahrhundert,,,,"Felix Klein, Richard Courant, Otto Neugebauer, Stefan Cohn-Vossen",1979,Reprint der Erstausgaben Berlin 1926/27.,Springer,,620,0,German,Математика,kolxoz,18,"3540092358,9783540092353",,,,,,,,,,,600,,,,,1,,1,7914144,djvu,97E4FB8CD602FE4B33D5CC0B7BB73D8C,,,"M_Mathematics/Klein F. Vorlesungen ueber die Entwicklung der Mathematik im 19. Jahrhundert (Springer, 1979)(de)(600dpi)(T)(O)(620s)_M_.djvu",0,2000-01-01 01:00:00,2016-04-03 02:51:08,3000/97e4fb8cd602fe4b33d5cc0b7bb73d8c.jpg,,
5573135,Algorithmic algebra,,Monographs in Computer Science,,Bhubaneswar Mishra,1993,1,Springer,,216,0,English,Математика//Алгебра,kolxoz,8,"0387940901,9780387940908",,,,,512/.00285,QA155.7.E4 M57 1993,,,OL1405838M,,300,,,1,,1,,,4180133,djvu,974187D22AEA4B9E59EE3A18855B1D8F,,,"M_Mathematics/MA_Algebra/MAco_Computational algebra/Mishra B. Algorithmic algebra (Springer, 1993)(ISBN 0387940901)(L)(T)(216s).djvu",0,2000-01-01 01:00:00,2016-04-03 02:51:08,3000/974187d22aea4b9e59ee3a18855b1d8f-d.jpg,,
5573134,Основы теории категорий,,,,"Цаленко М., Шульгейфер Е.",1974,,Наука,,129,0,Russian,Математика//Алгебра,kolxoz,8,,,,,,,,,,,,300,,,1,,,,,2193909,djvu,973867AF33FCF7171D61B61BBE327CD1,,,"M_Mathematics/MA_Algebra/MAct_Category theory/Calenko M., Shul#gejfer E. Osnovy teorii kategorij (Nauka,1974)(ru)(L)(T)(129s)_MAct_.djvu",0,2000-01-01 01:00:00,2016-04-03 02:51:08,3000/973867af33fcf7171d61b61bbe327cd1.jpg,,
5573133,Oeuvres,Tome 8,,,Lagrange J.L.,1879,,Gauthier~Villars,,366,0,French,Математика,kolxoz,13,,,,,,,,,,,,600,,,,,,,T,4530224,djvu,970D9473CF581282A2604DEC08F18508,,,"M_Mathematics/Lagrange J.L. Oeuvres, Tome 08 (Gauthier-Villars 1879)(fr)(600dpi)(T)(366s).djvu",0,2000-01-01 01:00:00,2016-04-03 02:51:08,3000/970d9473cf581282a2604dec08f18508.jpg,,
5573132,Introduction to Grothendieck duality theory ,,LNM0146,,Allen Altman,1970,,Springer-Verlag,,96,0,English,Математика//Алгебра,kolxoz,8,"9783540049357,3540049355",,B0006CUGAG,,,,,,,,,150,,,1,,1,,T,1045579,djvu,96D9E3394D95311B3CCA5EE9ED656AB8,,,"M_Mathematics/MA_Algebra/MAg_Algebraic geometry/Altman A., Kleiman S. Introduction to Grothendieck duality theory (Springer LNM0146, 1970)(150dpi)(L)(T)(96s).djvu",0,2000-01-01 01:00:00,2016-04-03 02:51:08,3000/96d9e3394d95311b3cca5ee9ed656ab8.jpg,,
5573131,Монодромия в задачах алгебраической геометрии и дифференциальных уравнений. Труды МИРАН,Выпуск 238,,,,2002,,Наука,,224,0,Russian,Математика,kolxoz,15,5020064246,,,512.7+517.9,22.147,,,,,,,600,0,1,,,,,,3377788,djvu,96CDD1C6520961479869B32BB292C048,,,"M_Mathematics/Trudy MIRAN, vyp.238. Monodromiya v zadachah algebraicheskoj geometrii i differencial#nyh uravnenij (Nauka, 2002)(ISBN 5020064246)(ru)(600dpi)(T)(224s).djvu",0,2000-01-01 01:00:00,2016-04-03 02:51:08,3000/96cdd1c6520961479869b32bb292c048.jpg,,
5573130,Избранные труды. Дифференциальные уравнения и теория вероятностей,Книга 2,,,Петровский И.Г.,1982,,Наука,,424,0,Russian,Математика//Дифференциальные уравнения,infanata,15,,,,,,,,,,,,300,,,,,,,,6220716,djvu,96C4078AE3D6C02F312A85F3AEBF183D,,,N:\\natahaus\\2007\\2007-07\\07 07 2007\\Петровский И.Г. Избранные труды. Дифференциальные уравнения и теория вероятностей 1982.djvu,0,2000-01-01 01:00:00,2016-04-03 02:51:08,3000/96c4078ae3d6c02f312a85f3aebf183d.jpg,,
5573129,Asymptotic enumeration methods,,,,Odlyzko.,,,,,192,0,English,Математика//Дискретная математика,kolxoz,8,,,,,,,,,,,,0,,,,,,,,1116716,pdf,96BD80B346614C0EA1F275D3505D1A3E,,,M_Mathematics/MA_Algebra/MAc_Combinatorics/Odlyzko. Asymptotic enumeration methods (book)(192s).pdf,0,2000-01-01 01:00:00,2016-04-03 02:51:08,3000/96bd80b346614c0ea1f275d3505d1a3e.jpg,,
5573128,On numbers and games,,L.M.S. Monographs ; No. 6,,John Horton Conway,1976,1,Academic Pr,,243,0,English,Математика//Теория чисел,kolxoz,14,"0121863506,9780121863500",,,,,519.3,QA241 .C69,,,OL5197254M,,300,,,,,1,,1,2209795,djvu,964A0D34A25462EDD40F7A9EA1905402,,,"M_Mathematics/MA_Algebra/MAc_Combinatorics/Conway J.H. On numbers and games (AP, 1976)(T)(ISBN 0121863506)(243s)_MAc_.djvu",0,2000-01-01 01:00:00,2016-04-03 02:51:08,3000/964a0d34a25462edd40f7a9ea1905402.jpg,,
5573127,Integral representations and computation of combinatorial sums,,Translations of Mathematical Monographs VOL 59,,G. P. Egorychev,1984,,American Mathematical Society,,288,0,English,Математика//Вычислительная математика,kolxoz,8,"0821845128,9780821845127",,,,,511/.6,QA164.8 .E3613 1984,,,OL3179792M,,600,,1,,,1,,,2761848,djvu,960B491C675BA4B2AE212E07F2F8B205,,,M_Mathematics/MA_Algebra/MAc_Combinatorics/Egorychev G.P. Integral representations and computation of combinatorial sums (1984)(600dpi)(K)(T)(ISBN 0821845128)(288s)_MAc_.djvu,0,2000-01-01 01:00:00,2016-04-03 02:51:08,3000/960b491c675ba4b2ae212e07f2f8b205-d.jpg,,
5573126,Werke. Wahrscheinlichkeitsrechnung und Geometrie,Band 4,,,Gauss C.F.,1873,,,Goettingen,493,0,German,Математика//Геометрия и топология,kolxoz,13,,,,,,,,,,,,400,,,,,,,,9876219,djvu,95E0980729EA7330A3405299C395810F,,,"M_Mathematics/Gauss C.F. Werke, Band 04. Wahrscheinlichkeitsrechnung und Geometrie(Goettingen, 1873)(de)(la)(400dpi)(T)(493s).djvu",0,2000-01-01 01:00:00,2016-04-03 02:51:08,3000/95e0980729ea7330a3405299c395810f.jpg,,
5573125,Книги XI-XIV,,,,Начала Евклида.,1950,,ГТТИ,,330,0,Russian,Математика,kolxoz,15,,,,,,,,,,,,300,,1,,,,,T,4276605,djvu,95D9CDBBD73F73792CA1E8224752612A,,,"M_Mathematics/Nachala Evklida. Knigi XI-XIV (GTTI, 1950)(KA)(ru)(T)(330s).djvu",0,2000-01-01 01:00:00,2016-04-03 02:51:08,3000/95d9cdbbd73f73792ca1e8224752612a.jpg,,
5573123,Перечислительные задачи комбинаторного анализа. Сборник переводов,,,,Гаврилов. (ред.),1979,,Мир,,364,0,Russian,Математика,kolxoz,18,,,,,,,,,,,,300,,,,,,,T,4218472,djvu,956919DDB81ED8FE8352B8E57D9C6A93,,,"M_Mathematics/MA_Algebra/MAc_Combinatorics/Gavrilov (red.). Perechislitel#nye zadachi kombinatornogo analiza. Sbornik perevodov (Mir, 1979)(ru)(T)(364s)_MAc_.djvu",0,2000-01-01 01:00:00,2016-04-03 02:51:08,3000/956919ddb81ed8fe8352b8e57d9c6a93.jpg,,
5573124,The Theory of Valuations ,,Translations of Mathematical Monographs,,O. F. G. Schilling,1950,,American Mathematical Society,,259,0,English,Математика//Алгебра,kolxoz,21,"0821815040,9780821815045",,,,,,,,,OL9837275M,,600,,1,,,,,1,3054878,djvu,958A567099AA91093474C97D0970D5FD,,,"M_Mathematics/MA_Algebra/MAa_Abstract algebra/Schilling O.F.G. The theory of valuations (AMS, 1950)(K)(600dpi)(T)(259s)_MAa_.djvu",0,2000-01-01 01:00:00,2016-04-03 02:51:08,3000/958a567099aa91093474c97d0970d5fd-d.jpg,,
5573122,Algèbre: Chapitre 4 à 7,,,,N. Bourbaki,2006,,Springer,,425,0,French,Математика,kolxoz,21,"9783540343981,3540343989",,,,,,,,,,,300,,,,,1,,T,3868437,djvu,95626C0E09DD0A05ECD8897FDCEC5E52,,,"M_Mathematics/Bourbaki N. Elements de Mathematique. Algebre. Chapitres 4 a 7 (fr)(Springer,2007)(ISBN 3540343989)(T)(425s)_M_.djvu",0,2000-01-01 01:00:00,2016-04-03 02:51:08,3000/95626c0e09dd0a05ecd8897fdcec5e52-d.jpg,,
5573121,Oeuvres II,,,,Chebyshev P.L.,1961,,Chelsea,,809,0,French,Математика,kolxoz,13,,,,,,,,,,,,300,,,,,,,,7157371,djvu,955EA921DE21ECAA288352AFDD1F7700,,,"M_Mathematics/Chebyshev P.L. Oeuvres II (Chelsea, 1961)(fr)(T)(809s).djvu",0,2000-01-01 01:00:00,2016-04-03 02:51:08,3000/955ea921de21ecaa288352afdd1f7700.jpg,,
5573120,Полное собрание сочинений,Выпуск 1,,,Золотарев Е.И.,1931,,АН СССР,Ленинград,444,0,Russian,Литература,kolxoz,23,,,,,,,,,,,,600,,1,,,,,,7011653,djvu,9558073948F14885A9EEE97FE8A18E56,,,"M_Mathematics/Zolotarev E.I. Polnoe sobranie sochinenij. Vyp. 1 (AN SSSR, Leningrad, 1931)(ru)(K)(600dpi)(T)(444s)_M_.djvu",0,2000-01-01 01:00:00,2016-04-03 02:51:08,3000/9558073948f14885a9eee97fe8a18e56.jpg,,
5573119,Введение в теорию категорий и функторов,,,,"Букур И., Деляну А.",1972,,Мир,,129,0,Russian,Математика//Алгебра,infanata,8,,,,,,,,,,,,300,,,1,,,,,2922326,djvu,952D58627871D92388D79E2F6F8242E5,,,"N:\\natahaus\\2009\\2009-06\\[1146113204]Введение в теорию категорий и функторов.-- Букур И., Деляну А. (Мир, 1972, 259).djvu",0,2000-01-01 01:00:00,2016-04-03 02:51:08,3000/952d58627871d92388d79e2f6f8242e5-d.jpg,,
5573118,A handbook of integer sequences,,,,N. J. A. Sloane,1973,,Academic Pr,,218,0,English,Математика//Алгебра,kolxoz,21,"9780126485509,012648550X",,,,,515/.242,QA292 .S58,,,OL5301032M,,600,,,,,1,,1,1643162,djvu,94C8C4DA485C41E825BC4E553156BC13,,,"M_Mathematics/MA_Algebra/MAco_Computational algebra/Sloane N.J.A. A handbook of integer sequences(AP, 1973)(ISBN 012648550X)(600dpi)(T)(218s)_MAco_.djvu",0,2000-01-01 01:00:00,2016-04-03 02:51:08,3000/94c8c4da485c41e825bc4e553156bc13.jpg,,
5573117,Комбинаторная математика,,,,Райзер Г.,1965,,Мир,,150,0,Russian,Математика,kolxoz,8,,,,,,,,,,,,300,,,,,,,,1249579,djvu,949971E0D58365349A8394D3AB4011CA,,,"M_Mathematics/MA_Algebra/MAc_Combinatorics/Rajzer G. Kombinatornaja matematika (Mir, 1965)(ru)(T)(150s).djvu",0,2000-01-01 01:00:00,2016-04-03 02:51:08,3000/949971e0d58365349a8394d3ab4011ca.jpg,,
5573116,Algebre corporelle,,,,Chambert-Loir A.,2003,draft,,,146,0,French,Математика//Алгебра,kolxoz,8,"2730212175,9782730212175",,,,,,,,,,,300,,,,,1,,T,958293,djvu,945E881312031CE0100490A869AE835B,,,"M_Mathematics/MA_Algebra/Chambert-Loir A. Algebre corporelle (draft, 2003)(fr)(T)(146s).djvu",0,2000-01-01 01:00:00,2016-04-03 02:51:08,3000/945e881312031ce0100490a869ae835b.jpg,,
5573115,A treatise on universal algebra with applications,Volume 1,Cambridge Library Collection - Mathematics ,,Alfred North Whitehead,1898,1,Cornell University Library,,610,0,English,Математика//Алгебра,kolxoz,21,"1429700327,9781429700320",,,,,,,,,OL9602365M,,300,,,,,,,1,6600875,djvu,93EA57E1B9FF751F2528BF935C2B65BA,,,"M_Mathematics/MA_Algebra/MAa_Abstract algebra/Whitehead A. A treatise on universal algebra with applications. Vol.1 (CUP, 1898)(T)(610s)_MAa_.djvu",0,2000-01-01 01:00:00,2016-04-03 02:51:08,3000/93ea57e1b9ff751f2528bf935c2b65ba-d.jpg,,
5573114,Exercises in Classical Ring Theory,,Problem Books in Mathematics,,T.Y. Lam,2003,2nd,Springer,,380,0,English,Математика//Алгебра,kolxoz,18,"0387005005,9780387005003,9780387217710",,,,,512/.4,QA247 .L26 2003,,,OL3683168M,,0,,,,,1,,1,1594407,pdf,93AAC51D017EF97B938E1D8C14C7BD09,,,"M_Mathematics/MA_Algebra/MAa_Abstract algebra/Lam T. Exercises in Classical Ring Theory (ISBN 0387005005)(Springer, 2003)(380s)_MAa_.pdf",0,2000-01-01 01:00:00,2016-04-03 02:51:08,3000/93aac51d017ef97b938e1d8c14c7bd09-d.jpg,,
5573113,Новые идеи в математике. Математика и логика,Выпуск 10,,,,2007,2,УРСС,,151,0,Russian,Математика,kolxoz,23,978-5-382-00019-0,,,,,,,,,,,600,,1,,,,,,4692150,djvu,9399124AB69ECF296459C9E3A2F03E67,,,"M_Mathematics/Novye idei v matematike. Vypusk 10. Matematika i logika (2e izd., URSS, 2007)(ru)(K)(600dpi)(T)(151s)_M_.djvu",0,2000-01-01 01:00:00,2016-04-03 02:51:08,3000/9399124ab69ecf296459c9e3a2f03e67.jpg,,
5573112,Enumerative combinatorics,,,,"Richard P. Stanley, Sergey Fomin",2001,1,Cambridge University Press,,138,0,English,Математика//Комбинаторика,kolxoz,8,"9780521789875,0521789877",,,,,,,,,OL7754023M,,300,,,1,,,,,3932492,djvu,92C5636F2A54C50BCDE9970EC08CE279,,,"M_Mathematics/MA_Algebra/MAc_Combinatorics/Stanley R.P. Enumerative combinatorics (Brooks-Cole, 1986)(L)(T)(138s).djvu",0,2000-01-01 01:00:00,2016-04-03 02:51:08,3000/92c5636f2a54c50bcde9970ec08ce279-d.jpg,,
5573111,Model theory and algebraic geometry,,LNM1696,,Elisabeth Bouscaren,1998,Corrected,Springer,,222,0,English,Математика//Геометрия и топология,kolxoz,18,"3540648631,9783540648635",,,,,"510 s,511/.8","QA3 .L28 no. 1696,QA9.7 .L28 no. 1696",,,OL376771M,,300,,,,,,,,1522672,djvu,927B075D8DAC7D70B4E5AE54C6536332,,,"M_Mathematics/MA_Algebra/MAg_Algebraic geometry/Bouscaren E. (ed.) Model theory and algebraic geometry (LNM1696 Springer, 1998)(T)(O)(ISBN 3540648631)(222s)_MAg_.djvu",0,2000-01-01 01:00:00,2016-04-03 02:51:08,3000/927b075d8dac7d70b4e5ae54c6536332-d.jpg,,
5573110,IntÃ©gration: Chapitres 7-8 ,,,,N. Bourbaki,2006,,Springer,,223,0,French,Математика,kolxoz,21,"9783540353249,9783540353256,3540353240",,,,,,,,,OL12774202M,,300,,,,,1,,1,1576601,djvu,925A7F81A2F03F3613A72E2213B87172,,,"M_Mathematics/Bourbaki N. Elements de Mathematique. Integration. Chapitres 7 et 8(Springer, 2007)(fr)(ISBN 3540353240)(T)(223s)_M_.djvu",0,2000-01-01 01:00:00,2016-04-03 02:51:08,3000/925a7f81a2f03f3613a72e2213b87172-d.jpg,,
5573109,Algebraic surfaces,,,,Chen J.,2003,lecture notes,MIT,,34,0,English,Математика//Алгебра,kolxoz,8,,,,,,,,,,,,600,,,,,,,,378339,djvu,91F558DE6AAE4A37C07B7D619369C9E0,,,"M_Mathematics/MA_Algebra/MAg_Algebraic geometry/Chen J. Algebraic surfaces (MIT lecture notes, 2003)(600dpi)(T)(34s).djvu",0,2000-01-01 01:00:00,2016-04-03 02:51:08,3000/91f558de6aae4a37c07b7d619369c9e0.jpg,,
5573108,Comprehensive mathematics for computer scientists,,Universitext,,"Guerino Mazzola, Gérard Milmeister, Jody Weissmann",2006,2nd,Springer,,389,0,English,Математика,kolxoz,19,"3540368736,9783540368731",,,,,004.01/51,QA76.9.M35 M49 2006,,,OL18864168M,,0,,,,0,0,,1,3862255,pdf,917D2F8CFB728E8784D62C018F0EE9C5,,,"M_Mathematics/Mazzola G., Milmeister G., Weissmann J. Comprehensive mathematics for computer scientists 1 (2nd ed.)(Springer, 2006)(ISBN 3540368736)(389s)_M_.pdf",0,2000-01-01 01:00:00,2016-04-03 02:51:08,3000/917d2f8cfb728e8784d62c018f0ee9c5-d.jpg,,
5573107,Set theory,,,,Thomas Jech,2006,3rd,Springer,,753,0,English,Математика//Алгебра,kolxoz,21,"9783540440857,3540440852",,,,,511.3/22,QA248 .J42 2003,,,OL22542786M,,0,,,,,,,,4433433,pdf,9104D974A236BB9FFD544B44569CE549,,,"M_Mathematics/MA_Algebra/MAa_Abstract algebra/Jech T. Set theory (3ed., Springer, 2006)(ISBN 3540440852)(753s)_MAa_.pdf",0,2000-01-01 01:00:00,2016-04-03 02:51:08,3000/9104d974a236bb9ffd544b44569ce549-d.jpg,,
5573106,Paul Erdos and his mathematics,Volume 1,Bolyai Society Mathematical Studies,,"Gabor Halasz, Laszlo Lovasz, Miklos Simonovits, Vera T. Sós",2002,1st,Springer,,734,0,English,Математика,kolxoz,13,"9783540422365,3-540-42236-6",,,,,510,QA1 .P194 2001,,,OL22480927M,,600,,1,,,,,T,7982337,djvu,90EADA985CB99CB86A34248CC69E237F,,,"M_Mathematics/Halasz G., Lovasz L., Simonovits M., Sos V.T. (eds.) Paul Erdos and his mathematics, vol.1 (Springer, 2002)(KA)(600dpi)(T)(734s).djvu",0,2000-01-01 01:00:00,2016-04-03 02:51:08,3000/90eada985cb99cb86a34248cc69e237f-d.jpg,,
5573105,Отображения: алгебраические аспекты теории,,,,Валуцье И.И.,1976,,,Кишинев,141,0,Russian,Математика//Алгебра,kolxoz,14,,,,,,,,,,,,300,,1,,,,,,4481312,djvu,90BB77112344A5625D1715C72B1DAE09,,,M_Mathematics/MA_Algebra/MAa_Abstract algebra/Valuc#e I.I. Otobrazhenija.. algebraicheskie aspekty teorii (Kishinev 1976)(ru)(KA)(T)(141s)_MAa_.djvu,0,2000-01-01 01:00:00,2016-04-03 02:51:08,3000/90bb77112344a5625d1715c72b1dae09.jpg,,
5573104,Elementarmathematik vom hoeheren Standpunkte aus,Band 1,,,Klein F.,1933,4,Springer,,321,0,German,Математика,kolxoz,18,,,,,,,,,,,,600,,,,,,,,5494119,djvu,90AD8EAB091B10D62B7B1E9D940FB31C,,,"M_Mathematics/Klein F. Band 1. Elementarmathematik vom hoeheren Standpunkte aus (4ed., Springer, 1933)(de)(600dpi)(T)(O)(321s)_M_.djvu",0,2000-01-01 01:00:00,2016-04-03 02:51:08,3000/90ad8eab091b10d62b7b1e9d940fb31c.jpg,,
5573103,Algebraic surfaces and golomorphic vector bundles,,,,Friedman.,,,Springer,,142,0,English,Математика//Алгебра,kolxoz,8,,,,,,,,,,,,300,,,1,,,,,3047107,djvu,905CA7BC2BCA4DD2A139D9D31602BA4B,,,"Friedman R. Algebraic surfaces and holomorphic vector bundles (Universitext, Springer, 1998)(L)(T)(ISBN 0387983619)(142s).djvu",0,2000-01-01 01:00:00,2016-04-03 02:51:08,3000/905ca7bc2bca4dd2a139d9d31602ba4b.jpg,,
5573101,Введение в дифференциальную алгебру,,,,Каплански И.,1959,,ИЛ,,42,0,Russian,Математика//Алгебра,kolxoz,8,,,,,,,,,,,,300,,,1,,,,,1014707,djvu,8FD713A372A1CCC0CDD092FDB6F8FD82,,,"M_Mathematics/MA_Algebra/MAd_Differential algebra/Kaplanski I. Vvedenie v differencial#nuju algebru (IL, 1959)(ru)(L)(T)(42s).djvu",0,2000-01-01 01:00:00,2016-04-03 02:51:08,3000/8fd713a372a1ccc0cdd092fdb6f8fd82.jpg,,
5573102,Математика в СССР за сорок лет 1917-1957. Биобиблиография,Том 2,,,"Курош А.Г., и др. (ред.)",1959,,ФМЛ,,821,0,Russian,Математика,kolxoz,8,,,,,,,,,,,,300,,,,,,,T,15917981,djvu,903BA0075D116923C0E6AA1322FC8AD2,,,"M_Mathematics/Kurosh A.G., i dr. (red.) Matematika v SSSR za sorok let 1917-1957. Tom 2. Biobibliografija (FML, 1959)(ru)(T)(821s).djvu",0,2000-01-01 01:00:00,2016-04-03 02:51:08,3000/903ba0075d116923c0e6aa1322fc8ad2.jpg,,
5573100,ThÃ©orie des ensembles ,,,,N. Bourbaki,2006,1,Springer,,348,0,French,Математика,kolxoz,21,"3540340343,9783540340348,9783540340355",,,,,,,,,OL12774081M,,300,,,,,1,,1,3583092,djvu,8F86D57546AA568D24549410801DCD37,,,"M_Mathematics/Bourbaki N. Elements de Mathematique. Theorie des Ensembles (fr)(ISBN 3540340343)(Springer,2006)(T)(348s)_M_.djvu",0,2000-01-01 01:00:00,2016-04-03 02:51:08,3000/8f86d57546aa568d24549410801dcd37-d.jpg,,
5573099,Characters and cyclotomic fields in finite geometry,,LMN1797,,Bernhard Schmidt,2002,1,Springer,,106,0,English,Математика//Дискретная математика,kolxoz,21,"354044243X,9783540442431",,,,,,,,,OL9057950M,,0,,,,,1,,1,550815,pdf,8F7535397D14310DE4683FC457B41FDD,,,"M_Mathematics/MA_Algebra/MAc_Combinatorics/Schmidt B. Characters and cyclotomic fields in finite geometry (LMN1797, Springer, 2002)(ISBN 354044243X)(106s)_MAc_.pdf",0,2000-01-01 01:00:00,2016-04-03 02:51:08,3000/8f7535397d14310de4683fc457b41fdd-d.jpg,,
5573098,The architecture of modern mathematics. Essays in history and philosophy,,,,"J. Ferreirós, J. J. Gray",2006,,"Oxford University Press, USA",,455,0,English,Математика,kolxoz,21,"9780191513794,9780198567936,0198567936",,,,,510.9,QA21 .A73 2006,,,OL22728611M,,0,,,,,1,,1,1899385,pdf,8EE5249A271F6086064E0B93BB649279,,,"M_Mathematics/Ferreiros J., Gray J.J. (eds.) The architecture of modern mathematics. Essays in history and philosophy (OUP, 2006)(ISBN 0198567936)(455s)_M_.pdf",0,2000-01-01 01:00:00,2016-04-03 02:51:08,3000/8ee5249a271f6086064e0b93bb649279-d.jpg,,
5573097,"Non-commutative ring theory: Proc. Conf. in Athens, Ohio, 1989",,LNM1448,,S. K. Jain,1990,,Springer,,172,0,English,Математика//Алгебра,kolxoz,21,"9780387531649,0387531645",,,,,"510 s,512/.4","QA3 .L28 no. 1448,QA251.4 .L28 no. 1448",,,OL1858080M,,299,,,,,,,1,1239766,djvu,8EDB4261196F9DC3994EA4619426104B,,,"M_Mathematics/MA_Algebra/MAa_Abstract algebra/Jain S.K., Lopez-Permouth S. (eds.) Non-commutative ring theory.. Proc. Conf. in Athens, Ohio, 1989 (LNM1448, Springer, 1990)(ISBN 0387531645)(299dpi)(T)(172s)_MAa_.djvu",0,2000-01-01 01:00:00,2016-04-03 02:51:08,3000/8edb4261196f9dc3994ea4619426104b.jpg,,
5573096,"Systmes diffrentiels involutifs (Fourier Inst. n.636, 2004, SMF)",,,,Malgrange B.,2005,preprint,SMF,,117,0,French,Математика//Алгебра,kolxoz,21,,,,,,,,,,,,0,,,,,,,T,785630,pdf,8E524720477D4F3A0720E6365ADCABDE,,,"M_Mathematics/MA_Algebra/MAd_Differential algebra/Malgrange B. Systmes diffrentiels involutifs (Preprint of the Fourier Inst. n.636, 2004, SMF, 2005)(fr)(117s)_MAd_.pdf",0,2000-01-01 01:00:00,2016-04-03 02:51:08,3000/8e524720477d4f3a0720e6365adcabde.jpg,,
5573095,Werke. Abhandlungen ueber Gauss: reine Mathematik und Mechanik,"Band 10, Part 2",,,Gauss C.F.,1922,,,Teubner,692,0,German,Математика,kolxoz,13,,,,,,,,,,,,400,,,,,,,T,14734317,djvu,8E3ACA451CDFBF552CFBDE1DB0B7526A,,,"M_Mathematics/Gauss C.F. Werke, Band 10, Abt.2. Abhandlungen ueber Gauss.. reine Mathematik und Mechanik (Teubner, 1922, 1933)(de)(la)(400dpi)(T)(692s).djvu",0,2000-01-01 01:00:00,2016-04-03 02:51:08,3000/8e3aca451cdfbf552cfbde1db0b7526a.jpg,,
5573094,Собрание сочинений,Том 2,,,Бернштейн С.Н.,1954,,АН СССР,,628,0,Russian,Литература,kolxoz,13,,,,,,,,,,,,600,,1,,,,,T,16390554,djvu,8E352EEBA263525FAC7BF75830F4CEE9,,,"M_Mathematics/Bernshtejn S.N. Sobranie sochinenij, tom 2 (AN SSSR, 1954)(ru)(K)(600dpi)(T)(628s).djvu",0,2000-01-01 01:00:00,2016-04-03 02:51:08,3000/8e352eeba263525fac7bf75830f4cee9.jpg,,
5573093,"Werke. Abhandlungen ueber Gauss: Geodaesie, Physik und Astronomie","Band 11, Part 2",,,Gauss C.F.,1924,,Springer,,654,0,German,Физика,kolxoz,13,,,,,,,,,,,,400,,,,,,,T,19220547,djvu,8DFF40C5F74A2CBA603C4AB5849BD89C,,,"M_Mathematics/Gauss C.F. Werke, Band 11, Abt.2. Abhandlungen ueber Gauss.. Geodaesie, Physik und Astronomie (Springer, 1924, 1929)(de)(la)(400dpi)(T)(654s).djvu",0,2000-01-01 01:00:00,2016-04-03 02:51:08,3000/8dff40c5f74a2cba603c4ab5849bd89c.jpg,,
5573092,"Дифференциальная геометрия, группы Ли и механика 5. Записки ЛОМИ т.123",,,,Фаддеев Л.Д. (ред.),1983,,Наука,,232,0,Russian,Математика//Геометрия и топология,kolxoz,13,,,,,,,,,,,,600,,,,,,,,9257097,djvu,8D87B2852397AE5CB566B8C7C7D2AB98,,,"M_Mathematics/Faddeev L.D. (red.) Differencial#naya geometriya, gruppy Li i mehanika 5. Zapiski LOMI t.123 (Nauka, 1983)(ru)(600dpi)(T)(232s).djvu",0,2000-01-01 01:00:00,2016-04-03 02:51:08,3000/8d87b2852397ae5cb566b8c7c7d2ab98.jpg,,
5573091,VariÃ©tÃ©s diffÃ©rentielles et analytiques: Fascicule de rÃ©sultats ,,,,N. Bourbaki,2006,,Springer,,190,0,French,Математика,kolxoz,21,"9783540343967,9783540343974,3540343962",,,,,,,,,OL12774136M,,300,,,,,1,,1,1624008,djvu,8CD298E411EEDD7C82BC326C97617D80,,,"M_Mathematics/Bourbaki N. Elements de Mathematique. Varietes differentielles et analitiques(Springer,2007)(fr)(ISBN 3540343962)(T)(190s)_M_.djvu",0,2000-01-01 01:00:00,2016-04-03 02:51:08,3000/8cd298e411eedd7c82bc326c97617d80-d.jpg,,
5573090,"Lectures on p-divisible groups (LNM0302, Springer 1972)",,Lecture Notes in Mathematics,,M. Demazure,1972,,Springer,,103,0,English,Биология//Генетика,kolxoz,18,"3540060928,9783540060925",,,,,,,,,OL15273585M,,300,,,,,1,,1,828748,djvu,8C960D107E0322C9C7E32B9B63019D95,,,"M_Mathematics/MA_Algebra/MAg_Algebraic geometry/Demazure M. Lectures on p-divisible groups (LNM0302, Springer 1972)(T)(ISBN 3540060928)(103s)_MAg_.djvu",0,2000-01-01 01:00:00,2016-04-03 02:51:08,3000/8c960d107e0322c9c7e32b9b63019d95-d.jpg,,
5573089,Topics in finite and discrete mathematics,,,,Sheldon M. Ross,2000,,Cambridge University Press,,272,0,English,Математика,kolxoz,19,"052177571X,9780521775717,0521772591,9780521772594,9780511040849",,,,,510,QA39.2.R65485 2000,,,OL7752977M,,600,,,,,1,,1,1395729,djvu,8C66EB92656E09A4FEE73D670C8CAF30,,,"M_Mathematics/Ross S.M. Topics in finite and discrete mathematics (CUP, 2000)(600dpi)(T)(ISBN 052177571X)(272s)_M_.djvu",0,2000-01-01 01:00:00,2016-04-03 02:51:08,3000/8c66eb92656e09a4fee73d670c8caf30-d.jpg,,
5573088,Труды по теории множеств,,Классики науки,,Георг Кантор,1985,,Наука,,431,0,Russian,Математика//Анализ,infanata,8,,,,,,,,,,,,600,,,,,,,T,8833794,djvu,8BC52932CBC3E11A13AE313AF944E9B1,,,N:\\natahaus\\2008\\2008-02\\2008.02.16\\Георг Кантор - Труды по теории множеств 1985.djvu,0,2000-01-01 01:00:00,2016-04-03 02:51:08,3000/8bc52932cbc3e11a13ae313af944e9b1.jpg,,
5573087,Almost ring theory,,LNM1800,,"Ofer Gabber, Lorenzo Ramero",2003,1,Springer,,313,0,English,Математика//Алгебра,kolxoz,21,"9783540405948,3-540-40594-1",,,,,,,,,OL9366435M,,0,,,,,,,T,2317782,pdf,8B69B48131562D57909B60C9309E2590,,,"M_Mathematics/MA_Algebra/MAa_Abstract algebra/Gabber O., Ramero L. Almost ring theory (LNM1800, Springer, 2003)(313s)_MAa_.pdf",0,2000-01-01 01:00:00,2016-04-03 02:51:08,3000/8b69b48131562d57909b60c9309e2590-d.jpg,,
5573086,Introduction to algebraic geometry,,,,Drozd Yu.,1999,lecture notes,,Kauserslautern,104,0,English,Математика//Геометрия и топология,kolxoz,18,,,,,,,,,,,,0,,,,,,,,663026,pdf,8B25115F362EBB0B7C4802CCF9CEF48A,,,"M_Mathematics/MA_Algebra/MAg_Algebraic geometry/Drozd Yu. Introduction to algebraic geometry (Kauserslautern lecture notes, 1999)(104s)_MAg_.pdf",0,2000-01-01 01:00:00,2016-04-03 02:51:08,3000/8b25115f362ebb0b7c4802ccf9cef48a.jpg,,
5573085,Oeuvres,Tome 11,,,Lagrange J.L.,1888,,Gauthier~Villars,,522,0,French,Математика,kolxoz,14,,,,,,,,,,,,600,,,,,,,T,11535648,djvu,8A5DAE6A80A5C904FA7DC40179D7D74E,,,"M_Mathematics/Lagrange J.L. Oeuvres, Tome 11 (Gauthier-Villars 1888)(fr)(600dpi)(T)(522s).djvu",0,2000-01-01 01:00:00,2016-04-03 02:51:08,3000/8a5dae6a80a5c904fa7dc40179d7d74e.jpg,,
5573084,Комбинаторика для программистов,,,,Липский В. (Lipski W.),1988,,Мир,,212,0,Russian,Математика//Комбинаторика,kolxoz,14,5030009795,,,,,,,,,,,300,,1,,,,,T,2069019,djvu,89F02DF1B39E5225BE3A375CDCE750DC,,,"M_Mathematics/MA_Algebra/MAc_Combinatorics/Lipskij V. (_Lipski W._) Kombinatorika dlya programmistov (Mir, 1988)(KA)(ISBN 5030009795)(ru)(T)(212s)_MAc_.djvu",0,2000-01-01 01:00:00,2016-04-03 02:51:08,3000/89f02df1b39e5225be3a375cdce750dc.jpg,,
5573083,Computational algebraic geometry,,London Mathematical Society Student Texts,,Hal Schenck,2003,,Cambridge University Press,,208,0,English,Математика//Вычислительная математика,kolxoz,14,"9780521829649,052182964X",,,,,,,,,OL7765494M,,0,,,,,,,T,1036331,pdf,89E44CEFFBF2AA94DE5CA2E148674F5D,,,"M_Mathematics/MA_Algebra/MAco_Computational algebra/Schenck H. Computational algebraic geometry (CUP, 2003)(ISBN 052182964X)(208s)_MAco_.pdf",0,2000-01-01 01:00:00,2016-04-03 02:51:08,3000/89e44ceffbf2aa94de5ca2e148674f5d-d.jpg,,
5573082,Комбинаторика,,,,Холл М.,1970,,Мир,,212,0,Russian,Математика//Комбинаторика,kolxoz,8,,,,,,,,,,,,300,,,1,,,,,7939995,djvu,8989BE1103211369560502EE543824DE,,,"M_Mathematics/MA_Algebra/MAc_Combinatorics/Holl M. Kombinatorika (Mir, 1970) (ru)(L)(T)(212s).djvu",0,2000-01-01 01:00:00,2016-04-03 02:51:08,3000/8989be1103211369560502ee543824de.jpg,,
5573081,Equations diff. a coefficients polynomiaux,,Progress in Mathematics ,,B. Malgrange,1991,1,Birkhäuser Boston,,121,0,French,Математика,kolxoz,8,"9780817635565,0817635564",,,,,515/.35,QA372 .M355 1991,,,OL2026598M,,300,,,1,,1,,1,3445062,djvu,897B432FC1C940F62A7D5B723320F1CC,,,"M_Mathematics/MA_Algebra/MAd_Differential algebra/Malgrange B. Equations diff. a coefficients polynomiaux (Birkhauser, 1991)(fr)(ISBN 0817635564)(L)(T)(121s).djvu",0,2000-01-01 01:00:00,2016-04-03 02:51:08,3000/897b432fc1c940f62a7d5b723320f1cc.jpg,,
5573080,Теория графов. Алгоритмический подход,,,,Кристофидес Н.,1978,,Мир,,429,0,Russian,Математика//Теория графов,infanata,14,,,,,,,,,,,,400,,1,,,,,,5132180,djvu,88C4B6D43F75CED2D72440F39500104B,,,N:\\natahaus\\2006\\2006-04\\[1145034071]Теория графов. Алгоритмический подход.-- Кристофидес Н..djvu,0,2000-01-01 01:00:00,2016-04-03 02:51:08,3000/88c4b6d43f75ced2d72440f39500104b.jpg,,
5573079,"Polynomes, etude algebrique",,,,Rande P.,1999,web draft,,,18,0,French,Математика//Алгебра,kolxoz,5,,,,,,,,,,,,0,,,,,,,,1107972,pdf,882BEAF2A725B8F005F0457466B0146A,,,"M_Mathematics/MA_Algebra/Rande P. Polynomes, etude algebrique (web draft, 1999)(fr)(18s).pdf",0,2000-01-01 01:00:00,2016-04-03 02:51:08,3000/882beaf2a725b8f005f0457466b0146a.jpg,,
5573078,Oeuvres,Tome 3,,,Lagrange J.L.,1869,,Gauthier~Villars,,803,0,French,Математика,kolxoz,14,,,,,,,,,,,,600,,,,,,,T,13034534,djvu,880A6A332D4C33550C7B2DFD3BB57103,,,"M_Mathematics/Lagrange J.L. Oeuvres, Tome 03 (Gauthier-Villars 1869)(fr)(600dpi)(T)(803s).djvu",0,2000-01-01 01:00:00,2016-04-03 02:51:08,3000/880a6a332d4c33550c7b2dfd3bb57103.jpg,,
5573077,Combinatorial species and tree-like structures,,Enc. Math.Appl,,"François Bergeron, Gilbert Labelle, Pierre Leroux, Margaret Readdy",1998,,Cambridge University Press,,238,0,English,Математика//Комбинаторика,kolxoz,8,"0521573238,9780521573238",,,,,511/.5,QA164.8 .B4713 1998,,83odtWY4eogC,OL1006321M,,300,,,1,0,1,,1,5893300,djvu,87BED4D4C83174816D72A0D6FE88E03A,,,"Bergeron F., Labelle G., Leroux P. Combinatorial species and tree-like structures (Enc.Math.Appl., CUP, 1998)(L)(T)(ISBN 0521573238)(238s).djvu",0,2000-01-01 01:00:00,2016-04-03 02:51:08,3000/87bed4d4c83174816d72a0d6fe88e03a-d.jpg,,
5573076,Лекции о производящих функциях,,,,Ландо С.К.,2007,3,МЦНМО,,144,0,Russian,Образование,kolxoz,21,978-5-94057-042-4,,,,,,,,,,,0,,,,,,,,1033375,pdf,87ADDF730219410B3C63184513BEA31C,,,"M_Mathematics/MA_Algebra/MAc_Combinatorics/Lando S.K. Lekcii o proizvodyashchih funkcijah (3izd., MCNMO, 2007)(ru)(144s)_MAc_.pdf",0,2000-01-01 01:00:00,2016-04-03 02:51:08,3000/87addf730219410b3c63184513bea31c.jpg,,
5573075,Elementary Set Theory,,,,"Kam-Tim Leung, Doris Lai-Chue Chen",1991,Revised,Hong Kong University Press,Hong Kong U,141,0,English,Математика//Алгебра,kolxoz,21,"9622090265,9789622090262",,,,,,,,,OL13075571M,,600,,,,,1,,1,1081931,djvu,86FC46316D6A6B50424C6B014E0223E8,,,"M_Mathematics/MA_Algebra/MAa_Abstract algebra/Leung K.-T., Chen D.L.-C. Elementary Set Theory(Hong Kong U., 1991)(ISBN 9622090265)(600dpi)(T)(O)(141s)_MAa_.djvu",0,2000-01-01 01:00:00,2016-04-03 02:51:08,3000/86fc46316d6a6b50424c6b014e0223e8.jpg,,
5573074,Problems and Theorems in Classical Set Theory,,Problem Books in Mathematics,,"Peter Komjath, Vilmos Totik",2006,1,Springer,,492,0,English,Математика//Алгебра,kolxoz,21,"038730293X,9780387302935",,,,,511.3/22,QA248 .K56 2006,,,OL17547125M,,0,,,,,1,,1,2568167,pdf,86F64F3749002FF80C17294F6680EB84,,,"M_Mathematics/MA_Algebra/MAa_Abstract algebra/Komjath P., Totik V. Problems and Theorems in Classical Set Theory (Springer, 2006)(ISBN 038730293X)(492s)_MAa_.pdf",0,2000-01-01 01:00:00,2016-04-03 02:51:08,3000/86f64f3749002ff80c17294f6680eb84-d.jpg,,
5573073,Frobenius splitting methods in geometry and representation theory,,Progress in Mathematics,,"Michel Brion, Shrawan Kumar",2004,1,Birkhäuser Boston,,258,0,English,Математика//Геометрия и топология,kolxoz,21,"0817641912,9780817641917",,,,,,,,,OL8074705M,,0,,,,,1,,,1473569,pdf,86DB75B9B02042B02EBF49DBDC3C9832,,,"M_Mathematics/MA_Algebra/MAa_Abstract algebra/Brion M., Kumar S. Frobenius splitting methods in geometry and representation theory (Birkhauser, 2005)(ISBN 0817641912)(258s)_MAa_.pdf",0,2000-01-01 01:00:00,2016-04-03 02:51:08,3000/86db75b9b02042b02ebf49dbdc3c9832-d.jpg,,
5573072,"Seminaire Bourbaki 1970-1971, Exposes 382-399 (LNM0244, Springer 1971)",244,Lecture Notes in Mathematics ,,"Y. Amice, J. - P. Azra, P. Lelong, M. Raynaud, L. Schwartz, G. van Dijk, P. Cartier, P. Deligne, C. Godbillon, P. Grisvard, V. Poenaru, H. Rosenberg, H. Bass, J. Dieudonne, F. Hirzebruch, F. Latour, G. Schiffmann, J. - P. Serre",1972,1,Springer,,354,0,French,Математика,kolxoz,17,"354005720X,9783540057208",,,,,,,,,OL18679750M,,300,,,,,1,,1,2341128,djvu,85C7DBC4B2181111DAFF4750FD18B60A,,,"Bourbaki N. Seminaire Bourbaki 1970-1971, Exposes 382-399 (fr)(en)(LNM0244, Springer 1971)(T)(ISBN 354005720X)(354s).djvu",0,2000-01-01 01:00:00,2016-04-03 02:51:08,3000/85c7dbc4b2181111daff4750fd18b60a-d.jpg,,
5573071,Introduction to intersection theory,,Series in Math.54,,William Fulton,1984,,American Mathematical Society,,89,0,English,Математика//Алгебра,kolxoz,14,"0821807048,9780821807040",,,,,"510 s,512/.33","QA1,QA564",,,OL22585489M,,600,,,,,1,,1,1173180,djvu,858159F542914B77FB70A4EBF4557E1A,,,"M_Mathematics/MA_Algebra/MAg_Algebraic geometry/Fulton W. Introduction to intersection theory (CBMS Regional Conf. Series in Math. 54, AMS, 1984)(600dpi)(T)(ISBN 0821807048)(89s)_MAg_.djvu",0,2000-01-01 01:00:00,2016-04-03 02:51:08,3000/858159f542914b77fb70a4ebf4557e1a-d.jpg,,
5573070,Real algebraic geometry,,,,"Bochnak J., Coste M., Roy M.-F.",1998,,Springer,,220,0,English,Математика//Геометрия и топология,kolxoz,8,3540169512,,,,,,,,,OL12772344M,,300,,,1,,,,,6169527,djvu,850D598B824F6259EDC9166797A5CEA3,,,"M_Mathematics/MA_Algebra/MAg_Algebraic geometry/Bochnak J., Coste M., Roy M-F. Real algebraic geometry (Springer, 1998)(L)(T)(ISBN 3540169512)(220s).djvu",0,2000-01-01 01:00:00,2016-04-03 02:51:08,3000/850d598b824f6259edc9166797a5cea3.jpg,,
5573069,Избранные труды,,,,Чебышев П.Л.,1955,,АН СССР,,929,0,Russian,Математика,kolxoz,8,,,,,,,,,,,,600,,,,,,,T,17125356,djvu,84C6123743FF32E63E738F998EDA37D7,,,"M_Mathematics/Chebyshev P.L. Izbrannye trudy (AN SSSR, 1955)(ru)(600dpi)(T)(929s).djvu",0,2000-01-01 01:00:00,2016-04-03 02:51:08,3000/84c6123743ff32e63e738f998eda37d7.jpg,,
5573068,Advanced Modern Algebra,,,,Joseph J. Rotman,2003,2 revised,Prentice Hall,,1054,0,English,Математика//Алгебра,kolxoz,18,"9780130878687,0130878685",,,,,,,,,OL7333635M,"Missing Front Matter, Cover",0,,,,,,,1,5238139,pdf,84BE4FCCF92240CB4BDDBB56E09C000A,,,"M_Mathematics/MA_Algebra/MAa_Abstract algebra/Rotman J.J. Advanced Modern Algebra (Prentice Hall, revised 2nd printing, 2003)(1054s)_MAa_.pdf",0,2000-01-01 01:00:00,2016-04-03 02:51:08,3000/84be4fccf92240cb4bddbb56e09c000a-d.jpg,,
5573067,"Избранные труды. Непрерывные дроби. Функции, наименее уклоняющиеся от нуля",,,,Марков А.А.,1948,,ГИТТЛ,,412,0,Russian,Математика,kolxoz,15,,,,,,,,,,,,600,,1,,,,,T,7280495,djvu,849B1151D6B7309E4DEFFFA22C87EE5E,,,"M_Mathematics/Markov A.A. Izbrannye trudy. Nepreryvnye drobi. Funkcii, naimenee uklonyayushchiesya ot nulya (GITTL, 1948)(ru)(KA)(600dpi)(T)(412s).djvu",0,2000-01-01 01:00:00,2016-04-03 02:51:08,3000/849b1151d6b7309e4defffa22c87ee5e.jpg,,
5573066,Занимательные задачи по теории графов,,,,Мельников О.И.,2001,,,Минск,144,0,Russian,Математика,kolxoz,8,985-6577-91-8,,,,,,,,,,,300,,1,,,,,,1432630,djvu,848EF623A1BA57A4DB06BE687726FB3A,,,"M_Mathematics/MA_Algebra/MAc_Combinatorics/Mel#nikov O.I. Zanimatel#nye zadachi po teorii grafov (Minsk, 2001)(K)(ru)(T)(144s).djvu",0,2000-01-01 01:00:00,2016-04-03 02:51:08,3000/848ef623a1ba57a4db06be687726fb3a.jpg,,
5573065,Using algebraic geometry,,GTM185,,"David A. Cox, John B. Little, Donal O'Shea",1998,1,Springer-Verlag Telos,,510,0,English,Математика//Геометрия и топология,kolxoz,18,"9780387984872,0-387-98487-9",,,,,516.3/5,QA564 .C6883 1998,,,OL352474M,,300,,,,,,,,3830758,djvu,83D62614D03C0AF4D230FE9E10E6638F,,,"M_Mathematics/MA_Algebra/MAco_Computational algebra/Cox D., Little J., O#Shea D. Using algebraic geometry (1ed., GTM185, Springer, 1998)(T)(510s)_MAco_.djvu",0,2000-01-01 01:00:00,2016-04-03 02:51:08,3000/83d62614d03c0af4d230fe9e10e6638f-d.jpg,,
5573063,"Werke. Nachtraege zur Physik, Chronologie und Astronomie","Band 11, Part 1",,,Gauss C.F.,1927,,Springer,,521,0,German,Физика,kolxoz,13,,,,,,,,,,,,400,,,,,,,T,9703621,djvu,836451465C4FB52A26BE9A0C7200420A,,,"M_Mathematics/Gauss C.F. Werke, Band 11, Abt.1. Nachtraege zur Physik, Chronologie und Astronomie (Springer, 1927)(de)(la)(400dpi)(T)(521s).djvu",0,2000-01-01 01:00:00,2016-04-03 02:51:08,3000/836451465c4fb52a26be9a0c7200420a.jpg,,
5573064,Werke. Mathematische Physik,Band 5,,,Gauss C.F.,1867,,,Goettingen,645,0,German,Физика,kolxoz,13,,,,,,,,,,,,400,,,,,,,,9268891,djvu,83A14AACDAB5067BCC8092AACDF436AC,,,"M_Mathematics/Gauss C.F. Werke, Band 05. Mathematische Physik (Goettingen, 1867)(de)(la)(400dpi)(T)(645s).djvu",0,2000-01-01 01:00:00,2016-04-03 02:51:08,3000/83a14aacdab5067bcc8092aacdf436ac.jpg,,
5573062,Continuous lattices and domains,,Encyclopedia of Mathematics and its Applications,,"G. Gierz, K. H. Hofmann, K. Keimel, J. D. Lawson, M. Mislove, D. S. Scott",2003,,Cambridge University Press,,629,0,English,Математика//Алгебра,kolxoz,21,"0521803381,9780521803380,9780511063565",,,,,,,,,OL15534329M,,0,,,,,1,,1,2352330,pdf,83544D5EFD511F9BF26983EE02CCFF39,,,"M_Mathematics/MA_Algebra/MAa_Abstract algebra/Gierz G., et al. Continuous lattices and domains (CUP, 2003)(ISBN 0521803381)(629s)_MAa_.pdf",0,2000-01-01 01:00:00,2016-04-03 02:51:08,3000/83544d5efd511f9bf26983ee02ccff39-d.jpg,,
5573061,A SINGULAR introduction to commutative algebra,,,,"Gert-Martin Greuel, Gerhard Pfister, O. Bachmann, C. Lossen, H. Schönemann",2007,"2nd, extended ed.",Springer,,702,0,English,Математика//Алгебра,kolxoz,21,"3540735410,9783540735410",,,,,512/.44,QA251.3 .G745 2008,,,OL18866568M,,0,,,,,1,,1,5605068,pdf,82AFA0454974E37736B6754486F24681,,,"M_Mathematics/MA_Algebra/MAco_Computational algebra/Greuel G.-M., Pfister G. A SINGULAR introduction to commutative algebra (Springer, 2007)(ISBN 3540735410)(702s).pdf",0,2000-01-01 01:00:00,2016-04-03 02:51:08,3000/82afa0454974e37736b6754486f24681-d.jpg,,
5573060,Using algebraic geometry,,Graduate Texts in Mathematics,,"David A. Cox, John Little, Donal O'Shea",2005,2nd,Springer,,581,0,English,Математика//Геометрия и топология,kolxoz,18,"9780387207339,0387207333",,,,,516.3/5,QA564 .C6883 2005,,,OL3694104M,,0,,,,,,,,3384115,pdf,81E981CE8004A32360F4DC2E9FB441B7,,,"M_Mathematics/MA_Algebra/MAco_Computational algebra/Cox D., Little J., O#Shea D. Using algebraic geometry (2ed., Springer, 2005)(ISBN 0387207333)(581s)_MAco_.pdf",0,2000-01-01 01:00:00,2016-04-03 02:51:08,3000/81e981ce8004a32360f4dc2e9fb441b7-d.jpg,,
5573059,Moduli of Curves,,GTM 187,,"Joe Harris, Ian Morrison",1998,1,Springer,,381,0,English,Математика//Алгебра,kolxoz,8,"0387984380,9780387984384,9780387227375",,,,,516.3/5,QA564 .H244 1998,,,OL20748927M,,0,,,,,1,,1,1870853,pdf,81B62158DBCFCBD08CCAA531FD13FBEE,,,"M_Mathematics/MA_Algebra/MAg_Algebraic geometry/Harris J., I.Morrison. Moduli of Curves (GTM 187, Springer,1998)(ISBN 0387984380)(381s)_MAg_.pdf",0,2000-01-01 01:00:00,2016-04-03 02:51:08,3000/81b62158dbcfcbd08ccaa531fd13fbee-d.jpg,,
5573058,Algebren ,,Ergebnisse der Mathematik und ihrer Grenzgebiete. 2. Folge,,Max Deuring,1968,"2., korr. Aufl.",Springer,,152,0,German,Математика//Алгебра,kolxoz,21,"3540040978,9783540040972",,,,,,,,,,,600,,1,,,1,,T,2019577,djvu,8192E538BDB74FB07533E221B83BCE52,,,"M_Mathematics/MA_Algebra/MAa_Abstract algebra/Deuring M. Algebren (2ed., Springer, 1968)(de)(K)(600dpi)(T)(152s)_MAa_.djvu",0,2000-01-01 01:00:00,2016-04-03 02:51:08,3000/8192e538bdb74fb07533e221b83bce52.jpg,,
5573057,"Monopoles, minimal surfaces and algebraic curves",,Seminaire de mathematiques superieures,,N. Hitchin,1987,,Centre De Recherches Mathematiques,Montreal,92,0,English,Математика//Алгебра,kolxoz,8,"2760608018,9782760608016",,,,,516.3/52,QA564 .H53 1987,,,OL2119276M,,300,,1,,,1,,1,545576,djvu,81712E76E3071F2A95C715E5569E29EF,,,"Hitchin N. Monopoles, minimal surfaces and algebraic curves (Montreal, 1987)(K)(ISBN 2760608018)(T)(92s).djvu",0,2000-01-01 01:00:00,2016-04-03 02:51:08,3000/81712e76e3071f2a95c715e5569e29ef.jpg,,
5573055,Class field theory,,,,Emil Artin J. Tate,1968,,W. A. Benjamin,,281,0,English,Математика//Алгебра,kolxoz,21,0805302913,,,,,,,,,,,300,,1,,,,,T,1747210,djvu,80B18EAFB37058DDBEC05E9929676F43,,,"M_Mathematics/MA_Algebra/MAa_Abstract algebra/Artin E., Tate J. Class field theory (Benjamin, 1974)(ISBN 0805302913)(K)(T)(O)(281s)_MAa_.djvu",0,2000-01-01 01:00:00,2016-04-03 02:51:08,3000/80b18eafb37058ddbec05e9929676f43.jpg,,
5573056,Комбинаторный анализ,,,,Холл М.,1963,,ИЛ,,98,0,Russian,Математика//Анализ,kolxoz,18,,,,,,,,,,,,600,,1,,,,,T,1376396,djvu,80DCFE84B77B0E85AA23A58DDC18E869,,,"M_Mathematics/MA_Algebra/MAc_Combinatorics/Holl M. Kombinatornyj analiz(IL, 1963)(ru)(600dpi)(T)(98s)(KA)_MAc_.djvu",0,2000-01-01 01:00:00,2016-04-03 02:51:08,3000/80dcfe84b77b0e85aa23a58ddc18e869.jpg,,
5573053,Algebra of analysis,,,,Menger K.,1944,,,Notre Dame,54,0,English,Математика//Алгебра,kolxoz,21,,,B0006AQJYU,,,,,,,,,600,,1,,,,,T,556543,djvu,8056610BC3A7DE810B751881AB350085,,,"M_Mathematics/MA_Algebra/MAd_Differential algebra/Menger K. Algebra of analysis (Notre Dame, 1944)(ASIN B0006AQJYU)(600dpi)(K)(T)(O)(54s)_MAd_.djvu",0,2000-01-01 01:00:00,2016-04-03 02:51:08,3000/8056610bc3a7de810b751881ab350085.jpg,,
5573054,Algebre commutative et introduction a geometrie algebrique,,,,Chambert-Loir A.,1998,lectures,,,83,0,French,Математика//Геометрия и топология,kolxoz,8,,,,,,,,,,,,400,,,,,,,T,788812,djvu,805839B43F501A1EA341BE1191A2038C,,,"M_Mathematics/MA_Algebra/MAg_Algebraic geometry/Chambert-Loir A. Algebre commutative et introduction a geometrie algebrique (lectures, 1998)(fr)(400dpi)(T)(83s).djvu",0,2000-01-01 01:00:00,2016-04-03 02:51:08,3000/805839b43f501a1ea341be1191a2038c.jpg,,
5573052,Â¦uvres mathÃ©matiques,,,,Riemann B,1992,,Jacques Gabay,,496,0,French,Математика,kolxoz,15,"9782876470767,2876470764",,,,,,,,,OL12640143M,,300,,,,,1,,1,5748984,djvu,80497E7483099E6A72F814E98ADACB63,,,"M_Mathematics/Riemann B. Oeuvres mathematiques (Paris, 1898)(fr)(T)(ISBN 2876470764)(496s).djvu",0,2000-01-01 01:00:00,2016-04-03 02:51:08,3000/80497e7483099e6a72f814e98adacb63-d.jpg,,
5573051,"Automorphic Forms, Representations, and L-functions",,Proceedings of Symposia in Pure Mathematics 33 ,,"Armand Borel, W. Casselman",1979,1st,"American Mathematical Society,",,314,0,English,Математика//Алгебра,kolxoz,18,"9780821814352,0821814354",,,,,512/.7,QA331 .S937 1977,,,OL4732516M,,600,,,,,1,,1,3704005,djvu,7FE32B9FD13179C5874F84F6C68CB9E7,,,"M_Mathematics/MA_Algebra/MAg_Algebraic geometry/Borel, Casselman. (eds.) Automorphic Forms, Representations, and L-functions (AMS, 1979)(600dpi)(T)(ISBN 0821814354)(314s)_MAg_.djvu",0,2000-01-01 01:00:00,2016-04-03 02:51:08,3000/7fe32b9fd13179c5874f84f6c68cb9e7.jpg,,
5573050,Arithmetic geometry,,,,"G. Cornell, J. H. Silverman, J. H. Silverman, M. Artin, C.-L. Chai, C.-L. Chinburg, G. Faltings, B. H. Gross, F. O. McGuiness, J. S. Milne, M. Rosen, S. S. Shatz, P. Vojta",1986,,Springer,,356,0,English,Математика//Геометрия и топология,kolxoz,21,"0387963111,9780387963112",,,,,516.3/5,QA564 .A73 1986,,,OL2724118M,,300,,,,,1,,T,2422594,djvu,7FBD1CE4CAA677453C3FF1593F20BF48,,,"M_Mathematics/MA_Algebra/MAg_Algebraic geometry/Cornell G., Silverman J. (eds.) Arithmetic geometry (Springer, 1986)(ISBN 0387963111)(T)(356s)_MAg_.djvu",0,2000-01-01 01:00:00,2016-04-03 02:51:08,3000/7fbd1ce4caa677453c3ff1593f20bf48-d.jpg,,
5573049,Algebraic graph theory,,Graduate Texts in Mathematics,,"Chris Godsil, Gordon F. Royle",2001,1,Springer,,232,0,English,Математика//Дискретная математика,kolxoz,8,"9780387952208,9780387952413,0387952209,0387952411",,,,,511.5,QA166.G63 2001,,gk60QgAACAAJ,OL7448791M,,300,,,1,,1,,1,4153460,djvu,7F8CD0C57005D992DA216C7D9298610D,,,"Godsil C., Royle G. Algebraic graph theory (Springer, 2001)(L)(T)(ISBN 0387952411)(232s).djvu",0,2000-01-01 01:00:00,2016-04-03 02:51:08,3000/7f8cd0c57005d992da216c7d9298610d-d.jpg,,
5573048,Orthogonal arrays. Theory and applications,,Springer Series in Statistics,,"A.S. Hedayat, Neil J. A. Sloane, John Stufken",1999,1,Springer,,221,0,English,Математика//Дискретная математика,kolxoz,8,"0387987665,9780387987668",,,,,511/.6,QA165 .H43 1999,,,OL40145M,,300,,,1,,1,,1,3329371,djvu,7F0F58173609F1C6BF4ECC1D9E86C7A0,,,"M_Mathematics/MA_Algebra/MAc_Combinatorics/Hedayat A.S., Sloane N.J.A., Stufken J. Orthogonal arrays. Theory and applications (Springer, 1999)(L)(T)(ISBN 0387987665)(221s).djvu",0,2000-01-01 01:00:00,2016-04-03 02:51:08,3000/7f0f58173609f1c6bf4ecc1d9e86c7a0-d.jpg,,
5573047,Алгебраическая теория полугрупп,Том 1,,,"Клиффорд, Престон.",1972,,Мир,,283,0,Russian,Математика//Алгебра,kolxoz,8,,,,,,,,,,,,300,,,,,,,T,3470007,djvu,7EDCFBB4FE7B7F1703A4CD3B5137FBBC,,,"M_Mathematics/MA_Algebra/MAa_Abstract algebra/Klifford, Preston. Algebraicheskaja teorija polugrupp, tom 1 (Mir, 1972)(ru)(T)(283s).djvu",0,2000-01-01 01:00:00,2016-04-03 02:51:08,3000/7edcfbb4fe7b7f1703a4cd3b5137fbbc.jpg,,
5573046,Games of no chance,,Mathematical Sciences Research Institute Publications ,,Richard J. Nowakowski,1998,,Cambridge University Press,,482,0,English,Математика//Дискретная математика,kolxoz,8,"9780521646529,0521646529",,,,,,,,,OL7750002M,,200,,,,,,,,3026084,djvu,7DBC9EE8C0063AE8281257F36F3ACD89,,,"M_Mathematics/MA_Algebra/MAc_Combinatorics/Nowakowski R. (ed.) Games of no chance (MSRI, 1996)(200dpi)(T)(482s).djvu",0,2000-01-01 01:00:00,2016-04-03 02:51:08,3000/7dbc9ee8c0063ae8281257f36f3acd89-d.jpg,,
5573045,Научное наследие П.Л.Чебышева. Математика,Выпуск 1,,,Чебышев П.Л.,1945,,,,174,0,Russian,Математика,kolxoz,8,,,,,,,,,,,,300,,,,,,,T,2742665,djvu,7D53A89B6E7AE1CDAA97458017EF6836,,,M_Mathematics/Chebyshev P.L. Nauchnoe nasledie P.L.Chebysheva. Vypusk 1. Matematika (1945)(ru)(T)(174s).djvu,0,2000-01-01 01:00:00,2016-04-03 02:51:08,3000/7d53a89b6e7ae1cdaa97458017ef6836.jpg,,
5573044,Algebraic Surfaces and Holomorphic Vector Bundles,,Universitext ,,Robert Friedman,1998,1,Springer,,340,0,English,Математика//Алгебра,kolxoz,18,"0387983619,9780387983615",,,,,515/.35,QA571 .F75 1998,,,OL690988M,,300,,1,,,,,T,4344401,djvu,7D3022A7F9D620898DE7999B0BFCAA58,,,"M_Mathematics/MA_Algebra/MAg_Algebraic geometry/Friedman R. Algebraic Surfaces and Holomorphic Vector Bundles (Springer, 1998)(T)(K)(300dpi)(340s)_MAg_.djvu",0,2000-01-01 01:00:00,2016-04-03 02:51:08,3000/7d3022a7f9d620898de7999b0bfcaa58-d.jpg,,
5573043,"Fundamentals of codes, graphs and iterative decoding",,,,"Wicker S., Kim S.",2002,,Kluwer,,240,0,English,Математика//Теория графов,kolxoz,14,0306477947,,,,,,,,,,,600,,,,,,,T,4713717,djvu,7CA9670EF605F27D07FC03087DFB7397,,,"M_Mathematics/MA_Algebra/MAco_Computational algebra/Wicker S., Kim S. Fundamentals of codes, graphs and iterative decoding (Kluwer, 2002)(ISBN 0306477947)(600dpi)(T)(240s)_MAco_.djvu",0,2000-01-01 01:00:00,2016-04-03 02:51:08,3000/7ca9670ef605f27d07fc03087dfb7397.jpg,,
5573042,Werke. Disquisitiones Arithmeticae,Band 1,,,Gauss C.F.,1801,,Lipsiae,,478,0,German,Математика,kolxoz,13,,,,,,,,,,,,400,,,,,,,,6610352,djvu,7C8EF2254866702FB80FC018A6A4133A,,,"M_Mathematics/Gauss C.F. Werke, Band 01. Disquisitiones Arithmeticae (Lipsiae, 1801)(de)(la)(400dpi)(T)(478s).djvu",0,2000-01-01 01:00:00,2016-04-03 02:51:08,3000/7c8ef2254866702fb80fc018a6a4133a.jpg,,
5573041,Walks on ordinals and their characteristics,,PiM263,,Stevo Todorcevic,2007,1,Birkhäuser Basel,,327,0,English,Математика//Алгебра,kolxoz,21,"9783764385286,3764385286",,,,,513,QA241 .T63 2007,,,OL16390456M,,0,,,,,1,,T,2406400,pdf,7C6C437EAF5A24A3E2A1CBA93FDDFDF3,,,"M_Mathematics/MA_Algebra/MAa_Abstract algebra/Todorcevic S. Walks on ordinals and their characteristics (PiM263, Birkhauser, 2007)(ISBN 9783764385286)(327s)_MAa_.pdf",0,2000-01-01 01:00:00,2016-04-03 02:51:08,3000/7c6c437eaf5a24a3e2a1cba93fddfdf3-d.jpg,,
5573040,Избранное - 60,,,,Арнольд В.И.,1997,,,,815,0,Russian,Математика,kolxoz,8,5-7036-0034-0,,,,,,,,,OL440436M,,300,,,,,,,T,7675627,djvu,7C4049443334BD8177A82E6C3FA85F28,,,M_Mathematics/Arnol#d V.I. Izbrannoe - 60 (1997)(ru)(T)(815s).djvu,0,2000-01-01 01:00:00,2016-04-03 02:51:08,3000/7c4049443334bd8177a82e6c3fa85f28.jpg,,
5573039,G. Lejeune Dirichlet's Werke,Band 2,,,"Kronecker L., Fuchs L. (eds.)",1897,,DRÜCK UND VERLAG VON GEORG REIMER (Berlin),Berlin,435,0,German,Математика,kolxoz,18,,,,,,,,,,,,600,,1,,,,,T,6366450,djvu,7C148021695FE64AA05CEC7270A1B2CD,,,"M_Mathematics/Kronecker L., Fuchs L. (eds.) G. Lejeune Dirichlet#s Werke. Band 2 (Berlin, 1897)(de)(fr)(600dpi)(KA)(T)(435s).djvu",0,2000-01-01 01:00:00,2016-04-03 02:51:08,3000/7c148021695fe64aa05cec7270a1b2cd.jpg,,
5573038,Galois theory of difference equations,,LNM1666,,"Marius van der Put, Michael F. Singer",1997,1,Springer,,181,0,English,Математика,kolxoz,18,"9783540632436,3540632433",,,,,"510 s,516.3/52","QA3 .L28 no. 1666,QA431 .L28 no. 1666",,,OL688737M,,300,,,,,,,T,1540437,djvu,7B3930A5CE31DF0039E332EEDCB063F0,,,"M_Mathematics/MA_Algebra/MAd_Differential algebra/van der Put M., Singer M.F. Galois theory of difference equations (LNM1666, Springer, 1997)(T)(O)(ISBN 3540632433)(181s)_MAd_.djvu",0,2000-01-01 01:00:00,2016-04-03 02:51:08,3000/7b3930a5ce31df0039e332eedcb063f0-d.jpg,,
5573037,Computer Algebra Methods for Equivariant Dynamical Systems,,LNM1728,,Karin Gatermann,2000,1,Springer,,162,0,English,Математика//Динамические системы,kolxoz,18,"3540671617,9783540671619",,,,,,,,,OL9063269M,,300,,,,,1,,1,1112855,djvu,7B2CE83B2206FBEAECA1AC2CFA73A6C5,,,"M_Mathematics/MA_Algebra/MAco_Computational algebra/Gatermann K. Computer Algebra Methods for Equivariant Dynamical Systems (LNM1728, Springer, 2000)(T)(ISBN 3540671617)(162s)_MAco_.djvu",0,2000-01-01 01:00:00,2016-04-03 02:51:08,3000/7b2ce83b2206fbeaeca1ac2cfa73a6c5-d.jpg,,
5573036,Differential systems,,,,Thomas J.M.,1937,,AMS,,127,0,English,Математика//Алгебра,kolxoz,18,,,,,,,,,,,,300,,1,,,,,,1382575,djvu,7AE54FCD0EFE466E6C8AB41B739BF23F,,,"M_Mathematics/MA_Algebra/MAd_Differential algebra/Thomas J.M. Differential systems (AMS, 1937)(KA)(T)(127s)_MAd_.djvu",0,2000-01-01 01:00:00,2016-04-03 02:51:08,3000/7ae54fcd0efe466e6c8ab41b739bf23f.jpg,,
5573035,Историко-математические исследования,Том 24,,,"Юшкевич А.П., и др. (ред.)",1979,,Наука,,393,0,Russian,Математика//Прикладная математика,kolxoz,13,,,,,,,,,,,,600,,1,,,,,T,5131168,djvu,7A68418F08C7C0B4EB3E84F077A69913,,,"M_Mathematics/Jushkevich A.P., i dr. (red.) Istoriko-matematicheskie issledovanija, tom 24 (Nauka, 1979)(ru)(K)(600dpi)(T)(393s).djvu",0,2000-01-01 01:00:00,2016-04-03 02:51:08,3000/7a68418f08c7c0b4eb3e84f077a69913.jpg,,
5573034,Residues and duality,,LNM0020,,Hartshorne R.,1966,,Springer,,430,0,English,Математика//Алгебра,kolxoz,21,,,,,,,,,,,,300,,,,,,,T,1811181,djvu,7A38EE9A50B365317469F856D6D17127,,,"M_Mathematics/MA_Algebra/MAg_Algebraic geometry/Hartshorne R. Residues and duality (LNM0020, Springer, 1966)(T)(430s)_MAg_.djvu",0,2000-01-01 01:00:00,2016-04-03 02:51:08,3000/7a38ee9a50b365317469f856d6d17127.jpg,,
5573033,Ассоциативные алгебры,,,,Пирс Р. (Pierce),1986,,Мир,,547,0,Russian,Математика//Алгебра,kolxoz,14,,,,,,,,,,,,300,,,,,,,,6809078,djvu,7A1000701BEC0C922C4465EA542CDCFF,,,"M_Mathematics/MA_Algebra/MAa_Abstract algebra/Pirs R. (_Pierce_) Associativnye algebry (Mir, 1986)(ru)(T)(547s)_MAa_.djvu",0,2000-01-01 01:00:00,2016-04-03 02:51:08,3000/7a1000701bec0c922c4465ea542cdcff.jpg,,
5573032,Graph Theory,,Graduate Texts in Mathematics,,Reinhard Diestel,2000,2nd,Springer,,322,0,English,Математика//Дискретная математика,kolxoz,18,"9780387228976,9780387950143,0387950141",,,,,511/.5,QA166 .D51413 2000,,,OL51616M,,0,,,,,1,,1,1583357,pdf,7A05E9259FA00949E92FF2809E78501D,,,"M_Mathematics/MA_Algebra/MAc_Combinatorics/Diestel. Graph Theory (Springer, 2000)(ISBN 0387950141)(322s).pdf",0,2000-01-01 01:00:00,2016-04-03 02:51:08,3000/7a05e9259fa00949e92ff2809e78501d-d.jpg,,
5573031,Quantum calculus,,,,"Victor Kac, Pokman Cheung",2001,1,Springer,,118,0,English,Математика//Анализ,kolxoz,8,"0387953418,9780387953410",,,,,515,QA303 .K25 2002,,,OL20644241M,,300,1,,,,1,,1,1745502,djvu,7A01E5111ECC8FD9A4B307ADD71778C2,,,"M_Mathematics/MA_Algebra/MAc_Combinatorics/Kac V., Cheung P. Quantum calculus (Springer, 2002)(T)(C)(ISBN 0387953418)(118s).djvu",0,2000-01-01 01:00:00,2016-04-03 02:51:08,3000/7a01e5111ecc8fd9a4b307add71778c2-d.jpg,,
5573030,Three Contributions to Elimination Theory,,,,Kalkbrener M.,1992,PhD,,Wien,158,0,English,Математика//Алгебра,kolxoz,14,"3853698751,9783853698754",,,,,,,,,,,300,,,,,1,,,4288997,djvu,79E6591A25E3F3D82612E54625E2EBE2,,,"M_Mathematics/MA_Algebra/MAco_Computational algebra/Kalkbrener M. Three Contributions to Elimination Theory (PhD Wien, 1992)(ISBN 3853698751)(T)(158s)_MAco_.djvu",0,2000-01-01 01:00:00,2016-04-03 02:51:08,3000/79e6591a25e3f3d82612e54625e2ebe2.jpg,,
5573029,Интегрирование и отыскание примитивных функций,,,,Лебег А. (Henri Lebesgue),1934,,ГТТИ,,326,0,Russian,Математика//Алгебра,kolxoz,18,,,,,,,,,,,,600,,1,,,,,,11983947,djvu,79CA7CC31BD5B3E2882F06FF9CB1FD89,,,"M_Mathematics/MA_Algebra/MAd_Differential algebra/Lebeg A. (_Henri Lebesgue_) Integrirovanie i otyskanie primitivnyx funkcij (GTTI, 1934)(ru)(T)(K)(600dpi)(326s)_MAd_.djvu",0,2000-01-01 01:00:00,2016-04-03 02:51:08,3000/79ca7cc31bd5b3e2882f06ff9cb1fd89.jpg,,
5573028,Тригонометрические ряды от Эйлера до Лебега,,,,Паплаускас А.Б.,1966,,Наука,,278,0,Russian,Математика//Анализ,kolxoz,19,,,,,,,,,,,,300,,1,,,,,T,2140264,djvu,798EFF30208A3DBCAD3B7DB223570972,,,"M_Mathematics/Paplauskas A.B. Trigonometricheskie ryady ot Ejlera do Lebega (Nauka, 1966)(ru)(T)(278s)(KA)_M_.djvu",0,2000-01-01 01:00:00,2016-04-03 02:51:08,3000/798eff30208a3dbcad3b7db223570972.jpg,,
5573027,"Galois Theory, U Glasgow course",,,,John B. Fraleigh,1998,6th,Addison Wesley Publishing Company,,88,0,English,Математика//Алгебра,kolxoz,8,0-201-33596-4,,,,,512/.02,QA162 .F7 1999,,,OL369045M,,0,,,,,,,T,624265,pdf,797204665FE0834E67C4EC70805CA7DD,,,"M_Mathematics/MA_Algebra/MAa_Abstract algebra/Baker. Galois Theory, U Glasgow course(88s).pdf",0,2000-01-01 01:00:00,2016-04-03 02:51:08,3000/797204665fe0834e67c4ec70805ca7dd.jpg,,
5573026,La reduction formelle des equations differentielles a singularites irregulieres,,,,Malgrange B.,1975,,,,14,0,French,Математика,kolxoz,18,,,,,,,,,,,,600,,1,,,,,,143980,djvu,7946EFC7E0A22A9331C1625D48B702B0,,,M_Mathematics/MA_Algebra/MAd_Differential algebra/Malgrange B. La reduction formelle des equations differentielles a singularites irregulieres (1975)(fr)(600dpi)(T)(14s)(KA)_MAd_.djvu,0,2000-01-01 01:00:00,2016-04-03 02:51:08,3000/7946efc7e0a22a9331c1625d48b702b0.jpg,,
5573025,Methods of algebraic geometry,volume 3,Cambridge Mathematical Library,,"W. V. D. Hodge, D. Pedoe",1994,,Cambridge University Press,,342,0,English,Математика//Геометрия и топология,kolxoz,21,"0521467756,9780521467759",,,,,516.3/5,QA564 .H57 1994,,,OL1198491M,no page 59,600,,,,,1,,1,3340913,djvu,7906DE1C3998DFA4C45EB4749F07C944,,,"M_Mathematics/MA_Algebra/MAg_Algebraic geometry/Hodge W.V.D., Pedoe D. Methods of algebraic geometry, vol.3 (CUP, 1953)(no p.59)(ISBN 0521467756)(600dpi)(T)(342s)_MAg_.djvu",0,2000-01-01 01:00:00,2016-04-03 02:51:08,3000/7906de1c3998dfa4c45eb4749f07c944-d.jpg,,
5573024,Handbook of combinatorics,Volume 2,,,Unknown Author,1995,1,North Holland,,640,0,English,,kolxoz,8,"0444823514,9780444823519",,,,,511/.6,QA164 .H33 1995,,,OL7532420M,,300,,,1,,1,,,20567005,djvu,78F7D41E75DDCDABB686A769CE94515C,,,"M_Mathematics/MA_Algebra/MAc_Combinatorics/Graham, Groetschel, Lovasz (eds.). Vol.2. Handbook of combinatorics (Elsevier, 1995)(L)(T)(640s).djvu",0,2000-01-01 01:00:00,2016-04-03 02:51:08,3000/78f7d41e75ddcdabb686a769ce94515c-d.jpg,,
5573023,The Grothendieck Festschrift,Volume 2,Modern Birkhäuser Classics ,,"Pierre Cartier, Luc Illusie, Nicholas M. Katz, Gérard Laumon, Yuri I. Manin, Kenneth A. Ribet",1990,1,Birkhäuser Boston,,564,0,English,Математика,kolxoz,21,"9780817634285,9780817645670,9780817645755,0817634282,0817645675",,,,,516.3/5,QA564 .G717 1990,,,OL17438679M,,299,,,,,1,,1,3920481,djvu,788D259882D632F3493D218F12DB2098,,,"M_Mathematics/Cartier P., et al. (eds.) The Grothendieck Festschrift, vol.2 (Birkhauser, 1990)(en)(fr)(ISBN 0817645675)(299dpi)(T)(564s)_M_.djvu",0,2000-01-01 01:00:00,2016-04-03 02:51:08,3000/788d259882d632f3493d218f12db2098-d.jpg,,
5573022,The Grothendieck Festschrift,Volume 1,Progr. Math.86,,"Pierre Cartier, Luc Illusie, Nicholas M. Katz, Gérard Laumon, Yuri I. Manin, Kenneth A. Ribet",2006,,Birkhäuser Boston,,256,0,English,Математика,kolxoz,8,"9780817645663,0817645667",,,,,,,,,OL17438679M,,300,,,1,,,,,3784925,djvu,781C374F6D834CAA8AB4F501DE2BA18F,,,"M_Mathematics/Cartier P., Illusie L., Katz N.M., Laumon G., Manin Yu., Ribet K.A. (eds.) The Grothendieck Festschrift, vol.1 (Progr.Math.86, Birkhauser, 1990)(L)(T)(256s).djvu",0,2000-01-01 01:00:00,2016-04-03 02:51:08,3000/781c374f6d834caa8ab4f501de2ba18f-d.jpg,,
5573021,"Combinatorics: room squares, sum-free sets, Hadamard matrices",,LNM0292,,"W. D. Wallis, A. P. Street, J. S. Wallis",1972,1,Springer,,494,0,English,Математика//Алгебра//Линейная алгебра,kolxoz,21,"3540060359,9783540060352",,,,,,,,,OL18239687M,,300,,,,,1,,1,3413015,djvu,781A54DEC37CD9A7C9D26A37C10F3901,,,"M_Mathematics/MA_Algebra/MAc_Combinatorics/Wallis W.D., et al. Combinatorics.. room squares, sum-free sets, Hadamard matrices (LNM0292, Springer, 1972)(ISBN 3540060359)(T)(494s)_MAc_.djvu",0,2000-01-01 01:00:00,2016-04-03 02:51:08,3000/781a54dec37cd9a7c9d26a37c10f3901-d.jpg,,
5573020,Polynomial automorphisms and the Jacobian conjecture,,Progress in Mathematics,,Arno van den Essen,2000,1,Birkhäuser Basel,,348,0,English,Математика//Алгебра,kolxoz,18,"3764363509,9783764363505",,,,,,,,,OL9090583M,,300,,1,,,1,,1,2268485,djvu,7818B2810CD5EF476B221E26E251E02D,,,"M_Mathematics/MA_Algebra/MAa_Abstract algebra/van den Essen A. Polynomial automorphisms and the Jacobian conjecture (Birkhauser, 2000)(KA)(T)(ISBN 3764363509)(348s)_MAa_.djvu",0,2000-01-01 01:00:00,2016-04-03 02:51:08,3000/7818b2810cd5ef476b221e26e251e02d-d.jpg,,
5573019,"Algebras, bialgebras, quantum groups, and algebraic deformation",,Math.134,,"Gerstenhaber M., Schack D.",1992,,Contemp,,22,0,English,Математика//Алгебра,kolxoz,8,,,,,,,,,,,,300,,,1,,,,,436866,djvu,78184DDD0C8172D44EB89A08718E15D3,,,"M_Mathematics/MA_Algebra/MAa_Abstract algebra/Gerstenhaber M., Schack D. Algebras, bialgebras, quantum groups, and algebraic deformation (Contemp.Math.134, 1992)(L)(T)(22s).djvu",0,2000-01-01 01:00:00,2016-04-03 02:51:08,3000/78184ddd0c8172d44eb89a08718e15d3.jpg,,
5573018,Arithmetic and geometry. Honorary to I. Shafarevich,Volume 2,Progr Math.36,,"Michael Artin, Michael Artin, I. R. Shafarevich, John Torrence Tate",1983,,Birkhauser,,496,0,English,Математика//Геометрия и топология,kolxoz,14,"3764331321,9783764331320",,,,,513/.132,QA7 .A67 1983,,,OL3165179M,,600,,1,,,1,,1,8379344,djvu,77CA7F681D3747E6AE73ABA9E00D51D3,,,"M_Mathematics/MA_Algebra/MAg_Algebraic geometry/Artin M., Tate J. (eds.) Arithmetic and geometry II. Honorary to I. Shafarevich (Progr.Math.36, Birkhauser, 1983)(KA)(600dpi)(T)(ISBN 3764331321)(496s)_MAg_.djvu",0,2000-01-01 01:00:00,2016-04-03 02:51:08,3000/77ca7f681d3747e6ae73aba9e00d51d3.jpg,,
5573017,Lehrbuch der Algebra,Band 2,,,Fricke R.,1926,,Vieweg,,426,0,German,Математика//Алгебра,kolxoz,18,,,,,,,,,,,,600,,,,,,,,6062677,djvu,76E897F69B9AA8AD720636B7378A0BC8,,,"M_Mathematics/Fricke R. Lehrbuch der Algebra, Band 2 (Vieweg, 1926)(de)(600dpi)(T)(O)(426s)_M_.djvu",0,2000-01-01 01:00:00,2016-04-03 02:51:08,3000/76e897f69b9aa8ad720636b7378a0bc8.jpg,,
5573016,"Algebraic combinatorics. Lectures at Summer school in Nordfjordeid, Norway, 2003",,Universitext,,"Peter Orlik, Volkmar Welker, Gunnar Floystad",2007,1,Springer,,180,0,English,Математика//Алгебра,kolxoz,21,"3540683755,9783540683759",,,,,516.13,QA167 .O749 2007,,,OL17932167M,,0,,,,,,,,1378167,pdf,76C2BAE7A31931D88E2B54744BAFB81B,,,"M_Mathematics/MA_Algebra/MAc_Combinatorics/Orlik P., Welker V. Algebraic combinatorics. Lectures at Summer school in Nordfjordeid, Norway, 2003 (Springer, 2007)(ISBN 3540683755)(180s)_MAc_.pdf",0,2000-01-01 01:00:00,2016-04-03 02:51:08,3000/76c2bae7a31931d88e2b54744bafb81b-d.jpg,,
5573015,"Seminaire Bourbaki 1968-1969, Exposes 347-363 (LNM0179)",,Lecture Notes in Mathematics ,,"A. Dold, B. Eckmann",1971,1,Springer,,291,0,French,Математика,kolxoz,17,"9783540053569,3540053565",,,,,,,,,OL14506028M,,300,,,,,1,,1,1746498,djvu,766FF9D192847995173112DA3182D680,,,"LNM 0179 - Bourbaki N. - Seminaire Bourbaki 1968-1969, Exposes 347-363 - Springer 1971 - ISBN 3540053565 (fr)(T)(291s).djvu",0,2000-01-01 01:00:00,2016-04-03 02:51:08,3000/766ff9d192847995173112da3182d680-d.jpg,,
5573014,Hypergeometric summation. An algorithmic approach to summation and special function identities,,Viewed Advanced Lectures in Mathematics Series,,Wolfram Koepf,1998,,Vieweg Verlag,,240,0,English,Математика//Геометрия и топология,kolxoz,18,"3528069503,9783528069506",,,,,,,,,OL12768748M,,300,,1,,,1,,,1640883,djvu,7660F3C305BFE144BB7E1531827AEDAD,,,"M_Mathematics/MA_Algebra/MAco_Computational algebra/Koepf W. Hypergeometric summation. An algorithmic approach to summation and special function identities (Vieweg, 1998)(KA)(T)(ISBN 3528069503)(240s)_MAco_.djvu",0,2000-01-01 01:00:00,2016-04-03 02:51:08,3000/7660f3c305bfe144bb7e1531827aedad-d.jpg,,
5573013,"Set Theory. Centre de Recerca Matematica Barcelona, 2003-2004",,Trends in Mathematics,,"Joan Bagaria, Stevo Todorcevic",2006,1,Birkhäuser Basel,,407,0,English,Математика//Алгебра,kolxoz,21,"9783764376918,9783764376925,3764376910",,,,,,,,,OL9091115M,,0,,,,,1,,1,2787048,pdf,75B75379BF2CC1B85C4B73DBFD4E93FB,,,"M_Mathematics/MA_Algebra/MAa_Abstract algebra/Bagaria J., Todorcevic S. (eds.) Set Theory. Centre de Recerca Matematica Barcelona, 2003-2004 (Birkhauser, 2006)(ISBN 3764376910)(407s)_MAa_.pdf",0,2000-01-01 01:00:00,2016-04-03 02:51:08,3000/75b75379bf2cc1b85c4b73dbfd4e93fb-d.jpg,,
5573012,Algebra. Abstract and Concrete,,Stressing Symmetry ,,Frederick M. Goodman,2002,2,Prentice Hall,,583,0,English,Математика//Алгебра,kolxoz,18,"9780130673428,0130673420",,,,,512,QA155 .G64 2003,,,OL3569885M,,0,,,,,,,T,4953885,pdf,75A2F4538AD373257C3EE7EA5E055EF5,,,"M_Mathematics/MA_Algebra/MAa_Abstract algebra/Goodman F. Algebra. Abstract and Concrete (Semisimple Press, 2006)(583s)_MAa_.pdf",0,2000-01-01 01:00:00,2016-04-03 02:51:08,3000/75a2f4538ad373257c3ee7ea5e055ef5-d.jpg,,
5573011,Gesammelte Abhandlungen. Analysis. Grundlagen der Mathematik. Physik. Vershiedenes,Band 3,,,Hilbert D.,1935,,Springer,,448,0,German,Математика,kolxoz,18,,,B0040W3M36,,,,,,,,,600,,,,,,,1,6157210,djvu,75942ED9F3FD53C37728F1BEC2A25F60,,,"M_Mathematics/Hilbert D. Gesammelte Abhandlungen. Band 3. Analysis. Grundlagen der Mathematik. Physik. Vershiedenes (Springer, 1935)(de)(600dpi)(T)(O)(448s)_M_.djvu",0,2000-01-01 01:00:00,2016-04-03 02:51:08,3000/75942ed9f3fd53c37728f1bec2a25f60.jpg,,
5573010,Oeuvres,Tome 2,,,Hermite Ch.,1908,,Gauthier~Villars,,539,0,French,Математика,kolxoz,18,,,,,,,,,,,,600,,,,,,,T,6372898,djvu,75632D0A8D857AB9CF403D01349910AD,,,"M_Mathematics/Hermite Ch. Oeuvres, tome 2 (Gauthier-Villars, 1908)(fr)(600dpi)(T)(539s)_M_.djvu",0,2000-01-01 01:00:00,2016-04-03 02:51:08,3000/75632d0a8d857ab9cf403d01349910ad.jpg,,
5573009,Нерешенные математические задачи,,,,Улам С.,1964,,Наука,,84,0,Russian,Математика,kolxoz,11,,,,,,,,,,,,300,,,1,,,,,1472161,djvu,754A5CC66477FFFDA1CC36EDA9C6E821,,,"M_Mathematics/Ulam S. Nereshennye matematicheskie zadachi (Nauka, 1964)(ru)(L)(T)(84s).djvu",0,2000-01-01 01:00:00,2016-04-03 02:51:08,3000/754a5cc66477fffda1cc36eda9c6e821.jpg,,
5573008,Combinatorics,,Wiley-Interscience Series in Discrete Mathematics and Optimization,,Russell Merris,2003,2,Wiley-Interscience,,571,0,English,Математика//Комбинаторика,kolxoz,8,"047126296X,9780471458494,9780471262961",,,,,511/.6,QA164 .M46 2003,,,OL3578863M,,0,,,,,1,,1,3055961,pdf,7545A87C5DA1F660F3EB26F224D57A57,,,"M_Mathematics/MA_Algebra/MAc_Combinatorics/Merris R. Combinatorics (2ed., Wiley, 2003)(ISBN 047126296X)(571s).pdf",0,2000-01-01 01:00:00,2016-04-03 02:51:08,3000/7545a87c5da1f660f3eb26f224d57a57-d.jpg,,
5573007,Oeuvres I,,,,Chebyshev P.L.,1961,,Chelsea,,689,0,French,Математика,kolxoz,13,,,,,,,,,,,,300,,,,,,,T,6602997,djvu,750ECEDA2F01A4CBFE4B271EE9AA5B03,,,"M_Mathematics/Chebyshev P.L. Oeuvres I (Chelsea, 1961)(fr)(T)(689s).djvu",0,2000-01-01 01:00:00,2016-04-03 02:51:08,3000/750eceda2f01a4cbfe4b271ee9aa5b03.jpg,,
5573006,Fundamental Algebraic Geometry. Grothendieck's FGA Explained,,Mathematical Surveys and Monographs,,Barbara Fantechi; Lothar GÃ¶ttsche; Luc Illusie; Steven L. Kleiman; Nitin Nitsure; and Angelo Vistoli,2005,,American Mathematical Society,,352,0,English,Математика//Геометрия и топология,kolxoz,18,"0821835416,9780821835418",,,,,516.3/5,QA564 .F86 2005,,,OL3428915M,,600,,1,,,1,,1,3019871,djvu,7450B6F5D2C23DF5CEF5620A21344592,,,"M_Mathematics/MA_Algebra/MAg_Algebraic geometry/Fantechi B., Gottsche L., Illusie L., et al. Fundamental Algebraic Geometry. Grothendieck#s FGA Explained (AMS, 2005)(600dpi)(KA)(T)(ISBN 0821835416)(352s)_MAg_.djvu",0,2000-01-01 01:00:00,2016-04-03 02:51:08,3000/7450b6f5d2c23df5cef5620a21344592-d.jpg,,
5573005,Лекции по математике. Дифференциальные уравнения,Том 1,,,В. Босс,2004,,Едиториал УРСС,,218,0,Russian,Математика,infanata,13,5-354-00790-9,,,,,,,,,OL12545810M,,600,,1,,,,,T,3883181,djvu,7423BDE47DA4AC5DAAA3E762D76227F3,,,N:\\natahaus\\2006\\2006-10\\[1146075744]Лекции по математике. Дифференциальные уравнения.-- В. Босс [02].djvu,0,2000-01-01 01:00:00,2016-04-03 02:51:08,3000/7423bde47da4ac5daaa3e762d76227f3.jpg,,
5573004,"Международный конгресс математиков в Беркли, 1986. Обзорные доклады",,,,Тихомиров В.М. (ред.),1988,,Amer Mathematical Society,,227,0,Russian,Математика,kolxoz,11,0-8218-0110-4,,,,,,,,,,,300,,,1,,,,,4863884,djvu,7416EF44A684599FEE704E5877942F14,,,"M_Mathematics/Mezhdunarodnyj kongress matematikov v Berkli, 1986. Obzornye doklady (Mir, 1991)(ru)(L)(T)(227s).djvu",0,2000-01-01 01:00:00,2016-04-03 02:51:08,3000/7416ef44a684599fee704e5877942f14.jpg,,
5573003,Избранные труды,Том 1,,,Крейн М.Г.,1993,,,Киев,316,0,Russian,Математика,kolxoz,13,5-7702-0681-0,,,,,,,,,,,600,,,,,,,T,6237409,djvu,73F7CC24E11EBD091EBA02B9264E09B8,,,"M_Mathematics/Krejn M.G. Izbrannye trudy, Tom 1 (Kiev, 1993)(ru)(600dpi)(T)(316s).djvu",0,2000-01-01 01:00:00,2016-04-03 02:51:08,3000/73f7cc24e11ebd091eba02b9264e09b8.jpg,,
5573002,Class field theory,,,,"Georges Gras, H. Cohen",2002,2nd,Springer,,505,0,English,Математика//Алгебра,kolxoz,21,"9783540441335,3-540-44133-6",,,,,,,,,OL9057909M,,300,,,,,,,T,2610157,djvu,737A58BECACD5CB85C7A70922F8A3D0E,,,"M_Mathematics/MA_Algebra/MAa_Abstract algebra/Gras G. Class field theory (Springer, 2003)(T)(505s)_MAa_.djvu",0,2000-01-01 01:00:00,2016-04-03 02:51:08,3000/737a58becacd5cb85c7a70922f8a3d0e-d.jpg,,
5573001,Numerical Methods for Roots of Polynomials,Volume 1,Studies in Computational Mathematics ,,J.M. McNamee,2007,,Elsevier Science,,341,0,English,Математика//Вычислительная математика,kolxoz,21,"9780444527295,044452729X",,,,,512.9422,,,,OL22765126M,,0,,,,,,,,4146343,pdf,7344700547B71BB138F42623EFECD126,,,"M_Mathematics/MA_Algebra/MAco_Computational algebra/McNamee J.M. Numerical Methods for Roots of Polynomials, vol.1 (Elsevier, 2007)(ISBN 044452729X)(341s)_MAco_.pdf",0,2000-01-01 01:00:00,2016-04-03 02:51:08,3000/7344700547b71bb138f42623efecd126-d.jpg,,
5573000,Graphs and Hypergraphs,,"North-Holland mathematical library, v. 6",,Claude Berge,1973,Revised,American Elsevier Pub. Co,,546,0,English,Математика//Дискретная математика,kolxoz,18,"9780444103994,0444103996",,,,,511/.5,QA166 .B3913 1973,,,OL21568721M,,100,,1,,,,,T,5280688,djvu,7337292927CBF87B20E2991850AF9B01,,,"M_Mathematics/MA_Algebra/MAc_Combinatorics/Berge C. Graphs and Hypergraphs (NH, 1973)(KA)(100dpi)(T)(546s)_MAc_.djvu",0,2000-01-01 01:00:00,2016-04-03 02:51:08,,,
5572999,Hopf algebras,,,,Sweedler M.E.,1969,,Benjamin,,350,0,English,Математика//Алгебра,kolxoz,8,,,,,,,,,,,,300,,,,,,,T,1504711,djvu,72B8FCC7C4E9531A03E13A2B91249292,,,"M_Mathematics/MA_Algebra/MAa_Abstract algebra/Sweedler M.E. Hopf algebras (Benjamin, 1969)(T)(350s).djvu",0,2000-01-01 01:00:00,2016-04-03 02:51:08,3000/72b8fcc7c4e9531a03e13a2b91249292.jpg,,
5572998,Problems and Theorems in Classical Set Theory,,Problem Books in Mathematics,,"Peter Komjath, Vilmos Totik",2006,1,Springer,,491,0,English,Математика//Алгебра,kolxoz,21,"038730293X,9780387302935",,,,,511.3/22,QA248 .K56 2006,,,OL17547125M,,0,,,,,1,,1,2552267,pdf,72A0013CF196B69A2F994AEA4E8860A6,,,"M_Mathematics/MA_Algebra/MAa_Abstract algebra/Komjoth P., Totik V. Problems and Theorems in Classical Set Theory (Springer, 2006)(ISBN 038730293X)(491s)_MAa_.pdf",0,2000-01-01 01:00:00,2016-04-03 02:51:08,3000/72a0013cf196b69a2f994aea4e8860a6-d.jpg,,
5572997,"Digraphs. Theory, algorithms and applications",,Springer Monographs in Mathematics ,,"Jørgen Bang-Jensen, Gregory Z. Gutin",2008,2nd ed.,Springer,,772,0,English,Математика//Дискретная математика,kolxoz,21,"9781848009974,1848009976",,,,,,,,,OL23078640M,,0,,,,,,,,3352193,pdf,728DF1C7E2D22BAF05CC4217F198A0F9,,,"M_Mathematics/MA_Algebra/MAc_Combinatorics/Bang-Jensen J., Gutin G. Digraphs. Theory, algorithms and applications (Springer, 2007)(772s)_MAc_.pdf",0,2000-01-01 01:00:00,2016-04-03 02:51:08,3000/728df1c7e2d22baf05cc4217f198a0f9-d.jpg,,
5572996,Lectures on vanishing theorems,,D M V Seminar/Oberwolfach Seminars,,"Helene Esnault, Eckart Viehweg",1992,,Birkhauser,,170,0,English,Математика//Алгебра,kolxoz,18,"9780817628222,9783764328221,0817628223,3764328223",,,,,514/.23,QA612.3 .E86 1992,,,OL1732011M,,0,,,,,1,,1,725316,pdf,7286518AF5453559E5FFA1983A2A83C8,,,"M_Mathematics/MA_Algebra/MAg_Algebraic geometry/Esnault H., Viehweg E. Lectures on vanishing theorems (Birkhauser, 1992)(ISBN 0817628223)(170s)_MAg_.pdf",0,2000-01-01 01:00:00,2016-04-03 02:51:08,3000/7286518af5453559e5ffa1983a2a83c8.jpg,,
5572995,Mathematical problems,,,,Hilbert D.,1900,lectures,ICM Paris,,37,0,English,Математика,kolxoz,17,,,,,,,,,,,,0,,,,,,,,127272,pdf,7236F6826670DA852F05A7CCF6C96079,,,"M_Mathematics/Hilbert D. Mathematical problems (lecture at ICM Paris, 1900)(37s).pdf",0,2000-01-01 01:00:00,2016-04-03 02:51:08,3000/7236f6826670da852f05a7ccf6c96079.jpg,,
5572994,Избранные труды,Том 2,,,Крейн М.Г.,1996,,,Киев,348,0,Russian,Математика,kolxoz,13,966-02-0098-6,,,,,,,,,,,600,,,,,,,T,4518114,djvu,7233B4E4254C5A7C9B466EA9D6FC6165,,,"M_Mathematics/Krejn M.G. Izbrannye trudy, Tom 2 (Kiev, 1996)(ru)(600dpi)(T)(348s).djvu",0,2000-01-01 01:00:00,2016-04-03 02:51:08,3000/7233b4e4254c5a7c9b466ea9d6fc6165.jpg,,
5572993,Альмагест или Математическое сочинение в 13 книгах,,,,Птолемей К.,1998,,Наука,,672,0,Russian,Математика//Прикладная математика,kolxoz,15,502015167X,,,521,22.6,,,,,,,300,,,,,,,,8577557,djvu,721EA70843963115BA55682A9A81A389,,,"M_Mathematics/Ptolemej K. Al#magest ili Matematicheskoe sochinenie v 13 knigax (Nauka, 1998)(ru)(T)(672s).djvu",0,2000-01-01 01:00:00,2016-04-03 02:51:08,3000/721ea70843963115ba55682a9a81a389.jpg,,
5572992,The theory of partitions,,Encyclopedia of Mathematics and its Applications ,,George E. Andrews,1976,,Cambridge University Press,,266,0,English,Математика//Дискретная математика,kolxoz,18,"052163766X,0201135019,9780201135015,9780521637664",,,,,512/.73,QA165 .A58,,,OL4898764M,missing copyright page,300,,1,,0,1,,1,1605712,djvu,71F23E79ACA45F28C0FC97BD5B5291F1,,,"M_Mathematics/MA_Algebra/MAc_Combinatorics/Andrews G.E. The theory of partitions (Enc.Math.Appl. 2, AW, 1976)(KA)(T)(266s)_MAc_.djvu",0,2000-01-01 01:00:00,2016-04-03 02:51:08,3000/71f23e79aca45f28c0fc97bd5b5291f1-d.jpg,,
5572991,Probability theory and combinatorial optimization,,CBMS-NSF Regional Conference Series in Applied Mathematics,,J. Michael Steele,1987,illustrated edition,Society for Industrial  Mathematics,,162,0,English,Математика//Вероятность,kolxoz,14,"9780898713800,0898713803",,,,,519.7,QA273.45 .S74 1997,,,OL1003234M,,300,,,,,1,,T,1771008,djvu,714B93A356C65F7D812D3D44A45CB5E9,,,"M_Mathematics/MA_Algebra/MAc_Combinatorics/Steele J.M. Probability theory and combinatorial optimization (SIAM, 1997)(T)(ISBN 0898713803)(162s)_MAc_.djvu",0,2000-01-01 01:00:00,2016-04-03 02:51:08,3000/714b93a356c65f7d812d3d44a45cb5e9-d.jpg,,
5572990,Intégration: Chapitre 5,,,,Bourbaki N.,2006,1,Springer,,158,0,French,Математика,kolxoz,21,3-540-35333-X,,,,,,,,,,,300,,,,,1,,T,918336,djvu,711119BE5112C8BE1CADDBA5D4ED43DC,,,"M_Mathematics/Bourbaki N. Elements de Mathematique. Integration. Chapitre 5 (Springer, 2007)(fr)(T)(158s)_M_.djvu",0,2000-01-01 01:00:00,2016-04-03 02:51:08,3000/711119be5112c8be1caddba5d4ed43dc-d.jpg,,
5572989,Интегральное представление и вычисление комбинаторных сумм,,,,Егорычев Г.П.,1977,,Наука,,287,0,Russian,Математика//Вычислительная математика,kolxoz,8,,,,,,,,,,,,300,,1,,,,,,3248034,djvu,70E3BEC41DEA64E28A130A1594CC4037,,,"M_Mathematics/MA_Algebra/MAc_Combinatorics/Egorychev G.P.  Integral#noe predstavlenie i vychislenie kombinatornyh summ (Nauka, 1977)(ru)(K)(T)(287s).djvu",0,2000-01-01 01:00:00,2016-04-03 02:51:08,3000/70e3bec41dea64e28a130a1594cc4037.jpg,,
5572988,Torus actions on symplectic manifolds,,Progress in Mathematics,,Michèle Audin,2004,2nd,Birkhäuser Basel,,332,0,English,Математика,kolxoz,14,"9783764321765,3764321768",,,,,516.3/6,QA665 .A9313 2004,,,OL3433519M,,600,,1,,,1,,1,3708876,djvu,70D2BE0052E5B2AAFFBC8B1043716E9F,,,"M_Mathematics/MA_Algebra/MAg_Algebraic geometry/Audin M. Torus actions on symplectic manifolds (2ed, Birkhauser, 2003)(ISBN 3764321768)(KA)(600dpi)(T)(330s)_MAg_.djvu",0,2000-01-01 01:00:00,2016-04-03 02:51:08,3000/70d2be0052e5b2aaffbc8b1043716e9f-d.jpg,,
5572987,Перечисление графов,,,,"Харари Ф., Палмер Э. (Harary,Palmer)",1977,,Мир,,326,0,Russian,Математика//Дискретная математика,kolxoz,14,,,,,,,,,,,,300,,,,,,,T,4287662,djvu,70811B1FF1F544C98450D6DF018C6738,,,"M_Mathematics/MA_Algebra/MAc_Combinatorics/Harari F., Palmer E#. (_Harary,Palmer_) Perechislenie grafov (Mir, 1977)(ru)(T)(326s)_MAc_.djvu",0,2000-01-01 01:00:00,2016-04-03 02:51:08,3000/70811b1ff1f544c98450d6df018c6738.jpg,,
5572986,Higher-dimensional algebraic geometry,,,,Olivier Debarre,2001,1,Springer,,252,0,English,Математика//Геометрия и топология,kolxoz,14,"0387952276,9780387952277",,,,,,,,,OL7448797M,,300,,,,,1,,T,2906270,djvu,700A086AEB0B5C33C57ADC97D3FE32E4,,,M_Mathematics/MA_Algebra/MAg_Algebraic geometry/Debarre O. Higher-dimensional algebraic geometry (Springer 2001)(T)(252s)_MAg_.djvu,0,2000-01-01 01:00:00,2016-04-03 02:51:08,3000/700a086aeb0b5c33c57adc97d3fe32e4-d.jpg,,
5572985,Конечные графы и сети,,,,"Басакер Р., Саати Т. (R.G.Busacker,T.L.Saaty)",1974,,Наука,,367,0,Russian,Математика//Дискретная математика,kolxoz,14,,,,,,,,,,,,300,,,,,,,T,3956000,djvu,6FFF8C3123AC5730FD2B5042E552DF2B,,,"M_Mathematics/MA_Algebra/MAc_Combinatorics/Basaker R., Saati T. (_R.G.Busacker,T.L.Saaty_) Konechnye grafy i seti (Nauka, 1974)(ru)(T)(367s)_MAc_.djvu",0,2000-01-01 01:00:00,2016-04-03 02:51:08,3000/6fff8c3123ac5730fd2b5042e552df2b.jpg,,
5572984,Биография и библиография,,,,Петровский И.Г.,1957,,АН СССР,,47,0,Russian,Математика,kolxoz,15,,,,,,,,,,,,600,,,,,,,T,671299,djvu,6EDF5A500BB8237B3CBD2BD09D3E6471,,,"M_Mathematics/Petrovskij I.G. Biografiya i bibliografiya (AN SSSR, 1957)(600dpi)(ru)(T)(47s).djvu",0,2000-01-01 01:00:00,2016-04-03 02:51:08,3000/6edf5a500bb8237b3cbd2bd09d3e6471.jpg,,
5572983,"Сборник, посвященный памяти Д.А. Граве",,,,"Шмидт О.Ю., и др. (ред.)",1940,,,,332,0,Russian,Математика,kolxoz,11,,,,,,,,,,,,300,,,,,,,,4394943,djvu,6D29E6A48D39194B088F07B934A3FE42,,,"M_Mathematics/Shmidt O.Yu., i dr. (red.) Sbornik, posvyashchennyj pamyati D.A.Grave (1940)(ru)(T)(332s).djvu",0,2000-01-01 01:00:00,2016-04-03 02:51:08,3000/6d29e6a48d39194b088f07b934a3fe42.jpg,,
5572982,Hadamard matrices and their applications,,LNM1168,,S. S. Agaian,1985,,Springer,,230,0,English,Математика//Дискретная математика,kolxoz,21,"9780387160566,0-387-16056-6",,,,,"510 s,511/.6","QA3 .L28 no. 1168,QA166.4 .L28 no. 1168",,,OL21341562M,,300,,,,,,,T,1001873,djvu,6CF095B9C2B9DAB94A6E8815211F6C61,,,"M_Mathematics/MA_Algebra/MAc_Combinatorics/Agaian S.S. Hadamard matrices and their applications (LNM1168, Springer, 1985)(T)(230s)_MAc_.djvu",0,2000-01-01 01:00:00,2016-04-03 02:51:08,3000/6cf095b9c2b9dab94a6e8815211f6c61.jpg,,
5572981,Trends in commutative algebra,,MSRI Publications vol 51,,"Luchezar L. Avramov, Mark Green, Craig Huneke, Karen E. Smith, Bernd Sturmfels",2004,,Cambridge University Press,,263,0,English,Математика//Алгебра,kolxoz,18,"9780521831956,0521831954",,,,,,,,,OL7765617M,,0,,,,,,,,1600499,pdf,6CD1C8B15E3487F786001A4671123018,,,"M_Mathematics/MA_Algebra/MAa_Abstract algebra/Avramov L.L., et al. (eds.) Trends in commutative algebra (MSRI Publications, vol. 51, CUP, 2004)(263s)_MAa_.pdf",0,2000-01-01 01:00:00,2016-04-03 02:51:08,3000/6cd1c8b15e3487f786001a4671123018-d.jpg,,
5572980,Gesammelte Werke,Band 2,,,Jacobi C.G.J.,1882,,,Berlin,538,0,German,Математика,kolxoz,21,,,,,,,,,,,,600,,1,,,,,T,8979010,djvu,6CAF8988548859A824D4B53B96DA9CB7,,,"M_Mathematics/Jacobi C.G.J. Gesammelte Werke. Band 2 (Berlin, 1882)(de)(KA)(600dpi)(T)(538s)_M_.djvu",0,2000-01-01 01:00:00,2016-04-03 02:51:08,3000/6caf8988548859a824d4b53b96da9cb7.jpg,,
5572979,Lectures in abstract algebra: Theory of fields and Galois theory,Volume 3,Graduate Texts in Mathematics,,N. Jacobson,1964,1st,Springer,,333,0,English,Математика//Алгебра,kolxoz,18,"9780387901688,9783540901686,038790168X,354090168X",,,,,512.02,QA162.J3 1975,,,OL10155180M,,300,,1,,,1,,1,2403311,djvu,6CA1AFB41BC365A5EF926DE2C5C08C5C,,,"M_Mathematics/MA_Algebra/MAa_Abstract algebra/Jacobson N. Lectures in abstract algebra. Volume 3.. Theory of fields and Galois theory (Springer-Verlag, 1975)(K)(T)(ISBN 038790168X)(333s)_MAa_.djvu",0,2000-01-01 01:00:00,2016-04-03 02:51:08,3000/6ca1afb41bc365a5ef926de2c5c08c5c.jpg,,
5572978,Number theoretic density and logical limit laws,,AMS Surveys 86,,Stanley N. Burris,2000,,American Mathematical Society,,295,0,English,Математика//Математическая логика,kolxoz,8,"9780821826669,0821826662",,,,,,,,pv5cPPuRteUC,OL15315643M,,300,,,,,1,,1,2547269,djvu,6BB2CA79383164E71EB1FA247D86CB33,,,"M_Mathematics/MA_Algebra/MAc_Combinatorics/Burris S.N. Number theoretic density and logical limit laws (AMS Surveys 86, 2001)(T)(ISBN 0821826662)(295s).djvu",0,2000-01-01 01:00:00,2016-04-03 02:51:08,3000/6bb2ca79383164e71eb1fa247d86cb33-d.jpg,,
5572977,"The Evanston colloquium: Lectures on mathematics delivered from Aug. 28 to Sept. 9, 1893 before members of the Congress of Mathematics held in connection ... at Northwestern University, Evanston, Ill., ",,,,Felix Klein,1911,,American Mathematical society,,117,0,English,Математика,kolxoz,8,,,B00086DA80,,,,,,,,,300,,,,,1,,T,667475,djvu,6B2849E3DA2F0128A33F785349640CE3,,,"M_Mathematics/Klein F. Lectures on mathematics (Macmillan, 1894)(T)(117s).djvu",0,2000-01-01 01:00:00,2016-04-03 02:51:08,3000/6b2849e3da2f0128a33f785349640ce3.jpg,,
5572976,Арифметика и книга о многоугольных числах,,,,Диофант Александрийский.,1974,,Наука,,328,0,Russian,Математика,kolxoz,13,,,,,,,,,,,,600,,1,,,,,,6828395,djvu,6A9CCC07ECCC446FD18BF896C90ECAE5,,,"M_Mathematics/Diofant Aleksandrijskij. Arifmetika i kniga o mnogougol#nyx chislax (Nauka, 1974)(KA)(ru)(600dpi)(T)(328s).djvu",0,2000-01-01 01:00:00,2016-04-03 02:51:08,3000/6a9ccc07eccc446fd18bf896c90ecae5-d.jpg,,
5572975,Graphs and Homomorphisms,,Oxford Lecture Series in Mathematics and Its Applications,,"Pavol Hell, Jaroslav Ne%set%ril",2004,,"Oxford University Press, USA",,256,0,English,Математика//Дискретная математика,kolxoz,18,"0198528175,9780198528173,9781423788652",,,,,511/.5,QA166 .H455 2004,,,OL22593650M,,0,,,,,,,T,1800125,pdf,6A85D23256392ECD78C849B57555B913,,,"M_Mathematics/MA_Algebra/MAc_Combinatorics/Hell P., Nesetfil J. Graphs and Homomorphisms (OUP, 2004)(ISBN 0198528175)(256s)_MAc_.pdf",0,2000-01-01 01:00:00,2016-04-03 02:51:08,3000/6a85d23256392ecd78c849b57555b913-d.jpg,,
5572974,Eigenspaces of graphs,,Encyclopedia of Mathematics and its Applications,,"Dragos Cvetkovic, Peter Rowlinson, Slobodan Simic",1997,,Cambridge University Press,,136,0,English,Математика,kolxoz,8,"0521573521,9780521573528",,,,,511/.5,QA166 .C83 1997,,,OL966473M,,300,,,1,,1,,,1988484,djvu,6A7051051B0461DD7014F9CD69D9C21B,,,"M_Mathematics/MA_Algebra/MAc_Combinatorics/Cvetkovic D., Rowlinson P., Simic S. Eigenspaces of graphs (CUP, 1997)(L)(T)(ISBN 0521573521)(136s).djvu",0,2000-01-01 01:00:00,2016-04-03 02:51:08,3000/6a7051051b0461dd7014f9cd69d9c21b-d.jpg,,
5572973,Hilbert Modular Forms and Iwasawa Theory ,,Oxford Mathematical Monographs ,,Haruzo Hida,2006,,"Oxford University Press, USA",,416,0,English,Математика//Алгебра,kolxoz,21,"0-19-857102-X,978-0-19-857102-5",,,,,,,,,OL17199948M,,0,,,,,,,,2523650,pdf,6A313F37FC25174A6B7FD0460EA875E0,,,"M_Mathematics/MA_Algebra/MAg_Algebraic geometry/Hida H. Hilbert modular forms and Iwasawa theory (OUP, 2006)(416s)_MAg_.pdf",0,2000-01-01 01:00:00,2016-04-03 02:51:08,3000/6a313f37fc25174a6b7fd0460ea875e0-d.jpg,,
5572972,Groebner bases algorithm: an introduction,,,,"Ajwa, Liu, Wang.",2003,web draft 1995,,,14,0,English,Математика//Алгебра,kolxoz,8,,,,,,,,,,,,0,,,,,,,,125879,pdf,6A2AE5CAB92499B889B951CF9159194D,,,"M_Mathematics/MA_Algebra/MAco_Computational algebra/Ajwa, Liu, Wang. Groebner bases algorithm.. an introduction (1995,web draft, 2003)(14s)_MAco_.pdf",0,2000-01-01 01:00:00,2016-04-03 02:51:08,3000/6a2ae5cab92499b889b951cf9159194d.jpg,,
5572971,Geometric algorithms and combinatorial optimization,,Algorithms and Combinatorics,,"Martin Gr Tschel, Laszlo Lovasz, Alexander Schrijver",1988,,Not Avail,,379,0,English,Математика//Геометрия и топология,kolxoz,18,"354013624X,9783540136248",,,,,511.6,QA167.G76 1988,,,,,600,,,,,1,,1,4231502,djvu,6A167F31D8FA041B2E8FD636E353600A,,,"M_Mathematics/MA_Algebra/MAc_Combinatorics/Groetschel, Lovasz, Schrijver. Geometric algorithms and combinatorial optimization (Springer, 1988)(ISBN 354013624X)(600dpi)(T)(379s)_MAc_.djvu",0,2000-01-01 01:00:00,2016-04-03 02:51:08,3000/6a167f31d8fa041b2e8fd636e353600a.jpg,,
5572970,L'elimination,,,,Laurent H.,1900,,Paris,,89,0,French,Математика//Алгебра,kolxoz,18,,,,,,,,,,,,600,,1,,,,,T,1224417,djvu,69D1860BA3D2B8B3D185761C5F4D06A3,,,"M_Mathematics/MA_Algebra/MAco_Computational algebra/Laurent H. L#elimination (Paris, 1900)(fr)(600dpi)(KA)(T)(89s)_MAco_.djvu",0,2000-01-01 01:00:00,2016-04-03 02:51:08,3000/69d1860ba3d2b8b3d185761c5f4d06a3.jpg,,
5572969,"The Mathematical Papers of Sir William Rowan Hamilton: Volume 4, Geometry, Analysis, Astronomy, Probability and Finite Differences, Miscellaneous ",Volume 4,,,"William Rowan Hamilton, B. K. P. Scaife",2001,1,Cambridge University Press,,847,0,English,Математика,kolxoz,5,"052159216X,9780521592161",,,,,510.81,"AS122 .D817 no. 13, etc.",,,OL6762521M,,0,,,,,1,,,5701828,pdf,6910A8F0525844D774229E9F0FC2A6A1,,,"M_Mathematics/Hamilton W.R. The collected mathematical papers. vol.4.. Geometry, analysis, astronomy, probability, miscellaneous (CUP, 2000)(ISBN 052159216X)(847s).pdf",0,2000-01-01 01:00:00,2016-04-03 02:51:08,3000/6910a8f0525844d774229e9f0fc2a6a1-d.jpg,,
5572967,Elements of set theory,,,,Herbert B. Enderton,1977,,Academic Press,,289,0,English,Математика//Алгебра,kolxoz,14,"0122384407,9780122384400",,,,,511/.3,QA248 .E5,,,OL4894234M,,300,,1,,,1,,1,2128902,djvu,683058911B78F98C8A9FF6EA9733820E,,,"M_Mathematics/MA_Algebra/MAa_Abstract algebra/Enderton H.B. Elements of set theory (AP, 1977)(K)(T)(ISBN 0122384407)(289s)_MAa_.djvu",0,2000-01-01 01:00:00,2016-04-03 02:51:08,3000/683058911b78f98c8a9ff6ea9733820e-d.jpg,,
5572968,Combinatorics of permutations,,Discrete Mathematics and Its Applications,,Miklos Bona,2004,1,Chapman and Hall/CRC,,382,0,English,Математика//Комбинаторика,kolxoz,18,"1584884347,9781584884347,9781420035186",,,,,,,,,OL15577992M,,0,,,,,1,,1,5430021,pdf,68F956B2FA4D2A35831210E26CDAE7C4,,,"M_Mathematics/MA_Algebra/MAc_Combinatorics/Bona M. Combinatorics of permutations (ISBN 1584884347)(CRC, 2004)(382s)_MAc_.pdf",0,2000-01-01 01:00:00,2016-04-03 02:51:08,3000/68f956b2fa4d2a35831210e26cdae7c4-d.jpg,,
5572966,"Многогранники, графы, оптимизация",,,,"Емеличев В.А., Ковалев М.М., Кравцов М.К.",1981,,Наука,,172,0,Russian,Математика//Теория графов,infanata,8,,,,,,,,,,,,300,,,1,,,,,4895212,djvu,6826083FEEC0A37F7AC2B82A9E3485C2,,,"N:\\natahaus\\2007\\2007-04\\13 04 07\\Емеличев В.А., Ковалев М.М., Кравцов М.К. - Многогранники, графы, оптимизация 1981.djvu",0,2000-01-01 01:00:00,2016-04-03 02:51:08,3000/6826083feec0a37f7ac2b82a9e3485c2.jpg,,
5572965,Enumerative combinatorics,Volume 1,Cambridge Studies in Advanced Mathematics,,Richard P. Stanley,2000,1st,"Wadsworth and Brooks / Cole, Chapman and Hall",,335,0,English,Математика//Комбинаторика,kolxoz,14,"0534065465,0521663512,9780534065461,9780521663519,0521553091,9780521553094",,,,,511/.62,QA164.8 .S73 1997,,,OL1004539M,,300,,,,,1,,,3329243,djvu,67997F3D50B6DD3BE11AEF36D3527A13,,,"Stanley R. Enumerative combinatorics, vol 1 (CSAM 49, CUP, 1997)(ISBN 0521553091)(335s).djvu",0,2000-01-01 01:00:00,2016-04-03 02:51:08,3000/67997f3d50b6dd3be11aef36d3527a13-d.jpg,,
5572964,Introduction to semialgebraic geometry,,,,Coste M.,2002,,,,78,0,English,Математика//Геометрия и топология,kolxoz,8,,,,,,,,,,,,300,,,,,,,T,444013,djvu,66CE3B84156B30F00A7862BB034B0FBA,,,M_Mathematics/MA_Algebra/MAco_Computational algebra/Coste M. Introduction to semialgebraic geometry (2002)(T)(78s).djvu,0,2000-01-01 01:00:00,2016-04-03 02:51:08,3000/66ce3b84156b30f00a7862bb034b0fba.jpg,,
5572963,The Grothendieck Festschrift,Volume 2,Progress in Math Ser,,"Pierre Cartier, Luc Illusie, Nicholas M. Katz, Gérard Laumon, Yuri I. Manin, Kenneth A. Ribet",1990,Reprint of the 1990 edition,Birkhauser,,564,0,English,Математика,kolxoz,21,"9780817634285,0817634282,0817634290,3764334282,3764334290",,,,,516.3/5,QA564 .G717 1990,,,OL1966226M,,300,,,,,,,T,3453358,djvu,66AE669D8EA8E123C89E783F465D154A,,,"M_Mathematics/Cartier P., et al. (eds.) The Grothendieck Festschrift. Volume II. Reprint of the 1990 edition (Birkhauser, 2007)(T)(564s)_M_.djvu",0,2000-01-01 01:00:00,2016-04-03 02:51:08,3000/66ae669d8ea8e123c89e783f465d154a.jpg,,
5572962,Группы автоморфизмов алгебраических систем,,,,Плоткин Б.И.,1966,,Наука,,602,0,Russian,Математика//Алгебра,kolxoz,14,,,,,,,,,,,,600,,1,,,,,T,7207040,djvu,66A1AD715CF383CC3620DD44E0491702,,,"M_Mathematics/MA_Algebra/MAa_Abstract algebra/Plotkin B.I. Gruppy avtomorfizmov algebraicheskih sistem (Nauka, 1966)(ru)(K)(600dpi)(T)(602s)_MAa_.djvu",0,2000-01-01 01:00:00,2016-04-03 02:51:08,3000/66a1ad715cf383cc3620dd44e0491702.jpg,,
5572961,Mathematics into 21 century,,"American Mathematical Society Centennial Publications, Vol II",,Felix Browder,1992,,American Society of Civil Engineers,,509,0,English,Математика,kolxoz,13,"0821801678,9780821801673",,,,,"510/.6/073 s,510",QA1 .A52693 1988 vol. 2,,,OL1543171M,,300,,,,,1,,1,4829976,djvu,666B6840B505DB2C31A1AA8125FEDC93,,,"M_Mathematics/Browder F. (ed.) Mathematics into 21 century (AMS,1992)(T)(ISBN 0821801678)(509s).djvu",0,2000-01-01 01:00:00,2016-04-03 02:51:08,3000/666b6840b505db2c31a1aa8125fedc93.jpg,,
5572960,The Minnesota notes on Jordan algebras and their applications,,LNM1710,,Koecher M.,1999,,Springer,,179,0,English,Математика//Алгебра,kolxoz,18,3-540-66360-0,,,,,"510 s,512/.24",QA252.5 .K64 1999,,,OL19896576M,,300,,,,,,,T,932432,djvu,663C2A5722084843D0594CF5F80BFC52,,,"M_Mathematics/MA_Algebra/MAa_Abstract algebra/Koecher M. The Minnesota notes on Jordan algebras and their applications (LNM1710, Springer, 1999)(T)(O)(179s)_MAa_.djvu",0,2000-01-01 01:00:00,2016-04-03 02:51:08,3000/663c2a5722084843d0594cf5f80bfc52.jpg,,
5572959,Топосы. Категорный анализ логики,,,,Голдблатт Р.,1983,,Мир,,487,0,Russian,Математика//Анализ,kolxoz,8,,,,,,,,,,,,400,,1,,,,,T,5993587,djvu,65E0BFD907C7E03419F2F8C3E112BBCA,,,M_Mathematics/MA_Algebra/MAct_Category theory/Goldblatt R. Toposy. Kategornyj analiz logiki (Mir 1983)(ru)(K)(400dpi)(T)(487s)_MAct_.djvu,0,2000-01-01 01:00:00,2016-04-03 02:51:08,3000/65e0bfd907c7e03419f2f8c3e112bbca.jpg,,
5572958,Теория графов,,,,Харари Ф. (Harary),2003,2,УРСС,,300,0,Russian,Математика//Дискретная математика,kolxoz,21,5354003016,,,,,,,,,,,600,,1,,,,,T,6434436,djvu,65D1B54EF6C09B14428F7C4A3F66E4FB,,,"M_Mathematics/MA_Algebra/MAc_Combinatorics/Harari F. (_Harary_) Teoriya grafov (2e izd., URSS, 2003)(ISBN 5354003016)(ru)(600dpi)(K)(T)(O)(300s)_MAc_.djvu",0,2000-01-01 01:00:00,2016-04-03 02:51:08,3000/65d1b54ef6c09b14428f7c4a3f66e4fb.jpg,,
5572957,Graphs,,North-Holland Mathematical Library,,C. Berge,1989,3,North Holland,,424,0,English,Математика//Дискретная математика,kolxoz,14,"9780444876034,0444876030",,,,,511/.5,QA166 .B389513 1985,,,OL2856145M,,300,,,,,,,,3547281,djvu,657AE3ABEC5E30EBCF2ECB3D7E71C801,,,"Berge C. Graphs (3ed., North-Holland, 1991)(T)(424s)_MAc_.djvu",0,2000-01-01 01:00:00,2016-04-03 02:51:08,3000/657ae3abec5e30ebcf2ecb3d7e71c801.jpg,,
5572956,Introduction to Algebraic Curves ,,Translations of Mathematical Monographs,,Phillip A. Griffiths,1989,,American Mathematical Society,,229,0,English,Математика//Алгебра,kolxoz,14,"0821845373,9780821845370",,,,,,,,,OL22722496M,,600,,1,,,1,,1,1815544,djvu,65532C3087B4CB3446BFE75D30EEDBB5,,,"M_Mathematics/MA_Algebra/MAg_Algebraic geometry/Griffiths P.A. Introduction to algebraic curves (AMS, 1989)(600dpi)(KA)(T)(ISBN 0821845306)(229s)_MAg_.djvu",0,2000-01-01 01:00:00,2016-04-03 02:51:08,3000/65532c3087b4cb3446bfe75d30eedbb5-d.jpg,,
5572955,star-Autonomous categories,,LNM0752,,Antonio Badia,2009,1,Springer,,144,0,English,Математика//Алгебра,kolxoz,21,"9780387095639,0387095632",,,,,"510 s,512/.55","QA3 .L28 no. 752,QA169 .L28 no. 752",,,OL4417651M,,300,,,,,1,,1,880850,djvu,64AFF838BAE0EC340787F0DAE151FC9E,,,"M_Mathematics/MA_Algebra/MAct_Category theory/Barr M. star-Autonomous categories (LNM0752, Springer, 1979)(ISBN 0387095632)(T)(144s)_MAct_.djvu",0,2000-01-01 01:00:00,2016-04-03 02:51:08,3000/64aff838bae0ec340787f0dae151fc9e-d.jpg,,
5572954,Симметрические функции и многочлены Холла,,,,Макдональд И.,1984,,Мир,,221,0,Russian,Математика,kolxoz,8,,,,,,,,,,,,300,,,,,,,,2015451,djvu,648D5B8A39D1FA6A8B30D0933EA04306,,,"M_Mathematics/MA_Algebra/MAa_Abstract algebra/Makdonal#d I. Simmetricheskie funkcii i mnogochleny Holla (Mir, 1984)(ru)(T)(221s).djvu",0,2000-01-01 01:00:00,2016-04-03 02:51:08,3000/648d5b8a39d1fa6a8b30d0933ea04306.jpg,,
5572953,Moment maps and combinatorial invariants of Hamiltonian T^n-spaces,,Progress in Mathematics,,Victor Guillemin,1994,1,Birkhäuser Boston,,82,0,English,Математика,kolxoz,8,"0817637702,9780817637705",,,,,516.3/6,QA691 .G95 1994,,,OL1089783M,,300,,,1,,1,,1,1816030,djvu,647D59789F88E87B038CA9177D8F9869,,,"M_Mathematics/MA_Algebra/MAg_Algebraic geometry/Guillemin V. Moment maps and combinatorial invariants of Hamiltonian T^n-spaces (Birkhauser, 1994)(L)(T)(ISBN 0817637702)(82s)_MAg_.djvu",0,2000-01-01 01:00:00,2016-04-03 02:51:08,3000/647d59789f88e87b038ca9177d8f9869-d.jpg,,
5572952,Monomialization of morphisms from 3-folds to surfaces,,LNM1786,,Steven D. Cutkosky,2002,1,Springer,,240,0,English,Математика//Алгебра,kolxoz,14,"3540437800,9783540437802",,,,,,,,,OL9057799M,,0,,,,,1,,1,1613007,pdf,6462D0C0B934D61A467CD6A9A105DD70,,,"M_Mathematics/MA_Algebra/MAg_Algebraic geometry/Cutkosky S.D. Monomialization of morphisms from 3-folds to surfaces (LNM1786, Springer, 2002)(ISBN 3540437800)(240s).pdf",0,2000-01-01 01:00:00,2016-04-03 02:51:08,3000/6462d0c0b934d61a467cd6a9a105dd70-d.jpg,,
5572951,Oeuvres,Tome 4,,,Hermite Ch.,1917,,Gauthier~Villars,,613,0,French,Математика,kolxoz,18,,,,,,,,,,,,600,,,,,,,T,9512312,djvu,6424675593C71C0C2B84DA1A95CCFE74,,,"M_Mathematics/Hermite Ch. Oeuvres, tome 4 (Gauthier-Villars, 1917)(fr)(600dpi)(T)(613s)_M_.djvu",0,2000-01-01 01:00:00,2016-04-03 02:51:08,3000/6424675593c71c0c2b84da1a95ccfe74.jpg,,
5572950,Collected mathematical papers,Volume 1,Classic Reprint ,,Arthur Cayley,2010,,Forgotten Books,,620,0,English,Математика,kolxoz,17,"9781440060953,1440060959",,,,,,,,,,,600,,,,,,,,5067559,djvu,63E7123A03DCF6B3DF57ED0B3F2452B1,,,"M_Mathematics/Cayley A. Collected mathematical papers, vol. I (CUP, 1889)(600dpi)(T)(620s)_M_.djvu",0,2000-01-01 01:00:00,2016-04-03 02:51:08,3000/63e7123a03dcf6b3df57ed0b3f2452b1-d.jpg,,
5572949,Theory of Jacobi forms,,Progress in Mathematics ,,"Martin Eichler, Don Zagier",1985,,Birkhauser,,160,0,English,Математика//Алгебра,kolxoz,14,"9780817631802,0817631801",,,,,512.9/44,QA243 .E36 1985,,,OL2865163M,,300,,,,,,,T,1105425,djvu,63729F0D82B9E5DB1D3E073C406CEC61,,,"M_Mathematics/MA_Algebra/MAg_Algebraic geometry/Eichler M., Zagier D. Theory of Jacobi forms (Birkhauser, 1985)(T)(ISBN 0817631801)(160s)_MAg_.djvu",0,2000-01-01 01:00:00,2016-04-03 02:51:08,3000/63729f0d82b9e5db1d3e073c406cec61.jpg,,
5572948,Elliptic curves,,GMT111,,Dale Husemöller,2003,2nd,Springer,,510,0,English,Математика//Алгебра,kolxoz,8,"9780387954905,9780387215778,0387954902",,,,,516.3/52,QA567 .H897 2004,,,OL3567664M,,0,,,,,1,,1,3604766,pdf,6358EC0849A0B3F92A06F2A7114E4E8D,,,"M_Mathematics/MA_Algebra/MAg_Algebraic geometry/Husemoeller D. Elliptic curves (2ed., Springer, GMT111, 2004)(ISBN 0387954902)(510s).pdf",0,2000-01-01 01:00:00,2016-04-03 02:51:08,3000/6358ec0849a0b3f92a06f2a7114e4e8d-d.jpg,,
5572947,Vertex algebras and algebraic curves,,Mathematical Surveys and Monographs,,"Edward Frenkel, David Ben-Zvi",2001,,American Mathematical Society,,356,0,English,Математика//Алгебра,kolxoz,8,"9780821828946,0821828940",,,,,,,,,OL9539874M,,300,,,,,1,,1,3535120,djvu,63073C23B55974F6D0E344A03646D2E7,,,"Frenkel E., Ben-Zwi D. Vertex algebras and algebraic curves (AMS, 2001)(T)(ISBN 0821828940)(356s).djvu",0,2000-01-01 01:00:00,2016-04-03 02:51:08,3000/63073c23b55974f6d0e344a03646d2e7-d.jpg,,
5572946,Riemann-Roch algebra,,Grundlehren der mathematischen Wissenschaften ,,"William Fulton, Serge Lang",1985,1,Springer,,111,0,English,Математика//Алгебра,kolxoz,8,"0387960864,9780387960869",,,,,512/.33,QA564 .F85 1985,,,OL2863878M,,300,,,1,,1,,1,3489710,djvu,62DD8ED705C58E77DDE227FF7B4AE255,,,"M_Mathematics/MA_Algebra/MAg_Algebraic geometry/Fulton W., Lang S. Riemann-Roch algebra (Springer, 1985)(L)(T)(ISBN 0387960864)(111s).djvu",0,2000-01-01 01:00:00,2016-04-03 02:51:08,3000/62dd8ed705c58e77dde227ff7b4ae255-d.jpg,,
5572945,Automorphic Forms and Lie Superalgebras,,Algebra and Applications,,Urmie Ray,2007,1,Springer,,291,0,English,Математика//Алгебра,kolxoz,18,"9781402050091,1-4020-5009-7",,,,,,,,,OL8372067M,,0,,,,,,,T,3028276,pdf,62AD9F5F16DC741C2F5C33C84A5D9ED3,,,"M_Mathematics/MA_Algebra/MAa_Abstract algebra/Ray U. Automorphic Forms and Lie Superalgebras (Springer, 2006)(291s)_MAa_.pdf",0,2000-01-01 01:00:00,2016-04-03 02:51:08,3000/62ad9f5f16dc741c2f5c33c84a5d9ed3-d.jpg,,
5572944,Groebner (Grobner) bases and commutative algebra,,Graduate Texts in Mathematics,,"Thomas Becker, Volker Weispfenning, H. Kredel",1993,Corrected,Springer,,596,0,English,Математика//Алгебра,kolxoz,18,"0387979719,9783540979715,9780387979717,3540979719",,,,,512/.24,QA251.3 .B43 1993,,,,,300,,1,,,1,,1,4415185,djvu,6290A3B1984D9D198E6C92DCF16076D8,,,"M_Mathematics/MA_Algebra/MAco_Computational algebra/Becker T., Weispfenning V. Groebner bases and commutative algebra (Springer, 1993)(KA)(T)(ISBN 0387979719)(596s)_MAco_.djvu",0,2000-01-01 01:00:00,2016-04-03 02:51:08,3000/6290a3b1984d9d198e6c92dcf16076d8-d.jpg,,
5572943,Введение в комбинаторный анализ,,,,Риордан Д.,1963,,ИЛ,,288,0,Russian,Математика//Анализ,kolxoz,14,,,,,,,,,,,,300,,,,,,,T,2904152,djvu,61A696084440B0CD6BEC8F1687583A0A,,,"M_Mathematics/MA_Algebra/MAc_Combinatorics/Riordan D. Vvedenie v kombinatornyj analiz (IL, 1963)(ru)(T)(288s)_MAc_.djvu",0,2000-01-01 01:00:00,2016-04-03 02:51:08,3000/61a696084440b0cd6bec8f1687583a0a.jpg,,
5572942,Представление и восстановление графов,,,,"Асельдеров З.М., Донец Г.А.",1991,,Наукова Думка,Киев,96,0,Russian,Математика//Теория графов,infanata,8,5-12-002332-0,,,,,,,,,OL1300678M,,300,,,1,,,,,5037851,djvu,616FC383011A114E41616CD41A4F303E,,,"N:\\natahaus\\2007\\2007-03\\28 03 07\\Асельдеров З.М., Донец Г.А. - Представление и восстановление графов 1991.djvu",0,2000-01-01 01:00:00,2016-04-03 02:51:08,3000/616fc383011a114e41616cd41a4f303e.jpg,,
5572941,Oeuvres,Tome 7,,,Lagrange J.L.,1877,,Gauthier~Villars,,629,0,French,Математика,kolxoz,14,,,,,,,,,,,,600,,,,,,,T,10827094,djvu,61452E92751F72BD53E66637C2C0C8C4,,,"M_Mathematics/Lagrange J.L. Oeuvres, Tome 07 (Gauthier-Villars 1877)(fr)(600dpi)(T)(629s).djvu",0,2000-01-01 01:00:00,2016-04-03 02:51:08,3000/61452e92751f72bd53e66637c2c0c8c4.jpg,,
5572940,Lectures on the theory of algebraic functions of one variable,,LNM0314,,Max Deuring,1973,1st,Springer-Verlag,,158,0,English,Математика//Алгебра,kolxoz,18,"9780387061528,0-387-06152-5",,,,,"510/.8 s,515/.9","QA3 .L28 no. 314,QA341 .L28 no. 314",,,OL5312961M,,300,,,,,,,T,1034989,djvu,6133D27838D03B91BD53E28E7325A0A2,,,"M_Mathematics/MA_Algebra/MAg_Algebraic geometry/Deuring M. Lectures on the theory of algebraic functions of one variable (LNM0314, Springer, 1973)(T)(158s)_MAg_.djvu",0,2000-01-01 01:00:00,2016-04-03 02:51:08,3000/6133d27838d03b91bd53e28e7325a0a2.jpg,,
5572939,Собрание сочинений,Том 1,,,Чеботарев Н.Г.,1949,,АН СССР,,344,0,Russian,Литература,kolxoz,8,,,,,,,,,,,,600,,,,,,,T,11679062,djvu,612A968DBC6E7EEADBCC43288B0782E9,,,"M_Mathematics/Chebotarev N.G. Sobranie sochinenij, tom 1 (AN SSSR, 1949)(ru)(600dpi)(T)(344s).djvu",0,2000-01-01 01:00:00,2016-04-03 02:51:08,3000/612a968dbc6e7eeadbcc43288b0782e9.jpg,,
5572938,Геометрическая алгебра,,,,Артин Э.,1969,,Наука,,285,0,Russian,Математика//Геометрия и топология,kolxoz,8,,,,,,,,,,,,300,,1,,,,,T,3761797,djvu,60D908B3E72C0828803B69945A6A5398,,,M_Mathematics/MA_Algebra/Artin E#. Geometricheskaya algebra (ru)(K)(Nauka 1969)(T)(285s).djvu,0,2000-01-01 01:00:00,2016-04-03 02:51:08,3000/60d908b3e72c0828803b69945a6a5398.jpg,,
5572937,Psychology of advanced mathematical thinking,,Mathematics Education Library,,E. von Glasersfeld,1991,1,Springer,,310,0,English,Математика,kolxoz,15,"9780792312574,0792312570,0792312821,0792312996,0792313445",,,,,372.7,QA117 .S84 1991,,,OL1537426M,,400,1,,,,,,T,2766957,djvu,60CF683ABCFDC0E2FE1057DEB5D8A5BF,,,"M_Mathematics/Tall D. Psychology of advanced mathematical thinking (Kluwer, 2002)(400dpi)(T)(C)(310s).djvu",0,2000-01-01 01:00:00,2016-04-03 02:51:08,3000/60cf683abcfdc0e2fe1057deb5d8a5bf-d.jpg,,
5572936,Commutative rings,,Lectures in Mathematics,,Irving Kaplansky,1974,Revised,Univ of Chicago Pr (Tx),Chicago,187,0,English,Математика//Алгебра,kolxoz,21,"0226424545,9780226424545",,,,,,,,,OL9898267M,,300,,1,,,1,,1,1101787,djvu,607F99767975C9650043FE461105AD24,,,"M_Mathematics/MA_Algebra/MAa_Abstract algebra/Kaplansky I. Commutative rings (revised ed., Chicago, 1974)(ISBN 0226424545)(KA)(T)(187s)_MAa_.djvu",0,2000-01-01 01:00:00,2016-04-03 02:51:08,3000/607f99767975c9650043fe461105ad24.jpg,,
5572935,Surveys in modern mathematics,,London Mathematical Society Lecture Note Series ,,"Victor Prasolov, Yulij Ilyashenko",2005,,Cambridge University Press,,361,0,English,Математика,kolxoz,19,"9780521547932,0521547938",,,,,,,,,OL17151754M,,0,,,,,,,T,1562582,pdf,606C7AC2ECFBD4F50B1B94E1BC98CFFA,,,"M_Mathematics/Prasolov V., Ilyashenko Yu. (eds.) Surveys in modern mathematics (CUP, 2005)(361s)_M_.pdf",0,2000-01-01 01:00:00,2016-04-03 02:51:08,3000/606c7ac2ecfbd4f50b1b94e1bc98cffa-d.jpg,,
5572934,Лекции по теории категорий,,,,"Цаленко М.Ц., Шульгейфер Е.Г.",1970,,МГУ,,281,0,Russian,Образование,kolxoz,14,,,,,,,,,,,,300,,1,,,,,T,4593700,djvu,604221B20CD33ADF923BAE88D089DFAB,,,"M_Mathematics/MA_Algebra/MAct_Category theory/Calenko M.C., Shul#gejfer E.G. Lekcii po teorii kategorij (MGU, 1970)(ru)(KA)(T)(281s)_MAct_.djvu",0,2000-01-01 01:00:00,2016-04-03 02:51:08,3000/604221b20cd33adf923bae88d089dfab.jpg,,
5572933,Abstract and concrete categories: the joy of cats,,"Pure and Applied Mathematics: A Wiley-Interscience Series of Texts, Monographs and Tracts",,"Jiri Adamek, Horst Herrlich, George E. Strecker",1990,free web version,Wiley-Interscience,,524,0,English,Техника//Строительство,kolxoz,14,"9780471609223,0471609226",,,,,511.3,QA169 .A3199 1990,,,OL2195331M,,0,,,,,1,,,4421532,pdf,5FA82BE26689A4E6F4415EA068D35A9D,,,"M_Mathematics/MA_Algebra/MAct_Category theory/Adamek J., Herrlich H., Strecker G.E. Abstract and concrete categories.. the joy of cats (free web version, 2004)(524s)_MAct_.pdf",0,2000-01-01 01:00:00,2016-04-03 02:51:08,3000/5fa82be26689a4e6f4415ea068d35a9d-d.jpg,,
5572932,The umbral calculus,,Pure and Applied Mathematics,,Steven Roman,2005,,Dover Publications,,102,0,English,Математика//Анализ,kolxoz,8,"9780080874302,9780125943802,9780486441399,0125943806,0486441393",,,,,"510 s,515","QA3,QA303",,,OL21125312M,,300,,,1,,1,,1,1692729,djvu,5F773B174FC193AC17F248836BF791A2,,,"M_Mathematics/MA_Algebra/MAc_Combinatorics/Roman S. The umbral calculus (AP, 1984)(ISBN 0125943806)(L)(T)(102s).djvu",0,2000-01-01 01:00:00,2016-04-03 02:51:08,3000/5f773b174fc193ac17f248836bf791a2-d.jpg,,
5572931,Категории для работающего математика,,,,Маклейн С. (MacLane S.),2004,,Физматлит,,349,0,Russian,Математика,kolxoz,14,0-387-98403-8,,,,,512/.55,QA169 .M33 1998,,,OL697668M,,600,,1,,,,,,2867570,djvu,5F72CA59E6FC1AEC188988130C6DB10B,,,"M_Mathematics/MA_Algebra/MAct_Category theory/Maklejn S. (_MacLane S._) Kategorii dlya rabotayushchego matematika (FML, 2004)(ru)(K)(600dpi)(T)(349s)_MAct_.djvu",0,2000-01-01 01:00:00,2016-04-03 02:51:08,3000/5f72ca59e6fc1aec188988130c6db10b.jpg,,
5572930,Elimination methods in polynomial algebra,,Mathematics and Its Applications ,,"V. Bykov, A. Kytmanov, M. Lazman, Mikael Passare",1998,1,Springer,,248,0,English,Математика//Алгебра,kolxoz,18,"9780792352402,0792352408",,,,,512/.4,QA192 .B9413 1998,,,OL373007M,,0,,,,,,,T,1312795,pdf,5F6298295B52A5B3096E09F9A7339090,,,"M_Mathematics/MA_Algebra/MAco_Computational algebra/Bykov, Kytmanov, Lazman. Elimination methods in polynomial algebra (Kluwer, 1997)(248s).pdf",0,2000-01-01 01:00:00,2016-04-03 02:51:08,3000/5f6298295b52a5b3096e09f9a7339090-d.jpg,,
5572929,"Математика 19 века. Геометрия, теория аналитических функций",Том 2,,,"Колмогоров А.Н., Юшкевич А.П. (ред.)",1978,,Наука,,270,0,Russian,Математика,kolxoz,8,,,,,,,,,,,,300,,,,,,,,4796795,djvu,5F08B97E7DF471FC83FECF13ECFE4D76,,,"M_Mathematics/Kolmogorov A.N., Jushkevich A.P. (red.) Matematika 19 veka. Tom 2. Geometrija, teorija analiticheskih funkcij (Nauka, 1978)(ru)(T)(270s).djvu",0,2000-01-01 01:00:00,2016-04-03 02:51:08,3000/5f08b97e7df471fc83fecf13ecfe4d76.jpg,,
5572928,Differential algebra and algebraic groups,,,,Kolchin E.R.,1973,,AP,,468,0,English,Математика//Алгебра,kolxoz,18,,,,,,,,,,,,300,,1,,,,,T,3849422,djvu,5E344892242D4D8C164946F52B9B14BE,,,"M_Mathematics/MA_Algebra/MAd_Differential algebra/Kolchin E.R. Differential algebra and algebraic groups (AP, 1973)(KA)(T)(468s)_MAd_.djvu",0,2000-01-01 01:00:00,2016-04-03 02:51:08,3000/5e344892242d4d8c164946f52b9b14be.jpg,,
5572927,The Grothendieck Festschrift,Volume 3,Progr. Math.88,,"Pierre Cartier, Luc Illusie, Nicholas M. Katz, Gérard Laumon, Yuri I. Manin, Kenneth A. Ribet",1990,1,Birkhäuser Boston,,253,0,English,Математика,kolxoz,8,"9780817634872,0817634878,0817645683,9780817645687",,,,,516.3/5,QA564 .G717 1990,,,OL1966226M,,300,,,1,,1,,1,3870623,djvu,5E060F32A8DF7BF9475D2D0D03BB7C05,,,"M_Mathematics/Cartier P., Illusie L., Katz N.M., Laumon G., Manin Yu., Ribet K.A. (eds.) The Grothendieck Festschrift, vol.3 (Progr.Math.88, Birkhauser, 1990)(L)(T)(ISBN 0817634878)(253s).djvu",0,2000-01-01 01:00:00,2016-04-03 02:51:08,3000/5e060f32a8df7bf9475d2d0d03bb7c05.jpg,,
5572926,"East side, West side. Lectures on combinatorial objects with Maple",,,,Wilf H.,1999,,,,66,0,English,Компьютеры//Программы//Системы научных расчетов,kolxoz,8,,,,,,,,,,,,0,,,,,,,,409998,pdf,5DCC1F3B26BF1C35155B8014D380C559,,,"M_Mathematics/MA_Algebra/MAc_Combinatorics/Wilf H. East side, West side. Lectures on combinatorial objects with Maple (1999)(66s).pdf",0,2000-01-01 01:00:00,2016-04-03 02:51:08,3000/5dcc1f3b26bf1c35155b8014d380c559.jpg,,
5572925,Octonions,,,,Baez J.,2001,web draft,,,56,0,English,Математика//Алгебра,kolxoz,18,,,,,,,,,,,,600,,,,,,,,499476,djvu,5DA53241E6F5633ED763703C4C25D586,,,"M_Mathematics/MA_Algebra/MAa_Abstract algebra/Baez J. Octonions (web draft, 2001)(600dpi)(T)(56s).djvu",0,2000-01-01 01:00:00,2016-04-03 02:51:08,3000/5da53241e6f5633ed763703c4c25d586.jpg,,
5572924,Polynomial automorphisms and the Jacobian conjecture,,Progress in Mathematics,,Arno van den Essen,2000,1,Birkhäuser Basel,,174,0,English,Математика//Алгебра,kolxoz,8,"3764363509,9783764363505",,,,,,,,,OL9090583M,,300,,,1,,1,,,3645037,djvu,5D7061728B52A31DDE0F8639B6184C0C,,,"M_Mathematics/MA_Algebra/MAa_Abstract algebra/van den Essen A. Polynomial automorphisms and the Jacobian conjecture (Birkhauser, 2000)(ISBN 3764363509)(L)(T)(174s).djvu",0,2000-01-01 01:00:00,2016-04-03 02:51:08,3000/5d7061728b52a31dde0f8639b6184c0c-d.jpg,,
5572923,Lectures on deformations of singularities (Tata Lectures on Mathematics and Physics 54),,,,Artin M.,1976,lectures,Tata Institute of Fundamental Research,,68,0,English,Математика,kolxoz,14,,,B0006E10S6,,,,,,,,,600,,,1,,,,1,1608842,djvu,5CD28E647AD05DD127732A9DC6F02962,,,"M_Mathematics/MA_Algebra/MAg_Algebraic geometry/Artin M. Lectures on deformations of singularities (Tata Lectures on Mathematics and Physics 54, 1976)(600dpi)(L)(T)(68s)_MAg_.djvu",0,2000-01-01 01:00:00,2016-04-03 02:51:08,3000/5cd28e647ad05dd127732a9dc6f02962.jpg,,
5572922,Arithmetic theory of elliptic curves: Lectures,,LNM1716,,"J. Coates, R. Greenberg, K.A. Ribet, K. Rubin, C. Viola",1999,1,Springer,,268,0,English,Математика//Алгебра,kolxoz,18,"3540665463,9783540665465",,,,,516.35,QA567.S44 1985,,,OL15469324M,,300,,,,,1,,1,2013782,djvu,5CA0D7F8B2D52276C37E41857546CD42,,,"M_Mathematics/MA_Algebra/MAg_Algebraic geometry/Coates J., Greenberg R., Ribet K.A., Rubin K. Arithmetic theory of elliptic curves.. Lectures (LNM1716, Springer, 1999)(T)(O)(ISBN 3540665463)(268s)_MAg_.djvu",0,2000-01-01 01:00:00,2016-04-03 02:51:08,3000/5ca0d7f8b2d52276c37e41857546cd42-d.jpg,,
5572921,The Unity of Mathematics. 90th birthday of I.M. Gelfand,,Progress in Mathematics,,"Pavel Etingof, Vladimir S. Retakh, I. M. Singer",2005,1,Birkhäuser Boston,,646,0,English,Математика,kolxoz,21,"0817640762,9780817640767",,,,,,,,,OL8074634M,,0,,,,,1,,T,3817602,pdf,5C9AFFF27EE041C34C698D62BD510616,,,"M_Mathematics/Etingof P., Retakh V., Singer I. (eds.) The Unity of Mathematics. 90th birthday of I.M.Gelfand (Birkhauser, 2006)(ISBN 0817640762)(646s)_M_.pdf",0,2000-01-01 01:00:00,2016-04-03 02:51:08,3000/5c9afff27ee041c34c698d62bd510616-d.jpg,,
5572920,"Group Rings, Crossed Products and Galois Theory",,Cbms Regional Conference Series in Mathematics,,Donald S. Passman,1986,,Amer Mathematical Society,,77,0,English,Математика//Симметрия и группы,kolxoz,8,"0821807145,9780821807149",,,,,"510 s,512/.4","QA1,QA251.5",,,OL22585487M,,400,,,,,1,,1,2463239,djvu,5C98D1C6ED1E36DC2E3300031EC4D625,,,"M_Mathematics/MA_Algebra/MAa_Abstract algebra/Passman D.S. Group Rings, Crossed Products and Galois Theory (AMS, 1986)(400dpi)(T)(ISBN 0821807145)(77s).djvu",0,2000-01-01 01:00:00,2016-04-03 02:51:08,3000/5c98d1c6ed1e36dc2e3300031ec4d625.jpg,,
5572919,Gesammelte Abhandlungen,Band 2,,,Minkowski H.,1911,,,Leipzig,475,0,German,Математика,kolxoz,19,,,,,,,,,,,,600,,1,,,,,T,9027045,djvu,5C21E8F10D0298593889CAEAFEA73456,,,"M_Mathematics/Minkowski H. Gesammelte Abhandlungen. Band 2 (Leipzig, 1911)(600dpi)(KA)(de)(T)(475s).djvu",0,2000-01-01 01:00:00,2016-04-03 02:51:08,3000/5c21e8f10d0298593889caeafea73456.jpg,,
5572918,Seminaire Bourbaki 1973-1974 exposes 436-452,,LNM0431,,Bourbaki N.,1975,,Springer,,349,0,English,Математика,kolxoz,21,0387070230,,,,,,,,,,,300,,,,,,,1,2152804,djvu,5C1BAE0FE0CDCC48B3F5B0601F7D92EC,,,"M_Mathematics/Bourbaki N. Seminaire Bourbaki 1973-1974 exposes 436-452 (LNM0431, Springer, 1975)(ISBN 0387070230)(en)(fr)(T)(349s)_M_.djvu",0,2000-01-01 01:00:00,2016-04-03 02:51:08,3000/5c1bae0fe0cdcc48b3f5b0601f7d92ec.jpg,,
5572917,Combinatorics: a problem-oriented approach,,MAA,,Daniel A. Marcus,1999,,The Mathematical Association of America,,143,0,English,Математика//Комбинаторика,kolxoz,21,"9780883857106,0883857103",,,,,511/.6,QA164 .M345 1998,,,OL397283M,,600,,,,,,,T,778282,djvu,5C18D4845257F678E0CD2E2FA7923D0C,,,"M_Mathematics/MA_Algebra/MAc_Combinatorics/Marcus D.A. Combinatorics.. a problem-oriented approach (MAA, 1998)(ISBN 0883857103)(600dpi)(T)(143s)_MAc_.djvu",0,2000-01-01 01:00:00,2016-04-03 02:51:08,3000/5c18d4845257f678e0cd2e2fa7923d0c-d.jpg,,
5572916,Difference algebra,,,,Richard M. Cohn,1965,,Interscience Publishers,,367,0,English,Математика//Алгебра,kolxoz,14,"0470164379,9780470164372",,,,,,,,,,,600,,,,,1,,T,8532593,djvu,5BBC7C6E51A20E83722814C40D13D2A3,,,"M_Mathematics/MA_Algebra/MAd_Differential algebra/Cohn R.M. Difference algebra (Wiley, 1965)(600dpi)(T)(367s)_MAd_.djvu",0,2000-01-01 01:00:00,2016-04-03 02:51:08,3000/5bbc7c6e51a20e83722814c40d13d2a3.jpg,,
5572915,"Gesammelte Abhandlungen. Algebra, Invariantentheorie, Geometrie",Band 2,,,Hilbert D.,1933,,Springer,,466,0,German,Математика//Геометрия и топология,kolxoz,18,,,B00186S9DA,,,,,,,,,600,,,,,,,1,5961945,djvu,5AE282A8180AC471AFDC37C170F0D97A,,,"M_Mathematics/Hilbert D. Gesammelte Abhandlungen. Band 2. Algebra, Invariantentheorie, Geometrie (Springer, 1933)(de)(600dpi)(T)(O)(466s)_M_.djvu",0,2000-01-01 01:00:00,2016-04-03 02:51:08,3000/5ae282a8180ac471afdc37c170f0d97a.jpg,,
5572914,Лобачевский и его геометрия,,,,Каган В.Ф.,1955,,ГИТТЛ,,305,0,Russian,Математика//Геометрия и топология,kolxoz,18,,,,,,,,,,,,300,1,1,,,,,T,2765173,djvu,5A96CD74D100E4192032A239BA091A4E,,,"M_Mathematics/Kagan V.F. Lobachevskij i ego geometrija (GITTL,1955)(ru)(K)(T)(C)(O)(305s).djvu",0,2000-01-01 01:00:00,2016-04-03 02:51:08,3000/5a96cd74d100e4192032a239ba091a4e.jpg,,
5572913,Topics in cohomology of groups,,LNM1625,,Serge Lang,1996,,Springer-Verlag,,230,0,English,Математика//Алгебра,kolxoz,21,"9780387611815,0387611819",,,,,,,,,,,300,,,,,,,1,1070321,djvu,5A5BB6571BB77D3981ACD68D5D07DFE8,,,"M_Mathematics/MA_Algebra/MAa_Abstract algebra/Lang S. Topics in cohomology of groups (LNM1625, Springer, 1996)(ISBN 0387611819)(T)(230s)_MAa_.djvu",0,2000-01-01 01:00:00,2016-04-03 02:51:08,3000/5a5bb6571bb77d3981acd68d5d07dfe8.jpg,,
5572912,Polynomials,,"Algorithms and Computation in Mathematics, Vol. 11 ",,"Victor V. Prasolov, Dimitry Leites",2004,1st ed. 2004.  2nd printing,Springer,,316,0,English,Математика//Алгебра,kolxoz,21,"9783642039799,9783540407140,3540407146",,,,,512.9422,QA161.P59 P73 2009,,,OL24902303M,,300,,,,,1,,T,2845925,djvu,5A44E7B2E2B76BAB1EEA31C7A31DB3CF,,,"M_Mathematics/MA_Algebra/MAco_Computational algebra/Prasolov V.V. Polynomials (Springer, 2004)(ISBN 3540407146)(T)(316s)_MAco_.djvu",0,2000-01-01 01:00:00,2016-04-03 02:51:08,3000/5a44e7b2e2b76bab1eea31c7a31db3cf-d.jpg,,
5572911,Избранные труды,Том 3,,,Пуанкаре А. (H.Poincare),1974,,Наука,,773,0,Russian,Математика,kolxoz,11,,,,,,,,,,,,600,,,,,,,T,19984171,djvu,5A052E221C32E1B851256E00E6ED9E53,,,"M_Mathematics/Puankare A. (_H.Poincare_) Izbrannye trudy, tom 3 (Nauka, 1974)(ru)(600dpi)(T)(773s).djvu",0,2000-01-01 01:00:00,2016-04-03 02:51:08,3000/5a052e221c32e1b851256e00e6ed9e53.jpg,,
5572910,Строение конечных алгебр,,Contemporary Mathematics,,"Хобби Д., Маккензи Р.",1988,,Amer Mathematical Society,,286,0,Russian,Математика//Алгебра,kolxoz,8,0-8218-5073-3,,,,,512,QA251 .H65 1988,,,OL2040173M,,300,,,,,,,T,3442696,djvu,597710AE71B77570424F1086601B373C,,,"M_Mathematics/MA_Algebra/MAa_Abstract algebra/Hobbi D., Makkenzi R. Stroenie konechnyh algebr (Mir, 1993)(ru)(T)(286s).djvu",0,2000-01-01 01:00:00,2016-04-03 02:51:08,3000/597710ae71b77570424f1086601b373c.jpg,,
5572909,Gesammelte Abhandlungen. Zahlentheorie,Band 1,,,Hilbert D.,1932,,Springer,,558,0,German,Математика,kolxoz,18,,,B004HX663G,,,,,,,,,600,,,,,,,1,9000763,djvu,58A4649C43D158B0D498DDB87C08D3F3,,,"M_Mathematics/Hilbert D. Gesammelte Abhandlungen. Band 1. Zahlentheorie (Springer, 1932)(de)(600dpi)(T)(O)(558s)_M_.djvu",0,2000-01-01 01:00:00,2016-04-03 02:51:08,3000/58a4649c43d158b0d498ddb87c08d3f3.jpg,,
5572908,New approach to Arakelov geometry,,,,Durov N.,2007,arxiv 0704.2030,,,568,0,English,Математика//Геометрия и топология,kolxoz,18,,,,,,,,,,,,0,,,,,,,,4041904,pdf,58913B2FD3FFB34E0308BA3231D71968,,,"M_Mathematics/MA_Algebra/MAg_Algebraic geometry/Durov N. New approach to Arakelov geometry (arxiv 0704.2030, 2007)(568s)_MAg_.pdf",0,2000-01-01 01:00:00,2016-04-03 02:51:08,3000/58913b2fd3ffb34e0308ba3231d71968.jpg,,
5572907,Higher-dimensional algebraic geometry,,,,Debarre O.,,,Springer,,126,0,English,Математика//Геометрия и топология,kolxoz,14,,,,,,,,,,,,300,,,1,,,,,2710926,djvu,5860FA1DA85AEA2C7251B69196950BF2,,,M_Mathematics/MA_Algebra/MAg_Algebraic geometry/Debarre O. Higher-dimensional algebraic geometry (Springer)(L)(T)(126s)_MAg_.djvu,0,2000-01-01 01:00:00,2016-04-03 02:51:08,3000/5860fa1da85aea2c7251b69196950bf2.jpg,,
5572906,The strange logic of random graphs,,,,Joel Spencer,2001,1,Springer,,179,0,English,Математика//Теория графов,kolxoz,21,"3540416544,9783540416548",,,,,,,,,OL18730514M,,600,,1,,,1,,1,1508424,djvu,585B427229C41953469FB0EB2CFC1F5E,,,"M_Mathematics/MA_Algebra/MAc_Combinatorics/Spencer J. The strange logic of random graphs (Springer, 2001)(ISBN 3540416544)(600dpi)(KA)(T)(179s)_MAc_.djvu",0,2000-01-01 01:00:00,2016-04-03 02:51:08,3000/585b427229c41953469fb0eb2cfc1f5e-d.jpg,,
5572905,Combinatorial optimization,,,,Christofides. (ed.),1978,,Wiley,,212,0,English,Математика//Комбинаторика,kolxoz,8,,,,,,,,,,,,300,,,1,,,,,6402263,djvu,583AC0EB76D642E998CF7F0EAF89AED9,,,"M_Mathematics/MA_Algebra/MAc_Combinatorics/Christofides (ed.). Combinatorial optimization (Wiley, 1978)(L)(T)(212s).djvu",0,2000-01-01 01:00:00,2016-04-03 02:51:08,3000/583ac0eb76d642e998cf7f0eaf89aed9.jpg,,
5572904,Полное собрание сочинений,Том 1,,,Чебышев П.Л.,1946,,АН СССР,,344,0,Russian,Литература,kolxoz,21,,,,,,,,,,,,600,,1,,,,,T,7675087,djvu,5830C6F73FB383EEBF932490234ECC30,,,"M_Mathematics/Chebyshev P.L. Polnoe sobranie sochinenij. Tom 1 (AN SSSR, 1946)(ru)(KA)(600dpi)(T)(344s)_M_.djvu",0,2000-01-01 01:00:00,2016-04-03 02:51:08,3000/5830c6f73fb383eebf932490234ecc30.jpg,,
5572903,Алгебра многочленов,,,,Винберг Э.Б.,1980,,Просвещение,,175,0,Russian,Математика,kolxoz,14,,,,,,,,,,,,300,,,,,,,T,1989210,djvu,570E4A47D8BA893262F004AAC0AE890A,,,"M_Mathematics/MA_Algebra/Vinberg E#.B. Algebra mnogochlenov (Prosveshchenie, 1980)(ru)(T)(175s)_MA_.djvu",0,2000-01-01 01:00:00,2016-04-03 02:51:08,3000/570e4a47d8ba893262f004aac0ae890a.jpg,,
5572902,Functorial semantics of algebraic theories(free web version),,,,Lawvere F.W.,1963,PhD Thesis,,,122,0,English,Математика//Алгебра,kolxoz,14,,,,,,,,,,,,0,,,,,,,T,661023,pdf,56FDB04E3A5F646EE2930BEC3652D47A,,,"M_Mathematics/MA_Algebra/MAct_Category theory/Lawvere F.W. Functorial semantics of algebraic theories (PhD thesis, 1963)(free web version)(122s)_MAct_.pdf",0,2000-01-01 01:00:00,2016-04-03 02:51:08,3000/56fdb04e3a5f646ee2930bec3652d47a.jpg,,
5572901,Topics in Discrete Mathematics,,Algorithms and Combinatorics,,"Martin Klazar, Jan Kratochvil, Martin Loebl, Robin Thomas, Pavel Valtr",2006,1,Springer,,618,0,English,Математика,kolxoz,21,"3540336982,9783540336983",,,,,,,,,OL9056482M,,0,,,,,1,,,5440573,pdf,56DB809D2A46C434BDA4584CA27274D2,,,"M_Mathematics/MA_Algebra/MAc_Combinatorics/Klazar M., Kratochvil J., Loebl M., et al. (eds.) Topics in Discrete Mathematics (Springer, 2006)(ISBN 3540336982)(618s)_MAc_.pdf",0,2000-01-01 01:00:00,2016-04-03 02:51:08,3000/56db809d2a46c434bda4584ca27274d2-d.jpg,,
5572900,Cardinal and ordinal numbers,,,,Waclaw Sierpinski,1965,1st,"PWN, Warsaw",,488,0,English,Математика//Теория чисел,kolxoz,14,"9780900318023,0900318023",,,,,,,,,,,300,,1,,,,,1,5644991,djvu,567B500F20F6193C13CD8941A2E0019E,,,"M_Mathematics/MA_Algebra/MAa_Abstract algebra/Sierpinski W. Cardinal and ordinal numbers (PWN, 1965)(T)(488s)(K)_MAa_.djvu",0,2000-01-01 01:00:00,2016-04-03 02:51:08,3000/567b500f20f6193c13cd8941a2e0019e.jpg,,
5572899,"История математики, в 2-х томах. Том 2",Том 2,учебное пособие,,Рыбников К. А.,1963,,изд-во Московского университета,,336,0,Russian,Математика,infanata,19,,,,,,,,,,,,600,,1,,,,,T,3829608,djvu,56769AE74FB213C4C26C682843E15DE3,,,"N:\\natahaus\\2008\\2008-01\\2008.01.27\\Рыбников К. А. - История математики, в 2-х томах. Том 2 1963.djvu",0,2000-01-01 01:00:00,2016-04-03 02:51:08,3000/56769ae74fb213c4c26c682843e15de3.jpg,,
5572898,Леонтий Филиппович Магницкий и его Арифметика,Выпуск 1,,,Галанин Д.Д.,1914,,Сомова,Москва,72,0,Russian,Математика,kolxoz,13,,,,,,,,,,,,600,1,1,,,,,T,3204461,djvu,565A5F96AF6ACA144D59C972B913BA2E,,,"M_Mathematics/Galanin D.D. Leontij Filippovich Magnickij i ego Arifmetika, vyp.1 (Moskva, Somova, 1914)(ru)(K)(600dpi)(T)(C)(72s).djvu",0,2000-01-01 01:00:00,2016-04-03 02:51:08,3000/565a5f96af6aca144d59c972b913ba2e.jpg,,
5572897,Differential Galois theory,,Mathematics and Its Applications,,J. F. Pommaret,1983,1,Routledge,,383,0,English,Математика//Алгебра,kolxoz,8,"0677056702,9780677056708",,,,,515.3/53,QA374 .P63 1983,,,OL4260654M,,300,,,1,,1,,1,7059796,djvu,5658C33AEE98F39CB51F1336C518CF90,,,M_Mathematics/MA_Algebra/MAd_Differential algebra/Pommaret J.F. Differential Galois theory (1983)(ISBN 0677056702)(L)(T)(383s).djvu,0,2000-01-01 01:00:00,2016-04-03 02:51:08,3000/5658c33aee98f39cb51f1336c518cf90.jpg,,
5572896,Groupes et algÃ¨bres de Lie: Chapitre 9Groupes de Lie rÃ©els compacts ,,,,N. Bourbaki,2006,1,Springer,,141,0,French,Математика//Симметрия и группы,kolxoz,21,3-540-34392-X,,,,,,,,,OL12774134M,,300,,,,,,,,856128,djvu,563A87ED2F2603172C6A81E2B7676CCF,,,"M_Mathematics/Bourbaki N. Elements de Mathematique. Groupes et algebres de Lie. Chapitre 9 (Springer, 2007)(fr)(T)(141s)_M_.djvu",0,2000-01-01 01:00:00,2016-04-03 02:51:08,3000/563a87ed2f2603172c6a81e2b7676ccf-d.jpg,,
5572895,Combinatorial convexity and algebraic geometry,,Graduate Texts in Mathematics,,Günter Ewald,1996,1,Springer,,195,0,English,Математика//Геометрия и топология,kolxoz,8,"9780387947556,0387947558",,,,,516/.08,QA639.5 .E93 1996,,,OL974797M,,300,,,1,,1,,,5163833,djvu,55C05E73A705E5F4C760D28ECC3D11E7,,,"M_Mathematics/MA_Algebra/MAc_Combinatorics/Ewald G. Combinatorial convexity and algebraic geometry (Springer, 1996)(ISBN 0387947558)(L)(T)(195s).djvu",0,2000-01-01 01:00:00,2016-04-03 02:51:08,3000/55c05e73a705e5f4c760d28ecc3d11e7-d.jpg,,
5572894,Rings of differential operators,,North-Holland mathematical library ; v. 21,,Jan-Erik Bjork,1979,,Elsevier Science Ltd,,194,0,English,Математика//Теория операторов,kolxoz,8,"0444852921,9780444852922",,,,,515/.724,QA329.4,,,OL21436034M,no pages 298-301,300,,,1,,1,,1,6323827,djvu,55BCBF6BBEB572692686BED64E7C798C,,,M_Mathematics/MA_Algebra/MAd_Differential algebra/Bjoerk J.E. Rings of differential operators (1979)(no p.298-301)(ISBN 0444852921)(L)(T)(194s).djvu,0,2000-01-01 01:00:00,2016-04-03 02:51:08,3000/55bcbf6bbeb572692686bed64e7c798c.jpg,,
5572893,Geometry of cuts and metrics,,Algorithms and Combinatorics,,"Michel Marie Deza, Monique Laurent",1997,1,Springer,,597,0,English,Математика//Дискретная математика,kolxoz,21,"354061611X,9783540616115",,,,,511/.6,QA166 .D487 1997,,,OL669303M,,0,,,,,1,,1,2618300,pdf,556AB06AEB035EF3DC5B0E34C1E1D0F4,,,"M_Mathematics/MA_Algebra/MAc_Combinatorics/Deza M.M., Laurent M. Geometry of cuts and metrics (Springer, 1997)(ISBN 354061611X)(597s)_MAc_.pdf",0,2000-01-01 01:00:00,2016-04-03 02:51:08,3000/556ab06aeb035ef3dc5b0e34c1e1d0f4-d.jpg,,
5572892,Hilbert's invariant theory papers,,"Lie Groups History, Frontiers and Applications, Vol. 8",,"David Hilbert, M. Ackerman, R. Hermann",1978,,Math Science Pr,,175,0,English,Математика//Алгебра,kolxoz,8,"0915692260,9780915692262",,,,,512.9/44,QA244 .H54 1978,,,OL4729564M,,300,,,1,,1,,,2259691,djvu,54EE4135CCE7E88574EED057032D10EB,,,Hermann R. (ed.) Hilberts invariant theory papers (1978)(L)(T)(ISBN 0915692260)(175s).djvu,0,2000-01-01 01:00:00,2016-04-03 02:51:08,3000/54ee4135cce7e88574eed057032d10eb.jpg,,
5572891,Элементы комбинаторики,,,,"Ежов И., Скороход А., Ядренко М.",1977,,ФМЛ,,82,0,Russian,Математика//Комбинаторика,kolxoz,21,,,,,,,,,,,,600,,1,,,,,T,2556224,djvu,54B791B74AFFB09DD78F4781540D9954,,,"M_Mathematics/MA_Algebra/MAc_Combinatorics/Ezhov I., Skoroxod A., Yadrenko M. E#lementy kombinatoriki (FML, 1977)(ru)(K)(600dpi)(T)(82s)_MAc_.djvu",0,2000-01-01 01:00:00,2016-04-03 02:51:08,3000/54b791b74affb09dd78f4781540d9954.jpg,,
5572890,Boolean calculus of differences,,LNCS0101,,A. Thayse,1981,1,Springer,,150,0,English,Математика//Анализ,kolxoz,18,"3540102868,9783540102861",,,,,,,,,,,300,,,,,1,,1,1116561,djvu,54146E780EC8A70DFD8E5B874538ABB7,,,"M_Mathematics/MA_Algebra/MAa_Abstract algebra/Thayse A. Boolean calculus of differences (LNCS0101, Springer, 1981)(ISBN 3540102868)(T)(150s)_MAa_.djvu",0,2000-01-01 01:00:00,2016-04-03 02:51:08,3000/54146e780ec8a70dfd8e5b874538abb7-d.jpg,,
5572889,Gesammelte Werke,Band 3,,,Jacobi C.G.J.,1884,,,Berlin,621,0,German,Математика,kolxoz,21,,,,,,,,,,,,600,,1,,,,,T,7522440,djvu,53D360F09899BAC13140E92D873CB79A,,,"M_Mathematics/Jacobi C.G.J. Gesammelte Werke. Band 3 (Berlin, 1884)(de)(KA)(600dpi)(T)(621s)_M_.djvu",0,2000-01-01 01:00:00,2016-04-03 02:51:08,3000/53d360f09899bac13140e92d873cb79a.jpg,,
5572888,Избранные работы по интегрированию алгебраических функций из Полн. Собр. Соч,Том 2,,,Чебышев П.Л.,1947,,АН СССР,,93,0,Russian,Математика//Алгебра,kolxoz,17,,,,,,,,,,,,600,,1,,,,,,2194580,djvu,53A60869A5E5401BA76C073AA4E4DD7F,,,"M_Mathematics/Chebyshev P.L. Izbrannye raboty po integrirovaniyu algebraicheskix funkcij iz Poln. Sobr. Soch., t. 2 (Izd. AN SSSR, 1947)(ru)(K)(600dpi)(T)(93s)_M_.djvu",0,2000-01-01 01:00:00,2016-04-03 02:51:08,3000/53a60869a5e5401ba76c073aa4e4dd7f.jpg,,
5572887,Introduction to hyperplane arrangements,,,,Stanley R.P.,,web draft,,,94,0,English,Математика//Дискретная математика,kolxoz,8,,,,,,,,,,,,0,,,,,,,T,556113,pdf,537B0C819A79ECDD03B8944C4E135485,,,M_Mathematics/MA_Algebra/MAc_Combinatorics/Stanley R.P. Introduction to hyperplane arrangements (web draft)(94s)_MAc_.pdf,0,2000-01-01 01:00:00,2016-04-03 02:51:08,3000/537b0c819a79ecdd03b8944c4e135485.jpg,,
5572886,Conceptual mathematics,,,,"F. William Lawvere, Stephen Hoel Schanuel",1997,,Cambridge University Press,,374,0,English,Математика,kolxoz,21,"0521472490,9780521472494",,,,,511.3,QA169 .L355 1997,,,OL808006M,,600,,,,,1,,1,2703659,djvu,532F24F97A61E0CD1F1F78EE9FFCF796,,,"M_Mathematics/MA_Algebra/MAct_Category theory/Lawvere F.W., Schanuel S.H. Conceptual mathematics (CUP, 1997)(ISBN 0521472490)(600dpi)(T)(374s)_MAct_.djvu",0,2000-01-01 01:00:00,2016-04-03 02:51:08,3000/532f24f97a61e0cd1f1f78ee9ffcf796-d.jpg,,
5572885,Galois theory,,Chapman Hall/CRC Mathematics Series,,Ian Stewart,2003,3,Chapman and Hall/CRC,,323,0,English,Математика//Алгебра,kolxoz,21,"1584883936,9781584883937,9780203489307",,,,,512/.3,QA214 .S74 2004,,,OL3686011M,,300,,1,,,1,,,3166634,djvu,52F42AA9A2201DA737251CE00CCCD0D2,,,"M_Mathematics/MA_Algebra/MAa_Abstract algebra/Stewart I. Galois theory (3ed., CRC, 2004)(T)(323s)(ISBN 1584883936)(KA)_MAa_.djvu",0,2000-01-01 01:00:00,2016-04-03 02:51:08,3000/52f42aa9a2201da737251ce00cccd0d2-d.jpg,,
5572884,Кольца и модули,,,,Каш Ф. (Kasch),1981,,Мир,,367,0,Russian,Математика//Алгебра,kolxoz,8,,,,,,,,,,,,300,,,,,,,,3717519,djvu,52C3DEC32EEF9254674A81042695B73A,,,"M_Mathematics/MA_Algebra/MAa_Abstract algebra/Kash F. (_Kasch_) Kol#ca i moduli (Mir, 1981)(ru)(T)(367s)_MAa_.djvu",0,2000-01-01 01:00:00,2016-04-03 02:51:08,3000/52c3dec32eef9254674a81042695b73a.jpg,,
5572883,Algebraic functions and projective curves,,Graduate Texts in Mathematics ,,David Goldschmidt,2002,1,Springer,,196,0,English,Математика//Алгебра,kolxoz,8,"0387954325,9780387954325,9780387224459",,,,,,,,,OL17056647M,,300,1,,,,1,,1,1579975,djvu,52978F72210F277ECD801B2FF671DD28,,,"M_Mathematics/MA_Algebra/MAg_Algebraic geometry/Goldschmidt D.M. Algebraic functions and projective curves (Springer, 2003)(T)(C)(196s).djvu",0,2000-01-01 01:00:00,2016-04-03 02:51:08,3000/52978f72210f277ecd801b2ff671dd28-d.jpg,,
5572882,Groups with prescribed quotient groups and associated module theory,,Series in Algebra,,"Javier Otal, Igor Subbotin, Leonid Kurdochenko",2002,1st,World Scientific Publishing Company,,245,0,English,Математика//Симметрия и группы,kolxoz,21,"9810247834,9789810247836,9789812778291",,,,,,,,,OL9195430M,,300,,,,,1,,1,1578722,djvu,5222FDB38292D7DE165B068A94540561,,,"M_Mathematics/MA_Algebra/MAa_Abstract algebra/Kurdachenko, Otal, Subbotin. Groups with prescribed quotient groups and associated module theory (WS, 2002)(ISBN 9810247834)(T)(245s)_MAa_.djvu",0,2000-01-01 01:00:00,2016-04-03 02:51:08,3000/5222fdb38292d7de165b068a94540561-d.jpg,,
5572881,Лекции об икосаэдре и решении уравнений пятой степени,,,,Клейн Ф.,1989,,Наука,,336,0,Russian,Образование,infanata,9,5-02-014197-6,,,,,,,,,,,600,,1,,,,,1,5472847,djvu,51DBCE862643148CB45CB6DB6BA9D4B0,,,":\\Infanata.org\\2009-10\\[1146118100]Лекции об икосаэдре и решении уравнений пятой степени.-Клейн Ф.,Наука,1989.djvu",0,2000-01-01 01:00:00,2016-04-03 02:51:08,3000/51dbce862643148cb45cb6db6ba9d4b0-d.jpg,,
5572880,Field arithmetic,,Ergebnisse Der Mathematik Und Ihrer Grenzgebiete 3 Folge,,"Michael D. Fried, Moshe Jarden",2004,2nd,Springer,,818,0,English,Математика//Алгебра,kolxoz,21,"9783540228110,354022811X",,,,,512/.3,QA247 .F73 2005,,,OL3316299M,,0,,,,,,,T,5517184,pdf,511A328FF9A90A0538284DF6C21F27DC,,,"M_Mathematics/MA_Algebra/MAa_Abstract algebra/Fried M., Jarden M. Field arithmetic (2ed., Springer, 2005)(ISBN 354022811X)(818s)_MAa_.pdf",0,2000-01-01 01:00:00,2016-04-03 02:51:08,3000/511a328ff9a90a0538284df6c21f27dc-d.jpg,,
5572879,Абелевы группы и модули,,,,"Мишина, Скорняков.",1969,,Наука,,75,0,Russian,Математика//Симметрия и группы,kolxoz,8,,,,,,,,,,,,300,,,,,,,,1173948,djvu,50895F27D17AC03040EF8E141F7D68FB,,,"M_Mathematics/MA_Algebra/MAa_Abstract algebra/Mishina, Skornyakov. Abelevy gruppy i moduli (Nauka, 1969)(ru)(300dpi)(T)(75s)_MAa_.djvu",0,2000-01-01 01:00:00,2016-04-03 02:51:08,3000/50895f27d17ac03040ef8e141f7d68fb.jpg,,
5572878,Oeuvres,Tome 1,,,Lagrange J.L.,1867,,Gauthier~Villars,,787,0,French,Математика,kolxoz,14,,,,,,,,,,,,600,,,,,,,T,12775106,djvu,505EBC36919AAE18B5A1735D6F5E3C7A,,,"M_Mathematics/Lagrange J.L. Oeuvres, Tome 01 (Gauthier-Villars 1867)(fr)(600dpi)(T)(787s).djvu",0,2000-01-01 01:00:00,2016-04-03 02:51:08,3000/505ebc36919aae18b5a1735d6f5e3c7a.jpg,,
5572877,Sperner theory,,Enc. Math.Appl,,Konrad Engel,1997,,Cambridge University Press,,215,0,English,Математика//Дискретная математика,kolxoz,8,"0521452066,9780521452069",,,,,511.3/2,QA171.485 .E537 1997,,,OL983271M,,300,,,1,,1,,1,3287290,djvu,5022C14FFD137F16452BD18EBDDBEDF3,,,"M_Mathematics/MA_Algebra/MAc_Combinatorics/Engel K. Sperner theory (Enc.Math.Appl., CUP, 1997)(L)(T)(ISBN 0521452066)(215s).djvu",0,2000-01-01 01:00:00,2016-04-03 02:51:08,3000/5022c14ffd137f16452bd18ebddbedf3-d.jpg,,
5572876,Residues and duality,,Lecture Notes in Mathematics ,,Robin Hartshorne,1966,1,Springer,,426,0,English,Математика//Алгебра,kolxoz,18,"9783540036036,3540036032",,,,,,,,,,,300,,,,,,,T,1802565,djvu,501C41C89FAC69332AC91519965E1806,,,M_Mathematics/MA_Algebra/MAg_Algebraic geometry/Hartshorne R. Residues and duality(T)(426s)_MAg_.djvu,0,2000-01-01 01:00:00,2016-04-03 02:51:08,3000/501c41c89fac69332ac91519965e1806-d.jpg,,
5572875,Galois theory,,Graduate Texts in Mathematics,,Harold M. Edwards,1997,,Springer,,162,0,English,Математика//Алгебра,kolxoz,21,"9780387909806,0-387-90980-X",,,,,,,,,OL7448265M,,300,,1,,,,,,2479202,djvu,5019385E4B672E0952D487B4AA54743D,,,"M_Mathematics/MA_Algebra/MAa_Abstract algebra/Edwards H. Galois theory (Springer, 1984)(T)(162s)(K)_MAa_.djvu",0,2000-01-01 01:00:00,2016-04-03 02:51:08,3000/5019385e4b672e0952d487b4aa54743d-d.jpg,,
5572874,Werke. Nachtraege zur reinen Mathematik,"Band 10, Part 1",,,Gauss C.F.,1917,,,Teubner,613,0,German,Математика,kolxoz,13,,,,,,,,,,,,400,,,,,,,T,8623020,djvu,4F80C27825ADE47874BBFB85B98A4EC0,,,"M_Mathematics/Gauss C.F. Werke, Band 10, Abt.1. Nachtraege zur reinen Mathematik (Teubner, 1917)(de)(la)(400dpi)(T)(613s).djvu",0,2000-01-01 01:00:00,2016-04-03 02:51:08,3000/4f80c27825ade47874bbfb85b98a4ec0.jpg,,
5572873,Geometric algorithms and combinatorial optimization,,Springer Series in Computational Mathematics,,Martin Grotschel,1988,,Springer,,376,0,English,Математика//Геометрия и топология,kolxoz,8,"038713624X,9780387136240",,,,,511/.6,QA167 .G76 1988,,,OL2405912M,,300,,,,,1,,,4692292,djvu,4F741A5FF250A7F4942B2A3421481EAA,,,"AC 002 - Groetschel M.,Lovacz L.,Schrijver A. - Geometric algorithms and combinatorial optimization - Springer 1988 - ISBN 354013624x)(t)(376s).djvu",0,2000-01-01 01:00:00,2016-04-03 02:51:08,3000/4f741a5ff250a7f4942b2a3421481eaa.jpg,,
5572872,Решетки с единственными дополнениями,,,,Салий В.Н.,1984,,Наука,,128,0,Russian,Математика//Алгебра,kolxoz,14,,,,,,,,,,,,600,,,,,,,,2351897,djvu,4F5E3C767D71D2E5934BDBEA56306AD3,,,"M_Mathematics/MA_Algebra/MAa_Abstract algebra/Salij V.N. Reshetki s edinstvennymi dopolnenijami (Nauka, 1984)(ru)(600dpi)(T)(128s)_MAa_.djvu",0,2000-01-01 01:00:00,2016-04-03 02:51:08,3000/4f5e3c767d71d2e5934bdbea56306ad3.jpg,,
5572871,The four-color theorem,,,,"Rudolf Fritsch, Gerda Fritsch, J.lie Peschke",1998,1,Springer,,138,0,English,Математика//Дискретная математика,kolxoz,8,"0387984976,9780387984971",,,,,511/.5,QA612.19 .F7513 1998,,,OL352477M,,300,,,1,,1,,1,3105116,djvu,4F51587753EE6D6A9A34C792F5012872,,,"Mathematics - Feller V. Introduction to Probability TheoryFritsch R., Fritsch G. The four-color theorem (Springer, 1998)(ISBN 0387984976)(L)(T)(138s).djvu",0,2000-01-01 01:00:00,2016-04-03 02:51:08,3000/4f51587753ee6d6a9a34c792f5012872-d.jpg,,
5572870,"Mathematical problems and proofs (combinatorics, geometry)",,,,Branislav Kisacanin,1998,1,Springer,,237,0,English,Математика,kolxoz,8,"9780306459672,0306459671,0306469634",,,,,511/.6,QA164 .K57 1998,,,OL24266424M,,400,1,,,,,,T,1394385,djvu,4E5966ECB8814AC74220450E8616B691,,,"M_Mathematics/MA_Algebra/MAc_Combinatorics/Kisachanin B. Mathematical problems and proofs (combinatorics, geometry) (Kluwer, 2002)(400dpi)(T)(C)(237s).djvu",0,2000-01-01 01:00:00,2016-04-03 02:51:08,3000/4e5966ecb8814ac74220450e8616b691-d.jpg,,
5572869,Computational algebraic geometry,,Progr. Math,,"Frederic Eyssette, Andre Galligo",1993,1,Birkhäuser Boston,,171,0,English,Математика//Вычислительная математика,kolxoz,8,"9780817636784,0-8176-3678-1",,,,,516.3/5/0285,QA564 .C6564 1993,,,OL1739033M,,300,,,1,,,,,4291467,djvu,4E4EA4BF9C9C8234E2F499A9E402EEE9,,,"M_Mathematics/MA_Algebra/MAg_Algebraic geometry/Eysette, Galligo (eds.). Computational algebraic geometry (Progr.Math. 1993)(L)(T)(171s).djvu",0,2000-01-01 01:00:00,2016-04-03 02:51:08,3000/4e4ea4bf9c9c8234e2f499a9e402eee9.jpg,,
5572868,Dualisability. Unary Algebras and Beyond,,Advances in Mathematics,,"Jane G. Pitkethly, Brian A. Davey",2005,1,Springer,,269,0,English,Математика//Алгебра,kolxoz,18,"9780387275697,038727569X,0387275703",,,,,,,,,OL7444997M,,600,,1,,,,,,2543672,djvu,4D80B9588BE6F558DEF8F5852F953C4D,,,"M_Mathematics/MA_Algebra/MAa_Abstract algebra/Pitkethly J., Davey B. Dualisability. Unary Algebras and Beyond. (Springer, 2005)(600dpi)(K)(T)(269s)_MAa_.djvu",0,2000-01-01 01:00:00,2016-04-03 02:51:08,3000/4d80b9588be6f558def8f5852f953c4d-d.jpg,,
5572867,Category theory. Proc. conf,,LNM1488,,"Aurelio Carboni, Maria C. Pedicchio, Giuseppe Rosolini",1991,1,Springer,,508,0,English,Математика//Алгебра,kolxoz,21,"3540547061,0387547061",,,,,"510 s,511.3","QA3 .L28 no. 1488,QA169 .L28 no. 1488",,,OL1554972M,,300,,,,,,,1,3717543,djvu,4D722041BEED269AE32100DC7EF6E374,,,"M_Mathematics/MA_Algebra/MAct_Category theory/Carboni A., Pedicchio, Rosolini. (eds.) Category theory. Proc. conf. (LNM1488, Springer, 1991)(ISBN 0387547061)(T)(508s)_MAct_.djvu",0,2000-01-01 01:00:00,2016-04-03 02:51:08,3000/4d722041beed269ae32100dc7ef6e374-d.jpg,,
5572866,Selected works of Ellis Kolchin with commentary,,AMM,,"Alexandru Buium, and Phyllis J. Cassidy Hyman Bass, Hyman Bass, Alexandru Buium, Phyllis Cassidy",1999,,American Mathematical Society,,633,0,English,Математика//Алгебра,kolxoz,18,"0821805428,9780821805428",,,,,512/.56,QA247.4 .K65 1999,,,OL386668M,,600,,1,,,1,,1,10000810,djvu,4D29B41D45736E22B7335F2CF1A702E7,,,"M_Mathematics/MA_Algebra/MAd_Differential algebra/Bass H., Buium A., Cassidy P.J. (eds.) Selected works of Ellis Kolchin with commentary (AMM, 1999)(K)(600dpi)(T)(ISBN 0821805428)(633s)_MAd_.djvu",0,2000-01-01 01:00:00,2016-04-03 02:51:08,3000/4d29b41d45736e22b7335f2cf1a702e7-d.jpg,,
5572865,"Шарль Эрмит, 1822-1901",,,,Ожигова Е.П.,1982,,Наука,,289,0,Russian,Математика,kolxoz,15,,,,,,,,,,,,600,,1,,,,,,7307700,djvu,4D18E03ABE7252AD908C559C8F466188,,,"M_Mathematics/Ozhigova E.P. Sharl# E#rmit, 1822-1901 (Nauka, 1982)(ru)(KA)(600dpi)(T)(289s).djvu",0,2000-01-01 01:00:00,2016-04-03 02:51:08,3000/4d18e03abe7252ad908c559c8f466188.jpg,,
5572864,A brief history of mathematics,,,,Karl Fink,1900,2nd,Open Court,,333,0,English,Математика,kolxoz,8,,,B0008624H8,,,,,,,,,300,,,,,,,,2923494,djvu,4D17F148D9376EED659355A65299B31A,,,M_Mathematics/Fink K. A brief history of mathematics (1900)(pages in wrong order)(T)(345s).djvu,0,2000-01-01 01:00:00,2016-04-03 02:51:08,3000/4d17f148d9376eed659355a65299b31a-g.jpg,,
5572863,Courbes algebriques planes,,,,Chenciner A.,2008,,Springer,,165,0,French,Математика//Алгебра,kolxoz,21,3540337072,,,,,,,,,,,0,,,,,,,1,736617,pdf,4C3520851E79522E10FC54D7DF20986D,,,"M_Mathematics/MA_Algebra/MAg_Algebraic geometry/Chenciner A. Courbes algebriques planes (Springer, 2008)(ISBN 3540337072)(fr)(165s)_MAg_.pdf",0,2000-01-01 01:00:00,2016-04-03 02:51:08,3000/4c3520851e79522e10fc54d7df20986d.jpg,,
5572862,"Seminaire Bourbaki. Exposes 860-883, 894-903,909-956, 959, 962-966 (publ. par la SMF, collection Asterisque)",,,,Bourbaki N.,,,,,2305,0,English,Математика,kolxoz,17,,,,,,,,,,,,0,,,,,,,,11682196,pdf,4C16751E350341846A3250F0C073CFEC,,,"M_Mathematics/Bourbaki N. Seminaire Bourbaki. Exposes 860-883, 894-903,909-956, 959, 962-966 (publ. par la SMF, collection Asterisque)(en)(fr)(2305s).pdf",0,2000-01-01 01:00:00,2016-04-03 02:51:08,3000/4c16751e350341846a3250f0c073cfec.jpg,,
5572861,Quasi-Frobenius rings,,Cambridge Tracts in Mathematics,,"W. K. Nicholson, M. F. Yousif",2003,,Cambridge University Press,,327,0,English,Математика//Алгебра,kolxoz,21,"0521815932,9780521815932,9780511065101",,,,,,,,,OL7755607M,,0,,,,,1,,T,1371955,pdf,4BFECF8155D8256DC8BD36C009F4D729,,,"M_Mathematics/MA_Algebra/MAa_Abstract algebra/Nicholson W.K., Yousif M.F. Quasi-Frobenius rings (CUP, 2003)(ISBN 0521815932)(327s)_MAa_.pdf",0,2000-01-01 01:00:00,2016-04-03 02:51:08,3000/4bfecf8155d8256dc8bd36c009f4d729-d.jpg,,
5572860,Selected papers of Alfred Renyi,Volume 3,,,Alfred Renyi,1976,,Akademiai Kiado,Budapest,662,0,English,Математика,kolxoz,15,"963050913X,9789630509138",,,,,510/.8,QA3 .R45 1976,,,OL4597518M,,300,,,,,1,,1,7384182,djvu,4BE33E88946E2050705DBF0940844A3B,,,"M_Mathematics/Renyi A. Selected papers of Alfred Renyi Vol.3 (Budapest, 1976)(T)(ISBN 963050913X)(662s).djvu",0,2000-01-01 01:00:00,2016-04-03 02:51:08,3000/4be33e88946e2050705dbf0940844a3b.jpg,,
5572859,The probabilistic method in combinatorics,,,,"Alon N., Spencer J.H.",1990,draft,,,252,0,English,Математика//Комбинаторика,kolxoz,8,,,,,,,,,,,,300,,,,,,,,1307240,djvu,4B82FC14B21EABABA947308962171203,,,"M_Mathematics/MA_Algebra/MAc_Combinatorics/Alon N., Spencer J.H. (draft 1990) The probabilistic method in combinatorics (T)(252s).djvu",0,2000-01-01 01:00:00,2016-04-03 02:51:08,3000/4b82fc14b21eababa947308962171203.jpg,,
5572858,"Лекции по математике. Вероятность, информация, статистика",Том 4,,,Босс В.,2005,,КомКнига,,218,0,Russian,Математика,kolxoz,13,,,,,,,,,,,,600,,1,,,,,T,3386136,djvu,4B2F65973D7EBE6B742F8695DD816AFD,,,"M_Mathematics/Boss V. Lekcii po matematike. Tom 4. Veroyatnost#, informaciya, statistika (Editoral URSS, 2005)(ru)(K)(600dpi)(T)(218s).djvu",0,2000-01-01 01:00:00,2016-04-03 02:51:08,3000/4b2f65973d7ebe6b742f8695dd816afd.jpg,,
5572857,Solving polynomial equation systems I: the Kronecker-Duval philosophy,,Enc Math.88,,Teo Mora,2002,1,Cambridge University Press,,436,0,English,Математика,kolxoz,21,"9780521811545,0521811546",,,,,,,,,OL15532231M,,600,,1,,,,,,3455533,djvu,4B1F54B603B14B4C689DDF5022C1ADBE,,,"M_Mathematics/MA_Algebra/MAco_Computational algebra/Mora T. Solving polynomial equation systems I.. the Kronecker-Duval philosophy (Enc.Math.88, CUP, 2003)(ISBN 0521811546)(600dpi)(KA)(T)(436s)_MAco_.djvu",0,2000-01-01 01:00:00,2016-04-03 02:51:08,3000/4b1f54b603b14b4c689ddf5022c1adbe-d.jpg,,
5572856,Einleitung zu Algebra,Part 1,,,Euler L.,1802,,Kaiserliche Akademie der Wissenschaften,Petersburg,372,0,German,Математика//Алгебра,kolxoz,14,,,,,,,,,,,,300,,1,,,,,,16959645,djvu,4B1350DC3599602FCDF33D1CF9691BE2,,,"M_Mathematics/MA_Algebra/Euler L. Einleitung zu Algebra. Teil I (St. Petersburg, 1802)(de)(K)(300dpi)(372s)_MA_.djvu",0,2000-01-01 01:00:00,2016-04-03 02:51:08,3000/4b1350dc3599602fcdf33d1cf9691be2.jpg,,
5572855,Геометрия классических групп,,,,Дьёдонне Ж.,1974,,Мир,,206,0,Russian,Математика//Геометрия и топология,kolxoz,8,,,,,,,,,,,,300,,1,,,,,T,2161057,djvu,4AEDE4587250EA3DE3ABD82EF2BF91E5,,,"M_Mathematics/MA_Algebra/MAa_Abstract algebra/D#yodonne Zh. Geometrija klassicheskih grupp (Mir, 1974)(ru)(K)(T)(206s).djvu",0,2000-01-01 01:00:00,2016-04-03 02:51:08,3000/4aede4587250ea3de3abd82ef2bf91e5.jpg,,
5572854,"Солитоны, геометрия,топология: на перекрестках. Труды Мат. инст. Стеклова, т.225, к 60-летию С.П. Новикова",,,,Бухштабер и др. (ред.),1999,,,,401,0,Russian,Математика//Геометрия и топология,kolxoz,13,5-02-002404-X,,,,,,,,,,,300,,,,,,,,3836888,djvu,4AE69E58C2B806525CDD9AF4E48877D6,,,"M_Mathematics/Buhshtaber i dr. (red.) Solitony, geometrija,topologija.. na perekrestkah. Trudy Mat.inst.Steklova,t.225, k 60-letiju S.P.Novikova (1999)(ru)(T)(401s).djvu",0,2000-01-01 01:00:00,2016-04-03 02:51:08,3000/4ae69e58c2b806525cdd9af4e48877d6.jpg,,
5572853,The book of involutions,,Amer Mathematical Soc ,,"Alexander Merkurjev, Markus Rost, and Jean-Pierre Tignol Max-Albert Knus, Max-Albert Knus",1998,,American Mathematical Society,,588,0,English,Математика//Алгебра,kolxoz,5,"9780821809044,0821809040",,,,,512/.5,QA179 .B66 1998,,,OL362027M,,0,,,,,1,,,3589750,pdf,4AE10281A727C160FB6B7931F5134973,,,"M_Mathematics/MA_Algebra/MAa_Abstract algebra/Knus M.-A., Merkurjev A., Rost M., Tignol J.-P. The book of involutions (draft book)(588s).pdf",0,2000-01-01 01:00:00,2016-04-03 02:51:08,3000/4ae10281a727c160fb6b7931f5134973-d.jpg,,
5572852,Double affine Hecke algebra,,London Mathematical Society Lecture Note Series ,,Ivan Cherednik,2005,web draft,Cambridge University Press,,451,0,English,Математика//Алгебра,kolxoz,14,"9780521609180,0521609186",,,,,,,,,OL7748395M,,300,,,,,,,,3636775,djvu,4A8718FFC47FC7F2FF1529B00DA67A88,,,"M_Mathematics/MA_Algebra/MAa_Abstract algebra/Cherednik I. Double affine Hecke algebra (web draft, 2004)(T)(451s)_MAa_.djvu",0,2000-01-01 01:00:00,2016-04-03 02:51:08,3000/4a8718ffc47fc7f2ff1529b00da67a88-d.jpg,,
5572851,La reduction formelle des equations differentielles a singularites irregulieres,,,,Malgrange B.,1975,,,,7,0,French,Математика,kolxoz,8,,,,,,,,,,,,300,1,,1,,,,,1118769,djvu,4A5AB9E485AD1664A336EA719FF18F1E,,,M_Mathematics/MA_Algebra/MAd_Differential algebra/Malgrange B. La reduction formelle des equations differentielles a singularites irregulieres (1975)(fr)(L)(T)(C)(7s).djvu,0,2000-01-01 01:00:00,2016-04-03 02:51:08,3000/4a5ab9e485ad1664a336ea719ff18f1e.jpg,,
5572850,Cyclic homology in non-commutative geometry,,Enc Math.Sci 121,,"Joachim Cuntz, Georges Skandalis, Boris Tsygan",2004,1,Springer,,151,0,English,Математика//Алгебра,kolxoz,8,"3540404694,9783540404699",,,,,,,,,OL9056964M,,600,,,,,1,,1,1270464,djvu,4A094A24F9BCD846873C2E346784FE3E,,,"M_Mathematics/MA_Algebra/MAg_Algebraic geometry/Cuntz J., Skandalis G., Tsygan B. Cyclic homology in non-commutative geometry (Enc.Math.Sci.121, Springer, 2004)(600dpi)(T)(ISBN 3540404694)(151s)_MAg_.djvu",0,2000-01-01 01:00:00,2016-04-03 02:51:08,3000/4a094a24f9bcd846873c2e346784fe3e-d.jpg,,
5572849,Analytic and Elementary Number Theory: A Tribute to Mathematical Legend Paul Erdos ,Volume 2,Developments in Mathematics,,"Krishnaswami Alladi, P.D.T.A. Elliott, A. Granville, G. Tenenbaum",1998,,Springer,,298,0,English,Математика,kolxoz,23,"0792382730,9780792382737",,,,,512.7,QA241 .A483 1998,,,OL20745785M,,300,,1,,,1,,1,1359230,djvu,49AD03C2786239BBFB76BBDBC05C8234,,,"M_Mathematics/The Ramanujan Journal, vol.2, 1998. Tribute to Paul Erdos 1913-1996 (Kluwer, 1998)(ISBN 0792382730)(KA)(T)(298s)_M_.djvu",0,2000-01-01 01:00:00,2016-04-03 02:51:08,3000/49ad03c2786239bbfb76bbdbc05c8234-d.jpg,,
5572848,Spectra of graphs. Theory and application,,Pure and Applied Mathematics ,,"Dragos M. Cvetkovic, Michael Doob, Horst Sachs",1980,3rd Revised,Academic Press,,185,0,English,Математика//Дискретная математика,kolxoz,8,"9780121951504,0121951502",,,,,511/.5,QA166,,,OL10071318M,,300,,,1,,1,,1,5335693,djvu,49783A7895906736DB6DF57115B30910,,,"M_Mathematics/MA_Algebra/MAc_Combinatorics/Cvetkovic D.M., Doob M., Sachs H. Spectra of graphs. Theory and application (AP, 1979)(L)(T)(ISBN 0121951502)(185s).djvu",0,2000-01-01 01:00:00,2016-04-03 02:51:08,3000/49783a7895906736db6df57115b30910.jpg,,
5572847,Theory of algebraic invariants,,Cambridge Mathematical Library,,"David Hilbert, Reinhard C. Laubenbacher, Bernd Sturmfels",1993,,Cambridge University Press,,203,0,English,Математика//Алгебра,kolxoz,8,"9780521449038,0521444578,9780521444576,0521449030",,,,,512/.5,QA201 .H716 1993,,xCneO62aHiIC,OL1407261M,,300,,1,,,1,,1,1166009,djvu,4936EB69F17C9C513A4CD10CED9B77D7,,,Cambridge University Press - Theory Of Algebraic Invariants - Hilbert D (1993)(K)(T)(Isbn 0521444578)(203S).djvu,0,2000-01-01 01:00:00,2016-04-03 02:51:08,3000/4936eb69f17c9c513a4cd10ced9b77d7-d.jpg,,
5572846,Effective methods in algebraic geometry,,Proc MEGA-90,,"T. Mora, C. Traverso",1991,1,Birkhäuser Boston,,258,0,English,Математика//Геометрия и топология,kolxoz,8,"0817635467,9780817635466",,,,,516.3/5,QA564 .E33 1991,,,OL2029641M,,300,,,1,,1,,,4195642,djvu,48F5DF90CB956ABEC800909995A3698B,,,"Mora T.,Traverso C. - Effective methods in algebraic geometry - Birkhauser 1991 - ISBN 0817635467 (l)(t)(258s).djvu",0,2000-01-01 01:00:00,2016-04-03 02:51:08,3000/48f5df90cb956abec800909995a3698b-d.jpg,,
5572845,Lie groups and Lie algebras,Chapters 7-9,Elements of Mathematics,,Nicolas Bourbaki,2004,1,Springer,,439,0,English,Математика//Алгебра,kolxoz,21,"9783540434054,3540434054",,,,,512/.482,QA387 .B65213 2004,,,OL22625848M,,0,,,,,,,,2751452,pdf,488E9677455F1CDCF1928B68C7E8A573,,,"M_Mathematics/Bourbaki N. Lie groups and Lie algebras. Chapters 7 - 9 (Springer, 2005)(ISBN 3540434054)(439s)_M_.pdf",0,2000-01-01 01:00:00,2016-04-03 02:51:08,3000/488e9677455f1cdcf1928b68c7e8a573-d.jpg,,
5572844,Десятая математическая школа,,,,"Митропольский Ю.А., Шестопал А.Ф. (ред.)",1974,,,Киев,399,0,Russian,Математика//Прикладная математика,kolxoz,11,,,,,,,,,,,,300,,,,,,,T,8043530,djvu,48780F807C6CCB7B064EF51E2315B461,,,"M_Mathematics/Mitropol#skij Ju.A., Shestopal A.F. (red.) Desjataja matematicheskaja shkola (Kiev 1974)(ru)(T)(399s).djvu",0,2000-01-01 01:00:00,2016-04-03 02:51:08,3000/48780f807c6ccb7b064ef51e2315b461.jpg,,
5572843,Mathematical thinking and writing: a transition to abstract mathematics,,,,Randall Maddox,2001,1,Academic Press,,323,0,English,Математика,kolxoz,23,"0124649769,9780124649767,9780080496474",,,,,,,,,OL7328028M,,0,,,,,1,,1,3075615,pdf,486CDBDB3D3BF70E3D8AC74AB7CC8C16,,,"M_Mathematics/Maddox R.B. Mathematical thinking and writing.. a transition to abstract mathematics (AP,2002)(ISBN 0124649769)(323s)_M_.pdf",0,2000-01-01 01:00:00,2016-04-03 02:51:08,3000/486cdbdb3d3bf70e3d8ac74ab7cc8c16-d.jpg,,
5572842,Flat covers of modules,,LNM1634,,Jinzhong Xu,1996,1,Springer,,170,0,English,Математика//Алгебра,kolxoz,21,"3540616403,9783540616405",,,,,510 s,"QA3,QA247.3",,,OL22343178M,,300,,,,,1,,T,989884,djvu,486A79C8CB9EBAB95B5BFB4F9CE5C52C,,,"M_Mathematics/MA_Algebra/MAa_Abstract algebra/Xu J. Flat covers of modules (LNM1634, Springer, 1996)(ISBN 3540616403)(T)(170s)_MAa_.djvu",0,2000-01-01 01:00:00,2016-04-03 02:51:08,3000/486a79c8cb9ebab95b5bfb4f9ce5c52c-d.jpg,,
5572841,Galois theory of linear ODEs,,,,Berman P.H.,2001,PhD Thesis,,,157,0,English,Математика//Алгебра,kolxoz,8,,,,,,,,,,,,0,,,,,,,T,1080274,pdf,4842BC9F3D53346D40F928403ABFDCF9,,,"M_Mathematics/MA_Algebra/MAd_Differential algebra/Berman P.H. Galois theory of linear ODEs (phd thesis, 2001)(157s).pdf",0,2000-01-01 01:00:00,2016-04-03 02:51:08,3000/4842bc9f3d53346d40f928403abfdcf9.jpg,,
5572840,Enriques Surfaces I,,Progress in Math.75,,"F. Cossec, Dolgachev",1989,1,Birkhäuser Boston,,203,0,English,Математика//Алгебра,kolxoz,8,"9780817634179,0817634177",,,,,516.3/52,QA573 .C67 1989,,,OL2032488M,,300,,,1,,,,1,2163484,djvu,482B21C6395600807D45F45BB9C37580,,,"M_Mathematics/MA_Algebra/MAg_Algebraic geometry/Cossec F., Dolgachev I. Enriques Surfaces I (Progress in Math. 75, Birkhauser, 1989)(300dpi)(ISBN 0817634177)(L)(T)(203s).djvu",0,2000-01-01 01:00:00,2016-04-03 02:51:08,3000/482b21c6395600807d45f45bb9c37580-d.jpg,,
5572839,Письма к ученым,,,,"Эйлер Леонард, Под редакцией академика В.И.Смирнова. , Составители: Т.Н.Кладо. Ю.X.Копелевич, Т.А.Лукина",1963,,Издательство Академии Наук СССР,М.-Л.,402,0,Russian,Физика,kolxoz,13,,,,,,,,,,,"Scan, Djvuing: ???, предоставил: mor, 2010",400,1,1,,,,,T,9001085,djvu,47D1EC5BB34F37158EA0E767DAD6BFAD,,,"M_Mathematics/E#jler L. Pis#ma k uchenym (AN SSSR, 1963)(ru)(400dpi)(KA)(T)(C)(402s).djvu",0,2000-01-01 01:00:00,2016-04-03 02:51:08,3000/47d1ec5bb34f37158ea0e767dad6bfad-d.jpg,,
5572838,Elementarmathematik vom hoeheren Standpunkte aus,Band 3,,,Klein F.,1928,3,Springer,,248,0,German,Математика,kolxoz,18,,,,,,,,,,,,600,,,,,,,,3697672,djvu,471AF9FA93912D7AC2CB09EF20EC1F30,,,"M_Mathematics/Klein F. Band 3. Elementarmathematik vom hoeheren Standpunkte aus (3ed., Springer, 1928)(de)(600dpi)(T)(O)(248s)_M_.djvu",0,2000-01-01 01:00:00,2016-04-03 02:51:08,3000/471af9fa93912d7ac2cb09ef20ec1f30.jpg,,
5572837,Hypothese du continu,,,,Sierpinski W.,1934,,,Warszawa~Lwow,86,0,French,Математика//Алгебра,kolxoz,8,,,,,,,,,,,,300,,,1,,,,,2920707,djvu,46EDBF217CE3BF3EE896527F5C032E7B,,,"M_Mathematics/MA_Algebra/MAa_Abstract algebra/Sierpinski W. Hypothese du continu (Warszawa-Lwow, 1934)(fr)(L)(T)(86s).djvu",0,2000-01-01 01:00:00,2016-04-03 02:51:08,3000/46edbf217ce3bf3ee896527f5c032e7b.jpg,,
5572836,Математика в СССР 1958-1967. Биобиблиография,"Том 2, Часть 2",,,"Фомин, Шилов. (ред.)",1967,,Наука,,762,0,Russian,Математика,kolxoz,8,,,,,,,,,,,,300,,,,,,,,13737918,djvu,46E4EBC7C5F843E8ACA4DAF2D4E7D317,,,"M_Mathematics/Fomin, Shilov. (red.) Matematika v SSSR 1958-1967. Tom 2. Biobibliografija, chast# 2 (Nauka, 1967)(ru)(T)(762s).djvu",0,2000-01-01 01:00:00,2016-04-03 02:51:08,3000/46e4ebc7c5f843e8aca4daf2d4e7d317.jpg,,
5572835,Corings and comodules,,London Mathematical Society Lecture Note Series,,"Tomasz Brzezinski, Robert Wisbauer",2003,,Cambridge University Press,,348,0,English,Математика//Алгебра,kolxoz,21,"9780521539319,0521539315",,,,,,,,,OL7745398M,,0,,,,,,,,1697956,pdf,46AE45AB6929EA188E025E555E9951C2,,,"M_Mathematics/MA_Algebra/MAa_Abstract algebra/Brzezinski T., Wisbauer R. Corings and comodules (CUP, 2003)(ISBN 0521539315)(348s)_MAa_.pdf",0,2000-01-01 01:00:00,2016-04-03 02:51:08,3000/46ae45ab6929ea188e025e555e9951c2-d.jpg,,
5572834,Lecons de mechanique celeste. Theorie de la Lune,"Tome 2, Part 2",,,Poincare H.,1909,,,,149,0,French,Математика,kolxoz,19,,,,,,,,,,,,300,,1,,,,,T,2266586,djvu,468FABDC2CE13CF729D8788387B1E564,,,"M_Mathematics/Poincare H. Lecons de mechanique celeste, tome 2, partie 2. Theorie de la Lune (1909)(fr)(KA)(T)(149s)_M_.djvu",0,2000-01-01 01:00:00,2016-04-03 02:51:08,3000/468fabdc2ce13cf729d8788387b1e564.jpg,,
5572833,Конечные графы и сети,,,,"Басакер Р., Саати Т.",1974,,Наука,,367,0,Russian,Математика//Теория графов,infanata,14,,,,,,,,,,,,300,,1,,,,,T,4125690,djvu,46642D2BD376471655B96932598A9C5F,,,"N:\\natahaus\\2007\\2007-03\\30 03 07\\Басакер Р., Саати Т. - Конечные графы и сети 1974.djvu",0,2000-01-01 01:00:00,2016-04-03 02:51:08,3000/46642d2bd376471655b96932598a9c5f.jpg,,
5572832,Algebraic D-modules,,Perspectives in Mathematics,,"A. Borel, J. Coates, Sigurdur Helgason",1987,,Academic Press,,185,0,English,Математика//Алгебра,kolxoz,8,"0121177408,9780121177409",,,,,514/.74,QA614.3 .A44 1987,,,OL2741686M,,300,,,1,,1,,1,2479979,djvu,464BF246AA3EDEA346843A583C8EDA21,,,"ReallyUsefulEbooks_Borel et al. Algebraic D-modules (AP, 1987)(L)(T)(ISBN 0121177408)(185s).djvu",0,2000-01-01 01:00:00,2016-04-03 02:51:08,3000/464bf246aa3edea346843a583c8eda21-d.jpg,,
5572831,"Solving polynomial equations: Foundations, algorithms, and applications",,Algorithms and Computation in Mathematics ,,"Alicia Dickenstein, Ioannis Z. Emiris",2010,,Springer Berlin Heidelberg,,436,0,English,Математика,kolxoz,18,"9783642063619,3642063616",,,,,,,,,,,600,,,,,,,,3368574,djvu,4647339958A3B1647F6482C1C18CCF13,,,"M_Mathematics/MA_Algebra/MAco_Computational algebra/Dickenstein A., Emiris I.Z. (eds.) Solving polynomial equations.. Foundations, algorithms, and applications (Springer 2005)(600dpi)(T)(436s)_MAco_.djvu",0,2000-01-01 01:00:00,2016-04-03 02:51:08,3000/4647339958a3b1647f6482c1c18ccf13-d.jpg,,
5572830,Гиперкомплексные числа,,,,"Кантор И.Л., Солодовников А.С.",1973,,Наука,Москва,145,0,Russian,Математика//Алгебра,infanata,8,,,,512.8,22.13,,,,,,"Исправленная версия - вычищен и обрезан скан, добавлено оглавление.",400,1,1,0,1,1,1,1,6562670,djvu,460581EF8EE5423264B8BB3E4C6EA20A,d3e369bca1c75a22f9a61bb1885d6e30,,"N:atahaus20092009-05[1146111836]Гиперкомплексные числа.-- Кантор И.Л., Солодовников А.С. (Наука, 1973, 145).djvu",0,2000-01-01 01:00:00,2016-04-03 02:51:08,3000/460581ef8ee5423264b8bb3e4c6ea20a.jpg,,
5572829,Bernhard Riemann's gesammelte mathematische Werke. Nachtraege,,,,"Noether M., Wirtinger W. (eds.)",1902,,,Leipzig,132,0,German,Математика,kolxoz,19,,,,,,,,,,,,600,,1,,,,,T,4093786,djvu,45C31B9EF829A813F4481AD5EC37E6B6,,,"M_Mathematics/Noether M., Wirtinger W. (eds.) Bernhard Riemann#s gesammelte mathematische Werke. Nachtraege (Leipzig, 1902)(600dpi)(KA)(de)(T)(132s).djvu",0,2000-01-01 01:00:00,2016-04-03 02:51:08,3000/45c31b9ef829a813f4481ad5ec37e6b6.jpg,,
5572828,Introduction to Galois theory,,,,Wilkins D.R.,2002,web draft,,,45,0,English,Математика//Алгебра,kolxoz,8,,,,,,,,,,,,0,,,,,,,,291627,pdf,45A043787ADBE53BDBACD8C75612FBFF,,,"M_Mathematics/MA_Algebra/MAa_Abstract algebra/Wilkins D.R. Introduction to Galois theory(web draft, 2002)(45s).pdf",0,2000-01-01 01:00:00,2016-04-03 02:51:08,3000/45a043787adbe53bdbacd8c75612fbff.jpg,,
5572827,Categories and Functors,,,,Pareigis B.,1970,,AP,,274,0,English,Математика//Алгебра,kolxoz,18,,,,,,,,,,,,300,,1,,,,,T,1968476,djvu,4593FEAE8222C43B31655B3EE006E2F9,,,"M_Mathematics/MA_Algebra/MAct_Category theory/Pareigis B. Categories and Functors (AP, 1970)(KA)(T)(274s)_MAct_.djvu",0,2000-01-01 01:00:00,2016-04-03 02:51:08,3000/4593feae8222c43b31655b3ee006e2f9.jpg,,
5572826,Oeuvres,Tome 14,,,Lagrange J.L.,1892,,Gauthier~Villars,,361,0,French,Математика,kolxoz,14,,,,,,,,,,,,600,,,,,,,T,6955372,djvu,4560A062BE9AE82E52A0A5E66C57CB9A,,,"M_Mathematics/Lagrange J.L. Oeuvres, Tome 14 (Gauthier-Villars 1892)(fr)(600dpi)(T)(361s).djvu",0,2000-01-01 01:00:00,2016-04-03 02:51:08,3000/4560a062be9ae82e52a0a5e66c57cb9a.jpg,,
5572825,Избранные картографические статьи,,,,"Эйлер Леонард, Под редакцией и вступительной статьей Г.В.Багратуни. Перевод с немецкого Н.Ф.Булаевского, Под общей редакцией С.С.Судакова",1959,,Издательство геодезической литературы,М.,79,0,Russian,Физика,kolxoz,18,,,,,,,,,,,"Scan, Djvuing: ???, предоставил: mor, 2010",600,,,,,,,T,1717888,djvu,44D0515DB92F2057ECFCEB1B4B4C4A17,,,M_Mathematics/E#jler L. Izbrannye kartograficheskie stat#i (1959)(ru)(600dpi)(T)(79s)_M_.djvu,0,2000-01-01 01:00:00,2016-04-03 02:51:08,3000/44d0515db92f2057ecfceb1b4b4c4a17-d.jpg,,
5572824,Теория топосов,,,,Джонстон П.Т. (Johnstone),1986,,Наука,,220,0,Russian,Математика//Алгебра,kolxoz,8,,,,,,,,,,,,300,,,1,,,,,4277971,djvu,446A9EF409296B37D9A00622BB68C81E,,,"M_Mathematics/MA_Algebra/MAct_Category theory/Dzhonston P.T. (_Johnstone_) Teorija toposov (Nauka, 1986)(ru)(L)(T)(220s)_MAct_.djvu",0,2000-01-01 01:00:00,2016-04-03 02:51:08,3000/446a9ef409296b37d9a00622bb68c81e.jpg,,
5572823,Symmetric bilinear forms,,Ergebnisse der Mathematik und ihrer Grenzgebiete,,"John Willard Milnor, Dale Husemoller",1973,,Springer-Verlag,,158,0,English,Математика//Алгебра,kolxoz,18,"9780387060095,038706009X",,,,,512.9/44,QA243 .M64,,,OL5306963M,,600,,1,,,1,,1,1070618,djvu,444A4E956BE9661275AE3E6452F64E4E,,,"M_Mathematics/MA_Algebra/MAa_Abstract algebra/Milnor J., Husemoller D. Symmetric bilinear forms (Springer, 1973)(KA)(600dpi)(T)(ISBN 038706009X)(158s)_MAa_.djvu",0,2000-01-01 01:00:00,2016-04-03 02:51:08,3000/444a4e956be9661275ae3e6452f64e4e.jpg,,
5572822,Полное собрание сочинений,Выпуск 2,,,Золотарев Е.И.,1932,,АН СССР,Ленинград,367,0,Russian,Литература,kolxoz,23,,,,,,,,,,,,600,,1,,,,,T,6255611,djvu,44452A90B3C2191AC1F5E8D5773601AF,,,"M_Mathematics/Zolotarev E.I. Polnoe sobranie sochinenij. Vyp. 2 (AN SSSR, Leningrad, 1932)(ru)(K)(600dpi)(T)(367s)_M_.djvu",0,2000-01-01 01:00:00,2016-04-03 02:51:08,3000/44452a90b3c2191ac1f5e8d5773601af.jpg,,
5572821,Basic category theory for computer scientists,,Foundations of Computing,,Benjamin C. Pierce,1991,1,The MIT Press,,110,0,English,Математика//Алгебра,kolxoz,8,"0262660717,9780262660716",,,,,511.3,QA76.9.M35 P54 1991,,,OL1531032M,,600,,,,,1,,1,5695397,djvu,43F63DB3660F5DC236D17425F0032BCA,,,"M_Mathematics/MA_Algebra/MAct_Category theory/Pierce B.C. Basic category theory for computer scientists (MIT, 1991)(600dpi)(T)(ISBN 0262660717)(110s).djvu",0,2000-01-01 01:00:00,2016-04-03 02:51:08,3000/43f63db3660f5dc236d17425f0032bca-d.jpg,,
5572820,ThÃ©ories spectrales: Chapitres 1-2 ,,,,N. Bourbaki,2006,1,Springer,,169,0,French,Математика,kolxoz,21,3-540-35330-5,,,,,,,,,OL12774204M,,300,,,,,,,T,1036364,djvu,43989C0874E92A2BD194934ABE91FCA3,,,"M_Mathematics/Bourbaki N. Elements de Mathematique. Theories spectrales. Chapitres 1 et 2 (Springer, 2007)(fr)(T)(169s)_M_.djvu",0,2000-01-01 01:00:00,2016-04-03 02:51:08,3000/43989c0874e92a2bd194934abe91fca3-d.jpg,,
5572819,Selected works of S.L. Sobolev,Volume 1,,,S. L. Sobolev,2006,,Springer,,605,0,English,Математика,kolxoz,17,"9780387341491,0387341498,038734148X",,,,,,,,,OL18276419M,,0,,,,,,,T,3010068,pdf,430F5EFA2AD25B4056CA16DB771822A4,,,"M_Mathematics/Demidenko G.V., Vaskevich V.L. (eds.) Selected works of S.L.Sobolev. Volume 1(Springer, 2006)(605s)_M_.pdf",0,2000-01-01 01:00:00,2016-04-03 02:51:08,3000/430f5efa2ad25b4056ca16db771822a4.jpg,,
5572818,Oriented matroids,,Enc. Math.Appl,,"Anders Björner, Michel Las Vergnas, Bernd Sturmfels, Neil White, Gunter M. Ziegler",2000,2,Cambridge University Press,,281,0,English,Математика//Дискретная математика,kolxoz,8,"052177750X,9780521777506",,,,,511/.6,QA166.6 .O75 1999,,,OL6899861M,,300,,,1,,1,,1,5363383,djvu,430224B5187AEBCAA273E8967C5237E2,,,"M_Mathematics/MA_Algebra/MAc_Combinatorics/Bjorner, Las Vergnas, Sturmfels, White, Ziegler. Oriented matroids (Enc.Math.Appl., 2ed., CUP, 1999)(L)(T)(ISBN 052177750X)(281s).djvu",0,2000-01-01 01:00:00,2016-04-03 02:51:08,3000/430224b5187aebcaa273e8967c5237e2-d.jpg,,
5572817,"Теория графов: покрытия, укладки, турниры (сб. переводов)",,,,"Алексеев, Гаврилов, Сапоженко. (ред.)",1974,,Мир,,224,0,Russian,Математика//Дискретная математика,kolxoz,14,,,,,,,,,,,,600,,,,,,,T,4347904,djvu,42625D69F135B782F669EC8847E34A04,,,"M_Mathematics/MA_Algebra/MAc_Combinatorics/Alekseev, Gavrilov, Sapozhenko (red.). Teorija grafov.. pokrytija, ukladki, turniry (sb. perevodov)(Mir, 1974)(ru)(600dpi)(T)(224s)_MAc_.djvu",0,2000-01-01 01:00:00,2016-04-03 02:51:08,3000/42625d69f135b782f669ec8847e34a04.jpg,,
5572816,Gesammelte Werke,Band 7,,,Jacobi C.G.J.,1891,,,Berlin,449,0,German,Математика,kolxoz,21,,,,,,,,,,,,600,,1,,,,,T,8663537,djvu,425E39C9271C600163BCB4BC2A115FBA,,,"M_Mathematics/Jacobi C.G.J. Gesammelte Werke. Band 7 (Berlin, 1891)(de)(KA)(600dpi)(T)(449s)_M_.djvu",0,2000-01-01 01:00:00,2016-04-03 02:51:08,3000/425e39c9271c600163bcb4bc2a115fba.jpg,,
5572815,Classical Banach-Lie algebras and Banach-Lie groups of operators in Hilbert space,,LNM0285,,Pierre de La Harpe,1972,,Springer-Verlag,,163,0,English,Математика//Алгебра,kolxoz,21,"9780387059846,0-387-05984-9",,,,,"510/.8 s,512/.55","QA3 .L28 no. 285,QA251 .L28 no. 285",,,OL5305869M,,300,,,,,,,T,1167841,djvu,423DE520B10D1BC2829A429698FA4BCC,,,"M_Mathematics/MA_Algebra/MAa_Abstract algebra/de la Harpe P. Classical Banach-Lie algebras and Banach-Lie groups of operators in Hilbert space (LNM0285, Springer, 1972)(T)(163s)_MAa_.djvu",0,2000-01-01 01:00:00,2016-04-03 02:51:08,3000/423de520b10d1bc2829a429698fa4bcc.jpg,,
5572814,Advanced combinatorics,,,,L. Comtet,1974,1,Springer,,177,0,English,Математика//Комбинаторика,kolxoz,8,"9789027703804,9027703809",,,,,511/.6,QA164 .C6713 1974,,,OL5437432M,,300,,,1,,,,,4697184,djvu,422E91523F6BF2866F4E5482C1733402,,,M_Mathematics/MA_Algebra/MAc_Combinatorics/Comtet L. Advanced combinatorics (1974)(L)(T)(ISBN 9027703809)(177s).djvu,0,2000-01-01 01:00:00,2016-04-03 02:51:08,3000/422e91523f6bf2866f4e5482c1733402-d.jpg,,
5572813,Principles of algebraic geometry,,Pure and Applied Mathematics,,"Phillip Griffiths, Joseph Harris",1978,,Wiley-Interscience,,827,0,English,Математика//Геометрия и топология,kolxoz,14,"0471327921,9780471327929",,,,,516/.35,QA564 .G64 1978,,A4tlQgAACAAJ,OL4720044M,,300,,1,,0,1,,1,12604402,djvu,421CE3136B5DA1DFAA45510E0F646047,,,"M_Mathematics/MA_Algebra/MAg_Algebraic geometry/Griffiths P., Harris J. Principles of algebraic geometry (Wiley, 1978)(KA)(T)(ISBN 0471327921)(827s)_MAg_.djvu",0,2000-01-01 01:00:00,2016-04-03 02:51:08,3000/421ce3136b5da1dfaa45510e0f646047-d.jpg,,
5572812,Полное собрание трудов,Том 3,,,Остроградский М.В.,1961,,АН УССР,,396,0,Russian,Математика,kolxoz,19,,,,,,,,,,,,300,,1,,,,,,4903804,djvu,41DF314AFF1C1A2B75B72A2AAEB99EAA,,,"M_Mathematics/Ostrogradskij M.V. Polnoe sobranie trudov, Tom 3 (AN USSR, 1961)(ru)(K)(T)(396s)_M_.djvu",0,2000-01-01 01:00:00,2016-04-03 02:51:08,3000/41df314aff1c1a2b75b72a2aaeb99eaa.jpg,,
5572811,Plane algebraic curves,,,,"BRIESKORN, KNÖRRER",1986,1,Birkhäuser Basel,,728,0,English,Математика//Алгебра,kolxoz,18,"9783764317690,3764317698",,,,,516.3/52,QA565 .B8413 1986,,,OL2723426M,,300,,1,,,,,T,4896980,djvu,417C1A79C1806F0A19A3A35B15570FF9,,,"M_Mathematics/MA_Algebra/MAg_Algebraic geometry/Brieskorn E., Knorrer H. Plane algebraic curves (Birkhauser 1986)(KA)(T)(728s)_MAg_.djvu",0,2000-01-01 01:00:00,2016-04-03 02:51:08,3000/417c1a79c1806f0a19a3a35b15570ff9.jpg,,
5572810,Эли Картан 1869-1951,,,,"Акивис М.А., Розенфельд Б.А.",2007,,МЦНМО,,326,0,Russian,Математика,kolxoz,17,,,,,,,,,,,,600,,1,,,,,T,3402283,djvu,40E1C825205DD571026B94D91A5996E4,,,"M_Mathematics/Akivis M.A., Rozenfel#d B.A. E#li Kartan 1869-1951 (MCNMO, 2007)(ru)(600dpi)(K)(T)(326s).djvu",0,2000-01-01 01:00:00,2016-04-03 02:51:08,3000/40e1c825205dd571026b94d91a5996e4.jpg,,
5572809,Теория графов и ее применения,,,,Берж К.,1962,,ИЛ,,320,0,Russian,Математика//Дискретная математика,kolxoz,8,,,,,,,,,,,,400,,,,,,,T,4313307,djvu,40BB33507A81FBB4E482117BF6ECD591,,,"M_Mathematics/MA_Algebra/MAc_Combinatorics/Berzh K. Teorija grafov i ee primenenija (IL, 1962)(ru)(400dpi)(T)(320s).djvu",0,2000-01-01 01:00:00,2016-04-03 02:51:08,3000/40bb33507a81fbb4e482117bf6ecd591.jpg,,
5572808,Rings and Fields,,,,Ellis G.,1992,,OUP,,182,0,English,Математика//Алгебра,kolxoz,18,0-19453455-8,,,,,,,,,,,300,,,,,,,T,1121848,djvu,40A74FA25360211BDC7B7D6FF460D8F1,,,"M_Mathematics/MA_Algebra/MAa_Abstract algebra/Ellis G. Rings and Fields (OUP, 1992)(T)(182s)_MAa_.djvu",0,2000-01-01 01:00:00,2016-04-03 02:51:08,3000/40a74fa25360211bdc7b7d6ff460d8f1.jpg,,
5572807,Differential Equations from the Algebraic Standpoint,,Colloquium Publications ,,Joseph Fels Ritt,1932,,American Mathematical Society,,183,0,English,Математика,kolxoz,21,"9780821846056,0821846051",,,,,,,,,OL11420302M,,600,,,,,,,,3008354,djvu,40458AA9F6904A085780AC93DFB491E2,,,"M_Mathematics/MA_Algebra/MAd_Differential algebra/Ritt J.F. Differential Equations from the Algebraic Standpoint (AMS, 1932)(600dpi)(T)(183s)_MAd_.djvu",0,2000-01-01 01:00:00,2016-04-03 02:51:08,3000/40458aa9f6904a085780ac93dfb491e2-d.jpg,,
5572806,Algebraic geometry. Sundance 1986,,LNM1311,,"A. Holme, Robert Speiser",1988,,Springer,,325,0,English,Математика//Геометрия и топология,kolxoz,21,"9780387192369,0-387-19236-0",,,,,516.3/5,"QA3 .L28 no. 1311,QA564 .L28 no. 1311",,,OL2042332M,,300,,,,,,,,2021352,djvu,403B50484446682D6114F09410E2A938,,,"M_Mathematics/MA_Algebra/MAg_Algebraic geometry/Holme A., Speiser R. (eds.) Algebraic geometry. Sundance 1986 (LNM1311, Springer, 1988)(T)(325s)_MAg_.djvu",0,2000-01-01 01:00:00,2016-04-03 02:51:08,3000/403b50484446682d6114f09410e2a938.jpg,,
5572805,Kategorien I. ,,Heidelberger Taschenbücher,,H. Schubert,1970,1,Springer,,168,0,German,Математика//Алгебра,kolxoz,8,"9783540048657,3540048650",,B0000BULLH,,,,,,,,,300,,,,,,,1,1990684,djvu,402F52C9D6277DEAA4AA48AFC006389C,,,"M_Mathematics/MA_Algebra/MAct_Category theory/Schubert H. Kategorien 1 (Akademie-Verlag, 1970)(de)(T)(168s).djvu",0,2000-01-01 01:00:00,2016-04-03 02:51:08,3000/402f52c9d6277deaa4aa48afc006389c.jpg,,
5572804,Notes on introductory combinatorics,,Progress in Computer Science,,"George Pólya, Robert E. Tarjan, Donald R. Woods",1983,,Birkhäuser Boston,,200,0,English,Математика//Комбинаторика,kolxoz,14,"9780817631239,0817631232",,,,,511/.6,QA164 .P635 1983,,,OL3173503M,,300,,,,,1,,1,1948920,djvu,3EF4BE440699E9430F5255BFAFCC7A72,,,"M_Mathematics/MA_Algebra/MAc_Combinatorics/Polya G., Tarjan R.E., Woods D.R. Notes on introductory combinatorics (Birkhauser, 1983)(T)(ISBN 0817631232)(200s)_MAc_.djvu",0,2000-01-01 01:00:00,2016-04-03 02:51:08,3000/3ef4be440699e9430f5255bfafcc7a72-d.jpg,,
5572803,"First order algebraic ODE, differential algebraic approach",,Lecture notes in mathematics ,,Michihiko Matsuda,1980,,Springer-Verlag,,120,0,English,Математика//Алгебра,kolxoz,18,"9780387099972,0387099972",,,,,"510 s,512/.56","QA3 .L28 no. 804,QA247.4 .L28 no. 804",,,OL3042162M,,300,,1,,,,,T,503263,djvu,3E1D58402C6566468B8BCB4210E70E2D,,,"M_Mathematics/MA_Algebra/MAd_Differential algebra/Matsuda M. First order algebraic ODE, differential algebraic approach (LNM0804, Springer, 1980)(KA)(T)(120s)_MAd_.djvu",0,2000-01-01 01:00:00,2016-04-03 02:51:08,,,
5572802,Gesammelte mathematische Werke 3,,,,Dedekind R.,1932,,,,512,0,German,Математика,kolxoz,17,,,,,,,,,,,,600,,,,,,,,6088187,djvu,3DC108E5193C415A6D1EB4A141F1E473,,,M_Mathematics/Dedekind R. Gesammelte mathematische Werke 3 (1932)(de)(600dpi)(T)(O)(512s)_M_.djvu,0,2000-01-01 01:00:00,2016-04-03 02:51:08,3000/3dc108e5193c415a6d1eb4a141f1e473.jpg,,
5572801,Arithmetic of complex manifolds,,LNM1399,,"Wolf-P. Barth, Herbert Lange",1989,1,Springer,,175,0,English,Математика,kolxoz,21,"3540517294,9783540517290",,,,,,,,,,,300,,,,,1,,1,1327937,djvu,3D88EEFDEE1FA0DF5FBFC61DAC036A72,,,"M_Mathematics/MA_Algebra/MAg_Algebraic geometry/Barth W.-P., Lange H. (eds.) Arithmetic of complex manifolds (LNM1399, Springer, 1989)(ISBN 3540517294)(en)(fr)(T)(175s)_MAg_.djvu",0,2000-01-01 01:00:00,2016-04-03 02:51:08,3000/3d88eefdee1fa0df5fbfc61dac036a72-d.jpg,,
5572800,Теория множеств и метод форсинга,,,,Йех Т.,1973,,Мир,,152,0,Russian,Математика//Алгебра,infanata,8,,,,,,,,,,,,300,,,,,,,T,1745923,djvu,3D3C0284720E62361EAC0D8B08E78BE8,,,"N:\\natahaus\\2009\\2009-05\\[1146111741]Теория множеств и метод форсинга.-- Йех Т. (Мир, 1973, 152).djvu",0,2000-01-01 01:00:00,2016-04-03 02:51:08,3000/3d3c0284720e62361eac0d8b08e78be8.jpg,,
5572799,Zur Theorie der Elimination: Dissertation,,,,Tiedemann K.,1912,,,Koenigsberg,77,0,German,Математика//Алгебра,kolxoz,18,,,,,,,,,,,,600,,1,,,,,T,1058864,djvu,3D0595E7AB0B596B8CD57BA19DDAC1EF,,,"M_Mathematics/MA_Algebra/MAco_Computational algebra/Tiedemann K. Zur Theorie der Elimination.. Dissertation (Koenigsberg, 1912)(600dpi)(KA)(de)(T)(77s)_MAco_.djvu",0,2000-01-01 01:00:00,2016-04-03 02:51:08,3000/3d0595e7ab0b596b8cd57ba19ddac1ef.jpg,,
5572797,Элементы общей алгебры,,,,Скорняков Л.А.,1983,,Наука,,272,0,Russian,Математика//Алгебра,kolxoz,14,,,,,,,,,,,,300,,1,,,,,,2976393,djvu,3CCF9F882B47AA1AE6C3091D9BF91F5F,,,"M_Mathematics/MA_Algebra/MAa_Abstract algebra/Skornyakov L.A. E#lementy obshchej algebry (Nauka, 1983)(ru)(K)(T)(272s)_MAa_.djvu",0,2000-01-01 01:00:00,2016-04-03 02:51:08,3000/3ccf9f882b47aa1ae6c3091d9bf91f5f.jpg,,
5572798,Discrete mathematics using Latin squares,,,,"Charles F. Laywine, Gary L. Mullen",1998,1,Wiley-Interscience,,163,0,English,Математика,kolxoz,8,"0471240648,9780471240648",,,,,511/.64,QA165 .L395 1998,,,OL703360M,,300,,,1,,1,,1,2591517,djvu,3CEA5243C777D626BE3ED28770BC0668,,,"Laywine C.F., Mullen G.L. Discrete mathematics using Latin squares (Wiley, 1998)(L)(T)(ISBN 0471240648)(163s).djvu",0,2000-01-01 01:00:00,2016-04-03 02:51:08,3000/3cea5243c777d626be3ed28770bc0668-d.jpg,,
5572796,Differential algebraic groups,,Pure and Applied Mathematics,,Author Unknown,1985,1St Edition,Academic Press,,290,0,English,Математика//Алгебра,kolxoz,18,"0124176402,9780124176409,9780080874333",,,,,"510 s,512/.56","QA3 .P8 vol. 114,QA247.4 .P8 vol. 114",,,OL2847074M,,300,,1,,,1,,1,1937132,djvu,3CCCD41D34A6BE1F3F9D5F1242557A5A,,,"M_Mathematics/MA_Algebra/MAd_Differential algebra/Kolchin E.R. Differential algebraic groups (AP, 1985)(KA)(T)(ISBN 0124176402)(290s)_MAd_.djvu",0,2000-01-01 01:00:00,2016-04-03 02:51:08,3000/3cccd41d34a6be1f3f9d5f1242557a5a-d.jpg,,
5572795,Polynomials with special regard to reducibility,,Encyclopedia of Mathematics and its Applications,,A. Schinzel,2000,1st,Cambridge University Press,,568,0,English,Математика//Алгебра,kolxoz,14,"0521662257,9780521662253,9780511010651",,,,,512.9/42,QA161.P59 S337 2000,,,OL40063M,,600,,1,,,1,,1,3980101,djvu,3C7A1BA2DF1634C46B713FAB67EF78E0,,,"M_Mathematics/MA_Algebra/MAco_Computational algebra/Schinzel A. Polynomials with special regard to reducibility(CUP, 2000)(600dpi)(K)(T)(ISBN 0521662257)(568s)_MAco_.djvu",0,2000-01-01 01:00:00,2016-04-03 02:51:08,3000/3c7a1ba2df1634c46b713fab67ef78e0-d.jpg,,
5572794,Algebraic spaces,,Mathematical Monograph ,,Michael Artin,1972,,Yale University Press,Yale,47,0,English,Математика,kolxoz,8,"9780300013962,0300013965",,,,,516/.35,QA564 .A75,,,OL5449589M,,300,,1,,,1,,T,372701,djvu,3C10683FEE055AD6C9E9F1A4819FA0CE,,,"M_Mathematics/MA_Algebra/MAg_Algebraic geometry/Artin M. Algebraic spaces (Yale, 1971)(K)(300dpi)(T)(47s).djvu",0,2000-01-01 01:00:00,2016-04-03 02:51:08,3000/3c10683fee055ad6c9e9f1a4819fa0ce.jpg,,
5572793,Collected mathematical papers,Volume 11,,,Cayley A.,1896,,CUP,,676,0,English,Математика,kolxoz,17,,,,,,,,,,,,600,,,,,,,T,5972124,djvu,3BC9A382412F70AF123634ABE5719C68,,,"M_Mathematics/Cayley A. Collected mathematical papers, vol. XI (CUP, 1896)(600dpi)(T)(676s)_M_.djvu",0,2000-01-01 01:00:00,2016-04-03 02:51:08,3000/3bc9a382412f70af123634abe5719c68.jpg,,
5572792,Collected mathematical papers,Volume 10,,,Cayley A.,1896,,CUP,,638,0,English,Математика,kolxoz,17,,,,,,,,,,,,600,,,,,,,T,5188700,djvu,3B979B96765C678960011EF320BF7034,,,"M_Mathematics/Cayley A. Collected mathematical papers, vol. X (CUP, 1896)(600dpi)(T)(638s)_M_.djvu",0,2000-01-01 01:00:00,2016-04-03 02:51:08,3000/3b979b96765c678960011ef320bf7034.jpg,,
5572791,Лекции о производящих функциях,,,,Ландо С.К.,2004,,МЦНМО,,143,0,Russian,Образование,infanata,8,5-94057-042-9,,,,,,,,,,,300,,,,,,,T,1358469,djvu,3B2921174B00E1B709DB0F52721E1A8E,,,"N:\\natahaus\\2009\\2009-06\\[1146112909]Лекции о производящих функциях.-- Ландо С.К. (МЦНМО, 2004, 144).djvu",0,2000-01-01 01:00:00,2016-04-03 02:51:08,3000/3b2921174b00e1b709db0f52721e1a8e-d.jpg,,
5572790,Собрание сочинений,Том 1,,,Бернштейн С.Н.,1952,,АН СССР,,582,0,Russian,Литература,kolxoz,13,,,,,,,,,,,,600,,1,,,,,T,13953367,djvu,3AC76B4234F4C638DB19FDB22D78DC58,,,"M_Mathematics/Bernshtejn S.N. Sobranie sochinenij, tom 1 (AN SSSR, 1952)(ru)(K)(600dpi)(T)(582s).djvu",0,2000-01-01 01:00:00,2016-04-03 02:51:08,3000/3ac76b4234f4c638db19fdb22d78dc58.jpg,,
5572789,Математика для социологов и экономистов: Учеб. пособие,,,,Ахтямов А.М.,2004,,ФМЛ,,463,0,Russian,Математика,kolxoz,13,5-9221-0460-8,,,,,,,,,,,600,,1,,,,,T,2968730,djvu,3A66C3BCF0F0EDC6875BB508CE043D68,,,"M_Mathematics/Axtyamov A.M. Matematika dlya sociologov i e#konomistov.. Ucheb. posobie (FML, 2004)(ru)(K)(600dpi)(T)(463s).djvu",0,2000-01-01 01:00:00,2016-04-03 02:51:08,3000/3a66c3bcf0f0edc6875bb508ce043d68.jpg,,
5572788,Радикалы алгебр и структурная теория,,,,"Андрунакиевич В.А., Рябухин Ю.М.",1979,,Наука,,496,0,Russian,Математика//Алгебра,kolxoz,8,,,,,,,,,,,,300,,1,,,,,T,5655509,djvu,39C17338F5F8CD2A46A049BDE13ECC7E,,,"M_Mathematics/MA_Algebra/MAa_Abstract algebra/Andrunakievich V.A., Ryabuhin Ju.M. Radikaly algebr i strukturnaja teorija (Nauka, 1979)(ru)(K)(T)(496s).djvu",0,2000-01-01 01:00:00,2016-04-03 02:51:08,3000/39c17338f5f8cd2a46a049bde13ecc7e.jpg,,
5572787,Oeuvres,Tome 12,,,Lagrange J.L.,1889,,Gauthier~Villars,,401,0,French,Математика,kolxoz,14,,,,,,,,,,,,600,,,,,,,T,7655629,djvu,3997FEE2963085E0C271C180DCE95D0D,,,"M_Mathematics/Lagrange J.L. Oeuvres, Tome 12 (Gauthier-Villars 1889)(fr)(600dpi)(T)(401s).djvu",0,2000-01-01 01:00:00,2016-04-03 02:51:08,3000/3997fee2963085e0c271c180dce95d0d.jpg,,
5572786,Элементы теории структур,,,,Скорняков Л.,1970,,Наука,,150,0,Russian,Математика//Алгебра,kolxoz,14,,,,,,,,,,,,300,,1,,,,,T,1775789,djvu,396ACDFB99811E8416FE4CFD71CA17BA,,,M_Mathematics/MA_Algebra/MAa_Abstract algebra/Skornyakov L. E#lementy teorii struktur(Nauka 1970)(ru)(KA)(T)(150s)_MAa_.djvu,0,2000-01-01 01:00:00,2016-04-03 02:51:08,3000/396acdfb99811e8416fe4cfd71ca17ba.jpg,,
5572785,Abstract algebra,,,,"Dummit D.S., Foote R.M.",1990,,PH,,668,0,English,Математика//Алгебра,kolxoz,14,"0130047716,9780130047717",,,,,512/.02,QA162 .D85 1991,,,OL1875465M,,300,,,,,,,1,5589230,djvu,39357399B9B0362E06058FBC7C027F97,,,"M_Mathematics/MA_Algebra/MAa_Abstract algebra/Dummit D.S., Foote R.M. Abstract algebra (PH, 1991)(T)(668s)_MAa_.djvu",0,2000-01-01 01:00:00,2016-04-03 02:51:08,3000/39357399b9b0362e06058fbc7c027f97.jpg,,
5572784,Упорядоченные множества и решетки,Выпуск 3,,,,1975,,,Саратов,103,0,Russian,Математика//Алгебра,kolxoz,18,,,,,,,,,,,,300,,,,,,,,853063,djvu,3918C9B6BC948B41D0397D0D9C13E920,,,"M_Mathematics/MA_Algebra/MAa_Abstract algebra/Uporyadochennye mnozhestva i reshetki vyp.3 (Saratov, 1975)(ru)(T)(103s)_MAa_.djvu",0,2000-01-01 01:00:00,2016-04-03 02:51:08,3000/3918c9b6bc948b41d0397d0d9c13e920.jpg,,
5572782,Oeuvres,Tome 10,,,Poincare H.,1954,,Paris,,1275,0,French,Математика,kolxoz,19,,,,,,,,,,,,300,,,,,,,T,19004359,djvu,38324B9D03CEC49652AADC4E9A12788B,,,"M_Mathematics/Poincare H. Oeuvres, Tome 10 (Paris, 1954)(fr)(T)(1275s)_M_.djvu",0,2000-01-01 01:00:00,2016-04-03 02:51:08,,,
5572783,"Избранные труды. Теория вероятностей, статистика и анализ",Том 2,,,Романовский В.И.,1964,,,Ташкент,392,0,Russian,Математика//Анализ,kolxoz,11,,,,,,,,,,,,300,,,,,,,T,3223874,djvu,39063AB4264AA8AE02E3D487AFA44D2E,,,"M_Mathematics/Romanovskij V.I. Izbrannye trudy, tom 2. Teorija verojatnostej, statistika i analiz (Tashkent, 1964)(ru)(T)(392s).djvu",0,2000-01-01 01:00:00,2016-04-03 02:51:08,3000/39063ab4264aa8ae02e3d487afa44d2e.jpg,,
5572781,"История математики, в 2-х томах",Том 1,учебное пособие,,Рыбников К. А.,1960,,изд-во Московского университета,,191,0,Russian,Математика,infanata,19,,,,,,,,,,,,600,,1,,,,,T,2661391,djvu,37EB6583E3F4FE22A689505BD18AB641,,,"N:\\natahaus\\2008\\2008-01\\2008.01.27\\Рыбников К. А. - История математики, в 2-х томах. Том 1 1960.djvu",0,2000-01-01 01:00:00,2016-04-03 02:51:08,3000/37eb6583e3f4fe22a689505bd18ab641.jpg,,
5572780,Naive set theory,,Undergraduate Texts in Mathematics,,P. R. Halmos,1998,1,Springer,,115,0,English,Математика//Алгебра,kolxoz,21,"0387900926,9780387900926",,,,,511/.3,QA248 .H26 1974,,,OL5049635M,,400,,1,,,1,,T,1625744,djvu,37E031AA01E99DC28D41DC232C2D24A6,,,"M_Mathematics/MA_Algebra/MAa_Abstract algebra/Halmos P. Naive set theory (Springer, 1998)(ISBN 0387900926)(KA)(400dpi)(T)(115s)_MAa_.djvu",0,2000-01-01 01:00:00,2016-04-03 02:51:08,3000/37e031aa01e99dc28d41dc232c2d24a6-d.jpg,,
5572779,Теория графов(нет с.306),,,,Татт У.,1988,,Мир,,424,0,Russian,Математика//Дискретная математика,kolxoz,8,0-521-30241-2,,,,,511/.5,QA166 .T815 1984b,,,OL2575982M,,300,,,,,,,T,4613340,djvu,37DAF3CF15D37BC9FC12DAEE7DBF9103,,,"M_Mathematics/MA_Algebra/MAc_Combinatorics/Tatt U. Teorija grafov (Mir, 1988)(net s.306)(ru)(T)(424s).djvu",0,2000-01-01 01:00:00,2016-04-03 02:51:08,3000/37daf3cf15d37bc9fc12daee7dbf9103.jpg,,
5572778,Collected mathematical papers,Volume 3,,,Cayley A.,1890,,CUP,,594,0,English,Математика,kolxoz,17,,,,,,,,,,,,600,,,,,,,T,4661028,djvu,37D0B8E57B1E86CB610F75FE6A066A4D,,,"M_Mathematics/Cayley A. Collected mathematical papers, vol. III (CUP, 1890)(600dpi)(T)(594s)_M_.djvu",0,2000-01-01 01:00:00,2016-04-03 02:51:08,3000/37d0b8e57b1e86cb610f75fe6a066a4d.jpg,,
5572777,"Комбинаторные задачи и (0,1)-матрицы",,,,Тараканов В.Е.,1985,,Наука,,193,0,Russian,Математика,infanata,8,,,,,,,,,,,,600,,1,,,,,T,7216508,djvu,37AA938765DD2E525F576994B14746AE,,,"N:\\natahaus\\2009\\2009-05\\[1146112576]Комбинаторные задачи и (0,1)-матрицы.-- Тараканов В.Е. (Наука, 1985, 192).djvu",0,2000-01-01 01:00:00,2016-04-03 02:51:08,3000/37aa938765dd2e525f576994b14746ae.jpg,,
5572776,Methods of algebraic geometry,Volume 1,Cambridge Mathematical Library,,"W. V. D. Hodge, D. Pedoe",1994,,Cambridge University Press,,444,0,English,Математика//Геометрия и топология,kolxoz,21,"0521469007,9780521469005",,,,,516.35,,,,OL22333867M,,600,,,,,1,,1,5539663,djvu,3739A5DCBB1F377288CA27AB547DA34A,,,"M_Mathematics/MA_Algebra/MAg_Algebraic geometry/Hodge W.V.D., Pedoe D. Methods of algebraic geometry, vol.1 (CUP, 1953)(ISBN 0521469007)(600dpi)(T)(444s)_MAg_.djvu",0,2000-01-01 01:00:00,2016-04-03 02:51:08,3000/3739a5dcbb1f377288ca27ab547da34a-d.jpg,,
5572775,G. Lejeune Dirichlet's Werke,Band 1,,,Kronecker L. (ed.),1889,,DRUCK UND VERLAG VON GEORG REIMER (Berlin),Berlin,659,0,German,Математика,kolxoz,18,,,,,,,,,,,,600,,1,,,,,T,13652815,djvu,37160AC31817B0B6D0631DEF87090022,,,"M_Mathematics/Kronecker L. (ed.) G. Lejeune Dirichlet#s Werke. Band 1 (Berlin, 1889)(de)(fr)(600dpi)(KA)(T)(659s).djvu",0,2000-01-01 01:00:00,2016-04-03 02:51:08,3000/37160ac31817b0b6d0631def87090022.jpg,,
5572774,"Seminaire Bourbaki 1972-1973, exposes 418-435",,LNM0383,,Bourbaki N.,1974,,Springer,,332,0,English,Математика,kolxoz,21,0387067965,,,,,,,,,,,300,,,,,,,1,2658165,djvu,36F7D928C7FAE7CD20AA43E365CA1732,,,LNM 0383(fr) - Bourbaki - Seminaire bourbaki 1972-1973 exposes 418-435 - Springer 1974 - ISBN 0387067965 (en)(fr)(t)(332s).djvu,0,2000-01-01 01:00:00,2016-04-03 02:51:08,3000/36f7d928c7fae7cd20aa43e365ca1732.jpg,,
5572773,Algèbre: Chapitres 1 à 3 ,,,,N. Bourbaki,2006,Réimpression inchangée de la 2e éd. 1970,Springer,,644,0,French,Математика,kolxoz,21,"9783540338499,9783540338505,3540338497",,,,,,,,,OL12774042M,,300,,,,,1,,1,6274089,djvu,36E267F105F25132ED236C611E46EE7E,,,"M_Mathematics/Bourbaki N. Elements de Mathematique. Algebre. Chapitres 1 a 3 (fr)(Springer,2007)(ISBN 3540338497)(T)(644s)_M_.djvu",0,2000-01-01 01:00:00,2016-04-03 02:51:08,3000/36e267f105f25132ed236c611e46ee7e-d.jpg,,
5572772,Applied combinatorics,,,,Alan Tucker,1994,3rd,John Wiley & Sons,,472,0,English,Математика//Комбинаторика,kolxoz,14,"9780471595045,0471595047",,,,,511/.6,QA164 .T83 1995,,,OL1436389M,,300,,,,,1,,,4139481,djvu,36D80F38E2D5FC539002D61E995CAFB2,,,"M_Mathematics/MA_Algebra/MAc_Combinatorics/Tucker A. Applied combinatorics (3rd ed., Willey, 1995)(ISBN 0471595047)(T)(472s)_MAc_.djvu",0,2000-01-01 01:00:00,2016-04-03 02:51:08,3000/36d80f38e2d5fc539002d61e995cafb2-d.jpg,,
5572771,Начала теории Рамсея,,,,Грэхем Р. (R.L.Graham),1984,,Мир,,48,0,Russian,Математика//Дискретная математика,kolxoz,8,,,,,,,,,,,,300,,,1,,,,,2646756,djvu,3696E2CB3AF1DA7234771A07C8114FAD,,,"M_Mathematics/MA_Algebra/MAc_Combinatorics/Gre#hem R. (_R.L.Graham_) Nachala teorii Ramseja (Mir, 1984)(ru)(L)(T)(48s)_MAc_.djvu",0,2000-01-01 01:00:00,2016-04-03 02:51:08,3000/3696e2cb3af1da7234771a07c8114fad.jpg,,
5572770,Logarithmic combinatorial structures: a probabilistic approach,,EMS,,"Richard Arratia, Simon TavarÃ©, A. D. Barbour",2003,,European Mathematical Society,,363,0,English,Математика//Комбинаторика,kolxoz,14,"3037190000,9783037190005",,,,,,,,,OL12659973M,,300,,,,,1,,T,2355483,djvu,361ADF0F3D07582F977AA3DA06C64E0C,,,"M_Mathematics/MA_Algebra/MAc_Combinatorics/Arratia R., Barbour A., Tavare S. Logarithmic combinatorial structures.. a probabilistic approach (EMS, 2003)(T)(ISBN 3037190000)(363s)_MAc_.djvu",0,2000-01-01 01:00:00,2016-04-03 02:51:08,3000/361adf0f3d07582f977aa3da06c64e0c-d.jpg,,
5572769,Introduction to Grothendieck duality theory,,Lecture Notes in Mathematics,,"Allen Altman, Steven Kleiman",1970,1,Springer,,187,0,English,Математика//Алгебра,kolxoz,21,"9783540049357,3540049355",,,,,,,,,,very low quality,300,,,,,1,,T,1063784,djvu,35F4E1479CC0DCEED29576065A60294D,,,"M_Mathematics/MA_Algebra/MAg_Algebraic geometry/Altman A., Kleiman S. Introduction to Grothendieck duality theory (LNM0146, Springer, 1970)(T)(187s)_MAg_.djvu",0,2000-01-01 01:00:00,2016-04-03 02:51:08,3000/35f4e1479cc0dceed29576065a60294d-d.jpg,,
5572768,Проблемы Гильберта (сборник статей),,,,Александров П.С. (ред.),2000,,,,134,0,Russian,Математика,kolxoz,8,5-1236-0064-7,,,,,,,,,,,300,,,1,,,,,4443538,djvu,35ABA6082DD701585E90521594F34B3C,,,M_Mathematics/Aleksandrov P.S. (red.) Problemy Gil#berta (sbornik statej)(2000)(ru)(L)(T)(134s).djvu,0,2000-01-01 01:00:00,2016-04-03 02:51:08,3000/35aba6082dd701585e90521594f34b3c.jpg,,
5572767,Основы теории графов,,,,Зыков А.,1987,,Наука,,381,0,Russian,Математика//Теория графов,infanata,14,,,,,,,,,,,,300,,1,,,,,,9058575,djvu,350E9EA626024021E99EF541B16B75C0,,,N:\\natahaus\\2007\\2007-04\\16 04 07\\Зыков А. - Основы теории графов 1987.djvu,0,2000-01-01 01:00:00,2016-04-03 02:51:08,3000/350e9ea626024021e99ef541b16b75c0.jpg,,
5572766,Труды по топологии и другим областям математики,Том 1,,,Урысон П.С.,1951,,ГИТТЛ,,515,0,Russian,Математика,kolxoz,19,,,,,,,,,,,,600,,1,,,,,T,7481607,djvu,3440F882F10B9E60040B9B6DE247EA40,,,"M_Mathematics/Uryson P.S. Trudy po topologii i drugim oblastyam matematiki. T. 1 (GITTL, 1951)(ru)(T)(K)(600dpi)(515s)_M_.djvu",0,2000-01-01 01:00:00,2016-04-03 02:51:08,3000/3440f882f10b9e60040b9b6de247ea40.jpg,,
5572765,Concrete mathematics,,,,"Graham, Knuth, Patashnik.",,,,,640,0,English,Математика,kolxoz,8,,,,,,,,,,,,300,,,,,,,T,5496516,djvu,34350ECE0EEF14182AF2A2EEC49D6DCC,,,"M_Mathematics/MA_Algebra/MAc_Combinatorics/Graham, Knuth, Patashnik. Concrete mathematics(T)(640s).djvu",0,2000-01-01 01:00:00,2016-04-03 02:51:08,3000/34350ece0eef14182af2a2eec49d6dcc.jpg,,
5572764,Left principal ideal rings,,Lecture Notes in Mathematics ,,A. V. Jategaonkar,1970,1,Springer,,149,0,English,Математика//Алгебра,kolxoz,18,"9783540049128,3540049126",,,,,,,,,,,600,,1,,,,,T,1091787,djvu,33BACCBFD8D054FEEE5532A66F077D3A,,,"M_Mathematics/MA_Algebra/MAa_Abstract algebra/Jategaonkar A.V. Left principal ideal rings (LNM0123, Springer, 1970)(K)(600dpi)(T)(149s).djvu",0,2000-01-01 01:00:00,2016-04-03 02:51:08,3000/33baccbfd8d054feee5532a66f077d3a-d.jpg,,
5572763,"Софус Ли, 1842-1899",,,,Полищук Е.М.,1983,,Наука,,214,0,Russian,Математика,kolxoz,11,,,,,,,,,,,,300,,,,,,,,2398252,djvu,3376DC1AC5BBAB29A7CAEA67CDD2DD9A,,,"M_Mathematics/Polishchuk E.M. Sofus Li, 1842-1899 (Nauka, 1983)(ru)(T)(214s).djvu",0,2000-01-01 01:00:00,2016-04-03 02:51:08,3000/3376dc1ac5bbab29a7caea67cdd2dd9a.jpg,,
5572762,"Идеалы, многообразия и алгоритмы",,,,"Кокс, Литтл, О-Ши.",2000,,Мир,,335,0,Russian,Математика,kolxoz,8,0-387-94680-2,,,,,516.3/5,QA564 .C688 1997,,,OL7448557M,,300,,,1,,,,,7487087,djvu,330D6481D33353F173F70859701BA63B,,,"M_Mathematics/MA_Algebra/MAco_Computational algebra/Koks, Littl, O-Shi. Idealy, mnogoobrazija i algoritmy (Mir, 2000) (ru)(L)(T)(335s).djvu",0,2000-01-01 01:00:00,2016-04-03 02:51:08,3000/330d6481d33353f173f70859701ba63b.jpg,,
5572761,"Categories, groupoids, pseudogroups and analytical structures",,Rozprawy mat XLV,,Waliszewski W.,1965,,,Warszawa,43,0,English,Математика//Симметрия и группы,kolxoz,18,,,,,,,,,,,,600,,1,,,,,,459427,djvu,32F937D63D0E9A267C9778D6B39DECC8,,,"M_Mathematics/MA_Algebra/MAa_Abstract algebra/Waliszewski W. Categories, groupoids, pseudogroups and analytical structures (Warszawa, Rozprawy mat. XLV, 1965)(K)(600dpi)(T)(43s)_MAa_.djvu",0,2000-01-01 01:00:00,2016-04-03 02:51:08,3000/32f937d63d0e9a267c9778d6b39decc8.jpg,,
5572760,Oeuvres,Tome 2,,,Poincare H.,1916,,Paris,,707,0,French,Математика,kolxoz,11,,,,,,,,,,,,300,,,,,,,T,8562083,djvu,3267D89218BD9D3C024AD13131B7B93D,,,"M_Mathematics/Poincare H. Oeuvres, Tome 2 (Paris, 1916)(fr)(T)(707s).djvu",0,2000-01-01 01:00:00,2016-04-03 02:51:08,3000/3267d89218bd9d3c024ad13131b7b93d.jpg,,
5572759,Лобачевский,,,,Каган В.Ф.,1948,2,АН СССР,,524,0,Russian,Математика,kolxoz,13,,,,,,,,,,,,300,,,,,,,T,8952719,djvu,323643BC70B6ADE0F7B2855D02D39EFD,,,"M_Mathematics/Kagan V.F. Lobachevskij (2e izd., AN SSSR, 1948)(ru)(T)(524s).djvu",0,2000-01-01 01:00:00,2016-04-03 02:51:08,3000/323643bc70b6ade0f7b2855d02d39efd.jpg,,
5572758,Собрание сочинений,Том 3,,,Бернштейн С.Н.,1960,,АН СССР,,441,0,Russian,Литература,kolxoz,13,,,,,,,,,,,,600,,1,,,,,T,9834530,djvu,3227217C823312F00A9164859F70EA22,,,"M_Mathematics/Bernshtejn S.N. Sobranie sochinenij, tom 3 (AN SSSR, 1960)(ru)(K)(600dpi)(T)(441s).djvu",0,2000-01-01 01:00:00,2016-04-03 02:51:08,3000/3227217c823312f00a9164859f70ea22.jpg,,
5572757,Advanced combinatorics: the art of finite and infinite expansions,,,,L. Comtet,1974,1,Springer,,351,0,English,Математика//Комбинаторика,kolxoz,14,"9789027703804,9027703809",,,,,511/.6,QA164 .C6713 1974,,,OL5437432M,,300,,,,,1,,1,4554211,djvu,320DEC4FF18EF2A84B2FF10A5785D1AA,,,"M_Mathematics/MA_Algebra/MAc_Combinatorics/Comtet L. Advanced combinatorics.. the art of finite and infinite expansions (RPC, 1974)(T)(ISBN 9027703809)(351s)_MAc_.djvu",0,2000-01-01 01:00:00,2016-04-03 02:51:08,3000/320dec4ff18ef2a84b2ff10a5785d1aa-d.jpg,,
5572756,Basic theorems in partial differential algebra,,,,Seidenberg A.,1958,,,Kyoto,9,0,English,Математика//Алгебра,kolxoz,18,,,,,,,,,,,,300,,1,,,,,,104060,djvu,3204C7879CE15941355D8DCD8795A4C4,,,"M_Mathematics/MA_Algebra/MAd_Differential algebra/Seidenberg A. Basic theorems of partial diff. algebra (Mem.Kyoto, 1958)(KA)(T)(9s)_MAd_.djvu",0,2000-01-01 01:00:00,2016-04-03 02:51:08,3000/3204c7879ce15941355d8dcd8795a4c4.jpg,,
5572755,Journees de Geometrie Algebrique d'Angers 1979,,,,Beauville. (red.),1980,,,Noordhoff,169,0,French,Математика//Геометрия и топология,kolxoz,8,,,,,,,,,,,,300,,,1,,,,,3242516,djvu,31FE60F8FADAD5434403FCFE7B9C7106,,,"M_Mathematics/MA_Algebra/MAg_Algebraic geometry/Beauville (red.). Journees de Geometrie Algebrique d#Angers 1979 (Noordhoff, 1980)(fr)(L)(T)(169s)_MAg_.djvu",0,2000-01-01 01:00:00,2016-04-03 02:51:08,3000/31fe60f8fadad5434403fcfe7b9c7106.jpg,,
5572754,Graph theory: An algorithmic approach,,,,Nicos Christofides,1975,illustrated edition,Academic Press Inc,,415,0,English,Математика//Дискретная математика,kolxoz,18,"9780121743505,0121743500",,,,,511/.5,QA166 .C48,,,OL5045504M,,300,,1,,,1,,1,3315149,djvu,315A8C7B3FCEF07D51692AC6B7E636E8,,,"M_Mathematics/MA_Algebra/MAc_Combinatorics/Christofides N. Graph theory.. An algorithmic approach (AP, 1975)(K)(T)(ISBN 0121743500)(415s)_MAc_.djvu",0,2000-01-01 01:00:00,2016-04-03 02:51:08,3000/315a8c7b3fcef07d51692ac6b7e636e8.jpg,,
5572753,Clones in universal algebra,,Seminaire de mathematiques superieures,,A Szendrei,1986,,Presses de l'Universite de Montreal,Montreal,164,0,English,Математика//Алгебра,kolxoz,21,"2760607704,9782760607705",,,,,512,QA251 .S97 1986,,,OL21802710M,,600,,1,,,1,,1,2503093,djvu,314A4411815A4F4BBFBBADA6F38B6705,,,"M_Mathematics/MA_Algebra/MAa_Abstract algebra/Szendrei A. Clones in universal algebra (Montreal, 1986)(ISBN 2760607704)(K)(600dpi)(T)(164s)_MAa_.djvu",0,2000-01-01 01:00:00,2016-04-03 02:51:08,3000/314a4411815a4f4bbfbbada6f38b6705.jpg,,
5572752,Exploratory Galois theory,,,,Swallow J.,2004,,CUP,,222,0,English,Математика//Алгебра,kolxoz,21,"0511229321,0521544998,0521836506",,,,,,,,,OL7745733M,,300,,,,,,,T,1523915,djvu,3110638AE95E4FD2CF2032A27E28F864,,,"M_Mathematics/MA_Algebra/MAa_Abstract algebra/Swallow J. Exploratory Galois theory (CUP, 2004)(T)(222s)_MAa_.djvu",0,2000-01-01 01:00:00,2016-04-03 02:51:08,3000/3110638ae95e4fd2cf2032a27e28f864.jpg,,
5572751,Geometric models for noncommutative algebras,,,,"Cannas da Silva A., Weinstein A.",1998,web draft,,,194,0,English,Математика//Геометрия и топология,kolxoz,8,,,,,,,,,,,,0,,,,,,,,929916,pdf,30F21A4F8250B1A29856E6D3D3566BB1,,,"M_Mathematics/MA_Algebra/MAa_Abstract algebra/Cannas da Silva A., Weinstein A. Geometric models for noncommutative algebras (web draft, 1998)(194s).pdf",0,2000-01-01 01:00:00,2016-04-03 02:51:08,3000/30f21a4f8250b1a29856e6d3d3566bb1.jpg,,
5572750,A field guide to algebra,,Undergraduate Texts in Mathematics,,Antoine Chambert-Loir,2004,1,Springer,,199,0,English,Математика//Алгебра,kolxoz,21,"0387214283,9780387214283",,,,,,,,,OL7444372M,,0,,,,,1,,1,1709214,pdf,308D6D70DCF9F843013AC96629C6B0DF,,,"M_Mathematics/MA_Algebra/MAa_Abstract algebra/Chambert-Loir A. A field guide to algebra (Springer, 2005)(ISBN 0387214283)(199s)_MAa_.pdf",0,2000-01-01 01:00:00,2016-04-03 02:51:08,3000/308d6d70dcf9f843013ac96629c6b0df-d.jpg,,
5572749,Random Graphs,,Cambridge Studies in Advanced Mathematics,,Béla Bollobás,2001,2,Cambridge University Press,,512,0,English,Математика//Дискретная математика,kolxoz,18,"0521797225,9780521797221,0521809207,9780521809207",,,,,511/.5,QA166.17 .B66 2001,,,OL6796798M,,300,,,,,1,,1,3496069,djvu,305F7E5AF6D8DA0F819F7E03AEE83DA7,,,"M_Mathematics/MA_Algebra/MAc_Combinatorics/Bollobas B. Random Graphs (2ed., CUP, 2001)(ISBN 0521797225)(T)(512s)_MAc_.djvu",0,2000-01-01 01:00:00,2016-04-03 02:51:08,3000/305f7e5af6d8da0f819f7e03aee83da7-d.jpg,,
5572748,Задачи Арнольда,,,,"Севрюк, Филиппов.",2000,,Фазис,,465,0,Russian,Математика,kolxoz,15,570360060X,,,,,,,,,,,600,,1,,,,,T,5696046,djvu,30579C1EC5A43345B2AC0B976606A4CC,,,"M_Mathematics/Sevryuk, Filippov. Zadachi Arnol#da (Fazis, 2000)(ru)(ISBN 570360060X)(K)(600dpi)(T)(465s).djvu",0,2000-01-01 01:00:00,2016-04-03 02:51:08,3000/30579c1ec5a43345b2ac0b976606a4cc.jpg,,
5572747,Paul Erdös : The Art of Counting,,,,"Paul Erdos, Joel Spencer",1973,,The MIT Press,,734,0,English,Математика//Дискретная математика,kolxoz,21,"9780262191166,0262191164",,,,,510/.8,QA3 .E69,,,OL5413055M,,300,,,,,1,,T,6084627,djvu,2FD18EF3D602AD7AA80DEAE5E35D5A56,,,"M_Mathematics/MA_Algebra/MAc_Combinatorics/Erdos P. The art of counting. Selected writings (MIT Press, 1973)(ISBN 0262191164)(T)(734s)_MAc_.djvu",0,2000-01-01 01:00:00,2016-04-03 02:51:08,3000/2fd18ef3d602ad7aa80deae5e35d5a56.jpg,,
5572746,Algebra I. Basic notions of algebra,,Encyclopaedia of Mathematical Sciences ,,"A. I. Kostrikin, I. R. Shafarevich",1990,,Springer,,260,0,English,Математика//Алгебра,kolxoz,8,"9780387170060,0387170065",,,,,512,"QA154.2 .A313 1990,QA154.2 .A313 1990",,,OL17994025M,,300,,,,,,,,3103249,djvu,2FA8CBC5C3016DF8CBC3685C336051A2,,,"M_Mathematics/MA_Algebra/MAa_Abstract algebra/Shafarevich I.R. Algebra I. Basic notions of algebra (Enc.Math.Sci.11, Springer, 2005)(T)(260s).djvu",0,2000-01-01 01:00:00,2016-04-03 02:51:08,3000/2fa8cbc5c3016df8cbc3685c336051a2.jpg,,
5572745,Matrices over commutative rings,,Pure and Applied Mathematics,,William Brown,1993,1,CRC Press,,294,0,English,Математика//Алгебра,kolxoz,8,"9780824787554,0824787552,9780585316925",,,,,512.9/434,QA188 .B7598 1993,,,OL1725344M,,300,,,,,,,1,2716901,djvu,2FA2706B04C847797C7FF7E44086B3AB,,,"M_Mathematics/MA_Algebra/MAa_Abstract algebra/Brown W.C. Matrices over commutative rings (M.Dekker, 1993)(T)(294s).djvu",0,2000-01-01 01:00:00,2016-04-03 02:51:08,3000/2fa2706b04c847797c7ff7e44086b3ab.jpg,,
5572744,Theorie des ensembles (Elements de math.),,,,Bourbaki N.,,,,,349,0,French,Математика,kolxoz,13,,,,,,,,,,,,300,,1,,,,,,3781051,djvu,2F63FEC906C71F7699899AD7576B9F41,,,M_Mathematics/Bourbaki N. Theorie des ensembles (Elements de math.)(fr)(KA)(T)(349s).djvu,0,2000-01-01 01:00:00,2016-04-03 02:51:08,3000/2f63fec906c71f7699899ad7576b9f41.jpg,,
5572743,Методы вычислительной томографии,,,,Терещенко С.А.,2003,,ФМЛ,,320,0,Russian,Математика//Вычислительная математика,kolxoz,15,5-9221-0551-5,,,,,,,,,,,600,,1,,,,,,2277977,djvu,2F3F34C090F2C45B992A87E9F1B56FF2,,,"M_Mathematics/Tereshchenko S.A. Metody vychislitel#noj tomografii (FML, 2003)(ru)(T)(K)(600dpi)(320s).djvu",0,2000-01-01 01:00:00,2016-04-03 02:51:08,3000/2f3f34c090f2c45b992a87e9f1b56ff2.jpg,,
5572742,Избранные труды,Том 3,,,Крейн М.Г.,1997,,,Киев,320,0,Russian,Математика,kolxoz,13,966-02-0364-0,,,,,,,,,,,600,,,,,,,T,3609598,djvu,2F278BF3A1295DFEAD09393FC75D9995,,,"M_Mathematics/Krejn M.G. Izbrannye trudy, Tom 3 (Kiev, 1997)(ru)(600dpi)(T)(320s).djvu",0,2000-01-01 01:00:00,2016-04-03 02:51:08,3000/2f278bf3a1295dfead09393fc75d9995.jpg,,
5572741,Algebraic geometry: a first course,,GTM133,,Joe Harris,1992,Corrected,Springer,,337,0,English,Математика//Геометрия и топология,kolxoz,8,"0387977163,9780387977164",,,,,516.3/5,QA564 .H24 1995,,,OL1029686M,,300,,,,,1,,1,3882329,djvu,2F05B33EF0425D3EA8FE60C0502D28A8,,,M_Mathematics/MA_Algebra/MAg_Algebraic geometry/Harris J. Algebraic geometry.. a first course (Springer GTM133)(T)(337s).djvu,0,2000-01-01 01:00:00,2016-04-03 02:51:08,3000/2f05b33ef0425d3ea8fe60c0502d28a8-d.jpg,,
5572740,On the linearization of a form of higher degree and its representation (generalized Clifford algebra)(J.Sci.Hiroshima 1952),,,,"Morinaga, Nono.",1952,,,,30,0,English,Математика//Алгебра,kolxoz,8,,,,,,,,,,,,300,,,,,,,,704396,djvu,2E718DF0342AA988CD804814072D8D0C,,,"M_Mathematics/MA_Algebra/MAa_Abstract algebra/Morinaga, Nono. On the linearization of a form of higher degree and its representation (generalized Clifford algebra)(J.Sci.Hiroshima 1952)(T)(30s).djvu",0,2000-01-01 01:00:00,2016-04-03 02:51:08,3000/2e718df0342aa988cd804814072d8d0c.jpg,,
5572739,Ring of quotients. Introduction to methods of ring theory,,Grundlehren der mathematischen Wissenschaften ,,B. Stenstroem,1975,1,Springer,,306,0,English,Математика//Алгебра,kolxoz,8,"9780387071176,0387071172",,,,,512/.55,QA251.5 .S8,,,OL5183165M,,300,,,,,1,,,3108629,djvu,2DD274D918BBFA48EE1D609B806F1DB8,,,Gmw 217 - Stenstrom B - Ring Of Quotients  An Introduction To Methods Of Ring Theory - Springer 1975 - Isbn 3540071172)(306S).djvu,0,2000-01-01 01:00:00,2016-04-03 02:51:08,3000/2dd274d918bbfa48ee1d609b806f1db8.jpg,,
5572738,Развитие комбинаторной теории групп,,,,"Чандлер Б., Магнус В.",1985,,Мир,,249,0,Russian,Математика//Комбинаторика,infanata,8,,,,,,,,,,,,300,,,,,,,,2693665,djvu,2DCBFC6463D8DACCA9C29024FE88E891,,,"N:\\natahaus\\2009\\2009-05\\[1146112423]Развитие комбинаторной теории групп.-- Чандлер Б., Магнус В. (1985, 255).djvu",0,2000-01-01 01:00:00,2016-04-03 02:51:08,3000/2dcbfc6463d8dacca9c29024fe88e891.jpg,,
5572737,An introduction to mathematics,,,,Whitehead A.N.,1911,,Henry Holt & Co,,251,0,English,Математика,kolxoz,23,,,,,,,,,,,"net str. 1-6,214",300,,1,,,,,T,3953757,djvu,2DBE153E8FE5081F31A761766244E779,,,"M_Mathematics/Whitehead A.N. An introduction to mathematics (Henry Holt & Co, 1911)(net str. 1-6,214)(T)(K)(251s)_M_.djvu",0,2000-01-01 01:00:00,2016-04-03 02:51:08,3000/2dbe153e8fe5081f31a761766244e779.jpg,,
5572736,"Triples, algebras and cohomology (PhD thesis, 1967, reprint 2003)",,,,Beck J.M.,2003,,,,60,0,English,Математика//Алгебра,kolxoz,14,,,,,,,,,,,,0,,,,,,,,437863,pdf,2D9108421B93B364B5391ADED8588B36,,,"M_Mathematics/MA_Algebra/MAct_Category theory/Beck J.M. Triples, algebras and cohomology (PhD thesis, 1967, reprint 2003)(60s)_MAct_.pdf",0,2000-01-01 01:00:00,2016-04-03 02:51:08,3000/2d9108421b93b364b5391aded8588b36.jpg,,
5572735,Noncommutative Groebner bases and filtered-graded transfer,,LNM1795,,Huishi Li,2002,1,Springer,,201,0,English,Математика//Алгебра,kolxoz,13,"3540441964,9783540441960",,,,,,,,,OL9057935M,,0,,,,,1,,1,871672,pdf,2D6A65DFB18C3621F73F93787D6E736E,,,"M_Mathematics/MA_Algebra/MAco_Computational algebra/Li H. Noncommutative Groebner bases and filtered-graded transfer (LNM1795, Springer, 2002)(ISBN 3540441964)(201s).pdf",0,2000-01-01 01:00:00,2016-04-03 02:51:08,3000/2d6a65dfb18c3621f73f93787d6e736e-d.jpg,,
5572734,Линейные алгебраические группы,,,,Хамфри Дж. (J.Humphreys),1980,,Наука,,398,0,Russian,Математика//Алгебра,kolxoz,15,,,,512.8,22.144,,,,,,,600,,1,,,,,,5541584,djvu,2D67DDC77E441D2FD38AE99CB8A4B2D8,,,"M_Mathematics/MA_Algebra/MAa_Abstract algebra/Hamfri Dzh. (_J.Humphreys_) Linejnye algebraicheskie gruppy (Nauka, 1980)(K)(ru)(600dpi)(T)(398s).djvu",0,2000-01-01 01:00:00,2016-04-03 02:51:08,3000/2d67ddc77e441d2fd38ae99cb8a4b2d8.jpg,,
5572733,Перечислительная комбинаторика,,,,Стенли Р.,1990,,Мир,,220,0,Russian,Математика//Комбинаторика,infanata,8,5-03-001348-2,,,,,,,,,,,300,,,1,,,,,3984385,djvu,2D17920FBFC50E1FCCD327BE56CA0211,,,N:\\natahaus\\2009\\2009-04\\[1146111249]Перечислительная комбинаторика.-- Стенли Р..djvu,0,2000-01-01 01:00:00,2016-04-03 02:51:08,3000/2d17920fbfc50e1fccd327be56ca0211.jpg,,
5572732,Теория решёток,,,,Биркгоф Г.,1984,,Наука,,284,0,Russian,Математика//Алгебра,kolxoz,8,,,,,,,,,,,,300,,,1,,,,,6831056,djvu,2C816CD07AEDCACD032F1D9E5DBFBB0B,,,"M_Mathematics/MA_Algebra/MAa_Abstract algebra/Birkgof G. Teorija reshyotok (Nauka, 1984)(ru)(L)(T)(284s).djvu",0,2000-01-01 01:00:00,2016-04-03 02:51:08,3000/2c816cd07aedcacd032f1d9e5dbfbb0b.jpg,,
5572731,Математика в СССР 1958-1967. Биобиблиография,"Том 2, Часть 1",,,"Фомин, Шилов. (ред.)",1967,,Наука,,814,0,Russian,Математика,kolxoz,8,,,,,,,,,,,,300,,,,,,,,13362423,djvu,2C6E5FC886A888120FF85A37885E87A7,,,"M_Mathematics/Fomin, Shilov. (red.) Matematika v SSSR 1958-1967. Tom 2. Biobibliografija, chast# 1 (Nauka, 1967)(ru)(T)(814s).djvu",0,2000-01-01 01:00:00,2016-04-03 02:51:08,3000/2c6e5fc886a888120ff85a37885e87a7.jpg,,
5572730,Introduction to set theory,,Pure and Applied Mathematics,,"Karel Hrbacek, Thomas Jech",1999,3,CRC Press,,308,0,English,Математика//Алгебра,kolxoz,8,"0824779150,9780824779153,9780585243412",,,,,511.3/22,QA248 .H68 1999,,,OL33104M,,300,,,,,1,,,3193117,djvu,2BFB1883F69F3B5399095B256186FE02,,,"Hrbacek K., Jech T. Introduction to set theory (3ed., M.Dekker, 1999)(ISBN 0824779150)(T)(308s).djvu",0,2000-01-01 01:00:00,2016-04-03 02:51:08,3000/2bfb1883f69f3b5399095b256186fe02-d.jpg,,
5572729,Quadratic forms over semilocal rings,,LNM0655,,Ricardo Baeza,1978,,Springer-Verlag,,205,0,English,Математика//Алгебра,kolxoz,21,"9780387088457,0-387-08845-8",,,,,"510/.8 s,512/.4","QA3 .L28 no. 655,QA251.38 .L28 no. 655",,,OL4730658M,,600,,,,,,,T,1343378,djvu,2BF40F191290667AB7C68679152B25A3,,,"M_Mathematics/MA_Algebra/MAa_Abstract algebra/Baeza R. Quadratic forms over semilocal rings (LNM0655, Springer, 1978)(600dpi)(T)(205s)_MAa_.djvu",0,2000-01-01 01:00:00,2016-04-03 02:51:08,3000/2bf40f191290667ab7c68679152b25a3.jpg,,
5572728,Graph theory as I have known it,,"Oxford Lecture Series in Mathematics and Its Applications , No 11",,W. T. Tutte,1998,,"Oxford University Press, USA",,165,0,English,Математика//Дискретная математика,kolxoz,21,"0198502516,9780198502517",,,,,511/.5,QA166 .T8152 1998,,,OL483492M,,300,,,,,1,,T,1511064,djvu,2BA66F574D6B9849AC1F862C523C5530,,,"M_Mathematics/MA_Algebra/MAc_Combinatorics/Tutte W.T. Graph theory as I have known it (OUP, 1998)(ISBN 0198502516)(165s)(T)_MAc_.djvu",0,2000-01-01 01:00:00,2016-04-03 02:51:08,3000/2ba66f574d6b9849ac1f862c523c5530-d.jpg,,
5572727,The Riemann-Hilbert correspondence for unit F-crystals,,,,"Emerton M., Kisin M.",2004,draft,,,251,0,English,Математика//Алгебра,kolxoz,8,,,,,,,,,,,,300,,,,,,,T,1987709,djvu,2B74A70C7DEA17519B872806763E033F,,,"M_Mathematics/MA_Algebra/MAg_Algebraic geometry/Emerton M., Kisin M. The Riemann-Hilbert correspondence for unit F-crystals (draft)(T)(251s).djvu",0,2000-01-01 01:00:00,2016-04-03 02:51:08,3000/2b74a70c7dea17519b872806763e033f.jpg,,
5572726,Coxeter graphs and towers of algebras,,MSRIP014,,"Frederick M. Goodman, Pierre de la Harpe, Vaughan F.R. Jones",1989,1,Springer,,298,0,English,Математика//Теория графов,kolxoz,21,"0387969799,9780387969794",,,,,512/.55,QA247 .G68 1989,,,OL2187834M,,600,,1,,,1,,1,4266761,djvu,2B257880B0E496EA03A1DF431B142A01,,,"M_Mathematics/MA_Algebra/MAa_Abstract algebra/Goodman F., de la Harpe P., Jones V. Coxeter graphs and towers of algebras (MSRIP014, Springer, 1989)(ISBN 0387969799)(600dpi)(K)(T)(O)(298s)_MAa_.djvu",0,2000-01-01 01:00:00,2016-04-03 02:51:08,3000/2b257880b0e496ea03a1df431b142a01.jpg,,
5572725,Werke. Hoehere Arithmetik,Band 2,,,Gauss C.F.,1863,,,Goettingen,506,0,Latin,Математика,kolxoz,13,,,,,,,,,,,,400,,,,,,,T,8823787,djvu,2B131F2B4B0B667763383C0B7D3BA9A6,,,"M_Mathematics/Gauss C.F. Werke, Band 02. Hoehere Arithmetik (Goettingen, 1863)(la)(de)(T)(506s)(400dpi).djvu",0,2000-01-01 01:00:00,2016-04-03 02:51:08,3000/2b131f2b4b0b667763383c0b7d3ba9a6.jpg,,
5572724,Iterated integrals and cycles on algebraic manifolds,,"Nankai Tracts in Mathematics, Vol. 7",,"Bruno Harris, K. t Chen",2004,,World Scientific Publishing Company,,117,0,English,Математика,kolxoz,14,"9789812387202,981-238-720-X",,,,,,,,,OL22650752M,,600,,,,,,,T,2897458,djvu,2B1008F0A9A8428159E978CD978BDDE2,,,"M_Mathematics/MA_Algebra/MAg_Algebraic geometry/Harris B. Iterated integrals and cycles on algebraic manifolds (WS, 2004)(600dpi)(T)(117s)_MAg_.djvu",0,2000-01-01 01:00:00,2016-04-03 02:51:08,3000/2b1008f0a9a8428159e978cd978bdde2-d.jpg,,
5572723,Computing in algebraic geometry: A quick start using SINGULAR,,Algorithms and Computation in Mathematics,,"Wolfram Decker, Christoph Lossen",2006,1,Springer,,330,0,English,Математика//Геометрия и топология,kolxoz,18,"9788185931654,8185931658,3540289925,9783540289920",,,,,,,,,OL22729572M,,0,,,,,1,,T,2385086,pdf,2A57A6C3E76B4CD4D24CA0E79C07748E,,,"Decker W., Lossen C. Computing in algebraic geometry.. a quick start using SINGULAR (ACM 16, Springer, 2006)(ISBN 3540289925)(330s).pdf",0,2000-01-01 01:00:00,2016-04-03 02:51:08,3000/2a57a6c3e76b4cd4d24ca0e79c07748e-d.jpg,,
5572722,Mathematical constants,,Encyclopedia of Mathematics and its Applications ,,Steven R. Finch,2003,,CUP,,618,0,English,Математика,kolxoz,13,"9780521818056,0-521-81805-2",,,,,,,,,OL7764799M,,300,,,,,,,T,6780322,djvu,299D71092508267F0ADE177DD6290E46,,,"M_Mathematics/Finch St. R. Mathematical constants (CUP, 2003)(T)(618s).djvu",0,2000-01-01 01:00:00,2016-04-03 02:51:08,3000/299d71092508267f0ade177dd6290e46-d.jpg,,
5572721,Characteristic classes for irregular singularities in diff. algebra (phd thesis 1993),,,,Sommeling R.,,,,,78,0,English,Математика//Алгебра,kolxoz,8,90-9006015-4,,,,,,,,,,,300,,,1,,,,,1759344,djvu,29047D7B54352932D3A42E019F50F477,,,M_Mathematics/MA_Algebra/MAd_Differential algebra/Sommeling R. Characteristic classes for irregular singularities in diff. algebra (phd thesis 1993)(L)(T)(78s).djvu,0,2000-01-01 01:00:00,2016-04-03 02:51:08,3000/29047d7b54352932d3a42e019f50f477.jpg,,
5572720,Diagonal arguments and Cartesian closed categories (p.134 and ff. from Topoi collection),,,,Lawvere F.W.,,,,,12,0,English,Математика//Алгебра,kolxoz,14,,,,,,,,,,,,600,,,,,,,,168413,djvu,286228388B23D293AAE88ECA6F4EBFCA,,,M_Mathematics/MA_Algebra/MAct_Category theory/Lawvere F.W. Diagonal arguments and Cartesian closed categories (p.134 and ff. from Topoi collection)(600dpi)(T)(12s)_MAct_.djvu,0,2000-01-01 01:00:00,2016-04-03 02:51:08,3000/286228388b23d293aae88eca6f4ebfca.jpg,,
5572719,Современная прикладная алгебра,,,,"Биркгоф Г., Барти Т.",1976,,Мир,,400,0,Russian,Математика//Алгебра,kolxoz,14,,,,,,,,,,,,300,,,,,,,T,4137084,djvu,2854058908DA518F3EC452C3F440F44A,,,"M_Mathematics/MA_Algebra/MAa_Abstract algebra/Birkgof G., Barti T. Sovremennaya prikladnaya algebra (Mir, 1976)(ru)(T)(400s)_MAa_.djvu",0,2000-01-01 01:00:00,2016-04-03 02:51:08,3000/2854058908da518f3ec452c3f440f44a.jpg,,
5572718,The mathematical works of Bernard Bolzano,,,,Steve Russ,2005,,"Oxford University Press, USA",,729,0,English,Математика,kolxoz,23,"0198539304,9781429459952,9780198539308",,,,,510,QA3 .B5775213 2004,,,OL3437621M,,0,,,,,1,,1,5617778,pdf,282BA91BB665D430F570C25698B57EAF,,,"M_Mathematics/Russ S. The mathematical works of Bernard Bolzano (OUP, 2004)(ISBN 0198539304)(729s)_M_.pdf",0,2000-01-01 01:00:00,2016-04-03 02:51:08,3000/282ba91bb665d430f570c25698b57eaf-d.jpg,,
5572717,Труды семинара Бурбаки за 1990 год (сборник статей),,НЗН Математика 48,,Бурбаки Н. (Bourbaki),1996,,Мир,,176,0,Russian,Математика,kolxoz,11,5-03-002680-0,,,,,,,,,,,300,,,1,,,,,3182442,djvu,27927FE1DD5E4994EC29C553D7C1A31C,,,"M_Mathematics/Burbaki N. (_Bourbaki_) Trudy seminara Burbaki za 1990 god (sbornik statej)(NZN Matematika 48, Mir, 1996)(ru)(L)(T)(176s).djvu",0,2000-01-01 01:00:00,2016-04-03 02:51:08,3000/27927fe1dd5e4994ec29c553d7c1a31c.jpg,,
5572716,"Леонтий Филиппович Магницкий и его Арифметика. Вып. 2 - Арифметика-политика, или гражданская. Вып. 3 - Арифметика-логистика","Выпуск 2,3",,,Галанин Д. Д.,1914,,Типография О.Л Сомовой,М.,211,0,Russian,Бизнес//Логистика,infanata,13,,,,,,,,,,,,600,1,1,,,,,T,9838009,djvu,275EB493EF4D757DC312C1AE84810D14,,,"N:\\natahaus\\2008\\2008-01\\2008.01.29\\Галанин Д. Д. - Леонтий Филиппович Магницкий и его Арифметика. Вып. 2 - Арифметика-политика, или гражданская. Вып. 3 - Арифметика-логистика 1914.djvu",0,2000-01-01 01:00:00,2016-04-03 02:51:08,3000/275eb493ef4d757dc312c1ae84810d14.jpg,,
5572715,Kategorien 2,,,,Schubert H.,1970,,Akademie~Verlag,,154,0,German,Математика//Алгебра,kolxoz,8,,,,,,,,,,,,300,,,,,,,1,1881187,djvu,273A77226E0B499B94D5058F78014C3F,,,"M_Mathematics/MA_Algebra/MAct_Category theory/Schubert H. Kategorien 2 (Akademie-Verlag, 1970)(de)(T)(154s).djvu",0,2000-01-01 01:00:00,2016-04-03 02:51:08,3000/273a77226e0b499b94d5058f78014c3f.jpg,,
5572714,Избранные труды,Том 1,,,Гильберт Д.,1998,,Факториал,,575,0,Russian,Математика,kolxoz,21,5-88688-028-3,,,,,,,,,,,600,,1,,,,,,6543970,djvu,273713712E66B554FC41A72D70B8D715,,,"M_Mathematics/Gil#bert D. Izbrannye trudy, tom 1 (Faktorial, 1998)(ru)(KA)(600dpi)(T)(575s)_M_.djvu",0,2000-01-01 01:00:00,2016-04-03 02:51:08,3000/273713712e66b554fc41a72d70b8d715.jpg,,
5572713,Simplicial complexes of graphs,,LNM1928,,Jakob Jonsson,2007,1,Springer,,367,0,English,Математика//Дискретная математика,kolxoz,21,"3540758585,9783540758587",,,,,,,,,OL16156326M,,0,,,,,1,,,1770527,pdf,272C7041AE9ADD114ED704387958C041,,,"M_Mathematics/MA_Algebra/MAc_Combinatorics/Jonsson J. Simplicial complexes of graphs (LNM1928, Springer, 2007)(ISBN 3540758585)(367s)_MAc_.pdf",0,2000-01-01 01:00:00,2016-04-03 02:51:08,3000/272c7041ae9add114ed704387958c041-d.jpg,,
5572712,Local Algebra,,,,Serre J.-P.,2000,,Springer,,139,0,English,Математика//Алгебра,kolxoz,18,0354066641,,,,,,,,,,,300,,1,,,,,T,1070669,djvu,26F3F7E34B95C6086883521C0D703C91,,,M_Mathematics/MA_Algebra/MAa_Abstract algebra/Serre J.-P. Local Algebra (Springer 2000)(KA)(T)(139s)_MAa_.djvu,0,2000-01-01 01:00:00,2016-04-03 02:51:08,3000/26f3f7e34b95c6086883521c0d703c91.jpg,,
5572711,Симметрические билинейные формы,,,,"Милнор Дж., Хьюзмоллер Д.",1986,,Наука,Москва,176,0,Russian,Математика//Алгебра,infanata,8,,,,515.14,22.14,,,,,,,300,,1,,,,,T,2092468,djvu,26F348B8CDA0F6FD2A1164D280290A8B,,,"N:\
atahaus20092009-05[1146111852]Симметрические билинейные формы.-- Милнор Дж., Хьюзмоллер Д. (Наука, 1986, 176).djvu",0,2000-01-01 01:00:00,2016-04-03 02:51:08,3000/26f348b8cda0f6fd2a1164d280290a8b.jpg,,
5572710,Lectures on modules and rings,,GTM 189,,T. Y. Lam,1998,1,Springer,,585,0,English,Математика//Алгебра,kolxoz,21,"0387984283,9780387984285",,,,,512/.4,QA247 .L263 1999,,,OL358434M,,600,,,,,1,,T,4841447,djvu,26E3DCCCDDEABF8F526ED58E93D059D3,,,"M_Mathematics/MA_Algebra/MAa_Abstract algebra/Lam T. Lectures on modules and rings (GTM 189, Springer, 1999)(ISBN 0387984283)(600dpi)(T)(585s)_MAa_.djvu",0,2000-01-01 01:00:00,2016-04-03 02:51:08,3000/26e3dcccddeabf8f526ed58e93d059d3-d.jpg,,
5572709,Differential function fields and moduli of algebraic varieties,,LNM1226,,Alexandru Buium,1987,1,Springer,,79,0,English,Математика//Алгебра,kolxoz,8,"3540171940,9783540171942,0387171940,9780387171944",,,,,"510 s,512/.56","QA3 .L28 no. 1226,QA247.4 .L28 no. 1226",,,OL2737032M,,300,,,1,,1,,,1540625,djvu,2617FFF938B38365A95C50D6503AEB10,,,LNM 1226 - Buium A. - Differential function fields and moduli of algebraic varieties - Springer 1986 - ISBN 3540171940)(l)(t)(79s).djvu,0,2000-01-01 01:00:00,2016-04-03 02:51:08,3000/2617fff938b38365a95c50d6503aeb10-d.jpg,,
5572708,Задачи по высшей алгебре,,,,"Фаддеев Д.К., Соминский И.С.",1999,13,,,286,0,Russian,Математика,kolxoz,14,5-8114-0113-2,,,,,,,,,,,300,,,,,,,,3119833,djvu,25CFAAD4172CD0FAFF5E68C143A1A21B,,,"M_Mathematics/MA_Algebra/MAa_Abstract algebra/Faddeev D.K., Sominskij I.S. Zadachi po vysshej algebre (13e izd., 1999)(ru)(T)(286s)_MAa_.djvu",0,2000-01-01 01:00:00,2016-04-03 02:51:08,3000/25cfaad4172cd0faff5e68c143a1a21b.jpg,,
5572707,Monomial algebras,,Pure and Applied Mathematics,,Rafael Villarreal,2001,1st,CRC Press,,467,0,English,Математика//Алгебра,kolxoz,18,"0824705246,9780824705244,9780585425160",,,,,,,,,OL8124701M,,300,,,,,1,,1,2608745,djvu,25C7C0551B612B680DBD3ACAAF9FF321,,,"M_Mathematics/MA_Algebra/MAa_Abstract algebra/Villareal R.H. Monomial algebras (M.Dekker, 2001)(T)(ISBN 0824705246)(467s)_MAa_.djvu",0,2000-01-01 01:00:00,2016-04-03 02:51:08,3000/25c7c0551b612b680dbd3acaaf9ff321-d.jpg,,
5572706,Таблицы Юнга и их приложения к теории представлений и геометрии,,,,Фултон У.,2006,,МЦНМО,,326,0,Russian,Математика//Дискретная математика,kolxoz,21,0-521-56144-2,,,,,512/.2,QA165 .F83 1997,,,OL810616M,,300,,,,,,,T,2751300,djvu,259A83FF405959C04B75591CB9E15BD9,,,"M_Mathematics/MA_Algebra/MAc_Combinatorics/Fulton U. Tablicy Yunga i ix prilozheniya k teorii predstavlenij i geometrii (MCNMO, 2006)(ru)(T)(326s)_MAc_.djvu",0,2000-01-01 01:00:00,2016-04-03 02:51:08,3000/259a83ff405959c04b75591cb9e15bd9.jpg,,
5572705,Model theory and topoi,,LNM0445,,"Lawvere F.W., Maurer C., Wraith G.C. (eds.)",1975,,Springer-Verlag,,349,0,English,Математика//Алгебра,kolxoz,21,"9780387071640,0-387-07164-4",,,,,"510/.8 s,511/.8","QA3 .L28 no. 445,QA9.7 .L28 no. 445",,,OL5197535M,,300,,,,,,,T,1706482,djvu,2423BB9FAB7D6DA89C67830504BECBA3,,,"M_Mathematics/MA_Algebra/MAct_Category theory/Lawvere F.W., Maurer C., Wraith G.C. (eds.) Model theory and topoi (LNM0445, Springer, 1975)(T)(349s)_MAct_.djvu",0,2000-01-01 01:00:00,2016-04-03 02:51:08,3000/2423bb9fab7d6da89c67830504becba3.jpg,,
5572704,Полугруппы и комбинаторные приложения,,,,Лаллеман Ж. (G.Lallement),1985,,Мир,,439,0,Russian,Математика//Комбинаторика,kolxoz,14,,,,,,,,,,,,300,,,,,,,,5557044,djvu,23C3CE15BA86CBDF40155C8C5F94E4FD,,,"M_Mathematics/MA_Algebra/MAc_Combinatorics/Lalleman Zh. (_G.Lallement_) Polugruppy i kombinatornye prilozhenija (Mir, 1985)(ru)(T)(439s)_MAc_.djvu",0,2000-01-01 01:00:00,2016-04-03 02:51:08,3000/23c3ce15ba86cbdf40155c8c5f94e4fd.jpg,,
5572703,Gesammelte Werke,Band 6,,,Jacobi C.G.J.,1891,,,Berlin,443,0,German,Математика,kolxoz,21,,,,,,,,,,,,600,,1,,,,,T,6399847,djvu,2382B1607ED9E930543E1680182678A8,,,"M_Mathematics/Jacobi C.G.J. Gesammelte Werke. Band 6 (Berlin, 1891)(de)(KA)(600dpi)(T)(443s)_M_.djvu",0,2000-01-01 01:00:00,2016-04-03 02:51:08,3000/2382b1607ed9e930543e1680182678a8.jpg,,
5572702,Complex algebraic varieties,,LNM1507,,"K. Hulek, T. Peternell, M. Schneider, F. O. Schreyer",1992,,Springer,,183,0,English,Математика//Алгебра,kolxoz,22,"9780387552354,0-387-55235-9",,,,,"510 s,516.3/5","QA3 .L28 no. 1507,QA564 .L28 no. 1507",,,OL1704837M,,300,,,,,,,T,1502918,djvu,237100BEDB6D50AD80A78D0D81A4AC63,,,"M_Mathematics/MA_Algebra/MAg_Algebraic geometry/Hulek K., Peternell T., Schreyer F. (eds.) Complex algebraic varieties (LNM1507, Springer, 1992)(T)(183s)_MAg_.djvu",0,2000-01-01 01:00:00,2016-04-03 02:51:08,3000/237100bedb6d50ad80a78d0d81a4ac63.jpg,,
5572701,Invariant theory,,Mathematics lecture note series  29,,Fogarty J.,1969,,Benjamin,,268,0,English,Математика//Алгебра,kolxoz,14,,,B001JT6DI4,,,,,,,,,600,,1,,,,,1,1701974,djvu,22CDE948B199320748612BC518E538BC,,,"M_Mathematics/MA_Algebra/MAg_Algebraic geometry/Fogarty J. Invariant theory (Benjamin, 1969)(K)(600dpi)(T)(268s)_MAg_.djvu",0,2000-01-01 01:00:00,2016-04-03 02:51:08,3000/22cde948b199320748612bc518e538bc.jpg,,
5572700,Лекции по математике. Дифференциальные уравнения,Том 2,,,В. Босс,2004,,Едиториал УРСС,,210,0,Russian,Математика,infanata,13,5354007909,,,,22.161.6я73,,,,,OL12545810M,,600,,1,,,,,T,3066269,djvu,22BF38229F6CB51B1A0E0ED536A3CD2B,,,N:\\natahaus\\2006\\2006-10\\[1146075744]Лекции по математике. Дифференциальные уравнения.-- В. Босс [01].djvu,0,2000-01-01 01:00:00,2016-04-03 02:51:08,3000/22bf38229f6cb51b1a0e0ed536a3cd2b.jpg,,
5572699,Introduction to singularities and deformations,,Springer Monographs in Mathematics,,"Gert-Martin Greuel, Christoph Lossen, Eugenii I. Shustin",2007,1,Springer,,481,0,English,Математика//Алгебра,kolxoz,18,"9783540283805,3-540-28380-3",,,,,,,,,OL9055847M,,0,,,,,,,,3883725,pdf,22A05C4588E6A4C769C483B1E43BB981,,,"M_Mathematics/MA_Algebra/MAg_Algebraic geometry/Greuel G.-M., Lossen C., Shustin E. Introduction to singularities and deformations (Springer, 2007)(481s).pdf",0,2000-01-01 01:00:00,2016-04-03 02:51:08,3000/22a05c4588e6a4c769c483b1e43bb981-d.jpg,,
5572698,Model categories,,Mathematical Surveys and Monographs,,Mark Hovey,1998,,American Mathematical Society,,213,0,English,Математика//Алгебра,kolxoz,21,"0821813595,9780821813591",,,,,514/.24,QA169 .H68 1999,,,OL372881M,,0,,,,,1,,1,1426107,pdf,229756633EF1A320BED3109B1AC1AB52,,,"M_Mathematics/MA_Algebra/MAct_Category theory/Hovey M. Model categories (AMS, 1998)(ISBN 0821813595)(213s)_MAct_.pdf",0,2000-01-01 01:00:00,2016-04-03 02:51:08,3000/229756633ef1a320bed3109b1ac1ab52-d.jpg,,
5572697,Noncommutative geometry,,,,Alain Connes,1994,,Academic Press,,654,0,English,Математика//Геометрия и топология,kolxoz,18,"012185860X,9780121858605",,,,,516.3/5,QA564 .C6713 1994,,,OL1101645M,,0,,,,,1,,1,3293561,pdf,2260D45AEB7CDC974DE66186C33EEADD,,,"M_Mathematics/MA_Algebra/MAg_Algebraic geometry/Connes A. Noncommutative geometry (AP, 1994)(ISBN 012185860X)(654s)_MAg_.pdf",0,2000-01-01 01:00:00,2016-04-03 02:51:08,3000/2260d45aeb7cdc974de66186c33eeadd-d.jpg,,
5572696,Сочинения (в трёх томах),"Том 3, Часть 2",,,Шафаревич И.Р.,1996,,,,644,0,Russian,Литература,kolxoz,15,5-85240-061-0,,,,,,,,,,,600,,1,,,,,T,5848624,djvu,21D5B78D215950B31003198122B41FC1,,,"M_Mathematics/Shafarevich I.R. Sochinenija, tom 3, chast# 2 (1996)(K)(ru)(600dpi)(T)(644s).djvu",0,2000-01-01 01:00:00,2016-04-03 02:51:08,3000/21d5b78d215950b31003198122b41fc1.jpg,,
5572695,Oeuvres completes,Tome 2,,,Stieltjes T.J.,1918,,,Noordhoff,617,0,French,Математика,kolxoz,15,,,,,,,,,,,,600,,,,,,,T,9752957,djvu,21918002DA515F42DDBA2D58FADB49DA,,,"M_Mathematics/Stieltjes T.J. Oeuvres completes, tome 2 (Noordhoff, 1918)(fr)(600dpi)(T)(617s).djvu",0,2000-01-01 01:00:00,2016-04-03 02:51:08,3000/21918002da515f42ddba2d58fadb49da.jpg,,
5572694,Hypergeometric summation. An algorithmic approach to summation and special function identities,,Viewed Advanced Lectures in Mathematics Series,,Wolfram Koepf,1998,,Vieweg Verlag,,120,0,English,Математика//Геометрия и топология,kolxoz,8,"3528069503,9783528069506",,,,,,,,KHKFQgAACAAJ,OL12768748M,,300,,,1,,1,,1,2629918,djvu,2148084D058C36ABAB062C947AB05A77,,,"M_Mathematics/MA_Algebra/MAco_Computational algebra/Koepf W. Hypergeometric summation. An algorithmic approach to summation and special function identities (Vieweg, 1998)(L)(T)(ISBN 3528069503)(120s).djvu",0,2000-01-01 01:00:00,2016-04-03 02:51:08,3000/2148084d058c36abab062c947ab05a77-d.jpg,,
5572693,C. G. J. Jacobi's Gesammelte Werke. Erster Band ,Band 1,,,"C. G. J. Jacobi, C. W. Borchardt (editor)",1881,1st,G. Reimer,Berlin,567,0,German,Математика,kolxoz,21,,,B000VDJTEY,,,,,,,,,600,,1,,,1,,T,8918953,djvu,2120705C7E48680B02F0F5217BB71975,,,"M_Mathematics/Jacobi C.G.J. Gesammelte Werke. Band 1 (Berlin, 1881)(de)(KA)(600dpi)(T)(567s)_M_.djvu",0,2000-01-01 01:00:00,2016-04-03 02:51:08,3000/2120705c7e48680b02f0f5217bb71975.jpg,,
5572692,"Rings, modules, and the total",,Frontiers in Mathematics,,"Friedrich Kasch, Adolf Mader",2005,1,Birkhäuser Basel,,146,0,English,Математика//Алгебра,kolxoz,18,"3764371250,9783764371258",,,,,,,,,OL9090896M,,0,,,,,1,,1,1149190,pdf,20F05E0891EA81BD6336AA9751FC808F,,,"M_Mathematics/MA_Algebra/MAa_Abstract algebra/Kasch F., Mader A. Rings, modules, and the total (Birkhauser, 2004)(ISBN 3764371250)(146s)_MAa_.pdf",0,2000-01-01 01:00:00,2016-04-03 02:51:08,3000/20f05e0891ea81bd6336aa9751fc808f-d.jpg,,
5572691,Математический аппарат инженера,,,,Сигорский В.П.,1977,,,,764,0,Russian,Математика//Прикладная математика,kolxoz,19,,,,,,,,,,,,300,,,,,,,,7145570,djvu,20EFA76B596C6FFE2962F409C29706DE,,,M_Mathematics/Sigorskij V.P. Matematicheskij apparat inzhenera (1977)(ru)(T)(764s)_M_.djvu,0,2000-01-01 01:00:00,2016-04-03 02:51:08,3000/20efa76b596c6ffe2962f409c29706de.jpg,,
5572690,Lecture Notes From The Summer Institute on Algebraic Geometry At Woods Hole,,,,,1964,,AMS,,60,0,English,Математика//Геометрия и топология,kolxoz,14,,,,,,,,,,,,600,,,,,,,T,2140021,djvu,20DDA647799503CD2F0B0711D1A3AE2A,,,"M_Mathematics/MA_Algebra/MAg_Algebraic geometry/Lecture Notes From The Summer Institute on Algebraic Geometry At Woods Hole (AMS, 1964)(600dpi)(T)(60s)_MAg_.djvu",0,2000-01-01 01:00:00,2016-04-03 02:51:08,3000/20dda647799503cd2f0b0711d1a3ae2a.jpg,,
5572689,"Международный конгресс математиков в Москве, 1966. Труды",,,,Петровский И.Г. (ред.),1968,,"Москва, Мир",,364,0,Russian,Математика,kolxoz,11,,,,,,,,,,,,300,,,1,,,,1,14021548,djvu,209882E467F07CAD4CE8F9DBA77C50E9,,,"M_Mathematics/Mezhdunarodnyj kongress matematikov v Moskve, 1966. Trudy (Mir, 1968)(ru)(L)(T)(364s).djvu",0,2000-01-01 01:00:00,2016-04-03 02:51:08,3000/209882e467f07cad4ce8f9dba77c50e9.jpg,,
5572688,Galois theory of differential fields,,,,Kolchin E.R.,1955,,,,28,0,English,Математика//Алгебра,kolxoz,8,,,,,,,,,,,,600,,,,,,,,877146,djvu,20961B0A2F52B696035F01845035156D,,,M_Mathematics/MA_Algebra/MAd_Differential algebra/Kolchin E.R. Galois theory of differential fields (1955)(600dpi)(T)(28s).djvu,0,2000-01-01 01:00:00,2016-04-03 02:51:08,3000/20961b0a2f52b696035f01845035156d.jpg,,
5572687,Combinatory analysis,,,,Percy Alexander MacMahon,2010,,General Books LLC,,320,0,English,Математика//Комбинаторика,kolxoz,14,"9781151985828,1151985821",,,,,,,,,,,600,,,,,,,,5027182,djvu,1FD593038540E3C00E07A0A96C8B003E,,,"M_Mathematics/MA_Algebra/MAc_Combinatorics/Macmahon P.A. Combinatory analysis (CUP, 1915)(600dpi)(T)(320s)_MAc_.djvu",0,2000-01-01 01:00:00,2016-04-03 02:51:08,3000/1fd593038540e3c00e07a0a96c8b003e-d.jpg,,
5572686,"Toroidal Groups: Line Bundles, Cohomology and Quasi-abelian Varieties",,LNM1759,,"Yukitaka Abe, Klaus Kopfermann",2001,1,Springer,,120,0,English,Математика//Алгебра,kolxoz,8,"3540419896,9783540419891",,,,,,,,,OL9057275M,no TOC,400,,,,,1,,1,954345,djvu,1F4A7D9FB5FCDA058ABAC7F4026309F8,,,"M_Mathematics/MA_Algebra/MAg_Algebraic geometry/Abe Y., Kopfermann K. Toroidal Groups.. Line Bundles, Cohomology and Quasi-abelian Varieties (no TOC)(LNM1759, Springer,2001)(ISBN 3540419896)(T)(120s)(400dpi).djvu",0,2000-01-01 01:00:00,2016-04-03 02:51:08,3000/1f4a7d9fb5fcda058abac7f4026309f8-d.jpg,,
5572685,Exact categories and categories of sheaves,,LNM0236,,Michael Barr,1971,,Springer-Verlag,,246,0,English,Математика//Алгебра,kolxoz,21,"9780387056784,0387056785,9783540056782,3540056785",,,,,512/.55,"QA3 .L28 no. 236,QA169 .L28 no. 236",,,OL22805981M,,300,,,,,1,,1,1528361,djvu,1F2ECAE5E8071B5C73AF94AA2686F1B3,,,"M_Mathematics/MA_Algebra/MAct_Category theory/Barr M., Grillet P.A., van Osdol D.H. Exact categories and categories of sheaves (LNM0236, Springer, 1971)(ISBN 0387056785)(T)(246s)_MAct_.djvu",0,2000-01-01 01:00:00,2016-04-03 02:51:08,3000/1f2ecae5e8071b5c73af94aa2686f1b3.jpg,,
5572684,"Noncommutative geometry (CIME lectures, 2000, LNM1831, Springer 2004)",,"Lecture Notes in Mathematics / Fondazione C.I.M.E., Firenze",,"Alain Connes, Joachim Cuntz, Erik G. Guentner, Nigel Higson, Jerome Kaminker, John E. Roberts, Sergio Doplicher, Roberto Longo",2004,1,Springer,,359,0,English,Математика//Геометрия и топология,kolxoz,14,"3540203575,9783540203575",,,,,,,,,OL9054405M,,0,,,,,1,,1,2492566,pdf,1EE53FE0424A402C8BD90D9F0CCACCCE,,,"M_Mathematics/MA_Algebra/MAg_Algebraic geometry/Connes A., Cuntz J., et al. Noncommutative geometry (CIME lectures, 2000, LNM1831, Springer 2004)(ISBN 3540203575)(359s)_MAg_.pdf",0,2000-01-01 01:00:00,2016-04-03 02:51:08,3000/1ee53fe0424a402c8bd90d9f0ccaccce-d.jpg,,
5572683,Основы современной теории потенциала,,,,Ландкоф Н.С.,1966,,Наука,,517,0,Russian,Математика,kolxoz,18,,,,,,,,,,,,600,,1,,,,,T,4847714,djvu,1ED944AF72CAD881CDBAD268F9B63E7D,,,"M_Mathematics/Landkof N.S. Osnovy sovremennoj teorii potenciala (Nauka, 1966)(ru)(K)(600dpi)(T)(517s)_M_.djvu",0,2000-01-01 01:00:00,2016-04-03 02:51:08,3000/1ed944af72cad881cdbad268f9b63e7d.jpg,,
5572682,"Projective varieties and modular forms (LNM0210, Springer 1971)",,"Lecture notes in mathematics, 210",,M Eichler,1971,,Springer-Verlag,,121,0,English,Математика//Алгебра,kolxoz,18,"9780387055190,0-387-05519-3",,,,,512/.33,"QA3 .L28 no. 210,QA247 .L28 no. 210",,,OL4770392M,,300,,,,,,,1,591234,djvu,1E3C33C52A2A0BB8149BFCF7FB28E7B8,,,"M_Mathematics/MA_Algebra/MAg_Algebraic geometry/Eichler M. Projective varieties and modular forms (LNM0210, Springer 1971)(T)(121s)_MAg_.djvu",0,2000-01-01 01:00:00,2016-04-03 02:51:08,3000/1e3c33c52a2a0bb8149bfcf7fb28e7b8.jpg,,
5572681,Перманенты,,,,Минк Х.,1982,,Мир,,211,0,Russian,Математика//Дискретная математика,infanata,8,,,,,,,,,,,,300,,,,,,,,2553108,djvu,1DDD3C352CBAA6AD581216126F75EE3A,,,"N:\\natahaus\\2009\\2009-05\\[1146112346]Перманенты.-- Минк Х. (1982, 216).djvu",0,2000-01-01 01:00:00,2016-04-03 02:51:08,3000/1ddd3c352cbaa6ad581216126f75ee3a.jpg,,
5572680,Oeuvres,Tome 10,,,Lagrange J.L.,1884,,Gauthier~Villars,,459,0,French,Математика,kolxoz,14,,,,,,,,,,,,600,,,,,,,T,6233539,djvu,1DC1EBE64D8DA2D9222CFEC23F1F7045,,,"M_Mathematics/Lagrange J.L. Oeuvres, Tome 10 (Gauthier-Villars 1884)(fr)(600dpi)(T)(459s).djvu",0,2000-01-01 01:00:00,2016-04-03 02:51:08,3000/1dc1ebe64d8da2d9222cfec23f1f7045.jpg,,
5572679,Modular forms of one variable,,,,,,,,,33,0,English,Математика//Алгебра,kolxoz,8,,,,,,,,,,,,300,,,1,,,,,1225052,djvu,1D816026A218FC206BA6EEACBE70D2E5,,,M_Mathematics/MA_Algebra/MAg_Algebraic geometry/Modular forms of one variable (L)(T)(33s).djvu,0,2000-01-01 01:00:00,2016-04-03 02:51:08,3000/1d816026a218fc206ba6eeacbe70d2e5.jpg,,
5572678,Комбинаторика,,,,Виленкин Н.Я.,1969,,Наука,,328,0,Russian,Математика//Комбинаторика,kolxoz,8,,,,,,,,,,,,300,,,,,,,,3523038,djvu,1CFEFB9121630E6CCC181D71202FFBAF,,,"M_Mathematics/MA_Algebra/MAc_Combinatorics/Vilenkin N.Ja. Kombinatorika (Nauka, 1969)(ru)(T)(328s).djvu",0,2000-01-01 01:00:00,2016-04-03 02:51:08,3000/1cfefb9121630e6ccc181d71202ffbaf.jpg,,
5572677,Gesammelte mathematische Werke,Band 3,,,Fuchs L.,1909,,,Berlin,227,0,German,Математика,kolxoz,8,,,,,,,,,,,,300,,,1,,,,,4154463,djvu,1CEE37B9C8C97AFE5B6B81A4B2BD884E,,,"M_Mathematics/Fuchs L. Gesammelte mathematische Werke Band 3 (Berlin, 1909)(de)(L)(T)(227s).djvu",0,2000-01-01 01:00:00,2016-04-03 02:51:08,3000/1cee37b9c8c97afe5b6b81a4b2bd884e.jpg,,
5572676,Higher-dimensional algebraic geometry: Errata,,,,Debarre O.,2004,web draft,,,14,0,English,Математика//Геометрия и топология,kolxoz,13,,,,,,,,,,,,0,,,,,,,T,140400,pdf,1CDBF351F92E3C7EDD71CA2683CD0093,,,"M_Mathematics/MA_Algebra/MAg_Algebraic geometry/Debarre O. Higher-dimensional algebraic geometry.. Errata (web draft, 2004)(14s).pdf",0,2000-01-01 01:00:00,2016-04-03 02:51:08,3000/1cdbf351f92e3c7edd71ca2683cd0093.jpg,,
5572675,Residues and duality,,LNM0020,,Hartshorne R.,1966,,Springer,,214,0,English,Математика//Алгебра,kolxoz,8,,,,,,,,,,,,300,,,1,,,,,3989299,djvu,1CA5D483D08A8935963F78072DF05EB6,,,"M_Mathematics/MA_Algebra/MAg_Algebraic geometry/Hartshorne R. Residues and duality (LNM0020, Springer, 1966)(L)(T)(214s).djvu",0,2000-01-01 01:00:00,2016-04-03 02:51:08,3000/1ca5d483d08a8935963f78072df05eb6.jpg,,
5572674,"Group Characters, Symmetric Functions, and the Hecke Algebra",,University Lecture Series,,David M. Goldschmidt,1993,,American Mathematical Society,,69,0,English,Математика//Алгебра,kolxoz,8,"0821870033,9780821870037",,,,,512/.2,QA174.2 .G65 1993,,,OL1738090M,,400,,,,,1,,T,1812782,djvu,1C9C468859A58FB309B889580863D065,,,"M_Mathematics/MA_Algebra/MAa_Abstract algebra/Goldschmidt D.M. Group Characters, Symmetric Functions, and the Hecke Algebra (AMS, 1993)(400dpi)(T)(ISBN 0821870033)(69s).djvu",0,2000-01-01 01:00:00,2016-04-03 02:51:08,3000/1c9c468859a58fb309b889580863d065-d.jpg,,
5572673,Categories and functors ,,Pure and applied mathematics; a series of monographs and textbooks 39,,Bodo Pareigis,1970,,Academic Press,,137,0,English,Математика//Алгебра,kolxoz,8,"9780080873527,9780125451505,0125451504",,B0006CPIPE,,,,,,,,,300,,,1,,1,,,2443004,djvu,1C2012838E65826283E6227D8278870D,,,"M_Mathematics/MA_Algebra/MAct_Category theory/Pareigis B. Categories and functors (AP, 1970)(L)(T)(137s)_MAct_.djvu",0,2000-01-01 01:00:00,2016-04-03 02:51:08,3000/1c2012838e65826283e6227d8278870d.jpg,,
5572672,Conjectures in arithmetic algebraic geometry,,"Aspects of Mathematics : E, Vol 18",,Wilfred W. J. Hulsbergen,1992,,Friedrick Vieweg & Son,,244,0,English,Математика//Геометрия и топология,kolxoz,22,"3528064331,9783528064334",,,,,512/.74,QA242.5 .H85 1992,,,OL1463565M,,200,,1,,0,1,,1,1606326,djvu,1BCE2ACD69A11E1BA12B9EA95CF30900,,,"M_Mathematics/MA_Algebra/MAg_Algebraic geometry/Hulsbergen W.W.J. Conjectures in arithmetic algebraic geometry (Vieweg, 1992)(ISBN 3528064331)(KA)(200dpi)(T)(244s)_MAg_.djvu",0,2000-01-01 01:00:00,2016-04-03 02:51:08,3000/1bce2acd69a11e1ba12b9ea95cf30900.jpg,,
5572671,Flips for 3-folds and 4-folds,,,,"Ambro F., et al.",2006,web draft,,,172,0,English,Математика//Алгебра,kolxoz,18,,,,,,,,,,,,0,,,,,,,T,1034460,pdf,1BBB738CA8EBCB937F42D07D540DF778,,,"M_Mathematics/MA_Algebra/MAg_Algebraic geometry/Ambro F., et al. Flips for 3-folds and 4-folds (web draft, 2006)(172s)_MAg_.pdf",0,2000-01-01 01:00:00,2016-04-03 02:51:08,3000/1bbb738ca8ebcb937f42d07d540df778.jpg,,
5572670,Правоупорядоченные группы,,,,"Копытов В.М., Медведев Н.Я.",1996,,,Новосибирск,255,0,Russian,Математика//Симметрия и группы,kolxoz,8,0-306-11060-1,,,,,512/.2,QA172.4 .K66 1996,,,OL979689M,,600,,,,,,,T,3654870,djvu,1B688CB3CA3A4BD98946759ECDEB3780,,,"M_Mathematics/MA_Algebra/MAa_Abstract algebra/Kopytov V.M., Medvedev N.Ja. Pravouporyadochennye gruppy (Novosibirsk, 1996)(ru)(600dpi)(T)(255s).djvu",0,2000-01-01 01:00:00,2016-04-03 02:51:08,3000/1b688cb3ca3a4bd98946759ecdeb3780.jpg,,
5572669,Комбинаторика для программистов,,,,Липский.,,,,,200,0,Russian,Математика//Комбинаторика,kolxoz,8,,,,,,,,,,,,300,,,,,,,,1213417,djvu,1B48CA40BBD480205EA09A78E8D9C85E,,,M_Mathematics/MA_Algebra/MAc_Combinatorics/Lipskij. Kombinatorika dlja programmistov (ru)(T)(200s).djvu,0,2000-01-01 01:00:00,2016-04-03 02:51:08,3000/1b48ca40bbd480205ea09a78e8d9c85e.jpg,,
5572668,Degeneration of abelian varieties,,Erg d Math.3 Folge Band 22,,"Gerd Faltings, Ching-Li Chai",1990,1,Springer,,166,0,English,Математика//Алгебра,kolxoz,8,"9783540520153,3540520155",,,,,516.3/53,QA564 .F35 1990,,,OL1857251M,,600,,,1,,,,1,4436532,djvu,1AD27D517F464CBB259936C89E3E4013,,,"M_Mathematics/MA_Algebra/MAg_Algebraic geometry/Faltings G., Chai C. Degeneration of abelian varieties (Erg.d.Math., 3.Folge, Band 22, Springer, 1990)(600dpi)(L)(T)(ISBN 3540520155)(166s)_MAg_.djvu",0,2000-01-01 01:00:00,2016-04-03 02:51:08,3000/1ad27d517f464cbb259936c89e3e4013-d.jpg,,
5572667,Algebraic geometry,,,,Daniel Bump,1998,,World Scientific Publishing Company,,219,0,English,Математика//Геометрия и топология,kolxoz,8,"9789810235611,9810235615",,,,,516.3/5,QA564 .B775 1998,,,OL379975M,,300,,,,,,,,2026296,djvu,1AB48C6800434EF0301AAC418AD5DCF1,,,"Bump D. Algebraic geometry (WS, 1998)(T)(ISBN 9810235615)(219s).djvu",0,2000-01-01 01:00:00,2016-04-03 02:51:08,3000/1ab48c6800434ef0301aac418ad5dcf1-d.jpg,,
5572666,On the integrals of elementary functions,,,,Ritt J.F.,1922,,,,13,0,English,Математика//Алгебра,kolxoz,8,,,,,,,,,,,,600,,,,,,,,299105,djvu,1A1A3A7C61A86A6263CCF6ED87C68F4D,,,M_Mathematics/MA_Algebra/MAd_Differential algebra/Ritt J.F. On the integrals of elementary functions (1922)(600dpi)(T)(13s).djvu,0,2000-01-01 01:00:00,2016-04-03 02:51:08,3000/1a1a3a7c61a86a6263ccf6ed87c68f4d.jpg,,
5572665,Lectures in abstract algebra: Linear algebra,Volume 2,Graduate Texts in Mathematics,,N. Jacobson,1984,1st ed. 1953. 2nd printing,Springer,,290,0,English,Математика//Алгебра,kolxoz,18,"9780387901237,9783540901235,038790123X,354090123X",,,,,512.02,QA162.J3 1975,,,OL15025317M,,300,,1,,,1,,1,1795163,djvu,1965EECAFE96322860DAD2C42D418119,,,"Jacobson N. Lectures in abstract algebra, vol 2.. Linear algebra (GTM 31, Springer, 1975)(K)(T)(ISBN 038790123X)(290s).djvu",0,2000-01-01 01:00:00,2016-04-03 02:51:08,3000/1965eecafe96322860dad2c42d418119.jpg,,
5572664,Complex immersions and Quillen metrics,,IHES 74 p1,,"Bismut J.-M., Lebeau G.",1991,,,,298,0,English,Математика//Алгебра,kolxoz,14,,,,,,,,,,,,600,,,,,,,,1891291,djvu,1964BD2D77DF3411B733549D1686BE51,,,"M_Mathematics/MA_Algebra/MAg_Algebraic geometry/Bismut J.-M., Lebeau G. Complex immersions and Quillen metrics (IHES 74, p1, 1991)(600dpi)(T)(298s)_MAg_.djvu",0,2000-01-01 01:00:00,2016-04-03 02:51:08,3000/1964bd2d77df3411b733549d1686be51.jpg,,
5572663,Избранные труды,,,,Стечкин С.Б.,1998,,ФМЛ,,388,0,Russian,Математика,kolxoz,19,5-02-015239-0,,,,,,,,,OL6823779M,,300,,,,,,,T,3879705,djvu,18CF12E6D9E6718C626BF79A1F0E6B6C,,,"M_Mathematics/Stechkin S.B. Izbrannye trudy (FML, 1998)(ru)(T)(388s)_M_.djvu",0,2000-01-01 01:00:00,2016-04-03 02:51:08,3000/18cf12e6d9e6718c626bf79a1f0e6b6c.jpg,,
5572662,The Geometry of Schemes,,GTM 197,,"David Eisenbud, Joe Harris",2000,1,Springer,,300,0,English,Математика//Геометрия и топология,kolxoz,8,"9780387986371,9780387986388,0387986375,0387986383,9780387226392",,,,,516.3/5,QA564 .E357 2000,,,OL42845M,,0,,,,0,0,,1,1802149,pdf,180E6027ADE043BE3DBB5F7B953A5532,,,"Eisenbud D., J.Harris. The Geometry of Schemes (GTM 197, Springer,2000)(ISBN 0387986383)(300s).pdf",0,2000-01-01 01:00:00,2016-04-03 02:51:08,3000/180e6027ade043be3dbb5f7b953a5532-d.jpg,,
5572661,A supplement for Category theory for computing science,,Prentice-Hall International Series in Computer Science,,"Michael Barr, Charles Wells",1996,2 Sub,Prentice Hall,,107,0,English,Математика//Алгебра,kolxoz,5,"9780133238099,0133238091",,,,,512/.55,QA76.9.M35 B37 1995,,,OL1273322M,,0,,,,,,,1,546288,pdf,17A758701501E3C7FC4551DAB1807B41,,,"M_Mathematics/MA_Algebra/MAct_Category theory/Sketches. A supplement for Category theory for computing science (PH, 1996)(ISBN 0133238091)(107s).pdf",0,2000-01-01 01:00:00,2016-04-03 02:51:08,3000/17a758701501e3c7fc4551dab1807b41.jpg,,
5572660,"Seminaire Bourbaki 1969-1970, Exposes 364-381 (LNM0180)",,Lecture Notes in Mathematics ,,"A. Dold, B. Eckmann",1971,1,Springer,,305,0,French,Математика,kolxoz,17,"9783540053576,3540053573",,,,,,,,,,,300,,,,,,,1,1706373,djvu,1764E1947E473DB0716DB5256616F60D,,,"LNM 0180 - Bourbaki N. - Seminaire Bourbaki 1969-1970, Exposes 364-381 - Springer 1971 - ISBN 3540053573 (T)(fr)(en)(305s).djvu",0,2000-01-01 01:00:00,2016-04-03 02:51:08,3000/1764e1947e473db0716db5256616f60d-d.jpg,,
5572659,Новые идеи в математике: Сборник 6. Теория ассамблей 1,,,,Васильев А.В. (ред.),1914,,,,187,0,Russian,Математика,kolxoz,14,,,,,,,,,,,,600,,1,,,,,T,2827301,djvu,173CB4C01B2509298E685D663BA2920F,,,M_Mathematics/MA_Algebra/MAa_Abstract algebra/Vasil#ev A.V. (red.) Novye idei v matematike.. Sbornik 6. Teorija assamblej 1 (1914)(600dpi)(ru)(K)(T)(187s)_MAa_.djvu,0,2000-01-01 01:00:00,2016-04-03 02:51:08,3000/173cb4c01b2509298e685d663ba2920f.jpg,,
5572658,Algebra. Some current trends,,LNM1352,,"Luchezar L. Avramov, Kerope B. Tchakerian",1988,1,Springer,,250,0,English,Математика//Алгебра,kolxoz,21,"3540503714,9783540503712",,,,,,,,,,,300,,,,,1,,1,1960481,djvu,172F7093E225A3B6E3B971ACCFB0CBCE,,,"M_Mathematics/MA_Algebra/MAa_Abstract algebra/Avramov L.L., Tchakerian K.B. (eds.) Algebra. Some current trends (LNM1352, Springer, 1988)(ISBN 3540503714)(T)(250s)_MAa_.djvu",0,2000-01-01 01:00:00,2016-04-03 02:51:08,3000/172f7093e225a3b6e3b971accfb0cbce-d.jpg,,
5572657,"Commutative algebra. Geometric, homological, combinatorial and computational aspects",,Lecture Notes in Pure and Applied Mathematics,,"Alberto Corso, Philippe Gimenez, Maria Vaz Pinto, Santiago Zarzuela",2005,1,CRC Press,,288,0,English,Математика//Алгебра,kolxoz,21,"082472335X,9780824723354,9781420028324",,,,,,,,,OL8125269M,,0,,,,,,,T,1784463,pdf,16B153E2AD11F85DEE589297784EE26B,,,"M_Mathematics/MA_Algebra/MAa_Abstract algebra/Corso A., et al. Commutative algebra. Geometric, homological, combinatorial and computational aspects (CRC, 2006)(ISBN 082472335X)(288s)_MAa_.pdf",0,2000-01-01 01:00:00,2016-04-03 02:51:08,3000/16b153e2ad11f85dee589297784ee26b-d.jpg,,
5572656,Многообразия групп,,,,Нейман Х. (H.Neumann),1969,,Мир,,264,0,Russian,Математика,kolxoz,14,,,,,,,,,,,,300,,,,,,,T,3911685,djvu,1690F51977ED216F9D9B801D9CE4314D,,,M_Mathematics/MA_Algebra/MAa_Abstract algebra/Nejman H. (_H.Neumann_) Mnogoobraziya grupp (Mir 1969)(ru)(T)(264s)_MAa_.djvu,0,2000-01-01 01:00:00,2016-04-03 02:51:08,3000/1690f51977ed216f9d9b801d9ce4314d.jpg,,
5572655,The construction and study of certain important algebras,,,,Chevalley C.,1955,,MS of Japan,,67,0,English,Математика//Алгебра,kolxoz,21,,,,,,,,,,,,600,,,,,,,1,1312747,djvu,15F9F10D38A30CAB5DE35ECF93641D34,,,"M_Mathematics/MA_Algebra/MAa_Abstract algebra/Chevalley C. The construction and study of certain important algebras (MS of Japan, 1955)(600dpi)(T)(67s)_MAa_.djvu",0,2000-01-01 01:00:00,2016-04-03 02:51:08,3000/15f9f10d38a30cab5de35ecf93641d34.jpg,,
5572654,Современная математика,,,,"Фор Р., Кофман А., Дени-Папен М. (Faure,Kaufmann,Denis-Papin)",1966,,Мир,,271,0,Russian,Математика,kolxoz,13,,,,,,,,,,,,300,,,,,,,T,2882492,djvu,15B5A5752751F06E51BAD0CD640F9BAA,,,"M_Mathematics/For R., Kofman A., Deni-Papen M. (_Faure,Kaufmann,Denis-Papin_) Sovremennaya matematika (Mir 1966)(ru)(T)(271s).djvu",0,2000-01-01 01:00:00,2016-04-03 02:51:08,3000/15b5a5752751f06e51bad0cd640f9baa.jpg,,
5572653,Enumerative combinatorics,Volume 2,Cambridge Studies in Advanced Mathematics 62 ,,"Richard P. Stanley, Sergey Fomin",2001,1,Cambridge University Press,,595,0,English,Математика//Комбинаторика,kolxoz,14,"9780521789875,0521560691,0521789877,9780521560696",,,,,511/.62,QA164.8 .S73 1997,,,OL1004539M,,300,,,,,1,,,5479441,djvu,15698EDC697BC7A914E1B1D863DA7EE9,,,"M_Mathematics/MA_Algebra/MAc_Combinatorics/Stanley R.P. Enumerative combinatorics Vol 2 (CUP, 1999)(T)(ISBN 0521560691)(595s)_MAc_.djvu",0,2000-01-01 01:00:00,2016-04-03 02:51:08,3000/15698edc697bc7a914e1b1d863da7ee9-d.jpg,,
5572652,Semi-algebraic function rings and reflectors of partially ordered rings,,LNM1712,,"Niels Schwartz, James J. Madden",1999,1,Springer,,275,0,English,Математика//Алгебра,kolxoz,18,"3540664602,9783540664604",,,,,,,,,OL9063100M,,300,,,,,1,,1,1736446,djvu,1545CD1C4AB2D270E746286BBCB60172,,,"M_Mathematics/MA_Algebra/MAa_Abstract algebra/Schwartz N., Madden J.J. Semi-algebraic function rings and reflectors of partially ordered rings (LNM1712, Springer, 1999)(T)(O)(ISBN 3540664602)(275s)_MAa_.djvu",0,2000-01-01 01:00:00,2016-04-03 02:51:08,3000/1545cd1c4ab2d270e746286bbcb60172-d.jpg,,
5572651,Arithmetic differential equations,,Mathematical Surveys and Monographs,,Alexandru Buium,2005,,American Mathematical Society,,332,0,English,Математика,kolxoz,18,"0821838628,9780821838624",,,,,516.35,QA242.5.B85 2005,,,OL15567147M,,600,,1,,,1,,1,2727335,djvu,153BCA3C788A13C0FF184412BA1ECC28,,,"M_Mathematics/MA_Algebra/MAg_Algebraic geometry/Buium A. Arithmetic differential equations (AMS, 2005)(600dpi)(K)(T)(ISBN 0821838628)(332s)_MAg_.djvu",0,2000-01-01 01:00:00,2016-04-03 02:51:08,3000/153bca3c788a13c0ff184412ba1ecc28-d.jpg,,
5572650,Комбинаторные тождества,,,,Риордан Дж.,1982,,Наука,,128,0,Russian,Математика//Комбинаторика,infanata,8,,,,,,,,,,,,300,,,1,,,,,3832688,djvu,1492548819C78AE89CA213409F158C4F,,,"N:\\natahaus\\2009\\2009-05\\[1146112422]Комбинаторные тождества.-- Риордан Дж. (Наука, 1982, 254).djvu",0,2000-01-01 01:00:00,2016-04-03 02:51:08,3000/1492548819c78ae89ca213409f158c4f-d.jpg,,
5572649,Арифметические группы,,,,Хамфри Дж.,1983,,Мир,,207,0,Russian,Математика//Симметрия и группы,infanata,8,,,,,,,,,,,,300,,,,,,,T,4264961,djvu,1475B7CA50F6E8FB865B50BF0FC5A596,,,"N:\\natahaus\\2009\\2009-05\\[1146111793]Арифметические группы.-- Хамфри Дж. (Мир, 1983, 208).djvu",0,2000-01-01 01:00:00,2016-04-03 02:51:08,3000/1475b7ca50f6e8fb865b50bf0fc5a596.jpg,,
5572648,Umbral calculus and Hopf algebras Proc Oklahoma,,"Contemporary Mathematics, V. 6",,S. A. Joni,1982,,Amer Mathematical Society,,89,0,English,Математика//Анализ,kolxoz,21,"0821850032,9780821850039",,,,,511/.6,QA164 .C685 1978,,,OL3782549M,,150,,,,,1,,1,657430,djvu,13CB0C76952AEAD3E148CB299444F247,,,"M_Mathematics/MA_Algebra/MAa_Abstract algebra/Morris R. (ed.) Umbral calculus and Hopf algebras (Proc. Oklahoma, 1976)(AMS, 1982)(ISBN 0821850032)(150dpi)(T)(89s)_MAa_.djvu",0,2000-01-01 01:00:00,2016-04-03 02:51:08,3000/13cb0c76952aead3e148cb299444f247.jpg,,
5572647,Handbook of computational group theory,,Discrete Mathematics and Its Applications,,"Derek F. Holt, Bettina Eick, Eamonn A. O'Brien",2005,1,Chapman and Hall/CRC,,510,0,English,Математика//Вычислительная математика,kolxoz,17,"1584883723,9781584883722",,,,,,,,,OL8795356M,,0,,,,,1,,1,5599995,pdf,13A22A4437D9F29912C3A3ADD10B03F9,,,"Holt D , Et Al Discrete Mathematics And Its Applications Handbook Of Computational Group Theory (Isbn 1584883723)(Crc, 2005)(510S) Csdi.pdf",0,2000-01-01 01:00:00,2016-04-03 02:51:08,3000/13a22a4437d9f29912c3a3add10b03f9-d.jpg ,,
5572646,"Discriminants, resultants, and multidimensional determinants",,Mathematics: Theory & Applications,,"Israel M. Gelfand, Mikhail Kapranov, Andrei Zelevinsky",1994,1,Birkhäuser Boston,,532,0,English,Математика//Алгебра,kolxoz,18,"0817636609,9780817636609,9780817647704,0817647708,3764336609,9783764336608",,,,,516.3/5,QA191 .G45 1994,,,OL1434801M,,300,,1,,,1,,1,3882738,djvu,133727843DAA97E09CDA3F8E4B9D9105,,,"M_Mathematics/MA_Algebra/MAa_Abstract algebra/Gelfand, Kapranov, Zelevinsky. Discriminants, resultants, and multidimensional determinants (Birkhauser,1994)(KA)(T)(ISBN 0817636609)(532s)_MAa_.djvu",0,2000-01-01 01:00:00,2016-04-03 02:51:08,3000/133727843daa97e09cda3f8e4b9d9105-d.jpg,,
5572645,Искусство решения проблем,,,,Акофф Р. (Ackoff),1982,,Мир,,110,0,Russian,Искусство,kolxoz,8,,,,,,,,,,,,300,,,1,,,,,2106597,djvu,12A65555774A964112774EFBED1A023A,,,"M_Mathematics/Akoff R. (_Ackoff_) Iskusstvo reshenija problem (Mir, 1982)(ru)(L)(T)(110s).djvu",0,2000-01-01 01:00:00,2016-04-03 02:51:08,3000/12a65555774a964112774efbed1a023a.jpg,,
5572644,Topologie GÃ©nÃ©rale: Chapitres 5 Ã  10 ,,,,N. Bourbaki,2006,,Springer,,328,0,French,Математика//Геометрия и топология,kolxoz,21,"9783540343998,3540343997",,,,,,,,,OL9473863M,,300,,,,,1,,1,2792828,djvu,12A3016C2631733CA137B2D03D492ACB,,,"M_Mathematics/Bourbaki N. Elements de Mathematique. Topologie generale. Chapitres 5 a 10(Springer,2007)(fr)(ISBN 3540343997)(T)(328s)_M_.djvu",0,2000-01-01 01:00:00,2016-04-03 02:51:08,3000/12a3016c2631733ca137b2d03d492acb-d.jpg,,
5572643,La serie generatrice exponentielle dans les problemes d'enumeration,,Seminaire de mathematiques superieures ,,Dominique Foata,1974,,Les Presses de L'Univesité de Montréal,Montreal,189,0,French,Математика//Алгебра,kolxoz,21,"0840502346,9780840502346",,,,,512.9/25,QA164.8 .F6,,,OL5439326M,,600,,1,,,1,,1,1729481,djvu,1242A6E0C2F75ECB76AF132BC6616130,,,"M_Mathematics/MA_Algebra/MAa_Abstract algebra/Foata D. La serie generatrice exponentielle dans les problemes d#enumeration (fr)(Montreal, 1974)(K)(600dpi)(T)(186s)_MAa_.djvu",0,2000-01-01 01:00:00,2016-04-03 02:51:08,3000/1242a6e0c2f75ecb76af132bc6616130.jpg,,
5572642,"Александр Петрович Котельников, 1865-1944",,,,"Путята Т.В., и др.",1968,,Наука,,122,0,Russian,Математика,kolxoz,15,,,,,,,,,,,,600,,1,,,,,T,2371986,djvu,1221C30D97ACA4BB1EAF88A4C84E1579,,,"M_Mathematics/Putyata T.V., i dr. Aleksandr Petrovich Kotel#nikov, 1865-1944 (Nauka, 1968)(ru)(KA)(600dpi)(T)(122s).djvu",0,2000-01-01 01:00:00,2016-04-03 02:51:08,3000/1221c30d97aca4bb1eaf88a4c84e1579.jpg,,
5572641,Groebner finite path algebras,,,,Leamer M.J.,2004,MS Thesis,,,33,0,English,Математика//Алгебра,kolxoz,5,,,,,,,,,,,,0,,,,,,,T,268283,pdf,11EAE8E205A788B614A7B9CE6807DD24,,,"M_Mathematics/MA_Algebra/MAco_Computational algebra/Leamer M.J. Groebner finite path algebras (M.S. thesis, VA, 2004)(33s).pdf",0,2000-01-01 01:00:00,2016-04-03 02:51:08,3000/11eae8e205a788b614a7b9ce6807dd24.jpg,,
5572640,An introduction to the Langlands program,,,,"Joseph Bernstein, Stephen Gelbart, S.S. Kudla, E. Kowalski, E. de Shalit, D. Gaitsgory, J.W. Cogdell, D. Bump",2003,1,Birkhäuser Boston,,293,0,English,Математика//Алгебра,kolxoz,14,"0817632115,9780817632113",,,,,,,,,OL8074292M,,400,1,1,,,1,,1,4757296,djvu,10AE4DDCCA8AD96CC3F67F448F2EE260,,,"M_Mathematics/MA_Algebra/MAg_Algebraic geometry/Bump D., Cogdell J.W., et al. An introduction to the Langlands program (Birkhaeuser, 2004)(K)(400dpi)(T)(C)(293s)(ISBN 0817632115)_MAg_.djvu",0,2000-01-01 01:00:00,2016-04-03 02:51:08,3000/10ae4ddcca8ad96cc3f67f448f2ee260-d.jpg,,
5572639,Перечислительная комбинаторика,,,,"Гульден Я., Джексон Д.",1990,,Наука,,504,0,Russian,Математика//Комбинаторика,infanata,8,5-02-013967-X,,,,,,,,,,,300,,1,,,,,,6023984,djvu,100B74B6926DD10006BE6675EFECE529,,,"N:\\natahaus\\2009\\2009-05\\[1146112575]Перечислительная комбинаторика.-- Гульден Я., Джексон Д. (Наука, 1990, 504).djvu",0,2000-01-01 01:00:00,2016-04-03 02:51:08,3000/100b74b6926dd10006be6675efece529-d.jpg,,
5572638,Егор Иванович Золотарев 1874-1878,,,,Ожигова Е.П.,1966,,Наука,,142,0,Russian,Математика,kolxoz,19,,,,,,,,,,,"нет стр. 6,7",600,,1,,,,,T,2603500,djvu,0F82E77928DE8AEA19C738543F51889B,,,"M_Mathematics/Ozhigova E.P. Egor Ivanovich Zolotarev 1874-1878 (Nauka, 1966)(net str.6,7)(ru)(K)(600dpi)(T)(142s)_M_.djvu",0,2000-01-01 01:00:00,2016-04-03 02:51:08,3000/0f82e77928de8aea19c738543f51889b.jpg,,
5572637,Selected papers of P.D. Lax,Volume 2,,,"Peter D. Lax, Peter Sarnak, Andrew J. Majda",2005,1,Springer,,608,0,English,Математика,kolxoz,19,"0387229264,9780387229263,9780387281490",,,,,,,,,OL18228191M,,300,,,,,1,,1,4129737,djvu,0EC0D9E663F83A8E31C2FFC1543B6C4B,,,"M_Mathematics/Sarnak P., Majda A. (eds.) Selected papers of P.D.Lax. Volume 2 (Springer, 2005)(T)(ISBN 0387229264)(608s)_M_.djvu",0,2000-01-01 01:00:00,2016-04-03 02:51:08,3000/0ec0d9e663f83a8e31c2ffc1543b6c4b-d.jpg,,
5572636,Werke. Nachtrag zum ersten Abdruck,Band 2,,,Gauss C.F.,1876,,,Goettingen,35,0,German,Математика,kolxoz,13,,,,,,,,,,,,400,,,,,,,T,494385,djvu,0E8F7E6D81063CE2477788AED0A97E4E,,,"M_Mathematics/Gauss C.F. Werke, Band 02.. Nachtrag zum ersten Abdruck (Goettingen, 1876)(de)(la)(400dpi)(T)(35s).djvu",0,2000-01-01 01:00:00,2016-04-03 02:51:08,3000/0e8f7e6d81063ce2477788aed0a97e4e.jpg,,
5572635,Bernhard Riemann's Gesammelte mathematische Werke und Wissenschaftlicher Nachlass,,Mathematics Education Library,,E. von Glasersfeld,1991,1,Springer,Leipzig,571,0,German,Математика,kolxoz,19,"9780792312574,0-7923-1257-0",,,,,510/.71,QA12 .R33 1991,,,OL1660091M,,600,,1,,,,,T,10040586,djvu,0E5BED4889526B84FA12A7DD6160698E,,,"M_Mathematics/Weber H., Dedekind R. (eds.) Bernhard Riemann#s Gesammelte mathematische Werke und Wissenschaftlicher Nachlass (2ed., Leipzig, 1892)(600dpi)(KA)(de)(T)(571s).djvu",0,2000-01-01 01:00:00,2016-04-03 02:51:08,3000/0e5bed4889526b84fa12a7dd6160698e-d.jpg,,
5572634,Differential algebra,,,,Ritt J.F.,1950,,AMS,,189,0,English,Математика//Алгебра,kolxoz,8,,,,,,,,,,,,300,,,,,,,,2076447,djvu,0E0D9C89CFED8B27E029989C3EB529ED,,,"M_Mathematics/MA_Algebra/MAd_Differential algebra/Ritt J.F. Differential algebra (AMS, 1950)(T)(189s).djvu",0,2000-01-01 01:00:00,2016-04-03 02:51:08,3000/0e0d9c89cfed8b27e029989c3eb529ed.jpg,,
5572633,Combinatorics of permutations,,Discrete Mathematics and Its Applications,,Miklos Bona,2004,1,Chapman and Hall/CRC,,382,0,English,Математика//Комбинаторика,kolxoz,18,"1584884347,9781584884347,9781420035186",,,,,,,,,OL15577992M,,300,,,,,1,,1,2342603,djvu,0DF990B6B38FF461F220FFE31676F5D5,,,"M_Mathematics/MA_Algebra/MAc_Combinatorics/Bona M. Combinatorics of permutations (ISBN 1584884347)(CRC, 2004)(O)(T)(382s)_MAc_.djvu",0,2000-01-01 01:00:00,2016-04-03 02:51:08,3000/0df990b6b38ff461f220ffe31676f5d5-d.jpg,,
5572632,Algebraic geometry - open problems,,LNM0997,,C. Ciliberto,1983,,Springer-Verlag,,418,0,English,Математика//Геометрия и топология,kolxoz,21,"9780387123202,0387123202",,,,,"510 s,516.3/5","QA3 .L28 no. 997,QA564 .L28 no. 997",,,OL3170238M,,299,,,,,,,1,2105420,djvu,0DBA4766E0F494A05151C7319CFF3B5C,,,"M_Mathematics/MA_Algebra/MAg_Algebraic geometry/Ciliberto C., et al. (eds.) Algebraic geometry - open problems (LNM0997, Springer, 1983)(ISBN 0387123202)(299dpi)(T)(418s)_MAg_.djvu",0,2000-01-01 01:00:00,2016-04-03 02:51:08,3000/0dba4766e0f494a05151c7319cff3b5c.jpg,,
5572631,Geometry of algebraic curves,Volume 1,Grundlehren der mathematischen Wissenschaften,,"Enrico Arbarello, Maurizio Cornalba, Phillip A. Griffiths, Joseph Daniel Harris",1984,1,Springer,,211,0,English,Математика//Геометрия и топология,kolxoz,8,"9780387909974,0387909974",,,,,512/.33,QA565 .G46 1985,,,OL2843406M,,300,,,1,0,1,,1,5038298,djvu,0D01A37F6DAB9621ABDACDB36C3B5628,,,"Arbarello, Cornalba, Griffiths, Harris. Geometry of algebraic curves. vol 1 (Springer, 1985)(ISBN 0387909974)(L)(T)(211s).djvu",0,2000-01-01 01:00:00,2016-04-03 02:51:08,3000/0d01a37f6dab9621abdacdb36c3b5628-d.jpg,,
5572630,The 1-2-3 of modular forms: Lectures at a summer school in Nordfjordeid,,Universitext,,"Jan Hendrik Bruinier, Gerard van der Geer, Günter Harder, Don Zagier, Kristian Ranestad",2008,1,Springer,,272,0,English,Математика//Алгебра,kolxoz,21,"3540741178,9783540741176",,,,,,,,,,,0,,,,,1,,1,2177072,pdf,0CF57BC31D722013441E780BED7B3CB7,,,"M_Mathematics/MA_Algebra/MAg_Algebraic geometry/Bruinier, van der Geer, Harder, Zagier. The 1-2-3 of modular forms.. Lectures at a summer school in Nordfjordeid (Springer, 2008)(ISBN 3540741178)(272s)_MAg_.pdf",0,2000-01-01 01:00:00,2016-04-03 02:51:08,3000/0cf57bc31d722013441e780bed7b3cb7-d.jpg,,
5572629,Computations in algebraic geometry with Macaulay 2,,,,"Bernd Sturmfels, David Eisenbud, Daniel R. Grayson, Michael Stillman",2001,1,Springer,,343,0,English,Математика//Вычислительная математика,kolxoz,5,"9783540422303,3540422307",,,,,,,,,OL17061921M,,0,,,,,,,,1463957,pdf,0CA26AB9413799CC6DF367DFBD9D0841,,,"Eisenbud D., et al. (eds) Computations in algebraic geometry with Macaulay 2 (ACM 8, Springer, 2001)(ISBN 3540422307)(343s).pdf",0,2000-01-01 01:00:00,2016-04-03 02:51:08,3000/0ca26ab9413799cc6df367dfbd9d0841-d.jpg,,
5572628,Computational algebraic geometry,,Progr. Math,,"F. Eysette, Andre Galligo, Frederic Eyssette",1993,,Birkhauser Verlag AG,,342,0,English,Математика//Вычислительная математика,kolxoz,18,"9783764336783,3764336781",,,,,516.3/5/0285,QA564 .C6564 1993,,,OL1739033M,,300,,1,,,1,,1,2382148,djvu,0C8640DAD357E8BD6C4DDC4975FA3122,,,"M_Mathematics/MA_Algebra/MAg_Algebraic geometry/Eysette, Galligo (eds.). Computational algebraic geometry (Progr.Math. 1993)(KA)(T)(ISBN 3764336781)(342s)_MAg_.djvu",0,2000-01-01 01:00:00,2016-04-03 02:51:08,3000/0c8640dad357e8bd6c4ddc4975fa3122.jpg,,
5572627,Комбинаторная оптимизация. Алгоритмы и сложность,,,,"Пападимитриу Х., Стайглиц К.",1984,,Мир,,512,0,Russian,Математика//Комбинаторика,infanata,8,,,,,,,,,,,,300,,,,,,,T,5871611,djvu,0C810796153545B61F40BE471871571A,,,"N:\\natahaus\\2009\\2009-06\\[1146112908]Комбинаторная оптимизация. Алгоритмы и сложность.-- Пападимитриу Х., Стайглиц К. (Мир, 1984, 512).djvu",0,2000-01-01 01:00:00,2016-04-03 02:51:08,3000/0c810796153545b61f40be471871571a.jpg,,
5572626,Arithmetic and geometry. Honorary to I. Shafarevich,Volume 1,Progr Math.35,,Michael Artin,1983,,Birkhauser,,364,0,English,Математика//Геометрия и топология,kolxoz,8,3764331321,,,,,513/.132,QA7 .A67 1983,,,OL3165179M,,300,,,,,,,T,4113308,djvu,0C2ED3879226D6074882E4BB9A67309C,,,"M_Mathematics/MA_Algebra/MAg_Algebraic geometry/Artin M., Tate J. (eds.) Arithmetic and geometry I. Honorary to I. Shafarevich (Progr.Math.35, Birkhauser, 1983)(ISBN 3764331321)(300dpi)(T)(364s).djvu",0,2000-01-01 01:00:00,2016-04-03 02:51:08,3000/0c2ed3879226d6074882e4bb9a67309c.jpg,,
5572625,The geometry of schemes (textbook draft),,,,"Eisenbud D., Harris J.",,,,,299,0,English,Математика//Геометрия и топология,kolxoz,8,,,,,,,,,,,,300,,,,,,,T,1882005,djvu,0C2D7510055A9B2886588DBCBCF3F725,,,"M_Mathematics/MA_Algebra/MAg_Algebraic geometry/Eisenbud D., Harris J. The geometry of schemes (textbook draft)(T)(299s).djvu",0,2000-01-01 01:00:00,2016-04-03 02:51:08,3000/0c2d7510055a9b2886588dbcbcf3f725.jpg,,
5572624,Geometry of toric varieties,,Russ Math.Surv 33,,Danilov V.I.,1978,,,,30,0,English,Математика//Геометрия и топология,kolxoz,8,,,,,,,,,,,,300,,,1,,,,,663996,djvu,0AC5C5BFB33E28B087A864B8A0A2CE64,,,"M_Mathematics/MA_Algebra/MAg_Algebraic geometry/Danilov V.I. Geometry of toric varieties (Russ.Math.Surv.33, 1978)(L)(T)(30s).djvu",0,2000-01-01 01:00:00,2016-04-03 02:51:08,3000/0ac5c5bfb33e28b087a864b8a0a2ce64.jpg,,
5572623,Introduction to Axiomatic set theory,,GTM001,,"Wilson M. Zaring, Gaisi Takeuti",1971,1,Springer,,259,0,English,Математика//Алгебра,kolxoz,21,"9780387053028,9780387900247,9783540053026,0387053026,0387900241,3540053026",,,,,511.3,,,,OL21337789M,,600,,1,,,1,,1,1964950,djvu,0A7BF043B7E21CF4C99E6297BABE8348,,,"GTM001.Introduction.to.Axiomatic.set.theory(1ed,1971)(ISBN.0387053026)(K).Takeuti.G.,Zaring.W.M.(600dpi)(T)(259s)_MAa_.djvu.djvu",0,2000-01-01 01:00:00,2016-04-03 02:51:08,3000/0a7bf043b7e21cf4c99e6297babe8348.jpg,,
5572622,Intersection theory,,Ergebnisse der Mathematik und ihrer Grenzgebiete. 3. Folge   A Series of Modern Surveys in Mathematics,,W. Fulton,1998,2nd ed.,Springer,,242,0,English,Математика//Алгебра,kolxoz,8,"9783540620464,354062046X",,,,,516.3/5,QA564 .F84 1998,,hXOPcIMR2o4C,OL700491M,,300,,,1,0,1,,1,3615183,djvu,09F586E10F2B72515409202BE87D517B,,,M_Mathematics/MA_Algebra/MAg_Algebraic geometry/Fulton W. Intersection theory (Springer 1998)(L)(T)(ISBN 354062046X)(242s).djvu,0,2000-01-01 01:00:00,2016-04-03 02:51:08,3000/09f586e10f2b72515409202be87d517b-d.jpg,,
5572621,Lehrbuch der Algebra,Band 3,,,Fricke R.,1928,,Vieweg,,513,0,German,Математика//Алгебра,kolxoz,18,,,,,,,,,,,,600,,,,,,,,9506126,djvu,09E5ED0B12A645ECA579338DED615850,,,"M_Mathematics/Fricke R. Lehrbuch der Algebra, Band 3 (Vieweg, 1928)(de)(600dpi)(T)(O)(513s)_M_.djvu",0,2000-01-01 01:00:00,2016-04-03 02:51:08,3000/09e5ed0b12a645eca579338ded615850.jpg,,
5572620,Gesammelte Abhandlungen,Band 1,,,Minkowski H.,1911,,,Leipzig,407,0,German,Математика,kolxoz,19,,,,,,,,,,,,600,,1,,,,,T,7041903,djvu,09E597F0636748F4A92942C93CE36A12,,,"M_Mathematics/Minkowski H. Gesammelte Abhandlungen. Band 1 (Leipzig, 1911)(600dpi)(KA)(de)(T)(407s).djvu",0,2000-01-01 01:00:00,2016-04-03 02:51:08,3000/09e597f0636748f4a92942c93ce36a12.jpg,,
5572619,Elemente der Quaternionen,Band 1,,,Hamilton W.R.,1882,,,Leipzig,770,0,German,Математика//Алгебра,kolxoz,18,,,,,,,,,,,,600,,,,,,,,12114734,djvu,09CF7740DCFE4EBA46229D1E6564C169,,,"M_Mathematics/MA_Algebra/MAa_Abstract algebra/Hamilton W.R. Elemente der Quaternionen, Band 1 (Leipzig, 1882)(de)(600dpi)(T)(770s)_MAa_.djvu",0,2000-01-01 01:00:00,2016-04-03 02:51:08,3000/09cf7740dcfe4eba46229d1e6564c169.jpg,,
5572618,Интегрирование элементарных функций,,,,Гарди Г. (Hardy),1935,,,,84,0,Russian,Математика//Алгебра,kolxoz,8,,,,,,,,,,,,300,,,,,,,T,891842,djvu,09AF4691FF6DDB378C46A8EB574662C7,,,M_Mathematics/MA_Algebra/MAd_Differential algebra/Gardi G. (_Hardy_) Integrirovanie e#lementarnyh funkcij (1935)(ru)(T)(84s).djvu,0,2000-01-01 01:00:00,2016-04-03 02:51:08,3000/09af4691ff6ddb378c46a8eb574662c7.jpg,,
5572617,Mathematics Applied to Deterministic Problems in the Natural Sciences,,Classics in Applied Mathematics,,"C. C. Lin, L. A. Segel",1988,,SIAM: Society for Industrial and Applied Mathematics,,629,0,English,Математика,kolxoz,21,"9780898712292,0898712297",,,,,510,QA37.2 .L55 1988,,,OL2065513M,,600,,,,1,1,,1,8661652,djvu,09A1C047FD33080910C408442FC62DE8,,,"M_Mathematics/Lin C.C., Segel L.A. Mathematics Applied to Deterministic Problems in the Natural Sciences(ISBN 0898712297)(SIAM, 1988)(600dpi)(T)(629s)_M_.djvu",0,2000-01-01 01:00:00,2016-04-03 02:51:08,3000/09a1c047fd33080910c408442fc62de8-d.jpg,,
5572616,Linear algebraic groups,,GTM021,,James E. Humphreys,1998,4,Springer,,274,0,English,Математика//Алгебра,kolxoz,21,"9780387901084,0387901086",,,,,512/.55,QA179 .H87 1998,,,OL18434252M,,300,,1,,,,,T,2072138,djvu,09A05BE8FEDCA4CF4BC993BFCED2DEAA,,,"M_Mathematics/MA_Algebra/MAa_Abstract algebra/Humphreys J. Linear algebraic groups (GTM021, 4ed., Springer, 1995)(ISBN 0387901086)(T)(274s)(KA)_MAa_.djvu",0,2000-01-01 01:00:00,2016-04-03 02:51:08,3000/09a05be8fedca4cf4bc993bfced2deaa-d.jpg,,
5572615,Equivariant sheaves and functors,,Lecture Notes in Mathematics,,"Joseph Bernstein, Valery Lunts",1994,1,Springer,,144,0,English,Математика//Алгебра,kolxoz,14,"0387580719,9783540580713,9780387580715,3540580719",,,,,"510 s,514/.224","QA3 .L28 no. 1578,QA612.36 .L28 no. 1578",,,OL1091732M,,300,,,,,1,,1,1348420,djvu,09537496A34EDE81BBE69B9180F49F58,,,"M_Mathematics/MA_Algebra/MAct_Category theory/Bernstein J., Lunts V. Equivariant sheaves and functors (Springer, 1994)(T)(ISBN 3540580719)(144s)_MAct_.djvu",0,2000-01-01 01:00:00,2016-04-03 02:51:08,3000/09537496a34ede81bbe69b9180f49f58-d.jpg,,
5572614,Лекции по математике. Линейная алгебра,Том 3,,,Босс В.,2005,,КомКнига,,224,0,Russian,Математика,kolxoz,13,5484000467,,,,,,,,,OL12546375M,,600,,1,,,,,T,4660869,djvu,093C74216FE0B390C72AE333F39F6266,,,"M_Mathematics/Boss V. Lekcii po matematike. Tom 3. Linejnaya algebra (URSS, 2005)(ru)(T)(K)(600dpi)(224s).djvu",0,2000-01-01 01:00:00,2016-04-03 02:51:08,3000/093c74216fe0b390c72ae333f39f6266.jpg,,
5572613,Fundamentals of domination in graphs,,Pure and Applied Mathematics,,"Teresa W. Haynes, Stephen Hedetniemi, Peter Slater",1998,1,CRC Press,,455,0,English,Математика//Дискретная математика,kolxoz,8,"9780824700331,0824700333",,,,,511/.5,QA166 .H395 1998,,,OL696018M,,300,,,,,,,1,7548605,djvu,08E65DEB28C9296B905E0B5876C33288,,,"M_Mathematics/MA_Algebra/MAc_Combinatorics/Haynes T.W., Hedetniemi S.T., Slater P.J. Fundamentals of domination in graphs (M.Dekker, 1998)(T)(455s).djvu",0,2000-01-01 01:00:00,2016-04-03 02:51:08,3000/08e65deb28c9296b905e0b5876c33288-d.jpg,,
5572612,Global Aspects of Complex Geometry,,,,"Fabrizio Catanese, Hélène Esnault, Alan T. Huckleberry, Klaus Hulek, Thomas Peternell",2006,1,Springer,,507,0,English,Математика//Геометрия и топология,kolxoz,18,"9783540354796,3-540-35479-4",,,,,,,,,OL9056624M,,0,,,,,,,T,2871364,pdf,08C0ED7581E29FA861DA3F5BD8110ECB,,,"M_Mathematics/MA_Algebra/MAg_Algebraic geometry/Catanese F., Esnault H., Huckleberry  A., Hulek K., Peternell T. (Editors) Global Aspects of Complex Geometry (Springer, 2006)(507s)_MAg_.pdf",0,2000-01-01 01:00:00,2016-04-03 02:51:08,3000/08c0ed7581e29fa861da3f5bd8110ecb-d.jpg,,
5572611,Polynomial identities and combinatorial methods,,Lecture Notes in Pure and Applied Mathematics,,"Antonio Giambruno, Amitai Regev, Mikhail Zaicev",2003,1,CRC Press,,427,0,English,Математика//Комбинаторика,kolxoz,21,"0824740513,9780824740511,9780824755218",,,,,512/.4,QA251 .P65 2003,,,OL3323391M,,300,,,,,1,,1,3591828,djvu,08B870D2622AC644E5992F6D62343961,,,"M_Mathematics/MA_Algebra/MAc_Combinatorics/Giambruno, Regev, Zaicev. (eds.) Polynomial identities and combinatorial methods (Dekker, 2003)(ISBN 0824740513)(T)(O)(427s)_MAc_.djvu",0,2000-01-01 01:00:00,2016-04-03 02:51:08,3000/08b870d2622ac644e5992f6d62343961-d.jpg,,
5572609,О философии математики,,,,Вейль Г.,1934,,ГТТИ,,129,0,Russian,Математика,kolxoz,15,,,,,,,,,,,,600,,1,,,,,,5154651,djvu,087CFF6E97D5C9ABDB7BF964140DFCC3,,,"M_Mathematics/Vejl# G. O filosofii matematiki(GTTI, 1934)(ru)(KA)(600dpi)(T)(129s).djvu",0,2000-01-01 01:00:00,2016-04-03 02:51:08,3000/087cff6e97d5c9abdb7bf964140dfcc3.jpg,,
5572610,Теория колец,,,,Джекобсон Н.,1947,,ИЛ,,143,0,Russian,Математика//Алгебра,kolxoz,8,,,,,,,,,,,,300,,,1,,,,,5871877,djvu,087EE291D41F072FE4AFFA9B7F442FC7,,,"M_Mathematics/MA_Algebra/MAa_Abstract algebra/Dzhekobson N. Teorija kolec (IL, 1947)(ru)(L)(T)(143s).djvu",0,2000-01-01 01:00:00,2016-04-03 02:51:08,3000/087ee291d41f072fe4affa9b7f442fc7.jpg,,
5572608,Sophus Lie: a sketch of his life and work,,J.Lie Theory 9 p1,,Fritschze B.,1999,,,,39,0,English,Математика,kolxoz,18,,,,,,,,,,,,300,1,,,,,,,908145,djvu,0851B40525C2B08E98C8875E425BA2B8,,,"M_Mathematics/Fritschze B. Sophus Lie.. a sketch of his life and work (J.Lie Theory 9, p1, 1999)(T)(C)(39s)_M_.djvu",0,2000-01-01 01:00:00,2016-04-03 02:51:08,3000/0851b40525c2b08e98c8875e425ba2b8.jpg,,
5572607,"Solving Polynomial Equations. Foundations, Algorithms and Applications",,Algorithms and Computation in Mathematics,,"Alicia Dickenstein, Ioannis Z. Emiris",2005,1,Springer,,432,0,English,Математика,kolxoz,18,"9783540243267,3540243267",,,,,,,,,OL22631922M,,0,,,,,1,,1,3782340,pdf,082AC593A28187119518C82C38AA8102,,,"M_Mathematics/MA_Algebra/MAco_Computational algebra/Dickenstein A., Emiris I. Solving Polynomial Equations. Foundations, Algorithms and Applications(Springer, 2005)(432s)_MAco_.pdf",0,2000-01-01 01:00:00,2016-04-03 02:51:08,3000/082ac593a28187119518c82c38aa8102-d.jpg,,
5572606,Lehrbuch der Algebra,Band 1,,,Fricke R.,1924,,Vieweg,,477,0,German,Математика//Алгебра,kolxoz,18,,,,,,,,,,,,600,,,,,,,,8901866,djvu,0802744B00092561D5A10EF7BF91407B,,,"M_Mathematics/Fricke R. Lehrbuch der Algebra, Band 1 (Vieweg, 1924)(de)(600dpi)(T)(O)(477s)_M_.djvu",0,2000-01-01 01:00:00,2016-04-03 02:51:08,3000/0802744b00092561d5a10ef7bf91407b.jpg,,
5572605,"Toposes, algebraic geometry and logic",,LNM0274,,F. W. Lawvere (editor),1972,,Springer-Verlag,,194,0,English,Математика//Геометрия и топология,kolxoz,14,"9780387059204,0-387-05920-2",,,,,"510/.8 s,512/.55","QA3 .L28 no. 274,QA169 .L28 no. 274",,,OL5303747M,,600,,,,,,,T,2010959,djvu,07AF9AFF57BEA06D0E4856B36D168095,,,"M_Mathematics/MA_Algebra/MAct_Category theory/Bucur I., et al. Toposes, algebraic geometry and logic (LNM0274, Springer, 1971)(600dpi)(T)(194s)_MAct_.djvu",0,2000-01-01 01:00:00,2016-04-03 02:51:08,3000/07af9aff57bea06d0e4856b36d168095.jpg,,
5572604,"Riemann surfaces, theta functions, and abelian automorphisms groups",,LNM0483,,Robert D. M Accola,1975,,Springer-Verlag,,108,0,English,Математика//Симметрия и группы,kolxoz,21,"9780387073989,9783540073987,0387073981,3540073981",,,,,"510/.8 s,515/.223","QA3 .L28 no. 483,QA333 .L28 no. 483",,,OL5201685M,,300,,,,,1,,1,505794,djvu,0742975B1A465C22A6908334A7CED071,,,"M_Mathematics/MA_Algebra/MAg_Algebraic geometry/Accola R.D.M. Riemann surfaces, theta functions, and abelian automorphisms groups (LNM0483, Springer, 1975)(ISBN 0387073981)(T)(108s)_MAg_.djvu",0,2000-01-01 01:00:00,2016-04-03 02:51:08,3000/0742975b1a465c22a6908334a7ced071.jpg,,
5572603,Compact complex surfaces,,Series of Modern Surveys in Mathematics,,"W. Barth, C. Peters, A. Van De Ven",1984,,Springer,,161,0,English,Математика//Алгебра,kolxoz,8,"0387121722,9780387121727",,,,,516.3/5,QA571 .B37 1984,,,OL2839610M,,300,,,1,,1,,,3145521,djvu,06FF149C2C83D0D64207F92D335F88BA,,,"M_Mathematics/MA_Algebra/MAg_Algebraic geometry/Barth, Peters, Van de Ven. Compact complex surfaces (Springer, 1984)(ISBN 3540121722)(L)(T)(161s).djvu",0,2000-01-01 01:00:00,2016-04-03 02:51:08,3000/06ff149c2c83d0d64207f92d335f88ba.jpg,,
5572602,"You failed your math test, Comrade Einstein (about Soviet antisemitism)",,,,M. Shifman,2005,,World Scientific Publishing Company,,268,0,English,Математика,kolxoz,19,"9789812562791,9812562796",,,,,,,,,OL19284365M,,400,,,,,,,T,2762085,djvu,06E6135019C8F2F43158ABA9ABDC610E,,,"M_Mathematics/Shifman M. (ed.) You failed your math test, Comrade Einstein (about Soviet antisemitism)(WS, 2005)(400dpi)(T)(268s).djvu",0,2000-01-01 01:00:00,2016-04-03 02:51:08,3000/06e6135019c8f2f43158aba9abdc610e-d.jpg,,
5572601,Последние работы,,,,Пуанкаре А. (H.Poincare),2001,,РХД,,209,0,Russian,Биология//Генетика,kolxoz,11,5-93972-038-2,,,,,,,,,,,300,,,,,,,T,1188001,djvu,06C5BC61B3E69A3654435E5469CAB9F1,,,"M_Mathematics/Puankare A. (_H.Poincare_) Poslednie raboty (RXD, 2001)(ru)(T)(209s).djvu",0,2000-01-01 01:00:00,2016-04-03 02:51:08,3000/06c5bc61b3e69a3654435e5469cab9f1.jpg,,
5572600,"Избранные труды, в 2-х томах",том 2,,,Мальцев А.И.,1976,,Наука,,386,0,Russian,Математика//Алгебра,infanata,15,,,,,,,,,,,,600,,1,,,,,,7803861,djvu,0674D9CD665D58A71EEE2AF7899CBCA2,,,"N:\\natahaus\\2007\\2007-05\\21 05 07\\Мальцев А.И. - Избранные труды, в 2-х томах 1976 2.djvu",0,2000-01-01 01:00:00,2016-04-03 02:51:08,3000/0674d9cd665d58a71eee2af7899cbca2.jpg,,
5572599,Oeuvres,Tome 2,,,Lagrange J.L.,1868,,Gauthier~Villars,,733,0,French,Математика,kolxoz,14,,,,,,,,,,,,600,,,,,,,T,11568802,djvu,063FEE8BEC79ED878F2B8499B5B018B2,,,"M_Mathematics/Lagrange J.L. Oeuvres, Tome 02 (Gauthier-Villars 1868)(fr)(600dpi)(T)(733s).djvu",0,2000-01-01 01:00:00,2016-04-03 02:51:08,3000/063fee8bec79ed878f2b8499b5b018b2.jpg,,
5572598,Рациональные группы,,,,Мерзляков Ю.Б.,1980,,Наука,,464,0,Russian,Математика//Симметрия и группы,kolxoz,8,,,,,,,,,,,,300,,,,,,,,5178225,djvu,05E947E4F0E1595FE064B727518712DD,,,"M_Mathematics/MA_Algebra/MAa_Abstract algebra/Merzlyakov Ju.B. Racional#nye gruppy (Nauka, 1980)(ru)(T)(464s).djvu",0,2000-01-01 01:00:00,2016-04-03 02:51:08,3000/05e947e4f0e1595fe064b727518712dd.jpg,,
5572597,Random mappings,,Translations series in mathematics and engineering  ,,Kolchin V.F.,1986,,OS Inc,,216,0,English,Математика,kolxoz,14,0911575006,,,,,,,,,,,300,,,,,,,1,1550805,djvu,059F1500FA01CA0364E62BAD52074AFF,,,"M_Mathematics/MA_Algebra/MAc_Combinatorics/Kolchin V.F. Random mappings (OS Inc, 1986)(T)(ISBN 0911575006)(216s)_MAc_.djvu",0,2000-01-01 01:00:00,2016-04-03 02:51:08,3000/059f1500fa01ca0364e62bad52074aff.jpg,,
5572596,Algebra in a localic topos with applications to ring theory,,LNM1038,,Francis Borceux,1983,1st,Springer,,248,0,English,Математика//Алгебра,kolxoz,21,"9780387127118,0-387-12711-9",,,,,"510 s,512/.24","QA3,QA251.5",,,OL21340685M,,300,,,,,,,,1401209,djvu,05865856E7F6F1A544B1C77C441BF647,,,"M_Mathematics/MA_Algebra/MAa_Abstract algebra/Borceux F., Van den Bossche G. Algebra in a localic topos with applications to ring theory (LNM1038, Springer, 1983)(T)(248s)_MAa_.djvu",0,2000-01-01 01:00:00,2016-04-03 02:51:08,3000/05865856e7f6f1a544b1c77c441bf647.jpg,,
5572595,"Ideals, varieties, and algorithms",,Undergraduate Texts in Mathematics,,"David Cox, John Little, Donal O'Shea",2006,2nd,Springer,,553,0,English,Математика//Алгебра,kolxoz,18,"0387946802,9780387946801",,,,,516.3/5,QA564 .C688 1997,,,OL7448557M,,600,,1,,,1,,T,5464644,djvu,0561729FF99056FE238BD1D5EE0FC68C,,,"M_Mathematics/MA_Algebra/MAco_Computational algebra/Cox D., Little J., O#Shea D. Ideals, varieties, and algorithms (2ed., Springer, 1997)(ISBN 0387946802)(KA)(600dpi)(553s)_MAco_.djvu",0,2000-01-01 01:00:00,2016-04-03 02:51:08,3000/0561729ff99056fe238bd1d5ee0fc68c-d.jpg,,
5572594,Дедекиндовы структуры с дополнениями и регулярные кольца,,,,Скорняков Л.,1961,,ФМЛ,,198,0,Russian,Математика//Алгебра,kolxoz,14,,,,,,,,,,,,300,,1,,,,,T,1596238,djvu,052FC24C89A1C01AD39B254772ECC303,,,"M_Mathematics/MA_Algebra/MAa_Abstract algebra/Skornyakov L. Dedekindovy struktury s dopolneniyami i regulyarnye kol#ca (FML, 1961)(ru)(KA)(T)(198s)_MAa_.djvu",0,2000-01-01 01:00:00,2016-04-03 02:51:08,3000/052fc24c89a1c01ad39b254772ecc303.jpg,,
5572593,Characteristic classes for irregular singularities in diff. algebra (phd thesis 1993),,,,Sommeling R.,,,,,155,0,English,Математика//Алгебра,kolxoz,18,90-9006015-4,,,,,,,,,,,300,,1,,,,,T,922278,djvu,04ED87836F486F4500209154D404B039,,,M_Mathematics/MA_Algebra/MAd_Differential algebra/Sommeling R. Characteristic classes for irregular singularities in diff. algebra (phd thesis 1993)(KA)(T)(155s)_MAd_.djvu,0,2000-01-01 01:00:00,2016-04-03 02:51:08,3000/04ed87836f486f4500209154d404b039.jpg,,
5572592,Algebre des ensembles,,,,Sierpinski W.,1951,,,Warszawa,102,0,French,Математика//Алгебра,kolxoz,8,,,,,,,,,,,,300,,,1,,,,,3726631,djvu,0362FADE458D05D02A9D8D01FF2D26DD,,,"M_Mathematics/MA_Algebra/MAa_Abstract algebra/Sierpinski W. Algebre des ensembles (Warszawa, 1951)(fr)(L)(T)(102s).djvu",0,2000-01-01 01:00:00,2016-04-03 02:51:08,3000/0362fade458d05d02a9d8d01ff2d26dd.jpg,,
5572591,Computational commutative and non-commutative algebraic geometry,,,,"Svetlana Cojocaru, Svetlana Cojocaru, Gerhard Pfister, Victor Ufnarovski",2005,,IOS Press,,336,0,English,Математика//Вычислительная математика,kolxoz,21,"9781586035051,1586035053",,,,,,,,,OL12317620M,,0,,,,,,,T,3524169,pdf,0347D9D1C85D8972399E2EAC4CD6DC78,,,"M_Mathematics/MA_Algebra/MAg_Algebraic geometry/Cojocaru S., Pfister G., Ufnarovski V. (eds.) Computational commutative and non-commutative algebraic geometry (IOS, 2005)(ISBN 1586035053)(336s)_MAg_.pdf",0,2000-01-01 01:00:00,2016-04-03 02:51:08,3000/0347d9d1c85d8972399e2eac4cd6dc78-d.jpg,,
5572590,Lectures on elementary mathematics,,,,"J L. 1736-1813 Lagrange, Thomas J. 1865-1932 MCCormack",2010,,Nabu Press,Chicago,175,0,English,Математика,kolxoz,13,"9781176502871,1176502875",,,,,,,,,,,300,,,,,,,T,850573,djvu,0305D6EDAA02C0FC8CB8A07E09433872,,,"M_Mathematics/Lagrange J.-L. Lectures on elementary mathematics (Chicago, 1898)(T)(175s).djvu",0,2000-01-01 01:00:00,2016-04-03 02:51:08,3000/0305d6edaa02c0fc8cb8a07e09433872-d.jpg,,
5572589,Kummer's quartic surface,,Cambridge Mathematical Library,,"R. W. H. Hudson, H. F. Baker, W. Barth",1990,,Cambridge University Press,,256,0,English,Математика//Алгебра,kolxoz,14,"9780521397902,0521397901",,,,,516/.183,QA608 .H8 1990,,,OL1648596M,,300,,,,,1,,1,2968003,djvu,02F4DFFCAD47526A32893B6DA9ADFFA1,,,"M_Mathematics/MA_Algebra/MAg_Algebraic geometry/Hudson R.W.H.T. Kummer#s quartic surface (CUP, 1905, 1990)(T)(ISBN 0521397901)(256s)_MAg_.djvu",0,2000-01-01 01:00:00,2016-04-03 02:51:08,3000/02f4dffcad47526a32893b6da9adffa1-d.jpg,,
5572588,Irreducible polynomials theory,,Math788F,,Filaseta M.,1998,,,,328,0,English,Математика//Алгебра,kolxoz,18,,,,,,,,,,,no chapter 5,600,,,,,,,,2737091,djvu,02DE1A0659F140E13F9859FF33117946,,,"M_Mathematics/MA_Algebra/MAa_Abstract algebra/Filaseta M. Irreducible polynomials theory (no chap.5)(Math788F, 1998)(600dpi)(T)(328s).djvu",0,2000-01-01 01:00:00,2016-04-03 02:51:08,3000/02de1a0659f140e13f9859ff33117946.jpg,,
5572587,Непрерывные группы,,,,Понтрягин Л.С.,1973,"Издание третье, исправленное",Наука,,527,0,Russian,Математика//Симметрия и группы,infanata,8,,,,,,,,,,,,300,,,,,,,,5678543,djvu,02BD0BB95FE446C749A38A56060E62D3,,,"N:\\natahaus\\2009\\2009-05\\[1146112011]Непрерывные группы. Издание третье, исправленное.-- Понтрягин Л.С. (1973, 527).djvu",0,2000-01-01 01:00:00,2016-04-03 02:51:08,3000/02bd0bb95fe446c749a38a56060e62d3-d.jpg,,
5572586,Exterior differential systems,,Mathematical Sciences Research Institute Publications,,"Robert L. Bryant, S.S. Chern, Robert B. Gardner, Hubert L. Goldschmidt, P.A. Griffiths",1991,,Springer,,241,0,English,Математика//Алгебра,kolxoz,8,"9780387974118,0387974113",,,,,515/.35,QA649 .E98 1991,,,OL1886735M,,300,,,1,,,,,4554580,djvu,02320B90D253B293BF8A7D49C0999F95,,,"M_Mathematics/MA_Algebra/MAd_Differential algebra/Bryant R.L., Chern S.S., Gardner R.B., Goldschmidt H.H., Griffiths P.A. Exterior differential systems (Springer, 1991)(L)(T)(ISBN 0387974113)(241s).djvu",0,2000-01-01 01:00:00,2016-04-03 02:51:08,3000/02320b90d253b293bf8a7d49c0999f95.jpg,,
5572585,Frobenius and separable functors for generalized module categories and nonlinear equations,,LNM1787,,"Stefaan Caenepeel, Gigel Militaru, Shenglin Zhu",2002,1,Springer,,350,0,English,Математика,kolxoz,14,"3540437827,9783540437826",,,,,,,,,OL9057800M,,0,,,,,,,1,1397496,pdf,01DB410F42C2F97FD19355F61BE9D525,,,"M_Mathematics/MA_Algebra/MAct_Category theory/Caenepeel S., Militaru G., Zhu S. Frobenius and separable functors for generalized module categories and nonlinear equations (LNM1787, Spinger, 2002)(ISBN 3540437827)(350s).pdf",0,2000-01-01 01:00:00,2016-04-03 02:51:08,3000/01db410f42c2f97fd19355f61be9d525-d.jpg,,
5572584,"Международный конгресс математиков в Киото, 1990. Избранные доклады",,,,"Овсеевич А.И. (ред.), Тихомиров В.М. (ред.)",1996,,Мир,,216,0,Russian,Математика,kolxoz,11,5-03-003178-2,,,,,,,,,,,300,,,1,,,,,5024242,djvu,01D392F3CB26BC1C9A7F04E922376929,,,"M_Mathematics/Mezhdunarodnyj kongress matematikov v Kioto, 1990. Izbrannye doklady (Mir, 1996)(ru)(L)(T)(216s).djvu",0,2000-01-01 01:00:00,2016-04-03 02:51:08,3000/01d392f3cb26bc1c9a7f04e922376929.jpg,,
5572583,Frobenius manifolds and moduli spaces for singularities,,Cambridge Tracts in Math.151,,Claus Hertling,2002,1,Cambridge University Press,,141,0,English,Математика,kolxoz,8,"9780521812962,0521812968",,,,,516.3/5,QA614.58 .H47 2002,,,OL3649641M,,300,,,1,,,,,3756592,djvu,01A1010DF41C1FEA721CDD0662152B15,,,"M_Mathematics/MA_Algebra/MAg_Algebraic geometry/Hertling C. Frobenius manifolds and moduli spaces for singularities (Cambridge Tracts in Math. 151, CUP, 2001)(L)(T)(141s).djvu",0,2000-01-01 01:00:00,2016-04-03 02:51:08,3000/01a1010df41c1fea721cdd0662152b15-d.jpg,,
5572582,Arithmetic and geometry around hypergeometric functions,,Progress in Mathematics,,"Rolf-Peter Holzapfel, Muhammed Uludag, M. Yoshida",2007,1,Birkhäuser Basel,,440,0,English,Математика//Геометрия и топология,kolxoz,21,"9783764382834,9783764382841,376438283X",,,,,,,,,OL9091177M,,0,,,,,1,,1,3574123,pdf,0163B35325AA03C70FAA7B664AF16872,,,"M_Mathematics/MA_Algebra/MAg_Algebraic geometry/Holzapfel R-P., Uludag A.M., Yoshida M. (eds.) Arithmetic and geometry around hypergeometric functions (Birkhauser, 2007)(ISBN 376438283X)(440s)_MAg_.pdf",0,2000-01-01 01:00:00,2016-04-03 02:51:08,3000/0163b35325aa03c70faa7b664af16872-d.jpg,,
5572581,Дискретная математика и комбинаторика,,,,Джеймс Андерсон,2004,,"Вильямс, Prentice Hall",Вильямс,959,0,Russian,Математика,infanata,21,5-8459-0498-6,,,,,,,,,,,600,,,,,,,T,8345090,djvu,014318BF864B4C4E1689B55F3539FA8A,,,N:\\natahaus\\2007\\2007-01\\09 02 07\\Джеймс Андерсон -  Дискретная математика и комбинаторика 2004.djvu,0,2000-01-01 01:00:00,2016-04-03 02:51:08,3000/014318bf864b4c4e1689b55f3539fa8a.jpg,,
5572580,Cinq lettres sur la theorie des ensembles,,BSMF 33,,Hadamard J.,1905,,,,14,0,French,Математика//Алгебра,kolxoz,8,,,,,,,,,,,,600,,,,,,,,525369,djvu,010C50276082C3EFFFF2CB757546BE3A,,,"M_Mathematics/MA_Algebra/MAa_Abstract algebra/Hadamard J. Cinq lettres sur la theorie des ensembles (BSMF 33, 1905)(fr)(600dpi)(T)(14s).djvu",0,2000-01-01 01:00:00,2016-04-03 02:51:08,3000/010c50276082c3effff2cb757546be3a.jpg,,
5572579,Теория структур,,,,Биркгоф Г. (G.Birkhoff),1952,,ИЛ,,407,0,Russian,Математика//Алгебра,kolxoz,8,,,,,,,,,,,,300,,,,,,,T,6888766,djvu,00E99E557A3135E0A3187BDE36FF7F25,,,"M_Mathematics/MA_Algebra/MAa_Abstract algebra/Birkgof G. (_G.Birkhoff_) Teorija struktur (IL, 1952)(ru)(T)(407s).djvu",0,2000-01-01 01:00:00,2016-04-03 02:51:08,3000/00e99e557a3135e0a3187bde36ff7f25.jpg,,
5572578,Oeuvres,Tome 4,,,Lagrange J.L.,1869,,Gauthier~Villars,,758,0,French,Математика,kolxoz,14,,,,,,,,,,,,600,,,,,,,T,12109798,djvu,00D036BC8AAE25690F00516BB0D18F17,,,"M_Mathematics/Lagrange J.L. Oeuvres, Tome 04 (Gauthier-Villars 1869)(fr)(600dpi)(T)(758s).djvu",0,2000-01-01 01:00:00,2016-04-03 02:51:08,3000/00d036bc8aae25690f00516bb0d18f17.jpg,,
5572577,Kolmogorov's heritage in mathematics,,,,"Eric Charpentier, Annick Lesne, Nikolaï K. Nikolski",2007,1,Springer,,326,0,English,Математика,kolxoz,21,"3540363491,9783540363514,9783540363491",,,,,510,QA267.7 .H4713 2007,,,OL12774247M,,0,,,,,1,,1,2768454,pdf,00BC06A890602EDD3EFBCBE8E268A7D0,,,"M_Mathematics/Charpentier E., Lesne A., Nikolski N. (eds.) Kolmogorov#s heritage in mathematics (Springer, 2007)(ISBN 3540363491)(326s)_M_.pdf",0,2000-01-01 01:00:00,2016-04-03 02:51:08,3000/00bc06a890602edd3efbcbe8e268a7d0-d.jpg,,
5572576,A guide to classical and modern model theory,,Trends in Logic,,"Annalisa Marcja, Carlo Toffalori",2003,1,Springer,,379,0,English,Математика//Алгебра,kolxoz,14,"9781402013300,1402013302",,,,,511.3,QA9.7 .M364 2003,,,OL20525927M,,600,,1,,,,,1,3529938,djvu,007E1BFE624D7E649C829C27D6DE2011,,,"M_Mathematics/MA_Algebra/MAa_Abstract algebra/Marcja A., Toffalori C. A guide to classical and modern model theory (Kluwer, 2003)(600dpi)(K)(T)(ISBN 1402013302)(379s)_MAa_.djvu",0,2000-01-01 01:00:00,2016-04-03 02:51:08,3000/007e1bfe624d7e649c829c27d6de2011-d.jpg,,
5572575,Elemente der Quaternionen,Band 2,,,Hamilton W.R.,1884,,,Leipzig,512,0,German,Математика//Алгебра,kolxoz,18,,,,,,,,,,,,600,,,,,,,,9047248,djvu,0021E010FD55EE7C00B0F04046BA1984,,,"M_Mathematics/MA_Algebra/MAa_Abstract algebra/Hamilton W.R. Elemente der Quaternionen, Band 2 (Leipzig, 1884)(de)(600dpi)(T)(512s)_MAa_.djvu",0,2000-01-01 01:00:00,2016-04-03 02:51:08,3000/0021e010fd55ee7c00b0f04046ba1984.jpg,,
5572574,Triangulated Categories. ,,Ann.Math.Studies 148,,Amnon Neeman,2001,,Princeton University Press,,451,0,English,Математика//Алгебра,kolxoz,8,"0691086869,9780691086866",,,,,,,,,OL7757951M,,0,,,,,1,,,1866899,pdf,0005928E6AD9AE3A5F83AE1FFBE14ED6,,,"M_Mathematics/MA_Algebra/MAct_Category theory/Neeman A. Triangulated categories (Ann. Math. Studies 148, Princeton UP, 2002)(451s).pdf",0,2000-01-01 01:00:00,2016-04-03 02:51:08,3000/0005928e6ad9ae3a5f83ae1ffbe14ed6-d.jpg,,
5572573,Cap Gemini Ernst & Young Guide to Gaining Business Value from Mobile Technologies,,,,Adam Kornak,2004,,Wiley,,338,0,English,Бизнес,mexmat,3,0471237620,,,,,,,,,,,0,,,,,,,T,11316442,pdf,FF604D6161F12A63C171BB23DA729FED,,,"DVD-003/Welin-Berger_M.,_Teutloff_J.,_Kornak_A._Cap_Gemini_Ernst_&_Young_Guide_to_Gaining_Business_Value_from_Mobile_Technologies_(2004)(en)(316s).pdf",0,2000-01-01 01:00:00,2016-04-03 02:51:08,29000/ff604d6161f12a63c171bb23da729fed.jpg,,
5572572,Reverse Engineering of Object Oriented Code,,,,"Tonella P., Potrich A.",2004,,,,223,0,English,Техника,mexmat,31,0387238034,,,,,,,,,,,0,,,,,,,T,6785068,pdf,FF1D32364FB5C867E6C065113B4997E8,,,"DVD-031/Tonella_P.,_Potrich_A._Reverse_Engineering_of_Object_Oriented_Code_(2004)(en)(210s).pdf",0,2000-01-01 01:00:00,2016-04-03 02:51:08,29000/ff1d32364fb5c867e6c065113b4997e8.jpg,,
5572571,Molekular und Zellbiologie,,,,P.v. Sengbusch,1979,1,Springer,,688,0,English,Биология,mexmat,28,"9783540094548,3540094547",,,,,,,,,OL12771334M,,0,,,,,,,,20141888,djvu,FEE886D499714AE836E716F6D65CD0D1,,,DVD-028/von_Sengbusch_P._Molekular_und_Zellbiologie_(1979)(en)(671s).djvu,0,2000-01-01 01:00:00,2016-04-03 02:51:08,29000/fee886d499714ae836e716f6d65cd0d1.jpg,,
5572570,Check Point NG VPN-1/Firewall-1: Advanced Configuration and Troubleshooting,,,,"Allen V. Keele, Daniel Kligerman, Drew Simonis, Corey Pincock, Cherie Amon",2002,1,Syngress,,641,0,English,Компьютеры//Системное администрирование,mexmat,20,"9781928994749,1928994741,1931836701,1931836876,1931836973",,,,,005.8,QA76.9.A25 C44 2002,,,OL24942317M,,0,,,,,,,T,9636187,pdf,FED84B3A9C523DCC8BFBAE9C17CB68EC,,,"DVD-020/Stiefel_B.J.,_Maxwell_D.,_Hourihan_K.X._Check_Point_NG_VPN-1[s]Firewall-1[c]_Advanced_Configuration_and_Troubleshooting_(2003)(en)(600s).pdf",0,2000-01-01 01:00:00,2016-04-03 02:51:08,29000/fed84b3a9c523dcc8bfbae9c17cb68ec.jpg,,
5572569,Principles of Communication Systems Simulation with Wireless Applications,,,,"William H. Tranter, K. Sam Shanmugan, Theodore S. Rappaport, Kurt L. Kosbar",2004,,Prentice Hall PTR,,800,0,English,Техника//Электроника//Телекоммуникации,mexmat,24,"9780134947907,0-13-494790-8",,,,,621.382011,,,,OL22035544M,,0,,,,,,,T,8186843,pdf,FE802264441E002B2B133E62991EF87C,,,"DVD-024/Tranter_W.H.,_Shanmugan_K.S.,_Rappaport_Th.S._Principles_of_Communication_Systems_Simulation_with_Wireless_Applications_(2004)(en)(778s).pdf",0,2000-01-01 01:00:00,2016-04-03 02:51:08,29000/fe802264441e002b2b133e62991ef87c-d.jpg,,
5572568,The numerical solution of algebraic equations,,,,R. Wait,1979,,John Wiley & Sons Ltd,,84,0,English,Математика,mexmat,1,"9780471997559,0471997552",,,,,519.4,QA218 .W34,,,OL4733109M,,0,,,,,,,,991710,djvu,FE4603FBB7A62D81A302B4F54776D5AD,,,DVD-001/Wait_R._The_numerical_solution_of_algebraic_equations_(1979)(en)(158s).djvu,0,2000-01-01 01:00:00,2016-04-03 02:51:08,29000/fe4603fbb7a62d81a302b4f54776d5ad.jpg,,
5572567,Oracle Internet Directory Application Developer's Guide,,,,Smith R.,2001,release 9.0.1,,,262,0,English,Компьютеры//Сети//Интернет,mexmat,19,,,,,,,,,,,Part No. A90152-01,0,,,,,,,,1498808,pdf,FD9988B474636928A5997267C8D86895,,,DVD-019/Smith_R._Oracle_Internet_Directory_Application_Developer[ap]s_Guide_(Part_No._A90152-01)_(2001)(release_9.0.1)(en)(262s).pdf,0,2000-01-01 01:00:00,2016-04-03 02:51:08,29000/fd9988b474636928a5997267c8d86895.jpg,,
5572566,SQL for Dummies,,,,Allen G. Taylor,2003,5,For Dummies,,435,0,English,Образование,mexmat,19,0764540750,,,,,,,,,,,0,,,,,,,T,6204354,pdf,FD94CD3DCB40080E3C8A97DFE0F9401F,,,DVD-019/Taylor_A.G._SQL_for_Dummies_(2003)(5th)(en)(432s).pdf,0,2000-01-01 01:00:00,2016-04-03 02:51:08,29000/fd94cd3dcb40080e3c8a97dfe0f9401f.jpg,,
5572565,Semiconductor Nanostructures for Optoelectronic Applications,,Artech House Semiconductor Materials and Devices Library,,Todd D. Steiner,2004,,Artech House Publishers,,436,0,English,Техника//Нанотехнологии,mexmat,4,"1580537510,9781580537513,9781580537520",,,,,621.3815/2,TK7871.85 .S4298 2004,,,OL22594940M,,0,,,,,1,,T,8084508,pdf,FD5492681506977C63D3E072E05040AA,,,DVD-004/Steiner_T._Semiconductor_Nanostructures_for_Optoelectronic_Applications_(2004)(en)(412s).pdf,0,2000-01-01 01:00:00,2016-04-03 02:51:08,29000/fd5492681506977c63d3e072e05040aa-d.jpg,,
5572564,Pattern recognition,,,,"Sergios Theodoridis, Konstantinos Koutroumbas",2003,2,Elsevier - Academic Press,,710,0,English,Компьютеры//Алгоритмы и структуры данных//Распознавание образов,mexmat,9,"0126858756,9780126858754",,,,,006.4,TK7882.P3 T46 2003,,,OL21486082M,,0,,,,,,,T,7216870,djvu,FD467F57AC1FE466A4154B97CFDE773A,,,"DVD-009/Theodoridis_S.,_Koutroumbas_K._Pattern_recognition_(2003)(2nd_ed.)(en)(689s).djvu",0,2000-01-01 01:00:00,2016-04-03 02:51:08,29000/fd467f57ac1fe466a4154b97cfde773a-d.jpg,,
5572563,Network Security Foundations,,,,Matthew Strebe,2004,,Sybex,,333,0,English,Компьютеры//Сети,mexmat,11,"9780782143744,0782143741",,,,,005.8,TK5105.59 .S7677 2004,,,OL3315422M,,0,,,,,,,T,5804248,pdf,FC1CD38A12D77A697354683A1FC7ED38,,,DVD-011/Strebe_M._Network_Security_Foundations_(2004)(en)(315s).pdf,0,2000-01-01 01:00:00,2016-04-03 02:51:08,29000/fc1cd38a12d77a697354683a1fc7ed38-d.jpg,,
5572562,An Introduction to Computational Biochemistry,,,,C. Stan Tsai,2002,1st,Wiley-Liss,,371,0,English,Математика//Вычислительная математика,mexmat,22,"9780471401209,0-471-40120-X",,,,,,,,,OL7616671M,,0,,,,,,,,9082865,pdf,FC12DBC96210FC7BADBC39FF6DFCB59F,,,DVD-022/Tsai_C.S._An_Introduction_to_Computational_Biochemistry_(2002)(en)(368s).pdf,0,2000-01-01 01:00:00,2016-04-03 02:51:08,29000/fc12dbc96210fc7badbc39ff6dfcb59f-d.jpg,,
5572561,Understanding Cellular Radio,,Artech House Telecommunications Library,,William Webb,1998,,Artech House,,281,0,English,Техника//Электроника//Радио,mexmat,24,"9780890069943,0-89006-994-8",,,,,621.3845/6,TK6570.M6 W43 1998,,,OL343976M,,0,,,,,,,T,749294,pdf,FC07332CF7A95C046C2A755D75D78523,,,DVD-024/Webb_W._Understanding_Cellular_Radio_(1998)(en)(283s).pdf,0,2000-01-01 01:00:00,2016-04-03 02:51:08,29000/fc07332cf7a95c046c2a755d75d78523-d.jpg,,
5572560,Gene Therapy: Therapeutic Mechanisms and Strategies,,,,Danilo D. Lasic,2000,1st,CRC Press,,602,0,English,Медицина//Терапия,mexmat,34,0824776658,,,,,,,,,,,0,,,,,,,T,146104179,pdf,FAD77C26316E0BFB3C58709FD9D165D3,,,"DVD-034/Templeton_N.,_Lasic_D._Gene_Therapy[c]_Therapeutic_Mechanisms_and_Strategies_(2000)(en)(584s).pdf",0,2000-01-01 01:00:00,2016-04-03 02:51:08,29000/fad77c26316e0bfb3c58709fd9d165d3.jpg,,
5572559,Web Copy That Sells: The Revolutionary Formula for Creating Killer Copy Every Time,,,,Maria Veloso,2004,1st,AMACOM,,240,0,English,Компьютеры//Сети//Интернет,mexmat,13,"9780814472491,0814472494",,,,,,,,,OL8043312M,,0,,,,,,,,2109485,pdf,FAD0A8A9C21C1C2FBF4B542E113E3270,,,DVD-013/Veloso_M._Web_Copy_That_Sells[c]_The_Revolutionary_Formula_for_Creating_Killer_Copy_Every_Time_(2005)(en)(217s).pdf,0,2000-01-01 01:00:00,2016-04-03 02:51:08,29000/fad0a8a9c21c1c2fbf4b542e113e3270-d.jpg,,
5572558,PC Recording Studios For Dummies,,,,Jeff Strong,2005,,For Dummies,,409,0,English,,mexmat,18,"9780764577079,0764577077",,,,,006.5,,,,OL18392932M,,0,,,,,,,1,9752565,pdf,FACDA32D8B4427BE467E1FC46E6D5FA8,,,DVD-018/Strong_J._PC_Recording_Studios_For_Dummies_(2005)(en)(386s).pdf,0,2000-01-01 01:00:00,2016-04-03 02:51:08,29000/facda32d8b4427be467e1fc46e6d5fa8-d.jpg,,
5572557,A First Course in Turbulence,,,,"H. Tennekes, J. L. Lumley",1972,,The MIT Press,,310,0,English,Математика//Вычислительная математика,mexmat,1,"9780262200196,0262200198",,,,,532/.0527,QA913 .T44,,,OL4583812M,,0,,,,,,,,2916343,djvu,F9B4B14CA3D90A8E544CE9FE3D5FCA56,,,"DVD-001/Tennekes_H.,_Lumley_J._L._A_First_Course_in_Turbulence_(1972)(en)(300s).djvu",0,2000-01-01 01:00:00,2016-04-03 02:51:08,29000/f9b4b14ca3d90a8e544ce9fe3d5fca56-d.jpg,,
5572556,Syngress IT Security Project Management Handbook,,,,Christian Lahti,2005,1,Syngress,,641,0,English,Бизнес//Менеджмент//Управление проектами,mexmat,22,"1597490369,1597490377,1597490482,1597490768",,,,,658.4038,,,,OL21700815M,,0,,,,,,,T,8179023,pdf,F99A74B71601CBFCE7B8210E164E1832,,,"DVD-022/Snedaker_S.,_Rogers_R._Syngress_IT_Security_Project_Management_Handbook_(2006)(en)(612s).pdf",0,2000-01-01 01:00:00,2016-04-03 02:51:08,29000/f99a74b71601cbfce7b8210e164e1832.jpg,,
5572555,Finding Patterns in Three-Dimensional Graphs: Algorithms and Applications to Scientific Data Mining,,,,"Wang X., Wang J.T.L., Shasha D.",2002,,,,19,0,English,Математика//Теория графов,mexmat,17,,,,,,,,,,,,0,,,,,,,,575245,pdf,F980CB871EC5341DFF37DD31908E114C,,,"DVD-017/Wang_X.,_Wang_J.T.L.,_Shasha_D._Finding_Patterns_in_Three-Dimensional_Graphs[c]_Algorithms_and_Applications_to_Scientifi[...]ining_(2002)(en)(19s).pdf",0,2000-01-01 01:00:00,2016-04-03 02:51:08,29000/f980cb871ec5341dff37dd31908e114c.jpg,,
5572554,Vogel's Textbook Of Macro And SemiMicro Qualitative Inorganic Analysis,,,,Arthur Israel Vogel,1979,5th,Longman,,617,0,English,Химия//Неорганическая химия,mexmat,26,"9780582443679,0582443679",,,,,544,QD81 .V6 1979,,,OL4541505M,,0,,,,,,,,4697470,pdf,F93497C097DF03BCE57AC52BDC191146,,,"DVD-026/Vogel_A.I.,_Svehla_G._Vogel[ap]s_Textbook_Of_Macro_And_SemiMicro_Qualitative_Inorganic_Analysis_(1979)(5-th)(en)(605s).pdf",0,2000-01-01 01:00:00,2016-04-03 02:51:08,29000/f93497c097df03bce57ac52bdc191146.jpg,,
5572553,Oracle Syndication Server. User's and Administrator's Guide,,,,"Srivastava A., Han C., Lin P.",2001,release 9.0.1,,,78,0,English,Компьютеры//Системное администрирование,mexmat,19,,,,,,,,,,,Part No. A88787-01,0,,,,,,,,467705,pdf,F8E0E1F57F5217C8052EF1C260D8CFCE,,,"DVD-019/Srivastava_A.,_Han_C.,_Lin_P._Oracle_Syndication_Server._User[ap]s_and_Administrator[ap]s_Guide_(Part_No._A88787-01)_(2001)(release_9.0.1)(en)(78s).pdf",0,2000-01-01 01:00:00,2016-04-03 02:51:08,29000/f8e0e1f57f5217c8052ef1c260d8cfce.jpg,,
5572552,Tutorial: XML programming in Java,,,,Tidwell D.,1999,,,,59,0,English,Компьютеры//Программирование//Языки программирования,mexmat,33,,,,,,,,,,,,0,,,,,,,,544077,pdf,F8A347A6036B915BAB421E4D61629AAB,,,DVD-033/Tidwell_D._Tutorial[c]_XML_programming_in_Java_(1999)(en)(59s).pdf,0,2000-01-01 01:00:00,2016-04-03 02:51:08,29000/f8a347a6036b915bab421e4d61629aab.jpg,,
5572551,Topology lecture notes,,,,Ward T.,2001,,,,88,0,English,Математика//Геометрия и топология,mexmat,5,,,,,,,,,,,,0,,,,,,,T,630112,pdf,F88BF66987CA3CC95954879960FE925A,,,DVD-005/Ward_T._Topology_lecture_notes_(2001)(en)(86s).pdf,0,2000-01-01 01:00:00,2016-04-03 02:51:08,29000/f88bf66987ca3cc95954879960fe925a.jpg,,
5572550,Tribology in Machine Design,,,,Tadeusz Stolarski,2000,2nd,Butterworth-Heinemann,,311,0,English,Техника,mexmat,31,"9780750636230,0-7506-3623-8",,,,,,,,,OL7971926M,,0,,,,,,,T,8247135,pdf,F7D08E4317A655ADDE58CD7147AE24FF,,,DVD-031/Stolarski_T.A._Tribology_in_Machine_Design_(1990)(en)(298s).pdf,0,2000-01-01 01:00:00,2016-04-03 02:51:08,29000/f7d08e4317a655adde58cd7147ae24ff-d.jpg,,
5572549,Essential LaTeX,,,,Warbrick J.,2002,,,,16,0,English,"Компьютеры//Программы//TeX, LaTeX",mexmat,2,,,,,,,,,,,,0,,,,,,,,182160,pdf,F76DEA73085FFD9506C07A40D512AFD4,,,DVD-002/Warbrick_J._Essential_LaTeX_(2002)(en)(16s).pdf,0,2000-01-01 01:00:00,2016-04-03 02:51:08,29000/f76dea73085ffd9506c07a40d512afd4.jpg,,
5572548,Microsoft Encyclopedia of Security,,,,Mitch Tulloch,2003,1,Microsoft Press,,444,0,English,Компьютеры//Программирование,mexmat,13,"0735618771,9780735618770",,,,,,,,,OL7891048M,,0,,,,,1,,,10961576,pdf,F71F6D471781616C4C348F12DD6E7897,,,DVD-013/Tulloch_M._Microsoft_Encyclopedia_of_Security_(2003)(en)(415s).pdf,0,2000-01-01 01:00:00,2016-04-03 02:51:08,29000/f71f6d471781616c4c348f12dd6e7897-d.jpg,,
5572547,Electromagnetic Theory ,,Pure & Applied Physics,,Julius Adams Stratton,1941,1st,McGraw-Hill Companies,,631,0,English,Физика//Электричество и магнетизм,mexmat,8,"0070621500,9780070621503",,,,,,,,,OL9799075M,,0,,,,,,,,5603833,djvu,F6D0D90C0B09E20C0472411AF08F216A,,,DVD-008/Stratton_J.A._Electromagnetic_Theory_(1941)(en)(615s).djvu,0,2000-01-01 01:00:00,2016-04-03 02:51:08,29000/f6d0d90c0b09e20c0472411af08f216a-d.jpg,,
5572546,Gene Expression in Recombinant Microorganisms,,Biotechnology and Bioprocessing,,Alan Smith,1994,1,CRC Press,,427,0,English,,mexmat,34,"9780824795436,0824795431",,,,,660/.65,QH434 .G44 1995,,,OL1110019M,,0,,,,,,,T,72820485,pdf,F681D3E6370FB76D8420AD9317AF78C4,,,DVD-034/Smith_A._Gene_Expression_in_Recombinant_Microorganisms_(1994)(en)(432s).pdf,0,2000-01-01 01:00:00,2016-04-03 02:51:08,29000/f681d3e6370fb76d8420ad9317af78c4-d.jpg,,
5572545,Encyclopedia of Mental Disorders. A-L,Volume 1,,,"Ellen Thackery, Madeline Harris",2002,1,Thomson Gale,,587,0,English,Образование//Энциклопедии,mexmat,22,0-7876-5768-9,,,,,,,,,OL15543206M,,0,,,,,,,,6611683,pdf,F6325554E17DD67ABB6D3BC3B78DD95D,,,"DVD-022/Thackery_E.,_Harris_M._Encyclopedia_of_Mental_Disorders_(vol.1_A-L)_(2002)(en)(557s).pdf",0,2000-01-01 01:00:00,2016-04-03 02:51:08,29000/f6325554e17dd67abb6d3bc3b78dd95d-d.jpg,,
5572544,"Education, Arts, and Morality: Creative Journeys",,,,Wallace D.B.,2005,,,,187,0,English,Образование,mexmat,17,0306486717,,,,,,,,,,,0,,,,,,,T,1125519,pdf,F5F6A0F23F6A59151DEAA365444A57D4,,,"DVD-017/Wallace_D.B._Education,_Arts,_and_Morality[c]_Creative_Journeys_(2005)(en)(174s).pdf",0,2000-01-01 01:00:00,2016-04-03 02:51:08,29000/f5f6a0f23f6a59151deaa365444a57d4.jpg,,
5572543,Data Mining As A Financial Auditing Tool,,,,Sirikulvadhana S.,2002,,,,140,0,English,Компьютеры//Организация и обработка данных,mexmat,15,,,,,,,,,,,,0,,,,,,,T,2081474,pdf,F5EB46FE3A605BA1FC19E1CD988B1515,,,DVD-015/Sirikulvadhana_S._Data_Mining_As_A_Financial_Auditing_Tool_(2002)(en)(134s).pdf,0,2000-01-01 01:00:00,2016-04-03 02:51:08,29000/f5eb46fe3a605ba1fc19e1cd988b1515.jpg,,
5572541,Elite Trader's Secrets,,,,Swannell R.,2003,,,,83,0,English,,mexmat,22,,,,,,,,,,,,0,,,,,,,,543215,pdf,F564883D4A08C5CB25E9EBB191F798B2,,,DVD-022/Swannell_R._Elite_Trader[ap]s_Secrets_(2003)(en)(83s).pdf,0,2000-01-01 01:00:00,2016-04-03 02:51:08,29000/f564883d4a08c5cb25e9ebb191f798b2.jpg,,
5572542,Modern Physical Metallurgy and Materials Engineering,,,,"R. E. Smallman, R J Bishop",1999,6,Butterworth-Heinemann,,450,0,English,Техника,mexmat,30,"9780750645645,0-7506-4564-4",,,,,669/.9,TN690 .S56 1999,,,OL43712M,,0,,,,,,,T,9020378,pdf,F584CFE11637DB8D3DA19FB96347B2D8,,,"DVD-030/Smallman_R.E.,_Bishop_R.J._Modern_Physical_Metallurgy_and_Materials_Engineering_(1999)(en)(438s).pdf",0,2000-01-01 01:00:00,2016-04-03 02:51:08,29000/f584cfe11637db8d3da19fb96347b2d8-d.jpg,,
5572540,Justice matters,,,,Mona Sue Weissmark,2004,1,"Oxford University Press, USA",,210,0,English,История,mexmat,12,"9780195157574,0195157575",,,,,,,,,OL7390367M,,0,,,,,,,T,1250357,pdf,F4E3F7EF1687074D2E5C73A54F362725,,,DVD-012/Weissmark_M.S._Justice_matters_(2004)(en)(198s).pdf,0,2000-01-01 01:00:00,2016-04-03 02:51:08,29000/f4e3f7ef1687074d2e5c73a54f362725-d.jpg,,
5572538,Projectively dual varieties,,,,Tevelev E.,2001,,,,195,0,English,Математика//Алгебра,mexmat,1,,,,,,,,,,,,0,,,,,,,,1184322,pdf,F42256AB3BA84F5B9CF31C698FBE316B,,,DVD-001/Tevelev_E._Projectively_dual_varieties_(2001)(en)(189s).pdf,0,2000-01-01 01:00:00,2016-04-03 02:51:08,29000/f42256ab3ba84f5b9cf31c698fbe316b.jpg,,
5572539,CMOS Integrated Analog-to-Digital and Digital-to-Analog Converters,,The Springer International Series in Engineering and Computer Science ,,Rudy J. van de Plassche,2003,2nd,Springer,,312,0,English,Техника//Электроника//СБИС,mexmat,29,"1402075006,9781402075001",,,,,621.39/814,TK7887.6 .P645 2003,,,OL3687692M,,0,,,,,1,,,23049021,pdf,F4271251EF8BD16C7F73472926F282F4,,,DVD-029/van_de_Plassche_R.J._CMOS_Integrated_Analog-to-Digital_and_Digital-to-Analog_Converters_(2003)(2nd)(en)(640s).pdf,0,2000-01-01 01:00:00,2016-04-03 02:51:08,29000/f4271251ef8bd16c7f73472926f282f4-d.jpg,,
5572537,Framework for Semantic Web Process Composition,,,,"Sivashanmugam K., Miller J.A., Sheth A.P.",2003,,,,42,0,English,Компьютеры//Сети//Интернет,mexmat,13,,,,,,,,,,,,0,,,,,,,,387000,pdf,F3387D58FDD81A786DA5A23060ECE4A8,,,"DVD-013/Sivashanmugam_K.,_Miller_J.A.,_Sheth_A.P._Framework_for_Semantic_Web_Process_Composition_(2003)(en)(42s).pdf",0,2000-01-01 01:00:00,2016-04-03 02:51:08,29000/f3387d58fdd81a786da5a23060ece4a8.jpg,,
5572536,Hierarchische Optimierung von Beschaufelungen Hydraulischer Maschinen,,,,Wöhler M.,1999,,,,151,0,German,Математика//Оптимизация. Исследование операций.,mexmat,18,,,,,,,,,,,,0,,,,,,,T,5605699,pdf,F32E3318B228B9873D98749F880FCD0D,,,DVD-018/W&#246;hler_M._Hierarchische_Optimierung_von_Beschaufelungen_Hydraulischer_Maschinen_(1999)(de)(131s).pdf,0,2000-01-01 01:00:00,2016-04-03 02:51:08,29000/f32e3318b228b9873d98749f880fcd0d.jpg,,
5572535,Valuing Ecosystem Services: Toward Better Environmental Decision-making,,,,"Committee on Assessing and Valuing the the Services of Aquatic and Related Terrestrial Ecosystems, National Research Council",2005,,National Academies Press,,290,0,English,Биология//Экология,mexmat,14,"9780309093187,030909318X",,,,,333.95,QH541.5.W3 V35 2005,,,OL3480391M,,0,,,,,,,T,2756639,pdf,F31E59081AE92D2EA43395848D8D6CC0,,,DVD-014/Staff_of_National_Research_Council_Valuing_Ecosystem_Services[c]_Toward_Better_Environmental_Decision-making_(2005)(en)(277s).pdf,0,2000-01-01 01:00:00,2016-04-03 02:51:08,29000/f31e59081ae92d2ea43395848d8d6cc0-d.jpg,,
5572534,"Biological Nanostructures and Applications of Nanostructures in Biology Electrical, Mechanical, and Optical Properties",,,,"Stroscio M.A., Dutta M. (eds.)",2004,,,,193,0,English,Техника//Электроника//Электротехника,mexmat,12,0306486288,,,,,,,,,,,0,,,,,,,T,5534652,pdf,F2918BF866977436354555B7617EDD9B,,,"DVD-012/Stroscio_M.A.,_Dutta_M._(eds.)_Biological_Nanostructures_and_Applications_of_Nanostructures_in_Biology_Electrical,_Mec[...]rties_(2004)(en)(178s).pdf",0,2000-01-01 01:00:00,2016-04-03 02:51:08,29000/f2918bf866977436354555b7617edd9b.jpg,,
5572533,Tensors and Manifolds: with Applications to Mechanics and Relativity ,,,,Robert H. Wasserman,1992,,"Oxford University Press, USA",,395,0,English,Математика,mexmat,1,"0195065611,9780195065619,9780585356990",,,,,530.1/5563,QC20.7.C28 W37 1992,,,OL1540630M,,0,,,,,1,,T,3706285,djvu,F1FEE08B14DD2CDE4032D4A3C8937AB8,,,DVD-001/Wasserman_R.H._Tensors_and_Manifolds_with_Applications_to_Mechanics_and_Relativity_(1992)(en)(391s).djv,0,2000-01-01 01:00:00,2016-04-03 02:51:08,29000/f1fee08b14dd2cde4032d4a3c8937ab8-d.jpg,,
5572532,Diagnostic Virology Protocols,,Methods in Molecular Medicine ,,"John R. Stephenson, Alan Warnes",2010,1st Edition.,Humana Press,,366,0,English,Медицина,mexmat,29,"9781617370502,1617370509",,,,,,,,,,,0,,,,,,,,24435062,pdf,F1D3E018BAAC7524396EEB82EFB202B9,,,"DVD-029/Stephenson_J.R.,_Warnes_A._Diagnostic_Virology_Protocols_(1998)(en)(372s).pdf",0,2000-01-01 01:00:00,2016-04-03 02:51:08,29000/f1d3e018baac7524396eeb82efb202b9-d.jpg,,
5572531,Calcium-Binding Protein Protocols: Reviews and Case Studies,Volume 1,Methods in Molecular Biology 172,,Hans J. Vogel,2001,1st,Humana Press,,357,0,English,Биология//Биотехнология,mexmat,22,"9780896036888,0-89603-688-X",,,,,,,,,OL17033081M,,0,,,,,,,,4219444,pdf,F14BE6981EA9EABB62C72ED5A59CDFDA,,,DVD-022/Vogel_H.J._(ed.)_Calcium-Binding_Protein_Protocols[c]_Reviews_and_Case_Studies_(vol._1)_(2002)(en)(334s).pdf,0,2000-01-01 01:00:00,2016-04-03 02:51:08,29000/f14be6981ea9eabb62c72ed5a59cdfda-d.jpg,,
5572530,Nuclear and Particle Physics,,,,Walet N.,2001,,,,78,0,English,Физика,mexmat,22,,,,,,,,,,,,0,,,,,,,,2888673,pdf,F0FC9F081767074646574CA1B48486C9,,,DVD-022/Walet_N._Nuclear_and_Particle_Physics_(2001)(en)(1999s).pdf,0,2000-01-01 01:00:00,2016-04-03 02:51:08,29000/f0fc9f081767074646574ca1b48486c9.jpg,,
5572529,Time Power,,,,Brian Tracy,2004,1st,AMACOM,,370,0,English,Образование,mexmat,15,"9780814427859,9780814472477,9780814474709,0814472478,0814474705",,,,,,,,,OL8043310M,,0,,,,,1,,T,698980,pdf,F0E355C7EE584C755734D3680FB96447,,,DVD-015/Tracy_B._Time_Power_(2004)(en)(370s).pdf,0,2000-01-01 01:00:00,2016-04-03 02:51:08,29000/f0e355c7ee584c755734d3680fb96447-d.jpg,,
5572528,Beginning Ubuntu Linux: From Novice to Professional,,"Beginning, from Novice to Professional ",,Keir Thomas,2006,,Apress,,608,0,English,Образование,mexmat,20,"1590596277,9781590596272",,,,,,,,,OL8848857M,,0,,,,,1,,T,25536947,pdf,F071E9E1E469DC3066F89217B9A6872B,,,DVD-020/Thomas_K._Beginning_Ubuntu_Linux[c]_From_Novice_to_Professional_(2006)(en)(608s).pdf,0,2000-01-01 01:00:00,2016-04-03 02:51:08,29000/f071e9e1e469dc3066f89217b9a6872b-d.jpg,,
5572527,Modern Applied Statistics with S ,,Statistics and Computing  ,,"W.N. Venables, B.D. Ripley",2002,4th,Springer,,504,0,English,Математика//Математическая статистика,mexmat,22,"0387954570,9780387954578",,B0042NJY80,,,005.369,QA276.4 .V46 2002,,974c4vKurNkC,OL3559909M,,0,,,,0,0,,1,3106351,pdf,F0200DDCEBE5822B7C39BBBA4FB98DD6,,,"DVD-022/Venables_W.N.,_Ripley_B.D._Modern_Applied_Statistics_with_S_(2002)(4th_ed.)(en)(495s).pdf",0,2000-01-01 01:00:00,2016-04-03 02:51:08,29000/f0200ddcebe5822b7c39bbba4fb98dd6-d.jpg,,
5572526,Principles of database systems,,Computer software engineering series,,Jeffrey D. Ullman,1982,2,Computer Science Press,,498,0,English,Компьютеры//Организация и обработка данных,mexmat,10,"0716780690,9780716780694",,,,,001.64,QA76.9.D3 U44 1983,,,OL3483083M,,0,,,,,1,,T,32488835,djvu,EFE02975FDE04AFFEC2E44911ECE64F1,,,DVD-010/Ullman_J.D._Principles_of_database_systems_(1982)(2nd_ed.)(en)(484s).djvu,0,2000-01-01 01:00:00,2016-04-03 02:51:08,29000/efe02975fde04affec2e44911ece64f1-d.jpg,,
5572525,Basic Protein and Peptide Protocols,,Methods in Molecular Biology ,,John M. Walker,1994,1,Humana Press,,482,0,English,Биология//Биотехнология,mexmat,29,"9780896032699,0896032698",,,,,574.19/245,QP551 .B268 1994,,zresQgAACAAJ,OL1436666M,,0,,,,0,1,,1,28586503,pdf,EFD2A1C36728EDD127A8FA270EC4E5E6,,,DVD-029/Walker_J.M._Basic_Protein_and_Peptide_Protocols_(1994)(en)(512s).pdf,0,2000-01-01 01:00:00,2016-04-03 02:51:08,29000/efd2a1c36728edd127a8fa270ec4e5e6-d.jpg,,
5572524,Car Hacks and Mods for Dummies,,,,David Vespremi,2004,,For Dummies,,387,0,English,Образование,mexmat,15,"0764571427,9780764571428",,,,,629.2872,TL255.2 .V37 2004,,,OL3314256M,,0,,,,,,,T,5431242,pdf,EF50D23ECEEA8EA1C61CCB1A20422B56,,,DVD-015/Vespermi_D._Car_Hacks_and_Mods_for_Dummies_(2004)(en)(356s).pdf,0,2000-01-01 01:00:00,2016-04-03 02:51:08,29000/ef50d23eceea8ea1c61ccb1a20422b56-d.jpg,,
5572523,Dreamweaver MX 2004 Solutions,,,,"Ethan Watrall, Sybex",2004,,Sybex,,446,0,English,Компьютеры//Программы//Продукты Macromedia,mexmat,29,"9780782142990,0782142990",,,,,"006.7/8,005.72",TK5105.8885.D74 W39 2004,,,OL24205663M,,0,,,,,,,,15208703,pdf,EED11B7816CE7FF724E6D1995BBDC91D,,,DVD-029/Watrall_E._Dreamweaver_MX_2004_Solutions_(2004)(en)(446s).pdf,0,2000-01-01 01:00:00,2016-04-03 02:51:08,29000/eed11b7816ce7ff724e6d1995bbdc91d-d.jpg,,
5572522,Lecture Notes on Elementary Topology and Geometry,,,,"I.M & Thorpe, John A Singer",1967,,"Scott, Foreman and Comapny",,217,0,English,Математика//Геометрия и топология,mexmat,34,,,B000NPSRVG,,,,,,,,,0,,,,,,,,1291774,djvu,EE44D1794C553C43BDA69A2649855831,,,"DVD-034/Singer_I.M.,_Thorpe_J.A._Lecture_Notes_on_Elementary_Topology_and_Geometry_(1967)(en)(217s).djvu",0,2000-01-01 01:00:00,2016-04-03 02:51:08,29000/ee44d1794c553c43bda69a2649855831.jpg,,
5572521,4-1BB,,,,"Vinay D.S., Kwon B.S.",2006,,,,6,0,English,,mexmat,22,,,,,,,,,,,,0,,,,,,,,107487,pdf,EE347DBEABCAD3E8B21C3A972751C098,,,"DVD-022/Vinay_D.S.,_Kwon_B.S._4-1BB_(2006)(en)(6s).pdf",0,2000-01-01 01:00:00,2016-04-03 02:51:08,29000/ee347dbeabcad3e8b21c3a972751c098.jpg,,
5572520,The Gale Encyclopedia of the Unusual and Unexplained,Volume 3,,,"Brad Steiger, Sherry Hansen Steiger",2003,,Gacl,,374,0,English,Образование//Энциклопедии,mexmat,11,"9780787653828,0-7876-5382-9",,,,,,,,,OL8146506M,,0,,,,,,,,6780278,pdf,ED9B6D954D19AD5DC31D565FE89ABEA6,,,"DVD-011/Steiger_B.,_Steiger_S.H._The_Gale_encyclopedia_of_the_unusual_and_unexplained_(vol._3)_(2003)(en)(367s).pdf",0,2000-01-01 01:00:00,2016-04-03 02:51:08,29000/ed9b6d954d19ad5dc31d565fe89abea6-d.jpg,,
5572519,PTSD in Children and Adolescents,,Review of Psychiatry,,"Jerald Kay, Viven K. Burt, Spencer Eth, Spencer Eth, Katharine A. Phillips",2001,2nd,"American Psychiatric Publishing, Inc.",,200,0,English,,mexmat,22,"9781585620265,1-58562-026-2",,,,,,,,,OL17020217M,,0,,,,,,,T,1458259,pdf,ED8C8F59ED87F1D02719A8FBAD61BECB,,,DVD-022/Spencer_M.D._Eth_PTSD_in_Children_and_Adolescents_(2001)(en)(208s).pdf,0,2000-01-01 01:00:00,2016-04-03 02:51:08,29000/ed8c8f59ed87f1d02719a8fbad61becb-d.jpg,,
5572518,Running IPv6,,,,Iljitsch van Beijnum,2005,1,Apress,,289,0,English,Компьютеры//Сети,mexmat,21,"9781590595275,1590595270",,,,,004.6/2,TK5105.585 .B45 2005,,,OL3415428M,,0,,,,,,,,3811935,pdf,ED29F69834A86DBE59EA5ABCCB3D5348,,,DVD-021/van_Beijnum_I._Running_IPv6_(2005)(en)(288s).pdf,0,2000-01-01 01:00:00,2016-04-03 02:51:08,29000/ed29f69834a86dbe59ea5abccb3d5348-d.jpg,,
5572517,Applied Nonparametric Statistical Methods,,Chapman & Hall/CRC Texts in Statistical Science ,,"Peter Sprent, Nigel C. Smeeton",2001,3,,,463,0,English,Математика//Вероятность,mexmat,15,"9781584881452,1-58488-145-3",,,,,519.5/4,QA278.8 .S74 2000,,,OL6791664M,,0,,,,,,,,7435544,pdf,ECFB5C17D45F33892F12F39084DACDB9,,,"DVD-015/Sprent_P.,_Smeeton_N.C._Applied_Nonparametric_Statistical_Methods_(2001)(3rd_ed.)(en)(455s).pdf",0,2000-01-01 01:00:00,2016-04-03 02:51:08,29000/ecfb5c17d45f33892f12f39084dacdb9-d.jpg,,
5572516,Marx. A very short introduction,,,,Peter Singer,2001,,"Oxford University Press, USA",,121,0,English,Общественные науки прочие//Философия,mexmat,12,"9780192854056,0192854054",,,,,335.4/092,B3305.M74 S57 2000,,,OL3966403M,,0,,,,,,,T,1373576,pdf,ECAFBBFB176B4C3CF089BCE70279798A,,,Oxford University Press - Marx - A Very Short Introduction(1).pdf,0,2000-01-01 01:00:00,2016-04-03 02:51:08,29000/ecafbbfb176b4c3cf089bce70279798a-d.jpg,,
5572515,Hacking Windows XP,,ExtremeTech ,,Steve Sinchak,2004,,Wiley,,379,0,English,Компьютеры//Безопасность,mexmat,19,"9780764569296,0764569295",,,,,005.4/46,QA76.76.O63 S56354 2004,,,OL3327446M,,0,,,,,,,,12738930,pdf,EC8937B128620DBCE290594575AA7D94,,,DVD-019/Sinchak_S._Hacking_Windows_XP_(2004)(en)(353s).pdf,0,2000-01-01 01:00:00,2016-04-03 02:51:08,29000/ec8937b128620dbce290594575aa7d94-d.jpg,,
5572514,Intelligent tutoring systems,,Computers and People Series,,Author Unknown,1982,,Academic Press,,356,0,English,Биология//Биохимия,mexmat,10,"0126486808,9780126486803",,,,,371.3/9445,LB1028.5 .I55 1982,,,OL3084146M,,0,,,,,1,,T,32238497,djvu,EC4D0976EF08DA26494BCC6CF6198A60,,,"DVD-010/Sleeman_D.,_Brown_J.S._Intelligent_tutoring_systems_(1988)(en)(345s).djvu",0,2000-01-01 01:00:00,2016-04-03 02:51:08,29000/ec4d0976ef08da26494bcc6cf6198a60.jpg,,
5572513,Algorithmic Introduction to Coding Theory,,,,Sudan M.,2001,,,,154,0,English,Компьютеры//Алгоритмы и структуры данных,mexmat,15,,,,,,,,,,,,0,,,,,,,,1668835,pdf,EC2D4EDDF2E657D5187490447CEE1B5B,,,DVD-015/Sudan_M._Algorithmic_Introduction_to_Coding_Theory_(2001)(en)(154s).pdf,0,2000-01-01 01:00:00,2016-04-03 02:51:08,29000/ec2d4eddf2e657d5187490447cee1b5b.jpg,,
5572512,Advances and Applications of DSmT for Information Fusion,,Collected Works,,"Florentin Smarandache, Jean Dezert",2004,,American Research Press,,438,0,English,,mexmat,28,"9781931233828,1931233829",,,,,005.1,QA76.9.A43 A356 2004,,,OL3437880M,,0,,,,,,,,5703471,pdf,EBAD2696567692E7E6744EF1C8F39E06,,,"DVD-028/Smarandache_F.,_Dezert_J._Advances_and_Applications_of_DSmT_for_Information_Fusion_(2004)(en)(438s).pdf",0,2000-01-01 01:00:00,2016-04-03 02:51:08,29000/ebad2696567692e7e6744ef1c8f39e06.jpg,,
5572511,Ant: The Definitive Guide,,,,"Jesse Tilly, Eric M. Burke",2002,1,O'Reilly Media,,316,0,English,,mexmat,24,"0596001843,9780596001841",,,,,,,,,OL7580931M,,0,,,,,1,,,3004894,pdf,EB72547084E1A870EDF4E1D8F050A979,,,OReilly-ISBN_0-596-00184-3(2002)ANT-The_Definitive_Guide.pdf,0,2000-01-01 01:00:00,2016-04-03 02:51:08,29000/eb72547084e1a870edf4e1d8f050a979-d.jpg,,
5572510,Implementing the Climate Regime: International Compliance,,,,"Olav Schram Stokke, Jon Hovi, Geir Ulfstein",2005,illustrated edition,Earthscan Publications Ltd.,,243,0,English,"География//Метеорология, Климатология",mexmat,12,"9781844071616,1-84407-161-8",,,,,,,,,OL18222922M,,0,,,,,,,T,1537712,pdf,EB394B0E920CFB5415D7AD1B591E2B03,,,"DVD-012/Stokke_O.S.,_Hovi_J.,_Ulfstein_G._Implementing_the_Climate_Regime[c]_International_Compliance_(2005)(en)(240s).pdf",0,2000-01-01 01:00:00,2016-04-03 02:51:08,29000/eb394b0e920cfb5415d7ad1b591e2b03-d.jpg,,
5572509,Oracle9i Net Services Reference Guide,,,,Steiner D.,2001,release 9.0.1,,,406,0,English,,mexmat,19,,,,,,,,,,,Part No. A90155-01,0,,,,,,,,2384526,pdf,EA5A0D289466683E525AC7A5D0B31FFB,,,DVD-019/Steiner_D._Oracle9i_Net_Services_Reference_Guide_(Part_No._A90155-01)_(2001)(release_9.0.1)(en)(406s).pdf,0,2000-01-01 01:00:00,2016-04-03 02:51:08,29000/ea5a0d289466683e525ac7a5d0b31ffb.jpg,,
5572508,Figure Drawing Without a Model,,,,Ron Tiner,1997,,David & Charles Publishers,,164,0,English,Искусство//Графические виды искусства,mexmat,30,"0715306464,9780715306468",,,,,,,,,OL7831770M,,0,,,,,1,,,73357087,pdf,E9BD8A48EA4965F4CE93BD6486E967CB,,,DVD-030/Tiner_R._Figure_Drawing_Without_a_Model_(2001)(en)(160s).pdf,0,2000-01-01 01:00:00,2016-04-03 02:51:08,29000/e9bd8a48ea4965f4ce93bd6486e967cb-d.jpg,,
5572507,Oracle Data Warehousing and Business Intelligence Solutions,,,,"Robert Stackowiak, Joseph Rayman, Rick Greenwald",2007,,Wiley,,409,0,English,Компьютеры//Организация и обработка данных,mexmat,30,"9780471919216,0471919217",,,,,,,,,OL7630968M,,0,,,,,,,T,12588794,pdf,E9A7C68335CD256BF91741536B061850,,,"DVD-030/Stackowiak_R.,_Rayman_J.,_Greenwald_R._Oracle_Data_Warehousing_and_Business_Intelligence_Solutions_(2007)(en)(386s).pdf",0,2000-01-01 01:00:00,2016-04-03 02:51:08,29000/e9a7c68335cd256bf91741536b061850-d.jpg,,
5572505,Newnes PC Troubleshooting Pocket Book,,Newnes Pocket Books,,Howard Anderson,2004,3,Newnes,,254,0,English,,mexmat,33,0750659882,,,,,,,,,,,0,,,,,,,T,5570075,pdf,E930E1E8992209B2DC4731E5A4F8F062,,,DVD-033/Tooley_M._Newnes_PC_Troubleshooting_Pocket_Book_(2003)(2nd)(en)(232s).pdf,0,2000-01-01 01:00:00,2016-04-03 02:51:08,29000/e930e1e8992209b2dc4731e5a4f8f062.jpg,,
5572506,Fourier Analysis on Finite Groups with Applications in Signal Processing and System Design,,,,"Radomir S. Stankovic, Claudio Moraga, Jaakko Astola",2005,,Wiley-IEEE Press,,263,0,English,"Математика//Вейвлеты,обработка сигналов",mexmat,23,"9780471694632,0471694630",,,,,,,,,OL22632500M,,0,,,,,,,T,12883649,pdf,E94A960C1262D44CCBB056C85A4C4C02,,,"DVD-023/Stankovis_R.S.,_Moraga_C.,_Astola_J.T._Fourier_Analysis_on_Finite_Groups_with_Applications_in_Signal_Processing_and_Sy[...]esign_(2005)(en)(236s).pdf",0,2000-01-01 01:00:00,2016-04-03 02:51:08,29000/e94a960c1262d44ccbb056c85a4c4c02-d.jpg,,
5572504,Introduction to Airborne Radar,,Aerospace & Radar Systems,,George W. Stimson,1998,2,SciTech Publishing,,650,0,English,Физика,mexmat,24,"9781891121012,1-891121-01-4",,,,,623/.7348,TL696.R2 S75 1998,,,OL477349M,,0,,,,,,,,14778327,pdf,E91CDB6B4A14BDDFEEB4E1012BE32C4E,,,DVD-024/Stimson_J.W._Introduction_to_Airborne_Radar_(1998)(2nd_ed.)(en)(592s).pdf,0,2000-01-01 01:00:00,2016-04-03 02:51:08,29000/e91cdb6b4a14bddfeeb4e1012be32c4e-d.jpg,,
5572503,Handbook of lasers,,,,Weber M.J.,2001,,,,1186,0,English,,mexmat,12,,,,,,,,,,,,0,,,,,,,,8393926,pdf,E8DD98777131314CA4EC0CBBF02E9770,,,DVD-012/Weber_M.J._Handbook_of_lasers_(2001)(en)(1224s).pdf,0,2000-01-01 01:00:00,2016-04-03 02:51:08,29000/e8dd98777131314ca4ec0cbbf02e9770.jpg,,
5572502,"Workflow Management: Models, Methods, and Systems",,Cooperative Information Systems,,"Wil van der Aalst, Kees van Hee",2002,1st,The MIT Press,,375,0,English,Бизнес//менеджмент,mexmat,13,"9780262011891,0-262-01189-1",,,,,,,,,OL9684597M,,0,,,,,,,T,9974596,pdf,E8DBF39616AC9957D369E3280AA3622D,,,MIT Press - WorkFlow Management.pdf,0,2000-01-01 01:00:00,2016-04-03 02:51:08,29000/e8dbf39616ac9957d369e3280aa3622d-d.jpg,,
5572501,Differential Forms. A complement to vector calculus,,,,Steven H. Weintraub,1996,,Academic Press,,268,0,English,Математика//Анализ,mexmat,1,"9780127425108,0127425101",,,,,515/.37,QA381 .W45 1997,,,OL965664M,,0,,,,,,,T,2609430,djvu,E8A8E3821394C40554F50AE9BD85DA2C,,,DVD-001/Weintraub_S._Differential_Forms._A_complement_to_vector_calculus_(1997)(en)(256s).djvu,0,2000-01-01 01:00:00,2016-04-03 02:51:08,29000/e8a8e3821394c40554f50ae9bd85da2c-d.jpg,,
5572499,Functional analysis,,,,Teschl G.,2004,,,,44,0,English,Математика//Функциональный анализ,mexmat,2,,,,,,,,,,,,0,,,,,,,T,365102,pdf,E885382212CD5A8ADC3E3A4D80341C1C,,,DVD-002/Teschl_G._Functional_analysis_(2004)(en)(37s).pdf,0,2000-01-01 01:00:00,2016-04-03 02:51:08,29000/e885382212cd5a8adc3e3a4d80341c1c.jpg,,
5572500,Tame topology and O-minimal structures,,London Mathematical Society Lecture Note Series,,L. P. D. van den Dries,1998,,Cambridge University Press,,96,0,English,Математика//Геометрия и топология,mexmat,1,0521598389,,,,,,,,,,,0,,,,,,,,2337243,djvu,E89C455D05DDB0DE577ECB35DBEE6136,,,DVD-001/van_der_Dries_L._Tame_topology_and_O-minimal_structures_(1998)(en)(180s).djvu,0,2000-01-01 01:00:00,2016-04-03 02:51:08,29000/e89c455d05ddb0de577ecb35dbee6136.jpg,,
5572498,UNIX Hints and Hacks,,,,Kirk Waingrow,1999,1st,QUE,,465,0,English,Компьютеры//Безопасность,mexmat,34,"9780789719270,0789719274",,,,,005.4/469,QA76.76.O63 W337 1999,,,OL398840M,,0,,,,,,,,5773078,pdf,E805B4E4A08D22673A7AC51E6558CBAE,,,DVD-034/Waingrow_K._UNIX_Hints_and_Hacks_(1999)(en)(479s).pdf,0,2000-01-01 01:00:00,2016-04-03 02:51:08,29000/e805b4e4a08d22673a7ac51e6558cbae-d.jpg,,
5572497,In Vitro Transcription and Translation Protocols,,Methods in Molecular Biology 037,,Tymms M.J.,1995,,,,422,0,English,,mexmat,35,"9780896032880,0896032884",,,,,574.87/3223,QH442 .I557 1995,,,OL1109121M,,0,,,,,,,,30224103,pdf,E7DB0B325AAA6D6CE8D75FE3ACDAF185,,,DVD-035/Tymms_M.J._In_Vitro_Transcription_and_Translation_Protocols_(1995)(en)(448s).pdf,0,2000-01-01 01:00:00,2016-04-03 02:51:08,29000/e7db0b325aaa6d6ce8d75fe3acdaf185.jpg,,
5572496,Gnomic. A Dictionary of Genetic Codes,,,,"E.N. Trifonov, Volker Brendel",1987,,Wiley-VCH Verlag GmbH,,129,0,English,Биология//Генетика,mexmat,24,"9783527267231,3527267239",,,,,,,,,OL9471535M,,0,,,,,,,,7882791,pdf,E7ADFC54394FA0745A39C9C66F4C5BD3,,,"DVD-024/Trifonov_E.N.,_Brendel_V._Gnomic._A_Dictionary_of_Genetic_Codes_(1986)(en)(256s).pdf",0,2000-01-01 01:00:00,2016-04-03 02:51:08,29000/e7adfc54394fa0745a39c9c66f4c5bd3.jpg,,
5572495,Contemporary Theory of Conservation,,,,Salvador Munoz-Vinas,2004,Second,Butterworth-Heinemann,,257,0,English,,mexmat,14,"9780750662246,0750662247",,,,,363.69,CC135 .M86 2004,,,OL19610871M,,0,,,,,,,T,2090951,pdf,E6ECA079F658507D952A6EC46D16698E,,,DVD-014/Vinas_S.M._Contemporary_Theory_of_Conservation_(2005)(en)(239s).pdf,0,2000-01-01 01:00:00,2016-04-03 02:51:08,29000/e6eca079f658507d952a6ec46d16698e-d.jpg,,
5572494,Machine translation systems,,Studies in Natural Language Processing,,Slocum,1988,,Cambridge University Press,,352,0,English,Техника,mexmat,10,"9780521351669,0-521351669",,,,,418/.02,P308 .M33 1988,,,OL2386139M,,0,,,,,,,T,18748830,djvu,E6A479781D7C21028675F7AFB8D1494D,,,DVD-010/Slocum_J._Machine_translation_systems_(1988)(en)(341s).djvu,0,2000-01-01 01:00:00,2016-04-03 02:51:08,29000/e6a479781d7c21028675f7afb8d1494d.jpg,,
5572493,Neurotransmitters and Neuromodulators: Handbook of Receptors and Biological Effects,,,,"Oliver von Bohlen und Halbach, Rolf Dermietzel",2002,1,Wiley-VCH,,290,0,English,,mexmat,30,"9783527303182,3527303189",,,,,573.864,,,,OL17604716M,,0,,,,,,,T,14071111,pdf,E69B1F6FB2547C99855C2FE1CC374C2A,,,"DVD-030/Von_Bohlen_O.,_Dermietzel_R._Neurotransmitters_and_Neuromodulators[c]_Handbook_of_Receptors_and_Biological_Effects_(2002)(en)(285s).pdf",0,2000-01-01 01:00:00,2016-04-03 02:51:08,29000/e69b1f6fb2547c99855c2fe1cc374c2a-d.jpg,,
5572492,JBoss Administration and Development,,Kaleidoscope ,,"Scott Stark, Marc Fleury, The JBoss Group",2002,,Sams,,527,0,English,Компьютеры//Системное администрирование,mexmat,27,"9780672323478,0672323478",,,,,,,,,OL7668448M,,0,,,,,,,,14072870,pdf,E5CEB9929F6D72E0210FE0AD70DE21E9,,,"DVD-027/Stark_S.,_Fleury_M._JBoss_Administration_and_Development_(2002)(en)(512s).pdf",0,2000-01-01 01:00:00,2016-04-03 02:51:08,29000/e5ceb9929f6d72e0210fe0ad70de21e9-d.jpg,,
5572491,Creating Family Web Sites For Dummies,,,,Janine Warner,2005,,For Dummies,,385,0,English,Образование,mexmat,15,"9780764579387,076457938X",,,,,,,,,OL3317027M,,0,,,,,,,T,17849134,pdf,E45D7E7820FDAE4F9BDA7B8C11C1D99B,,,DVD-015/Warner_J._Creating_Family_Web_Sites_For_Dummies_(2005)(en)(360s).pdf,0,2000-01-01 01:00:00,2016-04-03 02:51:08,29000/e45d7e7820fdae4f9bda7b8c11c1d99b-d.jpg,,
5572490,Galois Theory of Linear Differential Equations,,,,"Marius van der Put, Michael F. Singer",2003,1,Springer,,478,0,English,Математика,mexmat,13,"9783540442288,3540442286",,,,,,,,,OL9057945M,,0,,,,,,,,2089438,djvu,E373E4FA076E2AB50810EB7F1107DF44,,,"DVD-013/Van_der_Put_M.,_Singer_M.F._Galois_Theory_of_Linear_Differential_Equations_(2002)(en)(462s).djv",0,2000-01-01 01:00:00,2016-04-03 02:51:08,29000/e373e4fa076e2ab50810eb7f1107df44-d.jpg,,
5572489,Introduction to Modern Liquid Chromatography,,,,"Lloyd R. Snyder, Joseph J. Kirkland",1979,2,,,882,0,English,Искусство//Графические виды искусства,mexmat,25,"9780471038221,0471038229",,,,,544/.924,QD79.C454 S58 1979,,,OL4403102M,,0,,,,,,,T,6292881,pdf,E23E18DF17E20F1654B056746CFE86F0,,,"DVD-025/Snyder_L.R.,_Kirkland_J.J._Introduction_to_Modern_Liquid_Chromatography_(1979)(2-nd)(en)(863s).pdf",0,2000-01-01 01:00:00,2016-04-03 02:51:08,29000/e23e18df17e20f1654b056746cfe86f0-d.jpg,,
5572488,Beowulf Cluster Computing with Windows,,Scientific and Engineering Computation ,,Thomas Sterling,2001,illustrated edition,The MIT Press,,475,0,English,Компьютеры//Организация и обработка данных,mexmat,17,"0262692759,9780262692755,9780585444338",,,,,004.36,,,,OL22466254M,,0,,,,,1,,T,6588789,pdf,E2283FFAEA56E577AC05056B4BB738FC,,,DVD-017/Sterling_T._Beowulf_Cluster_Computing_with_Windows_(2002)(en)(445s).pdf,0,2000-01-01 01:00:00,2016-04-03 02:51:08,29000/e2283ffaea56e577ac05056b4bb738fc-d.jpg,,
5572487,Organic Syntheses,Volume 67,,,"Smart B.E., Coffen D.L., Paquette L.A. (eds.)",1989,,,,129,0,English,Химия//Органическая химия,mexmat,8,,,,,,,,,,,,0,,,,,,,,5122169,pdf,E1DA8E7708ADF72A6596D1DD58BF3726,,,"DVD-008/Smart_B.E.,_Coffen_D.L.,_Paquette_L.A._(eds.)_Organic_Syntheses_(vol._67)_(1989)(en)(235s).pdf",0,2000-01-01 01:00:00,2016-04-03 02:51:08,29000/e1da8e7708adf72a6596d1dd58bf3726.jpg,,
5572486,The Gale Encyclopedia of Psychology,,,,Bonnie B. Strickland,2000,2,Gale,,710,0,English,Психология,mexmat,30,"9780787647865,9780787677459,0787647861",,,,,150/.3,BF31 .G35 2001,,,OL6783744M,,0,,,,,1,,,10880462,pdf,E17B3F515FC8815F1DC4027C59E9B6EE,,,DVD-030/Strickland_B._The_Gale_Encyclopedia_of_Psychology_(2000)(2-nd)(en)(701s).pdf,0,2000-01-01 01:00:00,2016-04-03 02:51:08,29000/e17b3f515fc8815f1dc4027c59e9b6ee-d.jpg,,
5572485,Animal Cell Culture,,Methods in Molecular Biology 005,,"Walker J.M. (ed.), Pollard J.W. (ed.)",1990,,,,704,0,English,Биология//Зоология,mexmat,28,,,,,,,,,,,,0,,,,,,,,55388158,pdf,E0A0B361CF0DC096A7146E388C3B60B2,,,"Humana Press, volume 005, Methods in Molecular Biology-Animal Cell Culture.pdf",0,2000-01-01 01:00:00,2016-04-03 02:51:08,29000/e0a0b361cf0dc096a7146e388c3b60b2.jpg,,
5572484,The MACD Profit Alert,,,,Star B.,1998,,,,6,0,English,,mexmat,22,,,,,,,,,,,,0,,,,,,,,407894,pdf,E023312BEA6861A8F9BB0F9C5813448D,,,DVD-022/Star_B._The_MACD_Profit_Alert_(1998)(en)(6s).pdf,0,2000-01-01 01:00:00,2016-04-03 02:51:08,29000/e023312bea6861a8f9bb0f9c5813448d.jpg,,
5572483,The Hacker Crackdown. Law and Disorder on the Electronic Frontier,,,,Bruce Sterling,1992,First Edition,Bantam,,238,0,English,Компьютеры//Безопасность,mexmat,10,"9780553080582,0-553-08058-X",,,,,364.1/68,HV6773.2 .S74 1992,,,OL1715165M,,0,,,,,,,,735348,pdf,E00EF35CA5DC33D6C12F83A090B87A42,,,DVD-010/Sterling_B._The_Hacker_Crackdown._Law_and_Disorder_on_the_Electronic_Frontier_(1993)(en)(238s).pdf,0,2000-01-01 01:00:00,2016-04-03 02:51:08,29000/e00ef35ca5dc33d6c12f83a090b87a42.jpg,,
5572482,Statistical reasoning with imprecise probabilities,,Chapman & Hall/CRC Monographs on Statistics & Applied Probability,,Peter Walley,1990,1st,Chapman and Hall/CRC,,362,0,English,Математика//Вероятность,mexmat,10,"0412286602,9780412286605",,,,,519.5,QA276 .W299 1990,,,OL1882054M,,300,,,,0,1,,1,7568822,djvu,E002C60213EA098D43BA4FA2914A34C0,,,DVD-010/Walley_P._Statistical_reasoning_with_imprecise_probabilities_(1991)(en)(706s).djvu,0,2000-01-01 01:00:00,2016-04-03 02:51:08,29000/e002c60213ea098d43ba4fa2914a34c0-d.jpg,,
5572481,Strategic Planning for Public Relations,,,,Ronald D. Smith,2004,2,Routledge,,403,0,English,Бизнес//Маркетинг//Реклама,mexmat,12,"9780805852394,0-8058-5239-5",,,,,659.2,HM1221 .S77 2005,,,OL3294002M,,0,,,,,,,T,8167510,djvu,DFB4E8FBF4CA564C69B606935AD2FAF5,,,DVD-012/Smith_R.D._Strategic_Planning_for_Public_Relations_(2005)(2nd_ed.)(en)(382s).djvu,0,2000-01-01 01:00:00,2016-04-03 02:51:08,29000/dfb4e8fbf4ca564c69b606935ad2faf5-d.jpg,,
5572480,Campaign Trading: Tactics and Strategies to Exploit the Markets,,,,John Sweeney,1996,,John Wiley & Sons,,133,0,English,Бизнес//Трейдинг,mexmat,22,0-471-14150-X,,,,,332.6/0285,HG4515.5 .S93 1996,,,OL971048M,,0,,,,,,,T,1616189,pdf,DFACD51FC6713B7F21B2A95CE7FC838D,,,DVD-022/Sweeney_J._Campaign_Trading[c]_Tactics_and_Strategies_to_Exploit_the_Markets_(1996)(en)(245s).pdf,0,2000-01-01 01:00:00,2016-04-03 02:51:08,29000/dfacd51fc6713b7f21b2a95ce7fc838d.jpg,,
5572479,Transcription Factor Protocols,,Methods in Molecular Biology ,,Martin J. Tymms,2010,1st Edition.,Humana Press,,285,0,English,Биология,mexmat,22,"9781617370816,1617370819",,,,,,,,,,,0,,,,,,,,1610363,pdf,DF7AA96C2473580BC5B153E0883FD533,,,DVD-022/Tymms_M.J._Transcription_Factor_Protocols_(1999)(en)(320s).pdf,0,2000-01-01 01:00:00,2016-04-03 02:51:08,29000/df7aa96c2473580bc5b153e0883fd533-d.jpg,,
5572478,Plant Amino Acids,,"Books in Soils, Plants, and the Environment ",,Bijay K. Singh,1998,1,CRC Press,,620,0,English,Биология//Биотехнология,mexmat,31,"0824702042,9780824702045,9780585388878",,,,,572/.652,QK898.A5 P58 1999,,,OL382116M,,0,,,,,,,,105069601,pdf,DF4A21D43A1357F6F3BB8781317211E1,,,DVD-031/Singh_B.K._Plant_Amino_Acids_(1999)(en)(621s).pdf,0,2000-01-01 01:00:00,2016-04-03 02:51:08,29000/df4a21d43a1357f6f3bb8781317211e1-d.jpg,,
5572477,General Microbiology,,,,"Stainer R.Y., Adelberg E.A., Ingraham J.L.",1977,4,,,884,0,English,Биология,mexmat,35,,,,,,,,,,,,0,,,,,,,,203048993,pdf,DF449C6240D623F6BEB352ABF0B8B0F4,,,"DVD-035/Stainer_R.Y.,_Adelberg_E.A.,_Ingraham_J.L._General_Microbiology_(1977)(4-th)(en)(891s).pdf",0,2000-01-01 01:00:00,2016-04-03 02:51:08,29000/df449c6240d623f6beb352abf0b8b0f4.jpg,,
5572476,"Computing for Scientists and Engineers: A Workbook of Analysis, Numerics, and Applications",,,,Thompson W.J.,1992,,,,458,0,English,Математика//Вычислительная математика,mexmat,1,,,,,,,,,,,,0,,,,,,,T,2951621,djvu,DEEDF01972060FCC34C03CBE81938B4D,,,"DVD-001/Thompson_W.J._Computing_for_Scientists_and_Engineers[c]_A_Workbook_of_Analysis,_Numerics,_and_Applications_(1992)(en)(444s).djvu",0,2000-01-01 01:00:00,2016-04-03 02:51:08,29000/deedf01972060fcc34c03cbe81938b4d.jpg,,
5572475,Distortion in RF Power Amplifiers,,Artech House Microwave Library,,"Joel Vuolevi, Timo Rahkonen",2003,,Artech House Publishers,,270,0,English,,mexmat,25,"1580535399,9781580535397,9781580536295",,,,,621.384,TK7871.58.P6V79 2003,,,OL8780272M,,0,,,,,1,,T,2736332,pdf,DE3D99DE13438F4724C9FDD86B016B03,,,"DVD-025/Vuolevi_J.,_Rahkonen_T._Distortion_in_RF_Power_Amplifiers_(2003)(en)(272s).pdf",0,2000-01-01 01:00:00,2016-04-03 02:51:08,29000/de3d99de13438f4724c9fdd86b016b03-d.jpg,,
5572474,Digital Signal Processing: A Practical Guide for Engineers and Scientists,,,,Steven Smith,2002,Book and CD ROM,Newnes,,666,0,English,"Математика//Вейвлеты,обработка сигналов",mexmat,32,"9780750674447,0-75067444-X",,,,,621.382/2,TK5102.9 .S568 2003,,,OL3704284M,,0,,,,,,,T,23769939,pdf,DE12664A0C388DB0756C828B2A872523,,,DVD-032/Smith_S.W._Digital_Signal_Processing[c]_A_Practical_Guide_for_Engineers_and_Scientists_(2003)(en)(672s).pdf,0,2000-01-01 01:00:00,2016-04-03 02:51:08,29000/de12664a0c388db0756c828b2a872523-d.jpg,,
5572473,Intelligent Tutoring Systems for Foreign Language Learning,,"Nato a S I Series Series III, Computer and Systems Sciences",,Merryanna L. Swartz,1992,,Springer,,362,0,English,Образование,mexmat,10,0-387-55013-5,,,,,418/.0285,P53.28 .N28 1990,,,OL1558563M,,0,,,,,,,T,27337859,djvu,DE09293FFBF44FD404C46B1BC3324A9D,,,"DVD-010/Swartz_M.L.,_Yazdani_M._Intelligent_Tutoring_Systems_for_Foreign_Language_Learning_(1991)(en)(347s).djvu",0,2000-01-01 01:00:00,2016-04-03 02:51:08,29000/de09293ffbf44fd404c46b1bc3324a9d.jpg,,
5572472,Java Look and Feel Design Guidelines: Advanced Topics,,Java Series,,Sun Microsystems Inc.,2001,,Addison-Wesley Professional,,189,0,English,Компьютеры//Программирование//Языки программирования,mexmat,24,"0201775824,9780201775822",,,,,,,,,OL7408951M,,0,,,,,1,,,3809272,pdf,DDBC7804F0FBE3E9BDD10EB87B370D25,,,DVD-024/Sun_Microsystems_Java_Look_and_Feel_Design_Guidelines[c]_Advanced_Topics_(2001)(en)(189s).pdf,0,2000-01-01 01:00:00,2016-04-03 02:51:08,29000/ddbc7804f0fbe3e9bdd10eb87b370d25-d.jpg,,
5572471,The Best Damn Windows Server 2003 Book Period,,,,Syngress,2000,1,Syngress,,1033,0,English,Компьютеры//Системное администрирование,mexmat,20,"1928994113,1928994296,1928994741,1931836051",,,,,005.8,,,,OL24204001M,,0,,,,,,,T,22436295,pdf,DD50146F6225D516DB98BA21A84BB17D,,,DVD-020/Snedaker_S._The_Best_Damn_Windows_Server_2003_Book_Period_(2004)(en)(1032s).pdf,0,2000-01-01 01:00:00,2016-04-03 02:51:08,29000/dd50146f6225d516db98ba21a84bb17d.jpg,,
5572470,Linguistic in Philosophy,,,,Zeno Vendler,1967,,Cornell Univ Pr,,216,0,English,Общественные науки прочие//Философия,mexmat,10,"9780801404368,0801404363",,,,,,,,,,,0,,,,,,,,15547826,pdf,DD3966DB7B514C842C88D78D82F56187,,,DVD-010/Vendler_Z._Linguistic_in_Philosophy_(1967)(en)(203s).pdf,0,2000-01-01 01:00:00,2016-04-03 02:51:08,29000/dd3966db7b514c842c88d78d82f56187.jpg,,
5572469,"Cytokines Engaged in Antiviral Action, Macrophage Activation, Angiogenesis, and Regulation of Cell Growth and Differentiation",,,,Vilcek J.,2000,,,,12,0,English,Химия//Фармакология,mexmat,22,,,,,,,,,,,,0,,,,,,,,146499,pdf,DC84306DFF47FCD807F61400105024DB,,,"DVD-022/Vilcek_J._Cytokines_Engaged_in_Antiviral_Action,_Macrophage_Activation,_Angiogenesis,_and_Regulation_of_Cell_Growth_an[...]ation_(2000)(en)(12s).pdf",0,2000-01-01 01:00:00,2016-04-03 02:51:08,29000/dc84306dff47fcd807f61400105024db.jpg,,
5572468,Multiphase Flows in Small Scale Pipes,,,,Wegmann A.,2005,,,,265,0,English,,mexmat,16,,,,,,,,,,,,0,,,,,,,T,12728654,pdf,DBEEC86451D323E311F116D3CA1819B5,,,DVD-016/Wegmann_A._Multiphase_Flows_in_Small_Scale_Pipes_(2005)(en)(265s).pdf,0,2000-01-01 01:00:00,2016-04-03 02:51:08,29000/dbeec86451d323e311f116d3ca1819b5.jpg,,
5572467,Finite Element Methods for Nonlinear Optical Waveguides,,Advances in Nonlinear Optics,,Xin-Hua Wang,1996,Har/Dis,CRC Press,,304,0,English,Математика//Вычислительная математика,mexmat,13,"9782884490481,2-88449-048-5",,,,,621.36,QC20.7.F56 W36 1995,,,OL131113M,,0,,,,,,,,10507856,pdf,DB5AA27D87C7C8716FCC06AB0ABEAD54,,,DVD-013/Wang_X.-H._Finite_Element_Methods_for_Nonlinear_Optical_Waveguides_(1995)(en)(292s).pdf,0,2000-01-01 01:00:00,2016-04-03 02:51:08,29000/db5aa27d87c7c8716fcc06ab0abead54-d.jpg,,
5572466,Culture and Psychotherapy: A Guide to Clinical Practice,,,,"Wen-Shing Tseng, Jon Streltzer",2001,1st,"American Psychiatric Publishing, Inc.",,314,0,English,Медицина//Клиническая медицина,mexmat,22,"9780880489553,0-88048-955-3",,,,,,,,,OL8134787M,,0,,,,,,,1,2392323,pdf,DACB10CD29352EB62E74FF0C421DC706,,,"DVD-022/Tseng_W.-H._(ed.),_Streltzer_J._(ed.)_Culture_and_Psychotherapy[c]_A_Guide_to_Clinical_Practice_(2001)(en)(298s).pdf",0,2000-01-01 01:00:00,2016-04-03 02:51:08,29000/dacb10cd29352eb62e74ff0c421dc706-d.jpg,,
5572465,The Resilient City: How Modern Cities Recover from Disaster,,,,"Lawrence J. Vale, Thomas J. Campanella",2005,,"Oxford University Press, USA",,391,0,English,,mexmat,31,"9780195175844,0195175840",,,,,307.3/416/09,HT170 .R46 2005,,,OL17930053M,,0,,,,,,,T,11564778,pdf,DAA1403EF5BF99E8F55436112D1BDD1B,,,"DVD-031/Vale_L.J.,_Campanella_T.J._(eds.)_The_Resilient_City[c]_How_Modern_Cities_Recover_from_Disaster_(2005)(en)(376s).pdf",0,2000-01-01 01:00:00,2016-04-03 02:51:08,29000/daa1403ef5bf99e8f55436112d1bdd1b-d.jpg,,
5572464,Oracle Internet Directory Administrator's Guide,,,,Smith R.,2001,release 9.0.1,,,688,0,English,Компьютеры//Сети//Интернет,mexmat,19,,,,,,,,,,,Part No. A90151-01,0,,,,,,,,5190714,pdf,DA5774DC87EF9541C6BBFC7167374FDD,,,DVD-019/Smith_R._Oracle_Internet_Directory_Administrator[ap]s_Guide_(Part_No._A90151-01)_(2001)(release_9.0.1)(en)(688s).pdf,0,2000-01-01 01:00:00,2016-04-03 02:51:08,29000/da5774dc87ef9541c6bbfc7167374fdd.jpg,,
5572463,Muslim Perceptions of other religions,,,,Jacques Waardenburg,1999,,"Oxford University Press, USA",,366,0,English,Религия,mexmat,12,"9780195104721,0-19-510472-2",,,,,,,,,OL16946396M,,0,,,,,,,T,2154475,pdf,DA1363C4805351A088231941C08F68A8,,,DVD-012/Waardenburg_J._Muslim_Perceptions_of_other_religions_(1999)(en)(350s).pdf,0,2000-01-01 01:00:00,2016-04-03 02:51:08,29000/da1363c4805351a088231941c08f68a8.jpg,,
5572462,Dictionary of Video Television Technology,,Demystifying Technology Series,,"Keith Jack, Vladimir Tsatsoulin",2002,Book & CD Rom,Newnes,,336,0,English,Языкознание//Словари,mexmat,25,"187870799X,9781878707994",,,,,,,,,OL3561221M,,0,,,,,,,T,1645881,pdf,D9D8C70499B04234E9FAB6E27802CC31,,,"DVD-025/Tsatsoulin_V.,_Jack_K._Dictionary_of_Video_Television_Technology_(2002)(en)(356s).pdf",0,2000-01-01 01:00:00,2016-04-03 02:51:08,29000/d9d8c70499b04234e9fab6e27802cc31-d.jpg,,
5572461,An Atlas of Schizophrenia,,Encyclopedia of Visual Medicine Series,,"Martin Stefan, Mike Travis, Robin Murray",2002,1,Informa Healthcare,,89,0,English,Медицина,mexmat,20,"1850700745,9781850700746",,,,,,,,,OL8968552M,,0,,,,,,,1,4823331,pdf,D98BC61175A1A145CBB1315D8C3D7374,,,"DVD-020/Stefan_M.,_Travis_M.,_Murray_R.M._An_Atlas_of_Schizophrenia_(2002)(en)(88s).pdf",0,2000-01-01 01:00:00,2016-04-03 02:51:08,29000/d98bc61175a1a145cbb1315d8c3d7374-d.jpg,,
5572460,Oracle Dynamic Services. User's and Administrator's Guide,,,,"Srivastava A., Carreг M., Lin P.",2001,release 9.0.1,,,202,0,English,Компьютеры//Базы данных,mexmat,19,,,,,,,,,,,Part No. A88783-01,0,,,,,,,,1403486,pdf,D9352CA08AEABD1DE1AD7683BDF69CC5,,,"DVD-019/Srivastava_A.,_Carreg_M.,_Lin_P._Oracle_Dynamic_Services._User[ap]s_and_Administrator[ap]s_Guide_(Part_No._A88783-01)_(2001)(release_9.0.1)(en)(202s).pdf",0,2000-01-01 01:00:00,2016-04-03 02:51:08,29000/d9352ca08aeabd1de1ad7683bdf69cc5.jpg,,
5572458,MIT - Handbuch zur Schlossöffnung,,,,Tool T.T.,1993,,,,50,0,German,,mexmat,34,,,,,,,,,,,,0,,,,,,,,309108,pdf,D8AFCE018050B67924BB2F0925BACC7A,,,DVD-034/Tool_T.T._MIT_-_Handbuch_zur_Schloss&#246;ffnung_(1993)(de)(50s).pdf,0,2000-01-01 01:00:00,2016-04-03 02:51:08,29000/d8afce018050b67924bb2f0925bacc7a.jpg,,
5572459,Sucessful Packaged Software Implementation,,,,Christine B. Tayntor,2005,1,CRC Press,,337,0,English,Компьютеры//Программирование,mexmat,21,0-8493-3410-1,,,,,,,,,OL8260084M,,0,,,,,,,T,4002001,pdf,D90B4E160539181215009FEC661254E5,,,DVD-021/Tayntor_C.B._Sucessful_Packaged_Software_Implementation_(2005)(en)(313s).pdf,0,2000-01-01 01:00:00,2016-04-03 02:51:08,29000/d90b4e160539181215009fec661254e5.jpg,,
5572457,Advancing Scientific Research in Education,,,,"Committee on Research in Education, National Research Council, Lisa Towne, Lauress L. Wise, Tina M. Winters",2004,,National Academies Press,,138,0,English,Образование,mexmat,14,"9780309093217,0-309-09321-X",,,,,,,,,OL10358916M,,0,,,,,,,T,4521166,pdf,D856C86680B491501D690FBD7529FED7,,,"DVD-014/Towne_L.,_Wise_L.L.,_Winters_T.M._(eds.)_Advancing_Scientific_Research_in_Education_(2005)(en)(120s).pdf",0,2000-01-01 01:00:00,2016-04-03 02:51:08,29000/d856c86680b491501d690fbd7529fed7-d.jpg,,
5572456,Intelligent techniques for planning,,,,"Ioannis Vlahavas, Dimitris Vrakas",2004,illustrated edition,Idea Group Publishing,,381,0,English,,mexmat,17,"9781591404507,1-59140-450-9",,,,,,,,,OL8854851M,,0,,,,,,,,5598097,pdf,D7E80B2E0AB3FF99368DB37D043F9329,,,"DVD-017/Vlahavas_I.,_Vrakas_D._Intelligent_techniques_for_planning_(2005)(en)(364s).pdf",0,2000-01-01 01:00:00,2016-04-03 02:51:08,29000/d7e80b2e0ab3ff99368db37d043f9329-d.jpg,,
5572455,Peripheral Vascular Ultrasound,,,,"Abigail Thrush, Timothy Hartshorne, Abigail Thrush, Timothy Hartshorne",2005,2,Churchill Livingstone,,244,0,English,Медицина,mexmat,13,"9780443072833,0-443-07283-3",,,,,616.1/3107543,RC691.5.U47 T48 2004,,,OL3307276M,,0,,,,,,,T,10097385,pdf,D7E48297BB955113E59B9FF0B1F82BF3,,,"DVD-013/Thrush_A.,_Hartshorne_T._Peripheral_Vascular_Ultrasound_(2005)(en)(235s).pdf",0,2000-01-01 01:00:00,2016-04-03 02:51:08,29000/d7e48297bb955113e59b9ff0b1f82bf3-d.jpg,,
5572454,Electronic Navigation Systems,,,,"Laurie Tetley I.Eng  F.I.E.I.E., David Calcutt",2001,3,Butterworth-Heinemann,,436,0,English,Техника//Электроника,mexmat,32,"0750651385,9780750651387",,,,,,,,,OL7972246M,,0,,,,,,,1,18341242,pdf,D778C6BB019B94B4AC879467404A9639,,,"DVD-032/Tetley_L.,_Calcutt_D._Electronic_Navigation_Systems_(2001)(3rd_ed.)(en)(423s).pdf",0,2000-01-01 01:00:00,2016-04-03 02:51:08,29000/d778c6bb019b94b4ac879467404a9639-d.jpg,,
5572453,Sensors and Transducers,,,,Ian Sinclair,2001,3,Newnes,,320,0,English,,mexmat,31,"9780750649322,0750649321",,,,,681/.2,TK7872.T6 S56 2001,,,OL3966743M,,0,,,,,,,T,1610462,pdf,D692EE240EAC1343FD5C5821FB1D3254,,,DVD-031/Sinclair_I._Sensors_and_Transducers_(2001)(3rd)(en)(306s).pdf,0,2000-01-01 01:00:00,2016-04-03 02:51:08,29000/d692ee240eac1343fd5c5821fb1d3254-d.jpg,,
5572452,CCIE practical studies,Volume 2,CCIE Self-Study,,"Karl Solie, Leah Lynch",2003,,Cisco Press,,1316,0,English,Компьютеры//Сети,mexmat,4,"9781587050725,1587050722",,,,,,,,,OL8822195M,,0,,,,,,,,20530508,pdf,D6612E974B63A9C0E26A9C40702D57E7,,,DVD-004/Solie_K._CCIE_practical_studies_volume_II_(2003)(en)(1032s).pdf,0,2000-01-01 01:00:00,2016-04-03 02:51:08,29000/d6612e974b63a9c0e26a9c40702d57e7-d.jpg,,
5572451,Efficient Algorithms for Sorting and Synchronization,,,,Tridgell A.,2000,,,,115,0,English,Компьютеры//Алгоритмы и структуры данных,mexmat,24,,,,,,,,,,,,0,,,,,,,T,435898,pdf,D5F18C3991DD757B1FB758DAA0591F6C,,,DVD-024/Tridgell_A._Efficient_Algorithms_for_Sorting_and_Synchronization_(2000)(en)(106s).pdf,0,2000-01-01 01:00:00,2016-04-03 02:51:08,29000/d5f18c3991dd757b1fb758daa0591f6c.jpg,,
5572450,Telecommunication Circuit Design,,,,van der Puije P.D.,2002,2,,,435,0,English,Техника//Электроника//Телекоммуникации,mexmat,24,0-471-22153-8,,,,,,,,,,,0,,,,,,,T,6810183,pdf,D56D718E4C5E2990FEA82F8BF71F2280,,,DVD-024/van_der_Puije_P.D._Telecommunication_Circuit_Design_(2002)(2nd_ed.)(en)(424s).pdf,0,2000-01-01 01:00:00,2016-04-03 02:51:08,29000/d56d718e4c5e2990fea82f8bf71f2280.jpg,,
5572449,"Direct Digital Synthesizers: Theory, Design and Applications",,,,"Vankka J., Halonen K.",2000,,,,208,0,English,,mexmat,29,951-22-5232-5,,,,,,,,,,,0,,,,,,,,5016279,pdf,D53372B8B30C695B261F01F88914D51D,,,"DVD-029/Vankka_J.,_Halonen_K._Direct_Digital_Synthesizers[c]_Theory,_Design_and_Applications_(2000)(en)(192s).pdf",0,2000-01-01 01:00:00,2016-04-03 02:51:08,29000/d53372b8b30c695b261f01f88914d51d.jpg,,
5572448,"Flow of Fluids Through Valves, Fittings & Pipe TP-410 Metric",,,,Crane Valve,1999,Metric,Vervante,,133,0,English,,mexmat,33,"1400527139,9781400527137",,,,,,,,,OL11586510M,,0,,,,,1,,,7881238,pdf,D529579404F1F2A8ED70526EF41502FF,,,"DVD-033/Valve_C._Flow_of_Fluids_Through_Valves,_Fittings_&_Pipe_TP-410_Metric_(1999)(en)(114s).pdf",0,2000-01-01 01:00:00,2016-04-03 02:51:08,29000/d529579404f1f2a8ed70526ef41502ff.jpg,,
5572447,Grammar Practice for Elementary Students: With Key ,,GRPR,,"Elaine Walker, Steve Elsworth",2000,,Longman,,178,0,English,Языкознание,mexmat,13,"0582417066,9780582417069",,,,,,,,,OL10653853M,,0,,,,0,1,,0,2026544,pdf,D4B1C2B4E4A863BB48127899CD1AA0A2,,,"DVD-013/Walker_E.,_Elsworth_S._Grammar_Practice_for_Elementary_Students_(2002)(new_ed.)(en)(172s).pdf",0,2000-01-01 01:00:00,2016-04-03 02:51:08,29000/d4b1c2b4e4a863bb48127899cd1aa0a2-d.jpg,,
5572446,Mutual funds for dummies,,,,Eric Tyson,1998,2nd,Hungry Minds Inc,,425,0,English,Образование,mexmat,15,"9780764551123,0764551124",,,,,332.63/27,HG4930 .T97 1998,,,OL397192M,,0,,,,,,,,13701067,djvu,D48F73401EED4096A877E5346597E752,,,DVD-015/Tyson_E._Mutual_funds_for_dummies_(1998)(2nd_ed.)(en)(406s).djvu,0,2000-01-01 01:00:00,2016-04-03 02:51:08,29000/d48f73401eed4096a877e5346597e752-d.jpg,,
5572445,C++/CLI in Action,,Manning,,Nishant Sivakumar,2007,,Manning Publications,,416,0,English,Компьютеры//Программирование//Языки программирования,mexmat,32,"9781932394818,1-932394-81-8",,,,,,,,,OL8808753M,,0,,,,,,,T,20378461,pdf,D47420E4F9D4BA501E4935F42E87AE7D,,,DVD-032/Sivakumar_N._C++[s]CLI_in_Action_(2007)(en)(416s).pdf,0,2000-01-01 01:00:00,2016-04-03 02:51:08,29000/d47420e4f9d4ba501e4935f42e87ae7d-d.jpg,,
5572444,Fields,,,,Warren S.,1999,,,,731,0,English,Физика,mexmat,10,,,,,,,,,,,,0,,,,,,,,4294260,pdf,D46F2900B9FF5F362DE9D7DF53E29EDF,,,DVD-010/Warren_S._Fields_(1999)(en)(710s).pdf,0,2000-01-01 01:00:00,2016-04-03 02:51:08,29000/d46f2900b9ff5f362de9d7df53e29edf.jpg,,
5572443,3G Handset and Network Design,,,,"Geoff Varrall, Roger Belcher",2003,,Wiley,,561,0,English,Компьютеры//Сети,mexmat,23,"9780471229360,0471229369",,,,,384.5/35,TK6570.M6 V35 2003,,,OL3704047M,,0,,,,,,,T,7710606,pdf,D44D6AEAF8D7CB71D7F9081D3DA6ABCE,,,"DVD-023/Varral_G.,_Belcher_R._3G_Handset_and_Network_Design_(2003)(en)(532s).pdf",0,2000-01-01 01:00:00,2016-04-03 02:51:08,29000/d44d6aeaf8d7cb71d7f9081d3da6abce-d.jpg,,
5572442,Organic Syntheses,Volume 22,,,"Smith L.I., Adkins H., Allen C.F.H. (eds.)",1942,,,,60,0,English,Химия//Органическая химия,mexmat,8,,,,,,,,,,,,0,,,,,,,,4027496,pdf,D4107DFCC7F8CE08094BF31E0443700C,,,"DVD-008/Smith_L.I.,_Adkins_H.,_Allen_C.F.H._(eds.)_Organic_Syntheses_(vol._22)_(1942)(en)(114s).pdf",0,2000-01-01 01:00:00,2016-04-03 02:51:08,29000/d4107dfcc7f8ce08094bf31e0443700c.jpg,,
5572441,Distortion Analysis of Analog Integrated Circuits,,The Springer International Series in Engineering and Computer Science ,,"Piet Wambacq, Willy M.C. Sansen",1998,1,Springer,,527,0,English,Техника//Электроника//Радио,mexmat,29,"0792381866,9780792381860",,,,,621.3815,TK7874 .W357 1998,,,OL360208M,,0,,,,,1,,,20246228,pdf,D3DE543AAF5CBA3986C6ACE505A27E92,,,"DVD-029/Wambacq_P.,_Sansen_W.M.C._Distortion_Analysis_of_Analog_Integrated_Circuits_(1998)(en)(501s).pdf",0,2000-01-01 01:00:00,2016-04-03 02:51:08,29000/d3de543aaf5cba3986c6ace505a27e92-d.jpg,,
5572440,Handbook of Personology and Psychopathology,,,,Stephen Strack Ph.D.,2005,1,Wiley,,601,0,English,,mexmat,12,"9780471459071,0-471-45907-0",,,,,,,,,OL7617567M,,0,,,,,,,,4672967,pdf,D34A88DD44DA5F6AAC28B5CC712D1340,,,DVD-012/Strack_S._(ed.)_Handbook_of_Personology_and_Psychopathology_(2005)(en)(580s).pdf,0,2000-01-01 01:00:00,2016-04-03 02:51:08,29000/d34a88dd44da5f6aac28b5cc712d1340-d.jpg,,
5572439,Fundamentals of probability and statistics for engineers,,,,T. T. Soong,2004,1,Wiley,,408,0,English,Математика//Математическая статистика,mexmat,4,"0470868139,9780470868133,0470868147,9780470868140,9780470868157",,,,,,,,,,,0,,,,0,0,,1,5503820,pdf,D346C8EC69CB6C523400036D63B15766,CA3B2320DEFA897F986BC06A6DAFDED6,,DVD-004/Soong_T.T._Fundamentals_of_probability_and_statistics_for_engineers_(2004)(en)(391s).pdf,0,2000-01-01 01:00:00,2016-04-03 02:51:08,29000/d346c8ec69cb6c523400036d63b15766-d.jpg,,
5572438,April,,,,Tschopp J.,,,,,4,0,English,,mexmat,22,,,,,,,,,,,,0,,,,,,,,74107,pdf,D29B920E921611769EFEC8A01502A444,,,DVD-022/Tschopp_J._April(en)(4s).pdf,0,2000-01-01 01:00:00,2016-04-03 02:51:08,29000/d29b920e921611769efec8a01502a444.jpg,,
5572437,Étude critique de la notion de collectif,,,,Ville J.,1939,,,,158,0,French,Математика//Вероятность,mexmat,15,,,,,,,,,,,,0,,,,,,,T,3921488,djvu,D2796C4A4CE5C4D6FE0E128BBB94465B,,,DVD-015/Ville_J._&#201;tude_critique_de_la_notion_de_collectif_(1939)(fr)(144s).djvu,0,2000-01-01 01:00:00,2016-04-03 02:51:08,29000/d2796c4a4ce5c4d6fe0e128bbb94465b.jpg,,
5572436,Heterocyclic compounds with three- and four-membered rings,Part 1,,,Weissberger A.,1964,,,,329,0,English,Химия,mexmat,13,,,,,,,,,,,,0,,,,,,,,13659366,djvu,D24E3A977EAB20E52BDB6BFF6E1A7E8D,,,DVD-013/Weissberger_A._Heterocyclic_compounds_with_three-_and_four-membered_rings_(Part_1)_(1964)(en)(646s).djvu,0,2000-01-01 01:00:00,2016-04-03 02:51:08,29000/d24e3a977eab20e52bdb6bff6e1a7e8d.jpg,,
5572435,Evaluating Feynman integrals,,Springer Tracts in Modern Physics,,Vladimir A. Smirnov,2005,1,Springer,,248,0,English,Физика//Квантовая физика,mexmat,7,"9783540239338,3-540-23933-2",,,,,,,,,OL9586058M,,0,,,,,,,,2533952,pdf,D222243256962C8DBB56D613D3C1EF0E,,,DVD-007/Smirnov_V.A._Evaluating_Feynman_integrals_(2004)(en)(246s).pdf,0,2000-01-01 01:00:00,2016-04-03 02:51:08,29000/d222243256962c8dbb56d613d3c1ef0e-d.jpg,,
5572434,Intellectual property rights in a networked world: theory and practice,,,,"Spinello R.A., Tavani H.T.",2005,,,,303,0,English,Компьютеры//Сети,mexmat,17,1-59140-172-0,,,,,,,,,OL8854695M,,0,,,,,,,T,2502648,pdf,D165E4381BC53DBDBC8F34F7DE4984B3,,,"DVD-017/Spinello_R.A.,_Tavani_H.T._Intellectual_property_rights_in_a_networked_world_[c]_theory_and_practice_(2005)(en)(281s).pdf",0,2000-01-01 01:00:00,2016-04-03 02:51:08,29000/d165e4381bc53dbdbc8f34f7de4984b3.jpg,,
5572433,Electro-Optics Handbook,,,,"Ronald Waynant, Marwood Ediger",2000,2,McGraw-Hill Professional,,1000,0,English,,mexmat,23,"9780070687165,0-07-068716-1",,,,,,,,,OL7297291M,,0,,,,,,,1,7692112,pdf,D12031A132539B6A14928DBFAB5BD91F,,,"DVD-023/Waynant_R.W._(ed.),_Ediger_M.E._(ed.)_Electro-Optics_Handbook_(2000)(2nd_ed.)(en)(1000s).pdf",0,2000-01-01 01:00:00,2016-04-03 02:51:08,29000/d12031a132539b6a14928dbfab5bd91f-d.jpg,,
5572432,Genomics Protocols,,Methods in Molecular Biology 175,,"Michael P. Starkey, Ramnath Elaswarapu",2001,1st,Humana Press,,538,0,English,Биология,mexmat,22,"9780896037083,0-89603-708-8",,,,,,,,,OL8253687M,,0,,,,,,,,3683099,pdf,D0A3A9629F527DB46A0975AE5893A6E9,,,"DVD-022/Starkey_M._(ed.),_Elaswarapu_R._(ed.)_Genomics_Protocols_(2001)(en)(538s).pdf",0,2000-01-01 01:00:00,2016-04-03 02:51:08,29000/d0a3a9629f527db46a0975ae5893a6e9-d.jpg,,
5572431,HVEM,,,,Ware C.F.,2000,,,,14,0,English,,mexmat,22,,,,,,,,,,,,0,,,,,,,,4711696,pdf,CF3EBE61BFB91910BB5DEB6D889CB0F2,,,DVD-022/Ware_C.F._HVEM_(2000)(en)(14s).pdf,0,2000-01-01 01:00:00,2016-04-03 02:51:08,29000/cf3ebe61bfb91910bb5deb6d889cb0f2.jpg,,
5572430,Organic Syntheses,Volume 61,,,"Stevens R.V., Chapman O.E., Saucy G. (eds.)",1983,,,,91,0,English,Химия//Органическая химия,mexmat,8,,,,,,,,,,,,0,,,,,,,,6270161,pdf,CE93D7C2D3462241DA5E531346C5D594,,,"DVD-008/Stevens_R.V.,_Chapman_O.E.,_Saucy_G._(eds.)_Organic_Syntheses_(vol._61)_(1983)(en)(165s).pdf",0,2000-01-01 01:00:00,2016-04-03 02:51:08,29000/ce93d7c2d3462241da5e531346c5d594.jpg,,
5572429,Schaum's Outline of Beginning Statistics,,Schaum's,,Larry J. Stephens,1997,1,McGraw-Hill,,380,0,English,Математика//Математическая статистика,mexmat,33,"9780070612594,0-07-06-1259-5",,,,,519.5/076,QA276.19 .S74 1998,,,OL698390M,,0,,,,,,,,9360335,pdf,CE5B1F5983D47F529973C0EC1C4C7EC8,,,DVD-033/Stephens_L.J._Schaum[ap]s_Outline_of_Beginning_Statistics_(1997)(en)(480s).pdf,0,2000-01-01 01:00:00,2016-04-03 02:51:08,29000/ce5b1f5983d47f529973c0ec1c4c7ec8-d.jpg,,
5572428,Introduction to analysis,,,,Traynor T.,2003,,,,232,0,English,Математика//Анализ,mexmat,10,,,,,,,,,,,,0,,,,,,,T,1196730,pdf,CE44996393B49CECFC4A693B3BF706D8,,,DVD-010/Traynor_T._Introduction_to_analysis_(2003)(en)(232s).pdf,0,2000-01-01 01:00:00,2016-04-03 02:51:08,29000/ce44996393b49cecfc4a693b3bf706d8.jpg,,
5572427,Hacking Photoshop CS2,,,,Shangara Singh,2005,,Wiley Publishing,,483,0,English,Компьютеры//Безопасность,infanata,26,"0764597884,978-0-7645-9788-6",,,,,006.6/86,T385 .S5645 2005,,,OL3402838M,,0,,,,,,,T,30895877,pdf,CE345C5323685F2EEAA4E573C3D21AA5,,,N:\\natahaus\\2006\\2006-07\\[1146070751]Hacking Photoshop CS2.-- Shangara Singh.pdf,0,2000-01-01 01:00:00,2016-04-03 02:51:08,29000/ce345c5323685f2eeaa4e573c3d21aa5-d.jpg,,
5572426,Topics in the Theory of Random Noise,Volume 2,,,Stratonovich R.L.,1963,,,,173,0,English,,mexmat,26,,,,,,,,,,,,0,,,,,,,,5849647,pdf,CD68B118793CBFAF96AB323F338BB0D9,,,DVD-026/Stratonovich_R.L._Topics_in_the_Theory_of_Random_Noise_(vol._2)_(1963)(en)(173s).pdf,0,2000-01-01 01:00:00,2016-04-03 02:51:08,29000/cd68b118793cbfaf96ab323f338bb0d9.jpg,,
5572425,WiMax Operator's Manual Building 802.16 Wireless Networks,,Expert's Voice in Net ,,Daniel Sweeney,2005,2,Apress,,233,0,English,Компьютеры//Сети,mexmat,21,"1590595742,9781590595749,9781430200932",,,,,,,,,OL17192287M,,0,,,,,1,,T,12621765,pdf,CCBF6EE78F25FA436BA2074479A83C19,,,DVD-021/Sweeney_D._WiMax_Operator[ap]s_Manual_Building_802.16_Wireless_Networks_(2005)(2nd)(en)(210s).pdf,0,2000-01-01 01:00:00,2016-04-03 02:51:08,29000/ccbf6ee78f25fa436ba2074479a83c19-d.jpg,,
5572424,Advanced Molecular Biology: A Concise Reference,,,,R M Twyman,2000,,Garland/BIOS Scientific Publishers,,512,0,English,,mexmat,28,"9781859961414,1-85996-141X",,,,,,,,,OL8624738M,,0,,,,,,,T,109399873,pdf,CC7FB2C716BE09666EBE18E2A216BB71,,,DVD-028/Twyman_R.M._Advanced_Molecular_Biology[c]_A_Concise_Reference_(1998)(en)(499s).pdf,0,2000-01-01 01:00:00,2016-04-03 02:51:08,29000/cc7fb2c716be09666ebe18e2a216bb71-d.gif,,
5572423,The voice of the past,,,,Thompson P.,2000,3,,,384,0,English,Наука (общее)//Научно-популярное,mexmat,12,,,,,,,,,,,,0,,,,,,,T,1816184,pdf,CC61F2E9A2E426C6090B64E48BA0FF7F,,,DVD-012/Thompson_P._The_voice_of_the_past_(2000)(3rd_ed.)(en)(368s).pdf,0,2000-01-01 01:00:00,2016-04-03 02:51:08,29000/cc61f2e9a2e426c6090b64e48ba0ff7f.jpg,,
5572422,The little black book of project management,,The little black book series ,,Michael C. Thomsett,1990,,AMACOM,,155,0,English,Бизнес//Менеджмент//Управление проектами,mexmat,14,"0814477321,9780814477328,9780585024912",,,,,658.4/04,HD69.P75 T48 1990,,,OL1890334M,,0,,,,,1,,,2321487,pdf,CC2C333C2D623866A470C65C09C5D25F,,,DVD-014/Thomsett_M.C._The_little_black_book_of_project_management_(1990)(en)(182s).pdf,0,2000-01-01 01:00:00,2016-04-03 02:51:08,29000/cc2c333c2d623866a470c65c09c5d25f-d.jpg,,
5572421,Partial Differential Equations. Qualitative studies of linear equations,Volume 2,,,Taylor M.E.,,,,,268,0,English,Математика,mexmat,1,,,,,,,,,,,,0,,,,,,,,5684075,djvu,CBDF218B707BDC2F8FC2154D81F8ADB5,,,DVD-001/Taylor_M.E._Partial_Differential_Equations._Qualitative_studies_of_linear_equations_(vol._2)(en)(528s).djvu,0,2000-01-01 01:00:00,2016-04-03 02:51:08,29000/cbdf218b707bdc2f8fc2154d81f8adb5.jpg,,
5572420,Recombinant Protein Protocols: Detection and Isolation,,Methods in Molecular Biology ,,Rocky S. Tuan,1997,1,Humana Press,,430,0,English,Биология//Биотехнология,mexmat,31,"9780896034815,089603481X",,,,,660/.65,TP248.65.P76 R43 1997,,,OL658804M,,0,,,,,,,,32303714,pdf,CB7C7EA6B87050EAF245D48B0319E94C,,,DVD-031/Tuan_R.S._Recombinant_Protein_Protocols[c]_Detection_and_Isolation_(1997)(en)(468s).pdf,0,2000-01-01 01:00:00,2016-04-03 02:51:08,29000/cb7c7ea6b87050eaf245d48b0319e94c-d.jpg,,
5572419,Hack Proofing Windows 2000 Server,,Syngress,,"Thomas W. Shinder, Stace Cunningham, D. Lynn White, Syngress Media, Garrick Olsen",2000,1,Syngress,,722,0,English,Компьютеры//Безопасность,mexmat,22,"9781928994022,1928994024,1928994067,1928994113,1928994296",,,,,005.8,,,,OL12297746M,,0,,,,,,,T,12344528,pdf,CB1693D26DADB2CCD452F21C24C19DB3,,,"DVD-022/Todd_C.,_Johnson_N.L.,_Jr_Hack_Proofing_Windows_2000_Server_(2001)(en)(693s).pdf",0,2000-01-01 01:00:00,2016-04-03 02:51:08,29000/cb1693d26dadb2ccd452f21c24c19db3-d.jpg,,
5572418,The Art of RAW Conversion,,,,"Juergen Gulbins, Uwe Steinmueller",2006,1,No Starch Press,,297,0,English,Образование,mexmat,26,"9781593270674,1593270674",,,,,775,TR267.5.A3 .S74 2005,,,OL3409059M,,0,,,,,,,,24956376,pdf,CACE6947D4EEFDB1CB0D7FB661A84FA3,,,"DVD-026/Steinmueller_U.,_Gulbins_J.,_Gulbins_R._The_Art_of_RAW_Conversion_(2006)(en)(222s).pdf",0,2000-01-01 01:00:00,2016-04-03 02:51:08,29000/cace6947d4eefdb1cb0d7fb661a84fa3-d.jpg,,
5572417,JavaScript for Dummies,,,,Emily A. Vander Veer,2004,4,For Dummies,,387,0,English,Образование,mexmat,11,"9780764576591,0764576593",,,,,005.2/762,QA76.73.J39 V36 2005,,,OL3315057M,,0,,,,,,,T,10747752,pdf,CAC3E9CB8CA2B9D300BBB69E2DF6F61A,,,DVD-011/Vander_Veer_E._JavaScript_for_Dummies_(2005)(4th_ed.)(en)(358s).pdf,0,2000-01-01 01:00:00,2016-04-03 02:51:08,29000/cac3e9cb8ca2b9d300bbb69e2df6f61a-d.jpg,,
5572416,Traveling Wave Solutions of Parabolic Systems,,"Translations of Mathematical Monographs, Vol 140 ",,"Aizik I. Volpert, Vitaly A. Volpert, Vladimir A. Volpert",1994,,American Mathematical Society,,453,0,English,Математика,mexmat,12,"9780821846094,0-8218-4609-4",,,,,515/.353,QA377 .V6413 1994,,,OL1092198M,,0,,,,,,,,3125045,pdf,CAAA92BCCF315E2C592E224CFBAC9D1F,,,"DVD-012/Volpert_A.I.,_Volpert_V.A.,_Volpert_V.A._Traveling_Wave_Solutions_of_Parabolic_Systems_(2000)(en)(453s).pdf",0,2000-01-01 01:00:00,2016-04-03 02:51:08,29000/caaa92bccf315e2c592e224cfbac9d1f-d.jpg,,
5572415,MDX Solutions: With Microsoft SQL Server Analysis Services 2005 and Hyperion Essbase,,,,"George  Spofford, Sivakumar  Harinath, Christopher  Webb, Dylan Hai Huang, Francesco Civardi",2006,2,Wiley,,747,0,English,Компьютеры//Программирование,mexmat,23,"9780471748083,0471748080",,,,,005.13/3,QA76.9.C55 S756 2006,,,OL3416529M,,0,,,,,,,T,10911733,pdf,CA762B4E8446A6905D3D2ACEF52BA3E6,,,"DVD-023/Spofford_G.,_Harinath_S.,_Webb_C._MDX_Solutions[c]_With_Microsoft_SQL_Server_Analysis_Services_2005_and_Hyperion_Essbase_(2006)(2nd)(en)(744s).pdf",0,2000-01-01 01:00:00,2016-04-03 02:51:08,29000/ca762b4e8446a6905d3d2acef52ba3e6-d.jpg,,
5572414,LaTeX for UEA Administrative Work,,,,Talbot N.,2004,,,,68,0,English,Компьютеры//Системное администрирование,mexmat,2,,,,,,,,,,,,0,,,,,,,,1001898,pdf,C9D3EBD2B5222C766754523FA226317A,,,DVD-002/Talbot_N._LaTeX_for_UEA_Administrative_Work_(2004)(en)(64s).pdf,0,2000-01-01 01:00:00,2016-04-03 02:51:08,29000/c9d3ebd2b5222c766754523fa226317a.jpg,,
5572413,Organization Design: The Collaborative Approach,,The HR Series,,Naomi Stanford,2004,,Butterworth-Heinemann,,321,0,English,Компьютеры//Информационные системы//ИС предприятий,mexmat,13,"9780750663670,0-7506-6367-7",,,,,,,,,,,0,,,,,,,T,2416840,pdf,C9B130C6828D5B6019D0384EBF61BA19,,,DVD-013/Stanford_N._Organization_Design[c]_The_Collaborative_Approach_(2005)(en)(306s).pdf,0,2000-01-01 01:00:00,2016-04-03 02:51:08,29000/c9b130c6828d5b6019d0384ebf61ba19-d.jpg,,
5572412,Handbook of Infrared Spectroscopy of Ultrathin Films,,,,"Valeri P. Tolstoy, Irina Chernyshova, Valeri A. Skryshevsky",2003,1,Wiley-VCH,,732,0,English,,mexmat,25,"9780471354048,0-471-35404-X",,,,,,,,,OL7615634M,,0,,,,,,,,7890520,pdf,C9AF433E9C41DBC4D202F53B02C0B3A7,,,"DVD-025/Tolstoy_V.P.,_Chernyshova_I.V.,_Skryshevsky_V.A._Handbook_of_Infrared_Spectroscopy_of_Ultrathin_Films_(2003)(en)(710s).pdf",0,2000-01-01 01:00:00,2016-04-03 02:51:08,29000/c9af433e9c41dbc4d202f53b02c0b3a7-d.jpg,,
5572411,Micro ISV From Vision to Reality,,,,"Bob Walsh, Joel Spolsky",2006,1st,Apress,,377,0,English,,mexmat,21,"1590596013,9781590596012,9781430201144",,,,,,,,,OL8848836M,,0,,,,,1,,T,28310561,pdf,C8A1D317B93314490D6817F466BC2EDB,,,DVD-021/Walsh_B._Micro_ISV_From_Vision_to_Reality_(2006)(en)(376s).pdf,0,2000-01-01 01:00:00,2016-04-03 02:51:08,29000/c8a1d317b93314490d6817f466bc2edb-d.jpg,,
5572410,Renewable Energy,,Energy Science and Engineering,,"Bent Sorensen, Bent Srensen",1997,3,Academic Press,,945,0,English,Техника//Энергетика,mexmat,31,"0126561508,9780126561500",,,,,333.79,TJ163.2 .S66,,,OL4426501M,,0,,,,,1,,T,20641994,pdf,C7F7A4040A4111998FB70C6D66446580,,,DVD-031/Sorensen_B._Renewable_Energy_(2004)(3rd)(en)(927s).pdf,0,2000-01-01 01:00:00,2016-04-03 02:51:08,29000/c7f7a4040a4111998fb70c6d66446580-d.jpg,,
5572409,Mathematics for Physicists,,,,Susan Lea,2003,1,Brooks Cole,,81,0,English,Математика,mexmat,22,"9780534379971,0534379974",,,,,530.15,QC20 .L37 2004,,,OL3576131M,,0,,,,,,,,989275,pdf,C7F5D55424286BA3FEA9A881B70DA3B4,,,DVD-022/Walet_N._Mathematics_for_Physicists_(2002)(en)(81s).pdf,0,2000-01-01 01:00:00,2016-04-03 02:51:08,29000/c7f5d55424286ba3fea9a881b70da3b4-d.jpg,,
5572408,Well-Posed Linear Systems (Encyclopedia of Mathematics and its Applications),,,,"Staffans O., Rota G.C. (ed.), Doran B. (ed.)",2005,,,,796,0,English,Математика,mexmat,15,0511082088,,,,,,,,,,,0,,,,,,,T,10663521,pdf,C775B1817C65543328AA7B37DCB66DE0,,,"DVD-015/Staffans_O.,_Rota_G.C._(ed.),_Doran_B._(ed.)_Well-Posed_Linear_Systems_(Encyclopedia_of_Mathematics_and_its_Applications)_(2005)(en)(794s).pdf",0,2000-01-01 01:00:00,2016-04-03 02:51:08,29000/c775b1817c65543328aa7b37dcb66de0.jpg,,
5572407,Hilbert modular surfaces,,Ergebnisse Der Mathematik Und Ihrer Grenzgebiete 3 Folge,,Gerard Van Der Geer,1988,,Springer,,309,0,English,Математика//Алгебра,mexmat,4,"9780387176017,0-387-17601-2",,,,,512/.7,QA573 .G44 1988,,,OL2391257M,,0,,,,,,,T,5702882,djvu,C75363BC999619A3E59D9BA10C976E28,,,DVD-004/van_der_Geer_G._Hilbert_modular_surfaces_(1988)(en)(291s).djvu,0,2000-01-01 01:00:00,2016-04-03 02:51:08,29000/c75363bc999619a3e59d9ba10c976e28-d.jpg,,
5572406,PHP Programming with PEAR,,,,"Schmidt Stephan, Stoyan Stefanov, Wormus Aaron, Lucke Carsten",2006,,Packt Publishing,,290,0,English,Компьютеры//Программирование//Языки программирования,mexmat,23,"1904811795,9781904811794",,,,,,,,,OL25191808M,,0,,,,,1,,1,5584459,pdf,C7353F37DED0F3C599D8CD78EB529724,,,"DVD-023/Stephan_S.,_Stefanov_S.,_Aaron_W._PHP_Programming_with_PEAR_(2006)(en)(292s).pdf",0,2000-01-01 01:00:00,2016-04-03 02:51:08,29000/c7353f37ded0f3c599d8cd78eb529724-d.jpg,,
5572405,IL-15 Receptor,,,,"Waldmann Th.A., Tagaya Y.",,,,,8,0,English,Техника//Транспорт//Авиация,mexmat,22,,,,,,,,,,,,0,,,,,,,,353853,pdf,C6B0420FDF3C9FB2092F6323234BFC0F,,,"DVD-022/Waldmann_Th.A.,_Tagaya_Y._IL-15_Receptor(en)(8s).pdf",0,2000-01-01 01:00:00,2016-04-03 02:51:08,29000/c6b0420fdf3c9fb2092f6323234bfc0f.jpg,,
5572404,Electrochemistry of Organic Compounds,,,,Walther L.,1906,3,,,320,0,English,Химия//Органическая химия,mexmat,25,,,,,,,,,,,,0,,,,,,,,15827245,pdf,C64A40819EAE61313F11DE29E09848E8,,,DVD-025/Walther_L._Electrochemistry_of_Organic_Compounds_(1906)(3-rd_jerman)(en)(320s).pdf,0,2000-01-01 01:00:00,2016-04-03 02:51:08,29000/c64a40819eae61313f11de29e09848e8.jpg,,
5572403,Acts of god,,,,Steinberg T.,2000,,,,318,0,English,,mexmat,12,,,,,,,,,,,,0,,,,,,,T,1666398,pdf,C5A699B51B11FE797278028657D03D67,,,DVD-012/Steinberg_T._Acts_of_god_(2000)(en)(294s).pdf,0,2000-01-01 01:00:00,2016-04-03 02:51:08,29000/c5a699b51b11fe797278028657d03d67.jpg,,
5572402,Managing the Risks of Payment Systems,,,,"Paul S. Turner, Diane B. Wunnicke",2002,2 Sub,Wiley,,253,0,English,Бизнес//Менеджмент//Управление проектами,mexmat,24,"9780471328483,0471328480",,,,,658.15/5,HG1710 .T87 2003,,,OL18887047M,,0,,,,,,,T,3945521,pdf,C52E4BFC0DA2ECA1F069ABBBC9705D4B,,,"DVD-024/Turner_P.S.,_Wunnicke_D.B._Managing_the_Risks_of_Payment_Systems_(2003)(en)(256s).pdf",0,2000-01-01 01:00:00,2016-04-03 02:51:08,29000/c52e4bfc0da2eca1f069abbbc9705d4b-d.jpg,,
5572401,Design Of Modulators For Oversampled Converters,,The Springer International Series in Engineering and Computer Science ,,"Feng Wang, Ramesh Harjani",1997,1st,Springer,,83,0,English,Физика,mexmat,29,"9780792380634,0792380630",,,,,621.3815/9,TK7887.6 .W3595 1998,,,OL694319M,,0,,,,,,,,8502983,pdf,C41E79D4C563DBB9479EA08E802C7B8C,,,"DVD-029/Wang_F.,_Harjani_R._Design_Of_Modulators_For_Oversampled_Converters_(1998)(en)(148s).pdf",0,2000-01-01 01:00:00,2016-04-03 02:51:08,29000/c41e79d4c563dbb9479ea08e802c7b8c-d.jpg,,
5572399,Relevance in reasoning,,,,Tennant N.,2004,,,,35,0,English,,mexmat,12,,,,,,,,,,,,0,,,,,,,,301784,pdf,C3C1127ADA686E707C7A2198E2AF2462,,,DVD-012/Tennant_N._Relevance_in_reasoning_(2004)(en)(35s).pdf,0,2000-01-01 01:00:00,2016-04-03 02:51:08,29000/c3c1127ada686e707c7a2198e2af2462.jpg,,
5572400,Solaris 9 for Dummies,,,,Dave Taylor,2003,,For Dummies,,387,0,English,Образование,mexmat,16,0764539698,,,,,,,,,,,0,,,,,,,T,10507186,pdf,C3CAEEA5E705024A3C3B109EF829E391,,,DVD-016/Taylor_D._Solaris_9_for_Dummies_(2003)(en)(384s).pdf,0,2000-01-01 01:00:00,2016-04-03 02:51:08,29000/c3caeea5e705024a3c3b109ef829e391.jpg,,
5572398,Digital Communications: Fundamentals and Applications,,,,Sklar B.,2001,2,,,341,0,English,Техника//Электроника//Телекоммуникации,mexmat,32,,,,,,,,,,,,0,,,,,,,,5557683,pdf,C36C78F4F52F99EFE8F6D2F6A9827F0A,,,DVD-032/Sklar_B._Digital_Communications[c]_Fundamentals_and_Applications_(2001)(2-nd)(en)(341s).pdf,0,2000-01-01 01:00:00,2016-04-03 02:51:08,29000/c36c78f4f52f99efe8f6d2f6a9827f0a.jpg,,
5572397,Relativity and Geometry,,Dover Books on Mathematics ,,Roberto Torretti,1996,,Dover Publications,,203,0,English,Математика//Геометрия и топология,mexmat,16,"9780486690469,0486690466",,,,,530.1/1,QC173.55 .T67 1996,,,OL811811M,,0,,,,,,,,14039661,djvu,C32979D21339A76E77F86D8DD85F954F,,,DVD-016/Torretti_R._Relativity_and_Geometry_(1983)(en)(395s).djvu,0,2000-01-01 01:00:00,2016-04-03 02:51:08,29000/c32979d21339a76e77f86d8dd85f954f-d.jpg,,
5572396,Pro C# 2005 and the .NET 2.0 Platform,,Expert's Voice,,Andrew Troelsen,2005,3,Apress,,1033,0,English,Биология//Генетика,mexmat,13,"1590594193,9781590594193,9781430200604",,,,,,,,,OL8848713M,,0,,,,,1,,T,14021967,pdf,C2CDDF0B1CE640C43584AF4FC2BC0384,,,DVD-013/Troelsen_A._Pro_C#_2005_and_the_.NET_2.0_Platform_(2005)(3rd_ed.)(en)(982s).pdf,0,2000-01-01 01:00:00,2016-04-03 02:51:08,29000/c2cddf0b1ce640c43584af4fc2bc0384-d.jpg,,
5572395,Linda Bradford Raschke On Short Term Trading Strategies,,,,Vomund D.,1997,,,,8,0,English,Бизнес//Трейдинг,mexmat,22,,,,,,,,,,,,0,,,,,,,,327306,pdf,C2A0B7B233F6F14364BE318CEB9F5337,,,DVD-022/Vomund_D._Linda_Bradford_Raschke_On_Short_Term_Trading_Strategies_(1997)(en)(8s).pdf,0,2000-01-01 01:00:00,2016-04-03 02:51:08,29000/c2a0b7b233f6f14364be318ceb9f5337.jpg,,
5572394,Recombinant Gene Expression Protocols,,Methods in Molecular Biology ,,Rocky S. Tuan,1997,1,Humana Press,,494,0,English,Биология,mexmat,31,"9780896033337,0896033333",,,,,572.8/77,QH443 .R36 1997,,,OL1009566M,,0,,,,,,,,37868323,pdf,C27DECE131444FAE195720A8CBEE91EF,,,DVD-031/Tuan_R.S._Recombinant_Gene_Expression_Protocols_(1997)(en)(544s).pdf,0,2000-01-01 01:00:00,2016-04-03 02:51:08,29000/c27dece131444fae195720a8cbee91ef-d.jpg,,
5572393,Coding theory and algebraic geometry,,,,"Stichtenoth H., Tsfasman M.A. (eds.)",1992,,,,108,0,English,Математика//Геометрия и топология,mexmat,15,,,,,,,,,,,,0,,,,,,,,9261261,pdf,C26B7CC47A58F979492A602F18DD7D48,,,"DVD-015/Stichtenoth_H.,_Tsfasman_M.A._(eds.)_Coding_theory_and_algebraic_geometry_(1992)(en)(209s).pdf",0,2000-01-01 01:00:00,2016-04-03 02:51:08,29000/c26b7cc47a58f979492a602f18dd7d48.jpg,,
5572392,Introduction to Naval Architecture,,,,E. C. Tupper,1996,3,Butterworth-Heinemann,,372,0,English,Биология//Экология,mexmat,33,"9780750625296,0-7506-2529-5",,,,,623.8/1,VM156 .M78 1996,,,OL585029M,,0,,,,,,,T,20187321,pdf,C20003BAEE9D7D6084B24B3B3C87BE80,,,DVD-033/Tupper_E.C._Introduction_to_Naval_Architecture_(1996)(3-rd)(en)(420s).pdf,0,2000-01-01 01:00:00,2016-04-03 02:51:08,29000/c20003baee9d7d6084b24b3b3c87be80-d.jpg,,
5572391,The Fast Forward MBA in Project Management,,,,Eric Verzuh,2005,2nd,Wiley,,417,0,English,Бизнес//Менеджмент//Управление проектами,mexmat,4,"9780471692843,0-471-69284-0",,,,,658.4/04,HD69.P75 V475 2005,,,OL17625665M,,0,,,,,,,T,3918916,pdf,C14B186D85CA6F82AF3E6031916AEAD6,,,DVD-004/Verzuh_E._The_Fast_Forward_MBA_in_Project_Management_(2005)(2nd_ed.)(en)(402s).pdf,0,2000-01-01 01:00:00,2016-04-03 02:51:08,29000/c14b186d85ca6f82af3e6031916aead6-d.jpg,,
5572390,Fuzzy systems theory and its applications,,,,"Toshiro Terano, Kiyoji Asai, Michio Sugeno",1992,,Academic Press,,284,0,English,Математика//Нечеткая логика и приложения,mexmat,10,"9780126852455,0126852456",,,,,511.3/22,QA248 .T4213 1992,,,OL1863746M,,0,,,,,,,T,9215882,djvu,C0E42601ACD8F2B188900F452ED8D8DD,,,"DVD-010/Terano_T.,_Asai_K.,_Sugeno_M._Fuzzy_systems_theory_and_its_applications_(1992)(en)(268s).djvu",0,2000-01-01 01:00:00,2016-04-03 02:51:08,29000/c0e42601acd8f2b188900f452ed8d8dd-d.jpg,,
5572389,Immunoenzyme Multiple Staining Methods,,Microscopy Handbooks ,,C. M. Van Der Loos,2000,,BIOS Scientific Publishers,,134,0,English,Медицина//Иммунология,mexmat,22,"9780387915944,038791594X",,,,,,,,,,,0,,,,,,,,2462976,djvu,C0669478C91972FE669DF1A126DE2E1D,,,DVD-022/van_der_Loos_C.M._Immunoenzyme_Multiple_Staining_Methods_(1999)(en)(118s).djvu,0,2000-01-01 01:00:00,2016-04-03 02:51:08,29000/c0669478c91972fe669df1a126de2e1d-d.jpg,,
5572388,Science and Technology of Carbon Nanotubes,,,,T. Yamabe,1999,1,Elsevier Science,,206,0,English,Наука (общее)//Научно-популярное,mexmat,31,0080426964,,,,,,,,,,,0,,,,,,,T,5417215,pdf,BF0B5CA43BADA5358ADDC29990F2C59C,,,"DVD-031/Tanaka_K.,_Yamabe_T.,_Fukui_K._(eds.)_Science_and_Technology_of_Carbon_Nanotubes_(1999)(en)(191s).pdf",0,2000-01-01 01:00:00,2016-04-03 02:51:08,29000/bf0b5ca43bada5358addc29990f2c59c.jpg,,
5572387,Practical organic chemistry,,,,Vogel A.I.,1974,3,,,1212,0,English,Химия//Органическая химия,mexmat,19,,,,,,,,,,,,0,,,,,,,,20016859,djvu,BEEEC8DF514811E777E8DC9DBF61703F,,,DVD-019/Vogel_A.I._Practical_organic_chemistry_(1974)(3rd)(en).djvu,0,2000-01-01 01:00:00,2016-04-03 02:51:08,29000/beeec8df514811e777e8dc9dbf61703f.jpg,,
5572386,"RF Design Guide: Systems, Circuits, and Equations",,Artech House Antennas and Propagation Library ,,Peter Vizmuller,1995,Har/Dis,Artech House Publishers,,296,0,English,Математика,mexmat,24,"0890067546,9780890067543",,,,,621.384/1,TK6560 .V58 1995,,,OL1120648M,,0,,,,,,,0,12186204,pdf,BED18C50B9C717E94F22DCA8BB795F1B,,,"DVD-024/Vizmuller_P._RF_Design_Guide[c]_Systems,_Circuits,_and_Equations_(1995)(en)(281s).pdf",0,2000-01-01 01:00:00,2016-04-03 02:51:08,29000/bed18c50b9c717e94f22dca8bb795f1b-d.jpg,,
5572385,Firearms and Violence: What Do We Know?,,,,"Committee on Law and Justice, National Research Council, Charles F. Wellford, John V. Pepper, Carol V. Petrie",2004,1,National Academies Press,,341,0,English,,mexmat,14,"9780309091244,0-309-09124-1",,,,,,,,,OL10358822M,,0,,,,,,,,1821811,pdf,BE6F9EDE481D592D21B8D51077A3A440,,,"DVD-014/Wellford_C.S.,_Pepper_J.V._Firearms_and_Violence[c]_What_Do_We_Know[q]_(2005)(en)(328s).pdf",0,2000-01-01 01:00:00,2016-04-03 02:51:08,29000/be6f9ede481d592d21b8d51077a3a440-d.jpg,,
5572384,New Nucleic Acid Techniques ,,Methods in Molecular Biology 004,,John M. Walker,1988,1,Humana Press,,554,0,English,,mexmat,30,"9780896031272,0896031276",,,,,574.87/328,QP620 .N47 1988,,,OL1775339M,,0,,,,,1,,T,30464920,pdf,BE65FEA4DC656458E3C0D3499BA918EE,,,DVD-030/Walker_J.M._(ed.)_New_Nucleic_Acid_Techniques_(1988)(en)(553s).pdf,0,2000-01-01 01:00:00,2016-04-03 02:51:08,29000/be65fea4dc656458e3c0d3499ba918ee-d.jpg,,
5572383,"Strings, Lattice Gauge Theory and High Energy Phenomenology",,,,"V. Singh, S. R. Wadia",1987,,World Scientific Pub Co Inc,,306,0,English,Физика//Квантовая физика,mexmat,16,"9789971501570,9971501570",,,,,530.1/4,QC794.6.S85 S77 1987,,,OL2373906M,,0,,,,,,,,9918288,djvu,BE1AE06C624A3CE03F66BA9808B2A8C1,,,"DVD-016/Singh_V.,_Wadia_S.R._(eds.)_Strings,_Lattice_Gauge_Theory_and_High_Energy_Phenomenology_(1987)(en)(598s).djvu",0,2000-01-01 01:00:00,2016-04-03 02:51:08,29000/be1ae06c624a3ce03f66ba9808b2a8c1-g.jpg,,
5572382,Complete Idiot's Guide to JavaScript,,,,Weiss A.,1997,2,,,258,0,English,Образование,mexmat,11,,,,,,,,,,,,0,,,,,,,,812596,pdf,BD9F06A6400D4914E1E48169A4F2D621,,,DVD-011/Weiss_A._Complete_Idiot[ap]s_Guide_to_JavaScript_(1997)(2nd_ed.)(en)(258s).pdf,0,2000-01-01 01:00:00,2016-04-03 02:51:08,29000/bd9f06a6400d4914e1e48169a4f2d621.jpg,,
5572381,Biotechnological innovations in chemical synthesis,,Biotol Ser,,"BIOTOL, B C Currell, R C E Dam-Mieras",1997,,Butterworth-Heinemann,,378,0,English,Химия,mexmat,8,"9780750605618,0-7506-0561-8",,,,,660.6,TP248.65.O73 B55 1997,,,OL407497M,,0,,,,,,,,17089350,pdf,BCD9472179EFC198FD4EBF6EA136C7EE,,,"DVD-008/Van_Balken_J.A.M.,_Van_Dam_Miers_R.C.,_Currel_B._Biotechnological_innovations_in_chemical_synthesis_(1997)(en)(375s).pdf",0,2000-01-01 01:00:00,2016-04-03 02:51:08,29000/bcd9472179efc198fd4ebf6ea136c7ee-d.jpg,,
5572380,The Book of Javascript: A Practical Guide to Interactive Web Pages,,,,Dave Thau!,2006,Second Edition,No Starch Press,,519,0,English,Компьютеры//Сети//Интернет,mexmat,24,"1593271069,9781593271060",,,,,005.133,QA76.73.J39T37 2006,,,OL15597295M,,0,,,,,1,,T,6205615,pdf,BCAEADE01A00A25DBED3473A3E8CD2D2,,,DVD-024/Thau_The_Book_of_Javascript[c]_A_Practical_Guide_to_Interactive_Web_Pages_(2006)(2-nd)(en)(490s).pdf,0,2000-01-01 01:00:00,2016-04-03 02:51:08,29000/bcaeade01a00a25dbed3473a3e8cd2d2-d.jpg,,
5572379,U.S. Department of Energy. Fundamentals Handbook. Electrical Science,Volume 3,,,,1992,,,,126,0,English,Техника//Электроника//Электротехника,mexmat,25,,,,,,,,,,,,0,,,,,,,T,2288497,pdf,BC1136BBB52135950D90AA3A957289A4,,,DVD-025/U.S._Department_of_Energy_DOE_Fundamentals_Handbook_-_Electrical_Science_(vol._3)_(1992)(en)(126s).pdf,0,2000-01-01 01:00:00,2016-04-03 02:51:08,29000/bc1136bbb52135950d90aa3a957289a4.jpg,,
5572378,Differential inequalities,,,,Szarski J.,1965,,,,123,0,English,Математика//Анализ,mexmat,2,,,,,,,,,,,,0,,,,,,,,3634760,djvu,BBA4905EAFCC2BAC7B74D7FE91E46EC2,,,DVD-002/Szarski_J._Differential_inequalities_(1965)(en)(245s).djvu,0,2000-01-01 01:00:00,2016-04-03 02:51:08,29000/bba4905eafcc2bac7b74d7fe91e46ec2.jpg,,
5572377,Guide to Clinical Preventive Services: Report of the United States Preventive Services Task Force,,,,US Preventive Services Task Force,2002,2,,,987,0,English,Медицина//Клиническая медицина,mexmat,22,,,,,,,,,,,,0,,,,,,,T,3535818,pdf,BB995EA9D1F29B4EC8FD97A20C19EFB7,,,DVD-022/US_Preventive_Services_Task_Force_Guide_to_Clinical_Preventive_Services[c]_Report_of_the_United_States_Preventive_Servic[...]Force_(2002)(2-nd)(en)(933s).pdf,0,2000-01-01 01:00:00,2016-04-03 02:51:08,29000/bb995ea9d1f29b4ec8fd97a20c19efb7.jpg,,
5572376,Kaltgasspritzen von Kupfer. Einestromungsmechanische und werkstoffkundliche Analyse und Optimierung des Spritzprozesses,,,,Stoltenhoff T.,2004,,,,222,0,German,Математика//Оптимизация. Исследование операций.,mexmat,17,,,,,,,,,,,,0,,,,,,,T,9508959,pdf,BB834530FEFFB3D2A4DC0F2D6AC45401,,,DVD-017/Stoltenhoff_T._Kaltgasspritzen_von_Kupfer._Einestromungsmechanische_und_werkstoffkundliche_Analyse_und_Optimierung_des[...]esses_(2004)(de)(210s).pdf,0,2000-01-01 01:00:00,2016-04-03 02:51:08,29000/bb834530feffb3d2a4dc0f2d6ac45401.jpg,,
5572375,Occupational Health Practice,,Hodder Arnold Publication,,"H. A. Waldron, C. Edling",1997,4,A Hodder Arnold Publication,,336,0,English,,mexmat,14,"9780750627207,0750627204",,,,,616.9/803,RC967 .O27 1997,,,OL678307M,,0,,,,,,,T,28910455,pdf,BB4275A124B0976F1708FCEF3EEA69AD,,,"DVD-014/Waldron_H._A.,_Edling_C._Occupational_Health_Practice_(1997)(4-e)(en)(336s).pdf",0,2000-01-01 01:00:00,2016-04-03 02:51:08,29000/bb4275a124b0976f1708fcef3eea69ad-d.jpg,,
5572374,From Java to Ruby: Things Every Manager Should Know,,Pragmatic Programmers,,Bruce A. Tate,2006,,Pragmatic Bookshelf,,158,0,English,Компьютеры//Программирование//Языки программирования,mexmat,23,"0976694093,9780976694090",,,,,,,,,OL8588701M,,0,,,,,1,,T,1165979,pdf,BB384E67BEA57B0986E31A4C7A312EC2,,,Pragmatic Bookshelf - From Java to Ruby(Jun 2006).pdf,0,2000-01-01 01:00:00,2016-04-03 02:51:08,29000/bb384e67bea57b0986e31a4c7a312ec2-d.jpg,,
5572373,Mission Critical Windows 2000 Server Administration,,,,Walshaw R.,2000,,,,753,0,English,Компьютеры//Системное администрирование,mexmat,33,1-928994-12-1,,,,,,,,,OL8778482M,,0,,,,,,,T,5587726,pdf,BB095C0D0CA63B969D0A26AAE01CFD52,,,DVD-033/Walshaw_R._Mission_Critical_Windows_2000_Server_Administration_(2000)(en)(560s).pdf,0,2000-01-01 01:00:00,2016-04-03 02:51:08,29000/bb095c0d0ca63b969d0a26aae01cfd52.jpg,,
5572372,Mathematical Monographs No. 3. Determinants,,,,Weld L.G.,1906,4 enlarged,,,56,0,English,Математика,mexmat,13,,,,,,,,,,,,0,,,,,,,,316570,djvu,BA2F63A47046F122153871C700695AEA,,,"DVD-013/Weld_L.G._Mathematical_Monographs_No._3._Determinants_(1906)(4th_ed.,_enl.)(en)(56s).djvu",0,2000-01-01 01:00:00,2016-04-03 02:51:08,29000/ba2f63a47046f122153871c700695aea.jpg,,
5572371,ACTH,,,,"Weigent D.A., Blalock J.E.",2000,,,,10,0,English,,mexmat,22,,,,,,,,,,,,0,,,,,,,,138797,pdf,BA2715D2F0D6269539660A5684C58D73,,,"DVD-022/Weigent_D.A.,_Blalock_J.E._ACTH_(2000)(en)(10s).pdf",0,2000-01-01 01:00:00,2016-04-03 02:51:08,29000/ba2715d2f0d6269539660a5684c58d73.jpg,,
5572370,Cancer Cell Signaling. Methods and Protocols,,Methods in Molecular Biology ,,David M. Terrian,2010,1st Edition.,Humana Press,,291,0,English,Медицина//Онкология,mexmat,22,"9781617373411,1617373419",,,,,,,,,,,0,,,,,,,,3495441,pdf,B9AB0E0759E97F04B771206A229BA3AD,,,DVD-022/Terrian_D.M._Cancer_Cell_Signaling._Methods_and_Protocols_(2002)(en)(352s).pdf,0,2000-01-01 01:00:00,2016-04-03 02:51:08,29000/b9ab0e0759e97f04b771206a229ba3ad-d.jpg,,
5572369,Evolutionary Epistemology and Scientific Realism,,,,Thomson P.,1995,,,,27,0,English,,mexmat,30,,,,,,,,,,,,0,,,,,,,,2440788,pdf,B935CA5BC2AA15AC8858A60011F8E41C,,,DVD-030/Thomson_P._Evolutionary_Epistemology_and_Scientific_Realism_(1995)(en)(27s).pdf,0,2000-01-01 01:00:00,2016-04-03 02:51:08,29000/b935ca5bc2aa15ac8858a60011f8e41c.jpg,,
5572367,Reactive Distillation,,,,"Sundmacher K., Kienle A. (eds.)",2002,,,,299,0,English,,mexmat,26,3-527-29590-9,,,,,660/.2832,TP159.M53 E37 2000,,,OL6899720M,,0,,,,,,,T,5510225,pdf,B680E1AFCB4ABB62D5FBE5E6B1A0712E,,,"DVD-026/Sundmacher_K.,_Kienle_A._(eds.)_Reactive_Distillation_(2002)(en)(287s).pdf",0,2000-01-01 01:00:00,2016-04-03 02:51:08,29000/b680e1afcb4abb62d5fbe5e6b1a0712e.jpg,,
5572368,Mathematical Handbook of Formulas and Tables,,,,Spiegel M.R.,1968,,,,278,0,English,Математика,mexmat,1,,,,,,,,,,,,0,,,,,,,,5329077,djvu,B828328031B4BEE4D3971026B5789E0C,,,DVD-001/Spiegel_M.R._Mathematical_Handbook_of_Formulas_and_Tables_(1968)(en)(271s).djvu,0,2000-01-01 01:00:00,2016-04-03 02:51:08,29000/b828328031b4bee4d3971026b5789e0c.jpg,,
5572366,Numerical Grid Generation. Foundations and Applications,,,,"Thompson J.F., Warsi Z.U.A., Mastin C.W.",1985,,,,331,0,English,Математика//Вычислительная математика,mexmat,1,,,,,,,,,,,,0,,,,,,,,2447108,djvu,B663E1EAD72778AC17ACCD9C2D1919AE,,,"DVD-001/Thompson_J.F.,_Warsi_Z.U.A.,_Mastin_C.W._Numerical_Grid_Generation._Foundations_and_Applications_(1985)(en)(330s).djvu",0,2000-01-01 01:00:00,2016-04-03 02:51:08,29000/b663e1ead72778ac17accd9c2d1919ae.jpg,,
5572365,Anorexia and Bulimia in the Family. One Parent’s Practical Guide to Recovery,,,,Gráinne Smith,2004,1,Wiley,,239,0,English,,mexmat,13,"9780470861615,0470861614",,,,,616.85/26,RC552.A5 S63 2004,,,OL19149951M,,0,,,,,,,T,1691467,pdf,B65F7AD2E7E8AE5008B34DD9AA6422FC,,,DVD-013/Smith_G._Anorexia_and_Bulimia_in_the_Family._One_Parent[ap]s_Practical_Guide_to_Recovery_(2004)(en)(218s).pdf,0,2000-01-01 01:00:00,2016-04-03 02:51:08,29000/b65f7ad2e7e8ae5008b34dd9aa6422fc-d.jpg,,
5572364,"Outlines of Mineralogy, Geology and Mineralogical Analysis",Volume 1,,,Thomson T.,1836,,,,734,0,English,Геология,mexmat,26,,,,,,,,,,,,0,,,,,,,,31248503,pdf,B5EE890977D2A0E27C6B83C81334014C,,,"DVD-026/Thomson_T._(Vol._1)_Outlines_of_Mineralogy,_Geology_and_Mineralogical_Analysis_(1836)(en)(734s).pdf",0,2000-01-01 01:00:00,2016-04-03 02:51:08,29000/b5ee890977d2a0e27c6b83c81334014c.jpg,,
5572363,Mathematische Modellbildung und numerische Simulation von Gas-Flüssigkeits-Blasenströmungen,,,,Sokolichin A.,2004,,,,376,0,German,,mexmat,17,,,,,,,,,,,,0,,,,,,,T,16043761,pdf,B530596236C8A2B47CE5B7697F795DF6,,,DVD-017/Sokolichin_A._Mathematische_Modellbildung_und_numerische_Simulation_von_Gas-Fl&#252;ssigkeits-Blasenstr&#246;mungen_(2004)(de)(360s).pdf,0,2000-01-01 01:00:00,2016-04-03 02:51:08,29000/b530596236c8a2b47ce5b7697f795df6.jpg,,
5572362,"Analytic Theory of Continued Fractions, ",,,,"Hubert Stanley, Wall",1967,,Chelsea Publishing Company,,445,0,English,Математика//Анализ,mexmat,1,"9780828402071,0828402078,0821821067,9780821821060",,,,,515/.243,QA295 .W28 2000,,,OL20929155M,,0,,,,,1,,,2609432,djvu,B52579E486A4EA9C4ABB9691446C4D8F,,,DVD-001/Wall_H.S._Analytic_Theory_of_Continued_Fractions_(1967)(en)(433s).djv,0,2000-01-01 01:00:00,2016-04-03 02:51:08,29000/b52579e486a4ea9c4abb9691446c4d8f.jpg,,
5572361,Audio and Hi-Fi Handbook,,,,Ian Sinclair,1998,3,Newnes,,454,0,English,,mexmat,24,"9780750636360,0-7506-3636-X",,,,,621.389/3,TK7881.7 .N476 1998,,,OL470671M,,0,,,,,,,T,5058088,pdf,B519ADC5C942D6F0B9C3193DF05C588E,,,DVD-024/Sinclair_I.R._Audio_and_Hi-Fi_Handbook_(1998)(3rd)(en)(443s).pdf,0,2000-01-01 01:00:00,2016-04-03 02:51:08,29000/b519adc5c942d6f0b9c3193df05c588e-d.jpg,,
5572360,Principles of Asynchronous Circuit Design - A Systems Perspective,,,,"Jens Sparsø, Steve Furber",2010,1st Edition.,Springer,,354,0,English,Техника//Электроника//Радио,mexmat,31,"9781441949363,1441949364",,,,,,,,,,,0,,,,,,,,2602288,pdf,B4868E94662F2BCD8885095AECBB4109,,,"DVD-031/Spars&#248;_J.,_Furber_S._(eds.)_Principles_of_Asynchronous_Circuit_Design_-_A_Systems_Perspective_(2006)(en)(337s).pdf",0,2000-01-01 01:00:00,2016-04-03 02:51:08,29000/b4868e94662f2bcd8885095aecbb4109-d.jpg,,
5572359,Introduction to percolation theory,,,,"Dietrich Stauffer, Ammon Aharony",1994,2,CRC Press,,91,0,English,Физика,mexmat,3,"9780748402533,0-7484-0253-5",,,,,,,,,,,0,,,,,,,,2520129,djvu,B34EB170BF5612C3ABD2D267CF6AE206,,,"DVD-003/Stauffer_D.,_Aharony_A._Introduction_to_percolation_theory_(1992)(en)(91s).djvu",0,2000-01-01 01:00:00,2016-04-03 02:51:08,29000/b34eb170bf5612c3abd2d267cf6ae206-d.jpg,,
5572358,Optimizing the parSOM Neural Network Implementation for Data Mining with Distributed Memory Systems and Cluster Computing,,,,"Tomsich P., Rauber A., Merkl D.",2001,,,,5,0,English,Компьютеры//Организация и обработка данных,mexmat,18,,,,,,,,,,,,0,,,,,,,,60142,pdf,B33BD6C02863B8AFF1F67B70B9B17B3A,,,"DVD-018/Tomsich_P.,_Rauber_A.,_Merkl_D._Optimizing_the_parSOM_Neural_Network_Implementation_for_Data_Mining_with_Distributed_M[...]uting_(2001)(en)(5s).pdf",0,2000-01-01 01:00:00,2016-04-03 02:51:08,29000/b33bd6c02863b8aff1f67b70b9b17b3a.jpg,,
5572357,Genrlized Hyprgmtric Fnctns ,,,,Slater,1966,,Cambridge University Press,,143,0,English,Математика//Анализ,mexmat,1,"9780521064835,052106483X",,B0000CMUC3,,,,,,,OL22287580M,,0,,,,,1,,,2655464,djvu,B2FA957DAD0D03582375FBBDC7C89F5C,,,DVD-001/Slater_L.J._Generalized_hypergeometric_functions_(1966)(en)(273s).djvu,0,2000-01-01 01:00:00,2016-04-03 02:51:08,29000/b2fa957dad0d03582375fbbdc7c89f5c-d.jpg,,
5572356,Computer Algebra and differential equations,,London Mathematical Society Lecture Note Series,,Evelyne Tournier,1994,,Cambridge University Press,,130,0,English,Математика,mexmat,1,"9780521447577,0521447577",,,,,515/.35,QA614.3 .C65 1994,,,OL1191446M,,0,,,,,,,,3058054,djvu,B2F7133EE13C022712D305527D7B19FD,,,DVD-001/Tournier_E._Computer_Algebra_and_differential_equations_(1994)(en)(259s).djvu,0,2000-01-01 01:00:00,2016-04-03 02:51:08,29000/b2f7133ee13c022712d305527d7b19fd-d.jpg,,
5572355,The Protein Protocols Handbook,,Methods in Molecular Biology,,John M. Walker,2002,2nd,Humana Press,,1103,0,English,,mexmat,26,"0896039404,9780896039407",,,,,572/.6,QP551 .P697512 2002,,,OL17919720M,,0,,,,,,,,12584545,pdf,B2C09D63D4A4611A171C1C013B658BFB,,,DVD-026/Walker_J.M._(ed.)_The_Protein_Protocols_Handbook_(2002)(en)(176s).pdf,0,2000-01-01 01:00:00,2016-04-03 02:51:08,29000/b2c09d63d4a4611a171c1c013b658bfb-d.jpg,,
5572354,Introduction to Wireless Local Loop,,Artech House Telecommunications Library.,,"William E. Webb, William Webb",1998,,Artech House Publishers,,324,0,English,Компьютеры//Сети,mexmat,25,"0890067023,9780890067024",,,,,384.5/35,TK5103.2 .W43 1998,,,OL700755M,,0,,,,,,,1,1109218,pdf,B2BE5C9FF871DF5665806732195C70EA,,,DVD-025/Webb_W._Introduction_to_Wireless_Local_Loop_(1998)(en)(319s).pdf,0,2000-01-01 01:00:00,2016-04-03 02:51:08,29000/b2be5c9ff871df5665806732195c70ea-d.jpg,,
5572353,Introduction to Differential Geometry & General Relativity,,,,Waner S.,2002,3,,,128,0,English,Математика//Геометрия и топология,mexmat,1,,,,,,,,,,,,0,,,,,,,,636343,pdf,B289D61758CD3B6FA22F7D0A6D50E507,,,DVD-001/Waner_S._Introduction_to_Differential_Geometry_&_General_Relativity_(2002)(3rd)(en)(128s).pdf,0,2000-01-01 01:00:00,2016-04-03 02:51:08,29000/b289d61758cd3b6fa22f7d0a6d50e507.jpg,,
5572352,"Advanced Signal Processing Handbook: Theory and Implementation for Radar, Sonar, and Medical Imaging Real Time Systems",,Electrical Engineering & Applied Signal Processing Series,,Stergios Stergiopoulos,2000,1,CRC Press,,727,0,English,"Математика//Вейвлеты,обработка сигналов",mexmat,28,"9780849336911,9781420037395,0849336910",,,,,621.382/2,TK5102.9 .A383 2000,,,OL20525622M,,0,,,,0,0,,1,54656868,pdf,B214406B2BBB520C2402200E96F40961,,,"DVD-028/Stergiopoulos_S._Advanced_Signal_Processing_Handbook[c]_Theory_and_Implementation_for_Radar,_Sonar,_and_Medical_Imaging_[...]stems_(2000)(en)(727s).pdf",0,2000-01-01 01:00:00,2016-04-03 02:51:08,29000/b214406b2bbb520c2402200e96f40961-d.jpg,,
5572351,Breakthrough: Stories and Strategies of Radical Innovation,,,,"Mark Stefik, Barbara Stefik",2006,illustrated edition,The MIT Press,,309,0,English,,mexmat,33,"0262693372,9780262693370",,,,,,,,,OL9550494M,,0,,,,,,,T,14375694,pdf,B1A5F9B3FFE65BF5C53490B52C7B78D6,,,"DVD-033/Stefik_M.,_Stefik_B._Breakthrough[c]_Stories_and_Strategies_of_Radical_Innovation_(2006)(en)(320s).pdf",0,2000-01-01 01:00:00,2016-04-03 02:51:08,29000/b1a5f9b3ffe65bf5c53490b52c7b78d6-d.jpg,,
5572350,Partial Differential Equations and the Finite Element Method ,,"Pure and Applied Mathematics: A Wiley Series of Texts, Monographs and Tracts",,Pavel Ŝolín,2005,,Wiley-Interscience,,499,0,English,Математика,mexmat,10,"0471720704,9780471720706",,B000VB2SBW,,,,,,,OL7620591M,,0,,,,,,,T,20307655,pdf,B1041348461C31DB04BDEF166500E0F2,,,DVD-010/Solin_P._Partial_differential_equations_and_the_finite_element_method_(2006)(en)(467s).pdf,0,2000-01-01 01:00:00,2016-04-03 02:51:08,29000/b1041348461c31db04bdef166500e0f2-d.jpg,,
5572349,E. coli Gene Expression Protocols,,Methods in Molecular Biology 205,,Peter E. Vaillancourt,2002,1st,Humana Press,,362,0,English,Биология,mexmat,22,"9781588290083,1-58829-008-5",,,,,,,,,OL17060614M,,0,,,,,,,,2525323,pdf,B0EA16652ED9E62A2874B5C38DBC4387,,,DVD-022/Vaillancourt_P.E._E._coli_Gene_Expression_Protocols_(2002)(en)(368s).pdf,0,2000-01-01 01:00:00,2016-04-03 02:51:08,29000/b0ea16652ed9e62a2874b5c38dbc4387-d.jpg,,
5572348,Newnes Electrical Engineer's Handbook,,,,D.F. Warne,2000,,Newnes,,438,0,English,Техника//Электроника//Электротехника,mexmat,33,0750648791,,,,,621.3,TK151 .W27 2000,,,,,0,,,,,1,,T,19398258,pdf,B0B974DE32F3F1547A4035C63E083D89,,,DVD-033/Warbe_D.F._Electrical_Engineer[ap]s_Handbook_(2000)(en)(415s).pdf,0,2000-01-01 01:00:00,2016-04-03 02:51:08,29000/b0b974de32f3f1547a4035c63e083d89-d.jpg,,
5572347,Math Mode v1.91,,,,Voss H.,2005,,,,130,0,English,"Компьютеры//Программы//TeX, LaTeX",mexmat,2,,,,,,,,,,,,0,,,,,,,,1444171,pdf,B05E2A72292C39880555D4CC3078F09E,,,DVD-002/Voss_H._Math_Mode_-_v._1.91_(2005)(en)(130s).pdf,0,2000-01-01 01:00:00,2016-04-03 02:51:08,29000/b05e2a72292c39880555d4cc3078f09e.jpg,,
5572346,How to Become a Stressfree Trader: The Accidental Discoveries of an Applied Behavioral Science Student,,,,"Jason Starzec, Mark Crisp",2003,,"iUniverse, Inc.",,161,0,English,Наука (общее)//Научно-популярное,mexmat,22,"9780595275052,0595275052",,,,,,,,,OL7552673M,,0,,,,,,,,3933356,pdf,AF6FDA51BF35574BB495F2A3DCF642A6,,,"DVD-022/Starzec_J.,_Crisp_M._How_to_Become_a_Stressfree_Trader[c]_The_Accidental_Discoveries_of_an_Applied_Behavioral_Science_Student_(2003)(en)(153s).pdf",0,2000-01-01 01:00:00,2016-04-03 02:51:08,29000/af6fda51bf35574bb495f2a3dcf642a6-d.jpg,,
5572345,Schallemissionsuntersuchungen bei LCF-Versuchen an Baustahl St 52,,,,Timmers R.,2001,,,,128,0,English,,mexmat,18,,,,,,,,,,,,0,,,,,,,T,8614370,pdf,AE9D44A10BC974C4150F8A9D92A6D07C,,,DVD-018/Timmers_R._Schallemissionsuntersuchungen_bei_LCF-Versuchen_an_Baustahl_St_52_(2001)(en)(128s).pdf,0,2000-01-01 01:00:00,2016-04-03 02:51:08,29000/ae9d44a10bc974c4150f8a9d92a6d07c.jpg,,
5572344,Off the Wall Chess Trivia,,,,Wall B.,2001,,,,287,0,English,"Домоводство, досуг//Игры//Шахматы",mexmat,23,1886846332,,,,,,,,,,,0,,,,,,,T,1598661,pdf,AE3F4B51AB1C7C1A97D6CB62B9543216,,,DVD-023/Wall_B._Off_the_Wall_Chess_Trivia_(2001)(en)(287s).pdf,0,2000-01-01 01:00:00,2016-04-03 02:51:08,29000/ae3f4b51ab1c7c1a97d6cb62b9543216.jpg,,
5572343,Modern optical engineering,,,,Warren J. Smith,2000,3rd,McGraw-Hill Professional,,640,0,English,Техника,mexmat,12,"9780071363600,0-07-136360-2",,,,,,,,,OL7298667M,,0,,,,,,,T,6475504,pdf,ADE0E22DB90CEAC829E4EBAAAEDAE68B,,,DVD-012/Smith_W.J._Modern_optical_engineering_(2000)(3rd_ed.)(en)(617s).pdf,0,2000-01-01 01:00:00,2016-04-03 02:51:08,29000/ade0e22db90ceac829e4ebaaaedae68b-d.jpg,,
5572341,CSF-1,,,,Stanley E.R.,,,,,24,0,English,,mexmat,22,,,,,,,,,,,,0,,,,,,,,582721,pdf,AD83DD40DA29E9BD714E2454F73D2B44,,,DVD-022/Stanley_E.R._CSF-1(en)(24s).pdf,0,2000-01-01 01:00:00,2016-04-03 02:51:08,29000/ad83dd40da29e9bd714e2454f73d2b44.jpg,,
5572342,Developmental Biology Protocols,Volume 1,Methods in Molecular Biology 135,,"Tuan R.S., Lo C.W.",1999,,,,502,0,English,Биология,mexmat,25,,,,,,,,,,,,0,,,,,,,,9588499,pdf,ADC1D4FD49445E6A6CBB84C380579F8C,,,"DVD-025/Tuan_R.S.,_Lo_C.W._Developmental_Biology_Protocols_(Volume_I)_(1999)(en)(616s).pdf",0,2000-01-01 01:00:00,2016-04-03 02:51:08,29000/adc1d4fd49445e6a6cbb84c380579f8c.jpg,,
5572340,DNA Repair Protocols. Prokaryotic Systems,,Methods in Molecular Biology ,,Pat Vaughan,2010,1st Edition.,Humana Press,,189,0,English,Биология//Генетика,mexmat,22,"9781617371127,1617371122",,,,,,,,,,,0,,,,,,,,986822,pdf,AD561A6AEA9DA4C4807E501E89555024,,,DVD-022/Vaughan_P._DNA_Repair_Protocols._Prokaryotic_Systems_(2000)(en)(220s).pdf,0,2000-01-01 01:00:00,2016-04-03 02:51:08,29000/ad561a6aea9da4c4807e501e89555024-d.jpg,,
5572339,Zeta-functions,,,,Thomas A.D.,1977,,,,127,0,English,Математика//Алгебра,mexmat,1,,,,,,,,,,,,0,,,,,,,,1825363,djvu,AD0919273AD34DC39C83E926DA20B7AE,,,DVD-001/Thomas_A.D._Zeta-functions_(1977)(en)(230s).djvu,0,2000-01-01 01:00:00,2016-04-03 02:51:08,29000/ad0919273ad34dc39c83e926da20b7ae.jpg,,
5572338,Topics in the Theory of Random Noise,Volume 1,,,Stratonovich R.L.,1963,,,,153,0,English,,mexmat,26,,,,,,,,,,,,0,,,,,,,,5092469,pdf,ACB253DC89F5B860F399506659081CAB,,,DVD-026/Stratonovich_R.L._Topics_in_the_Theory_of_Random_Noise_(vol._1)_(1963)(en)(292s).pdf,0,2000-01-01 01:00:00,2016-04-03 02:51:08,29000/acb253dc89f5b860f399506659081cab.jpg,,
5572337,The Science of Getting Rich,,,,Wallace D. Wattles,2007,,Thinking Stuff LLC,,66,0,English,Наука (общее)//Научно-популярное,mexmat,31,"9780984064625,0984064621",,,,,,,,,,,0,,,,,,,T,275799,pdf,AC901C92D82255ED0570285C5FCEB0CB,,,DVD-031/Wattles_W.D._The_Science_of_Getting_Rich_(2002)(en)(66s).pdf,0,2000-01-01 01:00:00,2016-04-03 02:51:08,29000/ac901c92d82255ed0570285c5fceb0cb-d.jpg,,
5572336,"Cell Growth, Differentiation and Senescence",,Practical Approach Series,,George Studzinski,2000,1,"Oxford University Press, USA",,329,0,English,,mexmat,29,"9780199637690,0199637695",,,,,571.8,QH604.7 .C447 1999,,,OL22015365M,,0,,,,,,,T,19707885,pdf,AC891ABCC35FDEC2D73CA08C0FB012B9,,,"DVD-029/Studzinski_G.P._Cell_Growth,_Differentiation_and_Senescence_(1999)(en)(307s).pdf",0,2000-01-01 01:00:00,2016-04-03 02:51:08,29000/ac891abcc35fdec2d73ca08c0fb012b9-d.jpg,,
5572335,"Logicism: Exact Philosophy, Linguistics and Artificial Intelligence",,,,Thomason R.H.,1995,,,,12,0,English,Общественные науки прочие//Философия,mexmat,10,,,,,,,,,,,,0,,,,,,,,188817,pdf,AC85C52057A2F2DFFC93E8DCE93E6467,,,"DVD-010/Thomason_R.H._Logicism[c]_Exact_Philosophy,_Linguistics_and_Artificial_Intelligence_(1995)(en)(11s).pdf",0,2000-01-01 01:00:00,2016-04-03 02:51:08,29000/ac85c52057a2f2dffc93e8dce93e6467.jpg,,
5572334,Mycotoxin Protocols,,Methods in Molecular Biology ,,"Mary W. Trucksess, Albert E. Pohland",2001,1st,Humana Press,,221,0,English,Биология,mexmat,22,"9780896036239,9781592590643,0896036235",,,,,,,,WNS_rIYtEjEC,OL9720729M,,0,,,,1,0,,1,1305958,pdf,ABF97B415106286E08339A2783308429,,,"DVD-022/Trucksess_M.W.,_Pohland_A.E._Mycotoxin_Protocols_(2000)(en)(256s).pdf",0,2000-01-01 01:00:00,2016-04-03 02:51:08,29000/abf97b415106286e08339a2783308429-d.jpg,,
5572333,Engineering Digital Design,,,,Richard F. Tinder,2000,2nd,Academic Press,,913,0,English,Техника,mexmat,25,"9780126912951,0126912955",,,,,,,,,OL7329240M,,0,,,,,,,T,50607899,pdf,ABC4D250C202350EDDABF73B181DF382,,,DVD-025/Tinder_R.F._Engineering_Digital_Design_(1999)(2-nd)(en)(884s).pdf,0,2000-01-01 01:00:00,2016-04-03 02:51:08,29000/abc4d250c202350eddabf73b181df382-d.jpg,,
5572332,A short course in the theory of determinants,,,,Laenas Gifford Weld,2010,,Nabu Press,,250,0,English,,mexmat,13,"9781171623236,1171623232",,,,,,,,,,,0,,,,,,,,1029331,djvu,AAD67751C3325731939B2A3A6DB12121,,,DVD-013/Weld_L.G._A_short_course_in_the_theory_of_determinants_(1893)(en)(238s).djvu,0,2000-01-01 01:00:00,2016-04-03 02:51:08,29000/aad67751c3325731939b2a3a6db12121-d.jpg,,
5572331,Gene Therapy of Cancer. Methods and Protocols,,Methods in Molecular Medicine,,"Wolfgang Walther, Ulrike Stein",2000,1,Humana Press,,634,0,English,Медицина//Онкология,mexmat,34,"9780896037144,0-89603-714-2",,,,,,,,,OL9381589M,,0,,,,,,,,15796246,pdf,AAB9A347EF305700540FF08E119DB096,,,"DVD-034/Walther_W.,_Stein_U._Gene_Therapy_of_Cancer._Methods_and_Protocols_(2000)(en)(664s).pdf",0,2000-01-01 01:00:00,2016-04-03 02:51:08,29000/aab9a347ef305700540ff08e119db096-d.jpg,,
5572330,Microeconomics principles,,,,Temple P.,,7,,,228,0,English,Экономика,mexmat,10,,,,,,,,,,,,0,,,,,,,,4495015,djvu,AA2420F219116380D3DC7BE903DE0A68,,,DVD-010/Temple_P._Microeconomics_principles(7th_ed.)(en)(220s).djv,0,2000-01-01 01:00:00,2016-04-03 02:51:08,29000/aa2420f219116380d3dc7be903de0a68.jpg,,
5572329,Information Security Principles and Practice,,,,Mark Stamp,2005,,Wiley-Interscience,,413,0,English,,mexmat,18,"9780471738480,0471738484",,,,,,,,,OL15978508M,,0,,,,,,,T,7952632,pdf,A998C9CCF29714577ABAD959BF4EA5BB,,,DVD-018/Stamp_M._Information_Security_Principles_and_Practice_(2005)(en)(390s).pdf,0,2000-01-01 01:00:00,2016-04-03 02:51:08,29000/a998c9ccf29714577abad959bf4ea5bb-d.jpg,,
5572328,Dynamic Architecture: How to Make Enterprise Architecture a Success,,,,"Roel Wagter, Martin van den Berg, Joost Luijpers, Marlies van Steenbergen",2005,1,Wiley,,257,0,English,Компьютеры//Информационные системы//ИС предприятий,mexmat,3,"9780471682721,0-471-68272-1",,,,,,,,,OL7620054M,,0,,,,,,,T,2370559,pdf,A8BF9F20164F816F387D3244607C3F79,,,DVD-003/Van_den_Berg_M._Dynamic_Architecture[c]_How_to_Make_Enterprise_Architecture_a_Success_(2005)(en)(248s).pdf,0,2000-01-01 01:00:00,2016-04-03 02:51:08,29000/a8bf9f20164f816f387d3244607c3f79-d.jpg,,
5572327,C Primer Plus. User Friendly Guide to the C Programming Language,,,,"Mitchell Waite, Stephen Prata, Donald Martin",1987,Rev Sub,Sams Publishing,,576,0,English,Компьютеры//Программирование//Языки программирования,mexmat,10,"9780672225826,0-672-22582-4",,,,,005.13/3,QA76.73.C15 W35 1987,,,OL2410614M,,0,,,,,,,,24347302,djvu,A8A3155F957F02B46A7BF585EC2574B3,,,"DVD-010/Waite_M.,_Prata_S.,_Martin_D._C_Primer_Plus._User_Friendly_Guide_to_the_C_Programming_Language_(1987)(rev._ed.)(en)(557s).djvu",0,2000-01-01 01:00:00,2016-04-03 02:51:08,29000/a8a3155f957f02b46a7bf585ec2574b3.jpg,,
5572326,Advanced Java Networking,,,,"Dick Steflik, Prashant Sridharan, Richard Steflik",2000,2nd,Prentice Hall,,363,0,English,Компьютеры//Сети,mexmat,28,"9780130844668,0130844667",,,,,,,,,OL7333420M,,0,,,,,,,,1977453,pdf,A89E8F185470231473D2E3954FA7D463,,,"DVD-028/Steflik_D.,_Sridharan_P._Advanced_Java_Networking_(2000)(2-nd)(en)(399s).pdf",0,2000-01-01 01:00:00,2016-04-03 02:51:08,29000/a89e8f185470231473d2e3954fa7d463-d.jpg,,
5572325,A World at Arms. A Global History Of World War II,,,,Gerhard L. Weinberg,1994,1St Edition,cambrige university press,,1197,0,English,История,mexmat,20,"9780521443173,0521443172,0521558794",,,,,940.54,D743 .W424 1994,,,OL1732932M,,0,,,,,,,T,11935907,pdf,A866B20BD7801207B24707BBC0E1BDE6,,,DVD-020/Weinberg_G.L._A_World_at_Arms._A_Global_History_Of_World_War_II_(1995)(en)(1196s).pdf,0,2000-01-01 01:00:00,2016-04-03 02:51:08,29000/a866b20bd7801207b24707bbc0e1bde6-d.jpg,,
5572324,Sams Teach Yourself Shell Programming in 24 Hours,,,,Sriranga Veeraraghavan,1999,1,Sams,,593,0,English,Образование//Самоучители,mexmat,10,"9780672314810,0672314819",,,,,,,,,OL7668093M,,0,,,,,,,T,5438245,pdf,A80A4AFE355F492C15F38BD91B941245,,,DVD-010/Veeraraghavan_S._Sams_Teach_Yourself_Shell_Programming_in_24_Hours_(1999)(en)(593s).pdf,0,2000-01-01 01:00:00,2016-04-03 02:51:08,29000/a80a4afe355f492c15f38bd91b941245-d.jpg,,
5572323,Dreamweaver 8 For Dummies,,For Dummies ,,Janine Warner,2005,illustrated edition,For Dummies,,451,0,English,Образование,mexmat,18,"0764596497,9780764596490,9780471787723",,,,,005.7/2,TK5105.8885.D74 W365 2006,,,OL23071257M,,0,,,,,1,,T,12749635,pdf,A7C77CBF1472EA3D7EA845894D72AA90,,,DVD-018/Warner_J._Dreamweaver_8_For_Dummies_(2005)(en)(425s).pdf,0,2000-01-01 01:00:00,2016-04-03 02:51:08,29000/a7c77cbf1472ea3d7ea845894d72aa90-d.jpg,,
5572322,Methods in Enzymology. Differentiation of Embryonic Stem Cells,Volume 365,,,"Wassarman P. (ed.), Keller G. (ed.)",2003,,,,574,0,English,Биология//Биохимия//Ферментология,mexmat,22,,,,,,,,,,,,0,,,,,,,,4785464,pdf,A74EE49DA6A33FA3C465A32D8BCC6B69,,,"DVD-022/Wassarman_P._(ed.),_Keller_G._(ed.)_Methods_in_Enzymology_(vol._365)._Differentiation_of_Embryonic_Stem_Cells_(2003)(en)(500s).pdf",0,2000-01-01 01:00:00,2016-04-03 02:51:08,29000/a74ee49da6a33fa3c465a32d8bcc6b69.jpg,,
5572321,The Struts Framework. Practical Guide for Java Programmers,,The Practical Guides,,Sue Spielman,2002,1st,Morgan Kaufmann,,153,0,English,Компьютеры//Программирование//Языки программирования,mexmat,23,"1558608621,9781558608627,9780585449944",,,,,,,,,OL18388217M,,0,,,,,1,,T,5501591,pdf,A74A9DE0358E3874EF0E37CB444FF8B4,,,DVD-023/Spielman_S._The_Struts_Framework._Practical_Guide_for_Java_Programmers_(2003)(en)(137s).pdf,0,2000-01-01 01:00:00,2016-04-03 02:51:08,29000/a74a9de0358e3874ef0e37cb444ff8b4-d.jpg,,
5572320,Trade Your Way to Financial Freedom,,,,Van K Tharp,2006,2,McGraw-Hill Companies,,181,0,English,Экономика,mexmat,23,,,B001K0CH78,,,,,,,,,0,,,,,,,,3057201,pdf,A73BA7C6204DF25F36DA125BAF9EB56E,,,DVD-023/Tharp_V.K._Trade_Your_Way_to_Financial_Freedom_(2006)(2-nd)(en)(352s).pdf,0,2000-01-01 01:00:00,2016-04-03 02:51:08,29000/a73ba7c6204df25f36da125baf9eb56e.jpg,,
5572319,Encyclopedia of Clothing and Fashion,Volume 3,Scribner Library of Daily Life,,Valerie Steele,2005,,Charles Scribner&#39;s Sons,,557,0,English,Образование//Энциклопедии,mexmat,30,"9780684313948,0-684-31394-4",,,,,391.003,GT507,,,OL15564712M,,0,,,,,,,1,15653287,pdf,A6DCCA1470DCBB0C84FEC23C6CF87FB0,,,DVD-030/Steele_V._(ed.)_Encyclopedia_of_Clothing_and_Fashion_(vol._3)_(2005)(en)(561s).pdf,0,2000-01-01 01:00:00,2016-04-03 02:51:08,29000/a6dcca1470dcbb0c84fec23c6cf87fb0-d.jpg,,
5572318,Array and Phased Array Antenna Basics,,,,Prof Hubregt Visser,2005,,Wiley,,378,0,English,Техника//Электроника//Радио,mexmat,24,"9780470871171,0470871172",,,,,,,,,OL7598378M,,0,,,,,,,T,24653427,pdf,A6D53ABE218F66879183A7031FA6511A,,,DVD-024/Visser_H.J._Array_and_Phased_Array_Antenna_Basics_(2005)(en)(359s).pdf,0,2000-01-01 01:00:00,2016-04-03 02:51:08,29000/a6d53abe218f66879183a7031fa6511a-d.jpg,,
5572317,Beginning perl for bioinformatics,,,,James Tisdall,2001,1,O'Reilly Media,,394,0,English,Биология//Молекулярная//Биоинформатика,mexmat,10,"0596000804,9780596000806",,,,,005.133,,,,OL22149660M,,0,,,,,,,T,1432070,pdf,A5563998AA5ACE8AE959929427261FC7,,,DVD-010/Tisdall_J._Beginning_perl_for_bioinformatics_(2001)(en)(384s).pdf,0,2000-01-01 01:00:00,2016-04-03 02:51:08,29000/a5563998aa5ace8ae959929427261fc7-d.jpg,,
5572316,Das Geld in der Geschichte,,,,Walker K.,2000,,,,104,0,German,,mexmat,14,,,,,,,,,,,,0,,,,,,,,521214,pdf,A4E2F724EAE8C9AD301F6A578569B353,,,DVD-014/Walker_K._Das_Geld_in_der_Geschichte_(2000)(de)(104s).pdf,0,2000-01-01 01:00:00,2016-04-03 02:51:08,29000/a4e2f724eae8c9ad301f6a578569b353.jpg,,
5572315,Separations and Reactions in Organic Supramolecular Chemistry: Perspectives in Supramolecular Chemistry,Volume 8,,,"Fumio Toda, Roger Bishop",2004,1,Wiley,,245,0,English,Химия//Органическая химия,mexmat,26,"9780470854488,0-470-85448-0",,,,,,,,,OL7598110M,,0,,,,,,,T,11931831,pdf,A485525AE6CA8333536E839F5013DF44,,,"DVD-026/Toda_F.,_Bishop_R._Separations_and_Reactions_in_Organic_Supramolecular_Chemistry[c]_Perspectives_in_Supramolecular_Chemi[...]ume_8_(2004)(en)(250s).pdf",0,2000-01-01 01:00:00,2016-04-03 02:51:08,29000/a485525ae6ca8333536e839f5013df44-d.jpg,,
5572314,Fabulous science,,,,John Waller,2004,illustrated edition,Oxford University Press,,321,0,English,Биология,mexmat,12,"9780198609391,0198609396",,,,,509,Q180.55.D57 W35 2004,,,OL3321827M,,0,,,,,,,T,2730944,pdf,A477CA69CACE4B0706E85790E8FDC893,,,DVD-012/Waller_J._Fabulous_science_(2002)(en)(308s).pdf,0,2000-01-01 01:00:00,2016-04-03 02:51:08,29000/a477ca69cace4b0706e85790e8fdc893-d.jpg,,
5572313,Lectures on Arakelov Geometry,,Cambridge Studies in Advanced Mathematics,,"C. Soulé, D. Abramovich, J. F. Burnol, J. K. Kramer",1992,,Cambridge University Press,,97,0,English,Математика//Геометрия и топология,mexmat,1,"9780521416696,0521416698",,,,,516.3/5,QA242.5 .S68 1994,,,OL7740045M,,0,,,,,,,,1331350,djvu,A3F2026D1582B546AF4EBB5C6E2D11E4,,,DVD-001/Soule_C._Lectures_on_Arakelov_Geometry_(1992)(en)(185s).djvu,0,2000-01-01 01:00:00,2016-04-03 02:51:08,29000/a3f2026d1582b546af4ebb5c6e2d11e4-d.gif,,
5572312,Integrated approach to web performance testing,,,,B. M. Subraya,2006,illustrated edition,IRM Press,,387,0,English,Компьютеры//Сети//Интернет,mexmat,18,"9781591407850,1-59140-785-0",,,,,006.7,TK5105.88813 .I55 2005,,,OL3408034M,,0,,,,,,,,8545513,pdf,A34B83F83D2149D601C6CC7F2FE3BBF7,,,DVD-018/Subraya_B.M._Integrated_approach_to_web_performance_testing_(2006)(en)(368s).pdf,0,2000-01-01 01:00:00,2016-04-03 02:51:08,29000/a34b83f83d2149d601c6cc7f2fe3bbf7-d.jpg,,
5572310,Analytical Electrochemistry,,,,Wang J.,2000,2,,,223,0,English,Химия,mexmat,25,0-471-22823-0,,,,,,,,,,,0,,,,,,,T,4756821,pdf,A2BDE38918A318E8BB23525DAB3FFD86,,,DVD-025/Wang_J._Analytical_Electrochemistry_(2000)(2nd)(en)(236s).pdf,0,2000-01-01 01:00:00,2016-04-03 02:51:08,29000/a2bde38918a318e8bb23525dab3ffd86.jpg,,
5572311,Creative Self-Hypnosis,,,,Straus R.A.,1989,,,,146,0,English,,mexmat,29,0131911988,,,,,,,,,,,0,,,,,,,,25206399,pdf,A3348AC5E2AECA3B6EFA738FF3B0A7BA,,,"Coaching - Prentice Hall Trade - 1989 - Creative Self-Hypnosis. New, Wide-Awake, Nontrance Techniques to Empower Your Life, Work, and Relationships - ISBN 0131911988 - 146s.pdf",0,2000-01-01 01:00:00,2016-04-03 02:51:08,29000/a3348ac5e2aeca3b6efa738ff3b0a7ba.jpg,,
5572309,Encyclopaedia Arcane: Demonology - The Dark Road,,,,Sprange M.,2001,,,,72,0,English,Образование//Энциклопедии,mexmat,15,"1903980038,9781903980033",,,,,,,,,OL8769814M,,0,,,,,,,,4705602,pdf,A27667C86DFE314413EA7D17917BC4DA,,,DVD-015/Sprange_M._Encyclopaedia_Arcane[c]_Demonology_-_The_Dark_Road_(2001)(en)(64s).pdf,0,2000-01-01 01:00:00,2016-04-03 02:51:08,29000/a27667c86dfe314413ea7d17917bc4da.jpg,,
5572308,Poverty Targeting in Asia,,,,John Weiss,2005,illustrated edition,Edward Elgar Publishing,,302,0,English,,mexmat,12,"9781845421236,184542123X",,,,,,,,,OL22620756M,,0,,,,,,,T,2648952,pdf,A223F893C71F002DE4AE87244E43EBE5,,,DVD-012/Weiss_J._(ed.)_Poverty_Targeting_in_Asia_(2005)(en)(282s).pdf,0,2000-01-01 01:00:00,2016-04-03 02:51:08,29000/a223f893c71f002de4ae87244e43ebe5-d.jpg,,
5572307,Electrodynamics of the Semiconductor Band Edge,,Springer Tracts in Modern Physics,,"A. Stahl, I. Balslev",1987,,Springer,,218,0,English,Техника//Электроника//Радио,mexmat,13,"9780387169538,0387169539,3540169539",,,,,,,,,OL10152331M,,0,,,,,,,,2162546,djvu,A21D1FC2AFE986C1C572561FAB7A192F,,,"DVD-013/Stahl_A.,_Balslev_I._Electrodynamics_of_the_Semiconductor_Band_Edge_(1987)(en)(205s).djv",0,2000-01-01 01:00:00,2016-04-03 02:51:08,29000/a21d1fc2afe986c1c572561fab7a192f.jpg,,
5572305,IL-7 Receptor,,,,Spits H.,,,,,10,0,English,Техника//Транспорт//Авиация,mexmat,22,,,,,,,,,,,,0,,,,,,,,119994,pdf,A1E565F09D9AE698808E34AB13CCCC0B,,,DVD-022/Spits_H._IL-7_Receptor(en)(10s).pdf,0,2000-01-01 01:00:00,2016-04-03 02:51:08,29000/a1e565f09d9ae698808e34ab13cccc0b.jpg,,
5572306,Exploratory factor analysis,,,,"Tucker L.R., MacCallum R.C.",1997,,,,459,0,English,Математика//Анализ,mexmat,5,,,,,,,,,,,,0,,,,,,,,1756160,pdf,A1EBB01E177B0E83C39BA1A53773936A,,,"DVD-005/Tucker_L.R.,_MacCallum_R.C._Exploratory_factor_analysis_(1997)(en)(457s).pdf",0,2000-01-01 01:00:00,2016-04-03 02:51:08,29000/a1ebb01e177b0e83c39ba1a53773936a.jpg,,
5572304,Agile Web Development with Rails: A Pragmatic Guide,,,,"Dave Thomas, David Hansson, Leon Breedt, Mike Clark, James Duncan Davidson, Justin Gehtland, Andreas Schwarz",2006,Second Edition,Pragmatic Bookshelf,,715,0,English,Компьютеры//Сети//Интернет,mexmat,31,"0977616630,9780977616633",,,,,,,,,OL15627670M,,0,,,,,1,,,6876701,pdf,A19E9610E4114FAA55C2D3518A43D08F,,,"DVD-031/Thomas_D.,_Hansson_D.H.,_Schwarz_A._Agile_Web_Development_with_Rails[c]_A_Pragmatic_Guide_(2005)(en)(715s).pdf",0,2000-01-01 01:00:00,2016-04-03 02:51:08,29000/a19e9610e4114faa55c2d3518a43d08f-d.jpg,,
5572303,The History and Status of General Systems Theory,,,,Von Bertalanffy L.,1972,,,,21,0,English,История,mexmat,29,,,,,,,,,,,,0,,,,,,,,2801012,pdf,A184326F9BAF16A83EF150460A6C7109,,,DVD-029/Von_Bertalanffy_L._The_History_and_Status_of_General_Systems_Theory_(1972)(en)(21s).pdf,0,2000-01-01 01:00:00,2016-04-03 02:51:08,29000/a184326f9baf16a83ef150460a6c7109.jpg,,
5572302,IBM Certification Study Guide AIX V4.3 System Administration,,IBM Redbook ,,IBM Redbooks,1999,1,Ibm,,460,0,English,Компьютеры//Системное администрирование,mexmat,20,"0738410314,9780738410319",,,,,,,,,OL10605959M,,0,,,,,1,,T,4845647,pdf,A160ACC84EB740F763A92554E78C4BFD,,,"DVD-020/Vetter_S.,_De_Klerk_A.,_Chaudry_A._IBM_Certification_Study_Guide_AIX_V4.3_System_Administration_(1999)(1-st)(en)(460s).pdf",0,2000-01-01 01:00:00,2016-04-03 02:51:08,29000/a160acc84eb740f763a92554e78c4bfd-d.jpg,,
5572301,HTML 4 for Dummies,,,,"Ed Tittel, Natanya Pitts",2003,,,,418,0,English,Образование,mexmat,17,"9780764519956,0764519956",,,,,,,,,OL8041903M,,0,,,,,,,,8507981,pdf,A0BA9C2C73607C2668B1B1BDE2049458,,,"DVD-017/Tittel_E.,_Pitts_M._HTML_4_for_Dummies_(2003)(en)(408s).pdf",0,2000-01-01 01:00:00,2016-04-03 02:51:08,29000/a0ba9c2c73607c2668b1b1bde2049458-d.jpg,,
5572300,Organic Synthesis: The Disconnection Approach,,,,Stuart Warren,1982,,John Wiley & Sons,,397,0,English,Химия//Органическая химия,mexmat,26,,,B000RKWF9W,,,,,,,,,0,,,,,,,,37834630,pdf,A07E4A7D269F0D1752F2AB35C01705A6,,,DVD-026/Warren_S._Organic_Synthesis[c]_The_Disconnection_Approach_(1983)(en)(404s).pdf,0,2000-01-01 01:00:00,2016-04-03 02:51:08,29000/a07e4a7d269f0d1752f2ab35c01705a6.jpg,,
5572299,General Relativity,,,,Robert M. Wald,1984,First Edition,University Of Chicago Press,,494,0,English,Физика//Теория относительности и гравитация,mexmat,7,"9780226870335,0226870332",,,,,530.1/1,QC173.6 .W35 1984,,,OL3175577M,,0,,,,,,,,9681824,djvu,A072940764007C213C742774C3372EEF,,,DVD-007/Wald_R.M._General_Relativity_(1984)(en)(491s).djvu,0,2000-01-01 01:00:00,2016-04-03 02:51:08,29000/a072940764007c213c742774c3372eef-d.jpg,,
5572298,An Introduction to Data Mining,,,,Thearling K.,,,,,47,0,English,Компьютеры//Организация и обработка данных,mexmat,15,,,,,,,,,,,,0,,,,,,,T,2964573,pdf,A059A98C136B73546A66B5E9721AC65B,,,DVD-015/Thearling_K._An_Introduction_to_Data_Mining(en)(93s).pdf,0,2000-01-01 01:00:00,2016-04-03 02:51:08,29000/a059a98c136b73546a66b5e9721ac65b.jpg,,
5572297,Cancer Cytogenetics. Methods and Protocols,,Methods in Molecular Biology ,,John Swansbury,2010,1st Edition.,Humana Press,,271,0,English,Биология//Генетика,mexmat,22,1617373443,,,,,,,,,,,0,,,,,,,,2604717,pdf,A044FA07E5F365462B5F140BF2235CF4,,,DVD-022/Swansbury_J._Cancer_Cytogenetics._Methods_and_Protocols_(2003)(en)(296s).pdf,0,2000-01-01 01:00:00,2016-04-03 02:51:08,29000/a044fa07e5f365462b5f140bf2235cf4.jpg,,
5572296,Perception and Illusion: Historical Perspectives,,,,Wade N.,2004,,,,265,0,English,История,mexmat,28,0387227237,,,,,,,,,,,0,,,,,,,T,1627069,pdf,9FE8CF735FA8F9F2A20206D0B4730BA8,,,DVD-028/Wade_N._Perception_and_Illusion[c]_Historical_Perspectives_(2004)(en)(250s).pdf,0,2000-01-01 01:00:00,2016-04-03 02:51:08,29000/9fe8cf735fa8f9f2a20206d0b4730ba8.jpg,,
5572295,Beyond Nature-Nurture,,,,"Michael Tomasello, Dan Isaac Slobin",2004,1,Psychology Press,,370,0,English,,mexmat,12,"9780805850277,0-8058-5027-9",,,,,,,,,OL15563411M,,0,,,,,,,T,21421316,pdf,9FD9F85234602F7EB1C4E9A8FF5E9DA8,,,"DVD-012/Tomasello_M.,_Slobin_D.I._(ed.)_Beyond_Nature-Nurture_(2005)(en)(339s).pdf",0,2000-01-01 01:00:00,2016-04-03 02:51:08,29000/9fd9f85234602f7eb1c4e9a8ff5e9da8-d.jpg,,
5572294,Signal Processing for Intelligent Sensor Systems,,"Signal Processing and Communications, Vol. 4 ",,David C. Swanson,2000,1,Marcel Dekker,,631,0,English,"Математика//Вейвлеты,обработка сигналов",mexmat,28,0824799429,,,,,,,,,,,0,,,,,,,T,57981468,pdf,9F8381D93E2833EF5FB21BC27C66E59C,,,DVD-028/Swanson_D.C._Signal_Processing_for_Intelligent_Sensor_Systems_(2000)(1-st)(en)(631s).pdf,0,2000-01-01 01:00:00,2016-04-03 02:51:08,29000/9f8381d93e2833ef5fb21bc27c66e59c.jpg,,
5572293,Algebraic K-Theory,,Lecture notes in mathematics ; 551,,Michaeol J. Stein,1976,,Springer-Verlag,,422,0,English,Математика//Алгебра,mexmat,14,"9780387079967,0387079963,3540079963",,,,,"510/.8 s,514/.23","QA3 .L28 no. 551,QA612.33 .L28 no. 551",,,OL4903817M,,0,,,,,,,T,14305787,djvu,9F5C41508E2A0CB881A0CB195E60F864,,,DVD-014/Stein_M.R._(ed.)_Algebraic_K-Theory_(1976)(en)(409s).djvu,0,2000-01-01 01:00:00,2016-04-03 02:51:08,29000/9f5c41508e2a0cb881a0cb195e60f864.jpg,,
5572291,A First Course in Corporate Finance ,,,,Welch I.,2006,,LL,,764,0,English,Экономика,mexmat,32,,,B000GTSCL4,,,,,,,,,0,,,,,1,,,6684748,pdf,9EDEC7828DD4A79E26E00097945FDD20,,,DVD-032/Welch_I._A_First_Course_in_Corporate_Finance_(2006)(en)(739s).pdf,0,2000-01-01 01:00:00,2016-04-03 02:51:08,29000/9edec7828dd4a79e26e00097945fdd20.jpg,,
5572292,Ribozyme Protocols,,Methods in Molecular Biology ,,Philip C. Turner,1997,1st,Humana Press,,486,0,English,Биология,mexmat,31,"9780896033894,0896033899",,,,,572/.788,QP623.5.C36 R53 1997,,izrzHTJHZ1EC,OL666395M,,0,,,,0,1,,1,30605928,pdf,9EFDF39E4EB86C786CAFDCEDDCC516A9,,,DVD-031/Turner_P.C._Ribozyme_Protocols_(1997)(en)(492s).pdf,0,2000-01-01 01:00:00,2016-04-03 02:51:08,29000/9efdf39e4eb86c786cafdceddcc516a9-d.jpg,,
5572290,Ultra Wideband Radio Technology,,,,"Kazimierz Siwiak, Debra McKeown",2004,1,Wiley,,265,0,English,Техника//Электроника//Радио,mexmat,24,"0470859318,9780470859315,9780470859322",,,,,621.384,TK5103.4 .S59 2004,,,OL24262818M,,0,,,,,1,,T,2676326,pdf,9ECD671413EA05C7C24A51478D14B42C,,,"DVD-024/Siwiak_K.,_McKeown_D._Ultra_Wideband_Radio_Technology_(2004)(en)(246s).pdf",0,2000-01-01 01:00:00,2016-04-03 02:51:08,29000/9ecd671413ea05c7c24a51478d14b42c-d.jpg,,
5572289,MAS207: electromagnetism,,,,van Elst H.,2004,,,,93,0,English,Физика//Электричество и магнетизм,mexmat,5,,,,,,,,,,,,0,,,,,,,T,519357,pdf,9D77FADDFA6ED30FEE16393BB41AC07C,,,DVD-005/van_Elst_H._MAS207[c]_electromagnetism_(2004)(en)(87s).pdf,0,2000-01-01 01:00:00,2016-04-03 02:51:08,29000/9d77faddfa6ed30fee16393bb41ac07c.jpg,,
5572288,LaTeX for complete novices,,,,Talbot N.,2001,,,,145,0,English,Образование,mexmat,2,,,,,,,,,,,,0,,,,,,,,1226301,pdf,9D582328832D755563E0E20102AFDF40,,,DVD-002/Talbot_N._LaTeX_for_complete_novices_(2001)(en)(145s).pdf,0,2000-01-01 01:00:00,2016-04-03 02:51:08,29000/9d582328832d755563e0e20102afdf40.jpg,,
5572287,Ein algebraisches Reynoldsspannungsmodell,,,,Weis J.,2001,,,,119,0,German,Математика//Алгебра,mexmat,17,,,,,,,,,,,,0,,,,,,,T,3800597,pdf,9D481A10C6D6E127FCD18FADD6864F26,,,DVD-017/Weis_J._Ein_algebraisches_Reynoldsspannungsmodell_(2001)(de)(111s).pdf,0,2000-01-01 01:00:00,2016-04-03 02:51:08,29000/9d481a10c6d6e127fcd18fadd6864f26.jpg,,
5572286,Extracellular Matrix Protocols,,Methods in Molecular Biology ,,"Charles Streuli, Michael Grant",2000,1,Humana Press,,341,0,English,Математика//Алгебра//Линейная алгебра,mexmat,22,"9780896036246,0896036243",,,,,,,,,OL8253654M,,0,,,,,,,,2339175,pdf,9D34A7E4C8410997A1B7844D6A42CAFB,,,"DVD-022/Streuli_C.H._(ed.),_Grant_M._Extracellular_Matrix_Protocols_(2000)(en)(370s).pdf",0,2000-01-01 01:00:00,2016-04-03 02:51:08,29000/9d34a7e4c8410997a1b7844d6a42cafb-d.jpg,,
5572285,Tab Electronics Guide to Understanding Electricity and Electronics,,,,Slone G.R.,2000,2,,,479,0,English,Техника//Электроника,mexmat,26,,,,,,,,,,,,0,,,,,,,,35338603,pdf,9C667A96BAB9677B4AD36348DB2D3EC6,,,DVD-026/Slone_G.R._Tab_Electronics_Guide_to_Understanding_Electricity_and_Electronics_(2000)(2nd)(en)(400s).pdf,0,2000-01-01 01:00:00,2016-04-03 02:51:08,29000/9c667a96bab9677b4ad36348db2d3ec6.jpg,,
5572284,Schaum's outline of theory and problems of real variables,,,,Spiegel M.R.,1969,,,,201,0,English,Математика//Анализ,mexmat,12,,,,,,,,,,,,0,,,,,,,,8872294,pdf,9C2EE7B44A9DB600D43AD789E46B16C3,,,DVD-012/Spiegel_M.R._Schaum[ap]s_outline_of_theory_and_problems_of_real_variables_(1969)(en)(194s).pdf,0,2000-01-01 01:00:00,2016-04-03 02:51:08,29000/9c2ee7b44a9db600d43ad789e46b16c3.jpg,,
5572283,Pharmacogenetic Testing,,,,"Weber W.W., Cronin M.T.",2000,,,,25,0,English,Химия//Фармакология,mexmat,9,0471-97670-9,,,,,,,,,OL15494717M,,0,,,,,,,,171420,pdf,9C2244A61CEFD8A07CAEEEC8B8DDC20B,,,"DVD-009/Weber_W.W.,_Cronin_M.T._Pharmacogenetic_Testing_(2000)(en)(25s).pdf",0,2000-01-01 01:00:00,2016-04-03 02:51:08,29000/9c2244a61cefd8a07caeeec8b8ddc20b.jpg,,
5572282,Protein Sequencing Protocols ,,Methods in Molecular Biology 064,,Bryan John Smith,1997,1,Springer,,368,0,English,Биология//Биотехнология,mexmat,34,"9780896033535,0896033538",,,,,574.87/328,QP625.N89 P76 1997,,lNfvRiOWAfsC,OL999747M,,0,,,,0,0,,1,20619672,pdf,9C1EE4217FC02CB06DE863E8A28F1A60,,,DVD-034/Smith_B.J._Protein_Sequencing_Protocols_(1996)(en)(392s).pdf,0,2000-01-01 01:00:00,2016-04-03 02:51:08,29000/9c1ee4217fc02cb06de863e8a28f1a60-d.jpg,,
5572281,The Rise and Decline of the State,,,,Martin van Creveld,1999,,Cambridge University Press,,448,0,English,История,mexmat,12,"9780521651905,0-521-65190-5",,,,,320.1/09,JC11 .V35 1999,,,OL370288M,,0,,,,,,,T,1890989,pdf,9BE632C2A06304A32B6B32E76D45AC3B,,,DVD-012/van_Creveld_M._The_Rise_and_Decline_of_the_State_(1999)(en)(439s).pdf,0,2000-01-01 01:00:00,2016-04-03 02:51:08,29000/9be632c2a06304a32b6b32e76d45ac3b-d.jpg,,
5572280,Electronic Circuits for the Hobbyist,,,,Van Roon T.,2004,,,,298,0,English,Техника//Электроника,mexmat,25,,,,,,,,,,,,0,,,,,,,,15219679,pdf,9B9D8AC5370FBE4D66B4D2A4A0AFFF89,,,DVD-025/Van_Roon_T._Electronic_Circuits_for_the_Hobbyist_(2004)(en)(298s).pdf,0,2000-01-01 01:00:00,2016-04-03 02:51:08,29000/9b9d8ac5370fbe4d66b4d2a4a0afff89.jpg,,
5572279,Twistor geometry and field theory,,Cambridge Monographs on Mathematical Physics,,"R. S. Ward, Raymond O. Wells  Jr",1990,,Cambridge University Press,,528,0,English,Математика//Геометрия и топология,mexmat,5,"9780521268905,0-521-26890-7",,,,,512/.33,QC173.75.T85 W37 1990,,,OL2400990M,,0,,,,,,,T,4554932,djvu,9A2BF288AA971198BE1DCF7699C5350F,,,"DVD-005/Ward_R.S.,_Wells_R.O._Twistor_geometry_and_field_theory_(1990)(en)(520s).djvu",0,2000-01-01 01:00:00,2016-04-03 02:51:08,29000/9a2bf288aa971198be1dcf7699c5350f.jpg,,
5572278,Advanced organic reactions,,,,Stuart W.,1983,,,,174,0,English,Химия//Органическая химия,mexmat,9,,,,,,,,,,,,0,,,,,,,T,1300337,pdf,9A2222D8C3132F199208E645F7DC73AB,,,DVD-009/Stuart_W._Advanced_organic_reactions_(1983)(en)(174s).pdf,0,2000-01-01 01:00:00,2016-04-03 02:51:08,29000/9a2222d8c3132f199208e645f7dc73ab.jpg,,
5572277,Modern Derivatization Methods for Separation Sciences,,,,Toshimasa Toyo'oka,1999,1,Wiley,,588,0,English,,mexmat,25,"9780471983644,0-471-98364-0",,,,,543/.089,QD79.C4 M63 1999,,,OL366717M,,0,,,,,,,T,6601649,pdf,9A1A925269408972B444DA8E09CA3264,,,DVD-025/Toyo[ap]oka_T._Modern_Derivatization_Methods_for_Separation_Sciences_(1999)(en)(298s).pdf,0,2000-01-01 01:00:00,2016-04-03 02:51:08,29000/9a1a925269408972b444da8e09ca3264-d.jpg,,
5572276,The Relative Strength Index (RSI),,,,Sweeney J.,1997,,,,3,0,English,Физика//Теория относительности и гравитация,mexmat,22,,,,,,,,,,,,0,,,,,,,T,62086,pdf,99F99C6323C4D6A5C130AEE919C5ECBA,,,DVD-022/Sweeney_J._The_Relative_Strength_Index_(RSI)_(1997)(en)(3s).pdf,0,2000-01-01 01:00:00,2016-04-03 02:51:08,29000/99f99c6323c4d6a5c130aee919c5ecba.jpg,,
5572275,Organic Syntheses,Volume 65,,,"Vedejs E., Heathcock C.H., Sharpless K.B. (eds.)",1987,,,,148,0,English,Химия//Органическая химия,mexmat,8,,,,,,,,,,,,0,,,,,,,,5796328,pdf,99749D51D47E02755C2B05DA04A19598,,,"DVD-008/Vedejs_E.,_Heathcock_C.H.,_Sharpless_K.B._(eds.)_Organic_Syntheses_(vol._65)_(1987)(en)(278s).pdf",0,2000-01-01 01:00:00,2016-04-03 02:51:08,29000/99749d51d47e02755c2b05da04a19598.jpg,,
5572274,Information Visualization: Perception for Design,,Interactive Technologies,,Colin Ware,2004,2,Morgan Kaufmann,,514,0,English,Компьютеры,mexmat,30,"1558608192,9781558608191,9781417536931",,,,,152.14,TS156.2 W37  2004,,,OL25216570M,,0,,,,,1,,T,39355852,pdf,996C364984878CF4DE2E435D152CB0DC,,,DVD-030/Ware_C._Information_Visualization[c]_Perception_for_Design_(2004)(en)(486s).pdf,0,2000-01-01 01:00:00,2016-04-03 02:51:08,29000/996c364984878cf4de2e435d152cb0dc-d.jpg,,
5572273,Catalysis of Diels-Alder Reactions in Water,,,,van der Woude F.,1998,,,,203,0,English,Химия,mexmat,9,90-367-0930-X,,,,,,,,,,,0,,,,,,,T,1117429,pdf,99196CB8FDD39C99B61697B4E156040E,,,DVD-009/van_der_Woude_F._Catalysis_of_Diels-Alder_Reactions_in_Water_(1998)(en)(186s).pdf,0,2000-01-01 01:00:00,2016-04-03 02:51:08,29000/99196cb8fdd39c99b61697b4e156040e.jpg,,
5572272,"Biochemistry of Lipids, Lipoproteins and Membranes",,,,"Dennis E. Vance, Jean E. Vance",2002,4,Elsevier Science,,624,0,English,Биология//Биотехнология,mexmat,25,,,B0028QHJJY,,,,,,,,,0,,,,,,,T,71568879,pdf,98F4728DF0B7A4961056CBC00BE92D63,,,"DVD-025/Vance_D.E.,_Vance_J.E._Biochemistry_of_Lipids,_Lipoproteins_and_Membranes_(2002)(4th)(en)(608s).pdf",0,2000-01-01 01:00:00,2016-04-03 02:51:08,29000/98f4728df0b7a4961056cbc00be92d63.jpg,,
5572271,Rfid for Dummies,,,,Patrick J. Sweeney II,2005,1,For Dummies,,409,0,English,Образование,infanata,15,076457910X,,,,,"621.384,658.787",TK6553 .S87 2005,,,OL17152893M,,0,,,,,,,,9576625,pdf,9827C65A754EF8A95E1A4347D282E31B,,,N:\\natahaus\\2006\\2006-10\\[1146073811]Rfid for Dummies.-- Sweeney.pdf,0,2000-01-01 01:00:00,2016-04-03 02:51:08,29000/9827c65a754ef8a95e1a4347d282e31b-d.jpg,,
5572270,Digital Video For Dummies,,,,Keith Underdahl,2003,3,For Dummies,,409,0,English,Образование,mexmat,15,"9780764541148,0764541145",,,,,,,,,OL8042398M,,0,,,,,,,T,12618029,pdf,97F5FA60C583F090A3EE324D7AF353F2,,,DVD-015/Underdahl_K._Digital_Video_For_Dummies_(2003)(3rd_ed.)(en)(375s).pdf,0,2000-01-01 01:00:00,2016-04-03 02:51:08,29000/97f5fa60c583f090a3ee324d7af353f2-d.jpg,,
5572269,Untersuchungen zur Plastizität und Versetzungs-anordnung von Strontiumtitanat,,,,Taeri-Baghbadora S.,2002,,,,180,0,German,,mexmat,7,,,,,,,,,,,,0,,,,,,,,2707923,pdf,97ACA733E4DC6C199E5D6D4FCF2B9494,,,DVD-007/Taeri-Baghbadora_S._Untersuchungen_zur_Plastizit&#228;t_und_Versetzungs-anordnung_von_Strontiumtitanat_(2002)(de)(171s).pdf,0,2000-01-01 01:00:00,2016-04-03 02:51:08,29000/97aca733e4dc6c199e5d6d4fcf2b9494.jpg,,
5572268,Drugs of Abuse: Neurological Reviews and Protocols,,Methods in Molecular Medicine ,,John Q. Wang,2010,1st Edition.,Humana Press,,467,0,English,Медицина//Неврология,mexmat,25,"9781617373282,1617373281",,,,,,,,,,,0,,,,,,,,8600949,pdf,97601CC357539E14A0317880DFA835E5,,,DVD-025/Wang_J.Q._Drugs_of_Abuse[c]_Neurological_Reviews_and_Protocols_(2002)(en)(468s).pdf,0,2000-01-01 01:00:00,2016-04-03 02:51:08,29000/97601cc357539e14a0317880dfa835e5-d.jpg,,
5572267,CE Conformity Marking and New Approach Directives,,,,Ray Tricker (MSc  IEng  FIET  FCIM  FIQA  FIRSE),2000,,Butterworth-Heinemann,,300,0,English,Бизнес//менеджмент,mexmat,24,"9780750648134,0-7506-4813-9",,,,,,,,,OL7972151M,,0,,,,,,,T,2027403,pdf,96D58B41CC1F2280599630C2CD96BDBB,,,DVD-024/Tricker_R._CE_Conformity_Marking_and_New_Approach_Directives_(2000)(en)(285s).pdf,0,2000-01-01 01:00:00,2016-04-03 02:51:08,29000/96d58b41cc1f2280599630c2cd96bdbb-d.jpg,,
5572266,Expert One-on-One Visual Basic 2005 Design and Development,,,,Stephens R.,2007,,,,649,0,English,Компьютеры//Программирование,mexmat,30,"047112060X,0471242675,0471242683,0471323519",,,,,005.26/8,QA76.73.B3 S8333 1999,,,OL3584804M,,0,,,,,,,T,12692910,pdf,96C203C5725775B47511485442589CD4,,,DVD-030/Stephens_R._Expert_One-on-One_Visual_Basic_2005_Design_and_Development_(2007)(en)(620s).pdf,0,2000-01-01 01:00:00,2016-04-03 02:51:08,29000/96c203c5725775b47511485442589cd4.jpg,,
5572265,SQL For Dummies,,,,Allen G. Taylor,2006,6,For Dummies,,434,0,English,Образование,mexmat,21,047004652X,,,,,005.756,QA76.73.S67 T39 2006,,,OL17954659M,,0,,,,,,,T,7546567,pdf,969DCF57A83C60B8EE7A9E1996F28CF2,,,DVD-021/Taylor_A.G._SQL_For_Dummies_(2006)(6th)(en)(432s).pdf,0,2000-01-01 01:00:00,2016-04-03 02:51:08,29000/969dcf57a83c60b8ee7a9e1996f28cf2.jpg,,
5572263,GIT Receptor,,,,"Vinay D., Kwon B.",2000,,,,4,0,English,,mexmat,22,,,,,,,,,,,,0,,,,,,,,60205,pdf,95A03762E0C72E30C482B1FFF338D54F,,,"DVD-022/Vinay_D.,_Kwon_B._GIT_Receptor_(2000)(en)(4s).pdf",0,2000-01-01 01:00:00,2016-04-03 02:51:08,29000/95a03762e0c72e30c482b1fff338d54f.jpg,,
5572264,Contemporary economic issues,,,,Taylor T.,1998,,,,36,0,English,Экономика,mexmat,13,,,,,,,,,,,,0,,,,,,,,3245137,pdf,965595079A8104A123DFFD36C331B8B1,,,DVD-013/Taylor_T._Contemporary_economic_issues_(1998)(en)(67s).pdf,0,2000-01-01 01:00:00,2016-04-03 02:51:08,29000/965595079a8104a123dffd36c331b8b1.jpg,,
5572262,Олимпиадные задачи по программированию. Руководство по подготовке к соревнованиям,,,,"Стивен С. Скиена, Мигель А. Ревилла",2003,,КУДИЦ-Образ,,379,0,English,Математика,infanata,10,5-9579-0082-6,,,,,,,,,,,0,,,,,,,T,4617070,pdf,956100DEC00E6675A69EA5D34A968A8A,,,ReallyUsefulEbooks.com_Springer Programming Challenges Steven S Skiena Isbn-0387001638 Mar-2003 Ebooks-Corner.pdf,0,2000-01-01 01:00:00,2016-04-03 02:51:08,29000/956100dec00e6675a69ea5d34a968a8a.jpg,,
5572261,New Headway. English Course. Upper-Intermediate Workbook with Key,,,,"Liz Soars, John Soars, Jo Devoy",1998,,Cornelsen & Oxford University Press,,96,0,English,Языкознание,mexmat,21,"9783464048269,3464048268",,,,,,,,,OL9042622M,,0,,,,,,,,10988008,pdf,94B5DCB7D3A4847A9EB4AB955271B980,,,"DVD-021/Soars_L.,_Soars_J.,_Devoy_J._New_Headway._English_Course._Upper-Intermediate_Workbook_with_Key_(1998)(en)(104s).pdf",0,2000-01-01 01:00:00,2016-04-03 02:51:08,29000/94b5dcb7d3a4847a9eb4ab955271b980-d.jpg,,
5572259,Linux Cookbook: Tips and Techniques for Everyday Use,,,,Stutz M.,2004,2,,,544,0,English,Компьютеры//Операционные системы,mexmat,18,,,,,,,,,,,,0,,,,,,,,8482866,pdf,939A59ECB60C25A97F69CBDE1A0D6A2F,,,DVD-018/Stutz_M._Linux_Cookbook[c]_Tips_and_Techniques_for_Everyday_Use_(2004)(2-nd)(en)(787s).pdf,0,2000-01-01 01:00:00,2016-04-03 02:51:08,29000/939a59ecb60c25a97f69cbde1a0d6a2f.jpg,,
5572260,Dynamics A Set of Notes on Theoretical Physical Chemistry,,,,"Steen J., Range K., York D.M.",2003,,,,144,0,English,Физика,mexmat,25,,,,,,,,,,,,0,,,,,,,,777851,pdf,94515281765A0842B61B3279BCE39BD2,,,"DVD-025/Steen_J.,_Range_K.,_York_D.M._Dynamics_A_Set_of_Notes_on_Theoretical_Physical_Chemistry_(2003)(en)(144s).pdf",0,2000-01-01 01:00:00,2016-04-03 02:51:08,29000/94515281765a0842b61b3279bce39bd2.jpg,,
5572258,Group Theory and Physics,,,,S. Sternberg,1994,,,,443,0,English,Физика,mexmat,30,"9780521248709,0521248701",,,,,530.1/522,QC20.7.G76 S86 1994,,,OL1147387M,,0,,,,,,,T,5627397,djvu,93844EA010E6B2605925AADBDB08B9A6,,,DVD-030/Sternberg_S._Group_Theory_and_Physics_(1994)(en)(429s).djvu,0,2000-01-01 01:00:00,2016-04-03 02:51:08,29000/93844ea010e6b2605925aadbdb08b9a6-d.jpg,,
5572257,Detection and Analysis of Genetic Alterations in Normal Skin and Skin Tumours,,,,Sivertsson A.,2002,,,,81,0,English,Биология//Генетика,mexmat,22,91-7283-379-3,,,,,,,,,,,0,,,,,,,T,749392,pdf,935F713FC9C81E5A00A3371EAE1ED893,,,DVD-022/Sivertsson_A._Detection_and_Analysis_of_Genetic_Alterations_in_Normal_Skin_and_Skin_Tumours_(2002)(en)(69s).pdf,0,2000-01-01 01:00:00,2016-04-03 02:51:08,29000/935f713fc9c81e5a00a3371eae1ed893.jpg,,
5572256,WebEx® Web Meetings For Dummies,,,,Nancy Stevenson,2005,1,For Dummies,,339,0,English,Образование,mexmat,16,"9780764579417,076457941X",,,,,,,,,OL8051742M,,0,,,,,,,1,11269110,pdf,9332F09C3FAA9D393DC430F128A5922F,,,DVD-016/Stevenson_N._WebEx[r]_Web_Meetings_For_Dummies_(2005)(en)(320s).pdf,0,2000-01-01 01:00:00,2016-04-03 02:51:08,29000/9332f09c3faa9d393dc430f128a5922f-d.jpg,,
5572255,Techniques for Adaptive Control,,,,Vance VanDoren Ph.D.  P.E.,2002,1,Butterworth-Heinemann,,289,0,English,,mexmat,31,"9780750674959,0-7506-7495-4",,,,,,,,,OL15389781M,,0,,,,,,,T,4221673,pdf,92D66E688072E9068728604555F7D8D6,,,DVD-031/VanDoren_V.J._(ed.)_Techniques_for_Adaptive_Control_(2003)(en)(277s).pdf,0,2000-01-01 01:00:00,2016-04-03 02:51:08,29000/92d66e688072e9068728604555f7d8d6-d.jpg,,
5572254,Space-Time Coding,,,,"Branka Vucetic, Jinhong Yuan, Branka Vucetic ",2003,,Wiley,,332,0,English,Техника//Аэрокосмическое оборудование,mexmat,31,"9780470847572,0470847573",,,,,,,,,OL7597901M,,0,,,,,,,T,5332600,pdf,9274ACB3236014BF029DC3FE34AC4461,,,"DVD-031/Vucetic_B.,_Yuan_J._Space-Time_Coding_(2003)(en)(302s).pdf",0,2000-01-01 01:00:00,2016-04-03 02:51:08,29000/9274acb3236014bf029dc3fe34ac4461-d.jpg,,
5572253,Automatic natural language parsing,,Ellis Horwood Series in Artificial Intelligence,,"Jones Karen Sparck, Karen Sprack-Jones, Karen Sparck-Jones",1985,,Halsted Press,,210,0,English,Компьютеры//Кибернетика//Искусственный интеллект,mexmat,10,"9780470274606,0-470-27460-3",,,,,410/.72,P98 .A85 1983,,,OL3166607M,,0,,,,,,,T,2867842,djvu,926E53DF55CBA89AE87ABB6AEEE57C0E,,,"DVD-010/Sparck_Jones_K.,_Wilks_Y._Automatic_natural_language_parsing_(1983)(en)(208s).djvu",0,2000-01-01 01:00:00,2016-04-03 02:51:08,29000/926e53df55cba89ae87abb6aeee57c0e.jpg,,
5572252,Stochastic Process:Problems and Solutions ,,CRC Monographs on Statistics & Applied Probability,,L. Takacs,1966,1,Springer,,147,0,English,Математика//Вероятность,mexmat,5,"9780412203404,0412203405",,,,,,,,,OL10184248M,,0,,,,,1,,T,1020111,djvu,9258CA9E79026CF6A83AC4463149E6CD,,,DVD-005/Takacz_L._Stochastic_processes[c]_problems_and_solutions_(1960)(en)(137s).djvu,0,2000-01-01 01:00:00,2016-04-03 02:51:08,29000/9258ca9e79026cf6a83ac4463149e6cd.jpg,,
5572251,Statistics at Square One,,,,"Swinscow T.D.V., Campbell M.J.",2002,10,BMJ Books,,167,0,English,Математика//Математическая статистика,mexmat,10,0-7279-1552-5,,,,,,,,,OL22586474M,,0,,,,,,,T,931958,pdf,91E0597DAD3118DB9DC97B0F704D33A0,,,"DVD-010/Swinscow_T.D.V.,_Campbell_M.J._Statistics_at_Square_One_(2002)(10th_ed.)(en)(158s).pdf",0,2000-01-01 01:00:00,2016-04-03 02:51:08,29000/91e0597dad3118db9dc97b0f704d33a0.jpg,,
5572250,Solid-Liquid Separation,,,,Ladislav Svarovsky,2001,4,Butterworth-Heinemann,,568,0,English,,mexmat,31,0-7506-4568-7,,,,,660/.2842,TP156.S45 S64 2000,,,OL6789380M,,0,,,,,,,T,3996612,pdf,91204701536D63548161E7E956C215FD,,,DVD-031/Svarovsky_L._Solid-Liquid_Separation_(2000)(4th)(en)(554s).pdf,0,2000-01-01 01:00:00,2016-04-03 02:51:08,29000/91204701536d63548161e7e956c215fd.jpg,,
5572249,The Engineers Guide to Standards Conversion,,,,John Watkinson,1994,,Snell & Wilcox Ltd,,60,0,English,Техника//Электроника,mexmat,24,"9781900739030,1900739038",,,,,621.388,,,,OL15217708M,,0,,,,,,,T,325550,pdf,90E6D4D42D5CFA52AFD9D7931163760C,,,DVD-024/Watkinson_J._The_Engineers_Guide_to_Standards_Conversion_(1994)(en)(60s).pdf,0,2000-01-01 01:00:00,2016-04-03 02:51:08,29000/90e6d4d42d5cfa52afd9d7931163760c.jpg,,
5572248,PHP 5 For Dummies,,,,Janet Valade,2004,,For Dummies,,411,0,English,Образование,mexmat,16,"9780764541667,0764541668",,,,,005.13/3,QA76.73.P224 V33 2004,,,OL22745896M,,0,,,,,,,T,6178565,pdf,90D7C5004F5DA814D16D82A2985F8FE6,,,DVD-016/Valade_J._PHP_5_For_Dummies_(2004)(en)(392s).pdf,0,2000-01-01 01:00:00,2016-04-03 02:51:08,29000/90d7c5004f5da814d16d82a2985f8fe6-d.jpg,,
5572247,Microsoft Office 2007 For Dummies,,,,Wallace Wang,2006,1,For Dummies,,430,0,English,Образование,mexmat,32,0470009233,,,,,,,,,,,0,,,,,,,1,19068036,pdf,90AC0A519FBB96778A62EE31F2E041BD,,,DVD-032/Wang_W._Office_2007_For_Dummies_(2006)(en)(432s).pdf,0,2000-01-01 01:00:00,2016-04-03 02:51:08,29000/90ac0a519fbb96778a62ee31f2e041bd-d.jpg,,
5572246,Thermo-mechanical behavior of NiAl thin films,,,,Weller P.,2003,,,,111,0,English,Физика,mexmat,7,,,,,,,,,,,,0,,,,,,,T,7994830,pdf,90443DCC6CCF37E813335FEE994DF4AB,,,DVD-007/Weller_P._Thermo-mechanical_behavior_of_NiAl_thin_films_(2003)(en)(109s).pdf,0,2000-01-01 01:00:00,2016-04-03 02:51:08,29000/90443dcc6ccf37e813335fee994df4ab.jpg,,
5572245,LIGHT,,,,Ware C.F.,2000,,,,8,0,English,,mexmat,22,,,,,,,,,,,,0,,,,,,,,160655,pdf,90409AE3A479552C95B9B8416E03CD90,,,DVD-022/Ware_C.F._LIGHT_(2000)(en)(8s).pdf,0,2000-01-01 01:00:00,2016-04-03 02:51:08,29000/90409ae3a479552c95b9b8416e03cd90.jpg,,
5572244,U.S. Department of Energy. Fundamentals Handbook. Electrical Science,Volume 1,,,,1992,,,,166,0,English,Техника//Электроника//Электротехника,mexmat,25,,,,,,,,,,,,0,,,,,,,T,4358529,pdf,8FFF0A09724BB9C46A24607B8C32C5F2,,,DVD-025/U.S._Department_of_Energy_DOE_Fundamentals_Handbook_-_Electrical_Science_(vol._1)_(1992)(en)(166s).pdf,0,2000-01-01 01:00:00,2016-04-03 02:51:08,29000/8fff0a09724bb9c46a24607b8c32c5f2.jpg,,
5572243,Deploying license-free wireless wide-area networks,,,,Jack Unger,2003,illustrated edition,Cisco Press,,400,0,English,Компьютеры//Сети,mexmat,4,"9781587050695,1587050692",,,,,004.67,TK5105.87 .U525 2003,,,OL3959421M,,0,,,,,,,1,6777250,pdf,8FEB6CAB7A10CF8500BD890D4F885E46,,,DVD-004/Unger_J._Deploying_license-free_wireless_wide-area_networks_(2003)(en)(352s).pdf,0,2000-01-01 01:00:00,2016-04-03 02:51:08,29000/8feb6cab7a10cf8500bd890d4f885e46-d.jpg,,
5572242,Lehrbuch der algebra,Band 1,,,Weber H.,1898,,,,722,0,German,Математика//Алгебра,mexmat,1,,,,,,,,,,,,0,,,,,,,T,5511886,djvu,8FB82B139588C2E9361BAFA0D52B1548,,,DVD-001/Weber_H._Lehrbuch_der_algebra_(band_1)_(1898)(de)(722s).djvu,0,2000-01-01 01:00:00,2016-04-03 02:51:08,29000/8fb82b139588c2e9361bafa0d52b1548.jpg,,
5572241,Op Amps Design Application and Troubleshooting,,,,David Terrell,1996,2,Newnes,,505,0,English,,mexmat,25,"9780750697026,0-7506-9702-4",,,,,621.39/5,TK7871.58.O6 T47 1996,,,OL793478M,,0,,,,,,,T,27562802,pdf,8F9E95AA4F67F61E46A7CC855F2F9AB8,,,DVD-025/Terrell_D._Op_Amps_Design_Application_and_Troubleshooting_(1996)(en)(512s).pdf,0,2000-01-01 01:00:00,2016-04-03 02:51:08,29000/8f9e95aa4f67f61e46a7cc855f2f9ab8-d.jpg,,
5572240,C++ Programmieren mit Stil,,,,Strasser T.,2003,,,,622,0,German,Компьютеры//Программирование//Языки программирования,mexmat,32,"9783920993690,3920993691",,,,,,,,,,,0,,,,,,,T,5033613,pdf,8D80EB04A4AC763E3FE7C3976ACE8A34,,,DVD-032/Strasser_T._C++_Programmieren_mit_Stil_(2003)(de)(378s).pdf,0,2000-01-01 01:00:00,2016-04-03 02:51:08,29000/8d80eb04a4ac763e3fe7c3976ace8a34.jpg,,
5572239,Advanced Perl Programming,,,,Sriram Srinivasan,1997,1,O'Reilly Media,,549,0,English,Компьютеры//Программирование//Языки программирования,mexmat,10,"9781565922204,1565922204",,,,,005.13/3,QA76.73.P22 S655 1997,,,OL296067M,,0,,,,0,0,,1,5335331,pdf,8D2623BBBD45905AC28BDF9337FDED7C,,,DVD-010/Srinivasan_S._Advanced_Perl_Programming_(1997)(en)(549s).pdf,0,2000-01-01 01:00:00,2016-04-03 02:51:08,29000/8d2623bbbd45905ac28bdf9337fded7c-d.jpg,,
5572238,Pro Nagios 2.0,,Expert's Voice in Open Source,,James Turnbull,2006,1,Apress,,423,0,English,Компьютеры//Операционные системы,mexmat,21,"1590596099,9781590596098,9781430201533",,,,,,,,,OL8848840M,,0,,,,,1,,T,3490204,pdf,8CE137191A752EA3A050FDC60F05707E,,,DVD-021/Turnbull_J._Pro_Nagios_2.0_(2006)(en)(424s).pdf,0,2000-01-01 01:00:00,2016-04-03 02:51:08,29000/8ce137191a752ea3a050fdc60f05707e-d.jpg,,
5572237,C++ Programming How-To,,,,Vasudevan A.,2001,,,,62,0,English,Компьютеры//Программирование//Языки программирования,mexmat,10,,,,,,,,,,,,0,,,,,,,,241128,pdf,8C85B45EB773B50C5CE20A665DFF3830,,,DVD-010/Vasudevan_A._C++_Programming_How&#8722;To_(2001)(en)(58s).pdf,0,2000-01-01 01:00:00,2016-04-03 02:51:08,29000/8c85b45eb773b50c5ce20a665dff3830.jpg,,
5572236,SQL Plus. User's Guide and Reference,,,,Watt S.,2001,release 9.0.1,,,432,0,English,,mexmat,19,,,,,,,,,,,Part No. A88827-02,0,,,,,,,,3617589,pdf,8C38286B38425B78D779D65988CD4BCC,,,DVD-019/Watt_S._SQL_Plus._User[ap]s_Guide_and_Reference_(Part_No._A88827-02)_(2001)(release_9.0.1)(en)(432s).pdf,0,2000-01-01 01:00:00,2016-04-03 02:51:08,29000/8c38286b38425b78d779d65988cd4bcc.jpg,,
5572235,Principles of lasers,,,,Orazio Svelto,2009,4th,Springer,,624,0,English,Физика,mexmat,7,0-306-45748-2,,,,,621.36/6,QC688 .S913 1998,,,OL346035M,,0,,,,,,,,12613017,djvu,8C2081D85DA35541338ED13B8182607F,,,"Laser - Svelto O. Principles of lasers (4ed., Springer, 1998)(K)(600dpi)(T)(624s)(ISBN 0306457482)_P.pdf",0,2000-01-01 01:00:00,2016-04-03 02:51:08,29000/8c2081d85da35541338ed13b8182607f.jpg,,
5572234,Introduction to the theory of computation,,,,Michael Sipser,2005,2,Course Technology,,453,0,English,Математика//Вычислительная математика,mexmat,13,"9780534950972,0-534-95097-3",,,,,,,,,OL7786863M,,0,,,,,,,T,6890590,djvu,8C1FD65A5C9ADA08AD76B7F8BAC39B6F,,,DVD-013/Sipser_M._Introduction_to_the_theory_of_computation_(2005)(2nd_ed.)(en)(431s).djvu,0,2000-01-01 01:00:00,2016-04-03 02:51:08,29000/8c1fd65a5c9ada08ad76b7f8bac39b6f-d.jpg,,
5572233,Structure and Interpretation of Classical Mechanics ,,,,"Gerald Jay Sussman, Jack Wisdom",2001,,The MIT Press,,527,0,English,Физика,mexmat,10,"0262194554,9780262194556",,,,,,,,,OL9701825M,,0,,,,,1,,T,10934837,pdf,8BDC43C5ED5338757343A7BB91D332EA,,,Mit Press - Structure And Interpretation Of Classical Mechanics.pdf,0,2000-01-01 01:00:00,2016-04-03 02:51:08,29000/8bdc43c5ed5338757343a7bb91d332ea-d.jpg,,
5572231,Methods of mathematical physics,,,,Trodden M.,1999,,,,70,0,English,Математика,mexmat,3,,,,,,,,,,,,0,,,,,,,,575828,pdf,8B81E6FE6C24FCFDB33122F098F2C37B,,,DVD-003/Trodden_M._Methods_of_mathematical_physics_(1999)(en)(70s).pdf,0,2000-01-01 01:00:00,2016-04-03 02:51:08,29000/8b81e6fe6c24fcfdb33122f098f2c37b.jpg,,
5572232,The Gale Encyclopedia of Cancer,Volume 2,,,Thackery E.,2001,,Gale Group,,670,0,English,Медицина//Онкология,mexmat,11,"0787656119,9780787656119",,,,,,,,,OL18186118M,,0,,,,,,,1,8357444,pdf,8BBBFFA2A25204B60233B6DA20F90A22,,,DVD-011/Thackery_E._The_gale_encyclopedia_of_cancer_(Vol._2)_(2002)(en)(674s).pdf,0,2000-01-01 01:00:00,2016-04-03 02:51:08,29000/8bbbffa2a25204b60233b6da20f90a22.jpg,,
5572230,Service-Oriented Software System Engineering Challenges and Practices,,,,"Zoran Stojanovic, Ajantha Dahanayake",2005,,Idea Group Publishing,,435,0,English,Техника,mexmat,17,"9781591404262,1591404266,1591404282,9781591404286,1591404274,9781591404279",,,,,005.1,QA76.758 .S458 2004,,,OL3297079M,,0,,,,,1,,,11107395,pdf,8B812E3C1139873C0B3C619DEF069AB7,,,"DVD-017/Stojanovic_Z.,_Dahanayake_A._Service-oriented_software_system_engineering_[c]_challenges_and_practices_(2005)(en)(413s).pdf",0,2000-01-01 01:00:00,2016-04-03 02:51:08,29000/8b812e3c1139873c0b3c619def069ab7.jpg,,
5572229,Oracle InterMedia. User's Guide and Reference,,,,Ward R.,2001,release 9.0.1,,,692,0,English,,mexmat,19,,,,,,,,,,,Part No. A88786-01,0,,,,,,,,4363591,pdf,8AECBA6058D7B9B57BEF97CC1C98E4FA,,,DVD-019/Ward_R._Oracle_InterMedia._User[ap]s_Guide_and_Reference_(Part_No._A88786-01)_(2001)(release_9.0.1)(en)(692s).pdf,0,2000-01-01 01:00:00,2016-04-03 02:51:08,29000/8aecba6058d7b9b57bef97cc1c98e4fa.jpg,,
5572228,Recursive Data Processing for Kinematic GPS surveying,,Publications on geodesy / Netherlands Geodetic Commission ,,C. C. J. M Tiberius,1998,,Nederlandse Commissie Voor Geodesie,,257,0,English,Компьютеры//Организация и обработка данных,mexmat,14,"9789061322658,9061322650",,,,,910/.285,TA595.5 .T53 1998,,,OL482845M,,0,,,,,,,,2221461,djvu,89E95FC0628566ADCCCB492D74CD0681,,,DVD-014/Tiberius_C.C.J.M._Recursive_Data_Processing_for_Kinematic_GPS_surveying_(1998)(en)(248s).djvu,0,2000-01-01 01:00:00,2016-04-03 02:51:08,29000/89e95fc0628566adcccb492d74cd0681.jpg,,
5572227,Treatise on applied analytical chemistry,,,,Gerolamo Vittorio Villaveechia,2009,,University of Michigan Library,,556,0,English,Химия,mexmat,26,,,B002NU608G,,,,,,,,,0,,,,,,,,11736668,pdf,89CAA72840EA2BA5929250265A93C264,,,DVD-026/Villavecchia_V._Treatise_on_applied_analytical_chemistry_(1918)(en)(536s).pdf,0,2000-01-01 01:00:00,2016-04-03 02:51:08,29000/89caa72840ea2ba5929250265a93c264.jpg,,
5572226,"New Headway. Advanced Workbook with key, Student's Book",,,,"Soars L., Soars J., Falla T.",2003,,,,95,0,English,,mexmat,21,,,,,,,,,,,,0,,,,,,,,19925187,pdf,89A3AA26983D4EE1849228F2E6072AB7,,,"DVD-021/Soars_L.,_Soars_J.,_Falla_T._New_Headway._Advanced_Workbook_with_key,_Student[ap]s_Book_(2003)(en)(95s).pdf",0,2000-01-01 01:00:00,2016-04-03 02:51:08,29000/89a3aa26983d4ee1849228f2e6072ab7.jpg,,
5572225,Hagakure: Book of the Samurai,,,,"Yamamoto Tsunetomo, William Scott Wilson",2002,Gift edition,Kodansha International,,55,0,English,,mexmat,21,"9784770029164,4770029160",,,,,,,,,OL20024135M,,0,,,,,,,,396129,pdf,89A07128E051D63AC7F7D80655268210,,,"DVD-021/Tsunetomo_Y.,_Wilson_W.C._Hagakure[c]_Book_of_the_Samurai_(1992)(en)(55s).pdf",0,2000-01-01 01:00:00,2016-04-03 02:51:08,29000/89a07128e051d63ac7f7d80655268210-d.jpg,,
5572224,Process Engineering Equipment Handbook,,,,"Claire Marguerite Soares, Claire Marquerite Soares",2001,1,McGraw-Hill Professional,,1544,0,English,Техника,mexmat,24,"9780070596146,0-07-059614-X",,,,,,,,,OL7296911M,,0,,,,,,,,49947416,pdf,8950ECE17D017278114D0B80794BA371,,,DVD-024/Soares_G._Process_Engineering_Equipment_Handbook_(2001)(1-st)(en)(1008s).pdf,0,2000-01-01 01:00:00,2016-04-03 02:51:08,29000/8950ece17d017278114d0b80794ba371-d.jpg,,
5572222,Ribozymes and siRNA protocols,,Methods in Molecular Biology ,,Mouldy Sioud,2010,2nd Edition.,Humana Press,,617,0,English,Биология//Биохимия,mexmat,25,"9781617374357,1617374350",,,,,,,,,,,0,,,,,,,,9041557,pdf,8913D4BFCEEF3919814A17ACFF62A613,,,DVD-025/Sioud_M._Ribozymes_and_siRNA_protocols_(2004)(2nd)(en)(640s).pdf,0,2000-01-01 01:00:00,2016-04-03 02:51:08,29000/8913d4bfceef3919814a17acff62a613-d.jpg,,
5572223,Blackboard For Dummies,,,,"Howie Southworth, Kemal Cakici, Yianna Vovides, Susan Zvacek",2006,,For Dummies,,376,0,English,Образование,mexmat,21,"9780471798323,0471798320",,,,,,,,,OL17159374M,,0,,,,,,,T,9143932,pdf,8929307E0CA8C0B7B66A3603DB984C4D,,,"DVD-021/Southworth_H.,_Cakici_K.,_Vovides_Y._Blackboard_For_Dummies_(2006)(en)(356s).pdf",0,2000-01-01 01:00:00,2016-04-03 02:51:08,29000/8929307e0ca8c0b7b66a3603db984c4d-d.jpg,,
5572221,Designing Organic Syntheses: A Programmed Introduction to the Synthon Approach,,,,Stuart Warren,1978,1,Wiley,,140,0,English,Химия//Органическая химия,mexmat,14,"9780471996125,0471996122",,,,,547/.2,QD262 .W28,,,OL4547360M,,0,,,,,,,,3111754,pdf,890FA9D609D596BBE7D29E0E28A9C4E6,,,DVD-014/Warren_S._Designing_Organic_Syntheses[c]_A_Programmed_Introduction_to_the_Synthon_Approach_(1991)(en)(136s).pdf,0,2000-01-01 01:00:00,2016-04-03 02:51:08,29000/890fa9d609d596bbe7d29e0e28a9c4e6-d.gif,,
5572220,"Knots, Splices & Rope Work. A practical treatise",,,,A. Hyatt Verrill,1917,2 revised,Norman W. Henley Publishing Co.,,9,0,English,,mexmat,33,,,B000X6KGB4,,,,,,,,,0,,,,,,,,2289850,pdf,88F8477A6835F1064CFF1EE7C0DA7C11,,,"DVD-033/Verrill_A._Knots,_Splices_&_Rope_Work._A_practical_treatise_(1919)(2-nd_rev.)(en)(104s).pdf",0,2000-01-01 01:00:00,2016-04-03 02:51:08,29000/88f8477a6835f1064cff1ee7c0da7c11.jpg,,
5572219,Refrigeration and Air Conditioning ,,,,W F Stoecker,1983,2nd,Mcgraw Hill Higher Education,,440,0,English,Техника//Строительство//Вентиляция и кондиционирование,mexmat,31,"0070665915,9780070665910",,,,,,,,,,,0,,,,,1,,,28987659,pdf,88BEBC8914660908CB6ADC52B8B8A400,,,"DVD-031/Stoecker_W.F.,_Jones_J.W._Refrigeration_and_Air_Conditioning_(1982)(2nd)(en)(443s).pdf",0,2000-01-01 01:00:00,2016-04-03 02:51:08,29000/88bebc8914660908cb6adc52b8b8a400-d.jpg,,
5572218,Server Component Patterns: Component Infrastructures Illustrated with EJB,,Wiley Software Patterns Series,,"Markus Völter, Alexander Schmid, Eberhard Wolff",2002,,Wiley,,492,0,English,Компьютеры//Системное администрирование,mexmat,24,"0470843195,9780470843192",,,,,,,,,OL7597732M,,0,,,,,,,1,6624004,pdf,884F044AF4DCF6F51B3E19189840C249,,,"DVD-024/V&#246;lter_M.,_Schmid_A.,_Wolff_E._Server_Component_Patterns[c]_Component_Infrastructures_Illustrated_with_EJB_(2002)(en)(488s).pdf",0,2000-01-01 01:00:00,2016-04-03 02:51:08,29000/884f044af4dcf6f51b3e19189840c249-d.jpg,,
5572217,U.S. Environmental Protection Agency. Locating and estimating air emissions from sources of acrylonitrile,,,,,1984,,,,70,0,English,Биология//Экология,mexmat,11,,,,,,,,,,,,0,,,,,,,T,279466,pdf,87FB689C9D1E15DB6CA110ECD4D64207,,,DVD-011/U.S._Environmental_Protection_Agency_Locating_and_estimating_air_emissions_from_sources_of_acrylonitrile_(1984)(en)(63s).pdf,0,2000-01-01 01:00:00,2016-04-03 02:51:08,29000/87fb689c9d1e15db6ca110ecd4d64207.jpg,,
5572216,Cystic Fibrosis Methods and Protocols,,Methods in Molecular Medicine ,,William R. Skach,2010,1st Edition.,Humana Press,,581,0,English,Медицина,mexmat,22,"9781617372445,1617372447",,,,,,,,,,,0,,,,,,,,4818770,pdf,87EFF39CA4AA60F6F6227A90BA3AD914,,,DVD-022/Skach_W.R._(ed.)_Cystic_Fibrosis_Methods_and_Protocols_(2002)(en)(581s).pdf,0,2000-01-01 01:00:00,2016-04-03 02:51:08,29000/87eff39ca4aa60f6f6227a90ba3ad914-d.jpg,,
5572215,Satellite Networking: Principles and Protocols,,,,Zhili Sun,2005,,Wiley,,377,0,English,Компьютеры//Сети,mexmat,15,"9780470870273,0470870273",,,,,,,,,OL7598357M,,0,,,,,,,T,6450891,pdf,876487275B330F021F3833F6B80A182C,,,DVD-015/Sun_Z._Satellite_Networking_[c]_Principles_and_Protocols_(2005)(en)(377s).pdf,0,2000-01-01 01:00:00,2016-04-03 02:51:08,29000/876487275b330f021f3833f6b80a182c-d.jpg,,
5572214,Trends in applications of mathematics to mechanics,,,,"Wang Y. (ed.), Hutter K. (ed.)",2004,,,,654,0,English,Математика,mexmat,6,"3832236007,9783832236007",,,,,,,,,OL19459243M,,0,,,,,,,T,24052848,pdf,872D2DA2482DCF178C02CD03819BD49A,,,"DVD-006/Wang_Y._(ed.),_Hutter_K._(ed.)_Trends_in_applications_of_mathematics_to_mechanics_(2004)(en)(636s).pdf",0,2000-01-01 01:00:00,2016-04-03 02:51:08,29000/872d2da2482dcf178c02cd03819bd49a.jpg,,
5572213,The Crimean War: 1854-1856,,Essential Histories 002,,John Sweetman,2001,illustrated edition,Osprey Publishing,,96,0,English,История,infanata,28,"1841761869,9781841761862",,,,,,,,,OL8922167M,,0,,,,,1,,T,7253015,pdf,870E388BBC4B365FF428F4E7C9958D8A,,,N:\\natahaus\\2006\\2006-10\\{1146074761}ESS 002 - Crimean War OCR.pdf,0,2000-01-01 01:00:00,2016-04-03 02:51:08,29000/870e388bbc4b365ff428f4e7c9958d8a-d.jpg,,
5572212,"Phase-Locked Loops for Wireless Communications: Digital, Analog and Optical Implementations",,,,Stephens D.R.,2001,2,,,434,0,English,Техника//Электроника//Телекоммуникации,mexmat,24,0306473143,,,,,,,,,,,0,,,,,,,T,8653500,pdf,86D7014F8AE9FB8329D8134AD06D653B,,,"DVD-024/Stephens_D.R._Phase-Locked_Loops_for_Wireless_Communications[c]_Digital,_Analog_and_Optical_Implementations_(2001)(2nd)(en)(440s).pdf",0,2000-01-01 01:00:00,2016-04-03 02:51:08,29000/86d7014f8ae9fb8329d8134ad06d653b.jpg,,
5572211,The Mystery of the Quantum World,,,,Euan J. Squires,1994,2,Taylor & Francis,,192,0,English,Физика//Квантовая физика,mexmat,22,"9780750301619,0750301619",,,,,530.1/2,QC174.12 .S68 1994,,,OL1108001M,,0,,,,,,,,8706289,pdf,86CC4E026F5B8C4E985B53E6717358C0,,,DVD-022/Squires_E._The_Mystery_of_the_Quantum_World_(1994)(2-nd)(en)(208s).pdf,0,2000-01-01 01:00:00,2016-04-03 02:51:08,29000/86cc4e026f5b8c4e985b53e6717358c0-d.jpg,,
5572209,MGSA/GRO,,,,"Wang D., Richmond A.",,,,,26,0,English,,mexmat,22,,,,,,,,,,,,0,,,,,,,,677494,pdf,86482362B0696DE1882419559E8B2711,,,"DVD-022/Wang_D.,_Richmond_A._MGSA[s]GRO(en)(26s).pdf",0,2000-01-01 01:00:00,2016-04-03 02:51:08,29000/86482362b0696de1882419559e8b2711.jpg,,
5572210,Linux Newbie Administrator Guide,,,,"Stan P., Klimas M.",2003,,,,138,0,English,Компьютеры//Операционные системы,mexmat,10,,,,,,,,,,,,0,,,,,,,,413015,pdf,868D5C8EA8B1407E9B7D95AD023FB7F3,,,"DVD-010/Stan_P.,_Klimas_M._Linux_Newbie_Administrator_Guide_(2003)(en)(134s).pdf",0,2000-01-01 01:00:00,2016-04-03 02:51:08,29000/868d5c8ea8b1407e9b7d95ad023fb7f3.jpg,,
5572208,HTN Planning for Web Service Composition Using SHOP2,,,,"Sirin E., Parsia B., Wu D.",2004,,,,31,0,English,Компьютеры//Сети//Интернет,mexmat,13,,,,,,,,,,,,0,,,,,,,,328975,pdf,856D71AB4815E09DAFCD3273D6A68D7B,,,"DVD-013/Sirin_E.,_Parsia_B.,_Wu_D._HTN_Planning_for_Web_Service_Composition_Using_SHOP2_(2004)(en)(31s).pdf",0,2000-01-01 01:00:00,2016-04-03 02:51:08,29000/856d71ab4815e09dafcd3273d6a68d7b.jpg,,
5572207,Using LaTeX to Write a PhD Thesis,,,,Talbot N.,2004,,,,40,0,English,"Компьютеры//Программы//TeX, LaTeX",mexmat,2,,,,,,,,,,,,0,,,,,,,,522628,pdf,84FF4C16B6F1E50AD9EC1B48F804C5B1,,,DVD-002/Talbot_N._Using_LaTeX_to_Write_a_PhD_Thesis_(2004)(en)(37s).pdf,0,2000-01-01 01:00:00,2016-04-03 02:51:08,29000/84ff4c16b6f1e50ad9ec1b48f804c5b1.jpg,,
5572206,Digital Photography Workflow Handbook using Photoshop CS and Raw Converters for the Digital Photography Workflow,,,,"Steinmueller B., Steinmueller U.",2004,,,,360,0,English,,mexmat,13,,,,,,,,,,,,0,,,,,,,,16082980,pdf,84E2FED63443EB28676096C307559F91,,,"DVD-013/Steinmueller_B.,_Steinmueller_U._Digital_Photography_Workflow_Handbook_using_Photoshop_CS_and_Raw_Converters_for_the_D[...]kflow_(2004)(en)(360s).pdf",0,2000-01-01 01:00:00,2016-04-03 02:51:08,29000/84e2fed63443eb28676096c307559f91.jpg,,
5572205,Handbook of Wireless Networks and Mobile Computing,,,,Stojmenović I.,2002,,Wiley-Interscience,,648,0,English,Компьютеры//Организация и обработка данных,mexmat,30,"0471224561,9780471224563",,,,,,,,,,,0,,,,,,,,5796238,pdf,84D4BB45E88E474DD26959FBC6AB8D40,,,DVD-030/Stojmenovi&#263;_I._Handbook_of_Wireless_Networks_and_Mobile_Computing_(2002)(en)(630s).pdf,0,2000-01-01 01:00:00,2016-04-03 02:51:08,29000/84d4bb45e88e474dd26959fbc6ab8d40.jpg,,
5572204,Hsing-I: Chinese Mind-Body Boxing,,,,Robert Smith,2003,,North Atlantic Books,,110,0,English,,mexmat,21,"9781556434556,1-55643-455-3",,,,,796.815/5,GV504 .S62 2003,,,OL3683675M,,0,,,,,,,T,2094430,pdf,844FF043FEAEAE1E3DBA11B813E86D98,,,DVD-021/Smith_R.W._Hsing-I[c]_Chinese_Mind-Body_Boxing_(2003)(en)(112s).pdf,0,2000-01-01 01:00:00,2016-04-03 02:51:08,29000/844ff043feaeae1e3dba11b813e86d98-d.jpg,,
5572203,Formal verification of timed systems: a survey and perspective,,,,Wang F.,2004,,,,23,0,English,,mexmat,12,,,,,,,,,,,,0,,,,,,,,621844,pdf,82DAF2EB4BF27C668C0293626EA40AAC,,,DVD-012/Wang_F._Formal_verification_of_timed_systems[c]_a_survey_and_perspective_(2004)(en)(23s).pdf,0,2000-01-01 01:00:00,2016-04-03 02:51:08,29000/82daf2eb4bf27c668c0293626ea40aac.jpg,,
5572202,Quantum Inverse Scattering Method. Selected Topics,,,,Sklyanin E.K.,1992,,,,36,0,English,Физика//Квантовая физика,mexmat,13,,,,,,,,,,,,0,,,,,,,T,299400,pdf,82CBA5E319C369E545A385AF75608A08,,,DVD-013/Sklyanin_E.K._Quantum_Inverse_Scattering_Method._Selected_Topics_(1992)(en)(36s).pdf,0,2000-01-01 01:00:00,2016-04-03 02:51:08,29000/82cba5e319c369e545a385af75608a08.jpg,,
5572201,Oracle9i Servlet Engine Developer's Guide,,,,"Smith T., Wright B.",2001,release 9.0.1,,,268,0,English,Компьютеры//Базы данных,mexmat,19,,,,,,,,,,,Part No. A90213-02,0,,,,,,,,2083988,pdf,82418A23DD5B7682CD560CE798F6F29F,,,"DVD-019/Smith_T.,_Wright_B._Oracle9i_Servlet_Engine_Developer[ap]s_Guide_(Part_No._A90213-02)_(2001)(release_9.0.1)(en)(268s).pdf",0,2000-01-01 01:00:00,2016-04-03 02:51:08,29000/82418a23dd5b7682cd560ce798f6f29f.jpg,,
5572200,Polynomial automorphisms and the Jacobian conjecture,,Progress in Mathematics,,Arno van den Essen,2000,1,Birkhäuser Basel,,174,0,English,Математика//Алгебра,mexmat,1,"9783764363505,3764363509",,,,,,,,,OL9090583M,,0,,,,,,,,3577408,djvu,822DC4F191B1818B2525C2E870FA9B5D,,,DVD-001/van_den_Essen_A._Polynomial_automorphisms_and_the_Jacobian_conjecture_(2000)(en)(329s).djvu,0,2000-01-01 01:00:00,2016-04-03 02:51:08,29000/822dc4f191b1818b2525c2e870fa9b5d-d.jpg,,
5572199,Angriffe auf Firewalls,,,,Stepken G.,,,,,27,0,German,,mexmat,34,,,,,,,,,,,,0,,,,,,,,1252610,pdf,821C26A7E1A425D5C53979ACEF5141E9,,,DVD-034/Stepken_G._Angriffe_auf_Firewalls(de)(27s).pdf,0,2000-01-01 01:00:00,2016-04-03 02:51:08,29000/821c26a7e1a425d5c53979acef5141e9.jpg,,
5572198,Calcium-Binding Protein Protocols: Methods and Techniques,Volume 2,Methods in Molecular Biology 173,,Hans J. Vogel,2001,1st,Humana Press,,435,0,English,Биология//Биотехнология,mexmat,22,"9780896036895,0-89603-689-8",,,,,,,,,OL17033081M,,0,,,,,,,,4218603,pdf,81EE371AE9BA79DCB58A96E2BCCB39FF,,,DVD-022/Vogel_H.J._(ed.)_Calcium-Binding_Protein_Protocols[c]_Methods_and_Techniques_(vol._2)_(2002)(en)(416s).pdf,0,2000-01-01 01:00:00,2016-04-03 02:51:08,29000/81ee371ae9ba79dcb58a96e2bccb39ff-d.jpg,,
5572197,Optical Emission Inductively Coupled Plasma in Environmental Analysis,,,,Tatro M.E.,2000,,,,7,0,English,Физика,mexmat,9,0471-97670-9,,,,,,,,,OL15494717M,,0,,,,,,,,61784,pdf,81939409F1300D2BAC15867B048D3BF6,,,DVD-009/Tatro_M.E._Optical_Emission_Inductively_Coupled_Plasma_in_Environmental_Analysis_(2000)(en)(7s).pdf,0,2000-01-01 01:00:00,2016-04-03 02:51:08,29000/81939409f1300d2bac15867b048d3bf6.jpg,,
5572196,"A Course in Modern Mathematical Physics: Groups, Hilbert Space and Differential Geometry",,,,Peter Szekeres,2004,,Cambridge University Press,,613,0,English,Математика,mexmat,7,"0521829607,9780521829601",,,,,,,,,OL7765493M,,0,,,,,,,,7045962,djvu,8182DD4834762C660446F5A0237F8D14,,,"DVD-007/Szekeres_P._A_Course_in_Modern_Mathematical_Physics[c]_Groups,_Hilbert_Space_and_Differential_Geometry_(2004)(en)(600s).djvu",0,2000-01-01 01:00:00,2016-04-03 02:51:08,29000/8182dd4834762c660446f5a0237f8d14-d.jpg,,
5572195,Handbook of laser technology and applications,3 volume set,,,"Colin E. Webb, Julian D. C. Jones",2004,,Institute of Physics,,2752,0,English,,mexmat,7,"0750306076, 9780750306072",,,,,621.36/6,TK7871.3 .H25 2004,,,,,600,,,,,1,,1,28565674,djvu,810604E67A04CF13406D3E5029A285B9,,,"DVD-007/Webb_C.E.,_Jones_J.D.C._Handbook_of_laser_technology_and_applications_(2004)(en)(588s).djvu",0,2000-01-01 01:00:00,2016-04-03 02:51:08,29000/810604e67a04cf13406d3e5029a285b9.jpg,,
5572194,Practical Inorganic Chemistry,,,,"Spitsyn V.I. (ed.), Vorobyova O.J., Dunaeva K.M.",1984,,,,304,0,English,Химия//Неорганическая химия,mexmat,26,,,,,,,,,,,,0,,,,,,,T,3062010,djvu,81027DA0CD49854222E8CC66D66E5A7B,,,"DVD-026/Spitsyn_V.I._(ed.),_Vorobyova_O.J.,_Dunaeva_K.M._Practical_Inorganic_Chemistry_(1984)(en)(304s).djvu",0,2000-01-01 01:00:00,2016-04-03 02:51:08,29000/81027da0cd49854222e8cc66d66e5a7b.jpg,,
5572193,Managing the Risks of IT Outsourcing,,Computer Weekly Professional,,Ian Tho,2005,1,Butterworth-Heinemann,,225,0,English,Бизнес//Менеджмент//Управление проектами,mexmat,14,"9780750665742,0-7506-65742",,,,,004.068/7,HD30.2 .T4945 2005,,,OL3438189M,,0,,,,,,,T,1687061,pdf,803F527DC711AA87C26088477A073AA4,,,DVD-014/Tho_I._Managing_the_Risks_of_IT_Outsourcing_(2005)(en)(206s).pdf,0,2000-01-01 01:00:00,2016-04-03 02:51:08,29000/803f527dc711aa87c26088477a073aa4-d.jpg,,
5572192,New Protein Techniques,,Methods in Molecular Biology 003,,John M. Walker,1988,,Humana Press,,524,0,English,Биология//Биотехнология,mexmat,30,"9780896031265,0896031268",,,,,574.19/245,QP551 .N495 1984,,,OL1775323M,,0,,,,,1,,T,27549097,pdf,7FC50E063E63E16536EA00037F49622A,,,DVD-030/Walker_J.M._(ed.)_New_Protein_Techniques_(1988)(en)(523s).pdf,0,2000-01-01 01:00:00,2016-04-03 02:51:08,29000/7fc50e063e63e16536ea00037f49622a-d.jpg,,
5572191,Crystal Reports® 10 For Dummies,,,,Allen G. Taylor,2004,1,For Dummies,,385,0,English,Образование,mexmat,15,0764571370,,,,,,,,,,,0,,,,,,,T,10457584,pdf,7F3F6E97E7AE5A94D292021AAAEC728F,,,DVD-015/Taylor_A.G._Crystal_Reports[r]_10_For_Dummies_(2004)(en)(354s).pdf,0,2000-01-01 01:00:00,2016-04-03 02:51:08,29000/7f3f6e97e7ae5a94d292021aaaec728f.jpg,,
5572190,Wireless Broadband Networks Handbook,,,,John R. Vacca,2001,1st,McGraw-Hill Companies,,356,0,English,,mexmat,24,"9780072130317,0072130318",,,,,,,,,OL3965905M,,0,,,,,,,,9699753,pdf,7EEF39C9ED0419F72E61E78282CBCBBC,,,"DVD-024/Vacca_J.R.,_Erbschloe_M._Wireless_Broadband_Networks_Handbook_(2004)(en)(960s).pdf",0,2000-01-01 01:00:00,2016-04-03 02:51:08,29000/7eef39c9ed0419f72e61e78282cbcbbc-d.jpg,,
5572189,Beginning Programming for Dummies,,,,Wallace Wang,2003,3,For Dummies,,433,0,English,Образование,mexmat,18,"0764549979,9780764549977,9780764559624",,,,,,,,,OL22988279M,,0,,,,,,,,8050278,pdf,7EAC1B4E2B0813AA8991F6706377BC1A,,,DVD-018/Wang_W._Beginning_Programming_for_Dummies_(2004)(3-rd)(en)(432s).pdf,0,2000-01-01 01:00:00,2016-04-03 02:51:08,29000/7eac1b4e2b0813aa8991f6706377bc1a-d.jpg,,
5572188,TI-89 TI-92 Plus Benutzerhandbuch für Advanced Mathematics Software Version 2.0,,,,Texas Instruments,2000,,,,625,0,German,Математика,mexmat,10,,,,,,,,,,,,0,,,,,,,,3766023,pdf,7EAA79995C96D8D96A0576ADFAF31579,,,DVD-010/Texas_Instruments_TI-89_TI-92_Plus_Benutzerhandbuch_f&#252;r_Advanced_Mathematics_Software_Version_2.0_(2000)(de)(606s).pdf,0,2000-01-01 01:00:00,2016-04-03 02:51:08,29000/7eaa79995c96d8d96a0576adfaf31579.jpg,,
5572187,Characteristic classes for irregular singularities,,,,Sommeling R.,1993,,,,78,0,English,Математика//Алгебра,mexmat,1,9090060154,,,,,,,,,,,0,,,,,,,,1730567,djvu,7E85F5F2DC36482779D4EBF06BBA4419,,,DVD-001/Sommeling_R._Characteristic_classes_for_irregular_singularities_(1993)(en)(151s).djvu,0,2000-01-01 01:00:00,2016-04-03 02:51:08,29000/7e85f5f2dc36482779d4ebf06bba4419.jpg,,
5572186,Partial Differential Equations. Basic theory,Volume 1,,,Taylor M.E.,,,,,292,0,English,Математика,mexmat,1,,,,,,,,,,,,0,,,,,,,,6031241,djvu,7E84025ACA4A04B323163B78ED214F2F,,,DVD-001/Taylor_M.E._Partial_Differential_Equations._Basic_theory_(vol._1)(en)(563s).djvu,0,2000-01-01 01:00:00,2016-04-03 02:51:08,29000/7e84025aca4a04b323163b78ed214f2f.jpg,,
5572185,Organic Syntheses,Volume 28,,,"Snyder H.R., Adkins H., Arnold R.T. (eds.)",1948,,,,63,0,English,Химия//Органическая химия,mexmat,8,,,,,,,,,,,,0,,,,,,,,4745742,pdf,7E7349CC724BE61C7CFDF6F9909229E6,,,"DVD-008/Snyder_H.R.,_Adkins_H.,_Arnold_R.T._(eds.)_Organic_Syntheses_(vol._28)_(1948)(en)(121s).pdf",0,2000-01-01 01:00:00,2016-04-03 02:51:08,29000/7e7349cc724be61c7cfdf6f9909229e6.jpg,,
5572184,The 2004 prune book,,,,Syngress,2003,1,Syngress,,134,0,English,Компьютеры//Сети,mexmat,14,"1931836922,1931836930,1931836949,1931836965",,,,,,,,,OL12329253M,,0,,,,,,,T,1215515,pdf,7E15B4F71D61DEC579EC9B8E8F14CC82,,,"DVD-014/Trattner_J.,_McGinnis_P._The_2004_prune_book_(2004)(en)(117s).pdf",0,2000-01-01 01:00:00,2016-04-03 02:51:08,29000/7e15b4f71d61dec579ec9b8e8f14cc82.jpg,,
5572183,Taschenatlas zum Praparierkurs,,,,"Tillmann B., Schiinke M.",1993,,,,215,0,German,,mexmat,26,,,,,,,,,,,,0,,,,,,,,9424178,djvu,7DB9BF8B1BAEB5A504B85FDC33E13366,,,"DVD-026/Tillmann_B.,_Schiinke_M._Taschenatlas_zum_Praparierkurs_(1993)(de)(421s).djvu",0,2000-01-01 01:00:00,2016-04-03 02:51:08,29000/7db9bf8b1baeb5a504b85fdc33e13366.jpg,,
5572182,MCSA/MCSE Managing and Maintaining a Windows Server 2003 Environment: Exam 70-290,,,,"Todd C., Peiris C., Martin J.",2003,,,,1025,0,English,Бизнес//Менеджмент//Управление проектами,mexmat,32,"1928994113,1928994296,1931836493,1931836655",,,,,005.8,,,,OL24204001M,,0,,,,,,,T,13267217,pdf,7D8155A7C845AB9A47B7BBEC211BC764,,,"DVD-032/Todd_C.,_Peiris_C.,_Martin_J._MCSA[s]MCSE_Managing_and_Maintaining_a_Windows_Server_2003_Environment[c]_Exam_70-290_(2003)(en)(977s).pdf",0,2000-01-01 01:00:00,2016-04-03 02:51:08,29000/7d8155a7c845ab9a47b7bbec211bc764.jpg,,
5572181,Configuring Cisco Voice Over IP,,,,Martin Walshaw,2001,1,Syngress,,578,0,English,Компьютеры//Системное администрирование,mexmat,20,"1928994830,1928994849,1931836566,1931836647",,,,,,,,,OL8778526M,,0,,,,,,,T,6856296,pdf,7D29858795FBE5B1F481A059B6DC2A89,,,"DVD-020/Sinclair_J.,_Fong_P.,_Harris_S.M._Configuring_Cisco_Voice_Over_IP_(2002)(en)(656s).pdf",0,2000-01-01 01:00:00,2016-04-03 02:51:08,29000/7d29858795fbe5b1f481a059b6dc2a89.jpg,,
5572180,Optimal Knowledge Management: Wisdom Management Systems Concepts And Applications,,,,James J. Hoctor Robert J. Thierauf,2006,,,,307,0,English,Бизнес//менеджмент,mexmat,28,"9781599040165,1-59904-016-6",,,,,,,,,OL8900856M,,0,,,,,,,,3760031,pdf,7CFB6EBFD57EA580E551E73063A1CE8B,,,"DVD-028/Thierauf_R.,_Hoctor_J.J._Optimal_Knowledge_Management[c]_Wisdom_Management_Systems_Concepts_And_Applications_(2006)(en)(286s).pdf",0,2000-01-01 01:00:00,2016-04-03 02:51:08,29000/7cfb6ebfd57ea580e551e73063a1ce8b-d.jpg,,
5572179,Programming Microcontrollers in C,,Embedded Technology Series,,Ted VanSickle,2001,2nd,Newnes,,470,0,English,Техника//Электроника//Микропроцессорная техника,mexmat,31,"9781878707574,1878707574",,,,,005.26/2,TJ223.P76 V35 2001,,,OL23144771M,,0,,,,,,,,7111771,pdf,7CF5433E434B03E397232A3C756296EF,,,DVD-031/Van_Sickle_T._Programming_Microcontrollers_in_C_(2001)(2nd)(en)(454s).pdf,0,2000-01-01 01:00:00,2016-04-03 02:51:08,29000/7cf5433e434b03e397232a3c756296ef-d.jpg,,
5572178,Kant and the Metaphysics of Causality,,,,Eric Watkins,2004,,Cambridge University Press,,465,0,English,Физика,mexmat,12,"9780521543613,0521543614",,,,,,,,,OL17144622M,,0,,,,,,,T,2094508,pdf,7CD5E49FE50A5DA4212CCD144CBD1DF1,,,DVD-012/Watkins_E._Kant_and_the_Metaphysics_of_Causality_(2005)(en)(451s).pdf,0,2000-01-01 01:00:00,2016-04-03 02:51:08,29000/7cd5e49fe50a5da4212ccd144cbd1df1-d.jpg,,
5572177,"Biopharmaceuticals, an Industrial Perspective",,,,"G. Walsh, B. Murphy",1999,1,Springer,,524,0,English,Медицина//Фармакология,mexmat,29,"9780792357469,0-7923-5746-9",,,,,615/.19,RS380 .B553 1999,,,OL20642717M,,0,,,,,,,T,27565328,pdf,7CB1D3CC9041CAD426BF25957539FF8C,,,"DVD-029/Walsh_G.,_Murphy_B._Biopharmaceuticals,_an_Industrial_Perspective_(1999)(en)(514s).pdf",0,2000-01-01 01:00:00,2016-04-03 02:51:08,29000/7cb1d3cc9041cad426bf25957539ff8c-d.jpg,,
5572176,Successful Marketing Strategies for High-Tech Firms,,Artech House Technology Management and Professional Developm,,Eric Viardot,2004,3,Artech House Publishers,,324,0,English,,mexmat,4,"1580537006,9781580537001,9781580537018",,,,,,,,,OL8780308M,,0,,,,,1,,T,2145164,pdf,7C632D2C0EFA1ADA21DF1964001A9440,,,DVD-004/Viardot_E._Successful_Marketing_Strategies_for_High-Tech_Firms_(2004)(3rd_ed.)(en)(324s).pdf,0,2000-01-01 01:00:00,2016-04-03 02:51:08,29000/7c632d2c0efa1ada21df1964001a9440-d.jpg,,
5572175,Oracle 9i. Replication,,,,Urbano R.,2001,release 9.0.1,,,362,0,English,Компьютеры//Базы данных,mexmat,19,,,,,,,,,,,Part No. А87499-02,0,,,,,,,,4390863,pdf,7B83941E89D4FC3FB1A9F39251A60164,,,DVD-019/Urbano_R._Oracle_9i._Replication_(Part_No._A87499-02)_(2001)(release_9.0.1)(en)(362s).pdf,0,2000-01-01 01:00:00,2016-04-03 02:51:08,29000/7b83941e89d4fc3fb1a9f39251a60164.jpg,,
5572174,"PCT, Spin and Statistics, and All That",,,,"Raymond F. Streater, Arthur S. Wightman",2000,,Princeton University Press,,190,0,English,Математика//Математическая статистика,mexmat,4,"0691070628,9780691070629",,,,,530.14/3,QC174.45 .S87 2000,,,OL6793723M,,0,,,,,1,,T,4019589,djvu,7B699D17F19479EB72926F832DB8F66B,,,"DVD-004/Streater_R.S.,_Wightman_A.S._PCT,_Spin_and_Statistics,_and_All_That_(1964)(en)(190s).djvu",0,2000-01-01 01:00:00,2016-04-03 02:51:08,29000/7b699d17f19479eb72926f832db8f66b-d.jpg,,
5572173,Dynamic Enterprise Architecture: How to Make It Work,,,,"Roel Wagter, Martin van den Berg, Joost Luijpers, Marlies van Steenbergen",2005,1,Wiley,,259,0,English,Компьютеры//Информационные системы//ИС предприятий,mexmat,3,"9780471682721,0-471-68272-1",,,,,,,,,OL7620054M,,0,,,,,,,T,2041641,pdf,7B5E65CA557CA70F162D2643AF06000E,,,ISBN_0471682721_Wiley.Dynamic.Enterprise.Architecture.How.to.Make.It.Work.Jan.2005.eBook-DDU.pdf,0,2000-01-01 01:00:00,2016-04-03 02:51:08,29000/7b5e65ca557ca70f162d2643af06000e-d.jpg,,
5572172,Arts and Humanities Through The Eras: The Age of the Baroque and Enlightenment (1600-1800),,,,Edward Bleiberg,2004,1,Gale,,569,0,English,Образование//Энциклопедии,mexmat,17,"9780787656959,078765695X",,,,,,,,,OL8146550M,,0,,,,0,0,,1,16621693,pdf,7A369FE92D0C63783EC031D41549861D,,,DVD-017/Soergel_P.M._Arts_and_Humanities_Through_The_Eras[c]_The_Age_of_the_Baroque_and_Enlightenment_(1600-1800)_(2005)(en)(548s).pdf,0,2000-01-01 01:00:00,2016-04-03 02:51:08,29000/7a369fe92d0c63783ec031d41549861d-d.jpg,,
5572171,The Scientist and Engineer's Guide to Digital Signal Processing,,,,Steven W. Smith,1999,2,California technical Publishing,,664,0,English,"Математика//Вейвлеты,обработка сигналов",mexmat,24,0966017641,,,,,,,,,,,0,,,,,,,,4093549,djvu,7986E076BED299A57E64EE4F54F0C3A8,,,DVD-024/Smith_S.W._Digital_Signal_Processing_(1999)(2nd_ed.)(en)(650s).djvu,0,2000-01-01 01:00:00,2016-04-03 02:51:08,29000/7986e076bed299a57e64ee4f54f0c3a8.jpg,,
5572169,A Primer on Asynchronous Modem Communication,,,,"Stanton W., Spencer T.",1999,,,,15,0,English,Техника//Электроника//Телекоммуникации,mexmat,25,,,,,,,,,,,,0,,,,,,,,302144,pdf,7919B0A8169B9A8D12146158492B34DF,,,"DVD-025/Stanton_W.,_Spencer_T._A_Primer_on_Asynchronous_Modem_Communication_(1999)(en)(15s).pdf",0,2000-01-01 01:00:00,2016-04-03 02:51:08,29000/7919b0a8169b9a8d12146158492b34df.jpg,,
5572170,TNFLigandNF/NGFReceptorFamilies,,,,Wallach D.,2000,,,,36,0,English,,mexmat,22,,,,,,,,,,,,0,,,,,,,,475813,pdf,795A8B1B8D1C1456ADCFB559D4C2FE14,,,DVD-022/Wallach_D._TNFLigandNF[s]NGFReceptorFamilies_(2000)(en)(36s).pdf,0,2000-01-01 01:00:00,2016-04-03 02:51:08,29000/795a8b1b8d1c1456adcfb559d4c2fe14.jpg,,
5572168,Adobe Creative Suite 2 All-in-one Desk Reference for Dummies,,,,"Jennifer Smith, Christopher Smith",2005,1st,For Dummies,,769,0,English,Образование,mexmat,18,"9780764588150,076458815X",,,,,006.6,,,,OL22694754M,,0,,,,,,,T,14397651,pdf,78F7030AEED387DFEDF57C55DB94310A,,,"DVD-018/Smith_C.,_Smith_J._Adobe_Creative_Suite_2_All-in-one_Desk_Reference_for_Dummies_(2005)(en)(736s).pdf",0,2000-01-01 01:00:00,2016-04-03 02:51:08,29000/78f7030aeed387dfedf57c55db94310a-d.jpg,,
5572167,An Introduction to Genetic Analysis,,,,"Suzuki D.T., Lewontin R.C., Gelbart W.M.",2001,,,,706,0,English,Биология//Генетика,mexmat,28,,,,,,,,,,,,0,,,,,,,,49417867,pdf,78A08CD6B43CA8E6715206B58DED3A1A,,,"DVD-028/Suzuki_D.T.,_Lewontin_R.C.,_Gelbart_W.M._An_Introduction_to_Genetic_Analysis_(2001)(en)(706s).pdf",0,2000-01-01 01:00:00,2016-04-03 02:51:08,29000/78a08cd6b43ca8e6715206b58ded3a1a.jpg,,
5572165,Using The Heikin-Ashi Technique,,,,Valcu D.,2004,,,,8,0,English,Экономика,mexmat,22,,,,,,,,,,,,0,,,,,,,,1344200,pdf,7702E1FD170015EB299900AD606C2D95,,,DVD-022/Valcu_D._Using_The_Heikin-Ashi_Technique_(2004)(en)(8s).pdf,0,2000-01-01 01:00:00,2016-04-03 02:51:08,29000/7702e1fd170015eb299900ad606c2d95.jpg,,
5572166,php|architect's Guide to PHP Design Patterns,,,,Sweat J.E.,2005,,,,337,0,English,Компьютеры//Программирование//Языки программирования,mexmat,20,0-9735898-2-5,,,,,,,,,OL8580576M,,0,,,,,,,T,11391115,pdf,7849192B7A0788D33DE4FDC7222E8AF2,,,DVD-020/Sweat_J.E._php[p]architect[ap]s_Guide_to_PHP_Design_Patterns_(2005)(en)(340s).pdf,0,2000-01-01 01:00:00,2016-04-03 02:51:08,29000/7849192b7a0788d33de4fdc7222e8af2.jpg,,
5572164,Ionic Liquids in Synthesis,,,,"Wasserscheid P., Welton T.",2002,,,,380,0,English,Химия//Органическая химия,mexmat,10,3-527-29605-0,,,,,541/.3,QD538 .C42 1999,,,OL3731978M,,0,,,,,,,T,3778719,pdf,76CB833C1BE0A009A4896A7B0A271E12,,,"DVD-010/Wasserscheid_P.,_Welton_T._Ionic_Liquids_in_Synthesis_(2002)(en)(355s).pdf",0,2000-01-01 01:00:00,2016-04-03 02:51:08,29000/76cb833c1be0a009a4896a7b0a271e12.jpg,,
5572163,The Formation of Communication Networks in Cooperative Games,,,,van den Nouweland A.,2004,,,,40,0,English,Техника//Электроника//Телекоммуникации,mexmat,31,,,,,,,,,,,,0,,,,,,,,384336,pdf,76BFADDC9DAD1300B2E2EE000F113158,,,DVD-031/van_den_Nouweland_A._The_Formation_of_Communication_Networks_in_Cooperative_Games_(2004)(en)(40s).pdf,0,2000-01-01 01:00:00,2016-04-03 02:51:08,29000/76bfaddc9dad1300b2e2ee000f113158.jpg,,
5572162,Design and Usability of Digital Libraries: Case Studies in the Asia Pacific,,,,"Yin-Leng Theng, Schubert Foo",2005,,Information Science Publishing,,416,0,English,,mexmat,17,"9781591404415,9781591404439,1591404428,9781591404422,159140441X",,,,,025/.00285,ZA4080 .D47 2004,,,OL3297139M,,0,,,,,1,,T,10158297,pdf,755A7AF41FB74C3283555E534A6014FC,,,"DVD-017/Theng_Y.-L.,_Foo_S._Design_and_usability_of_digital_libraries_[c]_case_studies_in_the_Asia-Pacific_(2005)(en)(395s).pdf",0,2000-01-01 01:00:00,2016-04-03 02:51:08,29000/755a7af41fb74c3283555e534a6014fc-d.jpg,,
5572160,Practical Rf Printed Cicuit Board Design,,,,Smithson G.,2000,,,,6,0,English,Техника//Электроника//Радио,mexmat,24,,,,,,,,,,,,0,,,,,,,,709052,pdf,7477610063B191B2DA684CA531650C3D,,,DVD-024/Smithson_G._Practical_Rf_Printed_Cicuit_Board_Design_(2000)(en)(6s).pdf,0,2000-01-01 01:00:00,2016-04-03 02:51:08,29000/7477610063b191b2da684ca531650c3d.jpg,,
5572161,CISSP: Certified Information Systems Security Professional Study Guide,,,,"Ed Tittle, James Michael Stewart, Mike Chapple, Ed Tittel",2004,2,Sybex,,717,0,English,Компьютеры//Информационные системы,mexmat,20,"9780782143355,0782143350",,,,,005.8,QA76.3 .T5735 2004,,,OL3699153M,,0,,,,,,,,11406560,pdf,7526963210FBFCFC2843134FFD900124,,,"DVD-020/Tittel_E.,_Stewart_J.M.,_Chapple_M._CISSP[c]_Certified_Information_Systems_Security_Professional_Study_Guide_(2004)(2nd)(en)(720s).pdf",0,2000-01-01 01:00:00,2016-04-03 02:51:08,29000/7526963210fbfcfc2843134ffd900124-d.jpg,,
