21930216,Siren's Call,,,,Cassandra Kane,2007,,New Concepts Publishing,,40,0,English ,,,до 2011-08,9781603940634,,,,,,,,,,,0,,,,,1,0,1,599164,pdf,AD73DFBC3ED5E1ECEB65CD31049FAA49,,,_357360.ad73dfbc3ed5e1eceb65cd31049faa49.pdf,0,2000-01-01 01:00:00,2016-04-03 02:51:08,635000/ad73dfbc3ed5e1eceb65cd31049faa49-g.jpg,,
21930217,Choosing a Broad Base - Low Rate Approach to Taxation (OECD Tax Policy Studies),,OECD Tax Policy Studies,,OECD Organisation for Economic Co-Operation and Development,2010,Pap/Dgd,OECD Publishing,,157,0,English ,,,до 2011-08,"9264091319,9789264091313,9789264091320",1990-0546,,,,,,10.1787/9789264091320-en,UdX1leHU2mcC,,,0,,,,,0,1,1,4724068,pdf,ACFA6D792FBBE70A74B62DD456C247F3,,,_357361.acfa6d792fbbe70a74b62dd456c247f3.pdf,0,2000-01-01 01:00:00,2016-04-03 02:51:08,635000/acfa6d792fbbe70a74b62dd456c247f3-d.jpg,,
21930218,Assassin's Creed. Fratellanza,,,,Oliver Bowden,2011,,Sperling & Kupfer,,409,0,Italian ,,,до 2011-08,"8820050285,9788820050283",,,,,,,,KrREYgEACAAJ,,,0,,,,,0,0,1,1219100,pdf,9DAA2D27C504AB62ACF9F833D728F1E2,,,_357362.9daa2d27c504ab62acf9f833d728f1e2.pdf,0,2000-01-01 01:00:00,2016-04-03 02:51:08,635000/9DAA2D27C504AB62ACF9F833D728F1E2-g.jpg,,
21930219,Vector-valued Laplace Transforms and Cauchy Problems: Second Edition,,Monographs in Mathematics 96,,"Wolfgang Arendt, Charles J.K. Batty, Matthias Hieber, Frank Neubrander (auth.)",2011,2,Birkhäuser Basel,,540,0,English ,,,до 2011-08,"303480086X,9783034800860,9783034800877",,,,,,,10.1007/978-3-0348-0087-7,5mcf0Xmuq-0C,,,0,,,,1,0,1,1,4930878,pdf,FBCDC56589027F48A7709736D8AF870F,,,_357363.fbcdc56589027f48a7709736d8af870f.pdf,0,2000-01-01 01:00:00,2016-04-03 02:51:08,635000/fbcdc56589027f48a7709736d8af870f-d.jpg,,
21930220,Seasons of Seduction II,,Ellora's Cavemen,,"Lani Aames,   Rebecca Airies,   Charlotte Boyett-Compo,   Megan Kerans,   Melany Logan",2007,,Ellora's Cave Publishing Inc.,,144,0,English ,,,до 2011-08,,,,,,,,,,,,0,,,,,0,0,1,931155,pdf,9D5F605A4EA850055B611A7103D7BA18,,,_357364.9d5f605a4ea850055b611a7103d7ba18.pdf,0,2000-01-01 01:00:00,2016-04-03 02:51:08,635000/9D5F605A4EA850055B611A7103D7BA18-g.jpg,,
21930221,Ellora's Cavemen: Jewels of the Nile Vol. II   ,,,,"Rebecca Airies,   Maxie Cooper,   Anna J. Evans,   Samantha Kane,   Natasha Moore",2008,,Ellora's Cave Publishing Inc.,,166,0,English ,,,до 2011-08,"9781419916540,1419916548",,,,,,,,,,,0,,,,,1,0,1,729724,pdf,544E83BC5B392EB548A2153D2DDC77CF,,,_357365.544e83bc5b392eb548a2153d2ddc77cf.pdf,0,2000-01-01 01:00:00,2016-04-03 02:51:08,635000/544E83BC5B392EB548A2153D2DDC77CF-g.jpg,,
21930222,Wir haben noch das ganze Leben (Roman),,,,Eshkol Nevo,2010,,Deutscher Taschenbuch Verlag,,,0,German ,,,до 2011-08,"3423247908,9783423247900,9783423402323",,,,,,,,,,,0,,,,,0,1,1,1845187,epub,64163696162640B3C35321F0EF672CD6,,,_357366.64163696162640b3c35321f0ef672cd6.epub,0,2000-01-01 01:00:00,2016-04-03 02:51:08,635000/64163696162640B3C35321F0EF672CD6-g.jpg,,
21930223,"Jung, el gnóstico",,,,Stephan Hoeller,1990,,Heptada,,303,0,Spanish,,,до 2011-08,"8478920218,9788478920211",,,,,,,,,OL13312455M,,0,,,,1,1,,1,10208888,pdf,322017213A0F60970302137D367D18BE,,,_357367.322017213a0f60970302137d367d18be.pdf,0,2000-01-01 01:00:00,2016-04-03 02:51:08,635000/322017213A0F60970302137D367D18BE-g.jpg,,
21930224,"Granatapfeljahre: Vom Glück, unterwegs zu sein",,,,"Sue Monk Kidd, Ann Kidd Taylor",2010,,btb Verlag,,,0,German ,,,до 2011-08,"3442740843,9783442740840,9783641045432",,,,,,,,,,,0,,,,,0,1,1,2276698,epub,2CEB7D740F02D8DF86E9738BBDAAFC5F,,,_357368.2ceb7d740f02d8df86e9738bbdaafc5f.epub,0,2000-01-01 01:00:00,2016-04-03 02:51:08,635000/2CEB7D740F02D8DF86E9738BBDAAFC5F-g.jpg,,
21930225,Manoscritto trovato a Saragozza,,,,Jan Potocki,,,,,173,0,Italian ,,,до 2011-08,,,,,,,,,69ADPQAACAAJ,,,0,,,,,0,0,1,1799216,pdf,5CA9B4DF53357FC454F678F9C8A3F8B4,,,_357370.5ca9b4df53357fc454f678f9c8a3f8b4.pdf,0,2000-01-01 01:00:00,2016-04-03 02:51:08,635000/5CA9B4DF53357FC454F678F9C8A3F8B4-g.jpg,,
21930226,Lisia's Journey   ,,,,Rebecca Airies,2010,,Ellora's Cave Publishing Inc.,,99,0,English ,,,до 2011-08,"9781419929564,1419929569",,,,,,,,,,,0,,,,,1,0,1,959601,pdf,DBE48C99128176B92C9CF4127411DA30,,,_357371.dbe48c99128176b92c9cf4127411da30.pdf,0,2000-01-01 01:00:00,2016-04-03 02:51:08,635000/DBE48C99128176B92C9CF4127411DA30-g.jpg,,
21930227,"Berlin mit Potsdam (CityGuide), 9. Auflage",,,,Kristine Jaath,2011,,Reise Know-How Verlag,,365,0,German ,,,до 2011-08,"3831719829,9783831719822",,,,,,,,,,,0,,,,1,0,1,1,32300027,pdf,CCA7985D2E5ADB9E223B473DA6EEDFA7,,,_357373.cca7985d2e5adb9e223b473da6eedfa7.pdf,0,2000-01-01 01:00:00,2016-04-03 02:51:08,635000/CCA7985D2E5ADB9E223B473DA6EEDFA7-g.jpg,,
21930228,The Survivors Club   ,,,,Lisa Gardner,2003,,Bantam Books,,354,0,English ,,,до 2011-08,"9780553897500,0553897500",,,,,,,,,OL24287250M,,0,,,,,1,0,1,2203222,pdf,1B1445894DE77100359534814CB7FDC9,,,_357374.1b1445894de77100359534814cb7fdc9.pdf,0,2000-01-01 01:00:00,2016-04-03 02:51:08,635000/1b1445894de77100359534814cb7fdc9-d.jpg,,
21930229,Yeast Genetic Networks: Methods and Protocols,,Methods in Molecular Biology 734,,"Julia Marín-Navarro, Alexandra Jauhiainen, Joaquín Moreno, Paula Alepuz (auth.), Attila Becskei (eds.)",2011,1,Humana Press,,344,0,English,,,до 2011-08,"1617790850,9781617790850",1064-3745,,,,,,10.1007/978-1-61779-086-7,CGA-YgEACAAJ,OL25166189M,,0,,,,1,0,1,1,3103702,pdf,C626192C971D5C84BF9A57004E192670,,,_357375.c626192c971d5c84bf9a57004e192670.pdf,0,2000-01-01 01:00:00,2016-04-03 02:51:08,635000/C626192C971D5C84BF9A57004E192670-g.jpg,,
21930230,Earth Girls Aren't Easy,,,,Jaide Fox,2008,,New Concepts Publishing,,42,0,English ,,,до 2011-08,2940000144152,,,,,,,,,,,0,,,,,1,0,1,410286,pdf,4B5AC232EDF335BDBC5AE5700B51B919,,,_357376.4b5ac232edf335bdbc5ae5700b51b919.pdf,0,2000-01-01 01:00:00,2016-04-03 02:51:08,635000/4B5AC232EDF335BDBC5AE5700B51B919-g.jpg,,
21930231,"Bitemark Evidence: A Color Atlas and Text, 2nd Edition (International Forensic Science)",,"International Forensic Science and Investigation'',",,Robert B.J. Dorion,2011,2,CRC Press,,656,0,English ,,,до 2011-08,"1439818622,9781439818626",,,,,,,,,,index is missing,0,,,,1,0,1,1,71933332,pdf,97BEDE62C0A0EF3E48E3ABE9C3F23338,,,_357377.97bede62c0a0ef3e48e3abe9c3f23338.pdf,0,2000-01-01 01:00:00,2016-04-03 02:51:08,635000/97BEDE62C0A0EF3E48E3ABE9C3F23338-g.jpg,,
21930232,Panda3D 1.7 Game Developer's Cookbook,,,,Christoph Lang,2011,,Packt Publishing,,336,0,English ,,,до 2011-08,"1849512922,9781849512923",,,,,,,,,,,0,,,,1,0,1,1,6214031,pdf,B683BD85F0F089BD7F47E87ADC04D4EF,,,_357379.b683bd85f0f089bd7f47e87adc04d4ef.pdf,0,2000-01-01 01:00:00,2016-04-03 02:51:08,635000/B683BD85F0F089BD7F47E87ADC04D4EF-g.jpg,,
21930233,OpenCart 1.4 Template Design Cookbook,,,,Tahsin Hasan,2011,,Packt Publishing,,328,0,English ,,,до 2011-08,"1849514305,9781849514309",,,,,,,,,,,0,,,,1,0,1,1,8517767,pdf,AD8FA2A42AA5E9C0E7BA3259C18AEE57,,,_357380.ad8fa2a42aa5e9c0e7ba3259c18aee57.pdf,0,2000-01-01 01:00:00,2016-04-03 02:51:08,635000/ad8fa2a42aa5e9c0e7ba3259c18aee57-d.jpg,,
21930234,OpenCart 1.4 Template Design Cookbook,,,,Tahsin Hasan,2011,,Packt Publishing,,328,0,English ,,,до 2011-08,"1849514305,9781849514309",,,,,,,,,,,0,,,,1,0,1,1,10637378,pdf,10E2A5F0049F495A65B066E17A8DCD16,,,_357381.10e2a5f0049f495a65b066e17a8dcd16.pdf,0,2000-01-01 01:00:00,2016-04-03 02:51:08,635000/10e2a5f0049f495a65b066e17a8dcd16-d.jpg,,
21930235,Die Führungsstrategien des Alphawolfs: Ideenpool für Manager,,,,Johannes Voss,2007,,Hanser Verlag,,233,0,German ,,,до 2011-08,"3446412425,9783446412422",,,,,,,,,,,0,,,,1,0,1,1,645903,pdf,6DF73161B3783B246EF3F28414207A11,,,_357382.6df73161b3783b246ef3f28414207a11.pdf,0,2000-01-01 01:00:00,2016-04-03 02:51:08,635000/6DF73161B3783B246EF3F28414207A11-g.jpg,,
21930236,"Rome's Enemies (1): Germanics and Dacians (Men at Arms Series, 129)",,,,Peter Wilcox,1982,,Osprey Publishing,,47,0,English ,,,до 2011-08,"0850454735,9780850454734",,,,,,,,klIrsmZYRnkC,OL19782569M,,0,,,,,1,0,1,9168470,pdf,8B4D35A9F8C06942695704EC21E35FFA,,,_357383.8b4d35a9f8c06942695704ec21e35ffa.pdf,0,2000-01-01 01:00:00,2016-04-03 02:51:08,635000/8B4D35A9F8C06942695704EC21E35FFA-g.jpg,,
21930237,iOS Recipes: Tips and Tricks for Awesome iPhone and iPad Apps,,,,"Matt Drance, Paul Warren",2011,1,Pragmatic Bookshelf,,192,0,English ,,,до 2011-08,"1934356743,9781934356746",,,,,005.258,QA76.8.I64 D73 2011,,,OL25102466M,,0,,,,1,1,1,1,1843488,epub,DFA23144F4AD316DAFF3C7E71E77239B,,,_357384.dfa23144f4ad316daff3c7e71e77239b.epub,0,2000-01-01 01:00:00,2016-04-03 02:51:08,635000/DFA23144F4AD316DAFF3C7E71E77239B-g.jpg,,
21930238,On the Manipulation of Money and Credit,,,,Ludwig Von Mises,1978,,Free Market Books,,233,0,English ,,,до 2011-08,"0930902017,9780930902018",,,,,332.4/6,HB3723 .V66 1978,,KnmwAAAAIAAJ,OL4570925M,,0,,,,,0,1,1,653569,pdf,329547975F0D9E0BF1018B0C0DDB0F5B,,,_357385.329547975f0d9e0bf1018b0c0ddb0f5b.pdf,0,2000-01-01 01:00:00,2016-04-03 02:51:08,635000/329547975F0D9E0BF1018B0C0DDB0F5B-g.jpg,,
21930239,Digital Fundamentals (8th Edition),,,,Thomas L. Floyd,2002,8,Prentice Hall,,497,0,English ,,,до 2011-08,"0130942006,9780130942005,8177587633,9788177587630",,,,,621.39/5,TK7868.D5 F53 2003,,,OL3558633M,,0,,,,,1,,0,28279331,pdf,09446CE7D227A4A96F8DE1C00109FFA3,,,_357386.09446ce7d227a4a96f8de1c00109ffa3.pdf,0,2000-01-01 01:00:00,2016-04-03 02:51:08,635000/09446ce7d227a4a96f8de1c00109ffa3-d.jpg,,
21930240,Chairman Mao Would Not Be Amused: Fiction from Today's China,,,,Howard Goldblatt,1996,,Grove Press,,,0,English ,,,до 2011-08,,,,,,,,,,,,0,,,,,0,1,1,533011,epub,791951CC26A19D8939484F0971C71BCB,,,_357387.791951cc26a19d8939484f0971c71bcb.epub,0,2000-01-01 01:00:00,2016-04-03 02:51:08,635000/791951CC26A19D8939484F0971C71BCB-g.jpg,,
21930241,"nuova enciclopedia popolare ovvero dizionario generale di scienze, lettere, arti, storia, geografia, ecc. ecc. - volume 12 (T-ZVINGLIO) + indice generale  djvu ",,,,"Giuseppe Pomba e Comp. editori, Torino",,,,,812,0,Italian ,,,до 2011-08,,,,,,,,,,,,0,,,,,1,,1,37101359,djvu,DBDC9E708B44CF04019F871B42420404,,,_357388.dbdc9e708b44cf04019f871b42420404.djvu,0,2000-01-01 01:00:00,2016-04-03 02:51:08,635000/DBDC9E708B44CF04019F871B42420404-g.jpg,,
21930242,История мозга. 1640 фактов,,,,Стивен Джуан,2014,,RIPOL klassik,,445,0,Russian,14,,0,"5386065092,9785386065096",,,,,,,,,,,0,,,,,,,1,10441438,pdf,1e113d9dbad9108c7f81eea941077d68,,,Стивен Джуан История мозга. 1640 фактов (2014).pdf,0,2000-01-01 01:00:00,2016-04-03 02:51:08,1192000/1e113d9dbad9108c7f81eea941077d68-d.jpg,,
21930243,C. G. Jung: el último de los magos,,,,Horacio Ejilevich Grimaldi,1988,,Fundación C. G. Jung de Psicología Analítica,,127,0,Spanish,,,до 2011-08,,,,,,,,,,,,0,,,,1,1,,1,3558858,pdf,7B222C1C0D642BB4CC7939FC7DBEED42,,,_357389.7b222c1c0d642bb4cc7939fc7dbeed42.pdf,0,2000-01-01 01:00:00,2016-04-03 02:51:08,635000/7B222C1C0D642BB4CC7939FC7DBEED42-g.jpg,,
21930244,"Symfonia C++. Programowanie w języku C++ orientowane obiektowo. Tomy 1,2,3",,,,Jerzy Grębosz,1999,,Oficyna Kallimach,,769,0,Polish ,92,,до 2011-08,"839016891X,9788390168913",,,,,,,,,,,0,,,,1,1,1,0,19594315,pdf,62634B85359565E5590F655FDAC8A6AD,,,_357390.62634b85359565e5590f655fdac8a6ad.pdf,0,2000-01-01 01:00:00,2016-04-03 02:51:08,635000/62634B85359565E5590F655FDAC8A6AD-g.jpg,,
21930245,Oracle Application Express 4.0 with Ext JS,,,,Mark Lancaster,2011,,Packt Publishing,,393,0,English ,,,до 2011-08,"1849681066,9781849681063",,,,,,,,,,,0,,,,1,0,1,1,19774167,pdf,979708029E2E7D95A5BFF79B11156DAA,,,_357391.979708029e2e7d95a5bff79b11156daa.pdf,0,2000-01-01 01:00:00,2016-04-03 02:51:08,635000/979708029E2E7D95A5BFF79B11156DAA-g.jpg,,
21930246,The Myth of National Defense: Essays on the Theory and History of Security Production,,,,Hans-Hermann Hoppe (ed.),2003,,Ludwig von Mises Institute,,464,0,English ,,,до 2011-08,"0945466374,9780945466376",,,,,,,,LpBnnrc06s4C,OL22721993M,,0,,,,,1,1,1,1561998,pdf,67759B7EB4B741A95C313A26C4C98389,,,_357393.67759b7eb4b741a95c313a26c4c98389.pdf,0,2000-01-01 01:00:00,2016-04-03 02:51:08,635000/67759B7EB4B741A95C313A26C4C98389-g.jpg,,
21930247,Towards Intelligent Modeling: Statistical Approximation Theory,,Intelligent Systems Reference Library 14,,"George A. Anastassiou, Oktay Duman (auth.)",2011,1,Springer-Verlag Berlin Heidelberg,,236,0,English,,,до 2011-08,"3642198252,9783642198250",1868-4394,,,,,,10.1007/978-3-642-19826-7,Ild7yUQaEdsC,OL25189524M,,0,,,,1,0,1,1,2327144,pdf,246AF25A1C2AABE4D5292174981A2C54,,,_357394.246af25a1c2aabe4d5292174981a2c54.pdf,0,2000-01-01 01:00:00,2016-04-03 02:51:08,635000/246af25a1c2aabe4d5292174981a2c54-d.jpg,,
21930248,Architektur denken,,,,Peter Zumthor,2006,"2., erw. Aufl.",Birkhäuser Basel,,91,0,German ,,,до 2011-08,"3764374969,9783764374969",,,,,,,,,OL9581364M,,0,,,,,1,,1,14825778,pdf,0AA6DD3338F0C1FFDC924E693B8996A8,,,_357395.0aa6dd3338f0c1ffdc924e693b8996a8.pdf,0,2000-01-01 01:00:00,2016-04-03 02:51:08,635000/0aa6dd3338f0c1ffdc924e693b8996a8-d.jpg,,
21930249,Barbarians (Concord Fighting Men 6000),,,,"Tim Newark, Angus McBride",1998,,Concord Publications,,47,0,English ,,,до 2011-08,"9623616341,9789623616348",,,,,,,,,OL9160409M,,0,,,,1,1,0,1,11401909,pdf,E08AED81A07A964869BAB9BA4D8B5C46,,,_357396.e08aed81a07a964869bab9ba4d8b5c46.pdf,0,2000-01-01 01:00:00,2016-04-03 02:51:08,635000/E08AED81A07A964869BAB9BA4D8B5C46-g.jpg,,
21930250,Catalytic Asymmetric Friedel–Crafts Alkylations,,,,"Marco Bandini, Achille Umani-Ronchi",2009,1,Wiley-VCH,,318,0,English ,,,до 2011-08,"3527323805,9783527323807",,,,,547.2,QD281.A5 C38 2009,,,OL24495808M,,0,,,,1,0,1,1,3363846,pdf,D8D18E7CB43121E6164FFF2D7CA7C35A,,,_357397.d8d18e7cb43121e6164fff2d7ca7c35a.pdf,0,2000-01-01 01:00:00,2016-04-03 02:51:08,635000/D8D18E7CB43121E6164FFF2D7CA7C35A-g.jpg,,
21930251,Chiral algebras,,,,"Alexander Beilinson, V. G. Drinfeld",2004,,American Mathematical Society,,377,0,English ,,,до 2011-08,,,,,,,,,yHZh3p-kFqQC,,,0,,,,0,0,1,1,3792859,pdf,BF75498C0F3373447381AE7E32AF2070,,,_357398.bf75498c0f3373447381ae7e32af2070.pdf,0,2000-01-01 01:00:00,2016-04-03 02:51:08,635000/BF75498C0F3373447381AE7E32AF2070-g.jpg,,
21930252,Carl G. Jung: señor del mundo subterraneo,,,,Colin Wilson,1986,,Urano,,204,0,Spanish,,,до 2011-08,"8486344239,9788486344238",,,,,,,,,OL13327116M,,0,,,,1,1,,0,6353981,pdf,F6FD0A420DC5C96BA805AA9CE235A815,,,_357399.f6fd0a420dc5c96ba805aa9ce235a815.pdf,0,2000-01-01 01:00:00,2016-04-03 02:51:08,635000/f6fd0a420dc5c96ba805aa9ce235a815-d.jpg,,
21930253,Panda3D 1.7 Game Developer's Cookbook,,,,Christoph Lang,2011,,Packt Publishing,,336,0,English ,,,до 2011-08,"1849512922,9781849512923",,,,,,,,,,,0,,,,1,0,1,1,4706157,pdf,98053155D7A4575227088EAED22232C7,,,_357400.98053155d7a4575227088eaed22232c7.pdf,0,2000-01-01 01:00:00,2016-04-03 02:51:08,635000/98053155D7A4575227088EAED22232C7-g.jpg,,
21930254,Asymmetric Synthesis of Nitrogen Heterocycles,,,,Jacques Royer,2009,1,Wiley-VCH,,426,0,English ,,,до 2011-08,"3527320369,9783527320363",,,,,547.5930459,QD400.5.S95 A89 2009,,,OL24413066M,,0,,,,1,0,1,1,3776500,pdf,D2552D92CFC4A6537E16313A859545CE,,,_357401.d2552d92cfc4a6537e16313a859545ce.pdf,0,2000-01-01 01:00:00,2016-04-03 02:51:08,635000/D2552D92CFC4A6537E16313A859545CE-g.jpg,,
21930255,Excellent Reading Pack,,,,Unknown,2004,,Longman,,26,0,English ,,,до 2011-08,"0582856450,9780582856455",,,,,,,,,,,0,,,,,1,1,0,22389782,pdf,785F6B2402A33289272BD74D3F89FE17,,,_357402.785f6b2402a33289272bd74d3f89fe17.pdf,0,2000-01-01 01:00:00,2016-04-03 02:51:08,635000/785F6B2402A33289272BD74D3F89FE17-g.jpg,,
21930256,WordPress 3 Plugin Development Essentials,,,,"Brian Bondari, Everett Griffiths",2011,,Packt Publishing,,300,0,English ,70,,до 2011-08,"184951352X,9781849513524",,,,,,,,,,,0,,,,1,0,1,1,4440709,pdf,EDD1A0F0A0F5465C07FD18BC5ED7DB0D,,,_357403.edd1a0f0a0f5465c07fd18bc5ed7db0d.pdf,0,2000-01-01 01:00:00,2016-04-03 02:51:08,635000/EDD1A0F0A0F5465C07FD18BC5ED7DB0D-g.jpg,,
21930257,Homogeneous Spaces and Equivariant Embeddings,,Encyclopaedia of Mathematical Sciences 138,,D.A. Timashev (auth.),2011,1,Springer-Verlag Berlin Heidelberg,,254,0,English,,,до 2011-08,"3642183980,9783642183980,9783642183997",0938-0396,,,,,,10.1007/978-3-642-18399-7,FGcYPWACancC,,,0,,,,1,0,1,1,2142245,pdf,3B58F45D7D0C2583F5D690BA42EB1F7D,,,_357404.3b58f45d7d0c2583f5d690ba42eb1f7d.pdf,0,2000-01-01 01:00:00,2016-04-03 02:51:08,635000/3B58F45D7D0C2583F5D690BA42EB1F7D-g.jpg,,
21930258,Modern Aldol Reactions,,,,Rainer Mahrwald,2004,1,Wiley-VCH,,700,0,English ,,,до 2011-08,"3527307141,9783527307142",,,,,,,,,OL9052548M,,0,,,,1,0,1,1,6083746,pdf,02409C90AFF854072325C8F762D37AC7,,,_357405.02409c90aff854072325c8f762d37ac7.pdf,0,2000-01-01 01:00:00,2016-04-03 02:51:08,635000/02409c90aff854072325c8f762d37ac7-d.jpg,,
21930259,"The Cyclist's Training Bible, 3rd Edition",,,,Joe Friel,2003,3rd,VeloPress,,300,0,English ,,,до 2011-08,"1931382212,9781931382212",,,,,796.6/07,GV1048 .F75 2003,,,OL3566911M,,0,,,,0,1,1,1,43186220,pdf,EA6548FB102F26D4485667A3BC470D2F,,,_357406.ea6548fb102f26d4485667a3bc470d2f.pdf,0,2000-01-01 01:00:00,2016-04-03 02:51:08,635000/EA6548FB102F26D4485667A3BC470D2F-g.jpg,,
21930260,"Organofluorine Chemistry: Fluorinated Alkenes and Reactive Intermediates (Topics in Current Chemistry, Volume 192)",,Topics in Current Chemistry 192,,Richard D. Chambers,1997,1,Springer,,255,0,English ,,,до 2011-08,"3540631712,9783540631712",,,,,,,,,OL19621968M,,0,,,,1,1,1,1,12815850,pdf,7ED4822F0B26C77D9F3B63E55E995B98,,,_357407.7ed4822f0b26c77d9f3b63e55e995b98.pdf,0,2000-01-01 01:00:00,2016-04-03 02:51:08,635000/7ED4822F0B26C77D9F3B63E55E995B98-g.jpg,,
21930261,The Domus Aurea and the Roman Architectural Revolution,,,,Larry F. Ball,2003,,Cambridge University Press,,328,0,English ,,,до 2011-08,"0521822513,9780521822510",,,,,728.8/2/09376,NA320 .B35 2003,,,OL22545994M,,0,,,,1,0,0,1,16135427,pdf,9ECFECECFB1F67220CEF38238012064B,,,_357408.9ecfececfb1f67220cef38238012064b.pdf,0,2000-01-01 01:00:00,2016-04-03 02:51:08,635000/9ECFECECFB1F67220CEF38238012064B-g.jpg,,
21930262,The Winter Of Islam And The Spring To Come,,,,Harun Yahya,2004,1ST,Global Publishing,,266,0,English ,,,до 2011-08,"9756426055,9789756426050",,,,,,,,,OL15983538M,,0,,,,1,0,1,1,5594077,pdf,56EA71745C0D4033956EAECDAD24E23E,,,_357410.56ea71745c0d4033956eaecdad24e23e.pdf,0,2000-01-01 01:00:00,2016-04-03 02:51:08,635000/56EA71745C0D4033956EAECDAD24E23E-g.jpg,,
21930263,E-Librarian Service: User-Friendly Semantic Search in Digital Libraries,,X.media.publishing,,"Serge Linckels, Christoph Meinel (auth.)",2011,1,Springer-Verlag Berlin Heidelberg,,212,0,English,,,до 2011-08,"3642177425,9783642177422",1612-1449,,,,,,10.1007/978-3-642-17743-9,81rtxgnq4F4C,,,0,,,,1,0,1,1,8403653,pdf,C666899067D7FC663075A8B377606524,,,_357411.c666899067d7fc663075a8b377606524.pdf,0,2000-01-01 01:00:00,2016-04-03 02:51:08,635000/C666899067D7FC663075A8B377606524-g.jpg,,
21930264,The Historian's Craft in the Age of Herodotus,,,,Nino Luraghi,2007,,Oxford University Press,,351,0,English ,,,до 2011-08,"0199215111,9780199215119,9780199240507",,,,,,,,eeDsf5QvRkwC,OL7403211M,,0,,,,0,0,1,1,2967563,pdf,4F2D9D3BC9B443FEAD948485ECD9841F,,,_357413.4f2d9d3bc9b443fead948485ecd9841f.pdf,0,2000-01-01 01:00:00,2016-04-03 02:51:08,635000/4F2D9D3BC9B443FEAD948485ECD9841F-g.jpg,,
21930265,Joschka Fischer and the making of the Berlin Republic: an alternative history of postwar Germany,,,,Paul Hockenos,2008,1,Oxford University Press,,395,0,English ,,,до 2011-08,"0195181832,9780195181838",,,,,943.088’2092—dc22,DD290.33.F57H63 2007,,Lg9oAAAAMAAJ,OL10133781M,,0,,,,0,1,1,1,4019018,pdf,EA0145CA664E69F6792198569DFFB343,,,_357414.ea0145ca664e69f6792198569dffb343.pdf,0,2000-01-01 01:00:00,2016-04-03 02:51:08,635000/EA0145CA664E69F6792198569DFFB343-g.jpg,,
21930266,Permissive Residents: West Papuan Refugees Living in Papua New Guinea,,Monographs in Anthropology,,Diana Glazebrook,2008,,ANU E Press,,172,0,English ,,,до 2011-08,"1921536233,9781921536236,9781921536229",,,,,,,,nCcnnmcjsHoC,OL23840422M,,0,,,,1,0,1,1,965249,pdf,C8475F9365A02B2734A3A05E67435B1E,,,_357415.c8475f9365a02b2734a3a05e67435b1e.pdf,0,2000-01-01 01:00:00,2016-04-03 02:51:08,635000/C8475F9365A02B2734A3A05E67435B1E-g.jpg,,
21930267,"Encyclopedia of Physical Science and Technology, 3e, Energy",,"Encyclopedia of Physical Science and Technology'', Energy",,Robert Allen Meyers,2007,,Academic Press,,277,0,English ,,,до 2011-08,,,,,,,,,,,"no front matter, no ISBN(s)",0,,,,0,0,1,1,7510366,pdf,7E0818CEA0E83470247C4EAE22377B8E,,,_357416.7e0818cea0e83470247c4eae22377b8e.pdf,0,2000-01-01 01:00:00,2016-04-03 02:51:08,635000/7E0818CEA0E83470247C4EAE22377B8E-g.jpg,,
21930268,"Chemie in der Medizin, 9. Auflage",,,,"Helmut Wachter, Arno Hausen, Gilbert Reibnegger",2008,,De Gruyter,,452,0,German ,,,до 2011-08,"311019063X,9783110190632",,,,,,,,7IGNGAAACAAJ,,,0,,,,1,0,1,1,7354103,pdf,3376E1BAFAB7832666074E5361841800,,,_357417.3376e1bafab7832666074e5361841800.pdf,0,2000-01-01 01:00:00,2016-04-03 02:51:08,,,
21930269,"Metal Complexes in Fossil Fuels. Geochemistry, Characterization, and Processing",,ACS Symposium Volume 344,,Royston H. Filby and Jan F. Branthaver (Eds.),1987,,American Chemical Society,,440,0,English,,,до 2011-08,"9780841214040,9780841211872,0-8412-1404-2",0097-6156,,,,553.2,TP691 .M436 1987,10.1021/bk-1987-0344,aMBTAAAAMAAJ,OL2385495M,,0,,,,,1,0,1,8499591,pdf,413BD2F92BE5DC6AB5FB1166A654F128,,,_357419.413bd2f92be5dc6ab5fb1166a654f128.pdf,0,2000-01-01 01:00:00,2016-04-03 02:51:08,635000/413BD2F92BE5DC6AB5FB1166A654F128-g.jpg,,
21930270,Knowledge Map of the Virtual Economy (An infoDev Publication),,,,Dr. Vili Lehdonvirta & Dr. Mirko Ernkvist,,,,,75,0,English ,,,до 2011-08,,,,,,,,,,,,0,,,,,1,,1,2610437,pdf,1087484BD4FAB7F253BD4989A384C048,,,_357420.1087484bd4fab7f253bd4989a384c048.pdf,0,2000-01-01 01:00:00,2016-04-03 02:51:08,635000/1087484bd4fab7f253bd4989a384c048-g.jpg,,
21930271,Psilocybin Mushroom Handbook: Easy Indoor and Outdoor Cultivation,,,,"L. G Nicholas, Kerry Ogame",2006,,Quick American Archives,,221,0,English ,,,до 2011-08,"0932551718,9780932551719",,,,,,,,,OL8386354M,,0,,,,0,1,0,0,22924608,pdf,323ECE8EC56DA37061577E317B85ACD5,,,_357421.323ece8ec56da37061577e317b85acd5.pdf,0,2000-01-01 01:00:00,2016-04-03 02:51:08,635000/323ECE8EC56DA37061577E317B85ACD5-g.jpg,,
21930272,"Astronomical Photometry: Past, Present, and Future",,Astrophysics and Space Science Library 373,,"Christiaan Sterken, E. F. Milone, Andrew T. Young (auth.), Eugene F. Milone, C. Sterken (eds.)",2011,1,Springer-Verlag New York,,220,0,English,,,до 2011-08,"1441980490,9781441980496",0067-0057,,,,,,10.1007/978-1-4419-8050-2,qv0bkgAACAAJ,OL25146322M,,0,,,,1,0,1,1,5755792,pdf,9C61DE11F2847BD250E4CF4BAF3442F9,,,_357422.9c61de11f2847bd250e4cf4baf3442f9.pdf,0,2000-01-01 01:00:00,2016-04-03 02:51:08,635000/9C61DE11F2847BD250E4CF4BAF3442F9-g.jpg,,
21930273,"Psychological Commentaries on the Teaching of Gurdjieff and Ouspensky, Volume 5",,,,Maurice Nicoll,1996,,Samuel Weiser,,258,0,English ,,,до 2011-08,"0877289034,9780877289036",,,,,,,,,,,0,,,,1,1,1,1,1233420,pdf,84112B020524B2096EE656269CA17BA5,,,_357425.84112b020524b2096ee656269ca17ba5.pdf,0,2000-01-01 01:00:00,2016-04-03 02:51:08,635000/84112B020524B2096EE656269CA17BA5-g.jpg,,
21930274,Encyclopedia of Physical Science and Technology - Optics,,Encyclopedia of Physical Science and Technology,,Robert Allen Meyers (Editor),2001,3,Academic Press,,344,0,English,,,до 2011-08,978-0122274107,,,,,,,,,,"no front matter, no ISBN(s)",0,0,,0,1,0,1,1,18754370,pdf,17A8ABF615C7AFE5C54B3455C1B522C9,,,_357426.17a8abf615c7afe5c54b3455c1b522c9.pdf,0,2000-01-01 01:00:00,2016-04-03 02:51:08,635000/17a8abf615c7afe5c54b3455c1b522c9-g.jpg,,
21930275,Nonstandard Queries and Nonstandard Answers,,Studies in Logic and Computation 3,,"Robert Demolombe, Tomasz Imieliński",1994,,Oxford University Press,,291,0,English,,,до 2011-08,"0198538529,9780198538523",,,,,006.3/3,QA76.9.Q4 N66 1994,,eJJb6cVZZSwC,,,0,,,,0,1,0,0,13158757,pdf,B459DA15BAB06E4071E63AF11FDF451C,,,_357427.b459da15bab06e4071e63af11fdf451c.pdf,0,2000-01-01 01:00:00,2016-04-03 02:51:08,635000/b459da15bab06e4071e63af11fdf451c-d.jpg,,
21930276,Chance: The Life of Games and the Game of Life,,,,Joaquim P. Marques de Sá (auth.),2008,1,Springer-Verlag Berlin Heidelberg,,224,0,English,,,до 2011-08,"3540744169,9783540744160",,,,,,,10.1007/978-3-540-74417-7,PoPRIuE4U8EC,OL12810613M,,0,,,,1,0,1,1,5794823,pdf,A5F3190D0405BF8EA548DAC70D8D53BC,,,_357428.a5f3190d0405bf8ea548dac70d8d53bc.pdf,0,2000-01-01 01:00:00,2016-04-03 02:51:08,635000/a5f3190d0405bf8ea548dac70d8d53bc-d.jpg,,
21930277,Linux Cookbook,,,,Carla Schroder,2004,1,O'Reilly Media,,592,0,English ,,,до 2011-08,"0596006403,9780596006402",,,,,005.432,QA76.76.O63 S395 2005,,FOZY-usVl6cC,OL3440023M,,0,,,,1,1,1,1,4869571,pdf,1BE6F297BFDAF59F26082123BFA9FECA,,,_357429.1be6f297bfdaf59f26082123bfa9feca.pdf,0,2000-01-01 01:00:00,2016-04-03 02:51:08,635000/1be6f297bfdaf59f26082123bfa9feca-d.jpg,,
21930278,The Historian's Craft in the Age of Herodotus,,,,Nino Luraghi,2007,,Oxford University Press,,351,0,English ,,,до 2011-08,"0199215111,9780199215119,9781429470315",,,,,,,,eeDsf5QvRkwC,OL7403211M,,0,,,,1,0,1,1,1732020,pdf,1464E1A4D3B9756E77A46144B9980511,,,_357430.1464e1a4d3b9756e77a46144b9980511.pdf,0,2000-01-01 01:00:00,2016-04-03 02:51:08,635000/1464e1a4d3b9756e77a46144b9980511-d.jpg,,
21930279,Gellius the Satirist: Roman Cultural Authority in Attic Nights (Mnemosyne Supplements: Monographs on Greek and Roman Language and Literature),,Mnemosyne Supplements 297,,Wytse Hette Keulen,2009,,Brill Academic Publishers,,377,0,English ,,,до 2011-08,"9004169865,9789004169869",,,,,878/.01,PA6391 .K48 2009,,X31UMFQSMQ4C,OL22515235M,,0,,,,1,0,1,1,3088195,pdf,864514E74C77F0699D9AFE0AEBB404B5,,,_357431.864514e74c77f0699d9afe0aebb404b5.pdf,0,2000-01-01 01:00:00,2016-04-03 02:51:08,635000/864514E74C77F0699D9AFE0AEBB404B5-g.jpg,,
21930280,Словарь арабских и персидских лексических заимствований в даргинском языке,,,,"Стоянова Н. И., Эфендиев И. И.",,,,,138,0,Russian ,314,,до 2011-08,,,,,,,,,,,,0,,,,0,0,0,0,698991,pdf,09692C5AAFDAF6A3C4410B6CE5AE5D86,,,_357432.09692c5aafdaf6a3c4410b6ce5ae5d86.pdf,0,2000-01-01 01:00:00,2016-04-03 02:51:08,635000/09692c5aafdaf6a3c4410b6ce5ae5d86-g.jpg,,
21930281,"Psychological Commentaries on the Teaching of Gurdjieff and Ouspensky, Vol. 6 : Index",,,,Maurice Nicoll,1996,,Red Wheel/Weiser,,204,0,English ,,,до 2011-08,"9780877289043,0877289042",,,,,,,,,,,0,,,,1,1,1,1,607983,pdf,CD001EC5F3A527260013D8BD30BE851E,,,_357433.cd001ec5f3a527260013d8bd30be851e.pdf,0,2000-01-01 01:00:00,2016-04-03 02:51:08,635000/CD001EC5F3A527260013D8BD30BE851E-g.jpg,,
21930282,"Handbuch der Präparativen Anorganischen Chemie, 3. Auflage, Band III",,,,Georg Brauer,1981,,Ferdinand Enke Verlag,,719,0,German ,,,до 2011-08,"3432878230,9783432878232",,,,,,,,,,,0,,,,1,1,0,1,11918848,pdf,D4221FAE1A3530CD4358AA3D5AFE5F51,,,_357434.d4221fae1a3530cd4358aa3d5afe5f51.pdf,0,2000-01-01 01:00:00,2016-04-03 02:51:08,635000/D4221FAE1A3530CD4358AA3D5AFE5F51-g.jpg,,
21930283,"Handbuch der Präparativen Anorganischen Chemie, 3. Auflage, Band II",,,,Georg Brauer,1978,,Ferdinand Enke Verlag,,808,0,German ,,,до 2011-08,"3432878133,9783432878133",,,,,,,,,,,0,,,,1,1,0,1,12637464,pdf,283D998D97749BB297DFC5E98F3EEE03,,,_357435.283d998d97749bb297dfc5e98f3eee03.pdf,0,2000-01-01 01:00:00,2016-04-03 02:51:08,635000/283d998d97749bb297dfc5e98f3eee03-g.jpg,,
21930284,"Handbuch der Präparativen Anorganischen Chemie, 3. Auflage, Band I",,,,Georg Brauer,1975,,Ferdinand Enke Verlag,,618,0,German ,,,до 2011-08,"3432023286,9783432023281",,,,,,,,,,,0,,,,1,1,0,1,9200503,pdf,74E11ED3CB5738C5541DDC7FA9CCF32E,,,_357436.74e11ed3cb5738c5541ddc7fa9ccf32e.pdf,0,2000-01-01 01:00:00,2016-04-03 02:51:08,635000/74E11ED3CB5738C5541DDC7FA9CCF32E-g.jpg,,
21930285,Encyclopedia of physical science and technology: polymers,,Encyclopedia of physical science and technology,,Robert A. Meyers (editor),2001,3,Academic Press,,339,0,English,181,,до 2011-08,"0122274105, 9780122274107",,,,,503-dc21,Q123 .E497 2002,,,,,0,,,,1,0,1,1,13886220,pdf,0AD74C089834BDB402CBA49346EE97DF,42E0DC681EEB5FD5EE5C4DFCF4F24990,no,_357439.0ad74c089834bdb402cba49346ee97df.pdf,0,2000-01-01 01:00:00,2016-04-03 02:51:08,2000/42e0dc681eeb5fd5ee5c4dfcf4f24990.jpg,,
21930286,"Mass and Elite in Democratic Athens: Rhetoric, Ideology, and the Power of the People",,,,Josiah Ober,1991,,Princeton University Press,,409,0,English ,,,до 2011-08,"0691028648,9780691028644",,,,,,,,,OL7756792M,,0,,,,0,0,0,1,4144448,pdf,27E3CCF2B15AF9542B21FEECC938744C,,,_357440.27e3ccf2b15af9542b21feecc938744c.pdf,0,2000-01-01 01:00:00,2016-04-03 02:51:08,635000/27e3ccf2b15af9542b21feecc938744c-d.jpg,,
21930287,Problemas de física,,,,"O. Ya Sávchenko, Ivan Ignatévich Vorobeb",1989,,Mir,,408,0,Spanish,,,до 2011-08,"5030006818,9785030006819",,,,,,,,Be9NAAAACAAJ,,,0,,,,,1,0,0,57382738,pdf,02923041A2D38DEDFD9967CBDFCFDF52,,,_357441.02923041a2d38dedfd9967cbdfcfdf52.pdf,0,2000-01-01 01:00:00,2016-04-03 02:51:08,635000/02923041a2d38dedfd9967cbdfcfdf52-g.jpg,,
21930288,The Next Accident,,FBI Profiler 3,,Lisa Gardner,2001,,Bantam,,,0,English ,,,до 2011-08,,,,,,,,,,,,0,,,,,1,1,1,520843,epub,E0904C9393D906BEF46521B56CA9A669,,,_357442.e0904c9393d906bef46521b56ca9a669.epub,0,2000-01-01 01:00:00,2016-04-03 02:51:08,635000/E0904C9393D906BEF46521B56CA9A669-g.jpg,,
21930289,The Varieties of Goodness (Key Texts),,,,Georg Henrik Von Wright,"1997'',",,Thoemmes Press,,164,0,English ,,,до 2011-08,"1855062321,9781855062320",,,,,,,,,OL9717693M,Approximately 40+ pages missing intermittently,0,,,,,1,,1,934177,pdf,F9F18987213C050FE15C5779C455826C,,,_357443.f9f18987213c050fe15c5779c455826c.pdf,0,2000-01-01 01:00:00,2016-04-03 02:51:08,635000/f9f18987213c050fe15c5779c455826c-d.jpg,,
21930290,International economics: theory and policy,,,,"Paul R. Krugman, Maurice Obstfeld",2003,,Addison Wesley,,783,0,English ,,,до 2011-08,"0321116399,9780321116390",,,,,,,,KCZgQgAACAAJ,OL9443278M,,0,,,,0,1,1,1,30311530,pdf,3A46602A7235F3C3375911024CADB784,,,_357444.3a46602a7235f3c3375911024cadb784.pdf,0,2000-01-01 01:00:00,2016-04-03 02:51:08,635000/3A46602A7235F3C3375911024CADB784-g.jpg,,
21930291,Food Plant Economics,,"Food Science and Technology, vol 171",,"Zacharias B. Maroulis, George D. Saravacos",2008,1,CRC Press,,363,0,English,,,до 2011-08,"0849340217,9780849340215",,,,,664/.024,TP370.5 .M36 2008,,UWx3Qcz2fzAC,,,0,,,,0,0,1,1,5140629,pdf,6198769CE8CE47D4CB153F7D0A25222C,,,_357446.6198769ce8ce47d4cb153f7d0a25222c.pdf,0,2000-01-01 01:00:00,2016-04-03 02:51:08,635000/6198769CE8CE47D4CB153F7D0A25222C-g.jpg,,
21930292,Harry S. Truman and the Cold War Revisionists,,,,Robert H. Ferrell,2006,First Edition,University of Missouri,,155,0,English ,,,до 2011-08,"0826216536,9780826216533",,,,,,,,YR1irwDCipMC,OL8166499M,,0,,,,1,0,1,1,1210922,pdf,13A2815ED4020C4007A29F91CD001C90,,,_357448.13a2815ed4020c4007a29f91cd001c90.pdf,0,2000-01-01 01:00:00,2016-04-03 02:51:08,635000/13a2815ed4020c4007a29f91cd001c90-d.jpg,,
21930293,"Textbook of Engineering Drawing, Second Edition",,,,"Reddy, K. Venkata",2008,,BS Publications,,377,0,English ,,,до 2011-08,"8178001497,9788178001494",,,,,,,,,,,0,,,,0,0,1,1,15339394,pdf,CEC7689B94C5186050BD03680C894286,,,_357449.cec7689b94c5186050bd03680c894286.pdf,0,2000-01-01 01:00:00,2016-04-03 02:51:08,635000/CEC7689B94C5186050BD03680C894286-g.jpg,,
21930294,25 уроков шашечной игры,,,,Хацкевич Г.И.,1979,,Полымя,,262,0,Russian,289,,0,,,,,,,,,,,,0,,,,,,,0,33622786,pdf,9ea51c6ba3cd4f38c1d43d94b2bc7dd3,,,Хацкевич Г.И. 25 уроков шашечной игры (1979).pdf,0,2000-01-01 01:00:00,2016-04-03 02:51:08,1192000/9ea51c6ba3cd4f38c1d43d94b2bc7dd3-g.jpg,,
21930295,The King's Speech: How One Man Saved the British Monarchy,,,,"Mark Logue, Peter Conradi",2010,1St Edition,Sterling,,,0,English ,,,до 2011-08,"140278676X,9781402786761",,,,,,,,,OL24599164M,,0,,,,,1,1,1,3173773,epub,981F7303B08BD69B6D728943FFE63827,,,_357450.981f7303b08bd69b6d728943ffe63827.epub,0,2000-01-01 01:00:00,2016-04-03 02:51:08,635000/981F7303B08BD69B6D728943FFE63827-g.jpg,,
21930296,We Have Always Lived in the Castle,,,,Shirley Jackson,2006,Deluxe,Penguin Classics,,61,0,English ,,,до 2011-08,"0143039970,9780143039976",,,,,813/.54,PS3519.A392 W4 2006,,5-Tmu77gopIC,OL17924197M,,0,,,,0,1,0,1,259464,pdf,415D0742A4DBC72B60EC26095DC6E7BD,,,_357451.415d0742a4dbc72b60ec26095dc6e7bd.pdf,0,2000-01-01 01:00:00,2016-04-03 02:51:08,635000/415D0742A4DBC72B60EC26095DC6E7BD-g.jpg,,
21930297,Gingerbread Cookie Murder,,Hannah Swensen,,"Joanne Fluke, Leslie Meier, Laura Levine",2010,,Kensington Books,,,0,English ,,,до 2011-08,"0758234953,9780758234957",,,,,813/.54,PS3556.L685 G56 2010,,,OL24356121M,,0,,,,,1,1,1,416217,epub,BD5DD556627601CDC35D4E32D5F9710B,,,_357452.bd5dd556627601cdc35d4e32d5f9710b.epub,0,2000-01-01 01:00:00,2016-04-03 02:51:08,635000/BD5DD556627601CDC35D4E32D5F9710B-g.jpg,,
21930298,Revenge of the Wrought-Iron Flamingos (Meg Langslow Mysteries),,,,Donna Andrews,2002,,Minotaur Books,,,0,English ,,,до 2011-08,"0312983190,9780312983192",,,,,,,,,,,0,,,,,1,,,437840,epub,16C27BBFC20C5C0A481A559D12CBF123,,,_357453.16c27bbfc20c5c0a481a559d12cbf123.epub,0,2000-01-01 01:00:00,2016-04-03 02:51:08,635000/16c27bbfc20c5c0a481a559d12cbf123-d.jpg,,
21930299,The economics of immigration and social diversity,,,,"Solomon W. Polachek, Carmel U. Chiswick, Hillel Rapoport",2006,1,Emerald Group Publishing,,489,0,English ,,,до 2011-08,"0762312750,9780762312757",0147-9121,,,,331.62,,,2r72Fy2OiFkC,OL18553764M,,0,,,,0,0,0,1,2995014,pdf,B3EF06C46AD84E246802990043AC8AC3,,,_357455.b3ef06c46ad84e246802990043ac8ac3.pdf,0,2000-01-01 01:00:00,2016-04-03 02:51:08,635000/b3ef06c46ad84e246802990043ac8ac3-d.jpg,,
21930300,Revenge of the Wrought-Iron Flamingos (Meg Langslow Mysteries),,,,Donna Andrews,2002,,Minotaur Books,,410,0,English ,,,до 2011-08,"0312983190,9780312983192",,,,,,,,,,,0,,,,,1,,1,1348536,pdf,2C959F8EBB026A1219BD14B5595F646F,,,_357456.2c959f8ebb026a1219bd14b5595f646f.pdf,0,2000-01-01 01:00:00,2016-04-03 02:51:08,635000/2c959f8ebb026a1219bd14b5595f646f-d.jpg,,
21930301,Plum Pudding Murder,,Hannah Swensen 12,,Joanne Fluke,2010,,Kensington Books,,,0,English ,,,до 2011-08,0758249039,,,,,,,,,,,0,,,,,1,1,1,557853,lit,FC842738069E4ECC0CD748E32C085FA6,,,_357457.fc842738069e4ecc0cd748e32c085fa6.lit,0,2000-01-01 01:00:00,2016-04-03 02:51:08,635000/FC842738069E4ECC0CD748E32C085FA6-g.jpg,,
21930302,Economics and Preventing Healthcare Acquired Infection,,,,"Nicholas Graves, Kate Halton, William Jarvis (auth.)",2009,1,Springer-Verlag New York,,161,0,English,,,до 2011-08,"0387726497,9780387726496",,,,,,,10.1007/978-0-387-72651-9,zi_-DVuuNGwC,,,0,,,,0,0,1,1,3375862,pdf,8DB575A99B2C70759469B8C8DBB5A895,,,_357458.8db575a99b2c70759469b8c8dbb5a895.pdf,0,2000-01-01 01:00:00,2016-04-03 02:51:08,635000/8DB575A99B2C70759469B8C8DBB5A895-g.jpg,,
21930303,Memory Machines: The Evolution of Hypertext,,Anthem Scholarship in the Digital Age,,Belinda Barnet,2013,1st,Anthem Press,,192,0,English,,,0,"0857280600,9780857280602",,,,,,,,,,,0,,,,,,1,1,4478024,pdf,091866a7e62798a688f2e824ec916eee,,,Barnet - Memory Machines.pdf,0,2000-01-01 01:00:00,2016-04-03 02:51:08,1192000/091866a7e62798a688f2e824ec916eee-d.jpg,,
21930304,Candy Cane Murder,,Hannah Swensen,,"Joanne Fluke, Laura Levine, Leslie Meier",2008,,Kensington Books,,399,0,English ,,,до 2011-08,0758236859,,,,,,,,,,,0,,,,,0,0,1,1656294,pdf,03B3DC20A57AF136FAF7B26371A8A0DE,,,_357460.03b3dc20a57af136faf7b26371a8a0de.pdf,0,2000-01-01 01:00:00,2016-04-03 02:51:08,635000/03b3dc20a57af136faf7b26371a8a0de-g.jpg,,
21930305,"Applied transport economics: policy, management & decision making",,,,Stuart Cole,2005,3rd,Kogan Page Publishers,,465,0,English ,,,до 2011-08,"0749439645,9780749439644,074944102X,9780749441029",,,,,,,,RUWm7TbL58EC,OL7967418M,,0,,,,0,0,1,1,4937207,pdf,E8DD869E08F6783BCAE5C1E6CD26522D,,,_357461.e8dd869e08f6783bcae5c1e6cd26522d.pdf,0,2000-01-01 01:00:00,2016-04-03 02:51:08,635000/E8DD869E08F6783BCAE5C1E6CD26522D-g.jpg,,
21930306,Peach Cobbler Murder,,Hannah Swensen 7,,Joanne Fluke,2006,,Kensington,,183,0,English ,,,до 2011-08,,,,,,,,,,,,0,,,,,0,0,0,925621,pdf,ABE815BD2191482E7FDF7730E71C63F5,,,_357462.abe815bd2191482e7fdf7730e71c63f5.pdf,0,2000-01-01 01:00:00,2016-04-03 02:51:08,635000/abe815bd2191482e7fdf7730e71c63f5-g.jpg,,
21930307,Fudge Cupcake Murder,,Hannah Swensen 5,,Joanne Fluke,2005,,Kensington,,143,0,English ,,,до 2011-08,,,,,,,,,,,,0,,,,,0,0,0,900673,pdf,D40CDC2C6D53751E59BDA3680A73439E,,,_357463.d40cdc2c6d53751e59bda3680a73439e.pdf,0,2000-01-01 01:00:00,2016-04-03 02:51:08,635000/D40CDC2C6D53751E59BDA3680A73439E-g.jpg,,
21930308,Statistics: A Bayesian Perspective,,,,Donald A.(Donald A. Berry) Berry,1995,1,Duxbury Press,,343,0,English ,,,до 2011-08,"0534234720,9780534234720",,,,,519.5,QA279.5 .B48 1996,,,OL7783879M,,0,,,,,1,,1,21121760,pdf,FE3960851C39C6F4AF26D8196BD05BBE,,,_357464.fe3960851c39c6f4af26d8196bd05bbe.pdf,0,2000-01-01 01:00:00,2016-04-03 02:51:08,635000/fe3960851c39c6f4af26d8196bd05bbe-d.jpg,,
21930309,Cockatiels at Seven (Meg Langslow Mysteries),,,,Donna Andrews,2009,First Edition,Minotaur Books,,,0,English ,,,до 2011-08,"0312377169,9780312377168",,,,,,,,,OL24084207M,,0,,,,,1,,,307476,epub,DCB7137BCF7FB902BDEF0248B9392FCF,,,_357465.dcb7137bcf7fb902bdef0248b9392fcf.epub,0,2000-01-01 01:00:00,2016-04-03 02:51:08,635000/DCB7137BCF7FB902BDEF0248B9392FCF-g.jpg,,
21930310,Nanocosmetics and Nanomedicines: New Approaches for Skin Care,,,,"Renata V. Contri, Luana A. Fiel, Adriana R. Pohlmann, Sílvia S. Guterres (auth.), Ruy Beck, Silvia Guterres, Adriana Pohlmann (eds.)",2011,1,Springer-Verlag Berlin Heidelberg,,368,0,English,,,до 2011-08,"3642197914,9783642197918",,,,,,,10.1007/978-3-642-19792-5,CnGTVL5r3VMC,,,0,,,,1,0,1,1,9361301,pdf,F0473EBC0DE0D3451D75568E2DC7BCD6,,,_357466.f0473ebc0de0d3451d75568e2dc7bcd6.pdf,0,2000-01-01 01:00:00,2016-04-03 02:51:08,635000/F0473EBC0DE0D3451D75568E2DC7BCD6-g.jpg,,
21930311,Lemon Meringue Pie Murder,,Hannah Swensen 4,,Joanne Fluke,2004,,Kensington,,128,0,English ,,,до 2011-08,,,,,,,,,,,,0,,,,,0,0,0,1170689,pdf,4EC3EF1168F574D6C4BE0B2F6B00011A,,,_357467.4ec3ef1168f574d6c4be0b2f6b00011a.pdf,0,2000-01-01 01:00:00,2016-04-03 02:51:08,635000/4EC3EF1168F574D6C4BE0B2F6B00011A-g.jpg,,
21930312,Blueberry Muffin Murder,,Hannah Swensen 3,,Joanne Fluke,2003,,Kensington,,207,0,English ,,,до 2011-08,,,,,,,,,,,,0,,,,,0,0,0,986711,pdf,83E3F657FF6D1EA96FA51904518491F8,,,_357468.83e3f657ff6d1ea96fa51904518491f8.pdf,0,2000-01-01 01:00:00,2016-04-03 02:51:08,635000/83E3F657FF6D1EA96FA51904518491F8-g.jpg,,
21930313,Equivariant Homotopy and Cohomology Theory (Cbms Regional Conference Series in Mathematics),,,,J. P. May,1996,,American Mathematical Society,,376,0,English ,,,до 2011-08,"0821803190,9780821803196",,,,,514/.2,"QA1 .R33 no. 91,QA612.7 .R33 no. 91",,rjMXVqEiA7MC,OL989977M,,0,,,,1,1,1,1,6055531,djvu,B3CBA1BC86721BDD8C668D26AF676FCA,,,_357469.b3cba1bc86721bdd8c668d26af676fca.djvu,0,2000-01-01 01:00:00,2016-04-03 02:51:08,635000/b3cba1bc86721bdd8c668d26af676fca-d.jpg,,
21930314,Współczesna chromatografia cieczowa: ćwiczenia i zadania,,,,"Robert Rosset, Hanna Kołodziejczyk",2001,,Wydaw. Naukowe PWN,,164,0,Polish ,,,до 2011-08,"8301133619,9788301133610",,,,,,,,,,,0,,,,,1,,0,5182839,pdf,287DEDAE270BDC5B772A735B722EF154,,,_357470.287dedae270bdc5b772a735b722ef154.pdf,0,2000-01-01 01:00:00,2016-04-03 02:51:08,635000/287dedae270bdc5b772a735b722ef154-g.jpg,,
21930315,Water Engineering and Management Through Time: Learning from History,,,,Enrique Cabrera,2009,1,Taylor and Francis,,350,0,English ,,,до 2011-08,"0415480027,9780415480024,9780203836736",,,,,,,,,,index is missing,0,,,,1,0,1,1,26527534,pdf,E69CF7C948FA19684BC247B8F5A53932,,,_357471.e69cf7c948fa19684bc247b8f5a53932.pdf,0,2000-01-01 01:00:00,2016-04-03 02:51:08,635000/E69CF7C948FA19684BC247B8F5A53932-g.jpg,,
21930316,Quasi-Gas Dynamic Equations,,Computational Fluid and Solid Mechanics,,Tatiana G. Elizarova (auth.),2009,1,Springer-Verlag Berlin Heidelberg,,286,0,English,,,до 2011-08,"3642002919,9783642002915,3642002927,9783642002922",,,,,532.05015118,QA930 .E45 2009,10.1007/978-3-642-00292-2,woR40g0cf10C,OL25040930M,,0,,,,1,0,1,1,7980524,pdf,8F00DF404D12F03E3C3E7E79B4B6B8CA,,,_357472.8f00df404d12f03e3c3e7e79b4b6b8ca.pdf,0,2000-01-01 01:00:00,2016-04-03 02:51:08,635000/8F00DF404D12F03E3C3E7E79B4B6B8CA-g.jpg,,
21930317,Strawberry Shortcake Murder,,Hannah Swensen 2,,Joanne Fluke,2002,,Kensington,,186,0,English ,,,до 2011-08,"0758219725,9780758219725",,,,,,,,,OL8006770M,,0,,,,,0,0,0,933023,pdf,A623D613C9451F5F60CD7A2E8B46F675,,,_357473.a623d613c9451f5f60cd7a2e8b46f675.pdf,0,2000-01-01 01:00:00,2016-04-03 02:51:08,635000/a623d613c9451f5f60cd7a2e8b46f675-d.jpg,,
21930318,"Handbook of experimental economics results, Volume 1",,,,"Charles R. Plott, Vernon L. Smith",2008,1,Elsevier,,1127,0,English ,,,до 2011-08,"0444826424,9780444826428",1574-0722,,,,,,,wAK_aKs3EPoC,OL10260855M,,0,,,,0,0,0,1,29968174,pdf,FC406057401CCBEC9B507386E5EEBDBE,,,_357474.fc406057401ccbec9b507386e5eebdbe.pdf,0,2000-01-01 01:00:00,2016-04-03 02:51:08,635000/fc406057401ccbec9b507386e5eebdbe-d.jpg,,
21930319,Chocolate Chip Cookie Murder,,Hannah Swensen 1,,Joanne Fluke,2001,,Kensington,,124,0,English ,,,до 2011-08,,,,,,,,,,,,0,,,,,0,0,1,823898,pdf,AF7E8340EB90E79418157F65DE508D0D,,,_357475.af7e8340eb90e79418157f65de508d0d.pdf,0,2000-01-01 01:00:00,2016-04-03 02:51:08,635000/af7e8340eb90e79418157f65de508d0d-g.jpg,,
21930320,Always,,,,Iris Johansen,2011,Reprint,Random House Publishing Group,,,0,English ,,,до 2011-08,"055359348X,9780553593488",,,,,,,,,,,0,,,,,1,1,1,2082759,epub,1BFFA3ECE769152A6696A231BEE1E8ED,,,_357476.1bffa3ece769152a6696a231bee1e8ed.epub,0,2000-01-01 01:00:00,2016-04-03 02:51:08,635000/1bffa3ece769152a6696a231bee1e8ed-d.jpg,,
21930321,Stiller: Roman (suhrkamp taschenbuch),,,,Max Frisch,1973,,Suhrkamp Verlag,,438,0,German ,,,до 2011-08,"351836605X,9783518366059",,,,,,,,,OL9050735M,,0,,,,1,1,,1,3463725,pdf,2BC954E9B720FCCE7B1CF8AA85D10CA2,,,_357477.2bc954e9b720fcce7b1cf8aa85d10ca2.pdf,0,2000-01-01 01:00:00,2016-04-03 02:51:08,635000/2bc954e9b720fcce7b1cf8aa85d10ca2-d.jpg,,
21930322,In the Presence of the Enemy,,Inspector Lynley 8,,Elizabeth George,2008,,Random House Publishing Group,,,0,English ,,,до 2011-08,"055338550X,9780553385502",,,,,813/.54,PS3557.E478 I5 2008,,,OL16976251M,,0,,,,,1,0,1,643317,epub,600A4D1EB00B764046896E998690EC45,,,_357478.600a4d1eb00b764046896e998690ec45.epub,0,2000-01-01 01:00:00,2016-04-03 02:51:08,635000/600A4D1EB00B764046896E998690EC45-g.jpg,,
21930323,"The Sources of Social Power, Volume 2: The Rise of Classes and Nation-States, 1760–1914",,,,Michael Mann,1993,1st,Cambridge University Press,,824,0,English,,,до 2011-08,"052144585X,9780521445856,0521440157,9780521440158",,,,,303.3,,,,,,0,,,,1,1,1,1,9251082,pdf,DA798CA4AB4EA60E3258979F2A7322DE,,,_357479.da798ca4ab4ea60e3258979f2a7322de.pdf,0,2000-01-01 01:00:00,2016-04-03 02:51:08,635000/DA798CA4AB4EA60E3258979F2A7322DE-g.jpg,,
21930324,In Pursuit of the Proper Sinner,,Inspector Lynley 10,,Elizabeth George,2009,,Random House Publishing Group,,,0,English ,,,до 2011-08,"0553906399,9780553906394",,,,,,,,,OL24298714M,,0,,,,,1,0,1,1124329,epub,6BF88046BB21832A5242063FCA9345CF,,,_357480.6bf88046bb21832a5242063fca9345cf.epub,0,2000-01-01 01:00:00,2016-04-03 02:51:08,635000/6BF88046BB21832A5242063FCA9345CF-g.jpg,,
21930325,Cockatiels at Seven (Meg Langslow Mysteries),,,,Donna Andrews,2009,First Edition,Minotaur Books,,180,0,English ,,,до 2011-08,"0312377169,9780312377168",,,,,,,,,OL24084207M,,0,,,,,1,,1,893170,pdf,87294036F4CB76AEF71F4CA0864CAE21,,,_357481.87294036f4cb76aef71f4ca0864cae21.pdf,0,2000-01-01 01:00:00,2016-04-03 02:51:08,635000/87294036F4CB76AEF71F4CA0864CAE21-g.jpg,,
21930326,Frontiers of Evolutionary Computation (Genetic Algorithms and Evolutionary Computation),,,,Anil Menon,2004,1,Springer,,296,0,English ,,,до 2011-08,"1402075243,9781402075247",,,,,,,,,OL8372712M,,0,,,,,1,1,1,5839217,pdf,67579977CCBEB0AA24315D17F36E6B69,,,_357482.67579977ccbeb0aa24315d17f36e6b69.pdf,0,2000-01-01 01:00:00,2016-04-03 02:51:08,635000/67579977CCBEB0AA24315D17F36E6B69-g.jpg,,
21930327,Instant Messaging Systems: Cracking the Code,,,,Dreamtech Software Team,2002,,Wiley,,721,0,English ,,,до 2011-08,"0764549537,9780764549533",,,,,,,,,OL8042792M,,0,,,,,1,1,1,5691991,pdf,C3A1B4CB3B21F0A094763C69FE93D700,,,_357492.c3a1b4cb3b21f0a094763c69fe93d700.pdf,0,2000-01-01 01:00:00,2016-04-03 02:51:08,635000/C3A1B4CB3B21F0A094763C69FE93D700-g.jpg,,
21930328,"I, Richard",,,,Elizabeth George,2003,,Random House Publishing Group,,,0,English ,,,до 2011-08,"055338242X,9780553382426",,,,,,,,,,,0,,,,,1,1,1,1949746,epub,6E38117E911CE24AF2A8F8AE0CFEFFD2,,,_357493.6e38117e911ce24af2a8f8ae0cfeffd2.epub,0,2000-01-01 01:00:00,2016-04-03 02:51:08,635000/6E38117E911CE24AF2A8F8AE0CFEFFD2-g.jpg,,
21930329,Tricks of the Java Programming Gurus,,,,Glenn L. Vanderburg,1996,,Sams Publishing,,,0,English ,92,,до 2011-08,"1575211025,9781575211022",,,,,005.13/3,QA76.73.J38 V37 1996,,,OL1015195M,,0,,,,,1,,,2307315,chm,365AF21B3D9858B92925419D08531875,,,_357494.365af21b3d9858b92925419d08531875.chm,0,2000-01-01 01:00:00,2016-04-03 02:51:08,,,
21930330,Stiller: Roman (suhrkamp taschenbuch),,,,Max Frisch,1973,,Suhrkamp Verlag,,437,0,German ,,,до 2011-08,"351836605X,9783518366059",,,,,,,,,OL9050735M,,0,,,,1,0,1,1,391579,epub,8EFFD89E81509B8C74C9B53B7C9C2EFE,,,_357496.8effd89e81509b8c74c9b53b7c9c2efe.epub,0,2000-01-01 01:00:00,2016-04-03 02:51:08,635000/8EFFD89E81509B8C74C9B53B7C9C2EFE-g.jpg,,
21930331,Hunter's Moon,,Doc Ford 14,,Randy Wayne White,2008,,Berkley,,,0,English ,,,до 2011-08,1429534265,,,,,,,,,,,0,,,,,1,0,1,759904,epub,FB12835CE6EF26DE3F1FB02FEBA40A41,,,_357497.fb12835ce6ef26de3f1fb02feba40a41.epub,0,2000-01-01 01:00:00,2016-04-03 02:51:08,635000/FB12835CE6EF26DE3F1FB02FEBA40A41-g.jpg,,
21930332,Homeward bound,,,,Harry Turtledove,2005,First Edition,Ballantine Books,,,0,English ,,,до 2011-08,"034545846X,9780345458469",,,,,813/.54,PS3570.U76 H66 2005,,,OL3306636M,,0,,,,,1,1,1,662696,epub,B66754C89DE363A735246BDACCD31C28,,,_357498.b66754c89de363a735246bdaccd31c28.epub,0,2000-01-01 01:00:00,2016-04-03 02:51:08,635000/B66754C89DE363A735246BDACCD31C28-g.jpg,,
21930333,Hitler's War,,The War That Came Early 1,,Harry Turtledove,2009,,Del Rey/Ballantine Books,,,0,English ,,,до 2011-08,"0345491823,9780345491824",,,,,813/.54,PS3570.U76 H58 2009,,,OL23392409M,,0,,,,,1,1,1,2437497,epub,60E6070A316819A6D694E5CBE9C0A492,,,_357499.60e6070a316819a6d694e5cbe9c0a492.epub,0,2000-01-01 01:00:00,2016-04-03 02:51:08,635000/60E6070A316819A6D694E5CBE9C0A492-g.jpg,,
21930334,Haunt Me Still,,,,Jennifer Lee Carrell,2011,,Penguin Group USA,,,0,English ,,,до 2011-08,"0452296765,9780452296763",,,,,,,,,OL24608137M,,0,,,,,1,1,1,491885,epub,82C8C8F96E0162B62FEB33991A49CFEA,,,_357500.82c8c8f96e0162b62feb33991a49cfea.epub,0,2000-01-01 01:00:00,2016-04-03 02:51:08,635000/82C8C8F96E0162B62FEB33991A49CFEA-g.jpg,,
21930335,Nouveaux invariants en géométrie et en topologie,,,,"Michèle Audin, John W. Morgan, Pierre Vogel",2003,Bilingual,Societe Mathematique De France,,175,0,French ,,,до 2011-08,"2856291112,9782856291115",,,,,512/.5,QA201 .N68 2001,,,OL3645317M,,0,,,,,1,,1,1961095,djvu,D893C07AEA9F199ABEB9547ABAA88EC7,,,_357501.d893c07aea9f199abeb9547abaa88ec7.djvu,0,2000-01-01 01:00:00,2016-04-03 02:51:08,635000/D893C07AEA9F199ABEB9547ABAA88EC7-g.jpg,,
21930336,"Fetus and Neonate: Physiology and Clinical Applications: Volume 3, Growth",,Fetus and Neonate: Physiology and Clinical Applications 3,,"Mark A. Hanson, John A. D. Spencer, Charles H. Rodeck",1995,1,Cambridge University Press,,365,0,English ,,,до 2011-08,"0521455227,9780521455220",,,,,612.6/47,RG613 .G76 1995,,,OL1274943M,,0,,,,1,1,1,1,4976454,pdf,B5B9D44FD6A73D85A20B6D722F3539E8,,,_357503.b5b9d44fd6a73d85a20b6d722f3539e8.pdf,0,2000-01-01 01:00:00,2016-04-03 02:51:08,635000/b5b9d44fd6a73d85a20b6d722f3539e8-d.jpg,,
21930337,Frozen Assets,,Gunnhilder 1,,Quentin Bates,2011,,Soho Crime,,,0,English ,,,до 2011-08,"1569478678,9781569478677",,,,,823/.92,PR6102.A7847 F76 2011,,,OL24880872M,,0,,,,,1,1,1,550465,epub,282E9B56CFE4FE17456654CF6555EECA,,,_357506.282e9b56cfe4fe17456654cf6555eeca.epub,0,2000-01-01 01:00:00,2016-04-03 02:51:08,635000/282e9b56cfe4fe17456654cf6555eeca-d.jpg,,
21930338,Michelle Obama: First Lady (Women of Achievement),,Women of Achievement,,Paul McCaffrey,2010,1,Chelsea House Publishers,,141,0,English ,,,до 2011-08,"1604139110,1438136293,9781604139112,9781438136295",,,,,973.932092—dc22,E909.O24M39 2010,,,,,0,,,,0,0,1,1,33188544,pdf,C04E34B3009B5BDD43E3EE24EE2E4539,,,_357507.c04e34b3009b5bdd43e3ee24ee2e4539.pdf,0,2000-01-01 01:00:00,2016-04-03 02:51:08,635000/C04E34B3009B5BDD43E3EE24EE2E4539-g.jpg,,
21930339,Key Lime Pie Murder,,Hannah Swensen 9,,Joanne Fluke,2008,,Kensington Publishing Corporation,,,0,English ,,,до 2011-08,0758223935,,,,,,,,,,,0,,,,,1,1,1,317186,epub,07FFC6E6B98E02C0904E1C7018922EBF,,,_357508.07ffc6e6b98e02c0904e1c7018922ebf.epub,0,2000-01-01 01:00:00,2016-04-03 02:51:08,635000/07FFC6E6B98E02C0904E1C7018922EBF-g.jpg,,
21930340,Basenfasten asiatisch,,,,Sabine Wacker,2010,,Trias Verlag,,145,0,German ,,,до 2011-08,"3830436866,9783830436867",,,,,,,,,,,0,,,,1,0,1,1,4799326,pdf,3476D5DC072E35E74ABBDCE9442DC2FE,,,_357509.3476d5dc072e35e74abbdce9442dc2fe.pdf,0,2000-01-01 01:00:00,2016-04-03 02:51:08,635000/3476D5DC072E35E74ABBDCE9442DC2FE-g.jpg,,
21930341,The Afroasiatic Languages,,,,"Frajzyngier, Zygmunt; Shay, Erin",2012,,CUP,,710,0,English,318,,0,,,,,,,,,,,,0,,,,,,1,1,6244710,pdf,0fde48e044248bdfe7030b6ee6702ef5,,,The Afroasiatic Languages.pdf,0,2000-01-01 01:00:00,2016-04-03 02:51:08,1192000/0fde48e044248bdfe7030b6ee6702ef5-g.jpg,,
21930342,"The nature of compact objects in active galactic nuclei: proceedings of the 33rd Herstmonceux conference, held in Cambridge, July 6-22  i.e. 16-22 , 1992",,,,"Andrew Robinson, Roberto Terlevich",1994,,Cambridge University Press,,456,0,English ,,,до 2011-08,"0521464803,9780521464802",,,,,523.1/12,QB858.3 .H47 1992,,,OL1208612M,,0,,,,1,1,1,1,6777671,pdf,F4780B44C3009DE675C934A9DE02EE30,,,_357510.f4780b44c3009de675c934a9de02ee30.pdf,0,2000-01-01 01:00:00,2016-04-03 02:51:08,635000/F4780B44C3009DE675C934A9DE02EE30-g.jpg,,
21930343,Cherry Cheesecake Murder,,Hannah Swensen 8,,Joanne Fluke,2007,,Kensington,,,0,English ,,,до 2011-08,0758218117,,,,,,,,,,,0,,,,,1,1,1,307918,epub,A7ED11D6113A97AE0CC057B4474CC52A,,,_357511.a7ed11d6113a97ae0cc057b4474cc52a.epub,0,2000-01-01 01:00:00,2016-04-03 02:51:08,635000/A7ED11D6113A97AE0CC057B4474CC52A-g.jpg,,
21930344,"Shaping History: Ordinary People in European Politics, 1500-1700",,,,Wayne te Brake,1998,1,University of California Press,,247,0,English ,,,до 2011-08,"0520211707,9780520211704,0585118485,9780585118482",,,,,940.2,D231 .T42 1998,,,OL689854M,,0,,,,0,1,1,1,1231681,pdf,6D5D4EF91BD0FF9584BCCE999A59BBCE,,,_357512.6d5d4ef91bd0ff9584bcce999a59bbce.pdf,0,2000-01-01 01:00:00,2016-04-03 02:51:08,635000/6D5D4EF91BD0FF9584BCCE999A59BBCE-g.jpg,,
21930345,Carrot Cake Murder,,Hannah Swenson 10,,Joanne Fluke,2009,,Kensington,,,0,English ,,,до 2011-08,0758230370,,,,,,,,,,,0,,,,,1,1,1,293422,epub,EEAD902B1916893F37D2EC4A400E9BE0,,,_357513.eead902b1916893f37d2ec4a400e9be0.epub,0,2000-01-01 01:00:00,2016-04-03 02:51:08,635000/EEAD902B1916893F37D2EC4A400E9BE0-g.jpg,,
21930346,Falling into Grace,,,,Adyashanti,2011,,"Sounds True, Incorporated",,,0,English ,,,до 2011-08,9781604073324,,,,,294.3/422,BF789.S8 A39 2011,,,OL25022969M,,0,,,,,1,1,1,1474270,epub,6FA9491BCB61621C1D803CE63F09C661,,,_357514.6fa9491bcb61621c1d803ce63f09c661.epub,0,2000-01-01 01:00:00,2016-04-03 02:51:08,635000/6FA9491BCB61621C1D803CE63F09C661-g.jpg,,
21930347,Everglades,,Doc Ford 10,,Randy Wayne White,2004,,Berkley Books,,,0,English ,,,до 2011-08,"0425196860,9780425196861",,,,,,,,,,,0,,,,,1,1,1,355391,epub,077BF27A684F7279376AA1A1F9A00738,,,_357516.077bf27a684f7279376aa1a1f9a00738.epub,0,2000-01-01 01:00:00,2016-04-03 02:51:08,635000/077bf27a684f7279376aa1a1f9a00738-d.jpg,,
21930348,Living With Earthquakes in the Pacific Northwest,,,,Robert S. Yeats,1998,1st,Oregon State University Press,,401,0,English ,,,до 2011-08,"0870714376,9780870714375,0585279039,9780585279039",,,,,363.34/9572/09795,QE535.2.U6 Y43 1998,,,OL363664M,,0,,,,0,1,1,1,5459600,pdf,E3FDEA5C73737949EFEDBE96CA5B763B,,,_357517.e3fdea5c73737949efedbe96ca5b763b.pdf,0,2000-01-01 01:00:00,2016-04-03 02:51:08,635000/E3FDEA5C73737949EFEDBE96CA5B763B-g.jpg,,
21930349,The Everything European Travel Phrase Book,,,,The Everything Series Editors,2010,,Adams Media,,,0,English ,,,до 2011-08,"1440512582,9781440512582,1440512590,9781440512599",,,,,,,,,,,0,,,,,1,1,1,874901,epub,F996FC35FEF824CF152526F4E24BAFE3,,,_357518.f996fc35fef824cf152526f4e24bafe3.epub,0,2000-01-01 01:00:00,2016-04-03 02:51:08,635000/F996FC35FEF824CF152526F4E24BAFE3-g.jpg,,
21930350,Darkness Dawns,,The Immortal Guardians 1,,Dianne Duvall,2011,Reprint,Zebra Books,,,0,English ,,,до 2011-08,"1420118617,9781420118612",,,,,,,,,OL24599182M,,0,,,,,1,1,1,389155,epub,75F550ED2F850AB113D47D3285CEB493,,,_357520.75f550ed2f850ab113d47d3285ceb493.epub,0,2000-01-01 01:00:00,2016-04-03 02:51:08,635000/75F550ED2F850AB113D47D3285CEB493-g.jpg,,
21930351,Verification and Control of Hybrid Systems: A Symbolic Approach,,,,Paulo Tabuada (auth.),2009,1,Springer US,,202,0,English,,,до 2011-08,"1441902236,9781441902238,1441902244,9781441902245",,,,,"004.259'',",,10.1007/978-1-4419-0224-5,1ExhrqtzIYwC,,"Missing title page of each part (I, II, II and IV), though no content.",0,,,,1,0,1,1,4644954,pdf,E8161B08ECF0D3E7AB618D764E6A6E79,,,_357521.e8161b08ecf0d3e7ab618d764e6a6e79.pdf,0,2000-01-01 01:00:00,2016-04-03 02:51:08,635000/E8161B08ECF0D3E7AB618D764E6A6E79-g.jpg,,
21930352,Играем против французской защиты,,,,Евсеев Д.С.,2011,,,,386,0,Russian,289,,0,978-5-903609-16-1,,,,,,,,,,,0,,,,,,,0,20634751,pdf,ea906586b16f806f841efedfe9a0e2c9,,,Евсеев Д. Играем против французской защиты (2011).pdf,0,2000-01-01 01:00:00,2016-04-03 02:51:08,1192000/ea906586b16f806f841efedfe9a0e2c9-g.jpg,,
21930353,Deception on His Mind,,Inspector Lynley 9,,Elizabeth George,2009,,Random House Publishing Group,,,0,English ,,,до 2011-08,"0553906372,9780553906370",,,,,,,,,OL24292865M,,0,,,,,1,1,1,2700355,epub,9AD0435FCD9A0C1C3103B8EB6BC5391D,,,_357522.9ad0435fcd9a0c1c3103b8eb6bc5391d.epub,0,2000-01-01 01:00:00,2016-04-03 02:51:08,635000/9AD0435FCD9A0C1C3103B8EB6BC5391D-g.jpg,,
21930354,Dead Silence,,Doc Ford 16,,Randy Wayne White,2010,Reprint,Berkley Pub Group,,,0,English ,,,до 2011-08,"0425233308,9780425233306",,,,,,,,,OL24083772M,,0,,,,,1,1,1,416627,epub,172980C1DED5743B02DE64CB41D439EA,,,_357523.172980c1ded5743b02de64cb41d439ea.epub,0,2000-01-01 01:00:00,2016-04-03 02:51:08,635000/172980c1ded5743b02de64cb41d439ea-d.jpg,,
21930355,Coordinates: Placing Science Fiction and Fantasy (Alternatives),,,,"Adjunct Professor George E Slusser PhD, Professor Eric S Rabkin PhD, Robert Scholes",1983,1st Edition,Southern Illinois University Press,,238,0,English ,,,до 2011-08,"0809311054,9780809311057,0585186588,9780585186580",,,,,808.83/876,PN3433.2 .C66 1983,,,OL3499291M,,0,,,,0,1,1,1,985975,pdf,7CC55E4AA6044E0B782347AC010014BB,,,_357525.7cc55e4aa6044e0b782347ac010014bb.pdf,0,2000-01-01 01:00:00,2016-04-03 02:51:08,635000/7CC55E4AA6044E0B782347AC010014BB-g.jpg,,
21930356,Dead of Night,,Doc Ford 12,,Randy Wayne White,2006,,Berkley Books,,,0,English ,,,до 2011-08,"042520944X,9780425209448",,,,,,,,,,,0,,,,,1,1,1,605312,epub,4D9F311268BD8B06A6F976087C549421,,,_357526.4d9f311268bd8b06a6f976087c549421.epub,0,2000-01-01 01:00:00,2016-04-03 02:51:08,635000/4D9F311268BD8B06A6F976087C549421-g.jpg,,
21930357,Dark Light,,Doc Ford 13,,Randy Wayne White,2007,,Berkley,,,0,English ,,,до 2011-08,1419533137,,,,,,,,,,,0,,,,,1,1,1,585675,epub,68DFFF83D1B7889531E2F7811AF28073,,,_357527.68dfff83d1b7889531e2f7811af28073.epub,0,2000-01-01 01:00:00,2016-04-03 02:51:08,635000/68DFFF83D1B7889531E2F7811AF28073-g.jpg,,
21930358,Tom Clancy's Ghost Recon: Combat Ops,,Tom Clancy's Ghost Recon,,David Michaels,2011,,Berkley Pub Group,,,0,English ,,,до 2011-08,"0425240061,9780425240069",,,,,,,,,OL24601859M,,0,,,,,1,1,1,348169,epub,2FE0EBC3E26D4C8F5A0F0BDC1F9104B0,,,_357529.2fe0ebc3e26d4c8f5a0f0bdc1f9104b0.epub,0,2000-01-01 01:00:00,2016-04-03 02:51:08,635000/2FE0EBC3E26D4C8F5A0F0BDC1F9104B0-g.jpg,,
21930359,The Strands of a Life: The Science of DNA and the Art of Education (Alfred P.Sloan Foundation),,,,Robert L. Sinsheimer,1994,,University of California Press,,349,0,English ,,,до 2011-08,"0520082486,9780520082489,0585184372,9780585184371",,,,,574.8/8/092,QH31.S573 A3 1994,,,OL1404941M,,0,,,,0,1,0,1,1699912,pdf,CCD2FF853944CC79D0AD2E8073BD5A32,,,_357530.ccd2ff853944cc79d0ad2e8073bd5a32.pdf,0,2000-01-01 01:00:00,2016-04-03 02:51:08,635000/CCD2FF853944CC79D0AD2E8073BD5A32-g.jpg,,
21930360,"Vitamin Analysis for the Health and Food Sciences, Second Edition (Food Science and Technology)",,,,"Ronald R. Eitenmiller, W. O. Landen  Jr, Lin Ye",2007,2,CRC Press,,662,0,English ,,,до 2011-08,"0849397715,9780849397714",,,,,612.3/99,QP771 .E37 2008,,,OL17991410M,,0,,,,,1,1,1,8486254,pdf,B3535AEDE7D18A87DBCEB0C2E03D9D0D,,,_357531.b3535aede7d18a87dbceb0c2e03d9d0d.pdf,0,2000-01-01 01:00:00,2016-04-03 02:51:08,635000/b3535aede7d18a87dbceb0c2e03d9d0d-d.jpg,,
21930361,The Magellanic Clouds,,Cambridge Astrophysics 29,,Bengt E. Westerlund,1997,,Cambridge University Press,,296,0,English ,,,до 2011-08,"0521480701,9780521480703",,,,,523.1/12,QB858.5.M33 W47 1997,,,OL984053M,,0,,,,1,1,1,1,5574186,pdf,1949C1ADB3F648E1BE8A5991609D36C5,,,_357532.1949c1adb3f648e1be8a5991609d36c5.pdf,0,2000-01-01 01:00:00,2016-04-03 02:51:08,635000/1949c1adb3f648e1be8a5991609d36c5-d.jpg,,
21930362,Maximize Business Profits Through E-Partnerships,,,,Fang Zhao,2005,,Idea Group Inc (IGI),,271,0,English ,,,до 2011-08,"1591407885,9781591407881",,,,,,,,,OL8855017M,,0,,,,0,0,1,1,3265433,pdf,BC7A37BA06B58CB94A6C1FDC25FEBF50,,,_357533.bc7a37ba06b58cb94a6c1fdc25febf50.pdf,0,2000-01-01 01:00:00,2016-04-03 02:51:08,635000/BC7A37BA06B58CB94A6C1FDC25FEBF50-g.jpg,,
21930363,Active Geophysical Monitoring (Handbook of Geophysical Exploration: Seismic Exploration),,Handbook of Geophysical Exploration: Seismic Exploration 40,,"Junzo Kasahara, Valeri Korneev, Michael S. Zhdanov",2010,,Elsevier Science,,549,0,English ,,,до 2011-08,"0080452620,9780080452623",,,,,,,10.1038/naturc04067,sn1N1vVWOaEC,,,300,,,,,0,,1,26193479,djvu,1EF2D7B2750E50DA10DC7EA4CAEFAE9B,,,_357534.1ef2d7b2750e50da10dc7ea4caefae9b.djvu,0,2000-01-01 01:00:00,2016-04-03 02:51:08,635000/1ef2d7b2750e50da10dc7ea4caefae9b-d.jpg,,
21930364,An Introduction to Infinite Ergodic Theory (Mathematical Surveys and Monographs),,,,Jon Aaronson,1997,,American Mathematical Society,,300,0,English ,,,до 2011-08,"0821804944,9780821804940",,,,,515/.42,QA313 .A23 1997,,,OL1013535M,,600,,,,,1,1,1,8511003,djvu,7C2E192ADF40AD7A0BAD5E23B978A7C9,,,_357535.7c2e192adf40ad7a0bad5e23b978a7c9.djvu,0,2000-01-01 01:00:00,2016-04-03 02:51:08,635000/7C2E192ADF40AD7A0BAD5E23B978A7C9-g.jpg,,
21930365,"One King, One Faith: The Parlement of Paris and the Religious Reformations of the Sixteenth Century (Centennial Book)",,,,Nancy Lyman Roelker,1996,,University of California Press,,685,0,English ,,,до 2011-08,"0520086260,9780520086265",,,,,944/.029,DC33.3 .R64 1996,,,OL1114440M,,0,,,,0,1,1,1,2491076,pdf,296A3598083B9CBB0FC6159267BA1A6A,,,_357536.296a3598083b9cbb0fc6159267ba1a6a.pdf,0,2000-01-01 01:00:00,2016-04-03 02:51:08,635000/296a3598083b9cbb0fc6159267ba1a6a-d.jpg,,
21930366,Carnal Sin,,Seven Deadly Sins 2,,Allison Brennan,2010,,Random House Publishing Group,,,0,English ,,,до 2011-08,"0345511689,9780345511683",,,,,,,,,OL24280461M,,0,,,,,1,1,1,346921,epub,8F93B25FA5FEDA05F678A326FB02D047,,,_357537.8f93b25fa5feda05f678a326fb02d047.epub,0,2000-01-01 01:00:00,2016-04-03 02:51:08,635000/8F93B25FA5FEDA05F678A326FB02D047-g.jpg,,
21930367,Cardboard Gods,,,,Josh Wilker,2010,,Seven Footer Press,,,0,English ,,,до 2011-08,9781934734735,,,,,,,,,,,0,,,,,1,1,1,4073835,epub,D23F1908D7FA11C6641A6D36E93DE4D8,,,_357538.d23f1908d7fa11c6641a6d36e93de4d8.epub,0,2000-01-01 01:00:00,2016-04-03 02:51:08,635000/D23F1908D7FA11C6641A6D36E93DE4D8-g.jpg,,
21930368,Dialectic of Defeat: Contours of Western Marxism,,,,Russell Jacoby,2002,,Cambridge University Press,,213,0,English ,,,до 2011-08,"0521520177,9780521520171",,,,,,,,,OL7744049M,,0,,,,1,1,1,1,2402712,pdf,C856233BA27E5D95DE64CA17C5A74DF2,,,_357539.c856233ba27e5d95de64ca17c5a74df2.pdf,0,2000-01-01 01:00:00,2016-04-03 02:51:08,635000/C856233BA27E5D95DE64CA17C5A74DF2-g.jpg,,
21930369,Captiva,,Doc Ford 4,,Randy Wayne White,1996,First Edition,G.P. Putnam's Sons,,,0,English ,,,до 2011-08,"0399141405,9780399141409",,,,,813/.54,PS3573.H47473 C36 1996,,,OL803622M,,0,,,,,1,0,1,346147,epub,E0C2F852BBFFA98A815ACB4D5D570545,,,_357540.e0c2f852bbffa98a815acb4d5d570545.epub,0,2000-01-01 01:00:00,2016-04-03 02:51:08,635000/E0C2F852BBFFA98A815ACB4D5D570545-g.jpg,,
21930370,Commander of All Lincoln's Armies : A Life of General Henry W. Halleck,,,,John F. Marszalek,2004,,Belknap Press of Harvard University Press,,353,0,English ,,,до 2011-08,"0674014936,9780674014930",,,,,"973.7/41/092,B",E467.1.H18 M37 2004,,,OL3304791M,,0,,,,1,1,1,1,1194713,pdf,881F5C0A403AADDFE4CDF005A4704803,,,_357541.881f5c0a403aaddfe4cdf005a4704803.pdf,0,2000-01-01 01:00:00,2016-04-03 02:51:08,635000/881F5C0A403AADDFE4CDF005A4704803-g.jpg,,
21930371,Sudden Death,,FBI 1,,Allison Brennan,2009,,Random House Publishing Group,,,0,English ,,,до 2011-08,"0345502744,9780345502742",,,,,,,,,OL23654453M,,0,,,,,1,1,1,323672,epub,8B009A357230569C7DE0B7EA19C3B1D8,,,_357542.8b009a357230569c7de0b7ea19c3b1d8.epub,0,2000-01-01 01:00:00,2016-04-03 02:51:08,635000/8B009A357230569C7DE0B7EA19C3B1D8-g.jpg,,
21930372,To Be An American: Cultural Pluralism and the Rhetoric of Assimilation (Critical America Series),,,,Bill Hing,1997,First Edition,NYU Press,,275,0,English ,,,до 2011-08,"0814735231,9780814735237,0585021783,9780585021782",,,,,305.8/00973,E184.A1 H54 1997,,,OL996993M,,0,,,,,1,1,1,1197492,pdf,6B83537F6385D3A84E4B27EC19439E24,,,_357544.6b83537f6385d3a84e4b27ec19439e24.pdf,0,2000-01-01 01:00:00,2016-04-03 02:51:08,635000/6B83537F6385D3A84E4B27EC19439E24-g.jpg,,
21930373,The New Literacies: Multiple Perspectives on Research and Practice,,,,Elizabeth A. Baker (Ed.),2010,1st,The Guilford Press,,322,0,English,,,0,"1606236040,9781606236048",,,,,,,,,,,0,,,,,,1,1,2558051,pdf,bfbe71834a9f3704002702d7b781508c,,,The New Literacies.pdf,0,2000-01-01 01:00:00,2016-04-03 02:51:08,1192000/bfbe71834a9f3704002702d7b781508c-d.jpg,,
21930374,What You Can't See,,,,"Allison Brennan, Karin Tabke, Roxanne St. Claire",2007,,Simon and Schuster,,,0,English ,,,до 2011-08,"1416542299,9781416542292,9781416553120",,,,,,,,,OL11757990M,,0,,,,,1,1,1,333805,epub,7C50C69B448CE6A272227775BFAAE83D,,,_357545.7c50c69b448ce6a272227775bfaae83d.epub,0,2000-01-01 01:00:00,2016-04-03 02:51:08,635000/7C50C69B448CE6A272227775BFAAE83D-g.jpg,,
21930375,Blackveil,,Green Rider 4,,Kristen Britain,2011,,Penguin Group USA,,,0,English ,,,до 2011-08,"0756406609,9780756406608",,,,,,,,,OL24595643M,,0,,,,,1,1,1,1889556,epub,160A8468DCF4F22EB159D2CAB16B4949,,,_357546.160a8468dcf4f22eb159d2cab16b4949.epub,0,2000-01-01 01:00:00,2016-04-03 02:51:08,635000/160a8468dcf4f22eb159d2cab16b4949-d.jpg,,
21930376,Black Widow,,Doc Ford 15,,Randy Wayne White,2009,Reprint,Berkley Books,,,0,English ,,,до 2011-08,"0425226700,9780425226704",,,,,,,,,OL24087361M,,0,,,,,1,,1,455013,epub,D6BB2248937F0D795B079B6D97EE4019,,,_357548.d6bb2248937f0d795b079b6d97ee4019.epub,0,2000-01-01 01:00:00,2016-04-03 02:51:08,635000/D6BB2248937F0D795B079B6D97EE4019-g.jpg,,
21930377,"Encyclopedia of Physical Science and Technology, 3e, Physical Chemistry",,"Encyclopedia of Physical Science and Technology'', Physical Chemistry",,Robert Allen Meyers,2006,,Academic Press,,380,0,English ,,,до 2011-08,,,,,,,,,,,"no front matter, no ISBN(s)",0,,,,0,0,1,1,37827677,pdf,E4EF98EEC656EF19B6F0B53A6308B21B,,,_357550.e4ef98eec656ef19b6f0b53a6308b21b.pdf,0,2000-01-01 01:00:00,2016-04-03 02:51:08,635000/E4EF98EEC656EF19B6F0B53A6308B21B-g.jpg,,
21930378,Almost a Family: A Memoir,,,,John Darnton,2011,First Edition,Knopf Doubleday Publishing Group,,,0,English ,,,до 2011-08,"0307266176,9780307266170",,,,,"813/.54,B",PS3554.A727 Z46 2011,,,OL24913846M,,0,,,,,1,1,1,5603243,epub,26F721F9DE0B5B15360B99025682A4E5,,,_357551.26f721f9de0b5b15360b99025682a4e5.epub,0,2000-01-01 01:00:00,2016-04-03 02:51:08,635000/26f721f9de0b5b15360b99025682a4e5-d.jpg,,
21930379,"Introduction to Ordinary Differential Equations, 4th Edition",,,,Shepley L. Ross,1989,4,Wiley,,622,0,English ,,,до 2011-08,"0471098817,9780471098812",,,,,515.3/52,QA372 .R815 1989,,,OL2044648M,,600,,,,,1,,1,7947910,djvu,D02CA5EB34CE870FC7FF6AAEE22A646B,,,_357552.d02ca5eb34ce870fc7ff6aaee22a646b.djvu,0,2000-01-01 01:00:00,2016-04-03 02:51:08,635000/D02CA5EB34CE870FC7FF6AAEE22A646B-g.jpg,,
21930380,"Introduction to Ordinary Differential Equations, Student Solutions Manual, 4th Edition",,,,Shepley L. Ross,1989,4,Wiley,,812,0,English ,,,до 2011-08,"0471634387,9780471634386",,,,,,,,,OL15053903M,,600,,,,,1,,1,5346204,djvu,7ABC20A30829AB6BB278A45A2797D245,,,_357553.7abc20a30829ab6bb278a45a2797d245.djvu,0,2000-01-01 01:00:00,2016-04-03 02:51:08,635000/7ABC20A30829AB6BB278A45A2797D245-g.jpg,,
21930381,"Kiss Me, Kill Me",,Lucy Kincaid 2,,Allison Brennan,2011,,Random House Publishing Group,,,0,English ,,,до 2011-08,"0345511697,9780345511690",,,,,,,,,OL24608116M,,0,,,,,1,1,1,2325650,epub,5FCD3D5ACB228FFC1DCEFF6D2C0F6A41,,,_357554.5fcd3d5acb228ffc1dceff6d2c0f6a41.epub,0,2000-01-01 01:00:00,2016-04-03 02:51:08,635000/5FCD3D5ACB228FFC1DCEFF6D2C0F6A41-g.jpg,,
21930382,University,,,,Bentley Little,1995,,Signet,,336,0,English ,,,до 2011-08,,,,,,,,,,,,0,,,,0,1,0,1,633053,pdf,D818A11164FF23675ECFEBA657231A1F,,,_357555.d818a11164ff23675ecfeba657231a1f.pdf,0,2000-01-01 01:00:00,2016-04-03 02:51:08,635000/D818A11164FF23675ECFEBA657231A1F-g.jpg,,
21930383,Cutting Edge,,FBI 3,,Allison Brennan,2009,,Random House Publishing Group,,,0,English ,,,до 2011-08,"0345502760,9780345502766",,,,,,,,,OL23703444M,,0,,,,,1,1,1,439406,lit,9D0D8D96DFC380F52FD246318D23C33E,,,_357557.9d0d8d96dfc380f52fd246318d23c33e.lit,0,2000-01-01 01:00:00,2016-04-03 02:51:08,635000/9D0D8D96DFC380F52FD246318D23C33E-g.jpg,,
21930384,Fatal Secrets,,FBI 2,,Allison Brennan,2009,Original,Random House Publishing Group,,,0,English ,,,до 2011-08,"0345502752,9780345502759",,,,,,,,,OL23703445M,,0,,,,,1,1,1,360997,lit,8C7271402ABC65F043D44BE3CFF60404,,,_357558.8c7271402abc65f043d44be3cff60404.lit,0,2000-01-01 01:00:00,2016-04-03 02:51:08,635000/8C7271402ABC65F043D44BE3CFF60404-g.jpg,,
21930385,A Traitor to Memory,,Inspector Lynley 11,,Elizabeth George,2009,,Bantam,,,0,English ,,,до 2011-08,,,,,,,,,,,,0,,,,,1,0,1,736295,epub,72CABC7A0C14A822EC46D674133B3CF7,,,_357559.72cabc7a0c14a822ec46d674133b3cf7.epub,0,2000-01-01 01:00:00,2016-04-03 02:51:08,635000/72CABC7A0C14A822EC46D674133B3CF7-g.jpg,,
21930386,The Western Range Revisited: Removing Livestock from Public Lands to Conserve Native Biodiversity (Legal History of North America),,,,Debra L. Donahue,1999,,Univ of Oklahoma Pr,,442,0,English ,,,до 2011-08,"0806131764,9780806131764,0585196664,9780585196664",,,,,333.95/16/0978,QH76.5.W34D66 1999eb,,,OL7939835M,,0,,,,0,1,0,1,1916174,pdf,B09489357F302B5AC247883A1098FB86,,,_357560.b09489357f302b5ac247883a1098fb86.pdf,0,2000-01-01 01:00:00,2016-04-03 02:51:08,635000/b09489357f302b5ac247883a1098fb86-d.jpg,,
21930387,Oscillation Theory of Dynamic Equations on Time Scales: Second and Third Orders,,,,Samir Saker,2010,,LAP LAMBERT Academic Publishing,,585,0,English ,,,до 2011-08,"3838360281,9783838360287",,,,,,,,,,,600,,,,,1,,1,7139618,djvu,F59A2B495932F6C823BA0D3ED5FB4ED9,,,_357561.f59a2b495932f6c823ba0d3ed5fb4ed9.djvu,0,2000-01-01 01:00:00,2016-04-03 02:51:08,635000/f59a2b495932f6c823ba0d3ed5fb4ed9-d.jpg,,
21930388,A Suitable Vengeance,,Inspector Lynley 4,,Elizabeth George,1992,,Bantam Books,,,0,English ,,,до 2011-08,"0553295608,9780553295603",,,,,,,,,OL18328778M,,0,,,,,1,1,1,459855,epub,5DA05361ADCA13F0008963DB624F9072,,,_357562.5da05361adca13f0008963db624f9072.epub,0,2000-01-01 01:00:00,2016-04-03 02:51:08,635000/5DA05361ADCA13F0008963DB624F9072-g.jpg,,
21930389,Aphasia Rehabilitation: An Auditory and Verbal Task Hierarchy,,,,"Deborah Ross, Sara Spencer",1980,1st,Charles C. Thomas,,241,0,English,,,0,"0398040311,9780398040314",,,,,,,,,,,0,,,,,,1,1,7314029,pdf,b6eadac259b998f8d9a1d6d1606dadac,,,"Ross, Spencer - Aphasia Rehabilitation.pdf",0,2000-01-01 01:00:00,2016-04-03 02:51:08,1192000/b6eadac259b998f8d9a1d6d1606dadac-g.jpg,,
21930390,Public private partnerships: innovation strategies and policy alternatives,,,,Albert N. Link,2006,1,Birkhäuser,,158,0,English ,,,до 2011-08,"038729774X,9780387297743",,,,,,,,,OL7445201M,,0,,,,0,0,0,1,6559821,pdf,D08C27488B15234957E0FE7408D2809D,,,_357563.d08c27488b15234957e0fe7408d2809d.pdf,0,2000-01-01 01:00:00,2016-04-03 02:51:08,635000/D08C27488B15234957E0FE7408D2809D-g.jpg,,
21930391,A Place of Hiding,,Inspector Lynley 12,,Elizabeth George,2003,First Edition,Bantam Books,,,0,English ,,,до 2011-08,"0553801309,9780553801309",,,,,813/.54,PS3557.E478 P57 2003,,,OL3705062M,,0,,,,,1,0,1,807081,epub,A2BC72A8A6E1E51B6758375716C6519F,,,_357564.a2bc72a8a6e1e51b6758375716c6519f.epub,0,2000-01-01 01:00:00,2016-04-03 02:51:08,635000/a2bc72a8a6e1e51b6758375716c6519f-d.jpg,,
21930392,Hedef Türkiye,,,,Oktay Sinanoğlu,2006,,Alfa Basım Yayım,,156,0,Turkish ,,,до 2011-08,9752977642,,,,,,,,,,,0,,,,,1,,1,1102581,pdf,29634AB9D153B02B04BA05F3CC297177,,,_357565.29634ab9d153b02b04ba05f3cc297177.pdf,0,2000-01-01 01:00:00,2016-04-03 02:51:08,635000/29634ab9d153b02b04ba05f3cc297177-g.jpg,,
21930393,Very Low-Mass Stars and Brown Dwarfs (Cambridge Contemporary Astrophysics),,Cambridge Contemporary Astrophysics,,"Rafael Rebolo, Maria Rosa Zapatero-Osorio, Editors",2000,1,Cambridge University Press,,280,0,English ,,,до 2011-08,"0521663350,9780521663359",,,,,523.8/8,QB843.B77 V47 2000,,,OL3968286M,,0,,,,1,1,1,1,4731370,pdf,4DA917012BA29E19693E1204A4EE3EB9,,,_357566.4da917012ba29e19693e1204a4ee3eb9.pdf,0,2000-01-01 01:00:00,2016-04-03 02:51:08,635000/4DA917012BA29E19693E1204A4EE3EB9-g.jpg,,
21930394,Interpretive Approaches to Interpersonal Communica (Suny Series in Human Communication Processes),,,,"Kathryn Carter, Mick Presnell",1994,,State University of New York Press,,280,0,English ,,,до 2011-08,"0791418480,9780791418482,0585091447,9780585091440",,,,,153.6,BF637.C45 I67 1994,,,OL1399977M,,0,,,,0,1,1,1,1212047,pdf,851D12CAA3EECC970D6F963F58FD9E11,,,_357567.851d12caa3eecc970d6f963f58fd9e11.pdf,0,2000-01-01 01:00:00,2016-04-03 02:51:08,635000/851D12CAA3EECC970D6F963F58FD9E11-g.jpg,,
21930395,How Intelligence Happens,,,,John Duncan,2010,1st,Yale University Press,,256,0,English,,,0,"0300154119,9780300154115",,,,,,,,,,,0,,,,,,1,1,1236423,pdf,02e1aff364c4fb15e20cb829bf9dc91c,,,Duncan - How Intelligence Happens.pdf,0,2000-01-01 01:00:00,2016-04-03 02:51:08,1192000/02e1aff364c4fb15e20cb829bf9dc91c-d.jpg,,
21930396,Laplace Transforms,,Problem Solvers 10,,John Williams,1973,,Allen & Unwin,,100,0,English,,,до 2011-08,"0045120218,9780045120215",,,,,515/.723,QA432 .W54,,,,,600,,,,,1,,1,872994,djvu,D4CCB5EDDBC892075724F52B2DAD6A06,,,_357568.d4ccb5eddbc892075724f52b2dad6a06.djvu,0,2000-01-01 01:00:00,2016-04-03 02:51:08,635000/D4CCB5EDDBC892075724F52B2DAD6A06-g.jpg,,
21930397,"John Doyle Lee: Zealot, Pioneer Builder, Scapegoat",,,,Juanita Brooks,1992,,Utah State University Press,,431,0,English ,,,до 2011-08,"087421162X,9780874211627,0585029342,9780585029344",,,,,"979.2/02/092,B",F826.L4753 B76 1992,,,OL1732327M,,0,,,,0,1,0,1,3472132,pdf,9B43707F133B0DDEBF850F818A1EC803,,,_357569.9b43707f133b0ddebf850f818a1ec803.pdf,0,2000-01-01 01:00:00,2016-04-03 02:51:08,635000/9B43707F133B0DDEBF850F818A1EC803-g.jpg,,
21930398,The Whale: In Search of the Giants of the Sea,,,,Philip Hoare,2010,,Ecco,,,0,English ,,,до 2011-08,"9780061992612,0061992615",,,,,,,,y2zXTivayCQC,OL24261809M,,0,,,,,1,1,,5017180,epub,06D88C84D30061BA8F89B9642B336580,,,_357570.06d88c84d30061ba8f89b9642b336580.epub,0,2000-01-01 01:00:00,2016-04-03 02:51:08,635000/06D88C84D30061BA8F89B9642B336580-g.jpg,,
21930399,"Stability of Differential Equations with Aftereffect (Stability and Control: Theory, Methods and Applications)",,,,"N.V. Azbelev, P.M. Simonov",2002,1,CRC Press,,240,0,English ,,,до 2011-08,"0415269571,9780415269575",,,,,515/.35,QA871 .S767 2002,,,OL22476233M,,600,,,,,1,,1,2708703,djvu,4A91CAD489940EE2BF060035948B099D,,,_357571.4a91cad489940ee2bf060035948b099d.djvu,0,2000-01-01 01:00:00,2016-04-03 02:51:08,635000/4A91CAD489940EE2BF060035948B099D-g.jpg,,
21930400,Supplemento alla nuova enciclopedia popolare con appendice: volume unico  djvu ,,,,"G. Pomba e comp, 1851",,,,,1049,0,Italian ,,,до 2011-08,,,,,,,,,,,,0,,,,,1,,1,52791078,djvu,C04FAABA835F29A7C10F566860FA9157,,,_357572.c04faaba835f29a7c10f566860fa9157.djvu,0,2000-01-01 01:00:00,2016-04-03 02:51:08,635000/C04FAABA835F29A7C10F566860FA9157-g.jpg,,
21930401,Gatsby in New Delhi (Kindle Single),,n+1 kindle single 2,,Siddhartha Deb,2011,,"n+1 Foundation, Inc.",,,0,English ,,,до 2011-08,,,B004P1IXP4,,,,,,,,,0,,,,,0,1,1,54074,epub,C05BB32D25E303C719B657E59B3B2179,,,_357573.c05bb32d25e303c719b657e59b3b2179.epub,0,2000-01-01 01:00:00,2016-04-03 02:51:08,635000/C05BB32D25E303C719B657E59B3B2179-g.jpg,,
21930402,"Be Different: Adventures of a Free-Range Aspergian with Practical Advice for Aspergians, Misfits, Families & Teachers",,,,John Elder Robison,2011,,Crown Publishing Group,,,0,English ,,,до 2011-08,"9780307884831,030788483X",,,,,616.85/8832,RC553.A88 R63 2011,,,OL25002105M,,0,,,,,1,1,,2028431,epub,D46879B3E858BE5E93BDCDBDA3098AAA,,,_357574.d46879b3e858be5e93bdcdbda3098aaa.epub,0,2000-01-01 01:00:00,2016-04-03 02:51:08,635000/D46879B3E858BE5E93BDCDBDA3098AAA-g.jpg,,
21930403,"Encyclopedia of Physical Science and Technology, 3e, Analytical Chemistry",,"Encyclopedia of Physical Science and Technology'', Analytical Chemistry",,Robert Allen Meyers,2005,,Academic Press,,600,0,English ,,,до 2011-08,,,,,,,,,,,"no front matter, no ISBN(s)",0,,,,0,0,1,1,39923839,pdf,1AF5162078E4589826BB88D2A467F843,,,_357575.1af5162078e4589826bb88d2a467f843.pdf,0,2000-01-01 01:00:00,2016-04-03 02:51:08,635000/1af5162078e4589826bb88d2a467f843-g.jpg,,
21930404,Alfred Kroeber: A Personal Configuration,,,,Theodora Kroeber,1970,First Edition,University of California Press,,302,0,English ,,,до 2011-08,"0520015983,9780520015982",,,,,301.2/092/4,GN21.K7,,9biH8-HT6gcC,OL15058044M,figures missing,0,,,,0,1,0,0,18575966,pdf,B8FA437ACE1EE6B5AF4695E0E99611FE,,,_357576.b8fa437ace1ee6b5af4695e0e99611fe.pdf,0,2000-01-01 01:00:00,2016-04-03 02:51:08,635000/B8FA437ACE1EE6B5AF4695E0E99611FE-g.jpg,,
21930405,What Came Before He Shot Her,,Inspector Lynley 14,,Elizabeth George,2006,First Edition,HarperCollins,,,0,English ,,,до 2011-08,"0060545623,0061246832,9780060545628",,,,,,,,,OL7278383M,,0,,,,,1,0,1,739814,epub,EF26DA059A2CFD2943B9CFF19C385CE8,,,_357577.ef26da059a2cfd2943b9cff19c385ce8.epub,0,2000-01-01 01:00:00,2016-04-03 02:51:08,635000/EF26DA059A2CFD2943B9CFF19C385CE8-g.jpg,,
21930406,The Night Watch,,,,Sarah Waters,2006,,Riverhead,,869,0,English ,,,до 2011-08,,,,,,,,,,,,0,,,,,0,1,0,1337307,pdf,E4958AA486DD1B636554247D69197556,,,_357578.e4958aa486dd1b636554247d69197556.pdf,0,2000-01-01 01:00:00,2016-04-03 02:51:08,635000/E4958AA486DD1B636554247D69197556-g.jpg,,
21930407,,294,,Scientific American March 2006 294 3,Scientific American,2006,,Scientific American,,82,0,English ,,,до 2011-08,,,,,,,,,,,,0,,,,,1,,1,5002982,pdf,A49F7A443CFB0E6518065AEF6E4187CF,,,_357579.a49f7a443cfb0e6518065aef6e4187cf.pdf,0,2000-01-01 01:00:00,2016-04-03 02:51:08,635000/a49f7a443cfb0e6518065aef6e4187cf-g.jpg,,
21930408,Affinity,,,,Sarah Waters,2002,,Riverhead,,353,0,English ,,,до 2011-08,,,,,,,,,,,,0,,,,,0,0,1,1467417,pdf,03E16E7E2D5621B7E8FF6196977CEFCD,,,_357580.03e16e7e2d5621b7e8ff6196977cefcd.pdf,0,2000-01-01 01:00:00,2016-04-03 02:51:08,635000/03e16e7e2d5621b7e8ff6196977cefcd-g.jpg,,
21930409,We Have Always Lived in the Castle,,,,Shirley Jackson,2006,Deluxe,Penguin Classics,,,0,English ,,,до 2011-08,"0143039970,9780143039976",,,,,813/.54,PS3519.A392 W4 2006,,5-Tmu77gopIC,OL17924197M,,0,,,,,1,1,1,184185,epub,F0BB8727EBD50CAC14B7F8D9FC157324,,,_357581.f0bb8727ebd50cac14b7f8d9fc157324.epub,0,2000-01-01 01:00:00,2016-04-03 02:51:08,635000/F0BB8727EBD50CAC14B7F8D9FC157324-g.jpg,,
21930410,The Social Importance of Self-Esteem,,,,"Andrew Mecca, Neil J. Smelser, John Vasconcellos",1989,,University of California Press,,416,0,English ,,,до 2011-08,"0520067096,9780520067097,0585307008,9780585307008",,,,,361.1,BF697.5.S46 S63 1989,,,OL2186738M,,0,,,,0,1,1,1,1671631,pdf,44E19C9DB2DC34D63AE1D878B81691D6,,,_357582.44e19c9db2dc34d63ae1d878b81691d6.pdf,0,2000-01-01 01:00:00,2016-04-03 02:51:08,635000/44E19C9DB2DC34D63AE1D878B81691D6-g.jpg,,
21930411,Design of Wood Structures-ASD LRFD,,,,"Donald Breyer, Kenneth Fridley, Jr., David Pollock, Kelly Cobeen",2007,6,McGraw-Hill Professional,,1096,0,English ,,,до 2011-08,"0071455396,9780071455398",,,,,,,,,OL17893254M,,0,,,,0,1,1,1,22611921,pdf,14E592443CC99B76A6B38E667512612B,,,_357584.14e592443cc99b76a6b38e667512612b.pdf,0,2000-01-01 01:00:00,2016-04-03 02:51:08,635000/14e592443cc99b76a6b38e667512612b-d.jpg,,
21930412,,294,,Scientific American May 2006 294 5,Scientific American,2006,,Scientific American,,82,0,English ,,,до 2011-08,,,,,,,,,,,,0,,,,,1,,1,10494791,pdf,5F9C95AEAEB76BE54AAEEB21B9B94E1D,,,_357585.5f9c95aeaeb76be54aaeeb21b9b94e1d.pdf,0,2000-01-01 01:00:00,2016-04-03 02:51:08,635000/5F9C95AEAEB76BE54AAEEB21B9B94E1D-g.jpg,,
21930413,The Language of Sand,,,,Ellen Block,2010,Original,Random House Publishing Group,,,0,English ,,,до 2011-08,"0440245753,9780440245759",,,,,813/.6,PS3602.L64 L36 2010,,,OL24002699M,,0,,,,,1,1,1,2450458,epub,313942633A80A2DB6FB352F807A58E4E,,,_357586.313942633a80a2db6fb352f807a58e4e.epub,0,2000-01-01 01:00:00,2016-04-03 02:51:08,635000/313942633A80A2DB6FB352F807A58E4E-g.jpg,,
21930414,Standards for Data Collection from Human Skeletal Remains: Proceedings of a Seminar at the Field Museum of Natural History (Arkansas Archeological Report Research Series),,,,Jane E. Buikstra,1994,,Arkansas Archeological Survey,,224,0,English ,,,до 2011-08,"1563490757,9781563490750",,,,,572/.897,E98.A55 S88 1994,,,OL1110619M,,0,,,,,1,,0,15379962,pdf,0F3C6F3941353DC2102395848AEBF2E7,,,_357587.0f3c6f3941353dc2102395848aebf2e7.pdf,0,2000-01-01 01:00:00,2016-04-03 02:51:08,635000/0f3c6f3941353dc2102395848aebf2e7-g.jpg,,
21930415,The Four Ms. Bradwells,,,,Meg Waite Clayton,2011,First Edition,Random House Publishing Group,,,0,English ,,,до 2011-08,"0345517083,9780345517081",,,,,813/.6,PS3603.L45 F68 2011,,,OL24412153M,,0,,,,,1,1,1,2197423,epub,3A093BA15E2C2E3B54353064194B4507,,,_357588.3a093ba15e2c2e3b54353064194b4507.epub,0,2000-01-01 01:00:00,2016-04-03 02:51:08,635000/3A093BA15E2C2E3B54353064194B4507-g.jpg,,
21930416,Omotic Language Studies,,,,"Hayward, R. J. (ed.)",1990,,SOAS,,664,0,English,318,,0,,,,,,,,,,,,0,,,,,,1,1,10256553,pdf,42bc3037a9aa29c0e0491f6f2e887883,,,Omotic Language Studies.pdf,0,2000-01-01 01:00:00,2016-04-03 02:51:08,1192000/42bc3037a9aa29c0e0491f6f2e887883-g.jpg,,
21930417,The Complete Guide to the Tarot,,,,Eden Gray,1982,New edition,Random House Publishing Group,,,0,English ,,,до 2011-08,"0553277529,9780553277524",,,,,,,,,OL7824241M,,0,,,,,1,1,1,10038060,epub,34A882FA755ED393D7E4C622B6FD08F2,,,_357589.34a882fa755ed393d7e4c622b6fd08f2.epub,0,2000-01-01 01:00:00,2016-04-03 02:51:08,635000/34A882FA755ED393D7E4C622B6FD08F2-g.jpg,,
21930418,The Man Who Invented Florida,,Doc Ford 3,,Randy Wayne White,1993,1st,St. Martin's Press,,,0,English ,,,до 2011-08,"0312098669,9780312098667",,,,,813/.54,PS3573.H47473 M36 1993,,,OL1419167M,,0,,,,,1,0,1,370708,epub,228C8FC36EC0C9F476EC43A5D90FB3DA,,,_357590.228c8fc36ec0c9f476ec43a5d90fb3da.epub,0,2000-01-01 01:00:00,2016-04-03 02:51:08,635000/228c8fc36ec0c9f476ec43a5d90fb3da-d.jpg,,
21930419,College algebra,,,,A. Adrian Albert,,,,,289,0,English ,,,до 2011-08,,,,,,,,,,,,0,,,,0,1,0,1,5776201,pdf,2C2EDBE17F642094ACD10B1364EDCA67,,,_357591.2c2edbe17f642094acd10b1364edca67.pdf,0,2000-01-01 01:00:00,2016-04-03 02:51:08,635000/2c2edbe17f642094acd10b1364edca67-g.jpg,,
21930420,The Forbidden Rose,,,,Joanna Bourne,2010,,Berkley Sensation,,,0,English ,,,до 2011-08,"0425235610,9780425235614",,,,,813.54,CPB Box no. 3204 vol. 14,,,OL25166119M,,0,,,,,1,1,1,436056,epub,2F48C9BDA3356C4485A439B5D6AF42C6,,,_357592.2f48c9bda3356c4485a439b5d6af42c6.epub,0,2000-01-01 01:00:00,2016-04-03 02:51:08,635000/2f48c9bda3356c4485a439b5d6af42c6-d.jpg,,
21930421,The Evidence Exposed,,,,Elizabeth George,1999,Library edition,Hodder & Stoughton,,,0,English ,,,до 2011-08,"0340750634,9780340750636",,,,,,,,,OL10630024M,,0,,,,,1,0,1,130671,epub,6A943A0F1E7D90345FCED87EEC4B2776,,,_357593.6a943a0f1e7d90345fced87eec4b2776.epub,0,2000-01-01 01:00:00,2016-04-03 02:51:08,635000/6A943A0F1E7D90345FCED87EEC4B2776-g.jpg,,
21930422,Ten Thousand Islands,,Doc Ford 7,,Randy Wayne White,2000,1St Edition,G.P. Putman's Sons,,,0,English ,,,до 2011-08,"0399146202,9780399146206",,,,,813/.54,PS3573.H47473 T4 2000,,,OL60251M,,0,,,,,1,0,1,361637,epub,7846B6D6FC8A0A911940DCF5D50370F4,,,_357594.7846b6d6fc8a0a911940dcf5d50370f4.epub,0,2000-01-01 01:00:00,2016-04-03 02:51:08,635000/7846B6D6FC8A0A911940DCF5D50370F4-g.jpg,,
21930423,Breaking the Rules,,Troubleshooters 16,,Suzanne Brockmann,2011,First Edition first Printing,Random House Publishing Group,,,0,English ,,,до 2011-08,"0345521226,9780345521224",,,,,813/.54,PS3552.R61455 B75 2011,,TVudYcZo5dMC,OL24607590M,,0,,,,,1,1,1,2539135,epub,20549D9F5C4B2DA40E007045C4514BDA,,,_357595.20549d9f5c4b2da40e007045c4514bda.epub,0,2000-01-01 01:00:00,2016-04-03 02:51:08,635000/20549d9f5c4b2da40e007045c4514bda-d.jpg,,
21930424,Step On a Crack,,Michael Bennett 1,,"James Patterson, Michael Ledwidge",2008,,Vision,,,0,English ,,,до 2011-08,,,,,,,,,,,,0,,,,,1,0,1,178116,epub,9032A12D252D8342CDAB2A9292AE09BD,,,_357596.9032a12d252d8342cdab2a9292ae09bd.epub,0,2000-01-01 01:00:00,2016-04-03 02:51:08,635000/9032A12D252D8342CDAB2A9292AE09BD-g.jpg,,
21930425,"The Arithmetic and Geometry of Algebraic Cycles: Proceedings of the Crm Summer School, June 7-19, 1998, Banff, Alberta, Canada (Crm Proceedings and Lecture Notes)",,,,"B. Brent Gordon, James D. Lewis, Stefan Muller-Stach, Shuji Saito, Noriko Yui",2000,,American Mathematical Society,,458,0,English ,,,до 2011-08,"0821819542,9780821819548",,,,,,,,Yw8h8wOaDkwC,OL9454375M,,0,,,,1,1,1,1,8697445,djvu,37165A1EB13F40F0D59631CA49C49773,,,_357597.37165a1eb13f40f0d59631ca49c49773.djvu,0,2000-01-01 01:00:00,2016-04-03 02:51:08,635000/37165A1EB13F40F0D59631CA49C49773-g.jpg,,
21930426,"The Primal Blueprint: Reprogram Your Genes for Effortless Weight Loss, Vibrant Health and Boundless Energy",,,,Mark Sisson,2009,1,Midpoint Trade Books Inc,,,0,English ,,,до 2011-08,"0982207700,9780982207703",,,,,,,,,,,0,,,,,1,1,1,766594,epub,6275044C722A4FD6A29FD0778E32DDC9,,,_357598.6275044c722a4fd6a29fd0778e32ddc9.epub,0,2000-01-01 01:00:00,2016-04-03 02:51:08,635000/6275044C722A4FD6A29FD0778E32DDC9-g.jpg,,
21930427,"Primal Blueprint Quick and Easy Meals: Delicious, Primal-approved Meals You Can Make in 2 to 20 Minutes",,,,"Mark Sisson, Jennifer Meier",2011,,Midpoint Trade Books Inc,,,0,English ,,,до 2011-08,"0982207743,9780982207741",,,,,,,,,,,0,,,,,1,1,1,6868086,epub,EBEAE0021DFB00085F8D5263045C84A5,,,_357599.ebeae0021dfb00085f8d5263045c84a5.epub,0,2000-01-01 01:00:00,2016-04-03 02:51:08,635000/EBEAE0021DFB00085F8D5263045C84A5-g.jpg,,
21930428,The Primal Blueprint Cookbook,,,,"Mark Sisson, Jennifer Meier",2010,1,Midpoint Trade Books Inc,,,0,English ,,,до 2011-08,"0982207727,9780982207727",,,,,641.5631,RM237.73 .S57 2010,,,OL24852386M,,0,,,,,1,1,1,7588600,epub,8BEE58BDC9EE5E53D24885BEB80ABEED,,,_357600.8bee58bdc9ee5e53d24885beb80abeed.epub,0,2000-01-01 01:00:00,2016-04-03 02:51:08,635000/8BEE58BDC9EE5E53D24885BEB80ABEED-g.jpg,,
21930429,"Mircea Eliade - Dinsel İnançlar ve Düşünceler Tarihi, Cilt 1, Taş Devrinden Eleusis Mysteria'larına",,,,Mircea Eliade,2003,,Kabalcı Yayınevi,,461,0,Turkish ,,,до 2011-08,"9758240811,9789758240814",,,,,,,,,,,0,,,,0,1,0,1,13037626,pdf,645760779194B14476CBE9F96517B17F,,,_357601.645760779194b14476cbe9f96517b17f.pdf,0,2000-01-01 01:00:00,2016-04-03 02:51:08,635000/645760779194B14476CBE9F96517B17F-g.jpg,,
21930430,Shark River,,Doc Ford 8,,Randy Wayne White,2002,,Berkley Prime Crime,,,0,English ,,,до 2011-08,"0425185214,9780425185216",,,,,,,,,,,0,,,,,1,1,1,353985,epub,2ABA570756A5893351395C9F62B9CC15,,,_357602.2aba570756a5893351395c9f62b9cc15.epub,0,2000-01-01 01:00:00,2016-04-03 02:51:08,635000/2aba570756a5893351395c9f62b9cc15-d.jpg,,
21930431,Sanibel Flats,,Doc Ford 1,,Randy Wayne White,1990,1st,St. Martin's Press,,,0,English ,,,до 2011-08,"0312039263,9780312039264",,,,,813/.54,PS3573.H47473 S26 1990,,,OL2206820M,,0,,,,,1,0,1,336712,epub,CA0FDCFD96C26B1DD23B8691F4CD96A3,,,_357603.ca0fdcfd96c26b1dd23b8691f4cd96a3.epub,0,2000-01-01 01:00:00,2016-04-03 02:51:08,635000/CA0FDCFD96C26B1DD23B8691F4CD96A3-g.jpg,,
21930432,Playing for the Ashes,,Inspector Lynley 7,,Elizabeth George,2008,,Bantam,,,0,English ,,,до 2011-08,,,,,,,,,,,,0,,,,,1,0,1,633760,epub,C502BFCEDCBDF58D35B16260873BC5AC,,,_357604.c502bfcedcbdf58d35b16260873bc5ac.epub,0,2000-01-01 01:00:00,2016-04-03 02:51:08,635000/C502BFCEDCBDF58D35B16260873BC5AC-g.jpg,,
21930433,Divine by Blood,,Divine 3,,P.C. Cast,2007,,LUNA,,193,0,English ,,,до 2011-08,"0373802919,9780373802913",,,,,,,,,OL7421403M,,0,,,,,0,1,1,899995,pdf,5FA8AE5FB8B143538974800B5B8C2778,,,_357605.5fa8ae5fb8b143538974800b5b8c2778.pdf,0,2000-01-01 01:00:00,2016-04-03 02:51:08,635000/5FA8AE5FB8B143538974800B5B8C2778-g.jpg,,
21930434,"JWSR Volume XVII, Number 1 (2011)",,,,"Andrew K. Jorgenson, Edward Kick (Editors)",2011,,World-System Section of the ASA,,284,0,English ,,,до 2011-08,,,,,,,,,,,,0,,,,1,1,1,1,6780628,pdf,87A6FEB000980F04C1CD82C05D1FAE0B,,,_357606.87a6feb000980f04c1cd82c05d1fae0b.pdf,0,2000-01-01 01:00:00,2016-04-03 02:51:08,635000/87A6FEB000980F04C1CD82C05D1FAE0B-g.jpg,,
21930435,Divine by Choice,,Divine 2,,P. C. Cast,2006,,LUNA,,,0,English ,,,до 2011-08,"1552547353,9781552547359",,,,,,,,,,,0,,,,,1,1,1,676518,lit,B6A00CCB7A1D086B987BCC49A0BC5012,,,_357608.b6a00ccb7a1d086b987bcc49a0bc5012.lit,0,2000-01-01 01:00:00,2016-04-03 02:51:08,635000/B6A00CCB7A1D086B987BCC49A0BC5012-g.jpg,,
21930436,Satrancin Esaslari,,,,J. R. Capablanca,1999,,Inkilap Kitabevi,,100,0,Turkish ,,,до 2011-08,"9751000823,9789751000828",,,,,,,,,,,0,,,,,1,1,1,5198739,pdf,7607A3AA18E295C73A1CF5D1BB96D807,,,_357609.7607a3aa18e295c73a1cf5d1bb96d807.pdf,0,2000-01-01 01:00:00,2016-04-03 02:51:08,635000/7607A3AA18E295C73A1CF5D1BB96D807-g.jpg,,
21930437,Introduction to the Theory of Linear Functional Differential Equations (Advanced Series in Mathematical Science and Engineering ; 3),,,,"N. V. Azbelev, V. P. Maksimov, L. Rakhmatullina",1995,,"World Federation Publishers, Incorporated",,178,0,English ,,,до 2011-08,"1885978022,9781885978028",,,,,515/.354,QA372 .A98513 1995,,,OL798000M,,600,,,,,1,,1,1924269,djvu,0C21DB3A519AE5602902132C4EF5F17C,,,_357610.0c21db3a519ae5602902132c4ef5f17c.djvu,0,2000-01-01 01:00:00,2016-04-03 02:51:08,635000/0c21db3a519ae5602902132c4ef5f17c-g.jpg,,
21930438,Divine By Mistake,,Divine 1,,P. C. Cast,2006,,LUNA,,,0,English ,,,до 2011-08,"0373802471,9780373802470",,,,,,,,,OL7421385M,,0,,,,,1,1,1,988874,lit,71EA8B04A5B33E6DA340B799CC5CDB4C,,,_357611.71ea8b04a5b33e6da340b799cc5cdb4c.lit,0,2000-01-01 01:00:00,2016-04-03 02:51:08,635000/71EA8B04A5B33E6DA340B799CC5CDB4C-g.jpg,,
21930439,Eat the rich,,,,P. J. O'Rourke,1999,,Atlantic Monthly Press,,746,0,English ,,,до 2011-08,"1555845363,9781555845360",,,,,,,,oCarWa3eZzMC,,,0,,,,0,0,0,1,415719,lit,D5CF15016CB3159A5BD0EFAD732F9B62,,,_357612.d5cf15016cb3159a5bd0efad732f9b62.lit,0,2000-01-01 01:00:00,2016-04-03 02:51:08,635000/D5CF15016CB3159A5BD0EFAD732F9B62-g.jpg,,
21930440,Elphame's Choice,,Partholon 1,,P.C. Cast,2009,,Harlequin,,232,0,English ,,,до 2011-08,,,,,,,,,,,,0,,,,,0,0,1,857139,pdf,63FE8A434363653F4C58CBB4D827BCF9,,,_357613.63fe8a434363653f4c58cbb4d827bcf9.pdf,0,2000-01-01 01:00:00,2016-04-03 02:51:08,635000/63FE8A434363653F4C58CBB4D827BCF9-g.jpg,,
21930441,"Encyclopedia of Physical Science and Technology, 3e, Computer Hardware",,"Encyclopedia of Physical Science and Technology'', Computer Hardware",,Robert Allen Meyers,2006,,Academic Press,,106,0,English ,,,до 2011-08,,,,,,,,,,,"no front matter, no ISBN(s)",0,,,,0,0,1,1,7054717,pdf,99E3341211847AA356EEE8EBE5363EC3,,,_357614.99e3341211847aa356eee8ebe5363ec3.pdf,0,2000-01-01 01:00:00,2016-04-03 02:51:08,635000/99E3341211847AA356EEE8EBE5363EC3-g.jpg,,
21930442,North of Havana,,Doc Ford 5,,Randy Wayne White,1998,,Berkley Prime Crime,,,0,English ,,,до 2011-08,"042516294X,9780425162941",,,,,,,,,OL24215515M,,0,,,,,1,0,1,451850,epub,02BD883A16C048A3E0D286BC99D43EC0,,,_357615.02bd883a16c048a3e0d286bc99d43ec0.epub,0,2000-01-01 01:00:00,2016-04-03 02:51:08,635000/02bd883a16c048a3e0d286bc99d43ec0-d.jpg,,
21930443,Missing Joseph,,Inspector Lynley 6,,Elizabeth George,1994,,Bantam,,,0,English ,,,до 2011-08,,,,,,,,,,,,0,,,,,1,0,1,537117,epub,97FE41D5387B4CEB0D0B0417307D84E6,,,_357616.97fe41d5387b4ceb0d0b0417307d84e6.epub,0,2000-01-01 01:00:00,2016-04-03 02:51:08,635000/97FE41D5387B4CEB0D0B0417307D84E6-g.jpg,,
21930444,"JWSR Volume XVI, Number 1, 2010",,,,Scott C. Byrd and Elizabeth Smythe (Guest Editors),2010,,the World-System Section of the ASA,,127,0,English ,,,до 2011-08,,,,,,,,,,,,0,,,,1,1,0,1,703028,pdf,BAFB92C2E86A742B1118701972E86582,,,_357618.bafb92c2e86a742b1118701972e86582.pdf,0,2000-01-01 01:00:00,2016-04-03 02:51:08,635000/BAFB92C2E86A742B1118701972E86582-g.jpg,,
21930445,God's Little Acre,,,,Erskine Caldwell,1995,,University of Georgia Press,,117,0,English ,,,до 2011-08,"0820316636,9780820316635",,,,,813/.52,PS3505.A322 G6 1995,,AUbPu56tCLcC,OL1095894M,,0,,,,0,1,1,1,487541,pdf,D2A6B11FF81D5D87D2AFD1C4568B3083,,,_357619.d2a6b11ff81d5d87d2afd1c4568b3083.pdf,0,2000-01-01 01:00:00,2016-04-03 02:51:08,635000/D2A6B11FF81D5D87D2AFD1C4568B3083-g.jpg,,
21930446,"Infectious Diseases of the Fetus and Newborn: Expert Consult - Online and Print (INFECTIOUS DISEASES OF THE FETUS AND NEWBORN INFANT), 7 Ed",,,,"Jack S. Remington MD, Jerome O. Klein MD, Christopher B. Wilson MD, Victor Nizet, Yvonne Maldonado",2010,7,Saunders,,1273,0,English ,,,до 2011-08,"1416064001,9781416064008",,,,,618.92/01,RJ275 .I54 2011,,,OL24468501M,,0,,,,1,0,1,1,32443714,pdf,2A4F891BEFEC877594C47E1F042CC787,,,_357621.2a4f891befec877594c47e1f042cc787.pdf,0,2000-01-01 01:00:00,2016-04-03 02:51:08,635000/2a4f891befec877594c47e1f042cc787-d.jpg,,
21930447,Against the Law,,The Raines of Wind Canyon 3,,Kat Martin,2011,,MIRA,,,0,English ,,,до 2011-08,"0778329402,9780778329404",,,,,,,,,,,0,,,,,1,1,1,661358,epub,C128B368C66234B427F5FDB5569DDF62,,,_357622.c128b368c66234b427f5fdb5569ddf62.epub,0,2000-01-01 01:00:00,2016-04-03 02:51:08,635000/C128B368C66234B427F5FDB5569DDF62-g.jpg,,
21930448,Dictionary of Environmental Economics,,,,"Anil Markandya, Renat Perelet, Pamela Mason, Tim Taylor",2003,,Earthscan,,208,0,English ,,,до 2011-08,"1853835293,9781853835292",,,,,,,,j5c5PwAACAAJ,OL17015876M,,0,,,,0,0,1,1,2129218,pdf,B80044ED3CB93A80C190958DA16194B1,,,_357623.b80044ed3cb93a80c190958da16194b1.pdf,0,2000-01-01 01:00:00,2016-04-03 02:51:08,635000/B80044ED3CB93A80C190958DA16194B1-g.jpg,,
21930449,Meningiomas: Expert Consult - Online and Print (Expert Consult Title: Online + Print),,,,"M. Necmettin Pamir, Peter McL Black MD  PhD, Rudolf Fahlbusch",2010,1 Har/Psc,Saunders,,794,0,English ,,,до 2011-08,"1416056548,9781416056546",,,,,616.99/4,RC280.M4 M46 2009,,,OL23203085M,,0,,,,1,0,1,1,158500931,pdf,A738B463A88B5B4A926E2CE65DB85333,,,_357624.a738b463a88b5b4a926e2ce65db85333.pdf,0,2000-01-01 01:00:00,2016-04-03 02:51:08,635000/a738b463a88b5b4a926e2ce65db85333-d.jpg,,
21930450,Computational economics,,,,"David A. Kendrick, P. Ruben Mercado, Hans M. Amman",2006,,Princeton University Press,,491,0,English ,,,до 2011-08,"069112549X,9780691125497",,,,,,,,1-G6AAAAIAAJ,OL15589966M,,0,,,,0,0,1,1,5268660,pdf,ABEEA4C26BDF23630B5032C02B98998B,,,_357625.abeea4c26bdf23630b5032c02b98998b.pdf,0,2000-01-01 01:00:00,2016-04-03 02:51:08,635000/abeea4c26bdf23630b5032c02b98998b-d.jpg,,
21930451,"A Course in Probability Theory, Third Edition",,,,Kai Lai Chung,2000,2,Academic Press,,433,0,English ,,,до 2011-08,"0121741516,9780121741518",,,,,519.2,QA273 .C577 2001,,,OL6799200M,,300,,,,0,1,0,1,3279030,djvu,D9831ADC79616C914F7A5CFD5C7577E4,,,_357626.d9831adc79616c914f7a5cfd5c7577e4.djvu,0,2000-01-01 01:00:00,2016-04-03 02:51:08,635000/D9831ADC79616C914F7A5CFD5C7577E4-g.jpg,,
21930452,"JWSR Volume XV, Number 1, 2009",,,,"Jeffrey Kentor, Timothy Patrick Moran (Guest Editors)",2009,,World-System Section of the ASA,,137,0,English ,,,до 2011-08,,,,,,,,,,,,0,,,,1,1,0,1,4017379,pdf,39D26BD6FB4D5E2F14B2708DC0E1C668,,,_357628.39d26bd6fb4d5e2f14b2708dc0e1c668.pdf,0,2000-01-01 01:00:00,2016-04-03 02:51:08,635000/39D26BD6FB4D5E2F14B2708DC0E1C668-g.jpg,,
21930453,An introduction to the law and economics of environmental policy: issues in institutional design,,,,"R.O. Zerbe, T. Swanson",2002,1,North Holland,,553,0,English ,,,до 2011-08,"0762308885,9780762308880",,,,,,,,-vmOQgAACAAJ,OL8032185M,,0,,,,0,0,0,1,1974952,pdf,DE8A17069C0174DB63ECFAEF11D09843,,,_357629.de8a17069c0174db63ecfaef11d09843.pdf,0,2000-01-01 01:00:00,2016-04-03 02:51:08,635000/DE8A17069C0174DB63ECFAEF11D09843-g.jpg,,
21930454,Theory and practice of foreign aid,,,,Sajal Lahiri,2007,,Emerald Group Publishing,,467,0,English ,,,до 2011-08,"0444527656,9780444527653",,,,,,,,ykqAwHGpcHIC,OL10260451M,,0,,,,0,0,0,1,3247562,pdf,65BDD48F23DEC602021C0C006617F01D,,,_357630.65bdd48f23dec602021c0c006617f01d.pdf,0,2000-01-01 01:00:00,2016-04-03 02:51:08,635000/65BDD48F23DEC602021C0C006617F01D-g.jpg,,
21930455,Elementary Set Theory with a Universal Set,,,,M. Randall Holmes,,,,,240,0,English ,,,до 2011-08,,,,,,,,,,,pages from 1 to 4 are missing,0,,,,1,0,1,1,1334453,pdf,810866D20B73B2A3447CD59DFD30174A,,,_357632.810866d20b73b2a3447cd59dfd30174a.pdf,0,2000-01-01 01:00:00,2016-04-03 02:51:08,635000/810866D20B73B2A3447CD59DFD30174A-g.jpg,,
21930456,Practical Bomb Scene Investigation (Practical Aspects of Criminal & Forensic Investigations),,,,James T. Thurman,2006,1,CRC Press,,477,0,English ,,,до 2011-08,"0849341981,9780849341984",,,,,363.25/943,HV8079.B62 T487 2006,,,OL3412348M,,0,,,,,1,,1,107496930,pdf,3A491206FB1DCB4A8D0875ACDC70BDAE,,,_357633.3a491206fb1dcb4a8d0875acdc70bdae.pdf,0,2000-01-01 01:00:00,2016-04-03 02:51:08,635000/3A491206FB1DCB4A8D0875ACDC70BDAE-g.jpg,,
21930457,"JWSR Volume XI, Number 2 (2005)",,,,"Mark Herkenrath, Claudia König, Hanno Scholtz, Thomas Volken (Editors)",2005,,"Institute for Research on World-Systems (IROWS),  University of California, Riverside",,371,0,English ,,,до 2011-08,,,,,,,,,,,,0,,,,1,1,1,1,2741937,pdf,A8DEBB4B0A93767A9F1F1A97B1AA6A8D,,,_357634.a8debb4b0a93767a9f1f1a97b1aa6a8d.pdf,0,2000-01-01 01:00:00,2016-04-03 02:51:08,635000/a8debb4b0a93767a9f1f1a97b1aa6a8d-g.jpg,,
21930458,"Anorganische Chemie, 7. Auflage",,,,"Erwin Riedel, Christoph Janiak",2007,7,de Gruyter,,982,0,German ,,,до 2011-08,"3110189038,9783110189032,9783110206869",,,,,,,,,,,0,,,,1,0,1,1,52006955,pdf,47712AFB281A551761D26C4DFCA018BF,,,_357635.47712afb281a551761d26c4dfca018bf.pdf,0,2000-01-01 01:00:00,2016-04-03 02:51:08,635000/47712AFB281A551761D26C4DFCA018BF-g.jpg,,
21930459,Medical Biochemistry at a Glance,,,,J. G. Salway,2012,3rd,Wiley-Blackwell,,176,0,English,,,0,"0470654511,9780470654514",,,,,,,,,,,0,,,,,,1,1,86377570,pdf,3d431e35ae17a7cb53eadd8c311fb5fa,,,Salway - Medical Biochemistry at a Glance.pdf,0,2000-01-01 01:00:00,2016-04-03 02:51:08,1192000/3d431e35ae17a7cb53eadd8c311fb5fa-d.jpg,,
21930460,Winners,,,,Eric B. Martin,2006,,MacAdam/Cage,,361,0,English ,,,до 2011-08,"1596921617,9781596921610",,,,,,,,,OL8892364M,,0,,,,,1,1,,261208,epub,857FCE960E2117B3B5DC547CC3CB59C7,,,_357636.857fce960e2117b3b5dc547cc3cb59c7.epub,0,2000-01-01 01:00:00,2016-04-03 02:51:08,635000/857FCE960E2117B3B5DC547CC3CB59C7-g.jpg,,
21930461,Mr. Hooligan,,,,Ian Vasquez,2010,First Edition,Minotaur Books,,352,0,English ,,,до 2011-08,"0312378114,9780312378110",,,,,,,,,,,0,,,,,1,1,,342027,epub,4E434F6F1B1C2DA4763684B1A79A0E7B,,,_357637.4e434f6f1b1c2da4763684b1a79a0e7b.epub,0,2000-01-01 01:00:00,2016-04-03 02:51:08,635000/4E434F6F1B1C2DA4763684B1A79A0E7B-g.jpg,,
21930462,Manhattan Is My Beat (Rune Trilogy),,,,Jeffery Deaver,2000,Revised,Bantam,,304,0,English ,,,до 2011-08,"0553581767,9780553581768",,,,,,,,,OL20932188M,,0,,,,,1,0,,1996853,epub,BC524796BB78519547C3CBB281F170B8,,,_357638.bc524796bb78519547c3cbb281f170b8.epub,0,2000-01-01 01:00:00,2016-04-03 02:51:08,635000/BC524796BB78519547C3CBB281F170B8-g.jpg,,
21930463,"JWSR Volume X, Number 3 (2004)",,,,"Christopher Chase-Dunn, Walter L. Goldfrank",2004,,"Institute for Research on World-Systems (IROWS), University of California, Riverside",,297,0,English ,,,до 2011-08,,,,,,,,,,,,0,,,,1,1,1,1,4896792,pdf,074A69E046BBB217C630430BD18DA24A,,,_357639.074a69e046bbb217c630430bd18da24a.pdf,0,2000-01-01 01:00:00,2016-04-03 02:51:08,635000/074a69e046bbb217c630430bd18da24a-g.jpg,,
21930464,The Last Juror,,,,John Grisham,2006,,Delta,,416,0,English ,,,до 2011-08,"0385339682,9780385339681",,,,,,,,,,,0,,,,,1,1,,2103757,epub,18EC9B995AB26B9899CAAF12FB7E34F3,,,_357640.18ec9b995ab26b9899caaf12fb7e34f3.epub,0,2000-01-01 01:00:00,2016-04-03 02:51:08,635000/18ec9b995ab26b9899caaf12fb7e34f3-d.jpg,,
21930465,"Thieves at Heart (The Valley of Ten Crescents, Book 1)",,The Valley of Ten Crescents 1,,Tristan J. Tarwater,2011,,Smashwords,,58,0,English ,,,до 2011-08,,,,,,,,,,,,0,,,,,1,1,1,194634,epub,2646C4F1B55FF61EC4608DD4931BC3D9,,,_357641.2646c4f1b55ff61ec4608dd4931bc3d9.epub,0,2000-01-01 01:00:00,2016-04-03 02:51:08,635000/2646C4F1B55FF61EC4608DD4931BC3D9-g.jpg,,
21930466,"Whiter Shades of Pale: The Stuff White People Like from Coast to Coast, from Seattle's Sweaters to Madison's Microbrews   ",,,,Christian Lander,2010,,Random House Publishing Group,,234,0,English ,,,до 2011-08,9780679604655,,,,,,,,,,,0,,,,,1,,1,12199363,pdf,6841A3DE84889232986D8476EC404CD8,,,_357642.6841a3de84889232986d8476ec404cd8.pdf,0,2000-01-01 01:00:00,2016-04-03 02:51:08,635000/6841A3DE84889232986D8476EC404CD8-g.jpg,,
21930467,"JWSR Volume X, Number 1 (2004)",,,,"Bruce Podobnik, Thomas Erlich Reifer (Editors)",2004,,"IROWS, University of California",,253,0,English ,,,до 2011-08,,,,,,,,,,,,0,,,,1,1,1,1,2745970,pdf,62FB9FD696468DC1DC26067A54D7B591,,,_357643.62fb9fd696468dc1dc26067a54d7b591.pdf,0,2000-01-01 01:00:00,2016-04-03 02:51:08,635000/62FB9FD696468DC1DC26067A54D7B591-g.jpg,,
21930468,Stuff White People Like: The Definitive Guide to the Unique Taste of Millions   ,,,,Christian Lander,2008,,Random House Publishing Group,,,0,English ,,,до 2011-08,"9781588368379,1588368378",,,,,,,,,OL24289043M,,0,,,,,1,,,3122599,epub,8E5527DC144567C1913DE868729B91C0,,,_357644.8e5527dc144567c1913de868729b91c0.epub,0,2000-01-01 01:00:00,2016-04-03 02:51:08,635000/8E5527DC144567C1913DE868729B91C0-g.jpg,,
21930469,"JWSR Volume IX, Number 2 (2003)",,,,"Edward L. Kick, Andrew K. Jorgenson (Editors)",2003,,"IROWS, University of California, Riverside",,223,0,English ,,,до 2011-08,,,,,,,,,,,,0,,,,1,1,1,1,2318724,pdf,1B3E95CC4F0F7F2A7AD0E537D4042DD5,,,_357646.1b3e95cc4f0f7f2a7ad0e537d4042dd5.pdf,0,2000-01-01 01:00:00,2016-04-03 02:51:08,635000/1b3e95cc4f0f7f2a7ad0e537d4042dd5-g.jpg,,
21930470,"JWSR Volume VIII, Number 2 (2002)",,,,Albert J. Bergesen and Michelle Bata (Editors),2002,,"IROWS, University of California",,151,0,English ,,,до 2011-08,,,,,,,,,,,,0,,,,1,1,1,1,2413515,pdf,5EA641D859488E51C2CAB7C10EFE63F4,,,_357647.5ea641d859488e51c2cab7c10efe63f4.pdf,0,2000-01-01 01:00:00,2016-04-03 02:51:08,635000/5EA641D859488E51C2CAB7C10EFE63F4-g.jpg,,
21930471,Bonk: The Curious Coupling of Science and Sex,,,,Mary Roach,2008,,W. W. Norton & Co.,,,0,English ,,,до 2011-08,,,,,,,,,,,,0,,,,,1,,,321698,epub,B8DF57070492E07D14156D68604C1CFF,,,_357648.b8df57070492e07d14156d68604c1cff.epub,0,2000-01-01 01:00:00,2016-04-03 02:51:08,635000/B8DF57070492E07D14156D68604C1CFF-g.jpg,,
21930472,"JWSR Volume VIII, Number 1 (2002)",,,,Albert J. Bergesen and Michelle Bata (Editors),2002,,"IROWS, University of California",,153,0,English ,,,до 2011-08,,,,,,,,,,,,0,,,,1,1,1,1,3324950,pdf,F5BDCE0FC71B6C3945A7210A5427D382,,,_357649.f5bdce0fc71b6c3945a7210a5427d382.pdf,0,2000-01-01 01:00:00,2016-04-03 02:51:08,635000/f5bdce0fc71b6c3945a7210a5427d382-g.jpg,,
21930473,Stiff: The Curious Lives of Human Cadavers,,,,Mary Roach,2003,,Viking,,,0,English ,,,до 2011-08,"0670912174,9780670912179",,,,,,,,,,,0,,,,,1,,,507218,epub,7BC19ECCD4CA97C80CDC8D41ADF873EE,,,_357650.7bc19eccd4ca97c80cdc8d41adf873ee.epub,0,2000-01-01 01:00:00,2016-04-03 02:51:08,635000/7BC19ECCD4CA97C80CDC8D41ADF873EE-g.jpg,,
21930474,Spook: Science Tackles the Afterlife   ,,,,Mary Roach,2005,,"Norton, W. W. & Company, Inc.",,,0,English ,,,до 2011-08,"9780393069204,0393069206",,,,,,,,,,,0,,,,,1,,,316589,epub,521B5D00C4E55B2B24C36B971DE0B1FC,,,_357651.521b5d00c4e55b2b24c36b971de0b1fc.epub,0,2000-01-01 01:00:00,2016-04-03 02:51:08,635000/521B5D00C4E55B2B24C36B971DE0B1FC-g.jpg,,
21930475,1968: The Year That Rocked the World   ,,,,Mark Kurlansky,,,Random House Publishing Group,,,0,English ,,,до 2011-08,"9780345471918,0345471911",,,,,,,,,OL24252188M,,0,,,,,1,,,1483937,epub,64C31D8892F0224BADFEBD96665ADDDB,,,_357652.64c31d8892f0224badfebd96665adddb.epub,0,2000-01-01 01:00:00,2016-04-03 02:51:08,635000/64C31D8892F0224BADFEBD96665ADDDB-g.jpg,,
21930476,"JWSR Volume 6, Number 3 (2000) - Festschrift For Immanuel Wallerstein Part II",,,,Giovanni Arrighi & Walter L. Goldfrank (Editors),2000,,"Center for Global, International & Regional  Studies, and the Division of Social Sciences at the University of California, Santa  Cruz",,395,0,English ,,,до 2011-08,,,,,,,,,,,,0,,,,1,1,1,1,4477566,pdf,E3076C8CB899C63E11EE0A8F5EFCADCE,,,_357653.e3076c8cb899c63e11ee0a8f5efcadce.pdf,0,2000-01-01 01:00:00,2016-04-03 02:51:08,635000/E3076C8CB899C63E11EE0A8F5EFCADCE-g.jpg,,
21930477,Complex Geometry: An Introduction (Universitext),,Universitext,,Daniel Huybrechts,2005,1,Springer,,321,0,English ,,,до 2011-08,"3540212906,9783540212904",,,,,,,,sWbd0rE3mhIC,OL22606396M,,0,,,,0,0,1,1,4446449,pdf,1ACCC2D8AE28E4933C94AFC63712F041,,,_357654.1accc2d8ae28e4933c94afc63712f041.pdf,0,2000-01-01 01:00:00,2016-04-03 02:51:08,635000/1accc2d8ae28e4933c94afc63712f041-d.jpg,,
21930478,"Global Issues in Language, Education and Development: Perspectives from Postcolonial Countries (Linguistic Diversity and Language Rights)",,Linguistic Diversity and Language Rights,,Naz Rassool,2007,,Multilingual Matters,,303,0,English ,,,до 2011-08,"1853599522,9781853599521",,,,,,,,,OL9627826M,,0,,,,,1,,1,2533110,pdf,C88FC35BB16E92878CF5865524DD53DF,,,_357655.c88fc35bb16e92878cf5865524dd53df.pdf,0,2000-01-01 01:00:00,2016-04-03 02:51:08,635000/C88FC35BB16E92878CF5865524DD53DF-g.jpg,,
21930479,Türkçe-Uygurçe Lugat (تۈركچه ـ ئۇيغۇرچه لۇغه ت),,,,Mömin Abdulla tüzgăn,1989,,Millătlăr Năshriyati,,1074,0,Uighur,,,до 2011-08,,,,,,,,,,,,0,,,,0,1,0,0,31353731,pdf,D94152DC7F11EE6878C89E3FC8F7E23C,,,_357656.d94152dc7f11ee6878c89e3fc8f7e23c.pdf,0,2000-01-01 01:00:00,2016-04-03 02:51:08,635000/D94152DC7F11EE6878C89E3FC8F7E23C-g.jpg,,
21930480,撬开苹果,,,,"利安德·卡尼 (作者), 邱绪萍 (译者)",1991,,Unknown,,219,0,Chinese(China),,,до 2011-08,9787300098302,,,,,,,,,,,0,,,,,1,,0,82000106,pdf,5709DB3C63D6E08B69B378630D0E2BF2,,,_357657.5709db3c63d6e08b69b378630d0e2bf2.pdf,0,2000-01-01 01:00:00,2016-04-03 02:51:08,635000/5709DB3C63D6E08B69B378630D0E2BF2-g.jpg,,
21930481,"Language, Culture and Identity: An Ethnolinguistic Perspective (Advances In Sociolinguistics)",,Advances In Sociolinguistics,,Philip Riley,2007,,Continuum,,276,0,English ,,,до 2011-08,"0826486282,9780826486288",,,,,,,,,OL8169320M,,0,,,,,1,,1,25436911,pdf,5AE93B6A51931BF14F7ED6C60DE20723,,,_357658.5ae93b6a51931bf14f7ed6c60de20723.pdf,0,2000-01-01 01:00:00,2016-04-03 02:51:08,635000/5AE93B6A51931BF14F7ED6C60DE20723-g.jpg,,
21930482,"JWSR Volume 6, Number 2 (2000) - Festschrift For Immanuel Wallerstein Part I",,,,Giovanni Arrighi & Walter L. Goldfrank (Editors),2000,,"Center for Global, International & Regional Studies, and the Division of Social Sciences at the University of California, Santa Cruz",,429,0,English ,,,до 2011-08,,,,,,,,,,,,0,,,,1,1,1,1,4478720,pdf,300EBA4BB863B556DB1A8AE228AF2BC7,,,_357659.300eba4bb863b556db1a8ae228af2bc7.pdf,0,2000-01-01 01:00:00,2016-04-03 02:51:08,635000/300EBA4BB863B556DB1A8AE228AF2BC7-g.jpg,,
21930483,Language Disabilities in Cultural and Linguistic Diversity (Bilingual Education and Bilingualism),,Bilingual Education and Bilingualism,,Deirdre Martin,2009,,MULTILINGUAL MATTERS,,329,0,English ,,,до 2011-08,9781847691590,,,,,,,,,,,0,,,,,1,,1,7997327,pdf,07E35537A7C0668E8843D060C1D1633D,,,_357660.07e35537a7c0668e8843d060c1d1633d.pdf,0,2000-01-01 01:00:00,2016-04-03 02:51:08,635000/07e35537a7c0668e8843d060c1d1633d-d.jpg,,
21930484,美的历程 精装 ,,,,李泽厚 (作者),1991,,Unknown,,388,0,Chinese(China),,,до 2011-08,9787108030375,,,,,,,,,,,0,,,,,1,,0,81421478,pdf,125E334CCCC02748E644A94D3D2CD39B,,,_357661.125e334cccc02748e644a94d3d2cd39b.pdf,0,2000-01-01 01:00:00,2016-04-03 02:51:08,635000/125e334cccc02748e644a94d3d2cd39b-g.jpg,,
21930485,American Evita: Hillary Clinton's Path to Power,,,,Christopher Andersen,2004,First Edition,William Morrow,,311,0,English ,,,до 2011-08,"0060562544,9780060562540",,,,,,,,,OL7278709M,,0,,,,,1,1,1,2207613,pdf,715BB9C9A052B3209F4F4D34CFE06BD1,,,_357662.715bb9c9a052b3209f4f4d34cfe06bd1.pdf,0,2000-01-01 01:00:00,2016-04-03 02:51:08,635000/715BB9C9A052B3209F4F4D34CFE06BD1-g.jpg,,
21930486,Stroke,,The Facts,,Richard I. Lindley,2008,1st,Oxford University Press,,96,0,English,,,0,"0199212724,9780199212729",,,,,,,,,,,0,,,,,,1,1,1149193,pdf,f22364f335c3d7c7978a3d7f794a1b46,,,Lindley - Stroke.pdf,0,2000-01-01 01:00:00,2016-04-03 02:51:08,1192000/f22364f335c3d7c7978a3d7f794a1b46-d.jpg,,
21930487,"Set Theory with a Universal Set: Exploring an Untyped Universe, 2nd Edition (Oxford Logic Guides, 31)",,Oxford Logic Guides 31,,T. E. Forster,1995,2,Oxford University Press,,177,0,English ,,,до 2011-08,"0198514778,9780198514770",,,,,511.3/22,QA248 .F67 1995,,fS13gB7WKlQC,OL548581M,,0,,,,1,1,1,1,6990331,pdf,362AD6F1C91C8A0A384ABB2CFB31DC57,,,_357663.362ad6f1c91c8a0a384abb2cfb31dc57.pdf,0,2000-01-01 01:00:00,2016-04-03 02:51:08,635000/362AD6F1C91C8A0A384ABB2CFB31DC57-g.jpg,,
21930488,苹果电脑案例:在挫折中成长,,,,"杰弗瑞·库鲁圣 (作者), 李芳龄 (译者)",1991,,China Finance by,,245,0,Chinese(China),,,до 2011-08,7500595794,,,,,,,,,,,0,,,,,1,,0,16130410,pdf,FBE120B0F145E6FBB8AA08B93AF55C94,,,_357664.fbe120b0f145e6fbb8aa08b93af55c94.pdf,0,2000-01-01 01:00:00,2016-04-03 02:51:08,636000/fbe120b0f145e6fbb8aa08b93af55c94-g.jpg,,
21930489,"JWSR Volume V, Number 2, 1999",,,,Susan Manning (Editor),1999,,Program in Comparative International Development in the Department of  Sociology at Johns Hopkins University,,456,0,English ,,,до 2011-08,,,,,,,,,,,,0,,,,1,1,1,1,4430465,pdf,060BA1F0977258503F812937B102DE43,,,_357665.060ba1f0977258503f812937b102de43.pdf,0,2000-01-01 01:00:00,2016-04-03 02:51:08,636000/060ba1f0977258503f812937b102de43-g.jpg,,
21930490,Microbial Strategies for Crop Improvement,,,,"Elisa Gamalero, Graziella Berta (auth.), Mohammad Saghir Khan, Almas Zaidi, Javed Musarrat (eds.)",2009,1,Springer-Verlag Berlin Heidelberg,,358,0,English,,,до 2011-08,"3642019781,9783642019784",,,,,,,10.1007/978-3-642-01979-1,,,,0,,,,,1,,1,4397299,pdf,06C9E63382378BEC0B846C96A2176A77,,,_357666.06c9e63382378bec0b846c96a2176a77.pdf,0,2000-01-01 01:00:00,2016-04-03 02:51:08,636000/06c9e63382378bec0b846c96a2176a77-d.jpg,,
21930491,闲话中国人,,,,易中天 (作者,,,,,319,0,Chinese(China),,,до 2011-08,753212018X,,,,,,,,,OL21607645M,,0,,,,,1,,0,36223245,pdf,DD232181CFDA04157A8499A9E1004157,,,_357667.dd232181cfda04157a8499a9e1004157.pdf,0,2000-01-01 01:00:00,2016-04-03 02:51:08,636000/dd232181cfda04157a8499a9e1004157-g.jpg,,
21930492,Imagining Multilingual Schools: Languages in Education and Glocalization (Linguistic Diversity and Language Rights),,Linguistic Diversity and Language Rights 2,,"Ofelia Garcia, Tove Skutnabb-Kangas, Maria Torres-Guzman",2006,,Multilingual Matters,,342,0,English ,,,до 2011-08,"185359895X,9781853598951",,,,,,,,,,,0,,,,,1,,1,5231810,pdf,E12D48923A771F501143BA5A83852B10,,,_357668.e12d48923a771f501143ba5a83852b10.pdf,0,2000-01-01 01:00:00,2016-04-03 02:51:08,636000/e12d48923a771f501143ba5a83852b10-d.jpg,,
21930493,艺术的特征,,,,易中天 (作者),1991,,Unknown,,255,0,Chinese(China),,,до 2011-08,"7543831139,9787543831131",,,,,,,,,,,0,,,,,1,,0,40813138,pdf,C36847423FEE6C19CF14CB9182DBB21F,,,_357669.c36847423fee6c19cf14cb9182dbb21f.pdf,0,2000-01-01 01:00:00,2016-04-03 02:51:08,636000/c36847423fee6c19cf14cb9182dbb21f-g.jpg,,
21930494,苹果往事:开发麦金托什的非凡岁月,,,,"Andy Hertzfeld(安迪·赫茨菲尔德) (作者), 洪慧芳 (译者",2010,,Electronic Industry Press,,287,0,Chinese(China),,,до 2011-08,9787121100697,,,,,,,,,,,0,,,,,1,,0,35866892,pdf,B322437ADF09C314EF7809CBC759FC9E,,,_357670.b322437adf09c314ef7809cbc759fc9e.pdf,0,2000-01-01 01:00:00,2016-04-03 02:51:08,636000/b322437adf09c314ef7809cbc759fc9e-d.jpg,,
21930495,丑陋的中国人,,,,柏杨 (作者),2008,,ren min wen xue chu ban she,,223,0,Chinese(China),,,до 2011-08,9787020065639,,,,,,,,,,,0,,,,,1,,0,29842446,pdf,004D71F2FEE5183E02B55D5B00A29430,,,_357671.004d71f2fee5183e02b55d5b00a29430.pdf,0,2000-01-01 01:00:00,2016-04-03 02:51:08,636000/004d71f2fee5183e02b55d5b00a29430-d.jpg,,
21930496,乔布斯的秘密日记,,,,"丹尼尔·莱昂斯 (作者), 刘宁 (译者)",2010,,China Citic Press,,286,0,Chinese(China),,,до 2011-08,9787508617725,,,,,,,,,,,0,,,,,1,,0,24702690,pdf,F811688A4FB60FEB1F1E00B0CDB794C4,,,_357672.f811688a4fb60feb1f1e00b0cdb794c4.pdf,0,2000-01-01 01:00:00,2016-04-03 02:51:08,636000/f811688a4fb60feb1f1e00b0cdb794c4-d.jpg,,
21930497,An Ethnographic-Sociolinguistic Approach to Language Assessment (Multilingual Matters),,,,Charlene Rivera,1983,,Multilingual Matters,,,0,English ,,,до 2011-08,"0905028201,9780905028200",,,,,418/.0076,P53.4 .E86 1983,,,OL2914581M,,0,,,,,1,,,327932,chm,CE57937CBB3BCC472CF7EA94B8146E21,,,_357673.ce57937cbb3bcc472cf7ea94b8146e21.chm,0,2000-01-01 01:00:00,2016-04-03 02:51:08,,,
21930498,易中天讲美学:破门而入,,,,易中天,1991,,Unknown,,293,0,Chinese(China),,,до 2011-08,9787309041644,,,,,,,,,OL23093840M,,0,,,,,1,,0,31535286,pdf,C58F30F9A60B37A7848453B09D18630C,,,_357674.c58f30f9a60b37a7848453b09d18630c.pdf,0,2000-01-01 01:00:00,2016-04-03 02:51:08,636000/c58f30f9a60b37a7848453b09d18630c-g.jpg,,
21930499,新托福考试专项进阶-高级写作,,,,"等 (美)帕特莱克 (作者), 王子睿,王成霞 张洪伟 (译者)",,,,,301,0,Chinese(China),,,до 2011-08,"9787800809781,7800809781",,,,,,,,,,,0,,,,,1,,0,24914822,pdf,9895A3584B0E5EDA0B1615C7F334FC77,,,_357675.9895a3584b0e5eda0b1615c7f334fc77.pdf,0,2000-01-01 01:00:00,2016-04-03 02:51:08,636000/9895a3584b0e5eda0b1615c7f334fc77-g.jpg,,
21930500,Language Attitudes in Sub-Saharan Africa-- A Sociolinguistic Overview  (Multilingual Matters),,Multilingual Matters 103,,E Adegbija,1998,,Multilingual Matters,,,0,English ,,,до 2011-08,"1853592390,9781853592393",,,,,306.4/4/0967,P40.45.A357 A34 1994,,,OL1081567M,,0,,,,,1,,,195348,chm,8D98B88A1B43A018896C0EF43EB98723,,,_357676.8d98b88a1b43a018896c0ef43eb98723.chm,0,2000-01-01 01:00:00,2016-04-03 02:51:08,,,
21930501,胜算:用智慧击垮竞争对手,,,,盖伊·川崎,1991,,Metropolitan Press,,218,0,Chinese(China),,,до 2011-08,7807241659,,,,,,,,,,,0,,,,,1,,0,39121880,pdf,34BFF09FC6A5B8F0233C999A1CF59830,,,_357677.34bff09fc6a5b8f0233c999a1cf59830.pdf,0,2000-01-01 01:00:00,2016-04-03 02:51:08,636000/34bff09fc6a5b8f0233c999a1cf59830-g.jpg,,
21930502,Agroforestry for Natural Resource Management,,,,"Ian Nuberg, Brendan George, Rowan Reid",2009,Pap/DVD,CSIRO Publishing,,360,0,English ,,,до 2011-08,"0643092242,9780643092242",,,,,634.994,S494.5.A45 A372 2009,,,OL24892252M,,0,,,,,1,1,1,14793947,pdf,816D20F919A30071ED257D58034F0CE8,,,_357678.816d20f919a30071ed257d58034f0ce8.pdf,0,2000-01-01 01:00:00,2016-04-03 02:51:08,636000/816d20f919a30071ed257d58034f0ce8-d.jpg,,
21930503,,17,,Journal of German Linguistics （17.1） 17 1,Robert W. Murray,2005,,,,188,0,English ,,,до 2011-08,,1470-5427,,,,,,,,,periodic,0,,,,,1,,1,1224771,pdf,F9CA0AB1AD18167F38B462892BD6E028,,ban,_357679.f9ca0ab1ad18167f38b462892bd6e028.pdf,0,2000-01-01 01:00:00,2016-04-03 02:51:08,636000/f9ca0ab1ad18167f38b462892bd6e028-g.jpg,,
21930504,The Principles of Clinical Cytogenetics,,,,"Steven L. Gersen, Martha B. Keagle",2004,2,Humana Press,,611,0,English ,,,до 2011-08,"1588293009,9781588293008",,,,,,,,hSDrd9MfSCEC,OL18224642M,,0,,,,0,1,0,1,13680688,pdf,AF6DE7B69FFCE0A9121A0B9E1A75378D,,,_357680.af6de7b69ffce0a9121a0b9e1a75378d.pdf,0,2000-01-01 01:00:00,2016-04-03 02:51:08,636000/af6de7b69ffce0a9121a0b9e1a75378d-d.jpg,,
21930505,Eva,,,,Peter Dickinson,1988,,Laurel Leaf,,227,0,English ,,,до 2011-08,9780375892134,,,,,,,,y3yId4Uz3dsC,OL24285366M,,0,,,,1,1,1,1,22785235,pdf,A4A4A881089C8409E18B4F6FE058B28C,,,_357681.a4a4a881089c8409e18b4f6fe058b28c.pdf,0,2000-01-01 01:00:00,2016-04-03 02:51:08,636000/a4a4a881089c8409e18b4f6fe058b28c-g.jpg,,
21930506,,17,,Journal of German Linguistics （17.2） 17 2,Robert W. Murray,2005,,,,88,0,English ,,,до 2011-08,,1470-5427,,,,,,,,,periodic,0,,,,,1,,1,1027981,pdf,8564C3E4B367FBA8AA15323AF9A1EA41,,ban,_357682.8564c3e4b367fba8aa15323af9a1ea41.pdf,0,2000-01-01 01:00:00,2016-04-03 02:51:08,636000/8564c3e4b367fba8aa15323af9a1ea41-g.jpg,,
21930507,ActiveMQ in Action,,,,"Bruce Snyder, Dejan Bosanac, Rob Davies","2011'',",Pap/Psc,Manning Publications,,381,0,English ,,,до 2011-08,"1933988940,9781933988948",,,,,005.712762,TK5105.73 .S59 2011,,,OL25186685M,Unedited draft,0,,,,,1,,0,5428166,pdf,557BC375C823C18734EE26B2F733DB4E,,,_357683.557bc375c823c18734ee26b2f733db4e.pdf,0,2000-01-01 01:00:00,2016-04-03 02:51:08,636000/557bc375c823c18734ee26b2f733db4e-d.jpg,,
21930508,,17,,Journal of German Linguistics （17.3） 17 3,Robert W. Murray,2005,,,,68,0,English ,,,до 2011-08,,1470-5427,,,,,,,,,periodic,0,,,,,1,,1,3307853,pdf,6785ABC5D67B85C0343E2A652B214587,,ban,_357684.6785abc5d67b85c0343e2a652b214587.pdf,0,2000-01-01 01:00:00,2016-04-03 02:51:08,636000/6785abc5d67b85c0343e2a652b214587-g.jpg,,
21930509,,17,,Journal of German Linguistics （17.4） 17 4,Robert W. Murray,2005,,,,69,0,English ,,,до 2011-08,,1470-5427,,,,,,,,,periodic,0,,,,,1,,1,2153444,pdf,A28F389EC0CB365D21F92AD8BDE94EC0,,ban,_357685.a28f389ec0cb365d21f92ad8bde94ec0.pdf,0,2000-01-01 01:00:00,2016-04-03 02:51:08,636000/a28f389ec0cb365d21f92ad8bde94ec0-g.jpg,,
21930510,The Paleo Solution: The Original Human Diet,,,,Robb Wolf,2010,,Victory Belt Publishing,,,0,English ,,,до 2011-08,"0982565844,9780982565841",,,,,,,,,,,0,,,,,1,,,971745,epub,C7894FC11EE54762D68665E14BAD758B,,,_357686.c7894fc11ee54762d68665e14bad758b.epub,0,2000-01-01 01:00:00,2016-04-03 02:51:08,636000/c7894fc11ee54762d68665e14bad758b-d.jpg,,
21930511,Chess Blueprints: Planning in the Middlegame,,,,Nikolay Yakovlev,2010,,Mongoose Press,,282,0,English ,,,до 2011-08,"1936277018,9781936277018",,,,,,,,,,,0,,,,,1,,0,10316161,pdf,217F51AD01CBA422DA7DEDD32BC4D7DE,,,_357687.217f51ad01cba422da7dedd32bc4d7de.pdf,0,2000-01-01 01:00:00,2016-04-03 02:51:08,636000/217f51ad01cba422da7dedd32bc4d7de-d.jpg,,
21930512,,18,,Journal of German Linguistics （18.1） 18 1,Robert W. Murray,2006,,,,83,0,English ,,,до 2011-08,,1470-5427,,,,,,,,,periodic,0,,,,,1,,1,2076381,pdf,A645114D2F7F06B31743C25C4928EE48,,ban,_357688.a645114d2f7f06b31743c25c4928ee48.pdf,0,2000-01-01 01:00:00,2016-04-03 02:51:08,636000/a645114d2f7f06b31743c25c4928ee48-g.jpg,,
21930513,Drug Metabolism and Pharmacokinetics Quick Guide,,,,"Siamak Cyrus Khojasteh, Harvey Wong, Cornelis E.C.A. Hop (auth.)",2011,1,Springer-Verlag New York,,214,0,English,,,до 2011-08,"144195628X,9781441956286",,,,,,,10.1007/978-1-4419-5629-3,lF9pN7iDGqoC,,,0,,,,1,0,1,1,1432006,pdf,590A28564E84943E1639BCDE427B914A,,,_357689.590a28564e84943e1639bcde427b914a.pdf,0,2000-01-01 01:00:00,2016-04-03 02:51:08,636000/590a28564e84943e1639bcde427b914a-d.jpg,,
21930514,,18,,Journal of German Linguistics （18.2） 18 2,Robert W. Murray,2006,,,,124,0,English ,,,до 2011-08,,1470-5427,,,,,,,,,periodic,0,,,,,1,,0,8239733,pdf,F9647B675E3D3DD82B689CEC34C57708,,ban,_357690.f9647b675e3d3dd82b689cec34c57708.pdf,0,2000-01-01 01:00:00,2016-04-03 02:51:08,636000/f9647b675e3d3dd82b689cec34c57708-g.jpg,,
21930515,,18,,Journal of German Linguistics （18.3） 18 3,Robert W. Murray,2006,,,,215,0,English ,,,до 2011-08,,1470-5427,,,,,,,,,periodic,0,,,,,1,,0,8604029,pdf,EF3141B568FC066740AAE06B6EFE0671,,ban,_357691.ef3141b568fc066740aae06b6efe0671.pdf,0,2000-01-01 01:00:00,2016-04-03 02:51:08,636000/ef3141b568fc066740aae06b6efe0671-g.jpg,,
21930516,The Paleo Diet: Lose Weight and Get Healthy by Eating the Foods You Were Designed to Eat,,,,Loren Cordain,2010,Revised Edition,Wiley,,,0,English ,,,до 2011-08,"9780470913024,9781118001295,9781118001301,9781118001318",,,,,,,,,,,0,,,,,1,,,336546,epub,A3567E1F90F0DFA30ABBD2175CCE25A1,,,_357692.a3567e1f90f0dfa30abbd2175cce25a1.epub,0,2000-01-01 01:00:00,2016-04-03 02:51:08,636000/a3567e1f90f0dfa30abbd2175cce25a1-d.jpg,,
21930517,,18,,Journal of German Linguistics （18.4） 18 4,Robert W. Murray,2006,,,,91,0,English ,,,до 2011-08,,1470-5427,,,,,,,,,periodic,0,,,,,1,,1,560477,pdf,3B515B61C683CC3BBF170C20C5E24956,,ban,_357693.3b515b61c683cc3bbf170c20c5e24956.pdf,0,2000-01-01 01:00:00,2016-04-03 02:51:08,636000/3b515b61c683cc3bbf170c20c5e24956-g.jpg,,
21930518,Brownfield Application Development in .Net,,,,"Donald Belcham, Kyle Baley",2010,Pap/Psc,Manning Publications,,408,0,English ,92,,до 2011-08,"1933988711,9781933988719",,,,,005.276,QA76.76.A65 B348 2010,,,OL25090095M,Unedited Draft,0,,,,,1,1,1,5580935,pdf,4E2AF3C495A61091CEDB63BA17EA6315,,,_357694.4e2af3c495a61091cedb63ba17ea6315.pdf,0,2000-01-01 01:00:00,2016-04-03 02:51:08,636000/4e2af3c495a61091cedb63ba17ea6315-d.jpg,,
21930519,,19,,Journal of German Linguistics （19.1） 19 1,Robert W. Murray,2007,,,,83,0,English ,,,до 2011-08,,1470-5427,,,,,,,,,periodic,0,,,,,1,,1,491665,pdf,2E1E17C4DEB3E6561E7BAB838D74A21E,,ban,_357695.2e1e17c4deb3e6561e7bab838d74a21e.pdf,0,2000-01-01 01:00:00,2016-04-03 02:51:08,636000/2e1e17c4deb3e6561e7bab838d74a21e-g.jpg,,
21930520,Grandmaster Chess Strategy: What Amateurs Can Learn from Ulf Andersson's Positional Masterpieces,,,,"Jurgen Kaufeld, Guido Kern",2011,,New in Chess,,226,0,English ,,,до 2011-08,"9056913468,9789056913465",,,,,,,,,,,0,,,,,1,,0,6903058,pdf,DFB32BBF1A461304BC83E03DEBC1AEA6,,,_357696.dfb32bbf1a461304bc83e03debc1aea6.pdf,0,2000-01-01 01:00:00,2016-04-03 02:51:08,636000/dfb32bbf1a461304bc83e03debc1aea6-d.jpg,,
21930521,,19,,Journal of German Linguistics （19.2） 19 2,Robert W. Murray,2007,,,,85,0,English ,,,до 2011-08,,1470-5427,,,,,,,,,periodic,0,,,,,1,,1,547949,pdf,BD4E2DD471F559F05209AB6972A4C745,,ban,_357697.bd4e2dd471f559f05209ab6972a4c745.pdf,0,2000-01-01 01:00:00,2016-04-03 02:51:08,636000/bd4e2dd471f559f05209ab6972a4c745-g.jpg,,
21930522,Capitalism and Democracy in Central and Eastern Europe: Assessing the Legacy of Communist Rule,,,,"Grzegorz Ekiert, Stephen E. Hanson",2003,,Cambridge University Press,,386,0,English ,,,до 2011-08,"0521822955,9780521822954",,,,,,,,,OL18151038M,,0,,,,,1,,0,6433122,pdf,A34ED9D93ADA74355B2351ECA1E276DC,,,_357698.a34ed9d93ada74355b2351eca1e276dc.pdf,0,2000-01-01 01:00:00,2016-04-03 02:51:08,636000/a34ed9d93ada74355b2351eca1e276dc-d.jpg,,
21930523,Handbuch Bibliothek 2.0,,Bibliothekspraxis,,Patrick Danowski,2010,1,De Gruyter,,406,0,German ,,,до 2011-08,"311023209X,9783110232097",,,,,020.285/4678,Z674.75.W67 H36 2010,,,OL24524060M,,0,,,,1,0,1,1,5086696,pdf,988A9D8FCF538A3197816C34B1BDD211,,,_357699.988a9d8fcf538a3197816c34b1bdd211.pdf,0,2000-01-01 01:00:00,2016-04-03 02:51:08,636000/988a9d8fcf538a3197816c34b1bdd211-d.jpg,,
21930524,Hello! Silverlight,,,,"Bill Reiss, Dave Campbell","2011'',",1,Manning Publications,,233,0,English ,92,,до 2011-08,"1933988533,9781933988535",,,,,,,,,,UnEdited Draft,0,,,,,1,,1,9418199,pdf,0B31CA18CA970A6730A94B18027B72CA,,,_357700.0b31ca18ca970a6730a94b18027b72ca.pdf,0,2000-01-01 01:00:00,2016-04-03 02:51:08,636000/0b31ca18ca970a6730a94b18027b72ca-d.jpg,,
21930525,Yantra: The Tantric Symbol of Cosmic Unity,,,,Madhu Khanna,1997,,Thames & Hudson,,176,0,English ,,,до 2011-08,"0500272344,9780500272343",,,,,,,,,OL21482589M,,0,,,,,1,,0,21799983,pdf,5EBA74C2F6B0C24E93D50B8E0DA80AA8,,,_357701.5eba74c2f6b0c24e93d50b8e0da80aa8.pdf,0,2000-01-01 01:00:00,2016-04-03 02:51:08,636000/5eba74c2f6b0c24e93d50b8e0da80aa8-d.jpg,,
21930526,Die literarische Landschaft: Zur Geschichte ihrer Entdeckung von der Antike bis zur Gegenwart,,,,Kurt-H. Weber,2010,1,De Gruyter,,443,0,German ,,,до 2011-08,"3110227630,9783110227635",,,,,,,,,OL25169853M,,0,,,,1,0,1,1,2291159,pdf,6510B701544494E662EE1ECFBE7D6A83,,,_357702.6510b701544494e662ee1ecfbe7d6a83.pdf,0,2000-01-01 01:00:00,2016-04-03 02:51:08,636000/6510b701544494e662ee1ecfbe7d6a83-d.jpg,,
21930527,Applied Adaptive Statistical Methods: Tests of Significance and Confidence Intervals (ASA-SIAM Series on Statistics and Applied Probability),,,,Thomas W. O'Gorman,2004,,Society for Industrial  Mathematics,,187,0,English ,,,до 2011-08,"0898715539,9780898715538",,,,,519.5/2,QA276.6 O35 2004,,,OL17153575M,,0,,,,1,1,1,1,10095835,pdf,F16F2AE30EFA47CC36A25D6F1489EB99,,,_357703.f16f2ae30efa47cc36a25d6f1489eb99.pdf,0,2000-01-01 01:00:00,2016-04-03 02:51:08,636000/f16f2ae30efa47cc36a25d6f1489eb99-d.jpg,,
21930528,Gayatri Chakravorty Spivak: Live Theory,,,,Mark Sanders,2006,,Continuum,,147,0,English ,,,до 2011-08,"0826463185,0826463193",,,,,,,,,OL22740107M,,0,,,,,1,,1,7647050,pdf,6F6B78C55267003E5F856542780E4B54,,,_357704.6f6b78c55267003e5f856542780e4b54.pdf,0,2000-01-01 01:00:00,2016-04-03 02:51:08,636000/6f6b78c55267003e5f856542780e4b54-d.jpg,,
21930529,"Geomorphometry: Concepts, Software, Applications",,Developments in Soil Science 33,,Tomislav Hengl and Hannes I. Reuter (Eds.),2009,,Elsevier Science,,1-765,0,English ,,,до 2011-08,"0123743451,9780123743459",0166-2481,,,,,,,,OL24916625M,,0,,,,,1,1,1,34310844,pdf,AD47DD0097050C9143EEEDF6149BDCA3,,,_357705.ad47dd0097050c9143eeedf6149bdca3.pdf,0,2000-01-01 01:00:00,2016-04-03 02:51:08,636000/ad47dd0097050c9143eeedf6149bdca3-d.jpg,,
21930530,Mithridates VI and the Pontic Kingdom (Black Sea Studies),,,,Jakob Munk Hojte,2009,,Aarhus University Press,,375,0,English ,,,до 2011-08,"8779344437,9788779344433",,,,,,,,,,,0,,,,1,0,0,1,10096655,pdf,77D06F3CAAA5F40D028CADE2E858C1A4,,,_357706.77d06f3caaa5f40d028cade2e858c1a4.pdf,0,2000-01-01 01:00:00,2016-04-03 02:51:08,636000/77d06f3caaa5f40d028cade2e858c1a4-d.jpg,,
21930531,Atomic Scale Characterization and First-Principles Studies of Si₃N₄ Interfaces,,Springer Theses,,Weronika Walkosz (auth.),2011,1,Springer-Verlag New York,,110,0,English,,,до 2011-08,"144197816X,9781441978165",2190-5053,,,,,,10.1007/978-1-4419-7817-2,sSdxJA_sdQMC,,,0,,,,1,0,1,1,2842997,pdf,684A96104DCE633BDB07C63251CFFE66,,,_357707.684a96104dce633bdb07c63251cffe66.pdf,0,2000-01-01 01:00:00,2016-04-03 02:51:08,636000/684a96104dce633bdb07c63251cffe66-d.jpg,,
21930532,Appetite for Self-Destruction: The Spectacular Crash of the Record Industry in the Digital Age   ,,,,Steve Knopper,2009,,Simon & Schuster Adult Publishing,,,0,English ,,,до 2011-08,"9781416594550,1416594558",,,,,,,,,,,0,,,,,1,1,1,534267,epub,728D87A564E4C3E21F2A38D23BC03A69,,,_357708.728d87a564e4c3e21f2a38d23bc03a69.epub,0,2000-01-01 01:00:00,2016-04-03 02:51:08,636000/728D87A564E4C3E21F2A38D23BC03A69-g.jpg,,
21930533,"The Syrian Princesses: The Women Who Ruled Rome, AD 193-235",,,,Godfrey Turton,2008,,ACLS Humanities E-Book,,220,0,English ,,,до 2011-08,"1597406937,9781597406932",,,,,,,,,,,0,,,,1,0,0,0,13227018,pdf,729EF25A769453B0B8C2D22E3B335227,,,_357710.729ef25a769453b0b8c2d22e3b335227.pdf,0,2000-01-01 01:00:00,2016-04-03 02:51:08,636000/729ef25a769453b0b8c2d22e3b335227-d.jpg,,
21930534,"La trilogie divine, Tome 1 : Siva",,,,Philip K. Dick,2006,,Editions Gallimard,,,0,French ,,,до 2011-08,,,,,,,,,,,,0,,,,,1,,,315719,epub,9EB61B3A81F9EF8F7CE58B1FC3C78056,,,_357711.9eb61b3a81f9ef8f7ce58b1fc3c78056.epub,0,2000-01-01 01:00:00,2016-04-03 02:51:08,636000/9EB61B3A81F9EF8F7CE58B1FC3C78056-g.jpg,,
21930535,"La trilogie divine, Tome 1 : Siva",,,,Philip K. Dick,2006,,Editions Gallimard,,265,0,French ,,,до 2011-08,,,,,,,,,,,,0,,,,,1,1,1,1166440,pdf,6396DD24738A2FE7F08E35628B979DC6,,,_357712.6396dd24738a2fe7f08e35628b979dc6.pdf,0,2000-01-01 01:00:00,2016-04-03 02:51:08,636000/6396dd24738a2fe7f08e35628b979dc6-g.jpg,,
21930536,Homer and Langley   ,,,,E. L. Doctorow,2009,,Random House Publishing Group,,,0,English ,,,до 2011-08,9781588368973,,,,,,,,,OL24268011M,,0,,,,,1,1,,1838486,epub,76EA0D046BBEACDF374573A1C676DD13,,,_357714.76ea0d046bbeacdf374573a1c676dd13.epub,0,2000-01-01 01:00:00,2016-04-03 02:51:08,636000/76EA0D046BBEACDF374573A1C676DD13-g.jpg,,
21930537,Musical Experience in Our Lives: Things We Learn and Meanings We Make,,,,"Jody L. Kerchner, Carlos Abril",2009,,Rowman & Littlefield Education,,359,0,English ,,,до 2011-08,"1578869455,9781578869459",,,,,780.71,MT6 .M9628 2008,,,OL17099837M,,0,,,,1,1,1,1,1171792,pdf,38054027D2BBB95691CB4DC94C355B18,,,_357715.38054027d2bbb95691cb4dc94c355b18.pdf,0,2000-01-01 01:00:00,2016-04-03 02:51:08,636000/38054027d2bbb95691cb4dc94c355b18-d.jpg,,
21930538,"Coulez mes larmes, dit le policier",,,,Philip K. Dick,1988,,J'ai Lu,,,0,French ,,,до 2011-08,,,,,,,,,,,,0,,,,,1,,,406818,epub,A43A5CA4FBEE666F98F53FF7655DAF13,,,_357716.a43a5ca4fbee666f98f53ff7655daf13.epub,0,2000-01-01 01:00:00,2016-04-03 02:51:08,636000/A43A5CA4FBEE666F98F53FF7655DAF13-g.jpg,,
21930539,Sweet Land Stories,,,,E. L. Doctorow,2004,,Random House,,,0,English ,,,до 2011-08,9781588364067,,,,,,,,,OL24271867M,,0,,,,,1,,,188367,epub,B609A14A9FB4C78D058FA2367E3678BC,,,_357717.b609a14a9fb4c78d058fa2367e3678bc.epub,0,2000-01-01 01:00:00,2016-04-03 02:51:08,636000/B609A14A9FB4C78D058FA2367E3678BC-g.jpg,,
21930540,"Coulez mes larmes, dit le policier",,,,Philip K. Dick,1988,,J'ai Lu,,248,0,French ,,,до 2011-08,,,,,,,,,,,,0,,,,,1,1,1,1558599,pdf,FDEDB7CE370EE9D53CA7B5FFF4820C82,,,_357718.fdedb7ce370ee9d53ca7b5fff4820c82.pdf,0,2000-01-01 01:00:00,2016-04-03 02:51:08,636000/fdedb7ce370ee9d53ca7b5fff4820c82-g.jpg,,
21930541,Metallointercalators: Synthesis and Techniques to Probe Their Interactions with Biomolecules,,,,"Marcelis van Holst, Maxine P. Grant, Janice Aldrich-Wright (auth.), Janice Aldrich-Wright (eds.)",2011,1,Springer-Verlag Wien,,427,0,English,,,до 2011-08,"321109427X,9783211094273",,,,,,,10.1007/978-3-211-99079-7,Oq6VDg0MLzkC,,,0,,,,1,0,1,1,6493958,pdf,84B42AB647EF5696E8617228A9C50D9F,,,_357719.84b42ab647ef5696e8617228a9c50d9f.pdf,0,2000-01-01 01:00:00,2016-04-03 02:51:08,636000/84b42ab647ef5696e8617228a9c50d9f-d.jpg,,
21930542,L'homme stochastique,,,,Robert Silverberg,2001,,J'ai lu,,,0,French ,,,до 2011-08,,,,,,,,,,,,0,,,,,1,,,317874,epub,057088E4B5FF7C2686DA263659E927CC,,,_357720.057088e4b5ff7c2686da263659e927cc.epub,0,2000-01-01 01:00:00,2016-04-03 02:51:08,636000/057088E4B5FF7C2686DA263659E927CC-g.jpg,,
21930543,Neurodevelopmental Disabilities: Clinical Care for Children and Young Adults,,,,"Dilip R. Patel, Joav Merrick MD, MMedSci, DMSc (auth.), Dilip R. Patel, Donald E. Greydanus, Hatim A. Omar, Joav Merrick (eds.)",2011,1,Springer Netherlands,,495,0,English,,,до 2011-08,"940070626X,9789400706262",,,,,,,10.1007/978-94-007-0627-9,,,,0,,,,1,0,1,1,3083574,pdf,9890243025FFCD8C1A708B8E7E7D65F5,,,_357721.9890243025ffcd8c1a708b8e7e7d65f5.pdf,0,2000-01-01 01:00:00,2016-04-03 02:51:08,636000/9890243025ffcd8c1a708b8e7e7d65f5-d.jpg,,
21930544,L'homme stochastique,,,,Robert Silverberg,2001,,J'ai lu,,236,0,French ,,,до 2011-08,,,,,,,,,,,,0,,,,,1,1,1,1402754,pdf,2BCC812919FE9B7756C77F2898A08C2F,,,_357722.2bcc812919fe9b7756c77f2898a08c2f.pdf,0,2000-01-01 01:00:00,2016-04-03 02:51:08,636000/2bcc812919fe9b7756c77f2898a08c2f-g.jpg,,
21930545,"Weights, Extrapolation and the Theory of Rubio de Francia",,Operator Theory: Advances and Applications 215,,"David V. Cruz-Uribe, José Maria Martell, Carlos Pérez (auth.)",2011,1,Birkhäuser Basel,,282,0,English,,,до 2011-08,"3034800711,9783034800716",,,,,,,10.1007/978-3-0348-0072-3,JF9BlGnPfcgC,,,0,,,,1,0,1,1,2979753,pdf,82C25806359C7B3453D82CA311B6A385,,,_357723.82c25806359c7b3453d82ca311b6a385.pdf,0,2000-01-01 01:00:00,2016-04-03 02:51:08,636000/82c25806359c7b3453d82ca311b6a385-d.jpg,,
21930546,"The Tantric Way: Art, Science, Ritual",,,,"Ajit Mookerjee, Madhu Khanna",1977,,Little Brown & Co (Pap),,209,0,English ,,,до 2011-08,"0821207059,9780821207055",,,,,,,,,,,0,,,,,1,,1,9593502,pdf,F75743167AB77BB6CE2B544C86A77FAD,,,_357724.f75743167ab77bb6ce2b544c86a77fad.pdf,0,2000-01-01 01:00:00,2016-04-03 02:51:08,636000/f75743167ab77bb6ce2b544c86a77fad-g.jpg,,
21930547,Afraid of the Dark (Jack Swyteck),,,,James Grippando,2011,,HarperCollins,,416,0,English ,,,до 2011-08,9780062078605,,,,,,,,,,,0,,,,,0,1,1,1250064,epub,5B63713AF599A029783089B7E6C9876A,,,_357725.5b63713af599a029783089b7e6c9876a.epub,0,2000-01-01 01:00:00,2016-04-03 02:51:08,636000/5B63713AF599A029783089B7E6C9876A-g.jpg,,
21930548,Energy: A Strategy for International Action,6,,,"John C. Campbell, Guy de Carmoy, Shinichi Kondo",1974,,The Trilateral Commission,,50,0,English ,,,до 2011-08,0930503570,,,,,,,,,,,0,,,,,0,,0,2581437,pdf,DF7394DC3205EE81EDF7137000E2BA07,,,_357726.df7394dc3205ee81edf7137000e2ba07.pdf,0,2000-01-01 01:00:00,2016-04-03 02:51:08,636000/df7394dc3205ee81edf7137000e2ba07-g.jpg,,
21930549,Mathematics and Other Poems,,,,William Wall,1997,,Collins Pr,,73,0,English ,,,до 2011-08,"1898256268,9781898256267",,,,,821/.914,PR6073.A418 M38 1997,,,OL281784M,,0,,,,,1,,1,278713,pdf,578AB29AE4709E9FC71ADE840462D9FD,,,_357727.578ab29ae4709e9fc71ade840462d9fd.pdf,0,2000-01-01 01:00:00,2016-04-03 02:51:08,636000/578ab29ae4709e9fc71ade840462d9fd-g.jpg,,
21930550,Creole Fires,,Southern 1,,Kat Martin,1992,,Dell,,353,0,English ,,,до 2011-08,,,,,,,,,,,,0,,,,,0,0,1,716430,pdf,34B41C5837F04B8074BF0D62EFF833D9,,,_357728.34b41c5837f04b8074bf0d62eff833d9.pdf,0,2000-01-01 01:00:00,2016-04-03 02:51:08,636000/34b41c5837f04b8074bf0d62eff833d9-g.jpg,,
21930551,"OPEC, the Trilateral World, and the Developing Countries: New Arrangements for Cooperation, 1976-1980",7,,,"John C. Campbell, Guy de Carmoy, Shinichi Kondo",1975,,The Trilateral Commission,,34,0,English ,,,до 2011-08,0930503554,,,,,,,,,,,0,,,,,0,,0,1768912,pdf,B89F1FA48C7560E2CF0BCBB49480F29E,,,_357729.b89f1fa48c7560e2cf0bcbb49480f29e.pdf,0,2000-01-01 01:00:00,2016-04-03 02:51:08,636000/b89f1fa48c7560e2cf0bcbb49480f29e-g.jpg,,
21930552,Silk and Steel,,Litchfield 2,,Kat Martin,1999,,St. Martin's Press,,,0,English ,,,до 2011-08,"0312972814,9780312972813",,,,,,,,,OL9720151M,,0,,,,,1,1,1,284469,epub,7CD9BD49ACE785A86C07771AE5175678,,,_357730.7cd9bd49ace785a86c07771ae5175678.epub,0,2000-01-01 01:00:00,2016-04-03 02:51:08,636000/7cd9bd49ace785a86c07771ae5175678-d.jpg,,
21930553,Secret Ways,,,,Kat Martin,2003,,Pocket Star,,,0,English ,,,до 2011-08,"0743419170,9780743419178",,,,,,,,,OL3283610M,,0,,,,,1,1,1,265949,epub,6083E027DCD897E95288A0224A189487,,,_357731.6083e027dcd897e95288a0224a189487.epub,0,2000-01-01 01:00:00,2016-04-03 02:51:08,636000/6083e027dcd897e95288a0224a189487-d.jpg,,
21930554,Scent of Roses,,,,Kat Martin,2006,Regular Print/Single Titl,MIRA,,,0,English ,,,до 2011-08,"0778323269,9780778323266",,,,,,,,,OL8081360M,,0,,,,,1,1,1,313611,epub,0E80E719DCE119FDF719145E11F27EA5,,,_357732.0e80e719dce119fdf719145e11f27ea5.epub,0,2000-01-01 01:00:00,2016-04-03 02:51:08,636000/0e80e719dce119fdf719145e11f27ea5-d.jpg,,
21930555,Nothing But Velvet,,Litchfield 1,,Kat Martin,1997,,St. Martin's Paperbacks,,,0,English ,,,до 2011-08,"0312962436,9780312962432",,,,,,,,,OL24925532M,,0,,,,,1,1,1,318964,epub,0EB12EEF19ED7A30B2828F82EE6954AD,,,_357733.0eb12eef19ed7a30b2828f82ee6954ad.epub,0,2000-01-01 01:00:00,2016-04-03 02:51:08,636000/0eb12eef19ed7a30b2828f82ee6954ad-d.jpg,,
21930556,Night Secrets,,,,Kat Martin,1999,,St. Martin's Paperbacks,,,0,English ,,,до 2011-08,,,,,,,,,,,,0,,,,,1,1,1,390503,epub,FBC477162336B8EE6B17018A4B6DD9A5,,,_357734.fbc477162336b8ee6b17018a4b6dd9a5.epub,0,2000-01-01 01:00:00,2016-04-03 02:51:08,636000/FBC477162336B8EE6B17018A4B6DD9A5-g.jpg,,
21930557,Midnight Rider,,,,Kat Martin,1996,,St. Martin's Paperbacks,,,0,English ,,,до 2011-08,"0312957742,9780312957742",,,,,,,,,,,0,,,,,1,1,1,293766,epub,36BC1266C3B6CC9860833BF26239A189,,,_357735.36bc1266c3b6cc9860833bf26239a189.epub,0,2000-01-01 01:00:00,2016-04-03 02:51:08,636000/36bc1266c3b6cc9860833bf26239a189-d.jpg,,
21930558,A New Regime for the Oceans,"9'',",,,"John C. Campbell, Guy de Carmoy, Shinichi Kondo",1976,,Trilateral Commission (New York University Press),,30,0,English ,,,до 2011-08,0930503546,,,,,,,,,,"dual pages, verticle display",0,,,,,1,,0,3509346,pdf,9BC4F4469D7240285DB99C71659228EA,,,_357736.9bc4f4469d7240285db99c71659228ea.pdf,0,2000-01-01 01:00:00,2016-04-03 02:51:08,636000/9bc4f4469d7240285db99c71659228ea-g.jpg,,
21930559,Innocence Undone,,Kingsland 1,,Kat Martin,1997,,St. Martin's Paperbacks,,,0,English ,,,до 2011-08,"0312960891,9780312960896",,,,,,,,,OL24967201M,,0,,,,,1,1,1,305234,epub,3571003994FE2BED46CDB6DB31C1E9DD,,,_357737.3571003994fe2bed46cdb6db31c1e9dd.epub,0,2000-01-01 01:00:00,2016-04-03 02:51:08,636000/3571003994fe2bed46cdb6db31c1e9dd-d.jpg,,
21930560,Heart of Honor,,Heart 1,,Kat Martin,2007,,MIRA,,,0,English ,,,до 2011-08,"0778323838,9780778323839",,,,,,,,,OL8081413M,,0,,,,,1,0,1,306144,epub,AB79991CBAA531DB464450B8B6825B3C,,,_357738.ab79991cbaa531db464450b8b6825b3c.epub,0,2000-01-01 01:00:00,2016-04-03 02:51:08,636000/ab79991cbaa531db464450b8b6825b3c-d.jpg,,
21930561,Lord of Misrule,,,,Jaimy Gordon,2011,,Knopf Publishing Group,,,0,English ,,,до 2011-08,9780307946744,,,,,,,,,,,0,,,,,0,1,1,461390,epub,A72B476B5AEF18E6E0842542E6463CCC,,,_357739.a72b476b5aef18e6e0842542e6463ccc.epub,0,2000-01-01 01:00:00,2016-04-03 02:51:08,636000/A72B476B5AEF18E6E0842542E6463CCC-g.jpg,,
21930562,Heart of Fire,,Heart 2,,Kat Martin,2008,reprint,MIRA,,,0,English ,,,до 2011-08,"0778324524,9780778324522",,,,,813/.54,PS3563.A7246 H39 2008,,,OL10973363M,,0,,,,,1,1,1,269646,epub,28A264DF141E593E42525274CCA41CF2,,,_357740.28a264df141e593e42525274cca41cf2.epub,0,2000-01-01 01:00:00,2016-04-03 02:51:08,636000/28a264df141e593e42525274cca41cf2-d.jpg,,
21930563,The Handmaiden's Necklace,,Necklace 3,,Kat Martin,2010,,Mira,,,0,English ,,,до 2011-08,,,,,,,,,,,,0,,,,,1,0,1,299893,epub,DB4BCFC6E3AE2249812E46DC0670AB1E,,,_357741.db4bcfc6e3ae2249812e46dc0670ab1e.epub,0,2000-01-01 01:00:00,2016-04-03 02:51:08,636000/DB4BCFC6E3AE2249812E46DC0670AB1E-g.jpg,,
21930564,Devil's Prize,,The Garrick Family 3,,Kat Martin,1995,,St. Martin's Paperbacks,,,0,English ,,,до 2011-08,"0312954786,9780312954789",,,,,,,,,OL9625054M,,0,,,,,1,1,1,296402,epub,4AD32B3FF30B3E068FFF835DE758045D,,,_357742.4ad32b3ff30b3e068fff835de758045d.epub,0,2000-01-01 01:00:00,2016-04-03 02:51:08,636000/4ad32b3ff30b3e068fff835de758045d-d.jpg,,
21930565,So kocht Mann: Das Männerkochbuch für jeden Fall: Das Männerkochbuch für alle Fälle,,,,unknown,2008,,Otus verlag,,96,0,German ,,,до 2011-08,"3907200225,9783907200223",,,,,,,,,,,0,,,,0,1,0,1,15924632,pdf,79E13B89026C5E40AB30DFEC16B96AD2,,,_357743.79e13b89026c5e40ab30dfec16b96ad2.pdf,0,2000-01-01 01:00:00,2016-04-03 02:51:08,636000/79e13b89026c5e40ab30dfec16b96ad2-g.jpg,,
21930566,Dangerous Passions,,Kingsland 2,,Kat Martin,1998,,St. Martin's Paperbacks,,,0,English ,,,до 2011-08,"0312962479,9780312962470",,,,,,,,,OL9531707M,,0,,,,,1,1,1,302954,epub,54EA8B954D8E0985458A2A1A59D900C0,,,_357744.54ea8b954d8e0985458a2a1a59d900c0.epub,0,2000-01-01 01:00:00,2016-04-03 02:51:08,636000/54ea8b954d8e0985458a2a1a59d900c0-d.gif,,
21930567,OK! - 18 April 2011,,,,Lisa Byrne (Editor),,,,,84,0,English ,,,до 2011-08,,,,,,,,,,,,0,,,,,1,,0,39195133,pdf,0F1F179956CFD404ECB4B37A5CBAFEE6,,,_357745.0f1f179956cfd404ecb4b37a5cbafee6.pdf,0,2000-01-01 01:00:00,2016-04-03 02:51:08,636000/0f1f179956cfd404ecb4b37a5cbafee6-g.jpg,,
21930568,Bold Angel,,,,Kat Martin,2010,,St. Martin's Paperbacks,,,0,English ,,,до 2011-08,,,,,,,,,,,,0,,,,,1,0,1,283755,epub,F1BB294DBB68A8DE85F62EB0A0FFD291,,,_357746.f1bb294dbb68a8de85f62eb0a0ffd291.epub,0,2000-01-01 01:00:00,2016-04-03 02:51:08,636000/F1BB294DBB68A8DE85F62EB0A0FFD291-g.jpg,,
21930569,Fanning the Flame,,Heartless 3,,Kat Martin,2002,,Pocket,,,0,English ,,,до 2011-08,,,,,,,,,,,,0,,,,,1,0,1,386618,lit,75C2E4D6391C8F10B03E782793A9C484,,,_357747.75c2e4d6391c8f10b03e782793a9c484.lit,0,2000-01-01 01:00:00,2016-04-03 02:51:08,636000/75C2E4D6391C8F10B03E782793A9C484-g.jpg,,
21930570,The Fire Inside,,Heartless 2,,Kat Martin,2002,,Pocket Books,,,0,English ,,,до 2011-08,,,,,,,,,,,,0,,,,,1,0,1,465689,lit,AB719C35FD1B2C50F2CCD5E82A78476E,,,_357748.ab719c35fd1b2c50f2ccd5e82a78476e.lit,0,2000-01-01 01:00:00,2016-04-03 02:51:08,636000/AB719C35FD1B2C50F2CCD5E82A78476E-g.jpg,,
21930571,Heartless,,Heartless 1,,Kat Martin,2001,,St. Martin's Paperbacks,,,0,English ,,,до 2011-08,,,,,,,,,,,,0,,,,,1,0,1,491385,lit,F388AB07E56F35B5E21E9932973FED93,,,_357749.f388ab07e56f35b5e21e9932973fed93.lit,0,2000-01-01 01:00:00,2016-04-03 02:51:08,636000/F388AB07E56F35B5E21E9932973FED93-g.jpg,,
21930572,Current Challenges in Patent Information Retrieval,,The Information Retrieval Series 29,,"Doreen Alberts, Cynthia Barcelon Yang, Denise Fobare-DePonio, Ken Koubek (auth.), Mihai Lupu, Katja Mayer, John Tait, Anthony J. Trippe (eds.)",2011,1,Springer-Verlag Berlin Heidelberg,,418,0,English,,,до 2011-08,"3642192300,9783642192302",1387-5264,,,,,,10.1007/978-3-642-19231-9,L42-23KbtNkC,,,0,,,,1,0,1,1,7124690,pdf,872CAD325B6BE1F799A95858FE883B7C,,,_357750.872cad325b6be1f799a95858fe883b7c.pdf,0,2000-01-01 01:00:00,2016-04-03 02:51:08,636000/872cad325b6be1f799a95858fe883b7c-d.jpg,,
21930573,Gypsy Lord,,Garrick Family 1,,Kat Martin,1992,,St. Martin's Paperbacks,,,0,English ,,,до 2011-08,,,,,,,,,,,,0,,,,,1,0,1,385399,lit,5938C8D7D0E118164B145DBAE60B5B2C,,,_357751.5938c8d7d0e118164b145dbae60b5b2c.lit,0,2000-01-01 01:00:00,2016-04-03 02:51:08,636000/5938C8D7D0E118164B145DBAE60B5B2C-g.jpg,,
21930574,The Devil's Necklace,,Necklace 2,,Kit Martin,2005,reprint,Mira,,,0,English ,,,до 2011-08,"0778321991,9780778321996",,,,,,,,,OL3475103M,,0,,,,,1,1,1,375002,lit,052DFD355FFB33F7C6C7A70995E56493,,,_357752.052dfd355ffb33f7c6c7a70995e56493.lit,0,2000-01-01 01:00:00,2016-04-03 02:51:08,636000/052dfd355ffb33f7c6c7a70995e56493-d.jpg,,
21930575,Hot Rain,,,,Kat Martin,2002,,Zebra,,125,0,English ,,,до 2011-08,,,,,,,,,,,,0,,,,,0,0,1,605100,pdf,C2ACE7E3B0B71FE11213356A11B866A2,,,_357753.c2ace7e3b0b71fe11213356a11b866a2.pdf,0,2000-01-01 01:00:00,2016-04-03 02:51:08,636000/c2ace7e3b0b71fe11213356a11b866a2-g.jpg,,
21930576,Season of Strangers,,,,Kat Martin,2008,,MIRA,,,0,English ,,,до 2011-08,"0778325547,9780778325543",,,,,,,,,OL10973402M,,0,,,,,1,1,1,690969,lit,CB4B4DC6B3260A38551EE5244555BF25,,,_357754.cb4b4dc6b3260a38551ee5244555bf25.lit,0,2000-01-01 01:00:00,2016-04-03 02:51:08,636000/cb4b4dc6b3260a38551ee5244555bf25-d.jpg,,
21930577,Perfect Sin,,Clayton 2,,Kat Martin,2004,,St. Martin's Paperbacks,,,0,English ,,,до 2011-08,,,,,,,,,,,,0,,,,,1,0,1,326161,lit,5A38BDF267F734B1F3CE84C542181AE6,,,_357755.5a38bdf267f734b1f3ce84c542181ae6.lit,0,2000-01-01 01:00:00,2016-04-03 02:51:08,636000/5A38BDF267F734B1F3CE84C542181AE6-g.jpg,,
21930578,Heart of Courage,,Heart 3,,Kat Martin,2009,First Edition,MIRA,,,0,English ,,,до 2011-08,"0778326098,9780778326090",,,,,813/.54,PS3563.A7246 H38 2009,,,OL23124447M,,0,,,,,1,1,1,605084,lit,CE22DEA602C4A4770B1A292BFFFA1FDD,,,_357756.ce22dea602c4a4770b1a292bfffa1fdd.lit,0,2000-01-01 01:00:00,2016-04-03 02:51:08,636000/ce22dea602c4a4770b1a292bfffa1fdd-d.jpg,,
21930579,"Contemporary Shi'ism as Political Ideology: the views of Sharî'atmadârî, Ṭâliqâni, and Khumaynî",,,,Kenrick Abbott,1991,,"Institute of Islamic Studies, McGill University",,120,0,English ,,,до 2011-08,,,,,,,,,,,,0,,,,0,1,0,1,6410858,pdf,93B4F315400925BCE495B863BE2864A9,,,_357757.93b4f315400925bce495b863be2864a9.pdf,0,2000-01-01 01:00:00,2016-04-03 02:51:08,636000/93b4f315400925bce495b863be2864a9-g.jpg,,
21930580,Reese's Bride,,The Bride Trilogy 2,,Kat Martin,2009,Original,MIRA,,,0,English ,,,до 2011-08,"0778327442,9780778327448",,,,,,,,,,,0,,,,,1,1,1,673212,lit,99E2AFAC09ADC27A78DD6BB91C72B182,,,_357758.99e2afac09adc27a78dd6bb91c72b182.lit,0,2000-01-01 01:00:00,2016-04-03 02:51:08,636000/99e2afac09adc27a78dd6bb91c72b182-d.jpg,,
21930581,Against the Fire,,The Raines of Wind Canyon 2,,Kat Martin,2011,Original,MIRA,,,0,English ,,,до 2011-08,"0778329305,9780778329305",,,,,,,,,OL24595340M,,0,,,,,1,1,1,734081,epub,98ED207CAD0191F5430F4DF64B0DA98A,,,_357759.98ed207cad0191f5430f4df64b0da98a.epub,0,2000-01-01 01:00:00,2016-04-03 02:51:08,636000/98ed207cad0191f5430f4df64b0da98a-d.jpg,,
21930582,Royal's Bride,,The Bride Trilogy 1,,Kat Martin,2009,,Harlequin Enterprises,,,0,English ,,,до 2011-08,"1426838700,9781426838705",,,,,,,,,OL24249387M,,0,,,,,1,1,1,724130,lit,13FC50EF8367484B0DEF95ABC4E408B7,,,_357762.13fc50ef8367484b0def95abc4e408b7.lit,0,2000-01-01 01:00:00,2016-04-03 02:51:08,636000/13FC50EF8367484B0DEF95ABC4E408B7-g.jpg,,
21930583,Sweet Vengeance,,Garrick Family 2,,Kat Martin,1993,,St. Martin's Paperbacks,,289,0,English ,,,до 2011-08,"0312950950,9780312950958",,,,,,,,,OL9794748M,,0,,,,,1,0,1,605679,pdf,2EB7B977FB9BBBFF6400A5E7207D6715,,,_357763.2eb7b977fb9bbbff6400a5e7207d6715.pdf,0,2000-01-01 01:00:00,2016-04-03 02:51:08,636000/2eb7b977fb9bbbff6400a5e7207d6715-d.jpg,,
21930584,The Spymaster's Lady,,Spymaster 2,,Joanna Bourne,2008,,Berkley,,,0,English ,,,до 2011-08,1429558113,,,,,,,,,,,0,,,,,1,1,1,369784,epub,D35A8D474133C9F59F1636D64C131AED,,,_357764.d35a8d474133c9f59f1636d64c131aed.epub,0,2000-01-01 01:00:00,2016-04-03 02:51:08,636000/D35A8D474133C9F59F1636D64C131AED-g.jpg,,
21930585,My Lord and Spymaster,,Spymaster 1,,Joanna Bourne,2008,,Berkley,,,0,English ,,,до 2011-08,9781436229067,,,,,,,,,OL24256958M,,0,,,,,1,1,1,341433,epub,1C0948404CA32304B566B664C67A2D80,,,_357765.1c0948404ca32304b566b664c67a2d80.epub,0,2000-01-01 01:00:00,2016-04-03 02:51:08,636000/1C0948404CA32304B566B664C67A2D80-g.jpg,,
21930586,"The Sociology of Intellectual Life: The Career of the Mind in and Around Academy (Published in association with Theory, Culture & Society)",,,,Steve Fuller,2009,,Sage Publications Ltd,,193,0,English ,,,до 2011-08,"1412928389,9781412928380",,,,,,,,,,,0,,,,1,0,1,1,1617062,pdf,A893F73CC989F25D823750668B5390D3,,,_357766.a893f73cc989f25d823750668b5390d3.pdf,0,2000-01-01 01:00:00,2016-04-03 02:51:08,636000/a893f73cc989f25d823750668b5390d3-d.jpg,,
21930587,Leopard In Exile,,Carolus Rex 2,,"Andre Norton, Rosemary Edghill",2002,1st,Tor Fantasy,,205,0,English ,,,до 2011-08,"0812545400,9780812545401",,,,,,,,,OL9675717M,,0,,,,,0,0,1,545097,pdf,71D35313A59FD7B306AB6AC84DFA1FC5,,,_357767.71d35313a59fd7b306ab6ac84dfa1fc5.pdf,0,2000-01-01 01:00:00,2016-04-03 02:51:08,636000/71d35313a59fd7b306ab6ac84dfa1fc5-d.jpg,,
21930588,Against the Wind,,The Raines of Wind Canyon 1,,Kat Martin,2010,Original,MIRA,,262,0,English ,,,до 2011-08,"0778329194,9780778329190",,,,,,,,,OL24549186M,,0,,,,,0,0,1,1168542,pdf,35D525335E2B0BF107C0D35B79B5877E,,,_357768.35d525335e2b0bf107c0d35b79b5877e.pdf,0,2000-01-01 01:00:00,2016-04-03 02:51:08,636000/35d525335e2b0bf107c0d35b79b5877e-d.jpg,,
21930589,"Gnosticism and Later Platonism: Themes, Figures, and Texts (Symposium Series (Society of Biblical Literature)",,,,"John D. Turner, Ruth Dorothy Majercik",2001,Enlarged 3rd,Society of Biblical Literature,,353,0,English ,,,до 2011-08,"0884140350,9780884140351",,,,,226/.06,BS2555.5 .D86 1973,,,OL17019867M,,0,,,,,1,1,1,2656889,pdf,AC72A8C184F7BDF164855A9F92F5A577,,,_357769.ac72a8c184f7bdf164855a9f92f5a577.pdf,0,2000-01-01 01:00:00,2016-04-03 02:51:08,636000/ac72a8c184f7bdf164855a9f92f5a577-d.jpg,,
21930590,The Knitter's Bible,,,,Claire Crompton,2004,,David & Charles,,160,0,English ,,,до 2011-08,0715317990,,,,,,,,,,,0,,,,0,1,0,0,68220241,pdf,E6511A8523568910AFC50FDEBC0183D4,,,_357771.e6511a8523568910afc50fdebc0183d4.pdf,0,2000-01-01 01:00:00,2016-04-03 02:51:08,636000/e6511a8523568910afc50fdebc0183d4-g.jpg,,
21930591,Discover Magazine May 2011,,,,Various,,,,,84,0,English ,,,до 2011-08,,,,,,,,,,,periodic,0,,,,,1,,0,28490713,pdf,F951B2937F1F3DAC16F31851788BA5B4,,ban,_357773.f951b2937f1f3dac16f31851788ba5b4.pdf,0,2000-01-01 01:00:00,2016-04-03 02:51:08,636000/f951b2937f1f3dac16f31851788ba5b4-g.jpg,,
21930592,Clinical Aspects of Electroporation,,,,"Edward W. Lee, Julie Gehl, Stephen T. Kee (auth.), Stephen T. Kee, Julie Gehl, Edward W. Lee (eds.)",2011,1,Springer-Verlag New York,,256,0,English,,,до 2011-08,"1441983627,9781441983626,9781441983633",,,,,,,10.1007/978-1-4419-8363-3,08ZJkxcY5i0C,,,0,,,,1,0,1,1,7340453,pdf,832C7CC6DAEA2B49D19E228E877F8CA3,,,_357774.832c7cc6daea2b49d19e228e877f8ca3.pdf,0,2000-01-01 01:00:00,2016-04-03 02:51:08,636000/832c7cc6daea2b49d19e228e877f8ca3-d.jpg,,
21930593,"Process Mining: Discovery, Conformance and Enhancement of Business Processes",,,,Wil M. P. van der Aalst (auth.),2011,1,Springer-Verlag Berlin Heidelberg,,352,0,English,,,до 2011-08,"3642193447,9783642193446",,,,,,,10.1007/978-3-642-19345-3,I1KOAfiqfxYC,,,0,,,,1,0,1,1,11595386,pdf,B616C3AF79D9EDB34EA462007A6AA77B,,,_357775.b616c3af79d9edb34ea462007a6aa77b.pdf,0,2000-01-01 01:00:00,2016-04-03 02:51:08,636000/b616c3af79d9edb34ea462007a6aa77b-d.jpg,,
21930594,"Physik 2: Teil II: Atom-, Molekül- und Quantenphysik - Experimentelle und theoretische Grundlagen",,,,Reinhart Weber,2007,,Vieweg+Teubner,,389,0,German ,,,до 2011-08,"383510201X,9783835102019",,,,,,,,PNYU4OV7qiwC,,,0,,,,0,0,0,1,5823268,pdf,B0C3D9538B9C81EE77C6F05692C8BCCE,,,_357776.b0c3d9538b9c81ee77c6f05692c8bcce.pdf,0,2000-01-01 01:00:00,2016-04-03 02:51:08,636000/b0c3d9538b9c81ee77c6f05692c8bcce-g.jpg,,
21930595,Tibetan Buddhists in the Making of Modern China,,,,Gray Tuttle,2007,,Columbia University Press,,360,0,English ,,,до 2011-08,"0231134479,9780231134477",,,,,,,,,OL9509379M,,0,,,,0,1,1,1,4113578,pdf,1F59C77D5BBD5450431070956DAFDE0D,,,_357777.1f59c77d5bbd5450431070956dafde0d.pdf,0,2000-01-01 01:00:00,2016-04-03 02:51:08,636000/1f59c77d5bbd5450431070956dafde0d-d.jpg,,
21930596,Advances in Transport Phenomena 2010,,Advances in Transport Phenomena 2,,"Zhi-Xin Li, Zeng-Yuan Guo (auth.), Liqiu Wang (eds.)",2011,1,Springer-Verlag Berlin Heidelberg,,336,0,English,,,до 2011-08,"3642194656,9783642194658",1868-8853,,,,,,10.1007/978-3-642-19466-5,nOedmuu84bEC,,,0,,,,1,0,1,1,8919800,pdf,20705EAE2B2D985D36BF7A68469F28D7,,,_357779.20705eae2b2d985d36bf7a68469f28d7.pdf,0,2000-01-01 01:00:00,2016-04-03 02:51:08,636000/20705eae2b2d985d36bf7a68469f28d7-d.jpg,,
21930597,The Wise Woman,,,,Philippa Gregory,2008,,Simon and Schuster,,528,0,English ,,,до 2011-08,"1416590889,9781416590880",,,,,823.914,PR6057.R386 W57 1993,,,OL22961662M,,0,,,,,1,1,,584564,epub,FE378CE6BBCDFD12B6BE8FD68665159E,,,_357780.fe378ce6bbcdfd12b6be8fd68665159e.epub,0,2000-01-01 01:00:00,2016-04-03 02:51:08,636000/fe378ce6bbcdfd12b6be8fd68665159e-d.jpg,,
21930598,A secular age,,,,Charles Taylor,2007,First Edition,Harvard University Press,,896,0,English ,,,до 2011-08,"0674026764,9780674026766",,,,,,,,,OL22762159M,,0,,,,,1,1,,1463755,epub,69E96BD728FAA6E6C402059DCB9EA250,,,_357781.69e96bd728faa6e6c402059dcb9ea250.epub,0,2000-01-01 01:00:00,2016-04-03 02:51:08,636000/69e96bd728faa6e6c402059dcb9ea250-d.jpg,,
21930599,The Man in the Maze,,,,Robert Silverberg,2004,,I Books,,224,0,English ,,,до 2011-08,"0743497775,9780743497770",,,,,,,,,OL7951668M,,0,,,,,1,,,179094,epub,3DA06C20C46EA23D0B8CC982A1A86C51,,,_357783.3da06c20c46ea23d0b8cc982a1a86c51.epub,0,2000-01-01 01:00:00,2016-04-03 02:51:08,636000/3da06c20c46ea23d0b8cc982a1a86c51-d.jpg,,
21930600,Never Too Hot,,,,Bella Andre,2010,,Random House Publishing Group,,368,0,English ,,,до 2011-08,"0440245028,9780440245025",,,,,,,,,OL24399563M,,0,,,,,1,1,,277906,epub,B7F067FE7C09D0B50C89DCEDA957CD42,,,_357784.b7f067fe7c09d0b50c89dceda957cd42.epub,0,2000-01-01 01:00:00,2016-04-03 02:51:08,636000/b7f067fe7c09d0b50c89dceda957cd42-d.jpg,,
21930601,Hot as Sin,,,,Bella Andre,2009,Original,Random House Publishing Group,,352,0,English ,,,до 2011-08,"044024501X,9780440245018",,,,,,,,,OL24128157M,,0,,,,,1,1,,257371,epub,B910141FD10775BDFF91B7B77DE59484,,,_357785.b910141fd10775bdff91b7b77de59484.epub,0,2000-01-01 01:00:00,2016-04-03 02:51:08,636000/b910141fd10775bdff91b7b77de59484-d.jpg,,
21930602,The Advantage of Theft over Honest Toil,,,,Joseph Agassi,2009,,Philosophy of the Social Sciences,,21,0,English ,,,до 2011-08,,,,,,,,10.1177/0048393109334584,,,,0,,,,,1,,1,144446,pdf,12D90D75CA40670DC62846A5ED1ECF30,,,_357786.12d90d75ca40670dc62846a5ed1ecf30.pdf,0,2000-01-01 01:00:00,2016-04-03 02:51:08,636000/12d90d75ca40670dc62846a5ed1ecf30-g.jpg,,
21930603,Heroides. Amores (Loeb Classical Library),,Loeb Classical Library,,Ovid; Grant Showerman (ed.),1914,,William Heinemann; The MacMillan Co.,,546,0,English ,,,до 2011-08,,,,,,,,,,,,0,,,,1,1,0,1,17383634,pdf,873B2C0D640FDEAFF45718D6352EBF6C,,,_357787.873b2c0d640fdeaff45718d6352ebf6c.pdf,0,2000-01-01 01:00:00,2016-04-03 02:51:08,636000/873b2c0d640fdeaff45718d6352ebf6c-g.jpg,,
21930604,Novela De Ajedrez (Narrativa),,,,Stefan Zweig,1941,Tra,El Ancantilado,,16,0,Spanish,,,до 2011-08,"8495359456,9788495359452",,,,,,,,,OL9152912M,,0,,,,1,1,,1,219661,pdf,53E93D3A2CD29001FADD46C94E9D6ABB,,,_357788.53e93d3a2cd29001fadd46c94e9d6abb.pdf,0,2000-01-01 01:00:00,2016-04-03 02:51:08,636000/53e93d3a2cd29001fadd46c94e9d6abb-d.jpg,,
21930605,Wild Heat,,,,Bella Andre,2009,Reissue,Dell Publishing Company,,352,0,English ,,,до 2011-08,"0440245001,9780440245001",,,,,,,,,OL24088539M,,0,,,,,1,1,,282552,epub,EA593CEDE9BEAC405495FFAE5CBE558F,,,_357789.ea593cede9beac405495ffae5cbe558f.epub,0,2000-01-01 01:00:00,2016-04-03 02:51:08,636000/ea593cede9beac405495ffae5cbe558f-d.jpg,,
21930606,Monkey Business: Swinging Through the Wall Street Jungle,,,,"John Rolfe, Peter Troob",2000,First Edition,Warner Books,,288,0,English ,,,до 2011-08,"0446525561,9780446525565",,,,,,,,,OL7536862M,,0,,,,0,1,1,1,5480438,pdf,A202B8E7C4766F7E43551DEE338E1A7A,,,_357790.a202b8e7c4766f7e43551dee338e1a7a.pdf,0,2000-01-01 01:00:00,2016-04-03 02:51:08,636000/a202b8e7c4766f7e43551dee338e1a7a-d.jpg,,
21930607,Future Intelligent Information Systems,,Lecture Notes in Electrical Engineering 86,,"Wang Wen-cheng, Guan Feng-nian (auth.), Dehuai Zeng (eds.)",2011,1,Springer-Verlag Berlin Heidelberg,,672,0,English,,,до 2011-08,"3642197051,9783642197055",1876-1100,,,,,,10.1007/978-3-642-19706-2,RtNHZXVO-JsC,,,0,,,,1,0,1,1,13109690,pdf,92D3BF6924148A306266736A96DD3AF9,,,_357792.92d3bf6924148a306266736a96dd3af9.pdf,0,2000-01-01 01:00:00,2016-04-03 02:51:08,636000/92d3bf6924148a306266736a96dd3af9-d.jpg,,
21930608,Renewing Italian socialism: Nenni to Craxi,,,,Spencer Di Scala,1988,,Oxford University Press,,357,0,English ,,,до 2011-08,"0195052358,9780195052350",,,,,335/.00945,HX289,,c8gGaCQDLUsC,OL21163795M,,0,,,,0,1,1,1,28730567,pdf,40E7728458E373876D3F5F1414A00CE6,,,_357793.40e7728458e373876d3f5f1414a00ce6.pdf,0,2000-01-01 01:00:00,2016-04-03 02:51:08,636000/40e7728458e373876d3f5f1414a00ce6-d.jpg,,
21930609,Herrin der Falken (Darkover 03),,Darkover-Zyklus Band 3 3,,Marion Zimmer Bradley,2000,,Weltbild Verlag (Sammler Editionen),,413,0,German ,,,до 2011-08,,,,,,,,,,,,0,,,,1,0,0,1,2298010,pdf,E9C3E3A87B2913DDEDFB522013FA6962,,,_357794.e9c3e3a87b2913ddedfb522013fa6962.pdf,0,2000-01-01 01:00:00,2016-04-03 02:51:08,636000/e9c3e3a87b2913ddedfb522013fa6962-g.jpg,,
21930610,Liars! Cheaters! Evildoers!: Demonization and the End of Civil Debate in American Politics,,,,"Tom De Luca, John Buell",2005,,NYU Press,,241,0,English ,,,до 2011-08,"0814719740,9780814719749,0814719759,9780814719756",,,,,306.2'0973—dc22,JA85.2.U6D45 2005,,,OL22726670M,,0,,,,,1,1,1,1352080,pdf,4D827040DAB343687CE4534201B5F4C0,,,_357795.4d827040dab343687ce4534201b5f4c0.pdf,0,2000-01-01 01:00:00,2016-04-03 02:51:08,636000/4d827040dab343687ce4534201b5f4c0-d.jpg,,
21930611,"The Economy of Prestige: Prizes, Awards, and the Circulation of Cultural Value",,,,James F. English,2005,,Harvard University Press,,428,0,English ,,,до 2011-08,"0674018842,9780674018846",,,,,001.4/4,AS935 .E54 2005,,,OL3426450M,,0,,,,,1,1,1,1084781,pdf,657354778034592975241CA0E888B9A2,,,_357796.657354778034592975241ca0e888b9a2.pdf,0,2000-01-01 01:00:00,2016-04-03 02:51:08,636000/657354778034592975241ca0e888b9a2-d.jpg,,
21930612,Eugene O'Neill's Long Day's Journey Into Night (Bloom's Modern Critical Interpretations),,,,Harold Bloom,2009,New,Blooms Literary Criticism,,248,0,English ,,,до 2011-08,"1604133902,9781604133905",,,,,812/.52,PS3529.N5 L634 2009,,,OL22679932M,,0,,,,,1,1,1,1029662,pdf,F10D894B2C11BEB74B4BB2D6FA780B3F,,,_357797.f10d894b2c11beb74b4bb2d6fa780b3f.pdf,0,2000-01-01 01:00:00,2016-04-03 02:51:08,636000/f10d894b2c11beb74b4bb2d6fa780b3f-d.jpg,,
21930613,The Natural History of Nonsense,,,,Bergen Evans,1946,,Alfred A. Knopf,,147,0,English ,,,до 2011-08,,,,,,,,,,,,0,,,,,1,,1,1138624,pdf,5FF35A00CBC10C4F43D1ED32FAAFCC16,,,_357799.5ff35a00cbc10c4f43d1ed32faafcc16.pdf,0,2000-01-01 01:00:00,2016-04-03 02:51:08,636000/5ff35a00cbc10c4f43d1ed32faafcc16-g.jpg,,
21930614,Discourse on Civility and Barbarity: A Critical History of Religion and Related Categories,,,,Timothy Fitzgerald,2007,1,"Oxford University Press, USA",,367,0,English ,,,до 2011-08,"0195300092,9780195300093",,,,,200.71,BL51 .F54 2007,,,OL10134904M,,0,,,,,1,1,1,2733817,pdf,23040DCF663FA544B5D1EE63AE596509,,,_357800.23040dcf663fa544b5d1ee63ae596509.pdf,0,2000-01-01 01:00:00,2016-04-03 02:51:08,636000/23040dcf663fa544b5d1ee63ae596509-d.jpg,,
21930615,The 80 20 Revolution: Why the Creative Individual - Not Corporation or Capital - is King and How You Can Create and Capture Wealth and Wellbeing,,,,Richard Koch,2002,,Nicholas Brealey Publishing,,249,0,English ,,,до 2011-08,"1857883055,9781857883053",,,,,650.1,,,,OL21661408M,,0,,,,0,1,0,1,10303559,pdf,B557E1C390E80ED0A4C99DB404C6BE64,,,_357801.b557e1c390e80ed0a4c99db404c6be64.pdf,0,2000-01-01 01:00:00,2016-04-03 02:51:08,636000/b557e1c390e80ed0a4c99db404c6be64-d.jpg,,
21930616,Elementary Real Analysis,,,,"Brian S. Thomson, Judith B. Bruckner, Andrew M. Bruckner",2000,1st,Prentice Hall,,753,0,English ,,,до 2011-08,"0130190756,9780130190758",,,,,,,,,OL7330301M,,0,,,,1,0,1,1,4315330,pdf,3ADAD3014F35EB1A0C3596AE7AABA736,,,_357802.3adad3014f35eb1a0c3596ae7aaba736.pdf,0,2000-01-01 01:00:00,2016-04-03 02:51:08,636000/3adad3014f35eb1a0c3596ae7aaba736-d.jpg,,
21930617,Epigenetic Aspects of Chronic Diseases,,,,"Rebecca Smith, Jonathan Mill (auth.), Helmtrud I. Roach, Felix Bronner, Richard O.C. Oreffo (eds.)",2011,1,Springer-Verlag London,,236,0,English,,,до 2011-08,"1848826435,9781848826434,9781848826441",,,,,,,10.1007/978-1-84882-644-1,H4j7OpffvqsC,,,0,,,,1,0,1,1,6759235,pdf,116EC5C5C43C7F6FAFAF5F173CE5E3C6,,,_357803.116ec5c5c43c7f6fafaf5f173ce5e3c6.pdf,0,2000-01-01 01:00:00,2016-04-03 02:51:08,636000/116ec5c5c43c7f6fafaf5f173ce5e3c6-d.jpg,,
21930618,Cool Men and the Second Sex,,Gender and Culture,,Susan Fraiman,2003,,Columbia University Press,,239,0,English ,,,до 2011-08,"0231129629,9780231129626",,,,,305.31—dc21,HQ1090 .F73 2003,,,OL9533814M,,0,,,,,1,1,1,1577991,pdf,9BD6DB31B98325F072737B05D9C96AA8,,,_357805.9bd6db31b98325f072737b05d9c96aa8.pdf,0,2000-01-01 01:00:00,2016-04-03 02:51:08,636000/9bd6db31b98325f072737b05d9c96aa8-d.jpg,,
21930619,Econophysics of Order-driven Markets: Proceedings of Econophys-Kolkata V,,New Economic Windows,,"Fabrizio Pomponio, Frédéric Abergel (auth.), Frédéric Abergel, Bikas K. Chakrabarti, Anirban Chakraborti, Manipushpak Mitra (eds.)",2011,1,Springer-Verlag Mailand,,316,0,English,,,до 2011-08,"8847017653,9788847017658,9788847017665",2039-411X,,,,,,10.1007/978-88-470-1766-5,7vfJq2DiuyMC,,,0,,,,1,0,1,1,4342120,pdf,4C5E7F9E3518EC05C0484FA43A2628E9,,,_357806.4c5e7f9e3518ec05c0484fa43a2628e9.pdf,0,2000-01-01 01:00:00,2016-04-03 02:51:08,636000/4c5e7f9e3518ec05c0484fa43a2628e9-d.jpg,,
21930620,Gums and Stabilisers for the Food Industry 12 (Special Publication),,,,"Glyn O Phillips, Peter A Williams",2004,1,Royal Society of Chemistry,,618,0,English ,,,до 2011-08,"085404891X,9780854048915",,,,,,,,,OL11609955M,,0,,,,,1,1,1,47489570,pdf,F74887F7D00D1E58E61617321DB93BE9,,,_357807.f74887f7d00d1e58e61617321db93be9.pdf,0,2000-01-01 01:00:00,2016-04-03 02:51:08,636000/f74887f7d00d1e58e61617321db93be9-d.jpg,,
21930621,Applied Combinatorics With Problem Solving,,,,"Bradley Jackson, Dmitri Thoro",1990,,Addison-Wesley Pub (Sd),,339,0,English ,,,до 2011-08,"0201129086,9780201129083",,,,,511/.6,QA164 .J33 1990,,,OL2213209M,,0,,,,1,1,1,0,12327576,pdf,68ECF4B731CF791E1689A8B8EF439DD2,,,_357808.68ecf4b731cf791e1689a8b8ef439dd2.pdf,0,2000-01-01 01:00:00,2016-04-03 02:51:08,636000/68ecf4b731cf791e1689a8b8ef439dd2-g.jpg,,
21930622,Russia Under Western Eyes: From the Bronze Horseman to the Lenin Mausoleum,,,,Martin Malia,1999,First Edition,Harvard University Press,,529,0,English ,,,до 2011-08,"0674781201,9780674781207",,,,,947,DK32 .M18 1999,,,OL377741M,,0,,,,1,1,1,1,2725390,pdf,9A22C22CD0AB42DE1BEBD4F8867930C5,,,_357809.9a22c22cd0ab42de1bebd4f8867930c5.pdf,0,2000-01-01 01:00:00,2016-04-03 02:51:08,636000/9a22c22cd0ab42de1bebd4f8867930c5-d.jpg,,
21930623,How to Know God : The Soul's Journey into the Mystery of Mysteries,,,,Deepak Chopra,2000,1st,Harmony,,184,0,English ,,,до 2011-08,"0609600788,9780609600788",,,,,,,,,OL15302489M,,0,,,,0,1,0,1,723278,pdf,BCF98B80EB5E52F2D85DEA5B1A4B0F42,,,_357811.bcf98b80eb5e52f2d85dea5b1a4b0f42.pdf,0,2000-01-01 01:00:00,2016-04-03 02:51:08,636000/bcf98b80eb5e52f2d85dea5b1a4b0f42-d.jpg,,
21930624,Nutrition Through the Life Cycle - Fourth Edition,,,,"Judith E. Brown, Janet S. Isaacs, U Beate Krinke, Ellen Lechtenberg, Maureen A. (CON) Murtaugh",2010,4,Cengage Learning,,623,0,English ,,,до 2011-08,"0538733411,9780538733410",,,,,,,,,OL25053344M,,0,,,,1,0,1,1,13729948,pdf,621016AA45970EA9593EB9BAE2B47314,,,_357812.621016aa45970ea9593eb9bae2b47314.pdf,0,2000-01-01 01:00:00,2016-04-03 02:51:08,636000/621016aa45970ea9593eb9bae2b47314-d.jpg,,
21930625,"Spirit, Science, and Health: How the Spiritual Mind Fuels Physical Wellness",,,,"Thomas G. Plante Ph.D., Carl E. Thoresen",2007,1,Praeger,,245,0,English ,,,до 2011-08,"0275995062,9780275995065",,,,,201/.7621,BT732.5 .S665 2007,,,OL10289923M,,0,,,,0,1,0,1,2181002,pdf,28BFDFE4C32F68AE04F9B2CA07387BD6,,,_357813.28bfdfe4c32f68ae04f9b2ca07387bd6.pdf,0,2000-01-01 01:00:00,2016-04-03 02:51:08,636000/28bfdfe4c32f68ae04f9b2ca07387bd6-d.jpg,,
21930626,"Cartilage Imaging: Significance, Techniques, and New Developments",,,,"Andrew Horvai (auth.), Thomas M. Link (eds.)",2011,1,Springer-Verlag New York,,245,0,English,,,до 2011-08,"1441984372,9781441984371,9781441984388",,,,,,,10.1007/978-1-4419-8438-8,Fi52EfMbaV0C,,,0,,,,1,0,1,1,15102388,pdf,58635184685F67B9C116596A4E43E727,,,_357814.58635184685f67b9c116596a4e43e727.pdf,0,2000-01-01 01:00:00,2016-04-03 02:51:08,636000/58635184685f67b9c116596a4e43e727-d.jpg,,
21930627,Grzimek's Animal Life Encyclopedia: Evolution,,,,Dr. Michael Hutchins,2011,4,Gale,,386,0,English ,,,до 2011-08,"1414486693,9781414486697",,,,,576.8,QH360.2 .G65 2011,,,OL25120166M,,0,,,,1,0,1,1,23283286,pdf,C9F71899F2F0F9D238333DF1D2E6E5D3,,,_357816.c9f71899f2f0f9d238333df1d2e6e5d3.pdf,0,2000-01-01 01:00:00,2016-04-03 02:51:08,636000/c9f71899f2f0f9d238333df1d2e6e5d3-g.jpg,,
21930628,Energy: A Beginner's Guide,,Beginner's Guides,,Vaclav Smil,2006,,Oneworld,,192,0,English ,,,до 2011-08,"1851684522,9781851684526",,,,,,,,lm1WAAAACAAJ,OL8971647M,,0,,,,1,0,1,1,3517411,pdf,5FA9B5D582E6ADEA6F2016A5F56317DB,,,_357817.5fa9b5d582e6adea6f2016a5f56317db.pdf,0,2000-01-01 01:00:00,2016-04-03 02:51:08,636000/5fa9b5d582e6adea6f2016a5f56317db-d.jpg,,
21930629,Handbuch der Webnavigation: Die User-Erfahrung optimieren,,,,James Kalbach,2008,,O'Reilly,,418,0,German,,,до 2011-08,"3897218658,9783897218659",,,,,,,,,,,0,,,,,1,,0,80339365,pdf,8CD105403B146964A71AA3372B22CA50,1a217543d70185dc900117b59cacfbd8,no,_357818.8cd105403b146964a71aa3372b22ca50.pdf,0,2000-01-01 01:00:00,2016-04-03 02:51:08,636000/8cd105403b146964a71aa3372b22ca50-d.jpg,,
21930630,Japanese Mythology,,Mythology Around the World,,Judith Levin,2007,,The Rosen Publishing Group,,65,0,English ,,,до 2011-08,"1404207368,9781404207363",,,,,,,,Fg5adl3ak0YC,OL11643430M,,0,,,,1,1,1,1,9609869,pdf,1F8DA3055739C857D72E601E3B174870,,,_357822.1f8da3055739c857d72e601e3b174870.pdf,0,2000-01-01 01:00:00,2016-04-03 02:51:08,636000/1f8da3055739c857d72e601e3b174870-d.jpg,,
21930631,,83,,Mathematics Magazine 83 2,Walter Stromquist (Editor in Chief),2010,,Mathematical Association of America,,83,0,English ,,,до 2011-08,,0025570X,,,,,,10.4169/002557010X482853,,,periodic,0,,,,1,0,1,1,5184278,pdf,851D1FB25062520E355A5092EC0D85AC,,ban,_357823.851d1fb25062520e355a5092ec0d85ac.pdf,0,2000-01-01 01:00:00,2016-04-03 02:51:08,636000/851d1fb25062520e355a5092ec0d85ac-g.jpg,,
21930632,The World of Plants: Life Science (Science Readers),,,,Michael L. Macceca,2008,Ill,Teacher Created Materials,,19,0,English ,,,до 2011-08,"074390589X,9780743905893",,,,,,,,,,,0,,,,,1,1,1,6331967,pdf,BFE89115F0E959014D5EB9143E607E20,,,_357824.bfe89115f0e959014d5eb9143e607e20.pdf,0,2000-01-01 01:00:00,2016-04-03 02:51:08,636000/bfe89115f0e959014d5eb9143e607e20-d.jpg,,
21930633,A Shadow of All Night Falling (Dread Empire),,,,Glen Cook,,,,,,0,English ,,,до 2011-08,,,,,,,,,,,,0,,,,,1,1,1,249421,epub,38FBF2F7B1BE08535112467AAD36A83C,,,_357825.38fbf2f7b1be08535112467aad36a83c.epub,0,2000-01-01 01:00:00,2016-04-03 02:51:08,636000/38FBF2F7B1BE08535112467AAD36A83C-g.jpg,,
21930634,"Ars Orientalis 34 (2004) Communities and Commodities. Western India and the Indian Ocean, Eleventh-Fifteenth Centuries",34,,,Smithsonian Institution,2004,,Smithsonian Institution,,194,0,English ,,,до 2011-08,,0571-1371,,,,,,,,,,0,,,,1,1,1,1,32422695,pdf,A792135886EA83DA1B5E647F242C1FC0,,,_357826.a792135886ea83da1b5e647f242c1fc0.pdf,0,2000-01-01 01:00:00,2016-04-03 02:51:08,636000/a792135886ea83da1b5e647f242c1fc0-g.jpg,,
21930635,"Atle Selberg Collected Papers, Volume 1",,,,Atle Selberg,1989,,Springer,,717,0,English ,,,до 2011-08,"0387183892,9780387183893",,,,,515,QA300 .S3932 1989,,,OL2059687M,,0,,,,0,1,0,1,9366061,djvu,7D480E0A971F4DF36AA16EFABFBAAE14,,,_357829.7d480e0a971f4df36aa16efabfbaae14.djvu,0,2000-01-01 01:00:00,2016-04-03 02:51:08,636000/7d480e0a971f4df36aa16efabfbaae14-g.jpg,,
21930636,The Field: The Quest for the Secret Force of the Universe,,,,Lynne McTaggart,2002,First Edition,Harper Paperbacks,,292,0,English,,,до 2011-08,"006143518X,9780061435188,9780061471131",,,,,530.14/3,,,,,"This is FIRST edition, 2002. Second Edition is 2008.",0,,,,0,1,0,1,1627919,pdf,9BE3C5DAF5218FBF2547763D412B7904,,,_357830.9be3c5daf5218fbf2547763d412b7904.pdf,0,2000-01-01 01:00:00,2016-04-03 02:51:08,636000/9be3c5daf5218fbf2547763d412b7904-d.jpg,,
21930637,"Atle Selberg Collected Papers,  Volume 2",,,,Atle Selberg,1991,,Springer,,260,0,English ,,,до 2011-08,"0387506268,9780387506265",,,,,515,QA300 .S3932 1989,,,OL2059687M,,0,,,,0,1,0,1,7433041,djvu,B530A2C40FD7862B8D44157BC5FF820F,,,_357831.b530a2c40fd7862b8d44157bc5ff820f.djvu,0,2000-01-01 01:00:00,2016-04-03 02:51:08,636000/b530a2c40fd7862b8d44157bc5ff820f-d.jpg,,
21930638,Indian Mythology,,Mythology around the world,,Fred Ramen,2007,,The Rosen Publishing Group,,61,0,English ,,,до 2011-08,"140420735X,9781404207356",,,,,294.5/13,BL1203 .R68 2006,,5aDAJWqCH-8C,OL3413975M,,0,,,,1,1,1,1,8770001,pdf,0CA858B64A9AD2C69924829C678D24AD,,,_357832.0ca858b64a9ad2c69924829c678d24ad.pdf,0,2000-01-01 01:00:00,2016-04-03 02:51:08,636000/0ca858b64a9ad2c69924829c678d24ad-d.jpg,,
21930639,JavaServer Faces. Ein Arbeitsbuch für die Praxis,,,,Bernd Müller,2006,,Hanser Fachbuchverlag,,385,0,German ,92,,до 2011-08,"3446406778,9783446406773",,,,,,,,,,,0,,,,,1,,1,33414269,pdf,9AAFF31856FD2D6ECCC2DC65B43D9749,,,_357833.9aaff31856fd2d6eccc2dc65b43d9749.pdf,0,2000-01-01 01:00:00,2016-04-03 02:51:08,636000/9aaff31856fd2d6eccc2dc65b43d9749-d.jpg,,
21930640,中国历史大讲堂 - 春秋史话,,,,"杨升南, 应永深, 王贵民",1991,,中国国际广播出版社,,227,0,Chinese(China),,,до 2011-08,7507827623,,,,,,,,,,,0,,,,,1,,0,22031764,pdf,213B7F2CB5BE6336B2A3A38702E46545,,,_357834.213b7f2cb5be6336b2a3a38702e46545.pdf,0,2000-01-01 01:00:00,2016-04-03 02:51:08,636000/213b7f2cb5be6336b2a3a38702e46545-g.jpg,,
21930641,Dream Yourself Awake,,,,Darlene Montgomery,2000,,Abbeyfield Publishers,,159,0,English ,,,до 2011-08,"0968340202,9780968340202",,,,,,,,,OL9525037M,,0,,,,0,1,1,1,638920,pdf,65ADAA253C86E0917986CD8355D6A8B9,,,_357835.65adaa253c86e0917986cd8355d6a8b9.pdf,0,2000-01-01 01:00:00,2016-04-03 02:51:08,636000/65adaa253c86e0917986cd8355d6a8b9-d.jpg,,
21930642,MDCT Anatomy — Body,,,,"Antonio Pinto, Sonia Fulciniti, Rosa Ignarra (auth.), Luigia Romano MD, Sonia Fulciniti MRT, Massimo Silva MRT, Antonio Pinto MD (eds.)",2011,1,Springer-Verlag Mailand,,203,0,English,,,до 2011-08,"8847018773,9788847018778,9788847018785",,,,,,,10.1007/978-88-470-1878-5,AK3-XFOCnw0C,,,0,,,,1,0,1,1,35020711,pdf,479B8074B10228B0775EA740170AAF4E,,,_357836.479b8074b10228b0775ea740170aaf4e.pdf,0,2000-01-01 01:00:00,2016-04-03 02:51:08,636000/479b8074b10228b0775ea740170aaf4e-d.jpg,,
21930643,The Apprenticeship of a Mathematician,,,,André Weil,1992,1,Birkhäuser Basel,,196,0,English ,,,до 2011-08,"3764326506,9783764326500",,,,,"510/.92,B",QA29.W455 A3 1992,,,OL1558861M,,600,,,,0,1,0,1,3206411,djvu,AC32DCEA1C1B0E8B305390CFB3CF4747,,,_357837.ac32dcea1c1b0e8b305390cfb3cf4747.djvu,0,2000-01-01 01:00:00,2016-04-03 02:51:08,636000/ac32dcea1c1b0e8b305390cfb3cf4747-d.jpg,,
21930644,The God of Small Things,,,,Arundhati Roy,1998,"First Edition, 1st Printing",Harper Perennial,,153,0,English ,,,до 2011-08,"0060977493,9780060977498",,,,,823,PR9499.3.R59 G631998,,,OL19815485M,,0,,,,0,1,0,1,678819,pdf,8B6121EE69C675F7DA3A47B7804CC646,,,_357838.8b6121ee69c675f7da3a47b7804cc646.pdf,0,2000-01-01 01:00:00,2016-04-03 02:51:08,636000/8b6121ee69c675f7da3a47b7804cc646-d.jpg,,
21930645,Archaeometry of Pre-Columbian Sites and Artifacts (Getty Trust Publications: Getty Conservation Institute),,,,"David Scott, Pieter Meyers",1994,1,Getty Conservation Institute,,437,0,English ,,,до 2011-08,"0892362499,9780892362493",,,,,970.01,E61 .A72 1994,,,OL1094114M,,0,,,,1,0,1,1,10844620,pdf,C73322E4631227B287201B4A73D9884D,,,_357840.c73322e4631227b287201b4a73d9884d.pdf,0,2000-01-01 01:00:00,2016-04-03 02:51:08,636000/c73322e4631227b287201b4a73d9884d-d.jpg,,
21930646,CATS: The Nine Lives of Innovation,,,,"Ph.D., Stephen C. Lundin",2008,1,McGraw-Hill,,193,0,English ,,,до 2011-08,"0071602216,9780071602211",,,,,650.1,,,,OL23107696M,,0,,,,0,1,0,1,1461883,pdf,88C172AB7936C9DDE19D2F16C96F9780,,,_357841.88c172ab7936c9dde19d2f16c96f9780.pdf,0,2000-01-01 01:00:00,2016-04-03 02:51:08,636000/88c172ab7936c9dde19d2f16c96f9780-d.jpg,,
21930647,The Conservation of Artifacts Made from Plant Materials (Getty Trust Publications : Getty Conservation Institute),,,,"Mary-Lou Florian, Dale Paul Kronkright, Ruth E. Norton",1991,1,Getty Conservation Institute,,352,0,English ,,,до 2011-08,"0892361603,9780892361601",,,,,930.1/028/5,CC79.5.P5 F58 1990,,,OL1851764M,,0,,,,1,0,1,1,7623325,pdf,5CE74C7E3D4EA3EC20614C1BC7FDB3C3,,,_357842.5ce74c7e3d4ea3ec20614c1bc7fdb3c3.pdf,0,2000-01-01 01:00:00,2016-04-03 02:51:08,636000/5ce74c7e3d4ea3ec20614c1bc7fdb3c3-d.jpg,,
21930648,Careers in Criminal Profiling,,Careers in Forensics,,Janey Levy,2008,,The Rosen Publishing Group,,65,0,English ,,,до 2011-08,"1404213422,9781404213425",,,,,363.25,HV6080 .L55 2008,,B3j5J3lOThQC,OL16499069M,,0,,,,1,1,1,1,9294417,pdf,79FD06C91D576B30B91677630216AD24,,,_357843.79fd06c91d576b30b91677630216ad24.pdf,0,2000-01-01 01:00:00,2016-04-03 02:51:08,636000/79fd06c91d576b30b91677630216ad24-d.jpg,,
21930649,Google: Sehen und Können. Bild für Bild,,,,Joe Betz,2008,,Markt und Technik,,263,0,German ,,,до 2011-08,"3827243769,9783827243768",,,,,,,,,,,0,,,,,1,1,1,13084454,pdf,0680DEBFE121DF1B0D77D2F6A8E1121B,,,_357844.0680debfe121df1b0d77d2f6a8e1121b.pdf,0,2000-01-01 01:00:00,2016-04-03 02:51:08,636000/0680debfe121df1b0d77d2f6a8e1121b-d.jpg,,
21930650,Ars Orientalis 33 (2003),33,,,Smithsonian Institution,2003,,Smithsonian Institution,,214,0,English ,,,до 2011-08,,0571-1371,,,,,,,,,,0,,,,1,1,1,1,48151020,pdf,CA7954723DC07C078CB6757B64D3FA38,,,_357845.ca7954723dc07c078cb6757b64d3fa38.pdf,0,2000-01-01 01:00:00,2016-04-03 02:51:08,636000/ca7954723dc07c078cb6757b64d3fa38-g.jpg,,
21930651,"Genes, Peoples and Languages",,,,Luigi Luca Cavalli-Sforza,2001,,Penguin Books,,241,0,English ,,,до 2011-08,"0140296026,9780140296020",,,,,,,,PMs8PgAACAAJ,OL18767918M,,0,,,,1,0,1,1,9571911,pdf,A253614DCC18597507CF986583955B05,,,_357847.a253614dcc18597507cf986583955b05.pdf,0,2000-01-01 01:00:00,2016-04-03 02:51:08,636000/a253614dcc18597507cf986583955b05-d.jpg,,
21930652,Uralisztika. Uráli nyelvészet,,,,Szerk. Kozmács István-Sipőcz Katalin,2006,,Bölcsész Konzorcium,,169,0,Hungarian ,,,до 2011-08,,,,,,,,,,,complete,0,,,,1,1,,1,967173,pdf,97964DC1D7BC0774E0F86F5BB2F8C856,,,_357848.97964dc1d7bc0774e0f86f5bb2f8c856.pdf,0,2000-01-01 01:00:00,2016-04-03 02:51:08,636000/97964dc1d7bc0774e0f86f5bb2f8c856-g.jpg,,
21930653,15-minute Italian (Eyewitness Travel Language 15 Minute Guides),,Eyewitness Travel Language 15 Minute Guides,,Francesca Logi,2005,,Dorling Kindersley Publishing,,162,0,English ,,,до 2011-08,"0756609240,9780756609245,0756609291,9780756609290",,,,,458.2/421,PC1129.E5 L64 2005,,tPhDov1RVfIC,OL3439531M,,0,,,,1,0,1,1,11594414,pdf,FE089EDF61E98E52E72D9E65CD6582E2,,,_357849.fe089edf61e98e52e72d9e65cd6582e2.pdf,0,2000-01-01 01:00:00,2016-04-03 02:51:08,636000/fe089edf61e98e52e72d9e65cd6582e2-d.jpg,,
21930654,Responsible Investment and the Claim of Corporate Change,,EBS Forschung 79,,Elisa M. Zarbafi,2011,,Gabler,,301,0,English ,,,до 2011-08,"3834919764,9783834919762",,,,,,,,1eJfuO6pjTcC,,,0,,,,1,0,1,1,1424977,pdf,B0AF75221796EC97D0F0F1531BF0DEC0,,,_357850.b0af75221796ec97d0f0f1531bf0dec0.pdf,0,2000-01-01 01:00:00,2016-04-03 02:51:08,636000/b0af75221796ec97d0f0f1531bf0dec0-d.jpg,,
21930655,Understanding Cultural Geography: Places and Traces,,,,Jon Anderson,2009,1,Routledge,,231,0,English ,,,до 2011-08,"0415430550,9780415430555,0415430542,9780415430548,0203872371,9780203872376",,,,,304.2,GF41 .A475 2009,,-r9rpqP3kOoC,OL10206199M,,0,,,,1,0,1,1,6271415,pdf,D73F4B93C12102359424CE142230D9C8,,,_357851.d73f4b93c12102359424ce142230d9c8.pdf,0,2000-01-01 01:00:00,2016-04-03 02:51:08,636000/d73f4b93c12102359424ce142230d9c8-d.jpg,,
21930656,"Animating Difference: Race, Gender, and Sexuality in Contemporary Films for Children (Perspectives on a Multiracial America)",,Perspectives on a Multiracial America,,"C. Richard King, Carmen R. Lugo-Lugo, Mary K. Bloodsworth-Lugo (Editors)",2010,,Rowman & Littlefield Publishers,,205,0,English ,,,до 2011-08,"0742560813,9780742560819,1442201959,9781442201958",,,,,302.23/43083,HM1091 .K56 2010,,OKxb2idYnu8C,OL23654712M,,0,,,,1,0,1,1,1044482,pdf,A50D1C741B07DBEBAF4AA291FBB68CB9,,,_357853.a50d1c741b07dbebaf4aa291fbb68cb9.pdf,0,2000-01-01 01:00:00,2016-04-03 02:51:08,636000/a50d1c741b07dbebaf4aa291fbb68cb9-d.jpg,,
21930657,Measuring Internal Auditing’s Value,,,,"Jiin-Feng Chen, PhD, CIA, CPA  Wan-Ying Lin, DBA",,,,,83,0,English ,,,до 2011-08,9780894136986,,,,,,,,,,,0,,,,,1,,1,1085792,pdf,991D08ADA113F4E9D89EF568A0FCE352,,,_357854.991d08ada113f4e9d89ef568a0fce352.pdf,0,2000-01-01 01:00:00,2016-04-03 02:51:08,636000/991d08ada113f4e9d89ef568a0fce352-g.jpg,,
21930658,Damage Control,,,,Robert Dugoni,2007,,Warner Books,,318,0,English ,,,до 2011-08,9780759518162,,,,,,,,SYWztpaYuLoC,OL24255894M,,0,,,,,1,1,1,421837,epub,8CB9CEEAC2CEEE47CD8D2BA16030626A,,,_357855.8cb9ceeac2ceee47cd8d2ba16030626a.epub,0,2000-01-01 01:00:00,2016-04-03 02:51:08,636000/8CB9CEEAC2CEEE47CD8D2BA16030626A-g.jpg,,
21930659,Határvédelemre utaló helynevek az Árpád-korban,,,,Kovács Helga,2010,,,,26,0,Hungarian ,,,до 2011-08,,,,,,,,,,,complete,0,,,,1,1,,1,1916030,pdf,364D8C868D0AE8F40658095DA25F4543,,,_357858.364d8c868d0ae8f40658095da25f4543.pdf,0,2000-01-01 01:00:00,2016-04-03 02:51:08,636000/364d8c868d0ae8f40658095da25f4543-g.jpg,,
21930660,The Jury Master,,,,Robert Dugoni,2006,,Warner Books,,377,0,English ,,,до 2011-08,9780446539654,,,,,,,,Kq0DoxNEZooC,,,0,,,,,1,1,1,422042,epub,5BD16672C568C936D79AD1002CD94101,,,_357859.5bd16672c568c936d79ad1002cd94101.epub,0,2000-01-01 01:00:00,2016-04-03 02:51:08,636000/5BD16672C568C936D79AD1002CD94101-g.jpg,,
21930661,Honfoglalás előtti török jövevényszavaink,,,,Gombocz Zoltán,1908,,Magyar Nyelvtudományi Társaság,,120,0,Hungarian ,,,до 2011-08,,,,,,,,,,,complete,0,,,,1,1,,1,6173769,pdf,329650A1DF6AC5DB5C8FB7E4FA7E636F,,,_357860.329650a1df6ac5db5c8fb7e4fa7e636f.pdf,0,2000-01-01 01:00:00,2016-04-03 02:51:08,636000/329650a1df6ac5db5c8fb7e4fa7e636f-g.jpg,,
21930662,Teaching theatre today: pedagogical views of theatre in higher education,,,,"Anne L. Fliotsos, Gail S. Medford",2004,,Palgrave Macmillan,,266,0,English ,,,до 2011-08,"1403966885,9781403966889",,,,,792/.071/173,PN2078.U6 T33 2004,,,OL3694233M,,0,,,,1,0,1,1,1039050,pdf,56D00A7D68247597A86EE154545E9318,,,_357862.56d00a7d68247597a86ee154545e9318.pdf,0,2000-01-01 01:00:00,2016-04-03 02:51:08,636000/56d00a7d68247597a86ee154545e9318-d.jpg,,
21930663,Statistical Methods for the Evaluation of University Systems,,Contributions to Statistics,,"Lorenzo Bernardi (auth.), Massimo Attanasio, Vincenza Capursi (eds.)",2011,1,Physica-Verlag Heidelberg,,282,0,English,,,до 2011-08,"3790823740,9783790823745",,,,,,,10.1007/978-3-7908-2375-2,62ePBnL-5YwC,,,0,,,,0,0,1,1,4024132,pdf,4BAF4DDF9095E7F7CD04126CB9FDE06E,,,_357863.4baf4ddf9095e7f7cd04126cb9fde06e.pdf,0,2000-01-01 01:00:00,2016-04-03 02:51:08,636000/4baf4ddf9095e7f7cd04126cb9fde06e-d.jpg,,
21930664,Les Hauts de Hurle-Vent,,,,Emily Brontë,2000,,Ed. de Fallois,,448,0,French ,,,до 2011-08,"2877062643,9782877062640",,,,,,,,,OL12640934M,,0,,,,,1,1,1,971700,pdf,BCA1C446C9E11175C2B5CA8A61AC3164,,,_357864.bca1c446c9e11175c2b5ca8a61ac3164.pdf,0,2000-01-01 01:00:00,2016-04-03 02:51:08,636000/bca1c446c9e11175c2b5ca8a61ac3164-d.jpg,,
21930665,Multiplicative Functionals on Topological Algebras (Research Notes in Mathematics Series),,,,T. Husain,1983,,Pitman Advanced Publishing Program,,159,0,English ,,,до 2011-08,"0273086081,9780273086086",,,,,512/.55,QA326,,,OL21229534M,,0,,,,,1,,0,33817914,pdf,AFA00EF9EDB1F77452CD3602D7B272F6,,,_357866.afa00ef9edb1f77452cd3602d7b272f6.pdf,0,2000-01-01 01:00:00,2016-04-03 02:51:08,636000/afa00ef9edb1f77452cd3602d7b272f6-g.jpg,,
21930666,101 More Illustrated Crossword Puzzles,,,,John F. Chabot,1999,,Full Blast Productions,,150,0,English ,,,до 2011-08,"1895451310,9781895451313",,,,,,,,,OL12222893M,,0,,,,1,0,1,1,5149219,pdf,E48168D6C16670B1599E856533A782B7,,,_357868.e48168d6c16670b1599e856533a782b7.pdf,0,2000-01-01 01:00:00,2016-04-03 02:51:08,636000/e48168d6c16670b1599e856533a782b7-d.jpg,,
21930667,100 Thematic Word Search Puzzles,,,,John F. Chabot,2002,,Full Blast Productions,,137,0,English ,,,до 2011-08,"1895451450,9781895451450",,,,,,,,,OL12222903M,,0,,,,1,0,1,1,1163620,pdf,1E5FE2D575C7D9116CF78A15A6A2FCE7,,,_357871.1e5fe2d575c7d9116cf78a15a6a2fce7.pdf,0,2000-01-01 01:00:00,2016-04-03 02:51:08,636000/1e5fe2d575c7d9116cf78a15a6a2fce7-d.jpg,,
21930668,Jeannie Out of the Bottle,,,,Barbara Eden,2011,,Crown Publishing Group,,,0,English ,,,до 2011-08,9780307886958,,,,,"791.4502/8092,B",PN2287.E384 A3 2011,,,OL25004231M,,0,,,,,0,1,1,5949338,epub,BF64EB8EB6F0412F3C0B185853772E67,,,_357872.bf64eb8eb6f0412f3c0b185853772e67.epub,0,2000-01-01 01:00:00,2016-04-03 02:51:08,636000/BF64EB8EB6F0412F3C0B185853772E67-g.jpg,,
21930669,Recent Trends in Toeplitz and Pseudodifferential Operators: The Nikolai Vasilevskii Anniversary Volume,,Operator Theory: Advances and Applications 210,,"Roland V. Duduchava, Israel Gohberg, S. M. Grudsky, Vladimir Rabinovich",2010,1st Edition.,Springer Basel,,274,0,English ,,,до 2011-08,"3034605471,9783034605472",,,,,,,,kUeNhjGAU1UC,,,0,,,,,0,1,1,4450033,pdf,DDDC1345E96F220FFF9C2AB932C6E358,,,_357873.dddc1345e96f220fff9c2ab932c6e358.pdf,0,2000-01-01 01:00:00,2016-04-03 02:51:08,636000/dddc1345e96f220fff9c2ab932c6e358-d.jpg,,
21930670,Dialysis access: current practice,,,,"J. A. Akoh, Nadey S. Hakim",2001,,Imperial College Press,,418,0,English ,,,до 2011-08,"1860941699,9781860941696",,,,,,,,SWXopWfzXGAC,OL8627967M,,0,,,,0,1,0,1,29100386,pdf,FFBBFEE59644AF12D35061C18CE37533,,,_357874.ffbbfee59644af12d35061c18ce37533.pdf,0,2000-01-01 01:00:00,2016-04-03 02:51:08,636000/ffbbfee59644af12d35061c18ce37533-d.jpg,,
21930671,Self-Defense for Women,,,,Lavinia Soo-Warr,2009,,The Rosen Publishing Group,,258,0,English ,,,до 2011-08,"143585358X,9781435853584",,,,,613.6/6082,GV1111.5 .S67 2010,,ze0ep1oHfJMC,OL23181030M,,0,,,,1,1,1,1,39944134,pdf,7956B9B118D83041C55E43C3D427B916,,,_357875.7956b9b118d83041c55e43c3d427b916.pdf,0,2000-01-01 01:00:00,2016-04-03 02:51:08,636000/7956b9b118d83041c55e43c3d427b916-d.jpg,,
21930672,E-Learning in the University: Some Constructionist Perspectives,,,,Gayle Morris; Gloria Latham,2005,,RMIT Publishing,,130,0,English ,,,до 2011-08,"1921166029,9781921166020",,,,,,,,,,,0,,,,1,0,1,1,619401,pdf,07260F2453F1F0327B14CA38540C3DB7,,,_357876.07260f2453f1f0327b14ca38540c3db7.pdf,0,2000-01-01 01:00:00,2016-04-03 02:51:08,636000/07260f2453f1f0327b14ca38540c3db7-g.jpg,,
21930673,"Territorial Governance: Local Development, Rural Areas and Agrofood Systems",,,,"Aliye Ahu Gülümser, Tüzin Baycan-Levent, Peter Nijkamp (auth.), André Torre, Jean-Baptiste Traversac (eds.)",2011,1,Physica-Verlag Heidelberg,,207,0,English,,,до 2011-08,"3790824216,9783790824216",,,,,,,10.1007/978-3-7908-2422-3,riWwpeIqvGQC,,,0,,,,1,0,1,1,1227048,pdf,69ED30AD921871CA06EFCF4CFA926AB6,,,_357877.69ed30ad921871ca06efcf4cfa926ab6.pdf,0,2000-01-01 01:00:00,2016-04-03 02:51:08,636000/69ed30ad921871ca06efcf4cfa926ab6-d.jpg,,
21930674,Doing Developmental Phenomenography,,,,John A Bowden and Pam Green,2005,,RMIT Publishing,,188,0,English ,,,до 2011-08,"1921166037,9781921166037",,,,,,,,,,,0,,,,1,0,1,1,671976,pdf,0B8A5AA264E2EF380FAE3A70AD3D7DF0,,,_357879.0b8a5aa264e2ef380fae3a70ad3d7df0.pdf,0,2000-01-01 01:00:00,2016-04-03 02:51:08,636000/0b8a5aa264e2ef380fae3a70ad3d7df0-g.jpg,,
21930675,The Idea of Private Law,,,,Ernest J. Weinrib,1995,,Harvard University Press,,124,0,English ,,,до 2011-08,"0674442121,9780674442122",,,,,"346/.001,342.601",K600.Z9 W45 1995,,,OL1097485M,,0,,,,,1,,0,16261833,pdf,5BB5FB5BF998B5948ADA457E6D5DEB18,,,_357881.5bb5fb5bf998b5948ada457e6d5deb18.pdf,0,2000-01-01 01:00:00,2016-04-03 02:51:08,636000/5bb5fb5bf998b5948ada457e6d5deb18-d.jpg,,
21930676,Children Learning Second Languages,,,,Annamaria Pinter,2011,,Palgrave Macmillan,,313,0,English ,,,до 2011-08,"0230203426,9780230203426,0230203418,9780230203419",,,,,372.65,P118.2 .P56 2010,,,OL24494603M,,0,,,,1,0,1,1,1099517,pdf,63AC9BFBE4E5B7F9CE6A52421F9F84C8,,,_357882.63ac9bfbe4e5b7f9ce6a52421f9f84c8.pdf,0,2000-01-01 01:00:00,2016-04-03 02:51:08,636000/63ac9bfbe4e5b7f9ce6a52421f9f84c8-d.jpg,,
21930677,You Can't Be Neutral on a Moving Train: A Personal History of Our Times,,,,Howard Zinn,2002,,Beacon Press,,,0,English ,,,до 2011-08,9780807071274,,,,,,,,,,,0,,,,,1,,,185652,epub,E244837743FE84529B89EB2E95AB6DD7,,,_357883.e244837743fe84529b89eb2e95ab6dd7.epub,0,2000-01-01 01:00:00,2016-04-03 02:51:08,636000/e244837743fe84529b89eb2e95ab6dd7-d.jpg,,
21930678,"Television, tabloids, and tears: Fassbinder and popular culture",,,,Jane Shattuc,1995,Minnesota Archive Editions,University of Minnesota Press,,273,0,English ,,,до 2011-08,"0816624550,9780816624553",,,,,791.43/0233/092,PN1998.3.F37 S52 1995,,J-lzjh4Tbp4C,OL1105235M,,0,,,,1,1,1,1,13762345,pdf,C1A5F5E115C52741F1E2F283AE5A0592,,,_357884.c1a5f5e115c52741f1e2f283ae5a0592.pdf,0,2000-01-01 01:00:00,2016-04-03 02:51:08,636000/c1a5f5e115c52741f1e2f283ae5a0592-d.jpg,,
21930679,A Hard Day's Fright (A Pepper Martin Mystery),,,,Casey Daniels,2011,,Penguin Group (USA),,304,0,English ,,,до 2011-08,9781101477595,,,,,,,,,,,0,,,,,0,1,1,249896,epub,3665257C77ED54741A84F1380085BDFC,,,_357885.3665257c77ed54741a84f1380085bdfc.epub,0,2000-01-01 01:00:00,2016-04-03 02:51:08,636000/3665257C77ED54741A84F1380085BDFC-g.jpg,,
21930680,Ice World: Techniques and Experiences of Modern Ice Climbing,,,,Jeff Lowe,1996,1st Ed.,Mountaineers Books,,255,0,English ,,,до 2011-08,"0898864461,9780898864465",,,,,796.9,GV200.3 .L677 1996,,,OL795844M,,0,,,,,1,1,0,73397738,pdf,EB7507BA1520C392E36889DD0D4984EC,,,_357886.eb7507ba1520c392e36889dd0d4984ec.pdf,0,2000-01-01 01:00:00,2016-04-03 02:51:08,636000/eb7507ba1520c392e36889dd0d4984ec-d.jpg,,
21930681,Addiction and change: how addictions develop and addicted people recover,,Guilford substance abuse series,,Carlo C. DiClemente,2003,1,Guilford Press,,336,0,English ,,,до 2011-08,"1572300574,9781572300576",,,,,616.86′ 03—dc21,RC564.D535 2003,,,OL8733964M,,0,,,,0,0,0,1,2522448,pdf,4A687E781AFFB7CFC05253A9E831A4D5,,,_357887.4a687e781affb7cfc05253a9e831a4d5.pdf,0,2000-01-01 01:00:00,2016-04-03 02:51:08,636000/4a687e781affb7cfc05253a9e831a4d5-d.jpg,,
21930682,Biofuels,,Advances in Biochemical Engineering/Biotechnology 108,,"José Manuel Otero, Gianni Panagiotou, Lisbeth Olsson (auth.), Lisbeth Olsson (eds.)",2007,1,Springer-Verlag Berlin Heidelberg,,368,0,English,17,,до 2011-08,"3540736506,9783540736509",0724-6145,,,,,,10.1007/978-3-540-73651-6,MEUBsx1heHAC,,,0,,,,0,0,1,1,6739634,pdf,51DD3D3E05ADB3A911C82278EE25956F,,,_357889.51dd3d3e05adb3a911c82278ee25956f.pdf,0,2000-01-01 01:00:00,2016-04-03 02:51:08,636000/51dd3d3e05adb3a911c82278ee25956f-d.jpg,,
21930683,Media scandals,,,,Alan Bisbort,2008,,Greenwood Press,,258,0,English ,,,до 2011-08,"0313347654,9780313347658",,,,,302.23,P96.S29 .B57 2008,,3-4Yjb4C2JUC,OL16873454M,,0,,,,1,1,1,1,1785468,pdf,47AD653ABCA7046346A7EE7AB6C8B4FB,,,_357890.47ad653abca7046346a7ee7ab6c8b4fb.pdf,0,2000-01-01 01:00:00,2016-04-03 02:51:08,636000/47ad653abca7046346a7ee7ab6c8b4fb-d.jpg,,
21930684,The Sociology of Elite Distinction: From Theoretical to Comparative Perspectives,,,,Jean-Pascal Daloz,2009,,Palgrave Macmillan,,231,0,English ,,,до 2011-08,"0230220274,9780230220270",,,,,305.5/2,HN460.E4 .D35 2009,,,OL23935876M,,0,,,,1,0,1,1,1243018,pdf,97B96A400A313CBC8371AFBD0C7611FC,,,_357891.97b96a400a313cbc8371afbd0c7611fc.pdf,0,2000-01-01 01:00:00,2016-04-03 02:51:08,636000/97b96a400a313cbc8371afbd0c7611fc-d.jpg,,
21930685,"Extreme Alpinism: Climbing Light, Fast, and High",,,,"Mark F. Twight, James Martin",1999,1st,The Mountaineers,,238,0,English ,,,до 2011-08,"0898866545,9780898866544",,,,,796.52/2,GV200 .T95 1999,,,OL530107M,,0,,,,,1,1,1,76889344,pdf,FB70934AD2A326F665C0AB32C52F95A8,,,_357892.fb70934ad2a326f665c0ab32c52f95a8.pdf,0,2000-01-01 01:00:00,2016-04-03 02:51:08,636000/fb70934ad2a326f665c0ab32c52f95a8-d.jpg,,
21930686,C.S. Lewis: a philosophy of education,,,,"Steven R. Loomis, Jacob P. Rodriguez",2009,1st,Palgrave Macmillan,,247,0,English ,,,до 2011-08,"023060577X,9780230605770",,,,,370.1,LB14.7 .L67 2009,,,OL23174530M,,0,,,,1,0,1,1,837440,pdf,03D7D47A127BD4690A5D5231BCB23C57,,,_357893.03d7d47a127bd4690a5d5231bcb23c57.pdf,0,2000-01-01 01:00:00,2016-04-03 02:51:08,636000/03d7d47a127bd4690a5d5231bcb23c57-d.jpg,,
21930687,Reforming New Zealand secondary education: the Picot Report and the road to radical reform,,,,Roger Openshaw,2009,,Palgrave Macmillan,,267,0,English ,,,до 2011-08,"0230606261,9780230606265",,,,,379.93,LA2126 .O64 2009,,,OL23054719M,,0,,,,1,0,1,1,1813017,pdf,6E459A5883C1AC804D2EA877072660FF,,,_357894.6e459a5883c1ac804d2ea877072660ff.pdf,0,2000-01-01 01:00:00,2016-04-03 02:51:08,636000/6e459a5883c1ac804d2ea877072660ff-d.jpg,,
21930688,The Tai Chi Handbook,,,,Ray Pawlett,2009,,The Rosen Publishing Group,,249,0,English ,,,до 2011-08,"1435853601,9781435853607",,,,,613.7/148,GV504.6.W66 P39 2009,,jiJW6FRFi8MC,OL23180986M,,0,,,,1,1,1,1,14314915,pdf,CC54BEFA4A16576A16BCA7CF8D2449CE,,,_357895.cc54befa4a16576a16bca7cf8d2449ce.pdf,0,2000-01-01 01:00:00,2016-04-03 02:51:08,636000/cc54befa4a16576a16bca7cf8d2449ce-d.jpg,,
21930689,"Sensor Networks with IEEE 802.15.4 Systems: Distributed Processing, MAC, and Connectivity",,Signals and Communication Technology,,"Chiara Buratti, Marco Martalò, Gianluigi Ferrari, Roberto Verdone (auth.)",2011,1,Springer-Verlag Berlin Heidelberg,,250,0,English,,,до 2011-08,"3642174892,9783642174896",1860-4862,,,,,,10.1007/978-3-642-17490-2,iuRmBlTmPnkC,,,0,,,,1,0,1,1,3052375,pdf,B5AD2B15FC62E04CB9164E5A6886B756,,,_357896.b5ad2b15fc62e04cb9164e5a6886b756.pdf,0,2000-01-01 01:00:00,2016-04-03 02:51:08,636000/b5ad2b15fc62e04cb9164e5a6886b756-d.jpg,,
21930690,Revolutionizing pedagogy: education for social justice within and beyond global neo-liberalism,,Marxism and Education,,"Sheila Macrine, Peter McLaren, Dave Hill",2009,1,Palgrave Macmillan,,288,0,English ,,,до 2011-08,"0230607993,9780230607996",,,,,370.11/5,HX526 .R49 2009,,,OL23833600M,,0,,,,1,0,1,1,1991092,pdf,DABD90F26986FA9C1F0AA3FCD7CB7C2D,,,_357897.dabd90f26986fa9c1f0aa3fcd7cb7c2d.pdf,0,2000-01-01 01:00:00,2016-04-03 02:51:08,636000/dabd90f26986fa9c1f0aa3fcd7cb7c2d-d.jpg,,
21930691,His Royal Prize   ,,,,Katherine Garbera,2010,,Silhouette Books,,,0,English ,,,до 2011-08,"9781426855122,1426855125",,,,,,,,,OL24300870M,,0,,,,,0,1,1,563033,epub,114AB2B69CC0CF7D49D7525A85739482,,,_357898.114ab2b69cc0cf7d49d7525a85739482.epub,0,2000-01-01 01:00:00,2016-04-03 02:51:08,636000/114AB2B69CC0CF7D49D7525A85739482-g.jpg,,
21930692,,,Advances in Space Biology and Medicine 7,,Sjoerd L. Bontinc (Eds.),1999,1,Elsevier Science,,"iii-x, 1-251",0,English ,,,до 2011-08,978-0-7623-0393-9,1569-2574,,,,,,,,OL8031881M,,0,,,,0,1,1,1,14079971,pdf,E968696C7370BD4C0D00D80CA1A22BB8,,,_357899.e968696c7370bd4c0d00d80ca1a22bb8.pdf,0,2000-01-01 01:00:00,2016-04-03 02:51:08,636000/e968696c7370bd4c0d00d80ca1a22bb8-d.jpg,,
21930693,La conga delle banane,,,,Hugo Pratt,,,Lizard,,37,0,Italian ,,,до 2011-08,"8886456336,9788886456333",,,,,741,PN6767.P7 C66 1997,,,OL18997064M,,0,,,,,1,0,0,16163493,pdf,D48680CB7D838F8C653E13A591DB5AFE,,,_357900.d48680cb7d838f8c653e13a591db5afe.pdf,0,2000-01-01 01:00:00,2016-04-03 02:51:08,636000/d48680cb7d838f8c653e13a591db5afe-g.jpg,,
21930694,Földrajzi köznevek az ómagyar kor mikrotoponimáiban,,,,Iscsenkó Natália,2009,,,,42,0,Hungarian ,,,до 2011-08,,,,,,,,,,,,0,,,,1,1,,1,277173,pdf,5297145F15A266C968BD9BC4A3A51829,,,_357901.5297145f15a266c968bd9bc4a3a51829.pdf,0,2000-01-01 01:00:00,2016-04-03 02:51:08,636000/5297145f15a266c968bd9bc4a3a51829-g.jpg,,
21930695,Hegel's Critique of Modernity: Reconciling Individual Freedom and the Community,,,,Timothy C. Luther,2009,,Lexington Books,,413,0,English ,,,до 2011-08,"0739129791,9780739129791",,,,,323.44,JC233.H433 L87 2009,,,OL23165662M,,0,,,,1,0,1,1,1272765,pdf,D3B8C111AEDE62DE0C9AC6F922500B7E,,,_357902.d3b8c111aede62de0c9ac6f922500b7e.pdf,0,2000-01-01 01:00:00,2016-04-03 02:51:08,636000/d3b8c111aede62de0c9ac6f922500b7e-d.jpg,,
21930696,Environmental Chemistry,,,,"Colin Baird, Michael Cann",2008,4th,W. H. Freeman,,831,0,English ,,,до 2011-08,"1429201460,9781429201469",,,,,,,,,OL8543831M,,0,,,,,1,,1,214343353,pdf,E8EB53EF1DC8D31A36A54FBD401A70FA,,,_357903.e8eb53ef1dc8d31a36a54fbd401a70fa.pdf,0,2000-01-01 01:00:00,2016-04-03 02:51:08,636000/e8eb53ef1dc8d31a36a54fbd401a70fa-d.jpg,,
21930697,Creating Organizational Advantage,,,,Colin Egan,1995,,Butterworth-Heinemann,,,0,English ,,,до 2011-08,"0750619376,9780750619370",,,,,658.4/012,HD30.28 .E328 1995,,,OL537539M,,0,,,,,1,,,1028386,chm,5AF86C6B797A955B63DB2AD64842E19D,,,_357904.5af86c6b797a955b63db2ad64842e19d.chm,0,2000-01-01 01:00:00,2016-04-03 02:51:08,636000/5af86c6b797a955b63db2ad64842e19d-d.jpg,,
21930698,Przewodnik Mistrza Podziemi,,,,"Monte Cook, Jonathan Tweet, Skip Williams",2009,,Isa,,323,0,Polish ,,,до 2011-08,"837418115X,9788374181150",,,,,,,,,,,0,,,,,1,1,0,82126376,pdf,723196C1BDEC2837B3E4B0E062C1F511,,,_357905.723196c1bdec2837b3e4b0e062c1f511.pdf,0,2000-01-01 01:00:00,2016-04-03 02:51:08,636000/723196c1bdec2837b3e4b0e062c1f511-g.jpg,,
21930699,Core Competencies for Today’s Internal Auditor,,,,"James A. Bailey, PhD, CIA, CPA",2010,,Inst of Internal Auditors,,106,0,English ,,,до 2011-08,9780894136979,,,,,,,,,,,0,,,,,1,,1,3591739,pdf,8A8928967432C0E5366427DEE9880A6F,,,_357906.8a8928967432c0e5366427dee9880a6f.pdf,0,2000-01-01 01:00:00,2016-04-03 02:51:08,636000/8a8928967432c0e5366427dee9880a6f-g.jpg,,
21930700,Bogumili: Studija o balkanskom neomaniheizmu,,,,Dmitri Obolensky,2008,,MISL,,168,0,Croatian ,,,до 2011-08,9789536306879,,,,,,,,,,,0,,,,0,1,1,1,13731155,pdf,161D0F41B7751D7CED043510A007E9D1,,,_357907.161d0f41b7751d7ced043510a007e9d1.pdf,0,2000-01-01 01:00:00,2016-04-03 02:51:08,636000/161d0f41b7751d7ced043510a007e9d1-g.jpg,,
21930701,Violence and the Sacred,,,,René Girard,1979,,The Johns Hopkins University Press,,342,0,English ,,,до 2011-08,"0801822181,9780801822186,0801819636,9780801819636",,,,,291.3/4,BL600 .G5413,,,OL16605877M,,0,,,,1,1,1,1,18250818,pdf,74348A30B27411947FFC0FD1993D9F01,,,_357908.74348a30b27411947ffc0fd1993d9f01.pdf,0,2000-01-01 01:00:00,2016-04-03 02:51:08,636000/74348a30b27411947ffc0fd1993d9f01-d.jpg,,
21930702,Redrawing the nation: national identity in Latin-o American comics,,New Directions in Latino American Culture,,"Héctor Fernández L'Hoeste, Juan Poblete",2009,,Palgrave Macmillan,,287,0,English ,,,до 2011-08,"0230613128,9780230613126,023061311X,9780230613119",,,,,,,,,,,0,,,,1,0,1,1,7853024,pdf,246FF3384B22FE4E6B7D31D2F56B10BF,,,_357910.246ff3384b22fe4e6b7d31d2f56b10bf.pdf,0,2000-01-01 01:00:00,2016-04-03 02:51:08,636000/246ff3384b22fe4e6b7d31d2f56b10bf-d.jpg,,
21930703,Characteristics of an Internal Audit Activity,,,,The IIA Research Foundation,2010,,Inst of Internal Auditors,,78,0,English ,,,до 2011-08,9780894136955,,,,,,,,,,,0,,,,,1,,0,1423128,pdf,138671FA2F580B824FAFB7355DA8DA8D,,,_357911.138671fa2f580b824fafb7355da8da8d.pdf,0,2000-01-01 01:00:00,2016-04-03 02:51:08,636000/138671fa2f580b824fafb7355da8da8d-g.jpg,,
21930704,Politics and Violence in Cuban and Argentine Theater,,,,Katherine Ford,2010,,Palgrave Macmillan,,242,0,English ,,,до 2011-08,"0230613144,9780230613140",,,,,862/.6093581,PQ7381 .F67 2010,,,OL23554327M,,0,,,,1,0,1,1,1509950,pdf,8C2F56C144E4211A1184369D94EE7735,,,_357912.8c2f56c144e4211a1184369d94ee7735.pdf,0,2000-01-01 01:00:00,2016-04-03 02:51:08,636000/8c2f56c144e4211a1184369d94ee7735-d.jpg,,
21930705,Critical pedagogy in uncertain times: hope and possibilities,,"Education, Politics and Public Life",,Sheila L. Macrine,2009,,Palgrave Macmillan,,241,0,English ,,,до 2011-08,"0230613209,9780230613201",,,,,370.11/5,LC196 .C757 2009,,,OL23054737M,,0,,,,1,0,1,1,1690419,pdf,A0C7EA27185EAFA6776F6588EFBFD889,,,_357913.a0c7ea27185eafa6776f6588efbfd889.pdf,0,2000-01-01 01:00:00,2016-04-03 02:51:08,636000/a0c7ea27185eafa6776f6588efbfd889-d.jpg,,
21930706,Von der freiwilligen Knechtschaft des Menschen,,,,Étienne de La Boëtie,,,,,14,0,German ,,,до 2011-08,,,,,,,,,,,,0,,,,,1,1,1,93544,pdf,9CA95E02EF3D285F678E2B5DA3008B0B,,,_357914.9ca95e02ef3d285f678e2b5da3008b0b.pdf,0,2000-01-01 01:00:00,2016-04-03 02:51:08,636000/9ca95e02ef3d285f678e2b5da3008b0b-g.jpg,,
21930707,Smart Alliances: A Practical Guide to Repeatable Success (A Strategy & Business Book),,,,"John R. Harbison, Jr. Peter Pekar",1998,1,Jossey-Bass,,,0,English ,,,до 2011-08,"0787943266,9780787943264",,,,,658/.044,HD69.S8 H373 1998,,,OL354454M,,0,,,,,1,,,4435212,chm,34DA4CF4E693309620089DA1944B8D18,,,_357915.34da4cf4e693309620089da1944b8d18.chm,0,2000-01-01 01:00:00,2016-04-03 02:51:08,636000/34da4cf4e693309620089da1944b8d18-d.jpg,,
21930708,Encyclopedia of Indo-European Culture,,,,"James Mallory, D.Q. Adams",1997,Ill,Routledge,,875,0,English ,,,до 2011-08,"1884964982,9781884964985",,,,,305.8/034,CB201 .E53 1997,,,OL402075M,,0,,,,1,1,1,1,203160963,pdf,1CC525FAB498B456A834707677C61728,,,_357916.1cc525fab498b456a834707677c61728.pdf,0,2000-01-01 01:00:00,2016-04-03 02:51:08,636000/1cc525fab498b456a834707677c61728-d.jpg,,
21930709,Anaphora and Language Design (Linguistic Inquiry Monographs),,,,Eric Reuland,2011,,The MIT Press,,462,0,English ,,,до 2011-08,"0262015056,9780262015059",,,,,401/.456,P299.A5 R48 2011,,,OL24553224M,,0,,,,1,1,1,1,11056309,pdf,1E510CAB816F7A099B52DC951A1AF12C,,,_357917.1e510cab816f7a099b52dc951a1af12c.pdf,0,2000-01-01 01:00:00,2016-04-03 02:51:08,636000/1e510cab816f7a099b52dc951a1af12c-d.jpg,,
21930710,Global Alliances in Tourism and Hospitality Management,,,,"Dimitrios Buhalis, John C Crotts",2000,1,Routledge,,169,0,English ,,,до 2011-08,"0789008181,9780789008183",,,,,,,,,OL8152098M,,0,,,,,1,,1,13304200,pdf,7F6A2AD4BDBBAF544E6EDBE6BE8653C9,,,_357918.7f6a2ad4bdbbaf544e6edbe6be8653c9.pdf,0,2000-01-01 01:00:00,2016-04-03 02:51:08,636000/7f6a2ad4bdbbaf544e6edbe6be8653c9-d.jpg,,
21930711,"Horace: Image, Identity, and Audience",,,,Randall L. B. McNeill,2001,,The Johns Hopkins University Press,,201,0,English ,,,до 2011-08,"0801866669,9780801866661",,,,,874/.01,PA6411 .M335 2001,,b5wIk_OHWhQC,OL6777251M,,0,,,,1,0,1,1,1156294,pdf,005109BCE4529EA8F463D31F75630BE8,,,_357920.005109bce4529ea8f463d31f75630be8.pdf,0,2000-01-01 01:00:00,2016-04-03 02:51:08,636000/005109bce4529ea8f463d31f75630be8-d.jpg,,
21930712,The Pilates Handbook,,,,Roger Brignell,2009,,The Rosen Publishing Group,,258,0,English ,,,до 2011-08,"143585361X,9781435853614",,,,,613.7/192,RA781.4 .B75 2009,,PG33Q6UJ3gsC,OL23180987M,,0,,,,1,1,1,1,23464814,pdf,0C1BBBED2E0EE196AA44B67297293DF0,,,_357921.0c1bbbed2e0ee196aa44b67297293df0.pdf,0,2000-01-01 01:00:00,2016-04-03 02:51:08,636000/0c1bbbed2e0ee196aa44b67297293df0-d.jpg,,
21930713,Exploring Monte Carlo Methods,,,,"William L. Dunn, J. Kenneth Shultis",2011,1,Academic Press (Elsevier),,391,0,English ,,,до 2011-08,"0444515755,9780444515759",,,,,518/.282,QA298 .D86 2012,10.1016/B978-0-444-51575-9.00018-X,,OL25008404M,ToC missing.,0,,,,1,0,1,1,6489191,pdf,AE16F817FFE481FD153C3E3A0C1DA2F3,,,_357922.ae16f817ffe481fd153c3e3a0c1da2f3.pdf,0,2000-01-01 01:00:00,2016-04-03 02:51:08,636000/ae16f817ffe481fd153c3e3a0c1da2f3-d.jpg,,
21930714,Very Low-Mass Stars and Brown Dwarfs (Cambridge Contemporary Astrophysics),,Cambridge Contemporary Astrophysics,,"Rafael Rebolo, Maria Rosa Zapatero-Osorio, Editors",2000,1,Cambridge University Press,,280,0,English ,,,до 2011-08,"0521663350,9780521663359",,,,,523.8/8,QB843.B77 V47 2000,,,OL3968286M,,0,,,,1,1,1,1,4737381,pdf,86F48A47D1E772546D9FF0EDA5A5697C,,,_357923.86f48a47d1e772546d9ff0eda5a5697c.pdf,0,2000-01-01 01:00:00,2016-04-03 02:51:08,636000/86f48a47d1e772546d9ff0eda5a5697c-d.jpg,,
21930715,The Economist - April 9th,,,,"The Economist Newspaper Group, Inc.",,,"The Economist Newspaper Group, Inc.",,125,0,English ,,,до 2011-08,,,,,,,,,,,,0,,,,1,1,1,0,69862570,pdf,762A9249ECAD5BC3190EE41165AAC019,,,_357926.762a9249ecad5bc3190ee41165aac019.pdf,0,2000-01-01 01:00:00,2016-04-03 02:51:08,636000/762a9249ecad5bc3190ee41165aac019-g.jpg,,
21930716,El curado de la carne y la elaboración tradicional de piezas curadas ahumadas,,,,Gustavo Andújar.,,,,,105,0,Spanish,,,до 2011-08,9789591610607,,,,,,,,,,,0,,,,,1,1,1,815125,pdf,1611A86D93D2739FE0A8693071017D61,,,_357927.1611a86d93d2739fe0a8693071017d61.pdf,0,2000-01-01 01:00:00,2016-04-03 02:51:08,636000/1611a86d93d2739fe0a8693071017d61-g.jpg,,
21930717,Krainy Wschodu,,,,James Wyatt,2004,,Isa,,256,0,Polish ,,,до 2011-08,"8374180307,9788374180306",,,,,,,,,,,0,,,,,1,,0,83124612,pdf,87F3D0B899E8AF62F8852F5C6DC57521,,,_357928.87f3d0b899e8af62f8852f5c6dc57521.pdf,0,2000-01-01 01:00:00,2016-04-03 02:51:08,636000/87f3d0b899e8af62f8852f5c6dc57521-g.jpg,,
21930718,Collected Poetry and Prose,,,,Dante Gabriel Rossetti,2003,First Edition,Yale University Press,,455,0,English ,,,до 2011-08,"0300098014,9780300098013,0300098022,9780300098020",,,,,821/.8,PR5242 .M38 2003,,,OL22535425M,,0,,,,0,0,0,1,2078609,pdf,506E21844DBF4686A932AF30F4727F8B,,,_357929.506e21844dbf4686a932af30f4727f8b.pdf,0,2000-01-01 01:00:00,2016-04-03 02:51:08,636000/506e21844dbf4686a932af30f4727f8b-d.jpg,,
21930719,Living in Ancient Greece,,Living in the Ancient World,,Norman Bancroft Hunt,2008,,Infobase Publishing,,97,0,English ,,,до 2011-08,"0816063397,9780816063390",,,,,938,DF77 .B257 2008,,hM2XT2tnbPIC,OL11360347M,,0,,,,0,0,0,1,34251914,pdf,E5A139E6279611F336171FCE98A29E29,,,_357930.e5a139e6279611f336171fce98a29e29.pdf,0,2000-01-01 01:00:00,2016-04-03 02:51:08,636000/e5a139e6279611f336171fce98a29e29-d.jpg,,
21930720,صفة الفتوى والمفتي والمستفتي,,,,الشيخ محمد ناصر الدين الالباني,,,,,121,0,Arabic ,,,до 2011-08,,,,,,,,,,,,0,,,,,1,1,0,1732306,pdf,400A67FB5D097571C97EFC8240A33686,,,_357931.400a67fb5d097571c97efc8240a33686.pdf,0,2000-01-01 01:00:00,2016-04-03 02:51:08,636000/400a67fb5d097571c97efc8240a33686-g.jpg,,
21930721,"Lie Groups, Lie Algebras, and Their Representation (Graduate Texts in Mathematics 102)",,,,V.S. Varadarajan,1984,,Springer,,446,0,English ,,,до 2011-08,"0387909699,9780387909691",,,,,512/.55,QA387 .V35 1984,,,OL2839570M,,600,,,,0,1,0,1,6118989,djvu,E034164825CA0800EAD75B548336AB88,,,_357933.e034164825ca0800ead75b548336ab88.djvu,0,2000-01-01 01:00:00,2016-04-03 02:51:08,636000/e034164825ca0800ead75b548336ab88-d.jpg,,
21930722,صحيح الكلم الطيب,,,,الشيخ محمد ناصر الدين الالباني,,,,,120,0,Arabic ,,,до 2011-08,,,,,,,,,,,,0,,,,,1,1,0,1885161,pdf,8C8C41D2EDD41841E4CC39CA4CAEBFE8,,,_357934.8c8c41d2edd41841e4cc39ca4caebfe8.pdf,0,2000-01-01 01:00:00,2016-04-03 02:51:08,636000/8c8c41d2edd41841e4cc39ca4caebfe8-g.jpg,,
21930723,South Africa: the Solution,,,,"Leon Louw, Frances Kendall",1986,,Amagi Publications,,250,0,English ,,,до 2011-08,"0620093714,9780620093712",,,,,306/.0968,HN801.A8 L68 1986,,o0MRe4nsM-EC,OL2308416M,,0,,,,1,0,1,1,4794284,pdf,A4E413F0C3CFA3298BDF3973CBF00976,,,_357937.a4e413f0c3cfa3298bdf3973cbf00976.pdf,0,2000-01-01 01:00:00,2016-04-03 02:51:08,636000/a4e413f0c3cfa3298bdf3973cbf00976-d.jpg,,
21930724,Star Wars. Die Corellianische Revolte-Der Hinterhalt (Corellia-Trilogie Band 1),,Star Wars-Die Corellianische Revolte Band 1 1 of 3,,Roger McBride Allen,1996,,Heyne Verlag,,453,0,German ,,,до 2011-08,"3453116194,9783453116191",,,,,,,,,OL9040819M,,0,,,,0,0,0,1,1936291,pdf,EBAA24E25B2FD42AC8D5FCE065B2CA61,,,_357940.ebaa24e25b2fd42ac8d5fce065b2ca61.pdf,0,2000-01-01 01:00:00,2016-04-03 02:51:08,636000/ebaa24e25b2fd42ac8d5fce065b2ca61-d.jpg,,
21930725,Druga wojna światowa. tom 1 księga 1,,,,Winston Churchill,1994,,Phantom Press International,,501,0,Polish ,,,до 2011-08,"8370755208,9788370755201",,,,,,,,,,,0,,,,1,1,,1,2584765,pdf,66C29BF1ACF694C00B2274389A5AC14E,,,_357942.66c29bf1acf694c00b2274389a5ac14e.pdf,0,2000-01-01 01:00:00,2016-04-03 02:51:08,636000/66c29bf1acf694c00b2274389a5ac14e-g.jpg,,
21930726,"Handbook of Wireless Local Area Networks: Applications, Technology, Security, and Standards (Internet and Communications)",,,,"Mohammad Ilyas, Syed A. Ahson",2005,1,CRC Press,,625,0,English ,,,до 2011-08,"0849323231,9780849323232",,,,,004.6/8,TK5105.78 .H38 2005,,,OL21630653M,,0,,,,,1,1,1,12852995,pdf,38E18825250490C46E084A2D252BBE87,,,_357943.38e18825250490c46e084a2d252bbe87.pdf,0,2000-01-01 01:00:00,2016-04-03 02:51:08,636000/38e18825250490c46e084a2d252bbe87-d.jpg,,
21930727,The Cambridge History of Renaissance Philosophy,,,,"C. B. Schmitt, Quentin Skinner, Eckhard Kessler, Jill Kraye",1988,,Cambridge University Press,,944,0,English ,,,до 2011-08,"0521251044,9780521251044,0521397480,9780521397483",,,,,190/.9/024,B775 .C25 1988,,,OL2376857M,no indexes,300,,,,,1,0,1,8352279,djvu,5DBC5D40B32A9367BC13D8D543D380F5,,,_357949.5dbc5d40b32a9367bc13d8d543d380f5.djvu,0,2000-01-01 01:00:00,2016-04-03 02:51:08,636000/5dbc5d40b32a9367bc13d8d543d380f5-d.jpg,,
21930728,Focus On Mod Programming in Quake III Arena (The Premier Press Game Development Series),,,,Shawn Holmes,2002,1,Course Technology PTR,,411,0,English ,87,,до 2011-08,"193184156X,9781931841566",,,,,794.8,QA76.76.C672 H67 2002,,,OL3959829M,,0,,,,,1,1,1,5784528,pdf,84B27E4AAC4751EF14A8B29CB9F80A56,,,_357951.84b27e4aac4751ef14a8b29cb9f80a56.pdf,0,2000-01-01 01:00:00,2016-04-03 02:51:08,636000/84b27e4aac4751ef14a8b29cb9f80a56-d.jpg,,
21930729,"Beginning Web Programming with HTML, XHTML, and CSS (Wrox Beginning Guides)",,,,Jon Duckett,2004,,Wrox,,832,0,English ,92,,до 2011-08,"0764570781,9780764570780",,,,,006.7/6,,,,OL24763803M,,0,,,,,1,1,1,17410381,pdf,E306657ECBB60755611B4BFDE13F8B59,,,_357952.e306657ecbb60755611b4bfde13f8b59.pdf,0,2000-01-01 01:00:00,2016-04-03 02:51:08,636000/e306657ecbb60755611b4bfde13f8b59-d.jpg,,
21930730,Transport Processes in Pharmaceutical Systems (Drugs and the Pharmaceutical Sciences),,,,"Gordon Amidon, Ping Lee, Elizabet Topp",2000,1st,Informa Healthcare,,725,0,English ,,,до 2011-08,"0824766105,9780824766108",,,,,,,,,OL8125945M,,0,,,,,1,1,1,4934646,pdf,F09780F48432BA601F22FFFA576E7116,,,_357953.f09780f48432ba601f22fffa576e7116.pdf,0,2000-01-01 01:00:00,2016-04-03 02:51:08,636000/f09780f48432ba601f22fffa576e7116-d.jpg,,
21930731,Information Security Policies and Actions in Modern Integrated Systems,,,,"Mariagrazia Fugini, Carlos Bellettini",2004,,Idea Group Publishing,,,0,English ,,,до 2011-08,"1591401860,9781591401865",,,,,,,,,OL8854700M,,0,,,,,1,,,7494181,chm,FF25F53F5F950D91B0D5F69377373A3E,,,_357955.ff25f53f5f950d91b0d5f69377373a3e.chm,0,2000-01-01 01:00:00,2016-04-03 02:51:08,636000/ff25f53f5f950d91b0d5f69377373a3e-d.jpg,,
21930732,Srednjovjekovno doba povijesnog razvitka,,,,Miroslav Brandt,1995,,Školska knjiga,,597,0,Croatian ,,,до 2011-08,9530307098,,,,,,,,,,,300,,,,1,1,1,1,80510945,pdf,23D171D7B4F333AC9034B23DBF468228,,,_357956.23d171d7b4f333ac9034b23dbf468228.pdf,0,2000-01-01 01:00:00,2016-04-03 02:51:08,636000/23d171d7b4f333ac9034b23dbf468228-g.jpg,,
21930733,"Optimization Algorithms for Networks and Graphs, Second Edition,",,,,Edward Minieka &  James R. Evans,1992,2,CRC Press,,503,0,English ,,,до 2011-08,"0824786025,9780824786021",,,,,658.4/032,QA166 .E92 1992,,,OL1702367M,,0,,,,,1,,1,12510421,djvu,38ED1FFBE08D7E2FDCDC52B8F2A370F0,,,_357957.38ed1ffbe08d7e2fdcdc52b8f2a370f0.djvu,0,2000-01-01 01:00:00,2016-04-03 02:51:08,636000/38ed1ffbe08d7e2fdcdc52b8f2a370f0-d.jpg,,
21930734,Networks of Innovation: Change and Meaning in the Age of the Internet,,,,Ilkka Tuomi,2006,,"Oxford University Press, USA",,264,0,English ,,,до 2011-08,"019926905X,9780199269051",,,,,,,,,OL7404519M,,0,,,,,1,1,1,3179139,pdf,F7CF5FB6C67C87B97B0583D486E7CA2C,,,_357959.f7cf5fb6c67c87b97b0583d486e7ca2c.pdf,0,2000-01-01 01:00:00,2016-04-03 02:51:08,636000/f7cf5fb6c67c87b97b0583d486e7ca2c-d.jpg,,
21930735,Konz. 1000 ganz legale Steuertricks 2011,,,,Franz Konz,2010,,Knaur eBook,,826,0,German ,,,до 2011-08,9783426404478,,,,,,,,,,,0,,,,,0,1,1,3564886,pdf,CA93658AC773FD1FC6EC971E93B2134C,,,_357961.ca93658ac773fd1fc6ec971e93b2134c.pdf,0,2000-01-01 01:00:00,2016-04-03 02:51:08,636000/ca93658ac773fd1fc6ec971e93b2134c-g.jpg,,
21930736,CMOS Memory Circuits,,,,Tegze P. Haraszti,2000,1,Springer,,565,0,English ,,,до 2011-08,"0792379500,9780792379508",,,,,621.39/732,,,,OL19021649M,,0,,,,,1,1,0,12738823,pdf,24179EE4D5D7CEE55B995F3A4237B522,,,_357962.24179ee4d5d7cee55b995f3a4237b522.pdf,0,2000-01-01 01:00:00,2016-04-03 02:51:08,636000/24179ee4d5d7cee55b995f3a4237b522-d.jpg,,
21930737,Network Security Foundations: Technology Fundamentals for IT Success,,,,Matthew Strebe,2004,1,Sybex,,333,0,English ,,,до 2011-08,"0782143741,9780782143744",,,,,005.8,TK5105.59 .S7677 2004,,,OL3315422M,,0,,,,,1,,1,6031943,pdf,A5402417B2F48B1BAC108B6E3E98A871,,,_357964.a5402417b2f48b1bac108b6e3e98a871.pdf,0,2000-01-01 01:00:00,2016-04-03 02:51:08,636000/a5402417b2f48b1bac108b6e3e98a871-d.jpg,,
21930738,Fundamentals of Computational Fluid Dynamics (Scientific Computation),,,,"H. Lomax, Thomas H. Pulliam, David W. Zingg",2001,,Springer,,276,0,English ,,,до 2011-08,"3540416072,9783540416074",,,,,,,,,OL18162404M,,0,,,,,1,,1,1374734,djvu,0BDA229DB5AF1351A1D514E154EF3159,,,_357974.0bda229db5af1351a1d514e154ef3159.djvu,0,2000-01-01 01:00:00,2016-04-03 02:51:08,636000/0bda229db5af1351a1d514e154ef3159-d.jpg,,
21930739,Introducing Microsoft Silverlight 3,,,,Laurence Moroney,2009,Third Edition,Microsoft Press,,379,0,English ,92,,до 2011-08,"0735625735,9780735625730",,,,,,,,,,,0,,,,,1,,1,5917114,pdf,0DC490BC853BCCD86344130B0647F785,,,_357981.0dc490bc853bccd86344130b0647f785.pdf,0,2000-01-01 01:00:00,2016-04-03 02:51:08,636000/0dc490bc853bccd86344130b0647f785-d.jpg,,
21930740,The Killer of Little Shepherds: A True Crime Story and the Birth of Forensic Science,,,,Douglas Starr,2010,,Knopf Doubleday Publishing Group,,320,0,English ,,,до 2011-08,9780307594587,,,,,,,,,,,0,,,,,0,1,1,5377664,epub,028AF2FCA4BE5A664CB3F4CC8A4E618C,,,_357982.028af2fca4be5a664cb3f4cc8a4e618c.epub,0,2000-01-01 01:00:00,2016-04-03 02:51:08,636000/028AF2FCA4BE5A664CB3F4CC8A4E618C-g.jpg,,
21930741,Methods and Tools for Collaborative Networked Organizations,,,,Luis Camarinha-Matos,2008,1,Springer,,537,0,English ,,,до 2011-08,"0387794239,9780387794235",,,,,,,,,,,0,,,,,1,1,1,12605181,pdf,07B9A8D6FD23B1231668F59CFE7DD662,,,_357983.07b9a8d6fd23b1231668f59cfe7dd662.pdf,0,2000-01-01 01:00:00,2016-04-03 02:51:08,636000/07b9a8d6fd23b1231668f59cfe7dd662-d.jpg,,
21930742,"Encyclopedia of Physical Science and Technology, 3e, Computer Software",,"Encyclopedia of Physical Science and Technology'', Computer Software",,Robert Allen Meyers,2007,,Academic Press,,350,0,English ,,,до 2011-08,,,,,,,,,,,"no front matter, no ISBN(s)",0,,,,0,0,1,1,31400953,pdf,384E9F6594FF789DE0AD60AF32896A71,,,_357985.384e9f6594ff789de0ad60af32896a71.pdf,0,2000-01-01 01:00:00,2016-04-03 02:51:08,636000/384e9f6594ff789de0ad60af32896a71-g.jpg,,
21930743,"Technics and Time, 1: The Fault of Epimetheus (Meridian: Crossing Aesthetics) (No. 1)",,,,Bernard Stiegler,1998,1,Stanford University Press,,313,0,English ,,,до 2011-08,"0804730415,9780804730419",,,,,303.48/3,T14 .S7513 1998,,,OL683684M,,0,,,,,1,1,1,9768894,pdf,2708C865903DCE73858124298B374035,,,_357987.2708c865903dce73858124298b374035.pdf,0,2000-01-01 01:00:00,2016-04-03 02:51:08,636000/2708c865903dce73858124298b374035-d.jpg,,
21930744,"The Art of Chinese Management: Theory, Evidence and Applications",,,,Kai-Alexander Schlevogt,2002,1st,"Oxford University Press, USA",,417,0,English ,,,до 2011-08,"0195136446,9780195136449",,,,,,,,,OL15486195M,,0,,,,,1,1,1,25293424,pdf,0D17CD1D68EE3C925FADB8CBEBF8947A,,,_357989.0d17cd1d68ee3c925fadb8cbebf8947a.pdf,0,2000-01-01 01:00:00,2016-04-03 02:51:08,636000/0d17cd1d68ee3c925fadb8cbebf8947a-d.jpg,,
21930745,Informal Learning: Rediscovering the Natural Pathways That Inspire Innovation and Performance (Essential Knowledge Resource),,,,Jay Cross,2006,1,Pfeiffer,,320,0,English ,,,до 2011-08,"0787981699,9780787981693",,,,,,,,,OL8149547M,,0,,,,,1,,1,5771899,pdf,7D5D9F12D5C6EB54662A4BABC9AFCFA5,,,_357990.7d5d9f12d5c6eb54662a4babc9afcfa5.pdf,0,2000-01-01 01:00:00,2016-04-03 02:51:08,636000/7d5d9f12d5c6eb54662a4babc9afcfa5-d.jpg,,
21930746,Star Wars. Die Corellianische Revolte-Angriff auf Selonia (Corellia-Trilogie Band 2),,Star Wars-Die Corellianische Revolte Band 2 2 of 3,,Roger McBride Allen,1997,,Heyne Verlag,,353,0,German ,,,до 2011-08,"3453116852,9783453116856",,,,,,,,,OL9040825M,,0,,,,0,0,0,1,1890178,pdf,A21D1F21DE3EB23BA59CDD8CACE7B18F,,,_357991.a21d1f21de3eb23ba59cdd8cace7b18f.pdf,0,2000-01-01 01:00:00,2016-04-03 02:51:08,636000/a21d1f21de3eb23ba59cdd8cace7b18f-d.jpg,,
21930747,Supply Chains and Total Product Systems: A Reader,,,,"Ed Rhodes, James P. Warren, Ruth Carter",2006,1,Wiley-Blackwell,,553,0,English ,,,до 2011-08,"1405124105,9781405124102",,,,,658.7,HD38.5 .S8953 2006,,,OL3409683M,,0,,,,,1,1,1,4607280,pdf,4630BF80F552752EE47EFCD24AC402AE,,,_357992.4630bf80f552752ee47efcd24ac402ae.pdf,0,2000-01-01 01:00:00,2016-04-03 02:51:08,636000/4630bf80f552752ee47efcd24ac402ae-d.jpg,,
21930748,"Building Trust: In Business, Politics, Relationships, and Life",,,,"Robert C. Solomon, Fernando Flores",2003,,"Oxford University Press, USA",,194,0,English ,,,до 2011-08,"0195161114,9780195161113",,,,,,,,,OL13633531M,,0,,,,,1,,1,1338521,pdf,9E054445290A50D8051EFD6DAFE01345,,,_357993.9e054445290a50d8051efd6dafe01345.pdf,0,2000-01-01 01:00:00,2016-04-03 02:51:08,636000/9e054445290a50d8051efd6dafe01345-d.jpg,,
21930749,"Five miles away, a world apart: one city, two schools, and the story of educational opportunity in modern America",,,,James Ryan,2010,,Oxford University Press,,399,0,English ,,,до 2011-08,"0195327381,9780195327380",,,,,344.73/0798,KF4155 .R93 2010,,,OL23687818M,,0,,,,1,0,1,1,1393291,pdf,1B8B7ECCD9EE6C9B712C1E63DAA7D423,,,_357994.1b8b7eccd9ee6c9b712c1e63daa7d423.pdf,0,2000-01-01 01:00:00,2016-04-03 02:51:08,636000/1b8b7eccd9ee6c9b712c1e63daa7d423-d.jpg,,
21930750,Leadership 101 (Psych 101),,,,Dr. Michael D. Mumford PhD,2009,1,Springer Publishing Company,,301,0,English ,,,до 2011-08,"0826111343,9780826111340",,,,,303.3/4,HM1261 .L4145 2009,,,OL23631951M,,0,,,,1,0,1,1,1287209,pdf,B179845DE4DD0CF7B162B6F5EAAFAAC4,,,_357995.b179845de4dd0cf7b162b6f5eaafaac4.pdf,0,2000-01-01 01:00:00,2016-04-03 02:51:08,636000/b179845de4dd0cf7b162b6f5eaafaac4-d.jpg,,
21930751,Druga wojna światowa. tom 1 Księga 2,,,,Winston Churchill,1995,,Phantom Press International/Refren,,405,0,Polish ,,,до 2011-08,"8370754163,9788370754167",,,,,,,,,,,0,,,,1,1,,1,2381907,pdf,7995519A1FB8BB12648307955496A360,,,_357996.7995519a1fb8bb12648307955496a360.pdf,0,2000-01-01 01:00:00,2016-04-03 02:51:08,636000/7995519a1fb8bb12648307955496a360-g.jpg,,
21930752,South Pacific: paradise rewritten,,Broadway Legacies,,Jim Lovensheimer,2010,,Oxford University Press,,287,0,English ,,,до 2011-08,"0195377028,9780195377026",,,,,782.1/4,ML2054 .L68 2010,,,OL23834356M,,0,,,,1,0,1,1,3334267,pdf,95BD46DEBEA2F5C5CFF6141D64BA6E01,,,_357998.95bd46debea2f5c5cff6141d64ba6e01.pdf,0,2000-01-01 01:00:00,2016-04-03 02:51:08,636000/95bd46debea2f5c5cff6141d64ba6e01-d.jpg,,
21930753,Povijest hrvatskih zemalja u antici do cara Dioklecijana,,,,Robert Matijašić,2009,,LEYKAM INTERNATIONAL,,155,0,Croatian ,,,до 2011-08,9789537534318,,,,,,,,,OL25247770M,,300,,,,0,1,1,1,18023639,pdf,2A686FA2F7E33A640FBB2984AA12A106,,,_357999.2a686fa2f7e33a640fbb2984aa12a106.pdf,0,2000-01-01 01:00:00,2016-04-03 02:51:08,636000/2a686fa2f7e33a640fbb2984aa12a106-g.jpg,,
21930754,12 Going on 29: Surviving Your Daughter's Tween Years,,,,"Silvana Clark, Sondra Clark",2007,1,Greenwood Publishing Group,,167,0,English ,,,до 2011-08,"0275994163,9780275994167",,,,,649/.133,HQ777.15 .C53 2007,,,OL10289888M,,0,,,,1,0,1,1,696615,pdf,4FE8CE2B4F9603B7AB4B40822728083E,,,_358001.4fe8ce2b4f9603b7ab4b40822728083e.pdf,0,2000-01-01 01:00:00,2016-04-03 02:51:08,636000/4fe8ce2b4f9603b7ab4b40822728083e-d.jpg,,
21930755,Star Wars. Die Corellianische Revolte-Showdown auf Centerpoint (Corellia-Trilogie Band 3),,Star Wars-Die Corellianische Revolte Band 3 3 of 3,,Roger McBride Allen,1997,,Heyne Verlag,,378,0,German ,,,до 2011-08,"345312524X,9783453125247",,,,,,,,,OL9040856M,,0,,,,0,0,0,1,1761131,pdf,2F121C25F822A45F13BF1C98CF3591AE,,,_358002.2f121c25f822a45f13bf1c98cf3591ae.pdf,0,2000-01-01 01:00:00,2016-04-03 02:51:08,636000/2f121c25f822a45f13bf1c98cf3591ae-d.jpg,,
21930756,10 Days to More Confident Public Speaking,,,,"Lenny Laskowski, Princeton Language Institute",2001,1,Grand Central Publishing,,225,0,English ,,,до 2011-08,"0446676683,9780446676687",,,,,808.5/1,PN4121 .A13 2001,,,OL23277452M,,0,,,,1,0,1,1,746827,pdf,ED0F67CD8E0C6E9B62A03A59DB5FF8D7,,,_358003.ed0f67cd8e0c6e9b62a03a59db5ff8d7.pdf,0,2000-01-01 01:00:00,2016-04-03 02:51:08,636000/ed0f67cd8e0c6e9b62a03a59db5ff8d7-d.jpg,,
21930757,Brave NUI World: Designing Natural User Interfaces for Touch and Gesture,,,,"Daniel Wigdor, Dennis Wixon",2011,1,Morgan Kaufmann (Elsevier),,253,0,English ,,,до 2011-08,"0123822319,9780123822314",,,,,004.01/9,QA76.9.U83 W537 2011,10.1016/B978-0-12-382231-4.00036-8,,OL25016482M,ToC missing,0,,,,1,0,1,1,9782472,pdf,31588ED03CBC5A90E43D511B20A7CCE2,,,_358004.31588ed03cbc5a90e43d511b20a7cce2.pdf,0,2000-01-01 01:00:00,2016-04-03 02:51:08,636000/31588ed03cbc5a90e43d511b20a7cce2-d.jpg,,
21930758,Christopher Columbus: Famous Explorer,,,,Mary D. Wade,2007,1st,Capstone Press,,19,0,English ,,,до 2011-08,"0736879056,9780736879057",,,,,,,,,OL7895942M,,0,,,,0,1,0,1,7680260,pdf,65386DB03346EEBF988ACF5508B1CB75,,,_358005.65386db03346eebf988acf5508b1cb75.pdf,0,2000-01-01 01:00:00,2016-04-03 02:51:08,636000/65386db03346eebf988acf5508b1cb75-d.jpg,,
21930759,How to Sell,,,,Clancy Martin,2009,First Edition,"Farrar, Straus and Giroux",,304,0,English ,,,до 2011-08,"9780374173357,0374173354",,,,,813/.6,PS3613.A77787 H68 2009,,,OL22853478M,,0,,,,0,0,0,1,228989,epub,A382A4450A74CFD5A7AF9FA818194573,,,_358006.a382a4450a74cfd5a7af9fa818194573.epub,0,2000-01-01 01:00:00,2016-04-03 02:51:08,636000/a382a4450a74cfd5a7af9fa818194573-d.jpg,,
21930760,ABC of Clinical Electrocardiography (ABC Series),,,,"Francis Morris, William Brady, John Camm",2008,2nd,BMJ Books,,121,0,English ,,,до 2011-08,"1405170646,9781405170642",,,,,616.1/207547,RC683.5.E5 A23 2008,,0eq6ABFG2ysC,OL16413579M,,0,,,,1,1,1,1,2394841,pdf,A45FD955060FBCB9E4D6BF2FC9574F75,,,_358007.a45fd955060fbcb9e4d6bf2fc9574f75.pdf,0,2000-01-01 01:00:00,2016-04-03 02:51:08,636000/a45fd955060fbcb9e4d6bf2fc9574f75-d.jpg,,
21930761,100 Questions & Answers about Allergies,,,,Jonathan Corren,2010,1,Jones & Bartlett Learning,,150,0,English ,,,до 2011-08,"0763776092,9780763776091",,,,,,,,,,,0,,,,1,0,1,1,1993295,pdf,D17EB571EB0FA40D29D18DB6079B78CC,,,_358008.d17eb571eb0fa40d29d18db6079b78cc.pdf,0,2000-01-01 01:00:00,2016-04-03 02:51:08,636000/d17eb571eb0fa40d29d18db6079b78cc-d.jpg,,
21930762,Dalmacija u vrijeme Marcelina i Julija Nepota,,,,Vladimir Posavec,2007,,Split: Književni krug,,264,0,Croatian ,,,до 2011-08,9789531632331,,,,,,,,,OL23624756M,,0,,,,1,1,1,1,17762957,pdf,49117F33681C30ECDC96DCE2B35B530E,,,_358009.49117f33681c30ecdc96dce2b35b530e.pdf,0,2000-01-01 01:00:00,2016-04-03 02:51:08,636000/49117f33681c30ecdc96dce2b35b530e-g.jpg,,
21930763,Petrosian System Against the QID,,,,"Alexander Beliavsky, Adrian Mikhailchishin",2008,,Chess Stars,,172,0,English ,,,до 2011-08,"9548782685,9789548782685",,,,,,,,,,,0,,,,,1,0,0,5131089,pdf,D5A61B55CAB8BE2EEDF0BBEA07DD1BE4,,,_358010.d5a61b55cab8be2eedf0bbea07dd1be4.pdf,0,2000-01-01 01:00:00,2016-04-03 02:51:08,636000/d5a61b55cab8be2eedf0bbea07dd1be4-g.jpg,,
21930764,"Encyclopedia of Physical Science and Technology, 3e, Lasers and Masers",,"Encyclopedia of Physical Science and Technology'', Lasers and Masers",,Robert Allen Meyers,2002,,Academic Press,,246,0,English ,,,до 2011-08,,,,,,,,,,,"no front matter, no ISBN(s)",0,,,,0,0,1,1,10517058,pdf,BA8C37354B6C811A4F7D390D8F32B034,,,_358011.ba8c37354b6c811a4f7d390d8f32b034.pdf,0,2000-01-01 01:00:00,2016-04-03 02:51:08,636000/ba8c37354b6c811a4f7d390d8f32b034-g.jpg,,
21930765,Microoptics and Nanooptics Fabrication,,,,Shanalyn Kemme,2009,1,CRC Press,,232,0,English ,,,до 2011-08,"0849336767,9780849336768",,,,,681/.4,TA418.9.N35 M533 2010,,,OL11559769M,,0,,,,1,0,1,1,5028321,pdf,9960DA1A3F7AB6DF914A3E71E67C7DAE,,,_358012.9960da1a3f7ab6df914a3e71e67c7dae.pdf,0,2000-01-01 01:00:00,2016-04-03 02:51:08,636000/9960da1a3f7ab6df914a3e71e67c7dae-d.jpg,,
21930766,The Essays of Warren Buffett : Lessons for Corporate America,,,,Warren E. Buffett,2001,Revised,The Cunningham Group,,219,0,English ,,,до 2011-08,"0966446119,9780966446111",,,,,,,,,OL3995541M,,0,,,,,1,1,0,12519192,pdf,A0DE55A4CC750BC3223CB81ABABA1CA0,,,_358013.a0de55a4cc750bc3223cb81ababa1ca0.pdf,0,2000-01-01 01:00:00,2016-04-03 02:51:08,636000/a0de55a4cc750bc3223cb81ababa1ca0-d.jpg,,
21930767,التنكيل بما في تأنيب الكوثري من الأباطيل,,,,الشيخ محمد ناصر الدين الالباني,,,,,992,0,Arabic ,,,до 2011-08,,,,,,,,,,,,0,,,,,1,1,0,17571939,pdf,14EC42964102F8AFF554631A81230BC1,,,_358014.14ec42964102f8aff554631a81230bc1.pdf,0,2000-01-01 01:00:00,2016-04-03 02:51:08,636000/14ec42964102f8aff554631a81230bc1-g.jpg,,
21930768,Introduzione a Abelardo,,,,M. Fumagalli Beonio Brocchieri,1974,,Laterza,,65,0,Italian ,,,до 2011-08,,,,,,,,,db4LAQAAIAAJ,,,0,,,,0,1,0,0,4837440,pdf,FD3CFE400EDFDAD691F781C6289E5C0E,,,_358016.fd3cfe400edfdad691f781c6289e5c0e.pdf,0,2000-01-01 01:00:00,2016-04-03 02:51:08,636000/fd3cfe400edfdad691f781c6289e5c0e-g.jpg,,
21930769,"Soldering, Brazing and Welding",,,,Derek Pritchard,2001,,Crowood Press,,150,0,English ,,,до 2011-08,"1861263910,9781861263919",,,,,,,,,OL8629391M,,0,,,,,1,,0,33687297,pdf,1BB45511CD3A8C6F4391F4F848BC19D7,,,_358017.1bb45511cd3a8c6f4391f4f848bc19d7.pdf,0,2000-01-01 01:00:00,2016-04-03 02:51:08,636000/1bb45511cd3a8c6f4391f4f848bc19d7-d.jpg,,
21930770,"Shaw's Textbook of Gynaecology, 15th Edition",,,,"Shirish Daftary, VG Padubidri",,,Reed Elsevier India,,,0,English ,,,до 2011-08,,,,,,,,,,,Front Matter &amp; Index absent,0,,,,,1,1,1,34458867,chm,49BB1A1C614DB5F43C53210CAE63028A,,,_358018.49bb1a1c614db5f43c53210cae63028a.chm,0,2000-01-01 01:00:00,2016-04-03 02:51:08,,,
21930771,"Geological Society Special Publication, 006 Geological Background to Fossil Man Recent Research in the Gregory Rift Valley, Eas",,,,WALTER W. BISHOP  Ed,,,,,560,0,English ,,,до 2011-08,,,,,,,,,,,,0,,,,,1,1,1,119443172,pdf,FBA605912CEF13022C5285F3E4F2AED0,,,_358020.fba605912cef13022c5285f3e4f2aed0.pdf,0,2000-01-01 01:00:00,2016-04-03 02:51:08,636000/fba605912cef13022c5285f3e4f2aed0-g.jpg,,
21930772,Trees,,,,"John White, Jr., Carol Usher, Colin Ridsdale",2005,,Dorling Kindersley,,360,0,English ,,,до 2011-08,"1405310707,9781405310703",,,,,,,,,OL8407043M,,0,,,,1,0,1,1,21582946,pdf,0EDD8318785C9B81E8B3DF0D6F7ECE0E,,,_358021.0edd8318785c9b81e8b3df0d6f7ece0e.pdf,0,2000-01-01 01:00:00,2016-04-03 02:51:08,636000/0edd8318785c9b81e8b3df0d6f7ece0e-d.jpg,,
21930773,Bihar vármegye Árpád-kori helyneveinek változástörténete a korai ómagyar korban,,,,Veress Edit,2009,,,,99,0,Hungarian ,,,до 2011-08,,,,,,,,,,,complete,0,,,,1,1,,1,460688,pdf,C3C0A5B474493242CADBC57B5B51C50C,,,_358023.c3c0a5b474493242cadbc57b5b51c50c.pdf,0,2000-01-01 01:00:00,2016-04-03 02:51:08,636000/c3c0a5b474493242cadbc57b5b51c50c-g.jpg,,
21930774,Ars Orientalis 32 (2002),32,,,Smithsonian Institution,2002,,Smithsonian Institution,,274,0,English ,,,до 2011-08,,0571-1371,,,,,,,,,,0,,,,1,1,1,1,58998824,pdf,D818AB5FCD1E2CE23E1355448DD11F03,,,_358024.d818ab5fcd1e2ce23e1355448dd11f03.pdf,0,2000-01-01 01:00:00,2016-04-03 02:51:08,636000/d818ab5fcd1e2ce23e1355448dd11f03-g.jpg,,
21930775,صلاة التراويح,,,,الشيخ محمد ناصر الدين الالباني,,,,,116,0,Arabic ,,,до 2011-08,,,,,,,,,,,,0,,,,,1,1,0,1576586,pdf,A5D763BA6F159A694670671B76E83348,,,_358025.a5d763ba6f159a694670671b76e83348.pdf,0,2000-01-01 01:00:00,2016-04-03 02:51:08,636000/a5d763ba6f159a694670671b76e83348-g.jpg,,
21930776,Cyber Security Essentials,,,,Rick Howard,2010,,CRC Press,,331,0,English ,,,до 2011-08,9781439851265,,,,,,,,,,,0,,,,1,0,1,1,5953270,pdf,BF50C74916D308C5DF574BEA0A39A492,,,_358026.bf50c74916d308c5df574bea0a39a492.pdf,0,2000-01-01 01:00:00,2016-04-03 02:51:08,636000/bf50c74916d308c5df574bea0a39a492-g.jpg,,
21930777,"Industrial Process Control Systems, Second Edition",,,,"Dale R. Patrick, Stephen W. Fardo",2009,2,CRC Press,,460,0,English ,,,до 2011-08,"1439815763,9781439815762",,,,,670.42/7,TS156.8 .P25 2009,,,OL23192811M,,0,,,,,1,1,1,7347583,pdf,960E5DD985F0C9DB0A44344A1088E066,,,_358027.960e5dd985f0c9db0a44344a1088e066.pdf,0,2000-01-01 01:00:00,2016-04-03 02:51:08,636000/960e5dd985f0c9db0a44344a1088e066-d.jpg,,
21930778,Introduzione a Anselmo D'Aosta,,,,Sofía Vanni Rovighi,1987,1a ed,Laterza,,91,0,Italian ,,,до 2011-08,"8842028282,9788842028284",,,,,189/.4,B765.A84 V29 1987,,gngwAAAAYAAJ,OL2441456M,,0,,,,0,1,0,1,5857937,pdf,D62F6D67458A7DD595A2DED094B28D7E,,,_358028.d62f6d67458a7dd595a2ded094b28d7e.pdf,0,2000-01-01 01:00:00,2016-04-03 02:51:08,636000/d62f6d67458a7dd595a2ded094b28d7e-g.jpg,,
21930779,Volcanic processes in ore genesis: Proceedings of a joint meeting of the Volcanic Studies Group of the Geological Society of London and the Institution ... of the Geological Society of London ; no. 7),,,,No author.,1977,,The Geological Society,,194,0,English ,,,до 2011-08,"0900488336,9780900488337",,,,,553/.1,TN263 .V59,,,OL21620417M,,0,,,,,1,1,1,34215495,pdf,5DCFA060CF741B9D1CBD561F054E0547,,,_358029.5dcfa060cf741b9d1cbd561f054e0547.pdf,0,2000-01-01 01:00:00,2016-04-03 02:51:08,636000/5dcfa060cf741b9d1cbd561f054e0547-g.jpg,,
21930780,الرد المفحم على من خالف العلماء,,,,الشيخ محمد ناصر الدين الالباني,,,,,184,0,Arabic ,,,до 2011-08,,,,,,,,,,,,0,,,,,1,,0,4144551,pdf,0350938A763249BD9E16A3EE76FACAB8,,,_358030.0350938a763249bd9e16a3ee76facab8.pdf,0,2000-01-01 01:00:00,2016-04-03 02:51:08,636000/0350938a763249bd9e16a3ee76facab8-g.jpg,,
21930781,Perry Mason und das Mädchen mit den grünen Augen,,,,Erle Stanley Gardner,1979,,Ullstein Tb.,,193,0,German ,,,до 2011-08,"3548016421,9783548016429",,,,,,,,,,,0,,,,1,0,1,1,748107,pdf,8CDF2F0BED85AA0192C59BBEAEF06492,,,_358031.8cdf2f0bed85aa0192c59bbeaef06492.pdf,0,2000-01-01 01:00:00,2016-04-03 02:51:08,636000/8cdf2f0bed85aa0192c59bbeaef06492-g.jpg,,
21930782,Druga wojna światowa. tom 3 księga 1,,,,Winston Churchill,1995,,Phantom Press International/Refren,,502,0,Polish ,,,до 2011-08,"8370754430,9788370754433",,,,,,,,,,,0,,,,1,1,,1,4237345,pdf,6B4CE7B507F00A35C98413442DEBD912,,,_358032.6b4ce7b507f00a35c98413442debd912.pdf,0,2000-01-01 01:00:00,2016-04-03 02:51:08,636000/6b4ce7b507f00a35c98413442debd912-g.jpg,,
21930783,The Invasion (Animorphs #1),,Animorphs,,K.A. Applegate,1996,,Scholastic Paperbacks,,99,0,English ,,,до 2011-08,"0590629778,9780590629775",,,,,813.54,PZ7.A6485 Inv 1996,,,OL24935064M,,0,,,,,1,,1,283968,pdf,704D4A4F474C4EAF62A905C9C6736A69,,,_358033.704d4a4f474c4eaf62a905c9c6736a69.pdf,0,2000-01-01 01:00:00,2016-04-03 02:51:08,636000/704d4a4f474c4eaf62a905c9c6736a69-d.jpg,,
21930784,Druga wojna światowa. tom 2 księga 2,,,,Winston Churchill,1995,,Phantom Press International/Refren,,397,0,Polish ,,,до 2011-08,"8370754422,9788370754426",,,,,,,,,,,0,,,,1,1,,1,3065679,pdf,387D3BA2042E3292F99822BB9AD0A587,,,_358034.387d3ba2042e3292f99822bb9ad0a587.pdf,0,2000-01-01 01:00:00,2016-04-03 02:51:08,636000/387d3ba2042e3292f99822bb9ad0a587-g.jpg,,
21930785,The Transall Saga,,,,Gary Paulsen,,,Random House Children's Books,,256,0,English ,,,до 2011-08,9780307434036,,,,,,,,,OL24297586M,,0,,,,,0,1,1,325966,epub,C5555ABFEA26F08271CDC24361195E74,,,_358035.c5555abfea26f08271cdc24361195e74.epub,0,2000-01-01 01:00:00,2016-04-03 02:51:08,636000/C5555ABFEA26F08271CDC24361195E74-g.jpg,,
21930786,Chaos Theory: Two Essays On Market Anarchy,,,,Robert P. Murphy,2002,,RJ Communications LLC,,63,0,English ,,,до 2011-08,,,B001DC6JB8,,,,,,,,,0,,,,,0,1,1,1624201,pdf,020E06A431928B8C633AD47EF2A1AE94,,,_358036.020e06a431928b8c633ad47ef2a1ae94.pdf,0,2000-01-01 01:00:00,2016-04-03 02:51:08,636000/020e06a431928b8c633ad47ef2a1ae94-g.jpg,,
21930787,Druga wojna światowa. tom 2 księga 1,,,,Winston Churchill,1995,,Phantom Press International/Refren,,390,0,Polish ,,,до 2011-08,"8370754414,9788370754419",,,,,,,,,,,0,,,,1,1,,1,2235297,pdf,5CB7B018C6DB46A8EEB45C6913B6697A,,,_358037.5cb7b018c6db46a8eeb45c6913b6697a.pdf,0,2000-01-01 01:00:00,2016-04-03 02:51:08,636000/5cb7b018c6db46a8eeb45c6913b6697a-g.jpg,,
21930788,The Thief's Journal,,,,Jean Genet,2008,,Olympia Press,,129,0,English ,,,до 2011-08,,,,,,,,,,,,0,,,,,1,,1,379097,pdf,B1C77906064DAC58FF1164B3E5D3575C,,,_358038.b1c77906064dac58ff1164b3e5d3575c.pdf,0,2000-01-01 01:00:00,2016-04-03 02:51:08,636000/b1c77906064dac58ff1164b3e5d3575c-g.jpg,,
21930789,Chaos Theory: Two Essays On Market Anarchy,,,,Robert P. Murphy,2002,,RJ Communications LLC,,63,0,English ,,,до 2011-08,,,B001DC6JB8,,,,,,,,,0,,,,,0,1,1,164983,epub,1ADD0FD624822EA3823E251FF34823EB,,,_358039.1add0fd624822ea3823e251ff34823eb.epub,0,2000-01-01 01:00:00,2016-04-03 02:51:08,636000/1ADD0FD624822EA3823E251FF34823EB-g.jpg,,
21930790,Introduzione a Aristotele,,,,Giovanni Reale,1977,,Laterza,,122,0,Italian ,,,до 2011-08,,,,,,,,,,,,0,,,,0,1,0,0,12536358,pdf,F9E1728A4133046EDFA31CFD011ABCC1,,,_358040.f9e1728a4133046edfa31cfd011abcc1.pdf,0,2000-01-01 01:00:00,2016-04-03 02:51:08,636000/f9e1728a4133046edfa31cfd011abcc1-g.jpg,,
21930791,Quality of Earnings,,,,Thornton L. O'glove,1998,,Free Press,,222,0,English ,,,до 2011-08,"0684863758,9780684863757",,,,,,,,,OL7722583M,,0,,,,,1,1,0,64815560,pdf,09443EFF6A0E77F4B1557A7D1CF80F0A,,,_358041.09443eff6a0e77f4b1557a7d1cf80f0a.pdf,0,2000-01-01 01:00:00,2016-04-03 02:51:08,636000/09443eff6a0e77f4b1557a7d1cf80f0a-d.jpg,,
21930792,شرح العقيدة الطحاوية,,,,الشيخ محمد ناصر الدين الالباني,,,,,552,0,Arabic ,,,до 2011-08,,,,,,,,,,,,0,,,,,1,1,0,11275255,pdf,BAA530A3E67297F113089D976245DA82,,,_358042.baa530a3e67297f113089d976245da82.pdf,0,2000-01-01 01:00:00,2016-04-03 02:51:08,636000/baa530a3e67297f113089d976245da82-g.jpg,,
21930793,نصب المجانيق لنسف قصة الغرانيق,,,,الشيخ محمد ناصر الدين الالباني,,,,,72,0,Arabic ,,,до 2011-08,,,,,,,,,,,,0,,,,,1,1,0,924293,pdf,7ADC61137D94C1EF38AE6331EB331B26,,,_358043.7adc61137d94c1ef38ae6331eb331b26.pdf,0,2000-01-01 01:00:00,2016-04-03 02:51:08,636000/7adc61137d94c1ef38ae6331eb331b26-g.jpg,,
21930794,ABC of Health Informatics (ABC Series),,ABC Series,,"Frank Sullivan, Jeremy Wyatt",2006,1,BMJ Books,,55,0,English ,,,до 2011-08,"0727918508,9780727918505",,,,,,,,,OL7868496M,,0,,,,0,1,0,1,2789605,pdf,A9C5A710C0B6DAF5DDCEEEB97D91FD1E,,,_358044.a9c5a710c0b6daf5ddceeeb97d91fd1e.pdf,0,2000-01-01 01:00:00,2016-04-03 02:51:08,636000/a9c5a710c0b6daf5ddceeeb97d91fd1e-d.jpg,,
21930795,"Geological Society Special Publication, 008 The Caledonides of the British Isles Reviewed",,,,A. L. HARRIS; C. H. HOLLAND; B. E. LEAKE Ed,,,,,726,0,English ,,,до 2011-08,,,,,,,,,,,,0,,,,,1,1,1,108392285,pdf,D7485E38EF80E308357CC34A3700F826,,,_358045.d7485e38ef80e308357cc34a3700f826.pdf,0,2000-01-01 01:00:00,2016-04-03 02:51:08,636000/d7485e38ef80e308357cc34a3700f826-g.jpg,,
21930796,Perry Mason und das Mädchen vom Golfplatz,,Kaiser Krimi,,Erle Stanley Gardner,1983,,Neuer Kaiser Verlag Klagenfurt,,242,0,German ,,,до 2011-08,,,,,,,,,,,,0,,,,1,0,1,1,954412,pdf,613CE4D28C873C570D66251724B4231C,,,_358046.613ce4d28c873c570d66251724b4231c.pdf,0,2000-01-01 01:00:00,2016-04-03 02:51:08,636000/613ce4d28c873c570d66251724b4231c-g.jpg,,
21930797,Introduzione a Berkeley,,,,Mario M. Rossi,1970,,Laterza,,128,0,Italian ,,,до 2011-08,,,,,,,,,,,,0,,,,0,1,0,0,16207271,pdf,A7DE44C8014F20D09F754BD493F9D9D4,,,_358047.a7de44c8014f20d09f754bd493f9d9d4.pdf,0,2000-01-01 01:00:00,2016-04-03 02:51:08,636000/a7de44c8014f20d09f754bd493f9d9d4-g.jpg,,
21930798,العقيدة الطحاوية شرح وتعليق,,,,الشيخ محمد ناصر الدين الالباني,,,,,48,0,Arabic ,,,до 2011-08,,,,,,,,,,,,0,,,,,1,,0,1349955,pdf,93CCD9E663040A52A33057AD0F8B1499,,,_358048.93ccd9e663040a52a33057ad0f8b1499.pdf,0,2000-01-01 01:00:00,2016-04-03 02:51:08,636000/93ccd9e663040a52a33057ad0f8b1499-g.jpg,,
21930799,"Greek Tragedy in Vergil's Aeneid: Ritual, Empire, and Intertext",,,,Vassiliki Panoussi,2009,1,Cambridge University Press,,271,0,English ,,,до 2011-08,"0521895227,9780521895224",,,,,873/.01,PA6825 .P27 2008,,,OL16975736M,,0,,,,,1,,1,1827055,pdf,88C4AA666BFE7BD6BC56E3F4872E1046,,,_358049.88c4aa666bfe7bd6bc56e3f4872e1046.pdf,0,2000-01-01 01:00:00,2016-04-03 02:51:08,636000/88c4aa666bfe7bd6bc56e3f4872e1046-d.jpg,,
21930800,Introduction to Islamic Law,,,,Ahmed Akgunduz,2010,,IUR Press,,408,0,English ,,,до 2011-08,"9080719269,9789080719262",,,,,,,,,OL25117887M,,0,,,,0,1,0,1,8771802,pdf,EDCAC32925E6FF5D5C9165A6FB03D800,,,_358050.edcac32925e6ff5d5c9165a6fb03d800.pdf,0,2000-01-01 01:00:00,2016-04-03 02:51:08,636000/edcac32925e6ff5d5c9165a6fb03d800-g.jpg,,
21930801,أحكام الجنائز وبدعها,,,,الشيخ محمد ناصر الدين الالباني,,,,,351,0,Arabic ,,,до 2011-08,,,,,,,,,,,,0,,,,,1,1,0,5903501,pdf,80B52518E27A8B6DDD0D4CC7AE043CD9,,,_358051.80b52518e27a8b6ddd0d4cc7ae043cd9.pdf,0,2000-01-01 01:00:00,2016-04-03 02:51:08,636000/80b52518e27a8b6ddd0d4cc7ae043cd9-g.jpg,,
21930802,"Diseases of Ear, Nose and Throat, 5th Edition",,,,PL Dhingra,,,Reed Elsevier India,,,0,English ,,,до 2011-08,,,,,,,,,,,Front Matter &amp; Index absent,0,,,,,1,1,1,20953936,chm,83EA542077D140FE21F4916232ACC10A,,,_358052.83ea542077d140fe21f4916232acc10a.chm,0,2000-01-01 01:00:00,2016-04-03 02:51:08,,,
21930803,Sarkofazi lokalne produkcije u Dalmaciji: (II. do IV. stoljeće) = Die Sarkophage lokaler Werkstaetten in roemischen Dalmatien: (2. bis 4. Jht.n.Chr.),,,,Nenad Cambi,2010,,Književni krug,,334,0,Croatian ,,,до 2011-08,9789531633413,,,,,,,,,,,300,,,,1,1,1,1,78152727,pdf,DC9F879B08FE59FDCF28CE5B0AA9EA77,,,_358053.dc9f879b08fe59fdcf28ce5b0aa9ea77.pdf,0,2000-01-01 01:00:00,2016-04-03 02:51:08,636000/dc9f879b08fe59fdcf28ce5b0aa9ea77-g.jpg,,
21930804,ABC of Kidney Disease (ABC Series),,,,"David Goldsmith, Satish Jayawardene, Penny Ackland",2007,1,BMJ Books,,95,0,English ,,,до 2011-08,"1405136758,9781405136754",,,,,616.6/1,RC902 .A333 2007,,03XgmvDQxG8C,OL18007452M,,0,,,,0,1,0,1,2601210,pdf,248D4D782156EE001B268320CD038B00,,,_358054.248d4d782156ee001b268320cd038b00.pdf,0,2000-01-01 01:00:00,2016-04-03 02:51:08,636000/248d4d782156ee001b268320cd038b00-d.jpg,,
21930805,رفع الأستار لإبطال أدلة القائلين بفناء النار,,,,الشيخ محمد ناصر الدين الالباني,,,,,151,0,Arabic ,,,до 2011-08,,,,,,,,,,,,0,,,,,1,1,0,2435294,pdf,E00C5A570A93BE3857DCD0BE860D3B4B,,,_358055.e00c5a570a93be3857dcd0be860d3b4b.pdf,0,2000-01-01 01:00:00,2016-04-03 02:51:08,636000/e00c5a570a93be3857dcd0be860d3b4b-g.jpg,,
21930806,"Rapid Review Biochemistry, 3rd Edition",,,,"John W. Pelley, Edward F. Goljan",2010,3,Mosby,,,0,English ,19,,до 2011-08,"0323068871,9780323068871",,,,,612/.015,QP518.3 .P45 2011,,,OL23872385M,Front Matter &amp; Index absent,0,,,,,1,1,1,5935163,chm,6C36CDD09A3F57DE2C9EF7C459D9FF19,,,_358056.6c36cdd09a3f57de2c9ef7c459d9ff19.chm,0,2000-01-01 01:00:00,2016-04-03 02:51:08,636000/6c36cdd09a3f57de2c9ef7c459d9ff19-d.jpg,,
21930807,"OECD Reviews of Regional Innovation: Basque Country, Spain 2011",,OECD Reviews of Regional Innovation,,OECD Organisation for Economic Co-Operation and Development,2011,,OECD Publishing,,226,0,English ,,,до 2011-08,"9264097368,9789264097360,9789264097377",1997-6577,,,,338/.06409466,HC387.B2 O33 2011,10.1787/9789264097377-en,1VPcgR9nfbQC,OL24922624M,,0,,,,,0,1,1,2396374,pdf,FE66080430FAE37F846D13213BB24B98,,,_358057.fe66080430fae37f846d13213bb24b98.pdf,0,2000-01-01 01:00:00,2016-04-03 02:51:08,636000/fe66080430fae37f846d13213bb24b98-d.jpg,,
21930808,Behavioural Finance: Insights into Irrational Minds and Markets,,,,James Montier,2002,1,Wiley,,109,0,English ,,,до 2011-08,"0470844876,9780470844878",,,,,,,,,OL17066622M,,0,,,,,1,,0,43830596,pdf,E742734C75ED564B5C51B80B6E0D9437,,,_358059.e742734c75ed564b5c51b80b6e0d9437.pdf,0,2000-01-01 01:00:00,2016-04-03 02:51:08,636000/e742734c75ed564b5c51b80b6e0d9437-d.jpg,,
21930809,"OECD Reviews of Regional Innovation: Basque Country, Spain 2011",,OECD Reviews of Regional Innovation,,OECD Organisation for Economic Co-Operation and Development,2011,,OECD Publishing,,226,0,English ,,,до 2011-08,"9264097368,9789264097360,9789264097377",1997-6577,,,,338/.06409466,HC387.B2 O33 2011,10.1787/9789264097377-en,1VPcgR9nfbQC,OL24922624M,,0,,,,,0,1,1,762017,epub,35E5685D4D9AB0F353FE16423DEFAFF0,,,_358060.35e5685d4d9ab0f353fe16423defaff0.epub,0,2000-01-01 01:00:00,2016-04-03 02:51:08,636000/35e5685d4d9ab0f353fe16423defaff0-d.jpg,,
21930810,Hard Bop: Jazz and Black Music 1955-1965,,,,David H. Rosenthal,1993,,Oxford University Press,,223,0,English ,,,до 2011-08,"0195085566,9780195085563",,,,,,,,,OL7387356M,,0,,,,0,1,1,1,10549130,pdf,3DF01E1151D2F34DFDDF3955BFCFEDC8,,,_358061.3df01e1151d2f34dfddf3955bfcfedc8.pdf,0,2000-01-01 01:00:00,2016-04-03 02:51:08,636000/3df01e1151d2f34dfddf3955bfcfedc8-d.jpg,,
21930811,"Rapid Review Pharmacology, 3rd Edition",,,,"Thomas L. Pazdernik, Laszlo Kerecsen",2010,3,Mosby,,,0,English ,,,до 2011-08,"032306812X,9780323068123",,,,,615/.1,RM105 .P39 2011,,,OL23872384M,Front Matter &amp; Index absent,0,,,,,1,1,1,5646169,chm,3361937315614B1BA9F3C1B224C2AABB,,,_358062.3361937315614b1ba9f3c1b224c2aabb.chm,0,2000-01-01 01:00:00,2016-04-03 02:51:08,636000/3361937315614b1ba9f3c1b224c2aabb-d.jpg,,
21930812,Advances in ABC Relaxation:  Applications and Inventories,,,,Jonathan C. Smith,2001,1st,Springer Publishing Company,,319,0,English ,,,до 2011-08,"0826113974,9780826113979",,,,,,,,yO5e7GY-0-wC,OL9456248M,,0,,,,0,1,1,1,4908092,pdf,A4912AD359DE4EABBCFCA321D8D94447,,,_358064.a4912ad359de4eabbcfca321d8d94447.pdf,0,2000-01-01 01:00:00,2016-04-03 02:51:08,636000/a4912ad359de4eabbcfca321d8d94447-d.jpg,,
21930813,Perry Mason und der blonde Bluff,,Scherz Krimi,,Erle Stanley Gardner,1995,,Scherz Verlag,,185,0,German ,,,до 2011-08,"3502515077,9783502515074",,,,,,,,,,,0,,,,1,0,1,1,657184,pdf,123FEA720CF2C4B0CD88C172708BB000,,,_358065.123fea720cf2c4b0cd88c172708bb000.pdf,0,2000-01-01 01:00:00,2016-04-03 02:51:08,636000/123fea720cf2c4b0cd88c172708bb000-g.jpg,,
21930814,John Bogle on Investing: The First 50 Years,,,,"John C. Bogle, William T. Allen, Paul A. Volcker",2000,,McGraw-Hill,,481,0,English ,,,до 2011-08,"0071374515,9780071374514",,,,,,,10.1036/0071374515,,OL24285975M,,0,,,,,1,,1,20812779,pdf,323F1289C9A4D0C30905F4FD8FA14C41,,,_358066.323f1289c9a4d0c30905f4fd8fa14c41.pdf,0,2000-01-01 01:00:00,2016-04-03 02:51:08,636000/323f1289c9a4d0c30905f4fd8fa14c41-g.jpg,,
21930815,Data Security Technologies in SAS 9.1.3,,,,SAS Publishing,2005,,SAS Publishing,,60,0,English ,,,до 2011-08,"1590477197,9781590477199",,,,,,,,,OL12369299M,,0,,,,,1,,1,894110,pdf,A68ADE5C8FE4154109F4B892B7D88CD2,,,_358075.a68ade5c8fe4154109f4b892b7d88cd2.pdf,0,2000-01-01 01:00:00,2016-04-03 02:51:08,636000/a68ade5c8fe4154109f4b892b7d88cd2-d.jpg,,
21930816,Trance-formations: neuro-linguistic programming and the structure of hypnosis,,,,"John Grinder, Richard Bandler",1981,illustrated edition,Real People Press,,260,0,English ,87,,до 2011-08,"0911226222,9780911226225",,,,,615.8/512,RC495 .G76,,,OL4269252M,,0,,,,,1,,0,12306226,pdf,1CD48A98EE635B4DFE5DDCE1B934CC4D,,,_358080.1cd48a98ee635b4dfe5ddce1b934cc4d.pdf,0,2000-01-01 01:00:00,2016-04-03 02:51:08,636000/1cd48a98ee635b4dfe5ddce1b934cc4d-g.jpg,,
21930817,Image-Guided Interventions: Technology and Applications,,,,Terry Peters,2008,1,Springer,,576,0,English ,,,до 2011-08,"0387738568,9780387738567",,,,,,,,,,,0,,,,,1,1,1,11005484,pdf,547083CA7E9C0B8262C30EBF0E8A1D3C,,,_358082.547083ca7e9c0b8262c30ebf0e8a1d3c.pdf,0,2000-01-01 01:00:00,2016-04-03 02:51:08,636000/547083ca7e9c0b8262c30ebf0e8a1d3c-d.jpg,,
21930818,Collaborative Networked Organizations: A research agenda for emerging business models,,,,"Luis M. Camarinha-Matos, Hamideh Afsarmanesh",2004,1,Springer,,348,0,English ,,,до 2011-08,"1402078234,9781402078231",,,,,302.3/5,HD30.2 .C626 2004,,,OL19291501M,,0,,,,,1,,1,11125021,pdf,F57CDF5271AFE8A405BD240D272183A7,,,_358083.f57cdf5271afe8a405bd240d272183a7.pdf,0,2000-01-01 01:00:00,2016-04-03 02:51:08,636000/f57cdf5271afe8a405bd240d272183a7-d.jpg,,
21930819,Infectious Disease and National Security: Strategic Information Needs,,,,"Melinda Moore, Gary Cecchine",2006,1,Rand Publishing,,128,0,English ,,,до 2011-08,"083303989X,9780833039897",,,,,,,,,OL8188580M,,0,,,,,1,1,1,988868,pdf,B159CC31AE7BB02FB99211FE5743D7F3,,,_358086.b159cc31ae7bb02fb99211fe5743d7f3.pdf,0,2000-01-01 01:00:00,2016-04-03 02:51:08,636000/b159cc31ae7bb02fb99211fe5743d7f3-d.jpg,,
21930820,Rapid Review Physiology,,,,Thomas A. Brown,2006,1 Pap/Psc,Mosby,,,0,English ,,,до 2011-08,"0323019919,9780323019910",,,,,612,QP41 .B86 2007,,,OL17909336M,Front Matter &amp; Index absent,0,,,,,1,1,1,6791988,chm,26DF99687E59162366AC51370316A441,,,_358087.26df99687e59162366ac51370316a441.chm,0,2000-01-01 01:00:00,2016-04-03 02:51:08,636000/26df99687e59162366ac51370316a441-d.jpg,,
21930821,Information Security Architecture: An Integrated Approach to Security in the Organization,,,,Jan Killmeyer,2000,1,Auerbach Publications,,282,0,English ,,,до 2011-08,"0849399882,9780849399886",,,,,005.8,QA76.9.A25 T83 2001,,,OL22344354M,,0,,,,,1,,1,1545421,pdf,69E0248772C32175DC279C0F119EA6B8,,,_358092.69e0248772c32175dc279c0f119ea6b8.pdf,0,2000-01-01 01:00:00,2016-04-03 02:51:08,636000/69e0248772c32175dc279c0f119ea6b8-d.jpg,,
21930822,"The Art of Computer Programming, Volume 4, Fascicle 2: Generating All Tuples and Permutations",,,,Donald E. Knuth,2005,1,Addison-Wesley Professional,,200,0,English ,87,,до 2011-08,"0201853930,9780201853933",,,,,,,,,,,0,,,,,1,,1,3392854,pdf,A3335343BB955FCD6BC744FAE8B72C13,,,_358093.a3335343bb955fcd6bc744fae8b72c13.pdf,0,2000-01-01 01:00:00,2016-04-03 02:51:08,636000/a3335343bb955fcd6bc744fae8b72c13-d.jpg,,
21930823,Learning and memory: the brain in action,,,,Marilee Sprenger,1999,First Printing,ASCD,,131,0,English ,,,до 2011-08,"0871203502,9780871203502",,,,,370.15/23,LB1057 .S67 1999,,,OL24961699M,,0,,,,,1,,1,10947855,pdf,10BE6047817FA6C341FBA7CD5D04FCAD,,,_358100.10be6047817fa6c341fba7cd5d04fcad.pdf,0,2000-01-01 01:00:00,2016-04-03 02:51:08,636000/10be6047817fa6c341fba7cd5d04fcad-d.jpg,,
21930824,"Secure Computers and Networks: Analysis, Design, and Implementation (Electronics Handbook Series)",,,,"Eric A. Fisch, Gregory B. White",1999,1,CRC Press,,365,0,English ,,,до 2011-08,"0849318688,9780849318689",,,,,,,,,OL8259360M,,0,,,,,1,1,1,2229835,pdf,D3C58138E97DDCA82FD58F025DB8C0E0,,,_358101.d3c58138e97ddca82fd58f025db8c0e0.pdf,0,2000-01-01 01:00:00,2016-04-03 02:51:08,636000/d3c58138e97ddca82fd58f025db8c0e0-d.jpg,,
21930825,"Defense Against Bioterror: Detection Technologies, Implementation Strategies and Commercial Opportunities--Proceedings of the NATO Advanced Research Workshop on Defense against Bioterror held in Madrid, Spain from 8 to 11 April 2004 (NATO Security through Science, Series B: Physics and Biophysics, Vol. 1)",,,,"Dennis Morrison, Fred Milanovich, Dmitri Ivnitski, Thomas R. Austin",2005,1,Springer,,108,0,English ,,,до 2011-08,"1402033869,9781402033865",,,,,,,,,OL8371452M,,0,,,,,1,,1,925856,pdf,0FE42E373918171C5037E7F38B1620EE,,,_358104.0fe42e373918171c5037e7f38b1620ee.pdf,0,2000-01-01 01:00:00,2016-04-03 02:51:08,636000/0fe42e373918171c5037e7f38b1620ee-d.jpg,,
21930826,"Encyclopedia of Physical Science and Technology, 3e, Measurements Techniques and Instrumentation",,"Encyclopedia of Physical Science and Technology'', Measurements Techniques and Instrumentation",,Robert Allen Meyers,2007,,Academic Press,,376,0,English ,,,до 2011-08,,,,,,,,,,,"Missing front matter, page order scrambled",0,,,,0,0,1,1,7248606,pdf,69F89A47289AB36CB3365B052AD9A4A7,,,_358106.69f89a47289ab36cb3365b052ad9a4a7.pdf,0,2000-01-01 01:00:00,2016-04-03 02:51:08,636000/69f89a47289ab36cb3365b052ad9a4a7-g.jpg,,
21930827,Rapid Review USMLE Step 2,,,,Michael W. Lawlor,2006,1 Pap/Pas,Mosby,,,0,English ,,,до 2011-08,"0323029639,9780323029636",,,,,,,,,OL10462463M,Front Matter &amp; Index absent,0,,,,,1,1,1,4465027,chm,9969809D92D51D001E04D4BD9B08A720,,,_358107.9969809d92d51d001e04d4bd9b08a720.chm,0,2000-01-01 01:00:00,2016-04-03 02:51:08,636000/9969809d92d51d001e04d4bd9b08a720-d.jpg,,
21930828,"Effective Security Management, 5th Edition",,,,Charles A. Sennewald,2011,5,Butterworth-Heinemann (Elseiver),,348,0,English ,,,до 2011-08,"012382012X,9780123820129",,,,,"658.4/7 22'',",HV8290 .S46 2011,10.1016/B978-0-12-382012-9.X0001-9,,,ToC missing.,0,,,,1,0,1,1,5455207,pdf,7BD74739531672CC3A2F7F81CB9C5600,,,_358108.7bd74739531672cc3a2f7f81cb9c5600.pdf,0,2000-01-01 01:00:00,2016-04-03 02:51:08,636000/7bd74739531672cc3a2f7f81cb9c5600-d.jpg,,
21930829,ABC of Patient Safety (ABC Series),,,,"John Sandars, Gary Cook",2007,1,BMJ Books,,63,0,English ,,,до 2011-08,"1405156929,9781405156929",,,,,362.11028/9,RA972 .A28 2007,,ww2Ft4SxAjAC,OL17881201M,,0,,,,0,1,0,1,1500902,pdf,9341BBB4B2BFF96E762D5289F1F16916,,,_358109.9341bbb4b2bff96e762d5289f1f16916.pdf,0,2000-01-01 01:00:00,2016-04-03 02:51:08,636000/9341bbb4b2bff96e762d5289f1f16916-d.jpg,,
21930830,New Ideas from Dead Economists: An Introduction to Modern Economic Thought,,,,Todd G. Buchholz,2007,Rev Upd,Plume,,163,0,English ,,,до 2011-08,"0452288444,9780452288447",,,,,,,,,OL7591255M,,0,,,,,1,,1,12079677,pdf,52FCE63CD0EE1739C70FEF577FB47812,,,_358111.52fce63cd0ee1739c70fef577fb47812.pdf,0,2000-01-01 01:00:00,2016-04-03 02:51:08,636000/52fce63cd0ee1739c70fef577fb47812-d.jpg,,
21930831,Building Identity: Architecture as Evidence of Cultural Interaction Between Latins and Byzantines in Medieval Greece (PhD),,,,Heather E. Grossman,2004,,,,345,0,English ,,,до 2011-08,,,,,,,,,,,,0,,,,,1,,1,33206209,pdf,2BAD9266E16B2692CAA910B59777DFF0,,,_358112.2bad9266e16b2692caa910b59777dff0.pdf,0,2000-01-01 01:00:00,2016-04-03 02:51:08,636000/2bad9266e16b2692caa910b59777dff0-g.jpg,,
21930832,Даргинский язык,,,,Мусаев М.-C.M.,2002,,Academia,,186,0,Russian ,314,,до 2011-08,5874440216,,,,,,,,,,,0,,,,0,1,0,0,6524438,pdf,B10E4250FF58EBA37A0F8B56C17447A2,,,_358114.b10e4250ff58eba37a0f8b56c17447a2.pdf,0,2000-01-01 01:00:00,2016-04-03 02:51:08,636000/b10e4250ff58eba37a0f8b56c17447a2-g.jpg,,
21930833,Financial Statements: A Step-By-Step Guide to Understanding and Creating Financial Reports,,,,Thomas R. Ittelson,1998,1,Career Press,,194,0,English ,,,до 2011-08,"1564143414,9781564143419",,,,,657/.32,HF5681.B2 I74 1998,,,OL700797M,,0,,,,,1,,1,9900785,pdf,AB3D1814CFB6C053346CCA5419030129,,,_358115.ab3d1814cfb6c053346cca5419030129.pdf,0,2000-01-01 01:00:00,2016-04-03 02:51:08,636000/ab3d1814cfb6c053346cca5419030129-d.jpg,,
21930834,Perry Mason und der Engel mit Krallen,,Ullstein Krimi Klassiker,,Erle Stanley Gardner,1980,,Ullstein Tb.,,186,0,German ,,,до 2011-08,"354810066X,9783548100661",,,,,,,,,,,0,,,,1,0,1,1,884618,pdf,C4E82FD25D19A79F70E616360429DDAB,,,_358116.c4e82fd25d19a79f70e616360429ddab.pdf,0,2000-01-01 01:00:00,2016-04-03 02:51:08,636000/c4e82fd25d19a79f70e616360429ddab-g.jpg,,
21930835,The Jungles of Randomness: A Mathematical Safari,,,,Ivars Peterson,1997,1,Wiley,,128,0,English ,,,до 2011-08,"0471164496,9780471164494",,,,,519.2,QA273.15 .P48 1998,,DBTvAAAAMAAJ,OL656202M,,0,,,,0,0,0,1,2417723,pdf,DD4BF612472EF9B2DA136EF3EDEC4B80,,,_358117.dd4bf612472ef9b2da136ef3edec4b80.pdf,0,2000-01-01 01:00:00,2016-04-03 02:51:08,636000/dd4bf612472ef9b2da136ef3edec4b80-d.jpg,,
21930836,"Sherris Medical Microbiology, 5th Edition",,,,"Kenneth Ryan, C. George Ray, Nafees Ahmad, W. Lawrence Drew, James Plorde",2010,5,McGraw-Hill Medical,,,0,English ,,,до 2011-08,"0071604022,9780071604024",,,,,,,,,,Index absent,0,,,,,1,1,1,69130575,chm,3A21C47D96EBF0F5A6874B1E448A6ED9,,,_358118.3a21c47d96ebf0f5a6874b1e448a6ed9.chm,0,2000-01-01 01:00:00,2016-04-03 02:51:08,636000/3a21c47d96ebf0f5a6874b1e448a6ed9-d.jpg,,
21930837,كلمة الإخلاص وتحقيق معناها,,,,الشيخ محمد ناصر الدين الالباني,,,,,78,0,Arabic ,,,до 2011-08,,,,,,,,,,,,0,,,,,1,,0,1070481,pdf,BD003A903586BD9CC364229E3CBF8C77,,,_358119.bd003a903586bd9cc364229e3cbf8c77.pdf,0,2000-01-01 01:00:00,2016-04-03 02:51:08,636000/bd003a903586bd9cc364229e3cbf8c77-g.jpg,,
21930838,Konz. 1000 ganz legale Steuertricks 2008,,,,Franz Konz,2008,,Knaur,,817,0,German ,,,до 2011-08,9783426780497,,,,,,,,,,,0,,,,,0,1,1,6278219,pdf,584F435EA629A702CC356370271D403A,,,_358121.584f435ea629a702cc356370271d403a.pdf,0,2000-01-01 01:00:00,2016-04-03 02:51:08,636000/584f435ea629a702cc356370271d403a-d.jpg,,
21930839,The Affect Theory Reader,,,,"Melissa Gregg, Gregory J. Seigworth",2010,,Duke University Press,,417,0,English ,,,до 2011-08,"0822347768,9780822347767,082234758X,9780822347583",,,,,152.4,BF175.5.A35 A344 2010,,,OL24452863M,,0,,,,1,1,1,1,54944334,pdf,DDC8F3633C7E8424338485CDD2E4CB52,,,_358122.ddc8f3633c7e8424338485cdd2e4cb52.pdf,0,2000-01-01 01:00:00,2016-04-03 02:51:08,636000/ddc8f3633c7e8424338485cdd2e4cb52-d.jpg,,
21930840,مساجلة علمية بين الامامين العز بن عبد السلام وابن الصلاح,,,,الشيخ محمد ناصر الدين الالباني,,,,,86,0,Arabic ,,,до 2011-08,,,,,,,,,,,,0,,,,,1,1,0,1061120,pdf,B4B2B0F237D24C0D36A69A10DE46AF7F,,,_358123.b4b2b0f237d24c0d36a69a10de46af7f.pdf,0,2000-01-01 01:00:00,2016-04-03 02:51:08,636000/b4b2b0f237d24c0d36a69a10de46af7f-g.jpg,,
21930841,"Guyton and Hall Textbook of Medical Physiology, 12th Edition",,,,John E. Hall PhD,2010,12,Saunders,,,0,English ,,,до 2011-08,"1416045740,9781416045748",,,,,612,QP34.5 .G9 2011,,,OL23697319M,Front Matter &amp; Index absent,0,,,,,1,1,1,52783087,chm,15998BDA5CF122A331BB11367FACFBFC,,,_358124.15998bda5cf122a331bb11367facfbfc.chm,0,2000-01-01 01:00:00,2016-04-03 02:51:08,636000/15998bda5cf122a331bb11367facfbfc-d.jpg,,
21930842,"Mircea Eliade - Dinsel İnançlar ve Düşünceler Tarihi, Cilt 3, Muhammed'den Reform Çağına",,,,Mircea Eliade,2003,,Kabalcı Yayınevi,,328,0,Turkish ,,,до 2011-08,"9758240838,9789758240838",,,,,,,,,,,0,,,,0,1,0,1,9466317,pdf,4DCB014BF0A7C1E08D5CA7A9D591DDDC,,,_358126.4dcb014bf0a7c1e08d5ca7a9d591dddc.pdf,0,2000-01-01 01:00:00,2016-04-03 02:51:08,636000/4dcb014bf0a7c1e08d5ca7a9d591dddc-g.jpg,,
21930843,"Mircea Eliade - Dinsel İnançlar ve Düşünceler Tarihi, Cilt 2, Gotama Budha'dan Hıristiyanlığın Doğuşuna",,,,Mircea Eliade,2003,,Kabalcı,,479,0,Turkish ,,,до 2011-08,"975824082X,9789758240821",,,,,,,,,OL13160149M,,0,,,,0,1,0,1,12457462,pdf,4A949E698B62A5A15E22CA204BC1D660,,,_358127.4a949e698b62a5a15e22ca204bc1d660.pdf,0,2000-01-01 01:00:00,2016-04-03 02:51:08,636000/4a949e698b62a5a15e22ca204bc1d660-g.jpg,,
21930844,Storia dell'India e del Pakistan. Due paesi in conflitto,,,,Sumit Ganguly,2007,,Mondadori Bruno,,219,0,Italian ,,,до 2011-08,"884249982X,9788842499824",,,,,,,,nEYdkolBy4kC,,,0,,,,1,0,0,1,6056343,pdf,4F22F39D5FE44DE3365488F2FC97B08A,,,_358128.4f22f39d5fe44de3365488f2fc97b08a.pdf,0,2000-01-01 01:00:00,2016-04-03 02:51:08,636000/4f22f39d5fe44de3365488f2fc97b08a-g.jpg,,
21930845,Il singhiozzo dell'uomo bianco,,,,Pascal Bruckner,2008,,Guanda,,295,0,Italian ,,,до 2011-08,"8860881382,9788860881380",,,,,,,,OHivLAAACAAJ,,,0,,,,1,0,0,1,7583171,pdf,37196D2A49AD5325C31E4FB9A8AACB3A,,,_358129.37196d2a49ad5325c31e4fb9a8aacb3a.pdf,0,2000-01-01 01:00:00,2016-04-03 02:51:08,636000/37196d2a49ad5325c31e4fb9a8aacb3a-g.jpg,,
21930846,Essentials of complementary and alternative medicine,,,,"Wayne B. Jonas, Jeffrey S. Levin",1999,,Williams & Wilkins,,808,0,English ,,,до 2011-08,"068330674X,9780683306743",,,,,615.5,R733 .E87 1999,,,OL22164600M,,0,,,,,1,,1,41836049,pdf,27D517B6DBEC651BC997CD478B3F0253,,,_358130.27d517b6dbec651bc997cd478b3f0253.pdf,0,2000-01-01 01:00:00,2016-04-03 02:51:08,636000/27d517b6dbec651bc997cd478b3f0253-d.jpg,,
21930847,Verso il califfato universale. Come l'Europa è diventata complice dell'espansionismo mussulmano,,,,Bat Ye'or,2009,,Lindau,,218,0,Italian ,,,до 2011-08,"887180810X,9788871808109",,,,,,,,Vpl5PgAACAAJ,,,0,,,,1,0,0,1,5106065,pdf,FC14D2E6836248865D6F414E44DBB573,,,_358131.fc14d2e6836248865d6f414e44dbb573.pdf,0,2000-01-01 01:00:00,2016-04-03 02:51:08,636000/fc14d2e6836248865d6f414e44dbb573-g.jpg,,
21930848,"Printing, propaganda, and Martin Luther",,,,Mark U. Edwards,1994,First,University of California Press,,226,0,English ,,,до 2011-08,"0520084624,9780520084629",,,,,"284.1/092,B",BR325 .E343 1994,,,OL1423575M,,0,,,,1,0,1,1,1736357,pdf,5FB34D890868F8631B0EE27BE4765402,,,_358132.5fb34d890868f8631b0ee27be4765402.pdf,0,2000-01-01 01:00:00,2016-04-03 02:51:08,636000/5fb34d890868f8631b0ee27be4765402-d.jpg,,
21930849,"Printing, propaganda, and Martin Luther",,,,Mark U. Edwards,1994,First,University of California Press,,226,0,English ,,,до 2011-08,"0520084624,9780520084629",,,,,"284.1/092,B",BR325 .E343 1994,,,OL1423575M,,0,,,,1,1,,1,946122,chm,ABB5D12F3C149552CAC51C9C930BF861,,,_358133.abb5d12f3c149552cac51c9c930bf861.chm,0,2000-01-01 01:00:00,2016-04-03 02:51:08,636000/abb5d12f3c149552cac51c9c930bf861-d.jpg,,
21930850,"Davidson's Principles and Practice of Medicine, 21st Edition",,,,"Nicki R. Colledge, Brian R. Walker, Stuart H. Ralston",2010,21,Churchill Livingstone,,,0,English ,,,до 2011-08,"0702030856,9780702030857",,,,,616,RC46 .D24 2010,,,OL23929462M,Front Matter &amp; Index absent,0,,,,,1,1,1,61817351,chm,236D4988B3873944DB61122C11D3279C,,,_358134.236d4988b3873944db61122c11d3279c.chm,0,2000-01-01 01:00:00,2016-04-03 02:51:08,636000/236d4988b3873944db61122c11d3279c-d.jpg,,
21930851,Early Christian Doctrines,,,,J. N. D. Kelly,1968,,"Adams & Charles Black, London",,501,0,English ,,,до 2011-08,,,,,,,,,,,,300,,,,0,1,0,1,8569621,djvu,5D2EAF80EBC0B0C23FAB033374DCAF76,,,_358135.5d2eaf80ebc0b0c23fab033374dcaf76.djvu,0,2000-01-01 01:00:00,2016-04-03 02:51:08,636000/5d2eaf80ebc0b0c23fab033374dcaf76-g.jpg,,
21930852,اقتضاء العلم العمل,,,,الشيخ محمد ناصر الدين الالباني,,,,,128,0,Arabic ,,,до 2011-08,,,,,,,,,,,,0,,,,,1,,0,1705505,pdf,E79B15EF943A0DB666CAD835A9FC7351,,,_358136.e79b15ef943a0db666cad835a9fc7351.pdf,0,2000-01-01 01:00:00,2016-04-03 02:51:08,636000/e79b15ef943a0db666cad835a9fc7351-g.jpg,,
21930853,Ahi serva Italia: un appello ai miei concittadini,,,,Paolo Sylos Labini,2006,,Laterza,,192,0,Italian ,,,до 2011-08,"8842079758,9788842079750",,,,,,,,,OL19282624M,,0,,,,1,0,0,1,517123,pdf,9EEA11B6B0A26ED79CAAE8337BC0DF06,,,_358137.9eea11b6b0a26ed79caae8337bc0df06.pdf,0,2000-01-01 01:00:00,2016-04-03 02:51:08,636000/9eea11b6b0a26ed79caae8337bc0df06-d.jpg,,
21930854,Żywioł i forma. Wstęp do badań empirycznych nad kulturą współczesną,,,,Pawluczuk Włodzimierz,,,,,125,0,Polish ,,,до 2011-08,,,,,,,,,,,,0,,,,0,1,,0,6576869,pdf,AFA1700F5BF30635776A34BC7DDDE8DA,,,_358138.afa1700f5bf30635776a34bc7ddde8da.pdf,0,2000-01-01 01:00:00,2016-04-03 02:51:08,636000/afa1700f5bf30635776a34bc7ddde8da-g.jpg,,
21930855,Le dee viventi,,,,Marija Gimbutas,2005,,Medusa Edizioni,,337,0,Italian ,,,до 2011-08,"8876980091,9788876980091",,,,,,,,r2OJPQAACAAJ,,,0,,,,1,0,0,1,9988002,pdf,F337C55F76F928DAD83417E1907C586B,,,_358139.f337c55f76f928dad83417e1907c586b.pdf,0,2000-01-01 01:00:00,2016-04-03 02:51:08,636000/f337c55f76f928dad83417e1907c586b-g.jpg,,
21930856,Conceptual Design of Chemical Processes,,,,James Douglas,1988,1,McGraw-Hill Science/Engineering/Math,,309,0,English ,,,до 2011-08,"0070177627,9780070177628",,,,,660.2/81,TP155.7 .D67 1988,,,OL2391922M,,0,,,,,1,1,0,62743777,pdf,06AF2C821CEBFC1D676AD1678A41F2F2,,,_358140.06af2c821cebfc1d676ad1678a41f2f2.pdf,0,2000-01-01 01:00:00,2016-04-03 02:51:08,636000/06af2c821cebfc1d676ad1678a41f2f2-d.jpg,,
21930857,"Podstawy elektroniki: podręcznik dla technikum, Part 1",,,,"Barbara Pióro, Marek Pióro",2007,,WSiP,,186,0,Polish ,,,до 2011-08,"8302061816,9788302061813",,,,,,,,,,,0,,,,,1,,0,4156150,pdf,830D0D753EB330B792ABAA08958C18DD,,,_358141.830d0d753eb330b792abaa08958c18dd.pdf,0,2000-01-01 01:00:00,2016-04-03 02:51:08,636000/830d0d753eb330b792abaa08958c18dd-g.jpg,,
21930858,"Kashmir. India, Pakistan e la guerra infinita",,,,Victoria Schofield,2004,,Fazi Editore,,384,0,Italian ,,,до 2011-08,"888112582X,9788881125821",,,,,,,,kE1ShAkD1tUC,,,0,,,,1,0,0,1,12025422,pdf,338D06C0566DFC27D3338607A321D09C,,,_358142.338d06c0566dfc27d3338607a321d09c.pdf,0,2000-01-01 01:00:00,2016-04-03 02:51:08,636000/338d06c0566dfc27d3338607a321d09c-g.jpg,,
21930859,"Podstawy elektroniki: podręcznik dla technikum, Part 2",,,,"Barbara Pióro, Marek Pióro",2007,,WSiP,,396,0,Polish ,,,до 2011-08,"8302066613,9788302066610",,,,,,,,,,,0,,,,,1,,0,8032076,pdf,AD5753C7DD3C79A960E0A3807B2CA25F,,,_358143.ad5753c7dd3c79a960e0a3807b2ca25f.pdf,0,2000-01-01 01:00:00,2016-04-03 02:51:08,636000/ad5753c7dd3c79a960e0a3807b2ca25f-g.jpg,,
21930860,Историја средњовековне босанске државе,,,,Сима Ћирковић,1964,,Београд : Српска књижевна задруга,,276,0,Serbian ,,,до 2011-08,,,,,,,,,,,some images missing,300,,,,0,1,1,1,143019874,pdf,B8FA9A7E8E5226D876867BDF582FFCA2,,,_358144.b8fa9a7e8e5226d876867bdf582ffca2.pdf,0,2000-01-01 01:00:00,2016-04-03 02:51:08,636000/b8fa9a7e8e5226d876867bdf582ffca2-g.jpg,,
21930861,La città dei bambini. Un modo nuovo di pensare la città,,,,Francesco Tonucci,2005,,Laterza,,256,0,Italian ,,,до 2011-08,"8842075515,9788842075516",,,,,,,,,,,0,,,,1,0,0,1,3025606,pdf,948D928EE57ECC69A0171F3C14C0B5C6,,,_358145.948d928ee57ecc69a0171f3c14c0b5c6.pdf,0,2000-01-01 01:00:00,2016-04-03 02:51:08,636000/948d928ee57ecc69a0171f3c14c0b5c6-g.jpg,,
21930862,Perry Mason und der grinsende Gorilla,,Ullstein Krimi Klassiker,,Erle Stanley Gardner,1980,,Ullstein Tb,,208,0,German ,,,до 2011-08,"354810066X,9783548100661",,,,,,,,,,,0,,,,1,0,1,1,867295,pdf,7C2FBCA14EB2E5E16F7A7A98EFA675CD,,,_358146.7c2fbca14eb2e5e16f7a7a98efa675cd.pdf,0,2000-01-01 01:00:00,2016-04-03 02:51:08,636000/7c2fbca14eb2e5e16f7a7a98efa675cd-g.jpg,,
21930863,Rynki kapitalowe cz.I.  Metody ilosciowe,,,,Waldemar Tarczynski,2001,,Placet,,198,0,Polish ,,,до 2011-08,"8385428631,9788385428633",,,,,,,,,,,0,,,,,1,,1,9889671,pdf,84AF3DB10F45447B1A3ED86C8E7F7674,,,_358147.84af3db10f45447b1a3ed86c8e7f7674.pdf,0,2000-01-01 01:00:00,2016-04-03 02:51:08,636000/84af3db10f45447b1a3ed86c8e7f7674-g.jpg,,
21930864,Gli ultimi giorni dell'Europa: epitaffio per un vecchio continente,,,,Walter Laqueur,2008,,Marsilio,,223,0,Italian ,,,до 2011-08,"883179552X,9788831795524",,,,,,,,LRO-PAAACAAJ,,,0,,,,1,0,0,1,5680595,pdf,31E71B5FF1D416516920EC37DA57DD03,,,_358148.31e71b5ff1d416516920ec37da57dd03.pdf,0,2000-01-01 01:00:00,2016-04-03 02:51:08,636000/31e71b5ff1d416516920ec37da57dd03-d.jpg,,
21930865,Jumbo Easy Piano Songbook: 200 Songs for All Occasions,,,,Hal Leonard Corp.,2004,,Hal Leonard Corporation,,514,0,English ,,,до 2011-08,"0634062883,9780634062889",,,,,,,,,OL7623676M,,0,,,,1,0,1,0,27834899,pdf,F8D7234356D6B11DA87812AC0FCF9C5D,,,_358149.f8d7234356d6b11da87812ac0fcf9c5d.pdf,0,2000-01-01 01:00:00,2016-04-03 02:51:08,636000/f8d7234356d6b11da87812ac0fcf9c5d-d.jpg,,
21930866,تصحيح حديث إفطار الصائم قبل سفره بعد الفجر,,,,الشيخ محمد ناصر الدين الالباني,,,,,47,0,Arabic ,,,до 2011-08,,,,,,,,,,,,0,,,,,1,1,0,705996,pdf,699D7D958116681256292385D6356B2B,,,_358151.699d7d958116681256292385d6356b2b.pdf,0,2000-01-01 01:00:00,2016-04-03 02:51:08,636000/699d7d958116681256292385d6356b2b-g.jpg,,
21930867,Psychologia rynków finansowych: u źródeł analizy technicznej,,,,Tony Plummer,1995,,Wig-press,,307,0,Polish ,,,до 2011-08,"8390329611,9788390329611",,,,,,,,,,,0,,,,,1,1,1,16121428,pdf,58EADB3045A7EDDCDF8B8AD21D2A3E97,,,_358152.58eadb3045a7eddcdf8b8ad21d2a3e97.pdf,0,2000-01-01 01:00:00,2016-04-03 02:51:08,636000/58eadb3045a7eddcdf8b8ad21d2a3e97-g.jpg,,
21930868,Świece i inne japońskie techniki analizowania wykresów,,,,Steve Nison,1996,,Wig-Press,,263,0,Polish ,,,до 2011-08,"8390329646,9788390329642",,,,,,,,,,,0,,,,,1,,0,16482260,pdf,8329903A4F759333D9BB0E508B19EB75,,,_358155.8329903a4f759333d9bb0e508b19eb75.pdf,0,2000-01-01 01:00:00,2016-04-03 02:51:08,636000/8329903a4f759333d9bb0e508b19eb75-g.jpg,,
21930869,Cascading Style Sheets - Das umfassende Handbuch,,,,Eric A. Meyer,2004,,O'Reilly Vlg. GmbH & Co.,,569,0,German ,,,до 2011-08,"3897213869,9783897213869",,,,,,,,,,,0,,,,,0,1,1,7595959,pdf,1A1E77EF7019684F2CB12D6C51437EEC,,,_358156.1a1e77ef7019684f2cb12d6c51437eec.pdf,0,2000-01-01 01:00:00,2016-04-03 02:51:08,636000/1a1e77ef7019684f2cb12d6c51437eec-d.jpg,,
21930870,ABC of Occupational and Environmental Medicine (ABC Series),,,,"David Snashall, Dipti Patel",2003,2,BMJ Books,,133,0,English ,,,до 2011-08,"0727916114,9780727916112",,,,,,,,7pd9QgAACAAJ,OL7868435M,,0,,,,0,1,0,1,2705265,pdf,17EA26860DBB642F8CE256701E35677C,,,_358158.17ea26860dbb642f8ce256701e35677c.pdf,0,2000-01-01 01:00:00,2016-04-03 02:51:08,636000/17ea26860dbb642f8ce256701e35677c-d.jpg,,
21930871,Eksperymentalna chemia fizyczna,,,,Lucjan Sobczyk (red.),1982,,Państwowe Wydaw. Naukowe,,511,0,Polish ,,,до 2011-08,"8301003901,9788301003906",,,,,,,,,,,0,,,,,1,,0,27096954,pdf,BD5118646B7E1FA2A19A7179D19A40CC,,,_358159.bd5118646b7e1fa2a19a7179d19a40cc.pdf,0,2000-01-01 01:00:00,2016-04-03 02:51:08,636000/bd5118646b7e1fa2a19a7179d19a40cc-g.jpg,,
21930872,Sottosviluppo: una strategia di riforme,,,,Paolo Sylos Labini,2000,,Laterza,,228,0,Italian ,,,до 2011-08,"8842062049,9788842062042",,,,,,,,,,,0,,,,1,0,0,1,1564321,pdf,D72058A75D7CDAC2A9E3A3B5B5248943,,,_358160.d72058a75d7cdac2a9e3a3b5b5248943.pdf,0,2000-01-01 01:00:00,2016-04-03 02:51:08,636000/d72058a75d7cdac2a9e3a3b5b5248943-g.jpg,,
21930873,"The Canon of the New Testament: Its Origin, Development, and Significance",,,,Bruce M. Metzger,1987,,"Oxford University Press, USA",,332,0,English ,,,до 2011-08,"0198261802,9780198261803",,,,,225.1/2,BS2320 .M47 1987,,,OL2727923M,,0,,,,0,1,0,1,15565454,pdf,2112303DEF675FC64F1C7CCBE23D00CF,,,_358161.2112303def675fc64f1c7ccbe23d00cf.pdf,0,2000-01-01 01:00:00,2016-04-03 02:51:08,636000/2112303def675fc64f1c7ccbe23d00cf-d.jpg,,
21930874,What's Wrong with the Liberal Party?,,,,Greg Barns,2003,,Cambridge University Press,,177,0,English ,,,до 2011-08,"9780521542883,052154288X",,,,,324.29405,JQ4098.L5 B37 2003,,5UpO9sqVQkoC,OL22574454M,,0,,,,1,1,1,1,3042095,pdf,B8EC9911B431E7311A60C0D436F03FD4,,,_358162.b8ec9911b431e7311a60c0d436f03fd4.pdf,0,2000-01-01 01:00:00,2016-04-03 02:51:08,636000/b8ec9911b431e7311a60c0d436f03fd4-d.jpg,,
21930875,"Currents of Radicalism: Popular Radicalism, Organised Labour and Party Politics in Britain, 1850&ndash;1914",,,,"Eugenio F. Biagini (editor), Alastair J. Reid (editor)",1991,,Cambridge University Press,,316,0,English ,,,до 2011-08,9780521394550,,,,,,,,VdZNzu6gGpoC,OL7739265M,"missing pages 282, 283",0,,,,1,1,0,1,6999313,pdf,51B98F968D75217854632084468B09EC,,,_358164.51b98f968d75217854632084468b09ec.pdf,0,2000-01-01 01:00:00,2016-04-03 02:51:08,636000/51b98f968d75217854632084468b09ec-d.jpg,,
21930876,"Gray's Anatomy for Students, 2nd Edition",,,,"Richard L. Drake, A. Wayne Vogl, Adam W. M. Mitchell",2009,2,Churchill Livingstone,,,0,English ,,,до 2011-08,"0443069522,9780443069529",,,,,612,QM23.2 .D73 2010,,,OL22666123M,Front Matter &amp; Index absent,0,,,,,1,1,1,65471085,chm,A1E9750CA787EC9F3F003A1B52897DA9,,,_358166.a1e9750ca787ec9f3f003a1b52897da9.chm,0,2000-01-01 01:00:00,2016-04-03 02:51:08,636000/a1e9750ca787ec9f3f003a1b52897da9-d.jpg,,
21930877,"The Warsaw Rising of 1944 (Cambridge Russian, Soviet and Post-Soviet Studies (No. 15))",,"Cambridge Russian, Soviet and Post-Soviet Studies (No. 15)",,Jan M. Ciechanowski,1974,2nd Edition,Cambridge University Press,,345,0,English ,,,до 2011-08,9780521202039,,,,,,,,cNxkQgAACAAJ,,,0,,,,1,1,1,1,6095733,pdf,DCEC2F7E6EE9866EF13F020DF07ACD65,,,_358167.dcec2f7e6ee9866ef13f020df07acd65.pdf,0,2000-01-01 01:00:00,2016-04-03 02:51:08,636000/dcec2f7e6ee9866ef13f020df07acd65-d.jpg,,
21930878,Economic Life in Ottoman Jerusalem (Cambridge Studies in Islamic Civilization),,Cambridge Studies in Islamic Civilization,,Amnon Cohen,1989,,Cambridge University Press,,188,0,English ,,,до 2011-08,9780521365512,,,,,,,,qD5xQgAACAAJ,,,0,,,,1,1,1,1,6757640,pdf,C25B2849F8A1EC081A0AE3402A74F1DE,,,_358168.c25b2849f8a1ec081a0ae3402a74f1de.pdf,0,2000-01-01 01:00:00,2016-04-03 02:51:08,636000/c25b2849f8a1ec081a0ae3402a74f1de-d.jpg,,
21930879,The Inflammatory Myopathies,,,,"Lawrence J. Kagen (auth.), Lawrence J. Kagen (eds.)",2009,1,Humana Press,,342,0,English,,,до 2011-08,"1603278281,9781603278287",,,,,,,10.1007/978-1-60327-827-0,,,Chapter 11 missing,0,,,,1,1,1,1,5352002,pdf,A211FB3299222CA43314C59057967E8C,,,_358169.a211fb3299222ca43314c59057967e8c.pdf,0,2000-01-01 01:00:00,2016-04-03 02:51:08,636000/a211fb3299222ca43314c59057967e8c-d.jpg,,
21930880,Stochastic Partial Differential Equations (London Mathematical Society Lecture Note Series (No. 216)),,London Mathematical Society Lecture Note Series (No. 216),,Alison Etheridge (editor),1995,First Edition,Cambridge University Press,,349,0,English ,,,до 2011-08,9780521483193,,,,,,,,gyJEem3Q_T4C,,,0,,,,1,1,0,1,8020486,pdf,675C29CDD8A5DE8A1DF61D3607B54E07,,,_358170.675c29cdd8a5de8a1df61d3607b54e07.pdf,0,2000-01-01 01:00:00,2016-04-03 02:51:08,636000/675c29cdd8a5de8a1df61d3607b54e07-d.jpg,,
21930881,The Provincial Book Trade in Eighteenth-Century England,,Cambridge Studies in Publishing and Printing History,,John Feather,1985,,Cambridge University Press,,193,0,English,,,до 2011-08,9780521303347,,,,,,,,,,,0,,,,1,1,1,1,4767298,pdf,95C147340C5D1105BE58B607927FB7A6,,,_358171.95c147340c5d1105be58b607927fb7a6.pdf,0,2000-01-01 01:00:00,2016-04-03 02:51:08,636000/95c147340c5d1105be58b607927fb7a6-g.jpg,,
21930882,Die kulturelle Unterscheidung: Elemente einer Philosophie des Kulturellen,,,,Wolfgang Fritz Haug,2011,1,Argument,Hamburg,336,0,German,195,,0,"3886194094,9783886194094",,,,,,,,,,,0,,,,,,,1,1636382,pdf,2a983388959a32bd6032f00da30e32bb,,,Haug - Die kulturelle Unterscheidung.pdf,0,2000-01-01 01:00:00,2016-04-03 02:51:08,1310000/2a983388959a32bd6032f00da30e32bb-d.jpg,,
21930883,"Substance, Form, and Psyche: An Aristotelean Metaphysics",,,,Montgomery Furth,1988,,Cambridge University Press,,315,0,Latin ,,,до 2011-08,9780521341431,,,,,,,,7gxmQgAACAAJ,,,0,,,,1,1,0,1,5926256,pdf,0AFF5F51AB128594A052D6CDB313C5C4,,,_358172.0aff5f51ab128594a052d6cdb313c5c4.pdf,0,2000-01-01 01:00:00,2016-04-03 02:51:08,636000/0aff5f51ab128594a052d6cdb313c5c4-d.gif,,
21930884,"Spain, Europe and the Atlantic: Essays in Honour of John H. Elliott",,,,"Richard L. Kagan, Geoffrey Parker",1995,,Cambridge University Press,,376,0,English ,,,до 2011-08,9780521470452,,,,,,,,_bRsQgAACAAJ,OL7742050M,,0,,,,1,1,0,1,9040494,pdf,0ED8C267A21A3F80721CFF021E605660,,,_358174.0ed8c267a21a3f80721cff021e605660.pdf,0,2000-01-01 01:00:00,2016-04-03 02:51:08,636000/0ed8c267a21a3f80721cff021e605660-d.jpg,,
21930885,Restricted Orbit Equivalence for Actions of Discrete Amenable Groups (Cambridge Tracts in Mathematics (No. 146)),,Cambridge Tracts in Mathematics (No. 146),,"Janet Whalen Kammeyer, Daniel J. Rudolph",2002,First Edition,Cambridge University Press,,208,0,English ,,,до 2011-08,9780521807951,,,,,,,,6fq6TcnaQRkC,OL7755108M,,0,,,,1,1,1,1,3323357,pdf,E508606943FDE8B3BC7C498A7FB03933,,,_358175.e508606943fde8b3bc7c498a7fb03933.pdf,0,2000-01-01 01:00:00,2016-04-03 02:51:08,636000/e508606943fde8b3bc7c498a7fb03933-d.jpg,,
21930886,"Fallible Man: Philosophy of the Will (Ricoeur, Paul. Philosophie De La Volonte.)",,,,Paul Ricoeur,1986,2,Fordham University Press,,198,0,English ,,,до 2011-08,"0823211509,9780823211500",,,,,128,BD450 .R4713 1986,,,OL2424305M,,0,,,,0,1,0,1,2372582,pdf,A29E1CD8EB6FF242060D0F346BAB6551,,,_358176.a29e1cd8eb6ff242060d0f346bab6551.pdf,0,2000-01-01 01:00:00,2016-04-03 02:51:08,636000/a29e1cd8eb6ff242060d0f346bab6551-d.jpg,,
21930887,This Sex Which Is Not One,,,,Luce Irigaray,1985,,Cornell University Press,,224,0,English ,,,до 2011-08,"0801493315,9780801415463,0801415462,9780801493317",,,,,155.3/33,HQ1206 .I713 1985,,,OL2860241M,,0,,,,1,0,1,1,2878779,pdf,840452A502805C45C9D011CC46E578C2,,,_358177.840452a502805c45c9d011cc46e578c2.pdf,0,2000-01-01 01:00:00,2016-04-03 02:51:08,636000/840452a502805c45c9d011cc46e578c2-d.jpg,,
21930888,Isaiah XXI: A palimpsest,,,,A. A. MacIntosh,1980,1St Edition,CUP Archive,,169,0,English ,,,до 2011-08,9780521229432,,,,,,,,Du48AAAAIAAJ,,,0,,,,1,1,1,1,2945616,pdf,61F40E1ABA1276BD32CCE329B1DD9CDB,,,_358178.61f40e1aba1276bd32cce329b1dd9cdb.pdf,0,2000-01-01 01:00:00,2016-04-03 02:51:08,636000/61f40e1aba1276bd32cce329b1dd9cdb-d.jpg,,
21930889,A House Dividing: Economic Development in Pennsylvania and Virginia Before the Civil War (Studies in Economic History and Policy),,"Studies in Economic History and Policy'',",,John Majewski,2000,,Cambridge University Press,,234,0,English ,,,до 2011-08,9780521590235,,,,,,,,RtvARIjfeP4C,OL7747422M,missing page 185,0,,,,1,1,1,1,5044961,pdf,B2DE7EB6E760AFD3F222D376E052995E,,,_358179.b2de7eb6e760afd3f222d376e052995e.pdf,0,2000-01-01 01:00:00,2016-04-03 02:51:08,636000/b2de7eb6e760afd3f222d376e052995e-d.jpg,,
21930890,حقيقة الصيام - تحقيق الشيخ الألباني,,,,الشيخ محمد ناصر الدين الالباني,,,,,106,0,Arabic ,,,до 2011-08,,,,,,,,,,,,0,,,,,1,,0,1325454,pdf,F048B3AF5DF861745DDCC1FA1ED31DD6,,,_358180.f048b3af5df861745ddcc1fa1ed31dd6.pdf,0,2000-01-01 01:00:00,2016-04-03 02:51:08,636000/f048b3af5df861745ddcc1fa1ed31dd6-g.jpg,,
21930891,Color Atlas of Emergency Trauma,,,,"Diku P. Mandavia (editor), Edward J. Newton (editor), Demetrios Demetriades (editor)",2003,1,Cambridge University Press,,314,0,English ,,,до 2011-08,9780521781480,,,,,,,,eDnIAdjXZRcC,OL7753543M,,0,,,,1,1,0,1,7265609,pdf,CC2FB0DE23282AE3954505ED9403630B,,,_358181.cc2fb0de23282ae3954505ed9403630b.pdf,0,2000-01-01 01:00:00,2016-04-03 02:51:08,636000/cc2fb0de23282ae3954505ed9403630b-d.jpg,,
21930892,"News Corporation, Technology and the Workplace: Global Strategies, Local Change",,,,Timothy Marjoribanks,2000,1ST,Cambridge University Press,,232,0,English ,,,до 2011-08,9780521772808,,,,,,,,hkBsQgAACAAJ,,,0,,,,1,1,1,1,4984372,pdf,5D0C4B06F5F8ACD9CF6FAC2933CBA0DC,,,_358182.5d0c4b06f5f8acd9cf6fac2933cba0dc.pdf,0,2000-01-01 01:00:00,2016-04-03 02:51:08,636000/5d0c4b06f5f8acd9cf6fac2933cba0dc-d.jpg,,
21930893,Common Breast Lesions: A Photographic Guide to Diagnosis and Treatment,,,,Samuel Pilnik (editor),2003,1,Cambridge University Press,,272,0,English ,,,до 2011-08,9780521823579,,,,,,,,Xu1ff3CnkZ8C,OL7765126M,,0,,,,1,1,0,1,70918163,pdf,3DBA67210B8A9F410A101F782A3FD29B,,,_358183.3dba67210b8a9f410a101f782a3fd29b.pdf,0,2000-01-01 01:00:00,2016-04-03 02:51:08,636000/3dba67210b8a9f410a101f782a3fd29b-d.jpg,,
21930894,Geometries on Surfaces (Encyclopedia of Mathematics and its Applications (No. 84)),,Encyclopedia of Mathematics and its Applications (No. 84),,"Burkard Polster, G&uuml;nter Steinke",2001,1st,Cambridge University Press,,513,0,English ,,,до 2011-08,9780521660587,,,,,,,,zpYBQG2lcMMC,OL7750685M,,0,,,,1,1,0,1,9516322,pdf,33D69CD9DA912E7C7BC68F19DAEE222C,,,_358184.33d69cd9da912e7c7bc68f19daee222c.pdf,0,2000-01-01 01:00:00,2016-04-03 02:51:08,636000/33d69cd9da912e7c7bc68f19daee222c-d.jpg,,
21930895,Women Writers and the Early Modern British Political Tradition,,,,Hilda L. Smith (editor),1998,,Cambridge University Press,,407,0,English ,,,до 2011-08,9780521585095,,,,,,,,oPxba9aX5xwC,,,0,,,,1,1,0,1,9395111,pdf,E79C4A68EF0C94FAE3EDDF688BCCBD0B,,,_358185.e79c4a68ef0c94fae3eddf688bccbd0b.pdf,0,2000-01-01 01:00:00,2016-04-03 02:51:08,636000/e79c4a68ef0c94fae3eddf688bccbd0b-d.jpg,,
21930896,World Conqueror and World Renouncer: A Study of Buddhism and Polity in Thailand against a Historical Background (Cambridge Studies in Social and Cultural Anthropology (No. 15)),,Cambridge Studies in Social and Cultural Anthropology (No. 15),,S. J. Tambiah,1976,,Cambridge University Press,,566,0,English ,,,до 2011-08,9780521211406,,,,,,,,F7K0QgAACAAJ,,,0,,,,1,1,1,1,13677656,pdf,E30D41065F84642C941EAC69D9CD37AB,,,_358186.e30d41065f84642c941eac69d9cd37ab.pdf,0,2000-01-01 01:00:00,2016-04-03 02:51:08,636000/e30d41065f84642c941eac69d9cd37ab-g.jpg,,
21930897,Uterine Fibroids: Embolization and other Treatments,,,,Togas Tulandi (editor),2003,1,Cambridge University Press,,172,0,English ,,,до 2011-08,9780521819381,,,,,,,,fZ8eha5yIfcC,OL7764884M,,0,,,,1,1,0,1,12956595,pdf,DC5D8492B043F516823778A11F17702C,,,_358187.dc5d8492b043f516823778a11f17702c.pdf,0,2000-01-01 01:00:00,2016-04-03 02:51:08,636000/dc5d8492b043f516823778a11f17702c-d.jpg,,
21930898,Petitions in Social History (International Review of Social History Supplements (No. 9)),,International Review of Social History Supplements (No. 9),,Lex Heerma van Voss (editor),2002,,Cambridge University Press,,241,0,English ,,,до 2011-08,9780521013222,,,,,,,10.1017/S002085900100030X,PPyGbsRo18EC,,,0,,,,1,1,0,1,6132420,pdf,F389CA6EC370536892198B05032FFEF7,,,_358188.f389ca6ec370536892198b05032ffef7.pdf,0,2000-01-01 01:00:00,2016-04-03 02:51:08,636000/f389ca6ec370536892198b05032ffef7-d.jpg,,
21930899,Cavendish Problems in Classical Physics (Second Edition),,,,Brian Pippard,1971,2,Cambridge University Press,,67,0,English ,,,до 2011-08,"0521083095,9780521083096",,,,,530/.076,QC32 .C3 1971,,,OL21492986M,,0,,,,1,1,1,0,10735492,pdf,A5E7BEF865EDD0D593B816E05BD01C7A,,,_358190.a5e7bef865edd0d593b816e05bd01c7a.pdf,0,2000-01-01 01:00:00,2016-04-03 02:51:08,636000/a5e7bef865edd0d593b816e05bd01c7a-d.jpg,,
21930900,"The Origins of Detente: The Genoa Conference and Soviet-Western Relations, 1921&ndash;1922 (Cambridge Russian, Soviet and Post-Soviet Studies (No. 50))",,"Cambridge Russian, Soviet and Post-Soviet Studies (No. 50)",,Stephen White,1985,1985 Edition,Cambridge University Press,,272,0,English ,,,до 2011-08,9780521308762,,,,,,,,yU54QgAACAAJ,,,0,,,,1,1,1,1,4118175,pdf,2AC59B69F21B21718A5757BFF8E39E44,,,_358191.2ac59b69f21b21718a5757bff8e39e44.pdf,0,2000-01-01 01:00:00,2016-04-03 02:51:08,636000/2ac59b69f21b21718a5757bff8e39e44-d.jpg,,
21930901,The Next Los Angeles: The Struggle for a Livable City,,,,"Robert Gottlieb, Regina Freer, Mark Vallianatos, Peter Dreier",2005,1,University of California Press,,291,0,English ,,,до 2011-08,"0520239997,9780520239999",,,,,306'.09794'940904—dc22,HN80.L7N49 2005,,,OL7711785M,,0,,,,,1,,1,1360213,pdf,C9B91C087E388265E7B317F048097B2F,,,_358192.c9b91c087e388265e7b317f048097b2f.pdf,0,2000-01-01 01:00:00,2016-04-03 02:51:08,636000/c9b91c087e388265e7b317f048097b2f-d.jpg,,
21930902,Dermatology Secrets in Color,,,,"James E. Fitzpatrick, Joseph G. Morelli",2006,3rd,Mosby,,0,0,English,,,до 2011-08,"1560536160,9781560536161",,,,,616.5,RL72 .D466 2007,,,,Front Matter & Index absent,0,,,,,1,1,1,30721377,chm,A3BD635C843DCC127EFABAFD814E14D9,,,_358193.a3bd635c843dcc127efabafd814e14d9.chm,0,2000-01-01 01:00:00,2016-04-03 02:51:08,636000/a3bd635c843dcc127efabafd814e14d9-d.jpg,,
21930903,Perry Mason und die sterbenden Fische,,Ullstein Krimi Klassiker,,Erle Stanley Gardner,1980,,Ullstein Tb.,,235,0,German ,,,до 2011-08,"354810066X,9783548100661",,,,,,,,,,,0,,,,1,0,1,1,921654,pdf,4CE82A8279828813C22B99C85118B96C,,,_358194.4ce82a8279828813c22b99c85118b96c.pdf,0,2000-01-01 01:00:00,2016-04-03 02:51:08,636000/4ce82a8279828813c22b99c85118b96c-g.jpg,,
21930904,Arthurian Narrative in the Latin Tradition (Cambridge Studies in Medieval Literature (No. 36)),,Cambridge Studies in Medieval Literature (No. 36),,Si&acirc;n Echard,1998,,Cambridge University Press,,272,0,English ,,,до 2011-08,9780521621267,,,,,,,,0o1NX1VoO4cC,,,0,,,,1,1,0,1,5386291,pdf,3963D57B73E4AC21F2E38F96A56DCF4C,,,_358195.3963d57b73e4ac21f2e38f96a56dcf4c.pdf,0,2000-01-01 01:00:00,2016-04-03 02:51:08,636000/3963d57b73e4ac21f2e38f96a56dcf4c-d.jpg,,
21930905,Księga Broni i Ekwipunku,,,,Opracowanie zbiorowe,,,,,161,0,Polish ,,,до 2011-08,,,,,,,,,,,,0,,,,,1,,0,81144935,pdf,68957BB93067E714573DFBC1651DD838,,,_358196.68957bb93067e714573dfbc1651dd838.pdf,0,2000-01-01 01:00:00,2016-04-03 02:51:08,636000/68957bb93067e714573dfbc1651dd838-g.jpg,,
21930906,Untimely Beggar: Poverty and Power from Baudelaire to Benjamin,,,,Patrick Greaney,2008,,Univ Of Minnesota Press,,253,0,English ,,,до 2011-08,"0816649502,9780816649501",,,,,809.933556 dc22,PN56.P56G73 2008,,,OL11384408M,,0,,,,,1,1,1,10860864,pdf,938B6CDA4A141658875DBB05B865E87D,,,_358197.938b6cda4a141658875dbb05b865e87d.pdf,0,2000-01-01 01:00:00,2016-04-03 02:51:08,636000/938b6cda4a141658875dbb05b865e87d-d.jpg,,
21930907,مختصر العلو للعلي الغفار,,,,الشيخ محمد ناصر الدين الالباني,,,,,304,0,Arabic ,,,до 2011-08,,,,,,,,,,,,0,,,,,1,1,0,5062135,pdf,9AE1F6810C5041071AE45420053DC26B,,,_358198.9ae1f6810c5041071ae45420053dc26b.pdf,0,2000-01-01 01:00:00,2016-04-03 02:51:08,636000/9ae1f6810c5041071ae45420053dc26b-g.jpg,,
21930908,The Elements of Content Strategy,,,,ERIN KISSANE,2011,,A Book Apart,,91,0,English ,,,до 2011-08,,,,,,,,,,,,0,,,,1,0,1,1,6164869,epub,019C77666C4E7FEE7556C675B26C8681,,,_358199.019c77666c4e7fee7556c675b26c8681.epub,0,2000-01-01 01:00:00,2016-04-03 02:51:08,636000/019C77666C4E7FEE7556C675B26C8681-g.jpg,,
21930909,"Models, Modules and Abelian Groups: In Memory of A. L. S. Corner",,,,"Rüdiger Göbel, Brendan Goldsmith",2008,,Walter de Gruyter,,509,0,English ,,,до 2011-08,9783110194371,,,,,,,,,,,0,,,,,1,0,1,4005813,pdf,5BCC44C55960213ACA12A2442B9A9046,,,_358200.5bcc44c55960213aca12a2442b9a9046.pdf,0,2000-01-01 01:00:00,2016-04-03 02:51:08,636000/5bcc44c55960213aca12a2442b9a9046-d.jpg,,
21930910,Easy EMG,,,,"Lyn Weiss, Julie Silver, Jay Weiss",2004,1,Butterworth-Heinemann,,269,0,English ,,,до 2011-08,"0750674318,9780750674317",,,,,,,,,OL21193055M,,0,,,,1,1,1,1,8220933,pdf,08E94AD72C1AABA61AAF8AA9752244B7,,,_358201.08e94ad72c1aaba61aaf8aa9752244b7.pdf,0,2000-01-01 01:00:00,2016-04-03 02:51:08,636000/08e94ad72c1aaba61aaf8aa9752244b7-d.jpg,,
21930911,Focus On Composing Photos: Focus on the Fundamentals,,Focus On Series,,Peter Ensenberger,2011,1,Focal Press (Elseiver),,152,0,English ,,,до 2011-08,"024081505X,9780240815053",,,,,770.1,TR179 .E57 2011,10.1016/B978-0-240-81505-3.00008-4,XM5LlWKt6KcC,OL25065101M,ToC missing.,0,,,,1,0,1,1,41729625,pdf,67BF78FCF22029D07A42F55764568427,,,_358204.67bf78fcf22029d07a42f55764568427.pdf,0,2000-01-01 01:00:00,2016-04-03 02:51:08,636000/67bf78fcf22029d07a42f55764568427-d.jpg,,
21930912,Wolfsruf (Roman),,,,S.P. Somtow,2009,,Heyne Verlag,,,0,German ,,,до 2011-08,"3453407474,9783453407473,9783641044107",,,,,,,,,,,0,,,,,0,1,1,2085938,epub,88529EAF9ECBD267FA5C46112B73AD57,,,_358205.88529eaf9ecbd267fa5c46112b73ad57.epub,0,2000-01-01 01:00:00,2016-04-03 02:51:08,636000/88529EAF9ECBD267FA5C46112B73AD57-g.jpg,,
21930913,The Church and the Churches: Toward an Ecumenical Ecclesiology,,,,G.R. Evans,1994,,Cambridge University Press,,346,0,English ,,,до 2011-08,9780521462860,,,,,,,,8enEQgAACAAJ,,,0,,,,1,1,1,1,6320276,pdf,7616D85C25A4544E7E3A52CB97C35282,,,_358206.7616d85c25a4544e7e3a52cb97c35282.pdf,0,2000-01-01 01:00:00,2016-04-03 02:51:08,636000/7616d85c25a4544e7e3a52cb97c35282-d.jpg,,
21930914,Wetterleuchten (Roman),,,,Stephanie Kallos,2010,,btb Verlag,,,0,German ,,,до 2011-08,"3442740568,9783442740567,9783641048761",,,,,,,,,,,0,,,,,0,1,1,2046439,epub,ED6B9A12F950E292AF0A7C3BADA15C5D,,,_358207.ed6b9a12f950e292af0a7c3bada15c5d.epub,0,2000-01-01 01:00:00,2016-04-03 02:51:08,636000/ED6B9A12F950E292AF0A7C3BADA15C5D-g.jpg,,
21930915,"Lectures on Minimal Surfaces: Volume 1, Introduction, Fundamentals, Geometry and Basic Boundary Value Problems",,,,Johannes C. C. Nitsche,1989,,Cambridge University Press,,588,0,English ,,,до 2011-08,"0521244277,9780521244275",,,,,516.3/6,QA644 .N5713 1989,,,OL2388690M,,0,,,,1,1,1,1,9857744,pdf,860A6D4EC82F13B49350757677DA62B8,,,_358208.860a6d4ec82f13b49350757677da62b8.pdf,0,2000-01-01 01:00:00,2016-04-03 02:51:08,636000/860a6d4ec82f13b49350757677da62b8-d.jpg,,
21930916,Der letzte Traumwanderer: Pandaemonia,,,,Christoph Lode,2010,,Goldmann Verlag,,,0,German ,,,до 2011-08,"3442471737,9783442471737,9783641052522",,,,,,,,,,,0,,,,,0,1,1,672755,epub,A01B6504553E592DB706D957E9745EA7,,,_358209.a01b6504553e592db706d957e9745ea7.epub,0,2000-01-01 01:00:00,2016-04-03 02:51:08,636000/A01B6504553E592DB706D957E9745EA7-g.jpg,,
21930917,Böse Liebe (Ein Alex-Delaware-Roman),,,,Jonathan Kellerman,2007,,Goldmann Verlag,,,0,German ,,,до 2011-08,"3442462754,9783442462759,9783641024154",,,,,,,,,,,0,,,,,0,1,1,1816361,epub,EB61146944F84F53328164531DA711AF,,,_358211.eb61146944f84f53328164531da711af.epub,0,2000-01-01 01:00:00,2016-04-03 02:51:08,636000/eb61146944f84f53328164531da711af-d.jpg,,
21930918,Lake Bonneville: Volume 1 of Monographs of the United States Geological Survey,,,,Grove Karl Gilbert,,,,,525,0,English ,,,до 2011-08,,,,,,,,,,,,0,,,,,1,,1,126271254,pdf,BB29729A3EC9206AD7BC93AF078821E2,,,_358212.bb29729a3ec9206ad7bc93af078821e2.pdf,0,2000-01-01 01:00:00,2016-04-03 02:51:08,636000/bb29729a3ec9206ad7bc93af078821e2-g.jpg,,
21930919,Großmutters Schuhe (Roman),,,,Renate Welsh,2008,,Deutscher Taschenbuch Verlag,,,0,German ,,,до 2011-08,"3423246952,9783423246958,9783423403368",,,,,,,,,,,0,,,,,0,1,1,1705781,epub,7F734813C5F886B0B2A56A0EA937C365,,,_358213.7f734813c5f886b0b2a56a0ea937c365.epub,0,2000-01-01 01:00:00,2016-04-03 02:51:08,636000/7f734813c5f886b0b2a56a0ea937c365-d.jpg,,
21930920,Best of Sex: Die schärfsten Stories,,,,"Kerri Sharp, Claudia Müller",2011,,Blanvalet Verlag,,,0,German ,,,до 2011-08,"3442375665,9783442375660,9783641053628",,,,,,,,,,,0,,,,,0,1,1,1802291,epub,DD8D194E1608D7EBBD44A8DC5F7D4CE2,,,_358215.dd8d194e1608d7ebbd44a8dc5f7d4ce2.epub,0,2000-01-01 01:00:00,2016-04-03 02:51:08,636000/DD8D194E1608D7EBBD44A8DC5F7D4CE2-g.jpg,,
21930921,The Last Hundred Yards: The NCO's Contribution to Warfare,,,,H.J. Poole,1997,1st,posteritypress.org (NC),,416,0,English ,,,до 2011-08,"0963869523,9780963869524",,,,,,,,,OL11704982M,,0,,,,0,1,0,0,122321646,pdf,6EA7F8EFD53874859C33DB43D8F2BACB,,,_358218.6ea7f8efd53874859c33db43d8f2bacb.pdf,0,2000-01-01 01:00:00,2016-04-03 02:51:08,636000/6ea7f8efd53874859c33db43d8f2bacb-d.jpg,,
21930922,Visualizing Psychology,,,,"Siri Carpenter, Karen Huffman",2009,2,Wiley,,546,0,English ,,,до 2011-08,"0470410175,9780470410172",,,,,,,,,OL25122606M,,0,,,,,1,1,1,79493066,pdf,72F61FADE3E51A07D7DCE7B5A5D6B1E7,,,_358219.72f61fade3e51a07d7dce7b5a5d6b1e7.pdf,0,2000-01-01 01:00:00,2016-04-03 02:51:08,636000/72f61fade3e51a07d7dce7b5a5d6b1e7-d.jpg,,
21930923,Regarding the Events of One Sherlock’s Scandalous St. Valentine’s Day,,,,Christine Danse,2010,,Smashwords,,26,0,English ,,,до 2011-08,,,,,,,,,,,,0,,,,,1,0,1,105350,epub,0F3C06D503F575CD3FD0A649EC958612,,,_358220.0f3c06d503f575cd3fd0a649ec958612.epub,0,2000-01-01 01:00:00,2016-04-03 02:51:08,636000/0F3C06D503F575CD3FD0A649EC958612-g.jpg,,
21930924,Paracelsus: Speculative Theory and the Crisis of the Early Reformation (S U N Y Series in Western Esoteric Traditions),,,,Andrew Weeks,1997,,State University of New York Press,,253,0,English ,,,до 2011-08,"0791431479,9780791431474,0585043418,9780585043418",,,,,199/.494,B785.P24 W35 1997,,,OL979332M,,0,,,,0,1,0,1,985143,pdf,0411F8484BD38939D0721BDEB024A72A,,,_358222.0411f8484bd38939d0721bdeb024a72a.pdf,0,2000-01-01 01:00:00,2016-04-03 02:51:08,636000/0411f8484bd38939d0721bdeb024a72a-g.jpg,,
21930925,The Ontogeny of Information: Developmental Systems and Evolution (Science and Cultural Theory),,,,Susan Oyama,2000,2 Rev Exp,Duke University Press Books,,297,0,English ,,,до 2011-08,"0822324660,9780822324669",,,,,,,,,OL9700059M,,0,,,,1,0,1,1,2418808,pdf,FB78871EFA2B3DFE141BF0B2F0289F43,,,_358223.fb78871efa2b3dfe141bf0b2f0289f43.pdf,0,2000-01-01 01:00:00,2016-04-03 02:51:08,636000/fb78871efa2b3dfe141bf0b2f0289f43-d.jpg,,
21930926,Tobacco in History: The Cultures of Dependence,,,,Jordan Goodman,1994,Reprint,Routledge,,288,0,English ,,,до 2011-08,"0415116694,9780415116695",,,,,394.14,,,,OL22493253M,,0,,,,,1,1,1,1907770,pdf,77938D1BCB8BAED09E819A95C6FB1D55,,,_358224.77938d1bcb8baed09e819a95c6fb1d55.pdf,0,2000-01-01 01:00:00,2016-04-03 02:51:08,636000/77938d1bcb8baed09e819a95c6fb1d55-d.jpg,,
21930927,A Donald Justice Reader: Selected Poetry and Prose (Bread Loaf Series of Contemporary Writers),,,,Donald Justice,1991,First Edition,Middlebury,,,0,English ,,,до 2011-08,"087451567X,9780874515671",,,,,811/.54,PS3519.U825 A6 1991,,,OL1566398M,,0,,,,,1,,,145501,epub,60F4FAF8BD98D778EB7DA80DAC5E5061,,,_358225.60f4faf8bd98d778eb7da80dac5e5061.epub,0,2000-01-01 01:00:00,2016-04-03 02:51:08,636000/60F4FAF8BD98D778EB7DA80DAC5E5061-g.jpg,,
21930928,Momentum: How Companies Become Unstoppable Market Forces,,,,"Ron Ricci, John Volkmann",2002,,Harvard Business Press,,220,0,English ,,,до 2011-08,"157851522X,9781578515226",,,,,658.8/27,HF5415 .R5416 2003,,,OL24732671M,,0,,,,,1,,1,492092,pdf,E7BA54FBE4913684CDC814536785266C,,,_358226.e7ba54fbe4913684cdc814536785266c.pdf,0,2000-01-01 01:00:00,2016-04-03 02:51:08,636000/e7ba54fbe4913684cdc814536785266c-d.jpg,,
21930929,Turkey and the European community,,,,"Ahmet Evin, Geoffrey R. Denton",1990,,Leske + Budrich,,201,0,English ,,,до 2011-08,"3810006467,9783810006462",,,,,341.24/22,HC241.25.T9 T9243 1990,,,OL1952329M,,0,,,,1,0,,1,5073095,pdf,C6E485ECB812A05F0C49DF3643136279,,,_358227.c6e485ecb812a05f0c49df3643136279.pdf,0,2000-01-01 01:00:00,2016-04-03 02:51:08,636000/c6e485ecb812a05f0c49df3643136279-d.jpg,,
21930930,Perry Mason und der Schatz im Schuhkarton,,,,Erle Stanley Gardner,1981,,Ullstein Tb.,,192,0,German ,,,до 2011-08,"3548011314,9783548011318",,,,,,,,,,,0,,,,1,0,1,1,768814,pdf,AA5358F5D8701099D040EAB2395E1D31,,,_358228.aa5358f5d8701099d040eab2395e1d31.pdf,0,2000-01-01 01:00:00,2016-04-03 02:51:08,636000/aa5358f5d8701099d040eab2395e1d31-g.jpg,,
21930931,Digitale Fotoschule: Sport- und Actionfotografie,,,,Benedikt Altschuh,2009,,Franzis Verlag,,120,0,German ,,,до 2011-08,"3772373666,9783772373664",,,,,,,,,,,0,,,,1,0,1,1,13261881,pdf,4D93299D0CD62D9C4C70477A6CED895D,,,_358229.4d93299d0cd62d9c4c70477a6ced895d.pdf,0,2000-01-01 01:00:00,2016-04-03 02:51:08,636000/4d93299d0cd62d9c4c70477a6ced895d-g.jpg,,
21930932,"China, Inc.: How the Rise of the Next Superpower Challenges America and the World",,,,Ted C. Fishman,2005,1ST,Scribner,,,0,English ,,,до 2011-08,"0743257529,9780743257527",,,,,338.951/009/051,HC427.95 .F57 2005,,,OL14442951M,,0,,,,,1,,,406317,epub,C1D6CCE8B675C9F9EF8A7714EEDD3B67,,,_358230.c1d6cce8b675c9f9ef8a7714eedd3b67.epub,0,2000-01-01 01:00:00,2016-04-03 02:51:08,636000/c1d6cce8b675c9f9ef8a7714eedd3b67-d.jpg,,
21930933,Electromyography in Clinical Practice: A Case Study Approach 2nd Edition,,,,Bashar Katirji MD  FACP,2007,2,Mosby,,401,0,English ,,,до 2011-08,"0323028993,9780323028998",,,,,616.7/407547,RC77.5 .K38 2007,,,OL17927389M,,0,,,,1,1,1,1,7455759,pdf,E5869CCEB7883CAE71CAA2671F52CE9A,,,_358233.e5869cceb7883cae71caa2671f52ce9a.pdf,0,2000-01-01 01:00:00,2016-04-03 02:51:08,636000/e5869cceb7883cae71caa2671f52ce9a-d.jpg,,
21930934,"China, Inc.: How the Rise of the Next Superpower Challenges America and the World",,,,Ted C. Fishman,2005,1ST,Scribner,,354,0,English ,,,до 2011-08,"0743257529,9780743257527",,,,,338.951/009/051,HC427.95 .F57 2005,,,OL14442951M,,0,,,,,1,1,0,37177334,pdf,8DC6A7674D7A9512A4F7AD993F9E1B2D,,,_358234.8dc6a7674d7a9512a4f7ad993f9e1b2d.pdf,0,2000-01-01 01:00:00,2016-04-03 02:51:08,636000/8dc6a7674d7a9512a4f7ad993f9e1b2d-d.jpg,,
21930935,Vector valued Nevanlinna theory,,Research notes in mathematics 73,,Hans J. W. Ziegler,1982,,Pitman,,214,0,English ,,,до 2011-08,"0273085301,9780273085300",,,,,515.9/82,QA331 .Z53 1982,,jxqoAAAAIAAJ,OL10285570M,,0,,,,1,1,1,1,1538568,pdf,1CCBC15AD5CB1F3B8904409337DF8E35,,,_358235.1ccbc15ad5cb1f3b8904409337df8e35.pdf,0,2000-01-01 01:00:00,2016-04-03 02:51:08,636000/1ccbc15ad5cb1f3b8904409337df8e35-g.jpg,,
21930936,Focus On Photographing People: Focus on the Fundamentals,,Focus On Series,,Haje Jan Kamps,2011,1,Focal Press (Elsevier),,155,0,English ,,,до 2011-08,"024081469X,9780240814698",,,,,778.9/2,TR575 .K26 2011,10.1016/B978-0-240-81469-8.00009-1,rWnh7bm9rSAC,OL24903293M,ToC missing.,0,,,,1,0,1,1,62906283,pdf,04C3DA359AA36E5C22AB3C58F6E791F2,,,_358236.04c3da359aa36e5c22ab3c58f6e791f2.pdf,0,2000-01-01 01:00:00,2016-04-03 02:51:08,636000/04c3da359aa36e5c22ab3c58f6e791f2-d.jpg,,
21930937,That Dratted Affair with the Dream Engine,,,,Christine Danse,2010,,Smashwords,,39,0,English ,,,до 2011-08,,,,,,,,,,,,0,,,,,1,0,1,180603,epub,79B4A0B99BFD22F92BDCE1DB61152FBB,,,_358237.79b4a0b99bfd22f92bdce1db61152fbb.epub,0,2000-01-01 01:00:00,2016-04-03 02:51:08,636000/79B4A0B99BFD22F92BDCE1DB61152FBB-g.jpg,,
21930938,Topics in Topology. (AM-10) (Annals of Mathematics Studies),,,,Solomon Lefschetz,1942,,Princeton University Press,,140,0,English ,,,до 2011-08,"0691095736,9780691095738",,,,,,,,,OL7758298M,,0,,,,,1,,1,1375963,djvu,D057B45409B9306AD4F09315CC697AA1,,,_358239.d057b45409b9306ad4f09315cc697aa1.djvu,0,2000-01-01 01:00:00,2016-04-03 02:51:08,636000/d057b45409b9306ad4f09315cc697aa1-d.jpg,,
21930939,Graph Theory 1736-1936,,,,"Norman L. Biggs, E. Keith Lloyd, Robin J. Wilson",1999,,"Oxford University Press, USA",,255,0,English ,,,до 2011-08,"0198539169,9780198539162",,,,,511/.5/0903,QA166,,,OL22635427M,,288,,,,,1,1,1,10031058,djvu,ACE8396F710D4F35A2389E6677EA06C6,,,_358240.ace8396f710d4f35a2389e6677ea06c6.djvu,0,2000-01-01 01:00:00,2016-04-03 02:51:08,636000/ace8396f710d4f35a2389e6677ea06c6-d.jpg,,
21930940,Focus On Photoshop Elements: Focus on the Fundamentals,,"Focus On Series'',",,David Asch,2011,1,Focal Press (Elsevier),,163,0,English ,,,до 2011-08,"0240814452,9780240814452",,,,,006.686,TR267.5.A33 A838 2011,10.1016/B978-0-240-81445-2.00011-6,,OL25047320M,ToC missing.,0,,,,1,0,1,1,37864313,pdf,126046E16F85D7A0D2D89E4EDB8DC4D5,,,_358241.126046e16f85d7a0d2d89e4edb8dc4d5.pdf,0,2000-01-01 01:00:00,2016-04-03 02:51:08,636000/126046e16f85d7a0d2d89e4edb8dc4d5-d.jpg,,
21930941,Teaching to Transgress: Education as the Practice of Freedom,,,,Bell Hooks,1994,,Routledge,,226,0,English ,,,до 2011-08,"0415908086,9780415908085",,,,,370.11/5,LC196 .H66 1994,,,OL1101365M,,0,,,,,1,,0,13907300,pdf,CE1AA726056C9C89856F49854159281C,,,_358242.ce1aa726056c9c89856f49854159281c.pdf,0,2000-01-01 01:00:00,2016-04-03 02:51:08,636000/ce1aa726056c9c89856f49854159281c-d.jpg,,
21930942,Reviews in Mathematical Physics - Volume 2,2,,,"H. Araki, V. Bach, J. Yngvason (Editors)",1990,,World Scientific,,496,0,English ,,,до 2011-08,,0129-055X,,,,,,10.1142/S0129055X90000028,,,,600,,,,,1,,1,14105421,djvu,D4C579E636900325E641C2B5EB74486E,,,_358243.d4c579e636900325e641c2b5eb74486e.djvu,0,2000-01-01 01:00:00,2016-04-03 02:51:08,636000/d4c579e636900325e641c2b5eb74486e-g.jpg,,
21930943,First Course in Bulk Queues,,,,"M.L. Chaudhry, J.G.C. Templeton",1983,,John Wiley & Sons Inc,,204,0,English ,,,до 2011-08,"0471862606,9780471862604",,,,,519.8/2,T57.9 .C46 1983,,,OL3501488M,,0,,,,,1,,1,15194708,pdf,26B36CC1EFD1BDB8A8FA6B5599040DA5,,,_358244.26b36cc1efd1bdb8a8fa6b5599040da5.pdf,0,2000-01-01 01:00:00,2016-04-03 02:51:08,636000/26b36cc1efd1bdb8a8fa6b5599040da5-g.jpg,,
21930944,Statystyka dla studentow kierunkow technicznych i przyrodniczych,,,,"Jan Mielniczuk, Jacek Koronacki",2009,,Wnt,,490,0,Polish ,,,до 2011-08,"8320436338,9788320436334",,,,,,,,,,,0,,,,1,1,1,1,14303262,pdf,652DA377B1A9B88425CDBE4E40E1B71B,,,_358245.652da377b1a9b88425cdbe4e40e1b71b.pdf,0,2000-01-01 01:00:00,2016-04-03 02:51:08,636000/652da377b1a9b88425cdbe4e40e1b71b-g.jpg,,
21930945,Singular Points of Smooth Mappings (Research Notes in Mathematics Series),,Research Notes in Mathematics Series 25,,C.G. Gibson,1979,,Pitman Publishing,,246,0,English ,,,до 2011-08,"0273084100,9780273084105",,,,,515,QA360,,,OL21229364M,,0,,,,1,1,1,1,2266648,pdf,3FA4C8804FB2EC1195EC666667B08227,,,_358246.3fa4c8804fb2ec1195ec666667b08227.pdf,0,2000-01-01 01:00:00,2016-04-03 02:51:08,636000/3fa4c8804fb2ec1195ec666667b08227-g.jpg,,
21930946,Fundamental Problems of Algorithmic Algebra,,,,Chee Keng Yap,1999,,"Oxford University Press, USA",,504,0,English ,,,до 2011-08,"0195125169,9780195125160",,,,,512/.0285,QA155.7.E4 Y36 2000,,,OL389364M,,0,,,,,1,,1,4794229,pdf,A5AB90434B5DB830A740E63452C9BDF4,,,_358255.a5ab90434b5db830a740e63452c9bdf4.pdf,0,2000-01-01 01:00:00,2016-04-03 02:51:08,636000/a5ab90434b5db830a740e63452c9bdf4-d.jpg,,
21930947,World Press Encyclopedia 2 2vset,,,,Amanda C. Quick,2002,2,Gale,,1299,0,English ,,,до 2011-08,"0787655821,9780787655822",,,,,070/.03,PN4728 .Q53 2003,,,OL3576778M,,0,,,,,1,,1,21192179,pdf,0AC741CF4D6EE01DAD5C5F4C0667DE1D,,,_358256.0ac741cf4d6ee01dad5c5f4c0667de1d.pdf,0,2000-01-01 01:00:00,2016-04-03 02:51:08,636000/0ac741cf4d6ee01dad5c5f4c0667de1d-d.jpg,,
21930948,"AC Power Systems Handbook, Second Edition (Design, installation & operation of electronic systems)",,,,Jerry C. Whitaker,1998,2,CRC Press,,576,0,English ,,,до 2011-08,"0849374146,9780849374142",,,,,621.319/13,TK3141 .W45 1998,,,OL376569M,,0,,,,,1,,1,26066916,pdf,3369A3CCAD195C5EFE50A15439908D96,,,_358259.3369a3ccad195c5efe50a15439908d96.pdf,0,2000-01-01 01:00:00,2016-04-03 02:51:08,636000/3369a3ccad195c5efe50a15439908d96-d.jpg,,
21930949,Essentials of Programming Languages - 2nd Edition,,,,"Daniel P. Friedman, Mitchell Wand, Christopher T. Haynes",2001,2,The MIT Press,,447,0,English ,87,,до 2011-08,"0262062178,9780262062176",,,,,005.13,QA76.7 .F73 2001,,,OL6801986M,,0,,,,,1,,1,2064929,pdf,5E0B8D6F09B8B6ED1FFD012FD193BDA6,,,_358262.5e0b8d6f09b8b6ed1ffd012fd193bda6.pdf,0,2000-01-01 01:00:00,2016-04-03 02:51:08,636000/5e0b8d6f09b8b6ed1ffd012fd193bda6-d.jpg,,
21930950,"Biomechanical Systems: Techniques and Applications, Volume II: Cardiovascular Techniques",,,,Cornelius Leondes,2000,1,CRC Press,,318,0,English ,,,до 2011-08,"0849390478,9780849390470",,,,,,,,,OL11560508M,,0,,,,,1,,1,18855872,pdf,6AE2CE88380448C147356FD196FFD870,,,_358263.6ae2ce88380448c147356fd196ffd870.pdf,0,2000-01-01 01:00:00,2016-04-03 02:51:08,636000/6ae2ce88380448c147356fd196ffd870-d.jpg,,
21930951,"Biomechanical Systems:  Techniques and Applications, Volume I:  Computer Techniques and Computational Methods in Biomech",,,,Cornelius Leondes,2000,1,CRC Press,,199,0,English ,,,до 2011-08,"084939046X,9780849390463",,,,,,,,,OL9346882M,,0,,,,,1,,1,21609276,pdf,F22A653200441ADB1E48BB6C4B1BD539,,,_358264.f22a653200441adb1e48bb6c4b1bd539.pdf,0,2000-01-01 01:00:00,2016-04-03 02:51:08,636000/f22a653200441adb1e48bb6c4b1bd539-d.jpg,,
21930952,Fuzzy Control Systems,,,,"Abraham Kandel, Gideon Langholz",1993,1,CRC-Press,,187,0,English ,,,до 2011-08,"0849344964,9780849344961",,,,,629.8/36,TJ217 .F89 1994,,,OL1418524M,,0,,,,,1,,1,20637584,pdf,68AF7EAFAC9653721A5FB3905B5BB788,,,_358265.68af7eafac9653721a5fb3905b5bb788.pdf,0,2000-01-01 01:00:00,2016-04-03 02:51:08,636000/68af7eafac9653721a5fb3905b5bb788-d.jpg,,
21930953,La descripción colectiva de los archivos,,,,"Arévalo Jordán, Víctor Hugo",,,,,257,0,Spanish,,,до 2011-08,9872200165,,,,,,,,,,,0,,,,,1,1,1,1809280,pdf,B1AF1F7FBE2EDA4B890DBACC2473EA54,,,_358271.b1af1f7fbe2eda4b890dbacc2473ea54.pdf,0,2000-01-01 01:00:00,2016-04-03 02:51:08,636000/b1af1f7fbe2eda4b890dbacc2473ea54-g.jpg,,
21930954,احتراف البحث على الانترنت,,,,محمد الأنور,,,,,11,0,Arabic ,,,до 2011-08,,,,,,,,,,,,0,,,,,1,,1,607361,pdf,A4DC8B18F985D3424C8C8519E6F8D1DC,,,_358272.a4dc8b18f985d3424c8c8519e6f8d1dc.pdf,0,2000-01-01 01:00:00,2016-04-03 02:51:08,636000/a4dc8b18f985d3424c8c8519e6f8d1dc-g.jpg,,
21930955,The Otto Dunkel Memorial Problem Book (The American Mathematical Monthly Supplement),,,,Howard Whitley Eves,1957,,Mathematical Association of America],,100,0,English ,,,до 2011-08,,,B0007FL0TI,,,,,,,,,0,,,,1,1,1,0,8803786,pdf,536123DF34E35C061BD289E08A030585,,,_358273.536123df34e35c061bd289e08a030585.pdf,0,2000-01-01 01:00:00,2016-04-03 02:51:08,636000/536123df34e35c061bd289e08a030585-g.jpg,,
21930956,Bertolt Brecht : Homme pour homme,,,,"Bertolt Brecht, Genviève Serreau, Benno Besson",1955,,L'arche,,75,0,French ,,,до 2011-08,,,,,,,,,,,,0,,,,0,1,0,1,1792288,pdf,4DEA66C49525851B1783C2A8999C8D15,,,_358274.4dea66c49525851b1783c2a8999c8d15.pdf,0,2000-01-01 01:00:00,2016-04-03 02:51:08,636000/4dea66c49525851b1783c2a8999c8d15-g.jpg,,
21930957,مبانی شناخت انسان 1,,,,دبلیو آیزنک، ترجمه ب. کوشا,,,,,368,0,Persian ,,,до 2011-08,,,,,,,,,,,,0,,,,,1,1,1,17381651,pdf,8D7421FB50AFE184167BD2F75AAED854,,,_358276.8d7421fb50afe184167bd2f75aaed854.pdf,0,2000-01-01 01:00:00,2016-04-03 02:51:08,636000/8d7421fb50afe184167bd2f75aaed854-g.jpg,,
21930958,Mark Strand (Bloom's Major Poets),,,,Harold Bloom,2003,,Chelsea House Publishers,,95,0,English ,,,до 2011-08,0791073939,,,,,,,,,,,0,,,,0,1,,1,802877,pdf,2E6C3FF806DE539E62024804A197449C,,,_358282.2e6c3ff806de539e62024804a197449c.pdf,0,2000-01-01 01:00:00,2016-04-03 02:51:08,636000/2e6c3ff806de539e62024804a197449c-d.jpg,,
21930959,8 Sandpiper Way,,Cedar Cove 8,,Debbie Macomber,2010,Reprint,MIRA,,,0,English ,,,до 2011-08,"0778329704,9780778329701",,,,,,,,,,,0,,,,,1,1,1,887509,epub,0812D9A9D1C8C4E5C0178F2ED7C39D4A,,,_358284.0812d9a9d1c8c4e5c0178f2ed7c39d4a.epub,0,2000-01-01 01:00:00,2016-04-03 02:51:08,636000/0812d9a9d1c8c4e5c0178f2ed7c39d4a-d.jpg,,
21930960,"77 Ways to Improve Your Wellbeing: How to Use Ancient Chinese Wisdom to Enhance Your Physical, Mental and Spiritual Health",,,,Angela Hicks,2009,,Spring Hill / How To Books,,257,0,English ,,,до 2011-08,"1905862253,9781905862252",,,,,,,,,,,0,,,,1,1,1,1,1687892,pdf,94AE3C80ABFAC63D802DAE0F8CA70162,,,_358285.94ae3c80abfac63d802dae0f8ca70162.pdf,0,2000-01-01 01:00:00,2016-04-03 02:51:08,636000/94ae3c80abfac63d802dae0f8ca70162-d.jpg,,
21930961,Stability of Structures: Principles and Applications,,,,"Chai Hong Yoo, Sung Lee",2011,1,Butterworth-Heinemann (Elseiver),,529,0,English ,,,до 2011-08,"012385122X,9780123851222",,,,,"624.1/71 22'',",TA656 .Y66 2011,10.1016/B978-0-12-385122-2.10001-6,,,ToC missing.,0,,,,1,0,1,1,8580247,pdf,F3766EB657EAC4633015A1A1D1CD837B,,,_358286.f3766eb657eac4633015a1a1d1cd837b.pdf,0,2000-01-01 01:00:00,2016-04-03 02:51:08,636000/f3766eb657eac4633015a1a1d1cd837b-d.jpg,,
21930962,Laws of Freedom : A study of Kant's method of applying the categorical imperative in the Metaphysik der Sitten,,,,Mary J. Gregor,1963,,Barnes and Noble,,223,0,English ,,,до 2011-08,"0631077006,9780631077008",,,,,,,,,,,0,,,,1,1,1,1,15655933,pdf,93008239F843D7A795BA81558BA3590B,,,_358287.93008239f843d7a795ba81558ba3590b.pdf,0,2000-01-01 01:00:00,2016-04-03 02:51:08,636000/93008239f843d7a795ba81558ba3590b-g.jpg,,
21930963,"Encyclopedia of Physical Science and Technology, 3e, Chemical Engineering",,Encyclopedia of Physical Science and Technology Chemical Engineering,,Robert Allen Meyers,2005,,Academic Press,,548,0,English ,,,до 2011-08,,,,,,,,,,,,0,,,,0,0,1,1,35495569,pdf,4763603F91A6A3D7F8B860C49BE058E9,,,_358288.4763603f91a6a3d7f8b860c49be058e9.pdf,0,2000-01-01 01:00:00,2016-04-03 02:51:08,636000/4763603f91a6a3d7f8b860c49be058e9-g.jpg,,
21930964,Viscosity Solutions and Applications: Lectures given at the 2nd Session of the Centro Internazionale Matematico Estivo (C.I.M.E.) held in Montecatini ... (Lecture Notes in Mathematics 1660   C.I.M.E. Foundation Subseries),,Lecture Notes in Mathematics 1660,,"Martino Bardi, Michael G. Crandall, Lawrence C. Evans, Halil M. Soner, Panagiotis E. Souganidis",1997,1,Springer,,269,0,English ,,,до 2011-08,"3540629106,9783540629108",,,,,"510 s,519.7/03","QA3 .L28 no. 1660,QA316 .L28 no. 1660",,,OL670555M,,0,,,,1,1,1,1,3571426,pdf,4A2B0E2D2022C6E3C2F210323B7EEC0C,,,_358290.4a2b0e2d2022c6e3c2f210323b7eec0c.pdf,0,2000-01-01 01:00:00,2016-04-03 02:51:08,636000/4a2b0e2d2022c6e3c2f210323b7eec0c-d.jpg,,
21930965,کاربرد تحلیل رویا در روان درمانی,,,,لیلی وایز، ترجمه علی صاحبی و حکیم جوادی,,,,,174,0,Persian ,,,до 2011-08,,,,,,,,,,,,0,,,,,1,,0,1749747,pdf,A9B97F913409AFC10532C898B2A8113E,,,_358291.a9b97f913409afc10532c898b2a8113e.pdf,0,2000-01-01 01:00:00,2016-04-03 02:51:08,636000/a9b97f913409afc10532c898b2a8113e-g.jpg,,
21930966,Творения преподобного Иоанна Дамаскина: источник знания,,"Святоотеческое наследие, Т. 5",,Иоанн Дамаскин,2002,,Индрик,,421,0,Russian ,,,до 2011-08,5857591864,,,,,,,,,,,0,,,,0,1,0,1,34578658,pdf,D4B90EC860430F3C61FB99C20FDBCBCD,,,_358292.d4b90ec860430f3c61fb99c20fdbcbcd.pdf,0,2000-01-01 01:00:00,2016-04-03 02:51:08,636000/d4b90ec860430f3c61fb99c20fdbcbcd-g.jpg,,
21930967,Biostatistics and Microbiology: A Survival Manual,,,,Daryl S. Paulson,2008,1,Springer,,222,0,English ,,,до 2011-08,"0387772812,9780387772813",,,,,579.015195,QR72 .P38 2008,10.1007/978-0-387-77282-0_1,,OL23147473M,,0,,,,,1,1,1,3607329,pdf,0F75BFF99B543FBA116D6729F26B97EB,,,_358293.0f75bff99b543fba116d6729f26b97eb.pdf,0,2000-01-01 01:00:00,2016-04-03 02:51:08,636000/0f75bff99b543fba116d6729f26b97eb-d.jpg,,
21930968,The Cult of Pan in Ancient Greece,,,,Philippe Borgeaud,1988,,University of Chicago Press,,148,0,English ,,,до 2011-08,"0226065952,9780226065953",,,,,292/.211 ,BL820.P2  B6713 1988,,,OL18370138M,,0,,,,,1,1,1,83286806,pdf,9B0302341F19F894FB5B4F49BF00DFAB,,,_358294.9b0302341f19f894fb5b4f49bf00dfab.pdf,0,2000-01-01 01:00:00,2016-04-03 02:51:08,636000/9b0302341f19f894fb5b4f49bf00dfab-g.jpg,,
21930969,Kredite: Bankverhandlungen richtig führen. Empfehlungen eines Insiders,,,,Ernst Burger,2010,,Haufe Verlag,,192,0,German ,,,до 2011-08,"3648004166,9783648004166",,,,,,,,,,,0,,,,1,0,1,1,1783895,pdf,AF5260D9D3DCEF68B63A91BACAB89091,,,_358295.af5260d9d3dcef68b63a91bacab89091.pdf,0,2000-01-01 01:00:00,2016-04-03 02:51:08,636000/af5260d9d3dcef68b63a91bacab89091-g.jpg,,
21930970,Peinliche Situationen meistern,,,,Matthias Nöllke,2008,,Haufe Verlag,,129,0,German ,,,до 2011-08,"3448088145,9783448088144",,,,,,,,,,,0,,,,1,0,1,1,759308,pdf,118CBBB1F266EC32EE10B3EBF3B8D326,,,_358296.118cbbb1f266ec32ee10b3ebf3b8d326.pdf,0,2000-01-01 01:00:00,2016-04-03 02:51:08,636000/118cbbb1f266ec32ee10b3ebf3b8d326-g.jpg,,
21930971,عشق و زندگی - درمان بیماریهای روحی و جسمی با عشق و مهرورزی,,,,دین ارنیش ، ترجمه: ابوالقاسم پوزش  و علی خزاعی فرید ،,,,,,257,0,Persian ,,,до 2011-08,9643860183,,,,,,,,,,,0,,,,,1,,0,2924707,pdf,687A10952349E292DA56C261911CF482,,,_358300.687a10952349e292da56c261911cf482.pdf,0,2000-01-01 01:00:00,2016-04-03 02:51:08,636000/687a10952349e292da56c261911cf482-g.jpg,,
21930972,Richistan: A Journey Through the American Wealth Boom and the Lives of the New Rich   ,,,,Robert Frank,2007,,Crown Publishing Group,,,0,English ,,,до 2011-08,"9780307409263,0307409260",,,,,,,,,OL24297277M,,0,,,,,1,1,1,480359,epub,0EEFD732383838DA3CB5D8BBA1BEE99F,,,_358301.0eefd732383838da3cb5d8bba1bee99f.epub,0,2000-01-01 01:00:00,2016-04-03 02:51:08,636000/0EEFD732383838DA3CB5D8BBA1BEE99F-g.jpg,,
21930973,In the First Circle,,,,Aleksandr Solzhenitsyn,,,,,,0,English ,,,до 2011-08,,,,,,,,,,,,0,,,,,1,,,602375,epub,B173133E725D76965E42985D4FE59D4F,,,_358302.b173133e725d76965e42985d4fe59d4f.epub,0,2000-01-01 01:00:00,2016-04-03 02:51:08,636000/B173133E725D76965E42985D4FE59D4F-g.jpg,,
21930974,Probability and measure,,,,Patrick Billingsley,1986,2 Sub,Wiley,,635,0,English ,,,до 2011-08,"0471804789,9780471804789",,,,,519.2,QA273 .B575 1986,,Q2IPAQAAMAAJ,OL3026128M,,0,,,,0,0,1,1,15273518,pdf,51A6FAE1C1588507F72C989D507ED55B,,,_358303.51a6fae1c1588507f72c989d507ed55b.pdf,0,2000-01-01 01:00:00,2016-04-03 02:51:08,636000/51a6fae1c1588507f72c989d507ed55b-d.jpg,,
21930975,Cancer Ward,,,,Aleksandr Solzhenitsyn,,,"Farrar, Straus and Giroux",,0,0,English,,,до 2011-08,,,,,,,,,,,,0,,,,,1,,,497567,epub,3AD23CACE4980C41FB23D598357CE907,,,_358304.3ad23cace4980c41fb23d598357ce907.epub,0,2000-01-01 01:00:00,2016-04-03 02:51:08,636000/3ad23cace4980c41fb23d598357ce907-d.jpg,,
21930976,The Loss of the Titanic,,,,Lawrence Beesley,2009,,The Floating Press,,,0,English ,,,до 2011-08,"9781775416821,1775416828",,,,,,,,,,,0,,,,,0,1,1,178829,epub,D84675804C5288432AA0AB7468947240,,,_358305.d84675804c5288432aa0ab7468947240.epub,0,2000-01-01 01:00:00,2016-04-03 02:51:08,636000/D84675804C5288432AA0AB7468947240-g.jpg,,
21930977,One Day in the Life of Ivan Denisovich,,,,Alexandr Solzhenitsyn,,,,,,0,English ,,,до 2011-08,,,,,,,,,,,,0,,,,,1,,,153561,epub,8C6F9F4FD1B17C037D460AF5FB0C1587,,,_358306.8c6f9f4fd1b17c037d460af5fb0c1587.epub,0,2000-01-01 01:00:00,2016-04-03 02:51:08,636000/8C6F9F4FD1B17C037D460AF5FB0C1587-g.jpg,,
21930978,The Heart Is a Lonely Hunter,,,,Carson McCullers,,,,,,0,English ,,,до 2011-08,,,,,,,,,,,,0,,,,,1,,1,297040,epub,961C931128F5FF6AD72744D6250DB169,,,_358308.961c931128f5ff6ad72744d6250db169.epub,0,2000-01-01 01:00:00,2016-04-03 02:51:08,636000/961C931128F5FF6AD72744D6250DB169-g.jpg,,
21930979,Probability and measure,,,,Patrick Billingsley,1995,3,J. Wiley & Sons,,604,0,English ,,,до 2011-08,"0471007102,9780471007104",,,,,519.2,QA273 .B575 1995,,z39jQgAACAAJ,OL1103491M,,0,,,,0,0,1,1,13492215,pdf,A1F2003EB83C593BDABE78C3F9FD4214,,,_358309.a1f2003eb83c593bdabe78c3f9fd4214.pdf,0,2000-01-01 01:00:00,2016-04-03 02:51:08,636000/a1f2003eb83c593bdabe78c3f9fd4214-d.jpg,,
21930980,"Knowledge Democracy: Consequences for Science, Politics, and Media",,,,"Prof. Dr. Roeland Jaap in ’t Veld (auth.), Roeland J. in 't Veld (eds.)",2010,1,Springer-Verlag Berlin Heidelberg,,397,0,English,,,до 2011-08,"364211380X,9783642113802,9783642113819",,,,,,,10.1007/978-3-642-11381-9,,,,0,,,,,1,1,1,6397192,pdf,5BFCA88B01F2B3C3A5F5266E3B4279A2,,,_358310.5bfca88b01f2b3c3a5f5266e3b4279a2.pdf,0,2000-01-01 01:00:00,2016-04-03 02:51:08,636000/5bfca88b01f2b3c3a5f5266e3b4279a2-d.jpg,,
21930981,Graph Theory 1736-1936,,,,"Norman L. Biggs, E. Keith Lloyd, Robin J. Wilson",1999,,"Oxford University Press, USA",,255,0,English ,,,до 2011-08,"0198539169,9780198539162",,,,,511/.5/0903,QA166,,XqYTk0sXmpoC,OL22635427M,,0,,,,1,1,1,1,11777977,pdf,1B55A9622377A59916B811F6487F914B,,,_358311.1b55a9622377a59916b811f6487f914b.pdf,0,2000-01-01 01:00:00,2016-04-03 02:51:08,636000/1b55a9622377a59916b811f6487f914b-d.jpg,,
21930982,Diaboliad,,,,Mikhail Bulgakov,,,,,,0,English ,,,до 2011-08,,,,,,,,,,,,0,,,,,1,,,201642,epub,960E36412ABCEA13E4E9E31D41568FD8,,,_358312.960e36412abcea13e4e9e31d41568fd8.epub,0,2000-01-01 01:00:00,2016-04-03 02:51:08,636000/960E36412ABCEA13E4E9E31D41568FD8-g.jpg,,
21930983,Gaza in Crisis: Reflections on Israel's War Against the Palestinians   ,,,,Noam Chomsky and Ilan Pappé,,,Haymarket Books,,,0,English ,,,до 2011-08,9781608460984,,,,,,,,,,,0,,,,,1,,,311339,epub,77F2209B790233C52A50CA47BF9E4B5D,,,_358313.77f2209b790233c52a50ca47bf9e4b5d.epub,0,2000-01-01 01:00:00,2016-04-03 02:51:08,636000/77F2209B790233C52A50CA47BF9E4B5D-g.jpg,,
21930984,A First Course in Real Analysis (Undergraduate Texts in Mathematics),,Undergraduate Texts in Mathematics,,Berberian Sterling K.,2004,,Springer (India) Pvt. Ltd.,,247,0,English ,,,до 2011-08,"8181282361,9788181282361",,,,,,,,T5sdQwAACAAJ,,,0,,,,0,0,1,1,7283466,pdf,7C213AF0646C672A5BAF882F3E80CAB6,,,_358314.7c213af0646c672a5baf882f3e80cab6.pdf,0,2000-01-01 01:00:00,2016-04-03 02:51:08,636000/7c213af0646c672a5baf882f3e80cab6-g.jpg,,
21930985,Gospel and Spirit: Issues in New Testament Hermeneutics,,,,Gordon D. Fee,1991,,Hendrickson Publishers,,156,0,English ,,,до 2011-08,"0943575788,9780943575780",,,,,220.6/01,BS476 .F39 1991,,,OL1552907M,,0,,,,1,1,1,1,2578559,pdf,199F8B24864B7C39120C16E88E440DBB,,,_358315.199f8b24864b7c39120c16e88e440dbb.pdf,0,2000-01-01 01:00:00,2016-04-03 02:51:08,636000/199f8b24864b7c39120c16e88e440dbb-d.jpg,,
21930986,Matrix Analysis (Graduate Texts in Mathematics),,Graduate Texts in Mathematics 169,,Rajendra Bhatia,1997,1,Springer,,362,0,English ,,,до 2011-08,"0387948465,9780387948461",,,,,512.9/434,QA188 .B485 1997,,F4hRy1F1M6QC,OL993699M,,0,,,,0,0,1,1,12789960,pdf,E22319DE40FA7470C1B788D83D69F4D9,,,_358316.e22319de40fa7470c1b788d83d69f4d9.pdf,0,2000-01-01 01:00:00,2016-04-03 02:51:08,636000/e22319de40fa7470c1b788d83d69f4d9-d.jpg,,
21930987,ABC of Transfusion (ABC Series),,,,Marcela Contreras,2009,4,BMJ Books,,129,0,English ,,,до 2011-08,"1405156465,9781405156462",,,,,615/.39,RM171 .A23 2008,,kr2Fw0eiNhgC,OL11650379M,,0,,,,0,1,0,1,5906762,pdf,35E17EEEA07230B04EBE8031B0521C6C,,,_358317.35e17eeea07230b04ebe8031b0521c6c.pdf,0,2000-01-01 01:00:00,2016-04-03 02:51:08,636000/35e17eeea07230b04ebe8031b0521c6c-d.jpg,,
21930988,Basic Probability Theory,,,,Robert B. Ash,2008,,Dover Publications,,348,0,English ,,,до 2011-08,"0486466280,9780486466286",,,,,519.2,QA273 .A77 2008,,ukpTPQAACAAJ,OL16413677M,,0,,,,0,0,1,1,8856996,pdf,53FC47F82B49692FDF068D86BAD09744,,,_358318.53fc47f82b49692fdf068d86bad09744.pdf,0,2000-01-01 01:00:00,2016-04-03 02:51:08,636000/53fc47f82b49692fdf068d86bad09744-d.jpg,,
21930989,La Muerte De Lord Edgware lord Edgware's Death,,,,Agatha Christie,2006,,Rba,,181,0,Spanish,,,до 2011-08,"8478715177,9788478715176",,,,,,,,,OL9817274M,,0,,,,0,1,,1,712800,pdf,0CDA3FC9F2B413A24133E980B2561527,,,_358322.0cda3fc9f2b413a24133e980b2561527.pdf,0,2000-01-01 01:00:00,2016-04-03 02:51:08,636000/0cda3fc9f2b413a24133e980b2561527-d.jpg,,
21930990,The Mysterious Flame of Queen Loana,,,,Umberto Eco,,,,,,0,English ,,,до 2011-08,,,,,,,,,,,,0,,,,,1,,,2464754,epub,0A5FEB35166F609F4D28844ACE78BB72,,,_358323.0a5feb35166f609f4d28844ace78bb72.epub,0,2000-01-01 01:00:00,2016-04-03 02:51:08,636000/0A5FEB35166F609F4D28844ACE78BB72-g.jpg,,
21930991,Las manzanas (Halloween Party),,,,Agatha Christie,2005,,RBA,,188,0,Spanish,,,до 2011-08,"8478713441,9788478713448",,,,,,,,,OL9771685M,,0,,,,1,1,,1,905644,pdf,DED1DEB8FF331006CFAEE67D14E7E4EC,,,_358325.ded1deb8ff331006cfaee67d14e7e4ec.pdf,0,2000-01-01 01:00:00,2016-04-03 02:51:08,636000/ded1deb8ff331006cfaee67d14e7e4ec-d.jpg,,
21930992,Advertising Age - 11 April 2011,,,,Abbey Klaassen (Editor),,,,,28,0,English ,,,до 2011-08,,,,,,,,,,,,0,,,,,1,,0,11944652,pdf,99AC1ED8AC8524F46018E1B242CA332C,,,_358326.99ac1ed8ac8524f46018e1b242ca332c.pdf,0,2000-01-01 01:00:00,2016-04-03 02:51:08,636000/99ac1ed8ac8524f46018e1b242ca332c-g.jpg,,
21930993,"La Mémoire, l'histoire, l'oubli",,,,Paul Ricoeur,2000,Ordre philosophique,Editions du Seuil,,699,0,French ,,,до 2011-08,"2020349175,9782020349178",,,,,,,,,OL8834854M,,600,,,,1,1,1,1,16986826,pdf,E9A44039543A1B9D6EA66005F58D40D5,,,_358327.e9a44039543a1b9d6ea66005f58d40d5.pdf,0,2000-01-01 01:00:00,2016-04-03 02:51:08,636000/e9a44039543a1b9d6ea66005f58d40d5-d.jpg,,
21930994,"Handbook of Schizophrenia Spectrum Disorders, Volume I: Conceptual Issues and Neurobiological Advances",1,,,"Michael S. Ritsner, Irving I. Gottesman (auth.), Michael S. Ritsner (eds.)",2011,1,Springer Netherlands,,494,0,English,,,до 2011-08,"940070836X,9789400708365",,,,,,,10.1007/978-94-007-0837-2,,,,0,,,,,0,1,1,9267780,pdf,68A43EFD8377C897B6E17415728025C5,,,_358328.68a43efd8377c897b6e17415728025c5.pdf,0,2000-01-01 01:00:00,2016-04-03 02:51:08,636000/68a43efd8377c897b6e17415728025c5-d.jpg,,
21930995,"Vitamins & Coenzymes, Part I",,Methods in Enzymology 279,,"John N. Abelson, Melvin I. Simon, Donald B. McCormick, John W. Suttie, Conrad Wagner",1997,1st,Academic Press,,539,0,English ,,,до 2011-08,"0121821803,9780121821807",0076-6879,,,,,,,Q58lYgEACAAJ,OL7326270M,,0,,,,1,1,1,1,28443097,pdf,98AB8D0A5322E91A45556A517AFCB508,,,_358329.98ab8d0a5322e91a45556a517afcb508.pdf,0,2000-01-01 01:00:00,2016-04-03 02:51:08,636000/98ab8d0a5322e91a45556a517afcb508-d.jpg,,
21930996,Este Es Mi Pueblo,,,,Albert Einstein,1996,,elaleph,,76,0,Spanish,,,до 2011-08,"950516307X,9789505163076",,,,,,,,,OL12989819M,,0,,,,1,1,,1,208019,pdf,80B7D8C5E6A8AD3B4FC16841F44D0D18,,,_358330.80b7d8c5e6a8ad3b4fc16841f44d0d18.pdf,0,2000-01-01 01:00:00,2016-04-03 02:51:08,636000/80b7d8c5e6a8ad3b4fc16841f44d0d18-g.jpg,,
21930997,"Handbook of Schizophrenia Spectrum Disorders, Volume II: Phenotypic and Endophenotypic Presentations",2,,,"George Foussias, Ofer Agid, Gary Remington (auth.), Michael Ritsner (eds.)",2011,1,Springer Netherlands,,526,0,English,,,до 2011-08,"9400708300,9789400708303",,,,,,,10.1007/978-94-007-0831-0,,,,0,,,,,0,1,1,5682548,pdf,E6E7301388551B8B26B7E93E799665CE,,,_358331.e6e7301388551b8b26b7e93e799665ce.pdf,0,2000-01-01 01:00:00,2016-04-03 02:51:08,636000/e6e7301388551b8b26b7e93e799665ce-d.jpg,,
21930998,"Vitamins & Coenzymes, Part L",,Methods in Enzymology 282,,"Edward A. Dennis, Melvin I. Simon, Donald B. McCormick, John W. Suttie, Conrad Wagner",1997,1st,Academic Press,,542,0,English ,,,до 2011-08,"0121821838,9780121821838",0076-6879,,,,,,,I6tsRAAACAAJ,OL9782364M,,0,,,,1,1,1,1,39691999,pdf,9FCD68DE93040F5D5C69CFE0CBACC4F6,,,_358332.9fcd68de93040f5d5c69cfe0cbacc4f6.pdf,0,2000-01-01 01:00:00,2016-04-03 02:51:08,636000/9fcd68de93040f5d5c69cfe0cbacc4f6-d.jpg,,
21930999,Manual of Pediatric Nutrition 3rd Edition,,,,"Kristy M. Hendricks, Christopher Duggan, W. Allan Walker, W. Allan Walker MD, Kristy M. P. Hendricks RD MS ScD, Christopher Duggan MD MPH",2000,3rd,B.C. Decker,,598,0,English ,,,до 2011-08,"1550090917,9781550090918",,,,,615.8/54/083,RJ206 .H42 2000,,2sJsAAAAMAAJ,OL3962475M,,0,,,,0,1,1,1,21932920,pdf,15688AB9ED70E046CC19650497FD8457,,,_358333.15688ab9ed70e046cc19650497fd8457.pdf,0,2000-01-01 01:00:00,2016-04-03 02:51:08,636000/15688ab9ed70e046cc19650497fd8457-d.jpg,,
21931000,"Encyclopedia of Physical Science and Technology, 3e, Atmospheric Science",,"Encyclopedia of Physical Science and Technology'', Atmospheric Science",,Robert Allen Meyers,2005,,Academic Press,,396,0,English ,,,до 2011-08,,,,,,,,,,,"no front matter, no ISBN(s)",0,,,,0,0,1,1,31693908,pdf,998BF7251F1D85A8FE63E27A37E8855D,,,_358334.998bf7251f1d85a8fe63e27a37e8855d.pdf,0,2000-01-01 01:00:00,2016-04-03 02:51:08,636000/998bf7251f1d85a8fe63e27a37e8855d-g.jpg,,
21931001,The Concise Nature Encyclopedia,,,,Burnie,2006,,Kingfisher Books Ltd,,320,0,English ,,,до 2011-08,"0753413213,9780753413210",,,,,,,,,,,0,,,,,1,1,0,17470014,pdf,F31D4006DAE8D9A64612F91543F5459F,,,_358335.f31d4006dae8d9a64612f91543f5459f.pdf,0,2000-01-01 01:00:00,2016-04-03 02:51:08,636000/f31d4006dae8d9a64612f91543f5459f-d.jpg,,
21931002,Occult America: The Secret History of How Mysticism Shaped Our Nation   ,,,,Mitch Horowitz,2009,,Random House Publishing Group,,,0,English ,,,до 2011-08,"9780553906981,0553906984",,,,,,,,,OL24262741M,,0,,,,,1,,,2121195,epub,B7255161FE6E82E42DEB9C0EA92BBF48,,,_358336.b7255161fe6e82e42deb9c0ea92bbf48.epub,0,2000-01-01 01:00:00,2016-04-03 02:51:08,636000/B7255161FE6E82E42DEB9C0EA92BBF48-g.jpg,,
21931003,Handbook of Nutrition and Food,,,,Carolyn D. Berdanier,2001,,CRC Press,,1613,0,English ,,,до 2011-08,"0849327059,9780849327056",,,,,,,,ysrzdCPc4dAC,OL17042157M,,0,,,,0,1,0,1,24875573,pdf,3C6E14DE1F8651C5F40818FE0C68C85E,,,_358337.3c6e14de1f8651c5f40818fe0c68c85e.pdf,0,2000-01-01 01:00:00,2016-04-03 02:51:08,636000/3c6e14de1f8651c5f40818fe0c68c85e-d.jpg,,
21931004,Scale and Scope: The Dynamics of Industrial Capitalism,,,,"Alfred D. Chandler, Takashi Hikino",1990,First Edition,Belknap Press,,782,0,English ,,,до 2011-08,"0674789946,9780674789944",,,,,338.6/44/09,HD2785 .C474 1990,,,OL15451458M,,0,,,,,1,1,1,51899381,pdf,95603544B8C4261FAE8073A072492E2A,,,_358338.95603544b8c4261fae8073a072492e2a.pdf,0,2000-01-01 01:00:00,2016-04-03 02:51:08,636000/95603544b8c4261fae8073a072492e2a-d.jpg,,
21931005,"Africa for kids: exploring a vibrant continent, 19 activities",,For Kids,,Harvey Croze,2006,,Chicago Review Press,,145,0,English ,,,до 2011-08,"1556525982,9781556525988",,,,,916,DT22 .C76 2006,,,OL3415617M,,0,,,,1,0,1,1,3280642,pdf,09DAAF73F2FBEFD98D59370116DAF7AE,,,_358339.09daaf73f2fbefd98d59370116daf7ae.pdf,0,2000-01-01 01:00:00,2016-04-03 02:51:08,636000/09daaf73f2fbefd98d59370116daf7ae-d.jpg,,
21931006,Famous Problems and Their Mathematicians,,,,Art Johnson,1999,,Libraries Unlimited,,225,0,English ,,,до 2011-08,"1563084465,9781563084461",,,,,510/.76,QA43 .J56 1999,,,OL379322M,,0,,,,,1,,1,1055660,pdf,82B306B5D4696B09699DD4EC6A4B055B,,,_358340.82b306b5d4696b09699dd4ec6a4b055b.pdf,0,2000-01-01 01:00:00,2016-04-03 02:51:08,636000/82b306b5d4696b09699dd4ec6a4b055b-d.jpg,,
21931007,Emerging Practices in Cyberculture and Social Networking,,,,"Daniel Riha, Anna Maj",2010,,Rodopi,,202,0,English ,,,до 2011-08,"9042030828,9789042030824",,,,,,,,,,,0,,,,1,0,1,1,1396679,pdf,F8FBF26CC9F0ADC2842C698DB7152D3D,,,_358342.f8fbf26cc9f0adc2842c698db7152d3d.pdf,0,2000-01-01 01:00:00,2016-04-03 02:51:08,636000/f8fbf26cc9f0adc2842c698db7152d3d-d.jpg,,
21931008,Life by the Numbers,,,,Keith Devlin,1999,,Wiley,,248,0,English ,,,до 2011-08,"0471328227,9780471328223",,,,,,,,,,,0,,,,,1,1,1,6321208,pdf,613903546E1D501AAFE67DA9E7BB1DD2,,,_358343.613903546e1d501aafe67da9e7bb1dd2.pdf,0,2000-01-01 01:00:00,2016-04-03 02:51:08,636000/613903546e1d501aafe67da9e7bb1dd2-d.jpg,,
21931009,The Physics of Polymers: Concepts for Understanding Their Structures and Behavior,,,,Prof. Gert Strobl (auth.),2007,3,Springer-Verlag Berlin Heidelberg,,518,0,English,,,до 2011-08,"3642064493,9783642064494,3540252789,9783540252788",,,,,,,10.1007/978-3-540-68411-4,,OL9055429M,,0,,,,,0,1,1,10372436,pdf,C9E52BDC37A0AC0FA788DC784626992F,,,_358344.c9e52bdc37a0ac0fa788dc784626992f.pdf,0,2000-01-01 01:00:00,2016-04-03 02:51:08,636000/c9e52bdc37a0ac0fa788dc784626992f-d.jpg,,
21931010,The Visible Hand: Managerial Revolution in American Business,,,,Alfred D. Chandler,1977,,Harvard University Press,,621,0,English ,,,до 2011-08,"0674940520,9780674940529",,,,,658.400973 C,,,,OL21398103M,,0,,,,,1,1,1,14399000,pdf,03F83C0BE3C943ACDD64F92A8E02BBBA,,,_358345.03f83c0be3c943acdd64f92a8e02bbba.pdf,0,2000-01-01 01:00:00,2016-04-03 02:51:08,636000/03f83c0be3c943acdd64f92a8e02bbba-d.jpg,,
21931011,Ecology and Natural History of Tropical Bees,,Cambridge Tropical Biology,,David W. Roubik,1992,,Cambridge University Press,,525,0,English ,,,до 2011-08,"0521429099,9780521429092,0521262364,9780521262361",,,,,595.79/9045,QL568.A6,,,OL22540547M,,0,,,,1,1,1,1,10130522,pdf,84F4B312085F39F0DE2312B486873843,,,_358346.84f4b312085f39f0de2312b486873843.pdf,0,2000-01-01 01:00:00,2016-04-03 02:51:08,636000/84f4b312085f39f0de2312b486873843-d.jpg,,
21931012,"Handbook of Design, Manufacturing and Automation",,,,"Richard C. Dorf, Andrew Kusiak",1994,1,Wiley-Interscience,,1018,0,English ,,,до 2011-08,"0471552186,9780471552185",,,,,670.42/7,TS183 .H359 1994,,,OL1084189M,,0,,,,0,1,0,1,57670519,pdf,D12082B5798F441C511341AAA5196FEF,,,_358347.d12082b5798f441c511341aaa5196fef.pdf,0,2000-01-01 01:00:00,2016-04-03 02:51:08,636000/d12082b5798f441c511341aaa5196fef-d.jpg,,
21931013,"Diskrete Mathematik für Einsteiger: Mit Anwendungen in Technik und Informatik, 4. Auflage",,,,"Albrecht Beutelspacher, Marc-Alexander Zschiegner",2011,,Vieweg+Teubner,,264,0,German ,,,до 2011-08,"383481248X,9783834812483",,,,,,,,GrtviTg21_UC,,,0,,,,1,1,1,1,17806415,pdf,0032CCDB649C9CB26C28A35A2A31A80D,,,_358348.0032ccdb649c9cb26c28a35a2a31a80d.pdf,0,2000-01-01 01:00:00,2016-04-03 02:51:08,636000/0032ccdb649c9cb26c28a35a2a31a80d-g.jpg,,
21931014,"Kinship in Neckarhausen, 1700-1870",,,,"David Warren Sabean, David Sabean",1998,,Cambridge University Press,,655,0,English ,,,до 2011-08,"0521586577,9780521586573,0521583810,9780521583817",,,,,306.83/0943/46,GN585.G4 S33 1998,,,OL687149M,,0,,,,1,1,1,1,8259187,pdf,F231964D83EE9A5F0D24ECE73A2CE452,,,_358349.f231964d83ee9a5f0d24ece73a2ce452.pdf,0,2000-01-01 01:00:00,2016-04-03 02:51:08,636000/f231964d83ee9a5f0d24ece73a2ce452-d.jpg,,
21931015,Strategy and Structure: Chapters in the History of the American Industrial Enterprise,,,,Alfred D. Chandler,1969,,MIT Press,,,0,English ,,,до 2011-08,"0262530090,9780262530095",,,,,658.4/021,HD70.U5 C5 1990,,,OL2194396M,,0,,,,,1,,,11330756,chm,D0D7C5B29CCA5435FC1927B25F1BA78E,,,_358350.d0d7c5b29cca5435fc1927b25f1ba78e.chm,0,2000-01-01 01:00:00,2016-04-03 02:51:08,636000/d0d7c5b29cca5435fc1927b25f1ba78e-d.jpg,,
21931016,The economic emergence of modern Japan,,,,Kôzô Yamamura,1997,,Cambridge University Press,,386,0,English ,,,до 2011-08,"0521589460,9780521589468,0521571170,9780521571173",,,,,330.952,HC462.7 .E34 1997,,,OL992791M,,0,,,,1,1,1,1,5398735,pdf,61368CAAACE539B837B576FE93084BD9,,,_358352.61368caaace539b837b576fe93084bd9.pdf,0,2000-01-01 01:00:00,2016-04-03 02:51:08,636000/61368caaace539b837b576fe93084bd9-d.jpg,,
21931017,100 Minuten für Anforderungsmanagement: Kompaktes Wissen für Projektleiter und Entwickler,,,,Marcus Grande,2011,,Vieweg+Teubner,,153,0,German ,,,до 2011-08,"3834814318,9783834814319",,,,,,,,pkesn4BnMY8C,,,0,,,,1,0,1,1,2035271,pdf,F356CE116EF3C1DB95005D4C279D4640,,,_358353.f356ce116ef3c1db95005d4c279d4640.pdf,0,2000-01-01 01:00:00,2016-04-03 02:51:08,636000/f356ce116ef3c1db95005d4c279d4640-g.jpg,,
21931018,"Family Capitalism: Wendels, Haniels, Falcks, and the Continental European Model",,,,Harold James,2006,,Harvard University Press,,447,0,English ,,,до 2011-08,"0674021819,9780674021815",,,,,338.7,HD62.25 .J355 2006,,,OL22729137M,,0,,,,,1,,1,4301746,pdf,7CF20E8694CADFA3162640BF2BCE80D4,,,_358354.7cf20e8694cadfa3162640bf2bce80d4.pdf,0,2000-01-01 01:00:00,2016-04-03 02:51:08,636000/7cf20e8694cadfa3162640bf2bce80d4-d.jpg,,
21931019,The Centaur,,,,John Updike,1963,,,,,0,English ,,,до 2011-08,,,,,,,,,,,,0,,,,,1,,1,280581,epub,250FF6C475413EDCC5931A425A8C61F0,,,_358355.250ff6c475413edcc5931a425a8c61f0.epub,0,2000-01-01 01:00:00,2016-04-03 02:51:08,636000/250FF6C475413EDCC5931A425A8C61F0-g.jpg,,
21931020,Professional Photographer October 2009,,,,Professional Photographer,,,,,132,0,English ,,,до 2011-08,,,,,,,,,,,,0,,,,,1,,1,48237287,pdf,187038C1D65FBC60111166EC1278C7F9,,,_358358.187038c1d65fbc60111166ec1278c7f9.pdf,0,2000-01-01 01:00:00,2016-04-03 02:51:08,636000/187038c1d65fbc60111166ec1278c7f9-g.jpg,,
21931021,Interstellar Molecules: Their Laboratory and Interstellar Habitat,,Springer Tracts in Modern Physics 241,,"Koichi M. T. Yamada, Gisbert Winnewisser (auth.), Koichi M. T. Yamada, Gisbert Winnewisser (eds.)",2011,1,Springer-Verlag Berlin Heidelberg,,230,0,English,,,до 2011-08,"3642162673,9783642162671",0081-3869,,,,,,10.1007/978-3-642-16268-8,4-TWA2I9ifEC,,,0,,,,1,0,1,1,2736450,pdf,097A123BBD23CDBEFD058BFFA96D9D37,,,_358359.097a123bbd23cdbefd058bffa96d9d37.pdf,0,2000-01-01 01:00:00,2016-04-03 02:51:08,636000/097a123bbd23cdbefd058bffa96d9d37-d.jpg,,
21931022,Allgemeine Chemie: Chemie-Basiswissen I,,Springer-Lehrbuch,,"Hans Peter Latscha, Helmut Alfons Klein, Martin Mutz (auth.)",2011,10,Springer-Verlag Berlin Heidelberg,,304,0,German,,,до 2011-08,"3642175228,9783642175220",0937-7433,,,,,,10.1007/978-3-642-17523-7,ylvvy-Npbe8C,,,0,,,,1,0,1,1,3477924,pdf,9C597BE4EE6DE9CEA2EDE882A22E7384,,,_358360.9c597be4ee6de9cea2ede882a22e7384.pdf,0,2000-01-01 01:00:00,2016-04-03 02:51:08,636000/9c597be4ee6de9cea2ede882a22e7384-d.jpg,,
21931023,Bayrampaşa Cezaevi gerçeği,,,,Zeki Bingöl,2007,,Togan,,130,0,Turkish ,,,до 2011-08,"9944337021,9789944337021",,,,,,,,,OL23211419M,,0,,,,,1,,1,469605,pdf,2FFC997B3E249C062ADC08ACE6919853,,,_358361.2ffc997b3e249c062adc08ace6919853.pdf,0,2000-01-01 01:00:00,2016-04-03 02:51:08,636000/2ffc997b3e249c062adc08ace6919853-g.jpg,,
21931024,Assembly Line Design: The Balancing of Mixed-Model Hybrid Assembly Lines with Genetic Algorithms (Springer Series in Advanced Manufacturing),,,,"Brahim Rekiek, Alain Delchambre",2005,1st Edition.,Springer,,168,0,English ,,,до 2011-08,"1846281121,9781846281129,9781846281143",,,,,670.42,TS178.4 .R45 2006,,,OL19291071M,,0,,,,0,0,0,1,2309995,pdf,674E2A99A76E26F439835B9F0FB73632,,,_358362.674e2a99a76e26f439835b9f0fb73632.pdf,0,2000-01-01 01:00:00,2016-04-03 02:51:08,636000/674e2a99a76e26f439835b9f0fb73632-d.jpg,,
21931025,Denksport für ein Jahr: 140 mathematische Rätsel aus dem Alltag,,,,George Grätzer,2010,1. Aufl.,Spektrum Akademischer Verlag,,278,0,German ,,,до 2011-08,"3827425913,9783827425911",,,,,,,,y2tHrjIWAmgC,,,0,,,,1,0,1,1,1523584,pdf,3A42920BF4055A528611161A24F2DD80,,,_358363.3a42920bf4055a528611161a24f2dd80.pdf,0,2000-01-01 01:00:00,2016-04-03 02:51:08,636000/3a42920bf4055a528611161a24f2dd80-d.jpg,,
21931026,Technology-Enhanced Systems and Tools for Collaborative Learning Scaffolding,,Studies in Computational Intelligence 350,,"Nik Bessis, Peter Norrington, Fatos Xhafa (auth.), Thanasis Daradoumis, Santi Caballé, Angel A. Juan, Fatos Xhafa (eds.)",2011,1,Springer-Verlag Berlin Heidelberg,,312,0,English,,,до 2011-08,"3642198139,9783642198137",1860-949X,,,,,,10.1007/978-3-642-19814-4,2ZxMGQ9coXMC,,,0,,,,1,0,1,1,7919468,pdf,25D588C235AC48BAF2733454BD32956C,,,_358364.25d588c235ac48baf2733454bd32956c.pdf,0,2000-01-01 01:00:00,2016-04-03 02:51:08,636000/25d588c235ac48baf2733454bd32956c-d.jpg,,
21931027,Introducción a la lectura de Platón,,,,Alexandre Koyré,1966,,,,189,0,Spanish,,,до 2011-08,,,,,,,,,,,,0,,,,0,1,0,1,7369516,pdf,D71F67608926881C5A89588D82527281,,,_358365.d71f67608926881c5a89588d82527281.pdf,0,2000-01-01 01:00:00,2016-04-03 02:51:08,636000/d71f67608926881c5a89588d82527281-g.jpg,,
21931028,Telomeres and Telomerase: Methods and Protocols,,Methods in Molecular Biology 735,,"Zhou Songyang (auth.), Zhou Songyang (eds.)",2011,2,Humana Press,,191,0,English,,,до 2011-08,"1617790915,9781617790911",1064-3745,,,,,,10.1007/978-1-61779-092-8,,OL25071663M,,0,,,,1,0,1,1,5623701,pdf,A5B353DBFA91864809F9148C60B9369A,,,_358366.a5b353dbfa91864809f9148c60b9369a.pdf,0,2000-01-01 01:00:00,2016-04-03 02:51:08,636000/a5b353dbfa91864809f9148c60b9369a-d.jpg,,
21931029,Metaphoria: Metaphor and Guided Metaphor for Psychotherapy and Healing,,,,Rubin Battino,2002,First Edition,Crown Publishers,,373,0,English ,,,до 2011-08,"1899836829,9781899836826",,,,,616.89/14,RC489.M47 B366 2002,,,OL3573751M,,0,,,,1,0,0,1,3441643,pdf,0ECDD6B46BA13349EDD35D4170484498,,,_358367.0ecdd6b46ba13349edd35d4170484498.pdf,0,2000-01-01 01:00:00,2016-04-03 02:51:08,636000/0ecdd6b46ba13349edd35d4170484498-d.jpg,,
21931030,21st Century Manufacturing,,,,Paul Kenneth Wright,2000,1,Prentice Hall,,449,0,English ,,,до 2011-08,"0130956015,9780130956019",,,,,,,,,OL7334275M,,0,,,,1,1,1,1,12915094,pdf,27EF62BC28B39E4ECE0AD88E433D11CC,,,_358368.27ef62bc28b39e4ece0ad88e433d11cc.pdf,0,2000-01-01 01:00:00,2016-04-03 02:51:08,636000/27ef62bc28b39e4ece0ad88e433d11cc-d.jpg,,
21931031,Discontinuous Galerkin Methods For Solving Elliptic And parabolic Equations: Theory and Implementation (Frontiers in Applied Mathematics),,,,Béatrice Rivière,2008,,Society for Industrial and Applied Mathematic,,212,0,English ,,,до 2011-08,"089871656X,9780898716566",,,,,518/.64,QA377 .R58 2008,,,OL16820529M,,0,,,,,1,,1,3652949,pdf,C9FCF925DF421F8CAD1C3B8A1E6E15AB,,,_358369.c9fcf925df421f8cad1c3b8a1e6e15ab.pdf,0,2000-01-01 01:00:00,2016-04-03 02:51:08,636000/c9fcf925df421f8cad1c3b8a1e6e15ab-d.jpg,,
21931032,"Computational Color Imaging: Third International Workshop, CCIW 2011, Milan, Italy, April 20-21, 2011. Proceedings",,Lecture Notes in Computer Science 6626,,"Erik Reinhard, Tania Pouli (auth.), Raimondo Schettini, Shoji Tominaga, Alain Trémeau (eds.)",2011,1,Springer-Verlag Berlin Heidelberg,,257,0,English,,,до 2011-08,"3642204031,9783642204036",0302-9743,,,,,,10.1007/978-3-642-20404-3,8yOy3UaBlkMC,,,0,,,,1,0,1,1,13559287,pdf,954F478321387BC919ACA20CAEC50D53,,,_358370.954f478321387bc919aca20caec50d53.pdf,0,2000-01-01 01:00:00,2016-04-03 02:51:08,636000/954f478321387bc919aca20caec50d53-d.jpg,,
21931033,"What's New, Cupcake?: Ingeniously Simple Designs for Every Occasion",,,,"Karen Tack, Alan Richardson",2010,,Houghton Mifflin Harcourt,,227,0,English ,,,до 2011-08,,,,,,,,,,,,0,,,,0,1,1,0,61368787,pdf,78F8CFBC5A6C24D3C6DA0F0259105767,,,_358372.78f8cfbc5a6c24d3c6da0f0259105767.pdf,0,2000-01-01 01:00:00,2016-04-03 02:51:08,636000/78f8cfbc5a6c24d3c6da0f0259105767-g.jpg,,
21931034,The Checklist Manifesto: How to Get Things Right,,,,Atul Gawande,2009,First Edition,Metropolitan Books,,,0,English ,,,до 2011-08,"0805091742,9780805091748",,,,,610.28/9,RA399.A1 G39 2010,,,OL23944743M,,0,,,,,1,,,230688,epub,55734FFFD0389BCB20409F2CA5C28C78,,,_358373.55734fffd0389bcb20409f2ca5c28c78.epub,0,2000-01-01 01:00:00,2016-04-03 02:51:08,636000/55734fffd0389bcb20409f2ca5c28c78-d.jpg,,
21931035,Universal Principles of Design,,,,"William Lidwell, Kritina Holden, Jill Butler",2003,,Rockport Publishers,,,0,English ,,,до 2011-08,"1592530079,9781592530076",,,,,,,,,OL8867343M,,0,,,,,1,,,6045182,epub,6FBF954D4A83731E62AC279899D07E6E,,,_358374.6fbf954d4a83731e62ac279899d07e6e.epub,0,2000-01-01 01:00:00,2016-04-03 02:51:08,636000/6fbf954d4a83731e62ac279899d07e6e-d.jpg,,
21931036,The Master Switch: The Rise and Fall of Information Empires   ,,,,Tim Wu,2010,,Knopf Doubleday Publishing Group,,,0,English ,,,до 2011-08,"9780307594655,0307269930",,,,,,,,,OL25091630M,,0,,,,,1,,,2673968,epub,ECBF71413C19A97D94BE416E1A2BCEC9,,,_358375.ecbf71413c19a97d94be416e1a2bcec9.epub,0,2000-01-01 01:00:00,2016-04-03 02:51:08,636000/ecbf71413c19a97d94be416e1a2bcec9-d.jpg,,
21931037,Ragtime: A Novel   ,,,,E. L. Doctorow,,,Random House Publishing Group,,,0,English ,,,до 2011-08,9780307762948,,,,,,,,,,,0,,,,,1,,,2177874,epub,31484DF5D108281ECFA59EB8B51EC95B,,,_358376.31484df5d108281ecfa59eb8b51ec95b.epub,0,2000-01-01 01:00:00,2016-04-03 02:51:08,636000/31484DF5D108281ECFA59EB8B51EC95B-g.jpg,,
21931038,Knowledge Annotation: Making Implicit Knowledge Explicit,,Intelligent Systems Reference Library 16,,Alexiei Dingli (auth.),2011,1,Springer-Verlag Berlin Heidelberg,,144,0,English,,,до 2011-08,"3642203221,9783642203220",1868-4394,,,,,,10.1007/978-3-642-20323-7,rerfXOMar1YC,,,0,,,,1,0,1,1,2203329,pdf,935B0D2C9AE4F5AA58000AEEDF7CBDE8,,,_358377.935b0d2c9ae4f5aa58000aeedf7cbde8.pdf,0,2000-01-01 01:00:00,2016-04-03 02:51:08,636000/935b0d2c9ae4f5aa58000aeedf7cbde8-d.jpg,,
21931039,"Psychedelic Shamanism: The Cultivation, Preparation & Shamanic Use of Psychoactive Plants",,,,Jim Dekorne,1998,,Breakout Productions,,155,0,English,,,до 2011-08,,,,,,,,,,,,0,,,,,1,,,2871244,epub,427478A46E119495E27C0CDAA0728E44,,,_358378.427478a46e119495e27c0cdaa0728e44.epub,0,2000-01-01 01:00:00,2016-04-03 02:51:08,636000/427478A46E119495E27C0CDAA0728E44-g.jpg,,
21931040,The Lively Arts: Gilbert Seldes and the Transformation of Cultural Criticism in the United States,,,,Michael Kammen,1996,1ST,"Oxford University Press, USA",,506,0,English ,,,до 2011-08,"0195098684,9780195098686",,,,,"700/.92,B",N7483.S38 K36 1996,,,OL780588M,,0,,,,,1,1,1,31120472,pdf,51F23720E1F88341E6E4FD6B17866CFA,,,_358379.51f23720e1f88341e6e4fd6b17866cfa.pdf,0,2000-01-01 01:00:00,2016-04-03 02:51:08,636000/51f23720e1f88341e6e4fd6b17866cfa-d.jpg,,
21931041,Getting Even,,,,Woody Allen,,,,,,0,English ,,,до 2011-08,,,,,,,,,,,,0,,,,,1,,,270425,epub,E9DB6726C9AB89E65BA6443097E694B8,,,_358380.e9db6726c9ab89e65ba6443097e694b8.epub,0,2000-01-01 01:00:00,2016-04-03 02:51:08,636000/E9DB6726C9AB89E65BA6443097E694B8-g.jpg,,
21931042,Side Effects,,,,Woody Allen,,,,,,0,English ,,,до 2011-08,,,,,,,,,,,,0,,,,,1,,,298832,epub,DF712943F72AA0BC62071575A9142789,,,_358381.df712943f72aa0bc62071575a9142789.epub,0,2000-01-01 01:00:00,2016-04-03 02:51:08,636000/DF712943F72AA0BC62071575A9142789-g.jpg,,
21931043,Introducing Phonetics and Phonology,,,,"Mike Davenport, S. J. Hannahs",2005,2,"Trans-Atlantic Publications, Inc.",,240,0,English ,,,до 2011-08,"0340810459,9780340810453",,,,,414/.8,P217 .D384 2005,,,OL3469495M,,0,,,,,1,,0,7425213,pdf,785FC4EBCF3985A2C75B770B72303E5D,,,_358382.785fc4ebcf3985a2c75b770b72303e5d.pdf,0,2000-01-01 01:00:00,2016-04-03 02:51:08,636000/785fc4ebcf3985a2c75b770b72303e5d-d.jpg,,
21931044,Virtue Ethics for Women 1250-1500,,The New Synthese Historical Library 69,,"István P. Bejczy (auth.), Karen Green, Constant Mews (eds.)",2011,1,Springer Netherlands,,224,0,English,,,до 2011-08,"940070528X,9789400705289",,,,,,,10.1007/978-94-007-0529-6,9Okq5YXXkHkC,,,0,,,,1,0,1,1,3050654,pdf,A59C43CFE74DB73D7A4F46676C0DF89E,,,_358383.a59c43cfe74db73d7a4f46676c0df89e.pdf,0,2000-01-01 01:00:00,2016-04-03 02:51:08,636000/a59c43cfe74db73d7a4f46676c0df89e-d.jpg,,
21931045,Student Solutions Manual to Accompany Complex Variables and Application,,,,"James Brown, Ruel Churchill",,,,,172,0,English ,,,до 2011-08,,,,,,,,,,,,0,,,,,1,,0,1953214,djvu,5F3D502E5C3E46EA6585E3F232B35ED6,6348b826843fadb43a2dab8de5b2ede4,no,_358386.5f3d502e5c3e46ea6585e3f232b35ed6.djvu,0,2000-01-01 01:00:00,2016-04-03 02:51:08,636000/5f3d502e5c3e46ea6585e3f232b35ed6-g.jpg,,
21931046,Ortadoğu,,,,Bernard Lewis,2003,,Arkadaş,,488,0,Turkish ,,,до 2011-08,"9755094423,9789755094427",,,,,,,,,,,0,,,,1,0,,1,242169165,pdf,A91F01288DDBFD42A749096848C03092,,,_358387.a91f01288ddbfd42a749096848c03092.pdf,0,2000-01-01 01:00:00,2016-04-03 02:51:08,636000/a91f01288ddbfd42a749096848c03092-g.jpg,,
21931047,Replicating Vaccines: A New Generation (Birkhäuser Advances in Infectious Diseases),,,,"Philip R. Dormitzer, Christian W. Mandl, Rino Rappuoli",2010,1st Edition.,Springer Basel,,461,0,English ,,,до 2011-08,"3034602766,9783034602761",,,,,,,,,,,0,,,,,1,1,1,4886381,pdf,846EDF1481F4826348E3CCE804A143F1,,,_358388.846edf1481f4826348e3cce804a143f1.pdf,0,2000-01-01 01:00:00,2016-04-03 02:51:08,636000/846edf1481f4826348e3cce804a143f1-d.jpg,,
21931048,Principios de mecánica cuántica,,,,Paul Adrien Maurice Dirac,1968,,Ariel,,328,0,Spanish,,,до 2011-08,,,,,,,,,,,,0,,,,,1,,0,15859546,pdf,4B47B3C9B55756E2CB0261C4BF12E4FD,,,_358389.4b47b3c9b55756e2cb0261c4bf12e4fd.pdf,0,2000-01-01 01:00:00,2016-04-03 02:51:08,636000/4b47b3c9b55756e2cb0261c4bf12e4fd-g.jpg,,
21931049,"The Sail and Steam Navy List: All the Ships of the Royal Navy, 1815-1889",,,,"David Lyon, Rif Winfield",2003,,US Naval Institute Press,,356,0,English ,,,до 2011-08,"1861760329,9781861760326",,,,,623.825094109034,VA456 .L95 2004,,,OL22591403M,,0,,,,0,1,1,0,270367551,pdf,937E582C68F52AE425956CDE8FBD75AE,,,_358392.937e582c68f52ae425956cde8fbd75ae.pdf,0,2000-01-01 01:00:00,2016-04-03 02:51:08,636000/937e582c68f52ae425956cde8fbd75ae-d.jpg,,
21931050,The Procurement and Supply Manager's Desk Reference,,,,"Fred Sollish C.P.M., John Semanik C.P.M.",2007,1,Wiley,,482,0,English ,,,до 2011-08,"0471790435,9780471790433",,,,,,,,,OL7621658M,,0,,,,1,0,1,1,5907036,pdf,DA77851F01DB8093CEADDD77D834CDC0,,,_358394.da77851f01db8093ceaddd77d834cdc0.pdf,0,2000-01-01 01:00:00,2016-04-03 02:51:08,636000/da77851f01db8093ceaddd77d834cdc0-d.jpg,,
21931051,Perceiving: a Philosophical Study,,Contemporary Philosophy,,Roderick Chisholm,1957,,Cornell University Press,,215,0,English ,,,до 2011-08,,,,,,121,BD161 .C47,,,,,450,,,,1,1,1,1,7916282,pdf,0E54DBB17B771BE30526EFF47C56E2A4,,,_358395.0e54dbb17b771be30526eff47c56e2a4.pdf,0,2000-01-01 01:00:00,2016-04-03 02:51:08,636000/0e54dbb17b771be30526eff47c56e2a4-g.jpg,,
21931052,Leading the Revolution,,,,Gary Hamel,2000,1st,Harvard Business School Press,,353,0,English ,,,до 2011-08,"1578511895,9781578511891",,,,,658.4/012,HD53 .H353 2000,,,OL24212205M,,0,,,,,1,,1,16349384,pdf,40DA4F77B72845039B41FBCC86A5ED58,,,_358396.40da4f77b72845039b41fbcc86a5ed58.pdf,0,2000-01-01 01:00:00,2016-04-03 02:51:08,636000/40da4f77b72845039b41fbcc86a5ed58-d.jpg,,
21931053,Seeking a New Accommodation in World Commodity Markets,"10'',",,,"Carl E. Beigie, Wolfgang Hager, Sueo Sekiguchi",1976,,The Trilateral Commission,,27,0,English ,,,до 2011-08,0930503538,,,,,,,,,,"dual pages, vertical display",0,,,,,1,,0,2203928,pdf,665C7EEC0F88555E1F08FEBF8AC307E5,,,_358397.665c7eec0f88555e1f08febf8ac307e5.pdf,0,2000-01-01 01:00:00,2016-04-03 02:51:08,636000/665c7eec0f88555e1f08febf8ac307e5-g.jpg,,
21931054,Cate of the Lost Colony,,,,Lisa Klein,2010,,Bloomsbury USA Children's Books,,,0,English ,,,до 2011-08,"1599905078,9781599905075",,,,,,,,,,,0,,,,,1,,,1173367,epub,F93662049561F87CFD989EDF58E75A04,,,_358398.f93662049561f87cfd989edf58e75a04.epub,0,2000-01-01 01:00:00,2016-04-03 02:51:08,636000/f93662049561f87cfd989edf58e75a04-d.jpg,,
21931055,Cartas de J.R.R. Tolkien,,,,J. R. R. Tolkien,2005,,Minotauro,,663,0,Spanish,,,до 2011-08,"8445071211,9788445071212",,,,,,,,,OL13268174M,,0,,,,1,1,,1,2982940,pdf,2FC9CE2B514984A76A528AC37491C899,,,_358399.2fc9ce2b514984a76a528ac37491c899.pdf,0,2000-01-01 01:00:00,2016-04-03 02:51:08,636000/2fc9ce2b514984a76a528ac37491c899-d.jpg,,
21931056,Il Capro Espiatorio,,,,René Girard,1987,,Adelphi,,133,0,Italian ,,,до 2011-08,,,,,,,,,,,,0,,,,0,0,0,1,496252,pdf,820EB510201C316213F5C67A5FC27AA5,,,_358400.820eb510201c316213f5c67a5fc27aa5.pdf,0,2000-01-01 01:00:00,2016-04-03 02:51:08,636000/820eb510201c316213f5c67a5fc27aa5-g.jpg,,
21931057,Writing Fiction: The Practical Guide from New York's Acclaimed Creative Writing School,,,,Gotham Writers' Workshop,2003,1,Bloomsbury USA,,301,0,English ,,,до 2011-08,"1582343306,9781582343303",,,,,808.3,PN3355 .W75 2003,,JsjzFJwdRGEC,OL3689610M,,0,,,,0,1,0,1,1292393,pdf,5B60049FC2144D190846EFEE54AB0ACD,,,_358401.5b60049fc2144d190846efee54ab0acd.pdf,0,2000-01-01 01:00:00,2016-04-03 02:51:08,636000/5b60049fc2144d190846efee54ab0acd-d.jpg,,
21931058,Persian Sufi Poetry: An Introduction to the Mystical Use of Classical Persian Poems (Routledge Sufi Series),,,,J. T. P. de Bruijn,1997,,Routledge,,228,0,English ,,,до 2011-08,"0700703128,9780700703128",,,,,891/.551009,PK6420.S8 B78 1997,,,OL308174M,,0,,,,0,1,1,0,33955297,pdf,B1C5BDB11F48CCCB19FEDF5C31043884,,,_358402.b1c5bdb11f48cccb19fedf5c31043884.pdf,0,2000-01-01 01:00:00,2016-04-03 02:51:08,636000/b1c5bdb11f48cccb19fedf5c31043884-d.jpg,,
21931059,"The Cambridge History of Later Medieval Philosophy: From the Rediscovery of Aristotle to the Disintegration of Scholasticism, 1100-1600",,,,"Norman Kretzmann, Anthony Kenny, Jan Pinborg, Eleonore Stump",1988,,Cambridge University Press,,992,0,English ,,,до 2011-08,"0521369339,9780521369336,0521226058,9780521226059",,,,,189,B721 .C35 1982,,l821N_9GSusC,OL4264215M,no indexes,300,,,,,1,0,1,10311052,djvu,B1D24C38DCD15E6713416D05E80E2C5A,,,_358403.b1d24c38dcd15e6713416d05e80e2c5a.djvu,0,2000-01-01 01:00:00,2016-04-03 02:51:08,636000/b1d24c38dcd15e6713416d05e80e2c5a-d.jpg,,
21931060,"Assessment in Secondary Schools: The New Teacher's Guide to Monitoring Assessment, Recording and Accountability",,,,Val Brooks,2002,1,Open University Press,,207,0,English ,,,до 2011-08,"0335206379,9780335206377",,,,,373.41,LB3056.G7 B78 2002,,,OL10561741M,,0,,,,0,1,0,1,8748035,pdf,78302834A4F7BB4279C3EF2E9EB3E012,,,_358404.78302834a4f7bb4279c3ef2e9eb3e012.pdf,0,2000-01-01 01:00:00,2016-04-03 02:51:08,636000/78302834a4f7bb4279c3ef2e9eb3e012-d.jpg,,
21931061,Энциклопедия Современное естествознание. Том 4. Физика элементарных частиц. Астрофизика,,Энциклопедия Современное естествознание,,"Б.И. САДОВНИКОВ, В.П. СМИЛГА, A.M. ЧЕРЕПАЩУК",2000,,МАГИСТР-ПРЕСС,,282,0,Russian ,264,,до 2011-08,5893171365,,,,,,,,,,,600,,,,,1,,1,11121931,djvu,98D266B831BFBB9D2553677957B5A1B6,,,_358405.98d266b831bfbb9d2553677957b5a1b6.djvu,0,2000-01-01 01:00:00,2016-04-03 02:51:08,636000/98d266b831bfbb9d2553677957b5a1b6-g.jpg,,
21931062,JPod,,,,Douglas Coupland,2007,,Vintage Canada,,,0,English ,,,до 2011-08,"0679314253,9780679314257",,,,,,,,OIwKnhgP4FQC,OL7698402M,,0,,,,,1,1,1,1184809,epub,5443BF19B549E0076A239C97D5A8CE8C,,,_358406.5443bf19b549e0076a239c97d5a8ce8c.epub,0,2000-01-01 01:00:00,2016-04-03 02:51:08,636000/5443bf19b549e0076a239c97d5a8ce8c-d.jpg,,
21931063,Энциклопедия Современное естествознание. Том 4. Физика элементарных частиц. Астрофизика,,Энциклопедия Современное естествознание,,"Б.И. САДОВНИКОВ, В.П. СМИЛГА, A.M. ЧЕРЕПАЩУК",2000,,МАГИСТР-ПРЕСС,,282,0,Russian ,264,,до 2011-08,,,,,,,,,,,,600,,,,,1,,0,13917713,pdf,199DA322526C0250C520B7B55611D5FB,,,_358407.199da322526c0250c520b7b55611d5fb.pdf,0,2000-01-01 01:00:00,2016-04-03 02:51:08,636000/199da322526c0250c520b7b55611d5fb-g.jpg,,
21931064,Тайны географических названий,,,,Узин С.,1961,,Географиздат,,106,0,Russian ,,,до 2011-08,,,,,,,,,,,,600,,,,,1,,0,1896499,pdf,0EBD61DEA59093D9C68C3AE7689EEFEE,,,_358409.0ebd61dea59093d9c68c3ae7689eefee.pdf,0,2000-01-01 01:00:00,2016-04-03 02:51:08,636000/0ebd61dea59093d9c68c3ae7689eefee-g.jpg,,
21931065,The Family,,,,Mario Puzo,2001,,PerfectBound,,387,0,English ,,,до 2011-08,0060087110,,,,,,,,,,,0,,,,0,1,0,1,6295875,pdf,BCA930CC688D31421F202300BB04D0A1,,,_358410.bca930cc688d31421f202300bb04d0a1.pdf,0,2000-01-01 01:00:00,2016-04-03 02:51:08,636000/bca930cc688d31421f202300bb04d0a1-g.jpg,,
21931066,The Fifty Year Sword,,,,Mark Z. Danielewski,2005,1ST,De Bezige BIJ,,48,0,English ,,,до 2011-08,"9023418778,9789023418771",,,,,,,,,OL9087051M,,0,,,,0,1,0,1,16578392,pdf,2506BEF48D1600F8F956F7891451AC98,,,_358412.2506bef48d1600f8f956f7891451ac98.pdf,0,2000-01-01 01:00:00,2016-04-03 02:51:08,636000/2506bef48d1600f8f956f7891451ac98-d.jpg,,
21931067,Люди и формулы,,,,Репин Л.,1972,,Молодая гвардия,,194,0,Russian ,,,до 2011-08,,,,,,,,,,,,600,,,,,1,,0,3207101,pdf,BFA4D3686E991A0FBF4888F032DBE452,,,_358413.bfa4d3686e991a0fbf4888f032dbe452.pdf,0,2000-01-01 01:00:00,2016-04-03 02:51:08,636000/bfa4d3686e991a0fbf4888f032dbe452-g.jpg,,
21931068,Homeland Security Officers,,Extreme careers,,Jared Meyer,2007,,The Rosen Publishing Group,,65,0,English ,,,до 2011-08,"140420945X,9781404209459",,,,,,,,4s8d2lv2n-UC,OL11643455M,,0,,,,1,0,1,1,8627544,pdf,7DB6CE4E1762E1BE93A09F3DFC81CA1D,,,_358414.7db6ce4e1762e1be93a09f3dfc81ca1d.pdf,0,2000-01-01 01:00:00,2016-04-03 02:51:08,636000/7db6ce4e1762e1be93a09f3dfc81ca1d-d.jpg,,
21931069,Recent Advances in Matrix Theory,,,,Schneider H. (ed.),1964,,Madison and Milwaukee,,124,0,English ,,,до 2011-08,121-123-132-1,,,,,,,,,,"4-5, 60-81",600,,,,,1,,1,1184270,djvu,F50A56D80453A57EC699E3DD0264C08F,,,_358415.f50a56d80453a57ec699e3dd0264c08f.djvu,0,2000-01-01 01:00:00,2016-04-03 02:51:08,636000/f50a56d80453a57ec699e3dd0264c08f-g.jpg,,
21931070,Olympic Gymnastics,,Great Moments in Olympic History,,Adam B. Hofstetter,2007,,The Rosen Publishing Group,,49,0,English ,,,до 2011-08,"1404209689,9781404209688",,,,,796.44,GV460 .H64 2007,,SZcoQNoynsEC,OL17923279M,,0,,,,1,0,1,1,19006072,pdf,7C41B9B5E8598D9D90C6C586CB112C83,,,_358416.7c41b9b5e8598d9d90c6c586cb112c83.pdf,0,2000-01-01 01:00:00,2016-04-03 02:51:08,636000/7c41b9b5e8598d9d90c6c586cb112c83-d.jpg,,
21931071,Plane Crash: True Stories of Survival,,Survivor Stories,,Frank Spalding,2007,,The Rosen Publishing Group,,49,0,English ,,,до 2011-08,"1404209999,9781404209992",,,,,910.9,TL553.7 .S675 2007,,7IGY2ch3z1MC,OL11643489M,,0,,,,1,0,1,1,6527028,pdf,050ACD8041C25A7B99F4A6CA86300FF9,,,_358417.050acd8041c25a7b99f4a6ca86300ff9.pdf,0,2000-01-01 01:00:00,2016-04-03 02:51:08,636000/050acd8041c25a7b99f4a6ca86300ff9-d.jpg,,
21931072,Recent Advances in Matrix Theory,,,,Schneider H. (ed.),1964,,Madison and Milwaukee,,124,0,English ,,,до 2011-08,,,,,,,,,,,"4-5, 60-81",600,,,,,1,,0,1781867,pdf,98F9BE2761B59F2D0FE7C9111CB85E1D,,,_358418.98f9be2761b59f2d0fe7c9111cb85e1d.pdf,0,2000-01-01 01:00:00,2016-04-03 02:51:08,636000/98f9be2761b59f2d0fe7c9111cb85e1d-g.jpg,,
21931073,"Algebraic Combinatorics and Applications: Proceedings of the Euroconference, Algebraic Combinatorics and Applications (ALCOMA), held in Gößweinstein, ... 12-19, 1999 (English and German Edition)",,,,"Anton Betten, Axel Kohnert, Reinhard Laue, Alfred Wassermann",2001,1,Springer,,359,0,English ,,,до 2011-08,"3540411100,9783540411109",,,,,511/.6,QA164 .E84 1999,,,OL12774515M,,600,,,,,1,,1,3783919,djvu,FD860CDCF924E142D05C0FFD14F59FF8,,,_358419.fd860cdcf924e142d05c0ffd14f59ff8.djvu,0,2000-01-01 01:00:00,2016-04-03 02:51:08,636000/fd860cdcf924e142d05c0ffd14f59ff8-d.jpg,,
21931074,"Algebraic Combinatorics and Applications: Proceedings of the Euroconference, Algebraic Combinatorics and Applications (ALCOMA), held in Gößweinstein, ... 12-19, 1999 (English and German Edition)",,,,"Anton Betten, Axel Kohnert, Reinhard Laue, Alfred Wassermann",2001,1,Springer,,359,0,English ,,,до 2011-08,"3540411100,9783540411109",,,,,511/.6,QA164 .E84 1999,,,OL12774515M,,600,,,,,1,,0,6591789,pdf,13083EC9C3DCFB21E863DC212932DCC2,,,_358420.13083ec9c3dcfb21e863dc212932dcc2.pdf,0,2000-01-01 01:00:00,2016-04-03 02:51:08,636000/13083ec9c3dcfb21e863dc212932dcc2-d.jpg,,
21931075,Encyclopedia of Public International Law 12 : Geographic Issues,12,,,"Rudolf Bernhardt, R. Bernhardt",1989,,Elsevier Science Pub Co,,429,0,English ,,,до 2011-08,"0444862439,9780444862433",,,,,341,,,,OL10260986M,,0,,,,1,0,1,1,38506222,pdf,5DFE01BDFAA0CB0156380CBA75BEF68E,,,_358421.5dfe01bdfaa0cb0156380cba75bef68e.pdf,0,2000-01-01 01:00:00,2016-04-03 02:51:08,636000/5dfe01bdfaa0cb0156380cba75bef68e-g.jpg,,
21931076,The Tale of Peter Rabbit (transcribed into Egyptian Hieroglyphic script),,,,"Beatrix Potter, John F. Nunn",2005,Hieroglyph ed,British Museum Press,,38,0,English ,,,до 2011-08,"0714119695,9780714119694",,,,,,,,,,,0,,,,,1,1,1,2684789,pdf,968C4565A4B511D04CD57764B2D2A834,,,_358422.968c4565a4b511d04cd57764b2d2a834.pdf,0,2000-01-01 01:00:00,2016-04-03 02:51:08,636000/968c4565a4b511d04cd57764b2d2a834-d.jpg,,
21931077,,83,,Mathematics Magazine 83 3,Walter Stromquist (Editor in Chief),2010,,Mathematical Association of America,,82,0,English ,,,до 2011-08,,0025570X,,,,,,10.4169/002557010X494805,,,periodic,0,,,,1,0,1,1,2363868,pdf,B3CB7D5239FBF53125C47DE9D66DFD3C,,ban,_358423.b3cb7d5239fbf53125c47de9d66dfd3c.pdf,0,2000-01-01 01:00:00,2016-04-03 02:51:08,636000/b3cb7d5239fbf53125c47de9d66dfd3c-g.jpg,,
21931078,The Last Tycoons: The Secret History of Lazard Frères & Co.,,,,William Cohan,2008,,Anchor,,752,0,English ,,,до 2011-08,"0767919793,9780767919791",,,,,,,,,OL9690357M,,0,,,,0,1,1,,872958,epub,3EFCC0824D7AF732B0BB424BC27EBE03,,,_358424.3efcc0824d7af732b0bb424bc27ebe03.epub,0,2000-01-01 01:00:00,2016-04-03 02:51:08,636000/3efcc0824d7af732b0bb424bc27ebe03-d.jpg,,
21931079,Intellectual Property,,Cyber Citizenship and Cyber Safety,,Jeri Freedman,2008,,The Rosen Publishing Group,,49,0,English ,,,до 2011-08,"1404213481,9781404213487",,,,,346.7304/8,KF2980 .F74 2008,,uG9O7uZiknMC,OL11643506M,,0,,,,1,0,1,1,6647392,pdf,8B3CE516E248F9838DDC07EE1D256594,,,_358425.8b3ce516e248f9838ddc07ee1d256594.pdf,0,2000-01-01 01:00:00,2016-04-03 02:51:08,636000/8b3ce516e248f9838ddc07ee1d256594-d.jpg,,
21931080,The jungles of randomness: a mathematical safari,,,,Ivars Peterson,1998,1,John Wiley & Sons,,,0,English ,,,до 2011-08,"0471164496,9780471164494",,,,,519.2,QA273.15 .P48 1998,,DBTvAAAAMAAJ,OL656202M,,0,,,,,1,1,1,1792471,epub,A4EC677D7749789B934A0BD9D3616E62,,,_358426.a4ec677d7749789b934a0bd9d3616e62.epub,0,2000-01-01 01:00:00,2016-04-03 02:51:08,636000/a4ec677d7749789b934a0bd9d3616e62-d.jpg,,
21931081,Terrorist Attack: True Stories of Survival,,Survivor Stories,,Jennifer Silate,2007,,The Rosen Publishing Group,,49,0,English ,,,до 2011-08,"1404210016,9781404210011",,,,,,,,vjdA-9n9FyIC,OL11643491M,,0,,,,1,0,1,1,6768384,pdf,4581E06F179275163F65E5FBE89A0366,,,_358427.4581e06f179275163f65e5fbe89a0366.pdf,0,2000-01-01 01:00:00,2016-04-03 02:51:08,636000/4581e06f179275163f65e5fbe89a0366-d.jpg,,
21931082,幼儿看图识字 The Child Learns to Read with Pictures - A Thematic Picture Dictionary of Chinese for Children,,,,Sang Jian Guo,2003,,Hai Chao Chubanshe,,74,0,Chinese(China),,,до 2011-08,,,,,,,,,,,,0,,,,,1,1,0,13951429,pdf,BDE962DA1B6EBE1497E1E5078660B15E,,,_358428.bde962da1b6ebe1497e1e5078660b15e.pdf,0,2000-01-01 01:00:00,2016-04-03 02:51:08,636000/bde962da1b6ebe1497e1e5078660b15e-g.jpg,,
21931083,Crime Scene Investigators,,Graphic Forensic Science,,Rob Shone,2008,,The Rosen Publishing Group,,49,0,Serbian ,,,до 2011-08,"1404214437,9781404214439,1404214445,9781404214446",,,,,363.25/2,HV8073 .S436 2008,,oPuNAFdXs2cC,OL16650739M,,0,,,,1,0,1,1,25547841,pdf,F92140255E93F924F29071B0F19EA9FA,,,_358429.f92140255e93f924f29071b0f19ea9fa.pdf,0,2000-01-01 01:00:00,2016-04-03 02:51:08,636000/f92140255e93f924f29071b0f19ea9fa-d.jpg,,
21931084,The Oxford History of Modern War,,,,Charles Townshend,2000,,"Oxford University Press, USA",,430,0,English ,,,до 2011-08,"0192853732,9780192853738",,,,,,,,,OL15310432M,,0,,,,0,1,1,1,2959254,pdf,A91A67B212E6CAF406AC5AAB49152D92,,,_358430.a91a67b212e6caf406ac5aab49152d92.pdf,0,2000-01-01 01:00:00,2016-04-03 02:51:08,636000/a91a67b212e6caf406ac5aab49152d92-d.jpg,,
21931085,Inherently Parallel Algorithms in Feasibility and Optimization and their Applications,,Studies in Computational Mathematics 8,,"Dan Butnariu, Yair Censor and Simeon Reich (Eds.)",2001,1,North Holland,,1-504,0,English ,,,до 2011-08,"0444505954,9780444505958",1570-579X,,,,,,,,OL7530460M,,0,,,,1,1,1,1,23146333,pdf,89DAD0B87B0FC2DEEAB30B10CD327B5C,,,_358431.89dad0b87b0fc2deeab30b10cd327b5c.pdf,0,2000-01-01 01:00:00,2016-04-03 02:51:08,636000/89dad0b87b0fc2deeab30b10cd327b5c-d.jpg,,
21931086,"Am I Crazy, or Is It My Shrink?",,,,"Larry E. Beutler, Bruce Bongar, Joel N. Shurkin",1998,1ST,Oxford University Press,,255,0,English ,,,до 2011-08,0195107802,,,,,,,,,,,0,,,,0,1,0,1,1423106,pdf,E7113093E108271A1DA078ED29E97776,,,_358433.e7113093e108271a1da078ed29e97776.pdf,0,2000-01-01 01:00:00,2016-04-03 02:51:08,636000/e7113093e108271a1da078ed29e97776-d.jpg,,
21931087,Digital Video Quality: Vision Models and Metrics,,,,Stefan Winkler,2005,1,Wiley,,190,0,English ,,,до 2011-08,"0470024046,9780470024041",,,,,,,,,OL7594737M,,0,,,,1,0,1,1,2615121,pdf,C51FBFC4860193D3F7D3B9794B047ED6,,,_358434.c51fbfc4860193d3f7d3b9794b047ed6.pdf,0,2000-01-01 01:00:00,2016-04-03 02:51:08,636000/c51fbfc4860193d3f7d3b9794b047ed6-d.jpg,,
21931088,Almost Free Modules: Set-theoretic Methods,,North-Holland Mathematical Library 65,,"P.C. Eklof, A.H. Mekler",2002,Revised,North Holland,,620,0,English ,,,до 2011-08,"0444504923,9780444504920",0924-6509,,,,,,,,OL17069750M,,0,,,,1,1,1,1,26911923,pdf,8F2B56AEDC42D1C9881DBCC7C7473489,,,_358435.8f2b56aedc42d1c9881dbcc7c7473489.pdf,0,2000-01-01 01:00:00,2016-04-03 02:51:08,636000/8f2b56aedc42d1c9881dbcc7c7473489-d.jpg,,
21931089,Games Businesses Play: Cases and Models,,,,Pankaj Ghemawat,1997,,MIT Press,,,0,English ,,,до 2011-08,"0262071827,9780262071826",,,,,658.4/0353,HD30.26 .G47 1997,,,OL662093M,,0,,,,,1,,,624117,chm,EE271E630D0FFB816ED7C68995C523D8,,,_358436.ee271e630d0ffb816ed7c68995c523d8.chm,0,2000-01-01 01:00:00,2016-04-03 02:51:08,636000/ee271e630d0ffb816ed7c68995c523d8-d.jpg,,
21931090,John Philoponus against Cosmas Indicopleustes. A Christian Controversy on the Structure of the World in Sixth-Century Alexandria,,,,Birgitta Elweskiöld,2005,,Lund University,,147,0,English ,,,до 2011-08,91-628-6642-7,,,,,,,,,,,0,,,,0,1,0,1,1356807,pdf,E979D399AF3D636967BF1D81ECB97962,,,_358437.e979d399af3d636967bf1d81ecb97962.pdf,0,2000-01-01 01:00:00,2016-04-03 02:51:08,636000/e979d399af3d636967bf1d81ecb97962-g.jpg,,
21931091,America Debates United States Policy on Immigration,,America Debates,,Renee Ambrosek,2007,,The Rosen Publishing Group,,65,0,English ,,,до 2011-08,"1404219242,9781404219243",,,,,,,,uYD0D1SE4dwC,OL8402082M,,0,,,,1,0,1,1,10655553,pdf,2070A32B97160B73D1A5558D06EAACBC,,,_358438.2070a32b97160b73d1a5558d06eaacbc.pdf,0,2000-01-01 01:00:00,2016-04-03 02:51:08,636000/2070a32b97160b73d1a5558d06eaacbc-d.jpg,,
21931092,Lipps Werke Bd. 4: Die Verbindlichkeit der Sprache,,,,Hans Lipps,1977,,Vittorio Klostermann,,236,0,German ,,,до 2011-08,"3465012224,9783465012221",,,,,,,,8TZxKnsnmoEC,,,300,,,,0,1,0,0,8934869,pdf,CF3413809E6E44DE7B5E6B78D7F32F84,,,_358439.cf3413809e6e44de7b5e6b78d7f32f84.pdf,0,2000-01-01 01:00:00,2016-04-03 02:51:08,636000/cf3413809e6e44de7b5e6b78d7f32f84-g.jpg,,
21931093,Picture Yourself as a Magician,,,,Wayne N. Kawamoto,2008,1,Course Technology PTR,,348,0,English ,,,до 2011-08,"1598634992,9781598634990,1598636774",,,,,,,,,OL12497089M,no DVD,0,,,,0,0,0,1,18756351,pdf,B2F1FD9AC50956D74D3BC66D592A84D8,,,_358440.b2f1fd9ac50956d74d3bc66d592a84d8.pdf,0,2000-01-01 01:00:00,2016-04-03 02:51:08,636000/b2f1fd9ac50956d74d3bc66d592a84d8-d.jpg,,
21931094,Fighter Pilots,,Graphic Careers,,"David West, James Field",2008,,The Rosen Publishing Group,,49,0,English ,,,до 2011-08,"1404214550,9781404214552",,,,,358.4/302373,UG703 .W47 2008,,tvqM4IM5jEwC,OL16789800M,,0,,,,1,0,1,1,24602182,pdf,938171D30898E6CD1DD5AF167D742AD5,,,_358441.938171d30898e6cd1dd5af167d742ad5.pdf,0,2000-01-01 01:00:00,2016-04-03 02:51:08,636000/938171d30898e6cd1dd5af167d742ad5-d.jpg,,
21931095,Ghazali's Unique Unknowable God,,,,F. Shehadi,1964,,Brill,,71,0,English ,,,до 2011-08,,,,,,,,,jNEUAAAAIAAJ,,,0,,,,,1,0,0,10832672,pdf,E6E1D0DEE9C9FFB9657A6B20D8ABD842,,,_358442.e6e1d0dee9c9ffb9657a6b20d8abd842.pdf,0,2000-01-01 01:00:00,2016-04-03 02:51:08,636000/e6e1d0dee9c9ffb9657a6b20d8abd842-g.jpg,,
21931096,Valuation of Network Effects in Software Markets: A Complex Networks Approach,,Contributions to Management Science,,Andreas Kemper (auth.),2010,1,Physica-Verlag Heidelberg,,309,0,English,,,до 2011-08,"379082366X,9783790823660,9783790823677",,,,,,,10.1007/978-3-7908-2367-7,,,,0,,,,,1,1,1,4163863,pdf,44646018930E386367FDEFADB8F1720A,,,_358444.44646018930e386367fdefadb8f1720a.pdf,0,2000-01-01 01:00:00,2016-04-03 02:51:08,636000/44646018930e386367fdefadb8f1720a-d.jpg,,
21931097,Basketball Step-By-Step,,Skills in Motion,,"Brian Burns, Mark Dunning",2009,,The Rosen Publishing Group,,98,0,English ,,,до 2011-08,"1435833600,9781435833609",,,,,796.323/2,GV885 .B87 2010,,opNfbMvPU6AC,OL23198097M,,0,,,,1,0,1,1,13906910,pdf,2A0194EB271D86ADFF7B795E4852FE61,,,_358445.2a0194eb271d86adff7b795e4852fe61.pdf,0,2000-01-01 01:00:00,2016-04-03 02:51:08,636000/2a0194eb271d86adff7b795e4852fe61-d.jpg,,
21931098,"Taber's Cyclopedic Medical Dictionary, 21st Edition (Non-thumb-indexed Version)",,,,Donald Venes,2009,21,F.A. Davis Company,,2881,0,English ,,,до 2011-08,"0803615604,9780803615601,0803615590,9780803615595,0803615612,9780803615618",,,,,,,,,OL25199022M,,0,,,,1,0,1,1,40169574,pdf,2372170B129E68BDA9A25FFA0483E166,,,_358446.2372170b129e68bda9a25ffa0483e166.pdf,0,2000-01-01 01:00:00,2016-04-03 02:51:08,636000/2372170b129e68bda9a25ffa0483e166-d.jpg,,
21931099,Baseball Step-By-Step,,Skills in Motion,,"Brian Burns, Madeleine Jennings, Alan Smith, Alan Bloomfield",2009,,The Rosen Publishing Group,,98,0,English ,,,до 2011-08,"1435833619,9781435833616",,,,,796.357/2,GV867.3 .J45 2009,,hoxE5H3fmt0C,OL23207458M,,0,,,,1,0,1,1,6435016,pdf,79D53A2D52CDA6F0B08B6472918F8B4B,,,_358447.79d53a2d52cda6f0b08b6472918f8b4b.pdf,0,2000-01-01 01:00:00,2016-04-03 02:51:08,636000/79d53a2d52cda6f0b08b6472918f8b4b-d.jpg,,
21931100,书生意气,,,,易中天 (作者),,,,,306,0,Chinese(China),,,до 2011-08,7222032703,,,,,,,,,,,0,,,,,1,,0,35800442,pdf,9D9C387455B4AB3CD50E6EEA0FC0B8F6,,,_358448.9d9c387455b4ab3cd50e6eea0fc0b8f6.pdf,0,2000-01-01 01:00:00,2016-04-03 02:51:08,636000/9d9c387455b4ab3cd50e6eea0fc0b8f6-g.jpg,,
21931101,Remaining Karen: A Study of Cultural Reproduction and the Maintenance of Identity,,Monographs in Anthropology,,Ananda Rajah,2008,,ANU E Press,,340,0,English ,,,до 2011-08,"192153611X,9781921536113,9781921536106",,,,,,,,XOpZp2S4ho8C,OL23717707M,,0,,,,1,0,1,1,4210262,pdf,80BBB452B95E7CFC78BB296DA7CBB385,,,_358449.80bbb452b95e7cfc78bb296da7cbb385.pdf,0,2000-01-01 01:00:00,2016-04-03 02:51:08,636000/80bbb452b95e7cfc78bb296da7cbb385-g.jpg,,
21931102,Secularism and Science in the 21st Century,,,,"Ariela Keysar, Barry A. Kosmin (editors)",2008,,ISSSC,,212,0,English ,,,до 2011-08,9780615196343,,,,,,,,,,,0,,,,,1,,1,1051895,pdf,DEC36E951D59D42BE5616B7841AC09DD,,,_358450.dec36e951d59d42be5616b7841ac09dd.pdf,0,2000-01-01 01:00:00,2016-04-03 02:51:08,636000/dec36e951d59d42be5616b7841ac09dd-g.jpg,,
21931103,文心雕龙－美学思想稿论,,,,易中天,,,,,174,0,Chinese(China),,,до 2011-08,,,,,,,,,,,,0,,,,,1,,0,20045837,pdf,25BE3ECE6E98D08663DA30D6CFC13F68,,,_358452.25be3ece6e98d08663da30d6cfc13f68.pdf,0,2000-01-01 01:00:00,2016-04-03 02:51:08,636000/25be3ece6e98d08663da30d6cfc13f68-g.jpg,,
21931104,"Comparing, Designing, and Deploying VPNs",,,,Mark Lewis,2006,1,Cisco Press,,1080,0,English ,,,до 2011-08,"1587051796,9781587051791",,,,,,,,,OL8822233M,,0,,,,,1,,0,30744407,pdf,2F40D21D7BD80AE94A836A175F08D469,,,_358453.2f40d21d7bd80ae94a836a175f08d469.pdf,0,2000-01-01 01:00:00,2016-04-03 02:51:08,636000/2f40d21d7bd80ae94a836a175f08d469-d.jpg,,
21931105,Silent Mercy,,,,Linda Fairstein,2011,,Penguin Group,,400,0,English ,,,до 2011-08,9781101476017,,,,,,,,,,,0,,,,,0,1,1,538258,epub,2D693629C8F15FCB73D61200A11B346D,,,_358454.2d693629c8f15fcb73d61200a11b346d.epub,0,2000-01-01 01:00:00,2016-04-03 02:51:08,636000/2D693629C8F15FCB73D61200A11B346D-g.jpg,,
21931106,The Oxford Handbook of Human Resource Management (Oxford Handbooks in Business & Management),,,,"Peter Boxall, John Purcell, Patrick Wright",2007,,"Oxford University Press, USA",,674,0,English ,,,до 2011-08,"019928251X,9780199282517",,,,,658.3,HF5549.17 O94 2007,,,OL17939861M,,0,,,,0,0,0,1,3249550,pdf,A55304FDBE6EE4B03DAAC74ED31282F8,,,_358455.a55304fdbe6ee4b03daac74ed31282f8.pdf,0,2000-01-01 01:00:00,2016-04-03 02:51:08,636000/a55304fdbe6ee4b03daac74ed31282f8-d.jpg,,
21931107,吃懂法兰西,,,,"彼得·梅尔（Peter Mayle） (作者), 乔艾 (译者)",1991,,Unknown,,273,0,Chinese(China),,,до 2011-08,7532733874,,,,,,,,,,,0,,,,,1,,0,92937907,pdf,1D818BA697B9B417EDB08C9C1385BAC9,,,_358456.1d818ba697b9b417edb08c9c1385bac9.pdf,0,2000-01-01 01:00:00,2016-04-03 02:51:08,636000/1d818ba697b9b417edb08c9c1385bac9-g.jpg,,
21931108,黄与蓝的交响:中西美学比较论,,,,"邓晓芒 (作者), 易中天 (作者)",1991,,Unknown,,407,0,Chinese(China),,,до 2011-08,9787307058330,,,,,,,,,,,0,,,,,1,,0,52923685,pdf,44F1C149361FFCFD1A072596A279D84D,,,_358457.44f1c149361ffcfd1a072596a279d84d.pdf,0,2000-01-01 01:00:00,2016-04-03 02:51:08,636000/44f1c149361ffcfd1a072596a279d84d-g.jpg,,
21931109,Neighbor Networks: Competitive Advantage Local and Personal,,,,Ronald S. Burt,2010,,"Oxford University Press, USA",,410,0,English ,,,до 2011-08,"0199570698,9780199570690",,,,,658.4095,HD69.S8 B878 2010,,,OL24453320M,,0,,,,0,0,1,1,5088471,pdf,0946BDA40AC033BB259ADBF2DFF1F54A,,,_358458.0946bda40ac033bb259adbf2dff1f54a.pdf,0,2000-01-01 01:00:00,2016-04-03 02:51:08,636000/0946bda40ac033bb259adbf2dff1f54a-d.jpg,,
21931110,普罗旺斯•山居岁月,,,,"彼得·梅尔 (作者), 何博 (译者)",1991,,Unknown,,264,0,Chinese(China),,,до 2011-08,"7535437087,9787535437082",,,,,,,,,,,0,,,,,1,,0,69082774,pdf,4D2D8BFE18601066CBA543CD5A1D654F,,,_358459.4d2d8bfe18601066cba543cd5a1d654f.pdf,0,2000-01-01 01:00:00,2016-04-03 02:51:08,636000/4d2d8bfe18601066cba543cd5a1d654f-g.jpg,,
21931111,永远的普罗旺斯,,,,"彼得·梅尔 (作者), 林佳鸣 (译者)",,,,,227,0,Chinese(China),,,до 2011-08,756132720X,,,,,,,,,,,0,,,,,1,,0,41235548,pdf,6B90817DA9EC77F30F1BAC803AFA38C6,,,_358460.6b90817da9ec77f30f1bac803afa38c6.pdf,0,2000-01-01 01:00:00,2016-04-03 02:51:08,636000/6b90817da9ec77f30f1bac803afa38c6-g.jpg,,
21931112,茴香酒店,,,,"彼得·梅尔 (作者), 卓悦 (译者), 海绵 (译者)",,,,,303,0,Chinese(China),,,до 2011-08,7561333595,,,,,,,,,,,0,,,,,1,,0,36013616,pdf,56E0917866080DDCBFAB3CB5351BF42F,,,_358462.56e0917866080ddcbfab3cb5351bf42f.pdf,0,2000-01-01 01:00:00,2016-04-03 02:51:08,636000/56e0917866080ddcbfab3cb5351bf42f-g.jpg,,
21931113,"The Japanese approach to tissue engineering: the report of the Royal Academy of Engineering mission to Japan, April 2003 ; mission leader: D.F. Williams",,,,Royal Academy of Engineering (Great Britain),2003,,Royal Academy of Engineering,,61,0,English ,,,до 2011-08,"1903496128,9781903496121",,,,,,,,,,,0,,,,,0,1,1,1226878,pdf,DEBA56A6D02CE1B3E63508B3A0563E3C,,,_358463.deba56a6d02ce1b3e63508b3a0563e3c.pdf,0,2000-01-01 01:00:00,2016-04-03 02:51:08,636000/deba56a6d02ce1b3e63508b3a0563e3c-g.jpg,,
21931114,普罗旺斯的一年,,,,"彼得·梅尔 (作者), 逸文 (译者)",1991,,Shaanxi Normal University Press,,288,0,Chinese(China),,,до 2011-08,7561325975,,,,,,,,,,,0,,,,,1,,0,46931848,pdf,6D917DA37FFECC8310B309502845016F,,,_358464.6d917da37ffecc8310b309502845016f.pdf,0,2000-01-01 01:00:00,2016-04-03 02:51:08,636000/6d917da37ffecc8310b309502845016f-g.jpg,,
21931115,Approximations and Endomorphism Algebras of Modules,,de Gruyter Expositions in Mathematics 41,,"Rüdiger Göbel, Jan Trlifaj",2006,,Walter de Gruyter,,665,0,English ,,,до 2011-08,"9783110110791,3110110792",0938-6572,,,,512/.42,QA247 .G63 2006,,,OL22740737M,,0,,,,,0,1,1,3461499,pdf,A5823CBF9984A55EC068AE5FE064C6DE,,,_358465.a5823cbf9984a55ec068ae5fe064c6de.pdf,0,2000-01-01 01:00:00,2016-04-03 02:51:08,636000/a5823cbf9984a55ec068ae5fe064c6de-d.jpg,,
21931116,Genocide Before the Holocaust,,,,Cathie Carmichael,2009,,Yale University Press,,251,0,English ,,,до 2011-08,"0300121172,9780300121179",,,,,304.6/63094,D395 .C276 2009,,,OL23057340M,,0,,,,0,1,0,1,7240880,pdf,A7D30B53EEC5D4E289BA6CE15532C04B,,,_358466.a7d30b53eec5d4e289ba6ce15532c04b.pdf,0,2000-01-01 01:00:00,2016-04-03 02:51:08,636000/a7d30b53eec5d4e289ba6ce15532c04b-d.jpg,,
21931117,Market Theory and the Price System,,,,Israel M Kirzner,1963,,D. Van Nostrand Co,,336,0,English ,,,до 2011-08,,,,,,,,,,,,0,,,,0,1,1,1,18043017,pdf,AFE11CCB66AA3E774F3F4032B052D07D,,,_358467.afe11ccb66aa3e774f3f4032b052d07d.pdf,0,2000-01-01 01:00:00,2016-04-03 02:51:08,636000/afe11ccb66aa3e774f3f4032b052d07d-g.jpg,,
21931118,Vessel Design Criteria,,,,Process Industry Practices,,,,,38,0,English ,,,до 2011-08,0-7844-0262-0,,,,,,,,,,,0,,,,,1,,1,154166,pdf,7B22640B796EA00209C77F0240ED99BC,,,_358468.7b22640b796ea00209c77f0240ed99bc.pdf,0,2000-01-01 01:00:00,2016-04-03 02:51:08,636000/7b22640b796ea00209c77f0240ed99bc-g.jpg,,
21931119,Domain-Specific Languages (Addison-Wesley Signature Series (Fowler)),,,,Martin Fowler,2010,1,Addison-Wesley Professional,,412,0,English ,,,до 2011-08,"0321712943,9780321712943",,,,,005.13,QA76.7 .F687 2011,,,OL24816216M,,0,,,,0,1,0,1,6037351,pdf,E426D074064FF63E43B513F59A9D64EC,,,_358469.e426d074064ff63e43b513f59a9d64ec.pdf,0,2000-01-01 01:00:00,2016-04-03 02:51:08,636000/e426d074064ff63e43b513f59a9d64ec-d.jpg,,
21931120,Government as Entrepreneur,,,,"Albert N. Link, Jamie R. Link",2009,,"Oxford University Press, USA",,209,0,English ,,,до 2011-08,"0195369459,9780195369458",,,,,338/.040973,HC110.T4 L56 2009,,,OL22696098M,,0,,,,1,0,1,1,1344255,pdf,CF4CE46396FA2E7741F515E91DFFB3DA,,,_358470.cf4ce46396fa2e7741f515e91dffb3da.pdf,0,2000-01-01 01:00:00,2016-04-03 02:51:08,636000/cf4ce46396fa2e7741f515e91dffb3da-d.jpg,,
21931121,Clifford Algebras and Spinors (London Mathematical Society Lecture Note Series),,,,Pertti Lounesto,2001,2,Cambridge University Press,,346,0,English ,,,до 2011-08,"0521005515,9780521005517",,,,,512/.57,QA199 .L68 2001,,,OL3943771M,,0,,,,0,1,0,0,10289922,pdf,5EC9832A936458A6ADADB547D9BAB02C,,,_358471.5ec9832a936458a6adadb547d9bab02c.pdf,0,2000-01-01 01:00:00,2016-04-03 02:51:08,636000/5ec9832a936458a6adadb547d9bab02c-d.jpg,,
21931122,I Took the Moon for a Walk (English and Turkish Edition),,,,"Carolyn Curtis, Alison Jay",2004,,Barefoot Books,,32,0,English ,,,до 2011-08,"1841486116,9781841486116",,,,,,,,vPgzqoHVqTwC,OL3678408M,,0,,,,0,1,1,1,3370095,pdf,220F990007CE85BA47BB4834B7AE70D7,,,_358472.220f990007ce85ba47bb4834b7ae70d7.pdf,0,2000-01-01 01:00:00,2016-04-03 02:51:08,636000/220f990007ce85ba47bb4834b7ae70d7-d.jpg,,
21931123,Modernization as Ideology: American Social Science and ''Nation Building'' in the Kennedy Era,,,,Michael E. Latham,2000,,The University of North Carolina Press,,152,0,English ,,,до 2011-08,"0807825336,9780807825334",,,,,327.73,E841 .L34 2000,,,OL42513M,,0,,,,,1,,0,19378782,pdf,A97BF4817006AFCD036EA63856D2E38B,,,_358474.a97bf4817006afcd036ea63856d2e38b.pdf,0,2000-01-01 01:00:00,2016-04-03 02:51:08,636000/a97bf4817006afcd036ea63856d2e38b-d.jpg,,
21931124,The Speculation Economy: How Finance Triumphed Over Industry,,,,Lawrence E Mitchell,2008,,Berrett-Koehler Publishers,,414,0,English ,,,до 2011-08,"1576756289,9781576756287",,,,,,,,,,,0,,,,1,0,1,1,1929022,pdf,FA56FA3AEF04304AA4781BAB62829541,,,_358475.fa56fa3aef04304aa4781bab62829541.pdf,0,2000-01-01 01:00:00,2016-04-03 02:51:08,636000/fa56fa3aef04304aa4781bab62829541-d.jpg,,
21931125,Chemia fizyczna,,,,HELENA JANKOWSKA,1976,,WSiP,,209,0,Polish ,,,до 2011-08,,,,,,,,,,,,0,,,,0,1,,0,10950068,pdf,341785CE00D6BBB788BD0A411718C24A,,,_358476.341785ce00d6bbb788bd0a411718c24a.pdf,0,2000-01-01 01:00:00,2016-04-03 02:51:08,636000/341785ce00d6bbb788bd0a411718c24a-g.jpg,,
21931126,Berlin Alexanderplatz: The Story of Franz Biberkopf (Continuum Impacts),,,,Alfred Döblin,2005,,Continuum,,,0,English ,,,до 2011-08,"0826477895,9780826477897",,,,,833.912,,,,OL22124775M,,0,,,,,1,,,488734,epub,588D1C021C5CB8DBBAED6514DAEA17CA,,,_358477.588d1c021c5cb8dbbaed6514daea17ca.epub,0,2000-01-01 01:00:00,2016-04-03 02:51:08,636000/588d1c021c5cb8dbbaed6514daea17ca-d.jpg,,
21931127,A Stout Pair of Boots: A Guide to Exploring Australia's Battlefields,,,,Peter Stanley,2008,,Allen & Unwin,,,0,English ,,,до 2011-08,"1741756650,9781741756654",,,,,910.202,D25.5 .S73 2008,,,OL23059968M,,0,,,,,1,,,5477665,epub,28769AAAEBB7537BC8FECFFF761BA648,,,_358478.28769aaaebb7537bc8fecfff761ba648.epub,0,2000-01-01 01:00:00,2016-04-03 02:51:08,636000/28769aaaebb7537bc8fecfff761ba648-d.jpg,,
21931128,Experiencing Organizations,,,,"Stephen Fineman, Professor Yiannis Gabriel",1996,,Sage Publications Ltd,,199,0,English ,,,до 2011-08,"0803978715,9780803978713",,,,,,,,,OL1015664M,,0,,,,0,1,1,1,3361480,pdf,4DA5E2939A52A1209EA93E2FE65316F4,,,_358479.4da5e2939a52a1209ea93e2fe65316f4.pdf,0,2000-01-01 01:00:00,2016-04-03 02:51:08,636000/4da5e2939a52a1209ea93e2fe65316f4-d.jpg,,
21931129,The Good Women of China: Hidden Voices,,,,Xinran,2003,,Vintage,,,0,English ,,,до 2011-08,"0099440784,9780099440789",,,,,,,,,OL7318020M,,0,,,,,1,,,292019,epub,34ECF6F444DF579A24B6B70F50CC7AD5,,,_358480.34ecf6f444df579a24b6b70f50cc7ad5.epub,0,2000-01-01 01:00:00,2016-04-03 02:51:08,636000/34ecf6f444df579a24b6b70f50cc7ad5-d.jpg,,
21931130,What the Chinese Don't Eat,,,,Xinran Xinran,2006,,Vintage Books,,,0,English ,,,до 2011-08,"009950152X,9780099501527",,,,,,,,,OL7319218M,,0,,,,,1,,,331882,epub,A409E328E48A0031D4F5D4BA13355E38,,,_358481.a409e328e48a0031d4f5d4ba13355e38.epub,0,2000-01-01 01:00:00,2016-04-03 02:51:08,636000/a409e328e48a0031d4f5d4ba13355e38-d.jpg,,
21931131,Valley of Death: The Tragedy at Dien Bien Phu That Led America into the Vietnam War,,,,Ted Morgan,2010,1,Random House,,,0,English ,,,до 2011-08,"1400066646,9781400066643",,,,,959.704/142,DS553.3.D5 M665 2010,,,OL23235373M,,0,,,,,1,,,5644766,epub,A1B94BEA9ACA5B08519F8D7C32360AD1,,,_358482.a1b94bea9aca5b08519f8d7c32360ad1.epub,0,2000-01-01 01:00:00,2016-04-03 02:51:08,636000/a1b94bea9aca5b08519f8d7c32360ad1-d.jpg,,
21931132,Manned Spaceflight,,An Explorer’s Guide to the Universe,,Britannica Educational Publishing,2009,,The Rosen Publishing Group,,208,0,English ,,,до 2011-08,"1615300392,9781615300396",,,,,,,,ZxkGKcFezu4C,OL24321335M,,0,,,,1,0,1,1,6721229,pdf,D9B1E1FD79EA385E6283FC0765D27995,,,_358483.d9b1e1fd79ea385e6283fc0765d27995.pdf,0,2000-01-01 01:00:00,2016-04-03 02:51:08,636000/d9b1e1fd79ea385e6283fc0765d27995-g.jpg,,
21931133,Managing Knowledge: Perspectives on Cooperation and Competition,,,,"Professor Georg von Krogh, Professor Johan Roos",1996,,Sage Publications Ltd,,247,0,English ,,,до 2011-08,"0761951814,9780761951810",,,,,,,,,OL1016468M,,0,,,,0,1,1,1,6551886,pdf,C2638464F8318B8A3505E067AA0B0D36,,,_358484.c2638464f8318b8a3505e067aa0b0d36.pdf,0,2000-01-01 01:00:00,2016-04-03 02:51:08,636000/c2638464f8318b8a3505e067aa0b0d36-d.jpg,,
21931134,Spatial Statistics and Modeling,,Springer Series in Statistics,,"Carlo Gaetan, Xavier Guyon (auth.)",2010,1,Springer-Verlag New York,,302,0,English,,,до 2011-08,"0387922563,9780387922560,9780387922577",,,,,,2009938269,10.1007/978-0-387-92257-7,NKy43r9BCsYC,,,0,,,,1,0,1,1,6611196,pdf,94B758BF8A65C33616A7FB3AA09B3B4B,,,_358485.94b758bf8a65c33616a7fb3aa09b3b4b.pdf,0,2000-01-01 01:00:00,2016-04-03 02:51:08,636000/94b758bf8a65c33616a7fb3aa09b3b4b-d.jpg,,
21931135,Skateboarding Step-By-Step,,Skills in Motion,,"Charlotte Stock, Ben Powell",2009,,The Rosen Publishing Group,,98,0,English ,,,до 2011-08,"1435833651,9781435833654",,,,,796.22,GV859.8 .S856 2010,,EgkqlTt6t5EC,OL23186982M,,0,,,,1,0,1,1,13169468,pdf,C7402F3F7919E241A33D003A5CCA9943,,,_358486.c7402f3f7919e241a33d003a5cca9943.pdf,0,2000-01-01 01:00:00,2016-04-03 02:51:08,636000/c7402f3f7919e241a33d003a5cca9943-d.jpg,,
21931136,Shooting Star: The Rise & Fall of the British Motorcycle Industry,,,,Abe Aamidor,2009,,Ecw Press,,205,0,English ,,,до 2011-08,"1550229001,9781550229004",,,,,338.4/762922750941,HD9710.5.G74 A24 2009,,,OL23957241M,,0,,,,1,0,0,1,2522883,pdf,C59C45B367D7D81B21233CE828185E12,,,_358487.c59c45b367d7d81b21233ce828185e12.pdf,0,2000-01-01 01:00:00,2016-04-03 02:51:08,636000/c59c45b367d7d81b21233ce828185e12-d.jpg,,
21931137,The Killer's Art,,Anders Knutas 4,,mari jungstedt,2010,,,,,0,English ,,,до 2011-08,"0385617070,9780385617079",,,,,,,,,,,0,,,,,1,,,366296,epub,669AF2909787F73F9774C5C07EEF3471,,,_358488.669af2909787f73f9774c5c07eef3471.epub,0,2000-01-01 01:00:00,2016-04-03 02:51:08,636000/669af2909787f73f9774c5c07eef3471-d.jpg,,
21931138,Unknown (aka The Inner Circle),,Anders Knutas 3,,Mari Jungstedt,,,,,,0,English ,,,до 2011-08,,,,,,,,,,,,0,,,,,1,,,387876,epub,D73663475453DDD95EB985A34B0E7FD7,,,_358489.d73663475453ddd95eb985a34b0e7fd7.epub,0,2000-01-01 01:00:00,2016-04-03 02:51:08,636000/D73663475453DDD95EB985A34B0E7FD7-g.jpg,,
21931139,Fitness for Young People Step-By-Step,,Skills in motion,,"Simon Frost, Antony Atha",2009,,The Rosen Publishing Group,,98,0,English ,,,до 2011-08,"1435833643,9781435833647",,,,,613.7/042,GV443 .A84 2009,,BetcDLcqS8MC,OL23207457M,,0,,,,1,0,1,1,11900002,pdf,AB7B2D719CF79BDBB7C19D35FB93CC32,,,_358490.ab7b2d719cf79bdbb7c19d35fb93cc32.pdf,0,2000-01-01 01:00:00,2016-04-03 02:51:08,636000/ab7b2d719cf79bdbb7c19d35fb93cc32-d.jpg,,
21931140,Soccer Step-By-Step,,Skills in Motion,,"Madeleine Jennings, Ian Howe",2009,,The Rosen Publishing Group,,98,0,English ,,,до 2011-08,"1435833627,9781435833623",,,,,796.334,GV943 .J393 2009,,pIRQ3GZxmqIC,OL23192694M,,0,,,,1,0,1,1,6297983,pdf,3468F8A3BE9062ADD8E21DCDD5867249,,,_358491.3468f8a3be9062add8e21dcdd5867249.pdf,0,2000-01-01 01:00:00,2016-04-03 02:51:08,636000/3468f8a3be9062add8e21dcdd5867249-d.jpg,,
21931141,"3D Art Essentials: The Fundamentals of 3D Modeling, Texturing, and Animation",,,,Ami Chopine,2011,1,Focal Press (Elsevier),,281,0,English ,,,до 2011-08,"0240814711,9780240814711",,,,,,,10.1016/B978-0-240-81471-1.10021-9'',,,ToC missing.,0,,,,1,0,1,1,21740667,pdf,E26FD1A2A078FBD9B4025F4B596EEAE4,,,_358492.e26fd1a2a078fbd9b4025f4b596eeae4.pdf,0,2000-01-01 01:00:00,2016-04-03 02:51:08,636000/e26fd1a2a078fbd9b4025f4b596eeae4-d.jpg,,
21931142,"Encyclopedia of Scientific Principles, Laws, and Theories: Volume 1: A-K",,,,Robert E Krebs,2008,,Greenwood,,348,0,English ,,,до 2011-08,"0313340064,9780313340062",,,,,503,Q121 .K74 2008,,,OL16427964M,,0,,,,1,1,0,1,5535070,pdf,59A77C1185998945AC339F26ED0C6932,,,_358493.59a77c1185998945ac339f26ed0c6932.pdf,0,2000-01-01 01:00:00,2016-04-03 02:51:08,636000/59a77c1185998945ac339f26ed0c6932-d.jpg,,
21931143,"Encyclopedia of Scientific Principles, Laws, and Theories: Volume 2: L-Z",,,,Robert E Krebs,2008,,Greenwood,,347,0,English ,,,до 2011-08,"0313340072,9780313340079",,,,,503,Q121 .K74 2008,,,OL16427964M,,0,,,,1,1,0,1,4219584,pdf,8C34B02E97CBBB08C738BEE38AFAB085,,,_358494.8c34b02e97cbbb08c738bee38afab085.pdf,0,2000-01-01 01:00:00,2016-04-03 02:51:08,636000/8c34b02e97cbbb08c738bee38afab085-d.jpg,,
21931144,Faery Magick,,,,Sirona Knight,2003,,Career Press,,224,0,English ,,,до 2011-08,"1564145956,9781564145956",,,,,,BF1552 .K55 2003,,,OL8646957M,,0,,,,0,0,1,1,2478011,pdf,F773832C43D74541E13EE5E65C80C907,,,_358495.f773832c43d74541e13ee5e65c80c907.pdf,0,2000-01-01 01:00:00,2016-04-03 02:51:08,636000/f773832c43d74541e13ee5e65c80c907-d.jpg,,
21931145,Storia del Fantasticare,,,,Elémire Zolla,1964,,Bompiani,,229,0,Italian ,,,до 2011-08,,,,,,,,,YWrwPQAACAAJ,,,0,,,,0,1,0,1,5224991,pdf,6C1FC06FF035FC4D1B4D6714811360F5,,,_358496.6c1fc06ff035fc4d1b4d6714811360f5.pdf,0,2000-01-01 01:00:00,2016-04-03 02:51:08,636000/6c1fc06ff035fc4d1b4d6714811360f5-g.jpg,,
21931146,The Berenstain Bears Knight To Remember (Happy House Books),,,,Stan Berenstain,1986,,Random House Books for Young Readers,,24,0,English ,,,до 2011-08,"039487935X,9780394879352",,,,,,,,,OL2341638M,,0,,,,0,1,1,0,37416187,pdf,DFBC82D20B4D5A9F23046525C66A1C2C,,,_358497.dfbc82d20b4d5a9f23046525c66a1c2c.pdf,0,2000-01-01 01:00:00,2016-04-03 02:51:08,636000/dfbc82d20b4d5a9f23046525c66a1c2c-g.jpg,,
21931147,"The story of Anzac: from the outbreak of war to the end of the first phase of the Gallipoli campaign, May 4, 1915",,Official History of Australia in the War of 1914–1918,,Charles Edwin Woodrow Bean,1941,,Angus & Robertson,,741,0,English ,,,до 2011-08,,,,,,,,,,,,0,,,,1,1,1,1,20996568,pdf,CA2C628B7A9E3494AE9E913D16F35800,,,_358498.ca2c628b7a9e3494ae9e913d16f35800.pdf,0,2000-01-01 01:00:00,2016-04-03 02:51:08,636000/ca2c628b7a9e3494ae9e913d16f35800-g.jpg,,
21931148,Aure: i luoghi e i riti,,,,Elémire Zolla,1995,,Marsilio,,180,0,Italian ,,,до 2011-08,"8831761730,9788831761734",,,,,,,,YWrwPQAACAAJ,,,0,,,,1,1,0,1,4645950,pdf,FBA44B6EA2FF0BB004764AFDC64C83E8,,,_358499.fba44b6ea2ff0bb004764afdc64c83e8.pdf,0,2000-01-01 01:00:00,2016-04-03 02:51:08,636000/fba44b6ea2ff0bb004764afdc64c83e8-g.jpg,,
21931149,"Electronic Design Automation: Synthesis, Verification, and Test (Systems on Silicon)",,,,"Laung-Terng Wang, Yao-Wen Chang, Kwang-Ting (Tim) Cheng",2009,,Morgan Kaufmann,,971,0,English ,,,до 2011-08,"0123743648,9780123743640",,,,,621.39/5,TK7867 .E4227 2008,,,OL22552248M,,0,,,,,1,1,1,21784630,pdf,95F3C7EC940FB54D774FAB63F1E6EEC5,,,_358500.95f3c7ec940fb54d774fab63f1e6eec5.pdf,0,2000-01-01 01:00:00,2016-04-03 02:51:08,636000/95f3c7ec940fb54d774fab63f1e6eec5-d.jpg,,
21931150,Le nonsense,,,,Robert Benayoun,1977,,Balland,,334,0,French ,,,до 2011-08,278580122X,,,,,,,,,,,600,,,,,1,1,1,7822794,djvu,E9361793E7C913129E761B603818892F,,,_358501.e9361793e7c913129e761b603818892f.djvu,0,2000-01-01 01:00:00,2016-04-03 02:51:08,636000/e9361793e7c913129e761b603818892f-g.jpg,,
21931151,"Solution-Focused Therapy: Theory, Research & Practice: Theory, Research and Practice",,,,Dr Alasdair Macdonald,2007,1,Sage Publications Ltd,,225,0,English ,,,до 2011-08,"1412931169,9781412931168",,,,,,RC489.S65 M33 2007,,,OL8433758M,,0,,,,1,0,1,1,1211832,pdf,96E61A582D8EC05EB37C45400F22A6D4,,,_358505.96e61a582d8ec05eb37c45400f22a6d4.pdf,0,2000-01-01 01:00:00,2016-04-03 02:51:08,636000/96e61a582d8ec05eb37c45400f22a6d4-d.jpg,,
21931152,Noncommutative Rings (Carus Mathematical Monographs),,"Carus Mathematical Monographs'', 15",,I. N. Herstein,1968,,Mathematical Assn America,,198,0,English ,,,до 2011-08,,,,,,,,,,,"missing pages 72-78, 178-186",0,,,,,1,1,1,12815185,pdf,EA2989B75D096DF180A4FF2934FF2BF9,,,_358508.ea2989b75d096df180a4ff2934ff2bf9.pdf,0,2000-01-01 01:00:00,2016-04-03 02:51:08,636000/ea2989b75d096df180a4ff2934ff2bf9-g.jpg,,
21931153,High Altitude Leadership: What the World's Most Forbidding Peaks Teach Us About Success (J-B US non-Franchise Leadership),,,,"Chris Warner, Don Schmincke",2008,1,Jossey-Bass,,242,0,English ,,,до 2011-08,"0470345039,9780470345030",,,,,658.4/092,HD57.7 .W3685 2009,,,OL17052082M,,0,,,,1,0,1,1,1624933,pdf,DDD205290AF7B6550429ADBB7EEC83DD,,,_358509.ddd205290af7b6550429adbb7eec83dd.pdf,0,2000-01-01 01:00:00,2016-04-03 02:51:08,636000/ddd205290af7b6550429adbb7eec83dd-d.jpg,,
21931154,Christ and Culture,,,,Klaas Schilder,1977,,Premier - CRTA,,112,0,English ,,,до 2011-08,"0887560083,9780887560088",,,,,261.1,BR115.C8 S2713,,,OL4684893M,,0,,,,,1,,1,284388,pdf,22C8D1C5B03DB416E3F9E1BE0A0DE2F3,,,_358510.22c8d1c5b03db416e3f9e1be0a0de2f3.pdf,0,2000-01-01 01:00:00,2016-04-03 02:51:08,636000/22c8d1c5b03db416e3f9e1be0a0de2f3-g.jpg,,
21931155,"Aging and Age Related Ocular Diseases (Ophthalmologica, 1)",,,,E. Lutjen-Drecoll,2000,1,S. Karger AG (Switzerland),,103,0,English ,,,до 2011-08,"3805570384,9783805570381",,,,,,,,,OL12931119M,,0,,,,,1,,1,3830858,pdf,7B55AF568899AE433E9EF8758337775E,,,_358512.7b55af568899ae433e9ef8758337775e.pdf,0,2000-01-01 01:00:00,2016-04-03 02:51:08,636000/7b55af568899ae433e9ef8758337775e-d.jpg,,
21931156,The Berenstain Bears' Moving Day (First Time Books(R)),,,,"Stan Berenstain, Jan Berenstain",1981,,Random House Books for Young Readers,,34,0,English ,,,до 2011-08,"0394848381,0394948386,9780394848389",,,,,,,,,OL3786177M,,0,,,,0,1,0,0,23699354,pdf,017EB80B234108D729A0E293DC8FAB0A,,,_358513.017eb80b234108d729a0e293dc8fab0a.pdf,0,2000-01-01 01:00:00,2016-04-03 02:51:08,636000/017eb80b234108d729a0e293dc8fab0a-d.jpg,,
21931157,"Wisdom, Information and Wonder: What is Knowledge For?",,,,Mary Midgley,1991,New edition,Routledge,,286,0,English ,,,до 2011-08,"0415028302,9780415028301",,,,,,B72 .M48 1989,,,OL21169392M,,0,,,,0,1,0,0,20937420,pdf,B9B11CB43115EF220BFD07A11CF219C6,,,_358514.b9b11cb43115ef220bfd07a11cf219c6.pdf,0,2000-01-01 01:00:00,2016-04-03 02:51:08,636000/b9b11cb43115ef220bfd07a11cf219c6-d.jpg,,
21931158,It's All in Your Head: Thinking Your Way to Happiness,,,,"Stephen M. Pollan, Mark Levine",2006,,William Morrow,,213,0,English ,,,до 2011-08,"0060759992,9780060759995",,,,,158.1,BF575.H27 P64 2006,,,OL3426049M,,0,,,,0,0,0,1,672585,pdf,E1B59967C3ACCE6AD48691CD75764196,,,_358518.e1b59967c3acce6ad48691cd75764196.pdf,0,2000-01-01 01:00:00,2016-04-03 02:51:08,636000/e1b59967c3acce6ad48691cd75764196-d.jpg,,
21931159,Creating life-like figures in ploymer clay,,,,abdo,,,,,145,0,English ,,,до 2011-08,,,,,,,,,,,,0,,,,,1,1,0,16474687,pdf,DD507C8D1E8037322202FC2891AEF0D5,,,_358519.dd507c8d1e8037322202fc2891aef0d5.pdf,0,2000-01-01 01:00:00,2016-04-03 02:51:08,636000/dd507c8d1e8037322202fc2891aef0d5-g.jpg,,
21931160,The Change Handbook: The Definitive Resource on Today's Best Methods for Engaging Whole Systems,,,,"Peggy Holman, Tom Devane, Steven Cady",2007,2nd,Berrett-Koehler Publishers,,761,0,English ,,,до 2011-08,"1576753794,9781576753798",,,,,658.4/06,HD58.8 .C4537 2006,,,OL17550625M,,0,,,,1,0,1,1,8979068,pdf,D4C3123D68F45603862C3A8525F21D9B,,,_358520.d4c3123d68f45603862c3a8525f21d9b.pdf,0,2000-01-01 01:00:00,2016-04-03 02:51:08,636000/d4c3123d68f45603862c3a8525f21d9b-d.jpg,,
21931161,The Remix Manual,,,,Simon Langford,2011,1,Focal Press (Elsevier),,440,0,English ,,,до 2011-08,"0240814584,9780240814582",,,,,781.3/4,MT723 .L36 2011,10.1016/B978-0-240-81458-2.X0001-4,,OL24823165M,ToC missing.,0,,,,1,0,1,1,12316101,pdf,87D76502FBD767E74F420E064DB542EF,,,_358521.87d76502fbd767e74f420e064db542ef.pdf,0,2000-01-01 01:00:00,2016-04-03 02:51:08,636000/87d76502fbd767e74f420e064db542ef-d.jpg,,
21931162,Microengineering in Biotechnology,,Methods in Molecular Biology 583,,"Douglas Chinn (auth.), Michael P. Hughes, Kai F. Hoettges (eds.)",2010,1,Humana Press,,252,0,English,17,,до 2011-08,"1588293815,9781588293817",,,,,,,10.1007/978-1-60327-106-6,,OL8828477M,,0,,,,,1,,1,6598041,pdf,56011FCA58A8DEAFE0F6983AFB6937FA,,,_358522.56011fca58a8deafe0f6983afb6937fa.pdf,0,2000-01-01 01:00:00,2016-04-03 02:51:08,636000/56011fca58a8deafe0f6983afb6937fa-d.jpg,,
21931163,Una Mujer En Berlin,,,,Anonimo,2005,,Anagrama,,189,0,Spanish,,,до 2011-08,"8433970801,9788433970800",,,,,,,,,OL13236608M,,0,,,,,1,,1,1494812,pdf,C52E069ECE85707F9038BDBF69193445,,,_358523.c52e069ece85707f9038bdbf69193445.pdf,0,2000-01-01 01:00:00,2016-04-03 02:51:08,636000/c52e069ece85707f9038bdbf69193445-g.jpg,,
21931164,Unruly Life of Woody Allen: A Biography,,,,Marion Meade,,,,,,0,English ,,,до 2011-08,,,,,,,,,,,,0,,,,,1,,,368222,epub,0EEF605DDFE65EC3CDD81C20A710080A,,,_358524.0eef605ddfe65ec3cdd81c20a710080a.epub,0,2000-01-01 01:00:00,2016-04-03 02:51:08,636000/0EEF605DDFE65EC3CDD81C20A710080A-g.jpg,,
21931165,Cantata-140,,,,Philip K. Dick,,,,,,0,English ,,,до 2011-08,,,,,,,,,,,,0,,,,,1,1,1,197054,epub,98393701BB50FAC9C4B6A27629FF3E39,,,_358527.98393701bb50fac9c4b6a27629ff3e39.epub,0,2000-01-01 01:00:00,2016-04-03 02:51:08,636000/98393701BB50FAC9C4B6A27629FF3E39-g.jpg,,
21931166,"The Short Happy Life of the Brown Oxford and Other Classic Stories (The Collected Stories of Philip K. Dick, Vol. 1)",,,,Philip K. Dick,,,,,,0,English ,,,до 2011-08,,,,,,,,,,,,0,,,,,1,1,1,465118,epub,00C8DC56A5B6D5F5D87061940DDB9392,,,_358528.00c8dc56a5b6d5f5d87061940ddb9392.epub,0,2000-01-01 01:00:00,2016-04-03 02:51:08,636000/00C8DC56A5B6D5F5D87061940DDB9392-g.jpg,,
21931167,Zakhor: Jewish History and Jewish Memory,,,,Yosef Hayim Yerushalmi,1982,,University of Washington Press,,77,0,English ,,,до 2011-08,,,,,,,,,,,,0,,,,,1,1,0,62567414,pdf,4E4863745C686CB0F1A7E80833C80389,,,_358529.4e4863745c686cb0f1a7e80833c80389.pdf,0,2000-01-01 01:00:00,2016-04-03 02:51:08,636000/4e4863745c686cb0f1a7e80833c80389-g.jpg,,
21931168,Second Variety (Collected Stories: Vol 2),,,,Philip K. Dick,,,,,,0,English ,,,до 2011-08,,,,,,,,,,,,0,,,,,1,1,1,389330,epub,1C1BA6D16B5F002B819B869BB04EE6AB,,,_358530.1c1ba6d16b5f002b819b869bb04ee6ab.epub,0,2000-01-01 01:00:00,2016-04-03 02:51:08,636000/1C1BA6D16B5F002B819B869BB04EE6AB-g.jpg,,
21931169,Produits tensoriels topologiques et Espaces nucléaires,,Memoirs Of The American Mathematical Society 16,,Alexander Grothendieck,1966,,American Mathematical Society,,383,0,French ,,,до 2011-08,,,,,,,,,,,,600,,,,,1,1,1,16356929,djvu,596724B92FF0328350014FE395BC48CD,,,_358531.596724b92ff0328350014fe395bc48cd.djvu,0,2000-01-01 01:00:00,2016-04-03 02:51:08,636000/596724b92ff0328350014fe395bc48cd-g.jpg,,
21931170,Wissenstransfer im Auslandsentsendungsprozess: Eine empirische Analyse der Rolle des Expatriates als Wissenstransfer-Agent,,,,Carolin Eckert,2009,,Gabler,,257,0,German ,,,до 2011-08,"3834920754,9783834920751",,,,,,,,,,,0,,,,,1,1,1,3217436,pdf,D60AE6DA4E304FC7854738FB1590CFB0,,,_358532.d60ae6da4e304fc7854738fb1590cfb0.pdf,0,2000-01-01 01:00:00,2016-04-03 02:51:08,636000/d60ae6da4e304fc7854738fb1590cfb0-g.jpg,,
21931171,The Minority Report (The Collected Stories Of Philip K. Dick Volume 4),,,,Philip K. Dick,,,,,,0,English ,,,до 2011-08,,,,,,,,,,,,0,,,,,1,1,1,499290,epub,20978D507F9912ADC37CCFF22FFAF36C,,,_358533.20978d507f9912adc37ccff22ffaf36c.epub,0,2000-01-01 01:00:00,2016-04-03 02:51:08,636000/20978D507F9912ADC37CCFF22FFAF36C-g.jpg,,
21931172,Science Fiction and Fantasy (Our Freedom to Read),,,,Steven Otfinoski,2009,1,Chelsea House Publications,,153,0,English ,,,до 2011-08,"1604130326,9781604130324",,,,,098/.1,Z1019 .O84 2009,,,OL17030207M,,0,,,,1,0,1,1,807881,pdf,9B03633C5F1B100B9A00BA4A16CA940B,,,_358534.9b03633c5f1b100b9a00ba4a16ca940b.pdf,0,2000-01-01 01:00:00,2016-04-03 02:51:08,636000/9b03633c5f1b100b9a00ba4a16ca940b-d.jpg,,
21931173,"The Eye of The Sibyl and Other Classic Stories (The Collected Short Stories of Philip K. Dick, Vol. 5)",,,,Philip K. Dick,,,,,,0,English ,,,до 2011-08,,,,,,,,,,,,0,,,,,1,1,1,443280,epub,13E21E7FE6FFF526602ECF06C47BAE88,,,_358535.13e21e7fe6fff526602ecf06c47bae88.epub,0,2000-01-01 01:00:00,2016-04-03 02:51:08,636000/13E21E7FE6FFF526602ECF06C47BAE88-g.jpg,,
21931174,"Grundwissen Elektrotechnik, 3. Auflage",,,,Leonhard Stiny,2005,,Franzis,,528,0,German ,,,до 2011-08,"3772349285,9783772349287",,,,,,,,,,,0,,,,1,0,1,1,18372475,pdf,79DF96F5F40A319FD49E3BB27F5BFF56,,,_358536.79df96f5f40a319fd49e3bb27f5bff56.pdf,0,2000-01-01 01:00:00,2016-04-03 02:51:08,636000/79df96f5f40a319fd49e3bb27f5bff56-d.jpg,,
21931175,"The Berenstain Bears Ready, Get Set, Go! (First Time Books(R))",,,,"Stan Berenstain, Jan Berenstain",1988,,Random House Books for Young Readers,,34,0,English ,,,до 2011-08,"039480564X,0394905644,9780394805641",,,,,,,,,OL2061176M,,0,,,,0,1,0,0,19953876,pdf,D6167C45E3D9ACEB2CBDE2CA53A31949,,,_358537.d6167c45e3d9aceb2cbde2ca53a31949.pdf,0,2000-01-01 01:00:00,2016-04-03 02:51:08,636000/d6167c45e3d9aceb2cbde2ca53a31949-d.jpg,,
21931176,Counter-Clock World,,,,Philip K. Dick,,,,,,0,English ,,,до 2011-08,,,,,,,,,,,,0,,,,,1,1,1,221518,epub,ED7E89700FDCEA54EC43C0FD3CE0F522,,,_358538.ed7e89700fdcea54ec43c0fd3ce0f522.epub,0,2000-01-01 01:00:00,2016-04-03 02:51:08,636000/ED7E89700FDCEA54EC43C0FD3CE0F522-g.jpg,,
21931177,The Berenstain Bears on the Job (First Time Books(R)),,,,"Stan Berenstain, Jan Berenstain",1987,,Random House Books for Young Readers,,34,0,English ,,,до 2011-08,"0394891317,0394991311,9780394891316",,,,,,,,,OL2381111M,,0,,,,0,1,0,0,24546763,pdf,CD822114ED40A89FA236C77970E356F6,,,_358539.cd822114ed40a89fa236c77970e356f6.pdf,0,2000-01-01 01:00:00,2016-04-03 02:51:08,636000/cd822114ed40a89fa236c77970e356f6-d.jpg,,
21931178,Teach Yourself Catalan,,,,Alan Yates,1993,,NTC/Contemporary Publishing Company,,385,0,English ,,,до 2011-08,"0844237558,9780844237558",,,,,449/.982421,PC3823.5 .Y3 1993,,,OL1753699M,,0,,,,0,1,0,0,26134936,pdf,DF2914F9A5D04EB4564305177CA615C8,,,_358540.df2914f9a5d04eb4564305177ca615c8.pdf,0,2000-01-01 01:00:00,2016-04-03 02:51:08,636000/df2914f9a5d04eb4564305177ca615c8-d.jpg,,
21931179,Dr. Bloodmoney,,,,Philip K. Dick,,,,,,0,English ,,,до 2011-08,,,,,,,,,,,,0,,,,,1,1,1,256794,epub,6D4CA9A359395078045B1502C996D52F,,,_358541.6d4ca9a359395078045b1502c996d52f.epub,0,2000-01-01 01:00:00,2016-04-03 02:51:08,636000/6D4CA9A359395078045B1502C996D52F-g.jpg,,
21931180,Introduzione a Croce,,,,Paolo Bonetti,2005,1a ed,Laterza,,118,0,Italian ,,,до 2011-08,"8842024171,9788842024170",,,,,195,B3614.C74 B59 1984,,sdHmtgAACAAJ,OL2759399M,,0,,,,0,1,0,1,9937861,pdf,AA62692D4382E63C858C66151DB3F73D,,,_358542.aa62692d4382e63c858c66151db3f73d.pdf,0,2000-01-01 01:00:00,2016-04-03 02:51:08,636000/aa62692d4382e63c858c66151db3f73d-d.jpg,,
21931181,Galactic Pot-Healer,,,,Philip K. Dick,,,,,,0,English ,,,до 2011-08,,,,,,,,,,,,0,,,,,1,1,1,296976,epub,0E4DEDBC19C90F560354426AC96AD89A,,,_358543.0e4dedbc19c90f560354426ac96ad89a.epub,0,2000-01-01 01:00:00,2016-04-03 02:51:08,636000/0E4DEDBC19C90F560354426AC96AD89A-g.jpg,,
21931182,Introduzione a Comte,,,,Antimo Negri,1997,1a ed,Laterza,,127,0,Italian ,,,до 2011-08,"8842022950,9788842022954",,,,,194,B2248 .N42 1983,,MqRTewAACAAJ,OL23675646M,,0,,,,0,1,0,1,7889492,pdf,A928097F9F7BDAC27A50C4C24EF45A0C,,,_358544.a928097f9f7bdac27a50c4c24ef45a0c.pdf,0,2000-01-01 01:00:00,2016-04-03 02:51:08,636000/a928097f9f7bdac27a50c4c24ef45a0c-d.jpg,,
21931183,The Berenstain Bears' Nursery Tales (First Time Books(R)),,,,Stan Berenstain,1973,illustrated edition,Random House Books for Young Readers,,34,0,English ,,,до 2011-08,"0394826655,9780394826653",,,,,,,,,OL23246488M,,0,,,,0,1,0,0,14057307,pdf,A00A860AB6BA83AB6AF2ADEB00A8D86B,,,_358545.a00a860ab6ba83ab6af2adeb00a8d86b.pdf,0,2000-01-01 01:00:00,2016-04-03 02:51:08,636000/a00a860ab6ba83ab6af2adeb00a8d86b-d.jpg,,
21931184,"Morgan Park: Duluth, U.S. Steel, and the Forging of a Company Town",,,,Arnold R. Alanen,2008,,Univ Of Minnesota Press,,366,0,English ,,,до 2011-08,"0816641366,9780816641369",,,,,307.76/709776771,HN80.D88 A53 2007,,CMcedXXe7ZIC,OL11384364M,,0,,,,0,0,1,1,17570846,pdf,9171679887DFACF8DB0DE27E6E4F3121,,,_358547.9171679887dfacf8db0de27e6e4f3121.pdf,0,2000-01-01 01:00:00,2016-04-03 02:51:08,636000/9171679887dfacf8db0de27e6e4f3121-d.jpg,,
21931185,Introduzione a Carnap,,,,Alberto Pasquinelli,1972,,Laterza,,77,0,Italian ,,,до 2011-08,,,,,,,,,5ieNGQAACAAJ,,,0,,,,0,1,0,0,8753084,pdf,9B74F3783BD504511E1975F399C58BBC,,,_358548.9b74f3783bd504511e1975f399c58bbc.pdf,0,2000-01-01 01:00:00,2016-04-03 02:51:08,636000/9b74f3783bd504511e1975f399c58bbc-g.jpg,,
21931186,Martian Time-Slip,,,,Philip K. Dick,,,,,,0,English ,,,до 2011-08,,,,,,,,,,,,0,,,,,1,1,1,374982,epub,6C0518128C27E24FC09DAC664D3103B6,,,_358549.6c0518128c27e24fc09dac664d3103b6.epub,0,2000-01-01 01:00:00,2016-04-03 02:51:08,636000/6C0518128C27E24FC09DAC664D3103B6-g.jpg,,
21931187,The Berenstain Bears No Girls Allowed (First Time Books(R)),,,,"Stan Berenstain, Jan Berenstain",1986,,Random House Books for Young Readers,,34,0,English ,,,до 2011-08,"0394873319,0394973313,9780394873312",,,,,,,,,OL23258053M,,0,,,,0,1,0,0,25111668,pdf,0C88B5B65F419CEA2203BD910D80B680,,,_358550.0c88b5b65f419cea2203bd910d80b680.pdf,0,2000-01-01 01:00:00,2016-04-03 02:51:08,636000/0c88b5b65f419cea2203bd910d80b680-d.jpg,,
21931188,Introduzione a Derrida,,,,Maurizio Ferraris,2005,,Laterza,,84,0,Italian ,,,до 2011-08,"8842071358,9788842071358",,,,,,,,5ZBNewAACAAJ,,,0,,,,0,1,0,1,7463338,pdf,390262C5889BEB6F9FA0B66BD3786264,,,_358551.390262c5889beb6f9fa0b66bd3786264.pdf,0,2000-01-01 01:00:00,2016-04-03 02:51:08,636000/390262c5889beb6f9fa0b66bd3786264-g.jpg,,
21931189,الاسلام المفتري عليه,,,,الشيخ محمد الغزالى,,,,,182,0,Arabic ,,,до 2011-08,,,,,,,,,,,,0,,,,,1,,1,728607,pdf,017A7ACDC76F725859C9A9BBF4757F8A,,,_358552.017a7acdc76f725859c9a9bbf4757f8a.pdf,0,2000-01-01 01:00:00,2016-04-03 02:51:08,636000/017a7acdc76f725859c9a9bbf4757f8a-g.jpg,,
21931190,Becoming King: Martin Luther King Jr. and the Making of a National Leader (Civil Rights and the Struggle for Black Equality in the Twentieth Century),,,,Troy Jackson,2008,1,The University Press of Kentucky,,270,0,English ,,,до 2011-08,"0813125200,9780813125206",,,,,"323.092,B",E185.97.K5 J343 2008,,LvlBwSbPWRQC,OL16909989M,,0,,,,1,0,,1,962080,pdf,817C02C96FB44B72F9D1D113A7C4AA71,,,_358553.817c02c96fb44b72f9d1d113a7c4aa71.pdf,0,2000-01-01 01:00:00,2016-04-03 02:51:08,636000/817c02c96fb44b72f9d1d113a7c4aa71-d.jpg,,
21931191,On Sonic Art (Contemporary Music Studies),,,,Trevor Wishart,1996,,Routledge,,376,0,English ,,,до 2011-08,"371865847X,9783718658473",,,,,781,ML3800 .W57 1996,,,OL116314M,,0,,,,,1,,0,13053449,pdf,EDDEEE8ABD07CFA72A988B94510F123F,,,_358554.eddeee8abd07cfa72a988b94510f123f.pdf,0,2000-01-01 01:00:00,2016-04-03 02:51:08,636000/eddeee8abd07cfa72a988b94510f123f-d.jpg,,
21931192,Office 2010. leicht - klar - sofort,,,,Günter Born,2010,,Markt und Technik,,516,0,German ,,,до 2011-08,"382724563X,9783827245632",,,,,,,,,,,0,,,,1,0,1,1,29935880,pdf,B45E52249C1FC269378D567DD607B834,,,_358555.b45e52249c1fc269378d567dd607b834.pdf,0,2000-01-01 01:00:00,2016-04-03 02:51:08,636000/b45e52249c1fc269378d567dd607b834-g.jpg,,
21931193,Mastering Public Administration: From Max Weber to Dwight Waldo,,Chatham House Series on Change in American Politics,,Brian R. Fry,1989,,Chatham House Publishers,,0,0,English,,,до 2011-08,"093454056X,9780934540568",,,,,350/.0009,JF1341 .F78 1989,,,,,0,,,,,1,,,609518,chm,BEA5E5DB56ADAC55432C36F73B873DC1,,,_358556.bea5e5db56adac55432c36f73b873dc1.chm,0,2000-01-01 01:00:00,2016-04-03 02:51:08,636000/bea5e5db56adac55432c36f73b873dc1-d.jpg,,
21931194,Mary and the Giant,,,,Philip K. Dick,,,,,,0,English ,,,до 2011-08,,,,,,,,,,,,0,,,,,1,1,1,195112,epub,838FE6BAE91CB13613DA073D46191E53,,,_358557.838fe6bae91cb13613da073d46191e53.epub,0,2000-01-01 01:00:00,2016-04-03 02:51:08,636000/838FE6BAE91CB13613DA073D46191E53-g.jpg,,
21931195,The Ultimate Book of Business Thinking: Harnessing the Power of the World's Greatest Business Ideas,,,,Des Dearlove,2000,1,Capstone,,,0,English ,,,до 2011-08,"184112060X,9781841120607",,,,,,,,,OL9532532M,,0,,,,,1,,,631268,chm,D4587A5D953954137CE2E5FED77D379E,,,_358558.d4587a5d953954137ce2e5fed77d379e.chm,0,2000-01-01 01:00:00,2016-04-03 02:51:08,636000/d4587a5d953954137ce2e5fed77d379e-d.jpg,,
21931196,Early Algebraization: A Global Dialogue from Multiple Perspectives,,Advances in Mathematics Education,,"Jinfa Cai, Eric Knuth (auth.), Jinfa Cai, Eric Knuth (eds.)",2011,1,Springer-Verlag Berlin Heidelberg,,624,0,English,,,до 2011-08,"3642177344,9783642177347,9783642177354",,,,,,,10.1007/978-3-642-17735-4,,,,0,,,,1,0,1,1,8080031,pdf,8978DF89D93B10D2FDBB684D4A15B4BF,,,_358559.8978df89d93b10d2fdbb684d4a15b4bf.pdf,0,2000-01-01 01:00:00,2016-04-03 02:51:08,636000/8978df89d93b10d2fdbb684d4a15b4bf-d.jpg,,
21931197,Now Wait for Last Year,,,,Philip K. Dick,,,,,,0,English ,,,до 2011-08,,,,,,,,,,,,0,,,,,1,1,1,234006,epub,A82C91A66986DCD42654D486E79AAD2C,,,_358560.a82c91a66986dcd42654d486e79aad2c.epub,0,2000-01-01 01:00:00,2016-04-03 02:51:08,636000/A82C91A66986DCD42654D486E79AAD2C-g.jpg,,
21931198,An Anthology of Chance Operations...,,,,"La Monte, editor compiler Young",1963,,La Monte Young & Jackson Mac Low,,120,0,English ,,,до 2011-08,,,B000P58SOA,,,,,,,,,0,,,,,1,1,0,37457910,pdf,A63C31C21128621FC5D121057048E052,,,_358561.a63c31c21128621fc5d121057048e052.pdf,0,2000-01-01 01:00:00,2016-04-03 02:51:08,636000/a63c31c21128621fc5d121057048e052-g.jpg,,
21931199,"Der entzauberte Regenbogen. Wissenschaft, Aberglaube und die Kraft der Phantasie",,,,Richard Dawkins,2000,,Rowohlt,,437,0,German ,,,до 2011-08,"3498013122,9783498013127",,,,,,,,,OL9047780M,,0,,,,1,0,1,1,1145285,pdf,BCE6109B4531579BCE97DA3953E66430,,,_358562.bce6109b4531579bce97da3953e66430.pdf,0,2000-01-01 01:00:00,2016-04-03 02:51:08,636000/bce6109b4531579bce97da3953e66430-d.gif,,
21931200,Discount Business Strategy: How the New Market Leaders are Redefining Business Strategy,,,,"Michael Moesgaard Andersen, Flemming Poulfelt",2006,1,John Wiley and Sons,,323,0,English ,,,до 2011-08,"0470033533,9780470033531",,,,,,,,,OL7594937M,,0,,,,,1,1,1,1486430,pdf,0BF9DA3E963CAED3D697CF4A24AEFFF6,,,_358563.0bf9da3e963caed3d697cf4a24aefff6.pdf,0,2000-01-01 01:00:00,2016-04-03 02:51:08,636000/0bf9da3e963caed3d697cf4a24aefff6-d.jpg,,
21931201,Radio Free Albemuth,,,,Philip K. Dick,,,,,,0,English ,,,до 2011-08,,,,,,,,,,,,0,,,,,1,1,1,381673,epub,DAD7B741EC0C321840D053F19F61035B,,,_358564.dad7b741ec0c321840d053f19f61035b.epub,0,2000-01-01 01:00:00,2016-04-03 02:51:08,636000/DAD7B741EC0C321840D053F19F61035B-g.jpg,,
21931202,Solar Lottery,,,,Philip K. Dick,,,,,,0,English ,,,до 2011-08,,,,,,,,,,,,0,,,,,1,1,1,199529,epub,4606BF9C9AD2E39FBA2A3F0EC6965131,,,_358566.4606bf9c9ad2e39fba2a3f0ec6965131.epub,0,2000-01-01 01:00:00,2016-04-03 02:51:08,636000/4606BF9C9AD2E39FBA2A3F0EC6965131-g.jpg,,
21931203,TABU. Eine Kulturgeschichte des verbotenen Wissens,,,,Roger Shattuck,2000,,Piper Verlag,,601,0,German ,,,до 2011-08,"3492039596,9783492039598",,,,,,,,,OL9456263M,,0,,,,0,0,0,1,2470789,pdf,5EB52A28BDA3B24600F2F8BE11453A31,,,_358567.5eb52a28bda3b24600f2f8be11453a31.pdf,0,2000-01-01 01:00:00,2016-04-03 02:51:08,636000/5eb52a28bda3b24600f2f8be11453a31-d.jpg,,
21931204,Blairism and the War of Persuasion: Labour's Passive Revolution,,,,"Deborah Lynn Steinberg, Richard Johnson",2004,,Lawrence And Wishart Ltd,,254,0,English ,,,до 2011-08,"0853159920,9780853159926",,,,,,,,,OL8283611M,,0,,,,0,1,1,1,3188389,pdf,C0BB81F66830652A72E7149F6B2D415C,,,_358568.c0bb81f66830652a72e7149f6b2d415c.pdf,0,2000-01-01 01:00:00,2016-04-03 02:51:08,636000/c0bb81f66830652a72e7149f6b2d415c-d.jpg,,
21931205,Passing Strange: A Gilded Age Tale of Love and Deception Across the Color Line,,,,Martha A. Sandweiss,2009,1ST,"Penguin Press HC, The",,996,0,English ,,,до 2011-08,"1594202001,9781594202001",,,,,305.896/073,E185.625 .S255 2009,,,OL17099753M,,0,,,,,1,1,1,451371,epub,ACBAE8A61B9A92286FBF3ECA2AFD94B4,,,_358569.acbae8a61b9a92286fbf3eca2afd94b4.epub,0,2000-01-01 01:00:00,2016-04-03 02:51:08,636000/acbae8a61b9a92286fbf3eca2afd94b4-d.jpg,,
21931206,All the Right Moves: A Guide to Crafting Breakthrough Strategy,,,,Constantinos Markides,2000,,Harvard Business Press,,239,0,English ,,,до 2011-08,"0875848338,9780875848334",,,,,,,,,OL8089952M,,0,,,,,1,,1,1138897,pdf,6DEA016406DCA8BE81E671DC416B665D,,,_358570.6dea016406dca8be81e671dc416b665d.pdf,0,2000-01-01 01:00:00,2016-04-03 02:51:08,636000/6dea016406dca8be81e671dc416b665d-d.jpg,,
21931207,Silicon Photonics: An Introduction,,,,"Graham T. Reed, Andrew P. Knights",2004,1,Wiley,,276,0,English ,,,до 2011-08,"0470870346,9780470870341",,,,,621.38152,TA1750 .R44 2004,,,OL3325728M,,0,,,,0,0,0,1,4210389,pdf,F948C6C765A4D1991FD0DCA28AA221C0,,,_358571.f948c6c765a4d1991fd0dca28aa221c0.pdf,0,2000-01-01 01:00:00,2016-04-03 02:51:08,636000/f948c6c765a4d1991fd0dca28aa221c0-d.jpg,,
21931208,"Identity Difference: Democratic Negotiations of Political Paradox, Expanded Edition",,,,William E. Connolly,2002,Revised,Univ Of Minnesota Press,,278,0,English ,,,до 2011-08,"0816640866,9780816640867",,,,,320/.01,JA74 .C659 2002,,,OL22473982M,,0,,,,1,1,1,1,14680205,pdf,32FEF925D9E1872F2026D5E0C384EEBF,,,_358572.32fef925d9e1872f2026d5e0c384eebf.pdf,0,2000-01-01 01:00:00,2016-04-03 02:51:08,636000/32fef925d9e1872f2026d5e0c384eebf-d.jpg,,
21931209,Kosmetologia i farmakologia skóry,,,,Marie-Claude Martini,2006,,Pzwl,,234,0,Polish ,,,до 2011-08,"8320031168,9788320031164",,,,,,,,,,,0,,,,0,1,,0,71639456,pdf,4DA35661B248D91E9BFFF1BD6F358B87,,,_358573.4da35661b248d91e9bfff1bd6f358b87.pdf,0,2000-01-01 01:00:00,2016-04-03 02:51:08,636000/4da35661b248d91e9bfff1bd6f358b87-g.jpg,,
21931210,Virtual & Networked Organizations (Express Exec),,,,Philippa Collins,2002,1,Capstone,,125,0,English ,,,до 2011-08,"1841122203,9781841122205",,,,,,,,,OL12566871M,,0,,,,,1,,1,1124670,pdf,211B94FD4D2EC9E41EBD818894B03BB3,,,_358581.211b94fd4d2ec9e41ebd818894b03bb3.pdf,0,2000-01-01 01:00:00,2016-04-03 02:51:08,636000/211b94fd4d2ec9e41ebd818894b03bb3-d.jpg,,
21931211,Lacan and the Political (Thinking the Political),,,,Yannis Stavrakakis,1999,1,Routledge,,199,0,English ,,,до 2011-08,"0415171873,9780415171878",,,,,320/.092,BF175.4.S65 S73 1999,,,OL388118M,,0,,,,1,1,1,1,728320,pdf,78F77ECD42AFA1EB903C52DBC43D6E2B,,,_358583.78f77ecd42afa1eb903c52dbc43d6e2b.pdf,0,2000-01-01 01:00:00,2016-04-03 02:51:08,636000/78f77ecd42afa1eb903c52dbc43d6e2b-d.jpg,,
21931212,The Tao of Pooh,,,,Benjamin Hoff,,,,,,0,English ,,,до 2011-08,,,,,,,,,,,Includes various OCR errors,0,,,,,0,0,1,1912450,epub,C23CDE4405CE2AE770C2DF2E0C7D4F19,,,_358588.c23cde4405ce2ae770c2df2e0c7d4f19.epub,0,2000-01-01 01:00:00,2016-04-03 02:51:08,636000/C23CDE4405CE2AE770C2DF2E0C7D4F19-g.jpg,,
21931213,"Die Welle. Bericht über einen Unterrichtsversuch, der zu weit ging",,,,Morton Rhue,2009,,Ravensburger Buchverlag,,137,0,German ,,,до 2011-08,9783473383894,,,,,,,,,,,0,,,,,1,1,1,5704328,epub,D5AAA7393234C287CC8E43C82FFA3725,,,_358590.d5aaa7393234c287cc8e43c82ffa3725.epub,0,2000-01-01 01:00:00,2016-04-03 02:51:08,636000/D5AAA7393234C287CC8E43C82FFA3725-g.jpg,,
21931214,Applications of Evolutionary Computation in Chemistry,,Structure and Bonding 110,,"Roy L. Johnston, H.M. Cartwright, V.J. Gillet, S. Habershon, K.D.M. Harris, B. Hartke, R.L. Johnston, R. Unger, S. Woodley",2004,1,Springer,,182,0,English ,,,до 2011-08,"3540402586,9783540402589",,,,,542/.85,QD461 .S92 vol. 110,10.1007/b13931HAPTER,,OL3326642M,,0,,,,,1,,1,2928696,pdf,D9B2F180698605EE7ABC8A830F154936,,,_358592.d9b2f180698605ee7abc8a830f154936.pdf,0,2000-01-01 01:00:00,2016-04-03 02:51:08,636000/d9b2f180698605ee7abc8a830f154936-d.jpg,,
21931215,,,Annual Reports in Computational Chemistry 2,,David C. Spellmeyer (Eds.),2006,1,Elsevier Science,,1-334,0,English ,,,до 2011-08,978-0-444-52822-3,1574-1400,,,,,,10.1016/S1574-1400,,OL7531198M,,0,,,,,1,,1,2770001,pdf,59E4F4785439624DE64C8574B6567E31,,,_358593.59e4f4785439624de64c8574b6567e31.pdf,0,2000-01-01 01:00:00,2016-04-03 02:51:08,636000/59e4f4785439624de64c8574b6567e31-d.jpg,,
