22020215,"Lawrence of Arabia: The Background, Strategies, Tactics and Battlefield Experiences of the Greatest Commanders of History  ",,,,"David Murphy, Giuseppe Rava",2011,First Edition,Osprey Publishing,,65,0,English ,,,2011 12 30,"1849083681,9781849083683",,,,,,,,,,,0,,,,,1,1,1,3943890,pdf,0CEDA6698C862B5DB4354D9902BA06B3,,,_514077.0ceda6698c862b5db4354d9902ba06b3.pdf,0,2000-01-01 01:00:00,2016-04-03 02:51:08,725000/0ceda6698c862b5db4354d9902ba06b3-d.jpg,,
22020216,Fang: A Maximum Ride Novel  ,,,,James Patterson,2011,,Grand Central Publishing,,,0,English ,,,2011 12 30,9780316072281,,,,,,,,,OL24262451M,,0,,,,,1,,,456682,epub,0CEF46919C0BF3159E2180B199680F95,,,_491041.0cef46919c0bf3159e2180b199680f95.epub,0,2000-01-01 01:00:00,2016-04-03 02:51:08,725000/0CEF46919C0BF3159E2180B199680F95-g.jpg,,
22020217,Jesus as God: The New Testament use of theos in reference to Jesus  ,,,,Murray J. Harris,1998,,Baker Book House,,380,0,English ,,,2011 12 30,"0801021952,9780801021954",,,,,,,,,OL7845461M,,600,,,,1,1,1,1,16021675,pdf,0CF09C97959997A99C6B91F7D103A014,,,_478096.0cf09c97959997a99c6b91f7d103a014.pdf,0,2000-01-01 01:00:00,2016-04-03 02:51:08,725000/0cf09c97959997a99c6b91f7d103a014-d.jpg,,
22020218,Komputerowe projektowanie układów elektronicznych  ,,,,ANDRZEJ NAPIERALSKł,1990,,POLITECHNIKA ŁÓDZKA,,248,0,Polish ,,,2011 12 30,,,,,,,,,,,,0,,,,,1,1,1,6570768,pdf,0CF30A52FA098A35C6C15F68B4C574F4,,,_473156.0cf30a52fa098a35c6c15f68b4c574f4.pdf,0,2000-01-01 01:00:00,2016-04-03 02:51:08,725000/0cf30a52fa098a35c6c15f68b4c574f4-g.jpg,,
22020219,"Guide des poissons de mer et pêche : biologie, pêche, importance économique  ",,,,"Bent J. Muus, Preven Dahlstrom",1988,,Delachaux et Niestlé,,125,0,French ,,,2011 12 30,"2603006622,9782603006627",,,,,,,,nAhrAAAACAAJ,,,0,,,,,1,1,0,74511943,pdf,0CF5821BE7C978AA0CC223EFF080C96C,,,_465843.0cf5821be7c978aa0cc223eff080c96c.pdf,0,2000-01-01 01:00:00,2016-04-03 02:51:08,725000/0cf5821be7c978aa0cc223eff080c96c-g.jpg,,
22020220,The Better Mother  ,,,,Jen Sookfong Lee,2011,,Knopf Canada,,,0,English ,,,2011 12 30,"0307399524,9780307399526",,,,,C813.′6 C2010-907206-5,PS8623.E442B48 2011,,r6IQW_GE-ywC,,,0,,,,0,0,1,1,1938977,epub,0CF5F55E085FBBA664084FD0EBD37773,,,_495752.0cf5f55e085fbba664084fd0ebd37773.epub,0,2000-01-01 01:00:00,2016-04-03 02:51:08,725000/0CF5F55E085FBBA664084FD0EBD37773-g.jpg,,
22020221,Wilt Alternative  ,,,,Tom Sharpe,2004,New Ed,ARROW (RAND),,,0,English ,,,2011 12 30,"009946649X,9780099466499",,,,,,,,,OL7318625M,,0,,,,,1,,,279330,epub,0CF7793F1DFEAC4DB847EABAF29C53EB,,,_442682.0cf7793f1dfeac4db847eabaf29c53eb.epub,0,2000-01-01 01:00:00,2016-04-03 02:51:08,725000/0cf7793f1dfeac4db847eabaf29c53eb-d.jpg,,
22020222,Fables #1,,,,Bill Willingham,,,,,23,0,English,,,2011 12 30,,,,,,,,,,,,0,,,,0,1,0,0,5761309,pdf,0CF93EAC832E3F45D5A5B54DCEFB6592,,,_501018.0cf93eac832e3f45d5a5b54dcefb6592.pdf,0,2000-01-01 01:00:00,2016-04-03 02:51:08,725000/0cf93eac832e3f45d5a5b54dcefb6592-g.jpg,,
22020223,The Call of the Wild (Puffin Classics)  ,,,,Jack London,2008,,Penguin,,,0,English ,,,2011 12 30,,,,,,,,,,,,0,,,,,1,1,,2713413,epub,0CF9D4BFFC202977E1CB4FD4E1E4C9FC,,,_441448.0cf9d4bffc202977e1cb4fd4e1e4c9fc.epub,0,2000-01-01 01:00:00,2016-04-03 02:51:08,725000/0CF9D4BFFC202977E1CB4FD4E1E4C9FC-g.jpg,,
22020224,Contemporary Marketing  ,,,,"Louis E. Boone, David L. Kurtz",2011,15,Cengage Learning,,806,0,English ,,,2011 12 30,"1111221782,9781111221782",,,,,,,,-e0Yt7AxEV0C,,,0,,,,,1,,1,37553797,pdf,0CFA89240540014BFDBDD8A759F05754,,,_473776.0cfa89240540014bfdbdd8a759f05754.pdf,0,2000-01-01 01:00:00,2016-04-03 02:51:08,725000/0cfa89240540014bfdbdd8a759f05754-d.jpg,,
22020225,Advanced Avionics Handbook: FAA-H-8083-6  ,,,,Federal Aviation Administration,2009,,"Aviation Supplies & Academics, Inc.",,109,0,English ,,,2011 12 30,,,,,,,,,2xGuPwAACAAJ,,,0,,,,0,0,1,1,10732675,epub,0CFB72697CDB6940E6B5B6FCE7675E9F,,,_469682.0cfb72697cdb6940e6b5b6fce7675e9f.epub,0,2000-01-01 01:00:00,2016-04-03 02:51:08,725000/0CFB72697CDB6940E6B5B6FCE7675E9F-g.jpg,,
22020226,Where Heaven Begins  ,,,,Rosanne Bittner,2007,,Steeple Hill,,,0,English ,,,2011 12 30,"1426853432,9781426853432",,,,,,,,r-YC29I-z1IC,OL24266507M,,0,,,,,1,,,1112682,epub,0CFCE7009FEBDD5ED419E8F1C04DA536,,,_489016.0cfce7009febdd5ed419e8f1c04da536.epub,0,2000-01-01 01:00:00,2016-04-03 02:51:08,725000/0CFCE7009FEBDD5ED419E8F1C04DA536-g.jpg,,
22020227,Osmanlı Belgelerinde Ermenilerin Sevk Ve İskânı 1878-1920 Cilt II  ,,,,anonim,,,,,185,0,Turkish ,,,2011 12 30,,,,,,,,,,,,0,,,,,1,,0,5194395,pdf,0CFEE01706F210C8692F7DCADDD5F203,,,_492238.0cfee01706f210c8692f7dcaddd5f203.pdf,0,2000-01-01 01:00:00,2016-04-03 02:51:08,725000/0cfee01706f210c8692f7dcaddd5f203-g.jpg,,
22020228,I may be wrong but I doubt it  ,,,,"Charles Barkley, Michael Wilbon",2002,,Random House,,,0,English ,,,2011 12 30,"9781588362742,1588362744",,,,,796.323092,GV884.B28 A29 2003,,QF16f9v70IYC,,,0,,,,,0,1,1,229168,epub,0CFF060048AC655E060AB02B2C9E33C4,,,_504905.0cff060048ac655e060ab02b2c9e33c4.epub,0,2000-01-01 01:00:00,2016-04-03 02:51:08,725000/0CFF060048AC655E060AB02B2C9E33C4-g.jpg,,
22020229,The Marian Exiles: A Study in the Origins of Elizabethan Puritanism (Cambridge Library Collection - History)  ,,Cambridge Library Collection - History,,Christina Hallowell Garrett,2010,1,Cambridge University Press,,403,0,English ,,,2011 12 30,"1108011268,9781108011266",,,,,,,,,,,0,,,,1,1,1,1,5744577,pdf,0CFFB6C822B8968A324BE531410BEAC5,,,_445934.0cffb6c822b8968a324be531410beac5.pdf,0,2000-01-01 01:00:00,2016-04-03 02:51:08,725000/0cffb6c822b8968a324be531410beac5-d.jpg,,
22020230,As Seis Lições  ,,,,"Ludwig von Mises, Maria Luiza X. de A. Borges",1998,6th,,,95,0,Portuguese ,,,2011 12 30,8585054014,,,,,,,,,,,0,,,,0,0,0,1,1285744,pdf,0D01A9C5EA9EC2842C771AA8FBCB5526,,,_489742.0d01a9c5ea9ec2842c771aa8fbcb5526.pdf,0,2000-01-01 01:00:00,2016-04-03 02:51:08,725000/0d01a9c5ea9ec2842c771aa8fbcb5526-g.jpg,,
22020231,Osmanli Belgelerinde Cezayir (Algeria in Ottoman Documents)  ,,,,"Ottoman Archives, Istanbul",2010,,,,438,0,Turkish ,,,2011 12 30,978-975-19-4998-1,,,,,,,,,,,0,,,,1,0,0,1,14433919,pdf,0D01B9DF30D1D465E299C7BA57FED267,,,_450255.0d01b9df30d1d465e299c7ba57fed267.pdf,0,2000-01-01 01:00:00,2016-04-03 02:51:08,725000/0d01b9df30d1d465e299c7ba57fed267-g.jpg,,
22020232,Rails 3 in Action  ,,,,"Yehuda Katz, Ryan Bigg",2011,,Manning Publications,,592,0,English ,,,2011 12 30,"1935182277,9781935182276",,,,,,,,,,,0,,,,1,0,1,1,11760903,pdf,0D0271D30CF87B79570F95869CF6F60B,,,_467897.0d0271d30cf87b79570f95869cf6f60b.pdf,0,2000-01-01 01:00:00,2016-04-03 02:51:08,725000/0d0271d30cf87b79570f95869cf6f60b-d.jpg,,
22020233,Islam and Modernity: Transformation of an Intellectual Tradition  ,,Publications of the Center for Middle Eastern Studies,,Fazlur Rahman,1984,,University of Chicago Press,,181,0,English ,,,2011 12 30,"0226702847,9780226702841",,,,,,,,FJcyIeHeeZwC,OL9323690M,,0,,,,1,1,1,1,6101753,pdf,0D038AD119964AA36B177880143823FE,,,_513157.0d038ad119964aa36b177880143823fe.pdf,0,2000-01-01 01:00:00,2016-04-03 02:51:08,725000/0d038ad119964aa36b177880143823fe-d.jpg,,
22020234,Capital & Class. - 1983. - Issue 19  issue 19,,,,Conference of Socialist Economists,1983,,Conference of Socialist Economists,,204,0,English ,,,2011 12 30,,,,,,,,,,,,0,,,,0,1,0,1,11988439,pdf,0D0466A3FF051E6C64099CF23AACE418,,,_452334.0d0466a3ff051e6c64099cf23aace418.pdf,0,2000-01-01 01:00:00,2016-04-03 02:51:08,725000/0d0466a3ff051e6c64099cf23aace418-g.jpg,,
22020235,Clinical Skills: The Essence of Caring  ,,,,"Helen Iggulden, Caroline Macdonald, Karen Staniland",2009,1,Open University Press,,271,0,English ,,,2011 12 30,"0335223559,9780335223558",,,,,,,,L2tYAAAAYAAJ,,,0,,,,1,0,1,1,9106339,pdf,0D07ED9706F27768E02ECA75AD9C27CA,,,_487381.0d07ed9706f27768e02eca75ad9c27ca.pdf,0,2000-01-01 01:00:00,2016-04-03 02:51:08,725000/0d07ed9706f27768e02eca75ad9c27ca-d.jpg,,
22020236,The Kingdom by the Sea: A Journey Around the Coast of Great Britain  ,,,,Paul Theroux,2006,,Mariner Books,,,0,English ,,,2011 12 30,"0618658955,0395346452,9780618658954,9780395346457",,,,,914.04/858,DA632 .T46 2006,,vAjWkNJUUNIC,OL17902138M,,0,,,,,0,1,1,338670,epub,0D09558F8539D3BA5E20C87EE619A43D,,,_492013.0d09558f8539d3ba5e20c87ee619a43d.epub,0,2000-01-01 01:00:00,2016-04-03 02:51:08,725000/0d09558f8539d3ba5e20c87ee619a43d-d.jpg,,
22020237,Rails 3 in Action  ,,,,"Yehuda Katz, Ryan Bigg",2011,,Manning Publications,,592,0,English ,,,2011 12 30,"1935182277,9781935182276",,,,,,,,WFyeZwEACAAJ,,,0,,,,1,0,1,1,5608292,pdf,0D0A9179982D89C7AF15E66E2D7FEF6E,,,_467912.0d0a9179982d89c7af15e66e2d7fef6e.pdf,0,2000-01-01 01:00:00,2016-04-03 02:51:08,725000/0d0a9179982d89c7af15e66e2d7fef6e-d.jpg,,
22020238,Szkło w Polsce od XIV do XVII wieku  ,,,,Andrzej Wyrobisz,,,,,223,0,Polish ,,,2011 12 30,,,,,,,,,,,,0,,,,,1,,1,2636314,pdf,0D0B75C22C290496E0AAB615E386D539,,,_452674.0d0b75c22c290496e0aab615e386d539.pdf,0,2000-01-01 01:00:00,2016-04-03 02:51:08,725000/0d0b75c22c290496e0aab615e386d539-g.jpg,,
22020239,Where's My Cow?  ,,,,Terry Pratchett,2005,,Transworld,,20,0,English ,,,2011 12 30,"038560937X,9780385609371",,,,,,,,SDwIk0bNF1IC,OL7441524M,,0,,,,0,1,1,0,6667790,pdf,0D0C591531F0F9CF727E562CF86B3702,,,_462205.0d0c591531f0f9cf727e562cf86b3702.pdf,0,2000-01-01 01:00:00,2016-04-03 02:51:08,725000/0d0c591531f0f9cf727e562cf86b3702-d.jpg,,
22020240,ASP.NET 4.0 in Practice,,,,"Daniele Bochicchio, Stefano Mostarda, Marco De Sanctis",2011,Pap/Psc,Manning Publications,,506,0,English,92,,2011 12 30,"1935182463,9781935182467",,,,,006.76,TK5105.8885.A26 B63 2011,,,,,0,,,,1,0,1,1,13054103,pdf,0D0CDE66812DA90ACB85CA7E3417B4CE,,,_434594.0d0cde66812da90acb85ca7e3417b4ce.pdf,0,2000-01-01 01:00:00,2016-04-03 02:51:08,725000/0d0cde66812da90acb85ca7e3417b4ce-d.jpg,,
22020241,"Managerial Accounting for Managers, 2nd Edition  ",,,,"Eric Noreen, Peter Brewer, Peter C. Brewer, Ray H Garrison",2010,2nd,McGraw-Hill,,657,0,English ,,,2011 12 30,"0073527130,9780073527130",,,,,658.15/11,HF5657.4 .N668 2011,,WmpwPwAACAAJ,OL23725326M,,0,,,,1,0,1,1,14453273,pdf,0D0D5582FDBC97572A7C5CA8AA00E218,,,_484754.0d0d5582fdbc97572a7c5ca8aa00e218.pdf,0,2000-01-01 01:00:00,2016-04-03 02:51:08,725000/0d0d5582fdbc97572a7c5ca8aa00e218-d.jpg,,
22020242,"Health Psychology: Biopsychosocial Interactions, 7th Edition  ",,,,"Edward P. Sarafino, Timothy W. Smith",2010,7th,Wiley,,561,0,English ,,,2011 12 30,"0470646985,9780470646984",,,,,616.001/9,R726.7 .S27 2011,,,OL25100400M,,0,,,,,1,,1,8068600,pdf,0D0D9C51C330BC045CFC4C23AE19BAEF,,,_467036.0d0d9c51c330bc045cfc4c23ae19baef.pdf,0,2000-01-01 01:00:00,2016-04-03 02:51:08,725000/0d0d9c51c330bc045cfc4c23ae19baef-d.jpg,,
22020243,Structure and Meaning in English: A Guide for Teachers  ,,,,Graeme Kennedy,2004,,Pearson ESL,,409,0,English ,,,2011 12 30,"0582506328,9780582506329",,,,,,,,,OL7881658M,,0,,,,0,0,0,1,3917831,pdf,0D0E743D50E655BD46DFEEFDD86B65C4,,,_463024.0d0e743d50e655bd46dfeefdd86b65c4.pdf,0,2000-01-01 01:00:00,2016-04-03 02:51:08,725000/0d0e743d50e655bd46dfeefdd86b65c4-d.jpg,,
22020244,Essay on a New Theory of the Human Capacity for Representation  ,,,,Karl Leonhard Reinhold,2011,1,De Gruyter,,341,0,English ,,,2011 12 30,"3110227401,9783110227406",,,,,,,,fj1PjWhoLlwC,,,0,,,,1,0,1,1,1015661,pdf,0D101962B3B1F659CBADF3851FB3C8B6,,,_497912.0d101962b3b1f659cbadf3851fb3c8b6.pdf,0,2000-01-01 01:00:00,2016-04-03 02:51:08,725000/0d101962b3b1f659cbadf3851fb3c8b6-d.jpg,,
22020245,Food & Beverage Packaging January-February 2011  ,,,,Pan Demetrakakes,,,Business News Publishing Co.,,56,0,English ,,,2011 12 30,,,,,,,,,,,,0,,,,1,0,1,1,36852477,pdf,0D1135022B362812BEE689E997D001CE,,,_509913.0d1135022b362812bee689e997d001ce.pdf,0,2000-01-01 01:00:00,2016-04-03 02:51:08,725000/0d1135022b362812bee689e997d001ce-g.jpg,,
22020246,Apokalyptik in Antike und Aufklaerung Studien zu Judentum und Christentum  ,,,,"Brokoff J., Schipper B.U. (eds.)",2004,,Schoeningh,,222,0,German ,,,2011 12 30,"3506723677,9783506723673",,,,,,,,,OL18490349M,,300,,,,0,1,0,1,2971128,djvu,0D125F2B1182C8EFF7F09A643006A9EC,,,_431658.0d125f2b1182c8eff7f09a643006a9ec.djvu,0,2000-01-01 01:00:00,2016-04-03 02:51:08,725000/0d125f2b1182c8eff7f09a643006a9ec-g.jpg,,
22020247,Cry for the Strangers  ,,,,John Saul,1986,,Dell,,,0,English ,,,2011 12 30,9780307768230,,,,,,,,ND6oox6SQ3wC,,,0,,,,,0,1,1,697733,mobi,0D12F50DFBDB105266811BCBCAAC7106,,,_479103.0d12f50dfbdb105266811bcbcaac7106.mobi,0,2000-01-01 01:00:00,2016-04-03 02:51:08,725000/0D12F50DFBDB105266811BCBCAAC7106-g.jpg,,
22020248,Organizational Change: Creating Change Through Strategic Communication  ,,,,Laurie K Lewis,2011,1,Wiley,,309,0,English ,,,2011 12 30,"1405191899,9781405191890,9781444340372",,,,,658.45,,,,,,0,,,,0,1,0,1,2188869,pdf,0D14A7D84C78342A78B9DB2B3C389349,,,_506571.0d14a7d84c78342a78b9db2b3c389349.pdf,0,2000-01-01 01:00:00,2016-04-03 02:51:08,725000/0d14a7d84c78342a78b9db2b3c389349-d.jpg,,
22020249,Failure Mechanisms of Advanced Welding Processes  ,,,,X. Sun,2010,,Woodhead Publishing Ltd,,329,0,English ,,,2011 12 30,"1845695364,9781845695361",,,,,,,,,,,0,,,,0,1,0,1,6836976,pdf,0D15D840DFD47F4A4C9ACF0E6ADC766C,,,_504383.0d15d840dfd47f4a4c9acf0e6adc766c.pdf,0,2000-01-01 01:00:00,2016-04-03 02:51:08,725000/0d15d840dfd47f4a4c9acf0e6adc766c-d.jpg,,
22020250,The modern aspect of mathematics  ,,,,Lucienne Felix,1960,,Basic Books,,199,0,English ,,,2011 12 30,,,ISBN10:B0006AWF52,,,,,,,,,0,,,,,1,,1,4696653,djvu,0D1611640FD1CD0A1D89AEA6C78F0435,,,_500372.0d1611640fd1cd0a1d89aea6c78f0435.djvu,0,2000-01-01 01:00:00,2016-04-03 02:51:08,725000/0d1611640fd1cd0a1d89aea6c78f0435-g.jpg,,
22020251,The Burglar Who Painted Like Mondrian (Bernie Rhodenbarr Mysteries)  ,,,,Lawrence Block,2005,,HarperTorch,,,0,English ,,,2011 12 30,"0060731435,9780060731434",,,,,,,,,OL7280510M,,0,,,,,1,,,423599,epub,0D172BF3EA5F64BAE1284361440C8339,,,_473167.0d172bf3ea5f64bae1284361440c8339.epub,0,2000-01-01 01:00:00,2016-04-03 02:51:08,725000/0d172bf3ea5f64bae1284361440c8339-d.jpg,,
22020252,Diario de un testigo de la Guerra de África  ,,,,Pedro Antonio de Alarcón,1860,,,,405,0,"Spanish,Castilian",,,2011 12 30,,,,,,,,,,,,0,,,,,1,,1,2242097,pdf,0D1B53DE348505D869C9D4D2AB18104E,,,_442057.0d1b53de348505d869c9d4d2ab18104e.pdf,0,2000-01-01 01:00:00,2016-04-03 02:51:08,725000/0d1b53de348505d869c9d4d2ab18104e-g.jpg,,
22020253,Vengeance of Orion  ,,Orion 2,,Ben Bova,,,,,,0,English ,,,2011 12 30,,,,,,,,,,,,0,,,,,1,1,1,338284,epub,0D1BB4F3B0D43D546B3C2BBDAB0FF095,,,_496790.0d1bb4f3b0d43d546b3c2bbdab0ff095.epub,0,2000-01-01 01:00:00,2016-04-03 02:51:08,725000/0D1BB4F3B0D43D546B3C2BBDAB0FF095-g.jpg,,
22020254,Time-Triggered Communication  ,,Embedded Systems,,Roman Obermaisser,2012,1,CRC Press,,575,0,English ,,,2011 12 30,"1439846618,9781439846612",,,,,621.3815/31,TK5105.546 .T56 2012,,,OL25202455M,,0,,,,1,0,1,1,5728815,pdf,0D1C1CE35086A7EE590A529911E15EFE,,,_513500.0d1c1ce35086a7ee590a529911e15efe.pdf,0,2000-01-01 01:00:00,2016-04-03 02:51:08,725000/0d1c1ce35086a7ee590a529911e15efe-d.jpg,,
22020255,"Inverse Acoustic and Electromagnetic Scattering Theory, First Edition (Applied Mathematical Sciences)  ",,,,"David Colton, Rainer Kress",1992,,Springer,,313,0,English ,,,2011 12 30,"9783540555186,3540555188,0387555188",,,,,"510 s,534/.2","QA1 .A647 vol. 93,QC243.3.S3 .A647 vol. 93",,TVGzQgAACAAJ,OL1714201M,,0,,,,0,1,1,1,10718017,pdf,0D1E92A8B2C99E2FDDAEE0881C088DF3,,,_457385.0d1e92a8b2c99e2fddaee0881c088df3.pdf,0,2000-01-01 01:00:00,2016-04-03 02:51:08,725000/0d1e92a8b2c99e2fddaee0881c088df3-d.jpg,,
22020256,Transport Phenomena In Fuel Cells (Developments in Heat Transfer)  ,,Developments in Heat Transfer 19,,B. Sunden,2005,,WIT Press,,379,0,English ,,,2011 12 30,"1853128406,9781853128400",1369-7331,,,,,,,uaOFQgAACAAJ,OL8978095M,,0,,,,1,0,1,1,5851737,pdf,0D1F9048F25F1447AA064A2B532174A6,,,_508830.0d1f9048f25f1447aa064a2b532174a6.pdf,0,2000-01-01 01:00:00,2016-04-03 02:51:08,725000/0d1f9048f25f1447aa064a2b532174a6-d.jpg,,
22020257,Plane and solid geometry  ,,Universitext,,J.M. Aarts (auth.),2009,1,Springer-Verlag New York,,349,0,English,,,2011 12 30,"0387782400,9780387782409,9780387782416",,,,,516.22,QA453 .A1313 2008,10.1007/978-0-387-78241-6,,OL23174417M,,0,,,,1,0,1,1,2079762,pdf,0D1F941D87471CBD0EA9E2B8D4B31242,,,_480148.0d1f941d87471cbd0ea9e2b8d4b31242.pdf,0,2000-01-01 01:00:00,2016-04-03 02:51:08,725000/0d1f941d87471cbd0ea9e2b8d4b31242-d.jpg,,
22020258,Understanding British and European political issues: a guide for A2 politics students  ,,,,Neil McNaughton,2003,First Edition,Manchester University Press,,284,0,English ,,,2011 12 30,"0719062454,9780719062452",,,,,,,,tMrD6RRoZkQC,OL10531694M,,0,,,,1,0,1,1,1721975,pdf,0D1FE1A9EE4A6906F8003E7C49191EBE,,,_458711.0d1fe1a9ee4a6906f8003e7c49191ebe.pdf,0,2000-01-01 01:00:00,2016-04-03 02:51:08,725000/0d1fe1a9ee4a6906f8003e7c49191ebe-d.jpg,,
22020259,Capital and the Debt Trap: Learning from Cooperatives in the Global Crisis  ,,,,"Bruno Roelants, Claudia Sanchez Bajo",2011,,Palgrave Macmillan,,343,0,English ,,,2011 12 30,"0230252389,9780230252387",,,,,334,HG4027.4 .S26 2011,,P77lTgEACAAJ,OL24979726M,,0,,,,,1,1,1,547667,epub,0D20673B7004F598243E2BFB64B6E178,,,_486509.0d20673b7004f598243e2bfb64b6e178.epub,0,2000-01-01 01:00:00,2016-04-03 02:51:08,725000/0d20673b7004f598243e2bfb64b6e178-d.jpg,,
22020260,Geodynamics of the Lithosphere: An Introduction  ,,,,Kurt Stüwe,2007,2nd,Springer,,497,0,English ,,,2011 12 30,"3540712364,9783540712367",,,,,551,QE501.4.M38 S78 2007,,,OL22761351M,,0,,,,0,1,1,1,30361547,pdf,0D2146676B9A7E2FFCBEB8ACEE342416,,,_446824.0d2146676b9a7e2ffcbeb8acee342416.pdf,0,2000-01-01 01:00:00,2016-04-03 02:51:08,725000/0d2146676b9a7e2ffcbeb8acee342416-d.jpg,,
22020261,Social theory: central issues in sociology  ,,,,John Scott,2006,,SAGE,"London ; Thousand Oaks, Calif",319,0,English ,,,2011 12 30,"0761970878,9780761970873,9781848605503,1848605501",,,,,,,,,OL8030615M,,0,,,,0,0,0,1,1592168,pdf,0D2186DF0042A070D7599150DEAD3816,,,_463561.0d2186df0042a070d7599150dead3816.pdf,0,2000-01-01 01:00:00,2016-04-03 02:51:08,725000/0d2186df0042a070d7599150dead3816-d.jpg,,
22020262,Making Sense of Child and Family Assessment: How to Interpret Children's Needs  ,,Best practice in working with children series,,"Duncan Helm, Brigid Daniel",2010,1,Jessica Kingsley Publishers,London ; Philadelphia,228,0,English ,,,2011 12 30,"1843109239,9781843109235,9780857002983,0857002988",,,,,362.7,HV713 .H383 2010,,Wd_UTUsSosAC,OL23918913M,,0,,,,,1,,1,1116556,pdf,0D21AAEF3E7A516C1BD1167C79A379C5,,,_473664.0d21aaef3e7a516c1bd1167c79a379c5.pdf,0,2000-01-01 01:00:00,2016-04-03 02:51:08,725000/0d21aaef3e7a516c1bd1167c79a379c5-d.jpg,,
22020263,Kinematic Evolution and Structural Styles of Fold-and-Thrust Belts (Geological Society Special Publication 349)  ,,Geological Society Special Publications 349,,"J Poblet, R J Lisle",2011,,Geological Society of London,,263,0,English ,,,2011 12 30,"1862393206,9781862393202",,,,,,,10.1144/SP349.1,TEz0qx2Id7EC,,,0,,,,1,0,1,1,15220618,pdf,0D21E1EE458A772D1B3A462241C25F67,,,_480083.0d21e1ee458a772d1b3a462241c25f67.pdf,0,2000-01-01 01:00:00,2016-04-03 02:51:08,725000/0d21e1ee458a772d1b3a462241c25f67-d.jpg,,
22020264,"Handbook of Obstetric and Gynecologic Emergencies, 4th Edition  ",,Lippincott Williams & Wilkins Handbook Series,,Guy I. Benrubi,2010,4,Lippincott Williams & Wilkins,,,0,English ,,,2011 12 30,"1605476668,9781605476667",,,,,618/.0425,RG571 .O245 2010,,OTqhX282J9IC,OL23872482M,,0,,,,,1,1,1,4235923,chm,0D22A3C6A7AE95DDCF147F4CFEEFA613,,,_499292.0d22a3c6a7ae95ddcf147f4cfeefa613.chm,0,2000-01-01 01:00:00,2016-04-03 02:51:08,725000/0d22a3c6a7ae95ddcf147f4cfeefa613-d.jpg,,
22020265,A Perfect Spy  ,,,,John le Carré,2011,Reprint,Penguin (Non-Classics),,505,0,English ,,,2011 12 30,"0143119761,9780143119760",,,,,,,,,,,0,,,,,1,0,1,2607561,pdf,0D23EA2ECFD98954DD866513CAC81F96,,,_440316.0d23ea2ecfd98954dd866513cac81f96.pdf,0,2000-01-01 01:00:00,2016-04-03 02:51:08,725000/0d23ea2ecfd98954dd866513cac81f96-d.jpg,,
22020266,"K-Taping: Praxishandbuch - Grundlagen - Anlagetechniken - Indikationen, 2. Auflage  ",,2. Auflage,,Birgit Kumbrink,2011,2. Auflage,Springer,,261,0,German ,,,2011 12 30,"3642207413,9783642207419",,,,,,,,XT2GLBmT1e8C,,,0,,,,1,0,1,1,83673245,pdf,0D24E511B72F1DFFF0CA4FBC0B314F98,,,_504836.0d24e511b72f1dfff0ca4fbc0b314f98.pdf,0,2000-01-01 01:00:00,2016-04-03 02:51:08,725000/0d24e511b72f1dfff0ca4fbc0b314f98-d.jpg,,
22020267,Early and medieval Christian monastic spirituality - a study in meaning and trends (Thesis)  ,,,,Jeff E. Roberts,1978,,,,136,0,English ,,,2011 12 30,,,,,,,,,,,,0,,,,0,0,0,1,6609158,pdf,0D259C2DCB73FF6C4CFFCB64A0DCECF3,,,_449779.0d259c2dcb73ff6c4cffcb64a0dcecf3.pdf,0,2000-01-01 01:00:00,2016-04-03 02:51:08,725000/0d259c2dcb73ff6c4cffcb64a0dcecf3-g.jpg,,
22020268,The Integrative Design Guide to Green Building: Redefining the Practice of Sustainability (Sustainable Design)  ,,Sustainable Design,,"7group, Bill Reed",2009,1,Wiley,,433,0,English ,,,2011 12 30,"0470181109,9780470181102",,,,,720/.47,TH880 .I58 2009,,GUpyUI010gQC,OL22514844M,,0,,,,1,0,1,1,30203563,pdf,0D264AD524A355E72C847ECE9B819BEC,,,_497348.0d264ad524a355e72c847ece9b819bec.pdf,0,2000-01-01 01:00:00,2016-04-03 02:51:08,725000/0d264ad524a355e72c847ece9b819bec-d.jpg,,
22020269,Advanced Free Radical Reactions for Organic Synthesis  ,,,,Hideo Togo,2004,1,Elsevier Science,,271,0,English ,,,2011 12 30,"0080443745,9780080443744",,,,,541/.224,QD471 . T74 2004,,,OL3326124M,,0,,,,,1,,1,5005069,pdf,0D28048BE79C0286B9F525311C44FD28,,,_454007.0d28048be79c0286b9f525311c44fd28.pdf,0,2000-01-01 01:00:00,2016-04-03 02:51:08,725000/0d28048be79c0286b9f525311c44fd28-d.jpg,,
22020270,"Spinors, Spectral Geometry, and Riemannian Submersions  ",,Suhak kangĭurok,,"Peter B. Gilkey, John V. Leahy, JeongHyeong Park",1998,,"Seoul National University, Research Institute of Mathematics, Global Analysis Research Center",,142,0,English ,,,2011 12 30,,,,,,,,,,,,0,,,,0,1,0,1,841856,pdf,0D284AA0D41409883C79308B82AFA0DA,,,_444794.0d284aa0d41409883c79308b82afa0da.pdf,0,2000-01-01 01:00:00,2016-04-03 02:51:08,725000/0d284aa0d41409883c79308b82afa0da-g.jpg,,
22020271,Wprowadzenie do obliczeń równoległych  ,,,,Zbigniew Czech,2010,,PWN,,293,0,Polish ,,,2011 12 30,9788301163846,,,,,,,,,,,0,,,,,1,,0,135080866,pdf,0D284B1151D4CB36CD27BF8676AD28BC,,,_475105.0d284b1151d4cb36cd27bf8676ad28bc.pdf,0,2000-01-01 01:00:00,2016-04-03 02:51:08,725000/0d284b1151d4cb36cd27bf8676ad28bc-g.jpg,,
22020272,The World Told and the World Shown: Multisemiotic Issues  ,,,,"Eija Ventola, A. Jesus Moya Guijjaro",2009,,Palgrave Macmillan,,312,0,English ,,,2011 12 30,"0230576354,9780230576353",,,,,401/.41,P302.84 .W68 2009,,,OL23862159M,,0,,,,1,0,1,1,6054126,pdf,0D28D7DE449B07454D97151EA6E51414,,,_432951.0d28d7de449b07454d97151ea6e51414.pdf,0,2000-01-01 01:00:00,2016-04-03 02:51:08,725000/0d28d7de449b07454d97151ea6e51414-d.jpg,,
22020273,Sinnesrauschen #1 - Ginas Bar  ,,,,Emilia Jones,2011,,Chichili Agency,,,0,German ,,,2011 12 30,9783845003795,,,,,,,,,,,0,,,,,0,0,1,267235,epub,0D2B37BDBE3CB4A61FA9D4B9A17482B1,,,_497737.0d2b37bdbe3cb4a61fa9d4b9a17482b1.epub,0,2000-01-01 01:00:00,2016-04-03 02:51:08,725000/0D2B37BDBE3CB4A61FA9D4B9A17482B1-g.jpg,,
22020274,"The Challenge of Transition: Trade Unions in Russia, China and Vietnam (Non-Governmental Public Action)  ",,,,"Simon Clarke, Tim Pringle",2011,1,Palgrave Macmillan,,229,0,English ,,,2011 12 30,"0230233309,9780230233300",,,,,,,,6pnKbwAACAAJ,,,0,,,,1,0,1,1,1838533,pdf,0D2B86D47C6067EFC730D58EDCDFBA09,,,_474386.0d2b86d47c6067efc730d58edcdfba09.pdf,0,2000-01-01 01:00:00,2016-04-03 02:51:08,725000/0d2b86d47c6067efc730d58edcdfba09-d.jpg,,
22020275,See How It’s Made  ,,,,Dorling Kindersley,2007,,Dorling Kindersley,,97,0,English ,,,2011 12 30,"1405319127,9781405319126",,,,,,,,-JVASNVWjj8C,,,0,,,,,1,,1,48838771,pdf,0D2CD3A86F2D49A26868BEC963B23069,,,_493550.0d2cd3a86f2d49a26868bec963b23069.pdf,0,2000-01-01 01:00:00,2016-04-03 02:51:08,725000/0d2cd3a86f2d49a26868bec963b23069-d.jpg,,
22020276,The Alexandria Link  ,,Cotton Malone 2,,Steve Berry,,,,,,0,English ,,,2011 12 30,,,,,,,,,,,,0,,,,,1,1,1,482214,epub,0D2D5784AA1DE65AEE8BE41D67DF0076,,,_475565.0d2d5784aa1de65aee8be41d67df0076.epub,0,2000-01-01 01:00:00,2016-04-03 02:51:08,725000/0D2D5784AA1DE65AEE8BE41D67DF0076-g.jpg,,
22020277,A-Z of Digital Photography  ,,,,OLYMPUS,,,,,28,0,English ,,,2011 12 30,,,,,,,,,,,,0,,,,,1,,1,724007,pdf,0D2F2901D29911975591CA7380C01304,,,_431421.0d2f2901d29911975591ca7380c01304.pdf,0,2000-01-01 01:00:00,2016-04-03 02:51:08,725000/0d2f2901d29911975591ca7380c01304-g.jpg,,
22020278,Israel Vs. Hamas  ,,(The Middle East in Turmoil),,Nejc Kardelj - Editor,2010,,Nova Science Pub Inc,,194,0,English ,,,2011 12 30,"9781614701767,1607415186,9781607415183",,,,,956.9405/4,DS119.76 .I8217 2009,,,OL23687335M,,0,,,,1,0,1,1,1652385,pdf,0D2FF1A25E68BDAFAC6A545066C4C508,,,_511126.0d2ff1a25e68bdafac6a545066c4c508.pdf,0,2000-01-01 01:00:00,2016-04-03 02:51:08,725000/0d2ff1a25e68bdafac6a545066c4c508-d.jpg,,
22020279,Franny and Zooey  ,,,,J.D. Salinger,1981,,Bantam,,88,0,English ,,,2011 12 30,"0553203487,9780553203486",,,,,,,,,OL21977308M,,0,,,,,1,0,1,646333,pdf,0D3055D44206180B74EADC4DD9AD8523,,,_431463.0d3055d44206180b74eadc4dd9ad8523.pdf,0,2000-01-01 01:00:00,2016-04-03 02:51:08,725000/0d3055d44206180b74eadc4dd9ad8523-g.jpg,,
22020280,Probabilistic Databases (Synthesis Lectures on Data Management)  ,,,,"Dan Suciu, Dan Olteanu, Christopher Ré, Christoph Koch",2011,1,Morgan & Claypool Publishers,,182,0,English ,,,2011 12 30,"1608456803,9781608456802",,,,,,,10.2200/S00362ED1V01Y201105DTM016,,,,0,,,,,1,1,1,3235321,pdf,0D3322515712C2BA5D551A24EEDDDEEF,,,_442753.0d3322515712c2ba5d551a24eedddeef.pdf,0,2000-01-01 01:00:00,2016-04-03 02:51:08,725000/0d3322515712c2ba5d551a24eedddeef-d.jpg,,
22020281,Jane Austen's Novels: A Study in Structure  ,,,,Andrew H. Wright,1962,1,,,104,0,English ,,,2011 12 30,,,,,,823.6 A933. Yw-j 1962,PR4037 .W7,,AqLyAAAAMAAJ&am,,,0,,,,0,1,0,0,60928613,pdf,0D34940FF13CECF12816DAE2FA02CBA1,,,_499493.0d34940ff13cecf12816dae2fa02cba1.pdf,0,2000-01-01 01:00:00,2016-04-03 02:51:08,725000/0d34940ff13cecf12816dae2fa02cba1-g.jpg,,
22020282,Auf Ehre und Gewissen  ,,,,Elizabeth George,1990,,Bertelsmann,,465,0,German ,,,2011 12 30,,,,,,,,,,,,0,,,,1,0,1,1,1624308,pdf,0D34A12EA0525B984EAFAD40CE6E5D15,,,_449588.0d34a12ea0525b984eafad40ce6e5d15.pdf,0,2000-01-01 01:00:00,2016-04-03 02:51:08,725000/0d34a12ea0525b984eafad40ce6e5d15-g.jpg,,
22020283,Overcoming Unexplained Neurological Symptoms: A Five Areas Approach  ,,,,"Chris Williams, Dr. Sharon Smith, Professor M. Sharpe, Catriona Kent",2011,,Hodder Arnold Publishers,,311,0,English ,,,2011 12 30,"1444138340,9781444138344",,,,,,,,QKvrTgEACAAJ,,,0,,,,1,0,1,1,2769475,pdf,0D351B1905458009ACC832C370FDC39C,,,_506948.0d351b1905458009acc832c370fdc39c.pdf,0,2000-01-01 01:00:00,2016-04-03 02:51:08,725000/0d351b1905458009acc832c370fdc39c-d.jpg,,
22020284,Bass Grooves: Develop Your Groove and Play Like the Pros in Any Style  ,,,,Friedland Ed,2004,,Backbeat Books,,112,0,English ,,,2011 12 30,"0879307773,9780879307776",,,,,,,,,OL8128573M,,0,,,,1,1,0,0,77420366,pdf,0D366CFC32C6E9E09D942DDC3FAE7F3F,,,_478502.0d366cfc32c6e9e09d942ddc3fae7f3f.pdf,0,2000-01-01 01:00:00,2016-04-03 02:51:08,725000/0d366cfc32c6e9e09d942ddc3fae7f3f-d.jpg,,
22020285,"Le Corbusier - Oeuvre complete, Vol. 8 - 1965-1969.pdf  ",,,,"Willy Boesiger, Oscar Stonorov, Max Bill",,,,,188,0,German ,,,2011 12 30,,,,,,,,,,,,0,,,,,1,,0,74236517,pdf,0D38649ECFC12B4589D5A64014F424E8,,,_496373.0d38649ecfc12b4589d5a64014f424e8.pdf,0,2000-01-01 01:00:00,2016-04-03 02:51:08,725000/0d38649ecfc12b4589d5a64014f424e8-g.jpg,,
22020286,International Perspectives on Youth Conflict and Development  ,,,,Colette Daiute,2006,1,Oxford University Press,,357,0,English ,,,2011 12 30,"0195178424,9780195178425",,,,,,,,lZz88HM-Ug0C,OL7391386M,,0,,,,1,1,1,1,20632917,pdf,0D38ACEA498A37F1209DA708734F7197,,,_488512.0d38acea498a37f1209da708734f7197.pdf,0,2000-01-01 01:00:00,2016-04-03 02:51:08,725000/0d38acea498a37f1209da708734f7197-d.jpg,,
22020287,The Betrayal of the Blood Lily  ,,Pink Carnation 6,,Lauren Willig,2010,,NAL,,,0,English ,,,2011 12 30,9781101163221,,,,,,,,,OL24312998M,,0,,,,0,0,1,1,531527,epub,0D3B78710E56153F74AF86B4C430FAA0,,,_447699.0d3b78710e56153f74af86b4c430faa0.epub,0,2000-01-01 01:00:00,2016-04-03 02:51:08,725000/0D3B78710E56153F74AF86B4C430FAA0-g.jpg,,
22020288,A Most Dangerous Profession  ,,,,Karen Hawkins,2011,,Pocket Books,,133,0,English ,,,2011 12 30,"1439176027,9781439176023",,,,,,,,pa6Va4QCiqIC,,,0,,,,,1,,1,1925420,pdf,0D3BAB217161165359A28732B82C35FE,,,_513917.0d3bab217161165359a28732b82c35fe.pdf,0,2000-01-01 01:00:00,2016-04-03 02:51:08,725000/0d3bab217161165359a28732b82c35fe-g.jpg,,
22020289,जोह्न्नी अप्प्लेसीद  ,,,,आलीकी,2005,,"Kaza Kaza Maru Prakashan, Pune, India",,33,0,Marathi,,,2011 12 30,,,,,,,,,,,,0,,,,,1,,1,932914,pdf,0D3BEBDE06F1D3C0CB228DFDC71532EA,,,_462723.0d3bebde06f1d3c0cb228dfdc71532ea.pdf,0,2000-01-01 01:00:00,2016-04-03 02:51:08,725000/0d3bebde06f1d3c0cb228dfdc71532ea-g.jpg,,
22020290,Manipulating Quantum Structures Using Laser Pulses  ,,,,Bruce W. Shore,2011,1,Cambridge University Press,,588,0,English ,,,2011 12 30,"0521763576,9780521763578",,,,,539.7/56,QC794.6.E9 S56 2011,,,OL25162188M,,0,,,,1,0,1,1,5748912,pdf,0D3C5042AE3387719681B5E8DF708B20,,,_511332.0d3c5042ae3387719681b5e8df708b20.pdf,0,2000-01-01 01:00:00,2016-04-03 02:51:08,725000/0d3c5042ae3387719681b5e8df708b20-d.jpg,,
22020291,The Eternal Ones: What If Love Refused to Die?  ,,The Eternal Ones 1,,Kirsten Miller,2010,,Razorbill,,,0,English ,,,2011 12 30,9781101460030,,,,,,,,,,,0,,,,0,0,1,1,420990,epub,0D3C67A21774000270C5C8F961E5EDD2,,,_439567.0d3c67a21774000270c5c8f961e5edd2.epub,0,2000-01-01 01:00:00,2016-04-03 02:51:08,725000/0D3C67A21774000270C5C8F961E5EDD2-g.jpg,,
22020292,"Mais Oui!, Enhanced Fourth Edition  ",,,,"Chantal Thompson, Elaine Phillips",2010,4,Heinle,,550,0,English ,,,2011 12 30,"0495909017,9780495909019",,,,,,,,,,,0,,,,,1,1,1,61467931,pdf,0D3CA4D2F3A8EB3A6E57B06C4A978364,,,_457660.0d3ca4d2f3a8eb3a6e57b06c4a978364.pdf,0,2000-01-01 01:00:00,2016-04-03 02:51:08,725000/0d3ca4d2f3a8eb3a6e57b06c4a978364-d.jpg,,
22020293,Geografia fizică a României (Date generale. Pozitie geografica. Relief)  ,,,,Grigore Posea,2006,,Editura Fundaţiei România de Mâine,,263,0,"Romanian,Moldavian,Moldovan",,,2011 12 30,"9789737257116,9789737257123",,,,,,,,,,,0,,,,1,1,,1,10881544,pdf,0D3D0B96A9E85E11D932EDEF2896C316,,,_477476.0d3d0b96a9e85e11d932edef2896c316.pdf,0,2000-01-01 01:00:00,2016-04-03 02:51:08,725000/0d3d0b96a9e85e11d932edef2896c316-g.jpg,,
22020294,Nunca Desista de seus Sonhos  ,,,,Augusto Cury,2004,1,Sextante,,83,0,Portuguese ,,,2011 12 30,"8575421492,9788575421499",,,,,,,,,OL9164551M,,0,,,,,1,,1,745724,pdf,0D3F1AC35052F2D8F5BBAA651F8968F9,,,_509930.0d3f1ac35052f2d8f5bbaa651f8968f9.pdf,0,2000-01-01 01:00:00,2016-04-03 02:51:08,725000/0d3f1ac35052f2d8f5bbaa651f8968f9-d.jpg,,
22020295,"Africa and the Americas: Culture, Politics, and History (Transatlantic Relations) volume 1, 2, and 3 ",,,,"Richard M. Juang, Noelle Morrissette",2008,,ABC-CLIO,,1303,0,English ,,,2011 12 30,"1851094415,9781851094417",,,,,303.48/2706,DT31 .A43 2008,,0xYZAQAAIAAJ,OL11949316M,,0,,,,,1,1,1,8708884,pdf,0D3FC8859F203B53CC766A997E084043,,,_460093.0d3fc8859f203b53cc766a997e084043.pdf,0,2000-01-01 01:00:00,2016-04-03 02:51:08,725000/0d3fc8859f203b53cc766a997e084043-d.jpg,,
22020296,Communities of Peace: Confronting Injustice and Creating Justice. (Value Inquiry Book Series)  ,,Value Inquiry Book Series,,Danielle Poe,2011,,Rodopi,,113,0,English ,,,2011 12 30,"9042033355,9789042033351,9789401200356",,,,,,,,,OL25011883M,,0,,,,1,0,1,1,704248,pdf,0D404252CA41F68D0CCA76CBB7750F3D,,,_464952.0d404252ca41f68d0cca76cbb7750f3d.pdf,0,2000-01-01 01:00:00,2016-04-03 02:51:08,725000/0d404252ca41f68d0cca76cbb7750f3d-d.jpg,,
22020297,"Feynman-Vorlesungen über Physik: Band I: Mechanik, Strahlung, Wärme. Definitive Edition: Bd 1  ",,,,"Richard P. Feynman, Robert B. Leighton, Matthew Sands",2007,5,Oldenbourg,,798,0,German ,,,2011 12 30,"3486581082,9783486581089",,,,,530,,,,,,300,,,,0,1,1,1,37529534,djvu,0D40758D1B3572242E1AB0C7263B5EAA,,,_507813.0d40758d1b3572242e1ab0c7263b5eaa.djvu,0,2000-01-01 01:00:00,2016-04-03 02:51:08,725000/0d40758d1b3572242e1ab0c7263b5eaa-d.jpg,,
22020298,You Only Live Twice  ,,James Bond Novels,,Ian Fleming,2003,,Penguin (Non-Classics),,,0,English ,,,2011 12 30,"0142003271,9780142003275",,,,,823/.914,PR6056.L4 Y68 2003,,,OL3684387M,,0,,,,0,0,0,1,306122,mobi,0D40A123BDCB2DF01C4C189D9A83FE82,,,_502468.0d40a123bdcb2df01c4c189d9a83fe82.mobi,0,2000-01-01 01:00:00,2016-04-03 02:51:08,725000/0d40a123bdcb2df01c4c189d9a83fe82-d.jpg,,
22020299,Art  ,,Discovering Careers,,Facts on File Inc.,2011,1,Ferguson Publishing,,129,0,English ,,,2011 12 30,"0816080550,9780816080557,9781438139074",,,,,700.23,NX163 .A73 2011,,B1bcRgAACAAJ,OL24858174M,,0,,,,1,0,1,1,14712857,pdf,0D4318CD2EA24BD9FF45B3D35333B6A8,,,_513925.0d4318cd2ea24bd9ff45b3d35333b6a8.pdf,0,2000-01-01 01:00:00,2016-04-03 02:51:08,725000/0d4318cd2ea24bd9ff45b3d35333b6a8-d.jpg,,
22020300,История зарубежной литературы: Предромантизм  ,,,,Соловьева Н.А.,2005,,Издательский центр «Академия»,,274,0,Russian ,,,2011 12 30,"5769517360,9785769517365",,,,,,,,,,,0,,,,,1,1,1,4811944,djvu,0D4323F6E68B566190AEF82D3061A91D,,,_433014.0d4323f6e68b566190aef82d3061a91d.djvu,0,2000-01-01 01:00:00,2016-04-03 02:51:08,725000/0d4323f6e68b566190aef82d3061a91d-d.jpg,,
22020301,Magic in the Blood  ,,,,Devon Monk,,1 Original,Roc,,,0,English ,,,2011 12 30,"045146267X,9780451462671",,,,,813/.54,PS3613.O5293 M33 2009,,6yWYQz0E7FsC,OL24967828M,,0,,,,,1,,,446708,mobi,0D437CCBD55A4E88FD6B47305DC075A9,,,_498205.0d437ccbd55a4e88fd6b47305dc075a9.mobi,0,2000-01-01 01:00:00,2016-04-03 02:51:08,725000/0d437ccbd55a4e88fd6b47305dc075a9-d.jpg,,
22020302,Organised crime  ,,,,Alan Wright,2006,,Willan Pub.,Cullompton,257,0,English ,,,2011 12 30,"1-84392-140-5,978-1-84392-140-0,9781843926450,1-84392-141-3,978-1-84392-141-7,1843926458",,,,,364.106,,,vWQmx84lZeIC,OL22717926M,,0,,,,,1,,1,1936835,pdf,0D441FDCBB0A889EC2766D114235966A,,,_469444.0d441fdcbb0a889ec2766d114235966a.pdf,0,2000-01-01 01:00:00,2016-04-03 02:51:08,725000/0d441fdcbb0a889ec2766d114235966a-d.jpg,,
22020303,Teaching with Integrity: The Ethics of Higher Education Practice  ,,,,Bruce Macfarlane,2003,1,Routledge,London ; New York,193,0,English ,,,2011 12 30,"0-415-33508-6,9780415335089,9780203416501,0-415-33509-4,0-203-41650-3,0-203-43863-9",,,,,174/.937,LB1779 .M32 2003,,,OL3676080M,,0,,,,,1,,1,1568627,pdf,0D458A6949BFA11C0A1D5341FD0BF549,,,_447991.0d458a6949bfa11c0a1d5341fd0bf549.pdf,0,2000-01-01 01:00:00,2016-04-03 02:51:08,725000/0d458a6949bfa11c0a1d5341fd0bf549-d.jpg,,
22020304,Diccionario italiano-galego  ,,,,"González, Isabel",2000,,Xunta de Galicia,,701,0,Galician ,,,2011 12 30,"8445329375,9788445329375",,,,,,,,,,,0,,,,0,1,0,1,7082229,pdf,0D45DBE330973DB016966604F913EB1D,,,_456060.0d45dbe330973db016966604f913eb1d.pdf,0,2000-01-01 01:00:00,2016-04-03 02:51:08,725000/0d45dbe330973db016966604f913eb1d-g.jpg,,
22020305,Athena the Brain (Goddess Girls)  ,,Goddess Girls,,"Joan Holub, Suzanne Williams",2010,Original,Aladdin,,,0,English ,,,2011 12 30,"141698271X,9781416982715",,,,,,,,Is0Ny0V0_8gC,OL23397203M,,0,,,,0,0,1,1,2287908,epub,0D463EDA0A71008BCCAC9EC3CC010A0E,,,_502443.0d463eda0a71008bccac9ec3cc010a0e.epub,0,2000-01-01 01:00:00,2016-04-03 02:51:08,725000/0d463eda0a71008bccac9ec3cc010a0e-d.jpg,,
22020306,Fotoschule: Das Franzis Praxisbuch. Einfach besser fotografieren  ,,,,Christian Haasz,2010,,Franzis Verlag GmbH,,193,0,German ,,,2011 12 30,"3645600698,9783645600699",,,,,,,,CNO3SgAACAAJ,,,0,,,,,1,1,1,11986434,pdf,0D46DDB0201D44283AFA15182E7D38E3,,,_513946.0d46ddb0201d44283afa15182e7d38e3.pdf,0,2000-01-01 01:00:00,2016-04-03 02:51:08,725000/0d46ddb0201d44283afa15182e7d38e3-d.jpg,,
22020307,"The Biblical Antiquities of Philo, with Prolegomenon  ",,"Translations of Early Documents, Series I. Palestinian Jewish Texts; Library of Biblical Studies",,Pseudo-Philo; M. R. James; Louis H. Feldman,1971,,Ktav Publishing House,,445,0,English ,,,2011 12 30,"0870680692,9780870680694",,,,,221.95,BS1197 .P5 1971,,,OL5682174M,,600,,,,1,1,1,1,30718085,pdf,0D4823CE3DD5F46BD3268EB5141F1E2D,,,_491791.0d4823ce3dd5f46bd3268eb5141f1e2d.pdf,0,2000-01-01 01:00:00,2016-04-03 02:51:08,725000/0d4823ce3dd5f46bd3268eb5141f1e2d-g.jpg,,
22020308,Last Car to Annwn Station  ,,,,Michael Merriam,2011,,Carina Press,,,0,English ,,,2011 12 30,,,ISBN10:B004XVSXFQ,,,,,,,,,0,,,,,1,1,1,382086,epub,0D4947E759FED6C24198E2F2953D466F,,,_465703.0d4947e759fed6c24198e2f2953d466f.epub,0,2000-01-01 01:00:00,2016-04-03 02:51:08,725000/0D4947E759FED6C24198E2F2953D466F-g.jpg,,
22020309,Maqasid Shari’ah Made Simple  ,,,,Mohammad Hashim Kamali,,,,,18,0,English ,,,2011 12 30,,,,,,,,,,,,0,,,,,1,,1,184260,pdf,0D4A3B21BA019A0510598B8735D64A1E,,,_496016.0d4a3b21ba019a0510598b8735d64a1e.pdf,0,2000-01-01 01:00:00,2016-04-03 02:51:08,725000/0d4a3b21ba019a0510598b8735d64a1e-g.jpg,,
22020310,"Race, Rhetoric, and the Postcolonial  ",,,,"Gary A. Olson, Lynn Worsham",1998,,State University of New York Press,,272,0,English ,,,2011 12 30,"0791441741,9780791441749,0585064385,9780585064383",,,,,808,P301.5.P67R33 1999eb,,,OL7802103M,,0,,,,0,1,0,1,1264615,pdf,0D4B0D0B9C586241003650EB46B809E9,,,_472905.0d4b0d0b9c586241003650eb46b809e9.pdf,0,2000-01-01 01:00:00,2016-04-03 02:51:08,725000/0d4b0d0b9c586241003650eb46b809e9-d.jpg,,
22020311,The Hundred Dresses  ,,,,Eleanor Estes,2004,,Houghton Mifflin Harcourt,,12,0,English ,,,2011 12 30,"0152052607,9780152052607",,,,,,,,,,,0,,,,,1,,1,149089,pdf,0D4B32392BC88110BB25CF3649CCD848,,,_512048.0d4b32392bc88110bb25cf3649ccd848.pdf,0,2000-01-01 01:00:00,2016-04-03 02:51:08,725000/0d4b32392bc88110bb25cf3649ccd848-d.jpg,,
22020312,A Book of Mediterranean Food  ,,,,Elizabeth David,2002,2nd,New York Review Books,,,0,English ,,,2011 12 30,"1590170032,9781590170038",,,,,641.59/11822,TX725 .D36 2002,,,OL21598227M,,0,,,,,1,,,5856598,mobi,0D4C16B63D996FC1FD5E19CAADCBDFD7,,,_513214.0d4c16b63d996fc1fd5e19caadcbdfd7.mobi,0,2000-01-01 01:00:00,2016-04-03 02:51:08,725000/0d4c16b63d996fc1fd5e19caadcbdfd7-d.jpg,,
22020313,Can Threatened Languages Be Saved?  ,,Multilingual matters 116,,Joshua A. Fishman,2001,2,Multilingual Matters,,520,0,English ,,,2011 12 30,"185359492X,9781853594922,1853594938,9781853594939",,,,,306.4/4,P40.5.L28 C36 2001,,oScUXmAkRXIC,OL6779572M,,0,,,,1,0,1,1,1611147,pdf,0D4F7DA7A7186409F10BC5B9EAE17961,,,_464173.0d4f7da7a7186409f10bc5b9eae17961.pdf,0,2000-01-01 01:00:00,2016-04-03 02:51:08,725000/0d4f7da7a7186409f10bc5b9eae17961-d.jpg,,
22020314,A2 Law for Ocr  ,,,,Sally Russell,2006,,Longman,Harlow,569,0,English ,,,2011 12 30,"1405835516,9781405835510,9781405891165,1405891165",,,,,,,,OU08N3_S120C,,,0,,,,,0,0,1,26389154,pdf,0D508796A4BB53728EC9A2E45D8CACE2,,,_446382.0d508796a4bb53728ec9a2e45d8cace2.pdf,0,2000-01-01 01:00:00,2016-04-03 02:51:08,725000/0d508796a4bb53728ec9a2e45d8cace2-d.jpg,,
22020315,The Metric Theory of Tensor Products: Grothendieck's Résumé Revisited  ,,,,"Joe Diestel, Jan H. Fourie, Johan Swart",2008,,American Mathematical Society,,290,0,English ,,,2011 12 30,"0821844407,9780821844403",,,,,515/.732,QA322.2 .D533 2008,,VBg5cGSngRoC,OL16365838M,,0,,,,0,1,1,1,2834515,djvu,0D50F17A68BB7106179B2B4F24E5BA4F,,,_460268.0d50f17a68bb7106179b2b4f24e5ba4f.djvu,0,2000-01-01 01:00:00,2016-04-03 02:51:08,725000/0d50f17a68bb7106179b2b4f24e5ba4f-d.jpg,,
22020316,Bagaimana Memulakan Perniagaan  ,,,,Jamaluddin bin Che Sab,,,,,109,0,Malay ,,,2011 12 30,"9833586090,9789833586097",,,,,,,,,,,0,,,,,1,,0,15062192,pdf,0D54A586B696553C3DD9F681E4C9650F,,,_501225.0d54a586b696553c3dd9f681e4c9650f.pdf,0,2000-01-01 01:00:00,2016-04-03 02:51:08,725000/0d54a586b696553c3dd9f681e4c9650f-g.jpg,,
22020317,Technique of the Saxophone - Volume 3: Rhythm Studies  ,,,,Joseph Viola,1986,,Berklee Press Publications,,131,0,English ,,,2011 12 30,"0793554284,9780793554287",,,,,,,,,OL7814014M,,0,,,,,1,,0,16090016,pdf,0D54BFA6F2891F19BAF913F23569BF1C,,,_462095.0d54bfa6f2891f19baf913f23569bf1c.pdf,0,2000-01-01 01:00:00,2016-04-03 02:51:08,725000/0d54bfa6f2891f19baf913f23569bf1c-d.jpg,,
22020318,A History of Deeds Done Beyond the Sea Volume 2 (Records of Civilization: Sources and Studies)  ,,,,"William, Archbishop of Tyre",1943,,Columbia University Press,,563,0,English ,,,2011 12 30,"0374903204,9780374903206",,,,,909.07,D152 .G78 1976,,,OL5215606M,,0,,,,,1,1,0,123711331,pdf,0D56B873140673B9F2DDF0E71A184560,,,_463908.0d56b873140673b9f2ddf0e71a184560.pdf,0,2000-01-01 01:00:00,2016-04-03 02:51:08,725000/0d56b873140673b9f2ddf0e71a184560-g.jpg,,
22020319,The Gamekeeper at Home: Sketches of Natural History and Rural Life  ,,,,Richard Jefferies,2009,1,Cambridge University Press,,229,0,English ,,,2011 12 30,"1108004105,9781108004107",,,,,353,,,,,,0,,,,,1,1,1,6171181,pdf,0D5718C0C90AECF69FB159DC43D4B3E3,,,_502597.0d5718c0c90aecf69fb159dc43d4b3e3.pdf,0,2000-01-01 01:00:00,2016-04-03 02:51:08,725000/0d5718c0c90aecf69fb159dc43d4b3e3-d.jpg,,
22020320,The money answer book: quick answers to your everyday financial questions  ,,,,Dave Ramsey,2004,,Thomas Nelson Inc,,185,0,English ,,,2011 12 30,"0849996198,9780849996191",,,,,332.024,HG179 .R3154 2004,,xZ1LoGfsYosC,OL3439417M,,0,,,,0,0,1,1,605751,epub,0D584694648FDF357A7B680D90513E63,,,_478651.0d584694648fdf357a7b680d90513e63.epub,0,2000-01-01 01:00:00,2016-04-03 02:51:08,725000/0d584694648fdf357a7b680d90513e63-d.jpg,,
22020321,"Blood Noir (Anita Blake, Vampire Hunter, Book 16)  ",,,,Laurell K. Hamilton,2008,1,Berkley Hardcover,,,0,English ,,,2011 12 30,"0425222195,9780425222195",,,,,813/.54,PS3558.A443357 B57 2008,,,OL10216545M,,0,,,,0,0,0,1,445353,mobi,0D59963BF428A32D31AFDCE0C7F2DAD6,,,_505755.0d59963bf428a32d31afdce0c7f2dad6.mobi,0,2000-01-01 01:00:00,2016-04-03 02:51:08,725000/0d59963bf428a32d31afdce0c7f2dad6-d.jpg,,
22020322,The Parthenon Inscription  ,,"Greek, Roman, and Byzantine Monographs 9",,Kevin K. Carroll,1982,,"Greek, Roman, and Byzantine Studies",,44,0,English ,,,2011 12 30,,,,,,,,,,,,0,,,,0,1,0,1,3050252,pdf,0D5A4B2FCEFB23DD3C558582CCD2E16A,,,_436494.0d5a4b2fcefb23dd3c558582ccd2e16a.pdf,0,2000-01-01 01:00:00,2016-04-03 02:51:08,725000/0d5a4b2fcefb23dd3c558582ccd2e16a-g.jpg,,
22020323,A Pocket Guide to Risk Mathematics: Key Concepts Every Auditor Should Know  ,,,,Matthew Leitch,2010,1,John Wiley and Sons,,202,0,English ,,,2011 12 30,"0470710527,9780470710524",,,,,,,,f8GrzlnMSm8C,,,0,,,,1,0,1,1,3110531,pdf,0D5BBBB2C52F43728775EDC87747D845,,,_474990.0d5bbbb2c52f43728775edc87747d845.pdf,0,2000-01-01 01:00:00,2016-04-03 02:51:08,725000/0d5bbbb2c52f43728775edc87747d845-d.jpg,,
22020324,Woven Textile Structure: Theory and Applications (Woodhead Publishing Series in Textiles)  ,,,,"B. K. Behera, P. K. Hari",2010,,CRC Press,,462,0,English ,,,2011 12 30,"1439831165,9781439831168",,,,,,,,,,,0,,,,0,1,0,1,12426824,pdf,0D5BEAF573FCAF7BDCA65ECECD0DDB5F,,,_500764.0d5beaf573fcaf7bdca65ececd0ddb5f.pdf,0,2000-01-01 01:00:00,2016-04-03 02:51:08,725000/0d5beaf573fcaf7bdca65ececd0ddb5f-d.jpg,,
22020325,On the Margins of Modernism: Decentering Literary Dynamics  ,,"Contraversions: Critical Studies in Jewish Literature, Culture, and Society 2",,Chana Kronfeld,1996,,University of California Press,,302,0,English ,,,2011 12 30,"0520083474,9780520083479,0520083466,9780520083462",,,,,809.104,,,kO2t7HYXuAoC,OL22603599M,,0,,,,1,0,1,1,2630121,pdf,0D5C4E807FA6FE2FCD85B9526C2357A9,,,_468113.0d5c4e807fa6fe2fcd85b9526c2357a9.pdf,0,2000-01-01 01:00:00,2016-04-03 02:51:08,725000/0d5c4e807fa6fe2fcd85b9526c2357a9-d.jpg,,
22020326,Journal of Chiropractic Medicine- Volume 9(1); March 2010  ,,,,"Claire Johnson, MSEd, DC, DACBSP",,,,,45,0,English ,,,2011 12 30,,,,,,,,10.1016/j.jcm.2010.01.002,,,periodic,0,,,,0,1,1,1,2250174,pdf,0D5DF3B414011A4EC7C58B3133EE0DD4,,ban,_431555.0d5df3b414011a4ec7c58b3133ee0dd4.pdf,0,2000-01-01 01:00:00,2016-04-03 02:51:08,725000/0d5df3b414011a4ec7c58b3133ee0dd4-g.jpg,,
22020327,Restoring the Innovative Edge: Driving the Evolution of Science and Technology (Innovation and Technology in the World E)  ,,,,Jerry Hage,2011,,Stanford Business Books,,327,0,English ,,,2011 12 30,"080477479X,9780804774796",,,,,658.5/7,HC110.T4 H34 2011,,,OL25085142M,,0,,,,,1,1,1,2599987,pdf,0D5E3D245A6F8029B020E4B6AFC15EA4,,,_492187.0d5e3d245a6f8029b020e4b6afc15ea4.pdf,0,2000-01-01 01:00:00,2016-04-03 02:51:08,725000/0d5e3d245a6f8029b020e4b6afc15ea4-d.jpg,,
22020328,"Neuro-ophthalmology, An Issue of Neurologic Clinics (The Clinics: Internal Medicine)  ",,,,"Andrew G. Lee MD, Paul W. Brazis MD",2010,1st Edition,Saunders,,270,0,English ,,,2011 12 30,"1437724671,9781437724677",,,,,617.7,,,,,,0,,,,1,0,1,1,21384713,pdf,0D5E5E4CFCF1E4E50A478EC4A384E54F,,,_507042.0d5e5e4cfcf1e4e50a478ec4a384e54f.pdf,0,2000-01-01 01:00:00,2016-04-03 02:51:08,725000/0d5e5e4cfcf1e4e50a478ec4a384e54f-d.jpg,,
22020329,"Intertemporal Macroeconomic Models, Money and Rational Choices  ",,,,Giusep Chirichiello,2000,,Palgrave Macmillan,,289,0,English ,,,2011 12 30,"0333778146,9780333778142",,,,,,,,,,,0,,,,1,0,1,1,4069468,pdf,0D5FA3707AB619B909FEC9A4CC73027C,,,_471402.0d5fa3707ab619b909fec9a4cc73027c.pdf,0,2000-01-01 01:00:00,2016-04-03 02:51:08,725000/0d5fa3707ab619b909fec9a4cc73027c-d.jpg,,
22020330,Designing Writing Assignments  ,,,,Traci Gardner,2008,,Natl Council of Teachers,,125,0,English ,,,2011 12 30,"0814110851,9780814110850",,,,,808/.042071,PE1405.U6 G37 2008,,,OL16717882M,,0,,,,0,1,0,1,7073508,pdf,0D603D100480A432B258BD2EAF0D4E02,,,_441748.0d603d100480a432b258bd2eaf0d4e02.pdf,0,2000-01-01 01:00:00,2016-04-03 02:51:08,725000/0d603d100480a432b258bd2eaf0d4e02-d.jpg,,
22020331,La guerra in Europa dal rinascimento a Napoleone  ,,,,Alessandro Barbero,2003,,Carocci,,76,0,Italian ,,,2011 12 30,,,,,,,,,,,,0,,,,,1,1,1,437215,pdf,0D60A248E9C0DBCA29AB58D62A2955F3,,,_440922.0d60a248e9c0dbca29ab58d62a2955f3.pdf,0,2000-01-01 01:00:00,2016-04-03 02:51:08,725000/0d60a248e9c0dbca29ab58d62a2955f3-g.jpg,,
22020332,Ruling Myanmar: From Cyclone Nargis to National Elections  ,,,,"Nick Cheesman, Monique Skidmore, Trevor Wilson",2010,,Institute of Southeast Asian Studies,,368,0,English ,,,2011 12 30,"9814311472,9789814311472",,,,,,,,,OL25026679M,,0,,,,,1,1,1,6008837,pdf,0D6141EEE4A83D85D3321AB297F58586,,,_486011.0d6141eee4a83d85d3321ab297f58586.pdf,0,2000-01-01 01:00:00,2016-04-03 02:51:08,725000/0d6141eee4a83d85d3321ab297f58586-d.jpg,,
22020333,Journal of a UFO Investigator  ,,,,David Halperin,2011,,Penguin Group USA,,,0,English ,,,2011 12 30,9781101475652,,,,,,,,,,,0,,,,,1,1,,357877,epub,0D6201A1BFDAC1461A4640B61485BD9D,,,_439241.0d6201a1bfdac1461a4640b61485bd9d.epub,0,2000-01-01 01:00:00,2016-04-03 02:51:08,725000/0D6201A1BFDAC1461A4640B61485BD9D-g.jpg,,
22020334,Payment in Blood  ,,Inspector Lynley 2,,Elizabeth George,,,,,,0,English ,,,2011 12 30,,,,,,,,,,,"missing front material, poorly formatted",0,,,,0,0,0,1,432225,epub,0D6250E77925B9ADBC10EE0B921208DD,,,_475442.0d6250e77925b9adbc10ee0b921208dd.epub,0,2000-01-01 01:00:00,2016-04-03 02:51:08,725000/0D6250E77925B9ADBC10EE0B921208DD-g.jpg,,
22020335,American English File 4 Workbook  ,,,,"Clive Oxenden, Christina Latham-Koenig, Paul Seligson, Jane Hudson",2008,1,Oxford University Press,,79,0,English ,,,2011 12 30,"019477466X,9780194774666",,,,,,,,,,,0,,,,,1,,0,520543166,pdf,0D650808CB4DD652BDB3BBFC97270790,,,_499246.0d650808cb4dd652bdb3bbfc97270790.pdf,0,2000-01-01 01:00:00,2016-04-03 02:51:08,725000/0d650808cb4dd652bdb3bbfc97270790-d.jpg,,
22020336,"Trademark: Legal Care for Your Business & Product Name, 9th Edition  ",,,,"Stephen Elias, Richard Stim",2010,9th,Nolo,,468,0,English ,,,2011 12 30,"141331256X,9781413312560",,,,,346.7304/88,KF3180.Z9 E43 2010,,9bo4ChcbPoAC,OL24110793M,,0,,,,1,0,1,1,6600056,pdf,0D65FFB63E7A209D3DAC97C5655CA363,,,_512736.0d65ffb63e7a209d3dac97c5655ca363.pdf,0,2000-01-01 01:00:00,2016-04-03 02:51:08,725000/0d65ffb63e7a209d3dac97c5655ca363-d.jpg,,
22020337,The encyclopedia of creative cooking  ,,,,"Jane Solmson, Charlotte Snyder Turgeon",1982,1ST,Weathervane Books,,798,0,English ,,,2011 12 30,"0517309726,9780517309728",,,,,641.5,TX651 .S62 1982,,uKH9PAAACAAJ,OL4118749M,,0,,,,,1,1,1,136336455,pdf,0D662FE8E3745BB50DCB92D9B16DCB12,,,_502849.0d662fe8e3745bb50dcb92d9b16dcb12.pdf,0,2000-01-01 01:00:00,2016-04-03 02:51:08,725000/0d662fe8e3745bb50dcb92d9b16dcb12-d.jpg,,
22020338,Manual de Joyeria  ,,,,Stephen O'Keeffe,2005,,Acanto,,130,0,"Spanish,Castilian",,,2011 12 30,"8495376601,9788495376602",,,,,739.27,,,zKgMRAAACAAJ,OL13355185M,,0,,,,,1,1,0,73059390,pdf,0D674EF417C1B135569FBD227F4DBDEC,,,_502961.0d674ef417c1b135569fbd227f4dbdec.pdf,0,2000-01-01 01:00:00,2016-04-03 02:51:08,725000/0d674ef417c1b135569fbd227f4dbdec-d.jpg,,
22020339,ИРАНИСТИКА НА СЕВЕРНОМ КАВКАЗЕ  ,,,,Н.Г.-А. Мамед-заде,2009,,Центр иранистики факультета востоковедкния ДГУ,,192,0,Russian ,,,2011 12 30,,,,,,,,,,,,0,,,,1,1,0,1,2002084,pdf,0D6830CE9C4B68ACD91E88D5943E7709,,,_487820.0d6830ce9c4b68acd91e88d5943e7709.pdf,0,2000-01-01 01:00:00,2016-04-03 02:51:08,725000/0d6830ce9c4b68acd91e88d5943e7709-g.jpg,,
22020340,"An Elementary Treatise on Fourier's Series and Spherical, Cylindrical, and Ellipsoidal Harmonics, With Applications to Problems in Mathematical Physics  ",,,,William Elwood Byerly,2009,,BiblioBazaar,,309,0,English ,,,2011 12 30,"1116151464,9781116151466",,,,,,,,0zgZSwAACAAJ,,,0,,,,,1,,1,1393827,pdf,0D688A7FF96B0E2EFC8598EAB801126E,,,_437928.0d688a7ff96b0e2efc8598eab801126e.pdf,0,2000-01-01 01:00:00,2016-04-03 02:51:08,725000/0d688a7ff96b0e2efc8598eab801126e-d.jpg,,
22020341,Neurologie pro studium i praxi  ,,,,"Zdeněk Seidl, Jiří Obenberger",2004,,Grada Publishing,,355,0,Czech ,,,2011 12 30,"8024706237,9788024706238",,,,,,,,,,,0,,,,,0,1,1,20596485,pdf,0D6B5EF526EEEB320255F63466CCFCA1,,,_497273.0d6b5ef526eeeb320255f63466ccfca1.pdf,0,2000-01-01 01:00:00,2016-04-03 02:51:08,725000/0d6b5ef526eeeb320255f63466ccfca1-g.jpg,,
22020342,ABC of Allergies (ABC Series)  ,,ABC Series,,Stephen R. Durham,1998,1,BMJ Books,,47,0,English ,,,2011 12 30,"0727912364,9780727912367",,,,,,,,,OL7868362M,"No copyright pages, no TOC, no index",0,,,,0,0,1,1,1993796,pdf,0D6CAF3CC245E1594155222D8EB243A9,,,_455894.0d6caf3cc245e1594155222d8eb243a9.pdf,0,2000-01-01 01:00:00,2016-04-03 02:51:08,725000/0d6caf3cc245e1594155222d8eb243a9-d.jpg,,
22020343,Gold: The Final Science Fiction Collection (The Final Sci Fi Coll.)  ,,,,Isaac Asimov,1996,,Eos,,,0,English ,,,2011 12 30,"0061054097,9780061054099",,,,,,,,,OL7287017M,,0,,,,,1,,,433027,mobi,0D6D76A1CA2C067A8CE7FE0CA0B1D6E1,,,_475403.0d6d76a1ca2c067a8ce7fe0ca0b1d6e1.mobi,0,2000-01-01 01:00:00,2016-04-03 02:51:08,725000/0d6d76a1ca2c067a8ce7fe0ca0b1d6e1-d.gif,,
22020344,Understanding breast cancer genetics  ,,Understanding health and sickness,,Barbara T. Zimmerman,2004,,Univ. Press of Mississippi,,130,0,English ,,,2011 12 30,"157806578X,9781578065783,1578065798,9781578065790",,,,,,,,hhmYBBFwk5wC,OL9765901M,,0,,,,1,0,1,1,903605,pdf,0D6DAAB0E43D21DC06D6D4893ECCB6CE,,,_433768.0d6daab0e43d21dc06d6d4893eccb6ce.pdf,0,2000-01-01 01:00:00,2016-04-03 02:51:08,725000/0d6daab0e43d21dc06d6d4893eccb6ce-d.jpg,,
22020345,Handbook of Retinal Screening in Diabetes  ,,,,Roy Taylor,2006,1,John Wiley and Sons,"Chichester, England ; Hoboken, NJ",192,0,English ,,,2011 12 30,"0-470-02882-3,978-0-470-02882-7,9780470028841,9780470028858,0470028858,047002884X",,,,,,,,v4hb80Iu6xIC,OL7594863M,,0,,,,,1,,1,2413071,pdf,0D6DB20B564A572F57B0C2C199F664C8,,,_469328.0d6db20b564a572f57b0c2c199f664c8.pdf,0,2000-01-01 01:00:00,2016-04-03 02:51:08,725000/0d6db20b564a572f57b0c2c199f664c8-d.jpg,,
22020346,"Grundkurs Statistik in den Sozialwissenschaften, 5. Auflage  ",,,,Volker Müller-Benedict,2011,5,VS Verlag,,280,0,German ,,,2011 12 30,"3531180355,9783531180359",,,,,,,,9f5HvZomHhIC,,,0,,,,1,0,1,1,2040205,pdf,0D6E0491551516F4C3432206C30DAF9F,,,_433924.0d6e0491551516f4c3432206c30daf9f.pdf,0,2000-01-01 01:00:00,2016-04-03 02:51:08,725000/0d6e0491551516f4c3432206c30daf9f-d.jpg,,
22020347,"Power System Analysis and Design (SI Edition), Fifth Edition  ",,,,"J. Duncan Glover, Mulukutla S. Sarma, Thomas Overbye",2011,5th,Cengage Learning,,850,0,English ,,,2011 12 30,"1111425795,9781111425791",,,,,,,,jO9BYgEACAAJ,,,0,,,,1,0,1,1,16521334,pdf,0D6F773DA41DA789172D5E8FFFBCC579,,,_470056.0d6f773da41da789172d5e8fffbcc579.pdf,0,2000-01-01 01:00:00,2016-04-03 02:51:08,725000/0d6f773da41da789172d5e8fffbcc579-g.jpg,,
22020348,Istoria contemporană a României (1918-2007)  ,,,,Ioan Scurtu,2007,,Editura Fundatiei România de Mâine,,224,0,"Romanian,Moldavian,Moldovan",,,2011 12 30,9789737258410,,,,,,,,,,,0,,,,1,1,,0,1511151,pdf,0D720D77FE2D39E48667DE6C0D702B06,,,_453773.0d720d77fe2d39e48667de6c0d702b06.pdf,0,2000-01-01 01:00:00,2016-04-03 02:51:08,725000/0d720d77fe2d39e48667de6c0d702b06-g.jpg,,
22020349,Prawo i psychologia  ,,,,"Amina Memon, Aldert Vrij, Ray Bull",2003,,Gdańskie Wydaw. Psychologiczne,,140,0,Polish ,,,2011 12 30,"8389120135,9788389120137",,,,,,,,,,,0,,,,,1,,0,16839203,pdf,0D73530C69F4A8F95412F624E253CC17,,,_471759.0d73530c69f4a8f95412f624e253cc17.pdf,0,2000-01-01 01:00:00,2016-04-03 02:51:08,725000/0d73530c69f4a8f95412f624e253cc17-g.jpg,,
22020350,Secret History of Chemical Warfare  ,,,,Nick McCamley,2006,,Pen and Sword,,113,0,English ,,,2011 12 30,"184415341X,9781844153411",,,,,,,,,OL22744228M,Two-page landscape scan,0,,,,0,1,1,0,87547876,pdf,0D73E9F5C8887ECCF2BF9614871F4834,,,_454242.0d73e9f5c8887eccf2bf9614871f4834.pdf,0,2000-01-01 01:00:00,2016-04-03 02:51:08,725000/0d73e9f5c8887eccf2bf9614871f4834-d.jpg,,
22020351,,,The Alkaloids: Chemistry and Biology 67,,Geoffrey A. Cordell (Eds.),2009,,"Elsevier, Academic Press",,1-280,0,English ,,,2011 12 30,978-0-12-374785-3,1099-4831,,,,,,10.1016/S1099-4831,,,,0,,,,1,1,1,1,13681176,pdf,0D73F724B48F3A43549E271F46A16D0B,,,_456482.0d73f724b48f3a43549e271f46a16d0b.pdf,0,2000-01-01 01:00:00,2016-04-03 02:51:08,725000/0d73f724b48f3a43549e271f46a16d0b-g.jpg,,
22020352,Milliarden Jahre vor dem Weltuntergang.  ,,,,"Arkadi Strugatzki, Boris Strugatzki",1983,,Heyne Verlag,,200,0,German ,,,2011 12 30,"3453307119,9783453307117",,,,,,,,,,,0,,,,,1,,1,818115,pdf,0D7441E6A8EEC58822EF0F7136896083,,,_470382.0d7441e6a8eec58822ef0f7136896083.pdf,0,2000-01-01 01:00:00,2016-04-03 02:51:08,725000/0d7441e6a8eec58822ef0f7136896083-g.jpg,,
22020353,Sopas  ,,,,Ana María Pérez Martínez,2008,Tra,Blume,,82,0,"Spanish,Castilian",,,2011 12 30,"8480766050,9788480766050",,,,,,,,x09XAAAACAAJ,OL13317091M,,0,,,,,1,1,0,47934355,pdf,0D74A739C6F6B9013F749D9F246077D4,,,_468262.0d74a739c6f6b9013f749d9f246077d4.pdf,0,2000-01-01 01:00:00,2016-04-03 02:51:08,725000/0d74a739c6f6b9013f749d9f246077d4-d.jpg,,
22020354,El Afgano  ,,,,Frederick Forsyth,2006,1st.,Plaza Janés,,179,0,"Spanish,Castilian",,,2011 12 30,"9506440905,9789506440909",,,,,,,,,OL9708976M,,0,,,,,1,,1,990901,pdf,0D75686817D2B99C7CC1B16EDCC817BF,,,_495468.0d75686817d2b99c7cc1b16edcc817bf.pdf,0,2000-01-01 01:00:00,2016-04-03 02:51:08,725000/0d75686817d2b99c7cc1b16edcc817bf-d.jpg,,
22020355,Художественная галерея № 184. Малевич  ,,Художественная галерея,,Панфилов А. (ed.),2008,,DeAgostini,,32,0,Russian ,,,2011 12 30,,,,,,,,,,,periodic,0,,,,1,1,0,0,1323649,djvu,0D77FBF3D8A7D9347C97C0BB47D87DB2,f0c63836bc5094eac02076c043c99a62,ban,_474207.0d77fbf3d8a7d9347c97c0bb47d87db2.djvu,0,2000-01-01 01:00:00,2016-04-03 02:51:08,725000/0d77fbf3d8a7d9347c97c0bb47d87db2-g.jpg,,
22020356,Flame Retardants for Plastics and Textiles: Practical Applications  ,,,,"Edward D. Weil, Sergei V. Levchik",2009,,Hanser Gardner Pubns,,359,0,English ,,,2011 12 30,"1569904545,9781569904541",,,,,628.9/223,TP266.5 .W45 2009,,,OL23202933M,,0,,,,0,1,1,1,3504080,pdf,0D7904C3BACDDE87F67155556432FD68,,,_507596.0d7904c3bacdde87f67155556432fd68.pdf,0,2000-01-01 01:00:00,2016-04-03 02:51:08,725000/0d7904c3bacdde87f67155556432fd68-d.jpg,,
22020357,Индийский стиль и его место в персидской литературе: вопросы поэтики  ,,,,"Наталья Ильинична Пригарина, Институт востоковедения (Российская академия наук)",1999,,Издательская фирма Восточная литература РАН,,332,0,Russian ,,,2011 12 30,"5020179183,9785020179189",,,,,,,,,OL136953M,,0,,,,1,1,1,1,10420009,pdf,0D7A5661A334DFAB801D2447A0944D25,,,_462507.0d7a5661a334dfab801d2447a0944d25.pdf,0,2000-01-01 01:00:00,2016-04-03 02:51:08,725000/0d7a5661a334dfab801d2447a0944d25-g.jpg,,
22020358,"Thermodynamik: Die Grundgesetze der Energie- und Stoffumwandlungen, 6.Auflage  ",,,,Klaus Lucas,,"6., bearb. Aufl.",Springer,,637,0,German ,,,2011 12 30,"9783540735151,3540735151",,,,,,,,,,,0,,,,,1,,1,5894347,pdf,0D7CBAF8FAB39F06EEBF2C459A6937C7,,,_380171.0d7cbaf8fab39f06eebf2c459a6937c7.pdf,0,2000-01-01 01:00:00,2016-04-03 02:51:08,725000/0d7cbaf8fab39f06eebf2c459a6937c7-d.jpg,,
22020359,"Java Network Programming, Third Edition  ",,,,Elliotte Rusty Harold,2004,3,O'Reilly Media,,,0,English ,92,,2011 12 30,"0596007213,9780596007218",,,,,005.2/762,QA76.625 .H367 2005,,NyxObrhTv5oC,OL17168868M,,0,,,,,1,,,2038143,epub,0D7E5AA6DC48AD8A2CEB68CDCA81BF2D,,,_452798.0d7e5aa6dc48ad8a2ceb68cdca81bf2d.epub,0,2000-01-01 01:00:00,2016-04-03 02:51:08,725000/0d7e5aa6dc48ad8a2ceb68cdca81bf2d-d.jpg,,
22020360,"Criminal Ingenuity: Moore, Cornell, Ashbery, and the Struggle Between the Arts (Modernist Literature and Culture)  ",,Modernist Literature and Culture,,Ellen Levy,2011,,"Oxford University Press, USA",,297,0,English ,,,2011 12 30,"0199746354,9780199746354",,,,,811.52,,,Ps6e2p3GN6QC,,,0,,,,1,0,1,1,2544160,pdf,0D7EC71682F018CAD35FEFF89303474A,,,_498654.0d7ec71682f018cad35feff89303474a.pdf,0,2000-01-01 01:00:00,2016-04-03 02:51:08,725000/0d7ec71682f018cad35feff89303474a-d.jpg,,
22020361,Circuite integrate CMOS. Manual de utilizare  ,,"Seria Practică: Automatică, Informatică, Electronică, Management",,"Iulian Ardelean, Horia Giuroiu, Liviu-Lică Petrescu",1986,,Editura Tehnică,,505,0,"Romanian,Moldavian,Moldovan",,,2011 12 30,,,,,,,,,,,,0,,,,0,1,0,0,10774641,pdf,0D805BE45ACCD9B61C7F414CBA96A2D6,,,_487295.0d805be45accd9b61c7f414cba96a2d6.pdf,0,2000-01-01 01:00:00,2016-04-03 02:51:08,725000/0d805be45accd9b61c7f414cba96a2d6-g.jpg,,
22020362,"The Taste Divine, Indian Vegetarian Cooking the Natural Way  ",,,,Vanamali,1993,,State University Of New York Press,,,0,English ,,,2011 12 30,"0791411877,9780791411872,0791411885",,,,,641.5954,TX724.5.I4 V2 1993,,7yb0sGkv3gQC,OL1726662M,,0,,,,,0,0,1,268701,epub,0D814C093D7FB036B2DC0AF3FABA4E60,,,_479403.0d814c093d7fb036b2dc0af3faba4e60.epub,0,2000-01-01 01:00:00,2016-04-03 02:51:08,725000/0D814C093D7FB036B2DC0AF3FABA4E60-g.jpg,,
22020363,Lateinische Metrik: Eine Einführung  ,,,,Stephan Flaucher,2008,,Reclam Verlag,,72,0,German ,,,2011 12 30,"3150176719,9783150176719",,,,,,,,GdKbKAAACAAJ,,,0,,,,1,1,1,1,1986777,pdf,0D81984C2858E7F938EDFD051766ACB1,,,_455096.0d81984c2858e7f938edfd051766acb1.pdf,0,2000-01-01 01:00:00,2016-04-03 02:51:08,725000/0d81984c2858e7f938edfd051766acb1-d.jpg,,
22020364,Contemporary Debates in Cognitive Science (Contemporary Debates in Philosophy)  ,,Contemporary Debates in Philosophy,,Robert J. Stainton,2006,1,Wiley-Blackwell,,332,0,English ,,,2011 12 30,"1405113057,9781405113052,1405113049,9781405113045",,,,,153,BF311 .C659 2006,,OR-ApDfUMUkC,OL3410914M,,0,,,,0,1,1,1,53177961,pdf,0D832B0595F76C0861C1CCB4FF3A1371,,,_423587.0d832b0595f76c0861c1ccb4ff3a1371.pdf,0,2000-01-01 01:00:00,2016-04-03 02:51:08,725000/0d832b0595f76c0861c1ccb4ff3a1371-d.jpg,,
22020365,Embedded Systems Design with the Atmel AVR Microcontroller: Part II (Synthesis Lectures on Digital Circuits and Systems)  ,,,,Steven Barrett,2009,,Morgan & Claypool Publishers,,176,0,English ,,,2011 12 30,"1608451275,9781608451272",,,,,,,10.2200/S00225ED1V01Y200910DCS025,,,,0,,,,,1,,1,3167516,pdf,0D85B9E12AA9B6306A08DE2A56A2EF98,,,_434143.0d85b9e12aa9b6306a08de2a56a2ef98.pdf,0,2000-01-01 01:00:00,2016-04-03 02:51:08,725000/0d85b9e12aa9b6306a08de2a56a2ef98-d.jpg,,
22020366,Nutrition and health  ,,,,"Tanya Carr, Koen Descheemaeker",2002,1,Blackwell,,210,0,English ,,,2011 12 30,"0632058447,9780632058440",,,,,,,,_ZUA_nMLegoC,OL17036227M,,0,,,,1,0,1,1,617064,pdf,0D85D7364FAE89BDF09C2733E3D2F581,,,_463319.0d85d7364fae89bdf09c2733e3d2f581.pdf,0,2000-01-01 01:00:00,2016-04-03 02:51:08,725000/0d85d7364fae89bdf09c2733e3d2f581-d.jpg,,
22020367,Top 100 Health-Care Careers  ,,,,Dr. Saul Wischnitzer & Edith Wischnitzer,2010,3rd,Jist Works,,505,0,English ,,,2011 12 30,"1593578091,9781593578091",,,,,610.69,R690 .W565 2010,,,OL24539015M,,0,,,,1,0,1,1,5767832,pdf,0D87485B3F065FEF23E4DE06DDBA17CD,,,_464995.0d87485b3f065fef23e4de06ddba17cd.pdf,0,2000-01-01 01:00:00,2016-04-03 02:51:08,725000/0d87485b3f065fef23e4de06ddba17cd-d.jpg,,
22020368,Prison Break Trilogy 03 - Playing Dead  ,,,,Allison Brennan,2008,,Ballantine Books,,,0,English ,,,2011 12 30,9780345509307,,,,,,,,,OL24294450M,,0,,,,,1,,,547871,lit,0D8897A59B5E18B0765CF03513640C44,,,_453159.0d8897a59b5e18b0765cf03513640c44.lit,0,2000-01-01 01:00:00,2016-04-03 02:51:08,725000/0D8897A59B5E18B0765CF03513640C44-g.jpg,,
22020369,Worlds: A Novel of the Near Future  ,,,,Joe Haldeman,2011,,Orion,,,0,English ,,,2011 12 30,"0575111488,9780575111486",,,,,,,,BSpeMXjfSaoC,,,0,,,,,1,,,358343,epub,0D88C6C2174811DAF87E9A01107CC6FE,,,_488672.0d88c6c2174811daf87e9a01107cc6fe.epub,0,2000-01-01 01:00:00,2016-04-03 02:51:08,725000/0D88C6C2174811DAF87E9A01107CC6FE-g.jpg,,
22020370,Scheduling in Supply Chains Using Mixed Integer Programming  ,,,,Tadeusz Sawik,2011,1,Wiley,,491,0,English ,87,,2011 12 30,"0470935731,9780470935736",,,,,658.701/51977,TS178.4 .S287 2011,,,OL25074971M,,0,,,,1,0,1,1,13578154,pdf,0D89EFEAD8206A8C4A093572DE7134F2,,,_458774.0d89efead8206a8c4a093572de7134f2.pdf,0,2000-01-01 01:00:00,2016-04-03 02:51:08,725000/0d89efead8206a8c4a093572de7134f2-d.jpg,,
22020371,ZBrush Digital Sculpting Human Anatomy  ,,,,Scott Spencer,2010,First,Sybex,,419,0,English ,,,2011 12 30,"0470450266,9780470450260",,,,,006.6/9,T385 .S65975 2010,,,OL23678191M,,0,,,,1,1,1,1,25313820,pdf,0D8B4F442F65F3A4B2531DF802EDE6BF,,,_507513.0d8b4f442f65f3a4b2531df802ede6bf.pdf,0,2000-01-01 01:00:00,2016-04-03 02:51:08,725000/0d8b4f442f65f3a4b2531df802ede6bf-d.jpg,,
22020372,Kodi Civil i Republikës së Shqipërisë  ,,,,Qendra e Publikimeve Zyrtare,2010,2010,,,406,0,Albanian,,,2011 12 30,9789928010001,,,,,,,,,,,0,,,,1,1,0,1,508610,pdf,0D8C0C8D0662CD7923C94E6F6CF4C9F4,,,_485960.0d8c0c8d0662cd7923c94e6f6cf4c9f4.pdf,0,2000-01-01 01:00:00,2016-04-03 02:51:08,725000/0d8c0c8d0662cd7923c94e6f6cf4c9f4-g.jpg,,
22020373,Rosa Parks (20th Century Biographies)  ,,,,Anne Schraff,2008,,Saddleback Educational Publ,,66,0,English ,,,2011 12 30,"1599052520,9781599052526",,,,,,,,,,,0,,,,1,0,1,1,607807,pdf,0D8C62BD14514D41A5250C22FAA1850E,,,_431136.0d8c62bd14514d41a5250c22faa1850e.pdf,0,2000-01-01 01:00:00,2016-04-03 02:51:08,725000/0d8c62bd14514d41a5250c22faa1850e-d.jpg,,
22020374,The Language of Mathematics: Utilizing Math in Practice  ,,,,Robert L. Baber,2011,1,Wiley,,428,0,English ,,,2011 12 30,"0470878894,9780470878897",,,,,510.1/4,QA41 .B235 2011,,,OL25147756M,,0,,,,0,0,1,1,2509057,pdf,0D8DFD276D3776B9DE767E7736F90CF3,,,_508960.0d8dfd276d3776b9de767e7736f90cf3.pdf,0,2000-01-01 01:00:00,2016-04-03 02:51:08,725000/0d8dfd276d3776b9de767e7736f90cf3-d.jpg,,
22020375,"Political process and the development of Black insurgency, 1930-1970  ",,,,Doug McAdam,1985,,University of Chicago Press,,304,0,English ,,,2011 12 30,"0226555526,9780226555522",,,,,"323.1196073,305.896073,305.8/96072",E185.61,,,OL22587976M,,0,,,,1,1,1,1,11426819,pdf,0D8E93DFFD93E6DC46561930E2AB4C0F,,,_451479.0d8e93dffd93e6dc46561930e2ab4c0f.pdf,0,2000-01-01 01:00:00,2016-04-03 02:51:08,725000/0d8e93dffd93e6dc46561930e2ab4c0f-d.jpg,,
22020376,Conversations with Manuel Castells (PCVS - Polity Conversations Series)  ,,Polity Conversations Series,,"Manuel Castells, Martin Ince",2003,1,Polity,,182,0,English ,,,2011 12 30,"0745628494,9780745628493,0745628486,9780745628486",,,,,,,,Y5Iklm6vhd4C,OL22531213M,,0,,,,1,1,1,1,13707867,pdf,0D8F2BBCE5EC29AC7C1C9BF72069AC28,,,_451005.0d8f2bbce5ec29ac7c1c9bf72069ac28.pdf,0,2000-01-01 01:00:00,2016-04-03 02:51:08,725000/0d8f2bbce5ec29ac7c1c9bf72069ac28-d.jpg,,
22020377,古代文史名著选译丛书.第1批.隋唐五代.旧唐书选译 .黄永年.译注.巴蜀书社.影印版  ,,,,黄永年,,,,,240,0,Chinese(PRC),,,2011 12 30,,,,,,,,,,,,0,,,,,1,,0,3856398,pdf,0D912B46593E639432F87CD083A96639,,,_512475.0d912b46593e639432f87cd083a96639.pdf,0,2000-01-01 01:00:00,2016-04-03 02:51:08,725000/0d912b46593e639432f87cd083a96639-g.jpg,,
22020378,Get Organized  ,,,,Ron Fry,2011,4th,Course Technology PTR,,144,0,English ,,,2011 12 30,"1435461142,9781435461147",,,,,,,,,,,0,,,,1,0,1,1,458682,pdf,0D913350ED0AC193BACD183CF00173D1,,,_476026.0d913350ed0ac193bacd183cf00173d1.pdf,0,2000-01-01 01:00:00,2016-04-03 02:51:08,725000/0d913350ed0ac193bacd183cf00173d1-d.jpg,,
22020379,What a World 1: Amazing Stories from Around the Globe (Student Book and Audio CD)  ,,,,Milada Broukal,2004,1st,Pearson ESL,,135,0,English ,,,2011 12 30,"0131849255,9780131849259",,,,,428.6/4,PE1128 .B7165 2004,,,OL3690577M,,0,,,,0,1,0,0,37978388,pdf,0D924559429879C1296D892AC409DFA3,,,_486537.0d924559429879c1296d892ac409dfa3.pdf,0,2000-01-01 01:00:00,2016-04-03 02:51:08,725000/0d924559429879c1296d892ac409dfa3-d.jpg,,
22020380,Il sortilegio del Corvo  ,,,,James Barclay,2011,,Nord,,548,0,Italian ,,,2011 12 30,"8842916994,9788842916994",,,,,,,,NckhTwEACAAJ,,,0,,,,,0,0,1,1961003,pdf,0D962553A9664B0C25576717575F81EA,,,_446751.0d962553a9664b0c25576717575f81ea.pdf,0,2000-01-01 01:00:00,2016-04-03 02:51:08,725000/0d962553a9664b0c25576717575f81ea-d.jpg,,
22020381,"Algorithms for VLSI Physical Design Automation, Third Edition  ",,,,Naveed A. Sherwani,1998,3rd,Springer,,590,0,English ,,,2011 12 30,"0792383931,9780792383932",,,,,621.39/5,TK7874 .S455 1999,,,OL382392M,,0,,,,0,1,1,1,24432703,pdf,0D967B7294395D7DA50F0236A2847B95,,,_440246.0d967b7294395d7da50f0236a2847b95.pdf,0,2000-01-01 01:00:00,2016-04-03 02:51:08,725000/0d967b7294395d7da50f0236a2847b95-d.jpg,,
22020382,Matt Caldwell: Texas Tycoon  ,,"Long, Tall Texans 22",,Diana Palmer,2000,,Silhouette,,96,0,English ,,,2011 12 30,"0373242972,9780373242979",,,,,,,,,OL9624950M,missing front material,0,,,,0,0,0,1,324509,pdf,0D96BD0DC6C561DBE28007BF13176130,,,_439594.0d96bd0dc6c561dbe28007bf13176130.pdf,0,2000-01-01 01:00:00,2016-04-03 02:51:08,725000/0d96bd0dc6c561dbe28007bf13176130-d.jpg,,
22020383,Relational Mechanics  ,,,,Andre Koch Torres Assis,1999,,Apeiron (Montreal),,288,0,English ,,,2011 12 30,"0968368921,9780968368923",,,,,531,,,,OL9820509M,,0,,,,,0,0,1,2534401,pdf,0D96D3B6D69FEF0F26E9453EE7A3FC80,,,_495987.0d96d3b6d69fef0f26e9453ee7a3fc80.pdf,0,2000-01-01 01:00:00,2016-04-03 02:51:08,725000/0d96d3b6d69fef0f26e9453ee7a3fc80-d.jpg,,
22020384,Mystic Christianity or The Inner Teachings of the Master  ,,,,Yogi Ramacharaka,2011,,CreateSpace,,275,0,English ,,,2011 12 30,,,,,,,,,,,,0,,,,,1,,1,712070,pdf,0D9940032A2DC93FD426250A32716BA2,,,_440560.0d9940032a2dc93fd426250a32716ba2.pdf,0,2000-01-01 01:00:00,2016-04-03 02:51:08,725000/0d9940032a2dc93fd426250a32716ba2-g.jpg,,
22020385,The Amazing Story of Quantum Mechanics: A Math-Free Exploration of the Science that Made Our World  ,,,,James Kakalios,2010,,Gotham,,219,0,English ,,,2011 12 30,"1592404790,9781592404797",,,,,,,,,OL24377653M,,0,,,,0,0,1,1,2390356,pdf,0D9A512D5B47D6D1AD246EE969BC5947,,,_476234.0d9a512d5b47d6d1ad246ee969bc5947.pdf,0,2000-01-01 01:00:00,2016-04-03 02:51:08,725000/0d9a512d5b47d6d1ad246ee969bc5947-d.jpg,,
22020386,JK Lasser's New Rules for Estate and Tax Planning (Fourth Edition)  ,,,,"Stewart H. Welch III, Harold I. Apolinsky, Craig M. Stephens",2011,4,Wiley,,285,0,English ,,,2011 12 30,"9781118113554,1118113551",,,,,343.7305/3,KF6585 .A66 2012,,,OL24918635M,,0,,,,1,0,1,1,1518666,pdf,0D9AB6247EC9234F711C17FCF50E72B0,,,_511129.0d9ab6247ec9234f711c17fcf50e72b0.pdf,0,2000-01-01 01:00:00,2016-04-03 02:51:08,725000/0d9ab6247ec9234f711c17fcf50e72b0-d.jpg,,
22020387,Medieval Costumes Paper Dolls  ,,,,Tom Tierney,1996,,Courier Dover Publications,,13,0,English ,,,2011 12 30,"0486289257,9780486289250",,,,,,,,iNBDCbbB2WkC,OL7637186M,,0,,,,,1,1,0,5246749,pdf,0D9C52ECD972F2506FAA1B1B1BBA1606,,,_437882.0d9c52ecd972f2506faa1b1b1bba1606.pdf,0,2000-01-01 01:00:00,2016-04-03 02:51:08,725000/0d9c52ecd972f2506faa1b1b1bba1606-d.jpg,,
22020388,Une brève histoire des crises financières : Des tulipes aux subprimes  ,,,,Christian Chavagneux,2011,,Editions La Découverte,,236,0,French ,,,2011 12 30,"2707169692,9782707169693",,,,,,,,,,,0,,,,1,1,1,1,4024351,pdf,0D9DD59BDFEBA3B8F4426AAEED714548,,,_485553.0d9dd59bdfeba3b8f4426aaeed714548.pdf,0,2000-01-01 01:00:00,2016-04-03 02:51:08,725000/0d9dd59bdfeba3b8f4426aaeed714548-g.jpg,,
22020389,The IDA Pro book: The unofficial guide to the world's most popular disassembler,,,,Chris Eagle,2011,2,No Starch Press,,,0,English,,,2011 12 30,"1593272898,9781593272890",,,,,,,,,,,0,,,,,1,,,14805660,mobi,0D9E8BBBF0072FE908D6932638ADB6FA,,,_453661.0d9e8bbbf0072fe908d6932638adb6fa.mobi,0,2000-01-01 01:00:00,2016-04-03 02:51:08,725000/0d9e8bbbf0072fe908d6932638adb6fa-d.jpg,,
22020390,The reliefs of the chapel of Nebhepetre Mentuhotep at Gebelein  ,,Culture and History of the Ancient Near East 39,,Elisa Fiore Marochetti,2010,,Brill,,227,0,English ,,,2011 12 30,"900417964X,9789004179646",,,,,932,DT73.G42 M37 2009,,,OL23872451M,,0,,,,1,0,1,1,10009056,pdf,0D9F584C8DB00F0E8660B60024C6DD95,,,_486549.0d9f584c8db00f0e8660b60024c6dd95.pdf,0,2000-01-01 01:00:00,2016-04-03 02:51:08,725000/0d9f584c8db00f0e8660b60024c6dd95-d.jpg,,
22020391,כיצד לאהוב ילדים  ,,,,יאנוש קורצ'אק,2009,,הקיבוץ המאוחד,,154,0,Hebrew,,,2011 12 30,,,,,,,,,,,,0,,,,0,1,0,0,18550646,pdf,0DA0C0DB7A3522D6163D21D87E65A18E,,,_484672.0da0c0db7a3522d6163d21d87e65a18e.pdf,0,2000-01-01 01:00:00,2016-04-03 02:51:08,725000/0da0c0db7a3522d6163d21d87e65a18e-g.jpg,,
22020392,Poisoned for pennies: the economics of toxics and precaution  ,,,,Frank Ackerman,2008,1,Island Press,,347,0,English ,,,2011 12 30,"1597264016,9781597264013",,,,,363.738/4,HC79.E5 A268 2008,,PYgmcdklVVUC,OL16382737M,,0,,,,1,0,1,1,1355468,pdf,0DA0F45D2DCB13AEE53930F1CB56F895,,,_504470.0da0f45d2dcb13aee53930f1cb56f895.pdf,0,2000-01-01 01:00:00,2016-04-03 02:51:08,725000/0da0f45d2dcb13aee53930f1cb56f895-d.jpg,,
22020393,Building Spelling Skills: Grade 3  ,,,,"Evan-Moor Educational Publishing, Jo Ellen Moore",2002,,Evan-Moor Educational Publishers,,162,0,English ,,,2011 12 30,"1557998418,9781557998415",,,,,,,,,OL8603319M,,0,,,,0,0,0,0,1409359,pdf,0DA11D91C839EDE802D28FAAB0927E3C,,,_513093.0da11d91c839ede802d28faab0927e3c.pdf,0,2000-01-01 01:00:00,2016-04-03 02:51:08,725000/0da11d91c839ede802d28faab0927e3c-d.jpg,,
22020394,The Ascetic Life & The Four Centuries on Charity  ,,,,St. Maximus the Confessor (translated and annotated by Polycarp Sherwood O.S.B.),1955,Text is Free of Markings,Paulist Press,,284,0,English ,,,2011 12 30,"0809102587,9780809102587",,,,,248,BR60 .A35 no. 21,,,OL6176968M,,0,,,,,1,,1,23536010,pdf,0DA1D3F6F14C50E3E9FFD113E95A7715,,,_470613.0da1d3f6f14c50e3e9ffd113e95a7715.pdf,0,2000-01-01 01:00:00,2016-04-03 02:51:08,725000/0da1d3f6f14c50e3e9ffd113e95a7715-d.jpg,,
22020395,Variation Tolerant On-Chip Interconnects  ,,Analog Circuits and Signal Processing,,Ethiopia Enideg Nigussie (auth.),2012,1,Springer-Verlag New York,,172,0,English,,,2011 12 30,"1461401305,9781461401308",,,,,,,10.1007/978-1-4614-0131-5,,,,0,,,,0,0,0,1,17240732,pdf,0DA46686393C10560B1F73E7420D09BB,,,_509111.0da46686393c10560b1f73e7420d09bb.pdf,0,2000-01-01 01:00:00,2016-04-03 02:51:08,725000/0da46686393c10560b1f73e7420d09bb-d.jpg,,
22020396,Maternity and Pediatric Nursing  ,,,,"Susan Scott Ricci, Terri Kyle",2008,Har/Cdr,Lippincott Williams & Wilkins,,1948,0,English ,,,2011 12 30,"0781780551,9780781780551",,,,,618.92/00231,RG951 .R538 2009,,gaYtFuND7VIC,OL16909980M,,0,,,,1,0,1,1,68959720,pdf,0DA52AF45B7CDBC0A0F2598C475E0F3C,,,_488313.0da52af45b7cdbc0a0f2598c475e0f3c.pdf,0,2000-01-01 01:00:00,2016-04-03 02:51:08,725000/0da52af45b7cdbc0a0f2598c475e0f3c-d.jpg,,
22020397,Quality Assurance in Adhesive Technology: EUREKA Project EU 716  ,,,,Eureka Project,1998,1,Woodhead Publishing,,124,0,English ,,,2011 12 30,"1855732599,9781855732599",,,,,668.3,,,,OL20669352M,,0,,,,,1,1,1,6738816,pdf,0DA544C12FC7C94973981F88A8C02593,,,_506545.0da544c12fc7c94973981f88a8c02593.pdf,0,2000-01-01 01:00:00,2016-04-03 02:51:08,725000/0da544c12fc7c94973981f88a8c02593-d.jpg,,
22020398,Murder Club  ,,,,Mark Pearson,2011,,Arrow Books,,,0,English ,,,2011 12 30,"140902198X,0099550881,9781409021988,9780099550884",,,,,,,,tTILDXDwOGcC,,,0,,,,,0,1,1,503459,epub,0DA7590921A8D3DA5C507054AF436B34,,,_494528.0da7590921a8d3da5c507054af436b34.epub,0,2000-01-01 01:00:00,2016-04-03 02:51:08,725000/0da7590921a8d3da5c507054af436b34-d.jpg,,
22020399,Law and Long-Term Economic Change: A Eurasian Perspective  ,,Stanford Economics and Finance,,"Debin Ma, Jan van Zanden (editors)",2011,,Stanford University Press,,375,0,English ,,,2011 12 30,"0804772738,9780804772730",,,,,330.95,K3820 .L399 2011,,4zcNVSC1qCcC,OL25016541M,,0,,,,1,0,1,1,1343297,pdf,0DA822C31467B87A60520D2F5A729C98,,,_488796.0da822c31467b87a60520d2f5a729c98.pdf,0,2000-01-01 01:00:00,2016-04-03 02:51:08,725000/0da822c31467b87a60520d2f5a729c98-d.jpg,,
22020400,"Explosives, Propellants and Pyrotechnics (Brassey's World Military Technology)  ",,,,A. Bailey,2001,2,Brassey's,,193,0,English ,,,2011 12 30,"1857532554,9781857532555",,,,,,,,,OL9000098M,,0,,,,,1,1,0,14885008,pdf,0DA9D5341B93C5A3C912DF6F658F2AB5,,,_436337.0da9d5341b93c5a3c912df6f658f2ab5.pdf,0,2000-01-01 01:00:00,2016-04-03 02:51:08,725000/0da9d5341b93c5a3c912df6f658f2ab5-d.jpg,,
22020401,Migration - Teilhabe - Milieus: Spätaussiedler und türkeistämmige Deutsche im sozialen Raum  ,,,,"Heiko Geiling, Daniel Gardemin, Stephan Meise, Andrea König",2011,2011,VS Verlag für Sozialwissenschaften,,301,0,German ,,,2011 12 30,"3531181467,9783531181462",,,,,,,10.1007/978-3-531-94134-9_1,,OL25058255M,,0,,,,,1,0,1,14442494,pdf,0DAA5D1477C97990010B4A06BD451E95,,,_509519.0daa5d1477c97990010b4a06bd451e95.pdf,0,2000-01-01 01:00:00,2016-04-03 02:51:08,725000/0daa5d1477c97990010b4a06bd451e95-d.jpg,,
22020402,Optical measurement techniques: Innovations for industry and the life sciences,,Springer Series in Optical Sciences 136,,"Kai-Erik Peiponen, Risto Myllylä, Alexander V. Priezzhev",2009,1,Springer,,162,0,English,,,2011 12 30,"3540719261,9783540719267",,,,,,,,,,,0,,,,,1,0,1,10380536,pdf,0DAA86E710CF0BD6615596CE8BCFD650,,,_484356.0daa86e710cf0bd6615596ce8bcfd650.pdf,0,2000-01-01 01:00:00,2016-04-03 02:51:08,725000/0daa86e710cf0bd6615596ce8bcfd650-d.jpg,,
22020403,Architectural Design in Steel  ,,,,"Mark Lawson, Peter Trebilcock",2003,1,Taylor & Francis,,236,0,English ,,,2011 12 30,"0419244905,9780419244905",,,,,721/.04471,TH1611 .T697 2003,,,OL22571962M,,0,,,,,1,,1,32667393,pdf,0DAAA2EE0AC854C603B88A9D0579AB4B,,,_458747.0daaa2ee0ac854c603b88a9d0579ab4b.pdf,0,2000-01-01 01:00:00,2016-04-03 02:51:08,725000/0daaa2ee0ac854c603b88a9d0579ab4b-d.jpg,,
22020404,Criminalising Social Policy: Anti-social Behaviour and Welfare in a De-civilised Society  ,,,,John J. Rodger,2008,,Willan,Cullompton,257,0,English ,,,2011 12 30,"1843923270,978-1-84392-327-5,9781843925408,978-1-84392-326-8,1843925400",,,,,303.330941,HN400.M6 R64 2008,,_6DZAAAAMAAJ,OL22561379M,,0,,,,,1,,1,1292024,pdf,0DABE6C2780B0F232D73E432CA6F03C3,,,_469438.0dabe6c2780b0f232d73e432ca6f03c3.pdf,0,2000-01-01 01:00:00,2016-04-03 02:51:08,725000/0dabe6c2780b0f232d73e432ca6f03c3-d.jpg,,
22020405,Rapid Arabic Vol. 1 (with Audio)  ,,,,Earworms Learning,2008,,Berlitz Publishing,,20,0,English ,,,2011 12 30,"1905443064,9781905443062",,,,,,,,,,,0,,,,0,0,0,1,57588979,pdf,0DAC25DBFC1E3285106CE13A22743253,,,_493075.0dac25dbfc1e3285106ce13a22743253.pdf,0,2000-01-01 01:00:00,2016-04-03 02:51:08,725000/0dac25dbfc1e3285106ce13a22743253-d.jpg,,
22020406,"Studia z archeologii, historii i geografii historycznej  issue tom 6",,ARCHAEOLOGIA HISTORICA POLONA,,Uniwersytet Mikołaja Kopernika w Toruniu. Uniwersyteckie Centrum Archeologii Średniowiecza i Nowożytności,1997,,Uniw. Mikołaja Kopernika,,332,0,Polish ,,,2011 12 30,"8323108439,9788323108436",,,,,,,,,,,0,,,,1,1,,1,5618792,djvu,0DAC88E082CDAC28A2A7495D684DA90E,,,_503932.0dac88e082cdac28a2a7495d684da90e.djvu,0,2000-01-01 01:00:00,2016-04-03 02:51:08,725000/0dac88e082cdac28a2a7495d684da90e-g.jpg,,
22020407,FDR  ,,,,Jean Edward Smith,2007,,Random House,,,0,English ,,,2011 12 30,"1588366243,9781588366245",,,,,973.917092—dc22,E807.S58 2007,,x0d3AAAAMAAJ,OL24246216M,,0,,,,0,0,1,1,10855665,epub,0DACC24628BCF125F1D43126BA652D74,,,_496618.0dacc24628bcf125f1d43126ba652d74.epub,0,2000-01-01 01:00:00,2016-04-03 02:51:08,725000/0DACC24628BCF125F1D43126BA652D74-g.jpg,,
22020408,"Triffst du Buddha, töte ihn!: Ein Selbstversuch  ",,,,Andreas Altmann,2010,,Dumont Buchverlag,,,0,German ,,,2011 12 30,"3832161503,9783832161507,9783832185046",,,,,,,,,,,0,,,,,0,0,1,421833,epub,0DAD5C6A4507448E2FD5A4F7674B21C2,,,_511606.0dad5c6a4507448e2fd5a4f7674b21c2.epub,0,2000-01-01 01:00:00,2016-04-03 02:51:08,725000/0DAD5C6A4507448E2FD5A4F7674B21C2-g.jpg,,
22020409,"Голос и профессия: теория, методика и практика развития речевого голоса  ",,,,Саливон Леонид Григорьевич,2008,,Просвещение-Юг,,106,0,Russian ,,,2011 12 30,"593491197X,9785934911974",,,,,,,,,,,0,,,,0,1,0,0,31886237,djvu,0DAE2F0E0650A604D7974103990A0EB3,,,_472406.0dae2f0e0650a604d7974103990a0eb3.djvu,0,2000-01-01 01:00:00,2016-04-03 02:51:08,725000/0dae2f0e0650a604d7974103990a0eb3-g.jpg,,
22020410,Twelve Drummers Drumming  ,,Father Christmas Mystery 1,,C.C. Benison,2011,,Doubleday Canada,,,0,English ,,,2011 12 30,"0385670141,9780385670142",,,,,813.54,PS8553.E5135T84 2011,,fDLf8vYk2dIC,,,0,,,,,0,1,1,2179618,epub,0DAEC7955BCE66286959B10109472CA5,,,_506343.0daec7955bce66286959b10109472ca5.epub,0,2000-01-01 01:00:00,2016-04-03 02:51:08,725000/0DAEC7955BCE66286959B10109472CA5-g.jpg,,
22020411,The Doomsday Key  ,,,,James Rollins,2010,Reprint,HarperCollins,,367,0,English ,,,2011 12 30,"006123141X,9780061231414",,,,,,,,S_Omqppc34wC,OL24088852M,,0,,,,,1,,1,1628413,pdf,0DB033836B9574015DF158DB22885415,,,_473810.0db033836b9574015df158db22885415.pdf,0,2000-01-01 01:00:00,2016-04-03 02:51:08,725000/0db033836b9574015df158db22885415-d.jpg,,
22020412,Superheroes  ,,,,"John Varley, Ricia Mainhardt",1996,,Ace,,,0,English ,,,2011 12 30,"0441003079,9780441003075",,,,,,,,,,,0,,,,,1,,,658924,epub,0DB0C16D339528D2822DB073493C3F17,,,_458870.0db0c16d339528d2822db073493c3f17.epub,0,2000-01-01 01:00:00,2016-04-03 02:51:08,725000/0db0c16d339528d2822db073493c3f17-d.jpg,,
22020413,Princeton Problems In Physics With Solutions  ,,,,"N. Newbury, M. Newman, J. Ruhl, S. Staggs, S. Thorsett",1991,,Universities Press (India) Pvt. Ltd,,270,0,English ,,,2011 12 30,"8173712778,9788173712777",,,,,,,,t-78I5WN_nAC,,,0,,,,,1,,0,13284525,pdf,0DB15010EAE6F9B490EE6F302267FFF9,,,_458337.0db15010eae6f9b490ee6f302267fff9.pdf,0,2000-01-01 01:00:00,2016-04-03 02:51:08,725000/0db15010eae6f9b490ee6f302267fff9-g.jpg,,
22020414,ELEX tijdschrift voor hobby-elektronica 1985-21  issue may,,,,Elektuur B.V.,1985,,,,48,0,Dutch ,,,2011 12 30,,,,,,,,,,,,0,,,,0,0,1,1,57798110,pdf,0DB16A3A01FBD685503612E30D394740,,,_487818.0db16a3a01fbd685503612e30d394740.pdf,0,2000-01-01 01:00:00,2016-04-03 02:51:08,725000/0db16a3a01fbd685503612e30d394740-g.jpg,,
22020415,Ilustrado  ,,,,Miguel Syjuco,2010,1,"Farrar, Straus and Giroux",,273,0,English ,,,2011 12 30,"0374174784,9780374174781",,,,,823/.92,PR9550.9.S96 I55 2010,,,OL23862016M,,0,,,,,1,,1,1364295,pdf,0DB3C135B1ACBDF572D9C8B084D7BF7A,,,_476509.0db3c135b1acbdf572d9c8b084d7bf7a.pdf,0,2000-01-01 01:00:00,2016-04-03 02:51:08,725000/0db3c135b1acbdf572d9c8b084d7bf7a-d.jpg,,
22020416,The Company She Keeps  ,,,,Georgia Durante,2008,Reprint,Signet,,,0,English ,,,2011 12 30,9780451225689,,,,,,,,,OL24284613M,,0,,,,,0,1,1,636340,epub,0DB409054CDD3093EA1E1FF3215FDA4F,,,_447143.0db409054cdd3093ea1e1ff3215fda4f.epub,0,2000-01-01 01:00:00,2016-04-03 02:51:08,725000/0db409054cdd3093ea1e1ff3215fda4f-d.jpg,,
22020417,"To Your Scattered Bodies Go (Riverworld Saga, Book 1)  ",,Riverworld Saga 1,,Philip Jose Farmer,1998,,Del Rey,,,0,English ,,,2011 12 30,"0345419677,9780345419675",,,,,813/.54,PS3556.A72 T6 1998,,,OL22933934M,,0,,,,,1,,1,267866,epub,0DB4B0C1B87DFA6EF8453F11C3C048B7,,,_435274.0db4b0c1b87dfa6ef8453f11c3c048b7.epub,0,2000-01-01 01:00:00,2016-04-03 02:51:08,725000/0db4b0c1b87dfa6ef8453f11c3c048b7-d.jpg,,
22020418,The Mind of Primitive Man (Classic Reprint)  ,,,,Franz Boas,2010,,Forgotten Books,,306,0,English ,,,2011 12 30,"144008730X,9781440087301",,,,,,,,,,,0,,,,,1,,1,14295995,pdf,0DB4E4095890DD93BA62E535BEC35F9D,,,_459793.0db4e4095890dd93ba62e535bec35f9d.pdf,0,2000-01-01 01:00:00,2016-04-03 02:51:08,725000/0db4e4095890dd93ba62e535bec35f9d-d.jpg,,
22020419,Происхождение славян  ,,,,"Бычков, А.",2007,,Олимп - Астрель,,258,0,Russian ,,,2011 12 30,"9785739020789,9785271185946",,,,,,,,,OL23199389M,,0,,,,0,1,0,1,27283510,pdf,0DB62133AF5EAB0E1E4F4F259B4851C2,,,_459307.0db62133af5eab0e1e4f4f259b4851c2.pdf,0,2000-01-01 01:00:00,2016-04-03 02:51:08,725000/0db62133af5eab0e1e4f4f259b4851c2-g.jpg,,
22020420,21 Pounds in 21 Days: The Martha's Vineyard Diet Detox  ,,,,"Roni Deluz, James Hester",2009,,HarperCollins,,,0,English ,,,2011 12 30,9780061543333,,,,,,,,s6cLZRL-PF8C,OL24260876M,,0,,,,,0,1,1,300637,epub,0DB65B51E9529CC8D8026752394355F2,,,_513072.0db65b51e9529cc8d8026752394355f2.epub,0,2000-01-01 01:00:00,2016-04-03 02:51:08,725000/0DB65B51E9529CC8D8026752394355F2-g.jpg,,
22020421,Il visconte dimezzato  ,,,,Italo Calvino,1993,1. ed. Oscar Opere di Italo Calvino,Oscar Mondadori,,159,0,Italian ,,,2011 12 30,"8804370874,9788804370871",,,,,,,,,OL766990M,,0,,,,0,0,0,1,346663,pdf,0DB72B7AF6625FD568A31BE8F4EE6EB0,,,_433021.0db72b7af6625fd568a31be8f4ee6eb0.pdf,0,2000-01-01 01:00:00,2016-04-03 02:51:08,725000/0db72b7af6625fd568a31be8f4ee6eb0-d.jpg,,
22020422,"Der 3. Grad (Club der Ermittlerinnen, Band 3)  ",,,,James Patterson,2007,,Limes Verlag,,,0,German ,,,2011 12 30,"3442369215,9783442369218,380902497X,9783809024972,9783894804015",,,,,,,,,,,0,,,,,0,1,1,237145,epub,0DB7BDC96441AF5DD10B220FAA7CC5F7,,,_504327.0db7bdc96441af5dd10b220faa7cc5f7.epub,0,2000-01-01 01:00:00,2016-04-03 02:51:08,725000/0db7bdc96441af5dd10b220faa7cc5f7-d.jpg,,
22020423,"The Fractured Sky: The Empyrean Odyssey, Book II (Forgotten Realms)  ",,The Empyrean Odyssey,,Thomas M. Reid,2008,,Wizards of the Coast,,,0,English ,,,2011 12 30,"0786948078,9780786948079",,,,,813/.6,PS3618.E548 F73 2008,,,OL23726044M,,0,,,,,1,1,1,340971,epub,0DB83F7520BE80B94EE4C7EA9EF4D31E,,,_500276.0db83f7520be80b94ee4c7ea9ef4d31e.epub,0,2000-01-01 01:00:00,2016-04-03 02:51:08,725000/0db83f7520be80b94ee4c7ea9ef4d31e-d.jpg,,
22020424,Design For How People Learn (Voices That Matter)  ,,,,Julie Dirksen,2011,1,New Riders Press,,274,0,English ,,,2011 12 30,"0321768434,9780321768438",,,,,,,,b7BIYgEACAAJ,,,0,,,,1,0,1,1,32596797,pdf,0DB86675C54BF35220BE932196CF92FE,,,_508875.0db86675c54bf35220be932196cf92fe.pdf,0,2000-01-01 01:00:00,2016-04-03 02:51:08,725000/0db86675c54bf35220be932196cf92fe-d.jpg,,
22020425,Beginning Android 3  ,,,,Mark Murphy,2011,1,Apress,,581,0,English ,,,2011 12 30,"1430232978,9781430232971",,,,,004.1675,QA76.59 .M87 2011,,mRGrCQbqHkoC,OL25141159M,,0,,,,1,0,1,1,20433342,pdf,0DB86A898E411BBD28708BAFA1F55DC4,,,_439482.0db86a898e411bbd28708bafa1f55dc4.pdf,0,2000-01-01 01:00:00,2016-04-03 02:51:08,725000/0db86a898e411bbd28708bafa1f55dc4-d.jpg,,
22020426,Total Landscape Care 200908  issue 2009.08,,,,Randall & Reilly,2009,,,,70,0,English ,,,2011 12 30,,,,,,,,,,,,0,,,,,1,,0,34680518,pdf,0DBAFB97360E6129E9BDF1475F5A3BD6,,,_446857.0dbafb97360e6129e9bdf1475f5a3bd6.pdf,0,2000-01-01 01:00:00,2016-04-03 02:51:08,725000/0dbafb97360e6129e9bdf1475f5a3bd6-g.jpg,,
22020427,The Black Album  ,,,,Hanif Kureishi,2009,1St Edition,Faber and Faber Ltd,,83,0,English ,,,2011 12 30,"9780571253272,9780684825403,0684825406",,,,,,,,OxU_mqDlaUAC,,,0,,,,,0,1,1,120123,epub,0DBB19B95FDDC5A3AC421B2920ED75D4,,,_462842.0dbb19b95fddc5a3ac421b2920ed75d4.epub,0,2000-01-01 01:00:00,2016-04-03 02:51:08,725000/0dbb19b95fddc5a3ac421b2920ed75d4-d.jpg,,
22020428,Process Theology: A Guide for the Perplexed (Guides For The Perplexed)  ,,,,Bruce Epperly,2011,,T&T Clark Int'l,,188,0,English ,,,2011 12 30,"0567596699,9780567596697,0567632555,9780567632555",,,,,,,,hPPRnFs0sRwC,,,0,,,,1,0,1,1,623188,pdf,0DBBBE09C5F29EAC5CDCABB5AD28F2D2,,,_436020.0dbbbe09c5f29eac5cdcabb5ad28f2d2.pdf,0,2000-01-01 01:00:00,2016-04-03 02:51:08,725000/0dbbbe09c5f29eac5cdcabb5ad28f2d2-d.jpg,,
22020429,Escape From the Land of Snows: The Young Dalai Lama's Harrowing Flight to Freedom and the Making of a Spiritual Hero  ,,,,Stephan Talty,2011,,Crown Publishing Group,,320,0,English ,,,2011 12 30,9780307460974,,,,,"294.3/923092,B",BQ7935.B777 T36 2011,,QtltrDnhdTcC,OL24791542M,,0,,,,,1,,,651949,mobi,0DBDEBD530F314B9016D3FE0F70A49C3,,,_506808.0dbdebd530f314b9016d3fe0f70a49c3.mobi,0,2000-01-01 01:00:00,2016-04-03 02:51:08,725000/0DBDEBD530F314B9016D3FE0F70A49C3-g.jpg,,
22020430,,,,"The Biblical Archaeologist - Vol.48, N.2 volume 48 issue 2",American Schools of Oriental Research,1985,,American Schools of Oriental Research,,68,0,English ,,,2011 12 30,,0006-0895,,,,,,,,,,0,,,,1,1,1,1,19388125,pdf,0DBE51B297CFFC23A00D7A898579914F,,,_501368.0dbe51b297cffc23a00d7a898579914f.pdf,0,2000-01-01 01:00:00,2016-04-03 02:51:08,725000/0dbe51b297cffc23a00d7a898579914f-g.jpg,,
22020431,"Greek Rhetoric Under Christian Emperors (A History of Rhetoric, vol. 3)  ",,,,George Alexander Kennedy,1983,,Princeton University Press,,351,0,English ,,,2011 12 30,"0691035652,9780691035659",,,,,808/.009,PA3265 .K43 1983,,,OL3508527M,,0,,,,1,1,1,1,7712184,pdf,0DBE55DD689E364A0BBFB6E12FC67DE6,,,_492253.0dbe55dd689e364a0bbfb6e12fc67de6.pdf,0,2000-01-01 01:00:00,2016-04-03 02:51:08,725000/0dbe55dd689e364a0bbfb6e12fc67de6-g.jpg,,
22020432,"Platonic Theology, Volume 4: Books XII-XIV (I Tatti Renaissance Library)  ",,,,Marsilio Ficino,2004,,Harvard University Press,,380,0,English ,,,2011 12 30,"0674014820,9780674014824",,,,,,,,,OL21095515M,,0,,,,,1,,1,5253339,pdf,0DBE58DB67A7A6DF2BCEDCE5A2F4C60B,,,_451518.0dbe58db67a7a6df2bcedce5a2f4c60b.pdf,0,2000-01-01 01:00:00,2016-04-03 02:51:08,725000/0dbe58db67a7a6df2bcedce5a2f4c60b-d.jpg,,
22020433,Holy Bible (NIV)  ,,,,Zondervan,2010,,Zondervan,,,0,English ,,,2011 12 30,9780310440895,,,,,,,,,,,0,,,,,0,1,1,4557448,mobi,0DBFF19D96C3A6F5E06CFC291CE02BF7,,,_500447.0dbff19d96c3a6f5e06cfc291ce02bf7.mobi,0,2000-01-01 01:00:00,2016-04-03 02:51:08,725000/0DBFF19D96C3A6F5E06CFC291CE02BF7-g.jpg,,
22020434,"Lectures on Dynamical Systems, Structural Stability and Their Applications  ",,,,Kotik K. Lee,1992,,World Scientific Pub Co Inc,,471,0,English ,,,2011 12 30,"9971509652,9789971509651",,,,,515/.352,QA614.8 .L44 1992,,,OL1472401M,,600,,,,1,1,1,1,3829170,pdf,0DC074652FFCE9AE88C049F067491FA1,,,_493179.0dc074652ffce9ae88c049f067491fa1.pdf,0,2000-01-01 01:00:00,2016-04-03 02:51:08,725000/0dc074652ffce9ae88c049f067491fa1-d.jpg,,
22020435,Historia Państwa Kościelnego  ,,,,Jan Gordziałkowski,2009,,WAM,,180,0,Polish ,,,2011 12 30,"8373188657,9788373188655",,,,,,,,,,,0,,,,,1,1,0,112059827,pdf,0DC14EB5BEB45BFDFA5C66A3F1273B00,,,_510254.0dc14eb5beb45bfdfa5c66a3f1273b00.pdf,0,2000-01-01 01:00:00,2016-04-03 02:51:08,725000/0dc14eb5beb45bfdfa5c66a3f1273b00-g.jpg,,
22020436,"Craft Activism: People, Ideas, and Projects from the New Community of Handmade and How You Can Join In  ",,,,Joan Tapper,2011,,Potter Craft,,,0,English ,,,2011 12 30,"0307586839,9780307586834",,,,,,,,,,,0,,,,0,0,1,1,35153569,epub,0DC1730127B2A5CDD3230DE92AC0FC5B,,,_499572.0dc1730127b2a5cdd3230de92ac0fc5b.epub,0,2000-01-01 01:00:00,2016-04-03 02:51:08,725000/0DC1730127B2A5CDD3230DE92AC0FC5B-g.jpg,,
22020437,Abolition Movement (Landmarks of the American Mosaic)  ,,Landmarks of the American Mosaic,,T. Adams Upchurch,2011,annotated edition,Greenwood,,232,0,English ,,,2011 12 30,"0313386064,9780313386060,9780313386077",,,,,326/.80973,E441 .U6 2011,,,OL24384119M,,0,,,,1,0,1,1,1528021,pdf,0DC1D9EFA4A702A9BF82E65688E11265,,,_456453.0dc1d9efa4a702a9bf82e65688e11265.pdf,0,2000-01-01 01:00:00,2016-04-03 02:51:08,725000/0dc1d9efa4a702a9bf82e65688e11265-d.jpg,,
22020438,"The System of the World (The Baroque Cycle, Vol. 3)  ",,,,Neal Stephenson,2005,,Harper Perennial,,915,0,English ,,,2011 12 30,"0060750863,9780060750862",,,,,,,,,OL7281024M,,0,,,,1,0,1,1,4286582,pdf,0DC2A1CF8F4CCFBDA6FC4D97052CC145,,,_459818.0dc2a1cf8f4ccfbda6fc4d97052cc145.pdf,0,2000-01-01 01:00:00,2016-04-03 02:51:08,725000/0dc2a1cf8f4ccfbda6fc4d97052cc145-d.jpg,,
22020439,"Flash Gordon, the Movie Golden Books  ",,,,Bruce Jones,1980,First Printing,Western Publishing Co.,,68,0,English ,,,2011 12 30,"0307112942,9780307112941",,,,,,,,,OL10349954M,,0,,,,,1,1,1,70042552,pdf,0DC39A6A06CEFF7B44925EC1347AB571,,,_463836.0dc39a6a06ceff7b44925ec1347ab571.pdf,0,2000-01-01 01:00:00,2016-04-03 02:51:08,725000/0dc39a6a06ceff7b44925ec1347ab571-g.jpg,,
22020440,Les ingénieurs de l'Anneau-monde  ,,,,Larry Niven,2006,,Les éditions Mnémos,,,0,French ,,,2011 12 30,"2915159610,9782915159615",,,,,,,,,,,0,,,,0,0,1,1,456566,epub,0DC3A6575A0A6EC62D4002FFC6F7274F,,,_431674.0dc3a6575a0a6ec62d4002ffc6f7274f.epub,0,2000-01-01 01:00:00,2016-04-03 02:51:08,725000/0dc3a6575a0a6ec62d4002ffc6f7274f-d.jpg,,
22020441,The Handbook of Internet Studies  ,,,,"Mia Consalvo, Charles Ess",2011,1,John Wiley and Sons,,504,0,English ,,,2011 12 30,"1405185880,9781405185882",,,,,303.48/34,HM1017 .H36 2010,,,OL23655531M,,0,,,,0,0,1,1,2835935,pdf,0DC3CB96396A417B99975BC5ABA65C3C,,,_445727.0dc3cb96396a417b99975bc5aba65c3c.pdf,0,2000-01-01 01:00:00,2016-04-03 02:51:08,725000/0dc3cb96396a417b99975bc5aba65c3c-d.jpg,,
22020442,Ben Ali le ripou  ,,,,Aly Zmerli,,,,,160,0,French ,,,2011 12 30,,,,,,,,,,,,0,,,,,1,,1,776663,pdf,0DC3EB9E2CCFF1AB92EE82C2C75B12A9,,,_467398.0dc3eb9e2ccff1ab92ee82c2c75b12a9.pdf,0,2000-01-01 01:00:00,2016-04-03 02:51:08,725000/0dc3eb9e2ccff1ab92ee82c2c75b12a9-g.jpg,,
22020443,Serial Killers Uncut  ,,,,"Blake Crouch, Jack Kilborn, J.A. Konrath",2011,,CreateSpace,,,0,English ,,,2011 12 30,,,,,,,,,,,,0,,,,,1,,,1145820,epub,0DC5EB9E4F8FEE36D74B07EE931C5558,,,_488584.0dc5eb9e4f8fee36d74b07ee931c5558.epub,0,2000-01-01 01:00:00,2016-04-03 02:51:08,725000/0DC5EB9E4F8FEE36D74B07EE931C5558-g.jpg,,
22020444,"Histology: A Text and Atlas: With Correlated Cell and Molecular Biology, 6th Edition  ",,,,"Michael H. Ross, Wojciech Pawlina",2010,6th Edition,Lippincott Williams & Wilkins,,996,0,English ,,,2011 12 30,"0781772001,9780781772006",,,,,611’.018—dc22,QM551.R67 2011,,4UpoQgAACAAJ,,,0,,,,1,0,1,1,200262219,pdf,0DC690B7ECD1E26FCA1114D3EEC350C7,,,_486570.0dc690b7ecd1e26fca1114d3eec350c7.pdf,0,2000-01-01 01:00:00,2016-04-03 02:51:08,725000/0dc690b7ecd1e26fca1114d3eec350c7-d.jpg,,
22020445,"Change Management in Transition Economies: Integrating Corporate Strategy, Structure and Culture  ",,,,"Heinz-Jürgen Stüting, Wolfgang Dorow, Susanne Blazejewski, Frank Claassen",2003,,Palgrave Macmillan,,335,0,English ,,,2011 12 30,"1403901635,9781403901637",,,,,338.09438,HD70.P6 C4 2003,,,OL18887993M,,0,,,,1,0,1,1,1130005,pdf,0DC6A2C6FAA88094CAD4F0FC713A3F87,,,_485200.0dc6a2c6faa88094cad4f0fc713a3f87.pdf,0,2000-01-01 01:00:00,2016-04-03 02:51:08,725000/0dc6a2c6faa88094cad4f0fc713a3f87-d.jpg,,
22020446,"Die Fälschung der deutschen Geschichte, Bd. I  ",,,,Wilhelm Kammeier,1999,"10., uberarbeitete Aufl","Verlag f. ganzheitliche Forschung,",,346,0,German ,,,2011 12 30,"3922314015,9783922314011",,,,,943/.0072,DD86 .K3 1993,,,OL541468M,,0,,,,1,0,1,1,1278229,pdf,0DC7A039888AD8BB5298F45ED6EE643A,,,_459011.0dc7a039888ad8bb5298f45ed6ee643a.pdf,0,2000-01-01 01:00:00,2016-04-03 02:51:08,725000/0dc7a039888ad8bb5298f45ed6ee643a-g.jpg,,
22020447,UNDERSTANDING MASCULINITIES  ,,,,MAC AN GHAILL,1996,First Edition,Open University Press,,237,0,English ,,,2011 12 30,"0335194605,9780335194605",,,,,305.31,HQ1090 .M325 1996,,,OL796166M,,0,,,,1,1,0,1,2286964,pdf,0DC87D010F8DD6779FA2F845A6DD1B4F,,,_453914.0dc87d010f8dd6779fa2f845a6dd1b4f.pdf,0,2000-01-01 01:00:00,2016-04-03 02:51:08,725000/0dc87d010f8dd6779fa2f845a6dd1b4f-d.jpg,,
22020448,Dead Man's Grip (Detective Superintendent Roy Grace)  ,,Roy Grace 7,,Peter James,2011,1St Edition,Minotaur Books,,,0,English ,,,2011 12 30,"0312642830,9780312642839",,,,,,,,,OL25118707M,,0,,,,,1,,1,1194178,epub,0DC9893EC6EE949259C58ED0E5ED2AE2,,,_435903.0dc9893ec6ee949259c58ed0e5ed2ae2.epub,0,2000-01-01 01:00:00,2016-04-03 02:51:08,725000/0dc9893ec6ee949259c58ed0e5ed2ae2-d.jpg,,
22020449,An introduction to Gröbner bases  ,,Pure and applied mathematics,,Ralf Fröberg,1997,1,John Wiley and Sons,,183,0,English ,,,2011 12 30,"0471974420,9780471974420",,,,,512/.24,QA251.3 .F76 1997,,iwIysWcq2HIC,OL673573M,,0,,,,0,1,1,1,4744151,djvu,0DCB86CB01602676AFA303F2B399C61B,,,_438742.0dcb86cb01602676afa303f2b399c61b.djvu,0,2000-01-01 01:00:00,2016-04-03 02:51:08,725000/0dcb86cb01602676afa303f2b399c61b-d.jpg,,
22020450,Carbohydrates in Chemistry and Biology 4 Volume Set  ,,,,"Beat Ernst, Gerald W. Hart, Pierre Sinaÿ",,1,Wiley-VCH,,2257,0,English ,,,2011 12 30,"3527295119,9783527295111",,,,,572/.56,QP701 .C2943 2000,,,OL6898708M,,300,,,,0,1,0,1,22964702,djvu,0DCC63A3E0908AC4E0D010D7554FE99F,,,_432592.0dcc63a3e0908ac4e0d010d7554fe99f.djvu,0,2000-01-01 01:00:00,2016-04-03 02:51:08,725000/0dcc63a3e0908ac4e0d010d7554fe99f-d.jpg,,
22020451,Analog Circuit Design: Low Voltage Low Power; Short Range Wireless Front-Ends; Power Management and DC-DC  ,,,,"Willy Sansen (auth.), Michiel Steyaert, Arthur van Roermund, Andrea Baschirotto (eds.)",2012,1,Springer Netherlands,,374,0,English,,,2011 12 30,"9400719256,9789400719255",,,,,,,10.1007/978-94-007-1926-2,,,,0,,,,0,0,1,1,19118478,pdf,0DCCBD5321FF477AF2238678E44AFF88,,,_484914.0dccbd5321ff477af2238678e44aff88.pdf,0,2000-01-01 01:00:00,2016-04-03 02:51:08,725000/0dccbd5321ff477af2238678e44aff88-d.jpg,,
22020452,Gravitational Waves  ,,"high energy physics, cosmology and gravitation",,"I. Ciufolini, V. Gorini, U. Moschella, P Fre",2001,1,Taylor & Francis,,427,0,English ,,,2011 12 30,"0750307412,9780750307413",,,,,,,,IUdyO8TS2xAC,OL7971104M,,0,,,,1,0,1,1,2907834,pdf,0DCCFF0024D75F2418B5BEE6B53E5E60,,,_459270.0dccff0024d75f2418b5bee6b53e5e60.pdf,0,2000-01-01 01:00:00,2016-04-03 02:51:08,725000/0dccff0024d75f2418b5bee6b53e5e60-d.jpg,,
22020453,Ιστορία του Ελληνικού εμφυλίου πολέμου 1946-1949 τόμος Ι  ,,,,Γιώργος Μαργαρίτης,2001,Τρίτη έκδοση,Βιβλιόραμα,,694,0,Greek(Modern),,,2011 12 30,,,,,,,,,,,,300,,,,0,1,0,1,58478171,pdf,0DCDABFE6FF15495E74CEE4214A1204F,,,_444264.0dcdabfe6ff15495e74cee4214a1204f.pdf,0,2000-01-01 01:00:00,2016-04-03 02:51:08,725000/0dcdabfe6ff15495e74cee4214a1204f-g.jpg,,
22020454,Barracuda 945  ,,,,Patrick Robinson,2004,,HarperTorch,,952,0,English ,,,2011 12 30,"0060086637,9780060086633",,,,,,,,f25h2-TfsIAC,,,0,,,,0,0,0,1,2005712,pdf,0DCEBB934FFADF3356C844FDC98F756B,,,_468116.0dcebb934ffadf3356c844fdc98f756b.pdf,0,2000-01-01 01:00:00,2016-04-03 02:51:08,725000/0dcebb934ffadf3356c844fdc98f756b-d.jpg,,
22020455,Basic blacksmithing: an introduction to toolmaking with locally available materials  ,,,,"David Harries, Bernhard Heer",1993,,Intermediate Technology,,132,0,English ,,,2011 12 30,"1853391956,9781853391958",,,,,682,,,,OL21952455M,,0,,,,,1,,0,1491167,pdf,0DD0D2AC4DA005B38256E6A4BE1BA462,,,_499954.0dd0d2ac4da005b38256e6a4be1ba462.pdf,0,2000-01-01 01:00:00,2016-04-03 02:51:08,725000/0dd0d2ac4da005b38256e6a4be1ba462-d.jpg,,
22020456,Индоевропейское предложение  ,,,,Степанов Ю.С.,1989,First Edition,Наука,,248,0,Russian ,,,2011 12 30,5020109193,,,,,,,,,OL1918877M,,0,,,,0,1,0,0,7092831,djvu,0DD284739946154C8EB1020B5150DE7B,f36234356683cae8ee389e721b0b16aa,no,_452373.0dd284739946154c8eb1020b5150de7b.djvu,0,2000-01-01 01:00:00,2016-04-03 02:51:08,725000/0dd284739946154c8eb1020b5150de7b-g.jpg,,
22020457,Airborn  ,,,,Kenneth Oppel,2005,,HarperCollins Publishers,,568,0,English ,,,2011 12 30,"0060531827,9780060531829",,,,,,,,8iEe1zKXq0UC,OL24619744M,,0,,,,,0,1,1,336077,epub,0DD371C801844934176EDB90346991D5,,,_453652.0dd371c801844934176edb90346991d5.epub,0,2000-01-01 01:00:00,2016-04-03 02:51:08,725000/0dd371c801844934176edb90346991d5-d.jpg,,
22020458,Managing in a Downturn (Financial Times Series)  ,,,,Ranjay Gulati,2009,,Financial Times Prentice Hall,,185,0,English ,,,2011 12 30,"0273730053,9780273730057",,,,,658,HD31 .M294145 2009,,,OL23392194M,,0,,,,0,1,0,1,1480092,pdf,0DD3F9B32C6FCA6C71BFC70B23107DA4,,,_448337.0dd3f9b32c6fca6c71bfc70b23107da4.pdf,0,2000-01-01 01:00:00,2016-04-03 02:51:08,725000/0dd3f9b32c6fca6c71bfc70b23107da4-d.jpg,,
22020459,"The New Palgrave Dictionary of Economics, Second Edition: Volume 2  ",,,,Steven N. Durlauf and Lawrence E. Blume,2008,,Palgrave MacMillan,,925,0,English ,,,2011 12 30,"0230226388,9780230226388",,,,,330.03,HB61 .N49 2008,,,OL23178263M,,0,,,,0,1,0,0,36760112,pdf,0DD43937D0BE718BEF03D4C52595A00E,,,_470690.0dd43937d0be718bef03d4c52595a00e.pdf,0,2000-01-01 01:00:00,2016-04-03 02:51:08,725000/0dd43937d0be718bef03d4c52595a00e-g.jpg,,
22020460,Beginning to Read: Thinking and Learning about Print  ,,,,Marilyn Jager Adams,1994,,A Bradford Book,,534,0,English ,,,2011 12 30,"0262510766,9780262510769",,,,,,,,,OL9386799M,,0,,,,1,0,1,1,1918018,pdf,0DD4E7DAC8A6C443345C8A3FF64AADBD,,,_492740.0dd4e7dac8a6c443345c8a3ff64aadbd.pdf,0,2000-01-01 01:00:00,2016-04-03 02:51:08,725000/0dd4e7dac8a6c443345c8a3ff64aadbd-d.jpg,,
22020461,Hybrid Laser Arc Welding  ,,,,F. O. Olsen,2009,1,CRC Press,,328,0,English ,,,2011 12 30,"1439802149,9781439802144",,,,,,,,,,,0,,,,0,1,0,1,7178992,pdf,0DD693B4F7A3491232C68DE89BB85662,,,_504954.0dd693b4f7a3491232c68de89bb85662.pdf,0,2000-01-01 01:00:00,2016-04-03 02:51:08,725000/0dd693b4f7a3491232c68de89bb85662-d.jpg,,
22020462,Harrison's Infectious Diseases  ,,,,"Dennis Kasper, Anthony Fauci",2010,1,McGraw-Hill Professional,,1313,0,English ,,,2011 12 30,"0071702938,9780071702935",,,,,616.9,RC111 .H375 2010,,,OL23909372M,,0,,,,1,0,1,1,39381095,pdf,0DD6B62E974D1E06C08D0CDCEC7C3F8C,,,_487677.0dd6b62e974d1e06c08d0cdcec7c3f8c.pdf,0,2000-01-01 01:00:00,2016-04-03 02:51:08,725000/0dd6b62e974d1e06c08d0cdcec7c3f8c-d.jpg,,
22020463,Η εκπαίδευση «εις τα του οίκου» και τα γυναικεία καθήκοντα (1830-1929)  ,,,,Αλεξάνδρα Μπακαλάκη – Ελένη Ελεγμίτου,1987,,IAEN,,302,0,Greek(Modern),,,2011 12 30,,,,,,,,,,,,0,,,,1,1,1,1,16801524,pdf,0DD86BCF4BB8B3BF88550669F27D8757,,,_434799.0dd86bcf4bb8b3bf88550669f27d8757.pdf,0,2000-01-01 01:00:00,2016-04-03 02:51:08,725000/0dd86bcf4bb8b3bf88550669f27d8757-g.jpg,,
22020464,Prairie Rose  ,,,,Catherine Palmer,1997,,Tyndale House Publishers,,,0,English ,,,2011 12 30,"0842370560,9780842370561",,,,,813/.54,PS3566.A495 P7 1997,,,OL676748M,,0,,,,,1,,,558874,epub,0DD8D84F953D52F58ADB9CDD0F70F84A,,,_490167.0dd8d84f953d52f58adb9cdd0f70f84a.epub,0,2000-01-01 01:00:00,2016-04-03 02:51:08,725000/0dd8d84f953d52f58adb9cdd0f70f84a-d.jpg,,
22020465,Material Witness: A Butch Karp and Marlene Ciampi Novel (Book Five)  ,,Butch Karp and Marlene Ciampi legal thrillers 5,,Robert K. Tanenbaum,2010,,Open Road,,,0,English ,,,2011 12 30,"0451180208,9780451180209",,,,,,,,,OL15050151M,,0,,,,,1,1,,1878337,lit,0DD8E8A06CE65053C733948BEF24B062,,,_450821.0dd8e8a06ce65053c733948bef24b062.lit,0,2000-01-01 01:00:00,2016-04-03 02:51:08,725000/0dd8e8a06ce65053c733948bef24b062-d.jpg,,
22020466,Ελευθερία και Αναγκαιότητα  ,,,,Τζόαν Ρόμπινσον,1982,,Θεωρία,,128,0,Greek(Modern),,,2011 12 30,,,,,,,,,,,,600,,,,0,1,1,0,1185162,djvu,0DD9CCA7EB1B946E838C3898FF6AD623,2d2c9b12782035b68d25f0cc3385a455,no,_501005.0dd9cca7eb1b946e838c3898ff6ad623.djvu,0,2000-01-01 01:00:00,2016-04-03 02:51:08,725000/0dd9cca7eb1b946e838c3898ff6ad623-g.jpg,,
22020467,Kallimachos: The Alexandrian Library and the Origins of Bibliography (Wisconsin Studies in Classics)  ,,,,Rudolf Blum,2011,1,University of Wisconsin Press,,297,0,English ,,,2011 12 30,"0299131742,9780299131746",,,,,,,,yAzJ0oCM9b8C,,,0,,,,0,1,0,0,86177603,pdf,0DDA4DE46B3B79953B7C3A8BD038AC6C,,,_451747.0dda4de46b3b79953b7c3a8bd038ac6c.pdf,0,2000-01-01 01:00:00,2016-04-03 02:51:08,725000/0dda4de46b3b79953b7c3a8bd038ac6c-d.jpg,,
22020468,"Psychiatric Mental Health Nursing: Concepts of Care in Evidence-Based Practice, 6th Edition  ",,,,Mary C. Townsend,2008,6th,F.A. Davis Company,,924,0,English ,,,2011 12 30,"0803619170,9780803619173",,,,,616.89/0231,RC440 .T693 2009,,,OL22528478M,,0,,,,1,0,1,1,26492011,pdf,0DDADA49A0BD6BAF38643B3FE99D2CB4,,,_471702.0ddada49a0bd6baf38643b3fe99d2cb4.pdf,0,2000-01-01 01:00:00,2016-04-03 02:51:08,725000/0ddada49a0bd6baf38643b3fe99d2cb4-d.jpg,,
22020469,Story of Zero  ,,,,Dilip M. Salwi,1988,,"Children's Book Trust, New Delhi",,28,0,English ,,,2011 12 30,"8170114241,9788170114246",,,,,,,,eGlMHwAACAAJ,OL18064466M,,0,,,,0,1,0,1,3576418,pdf,0DDB42F3DD53FEFE0C65C9D8CDB10EC3,,,_459495.0ddb42f3dd53fefe0c65c9d8cdb10ec3.pdf,0,2000-01-01 01:00:00,2016-04-03 02:51:08,725000/0ddb42f3dd53fefe0c65c9d8cdb10ec3-g.jpg,,
22020470,The Litigators  ,,,,John Grisham,2011,1st Printing,Doubleday,,414,0,English ,,,2011 12 30,"0385535139,9780385535137",,,,,,,,,OL25082940M,,0,,,,,1,,1,2213169,pdf,0DDB87D21788138BE807D1AF6D98218D,,,_485481.0ddb87d21788138be807d1af6d98218d.pdf,0,2000-01-01 01:00:00,2016-04-03 02:51:08,725000/0ddb87d21788138be807d1af6d98218d-d.jpg,,
22020471,Astrophysics: Decoding the Cosmos  ,,,,Judith Ann Irwin,2007,1,Wiley,"Chichester, England ; Hoboken, NJ",455,0,English ,,,2011 12 30,"0470013052,9780470013052",,,,,523.01,QB461 .I79 2007,,,OL17179554M,,0,,,,0,1,0,1,6541455,pdf,0DE2413B10D23D27CD33A8E8938EF6F5,,,_448851.0de2413b10d23d27cd33a8e8938ef6f5.pdf,0,2000-01-01 01:00:00,2016-04-03 02:51:08,725000/0de2413b10d23d27cd33a8e8938ef6f5-d.jpg,,
22020472,"Microstrip and Printed Antennas: New Trends, Techniques and Applications  ",,,,"Debatosh Guha, Yahia Antar",2011,1,John Wiley and Sons,,506,0,English ,,,2011 12 30,"0470681926,9780470681923",,,,,,,,,,,0,,,,1,0,1,1,10503453,pdf,0DE4FECC295E8FDC54B9A1C0F0A05910,,,_457347.0de4fecc295e8fdc54b9a1c0f0a05910.pdf,0,2000-01-01 01:00:00,2016-04-03 02:51:08,725000/0de4fecc295e8fdc54b9a1c0f0a05910-d.jpg,,
22020473,The McGraw-Hill 36-Hour Course: Online Marketing (McGraw-Hill 36-Hour Courses)  ,,,,Lorrie Thomas,2011,,McGraw-Hill,,272,0,English ,,,2011 12 30,"9780071750394,0071750398",,,,,,,,,,,0,,,,0,0,0,1,2396682,pdf,0DE8C6C871F3D34848DE52197C78C0C6,,,_434571.0de8c6c871f3d34848de52197c78c0c6.pdf,0,2000-01-01 01:00:00,2016-04-03 02:51:08,725000/0de8c6c871f3d34848de52197c78c0c6-g.jpg,,
22020474,The Rosetta Bone: The Key to Communication Between Humans and Canines (Howell Dog Book of Distinction)  ,,,,Cheryl S. Smith,2004,1,Howell Book House,,256,0,English ,,,2011 12 30,"0764544217,9780764544217",,,,,,,,,OL8042572M,,0,,,,,1,,1,4400056,pdf,0DE906D842BBB865ABB071C5991D716E,,,_451040.0de906d842bbb865abb071c5991d716e.pdf,0,2000-01-01 01:00:00,2016-04-03 02:51:08,725000/0de906d842bbb865abb071c5991d716e-d.jpg,,
22020475,English as an Additional Language: Key Features of Practice  ,,,,"Elizabeth Haslam, Edith Kellett and Yvonne Wilkin",2005,,"David Fulton Publishers, Ltd.",,119,0,English ,,,2011 12 30,"1843121867,0203935411,9781843121862,9780203935415",,,,,,,,,OL9486271M,,0,,,,1,0,1,1,843228,pdf,0DEAA80DB85871E7269E64F8C2F63C53,,,_454886.0deaa80db85871e7269e64f8c2f63c53.pdf,0,2000-01-01 01:00:00,2016-04-03 02:51:08,725000/0deaa80db85871e7269e64f8c2f63c53-d.jpg,,
22020476,,,,Physics Letters B vol 36 ,Elsevier,1971,,Elsevier,,636,0,English ,,,2011 12 30,,,,,,,,,,,,0,,,,0,1,1,1,5875086,djvu,0DEB4078320A82C559454C402F24497D,,,_416899.0deb4078320a82c559454c402f24497d.djvu,0,2000-01-01 01:00:00,2016-04-03 02:51:08,725000/0deb4078320a82c559454c402f24497d-g.jpg,,
22020477,A Storm for All Seasons: Summer Heat (Book 1)  ,,,,Jaci Burton,2008,,Ellora's Cave Publishing,,182,0,English ,,,2011 12 30,"1843608979,9781843608974",,,,,,,,,OL8949365M,,0,,,,0,0,0,1,593467,pdf,0DEB75781BEB8AFF65CE8C122A72FFA1,,,_435448.0deb75781beb8aff65ce8c122a72ffa1.pdf,0,2000-01-01 01:00:00,2016-04-03 02:51:08,725000/0deb75781beb8aff65ce8c122a72ffa1-d.jpg,,
22020478,Lippincott's Textbook for Personal Support Workers: A Humanistic Approach to Caregiving  ,,,,"Pamela J. Carter, Marilyn McGreer",2010,1,Lippincott Williams & Wilkins,,914,0,English ,,,2011 12 30,"1608311708,9781608311705",,,,,610.7306/98,RT84 .C3685 2011,,,OL25041234M,,0,,,,,1,,1,34791849,pdf,0DEBB264525CE48389D782AA005F254F,,,_492547.0debb264525ce48389d782aa005f254f.pdf,0,2000-01-01 01:00:00,2016-04-03 02:51:08,725000/0debb264525ce48389d782aa005f254f-d.jpg,,
22020479,"Imagining the Internet: Personalities, Predictions, Perspectives  ",,,,Janna Quitney Anderson,2005,,"Rowman & Littlefield Publishers, Inc.",,322,0,English ,,,2011 12 30,"0742539369,0742539377,9780742539365",,,,,303.48/33/0112,HM851 A63 2205,,,OL22634000M,,0,,,,0,1,1,1,4721264,pdf,0DEBD65D4FD7A1662890909F2A38F143,,,_444159.0debd65d4fd7a1662890909f2a38f143.pdf,0,2000-01-01 01:00:00,2016-04-03 02:51:08,725000/0debd65d4fd7a1662890909f2a38f143-d.jpg,,
22020480,Чукотско-русский словарь: учеб. пособие для учачшихся 5-9-x кл  ,,,,В.Г. Рахтилин,2003,,Просвещение. С.-Петерб. отд-ние,,127,0,Russian ,322,,2011 12 30,"5090025851,9785090025850",,,,,,,,,,,0,,,,0,1,1,0,7648266,pdf,0DED6C3A0B046E17FD33F6EA92C7C692,,,_451741.0ded6c3a0b046e17fd33f6ea92c7c692.pdf,0,2000-01-01 01:00:00,2016-04-03 02:51:08,725000/0ded6c3a0b046e17fd33f6ea92c7c692-g.jpg,,
22020481,Natural Acts: A Sidelong View of Science and Nature  ,,,,David Quammen,2009,Revised and expanded edition,W. W. Norton & Company,,,0,English ,,,2011 12 30,9780393076325,,,,,,,,Sk72f-N1vAAC,,,0,,,,,0,1,1,435480,epub,0DEE5426A4F2DC9BD7CA0B0A78639DA1,,,_495811.0dee5426a4f2dc9bd7ca0b0a78639da1.epub,0,2000-01-01 01:00:00,2016-04-03 02:51:08,725000/0DEE5426A4F2DC9BD7CA0B0A78639DA1-g.jpg,,
22020482,The Heart of the Dales  ,,,,Gervase Phinn,,,Penguin Books,,60,0,English ,,,2011 12 30,"0141027673,9780141027678",,,,,,,,qR97IgAACAAJ,,,0,,,,,1,,1,1521464,pdf,0DEF30D12CE79892D2CBBB1739813B05,,,_435490.0def30d12ce79892d2cbbb1739813b05.pdf,0,2000-01-01 01:00:00,2016-04-03 02:51:08,725000/0def30d12ce79892d2cbbb1739813b05-d.jpg,,
22020483,Holy Disorders  ,,,,Edmund Crispin,2007,,Random House UK,,,0,English ,,,2011 12 30,"009950619X,9780099506195",,,,,,,,oKLFhHUHljQC,OL7319277M,,0,,,,,1,,,760095,mobi,0DEF9C6FE0AB8193FDEB6CAF0F2EFEED,,,_465984.0def9c6fe0ab8193fdeb6caf0f2efeed.mobi,0,2000-01-01 01:00:00,2016-04-03 02:51:08,725000/0def9c6fe0ab8193fdeb6caf0f2efeed-d.jpg,,
22020484,Ιστορίες Φυγοδικίας  ,,,,Συλλογικό,2004,,Διάδοση,,96,0,Greek(Modern),,,2011 12 30,,,,,,,,,,,,0,,,,1,0,1,1,1002657,pdf,0DF08A7A644E4AF7BC4211B26FA6C99E,,,_452737.0df08a7a644e4af7bc4211b26fa6c99e.pdf,0,2000-01-01 01:00:00,2016-04-03 02:51:08,725000/0df08a7a644e4af7bc4211b26fa6c99e-g.jpg,,
22020485,"Transnational Europe: Promise, Paradox, Limits (Palgrave Studies in European Union Politics)  ",,Palgrave Studies in European Union Politics,,"Joan DeBardeleben, Achim Hurrelmann",2011,,Palgrave Macmillan,,283,0,English ,,,2011 12 30,"0230241689,9780230241688",,,,,320.54094,JN15 .T734 2011,,kGMHTwEACAAJ,OL25032418M,,0,,,,1,0,1,1,1694095,pdf,0DF12A3493A0502313C48895C4D95E3F,,,_477577.0df12a3493a0502313c48895c4d95e3f.pdf,0,2000-01-01 01:00:00,2016-04-03 02:51:08,725000/0df12a3493a0502313c48895c4d95e3f-d.jpg,,
22020486,Aspectos dinámicos de la inflación estructural  ,,,,Julio H. G. Olivera,,,,,6,0,"Spanish,Castilian",,,2011 12 30,,,,,,,,,,,,0,,,,,1,,0,47898,pdf,0DF1504BB9DA1D73B012D894D533D97B,,,_498077.0df1504bb9da1d73b012d894d533d97b.pdf,0,2000-01-01 01:00:00,2016-04-03 02:51:08,725000/0df1504bb9da1d73b012d894d533d97b-g.jpg,,
22020487,Barry Trotter i końska kuracja  ,,Barry Totter 3,,Michael Gerber,2006,1st,Mag,,157,0,Polish ,,,2011 12 30,,,,,,,,,,,,0,,,,0,1,0,1,668356,pdf,0DF1B562E6EB0E0D2F75CD6C1F1EF2A0,,,_494868.0df1b562e6eb0e0d2f75cd6c1f1ef2a0.pdf,0,2000-01-01 01:00:00,2016-04-03 02:51:08,725000/0df1b562e6eb0e0d2f75cd6c1f1ef2a0-g.jpg,,
22020488,The Scorpio Races  ,,,,Maggie Stiefvater,2011,,Scholastic Press,,,0,English ,,,2011 12 30,"054522490X,9780545224901",,,,,,,,,OL25082950M,,0,,,,,1,,,512228,mobi,0DF2952492888949267A28D5E318E841,,,_492832.0df2952492888949267a28d5e318e841.mobi,0,2000-01-01 01:00:00,2016-04-03 02:51:08,725000/0df2952492888949267a28d5e318e841-d.jpg,,
22020489,No Way Home. The Decline of the World's Great Animal Migrations  ,,,,David S. Wilcove,2007,1,Island Press,,256,0,English ,,,2011 12 30,"1559639857,9781559639859",,,,,591.568,,,dgr0Uz-ECKIC,OL12095925M,,0,,,,1,0,1,1,3125146,pdf,0DF405DEB893A78F7C41D3EDF21C8BB8,,,_497255.0df405deb893a78f7c41d3edf21c8bb8.pdf,0,2000-01-01 01:00:00,2016-04-03 02:51:08,725000/0df405deb893a78f7c41d3edf21c8bb8-d.jpg,,
22020490,"Terminologia hotelarstwo i turystyka (Biblioteka Profesjonalisty, Sprawdź Swój Angielski)  ",,Biblioteka Profesjonalisty,,David Riley; (przygotowanie wersji pol. Grzegorz Śpiewak),2000,,Wydawnictwo Wilga,,49,0,Polish ,,,2011 12 30,8371564848,,,,,,,,,,,0,,,,,1,0,0,46278437,pdf,0DF6CDBAC0F5F2C377A6240BF6A89659,,,_466665.0df6cdbac0f5f2c377a6240bf6a89659.pdf,0,2000-01-01 01:00:00,2016-04-03 02:51:08,725000/0df6cdbac0f5f2c377a6240bf6a89659-g.jpg,,
22020491,The Handbook of Global Communication and Media Ethics (Handbooks in Communication and Media) (volume 1+2)  ,,,,"Robert S. Fortner, P. Mark Fackler",2011,1,Wiley-Blackwell,,1024,0,English ,,,2011 12 30,"140518812X,9781405188128",,,,,175,P94 .H354 2011,,,OL24881457M,,0,,,,0,0,1,1,5861866,pdf,0DF7DE3B364D4B4363B4FFE4B84EB34E,,,_445731.0df7de3b364d4b4363b4ffe4b84eb34e.pdf,0,2000-01-01 01:00:00,2016-04-03 02:51:08,725000/0df7de3b364d4b4363b4ffe4b84eb34e-d.jpg,,
22020492,Managing Change and Transition  ,,,,Richard Luecke,2003,1,Harvard Business Press,,147,0,English ,,,2011 12 30,"1578518741,9781578518746",,,,,658.1/6,HD58.8 .L836 2003,,szFFsHufKuAC,OL18657041M,,0,,,,1,0,1,1,561314,pdf,0DF82D51C37D3BDF8FABD66DB07BA6ED,,,_497889.0df82d51c37d3bdf8fabd66db07ba6ed.pdf,0,2000-01-01 01:00:00,2016-04-03 02:51:08,725000/0df82d51c37d3bdf8fabd66db07ba6ed-d.jpg,,
22020493,"How to Win at the Sport of Business: If I Can Do It, You Can Do It  ",,,,Mark Cuban,2011,,Diversion Books,,,0,English ,,,2011 12 30,,,ISBN10:B006AX6ONI,,,,,,,,,0,,,,,0,1,1,405735,epub,0DF8466386D3EE226A58A4CADB3E4EAD,,,_506032.0df8466386d3ee226a58a4cadb3e4ead.epub,0,2000-01-01 01:00:00,2016-04-03 02:51:08,725000/0DF8466386D3EE226A58A4CADB3E4EAD-g.jpg,,
22020494,The Radio Amateur's Microwave Communications Handbook  ,,,,Dave Ingram,1986,,Tab Books,,192,0,English ,,,2011 12 30,"0830601945,9780830601943",,,,,621.38/0413,TK9957 .I54 1985,,,OL2540900M,,0,,,,1,1,1,1,13812229,pdf,0DF89BCF98A7804E0E0DB7F33AF951ED,,,_446136.0df89bcf98a7804e0e0db7f33af951ed.pdf,0,2000-01-01 01:00:00,2016-04-03 02:51:08,725000/0df89bcf98a7804e0e0db7f33af951ed-g.jpg,,
22020495,Fluid Mechanics Fifth Edition  ,,,,"Pijush K. Kundu, Ira M. Cohen, David R Dowling",2011,5th,Academic Press,,919,0,English ,,,2011 12 30,"0123821002,9780123821003",,,,,620.1/06,QA901 .K86 2012,,,OL24839520M,,0,,,,1,0,1,1,26567663,pdf,0DF8D0C0F376C18CB44480A7AEBBCB98,,,_512877.0df8d0c0f376c18cb44480a7aebbcb98.pdf,0,2000-01-01 01:00:00,2016-04-03 02:51:08,725000/0df8d0c0f376c18cb44480a7aebbcb98-d.jpg,,
22020496,Dvanáct omylů sociologie  ,,"Studie, 9. svazek",,Jan Keller,1995,1. vydání,Sociologické nakladatelství,,172,0,Czech ,,,2011 12 30,"8085850095,9788085850093",,,,,,,,,OL912968M,,0,,,,1,0,1,1,813044,pdf,0DF8D5E74FE7CE73948F0F27D81BC433,,,_470744.0df8d5e74fe7ce73948f0f27d81bc433.pdf,0,2000-01-01 01:00:00,2016-04-03 02:51:08,725000/0df8d5e74fe7ce73948f0f27d81bc433-g.jpg,,
22020497,The ethics of Aristotle  ,,,,Aristotle; Alexander Grant,1857,,John W. Parker,,303,0,English ,,,2011 12 30,"1177690527,9781177690522",,,,,,,,,,,0,,,,0,1,0,1,7207099,pdf,0DFA3BC74FC16677A119D6BFD9409CDA,,,_442611.0dfa3bc74fc16677a119d6bfd9409cda.pdf,0,2000-01-01 01:00:00,2016-04-03 02:51:08,725000/0dfa3bc74fc16677a119d6bfd9409cda-d.jpg,,
22020498,"Nathan and Oski's Hematology of Infancy and Childhood: Expert Consult: Online and Print, 7th Edition  ",,,,"Stuart H. Orkin MD, David G. Nathan MD, David Ginsburg MD, A. Thomas Look MD, David E. Fisher MD PhD, Samuel Lux IV",2008,Seventh Edition,Saunders,,1868,0,English ,,,2011 12 30,"1416034307,9781416034308",,,,,618.92/15,RJ411 .N37 2009,,,OL23157580M,,0,,,,1,0,1,1,38858040,pdf,0DFA7D3C77465C8C5640485FF31A8A46,,,_491997.0dfa7d3c77465c8c5640485ff31a8a46.pdf,0,2000-01-01 01:00:00,2016-04-03 02:51:08,725000/0dfa7d3c77465c8c5640485ff31a8a46-d.jpg,,
22020499,Warrior: A Visual History of the Fighting Man  ,,,,R. G. Grant,2007,First Edition,DK ADULT,,361,0,English ,,,2011 12 30,"075663203X,9780756632038",,,,,,,,mK4bBAAACAAJ,OL10855528M,,0,,,,1,0,1,1,87320719,pdf,0DFB844B1FA1D71CC7C37902EBA837D5,,,_490569.0dfb844b1fa1d71cc7c37902eba837d5.pdf,0,2000-01-01 01:00:00,2016-04-03 02:51:08,725000/0dfb844b1fa1d71cc7c37902eba837d5-d.jpg,,
22020500,Encyclopedia of Astrobiology  ,,,,"Muriel Gargaud, Prof. Ricardo Amils, José Cernicharo Quintanilla, Henderson James (Jim) Cleaves II, William M. Irvine, Prof. Daniele L. Pinti, Michel Viso (eds.)",2011,1,Springer-Verlag Berlin Heidelberg,,1853,0,English,,,2011 12 30,"3642112714,9783642112713",,,,,,,10.1007/978-3-642-11274-4,,,,0,,,,1,0,1,1,59789661,pdf,0DFBBF1A2F7CA0B383B3E356A153ADC3,,,_438546.0dfbbf1a2f7ca0b383b3e356a153adc3.pdf,0,2000-01-01 01:00:00,2016-04-03 02:51:08,725000/0dfbbf1a2f7ca0b383b3e356a153adc3-d.jpg,,
22020501,Director in Action: Johnnie To and the Hong Kong Action Film  ,,,,Stephen Teo,2007,,Hong Kong University Press,,307,0,English ,,,2011 12 30,"9622098401,9789622098404,9789622098398",,,,,791.430233092,,,sePeA0F9J9QC,OL22763115M,,0,,,,1,0,1,1,2443071,pdf,0DFC4227663D1F20F8CBE40578D31AE3,,,_499109.0dfc4227663d1f20f8cbe40578d31ae3.pdf,0,2000-01-01 01:00:00,2016-04-03 02:51:08,725000/0dfc4227663d1f20f8cbe40578d31ae3-d.jpg,,
22020502,"Therapy in Sleep Medicine: Expert Consult - Online and Print (Clinics, The (Elsevier))  ",,,,"Teri J. Barkoukis MD, Jean K. Matheson MD, Richard Ferber MD, Karl Doghramji MD",2011,Har/Psc,Saunders,,813,0,English ,,,2011 12 30,"1437717039,9781437717037",,,,,616.8/49806,RC547 .T44 2012,,,OL25156615M,,0,,,,1,0,1,1,42551856,pdf,0DFC7C175381CD4133C5F01B6C698E19,,,_500637.0dfc7c175381cd4133c5f01b6c698e19.pdf,0,2000-01-01 01:00:00,2016-04-03 02:51:08,725000/0dfc7c175381cd4133c5f01b6c698e19-d.jpg,,
22020503,Der weiße Seidenschal  ,,,,Anne Perry,1995,,Heyne Verlag,,566,0,German ,,,2011 12 30,"3453088905,9783453088900",,,,,,,,,OL12716270M,,0,,,,1,0,1,1,2537392,pdf,0DFCA42BE2D9F6DBFBB6E648CE7A3142,,,_436290.0dfca42be2d9f6dbfbb6e648ce7a3142.pdf,0,2000-01-01 01:00:00,2016-04-03 02:51:08,725000/0dfca42be2d9f6dbfbb6e648ce7a3142-d.gif,,
22020504,How Linux Works: What Every Superuser Should Know  ,,,,Brian Ward,2004,1,No Starch Press,,,0,English ,,,2011 12 30,"1593270356,9781593270353",,,,,005.4/32,QA76.76.O63 W3654 2004,,,OL17921040M,,0,,,,,1,,,1051011,epub,0DFCD362CEBBCD6487430964BCAAA3BD,,,_475681.0dfcd362cebbcd6487430964bcaaa3bd.epub,0,2000-01-01 01:00:00,2016-04-03 02:51:08,725000/0dfcd362cebbcd6487430964bcaaa3bd-d.jpg,,
22020505,Castaway  ,,,,James Gould Cozzens,1989,,Elephant Paperbacks,,118,0,English ,,,2011 12 30,"0929587170,9780929587172",,,,,813/.52,PS3505.O99 C69 1989,,,OL2212649M,,0,,,,,1,,1,1208609,djvu,0DFDEBA8002B332950ABD5A9943BED8F,,,_510371.0dfdeba8002b332950abd5a9943bed8f.djvu,0,2000-01-01 01:00:00,2016-04-03 02:51:08,725000/0dfdeba8002b332950abd5a9943bed8f-d.jpg,,
22020506,Le Corbusier: Elements of a Synthesis  ,,,,Stanislaus Von Moos,1982,,The MIT Press,,370,0,English ,,,2011 12 30,"0262720086,9780262720083",,,,,,,,,OL10238660M,,0,,,,0,1,0,0,44214930,pdf,0DFE1815DB7EEED856E6B1278CAF1F30,,,_445482.0dfe1815db7eeed856e6b1278caf1f30.pdf,0,2000-01-01 01:00:00,2016-04-03 02:51:08,725000/0dfe1815db7eeed856e6b1278caf1f30-g.jpg,,
22020507,ELEX tijdschrift voor hobby-elektronica 1989-74  issue october,,,,Elektuur B.V.,1989,,,,46,0,Dutch ,,,2011 12 30,,,,,,,,,,,,0,,,,0,1,1,1,58774328,pdf,0DFE723AF94B70999B652E0C503748EA,,,_496723.0dfe723af94b70999b652e0c503748ea.pdf,0,2000-01-01 01:00:00,2016-04-03 02:51:08,725000/0dfe723af94b70999b652e0c503748ea-g.jpg,,
22020508,Advanced Calculations for Defects in Materials: Electronic Structure Methods  ,,,,"Audrius Alkauskas, Peter Deák, Jörg Neugebauer, Alfredo Pasquarello, Chris G. Van de Walle, Editors",2011,1,Wiley-VCH,,394,0,English ,,,2011 12 30,"3527410244,9783527410248",,,,,,,,,OL25190595M,,0,,,,,1,,1,5638919,pdf,0DFE8F9FA87FB2211D3202E6251E7183,,,_479328.0dfe8f9fa87fb2211d3202e6251e7183.pdf,0,2000-01-01 01:00:00,2016-04-03 02:51:08,725000/0dfe8f9fa87fb2211d3202e6251e7183-d.jpg,,
22020509,American Empire: Blood and Iron  ,,,,Harry Turtledove,2002,,Random House Publishing Group,,,0,English ,,,2011 12 30,"0345405668,9780345405661",,,,,813.54,,,,OL17128844M,,0,,,,0,0,1,1,1126306,mobi,0E00CF482DDD16F54FB6A6C033F99B6C,,,_505736.0e00cf482ddd16f54fb6a6c033f99b6c.mobi,0,2000-01-01 01:00:00,2016-04-03 02:51:08,725000/0e00cf482ddd16f54fb6a6c033f99b6c-d.jpg,,
22020510,,,,Physics Letters B vol 38 ,Elsevier,1972,,Elsevier,,572,0,English ,,,2011 12 30,,,,,,,,,,,,0,,,,0,1,1,1,5440145,djvu,0E01C04387E004D6AF1BFB94B15B78BD,,,_416896.0e01c04387e004d6af1bfb94b15b78bd.djvu,0,2000-01-01 01:00:00,2016-04-03 02:51:08,725000/0e01c04387e004d6af1bfb94b15b78bd-g.jpg,,
22020511,Cyberpragmatics: Internet-mediated communication in context (Pragmatics & Beyond New Series)  ,,Pragmatics & Beyond New Series 213,,Dr. Francisco Yus,2011,,John Benjamins Publishing Company,,368,0,English ,,,2011 12 30,"9027256195,9789027256195,9789027284662",,,,,401/.450285,P99.4.P72 Y87 2011,,,OL24896415M,,0,,,,1,0,1,1,2048119,pdf,0E02BE068A4A74FCDB90CE9EDDA42B78,,,_476112.0e02be068a4a74fcdb90ce9edda42b78.pdf,0,2000-01-01 01:00:00,2016-04-03 02:51:08,725000/0e02be068a4a74fcdb90ce9edda42b78-d.jpg,,
22020512,The Man Who Cycled the World  ,,,,Mark Beaumont,2011,,Broadway,,,0,English ,,,2011 12 30,9780307716668,,,,,,,,,,,0,,,,0,0,1,1,3228971,epub,0E02E17AF2DEBF6423C9DB7C938E55F9,,,_472925.0e02e17af2debf6423c9db7c938e55f9.epub,0,2000-01-01 01:00:00,2016-04-03 02:51:08,725000/0E02E17AF2DEBF6423C9DB7C938E55F9-g.jpg,,
22020513,The miracle at Speedy Motors  ,,,,Alexander McCall Smith,2008,1,Pantheon Books,,,0,English ,,,2011 12 30,"0375424482,9780375424489",,,,,823/.914,PR6063.C326 M53 2008,,nZx8V7ydzrwC,OL18267553M,,0,,,,,1,,,406087,epub,0E03F904C12895784E3D147D52638CF3,,,_502994.0e03f904c12895784e3d147d52638cf3.epub,0,2000-01-01 01:00:00,2016-04-03 02:51:08,725000/0e03f904c12895784e3d147d52638cf3-d.jpg,,
22020514,Candy Apple Dead  ,,,,Sammi Carter,2005,,Berkley Prime Crime,,,0,English ,,,2011 12 30,"0425205320,9780425205327",,,,,,,,5_65PT-xTzgC,OL7505214M,,0,,,,,1,,,242150,epub,0E0512B7AF8E317BB34EB9F856E60C26,,,_488987.0e0512b7af8e317bb34eb9f856e60c26.epub,0,2000-01-01 01:00:00,2016-04-03 02:51:08,725000/0e0512b7af8e317bb34eb9f856e60c26-d.jpg,,
22020515,Qi: The Book of General Ignorance (The Noticeably Stouter Edition)  ,,,,"John Lloyd, John Mitchinson",2010,The Noticeably Stouter Edition,Faber & Faber,,,0,English ,,,2011 12 30,"9780571273782,0571273785",,,,,,,,,,,0,,,,,0,1,1,1049813,epub,0E09011E4236A4F9086C94A7BB62735D,,,_448364.0e09011e4236a4f9086c94a7bb62735d.epub,0,2000-01-01 01:00:00,2016-04-03 02:51:08,725000/0E09011E4236A4F9086C94A7BB62735D-g.jpg,,
22020516,"Wrinkles, Warts, and Wattles  ",,,,Lynn M. Stone,2009,Rei/Pap,Rourke Publishing LLC,,25,0,English ,,,2011 12 30,"1604723122,9781604723120,9781604727906",,,,,591.47,QL941 S86 2009,,eDWOMAAACAAJ,OL16701780M,,0,,,,1,0,1,1,3615844,pdf,0E097CBED8A8A915BBC8172F584E5F83,,,_510162.0e097cbed8a8a915bbc8172f584e5f83.pdf,0,2000-01-01 01:00:00,2016-04-03 02:51:08,725000/0e097cbed8a8a915bbc8172f584e5f83-d.jpg,,
22020517,Bioinformatics for Comparative Proteomics,,Methods in Molecular Biology 694,,"Chuming Chen, Hongzhan Huang, Cathy H. Wu (auth.), Cathy H. Wu, Chuming Chen (eds.)",2011,1,Humana Press,,387,0,English,,,2011 12 30,"1607619768,9781607619765",,,,,,,10.1007/978-1-60761-977-2,,OL25079205M,,0,,,,1,0,1,1,18158313,pdf,0E098F60B3256A1E4DB3A7C05D41F8D9,,,_511979.0e098f60b3256a1e4db3a7c05d41f8d9.pdf,0,2000-01-01 01:00:00,2016-04-03 02:51:08,725000/0e098f60b3256a1e4db3a7c05d41f8d9-d.jpg,,
22020518,NATO at 60: The Post-Cold War Enlargement and the Alliances Future (Nato Science for Peace and Security Series E: Human and Sociental Dynamics)  ,,Nato Science for Peace and Security Series E: Human and Sociental Dynamics,,A. Bebler,2010,,IOS Press,,205,0,English ,,,2011 12 30,"1607500930,9781607500933,9781607500964",,,,,,,,,OL24815330M,,0,,,,1,0,1,1,1147911,pdf,0E09F3E41B007868FC9F5741FD528392,,,_458667.0e09f3e41b007868fc9f5741fd528392.pdf,0,2000-01-01 01:00:00,2016-04-03 02:51:08,725000/0e09f3e41b007868fc9f5741fd528392-d.jpg,,
22020519,Academic Research and Researchers  ,,,,"Angela Brew, Lisa Lucas",2009,1,Open University Press,Maidenhead,248,0,English ,,,2011 12 30,"0335236065,9780335236060,9780335239207,033523920X,1283338165,9781283338165",,,,,,,,,,,0,,,,0,0,0,1,1083446,pdf,0E0B4684371CA274E726259DE2BEA39E,,,_461716.0e0b4684371ca274e726259de2bea39e.pdf,0,2000-01-01 01:00:00,2016-04-03 02:51:08,725000/0e0b4684371ca274e726259de2bea39e-d.jpg,,
22020520,,,,"The Economist September 24th, 2011 volume 400 issue 8752",The Economist Group (Publishers),2011,,The Economist Group,,144,0,English ,,,2011 12 30,,,,,,,,,,,,0,,,,0,1,0,0,119162029,pdf,0E0B629722ADC1146CD50A3DCA2230D7,,,_468991.0e0b629722adc1146cd50a3dca2230d7.pdf,0,2000-01-01 01:00:00,2016-04-03 02:51:08,725000/0e0b629722adc1146cd50a3dca2230d7-g.jpg,,
22020521,Goulder and the Gospels: An Examination of a New Paradigm (Library Of New Testament Studies)  ,,,,Mark Goodacre,1996,,Sheffield Academic Press,,418,0,English ,,,2011 12 30,"1850756317,9781850756316",,,,,226/.066,BS2555.2 .G564 1996,,,OL723731M,,0,,,,1,1,1,1,19917724,pdf,0E0C2CB48E6FDA59E92636B9E7B5C1CB,,,_508452.0e0c2cb48e6fda59e92636b9e7b5c1cb.pdf,0,2000-01-01 01:00:00,2016-04-03 02:51:08,725000/0e0c2cb48e6fda59e92636b9e7b5c1cb-d.jpg,,
22020522,Girlology: A Girl's Guide to Stuff that Matters  ,,,,"Melisa Holmes, Trish Hutchison",2005,,HCI Teens,,290,0,English ,,,2011 12 30,"9780757394997,075739499X",,,,,,,,,,,0,,,,,1,,1,1744712,mobi,0E0C5D1A322FBC7FB36BEC36A8F41F5B,,,_457215.0e0c5d1a322fbc7fb36bec36a8f41f5b.mobi,0,2000-01-01 01:00:00,2016-04-03 02:51:08,725000/0E0C5D1A322FBC7FB36BEC36A8F41F5B-g.jpg,,
22020523,,,,"Fichas de investigación económica y social, Año 1, Número 1 ",Milcíades Peña,1964,,,,80,0,"Spanish,Castilian",,,2011 12 30,,,,,,,,,,,,0,,,,1,1,1,1,23652235,pdf,0E0ED9475A35052E0806B76F8723234D,,,_485249.0e0ed9475a35052e0806b76f8723234d.pdf,0,2000-01-01 01:00:00,2016-04-03 02:51:08,725000/0e0ed9475a35052e0806b76f8723234d-g.jpg,,
22020524,Unternehmen Barbarossa: Der deutsche Krieg im Osten  ,,,,Christian Hartmann,2011,,C.H.Beck,,194,0,German ,,,2011 12 30,"3406612261,9783406612268",,,,,,,,auJsSj6G_SsC,,,0,,,,,1,,0,9933324,pdf,0E0EDD1432C15A1B0ECF1F21EFDDED7F,,,_513939.0e0edd1432c15a1b0ecf1f21efdded7f.pdf,0,2000-01-01 01:00:00,2016-04-03 02:51:08,725000/0e0edd1432c15a1b0ecf1f21efdded7f-g.jpg,,
22020525,Mastering the Nikon D7000  ,,,,Darrell Young,2011,1,Rocky Nook,,,0,English ,,,2011 12 30,"1933952806,9781933952802",,,,,771.3/1,TR263.N5 Y687 2011,,njTftgAACAAJ,OL24852713M,,0,,,,,1,,,19194532,epub,0E113643847D0E7C3DFB29AF86052CB8,,,_449268.0e113643847d0e7c3dfb29af86052cb8.epub,0,2000-01-01 01:00:00,2016-04-03 02:51:08,725000/0e113643847d0e7c3dfb29af86052cb8-d.jpg,,
22020526,A Deniable Death  ,,,,Gerald Seymour,2011,,Hodder & Stoughton,,,0,English ,,,2011 12 30,"1444705857,184894943X,9781444705850,9781848949430",,,,,,,,JvkWkgAACAAJ,,,0,,,,,0,1,1,679631,epub,0E11BB4C65FB6F9C47CBEBBD8DB86511,,,_456242.0e11bb4c65fb6f9c47cbebbd8db86511.epub,0,2000-01-01 01:00:00,2016-04-03 02:51:08,725000/0e11bb4c65fb6f9c47cbebbd8db86511-d.jpg,,
22020527,Probabilities in Physics  ,,,,"Claus Beisbart, Stephan Hartmann",2011,,Oxford University Press,,450,0,English ,,,2011 12 30,"0199577439,9780199577439",,,,,530.1592,QC20.7.P7 P76 2011,,m2vqPElCGpMC,OL25095234M,,0,,,,1,0,1,1,1977377,pdf,0E11C0C6BB972BB1F48A7DD4CAE35714,,,_499145.0e11c0c6bb972bb1f48a7dd4cae35714.pdf,0,2000-01-01 01:00:00,2016-04-03 02:51:08,725000/0e11c0c6bb972bb1f48a7dd4cae35714-d.jpg,,
22020528,Liquid Life: Abortion and Buddhism in Japan  ,,,,William R. LaFleur,,,Princeton University Press,,277,0,English ,,,2011 12 30,9780691029658,,,,,,,,,OL7756835M,,0,,,,1,1,0,1,6080412,pdf,0E11CD60C3E84574145A5BF543D7F7E2,,,_488283.0e11cd60c3e84574145a5bf543d7f7e2.pdf,0,2000-01-01 01:00:00,2016-04-03 02:51:08,725000/0e11cd60c3e84574145a5bf543d7f7e2-d.jpg,,
22020529,Short Term Trading Strategies That Work  ,,,,"Larry Connors, Cesar Alvarez",2008,1st,TradingMarkets,,144,0,English ,,,2011 12 30,"0981923909,9780981923901",,,,,,,,,,,0,,,,0,1,0,1,2997625,pdf,0E120C818E32C1D42B1CAC99059390CA,,,_471040.0e120c818e32c1d42b1cac99059390ca.pdf,0,2000-01-01 01:00:00,2016-04-03 02:51:08,725000/0e120c818e32c1d42b1cac99059390ca-d.jpg,,
22020530,Tratado General de Ajedrez (Vol. 2)  ,,,,Roberto G. Grau,1998,,Ediciones Colihue (Spanish Edition),,400,0,"Spanish,Castilian",,,2011 12 30,"9505816081,9789505816088",,,,,,,,,OL12993128M,,0,,,,,1,,1,21997647,pdf,0E1328E554D1EABA81B01EE1968B63B9,,,_491965.0e1328e554d1eaba81b01ee1968b63b9.pdf,0,2000-01-01 01:00:00,2016-04-03 02:51:08,725000/0e1328e554d1eaba81b01ee1968b63b9-d.jpg,,
22020531,Der gute Liebhaber. Roman  ,,,,Steinunn Sigurdardóttir,2011,,Rowohlt Digitalbuch,,,0,German ,,,2011 12 30,"3498064177,9783498064174,9783644014510",,,,,,,,,,,0,,,,,0,1,1,935585,epub,0E134223C265E4875DD4B60FB9FC0F95,,,_506703.0e134223c265e4875dd4b60fb9fc0f95.epub,0,2000-01-01 01:00:00,2016-04-03 02:51:08,725000/0E134223C265E4875DD4B60FB9FC0F95-g.jpg,,
22020532,Een nieuw begin  ,,,,"James, Erica",2010,,Orion Books,,,0,Dutch ,,,2011 12 30,"9032511874,9789032511876",,,,,,,,,,,0,,,,0,0,1,1,445868,epub,0E1364D4FDD002E939BA71CBBE0E884D,,,_513619.0e1364d4fdd002e939ba71cbbe0e884d.epub,0,2000-01-01 01:00:00,2016-04-03 02:51:08,725000/0E1364D4FDD002E939BA71CBBE0E884D-g.jpg,,
22020533,"You Are Not So Smart: Why You Have Too Many Friends on Facebook, Why Your Memory Is Mostly Fiction, and 46 Other Ways You're Deluding Yourself  ",,,,David McRaney,2011,,Gotham,,599,0,English ,,,2011 12 30,"1592406599,9781592406593",,,,,,,,,,,0,,,,1,1,0,1,4779453,pdf,0E14EB2B6F6872EB47791C19C17DDA54,,,_492682.0e14eb2b6f6872eb47791c19c17dda54.pdf,0,2000-01-01 01:00:00,2016-04-03 02:51:08,725000/0e14eb2b6f6872eb47791c19c17dda54-d.jpg,,
22020534,Walk in the Light and Twenty-Three Tales  ,,,,Leo Nikolayevich Tolstoy,2003,,Orbis Books,,274,0,English ,,,2011 12 30,"1570754608,9781570754609",,,,,,,,,OL8698819M,,0,,,,1,0,0,1,1013701,pdf,0E14F499E1CDA10AD8B52970022E8561,,,_432843.0e14f499e1cda10ad8b52970022e8561.pdf,0,2000-01-01 01:00:00,2016-04-03 02:51:08,725000/0e14f499e1cda10ad8b52970022e8561-d.jpg,,
22020535,Maximizing Intelligence  ,,,,David Armor,2003,New Ed,Transaction Publishers,,240,0,English ,,,2011 12 30,"1412804566,9781412804561",,,,,153.9,,,v6W7NitqMYIC,,,0,,,,0,1,0,1,15560872,pdf,0E15C7778F7846FDAE1BCC61C26C5DD0,,,_437132.0e15c7778f7846fdae1bcc61c26c5dd0.pdf,0,2000-01-01 01:00:00,2016-04-03 02:51:08,725000/0e15c7778f7846fdae1bcc61c26c5dd0-d.jpg,,
22020536,Green mars  ,,,,Kim Stanley Robinson,1995,,Bantam Books,,,0,English ,,,2011 12 30,"0553572393,9780553572391",,,,,813.54,,,GTX6YdPc954C,OL22204169M,,0,,,,,1,,,966326,epub,0E15F5E2B1584B0BD8F921738F6D9E16,,,_502852.0e15f5e2b1584b0bd8f921738f6d9e16.epub,0,2000-01-01 01:00:00,2016-04-03 02:51:08,725000/0e15f5e2b1584b0bd8f921738f6d9e16-d.jpg,,
22020537,Five Past Midnight in Bhopal: The Epic Story of the World's Deadliest Industrial Disaster  ,,,,"Dominique Lapierre, Javier Moro",2002,,Grand Central Publishing,,,0,English ,,,2011 12 30,,,,,,,,,,,,0,,,,,1,,,841920,epub,0E165A8F820EFEE10C5B2974B775EFA5,,,_491036.0e165a8f820efee10c5b2974b775efa5.epub,0,2000-01-01 01:00:00,2016-04-03 02:51:08,725000/0E165A8F820EFEE10C5B2974B775EFA5-g.jpg,,
22020538,"Equal Rites, Unequal Outcomes: Women in American Research Universities (Innovations in Science Education and Technology)  ",,,,Lilli S. Hornig,2008,1,Springer,,375,0,English ,,,2011 12 30,"0306473518,9780306473517",,,,,,,,,OL18182249M,,0,,,,,1,,1,35709825,pdf,0E17776338A7EC5543D4053F0FE3DD67,,,_486716.0e17776338a7ec5543d4053f0fe3dd67.pdf,0,2000-01-01 01:00:00,2016-04-03 02:51:08,725000/0e17776338a7ec5543d4053f0fe3dd67-d.jpg,,
22020539,"Branded by Fire (Psy-Changelings, Book 6)  ",,,,Nalini Singh,2009,Original,Berkley,,368,0,English ,,,2011 12 30,"0425226735,9780425226735",,,,,,,,,OL25210301M,,0,,,,,1,,1,1188250,pdf,0E1A5A6BDAE42212A09FD83F56D85A6D,,,_499580.0e1a5a6bdae42212a09fd83f56d85a6d.pdf,0,2000-01-01 01:00:00,2016-04-03 02:51:08,725000/0e1a5a6bdae42212a09fd83f56d85a6d-d.jpg,,
22020540,"Popular Controversies in World History: Investigating History's Intriguing Questions, Volume 4: The Twentieth Century to the Present volume 4 ",,,,Steven Danver,2010,,ABC-Clio Inc,,391,0,English ,,,2011 12 30,"1598840770,9781598840773",,,,,909,D24 .P67 2010,,,OL24494922M,,0,,,,1,0,1,1,12177653,pdf,0E1B0B91D76777297265083D73C8E9A0,,,_453164.0e1b0b91d76777297265083d73c8e9a0.pdf,0,2000-01-01 01:00:00,2016-04-03 02:51:08,725000/0e1b0b91d76777297265083d73c8e9a0-d.jpg,,
22020541,Stars Collide  ,,,,Janice Thompson,2011,,Revell,,,0,English ,,,2011 12 30,9781441214287,,,,,,,,,,,0,,,,,1,0,1,779748,mobi,0E1B3A26AB95D57525DC55C6134CB986,,,_460590.0e1b3a26ab95d57525dc55c6134cb986.mobi,0,2000-01-01 01:00:00,2016-04-03 02:51:08,725000/0E1B3A26AB95D57525DC55C6134CB986-g.jpg,,
22020542,The good research guide: for small-scale social research projects  ,,,,Martyn Denscombe,2007,3,McGraw-Hill International,,359,0,English ,,,2011 12 30,"0335220223,9780335220229",,,,,300.72,,,,OL22750291M,,0,,,,,1,,1,2386785,pdf,0E1C8ED0ECCBC41D2EB2D4C2104ACA7C,,,_454767.0e1c8ed0eccbc41d2eb2d4c2104aca7c.pdf,0,2000-01-01 01:00:00,2016-04-03 02:51:08,725000/0e1c8ed0eccbc41d2eb2d4c2104aca7c-d.jpg,,
22020543,A Japanese Grammar  ,,,,Johann Joseph Hoffmann,2011,,Nabu Press,,398,0,English ,,,2011 12 30,"1174778830,9781174778834",,,,,,,,,,,0,,,,,0,0,1,44796940,pdf,0E1F5C290F22E250039900AAAD5A5E8C,,,_471744.0e1f5c290f22e250039900aaad5a5e8c.pdf,0,2000-01-01 01:00:00,2016-04-03 02:51:08,725000/0e1f5c290f22e250039900aaad5a5e8c-d.jpg,,
22020544,Human Creation Between Reality and Illusion (Analecta Husserliana)  ,,Analecta Husserliana Vol. 87,,Anna-Teresa Tymieniecka (editor),2005,Softcover reprint of hardcover 1st ed. 2005,Springer,,293,0,English ,,,2011 12 30,"904816902X,9789048169023",,,,,,,,,,,0,,,,,1,,1,4278127,pdf,0E204846989065032F46F3E01913B39A,,,_510557.0e204846989065032f46f3e01913b39a.pdf,0,2000-01-01 01:00:00,2016-04-03 02:51:08,725000/0e204846989065032f46f3e01913b39a-d.jpg,,
22020545,Sepulchre  ,,,,Kate Mosse,2008,Paperback Book Club,Orion,,,0,English ,,,2011 12 30,"0752893963,9780752893969",,,,,,,,,,,0,,,,,1,,,469424,epub,0E20559D955C5958AA4D1DA9F47246B1,,,_476008.0e20559d955c5958aa4d1da9f47246b1.epub,0,2000-01-01 01:00:00,2016-04-03 02:51:08,725000/0e20559d955c5958aa4d1da9f47246b1-d.jpg,,
22020546,How to Become a Stressfree Trader: The Accidental Discoveries of an Applied Behavioral Science Student  ,,,,"Jason Starzec, Mark Crisp",2003,,iUniverse,,161,0,English ,,,2011 12 30,"0595275052,9780595275052",,,,,,,,,OL7552673M,,0,,,,,1,0,1,8535662,pdf,0E2072F9EDAAB3AF9E6AFE629EEF4556,,,_454748.0e2072f9edaab3af9e6afe629eef4556.pdf,0,2000-01-01 01:00:00,2016-04-03 02:51:08,725000/0e2072f9edaab3af9e6afe629eef4556-d.jpg,,
22020547,"The Great Derangement: A Terrifying True Story of War, Politics, and Religion at the Twilight of the American Empire  ",,,,Matt Taibbi,2008,,Spiegel & Grau,,,0,English ,,,2011 12 30,"9780385525701,0385525702",,,,,,,,HmfhgUL4K8sC,OL24264171M,,0,,,,,0,1,1,546723,mobi,0E20F9506FFB1C08973B716ABF08A446,,,_492590.0e20f9506ffb1c08973b716abf08a446.mobi,0,2000-01-01 01:00:00,2016-04-03 02:51:08,725000/0E20F9506FFB1C08973B716ABF08A446-g.jpg,,
22020548,The Calculus: A Genetic Approach  ,,,,Otto Toeplitz,2007,,University Of Chicago Press,,209,0,English ,,,2011 12 30,"0226806685,9780226806686",,,,,517.1,,,,OL9415436M,,0,,,,0,1,1,1,8378027,pdf,0E22C2B8FC02E2D560F19CD41319A415,,,_503675.0e22c2b8fc02e2d560f19cd41319a415.pdf,0,2000-01-01 01:00:00,2016-04-03 02:51:08,725000/0e22c2b8fc02e2d560f19cd41319a415-d.jpg,,
22020549,"Heidegger, Art, and Postmodernity  ",,,,Iain D. Thomson,2011,,Cambridge University Press,,267,0,English ,,,2011 12 30,"0521172497,9780521172493,1107001501,9781107001503",,,,,193,B3279.H49 T478 2011,,mF9pi8M_ihQC,OL24903073M,,0,,,,1,0,1,1,2089096,pdf,0E22FD0013BCE503BA7922CE91C37C70,,,_471048.0e22fd0013bce503ba7922ce91c37c70.pdf,0,2000-01-01 01:00:00,2016-04-03 02:51:08,725000/0e22fd0013bce503ba7922ce91c37c70-d.jpg,,
22020550,Disaster Rules  ,,,,"Rob Russell, Timothy J. Hodgetts, Peter F. Mahoney, Nicholas Castle",2010,1,Wiley-Blackwell,,166,0,English ,,,2011 12 30,"1405193786,9781405193788",,,,,,,,,,,0,,,,1,0,1,1,849000,pdf,0E238DB35A3BC719CC22CA075B80E59E,,,_479131.0e238db35a3bc719cc22ca075b80e59e.pdf,0,2000-01-01 01:00:00,2016-04-03 02:51:08,725000/0e238db35a3bc719cc22ca075b80e59e-d.jpg,,
22020551,Eros and Creativity in Russian Religious Renewal (Russian History and Culture)  ,,Russian History and Culture 3,,Anna Lisa Crone,2010,,BRILL,,279,0,English ,,,2011 12 30,"9004180052,9789004180055",1877-7791,,,,230/.19092247,BX485 .C76 2010,,xSbsHKNq6o8C,OL23833576M,,0,,,,1,0,1,1,1283625,pdf,0E23D80DFA5960EEC388C9ECA7D4D6AE,,,_501280.0e23d80dfa5960eec388c9eca7d4d6ae.pdf,0,2000-01-01 01:00:00,2016-04-03 02:51:08,725000/0e23d80dfa5960eec388c9eca7d4d6ae-d.jpg,,
22020552,Without Reservations: The Travels of an Independent Woman  ,,,,Alice Steinbach,2011,,Random House Trade Paperbacks,,,0,English ,,,2011 12 30,"9780307769824,0307769828",,,,,818′.5403—dc21,PN4874.S682A3 2000,,hEIk11CJxgUC,,,0,,,,0,0,1,1,4820547,epub,0E250AA2447798A36C9C268FECF65823,,,_476072.0e250aa2447798a36c9c268fecf65823.epub,0,2000-01-01 01:00:00,2016-04-03 02:51:08,725000/0E250AA2447798A36C9C268FECF65823-g.jpg,,
22020553,Identity Crisis (Silhouette Bombshell)  ,,,,Kate Donovan,2004,,Silhouette,,,0,English ,,,2011 12 30,"0373513348,9780373513345",,,,,,,,,OL3471914M,,0,,,,,1,,,270089,epub,0E270E2BEDC373F464352934E7F7D030,,,_492681.0e270e2bedc373f464352934e7f7d030.epub,0,2000-01-01 01:00:00,2016-04-03 02:51:08,725000/0e270e2bedc373f464352934e7f7d030-d.jpg,,
22020554,Four Vedas - English Translation  ,,,,"RT Griffith, AB Keith, M Bloomfield",,,,,1446,0,English ,,,2011 12 30,,,,,,,,,,,,0,,,,,1,,1,9461907,pdf,0E2784CDC7A41C4FC9216133C30B7E42,,,_449619.0e2784cdc7a41c4fc9216133c30b7e42.pdf,0,2000-01-01 01:00:00,2016-04-03 02:51:08,725000/0e2784cdc7a41c4fc9216133c30b7e42-g.jpg,,
22020555,The Prague Cemetery  ,,,,Umberto Eco,,,,,,0,English ,,,2011 12 30,,,,,,,,,,,,0,,,,,1,,,3075176,epub,0E27E707B87D695E4A6551ADD76C3F43,,,_495505.0e27e707b87d695e4a6551add76c3f43.epub,0,2000-01-01 01:00:00,2016-04-03 02:51:08,725000/0E27E707B87D695E4A6551ADD76C3F43-g.jpg,,
22020556,The prime of life  ,,,,Simone de Beauvoir,1965,n.e.,Penguin Books,,609,0,English ,,,2011 12 30,"0140022228,9780140022223",,,,,,,,UlZoQgAACAAJ,OL7345948M,,600,,,,1,0,0,1,18917184,pdf,0E27E749E30E4DE8DB268ED54E05E6F3,,,_462263.0e27e749e30e4de8db268ed54e05e6f3.pdf,0,2000-01-01 01:00:00,2016-04-03 02:51:08,725000/0e27e749e30e4de8db268ed54e05e6f3-d.jpg,,
22020557,ESD: Circuits and Devices  ,,,,Steven H. Voldman,2006,1,Wiley,,405,0,English ,,,2011 12 30,"0470847549,9780470847541",,,,,621.381,TK7871.85 .V65 2006,,,OL3431363M,,0,,,,0,1,1,1,8035843,pdf,0E287099B1017717D0F79C114B8712CF,,,_441930.0e287099b1017717d0f79c114b8712cf.pdf,0,2000-01-01 01:00:00,2016-04-03 02:51:08,725000/0e287099b1017717d0f79c114b8712cf-d.jpg,,
22020558,Industrial Applications of Surfactants IV (Special Publications) (Vol 4)  ,,,,D.R. Karsa,1999,1,Royal Society of Chemistry,,295,0,English ,,,2011 12 30,"0854047735,9780854047734",,,,,,,,,OL11609937M,,0,,,,0,1,0,1,20092679,pdf,0E29BE79B98206EB31F6AD68ECD80F5D,,,_504949.0e29be79b98206eb31f6ad68ecd80f5d.pdf,0,2000-01-01 01:00:00,2016-04-03 02:51:08,725000/0e29be79b98206eb31f6ad68ecd80f5d-d.jpg,,
22020559,"Le clan de chimères, Tome 4 : Sortilège  ",,,,"Eric Corbeyran, Michel Suro",2011,,Delcourt,,51,0,French ,,,2011 12 30,"2756023299,9782756023298",,,,,,,,,,,0,,,,1,1,0,0,34596594,pdf,0E2AA4EE759268A1E7CF1C02369B38A7,,,_465440.0e2aa4ee759268a1e7cf1c02369b38a7.pdf,0,2000-01-01 01:00:00,2016-04-03 02:51:08,725000/0e2aa4ee759268a1e7cf1c02369b38a7-d.jpg,,
22020560,The Rise of Neo-Kantianism: German Academic Philosophy between Idealism and Positivism (Ideas in Context)  ,,,,Klaus Christian Kohnke,1991,First Edition,Cambridge University Press,,293,0,English ,,,2011 12 30,"0521373360,9780521373364",,,,,142/.3/0943,B3192 .K6413 1991,,9YFuQgAACAAJ,OL1864967M,,0,,,,0,1,1,1,42350499,pdf,0E2BB76D32F190CDC499167A0F624964,,,_426408.0e2bb76d32f190cdc499167a0f624964.pdf,0,2000-01-01 01:00:00,2016-04-03 02:51:08,725000/0e2bb76d32f190cdc499167a0f624964-d.jpg,,
22020561,Groups and Representations (Graduate Texts in Mathematics)  ,,Graduate Texts in Mathematics 162,,"J.L. Alperin, Rowen B. Bell",1995,1,Springer,,206,0,English ,,Kolxo3,2011 12 30,"0387945261,9780387945262",,,,,512/.2,QA176 .A46 1995,,,OL784984M,,600,,,,0,1,1,1,1615299,djvu,0E2BBA8B021779502817FF2276776374,,,"M_Mathematics/MA_Algebra/MAr_Representation theory/Alperin J.L., Bell R.B. Groups and representations (GTM0162, Springer, 1995)(ISBN 0387945253)(600dpi)(T)(O)(206s)_MAr_.djvu",0,2000-01-01 01:00:00,2016-04-03 02:51:08,725000/0e2bba8b021779502817ff2276776374-d.jpg,,
22020562,"The True Adventures of the World's Greatest Stuntman: My Life as Indiana Jones, James Bond, Superman and Other Movie Heroes  ",,,,"Vic Armstrong, Robert Sellers",2011,,Titan Books,,,0,English ,,,2011 12 30,"1848568746,9781848568747,9780857687937",,,,,791.43028092,PN1998.3.A7556 A3 2011,,,OL24883710M,,0,,,,,1,,,8075750,epub,0E2BFEA4342B97ACF3EC0C411EB4FD4D,,,_476356.0e2bfea4342b97acf3ec0c411eb4fd4d.epub,0,2000-01-01 01:00:00,2016-04-03 02:51:08,725000/0e2bfea4342b97acf3ec0c411eb4fd4d-d.jpg,,
22020563,Natureza e Ilustração: Sobre o Materialismo de Diderot  ,,,,Maria das Graças Sousa,2002,,,,179,0,Portuguese ,,,2011 12 30,85-7139-403-2,,,,,,,,,,,0,,,,,1,,1,983820,pdf,0E2CF5C94E50226B288EE141F2148CF1,,,_499208.0e2cf5c94e50226b288ee141f2148cf1.pdf,0,2000-01-01 01:00:00,2016-04-03 02:51:08,725000/0e2cf5c94e50226b288ee141f2148cf1-g.jpg,,
22020564,Multiple Abstraction Hierarchies for Mobile Robot Operation in Large Environments (Studies in Computational Intelligence)  ,,Studies in Computational Intelligence 68,,"Cipriano Galindo, Juan-Antonio Fernández-Madrigal, Javier Gonzalez",2007,1,Springer,,178,0,English ,,,2011 12 30,"3540726888,9783540726883",1860-949X,,,,,TJ211.415.G35 2007,,cosenVzssg0C,OL12810489M,,0,,,,1,0,1,1,4721331,pdf,0E2DB6A372B1A92CFF0A80B717713514,,,_470157.0e2db6a372b1a92cff0a80b717713514.pdf,0,2000-01-01 01:00:00,2016-04-03 02:51:08,725000/0e2db6a372b1a92cff0a80b717713514-d.jpg,,
22020565,Myth and Tragedy in Ancient Greece  ,,,,"Jean-Pierre Vernant, Pierre Vidal-Naquet",1990,,Zone,,526,0,English ,,,2011 12 30,"0942299191,9780942299199",,,,,882/.010916,PA3131 .V413 1990,,,OL1979245M,,0,,,,1,1,0,0,41474651,pdf,0E2EA5FE0B74EAED5B123BAD349059C0,,,_484205.0e2ea5fe0b74eaed5b123bad349059c0.pdf,0,2000-01-01 01:00:00,2016-04-03 02:51:08,725000/0e2ea5fe0b74eaed5b123bad349059c0-d.jpg,,
22020566,القصاص دراسة في الفقه الجنائي المقارن  ,,,,د. هاني السباعي,,,,,456,0,Arabic ,,,2011 12 30,,,,,,,,,,,,0,,,,,1,,1,1411020,pdf,0E2F3C702CBF1FF5A01617B2046B715D,,,_514531.0e2f3c702cbf1ff5a01617b2046b715d.pdf,0,2000-01-01 01:00:00,2016-04-03 02:51:08,725000/0e2f3c702cbf1ff5a01617b2046b715d-g.jpg,,
22020567,Solution manual for machine design (Norton 3e)  ,,,,Thomas A. Cook,2006,3rd,Person Prentice Hall,,1276,0,English ,,,2011 12 30,"0131483129,9780131483125",,,,,,,,,,,0,,,,,1,,0,48211623,pdf,0E30099CEE3951585114E2CD475591F0,,,_507484.0e30099cee3951585114e2cd475591f0.pdf,0,2000-01-01 01:00:00,2016-04-03 02:51:08,725000/0e30099cee3951585114e2cd475591f0-g.jpg,,
22020568,Der unendliche Plan  ,,,,Isabel Allende,1992,,Suhrkamp,,500,0,German ,,,2011 12 30,"3518405004,9783518405000",,,,,,,,,,,0,,,,,0,,1,582532,epub,0E30C9BA1FAEBBE353F4E15245100F77,,,_453487.0e30c9ba1faebbe353f4e15245100f77.epub,0,2000-01-01 01:00:00,2016-04-03 02:51:08,725000/0e30c9ba1faebbe353f4e15245100f77-d.gif,,
22020569,खेळ खिलोने  ,,,,"Arvind Gupta, Ramesh Kothari",1991,,"NCSTC, New Delhi, India",,30,0,Hindi ,,,2011 12 30,,,,,,,,,,,,0,,,,,1,,0,12392932,pdf,0E30D9A5B303478D6DAC10611FDE590A,,,_443363.0e30d9a5b303478d6dac10611fde590a.pdf,0,2000-01-01 01:00:00,2016-04-03 02:51:08,725000/0e30d9a5b303478d6dac10611fde590a-g.jpg,,
22020570,Shadows of power: an allegory of prudence in land-use planning  ,,,,Jean Hillier,2002,,Routledge,,364,0,English ,,,2011 12 30,"0415256305,9780415256308",,,,,333.73,HD108.6 .H55 2002,,nMN37Mn83V4C,OL3569939M,,0,,,,,1,,1,2242313,pdf,0E31B23280085F0DFD7C715DBBB4F4D0,,,_473543.0e31b23280085f0dfd7c715dbbb4f4d0.pdf,0,2000-01-01 01:00:00,2016-04-03 02:51:08,725000/0e31b23280085f0dfd7c715dbbb4f4d0-d.jpg,,
22020571,"Mathematics, Ideas and the Physical Real  ",,,,Albert Lautman,2011,,Continuum,,353,0,English ,,,2011 12 30,"1441146563,9781441146564,144112344X,9781441123442",,,,,,,,HGVhtKctvE8C,,,0,,,,1,0,1,1,1305681,pdf,0E35515AF531CDA9BDA4C7E236BE0ECC,,,_479586.0e35515af531cda9bda4c7e236be0ecc.pdf,0,2000-01-01 01:00:00,2016-04-03 02:51:08,725000/0e35515af531cda9bda4c7e236be0ecc-d.jpg,,
22020572,Fashion Illustration for Designers. 2nd Edition  ,,,,Kathryn Hagen,2009,2nd,Prentice Hall,,593,0,English ,,,2011 12 30,"013501557X,9780135015575",,,,,741.6/72,TT509 .H16 2011,,Cs4xPQAACAAJ,OL23919689M,,0,,,,1,0,1,1,158799518,pdf,0E361306E6836B7939786752B9B58EEF,,,_466381.0e361306e6836b7939786752b9b58eef.pdf,0,2000-01-01 01:00:00,2016-04-03 02:51:08,725000/0e361306e6836b7939786752b9b58eef-d.jpg,,
22020573,How I Got This Way  ,,,,Regis Philbin,2011,,HarperCollins,,,0,English ,,,2011 12 30,"0062109774,0062109758,9780062109774,9780062109750",,,,,"791.4502/8092,B",PN1992.4.P45 A3 2011,,axIDLqvxZmcC,OL25121507M,,0,,,,,0,1,1,3726000,epub,0E366F3BC9633DC84A2688973EDE9687,,,_505690.0e366f3bc9633dc84a2688973ede9687.epub,0,2000-01-01 01:00:00,2016-04-03 02:51:08,725000/0e366f3bc9633dc84a2688973ede9687-d.jpg,,
22020574,A History of Korea: From Antiquity to the Present  ,,,,Michael J. Seth,2010,annotated edition,Rowman & Littlefield Publishers,,595,0,English ,,,2011 12 30,"0742567168,9780742567160,074256715X,9780742567153,9780742567177",,,,,951.9,DS907.18 .S426 2011,,WJtMGXyGlUEC,OL25001243M,,0,,,,1,0,1,1,3025917,pdf,0E3725239ED666C423389BDC5144ABE6,,,_459419.0e3725239ed666c423389bdc5144abe6.pdf,0,2000-01-01 01:00:00,2016-04-03 02:51:08,725000/0e3725239ed666c423389bdc5144abe6-d.jpg,,
22020575,International Business and the Eclectic Paradigm  ,,,,John Cantwell,2007,,Taylor & Francis,,320,0,English ,,,2011 12 30,,,,,,,,,,,,0,,,,1,1,1,1,3060464,mobi,0E3928A102A8D143CBFDC6535299DB2C,,,_464518.0e3928a102a8d143cbfdc6535299db2c.mobi,0,2000-01-01 01:00:00,2016-04-03 02:51:08,725000/0E3928A102A8D143CBFDC6535299DB2C-g.jpg,,
22020576,"Facing the East in the West: Images of Eastern Europe in British Literature, Film and Culture. (Internationale Forschungen Zur Allgemeinen Und Vergleichenden Literaturwissenschaft)  ",,"Internationale Forschungen zur allgemeinen und vergleichenden Literaturwissenschaft, 138",,"Barbara Korte, Eva Ulrike Pirker, Sissy Helff",2010,,Rodopi,"Amsterdam ; New York, NY",458,0,English ,,,2011 12 30,"9042030496,978-90-420-3049-7,978-90-420-3050-3,904203050X",,,,,,,,,,,0,,,,0,1,0,1,5725787,pdf,0E3DC7AA765529813AC59788A1597F5B,,,_473315.0e3dc7aa765529813ac59788a1597f5b.pdf,0,2000-01-01 01:00:00,2016-04-03 02:51:08,726000/0e3dc7aa765529813ac59788a1597f5b-d.jpg,,
22020577,The Book of Tomorrow  ,,,,Cecelia Ahern,2010,,HarperCollins,,,0,English ,,,2011 12 30,"0061706302,9780061706301",,,,,,,,TLdLXK-9uDYC,OL24589743M,,0,,,,,0,1,1,368649,epub,0E3E29260F4B49E102D67B3D3262CF76,,,_465238.0e3e29260f4b49e102d67b3d3262cf76.epub,0,2000-01-01 01:00:00,2016-04-03 02:51:08,726000/0e3e29260f4b49e102d67b3d3262cf76-d.jpg,,
22020578,Φιλοσοφία του ανθρώπου  ,,Ιδέες και Συστήματα · 3,,Ευτύχης Μπιτσάκης,1991,3η έκδ.,Gutenberg - Γιώργος & Κώστας Δαρδανός,,351,0,Greek(Modern),,,2011 12 30,9789600102864,,,,,,,,,,,600,,,,0,1,1,0,4062080,djvu,0E3F5B27663D68442D5E352D97463A66,c572a11c47e6e7c5fcdbc5bee527e750,no,_501010.0e3f5b27663d68442d5e352d97463a66.djvu,0,2000-01-01 01:00:00,2016-04-03 02:51:08,,,
22020579,"Speak, Bird, Speak Again: Palestinian Arab Folktales  ",,,,"Ibrahim Muhawi, Sharif Kanaana",1989,,University of California Press,,,0,English ,,,2011 12 30,"0520062922,9780520062924",,,,,398.2/095694,GR285 .S64 1989,,,OL2529423M,,0,,,,,1,,,506383,epub,0E4097F384A4F5D425778D0DBE0E5A49,,,_464131.0e4097f384a4f5d425778d0dbe0e5a49.epub,0,2000-01-01 01:00:00,2016-04-03 02:51:08,726000/0e4097f384a4f5d425778d0dbe0e5a49-d.jpg,,
22020580,haXe 2 Beginner's Guide  ,,,,Benjamin Dasnois,2011,,Packt Publishing,,288,0,English ,,,2011 12 30,"9781849512565,1849512566",,,,,,,,,,,0,,,,1,0,1,1,3057295,pdf,0E415B6BA2C7A9E5B4B67F6D6E8DE21A,,,_450610.0e415b6ba2c7a9e5b4b67f6d6e8de21a.pdf,0,2000-01-01 01:00:00,2016-04-03 02:51:08,726000/0e415b6ba2c7a9e5b4b67f6d6e8de21a-d.jpg,,
22020581,"Fun with Figures: brilliant mental maths, short cuts will amaze everyone  ",,,,Kenneth Williams,1998,,Inspiration Books,,52,0,English ,,,2011 12 30,"1902517016,9781902517018",,,,,,,,,,,0,,,,,1,0,1,976260,pdf,0E41AE9F2B3EC20BB0B5070FA9C2F040,,,_475672.0e41ae9f2b3ec20bb0b5070fa9c2f040.pdf,0,2000-01-01 01:00:00,2016-04-03 02:51:08,726000/0e41ae9f2b3ec20bb0b5070fa9c2f040-g.jpg,,
22020582,"Nerve, Brain and Memory Models",,Progress in Brain Research 2,,N. Wiener and J.P. Schadé (Eds.),1963,,Elsevier Science,,"ii-v, 1-280",0,English ,,,2011 12 30,"0444406425,9780444406422",0079-6123,,,,,,,,,,0,,,,,1,,1,16754848,pdf,0E421834CE6FFA18668BAA2FA418D58E,,,_455046.0e421834ce6ffa18668baa2fa418d58e.pdf,0,2000-01-01 01:00:00,2016-04-03 02:51:08,726000/0e421834ce6ffa18668baa2fa418d58e-d.jpg,,
22020583,Realism and Anti-Realism (Central Problems of Philosophy)  ,,,,"Stuart Brock, Edwin Mares",2007,,Mcgill Queens Univ Pr,,257,0,English ,,,2011 12 30,"0773532390,9780773532397",,,,,,,,,OL8079729M,,0,,,,,0,1,1,1023749,pdf,0E42E2469388216DD5786E4904C28D7C,,,_496512.0e42e2469388216dd5786e4904c28d7c.pdf,0,2000-01-01 01:00:00,2016-04-03 02:51:08,726000/0e42e2469388216dd5786e4904c28d7c-d.jpg,,
22020584,Three-Dimensional Flows,,Ergebnisse der Mathematik und ihrer Grenzgebiete. 3. Folge / A Series of Modern Surveys in Mathematics 53,,"Vítor Araújo, Maria José Pacifico (auth.)",2010,1,Springer-Verlag Berlin Heidelberg,,355,0,English,,,2011 12 30,"364211413X,9783642114137",,,,,,,10.1007/978-3-642-11414-4,,,,0,,,,1,0,1,1,2822072,pdf,0E45BE52AAE911118F6C753ABD4A3029,,,_138580.0e45be52aae911118f6c753abd4a3029.pdf,0,2000-01-01 01:00:00,2016-04-03 02:51:08,726000/0e45be52aae911118f6c753abd4a3029-d.jpg,,
22020585,Real-Time Systems Design and Analysis  ,,,,Phillip A. Laplante,2004,3,Wiley-IEEE Press,,529,0,English ,,,2011 12 30,"0471228559,9780471228554",,,,,,,,,OL22584225M,,0,,,,,1,,1,6004061,pdf,0E46BC47B2374FD0E3D73FE934B11DAD,,,_456816.0e46bc47b2374fd0e3d73fe934b11dad.pdf,0,2000-01-01 01:00:00,2016-04-03 02:51:08,726000/0e46bc47b2374fd0e3d73fe934b11dad-d.jpg,,
22020586,Real Analysis: A Historical Approach (Pure and Applied Mathematics)  ,,,,Saul Stahl,2011,2,Wiley,,316,0,English ,,,2011 12 30,"0470878908,9780470878903",,,,,515/.8,QA300 .S882 2011,,,OL24839118M,,0,,,,,1,,1,3921045,pdf,0E47B937AB95E2DE4DA49924954940E7,,,_487933.0e47b937ab95e2de4da49924954940e7.pdf,0,2000-01-01 01:00:00,2016-04-03 02:51:08,726000/0e47b937ab95e2de4da49924954940e7-d.jpg,,
22020587,A Bridge of Years  ,,,,Robert Charles Wilson,2011,First Edition,Tom Doherty Associates,,535,0,English ,,,2011 12 30,"0765327422,9780765327420,0385419368,9780385419369",,,,,813/.54,PR9199.3.W4987 B7 1991,,tp6-OAAACAAJ,OL2028332M,,0,,,,0,0,0,1,291575,epub,0E489A962CF162932A3CAC07674EC236,,,_456386.0e489a962cf162932a3cac07674ec236.epub,0,2000-01-01 01:00:00,2016-04-03 02:51:08,726000/0e489a962cf162932a3cac07674ec236-d.jpg,,
22020588,The Neural Bases of Multisensory Processes (Frontiers in Neuroscience)  ,,Frontiers in Neuroscience,,"Micah M. Murray, Mark T. Wallace",2011,1,CRC Press,,784,0,English ,,,2011 12 30,"1439812179,9781439812174,9781439812198",,,,,612.8/11,QP447 .N48 2011,,pRV1XsOyAc8C,OL24842212M,index is missing,0,,,,1,0,1,1,18161161,pdf,0E49130B1DA89DA5F4D88A2D1679A5ED,,,_509163.0e49130b1da89da5f4d88a2d1679a5ed.pdf,0,2000-01-01 01:00:00,2016-04-03 02:51:08,726000/0e49130b1da89da5f4d88a2d1679a5ed-d.jpg,,
22020589,"Legal research: how to find & understand the law, 15th Edition  ",,,,Stephen Elias,2009,15th,Nolo,,412,0,English ,,,2011 12 30,"1413310524,9781413310528",,,,,340.072/073,KF242.A1 E43 2009,,gqmZ8n4uLPoC,OL23187136M,,0,,,,1,0,1,1,9628157,pdf,0E4AB31A898A725CAEA6493C3E83B666,,,_512604.0e4ab31a898a725caea6493c3e83b666.pdf,0,2000-01-01 01:00:00,2016-04-03 02:51:08,726000/0e4ab31a898a725caea6493c3e83b666-d.jpg,,
22020590,Histologia: Texto Y Atlas  ,,,,"Michael H. Ross, Wojciech Pawlina",2007,5,"Médica Panamericana S.A. (Buenos Aires, Argentina)",,765,0,"Spanish,Castilian",,,2011 12 30,"9500604353,9789500604352",,,,,,,,,,,0,,,,0,1,1,0,138407095,pdf,0E4AE6BF695B462E0805C3C63FDE77E5,,,_476702.0e4ae6bf695b462e0805c3c63fde77e5.pdf,0,2000-01-01 01:00:00,2016-04-03 02:51:08,726000/0e4ae6bf695b462e0805c3c63fde77e5-d.jpg,,
22020591,Die Ordnung der Dinge: Eine Archäologie der Humanwissenschaften  ,,,,Michel Foucault,2009,Neuauflage.,Suhrkamp Verlag,,235,0,German ,,,2011 12 30,"3518276964,9783518276969",,,,,,,,,OL9050470M,,0,,,,,1,,0,14977479,pdf,0E4C72E819D5C670542D418216B5D1BA,,,_500787.0e4c72e819d5c670542d418216b5d1ba.pdf,0,2000-01-01 01:00:00,2016-04-03 02:51:08,726000/0e4c72e819d5c670542d418216b5d1ba-d.jpg,,
22020592,Professional Trading Techniques  ,,,,Linda Bradford Raschke,2012,,"Linda Raschke and LBRGroup, Inc",,135,0,English ,,,2011 12 30,,,,,,,,,,,,0,,,,1,0,1,1,1733089,pdf,0E4E0D23A296E92DDD2641256A449F02,,,_514638.0e4e0d23a296e92ddd2641256a449f02.pdf,0,2000-01-01 01:00:00,2016-04-03 02:51:08,726000/0e4e0d23a296e92ddd2641256a449f02-g.jpg,,
22020593,"Pedagogy, Not Policing: Positive Approaches to Academic Integrity at the University  ",,,,"Tyra Twomey, Holly White, Ken Sagendorf",2009,,Syracuse University Press,,176,0,English ,,,2011 12 30,"0977784746,9780977784745",,,,,378.1/98,LB3609 .P36 2008,,njr5PAAACAAJ,OL22849578M,,0,,,,1,0,1,1,1095221,pdf,0E4E5180F3B1D097D136006A5D125596,,,_454461.0e4e5180f3b1d097d136006a5d125596.pdf,0,2000-01-01 01:00:00,2016-04-03 02:51:08,726000/0e4e5180f3b1d097d136006a5d125596-d.jpg,,
22020594,"Do Travel Writers Go to Hell?: A Swashbuckling Tale of High Adventures, Questionable Ethics, and Professional Hedonism  ",,,,Thomas B. Kohnstamm,2008,,Three Rivers Press,,492,0,English ,,,2011 12 30,"0307394654,9780307394651",,,,,"910.4092,B",G154.5.K65 A3 2008,,6GabZxz4odIC,OL10353684M,,0,,,,,0,1,1,660940,epub,0E4EDCE023CA9A6697ADCEEC2AF5AB05,,,_485192.0e4edce023ca9a6697adceec2af5ab05.epub,0,2000-01-01 01:00:00,2016-04-03 02:51:08,726000/0e4edce023ca9a6697adceec2af5ab05-d.jpg,,
22020595,"The Heartless Stone: A Journey Through the World of Diamonds, Deceit, and Desire  ",,,,Tom Zoellner,2007,,Picador,,348,0,English ,,,2011 12 30,"0312339704,9780312339708",,,,,553.8/2,TS753 .Z64 2006,,,OL24746968M,,0,,,,0,1,0,1,2652748,pdf,0E4EE58D72486BD0409D3448A58C01A8,,,_432284.0e4ee58d72486bd0409d3448a58c01a8.pdf,0,2000-01-01 01:00:00,2016-04-03 02:51:08,726000/0e4ee58d72486bd0409d3448a58c01a8-d.jpg,,
22020596,Return From The Stars (Helen and Kurt Wolff Books)  ,,,,Stanislaw Lem,1989,,Mariner Books,,,0,English ,,,2011 12 30,"0156765934,9780156765930",,,,,,,,,OL7366179M,,0,,,,,0,1,1,498062,mobi,0E4EF0B8FF89F8E0FB2EB010E48688F9,,,_493062.0e4ef0b8ff89f8e0fb2eb010e48688f9.mobi,0,2000-01-01 01:00:00,2016-04-03 02:51:08,726000/0E4EF0B8FF89F8E0FB2EB010E48688F9-g.jpg,,
22020597,Elemente de psihoterapie  ,,,,Irina Holdevici,1998,3,B.I.C. ALL,,146,0,"Romanian,Moldavian,Moldovan",,,2011 12 30,9735712563,,,,,,,,,,,0,,,,0,1,0,1,19142740,pdf,0E4F1D811A688EEB74CAE2EFE2BF4FF9,,,_455567.0e4f1d811a688eeb74cae2efe2bf4ff9.pdf,0,2000-01-01 01:00:00,2016-04-03 02:51:08,726000/0e4f1d811a688eeb74cae2efe2bf4ff9-g.jpg,,
22020598,Tide Players: The Movers and Shakers of a Rising China  ,,,,Jianying Zha,2011,,THE New Press,,,0,English ,,,2011 12 30,"1595586202,9781595586209",,,,,951.06092/2,DS779.48 .Z42 2011,,,OL24881382M,,0,,,,,1,,,414384,mobi,0E510F0FBACD0AE8F026E7FA825AA946,,,_506665.0e510f0fbacd0ae8f026e7fa825aa946.mobi,0,2000-01-01 01:00:00,2016-04-03 02:51:08,726000/0e510f0fbacd0ae8f026e7fa825aa946-d.jpg,,
22020599,I'm With Fatty: Losing Fifty Pounds in Fifty Miserable Weeks  ,,,,Edward Ugel,2011,1st Edition,Weinstein Books,,254,0,English ,,,2011 12 30,"1602861374,9781602861374",,,,,362.196398,,,lYgxhcsR8NYC,,,0,,,,0,1,0,1,8498762,pdf,0E51F7F0A5C19E5C1ECBE67822BB272A,,,_508489.0e51f7f0a5c19e5c1ecbe67822bb272a.pdf,0,2000-01-01 01:00:00,2016-04-03 02:51:08,726000/0e51f7f0a5c19e5c1ecbe67822bb272a-d.jpg,,
22020600,An Unfinished Score  ,,,,Elise Blackwell,2010,1,Unbridled Books,,,0,English ,,,2011 12 30,"1936071665,9781936071661",,,,,,,,BHTcX-uAd_0C,OL24127715M,,0,,,,,1,,,2077291,epub,0E52952C3D294B8E45D93BF081D07F39,,,_473950.0e52952c3d294b8e45d93bf081d07f39.epub,0,2000-01-01 01:00:00,2016-04-03 02:51:08,726000/0e52952c3d294b8e45d93bf081d07f39-d.jpg,,
22020601,The book of murder  ,,,,Guillermo Martínez,2008,,Abacus,,131,0,English ,,,2011 12 30,,,,,,,,,,,,0,,,,,1,1,1,162273,epub,0E53824A3C8B443CF11727A3A16ED983,,,_457940.0e53824a3c8b443cf11727a3a16ed983.epub,0,2000-01-01 01:00:00,2016-04-03 02:51:08,726000/0E53824A3C8B443CF11727A3A16ED983-g.jpg,,
22020602,Wolken des Todes. Atlan 06.  ,,,,"Perry Rhodan, Hanns Kneifel",1995,,Fantasy Productions,,308,0,German ,,,2011 12 30,"3811815059,9783811815056",,,,,,,,,OL12966281M,,0,,,,0,1,0,1,2031008,pdf,0E54256448CC551307EC58A4084DA06B,,,_464025.0e54256448cc551307ec58a4084da06b.pdf,0,2000-01-01 01:00:00,2016-04-03 02:51:08,726000/0e54256448cc551307ec58a4084da06b-d.jpg,,
22020603,Harmonic Analysis on Semi-Simple Lie Groups I  ,,Die Grundlehren der mathematischen Wissenschaften 188,,Garth Warner,1972,,Springer,,548,0,English ,,,2011 12 30,"0387054685,9780387054681,3540054685",,,,,512/.55,QA387 .W37,,,OL15273309M,,0,,,,,1,0,0,15381070,pdf,0E548CFE91515E960E2D668A5CE61ABB,,,_436060.0e548cfe91515e960e2d668a5ce61abb.pdf,0,2000-01-01 01:00:00,2016-04-03 02:51:08,726000/0e548cfe91515e960e2d668a5ce61abb-g.jpg,,
22020604,Songwriters Playground: Innovative Exercises in Creative Songwriting  ,,,,Barbara L. Jordan,2008,,BookSurge Publishing,,,0,English ,,,2011 12 30,"1439207976,9781439207970,9781617894428",,,,,,,,wwNMPAAACAAJ,,,0,,,,,0,1,1,836240,epub,0E564F6C0FC82BD126C9B0276E29D02F,,,_509104.0e564f6c0fc82bd126c9b0276e29d02f.epub,0,2000-01-01 01:00:00,2016-04-03 02:51:08,726000/0e564f6c0fc82bd126c9b0276e29d02f-d.jpg,,
22020605,Skepsis und Zustimmung. Philosophische Studien  ,,,,Odo Marquard,1994,,Reclam,,140,0,German ,,,2011 12 30,"3150093341,9783150093344",,,,,,,,,OL15251860M,,0,,,,1,1,1,1,5727532,pdf,0E5714A5034883E09A24C93987C931AE,,,_461796.0e5714a5034883e09a24c93987c931ae.pdf,0,2000-01-01 01:00:00,2016-04-03 02:51:08,726000/0e5714a5034883e09a24c93987c931ae-d.jpg,,
22020606,The Mojo Collection  ,,,,Various Mojo Magazine,2007,,Canongate Books,,2924,0,English ,,,2011 12 30,"184767643X,9781847676436",,,,,781.640266,,,AVQbF9lTBwgC,OL24283227M,,0,,,,,1,,1,1833473,epub,0E57298D14DB47D96C1E3CA7D7BB4CE3,,,_499748.0e57298d14db47d96c1e3ca7d7bb4ce3.epub,0,2000-01-01 01:00:00,2016-04-03 02:51:08,726000/0E57298D14DB47D96C1E3CA7D7BB4CE3-g.jpg,,
22020607,No altar do Fogo  ,,,,Nuno Hipólito,2010,,Nuno Hipólito,,117,0,English,,,2011 12 30,,,,,,,,,,,,0,,,,1,1,,0,1490106,pdf,0E57487F554E8A299450927D60F286EC,,,_462207.0e57487f554e8a299450927d60f286ec.pdf,0,2000-01-01 01:00:00,2016-04-03 02:51:08,726000/0e57487f554e8a299450927d60f286ec-g.jpg,,
22020608,Shatner Rules: Your Guide to Understanding the Shatnerverse and the World at Large  ,,,,William Shatner,2011,,Dutton,,,0,English ,,,2011 12 30,"1101547987,9781101547984",,,,,,PN2308.S52A3 2011,,SD9cHwvZmy0C,,,0,,,,0,0,1,1,1539499,epub,0E586736974C4956FA502A0D10A785D1,,,_484041.0e586736974c4956fa502a0d10a785d1.epub,0,2000-01-01 01:00:00,2016-04-03 02:51:08,726000/0E586736974C4956FA502A0D10A785D1-g.jpg,,
22020609,Secrets of Attraction: The Most Comprehensive Guide on Women and Dating Ever Written  ,,,,Nick Shane,2007,,Playboyskool,,201,0,English ,,,2011 12 30,,,,,,,,,,,,0,,,,,0,1,1,1129951,pdf,0E58FDDDDCE050115D3F30F1EDF4EAE7,,,_477795.0e58fddddce050115d3f30f1edf4eae7.pdf,0,2000-01-01 01:00:00,2016-04-03 02:51:08,726000/0e58fddddce050115d3f30f1edf4eae7-g.jpg,,
22020610,Horse: From Conception to Maturity  ,,,,Peter Rossdale,1984,1,JA Allen,,230,0,English ,,,2011 12 30,"085131404X,9780851314044",,,,,636.1/32,SF293.T5,,,OL20655446M,,0,,,,,1,0,0,66701200,pdf,0E5ABA2602CC7359EDEB9EA7BDB7FF40,,,_502786.0e5aba2602cc7359edeb9ea7bdb7ff40.pdf,0,2000-01-01 01:00:00,2016-04-03 02:51:08,726000/0e5aba2602cc7359edeb9ea7bdb7ff40-g.jpg,,
22020611,Culture Shock! Austria: A Survival Guide to Customs and Etiquette  ,,Culture Shock! Guides,,"Julie Krejci, Susan Roraff",2011,3,Marshall Cavendish Corporation,,353,0,English ,,,2011 12 30,"0761460519,9780761460510",,,,,,,,4fbVYgEACAAJ,,,0,,,,1,0,1,1,6538034,pdf,0E5D3930AE77FB080DC9F03DF0C56B7E,,,_487588.0e5d3930ae77fb080dc9f03df0c56b7e.pdf,0,2000-01-01 01:00:00,2016-04-03 02:51:08,726000/0e5d3930ae77fb080dc9f03df0c56b7e-d.jpg,,
22020612,Ice  ,,,,Anna Kavan,2006,,Peter Owen Ltd,,,0,English ,,,2011 12 30,9780720612684,,,,,,,,,OL7861610M,,0,,,,,1,,1,162829,epub,0E5D91F56A8F55635E57ABD9AF2CCDB5,,,_477522.0e5d91f56a8f55635e57abd9af2ccdb5.epub,0,2000-01-01 01:00:00,2016-04-03 02:51:08,726000/0e5d91f56a8f55635e57abd9af2ccdb5-d.jpg,,
22020613,Whisper to the Blood  ,,,,Dana Stabenow,2009,Lrg,Center Point Large Print,,,0,English ,,,2011 12 30,"1602854130,9781602854130",,,,,813/.54,PS3569.T1249 W48 2009b,,,OL22671937M,,0,,,,,1,,,410548,epub,0E5E7B19B3651E592779DC45D8A570FC,,,_494754.0e5e7b19b3651e592779dc45d8a570fc.epub,0,2000-01-01 01:00:00,2016-04-03 02:51:08,726000/0e5e7b19b3651e592779dc45d8a570fc-d.jpg,,
22020614,Introducing Psychology  ,,,,"Daniel L. Schacter, Daniel T. Gilbert, Daniel M. Wegner",2009,First Edition,Worth Publishers,,606,0,English ,,,2011 12 30,"1429218215,9781429218214",,,,,150,BF121 .S326 2011,,,OL24410742M,,0,,,,,1,1,1,89209820,pdf,0E5E87D35A9A20B8FC5014B98B917461,,,_458954.0e5e87d35a9a20b8fc5014b98b917461.pdf,0,2000-01-01 01:00:00,2016-04-03 02:51:08,726000/0e5e87d35a9a20b8fc5014b98b917461-d.jpg,,
22020615,Pump Wisdom: Problem Solving for Operators and Specialists  ,,,,Heinz P. Bloch,2011,1,John Wiley & Sons,,226,0,English ,,,2011 12 30,"1118041232,9781118041239",,,,,621.6/9,TJ900 .B6483 2011,,G7t5u9RVr7sC,OL25226742M,,0,,,,1,1,1,1,9903077,pdf,0E60D341A56950B53AFB58EC9E383FBB,,,_490068.0e60d341a56950b53afb58ec9e383fbb.pdf,0,2000-01-01 01:00:00,2016-04-03 02:51:08,726000/0e60d341a56950b53afb58ec9e383fbb-d.jpg,,
22020616,MINI LEKSYKON DYPLOMATYCZNY  ,,,,"Barbara Dobrzańska, Magdalena Sitek",2011,,Wydawnictwo Wyższej Szkoły Gospodarki Euroregionalnej,,70,0,Polish ,,,2011 12 30,9788362753017,,,,,,,,,,,0,,,,,1,,1,254791,pdf,0E62519091D46AB3D2D06C6DFD9FA603,,,_478067.0e62519091d46ab3d2d06c6dfd9fa603.pdf,0,2000-01-01 01:00:00,2016-04-03 02:51:08,726000/0e62519091d46ab3d2d06c6dfd9fa603-g.jpg,,
22020617,"Modern Germany Reconsidered, 1870-1945  ",,,,Gordon Martel,1992,,Routledge,London ; New York,297,0,English ,,,2011 12 30,"0-415-07812-1,9780415078122,9780203417959,0-203-41795-X,0-203-72619-7,0-415-07811-3,0203309944,9780203309940",,,,,943.08,,,Md4NAAAAQAAJ,OL20321025M,,0,,,,,1,,1,3352944,pdf,0E62B85DFE4E35D686446CE503E26CA1,,,_473558.0e62b85dfe4e35d686446ce503e26ca1.pdf,0,2000-01-01 01:00:00,2016-04-03 02:51:08,726000/0e62b85dfe4e35d686446ce503e26ca1-d.jpg,,
22020618,World Without End  ,,Pillars of the Earth 2,,Ken Follett,2010,,Dutton,,,0,English ,,,2011 12 30,9781101211984,,,,,,,,,,,0,,,,0,0,1,1,1380966,epub,0E62FBC8C94EF281BBFD8ECD1EE19C58,,,_511383.0e62fbc8c94ef281bbfd8ecd1ee19c58.epub,0,2000-01-01 01:00:00,2016-04-03 02:51:08,726000/0E62FBC8C94EF281BBFD8ECD1EE19C58-g.jpg,,
22020619,Feminismo y teoria del discurso  ,,,,Giulia Colaizzi,1990,,Catedra,,166,0,"Spanish,Castilian",,,2011 12 30,"8437609674,9788437609676",,,,,,,,,,,0,,,,1,1,1,1,5808494,pdf,0E637A9E526230DD6EC6FDB4EEEAFFFD,,,_490492.0e637a9e526230dd6ec6fdb4eeeafffd.pdf,0,2000-01-01 01:00:00,2016-04-03 02:51:08,726000/0e637a9e526230dd6ec6fdb4eeeafffd-d.jpg,,
22020620,Оборонная промышленность Новосибирской области в годы Великой Отечественной войны  ,,,,Государственный архив Новосибирской области,2005,,,,899,0,Russian ,,,2011 12 30,5940230790,,,,,,,,,,,0,,,,,1,,1,22482747,djvu,0E6474B7ACC5FD24D7D6CC5957991503,,,_497913.0e6474b7acc5fd24d7d6cc5957991503.djvu,0,2000-01-01 01:00:00,2016-04-03 02:51:08,726000/0e6474b7acc5fd24d7d6cc5957991503-g.jpg,,
22020621,ქართული ენის მორფემებისა და მოდალური ელემენტების ლექსიკონი  ,,,,"ჯორბენაძე ბ., კობაიძე მ., ბერიძე მ.",1988,,გამ-ბა მეცნიერება,,529,0,Georgian,,,2011 12 30,,,,,,,,,,,,0,,,,1,1,1,0,8818617,pdf,0E64BD1BF71ADD3B6D28D955F76C3025,,,_451508.0e64bd1bf71add3b6d28d955f76c3025.pdf,0,2000-01-01 01:00:00,2016-04-03 02:51:08,726000/0e64bd1bf71add3b6d28d955f76c3025-g.jpg,,
22020622,Thucydides and Pindar: Historical Narrative and the World of Epinikian Poetry  ,,,,Simon Hornblower,2006,,Oxford University Press,,473,0,English ,,,2011 12 30,"0199298289,9780199298280",,,,,881.01,,,,OL7405615M,,0,,,,1,1,1,1,6454911,pdf,0E66557763AF1016C2B52E45245FF86C,,,_501181.0e66557763af1016c2b52e45245ff86c.pdf,0,2000-01-01 01:00:00,2016-04-03 02:51:08,726000/0e66557763af1016c2b52e45245ff86c-d.jpg,,
22020623,"Encyclopedia of Indian Philosophies, Vol. 7: Abhidharma Buddhism to 150 AD  ",,,,Karl H. Potter,,,Motilal Banarsidass,,651,0,English ,,,2011 12 30,"8120808959,9788120808959",,,,,181/.4/0321,B131 .E5 1977,,,OL21251393M,,0,,,,,1,,1,12960982,pdf,0E67D101E1615A84B9361BA1A3C7777F,,,_503866.0e67d101e1615a84b9361ba1a3c7777f.pdf,0,2000-01-01 01:00:00,2016-04-03 02:51:08,726000/0e67d101e1615a84b9361ba1a3c7777f-d.jpg,,
22020624,Star Crossed Seduction  ,,,,Jenny Brown,2011,,HarperCollins,,138,0,English ,,,2011 12 30,"0062092626,9780062092625",,,,,,,,ndMAqsm2_6AC,,,0,,,,,1,,1,1326913,pdf,0E6952A0A9331CD0CE8E164079D3FE87,,,_502981.0e6952a0a9331cd0ce8e164079d3fe87.pdf,0,2000-01-01 01:00:00,2016-04-03 02:51:08,726000/0e6952a0a9331cd0ce8e164079d3fe87-g.jpg,,
22020625,Mac OS X and the digital lifestyle  ,,,,Brad Miser,2002,1,Premier Press,,577,0,English ,,,2011 12 30,"1931841748,9781931841740",,,,,,,,noD_ewrigQgC,OL8805461M,,0,,,,1,0,1,1,3816685,pdf,0E69EC097CCE112E5F3C68668ECD6BB2,,,_435766.0e69ec097cce112e5f3c68668ecd6bb2.pdf,0,2000-01-01 01:00:00,2016-04-03 02:51:08,726000/0e69ec097cce112e5f3c68668ecd6bb2-d.jpg,,
22020626,"Mykene und das Hethiterreich. Wien, 1986  ",,,,Schachermeyr F.,,,Austrian Academy of Sciences,,363,0,German ,,,2011 12 30,"3700107773,9783700107774",,,,,,,,,OL22054007M,,0,,,,,1,0,0,48843883,pdf,0E6A3573BED573FBF338D254238EBB38,,,_490600.0e6a3573bed573fbf338d254238ebb38.pdf,0,2000-01-01 01:00:00,2016-04-03 02:51:08,726000/0e6a3573bed573fbf338d254238ebb38-g.jpg,,
22020627,Mystic River  ,,,,Dennis Lehane,2003,,Harper Perennial,,,0,English ,,,2011 12 30,"0060584750,9780060584757",,,,,,,,,,,0,,,,,1,,,352255,epub,0E6AB85CD1B1FFB81D70238CD92F3DEA,,,_438218.0e6ab85cd1b1ffb81d70238cd92f3dea.epub,0,2000-01-01 01:00:00,2016-04-03 02:51:08,726000/0e6ab85cd1b1ffb81d70238cd92f3dea-d.jpg,,
22020628,Dog Sense: How the New Science of Dog Behavior Can Make You A Better Friend to Your Pet  ,,,,John Bradshaw,2011,,Basic Books,,353,0,English ,,,2011 12 30,"0465019447,9780465019441",,,,,636.7/0887,SF433 .B73 2011,,,OL24915076M,,0,,,,,1,,1,3508366,pdf,0E6CA3844839BBA2A4AA51C8BB622003,,,_491335.0e6ca3844839bba2a4aa51c8bb622003.pdf,0,2000-01-01 01:00:00,2016-04-03 02:51:08,726000/0e6ca3844839bba2a4aa51c8bb622003-d.jpg,,
22020629,Injectable Drugs Guide  ,,,,"Alistair Gray, Jane Wright, Vincent Goodey",2011,1,Pharmaceutical Press,,928,0,English ,,,2011 12 30,"0853697876,9780853697879",,,,,,,,,,,0,,,,1,0,1,1,7426699,pdf,0E6D4B37C1237DA6BC8EB5DEF004B9C0,,,_452363.0e6d4b37c1237da6bc8eb5def004b9c0.pdf,0,2000-01-01 01:00:00,2016-04-03 02:51:08,726000/0e6d4b37c1237da6bc8eb5def004b9c0-d.jpg,,
22020630,Soviet Secret Projects: Fighters Since 1945  ,,,,"Anthony Leonard Buttler, Yefim Gordon",2005,First Edition,Midland Publishing,,179,0,English ,,,2011 12 30,"1857802217,9781857802214",,,,,623.7460947,,,,OL22723715M,,0,,,,,1,0,0,26844278,pdf,0E6D920CCE439DFDFAAE1BD617BF1DD5,,,_432096.0e6d920cce439dfdfaae1bd617bf1dd5.pdf,0,2000-01-01 01:00:00,2016-04-03 02:51:08,726000/0e6d920cce439dfdfaae1bd617bf1dd5-d.jpg,,
22020631,Outlander (20th Anniversary Edition)  ,,Outlander 1,,Diana Gabaldon,2011,20 Har/Com,Delacorte Press,,,0,English ,,,2011 12 30,"0440423201,9780440423201",,,,,813/.54,PS3557.A22 O98 2011,,,OL25050704M,,0,,,,,1,,,769431,lit,0E7090D7AE94BF548C11E6CA7FCCCA1C,,,_450584.0e7090d7ae94bf548c11e6ca7fccca1c.lit,0,2000-01-01 01:00:00,2016-04-03 02:51:08,726000/0e7090d7ae94bf548c11e6ca7fccca1c-d.jpg,,
22020632,The Temples of Ayocan  ,,Richard Blade 14,,Jeffrey Lord,,,,,,0,English ,,,2011 12 30,,,,,,,,,,,,0,,,,,1,1,1,173211,epub,0E722BEEC95789C396CBB3A80EFD94AA,,,_509204.0e722beec95789c396cbb3a80efd94aa.epub,0,2000-01-01 01:00:00,2016-04-03 02:51:08,726000/0E722BEEC95789C396CBB3A80EFD94AA-g.jpg,,
22020633,The Cambridge Handbook of Endangered Languages (Cambridge Handbooks in Language and Linguistics)  ,,Cambridge Handbooks in Language and Linguistics,,"Peter K. Austin, Julia Sallabank (editors)",2011,,Cambridge University Press,,581,0,English ,,,2011 12 30,"052188215X,9780521882156",,,,,409,P40.5.L33 C36 2011,,,OL24914972M,,0,,,,1,0,1,1,4582759,pdf,0E73205E24264EB76865D04EC71CDEE1,,,_471914.0e73205e24264eb76865d04ec71cdee1.pdf,0,2000-01-01 01:00:00,2016-04-03 02:51:08,726000/0e73205e24264eb76865d04ec71cdee1-d.jpg,,
22020634,Korea: The Politics of the Vortex  ,,,,Gregory Henderson,1968,1st,Harvard University Press,,252,0,English ,,,2011 12 30,"0674505506,9780674505506",,,,,320.9519,,,,OL11125538M,,0,,,,,1,0,0,9634681,djvu,0E7628EFED6DA409588F708BB3052255,ec93747c6e60551ee63f9f1aba4b68ae,no,_504830.0e7628efed6da409588f708bb3052255.djvu,0,2000-01-01 01:00:00,2016-04-03 02:51:08,726000/0e7628efed6da409588f708bb3052255-d.jpg,,
22020635,Early Christian Latin Poets (The Early Church Fathers)  ,,The Early Church Fathers,,Carolinne White,2000,,Routledge,,206,0,English ,,,2011 12 30,"0415187826,9780415187824,0415187834,9780415187831,0203184238,0203184521",,,,,871/.01099222,PA6053 .W47 2000,,3UvVHRUx-C0C,OL6785135M,,0,,,,1,0,1,1,1976531,pdf,0E780E064FB47EFBBEC11E8D96AFE09D,,,_442059.0e780e064fb47efbbec11e8d96afe09d.pdf,0,2000-01-01 01:00:00,2016-04-03 02:51:08,726000/0e780e064fb47efbbec11e8d96afe09d-d.jpg,,
22020636,Tatăl nostru  ,,,,Alexander Schmemann,2008,,Sophia,,93,0,"Romanian,Moldavian,Moldovan",,,2011 12 30,9789731360461,,,,,,,,,,,0,,,,,1,0,0,502399,djvu,0E7930E041EF5D4065081ACD5E388EF9,,,_485337.0e7930e041ef5d4065081acd5e388ef9.djvu,0,2000-01-01 01:00:00,2016-04-03 02:51:08,726000/0e7930e041ef5d4065081acd5e388ef9-g.jpg,,
22020637,"Plasticity, Robustness, Development and Evolution  ",,,,"Patrick Bateson, Peter Gluckman",2011,1,Cambridge University Press,,167,0,English ,,,2011 12 30,"052173620X,9780521736206,0521516293,9780521516297",,,,,571.8,QH491 .B38 2011,,92xwyQm1jY4C,OL25107344M,,0,,,,1,0,1,1,2075777,pdf,0E7A7AE3EE71A85583781B4FDA478980,,,_501339.0e7a7ae3ee71a85583781b4fda478980.pdf,0,2000-01-01 01:00:00,2016-04-03 02:51:08,726000/0e7a7ae3ee71a85583781b4fda478980-d.jpg,,
22020638,Legal aspects of mental capacity  ,,,,Bridgit Dimond,2007,1,John Wiley and Sons,"Oxford ; Malden, MA",450,0,English ,,,2011 12 30,"1405133597,978-1-4051-3359-3,9780470698082,047069808X",,,,,344.41044,,,ZTyOHNiQj2wC,OL11650151M,,0,,,,,1,,1,1546712,pdf,0E7AE0D61BC30FCD1CFF159D12F5F879,,,_469353.0e7ae0d61bc30fcd1cff159d12f5f879.pdf,0,2000-01-01 01:00:00,2016-04-03 02:51:08,726000/0e7ae0d61bc30fcd1cff159d12f5f879-d.jpg,,
22020639,Egan's skilled helper model development and applications in counselling  ,,,,Val Wosket,,,,,299,0,English ,,,2011 12 30,"978-1-58391-203-4,1-58391-203-7,978-1-58391-204-1,1-58391-204-5,0-203-96515-9",,,,,,,,=eqb4v77KCD0C,,,0,,,,0,1,1,1,1474730,pdf,0E7B0DBFC4EA9CA86C85ED18990F291B,,,_437145.0e7b0dbfc4ea9ca86c85ed18990f291b.pdf,0,2000-01-01 01:00:00,2016-04-03 02:51:08,726000/0e7b0dbfc4ea9ca86c85ed18990f291b-g.jpg,,
22020640,Становление диалектико-материалистической концепции формы и содержания  ,,,,Алексей Алексеевич Щитов,1989,,Издательство Ростовского университета,,160,0,Russian ,,,2011 12 30,"5750701913,9785750701919",,,,,,,,,OL1931313M,,0,,,,1,1,0,1,2506222,djvu,0E7B2B317D092850612A73668A5F1543,,,_489649.0e7b2b317d092850612a73668a5f1543.djvu,0,2000-01-01 01:00:00,2016-04-03 02:51:08,726000/0e7b2b317d092850612a73668a5f1543-g.jpg,,
22020641,"Law, Liberty, and Morality  ",,,,Herbert Lionel Adolphus Hart,1968,Reprint,Oxford Paperbacks,,48,0,English ,,,2011 12 30,"0192850172,9780192850171",,,,,,,,,OL16198426M,,0,,,,,1,,1,15241393,pdf,0E7BCBB2B359C89A11C8F6FF3AB3C3AF,,,_478047.0e7bcbb2b359c89a11c8f6ff3ab3c3af.pdf,0,2000-01-01 01:00:00,2016-04-03 02:51:08,726000/0e7bcbb2b359c89a11c8f6ff3ab3c3af-d.jpg,,
22020642,Mr. Murder  ,,,,Dean R. Koontz,2006,,Berkley Books,,,0,English ,,,2011 12 30,"0425210758,9780425210758",,,,,,,,5HjM0D5X1cIC,OL7505492M,,0,,,,,1,,,501598,epub,0E7C6E9B26917FA348D3CA67A3B86A7C,,,_488649.0e7c6e9b26917fa348d3ca67a3b86a7c.epub,0,2000-01-01 01:00:00,2016-04-03 02:51:08,726000/0e7c6e9b26917fa348d3ca67a3b86a7c-d.jpg,,
22020643,Rasizam  ,,,,Fransoa de Fontet,1999,,Plato,,52,0,Serbian ,,,2011 12 30,"2130371205,9782130371205",,,,,301.45/1,"HT1521 P58,HT1521 D44 1981",,,OL18668627M,,0,,,,,1,,1,590918,pdf,0E7E1F55088653E7B635B88A5AF098E1,,,_478784.0e7e1f55088653e7b635b88a5af098e1.pdf,0,2000-01-01 01:00:00,2016-04-03 02:51:08,726000/0e7e1f55088653e7b635b88a5af098e1-d.jpg,,
22020644,Shadows of Aggar (The Amazons of Aggar)  ,,,,Chris Anne Wolfe,1997,,Pride Publications,,252,0,English ,,,2011 12 30,"1886383308,9781886383302",,,,,,,,,OL8705990M,,0,,,,1,1,1,1,705960,mobi,0E7E3EB47A6621AE8A454B3C4C56384D,,,_465017.0e7e3eb47a6621ae8a454b3c4c56384d.mobi,0,2000-01-01 01:00:00,2016-04-03 02:51:08,726000/0e7e3eb47a6621ae8a454b3c4c56384d-d.jpg,,
22020645,Photoshop CS5: Top 100 Simplified Tips and Tricks  ,,,,Lynette Kent,2010,1,John Wiley and Sons,,291,0,English ,,,2011 12 30,"0470612657,9780470612651",,,,,,,,,,,0,,,,,1,,1,21074905,djvu,0E7E42450D48CFE49CB9771EFD166517,,,_488087.0e7e42450d48cfe49cb9771efd166517.djvu,0,2000-01-01 01:00:00,2016-04-03 02:51:08,726000/0e7e42450d48cfe49cb9771efd166517-d.jpg,,
22020646,Electricity Infrastructures in the Global Marketplace  ,,,,T. J. Hammons,2011,,InTech,,834,0,English ,,,2011 12 30,9789533071558,,,,,,,,,,,0,,,,1,0,0,1,54749294,pdf,0E7F04C76B08D8DADD69F0D1AFBCB2F4,,,_436488.0e7f04c76b08d8dadd69f0d1afbcb2f4.pdf,0,2000-01-01 01:00:00,2016-04-03 02:51:08,726000/0e7f04c76b08d8dadd69f0d1afbcb2f4-g.jpg,,
22020647,ELEX tijdschrift voor hobby-elektronica 1986-36  issue august,,,,Elektuur B.V.,1986,,,,44,0,Dutch ,,,2011 12 30,,,,,,,,,,,,0,,,,0,0,1,1,62748931,pdf,0E8131B4105F36E350EA274839A552C6,,,_487851.0e8131b4105f36e350ea274839a552c6.pdf,0,2000-01-01 01:00:00,2016-04-03 02:51:08,726000/0e8131b4105f36e350ea274839a552c6-g.jpg,,
22020648,Reprimarea mișcării yoga în anii '80  ,,,,Gabriel Andreescu,2008,,Polirom,,237,0,"Romanian,Moldavian,Moldovan",,,2011 12 30,"9734612417,9789734612413",,,,,,,,,,,0,,,,0,1,0,1,1648591,pdf,0E821BC1F20B73B2B194C6A9FC8D4222,,,_456852.0e821bc1f20b73b2b194c6a9fc8d4222.pdf,0,2000-01-01 01:00:00,2016-04-03 02:51:08,726000/0e821bc1f20b73b2b194c6a9fc8d4222-g.jpg,,
22020649,The Philosophy of Steven Soderbergh  ,,,,Edited by R. Barton Palmer and Steven M. Sanders,2010,,The University Press of Kentucky,,329,0,English ,,,2011 12 30,"0813126622,9780813126623",,,,,,PN1998.3.S593P55 2010,,JLEIC9E4YAkC,,,0,,,,1,0,1,1,1426836,pdf,0E8683A9FE7EF7AFEFD06EE516587E16,,,_476772.0e8683a9fe7ef7afefd06ee516587e16.pdf,0,2000-01-01 01:00:00,2016-04-03 02:51:08,726000/0e8683a9fe7ef7afefd06ee516587e16-d.jpg,,
22020650,Advanced Mac OS X Programming: The Big Nerd Ranch Guide  ,,,,Mark Dalrymple,2011,1,Addison-Wesley Professional,,661,0,English ,87,,2011 12 30,"0321706250,9780321706256",,,,,,,,inccQwAACAAJ,,,0,,,,1,0,1,1,25618960,pdf,0E86B42CCAD7DFC8638B0277D8C9AA76,,,_471831.0e86b42ccad7dfc8638b0277d8c9aa76.pdf,0,2000-01-01 01:00:00,2016-04-03 02:51:08,726000/0e86b42ccad7dfc8638b0277d8c9aa76-d.jpg,,
22020651,Gems of Geometry  ,,,,John Barnes (auth.),2009,1st Edition.,Springer Berlin Heidelberg,,326,0,English,,,2011 12 30,"3642050913,9783642050916,9783642050923",,,,,,,10.1007/978-3-642-05092-3,,,,0,,,,1,0,1,1,7020104,pdf,0E86B473F21229A69F35F9BE2E31EC44,,,_442725.0e86b473f21229a69f35f9be2e31ec44.pdf,0,2000-01-01 01:00:00,2016-04-03 02:51:08,726000/0e86b473f21229a69f35f9be2e31ec44-d.jpg,,
22020652,"A Philosopher's Notes: On Optimal Living, Creating an Authentically Awesome Life and Other Such Goodness, Vol. 1  ",,,,Brian Johnson,2010,,en*theos Enterprises,,209,0,English ,,,2011 12 30,"0983059101,9780983059103",,,,,,,,,,,0,,,,1,0,1,1,620289,pdf,0E88CA0533C2DAEE8C16C68C95FF84E2,,,_486310.0e88ca0533c2daee8c16c68c95ff84e2.pdf,0,2000-01-01 01:00:00,2016-04-03 02:51:08,726000/0e88ca0533c2daee8c16c68c95ff84e2-d.jpg,,
22020653,Hot Time in the Old Town: The Great Heat Wave of 1896 and the Making of Theodore Roosevelt  ,,,,Edward P. Kohn,2010,,Basic Books,,,0,English ,,,2011 12 30,"0465022588,9780465022588",,,,,974.7’104—dc22,F128.47.K76 2010,,kjwCwuwQkbQC,,,0,,,,0,0,1,1,409119,epub,0E8A4CD414E14652AF7EF4DDC7A525D5,,,_499308.0e8a4cd414e14652af7ef4ddc7a525d5.epub,0,2000-01-01 01:00:00,2016-04-03 02:51:08,726000/0E8A4CD414E14652AF7EF4DDC7A525D5-g.jpg,,
22020654,Food Photography: From Snapshots to Great Shots  ,,,,Nicole S. Young,2011,1,Pearson P T R,,290,0,English ,,,2011 12 30,"0321784111,9780321784117",,,,,778/.9/9/6413,TR656.7 .Y68 2012,,_f75tgAACAAJ,OL25202688M,,0,,,,1,0,1,1,18693205,pdf,0E8B5AB4EA617ED680FFF74FD1EF8F8E,,,_501761.0e8b5ab4ea617ed680fff74fd1ef8f8e.pdf,0,2000-01-01 01:00:00,2016-04-03 02:51:08,726000/0e8b5ab4ea617ed680fff74fd1ef8f8e-d.jpg,,
22020655,Handbook of Research on the Education of School Leaders  ,,,,"Michelle D. Young, Gary M. Crow, Joseph Murphy, Rodney T. Ogawa",2009,1,Routledge,"New York, NY",585,0,English ,,,2011 12 30,"0805861572,9780805861570,9780203878866,0-203-87886-8,9780805861587,0805861580",,,,,371.20071/1,LB2831.82 .H36 2009,,,OL22666475M,,0,,,,,1,,1,6268529,pdf,0E8B76785B014AAC2A12B14BF0490A06,,,_445605.0e8b76785b014aac2a12b14bf0490a06.pdf,0,2000-01-01 01:00:00,2016-04-03 02:51:08,726000/0e8b76785b014aac2a12b14bf0490a06-d.jpg,,
22020656,The White Welfare State: The Racialization of U.S. Welfare Policy  ,,,,Deborah E. Ward,2005,annotated edition,University of Michigan Press,,208,0,English ,,,2011 12 30,"0472030957,9780472030958,0472114557,9780472114559",,,,,361.6/089/00973,HV95 .W335 2005,,lHsYazwhXwgC,OL22716460M,,0,,,,1,0,1,1,6657400,pdf,0E8E7BE645E4AA960EABC520B0F2C232,,,_435597.0e8e7be645e4aa960eabc520b0f2c232.pdf,0,2000-01-01 01:00:00,2016-04-03 02:51:08,726000/0e8e7be645e4aa960eabc520b0f2c232-d.jpg,,
22020657,"System Reliability Theory: Models, Statistical Methods, and Applications, Second Edition  ",,,,"Marvin Rausand, Arnljot Høyland",2003,2,Wiley-Interscience,,664,0,English ,,,2011 12 30,"047147133X,9780471471332",,,,,,,,,OL22568112M,,0,,,,1,1,0,0,22521562,pdf,0E8E9796870EFF699FC689EEE43E33DA,,,_435825.0e8e9796870eff699fc689eee43e33da.pdf,0,2000-01-01 01:00:00,2016-04-03 02:51:08,726000/0e8e9796870eff699fc689eee43e33da-d.jpg,,
22020658,Introducing Maya 8: 3D for Beginners  ,,,,Dariush Derakhshani,2006,,John Wiley and Sons,"Indianapolis, IN",490,0,English ,,,2011 12 30,"0-470-05135-3,978-0-470-05135-1,9780470108260,0470108266",,,,,006.696,TR897.7 .D4825 2006,,uNeF5Xkc5k0C,OL23089082M,,0,,,,,1,,1,20617445,pdf,0E8F3AA6C4FF3490E5DD96B350AC6FA3,,,_472175.0e8f3aa6c4ff3490e5dd96b350ac6fa3.pdf,0,2000-01-01 01:00:00,2016-04-03 02:51:08,726000/0e8f3aa6c4ff3490e5dd96b350ac6fa3-d.jpg,,
22020659,"Commentary and Tradition: Aristotelianism, Platonism, and Post-Hellenistic Philosophy (Commentaria in Aristotelem Graeca Et Byzantina)  ",,Commentaria in Aristotelem Graeca Et Byzantina 4,,Pierluigi Donini,2010,1,De Gruyter,,469,0,Italian ,,,2011 12 30,"3110218720,9783110218725,9783110218732",1864-4805,,,,,,,O39Lleu6R_4C,,,0,,,,1,0,1,1,2339496,pdf,0E8F5081C5F2E1FB689F343F97E70BFD,,,_493370.0e8f5081c5f2e1fb689f343f97e70bfd.pdf,0,2000-01-01 01:00:00,2016-04-03 02:51:08,726000/0e8f5081c5f2e1fb689f343f97e70bfd-d.jpg,,
22020660,Bony wird verhaftet  ,,Goldmann rote Krimi,,Arthur W. Upfield,1978,,Goldmann Verlag,,218,0,German ,,,2011 12 30,"3442012813,9783442012817",,,,,,,,,OL12708454M,,0,,,,1,0,1,1,735404,pdf,0E8FD7555275120E6DEC00502C6A825F,,,_503446.0e8fd7555275120e6dec00502c6a825f.pdf,0,2000-01-01 01:00:00,2016-04-03 02:51:08,726000/0e8fd7555275120e6dec00502c6a825f-d.jpg,,
22020661,Every Scandalous Secret  ,,Scandalous Lady Trilogy 03,,Gayle Callen,2011,Original,HarperCollins,,279,0,English ,,,2011 12 30,"0061783455,9780061783456",,,,,,,,,,,0,,,,,1,,1,1594874,pdf,0E9004BDB77EA159A4C1B508E4A3F7A7,,,_513750.0e9004bdb77ea159a4c1b508e4a3f7a7.pdf,0,2000-01-01 01:00:00,2016-04-03 02:51:08,726000/0e9004bdb77ea159a4c1b508e4a3f7a7-d.jpg,,
22020662,Change by Design: How Design Thinking Transforms Organizations and Inspires Innovation  ,,,,Tim Brown,2009,,HarperBusiness,,,0,English ,,,2011 12 30,"0061766089,9780061766084",,,,,658.4/063,HD58.8 .B772 2009,,,OL23207675M,,0,,,,,0,1,1,319319,epub,0E9089F40C724C101F720A4241135117,,,_500089.0e9089f40c724c101f720a4241135117.epub,0,2000-01-01 01:00:00,2016-04-03 02:51:08,726000/0e9089f40c724c101f720a4241135117-d.jpg,,
22020663,Elizabeth I  ,,,,Margaret George,2011,1St Edition,Viking Adult,,688,0,English ,,,2011 12 30,"0670022535,9780670022533,9781101476253",,,,,,,,,OL24604769M,,0,,,,0,1,0,1,1129140,epub,0E90A3A6BC8C2C370FE2FCAD6BAFD686,,,_433738.0e90a3a6bc8c2c370fe2fcad6bafd686.epub,0,2000-01-01 01:00:00,2016-04-03 02:51:08,726000/0e90a3a6bc8c2c370fe2fcad6bafd686-d.jpg,,
22020664,"Respektvolle Führung: Wie sie geht, was sie fördert und warum sie sinnvoll ist (Entscheidungs- und Organisationstheorie)  ",,,,Jan Borkowski,2011,2011,Gabler Verlag,,274,0,German ,,,2011 12 30,"3834931810,9783834931818",,,,,,,,,,,0,,,,,1,0,1,1569544,pdf,0E93105CF4E2CD058EB5C1A60E8909FA,,,_509483.0e93105cf4e2cd058eb5c1a60e8909fa.pdf,0,2000-01-01 01:00:00,2016-04-03 02:51:08,726000/0e93105cf4e2cd058eb5c1a60e8909fa-d.jpg,,
22020665,The Food Junctions Cookbook: Living Recipes for Social Innovation  ,,,,Marina Chang and Lukas Meusburger,2011,,Marina Chang and Lukas Meusburger,,192,0,English ,,,2011 12 30,"0957035403,9780957035409",,,,,,,,,,,0,,,,,0,1,1,21162517,pdf,0E931951DBE996353E8B29E38AF6C59A,,,_503851.0e931951dbe996353e8b29e38af6c59a.pdf,0,2000-01-01 01:00:00,2016-04-03 02:51:08,726000/0e931951dbe996353e8b29e38af6c59a-g.jpg,,
22020666,Living a Life of Fire: An Autobiography  ,,,,Reinhard Bonnke,2009,1st,"E-R Productions, LLC",,,0,English ,,,2011 12 30,"1933106816,9781933106816",,,,,"269/.2092,B",BV3785.B625 A3 2009,,tA54PgAACAAJ,OL25087693M,,0,,,,,0,1,1,5097963,epub,0E934E857979E893A9876BAEDF746620,,,_506580.0e934e857979e893a9876baedf746620.epub,0,2000-01-01 01:00:00,2016-04-03 02:51:08,726000/0e934e857979e893a9876baedf746620-d.jpg,,
22020667,El Maestro de Go  ,,,,Yasunari Kawabata,2004,1st.,Emecé Editores,,84,0,"Spanish,Castilian",,,2011 12 30,"9500426153,9789500426152",,,,,,,,ardIAAAACAAJ,OL12953822M,,0,,,,0,0,0,1,2082247,pdf,0E94026C41A686A92AB454BD92AF136E,,,_459812.0e94026c41a686a92ab454bd92af136e.pdf,0,2000-01-01 01:00:00,2016-04-03 02:51:08,726000/0e94026c41a686a92ab454bd92af136e-d.jpg,,
22020668,Lincoln's Legacy of Leadership (Jepson Studies in Leadership)  ,,Jepson Studies in Leadership,,"George R. Goethals, Gary L. McDowell",2009,,Palgrave Macmillan,,256,0,English ,,,2011 12 30,"0230622836,9780230622838",,,,,973.7092,E457.2 .L8425 2010,,,OL23534131M,,0,,,,,1,1,1,1160832,epub,0E952AF2D9EB2683F887F491B29B2585,,,_440171.0e952af2d9eb2683f887f491b29b2585.epub,0,2000-01-01 01:00:00,2016-04-03 02:51:08,726000/0e952af2d9eb2683f887f491b29b2585-d.jpg,,
22020669,但以理書與啟示文學  ,,,,Xuan 浩榮,1998,,天道書樓有限公司,,36,0,Chinese(Taiwan),,,2011 12 30,"9628530119,9789628530113",,,,,,,,,,,0,,,,,1,,0,5296057,pdf,0E96271D558DE26D0D93901AFDEC3172,,,_512400.0e96271d558de26d0d93901afdec3172.pdf,0,2000-01-01 01:00:00,2016-04-03 02:51:08,726000/0e96271d558de26d0d93901afdec3172-g.jpg,,
22020670,"El chocolate, nuevas armonías: bombones, tartas y pasteles, platos salados, cócteles, postres de cuchara  ",,,,"Rosalba Gioffré, Alessandra Pecci, Ana Doblado Castro",2006,,Susaeta,,186,0,English ,,,2011 12 30,"8430554564,9788430554560",,,,,,,,25vwGAAACAAJ,,,0,,,,,1,,0,78539846,pdf,0E96B6E5C9413036D615511109FED88B,,,_473803.0e96b6e5c9413036d615511109fed88b.pdf,0,2000-01-01 01:00:00,2016-04-03 02:51:08,726000/0e96b6e5c9413036d615511109fed88b-d.jpg,,
22020671,"Royal Navy frigates, 1945-1983  ",,,,Leo Marriott,1983,,I. Allan,,130,0,English ,,,2011 12 30,"0711013225,9780711013223",,,,,359.3/254/0941,V826.5.G7 M37 1983,,YS7YAQAACAAJ,OL2929275M,,0,,,,,1,,0,72323425,pdf,0E974843360B11026740F869C154B5E3,,,_440485.0e974843360b11026740f869c154b5e3.pdf,0,2000-01-01 01:00:00,2016-04-03 02:51:08,726000/0e974843360b11026740f869c154b5e3-g.jpg,,
22020672,BRS Pathology  ,,Board Review Series,,"Arthur S. Schneider, Philip A. Szanto",2002,2,Lippincott Williams & Wilkins,,489,0,English ,,,2011 12 30,"0683302655,9780683302653",,,,,616.07/076,RB32 .S36 2002,,jAgzAdWF7kkC,OL21037309M,,0,,,,0,1,1,0,60640177,pdf,0E9817F3C7509ACC266D3D0BA204BB99,,,_456273.0e9817f3c7509acc266d3d0ba204bb99.pdf,0,2000-01-01 01:00:00,2016-04-03 02:51:08,726000/0e9817f3c7509acc266d3d0ba204bb99-d.jpg,,
22020673,(29 العطایا النبویہ فی الفتاویٰ الرضویہ (جلد  ,,,,اعلیٰ حضرت، مجدد دین و ملت الشاہ امام احمد رضا خان قادری بریلوی علیہ الرحمہ,,,"Raza Foundation, Jamia Nizamia Razvia (AlaHazratNetwork)",,749,0,Urdu ,,,2011 12 30,,,,,,,,,,,,0,,,,1,1,0,0,64564983,pdf,0E98E268D9879B1122EFE172600AC1C8,,,_478378.0e98e268d9879b1122efe172600ac1c8.pdf,0,2000-01-01 01:00:00,2016-04-03 02:51:08,726000/0e98e268d9879b1122efe172600ac1c8-g.jpg,,
22020674,The Atlas of Emergency Medicine  ,,,,"Kevin J. Knoop, Lawrence B. Stack, Alan B. Storrow, R. Jason Thurman",2010,3,McGraw-Hill Professional,,,0,English ,,,2011 12 30,"0071496181,9780071496186",,,,,616.02/5,RC86.7 .A85 2009,,TA2uKsKCYV8C,OL23202954M,,0,,,,,1,1,1,127957971,chm,0E9AFA8B058C5E24FCD679DB7F5430A1,,,_490118.0e9afa8b058c5e24fcd679db7f5430a1.chm,0,2000-01-01 01:00:00,2016-04-03 02:51:08,726000/0e9afa8b058c5e24fcd679db7f5430a1-d.jpg,,
22020675,Amor y pedagogia en la edad media: Estudios de doctrina amorosa y practica literaria (Acta Salmanticensia. Estudios filologicos)  ,,,,Pedro M Catedra,1989,1a ed,"Universidad de Salamanca, Secretariado de Publicaciones",,232,0,"Spanish,Castilian",,,2011 12 30,"8474815266,9788474815269",,,,,,,,,OL1795938M,,0,,,,,1,,1,13686407,pdf,0E9BE84195DC8405E4011F12AB885E37,,,_476610.0e9be84195dc8405e4011f12ab885e37.pdf,0,2000-01-01 01:00:00,2016-04-03 02:51:08,726000/0e9be84195dc8405e4011f12ab885e37-g.jpg,,
22020676,Selos de Portugal. Álbum VI (1985-1990)  ,,Biblioteca Electrónica de Filatelia,,Carlos KULLBERG,2005,,Edições Húmus,,122,0,Portuguese ,,,2011 12 30,9729916314,,,,,,,,,,,0,,,,0,0,0,1,1891961,pdf,0E9C93E14E9DBD74750056A3521BB692,,,_491467.0e9c93e14e9dbd74750056a3521bb692.pdf,0,2000-01-01 01:00:00,2016-04-03 02:51:08,726000/0e9c93e14e9dbd74750056a3521bb692-g.jpg,,
22020677,"Podstawy konstrukcji maszyn, Volume 1  ",,,,red. Marek Dietrich,1999,,Wydawnictwa Naukowo-Techniczne,,596,0,Polish ,,,2011 12 30,"8320423449,9788320423440",,,,,,,,,,,0,,,,,1,,0,14009364,pdf,0E9EF5FF2D475E539BF5E1F257638414,,,_460185.0e9ef5ff2d475e539bf5e1f257638414.pdf,0,2000-01-01 01:00:00,2016-04-03 02:51:08,726000/0e9ef5ff2d475e539bf5e1f257638414-g.jpg,,
22020678,Copyright for Schools: A Practical Guide  ,,Copyright Series,,Carol Simpson,2005,4th,Linworth Publishing,,218,0,English ,,,2011 12 30,"1586831925,9781586831929",,,,,346.730482,,,,OL22378053M,,0,,,,0,0,0,1,3563338,pdf,0E9F5F637006DCD1B6663F048C206F94,,,_506789.0e9f5f637006dcd1b6663f048c206f94.pdf,0,2000-01-01 01:00:00,2016-04-03 02:51:08,726000/0e9f5f637006dcd1b6663f048c206f94-d.jpg,,
22020679,Gooney Bird and the Room Mother  ,,Gooney Bird 2,,"Lois Lowry, Middy Chilman Thomas",2011,None,Houghton Mifflin Harcourt,,,0,English ,,,2011 12 30,"0618532307,9780618532308",,,,,,,,,OL23273692M,,0,,,,0,0,1,1,2728033,epub,0EA062DEFAA15009023FFB1B61C68148,,,_478703.0ea062defaa15009023ffb1b61c68148.epub,0,2000-01-01 01:00:00,2016-04-03 02:51:08,726000/0ea062defaa15009023ffb1b61c68148-d.jpg,,
22020680,The Tree of Death & the Qliphoth  ,,,,Jhon Gee,,,,,161,0,English ,,,2011 12 30,,,,,,,,,,,,0,,,,0,1,0,0,38225025,pdf,0EA0E08119AD107815B9D04B1B89035D,,,_436110.0ea0e08119ad107815b9d04b1b89035d.pdf,0,2000-01-01 01:00:00,2016-04-03 02:51:08,726000/0ea0e08119ad107815b9d04b1b89035d-g.jpg,,
22020681,Gunung Sewu in Prehistoric Times  ,,,,Truman Simanjuntak (Ed.),2002,,Gadjah Mada University Press,,166,0,English ,,,2011 12 30,"979420501X,9789794205013",,,,,,,,,OL3609287M,,0,,,,,0,,1,71567651,pdf,0EA24CC2C276B270D2B8C1301630B37E,,,_476036.0ea24cc2c276b270d2b8c1301630b37e.pdf,0,2000-01-01 01:00:00,2016-04-03 02:51:08,726000/0ea24cc2c276b270d2b8c1301630b37e-g.jpg,,
22020682,"Dying in Style (Josie Marcus, Mystery Shopper, Book 1)  ",,,,Elaine Viets,2005,Reprint,Signet,,,0,English ,,,2011 12 30,"0451216792,9780451216793",,,,,,,,,OL7574731M,,0,,,,0,0,1,1,410556,mobi,0EA3988AE7CECF6085B5BA5A460BA02E,,,_501489.0ea3988ae7cecf6085b5ba5a460ba02e.mobi,0,2000-01-01 01:00:00,2016-04-03 02:51:08,726000/0ea3988ae7cecf6085b5ba5a460ba02e-d.jpg,,
22020683,Media Wizards: A Behind-the-scene Look At Media Manipulations  ,,,,Catherine Gourley,1999,,21st Century Books,,133,0,English ,,,2011 12 30,"0761309675,9780761309673,9780585269122",,,,,302.23,P90 .G65 1999,,,OL34130M,,0,,,,1,0,1,1,2135690,pdf,0EA411036CB6E545B6EC84EFEAD2BEBB,,,_467652.0ea411036cb6e545b6ec84efead2bebb.pdf,0,2000-01-01 01:00:00,2016-04-03 02:51:08,726000/0ea411036cb6e545b6ec84efead2bebb-d.jpg,,
22020684,Feiern und Erinnern: Geschichtsbilder im Spiegel antiker Feste (Studien zur alten Geschichte 12)  ,,Studien zur Alten Geschichte 12,,Hans Beck und Hans-Ulrich Wiemer (Hgg.),2009,,Verlag Antike,,240,0,German ,,,2011 12 30,"3938032340,9783938032343",,,,,,,,HTW7l5I8pnoC,,,0,,,,1,1,1,1,9195310,pdf,0EA534AB15B7BE67BDD30FD1F260E87C,,,_486688.0ea534ab15b7be67bdd30fd1f260e87c.pdf,0,2000-01-01 01:00:00,2016-04-03 02:51:08,726000/0ea534ab15b7be67bdd30fd1f260e87c-d.jpg,,
22020685,The Road to Renewal: Private Investment in the U.S. Transportation Infrastructure  ,,,,Richard R. Geddes,2011,,"Aei Press,R&L",,205,0,English ,,,2011 12 30,"0844743461,9780844743462,084474347X,9780844743479",,,,,388/.049,HE206.2 .G43 2010,,,OL24384934M,,0,,,,1,0,1,1,832050,pdf,0EA567B1DD6EB446BB4631205F708D3D,,,_456571.0ea567b1dd6eb446bb4631205f708d3d.pdf,0,2000-01-01 01:00:00,2016-04-03 02:51:08,726000/0ea567b1dd6eb446bb4631205f708d3d-d.jpg,,
22020686,Fatigue of Structures and Materials  ,,,,Jaap Schijve,2001,1,Springer,,530,0,English ,,,2011 12 30,"0792370139,9780792370130",,,,,620.1/126,TA418.38 .S45 2001,,,OL21801152M,,0,,,,,1,0,1,24367915,pdf,0EA76A84313A4B4D7FFB45D3B550B778,,,_456589.0ea76a84313a4b4d7ffb45d3b550b778.pdf,0,2000-01-01 01:00:00,2016-04-03 02:51:08,726000/0ea76a84313a4b4d7ffb45d3b550b778-d.jpg,,
22020687,Chromosome Structural Analysis: A Practical Approach  ,,,,Wendy A. Bickmore,1999,1,Oxford University Press,,234,0,English ,,,2011 12 30,"0199636982,9780199636983",,,,,572.8/733,QH600 .C4945 1999,,Ra9qAAAAMAAJ,OL384178M,,0,,,,1,1,1,1,13935577,pdf,0EA899BE3B18E882EE75B5BEC8388A98,,,_443448.0ea899be3b18e882ee75b5bec8388a98.pdf,0,2000-01-01 01:00:00,2016-04-03 02:51:08,726000/0ea899be3b18e882ee75b5bec8388a98-d.jpg,,
22020688,The Curious Case of the Clockwork Man: (Burton & Swinburne In)  ,,,,Mark Hodder,2011,paperback / softcover,Pyr,,359,0,English ,,,2011 12 30,"1616143592,9781616143596",,,,,,,,,OL24607585M,,0,,,,0,1,1,1,1635447,epub,0EA90F8D4F08487D15F251F52EB8739A,,,_440583.0ea90f8d4f08487d15f251f52eb8739a.epub,0,2000-01-01 01:00:00,2016-04-03 02:51:08,726000/0ea90f8d4f08487d15f251f52eb8739a-d.jpg,,
22020689,Jane and His Lordship's Legacy  ,,Jane Austen Mysteries 8,,Stephanie Barron,,,,,,0,English ,,,2011 12 30,,,,,,,,,,,,0,,,,,1,1,1,413335,epub,0EABAE7CCE3733283DAE75110AEDDE1D,,,_446394.0eabae7cce3733283dae75110aedde1d.epub,0,2000-01-01 01:00:00,2016-04-03 02:51:08,726000/0EABAE7CCE3733283DAE75110AEDDE1D-g.jpg,,
22020690,Industrial minerals and rocks of Victoria  ,,,,"I. W. McHaffie, Richard Woods Buckley",1995,,Geological Survey of Victoria,,212,0,English ,,,2011 12 30,"0730674746,9780730674740",,,,,,,,,,,0,,,,,1,1,1,23327479,pdf,0EACE4156A34311A90F4899D94F63CE3,,,_469526.0eace4156a34311a90f4899d94f63ce3.pdf,0,2000-01-01 01:00:00,2016-04-03 02:51:08,726000/0eace4156a34311a90f4899d94f63ce3-g.jpg,,
22020691,Een liefde in Parijs  ,,,,Douglas Kennedy,2007,,De Boekerij bv,,,0,Dutch ,,,2011 12 30,"9460921558,9789460921551",,,,,,,,,,,0,,,,0,0,1,1,414294,epub,0EAD00976D5FA1D5074F8C03C96F30C3,,,_512232.0ead00976d5fa1d5074f8c03c96f30c3.epub,0,2000-01-01 01:00:00,2016-04-03 02:51:08,726000/0EAD00976D5FA1D5074F8C03C96F30C3-g.jpg,,
22020692,Clima României  ,,,,Iulica Văduva,2008,,Editura Fundatiei România de Mâine,,208,0,"Romanian,Moldavian,Moldovan",,,2011 12 30,9789731631752,,,,,,,,,,,0,,,,,1,,1,11479216,pdf,0EAD3C838A8124DFC90673F9ED4EA210,,,_453772.0ead3c838a8124dfc90673f9ed4ea210.pdf,0,2000-01-01 01:00:00,2016-04-03 02:51:08,726000/0ead3c838a8124dfc90673f9ed4ea210-g.jpg,,
22020693,The Hopi (The History and Culture of Native Americans)  ,,The History & Culture of Native Americans,,Barry Pritzker,2011,1,Chelsea House Pub (L),,122,0,English ,,,2011 12 30,"1604137983,9781604137989",,,,,979.1004/97485,E99.H7 P74 2011,,DBrvRQAACAAJ,OL25002063M,,0,,,,1,0,1,1,4414976,pdf,0EAE687528D58A8F367B814A95339523,,,_493362.0eae687528d58a8f367b814a95339523.pdf,0,2000-01-01 01:00:00,2016-04-03 02:51:08,726000/0eae687528d58a8f367b814a95339523-d.jpg,,
22020694,Coridoare de oglinzi  ,,,,Ana Blandiana,2003,,LiterNet,,281,0,"Romanian,Moldavian,Moldovan",,,2011 12 30,"9738475252,9789738475250",,,,,,,,,,,0,,,,0,1,,1,2323928,pdf,0EB07A4C72A2EE2813D587CFE8CB47A4,,,_434837.0eb07a4c72a2ee2813d587cfe8cb47a4.pdf,0,2000-01-01 01:00:00,2016-04-03 02:51:08,726000/0eb07a4c72a2ee2813d587cfe8cb47a4-g.jpg,,
22020695,The Continuum Companion to Pragmatism  ,,Continuum Companions,,Edited by Sami Pihlström,2011,annotated edition,Continuum,,324,0,English ,,,2011 12 30,"0826442242,9780826442246",,,,,144/.3,B832 .C63 2011,,w4DkRgAACAAJ,OL25060576M,,0,,,,1,0,1,1,1533207,pdf,0EB42446F4BF924F95398A2F9EEF1517,,,_468684.0eb42446f4bf924f95398a2f9eef1517.pdf,0,2000-01-01 01:00:00,2016-04-03 02:51:08,726000/0eb42446f4bf924f95398a2f9eef1517-d.jpg,,
22020696,Cyprus (Eyewitness Travel Guides)  ,,Eyewitness Travel Guides,,DK Publishing,2010,Rep Rev,DK Travel,,217,0,English ,,,2011 12 30,"0756661617,9780756661618",1542-1554,,,,915.693044,,,ooygPMx6iAsC,,,0,,,,1,0,1,1,46000888,pdf,0EB5A0A96ABFBCE0D8966F6941C3F499,,,_503364.0eb5a0a96abfbce0d8966f6941c3f499.pdf,0,2000-01-01 01:00:00,2016-04-03 02:51:08,726000/0eb5a0a96abfbce0d8966f6941c3f499-d.jpg,,
22020697,Free Thought And Official Propaganda  ,,,,Bertrand Russell,,,,,30,0,English ,,,2011 12 30,,,,,,,,,,,,0,,,,,1,,1,736312,pdf,0EB792601E2467213BCF8A7947B7B614,,,_491800.0eb792601e2467213bcf8a7947b7b614.pdf,0,2000-01-01 01:00:00,2016-04-03 02:51:08,726000/0eb792601e2467213bcf8a7947b7b614-g.jpg,,
22020698,BRS Surgical Specialties  ,,Board Review Series,,Traves D. Crabtree,2000,1,Wolters Kluwer Health,,,0,English ,,,2011 12 30,"9780781727716,0781727715",,,,,617.0076,,,,OL9344672M,,0,,,,,1,1,1,5195968,chm,0EB7B82AE84C48BAF3F733AC8D8F6B4B,,,_498559.0eb7b82ae84c48baf3f733ac8d8f6b4b.chm,0,2000-01-01 01:00:00,2016-04-03 02:51:08,726000/0eb7b82ae84c48baf3f733ac8d8f6b4b-d.jpg,,
22020699,古代文史名著选译丛书.第1批.魏晋南北朝.诸葛亮文选译 .袁钟仁.译注.巴蜀书社.影印版  ,,,,袁钟仁,,,,,214,0,Chinese(PRC),,,2011 12 30,,,,,,,,,,,,0,,,,,1,,0,2518728,pdf,0EB81B454A08DC770F6D44C5EB54857B,,,_512497.0eb81b454a08dc770f6d44c5eb54857b.pdf,0,2000-01-01 01:00:00,2016-04-03 02:51:08,726000/0eb81b454a08dc770f6d44c5eb54857b-g.jpg,,
22020700,"Surface Enhanced Raman Spectroscopy: Analytical, Biophysical and Life Science Applications  ",,,,"Sebastian Schlücker, Wolfgang Kiefer",2011,1,Wiley-VCH,,354,0,English ,,,2011 12 30,"3527325670,9783527325672",,,,,,,,FQ_x_en_5vAC,,,0,,,,1,0,1,1,5230232,pdf,0EB91880DE50075CFCD5BC40B446123D,,,_470751.0eb91880de50075cfcd5bc40b446123d.pdf,0,2000-01-01 01:00:00,2016-04-03 02:51:08,726000/0eb91880de50075cfcd5bc40b446123d-d.jpg,,
22020701,Специальное оружие Второй мировой войны  ,,,,Михаил Егорович Козырев,2009,,Центрполиграф,,465,0,Russian ,,,2011 12 30,"5952443540,9785952443549",,,,,,,,PmFQkgAACAAJ,,,0,,,,,1,,0,25498853,pdf,0EB9725726570318DA556C865B7AC41D,,,_493603.0eb9725726570318da556c865b7ac41d.pdf,0,2000-01-01 01:00:00,2016-04-03 02:51:08,726000/0eb9725726570318da556c865b7ac41d-d.jpg,,
22020702,Nemirno doba srpskog srednjeg veka: vlastela srpskih oblasnih gospodara  ,,,,Marko Šuica,2000,,Službeni list SRJ,,112,0,Serbian ,,,2011 12 30,"8635504526,9788635504520",,,,,,,,2CDPAQAACAAJ,OL20977772M,,0,,,,1,1,0,1,3589289,pdf,0EB9DE913764A611664E00B15166863B,,,_453885.0eb9de913764a611664e00b15166863b.pdf,0,2000-01-01 01:00:00,2016-04-03 02:51:08,726000/0eb9de913764a611664e00b15166863b-g.jpg,,
22020703,"The Concise Encyclopedia of the Great Recession, 2007-2010  ",,,,Jerry M. Rosenberg,2010,,Scarecrow Press,,406,0,English ,,,2011 12 30,"0810876612,9780810876613,0810876604,9780810876606,9780810876910",,,,,330.9/051103,HB3743 .R67 2010,,,OL24080189M,,0,,,,1,0,1,1,992767,pdf,0EBA262D02E4784F1A75BE096D018BF9,,,_466924.0eba262d02e4784f1a75be096d018bf9.pdf,0,2000-01-01 01:00:00,2016-04-03 02:51:08,726000/0eba262d02e4784f1a75be096d018bf9-d.jpg,,
22020704,"Made in Mexico: Tradition, Tourism, and Political Ferment in Oaxaca  ",,,,Chris Goertzen,2010,,University Press of Mississippi,,207,0,English ,,,2011 12 30,"1604737964,9781604737967",,,,,338.4/7917274,G155.M6 G64 2010,,,OL24110747M,,0,,,,1,0,1,1,3855994,pdf,0EBD297ACA630B58391C0220796319E0,,,_476730.0ebd297aca630b58391c0220796319e0.pdf,0,2000-01-01 01:00:00,2016-04-03 02:51:08,726000/0ebd297aca630b58391c0220796319e0-d.jpg,,
22020705,"مجموع فتاوى ومقالات متنوعة \الجزء السادس  """,,,,سماحة الشيخ : عبد العزيز بن عبد الله بن باز,,,,,528,0,Arabic ,,,2011 12 30,,,,,,,,,,,,0,,,,,1,,1,2602227,pdf,0EBDC0A9BF5A11B0FFBD2E56DFF7A717,,,_502035.0ebdc0a9bf5a11b0ffbd2e56dff7a717.pdf,0,2000-01-01 01:00:00,2016-04-03 02:51:08,726000/0ebdc0a9bf5a11b0ffbd2e56dff7a717-g.jpg,,
22020706,Диалектическое противоречие  ,,"Над чем работают, о чем спорят философы",,Э.В. Ильенков и др.,1979,,Политиздат,,343,0,Russian ,,,2011 12 30,,,,,,,,,,,,0,,,,1,1,1,1,4743417,djvu,0EBEF7772EFE782F4B68C99B4382A755,,,_477089.0ebef7772efe782f4b68c99b4382a755.djvu,0,2000-01-01 01:00:00,2016-04-03 02:51:08,726000/0ebef7772efe782f4b68c99b4382a755-g.jpg,,
22020707,,,,"The Biblical Archaeologist - Vol.33, N.3 ",American Schools of Oriental Research,1970,,American Schools of Oriental Research,,32,0,English ,,,2011 12 30,,0006-0895,,,,,,,,,,0,,,,1,1,1,1,4570952,pdf,0EBFFA3D604FE4A0630AB08E16324E90,,,_506426.0ebffa3d604fe4a0630ab08e16324e90.pdf,0,2000-01-01 01:00:00,2016-04-03 02:51:08,726000/0ebffa3d604fe4a0630ab08e16324e90-g.jpg,,
22020708,"The New Cambridge Modern History, Vol. 1: The Renaissance, 1493-1520  ",,The New Cambridge Modern History 1,,G. R. Potter,1957,2nd,Cambridge University Press,,503,0,English ,,,2011 12 30,"052104541X,9780521045414",,,,,,,,,,,0,,,,0,1,0,1,9589025,pdf,0EC0A5349B3492D3D6CAD030DBB3AD54,,,_455038.0ec0a5349b3492d3d6cad030dbb3ad54.pdf,0,2000-01-01 01:00:00,2016-04-03 02:51:08,726000/0ec0a5349b3492d3d6cad030dbb3ad54-g.jpg,,
22020709,The Aristocats (Disney Book of the Film)  ,,,,Disney,1995,,Ladybird Books Ltd,,14,0,English ,,,2011 12 30,"0721443699,9780721443690",,,,,813.54,,,,OL20689042M,,0,,,,,1,,0,2250397,pdf,0EC17FA212DC4D1E56B9AAC4F8B7CB3E,,,_498700.0ec17fa212dc4d1e56b9aac4f8b7cb3e.pdf,0,2000-01-01 01:00:00,2016-04-03 02:51:08,726000/0ec17fa212dc4d1e56b9aac4f8b7cb3e-d.jpg,,
22020710,Mountain Music Fills the Air: Banjos and Dulcimers  ,,Foxfire Americana Library 11,,"Foxfire Fund, Inc.",2011,,Anchor,,,0,English ,,,2011 12 30,"0307948307,9780307948304",,,,,,,,,,,0,,,,0,0,1,1,13659907,epub,0EC1BF937994FC98415242307B5439F9,,,_511670.0ec1bf937994fc98415242307b5439f9.epub,0,2000-01-01 01:00:00,2016-04-03 02:51:08,726000/0EC1BF937994FC98415242307B5439F9-g.jpg,,
22020711,Morse Homology (Progress in Mathematics (Birkhauser Boston))  ,,,,Matthias Schwarz,1993,,Birkhauser,,243,0,English ,,,2011 12 30,"0817629041,9780817629045",,,,,515/.73,QA331 .S43 1993,,,OL1411871M,,0,,,,0,1,0,1,4580572,djvu,0EC2F7FAA11093838E3D885601C2307F,,,_483954.0ec2f7faa11093838e3d885601c2307f.djvu,0,2000-01-01 01:00:00,2016-04-03 02:51:08,726000/0ec2f7faa11093838e3d885601c2307f-d.jpg,,
22020712,"Marijuana Myths, Marijuana Facts: a review of the scientific evidence  ",,,,"Lynn Etta Zimmer, John P. Morgan",1997,1,Lindesmith Center,,255,0,English ,,,2011 12 30,"0964156849,9780964156845",,,,,615/.7827,QP801.C27 Z56 1997,,,OL1020468M,,0,,,,0,1,0,0,16118198,pdf,0EC47E3F6B9966C08F018AA0ADF908C8,,,_492877.0ec47e3f6b9966c08f018aa0adf908c8.pdf,0,2000-01-01 01:00:00,2016-04-03 02:51:08,726000/0ec47e3f6b9966c08f018aa0adf908c8-d.jpg,,
22020713,The Eleventh Victim  ,,Hailey Dean 1,,Nancy Grace,2009,,Hyperion,,,0,English ,,,2011 12 30,"9781401394530,1401394531",,,,,,,,PiTZDu6EMgIC,OL24278255M,,0,,,,,0,1,1,723740,epub,0EC72D4A56D7AE9C84FBCE9F7C5779EA,,,_492246.0ec72d4a56d7ae9c84fbce9f7c5779ea.epub,0,2000-01-01 01:00:00,2016-04-03 02:51:08,726000/0EC72D4A56D7AE9C84FBCE9F7C5779EA-g.jpg,,
22020714,"Entellektüel: sürgün, marjinal, yabancı  ",,,,Edward Said,1995,,Ayrıntı,,108,0,Turkish ,,,2011 12 30,"9755390944,9789755390949",,,,,,,,,,,0,,,,,1,,1,815906,pdf,0EC9D5881A8751052D79499E8974BA63,,,_506482.0ec9d5881a8751052d79499e8974ba63.pdf,0,2000-01-01 01:00:00,2016-04-03 02:51:08,726000/0ec9d5881a8751052d79499e8974ba63-g.jpg,,
22020715,How to present at meetings  ,,How to,,George M. Hall,2001,5,BMJ Books,,89,0,English ,,,2011 12 30,"072791572X,9780727915726",,,,,,,,XBPFQwAACAAJ,OL7868422M,,0,,,,1,0,1,1,307180,pdf,0EC9E6803F399F48A13A3125155A8E51,,,_433020.0ec9e6803f399f48a13a3125155a8e51.pdf,0,2000-01-01 01:00:00,2016-04-03 02:51:08,726000/0ec9e6803f399f48a13a3125155a8e51-d.jpg,,
22020716,"Throughout Your Generations Forever: Sacrifice, Religion, and Paternity  ",,,,Nancy Jay,1994,,University Of Chicago Press,,194,0,English ,,,2011 12 30,"0226395731,9780226395739",,,,,306.6/9134,GN473.5 .J38 1992,,,OL1553107M,,0,,,,1,1,0,1,10892528,pdf,0ECC3B15C2599464791DDF04254BC3C0,,,_433178.0ecc3b15c2599464791ddf04254bc3c0.pdf,0,2000-01-01 01:00:00,2016-04-03 02:51:08,726000/0ecc3b15c2599464791ddf04254bc3c0-d.jpg,,
22020717,"Jade Remedies: A Chinese Herbal Reference for the West, Vol. 1  ",,,,Peter Holmes,1997,1st,Snow Lotus Pr,,438,0,English ,,,2011 12 30,"1890029289,9781890029289",,,,,615/.321/0951,RM666.H33 H647 1996,,,OL102954M,,0,,,,0,1,0,1,200844713,pdf,0ECC491D5AC2AEB01FE5CD6C6610AA40,,,_487916.0ecc491d5ac2aeb01fe5cd6c6610aa40.pdf,0,2000-01-01 01:00:00,2016-04-03 02:51:08,726000/0ecc491d5ac2aeb01fe5cd6c6610aa40-d.jpg,,
22020718,The Sweetest Revenge  ,,,,Emma Darcy,2001,,Harlequin,,,0,English ,,,2011 12 30,"0373121768,9780373121762",,,,,823,,,4eCZGaeL9K8C,OL10739396M,,0,,,,,1,,,722640,mobi,0ECCBB5118F51D4993AD4A73B2DC9ADF,,,_466011.0eccbb5118f51d4993ad4a73b2dc9adf.mobi,0,2000-01-01 01:00:00,2016-04-03 02:51:08,726000/0eccbb5118f51d4993ad4a73b2dc9adf-d.jpg,,
22020719,Epidemiology: an introductory text for medical and other health science students  ,,,,"David Christie, Ian Gordon, Richard F. Heller",1997,2nd,University of New South Wales Press,,,0,English ,,,2011 12 30,"0868404004,9780868404004",,,,,,,,0QVMAQAAIAAJ,OL11060305M,,0,,,,,1,,,1349446,epub,0ECF4E7A7AF8FAD883F0B74EC7AD01BB,,,_472650.0ecf4e7a7af8fad883f0b74ec7ad01bb.epub,0,2000-01-01 01:00:00,2016-04-03 02:51:08,726000/0ecf4e7a7af8fad883f0b74ec7ad01bb-d.jpg,,
22020720,Performing Gender at Work  ,,,,Elisabeth Kelan,2009,,Palgrave Macmillan,,253,0,English ,,,2011 12 30,"0230577814,9780230577817",,,,,305.43/004,HQ1240 .K46 2009,,,OL23929301M,,0,,,,,1,1,1,352108,epub,0ECF9891050754C1BF3D447CD3E2CC1B,,,_440251.0ecf9891050754c1bf3d447cd3e2cc1b.epub,0,2000-01-01 01:00:00,2016-04-03 02:51:08,726000/0ecf9891050754c1bf3d447cd3e2cc1b-d.jpg,,
22020721,"Heidegger, Strauss, and the Premises of Philosophy: On Original Forgetting  ",,,,Richard L. Velkley,2011,,University Of Chicago Press,,213,0,English ,,,2011 12 30,"0226852547,9780226852546",,,,,,,,,,,0,,,,1,0,1,1,770590,pdf,0ED0ACC1FA38C1500C28EA07D0F2DBC8,,,_479571.0ed0acc1fa38c1500c28ea07d0f2dbc8.pdf,0,2000-01-01 01:00:00,2016-04-03 02:51:08,726000/0ed0acc1fa38c1500c28ea07d0f2dbc8-d.jpg,,
22020722,The Great Brain Debate: Nature Or Nurture?  ,,Science Essentials,,John E. Dowling,2004,,National Academies Press,,199,0,English ,,,2011 12 30,"0309532450,9780309532457,030909223X,9780309092234",,,,,612.823,,,RI9gOr-nBjAC,OL10358871M,,0,,,,1,0,1,1,1431024,pdf,0ED24F94E2F0D10315394937EDA4A61E,,,_453886.0ed24f94e2f0d10315394937eda4a61e.pdf,0,2000-01-01 01:00:00,2016-04-03 02:51:08,726000/0ed24f94e2f0d10315394937eda4a61e-g.jpg,,
22020723,Ibn Taymiyya Against the Greek Logicians  ,,,,Wael B. Hallaq,1993,,"Oxford University Press, USA",,266,0,English ,,,2011 12 30,"0198240430,9780198240433",,,,,160/.92,BP190.5.R4 I26213 1993,,,OL1399081M,,0,,,,,1,,0,9037944,pdf,0ED264E31F796960A6868EE356D4801F,,,_441719.0ed264e31f796960a6868ee356d4801f.pdf,0,2000-01-01 01:00:00,2016-04-03 02:51:08,726000/0ed264e31f796960a6868ee356d4801f-d.jpg,,
22020724,An Instructor’s Solutions Manual to Accompany Mechanics of Materials  ,,,,"James M. Gere, Barry J. Goodno",2008,,Cengage Learning,,950,0,English ,,,2011 12 30,"0495244589,9780495244585",,,,,,,,1VyhPAAACAAJ,,,0,,,,0,0,1,1,17542083,pdf,0ED551FFA408533D4A3F09C579ECC83A,,,_505201.0ed551ffa408533d4a3f09c579ecc83a.pdf,0,2000-01-01 01:00:00,2016-04-03 02:51:08,726000/0ed551ffa408533d4a3f09c579ecc83a-g.jpg,,
22020725,Yeni HİTİT 2: Yabancılar İçin Türkçe (Çalışma Kitabı) (with Audio)  ,,,,Tömer,2010,,Ankara Universitesi Tömer,,77,0,Turkish ,,,2011 12 30,9789754827927,,,,,,,,,,,0,,,,0,1,0,1,60646682,pdf,0ED5D4C2924218B263E665DD37EE15B8,,,_501538.0ed5d4c2924218b263e665dd37ee15b8.pdf,0,2000-01-01 01:00:00,2016-04-03 02:51:08,726000/0ed5d4c2924218b263e665dd37ee15b8-g.jpg,,
22020726,Нозик иборалар  ,,,,Абу-л-Қосим Маҳмуд ибн Умар ибн Аҳмад аз-ЗАМАХШАРИЙ,1992,,Камалак,,45,0,Uzbek ,,,2011 12 30,"5633008456,9785633008456",,,,,,,,,OL12584053M,,0,,,,0,1,0,0,11538216,pdf,0ED5E8A3FAAFA584503BEE173AE31BDB,,,_449093.0ed5e8a3faafa584503bee173ae31bdb.pdf,0,2000-01-01 01:00:00,2016-04-03 02:51:08,726000/0ed5e8a3faafa584503bee173ae31bdb-g.jpg,,
22020727,WAR TORN  ,,,,ANDY MCNAB,2010,,BANTAM PRESS,,,0,English ,,,2011 12 30,"0593065263,9780593065266",,,,,,,,,,,0,,,,,1,,,709351,mobi,0ED7593A6ED0D965C7C49E94E9F6EE8C,,,_473487.0ed7593a6ed0d965c7c49e94e9f6ee8c.mobi,0,2000-01-01 01:00:00,2016-04-03 02:51:08,726000/0ed7593a6ed0d965c7c49e94e9f6ee8c-d.jpg,,
22020728,A Practical Guide to Using Second Life in Higher Education  ,,,,Maggi Savin-Baden,2010,1,Open University Press,Maidenhead,223,0,English ,,,2011 12 30,"0335242146,9780335242146,9780335242153,0335242154",,,,,,,,,,,0,,,,,1,,1,16817818,pdf,0ED7D26B5A2FC6A65E95A8EA1701ECF4,,,_443923.0ed7d26b5a2fc6a65e95a8ea1701ecf4.pdf,0,2000-01-01 01:00:00,2016-04-03 02:51:08,726000/0ed7d26b5a2fc6a65e95a8ea1701ecf4-d.jpg,,
22020729,Front Page Teaser: A Liz Higgin's Mystery  ,,,,Rosemary Herbert,2010,1,Down East Enterprise Inc,,,0,English ,,,2011 12 30,"0892728523,9780892728527",,,,,813/.6,PS3608.E7296 F76 2010,,oHCs2QrKkmkC,OL24902425M,,0,,,,,1,,,2945054,epub,0ED7F67016FFFEF8EBAA9E67D5649F63,,,_502789.0ed7f67016fffef8ebaa9e67d5649f63.epub,0,2000-01-01 01:00:00,2016-04-03 02:51:08,726000/0ed7f67016fffef8ebaa9e67d5649f63-d.jpg,,
22020730,Effusion Cytology: A Practical Guide to Cancer Diagnosis  ,,,,"Parvin Ganjei-Azar MD, Merce Jorda PhD, Awtar Krishan PhD",2011,1,Demos Medical,,192,0,English ,,,2011 12 30,"1933864656,9781933864655",,,,,616.07/582,RB43 .G36 2011,,As3GZNYlyG0C,OL24808588M,,0,,,,1,0,1,1,5695466,pdf,0ED8FF057443DB301C0E494B1FF048A9,,,_513550.0ed8ff057443db301c0e494b1ff048a9.pdf,0,2000-01-01 01:00:00,2016-04-03 02:51:08,726000/0ed8ff057443db301c0e494b1ff048a9-d.jpg,,
22020731,Verdammnis. Roman (Millennium-Trilogie - Band 2)  ,,,,Stieg Larsson,2007,,Heyne Verlag,,,0,German ,,,2011 12 30,"3453013603,9783453013605,9783641203351",,,,,,,,,,,0,,,,,0,1,1,617432,epub,0ED95F0404F2903EBC1FB0A0E328CD7F,,,_511692.0ed95f0404f2903ebc1fb0a0e328cd7f.epub,0,2000-01-01 01:00:00,2016-04-03 02:51:08,726000/0ed95f0404f2903ebc1fb0a0e328cd7f-d.jpg,,
22020732,"Family of Secrets: The Bush Dynasty, America's Invisible Government, and the Hidden History of the Last Fifty Years  ",,,,Russ Baker,2009,,Bloomsbury Press,,,0,English ,,,2011 12 30,"1608190064,9781608190065",,,,,,E904 .B35 2009,,,OL24085400M,,0,,,,,0,1,1,737811,epub,0EDBAC6C845584A0234DA4EDBC9DC25D,,,_436785.0edbac6c845584a0234da4edbc9dc25d.epub,0,2000-01-01 01:00:00,2016-04-03 02:51:08,726000/0edbac6c845584a0234da4edbc9dc25d-d.jpg,,
22020733,Multi-objective evolutionary algorithms for knowledge discovery from databases  ,,,,Ashish Ghosh,2008,1,Springer,,168,0,English ,,,2011 12 30,"3540774661,9783540774662",,,,,,,,,OL22565920M,,0,,,,,1,,1,6066297,pdf,0EDBB0327CF2537C7453CE6D7D215DDA,,,_512498.0edbb0327cf2537c7453ce6d7d215dda.pdf,0,2000-01-01 01:00:00,2016-04-03 02:51:08,726000/0edbb0327cf2537c7453ce6d7d215dda-d.jpg,,
22020734,"R B, Roland Barthes  ",,En Attente,,Collectif,2002,Albums (beaux livres br.),Seuil,,253,0,French ,,,2011 12 30,"2020567326,9782020567329",,,,,700,,,,OL22515541M,,0,,,,1,1,0,0,343499998,pdf,0EDC85435195C9F49A9A1D2B9DDF1C12,,,_432544.0edc85435195c9f49a9a1d2b9ddf1c12.pdf,0,2000-01-01 01:00:00,2016-04-03 02:51:08,726000/0edc85435195c9f49a9a1d2b9ddf1c12-d.jpg,,
22020735,"Current Trends in Caucasian, East European and Inner Asian Linguistics: Papers in Honor of Howard I. Aronson  ",,Current Issues in Linguistic Theory 246,,"Dee Ann Holisky, Kevin Tuite",2003,,John Benjamins Pub Co,,455,0,English ,,,2011 12 30,"9027247587,9789027247582,1588114619,9781588114617",,,,,409/.47,P381.S59 C87 2003,,KDaUezvjKfsC,OL22580863M,,0,,,,1,1,1,1,22699887,pdf,0EDCA8597F4A0629A3E4C34200EA9869,,,_513101.0edca8597f4a0629a3e4c34200ea9869.pdf,0,2000-01-01 01:00:00,2016-04-03 02:51:08,726000/0edca8597f4a0629a3e4c34200ea9869-d.jpg,,
22020736,Emergent Literacy and Language Development: Promoting Learning in Early Childhood (Challenges in Language and Literacy)  ,,Challenges in Language and Literacy,,Paula M. Rhyner PhD,2009,1,The Guilford Press,,257,0,English ,,,2011 12 30,"1606233009,9781606233009",,,,,372.6,LB1140.5.L3 E43 2009,,,OL23192112M,,0,,,,1,0,1,1,2099244,pdf,0EDDFAD636965F67DFC4664C4D77E11A,,,_477868.0eddfad636965f67dfc4664c4d77e11a.pdf,0,2000-01-01 01:00:00,2016-04-03 02:51:08,726000/0eddfad636965f67dfc4664c4d77e11a-d.jpg,,
22020737,Lehrbuch der Klinischen Psychologie. Modelle psychischer Störungen,,,,Hans Reinecker,1998,,Hogrefe-Verlag,,688,0,German,,,2011 12 30,"3801709884,978-3-8017-0988-4",,,,,,,,,,,0,,,,0,0,1,1,4256902,pdf,0EDF03A16DF5BB5D95BE0F08E50EFF70,,,_454599.0edf03a16df5bb5d95be0f08e50eff70.pdf,0,2000-01-01 01:00:00,2016-04-03 02:51:08,726000/0edf03a16df5bb5d95be0f08e50eff70-d.jpg,,
22020738,The Clash of Civilizations and the Remaking of World Order  ,,,,Samuel P. Huntington,1996,First Edition,Simon & Schuster,,,0,English ,,,2011 12 30,"0684811642,9780684811642",,,,,909.82/9,D860 .H86 1996,,,OL992997M,,0,,,,,1,,,2334466,epub,0EE06EF3F701084FF574F2E70B1C088E,,,_475643.0ee06ef3f701084ff574f2e70b1c088e.epub,0,2000-01-01 01:00:00,2016-04-03 02:51:08,726000/0ee06ef3f701084ff574f2e70b1c088e-d.jpg,,
22020739,Skulduggery Pleasant: Death Bringer  ,,,,Derek Landy,2011,,Harper Collins Ome,,,0,English ,,,2011 12 30,"000732605X,9780007326051",,,,,,,,,,,0,,,,0,0,,1,1292158,mobi,0EE2A159D3007DF64A3537C02719FB6D,,,_491734.0ee2a159d3007df64a3537c02719fb6d.mobi,0,2000-01-01 01:00:00,2016-04-03 02:51:08,726000/0ee2a159d3007df64a3537c02719fb6d-d.jpg,,
22020740,Struggle for national democracy  ,,,,José María Sison,1967,,Progressive Publications,,,0,English ,,,2011 12 30,,,,,,,,,lnpCAAAAYAAJ,,,0,,,,,1,1,1,120162,epub,0EE4338C5BCA6F3B6497F38318A00C75,,,_487159.0ee4338c5bca6f3b6497f38318a00c75.epub,0,2000-01-01 01:00:00,2016-04-03 02:51:08,726000/0EE4338C5BCA6F3B6497F38318A00C75-g.jpg,,
22020741,"Motion Mountain - The Adventure of Physics, Vol 2 of 6 - Relativity  ",,,,Christoph Schiller,2011,24,,,344,0,English ,,,2011 12 30,,,,,,,,,LyVxtGv1RwEC,,,0,,,,0,1,1,1,34274284,pdf,0EE43F8890ADB1D1C750BD197406247C,,,_494495.0ee43f8890adb1d1c750bd197406247c.pdf,0,2000-01-01 01:00:00,2016-04-03 02:51:08,726000/0ee43f8890adb1d1c750bd197406247c-g.jpg,,
22020742,"Computational Studies of New Materials II: From Ultrafast Processes and Nanostructures to Optoelectronics, Energy Storage and Nanomedicine  ",,,,Thomas F. George,2011,2,World Scientific Publishing Company,,540,0,English ,,,2011 12 30,"9814287180,9789814287180",,,,,,,,bpR7qMqJLPIC,,,0,,,,1,0,1,1,9392702,pdf,0EE69428EE0F5B4DD7FDE0AAFC517009,,,_495336.0ee69428ee0f5b4dd7fde0aafc517009.pdf,0,2000-01-01 01:00:00,2016-04-03 02:51:08,726000/0ee69428ee0f5b4dd7fde0aafc517009-d.jpg,,
22020743,Willie Nelson Sings America  ,,,,"Steven Opdyke, Will Van Overbeek, Steve Bourdon, Pamela Meister",1998,1st,Sunbelt Media Inc,,493,0,English ,,,2011 12 30,"1571682651,9781571682659",,,,,782.421642/092,ML156.7.N47 O63 1998,,4l0NAAAACAAJ,OL63784M,,0,,,,1,0,1,1,4914957,pdf,0EE7FD029BFFEC53C971E5E49C340D6E,,,_456922.0ee7fd029bffec53c971e5e49c340d6e.pdf,0,2000-01-01 01:00:00,2016-04-03 02:51:08,726000/0ee7fd029bffec53c971e5e49c340d6e-d.jpg,,
22020744,Northern Spain (Eyewitness Travel Guides)  ,,Eyewitness Travel Guides,,DK Publishing,2009,Rep Rev,DK Travel,,273,0,English ,,,2011 12 30,"0756661137,9780756661137",,,,,,,,Dr8_s2pGwRIC,,,0,,,,1,0,1,1,59153777,pdf,0EEB21CFC82FB6A8C4E8C5E2F241399A,,,_491691.0eeb21cfc82fb6a8c4e8c5e2f241399a.pdf,0,2000-01-01 01:00:00,2016-04-03 02:51:08,726000/0eeb21cfc82fb6a8c4e8c5e2f241399a-d.jpg,,
22020745,История Швеции  ,,,,"Мелин Я., Юханссон А.В., Хеденборг С.",2002,,Весь Мир,,402,0,Russian ,,,2011 12 30,"217-222-223-2,227-231-232-2,260-267-301-3,114-200-201-2,191-202-205-2,107-114-120-1",,,,,,,,,,,0,,,,,1,,1,13388111,djvu,0EEFEC32D79C0FBBEFCDB0617021CF02,,,_448658.0eefec32d79c0fbbefcdb0617021cf02.djvu,0,2000-01-01 01:00:00,2016-04-03 02:51:08,726000/0eefec32d79c0fbbefcdb0617021cf02-g.jpg,,
22020746,Plankton of Inland Waters  ,,,,Gene E. Likens,2010,1,Academic Press,,411,0,English ,,,2011 12 30,"0123819946,9780123819949",,,,,578.76,QH96.8.P5 P53 2010,,nx46BanT_V4C,OL24493644M,,0,,,,1,0,1,1,9452913,pdf,0EF0CFEC9351EADFF39F4430F72878ED,,,_461416.0ef0cfec9351eadff39f4430f72878ed.pdf,0,2000-01-01 01:00:00,2016-04-03 02:51:08,726000/0ef0cfec9351eadff39f4430f72878ed-d.jpg,,
22020747,Combinatorics of Coxeter Groups  ,,Graduate Texts in Mathematics 231,,"Anders Björner, Francesco Brenti",2005,1,Springer,,378,0,English ,,,2011 12 30,"3540442383,9783540442387",,,,,,,,,OL9057949M,,0,,,,1,0,1,1,2352844,pdf,0EF0ECF606BA4ACA4B0AC933A08E5906,,,_437161.0ef0ecf606ba4aca4b0ac933a08e5906.pdf,0,2000-01-01 01:00:00,2016-04-03 02:51:08,726000/0ef0ecf606ba4aca4b0ac933a08e5906-d.jpg,,
22020748,"Optimization Modeling with Spreadsheets, Second Edition  ",,,,Kenneth R. Baker,2011,2nd,Wiley,,430,0,English ,,,2011 12 30,"0470928638,9780470928639",,,,,005.54,HB143.7 .B35 2011,,,OL24494991M,,0,,,,1,0,1,1,11678088,pdf,0EF21340870F33F13B0269B5AA7B27D9,,,_458775.0ef21340870f33f13b0269b5aa7b27d9.pdf,0,2000-01-01 01:00:00,2016-04-03 02:51:08,726000/0ef21340870f33f13b0269b5aa7b27d9-d.jpg,,
22020749,"The Collected Essays, Journalism, and Letters of George Orwell: My country right or left, 1940-1943  ",,,,"George Orwell, Sonia Orwell, Ian Angus",1968,,"Harcourt, Brace & World",,327,0,English ,,,2011 12 30,"0156186241,9780156186247",,,,,,,,8jHuAAAAMAAJ,OL7365869M,,0,,,,1,0,0,1,2360405,pdf,0EF2B374BA20992E60EEAFD7CBB5DE48,,,_496942.0ef2b374ba20992e60eeafd7cbb5de48.pdf,0,2000-01-01 01:00:00,2016-04-03 02:51:08,726000/0ef2b374ba20992e60eeafd7cbb5de48-d.jpg,,
22020750,"A Figure in Hiding (The Hardy Boys, Original Series, Book 16)  ",,The Hardy Boys 16,,Franklin W. Dixon,1937,,Grosset & Dunlap,,87,0,English ,,,2011 12 30,,,,,,,,,,,,0,,,,0,1,0,1,391600,pdf,0EF537D7F0B81BA6AFE405C2376CAE1C,,,_448139.0ef537d7f0b81ba6afe405c2376cae1c.pdf,0,2000-01-01 01:00:00,2016-04-03 02:51:08,726000/0ef537d7f0b81ba6afe405c2376cae1c-g.jpg,,
22020751,The Future of Post-Human Education: A Preface to a New Theory of Teaching and Learning  ,,,,Peter Baofu,2011,,Cambridge International Science Publishing,,485,0,English ,,,2011 12 30,"1907343245,9781907343247",,,,,,,,fmNiYgEACAAJ,,,0,,,,1,0,1,1,3403669,pdf,0EF54AD6AF29F5DB50E87308B364AF36,,,_479691.0ef54ad6af29f5db50e87308b364af36.pdf,0,2000-01-01 01:00:00,2016-04-03 02:51:08,726000/0ef54ad6af29f5db50e87308b364af36-d.jpg,,
22020752,Poverty and Perception in Jamaica: A Comparative Analysis of Jamaican Households  ,,,,Warren A. Benfield,2010,,Univ of West Indies Pr,,198,0,English ,,,2011 12 30,"9766402302,9789766402303",,,,,,,,OdM6QwAACAAJ,,,0,,,,1,0,1,1,6268725,pdf,0EF5E1FB1FB9B9AEDFDE6B50935F70ED,,,_495341.0ef5e1fb1fb9b9aedfde6b50935f70ed.pdf,0,2000-01-01 01:00:00,2016-04-03 02:51:08,726000/0ef5e1fb1fb9b9aedfde6b50935f70ed-d.jpg,,
22020753,Basic Spanish  ,,Basic Spanish,,"Ana C. Jarvis, Raquel Lebredo, Francisco Mena-Ayllon",2010,2,Heinle,,396,0,English ,,,2011 12 30,"0495897043,9780495897040",,,,,,,,ttTjBAM5U-sC,,,0,,,,1,0,1,1,9588714,pdf,0EF696CDA8C47A57C692B10DF6D21E6C,,,_465748.0ef696cda8c47a57c692b10df6d21e6c.pdf,0,2000-01-01 01:00:00,2016-04-03 02:51:08,726000/0ef696cda8c47a57c692b10df6d21e6c-d.jpg,,
22020754,Zborul  ,,Descoperă lumea,,Donald Lopez,2008,,Litera Internaţional,,57,0,"Romanian,Moldavian,Moldovan",,,2011 12 30,9789736754791,,,,,,,,,,,0,,,,0,1,0,0,165952391,pdf,0EF715DAC97AF246A57E90046E38C976,,,_444558.0ef715dac97af246a57e90046e38c976.pdf,0,2000-01-01 01:00:00,2016-04-03 02:51:08,726000/0ef715dac97af246a57e90046e38c976-g.jpg,,
22020755,"Elders, Shades and Women: Ceremonial Change in Lango, Uganda  ",,,,Richard T. Curley,1973,1St Edition,University of California Press,,232,0,English ,,,2011 12 30,"0520021495,9780520021495",,,,,301.29/676/1,GN473 .C87,,pzrywnLP_6IC,OL5741076M,,0,,,,0,1,1,0,13063377,pdf,0EF7A705DB2A9FD076B21DA6BDB63699,,,_444921.0ef7a705db2a9fd076b21da6bdb63699.pdf,0,2000-01-01 01:00:00,2016-04-03 02:51:08,726000/0ef7a705db2a9fd076b21da6bdb63699-g.jpg,,
22020756,Nebel über der Themse  ,,,,Anne Perry,2002,,Heyne Verlag,,413,0,German ,,,2011 12 30,"3453196163,9783453196162",,,,,,,,,OL12717685M,,0,,,,1,0,1,1,1915572,pdf,0EF7B3760F859E8199A58275A0422A9A,,,_440127.0ef7b3760f859e8199a58275a0422a9a.pdf,0,2000-01-01 01:00:00,2016-04-03 02:51:08,726000/0ef7b3760f859e8199a58275a0422a9a-d.jpg,,
22020757,"Executive Employment Law: Protecting Executives, Entrepreneurs and Employees  ",,,,Jotham S. Stein,2011,,"Oxford University Press, USA",,291,0,English ,,,2011 12 30,"0199737851,9780199737857",,,,,344.7301/761658,KF1423 .S725 2011,,HjBTYgEACAAJ,OL25008292M,,0,,,,1,0,1,1,1181514,pdf,0EFAAF4E313E563172DC916423A8619D,,,_506503.0efaaf4e313e563172dc916423a8619d.pdf,0,2000-01-01 01:00:00,2016-04-03 02:51:08,726000/0efaaf4e313e563172dc916423a8619d-d.jpg,,
22020758,Persuasive Online Copywriting: How to Take Your Words to the Bank  ,,,,"Bryan Eisenberg, Jeffrey Eisenberg, Lisa T. Davis",,,Wizard Academy Press,,149,0,English ,,,2011 12 30,"0971476993,9780971476998",,,,,,,,,OL8564711M,,0,,,,,1,,1,1597578,pdf,0EFC27AB21257CC48CB415340250E9B4,,,_504442.0efc27ab21257cc48cb415340250e9b4.pdf,0,2000-01-01 01:00:00,2016-04-03 02:51:08,726000/0efc27ab21257cc48cb415340250e9b4-d.jpg,,
22020759,Headhunter Hiring Secrets: The Rules of the Hiring Game Have Changed . . . Forever!  ,,,,Skip Freeman,2010,1st,CreateSpace.com,,,0,English ,,,2011 12 30,"0615346219,9780615346212",,,,,,,,,,,0,,,,,0,1,1,4134304,mobi,0EFD1A87378E44D0BA6AF0BF49A6FCD4,,,_489279.0efd1a87378e44d0ba6af0bf49a6fcd4.mobi,0,2000-01-01 01:00:00,2016-04-03 02:51:08,726000/0efd1a87378e44d0ba6af0bf49a6fcd4-d.jpg,,
22020760,Retail Security and Loss Prevention  ,,,,Read Hayes,2007,Second Edition,Palgrave Macmillan,,305,0,English ,,,2011 12 30,"0230006817,9780230006812",,,,,658.4/73,HF5429.27 .H39 2007,,,OL24052762M,,0,,,,1,0,1,1,1540723,pdf,0EFEC18262A47F26356AAC8B0F48250D,,,_484969.0efec18262a47f26356aac8b0f48250d.pdf,0,2000-01-01 01:00:00,2016-04-03 02:51:08,726000/0efec18262a47f26356aac8b0f48250d-d.jpg,,
22020761,Modern Thermodynamics: Based on the Extended Carnot Theorem  ,,,,Jitao Wang,2011,2011,Springer,,291,0,English ,,,2011 12 30,"3642113486,9783642113482",,,,,536.71,,,,,,0,,,,0,0,1,1,5723532,pdf,0F000EC86ACB21482E2E2472C7E969CD,,,_506709.0f000ec86acb21482e2e2472c7e969cd.pdf,0,2000-01-01 01:00:00,2016-04-03 02:51:08,726000/0f000ec86acb21482e2e2472c7e969cd-d.jpg,,
22020762,The BSA'S Geometric Collection: Kynosarges et alia volume 98 issue The Annual of the British School at Athens,,,,J. N. Coldstream,2003,,,,31,0,English ,,,2011 12 30,,,,,,,,,,,,0,,,,,1,,1,6765692,pdf,0F0015050CD0AA5D01F1AEC19C26B57C,,,_479034.0f0015050cd0aa5d01f1aec19c26b57c.pdf,0,2000-01-01 01:00:00,2016-04-03 02:51:08,726000/0f0015050cd0aa5d01f1aec19c26b57c-g.jpg,,
22020763,Martin Buber and the Human Sciences  ,,"G - Reference, Information and Interdisciplinary Subjects",,Maurice S. Friedman,1996,,SUNY Press,,412,0,English ,,,2011 12 30,"0791428761,9780791428764,0791428753,9780791428757",,,,,181/.06,B3213.B84 M423 1996,,WFoU5LdDu6cC,OL786900M,,0,,,,1,0,1,1,1879018,pdf,0F00A8599FB64CA7FA7F4B3CB25015AE,,,_467975.0f00a8599fb64ca7fa7f4b3cb25015ae.pdf,0,2000-01-01 01:00:00,2016-04-03 02:51:08,726000/0f00a8599fb64ca7fa7f4b3cb25015ae-d.jpg,,
22020764,"MATLAB for Engineers, 3rd Edition  ",,,,Holly Moore,2011,3rd Edition,Prentice Hall,,732,0,English ,98,,2011 12 30,"0132103257,9780132103251",,,,,620.001/51,TA345 .M585 2011,,rVlaKQEACAAJ,OL24885603M,,0,,,,1,0,1,1,16230683,pdf,0F00E5732D16673CFB264B90CF4F1FF9,,,_474775.0f00e5732d16673cfb264b90cf4f1ff9.pdf,0,2000-01-01 01:00:00,2016-04-03 02:51:08,726000/0f00e5732d16673cfb264b90cf4f1ff9-d.jpg,,
22020765,IRSE Green Book No.10 Mechanical Signalling Practice (British Practice) 1976  ,,,,Institution of Railway Signal Engineers (IRSE),,,,,38,0,English ,,,2011 12 30,,,,,,,,,,,,0,,,,,1,,0,10353798,pdf,0F010E6CED5C3AA00FB205E20FC36D6B,,,_511479.0f010e6ced5c3aa00fb205e20fc36d6b.pdf,0,2000-01-01 01:00:00,2016-04-03 02:51:08,726000/0f010e6ced5c3aa00fb205e20fc36d6b-g.jpg,,
22020766,Eating Right from 8 to 18: Nutrition Solutions for Parents  ,,,,"Sandra K. Nissenberg, Barbara N. Pearl",2002,1,Wiley,,237,0,English ,,,2011 12 30,"0471392820,9780471392828",,,,,,,,,OL7616445M,,0,,,,0,1,0,1,1388842,pdf,0F023A1E8627C8F9479170515686CAE8,,,_449005.0f023a1e8627c8f9479170515686cae8.pdf,0,2000-01-01 01:00:00,2016-04-03 02:51:08,726000/0f023a1e8627c8f9479170515686cae8-d.jpg,,
22020767,Advances in the Study of Genetic Disorders  ,,,,Kenji Ikehara,2011,,InTech,,484,0,English ,,,2011 12 30,9789533073057,,,,,,,,,,,0,,,,0,1,0,1,24743576,pdf,0F02617E1DA4037B3047D9F0AB6E6B10,,,_499086.0f02617e1da4037b3047d9f0ab6e6b10.pdf,0,2000-01-01 01:00:00,2016-04-03 02:51:08,726000/0f02617e1da4037b3047d9f0ab6e6b10-g.jpg,,
22020768,El Pliegue The Pleat  ,,,,Gilles Deleuze,1989,,Paidos Iberica Ediciones S a,,89,0,"Spanish,Castilian",,,2011 12 30,"8475095569,9788475095561",,,,,,,,,OL9137045M,,0,,,,,1,,1,10507904,pdf,0F03991C207C79332977D0F1B5108CA1,,,_471708.0f03991c207c79332977d0f1b5108ca1.pdf,0,2000-01-01 01:00:00,2016-04-03 02:51:08,726000/0f03991c207c79332977d0f1b5108ca1-d.jpg,,
22020769,Recherches sur les ophikia de l'Église byzantine  ,,Archives de l'Orient chrétien 11,,Jean Darrouzès,1970,,Institut Français d'Etudes Byzantines,,623,0,French ,,,2011 12 30,,,ISBN10:B004GGXGIM,,,,,,,,,0,,,,0,1,0,1,12492979,pdf,0F04194909964B6AD7A116EFD895017A,,,_439299.0f04194909964b6ad7a116efd895017a.pdf,0,2000-01-01 01:00:00,2016-04-03 02:51:08,726000/0f04194909964b6ad7a116efd895017a-g.jpg,,
22020770,The traveling salesman problem: a computational study  ,,Princeton Series in Applied Mathematics,,David L. Applegate,2006,,Princeton University Press,,606,0,English ,,,2011 12 30,"0691129932,9780691129938",,,,,,,,,OL17215126M,,0,,,,1,0,1,1,32535667,pdf,0F05756083E5B0E63C6FED24BD4C93FF,,,_512873.0f05756083e5b0e63c6fed24bd4c93ff.pdf,0,2000-01-01 01:00:00,2016-04-03 02:51:08,726000/0f05756083e5b0e63c6fed24bd4c93ff-d.jpg,,
22020771,Inclusiveness in India: A Strategy for Growth and Equality (Ide-Jetro)  ,,IDE-JETRO Series,,"Shigemochi Hirashima, Hisaya Oda, Yuko Tsujita",2011,,Palgrave Macmillan,,329,0,English ,,,2011 12 30,"023029023X,9780230290235",,,,,,,,7q06YgEACAAJ,,,0,,,,1,0,1,1,2936309,pdf,0F05C26AEFFB89FF1E195073E89BEACF,,,_484994.0f05c26aeffb89ff1e195073e89beacf.pdf,0,2000-01-01 01:00:00,2016-04-03 02:51:08,726000/0f05c26aeffb89ff1e195073e89beacf-d.jpg,,
22020772,An Arabic Creole in Africa: The Nubi Language of Uganda  ,,,,Ineke Wellens,2003,,Katholieke Universiteit Nijmegen,,334,0,English ,,,2011 12 30,,,,,,,,,,,,0,,,,0,0,1,0,1797842,pdf,0F0629E173A70E2B620BE4143BF9CA61,,,_451949.0f0629e173a70e2b620be4143bf9ca61.pdf,0,2000-01-01 01:00:00,2016-04-03 02:51:08,726000/0f0629e173a70e2b620be4143bf9ca61-g.jpg,,
22020773,On the Problem of Empathy  ,,,,Edith Stein,1989,"3rd, revised",ICS Pubns,,82,0,English ,,,2011 12 30,"0935216111,9780935216110",,,,,"193 s,128/.3","B3332.S672 E54 1986 vol. 3,B332.S674 E54 1986",,,OL2184118M,,0,,,,0,1,0,1,9393849,pdf,0F06658E6C273BA5EC7B240E9C9E0401,,,_488072.0f06658e6c273ba5ec7b240e9c9e0401.pdf,0,2000-01-01 01:00:00,2016-04-03 02:51:08,726000/0f06658e6c273ba5ec7b240e9c9e0401-d.jpg,,
22020774,Collected poems  ,,,,James Liddy,1994,2,Creighton University Press,,,0,English ,,,2011 12 30,"1881871088,9781881871088",,,,,811/.54,PR6062.I3 A17 1994,,Ne1aAAAAMAAJ,OL1127690M,,0,,,,,1,,,427547,epub,0F070C9A351E06E5CD305C1D03616072,,,_472567.0f070c9a351e06e5cd305c1d03616072.epub,0,2000-01-01 01:00:00,2016-04-03 02:51:08,726000/0F070C9A351E06E5CD305C1D03616072-g.jpg,,
22020775,"Touching liberty: abolition, feminism, and the politics of the body  ",,,,Karen Sánchez-Eppler,1997,,University of California Press,,,0,English ,,,2011 12 30,"0520212347,9780520212343",,,,,,,,V0VOh_029KEC,OL7710466M,,0,,,,,1,,,396890,epub,0F071A7B58DE303287738F47C0E87769,,,_472409.0f071a7b58de303287738f47c0e87769.epub,0,2000-01-01 01:00:00,2016-04-03 02:51:08,726000/0f071a7b58de303287738f47c0e87769-d.jpg,,
22020776,Gendered struggles against globalisation in Mexico  ,,,,Teresa Healy,2008,,Ashgate,,196,0,English ,,,2011 12 30,"0754637018,9780754637011",,,,,331.20972,HD6534.A8 H42 2008,,,OL16474732M,,0,,,,,1,,1,1137424,pdf,0F095619DC6B6BA55D8D7F53BC2FFC70,,,_487289.0f095619dc6b6ba55d8d7f53bc2ffc70.pdf,0,2000-01-01 01:00:00,2016-04-03 02:51:08,726000/0f095619dc6b6ba55d8d7f53bc2ffc70-d.jpg,,
22020777,Higher-order FDTD Schemes for Waveguides and Antenna Structures  ,,Synthesis Lectures on Computational Electromagnetics,,"Theodoros D. Tsiboukis, Nikolaos V. Kantartzis, Constantine Balanis",2006,1,Morgan & Claypool Publishers,,226,0,English ,,,2011 12 30,"1598290282,9781598290288",,,,,,,10.2200/S00018ED1V01Y200604CEM003,,OL18269192M,,0,,,,1,1,1,1,6390850,pdf,0F0C1E2429A6CA8D59619C3161DEC3C0,,,_484590.0f0c1e2429a6ca8d59619c3161dec3c0.pdf,0,2000-01-01 01:00:00,2016-04-03 02:51:08,726000/0f0c1e2429a6ca8d59619c3161dec3c0-d.jpg,,
22020778,Rick Riordan - The Kane Chronicles 2 - The Throne of Fire  ,,,,Rick Riordan,,,,,524,0,English ,,,2011 12 30,9781423154389,,,,,,,,,,,0,,,,,1,0,1,2875308,pdf,0F0C61CA45C8B61A6BA6F7A74057FFC8,,,_440947.0f0c61ca45c8b61a6ba6f7a74057ffc8.pdf,0,2000-01-01 01:00:00,2016-04-03 02:51:08,726000/0f0c61ca45c8b61a6ba6f7a74057ffc8-g.jpg,,
22020779,"Anni's Cancer Companion: An A-Z of Treatments, Therapies and Healing  ",,,,Anni Matthews,2011,1,Singing Dragon,,322,0,English ,,,2011 12 30,"1848190670,9781848190672,9780857010445",,,,,"362.196/994490092,B",RC280.B8 M346 2011,,IIsZbEmebzQC,OL25074921M,,0,,,,1,0,1,1,1960349,pdf,0F0CD0D937FA46B64E30CCAE961DC071,,,_501431.0f0cd0d937fa46b64e30ccae961dc071.pdf,0,2000-01-01 01:00:00,2016-04-03 02:51:08,726000/0f0cd0d937fa46b64e30ccae961dc071-d.jpg,,
22020780,Automatic Algorithm Selection for Complex Simulation Problems  ,,,,Roland Ewald,2011,2012,Vieweg+Teubner Verlag,,387,0,English ,,,2011 12 30,"383481542X,9783834815422",,,,,,,,,,,0,,,,0,1,1,1,5389188,pdf,0F0D3DACC3C53497D80F4A4249F01EB5,,,_506298.0f0d3dacc3c53497d80f4a4249f01eb5.pdf,0,2000-01-01 01:00:00,2016-04-03 02:51:08,726000/0f0d3dacc3c53497d80f4a4249f01eb5-d.jpg,,
22020781,Basic Pharmacokinetics  ,,,,"Sunil S. Jambhekar, Philip J. Breen",2009,1,Pharmaceutical Press,,425,0,English ,,,2011 12 30,"0853697728,9780853697725",,,,,,,,,,,0,,,,1,0,1,1,14682509,pdf,0F0D60F593258582CA56801BC72DF140,,,_452355.0f0d60f593258582ca56801bc72df140.pdf,0,2000-01-01 01:00:00,2016-04-03 02:51:08,726000/0f0d60f593258582ca56801bc72df140-d.jpg,,
22020782,Gambit Guide to the Bogo-Indian  ,,,,Steffen Pedersen,1998,,Gambit Publications,,164,0,English ,,,2011 12 30,"1901983048,9781901983043",,,,,,,,,OL8764296M,,0,,,,0,1,0,0,15555434,pdf,0F0F9C381C0EFC45694AC056F7B2CFFA,,,_499337.0f0f9c381c0efc45694ac056f7b2cffa.pdf,0,2000-01-01 01:00:00,2016-04-03 02:51:08,726000/0f0f9c381c0efc45694ac056f7b2cffa-d.jpg,,
22020783,Der zweite Brief an die Thessalonicher (Evangelisch-Katholischer Kommentar zum Neuen Testament 14)  ,,Evangelisch-Katholischer Kommentar zum Neuen Testament (EKK) 14,,Wolfgang Trilling,1980,,"Benziger, Neukirchener Verlag",,168,0,German ,,,2011 12 30,"3545231097,9783545231092",,,,,,,,,OL24900339M,,0,,,,1,1,1,1,3885777,pdf,0F1239BF448ABEBEBFA1FECA912ADFDB,,,_478384.0f1239bf448abebebfa1feca912adfdb.pdf,0,2000-01-01 01:00:00,2016-04-03 02:51:08,726000/0f1239bf448abebebfa1feca912adfdb-d.jpg,,
22020784,Media Perspectives for the 21st Century (Communication and Society)  ,,,,Stylianos Papathanassopoulos,2011,1,Routledge,,265,0,English ,,,2011 12 30,"0415574986,9780415574983",,,,,,,,,,,0,,,,1,0,1,1,1547597,pdf,0F13021FDC3EFBB31D3569FAB4112C17,,,_479143.0f13021fdc3efbb31d3569fab4112c17.pdf,0,2000-01-01 01:00:00,2016-04-03 02:51:08,726000/0f13021fdc3efbb31d3569fab4112c17-d.jpg,,
22020785,"De Havilland Vampire, Venom and Sea Vixen  ",,,,Philip Birtles,1986,,Ian Allan Ltd,,116,0,English ,,,2011 12 30,"071101566X,9780711015661",,,,,623.74/6044/09,TL686.D4 B53 1986,,3fdPAQAACAAJ,OL20952281M,,0,,,,,1,,1,96670883,pdf,0F135ACB30FA424FCEAF854C2363A99F,,,_513796.0f135acb30fa424fceaf854c2363a99f.pdf,0,2000-01-01 01:00:00,2016-04-03 02:51:08,726000/0f135acb30fa424fceaf854c2363a99f-d.jpg,,
22020786,"Organic Chemistry, Sixth Edition  ",,,,"William H. Brown, Christopher S. Foote, Brent L. Iverson, Eric Anslyn",2011,6,Brooks Cole,,1303,0,English ,,,2011 12 30,"084005498X,9780840054982",,,,,,,,,OL24905950M,,0,,,,1,0,1,1,105142100,pdf,0F154DB54D6A7D14541B65C1C4DF315C,,,_453292.0f154db54d6a7d14541b65c1c4df315c.pdf,0,2000-01-01 01:00:00,2016-04-03 02:51:08,726000/0f154db54d6a7d14541b65c1c4df315c-d.jpg,,
22020787,Psychologia społeczna komunikacji niewerbalnej  ,,,,Waldemar Domachowski,,,,,88,0,Polish ,,,2011 12 30,,,,,,,,,,,,0,,,,,1,,1,10380784,pdf,0F15B316C90B71BDB5A558E018F41A1E,,,_509811.0f15b316c90b71bdb5a558e018f41a1e.pdf,0,2000-01-01 01:00:00,2016-04-03 02:51:08,726000/0f15b316c90b71bdb5a558e018f41a1e-g.jpg,,
22020788,Germinal  ,,,,"Émile Zola, Roger Pearson (Translated with an Introduction and Notes by)",2004,,Penguin Books,,,0,English ,,,2011 12 30,9780141908373,,,,,,PQ2504 .A375 2004,,kKngHY6X5NQC,,,0,,,,0,0,1,1,2221776,epub,0F16DE48EAF465E85F1E6956255B7FB8,,,_456047.0f16de48eaf465e85f1e6956255b7fb8.epub,0,2000-01-01 01:00:00,2016-04-03 02:51:08,726000/0F16DE48EAF465E85F1E6956255B7FB8-g.jpg,,
22020789,Conan der Rebell (7. Roman der Conan-Saga)  ,,Conan-Saga 07,,Poul Anderson,1983,,Heyne Verlag,,253,0,German ,,,2011 12 30,"3453309782,9783453309784",,,,,,,,,,,0,,,,1,0,1,1,1223588,pdf,0F1749508A3E1BA33BE4D448917F11B2,,,_440374.0f1749508a3e1ba33be4d448917f11b2.pdf,0,2000-01-01 01:00:00,2016-04-03 02:51:08,726000/0f1749508a3e1ba33be4d448917f11b2-g.jpg,,
22020790,What is Transparency?  ,,,,Richard W. Oliver,2004,1,McGraw-Hill Professional,,98,0,English ,,,2011 12 30,"0071435484,9780071435482,0071457224",,,,,,,10.1036/0071457224,sqZssG77k5AC,OL24312193M,,0,,,,1,0,1,1,490012,pdf,0F19584361968E9C31607D76666A92FB,,,_432637.0f19584361968e9c31607d76666a92fb.pdf,0,2000-01-01 01:00:00,2016-04-03 02:51:08,726000/0f19584361968e9c31607d76666a92fb-d.jpg,,
22020791,,,,Chance Vol. 23 - No.4 - 2010 issue 4,Mike Larsen (Executive Editor),2010,,American Statistical Association,,62,0,English ,,,2011 12 30,,1867-2280,,,,,,,,,,0,,,,1,0,1,1,2595369,pdf,0F1B8B502E3DDC6F162A4B8B39858175,,,_439648.0f1b8b502e3ddc6f162a4b8b39858175.pdf,0,2000-01-01 01:00:00,2016-04-03 02:51:08,726000/0f1b8b502e3ddc6f162a4b8b39858175-g.jpg,,
22020792,Introducere în electronică  ,,,,K. F. Ibrahim,2001,,Teora,,288,0,"Romanian,Moldavian,Moldovan",,,2011 12 30,9732006587,,,,,,,,,,,0,,,,0,1,0,0,92616010,pdf,0F1B8CA53B8867E35433F5FFB75F046A,,,_449564.0f1b8ca53b8867e35433f5ffb75f046a.pdf,0,2000-01-01 01:00:00,2016-04-03 02:51:08,726000/0f1b8ca53b8867e35433f5ffb75f046a-g.jpg,,
22020793,An Atlas of Radiology of the Traumatized Dog and Cat: The case-based approach  ,,,,"Joe P. Morgan, Pim Wolvekamp",2010,2,Schluetersche,,566,0,English ,,,2011 12 30,"3899930088,9783899930085",,,,,,,,yoQYnRB12iUC,OL18240975M,,0,,,,1,0,1,1,6236631,pdf,0F1C05BE3FCCC019437FCA73AADFA1F0,,,_463988.0f1c05be3fccc019437fca73aadfa1f0.pdf,0,2000-01-01 01:00:00,2016-04-03 02:51:08,726000/0f1c05be3fccc019437fca73aadfa1f0-d.jpg,,
22020794,Apprehension: Reason in the Absence of Rules (Ashgate Epistemology & Mind)  ,,Ashgate Epistemology & Mind,,Lynn Holt,2002,,Ashgate Pub Ltd,,117,0,English ,,,2011 12 30,"0754606643,9780754606642",,,,,,,,UvXWAAAAMAAJ,OL9463196M,,0,,,,0,1,1,1,20257347,pdf,0F1CFE5B401B42C7E9E42EA1A70679E7,,,_422399.0f1cfe5b401b42c7e9e42ea1a70679e7.pdf,0,2000-01-01 01:00:00,2016-04-03 02:51:08,726000/0f1cfe5b401b42c7e9e42ea1a70679e7-g.jpg,,
22020795,Lefkandi III (plates) (Supplementary Volume)  ,,,,M.R. Popham,1996,,British School at Athens,,209,0,English ,,,2011 12 30,"0904887278,9780904887273",,,,,938.4,DF261.L53 L443 1996,,,OL286283M,,0,,,,,1,1,1,9223161,pdf,0F1DC533326BFD655EB3215F30A3A692,,,_473088.0f1dc533326bfd655eb3215f30a3a692.pdf,0,2000-01-01 01:00:00,2016-04-03 02:51:08,726000/0f1dc533326bfd655eb3215f30a3a692-d.jpg,,
22020796,"Citizenship and Its Exclusions: A Classical, Constitutional, and Critical Race Critique  ",,Critical America,,Ediberto Roman,2010,,NYU Press,,226,0,English ,,,2011 12 30,"0814776078,9780814776070",,,,,342.08/3,K3224 .R66 2010,,vXSY3WrTcdMC,OL23989303M,,0,,,,1,0,1,1,1017342,pdf,0F2049E3134F48AAB836ED2A9F441770,,,_476347.0f2049e3134f48aab836ed2a9f441770.pdf,0,2000-01-01 01:00:00,2016-04-03 02:51:08,726000/0f2049e3134f48aab836ed2a9f441770-d.jpg,,
22020797,Working: People Talk About What They Do All Day and How They Feel About What They Do  ,,,,Studs Terkel,1997,,The New Press,,,0,English ,,,2011 12 30,,,,,,,,,,,,0,,,,,1,1,1,856657,epub,0F215226867C9B27F7ED66A6EC7D6272,,,_511141.0f215226867c9b27f7ed66a6ec7d6272.epub,0,2000-01-01 01:00:00,2016-04-03 02:51:08,726000/0F215226867C9B27F7ED66A6EC7D6272-g.jpg,,
22020798,مکتب وحدت عدالت علی  ,,,,دکتر علی شریعتی,,,,,53,0,Persian ,,,2011 12 30,,,,,,,,,,,,0,,,,,1,,0,398541,pdf,0F22B1969CB75068FCB4DFEF8941AFAD,,,_487555.0f22b1969cb75068fcb4dfef8941afad.pdf,0,2000-01-01 01:00:00,2016-04-03 02:51:08,726000/0f22b1969cb75068fcb4dfef8941afad-g.jpg,,
22020799,Business Information Management: Improving Performance Using Information Systems  ,,,,"Dave Chaffey, Steve Wood",2004,,Financial Times Management,,734,0,English ,,,2011 12 30,"0273686550,9780273686552",,,,,658.4/038/011,HD30.213 .C43 2004,,,OL3308889M,,0,,,,,1,,1,17297466,pdf,0F276B3F5DF945EF4AFB39FA36FC9B57,,,_438806.0f276b3f5df945ef4afb39fa36fc9b57.pdf,0,2000-01-01 01:00:00,2016-04-03 02:51:08,726000/0f276b3f5df945ef4afb39fa36fc9b57-d.jpg,,
22020800,Άνθρωποι σε μπελάδες  ,,,,Wilhelm Reich,1988,,Καστανιώτης,,362,0,Greek(Modern),,,2011 12 30,,,,,,,,,,,,600,,,,0,1,0,0,2865278,djvu,0F28AC4E9538363A505F02379D64C31F,5eb4682e75c25d39ee79580365d18c3d,no,_445524.0f28ac4e9538363a505f02379d64c31f.djvu,0,2000-01-01 01:00:00,2016-04-03 02:51:08,726000/0f28ac4e9538363a505f02379d64c31f-g.jpg,,
22020801,"Les Eternels, Tome 4 : Le Puits des ténèbres  ",,,,"Yann, Félix Meynet",2006,,Dargaud,,51,0,French ,,,2011 12 30,"220505774X,9782205057744",,,,,,,,,,,0,,,,1,1,0,0,22974335,pdf,0F297A7DEC63B5C006B6B90FE706E06B,,,_510618.0f297a7dec63b5c006b6b90fe706e06b.pdf,0,2000-01-01 01:00:00,2016-04-03 02:51:08,726000/0f297a7dec63b5c006b6b90fe706e06b-d.jpg,,
22020802,Oil well stimulation  ,,,,Robert Samuel Schechter,1992,,Prentice Hall,,620,0,English ,,,2011 12 30,"0139499342,9780139499340",,,,,622/.3382,TN870 .S37 1992,,,OL1530654M,,0,,,,,1,0,0,33069519,pdf,0F2C466F0B0F8AF1FA2470A7087C4D38,,,_448356.0f2c466f0b0f8af1fa2470a7087c4d38.pdf,0,2000-01-01 01:00:00,2016-04-03 02:51:08,726000/0f2c466f0b0f8af1fa2470a7087c4d38-g.jpg,,
22020803,Vanishing Point  ,,,,Marcia Muller,2007,,Grand Central Publishing,,,0,English ,,,2011 12 30,"0446619310,9780446619318",,,,,813/.54,,,3cQdHAAACAAJ,OL24382181M,,0,,,,,1,,,464176,mobi,0F2D6444B901FC878D2A1B6B438A09CF,,,_498194.0f2d6444b901fc878d2a1b6b438a09cf.mobi,0,2000-01-01 01:00:00,2016-04-03 02:51:08,726000/0f2d6444b901fc878d2a1b6b438a09cf-d.jpg,,
22020804,Constructing Chaucer: Author and Autofiction in the Critical Tradition  ,,The New Middle Ages,,Geoffrey W. Gust,2009,,Palgrave Macmillan,,301,0,English ,,,2011 12 30,"1403976430,9781403976437",,,,,821/.1,PR1924 .G87 2009,,vFVcCL3aP9kC,OL11642820M,,0,,,,1,0,1,1,2199025,pdf,0F2DF47BCAF0E26CEFF5C4D0267D1FC2,,,_492025.0f2df47bcaf0e26ceff5c4d0267d1fc2.pdf,0,2000-01-01 01:00:00,2016-04-03 02:51:08,726000/0f2df47bcaf0e26ceff5c4d0267d1fc2-d.jpg,,
22020805,"The Intrigue at Highbury: Or, Emma's Match  ",,Mr & Mrs Darcy Mysteries 5,,Carrie Bebris,,,,,,0,English ,,,2011 12 30,,,,,,,,,,,,0,,,,,1,1,1,341923,epub,0F2ECAF6C6349D03D11489D8340BBB73,,,_447811.0f2ecaf6c6349d03d11489d8340bbb73.epub,0,2000-01-01 01:00:00,2016-04-03 02:51:08,726000/0F2ECAF6C6349D03D11489D8340BBB73-g.jpg,,
22020806,Case Files Gynecologic Surgery (1st Edition)  ,,,,"Eugene Toy, Konrad Harms, Keith Reeves, Cristo Papasakelariou",2010,1,"McGraw-Hill Companies, The",,450,0,English ,,,2011 12 30,"9780071592802,0071592806",,,,,,,,,,,0,,,,,1,1,,5302252,mobi,0F31ACD2669BDB5B7F5EE15932B585B1,,,_487491.0f31acd2669bdb5b7f5ee15932b585b1.mobi,0,2000-01-01 01:00:00,2016-04-03 02:51:08,726000/0f31acd2669bdb5b7f5ee15932b585b1-d.jpg,,
22020807,Il profumo del pane alla lavanda  ,,,,Sarah Addison Allen,2008,,Sonzogno,,230,0,Italian ,,,2011 12 30,,,,,,,,,,,,0,,,,,1,1,1,781781,pdf,0F32A750B7F8C98EE88682D6288C2166,,,_446050.0f32a750b7f8c98ee88682d6288c2166.pdf,0,2000-01-01 01:00:00,2016-04-03 02:51:08,726000/0f32a750b7f8c98ee88682d6288c2166-g.jpg,,
22020808,ACCA P1 Professional accountant Essential text  ,,,,Kaplan,,,,,388,0,English ,,,2011 12 30,,,,,,,,,,,,0,,,,,1,,1,13291816,pdf,0F32FDC582CFD1B40CBD6B68CB1864BC,,,_462364.0f32fdc582cfd1b40cbd6b68cb1864bc.pdf,0,2000-01-01 01:00:00,2016-04-03 02:51:08,726000/0f32fdc582cfd1b40cbd6b68cb1864bc-g.jpg,,
22020809,Dairy Foods June 2011  ,,,,Jim Carper,,,"BNP Media II, L.L.C.",,112,0,English ,,,2011 12 30,,,,,,,,,,,,0,,,,1,0,1,1,93594464,pdf,0F338A84F54718D07AC627E4DD3AC37C,,,_509065.0f338a84f54718d07ac627e4dd3ac37c.pdf,0,2000-01-01 01:00:00,2016-04-03 02:51:08,726000/0f338a84f54718d07ac627e4dd3ac37c-g.jpg,,
22020810,The Slab  ,,,,Jeffrey J. Mariotte,2011,,ILT Publishing,,232,0,English ,,,2011 12 30,,,ISBN10:B0054EKU6G,,,,,,,,,0,,,,,1,,1,1377005,pdf,0F35A31C118B4EEFA6AFF5E32B4C85BD,,,_446537.0f35a31c118b4eefa6aff5e32b4c85bd.pdf,0,2000-01-01 01:00:00,2016-04-03 02:51:08,726000/0f35a31c118b4eefa6aff5e32b4c85bd-g.jpg,,
22020811,Qualitätssicherung in der Ästhetischen Medizin durch universitäre Weiterbildung: Diploma in Aesthetic Laser Medicine (DALM)  ,,,,Stefan Hammes,2011,1,Springer,,89,0,German ,,,2011 12 30,"364217423X,9783642174230",,,,,,,,r4rM7xtJhoIC,,,0,,,,1,0,1,1,2009356,pdf,0F35B6354905500778022B3CAC96E587,,,_508649.0f35b6354905500778022b3cac96e587.pdf,0,2000-01-01 01:00:00,2016-04-03 02:51:08,726000/0f35b6354905500778022b3cac96e587-d.jpg,,
22020812,"American Journal of Forensic Medicine and Pathology - Vol 32, No. 1, March 2011  ",,,,"Vincent J. M. DiMaio, MD",,,,,96,0,English ,,,2011 12 30,,,,,,,,10.1097/PAF.0b013e3181c2dc96,,,periodic,0,,,,,1,,1,16165854,pdf,0F35CBCAA1C7CF077EAE0A8260B32D1A,,ban,_431124.0f35cbcaa1c7cf077eae0a8260b32d1a.pdf,0,2000-01-01 01:00:00,2016-04-03 02:51:08,726000/0f35cbcaa1c7cf077eae0a8260b32d1a-g.jpg,,
22020813,Fiebertraum. Eine pikareske Reise auf einem Fluß des Terrors. Roman.  ,,,,George R. R. Martin,1993,,Heyne Verlag,,,0,German ,,,2011 12 30,"3453050061,9783453050068",,,,,,,,,,,0,,,,,1,,,1060885,mobi,0F37856C7746AAD6F6C77EAFBAEABD9A,,,_502226.0f37856c7746aad6f6c77eafbaeabd9a.mobi,0,2000-01-01 01:00:00,2016-04-03 02:51:08,726000/0F37856C7746AAD6F6C77EAFBAEABD9A-g.jpg,,
22020814,A Course In Weight Loss: 21 Spiritual Lessons for Surrendering Your Weight Forever  ,,,,Marianne Williamson,2010,,Hay House,,,0,English ,,,2011 12 30,"1401921523,9781401921521,9781401929435",,,,,616.3/980652,RM222.2 .W4557 2010,,,OL24091038M,,0,,,,,1,1,1,375325,epub,0F3C977CB817B8C2465C57B7DB0209FD,,,_439911.0f3c977cb817b8c2465c57b7db0209fd.epub,0,2000-01-01 01:00:00,2016-04-03 02:51:08,726000/0f3c977cb817b8c2465c57b7db0209fd-d.jpg,,
22020815,Science and Myth: What We Are Never Told  ,,,,Wolfgang Smith,2010,,Sophia Perennis,,193,0,English ,,,2011 12 30,"1597310972,9781597310970,1597310980,9781597310987",,,,,201/.65,BL241 .S685 2010,,,OL24523795M,,600,,,,1,1,1,1,3585509,pdf,0F3E534E6CC0C2E97B2BE799034F591D,,,_493701.0f3e534e6cc0c2e97b2be799034f591d.pdf,0,2000-01-01 01:00:00,2016-04-03 02:51:08,726000/0f3e534e6cc0c2e97b2be799034f591d-d.jpg,,
22020816,Migration and Mental Health  ,,Cambridge medicine,,"Dinesh Bhugra, Susham Gupta",2011,1,Cambridge University Press,,368,0,English ,,,2011 12 30,"0521190770,9780521190770",,,,,362.208691,,,Nc2E6n23PCUC,,,0,,,,1,0,1,1,1844590,pdf,0F424DAEF6A3A29A983DF7EBA75EB77A,,,_485424.0f424daef6a3a29a983df7eba75eb77a.pdf,0,2000-01-01 01:00:00,2016-04-03 02:51:08,726000/0f424daef6a3a29a983df7eba75eb77a-d.jpg,,
22020817,The Muslims of America (Religion in America)  ,,,,Yvonne Yazbeck Haddad,1991,,"Oxford University Press, USA",,135,0,English ,,,2011 12 30,"0195067282,9780195067286",,,,,297/.0973,BP67.U6 M87 1991,,,OL1883656M,,0,,,,,1,,1,9688683,pdf,0F42E661F14C49F2D52AC15F00752FF3,,,_454133.0f42e661f14c49f2d52ac15f00752ff3.pdf,0,2000-01-01 01:00:00,2016-04-03 02:51:08,726000/0f42e661f14c49f2d52ac15f00752ff3-d.jpg,,
22020818,The Laconia Rural Sites Project (Supplementary Volume) (v. 36)  ,,,,W. G. Cavanagh,2004,New edition,British School at Athens,,359,0,English ,,,2011 12 30,"0904887472,9780904887471",,,,,,,,,OL11368889M,,0,,,,,1,,1,22196259,djvu,0F439196DC3C2061B095D56B07533F5F,,,_443834.0f439196dc3c2061b095d56b07533f5f.djvu,0,2000-01-01 01:00:00,2016-04-03 02:51:08,726000/0f439196dc3c2061b095d56b07533f5f-g.jpg,,
22020819,Central Works of Philosophy: The Nineteenth Century  ,,,,John Shand,2005,,Mcgill Queens Univ Pr,,253,0,English ,,,2011 12 30,"0773530533,9780773530539",,,,,,,,,OL8079593M,,0,,,,,0,1,1,2226038,pdf,0F46E6934BD4ACF7E85EEEE14B212483,,,_496535.0f46e6934bd4acf7e85eeee14b212483.pdf,0,2000-01-01 01:00:00,2016-04-03 02:51:08,726000/0f46e6934bd4acf7e85eeee14b212483-d.jpg,,
22020820,"Criminal Justice Policy and Planning, Third Edition  ",,,,"Wayne N. Welsh, Philip W. Harris",2008,3,Anderson,,309,0,English ,,,2011 12 30,"1593455089,9781593455088",,,,,364.973,HV7419 .W45 2008,,,OL17008204M,,0,,,,,1,,1,1971205,pdf,0F47310F33952F03503DD9E46DE3E705,,,_479524.0f47310f33952f03503dd9e46de3e705.pdf,0,2000-01-01 01:00:00,2016-04-03 02:51:08,726000/0f47310f33952f03503dd9e46de3e705-d.jpg,,
22020821,Moodle as a Curriculum and Information Management System  ,,,,Jason Hollowell,2011,,Packt Publishing,,308,0,English ,,,2011 12 30,"1849513228,9781849513227",,,,,,,,,,,0,,,,,1,,1,10443613,pdf,0F47832F521B1F3C309821F09B45A29B,,,_466275.0f47832f521b1f3c309821f09b45a29b.pdf,0,2000-01-01 01:00:00,2016-04-03 02:51:08,726000/0f47832f521b1f3c309821f09b45a29b-d.jpg,,
22020822,Draw the Dark  ,,,,Ilsa J. Bick,2010,1,Carolrhoda Lab,,,0,English ,,,2011 12 30,"076135686X,9780761356868",,,,,,,,_EW_KiVVnGUC,OL24044943M,,0,,,,,1,,,503517,epub,0F47A9DC4BB469CDD9223A85C487B1F9,,,_498275.0f47a9dc4bb469cdd9223a85c487b1f9.epub,0,2000-01-01 01:00:00,2016-04-03 02:51:08,726000/0f47a9dc4bb469cdd9223a85c487b1f9-d.jpg,,
22020823,Icons and Symmetries  ,,,,Simon L. Altmann,1992,,"Oxford University Press, USA",,58,0,English ,,,2011 12 30,"0198555997,9780198555995",,,,,530,QC174.17.S9 A48 1992,,,OL1556832M,,0,,,,,1,,0,25349778,pdf,0F485A82C03225410B8BD651CF4412FD,,,_436310.0f485a82c03225410b8bd651cf4412fd.pdf,0,2000-01-01 01:00:00,2016-04-03 02:51:08,726000/0f485a82c03225410b8bd651cf4412fd-g.jpg,,
22020824,Chess Life - March 2009  ,,,,Daniel Lucas,2009,,,,76,0,English ,,,2011 12 30,,,,,,,,,,,,0,,,,0,0,1,1,11257159,pdf,0F4BDB4C8918A194B70CC1FD499F2A6F,,,_442664.0f4bdb4c8918a194b70cc1fd499f2a6f.pdf,0,2000-01-01 01:00:00,2016-04-03 02:51:08,726000/0f4bdb4c8918a194b70cc1fd499f2a6f-g.jpg,,
22020825,Chocolate Dipped Death  ,,,,Sammi Carter,2006,,Berkley Prime Crime,,,0,English ,,,2011 12 30,"042520894X,9780425208946",,,,,,,,lT3qz0fUt5wC,OL7505378M,,0,,,,,1,,,239995,epub,0F4D08C3E70C929F409B63ABFAC29D0D,,,_488986.0f4d08c3e70c929f409b63abfac29d0d.epub,0,2000-01-01 01:00:00,2016-04-03 02:51:08,726000/0f4d08c3e70c929f409b63abfac29d0d-d.jpg,,
22020826,The Psychic Life of Power: Theories in Subjection  ,,,,Judith Butler,1997,1,Stanford University Press,,222,0,English ,,,2011 12 30,"0804728127,9780804728126",,,,,126,BD438.5 .B88 1997,,,OL1001588M,,0,,,,1,1,0,1,1835703,pdf,0F4DED12BE2A05C091408D5B8E771FDD,,,_438689.0f4ded12be2a05c091408d5b8e771fdd.pdf,0,2000-01-01 01:00:00,2016-04-03 02:51:08,726000/0f4ded12be2a05c091408d5b8e771fdd-d.jpg,,
22020827,Endgame secrets  ,,,,Christopher Lutz,1999,,Batsford,,177,0,English ,,,2011 12 30,071348165X,,,,,,,,,OL7796020M,,0,,,,0,1,0,0,17098448,pdf,0F4EAF75EFB8F0FB73732B3265C934D5,,,_493188.0f4eaf75efb8f0fb73732b3265c934d5.pdf,0,2000-01-01 01:00:00,2016-04-03 02:51:08,726000/0f4eaf75efb8f0fb73732b3265c934d5-d.jpg,,
22020828,The New Testament: its history and message  ,,,,"Van Unnik, W. C.",,,,,192,0,English ,,,2011 12 30,,,,,,,,,,,,0,,,,1,1,0,1,15818766,pdf,0F4EB8E947437A6411D87758C922CC1F,,,_475507.0f4eb8e947437a6411d87758c922cc1f.pdf,0,2000-01-01 01:00:00,2016-04-03 02:51:08,726000/0f4eb8e947437a6411d87758c922cc1f-g.jpg,,
22020829,Empires of the Atlantic World: Britain and Spain in America 1492-1830,,,,Prof. John H. Elliott FBA,2006,annotated edition,Yale University Press,,560,0,English,,,2011 12 30,"0300114311,9780300114317",,,,,970/.02,E18.82 .E44 2006,,,,,0,,,,,1,,1,5516455,epub,0F4F0754748B3B50A24C24336FF0E2D5,,,_446733.0f4f0754748b3b50a24c24336ff0e2d5.epub,0,2000-01-01 01:00:00,2016-04-03 02:51:08,726000/0f4f0754748b3b50a24c24336ff0e2d5-d.jpg,,
22020830,All for Love  ,,,,John Dryden,2011,,CreateSpace,,114,0,English ,,,2011 12 30,"1461064392,9781461064398",,,,,,,,,,,0,,,,,1,,1,432877,pdf,0F4F317B78EB483FF5331DDB0D82F45F,,,_514659.0f4f317b78eb483ff5331ddb0d82f45f.pdf,0,2000-01-01 01:00:00,2016-04-03 02:51:08,726000/0f4f317b78eb483ff5331ddb0d82f45f-d.jpg,,
22020831,Communications in Mathematical Physics - Volume 306,306,,Communications in Mathematical Physics - Volume 306,M. Aizenman (Chief Editor),2011,,Springer,,838,0,English,,,2011 12 30,,0010-3616,,,,,,10.1007/s00220-011-1271-4,,,,0,,,,,0,1,1,11676349,pdf,0F4FD2BEA4963FB95F344366A55164F3,,,_465478.0f4fd2bea4963fb95f344366a55164f3.pdf,0,2000-01-01 01:00:00,2016-04-03 02:51:08,726000/0f4fd2bea4963fb95f344366a55164f3-g.jpg,,
22020832,Διαλεκτικές Έρευνες  ,,Φιλοσοφική και Πολιτική Βιβλιοθήκη - 13,,"Lucien Goldmann, Κωστής Παπαγιώργης (μετάφραση)",1986,,Γνώση,,444,0,Greek(Modern),,,2011 12 30,,,,,,,,,,,,600,,,,1,1,1,0,22635586,pdf,0F512B0CF27F578D5BD534A72AC4503F,,,_445792.0f512b0cf27f578d5bd534a72ac4503f.pdf,0,2000-01-01 01:00:00,2016-04-03 02:51:08,726000/0f512b0cf27f578d5bd534a72ac4503f-g.jpg,,
22020833,I Believe in You  ,,,,Marianne Richmond,2011,,"Sourcebooks, Inc.",,34,0,English ,,,2011 12 30,,,,,,,,,E2tCwlkK1xEC,,,0,,,,,0,1,1,1899885,pdf,0F51BD34FB3FE45802D57453B8F69A7E,,,_495929.0f51bd34fb3fe45802d57453b8f69a7e.pdf,0,2000-01-01 01:00:00,2016-04-03 02:51:08,726000/0f51bd34fb3fe45802d57453b8f69a7e-g.jpg,,
22020834,Πανεπιστήμιο και φοιτητές στην Ελλάδα κατά τον 19ο αιώνα  ,,,,Κώστας Λάππας,2004,,ΙΑΕΝ,,743,0,Greek(Modern),,,2011 12 30,960-7138-30-9,,,,,,,,,,,0,,,,1,1,1,1,50893029,pdf,0F51EF1E1710CA0C0F1C676E9EE9C86B,,,_504180.0f51ef1e1710ca0c0f1c676e9ee9c86b.pdf,0,2000-01-01 01:00:00,2016-04-03 02:51:08,726000/0f51ef1e1710ca0c0f1c676e9ee9c86b-g.jpg,,
22020835,Destination Collaboration 1: A Complete Research Focused Curriculum Guidebook to Educate 21st Century Learners in Grades 3-5  ,,,,"Lori M. Carter, Danielle N. Du Puis",2010,1,Libraries Unlimited,,357,0,English ,,,2011 12 30,"1598845810,9781598845815,9781598845822",,,,,372.13/0281,ZA3075 .D87 2011,,,OL24494681M,,0,,,,1,0,1,1,7128931,pdf,0F52296A03BB9EAE59F7AA6DE5CF28D7,,,_451300.0f52296a03bb9eae59f7aa6de5cf28d7.pdf,0,2000-01-01 01:00:00,2016-04-03 02:51:08,726000/0f52296a03bb9eae59f7aa6de5cf28d7-d.jpg,,
22020836,Integrating PHP with Windows  ,,,,Arno Hollosi,2011,1,Microsoft Press,,,0,English ,92,,2011 12 30,"0735647917,9780735647916",,,,,,,,6Pn8tgAACAAJ,,,0,,,,,1,,,9123478,epub,0F523E54385C75B518C8C5DEA9968F1B,,,_494435.0f523e54385c75b518c8c5dea9968f1b.epub,0,2000-01-01 01:00:00,2016-04-03 02:51:08,726000/0f523e54385c75b518c8c5dea9968f1b-d.jpg,,
22020837,Vulnerable Groups in Health and Social Care  ,,,,Ms Mary Larkin,2009,1,Sage Publications Ltd,,209,0,English ,,,2011 12 30,"141294824X,9781412948241",,,,,,,,SPoB6SAzjwoC,,,0,,,,,0,,1,1486627,pdf,0F5296FCD84E70E0FD151316B06D1ECC,,,_444309.0f5296fcd84e70e0fd151316b06d1ecc.pdf,0,2000-01-01 01:00:00,2016-04-03 02:51:08,726000/0f5296fcd84e70e0fd151316b06d1ecc-d.jpg,,
22020838,California Math Triumphs VOL 4B THE CORE PROCESSES (CALIFORNIA MATH TRIUMPHS VOL 4B)  ,,,,MACMILLAN,2008,,MACMILLAN,,147,0,English ,,,2011 12 30,"0078782104,9780078782107",,,,,,,,,,,0,,,,,1,,1,20226799,pdf,0F52EA2897ECDCAC6572C521A5AB7EA4,,,_438416.0f52ea2897ecdcac6572c521a5ab7ea4.pdf,0,2000-01-01 01:00:00,2016-04-03 02:51:08,726000/0f52ea2897ecdcac6572c521a5ab7ea4-d.jpg,,
22020839,Dangerous to Her  ,,,,Virna DePaul,2011,,Harlequin,,,0,English ,,,2011 12 30,"1459212509,9781459212503",,,,,,,,7Ff6rDUq4MkC,,,0,,,,,1,,,390683,mobi,0F5345F269972E1EFF6EF6FD36D6ED28,,,_466159.0f5345f269972e1eff6ef6fd36d6ed28.mobi,0,2000-01-01 01:00:00,2016-04-03 02:51:08,726000/0F5345F269972E1EFF6EF6FD36D6ED28-g.jpg,,
22020840,The Bhagavad-Gita For Children  ,,,,Dr. Ramananda Prasad,2008,,American Gita Society,,68,0,English ,,,2011 12 30,"0557013615,9780557013616,0962109908,0962109959,0962109924",,,,,,,,,OL8518278M,,0,,,,,1,,1,777729,pdf,0F537ACAFFB288B936C8794BDF74805B,,,_463574.0f537acaffb288b936c8794bdf74805b.pdf,0,2000-01-01 01:00:00,2016-04-03 02:51:08,726000/0f537acaffb288b936c8794bdf74805b-d.jpg,,
22020841,"No porque seas paraco o seas guerrillero tienes que ser un animal: Procesos de socialización en FARC-EP, ELN y grupos paramilitares (1996-2006)  ",,,,Camila Medina,2009,unknown,Universidad de los Andes,,154,0,"Spanish,Castilian",,,2011 12 30,"9586954102,9789586954105",,,,,,,,,OL24846196M,,0,,,,1,0,0,1,1785716,pdf,0F538E461440FA40A7D985C9A5866C9D,,,_439210.0f538e461440fa40a7d985c9a5866c9d.pdf,0,2000-01-01 01:00:00,2016-04-03 02:51:08,726000/0f538e461440fa40a7d985c9a5866c9d-g.jpg,,
22020842,Ecological Diversity and Its Measurement  ,,,,Anne E. Magurran,1988,,Princeton University Press,,93,0,English ,,,2011 12 30,"0691084912,9780691084916",,,,,574.5/248,QH75 .M32 1988,,,OL2034865M,,0,,,,,1,,0,19274850,pdf,0F53904E1DA4018915AC7EDC897BCD6B,,,_449132.0f53904e1da4018915ac7edc897bcd6b.pdf,0,2000-01-01 01:00:00,2016-04-03 02:51:08,726000/0f53904e1da4018915ac7edc897bcd6b-d.jpg,,
22020843,Provenance: How a Con Man and a Forger Rewrote the History of Modern Art  ,,,,Laney Salisbury and Aly Sujo,2009,,Penguin Press,,,0,English ,,,2011 12 30,"1594202206,9781594202209,9781101105009",,,,,"364.16/3,B",ND1662.M93 S26 2009,,wP03AQAAIAAJ,OL23020497M,,0,,,,,1,1,1,346916,epub,0F5572FC2557C0C10A296BD58C3DA672,,,_469944.0f5572fc2557c0c10a296bd58c3da672.epub,0,2000-01-01 01:00:00,2016-04-03 02:51:08,726000/0f5572fc2557c0c10a296bd58c3da672-d.jpg,,
22020844,"Fitness and Wellness , Seventh Edition  ",,,,"Wener W.K. Hoeger, Sharon A. Hoeger",2006,7,Brooks Cole,,290,0,English ,,,2011 12 30,"0495012564,9780495012566",,,,,,,,,OL7650923M,,0,,,,,1,1,1,11253829,pdf,0F56DFAE8880F4B1EBB9371D8613AD98,,,_465447.0f56dfae8880f4b1ebb9371d8613ad98.pdf,0,2000-01-01 01:00:00,2016-04-03 02:51:08,726000/0f56dfae8880f4b1ebb9371d8613ad98-d.jpg,,
22020845,Alcoholic Fuels  ,,,,Shelley Minteer,2006,1,CRC Press,,281,0,English ,,,2011 12 30,"0849339448,9780849339448",,,,,662/.6692,TP358 .A4445 2006,,,OL17896248M,,0,,,,0,0,1,1,4292538,pdf,0F5766AB136B6BF012356A2465D87FB8,,,_479865.0f5766ab136b6bf012356a2465d87fb8.pdf,0,2000-01-01 01:00:00,2016-04-03 02:51:08,726000/0f5766ab136b6bf012356a2465d87fb8-d.jpg,,
22020846,Stormy the Way  ,,,,Anne Hampson,1973,,Mills & Boon,,182,0,English ,,,2011 12 30,,,,,,,,,,,,0,,,,,1,0,1,808449,pdf,0F58F4C5330F0E0BA09FB43E8A58B228,,,_434499.0f58f4c5330f0e0ba09fb43e8a58b228.pdf,0,2000-01-01 01:00:00,2016-04-03 02:51:08,726000/0f58f4c5330f0e0ba09fb43e8a58b228-g.jpg,,
22020847,Rakyat dan Negara  ,,,,Onghokham,1983,,Sinar Harapan,,180,0,Indonesian ,,,2011 12 30,,,,,,,,,,,,0,,,,1,1,0,1,27315013,pdf,0F59755F920A10DC0FE9DBAEE4721237,,,_435450.0f59755f920a10dc0fe9dbaee4721237.pdf,0,2000-01-01 01:00:00,2016-04-03 02:51:08,726000/0f59755f920a10dc0fe9dbaee4721237-g.jpg,,
22020848,HTML5 for Publishers  ,,,,Sanders Kleinfeld,2011,,O'Reilly Media,,57,0,English ,92,,2011 12 30,"1449314600,9781449314606",,,,,,,,,,,0,,,,0,0,1,1,2138854,pdf,0F5BA8FD91DAC27B446926121ABA697E,,,_477858.0f5ba8fd91dac27b446926121aba697e.pdf,0,2000-01-01 01:00:00,2016-04-03 02:51:08,726000/0f5ba8fd91dac27b446926121aba697e-g.jpg,,
22020849,Macroeconomics  ,,,,Manfred Gartner,2006,2,Financal Times Management,,526,0,English ,,,2011 12 30,"0273704605,9780273704607",,,,,339,,,,OL10288165M,,0,,,,,1,0,1,5123243,pdf,0F5BE8246B6CAEA1C4C35EAEE85F36AB,,,_506689.0f5be8246b6caea1c4c35eaee85f36ab.pdf,0,2000-01-01 01:00:00,2016-04-03 02:51:08,726000/0f5be8246b6caea1c4c35eaee85f36ab-d.jpg,,
22020850,Advances in Environmental Fluid Mechanics  ,,,,Dragutin T. Mihailovic,2010,,World Scientific Publishing Company,,381,0,English ,,,2011 12 30,"9814291994,9789814291996",,,,,620.106,TA357 .A2775 2010,,5XXbS6qn_PIC,OL25059724M,,0,,,,1,0,1,1,19670553,pdf,0F5C01A3B7A076BD3356461663EB7643,,,_490655.0f5c01a3b7a076bd3356461663eb7643.pdf,0,2000-01-01 01:00:00,2016-04-03 02:51:08,726000/0f5c01a3b7a076bd3356461663eb7643-d.jpg,,
22020851,The Caterpillar's Question  ,,,,"Piers Anthony, Philip Jose Farmer",1995,Reprint,Ace,,228,0,English ,,,2011 12 30,"0441002137,9780441002139",,,,,,,,,OL7523926M,,0,,,,0,1,0,1,746557,pdf,0F5E543D44195C04B584E5200749A424,,,_435848.0f5e543d44195c04b584e5200749a424.pdf,0,2000-01-01 01:00:00,2016-04-03 02:51:08,726000/0f5e543d44195c04b584e5200749a424-d.gif,,
22020852,Claimed by the Captain  ,,,,Tara Kingston,,,,,,0,English ,,,2011 12 30,"1419933434,9781419933431",,,,,,,,,,,0,,,,,1,,,294416,epub,0F5E7DA4E1D94C5834E05749435DB63F,,,_512702.0f5e7da4e1d94c5834e05749435db63f.epub,0,2000-01-01 01:00:00,2016-04-03 02:51:08,726000/0F5E7DA4E1D94C5834E05749435DB63F-g.jpg,,
22020853,Othello (Penguin)  ,,,,"William Shakespeare, Russ McDonald (editor)",2008,,Penguin Books,,,0,English ,,,2011 12 30,"0140714634,9780140714630",,,,,822.3/3,PR2829.A2 M44 2001,,,OL3946755M,,0,,,,0,0,1,1,289575,epub,0F5EAE44B228D69A9AEB2C1B5EFFB9C6,,,_499553.0f5eae44b228d69a9aeb2c1b5effb9c6.epub,0,2000-01-01 01:00:00,2016-04-03 02:51:08,726000/0f5eae44b228d69a9aeb2c1b5effb9c6-d.jpg,,
22020854,The Fast Solution of Boundary Integral Equations (Mathematical and Analytical Techniques with Applications to Engineering)  ,,Mathematical and Analytical Techniques with Applications to Engineering,,"Sergej Rjasanow, Olaf Steinbach",2007,1,Springer,,291,0,English ,,,2011 12 30,"0387340416,9780387340418",,,,,,,,,OL9589775M,,0,,,,1,0,1,1,10648190,pdf,0F5FA2C32A8EC883B9E7963C89FEC5CA,,,_431759.0f5fa2c32a8ec883b9e7963c89fec5ca.pdf,0,2000-01-01 01:00:00,2016-04-03 02:51:08,726000/0f5fa2c32a8ec883b9e7963c89fec5ca-d.jpg,,
22020855,Business Communication  ,,,,"Vikram Bisen, Priya",2009,,New Age International,,173,0,English ,,,2011 12 30,"8122426069,9788122426069",,,,,,,,,,,0,,,,1,0,1,1,845844,pdf,0F61407A22B8894870F9D53970294710,,,_451243.0f61407a22b8894870f9d53970294710.pdf,0,2000-01-01 01:00:00,2016-04-03 02:51:08,726000/0f61407a22b8894870f9d53970294710-d.jpg,,
22020856,Introducing Barthes  ,,,,Philip Thody,2002,,Totem Books,,177,0,English ,,,2011 12 30,"1840467169,9781840467161",,,,,410.92,,,GepGAAAACAAJ,OL8915995M,,0,,,,1,1,1,1,12053771,pdf,0F6160586284D672C4CF716BAD095495,,,_496079.0f6160586284d672c4cf716bad095495.pdf,0,2000-01-01 01:00:00,2016-04-03 02:51:08,726000/0f6160586284d672c4cf716bad095495-d.jpg,,
22020857,Information and Coding Theory (Springer Undergraduate Mathematics Series)  ,,Springer Undergraduate Mathematics Series,,"Gareth A. Jones, J.Mary Jones",2000,1st Edition.,Springer,,217,0,English ,,,2011 12 30,"1852336226,9781852336226",,,,,,,,XkBrgqHwGCIC,OL8974306M,,0,,,,1,1,1,1,15380310,pdf,0F616EA2F14F81F5B8681B46558B0027,,,_467426.0f616ea2f14f81f5b8681b46558b0027.pdf,0,2000-01-01 01:00:00,2016-04-03 02:51:08,726000/0f616ea2f14f81f5b8681b46558b0027-d.jpg,,
22020858,Sequence Stratigraphy  ,,,,"Dominic Emery, Keith Myers",1996,1,Wiley-Blackwell,Chichester,305,0,English ,,,2011 12 30,"0632037067,9780632037063,9781444313703,1444313703",,,,,551.7,QE651 .S458 1996,,,OL788985M,,0,,,,,1,,1,47688610,pdf,0F61C39AAAA2D8E509F4E038A97C3B96,,,_458698.0f61c39aaaa2d8e509f4e038a97c3b96.pdf,0,2000-01-01 01:00:00,2016-04-03 02:51:08,726000/0f61c39aaaa2d8e509f4e038a97c3b96-d.jpg,,
22020859,Juliet Immortal  ,,,,Stacey Jay,2011,,Delacorte Books for Young Readers,,,0,English ,,,2011 12 30,"037589893X,9780375898938",,,,,,,,,OL25016530M,,0,,,,0,0,1,1,1947609,epub,0F62F7F17748789DEA29C6879D940FDE,,,_483982.0f62f7f17748789dea29c6879d940fde.epub,0,2000-01-01 01:00:00,2016-04-03 02:51:08,726000/0F62F7F17748789DEA29C6879D940FDE-g.jpg,,
22020860,Inside the Business of Graphic Design: 60 Leaders Share Their Secrets of Success  ,,,,Catharine Fishel,2002,1st,Allworth Press,,289,0,English ,,,2011 12 30,"1581152574,9781581152579",,,,,741.6068,,,,OL15530365M,,0,,,,1,1,1,1,898958,pdf,0F6376941A65669AA2EE95242606CDF5,,,_505548.0f6376941a65669aa2ee95242606cdf5.pdf,0,2000-01-01 01:00:00,2016-04-03 02:51:08,726000/0f6376941a65669aa2ee95242606cdf5-d.jpg,,
22020861,The Grand Canyon  ,,Nature’s Wonders,,"Byron Augustin, Jake Kubena",2009,1,Marshall Cavendish,,97,0,English ,,,2011 12 30,"0761439358,9780761439356",,,,,979.1/32,F788 .A89 2010,,K8XI63dLTXkC,OL22560317M,,0,,,,1,0,1,1,21385438,pdf,0F6608D92C49CF54B59A5CDF725548D0,,,_461842.0f6608d92c49cf54b59a5cdf725548d0.pdf,0,2000-01-01 01:00:00,2016-04-03 02:51:08,726000/0f6608d92c49cf54b59a5cdf725548d0-d.jpg,,
22020862,Kleinian groups and hyperbolic 3-manifolds  ,,London Mathematical Society Lecture Note Series 299,,"Y. Komori, V. Markovic, C. Series",2003,,Cambridge University Press,,394,0,English ,,,2011 12 30,"0521540135,9780521540131",,,,,514/.3,QA331 .K614 2003,,Ea1EeaOu_HUC,OL3321268M,,0,,,,1,0,1,1,2884182,pdf,0F66FB24B7A35094E2073D8D7E5CB1E4,,,_450091.0f66fb24b7a35094e2073d8d7e5cb1e4.pdf,0,2000-01-01 01:00:00,2016-04-03 02:51:08,726000/0f66fb24b7a35094e2073d8d7e5cb1e4-d.jpg,,
22020863,"Accusations: Babylon 5, Book #2  ",,,,Lois Tilton,1995,,Dell,,111,0,English ,,,2011 12 30,"0440220580,9780440220589",,,,,,,,,OL7519610M,,0,,,,,1,1,1,649287,pdf,0F6B416FE7B5B86384BBB0BE5D7C33B8,,,_447422.0f6b416fe7b5b86384bbb0be5d7c33b8.pdf,0,2000-01-01 01:00:00,2016-04-03 02:51:08,726000/0f6b416fe7b5b86384bbb0be5d7c33b8-d.jpg,,
22020864,Organic Chemistry  ,,,,David R. Klein,2011,1 edition,Wiley,,1364,0,English ,,,2011 12 30,"0471756148,9780471756149",,,,,,,,SsX9pbarkQkC,,,0,,,,1,0,1,1,357906832,pdf,0F6BD72184B70FB18194B31E309301AC,,,_471937.0f6bd72184b70fb18194b31e309301ac.pdf,0,2000-01-01 01:00:00,2016-04-03 02:51:08,726000/0f6bd72184b70fb18194b31e309301ac-d.jpg,,
22020865,Художественная галерея № 99. Блейк  ,,Художественная галерея,,Панфилов А. (ed.),2006,,DeAgostini,,32,0,Russian ,,,2011 12 30,"0748972781,0748974652",,,,,,,,,,periodic,0,,,,1,1,0,0,5828386,djvu,0F6BFCF0AA83DF207DAD45D6EA888B04,,ban,_474125.0f6bfcf0aa83df207dad45d6ea888b04.djvu,0,2000-01-01 01:00:00,2016-04-03 02:51:08,726000/0f6bfcf0aa83df207dad45d6ea888b04-g.jpg,,
22020866,التيسير في القراءات السبع  ,,,,الإمام أبو عمرو عثمان بن سعيد الداني,,,,,244,0,Arabic ,,,2011 12 30,,,,,,,,,,,,0,,,,,1,1,0,3552524,pdf,0F6C410A359DE167AAA6AA1682DAB16C,,,_490039.0f6c410a359de167aaa6aa1682dab16c.pdf,0,2000-01-01 01:00:00,2016-04-03 02:51:08,726000/0f6c410a359de167aaa6aa1682dab16c-g.jpg,,
22020867,"The Trial in History, Volume 1: Judicial Tribunals in England and Europe, 1200-1700  ",,,,Maureen Mulholland and Brian S. Pullan with Anne Pullan (editors),2003,,Manchester University Press,,199,0,English ,,,2011 12 30,"0719063426,9780719063428",,,,,347.4207,,,SISDZKaxvsQC,OL18727569M,,0,,,,1,0,1,1,996256,pdf,0F6C66D2C884228375E132917F9F4D61,,,_484532.0f6c66d2c884228375e132917f9f4d61.pdf,0,2000-01-01 01:00:00,2016-04-03 02:51:08,726000/0f6c66d2c884228375e132917f9f4d61-d.jpg,,
22020868,Advanced Processing and Manufacturing Technologies for Structural and Multifunctional Materials V: Ceramic Engineering and Science Proceedings  ,,,,"Tatsuki Ohji, Mrityunjay Singh",2011,1,Wiley-American Ceramic Society,,189,0,English ,,,2011 12 30,"111805993X,9781118059937",,,,,666,,,,,,0,,,,0,1,0,1,16068465,pdf,0F6CD6F884186C73FB8F716D16150D57,,,_508473.0f6cd6f884186c73fb8f716d16150d57.pdf,0,2000-01-01 01:00:00,2016-04-03 02:51:08,726000/0f6cd6f884186c73fb8f716d16150d57-d.jpg,,
22020869,Econometría  ,,,,Alfonso Novales Cinca,1993,2,McGraw-Hill,,696,0,"Spanish,Castilian",,,2011 12 30,"8448101286,9788448101282",,,,,,,,,OL13270177M,,0,,,,,1,0,0,34509293,pdf,0F6E901EFE3CF810A24E364357C91A94,,,_440292.0f6e901efe3cf810a24e364357c91a94.pdf,0,2000-01-01 01:00:00,2016-04-03 02:51:08,726000/0f6e901efe3cf810a24e364357c91a94-d.jpg,,
22020870,Al Capone and His American Boys: Memoirs of a Mobster's Wife  ,,,,William J. Helmer,2011,,Indiana University Press,,400,0,English ,,,2011 12 30,"0253356067,9780253356062",,,,,"364.1092,B",HV6534.C4 W56 2011,,GhaZSQAACAAJ,OL24384484M,,0,,,,1,0,1,1,8200042,pdf,0F6F58EBEA5F2EFAC2440FF7B5A3EB92,,,_469702.0f6f58ebea5f2efac2440ff7b5a3eb92.pdf,0,2000-01-01 01:00:00,2016-04-03 02:51:08,726000/0f6f58ebea5f2efac2440ff7b5a3eb92-d.jpg,,
22020871,"Reichman and Hershfield's Tuberculosis: A Comprehensive, International Approach, Third Edition (Two-Volume Set) (Lung Biology in Health and Disease)  ",,,,Mario C. Raviglione,2006,Third,Informa Healthcare,,1268,0,English ,,,2011 12 30,"0849392713,9780849392719",,,,,362.196/995,RC311 .T826 2006,,,OL22745403M,,0,,,,,1,1,1,14706759,pdf,0F72F37E41CD7DBB2F887189BE5042DF,,,_460167.0f72f37e41cd7dbb2f887189be5042df.pdf,0,2000-01-01 01:00:00,2016-04-03 02:51:08,726000/0f72f37e41cd7dbb2f887189be5042df-d.jpg,,
22020872,The Natural Resources Trap: Private Investment without Public Commitment  ,,,,"William Hogan, Federico Sturzenegger",2010,New,The MIT Press,,535,0,English ,,,2011 12 30,"0262013797,9780262013796",,,,,333.7,HC85 .N36 2010,,,OL23622694M,,0,,,,1,0,1,1,2615657,pdf,0F7440476298321C44BCEE7499D63B7C,,,_466919.0f7440476298321c44bcee7499d63b7c.pdf,0,2000-01-01 01:00:00,2016-04-03 02:51:08,726000/0f7440476298321c44bcee7499d63b7c-d.jpg,,
22020873,Blood Count  ,,,,Robert Goddard,2011,,Bantam Press,,,0,English ,,,2011 12 30,"140903111X,0593065085,0593065093,9781409031116,9780593065082,9780593065099",,,,,,,,UvXfWnYjBGgC,,,0,,,,,0,1,1,402131,epub,0F77D03EF08EE6F7F7A761CBC7B863E7,,,_487696.0f77d03ef08ee6f7f7a761cbc7b863e7.epub,0,2000-01-01 01:00:00,2016-04-03 02:51:08,726000/0f77d03ef08ee6f7f7a761cbc7b863e7-d.jpg,,
22020874,A Common Pornography: A Memoir (P.S.)  ,,,,Kevin Sampsell,2010,1,Harper Perennial,,,0,English ,,,2011 12 30,"0061766100,9780061766107",,,,,813/.54,PS3569.A46647 Z46 2010,,w3ZvXa8Ia8EC,OL25023270M,,0,,,,,1,1,1,458976,epub,0F780B6F17E748FA0B747380E7EF6121,,,_449303.0f780b6f17e748fa0b747380e7ef6121.epub,0,2000-01-01 01:00:00,2016-04-03 02:51:08,726000/0f780b6f17e748fa0b747380e7ef6121-d.jpg,,
22020875,"Vorlesungen über die Kunde hebräischer Handschriften, deren Sammlungen und Verzeichnisse  ",,Beiheft zum Centralblatt für Bibliothekswesen,,M. Steinschneider,1897,,Harrassowitz,,123,0,German ,,,2011 12 30,,,,,,,,,,,,0,,,,1,1,0,0,2321225,pdf,0F78355C6657254DE4A63A648868B7EA,,,_478803.0f78355c6657254de4a63a648868b7ea.pdf,0,2000-01-01 01:00:00,2016-04-03 02:51:08,726000/0f78355c6657254de4a63a648868b7ea-g.jpg,,
22020876,"Measurement of Joint Motion: A Guide to Goniometry, Fourth Edition  ",,,,"C. C. Norkin, J. White, T. W. Malone",2009,4th,F.A. Davis Company,,468,0,English ,,,2011 12 30,"0803620667,9780803620667",,,,,612.7/5,RD734 .N67 2009,,,OL17102312M,,0,,,,1,1,1,1,266847326,pdf,0F7852D913187C307BC1C570D3A6E48E,,,_485966.0f7852d913187c307bc1c570d3a6e48e.pdf,0,2000-01-01 01:00:00,2016-04-03 02:51:08,726000/0f7852d913187c307bc1c570d3a6e48e-d.jpg,,
22020877,The Guardian  ,,Dream-Hunter 5,,Sherrilyn Kenyon,2011,First Edition,St. Martin's Paperbacks,,,0,English ,,,2011 12 30,"1429995653,0312550057,9781429995658,9780312550059",,,,,,,,A_-lOK1z4MYC,,,0,,,,,0,1,1,643975,epub,0F785AA6857545C44FEB8170EBFC441A,,,_491164.0f785aa6857545c44feb8170ebfc441a.epub,0,2000-01-01 01:00:00,2016-04-03 02:51:08,726000/0f785aa6857545c44feb8170ebfc441a-d.jpg,,
22020878,Падение Римской империи,,,,П. Кайзер,2011,,АСТ,,799,0,Russian,,,2011 12 30,"5170570279,9785170570270",,,,,,,,,,,0,,,,0,1,0,1,65869245,pdf,0F78D0A4B4249D375854A324B32AD315,,,_459043.0f78d0a4b4249d375854a324b32ad315.pdf,0,2000-01-01 01:00:00,2016-04-03 02:51:08,726000/0f78d0a4b4249d375854a324b32ad315-d.jpg,,
22020879,Asian Development Outlook 2011 Update: Preparing for Demographic Transition  ,,Asian Development Outlook,,Haruhiko Kuroda,2011,,Asian Development Bank,,172,0,English ,,,2011 12 30,"9789290923923,9789290923916",0117-0481,,,,,,,6AmVZwEACAAJ,,,0,,,,1,0,1,1,2539265,pdf,0F7954CF1B4989B5F2979DDAF1D168E2,,,_476253.0f7954cf1b4989b5f2979ddaf1d168e2.pdf,0,2000-01-01 01:00:00,2016-04-03 02:51:08,726000/0f7954cf1b4989b5f2979ddaf1d168e2-g.jpg,,
22020880,New.Scientist - 24 December.2011 6 January.2012  ,,,,Editor-in-chief Jeremy Webb,,,,,132,0,English ,,,2011 12 30,,,,,,,,,,,,0,,,,,1,,0,92079156,pdf,0F7A55FC0CDCD3F9F0463652899C4C66,,,_511502.0f7a55fc0cdcd3f9f0463652899c4c66.pdf,0,2000-01-01 01:00:00,2016-04-03 02:51:08,726000/0f7a55fc0cdcd3f9f0463652899c4c66-g.jpg,,
22020881,Ambrose of Milan: Church and Court in a Christian Capital  ,,Transformation of the Classical Heritage,,Neil B. McLynn,1994,,University of California Press,,270,0,English ,,,2011 12 30,"0520084616,9780520084612",,,,,"270.2/092,B",BR1720.A5 M37 1994,,,OL1078959M,no copyright page or table of contents,0,,,,0,0,0,1,1424788,pdf,0F7BBC58D51BE99260435152FB84444B,,,_508569.0f7bbc58d51be99260435152fb84444b.pdf,0,2000-01-01 01:00:00,2016-04-03 02:51:08,726000/0f7bbc58d51be99260435152fb84444b-d.jpg,,
22020882,Сравнительный обзор финно-угорских языков  ,,,,Цыпанов Е.А.,2008,,Издательство «Кола»,,216,0,Russian ,,,2011 12 30,,,,,,,,,,,,0,,,,1,1,0,1,36405964,pdf,0F7C1D2DD67F94E68657C6E7C0077B39,,,_487630.0f7c1d2dd67f94e68657c6e7c0077b39.pdf,0,2000-01-01 01:00:00,2016-04-03 02:51:08,726000/0f7c1d2dd67f94e68657c6e7c0077b39-g.jpg,,
22020883,"Weight Loss - A Medical Dictionary, Bibliography, and Annotated Research Guide to Internet References  ",,Official Physician Guides,,Health Publica Icon Health Publications,2003,,ICON Health Publications,,461,0,English ,,,2011 12 30,"0597837236,9780597837234",,,,,,,,R5ILAAAACAAJ,OL10915036M,,0,,,,1,0,1,1,2265924,pdf,0F7D688C43BBFD47F2C35AF028B464FE,,,_438793.0f7d688c43bbfd47f2c35af028b464fe.pdf,0,2000-01-01 01:00:00,2016-04-03 02:51:08,726000/0f7d688c43bbfd47f2c35af028b464fe-d.jpg,,
22020884,Charles Dickens: A Life  ,,,,Claire Tomalin,2011,,Penguin Group US,,576,0,English ,,,2011 12 30,"1101547995,9781101547991",,,,,,,,,,,0,,,,,1,1,1,3267044,epub,0F7F9E752166F7176FCFE9577E13EBD1,,,_495616.0f7f9e752166f7176fcfe9577e13ebd1.epub,0,2000-01-01 01:00:00,2016-04-03 02:51:08,726000/0F7F9E752166F7176FCFE9577E13EBD1-g.jpg,,
22020885,Genius in the Background  ,,,,"Tibor Karolyi, Nick Aplin",2009,,Quality Chess,,384,0,English ,,,2011 12 30,"9781906552374,9781906552375",,,,,,,,,,,0,,,,0,0,1,1,22355571,pdf,0F824F168BC0D2AF34FE5ADDFBB8BA70,,,_497375.0f824f168bc0d2af34fe5addfbb8ba70.pdf,0,2000-01-01 01:00:00,2016-04-03 02:51:08,726000/0f824f168bc0d2af34fe5addfbb8ba70-d.jpg,,
22020886,Classical Spies: American Archaeologists with the OSS in World War II Greece  ,,,,Susan Heuck Allen,2011,,University of Michigan Press,,445,0,English ,,,2011 12 30,"0472117696,9780472117697",,,,,940.86473092,D810.S7 A54 2011,,,OL25149575M,,0,,,,1,0,1,1,1501886,pdf,0F8437B0BDBABEEEC98D813B4C9ED69B,,,_511025.0f8437b0bdbabeeec98d813b4c9ed69b.pdf,0,2000-01-01 01:00:00,2016-04-03 02:51:08,726000/0f8437b0bdbabeeec98d813b4c9ed69b-d.jpg,,
22020887,"Crucial Conversations Tools for Talking When Stakes Are High, Second Edition  ",,,,"Kerry Patterson, Joseph Grenny, Ron McMillan, Al Switzler",2011,2,McGraw-Hill,,,0,English ,,,2011 12 30,"0071771328,9780071771320",,,,,,,,,,,0,,,,,1,,,1761185,mobi,0F84FC1B3A9622E43C60A85C4BE54A7B,,,_498868.0f84fc1b3a9622e43c60a85c4be54a7b.mobi,0,2000-01-01 01:00:00,2016-04-03 02:51:08,726000/0f84fc1b3a9622e43c60a85c4be54a7b-d.jpg,,
22020888,"Polygraph: An International Journal of Culture and Politics 2004, 15-16  ",,,,Marta Hernandez Salvan (ed),2004,,Duke University,,198,0,English ,,,2011 12 30,,,,,,,,,,,,0,,,,0,1,1,1,3126745,pdf,0F861FB82E698E50DBF058D69444A220,,,_510440.0f861fb82e698e50dbf058d69444a220.pdf,0,2000-01-01 01:00:00,2016-04-03 02:51:08,726000/0f861fb82e698e50dbf058d69444a220-g.jpg,,
22020889,Revelation Space  ,,,,Alastair Reynolds,2002,,Ace Books,,1286,0,English ,,,2011 12 30,,,,,,,,,,,,0,,,,0,1,0,1,592651,epub,0F875F37B3423BF34973280A2FD50063,,,_467873.0f875f37b3423bf34973280a2fd50063.epub,0,2000-01-01 01:00:00,2016-04-03 02:51:08,726000/0F875F37B3423BF34973280A2FD50063-g.jpg,,
22020890,Manual for the Design of Steelwork Building Structures  ,,,,A. J. Rathbone,2008,,Institution of Structural Engineers,,118,0,English ,,,2011 12 30,"1906335036,9781906335038",,,,,,,,,,,0,,,,1,0,1,1,3168757,pdf,0F879E1DC4E6C35BE4FDF189F087D466,,,_463367.0f879e1dc4e6c35be4fdf189f087d466.pdf,0,2000-01-01 01:00:00,2016-04-03 02:51:08,726000/0f879e1dc4e6c35be4fdf189f087d466-g.jpg,,
22020891,Marvel Illustrated: The Iliad (Part 1)  ,,Marvel Illustrated: The Iliad 1,,Roy Thomas,2010,,Marvel Illustrated,,24,0,English ,,,2011 12 30,,,,,,,,,,,,0,,,,0,0,0,1,125571663,pdf,0F87E55FDCA5B7F7643297048B2560EB,,,_510906.0f87e55fdca5b7f7643297048b2560eb.pdf,0,2000-01-01 01:00:00,2016-04-03 02:51:08,726000/0f87e55fdca5b7f7643297048b2560eb-g.jpg,,
22020892,Decodable Book 6 Grade 2  ,,,,HSP,2006,,Houghton Mifflin School,,23,0,English ,,,2011 12 30,"0153641215,9780153641213",,,,,,,,,,,0,,,,0,0,1,1,2545383,pdf,0F89581F8CBBD42D60C03C65FEF38CB3,,,_474983.0f89581f8cbbd42d60c03c65fef38cb3.pdf,0,2000-01-01 01:00:00,2016-04-03 02:51:08,726000/0f89581f8cbbd42d60c03c65fef38cb3-g.jpg,,
22020893,Travel Writing  ,,The New Critical Idiom,,Carl Thompson,2011,1,Routledge,,238,0,English ,,,2011 12 30,"0415444659,9780415444651,0415444640,9780415444644",,,,,820.9/491,PR756.T72 T48 2011,,,OL10206905M,,0,,,,1,0,1,1,1241997,pdf,0F89B9D20A7728B883C291EAC79B3435,,,_514344.0f89b9d20a7728b883c291eac79b3435.pdf,0,2000-01-01 01:00:00,2016-04-03 02:51:08,726000/0f89b9d20a7728b883c291eac79b3435-d.jpg,,
22020894,The Family  ,,,,"Mario Puzo, Carol Gino",2002,,Avon Books,,,0,English ,,,2011 12 30,9780061842955,,,,,,,,,OL24266901M,,0,,,,,1,1,,575068,epub,0F8AB64581A2AC4EFD01AB5711F7E79D,,,_443175.0f8ab64581a2ac4efd01ab5711f7e79d.epub,0,2000-01-01 01:00:00,2016-04-03 02:51:08,726000/0F8AB64581A2AC4EFD01AB5711F7E79D-g.jpg,,
22020895,Once I gazed at you in wonder: poems  ,,,,Jan Heller Levi,1999,First Edition,Louisiana State University Press,,,0,English ,,,2011 12 30,"0807123641,9780807123645",,,,,811/.54,PS3562.E8877 O53 1999,,0sGxQgAACAAJ,OL387343M,,0,,,,,1,,,351102,epub,0F8AE44F2F154ADBBBBE3CF8F1F282BA,,,_472496.0f8ae44f2f154adbbbbe3cf8f1f282ba.epub,0,2000-01-01 01:00:00,2016-04-03 02:51:08,726000/0f8ae44f2f154adbbbbe3cf8f1f282ba-d.gif,,
22020896,Adsorpcja. Opis i teorie procesu  ,,,,Jarosław Ościk,1969,,,,146,0,Polish ,,,2011 12 30,,,,,,,,,,,,0,,,,,1,,0,3785060,pdf,0F8B9A7A0342809ACB1C80F30ACE775D,,,_477405.0f8b9a7a0342809acb1c80f30ace775d.pdf,0,2000-01-01 01:00:00,2016-04-03 02:51:08,726000/0f8b9a7a0342809acb1c80f30ace775d-g.jpg,,
22020897,Modality in English: Theory and Description (Topics in English Linguistics 58)  ,,Topics in English Linguistics 58,,"Johan van der Auwera, Pierre Busuttil",2009,1,Mouton de Gruyter,,391,0,English ,,,2011 12 30,"3110196344,9783110196344",,,,,425/.6,PE1315.M6 M634 2009,,MXjIEmbcnRkC,OL23223608M,,0,,,,1,0,1,1,1619521,pdf,0F8BAF3B6E2643893F78F4ED9CAA4912,,,_497751.0f8baf3b6e2643893f78f4ed9caa4912.pdf,0,2000-01-01 01:00:00,2016-04-03 02:51:08,726000/0f8baf3b6e2643893f78f4ed9caa4912-d.jpg,,
22020898,"Restoring Justice : An Introduction to Restorative Justice , Fourth Edition  ",,,,"Daniel W. Van Ness, Karen Heetderks Strong",2010,4th,Anderson,,275,0,English ,,,2011 12 30,"1422463303,9781422463307",,,,,364.6/8,HV8688 .V36 2010,,,OL24028722M,,0,,,,1,1,1,1,3223288,pdf,0F8BEA54E31307049A754959C88083C9,,,_470709.0f8bea54e31307049a754959c88083c9.pdf,0,2000-01-01 01:00:00,2016-04-03 02:51:08,726000/0f8bea54e31307049a754959c88083c9-d.jpg,,
22020899,Maids & madams: A study in the politics of exploitation  ,,,,Jacklyn Cock,1980,,Ravan Press,,438,0,English ,,,2011 12 30,"0869751778,9780869751770",,,,,331.4/8164046/09687,HD6072.2.S62 C363 1980,,,OL3811155M,,0,,,,0,1,1,1,13609233,djvu,0F8C84A29D4E0EB8EA0287E7FA3CFD99,,,_488270.0f8c84a29d4e0eb8ea0287e7fa3cfd99.djvu,0,2000-01-01 01:00:00,2016-04-03 02:51:08,726000/0f8c84a29d4e0eb8ea0287e7fa3cfd99-g.jpg,,
22020900,"Mekhilta De-Rabbi Ishmael: A Critical Edition, Based on The manuscripts and early editions (2 Volume Set)  ",,,,"Jacob Z. Lauterbach, Dr. David M. Stern",2004,2,The Jewish Publication Society,,1170,0,English ,,,2011 12 30,"0827606788,9780827606784",,,,,296.1/4,BM517.M4 E5 2001,,,OL6791584M,,0,,,,1,0,1,1,3373734,pdf,0F8D7FEA436086077D022F0BB4E8CD94,,,_505828.0f8d7fea436086077d022f0bb4e8cd94.pdf,0,2000-01-01 01:00:00,2016-04-03 02:51:08,726000/0f8d7fea436086077d022f0bb4e8cd94-d.jpg,,
22020901,La pratique du vocabulaire allemand  ,,,,Brigitte Benhamou,1998,,Nathan,,160,0,French ,,,2011 12 30,"2091609919,9782091609911",,,,,,,,L-oWQgAACAAJ,,,0,,,,0,1,0,0,17333373,pdf,0F8FA9FC6C3B9C9DA3A449BDB65C3C62,,,_437963.0f8fa9fc6c3b9c9da3a449bdb65c3c62.pdf,0,2000-01-01 01:00:00,2016-04-03 02:51:08,726000/0f8fa9fc6c3b9c9da3a449bdb65c3c62-d.jpg,,
22020902,Formwork  ,,,,concrete society,,,,,16,0,English ,,,2011 12 30,,,,,,,,,,,,0,,,,,1,,0,1674470,pdf,0F8FEBB72BC1671B694E974BC4BEEB7B,,,_465183.0f8febb72bc1671b694e974bc4beeb7b.pdf,0,2000-01-01 01:00:00,2016-04-03 02:51:08,726000/0f8febb72bc1671b694e974bc4beeb7b-g.jpg,,
22020903,The Agile Approach to Adaptive Research: Optimizing Efficiency in Clinical Development (Wiley Series on Technologies for the Pharmaceutical Industry)  ,,,,Michael J. Rosenberg,2010,1,Wiley,,281,0,English ,,,2011 12 30,"0470247517,9780470247518",,,,,615/.19,RM301.25 .R67 2010,,,OL23928983M,,0,,,,,1,1,1,21620800,pdf,0F91149E1AAD1DDBB49413D800B831FA,,,_475816.0f91149e1aad1ddbb49413d800b831fa.pdf,0,2000-01-01 01:00:00,2016-04-03 02:51:08,726000/0f91149e1aad1ddbb49413d800b831fa-d.jpg,,
22020904,Implant and Regenerative Therapy in Dentistry: A Guide to Decision Making  ,,,,Paul A. Fugazzotto,2009,1,Wiley-Blackwell,"Ames, Iowa",423,0,English ,,,2011 12 30,"0813829623,978-0-8138-2962-3,9780813819129,0813819121",,,,,617.6/92,RK667.I45 F84 2009,,,OL22843181M,,0,,,,,1,,1,47757010,pdf,0F915AD415B7B8E6152E55E7E6956897,,,_458720.0f915ad415b7b8e6152e55e7e6956897.pdf,0,2000-01-01 01:00:00,2016-04-03 02:51:08,726000/0f915ad415b7b8e6152e55e7e6956897-d.jpg,,
22020905,One Perfect Day  ,,,,Lauraine Snelling,2011,Reprint,FaithWords,,,0,English ,,,2011 12 30,"089296300X,9780892963003",,,,,,,,,,,0,,,,,1,,,969964,mobi,0F962C2DA95B73DCFCE539E28EF52300,,,_503457.0f962c2da95b73dcfce539e28ef52300.mobi,0,2000-01-01 01:00:00,2016-04-03 02:51:08,726000/0f962c2da95b73dcfce539e28ef52300-d.jpg,,
22020906,Anthropologist Among the Marxists: And Other Essays  ,,,,Ramachandra Guha,2009,,"Permanant Black, India",,267,0,English ,,,2011 12 30,"8178240017,9788178240015",,,,,,,,,,,0,,,,,1,,0,7860481,pdf,0F970E6D98C9B1A6E4ACF3BA227AFDF9,,,_460055.0f970e6d98c9b1a6e4acf3ba227afdf9.pdf,0,2000-01-01 01:00:00,2016-04-03 02:51:08,726000/0f970e6d98c9b1a6e4acf3ba227afdf9-d.jpg,,
22020907,The Eichmann Trial (Jewish Encounters)  ,,,,Deborah E. Lipstadt,2011,,Schocken,,,0,English ,,,2011 12 30,"0805242600,9780805242607,9780805242911",,,,,,,,,OL24972474M,,0,,,,,0,1,1,2150515,epub,0F9A00C9E9A20D7786158872FADCB0AA,,,_467122.0f9a00c9e9a20d7786158872fadcb0aa.epub,0,2000-01-01 01:00:00,2016-04-03 02:51:08,726000/0f9a00c9e9a20d7786158872fadcb0aa-d.jpg,,
22020908,Cognitive science: an introduction,,,,Neil A. Stillings,1995,2,The MIT Press,,0,0,English,,,2011 12 30,"0262193531,9780262193535",,,,,153,BF311 .C5523 1995,,MV20QgAACAAJ,,,0,,,,,1,,,2720905,epub,0F9A0B3F301995D8F4BE0065A3AC70D4,,,_472605.0f9a0b3f301995d8f4be0065a3ac70d4.epub,0,2000-01-01 01:00:00,2016-04-03 02:51:08,726000/0f9a0b3f301995d8f4be0065a3ac70d4-d.jpg,,
22020909,Dynamic Faces: Insights from Experiments and Computation  ,,,,"Cristóbal Curio, Heinrich H. Bülthoff, Martin A. Giese, Tomaso A. Poggio",2010,1,The MIT Press,,299,0,English ,,,2011 12 30,"026201453X,9780262014533",,,,,006.3/7,TA1650 .C87 2010,,,OL24068645M,,0,,,,1,0,1,1,3605789,pdf,0F9BD333D0168CB201BEB8E1C8ABBE5B,,,_455865.0f9bd333d0168cb201beb8e1c8abbe5b.pdf,0,2000-01-01 01:00:00,2016-04-03 02:51:08,726000/0f9bd333d0168cb201beb8e1c8abbe5b-d.jpg,,
22020910,Category Seminar: Proceedings Sydney Category Theory Seminar 1972-1973  ,,Lecture Notes in Mathematics 420,,Gregory M. Kelly (Editor),1974,1,Springer-Verlag Berlin,,383,0,English ,,,2011 12 30,"3540069666,9783540069669,0387069666,9780387069661",,,,,"510/.8 s,512/.55","QA3 .L28 no. 420,QA169 .L28 no. 420",,AqMZAQAAIAAJ,OL5056681M,,0,,,,1,1,1,1,13167266,pdf,0F9C617CC29C2CBBFFFE65B21058846B,,,_511607.0f9c617cc29c2cbbfffe65b21058846b.pdf,0,2000-01-01 01:00:00,2016-04-03 02:51:08,726000/0f9c617cc29c2cbbfffe65b21058846b-d.jpg,,
22020911,In A Younger Voice: Doing Child-Centered Qualitative Research (Child Development in Cultural Context Series)  ,,Child development in cultural context,,Cindy Dell Clark,2010,1,"Oxford University Press, USA",New York,241,0,English ,,,2011 12 30,"0195376595,978-0-19-537659-3,9780199704132,0199704139",,,,,,,,,,,0,,,,0,0,0,1,1284729,pdf,0F9D7C166893DA547AA227EB86C1ECC7,,,_461141.0f9d7c166893da547aa227eb86c1ecc7.pdf,0,2000-01-01 01:00:00,2016-04-03 02:51:08,726000/0f9d7c166893da547aa227eb86c1ecc7-d.jpg,,
22020912,Digital Front-End in Wireless Communications and Broadcasting: Circuits and Signal Processing  ,,,,Fa-Long Luo,2011,1,Cambridge University Press,,790,0,English ,,,2011 12 30,"1107002133,9781107002135",,,,,621.384/12,TK6561 .D54 2011,,,OL25161944M,,0,,,,1,1,1,1,12613420,pdf,0F9DBD75655D4ED4537A0AB1DB2BE0AA,,,_504541.0f9dbd75655d4ed4537a0ab1db2be0aa.pdf,0,2000-01-01 01:00:00,2016-04-03 02:51:08,726000/0f9dbd75655d4ed4537a0ab1db2be0aa-d.jpg,,
22020913,Las poseídas de Stepford  ,,,,Ira Levin,1978,,Plaza & Janés,,92,0,"Spanish,Castilian",,,2011 12 30,"8401490499,9788401490491",,,,,,,,,OL13187339M,,0,,,,0,0,0,1,457072,pdf,0F9DCC72092F186F3E99E2CC96880F03,,,_456692.0f9dcc72092f186f3e99e2cc96880f03.pdf,0,2000-01-01 01:00:00,2016-04-03 02:51:08,726000/0f9dcc72092f186f3e99e2cc96880f03-g.jpg,,
22020914,Biophysico-Chemical Processes of Anthropogenic Organic Compounds in Environmental Systems (Wiley Series Sponsored by IUPAC in Biophysico-Chemical Processes in Environmental Systems)  ,,,,"Baoshan Xing, Nicola Senesi, Pan Ming Huang",2011,1,Wiley,,575,0,English ,,,2011 12 30,"0470539631,9780470539637",,,,,628.5,TD193 .B5475 2011,,,OL25008147M,,0,,,,0,1,0,1,210085530,pdf,0F9FA5D69CA3DD471A541481E46E24CD,,,_508444.0f9fa5d69ca3dd471a541481e46e24cd.pdf,0,2000-01-01 01:00:00,2016-04-03 02:51:08,726000/0f9fa5d69ca3dd471a541481e46e24cd-d.jpg,,
22020915,Reaching the animal mind: clicker training and what it teaches us about all animals  ,,,,Karen Pryor,2009,1,Scribner,,,0,English ,,,2011 12 30,"0743297768,9780743297769",,,,,591.5/13,QL785 .P79 2009,,,OL10723557M,,0,,,,0,0,1,1,430176,mobi,0FA06E669EF813C610B5F93C3AC0B908,,,_478244.0fa06e669ef813c610b5f93c3ac0b908.mobi,0,2000-01-01 01:00:00,2016-04-03 02:51:08,726000/0fa06e669ef813c610b5f93c3ac0b908-d.jpg,,
22020916,"Fibre Reinforced Cementitious Composites, 2nd Edition (Modern Concrete Technology)  ",,,,"Arnon Bentur, Sidney Mindess",2006,2,Spon Press,,625,0,English ,,,2011 12 30,"041525048X,9780415250481",,,,,,,,,OL18279451M,,0,,,,,1,,1,5635895,pdf,0FA161D7F72D238A08D1C6C666ED74BF,,,_458020.0fa161d7f72d238a08d1c6c666ed74bf.pdf,0,2000-01-01 01:00:00,2016-04-03 02:51:08,726000/0fa161d7f72d238a08d1c6c666ed74bf-d.jpg,,
22020917,Concepts in Calculus I  ,,,,"Miklos Bona, Sergei Shabanov",2011,,Orange Grove Texts Plus,,188,0,English ,,,2011 12 30,"1616101601,9781616101602",,,,,,,,,,,0,,,,,0,0,1,1582366,pdf,0FA1A2DD3D4AC5F8B22BC761940B3667,,,_489723.0fa1a2dd3d4ac5f8b22bc761940b3667.pdf,0,2000-01-01 01:00:00,2016-04-03 02:51:08,726000/0fa1a2dd3d4ac5f8b22bc761940b3667-d.jpg,,
22020918,The Vault  ,,Chief Inspector Wexford 23,,Ruth Rendell,2011,,Hutchinson,,,0,English ,,,2011 12 30,"1409049973,0091921465,0091925363,9781409049975,9780091921460,9780091925369",,,,,,,,TBs4BvrCTrAC,,,0,,,,,0,1,1,557191,epub,0FA1CF04897338B30659FCD90AFE44A0,,,_476349.0fa1cf04897338b30659fcd90afe44a0.epub,0,2000-01-01 01:00:00,2016-04-03 02:51:08,726000/0fa1cf04897338b30659fcd90afe44a0-d.jpg,,
22020919,Le Moyen Age et la Bible (Bible de tous les temps)  ,,,,"Pierre Riche, Guy Lobrichon (ed.)",1984,,Beauchesne,,639,0,French ,,,2011 12 30,"2701010918,9782701010915",,,,,220/.09/02,BS500 .M68 1984,,,OL2584260M,,0,,,,1,1,,1,31214584,pdf,0FA23E249B6245A7D58C3CE0BEF5BBDD,,,_479654.0fa23e249b6245a7d58c3ce0bef5bbdd.pdf,0,2000-01-01 01:00:00,2016-04-03 02:51:08,726000/0fa23e249b6245a7d58c3ce0bef5bbdd-g.jpg,,
22020920,Essai sur la nature du commerce en général  ,,,,Richard Cantillon,2011,,Institut Coppet,,,0,French ,,,2011 12 30,,,,,,,,,,,,0,,,,,0,1,1,331517,epub,0FA24711F0F9EFAB3B1C4106B6C3E512,,,_503672.0fa24711f0f9efab3b1c4106b6c3e512.epub,0,2000-01-01 01:00:00,2016-04-03 02:51:08,726000/0FA24711F0F9EFAB3B1C4106B6C3E512-g.jpg,,
22020921,Signal Processing and Linear Systems  ,,,,B. P. Lathi,2000,,"Oxford University Press, USA",,862,0,English ,,,2011 12 30,"0195219171,9780195219173",,,,,621.3822,,,,OL7392177M,,0,,,,0,1,,1,8909142,djvu,0FA342A49973F9789F0150A76AB7FA67,,,_504178.0fa342a49973f9789f0150a76ab7fa67.djvu,0,2000-01-01 01:00:00,2016-04-03 02:51:08,726000/0fa342a49973f9789f0150a76ab7fa67-d.jpg,,
22020922,"Polska alternatywa: stare mity, twarde fakty, nowe strategie  ",,,,Grzegorz W. Kołodko,1997,Wyd. 1,Poltext,,141,0,Polish ,,,2011 12 30,"8386890363,9788386890361",,,,,,,,,OL427319M,,0,,,,,1,1,1,12987130,pdf,0FA35776591080F8B1C6E2376F73876C,,,_460961.0fa35776591080f8b1c6e2376f73876c.pdf,0,2000-01-01 01:00:00,2016-04-03 02:51:08,726000/0fa35776591080f8b1c6e2376f73876c-g.jpg,,
22020923,This is your brain on music: the science of a human obsession  ,,,,Daniel J. Levitin,2006,,Plume,,,0,English ,,,2011 12 30,9781101218914,,,,,,,,,,,0,,,,,0,1,1,500147,epub,0FA36303EE6F45DAF376213D509C391E,,,_508808.0fa36303ee6f45daf376213d509c391e.epub,0,2000-01-01 01:00:00,2016-04-03 02:51:08,726000/0FA36303EE6F45DAF376213D509C391E-g.jpg,,
22020924,Quimica Culinaria  ,,,,A. Coenders,1998,,ACRIBIA,,152,0,"Spanish,Castilian",,,2011 12 30,"8420008230,9788420008233",,,,,,,,,OL13189847M,Front matter missing,0,,,,,1,1,0,12281837,pdf,0FA3A4460DDA4012B580AD7754651567,,,_491343.0fa3a4460dda4012b580ad7754651567.pdf,0,2000-01-01 01:00:00,2016-04-03 02:51:08,726000/0fa3a4460dda4012b580ad7754651567-d.jpg,,
22020925,"General and synthetic methods: A review of the literature published during 1984, Volume 9  ",,General and Synthetic Methods Vol.09,,G. Pattenden,1987,,Royal Society of Chemistry,,738,0,English ,,,2011 12 30,"1847556213,9781847556219",,,,,,,,,,,0,,,,0,1,0,1,38243642,pdf,0FA3A5751A9A9DABBD2761CE607FE4CA,,,_488236.0fa3a5751a9a9dabbd2761ce607fe4ca.pdf,0,2000-01-01 01:00:00,2016-04-03 02:51:08,726000/0fa3a5751a9a9dabbd2761ce607fe4ca-g.jpg,,
22020926,Vivre avec des cons  ,,,,Tonvoisin Depalier,2009,,J'ai lu,,,0,French ,,,2011 12 30,"2290016438,9782290016435",,,,,,,,,,,0,,,,0,0,1,1,277362,epub,0FA3D79E7721E76A6D9C08FE404F9E6D,,,_455404.0fa3d79e7721e76a6d9c08fe404f9e6d.epub,0,2000-01-01 01:00:00,2016-04-03 02:51:08,726000/0fa3d79e7721e76a6d9c08fe404f9e6d-d.jpg,,
22020927,Loss  ,,,,Tom Piccirilli,2010,,Crossroad Press & Macabre Ink Digital,,,0,English ,,,2011 12 30,,,ISBN10:B004DL0MU0,,,,,,,,,0,,,,1,0,0,1,168026,epub,0FA432D94AEDCE56F8D29404B563D2C1,,,_441575.0fa432d94aedce56f8d29404b563d2c1.epub,0,2000-01-01 01:00:00,2016-04-03 02:51:08,726000/0FA432D94AEDCE56F8D29404B563D2C1-g.jpg,,
22020928,Hard Times: An Oral History of the Great Depression  ,,,,Studs Terkel,2000,,"New Press, The",,,0,English ,,,2011 12 30,"1565846567,9781565846562",,,,,973.91/6/0922,E806 .T45 2000,,,OL3731960M,,0,,,,,1,1,1,678749,epub,0FA4C0806CBC61F1555465B403669C1E,,,_494304.0fa4c0806cbc61f1555465b403669c1e.epub,0,2000-01-01 01:00:00,2016-04-03 02:51:08,726000/0fa4c0806cbc61f1555465b403669c1e-d.jpg,,
22020929,Val dood  ,,,,Jens Lapidus,2011,,Bruna,,,0,Dutch ,,,2011 12 30,"9044965875,9789044965872",,,,,,,,,,,0,,,,0,0,1,1,1096555,epub,0FA63FAC84E0EFDDB4F51040CA13A48C,,,_512940.0fa63fac84e0efddb4f51040ca13a48c.epub,0,2000-01-01 01:00:00,2016-04-03 02:51:08,726000/0FA63FAC84E0EFDDB4F51040CA13A48C-g.jpg,,
22020930,New Blood  ,,,,Gail Dayton,2009,,Tor Paranormal Romance,,760,0,English ,,,2011 12 30,"0765362503,9780765362506",,,,,,,,FHdlrGpx4RkC,OL24087392M,,0,,,,1,1,1,1,432841,epub,0FA7B44A76BA40496A0AC021DCD665E1,,,_460445.0fa7b44a76ba40496a0ac021dcd665e1.epub,0,2000-01-01 01:00:00,2016-04-03 02:51:08,726000/0fa7b44a76ba40496a0ac021dcd665e1-d.jpg,,
22020931,Advances in Laser Materials Processing Technology  ,,,,"J. Lawrence, D. K. Y. Low, J. Pou, E. Toyserkani",2010,,Woodhead Publishing Limited,,844,0,English ,,,2011 12 30,"1845694740,9781845694746",,,,,,,10.1007/s00339-008-4741-6,,,,0,,,,,1,1,1,12993353,djvu,0FA8B49B220D1A99DEC83FDD638F6FE8,,,_512128.0fa8b49b220d1a99dec83fdd638f6fe8.djvu,0,2000-01-01 01:00:00,2016-04-03 02:51:08,726000/0fa8b49b220d1a99dec83fdd638f6fe8-d.jpg,,
22020932,"Nova Scotia, New Brunswick and Prince Edward Island for Dummies, Third Edition  ",,,,Andrew Hempstead,2008,3rd,For Dummies,,354,0,English ,,,2011 12 30,"0470153342,9780470153345",,,,,917.1504/5,,,3yic23LHFmEC,OL10280065M,,0,,,,1,0,1,1,3756449,pdf,0FA9A9BF555178727C6F1102E1DD328D,,,_503335.0fa9a9bf555178727c6f1102e1dd328d.pdf,0,2000-01-01 01:00:00,2016-04-03 02:51:08,726000/0fa9a9bf555178727c6f1102e1dd328d-d.jpg,,
22020933,Psychiatrie 2020  ,,,,Frank Schneider,2011,1st Edition.,Springer,,97,0,German ,,,2011 12 30,"3642193307,9783642193309",,,,,,,,_r9nJb2IwLQC,,,0,,,,1,0,1,1,1091492,pdf,0FA9DCC1B3D2B650A45EBDE0E42E435F,,,_434884.0fa9dcc1b3d2b650a45ebde0e42e435f.pdf,0,2000-01-01 01:00:00,2016-04-03 02:51:08,726000/0fa9dcc1b3d2b650a45ebde0e42e435f-d.jpg,,
22020934,"The Disaster Recovery Handbook: A Step-by-Step Plan to Ensure Business Continuity and Protect Vital Operations, Facilities, and Assets  ",,,,"Michael Wallace, Lawrence Webber",2010,Second Edition,AMACOM,,447,0,English ,,,2011 12 30,"0814416136,9780814416136",,,,,,,,,,,0,,,,1,0,1,1,2336242,pdf,0FAA320EB76B68B763E848057E8F4964,,,_463629.0faa320eb76b68b763e848057e8f4964.pdf,0,2000-01-01 01:00:00,2016-04-03 02:51:08,726000/0faa320eb76b68b763e848057e8f4964-d.jpg,,
22020935,"Dynamical Theories of Brownian Motion, First Edition  ",,,,Edward Nelson,1967,1st,Princeton University Press,,146,0,English ,,,2011 12 30,,,,,,,,,,,,0,,,,,1,0,0,17019213,pdf,0FAB677BA59D1B60E07B6ED43C288F86,,,_479498.0fab677ba59d1b60e07b6ed43c288f86.pdf,0,2000-01-01 01:00:00,2016-04-03 02:51:08,726000/0fab677ba59d1b60e07b6ed43c288f86-g.jpg,,
22020936,Nightside of Eden  ,,,,Kenneth Grant,1994,,Skoob,,335,0,English ,,,2011 12 30,"1871438721,9781871438727",,,,,,,,,OL8651559M,,0,,,,,1,0,0,8309720,pdf,0FAB8134FF163ED70F16232162241083,,,_513164.0fab8134ff163ed70f16232162241083.pdf,0,2000-01-01 01:00:00,2016-04-03 02:51:08,726000/0fab8134ff163ed70f16232162241083-d.jpg,,
22020937,Poisoned Secrets  ,,,,Margaret Daley,2009,,Steeple Hill,,,0,English ,,,2011 12 30,"0373443293,9780373443291",,,,,,,,,OL23925971M,,0,,,,,1,,,286497,epub,0FAB9261BC3D6B20B6DC010F8673769F,,,_491077.0fab9261bc3d6b20b6dc010f8673769f.epub,0,2000-01-01 01:00:00,2016-04-03 02:51:08,726000/0fab9261bc3d6b20b6dc010f8673769f-d.jpg,,
22020938,From Thoughts to Obsessions: Obsessive Compulsive Disorder in Children and Adolescents  ,,,,Per Hove Thomsen,1999,1,Jessica Kingsley Pub,,150,0,English ,,,2011 12 30,"1853027219,9781853027215",,,,,618.92/85227,RJ506.O25 T4813 1998,,Een3Qvf1QU0C,OL379119M,,0,,,,,1,0,1,4607158,pdf,0FABC660B1CA1EEF29C9F960FC9ECA0E,,,_445476.0fabc660b1ca1eef29c9f960fc9eca0e.pdf,0,2000-01-01 01:00:00,2016-04-03 02:51:08,726000/0fabc660b1ca1eef29c9f960fc9eca0e-d.jpg,,
22020939,"The Element Encyclopedia of Ghosts and Hauntings: The Ultimate A-Z of Spirits, Mysteries and the Paranormal  ",,,,Theresa Cheung,2009,,HarperCollins Publishers Limited,,1338,0,English ,,,2011 12 30,9780007385829,,,,,,,,_G1SmhVW--UC,,,0,,,,,1,,1,942064,mobi,0FAC45FAF8E5D1E66DEB43B32FC0C1D8,,,_508593.0fac45faf8e5d1e66deb43b32fc0c1d8.mobi,0,2000-01-01 01:00:00,2016-04-03 02:51:08,726000/0FAC45FAF8E5D1E66DEB43B32FC0C1D8-g.jpg,,
22020940,"Advanced FDTD Method: Parallelization, Acceleration, and Engineering Applications (Artech House Electromagnetic Analysis)  ",,,,"Wenhua Yu, Xiaoling Yang, Yongjun Liu, Raj Mittra, Akira Muto",2011,1,Artech House,,267,0,English ,,,2011 12 30,"1608071766,9781608071760",,,,,,,,,,,0,,,,1,0,1,1,10844726,pdf,0FAC468767A6CEF22494094C2DEC278C,,,_485278.0fac468767a6cef22494094c2dec278c.pdf,0,2000-01-01 01:00:00,2016-04-03 02:51:08,726000/0fac468767a6cef22494094c2dec278c-d.jpg,,
22020941,Emails from an A**hole: Real People Being Stupid  ,,,,John Lindsay,2010,,Sterling Publishing,,224,0,English ,,,2011 12 30,9781402778278,,,,,818/.602,PN6231.P36 L56 2010,,,OL24040540M,,0,,,,,0,1,1,1938715,epub,0FADEFD6872A881DD9FF03CCF525BAA1,,,_434700.0fadefd6872a881dd9ff03ccf525baa1.epub,0,2000-01-01 01:00:00,2016-04-03 02:51:08,726000/0fadefd6872a881dd9ff03ccf525baa1-d.jpg,,
22020942,朱熹的历史世界上  ,,,,余英时,,,三联书店,,422,0,Chinese(PRC),,,2011 12 30,,,,,,,,,,,,0,,,,,1,1,0,8027990,pdf,0FAF7CBF68B26F642AE194665DA96738,,,_501100.0faf7cbf68b26f642ae194665da96738.pdf,0,2000-01-01 01:00:00,2016-04-03 02:51:08,726000/0faf7cbf68b26f642ae194665da96738-g.jpg,,
22020943,Álgebra lineal  ,,,,"Seymour Lipschutz, Lorenzo Abellanas, traduccion: Celia Martinez Ontalba",1992,2da edicion,McGraw-Hill,,562,0,"Spanish,Castilian",,,2011 12 30,"8476157584,9788476157589,0070380074",,,,,512/.5,QA188 .L57 1991,,,OL1881686M,,0,,,,1,1,1,0,121757273,pdf,0FAF8E353EDAD9518689828B50D3073E,,,_491937.0faf8e353edad9518689828b50d3073e.pdf,0,2000-01-01 01:00:00,2016-04-03 02:51:08,726000/0faf8e353edad9518689828b50d3073e-d.jpg,,
22020944,Focus on Composing Photos: Focus on the Fundamentals  ,,,,Peter Ensenberger,2011,1,Focal Press,,,0,English ,,,2011 12 30,"024081505X,9780240815053",,,,,770.1,TR179 .E57 2011,,,OL25065101M,,0,,,,,1,,,3335460,epub,0FB05F6488E4091FC06981F024651CC9,,,_508699.0fb05f6488e4091fc06981f024651cc9.epub,0,2000-01-01 01:00:00,2016-04-03 02:51:08,726000/0fb05f6488e4091fc06981f024651cc9-d.jpg,,
22020945,Reaper (Soul Screamers)  ,,,,Rachel Vincent,2010,,Harlequin Teen,,,0,English ,,,2011 12 30,,,,,,,,,,,,0,,,,,1,,,160104,epub,0FB25C6ED625499686CECB79124C6B0D,,,_488592.0fb25c6ed625499686cecb79124c6b0d.epub,0,2000-01-01 01:00:00,2016-04-03 02:51:08,726000/0FB25C6ED625499686CECB79124C6B0D-g.jpg,,
22020946,999: New Stories of Horror and Suspense  ,,,,Al Sarrantonio,1999,1st,William Morrow,,,0,English ,,,2011 12 30,"0380977400,9780380977406",,,,,813/.08738,PS648.H6 A16 1999,,,OL35704M,,0,,,,,1,,,739398,epub,0FB25DCF95A24501C406810CCF320CD5,,,_432626.0fb25dcf95a24501c406810ccf320cd5.epub,0,2000-01-01 01:00:00,2016-04-03 02:51:08,726000/0fb25dcf95a24501c406810ccf320cd5-d.jpg,,
22020947,Diagnosing and Changing Organizational Culture: Based on the Competing Values Framework  ,,,,"Kim S. Cameron, Robert E. Quinn",2011,3rd,John Wiley & Sons,,290,0,English ,,,2011 12 30,"0470650265,9780470650264,9781118003305,9781118003312,9781118003329",,,,,658.4/06,HD58.8 .C32 2011,,,OL25001863M,,0,,,,1,0,1,1,1064144,pdf,0FB4420BE416B7376D8CF5F547EDE086,,,_485079.0fb4420be416b7376d8cf5f547ede086.pdf,0,2000-01-01 01:00:00,2016-04-03 02:51:08,726000/0fb4420be416b7376d8cf5f547ede086-d.jpg,,
22020948,Структурные закономерности архитектурного формообразования  ,,,,М. В. Шубенков,2006,,Arkhitektura-S,,321,0,Russian ,,,2011 12 30,"9785964701057,5964701051",,,,,,,,,,,0,,,,,1,,0,131096398,pdf,0FB49BFADCA44B2DA8FB030A7C8A6DEE,,,_498516.0fb49bfadca44b2da8fb030a7c8a6dee.pdf,0,2000-01-01 01:00:00,2016-04-03 02:51:08,726000/0fb49bfadca44b2da8fb030a7c8a6dee-d.jpg,,
22020949,,,,The Mathematical Intelligencer volume 22 issue 3,"M.L. Senechal, C. Davis (Editors in Chief)",2000,,Springer,,76,0,English ,,,2011 12 30,,0343-6993,,,,,,,,,,0,,,,1,1,1,1,7894421,pdf,0FB50F429390D86ECC60642400FB43CE,,,_434448.0fb50f429390d86ecc60642400fb43ce.pdf,0,2000-01-01 01:00:00,2016-04-03 02:51:08,726000/0fb50f429390d86ecc60642400fb43ce-g.jpg,,
22020950,"Diabetes and You: A Comprehensive, Holistic Approach  ",,,,Naheed Ali,2011,1,Rowman & Littlefield Publishers,,257,0,English ,,,2011 12 30,"1442207280,9781442207288,9781442207301",,,,,616.4/62,RC660 .A45 2010,,EwUluIAVlmIC,OL24423418M,,0,,,,1,0,1,1,732953,pdf,0FB78ED6B58B4101E5A3ADF9CDBDDDC0,,,_459591.0fb78ed6b58b4101e5a3adf9cdbdddc0.pdf,0,2000-01-01 01:00:00,2016-04-03 02:51:08,726000/0fb78ed6b58b4101e5a3adf9cdbdddc0-d.jpg,,
22020951,"Evaporation, Condensation and Heat transfer  ",,,,Amimul Ahsan Publisher: InTech,2011,,,,582,0,English ,,,2011 12 30,9789533075839,,,,,,,,,,,0,,,,,1,1,1,39254531,pdf,0FB897875988CFEFF7EBCE9842CF83E1,,,_487365.0fb897875988cfeff7ebce9842cf83e1.pdf,0,2000-01-01 01:00:00,2016-04-03 02:51:08,726000/0fb897875988cfeff7ebce9842cf83e1-g.jpg,,
22020952,De ceders van Urtan  ,,,,Wim Gijsen,1991,,Meulenhoff SF & Fantasy,,,0,Dutch ,,,2011 12 30,,,,,,,,,,,,0,,,,0,0,1,1,300573,epub,0FB9204B074C3BE4D9F3450D61F95540,,,_512356.0fb9204b074c3be4d9f3450d61f95540.epub,0,2000-01-01 01:00:00,2016-04-03 02:51:08,726000/0FB9204B074C3BE4D9F3450D61F95540-g.jpg,,
22020953,So wie ich will: Mein Leben zwischen Moschee und Minirock  ,,,,Melda Akbas,2010,,C. Bertelsmann Verlag,,231,0,German ,,,2011 12 30,"357010043X,9783570100431,9783641047825",,,,,,,,,OL25219580M,,0,,,,1,0,1,1,783377,pdf,0FB93D9D96154255AB9FF1A1EFD816DB,,,_434481.0fb93d9d96154255ab9ff1a1efd816db.pdf,0,2000-01-01 01:00:00,2016-04-03 02:51:08,726000/0fb93d9d96154255ab9ff1a1efd816db-g.jpg,,
22020954,Not Out of Africa: How Afrocentrism Became an Excuse to Teach Myth as History  ,,,,Mary Lefkowitz,1996,1ST,Basic Books,,222,0,English ,,,2011 12 30,"0465098371,9780465098378",,,,,960/.07,DT14,,,OL22637517M,,0,,,,1,1,0,0,10611910,pdf,0FBB61448A95945AF29C692EDC0E9B41,,,_509747.0fbb61448a95945af29c692edc0e9b41.pdf,0,2000-01-01 01:00:00,2016-04-03 02:51:08,726000/0fbb61448a95945af29c692edc0e9b41-d.jpg,,
22020955,Improving Learning by Widening Participation in Higher Education  ,,,,"Miriam David, Ann-Marie Bathmaker, Gill Crozier, Pauline Davis, Hubert Ertl, Alison Fuller, Geoff Hayward, Sue Heath, Chris Hockings, Gareth Parry, Diane Reay, Anna Vignoles, Julian Williams",2010,,Routledge,,281,0,English ,,,2011 12 30,"0415495415,9780415495417",,,,,379.2/60941,LC4096.G7 I66 2010,,K3yMvPU3JMEC,OL23203388M,,0,,,,,0,,1,1825234,pdf,0FBB7CBA6564F1C1354A88435C627E29,,,_443308.0fbb7cba6564f1c1354a88435c627e29.pdf,0,2000-01-01 01:00:00,2016-04-03 02:51:08,726000/0fbb7cba6564f1c1354a88435c627e29-d.jpg,,
22020956,The History of Puerto Rico (The Greenwood Histories of the Modern Nations)  ,,The Greenwood Histories of the Modern Nations,,Lisa Pierce Flores,2009,,Greenwood,,194,0,English ,,,2011 12 30,"0313354189,9780313354182",,,,,972.95,F1971 .P55 2010,,,OL23688477M,,0,,,,1,0,1,1,1439053,pdf,0FBBA8F63E4363E8CF55499A2F329575,,,_479994.0fbba8f63e4363e8cf55499a2f329575.pdf,0,2000-01-01 01:00:00,2016-04-03 02:51:08,726000/0fbba8f63e4363e8cf55499a2f329575-d.jpg,,
22020957,On the Definition of Word (Linguistic Inquiry Monographs 14)  ,,,,"Anna Maria Di Sciullo, Edwin Williams",,,The MIT Press,,127,0,English ,,,2011 12 30,0262540479,,,,,,,,,,,0,,,,,1,,1,5906253,pdf,0FBBD19A2FD010FB47245CE7FF900406,,,_278742.0fbbd19a2fd010fb47245ce7ff900406.pdf,0,2000-01-01 01:00:00,2016-04-03 02:51:08,726000/0fbbd19a2fd010fb47245ce7ff900406-g.jpg,,
22020958,Vicious  ,,,,Kevin O'Brien,2010,,Kensington Publishing Corporation,,,0,English ,,,2011 12 30,"0786021365,9780786021369",,,,,813/.54,PS3565.B714 V53 2010,,,OL24326015M,,0,,,,,1,,,552015,epub,0FBC6A6225F8FAFA1E12618416159162,,,_437258.0fbc6a6225f8fafa1e12618416159162.epub,0,2000-01-01 01:00:00,2016-04-03 02:51:08,726000/0fbc6a6225f8fafa1e12618416159162-d.jpg,,
22020959,A Companion to Relativism (Blackwell Companions to Philosophy)  ,,Blackwell Companions to Philosophy,,Steven D. Hales,2011,1,Wiley-Blackwell,,676,0,English ,,,2011 12 30,"1405190213,9781405190213",,,,,149,BD221 .C65 2011,,9KOSQR-h8X4C,OL24384701M,,0,,,,1,0,1,1,2724680,pdf,0FBC8CAF800F1406885A49A08984621E,,,_459822.0fbc8caf800f1406885a49a08984621e.pdf,0,2000-01-01 01:00:00,2016-04-03 02:51:08,726000/0fbc8caf800f1406885a49a08984621e-d.jpg,,
22020960,Electromagnetic Waves Propagation in Complex Matter  ,,,,Edited by: Ahmed Kishk,2011,,InTech,,306,0,English ,,,2011 12 30,978-953-307-445-0,,,,,,,,,,,0,,,,0,1,1,1,10729983,pdf,0FBCF55409E719433DE1A687AF406B76,,,_462714.0fbcf55409e719433de1a687af406b76.pdf,0,2000-01-01 01:00:00,2016-04-03 02:51:08,726000/0fbcf55409e719433de1a687af406b76-g.jpg,,
22020961,Nonlinear Transistor Model Parameter Extraction Techniques  ,,Cambridge RF and Microwave Engineering Series,,"Matthias Rudolph, Christian Fager, David E. Root",2011,1,Cambridge University Press,,368,0,English ,,,2011 12 30,"0521762103,9780521762106",,,,,621.3815/28,TK7871.9 .N66 2011,,,OL25186165M,,0,,,,1,0,1,1,14186212,pdf,0FBCF93E7D4226B49D29E66144398BC4,,,_512866.0fbcf93e7d4226b49d29e66144398bc4.pdf,0,2000-01-01 01:00:00,2016-04-03 02:51:08,726000/0fbcf93e7d4226b49d29e66144398bc4-d.jpg,,
22020962,Review of Surgery for ABSITE and Boards: Expert Consult- Online and Print  ,,,,Christian DeVirgilio MD FAC,2010,1 Pap/Psc,Saunders,,264,0,English ,,,2011 12 30,"1416046909,9781416046905",,,,,617.0076,RD37.2 D48 2010,,7Y6bQQAACAAJ,OL23677905M,,0,,,,0,1,1,0,235021243,pdf,0FBD4F4168EFA80A53F8A6963E24E6E6,,,_441742.0fbd4f4168efa80a53f8a6963e24e6e6.pdf,0,2000-01-01 01:00:00,2016-04-03 02:51:08,726000/0fbd4f4168efa80a53f8a6963e24e6e6-d.jpg,,
22020963,Investigating Tasks in Formal Language Learning (Second Language Acquisition)  ,,,,María del Pilar García Mayo,2006,,Multilingual Matters,,280,0,English ,,,2011 12 30,"1853599271,9781853599279",,,,,,,,,OL8980233M,,0,,,,1,1,,1,2075707,pdf,0FBDCFD4BB860CF5A5DADFB852E1442F,,,_445092.0fbdcfd4bb860cf5a5dadfb852e1442f.pdf,0,2000-01-01 01:00:00,2016-04-03 02:51:08,726000/0fbdcfd4bb860cf5a5dadfb852e1442f-d.jpg,,
22020964,Effected Intent  ,,,,Alan Ross,2010,,Smashwords,,,0,English ,,,2011 12 30,,,ISBN10:B0033AGU12,,,,,,,,,0,,,,,0,1,1,325679,epub,0FBFB00070E8777F0E8C22EDC3FF2D7A,,,_477558.0fbfb00070e8777f0e8c22edc3ff2d7a.epub,0,2000-01-01 01:00:00,2016-04-03 02:51:08,726000/0FBFB00070E8777F0E8C22EDC3FF2D7A-g.jpg,,
22020965,The End of Growth: Adapting to Our New Economic Reality  ,,,,Richard Heinberg,2011,Original,New Society Publishers,,567,0,English ,,,2011 12 30,"0865716951,9780865716957",,,,,330.9/05,HC59.3 .H45 2011,,,OL25036373M,,0,,,,,0,0,1,4158591,pdf,0FBFF86700A663A7615EAB624E44CE6D,,,_496056.0fbff86700a663a7615eab624e44ce6d.pdf,0,2000-01-01 01:00:00,2016-04-03 02:51:08,726000/0fbff86700a663a7615eab624e44ce6d-d.jpg,,
22020966,"The book of Hebrew script: history, palaeography, script styles, calligraphy & design  ",,,,Ada Yardeni,2002,,The British Library,,346,0,English ,,,2011 12 30,"0712347933,9780712347938",,,,,,,,9NkNAAAAYAAJ,,,0,,,,,1,,1,12417650,djvu,0FC00440D6758C8D65B59663933F715A,,,_474862.0fc00440d6758c8d65b59663933f715a.djvu,0,2000-01-01 01:00:00,2016-04-03 02:51:08,726000/0fc00440d6758c8d65b59663933f715a-d.jpg,,
22020967,A Million Versions of Right  ,,,,Matthew Revert,2009,,Legume Man Books,,274,0,English ,,,2011 12 30,"0980593816,9780980593815",,,,,,,,,,,0,,,,,1,1,1,1022892,mobi,0FC08988CF548898B58E9D18C3B5D88E,,,_512569.0fc08988cf548898b58e9d18c3b5d88e.mobi,0,2000-01-01 01:00:00,2016-04-03 02:51:08,726000/0fc08988cf548898b58e9d18c3b5d88e-d.jpg,,
22020968,"The Empire Project: The Rise and Fall of the British World-System, 1830-1970  ",,,,John Darwin,2009,1,Cambridge University Press,,,0,English ,,,2011 12 30,"0521302080,9780521302081,9780511633447,9780511632242",,,,,909/.09241081,DA16 .D296 2009,,b7E83PeQAQMC,OL23397640M,,0,,,,0,0,1,1,1301461,epub,0FC14091E3DEF05644C6C6849DB437E2,,,_447199.0fc14091e3def05644c6c6849db437e2.epub,0,2000-01-01 01:00:00,2016-04-03 02:51:08,726000/0fc14091e3def05644c6c6849db437e2-d.jpg,,
22020969,Tsunami Warning and Preparedness: An Assessment of the U.S. Tsunami Program and the Nation's Preparedness Efforts  ,,,,"Committee on the Review of the Tsunami Warning and Forecast System and Overview of the Nation's Tsunami Preparedness, National Research Council",2011,,National Academies Press,,297,0,English ,,,2011 12 30,"0309137535,9780309137539",,,,,,,,bUH0pJAyfRgC,,,0,,,,,0,1,1,10107192,pdf,0FC1FDF0FB86B30F29749898E5D4F6BA,,,_435606.0fc1fdf0fb86b30f29749898e5d4f6ba.pdf,0,2000-01-01 01:00:00,2016-04-03 02:51:08,726000/0fc1fdf0fb86b30f29749898e5d4f6ba-d.jpg,,
22020970,Chemoinformatics and Computational Chemical Biology,,Methods in Molecular Biology 672,,"Wendy A. Warr (auth.), Jürgen Bajorath (eds.)",2011,1,Humana Press,,588,0,English,,,2011 12 30,"1607618389,9781607618386",,,,,,,10.1007/978-1-60761-839-3,,OL25138110M,,0,,,,,1,1,1,4580063,pdf,0FC36405E00E74DBBAAC607C2C4A0E51,,,_466494.0fc36405e00e74dbbaac607c2c4a0e51.pdf,0,2000-01-01 01:00:00,2016-04-03 02:51:08,726000/0fc36405e00e74dbbaac607c2c4a0e51-d.jpg,,
22020971,Feast Day of Fools  ,,Hackberry Holland 3,,James Lee Burke,2011,,Simon & Schuster,,,0,English ,,,2011 12 30,"145164311X,1451643144,9781451643114,9781451643145",,,,,,PS3552.U723F43 2011,,trj6e5SW6U8C,OL24995191M,,0,,,,,0,1,1,2781686,epub,0FC6EA23639D4ACA73580F004F52258B,,,_474727.0fc6ea23639d4aca73580f004f52258b.epub,0,2000-01-01 01:00:00,2016-04-03 02:51:08,726000/0fc6ea23639d4aca73580f004f52258b-d.jpg,,
22020972,Pampered to Death (Jaine Austen Mysteries)  ,,Jaine Austen Mysteries 10,,Laura Levine,2011,1,Kensington,,,0,English ,,,2011 12 30,"0758238479,9780758238474",,,,,,,,,,,0,,,,,1,1,,947694,mobi,0FC7726DEC9B7700AB2E5D3F77CC6D11,,,_450225.0fc7726dec9b7700ab2e5d3f77cc6d11.mobi,0,2000-01-01 01:00:00,2016-04-03 02:51:08,726000/0fc7726dec9b7700ab2e5d3f77cc6d11-d.jpg,,
22020973,"Primary Care Otolaryngology, 3rd Edition  ",,,,Mark K. Wax,2011,3rd Edition,American Academy of Otolaryngology,,139,0,English ,,,2011 12 30,"0615465234,9780615465234",,,,,,,,,,,0,,,,1,0,1,1,6984802,pdf,0FC86B81A4E201828B3430B008187C0C,,,_505110.0fc86b81a4e201828b3430b008187c0c.pdf,0,2000-01-01 01:00:00,2016-04-03 02:51:08,726000/0fc86b81a4e201828b3430b008187c0c-g.jpg,,
22020974,Local Economies in Turmoil (International Political Economy Series)  ,,International Political Economy Series,,"Arni Sverrisson, Meine Pieter van Dijk, Meine Pieter Van Dijk",2000,,Palgrave Macmillan,,223,0,English ,,,2011 12 30,"0333792424,9780333792421",,,,,330.91724,,,oG2BQgAACAAJ,OL21294092M,,0,,,,1,0,1,1,2069291,pdf,0FCA54F72FB59D3A5560E8B6198B5773,,,_471431.0fca54f72fb59d3a5560e8b6198b5773.pdf,0,2000-01-01 01:00:00,2016-04-03 02:51:08,726000/0fca54f72fb59d3a5560e8b6198b5773-d.jpg,,
22020975,Fundamentos de Ecologia  ,,,,Eugene Odum,1988,,Calouste Gulbenkian,,820,0,Portuguese ,,,2011 12 30,"9723101580,9789723101584",,,,,,,,,,,0,,,,,1,,0,17498251,pdf,0FCE237B917C872768AEB95687ABAFFC,,,_433840.0fce237b917c872768aeb95687abaffc.pdf,0,2000-01-01 01:00:00,2016-04-03 02:51:08,726000/0fce237b917c872768aeb95687abaffc-g.jpg,,
22020976,An Introduction to Measurements using Strain Gages  ,,,,Karl Hoffmann,,,,,273,0,English ,,,2011 12 30,,,,,,,,,,,,0,,,,,1,,1,7270470,pdf,0FCFB8951DECA6D8AF10C4F15983EDEC,,,_478838.0fcfb8951deca6d8af10c4f15983edec.pdf,0,2000-01-01 01:00:00,2016-04-03 02:51:08,726000/0fcfb8951deca6d8af10c4f15983edec-g.jpg,,
22020977,The artist's body  ,,,,"Tracey Warr, Amelia Jones",2000,,Phaïdon,,152,0,English ,,,2011 12 30,"0714835021,9780714835020",,,,,,,,,OL6893696M,,0,,,,0,1,0,1,54286039,pdf,0FCFE5F7CBED79456DE2D97F0B217FA0,,,_512918.0fcfe5f7cbed79456de2d97f0b217fa0.pdf,0,2000-01-01 01:00:00,2016-04-03 02:51:08,726000/0fcfe5f7cbed79456de2d97f0b217fa0-d.jpg,,
22020978,Molecules That Changed the World  ,,,,"K. C. Nicolaou, Tamsyn Montagnon",2008,1,Wiley-VCH,,368,0,English ,,,2011 12 30,"3527309837,9783527309832",,,,,,,,mOcNUTFpOXgC,OL12767303M,,0,,,,0,1,0,0,22475778,djvu,0FD022EBEF481E9B0F6032D257284490,5d6726380076b9cb735424010c45e21e,no,_453739.0fd022ebef481e9b0f6032d257284490.djvu,0,2000-01-01 01:00:00,2016-04-03 02:51:08,726000/0fd022ebef481e9b0f6032d257284490-d.jpg,,
22020979,Die Witwen von Broome  ,,Goldmann rote Krimi,,Arthur W. Upfield,1980,,Goldmann Verlag,,159,0,German ,,,2011 12 30,"3442001420,9783442001422",,,,,,,,,OL12708442M,,0,,,,1,0,1,1,457351,pdf,0FD2AE027029C12CB3B877D246E658C5,,,_509110.0fd2ae027029c12cb3b877d246e658c5.pdf,0,2000-01-01 01:00:00,2016-04-03 02:51:08,726000/0fd2ae027029c12cb3b877d246e658c5-d.jpg,,
22020980,Teoria sygnałów: kompendium wiedzy na temat sygnałów i metod ich przetwarzania  ,,,,"Jacek Izydorczyk, Grzegorz Płonka, Grzegorz Tyma",2006,,Helion,,298,0,Polish ,,,2011 12 30,"8324604014,9788324604012",,,,,,,,,,,0,,,,,1,,0,160269045,pdf,0FD2C7727B72D4D4336E860B6CB4A399,,,_475108.0fd2c7727b72d4d4336e860b6cb4a399.pdf,0,2000-01-01 01:00:00,2016-04-03 02:51:08,726000/0fd2c7727b72d4d4336e860b6cb4a399-g.jpg,,
22020981,Perspectives on Free and Open Source Software  ,,,,Joseph Feller,2005,,MIT Press,,571,0,English ,,,2011 12 30,"0262062461,9780262062466",,,,,005.36,QA76.76.S46 P47 2005,,C0Z30r8qdpcC,OL17155493M,,0,,,,1,0,1,1,2047214,pdf,0FD370DB21B91C207AFF1F787FA0A8F7,,,_478614.0fd370db21b91c207aff1f787fa0a8f7.pdf,0,2000-01-01 01:00:00,2016-04-03 02:51:08,726000/0fd370db21b91c207aff1f787fa0a8f7-d.jpg,,
22020982,"Architecture: Form, Space, and Order, 3rd Edition  ",,,,Francis D. K. Ching,2007,3rd,Wiley,"Hoboken, N.J",451,0,English ,,,2011 12 30,"0471752169,978-0-471-75216-5,9781118004838,9781118433003,1118433009,9781118433034,1118433033,9781118433041,1118433041",,,,,,,,,OL17248615M,,0,,,,,1,,1,53661294,pdf,0FD39D356227C07D51476D5337BF5ADA,,,_433092.0fd39d356227c07d51476d5337bf5ada.pdf,0,2000-01-01 01:00:00,2016-04-03 02:51:08,726000/0fd39d356227c07d51476d5337bf5ada-d.jpg,,
22020983,Investigación y Ciencia 3 -DICIEMBRE 1976  ,,,,Francisco Gracia Guillen,1976,,"Prensa Cientifica, S.A.",,123,0,"Spanish,Castilian",,,2011 12 30,,0210136X,,,,,,,,,,0,,,,0,1,0,0,49601086,pdf,0FD39FC8D8E84C6F0FC7E62CCD1429A7,,,_456689.0fd39fc8d8e84c6f0fc7e62ccd1429a7.pdf,0,2000-01-01 01:00:00,2016-04-03 02:51:08,726000/0fd39fc8d8e84c6f0fc7e62ccd1429a7-g.jpg,,
22020984,"Zakim and Boyer's Hepatology: A Textbook of Liver Disease, 6th Edition  ",,,,"Thomas D. Boyer MD, Michael P. Manns MD, Arun J. Sanyal MD",2011,6Th Edition,Saunders,,1330,0,English ,,,2011 12 30,"1437708811,9781437708813",,,,,616.3/62,RC845 .H46 2012,,,OL24906569M,,0,,,,1,0,1,1,117850088,pdf,0FD4048BDDB82E02CB78B231F7D2ED75,,,_505608.0fd4048bddb82e02cb78b231f7d2ed75.pdf,0,2000-01-01 01:00:00,2016-04-03 02:51:08,726000/0fd4048bddb82e02cb78b231f7d2ed75-d.jpg,,
22020985,Countering Development: Indigenous Modernity and the Moral Imagination  ,,,,David D. Gow,2008,,Duke University Press Books,,307,0,English ,,,2011 12 30,"0822341719,9780822341710",,,,,307.1/41208998086153,F2269.1.C375 G69 2008,,,OL16905599M,,0,,,,0,1,0,1,16116013,pdf,0FDC1C129D8113F63E23F317C60F9B68,,,_478044.0fdc1c129d8113f63e23f317c60f9b68.pdf,0,2000-01-01 01:00:00,2016-04-03 02:51:08,726000/0fdc1c129d8113f63e23f317c60f9b68-d.jpg,,
22020986,Movies in American History: An Encyclopedia  ,,,,Philip C. DiMare,2011,,ABC-CLIO,,1297,0,English ,,,2011 12 30,"159884296X,9781598842968,9781598842975",,,,,791.430973/03,PN1993.5.U6 M68 2011,,0qUJ-JuSPdQC,OL24809192M,,0,,,,1,0,1,1,17034970,pdf,0FDCEA70DC457DC7F2B8853E15B3EE24,,,_474789.0fdcea70dc457dc7f2b8853e15b3ee24.pdf,0,2000-01-01 01:00:00,2016-04-03 02:51:08,726000/0fdcea70dc457dc7f2b8853e15b3ee24-d.jpg,,
22020987,Das Idealpaar  ,,,,Leonhard Thoma,2011,,Hueber,,94,0,German ,,,2011 12 30,"3190117233,9783190117239",,,,,,,,,,,0,,,,0,0,1,1,460104,pdf,0FDD0AD9B37497FD671C7D8D36EBCA7E,,,_462050.0fdd0ad9b37497fd671c7d8d36ebca7e.pdf,0,2000-01-01 01:00:00,2016-04-03 02:51:08,726000/0fdd0ad9b37497fd671c7d8d36ebca7e-d.jpg,,
22020988,Pocket Guide and Toolkit to DeJong's Neurologic Examination (Pocket Guide & Toolkit)  ,,,,William W. Campbell,2007,1st,Lippincott Williams & Wilkins,,400,0,English ,,,2011 12 30,"0781773598,9780781773591",,,,,616.8/0475,RC348 .C353 2008,,,OL11007123M,,0,,,,0,1,1,1,36278547,chm,0FDD710E044196EED7DD36AD5863B04E,,,_456528.0fdd710e044196eed7dd36ad5863b04e.chm,0,2000-01-01 01:00:00,2016-04-03 02:51:08,726000/0fdd710e044196eed7dd36ad5863b04e-d.jpg,,
22020989,Lexicon to Pindar  ,,,,William J. Slater,1969,,Walter de Gruyter,,575,0,English ,,,2011 12 30,"3110025620,9783110025620",,,,,,,,,,,0,,,,0,1,0,0,23085641,pdf,0FDF21652D76B4D8FCDDE5CEAB26EFB2,,,_512189.0fdf21652d76b4d8fcdde5ceab26efb2.pdf,0,2000-01-01 01:00:00,2016-04-03 02:51:08,726000/0fdf21652d76b4d8fcdde5ceab26efb2-d.jpg,,
22020990,,,,"The Biblical Archaeologist - Vol.39, N.1 ",American Schools of Oriental Research,1976,,American Schools of Oriental Research,,43,0,English ,,,2011 12 30,,0006-0895,,,,,,,,,,0,,,,1,1,1,1,13156997,pdf,0FDF6F93A67882A212F719F8C1732893,,,_505898.0fdf6f93a67882a212f719f8c1732893.pdf,0,2000-01-01 01:00:00,2016-04-03 02:51:08,726000/0fdf6f93a67882a212f719f8c1732893-g.jpg,,
22020991,Biology of Brassica Coenospecies,,Developments in Plant Genetics and Breeding 4,,César Gómez-Campo (Eds.),1999,1,Elsevier Science,,3-489,0,English ,,,2011 12 30,"0444502785,9780444502780",0168-7972,,,,,,,,OL16988242M,,0,,,,,1,1,1,28275273,pdf,0FE0B78D947D68845B5A6F93D25C9FDF,,,_441060.0fe0b78d947d68845b5a6f93d25c9fdf.pdf,0,2000-01-01 01:00:00,2016-04-03 02:51:08,726000/0fe0b78d947d68845b5a6f93d25c9fdf-d.jpg,,
22020992,The clan corporate  ,,,,Charles Stross,2006,First Edition,Tor Books,,,0,English ,,,2011 12 30,"0765309300,9780765309303",,,,,813/.6,PR6119.T79 C63 2006,,k_xpewAACAAJ,OL3418166M,,0,,,,,1,,,323912,epub,0FE0B97ADF4CA416F0BAEE306B34A653,,,_488706.0fe0b97adf4ca416f0baee306b34a653.epub,0,2000-01-01 01:00:00,2016-04-03 02:51:08,726000/0fe0b97adf4ca416f0baee306b34a653-d.jpg,,
22020993,"Stukas Over the Mediterranean, 1940-1945  ",,Luftwaffe at War 11,,Peter C. Smith,1999,,Greenhill Books,,74,0,English ,,,2011 12 30,1853673765,,,,,940.54/4943,D787 .S598 1999,,,OL42302M,,0,,,,0,1,1,0,38059781,pdf,0FE10622C7B54004486925AAF9EFF37C,,,_499927.0fe10622c7b54004486925aaf9eff37c.pdf,0,2000-01-01 01:00:00,2016-04-03 02:51:08,726000/0fe10622c7b54004486925aaf9eff37c-d.jpg,,
22020994,Introduction to Clinical Skills: A Patient-Centered Textbook  ,,,,"Mark B. Mengel, Scott A. Fields",1997,1st,Springer,,607,0,English ,,,2011 12 30,"0306453509,9780306453502,9780585353852",,,,,610,RC46 .I55 1997,,wXmrDEd9V2wC,OL1000518M,,0,,,,0,0,1,1,2927784,pdf,0FE142EE8E0FF949269245D668D5861F,,,_456425.0fe142ee8e0ff949269245d668d5861f.pdf,0,2000-01-01 01:00:00,2016-04-03 02:51:08,726000/0fe142ee8e0ff949269245d668d5861f-d.jpg,,
22020995,חינוך כמיקוח חברתי  ,,,,יצחק קשתי ומרגלית יוסיפון,1985,,הקיבוץ המאוחד,,122,0,Hebrew,,,2011 12 30,,,,,,,,,,,,0,,,,0,1,0,0,18205162,pdf,0FE17CCD84A2EFEDE0A9AC7CCE38602D,,,_479136.0fe17ccd84a2efede0a9ac7cce38602d.pdf,0,2000-01-01 01:00:00,2016-04-03 02:51:08,726000/0fe17ccd84a2efede0a9ac7cce38602d-g.jpg,,
22020996,The Path of Least Resistance for Managers  ,,,,Robert Fritz,2011,2nd,Newfane Press,,,0,English ,,,2011 12 30,"0972553665,9780972553667",,,,,,,,,,,0,,,,,0,1,1,1061677,epub,0FE2392702D28AAC0BDDE6BFB3962658,,,_504812.0fe2392702d28aac0bdde6bfb3962658.epub,0,2000-01-01 01:00:00,2016-04-03 02:51:08,726000/0fe2392702d28aac0bdde6bfb3962658-d.jpg,,
22020997,Hear the Wind Sing  ,,,,Haruki Murakami,2005,,Kodansha,,,0,English ,,,2011 12 30,"4061860267,9784061860261",,,,,,,,,OL15303524M,,0,,,,0,0,0,1,399902,mobi,0FE290BD23A2D27A2D883F15AF84B8B4,,,_512024.0fe290bd23a2d27a2d883f15af84b8b4.mobi,0,2000-01-01 01:00:00,2016-04-03 02:51:08,726000/0FE290BD23A2D27A2D883F15AF84B8B4-g.jpg,,
22020998,Mechanics of Brittle Fracture  ,,,,G. P. Cherepanov,,,Mcgraw-Hill College,,950,0,English ,,,2011 12 30,"0070107394,9780070107397",,,,,620.1/126,TA409 .C4313,,,OL22340584M,,0,,,,,1,,1,7275589,djvu,0FE2D1B1B414D40751FD8FA4D7ADE688,,,_144441.0fe2d1b1b414d40751fd8fa4d7ade688.djvu,0,2000-01-01 01:00:00,2016-04-03 02:51:08,726000/0fe2d1b1b414d40751fd8fa4d7ade688-g.jpg,,
22020999,The Undermining of Austria-Hungary: The Battle for Hearts and Minds  ,,,,Mark Cornwall,2000,,Palgrave Macmillan,,502,0,English ,,,2011 12 30,"0312231512,9780312231514,033380452X,9780333804520",,,,,940.4/887436,D639.P7 A93 2000,,A5RlQgAACAAJ,OL52404M,,0,,,,1,0,1,1,3734904,pdf,0FE3BF4228A91EBF29C0CCDE8A7B476F,,,_494514.0fe3bf4228a91ebf29c0ccde8a7b476f.pdf,0,2000-01-01 01:00:00,2016-04-03 02:51:08,726000/0fe3bf4228a91ebf29c0ccde8a7b476f-d.jpg,,
22021000,"Theory and Practice of Group Counseling , Eighth Edition  ",,,,Gerald Corey,2011,8,Cengage Learning,,546,0,English ,,,2011 12 30,"0840033869,9780840033864",,,,,616.89152,,,,OL25024675M,,0,,,,,1,1,1,7819214,pdf,0FE3DD9374B06E02E7C8C4A53C9792F2,,,_504445.0fe3dd9374b06e02e7c8c4a53c9792f2.pdf,0,2000-01-01 01:00:00,2016-04-03 02:51:08,726000/0fe3dd9374b06e02e7c8c4a53c9792f2-d.jpg,,
22021001,Podstawy projektowania procesów technologicznych typowych części maszyn  ,,,,Mieczysław Feld,2003,,Wydawnictwa Naukowo-Techniczne,,347,0,Polish ,,,2011 12 30,"8320428416,9788320428414",,,,,,,,,,,0,,,,,1,,0,162228333,pdf,0FE3F849A2592D01E94AC5C84149B0E5,,,_435856.0fe3f849a2592d01e94ac5c84149b0e5.pdf,0,2000-01-01 01:00:00,2016-04-03 02:51:08,726000/0fe3f849a2592d01e94ac5c84149b0e5-g.jpg,,
22021002,The Language of the Kharoṣṭhi Documents from Chinese Turkestan  ,,,,T. Burrow,1937,,Cambridge University Press,,147,0,English ,,,2011 12 30,,,,,,,PK1207 .B8,,9X5jAAAAMAAJ,,,0,,,,0,1,0,0,3859254,pdf,0FE400E429C515462AE61CA32D4ED6FA,,,_506439.0fe400e429c515462ae61ca32d4ed6fa.pdf,0,2000-01-01 01:00:00,2016-04-03 02:51:08,726000/0fe400e429c515462ae61ca32d4ed6fa-g.jpg,,
22021003,"Enter, mysterious stranger: American cloistral fiction  ",,,,Roy R. Male,1979,1st,University of Oklahoma Press,,,0,English ,,,2011 12 30,"0806115440,9780806115443",,,,,813/.01,PS374.O94 M3,,l3twQgAACAAJ,OL4403291M,,0,,,,,1,,,247785,epub,0FE45910D37E36589DAF45C8C858F3A5,,,_472469.0fe45910d37e36589daf45c8c858f3a5.epub,0,2000-01-01 01:00:00,2016-04-03 02:51:08,726000/0FE45910D37E36589DAF45C8C858F3A5-g.jpg,,
22021004,PHP Game Programming  ,,,,Matt Rutledge,2004,1,Course PTR,,377,0,English ,92,,2011 12 30,"159200153X,9781592001538",,,,,,,,GcK4U91lj3wC,OL8859460M,,0,,,,1,0,1,1,3252816,pdf,0FE4B62B39DA5AF8DF895930AAB107EE,,,_435599.0fe4b62b39da5af8df895930aab107ee.pdf,0,2000-01-01 01:00:00,2016-04-03 02:51:08,726000/0fe4b62b39da5af8df895930aab107ee-d.jpg,,
22021005,Handbook of Fluorescence Spectroscopy and Imaging: From Ensemble to Single Molecules  ,,,,"Markus Sauer, Johan Hofkens, Jörg Enderlein",2011,1,Wiley-VCH,,288,0,English ,,,2011 12 30,"3527316698,9783527316694",,,,,,,,,,,0,,,,,1,,1,4854481,pdf,0FE4C1367CD4541EB68628D3F67E1A3B,,,_460224.0fe4c1367cd4541eb68628d3f67e1a3b.pdf,0,2000-01-01 01:00:00,2016-04-03 02:51:08,726000/0fe4c1367cd4541eb68628d3f67e1a3b-d.jpg,,
22021006,Flow Injection Analysis: A Practical Guide,,Techniques and Instrumentation in Analytical Chemistry 10,,Bo Karlberg and Gil E. Pacey (Eds.),1989,,Elsevier Science,,"iii-xii, 1-372",0,English ,,,2011 12 30,"0444880143,9780444880147",0167-9244,,,,543.08,QD79.I5,,,OL21438505M,,0,,,,,1,0,0,31797679,pdf,0FE5BF89F28A2A514ED02CFA972C607F,,,_455451.0fe5bf89f28a2a514ed02cfa972c607f.pdf,0,2000-01-01 01:00:00,2016-04-03 02:51:08,726000/0fe5bf89f28a2a514ed02cfa972c607f-d.jpg,,
22021007,"Essentials of Psychiatric Mental Health Nursing: Concepts of Care in Evidence-Based Practice, 5th Edition  ",,,,Mary Townsend,2010,5th Edition,F.A. Davis Company,,862,0,English ,,,2011 12 30,"0803623380,9780803623385",,,,,616.89/0231,RC440 .T689 2011,,sNZISAAACAAJ,OL24804043M,,0,,,,1,0,1,1,20184177,pdf,0FE5C58553A601F9099BFFDFCF7C05CF,,,_504031.0fe5c58553a601f9099bffdfcf7c05cf.pdf,0,2000-01-01 01:00:00,2016-04-03 02:51:08,726000/0fe5c58553a601f9099bffdfcf7c05cf-d.jpg,,
22021008,Walking in Pimlico  ,,,,Ann Featherstone,2009,,John Murray Publishers Ltd,,,0,English ,,,2011 12 30,"1848541724,9781848541726",,,,,,,,,,,0,,,,,1,,,443012,epub,0FE7403F71559D7BB74274DF9D902EBD,,,_453175.0fe7403f71559d7bb74274df9d902ebd.epub,0,2000-01-01 01:00:00,2016-04-03 02:51:08,726000/0fe7403f71559d7bb74274df9d902ebd-d.jpg,,
22021009,Being and Knowing - Studies in Thomas Aquinas and Later Medieval Philosophers (Papers in Mediaeval Studies)  ,,,,Armand A. Maurer,1990,,PIMS,,489,0,English ,,,2011 12 30,"0888448104,9780888448101",,,,,189/.4,B721 .M36 1990,,,OL1964208M,,0,,,,0,1,1,1,12389415,pdf,0FE8B45B7892B8535BEB4B4E9E0E3B4D,,,_493749.0fe8b45b7892b8535beb4b4e9e0e3b4d.pdf,0,2000-01-01 01:00:00,2016-04-03 02:51:08,726000/0fe8b45b7892b8535beb4b4e9e0e3b4d-g.jpg,,
22021010,Discurso de metafísica e outros textos  ,,,,Gottfried Wilhelm Leibniz (trad. Marilena Chaui e outros),2004,,,,98,0,Portuguese ,,,2011 12 30,8533619782,,,,,,,,,,,0,,,,1,0,1,1,1176265,pdf,0FEC31D0E0C6DA0E7A398BD7EEE2FD7D,,,_467453.0fec31d0e0c6da0e7a398bd7eee2fd7d.pdf,0,2000-01-01 01:00:00,2016-04-03 02:51:08,726000/0fec31d0e0c6da0e7a398bd7eee2fd7d-g.jpg,,
22021011,Physical Properties and Applications of Polymer Nanocomposites (Woodhead Publishing in Materials)  ,,,,"Sie Chin Tjong, Yu-Wing Mai",2010,,Woodhead Publishing,,939,0,English ,,,2011 12 30,"1845696727,9781845696726",,,,,,,,,,,0,,,,,1,1,1,44489805,pdf,0FEE2129A595A417DEF303B07EDD002B,,,_507095.0fee2129a595a417def303b07edd002b.pdf,0,2000-01-01 01:00:00,2016-04-03 02:51:08,726000/0fee2129a595a417def303b07edd002b-d.jpg,,
22021012,"Lexical Change and Variation in the Southeastern United States, 1930-1990  ",,,,Ellen Johnson,1996,,University of Alabama Press,,367,0,English ,,,2011 12 30,"081730794X,9780817307943,9780585178264",,,,,427/.975,PE2924 .J64 1996,,,OL795935M,,0,,,,1,0,1,1,1120045,pdf,0FEE32A8C3E1AEE0D03277D2C47EBA40,,,_447242.0fee32a8c3e1aee0d03277d2c47eba40.pdf,0,2000-01-01 01:00:00,2016-04-03 02:51:08,726000/0fee32a8c3e1aee0d03277d2c47eba40-d.jpg,,
22021013,Urban Social Geography: an introduction (5th Edition)  ,,,,"Paul Knox, Steven Pinch",2006,5,Prentice Hall,"Harlow, Essex ; New York",392,0,English ,,,2011 12 30,"0131249444,978-0-13-124944-8,9781405898430,1405898437",,,,,307.76,HT151 .K57  2006,,,OL3431112M,,0,,,,0,0,0,1,14969240,pdf,0FEE63C4C5DD483946D796CC3638410B,,,_463033.0fee63c4c5dd483946d796cc3638410b.pdf,0,2000-01-01 01:00:00,2016-04-03 02:51:08,726000/0fee63c4c5dd483946d796cc3638410b-d.jpg,,
22021014,Guns N' Roses: The Photographic History  ,,,,Robert John,1993,1st,Bulfinch Pr,,176,0,English ,,,2011 12 30,"0316466956,9780316466950",,,,,"782.42166/092/2,B",ML421.G86 J6 1993,,,OL1740066M,,0,,,,,1,,1,35478070,pdf,0FEE917AF48873605799E5366F63FA1A,,,_487161.0fee917af48873605799e5366f63fa1a.pdf,0,2000-01-01 01:00:00,2016-04-03 02:51:08,726000/0fee917af48873605799e5366f63fa1a-d.jpg,,
22021015,"Dynamics, ergodic theory, and geometry  ",,Mathematical Sciences Research Institute Publications 54,,Boris Hasselblatt,2007,,Cambridge University Press,,335,0,English ,,,2011 12 30,"0521875412,9780521875417,0511342853,9780511342851",,,,,515/.39,QA614.8 .D946 2007,,sG9ILSmza74C,OL10438099M,,0,,,,1,0,1,1,2718319,pdf,0FF004C0999273200B302F3878A8484A,,,_476346.0ff004c0999273200b302f3878a8484a.pdf,0,2000-01-01 01:00:00,2016-04-03 02:51:08,726000/0ff004c0999273200b302f3878a8484a-d.jpg,,
22021016,API 2H Specification for Carbon Manganese Steel Plate for Offshore Platform Tubular Joints  ,,,,American Petroleum Institute,2000,Eighth Edition,American Petroleum Institute,,21,0,English ,,,2011 12 30,,,,,,,,,,,,0,,,,1,1,0,1,169307,pdf,0FF04BEB7437B59951CC9591B387EB06,,,_455237.0ff04beb7437b59951cc9591b387eb06.pdf,0,2000-01-01 01:00:00,2016-04-03 02:51:08,726000/0ff04beb7437b59951cc9591b387eb06-g.jpg,,
22021017,Die Seele der Wüste (Roman)  ,,,,Jane Johnson,2010,,Page & Turner,,,0,German ,,,2011 12 30,"3442203449,9783442203444,9783641048730",,,,,,,,,,,0,,,,,0,0,1,628467,epub,0FF096D5EB159F469A966A636AD30BE3,,,_479773.0ff096d5eb159f469a966a636ad30be3.epub,0,2000-01-01 01:00:00,2016-04-03 02:51:08,726000/0ff096d5eb159f469a966a636ad30be3-d.jpg,,
22021018,The Changing Economic Environment in Asia: Firms' Strategies in the Region  ,,,,Jean-Pascal Bassino and Jaques Jaussaud,2001,,Palgrave Macmillan,,224,0,English ,,,2011 12 30,"0333964373,9780333964378",,,,,,,,,OL10559516M,,0,,,,1,0,1,1,2684179,pdf,0FF28843E9B4B0EC4321035BD4A01887,,,_463438.0ff28843e9b4b0ec4321035bd4a01887.pdf,0,2000-01-01 01:00:00,2016-04-03 02:51:08,726000/0ff28843e9b4b0ec4321035bd4a01887-d.jpg,,
22021019,The Dark Wife  ,,,,Sarah Diemer,2011,,CreateSpace,,264,0,English ,,,2011 12 30,"1461179939,9781461179931",,,,,,,,,,,0,,,,0,0,1,1,301592,mobi,0FF31363D4543F9A9EBA3A474E4934AF,,,_465042.0ff31363d4543f9a9eba3a474e4934af.mobi,0,2000-01-01 01:00:00,2016-04-03 02:51:08,726000/0ff31363d4543f9a9eba3a474e4934af-d.jpg,,
22021020,"Eustathii Archiepiscopi Thessalonicensis Commentarii ad Homeri Odysseam, vol. 2  ",,,,Eustathius,2010,,Cambridge University Press,,340,0,Greek(Modern),,,2011 12 30,"1108016537,9781108016537",,,,,,,,,,,0,,,,,1,0,1,36965972,pdf,0FF50F85F82DE0A682F3E80B3CBB628A,,,_464209.0ff50f85f82de0a682f3e80b3cbb628a.pdf,0,2000-01-01 01:00:00,2016-04-03 02:51:08,726000/0ff50f85f82de0a682f3e80b3cbb628a-d.jpg,,
22021021,Sustainable Energy Systems and Applications  ,,,,"İbrahim Dinçer, Calin Zamfirescu (auth.)",2012,1,Springer US,,816,0,English,,,2011 12 30,"0387958606,9780387958606",,,,,,,10.1007/978-0-387-95861-3,,,,0,,,,0,0,1,1,20654360,pdf,0FF56A9B971614455499602B81B421DE,,,_492089.0ff56a9b971614455499602b81b421de.pdf,0,2000-01-01 01:00:00,2016-04-03 02:51:08,726000/0ff56a9b971614455499602b81b421de-d.jpg,,
22021022,,,,"The Biblical Archaeologist - Vol.56, N.4 ",American Schools of Oriental Research,1993,,American Schools of Oriental Research,,68,0,English ,,,2011 12 30,,0006-0895,,,,,,,,,,0,,,,1,1,1,1,17459139,pdf,0FF80A707900315734A30F1B312BF6E0,,,_495711.0ff80a707900315734a30f1b312bf6e0.pdf,0,2000-01-01 01:00:00,2016-04-03 02:51:08,726000/0ff80a707900315734a30f1b312bf6e0-g.jpg,,
22021023,Aristotle's Poetics : A Course of Eight Lectures  ,,,,Humphry House,,,,,142,0,English ,,,2011 12 30,,,,,,,,,,,,0,,,,,1,,1,5303608,pdf,0FF86AE2FFD06AE0846D4742E200DF56,,,_465699.0ff86ae2ffd06ae0846d4742e200df56.pdf,0,2000-01-01 01:00:00,2016-04-03 02:51:08,726000/0ff86ae2ffd06ae0846d4742e200df56-g.jpg,,
22021024,Plant Cell Electroporation And Electrofusion Protocols (Methods in Molecular Biology Vol 48)  ,,Methods in Molecular Biology Vol 48,,Jac A. Nickoloff,1995,1,Humana Press,,196,0,English ,,,2011 12 30,"0896033287,9780896033283",,,,,581.87/328,QK981.5 .P55 1995,,,OL1269247M,,0,,,,,1,,1,7662974,pdf,0FFA0F4AD56D5288BFDF41753DB4FA42,,,_432580.0ffa0f4ad56d5288bfdf41753db4fa42.pdf,0,2000-01-01 01:00:00,2016-04-03 02:51:08,726000/0ffa0f4ad56d5288bfdf41753db4fa42-d.jpg,,
22021025,Act of Will (Tor Fantasy)  ,,,,A.J. Hartley,2010,Reprint,Tor Fantasy,,,0,English ,,,2011 12 30,"0765360888,9780765360885",,,,,,,,,OL24084580M,,0,,,,,1,,,462647,epub,0FFA29ED1D5DF9A546B3B0EC50B80E59,,,_484473.0ffa29ed1d5df9a546b3b0ec50b80e59.epub,0,2000-01-01 01:00:00,2016-04-03 02:51:08,726000/0ffa29ed1d5df9a546b3b0ec50b80e59-d.jpg,,
22021026,Jake Ransom and the Skull King's Shadow  ,,,,James Rollins,2009,2nd,HarperCollins,,,0,English ,,,2011 12 30,"0061473790,9780061473791",,,,,,,,,OL23207670M,,0,,,,,1,,,2701860,mobi,0FFA858BD2FBFBE4942F0EB109695B10,,,_485366.0ffa858bd2fbfbe4942f0eb109695b10.mobi,0,2000-01-01 01:00:00,2016-04-03 02:51:08,726000/0ffa858bd2fbfbe4942f0eb109695b10-d.jpg,,
22021027,Eagle Strike (Alex Rider Adventure)  ,,,,Anthony Horowitz,2007,1,Puffin,,,0,English ,,,2011 12 30,"0399239790,9780399239793",,,,,823.914,,,,OL3675850M,,0,,,,0,0,0,1,300639,mobi,0FFE298306FC7571BB9026F5F31D351C,,,_502560.0ffe298306fc7571bb9026f5f31d351c.mobi,0,2000-01-01 01:00:00,2016-04-03 02:51:08,726000/0ffe298306fc7571bb9026f5f31d351c-d.jpg,,
22021028,Fairy Bad Day  ,,,,Amanda Ashby,2011,Original,Speak,,,0,English ,,,2011 12 30,"0142412597,9780142412596",,,,,,,,,OL25092394M,,0,,,,,0,1,1,391730,epub,100053A3E5668BD02F551844008849AB,,,_477964.100053a3e5668bd02f551844008849ab.epub,0,2000-01-01 01:00:00,2016-04-03 02:51:08,726000/100053a3e5668bd02f551844008849ab-d.jpg,,
22021029,Star Wars and Philosophy: More Powerful than You Can Possibly Imagine (Popular Culture and Philosophy)  ,,,,"Kevin S. Decker, Jason T. Eberl, William Irwin",2005,,Open Court,,239,0,English ,,,2011 12 30,"0812695836,9780812695830",,,,,791.43/684,PN1995.9.S695 S76 2005,,,OL3392780M,,0,,,,0,1,0,1,1498884,pdf,10023A13612CA33C36B4765A5F31B07F,,,_494948.10023a13612ca33c36b4765a5f31b07f.pdf,0,2000-01-01 01:00:00,2016-04-03 02:51:08,726000/10023a13612ca33c36b4765a5f31b07f-d.jpg,,
22021030,Probability and Statistics (2nd Edition)  ,,,,Morris H. deGroot,1986,2nd,Addison Wesley Publishing Company,,736,0,English ,,,2011 12 30,"020111366X,9780201113662",,,,,519.2,QA273 .D35 1986,,,OL2844257M,,0,,,,1,1,1,1,32003127,pdf,10028DCEF894D5DFFC4F89D2B76A1DDD,,,_493287.10028dcef894d5dffc4f89d2b76a1ddd.pdf,0,2000-01-01 01:00:00,2016-04-03 02:51:08,726000/10028dcef894d5dffc4f89d2b76a1ddd-d.jpg,,
22021031,Fuzzy Sets and Fuzzy Logic: Theory and Applications,,,,"George J. Klir, Bo Yuan",1995,,Prentice Hall,,591,0,English,134,,2011 12 30,"0131011715,9780131011717",,,,,511.3,QA248 .K487 1995,,,,,600,,,,1,1,1,1,15869284,pdf,1003349E3DB477DCFC2D4E5CE0BC8B8F,,,_512036.1003349e3db477dcfc2d4e5ce0bc8b8f.pdf,0,2000-01-01 01:00:00,2016-04-03 02:51:08,726000/1003349e3db477dcfc2d4e5ce0bc8b8f-d.jpg,,
22021032,Sichere Webanwendungen mit PHP  ,,,,Tobias Wassermann,2007,,mitp Verlag,,465,0,German ,92,,2011 12 30,"3826617541,9783826617546",,,,,,,,,,,0,,,,1,0,1,1,2048890,pdf,1003468C2CEDDADF0E05CBE4EA5E9145,,,_454754.1003468c2ceddadf0e05cbe4ea5e9145.pdf,0,2000-01-01 01:00:00,2016-04-03 02:51:08,726000/1003468c2ceddadf0e05cbe4ea5e9145-d.jpg,,
22021033,The Forgotten Founding Father: Noah Webster's Obsession and the Creation of an American Culture  ,,,,Joshua C. Kendall,2011,"1st edition,",Penguin Group USA,,704,0,English ,,,2011 12 30,"0399156992,9780399156991",,,,,"423.092,B",PE64.W5 K46 2010,,gOFYHKYcNYcC,OL24580870M,,0,,,,,1,,1,1981632,mobi,1003A7225276624AE4A6B52E7EC23BEC,,,_462210.1003a7225276624ae4a6b52e7ec23bec.mobi,0,2000-01-01 01:00:00,2016-04-03 02:51:08,726000/1003a7225276624ae4a6b52e7ec23bec-d.jpg,,
22021034,Διαλεχτά Έργα (Τόμος Δεύτερος)  ,,,,Καρλ Μάρξ και Φρίντριχ Ένγκελς,,,,,629,0,Greek(Modern),,,2011 12 30,,,,,,,,,,,,600,,,,0,1,1,0,7747144,djvu,1003AC2C1D1EBF7C84EB3635F51698EB,67e69f5dc65552b47bbbe763ab265930,no,_451682.1003ac2c1d1ebf7c84eb3635f51698eb.djvu,0,2000-01-01 01:00:00,2016-04-03 02:51:08,726000/1003ac2c1d1ebf7c84eb3635f51698eb-g.jpg,,
22021035,Paris: city guide  ,,,,"Steve Fallon, Nicola Williams",2008,7th,Lonely Planet,,,0,English ,,,2011 12 30,"1740598504,9781740598507",,,,,,,,OtabdzMdbboC,,,0,,,,,1,,,51843379,epub,1004F77404BF2A554C94B542DA422F88,,,_468220.1004f77404bf2a554c94b542da422f88.epub,0,2000-01-01 01:00:00,2016-04-03 02:51:08,726000/1004f77404bf2a554c94b542da422f88-d.jpg,,
22021036,Surviving Sexual Violence: A Guide to Recovery and Empowerment  ,,,,Thema Bryant-Davis,2011,,Rowman & Littlefield Publishers,,383,0,English ,,,2011 12 30,"144220639X,9781442206397,9781442206410",,,,,362.88,RC560.S44 S87 2011,,hZVxdn_Y0t0C,OL25185795M,,0,,,,1,0,1,1,1346394,pdf,1007FBD887F6B4161B60D8D8A26E4A1E,,,_480286.1007fbd887f6b4161b60d8d8a26e4a1e.pdf,0,2000-01-01 01:00:00,2016-04-03 02:51:08,726000/1007fbd887f6b4161b60d8d8a26e4a1e-d.jpg,,
22021037,Social Capital and Peace-Building: Creating and Resolving Conflict with Trust and Social Networks  ,,Routledge Studies in Peace and Conflict Resolution,,Michaelene Cox,2008,1,Routledge,,206,0,English ,,,2011 12 30,"0415776589,9780415776585,0203887832,9780203887837",,,,,303.6/9,HM708 .S6357 2009,,,OL16865135M,,0,,,,1,1,,1,1881853,pdf,10092CA3BF5C461EAB4D744901554E15,,,_489518.10092ca3bf5c461eab4d744901554e15.pdf,0,2000-01-01 01:00:00,2016-04-03 02:51:08,726000/10092ca3bf5c461eab4d744901554e15-d.jpg,,
22021038,The Mysteries of Mythra,,,,Franz Cumont,1903,,The Open Court Publishing Company,,274,0,English,,,2011 12 30,,,,,,,,,,,,0,,,,0,1,,1,20589111,pdf,1009788E35E359B62A89AB369960F877,,,_438198.1009788e35e359b62a89ab369960f877.pdf,0,2000-01-01 01:00:00,2016-04-03 02:51:08,726000/1009788e35e359b62a89ab369960f877-g.jpg,,
22021039,The Forgotten Man: A New History of the Great Depression  ,,,,Amity Shlaes,2007,,Harper Perennial,,,0,English ,,,2011 12 30,9780061807213,,,,,,,,,OL24254177M,,0,,,,,1,1,,1921594,epub,1009DE732046F39ADEED0AFCC12A5140,,,_445155.1009de732046f39adeed0afcc12a5140.epub,0,2000-01-01 01:00:00,2016-04-03 02:51:08,726000/1009DE732046F39ADEED0AFCC12A5140-g.jpg,,
22021040,Factory girls: from village to city in a changing China  ,,,,Leslie T. Chang,2008,1st Ed.,Spiegel & Grau,,473,0,English ,,,2011 12 30,"0385520174,9780385520171",,,,,331.40951,HD9734.C55 C53 2008,,Cv9OYSIzw70C,OL16701627M,,0,,,,,1,,1,1737863,pdf,100AC0F0A954143FDCEB1232C241020D,,,_438027.100ac0f0a954143fdceb1232c241020d.pdf,0,2000-01-01 01:00:00,2016-04-03 02:51:08,726000/100ac0f0a954143fdceb1232c241020d-d.jpg,,
22021041,The Christian Understanding of God Today (Studies in Theology)  ,,,,James M. Byrne (ed.),1993,,Columba Press,,174,0,English ,,,2011 12 30,"1856070875,9781856070874",,,,,231,BT98 .C49 1993,,,OL1155824M,,0,,,,,1,,0,11139108,pdf,100AE6EE046E47F2DB52BC33D47F2256,,,_448459.100ae6ee046e47f2db52bc33d47f2256.pdf,0,2000-01-01 01:00:00,2016-04-03 02:51:08,726000/100ae6ee046e47f2db52bc33d47f2256-g.jpg,,
22021042,Collective Soul (Guitar Anthology)  ,,,,Collective Soul,2000,,Warner Brothers Publications,,110,0,English ,,,2011 12 30,,,,,,,,,,,,0,,,,,1,1,0,13662164,pdf,100B10291908DECA04E5738789DE4F59,,,_450778.100b10291908deca04e5738789de4f59.pdf,0,2000-01-01 01:00:00,2016-04-03 02:51:08,726000/100b10291908deca04e5738789de4f59-g.jpg,,
22021043,Inventive Wizard George Westinghouse  ,,,,I. E. Levine,1963,,Julian Messner Inc,,187,0,English ,,,2011 12 30,,,,,,,,,,,,0,,,,,1,0,1,9708260,pdf,1011658967FE9CF0F27C6CE4699B895D,,,_494872.1011658967fe9cf0f27c6ce4699b895d.pdf,0,2000-01-01 01:00:00,2016-04-03 02:51:08,726000/1011658967fe9cf0f27c6ce4699b895d-g.jpg,,
22021044,Building Websites with HTML5 to Work with Mobile Phones  ,,,,Matthew David,2011,,Focal Press,,,0,English ,92,,2011 12 30,"0240819063,9780240819068",,,,,,,,ZYKAJk7zhB8C,,,0,,,,,1,1,1,1475659,epub,1011900B153992FA74D68B3D550EAE02,,,_467240.1011900b153992fa74d68b3d550eae02.epub,0,2000-01-01 01:00:00,2016-04-03 02:51:08,726000/1011900B153992FA74D68B3D550EAE02-g.jpg,,
22021045,Understanding American Sports: In Culture and Society  ,,,,"Gerald R. Gems, Gertrud Pfister",2009,1,Taylor & Francis,London ; New York,451,0,English ,,,2011 12 30,"0415443644,9780415443647",,,,,306.4/83,GV706.5 .G45 2009,,kaHyGSmywdcC,OL10206873M,,0,,,,0,0,0,1,5004384,pdf,1011A200FD39610A5F03A31C373C1C82,,,_469281.1011a200fd39610a5f03a31c373c1c82.pdf,0,2000-01-01 01:00:00,2016-04-03 02:51:08,726000/1011a200fd39610a5f03a31c373c1c82-d.jpg,,
22021046,Global Competition Between and Within Standards: The Case of Mobile Phones  ,,,,Jeffrey L. Funk,2002,,Palgrave Macmillan,,312,0,English ,,,2011 12 30,"033397039X,9780333970393",,,,,,,,,OL9652756M,,0,,,,1,0,1,1,2901398,pdf,1011F35AE9CE0771E4C3472E9F437B58,,,_463424.1011f35ae9ce0771e4c3472e9f437b58.pdf,0,2000-01-01 01:00:00,2016-04-03 02:51:08,726000/1011f35ae9ce0771e4c3472e9f437b58-d.jpg,,
22021047,George W. Bush: A Biography (Greenwood Biographies)  ,,Greenwood Biographies,,Clarke Rountree,2010,,Greenwood,,230,0,English ,,,2011 12 30,"0313385009,9780313385001,9780313385018",,,,,,,,,,,0,,,,1,0,1,1,1459100,pdf,10121CDD92FDD76F86A39725DACE2F32,,,_460900.10121cdd92fdd76f86a39725dace2f32.pdf,0,2000-01-01 01:00:00,2016-04-03 02:51:08,726000/10121cdd92fdd76f86a39725dace2f32-d.jpg,,
22021048,"Advances in Cryptology - ASIACRYPT'98: International Conference on the Theory and Application of Cryptology and Information Security, Beijing, China, ... (Lecture Notes in Computer Science)  ",,Lecture Notes in Computer Science 1514,,"Kazuo Ohta, Dingyi Pei",1998,1,Springer,,446,0,English ,,,2011 12 30,"3540651098,9783540651093",,,,,005.8,QA76.9.A25 I5553 1998,10.1007/3-540-49649-1,,OL375695M,,0,,,,1,1,1,1,4635393,pdf,101247991CDEB134955E1979574CFDCD,,,_489499.101247991cdeb134955e1979574cfdcd.pdf,0,2000-01-01 01:00:00,2016-04-03 02:51:08,726000/101247991cdeb134955e1979574cfdcd-d.jpg,,
22021049,(5 العطایا النبویہ فی الفتاویٰ الرضویہ (جلد  ,,,,اعلیٰ حضرت، مجدد دین و ملت الشاہ امام احمد رضا خان قادری بریلوی علیہ الرحمہ,,,"Raza Foundation, Jamia Nizamia Razvia (AlaHazratNetwork)",,687,0,Urdu ,,,2011 12 30,,,,,,,,,,,,0,,,,,1,0,0,56454150,pdf,1012C2C0AA87D8FCB54A1C2C9C3ED87F,,,_431234.1012c2c0aa87d8fcb54a1c2c9c3ed87f.pdf,0,2000-01-01 01:00:00,2016-04-03 02:51:08,726000/1012c2c0aa87d8fcb54a1c2c9c3ed87f-g.jpg,,
22021050,"Program Development in Java: Abstraction, Specification, and Object-Oriented Design  ",,,,"Barbara Liskov, John Guttag",2000,1,Addison-Wesley Professional,,226,0,English ,92,,2011 12 30,"0201657686,9780201657685",,,,,,,,,OL18140655M,,0,,,,0,1,0,0,25502259,pdf,10144670B90F2CD2BF93C20173ABB486,,,_431530.10144670b90f2cd2bf93c20173abb486.pdf,0,2000-01-01 01:00:00,2016-04-03 02:51:08,726000/10144670b90f2cd2bf93c20173abb486-d.jpg,,
22021051,Eifel-Liebe: Der elfte Eifel-Krimi mit Siggi Baumeister  ,,,,Jacques Berndorf,2002,,Grafit Verlag,,,0,German ,,,2011 12 30,"3894252707,9783894252700,9783894258153",,,,,,,,,,,0,,,,,0,1,1,309358,epub,101730CCAB7DA9AFD1C1753EC86E47FB,,,_498596.101730ccab7da9afd1c1753ec86e47fb.epub,0,2000-01-01 01:00:00,2016-04-03 02:51:08,726000/101730ccab7da9afd1c1753ec86e47fb-d.jpg,,
22021052,Jewish Americans and Political Participation: A Reference Handbook (Political Participation in America)  ,,Political Participation in America,,Rafael Medoff,2002,,ABC-CLIO,,388,0,English ,,,2011 12 30,"1576073149,9781576073148",,,,,,,,,OL8746836M,,0,,,,1,0,1,1,1133373,pdf,101AD285DBAA99ABE64B9695E7C5E730,,,_510117.101ad285dbaa99abe64b9695e7c5e730.pdf,0,2000-01-01 01:00:00,2016-04-03 02:51:08,726000/101ad285dbaa99abe64b9695e7c5e730-d.jpg,,
22021053,Josephine  ,,,,Beverly Jenkins,2009,Original,Kimani Press,,,0,English ,,,2011 12 30,"0373831250,9780373831258",,,,,,,,IaHJmgIQJZcC,,,0,,,,,1,,,919390,mobi,101B2EFC93043801FA33BA4C3673F124,,,_466026.101b2efc93043801fa33ba4c3673f124.mobi,0,2000-01-01 01:00:00,2016-04-03 02:51:08,726000/101b2efc93043801fa33ba4c3673f124-d.jpg,,
22021054,Glaucoma: Science and Practice  ,,,,"John C. Morrison, Irvin P. Pollack",2002,1,Thieme,,546,0,English ,,,2011 12 30,"0865779155,9780865779150",,,,,,,,,OL11052132M,,0,,,,1,1,1,1,20283385,pdf,101F2F1FB0862DD55096C8E09608EF4B,,,_477333.101f2f1fb0862dd55096c8e09608ef4b.pdf,0,2000-01-01 01:00:00,2016-04-03 02:51:08,726000/101f2f1fb0862dd55096c8e09608ef4b-d.jpg,,
22021055,Der Weltstaat  ,,,,Ernst Jünger,1960,1960,Klett-Cotta,,37,0,German ,,,2011 12 30,"3129044302,9783129044308",,,,,,,,,OL12669966M,,0,,,,,1,1,1,20114220,pdf,101FA8ED859B9153008578B62A447F27,,,_471716.101fa8ed859b9153008578b62a447f27.pdf,0,2000-01-01 01:00:00,2016-04-03 02:51:08,726000/101fa8ed859b9153008578b62a447f27-g.jpg,,
22021056,Camino Walk  ,,,,Marie-Laure Valandro,2007,,Lindisfarne Books,,,0,English ,,,2011 12 30,"1584200529,9781584200529",,,,,263/.0424611,BL73.V345 A3 2007,,vNLWGAAACAAJ,OL12312238M,,0,,,,,0,1,1,3115131,epub,101FBC53066403F0414AA20F868AD6DC,,,_476161.101fbc53066403f0414aa20f868ad6dc.epub,0,2000-01-01 01:00:00,2016-04-03 02:51:08,726000/101fbc53066403f0414aa20f868ad6dc-d.jpg,,
22021057,Essentials of reservoir engineering  ,,,,Pierre Donnez,2007,,Editions Ophrys,,410,0,English ,,,2011 12 30,"2710808927,9782710808923",,,,,,,,,OL22853750M,,0,,,,,1,1,1,18859826,pdf,101FC15906F221F068E66FC22924CB5E,,,_449228.101fc15906f221f068e66fc22924cb5e.pdf,0,2000-01-01 01:00:00,2016-04-03 02:51:08,726000/101fc15906f221f068e66fc22924cb5e-d.jpg,,
22021058,Nez Perce 1877: The Last Fight (Campaign 231)  ,,,,"Robert Forczyk, Peter Dennis",2011,,Osprey Publishing,,97,0,English ,,,2011 12 30,"1849081913,9781849081917,9781849081924",,,,,979.5004/974124,E83.877 .F67 2011,,,OL24838321M,,0,,,,,1,0,1,40996211,pdf,10216A521A81AA3508A99D33935A7D9E,,,_434656.10216a521a81aa3508a99d33935a7d9e.pdf,0,2000-01-01 01:00:00,2016-04-03 02:51:08,726000/10216a521a81aa3508a99d33935a7d9e-d.jpg,,
22021059,Cinnabar Shadows (Dark Sun Chronicles of Athas)  ,,,,Lynn Abbey,1995,,TSR Hobbies,,89,0,English ,,,2011 12 30,"0786901810,9780786901814",,,,,,,,,OL8143756M,,0,,,,,1,,1,775032,pdf,102170DDD1EC45169D3E8D86B7C53A6C,,,_441441.102170ddd1ec45169d3e8d86b7c53a6c.pdf,0,2000-01-01 01:00:00,2016-04-03 02:51:08,726000/102170ddd1ec45169d3e8d86b7c53a6c-d.jpg,,
22021060,For Your Eyes Only  ,,James Bond Novels,,Ian Fleming,2003,,Penguin (Non-Classics),,,0,English ,,,2011 12 30,"0142003220,9780142003220",,,,,823/.914,PR6056.L4 F6 2003,,,OL3682290M,,0,,,,0,0,0,1,286188,mobi,1021B235B2B078ADF5A21DD1465B7B94,,,_502479.1021b235b2b078adf5a21dd1465b7b94.mobi,0,2000-01-01 01:00:00,2016-04-03 02:51:08,726000/1021b235b2b078adf5a21dd1465b7b94-d.jpg,,
22021061,"Memories of Ice (The Malazan Book of the Fallen, Book 3)  ",,The Malazan Book of the Fallen Book 3,,Steven Erikson,2006,,Tor Fantasy,,,0,English ,,,2011 12 30,"0765348802,9780765348807",,,,,823.92,,,,OL8054063M,,0,,,,0,0,1,1,2232047,mobi,10229AD08BABCAFF364C4D979EE72A3C,,,_505996.10229ad08babcaff364c4d979ee72a3c.mobi,0,2000-01-01 01:00:00,2016-04-03 02:51:08,726000/10229ad08babcaff364c4d979ee72a3c-d.jpg,,
22021062,Allende's Chile and the Inter-American Cold War,,The New Cold War History,,Tanya Harmer,2011,,The University of North Carolina Press,,384,0,English,,,2011 12 30,"0807834955,9780807834954",,,,,980.03,F1414.2 .H317 2011,,2RFHJ1ZBmmAC,,,0,,,,,0,1,1,735164,epub,1022B801C78F4DDACCCA8A6D44F48183,,,_512718.1022b801c78f4ddaccca8a6d44f48183.epub,0,2000-01-01 01:00:00,2016-04-03 02:51:08,726000/1022b801c78f4ddaccca8a6d44f48183-d.jpg,,
22021063,Abstract Inference (Probability & Mathematical Statistics)  ,,,,Ulf Grenander,1981,,John Wiley & Sons Inc,,535,0,English ,,,2011 12 30,"0471082678,9780471082675",,,,,519.5,QA276 .G729,,ng2oAAAAIAAJ,OL4107250M,,300,,,,0,1,0,1,3015484,djvu,1022E0D7A8B8E73BE94507CC11113B61,,,_433576.1022e0d7a8b8e73be94507cc11113b61.djvu,0,2000-01-01 01:00:00,2016-04-03 02:51:08,726000/1022e0d7a8b8e73be94507cc11113b61-g.jpg,,
22021064,"Fundamentals of Fourier Transform Infrared Spectroscopy, Second Edition  ",,,,Brian C. Smith,2011,2,CRC Press,,198,0,English ,,,2011 12 30,"1420069292,9781420069297",,,,,,,,,OL11817144M,,0,,,,1,0,1,1,3779490,pdf,10231C95E761F87902C1CA7D74F6A0CC,,,_476924.10231c95e761f87902c1ca7d74f6a0cc.pdf,0,2000-01-01 01:00:00,2016-04-03 02:51:08,726000/10231c95e761f87902c1ca7d74f6a0cc-d.jpg,,
22021065,"Vlad, tome 5 : Taïga  ",,,,"Griffo, Yves Swolfs",2003,,Le Lombard,,49,0,French ,,,2011 12 30,"2803618796,9782803618798",,,,,,,,,OL12608619M,,0,,,,1,1,0,0,18745159,pdf,102628DB01BA009F1A1A570C13411446,,,_485518.102628db01ba009f1a1a570c13411446.pdf,0,2000-01-01 01:00:00,2016-04-03 02:51:08,726000/102628db01ba009f1a1a570c13411446-d.jpg,,
22021066,E-Z Algebra  ,,,,Douglas Downing,2009,5.0,Barron's Educational Series,,484,0,English ,,,2011 12 30,"0764142577,9780764142574",,,,,,,,,,,0,,,,1,0,1,1,6099753,pdf,1026F5295895D466D2D4AB31E421A179,,,_484030.1026f5295895d466d2d4ab31e421a179.pdf,0,2000-01-01 01:00:00,2016-04-03 02:51:08,726000/1026f5295895d466d2d4ab31e421a179-d.jpg,,
22021067,Blindsight  ,,,,Peter Watts,2010,,Tor Books,,,0,English ,,,2011 12 30,,,ISBN10:B003K15EKM,,,,,,,,,0,,,,,1,,,336935,epub,10271F1C11411A9AD0368B6A34956209,,,_510930.10271f1c11411a9ad0368b6a34956209.epub,0,2000-01-01 01:00:00,2016-04-03 02:51:08,726000/10271F1C11411A9AD0368B6A34956209-g.jpg,,
22021068,The Science and Business of Drug Discovery: Demystifying the Jargon  ,,,,Edward D. Zanders (auth.),2011,1,Springer US,,397,0,English,,,2011 12 30,"1441999019,9781441999016",,,,,,,10.1007/978-1-4419-9902-3,5NySnn2otA4C,,,0,,,,1,0,1,1,6950328,pdf,10295BB79F134A3295F7E5FBFA993BAF,,,_439112.10295bb79f134a3295f7e5fbfa993baf.pdf,0,2000-01-01 01:00:00,2016-04-03 02:51:08,726000/10295bb79f134a3295f7e5fbfa993baf-d.jpg,,
22021069,Design Driven Innovation: Changing the Rules of Competition by Radically Innovating What Things Mean  ,,,,Roberto Verganti,2009,,Harvard Business Press,,,0,English ,,,2011 12 30,"1422124827,9781422124826",,,,,658.5/14,HC79.T4 .V465 2009,,,OL22696479M,,0,,,,,0,1,1,1488044,epub,102A1C2B499EEAD36B1E15186F16EE52,,,_478595.102a1c2b499eead36b1e15186f16ee52.epub,0,2000-01-01 01:00:00,2016-04-03 02:51:08,726000/102a1c2b499eead36b1e15186f16ee52-d.jpg,,
22021070,Building Type Basics for Healthcare Facilities  ,,,,"Richard L. Kobus, Ronald L. Skaggs, Michael Bobrow, Julia Thomas, Thomas M. Payette, Stephen A. Kliment",2008,2,Wiley,,292,0,English ,,,2011 12 30,"0470135417,9780470135419",,,,,725/.51,RA967 .H434 2008,,,OL10279811M,,0,,,,,1,,0,17403225,pdf,102BFA9A393E161F08E48CB28AB71EC9,,,_459544.102bfa9a393e161f08e48cb28ab71ec9.pdf,0,2000-01-01 01:00:00,2016-04-03 02:51:08,726000/102bfa9a393e161f08e48cb28ab71ec9-d.jpg,,
22021071,"Play It Again, Sam: Retakes on Remakes  ",,,,"Andrew Horton, Stuart Y. McDougal, Leo Braudy",1998,1,University of California Press,,296,0,English ,,,2011 12 30,"0520205936,9780520205932",,,,,791.43/75,PN1995.9.R45 P58 1998,,,OL655152M,,0,,,,,1,,1,5865052,pdf,102C3D9AFBA2118F4ADB8C421E287B14,,,_500527.102c3d9afba2118f4adb8c421e287b14.pdf,0,2000-01-01 01:00:00,2016-04-03 02:51:08,726000/102c3d9afba2118f4adb8c421e287b14-d.jpg,,
22021072,Большой современный русско-монгольский - монгольско-русский словарь  ,,,,Кручкин Ю.,2006,,AST,,927,0,Russian ,322,,2011 12 30,"5170397720,9785478003654",,,,,,,,,,,0,,,,,1,,0,25508989,pdf,102D3324D7AC28649759D38641542642,,,_433785.102d3324d7ac28649759d38641542642.pdf,0,2000-01-01 01:00:00,2016-04-03 02:51:08,726000/102d3324d7ac28649759d38641542642-g.jpg,,
22021073,,,,"The Biblical Archaeologist - Vol.34, N.3 ",American Schools of Oriental Research,1971,,American Schools of Oriental Research,,24,0,English ,,,2011 12 30,,0006-0895,,,,,,,,,,0,,,,1,1,1,1,2840070,pdf,102D9A9C45590395F8936BEA30B1403A,,,_506419.102d9a9c45590395f8936bea30b1403a.pdf,0,2000-01-01 01:00:00,2016-04-03 02:51:08,726000/102d9a9c45590395f8936bea30b1403a-g.jpg,,
22021074,"White Sand, Wild Sea  ",,,,Diana Palmer (as Diana Blayne),1983,,Dell Publishing,,93,0,English ,,,2011 12 30,"0440196272,9780440196273",,,,,,,,,OL7518390M,,0,,,,0,0,0,1,388358,pdf,102DA10DFC11C3468F3D0EEEB86B7FC3,,,_439916.102da10dfc11c3468f3d0eeeb86b7fc3.pdf,0,2000-01-01 01:00:00,2016-04-03 02:51:08,726000/102da10dfc11c3468f3d0eeeb86b7fc3-d.jpg,,
22021075,Märchenhaft GEIL - Männer sind Frösche No.1  ,,,,"Emerson Marie Parker, Owen Benjamin Parker",2010,,Chichili Agency,,,0,German ,,,2011 12 30,9783939209324,,ISBN10:B004W2N036,,,,,,,,,0,,,,,0,1,1,78254,epub,102E09362C1C1E9BF9D028904F6119F6,,,_439529.102e09362c1c1e9bf9d028904f6119f6.epub,0,2000-01-01 01:00:00,2016-04-03 02:51:08,726000/102E09362C1C1E9BF9D028904F6119F6-g.jpg,,
22021076,Crossing Confessional Boundaries: The Patronage of Italian Sacred Music in Seventeenth-Century Dresden  ,,,,Mary E. Frandsen,2006,,Oxford University Press,,530,0,English ,,,2011 12 30,"0195178319,9780195178319",,,,,781.87/00943/214209032,ML3029.8.D7 F73 2006,,MYlt19lUsDEC,OL22731317M,,0,,,,1,0,1,1,2840184,pdf,102F0668FBEDCD1B08B3E27C69B5639D,,,_476367.102f0668fbedcd1b08b3e27c69b5639d.pdf,0,2000-01-01 01:00:00,2016-04-03 02:51:08,726000/102f0668fbedcd1b08b3e27c69b5639d-d.jpg,,
22021077,Intelligent Engineering Systems and Computational Cybernetics  ,,,,"J. A. Tenreiro Machado, Béla Pátkai, Imre J. Rudas",2009,1,Springer,,437,0,English ,,,2011 12 30,"1402086776,978-1-4020-8677-9,978-1-4020-8678-6,1402086784",,,,,,,,AZ8cwjSqIv8C,,,0,,,,,1,,1,22982362,pdf,10321F598C7830D43628B1F764006B9F,,,_469390.10321f598c7830d43628b1f764006b9f.pdf,0,2000-01-01 01:00:00,2016-04-03 02:51:08,726000/10321f598c7830d43628b1f764006b9f-d.jpg,,
22021078,Arrested Development and Philosophy: They've Made a Huge Mistake  ,,,,"William Irwin, Kristopher G. Phillips, J. Jeremy Wisnewski",2011,1,John Wiley and Sons,,,0,English ,,,2011 12 30,"047057559X,9780470575598",,,,,791.45/72,PN1992.77.A785 A77 2012,,,OL25046686M,,0,,,,,1,,,328469,epub,10323F6E545DDBF39CE122D7100D49D9,,,_512813.10323f6e545ddbf39ce122d7100d49d9.epub,0,2000-01-01 01:00:00,2016-04-03 02:51:08,726000/10323f6e545ddbf39ce122d7100d49d9-d.jpg,,
22021079,Modal logic: an introduction to its syntax and semantics,,,,"Nino B. Cocchiarella, Max A. Freund",2008,First Edition,Oxford University Press,,282,0,English,,,2011 12 30,"0195366573,9780195366570,0195366581,9780195366587",,,,,160,BC199.M6 C63 2008,,,,,0,,,,0,0,0,1,22073221,pdf,1032F0251AE5D432F1FD5441DD92AA9C,e68e22c472e71f387d35784fbf9c18d6,no,_491835.1032f0251ae5d432f1fd5441dd92aa9c.pdf,0,2000-01-01 01:00:00,2016-04-03 02:51:08,726000/1032f0251ae5d432f1fd5441dd92aa9c-d.jpg,,
22021080,"Statistics for experimenters: design, innovation, and discovery  ",,,,"George E. P. Box, J. Stuart Hunter, William Gordon Hunter",2005,2nd,Wiley,,655,0,English ,,,2011 12 30,"0471718130,9780471718130",,,,,519.5,QA279 .B69 2005,,,OL3311833M,,0,,,,1,1,0,1,180239962,pdf,10339E8E36637AD56C70AA5D1F3D4E80,,,_513050.10339e8e36637ad56c70aa5d1f3d4e80.pdf,0,2000-01-01 01:00:00,2016-04-03 02:51:08,726000/10339e8e36637ad56c70aa5d1f3d4e80-d.jpg,,
22021081,"Vergil und die Helenaszene. Mit einem Exkurs zu den Halbversen (Bibliothek der klassischen Altertumswissenschaften 2. Reihe, Band 90)  ",,Bibliothek der klassischen Altertumswissenschaften 90 (2. Reihe),,Thomas Berres,1992,,Carl Winter Universitätsverlag,,272,0,German ,,,2011 12 30,"3533045749,9783533045748",,,,,873/.01,PA6825 .B47 1992,,TJJfAAAAMAAJ,OL1516712M,,0,,,,1,1,1,1,11208145,pdf,1033B3B40227164AE3F4300506B2DF10,,,_496896.1033b3b40227164ae3f4300506b2df10.pdf,0,2000-01-01 01:00:00,2016-04-03 02:51:08,726000/1033b3b40227164ae3f4300506b2df10-g.jpg,,
22021082,"Utility Maximization, Choice and Preference, 2nd Edition  ",,Studies in Economic Theory 16,,"Fuad Aleskerov, Denis Bouyssou, Bernard Monjardet",2007,2,Springer,,296,0,English ,,,2011 12 30,"354034182X,9783540341826",,,,,,,,lmkViSB6t9wC,,,0,,,,1,0,1,1,4389030,pdf,1034DB4D521632BBC92C2E527C72A8EF,,,_453202.1034db4d521632bbc92c2e527c72a8ef.pdf,0,2000-01-01 01:00:00,2016-04-03 02:51:08,726000/1034db4d521632bbc92c2e527c72a8ef-d.jpg,,
22021083,In Plain Sight  ,,Joe Pickett 6,,C. J. Box,2009,,Berkley Pub Group,,,0,English ,,,2011 12 30,9781440679490,,,,,,,,,OL24246489M,,0,,,,0,0,1,1,508307,epub,10361AAABEE2A06FE62E8435EF2E358C,,,_468428.10361aaabee2a06fe62e8435ef2e358c.epub,0,2000-01-01 01:00:00,2016-04-03 02:51:08,726000/10361AAABEE2A06FE62E8435EF2E358C-g.jpg,,
22021084,Atmosphere-Ocean Dynamics,,International Geophysics,,Adrian E. Gill,1983,,Academic Press,Burlington,681,0,English ,,,2011 12 30,"0-12-283520-4,9780122835209,9780080570525,0-12-283522-0,0080570526,9780122835223",0074-6142,,,,,,,,OL9410192M,,300,,,,0,1,0,1,36396698,pdf,1038EDDC000FBA1D71B4CD1A5DBBBBC5,,,_458753.1038eddc000fba1d71b4cd1a5dbbbbc5.pdf,0,2000-01-01 01:00:00,2016-04-03 02:51:08,726000/1038eddc000fba1d71b4cd1a5dbbbbc5-g.jpg,,
22021085,The unseen queen  ,,,,Troy Denning,2005,First Edition,Ballantine Books,,,0,English ,,,2011 12 30,"034546303X,9780345463036",,,,,813/.54,PS3554.E5345 U57 2005,,sc5FfA09IRAC,OL24651004M,,0,,,,,1,,,921635,epub,10397F74B349DD83786899889ACB5E8D,,,_498159.10397f74b349dd83786899889acb5e8d.epub,0,2000-01-01 01:00:00,2016-04-03 02:51:08,726000/10397f74b349dd83786899889acb5e8d-d.jpg,,
22021086,"Dictionnaire méthodique de l'architecture grecque et romaine, Tome I: Matériaux, techniques de construction techniques et formes du décor  ",,,,Rene Ginouves,1985,,French & European Pubns,,373,0,French ,,,2011 12 30,"0785979778,9780785979777",,,,,,,,,,,0,,,,,1,1,1,48223383,pdf,103A4CC5A48DC16A64E7D5A4D9AB4623,,,_480976.103a4cc5a48dc16a64e7d5a4d9ab4623.pdf,0,2000-01-01 01:00:00,2016-04-03 02:51:08,726000/103a4cc5a48dc16a64e7d5a4d9ab4623-g.jpg,,
22021087,Danger!  ,,,,DK Publishing,2010,,DK Publishing,,189,0,English ,,,2011 12 30,"0756667399,9780756667399",,,,,,,,,OL24366981M,,0,,,,0,0,0,1,116935693,pdf,103C532472ADD65520D5710BE1259F5B,,,_489092.103c532472add65520d5710be1259f5b.pdf,0,2000-01-01 01:00:00,2016-04-03 02:51:08,726000/103c532472add65520d5710be1259f5b-d.jpg,,
22021088,"Elements of Language, Grade 6 Developmental Language Skills: Holt Elements of Language Introductory Course (Eolang 2009)  ",,,,"Judith L. Irwin, Lee Odell, Richard Vacca, Renee Hobbs, John Warriner",2009,,Holt McDougal,,169,0,English ,,,2011 12 30,"0030991951,9780030991950",,,,,,,,,,,0,,,,,1,,1,14238290,pdf,103D9A29630A4BA6FDC3202162C242D4,,,_478763.103d9a29630a4ba6fdc3202162c242d4.pdf,0,2000-01-01 01:00:00,2016-04-03 02:51:08,726000/103d9a29630a4ba6fdc3202162c242d4-d.jpg,,
22021089,The physiological mechanics of piano technique: An experimental study of the nature of muscular action as used in piano playing and of the effects thereof upon the piano key and the piano tone  ,,,,Otto Ortmann,1929,,Paul Kegan,,482,0,English ,,,2011 12 30,,,ISBN10:B000M3VHFC;ISBN10:B0007DPM3K,,,,,,,,,0,,,,,1,,1,284646336,pdf,1040C4FCA153D5FE59F22A11767493E9,,,_441731.1040c4fca153d5fe59f22a11767493e9.pdf,0,2000-01-01 01:00:00,2016-04-03 02:51:08,726000/1040c4fca153d5fe59f22a11767493e9-g.jpg,,
22021090,Outrage  ,,,,ARNALDUR INDRIÐASON,2011,First Edition,Harvill Secker,,,0,English ,,,2011 12 30,"9781846555503,9781846554230,9781409041429",,,,,,,,,,,0,,,,,1,,,287251,epub,104118F81F5FFB23A23EB2CB04393AD9,,,_501780.104118f81f5ffb23a23eb2cb04393ad9.epub,0,2000-01-01 01:00:00,2016-04-03 02:51:08,726000/104118f81f5ffb23a23eb2cb04393ad9-d.jpg,,
22021091,Urban Regeneration in the UK: Theory and Practice  ,,,,"Phil Jones, James Evans",2008,,Sage Publications Ltd,,201,0,English ,,,2011 12 30,"1412934907,9781412934909",,,,,307.34160941,HT178.G7 J66 2008,,,OL23078025M,,0,,,,0,0,0,1,8556649,pdf,10411AD09359BF1E993FC900D6DA38BE,,,_466333.10411ad09359bf1e993fc900d6da38be.pdf,0,2000-01-01 01:00:00,2016-04-03 02:51:08,726000/10411ad09359bf1e993fc900d6da38be-d.jpg,,
22021092,The Principle of Sustainability  ,,,,Klaus Bosselmann,2008,,Ashgate,,253,0,English ,,,2011 12 30,"0754673553,9780754673552",,,,,344.04/6,K3478 .B67 2008,,,OL16774234M,,0,,,,,1,1,1,1086636,pdf,104137641AA4C0D0B8A842FD5E1C0CC2,,,_462601.104137641aa4c0d0b8a842fd5e1c0cc2.pdf,0,2000-01-01 01:00:00,2016-04-03 02:51:08,726000/104137641aa4c0d0b8a842fd5e1c0cc2-d.jpg,,
22021093,Richard Rorty (Philosophy Now)  ,,,,Alan Malachowski,2002,,Acumen,,225,0,English ,,,2011 12 30,"1902683129,1902683137",,,,,191,,,,OL19582391M,,0,,,,,0,1,1,1243956,pdf,104264304E3681C464F82D4D6D3C9667,,,_496544.104264304e3681c464f82d4d6d3c9667.pdf,0,2000-01-01 01:00:00,2016-04-03 02:51:08,726000/104264304e3681c464f82d4d6d3c9667-g.jpg,,
22021094,A Cruel Wind: A Chronicle of the Dread Empire  ,,,,Glen Cook,2006,First Edition,Night Shade Books,,,0,English ,,,2011 12 30,"1597800554,9781597800556",,,,,741.5973,,,yzreAAAACAAJ,OL8895424M,,0,,,,,1,,,845318,epub,1042744A3C257027D0767912EA1E2AE4,,,_498413.1042744a3c257027d0767912ea1e2ae4.epub,0,2000-01-01 01:00:00,2016-04-03 02:51:08,726000/1042744a3c257027d0767912ea1e2ae4-d.jpg,,
22021095,Rain Song  ,,,,Alice J. Wisler,2008,1ST,Bethany House Publishers,,,0,English ,,,2011 12 30,"0764204777,9780764204777",,,,,813/.6,PS3623.I846 R35 2008,,FJ-lw3R6yWEC,OL16944715M,,0,,,,,1,1,1,270576,epub,1042D0BAC35F3F056D0CB7F2EB087B94,,,_492707.1042d0bac35f3f056d0cb7f2eb087b94.epub,0,2000-01-01 01:00:00,2016-04-03 02:51:08,726000/1042d0bac35f3f056d0cb7f2eb087b94-d.jpg,,
22021096,Not By Genes Alone: How Culture Transformed Human Evolution  ,,,,"Peter J. Richerson, Robert Boyd",2005,1,University of Chicago Press,,343,0,English ,,,2011 12 30,"0226712842,9780226712840",,,,,,,,dU-KtEVgK6sC,OL9574519M,,0,,,,1,0,1,1,2585894,pdf,1042F574354A8654DA76DC2056F55D24,,,_453558.1042f574354a8654da76dc2056f55d24.pdf,0,2000-01-01 01:00:00,2016-04-03 02:51:08,726000/1042f574354a8654da76dc2056f55d24-d.jpg,,
22021097,Amazonian Profit Plan: How to average over $10K a month promoting Amazon products  ,,,,Amazonian Profit Plan,,,Amazonian Profit Plan,,74,0,English ,,,2011 12 30,,,,,,,,,,,,0,,,,,0,0,1,3087624,pdf,10435BE828E9E84B7E8930CCDAEDD8CC,,,_487127.10435be828e9e84b7e8930ccdaedd8cc.pdf,0,2000-01-01 01:00:00,2016-04-03 02:51:08,726000/10435be828e9e84b7e8930ccdaedd8cc-g.jpg,,
22021098,Becoming a Teacher: Issues in Secondary Teaching  ,,,,"Justin Dillon, Meg Maguire",2011,4th,Open Univ Press,,418,0,English ,,,2011 12 30,"0335242375,9780335242375,9780335242382",,,,,,,,,,,0,,,,1,0,1,1,1503733,pdf,1044BADAF94926F0DBE081D06694B380,,,_485075.1044badaf94926f0dbe081d06694b380.pdf,0,2000-01-01 01:00:00,2016-04-03 02:51:08,726000/1044badaf94926f0dbe081d06694b380-d.jpg,,
22021099,Diary of a Professional Commodity Trader: Lessons from 21 Weeks of Real Trading  ,,,,Peter L. Brandt,2011,1,Wiley,,359,0,English ,,,2011 12 30,"0470521457,9780470521458",,,,,332.64/4,HG6046 .B66 2011,,KmzxWhqhQgwC,OL25085274M,,0,,,,0,1,0,1,12994070,pdf,10457E4C0276C51EDAB271754D3BBD3C,,,_434995.10457e4c0276c51edab271754d3bbd3c.pdf,0,2000-01-01 01:00:00,2016-04-03 02:51:08,726000/10457e4c0276c51edab271754d3bbd3c-d.jpg,,
22021100,Charter Schools: From Reform Imagery to Reform Reality (Palgrave Studies in Urban Education)  ,,Palgrave Studies in Urban Education,,Jeanne M. Powers,2009,,Palgrave Macmillan,,258,0,English ,,,2011 12 30,"023060627X,9780230606272",,,,,371.01,LB2806.36 .P69 2009,,edq-N-po1QsC,OL22685847M,,0,,,,1,0,1,1,1629691,pdf,1049569EF2793A5BE0D88A20505F75C7,,,_439936.1049569ef2793a5be0d88a20505f75c7.pdf,0,2000-01-01 01:00:00,2016-04-03 02:51:08,726000/1049569ef2793a5be0d88a20505f75c7-d.jpg,,
22021101,"Dialectology As Dialectic: Interpreting Phula Variation (Trends in Linguistics, Studies and Monographs, No. 229)  ",,"Trends in Linguistics, Studies and Monographs 229",,Jamin R. Pelkey,2011,1,De Gruyter Mouton,,533,0,English ,,,2011 12 30,"3110245841,9783110245844,9783110245851",1861-4302,,,,495,PL3311.Y5 P45 2011,,fGoZL4h4qFMC,OL24885215M,,0,,,,1,0,1,1,5181786,pdf,10496CA76C920D5ECD5098CA5E777586,,,_491766.10496ca76c920d5ecd5098ca5e777586.pdf,0,2000-01-01 01:00:00,2016-04-03 02:51:08,726000/10496ca76c920d5ecd5098ca5e777586-d.jpg,,
22021102,הלשון והספר: בעיות יסוד במדע הלשון ובמקורותיה הספרותיים - כרך האמונות והדעות  ,,,,נ.ה. טור־סיני,1955,,מוסד ביאליק,,452,0,Hebrew,,,2011 12 30,,,,,,,,,,,,0,,,,1,1,1,1,6851245,pdf,104A6B2DC2070BF1D5F8E1D9E557DEF4,,,_484500.104a6b2dc2070bf1d5f8e1d9e557def4.pdf,0,2000-01-01 01:00:00,2016-04-03 02:51:08,726000/104a6b2dc2070bf1d5f8e1d9e557def4-g.jpg,,
22021103,Beyond Reasonable Doubt and Probable Cause: Historical Perspectives on the Anglo-American Law of Evidence  ,,,,Barbara J. Shapiro,1993,,University of California Press,,,0,English ,,,2011 12 30,"0520084519,9780520084513",,,,,,,,7UM09OShEb4C,OL7709882M,,0,,,,,1,,,751598,epub,104AB42CA8A385E7E1D349D4E02C45ED,,,_472371.104ab42ca8a385e7e1d349d4e02c45ed.epub,0,2000-01-01 01:00:00,2016-04-03 02:51:08,726000/104ab42ca8a385e7e1d349d4e02c45ed-d.jpg,,
22021104,Differentiating Instruction with Technology in K-5 Classrooms  ,,,,"Grace Smith, Stephanie Throne",2007,,International Society for Technology in Education,,256,0,English ,,,2011 12 30,"1564842339,9781564842336",,,,,371.39/4,LB1031 .S62 2007,,,OL12157677M,,0,,,,1,1,1,1,23999154,pdf,104BF17CF2E6B934069BC16F6644A7EB,,,_457187.104bf17cf2e6b934069bc16f6644a7eb.pdf,0,2000-01-01 01:00:00,2016-04-03 02:51:08,726000/104bf17cf2e6b934069bc16f6644a7eb-d.jpg,,
22021105,"The rational mechanics of flexible or elastic bodies 1638 - 1788: Introduction to Vol. X and XI (Leonhard Euler, Opera Omnia Opera mechanica et astronomica) (Vol 11 2)  ",,,,Clifford Truesdell,1980,1,Birkhäuser Basel,,435,0,English ,,,2011 12 30,"3764314419,9783764314415",,,,,,,,,OL12866280M,,400,,,,,1,1,1,7996188,djvu,104C7A9744B756099E6EB9F3C105525C,,,_433946.104c7a9744b756099e6eb9f3c105525c.djvu,0,2000-01-01 01:00:00,2016-04-03 02:51:08,726000/104c7a9744b756099e6eb9f3c105525c-d.jpg,,
22021106,Permanence  ,,,,Karl Schroeder,2002,,Tor Books,,,0,English ,,,2011 12 30,,,,,,,,,,,,0,,,,,1,1,1,715616,epub,104C7F1FBCD8F732298E6EFF6D8494A7,,,_505300.104c7f1fbcd8f732298e6eff6d8494a7.epub,0,2000-01-01 01:00:00,2016-04-03 02:51:08,726000/104C7F1FBCD8F732298E6EFF6D8494A7-g.jpg,,
22021107,Psychology: Themes and Variations  ,,,,Wayne Weiten,2010,8,Cengage Learning,,750,0,English ,,,2011 12 30,"0495813109,9780495813101,0495811335,9780495811336",,,,,150,,,Wnr7vEjB7NAC,OL24413062M,,0,,,,1,0,1,1,119430343,pdf,104C942A5DEA5DE589AC4E78DB1BD5F3,,,_458221.104c942a5dea5de589ac4e78db1bd5f3.pdf,0,2000-01-01 01:00:00,2016-04-03 02:51:08,726000/104c942a5dea5de589ac4e78db1bd5f3-d.jpg,,
22021108,Trade and finance in ancient Mesopotamia: proceedings of the First MOS Symposium (Leiden 1997)  ,,,,J. G. Dercksen,1999,,Nederlands Historisch-Archaeologisch Instituut te İstanbul,,204,0,English ,,,2011 12 30,"9062580858,9789062580859",,,,,382/.0935,HF389.I72 M67 1997,,,OL12848050M,,0,,,,,1,0,1,11117025,pdf,104CAF5AA9EA8E402F3BB47C44A04684,,,_487752.104caf5aa9ea8e402f3bb47c44a04684.pdf,0,2000-01-01 01:00:00,2016-04-03 02:51:08,726000/104caf5aa9ea8e402f3bb47c44a04684-g.jpg,,
22021109,Science in the Early Years: Building Firm Foundations from Birth to Five  ,,,,"Pat Brunton, Linda Thornton",2009,,Sage Publications Ltd,,201,0,English ,,,2011 12 30,"1848601433,9781848601437,1848601425,9781848601420",,,,,372.35049,LB1139.5.S35 B78 2010,,tG9ED0v8NbAC,OL24049431M,,0,,,,1,0,1,1,2650773,pdf,104DC284F35F7B6569E83F85697931C8,,,_504047.104dc284f35f7b6569e83f85697931c8.pdf,0,2000-01-01 01:00:00,2016-04-03 02:51:08,726000/104dc284f35f7b6569e83f85697931c8-d.jpg,,
22021110,God's Strategy in Human History  ,,,,"Roger Forster, Paul Marston",2001,,Wipf & Stock Publishers,,153,0,English ,,,2011 12 30,"1579102735,9781579102739",,,,,,,,,OL8755895M,,0,,,,,1,,1,23845227,pdf,104E52B7368ABE0F6B179C14FDA815B0,,,_471236.104e52b7368abe0f6b179c14fda815b0.pdf,0,2000-01-01 01:00:00,2016-04-03 02:51:08,726000/104e52b7368abe0f6b179c14fda815b0-d.jpg,,
22021111,Advances in Infrared Photodetectors,,Semiconductors and Semimetals 84,,"Sarath D. Gunapala, David R. Rhiger and Chennupati Jagadish (Eds.)",2011,1,Elsevier Science,,1-367,0,English ,,,2011 12 30,"0123813379,9780123813374",0080-8784,,,,,,,,OL25116343M,,0,,,,1,0,1,1,5343091,pdf,105165ABB29E8EF900CE137ADE3B4215,,,_464900.105165abb29e8ef900ce137ade3b4215.pdf,0,2000-01-01 01:00:00,2016-04-03 02:51:08,726000/105165abb29e8ef900ce137ade3b4215-d.jpg,,
22021112,At the End of the Road  ,,,,Grant Jerkins,2011,,Penguin Group US,,257,0,English ,,,2011 12 30,"1101545623,9781101545621",,,,,,,,,,,0,,,,,1,1,1,270968,epub,10522F1B294700F10E249D27F5581D76,,,_499637.10522f1b294700f10e249d27f5581d76.epub,0,2000-01-01 01:00:00,2016-04-03 02:51:08,726000/10522F1B294700F10E249D27F5581D76-g.jpg,,
22021113,Tokyo  ,,,,Donald Richie,1999,First Edition,Reaktion Books,,145,0,English ,,,2011 12 30,"1861890346,9781861890344",,,,,,,,,OL16955445M,Some images are not available,0,,,,1,0,1,1,468346,pdf,1052B93B624891FE62EBD18B505BDC42,,,_464964.1052b93b624891fe62ebd18b505bdc42.pdf,0,2000-01-01 01:00:00,2016-04-03 02:51:08,726000/1052b93b624891fe62ebd18b505bdc42-d.jpg,,
22021114,Coordinated Multi-Point in Mobile Communications: From Theory to Practice  ,,,,"Patrick Marsch, Gerhard P. Fettweis",2011,1,Cambridge University Press,,508,0,English ,,,2011 12 30,"110700411X,9781107004115",,,,,621.382,TK5103.2 .C666 2011,,hDeUBsdroDQC,OL25109170M,,0,,,,1,0,1,1,5636228,pdf,1052D9849CCC14148AE27410451BA1C9,,,_514106.1052d9849ccc14148ae27410451ba1c9.pdf,0,2000-01-01 01:00:00,2016-04-03 02:51:08,726000/1052d9849ccc14148ae27410451ba1c9-d.jpg,,
22021115,Geometry of State Spaces of Operator Algebras (Mathematics: Theory & Applications)  ,,,,"Erik M. Alfsen, Frederic W. Shultz",2002,1,Birkhäuser Boston,,482,0,English ,,,2011 12 30,"0817643192,9780817643195",,,,,,,,,OL17074434M,,0,,,,0,1,1,1,32514715,pdf,1053946495E5019022C494E40A8543EA,,,_486395.1053946495e5019022c494e40a8543ea.pdf,0,2000-01-01 01:00:00,2016-04-03 02:51:08,726000/1053946495e5019022c494e40a8543ea-d.jpg,,
22021116,L'alchimista  ,,,,Paulo Coelho,1995,Italian language edition,Bompiani,,82,0,Italian ,,,2011 12 30,"8845226573,9788845226571",,,,,,,,,OL16815480M,,0,,,,,1,,1,1082853,pdf,10546F850AC026BDF9AB975C3B8F0278,,,_510991.10546f850ac026bdf9ab975c3b8f0278.pdf,0,2000-01-01 01:00:00,2016-04-03 02:51:08,726000/10546f850ac026bdf9ab975c3b8f0278-d.jpg,,
22021117,A Guide to the Wireless Engineering Body of Knowledge (WEBOK)  ,,,,"G. Giannattasio, IEEE Communications Society",2009,1,John Wiley and Sons,Hoboken,267,0,English ,,,2011 12 30,"0470433663,978-0470-43366-9,9780470439111,0470439114",,,,,,,,ifTpxX7pXLQC,OL23851655M,,0,,,,,1,,1,23297225,pdf,105788C6C07CCA38B9548B6FD4897C6F,,,_469341.105788c6c07cca38b9548b6fd4897c6f.pdf,0,2000-01-01 01:00:00,2016-04-03 02:51:08,726000/105788c6c07cca38b9548b6fd4897c6f-d.jpg,,
22021118,Journal of Biblical Literature 1914-1  ,,,,Journal of Biblical Literature,,,,,99,0,English ,,,2011 12 30,,,,,,,,,,,periodic,0,,,,,1,,1,7771926,pdf,1058822E3DF2F4D550C6E24C16B788E0,,ban,_465093.1058822e3df2f4d550c6e24c16b788e0.pdf,0,2000-01-01 01:00:00,2016-04-03 02:51:08,726000/1058822e3df2f4d550c6e24c16b788e0-g.jpg,,
22021119,Capital & Class. - 1985 - Issue 26  issue 26,,,,Conference of Socialist Economists,1985,,Conference of Socialist Economists,,162,0,English ,,,2011 12 30,,,,,,,,,,,,0,,,,0,1,0,1,8627502,pdf,1059825A0DA467D9893A60C414AC307C,,,_452749.1059825a0da467d9893a60c414ac307c.pdf,0,2000-01-01 01:00:00,2016-04-03 02:51:08,726000/1059825a0da467d9893a60c414ac307c-g.jpg,,
22021120,Leading the Charge: Leadership Lessons from the Battlefield to the Boardroom  ,,,,"Tony Zinni, Tony Koltz",2009,1,Palgrave Macmillan,New York,254,0,English ,,,2011 12 30,"0230612652,978-0-230-61265-5,9780230623798,0230623794",,,,,658.4/092,HD57.7 .Z56 2009,,,OL23698067M,,0,,,,0,1,0,1,1070972,pdf,10599CA945362F216B8542B74CEBF717,,,_448704.10599ca945362f216b8542b74cebf717.pdf,0,2000-01-01 01:00:00,2016-04-03 02:51:08,726000/10599ca945362f216b8542b74cebf717-d.jpg,,
22021121,Research Training for Social Scientists: A Handbook for Postgraduate Researchers  ,,,,Dr Dawn Burton,2000,1,Sage Publications Ltd,,521,0,English ,,,2011 12 30,"0761963510,9780761963516",,,,,300/.7/2,H62 .R4616 2000,,ibePpZ-6lkgC,OL6898722M,,0,,,,,1,,1,20937070,pdf,105AE39BCAB8914342DDE0F1A1BFE175,,,_450507.105ae39bcab8914342dde0f1a1bfe175.pdf,0,2000-01-01 01:00:00,2016-04-03 02:51:08,726000/105ae39bcab8914342dde0f1a1bfe175-d.jpg,,
22021122,"The Cardturner: A Novel About a King, a Queen, and a Joker  ",,,,Louis Sachar,2010,,Delacorte Books for Young Readers,,,0,English ,,,2011 12 30,9780375896477,,,,,,,,,OL23667970M,,0,,,,0,0,1,1,2482884,epub,105B54D1D63C7EA149965F0E4F569AD4,,,_495729.105b54d1d63c7ea149965f0e4f569ad4.epub,0,2000-01-01 01:00:00,2016-04-03 02:51:08,726000/105B54D1D63C7EA149965F0E4F569AD4-g.jpg,,
22021123,The March of Folly: From Troy to Vietnam  ,,,,Barbara W. Tuchman,2011,,Ballantine Books,,464,0,English ,,,2011 12 30,9780307798565,,,,,,,,,,,0,,,,,0,1,1,11694737,epub,105BA8B42E9AB8D8AAAE03737519C830,,,_450909.105ba8b42e9ab8d8aaae03737519c830.epub,0,2000-01-01 01:00:00,2016-04-03 02:51:08,726000/105BA8B42E9AB8D8AAAE03737519C830-g.jpg,,
22021124,"Understanding Teaching and Learning: Classic Texts on Education by Augustine, Aquinas, Newman and Mill  ",,,,"T. Brian Mooney, Mark Nowacki",2011,,Imprint Academic,,276,0,English ,,,2011 12 30,,,,,,,,,,,,0,,,,1,0,1,1,1456122,pdf,105C3441237F2140C3F381D751C45123,,,_476546.105c3441237f2140c3f381d751c45123.pdf,0,2000-01-01 01:00:00,2016-04-03 02:51:08,726000/105c3441237f2140c3f381d751c45123-g.jpg,,
22021125,"Hands-On Physics Experiements, Grades K-2  ",,,,"School Specialty Publishing, Cherie Winner",2004,,Instructional Fair,,82,0,English ,,,2011 12 30,9780742419605,,,,,507.8,,,,OL24315317M,,0,,,,1,0,0,1,1655837,pdf,105CA2E304E87EFADF22510679B1F0AD,,,_502402.105ca2e304e87efadf22510679b1f0ad.pdf,0,2000-01-01 01:00:00,2016-04-03 02:51:08,726000/105ca2e304e87efadf22510679b1f0ad-g.jpg,,
22021126,House and Philosophy: Everybody Lies (The Blackwell Philosophy and Pop Culture Series)  ,,,,Henry Jacoby,2008,,Wiley,,454,0,English ,,,2011 12 30,9780470730201,,,,,,,,,OL24322744M,,0,,,,,1,,1,437411,mobi,105DF561016E4C799F7A7B52CBA6964C,,,_514189.105df561016e4c799f7a7b52cba6964c.mobi,0,2000-01-01 01:00:00,2016-04-03 02:51:08,726000/105DF561016E4C799F7A7B52CBA6964C-g.jpg,,
22021127,Genius Loci - Babylon 5  ,,,,J. Michael Straczynski,,,,,12,0,English ,,,2011 12 30,,,,,,,,,,,,0,,,,,1,,1,32010,pdf,105E37D852E0500E45B2D12984A156EF,,,_447418.105e37d852e0500e45b2d12984a156ef.pdf,0,2000-01-01 01:00:00,2016-04-03 02:51:08,726000/105e37d852e0500e45b2d12984a156ef-g.jpg,,
22021128,"LogoLounge 3: 2,000 International Identities by Leading Designers (v. 3)  ",,,,"Bill Gardner, Catharine Fishel",2006,,Rockport Publishers,,58,0,English ,,,2011 12 30,"1592532381,9781592532384",,,,,,,,,OL8867471M,,0,,,,,1,1,0,38954977,pdf,105E495273946CA95D40BDE72B257D9C,,,_484451.105e495273946ca95d40bde72b257d9c.pdf,0,2000-01-01 01:00:00,2016-04-03 02:51:08,726000/105e495273946ca95d40bde72b257d9c-d.jpg,,
22021129,Enfermeria en Urgencias,Vol 2,,,Leon Roman,2008,1,Editorial Ciencias Medicas,,590,0,"Spanish,Castilian",,,2011 12 30,"978-959-212-300-7,978-959-212-301-4",,,,,,,,,,,0,,,,,1,1,1,4121590,pdf,105EFAF243B26B4F645A76332562BA9F,,,_441637.105efaf243b26b4f645a76332562ba9f.pdf,0,2000-01-01 01:00:00,2016-04-03 02:51:08,726000/105efaf243b26b4f645a76332562ba9f-g.jpg,,
22021130,Lirael (The Abhorsen Trilogy)  ,,Abhorsen Trilogy 2,,Garth Nix,2009,,HarperCollins e-books,,,0,English ,,,2011 12 30,,,ISBN10:B000FC12L4,,,,,,,,,0,,,,,1,,,488411,lit,105FA32600BC0C030604B659CD0C5BC5,,,_443615.105fa32600bc0c030604b659cd0c5bc5.lit,0,2000-01-01 01:00:00,2016-04-03 02:51:08,726000/105FA32600BC0C030604B659CD0C5BC5-g.jpg,,
22021131,Η επιστροφή του Θεού  ,,,,Gilles Kepel,1992,,Εκδοτικός Οίκος Α. Α. Λιβάνη,,331,0,Greek(Modern),,,2011 12 30,960-236-219-7,,,,,,,,,,,0,,,,1,1,1,1,4583474,djvu,105FAEFF7FF70E7ED7E9B84E0C0DAC02,,,_440944.105faeff7ff70e7ed7e9b84e0c0dac02.djvu,0,2000-01-01 01:00:00,2016-04-03 02:51:08,726000/105faeff7ff70e7ed7e9b84e0c0dac02-g.jpg,,
22021132,Basic Econometrics  ,,,,Damodar N. Gujarati,2002,4th,Mcgraw-Hill,,1002,0,English ,,,2011 12 30,"0071123431,9780071123433",,,,,,,,,,,0,,,,,1,1,0,7078426,pdf,105FE01EC07D2B9882C98FB19BFCD9B5,,,_474902.105fe01ec07d2b9882c98fb19bfcd9b5.pdf,0,2000-01-01 01:00:00,2016-04-03 02:51:08,726000/105fe01ec07d2b9882c98fb19bfcd9b5-d.jpg,,
22021133,"Die Eiserne Festung (Nimue Alban, Band 7)  ",,,,David Weber,2011,,Bastei Lübbe Verlag,,,0,German ,,,2011 12 30,"3404202333,9783404202331,9783838705309",,,,,,,,,,,0,,,,,0,0,1,670757,epub,10605C0C00BFE84BE09E84454EE50A78,,,_502338.10605c0c00bfe84be09e84454ee50a78.epub,0,2000-01-01 01:00:00,2016-04-03 02:51:08,726000/10605c0c00bfe84be09e84454ee50a78-d.jpg,,
22021134,Natural Resource and Environmental Economics (3rd Edition)  ,,,,"Roger Perman, Yue Ma, Michael Common, David Maddison, James Mcgilvray",2003,3,Addison Wesley,Harlow [etc.],726,0,English ,,,2011 12 30,"0-273-65559-0,9780273655596,9781405870399,1405870397",,,,,333.7,HC79.E5 P446 2003,,,OL3566252M,,0,,,,0,0,0,1,6387553,pdf,10607BAEFB1103960FB5B18C4FBA1C1B,,,_462986.10607baefb1103960fb5b18c4fba1c1b.pdf,0,2000-01-01 01:00:00,2016-04-03 02:51:08,726000/10607baefb1103960fb5b18c4fba1c1b-d.jpg,,
22021135,Physical Properties of Rocks: A workbook (Handbook of Petroleum Exploration and Production 8)  ,,Handbook of Petroleum Exploration and Production 8,,J.H. Schön,2011,1,Elsevier,,494,0,English ,,,2011 12 30,"0444537961,9780444537966",,,,,,,,ZkFpYNNgGLUC,,,0,,,,1,0,1,1,6327239,pdf,10613100DD043EBC7CB226EF180B7DDE,,,_506835.10613100dd043ebc7cb226ef180b7dde.pdf,0,2000-01-01 01:00:00,2016-04-03 02:51:08,726000/10613100dd043ebc7cb226ef180b7dde-d.jpg,,
22021136,Advanced Free Radical Reactions for Organic Synthesis  ,,,,Hideo Togo,2004,1,Elsevier Science,,271,0,English ,,,2011 12 30,"0080443745,9780080443744",,,,,541/.224,QD471 . T74 2004,,M4JNLKQ0pEEC,OL3326124M,,0,,,,0,0,0,1,2385179,pdf,106162DDAC5756EA33A1AD719C3FAFB5,,,_449770.106162ddac5756ea33a1ad719c3fafb5.pdf,0,2000-01-01 01:00:00,2016-04-03 02:51:08,726000/106162ddac5756ea33a1ad719c3fafb5-d.jpg,,
22021137,"Enlightened Monks: The German Benedictines, 1740-1803  ",,,,Ulrich L. Lehner,2011,,"Oxford University Press, USA",,275,0,English ,,,2011 12 30,"0199595127,9780199595129",,,,,271.1094309033,BX3034 .L454 2011,,B_fdtac_kTgC,OL24924237M,,0,,,,1,0,1,1,1462969,pdf,10628C1AB0FB0BEE49956C092B8B0F5A,,,_479472.10628c1ab0fb0bee49956c092b8b0f5a.pdf,0,2000-01-01 01:00:00,2016-04-03 02:51:08,726000/10628c1ab0fb0bee49956c092b8b0f5a-d.jpg,,
22021138,The Baseball Bibliography volume 1-4 ,,,,Myron J. Smith,2005,Second Edition,McFarland & Co Inc Pub,,1759,0,English ,,,2011 12 30,"0786415312,9780786415311",,,,,016.796357—dc22,Z7514.B3S64 2006,,C9qSSQAACAAJ,,,0,,,,1,0,1,1,15740892,pdf,1063F1467C2781BC314A4E12F34E2BB5,,,_462391.1063f1467c2781bc314a4e12f34e2bb5.pdf,0,2000-01-01 01:00:00,2016-04-03 02:51:08,726000/1063f1467c2781bc314a4e12f34e2bb5-d.jpg,,
22021139,"Multidimensional Signal, Image, and Video Processing and Coding, Second Edition  ",,,,John W. Woods,2011,2,Academic Press,,594,0,English ,,,2011 12 30,"0123814200,9780123814203",,,,,,,10.1016/B978-0-12-381420-3.00001-1,7xpTOYzhseEC,,,0,,,,0,0,1,1,32489398,pdf,1065249078E21C88D4A91FC67592F027,,,_436340.1065249078e21c88d4a91fc67592f027.pdf,0,2000-01-01 01:00:00,2016-04-03 02:51:08,726000/1065249078e21c88d4a91fc67592f027-d.jpg,,
22021140,Climate Change Risks and Food Security in Bangladesh (Earthscan Climate)  ,,Earthscan climate,,"Winston Yu, Mozaharul Alam, Ahmadul Hassan, Abu Saleh Khan, Alex Ruane, Cynthia Rosenzweig, David Major, James Thurlow",2010,,Routledge,"London ; Washington, DC",185,0,English ,,,2011 12 30,"1849711305,978-1-84971-130-2,9781849776387,1849776385",,,,,363.8/2095492,S600.64.B3 C65 2010,,,OL24022970M,,0,,,,0,0,0,1,5622064,pdf,1065BD5680CA3AC5D8FE35EC5D327602,,,_463192.1065bd5680ca3ac5d8fe35ec5d327602.pdf,0,2000-01-01 01:00:00,2016-04-03 02:51:08,726000/1065bd5680ca3ac5d8fe35ec5d327602-d.jpg,,
22021141,Dochter van de duisternis  ,,,,"Andrews, Virginia",,,,,,0,Dutch ,,,2011 12 30,,,,,,,,,,,,0,,,,,1,,,377135,epub,106680D262F1D75AE0FF76966BB247FA,,,_513677.106680d262f1d75ae0ff76966bb247fa.epub,0,2000-01-01 01:00:00,2016-04-03 02:51:08,726000/106680D262F1D75AE0FF76966BB247FA-g.jpg,,
22021142,Healing the Shame That Binds You  ,,,,John Bradshaw,1988,1,HCI,,244,0,English ,,,2011 12 30,"0932194869,9780932194862",,,,,616.85/22 ,RC455.4.S53  B73 1988,,,OL18334847M,,0,,,,1,0,1,1,2093802,pdf,1068EF905BFB180FBF3302156E55BA67,,,_497683.1068ef905bfb180fbf3302156e55ba67.pdf,0,2000-01-01 01:00:00,2016-04-03 02:51:08,726000/1068ef905bfb180fbf3302156e55ba67-d.jpg,,
22021143,Hellas und der Orient: Phasen wechselseitiger Rezeption (Julius-Wellhausen-Vorlesung - Heft 2)  ,,Julius-Wellhausen-Vorlesung 2,,Albrecht Dihle,2009,1,De Gruyter,,65,0,German ,,,2011 12 30,"3110219565,9783110219562",1867-2213,,,,,,,C2RUw4kTUSYC,,,0,,,,1,0,1,1,516119,pdf,10696358C85B5C9DB6B8B4E14C147015,,,_477069.10696358c85b5c9db6b8b4e14c147015.pdf,0,2000-01-01 01:00:00,2016-04-03 02:51:08,726000/10696358c85b5c9db6b8b4e14c147015-d.jpg,,
22021144,The Heart of Christmas  ,,,,"Mary Balogh, Nicola Cornick, Courtney Milan",2009,,HQN Books,,,0,English ,,,2011 12 30,9781426840616,,,,,,,,,OL24318126M,,0,,,,0,0,1,1,844846,epub,1069A10EB7E9A05948375BD44CC26D3F,,,_514243.1069a10eb7e9a05948375bd44cc26d3f.epub,0,2000-01-01 01:00:00,2016-04-03 02:51:08,726000/1069A10EB7E9A05948375BD44CC26D3F-g.jpg,,
22021145,The National Provisioner September 2011  ,,,,Andy Hanacek,,,Business News Publishing Co,,116,0,English ,,,2011 12 30,,,,,,,,,,,,0,,,,1,0,1,1,57280599,pdf,1069BD6006154D4A916A7B12DAAAAE96,,,_510771.1069bd6006154d4a916a7b12daaaae96.pdf,0,2000-01-01 01:00:00,2016-04-03 02:51:08,726000/1069bd6006154d4a916a7b12daaaae96-g.jpg,,
22021146,Tips & traps for remodeling your bathroom  ,,Tips and Traps,,R. Dodge Woodson,2005,1,McGraw-Hill,,242,0,English ,,,2011 12 30,"0071450432,9780071450430,0071469893",,,,,643.52,TH4816.3.B37 W66 2005,10.1036/0071469893,WNPxwJ_48kgC,OL3435577M,,0,,,,1,0,1,1,2791863,pdf,1069C7BD1F50850AF0E7F270D92B2766,,,_436414.1069c7bd1f50850af0e7f270d92b2766.pdf,0,2000-01-01 01:00:00,2016-04-03 02:51:08,726000/1069c7bd1f50850af0e7f270d92b2766-d.jpg,,
22021147,Advances in Imaging and Electron Physics,,Advances in Imaging and Electron Physics 160,,Peter W. Hawkes (Eds.),2010,1,Academic Press,,1-296,0,English ,,,2011 12 30,978-0-12-381017-5,1076-5670,,,,,,,,,,0,,,,1,0,1,1,7839479,pdf,106A3729A5EEB37CBFC2648D76C50661,,,_472836.106a3729a5eeb37cbfc2648d76c50661.pdf,0,2000-01-01 01:00:00,2016-04-03 02:51:08,726000/106a3729a5eeb37cbfc2648d76c50661-d.jpg,,
22021148,Habermas: Introduction and Analysis  ,,,,David Ingram,2010,First,Cornell University Press,,380,0,English ,,,2011 12 30,"0801448794,9780801448799",,,,,193,B3258.H234 I55 2010,,,OL24050219M,,0,,,,0,0,1,1,1470088,pdf,106BB8D66D580ADC16A39DE6BFDDA8ED,,,_500325.106bb8d66d580adc16a39de6bfdda8ed.pdf,0,2000-01-01 01:00:00,2016-04-03 02:51:08,726000/106bb8d66d580adc16a39de6bfdda8ed-d.jpg,,
22021149,Magic at the Gate  ,,,,Devon Monk,2010,Original,Penguin Group USA,,,0,English ,,,2011 12 30,"0451463625,9780451463623",,,,,813.6,,,YX57ZkCEJNgC,OL25242377M,,0,,,,,1,,,461268,mobi,106BEAF47BB0E659C603FABEE892E073,,,_498207.106beaf47bb0e659c603fabee892e073.mobi,0,2000-01-01 01:00:00,2016-04-03 02:51:08,726000/106beaf47bb0e659c603fabee892e073-d.jpg,,
22021150,Biology and the Foundations of Ethics (Cambridge Studies in Philosophy and Biology)  ,,,,"Jane Maienschein, Michael Ruse",1999,1,Cambridge University Press,,345,0,English ,,,2011 12 30,0521559235,,,,,171.7,,,,,,0,,,,1,0,1,1,16956155,pdf,106CFC52FCA9E1BECF22A1781C8D02C0,,,_507220.106cfc52fca9e1becf22a1781c8d02c0.pdf,0,2000-01-01 01:00:00,2016-04-03 02:51:08,726000/106cfc52fca9e1becf22a1781c8d02c0-d.jpg,,
22021151,Paradoxien bei Paulus. Untersuchungen zu einer elementaren Denkform in seiner Theologie (Neutestamentliche Abhandlungen N.F. 33)  ,,Neutestamentliche Abhandlungen (NTA) 33,,Gerhard Hotze,1997,,Aschendorff,,396,0,German ,,,2011 12 30,"3402047810,9783402047811",,,,,,,,,OL421478M,,0,,,,1,1,1,1,16482550,pdf,106DC297A1FB62040F09E4A7D6A5FD86,,,_508005.106dc297a1fb62040f09e4a7d6a5fd86.pdf,0,2000-01-01 01:00:00,2016-04-03 02:51:08,726000/106dc297a1fb62040f09e4a7d6a5fd86-g.jpg,,
22021152,The Three Pillars of Zen  ,,,,Philip Kapleau,1970,,Beacon Press,,384,0,English ,,,2011 12 30,"0807059757,9780807059753",,,,,294.3927,BQ9265.4 .K36 1965,,,OL21241445M,,0,,,,,1,1,1,74868853,pdf,106E03FCE882F67A11E28E06A9D70061,,,_502112.106e03fce882f67a11e28e06a9d70061.pdf,0,2000-01-01 01:00:00,2016-04-03 02:51:08,726000/106e03fce882f67a11e28e06a9d70061-d.jpg,,
22021153,Ecological Orbits: How Planets Move and Populations Grow  ,,,,"Lev Ginzburg, Mark Colyvan",2004,,"Oxford University Press, USA",,184,0,English ,,,2011 12 30,"019516816X,9780195168167",,,,,,,,9pZfyyRP0ccC,OL7390826M,,0,,,,1,0,1,1,1336708,pdf,106E430AFD319035300C196CF6B8EABC,,,_445036.106e430afd319035300c196cf6b8eabc.pdf,0,2000-01-01 01:00:00,2016-04-03 02:51:08,726000/106e430afd319035300c196cf6b8eabc-d.jpg,,
22021154,Salinger's The catcher in the rye (Reader's Guides)  ,,Reader's Guides,,Sarah Graham,2007,,Continuum,,129,0,English ,,,2011 12 30,"0826491324,9780826491329,0826491316,9780826491312",,,,,,,,,OL11454908M,,0,,,,1,1,1,1,4650874,pdf,106E93863593E551C4DA34D6B184E57B,,,_489974.106e93863593e551c4da34d6b184e57b.pdf,0,2000-01-01 01:00:00,2016-04-03 02:51:08,726000/106e93863593e551c4da34d6b184e57b-d.jpg,,
22021155,"Practical Matter: Newton's Science in the Service of Industry and Empire, 1687-1851  ",,,,"Margaret C. Jacob, Larry Stewart",2004,,Harvard University Press,,212,0,English ,,,2011 12 30,"0674014979,9780674014978",,,,,501,,,3qEVCg44RoAC,OL17138928M,Pictures Not Included,0,,,,1,0,1,1,799305,pdf,1071BE933F5048A7029847CE3DD23A0A,,,_499116.1071be933f5048a7029847ce3dd23a0a.pdf,0,2000-01-01 01:00:00,2016-04-03 02:51:08,726000/1071be933f5048a7029847ce3dd23a0a-d.jpg,,
22021156,Вопросы этногенеза и этнической истории славян и восточных романцев  ,,,,Королюк В.Д.,1976,,Наука,,170,0,Russian ,,,2011 12 30,,,,,,,,,,,,0,,,,0,1,0,0,5692659,pdf,1074169C5DB8B27B4E3025DA60F74153,,,_459118.1074169c5db8b27b4e3025da60f74153.pdf,0,2000-01-01 01:00:00,2016-04-03 02:51:08,726000/1074169c5db8b27b4e3025da60f74153-g.jpg,,
22021157,Fall from Grace  ,,,,David Ashton,2011,,Birlinn Limited,,282,0,English ,,,2011 12 30,"1846970504,9781846970504,9780857900371",,,,,,,,,,,0,,,,,1,,1,395242,epub,107432B40D2CCBBB981A28DA5151A0A7,,,_466246.107432b40d2ccbbb981a28da5151a0a7.epub,0,2000-01-01 01:00:00,2016-04-03 02:51:08,726000/107432b40d2ccbbb981a28da5151a0a7-d.jpg,,
22021158,The End of East  ,,,,Jen Sookfong Lee,2008,First Edition,St. Martin's Press,,206,0,English ,,,2011 12 30,"0312379854,9780312379858",,,,,813/.6,PR9199.4.L438 E53 2008,,,OL16655959M,,0,,,,,1,,1,930679,pdf,1074768BADA79DDB2C8F8506304A8321,,,_508342.1074768bada79ddb2c8f8506304a8321.pdf,0,2000-01-01 01:00:00,2016-04-03 02:51:08,726000/1074768bada79ddb2c8f8506304a8321-d.jpg,,
22021159,Frommer's Europe (Frommer's Complete Guides)  ,,Frommer's Complete Guides,,"Darwin Porter, Danforth Prince, George McDonald, Hana Mastrini, Sherry Marker, Andrew Princz, Carolyn Bánfalvy, Anna Kutor, Nóra Lakos, Suzanne Rowan Kelleher",2006,9th Edition,Frommer's,,1090,0,English ,,,2011 12 30,"047192265X,9780471922650",,,,,914.0456,,,KDLt2XVJaisC,OL7631020M,,0,,,,1,0,1,1,22086320,pdf,1076788BE9D96DC23DBD91E830FA00F1,,,_505449.1076788be9d96dc23dbd91e830fa00f1.pdf,0,2000-01-01 01:00:00,2016-04-03 02:51:08,726000/1076788be9d96dc23dbd91e830fa00f1-d.jpg,,
22021160,Early Civilizations of the Americas (The Britannica Guide to Ancient Civilizations)  ,,Ancient Civilizations,,Michael Anderson (editor),2012,,"Britannica Educational Publishing, Rosen Educational Services",,90,0,English ,,,2011 12 30,"1615305742,9781615305742",,,,,,,,,,,0,,,,1,0,1,1,15735348,pdf,1076A4DDFB8B26C59E47774C75163528,,,_459600.1076a4ddfb8b26c59e47774c75163528.pdf,0,2000-01-01 01:00:00,2016-04-03 02:51:08,726000/1076a4ddfb8b26c59e47774c75163528-g.jpg,,
22021161,"Marketing Research: An Applied Approach, 2nd Edition  ",,,,"Naresh K. Malhotra, David F. Birks",2005,2,Financial Times Management,Harlow [etc.],785,0,English ,,,2011 12 30,"0273695304,9780273695301",,,,,,,,,OL9363117M,,0,,,,,1,,1,20776695,pdf,1076F9D8AB37265ABB8D39917986E4B3,,,_438827.1076f9d8ab37265abb8d39917986e4b3.pdf,0,2000-01-01 01:00:00,2016-04-03 02:51:08,726000/1076f9d8ab37265abb8d39917986e4b3-d.jpg,,
22021162,"My Maven, My Everything  ",,,,Joyee Flynn,,,,,114,0,English ,,,2011 12 30,1-61034-408-1,,,,,,,,,,,0,,,,,1,,1,536245,pdf,1077076E092A09E63997AB84B30783D0,,,_444908.1077076e092a09e63997ab84b30783d0.pdf,0,2000-01-01 01:00:00,2016-04-03 02:51:08,726000/1077076e092a09e63997ab84b30783d0-g.jpg,,
22021163,101 Tissue Toppers in Plastic Canvas (Fun-To-Stitch)  ,,,,Laura Scott,2001,,House of White Birches,,167,0,English ,,,2011 12 30,,,,,,,,,,,,0,,,,,1,1,0,59865775,pdf,1077D19E390847B61D476B0934F20013,,,_465878.1077d19e390847b61d476b0934f20013.pdf,0,2000-01-01 01:00:00,2016-04-03 02:51:08,726000/1077d19e390847b61d476b0934f20013-g.jpg,,
22021164,Homo academicus  ,,,,Pierre Bourdieu,1984,,Editions de Minuit,,313,0,French ,,,2011 12 30,"2707306967,9782707306968",,,,,378/.12/0944,LB2331.74.F8 B68 1984,,,OL16817305M,,300,,,,,1,1,1,3902445,djvu,1078DA60CAF8910259F96BA47B4BC6E4,,,_489257.1078da60caf8910259f96ba47b4bc6e4.djvu,0,2000-01-01 01:00:00,2016-04-03 02:51:08,726000/1078da60caf8910259f96ba47b4bc6e4-g.jpg,,
22021165,בית-שערים : היישוב והקבורה לצידו  ,,,,יגאל טפר ויותם טפר,2004,,החברה לחקירת ארץ-ישראל ועתיקותיה הקיבוץ המאוחד,,292,0,Hebrew,,,2011 12 30,,,,,,,,,,,,0,,,,0,1,0,0,64153177,pdf,107902C65E962A4E739E9C68305ACA7F,,,_483235.107902c65e962a4e739e9c68305aca7f.pdf,0,2000-01-01 01:00:00,2016-04-03 02:51:08,726000/107902c65e962a4e739e9c68305aca7f-g.jpg,,
22021166,The Architecture Of Open Source Applications,,,,Amy Brown and Greg Wilson (eds.),2011,,lulu.com,,353,0,English,,,2011 12 30,"1257638017,9781257638017",,,,,,,,,,,0,,,,1,0,1,0,6119038,pdf,107945F3C3E64FC2D82FB560B506FDB3,,,_455957.107945f3c3e64fc2d82fb560b506fdb3.pdf,0,2000-01-01 01:00:00,2016-04-03 02:51:08,726000/107945F3C3E64FC2D82FB560B506FDB3-g.jpg,,
22021167,Ship of Thought: Essays on Psychoanalysis and Learning (Encyclopaedia of psychoanalysis Vol. 4)  ,,Encyclopaedia of psychoanalysis 4,,Duncan Barford,2002,,Karnac Books,,251,0,English ,,,2011 12 30,"1855752867,9781855752863",,,,,153.15,,,,OL8993993M,,0,,,,1,1,1,1,5923463,pdf,1079DD552C991D9CD817B6C86291DD24,,,_471938.1079dd552c991d9cd817b6c86291dd24.pdf,0,2000-01-01 01:00:00,2016-04-03 02:51:08,726000/1079dd552c991d9cd817b6c86291dd24-d.jpg,,
22021168,Liquid Smoke (Noah Braddock)  ,,,,Jeff Shelby,2011,,Tyrus Books,,,0,English ,,,2011 12 30,"1935562398,9781935562399",,,,,,,,,,,0,,,,,1,,,333799,epub,107A585ADF2B027C8686EEBAB5DF258A,,,_474841.107a585adf2b027c8686eebab5df258a.epub,0,2000-01-01 01:00:00,2016-04-03 02:51:08,726000/107a585adf2b027c8686eebab5df258a-d.jpg,,
22021169,Spektrum der Wissenschaft November 2006  issue 11,,,,Spektrum der Wissenschaft Verlag,2006,,,,104,0,German ,,,2011 12 30,,,,,,,,,,,,0,,,,0,0,0,1,10831706,pdf,107BBDEFED31041266D4AC2A91067499,,,_499991.107bbdefed31041266d4ac2a91067499.pdf,0,2000-01-01 01:00:00,2016-04-03 02:51:08,726000/107bbdefed31041266d4ac2a91067499-g.jpg,,
22021170,Bilder Schreiben: Virtuose Ekphrasis in Philostrats Eikones  ,,,,Mario Baumann,2011,1,Walter de Gruyter,,230,0,German ,,,2011 12 30,"3110254050,9783110254051",,,,,704.9/470938,PA4272.A5 Z5 2011,,d1JzHO95F0kC,OL24906100M,,0,,,,1,0,1,1,1126382,pdf,107C6ECD50CAE4CAAF937FAA5203C7DA,,,_504494.107c6ecd50cae4caaf937faa5203c7da.pdf,0,2000-01-01 01:00:00,2016-04-03 02:51:08,726000/107c6ecd50cae4caaf937faa5203c7da-d.jpg,,
22021171,Beginning ASP.NET 1.1 with VB.NET 2003  ,,,,"Chris Ullman, John Kauffman, Chris Hart, David Sussman",2004,1,Wrox,"Indianapolis, Ind",887,0,English ,92,,2011 12 30,"0-7645-5707-6,9780764557071,9780764568855,076456885X",,,,,006.7/6,TK5105.8885.A26 B4515 2004,,,OL3698892M,,0,,,,0,1,0,1,20899286,pdf,107CD424291E5377C8D99069474BA70B,,,_448735.107cd424291e5377c8d99069474ba70b.pdf,0,2000-01-01 01:00:00,2016-04-03 02:51:08,726000/107cd424291e5377c8d99069474ba70b-d.jpg,,
22021172,Teoría y práctica de la adaptación  ,,,,Robert Stam,2009,,,,104,0,"Spanish,Castilian",,,2011 12 30,,,,,,,,,,,,0,,,,,1,,1,953304,pdf,108071EFF00DDC890D630237F38F7183,,,_493363.108071eff00ddc890d630237f38f7183.pdf,0,2000-01-01 01:00:00,2016-04-03 02:51:08,726000/108071eff00ddc890d630237f38f7183-g.jpg,,
22021173,Clockwork Heart  ,,,,Dru Pagliasotti,2008,,Diamond Comic Distributors,,693,0,English ,,,2011 12 30,,,,,,,,,FupkGgAACAAJ,,,0,,,,,0,0,1,348050,epub,10811A09CF48E97333BA117CBDBC6E07,,,_453696.10811a09cf48e97333ba117cbdbc6e07.epub,0,2000-01-01 01:00:00,2016-04-03 02:51:08,726000/10811A09CF48E97333BA117CBDBC6E07-g.jpg,,
22021174,XML for the World Wide Web  ,,,,Elizabeth Castro,2000,1,Peachpit Press,,250,0,English ,70,,2011 12 30,"0201710986,9780201710984",,,,,005.72,QA76.76.H94 C3697 2001,,NljqefNKtPMC,OL3963139M,,0,,,,0,1,0,1,3239610,pdf,1082AE6BD630B68F83B7453F408AEC75,,,_475432.1082ae6bd630b68f83b7453f408aec75.pdf,0,2000-01-01 01:00:00,2016-04-03 02:51:08,726000/1082ae6bd630b68f83b7453f408aec75-d.jpg,,
22021175,ACCA P5 Advanced performance management (APM) Essential text  ,,,,Kaplan,,,,,432,0,English ,,,2011 12 30,,,,,,,,,,,,0,,,,,1,,1,9411865,pdf,1083FA0550C56ACA6CDE62EAB350AF94,,,_462371.1083fa0550c56aca6cde62eab350af94.pdf,0,2000-01-01 01:00:00,2016-04-03 02:51:08,726000/1083fa0550c56aca6cde62eab350af94-g.jpg,,
22021176,The Humors and Shakespeare's Characters  ,,,,John William Draper,1970,,Ams Pr Inc,,135,0,English ,,,2011 12 30,"0404021786,9780404021788",,,,,822.3/3,PR2989 .D7 1970,,,OL4577319M,,0,,,,,1,1,1,27760334,pdf,108545A14B038AC24CDC3C4A8A6DD9BE,,,_490694.108545a14b038ac24cdc3c4a8a6dd9be.pdf,0,2000-01-01 01:00:00,2016-04-03 02:51:08,726000/108545a14b038ac24cdc3c4a8a6dd9be-g.jpg,,
22021177,The Negrito and Allied Types in the Philippines and the Ilongot or Ibilao of Luzon  ,,,,David Prescott Barrows,2010,,General Books LLC,,,0,English ,,,2011 12 30,"1153813599,9781153813594",,,,,,,,,,,0,,,,0,1,,,309104,epub,108563614BE56E99B0864267E2350D37,,,_470623.108563614be56e99b0864267e2350d37.epub,0,2000-01-01 01:00:00,2016-04-03 02:51:08,726000/108563614be56e99b0864267e2350d37-d.jpg,,
22021178,The Mass: Four Encounters with Jesus That Will Change Your Life  ,,,,Dr. Tom Curran,2008,"2nd Edition, Includes Study Guide",My Catholic Faith Press,,69,0,English ,,,2011 12 30,"0981714501,9780981714509",,,,,,,,,OL24532999M,,0,,,,,1,,0,295138,pdf,1085655521BE929D78D255A84743C778,,,_488643.1085655521be929d78d255a84743c778.pdf,0,2000-01-01 01:00:00,2016-04-03 02:51:08,726000/1085655521be929d78d255a84743c778-d.jpg,,
22021179,"The New Cambridge Modern History, Vol. 4: The Decline of Spain and the Thirty Years War 1609-48 59  ",,The New Cambridge Modern History 4,,J. P. Cooper,1970,,Cambridge University Press,,750,0,English ,,,2011 12 30,"0521076188,9780521076180",,,,,909/.08,D258 .C66,,,OL24369418M,,0,,,,0,1,0,1,15005517,pdf,1088C9DAB99327A8251F371FEDBDDE6F,,,_457047.1088c9dab99327a8251f371fedbdde6f.pdf,0,2000-01-01 01:00:00,2016-04-03 02:51:08,726000/1088c9dab99327a8251f371fedbdde6f-d.jpg,,
22021180,Remembrance of Things Past 5&6 - Albertine Gone  ,,,,Marcel Proust,,,,,,0,English ,,,2011 12 30,,,,,,,,,,,,0,,,,,1,,,269021,epub,10893E9167233825CF08E81C390848C6,,,_435666.10893e9167233825cf08e81c390848c6.epub,0,2000-01-01 01:00:00,2016-04-03 02:51:08,726000/10893E9167233825CF08E81C390848C6-g.jpg,,
22021181,Literary Discourse: A Semiotic-Pragmatic Approach to Literature (Toronto Studies in Semiotics and Communication)  ,,,,Jørgen Dines Johansen,2002,1,"University of Toronto Press, Scholarly Publishing Division",,252,0,English ,,,2011 12 30,"0802035779,9780802035776",,,,,801/.95,P302.5 .J64 2002,,,OL3706578M,,0,,,,,1,,0,34782980,pdf,108A1DC7A5E4D73249E1A9DA554E1CD5,,,_491194.108a1dc7a5e4d73249e1a9da554e1cd5.pdf,0,2000-01-01 01:00:00,2016-04-03 02:51:08,726000/108a1dc7a5e4d73249e1a9da554e1cd5-d.jpg,,
22021182,Los santos inocentes  ,,,,Miguel Delibes,2007,,Editorial Critica,,,0,"Spanish,Castilian",,,2011 12 30,"8484325652,9788484325659,8408000187,9788408000181",,,,,,,,yb5ibOY_bmkC,OL15448164M,,0,,,,,1,,,216268,epub,108B3744B7CEEA6D1BD9C51FF40BCC39,,,_457605.108b3744b7ceea6d1bd9c51ff40bcc39.epub,0,2000-01-01 01:00:00,2016-04-03 02:51:08,726000/108b3744b7ceea6d1bd9c51ff40bcc39-d.jpg,,
22021183,Total quality assurance for the food industries 3rd Edition  ,,,,"WILBUR A. GOULD, RONALD W. GOULD",2001,Third Edition,Woodhead Publishing,,443,0,English ,,,2011 12 30,"184569600X,9781845696009",,,,,,,,,,Appendixes I and II and Indexes are missing,0,,,,0,1,0,1,25410884,pdf,108EABEDD090C2F4DF733CA798AC7692,,,_505261.108eabedd090c2f4df733ca798ac7692.pdf,0,2000-01-01 01:00:00,2016-04-03 02:51:08,726000/108eabedd090c2f4df733ca798ac7692-d.jpg,,
22021184,Shine: a powerful 4-step plan for becoming a star in anything you do  ,,,,Larry Thompson,2004,1st,McGraw-Hill Professional,,258,0,English ,,,2011 12 30,"0071426825,9780071426824,0071457283",,,,,158.1,BF637.S8 T48 2005,10.1036/0071457283,kPW5S_UdA0MC,OL23028016M,,0,,,,1,0,1,1,968841,pdf,108FDF13648FD7D160D70E288AA4F930,,,_441053.108fdf13648fd7d160d70e288aa4f930.pdf,0,2000-01-01 01:00:00,2016-04-03 02:51:08,726000/108fdf13648fd7d160d70e288aa4f930-d.jpg,,
22021185,Health Promotion for Nurses: Theory and Practice  ,,,,Stewart Piper,2009,1,Routledge,,251,0,English ,,,2011 12 30,"0415462622,9780415462624",,,,,610.73,RT90.3 .P56 2009,,h5zMrQeCObkC,OL17074530M,,0,,,,,0,,1,1792351,pdf,10908883BD614C0EC5670FD891265359,,,_443306.10908883bd614c0ec5670fd891265359.pdf,0,2000-01-01 01:00:00,2016-04-03 02:51:08,726000/10908883bd614c0ec5670fd891265359-d.jpg,,
22021186,Tempest-Tost (Salterton Trilogy 1)  ,,,,Robertson Davies,1980,,Penguin (Non-Classics),,,0,English ,,,2011 12 30,"0140167927,9780140167924",,,,,813.54,,,,OL7349186M,,0,,,,,1,,,283328,epub,1091110402C358692E8F233BB88091A0,,,_498685.1091110402c358692e8f233bb88091a0.epub,0,2000-01-01 01:00:00,2016-04-03 02:51:08,726000/1091110402C358692E8F233BB88091A0-g.jpg,,
22021187,Storia ecclesiastica. Volume 2 (Collana di Testi Patristici)  ,,Collana di Testi Patristici 159,,Eusebio di Cesarea,2005,2a,Città Nuova,,306,0,Italian ,,,2011 12 30,"8831131591,9788831131599",,,,,,,,,OL22670111M,,0,,,,1,1,1,1,9891313,pdf,10913ABD43FBC0E191C51088A2A945AC,,,_485636.10913abd43fbc0e191c51088a2a945ac.pdf,0,2000-01-01 01:00:00,2016-04-03 02:51:08,726000/10913abd43fbc0e191c51088a2a945ac-g.jpg,,
22021188,Temperature (Science for Everyone)  ,,Science for Everyone,,Ya. A. Smorodinsky,1988,,Mir Publishers,,270,0,English ,,,2011 12 30,5030002294,,,,,,,,,,,300,,,,0,1,0,1,32392439,pdf,1092C38516F5245B0C5346A9732C6F31,,,_434490.1092c38516f5245b0c5346a9732c6f31.pdf,0,2000-01-01 01:00:00,2016-04-03 02:51:08,726000/1092c38516f5245b0c5346a9732c6f31-g.jpg,,
22021189,Asian Students' Classroom Communication Patterns in U.S. Universities: An Emic Perspective  ,,Contemporary Studies in Second Language Learning,,Jun Liu,2001,,Ablex Publishing (Greenwood Publishing Group),,298,0,English ,,,2011 12 30,"1567506208,9781567506204,9780313016028",,,,,378.1/9829995073,PE1130.A2 L58 2001,,,OL10418283M,,0,,,,1,0,1,1,1490012,pdf,10935F92F8367CCF227D345AF34AA05B,,,_454547.10935f92f8367ccf227d345af34aa05b.pdf,0,2000-01-01 01:00:00,2016-04-03 02:51:08,726000/10935f92f8367ccf227d345af34aa05b-d.jpg,,
22021190,Selected studies. Vol. II Sanskrit Word Studies  ,,,,Jan Gonda,1975,,BRILL,,535,0,English ,,,2011 12 30,"9004042288,9789004042285",,,,,410,"P512 .G6,P512 G6",,8OGTJcMk_sUC,OL20729729M,,0,,,,1,1,1,1,21887486,pdf,10937D96573118EF7B16F09871CD281A,,,_441842.10937d96573118ef7b16f09871cd281a.pdf,0,2000-01-01 01:00:00,2016-04-03 02:51:08,726000/10937d96573118ef7b16f09871cd281a-g.jpg,,
22021191,Bringing Down the House: The Crisis in Britain's Regional Theatres  ,,,,Olivia Turnbull,2009,,Intellect Ltd,"Bristol, UK ; Chicago, USA",242,0,English ,,,2011 12 30,"1841502081,9781841502083,9781841502663,978-1-84150-211-3,978-1-84150-265-6,1841502669",,,,,,,,,,,0,,,,0,1,0,1,2968859,pdf,109698E091E82B3DDE1DB607D41C6098,,,_446873.109698e091e82b3dde1db607d41c6098.pdf,0,2000-01-01 01:00:00,2016-04-03 02:51:08,726000/109698e091e82b3dde1db607d41c6098-d.jpg,,
22021192,Spying on Science: Western Intelligence in Divided Germany 1945-1961  ,,,,Paul Maddrell,2006,,"Oxford University Press, USA",,345,0,English ,,,2011 12 30,"0199267502,9780199267507",,,,,327.1209171/3,UB251.G4 M338 2006,,,OL22722039M,,0,,,,1,0,1,1,1399750,pdf,10970C78D013909AFDD3BF078DB479BE,,,_460301.10970c78d013909afdd3bf078db479be.pdf,0,2000-01-01 01:00:00,2016-04-03 02:51:08,726000/10970c78d013909afdd3bf078db479be-d.jpg,,
22021193,Maturidiyye Akaidi  ,,,,Nüreddin Es-Sabuni Buhari,1979,,Diyanet İ.B. Yayinlar,,,0,Turkish ,,,2011 12 30,,,,,,,,,,,,0,,,,,1,,,697424,chm,10991E467FFFDC99FED1883F9DA9AEA7,,,_448656.10991e467fffdc99fed1883f9da9aea7.chm,0,2000-01-01 01:00:00,2016-04-03 02:51:08,,,
22021194,Luminescence in Public Health (Science for Everyone)  ,,Science for Everyone,,N. N Barashkov,1988,,Mir Publishers,,156,0,English ,,,2011 12 30,5030000577,,,,,,,,,OL2266556M,,0,,,,0,1,1,1,6497416,pdf,109C51205FA337B0959100079493C991,,,_511083.109c51205fa337b0959100079493c991.pdf,0,2000-01-01 01:00:00,2016-04-03 02:51:08,726000/109c51205fa337b0959100079493c991-g.jpg,,
22021195,Frommer's Italy 2012  ,,Frommer's Complete Guides 912,,"Darwin Porter, Danforth Prince",2011,7th,Wiley,,979,0,English ,,,2011 12 30,"111809431X,9781118094310,9781118017289,9781118076897,9781118094327,9781118094334",,,,,,,,,,,0,,,,1,0,1,1,153391118,pdf,109CAB8FD919993D9EEF06CA531D6A19,,,_506926.109cab8fd919993d9eef06ca531d6a19.pdf,0,2000-01-01 01:00:00,2016-04-03 02:51:08,726000/109cab8fd919993d9eef06ca531d6a19-d.jpg,,
22021196,"Pain Procedures in Clinical Practice: Expert Consult: Online and Print,Third Edition  ",,,,"Ted A. Lennard MD, David G Vivian MM BS FAFMM, Stevan DOW Walkowski, Aneesh K. Singla MD MPH",2011,Third Edition,Saunders,,652,0,English ,,,2011 12 30,"1416037799,9781416037798",,,,,616/.0472,RM700 .P46 2011,,,OL24822898M,,0,,,,1,0,1,1,72304060,pdf,109D6CA912F51C84CFD3B6985E47617E,,,_471012.109d6ca912f51c84cfd3b6985e47617e.pdf,0,2000-01-01 01:00:00,2016-04-03 02:51:08,726000/109d6ca912f51c84cfd3b6985e47617e-d.jpg,,
22021197,Dying to tell  ,,,,Robert Goddard,2001,First Edition,Bantam Press,,,0,English ,,,2011 12 30,"0593047583,9780593047583",,,,,823/.914,PR6057.O33 D95 2001,,6Ox5AAAACAAJ,OL3618836M,,0,,,,,1,,,317657,epub,109E95C18101EC89ECC1C8EA2A069152,,,_488681.109e95c18101ec89ecc1c8ea2a069152.epub,0,2000-01-01 01:00:00,2016-04-03 02:51:08,726000/109e95c18101ec89ecc1c8ea2a069152-d.jpg,,
22021198,Opus ultimum: the story of the Mozart Requiem  ,,,,Daniel N. Leeson,2004,illustrated edition,Algora Publishing,,184,0,English ,,,2011 12 30,"0875863280,9780875863283,0875863299,9780875863290,0875863302",,,,,782.32/38,ML410.M9 L274 2004,,ClPQRwL2sv4C,OL3295368M,,0,,,,1,0,1,1,1337881,pdf,10A15E43AA43BCA7C2FA3BBF40D7F01E,,,_443032.10a15e43aa43bca7c2fa3bbf40d7f01e.pdf,0,2000-01-01 01:00:00,2016-04-03 02:51:08,726000/10a15e43aa43bca7c2fa3bbf40d7f01e-d.jpg,,
22021199,My Scandalous Bride  ,,,,"Christina Dodd, Stephanie Laurens, Celeste Bradley, Leslie Lafoy",2004,,St. Martin's Paperbacks,,299,0,English ,,,2011 12 30,"0312995229,9780312995225",,,,,808.8385,PS648.L6 M95 2004,,,OL24214827M,,0,,,,,1,,1,1265749,pdf,10A245BEFF0C33B5317E7DC2D6C3D7B2,,,_454034.10a245beff0c33b5317e7dc2d6c3d7b2.pdf,0,2000-01-01 01:00:00,2016-04-03 02:51:08,726000/10a245beff0c33b5317e7dc2d6c3d7b2-d.jpg,,
22021200,"Dreaming in the Classroom: Practices, Methods, and Resources in Dream Education (S U N Y Series in Dream Studies)  ",,SUNY Series in Dream Studies,,"Philip King, Bernard Welt, Kelly Bulkeley",2011,,State Univ of New York Press,,323,0,English ,,,2011 12 30,"1438436866,9781438436869,1438436874,9781438436876",,,,,154.63071,,,kU6qFLBwkRkC,,,0,,,,1,0,1,1,1033014,pdf,10A34B529F4082E6E232DBFD17308805,,,_464922.10a34b529f4082e6e232dbfd17308805.pdf,0,2000-01-01 01:00:00,2016-04-03 02:51:08,726000/10a34b529f4082e6e232dbfd17308805-d.jpg,,
22021201,ASTERIX Y LA SORPRESA DEL CESAR  ,,,,Goscinny Rene,2001,1st.,Unknown,,66,0,"Spanish,Castilian",,,2011 12 30,"8434508370,9788434508378",,,,,,,,,,,0,,,,,1,1,0,13461828,pdf,10A370194D54CB3C20561E5B96402962,,,_455023.10a370194d54cb3c20561e5b96402962.pdf,0,2000-01-01 01:00:00,2016-04-03 02:51:08,726000/10a370194d54cb3c20561e5b96402962-d.jpg,,
22021202,The Hunt  ,,,,David Sherman,,,CreateSpace,,234,0,English ,,,2011 12 30,"143483669X,9781434836694",,,,,,,,,,,0,,,,,1,,1,912982,pdf,10A370964C2D7A0BE6FE498E033D601A,,,_352702.10a370964c2d7a0be6fe498e033d601a.pdf,0,2000-01-01 01:00:00,2016-04-03 02:51:08,726000/10a370964c2d7a0be6fe498e033d601a-d.jpg,,
22021203,"Embarazo, Parto y Puerperio - Principales Complicaciones  ",,,,"Vazquez Cabrera, J.",2010,,Editorial Ciencias Medicas,,314,0,"Spanish,Castilian",,,2011 12 30,9789592125629,,,,,,,,,,,0,,,,,1,1,1,1814937,pdf,10A47CEAB406CAC6DA095BC530E3816A,,,_487917.10a47ceab406cac6da095bc530e3816a.pdf,0,2000-01-01 01:00:00,2016-04-03 02:51:08,726000/10a47ceab406cac6da095bc530e3816a-g.jpg,,
22021204,"Tel Aviv Topology Conference: Rothenberg Festschrif : International Conference on Topology, June 1-5, 1998 Tel Aviv (Contemporary Mathematics)  ",,,,"Michael Farber, Wolfgang Luck, Shmuel Weinberger",,,Amer Mathematical Society,,326,0,English ,,,2011 12 30,"0821813625,9780821813621",,,,,514,QA611.A1 I53  1998,,,OL31961M,,0,,,,,1,,0,2593316,djvu,10A4B60ABC877B26E4A6422C0792A762,,,_205310.10a4b60abc877b26e4a6422c0792a762.djvu,0,2000-01-01 01:00:00,2016-04-03 02:51:08,726000/10a4b60abc877b26e4a6422c0792a762-d.jpg,,
22021205,Okinawa: The Last Battle of World War II  ,,,,Robert Leckie,1996,Reprint,Penguin (Non-Classics),,,0,English ,,,2011 12 30,"0140173897,9780140173895",,,,,940.54/25,,,,OL23096961M,,0,,,,,1,1,1,265186,epub,10A5B7566A78029B9749EEA2087B1CEA,,,_506316.10a5b7566a78029b9749eea2087b1cea.epub,0,2000-01-01 01:00:00,2016-04-03 02:51:08,726000/10a5b7566a78029b9749eea2087b1cea-d.jpg,,
22021206,Jesus and Judaism  ,,,,E. P Sanders,1985,1st Fortress Press ed,Fortress Press,,459,0,English ,,,2011 12 30,"0800607430,9780800607432",,,,,232.9,BT590.J8 S26 1985,,Ng9JaKKaeCIC,OL2869694M,,600,,,,1,1,1,1,7452285,pdf,10A5D04F6CFCE275763D739933CB93EF,,,_489512.10a5d04f6cfce275763d739933cb93ef.pdf,0,2000-01-01 01:00:00,2016-04-03 02:51:08,726000/10a5d04f6cfce275763d739933cb93ef-d.jpg,,
22021207,Diccionario de Numismática  ,,,,Carmen ALFARO ASINS et alii,2009,,Ministerio de Cultura - Secretaría General Técnica,,455,0,"Spanish,Castilian",,,2011 12 30,9788481814057,,,,,,,,,,,0,,,,1,0,1,1,8145078,pdf,10A6D3A2CD69A5B35E3DE25D45641F0E,,,_449877.10a6d3a2cd69a5b35e3de25d45641f0e.pdf,0,2000-01-01 01:00:00,2016-04-03 02:51:08,726000/10a6d3a2cd69a5b35e3de25d45641f0e-g.jpg,,
22021208,Vorlesungen über Geschichte der antiken mathematischen Wissenchaften. Erster Band. Vorgriechische Mathematik  ,,,,Otto Neugebauer,,,,,112,0,German ,,,2011 12 30,,,,,,,,,,,,0,,,,0,1,0,1,4507229,pdf,10A755B7C8020B709D329A8544692292,,,_490597.10a755b7c8020b709d329a8544692292.pdf,0,2000-01-01 01:00:00,2016-04-03 02:51:08,726000/10a755b7c8020b709d329a8544692292-g.jpg,,
22021209,Yoga: the path to holistic health  ,,,,B. K. S. Iyengar,2001,,Dorling Kindersley,,418,0,English ,,,2011 12 30,"0751321672,9780751321678",,,,,613.7046,,,IwUlAAAACAAJ,OL15599259M,,300,,,,0,1,1,0,87381881,pdf,10A7A725D386484D37A3E66519EC831E,,,_459755.10a7a725d386484d37a3e66519ec831e.pdf,0,2000-01-01 01:00:00,2016-04-03 02:51:08,726000/10a7a725d386484d37a3e66519ec831e-d.jpg,,
22021210,"Science and Civilisation in China, Vol. 4: Physics and Physical Technology, Part 3: Civil Engineering and Nautics  ",,,,Joseph Needham,1971,,Cambridge University Press,,594,0,English ,,,2011 12 30,"0521070600,9780521070607",,,,,,,,,OL7716595M,,0,,,,0,1,0,1,142466362,pdf,10A8BD25E8312CA096CE518AC74AFD64,,,_471215.10a8bd25e8312ca096ce518ac74afd64.pdf,0,2000-01-01 01:00:00,2016-04-03 02:51:08,726000/10a8bd25e8312ca096ce518ac74afd64-d.jpg,,
22021211,Java for dummies,,For dummies,,Barry Burd,2011,5,Wiley,,435,0,English,92,,2011 12 30,"0470371730,9780470371732",,,,,"005.13/3,005.2762",QA76.73.J38 B87 2011,,oKGJPAAACAAJ,,,0,,,,1,0,1,1,3479693,pdf,10A900DB88F5FB82C4A9A96E551AB511,,,_465578.10a900db88f5fb82c4a9a96e551ab511.pdf,0,2000-01-01 01:00:00,2016-04-03 02:51:08,726000/10a900db88f5fb82c4a9a96e551ab511-d.jpg,,
22021212,Community Detection and Mining in Social Media  ,,,,"Lei Tang, Huan Liu",2010,,Morgan & Claypool,,137,0,English ,,,2011 12 30,"1608453545,9781608453542",,,,,006.754,,10.2200/S00298ED1V01Y201009DMK003,,,,0,,,,,0,1,1,1802723,pdf,10A96385955B8C4A776F1F4A62AD62EC,,,_507234.10a96385955b8c4a776f1f4a62ad62ec.pdf,0,2000-01-01 01:00:00,2016-04-03 02:51:08,726000/10a96385955b8c4a776f1f4a62ad62ec-d.jpg,,
22021213,Ambrose and John Chrysostom: Clerics between Desert and Empire  ,,,,J. H. W. G. Liebeschuetz,2011,,"Oxford University Press, USA",,316,0,English ,,,2011 12 30,"0199596646,9780199596645",,,,,270.10922,BR1710 .L54 2011,,MYtM9JT8FooC,OL24852477M,,0,,,,1,0,1,1,1246372,pdf,10A984D2AA98F4F9255622D8945E46FB,,,_475346.10a984d2aa98f4f9255622d8945e46fb.pdf,0,2000-01-01 01:00:00,2016-04-03 02:51:08,726000/10a984d2aa98f4f9255622d8945e46fb-d.jpg,,
22021214,M1 Abrams vs T-72 Ural  ,,,,Zaloga Steven J.,2010,,Grada Publishing a.s.,,84,0,Czech ,,,2011 12 30,"8024734451,9788024734453",,,,,,,,DzPIj9t-kKsC,,,0,,,,,1,,0,38875638,pdf,10AB102FB549E23CDB8C680F2C5A20FC,,,_489081.10ab102fb549e23cdb8c680f2c5a20fc.pdf,0,2000-01-01 01:00:00,2016-04-03 02:51:08,726000/10ab102fb549e23cdb8c680f2c5a20fc-g.jpg,,
